    1C
    1UUSER                                                              
    1UDATE              27.october.2022                                 
    1UTIME              01:15:00                                        
    1UHOST                                                              
    1UPGM               CalculiX                                        
    1UVERSION           Version 2.17                             
    1UCOMPILETIME       Thu Jul 23 21:43:50 CEST 2020                    
    1UDIR                                                               
    1UDBN                                                               
    1UMAT    1SOLIDMATERIAL                                             
    2C                          4360                                     1
 -1         1 8.44786E+01 4.24555E+01 0.00000E+00
 -1         2 8.98820E+01 3.56400E+01 0.00000E+00
 -1         3 1.50000E+02 0.00000E+00 0.00000E+00
 -1         4 1.50000E+02 5.00000E+01 0.00000E+00
 -1         5 0.00000E+00 0.00000E+00 0.00000E+00
 -1         6 0.00000E+00 5.00000E+01 0.00000E+00
 -1         7 0.00000E+00 4.70500E+01 0.00000E+00
 -1         8 0.00000E+00 4.41000E+01 0.00000E+00
 -1         9 0.00000E+00 4.11500E+01 0.00000E+00
 -1        10 0.00000E+00 3.82000E+01 0.00000E+00
 -1        11 0.00000E+00 3.52500E+01 0.00000E+00
 -1        12 0.00000E+00 3.23500E+01 0.00000E+00
 -1        13 0.00000E+00 2.94000E+01 0.00000E+00
 -1        14 0.00000E+00 2.64500E+01 0.00000E+00
 -1        15 0.00000E+00 2.35000E+01 0.00000E+00
 -1        16 0.00000E+00 2.05500E+01 0.00000E+00
 -1        17 0.00000E+00 1.76000E+01 0.00000E+00
 -1        18 0.00000E+00 1.47000E+01 0.00000E+00
 -1        19 0.00000E+00 1.17500E+01 0.00000E+00
 -1        20 0.00000E+00 8.80000E+00 0.00000E+00
 -1        21 0.00000E+00 5.85000E+00 0.00000E+00
 -1        22 0.00000E+00 2.90000E+00 0.00000E+00
 -1        23 3.00000E+00 5.00000E+01 0.00000E+00
 -1        24 6.00000E+00 5.00000E+01 0.00000E+00
 -1        25 9.00000E+00 5.00000E+01 0.00000E+00
 -1        26 1.20000E+01 5.00000E+01 0.00000E+00
 -1        27 1.50000E+01 5.00000E+01 0.00000E+00
 -1        28 1.80000E+01 5.00000E+01 0.00000E+00
 -1        29 2.08500E+01 5.00000E+01 0.00000E+00
 -1        30 2.38500E+01 5.00000E+01 0.00000E+00
 -1        31 2.68500E+01 5.00000E+01 0.00000E+00
 -1        32 2.98500E+01 5.00000E+01 0.00000E+00
 -1        33 3.28500E+01 5.00000E+01 0.00000E+00
 -1        34 3.58500E+01 5.00000E+01 0.00000E+00
 -1        35 3.87000E+01 5.00000E+01 0.00000E+00
 -1        36 4.17000E+01 5.00000E+01 0.00000E+00
 -1        37 4.47000E+01 5.00000E+01 0.00000E+00
 -1        38 4.77000E+01 5.00000E+01 0.00000E+00
 -1        39 5.07000E+01 5.00000E+01 0.00000E+00
 -1        40 5.37000E+01 5.00000E+01 0.00000E+00
 -1        41 5.65500E+01 5.00000E+01 0.00000E+00
 -1        42 5.95500E+01 5.00000E+01 0.00000E+00
 -1        43 6.25500E+01 5.00000E+01 0.00000E+00
 -1        44 6.55500E+01 5.00000E+01 0.00000E+00
 -1        45 6.85500E+01 5.00000E+01 0.00000E+00
 -1        46 7.15500E+01 5.00000E+01 0.00000E+00
 -1        47 7.42500E+01 5.00000E+01 0.00000E+00
 -1        48 7.72500E+01 5.00000E+01 0.00000E+00
 -1        49 7.99500E+01 5.00000E+01 0.00000E+00
 -1        50 8.23500E+01 5.00000E+01 0.00000E+00
 -1        51 8.49000E+01 5.00000E+01 0.00000E+00
 -1        52 8.76000E+01 5.00000E+01 0.00000E+00
 -1        53 9.06000E+01 5.00000E+01 0.00000E+00
 -1        54 9.36000E+01 5.00000E+01 0.00000E+00
 -1        55 9.64500E+01 5.00000E+01 0.00000E+00
 -1        56 9.94500E+01 5.00000E+01 0.00000E+00
 -1        57 1.02450E+02 5.00000E+01 0.00000E+00
 -1        58 1.05450E+02 5.00000E+01 0.00000E+00
 -1        59 1.08450E+02 5.00000E+01 0.00000E+00
 -1        60 1.11450E+02 5.00000E+01 0.00000E+00
 -1        61 1.14300E+02 5.00000E+01 0.00000E+00
 -1        62 1.17300E+02 5.00000E+01 0.00000E+00
 -1        63 1.20300E+02 5.00000E+01 0.00000E+00
 -1        64 1.23300E+02 5.00000E+01 0.00000E+00
 -1        65 1.26300E+02 5.00000E+01 0.00000E+00
 -1        66 1.29300E+02 5.00000E+01 0.00000E+00
 -1        67 1.32150E+02 5.00000E+01 0.00000E+00
 -1        68 1.35150E+02 5.00000E+01 0.00000E+00
 -1        69 1.38150E+02 5.00000E+01 0.00000E+00
 -1        70 1.41150E+02 5.00000E+01 0.00000E+00
 -1        71 1.44150E+02 5.00000E+01 0.00000E+00
 -1        72 1.47150E+02 5.00000E+01 0.00000E+00
 -1        73 3.15000E+00 0.00000E+00 0.00000E+00
 -1        74 6.15000E+00 0.00000E+00 0.00000E+00
 -1        75 9.15000E+00 0.00000E+00 0.00000E+00
 -1        76 1.21500E+01 0.00000E+00 0.00000E+00
 -1        77 1.51500E+01 0.00000E+00 0.00000E+00
 -1        78 1.81500E+01 0.00000E+00 0.00000E+00
 -1        79 2.11500E+01 0.00000E+00 0.00000E+00
 -1        80 2.41500E+01 0.00000E+00 0.00000E+00
 -1        81 2.71500E+01 0.00000E+00 0.00000E+00
 -1        82 3.01500E+01 0.00000E+00 0.00000E+00
 -1        83 3.31500E+01 0.00000E+00 0.00000E+00
 -1        84 3.61500E+01 0.00000E+00 0.00000E+00
 -1        85 3.91500E+01 0.00000E+00 0.00000E+00
 -1        86 4.21500E+01 0.00000E+00 0.00000E+00
 -1        87 4.51500E+01 0.00000E+00 0.00000E+00
 -1        88 4.81500E+01 0.00000E+00 0.00000E+00
 -1        89 5.11500E+01 0.00000E+00 0.00000E+00
 -1        90 5.41500E+01 0.00000E+00 0.00000E+00
 -1        91 5.71500E+01 0.00000E+00 0.00000E+00
 -1        92 6.01500E+01 0.00000E+00 0.00000E+00
 -1        93 6.31500E+01 0.00000E+00 0.00000E+00
 -1        94 6.61500E+01 0.00000E+00 0.00000E+00
 -1        95 6.91500E+01 0.00000E+00 0.00000E+00
 -1        96 7.21500E+01 0.00000E+00 0.00000E+00
 -1        97 7.51500E+01 0.00000E+00 0.00000E+00
 -1        98 7.81500E+01 0.00000E+00 0.00000E+00
 -1        99 8.11500E+01 0.00000E+00 0.00000E+00
 -1       100 8.41500E+01 0.00000E+00 0.00000E+00
 -1       101 8.71500E+01 0.00000E+00 0.00000E+00
 -1       102 9.01500E+01 0.00000E+00 0.00000E+00
 -1       103 9.31500E+01 0.00000E+00 0.00000E+00
 -1       104 9.61500E+01 0.00000E+00 0.00000E+00
 -1       105 9.91500E+01 0.00000E+00 0.00000E+00
 -1       106 1.02150E+02 0.00000E+00 0.00000E+00
 -1       107 1.05150E+02 0.00000E+00 0.00000E+00
 -1       108 1.08150E+02 0.00000E+00 0.00000E+00
 -1       109 1.11150E+02 0.00000E+00 0.00000E+00
 -1       110 1.14150E+02 0.00000E+00 0.00000E+00
 -1       111 1.17150E+02 0.00000E+00 0.00000E+00
 -1       112 1.20150E+02 0.00000E+00 0.00000E+00
 -1       113 1.23150E+02 0.00000E+00 0.00000E+00
 -1       114 1.26150E+02 0.00000E+00 0.00000E+00
 -1       115 1.29150E+02 0.00000E+00 0.00000E+00
 -1       116 1.32150E+02 0.00000E+00 0.00000E+00
 -1       117 1.35150E+02 0.00000E+00 0.00000E+00
 -1       118 1.38150E+02 0.00000E+00 0.00000E+00
 -1       119 1.41150E+02 0.00000E+00 0.00000E+00
 -1       120 1.44150E+02 0.00000E+00 0.00000E+00
 -1       121 1.47150E+02 0.00000E+00 0.00000E+00
 -1       122 1.50000E+02 2.95000E+00 0.00000E+00
 -1       123 1.50000E+02 5.90000E+00 0.00000E+00
 -1       124 1.50000E+02 8.85000E+00 0.00000E+00
 -1       125 1.50000E+02 1.18000E+01 0.00000E+00
 -1       126 1.50000E+02 1.47500E+01 0.00000E+00
 -1       127 1.50000E+02 1.76500E+01 0.00000E+00
 -1       128 1.50000E+02 2.06000E+01 0.00000E+00
 -1       129 1.50000E+02 2.35500E+01 0.00000E+00
 -1       130 1.50000E+02 2.65000E+01 0.00000E+00
 -1       131 1.50000E+02 2.94500E+01 0.00000E+00
 -1       132 1.50000E+02 3.24000E+01 0.00000E+00
 -1       133 1.50000E+02 3.53000E+01 0.00000E+00
 -1       134 1.50000E+02 3.82500E+01 0.00000E+00
 -1       135 1.50000E+02 4.12000E+01 0.00000E+00
 -1       136 1.50000E+02 4.41500E+01 0.00000E+00
 -1       137 1.50000E+02 4.71000E+01 0.00000E+00
 -1       138 8.97253E+01 3.41672E+01 0.00000E+00
 -1       139 8.92613E+01 3.27581E+01 0.00000E+00
 -1       140 8.84707E+01 3.14249E+01 0.00000E+00
 -1       141 8.75112E+01 3.03892E+01 0.00000E+00
 -1       142 8.61743E+01 2.94625E+01 0.00000E+00
 -1       143 8.48035E+01 2.89089E+01 0.00000E+00
 -1       144 8.32698E+01 2.86507E+01 0.00000E+00
 -1       145 8.16991E+01 2.87407E+01 0.00000E+00
 -1       146 8.02733E+01 2.91443E+01 0.00000E+00
 -1       147 7.90054E+01 2.98115E+01 0.00000E+00
 -1       148 7.78706E+01 3.07527E+01 0.00000E+00
 -1       149 7.69916E+01 3.18580E+01 0.00000E+00
 -1       150 7.63128E+01 3.32222E+01 0.00000E+00
 -1       151 7.59615E+01 3.45879E+01 0.00000E+00
 -1       152 7.58949E+01 3.60639E+01 0.00000E+00
 -1       153 7.61261E+01 3.74722E+01 0.00000E+00
 -1       154 7.66992E+01 3.89221E+01 0.00000E+00
 -1       155 7.75045E+01 4.01214E+01 0.00000E+00
 -1       156 7.86721E+01 4.12325E+01 0.00000E+00
 -1       157 7.98727E+01 4.19601E+01 0.00000E+00
 -1       158 8.14054E+01 4.24825E+01 0.00000E+00
 -1       159 8.30074E+01 4.26389E+01 0.00000E+00
 -1       160 8.59403E+01 4.19366E+01 0.00000E+00
 -1       161 8.72658E+01 4.10973E+01 0.00000E+00
 -1       162 8.83706E+01 3.99845E+01 0.00000E+00
 -1       163 8.91914E+01 3.86718E+01 0.00000E+00
 -1       164 8.97214E+01 3.71309E+01 0.00000E+00
 -1       165 2.59800E+00 4.55750E+01 0.00000E+00
 -1       166 2.59800E+00 4.26250E+01 0.00000E+00
 -1       167 2.59800E+00 3.96750E+01 0.00000E+00
 -1       168 2.59800E+00 3.67250E+01 0.00000E+00
 -1       169 2.59800E+00 3.38250E+01 0.00000E+00
 -1       170 2.59800E+00 3.08750E+01 0.00000E+00
 -1       171 2.59800E+00 2.79250E+01 0.00000E+00
 -1       172 2.59800E+00 2.49750E+01 0.00000E+00
 -1       173 2.59800E+00 2.20250E+01 0.00000E+00
 -1       174 2.59800E+00 1.90750E+01 0.00000E+00
 -1       175 2.59800E+00 1.61750E+01 0.00000E+00
 -1       176 2.59800E+00 1.32250E+01 0.00000E+00
 -1       177 2.59800E+00 1.02750E+01 0.00000E+00
 -1       178 2.59800E+00 7.32500E+00 0.00000E+00
 -1       179 2.59800E+00 4.37500E+00 0.00000E+00
 -1       180 2.87400E+00 2.18750E+00 0.00000E+00
 -1       181 4.50000E+00 4.74020E+01 0.00000E+00
 -1       182 7.50000E+00 4.74020E+01 0.00000E+00
 -1       183 1.05000E+01 4.74020E+01 0.00000E+00
 -1       184 1.35000E+01 4.74020E+01 0.00000E+00
 -1       185 1.65000E+01 4.74020E+01 0.00000E+00
 -1       186 1.93500E+01 4.74020E+01 0.00000E+00
 -1       187 2.23500E+01 4.74020E+01 0.00000E+00
 -1       188 2.53500E+01 4.74020E+01 0.00000E+00
 -1       189 2.83500E+01 4.74020E+01 0.00000E+00
 -1       190 3.13500E+01 4.74020E+01 0.00000E+00
 -1       191 3.43500E+01 4.74020E+01 0.00000E+00
 -1       192 3.72000E+01 4.74020E+01 0.00000E+00
 -1       193 4.02000E+01 4.74020E+01 0.00000E+00
 -1       194 4.32000E+01 4.74020E+01 0.00000E+00
 -1       195 4.62000E+01 4.74020E+01 0.00000E+00
 -1       196 4.92000E+01 4.74020E+01 0.00000E+00
 -1       197 5.22000E+01 4.74020E+01 0.00000E+00
 -1       198 5.50500E+01 4.74020E+01 0.00000E+00
 -1       199 5.80500E+01 4.74020E+01 0.00000E+00
 -1       200 6.10500E+01 4.74020E+01 0.00000E+00
 -1       201 6.40500E+01 4.74020E+01 0.00000E+00
 -1       202 6.70500E+01 4.74020E+01 0.00000E+00
 -1       203 7.00500E+01 4.74020E+01 0.00000E+00
 -1       204 7.27500E+01 4.74020E+01 0.00000E+00
 -1       205 7.57500E+01 4.74020E+01 0.00000E+00
 -1       206 7.84500E+01 4.74020E+01 0.00000E+00
 -1       207 8.08500E+01 4.74020E+01 0.00000E+00
 -1       208 8.34000E+01 4.74020E+01 0.00000E+00
 -1       209 8.61000E+01 4.74020E+01 0.00000E+00
 -1       210 8.91000E+01 4.74020E+01 0.00000E+00
 -1       211 9.21000E+01 4.74020E+01 0.00000E+00
 -1       212 9.49500E+01 4.74020E+01 0.00000E+00
 -1       213 9.79500E+01 4.74020E+01 0.00000E+00
 -1       214 1.00950E+02 4.74020E+01 0.00000E+00
 -1       215 1.03950E+02 4.74020E+01 0.00000E+00
 -1       216 1.06950E+02 4.74020E+01 0.00000E+00
 -1       217 1.09950E+02 4.74020E+01 0.00000E+00
 -1       218 1.12800E+02 4.74020E+01 0.00000E+00
 -1       219 1.15800E+02 4.74020E+01 0.00000E+00
 -1       220 1.18800E+02 4.74020E+01 0.00000E+00
 -1       221 1.21800E+02 4.74020E+01 0.00000E+00
 -1       222 1.24800E+02 4.74020E+01 0.00000E+00
 -1       223 1.27800E+02 4.74020E+01 0.00000E+00
 -1       224 1.30650E+02 4.74020E+01 0.00000E+00
 -1       225 1.33650E+02 4.74020E+01 0.00000E+00
 -1       226 1.36650E+02 4.74020E+01 0.00000E+00
 -1       227 1.39650E+02 4.74020E+01 0.00000E+00
 -1       228 1.42650E+02 4.74020E+01 0.00000E+00
 -1       229 1.45650E+02 4.74020E+01 0.00000E+00
 -1       230 5.87400E+00 2.18750E+00 0.00000E+00
 -1       231 8.87400E+00 2.18750E+00 0.00000E+00
 -1       232 1.18740E+01 2.18750E+00 0.00000E+00
 -1       233 1.48740E+01 2.18750E+00 0.00000E+00
 -1       234 1.78740E+01 2.18750E+00 0.00000E+00
 -1       235 2.08740E+01 2.18750E+00 0.00000E+00
 -1       236 2.38740E+01 2.18750E+00 0.00000E+00
 -1       237 2.68740E+01 2.18750E+00 0.00000E+00
 -1       238 2.98740E+01 2.18750E+00 0.00000E+00
 -1       239 3.28740E+01 2.18750E+00 0.00000E+00
 -1       240 3.58740E+01 2.18750E+00 0.00000E+00
 -1       241 3.88740E+01 2.18750E+00 0.00000E+00
 -1       242 4.18740E+01 2.18750E+00 0.00000E+00
 -1       243 4.48740E+01 2.18750E+00 0.00000E+00
 -1       244 4.78740E+01 2.18750E+00 0.00000E+00
 -1       245 5.08740E+01 2.18750E+00 0.00000E+00
 -1       246 5.38740E+01 2.18750E+00 0.00000E+00
 -1       247 5.68740E+01 2.18750E+00 0.00000E+00
 -1       248 5.98740E+01 2.18750E+00 0.00000E+00
 -1       249 6.28740E+01 2.18750E+00 0.00000E+00
 -1       250 6.58740E+01 2.18750E+00 0.00000E+00
 -1       251 6.88740E+01 2.18750E+00 0.00000E+00
 -1       252 7.18740E+01 2.18750E+00 0.00000E+00
 -1       253 7.48740E+01 2.18750E+00 0.00000E+00
 -1       254 7.78740E+01 2.18750E+00 0.00000E+00
 -1       255 8.08740E+01 2.18750E+00 0.00000E+00
 -1       256 8.38740E+01 2.18750E+00 0.00000E+00
 -1       257 8.68740E+01 2.18750E+00 0.00000E+00
 -1       258 8.98740E+01 2.18750E+00 0.00000E+00
 -1       259 9.28740E+01 2.18750E+00 0.00000E+00
 -1       260 9.58740E+01 2.18750E+00 0.00000E+00
 -1       261 9.88740E+01 2.18750E+00 0.00000E+00
 -1       262 1.01874E+02 2.18750E+00 0.00000E+00
 -1       263 1.04874E+02 2.18750E+00 0.00000E+00
 -1       264 1.07874E+02 2.18750E+00 0.00000E+00
 -1       265 1.10874E+02 2.18750E+00 0.00000E+00
 -1       266 1.13874E+02 2.18750E+00 0.00000E+00
 -1       267 1.16874E+02 2.18750E+00 0.00000E+00
 -1       268 1.19874E+02 2.18750E+00 0.00000E+00
 -1       269 1.22874E+02 2.18750E+00 0.00000E+00
 -1       270 1.25874E+02 2.18750E+00 0.00000E+00
 -1       271 1.28874E+02 2.18750E+00 0.00000E+00
 -1       272 1.31874E+02 2.18750E+00 0.00000E+00
 -1       273 1.34874E+02 2.18750E+00 0.00000E+00
 -1       274 1.37874E+02 2.18750E+00 0.00000E+00
 -1       275 1.40874E+02 2.18750E+00 0.00000E+00
 -1       276 1.43874E+02 2.18750E+00 0.00000E+00
 -1       277 1.46874E+02 2.18750E+00 0.00000E+00
 -1       278 1.47402E+02 4.42500E+00 0.00000E+00
 -1       279 1.47402E+02 7.37500E+00 0.00000E+00
 -1       280 1.47402E+02 1.03250E+01 0.00000E+00
 -1       281 1.47402E+02 1.32750E+01 0.00000E+00
 -1       282 1.47402E+02 1.61750E+01 0.00000E+00
 -1       283 1.47402E+02 1.91250E+01 0.00000E+00
 -1       284 1.47402E+02 2.20750E+01 0.00000E+00
 -1       285 1.47402E+02 2.50250E+01 0.00000E+00
 -1       286 1.47402E+02 2.79750E+01 0.00000E+00
 -1       287 1.47402E+02 3.09250E+01 0.00000E+00
 -1       288 1.47402E+02 3.38250E+01 0.00000E+00
 -1       289 1.47402E+02 3.67750E+01 0.00000E+00
 -1       290 1.47402E+02 3.97250E+01 0.00000E+00
 -1       291 1.47402E+02 4.26750E+01 0.00000E+00
 -1       292 9.10926E+01 3.47665E+01 0.00000E+00
 -1       293 9.07244E+01 3.30572E+01 0.00000E+00
 -1       294 9.01250E+01 3.13449E+01 0.00000E+00
 -1       295 8.88803E+01 3.00831E+01 0.00000E+00
 -1       296 8.77243E+01 2.86540E+01 0.00000E+00
 -1       297 8.59429E+01 2.80615E+01 0.00000E+00
 -1       298 8.42379E+01 2.75842E+01 0.00000E+00
 -1       299 8.23960E+01 2.71507E+01 0.00000E+00
 -1       300 8.06332E+01 2.76953E+01 0.00000E+00
 -1       301 7.90747E+01 2.84050E+01 0.00000E+00
 -1       302 7.76640E+01 2.93489E+01 0.00000E+00
 -1       303 7.64822E+01 3.05507E+01 0.00000E+00
 -1       304 7.54918E+01 3.19627E+01 0.00000E+00
 -1       305 7.49630E+01 3.36030E+01 0.00000E+00
 -1       306 7.46333E+01 3.52674E+01 0.00000E+00
 -1       307 7.47314E+01 3.69781E+01 0.00000E+00
 -1       308 7.51293E+01 3.87045E+01 0.00000E+00
 -1       309 7.60954E+01 4.01977E+01 0.00000E+00
 -1       310 7.70792E+01 4.17373E+01 0.00000E+00
 -1       311 7.86006E+01 4.27048E+01 0.00000E+00
 -1       312 8.01398E+01 4.36861E+01 0.00000E+00
 -1       313 8.20560E+01 4.41009E+01 0.00000E+00
 -1       314 8.39137E+01 4.39166E+01 0.00000E+00
 -1       315 8.56151E+01 4.33386E+01 0.00000E+00
 -1       316 8.72516E+01 4.25413E+01 0.00000E+00
 -1       317 8.87380E+01 4.14542E+01 0.00000E+00
 -1       318 8.98090E+01 3.99709E+01 0.00000E+00
 -1       319 9.07613E+01 3.83502E+01 0.00000E+00
 -1       320 9.10071E+01 3.65153E+01 0.00000E+00
 -1       321 1.47402E+02 4.56250E+01 0.00000E+00
 -1       322 5.19600E+00 4.11500E+01 0.00000E+00
 -1       323 5.19600E+00 4.41000E+01 0.00000E+00
 -1       324 5.19600E+00 3.52750E+01 0.00000E+00
 -1       325 5.19600E+00 3.23250E+01 0.00000E+00
 -1       326 5.19600E+00 2.93750E+01 0.00000E+00
 -1       327 5.19600E+00 2.64250E+01 0.00000E+00
 -1       328 5.19600E+00 2.34750E+01 0.00000E+00
 -1       329 5.19600E+00 2.05250E+01 0.00000E+00
 -1       330 5.19600E+00 1.76250E+01 0.00000E+00
 -1       331 5.19600E+00 1.46750E+01 0.00000E+00
 -1       332 5.19600E+00 1.17250E+01 0.00000E+00
 -1       333 5.19600E+00 8.77500E+00 0.00000E+00
 -1       334 5.19600E+00 5.82500E+00 0.00000E+00
 -1       335 5.53500E+00 4.00625E+00 0.00000E+00
 -1       336 8.53500E+00 4.00625E+00 0.00000E+00
 -1       337 9.00000E+00 4.48040E+01 0.00000E+00
 -1       338 1.20000E+01 4.48040E+01 0.00000E+00
 -1       339 1.50000E+01 4.48040E+01 0.00000E+00
 -1       340 1.78500E+01 4.48040E+01 0.00000E+00
 -1       341 2.08500E+01 4.48040E+01 0.00000E+00
 -1       342 2.38500E+01 4.48040E+01 0.00000E+00
 -1       343 2.68500E+01 4.48040E+01 0.00000E+00
 -1       344 2.98500E+01 4.48040E+01 0.00000E+00
 -1       345 3.28500E+01 4.48040E+01 0.00000E+00
 -1       346 3.57000E+01 4.48040E+01 0.00000E+00
 -1       347 3.87000E+01 4.48040E+01 0.00000E+00
 -1       348 4.17000E+01 4.48040E+01 0.00000E+00
 -1       349 4.47000E+01 4.48040E+01 0.00000E+00
 -1       350 4.77000E+01 4.48040E+01 0.00000E+00
 -1       351 5.07000E+01 4.48040E+01 0.00000E+00
 -1       352 5.35500E+01 4.48040E+01 0.00000E+00
 -1       353 5.65500E+01 4.48040E+01 0.00000E+00
 -1       354 5.95500E+01 4.48040E+01 0.00000E+00
 -1       355 6.25500E+01 4.48040E+01 0.00000E+00
 -1       356 6.55500E+01 4.48040E+01 0.00000E+00
 -1       357 6.85500E+01 4.48040E+01 0.00000E+00
 -1       358 7.12500E+01 4.48040E+01 0.00000E+00
 -1       359 7.42500E+01 4.48040E+01 0.00000E+00
 -1       360 8.21250E+01 4.55193E+01 0.00000E+00
 -1       361 8.47500E+01 4.53517E+01 0.00000E+00
 -1       362 8.76000E+01 4.51842E+01 0.00000E+00
 -1       363 9.06000E+01 4.51842E+01 0.00000E+00
 -1       364 9.34500E+01 4.51842E+01 0.00000E+00
 -1       365 9.64500E+01 4.51842E+01 0.00000E+00
 -1       366 9.94500E+01 4.51842E+01 0.00000E+00
 -1       367 1.02450E+02 4.51842E+01 0.00000E+00
 -1       368 1.05450E+02 4.51842E+01 0.00000E+00
 -1       369 1.08450E+02 4.51842E+01 0.00000E+00
 -1       370 1.11300E+02 4.51842E+01 0.00000E+00
 -1       371 1.14300E+02 4.51842E+01 0.00000E+00
 -1       372 1.17300E+02 4.51842E+01 0.00000E+00
 -1       373 1.20300E+02 4.51842E+01 0.00000E+00
 -1       374 1.23300E+02 4.51842E+01 0.00000E+00
 -1       375 1.26300E+02 4.51842E+01 0.00000E+00
 -1       376 1.29150E+02 4.51842E+01 0.00000E+00
 -1       377 1.32150E+02 4.51842E+01 0.00000E+00
 -1       378 1.35150E+02 4.51842E+01 0.00000E+00
 -1       379 1.38150E+02 4.51842E+01 0.00000E+00
 -1       380 1.41150E+02 4.51842E+01 0.00000E+00
 -1       381 1.44150E+02 4.51842E+01 0.00000E+00
 -1       382 1.15350E+01 4.00625E+00 0.00000E+00
 -1       383 9.18063E+01 3.17174E+01 0.00000E+00
 -1       384 1.45350E+01 4.00625E+00 0.00000E+00
 -1       385 1.75350E+01 4.00625E+00 0.00000E+00
 -1       386 2.05350E+01 4.00625E+00 0.00000E+00
 -1       387 2.35350E+01 4.00625E+00 0.00000E+00
 -1       388 2.65350E+01 4.00625E+00 0.00000E+00
 -1       389 2.95350E+01 4.00625E+00 0.00000E+00
 -1       390 3.25350E+01 4.00625E+00 0.00000E+00
 -1       391 3.55350E+01 4.00625E+00 0.00000E+00
 -1       392 3.85350E+01 4.00625E+00 0.00000E+00
 -1       393 4.15350E+01 4.00625E+00 0.00000E+00
 -1       394 4.45350E+01 4.00625E+00 0.00000E+00
 -1       395 4.75350E+01 4.00625E+00 0.00000E+00
 -1       396 5.05350E+01 4.00625E+00 0.00000E+00
 -1       397 5.35350E+01 4.00625E+00 0.00000E+00
 -1       398 5.65350E+01 4.00625E+00 0.00000E+00
 -1       399 5.95350E+01 4.00625E+00 0.00000E+00
 -1       400 6.25350E+01 4.00625E+00 0.00000E+00
 -1       401 6.55350E+01 4.00625E+00 0.00000E+00
 -1       402 6.85350E+01 4.00625E+00 0.00000E+00
 -1       403 7.15350E+01 4.00625E+00 0.00000E+00
 -1       404 7.45350E+01 4.00625E+00 0.00000E+00
 -1       405 7.75350E+01 4.00625E+00 0.00000E+00
 -1       406 8.05350E+01 4.00625E+00 0.00000E+00
 -1       407 8.35350E+01 4.00625E+00 0.00000E+00
 -1       408 8.65350E+01 4.00625E+00 0.00000E+00
 -1       409 8.95350E+01 4.00625E+00 0.00000E+00
 -1       410 9.25350E+01 4.00625E+00 0.00000E+00
 -1       411 9.55350E+01 4.00625E+00 0.00000E+00
 -1       412 9.85350E+01 4.00625E+00 0.00000E+00
 -1       413 1.01535E+02 4.00625E+00 0.00000E+00
 -1       414 1.04535E+02 4.00625E+00 0.00000E+00
 -1       415 1.07535E+02 4.00625E+00 0.00000E+00
 -1       416 1.10535E+02 4.00625E+00 0.00000E+00
 -1       417 1.13535E+02 4.00625E+00 0.00000E+00
 -1       418 1.16535E+02 4.00625E+00 0.00000E+00
 -1       419 1.19535E+02 4.00625E+00 0.00000E+00
 -1       420 1.22535E+02 4.00625E+00 0.00000E+00
 -1       421 1.25535E+02 4.00625E+00 0.00000E+00
 -1       422 1.28535E+02 4.00625E+00 0.00000E+00
 -1       423 1.31535E+02 4.00625E+00 0.00000E+00
 -1       424 1.34535E+02 4.00625E+00 0.00000E+00
 -1       425 1.37535E+02 4.00625E+00 0.00000E+00
 -1       426 1.40535E+02 4.00625E+00 0.00000E+00
 -1       427 1.43535E+02 4.00625E+00 0.00000E+00
 -1       428 1.45469E+02 4.21562E+00 0.00000E+00
 -1       429 1.44804E+02 1.18000E+01 0.00000E+00
 -1       430 1.44804E+02 8.85000E+00 0.00000E+00
 -1       431 1.45136E+02 6.53281E+00 0.00000E+00
 -1       432 1.44804E+02 1.47000E+01 0.00000E+00
 -1       433 1.44804E+02 1.76500E+01 0.00000E+00
 -1       434 1.44804E+02 2.06000E+01 0.00000E+00
 -1       435 1.44804E+02 2.35500E+01 0.00000E+00
 -1       436 1.44804E+02 2.65000E+01 0.00000E+00
 -1       437 1.44804E+02 2.94500E+01 0.00000E+00
 -1       438 1.44804E+02 3.23500E+01 0.00000E+00
 -1       439 1.44804E+02 3.53000E+01 0.00000E+00
 -1       440 1.44804E+02 3.82500E+01 0.00000E+00
 -1       441 1.44804E+02 4.12000E+01 0.00000E+00
 -1       442 9.04851E+01 2.97449E+01 0.00000E+00
 -1       443 9.24282E+01 3.57082E+01 0.00000E+00
 -1       444 5.19600E+00 3.82125E+01 0.00000E+00
 -1       445 8.93291E+01 2.83158E+01 0.00000E+00
 -1       446 8.73484E+01 2.68098E+01 0.00000E+00
 -1       447 8.54624E+01 2.64940E+01 0.00000E+00
 -1       448 8.36205E+01 2.60605E+01 0.00000E+00
 -1       449 8.11320E+01 2.61846E+01 0.00000E+00
 -1       450 7.92820E+01 2.67943E+01 0.00000E+00
 -1       451 7.75554E+01 2.76604E+01 0.00000E+00
 -1       452 7.60294E+01 2.89235E+01 0.00000E+00
 -1       453 7.49258E+01 3.05124E+01 0.00000E+00
 -1       454 7.38342E+01 3.23338E+01 0.00000E+00
 -1       455 7.35267E+01 3.41834E+01 0.00000E+00
 -1       456 7.32210E+01 3.62065E+01 0.00000E+00
 -1       457 7.32590E+01 3.82264E+01 0.00000E+00
 -1       458 7.44537E+01 4.02007E+01 0.00000E+00
 -1       459 7.54375E+01 4.17403E+01 0.00000E+00
 -1       460 7.70094E+01 4.35269E+01 0.00000E+00
 -1       461 7.85486E+01 4.45081E+01 0.00000E+00
 -1       462 8.04648E+01 4.49229E+01 0.00000E+00
 -1       463 8.70744E+01 4.42559E+01 0.00000E+00
 -1       464 8.88589E+01 4.31792E+01 0.00000E+00
 -1       465 9.03923E+01 4.15204E+01 0.00000E+00
 -1       466 9.16917E+01 3.99870E+01 0.00000E+00
 -1       467 9.24181E+01 3.76382E+01 0.00000E+00
 -1       468 9.21756E+01 3.36389E+01 0.00000E+00
 -1       469 7.71000E+01 4.53517E+01 0.00000E+00
 -1       470 8.23565E+01 2.50943E+01 0.00000E+00
 -1       471 7.79400E+00 3.08500E+01 0.00000E+00
 -1       472 7.79400E+00 3.38000E+01 0.00000E+00
 -1       473 7.79400E+00 2.49500E+01 0.00000E+00
 -1       474 7.79400E+00 2.20000E+01 0.00000E+00
 -1       475 7.79400E+00 1.91000E+01 0.00000E+00
 -1       476 7.79400E+00 1.61500E+01 0.00000E+00
 -1       477 7.79400E+00 1.32000E+01 0.00000E+00
 -1       478 7.79400E+00 1.02500E+01 0.00000E+00
 -1       479 7.79400E+00 7.30000E+00 0.00000E+00
 -1       480 8.16450E+00 5.65312E+00 0.00000E+00
 -1       481 1.05000E+01 4.22060E+01 0.00000E+00
 -1       482 1.41804E+02 4.12000E+01 0.00000E+00
 -1       483 9.10451E+01 2.81098E+01 0.00000E+00
 -1       484 9.35107E+01 3.23860E+01 0.00000E+00
 -1       485 1.35000E+01 4.22060E+01 0.00000E+00
 -1       486 1.63500E+01 4.22060E+01 0.00000E+00
 -1       487 1.93500E+01 4.22060E+01 0.00000E+00
 -1       488 2.23500E+01 4.22060E+01 0.00000E+00
 -1       489 2.53500E+01 4.22060E+01 0.00000E+00
 -1       490 2.83500E+01 4.22060E+01 0.00000E+00
 -1       491 3.13500E+01 4.22060E+01 0.00000E+00
 -1       492 3.42000E+01 4.22060E+01 0.00000E+00
 -1       493 3.72000E+01 4.22060E+01 0.00000E+00
 -1       494 4.02000E+01 4.22060E+01 0.00000E+00
 -1       495 4.32000E+01 4.22060E+01 0.00000E+00
 -1       496 4.62000E+01 4.22060E+01 0.00000E+00
 -1       497 4.92000E+01 4.22060E+01 0.00000E+00
 -1       498 5.20500E+01 4.22060E+01 0.00000E+00
 -1       499 5.50500E+01 4.22060E+01 0.00000E+00
 -1       500 5.80500E+01 4.22060E+01 0.00000E+00
 -1       501 6.10500E+01 4.22060E+01 0.00000E+00
 -1       502 6.40500E+01 4.22060E+01 0.00000E+00
 -1       503 6.70500E+01 4.22060E+01 0.00000E+00
 -1       504 6.97500E+01 4.22060E+01 0.00000E+00
 -1       505 7.27500E+01 4.29213E+01 0.00000E+00
 -1       506 1.11645E+01 5.65312E+00 0.00000E+00
 -1       507 9.38869E+01 3.66809E+01 0.00000E+00
 -1       508 9.20250E+01 4.29664E+01 0.00000E+00
 -1       509 9.50250E+01 4.29664E+01 0.00000E+00
 -1       510 9.80250E+01 4.29664E+01 0.00000E+00
 -1       511 1.01025E+02 4.29664E+01 0.00000E+00
 -1       512 1.04025E+02 4.29664E+01 0.00000E+00
 -1       513 1.07025E+02 4.29664E+01 0.00000E+00
 -1       514 1.09875E+02 4.29664E+01 0.00000E+00
 -1       515 1.12875E+02 4.29664E+01 0.00000E+00
 -1       516 1.15875E+02 4.29664E+01 0.00000E+00
 -1       517 1.18875E+02 4.29664E+01 0.00000E+00
 -1       518 1.21875E+02 4.29664E+01 0.00000E+00
 -1       519 1.24875E+02 4.29664E+01 0.00000E+00
 -1       520 1.27725E+02 4.29664E+01 0.00000E+00
 -1       521 1.30725E+02 4.29664E+01 0.00000E+00
 -1       522 1.33725E+02 4.29664E+01 0.00000E+00
 -1       523 1.36725E+02 4.29664E+01 0.00000E+00
 -1       524 1.39264E+02 4.20832E+01 0.00000E+00
 -1       525 1.60350E+01 6.60425E+00 0.00000E+00
 -1       526 1.35997E+01 6.12869E+00 0.00000E+00
 -1       527 2.20350E+01 6.60425E+00 0.00000E+00
 -1       528 2.50350E+01 6.60425E+00 0.00000E+00
 -1       529 2.80350E+01 6.60425E+00 0.00000E+00
 -1       530 3.10350E+01 6.60425E+00 0.00000E+00
 -1       531 3.40350E+01 6.60425E+00 0.00000E+00
 -1       532 3.70350E+01 6.60425E+00 0.00000E+00
 -1       533 4.00350E+01 6.60425E+00 0.00000E+00
 -1       534 4.30350E+01 6.60425E+00 0.00000E+00
 -1       535 4.60350E+01 6.60425E+00 0.00000E+00
 -1       536 4.90350E+01 6.60425E+00 0.00000E+00
 -1       537 5.20350E+01 6.60425E+00 0.00000E+00
 -1       538 5.50350E+01 6.60425E+00 0.00000E+00
 -1       539 5.80350E+01 6.60425E+00 0.00000E+00
 -1       540 6.10350E+01 6.60425E+00 0.00000E+00
 -1       541 6.40350E+01 6.60425E+00 0.00000E+00
 -1       542 6.70350E+01 6.60425E+00 0.00000E+00
 -1       543 7.00350E+01 6.60425E+00 0.00000E+00
 -1       544 7.30350E+01 6.60425E+00 0.00000E+00
 -1       545 7.60350E+01 6.60425E+00 0.00000E+00
 -1       546 7.90350E+01 6.60425E+00 0.00000E+00
 -1       547 8.20350E+01 6.60425E+00 0.00000E+00
 -1       548 8.50350E+01 6.60425E+00 0.00000E+00
 -1       549 8.80350E+01 6.60425E+00 0.00000E+00
 -1       550 9.10350E+01 6.60425E+00 0.00000E+00
 -1       551 9.40350E+01 6.60425E+00 0.00000E+00
 -1       552 9.70350E+01 6.60425E+00 0.00000E+00
 -1       553 1.00035E+02 6.60425E+00 0.00000E+00
 -1       554 1.03035E+02 6.60425E+00 0.00000E+00
 -1       555 1.06035E+02 6.60425E+00 0.00000E+00
 -1       556 1.09035E+02 6.60425E+00 0.00000E+00
 -1       557 1.12035E+02 6.60425E+00 0.00000E+00
 -1       558 1.15035E+02 6.60425E+00 0.00000E+00
 -1       559 1.18035E+02 6.60425E+00 0.00000E+00
 -1       560 1.21035E+02 6.60425E+00 0.00000E+00
 -1       561 1.24035E+02 6.60425E+00 0.00000E+00
 -1       562 1.27035E+02 6.60425E+00 0.00000E+00
 -1       563 1.30035E+02 6.60425E+00 0.00000E+00
 -1       564 1.33035E+02 6.60425E+00 0.00000E+00
 -1       565 1.36035E+02 6.60425E+00 0.00000E+00
 -1       566 1.39035E+02 6.60425E+00 0.00000E+00
 -1       567 1.42035E+02 6.60425E+00 0.00000E+00
 -1       568 1.42206E+02 1.61750E+01 0.00000E+00
 -1       569 1.42206E+02 1.91250E+01 0.00000E+00
 -1       570 1.42206E+02 1.03250E+01 0.00000E+00
 -1       571 1.42206E+02 1.32500E+01 0.00000E+00
 -1       572 1.42206E+02 2.20750E+01 0.00000E+00
 -1       573 1.42206E+02 2.50250E+01 0.00000E+00
 -1       574 1.42206E+02 2.79750E+01 0.00000E+00
 -1       575 1.42206E+02 3.08750E+01 0.00000E+00
 -1       576 1.42206E+02 3.38250E+01 0.00000E+00
 -1       577 1.42206E+02 3.67750E+01 0.00000E+00
 -1       578 8.66887E+01 2.49603E+01 0.00000E+00
 -1       579 7.84800E+00 4.16780E+01 0.00000E+00
 -1       580 7.26041E+01 3.99714E+01 0.00000E+00
 -1       581 1.90350E+01 6.60425E+00 0.00000E+00
 -1       582 9.28491E+01 2.95902E+01 0.00000E+00
 -1       583 7.79400E+00 2.79000E+01 0.00000E+00
 -1       584 8.92754E+01 2.63309E+01 0.00000E+00
 -1       585 7.96702E+01 2.48605E+01 0.00000E+00
 -1       586 8.48468E+01 2.45268E+01 0.00000E+00
 -1       587 7.77248E+01 2.58441E+01 0.00000E+00
 -1       588 7.58056E+01 2.70999E+01 0.00000E+00
 -1       589 7.41378E+01 2.87873E+01 0.00000E+00
 -1       590 7.30462E+01 3.06087E+01 0.00000E+00
 -1       591 7.16580E+01 3.29223E+01 0.00000E+00
 -1       592 7.13523E+01 3.49454E+01 0.00000E+00
 -1       593 7.15252E+01 3.72488E+01 0.00000E+00
 -1       594 7.36416E+01 4.18038E+01 0.00000E+00
 -1       595 7.49987E+01 4.37111E+01 0.00000E+00
 -1       596 9.21587E+01 4.17000E+01 0.00000E+00
 -1       597 9.36134E+01 3.92946E+01 0.00000E+00
 -1       598 9.40044E+01 3.44658E+01 0.00000E+00
 -1       599 7.79400E+00 3.67375E+01 0.00000E+00
 -1       600 8.86156E+01 2.44814E+01 0.00000E+00
 -1       601 8.08947E+01 2.37703E+01 0.00000E+00
 -1       602 8.35828E+01 2.35607E+01 0.00000E+00
 -1       603 7.82100E+00 3.92077E+01 0.00000E+00
 -1       604 9.40804E+01 4.10076E+01 0.00000E+00
 -1       605 7.08702E+01 3.89937E+01 0.00000E+00
 -1       606 1.03920E+01 2.05500E+01 0.00000E+00
 -1       607 1.03920E+01 2.35000E+01 0.00000E+00
 -1       608 1.03920E+01 1.46750E+01 0.00000E+00
 -1       609 1.03920E+01 1.17250E+01 0.00000E+00
 -1       610 1.03920E+01 8.77500E+00 0.00000E+00
 -1       611 1.07782E+01 7.21406E+00 0.00000E+00
 -1       612 1.20000E+01 3.96080E+01 0.00000E+00
 -1       613 1.48500E+01 3.96080E+01 0.00000E+00
 -1       614 1.78500E+01 3.96080E+01 0.00000E+00
 -1       615 2.08500E+01 3.96080E+01 0.00000E+00
 -1       616 2.38500E+01 3.96080E+01 0.00000E+00
 -1       617 2.68500E+01 3.96080E+01 0.00000E+00
 -1       618 2.98500E+01 3.96080E+01 0.00000E+00
 -1       619 3.27000E+01 3.96080E+01 0.00000E+00
 -1       620 3.57000E+01 3.96080E+01 0.00000E+00
 -1       621 3.87000E+01 3.96080E+01 0.00000E+00
 -1       622 4.17000E+01 3.96080E+01 0.00000E+00
 -1       623 4.47000E+01 3.96080E+01 0.00000E+00
 -1       624 4.77000E+01 3.96080E+01 0.00000E+00
 -1       625 5.05500E+01 3.96080E+01 0.00000E+00
 -1       626 5.35500E+01 3.96080E+01 0.00000E+00
 -1       627 5.65500E+01 3.96080E+01 0.00000E+00
 -1       628 5.95500E+01 3.96080E+01 0.00000E+00
 -1       629 6.25500E+01 3.96080E+01 0.00000E+00
 -1       630 6.55500E+01 3.96080E+01 0.00000E+00
 -1       631 6.82500E+01 3.96080E+01 0.00000E+00
 -1       632 1.03920E+01 3.23250E+01 0.00000E+00
 -1       633 9.55893E+01 3.29911E+01 0.00000E+00
 -1       634 9.65250E+01 4.07485E+01 0.00000E+00
 -1       635 9.95250E+01 4.05810E+01 0.00000E+00
 -1       636 1.02525E+02 4.05810E+01 0.00000E+00
 -1       637 1.05525E+02 4.05810E+01 0.00000E+00
 -1       638 1.08375E+02 4.05810E+01 0.00000E+00
 -1       639 1.11375E+02 4.05810E+01 0.00000E+00
 -1       640 1.14375E+02 4.05810E+01 0.00000E+00
 -1       641 1.17375E+02 4.05810E+01 0.00000E+00
 -1       642 1.20375E+02 4.05810E+01 0.00000E+00
 -1       643 1.23375E+02 4.05810E+01 0.00000E+00
 -1       644 1.26225E+02 4.05810E+01 0.00000E+00
 -1       645 1.29225E+02 4.05810E+01 0.00000E+00
 -1       646 1.32225E+02 4.05810E+01 0.00000E+00
 -1       647 1.35225E+02 4.05810E+01 0.00000E+00
 -1       648 9.55747E+01 3.56598E+01 0.00000E+00
 -1       649 2.95350E+01 9.20225E+00 0.00000E+00
 -1       650 2.35350E+01 9.20225E+00 0.00000E+00
 -1       651 3.25350E+01 9.20225E+00 0.00000E+00
 -1       652 3.55350E+01 9.20225E+00 0.00000E+00
 -1       653 3.85350E+01 9.20225E+00 0.00000E+00
 -1       654 4.15350E+01 9.20225E+00 0.00000E+00
 -1       655 4.45350E+01 9.20225E+00 0.00000E+00
 -1       656 4.75350E+01 9.20225E+00 0.00000E+00
 -1       657 5.05350E+01 9.20225E+00 0.00000E+00
 -1       658 5.35350E+01 9.20225E+00 0.00000E+00
 -1       659 5.65350E+01 9.20225E+00 0.00000E+00
 -1       660 5.95350E+01 9.20225E+00 0.00000E+00
 -1       661 6.25350E+01 9.20225E+00 0.00000E+00
 -1       662 6.55350E+01 9.20225E+00 0.00000E+00
 -1       663 6.85350E+01 9.20225E+00 0.00000E+00
 -1       664 7.15350E+01 9.20225E+00 0.00000E+00
 -1       665 7.45350E+01 9.20225E+00 0.00000E+00
 -1       666 7.75350E+01 9.20225E+00 0.00000E+00
 -1       667 8.05350E+01 9.20225E+00 0.00000E+00
 -1       668 8.35350E+01 9.20225E+00 0.00000E+00
 -1       669 8.65350E+01 9.20225E+00 0.00000E+00
 -1       670 8.95350E+01 9.20225E+00 0.00000E+00
 -1       671 9.25350E+01 9.20225E+00 0.00000E+00
 -1       672 9.55350E+01 9.20225E+00 0.00000E+00
 -1       673 9.85350E+01 9.20225E+00 0.00000E+00
 -1       674 1.01535E+02 9.20225E+00 0.00000E+00
 -1       675 1.04535E+02 9.20225E+00 0.00000E+00
 -1       676 1.07535E+02 9.20225E+00 0.00000E+00
 -1       677 1.10535E+02 9.20225E+00 0.00000E+00
 -1       678 1.13535E+02 9.20225E+00 0.00000E+00
 -1       679 1.16535E+02 9.20225E+00 0.00000E+00
 -1       680 1.19535E+02 9.20225E+00 0.00000E+00
 -1       681 1.22535E+02 9.20225E+00 0.00000E+00
 -1       682 1.25535E+02 9.20225E+00 0.00000E+00
 -1       683 1.28535E+02 9.20225E+00 0.00000E+00
 -1       684 1.31535E+02 9.20225E+00 0.00000E+00
 -1       685 1.34535E+02 9.20225E+00 0.00000E+00
 -1       686 1.37535E+02 9.20225E+00 0.00000E+00
 -1       687 1.39870E+02 9.76363E+00 0.00000E+00
 -1       688 7.37518E+01 2.67380E+01 0.00000E+00
 -1       689 1.39608E+02 2.35500E+01 0.00000E+00
 -1       690 1.39608E+02 1.76500E+01 0.00000E+00
 -1       691 1.39608E+02 2.65000E+01 0.00000E+00
 -1       692 1.39608E+02 2.06000E+01 0.00000E+00
 -1       693 1.39608E+02 2.94000E+01 0.00000E+00
 -1       694 1.39608E+02 3.23500E+01 0.00000E+00
 -1       695 1.39608E+02 3.53000E+01 0.00000E+00
 -1       696 7.78480E+01 2.36721E+01 0.00000E+00
 -1       697 9.91050E+00 3.94079E+01 0.00000E+00
 -1       698 9.56226E+01 3.81837E+01 0.00000E+00
 -1       699 1.03920E+01 1.76125E+01 0.00000E+00
 -1       700 9.30351E+01 2.75241E+01 0.00000E+00
 -1       701 9.51750E+01 3.05160E+01 0.00000E+00
 -1       702 1.39418E+02 3.87524E+01 0.00000E+00
 -1       703 7.56426E+01 2.47563E+01 0.00000E+00
 -1       704 8.61991E+01 2.29110E+01 0.00000E+00
 -1       705 7.21208E+01 2.88163E+01 0.00000E+00
 -1       706 7.07326E+01 3.11299E+01 0.00000E+00
 -1       707 6.98093E+01 3.36776E+01 0.00000E+00
 -1       708 7.17125E+01 4.10889E+01 0.00000E+00
 -1       709 2.65350E+01 9.20225E+00 0.00000E+00
 -1       710 6.95614E+01 3.62381E+01 0.00000E+00
 -1       711 9.12654E+01 2.57453E+01 0.00000E+00
 -1       712 1.03920E+01 2.64500E+01 0.00000E+00
 -1       713 2.05350E+01 9.20225E+00 0.00000E+00
 -1       714 1.03920E+01 3.52625E+01 0.00000E+00
 -1       715 7.90725E+01 2.25819E+01 0.00000E+00
 -1       716 1.37321E+02 3.96667E+01 0.00000E+00
 -1       717 1.43194E+01 8.91630E+00 0.00000E+00
 -1       718 1.39870E+02 1.26886E+01 0.00000E+00
 -1       719 9.06056E+01 2.38958E+01 0.00000E+00
 -1       720 1.73194E+01 8.91630E+00 0.00000E+00
 -1       721 9.53611E+01 2.84500E+01 0.00000E+00
 -1       722 9.60738E+01 3.94661E+01 0.00000E+00
 -1       723 8.49351E+01 2.19448E+01 0.00000E+00
 -1       724 1.03920E+01 2.93875E+01 0.00000E+00
 -1       725 1.39739E+02 1.51693E+01 0.00000E+00
 -1       726 1.29900E+01 1.02500E+01 0.00000E+00
 -1       727 1.29900E+01 1.32000E+01 0.00000E+00
 -1       728 1.01025E+02 3.79830E+01 0.00000E+00
 -1       729 2.50350E+01 1.18003E+01 0.00000E+00
 -1       730 1.34250E+01 3.70100E+01 0.00000E+00
 -1       731 1.64250E+01 3.70100E+01 0.00000E+00
 -1       732 1.94250E+01 3.70100E+01 0.00000E+00
 -1       733 2.24250E+01 3.70100E+01 0.00000E+00
 -1       734 2.54250E+01 3.70100E+01 0.00000E+00
 -1       735 2.84250E+01 3.70100E+01 0.00000E+00
 -1       736 3.12750E+01 3.70100E+01 0.00000E+00
 -1       737 3.42750E+01 3.70100E+01 0.00000E+00
 -1       738 3.72750E+01 3.70100E+01 0.00000E+00
 -1       739 4.02750E+01 3.70100E+01 0.00000E+00
 -1       740 4.32750E+01 3.70100E+01 0.00000E+00
 -1       741 4.62750E+01 3.70100E+01 0.00000E+00
 -1       742 4.91250E+01 3.70100E+01 0.00000E+00
 -1       743 5.21250E+01 3.70100E+01 0.00000E+00
 -1       744 5.51250E+01 3.70100E+01 0.00000E+00
 -1       745 5.81250E+01 3.70100E+01 0.00000E+00
 -1       746 6.11250E+01 3.70100E+01 0.00000E+00
 -1       747 6.41250E+01 3.70100E+01 0.00000E+00
 -1       748 6.68250E+01 3.70100E+01 0.00000E+00
 -1       749 1.04025E+02 3.79830E+01 0.00000E+00
 -1       750 1.06875E+02 3.79830E+01 0.00000E+00
 -1       751 1.09875E+02 3.79830E+01 0.00000E+00
 -1       752 1.12875E+02 3.79830E+01 0.00000E+00
 -1       753 1.15875E+02 3.79830E+01 0.00000E+00
 -1       754 1.18875E+02 3.79830E+01 0.00000E+00
 -1       755 1.21875E+02 3.79830E+01 0.00000E+00
 -1       756 1.24725E+02 3.79830E+01 0.00000E+00
 -1       757 1.27725E+02 3.79830E+01 0.00000E+00
 -1       758 1.30725E+02 3.79830E+01 0.00000E+00
 -1       759 1.33725E+02 3.79830E+01 0.00000E+00
 -1       760 2.80350E+01 1.18003E+01 0.00000E+00
 -1       761 8.87072E+01 2.16961E+01 0.00000E+00
 -1       762 3.10350E+01 1.18003E+01 0.00000E+00
 -1       763 4.00350E+01 1.18003E+01 0.00000E+00
 -1       764 4.30350E+01 1.18003E+01 0.00000E+00
 -1       765 4.60350E+01 1.18003E+01 0.00000E+00
 -1       766 4.90350E+01 1.18003E+01 0.00000E+00
 -1       767 5.20350E+01 1.18003E+01 0.00000E+00
 -1       768 5.50350E+01 1.18003E+01 0.00000E+00
 -1       769 5.80350E+01 1.18003E+01 0.00000E+00
 -1       770 6.10350E+01 1.18003E+01 0.00000E+00
 -1       771 6.40350E+01 1.18003E+01 0.00000E+00
 -1       772 6.70350E+01 1.18003E+01 0.00000E+00
 -1       773 7.00350E+01 1.18003E+01 0.00000E+00
 -1       774 7.30350E+01 1.18003E+01 0.00000E+00
 -1       775 7.60350E+01 1.18003E+01 0.00000E+00
 -1       776 7.90350E+01 1.18003E+01 0.00000E+00
 -1       777 8.20350E+01 1.18003E+01 0.00000E+00
 -1       778 8.50350E+01 1.18003E+01 0.00000E+00
 -1       779 8.80350E+01 1.18003E+01 0.00000E+00
 -1       780 9.10350E+01 1.18003E+01 0.00000E+00
 -1       781 9.40350E+01 1.18003E+01 0.00000E+00
 -1       782 9.70350E+01 1.18003E+01 0.00000E+00
 -1       783 1.00035E+02 1.18003E+01 0.00000E+00
 -1       784 1.03035E+02 1.18003E+01 0.00000E+00
 -1       785 1.06035E+02 1.18003E+01 0.00000E+00
 -1       786 1.09035E+02 1.18003E+01 0.00000E+00
 -1       787 1.12035E+02 1.18003E+01 0.00000E+00
 -1       788 1.15035E+02 1.18003E+01 0.00000E+00
 -1       789 1.18035E+02 1.18003E+01 0.00000E+00
 -1       790 1.21035E+02 1.18003E+01 0.00000E+00
 -1       791 1.24035E+02 1.18003E+01 0.00000E+00
 -1       792 1.27035E+02 1.18003E+01 0.00000E+00
 -1       793 1.30035E+02 1.18003E+01 0.00000E+00
 -1       794 1.33035E+02 1.18003E+01 0.00000E+00
 -1       795 1.36035E+02 1.18003E+01 0.00000E+00
 -1       796 1.37953E+02 1.22444E+01 0.00000E+00
 -1       797 1.37010E+02 2.79500E+01 0.00000E+00
 -1       798 1.37010E+02 2.50000E+01 0.00000E+00
 -1       799 1.01512E+01 3.73352E+01 0.00000E+00
 -1       800 8.20924E+01 2.17885E+01 0.00000E+00
 -1       801 9.75696E+01 3.13874E+01 0.00000E+00
 -1       802 1.37512E+02 3.62143E+01 0.00000E+00
 -1       803 1.29900E+01 2.20250E+01 0.00000E+00
 -1       804 7.59886E+01 2.26751E+01 0.00000E+00
 -1       805 9.73134E+01 3.68892E+01 0.00000E+00
 -1       806 9.74646E+01 3.43358E+01 0.00000E+00
 -1       807 6.85009E+01 3.17623E+01 0.00000E+00
 -1       808 1.37010E+02 3.09000E+01 0.00000E+00
 -1       809 3.70350E+01 1.18003E+01 0.00000E+00
 -1       810 1.37261E+02 3.35571E+01 0.00000E+00
 -1       811 6.96687E+01 2.89183E+01 0.00000E+00
 -1       812 6.76446E+01 3.47603E+01 0.00000E+00
 -1       813 7.11916E+01 2.64080E+01 0.00000E+00
 -1       814 3.40350E+01 1.18003E+01 0.00000E+00
 -1       815 7.30824E+01 2.44264E+01 0.00000E+00
 -1       816 9.34850E+01 2.53069E+01 0.00000E+00
 -1       817 1.29900E+01 1.61375E+01 0.00000E+00
 -1       818 2.20350E+01 1.18003E+01 0.00000E+00
 -1       819 1.29900E+01 3.37938E+01 0.00000E+00
 -1       820 7.34284E+01 2.23451E+01 0.00000E+00
 -1       821 7.72132E+01 2.15848E+01 0.00000E+00
 -1       822 1.35618E+02 3.70986E+01 0.00000E+00
 -1       823 8.74432E+01 2.07299E+01 0.00000E+00
 -1       824 1.37010E+02 1.91250E+01 0.00000E+00
 -1       825 9.58109E+01 2.62327E+01 0.00000E+00
 -1       826 1.37010E+02 2.20625E+01 0.00000E+00
 -1       827 1.29900E+01 3.08563E+01 0.00000E+00
 -1       828 9.77556E+01 2.93214E+01 0.00000E+00
 -1       829 1.29900E+01 1.90812E+01 0.00000E+00
 -1       830 1.29900E+01 2.49750E+01 0.00000E+00
 -1       831 1.37141E+02 1.66443E+01 0.00000E+00
 -1       832 1.59900E+01 1.02500E+01 0.00000E+00
 -1       833 9.28252E+01 2.34574E+01 0.00000E+00
 -1       834 1.01176E+02 3.54295E+01 0.00000E+00
 -1       835 3.25350E+01 1.43982E+01 0.00000E+00
 -1       836 1.79250E+01 3.44120E+01 0.00000E+00
 -1       837 2.09250E+01 3.44120E+01 0.00000E+00
 -1       838 2.39250E+01 3.44120E+01 0.00000E+00
 -1       839 2.69250E+01 3.44120E+01 0.00000E+00
 -1       840 2.97750E+01 3.44120E+01 0.00000E+00
 -1       841 3.27750E+01 3.44120E+01 0.00000E+00
 -1       842 3.57750E+01 3.44120E+01 0.00000E+00
 -1       843 3.87750E+01 3.44120E+01 0.00000E+00
 -1       844 4.17750E+01 3.44120E+01 0.00000E+00
 -1       845 4.47750E+01 3.44120E+01 0.00000E+00
 -1       846 4.76250E+01 3.44120E+01 0.00000E+00
 -1       847 5.06250E+01 3.44120E+01 0.00000E+00
 -1       848 5.36250E+01 3.44120E+01 0.00000E+00
 -1       849 5.66250E+01 3.44120E+01 0.00000E+00
 -1       850 5.96250E+01 3.44120E+01 0.00000E+00
 -1       851 6.26250E+01 3.44120E+01 0.00000E+00
 -1       852 6.51348E+01 3.45861E+01 0.00000E+00
 -1       853 1.05450E+02 3.53850E+01 0.00000E+00
 -1       854 1.08450E+02 3.53850E+01 0.00000E+00
 -1       855 1.11450E+02 3.53850E+01 0.00000E+00
 -1       856 1.14450E+02 3.53850E+01 0.00000E+00
 -1       857 1.17450E+02 3.53850E+01 0.00000E+00
 -1       858 1.20450E+02 3.53850E+01 0.00000E+00
 -1       859 1.23300E+02 3.53850E+01 0.00000E+00
 -1       860 1.26300E+02 3.53850E+01 0.00000E+00
 -1       861 1.29300E+02 3.53850E+01 0.00000E+00
 -1       862 1.32300E+02 3.53850E+01 0.00000E+00
 -1       863 2.65350E+01 1.43982E+01 0.00000E+00
 -1       864 2.95350E+01 1.43982E+01 0.00000E+00
 -1       865 4.45350E+01 1.43982E+01 0.00000E+00
 -1       866 4.15350E+01 1.43982E+01 0.00000E+00
 -1       867 5.05350E+01 1.43982E+01 0.00000E+00
 -1       868 5.35350E+01 1.43982E+01 0.00000E+00
 -1       869 5.65350E+01 1.43982E+01 0.00000E+00
 -1       870 5.95350E+01 1.43982E+01 0.00000E+00
 -1       871 6.25350E+01 1.43982E+01 0.00000E+00
 -1       872 6.55350E+01 1.43982E+01 0.00000E+00
 -1       873 6.85350E+01 1.43982E+01 0.00000E+00
 -1       874 7.15350E+01 1.43982E+01 0.00000E+00
 -1       875 7.45350E+01 1.43982E+01 0.00000E+00
 -1       876 7.75350E+01 1.43982E+01 0.00000E+00
 -1       877 8.05350E+01 1.43982E+01 0.00000E+00
 -1       878 8.35350E+01 1.43982E+01 0.00000E+00
 -1       879 8.65350E+01 1.43982E+01 0.00000E+00
 -1       880 8.95350E+01 1.43982E+01 0.00000E+00
 -1       881 9.25350E+01 1.43982E+01 0.00000E+00
 -1       882 9.55350E+01 1.43982E+01 0.00000E+00
 -1       883 9.85350E+01 1.43982E+01 0.00000E+00
 -1       884 1.01535E+02 1.43982E+01 0.00000E+00
 -1       885 1.04535E+02 1.43982E+01 0.00000E+00
 -1       886 1.07535E+02 1.43982E+01 0.00000E+00
 -1       887 1.10535E+02 1.43982E+01 0.00000E+00
 -1       888 1.13535E+02 1.43982E+01 0.00000E+00
 -1       889 1.16535E+02 1.43982E+01 0.00000E+00
 -1       890 1.19535E+02 1.43982E+01 0.00000E+00
 -1       891 1.22535E+02 1.43982E+01 0.00000E+00
 -1       892 1.25535E+02 1.43982E+01 0.00000E+00
 -1       893 1.28535E+02 1.43982E+01 0.00000E+00
 -1       894 1.31535E+02 1.43982E+01 0.00000E+00
 -1       895 1.34535E+02 1.43982E+01 0.00000E+00
 -1       896 1.34412E+02 2.64750E+01 0.00000E+00
 -1       897 1.01281E+02 3.24812E+01 0.00000E+00
 -1       898 9.09267E+01 2.12577E+01 0.00000E+00
 -1       899 1.86971E+01 1.16471E+01 0.00000E+00
 -1       900 1.29900E+01 2.79188E+01 0.00000E+00
 -1       901 8.36355E+01 1.96522E+01 0.00000E+00
 -1       902 1.34412E+02 2.94250E+01 0.00000E+00
 -1       903 6.70332E+01 2.94979E+01 0.00000E+00
 -1       904 3.85350E+01 1.43982E+01 0.00000E+00
 -1       905 4.75350E+01 1.43982E+01 0.00000E+00
 -1       906 3.55350E+01 1.43982E+01 0.00000E+00
 -1       907 6.60840E+01 3.20420E+01 0.00000E+00
 -1       908 7.02900E+01 2.36548E+01 0.00000E+00
 -1       909 1.37547E+02 1.44444E+01 0.00000E+00
 -1       910 6.85340E+01 2.65128E+01 0.00000E+00
 -1       911 8.00615E+01 2.02022E+01 0.00000E+00
 -1       912 9.51511E+01 2.43833E+01 0.00000E+00
 -1       913 2.35350E+01 1.43982E+01 0.00000E+00
 -1       914 7.46529E+01 2.12549E+01 0.00000E+00
 -1       915 1.34193E+02 3.45006E+01 0.00000E+00
 -1       916 1.34663E+02 3.20821E+01 0.00000E+00
 -1       917 1.34412E+02 2.35375E+01 0.00000E+00
 -1       918 9.82054E+01 2.71041E+01 0.00000E+00
 -1       919 1.01467E+02 3.04152E+01 0.00000E+00
 -1       920 8.61437E+01 1.84373E+01 0.00000E+00
 -1       921 8.96627E+01 2.02916E+01 0.00000E+00
 -1       922 1.34412E+02 2.06000E+01 0.00000E+00
 -1       923 1.55880E+01 2.35000E+01 0.00000E+00
 -1       924 1.34543E+02 1.81193E+01 0.00000E+00
 -1       925 1.63116E+01 1.35774E+01 0.00000E+00
 -1       926 1.55880E+01 2.05562E+01 0.00000E+00
 -1       927 6.71984E+01 2.37237E+01 0.00000E+00
 -1       928 9.34281E+01 2.10180E+01 0.00000E+00
 -1       929 2.24250E+01 3.18140E+01 0.00000E+00
 -1       930 2.54250E+01 3.18140E+01 0.00000E+00
 -1       931 2.82750E+01 3.18140E+01 0.00000E+00
 -1       932 3.12750E+01 3.18140E+01 0.00000E+00
 -1       933 3.42750E+01 3.18140E+01 0.00000E+00
 -1       934 3.72750E+01 3.18140E+01 0.00000E+00
 -1       935 4.02750E+01 3.18140E+01 0.00000E+00
 -1       936 4.32750E+01 3.18140E+01 0.00000E+00
 -1       937 4.61250E+01 3.18140E+01 0.00000E+00
 -1       938 4.91250E+01 3.18140E+01 0.00000E+00
 -1       939 5.21250E+01 3.18140E+01 0.00000E+00
 -1       940 5.51250E+01 3.18140E+01 0.00000E+00
 -1       941 5.81250E+01 3.18140E+01 0.00000E+00
 -1       942 6.11250E+01 3.18140E+01 0.00000E+00
 -1       943 6.36045E+01 3.19280E+01 0.00000E+00
 -1       944 7.08587E+01 2.06023E+01 0.00000E+00
 -1       945 1.09950E+02 3.27870E+01 0.00000E+00
 -1       946 1.12950E+02 3.27870E+01 0.00000E+00
 -1       947 1.15950E+02 3.27870E+01 0.00000E+00
 -1       948 1.18950E+02 3.27870E+01 0.00000E+00
 -1       949 1.21800E+02 3.27870E+01 0.00000E+00
 -1       950 1.24800E+02 3.27870E+01 0.00000E+00
 -1       951 1.27800E+02 3.27870E+01 0.00000E+00
 -1       952 1.30800E+02 3.27870E+01 0.00000E+00
 -1       953 4.30350E+01 1.69963E+01 0.00000E+00
 -1       954 5.50350E+01 1.69963E+01 0.00000E+00
 -1       955 5.20350E+01 1.69963E+01 0.00000E+00
 -1       956 6.10350E+01 1.69963E+01 0.00000E+00
 -1       957 6.40350E+01 1.69963E+01 0.00000E+00
 -1       958 6.70350E+01 1.69963E+01 0.00000E+00
 -1       959 7.00350E+01 1.69963E+01 0.00000E+00
 -1       960 7.30350E+01 1.69963E+01 0.00000E+00
 -1       961 7.60350E+01 1.69963E+01 0.00000E+00
 -1       962 7.90350E+01 1.69963E+01 0.00000E+00
 -1       963 8.20350E+01 1.69963E+01 0.00000E+00
 -1       964 9.10350E+01 1.69963E+01 0.00000E+00
 -1       965 9.40350E+01 1.69963E+01 0.00000E+00
 -1       966 9.70350E+01 1.69963E+01 0.00000E+00
 -1       967 1.00035E+02 1.69963E+01 0.00000E+00
 -1       968 1.03035E+02 1.69963E+01 0.00000E+00
 -1       969 1.06035E+02 1.69963E+01 0.00000E+00
 -1       970 1.09035E+02 1.69963E+01 0.00000E+00
 -1       971 1.12035E+02 1.69963E+01 0.00000E+00
 -1       972 1.15035E+02 1.69963E+01 0.00000E+00
 -1       973 1.18035E+02 1.69963E+01 0.00000E+00
 -1       974 1.21035E+02 1.69963E+01 0.00000E+00
 -1       975 1.24035E+02 1.69963E+01 0.00000E+00
 -1       976 1.27035E+02 1.69963E+01 0.00000E+00
 -1       977 1.30035E+02 1.69963E+01 0.00000E+00
 -1       978 1.57804E+01 3.15250E+01 0.00000E+00
 -1       979 6.56976E+01 2.67088E+01 0.00000E+00
 -1       980 2.02469E+01 1.43189E+01 0.00000E+00
 -1       981 1.55880E+01 1.76125E+01 0.00000E+00
 -1       982 4.00350E+01 1.69963E+01 0.00000E+00
 -1       983 1.55880E+01 2.64438E+01 0.00000E+00
 -1       984 1.31814E+02 2.79500E+01 0.00000E+00
 -1       985 3.40350E+01 1.69963E+01 0.00000E+00
 -1       986 1.06950E+02 3.27870E+01 0.00000E+00
 -1       987 3.70350E+01 1.69963E+01 0.00000E+00
 -1       988 1.04209E+02 3.16011E+01 0.00000E+00
 -1       989 5.80350E+01 1.69963E+01 0.00000E+00
 -1       990 7.76688E+01 1.88984E+01 0.00000E+00
 -1       991 1.94250E+01 3.18140E+01 0.00000E+00
 -1       992 2.50350E+01 1.69963E+01 0.00000E+00
 -1       993 9.57540E+01 2.19438E+01 0.00000E+00
 -1       994 3.10350E+01 1.69963E+01 0.00000E+00
 -1       995 1.32731E+02 3.24345E+01 0.00000E+00
 -1       996 1.49907E+01 2.86642E+01 0.00000E+00
 -1       997 1.32273E+02 3.01923E+01 0.00000E+00
 -1       998 1.86353E+01 2.89532E+01 0.00000E+00
 -1       999 4.60350E+01 1.69963E+01 0.00000E+00
 -1      1000 1.31814E+02 2.50125E+01 0.00000E+00
 -1      1001 2.80350E+01 1.69963E+01 0.00000E+00
 -1      1002 8.84891E+01 1.75641E+01 0.00000E+00
 -1      1003 1.33035E+02 1.69963E+01 0.00000E+00
 -1      1004 6.42140E+01 2.91336E+01 0.00000E+00
 -1      1005 1.01917E+02 2.81979E+01 0.00000E+00
 -1      1006 9.75456E+01 2.52547E+01 0.00000E+00
 -1      1007 1.31814E+02 2.20750E+01 0.00000E+00
 -1      1008 1.81860E+01 2.49719E+01 0.00000E+00
 -1      1009 1.31945E+02 1.95943E+01 0.00000E+00
 -1      1010 6.77671E+01 2.06713E+01 0.00000E+00
 -1      1011 9.16415E+01 1.90126E+01 0.00000E+00
 -1      1012 4.90350E+01 1.69963E+01 0.00000E+00
 -1      1013 1.81860E+01 2.20281E+01 0.00000E+00
 -1      1014 5.65350E+01 1.95942E+01 0.00000E+00
 -1      1015 7.36018E+01 1.93236E+01 0.00000E+00
 -1      1016 2.68500E+01 2.92160E+01 0.00000E+00
 -1      1017 2.98500E+01 2.92160E+01 0.00000E+00
 -1      1018 3.28500E+01 2.92160E+01 0.00000E+00
 -1      1019 3.58500E+01 2.92160E+01 0.00000E+00
 -1      1020 3.88500E+01 2.92160E+01 0.00000E+00
 -1      1021 4.18500E+01 2.92160E+01 0.00000E+00
 -1      1022 4.47000E+01 2.92160E+01 0.00000E+00
 -1      1023 4.77000E+01 2.92160E+01 0.00000E+00
 -1      1024 5.07000E+01 2.92160E+01 0.00000E+00
 -1      1025 5.37000E+01 2.92160E+01 0.00000E+00
 -1      1026 5.67000E+01 2.92160E+01 0.00000E+00
 -1      1027 5.97000E+01 2.92160E+01 0.00000E+00
 -1      1028 1.94172E+01 1.80871E+01 0.00000E+00
 -1      1029 1.14450E+02 3.01890E+01 0.00000E+00
 -1      1030 1.17450E+02 3.01890E+01 0.00000E+00
 -1      1031 1.20300E+02 3.01890E+01 0.00000E+00
 -1      1032 1.23300E+02 3.01890E+01 0.00000E+00
 -1      1033 1.26300E+02 3.01890E+01 0.00000E+00
 -1      1034 6.55350E+01 1.95942E+01 0.00000E+00
 -1      1035 6.25350E+01 1.95942E+01 0.00000E+00
 -1      1036 1.01535E+02 1.95942E+01 0.00000E+00
 -1      1037 1.04535E+02 1.95942E+01 0.00000E+00
 -1      1038 1.07535E+02 1.95942E+01 0.00000E+00
 -1      1039 1.10535E+02 1.95942E+01 0.00000E+00
 -1      1040 1.13535E+02 1.95942E+01 0.00000E+00
 -1      1041 1.16535E+02 1.95942E+01 0.00000E+00
 -1      1042 1.19535E+02 1.95942E+01 0.00000E+00
 -1      1043 1.22535E+02 1.95942E+01 0.00000E+00
 -1      1044 1.25535E+02 1.95942E+01 0.00000E+00
 -1      1045 1.28535E+02 1.95942E+01 0.00000E+00
 -1      1046 5.05350E+01 1.95942E+01 0.00000E+00
 -1      1047 7.04010E+01 1.88338E+01 0.00000E+00
 -1      1048 6.27397E+01 2.65653E+01 0.00000E+00
 -1      1049 9.85350E+01 1.95942E+01 0.00000E+00
 -1      1050 6.42405E+01 2.35802E+01 0.00000E+00
 -1      1051 5.35350E+01 1.95942E+01 0.00000E+00
 -1      1052 2.65350E+01 1.95942E+01 0.00000E+00
 -1      1053 1.11450E+02 3.01890E+01 0.00000E+00
 -1      1054 4.15350E+01 1.95942E+01 0.00000E+00
 -1      1055 2.38500E+01 2.92160E+01 0.00000E+00
 -1      1056 2.22261E+01 1.75417E+01 0.00000E+00
 -1      1057 1.08450E+02 3.01890E+01 0.00000E+00
 -1      1058 5.95350E+01 1.95942E+01 0.00000E+00
 -1      1059 2.12426E+01 2.90846E+01 0.00000E+00
 -1      1060 9.81485E+01 2.28153E+01 0.00000E+00
 -1      1061 3.25350E+01 1.95942E+01 0.00000E+00
 -1      1062 3.85350E+01 1.95942E+01 0.00000E+00
 -1      1063 6.19570E+01 2.91748E+01 0.00000E+00
 -1      1064 1.05709E+02 2.90031E+01 0.00000E+00
 -1      1065 1.29498E+02 2.95918E+01 0.00000E+00
 -1      1066 3.55350E+01 1.95942E+01 0.00000E+00
 -1      1067 1.29498E+02 2.66543E+01 0.00000E+00
 -1      1068 1.00796E+02 2.51590E+01 0.00000E+00
 -1      1069 2.95350E+01 1.95942E+01 0.00000E+00
 -1      1070 2.37261E+01 2.01397E+01 0.00000E+00
 -1      1071 4.75350E+01 1.95942E+01 0.00000E+00
 -1      1072 2.07934E+01 2.51033E+01 0.00000E+00
 -1      1073 1.29498E+02 2.37168E+01 0.00000E+00
 -1      1074 4.45350E+01 1.95942E+01 0.00000E+00
 -1      1075 1.03813E+02 2.86005E+01 0.00000E+00
 -1      1076 1.26300E+02 2.72515E+01 0.00000E+00
 -1      1077 1.12950E+02 2.75910E+01 0.00000E+00
 -1      1078 3.13500E+01 2.66180E+01 0.00000E+00
 -1      1079 3.43500E+01 2.66180E+01 0.00000E+00
 -1      1080 3.73500E+01 2.66180E+01 0.00000E+00
 -1      1081 4.03500E+01 2.66180E+01 0.00000E+00
 -1      1082 4.32000E+01 2.66180E+01 0.00000E+00
 -1      1083 4.62000E+01 2.66180E+01 0.00000E+00
 -1      1084 4.92000E+01 2.66180E+01 0.00000E+00
 -1      1085 5.22000E+01 2.66180E+01 0.00000E+00
 -1      1086 5.52000E+01 2.66180E+01 0.00000E+00
 -1      1087 5.82000E+01 2.66180E+01 0.00000E+00
 -1      1088 6.04827E+01 2.66065E+01 0.00000E+00
 -1      1089 3.10350E+01 2.21922E+01 0.00000E+00
 -1      1090 1.18875E+02 2.75910E+01 0.00000E+00
 -1      1091 1.21875E+02 2.75910E+01 0.00000E+00
 -1      1092 2.09560E+01 2.10839E+01 0.00000E+00
 -1      1093 6.19835E+01 2.36214E+01 0.00000E+00
 -1      1094 1.09035E+02 2.21922E+01 0.00000E+00
 -1      1095 1.06035E+02 2.21922E+01 0.00000E+00
 -1      1096 1.03035E+02 2.21922E+01 0.00000E+00
 -1      1097 1.12035E+02 2.21922E+01 0.00000E+00
 -1      1098 1.15035E+02 2.21922E+01 0.00000E+00
 -1      1099 1.18035E+02 2.21922E+01 0.00000E+00
 -1      1100 1.21035E+02 2.21922E+01 0.00000E+00
 -1      1101 1.24035E+02 2.21922E+01 0.00000E+00
 -1      1102 1.26767E+02 2.29545E+01 0.00000E+00
 -1      1103 5.20350E+01 2.21922E+01 0.00000E+00
 -1      1104 5.50350E+01 2.21922E+01 0.00000E+00
 -1      1105 2.80350E+01 2.21922E+01 0.00000E+00
 -1      1106 2.53500E+01 2.66180E+01 0.00000E+00
 -1      1107 1.09950E+02 2.75910E+01 0.00000E+00
 -1      1108 2.83500E+01 2.66180E+01 0.00000E+00
 -1      1109 5.80350E+01 2.21922E+01 0.00000E+00
 -1      1110 1.15912E+02 2.75910E+01 0.00000E+00
 -1      1111 1.02691E+02 2.55616E+01 0.00000E+00
 -1      1112 3.40350E+01 2.21922E+01 0.00000E+00
 -1      1113 1.07209E+02 2.64051E+01 0.00000E+00
 -1      1114 4.90350E+01 2.21922E+01 0.00000E+00
 -1      1115 2.52261E+01 2.27377E+01 0.00000E+00
 -1      1116 4.00350E+01 2.21922E+01 0.00000E+00
 -1      1117 1.26533E+02 2.51030E+01 0.00000E+00
 -1      1118 2.30717E+01 2.58606E+01 0.00000E+00
 -1      1119 4.30350E+01 2.21922E+01 0.00000E+00
 -1      1120 3.58500E+01 2.40200E+01 0.00000E+00
 -1      1121 4.77000E+01 2.40200E+01 0.00000E+00
 -1      1122 3.70350E+01 2.21922E+01 0.00000E+00
 -1      1123 4.60350E+01 2.21922E+01 0.00000E+00
 -1      1124 1.04587E+02 2.59641E+01 0.00000E+00
 -1      1125 1.13535E+02 2.47903E+01 0.00000E+00
 -1      1126 1.16535E+02 2.47903E+01 0.00000E+00
 -1      1127 1.19535E+02 2.47903E+01 0.00000E+00
 -1      1128 1.22535E+02 2.47903E+01 0.00000E+00
 -1      1129 1.24534E+02 2.49466E+01 0.00000E+00
 -1      1130 2.34706E+01 2.31987E+01 0.00000E+00
 -1      1131 1.10993E+02 2.48916E+01 0.00000E+00
 -1      1132 0.00000E+00 4.85250E+01 0.00000E+00
 -1      1133 0.00000E+00 4.55750E+01 0.00000E+00
 -1      1134 0.00000E+00 4.26250E+01 0.00000E+00
 -1      1135 0.00000E+00 3.96750E+01 0.00000E+00
 -1      1136 0.00000E+00 3.67250E+01 0.00000E+00
 -1      1137 0.00000E+00 3.38000E+01 0.00000E+00
 -1      1138 0.00000E+00 3.08750E+01 0.00000E+00
 -1      1139 0.00000E+00 2.79250E+01 0.00000E+00
 -1      1140 0.00000E+00 2.49750E+01 0.00000E+00
 -1      1141 0.00000E+00 2.20250E+01 0.00000E+00
 -1      1142 0.00000E+00 1.90750E+01 0.00000E+00
 -1      1143 0.00000E+00 1.61500E+01 0.00000E+00
 -1      1144 0.00000E+00 1.32250E+01 0.00000E+00
 -1      1145 0.00000E+00 1.02750E+01 0.00000E+00
 -1      1146 0.00000E+00 7.32500E+00 0.00000E+00
 -1      1147 0.00000E+00 4.37500E+00 0.00000E+00
 -1      1148 0.00000E+00 1.45000E+00 0.00000E+00
 -1      1149 1.50000E+00 5.00000E+01 0.00000E+00
 -1      1150 4.50000E+00 5.00000E+01 0.00000E+00
 -1      1151 7.50000E+00 5.00000E+01 0.00000E+00
 -1      1152 1.05000E+01 5.00000E+01 0.00000E+00
 -1      1153 1.35000E+01 5.00000E+01 0.00000E+00
 -1      1154 1.65000E+01 5.00000E+01 0.00000E+00
 -1      1155 1.94250E+01 5.00000E+01 0.00000E+00
 -1      1156 2.23500E+01 5.00000E+01 0.00000E+00
 -1      1157 2.53500E+01 5.00000E+01 0.00000E+00
 -1      1158 2.83500E+01 5.00000E+01 0.00000E+00
 -1      1159 3.13500E+01 5.00000E+01 0.00000E+00
 -1      1160 3.43500E+01 5.00000E+01 0.00000E+00
 -1      1161 3.72750E+01 5.00000E+01 0.00000E+00
 -1      1162 4.02000E+01 5.00000E+01 0.00000E+00
 -1      1163 4.32000E+01 5.00000E+01 0.00000E+00
 -1      1164 4.62000E+01 5.00000E+01 0.00000E+00
 -1      1165 4.92000E+01 5.00000E+01 0.00000E+00
 -1      1166 5.22000E+01 5.00000E+01 0.00000E+00
 -1      1167 5.51250E+01 5.00000E+01 0.00000E+00
 -1      1168 5.80500E+01 5.00000E+01 0.00000E+00
 -1      1169 6.10500E+01 5.00000E+01 0.00000E+00
 -1      1170 6.40500E+01 5.00000E+01 0.00000E+00
 -1      1171 6.70500E+01 5.00000E+01 0.00000E+00
 -1      1172 7.00500E+01 5.00000E+01 0.00000E+00
 -1      1173 7.29000E+01 5.00000E+01 0.00000E+00
 -1      1174 7.57500E+01 5.00000E+01 0.00000E+00
 -1      1175 7.86000E+01 5.00000E+01 0.00000E+00
 -1      1176 8.11500E+01 5.00000E+01 0.00000E+00
 -1      1177 8.36250E+01 5.00000E+01 0.00000E+00
 -1      1178 8.62500E+01 5.00000E+01 0.00000E+00
 -1      1179 8.91000E+01 5.00000E+01 0.00000E+00
 -1      1180 9.21000E+01 5.00000E+01 0.00000E+00
 -1      1181 9.50250E+01 5.00000E+01 0.00000E+00
 -1      1182 9.79500E+01 5.00000E+01 0.00000E+00
 -1      1183 1.00950E+02 5.00000E+01 0.00000E+00
 -1      1184 1.03950E+02 5.00000E+01 0.00000E+00
 -1      1185 1.06950E+02 5.00000E+01 0.00000E+00
 -1      1186 1.09950E+02 5.00000E+01 0.00000E+00
 -1      1187 1.12875E+02 5.00000E+01 0.00000E+00
 -1      1188 1.15800E+02 5.00000E+01 0.00000E+00
 -1      1189 1.18800E+02 5.00000E+01 0.00000E+00
 -1      1190 1.21800E+02 5.00000E+01 0.00000E+00
 -1      1191 1.24800E+02 5.00000E+01 0.00000E+00
 -1      1192 1.27800E+02 5.00000E+01 0.00000E+00
 -1      1193 1.30725E+02 5.00000E+01 0.00000E+00
 -1      1194 1.33650E+02 5.00000E+01 0.00000E+00
 -1      1195 1.36650E+02 5.00000E+01 0.00000E+00
 -1      1196 1.39650E+02 5.00000E+01 0.00000E+00
 -1      1197 1.42650E+02 5.00000E+01 0.00000E+00
 -1      1198 1.45650E+02 5.00000E+01 0.00000E+00
 -1      1199 1.48575E+02 5.00000E+01 0.00000E+00
 -1      1200 1.57500E+00 0.00000E+00 0.00000E+00
 -1      1201 4.65000E+00 0.00000E+00 0.00000E+00
 -1      1202 7.65000E+00 0.00000E+00 0.00000E+00
 -1      1203 1.06500E+01 0.00000E+00 0.00000E+00
 -1      1204 1.36500E+01 0.00000E+00 0.00000E+00
 -1      1205 1.66500E+01 0.00000E+00 0.00000E+00
 -1      1206 1.96500E+01 0.00000E+00 0.00000E+00
 -1      1207 2.26500E+01 0.00000E+00 0.00000E+00
 -1      1208 2.56500E+01 0.00000E+00 0.00000E+00
 -1      1209 2.86500E+01 0.00000E+00 0.00000E+00
 -1      1210 3.16500E+01 0.00000E+00 0.00000E+00
 -1      1211 3.46500E+01 0.00000E+00 0.00000E+00
 -1      1212 3.76500E+01 0.00000E+00 0.00000E+00
 -1      1213 4.06500E+01 0.00000E+00 0.00000E+00
 -1      1214 4.36500E+01 0.00000E+00 0.00000E+00
 -1      1215 4.66500E+01 0.00000E+00 0.00000E+00
 -1      1216 4.96500E+01 0.00000E+00 0.00000E+00
 -1      1217 5.26500E+01 0.00000E+00 0.00000E+00
 -1      1218 5.56500E+01 0.00000E+00 0.00000E+00
 -1      1219 5.86500E+01 0.00000E+00 0.00000E+00
 -1      1220 6.16500E+01 0.00000E+00 0.00000E+00
 -1      1221 6.46500E+01 0.00000E+00 0.00000E+00
 -1      1222 6.76500E+01 0.00000E+00 0.00000E+00
 -1      1223 7.06500E+01 0.00000E+00 0.00000E+00
 -1      1224 7.36500E+01 0.00000E+00 0.00000E+00
 -1      1225 7.66500E+01 0.00000E+00 0.00000E+00
 -1      1226 7.96500E+01 0.00000E+00 0.00000E+00
 -1      1227 8.26500E+01 0.00000E+00 0.00000E+00
 -1      1228 8.56500E+01 0.00000E+00 0.00000E+00
 -1      1229 8.86500E+01 0.00000E+00 0.00000E+00
 -1      1230 9.16500E+01 0.00000E+00 0.00000E+00
 -1      1231 9.46500E+01 0.00000E+00 0.00000E+00
 -1      1232 9.76500E+01 0.00000E+00 0.00000E+00
 -1      1233 1.00650E+02 0.00000E+00 0.00000E+00
 -1      1234 1.03650E+02 0.00000E+00 0.00000E+00
 -1      1235 1.06650E+02 0.00000E+00 0.00000E+00
 -1      1236 1.09650E+02 0.00000E+00 0.00000E+00
 -1      1237 1.12650E+02 0.00000E+00 0.00000E+00
 -1      1238 1.15650E+02 0.00000E+00 0.00000E+00
 -1      1239 1.18650E+02 0.00000E+00 0.00000E+00
 -1      1240 1.21650E+02 0.00000E+00 0.00000E+00
 -1      1241 1.24650E+02 0.00000E+00 0.00000E+00
 -1      1242 1.27650E+02 0.00000E+00 0.00000E+00
 -1      1243 1.30650E+02 0.00000E+00 0.00000E+00
 -1      1244 1.33650E+02 0.00000E+00 0.00000E+00
 -1      1245 1.36650E+02 0.00000E+00 0.00000E+00
 -1      1246 1.39650E+02 0.00000E+00 0.00000E+00
 -1      1247 1.42650E+02 0.00000E+00 0.00000E+00
 -1      1248 1.45650E+02 0.00000E+00 0.00000E+00
 -1      1249 1.48575E+02 0.00000E+00 0.00000E+00
 -1      1250 1.50000E+02 1.47500E+00 0.00000E+00
 -1      1251 1.50000E+02 4.42500E+00 0.00000E+00
 -1      1252 1.50000E+02 7.37500E+00 0.00000E+00
 -1      1253 1.50000E+02 1.03250E+01 0.00000E+00
 -1      1254 1.50000E+02 1.32750E+01 0.00000E+00
 -1      1255 1.50000E+02 1.62000E+01 0.00000E+00
 -1      1256 1.50000E+02 1.91250E+01 0.00000E+00
 -1      1257 1.50000E+02 2.20750E+01 0.00000E+00
 -1      1258 1.50000E+02 2.50250E+01 0.00000E+00
 -1      1259 1.50000E+02 2.79750E+01 0.00000E+00
 -1      1260 1.50000E+02 3.09250E+01 0.00000E+00
 -1      1261 1.50000E+02 3.38500E+01 0.00000E+00
 -1      1262 1.50000E+02 3.67750E+01 0.00000E+00
 -1      1263 1.50000E+02 3.97250E+01 0.00000E+00
 -1      1264 1.50000E+02 4.26750E+01 0.00000E+00
 -1      1265 1.50000E+02 4.56250E+01 0.00000E+00
 -1      1266 1.50000E+02 4.85500E+01 0.00000E+00
 -1      1267 8.98427E+01 3.48995E+01 0.00000E+00
 -1      1268 8.95307E+01 3.34503E+01 0.00000E+00
 -1      1269 8.89030E+01 3.20695E+01 0.00000E+00
 -1      1270 8.80171E+01 3.08828E+01 0.00000E+00
 -1      1271 8.68697E+01 2.98869E+01 0.00000E+00
 -1      1272 8.55035E+01 2.91494E+01 0.00000E+00
 -1      1273 8.40438E+01 2.87371E+01 0.00000E+00
 -1      1274 8.24819E+01 2.86514E+01 0.00000E+00
 -1      1275 8.09755E+01 2.89046E+01 0.00000E+00
 -1      1276 7.96222E+01 2.94454E+01 0.00000E+00
 -1      1277 7.84131E+01 3.02521E+01 0.00000E+00
 -1      1278 7.74032E+01 3.12831E+01 0.00000E+00
 -1      1279 7.66150E+01 3.25216E+01 0.00000E+00
 -1      1280 7.61027E+01 3.38962E+01 0.00000E+00
 -1      1281 7.58892E+01 3.53241E+01 0.00000E+00
 -1      1282 7.59745E+01 3.67740E+01 0.00000E+00
 -1      1283 7.63721E+01 3.82132E+01 0.00000E+00
 -1      1284 7.70708E+01 3.95426E+01 0.00000E+00
 -1      1285 7.80562E+01 4.07107E+01 0.00000E+00
 -1      1286 7.92541E+01 4.16265E+01 0.00000E+00
 -1      1287 8.06239E+01 4.22658E+01 0.00000E+00
 -1      1288 8.22019E+01 4.26069E+01 0.00000E+00
 -1      1289 8.37479E+01 4.25862E+01 0.00000E+00
 -1      1290 8.52239E+01 4.22366E+01 0.00000E+00
 -1      1291 8.66266E+01 4.15542E+01 0.00000E+00
 -1      1292 8.78495E+01 4.05720E+01 0.00000E+00
 -1      1293 8.88174E+01 3.93510E+01 0.00000E+00
 -1      1294 8.95014E+01 3.79168E+01 0.00000E+00
 -1      1295 8.98418E+01 3.63898E+01 0.00000E+00
 -1      1296 1.50000E+00 4.85250E+01 0.00000E+00
 -1      1297 1.29900E+00 4.48375E+01 0.00000E+00
 -1      1298 1.29900E+00 4.63125E+01 0.00000E+00
 -1      1299 1.29900E+00 4.18875E+01 0.00000E+00
 -1      1300 1.29900E+00 4.33625E+01 0.00000E+00
 -1      1301 2.59800E+00 4.41000E+01 0.00000E+00
 -1      1302 1.29900E+00 3.89375E+01 0.00000E+00
 -1      1303 1.29900E+00 4.04125E+01 0.00000E+00
 -1      1304 2.59800E+00 4.11500E+01 0.00000E+00
 -1      1305 1.29900E+00 3.59875E+01 0.00000E+00
 -1      1306 1.29900E+00 3.74625E+01 0.00000E+00
 -1      1307 2.59800E+00 3.82000E+01 0.00000E+00
 -1      1308 1.29900E+00 3.30875E+01 0.00000E+00
 -1      1309 1.29900E+00 3.45375E+01 0.00000E+00
 -1      1310 2.59800E+00 3.52750E+01 0.00000E+00
 -1      1311 1.29900E+00 3.01375E+01 0.00000E+00
 -1      1312 1.29900E+00 3.16125E+01 0.00000E+00
 -1      1313 2.59800E+00 3.23500E+01 0.00000E+00
 -1      1314 1.29900E+00 2.71875E+01 0.00000E+00
 -1      1315 1.29900E+00 2.86625E+01 0.00000E+00
 -1      1316 2.59800E+00 2.94000E+01 0.00000E+00
 -1      1317 1.29900E+00 2.42375E+01 0.00000E+00
 -1      1318 1.29900E+00 2.57125E+01 0.00000E+00
 -1      1319 2.59800E+00 2.64500E+01 0.00000E+00
 -1      1320 1.29900E+00 2.12875E+01 0.00000E+00
 -1      1321 1.29900E+00 2.27625E+01 0.00000E+00
 -1      1322 2.59800E+00 2.35000E+01 0.00000E+00
 -1      1323 1.29900E+00 1.83375E+01 0.00000E+00
 -1      1324 1.29900E+00 1.98125E+01 0.00000E+00
 -1      1325 2.59800E+00 2.05500E+01 0.00000E+00
 -1      1326 1.29900E+00 1.54375E+01 0.00000E+00
 -1      1327 1.29900E+00 1.68875E+01 0.00000E+00
 -1      1328 2.59800E+00 1.76250E+01 0.00000E+00
 -1      1329 1.29900E+00 1.24875E+01 0.00000E+00
 -1      1330 1.29900E+00 1.39625E+01 0.00000E+00
 -1      1331 2.59800E+00 1.47000E+01 0.00000E+00
 -1      1332 1.29900E+00 9.53750E+00 0.00000E+00
 -1      1333 1.29900E+00 1.10125E+01 0.00000E+00
 -1      1334 2.59800E+00 1.17500E+01 0.00000E+00
 -1      1335 1.29900E+00 6.58750E+00 0.00000E+00
 -1      1336 1.29900E+00 8.06250E+00 0.00000E+00
 -1      1337 2.59800E+00 8.80000E+00 0.00000E+00
 -1      1338 1.29900E+00 3.63750E+00 0.00000E+00
 -1      1339 1.29900E+00 5.11250E+00 0.00000E+00
 -1      1340 2.59800E+00 5.85000E+00 0.00000E+00
 -1      1341 1.43700E+00 1.09375E+00 0.00000E+00
 -1      1342 1.43700E+00 2.54375E+00 0.00000E+00
 -1      1343 2.73600E+00 3.28125E+00 0.00000E+00
 -1      1344 3.01200E+00 1.09375E+00 0.00000E+00
 -1      1345 3.75000E+00 4.87010E+01 0.00000E+00
 -1      1346 5.25000E+00 4.87010E+01 0.00000E+00
 -1      1347 6.75000E+00 4.87010E+01 0.00000E+00
 -1      1348 8.25000E+00 4.87010E+01 0.00000E+00
 -1      1349 6.00000E+00 4.74020E+01 0.00000E+00
 -1      1350 9.75000E+00 4.87010E+01 0.00000E+00
 -1      1351 1.12500E+01 4.87010E+01 0.00000E+00
 -1      1352 9.00000E+00 4.74020E+01 0.00000E+00
 -1      1353 1.27500E+01 4.87010E+01 0.00000E+00
 -1      1354 1.42500E+01 4.87010E+01 0.00000E+00
 -1      1355 1.20000E+01 4.74020E+01 0.00000E+00
 -1      1356 1.57500E+01 4.87010E+01 0.00000E+00
 -1      1357 1.72500E+01 4.87010E+01 0.00000E+00
 -1      1358 1.50000E+01 4.74020E+01 0.00000E+00
 -1      1359 1.86750E+01 4.87010E+01 0.00000E+00
 -1      1360 2.01000E+01 4.87010E+01 0.00000E+00
 -1      1361 1.79250E+01 4.74020E+01 0.00000E+00
 -1      1362 2.16000E+01 4.87010E+01 0.00000E+00
 -1      1363 2.31000E+01 4.87010E+01 0.00000E+00
 -1      1364 2.08500E+01 4.74020E+01 0.00000E+00
 -1      1365 2.46000E+01 4.87010E+01 0.00000E+00
 -1      1366 2.61000E+01 4.87010E+01 0.00000E+00
 -1      1367 2.38500E+01 4.74020E+01 0.00000E+00
 -1      1368 2.76000E+01 4.87010E+01 0.00000E+00
 -1      1369 2.91000E+01 4.87010E+01 0.00000E+00
 -1      1370 2.68500E+01 4.74020E+01 0.00000E+00
 -1      1371 3.06000E+01 4.87010E+01 0.00000E+00
 -1      1372 3.21000E+01 4.87010E+01 0.00000E+00
 -1      1373 2.98500E+01 4.74020E+01 0.00000E+00
 -1      1374 3.36000E+01 4.87010E+01 0.00000E+00
 -1      1375 3.51000E+01 4.87010E+01 0.00000E+00
 -1      1376 3.28500E+01 4.74020E+01 0.00000E+00
 -1      1377 3.65250E+01 4.87010E+01 0.00000E+00
 -1      1378 3.79500E+01 4.87010E+01 0.00000E+00
 -1      1379 3.57750E+01 4.74020E+01 0.00000E+00
 -1      1380 3.94500E+01 4.87010E+01 0.00000E+00
 -1      1381 4.09500E+01 4.87010E+01 0.00000E+00
 -1      1382 3.87000E+01 4.74020E+01 0.00000E+00
 -1      1383 4.24500E+01 4.87010E+01 0.00000E+00
 -1      1384 4.39500E+01 4.87010E+01 0.00000E+00
 -1      1385 4.17000E+01 4.74020E+01 0.00000E+00
 -1      1386 4.54500E+01 4.87010E+01 0.00000E+00
 -1      1387 4.69500E+01 4.87010E+01 0.00000E+00
 -1      1388 4.47000E+01 4.74020E+01 0.00000E+00
 -1      1389 4.84500E+01 4.87010E+01 0.00000E+00
 -1      1390 4.99500E+01 4.87010E+01 0.00000E+00
 -1      1391 4.77000E+01 4.74020E+01 0.00000E+00
 -1      1392 5.14500E+01 4.87010E+01 0.00000E+00
 -1      1393 5.29500E+01 4.87010E+01 0.00000E+00
 -1      1394 5.07000E+01 4.74020E+01 0.00000E+00
 -1      1395 5.43750E+01 4.87010E+01 0.00000E+00
 -1      1396 5.58000E+01 4.87010E+01 0.00000E+00
 -1      1397 5.36250E+01 4.74020E+01 0.00000E+00
 -1      1398 5.73000E+01 4.87010E+01 0.00000E+00
 -1      1399 5.88000E+01 4.87010E+01 0.00000E+00
 -1      1400 5.65500E+01 4.74020E+01 0.00000E+00
 -1      1401 6.03000E+01 4.87010E+01 0.00000E+00
 -1      1402 6.18000E+01 4.87010E+01 0.00000E+00
 -1      1403 5.95500E+01 4.74020E+01 0.00000E+00
 -1      1404 6.33000E+01 4.87010E+01 0.00000E+00
 -1      1405 6.48000E+01 4.87010E+01 0.00000E+00
 -1      1406 6.25500E+01 4.74020E+01 0.00000E+00
 -1      1407 6.63000E+01 4.87010E+01 0.00000E+00
 -1      1408 6.78000E+01 4.87010E+01 0.00000E+00
 -1      1409 6.55500E+01 4.74020E+01 0.00000E+00
 -1      1410 6.93000E+01 4.87010E+01 0.00000E+00
 -1      1411 7.08000E+01 4.87010E+01 0.00000E+00
 -1      1412 6.85500E+01 4.74020E+01 0.00000E+00
 -1      1413 7.21500E+01 4.87010E+01 0.00000E+00
 -1      1414 7.35000E+01 4.87010E+01 0.00000E+00
 -1      1415 7.14000E+01 4.74020E+01 0.00000E+00
 -1      1416 7.50000E+01 4.87010E+01 0.00000E+00
 -1      1417 7.65000E+01 4.87010E+01 0.00000E+00
 -1      1418 7.42500E+01 4.74020E+01 0.00000E+00
 -1      1419 7.78500E+01 4.87010E+01 0.00000E+00
 -1      1420 7.92000E+01 4.87010E+01 0.00000E+00
 -1      1421 7.71000E+01 4.74020E+01 0.00000E+00
 -1      1422 8.04000E+01 4.87010E+01 0.00000E+00
 -1      1423 8.16000E+01 4.87010E+01 0.00000E+00
 -1      1424 7.96500E+01 4.74020E+01 0.00000E+00
 -1      1425 8.28750E+01 4.87010E+01 0.00000E+00
 -1      1426 8.41500E+01 4.87010E+01 0.00000E+00
 -1      1427 8.21250E+01 4.74020E+01 0.00000E+00
 -1      1428 8.55000E+01 4.87010E+01 0.00000E+00
 -1      1429 8.68500E+01 4.87010E+01 0.00000E+00
 -1      1430 8.47500E+01 4.74020E+01 0.00000E+00
 -1      1431 8.83500E+01 4.87010E+01 0.00000E+00
 -1      1432 8.98500E+01 4.87010E+01 0.00000E+00
 -1      1433 8.76000E+01 4.74020E+01 0.00000E+00
 -1      1434 9.13500E+01 4.87010E+01 0.00000E+00
 -1      1435 9.28500E+01 4.87010E+01 0.00000E+00
 -1      1436 9.06000E+01 4.74020E+01 0.00000E+00
 -1      1437 9.42750E+01 4.87010E+01 0.00000E+00
 -1      1438 9.57000E+01 4.87010E+01 0.00000E+00
 -1      1439 9.35250E+01 4.74020E+01 0.00000E+00
 -1      1440 9.72000E+01 4.87010E+01 0.00000E+00
 -1      1441 9.87000E+01 4.87010E+01 0.00000E+00
 -1      1442 9.64500E+01 4.74020E+01 0.00000E+00
 -1      1443 1.00200E+02 4.87010E+01 0.00000E+00
 -1      1444 1.01700E+02 4.87010E+01 0.00000E+00
 -1      1445 9.94500E+01 4.74020E+01 0.00000E+00
 -1      1446 1.03200E+02 4.87010E+01 0.00000E+00
 -1      1447 1.04700E+02 4.87010E+01 0.00000E+00
 -1      1448 1.02450E+02 4.74020E+01 0.00000E+00
 -1      1449 1.06200E+02 4.87010E+01 0.00000E+00
 -1      1450 1.07700E+02 4.87010E+01 0.00000E+00
 -1      1451 1.05450E+02 4.74020E+01 0.00000E+00
 -1      1452 1.09200E+02 4.87010E+01 0.00000E+00
 -1      1453 1.10700E+02 4.87010E+01 0.00000E+00
 -1      1454 1.08450E+02 4.74020E+01 0.00000E+00
 -1      1455 1.12125E+02 4.87010E+01 0.00000E+00
 -1      1456 1.13550E+02 4.87010E+01 0.00000E+00
 -1      1457 1.11375E+02 4.74020E+01 0.00000E+00
 -1      1458 1.15050E+02 4.87010E+01 0.00000E+00
 -1      1459 1.16550E+02 4.87010E+01 0.00000E+00
 -1      1460 1.14300E+02 4.74020E+01 0.00000E+00
 -1      1461 1.18050E+02 4.87010E+01 0.00000E+00
 -1      1462 1.19550E+02 4.87010E+01 0.00000E+00
 -1      1463 1.17300E+02 4.74020E+01 0.00000E+00
 -1      1464 1.21050E+02 4.87010E+01 0.00000E+00
 -1      1465 1.22550E+02 4.87010E+01 0.00000E+00
 -1      1466 1.20300E+02 4.74020E+01 0.00000E+00
 -1      1467 1.24050E+02 4.87010E+01 0.00000E+00
 -1      1468 1.25550E+02 4.87010E+01 0.00000E+00
 -1      1469 1.23300E+02 4.74020E+01 0.00000E+00
 -1      1470 1.27050E+02 4.87010E+01 0.00000E+00
 -1      1471 1.28550E+02 4.87010E+01 0.00000E+00
 -1      1472 1.26300E+02 4.74020E+01 0.00000E+00
 -1      1473 1.29975E+02 4.87010E+01 0.00000E+00
 -1      1474 1.31400E+02 4.87010E+01 0.00000E+00
 -1      1475 1.29225E+02 4.74020E+01 0.00000E+00
 -1      1476 1.32900E+02 4.87010E+01 0.00000E+00
 -1      1477 1.34400E+02 4.87010E+01 0.00000E+00
 -1      1478 1.32150E+02 4.74020E+01 0.00000E+00
 -1      1479 1.35900E+02 4.87010E+01 0.00000E+00
 -1      1480 1.37400E+02 4.87010E+01 0.00000E+00
 -1      1481 1.35150E+02 4.74020E+01 0.00000E+00
 -1      1482 1.38900E+02 4.87010E+01 0.00000E+00
 -1      1483 1.40400E+02 4.87010E+01 0.00000E+00
 -1      1484 1.38150E+02 4.74020E+01 0.00000E+00
 -1      1485 1.41900E+02 4.87010E+01 0.00000E+00
 -1      1486 1.43400E+02 4.87010E+01 0.00000E+00
 -1      1487 1.41150E+02 4.74020E+01 0.00000E+00
 -1      1488 1.44900E+02 4.87010E+01 0.00000E+00
 -1      1489 1.46400E+02 4.87010E+01 0.00000E+00
 -1      1490 1.44150E+02 4.74020E+01 0.00000E+00
 -1      1491 1.48575E+02 4.85500E+01 0.00000E+00
 -1      1492 6.01200E+00 1.09375E+00 0.00000E+00
 -1      1493 4.51200E+00 1.09375E+00 0.00000E+00
 -1      1494 4.37400E+00 2.18750E+00 0.00000E+00
 -1      1495 9.01200E+00 1.09375E+00 0.00000E+00
 -1      1496 7.51200E+00 1.09375E+00 0.00000E+00
 -1      1497 7.37400E+00 2.18750E+00 0.00000E+00
 -1      1498 1.20120E+01 1.09375E+00 0.00000E+00
 -1      1499 1.05120E+01 1.09375E+00 0.00000E+00
 -1      1500 1.03740E+01 2.18750E+00 0.00000E+00
 -1      1501 1.50120E+01 1.09375E+00 0.00000E+00
 -1      1502 1.35120E+01 1.09375E+00 0.00000E+00
 -1      1503 1.33740E+01 2.18750E+00 0.00000E+00
 -1      1504 1.80120E+01 1.09375E+00 0.00000E+00
 -1      1505 1.65120E+01 1.09375E+00 0.00000E+00
 -1      1506 1.63740E+01 2.18750E+00 0.00000E+00
 -1      1507 2.10120E+01 1.09375E+00 0.00000E+00
 -1      1508 1.95120E+01 1.09375E+00 0.00000E+00
 -1      1509 1.93740E+01 2.18750E+00 0.00000E+00
 -1      1510 2.40120E+01 1.09375E+00 0.00000E+00
 -1      1511 2.25120E+01 1.09375E+00 0.00000E+00
 -1      1512 2.23740E+01 2.18750E+00 0.00000E+00
 -1      1513 2.70120E+01 1.09375E+00 0.00000E+00
 -1      1514 2.55120E+01 1.09375E+00 0.00000E+00
 -1      1515 2.53740E+01 2.18750E+00 0.00000E+00
 -1      1516 3.00120E+01 1.09375E+00 0.00000E+00
 -1      1517 2.85120E+01 1.09375E+00 0.00000E+00
 -1      1518 2.83740E+01 2.18750E+00 0.00000E+00
 -1      1519 3.30120E+01 1.09375E+00 0.00000E+00
 -1      1520 3.15120E+01 1.09375E+00 0.00000E+00
 -1      1521 3.13740E+01 2.18750E+00 0.00000E+00
 -1      1522 3.60120E+01 1.09375E+00 0.00000E+00
 -1      1523 3.45120E+01 1.09375E+00 0.00000E+00
 -1      1524 3.43740E+01 2.18750E+00 0.00000E+00
 -1      1525 3.90120E+01 1.09375E+00 0.00000E+00
 -1      1526 3.75120E+01 1.09375E+00 0.00000E+00
 -1      1527 3.73740E+01 2.18750E+00 0.00000E+00
 -1      1528 4.20120E+01 1.09375E+00 0.00000E+00
 -1      1529 4.05120E+01 1.09375E+00 0.00000E+00
 -1      1530 4.03740E+01 2.18750E+00 0.00000E+00
 -1      1531 4.50120E+01 1.09375E+00 0.00000E+00
 -1      1532 4.35120E+01 1.09375E+00 0.00000E+00
 -1      1533 4.33740E+01 2.18750E+00 0.00000E+00
 -1      1534 4.80120E+01 1.09375E+00 0.00000E+00
 -1      1535 4.65120E+01 1.09375E+00 0.00000E+00
 -1      1536 4.63740E+01 2.18750E+00 0.00000E+00
 -1      1537 5.10120E+01 1.09375E+00 0.00000E+00
 -1      1538 4.95120E+01 1.09375E+00 0.00000E+00
 -1      1539 4.93740E+01 2.18750E+00 0.00000E+00
 -1      1540 5.40120E+01 1.09375E+00 0.00000E+00
 -1      1541 5.25120E+01 1.09375E+00 0.00000E+00
 -1      1542 5.23740E+01 2.18750E+00 0.00000E+00
 -1      1543 5.70120E+01 1.09375E+00 0.00000E+00
 -1      1544 5.55120E+01 1.09375E+00 0.00000E+00
 -1      1545 5.53740E+01 2.18750E+00 0.00000E+00
 -1      1546 6.00120E+01 1.09375E+00 0.00000E+00
 -1      1547 5.85120E+01 1.09375E+00 0.00000E+00
 -1      1548 5.83740E+01 2.18750E+00 0.00000E+00
 -1      1549 6.30120E+01 1.09375E+00 0.00000E+00
 -1      1550 6.15120E+01 1.09375E+00 0.00000E+00
 -1      1551 6.13740E+01 2.18750E+00 0.00000E+00
 -1      1552 6.60120E+01 1.09375E+00 0.00000E+00
 -1      1553 6.45120E+01 1.09375E+00 0.00000E+00
 -1      1554 6.43740E+01 2.18750E+00 0.00000E+00
 -1      1555 6.90120E+01 1.09375E+00 0.00000E+00
 -1      1556 6.75120E+01 1.09375E+00 0.00000E+00
 -1      1557 6.73740E+01 2.18750E+00 0.00000E+00
 -1      1558 7.20120E+01 1.09375E+00 0.00000E+00
 -1      1559 7.05120E+01 1.09375E+00 0.00000E+00
 -1      1560 7.03740E+01 2.18750E+00 0.00000E+00
 -1      1561 7.50120E+01 1.09375E+00 0.00000E+00
 -1      1562 7.35120E+01 1.09375E+00 0.00000E+00
 -1      1563 7.33740E+01 2.18750E+00 0.00000E+00
 -1      1564 7.80120E+01 1.09375E+00 0.00000E+00
 -1      1565 7.65120E+01 1.09375E+00 0.00000E+00
 -1      1566 7.63740E+01 2.18750E+00 0.00000E+00
 -1      1567 8.10120E+01 1.09375E+00 0.00000E+00
 -1      1568 7.95120E+01 1.09375E+00 0.00000E+00
 -1      1569 7.93740E+01 2.18750E+00 0.00000E+00
 -1      1570 8.40120E+01 1.09375E+00 0.00000E+00
 -1      1571 8.25120E+01 1.09375E+00 0.00000E+00
 -1      1572 8.23740E+01 2.18750E+00 0.00000E+00
 -1      1573 8.70120E+01 1.09375E+00 0.00000E+00
 -1      1574 8.55120E+01 1.09375E+00 0.00000E+00
 -1      1575 8.53740E+01 2.18750E+00 0.00000E+00
 -1      1576 9.00120E+01 1.09375E+00 0.00000E+00
 -1      1577 8.85120E+01 1.09375E+00 0.00000E+00
 -1      1578 8.83740E+01 2.18750E+00 0.00000E+00
 -1      1579 9.30120E+01 1.09375E+00 0.00000E+00
 -1      1580 9.15120E+01 1.09375E+00 0.00000E+00
 -1      1581 9.13740E+01 2.18750E+00 0.00000E+00
 -1      1582 9.60120E+01 1.09375E+00 0.00000E+00
 -1      1583 9.45120E+01 1.09375E+00 0.00000E+00
 -1      1584 9.43740E+01 2.18750E+00 0.00000E+00
 -1      1585 9.90120E+01 1.09375E+00 0.00000E+00
 -1      1586 9.75120E+01 1.09375E+00 0.00000E+00
 -1      1587 9.73740E+01 2.18750E+00 0.00000E+00
 -1      1588 1.02012E+02 1.09375E+00 0.00000E+00
 -1      1589 1.00512E+02 1.09375E+00 0.00000E+00
 -1      1590 1.00374E+02 2.18750E+00 0.00000E+00
 -1      1591 1.05012E+02 1.09375E+00 0.00000E+00
 -1      1592 1.03512E+02 1.09375E+00 0.00000E+00
 -1      1593 1.03374E+02 2.18750E+00 0.00000E+00
 -1      1594 1.08012E+02 1.09375E+00 0.00000E+00
 -1      1595 1.06512E+02 1.09375E+00 0.00000E+00
 -1      1596 1.06374E+02 2.18750E+00 0.00000E+00
 -1      1597 1.11012E+02 1.09375E+00 0.00000E+00
 -1      1598 1.09512E+02 1.09375E+00 0.00000E+00
 -1      1599 1.09374E+02 2.18750E+00 0.00000E+00
 -1      1600 1.14012E+02 1.09375E+00 0.00000E+00
 -1      1601 1.12512E+02 1.09375E+00 0.00000E+00
 -1      1602 1.12374E+02 2.18750E+00 0.00000E+00
 -1      1603 1.17012E+02 1.09375E+00 0.00000E+00
 -1      1604 1.15512E+02 1.09375E+00 0.00000E+00
 -1      1605 1.15374E+02 2.18750E+00 0.00000E+00
 -1      1606 1.20012E+02 1.09375E+00 0.00000E+00
 -1      1607 1.18512E+02 1.09375E+00 0.00000E+00
 -1      1608 1.18374E+02 2.18750E+00 0.00000E+00
 -1      1609 1.23012E+02 1.09375E+00 0.00000E+00
 -1      1610 1.21512E+02 1.09375E+00 0.00000E+00
 -1      1611 1.21374E+02 2.18750E+00 0.00000E+00
 -1      1612 1.26012E+02 1.09375E+00 0.00000E+00
 -1      1613 1.24512E+02 1.09375E+00 0.00000E+00
 -1      1614 1.24374E+02 2.18750E+00 0.00000E+00
 -1      1615 1.29012E+02 1.09375E+00 0.00000E+00
 -1      1616 1.27512E+02 1.09375E+00 0.00000E+00
 -1      1617 1.27374E+02 2.18750E+00 0.00000E+00
 -1      1618 1.32012E+02 1.09375E+00 0.00000E+00
 -1      1619 1.30512E+02 1.09375E+00 0.00000E+00
 -1      1620 1.30374E+02 2.18750E+00 0.00000E+00
 -1      1621 1.35012E+02 1.09375E+00 0.00000E+00
 -1      1622 1.33512E+02 1.09375E+00 0.00000E+00
 -1      1623 1.33374E+02 2.18750E+00 0.00000E+00
 -1      1624 1.38012E+02 1.09375E+00 0.00000E+00
 -1      1625 1.36512E+02 1.09375E+00 0.00000E+00
 -1      1626 1.36374E+02 2.18750E+00 0.00000E+00
 -1      1627 1.41012E+02 1.09375E+00 0.00000E+00
 -1      1628 1.39512E+02 1.09375E+00 0.00000E+00
 -1      1629 1.39374E+02 2.18750E+00 0.00000E+00
 -1      1630 1.44012E+02 1.09375E+00 0.00000E+00
 -1      1631 1.42512E+02 1.09375E+00 0.00000E+00
 -1      1632 1.42374E+02 2.18750E+00 0.00000E+00
 -1      1633 1.47012E+02 1.09375E+00 0.00000E+00
 -1      1634 1.45512E+02 1.09375E+00 0.00000E+00
 -1      1635 1.45374E+02 2.18750E+00 0.00000E+00
 -1      1636 1.48575E+02 1.47500E+00 0.00000E+00
 -1      1637 1.48701E+02 5.16250E+00 0.00000E+00
 -1      1638 1.48701E+02 3.68750E+00 0.00000E+00
 -1      1639 1.48701E+02 8.11250E+00 0.00000E+00
 -1      1640 1.48701E+02 6.63750E+00 0.00000E+00
 -1      1641 1.47402E+02 5.90000E+00 0.00000E+00
 -1      1642 1.48701E+02 1.10625E+01 0.00000E+00
 -1      1643 1.48701E+02 9.58750E+00 0.00000E+00
 -1      1644 1.47402E+02 8.85000E+00 0.00000E+00
 -1      1645 1.48701E+02 1.40125E+01 0.00000E+00
 -1      1646 1.48701E+02 1.25375E+01 0.00000E+00
 -1      1647 1.47402E+02 1.18000E+01 0.00000E+00
 -1      1648 1.48701E+02 1.69125E+01 0.00000E+00
 -1      1649 1.48701E+02 1.54625E+01 0.00000E+00
 -1      1650 1.47402E+02 1.47250E+01 0.00000E+00
 -1      1651 1.48701E+02 1.98625E+01 0.00000E+00
 -1      1652 1.48701E+02 1.83875E+01 0.00000E+00
 -1      1653 1.47402E+02 1.76500E+01 0.00000E+00
 -1      1654 1.48701E+02 2.28125E+01 0.00000E+00
 -1      1655 1.48701E+02 2.13375E+01 0.00000E+00
 -1      1656 1.47402E+02 2.06000E+01 0.00000E+00
 -1      1657 1.48701E+02 2.57625E+01 0.00000E+00
 -1      1658 1.48701E+02 2.42875E+01 0.00000E+00
 -1      1659 1.47402E+02 2.35500E+01 0.00000E+00
 -1      1660 1.48701E+02 2.87125E+01 0.00000E+00
 -1      1661 1.48701E+02 2.72375E+01 0.00000E+00
 -1      1662 1.47402E+02 2.65000E+01 0.00000E+00
 -1      1663 1.48701E+02 3.16625E+01 0.00000E+00
 -1      1664 1.48701E+02 3.01875E+01 0.00000E+00
 -1      1665 1.47402E+02 2.94500E+01 0.00000E+00
 -1      1666 1.48701E+02 3.45625E+01 0.00000E+00
 -1      1667 1.48701E+02 3.31125E+01 0.00000E+00
 -1      1668 1.47402E+02 3.23750E+01 0.00000E+00
 -1      1669 1.48701E+02 3.75125E+01 0.00000E+00
 -1      1670 1.48701E+02 3.60375E+01 0.00000E+00
 -1      1671 1.47402E+02 3.53000E+01 0.00000E+00
 -1      1672 1.48701E+02 4.04625E+01 0.00000E+00
 -1      1673 1.48701E+02 3.89875E+01 0.00000E+00
 -1      1674 1.47402E+02 3.82500E+01 0.00000E+00
 -1      1675 1.48701E+02 4.34125E+01 0.00000E+00
 -1      1676 1.48701E+02 4.19375E+01 0.00000E+00
 -1      1677 1.47402E+02 4.12000E+01 0.00000E+00
 -1      1678 9.04090E+01 3.44669E+01 0.00000E+00
 -1      1679 9.04873E+01 3.52033E+01 0.00000E+00
 -1      1680 8.99928E+01 3.29076E+01 0.00000E+00
 -1      1681 9.02249E+01 3.36122E+01 0.00000E+00
 -1      1682 8.92978E+01 3.13849E+01 0.00000E+00
 -1      1683 8.96931E+01 3.20515E+01 0.00000E+00
 -1      1684 8.81957E+01 3.02361E+01 0.00000E+00
 -1      1685 8.86755E+01 3.07540E+01 0.00000E+00
 -1      1686 8.69493E+01 2.90583E+01 0.00000E+00
 -1      1687 8.76177E+01 2.95216E+01 0.00000E+00
 -1      1688 8.53732E+01 2.84852E+01 0.00000E+00
 -1      1689 8.60586E+01 2.87620E+01 0.00000E+00
 -1      1690 8.37538E+01 2.81175E+01 0.00000E+00
 -1      1691 8.45207E+01 2.82466E+01 0.00000E+00
 -1      1692 8.20475E+01 2.79457E+01 0.00000E+00
 -1      1693 8.28329E+01 2.79007E+01 0.00000E+00
 -1      1694 8.04532E+01 2.84198E+01 0.00000E+00
 -1      1695 8.11661E+01 2.82180E+01 0.00000E+00
 -1      1696 7.90400E+01 2.91082E+01 0.00000E+00
 -1      1697 7.96740E+01 2.87746E+01 0.00000E+00
 -1      1698 7.77673E+01 3.00508E+01 0.00000E+00
 -1      1699 7.83347E+01 2.95802E+01 0.00000E+00
 -1      1700 7.67369E+01 3.12044E+01 0.00000E+00
 -1      1701 7.71764E+01 3.06517E+01 0.00000E+00
 -1      1702 7.59023E+01 3.25924E+01 0.00000E+00
 -1      1703 7.62417E+01 3.19104E+01 0.00000E+00
 -1      1704 7.54623E+01 3.40954E+01 0.00000E+00
 -1      1705 7.56379E+01 3.34126E+01 0.00000E+00
 -1      1706 7.52641E+01 3.56657E+01 0.00000E+00
 -1      1707 7.52974E+01 3.49276E+01 0.00000E+00
 -1      1708 7.54287E+01 3.72252E+01 0.00000E+00
 -1      1709 7.53131E+01 3.65210E+01 0.00000E+00
 -1      1710 7.59142E+01 3.88133E+01 0.00000E+00
 -1      1711 7.56277E+01 3.80884E+01 0.00000E+00
 -1      1712 7.68000E+01 4.01595E+01 0.00000E+00
 -1      1713 7.63973E+01 3.95599E+01 0.00000E+00
 -1      1714 7.78756E+01 4.14849E+01 0.00000E+00
 -1      1715 7.72919E+01 4.09293E+01 0.00000E+00
 -1      1716 7.92366E+01 4.23325E+01 0.00000E+00
 -1      1717 7.86363E+01 4.19687E+01 0.00000E+00
 -1      1718 8.07726E+01 4.30843E+01 0.00000E+00
 -1      1719 8.00062E+01 4.28231E+01 0.00000E+00
 -1      1720 8.25317E+01 4.33699E+01 0.00000E+00
 -1      1721 8.17307E+01 4.32917E+01 0.00000E+00
 -1      1722 8.41962E+01 4.31860E+01 0.00000E+00
 -1      1723 8.34605E+01 4.32777E+01 0.00000E+00
 -1      1724 8.57777E+01 4.26376E+01 0.00000E+00
 -1      1725 8.50469E+01 4.28970E+01 0.00000E+00
 -1      1726 8.72587E+01 4.18193E+01 0.00000E+00
 -1      1727 8.65959E+01 4.22389E+01 0.00000E+00
 -1      1728 8.85543E+01 4.07194E+01 0.00000E+00
 -1      1729 8.80019E+01 4.12758E+01 0.00000E+00
 -1      1730 8.95002E+01 3.93214E+01 0.00000E+00
 -1      1731 8.90898E+01 3.99777E+01 0.00000E+00
 -1      1732 9.02414E+01 3.77405E+01 0.00000E+00
 -1      1733 8.99764E+01 3.85110E+01 0.00000E+00
 -1      1734 9.04446E+01 3.60776E+01 0.00000E+00
 -1      1735 9.03643E+01 3.68231E+01 0.00000E+00
 -1      1736 1.47825E+02 4.72510E+01 0.00000E+00
 -1      1737 9.04247E+01 3.22010E+01 0.00000E+00
 -1      1738 1.48437E+02 2.56875E+00 0.00000E+00
 -1      1739 1.47138E+02 3.30625E+00 0.00000E+00
 -1      1740 9.10499E+01 3.56409E+01 0.00000E+00
 -1      1741 9.09085E+01 3.39118E+01 0.00000E+00
 -1      1742 1.48701E+02 4.63625E+01 0.00000E+00
 -1      1743 1.48701E+02 4.48875E+01 0.00000E+00
 -1      1744 1.47402E+02 4.41500E+01 0.00000E+00
 -1      1745 8.95027E+01 3.07140E+01 0.00000E+00
 -1      1746 8.83023E+01 2.93685E+01 0.00000E+00
 -1      1747 8.68336E+01 2.83578E+01 0.00000E+00
 -1      1748 8.50904E+01 2.78229E+01 0.00000E+00
 -1      1749 8.33169E+01 2.73675E+01 0.00000E+00
 -1      1750 8.15146E+01 2.74230E+01 0.00000E+00
 -1      1751 7.98539E+01 2.80501E+01 0.00000E+00
 -1      1752 7.83694E+01 2.88769E+01 0.00000E+00
 -1      1753 7.70731E+01 2.99498E+01 0.00000E+00
 -1      1754 7.59870E+01 3.12567E+01 0.00000E+00
 -1      1755 7.52274E+01 3.27828E+01 0.00000E+00
 -1      1756 7.47982E+01 3.44352E+01 0.00000E+00
 -1      1757 7.46824E+01 3.61227E+01 0.00000E+00
 -1      1758 7.49303E+01 3.78413E+01 0.00000E+00
 -1      1759 7.56123E+01 3.94511E+01 0.00000E+00
 -1      1760 7.65873E+01 4.09675E+01 0.00000E+00
 -1      1761 7.78399E+01 4.22210E+01 0.00000E+00
 -1      1762 7.93702E+01 4.31955E+01 0.00000E+00
 -1      1763 8.10979E+01 4.38935E+01 0.00000E+00
 -1      1764 8.29849E+01 4.40087E+01 0.00000E+00
 -1      1765 8.47644E+01 4.36276E+01 0.00000E+00
 -1      1766 8.64333E+01 4.29399E+01 0.00000E+00
 -1      1767 8.79948E+01 4.19977E+01 0.00000E+00
 -1      1768 8.92735E+01 4.07126E+01 0.00000E+00
 -1      1769 9.02852E+01 3.91606E+01 0.00000E+00
 -1      1770 9.08842E+01 3.74328E+01 0.00000E+00
 -1      1771 2.79900E+00 4.77875E+01 0.00000E+00
 -1      1772 3.89700E+00 4.04125E+01 0.00000E+00
 -1      1773 3.89700E+00 4.18875E+01 0.00000E+00
 -1      1774 3.89700E+00 4.33625E+01 0.00000E+00
 -1      1775 3.89700E+00 4.48375E+01 0.00000E+00
 -1      1776 5.19600E+00 4.26250E+01 0.00000E+00
 -1      1777 3.89700E+00 3.45500E+01 0.00000E+00
 -1      1778 3.89700E+00 3.60000E+01 0.00000E+00
 -1      1779 3.89700E+00 3.16000E+01 0.00000E+00
 -1      1780 3.89700E+00 3.30750E+01 0.00000E+00
 -1      1781 5.19600E+00 3.38000E+01 0.00000E+00
 -1      1782 3.89700E+00 2.86500E+01 0.00000E+00
 -1      1783 3.89700E+00 3.01250E+01 0.00000E+00
 -1      1784 5.19600E+00 3.08500E+01 0.00000E+00
 -1      1785 3.89700E+00 2.57000E+01 0.00000E+00
 -1      1786 3.89700E+00 2.71750E+01 0.00000E+00
 -1      1787 5.19600E+00 2.79000E+01 0.00000E+00
 -1      1788 3.89700E+00 2.27500E+01 0.00000E+00
 -1      1789 3.89700E+00 2.42250E+01 0.00000E+00
 -1      1790 5.19600E+00 2.49500E+01 0.00000E+00
 -1      1791 3.89700E+00 1.98000E+01 0.00000E+00
 -1      1792 3.89700E+00 2.12750E+01 0.00000E+00
 -1      1793 5.19600E+00 2.20000E+01 0.00000E+00
 -1      1794 3.89700E+00 1.69000E+01 0.00000E+00
 -1      1795 3.89700E+00 1.83500E+01 0.00000E+00
 -1      1796 5.19600E+00 1.90750E+01 0.00000E+00
 -1      1797 3.89700E+00 1.39500E+01 0.00000E+00
 -1      1798 3.89700E+00 1.54250E+01 0.00000E+00
 -1      1799 5.19600E+00 1.61500E+01 0.00000E+00
 -1      1800 3.89700E+00 1.10000E+01 0.00000E+00
 -1      1801 3.89700E+00 1.24750E+01 0.00000E+00
 -1      1802 5.19600E+00 1.32000E+01 0.00000E+00
 -1      1803 3.89700E+00 8.05000E+00 0.00000E+00
 -1      1804 3.89700E+00 9.52500E+00 0.00000E+00
 -1      1805 5.19600E+00 1.02500E+01 0.00000E+00
 -1      1806 3.89700E+00 5.10000E+00 0.00000E+00
 -1      1807 3.89700E+00 6.57500E+00 0.00000E+00
 -1      1808 5.19600E+00 7.30000E+00 0.00000E+00
 -1      1809 4.20450E+00 3.09687E+00 0.00000E+00
 -1      1810 4.06650E+00 4.19063E+00 0.00000E+00
 -1      1811 5.36550E+00 4.91563E+00 0.00000E+00
 -1      1812 5.70450E+00 3.09687E+00 0.00000E+00
 -1      1813 3.54900E+00 4.64885E+01 0.00000E+00
 -1      1814 8.70450E+00 3.09687E+00 0.00000E+00
 -1      1815 7.20450E+00 3.09687E+00 0.00000E+00
 -1      1816 7.03500E+00 4.00625E+00 0.00000E+00
 -1      1817 8.25000E+00 4.61030E+01 0.00000E+00
 -1      1818 9.75000E+00 4.61030E+01 0.00000E+00
 -1      1819 1.12500E+01 4.61030E+01 0.00000E+00
 -1      1820 1.27500E+01 4.61030E+01 0.00000E+00
 -1      1821 1.05000E+01 4.48040E+01 0.00000E+00
 -1      1822 1.42500E+01 4.61030E+01 0.00000E+00
 -1      1823 1.57500E+01 4.61030E+01 0.00000E+00
 -1      1824 1.35000E+01 4.48040E+01 0.00000E+00
 -1      1825 1.71750E+01 4.61030E+01 0.00000E+00
 -1      1826 1.86000E+01 4.61030E+01 0.00000E+00
 -1      1827 1.64250E+01 4.48040E+01 0.00000E+00
 -1      1828 2.01000E+01 4.61030E+01 0.00000E+00
 -1      1829 2.16000E+01 4.61030E+01 0.00000E+00
 -1      1830 1.93500E+01 4.48040E+01 0.00000E+00
 -1      1831 2.31000E+01 4.61030E+01 0.00000E+00
 -1      1832 2.46000E+01 4.61030E+01 0.00000E+00
 -1      1833 2.23500E+01 4.48040E+01 0.00000E+00
 -1      1834 2.61000E+01 4.61030E+01 0.00000E+00
 -1      1835 2.76000E+01 4.61030E+01 0.00000E+00
 -1      1836 2.53500E+01 4.48040E+01 0.00000E+00
 -1      1837 2.91000E+01 4.61030E+01 0.00000E+00
 -1      1838 3.06000E+01 4.61030E+01 0.00000E+00
 -1      1839 2.83500E+01 4.48040E+01 0.00000E+00
 -1      1840 3.21000E+01 4.61030E+01 0.00000E+00
 -1      1841 3.36000E+01 4.61030E+01 0.00000E+00
 -1      1842 3.13500E+01 4.48040E+01 0.00000E+00
 -1      1843 3.50250E+01 4.61030E+01 0.00000E+00
 -1      1844 3.64500E+01 4.61030E+01 0.00000E+00
 -1      1845 3.42750E+01 4.48040E+01 0.00000E+00
 -1      1846 3.79500E+01 4.61030E+01 0.00000E+00
 -1      1847 3.94500E+01 4.61030E+01 0.00000E+00
 -1      1848 3.72000E+01 4.48040E+01 0.00000E+00
 -1      1849 4.09500E+01 4.61030E+01 0.00000E+00
 -1      1850 4.24500E+01 4.61030E+01 0.00000E+00
 -1      1851 4.02000E+01 4.48040E+01 0.00000E+00
 -1      1852 4.39500E+01 4.61030E+01 0.00000E+00
 -1      1853 4.54500E+01 4.61030E+01 0.00000E+00
 -1      1854 4.32000E+01 4.48040E+01 0.00000E+00
 -1      1855 4.69500E+01 4.61030E+01 0.00000E+00
 -1      1856 4.84500E+01 4.61030E+01 0.00000E+00
 -1      1857 4.62000E+01 4.48040E+01 0.00000E+00
 -1      1858 4.99500E+01 4.61030E+01 0.00000E+00
 -1      1859 5.14500E+01 4.61030E+01 0.00000E+00
 -1      1860 4.92000E+01 4.48040E+01 0.00000E+00
 -1      1861 5.28750E+01 4.61030E+01 0.00000E+00
 -1      1862 5.43000E+01 4.61030E+01 0.00000E+00
 -1      1863 5.21250E+01 4.48040E+01 0.00000E+00
 -1      1864 5.58000E+01 4.61030E+01 0.00000E+00
 -1      1865 5.73000E+01 4.61030E+01 0.00000E+00
 -1      1866 5.50500E+01 4.48040E+01 0.00000E+00
 -1      1867 5.88000E+01 4.61030E+01 0.00000E+00
 -1      1868 6.03000E+01 4.61030E+01 0.00000E+00
 -1      1869 5.80500E+01 4.48040E+01 0.00000E+00
 -1      1870 6.18000E+01 4.61030E+01 0.00000E+00
 -1      1871 6.33000E+01 4.61030E+01 0.00000E+00
 -1      1872 6.10500E+01 4.48040E+01 0.00000E+00
 -1      1873 6.48000E+01 4.61030E+01 0.00000E+00
 -1      1874 6.63000E+01 4.61030E+01 0.00000E+00
 -1      1875 6.40500E+01 4.48040E+01 0.00000E+00
 -1      1876 6.78000E+01 4.61030E+01 0.00000E+00
 -1      1877 6.93000E+01 4.61030E+01 0.00000E+00
 -1      1878 6.70500E+01 4.48040E+01 0.00000E+00
 -1      1879 7.06500E+01 4.61030E+01 0.00000E+00
 -1      1880 7.20000E+01 4.61030E+01 0.00000E+00
 -1      1881 6.99000E+01 4.48040E+01 0.00000E+00
 -1      1882 7.35000E+01 4.61030E+01 0.00000E+00
 -1      1883 7.50000E+01 4.61030E+01 0.00000E+00
 -1      1884 7.27500E+01 4.48040E+01 0.00000E+00
 -1      1885 8.14875E+01 4.64607E+01 0.00000E+00
 -1      1886 8.27625E+01 4.64607E+01 0.00000E+00
 -1      1887 8.40750E+01 4.63769E+01 0.00000E+00
 -1      1888 8.54250E+01 4.63769E+01 0.00000E+00
 -1      1889 8.68500E+01 4.62931E+01 0.00000E+00
 -1      1890 8.83500E+01 4.62931E+01 0.00000E+00
 -1      1891 8.98500E+01 4.62931E+01 0.00000E+00
 -1      1892 9.13500E+01 4.62931E+01 0.00000E+00
 -1      1893 8.91000E+01 4.51842E+01 0.00000E+00
 -1      1894 9.27750E+01 4.62931E+01 0.00000E+00
 -1      1895 9.42000E+01 4.62931E+01 0.00000E+00
 -1      1896 9.20250E+01 4.51842E+01 0.00000E+00
 -1      1897 9.57000E+01 4.62931E+01 0.00000E+00
 -1      1898 9.72000E+01 4.62931E+01 0.00000E+00
 -1      1899 9.49500E+01 4.51842E+01 0.00000E+00
 -1      1900 9.87000E+01 4.62931E+01 0.00000E+00
 -1      1901 1.00200E+02 4.62931E+01 0.00000E+00
 -1      1902 9.79500E+01 4.51842E+01 0.00000E+00
 -1      1903 1.01700E+02 4.62931E+01 0.00000E+00
 -1      1904 1.03200E+02 4.62931E+01 0.00000E+00
 -1      1905 1.00950E+02 4.51842E+01 0.00000E+00
 -1      1906 1.04700E+02 4.62931E+01 0.00000E+00
 -1      1907 1.06200E+02 4.62931E+01 0.00000E+00
 -1      1908 1.03950E+02 4.51842E+01 0.00000E+00
 -1      1909 1.07700E+02 4.62931E+01 0.00000E+00
 -1      1910 1.09200E+02 4.62931E+01 0.00000E+00
 -1      1911 1.06950E+02 4.51842E+01 0.00000E+00
 -1      1912 1.10625E+02 4.62931E+01 0.00000E+00
 -1      1913 1.12050E+02 4.62931E+01 0.00000E+00
 -1      1914 1.09875E+02 4.51842E+01 0.00000E+00
 -1      1915 1.13550E+02 4.62931E+01 0.00000E+00
 -1      1916 1.15050E+02 4.62931E+01 0.00000E+00
 -1      1917 1.12800E+02 4.51842E+01 0.00000E+00
 -1      1918 1.16550E+02 4.62931E+01 0.00000E+00
 -1      1919 1.18050E+02 4.62931E+01 0.00000E+00
 -1      1920 1.15800E+02 4.51842E+01 0.00000E+00
 -1      1921 1.19550E+02 4.62931E+01 0.00000E+00
 -1      1922 1.21050E+02 4.62931E+01 0.00000E+00
 -1      1923 1.18800E+02 4.51842E+01 0.00000E+00
 -1      1924 1.22550E+02 4.62931E+01 0.00000E+00
 -1      1925 1.24050E+02 4.62931E+01 0.00000E+00
 -1      1926 1.21800E+02 4.51842E+01 0.00000E+00
 -1      1927 1.25550E+02 4.62931E+01 0.00000E+00
 -1      1928 1.27050E+02 4.62931E+01 0.00000E+00
 -1      1929 1.24800E+02 4.51842E+01 0.00000E+00
 -1      1930 1.28475E+02 4.62931E+01 0.00000E+00
 -1      1931 1.29900E+02 4.62931E+01 0.00000E+00
 -1      1932 1.27725E+02 4.51842E+01 0.00000E+00
 -1      1933 1.31400E+02 4.62931E+01 0.00000E+00
 -1      1934 1.32900E+02 4.62931E+01 0.00000E+00
 -1      1935 1.30650E+02 4.51842E+01 0.00000E+00
 -1      1936 1.34400E+02 4.62931E+01 0.00000E+00
 -1      1937 1.35900E+02 4.62931E+01 0.00000E+00
 -1      1938 1.33650E+02 4.51842E+01 0.00000E+00
 -1      1939 1.37400E+02 4.62931E+01 0.00000E+00
 -1      1940 1.38900E+02 4.62931E+01 0.00000E+00
 -1      1941 1.36650E+02 4.51842E+01 0.00000E+00
 -1      1942 1.40400E+02 4.62931E+01 0.00000E+00
 -1      1943 1.41900E+02 4.62931E+01 0.00000E+00
 -1      1944 1.39650E+02 4.51842E+01 0.00000E+00
 -1      1945 1.43400E+02 4.62931E+01 0.00000E+00
 -1      1946 1.44900E+02 4.62931E+01 0.00000E+00
 -1      1947 1.42650E+02 4.51842E+01 0.00000E+00
 -1      1948 1.17045E+01 3.09687E+00 0.00000E+00
 -1      1949 1.02045E+01 3.09687E+00 0.00000E+00
 -1      1950 1.00350E+01 4.00625E+00 0.00000E+00
 -1      1951 9.09656E+01 3.15311E+01 0.00000E+00
 -1      1952 9.12653E+01 3.23873E+01 0.00000E+00
 -1      1953 1.47045E+01 3.09687E+00 0.00000E+00
 -1      1954 1.32045E+01 3.09687E+00 0.00000E+00
 -1      1955 1.30350E+01 4.00625E+00 0.00000E+00
 -1      1956 1.77045E+01 3.09687E+00 0.00000E+00
 -1      1957 1.62045E+01 3.09687E+00 0.00000E+00
 -1      1958 1.60350E+01 4.00625E+00 0.00000E+00
 -1      1959 2.07045E+01 3.09687E+00 0.00000E+00
 -1      1960 1.92045E+01 3.09687E+00 0.00000E+00
 -1      1961 1.90350E+01 4.00625E+00 0.00000E+00
 -1      1962 2.37045E+01 3.09687E+00 0.00000E+00
 -1      1963 2.22045E+01 3.09687E+00 0.00000E+00
 -1      1964 2.20350E+01 4.00625E+00 0.00000E+00
 -1      1965 2.67045E+01 3.09687E+00 0.00000E+00
 -1      1966 2.52045E+01 3.09687E+00 0.00000E+00
 -1      1967 2.50350E+01 4.00625E+00 0.00000E+00
 -1      1968 2.97045E+01 3.09687E+00 0.00000E+00
 -1      1969 2.82045E+01 3.09687E+00 0.00000E+00
 -1      1970 2.80350E+01 4.00625E+00 0.00000E+00
 -1      1971 3.27045E+01 3.09687E+00 0.00000E+00
 -1      1972 3.12045E+01 3.09687E+00 0.00000E+00
 -1      1973 3.10350E+01 4.00625E+00 0.00000E+00
 -1      1974 3.57045E+01 3.09687E+00 0.00000E+00
 -1      1975 3.42045E+01 3.09687E+00 0.00000E+00
 -1      1976 3.40350E+01 4.00625E+00 0.00000E+00
 -1      1977 3.87045E+01 3.09687E+00 0.00000E+00
 -1      1978 3.72045E+01 3.09687E+00 0.00000E+00
 -1      1979 3.70350E+01 4.00625E+00 0.00000E+00
 -1      1980 4.17045E+01 3.09687E+00 0.00000E+00
 -1      1981 4.02045E+01 3.09687E+00 0.00000E+00
 -1      1982 4.00350E+01 4.00625E+00 0.00000E+00
 -1      1983 4.47045E+01 3.09687E+00 0.00000E+00
 -1      1984 4.32045E+01 3.09687E+00 0.00000E+00
 -1      1985 4.30350E+01 4.00625E+00 0.00000E+00
 -1      1986 4.77045E+01 3.09687E+00 0.00000E+00
 -1      1987 4.62045E+01 3.09687E+00 0.00000E+00
 -1      1988 4.60350E+01 4.00625E+00 0.00000E+00
 -1      1989 5.07045E+01 3.09687E+00 0.00000E+00
 -1      1990 4.92045E+01 3.09687E+00 0.00000E+00
 -1      1991 4.90350E+01 4.00625E+00 0.00000E+00
 -1      1992 5.37045E+01 3.09687E+00 0.00000E+00
 -1      1993 5.22045E+01 3.09687E+00 0.00000E+00
 -1      1994 5.20350E+01 4.00625E+00 0.00000E+00
 -1      1995 5.67045E+01 3.09687E+00 0.00000E+00
 -1      1996 5.52045E+01 3.09687E+00 0.00000E+00
 -1      1997 5.50350E+01 4.00625E+00 0.00000E+00
 -1      1998 5.97045E+01 3.09687E+00 0.00000E+00
 -1      1999 5.82045E+01 3.09687E+00 0.00000E+00
 -1      2000 5.80350E+01 4.00625E+00 0.00000E+00
 -1      2001 6.27045E+01 3.09687E+00 0.00000E+00
 -1      2002 6.12045E+01 3.09687E+00 0.00000E+00
 -1      2003 6.10350E+01 4.00625E+00 0.00000E+00
 -1      2004 6.57045E+01 3.09687E+00 0.00000E+00
 -1      2005 6.42045E+01 3.09687E+00 0.00000E+00
 -1      2006 6.40350E+01 4.00625E+00 0.00000E+00
 -1      2007 6.87045E+01 3.09687E+00 0.00000E+00
 -1      2008 6.72045E+01 3.09687E+00 0.00000E+00
 -1      2009 6.70350E+01 4.00625E+00 0.00000E+00
 -1      2010 7.17045E+01 3.09687E+00 0.00000E+00
 -1      2011 7.02045E+01 3.09687E+00 0.00000E+00
 -1      2012 7.00350E+01 4.00625E+00 0.00000E+00
 -1      2013 7.47045E+01 3.09687E+00 0.00000E+00
 -1      2014 7.32045E+01 3.09687E+00 0.00000E+00
 -1      2015 7.30350E+01 4.00625E+00 0.00000E+00
 -1      2016 7.77045E+01 3.09687E+00 0.00000E+00
 -1      2017 7.62045E+01 3.09687E+00 0.00000E+00
 -1      2018 7.60350E+01 4.00625E+00 0.00000E+00
 -1      2019 8.07045E+01 3.09687E+00 0.00000E+00
 -1      2020 7.92045E+01 3.09687E+00 0.00000E+00
 -1      2021 7.90350E+01 4.00625E+00 0.00000E+00
 -1      2022 8.37045E+01 3.09687E+00 0.00000E+00
 -1      2023 8.22045E+01 3.09687E+00 0.00000E+00
 -1      2024 8.20350E+01 4.00625E+00 0.00000E+00
 -1      2025 8.67045E+01 3.09687E+00 0.00000E+00
 -1      2026 8.52045E+01 3.09687E+00 0.00000E+00
 -1      2027 8.50350E+01 4.00625E+00 0.00000E+00
 -1      2028 8.97045E+01 3.09687E+00 0.00000E+00
 -1      2029 8.82045E+01 3.09687E+00 0.00000E+00
 -1      2030 8.80350E+01 4.00625E+00 0.00000E+00
 -1      2031 9.27045E+01 3.09687E+00 0.00000E+00
 -1      2032 9.12045E+01 3.09687E+00 0.00000E+00
 -1      2033 9.10350E+01 4.00625E+00 0.00000E+00
 -1      2034 9.57045E+01 3.09687E+00 0.00000E+00
 -1      2035 9.42045E+01 3.09687E+00 0.00000E+00
 -1      2036 9.40350E+01 4.00625E+00 0.00000E+00
 -1      2037 9.87045E+01 3.09687E+00 0.00000E+00
 -1      2038 9.72045E+01 3.09687E+00 0.00000E+00
 -1      2039 9.70350E+01 4.00625E+00 0.00000E+00
 -1      2040 1.01704E+02 3.09687E+00 0.00000E+00
 -1      2041 1.00204E+02 3.09687E+00 0.00000E+00
 -1      2042 1.00035E+02 4.00625E+00 0.00000E+00
 -1      2043 1.04704E+02 3.09687E+00 0.00000E+00
 -1      2044 1.03204E+02 3.09687E+00 0.00000E+00
 -1      2045 1.03035E+02 4.00625E+00 0.00000E+00
 -1      2046 1.07704E+02 3.09687E+00 0.00000E+00
 -1      2047 1.06204E+02 3.09687E+00 0.00000E+00
 -1      2048 1.06035E+02 4.00625E+00 0.00000E+00
 -1      2049 1.10704E+02 3.09687E+00 0.00000E+00
 -1      2050 1.09204E+02 3.09687E+00 0.00000E+00
 -1      2051 1.09035E+02 4.00625E+00 0.00000E+00
 -1      2052 1.13704E+02 3.09687E+00 0.00000E+00
 -1      2053 1.12204E+02 3.09687E+00 0.00000E+00
 -1      2054 1.12035E+02 4.00625E+00 0.00000E+00
 -1      2055 1.16704E+02 3.09687E+00 0.00000E+00
 -1      2056 1.15204E+02 3.09687E+00 0.00000E+00
 -1      2057 1.15035E+02 4.00625E+00 0.00000E+00
 -1      2058 1.19704E+02 3.09687E+00 0.00000E+00
 -1      2059 1.18204E+02 3.09687E+00 0.00000E+00
 -1      2060 1.18035E+02 4.00625E+00 0.00000E+00
 -1      2061 1.22704E+02 3.09687E+00 0.00000E+00
 -1      2062 1.21204E+02 3.09687E+00 0.00000E+00
 -1      2063 1.21035E+02 4.00625E+00 0.00000E+00
 -1      2064 1.25704E+02 3.09687E+00 0.00000E+00
 -1      2065 1.24204E+02 3.09687E+00 0.00000E+00
 -1      2066 1.24035E+02 4.00625E+00 0.00000E+00
 -1      2067 1.28704E+02 3.09687E+00 0.00000E+00
 -1      2068 1.27204E+02 3.09687E+00 0.00000E+00
 -1      2069 1.27035E+02 4.00625E+00 0.00000E+00
 -1      2070 1.31704E+02 3.09687E+00 0.00000E+00
 -1      2071 1.30204E+02 3.09687E+00 0.00000E+00
 -1      2072 1.30035E+02 4.00625E+00 0.00000E+00
 -1      2073 1.34704E+02 3.09687E+00 0.00000E+00
 -1      2074 1.33204E+02 3.09687E+00 0.00000E+00
 -1      2075 1.33035E+02 4.00625E+00 0.00000E+00
 -1      2076 1.37704E+02 3.09687E+00 0.00000E+00
 -1      2077 1.36204E+02 3.09687E+00 0.00000E+00
 -1      2078 1.36035E+02 4.00625E+00 0.00000E+00
 -1      2079 1.40704E+02 3.09687E+00 0.00000E+00
 -1      2080 1.39204E+02 3.09687E+00 0.00000E+00
 -1      2081 1.39035E+02 4.00625E+00 0.00000E+00
 -1      2082 1.43704E+02 3.09687E+00 0.00000E+00
 -1      2083 1.42204E+02 3.09687E+00 0.00000E+00
 -1      2084 1.42035E+02 4.00625E+00 0.00000E+00
 -1      2085 1.46171E+02 3.20156E+00 0.00000E+00
 -1      2086 1.44671E+02 3.20156E+00 0.00000E+00
 -1      2087 1.44502E+02 4.11094E+00 0.00000E+00
 -1      2088 1.46435E+02 4.32031E+00 0.00000E+00
 -1      2089 1.46103E+02 1.25375E+01 0.00000E+00
 -1      2090 1.46103E+02 1.10625E+01 0.00000E+00
 -1      2091 1.46103E+02 9.58750E+00 0.00000E+00
 -1      2092 1.46103E+02 8.11250E+00 0.00000E+00
 -1      2093 1.44804E+02 1.03250E+01 0.00000E+00
 -1      2094 1.46269E+02 6.95391E+00 0.00000E+00
 -1      2095 1.46269E+02 5.47891E+00 0.00000E+00
 -1      2096 1.45302E+02 5.37422E+00 0.00000E+00
 -1      2097 1.44970E+02 7.69141E+00 0.00000E+00
 -1      2098 1.46103E+02 1.54375E+01 0.00000E+00
 -1      2099 1.46103E+02 1.39875E+01 0.00000E+00
 -1      2100 1.44804E+02 1.32500E+01 0.00000E+00
 -1      2101 1.46103E+02 1.83875E+01 0.00000E+00
 -1      2102 1.46103E+02 1.69125E+01 0.00000E+00
 -1      2103 1.44804E+02 1.61750E+01 0.00000E+00
 -1      2104 1.46103E+02 2.13375E+01 0.00000E+00
 -1      2105 1.46103E+02 1.98625E+01 0.00000E+00
 -1      2106 1.44804E+02 1.91250E+01 0.00000E+00
 -1      2107 1.46103E+02 2.42875E+01 0.00000E+00
 -1      2108 1.46103E+02 2.28125E+01 0.00000E+00
 -1      2109 1.44804E+02 2.20750E+01 0.00000E+00
 -1      2110 1.46103E+02 2.72375E+01 0.00000E+00
 -1      2111 1.46103E+02 2.57625E+01 0.00000E+00
 -1      2112 1.44804E+02 2.50250E+01 0.00000E+00
 -1      2113 1.46103E+02 3.01875E+01 0.00000E+00
 -1      2114 1.46103E+02 2.87125E+01 0.00000E+00
 -1      2115 1.44804E+02 2.79750E+01 0.00000E+00
 -1      2116 1.46103E+02 3.30875E+01 0.00000E+00
 -1      2117 1.46103E+02 3.16375E+01 0.00000E+00
 -1      2118 1.44804E+02 3.09000E+01 0.00000E+00
 -1      2119 1.46103E+02 3.60375E+01 0.00000E+00
 -1      2120 1.46103E+02 3.45625E+01 0.00000E+00
 -1      2121 1.44804E+02 3.38250E+01 0.00000E+00
 -1      2122 1.46103E+02 3.89875E+01 0.00000E+00
 -1      2123 1.46103E+02 3.75125E+01 0.00000E+00
 -1      2124 1.44804E+02 3.67750E+01 0.00000E+00
 -1      2125 1.46103E+02 4.19375E+01 0.00000E+00
 -1      2126 1.46103E+02 4.04625E+01 0.00000E+00
 -1      2127 1.44804E+02 3.97250E+01 0.00000E+00
 -1      2128 8.96827E+01 2.99140E+01 0.00000E+00
 -1      2129 9.03050E+01 3.05449E+01 0.00000E+00
 -1      2130 1.46526E+02 4.65135E+01 0.00000E+00
 -1      2131 4.84800E+00 4.57510E+01 0.00000E+00
 -1      2132 9.17604E+01 3.52374E+01 0.00000E+00
 -1      2133 9.17177E+01 3.61118E+01 0.00000E+00
 -1      2134 3.89700E+00 3.74688E+01 0.00000E+00
 -1      2135 3.89700E+00 3.89437E+01 0.00000E+00
 -1      2136 5.19600E+00 3.96813E+01 0.00000E+00
 -1      2137 5.19600E+00 3.67438E+01 0.00000E+00
 -1      2138 8.85267E+01 2.84849E+01 0.00000E+00
 -1      2139 8.91047E+01 2.91994E+01 0.00000E+00
 -1      2140 8.99071E+01 2.90303E+01 0.00000E+00
 -1      2141 8.66457E+01 2.74357E+01 0.00000E+00
 -1      2142 8.75364E+01 2.77319E+01 0.00000E+00
 -1      2143 8.48501E+01 2.70391E+01 0.00000E+00
 -1      2144 8.57027E+01 2.72778E+01 0.00000E+00
 -1      2145 8.30083E+01 2.66056E+01 0.00000E+00
 -1      2146 8.39292E+01 2.68223E+01 0.00000E+00
 -1      2147 8.45415E+01 2.62772E+01 0.00000E+00
 -1      2148 8.08826E+01 2.69399E+01 0.00000E+00
 -1      2149 8.17640E+01 2.66676E+01 0.00000E+00
 -1      2150 7.91784E+01 2.75996E+01 0.00000E+00
 -1      2151 7.99576E+01 2.72448E+01 0.00000E+00
 -1      2152 7.76097E+01 2.85047E+01 0.00000E+00
 -1      2153 7.83150E+01 2.80327E+01 0.00000E+00
 -1      2154 7.62558E+01 2.97371E+01 0.00000E+00
 -1      2155 7.68467E+01 2.91362E+01 0.00000E+00
 -1      2156 7.52088E+01 3.12375E+01 0.00000E+00
 -1      2157 7.57040E+01 3.05316E+01 0.00000E+00
 -1      2158 7.43986E+01 3.29684E+01 0.00000E+00
 -1      2159 7.46630E+01 3.21482E+01 0.00000E+00
 -1      2160 7.40800E+01 3.47254E+01 0.00000E+00
 -1      2161 7.42449E+01 3.38932E+01 0.00000E+00
 -1      2162 7.39762E+01 3.65923E+01 0.00000E+00
 -1      2163 7.39272E+01 3.57370E+01 0.00000E+00
 -1      2164 7.41942E+01 3.84655E+01 0.00000E+00
 -1      2165 7.39952E+01 3.76023E+01 0.00000E+00
 -1      2166 7.52745E+01 4.01992E+01 0.00000E+00
 -1      2167 7.47915E+01 3.94526E+01 0.00000E+00
 -1      2168 7.62584E+01 4.17388E+01 0.00000E+00
 -1      2169 7.57664E+01 4.09690E+01 0.00000E+00
 -1      2170 7.49456E+01 4.09705E+01 0.00000E+00
 -1      2171 7.78050E+01 4.31158E+01 0.00000E+00
 -1      2172 7.70443E+01 4.26321E+01 0.00000E+00
 -1      2173 7.93442E+01 4.40971E+01 0.00000E+00
 -1      2174 7.85746E+01 4.36065E+01 0.00000E+00
 -1      2175 7.77790E+01 4.40175E+01 0.00000E+00
 -1      2176 8.12604E+01 4.45119E+01 0.00000E+00
 -1      2177 8.03023E+01 4.43045E+01 0.00000E+00
 -1      2178 7.95067E+01 4.47155E+01 0.00000E+00
 -1      2179 8.30193E+01 4.47179E+01 0.00000E+00
 -1      2180 8.20905E+01 4.48101E+01 0.00000E+00
 -1      2181 8.51825E+01 4.43452E+01 0.00000E+00
 -1      2182 8.43318E+01 4.46342E+01 0.00000E+00
 -1      2183 8.71630E+01 4.33986E+01 0.00000E+00
 -1      2184 8.63447E+01 4.37972E+01 0.00000E+00
 -1      2185 8.87985E+01 4.23167E+01 0.00000E+00
 -1      2186 8.80553E+01 4.28603E+01 0.00000E+00
 -1      2187 9.01007E+01 4.07457E+01 0.00000E+00
 -1      2188 8.95652E+01 4.14873E+01 0.00000E+00
 -1      2189 9.12265E+01 3.91686E+01 0.00000E+00
 -1      2190 9.07503E+01 3.99790E+01 0.00000E+00
 -1      2191 9.17126E+01 3.70768E+01 0.00000E+00
 -1      2192 9.15897E+01 3.79942E+01 0.00000E+00
 -1      2193 9.14500E+01 3.33481E+01 0.00000E+00
 -1      2194 9.16341E+01 3.42027E+01 0.00000E+00
 -1      2195 1.45776E+02 4.54046E+01 0.00000E+00
 -1      2196 9.24231E+01 3.66732E+01 0.00000E+00
 -1      2197 8.34375E+01 4.54355E+01 0.00000E+00
 -1      2198 9.19910E+01 3.26782E+01 0.00000E+00
 -1      2199 6.34800E+00 4.57510E+01 0.00000E+00
 -1      2200 7.09800E+00 4.44520E+01 0.00000E+00
 -1      2201 7.64250E+01 4.63769E+01 0.00000E+00
 -1      2202 7.77750E+01 4.63769E+01 0.00000E+00
 -1      2203 7.94574E+01 4.61625E+01 0.00000E+00
 -1      2204 8.06574E+01 4.61625E+01 0.00000E+00
 -1      2205 8.61750E+01 4.52680E+01 0.00000E+00
 -1      2206 9.11457E+01 3.07311E+01 0.00000E+00
 -1      2207 8.23763E+01 2.61225E+01 0.00000E+00
 -1      2208 8.29885E+01 2.55774E+01 0.00000E+00
 -1      2209 8.17442E+01 2.56395E+01 0.00000E+00
 -1      2210 8.83388E+01 2.75628E+01 0.00000E+00
 -1      2211 1.45776E+02 4.39296E+01 0.00000E+00
 -1      2212 9.23019E+01 3.46736E+01 0.00000E+00
 -1      2213 9.20549E+01 3.88126E+01 0.00000E+00
 -1      2214 9.10420E+01 4.07537E+01 0.00000E+00
 -1      2215 8.96256E+01 4.23498E+01 0.00000E+00
 -1      2216 8.79667E+01 4.37175E+01 0.00000E+00
 -1      2217 8.12949E+01 4.52211E+01 0.00000E+00
 -1      2218 7.62235E+01 4.26336E+01 0.00000E+00
 -1      2219 7.38564E+01 3.92136E+01 0.00000E+00
 -1      2220 7.32400E+01 3.72165E+01 0.00000E+00
 -1      2221 7.33739E+01 3.51949E+01 0.00000E+00
 -1      2222 7.36805E+01 3.32586E+01 0.00000E+00
 -1      2223 7.43800E+01 3.14231E+01 0.00000E+00
 -1      2224 7.54776E+01 2.97179E+01 0.00000E+00
 -1      2225 7.67924E+01 2.82920E+01 0.00000E+00
 -1      2226 7.84187E+01 2.72273E+01 0.00000E+00
 -1      2227 7.56750E+01 4.50779E+01 0.00000E+00
 -1      2228 1.44477E+02 4.31921E+01 0.00000E+00
 -1      2229 8.64054E+01 2.66519E+01 0.00000E+00
 -1      2230 8.02070E+01 2.64894E+01 0.00000E+00
 -1      2231 6.49500E+00 3.01125E+01 0.00000E+00
 -1      2232 6.49500E+00 3.15875E+01 0.00000E+00
 -1      2233 6.49500E+00 3.30625E+01 0.00000E+00
 -1      2234 6.49500E+00 3.45375E+01 0.00000E+00
 -1      2235 7.79400E+00 3.23250E+01 0.00000E+00
 -1      2236 6.49500E+00 2.42125E+01 0.00000E+00
 -1      2237 6.49500E+00 2.56875E+01 0.00000E+00
 -1      2238 6.49500E+00 2.12625E+01 0.00000E+00
 -1      2239 6.49500E+00 2.27375E+01 0.00000E+00
 -1      2240 7.79400E+00 2.34750E+01 0.00000E+00
 -1      2241 6.49500E+00 1.83625E+01 0.00000E+00
 -1      2242 6.49500E+00 1.98125E+01 0.00000E+00
 -1      2243 7.79400E+00 2.05500E+01 0.00000E+00
 -1      2244 6.49500E+00 1.54125E+01 0.00000E+00
 -1      2245 6.49500E+00 1.68875E+01 0.00000E+00
 -1      2246 7.79400E+00 1.76250E+01 0.00000E+00
 -1      2247 6.49500E+00 1.24625E+01 0.00000E+00
 -1      2248 6.49500E+00 1.39375E+01 0.00000E+00
 -1      2249 7.79400E+00 1.46750E+01 0.00000E+00
 -1      2250 6.49500E+00 9.51250E+00 0.00000E+00
 -1      2251 6.49500E+00 1.09875E+01 0.00000E+00
 -1      2252 7.79400E+00 1.17250E+01 0.00000E+00
 -1      2253 6.49500E+00 6.56250E+00 0.00000E+00
 -1      2254 6.49500E+00 8.03750E+00 0.00000E+00
 -1      2255 7.79400E+00 8.77500E+00 0.00000E+00
 -1      2256 6.84975E+00 4.82969E+00 0.00000E+00
 -1      2257 6.68025E+00 5.73906E+00 0.00000E+00
 -1      2258 7.97925E+00 6.47656E+00 0.00000E+00
 -1      2259 8.34975E+00 4.82969E+00 0.00000E+00
 -1      2260 9.75000E+00 4.35050E+01 0.00000E+00
 -1      2261 1.12500E+01 4.35050E+01 0.00000E+00
 -1      2262 1.42977E+02 4.31921E+01 0.00000E+00
 -1      2263 1.43304E+02 4.12000E+01 0.00000E+00
 -1      2264 1.41477E+02 4.31921E+01 0.00000E+00
 -1      2265 7.78243E+01 4.49299E+01 0.00000E+00
 -1      2266 7.84993E+01 4.59551E+01 0.00000E+00
 -1      2267 9.01871E+01 2.82128E+01 0.00000E+00
 -1      2268 9.07651E+01 2.89273E+01 0.00000E+00
 -1      2269 9.26585E+01 3.20517E+01 0.00000E+00
 -1      2270 9.28432E+01 3.30125E+01 0.00000E+00
 -1      2271 1.27500E+01 4.35050E+01 0.00000E+00
 -1      2272 1.42500E+01 4.35050E+01 0.00000E+00
 -1      2273 1.20000E+01 4.22060E+01 0.00000E+00
 -1      2274 1.56750E+01 4.35050E+01 0.00000E+00
 -1      2275 1.71000E+01 4.35050E+01 0.00000E+00
 -1      2276 1.49250E+01 4.22060E+01 0.00000E+00
 -1      2277 1.86000E+01 4.35050E+01 0.00000E+00
 -1      2278 2.01000E+01 4.35050E+01 0.00000E+00
 -1      2279 1.78500E+01 4.22060E+01 0.00000E+00
 -1      2280 2.16000E+01 4.35050E+01 0.00000E+00
 -1      2281 2.31000E+01 4.35050E+01 0.00000E+00
 -1      2282 2.08500E+01 4.22060E+01 0.00000E+00
 -1      2283 2.46000E+01 4.35050E+01 0.00000E+00
 -1      2284 2.61000E+01 4.35050E+01 0.00000E+00
 -1      2285 2.38500E+01 4.22060E+01 0.00000E+00
 -1      2286 2.76000E+01 4.35050E+01 0.00000E+00
 -1      2287 2.91000E+01 4.35050E+01 0.00000E+00
 -1      2288 2.68500E+01 4.22060E+01 0.00000E+00
 -1      2289 3.06000E+01 4.35050E+01 0.00000E+00
 -1      2290 3.21000E+01 4.35050E+01 0.00000E+00
 -1      2291 2.98500E+01 4.22060E+01 0.00000E+00
 -1      2292 3.35250E+01 4.35050E+01 0.00000E+00
 -1      2293 3.49500E+01 4.35050E+01 0.00000E+00
 -1      2294 3.27750E+01 4.22060E+01 0.00000E+00
 -1      2295 3.64500E+01 4.35050E+01 0.00000E+00
 -1      2296 3.79500E+01 4.35050E+01 0.00000E+00
 -1      2297 3.57000E+01 4.22060E+01 0.00000E+00
 -1      2298 3.94500E+01 4.35050E+01 0.00000E+00
 -1      2299 4.09500E+01 4.35050E+01 0.00000E+00
 -1      2300 3.87000E+01 4.22060E+01 0.00000E+00
 -1      2301 4.24500E+01 4.35050E+01 0.00000E+00
 -1      2302 4.39500E+01 4.35050E+01 0.00000E+00
 -1      2303 4.17000E+01 4.22060E+01 0.00000E+00
 -1      2304 4.54500E+01 4.35050E+01 0.00000E+00
 -1      2305 4.69500E+01 4.35050E+01 0.00000E+00
 -1      2306 4.47000E+01 4.22060E+01 0.00000E+00
 -1      2307 4.84500E+01 4.35050E+01 0.00000E+00
 -1      2308 4.99500E+01 4.35050E+01 0.00000E+00
 -1      2309 4.77000E+01 4.22060E+01 0.00000E+00
 -1      2310 5.13750E+01 4.35050E+01 0.00000E+00
 -1      2311 5.28000E+01 4.35050E+01 0.00000E+00
 -1      2312 5.06250E+01 4.22060E+01 0.00000E+00
 -1      2313 5.43000E+01 4.35050E+01 0.00000E+00
 -1      2314 5.58000E+01 4.35050E+01 0.00000E+00
 -1      2315 5.35500E+01 4.22060E+01 0.00000E+00
 -1      2316 5.73000E+01 4.35050E+01 0.00000E+00
 -1      2317 5.88000E+01 4.35050E+01 0.00000E+00
 -1      2318 5.65500E+01 4.22060E+01 0.00000E+00
 -1      2319 6.03000E+01 4.35050E+01 0.00000E+00
 -1      2320 6.18000E+01 4.35050E+01 0.00000E+00
 -1      2321 5.95500E+01 4.22060E+01 0.00000E+00
 -1      2322 6.33000E+01 4.35050E+01 0.00000E+00
 -1      2323 6.48000E+01 4.35050E+01 0.00000E+00
 -1      2324 6.25500E+01 4.22060E+01 0.00000E+00
 -1      2325 6.63000E+01 4.35050E+01 0.00000E+00
 -1      2326 6.78000E+01 4.35050E+01 0.00000E+00
 -1      2327 6.55500E+01 4.22060E+01 0.00000E+00
 -1      2328 6.91500E+01 4.35050E+01 0.00000E+00
 -1      2329 7.05000E+01 4.35050E+01 0.00000E+00
 -1      2330 6.84000E+01 4.22060E+01 0.00000E+00
 -1      2331 7.20000E+01 4.38627E+01 0.00000E+00
 -1      2332 7.35000E+01 4.38627E+01 0.00000E+00
 -1      2333 1.13497E+01 4.82969E+00 0.00000E+00
 -1      2334 9.84975E+00 4.82969E+00 0.00000E+00
 -1      2335 9.66450E+00 5.65312E+00 0.00000E+00
 -1      2336 9.31575E+01 3.61946E+01 0.00000E+00
 -1      2337 9.31525E+01 3.71596E+01 0.00000E+00
 -1      2338 9.13125E+01 4.40753E+01 0.00000E+00
 -1      2339 9.27375E+01 4.40753E+01 0.00000E+00
 -1      2340 9.42375E+01 4.40753E+01 0.00000E+00
 -1      2341 9.57375E+01 4.40753E+01 0.00000E+00
 -1      2342 9.35250E+01 4.29664E+01 0.00000E+00
 -1      2343 9.72375E+01 4.40753E+01 0.00000E+00
 -1      2344 9.87375E+01 4.40753E+01 0.00000E+00
 -1      2345 9.65250E+01 4.29664E+01 0.00000E+00
 -1      2346 1.00238E+02 4.40753E+01 0.00000E+00
 -1      2347 1.01738E+02 4.40753E+01 0.00000E+00
 -1      2348 9.95250E+01 4.29664E+01 0.00000E+00
 -1      2349 1.03238E+02 4.40753E+01 0.00000E+00
 -1      2350 1.04738E+02 4.40753E+01 0.00000E+00
 -1      2351 1.02525E+02 4.29664E+01 0.00000E+00
 -1      2352 1.06238E+02 4.40753E+01 0.00000E+00
 -1      2353 1.07738E+02 4.40753E+01 0.00000E+00
 -1      2354 1.05525E+02 4.29664E+01 0.00000E+00
 -1      2355 1.09162E+02 4.40753E+01 0.00000E+00
 -1      2356 1.10588E+02 4.40753E+01 0.00000E+00
 -1      2357 1.08450E+02 4.29664E+01 0.00000E+00
 -1      2358 1.12088E+02 4.40753E+01 0.00000E+00
 -1      2359 1.13588E+02 4.40753E+01 0.00000E+00
 -1      2360 1.11375E+02 4.29664E+01 0.00000E+00
 -1      2361 1.15088E+02 4.40753E+01 0.00000E+00
 -1      2362 1.16588E+02 4.40753E+01 0.00000E+00
 -1      2363 1.14375E+02 4.29664E+01 0.00000E+00
 -1      2364 1.18088E+02 4.40753E+01 0.00000E+00
 -1      2365 1.19588E+02 4.40753E+01 0.00000E+00
 -1      2366 1.17375E+02 4.29664E+01 0.00000E+00
 -1      2367 1.21088E+02 4.40753E+01 0.00000E+00
 -1      2368 1.22588E+02 4.40753E+01 0.00000E+00
 -1      2369 1.20375E+02 4.29664E+01 0.00000E+00
 -1      2370 1.24088E+02 4.40753E+01 0.00000E+00
 -1      2371 1.25588E+02 4.40753E+01 0.00000E+00
 -1      2372 1.23375E+02 4.29664E+01 0.00000E+00
 -1      2373 1.27012E+02 4.40753E+01 0.00000E+00
 -1      2374 1.28438E+02 4.40753E+01 0.00000E+00
 -1      2375 1.26300E+02 4.29664E+01 0.00000E+00
 -1      2376 1.29938E+02 4.40753E+01 0.00000E+00
 -1      2377 1.31438E+02 4.40753E+01 0.00000E+00
 -1      2378 1.29225E+02 4.29664E+01 0.00000E+00
 -1      2379 1.32938E+02 4.40753E+01 0.00000E+00
 -1      2380 1.34438E+02 4.40753E+01 0.00000E+00
 -1      2381 1.32225E+02 4.29664E+01 0.00000E+00
 -1      2382 1.35938E+02 4.40753E+01 0.00000E+00
 -1      2383 1.37438E+02 4.40753E+01 0.00000E+00
 -1      2384 1.35225E+02 4.29664E+01 0.00000E+00
 -1      2385 1.38707E+02 4.36337E+01 0.00000E+00
 -1      2386 1.40207E+02 4.36337E+01 0.00000E+00
 -1      2387 1.40534E+02 4.16416E+01 0.00000E+00
 -1      2388 1.37995E+02 4.25248E+01 0.00000E+00
 -1      2389 1.67850E+01 5.30525E+00 0.00000E+00
 -1      2390 1.52850E+01 5.30525E+00 0.00000E+00
 -1      2391 1.40674E+01 5.06747E+00 0.00000E+00
 -1      2392 1.25674E+01 5.06747E+00 0.00000E+00
 -1      2393 1.23821E+01 5.89091E+00 0.00000E+00
 -1      2394 1.48174E+01 6.36647E+00 0.00000E+00
 -1      2395 2.27850E+01 5.30525E+00 0.00000E+00
 -1      2396 2.12850E+01 5.30525E+00 0.00000E+00
 -1      2397 2.57850E+01 5.30525E+00 0.00000E+00
 -1      2398 2.42850E+01 5.30525E+00 0.00000E+00
 -1      2399 2.35350E+01 6.60425E+00 0.00000E+00
 -1      2400 2.87850E+01 5.30525E+00 0.00000E+00
 -1      2401 2.72850E+01 5.30525E+00 0.00000E+00
 -1      2402 2.65350E+01 6.60425E+00 0.00000E+00
 -1      2403 3.17850E+01 5.30525E+00 0.00000E+00
 -1      2404 3.02850E+01 5.30525E+00 0.00000E+00
 -1      2405 2.95350E+01 6.60425E+00 0.00000E+00
 -1      2406 3.47850E+01 5.30525E+00 0.00000E+00
 -1      2407 3.32850E+01 5.30525E+00 0.00000E+00
 -1      2408 3.25350E+01 6.60425E+00 0.00000E+00
 -1      2409 3.77850E+01 5.30525E+00 0.00000E+00
 -1      2410 3.62850E+01 5.30525E+00 0.00000E+00
 -1      2411 3.55350E+01 6.60425E+00 0.00000E+00
 -1      2412 4.07850E+01 5.30525E+00 0.00000E+00
 -1      2413 3.92850E+01 5.30525E+00 0.00000E+00
 -1      2414 3.85350E+01 6.60425E+00 0.00000E+00
 -1      2415 4.37850E+01 5.30525E+00 0.00000E+00
 -1      2416 4.22850E+01 5.30525E+00 0.00000E+00
 -1      2417 4.15350E+01 6.60425E+00 0.00000E+00
 -1      2418 4.67850E+01 5.30525E+00 0.00000E+00
 -1      2419 4.52850E+01 5.30525E+00 0.00000E+00
 -1      2420 4.45350E+01 6.60425E+00 0.00000E+00
 -1      2421 4.97850E+01 5.30525E+00 0.00000E+00
 -1      2422 4.82850E+01 5.30525E+00 0.00000E+00
 -1      2423 4.75350E+01 6.60425E+00 0.00000E+00
 -1      2424 5.27850E+01 5.30525E+00 0.00000E+00
 -1      2425 5.12850E+01 5.30525E+00 0.00000E+00
 -1      2426 5.05350E+01 6.60425E+00 0.00000E+00
 -1      2427 5.57850E+01 5.30525E+00 0.00000E+00
 -1      2428 5.42850E+01 5.30525E+00 0.00000E+00
 -1      2429 5.35350E+01 6.60425E+00 0.00000E+00
 -1      2430 5.87850E+01 5.30525E+00 0.00000E+00
 -1      2431 5.72850E+01 5.30525E+00 0.00000E+00
 -1      2432 5.65350E+01 6.60425E+00 0.00000E+00
 -1      2433 6.17850E+01 5.30525E+00 0.00000E+00
 -1      2434 6.02850E+01 5.30525E+00 0.00000E+00
 -1      2435 5.95350E+01 6.60425E+00 0.00000E+00
 -1      2436 6.47850E+01 5.30525E+00 0.00000E+00
 -1      2437 6.32850E+01 5.30525E+00 0.00000E+00
 -1      2438 6.25350E+01 6.60425E+00 0.00000E+00
 -1      2439 6.77850E+01 5.30525E+00 0.00000E+00
 -1      2440 6.62850E+01 5.30525E+00 0.00000E+00
 -1      2441 6.55350E+01 6.60425E+00 0.00000E+00
 -1      2442 7.07850E+01 5.30525E+00 0.00000E+00
 -1      2443 6.92850E+01 5.30525E+00 0.00000E+00
 -1      2444 6.85350E+01 6.60425E+00 0.00000E+00
 -1      2445 7.37850E+01 5.30525E+00 0.00000E+00
 -1      2446 7.22850E+01 5.30525E+00 0.00000E+00
 -1      2447 7.15350E+01 6.60425E+00 0.00000E+00
 -1      2448 7.67850E+01 5.30525E+00 0.00000E+00
 -1      2449 7.52850E+01 5.30525E+00 0.00000E+00
 -1      2450 7.45350E+01 6.60425E+00 0.00000E+00
 -1      2451 7.97850E+01 5.30525E+00 0.00000E+00
 -1      2452 7.82850E+01 5.30525E+00 0.00000E+00
 -1      2453 7.75350E+01 6.60425E+00 0.00000E+00
 -1      2454 8.27850E+01 5.30525E+00 0.00000E+00
 -1      2455 8.12850E+01 5.30525E+00 0.00000E+00
 -1      2456 8.05350E+01 6.60425E+00 0.00000E+00
 -1      2457 8.57850E+01 5.30525E+00 0.00000E+00
 -1      2458 8.42850E+01 5.30525E+00 0.00000E+00
 -1      2459 8.35350E+01 6.60425E+00 0.00000E+00
 -1      2460 8.87850E+01 5.30525E+00 0.00000E+00
 -1      2461 8.72850E+01 5.30525E+00 0.00000E+00
 -1      2462 8.65350E+01 6.60425E+00 0.00000E+00
 -1      2463 9.17850E+01 5.30525E+00 0.00000E+00
 -1      2464 9.02850E+01 5.30525E+00 0.00000E+00
 -1      2465 8.95350E+01 6.60425E+00 0.00000E+00
 -1      2466 9.47850E+01 5.30525E+00 0.00000E+00
 -1      2467 9.32850E+01 5.30525E+00 0.00000E+00
 -1      2468 9.25350E+01 6.60425E+00 0.00000E+00
 -1      2469 9.77850E+01 5.30525E+00 0.00000E+00
 -1      2470 9.62850E+01 5.30525E+00 0.00000E+00
 -1      2471 9.55350E+01 6.60425E+00 0.00000E+00
 -1      2472 1.00785E+02 5.30525E+00 0.00000E+00
 -1      2473 9.92850E+01 5.30525E+00 0.00000E+00
 -1      2474 9.85350E+01 6.60425E+00 0.00000E+00
 -1      2475 1.03785E+02 5.30525E+00 0.00000E+00
 -1      2476 1.02285E+02 5.30525E+00 0.00000E+00
 -1      2477 1.01535E+02 6.60425E+00 0.00000E+00
 -1      2478 1.06785E+02 5.30525E+00 0.00000E+00
 -1      2479 1.05285E+02 5.30525E+00 0.00000E+00
 -1      2480 1.04535E+02 6.60425E+00 0.00000E+00
 -1      2481 1.09785E+02 5.30525E+00 0.00000E+00
 -1      2482 1.08285E+02 5.30525E+00 0.00000E+00
 -1      2483 1.07535E+02 6.60425E+00 0.00000E+00
 -1      2484 1.12785E+02 5.30525E+00 0.00000E+00
 -1      2485 1.11285E+02 5.30525E+00 0.00000E+00
 -1      2486 1.10535E+02 6.60425E+00 0.00000E+00
 -1      2487 1.15785E+02 5.30525E+00 0.00000E+00
 -1      2488 1.14285E+02 5.30525E+00 0.00000E+00
 -1      2489 1.13535E+02 6.60425E+00 0.00000E+00
 -1      2490 1.18785E+02 5.30525E+00 0.00000E+00
 -1      2491 1.17285E+02 5.30525E+00 0.00000E+00
 -1      2492 1.16535E+02 6.60425E+00 0.00000E+00
 -1      2493 1.21785E+02 5.30525E+00 0.00000E+00
 -1      2494 1.20285E+02 5.30525E+00 0.00000E+00
 -1      2495 1.19535E+02 6.60425E+00 0.00000E+00
 -1      2496 1.24785E+02 5.30525E+00 0.00000E+00
 -1      2497 1.23285E+02 5.30525E+00 0.00000E+00
 -1      2498 1.22535E+02 6.60425E+00 0.00000E+00
 -1      2499 1.27785E+02 5.30525E+00 0.00000E+00
 -1      2500 1.26285E+02 5.30525E+00 0.00000E+00
 -1      2501 1.25535E+02 6.60425E+00 0.00000E+00
 -1      2502 1.30785E+02 5.30525E+00 0.00000E+00
 -1      2503 1.29285E+02 5.30525E+00 0.00000E+00
 -1      2504 1.28535E+02 6.60425E+00 0.00000E+00
 -1      2505 1.33785E+02 5.30525E+00 0.00000E+00
 -1      2506 1.32285E+02 5.30525E+00 0.00000E+00
 -1      2507 1.31535E+02 6.60425E+00 0.00000E+00
 -1      2508 1.36785E+02 5.30525E+00 0.00000E+00
 -1      2509 1.35285E+02 5.30525E+00 0.00000E+00
 -1      2510 1.34535E+02 6.60425E+00 0.00000E+00
 -1      2511 1.39785E+02 5.30525E+00 0.00000E+00
 -1      2512 1.38285E+02 5.30525E+00 0.00000E+00
 -1      2513 1.37535E+02 6.60425E+00 0.00000E+00
 -1      2514 1.42785E+02 5.30525E+00 0.00000E+00
 -1      2515 1.41285E+02 5.30525E+00 0.00000E+00
 -1      2516 1.40535E+02 6.60425E+00 0.00000E+00
 -1      2517 1.44336E+02 5.26953E+00 0.00000E+00
 -1      2518 1.43505E+02 1.69125E+01 0.00000E+00
 -1      2519 1.43505E+02 1.54375E+01 0.00000E+00
 -1      2520 1.43505E+02 1.98625E+01 0.00000E+00
 -1      2521 1.43505E+02 1.83875E+01 0.00000E+00
 -1      2522 1.42206E+02 1.76500E+01 0.00000E+00
 -1      2523 1.43505E+02 1.10625E+01 0.00000E+00
 -1      2524 1.43505E+02 9.58750E+00 0.00000E+00
 -1      2525 1.43505E+02 1.39750E+01 0.00000E+00
 -1      2526 1.43505E+02 1.25250E+01 0.00000E+00
 -1      2527 1.42206E+02 1.17875E+01 0.00000E+00
 -1      2528 1.42206E+02 1.47125E+01 0.00000E+00
 -1      2529 1.43505E+02 2.28125E+01 0.00000E+00
 -1      2530 1.43505E+02 2.13375E+01 0.00000E+00
 -1      2531 1.42206E+02 2.06000E+01 0.00000E+00
 -1      2532 1.43505E+02 2.57625E+01 0.00000E+00
 -1      2533 1.43505E+02 2.42875E+01 0.00000E+00
 -1      2534 1.42206E+02 2.35500E+01 0.00000E+00
 -1      2535 1.43505E+02 2.87125E+01 0.00000E+00
 -1      2536 1.43505E+02 2.72375E+01 0.00000E+00
 -1      2537 1.42206E+02 2.65000E+01 0.00000E+00
 -1      2538 1.43505E+02 3.16125E+01 0.00000E+00
 -1      2539 1.43505E+02 3.01625E+01 0.00000E+00
 -1      2540 1.42206E+02 2.94250E+01 0.00000E+00
 -1      2541 1.43505E+02 3.45625E+01 0.00000E+00
 -1      2542 1.43505E+02 3.30875E+01 0.00000E+00
 -1      2543 1.42206E+02 3.23500E+01 0.00000E+00
 -1      2544 1.43505E+02 3.75125E+01 0.00000E+00
 -1      2545 1.43505E+02 3.60375E+01 0.00000E+00
 -1      2546 1.42206E+02 3.53000E+01 0.00000E+00
 -1      2547 1.43304E+02 3.97250E+01 0.00000E+00
 -1      2548 8.60755E+01 2.57272E+01 0.00000E+00
 -1      2549 8.70185E+01 2.58851E+01 0.00000E+00
 -1      2550 6.52200E+00 4.28890E+01 0.00000E+00
 -1      2551 8.42400E+00 4.32410E+01 0.00000E+00
 -1      2552 9.17400E+00 4.19420E+01 0.00000E+00
 -1      2553 6.52200E+00 4.14140E+01 0.00000E+00
 -1      2554 8.59122E+01 4.48038E+01 0.00000E+00
 -1      2555 7.35289E+01 4.00860E+01 0.00000E+00
 -1      2556 7.29315E+01 3.90989E+01 0.00000E+00
 -1      2557 1.97850E+01 5.30525E+00 0.00000E+00
 -1      2558 1.82850E+01 5.30525E+00 0.00000E+00
 -1      2559 1.75350E+01 6.60425E+00 0.00000E+00
 -1      2560 2.05350E+01 6.60425E+00 0.00000E+00
 -1      2561 9.16671E+01 2.96675E+01 0.00000E+00
 -1      2562 9.23277E+01 3.06538E+01 0.00000E+00
 -1      2563 6.49500E+00 2.71625E+01 0.00000E+00
 -1      2564 6.49500E+00 2.86375E+01 0.00000E+00
 -1      2565 7.79400E+00 2.93750E+01 0.00000E+00
 -1      2566 7.79400E+00 2.64250E+01 0.00000E+00
 -1      2567 8.83119E+01 2.65703E+01 0.00000E+00
 -1      2568 8.93022E+01 2.73233E+01 0.00000E+00
 -1      2569 7.94761E+01 2.58274E+01 0.00000E+00
 -1      2570 8.04011E+01 2.55225E+01 0.00000E+00
 -1      2571 8.42337E+01 2.52936E+01 0.00000E+00
 -1      2572 8.51546E+01 2.55104E+01 0.00000E+00
 -1      2573 8.57677E+01 2.47436E+01 0.00000E+00
 -1      2574 7.76401E+01 2.67522E+01 0.00000E+00
 -1      2575 7.85034E+01 2.63192E+01 0.00000E+00
 -1      2576 7.59175E+01 2.80117E+01 0.00000E+00
 -1      2577 7.66805E+01 2.73801E+01 0.00000E+00
 -1      2578 7.45318E+01 2.96498E+01 0.00000E+00
 -1      2579 7.50836E+01 2.88554E+01 0.00000E+00
 -1      2580 7.34402E+01 3.14712E+01 0.00000E+00
 -1      2581 7.39860E+01 3.05605E+01 0.00000E+00
 -1      2582 7.35920E+01 2.96980E+01 0.00000E+00
 -1      2583 7.25923E+01 3.35528E+01 0.00000E+00
 -1      2584 7.27461E+01 3.26280E+01 0.00000E+00
 -1      2585 7.22867E+01 3.55760E+01 0.00000E+00
 -1      2586 7.24395E+01 3.45644E+01 0.00000E+00
 -1      2587 7.15051E+01 3.39339E+01 0.00000E+00
 -1      2588 7.23921E+01 3.77376E+01 0.00000E+00
 -1      2589 7.23731E+01 3.67276E+01 0.00000E+00
 -1      2590 7.45396E+01 4.17720E+01 0.00000E+00
 -1      2591 7.40477E+01 4.10022E+01 0.00000E+00
 -1      2592 7.70547E+01 4.44393E+01 0.00000E+00
 -1      2593 7.60041E+01 4.36190E+01 0.00000E+00
 -1      2594 7.52181E+01 4.27257E+01 0.00000E+00
 -1      2595 9.19252E+01 4.08435E+01 0.00000E+00
 -1      2596 9.12755E+01 4.16102E+01 0.00000E+00
 -1      2597 9.30157E+01 3.84664E+01 0.00000E+00
 -1      2598 9.26525E+01 3.96408E+01 0.00000E+00
 -1      2599 9.30900E+01 3.40524E+01 0.00000E+00
 -1      2600 9.32163E+01 3.50870E+01 0.00000E+00
 -1      2601 7.60493E+01 4.45314E+01 0.00000E+00
 -1      2602 7.79400E+00 3.52687E+01 0.00000E+00
 -1      2603 6.49500E+00 3.60062E+01 0.00000E+00
 -1      2604 6.49500E+00 3.74750E+01 0.00000E+00
 -1      2605 9.37501E+01 3.79878E+01 0.00000E+00
 -1      2606 9.19471E+01 2.88500E+01 0.00000E+00
 -1      2607 8.76521E+01 2.47209E+01 0.00000E+00
 -1      2608 8.79820E+01 2.56456E+01 0.00000E+00
 -1      2609 8.89455E+01 2.54062E+01 0.00000E+00
 -1      2610 7.43201E+01 4.27575E+01 0.00000E+00
 -1      2611 9.31799E+01 3.09881E+01 0.00000E+00
 -1      2612 9.37575E+01 3.34259E+01 0.00000E+00
 -1      2613 7.38744E+01 4.33162E+01 0.00000E+00
 -1      2614 7.46244E+01 4.42576E+01 0.00000E+00
 -1      2615 7.12500E+01 4.25637E+01 0.00000E+00
 -1      2616 9.01603E+01 2.72203E+01 0.00000E+00
 -1      2617 9.39456E+01 3.55734E+01 0.00000E+00
 -1      2618 8.10133E+01 2.49774E+01 0.00000E+00
 -1      2619 8.16256E+01 2.44323E+01 0.00000E+00
 -1      2620 8.02824E+01 2.43154E+01 0.00000E+00
 -1      2621 1.43586E+02 6.56853E+00 0.00000E+00
 -1      2622 7.49717E+01 2.79436E+01 0.00000E+00
 -1      2623 1.43419E+02 7.72713E+00 0.00000E+00
 -1      2624 1.42005E+02 3.89875E+01 0.00000E+00
 -1      2625 7.86975E+01 2.53523E+01 0.00000E+00
 -1      2626 8.29696E+01 2.43275E+01 0.00000E+00
 -1      2627 8.36016E+01 2.48106E+01 0.00000E+00
 -1      2628 8.42148E+01 2.40437E+01 0.00000E+00
 -1      2629 6.50850E+00 3.87101E+01 0.00000E+00
 -1      2630 6.50850E+00 4.01789E+01 0.00000E+00
 -1      2631 7.83450E+00 4.04429E+01 0.00000E+00
 -1      2632 7.80750E+00 3.79726E+01 0.00000E+00
 -1      2633 7.31228E+01 4.08876E+01 0.00000E+00
 -1      2634 9.28860E+01 4.04973E+01 0.00000E+00
 -1      2635 9.31196E+01 4.13538E+01 0.00000E+00
 -1      2636 9.38469E+01 4.01511E+01 0.00000E+00
 -1      2637 7.14388E+01 3.60971E+01 0.00000E+00
 -1      2638 7.23521E+01 3.17655E+01 0.00000E+00
 -1      2639 7.67652E+01 2.64720E+01 0.00000E+00
 -1      2640 1.42120E+02 8.46463E+00 0.00000E+00
 -1      2641 7.20646E+01 3.86101E+01 0.00000E+00
 -1      2642 7.11977E+01 3.81212E+01 0.00000E+00
 -1      2643 7.17372E+01 3.94825E+01 0.00000E+00
 -1      2644 9.20919E+01 4.23332E+01 0.00000E+00
 -1      2645 9.12087E+01 4.22434E+01 0.00000E+00
 -1      2646 8.97295E+01 4.41817E+01 0.00000E+00
 -1      2647 9.04420E+01 4.30728E+01 0.00000E+00
 -1      2648 8.82295E+01 4.41817E+01 0.00000E+00
 -1      2649 8.73372E+01 4.47200E+01 0.00000E+00
 -1      2650 9.09300E+00 1.98250E+01 0.00000E+00
 -1      2651 9.09300E+00 2.12750E+01 0.00000E+00
 -1      2652 9.09300E+00 2.27500E+01 0.00000E+00
 -1      2653 9.09300E+00 2.42250E+01 0.00000E+00
 -1      2654 1.03920E+01 2.20250E+01 0.00000E+00
 -1      2655 9.09300E+00 1.39375E+01 0.00000E+00
 -1      2656 9.09300E+00 1.54125E+01 0.00000E+00
 -1      2657 9.09300E+00 1.09875E+01 0.00000E+00
 -1      2658 9.09300E+00 1.24625E+01 0.00000E+00
 -1      2659 1.03920E+01 1.32000E+01 0.00000E+00
 -1      2660 9.09300E+00 8.03750E+00 0.00000E+00
 -1      2661 9.09300E+00 9.51250E+00 0.00000E+00
 -1      2662 1.03920E+01 1.02500E+01 0.00000E+00
 -1      2663 9.47138E+00 6.43359E+00 0.00000E+00
 -1      2664 9.28613E+00 7.25703E+00 0.00000E+00
 -1      2665 1.05851E+01 7.99453E+00 0.00000E+00
 -1      2666 1.09714E+01 6.43359E+00 0.00000E+00
 -1      2667 1.12500E+01 4.09070E+01 0.00000E+00
 -1      2668 1.27500E+01 4.09070E+01 0.00000E+00
 -1      2669 7.31958E+01 4.23625E+01 0.00000E+00
 -1      2670 1.41750E+01 4.09070E+01 0.00000E+00
 -1      2671 1.56000E+01 4.09070E+01 0.00000E+00
 -1      2672 1.34250E+01 3.96080E+01 0.00000E+00
 -1      2673 1.71000E+01 4.09070E+01 0.00000E+00
 -1      2674 1.86000E+01 4.09070E+01 0.00000E+00
 -1      2675 1.63500E+01 3.96080E+01 0.00000E+00
 -1      2676 2.01000E+01 4.09070E+01 0.00000E+00
 -1      2677 2.16000E+01 4.09070E+01 0.00000E+00
 -1      2678 1.93500E+01 3.96080E+01 0.00000E+00
 -1      2679 2.31000E+01 4.09070E+01 0.00000E+00
 -1      2680 2.46000E+01 4.09070E+01 0.00000E+00
 -1      2681 2.23500E+01 3.96080E+01 0.00000E+00
 -1      2682 2.61000E+01 4.09070E+01 0.00000E+00
 -1      2683 2.76000E+01 4.09070E+01 0.00000E+00
 -1      2684 2.53500E+01 3.96080E+01 0.00000E+00
 -1      2685 2.91000E+01 4.09070E+01 0.00000E+00
 -1      2686 3.06000E+01 4.09070E+01 0.00000E+00
 -1      2687 2.83500E+01 3.96080E+01 0.00000E+00
 -1      2688 3.20250E+01 4.09070E+01 0.00000E+00
 -1      2689 3.34500E+01 4.09070E+01 0.00000E+00
 -1      2690 3.12750E+01 3.96080E+01 0.00000E+00
 -1      2691 3.49500E+01 4.09070E+01 0.00000E+00
 -1      2692 3.64500E+01 4.09070E+01 0.00000E+00
 -1      2693 3.42000E+01 3.96080E+01 0.00000E+00
 -1      2694 3.79500E+01 4.09070E+01 0.00000E+00
 -1      2695 3.94500E+01 4.09070E+01 0.00000E+00
 -1      2696 3.72000E+01 3.96080E+01 0.00000E+00
 -1      2697 4.09500E+01 4.09070E+01 0.00000E+00
 -1      2698 4.24500E+01 4.09070E+01 0.00000E+00
 -1      2699 4.02000E+01 3.96080E+01 0.00000E+00
 -1      2700 4.39500E+01 4.09070E+01 0.00000E+00
 -1      2701 4.54500E+01 4.09070E+01 0.00000E+00
 -1      2702 4.32000E+01 3.96080E+01 0.00000E+00
 -1      2703 4.69500E+01 4.09070E+01 0.00000E+00
 -1      2704 4.84500E+01 4.09070E+01 0.00000E+00
 -1      2705 4.62000E+01 3.96080E+01 0.00000E+00
 -1      2706 4.98750E+01 4.09070E+01 0.00000E+00
 -1      2707 5.13000E+01 4.09070E+01 0.00000E+00
 -1      2708 4.91250E+01 3.96080E+01 0.00000E+00
 -1      2709 5.28000E+01 4.09070E+01 0.00000E+00
 -1      2710 5.43000E+01 4.09070E+01 0.00000E+00
 -1      2711 5.20500E+01 3.96080E+01 0.00000E+00
 -1      2712 5.58000E+01 4.09070E+01 0.00000E+00
 -1      2713 5.73000E+01 4.09070E+01 0.00000E+00
 -1      2714 5.50500E+01 3.96080E+01 0.00000E+00
 -1      2715 5.88000E+01 4.09070E+01 0.00000E+00
 -1      2716 6.03000E+01 4.09070E+01 0.00000E+00
 -1      2717 5.80500E+01 3.96080E+01 0.00000E+00
 -1      2718 6.18000E+01 4.09070E+01 0.00000E+00
 -1      2719 6.33000E+01 4.09070E+01 0.00000E+00
 -1      2720 6.10500E+01 3.96080E+01 0.00000E+00
 -1      2721 6.48000E+01 4.09070E+01 0.00000E+00
 -1      2722 6.63000E+01 4.09070E+01 0.00000E+00
 -1      2723 6.40500E+01 3.96080E+01 0.00000E+00
 -1      2724 6.76500E+01 4.09070E+01 0.00000E+00
 -1      2725 6.90000E+01 4.09070E+01 0.00000E+00
 -1      2726 6.69000E+01 3.96080E+01 0.00000E+00
 -1      2727 9.09300E+00 3.15875E+01 0.00000E+00
 -1      2728 9.09300E+00 3.30625E+01 0.00000E+00
 -1      2729 9.45500E+01 3.26885E+01 0.00000E+00
 -1      2730 9.47968E+01 3.37284E+01 0.00000E+00
 -1      2731 9.57750E+01 4.18574E+01 0.00000E+00
 -1      2732 9.72750E+01 4.18574E+01 0.00000E+00
 -1      2733 9.87750E+01 4.17737E+01 0.00000E+00
 -1      2734 1.00275E+02 4.17737E+01 0.00000E+00
 -1      2735 1.01775E+02 4.17737E+01 0.00000E+00
 -1      2736 1.03275E+02 4.17737E+01 0.00000E+00
 -1      2737 1.01025E+02 4.05810E+01 0.00000E+00
 -1      2738 1.04775E+02 4.17737E+01 0.00000E+00
 -1      2739 1.06275E+02 4.17737E+01 0.00000E+00
 -1      2740 1.04025E+02 4.05810E+01 0.00000E+00
 -1      2741 1.07700E+02 4.17737E+01 0.00000E+00
 -1      2742 1.09125E+02 4.17737E+01 0.00000E+00
 -1      2743 1.06950E+02 4.05810E+01 0.00000E+00
 -1      2744 1.10625E+02 4.17737E+01 0.00000E+00
 -1      2745 1.12125E+02 4.17737E+01 0.00000E+00
 -1      2746 1.09875E+02 4.05810E+01 0.00000E+00
 -1      2747 1.13625E+02 4.17737E+01 0.00000E+00
 -1      2748 1.15125E+02 4.17737E+01 0.00000E+00
 -1      2749 1.12875E+02 4.05810E+01 0.00000E+00
 -1      2750 1.16625E+02 4.17737E+01 0.00000E+00
 -1      2751 1.18125E+02 4.17737E+01 0.00000E+00
 -1      2752 1.15875E+02 4.05810E+01 0.00000E+00
 -1      2753 1.19625E+02 4.17737E+01 0.00000E+00
 -1      2754 1.21125E+02 4.17737E+01 0.00000E+00
 -1      2755 1.18875E+02 4.05810E+01 0.00000E+00
 -1      2756 1.22625E+02 4.17737E+01 0.00000E+00
 -1      2757 1.24125E+02 4.17737E+01 0.00000E+00
 -1      2758 1.21875E+02 4.05810E+01 0.00000E+00
 -1      2759 1.25550E+02 4.17737E+01 0.00000E+00
 -1      2760 1.26975E+02 4.17737E+01 0.00000E+00
 -1      2761 1.24800E+02 4.05810E+01 0.00000E+00
 -1      2762 1.28475E+02 4.17737E+01 0.00000E+00
 -1      2763 1.29975E+02 4.17737E+01 0.00000E+00
 -1      2764 1.27725E+02 4.05810E+01 0.00000E+00
 -1      2765 1.31475E+02 4.17737E+01 0.00000E+00
 -1      2766 1.32975E+02 4.17737E+01 0.00000E+00
 -1      2767 1.30725E+02 4.05810E+01 0.00000E+00
 -1      2768 1.34475E+02 4.17737E+01 0.00000E+00
 -1      2769 1.35975E+02 4.17737E+01 0.00000E+00
 -1      2770 1.33725E+02 4.05810E+01 0.00000E+00
 -1      2771 9.47895E+01 3.50628E+01 0.00000E+00
 -1      2772 9.47308E+01 3.61703E+01 0.00000E+00
 -1      2773 3.02850E+01 7.90325E+00 0.00000E+00
 -1      2774 2.87850E+01 7.90325E+00 0.00000E+00
 -1      2775 2.42850E+01 7.90325E+00 0.00000E+00
 -1      2776 2.27850E+01 7.90325E+00 0.00000E+00
 -1      2777 3.32850E+01 7.90325E+00 0.00000E+00
 -1      2778 3.17850E+01 7.90325E+00 0.00000E+00
 -1      2779 3.10350E+01 9.20225E+00 0.00000E+00
 -1      2780 3.62850E+01 7.90325E+00 0.00000E+00
 -1      2781 3.47850E+01 7.90325E+00 0.00000E+00
 -1      2782 3.40350E+01 9.20225E+00 0.00000E+00
 -1      2783 3.92850E+01 7.90325E+00 0.00000E+00
 -1      2784 3.77850E+01 7.90325E+00 0.00000E+00
 -1      2785 3.70350E+01 9.20225E+00 0.00000E+00
 -1      2786 4.22850E+01 7.90325E+00 0.00000E+00
 -1      2787 4.07850E+01 7.90325E+00 0.00000E+00
 -1      2788 4.00350E+01 9.20225E+00 0.00000E+00
 -1      2789 4.52850E+01 7.90325E+00 0.00000E+00
 -1      2790 4.37850E+01 7.90325E+00 0.00000E+00
 -1      2791 4.30350E+01 9.20225E+00 0.00000E+00
 -1      2792 4.82850E+01 7.90325E+00 0.00000E+00
 -1      2793 4.67850E+01 7.90325E+00 0.00000E+00
 -1      2794 4.60350E+01 9.20225E+00 0.00000E+00
 -1      2795 5.12850E+01 7.90325E+00 0.00000E+00
 -1      2796 4.97850E+01 7.90325E+00 0.00000E+00
 -1      2797 4.90350E+01 9.20225E+00 0.00000E+00
 -1      2798 5.42850E+01 7.90325E+00 0.00000E+00
 -1      2799 5.27850E+01 7.90325E+00 0.00000E+00
 -1      2800 5.20350E+01 9.20225E+00 0.00000E+00
 -1      2801 5.72850E+01 7.90325E+00 0.00000E+00
 -1      2802 5.57850E+01 7.90325E+00 0.00000E+00
 -1      2803 5.50350E+01 9.20225E+00 0.00000E+00
 -1      2804 6.02850E+01 7.90325E+00 0.00000E+00
 -1      2805 5.87850E+01 7.90325E+00 0.00000E+00
 -1      2806 5.80350E+01 9.20225E+00 0.00000E+00
 -1      2807 6.32850E+01 7.90325E+00 0.00000E+00
 -1      2808 6.17850E+01 7.90325E+00 0.00000E+00
 -1      2809 6.10350E+01 9.20225E+00 0.00000E+00
 -1      2810 6.62850E+01 7.90325E+00 0.00000E+00
 -1      2811 6.47850E+01 7.90325E+00 0.00000E+00
 -1      2812 6.40350E+01 9.20225E+00 0.00000E+00
 -1      2813 6.92850E+01 7.90325E+00 0.00000E+00
 -1      2814 6.77850E+01 7.90325E+00 0.00000E+00
 -1      2815 6.70350E+01 9.20225E+00 0.00000E+00
 -1      2816 7.22850E+01 7.90325E+00 0.00000E+00
 -1      2817 7.07850E+01 7.90325E+00 0.00000E+00
 -1      2818 7.00350E+01 9.20225E+00 0.00000E+00
 -1      2819 7.52850E+01 7.90325E+00 0.00000E+00
 -1      2820 7.37850E+01 7.90325E+00 0.00000E+00
 -1      2821 7.30350E+01 9.20225E+00 0.00000E+00
 -1      2822 7.82850E+01 7.90325E+00 0.00000E+00
 -1      2823 7.67850E+01 7.90325E+00 0.00000E+00
 -1      2824 7.60350E+01 9.20225E+00 0.00000E+00
 -1      2825 8.12850E+01 7.90325E+00 0.00000E+00
 -1      2826 7.97850E+01 7.90325E+00 0.00000E+00
 -1      2827 7.90350E+01 9.20225E+00 0.00000E+00
 -1      2828 8.42850E+01 7.90325E+00 0.00000E+00
 -1      2829 8.27850E+01 7.90325E+00 0.00000E+00
 -1      2830 8.20350E+01 9.20225E+00 0.00000E+00
 -1      2831 8.72850E+01 7.90325E+00 0.00000E+00
 -1      2832 8.57850E+01 7.90325E+00 0.00000E+00
 -1      2833 8.50350E+01 9.20225E+00 0.00000E+00
 -1      2834 9.02850E+01 7.90325E+00 0.00000E+00
 -1      2835 8.87850E+01 7.90325E+00 0.00000E+00
 -1      2836 8.80350E+01 9.20225E+00 0.00000E+00
 -1      2837 9.32850E+01 7.90325E+00 0.00000E+00
 -1      2838 9.17850E+01 7.90325E+00 0.00000E+00
 -1      2839 9.10350E+01 9.20225E+00 0.00000E+00
 -1      2840 9.62850E+01 7.90325E+00 0.00000E+00
 -1      2841 9.47850E+01 7.90325E+00 0.00000E+00
 -1      2842 9.40350E+01 9.20225E+00 0.00000E+00
 -1      2843 9.92850E+01 7.90325E+00 0.00000E+00
 -1      2844 9.77850E+01 7.90325E+00 0.00000E+00
 -1      2845 9.70350E+01 9.20225E+00 0.00000E+00
 -1      2846 1.02285E+02 7.90325E+00 0.00000E+00
 -1      2847 1.00785E+02 7.90325E+00 0.00000E+00
 -1      2848 1.00035E+02 9.20225E+00 0.00000E+00
 -1      2849 1.05285E+02 7.90325E+00 0.00000E+00
 -1      2850 1.03785E+02 7.90325E+00 0.00000E+00
 -1      2851 1.03035E+02 9.20225E+00 0.00000E+00
 -1      2852 1.08285E+02 7.90325E+00 0.00000E+00
 -1      2853 1.06785E+02 7.90325E+00 0.00000E+00
 -1      2854 1.06035E+02 9.20225E+00 0.00000E+00
 -1      2855 1.11285E+02 7.90325E+00 0.00000E+00
 -1      2856 1.09785E+02 7.90325E+00 0.00000E+00
 -1      2857 1.09035E+02 9.20225E+00 0.00000E+00
 -1      2858 1.14285E+02 7.90325E+00 0.00000E+00
 -1      2859 1.12785E+02 7.90325E+00 0.00000E+00
 -1      2860 1.12035E+02 9.20225E+00 0.00000E+00
 -1      2861 1.17285E+02 7.90325E+00 0.00000E+00
 -1      2862 1.15785E+02 7.90325E+00 0.00000E+00
 -1      2863 1.15035E+02 9.20225E+00 0.00000E+00
 -1      2864 1.20285E+02 7.90325E+00 0.00000E+00
 -1      2865 1.18785E+02 7.90325E+00 0.00000E+00
 -1      2866 1.18035E+02 9.20225E+00 0.00000E+00
 -1      2867 1.23285E+02 7.90325E+00 0.00000E+00
 -1      2868 1.21785E+02 7.90325E+00 0.00000E+00
 -1      2869 1.21035E+02 9.20225E+00 0.00000E+00
 -1      2870 1.26285E+02 7.90325E+00 0.00000E+00
 -1      2871 1.24785E+02 7.90325E+00 0.00000E+00
 -1      2872 1.24035E+02 9.20225E+00 0.00000E+00
 -1      2873 1.29285E+02 7.90325E+00 0.00000E+00
 -1      2874 1.27785E+02 7.90325E+00 0.00000E+00
 -1      2875 1.27035E+02 9.20225E+00 0.00000E+00
 -1      2876 1.32285E+02 7.90325E+00 0.00000E+00
 -1      2877 1.30785E+02 7.90325E+00 0.00000E+00
 -1      2878 1.30035E+02 9.20225E+00 0.00000E+00
 -1      2879 1.35285E+02 7.90325E+00 0.00000E+00
 -1      2880 1.33785E+02 7.90325E+00 0.00000E+00
 -1      2881 1.33035E+02 9.20225E+00 0.00000E+00
 -1      2882 1.38285E+02 7.90325E+00 0.00000E+00
 -1      2883 1.36785E+02 7.90325E+00 0.00000E+00
 -1      2884 1.36035E+02 9.20225E+00 0.00000E+00
 -1      2885 1.40953E+02 8.18394E+00 0.00000E+00
 -1      2886 1.39453E+02 8.18394E+00 0.00000E+00
 -1      2887 1.38703E+02 9.48294E+00 0.00000E+00
 -1      2888 1.41038E+02 1.00443E+01 0.00000E+00
 -1      2889 7.39448E+01 2.77626E+01 0.00000E+00
 -1      2890 7.47787E+01 2.69189E+01 0.00000E+00
 -1      2891 1.40907E+02 2.42875E+01 0.00000E+00
 -1      2892 1.40907E+02 2.28125E+01 0.00000E+00
 -1      2893 1.40907E+02 1.83875E+01 0.00000E+00
 -1      2894 1.40907E+02 1.69125E+01 0.00000E+00
 -1      2895 1.40907E+02 2.72375E+01 0.00000E+00
 -1      2896 1.40907E+02 2.57625E+01 0.00000E+00
 -1      2897 1.39608E+02 2.50250E+01 0.00000E+00
 -1      2898 1.40907E+02 2.13375E+01 0.00000E+00
 -1      2899 1.40907E+02 1.98625E+01 0.00000E+00
 -1      2900 1.39608E+02 1.91250E+01 0.00000E+00
 -1      2901 1.39608E+02 2.20750E+01 0.00000E+00
 -1      2902 1.40907E+02 3.01375E+01 0.00000E+00
 -1      2903 1.40907E+02 2.86875E+01 0.00000E+00
 -1      2904 1.39608E+02 2.79500E+01 0.00000E+00
 -1      2905 1.40907E+02 3.30875E+01 0.00000E+00
 -1      2906 1.40907E+02 3.16125E+01 0.00000E+00
 -1      2907 1.39608E+02 3.08750E+01 0.00000E+00
 -1      2908 1.40907E+02 3.60375E+01 0.00000E+00
 -1      2909 1.40907E+02 3.45625E+01 0.00000E+00
 -1      2910 1.39608E+02 3.38250E+01 0.00000E+00
 -1      2911 7.77864E+01 2.47581E+01 0.00000E+00
 -1      2912 7.87591E+01 2.42663E+01 0.00000E+00
 -1      2913 8.87925E+00 4.05429E+01 0.00000E+00
 -1      2914 1.02052E+01 4.08069E+01 0.00000E+00
 -1      2915 1.09552E+01 3.95079E+01 0.00000E+00
 -1      2916 8.86575E+00 3.93078E+01 0.00000E+00
 -1      2917 9.47547E+01 3.74323E+01 0.00000E+00
 -1      2918 9.46180E+01 3.87392E+01 0.00000E+00
 -1      2919 9.09300E+00 1.68813E+01 0.00000E+00
 -1      2920 9.09300E+00 1.83563E+01 0.00000E+00
 -1      2921 1.03920E+01 1.90812E+01 0.00000E+00
 -1      2922 1.03920E+01 1.61437E+01 0.00000E+00
 -1      2923 9.20401E+01 2.78170E+01 0.00000E+00
 -1      2924 9.29421E+01 2.85572E+01 0.00000E+00
 -1      2925 9.40121E+01 3.00531E+01 0.00000E+00
 -1      2926 9.43429E+01 3.14510E+01 0.00000E+00
 -1      2927 1.40611E+02 3.99762E+01 0.00000E+00
 -1      2928 1.40812E+02 3.77637E+01 0.00000E+00
 -1      2929 7.57241E+01 2.59281E+01 0.00000E+00
 -1      2930 7.66837E+01 2.53002E+01 0.00000E+00
 -1      2931 8.55229E+01 2.37189E+01 0.00000E+00
 -1      2932 8.64439E+01 2.39357E+01 0.00000E+00
 -1      2933 7.25835E+01 2.97125E+01 0.00000E+00
 -1      2934 7.31293E+01 2.88018E+01 0.00000E+00
 -1      2935 7.11953E+01 3.20261E+01 0.00000E+00
 -1      2936 7.18894E+01 3.08693E+01 0.00000E+00
 -1      2937 7.14267E+01 2.99731E+01 0.00000E+00
 -1      2938 7.05808E+01 3.43115E+01 0.00000E+00
 -1      2939 7.07336E+01 3.33000E+01 0.00000E+00
 -1      2940 7.26770E+01 4.14464E+01 0.00000E+00
 -1      2941 7.21583E+01 4.05302E+01 0.00000E+00
 -1      2942 7.22312E+01 4.20051E+01 0.00000E+00
 -1      2943 2.72850E+01 7.90325E+00 0.00000E+00
 -1      2944 2.57850E+01 7.90325E+00 0.00000E+00
 -1      2945 2.50350E+01 9.20225E+00 0.00000E+00
 -1      2946 7.05433E+01 3.67434E+01 0.00000E+00
 -1      2947 7.04568E+01 3.55917E+01 0.00000E+00
 -1      2948 9.02704E+01 2.60381E+01 0.00000E+00
 -1      2949 9.11553E+01 2.69275E+01 0.00000E+00
 -1      2950 9.21503E+01 2.66347E+01 0.00000E+00
 -1      2951 1.03920E+01 2.49750E+01 0.00000E+00
 -1      2952 9.09300E+00 2.57000E+01 0.00000E+00
 -1      2953 9.09300E+00 2.71750E+01 0.00000E+00
 -1      2954 9.55986E+01 3.69217E+01 0.00000E+00
 -1      2955 2.12850E+01 7.90325E+00 0.00000E+00
 -1      2956 1.97850E+01 7.90325E+00 0.00000E+00
 -1      2957 2.20350E+01 9.20225E+00 0.00000E+00
 -1      2958 8.74073E+01 2.36962E+01 0.00000E+00
 -1      2959 7.07312E+01 4.16475E+01 0.00000E+00
 -1      2960 1.03920E+01 3.37938E+01 0.00000E+00
 -1      2961 9.09300E+00 3.45313E+01 0.00000E+00
 -1      2962 9.09300E+00 3.60000E+01 0.00000E+00
 -1      2963 9.80250E+01 4.06647E+01 0.00000E+00
 -1      2964 9.45527E+01 4.19870E+01 0.00000E+00
 -1      2965 9.53027E+01 4.08781E+01 0.00000E+00
 -1      2966 7.93714E+01 2.37212E+01 0.00000E+00
 -1      2967 7.99836E+01 2.31761E+01 0.00000E+00
 -1      2968 7.84603E+01 2.31270E+01 0.00000E+00
 -1      2969 1.39341E+02 4.04178E+01 0.00000E+00
 -1      2970 9.55820E+01 3.43254E+01 0.00000E+00
 -1      2971 1.37023E+02 4.13165E+01 0.00000E+00
 -1      2972 1.38293E+02 4.08749E+01 0.00000E+00
 -1      2973 1.38369E+02 3.92096E+01 0.00000E+00
 -1      2974 1.36273E+02 4.01238E+01 0.00000E+00
 -1      2975 1.51772E+01 7.76028E+00 0.00000E+00
 -1      2976 1.39596E+01 7.52250E+00 0.00000E+00
 -1      2977 2.80350E+01 9.20225E+00 0.00000E+00
 -1      2978 7.29363E+01 2.77771E+01 0.00000E+00
 -1      2979 1.41038E+02 1.15068E+01 0.00000E+00
 -1      2980 1.39870E+02 1.12261E+01 0.00000E+00
 -1      2981 1.41038E+02 1.29693E+01 0.00000E+00
 -1      2982 7.02158E+01 3.76159E+01 0.00000E+00
 -1      2983 8.99405E+01 2.51133E+01 0.00000E+00
 -1      2984 9.09355E+01 2.48205E+01 0.00000E+00
 -1      2985 8.96106E+01 2.41886E+01 0.00000E+00
 -1      2986 1.66772E+01 7.76028E+00 0.00000E+00
 -1      2987 1.58194E+01 8.91630E+00 0.00000E+00
 -1      2988 1.81772E+01 7.76028E+00 0.00000E+00
 -1      2989 1.39513E+02 3.70262E+01 0.00000E+00
 -1      2990 7.67453E+01 2.42142E+01 0.00000E+00
 -1      2991 7.02710E+01 3.24038E+01 0.00000E+00
 -1      2992 8.22387E+01 2.36655E+01 0.00000E+00
 -1      2993 9.41051E+01 2.90201E+01 0.00000E+00
 -1      2994 9.52681E+01 2.94830E+01 0.00000E+00
 -1      2995 9.41981E+01 2.79871E+01 0.00000E+00
 -1      2996 9.48436E+01 3.93804E+01 0.00000E+00
 -1      2997 9.50771E+01 4.02369E+01 0.00000E+00
 -1      2998 9.62994E+01 4.01073E+01 0.00000E+00
 -1      2999 9.58482E+01 3.88249E+01 0.00000E+00
 -1      3000 9.53822E+01 3.17535E+01 0.00000E+00
 -1      3001 8.48909E+01 2.32358E+01 0.00000E+00
 -1      3002 8.55671E+01 2.24279E+01 0.00000E+00
 -1      3003 8.42589E+01 2.27528E+01 0.00000E+00
 -1      3004 9.09300E+00 2.86437E+01 0.00000E+00
 -1      3005 9.09300E+00 3.01187E+01 0.00000E+00
 -1      3006 1.03920E+01 3.08563E+01 0.00000E+00
 -1      3007 1.03920E+01 2.79188E+01 0.00000E+00
 -1      3008 7.46972E+01 2.57471E+01 0.00000E+00
 -1      3009 6.99812E+01 4.03485E+01 0.00000E+00
 -1      3010 1.40973E+02 1.56722E+01 0.00000E+00
 -1      3011 1.40973E+02 1.42097E+01 0.00000E+00
 -1      3012 1.39805E+02 1.39290E+01 0.00000E+00
 -1      3013 1.39674E+02 1.64097E+01 0.00000E+00
 -1      3014 9.30527E+01 4.19870E+01 0.00000E+00
 -1      3015 7.12914E+01 4.00413E+01 0.00000E+00
 -1      3016 6.96853E+01 3.49578E+01 0.00000E+00
 -1      3017 1.16910E+01 9.51250E+00 0.00000E+00
 -1      3018 1.16910E+01 1.09875E+01 0.00000E+00
 -1      3019 1.16910E+01 1.24625E+01 0.00000E+00
 -1      3020 1.16910E+01 1.39375E+01 0.00000E+00
 -1      3021 1.29900E+01 1.17250E+01 0.00000E+00
 -1      3022 1.21890E+01 6.67137E+00 0.00000E+00
 -1      3023 1.00275E+02 3.92820E+01 0.00000E+00
 -1      3024 1.01775E+02 3.92820E+01 0.00000E+00
 -1      3025 2.57850E+01 1.05013E+01 0.00000E+00
 -1      3026 2.42850E+01 1.05013E+01 0.00000E+00
 -1      3027 1.27125E+01 3.83090E+01 0.00000E+00
 -1      3028 1.41375E+01 3.83090E+01 0.00000E+00
 -1      3029 1.56375E+01 3.83090E+01 0.00000E+00
 -1      3030 1.71375E+01 3.83090E+01 0.00000E+00
 -1      3031 1.49250E+01 3.70100E+01 0.00000E+00
 -1      3032 1.86375E+01 3.83090E+01 0.00000E+00
 -1      3033 2.01375E+01 3.83090E+01 0.00000E+00
 -1      3034 1.79250E+01 3.70100E+01 0.00000E+00
 -1      3035 2.16375E+01 3.83090E+01 0.00000E+00
 -1      3036 2.31375E+01 3.83090E+01 0.00000E+00
 -1      3037 2.09250E+01 3.70100E+01 0.00000E+00
 -1      3038 2.46375E+01 3.83090E+01 0.00000E+00
 -1      3039 2.61375E+01 3.83090E+01 0.00000E+00
 -1      3040 2.39250E+01 3.70100E+01 0.00000E+00
 -1      3041 2.76375E+01 3.83090E+01 0.00000E+00
 -1      3042 2.91375E+01 3.83090E+01 0.00000E+00
 -1      3043 2.69250E+01 3.70100E+01 0.00000E+00
 -1      3044 3.05625E+01 3.83090E+01 0.00000E+00
 -1      3045 3.19875E+01 3.83090E+01 0.00000E+00
 -1      3046 2.98500E+01 3.70100E+01 0.00000E+00
 -1      3047 3.34875E+01 3.83090E+01 0.00000E+00
 -1      3048 3.49875E+01 3.83090E+01 0.00000E+00
 -1      3049 3.27750E+01 3.70100E+01 0.00000E+00
 -1      3050 3.64875E+01 3.83090E+01 0.00000E+00
 -1      3051 3.79875E+01 3.83090E+01 0.00000E+00
 -1      3052 3.57750E+01 3.70100E+01 0.00000E+00
 -1      3053 3.94875E+01 3.83090E+01 0.00000E+00
 -1      3054 4.09875E+01 3.83090E+01 0.00000E+00
 -1      3055 3.87750E+01 3.70100E+01 0.00000E+00
 -1      3056 4.24875E+01 3.83090E+01 0.00000E+00
 -1      3057 4.39875E+01 3.83090E+01 0.00000E+00
 -1      3058 4.17750E+01 3.70100E+01 0.00000E+00
 -1      3059 4.54875E+01 3.83090E+01 0.00000E+00
 -1      3060 4.69875E+01 3.83090E+01 0.00000E+00
 -1      3061 4.47750E+01 3.70100E+01 0.00000E+00
 -1      3062 4.84125E+01 3.83090E+01 0.00000E+00
 -1      3063 4.98375E+01 3.83090E+01 0.00000E+00
 -1      3064 4.77000E+01 3.70100E+01 0.00000E+00
 -1      3065 5.13375E+01 3.83090E+01 0.00000E+00
 -1      3066 5.28375E+01 3.83090E+01 0.00000E+00
 -1      3067 5.06250E+01 3.70100E+01 0.00000E+00
 -1      3068 5.43375E+01 3.83090E+01 0.00000E+00
 -1      3069 5.58375E+01 3.83090E+01 0.00000E+00
 -1      3070 5.36250E+01 3.70100E+01 0.00000E+00
 -1      3071 5.73375E+01 3.83090E+01 0.00000E+00
 -1      3072 5.88375E+01 3.83090E+01 0.00000E+00
 -1      3073 5.66250E+01 3.70100E+01 0.00000E+00
 -1      3074 6.03375E+01 3.83090E+01 0.00000E+00
 -1      3075 6.18375E+01 3.83090E+01 0.00000E+00
 -1      3076 5.96250E+01 3.70100E+01 0.00000E+00
 -1      3077 6.33375E+01 3.83090E+01 0.00000E+00
 -1      3078 6.48375E+01 3.83090E+01 0.00000E+00
 -1      3079 6.26250E+01 3.70100E+01 0.00000E+00
 -1      3080 6.61875E+01 3.83090E+01 0.00000E+00
 -1      3081 6.75375E+01 3.83090E+01 0.00000E+00
 -1      3082 6.54750E+01 3.70100E+01 0.00000E+00
 -1      3083 1.25488E+01 8.06518E+00 0.00000E+00
 -1      3084 1.03275E+02 3.92820E+01 0.00000E+00
 -1      3085 1.04775E+02 3.92820E+01 0.00000E+00
 -1      3086 1.02525E+02 3.79830E+01 0.00000E+00
 -1      3087 1.06200E+02 3.92820E+01 0.00000E+00
 -1      3088 1.07625E+02 3.92820E+01 0.00000E+00
 -1      3089 1.05450E+02 3.79830E+01 0.00000E+00
 -1      3090 1.09125E+02 3.92820E+01 0.00000E+00
 -1      3091 1.10625E+02 3.92820E+01 0.00000E+00
 -1      3092 1.08375E+02 3.79830E+01 0.00000E+00
 -1      3093 1.12125E+02 3.92820E+01 0.00000E+00
 -1      3094 1.13625E+02 3.92820E+01 0.00000E+00
 -1      3095 1.11375E+02 3.79830E+01 0.00000E+00
 -1      3096 1.15125E+02 3.92820E+01 0.00000E+00
 -1      3097 1.16625E+02 3.92820E+01 0.00000E+00
 -1      3098 1.14375E+02 3.79830E+01 0.00000E+00
 -1      3099 1.18125E+02 3.92820E+01 0.00000E+00
 -1      3100 1.19625E+02 3.92820E+01 0.00000E+00
 -1      3101 1.17375E+02 3.79830E+01 0.00000E+00
 -1      3102 1.21125E+02 3.92820E+01 0.00000E+00
 -1      3103 1.22625E+02 3.92820E+01 0.00000E+00
 -1      3104 1.20375E+02 3.79830E+01 0.00000E+00
 -1      3105 1.24050E+02 3.92820E+01 0.00000E+00
 -1      3106 1.25475E+02 3.92820E+01 0.00000E+00
 -1      3107 1.23300E+02 3.79830E+01 0.00000E+00
 -1      3108 1.26975E+02 3.92820E+01 0.00000E+00
 -1      3109 1.28475E+02 3.92820E+01 0.00000E+00
 -1      3110 1.26225E+02 3.79830E+01 0.00000E+00
 -1      3111 1.29975E+02 3.92820E+01 0.00000E+00
 -1      3112 1.31475E+02 3.92820E+01 0.00000E+00
 -1      3113 1.29225E+02 3.79830E+01 0.00000E+00
 -1      3114 1.32975E+02 3.92820E+01 0.00000E+00
 -1      3115 1.34475E+02 3.92820E+01 0.00000E+00
 -1      3116 1.32225E+02 3.79830E+01 0.00000E+00
 -1      3117 2.87850E+01 1.05013E+01 0.00000E+00
 -1      3118 2.72850E+01 1.05013E+01 0.00000E+00
 -1      3119 2.65350E+01 1.18003E+01 0.00000E+00
 -1      3120 8.74531E+01 2.23035E+01 0.00000E+00
 -1      3121 8.86614E+01 2.30888E+01 0.00000E+00
 -1      3122 3.17850E+01 1.05013E+01 0.00000E+00
 -1      3123 3.02850E+01 1.05013E+01 0.00000E+00
 -1      3124 2.95350E+01 1.18003E+01 0.00000E+00
 -1      3125 4.07850E+01 1.05013E+01 0.00000E+00
 -1      3126 3.92850E+01 1.05013E+01 0.00000E+00
 -1      3127 4.37850E+01 1.05013E+01 0.00000E+00
 -1      3128 4.22850E+01 1.05013E+01 0.00000E+00
 -1      3129 4.15350E+01 1.18003E+01 0.00000E+00
 -1      3130 4.67850E+01 1.05013E+01 0.00000E+00
 -1      3131 4.52850E+01 1.05013E+01 0.00000E+00
 -1      3132 4.45350E+01 1.18003E+01 0.00000E+00
 -1      3133 4.97850E+01 1.05013E+01 0.00000E+00
 -1      3134 4.82850E+01 1.05013E+01 0.00000E+00
 -1      3135 4.75350E+01 1.18003E+01 0.00000E+00
 -1      3136 5.27850E+01 1.05013E+01 0.00000E+00
 -1      3137 5.12850E+01 1.05013E+01 0.00000E+00
 -1      3138 5.05350E+01 1.18003E+01 0.00000E+00
 -1      3139 5.57850E+01 1.05013E+01 0.00000E+00
 -1      3140 5.42850E+01 1.05013E+01 0.00000E+00
 -1      3141 5.35350E+01 1.18003E+01 0.00000E+00
 -1      3142 5.87850E+01 1.05013E+01 0.00000E+00
 -1      3143 5.72850E+01 1.05013E+01 0.00000E+00
 -1      3144 5.65350E+01 1.18003E+01 0.00000E+00
 -1      3145 6.17850E+01 1.05013E+01 0.00000E+00
 -1      3146 6.02850E+01 1.05013E+01 0.00000E+00
 -1      3147 5.95350E+01 1.18003E+01 0.00000E+00
 -1      3148 6.47850E+01 1.05013E+01 0.00000E+00
 -1      3149 6.32850E+01 1.05013E+01 0.00000E+00
 -1      3150 6.25350E+01 1.18003E+01 0.00000E+00
 -1      3151 6.77850E+01 1.05013E+01 0.00000E+00
 -1      3152 6.62850E+01 1.05013E+01 0.00000E+00
 -1      3153 6.55350E+01 1.18003E+01 0.00000E+00
 -1      3154 7.07850E+01 1.05013E+01 0.00000E+00
 -1      3155 6.92850E+01 1.05013E+01 0.00000E+00
 -1      3156 6.85350E+01 1.18003E+01 0.00000E+00
 -1      3157 7.37850E+01 1.05013E+01 0.00000E+00
 -1      3158 7.22850E+01 1.05013E+01 0.00000E+00
 -1      3159 7.15350E+01 1.18003E+01 0.00000E+00
 -1      3160 7.67850E+01 1.05013E+01 0.00000E+00
 -1      3161 7.52850E+01 1.05013E+01 0.00000E+00
 -1      3162 7.45350E+01 1.18003E+01 0.00000E+00
 -1      3163 7.97850E+01 1.05013E+01 0.00000E+00
 -1      3164 7.82850E+01 1.05013E+01 0.00000E+00
 -1      3165 7.75350E+01 1.18003E+01 0.00000E+00
 -1      3166 8.27850E+01 1.05013E+01 0.00000E+00
 -1      3167 8.12850E+01 1.05013E+01 0.00000E+00
 -1      3168 8.05350E+01 1.18003E+01 0.00000E+00
 -1      3169 8.57850E+01 1.05013E+01 0.00000E+00
 -1      3170 8.42850E+01 1.05013E+01 0.00000E+00
 -1      3171 8.35350E+01 1.18003E+01 0.00000E+00
 -1      3172 8.87850E+01 1.05013E+01 0.00000E+00
 -1      3173 8.72850E+01 1.05013E+01 0.00000E+00
 -1      3174 8.65350E+01 1.18003E+01 0.00000E+00
 -1      3175 9.17850E+01 1.05013E+01 0.00000E+00
 -1      3176 9.02850E+01 1.05013E+01 0.00000E+00
 -1      3177 8.95350E+01 1.18003E+01 0.00000E+00
 -1      3178 9.47850E+01 1.05013E+01 0.00000E+00
 -1      3179 9.32850E+01 1.05013E+01 0.00000E+00
 -1      3180 9.25350E+01 1.18003E+01 0.00000E+00
 -1      3181 9.77850E+01 1.05013E+01 0.00000E+00
 -1      3182 9.62850E+01 1.05013E+01 0.00000E+00
 -1      3183 9.55350E+01 1.18003E+01 0.00000E+00
 -1      3184 1.00785E+02 1.05013E+01 0.00000E+00
 -1      3185 9.92850E+01 1.05013E+01 0.00000E+00
 -1      3186 9.85350E+01 1.18003E+01 0.00000E+00
 -1      3187 1.03785E+02 1.05013E+01 0.00000E+00
 -1      3188 1.02285E+02 1.05013E+01 0.00000E+00
 -1      3189 1.01535E+02 1.18003E+01 0.00000E+00
 -1      3190 1.06785E+02 1.05013E+01 0.00000E+00
 -1      3191 1.05285E+02 1.05013E+01 0.00000E+00
 -1      3192 1.04535E+02 1.18003E+01 0.00000E+00
 -1      3193 1.09785E+02 1.05013E+01 0.00000E+00
 -1      3194 1.08285E+02 1.05013E+01 0.00000E+00
 -1      3195 1.07535E+02 1.18003E+01 0.00000E+00
 -1      3196 1.12785E+02 1.05013E+01 0.00000E+00
 -1      3197 1.11285E+02 1.05013E+01 0.00000E+00
 -1      3198 1.10535E+02 1.18003E+01 0.00000E+00
 -1      3199 1.15785E+02 1.05013E+01 0.00000E+00
 -1      3200 1.14285E+02 1.05013E+01 0.00000E+00
 -1      3201 1.13535E+02 1.18003E+01 0.00000E+00
 -1      3202 1.18785E+02 1.05013E+01 0.00000E+00
 -1      3203 1.17285E+02 1.05013E+01 0.00000E+00
 -1      3204 1.16535E+02 1.18003E+01 0.00000E+00
 -1      3205 1.21785E+02 1.05013E+01 0.00000E+00
 -1      3206 1.20285E+02 1.05013E+01 0.00000E+00
 -1      3207 1.19535E+02 1.18003E+01 0.00000E+00
 -1      3208 1.24785E+02 1.05013E+01 0.00000E+00
 -1      3209 1.23285E+02 1.05013E+01 0.00000E+00
 -1      3210 1.22535E+02 1.18003E+01 0.00000E+00
 -1      3211 1.27785E+02 1.05013E+01 0.00000E+00
 -1      3212 1.26285E+02 1.05013E+01 0.00000E+00
 -1      3213 1.25535E+02 1.18003E+01 0.00000E+00
 -1      3214 1.30785E+02 1.05013E+01 0.00000E+00
 -1      3215 1.29285E+02 1.05013E+01 0.00000E+00
 -1      3216 1.28535E+02 1.18003E+01 0.00000E+00
 -1      3217 1.33785E+02 1.05013E+01 0.00000E+00
 -1      3218 1.32285E+02 1.05013E+01 0.00000E+00
 -1      3219 1.31535E+02 1.18003E+01 0.00000E+00
 -1      3220 1.36785E+02 1.05013E+01 0.00000E+00
 -1      3221 1.35285E+02 1.05013E+01 0.00000E+00
 -1      3222 1.34535E+02 1.18003E+01 0.00000E+00
 -1      3223 1.38912E+02 1.10040E+01 0.00000E+00
 -1      3224 1.37744E+02 1.07233E+01 0.00000E+00
 -1      3225 1.36994E+02 1.20223E+01 0.00000E+00
 -1      3226 1.38912E+02 1.24665E+01 0.00000E+00
 -1      3227 1.38309E+02 2.86750E+01 0.00000E+00
 -1      3228 1.38309E+02 2.72250E+01 0.00000E+00
 -1      3229 1.38309E+02 2.57500E+01 0.00000E+00
 -1      3230 1.38309E+02 2.42750E+01 0.00000E+00
 -1      3231 1.37010E+02 2.64750E+01 0.00000E+00
 -1      3232 8.97262E+00 3.70363E+01 0.00000E+00
 -1      3233 8.98612E+00 3.82715E+01 0.00000E+00
 -1      3234 1.00309E+01 3.83715E+01 0.00000E+00
 -1      3235 1.02716E+01 3.62988E+01 0.00000E+00
 -1      3236 8.14935E+01 2.27794E+01 0.00000E+00
 -1      3237 8.28376E+01 2.26746E+01 0.00000E+00
 -1      3238 9.63723E+01 3.09517E+01 0.00000E+00
 -1      3239 9.65794E+01 3.21892E+01 0.00000E+00
 -1      3240 1.38465E+02 3.74834E+01 0.00000E+00
 -1      3241 1.38560E+02 3.57571E+01 0.00000E+00
 -1      3242 1.37417E+02 3.79405E+01 0.00000E+00
 -1      3243 1.16910E+01 2.12875E+01 0.00000E+00
 -1      3244 1.16910E+01 2.27625E+01 0.00000E+00
 -1      3245 7.58156E+01 2.37157E+01 0.00000E+00
 -1      3246 7.69183E+01 2.31736E+01 0.00000E+00
 -1      3247 9.64440E+01 3.62745E+01 0.00000E+00
 -1      3248 9.64680E+01 3.75364E+01 0.00000E+00
 -1      3249 9.65270E+01 3.36634E+01 0.00000E+00
 -1      3250 9.65196E+01 3.49978E+01 0.00000E+00
 -1      3251 6.91551E+01 3.27200E+01 0.00000E+00
 -1      3252 6.96168E+01 3.14461E+01 0.00000E+00
 -1      3253 1.38309E+02 3.16250E+01 0.00000E+00
 -1      3254 1.38309E+02 3.01500E+01 0.00000E+00
 -1      3255 1.37010E+02 2.94250E+01 0.00000E+00
 -1      3256 3.77850E+01 1.05013E+01 0.00000E+00
 -1      3257 3.62850E+01 1.05013E+01 0.00000E+00
 -1      3258 3.85350E+01 1.18003E+01 0.00000E+00
 -1      3259 1.38434E+02 3.44286E+01 0.00000E+00
 -1      3260 1.38434E+02 3.29536E+01 0.00000E+00
 -1      3261 1.37135E+02 3.22286E+01 0.00000E+00
 -1      3262 1.37386E+02 3.48857E+01 0.00000E+00
 -1      3263 7.02007E+01 3.00241E+01 0.00000E+00
 -1      3264 7.08948E+01 2.88673E+01 0.00000E+00
 -1      3265 6.86030E+01 3.54992E+01 0.00000E+00
 -1      3266 6.87269E+01 3.42190E+01 0.00000E+00
 -1      3267 7.16562E+01 2.76122E+01 0.00000E+00
 -1      3268 7.24717E+01 2.65730E+01 0.00000E+00
 -1      3269 3.47850E+01 1.05013E+01 0.00000E+00
 -1      3270 3.32850E+01 1.05013E+01 0.00000E+00
 -1      3271 3.55350E+01 1.18003E+01 0.00000E+00
 -1      3272 7.34171E+01 2.55822E+01 0.00000E+00
 -1      3273 7.43625E+01 2.45914E+01 0.00000E+00
 -1      3274 7.21370E+01 2.54172E+01 0.00000E+00
 -1      3275 9.23752E+01 2.55261E+01 0.00000E+00
 -1      3276 9.32600E+01 2.64155E+01 0.00000E+00
 -1      3277 1.29900E+01 1.46687E+01 0.00000E+00
 -1      3278 1.16910E+01 1.54063E+01 0.00000E+00
 -1      3279 1.16910E+01 1.68750E+01 0.00000E+00
 -1      3280 8.96564E+01 2.27959E+01 0.00000E+00
 -1      3281 2.27850E+01 1.05013E+01 0.00000E+00
 -1      3282 2.12850E+01 1.05013E+01 0.00000E+00
 -1      3283 2.35350E+01 1.18003E+01 0.00000E+00
 -1      3284 9.84192E+01 3.87351E+01 0.00000E+00
 -1      3285 9.91692E+01 3.74361E+01 0.00000E+00
 -1      3286 1.36547E+01 9.58315E+00 0.00000E+00
 -1      3287 1.18841E+01 8.73203E+00 0.00000E+00
 -1      3288 1.16910E+01 3.30594E+01 0.00000E+00
 -1      3289 1.16910E+01 3.45281E+01 0.00000E+00
 -1      3290 3.25350E+01 1.18003E+01 0.00000E+00
 -1      3291 7.45355E+01 2.35507E+01 0.00000E+00
 -1      3292 7.47085E+01 2.25101E+01 0.00000E+00
 -1      3293 7.32554E+01 2.33857E+01 0.00000E+00
 -1      3294 7.75306E+01 2.26285E+01 0.00000E+00
 -1      3295 7.81429E+01 2.20834E+01 0.00000E+00
 -1      3296 7.66009E+01 2.21300E+01 0.00000E+00
 -1      3297 6.95601E+01 3.93008E+01 0.00000E+00
 -1      3298 8.05825E+01 2.21852E+01 0.00000E+00
 -1      3299 9.75171E+01 3.28616E+01 0.00000E+00
 -1      3300 1.89272E+01 9.05928E+00 0.00000E+00
 -1      3301 1.35422E+02 3.88398E+01 0.00000E+00
 -1      3302 1.36470E+02 3.83827E+01 0.00000E+00
 -1      3303 1.36565E+02 3.66564E+01 0.00000E+00
 -1      3304 1.34672E+02 3.75408E+01 0.00000E+00
 -1      3305 8.68211E+01 2.18205E+01 0.00000E+00
 -1      3306 8.80752E+01 2.12130E+01 0.00000E+00
 -1      3307 8.61891E+01 2.13374E+01 0.00000E+00
 -1      3308 1.38309E+02 1.98625E+01 0.00000E+00
 -1      3309 1.38309E+02 1.83875E+01 0.00000E+00
 -1      3310 9.46479E+01 2.57698E+01 0.00000E+00
 -1      3311 9.44230E+01 2.68784E+01 0.00000E+00
 -1      3312 9.55860E+01 2.73413E+01 0.00000E+00
 -1      3313 1.38309E+02 2.28062E+01 0.00000E+00
 -1      3314 1.38309E+02 2.13312E+01 0.00000E+00
 -1      3315 1.37010E+02 2.05938E+01 0.00000E+00
 -1      3316 1.37010E+02 2.35313E+01 0.00000E+00
 -1      3317 6.89057E+01 3.79230E+01 0.00000E+00
 -1      3318 1.16910E+01 3.15906E+01 0.00000E+00
 -1      3319 1.29900E+01 3.23250E+01 0.00000E+00
 -1      3320 1.16910E+01 3.01219E+01 0.00000E+00
 -1      3321 8.35137E+01 2.18667E+01 0.00000E+00
 -1      3322 1.10756E+01 3.84716E+01 0.00000E+00
 -1      3323 6.90848E+01 3.03403E+01 0.00000E+00
 -1      3324 9.64653E+01 2.99187E+01 0.00000E+00
 -1      3325 9.76626E+01 3.03544E+01 0.00000E+00
 -1      3326 9.65583E+01 2.88857E+01 0.00000E+00
 -1      3327 1.16910E+01 1.83469E+01 0.00000E+00
 -1      3328 1.16910E+01 1.98156E+01 0.00000E+00
 -1      3329 1.29900E+01 2.05531E+01 0.00000E+00
 -1      3330 1.29900E+01 1.76094E+01 0.00000E+00
 -1      3331 7.04301E+01 2.76631E+01 0.00000E+00
 -1      3332 6.80728E+01 3.32613E+01 0.00000E+00
 -1      3333 1.17881E+01 3.71726E+01 0.00000E+00
 -1      3334 9.73890E+01 3.56125E+01 0.00000E+00
 -1      3335 1.29900E+01 2.35000E+01 0.00000E+00
 -1      3336 1.16910E+01 2.42375E+01 0.00000E+00
 -1      3337 1.16910E+01 2.57125E+01 0.00000E+00
 -1      3338 1.37076E+02 1.78847E+01 0.00000E+00
 -1      3339 1.38375E+02 1.71472E+01 0.00000E+00
 -1      3340 1.38440E+02 1.59068E+01 0.00000E+00
 -1      3341 6.81932E+01 3.66240E+01 0.00000E+00
 -1      3342 6.72348E+01 3.58851E+01 0.00000E+00
 -1      3343 9.69192E+01 3.88189E+01 0.00000E+00
 -1      3344 1.66547E+01 9.58315E+00 0.00000E+00
 -1      3345 1.51547E+01 9.58315E+00 0.00000E+00
 -1      3346 1.44900E+01 1.02500E+01 0.00000E+00
 -1      3347 9.17154E+01 2.36766E+01 0.00000E+00
 -1      3348 9.20453E+01 2.46013E+01 0.00000E+00
 -1      3349 9.31551E+01 2.43822E+01 0.00000E+00
 -1      3350 9.92448E+01 3.61594E+01 0.00000E+00
 -1      3351 1.01101E+02 3.67062E+01 0.00000E+00
 -1      3352 9.93204E+01 3.48826E+01 0.00000E+00
 -1      3353 3.32850E+01 1.30992E+01 0.00000E+00
 -1      3354 3.17850E+01 1.30992E+01 0.00000E+00
 -1      3355 1.71750E+01 3.57110E+01 0.00000E+00
 -1      3356 1.86750E+01 3.57110E+01 0.00000E+00
 -1      3357 2.01750E+01 3.57110E+01 0.00000E+00
 -1      3358 2.16750E+01 3.57110E+01 0.00000E+00
 -1      3359 1.94250E+01 3.44120E+01 0.00000E+00
 -1      3360 2.31750E+01 3.57110E+01 0.00000E+00
 -1      3361 2.46750E+01 3.57110E+01 0.00000E+00
 -1      3362 2.24250E+01 3.44120E+01 0.00000E+00
 -1      3363 2.61750E+01 3.57110E+01 0.00000E+00
 -1      3364 2.76750E+01 3.57110E+01 0.00000E+00
 -1      3365 2.54250E+01 3.44120E+01 0.00000E+00
 -1      3366 2.91000E+01 3.57110E+01 0.00000E+00
 -1      3367 3.05250E+01 3.57110E+01 0.00000E+00
 -1      3368 2.83500E+01 3.44120E+01 0.00000E+00
 -1      3369 3.20250E+01 3.57110E+01 0.00000E+00
 -1      3370 3.35250E+01 3.57110E+01 0.00000E+00
 -1      3371 3.12750E+01 3.44120E+01 0.00000E+00
 -1      3372 3.50250E+01 3.57110E+01 0.00000E+00
 -1      3373 3.65250E+01 3.57110E+01 0.00000E+00
 -1      3374 3.42750E+01 3.44120E+01 0.00000E+00
 -1      3375 3.80250E+01 3.57110E+01 0.00000E+00
 -1      3376 3.95250E+01 3.57110E+01 0.00000E+00
 -1      3377 3.72750E+01 3.44120E+01 0.00000E+00
 -1      3378 4.10250E+01 3.57110E+01 0.00000E+00
 -1      3379 4.25250E+01 3.57110E+01 0.00000E+00
 -1      3380 4.02750E+01 3.44120E+01 0.00000E+00
 -1      3381 4.40250E+01 3.57110E+01 0.00000E+00
 -1      3382 4.55250E+01 3.57110E+01 0.00000E+00
 -1      3383 4.32750E+01 3.44120E+01 0.00000E+00
 -1      3384 4.69500E+01 3.57110E+01 0.00000E+00
 -1      3385 4.83750E+01 3.57110E+01 0.00000E+00
 -1      3386 4.62000E+01 3.44120E+01 0.00000E+00
 -1      3387 4.98750E+01 3.57110E+01 0.00000E+00
 -1      3388 5.13750E+01 3.57110E+01 0.00000E+00
 -1      3389 4.91250E+01 3.44120E+01 0.00000E+00
 -1      3390 5.28750E+01 3.57110E+01 0.00000E+00
 -1      3391 5.43750E+01 3.57110E+01 0.00000E+00
 -1      3392 5.21250E+01 3.44120E+01 0.00000E+00
 -1      3393 5.58750E+01 3.57110E+01 0.00000E+00
 -1      3394 5.73750E+01 3.57110E+01 0.00000E+00
 -1      3395 5.51250E+01 3.44120E+01 0.00000E+00
 -1      3396 5.88750E+01 3.57110E+01 0.00000E+00
 -1      3397 6.03750E+01 3.57110E+01 0.00000E+00
 -1      3398 5.81250E+01 3.44120E+01 0.00000E+00
 -1      3399 6.18750E+01 3.57110E+01 0.00000E+00
 -1      3400 6.33750E+01 3.57110E+01 0.00000E+00
 -1      3401 6.11250E+01 3.44120E+01 0.00000E+00
 -1      3402 6.46299E+01 3.57981E+01 0.00000E+00
 -1      3403 6.59799E+01 3.57981E+01 0.00000E+00
 -1      3404 6.63897E+01 3.46732E+01 0.00000E+00
 -1      3405 6.38799E+01 3.44991E+01 0.00000E+00
 -1      3406 1.02601E+02 3.67062E+01 0.00000E+00
 -1      3407 1.04738E+02 3.66840E+01 0.00000E+00
 -1      3408 1.06162E+02 3.66840E+01 0.00000E+00
 -1      3409 1.07662E+02 3.66840E+01 0.00000E+00
 -1      3410 1.09162E+02 3.66840E+01 0.00000E+00
 -1      3411 1.06950E+02 3.53850E+01 0.00000E+00
 -1      3412 1.10662E+02 3.66840E+01 0.00000E+00
 -1      3413 1.12162E+02 3.66840E+01 0.00000E+00
 -1      3414 1.09950E+02 3.53850E+01 0.00000E+00
 -1      3415 1.13662E+02 3.66840E+01 0.00000E+00
 -1      3416 1.15162E+02 3.66840E+01 0.00000E+00
 -1      3417 1.12950E+02 3.53850E+01 0.00000E+00
 -1      3418 1.16662E+02 3.66840E+01 0.00000E+00
 -1      3419 1.18162E+02 3.66840E+01 0.00000E+00
 -1      3420 1.15950E+02 3.53850E+01 0.00000E+00
 -1      3421 1.19662E+02 3.66840E+01 0.00000E+00
 -1      3422 1.21162E+02 3.66840E+01 0.00000E+00
 -1      3423 1.18950E+02 3.53850E+01 0.00000E+00
 -1      3424 1.22588E+02 3.66840E+01 0.00000E+00
 -1      3425 1.24012E+02 3.66840E+01 0.00000E+00
 -1      3426 1.21875E+02 3.53850E+01 0.00000E+00
 -1      3427 1.25512E+02 3.66840E+01 0.00000E+00
 -1      3428 1.27012E+02 3.66840E+01 0.00000E+00
 -1      3429 1.24800E+02 3.53850E+01 0.00000E+00
 -1      3430 1.28512E+02 3.66840E+01 0.00000E+00
 -1      3431 1.30012E+02 3.66840E+01 0.00000E+00
 -1      3432 1.27800E+02 3.53850E+01 0.00000E+00
 -1      3433 1.31512E+02 3.66840E+01 0.00000E+00
 -1      3434 1.33012E+02 3.66840E+01 0.00000E+00
 -1      3435 1.30800E+02 3.53850E+01 0.00000E+00
 -1      3436 2.72850E+01 1.30992E+01 0.00000E+00
 -1      3437 2.57850E+01 1.30992E+01 0.00000E+00
 -1      3438 3.02850E+01 1.30992E+01 0.00000E+00
 -1      3439 2.87850E+01 1.30992E+01 0.00000E+00
 -1      3440 2.80350E+01 1.43982E+01 0.00000E+00
 -1      3441 3.10350E+01 1.43982E+01 0.00000E+00
 -1      3442 4.52850E+01 1.30992E+01 0.00000E+00
 -1      3443 4.37850E+01 1.30992E+01 0.00000E+00
 -1      3444 4.22850E+01 1.30992E+01 0.00000E+00
 -1      3445 4.07850E+01 1.30992E+01 0.00000E+00
 -1      3446 4.30350E+01 1.43982E+01 0.00000E+00
 -1      3447 5.12850E+01 1.30992E+01 0.00000E+00
 -1      3448 4.97850E+01 1.30992E+01 0.00000E+00
 -1      3449 5.42850E+01 1.30992E+01 0.00000E+00
 -1      3450 5.27850E+01 1.30992E+01 0.00000E+00
 -1      3451 5.20350E+01 1.43982E+01 0.00000E+00
 -1      3452 5.72850E+01 1.30992E+01 0.00000E+00
 -1      3453 5.57850E+01 1.30992E+01 0.00000E+00
 -1      3454 5.50350E+01 1.43982E+01 0.00000E+00
 -1      3455 6.02850E+01 1.30992E+01 0.00000E+00
 -1      3456 5.87850E+01 1.30992E+01 0.00000E+00
 -1      3457 5.80350E+01 1.43982E+01 0.00000E+00
 -1      3458 6.32850E+01 1.30992E+01 0.00000E+00
 -1      3459 6.17850E+01 1.30992E+01 0.00000E+00
 -1      3460 6.10350E+01 1.43982E+01 0.00000E+00
 -1      3461 6.62850E+01 1.30992E+01 0.00000E+00
 -1      3462 6.47850E+01 1.30992E+01 0.00000E+00
 -1      3463 6.40350E+01 1.43982E+01 0.00000E+00
 -1      3464 6.92850E+01 1.30992E+01 0.00000E+00
 -1      3465 6.77850E+01 1.30992E+01 0.00000E+00
 -1      3466 6.70350E+01 1.43982E+01 0.00000E+00
 -1      3467 7.22850E+01 1.30992E+01 0.00000E+00
 -1      3468 7.07850E+01 1.30992E+01 0.00000E+00
 -1      3469 7.00350E+01 1.43982E+01 0.00000E+00
 -1      3470 7.52850E+01 1.30992E+01 0.00000E+00
 -1      3471 7.37850E+01 1.30992E+01 0.00000E+00
 -1      3472 7.30350E+01 1.43982E+01 0.00000E+00
 -1      3473 7.82850E+01 1.30992E+01 0.00000E+00
 -1      3474 7.67850E+01 1.30992E+01 0.00000E+00
 -1      3475 7.60350E+01 1.43982E+01 0.00000E+00
 -1      3476 8.12850E+01 1.30992E+01 0.00000E+00
 -1      3477 7.97850E+01 1.30992E+01 0.00000E+00
 -1      3478 7.90350E+01 1.43982E+01 0.00000E+00
 -1      3479 8.42850E+01 1.30992E+01 0.00000E+00
 -1      3480 8.27850E+01 1.30992E+01 0.00000E+00
 -1      3481 8.20350E+01 1.43982E+01 0.00000E+00
 -1      3482 8.72850E+01 1.30992E+01 0.00000E+00
 -1      3483 8.57850E+01 1.30992E+01 0.00000E+00
 -1      3484 8.50350E+01 1.43982E+01 0.00000E+00
 -1      3485 9.02850E+01 1.30992E+01 0.00000E+00
 -1      3486 8.87850E+01 1.30992E+01 0.00000E+00
 -1      3487 8.80350E+01 1.43982E+01 0.00000E+00
 -1      3488 9.32850E+01 1.30992E+01 0.00000E+00
 -1      3489 9.17850E+01 1.30992E+01 0.00000E+00
 -1      3490 9.10350E+01 1.43982E+01 0.00000E+00
 -1      3491 9.62850E+01 1.30992E+01 0.00000E+00
 -1      3492 9.47850E+01 1.30992E+01 0.00000E+00
 -1      3493 9.40350E+01 1.43982E+01 0.00000E+00
 -1      3494 9.92850E+01 1.30992E+01 0.00000E+00
 -1      3495 9.77850E+01 1.30992E+01 0.00000E+00
 -1      3496 9.70350E+01 1.43982E+01 0.00000E+00
 -1      3497 1.02285E+02 1.30992E+01 0.00000E+00
 -1      3498 1.00785E+02 1.30992E+01 0.00000E+00
 -1      3499 1.00035E+02 1.43982E+01 0.00000E+00
 -1      3500 1.05285E+02 1.30992E+01 0.00000E+00
 -1      3501 1.03785E+02 1.30992E+01 0.00000E+00
 -1      3502 1.03035E+02 1.43982E+01 0.00000E+00
 -1      3503 1.08285E+02 1.30992E+01 0.00000E+00
 -1      3504 1.06785E+02 1.30992E+01 0.00000E+00
 -1      3505 1.06035E+02 1.43982E+01 0.00000E+00
 -1      3506 1.11285E+02 1.30992E+01 0.00000E+00
 -1      3507 1.09785E+02 1.30992E+01 0.00000E+00
 -1      3508 1.09035E+02 1.43982E+01 0.00000E+00
 -1      3509 1.14285E+02 1.30992E+01 0.00000E+00
 -1      3510 1.12785E+02 1.30992E+01 0.00000E+00
 -1      3511 1.12035E+02 1.43982E+01 0.00000E+00
 -1      3512 1.17285E+02 1.30992E+01 0.00000E+00
 -1      3513 1.15785E+02 1.30992E+01 0.00000E+00
 -1      3514 1.15035E+02 1.43982E+01 0.00000E+00
 -1      3515 1.20285E+02 1.30992E+01 0.00000E+00
 -1      3516 1.18785E+02 1.30992E+01 0.00000E+00
 -1      3517 1.18035E+02 1.43982E+01 0.00000E+00
 -1      3518 1.23285E+02 1.30992E+01 0.00000E+00
 -1      3519 1.21785E+02 1.30992E+01 0.00000E+00
 -1      3520 1.21035E+02 1.43982E+01 0.00000E+00
 -1      3521 1.26285E+02 1.30992E+01 0.00000E+00
 -1      3522 1.24785E+02 1.30992E+01 0.00000E+00
 -1      3523 1.24035E+02 1.43982E+01 0.00000E+00
 -1      3524 1.29285E+02 1.30992E+01 0.00000E+00
 -1      3525 1.27785E+02 1.30992E+01 0.00000E+00
 -1      3526 1.27035E+02 1.43982E+01 0.00000E+00
 -1      3527 1.32285E+02 1.30992E+01 0.00000E+00
 -1      3528 1.30785E+02 1.30992E+01 0.00000E+00
 -1      3529 1.30035E+02 1.43982E+01 0.00000E+00
 -1      3530 1.35285E+02 1.30992E+01 0.00000E+00
 -1      3531 1.33785E+02 1.30992E+01 0.00000E+00
 -1      3532 1.33035E+02 1.43982E+01 0.00000E+00
 -1      3533 1.35711E+02 2.72125E+01 0.00000E+00
 -1      3534 1.35711E+02 2.57375E+01 0.00000E+00
 -1      3535 1.19085E+01 3.61362E+01 0.00000E+00
 -1      3536 9.94254E+01 3.19343E+01 0.00000E+00
 -1      3537 9.93729E+01 3.34085E+01 0.00000E+00
 -1      3538 1.01229E+02 3.39554E+01 0.00000E+00
 -1      3539 8.98170E+01 2.14769E+01 0.00000E+00
 -1      3540 9.07662E+01 2.25767E+01 0.00000E+00
 -1      3541 9.18760E+01 2.23576E+01 0.00000E+00
 -1      3542 1.96160E+01 1.04247E+01 0.00000E+00
 -1      3543 1.80083E+01 1.02817E+01 0.00000E+00
 -1      3544 1.16910E+01 2.71844E+01 0.00000E+00
 -1      3545 1.16910E+01 2.86531E+01 0.00000E+00
 -1      3546 1.29900E+01 2.93875E+01 0.00000E+00
 -1      3547 8.28640E+01 2.07203E+01 0.00000E+00
 -1      3548 8.42853E+01 2.07985E+01 0.00000E+00
 -1      3549 1.35711E+02 3.01625E+01 0.00000E+00
 -1      3550 1.35711E+02 2.86875E+01 0.00000E+00
 -1      3551 1.34412E+02 2.79500E+01 0.00000E+00
 -1      3552 6.77671E+01 3.06301E+01 0.00000E+00
 -1      3553 6.83509E+01 2.92081E+01 0.00000E+00
 -1      3554 3.92850E+01 1.30992E+01 0.00000E+00
 -1      3555 3.77850E+01 1.30992E+01 0.00000E+00
 -1      3556 4.00350E+01 1.43982E+01 0.00000E+00
 -1      3557 4.82850E+01 1.30992E+01 0.00000E+00
 -1      3558 4.67850E+01 1.30992E+01 0.00000E+00
 -1      3559 4.60350E+01 1.43982E+01 0.00000E+00
 -1      3560 4.90350E+01 1.43982E+01 0.00000E+00
 -1      3561 1.44900E+01 1.17250E+01 0.00000E+00
 -1      3562 3.62850E+01 1.30992E+01 0.00000E+00
 -1      3563 3.47850E+01 1.30992E+01 0.00000E+00
 -1      3564 3.70350E+01 1.43982E+01 0.00000E+00
 -1      3565 6.68643E+01 3.34011E+01 0.00000E+00
 -1      3566 6.72925E+01 3.19021E+01 0.00000E+00
 -1      3567 6.65586E+01 3.07699E+01 0.00000E+00
 -1      3568 6.56094E+01 3.33141E+01 0.00000E+00
 -1      3569 7.07408E+01 2.50314E+01 0.00000E+00
 -1      3570 7.16862E+01 2.40406E+01 0.00000E+00
 -1      3571 1.38643E+02 1.48068E+01 0.00000E+00
 -1      3572 1.38709E+02 1.35665E+01 0.00000E+00
 -1      3573 1.37750E+02 1.33444E+01 0.00000E+00
 -1      3574 1.37344E+02 1.55443E+01 0.00000E+00
 -1      3575 6.91013E+01 2.77155E+01 0.00000E+00
 -1      3576 6.98628E+01 2.64604E+01 0.00000E+00
 -1      3577 7.95670E+01 2.13921E+01 0.00000E+00
 -1      3578 8.10769E+01 2.09954E+01 0.00000E+00
 -1      3579 1.32075E+01 3.54019E+01 0.00000E+00
 -1      3580 1.47075E+01 3.54019E+01 0.00000E+00
 -1      3581 1.54575E+01 3.41029E+01 0.00000E+00
 -1      3582 9.39882E+01 2.39203E+01 0.00000E+00
 -1      3583 9.43180E+01 2.48451E+01 0.00000E+00
 -1      3584 9.54810E+01 2.53080E+01 0.00000E+00
 -1      3585 2.42850E+01 1.30992E+01 0.00000E+00
 -1      3586 2.27850E+01 1.30992E+01 0.00000E+00
 -1      3587 2.50350E+01 1.43982E+01 0.00000E+00
 -1      3588 3.40350E+01 1.43982E+01 0.00000E+00
 -1      3589 6.94120E+01 2.50838E+01 0.00000E+00
 -1      3590 1.03313E+02 3.54072E+01 0.00000E+00
 -1      3591 7.18592E+01 2.29999E+01 0.00000E+00
 -1      3592 7.53208E+01 2.19650E+01 0.00000E+00
 -1      3593 7.59331E+01 2.14199E+01 0.00000E+00
 -1      3594 7.40407E+01 2.18000E+01 0.00000E+00
 -1      3595 1.33959E+02 3.62418E+01 0.00000E+00
 -1      3596 1.34906E+02 3.57996E+01 0.00000E+00
 -1      3597 1.33247E+02 3.49428E+01 0.00000E+00
 -1      3598 1.35962E+02 3.28196E+01 0.00000E+00
 -1      3599 1.35836E+02 3.14911E+01 0.00000E+00
 -1      3600 1.34537E+02 3.07536E+01 0.00000E+00
 -1      3601 1.34412E+02 2.50063E+01 0.00000E+00
 -1      3602 1.35711E+02 2.42687E+01 0.00000E+00
 -1      3603 1.35711E+02 2.28000E+01 0.00000E+00
 -1      3604 6.77836E+01 2.80053E+01 0.00000E+00
 -1      3605 1.36791E+02 1.31223E+01 0.00000E+00
 -1      3606 7.86373E+01 2.08935E+01 0.00000E+00
 -1      3607 1.36041E+02 1.44213E+01 0.00000E+00
 -1      3608 9.70082E+01 2.66684E+01 0.00000E+00
 -1      3609 9.67832E+01 2.77771E+01 0.00000E+00
 -1      3610 9.79805E+01 2.82128E+01 0.00000E+00
 -1      3611 2.03660E+01 1.17237E+01 0.00000E+00
 -1      3612 9.95184E+01 3.09013E+01 0.00000E+00
 -1      3613 1.01374E+02 3.14482E+01 0.00000E+00
 -1      3614 9.96114E+01 2.98683E+01 0.00000E+00
 -1      3615 8.48896E+01 1.90447E+01 0.00000E+00
 -1      3616 8.55394E+01 2.01911E+01 0.00000E+00
 -1      3617 8.67934E+01 1.95836E+01 0.00000E+00
 -1      3618 8.91850E+01 2.09938E+01 0.00000E+00
 -1      3619 9.02947E+01 2.07746E+01 0.00000E+00
 -1      3620 8.85529E+01 2.05107E+01 0.00000E+00
 -1      3621 1.35853E+02 3.53574E+01 0.00000E+00
 -1      3622 1.35711E+02 2.13312E+01 0.00000E+00
 -1      3623 1.35711E+02 1.98625E+01 0.00000E+00
 -1      3624 1.34412E+02 2.20688E+01 0.00000E+00
 -1      3625 9.66936E+01 3.81777E+01 0.00000E+00
 -1      3626 1.29900E+01 2.64469E+01 0.00000E+00
 -1      3627 8.18485E+01 1.99272E+01 0.00000E+00
 -1      3628 1.42890E+01 2.27625E+01 0.00000E+00
 -1      3629 1.42890E+01 2.42375E+01 0.00000E+00
 -1      3630 1.35777E+02 1.86222E+01 0.00000E+00
 -1      3631 1.35842E+02 1.73818E+01 0.00000E+00
 -1      3632 1.34478E+02 1.93597E+01 0.00000E+00
 -1      3633 1.61508E+01 1.19137E+01 0.00000E+00
 -1      3634 1.46508E+01 1.33887E+01 0.00000E+00
 -1      3635 1.35727E+02 3.40289E+01 0.00000E+00
 -1      3636 1.46508E+01 1.48575E+01 0.00000E+00
 -1      3637 1.73435E+01 1.09485E+01 0.00000E+00
 -1      3638 1.42890E+01 1.98188E+01 0.00000E+00
 -1      3639 1.42890E+01 2.12906E+01 0.00000E+00
 -1      3640 1.55880E+01 2.20281E+01 0.00000E+00
 -1      3641 6.78662E+01 2.51183E+01 0.00000E+00
 -1      3642 6.87442E+01 2.36893E+01 0.00000E+00
 -1      3643 9.21774E+01 2.11378E+01 0.00000E+00
 -1      3644 9.31266E+01 2.22377E+01 0.00000E+00
 -1      3645 2.16750E+01 3.31130E+01 0.00000E+00
 -1      3646 2.31750E+01 3.31130E+01 0.00000E+00
 -1      3647 2.46750E+01 3.31130E+01 0.00000E+00
 -1      3648 2.61750E+01 3.31130E+01 0.00000E+00
 -1      3649 2.39250E+01 3.18140E+01 0.00000E+00
 -1      3650 2.76000E+01 3.31130E+01 0.00000E+00
 -1      3651 2.90250E+01 3.31130E+01 0.00000E+00
 -1      3652 2.68500E+01 3.18140E+01 0.00000E+00
 -1      3653 3.05250E+01 3.31130E+01 0.00000E+00
 -1      3654 3.20250E+01 3.31130E+01 0.00000E+00
 -1      3655 2.97750E+01 3.18140E+01 0.00000E+00
 -1      3656 3.35250E+01 3.31130E+01 0.00000E+00
 -1      3657 3.50250E+01 3.31130E+01 0.00000E+00
 -1      3658 3.27750E+01 3.18140E+01 0.00000E+00
 -1      3659 3.65250E+01 3.31130E+01 0.00000E+00
 -1      3660 3.80250E+01 3.31130E+01 0.00000E+00
 -1      3661 3.57750E+01 3.18140E+01 0.00000E+00
 -1      3662 3.95250E+01 3.31130E+01 0.00000E+00
 -1      3663 4.10250E+01 3.31130E+01 0.00000E+00
 -1      3664 3.87750E+01 3.18140E+01 0.00000E+00
 -1      3665 4.25250E+01 3.31130E+01 0.00000E+00
 -1      3666 4.40250E+01 3.31130E+01 0.00000E+00
 -1      3667 4.17750E+01 3.18140E+01 0.00000E+00
 -1      3668 4.54500E+01 3.31130E+01 0.00000E+00
 -1      3669 4.68750E+01 3.31130E+01 0.00000E+00
 -1      3670 4.47000E+01 3.18140E+01 0.00000E+00
 -1      3671 4.83750E+01 3.31130E+01 0.00000E+00
 -1      3672 4.98750E+01 3.31130E+01 0.00000E+00
 -1      3673 4.76250E+01 3.18140E+01 0.00000E+00
 -1      3674 5.13750E+01 3.31130E+01 0.00000E+00
 -1      3675 5.28750E+01 3.31130E+01 0.00000E+00
 -1      3676 5.06250E+01 3.18140E+01 0.00000E+00
 -1      3677 5.43750E+01 3.31130E+01 0.00000E+00
 -1      3678 5.58750E+01 3.31130E+01 0.00000E+00
 -1      3679 5.36250E+01 3.18140E+01 0.00000E+00
 -1      3680 5.73750E+01 3.31130E+01 0.00000E+00
 -1      3681 5.88750E+01 3.31130E+01 0.00000E+00
 -1      3682 5.66250E+01 3.18140E+01 0.00000E+00
 -1      3683 6.03750E+01 3.31130E+01 0.00000E+00
 -1      3684 6.18750E+01 3.31130E+01 0.00000E+00
 -1      3685 5.96250E+01 3.18140E+01 0.00000E+00
 -1      3686 6.31147E+01 3.31700E+01 0.00000E+00
 -1      3687 6.43697E+01 3.32571E+01 0.00000E+00
 -1      3688 6.48443E+01 3.19850E+01 0.00000E+00
 -1      3689 6.23647E+01 3.18710E+01 0.00000E+00
 -1      3690 7.05743E+01 2.21286E+01 0.00000E+00
 -1      3691 7.21435E+01 2.14737E+01 0.00000E+00
 -1      3692 1.09200E+02 3.40860E+01 0.00000E+00
 -1      3693 1.10700E+02 3.40860E+01 0.00000E+00
 -1      3694 1.12200E+02 3.40860E+01 0.00000E+00
 -1      3695 1.13700E+02 3.40860E+01 0.00000E+00
 -1      3696 1.11450E+02 3.27870E+01 0.00000E+00
 -1      3697 1.15200E+02 3.40860E+01 0.00000E+00
 -1      3698 1.16700E+02 3.40860E+01 0.00000E+00
 -1      3699 1.14450E+02 3.27870E+01 0.00000E+00
 -1      3700 1.18200E+02 3.40860E+01 0.00000E+00
 -1      3701 1.19700E+02 3.40860E+01 0.00000E+00
 -1      3702 1.17450E+02 3.27870E+01 0.00000E+00
 -1      3703 1.21125E+02 3.40860E+01 0.00000E+00
 -1      3704 1.22550E+02 3.40860E+01 0.00000E+00
 -1      3705 1.20375E+02 3.27870E+01 0.00000E+00
 -1      3706 1.24050E+02 3.40860E+01 0.00000E+00
 -1      3707 1.25550E+02 3.40860E+01 0.00000E+00
 -1      3708 1.23300E+02 3.27870E+01 0.00000E+00
 -1      3709 1.27050E+02 3.40860E+01 0.00000E+00
 -1      3710 1.28550E+02 3.40860E+01 0.00000E+00
 -1      3711 1.26300E+02 3.27870E+01 0.00000E+00
 -1      3712 1.30050E+02 3.40860E+01 0.00000E+00
 -1      3713 1.31550E+02 3.40860E+01 0.00000E+00
 -1      3714 1.29300E+02 3.27870E+01 0.00000E+00
 -1      3715 4.37850E+01 1.56973E+01 0.00000E+00
 -1      3716 4.22850E+01 1.56973E+01 0.00000E+00
 -1      3717 5.57850E+01 1.56973E+01 0.00000E+00
 -1      3718 5.42850E+01 1.56973E+01 0.00000E+00
 -1      3719 5.27850E+01 1.56973E+01 0.00000E+00
 -1      3720 5.12850E+01 1.56973E+01 0.00000E+00
 -1      3721 5.35350E+01 1.69963E+01 0.00000E+00
 -1      3722 6.17850E+01 1.56973E+01 0.00000E+00
 -1      3723 6.02850E+01 1.56973E+01 0.00000E+00
 -1      3724 6.47850E+01 1.56973E+01 0.00000E+00
 -1      3725 6.32850E+01 1.56973E+01 0.00000E+00
 -1      3726 6.25350E+01 1.69963E+01 0.00000E+00
 -1      3727 6.77850E+01 1.56973E+01 0.00000E+00
 -1      3728 6.62850E+01 1.56973E+01 0.00000E+00
 -1      3729 6.55350E+01 1.69963E+01 0.00000E+00
 -1      3730 7.07850E+01 1.56973E+01 0.00000E+00
 -1      3731 6.92850E+01 1.56973E+01 0.00000E+00
 -1      3732 6.85350E+01 1.69963E+01 0.00000E+00
 -1      3733 7.37850E+01 1.56973E+01 0.00000E+00
 -1      3734 7.22850E+01 1.56973E+01 0.00000E+00
 -1      3735 7.15350E+01 1.69963E+01 0.00000E+00
 -1      3736 7.67850E+01 1.56973E+01 0.00000E+00
 -1      3737 7.52850E+01 1.56973E+01 0.00000E+00
 -1      3738 7.45350E+01 1.69963E+01 0.00000E+00
 -1      3739 7.97850E+01 1.56973E+01 0.00000E+00
 -1      3740 7.82850E+01 1.56973E+01 0.00000E+00
 -1      3741 7.75350E+01 1.69963E+01 0.00000E+00
 -1      3742 8.27850E+01 1.56973E+01 0.00000E+00
 -1      3743 8.12850E+01 1.56973E+01 0.00000E+00
 -1      3744 8.05350E+01 1.69963E+01 0.00000E+00
 -1      3745 8.63393E+01 1.64178E+01 0.00000E+00
 -1      3746 8.48393E+01 1.64178E+01 0.00000E+00
 -1      3747 9.17850E+01 1.56973E+01 0.00000E+00
 -1      3748 9.02850E+01 1.56973E+01 0.00000E+00
 -1      3749 9.47850E+01 1.56973E+01 0.00000E+00
 -1      3750 9.32850E+01 1.56973E+01 0.00000E+00
 -1      3751 9.25350E+01 1.69963E+01 0.00000E+00
 -1      3752 9.77850E+01 1.56973E+01 0.00000E+00
 -1      3753 9.62850E+01 1.56973E+01 0.00000E+00
 -1      3754 9.55350E+01 1.69963E+01 0.00000E+00
 -1      3755 1.00785E+02 1.56973E+01 0.00000E+00
 -1      3756 9.92850E+01 1.56973E+01 0.00000E+00
 -1      3757 9.85350E+01 1.69963E+01 0.00000E+00
 -1      3758 1.03785E+02 1.56973E+01 0.00000E+00
 -1      3759 1.02285E+02 1.56973E+01 0.00000E+00
 -1      3760 1.01535E+02 1.69963E+01 0.00000E+00
 -1      3761 1.06785E+02 1.56973E+01 0.00000E+00
 -1      3762 1.05285E+02 1.56973E+01 0.00000E+00
 -1      3763 1.04535E+02 1.69963E+01 0.00000E+00
 -1      3764 1.09785E+02 1.56973E+01 0.00000E+00
 -1      3765 1.08285E+02 1.56973E+01 0.00000E+00
 -1      3766 1.07535E+02 1.69963E+01 0.00000E+00
 -1      3767 1.12785E+02 1.56973E+01 0.00000E+00
 -1      3768 1.11285E+02 1.56973E+01 0.00000E+00
 -1      3769 1.10535E+02 1.69963E+01 0.00000E+00
 -1      3770 1.15785E+02 1.56973E+01 0.00000E+00
 -1      3771 1.14285E+02 1.56973E+01 0.00000E+00
 -1      3772 1.13535E+02 1.69963E+01 0.00000E+00
 -1      3773 1.18785E+02 1.56973E+01 0.00000E+00
 -1      3774 1.17285E+02 1.56973E+01 0.00000E+00
 -1      3775 1.16535E+02 1.69963E+01 0.00000E+00
 -1      3776 1.21785E+02 1.56973E+01 0.00000E+00
 -1      3777 1.20285E+02 1.56973E+01 0.00000E+00
 -1      3778 1.19535E+02 1.69963E+01 0.00000E+00
 -1      3779 1.24785E+02 1.56973E+01 0.00000E+00
 -1      3780 1.23285E+02 1.56973E+01 0.00000E+00
 -1      3781 1.22535E+02 1.69963E+01 0.00000E+00
 -1      3782 1.27785E+02 1.56973E+01 0.00000E+00
 -1      3783 1.26285E+02 1.56973E+01 0.00000E+00
 -1      3784 1.25535E+02 1.69963E+01 0.00000E+00
 -1      3785 1.30785E+02 1.56973E+01 0.00000E+00
 -1      3786 1.29285E+02 1.56973E+01 0.00000E+00
 -1      3787 1.28535E+02 1.69963E+01 0.00000E+00
 -1      3788 1.43852E+01 3.26594E+01 0.00000E+00
 -1      3789 1.68527E+01 3.29685E+01 0.00000E+00
 -1      3790 6.63654E+01 2.81034E+01 0.00000E+00
 -1      3791 6.71158E+01 2.66108E+01 0.00000E+00
 -1      3792 6.64480E+01 2.52163E+01 0.00000E+00
 -1      3793 2.11410E+01 1.30596E+01 0.00000E+00
 -1      3794 1.94720E+01 1.29830E+01 0.00000E+00
 -1      3795 1.42890E+01 1.68750E+01 0.00000E+00
 -1      3796 1.42890E+01 1.83469E+01 0.00000E+00
 -1      3797 1.55880E+01 1.90844E+01 0.00000E+00
 -1      3798 4.07850E+01 1.56973E+01 0.00000E+00
 -1      3799 3.92850E+01 1.56973E+01 0.00000E+00
 -1      3800 4.15350E+01 1.69963E+01 0.00000E+00
 -1      3801 1.43852E+01 3.11906E+01 0.00000E+00
 -1      3802 1.42890E+01 2.57094E+01 0.00000E+00
 -1      3803 1.42890E+01 2.71812E+01 0.00000E+00
 -1      3804 1.55880E+01 2.49719E+01 0.00000E+00
 -1      3805 1.75043E+01 1.26123E+01 0.00000E+00
 -1      3806 8.10482E+01 1.85992E+01 0.00000E+00
 -1      3807 8.28353E+01 1.83242E+01 0.00000E+00
 -1      3808 1.33113E+02 2.86875E+01 0.00000E+00
 -1      3809 1.33113E+02 2.72125E+01 0.00000E+00
 -1      3810 3.47850E+01 1.56973E+01 0.00000E+00
 -1      3811 3.32850E+01 1.56973E+01 0.00000E+00
 -1      3812 1.06200E+02 3.40860E+01 0.00000E+00
 -1      3813 1.07700E+02 3.40860E+01 0.00000E+00
 -1      3814 1.08450E+02 3.27870E+01 0.00000E+00
 -1      3815 1.34428E+02 3.32914E+01 0.00000E+00
 -1      3816 3.77850E+01 1.56973E+01 0.00000E+00
 -1      3817 3.62850E+01 1.56973E+01 0.00000E+00
 -1      3818 3.55350E+01 1.69963E+01 0.00000E+00
 -1      3819 3.85350E+01 1.69963E+01 0.00000E+00
 -1      3820 1.03366E+02 3.39331E+01 0.00000E+00
 -1      3821 1.02745E+02 3.20411E+01 0.00000E+00
 -1      3822 1.04829E+02 3.34930E+01 0.00000E+00
 -1      3823 1.05579E+02 3.21940E+01 0.00000E+00
 -1      3824 1.02838E+02 3.10081E+01 0.00000E+00
 -1      3825 1.35838E+02 1.55213E+01 0.00000E+00
 -1      3826 1.59498E+01 1.55950E+01 0.00000E+00
 -1      3827 5.87850E+01 1.56973E+01 0.00000E+00
 -1      3828 5.72850E+01 1.56973E+01 0.00000E+00
 -1      3829 5.95350E+01 1.69963E+01 0.00000E+00
 -1      3830 7.74410E+01 2.02416E+01 0.00000E+00
 -1      3831 7.88652E+01 1.95503E+01 0.00000E+00
 -1      3832 1.86750E+01 3.31130E+01 0.00000E+00
 -1      3833 2.01750E+01 3.31130E+01 0.00000E+00
 -1      3834 2.09250E+01 3.18140E+01 0.00000E+00
 -1      3835 1.82793E+01 1.39482E+01 0.00000E+00
 -1      3836 1.76027E+01 3.16695E+01 0.00000E+00
 -1      3837 1.34539E+02 1.62588E+01 0.00000E+00
 -1      3838 2.57850E+01 1.56973E+01 0.00000E+00
 -1      3839 2.42850E+01 1.56973E+01 0.00000E+00
 -1      3840 9.45911E+01 2.14809E+01 0.00000E+00
 -1      3841 9.42896E+01 2.27006E+01 0.00000E+00
 -1      3842 9.54526E+01 2.31635E+01 0.00000E+00
 -1      3843 5.65350E+01 1.69963E+01 0.00000E+00
 -1      3844 3.17850E+01 1.56973E+01 0.00000E+00
 -1      3845 3.02850E+01 1.56973E+01 0.00000E+00
 -1      3846 3.25350E+01 1.69963E+01 0.00000E+00
 -1      3847 1.32516E+02 3.39098E+01 0.00000E+00
 -1      3848 1.33462E+02 3.34676E+01 0.00000E+00
 -1      3849 1.33697E+02 3.22583E+01 0.00000E+00
 -1      3850 1.31766E+02 3.26108E+01 0.00000E+00
 -1      3851 1.39904E+01 2.97602E+01 0.00000E+00
 -1      3852 1.53856E+01 3.00946E+01 0.00000E+00
 -1      3853 1.33468E+02 3.11372E+01 0.00000E+00
 -1      3854 1.33342E+02 2.98086E+01 0.00000E+00
 -1      3855 1.32043E+02 2.90711E+01 0.00000E+00
 -1      3856 1.32502E+02 3.13134E+01 0.00000E+00
 -1      3857 1.68130E+01 2.88087E+01 0.00000E+00
 -1      3858 1.72079E+01 3.02391E+01 0.00000E+00
 -1      3859 1.90301E+01 3.03836E+01 0.00000E+00
 -1      3860 4.52850E+01 1.56973E+01 0.00000E+00
 -1      3861 4.45350E+01 1.69963E+01 0.00000E+00
 -1      3862 4.67850E+01 1.56973E+01 0.00000E+00
 -1      3863 1.33113E+02 2.57437E+01 0.00000E+00
 -1      3864 1.33113E+02 2.42750E+01 0.00000E+00
 -1      3865 1.31814E+02 2.64813E+01 0.00000E+00
 -1      3866 2.18910E+01 1.43586E+01 0.00000E+00
 -1      3867 2.87850E+01 1.56973E+01 0.00000E+00
 -1      3868 2.72850E+01 1.56973E+01 0.00000E+00
 -1      3869 2.95350E+01 1.69963E+01 0.00000E+00
 -1      3870 8.75120E+01 1.59812E+01 0.00000E+00
 -1      3871 8.73164E+01 1.80007E+01 0.00000E+00
 -1      3872 8.79661E+01 1.91470E+01 0.00000E+00
 -1      3873 8.90120E+01 1.59812E+01 0.00000E+00
 -1      3874 8.97620E+01 1.72802E+01 0.00000E+00
 -1      3875 1.52894E+01 2.75540E+01 0.00000E+00
 -1      3876 1.39904E+01 2.82915E+01 0.00000E+00
 -1      3877 1.33785E+02 1.56973E+01 0.00000E+00
 -1      3878 1.32285E+02 1.56973E+01 0.00000E+00
 -1      3879 6.56236E+01 2.93157E+01 0.00000E+00
 -1      3880 6.49558E+01 2.79212E+01 0.00000E+00
 -1      3881 1.00061E+02 2.76510E+01 0.00000E+00
 -1      3882 9.98363E+01 2.87597E+01 0.00000E+00
 -1      3883 1.01692E+02 2.93065E+01 0.00000E+00
 -1      3884 9.66783E+01 2.57437E+01 0.00000E+00
 -1      3885 9.78755E+01 2.61794E+01 0.00000E+00
 -1      3886 9.63484E+01 2.48190E+01 0.00000E+00
 -1      3887 2.65350E+01 1.69963E+01 0.00000E+00
 -1      3888 8.40893E+01 1.77168E+01 0.00000E+00
 -1      3889 8.90759E+01 1.89278E+01 0.00000E+00
 -1      3890 1.33113E+02 2.28062E+01 0.00000E+00
 -1      3891 1.33113E+02 2.13375E+01 0.00000E+00
 -1      3892 1.31814E+02 2.35438E+01 0.00000E+00
 -1      3893 1.68870E+01 2.42359E+01 0.00000E+00
 -1      3894 1.68870E+01 2.57078E+01 0.00000E+00
 -1      3895 1.33179E+02 2.00972E+01 0.00000E+00
 -1      3896 1.33244E+02 1.88568E+01 0.00000E+00
 -1      3897 1.31880E+02 2.08347E+01 0.00000E+00
 -1      3898 6.74827E+01 2.21975E+01 0.00000E+00
 -1      3899 6.90285E+01 2.21630E+01 0.00000E+00
 -1      3900 6.93129E+01 2.06368E+01 0.00000E+00
 -1      3901 9.06521E+01 1.96521E+01 0.00000E+00
 -1      3902 9.12841E+01 2.01351E+01 0.00000E+00
 -1      3903 6.51490E+01 3.05878E+01 0.00000E+00
 -1      3904 4.97850E+01 1.56973E+01 0.00000E+00
 -1      3905 4.82850E+01 1.56973E+01 0.00000E+00
 -1      3906 4.75350E+01 1.69963E+01 0.00000E+00
 -1      3907 1.79175E+01 1.59657E+01 0.00000E+00
 -1      3908 7.61609E+01 2.00766E+01 0.00000E+00
 -1      3909 9.25348E+01 2.00153E+01 0.00000E+00
 -1      3910 1.68870E+01 2.12922E+01 0.00000E+00
 -1      3911 1.68870E+01 2.27641E+01 0.00000E+00
 -1      3912 1.81860E+01 2.35000E+01 0.00000E+00
 -1      3913 1.31535E+02 1.69963E+01 0.00000E+00
 -1      3914 5.05350E+01 1.69963E+01 0.00000E+00
 -1      3915 5.72850E+01 1.82952E+01 0.00000E+00
 -1      3916 5.57850E+01 1.82952E+01 0.00000E+00
 -1      3917 7.22302E+01 1.99629E+01 0.00000E+00
 -1      3918 7.35151E+01 2.08343E+01 0.00000E+00
 -1      3919 2.61375E+01 3.05150E+01 0.00000E+00
 -1      3920 2.75625E+01 3.05150E+01 0.00000E+00
 -1      3921 2.90625E+01 3.05150E+01 0.00000E+00
 -1      3922 3.05625E+01 3.05150E+01 0.00000E+00
 -1      3923 2.83500E+01 2.92160E+01 0.00000E+00
 -1      3924 3.20625E+01 3.05150E+01 0.00000E+00
 -1      3925 3.35625E+01 3.05150E+01 0.00000E+00
 -1      3926 3.13500E+01 2.92160E+01 0.00000E+00
 -1      3927 3.50625E+01 3.05150E+01 0.00000E+00
 -1      3928 3.65625E+01 3.05150E+01 0.00000E+00
 -1      3929 3.43500E+01 2.92160E+01 0.00000E+00
 -1      3930 3.80625E+01 3.05150E+01 0.00000E+00
 -1      3931 3.95625E+01 3.05150E+01 0.00000E+00
 -1      3932 3.73500E+01 2.92160E+01 0.00000E+00
 -1      3933 4.10625E+01 3.05150E+01 0.00000E+00
 -1      3934 4.25625E+01 3.05150E+01 0.00000E+00
 -1      3935 4.03500E+01 2.92160E+01 0.00000E+00
 -1      3936 4.39875E+01 3.05150E+01 0.00000E+00
 -1      3937 4.54125E+01 3.05150E+01 0.00000E+00
 -1      3938 4.32750E+01 2.92160E+01 0.00000E+00
 -1      3939 4.69125E+01 3.05150E+01 0.00000E+00
 -1      3940 4.84125E+01 3.05150E+01 0.00000E+00
 -1      3941 4.62000E+01 2.92160E+01 0.00000E+00
 -1      3942 4.99125E+01 3.05150E+01 0.00000E+00
 -1      3943 5.14125E+01 3.05150E+01 0.00000E+00
 -1      3944 4.92000E+01 2.92160E+01 0.00000E+00
 -1      3945 5.29125E+01 3.05150E+01 0.00000E+00
 -1      3946 5.44125E+01 3.05150E+01 0.00000E+00
 -1      3947 5.22000E+01 2.92160E+01 0.00000E+00
 -1      3948 5.59125E+01 3.05150E+01 0.00000E+00
 -1      3949 5.74125E+01 3.05150E+01 0.00000E+00
 -1      3950 5.52000E+01 2.92160E+01 0.00000E+00
 -1      3951 5.89125E+01 3.05150E+01 0.00000E+00
 -1      3952 6.04125E+01 3.05150E+01 0.00000E+00
 -1      3953 5.82000E+01 2.92160E+01 0.00000E+00
 -1      3954 7.41273E+01 2.02892E+01 0.00000E+00
 -1      3955 1.98321E+01 1.62030E+01 0.00000E+00
 -1      3956 1.75026E+01 1.78498E+01 0.00000E+00
 -1      3957 1.13700E+02 3.14880E+01 0.00000E+00
 -1      3958 1.15200E+02 3.14880E+01 0.00000E+00
 -1      3959 1.16700E+02 3.14880E+01 0.00000E+00
 -1      3960 1.18200E+02 3.14880E+01 0.00000E+00
 -1      3961 1.15950E+02 3.01890E+01 0.00000E+00
 -1      3962 1.19625E+02 3.14880E+01 0.00000E+00
 -1      3963 1.21050E+02 3.14880E+01 0.00000E+00
 -1      3964 1.18875E+02 3.01890E+01 0.00000E+00
 -1      3965 1.22550E+02 3.14880E+01 0.00000E+00
 -1      3966 1.24050E+02 3.14880E+01 0.00000E+00
 -1      3967 1.21800E+02 3.01890E+01 0.00000E+00
 -1      3968 1.25550E+02 3.14880E+01 0.00000E+00
 -1      3969 1.27050E+02 3.14880E+01 0.00000E+00
 -1      3970 1.24800E+02 3.01890E+01 0.00000E+00
 -1      3971 7.83519E+01 1.79473E+01 0.00000E+00
 -1      3972 7.95482E+01 1.85992E+01 0.00000E+00
 -1      3973 6.62850E+01 1.82952E+01 0.00000E+00
 -1      3974 6.47850E+01 1.82952E+01 0.00000E+00
 -1      3975 6.32850E+01 1.82952E+01 0.00000E+00
 -1      3976 6.17850E+01 1.82952E+01 0.00000E+00
 -1      3977 6.40350E+01 1.95942E+01 0.00000E+00
 -1      3978 7.48184E+01 1.81599E+01 0.00000E+00
 -1      3979 7.33184E+01 1.81599E+01 0.00000E+00
 -1      3980 7.68519E+01 1.79473E+01 0.00000E+00
 -1      3981 1.71116E+01 2.76985E+01 0.00000E+00
 -1      3982 9.03489E+01 1.86439E+01 0.00000E+00
 -1      3983 1.02285E+02 1.82952E+01 0.00000E+00
 -1      3984 1.00785E+02 1.82952E+01 0.00000E+00
 -1      3985 1.05285E+02 1.82952E+01 0.00000E+00
 -1      3986 1.03785E+02 1.82952E+01 0.00000E+00
 -1      3987 1.03035E+02 1.95942E+01 0.00000E+00
 -1      3988 1.08285E+02 1.82952E+01 0.00000E+00
 -1      3989 1.06785E+02 1.82952E+01 0.00000E+00
 -1      3990 1.06035E+02 1.95942E+01 0.00000E+00
 -1      3991 1.11285E+02 1.82952E+01 0.00000E+00
 -1      3992 1.09785E+02 1.82952E+01 0.00000E+00
 -1      3993 1.09035E+02 1.95942E+01 0.00000E+00
 -1      3994 1.14285E+02 1.82952E+01 0.00000E+00
 -1      3995 1.12785E+02 1.82952E+01 0.00000E+00
 -1      3996 1.12035E+02 1.95942E+01 0.00000E+00
 -1      3997 1.17285E+02 1.82952E+01 0.00000E+00
 -1      3998 1.15785E+02 1.82952E+01 0.00000E+00
 -1      3999 1.15035E+02 1.95942E+01 0.00000E+00
 -1      4000 1.20285E+02 1.82952E+01 0.00000E+00
 -1      4001 1.18785E+02 1.82952E+01 0.00000E+00
 -1      4002 1.18035E+02 1.95942E+01 0.00000E+00
 -1      4003 1.23285E+02 1.82952E+01 0.00000E+00
 -1      4004 1.21785E+02 1.82952E+01 0.00000E+00
 -1      4005 1.21035E+02 1.95942E+01 0.00000E+00
 -1      4006 1.26285E+02 1.82952E+01 0.00000E+00
 -1      4007 1.24785E+02 1.82952E+01 0.00000E+00
 -1      4008 1.24035E+02 1.95942E+01 0.00000E+00
 -1      4009 1.29285E+02 1.82952E+01 0.00000E+00
 -1      4010 1.27785E+02 1.82952E+01 0.00000E+00
 -1      4011 1.27035E+02 1.95942E+01 0.00000E+00
 -1      4012 5.12850E+01 1.82952E+01 0.00000E+00
 -1      4013 4.97850E+01 1.82952E+01 0.00000E+00
 -1      4014 7.06299E+01 1.97181E+01 0.00000E+00
 -1      4015 7.20014E+01 1.90787E+01 0.00000E+00
 -1      4016 7.17180E+01 1.79150E+01 0.00000E+00
 -1      4017 6.90841E+01 1.97525E+01 0.00000E+00
 -1      4018 6.34769E+01 2.78495E+01 0.00000E+00
 -1      4019 6.42187E+01 2.66371E+01 0.00000E+00
 -1      4020 9.92850E+01 1.82952E+01 0.00000E+00
 -1      4021 9.77850E+01 1.82952E+01 0.00000E+00
 -1      4022 1.00035E+02 1.95942E+01 0.00000E+00
 -1      4023 9.63945E+01 1.94700E+01 0.00000E+00
 -1      4024 9.48945E+01 1.94700E+01 0.00000E+00
 -1      4025 6.49691E+01 2.51445E+01 0.00000E+00
 -1      4026 6.57195E+01 2.36520E+01 0.00000E+00
 -1      4027 6.34901E+01 2.50727E+01 0.00000E+00
 -1      4028 5.42850E+01 1.82952E+01 0.00000E+00
 -1      4029 5.27850E+01 1.82952E+01 0.00000E+00
 -1      4030 5.50350E+01 1.95942E+01 0.00000E+00
 -1      4031 2.72850E+01 1.82952E+01 0.00000E+00
 -1      4032 2.57850E+01 1.82952E+01 0.00000E+00
 -1      4033 1.75026E+01 1.93217E+01 0.00000E+00
 -1      4034 1.10700E+02 3.14880E+01 0.00000E+00
 -1      4035 1.12200E+02 3.14880E+01 0.00000E+00
 -1      4036 1.12950E+02 3.01890E+01 0.00000E+00
 -1      4037 4.22850E+01 1.82952E+01 0.00000E+00
 -1      4038 4.07850E+01 1.82952E+01 0.00000E+00
 -1      4039 2.31375E+01 3.05150E+01 0.00000E+00
 -1      4040 2.46375E+01 3.05150E+01 0.00000E+00
 -1      4041 2.53500E+01 2.92160E+01 0.00000E+00
 -1      4042 7.53440E+01 1.91256E+01 0.00000E+00
 -1      4043 2.28805E+01 1.59700E+01 0.00000E+00
 -1      4044 2.12365E+01 1.59303E+01 0.00000E+00
 -1      4045 2.08216E+01 1.78144E+01 0.00000E+00
 -1      4046 2.36305E+01 1.72690E+01 0.00000E+00
 -1      4047 1.07700E+02 3.14880E+01 0.00000E+00
 -1      4048 1.09200E+02 3.14880E+01 0.00000E+00
 -1      4049 1.09950E+02 3.01890E+01 0.00000E+00
 -1      4050 6.39092E+01 3.05308E+01 0.00000E+00
 -1      4051 1.33789E+02 1.75578E+01 0.00000E+00
 -1      4052 6.02850E+01 1.82952E+01 0.00000E+00
 -1      4053 5.87850E+01 1.82952E+01 0.00000E+00
 -1      4054 5.80350E+01 1.95942E+01 0.00000E+00
 -1      4055 2.03338E+01 3.04493E+01 0.00000E+00
 -1      4056 2.18338E+01 3.04493E+01 0.00000E+00
 -1      4057 2.25463E+01 2.91503E+01 0.00000E+00
 -1      4058 1.99390E+01 2.90189E+01 0.00000E+00
 -1      4059 1.32490E+02 1.82953E+01 0.00000E+00
 -1      4060 9.69513E+01 2.23795E+01 0.00000E+00
 -1      4061 9.66498E+01 2.35993E+01 0.00000E+00
 -1      4062 9.78471E+01 2.40350E+01 0.00000E+00
 -1      4063 3.32850E+01 1.82952E+01 0.00000E+00
 -1      4064 3.17850E+01 1.82952E+01 0.00000E+00
 -1      4065 4.00350E+01 1.95942E+01 0.00000E+00
 -1      4066 3.92850E+01 1.82952E+01 0.00000E+00
 -1      4067 3.77850E+01 1.82952E+01 0.00000E+00
 -1      4068 6.15410E+01 3.04944E+01 0.00000E+00
 -1      4069 6.27807E+01 3.05514E+01 0.00000E+00
 -1      4070 6.30855E+01 2.91542E+01 0.00000E+00
 -1      4071 6.08285E+01 2.91954E+01 0.00000E+00
 -1      4072 1.84106E+01 2.69625E+01 0.00000E+00
 -1      4073 1.31536E+02 3.14896E+01 0.00000E+00
 -1      4074 1.06329E+02 3.08950E+01 0.00000E+00
 -1      4075 1.07079E+02 2.95960E+01 0.00000E+00
 -1      4076 1.04959E+02 3.03021E+01 0.00000E+00
 -1      4077 1.30885E+02 2.98921E+01 0.00000E+00
 -1      4078 1.30656E+02 2.87709E+01 0.00000E+00
 -1      4079 3.62850E+01 1.82952E+01 0.00000E+00
 -1      4080 3.47850E+01 1.82952E+01 0.00000E+00
 -1      4081 3.40350E+01 1.95942E+01 0.00000E+00
 -1      4082 3.70350E+01 1.95942E+01 0.00000E+00
 -1      4083 1.27899E+02 2.98904E+01 0.00000E+00
 -1      4084 1.28649E+02 3.11894E+01 0.00000E+00
 -1      4085 1.30149E+02 3.11894E+01 0.00000E+00
 -1      4086 1.30656E+02 2.73022E+01 0.00000E+00
 -1      4087 1.30656E+02 2.58334E+01 0.00000E+00
 -1      4088 1.29498E+02 2.81231E+01 0.00000E+00
 -1      4089 9.95005E+01 2.61316E+01 0.00000E+00
 -1      4090 1.01356E+02 2.66785E+01 0.00000E+00
 -1      4091 3.02850E+01 1.82952E+01 0.00000E+00
 -1      4092 2.87850E+01 1.82952E+01 0.00000E+00
 -1      4093 3.10350E+01 1.95942E+01 0.00000E+00
 -1      4094 1.30990E+02 1.82953E+01 0.00000E+00
 -1      4095 6.23484E+01 2.78700E+01 0.00000E+00
 -1      4096 2.51305E+01 1.98670E+01 0.00000E+00
 -1      4097 2.43805E+01 1.85680E+01 0.00000E+00
 -1      4098 2.29761E+01 1.88407E+01 0.00000E+00
 -1      4099 6.10350E+01 1.95942E+01 0.00000E+00
 -1      4100 7.02180E+01 1.79150E+01 0.00000E+00
 -1      4101 4.82850E+01 1.82952E+01 0.00000E+00
 -1      4102 4.67850E+01 1.82952E+01 0.00000E+00
 -1      4103 4.90350E+01 1.95942E+01 0.00000E+00
 -1      4104 9.28383E+01 1.80044E+01 0.00000E+00
 -1      4105 9.13383E+01 1.80044E+01 0.00000E+00
 -1      4106 1.94897E+01 2.50376E+01 0.00000E+00
 -1      4107 1.97143E+01 2.70282E+01 0.00000E+00
 -1      4108 2.10180E+01 2.70939E+01 0.00000E+00
 -1      4109 9.91706E+01 2.52068E+01 0.00000E+00
 -1      4110 2.80350E+01 1.95942E+01 0.00000E+00
 -1      4111 1.94897E+01 2.35657E+01 0.00000E+00
 -1      4112 9.37315E+01 1.90071E+01 0.00000E+00
 -1      4113 1.30240E+02 1.95943E+01 0.00000E+00
 -1      4114 5.20350E+01 1.95942E+01 0.00000E+00
 -1      4115 6.48877E+01 2.15872E+01 0.00000E+00
 -1      4116 6.63667E+01 2.16590E+01 0.00000E+00
 -1      4117 6.89010E+01 1.88338E+01 0.00000E+00
 -1      4118 6.74010E+01 1.88338E+01 0.00000E+00
 -1      4119 1.88016E+01 2.00576E+01 0.00000E+00
 -1      4120 1.30656E+02 2.43647E+01 0.00000E+00
 -1      4121 1.30656E+02 2.28959E+01 0.00000E+00
 -1      4122 1.29498E+02 2.51856E+01 0.00000E+00
 -1      4123 4.37850E+01 1.82952E+01 0.00000E+00
 -1      4124 4.30350E+01 1.95942E+01 0.00000E+00
 -1      4125 4.52850E+01 1.82952E+01 0.00000E+00
 -1      4126 1.30174E+02 2.08346E+01 0.00000E+00
 -1      4127 6.66510E+01 2.01328E+01 0.00000E+00
 -1      4128 1.02640E+02 2.95078E+01 0.00000E+00
 -1      4129 1.04011E+02 3.01008E+01 0.00000E+00
 -1      4130 1.04761E+02 2.88018E+01 0.00000E+00
 -1      4131 1.02865E+02 2.83992E+01 0.00000E+00
 -1      4132 1.29017E+02 2.16555E+01 0.00000E+00
 -1      4133 1.26300E+02 2.87202E+01 0.00000E+00
 -1      4134 1.27899E+02 2.84216E+01 0.00000E+00
 -1      4135 1.27899E+02 2.69529E+01 0.00000E+00
 -1      4136 1.12200E+02 2.88900E+01 0.00000E+00
 -1      4137 1.13700E+02 2.88900E+01 0.00000E+00
 -1      4138 3.06000E+01 2.79170E+01 0.00000E+00
 -1      4139 3.21000E+01 2.79170E+01 0.00000E+00
 -1      4140 3.36000E+01 2.79170E+01 0.00000E+00
 -1      4141 3.51000E+01 2.79170E+01 0.00000E+00
 -1      4142 3.28500E+01 2.66180E+01 0.00000E+00
 -1      4143 3.66000E+01 2.79170E+01 0.00000E+00
 -1      4144 3.81000E+01 2.79170E+01 0.00000E+00
 -1      4145 3.58500E+01 2.66180E+01 0.00000E+00
 -1      4146 3.96000E+01 2.79170E+01 0.00000E+00
 -1      4147 4.11000E+01 2.79170E+01 0.00000E+00
 -1      4148 3.88500E+01 2.66180E+01 0.00000E+00
 -1      4149 4.25250E+01 2.79170E+01 0.00000E+00
 -1      4150 4.39500E+01 2.79170E+01 0.00000E+00
 -1      4151 4.17750E+01 2.66180E+01 0.00000E+00
 -1      4152 4.54500E+01 2.79170E+01 0.00000E+00
 -1      4153 4.69500E+01 2.79170E+01 0.00000E+00
 -1      4154 4.47000E+01 2.66180E+01 0.00000E+00
 -1      4155 4.84500E+01 2.79170E+01 0.00000E+00
 -1      4156 4.99500E+01 2.79170E+01 0.00000E+00
 -1      4157 4.77000E+01 2.66180E+01 0.00000E+00
 -1      4158 5.14500E+01 2.79170E+01 0.00000E+00
 -1      4159 5.29500E+01 2.79170E+01 0.00000E+00
 -1      4160 5.07000E+01 2.66180E+01 0.00000E+00
 -1      4161 5.44500E+01 2.79170E+01 0.00000E+00
 -1      4162 5.59500E+01 2.79170E+01 0.00000E+00
 -1      4163 5.37000E+01 2.66180E+01 0.00000E+00
 -1      4164 5.74500E+01 2.79170E+01 0.00000E+00
 -1      4165 5.89500E+01 2.79170E+01 0.00000E+00
 -1      4166 5.67000E+01 2.66180E+01 0.00000E+00
 -1      4167 6.00914E+01 2.79112E+01 0.00000E+00
 -1      4168 6.12199E+01 2.78906E+01 0.00000E+00
 -1      4169 6.16112E+01 2.65859E+01 0.00000E+00
 -1      4170 3.17850E+01 2.08932E+01 0.00000E+00
 -1      4171 3.02850E+01 2.08932E+01 0.00000E+00
 -1      4172 1.18162E+02 2.88900E+01 0.00000E+00
 -1      4173 1.19588E+02 2.88900E+01 0.00000E+00
 -1      4174 1.21088E+02 2.88900E+01 0.00000E+00
 -1      4175 1.22588E+02 2.88900E+01 0.00000E+00
 -1      4176 1.20375E+02 2.75910E+01 0.00000E+00
 -1      4177 1.24800E+02 2.87202E+01 0.00000E+00
 -1      4178 2.15911E+01 1.93128E+01 0.00000E+00
 -1      4179 2.01866E+01 1.95855E+01 0.00000E+00
 -1      4180 1.95710E+01 2.15560E+01 0.00000E+00
 -1      4181 2.23411E+01 2.06118E+01 0.00000E+00
 -1      4182 6.23616E+01 2.50933E+01 0.00000E+00
 -1      4183 6.31120E+01 2.36008E+01 0.00000E+00
 -1      4184 6.12331E+01 2.51139E+01 0.00000E+00
 -1      4185 1.09785E+02 2.08932E+01 0.00000E+00
 -1      4186 1.08285E+02 2.08932E+01 0.00000E+00
 -1      4187 1.06785E+02 2.08932E+01 0.00000E+00
 -1      4188 1.05285E+02 2.08932E+01 0.00000E+00
 -1      4189 1.07535E+02 2.21922E+01 0.00000E+00
 -1      4190 1.03785E+02 2.08932E+01 0.00000E+00
 -1      4191 1.02285E+02 2.08932E+01 0.00000E+00
 -1      4192 1.04535E+02 2.21922E+01 0.00000E+00
 -1      4193 1.12785E+02 2.08932E+01 0.00000E+00
 -1      4194 1.11285E+02 2.08932E+01 0.00000E+00
 -1      4195 1.10535E+02 2.21922E+01 0.00000E+00
 -1      4196 1.15785E+02 2.08932E+01 0.00000E+00
 -1      4197 1.14285E+02 2.08932E+01 0.00000E+00
 -1      4198 1.13535E+02 2.21922E+01 0.00000E+00
 -1      4199 1.18785E+02 2.08932E+01 0.00000E+00
 -1      4200 1.17285E+02 2.08932E+01 0.00000E+00
 -1      4201 1.16535E+02 2.21922E+01 0.00000E+00
 -1      4202 1.21785E+02 2.08932E+01 0.00000E+00
 -1      4203 1.20285E+02 2.08932E+01 0.00000E+00
 -1      4204 1.19535E+02 2.21922E+01 0.00000E+00
 -1      4205 1.24785E+02 2.08932E+01 0.00000E+00
 -1      4206 1.23285E+02 2.08932E+01 0.00000E+00
 -1      4207 1.22535E+02 2.21922E+01 0.00000E+00
 -1      4208 1.27651E+02 2.12744E+01 0.00000E+00
 -1      4209 1.26151E+02 2.12744E+01 0.00000E+00
 -1      4210 1.25401E+02 2.25734E+01 0.00000E+00
 -1      4211 1.28132E+02 2.33357E+01 0.00000E+00
 -1      4212 6.33877E+01 2.15872E+01 0.00000E+00
 -1      4213 9.98418E+01 2.12048E+01 0.00000E+00
 -1      4214 9.83418E+01 2.12048E+01 0.00000E+00
 -1      4215 9.71445E+01 2.07690E+01 0.00000E+00
 -1      4216 6.22593E+01 2.16078E+01 0.00000E+00
 -1      4217 5.27850E+01 2.08932E+01 0.00000E+00
 -1      4218 5.12850E+01 2.08932E+01 0.00000E+00
 -1      4219 5.57850E+01 2.08932E+01 0.00000E+00
 -1      4220 5.42850E+01 2.08932E+01 0.00000E+00
 -1      4221 5.35350E+01 2.21922E+01 0.00000E+00
 -1      4222 2.08747E+01 2.30936E+01 0.00000E+00
 -1      4223 2.87850E+01 2.08932E+01 0.00000E+00
 -1      4224 2.72850E+01 2.08932E+01 0.00000E+00
 -1      4225 2.95350E+01 2.21922E+01 0.00000E+00
 -1      4226 2.46000E+01 2.79170E+01 0.00000E+00
 -1      4227 2.61000E+01 2.79170E+01 0.00000E+00
 -1      4228 6.07593E+01 2.16078E+01 0.00000E+00
 -1      4229 1.09200E+02 2.88900E+01 0.00000E+00
 -1      4230 1.10700E+02 2.88900E+01 0.00000E+00
 -1      4231 1.11450E+02 2.75910E+01 0.00000E+00
 -1      4232 2.76000E+01 2.79170E+01 0.00000E+00
 -1      4233 2.91000E+01 2.79170E+01 0.00000E+00
 -1      4234 2.98500E+01 2.66180E+01 0.00000E+00
 -1      4235 5.87850E+01 2.08932E+01 0.00000E+00
 -1      4236 5.72850E+01 2.08932E+01 0.00000E+00
 -1      4237 5.65350E+01 2.21922E+01 0.00000E+00
 -1      4238 9.94721E+01 2.39871E+01 0.00000E+00
 -1      4239 1.15181E+02 2.88900E+01 0.00000E+00
 -1      4240 1.16681E+02 2.88900E+01 0.00000E+00
 -1      4241 1.17394E+02 2.75910E+01 0.00000E+00
 -1      4242 1.14431E+02 2.75910E+01 0.00000E+00
 -1      4243 1.01743E+02 2.53603E+01 0.00000E+00
 -1      4244 1.02304E+02 2.68797E+01 0.00000E+00
 -1      4245 1.03252E+02 2.70810E+01 0.00000E+00
 -1      4246 1.00592E+02 2.25038E+01 0.00000E+00
 -1      4247 5.93414E+01 2.66122E+01 0.00000E+00
 -1      4248 3.32850E+01 2.08932E+01 0.00000E+00
 -1      4249 3.25350E+01 2.21922E+01 0.00000E+00
 -1      4250 3.47850E+01 2.08932E+01 0.00000E+00
 -1      4251 4.60350E+01 1.95942E+01 0.00000E+00
 -1      4252 1.06459E+02 2.77041E+01 0.00000E+00
 -1      4253 1.07829E+02 2.82970E+01 0.00000E+00
 -1      4254 1.08579E+02 2.69980E+01 0.00000E+00
 -1      4255 1.24088E+02 2.74212E+01 0.00000E+00
 -1      4256 4.97850E+01 2.08932E+01 0.00000E+00
 -1      4257 4.82850E+01 2.08932E+01 0.00000E+00
 -1      4258 5.05350E+01 2.21922E+01 0.00000E+00
 -1      4259 2.58805E+01 2.11660E+01 0.00000E+00
 -1      4260 2.44761E+01 2.14387E+01 0.00000E+00
 -1      4261 2.66305E+01 2.24650E+01 0.00000E+00
 -1      4262 4.07850E+01 2.08932E+01 0.00000E+00
 -1      4263 3.92850E+01 2.08932E+01 0.00000E+00
 -1      4264 1.01915E+02 2.36756E+01 0.00000E+00
 -1      4265 1.28016E+02 2.58787E+01 0.00000E+00
 -1      4266 1.28016E+02 2.44099E+01 0.00000E+00
 -1      4267 1.26650E+02 2.40288E+01 0.00000E+00
 -1      4268 1.26417E+02 2.61772E+01 0.00000E+00
 -1      4269 6.00093E+01 2.29068E+01 0.00000E+00
 -1      4270 1.02863E+02 2.38769E+01 0.00000E+00
 -1      4271 2.68500E+01 2.66180E+01 0.00000E+00
 -1      4272 2.21572E+01 2.74726E+01 0.00000E+00
 -1      4273 2.34608E+01 2.75383E+01 0.00000E+00
 -1      4274 2.42108E+01 2.62393E+01 0.00000E+00
 -1      4275 2.19325E+01 2.54820E+01 0.00000E+00
 -1      4276 4.37850E+01 2.08932E+01 0.00000E+00
 -1      4277 4.22850E+01 2.08932E+01 0.00000E+00
 -1      4278 4.15350E+01 2.21922E+01 0.00000E+00
 -1      4279 2.96925E+01 2.44051E+01 0.00000E+00
 -1      4280 3.11925E+01 2.44051E+01 0.00000E+00
 -1      4281 3.51000E+01 2.53190E+01 0.00000E+00
 -1      4282 3.66000E+01 2.53190E+01 0.00000E+00
 -1      4283 3.86925E+01 2.44051E+01 0.00000E+00
 -1      4284 4.01925E+01 2.44051E+01 0.00000E+00
 -1      4285 4.16925E+01 2.44051E+01 0.00000E+00
 -1      4286 4.31175E+01 2.44051E+01 0.00000E+00
 -1      4287 4.69500E+01 2.53190E+01 0.00000E+00
 -1      4288 4.84500E+01 2.53190E+01 0.00000E+00
 -1      4289 5.06175E+01 2.44051E+01 0.00000E+00
 -1      4290 5.21175E+01 2.44051E+01 0.00000E+00
 -1      4291 5.36175E+01 2.44051E+01 0.00000E+00
 -1      4292 5.51175E+01 2.44051E+01 0.00000E+00
 -1      4293 5.66175E+01 2.44051E+01 0.00000E+00
 -1      4294 5.81175E+01 2.44051E+01 0.00000E+00
 -1      4295 3.77850E+01 2.08932E+01 0.00000E+00
 -1      4296 3.62850E+01 2.08932E+01 0.00000E+00
 -1      4297 3.55350E+01 2.21922E+01 0.00000E+00
 -1      4298 3.85350E+01 2.21922E+01 0.00000E+00
 -1      4299 4.67850E+01 2.08932E+01 0.00000E+00
 -1      4300 4.52850E+01 2.08932E+01 0.00000E+00
 -1      4301 4.45350E+01 2.21922E+01 0.00000E+00
 -1      4302 4.75350E+01 2.21922E+01 0.00000E+00
 -1      4303 1.03639E+02 2.57628E+01 0.00000E+00
 -1      4304 1.04200E+02 2.72823E+01 0.00000E+00
 -1      4305 1.05148E+02 2.74836E+01 0.00000E+00
 -1      4306 3.26925E+01 2.44051E+01 0.00000E+00
 -1      4307 1.08122E+02 2.42987E+01 0.00000E+00
 -1      4308 1.06622E+02 2.42987E+01 0.00000E+00
 -1      4309 1.14285E+02 2.34912E+01 0.00000E+00
 -1      4310 1.12785E+02 2.34912E+01 0.00000E+00
 -1      4311 1.04363E+02 2.38769E+01 0.00000E+00
 -1      4312 1.17285E+02 2.34912E+01 0.00000E+00
 -1      4313 1.15785E+02 2.34912E+01 0.00000E+00
 -1      4314 1.15035E+02 2.47903E+01 0.00000E+00
 -1      4315 1.20285E+02 2.34912E+01 0.00000E+00
 -1      4316 1.18785E+02 2.34912E+01 0.00000E+00
 -1      4317 1.18035E+02 2.47903E+01 0.00000E+00
 -1      4318 1.23285E+02 2.34912E+01 0.00000E+00
 -1      4319 1.21785E+02 2.34912E+01 0.00000E+00
 -1      4320 1.21035E+02 2.47903E+01 0.00000E+00
 -1      4321 1.25650E+02 2.39506E+01 0.00000E+00
 -1      4322 1.24285E+02 2.35694E+01 0.00000E+00
 -1      4323 1.23535E+02 2.48684E+01 0.00000E+00
 -1      4324 1.25534E+02 2.50248E+01 0.00000E+00
 -1      4325 2.22133E+01 2.21413E+01 0.00000E+00
 -1      4326 2.21320E+01 2.41510E+01 0.00000E+00
 -1      4327 2.81925E+01 2.44051E+01 0.00000E+00
 -1      4328 1.19205E+02 2.61906E+01 0.00000E+00
 -1      4329 1.20705E+02 2.61906E+01 0.00000E+00
 -1      4330 2.52880E+01 2.46778E+01 0.00000E+00
 -1      4331 2.67880E+01 2.46778E+01 0.00000E+00
 -1      4332 2.32711E+01 2.45297E+01 0.00000E+00
 -1      4333 2.41489E+01 2.42992E+01 0.00000E+00
 -1      4334 3.41925E+01 2.44051E+01 0.00000E+00
 -1      4335 4.46175E+01 2.44051E+01 0.00000E+00
 -1      4336 4.61175E+01 2.44051E+01 0.00000E+00
 -1      4337 2.35983E+01 2.16692E+01 0.00000E+00
 -1      4338 6.00918E+01 2.51197E+01 0.00000E+00
 -1      4339 1.05898E+02 2.61846E+01 0.00000E+00
 -1      4340 1.10014E+02 2.35419E+01 0.00000E+00
 -1      4341 1.09101E+02 2.56483E+01 0.00000E+00
 -1      4342 1.10471E+02 2.62413E+01 0.00000E+00
 -1      4343 1.11514E+02 2.35419E+01 0.00000E+00
 -1      4344 1.12264E+02 2.48409E+01 0.00000E+00
 -1      4345 1.25417E+02 2.60990E+01 0.00000E+00
 -1      4346 1.11971E+02 2.62413E+01 0.00000E+00
 -1      4347 1.17705E+02 2.61906E+01 0.00000E+00
 -1      4348 4.98675E+01 2.31061E+01 0.00000E+00
 -1      4349 2.43483E+01 2.29682E+01 0.00000E+00
 -1      4350 3.79425E+01 2.31061E+01 0.00000E+00
 -1      4351 1.23205E+02 2.62688E+01 0.00000E+00
 -1      4352 1.16224E+02 2.61906E+01 0.00000E+00
 -1      4353 1.13243E+02 2.61906E+01 0.00000E+00
 -1      4354 1.14724E+02 2.61906E+01 0.00000E+00
 -1      4355 1.22205E+02 2.61906E+01 0.00000E+00
 -1      4356 1.05311E+02 2.40782E+01 0.00000E+00
 -1      4357 4.68675E+01 2.31061E+01 0.00000E+00
 -1      4358 3.49425E+01 2.31061E+01 0.00000E+00
 -1      4359 4.83675E+01 2.31061E+01 0.00000E+00
 -1      4360 3.64425E+01 2.31061E+01 0.00000E+00
 -3
    3C                          2098                                     1
 -1       165    8    0    1
 -2         6         7        23      1132      1296      1149
 -1       166    8    0    1
 -2         7         8       165      1133      1297      1298
 -1       167    8    0    1
 -2         8         9       166      1134      1299      1300
 -1       168    8    0    1
 -2         8       166       165      1300      1301      1297
 -1       169    8    0    1
 -2         9        10       167      1135      1302      1303
 -1       170    8    0    1
 -2         9       167       166      1303      1304      1299
 -1       171    8    0    1
 -2        10        11       168      1136      1305      1306
 -1       172    8    0    1
 -2        10       168       167      1306      1307      1302
 -1       173    8    0    1
 -2        11        12       169      1137      1308      1309
 -1       174    8    0    1
 -2        11       169       168      1309      1310      1305
 -1       175    8    0    1
 -2        12        13       170      1138      1311      1312
 -1       176    8    0    1
 -2        12       170       169      1312      1313      1308
 -1       177    8    0    1
 -2        13        14       171      1139      1314      1315
 -1       178    8    0    1
 -2        13       171       170      1315      1316      1311
 -1       179    8    0    1
 -2        14        15       172      1140      1317      1318
 -1       180    8    0    1
 -2        14       172       171      1318      1319      1314
 -1       181    8    0    1
 -2        15        16       173      1141      1320      1321
 -1       182    8    0    1
 -2        15       173       172      1321      1322      1317
 -1       183    8    0    1
 -2        16        17       174      1142      1323      1324
 -1       184    8    0    1
 -2        16       174       173      1324      1325      1320
 -1       185    8    0    1
 -2        17        18       175      1143      1326      1327
 -1       186    8    0    1
 -2        17       175       174      1327      1328      1323
 -1       187    8    0    1
 -2        18        19       176      1144      1329      1330
 -1       188    8    0    1
 -2        18       176       175      1330      1331      1326
 -1       189    8    0    1
 -2        19        20       177      1145      1332      1333
 -1       190    8    0    1
 -2        19       177       176      1333      1334      1329
 -1       191    8    0    1
 -2        20        21       178      1146      1335      1336
 -1       192    8    0    1
 -2        20       178       177      1336      1337      1332
 -1       193    8    0    1
 -2        21        22       179      1147      1338      1339
 -1       194    8    0    1
 -2        21       179       178      1339      1340      1335
 -1       195    8    0    1
 -2        22         5       180      1148      1341      1342
 -1       196    8    0    1
 -2       179        22       180      1338      1342      1343
 -1       197    8    0    1
 -2         5        73       180      1200      1344      1341
 -1       198    8    0    1
 -2        24        23       181      1150      1345      1346
 -1       199    8    0    1
 -2        25        24       182      1151      1347      1348
 -1       200    8    0    1
 -2        24       181       182      1346      1349      1347
 -1       201    8    0    1
 -2        26        25       183      1152      1350      1351
 -1       202    8    0    1
 -2        25       182       183      1348      1352      1350
 -1       203    8    0    1
 -2        27        26       184      1153      1353      1354
 -1       204    8    0    1
 -2        26       183       184      1351      1355      1353
 -1       205    8    0    1
 -2        28        27       185      1154      1356      1357
 -1       206    8    0    1
 -2        27       184       185      1354      1358      1356
 -1       207    8    0    1
 -2        29        28       186      1155      1359      1360
 -1       208    8    0    1
 -2        28       185       186      1357      1361      1359
 -1       209    8    0    1
 -2        30        29       187      1156      1362      1363
 -1       210    8    0    1
 -2        29       186       187      1360      1364      1362
 -1       211    8    0    1
 -2        31        30       188      1157      1365      1366
 -1       212    8    0    1
 -2        30       187       188      1363      1367      1365
 -1       213    8    0    1
 -2        32        31       189      1158      1368      1369
 -1       214    8    0    1
 -2        31       188       189      1366      1370      1368
 -1       215    8    0    1
 -2        33        32       190      1159      1371      1372
 -1       216    8    0    1
 -2        32       189       190      1369      1373      1371
 -1       217    8    0    1
 -2        34        33       191      1160      1374      1375
 -1       218    8    0    1
 -2        33       190       191      1372      1376      1374
 -1       219    8    0    1
 -2        35        34       192      1161      1377      1378
 -1       220    8    0    1
 -2        34       191       192      1375      1379      1377
 -1       221    8    0    1
 -2        36        35       193      1162      1380      1381
 -1       222    8    0    1
 -2        35       192       193      1378      1382      1380
 -1       223    8    0    1
 -2        37        36       194      1163      1383      1384
 -1       224    8    0    1
 -2        36       193       194      1381      1385      1383
 -1       225    8    0    1
 -2        38        37       195      1164      1386      1387
 -1       226    8    0    1
 -2        37       194       195      1384      1388      1386
 -1       227    8    0    1
 -2        39        38       196      1165      1389      1390
 -1       228    8    0    1
 -2        38       195       196      1387      1391      1389
 -1       229    8    0    1
 -2        40        39       197      1166      1392      1393
 -1       230    8    0    1
 -2        39       196       197      1390      1394      1392
 -1       231    8    0    1
 -2        41        40       198      1167      1395      1396
 -1       232    8    0    1
 -2        40       197       198      1393      1397      1395
 -1       233    8    0    1
 -2        42        41       199      1168      1398      1399
 -1       234    8    0    1
 -2        41       198       199      1396      1400      1398
 -1       235    8    0    1
 -2        43        42       200      1169      1401      1402
 -1       236    8    0    1
 -2        42       199       200      1399      1403      1401
 -1       237    8    0    1
 -2        44        43       201      1170      1404      1405
 -1       238    8    0    1
 -2        43       200       201      1402      1406      1404
 -1       239    8    0    1
 -2        45        44       202      1171      1407      1408
 -1       240    8    0    1
 -2        44       201       202      1405      1409      1407
 -1       241    8    0    1
 -2        46        45       203      1172      1410      1411
 -1       242    8    0    1
 -2        45       202       203      1408      1412      1410
 -1       243    8    0    1
 -2        47        46       204      1173      1413      1414
 -1       244    8    0    1
 -2        46       203       204      1411      1415      1413
 -1       245    8    0    1
 -2        48        47       205      1174      1416      1417
 -1       246    8    0    1
 -2        47       204       205      1414      1418      1416
 -1       247    8    0    1
 -2        49        48       206      1175      1419      1420
 -1       248    8    0    1
 -2        48       205       206      1417      1421      1419
 -1       249    8    0    1
 -2        50        49       207      1176      1422      1423
 -1       250    8    0    1
 -2        49       206       207      1420      1424      1422
 -1       251    8    0    1
 -2        51        50       208      1177      1425      1426
 -1       252    8    0    1
 -2        50       207       208      1423      1427      1425
 -1       253    8    0    1
 -2        52        51       209      1178      1428      1429
 -1       254    8    0    1
 -2        51       208       209      1426      1430      1428
 -1       255    8    0    1
 -2        53        52       210      1179      1431      1432
 -1       256    8    0    1
 -2        52       209       210      1429      1433      1431
 -1       257    8    0    1
 -2        54        53       211      1180      1434      1435
 -1       258    8    0    1
 -2        53       210       211      1432      1436      1434
 -1       259    8    0    1
 -2        55        54       212      1181      1437      1438
 -1       260    8    0    1
 -2        54       211       212      1435      1439      1437
 -1       261    8    0    1
 -2        56        55       213      1182      1440      1441
 -1       262    8    0    1
 -2        55       212       213      1438      1442      1440
 -1       263    8    0    1
 -2        57        56       214      1183      1443      1444
 -1       264    8    0    1
 -2        56       213       214      1441      1445      1443
 -1       265    8    0    1
 -2        58        57       215      1184      1446      1447
 -1       266    8    0    1
 -2        57       214       215      1444      1448      1446
 -1       267    8    0    1
 -2        59        58       216      1185      1449      1450
 -1       268    8    0    1
 -2        58       215       216      1447      1451      1449
 -1       269    8    0    1
 -2        60        59       217      1186      1452      1453
 -1       270    8    0    1
 -2        59       216       217      1450      1454      1452
 -1       271    8    0    1
 -2        61        60       218      1187      1455      1456
 -1       272    8    0    1
 -2        60       217       218      1453      1457      1455
 -1       273    8    0    1
 -2        62        61       219      1188      1458      1459
 -1       274    8    0    1
 -2        61       218       219      1456      1460      1458
 -1       275    8    0    1
 -2        63        62       220      1189      1461      1462
 -1       276    8    0    1
 -2        62       219       220      1459      1463      1461
 -1       277    8    0    1
 -2        64        63       221      1190      1464      1465
 -1       278    8    0    1
 -2        63       220       221      1462      1466      1464
 -1       279    8    0    1
 -2        65        64       222      1191      1467      1468
 -1       280    8    0    1
 -2        64       221       222      1465      1469      1467
 -1       281    8    0    1
 -2        66        65       223      1192      1470      1471
 -1       282    8    0    1
 -2        65       222       223      1468      1472      1470
 -1       283    8    0    1
 -2        67        66       224      1193      1473      1474
 -1       284    8    0    1
 -2        66       223       224      1471      1475      1473
 -1       285    8    0    1
 -2        68        67       225      1194      1476      1477
 -1       286    8    0    1
 -2        67       224       225      1474      1478      1476
 -1       287    8    0    1
 -2        69        68       226      1195      1479      1480
 -1       288    8    0    1
 -2        68       225       226      1477      1481      1479
 -1       289    8    0    1
 -2        70        69       227      1196      1482      1483
 -1       290    8    0    1
 -2        69       226       227      1480      1484      1482
 -1       291    8    0    1
 -2        71        70       228      1197      1485      1486
 -1       292    8    0    1
 -2        70       227       228      1483      1487      1485
 -1       293    8    0    1
 -2        72        71       229      1198      1488      1489
 -1       294    8    0    1
 -2        71       228       229      1486      1490      1488
 -1       295    8    0    1
 -2         4        72       137      1199      1491      1266
 -1       296    8    0    1
 -2        73        74       230      1201      1492      1493
 -1       297    8    0    1
 -2        73       230       180      1493      1494      1344
 -1       298    8    0    1
 -2        74        75       231      1202      1495      1496
 -1       299    8    0    1
 -2        74       231       230      1496      1497      1492
 -1       300    8    0    1
 -2        75        76       232      1203      1498      1499
 -1       301    8    0    1
 -2        75       232       231      1499      1500      1495
 -1       302    8    0    1
 -2        76        77       233      1204      1501      1502
 -1       303    8    0    1
 -2        76       233       232      1502      1503      1498
 -1       304    8    0    1
 -2        77        78       234      1205      1504      1505
 -1       305    8    0    1
 -2        77       234       233      1505      1506      1501
 -1       306    8    0    1
 -2        78        79       235      1206      1507      1508
 -1       307    8    0    1
 -2        78       235       234      1508      1509      1504
 -1       308    8    0    1
 -2        79        80       236      1207      1510      1511
 -1       309    8    0    1
 -2        79       236       235      1511      1512      1507
 -1       310    8    0    1
 -2        80        81       237      1208      1513      1514
 -1       311    8    0    1
 -2        80       237       236      1514      1515      1510
 -1       312    8    0    1
 -2        81        82       238      1209      1516      1517
 -1       313    8    0    1
 -2        81       238       237      1517      1518      1513
 -1       314    8    0    1
 -2        82        83       239      1210      1519      1520
 -1       315    8    0    1
 -2        82       239       238      1520      1521      1516
 -1       316    8    0    1
 -2        83        84       240      1211      1522      1523
 -1       317    8    0    1
 -2        83       240       239      1523      1524      1519
 -1       318    8    0    1
 -2        84        85       241      1212      1525      1526
 -1       319    8    0    1
 -2        84       241       240      1526      1527      1522
 -1       320    8    0    1
 -2        85        86       242      1213      1528      1529
 -1       321    8    0    1
 -2        85       242       241      1529      1530      1525
 -1       322    8    0    1
 -2        86        87       243      1214      1531      1532
 -1       323    8    0    1
 -2        86       243       242      1532      1533      1528
 -1       324    8    0    1
 -2        87        88       244      1215      1534      1535
 -1       325    8    0    1
 -2        87       244       243      1535      1536      1531
 -1       326    8    0    1
 -2        88        89       245      1216      1537      1538
 -1       327    8    0    1
 -2        88       245       244      1538      1539      1534
 -1       328    8    0    1
 -2        89        90       246      1217      1540      1541
 -1       329    8    0    1
 -2        89       246       245      1541      1542      1537
 -1       330    8    0    1
 -2        90        91       247      1218      1543      1544
 -1       331    8    0    1
 -2        90       247       246      1544      1545      1540
 -1       332    8    0    1
 -2        91        92       248      1219      1546      1547
 -1       333    8    0    1
 -2        91       248       247      1547      1548      1543
 -1       334    8    0    1
 -2        92        93       249      1220      1549      1550
 -1       335    8    0    1
 -2        92       249       248      1550      1551      1546
 -1       336    8    0    1
 -2        93        94       250      1221      1552      1553
 -1       337    8    0    1
 -2        93       250       249      1553      1554      1549
 -1       338    8    0    1
 -2        94        95       251      1222      1555      1556
 -1       339    8    0    1
 -2        94       251       250      1556      1557      1552
 -1       340    8    0    1
 -2        95        96       252      1223      1558      1559
 -1       341    8    0    1
 -2        95       252       251      1559      1560      1555
 -1       342    8    0    1
 -2        96        97       253      1224      1561      1562
 -1       343    8    0    1
 -2        96       253       252      1562      1563      1558
 -1       344    8    0    1
 -2        97        98       254      1225      1564      1565
 -1       345    8    0    1
 -2        97       254       253      1565      1566      1561
 -1       346    8    0    1
 -2        98        99       255      1226      1567      1568
 -1       347    8    0    1
 -2        98       255       254      1568      1569      1564
 -1       348    8    0    1
 -2        99       100       256      1227      1570      1571
 -1       349    8    0    1
 -2        99       256       255      1571      1572      1567
 -1       350    8    0    1
 -2       100       101       257      1228      1573      1574
 -1       351    8    0    1
 -2       100       257       256      1574      1575      1570
 -1       352    8    0    1
 -2       101       102       258      1229      1576      1577
 -1       353    8    0    1
 -2       101       258       257      1577      1578      1573
 -1       354    8    0    1
 -2       102       103       259      1230      1579      1580
 -1       355    8    0    1
 -2       102       259       258      1580      1581      1576
 -1       356    8    0    1
 -2       103       104       260      1231      1582      1583
 -1       357    8    0    1
 -2       103       260       259      1583      1584      1579
 -1       358    8    0    1
 -2       104       105       261      1232      1585      1586
 -1       359    8    0    1
 -2       104       261       260      1586      1587      1582
 -1       360    8    0    1
 -2       105       106       262      1233      1588      1589
 -1       361    8    0    1
 -2       105       262       261      1589      1590      1585
 -1       362    8    0    1
 -2       106       107       263      1234      1591      1592
 -1       363    8    0    1
 -2       106       263       262      1592      1593      1588
 -1       364    8    0    1
 -2       107       108       264      1235      1594      1595
 -1       365    8    0    1
 -2       107       264       263      1595      1596      1591
 -1       366    8    0    1
 -2       108       109       265      1236      1597      1598
 -1       367    8    0    1
 -2       108       265       264      1598      1599      1594
 -1       368    8    0    1
 -2       109       110       266      1237      1600      1601
 -1       369    8    0    1
 -2       109       266       265      1601      1602      1597
 -1       370    8    0    1
 -2       110       111       267      1238      1603      1604
 -1       371    8    0    1
 -2       110       267       266      1604      1605      1600
 -1       372    8    0    1
 -2       111       112       268      1239      1606      1607
 -1       373    8    0    1
 -2       111       268       267      1607      1608      1603
 -1       374    8    0    1
 -2       112       113       269      1240      1609      1610
 -1       375    8    0    1
 -2       112       269       268      1610      1611      1606
 -1       376    8    0    1
 -2       113       114       270      1241      1612      1613
 -1       377    8    0    1
 -2       113       270       269      1613      1614      1609
 -1       378    8    0    1
 -2       114       115       271      1242      1615      1616
 -1       379    8    0    1
 -2       114       271       270      1616      1617      1612
 -1       380    8    0    1
 -2       115       116       272      1243      1618      1619
 -1       381    8    0    1
 -2       115       272       271      1619      1620      1615
 -1       382    8    0    1
 -2       116       117       273      1244      1621      1622
 -1       383    8    0    1
 -2       116       273       272      1622      1623      1618
 -1       384    8    0    1
 -2       117       118       274      1245      1624      1625
 -1       385    8    0    1
 -2       117       274       273      1625      1626      1621
 -1       386    8    0    1
 -2       118       119       275      1246      1627      1628
 -1       387    8    0    1
 -2       118       275       274      1628      1629      1624
 -1       388    8    0    1
 -2       119       120       276      1247      1630      1631
 -1       389    8    0    1
 -2       119       276       275      1631      1632      1627
 -1       390    8    0    1
 -2       120       121       277      1248      1633      1634
 -1       391    8    0    1
 -2       120       277       276      1634      1635      1630
 -1       392    8    0    1
 -2       121         3       122      1249      1250      1636
 -1       393    8    0    1
 -2       122       123       278      1251      1637      1638
 -1       394    8    0    1
 -2       123       124       279      1252      1639      1640
 -1       395    8    0    1
 -2       123       279       278      1640      1641      1637
 -1       396    8    0    1
 -2       124       125       280      1253      1642      1643
 -1       397    8    0    1
 -2       124       280       279      1643      1644      1639
 -1       398    8    0    1
 -2       125       126       281      1254      1645      1646
 -1       399    8    0    1
 -2       125       281       280      1646      1647      1642
 -1       400    8    0    1
 -2       126       127       282      1255      1648      1649
 -1       401    8    0    1
 -2       126       282       281      1649      1650      1645
 -1       402    8    0    1
 -2       127       128       283      1256      1651      1652
 -1       403    8    0    1
 -2       127       283       282      1652      1653      1648
 -1       404    8    0    1
 -2       128       129       284      1257      1654      1655
 -1       405    8    0    1
 -2       128       284       283      1655      1656      1651
 -1       406    8    0    1
 -2       129       130       285      1258      1657      1658
 -1       407    8    0    1
 -2       129       285       284      1658      1659      1654
 -1       408    8    0    1
 -2       130       131       286      1259      1660      1661
 -1       409    8    0    1
 -2       130       286       285      1661      1662      1657
 -1       410    8    0    1
 -2       131       132       287      1260      1663      1664
 -1       411    8    0    1
 -2       131       287       286      1664      1665      1660
 -1       412    8    0    1
 -2       132       133       288      1261      1666      1667
 -1       413    8    0    1
 -2       132       288       287      1667      1668      1663
 -1       414    8    0    1
 -2       133       134       289      1262      1669      1670
 -1       415    8    0    1
 -2       133       289       288      1670      1671      1666
 -1       416    8    0    1
 -2       134       135       290      1263      1672      1673
 -1       417    8    0    1
 -2       134       290       289      1673      1674      1669
 -1       418    8    0    1
 -2       135       136       291      1264      1675      1676
 -1       419    8    0    1
 -2       135       291       290      1676      1677      1672
 -1       420    8    0    1
 -2         2       138       292      1267      1678      1679
 -1       421    8    0    1
 -2       138       139       293      1268      1680      1681
 -1       422    8    0    1
 -2       139       140       294      1269      1682      1683
 -1       423    8    0    1
 -2       140       141       295      1270      1684      1685
 -1       424    8    0    1
 -2       141       142       296      1271      1686      1687
 -1       425    8    0    1
 -2       142       143       297      1272      1688      1689
 -1       426    8    0    1
 -2       143       144       298      1273      1690      1691
 -1       427    8    0    1
 -2       144       145       299      1274      1692      1693
 -1       428    8    0    1
 -2       145       146       300      1275      1694      1695
 -1       429    8    0    1
 -2       146       147       301      1276      1696      1697
 -1       430    8    0    1
 -2       147       148       302      1277      1698      1699
 -1       431    8    0    1
 -2       148       149       303      1278      1700      1701
 -1       432    8    0    1
 -2       149       150       304      1279      1702      1703
 -1       433    8    0    1
 -2       150       151       305      1280      1704      1705
 -1       434    8    0    1
 -2       151       152       306      1281      1706      1707
 -1       435    8    0    1
 -2       152       153       307      1282      1708      1709
 -1       436    8    0    1
 -2       153       154       308      1283      1710      1711
 -1       437    8    0    1
 -2       154       155       309      1284      1712      1713
 -1       438    8    0    1
 -2       155       156       310      1285      1714      1715
 -1       439    8    0    1
 -2       156       157       311      1286      1716      1717
 -1       440    8    0    1
 -2       157       158       312      1287      1718      1719
 -1       441    8    0    1
 -2       158       159       313      1288      1720      1721
 -1       442    8    0    1
 -2       159         1       314      1289      1722      1723
 -1       443    8    0    1
 -2         1       160       315      1290      1724      1725
 -1       444    8    0    1
 -2       160       161       316      1291      1726      1727
 -1       445    8    0    1
 -2       161       162       317      1292      1728      1729
 -1       446    8    0    1
 -2       162       163       318      1293      1730      1731
 -1       447    8    0    1
 -2       163       164       319      1294      1732      1733
 -1       448    8    0    1
 -2       164         2       320      1295      1734      1735
 -1       449    8    0    1
 -2       137        72       229      1491      1489      1736
 -1       450    8    0    1
 -2       293       139       294      1680      1683      1737
 -1       451    8    0    1
 -2       121       122       277      1636      1738      1633
 -1       452    8    0    1
 -2       122       278       277      1638      1739      1738
 -1       453    8    0    1
 -2         2       292       320      1679      1740      1734
 -1       454    8    0    1
 -2       292       138       293      1678      1681      1741
 -1       455    8    0    1
 -2       136       137       321      1265      1742      1743
 -1       456    8    0    1
 -2       136       321       291      1743      1744      1675
 -1       457    8    0    1
 -2       140       295       294      1685      1745      1682
 -1       458    8    0    1
 -2       141       296       295      1687      1746      1684
 -1       459    8    0    1
 -2       142       297       296      1689      1747      1686
 -1       460    8    0    1
 -2       143       298       297      1691      1748      1688
 -1       461    8    0    1
 -2       144       299       298      1693      1749      1690
 -1       462    8    0    1
 -2       145       300       299      1695      1750      1692
 -1       463    8    0    1
 -2       146       301       300      1697      1751      1694
 -1       464    8    0    1
 -2       147       302       301      1699      1752      1696
 -1       465    8    0    1
 -2       148       303       302      1701      1753      1698
 -1       466    8    0    1
 -2       149       304       303      1703      1754      1700
 -1       467    8    0    1
 -2       150       305       304      1705      1755      1702
 -1       468    8    0    1
 -2       151       306       305      1707      1756      1704
 -1       469    8    0    1
 -2       152       307       306      1709      1757      1706
 -1       470    8    0    1
 -2       153       308       307      1711      1758      1708
 -1       471    8    0    1
 -2       154       309       308      1713      1759      1710
 -1       472    8    0    1
 -2       155       310       309      1715      1760      1712
 -1       473    8    0    1
 -2       156       311       310      1717      1761      1714
 -1       474    8    0    1
 -2       157       312       311      1719      1762      1716
 -1       475    8    0    1
 -2       158       313       312      1721      1763      1718
 -1       476    8    0    1
 -2       159       314       313      1723      1764      1720
 -1       477    8    0    1
 -2         1       315       314      1725      1765      1722
 -1       478    8    0    1
 -2       160       316       315      1727      1766      1724
 -1       479    8    0    1
 -2       161       317       316      1729      1767      1726
 -1       480    8    0    1
 -2       162       318       317      1731      1768      1728
 -1       481    8    0    1
 -2       163       319       318      1733      1769      1730
 -1       482    8    0    1
 -2       164       320       319      1735      1770      1732
 -1       483    8    0    1
 -2        23         7       165      1296      1298      1771
 -1       484    8    0    1
 -2       166       167       322      1304      1772      1773
 -1       485    8    0    1
 -2       165       166       323      1301      1774      1775
 -1       486    8    0    1
 -2       166       322       323      1773      1776      1774
 -1       487    8    0    1
 -2       168       169       324      1310      1777      1778
 -1       488    8    0    1
 -2       169       170       325      1313      1779      1780
 -1       489    8    0    1
 -2       169       325       324      1780      1781      1777
 -1       490    8    0    1
 -2       170       171       326      1316      1782      1783
 -1       491    8    0    1
 -2       170       326       325      1783      1784      1779
 -1       492    8    0    1
 -2       171       172       327      1319      1785      1786
 -1       493    8    0    1
 -2       171       327       326      1786      1787      1782
 -1       494    8    0    1
 -2       172       173       328      1322      1788      1789
 -1       495    8    0    1
 -2       172       328       327      1789      1790      1785
 -1       496    8    0    1
 -2       173       174       329      1325      1791      1792
 -1       497    8    0    1
 -2       173       329       328      1792      1793      1788
 -1       498    8    0    1
 -2       174       175       330      1328      1794      1795
 -1       499    8    0    1
 -2       174       330       329      1795      1796      1791
 -1       500    8    0    1
 -2       175       176       331      1331      1797      1798
 -1       501    8    0    1
 -2       175       331       330      1798      1799      1794
 -1       502    8    0    1
 -2       176       177       332      1334      1800      1801
 -1       503    8    0    1
 -2       176       332       331      1801      1802      1797
 -1       504    8    0    1
 -2       177       178       333      1337      1803      1804
 -1       505    8    0    1
 -2       177       333       332      1804      1805      1800
 -1       506    8    0    1
 -2       178       179       334      1340      1806      1807
 -1       507    8    0    1
 -2       178       334       333      1807      1808      1803
 -1       508    8    0    1
 -2       179       180       335      1343      1809      1810
 -1       509    8    0    1
 -2       334       179       335      1806      1810      1811
 -1       510    8    0    1
 -2       180       230       335      1494      1812      1809
 -1       511    8    0    1
 -2       181        23       165      1345      1771      1813
 -1       512    8    0    1
 -2       230       231       336      1497      1814      1815
 -1       513    8    0    1
 -2       230       336       335      1815      1816      1812
 -1       514    8    0    1
 -2       183       182       337      1352      1817      1818
 -1       515    8    0    1
 -2       184       183       338      1355      1819      1820
 -1       516    8    0    1
 -2       183       337       338      1818      1821      1819
 -1       517    8    0    1
 -2       185       184       339      1358      1822      1823
 -1       518    8    0    1
 -2       184       338       339      1820      1824      1822
 -1       519    8    0    1
 -2       186       185       340      1361      1825      1826
 -1       520    8    0    1
 -2       185       339       340      1823      1827      1825
 -1       521    8    0    1
 -2       187       186       341      1364      1828      1829
 -1       522    8    0    1
 -2       186       340       341      1826      1830      1828
 -1       523    8    0    1
 -2       188       187       342      1367      1831      1832
 -1       524    8    0    1
 -2       187       341       342      1829      1833      1831
 -1       525    8    0    1
 -2       189       188       343      1370      1834      1835
 -1       526    8    0    1
 -2       188       342       343      1832      1836      1834
 -1       527    8    0    1
 -2       190       189       344      1373      1837      1838
 -1       528    8    0    1
 -2       189       343       344      1835      1839      1837
 -1       529    8    0    1
 -2       191       190       345      1376      1840      1841
 -1       530    8    0    1
 -2       190       344       345      1838      1842      1840
 -1       531    8    0    1
 -2       192       191       346      1379      1843      1844
 -1       532    8    0    1
 -2       191       345       346      1841      1845      1843
 -1       533    8    0    1
 -2       193       192       347      1382      1846      1847
 -1       534    8    0    1
 -2       192       346       347      1844      1848      1846
 -1       535    8    0    1
 -2       194       193       348      1385      1849      1850
 -1       536    8    0    1
 -2       193       347       348      1847      1851      1849
 -1       537    8    0    1
 -2       195       194       349      1388      1852      1853
 -1       538    8    0    1
 -2       194       348       349      1850      1854      1852
 -1       539    8    0    1
 -2       196       195       350      1391      1855      1856
 -1       540    8    0    1
 -2       195       349       350      1853      1857      1855
 -1       541    8    0    1
 -2       197       196       351      1394      1858      1859
 -1       542    8    0    1
 -2       196       350       351      1856      1860      1858
 -1       543    8    0    1
 -2       198       197       352      1397      1861      1862
 -1       544    8    0    1
 -2       197       351       352      1859      1863      1861
 -1       545    8    0    1
 -2       199       198       353      1400      1864      1865
 -1       546    8    0    1
 -2       198       352       353      1862      1866      1864
 -1       547    8    0    1
 -2       200       199       354      1403      1867      1868
 -1       548    8    0    1
 -2       199       353       354      1865      1869      1867
 -1       549    8    0    1
 -2       201       200       355      1406      1870      1871
 -1       550    8    0    1
 -2       200       354       355      1868      1872      1870
 -1       551    8    0    1
 -2       202       201       356      1409      1873      1874
 -1       552    8    0    1
 -2       201       355       356      1871      1875      1873
 -1       553    8    0    1
 -2       203       202       357      1412      1876      1877
 -1       554    8    0    1
 -2       202       356       357      1874      1878      1876
 -1       555    8    0    1
 -2       204       203       358      1415      1879      1880
 -1       556    8    0    1
 -2       203       357       358      1877      1881      1879
 -1       557    8    0    1
 -2       205       204       359      1418      1882      1883
 -1       558    8    0    1
 -2       204       358       359      1880      1884      1882
 -1       559    8    0    1
 -2       208       207       360      1427      1885      1886
 -1       560    8    0    1
 -2       209       208       361      1430      1887      1888
 -1       561    8    0    1
 -2       210       209       362      1433      1889      1890
 -1       562    8    0    1
 -2       211       210       363      1436      1891      1892
 -1       563    8    0    1
 -2       210       362       363      1890      1893      1891
 -1       564    8    0    1
 -2       212       211       364      1439      1894      1895
 -1       565    8    0    1
 -2       211       363       364      1892      1896      1894
 -1       566    8    0    1
 -2       213       212       365      1442      1897      1898
 -1       567    8    0    1
 -2       212       364       365      1895      1899      1897
 -1       568    8    0    1
 -2       214       213       366      1445      1900      1901
 -1       569    8    0    1
 -2       213       365       366      1898      1902      1900
 -1       570    8    0    1
 -2       215       214       367      1448      1903      1904
 -1       571    8    0    1
 -2       214       366       367      1901      1905      1903
 -1       572    8    0    1
 -2       216       215       368      1451      1906      1907
 -1       573    8    0    1
 -2       215       367       368      1904      1908      1906
 -1       574    8    0    1
 -2       217       216       369      1454      1909      1910
 -1       575    8    0    1
 -2       216       368       369      1907      1911      1909
 -1       576    8    0    1
 -2       218       217       370      1457      1912      1913
 -1       577    8    0    1
 -2       217       369       370      1910      1914      1912
 -1       578    8    0    1
 -2       219       218       371      1460      1915      1916
 -1       579    8    0    1
 -2       218       370       371      1913      1917      1915
 -1       580    8    0    1
 -2       220       219       372      1463      1918      1919
 -1       581    8    0    1
 -2       219       371       372      1916      1920      1918
 -1       582    8    0    1
 -2       221       220       373      1466      1921      1922
 -1       583    8    0    1
 -2       220       372       373      1919      1923      1921
 -1       584    8    0    1
 -2       222       221       374      1469      1924      1925
 -1       585    8    0    1
 -2       221       373       374      1922      1926      1924
 -1       586    8    0    1
 -2       223       222       375      1472      1927      1928
 -1       587    8    0    1
 -2       222       374       375      1925      1929      1927
 -1       588    8    0    1
 -2       224       223       376      1475      1930      1931
 -1       589    8    0    1
 -2       223       375       376      1928      1932      1930
 -1       590    8    0    1
 -2       225       224       377      1478      1933      1934
 -1       591    8    0    1
 -2       224       376       377      1931      1935      1933
 -1       592    8    0    1
 -2       226       225       378      1481      1936      1937
 -1       593    8    0    1
 -2       225       377       378      1934      1938      1936
 -1       594    8    0    1
 -2       227       226       379      1484      1939      1940
 -1       595    8    0    1
 -2       226       378       379      1937      1941      1939
 -1       596    8    0    1
 -2       228       227       380      1487      1942      1943
 -1       597    8    0    1
 -2       227       379       380      1940      1944      1942
 -1       598    8    0    1
 -2       229       228       381      1490      1945      1946
 -1       599    8    0    1
 -2       228       380       381      1943      1947      1945
 -1       600    8    0    1
 -2       231       232       382      1500      1948      1949
 -1       601    8    0    1
 -2       231       382       336      1949      1950      1814
 -1       602    8    0    1
 -2       293       294       383      1737      1951      1952
 -1       603    8    0    1
 -2       232       233       384      1503      1953      1954
 -1       604    8    0    1
 -2       232       384       382      1954      1955      1948
 -1       605    8    0    1
 -2       233       234       385      1506      1956      1957
 -1       606    8    0    1
 -2       233       385       384      1957      1958      1953
 -1       607    8    0    1
 -2       234       235       386      1509      1959      1960
 -1       608    8    0    1
 -2       234       386       385      1960      1961      1956
 -1       609    8    0    1
 -2       235       236       387      1512      1962      1963
 -1       610    8    0    1
 -2       235       387       386      1963      1964      1959
 -1       611    8    0    1
 -2       236       237       388      1515      1965      1966
 -1       612    8    0    1
 -2       236       388       387      1966      1967      1962
 -1       613    8    0    1
 -2       237       238       389      1518      1968      1969
 -1       614    8    0    1
 -2       237       389       388      1969      1970      1965
 -1       615    8    0    1
 -2       238       239       390      1521      1971      1972
 -1       616    8    0    1
 -2       238       390       389      1972      1973      1968
 -1       617    8    0    1
 -2       239       240       391      1524      1974      1975
 -1       618    8    0    1
 -2       239       391       390      1975      1976      1971
 -1       619    8    0    1
 -2       240       241       392      1527      1977      1978
 -1       620    8    0    1
 -2       240       392       391      1978      1979      1974
 -1       621    8    0    1
 -2       241       242       393      1530      1980      1981
 -1       622    8    0    1
 -2       241       393       392      1981      1982      1977
 -1       623    8    0    1
 -2       242       243       394      1533      1983      1984
 -1       624    8    0    1
 -2       242       394       393      1984      1985      1980
 -1       625    8    0    1
 -2       243       244       395      1536      1986      1987
 -1       626    8    0    1
 -2       243       395       394      1987      1988      1983
 -1       627    8    0    1
 -2       244       245       396      1539      1989      1990
 -1       628    8    0    1
 -2       244       396       395      1990      1991      1986
 -1       629    8    0    1
 -2       245       246       397      1542      1992      1993
 -1       630    8    0    1
 -2       245       397       396      1993      1994      1989
 -1       631    8    0    1
 -2       246       247       398      1545      1995      1996
 -1       632    8    0    1
 -2       246       398       397      1996      1997      1992
 -1       633    8    0    1
 -2       247       248       399      1548      1998      1999
 -1       634    8    0    1
 -2       247       399       398      1999      2000      1995
 -1       635    8    0    1
 -2       248       249       400      1551      2001      2002
 -1       636    8    0    1
 -2       248       400       399      2002      2003      1998
 -1       637    8    0    1
 -2       249       250       401      1554      2004      2005
 -1       638    8    0    1
 -2       249       401       400      2005      2006      2001
 -1       639    8    0    1
 -2       250       251       402      1557      2007      2008
 -1       640    8    0    1
 -2       250       402       401      2008      2009      2004
 -1       641    8    0    1
 -2       251       252       403      1560      2010      2011
 -1       642    8    0    1
 -2       251       403       402      2011      2012      2007
 -1       643    8    0    1
 -2       252       253       404      1563      2013      2014
 -1       644    8    0    1
 -2       252       404       403      2014      2015      2010
 -1       645    8    0    1
 -2       253       254       405      1566      2016      2017
 -1       646    8    0    1
 -2       253       405       404      2017      2018      2013
 -1       647    8    0    1
 -2       254       255       406      1569      2019      2020
 -1       648    8    0    1
 -2       254       406       405      2020      2021      2016
 -1       649    8    0    1
 -2       255       256       407      1572      2022      2023
 -1       650    8    0    1
 -2       255       407       406      2023      2024      2019
 -1       651    8    0    1
 -2       256       257       408      1575      2025      2026
 -1       652    8    0    1
 -2       256       408       407      2026      2027      2022
 -1       653    8    0    1
 -2       257       258       409      1578      2028      2029
 -1       654    8    0    1
 -2       257       409       408      2029      2030      2025
 -1       655    8    0    1
 -2       258       259       410      1581      2031      2032
 -1       656    8    0    1
 -2       258       410       409      2032      2033      2028
 -1       657    8    0    1
 -2       259       260       411      1584      2034      2035
 -1       658    8    0    1
 -2       259       411       410      2035      2036      2031
 -1       659    8    0    1
 -2       260       261       412      1587      2037      2038
 -1       660    8    0    1
 -2       260       412       411      2038      2039      2034
 -1       661    8    0    1
 -2       261       262       413      1590      2040      2041
 -1       662    8    0    1
 -2       261       413       412      2041      2042      2037
 -1       663    8    0    1
 -2       262       263       414      1593      2043      2044
 -1       664    8    0    1
 -2       262       414       413      2044      2045      2040
 -1       665    8    0    1
 -2       263       264       415      1596      2046      2047
 -1       666    8    0    1
 -2       263       415       414      2047      2048      2043
 -1       667    8    0    1
 -2       264       265       416      1599      2049      2050
 -1       668    8    0    1
 -2       264       416       415      2050      2051      2046
 -1       669    8    0    1
 -2       265       266       417      1602      2052      2053
 -1       670    8    0    1
 -2       265       417       416      2053      2054      2049
 -1       671    8    0    1
 -2       266       267       418      1605      2055      2056
 -1       672    8    0    1
 -2       266       418       417      2056      2057      2052
 -1       673    8    0    1
 -2       267       268       419      1608      2058      2059
 -1       674    8    0    1
 -2       267       419       418      2059      2060      2055
 -1       675    8    0    1
 -2       268       269       420      1611      2061      2062
 -1       676    8    0    1
 -2       268       420       419      2062      2063      2058
 -1       677    8    0    1
 -2       269       270       421      1614      2064      2065
 -1       678    8    0    1
 -2       269       421       420      2065      2066      2061
 -1       679    8    0    1
 -2       270       271       422      1617      2067      2068
 -1       680    8    0    1
 -2       270       422       421      2068      2069      2064
 -1       681    8    0    1
 -2       271       272       423      1620      2070      2071
 -1       682    8    0    1
 -2       271       423       422      2071      2072      2067
 -1       683    8    0    1
 -2       272       273       424      1623      2073      2074
 -1       684    8    0    1
 -2       272       424       423      2074      2075      2070
 -1       685    8    0    1
 -2       273       274       425      1626      2076      2077
 -1       686    8    0    1
 -2       273       425       424      2077      2078      2073
 -1       687    8    0    1
 -2       274       275       426      1629      2079      2080
 -1       688    8    0    1
 -2       274       426       425      2080      2081      2076
 -1       689    8    0    1
 -2       275       276       427      1632      2082      2083
 -1       690    8    0    1
 -2       275       427       426      2083      2084      2079
 -1       691    8    0    1
 -2       276       277       428      1635      2085      2086
 -1       692    8    0    1
 -2       427       276       428      2082      2086      2087
 -1       693    8    0    1
 -2       277       278       428      1739      2088      2085
 -1       694    8    0    1
 -2       280       281       429      1647      2089      2090
 -1       695    8    0    1
 -2       279       280       430      1644      2091      2092
 -1       696    8    0    1
 -2       280       429       430      2090      2093      2091
 -1       697    8    0    1
 -2       278       279       431      1641      2094      2095
 -1       698    8    0    1
 -2       428       278       431      2088      2095      2096
 -1       699    8    0    1
 -2       279       430       431      2092      2097      2094
 -1       700    8    0    1
 -2       281       282       432      1650      2098      2099
 -1       701    8    0    1
 -2       281       432       429      2099      2100      2089
 -1       702    8    0    1
 -2       282       283       433      1653      2101      2102
 -1       703    8    0    1
 -2       282       433       432      2102      2103      2098
 -1       704    8    0    1
 -2       283       284       434      1656      2104      2105
 -1       705    8    0    1
 -2       283       434       433      2105      2106      2101
 -1       706    8    0    1
 -2       284       285       435      1659      2107      2108
 -1       707    8    0    1
 -2       284       435       434      2108      2109      2104
 -1       708    8    0    1
 -2       285       286       436      1662      2110      2111
 -1       709    8    0    1
 -2       285       436       435      2111      2112      2107
 -1       710    8    0    1
 -2       286       287       437      1665      2113      2114
 -1       711    8    0    1
 -2       286       437       436      2114      2115      2110
 -1       712    8    0    1
 -2       287       288       438      1668      2116      2117
 -1       713    8    0    1
 -2       287       438       437      2117      2118      2113
 -1       714    8    0    1
 -2       288       289       439      1671      2119      2120
 -1       715    8    0    1
 -2       288       439       438      2120      2121      2116
 -1       716    8    0    1
 -2       289       290       440      1674      2122      2123
 -1       717    8    0    1
 -2       289       440       439      2123      2124      2119
 -1       718    8    0    1
 -2       290       291       441      1677      2125      2126
 -1       719    8    0    1
 -2       290       441       440      2126      2127      2122
 -1       720    8    0    1
 -2       294       295       442      1745      2128      2129
 -1       721    8    0    1
 -2       321       137       229      1742      1736      2130
 -1       722    8    0    1
 -2       181       165       323      1813      1775      2131
 -1       723    8    0    1
 -2       320       292       443      1740      2132      2133
 -1       724    8    0    1
 -2       167       168       444      1307      2134      2135
 -1       725    8    0    1
 -2       322       167       444      1772      2135      2136
 -1       726    8    0    1
 -2       168       324       444      1778      2137      2134
 -1       727    8    0    1
 -2       295       296       445      1746      2138      2139
 -1       728    8    0    1
 -2       295       445       442      2139      2140      2128
 -1       729    8    0    1
 -2       296       297       446      1747      2141      2142
 -1       730    8    0    1
 -2       297       298       447      1748      2143      2144
 -1       731    8    0    1
 -2       298       299       448      1749      2145      2146
 -1       732    8    0    1
 -2       298       448       447      2146      2147      2143
 -1       733    8    0    1
 -2       299       300       449      1750      2148      2149
 -1       734    8    0    1
 -2       300       301       450      1751      2150      2151
 -1       735    8    0    1
 -2       301       302       451      1752      2152      2153
 -1       736    8    0    1
 -2       302       303       452      1753      2154      2155
 -1       737    8    0    1
 -2       303       304       453      1754      2156      2157
 -1       738    8    0    1
 -2       304       305       454      1755      2158      2159
 -1       739    8    0    1
 -2       305       306       455      1756      2160      2161
 -1       740    8    0    1
 -2       306       307       456      1757      2162      2163
 -1       741    8    0    1
 -2       307       308       457      1758      2164      2165
 -1       742    8    0    1
 -2       308       309       458      1759      2166      2167
 -1       743    8    0    1
 -2       309       310       459      1760      2168      2169
 -1       744    8    0    1
 -2       309       459       458      2169      2170      2166
 -1       745    8    0    1
 -2       310       311       460      1761      2171      2172
 -1       746    8    0    1
 -2       311       312       461      1762      2173      2174
 -1       747    8    0    1
 -2       311       461       460      2174      2175      2171
 -1       748    8    0    1
 -2       312       313       462      1763      2176      2177
 -1       749    8    0    1
 -2       312       462       461      2177      2178      2173
 -1       750    8    0    1
 -2       313       314       360      1764      2179      2180
 -1       751    8    0    1
 -2       314       315       361      1765      2181      2182
 -1       752    8    0    1
 -2       315       316       463      1766      2183      2184
 -1       753    8    0    1
 -2       316       317       464      1767      2185      2186
 -1       754    8    0    1
 -2       317       318       465      1768      2187      2188
 -1       755    8    0    1
 -2       318       319       466      1769      2189      2190
 -1       756    8    0    1
 -2       319       320       467      1770      2191      2192
 -1       757    8    0    1
 -2       292       293       468      1741      2193      2194
 -1       758    8    0    1
 -2       321       229       381      2130      1946      2195
 -1       759    8    0    1
 -2       320       443       467      2133      2196      2191
 -1       760    8    0    1
 -2       361       208       360      1887      1886      2197
 -1       761    8    0    1
 -2       293       383       468      1952      2198      2193
 -1       762    8    0    1
 -2       337       182       323      1817      2199      2200
 -1       763    8    0    1
 -2       182       181       323      1349      2131      2199
 -1       764    8    0    1
 -2       206       205       469      1421      2201      2202
 -1       765    8    0    1
 -2       207       206       462      1424      2203      2204
 -1       766    8    0    1
 -2       209       361       362      1888      2205      1889
 -1       767    8    0    1
 -2       383       294       442      1951      2129      2206
 -1       768    8    0    1
 -2       448       299       470      2145      2207      2208
 -1       769    8    0    1
 -2       299       449       470      2149      2209      2207
 -1       770    8    0    1
 -2       296       446       445      2142      2210      2138
 -1       771    8    0    1
 -2       291       321       381      1744      2195      2211
 -1       772    8    0    1
 -2       443       292       468      2132      2194      2212
 -1       773    8    0    1
 -2       466       319       467      2189      2192      2213
 -1       774    8    0    1
 -2       465       318       466      2187      2190      2214
 -1       775    8    0    1
 -2       464       317       465      2185      2188      2215
 -1       776    8    0    1
 -2       463       316       464      2183      2186      2216
 -1       777    8    0    1
 -2       313       360       462      2180      2217      2176
 -1       778    8    0    1
 -2       459       310       460      2168      2172      2218
 -1       779    8    0    1
 -2       457       308       458      2164      2167      2219
 -1       780    8    0    1
 -2       456       307       457      2162      2165      2220
 -1       781    8    0    1
 -2       455       306       456      2160      2163      2221
 -1       782    8    0    1
 -2       454       305       455      2158      2161      2222
 -1       783    8    0    1
 -2       453       304       454      2156      2159      2223
 -1       784    8    0    1
 -2       452       303       453      2154      2157      2224
 -1       785    8    0    1
 -2       451       302       452      2152      2155      2225
 -1       786    8    0    1
 -2       450       301       451      2150      2153      2226
 -1       787    8    0    1
 -2       469       205       359      2201      1883      2227
 -1       788    8    0    1
 -2       291       381       441      2211      2228      2125
 -1       789    8    0    1
 -2       446       297       447      2141      2144      2229
 -1       790    8    0    1
 -2       449       300       450      2148      2151      2230
 -1       791    8    0    1
 -2       360       314       361      2179      2182      2197
 -1       792    8    0    1
 -2       207       462       360      2204      2217      1885
 -1       793    8    0    1
 -2       325       326       471      1784      2231      2232
 -1       794    8    0    1
 -2       324       325       472      1781      2233      2234
 -1       795    8    0    1
 -2       325       471       472      2232      2235      2233
 -1       796    8    0    1
 -2       327       328       473      1790      2236      2237
 -1       797    8    0    1
 -2       328       329       474      1793      2238      2239
 -1       798    8    0    1
 -2       328       474       473      2239      2240      2236
 -1       799    8    0    1
 -2       329       330       475      1796      2241      2242
 -1       800    8    0    1
 -2       329       475       474      2242      2243      2238
 -1       801    8    0    1
 -2       330       331       476      1799      2244      2245
 -1       802    8    0    1
 -2       330       476       475      2245      2246      2241
 -1       803    8    0    1
 -2       331       332       477      1802      2247      2248
 -1       804    8    0    1
 -2       331       477       476      2248      2249      2244
 -1       805    8    0    1
 -2       332       333       478      1805      2250      2251
 -1       806    8    0    1
 -2       332       478       477      2251      2252      2247
 -1       807    8    0    1
 -2       333       334       479      1808      2253      2254
 -1       808    8    0    1
 -2       333       479       478      2254      2255      2250
 -1       809    8    0    1
 -2       334       335       480      1811      2256      2257
 -1       810    8    0    1
 -2       479       334       480      2253      2257      2258
 -1       811    8    0    1
 -2       335       336       480      1816      2259      2256
 -1       812    8    0    1
 -2       338       337       481      1821      2260      2261
 -1       813    8    0    1
 -2       441       381       482      2228      2262      2263
 -1       814    8    0    1
 -2       381       380       482      1947      2264      2262
 -1       815    8    0    1
 -2       206       469       461      2202      2265      2266
 -1       816    8    0    1
 -2       462       206       461      2203      2266      2178
 -1       817    8    0    1
 -2       442       445       483      2140      2267      2268
 -1       818    8    0    1
 -2       468       383       484      2198      2269      2270
 -1       819    8    0    1
 -2       339       338       485      1824      2271      2272
 -1       820    8    0    1
 -2       338       481       485      2261      2273      2271
 -1       821    8    0    1
 -2       340       339       486      1827      2274      2275
 -1       822    8    0    1
 -2       339       485       486      2272      2276      2274
 -1       823    8    0    1
 -2       341       340       487      1830      2277      2278
 -1       824    8    0    1
 -2       340       486       487      2275      2279      2277
 -1       825    8    0    1
 -2       342       341       488      1833      2280      2281
 -1       826    8    0    1
 -2       341       487       488      2278      2282      2280
 -1       827    8    0    1
 -2       343       342       489      1836      2283      2284
 -1       828    8    0    1
 -2       342       488       489      2281      2285      2283
 -1       829    8    0    1
 -2       344       343       490      1839      2286      2287
 -1       830    8    0    1
 -2       343       489       490      2284      2288      2286
 -1       831    8    0    1
 -2       345       344       491      1842      2289      2290
 -1       832    8    0    1
 -2       344       490       491      2287      2291      2289
 -1       833    8    0    1
 -2       346       345       492      1845      2292      2293
 -1       834    8    0    1
 -2       345       491       492      2290      2294      2292
 -1       835    8    0    1
 -2       347       346       493      1848      2295      2296
 -1       836    8    0    1
 -2       346       492       493      2293      2297      2295
 -1       837    8    0    1
 -2       348       347       494      1851      2298      2299
 -1       838    8    0    1
 -2       347       493       494      2296      2300      2298
 -1       839    8    0    1
 -2       349       348       495      1854      2301      2302
 -1       840    8    0    1
 -2       348       494       495      2299      2303      2301
 -1       841    8    0    1
 -2       350       349       496      1857      2304      2305
 -1       842    8    0    1
 -2       349       495       496      2302      2306      2304
 -1       843    8    0    1
 -2       351       350       497      1860      2307      2308
 -1       844    8    0    1
 -2       350       496       497      2305      2309      2307
 -1       845    8    0    1
 -2       352       351       498      1863      2310      2311
 -1       846    8    0    1
 -2       351       497       498      2308      2312      2310
 -1       847    8    0    1
 -2       353       352       499      1866      2313      2314
 -1       848    8    0    1
 -2       352       498       499      2311      2315      2313
 -1       849    8    0    1
 -2       354       353       500      1869      2316      2317
 -1       850    8    0    1
 -2       353       499       500      2314      2318      2316
 -1       851    8    0    1
 -2       355       354       501      1872      2319      2320
 -1       852    8    0    1
 -2       354       500       501      2317      2321      2319
 -1       853    8    0    1
 -2       356       355       502      1875      2322      2323
 -1       854    8    0    1
 -2       355       501       502      2320      2324      2322
 -1       855    8    0    1
 -2       357       356       503      1878      2325      2326
 -1       856    8    0    1
 -2       356       502       503      2323      2327      2325
 -1       857    8    0    1
 -2       358       357       504      1881      2328      2329
 -1       858    8    0    1
 -2       357       503       504      2326      2330      2328
 -1       859    8    0    1
 -2       359       358       505      1884      2331      2332
 -1       860    8    0    1
 -2       336       382       506      1950      2333      2334
 -1       861    8    0    1
 -2       336       506       480      2334      2335      2259
 -1       862    8    0    1
 -2       467       443       507      2196      2336      2337
 -1       863    8    0    1
 -2       364       363       508      1896      2338      2339
 -1       864    8    0    1
 -2       365       364       509      1899      2340      2341
 -1       865    8    0    1
 -2       364       508       509      2339      2342      2340
 -1       866    8    0    1
 -2       366       365       510      1902      2343      2344
 -1       867    8    0    1
 -2       365       509       510      2341      2345      2343
 -1       868    8    0    1
 -2       367       366       511      1905      2346      2347
 -1       869    8    0    1
 -2       366       510       511      2344      2348      2346
 -1       870    8    0    1
 -2       368       367       512      1908      2349      2350
 -1       871    8    0    1
 -2       367       511       512      2347      2351      2349
 -1       872    8    0    1
 -2       369       368       513      1911      2352      2353
 -1       873    8    0    1
 -2       368       512       513      2350      2354      2352
 -1       874    8    0    1
 -2       370       369       514      1914      2355      2356
 -1       875    8    0    1
 -2       369       513       514      2353      2357      2355
 -1       876    8    0    1
 -2       371       370       515      1917      2358      2359
 -1       877    8    0    1
 -2       370       514       515      2356      2360      2358
 -1       878    8    0    1
 -2       372       371       516      1920      2361      2362
 -1       879    8    0    1
 -2       371       515       516      2359      2363      2361
 -1       880    8    0    1
 -2       373       372       517      1923      2364      2365
 -1       881    8    0    1
 -2       372       516       517      2362      2366      2364
 -1       882    8    0    1
 -2       374       373       518      1926      2367      2368
 -1       883    8    0    1
 -2       373       517       518      2365      2369      2367
 -1       884    8    0    1
 -2       375       374       519      1929      2370      2371
 -1       885    8    0    1
 -2       374       518       519      2368      2372      2370
 -1       886    8    0    1
 -2       376       375       520      1932      2373      2374
 -1       887    8    0    1
 -2       375       519       520      2371      2375      2373
 -1       888    8    0    1
 -2       377       376       521      1935      2376      2377
 -1       889    8    0    1
 -2       376       520       521      2374      2378      2376
 -1       890    8    0    1
 -2       378       377       522      1938      2379      2380
 -1       891    8    0    1
 -2       377       521       522      2377      2381      2379
 -1       892    8    0    1
 -2       379       378       523      1941      2382      2383
 -1       893    8    0    1
 -2       378       522       523      2380      2384      2382
 -1       894    8    0    1
 -2       380       379       524      1944      2385      2386
 -1       895    8    0    1
 -2       482       380       524      2264      2386      2387
 -1       896    8    0    1
 -2       379       523       524      2383      2388      2385
 -1       897    8    0    1
 -2       384       385       525      1958      2389      2390
 -1       898    8    0    1
 -2       382       384       526      1955      2391      2392
 -1       899    8    0    1
 -2       506       382       526      2333      2392      2393
 -1       900    8    0    1
 -2       384       525       526      2390      2394      2391
 -1       901    8    0    1
 -2       386       387       527      1964      2395      2396
 -1       902    8    0    1
 -2       387       388       528      1967      2397      2398
 -1       903    8    0    1
 -2       387       528       527      2398      2399      2395
 -1       904    8    0    1
 -2       388       389       529      1970      2400      2401
 -1       905    8    0    1
 -2       388       529       528      2401      2402      2397
 -1       906    8    0    1
 -2       389       390       530      1973      2403      2404
 -1       907    8    0    1
 -2       389       530       529      2404      2405      2400
 -1       908    8    0    1
 -2       390       391       531      1976      2406      2407
 -1       909    8    0    1
 -2       390       531       530      2407      2408      2403
 -1       910    8    0    1
 -2       391       392       532      1979      2409      2410
 -1       911    8    0    1
 -2       391       532       531      2410      2411      2406
 -1       912    8    0    1
 -2       392       393       533      1982      2412      2413
 -1       913    8    0    1
 -2       392       533       532      2413      2414      2409
 -1       914    8    0    1
 -2       393       394       534      1985      2415      2416
 -1       915    8    0    1
 -2       393       534       533      2416      2417      2412
 -1       916    8    0    1
 -2       394       395       535      1988      2418      2419
 -1       917    8    0    1
 -2       394       535       534      2419      2420      2415
 -1       918    8    0    1
 -2       395       396       536      1991      2421      2422
 -1       919    8    0    1
 -2       395       536       535      2422      2423      2418
 -1       920    8    0    1
 -2       396       397       537      1994      2424      2425
 -1       921    8    0    1
 -2       396       537       536      2425      2426      2421
 -1       922    8    0    1
 -2       397       398       538      1997      2427      2428
 -1       923    8    0    1
 -2       397       538       537      2428      2429      2424
 -1       924    8    0    1
 -2       398       399       539      2000      2430      2431
 -1       925    8    0    1
 -2       398       539       538      2431      2432      2427
 -1       926    8    0    1
 -2       399       400       540      2003      2433      2434
 -1       927    8    0    1
 -2       399       540       539      2434      2435      2430
 -1       928    8    0    1
 -2       400       401       541      2006      2436      2437
 -1       929    8    0    1
 -2       400       541       540      2437      2438      2433
 -1       930    8    0    1
 -2       401       402       542      2009      2439      2440
 -1       931    8    0    1
 -2       401       542       541      2440      2441      2436
 -1       932    8    0    1
 -2       402       403       543      2012      2442      2443
 -1       933    8    0    1
 -2       402       543       542      2443      2444      2439
 -1       934    8    0    1
 -2       403       404       544      2015      2445      2446
 -1       935    8    0    1
 -2       403       544       543      2446      2447      2442
 -1       936    8    0    1
 -2       404       405       545      2018      2448      2449
 -1       937    8    0    1
 -2       404       545       544      2449      2450      2445
 -1       938    8    0    1
 -2       405       406       546      2021      2451      2452
 -1       939    8    0    1
 -2       405       546       545      2452      2453      2448
 -1       940    8    0    1
 -2       406       407       547      2024      2454      2455
 -1       941    8    0    1
 -2       406       547       546      2455      2456      2451
 -1       942    8    0    1
 -2       407       408       548      2027      2457      2458
 -1       943    8    0    1
 -2       407       548       547      2458      2459      2454
 -1       944    8    0    1
 -2       408       409       549      2030      2460      2461
 -1       945    8    0    1
 -2       408       549       548      2461      2462      2457
 -1       946    8    0    1
 -2       409       410       550      2033      2463      2464
 -1       947    8    0    1
 -2       409       550       549      2464      2465      2460
 -1       948    8    0    1
 -2       410       411       551      2036      2466      2467
 -1       949    8    0    1
 -2       410       551       550      2467      2468      2463
 -1       950    8    0    1
 -2       411       412       552      2039      2469      2470
 -1       951    8    0    1
 -2       411       552       551      2470      2471      2466
 -1       952    8    0    1
 -2       412       413       553      2042      2472      2473
 -1       953    8    0    1
 -2       412       553       552      2473      2474      2469
 -1       954    8    0    1
 -2       413       414       554      2045      2475      2476
 -1       955    8    0    1
 -2       413       554       553      2476      2477      2472
 -1       956    8    0    1
 -2       414       415       555      2048      2478      2479
 -1       957    8    0    1
 -2       414       555       554      2479      2480      2475
 -1       958    8    0    1
 -2       415       416       556      2051      2481      2482
 -1       959    8    0    1
 -2       415       556       555      2482      2483      2478
 -1       960    8    0    1
 -2       416       417       557      2054      2484      2485
 -1       961    8    0    1
 -2       416       557       556      2485      2486      2481
 -1       962    8    0    1
 -2       417       418       558      2057      2487      2488
 -1       963    8    0    1
 -2       417       558       557      2488      2489      2484
 -1       964    8    0    1
 -2       418       419       559      2060      2490      2491
 -1       965    8    0    1
 -2       418       559       558      2491      2492      2487
 -1       966    8    0    1
 -2       419       420       560      2063      2493      2494
 -1       967    8    0    1
 -2       419       560       559      2494      2495      2490
 -1       968    8    0    1
 -2       420       421       561      2066      2496      2497
 -1       969    8    0    1
 -2       420       561       560      2497      2498      2493
 -1       970    8    0    1
 -2       421       422       562      2069      2499      2500
 -1       971    8    0    1
 -2       421       562       561      2500      2501      2496
 -1       972    8    0    1
 -2       422       423       563      2072      2502      2503
 -1       973    8    0    1
 -2       422       563       562      2503      2504      2499
 -1       974    8    0    1
 -2       423       424       564      2075      2505      2506
 -1       975    8    0    1
 -2       423       564       563      2506      2507      2502
 -1       976    8    0    1
 -2       424       425       565      2078      2508      2509
 -1       977    8    0    1
 -2       424       565       564      2509      2510      2505
 -1       978    8    0    1
 -2       425       426       566      2081      2511      2512
 -1       979    8    0    1
 -2       425       566       565      2512      2513      2508
 -1       980    8    0    1
 -2       426       427       567      2084      2514      2515
 -1       981    8    0    1
 -2       426       567       566      2515      2516      2511
 -1       982    8    0    1
 -2       427       428       431      2087      2096      2517
 -1       983    8    0    1
 -2       432       433       568      2103      2518      2519
 -1       984    8    0    1
 -2       433       434       569      2106      2520      2521
 -1       985    8    0    1
 -2       433       569       568      2521      2522      2518
 -1       986    8    0    1
 -2       430       429       570      2093      2523      2524
 -1       987    8    0    1
 -2       429       432       571      2100      2525      2526
 -1       988    8    0    1
 -2       570       429       571      2523      2526      2527
 -1       989    8    0    1
 -2       432       568       571      2519      2528      2525
 -1       990    8    0    1
 -2       434       435       572      2109      2529      2530
 -1       991    8    0    1
 -2       434       572       569      2530      2531      2520
 -1       992    8    0    1
 -2       435       436       573      2112      2532      2533
 -1       993    8    0    1
 -2       435       573       572      2533      2534      2529
 -1       994    8    0    1
 -2       436       437       574      2115      2535      2536
 -1       995    8    0    1
 -2       436       574       573      2536      2537      2532
 -1       996    8    0    1
 -2       437       438       575      2118      2538      2539
 -1       997    8    0    1
 -2       437       575       574      2539      2540      2535
 -1       998    8    0    1
 -2       438       439       576      2121      2541      2542
 -1       999    8    0    1
 -2       438       576       575      2542      2543      2538
 -1      1000    8    0    1
 -2       439       440       577      2124      2544      2545
 -1      1001    8    0    1
 -2       439       577       576      2545      2546      2541
 -1      1002    8    0    1
 -2       440       441       482      2127      2263      2547
 -1      1003    8    0    1
 -2       446       447       578      2229      2548      2549
 -1      1004    8    0    1
 -2       337       323       579      2200      2550      2551
 -1      1005    8    0    1
 -2       481       337       579      2260      2551      2552
 -1      1006    8    0    1
 -2       323       322       579      1776      2553      2550
 -1      1007    8    0    1
 -2       361       315       463      2181      2184      2554
 -1      1008    8    0    1
 -2       457       458       580      2219      2555      2556
 -1      1009    8    0    1
 -2       385       386       581      1961      2557      2558
 -1      1010    8    0    1
 -2       525       385       581      2389      2558      2559
 -1      1011    8    0    1
 -2       386       527       581      2396      2560      2557
 -1      1012    8    0    1
 -2       383       442       582      2206      2561      2562
 -1      1013    8    0    1
 -2       326       327       583      1787      2563      2564
 -1      1014    8    0    1
 -2       471       326       583      2231      2564      2565
 -1      1015    8    0    1
 -2       327       473       583      2237      2566      2563
 -1      1016    8    0    1
 -2       445       446       584      2210      2567      2568
 -1      1017    8    0    1
 -2       449       450       585      2230      2569      2570
 -1      1018    8    0    1
 -2       447       448       586      2147      2571      2572
 -1      1019    8    0    1
 -2       447       586       578      2572      2573      2548
 -1      1020    8    0    1
 -2       450       451       587      2226      2574      2575
 -1      1021    8    0    1
 -2       451       452       588      2225      2576      2577
 -1      1022    8    0    1
 -2       452       453       589      2224      2578      2579
 -1      1023    8    0    1
 -2       453       454       590      2223      2580      2581
 -1      1024    8    0    1
 -2       453       590       589      2581      2582      2578
 -1      1025    8    0    1
 -2       454       455       591      2222      2583      2584
 -1      1026    8    0    1
 -2       455       456       592      2221      2585      2586
 -1      1027    8    0    1
 -2       455       592       591      2586      2587      2583
 -1      1028    8    0    1
 -2       456       457       593      2220      2588      2589
 -1      1029    8    0    1
 -2       458       459       594      2170      2590      2591
 -1      1030    8    0    1
 -2       460       461       469      2175      2265      2592
 -1      1031    8    0    1
 -2       459       460       595      2218      2593      2594
 -1      1032    8    0    1
 -2       465       466       596      2214      2595      2596
 -1      1033    8    0    1
 -2       466       467       597      2213      2597      2598
 -1      1034    8    0    1
 -2       443       468       598      2212      2599      2600
 -1      1035    8    0    1
 -2       460       469       595      2592      2601      2593
 -1      1036    8    0    1
 -2       324       472       599      2234      2602      2603
 -1      1037    8    0    1
 -2       324       599       444      2603      2604      2137
 -1      1038    8    0    1
 -2       467       507       597      2337      2605      2597
 -1      1039    8    0    1
 -2       582       442       483      2561      2268      2606
 -1      1040    8    0    1
 -2       446       578       600      2549      2607      2608
 -1      1041    8    0    1
 -2       446       600       584      2608      2609      2567
 -1      1042    8    0    1
 -2       459       595       594      2594      2610      2590
 -1      1043    8    0    1
 -2       484       383       582      2269      2562      2611
 -1      1044    8    0    1
 -2       468       484       598      2270      2612      2599
 -1      1045    8    0    1
 -2       359       505       595      2332      2613      2614
 -1      1046    8    0    1
 -2       505       358       504      2331      2329      2615
 -1      1047    8    0    1
 -2       445       584       483      2568      2616      2267
 -1      1048    8    0    1
 -2       507       443       598      2336      2600      2617
 -1      1049    8    0    1
 -2       470       449       601      2209      2618      2619
 -1      1050    8    0    1
 -2       449       585       601      2570      2620      2618
 -1      1051    8    0    1
 -2       427       431       567      2517      2621      2514
 -1      1052    8    0    1
 -2       588       452       589      2576      2579      2622
 -1      1053    8    0    1
 -2       431       430       567      2097      2623      2621
 -1      1054    8    0    1
 -2       440       482       577      2547      2624      2544
 -1      1055    8    0    1
 -2       450       587       585      2575      2625      2569
 -1      1056    8    0    1
 -2       448       470       602      2208      2626      2627
 -1      1057    8    0    1
 -2       448       602       586      2627      2628      2571
 -1      1058    8    0    1
 -2       322       444       603      2136      2629      2630
 -1      1059    8    0    1
 -2       579       322       603      2553      2630      2631
 -1      1060    8    0    1
 -2       444       599       603      2604      2632      2629
 -1      1061    8    0    1
 -2       580       458       594      2555      2591      2633
 -1      1062    8    0    1
 -2       596       466       604      2595      2634      2635
 -1      1063    8    0    1
 -2       466       597       604      2598      2636      2634
 -1      1064    8    0    1
 -2       592       456       593      2585      2589      2637
 -1      1065    8    0    1
 -2       590       454       591      2580      2584      2638
 -1      1066    8    0    1
 -2       587       451       588      2574      2577      2639
 -1      1067    8    0    1
 -2       469       359       595      2227      2614      2601
 -1      1068    8    0    1
 -2       567       430       570      2623      2524      2640
 -1      1069    8    0    1
 -2       593       457       605      2588      2641      2642
 -1      1070    8    0    1
 -2       457       580       605      2556      2643      2641
 -1      1071    8    0    1
 -2       465       596       508      2596      2644      2645
 -1      1072    8    0    1
 -2       508       363       464      2338      2646      2647
 -1      1073    8    0    1
 -2       465       508       464      2645      2647      2215
 -1      1074    8    0    1
 -2       464       363       362      2646      1893      2648
 -1      1075    8    0    1
 -2       464       362       463      2648      2649      2216
 -1      1076    8    0    1
 -2       474       475       606      2243      2650      2651
 -1      1077    8    0    1
 -2       473       474       607      2240      2652      2653
 -1      1078    8    0    1
 -2       474       606       607      2651      2654      2652
 -1      1079    8    0    1
 -2       476       477       608      2249      2655      2656
 -1      1080    8    0    1
 -2       477       478       609      2252      2657      2658
 -1      1081    8    0    1
 -2       477       609       608      2658      2659      2655
 -1      1082    8    0    1
 -2       478       479       610      2255      2660      2661
 -1      1083    8    0    1
 -2       478       610       609      2661      2662      2657
 -1      1084    8    0    1
 -2       479       480       611      2258      2663      2664
 -1      1085    8    0    1
 -2       610       479       611      2660      2664      2665
 -1      1086    8    0    1
 -2       480       506       611      2335      2666      2663
 -1      1087    8    0    1
 -2       485       481       612      2273      2667      2668
 -1      1088    8    0    1
 -2       595       505       594      2613      2669      2610
 -1      1089    8    0    1
 -2       486       485       613      2276      2670      2671
 -1      1090    8    0    1
 -2       485       612       613      2668      2672      2670
 -1      1091    8    0    1
 -2       487       486       614      2279      2673      2674
 -1      1092    8    0    1
 -2       486       613       614      2671      2675      2673
 -1      1093    8    0    1
 -2       488       487       615      2282      2676      2677
 -1      1094    8    0    1
 -2       487       614       615      2674      2678      2676
 -1      1095    8    0    1
 -2       489       488       616      2285      2679      2680
 -1      1096    8    0    1
 -2       488       615       616      2677      2681      2679
 -1      1097    8    0    1
 -2       490       489       617      2288      2682      2683
 -1      1098    8    0    1
 -2       489       616       617      2680      2684      2682
 -1      1099    8    0    1
 -2       491       490       618      2291      2685      2686
 -1      1100    8    0    1
 -2       490       617       618      2683      2687      2685
 -1      1101    8    0    1
 -2       492       491       619      2294      2688      2689
 -1      1102    8    0    1
 -2       491       618       619      2686      2690      2688
 -1      1103    8    0    1
 -2       493       492       620      2297      2691      2692
 -1      1104    8    0    1
 -2       492       619       620      2689      2693      2691
 -1      1105    8    0    1
 -2       494       493       621      2300      2694      2695
 -1      1106    8    0    1
 -2       493       620       621      2692      2696      2694
 -1      1107    8    0    1
 -2       495       494       622      2303      2697      2698
 -1      1108    8    0    1
 -2       494       621       622      2695      2699      2697
 -1      1109    8    0    1
 -2       496       495       623      2306      2700      2701
 -1      1110    8    0    1
 -2       495       622       623      2698      2702      2700
 -1      1111    8    0    1
 -2       497       496       624      2309      2703      2704
 -1      1112    8    0    1
 -2       496       623       624      2701      2705      2703
 -1      1113    8    0    1
 -2       498       497       625      2312      2706      2707
 -1      1114    8    0    1
 -2       497       624       625      2704      2708      2706
 -1      1115    8    0    1
 -2       499       498       626      2315      2709      2710
 -1      1116    8    0    1
 -2       498       625       626      2707      2711      2709
 -1      1117    8    0    1
 -2       500       499       627      2318      2712      2713
 -1      1118    8    0    1
 -2       499       626       627      2710      2714      2712
 -1      1119    8    0    1
 -2       501       500       628      2321      2715      2716
 -1      1120    8    0    1
 -2       500       627       628      2713      2717      2715
 -1      1121    8    0    1
 -2       502       501       629      2324      2718      2719
 -1      1122    8    0    1
 -2       501       628       629      2716      2720      2718
 -1      1123    8    0    1
 -2       503       502       630      2327      2721      2722
 -1      1124    8    0    1
 -2       502       629       630      2719      2723      2721
 -1      1125    8    0    1
 -2       504       503       631      2330      2724      2725
 -1      1126    8    0    1
 -2       503       630       631      2722      2726      2724
 -1      1127    8    0    1
 -2       472       471       632      2235      2727      2728
 -1      1128    8    0    1
 -2       362       361       463      2205      2554      2649
 -1      1129    8    0    1
 -2       598       484       633      2612      2729      2730
 -1      1130    8    0    1
 -2       510       509       634      2345      2731      2732
 -1      1131    8    0    1
 -2       511       510       635      2348      2733      2734
 -1      1132    8    0    1
 -2       512       511       636      2351      2735      2736
 -1      1133    8    0    1
 -2       511       635       636      2734      2737      2735
 -1      1134    8    0    1
 -2       513       512       637      2354      2738      2739
 -1      1135    8    0    1
 -2       512       636       637      2736      2740      2738
 -1      1136    8    0    1
 -2       514       513       638      2357      2741      2742
 -1      1137    8    0    1
 -2       513       637       638      2739      2743      2741
 -1      1138    8    0    1
 -2       515       514       639      2360      2744      2745
 -1      1139    8    0    1
 -2       514       638       639      2742      2746      2744
 -1      1140    8    0    1
 -2       516       515       640      2363      2747      2748
 -1      1141    8    0    1
 -2       515       639       640      2745      2749      2747
 -1      1142    8    0    1
 -2       517       516       641      2366      2750      2751
 -1      1143    8    0    1
 -2       516       640       641      2748      2752      2750
 -1      1144    8    0    1
 -2       518       517       642      2369      2753      2754
 -1      1145    8    0    1
 -2       517       641       642      2751      2755      2753
 -1      1146    8    0    1
 -2       519       518       643      2372      2756      2757
 -1      1147    8    0    1
 -2       518       642       643      2754      2758      2756
 -1      1148    8    0    1
 -2       520       519       644      2375      2759      2760
 -1      1149    8    0    1
 -2       519       643       644      2757      2761      2759
 -1      1150    8    0    1
 -2       521       520       645      2378      2762      2763
 -1      1151    8    0    1
 -2       520       644       645      2760      2764      2762
 -1      1152    8    0    1
 -2       522       521       646      2381      2765      2766
 -1      1153    8    0    1
 -2       521       645       646      2763      2767      2765
 -1      1154    8    0    1
 -2       523       522       647      2384      2768      2769
 -1      1155    8    0    1
 -2       522       646       647      2766      2770      2768
 -1      1156    8    0    1
 -2       507       598       648      2617      2771      2772
 -1      1157    8    0    1
 -2       529       530       649      2405      2773      2774
 -1      1158    8    0    1
 -2       527       528       650      2399      2775      2776
 -1      1159    8    0    1
 -2       530       531       651      2408      2777      2778
 -1      1160    8    0    1
 -2       530       651       649      2778      2779      2773
 -1      1161    8    0    1
 -2       531       532       652      2411      2780      2781
 -1      1162    8    0    1
 -2       531       652       651      2781      2782      2777
 -1      1163    8    0    1
 -2       532       533       653      2414      2783      2784
 -1      1164    8    0    1
 -2       532       653       652      2784      2785      2780
 -1      1165    8    0    1
 -2       533       534       654      2417      2786      2787
 -1      1166    8    0    1
 -2       533       654       653      2787      2788      2783
 -1      1167    8    0    1
 -2       534       535       655      2420      2789      2790
 -1      1168    8    0    1
 -2       534       655       654      2790      2791      2786
 -1      1169    8    0    1
 -2       535       536       656      2423      2792      2793
 -1      1170    8    0    1
 -2       535       656       655      2793      2794      2789
 -1      1171    8    0    1
 -2       536       537       657      2426      2795      2796
 -1      1172    8    0    1
 -2       536       657       656      2796      2797      2792
 -1      1173    8    0    1
 -2       537       538       658      2429      2798      2799
 -1      1174    8    0    1
 -2       537       658       657      2799      2800      2795
 -1      1175    8    0    1
 -2       538       539       659      2432      2801      2802
 -1      1176    8    0    1
 -2       538       659       658      2802      2803      2798
 -1      1177    8    0    1
 -2       539       540       660      2435      2804      2805
 -1      1178    8    0    1
 -2       539       660       659      2805      2806      2801
 -1      1179    8    0    1
 -2       540       541       661      2438      2807      2808
 -1      1180    8    0    1
 -2       540       661       660      2808      2809      2804
 -1      1181    8    0    1
 -2       541       542       662      2441      2810      2811
 -1      1182    8    0    1
 -2       541       662       661      2811      2812      2807
 -1      1183    8    0    1
 -2       542       543       663      2444      2813      2814
 -1      1184    8    0    1
 -2       542       663       662      2814      2815      2810
 -1      1185    8    0    1
 -2       543       544       664      2447      2816      2817
 -1      1186    8    0    1
 -2       543       664       663      2817      2818      2813
 -1      1187    8    0    1
 -2       544       545       665      2450      2819      2820
 -1      1188    8    0    1
 -2       544       665       664      2820      2821      2816
 -1      1189    8    0    1
 -2       545       546       666      2453      2822      2823
 -1      1190    8    0    1
 -2       545       666       665      2823      2824      2819
 -1      1191    8    0    1
 -2       546       547       667      2456      2825      2826
 -1      1192    8    0    1
 -2       546       667       666      2826      2827      2822
 -1      1193    8    0    1
 -2       547       548       668      2459      2828      2829
 -1      1194    8    0    1
 -2       547       668       667      2829      2830      2825
 -1      1195    8    0    1
 -2       548       549       669      2462      2831      2832
 -1      1196    8    0    1
 -2       548       669       668      2832      2833      2828
 -1      1197    8    0    1
 -2       549       550       670      2465      2834      2835
 -1      1198    8    0    1
 -2       549       670       669      2835      2836      2831
 -1      1199    8    0    1
 -2       550       551       671      2468      2837      2838
 -1      1200    8    0    1
 -2       550       671       670      2838      2839      2834
 -1      1201    8    0    1
 -2       551       552       672      2471      2840      2841
 -1      1202    8    0    1
 -2       551       672       671      2841      2842      2837
 -1      1203    8    0    1
 -2       552       553       673      2474      2843      2844
 -1      1204    8    0    1
 -2       552       673       672      2844      2845      2840
 -1      1205    8    0    1
 -2       553       554       674      2477      2846      2847
 -1      1206    8    0    1
 -2       553       674       673      2847      2848      2843
 -1      1207    8    0    1
 -2       554       555       675      2480      2849      2850
 -1      1208    8    0    1
 -2       554       675       674      2850      2851      2846
 -1      1209    8    0    1
 -2       555       556       676      2483      2852      2853
 -1      1210    8    0    1
 -2       555       676       675      2853      2854      2849
 -1      1211    8    0    1
 -2       556       557       677      2486      2855      2856
 -1      1212    8    0    1
 -2       556       677       676      2856      2857      2852
 -1      1213    8    0    1
 -2       557       558       678      2489      2858      2859
 -1      1214    8    0    1
 -2       557       678       677      2859      2860      2855
 -1      1215    8    0    1
 -2       558       559       679      2492      2861      2862
 -1      1216    8    0    1
 -2       558       679       678      2862      2863      2858
 -1      1217    8    0    1
 -2       559       560       680      2495      2864      2865
 -1      1218    8    0    1
 -2       559       680       679      2865      2866      2861
 -1      1219    8    0    1
 -2       560       561       681      2498      2867      2868
 -1      1220    8    0    1
 -2       560       681       680      2868      2869      2864
 -1      1221    8    0    1
 -2       561       562       682      2501      2870      2871
 -1      1222    8    0    1
 -2       561       682       681      2871      2872      2867
 -1      1223    8    0    1
 -2       562       563       683      2504      2873      2874
 -1      1224    8    0    1
 -2       562       683       682      2874      2875      2870
 -1      1225    8    0    1
 -2       563       564       684      2507      2876      2877
 -1      1226    8    0    1
 -2       563       684       683      2877      2878      2873
 -1      1227    8    0    1
 -2       564       565       685      2510      2879      2880
 -1      1228    8    0    1
 -2       564       685       684      2880      2881      2876
 -1      1229    8    0    1
 -2       565       566       686      2513      2882      2883
 -1      1230    8    0    1
 -2       565       686       685      2883      2884      2879
 -1      1231    8    0    1
 -2       566       567       687      2516      2885      2886
 -1      1232    8    0    1
 -2       686       566       687      2882      2886      2887
 -1      1233    8    0    1
 -2       567       570       687      2640      2888      2885
 -1      1234    8    0    1
 -2       588       589       688      2622      2889      2890
 -1      1235    8    0    1
 -2       572       573       689      2534      2891      2892
 -1      1236    8    0    1
 -2       568       569       690      2522      2893      2894
 -1      1237    8    0    1
 -2       573       574       691      2537      2895      2896
 -1      1238    8    0    1
 -2       573       691       689      2896      2897      2891
 -1      1239    8    0    1
 -2       569       572       692      2531      2898      2899
 -1      1240    8    0    1
 -2       690       569       692      2893      2899      2900
 -1      1241    8    0    1
 -2       572       689       692      2892      2901      2898
 -1      1242    8    0    1
 -2       574       575       693      2540      2902      2903
 -1      1243    8    0    1
 -2       574       693       691      2903      2904      2895
 -1      1244    8    0    1
 -2       575       576       694      2543      2905      2906
 -1      1245    8    0    1
 -2       575       694       693      2906      2907      2902
 -1      1246    8    0    1
 -2       576       577       695      2546      2908      2909
 -1      1247    8    0    1
 -2       576       695       694      2909      2910      2905
 -1      1248    8    0    1
 -2       585       587       696      2625      2911      2912
 -1      1249    8    0    1
 -2       481       579       697      2552      2913      2914
 -1      1250    8    0    1
 -2       612       481       697      2667      2914      2915
 -1      1251    8    0    1
 -2       579       603       697      2631      2916      2913
 -1      1252    8    0    1
 -2       597       507       698      2605      2917      2918
 -1      1253    8    0    1
 -2       475       476       699      2246      2919      2920
 -1      1254    8    0    1
 -2       606       475       699      2650      2920      2921
 -1      1255    8    0    1
 -2       476       608       699      2656      2922      2919
 -1      1256    8    0    1
 -2       582       483       700      2606      2923      2924
 -1      1257    8    0    1
 -2       484       582       701      2611      2925      2926
 -1      1258    8    0    1
 -2       577       482       702      2624      2927      2928
 -1      1259    8    0    1
 -2       587       588       703      2639      2929      2930
 -1      1260    8    0    1
 -2       578       586       704      2573      2931      2932
 -1      1261    8    0    1
 -2       589       590       705      2582      2933      2934
 -1      1262    8    0    1
 -2       590       591       706      2638      2935      2936
 -1      1263    8    0    1
 -2       590       706       705      2936      2937      2933
 -1      1264    8    0    1
 -2       591       592       707      2587      2938      2939
 -1      1265    8    0    1
 -2       580       594       708      2633      2940      2941
 -1      1266    8    0    1
 -2       594       505       708      2669      2942      2940
 -1      1267    8    0    1
 -2       528       529       709      2402      2943      2944
 -1      1268    8    0    1
 -2       528       709       650      2944      2945      2775
 -1      1269    8    0    1
 -2       592       593       710      2637      2946      2947
 -1      1270    8    0    1
 -2       483       584       711      2616      2948      2949
 -1      1271    8    0    1
 -2       483       711       700      2949      2950      2923
 -1      1272    8    0    1
 -2       473       607       712      2653      2951      2952
 -1      1273    8    0    1
 -2       473       712       583      2952      2953      2566
 -1      1274    8    0    1
 -2       698       507       648      2917      2772      2954
 -1      1275    8    0    1
 -2       581       527       713      2560      2955      2956
 -1      1276    8    0    1
 -2       527       650       713      2776      2957      2955
 -1      1277    8    0    1
 -2       600       578       704      2607      2932      2958
 -1      1278    8    0    1
 -2       505       504       708      2615      2959      2942
 -1      1279    8    0    1
 -2       472       632       714      2728      2960      2961
 -1      1280    8    0    1
 -2       472       714       599      2961      2962      2602
 -1      1281    8    0    1
 -2       635       510       634      2733      2732      2963
 -1      1282    8    0    1
 -2       634       509       604      2731      2964      2965
 -1      1283    8    0    1
 -2       601       585       715      2620      2966      2967
 -1      1284    8    0    1
 -2       585       696       715      2912      2968      2966
 -1      1285    8    0    1
 -2       482       524       702      2387      2969      2927
 -1      1286    8    0    1
 -2       648       598       633      2771      2730      2970
 -1      1287    8    0    1
 -2       524       523       716      2388      2971      2972
 -1      1288    8    0    1
 -2       702       524       716      2969      2972      2973
 -1      1289    8    0    1
 -2       523       647       716      2769      2974      2971
 -1      1290    8    0    1
 -2       526       525       717      2394      2975      2976
 -1      1291    8    0    1
 -2       529       649       709      2774      2977      2943
 -1      1292    8    0    1
 -2       688       589       705      2889      2934      2978
 -1      1293    8    0    1
 -2       687       570       718      2888      2979      2980
 -1      1294    8    0    1
 -2       570       571       718      2527      2981      2979
 -1      1295    8    0    1
 -2       593       605       710      2642      2982      2946
 -1      1296    8    0    1
 -2       711       584       719      2948      2983      2984
 -1      1297    8    0    1
 -2       584       600       719      2609      2985      2983
 -1      1298    8    0    1
 -2       717       525       720      2975      2986      2987
 -1      1299    8    0    1
 -2       525       581       720      2559      2988      2986
 -1      1300    8    0    1
 -2       695       577       702      2908      2928      2989
 -1      1301    8    0    1
 -2       696       587       703      2911      2930      2990
 -1      1302    8    0    1
 -2       591       707       706      2939      2991      2935
 -1      1303    8    0    1
 -2       602       470       601      2626      2619      2992
 -1      1304    8    0    1
 -2       701       582       721      2925      2993      2994
 -1      1305    8    0    1
 -2       582       700       721      2924      2995      2993
 -1      1306    8    0    1
 -2       604       597       722      2636      2996      2997
 -1      1307    8    0    1
 -2       634       604       722      2965      2997      2998
 -1      1308    8    0    1
 -2       597       698       722      2918      2999      2996
 -1      1309    8    0    1
 -2       484       701       633      2926      3000      2729
 -1      1310    8    0    1
 -2       704       586       723      2931      3001      3002
 -1      1311    8    0    1
 -2       586       602       723      2628      3003      3001
 -1      1312    8    0    1
 -2       471       583       724      2565      3004      3005
 -1      1313    8    0    1
 -2       632       471       724      2727      3005      3006
 -1      1314    8    0    1
 -2       583       712       724      2953      3007      3004
 -1      1315    8    0    1
 -2       703       588       688      2929      2890      3008
 -1      1316    8    0    1
 -2       708       504       631      2959      2725      3009
 -1      1317    8    0    1
 -2       571       568       725      2528      3010      3011
 -1      1318    8    0    1
 -2       718       571       725      2981      3011      3012
 -1      1319    8    0    1
 -2       568       690       725      2894      3013      3010
 -1      1320    8    0    1
 -2       509       508       604      2342      3014      2964
 -1      1321    8    0    1
 -2       605       580       708      2643      2941      3015
 -1      1322    8    0    1
 -2       707       592       710      2938      2947      3016
 -1      1323    8    0    1
 -2       609       610       726      2662      3017      3018
 -1      1324    8    0    1
 -2       608       609       727      2659      3019      3020
 -1      1325    8    0    1
 -2       609       726       727      3018      3021      3019
 -1      1326    8    0    1
 -2       611       506       526      2666      2393      3022
 -1      1327    8    0    1
 -2       636       635       728      2737      3023      3024
 -1      1328    8    0    1
 -2       650       709       729      2945      3025      3026
 -1      1329    8    0    1
 -2       613       612       730      2672      3027      3028
 -1      1330    8    0    1
 -2       614       613       731      2675      3029      3030
 -1      1331    8    0    1
 -2       613       730       731      3028      3031      3029
 -1      1332    8    0    1
 -2       615       614       732      2678      3032      3033
 -1      1333    8    0    1
 -2       614       731       732      3030      3034      3032
 -1      1334    8    0    1
 -2       616       615       733      2681      3035      3036
 -1      1335    8    0    1
 -2       615       732       733      3033      3037      3035
 -1      1336    8    0    1
 -2       617       616       734      2684      3038      3039
 -1      1337    8    0    1
 -2       616       733       734      3036      3040      3038
 -1      1338    8    0    1
 -2       618       617       735      2687      3041      3042
 -1      1339    8    0    1
 -2       617       734       735      3039      3043      3041
 -1      1340    8    0    1
 -2       619       618       736      2690      3044      3045
 -1      1341    8    0    1
 -2       618       735       736      3042      3046      3044
 -1      1342    8    0    1
 -2       620       619       737      2693      3047      3048
 -1      1343    8    0    1
 -2       619       736       737      3045      3049      3047
 -1      1344    8    0    1
 -2       621       620       738      2696      3050      3051
 -1      1345    8    0    1
 -2       620       737       738      3048      3052      3050
 -1      1346    8    0    1
 -2       622       621       739      2699      3053      3054
 -1      1347    8    0    1
 -2       621       738       739      3051      3055      3053
 -1      1348    8    0    1
 -2       623       622       740      2702      3056      3057
 -1      1349    8    0    1
 -2       622       739       740      3054      3058      3056
 -1      1350    8    0    1
 -2       624       623       741      2705      3059      3060
 -1      1351    8    0    1
 -2       623       740       741      3057      3061      3059
 -1      1352    8    0    1
 -2       625       624       742      2708      3062      3063
 -1      1353    8    0    1
 -2       624       741       742      3060      3064      3062
 -1      1354    8    0    1
 -2       626       625       743      2711      3065      3066
 -1      1355    8    0    1
 -2       625       742       743      3063      3067      3065
 -1      1356    8    0    1
 -2       627       626       744      2714      3068      3069
 -1      1357    8    0    1
 -2       626       743       744      3066      3070      3068
 -1      1358    8    0    1
 -2       628       627       745      2717      3071      3072
 -1      1359    8    0    1
 -2       627       744       745      3069      3073      3071
 -1      1360    8    0    1
 -2       629       628       746      2720      3074      3075
 -1      1361    8    0    1
 -2       628       745       746      3072      3076      3074
 -1      1362    8    0    1
 -2       630       629       747      2723      3077      3078
 -1      1363    8    0    1
 -2       629       746       747      3075      3079      3077
 -1      1364    8    0    1
 -2       631       630       748      2726      3080      3081
 -1      1365    8    0    1
 -2       630       747       748      3078      3082      3080
 -1      1366    8    0    1
 -2       526       717       611      2976      3083      3022
 -1      1367    8    0    1
 -2       637       636       749      2740      3084      3085
 -1      1368    8    0    1
 -2       636       728       749      3024      3086      3084
 -1      1369    8    0    1
 -2       638       637       750      2743      3087      3088
 -1      1370    8    0    1
 -2       637       749       750      3085      3089      3087
 -1      1371    8    0    1
 -2       639       638       751      2746      3090      3091
 -1      1372    8    0    1
 -2       638       750       751      3088      3092      3090
 -1      1373    8    0    1
 -2       640       639       752      2749      3093      3094
 -1      1374    8    0    1
 -2       639       751       752      3091      3095      3093
 -1      1375    8    0    1
 -2       641       640       753      2752      3096      3097
 -1      1376    8    0    1
 -2       640       752       753      3094      3098      3096
 -1      1377    8    0    1
 -2       642       641       754      2755      3099      3100
 -1      1378    8    0    1
 -2       641       753       754      3097      3101      3099
 -1      1379    8    0    1
 -2       643       642       755      2758      3102      3103
 -1      1380    8    0    1
 -2       642       754       755      3100      3104      3102
 -1      1381    8    0    1
 -2       644       643       756      2761      3105      3106
 -1      1382    8    0    1
 -2       643       755       756      3103      3107      3105
 -1      1383    8    0    1
 -2       645       644       757      2764      3108      3109
 -1      1384    8    0    1
 -2       644       756       757      3106      3110      3108
 -1      1385    8    0    1
 -2       646       645       758      2767      3111      3112
 -1      1386    8    0    1
 -2       645       757       758      3109      3113      3111
 -1      1387    8    0    1
 -2       647       646       759      2770      3114      3115
 -1      1388    8    0    1
 -2       646       758       759      3112      3116      3114
 -1      1389    8    0    1
 -2       709       649       760      2977      3117      3118
 -1      1390    8    0    1
 -2       709       760       729      3118      3119      3025
 -1      1391    8    0    1
 -2       600       704       761      2958      3120      3121
 -1      1392    8    0    1
 -2       649       651       762      2779      3122      3123
 -1      1393    8    0    1
 -2       649       762       760      3123      3124      3117
 -1      1394    8    0    1
 -2       653       654       763      2788      3125      3126
 -1      1395    8    0    1
 -2       654       655       764      2791      3127      3128
 -1      1396    8    0    1
 -2       654       764       763      3128      3129      3125
 -1      1397    8    0    1
 -2       655       656       765      2794      3130      3131
 -1      1398    8    0    1
 -2       655       765       764      3131      3132      3127
 -1      1399    8    0    1
 -2       656       657       766      2797      3133      3134
 -1      1400    8    0    1
 -2       656       766       765      3134      3135      3130
 -1      1401    8    0    1
 -2       657       658       767      2800      3136      3137
 -1      1402    8    0    1
 -2       657       767       766      3137      3138      3133
 -1      1403    8    0    1
 -2       658       659       768      2803      3139      3140
 -1      1404    8    0    1
 -2       658       768       767      3140      3141      3136
 -1      1405    8    0    1
 -2       659       660       769      2806      3142      3143
 -1      1406    8    0    1
 -2       659       769       768      3143      3144      3139
 -1      1407    8    0    1
 -2       660       661       770      2809      3145      3146
 -1      1408    8    0    1
 -2       660       770       769      3146      3147      3142
 -1      1409    8    0    1
 -2       661       662       771      2812      3148      3149
 -1      1410    8    0    1
 -2       661       771       770      3149      3150      3145
 -1      1411    8    0    1
 -2       662       663       772      2815      3151      3152
 -1      1412    8    0    1
 -2       662       772       771      3152      3153      3148
 -1      1413    8    0    1
 -2       663       664       773      2818      3154      3155
 -1      1414    8    0    1
 -2       663       773       772      3155      3156      3151
 -1      1415    8    0    1
 -2       664       665       774      2821      3157      3158
 -1      1416    8    0    1
 -2       664       774       773      3158      3159      3154
 -1      1417    8    0    1
 -2       665       666       775      2824      3160      3161
 -1      1418    8    0    1
 -2       665       775       774      3161      3162      3157
 -1      1419    8    0    1
 -2       666       667       776      2827      3163      3164
 -1      1420    8    0    1
 -2       666       776       775      3164      3165      3160
 -1      1421    8    0    1
 -2       667       668       777      2830      3166      3167
 -1      1422    8    0    1
 -2       667       777       776      3167      3168      3163
 -1      1423    8    0    1
 -2       668       669       778      2833      3169      3170
 -1      1424    8    0    1
 -2       668       778       777      3170      3171      3166
 -1      1425    8    0    1
 -2       669       670       779      2836      3172      3173
 -1      1426    8    0    1
 -2       669       779       778      3173      3174      3169
 -1      1427    8    0    1
 -2       670       671       780      2839      3175      3176
 -1      1428    8    0    1
 -2       670       780       779      3176      3177      3172
 -1      1429    8    0    1
 -2       671       672       781      2842      3178      3179
 -1      1430    8    0    1
 -2       671       781       780      3179      3180      3175
 -1      1431    8    0    1
 -2       672       673       782      2845      3181      3182
 -1      1432    8    0    1
 -2       672       782       781      3182      3183      3178
 -1      1433    8    0    1
 -2       673       674       783      2848      3184      3185
 -1      1434    8    0    1
 -2       673       783       782      3185      3186      3181
 -1      1435    8    0    1
 -2       674       675       784      2851      3187      3188
 -1      1436    8    0    1
 -2       674       784       783      3188      3189      3184
 -1      1437    8    0    1
 -2       675       676       785      2854      3190      3191
 -1      1438    8    0    1
 -2       675       785       784      3191      3192      3187
 -1      1439    8    0    1
 -2       676       677       786      2857      3193      3194
 -1      1440    8    0    1
 -2       676       786       785      3194      3195      3190
 -1      1441    8    0    1
 -2       677       678       787      2860      3196      3197
 -1      1442    8    0    1
 -2       677       787       786      3197      3198      3193
 -1      1443    8    0    1
 -2       678       679       788      2863      3199      3200
 -1      1444    8    0    1
 -2       678       788       787      3200      3201      3196
 -1      1445    8    0    1
 -2       679       680       789      2866      3202      3203
 -1      1446    8    0    1
 -2       679       789       788      3203      3204      3199
 -1      1447    8    0    1
 -2       680       681       790      2869      3205      3206
 -1      1448    8    0    1
 -2       680       790       789      3206      3207      3202
 -1      1449    8    0    1
 -2       681       682       791      2872      3208      3209
 -1      1450    8    0    1
 -2       681       791       790      3209      3210      3205
 -1      1451    8    0    1
 -2       682       683       792      2875      3211      3212
 -1      1452    8    0    1
 -2       682       792       791      3212      3213      3208
 -1      1453    8    0    1
 -2       683       684       793      2878      3214      3215
 -1      1454    8    0    1
 -2       683       793       792      3215      3216      3211
 -1      1455    8    0    1
 -2       684       685       794      2881      3217      3218
 -1      1456    8    0    1
 -2       684       794       793      3218      3219      3214
 -1      1457    8    0    1
 -2       685       686       795      2884      3220      3221
 -1      1458    8    0    1
 -2       685       795       794      3221      3222      3217
 -1      1459    8    0    1
 -2       686       687       796      2887      3223      3224
 -1      1460    8    0    1
 -2       795       686       796      3220      3224      3225
 -1      1461    8    0    1
 -2       687       718       796      2980      3226      3223
 -1      1462    8    0    1
 -2       691       693       797      2904      3227      3228
 -1      1463    8    0    1
 -2       689       691       798      2897      3229      3230
 -1      1464    8    0    1
 -2       691       797       798      3228      3231      3229
 -1      1465    8    0    1
 -2       603       599       799      2632      3232      3233
 -1      1466    8    0    1
 -2       697       603       799      2916      3233      3234
 -1      1467    8    0    1
 -2       599       714       799      2962      3235      3232
 -1      1468    8    0    1
 -2       602       601       800      2992      3236      3237
 -1      1469    8    0    1
 -2       633       701       801      3000      3238      3239
 -1      1470    8    0    1
 -2       695       702       802      2989      3240      3241
 -1      1471    8    0    1
 -2       702       716       802      2973      3242      3240
 -1      1472    8    0    1
 -2       607       606       803      2654      3243      3244
 -1      1473    8    0    1
 -2       696       703       804      2990      3245      3246
 -1      1474    8    0    1
 -2       698       648       805      2954      3247      3248
 -1      1475    8    0    1
 -2       648       633       806      2970      3249      3250
 -1      1476    8    0    1
 -2       706       707       807      2991      3251      3252
 -1      1477    8    0    1
 -2       693       694       808      2907      3253      3254
 -1      1478    8    0    1
 -2       693       808       797      3254      3255      3227
 -1      1479    8    0    1
 -2       652       653       809      2785      3256      3257
 -1      1480    8    0    1
 -2       653       763       809      3126      3258      3256
 -1      1481    8    0    1
 -2       694       695       810      2910      3259      3260
 -1      1482    8    0    1
 -2       808       694       810      3253      3260      3261
 -1      1483    8    0    1
 -2       695       802       810      3241      3262      3259
 -1      1484    8    0    1
 -2       705       706       811      2937      3263      3264
 -1      1485    8    0    1
 -2       707       710       812      3016      3265      3266
 -1      1486    8    0    1
 -2       508       596       604      2644      2635      3014
 -1      1487    8    0    1
 -2       688       705       813      2978      3267      3268
 -1      1488    8    0    1
 -2       651       652       814      2782      3269      3270
 -1      1489    8    0    1
 -2       652       809       814      3257      3271      3269
 -1      1490    8    0    1
 -2       703       688       815      3008      3272      3273
 -1      1491    8    0    1
 -2       688       813       815      3268      3274      3272
 -1      1492    8    0    1
 -2       700       711       816      2950      3275      3276
 -1      1493    8    0    1
 -2       608       727       817      3020      3277      3278
 -1      1494    8    0    1
 -2       608       817       699      3278      3279      2922
 -1      1495    8    0    1
 -2       600       761       719      3121      3280      2985
 -1      1496    8    0    1
 -2       713       650       818      2957      3281      3282
 -1      1497    8    0    1
 -2       650       729       818      3026      3283      3281
 -1      1498    8    0    1
 -2       728       635       805      3023      3284      3285
 -1      1499    8    0    1
 -2       611       717       726      3083      3286      3287
 -1      1500    8    0    1
 -2       714       632       819      2960      3288      3289
 -1      1501    8    0    1
 -2       762       651       814      3122      3270      3290
 -1      1502    8    0    1
 -2       804       703       820      3245      3291      3292
 -1      1503    8    0    1
 -2       703       815       820      3273      3293      3291
 -1      1504    8    0    1
 -2       715       696       821      2968      3294      3295
 -1      1505    8    0    1
 -2       696       804       821      3246      3296      3294
 -1      1506    8    0    1
 -2       605       708       631      3015      3009      3297
 -1      1507    8    0    1
 -2       601       715       800      2967      3298      3236
 -1      1508    8    0    1
 -2       806       633       801      3249      3239      3299
 -1      1509    8    0    1
 -2       581       713       720      2956      3300      2988
 -1      1510    8    0    1
 -2       716       647       822      2974      3301      3302
 -1      1511    8    0    1
 -2       802       716       822      3242      3302      3303
 -1      1512    8    0    1
 -2       647       759       822      3115      3304      3301
 -1      1513    8    0    1
 -2       761       704       823      3120      3305      3306
 -1      1514    8    0    1
 -2       704       723       823      3002      3307      3305
 -1      1515    8    0    1
 -2       690       692       824      2900      3308      3309
 -1      1516    8    0    1
 -2       700       816       825      3276      3310      3311
 -1      1517    8    0    1
 -2       700       825       721      3311      3312      2995
 -1      1518    8    0    1
 -2       692       689       826      2901      3313      3314
 -1      1519    8    0    1
 -2       824       692       826      3308      3314      3315
 -1      1520    8    0    1
 -2       689       798       826      3230      3316      3313
 -1      1521    8    0    1
 -2       710       605       631      2982      3297      3317
 -1      1522    8    0    1
 -2       819       632       827      3288      3318      3319
 -1      1523    8    0    1
 -2       632       724       827      3006      3320      3318
 -1      1524    8    0    1
 -2       602       800       723      3237      3321      3003
 -1      1525    8    0    1
 -2       612       697       799      2915      3234      3322
 -1      1526    8    0    1
 -2       811       706       807      3263      3252      3323
 -1      1527    8    0    1
 -2       801       701       828      3238      3324      3325
 -1      1528    8    0    1
 -2       701       721       828      2994      3326      3324
 -1      1529    8    0    1
 -2       606       699       829      2921      3327      3328
 -1      1530    8    0    1
 -2       803       606       829      3243      3328      3329
 -1      1531    8    0    1
 -2       699       817       829      3279      3330      3327
 -1      1532    8    0    1
 -2       705       811       813      3264      3331      3267
 -1      1533    8    0    1
 -2       807       707       812      3251      3266      3332
 -1      1534    8    0    1
 -2       612       799       730      3322      3333      3027
 -1      1535    8    0    1
 -2       648       806       805      3250      3334      3247
 -1      1536    8    0    1
 -2       607       803       830      3244      3335      3336
 -1      1537    8    0    1
 -2       607       830       712      3336      3337      2951
 -1      1538    8    0    1
 -2       690       824       831      3309      3338      3339
 -1      1539    8    0    1
 -2       690       831       725      3339      3340      3013
 -1      1540    8    0    1
 -2       812       710       748      3265      3341      3342
 -1      1541    8    0    1
 -2       635       634       805      2963      3343      3284
 -1      1542    8    0    1
 -2       717       720       832      2987      3344      3345
 -1      1543    8    0    1
 -2       717       832       726      3345      3346      3286
 -1      1544    8    0    1
 -2       711       719       833      2984      3347      3348
 -1      1545    8    0    1
 -2       711       833       816      3348      3349      3275
 -1      1546    8    0    1
 -2       710       631       748      3317      3081      3341
 -1      1547    8    0    1
 -2       728       805       834      3285      3350      3351
 -1      1548    8    0    1
 -2       805       806       834      3334      3352      3350
 -1      1549    8    0    1
 -2       762       814       835      3290      3353      3354
 -1      1550    8    0    1
 -2       732       731       836      3034      3355      3356
 -1      1551    8    0    1
 -2       733       732       837      3037      3357      3358
 -1      1552    8    0    1
 -2       732       836       837      3356      3359      3357
 -1      1553    8    0    1
 -2       734       733       838      3040      3360      3361
 -1      1554    8    0    1
 -2       733       837       838      3358      3362      3360
 -1      1555    8    0    1
 -2       735       734       839      3043      3363      3364
 -1      1556    8    0    1
 -2       734       838       839      3361      3365      3363
 -1      1557    8    0    1
 -2       736       735       840      3046      3366      3367
 -1      1558    8    0    1
 -2       735       839       840      3364      3368      3366
 -1      1559    8    0    1
 -2       737       736       841      3049      3369      3370
 -1      1560    8    0    1
 -2       736       840       841      3367      3371      3369
 -1      1561    8    0    1
 -2       738       737       842      3052      3372      3373
 -1      1562    8    0    1
 -2       737       841       842      3370      3374      3372
 -1      1563    8    0    1
 -2       739       738       843      3055      3375      3376
 -1      1564    8    0    1
 -2       738       842       843      3373      3377      3375
 -1      1565    8    0    1
 -2       740       739       844      3058      3378      3379
 -1      1566    8    0    1
 -2       739       843       844      3376      3380      3378
 -1      1567    8    0    1
 -2       741       740       845      3061      3381      3382
 -1      1568    8    0    1
 -2       740       844       845      3379      3383      3381
 -1      1569    8    0    1
 -2       742       741       846      3064      3384      3385
 -1      1570    8    0    1
 -2       741       845       846      3382      3386      3384
 -1      1571    8    0    1
 -2       743       742       847      3067      3387      3388
 -1      1572    8    0    1
 -2       742       846       847      3385      3389      3387
 -1      1573    8    0    1
 -2       744       743       848      3070      3390      3391
 -1      1574    8    0    1
 -2       743       847       848      3388      3392      3390
 -1      1575    8    0    1
 -2       745       744       849      3073      3393      3394
 -1      1576    8    0    1
 -2       744       848       849      3391      3395      3393
 -1      1577    8    0    1
 -2       746       745       850      3076      3396      3397
 -1      1578    8    0    1
 -2       745       849       850      3394      3398      3396
 -1      1579    8    0    1
 -2       747       746       851      3079      3399      3400
 -1      1580    8    0    1
 -2       746       850       851      3397      3401      3399
 -1      1581    8    0    1
 -2       748       747       852      3082      3402      3403
 -1      1582    8    0    1
 -2       812       748       852      3342      3403      3404
 -1      1583    8    0    1
 -2       747       851       852      3400      3405      3402
 -1      1584    8    0    1
 -2       749       728       834      3086      3351      3406
 -1      1585    8    0    1
 -2       750       749       853      3089      3407      3408
 -1      1586    8    0    1
 -2       751       750       854      3092      3409      3410
 -1      1587    8    0    1
 -2       750       853       854      3408      3411      3409
 -1      1588    8    0    1
 -2       752       751       855      3095      3412      3413
 -1      1589    8    0    1
 -2       751       854       855      3410      3414      3412
 -1      1590    8    0    1
 -2       753       752       856      3098      3415      3416
 -1      1591    8    0    1
 -2       752       855       856      3413      3417      3415
 -1      1592    8    0    1
 -2       754       753       857      3101      3418      3419
 -1      1593    8    0    1
 -2       753       856       857      3416      3420      3418
 -1      1594    8    0    1
 -2       755       754       858      3104      3421      3422
 -1      1595    8    0    1
 -2       754       857       858      3419      3423      3421
 -1      1596    8    0    1
 -2       756       755       859      3107      3424      3425
 -1      1597    8    0    1
 -2       755       858       859      3422      3426      3424
 -1      1598    8    0    1
 -2       757       756       860      3110      3427      3428
 -1      1599    8    0    1
 -2       756       859       860      3425      3429      3427
 -1      1600    8    0    1
 -2       758       757       861      3113      3430      3431
 -1      1601    8    0    1
 -2       757       860       861      3428      3432      3430
 -1      1602    8    0    1
 -2       759       758       862      3116      3433      3434
 -1      1603    8    0    1
 -2       758       861       862      3431      3435      3433
 -1      1604    8    0    1
 -2       729       760       863      3119      3436      3437
 -1      1605    8    0    1
 -2       760       762       864      3124      3438      3439
 -1      1606    8    0    1
 -2       863       760       864      3436      3439      3440
 -1      1607    8    0    1
 -2       762       835       864      3354      3441      3438
 -1      1608    8    0    1
 -2       764       765       865      3132      3442      3443
 -1      1609    8    0    1
 -2       763       764       866      3129      3444      3445
 -1      1610    8    0    1
 -2       764       865       866      3443      3446      3444
 -1      1611    8    0    1
 -2       766       767       867      3138      3447      3448
 -1      1612    8    0    1
 -2       767       768       868      3141      3449      3450
 -1      1613    8    0    1
 -2       767       868       867      3450      3451      3447
 -1      1614    8    0    1
 -2       768       769       869      3144      3452      3453
 -1      1615    8    0    1
 -2       768       869       868      3453      3454      3449
 -1      1616    8    0    1
 -2       769       770       870      3147      3455      3456
 -1      1617    8    0    1
 -2       769       870       869      3456      3457      3452
 -1      1618    8    0    1
 -2       770       771       871      3150      3458      3459
 -1      1619    8    0    1
 -2       770       871       870      3459      3460      3455
 -1      1620    8    0    1
 -2       771       772       872      3153      3461      3462
 -1      1621    8    0    1
 -2       771       872       871      3462      3463      3458
 -1      1622    8    0    1
 -2       772       773       873      3156      3464      3465
 -1      1623    8    0    1
 -2       772       873       872      3465      3466      3461
 -1      1624    8    0    1
 -2       773       774       874      3159      3467      3468
 -1      1625    8    0    1
 -2       773       874       873      3468      3469      3464
 -1      1626    8    0    1
 -2       774       775       875      3162      3470      3471
 -1      1627    8    0    1
 -2       774       875       874      3471      3472      3467
 -1      1628    8    0    1
 -2       775       776       876      3165      3473      3474
 -1      1629    8    0    1
 -2       775       876       875      3474      3475      3470
 -1      1630    8    0    1
 -2       776       777       877      3168      3476      3477
 -1      1631    8    0    1
 -2       776       877       876      3477      3478      3473
 -1      1632    8    0    1
 -2       777       778       878      3171      3479      3480
 -1      1633    8    0    1
 -2       777       878       877      3480      3481      3476
 -1      1634    8    0    1
 -2       778       779       879      3174      3482      3483
 -1      1635    8    0    1
 -2       778       879       878      3483      3484      3479
 -1      1636    8    0    1
 -2       779       780       880      3177      3485      3486
 -1      1637    8    0    1
 -2       779       880       879      3486      3487      3482
 -1      1638    8    0    1
 -2       780       781       881      3180      3488      3489
 -1      1639    8    0    1
 -2       780       881       880      3489      3490      3485
 -1      1640    8    0    1
 -2       781       782       882      3183      3491      3492
 -1      1641    8    0    1
 -2       781       882       881      3492      3493      3488
 -1      1642    8    0    1
 -2       782       783       883      3186      3494      3495
 -1      1643    8    0    1
 -2       782       883       882      3495      3496      3491
 -1      1644    8    0    1
 -2       783       784       884      3189      3497      3498
 -1      1645    8    0    1
 -2       783       884       883      3498      3499      3494
 -1      1646    8    0    1
 -2       784       785       885      3192      3500      3501
 -1      1647    8    0    1
 -2       784       885       884      3501      3502      3497
 -1      1648    8    0    1
 -2       785       786       886      3195      3503      3504
 -1      1649    8    0    1
 -2       785       886       885      3504      3505      3500
 -1      1650    8    0    1
 -2       786       787       887      3198      3506      3507
 -1      1651    8    0    1
 -2       786       887       886      3507      3508      3503
 -1      1652    8    0    1
 -2       787       788       888      3201      3509      3510
 -1      1653    8    0    1
 -2       787       888       887      3510      3511      3506
 -1      1654    8    0    1
 -2       788       789       889      3204      3512      3513
 -1      1655    8    0    1
 -2       788       889       888      3513      3514      3509
 -1      1656    8    0    1
 -2       789       790       890      3207      3515      3516
 -1      1657    8    0    1
 -2       789       890       889      3516      3517      3512
 -1      1658    8    0    1
 -2       790       791       891      3210      3518      3519
 -1      1659    8    0    1
 -2       790       891       890      3519      3520      3515
 -1      1660    8    0    1
 -2       791       792       892      3213      3521      3522
 -1      1661    8    0    1
 -2       791       892       891      3522      3523      3518
 -1      1662    8    0    1
 -2       792       793       893      3216      3524      3525
 -1      1663    8    0    1
 -2       792       893       892      3525      3526      3521
 -1      1664    8    0    1
 -2       793       794       894      3219      3527      3528
 -1      1665    8    0    1
 -2       793       894       893      3528      3529      3524
 -1      1666    8    0    1
 -2       794       795       895      3222      3530      3531
 -1      1667    8    0    1
 -2       794       895       894      3531      3532      3527
 -1      1668    8    0    1
 -2       798       797       896      3231      3533      3534
 -1      1669    8    0    1
 -2       799       714       730      3235      3535      3333
 -1      1670    8    0    1
 -2       806       801       897      3299      3536      3537
 -1      1671    8    0    1
 -2       806       897       834      3537      3538      3352
 -1      1672    8    0    1
 -2       719       761       898      3280      3539      3540
 -1      1673    8    0    1
 -2       719       898       833      3540      3541      3347
 -1      1674    8    0    1
 -2       720       713       899      3300      3542      3543
 -1      1675    8    0    1
 -2       724       712       900      3007      3544      3545
 -1      1676    8    0    1
 -2       724       900       827      3545      3546      3320
 -1      1677    8    0    1
 -2       723       800       901      3321      3547      3548
 -1      1678    8    0    1
 -2       797       808       902      3255      3549      3550
 -1      1679    8    0    1
 -2       797       902       896      3550      3551      3533
 -1      1680    8    0    1
 -2       811       807       903      3323      3552      3553
 -1      1681    8    0    1
 -2       809       763       904      3258      3554      3555
 -1      1682    8    0    1
 -2       763       866       904      3445      3556      3554
 -1      1683    8    0    1
 -2       765       766       905      3135      3557      3558
 -1      1684    8    0    1
 -2       865       765       905      3442      3558      3559
 -1      1685    8    0    1
 -2       766       867       905      3448      3560      3557
 -1      1686    8    0    1
 -2       727       726       832      3021      3346      3561
 -1      1687    8    0    1
 -2       814       809       906      3271      3562      3563
 -1      1688    8    0    1
 -2       809       904       906      3555      3564      3562
 -1      1689    8    0    1
 -2       807       812       907      3332      3565      3566
 -1      1690    8    0    1
 -2       903       807       907      3552      3566      3567
 -1      1691    8    0    1
 -2       812       852       907      3404      3568      3565
 -1      1692    8    0    1
 -2       610       611       726      2665      3287      3017
 -1      1693    8    0    1
 -2       815       813       908      3274      3569      3570
 -1      1694    8    0    1
 -2       718       725       909      3012      3571      3572
 -1      1695    8    0    1
 -2       796       718       909      3226      3572      3573
 -1      1696    8    0    1
 -2       725       831       909      3340      3574      3571
 -1      1697    8    0    1
 -2       813       811       910      3331      3575      3576
 -1      1698    8    0    1
 -2       800       715       911      3298      3577      3578
 -1      1699    8    0    1
 -2       730       714       819      3535      3289      3579
 -1      1700    8    0    1
 -2       730       819       731      3579      3580      3031
 -1      1701    8    0    1
 -2       731       819       836      3580      3581      3355
 -1      1702    8    0    1
 -2       816       833       912      3349      3582      3583
 -1      1703    8    0    1
 -2       816       912       825      3583      3584      3310
 -1      1704    8    0    1
 -2       818       729       913      3283      3585      3586
 -1      1705    8    0    1
 -2       729       863       913      3437      3587      3585
 -1      1706    8    0    1
 -2       814       906       835      3563      3588      3353
 -1      1707    8    0    1
 -2       908       813       910      3569      3576      3589
 -1      1708    8    0    1
 -2       749       834       853      3406      3590      3407
 -1      1709    8    0    1
 -2       820       815       908      3293      3570      3591
 -1      1710    8    0    1
 -2       821       804       914      3296      3592      3593
 -1      1711    8    0    1
 -2       804       820       914      3292      3594      3592
 -1      1712    8    0    1
 -2       822       759       915      3304      3595      3596
 -1      1713    8    0    1
 -2       759       862       915      3434      3597      3595
 -1      1714    8    0    1
 -2       808       810       916      3261      3598      3599
 -1      1715    8    0    1
 -2       808       916       902      3599      3600      3549
 -1      1716    8    0    1
 -2       798       896       917      3534      3601      3602
 -1      1717    8    0    1
 -2       798       917       826      3602      3603      3316
 -1      1718    8    0    1
 -2       811       903       910      3553      3604      3575
 -1      1719    8    0    1
 -2       795       796       909      3225      3573      3605
 -1      1720    8    0    1
 -2       715       821       911      3295      3606      3577
 -1      1721    8    0    1
 -2       795       909       895      3605      3607      3530
 -1      1722    8    0    1
 -2       721       825       918      3312      3608      3609
 -1      1723    8    0    1
 -2       721       918       828      3609      3610      3326
 -1      1724    8    0    1
 -2       713       818       899      3282      3611      3542
 -1      1725    8    0    1
 -2       897       801       919      3536      3612      3613
 -1      1726    8    0    1
 -2       801       828       919      3325      3614      3612
 -1      1727    8    0    1
 -2       723       901       920      3548      3615      3616
 -1      1728    8    0    1
 -2       723       920       823      3616      3617      3307
 -1      1729    8    0    1
 -2       898       761       921      3539      3618      3619
 -1      1730    8    0    1
 -2       761       823       921      3306      3620      3618
 -1      1731    8    0    1
 -2       802       822       915      3303      3596      3621
 -1      1732    8    0    1
 -2       824       826       922      3315      3622      3623
 -1      1733    8    0    1
 -2       826       917       922      3603      3624      3622
 -1      1734    8    0    1
 -2       722       698       805      2999      3248      3625
 -1      1735    8    0    1
 -2       900       712       830      3544      3337      3626
 -1      1736    8    0    1
 -2       901       800       911      3547      3578      3627
 -1      1737    8    0    1
 -2       830       803       923      3335      3628      3629
 -1      1738    8    0    1
 -2       831       824       924      3338      3630      3631
 -1      1739    8    0    1
 -2       824       922       924      3623      3632      3630
 -1      1740    8    0    1
 -2       727       832       925      3561      3633      3634
 -1      1741    8    0    1
 -2       810       802       915      3262      3621      3635
 -1      1742    8    0    1
 -2       817       727       925      3277      3634      3636
 -1      1743    8    0    1
 -2       832       720       899      3344      3543      3637
 -1      1744    8    0    1
 -2       803       829       926      3329      3638      3639
 -1      1745    8    0    1
 -2       803       926       923      3639      3640      3628
 -1      1746    8    0    1
 -2       908       910       927      3589      3641      3642
 -1      1747    8    0    1
 -2       833       898       928      3541      3643      3644
 -1      1748    8    0    1
 -2       838       837       929      3362      3645      3646
 -1      1749    8    0    1
 -2       839       838       930      3365      3647      3648
 -1      1750    8    0    1
 -2       838       929       930      3646      3649      3647
 -1      1751    8    0    1
 -2       840       839       931      3368      3650      3651
 -1      1752    8    0    1
 -2       839       930       931      3648      3652      3650
 -1      1753    8    0    1
 -2       841       840       932      3371      3653      3654
 -1      1754    8    0    1
 -2       840       931       932      3651      3655      3653
 -1      1755    8    0    1
 -2       842       841       933      3374      3656      3657
 -1      1756    8    0    1
 -2       841       932       933      3654      3658      3656
 -1      1757    8    0    1
 -2       843       842       934      3377      3659      3660
 -1      1758    8    0    1
 -2       842       933       934      3657      3661      3659
 -1      1759    8    0    1
 -2       844       843       935      3380      3662      3663
 -1      1760    8    0    1
 -2       843       934       935      3660      3664      3662
 -1      1761    8    0    1
 -2       845       844       936      3383      3665      3666
 -1      1762    8    0    1
 -2       844       935       936      3663      3667      3665
 -1      1763    8    0    1
 -2       846       845       937      3386      3668      3669
 -1      1764    8    0    1
 -2       845       936       937      3666      3670      3668
 -1      1765    8    0    1
 -2       847       846       938      3389      3671      3672
 -1      1766    8    0    1
 -2       846       937       938      3669      3673      3671
 -1      1767    8    0    1
 -2       848       847       939      3392      3674      3675
 -1      1768    8    0    1
 -2       847       938       939      3672      3676      3674
 -1      1769    8    0    1
 -2       849       848       940      3395      3677      3678
 -1      1770    8    0    1
 -2       848       939       940      3675      3679      3677
 -1      1771    8    0    1
 -2       850       849       941      3398      3680      3681
 -1      1772    8    0    1
 -2       849       940       941      3678      3682      3680
 -1      1773    8    0    1
 -2       851       850       942      3401      3683      3684
 -1      1774    8    0    1
 -2       850       941       942      3681      3685      3683
 -1      1775    8    0    1
 -2       852       851       943      3405      3686      3687
 -1      1776    8    0    1
 -2       907       852       943      3568      3687      3688
 -1      1777    8    0    1
 -2       851       942       943      3684      3689      3686
 -1      1778    8    0    1
 -2       820       908       944      3591      3690      3691
 -1      1779    8    0    1
 -2       855       854       945      3414      3692      3693
 -1      1780    8    0    1
 -2       856       855       946      3417      3694      3695
 -1      1781    8    0    1
 -2       855       945       946      3693      3696      3694
 -1      1782    8    0    1
 -2       857       856       947      3420      3697      3698
 -1      1783    8    0    1
 -2       856       946       947      3695      3699      3697
 -1      1784    8    0    1
 -2       858       857       948      3423      3700      3701
 -1      1785    8    0    1
 -2       857       947       948      3698      3702      3700
 -1      1786    8    0    1
 -2       859       858       949      3426      3703      3704
 -1      1787    8    0    1
 -2       858       948       949      3701      3705      3703
 -1      1788    8    0    1
 -2       860       859       950      3429      3706      3707
 -1      1789    8    0    1
 -2       859       949       950      3704      3708      3706
 -1      1790    8    0    1
 -2       861       860       951      3432      3709      3710
 -1      1791    8    0    1
 -2       860       950       951      3707      3711      3709
 -1      1792    8    0    1
 -2       862       861       952      3435      3712      3713
 -1      1793    8    0    1
 -2       861       951       952      3710      3714      3712
 -1      1794    8    0    1
 -2       866       865       953      3446      3715      3716
 -1      1795    8    0    1
 -2       868       869       954      3454      3717      3718
 -1      1796    8    0    1
 -2       867       868       955      3451      3719      3720
 -1      1797    8    0    1
 -2       868       954       955      3718      3721      3719
 -1      1798    8    0    1
 -2       870       871       956      3460      3722      3723
 -1      1799    8    0    1
 -2       871       872       957      3463      3724      3725
 -1      1800    8    0    1
 -2       871       957       956      3725      3726      3722
 -1      1801    8    0    1
 -2       872       873       958      3466      3727      3728
 -1      1802    8    0    1
 -2       872       958       957      3728      3729      3724
 -1      1803    8    0    1
 -2       873       874       959      3469      3730      3731
 -1      1804    8    0    1
 -2       873       959       958      3731      3732      3727
 -1      1805    8    0    1
 -2       874       875       960      3472      3733      3734
 -1      1806    8    0    1
 -2       874       960       959      3734      3735      3730
 -1      1807    8    0    1
 -2       875       876       961      3475      3736      3737
 -1      1808    8    0    1
 -2       875       961       960      3737      3738      3733
 -1      1809    8    0    1
 -2       876       877       962      3478      3739      3740
 -1      1810    8    0    1
 -2       876       962       961      3740      3741      3736
 -1      1811    8    0    1
 -2       877       878       963      3481      3742      3743
 -1      1812    8    0    1
 -2       877       963       962      3743      3744      3739
 -1      1813    8    0    1
 -2       878       879       920      3484      3745      3746
 -1      1814    8    0    1
 -2       880       881       964      3490      3747      3748
 -1      1815    8    0    1
 -2       881       882       965      3493      3749      3750
 -1      1816    8    0    1
 -2       881       965       964      3750      3751      3747
 -1      1817    8    0    1
 -2       882       883       966      3496      3752      3753
 -1      1818    8    0    1
 -2       882       966       965      3753      3754      3749
 -1      1819    8    0    1
 -2       883       884       967      3499      3755      3756
 -1      1820    8    0    1
 -2       883       967       966      3756      3757      3752
 -1      1821    8    0    1
 -2       884       885       968      3502      3758      3759
 -1      1822    8    0    1
 -2       884       968       967      3759      3760      3755
 -1      1823    8    0    1
 -2       885       886       969      3505      3761      3762
 -1      1824    8    0    1
 -2       885       969       968      3762      3763      3758
 -1      1825    8    0    1
 -2       886       887       970      3508      3764      3765
 -1      1826    8    0    1
 -2       886       970       969      3765      3766      3761
 -1      1827    8    0    1
 -2       887       888       971      3511      3767      3768
 -1      1828    8    0    1
 -2       887       971       970      3768      3769      3764
 -1      1829    8    0    1
 -2       888       889       972      3514      3770      3771
 -1      1830    8    0    1
 -2       888       972       971      3771      3772      3767
 -1      1831    8    0    1
 -2       889       890       973      3517      3773      3774
 -1      1832    8    0    1
 -2       889       973       972      3774      3775      3770
 -1      1833    8    0    1
 -2       890       891       974      3520      3776      3777
 -1      1834    8    0    1
 -2       890       974       973      3777      3778      3773
 -1      1835    8    0    1
 -2       891       892       975      3523      3779      3780
 -1      1836    8    0    1
 -2       891       975       974      3780      3781      3776
 -1      1837    8    0    1
 -2       892       893       976      3526      3782      3783
 -1      1838    8    0    1
 -2       892       976       975      3783      3784      3779
 -1      1839    8    0    1
 -2       893       894       977      3529      3785      3786
 -1      1840    8    0    1
 -2       893       977       976      3786      3787      3782
 -1      1841    8    0    1
 -2       836       819       978      3581      3788      3789
 -1      1842    8    0    1
 -2       910       903       979      3604      3790      3791
 -1      1843    8    0    1
 -2       910       979       927      3791      3792      3641
 -1      1844    8    0    1
 -2       899       818       980      3611      3793      3794
 -1      1845    8    0    1
 -2       829       817       981      3330      3795      3796
 -1      1846    8    0    1
 -2       829       981       926      3796      3797      3638
 -1      1847    8    0    1
 -2       904       866       982      3556      3798      3799
 -1      1848    8    0    1
 -2       866       953       982      3716      3800      3798
 -1      1849    8    0    1
 -2       819       827       978      3319      3801      3788
 -1      1850    8    0    1
 -2       900       830       983      3626      3802      3803
 -1      1851    8    0    1
 -2       830       923       983      3629      3804      3802
 -1      1852    8    0    1
 -2       925       832       899      3633      3637      3805
 -1      1853    8    0    1
 -2       901       911       963      3627      3806      3807
 -1      1854    8    0    1
 -2       896       902       984      3551      3808      3809
 -1      1855    8    0    1
 -2       835       906       985      3588      3810      3811
 -1      1856    8    0    1
 -2       854       853       986      3411      3812      3813
 -1      1857    8    0    1
 -2       854       986       945      3813      3814      3692
 -1      1858    8    0    1
 -2       810       915       916      3635      3815      3598
 -1      1859    8    0    1
 -2       906       904       987      3564      3816      3817
 -1      1860    8    0    1
 -2       985       906       987      3810      3817      3818
 -1      1861    8    0    1
 -2       904       982       987      3799      3819      3816
 -1      1862    8    0    1
 -2       834       897       853      3538      3820      3590
 -1      1863    8    0    1
 -2       853       897       988      3820      3821      3822
 -1      1864    8    0    1
 -2       986       853       988      3812      3822      3823
 -1      1865    8    0    1
 -2       897       919       988      3613      3824      3821
 -1      1866    8    0    1
 -2       909       831       895      3574      3825      3607
 -1      1867    8    0    1
 -2       817       925       981      3636      3826      3795
 -1      1868    8    0    1
 -2       869       870       989      3457      3827      3828
 -1      1869    8    0    1
 -2       870       956       989      3723      3829      3827
 -1      1870    8    0    1
 -2       911       821       990      3606      3830      3831
 -1      1871    8    0    1
 -2       837       836       991      3359      3832      3833
 -1      1872    8    0    1
 -2       837       991       929      3833      3834      3645
 -1      1873    8    0    1
 -2       925       899       980      3805      3794      3835
 -1      1874    8    0    1
 -2       836       978       991      3789      3836      3832
 -1      1875    8    0    1
 -2       895       831       924      3825      3631      3837
 -1      1876    8    0    1
 -2       913       863       992      3587      3838      3839
 -1      1877    8    0    1
 -2       833       928       993      3644      3840      3841
 -1      1878    8    0    1
 -2       833       993       912      3841      3842      3582
 -1      1879    8    0    1
 -2       869       989       954      3828      3843      3717
 -1      1880    8    0    1
 -2       864       835       994      3441      3844      3845
 -1      1881    8    0    1
 -2       835       985       994      3811      3846      3844
 -1      1882    8    0    1
 -2       915       862       995      3597      3847      3848
 -1      1883    8    0    1
 -2       916       915       995      3815      3848      3849
 -1      1884    8    0    1
 -2       862       952       995      3713      3850      3847
 -1      1885    8    0    1
 -2       978       827       996      3801      3851      3852
 -1      1886    8    0    1
 -2       902       916       997      3600      3853      3854
 -1      1887    8    0    1
 -2       984       902       997      3808      3854      3855
 -1      1888    8    0    1
 -2       916       995       997      3849      3856      3853
 -1      1889    8    0    1
 -2       978       996       998      3852      3857      3858
 -1      1890    8    0    1
 -2       978       998       991      3858      3859      3836
 -1      1891    8    0    1
 -2       953       865       999      3715      3860      3861
 -1      1892    8    0    1
 -2       865       905       999      3559      3862      3860
 -1      1893    8    0    1
 -2       917       896      1000      3601      3863      3864
 -1      1894    8    0    1
 -2       896       984      1000      3809      3865      3863
 -1      1895    8    0    1
 -2       818       913       980      3586      3866      3793
 -1      1896    8    0    1
 -2       863       864      1001      3440      3867      3868
 -1      1897    8    0    1
 -2       864       994      1001      3845      3869      3867
 -1      1898    8    0    1
 -2       920       879      1002      3745      3870      3871
 -1      1899    8    0    1
 -2       823       920      1002      3617      3871      3872
 -1      1900    8    0    1
 -2       879       880      1002      3487      3873      3870
 -1      1901    8    0    1
 -2       880       964      1002      3748      3874      3873
 -1      1902    8    0    1
 -2       900       983       996      3803      3875      3876
 -1      1903    8    0    1
 -2       894       895      1003      3532      3877      3878
 -1      1904    8    0    1
 -2       979       903      1004      3790      3879      3880
 -1      1905    8    0    1
 -2       828       918      1005      3610      3881      3882
 -1      1906    8    0    1
 -2       828      1005       919      3882      3883      3614
 -1      1907    8    0    1
 -2       918       825      1006      3608      3884      3885
 -1      1908    8    0    1
 -2       825       912      1006      3584      3886      3884
 -1      1909    8    0    1
 -2       863      1001       992      3868      3887      3838
 -1      1910    8    0    1
 -2       920       901       963      3615      3807      3888
 -1      1911    8    0    1
 -2       921       823      1002      3620      3872      3889
 -1      1912    8    0    1
 -2       922       917      1007      3624      3890      3891
 -1      1913    8    0    1
 -2       917      1000      1007      3864      3892      3890
 -1      1914    8    0    1
 -2       827       900       996      3546      3876      3851
 -1      1915    8    0    1
 -2       983       923      1008      3804      3893      3894
 -1      1916    8    0    1
 -2       924       922      1009      3632      3895      3896
 -1      1917    8    0    1
 -2       922      1007      1009      3891      3897      3895
 -1      1918    8    0    1
 -2       908       927      1010      3642      3898      3899
 -1      1919    8    0    1
 -2       908      1010       944      3899      3900      3690
 -1      1920    8    0    1
 -2       898       921      1011      3619      3901      3902
 -1      1921    8    0    1
 -2       903       907      1004      3567      3903      3879
 -1      1922    8    0    1
 -2       905       867      1012      3560      3904      3905
 -1      1923    8    0    1
 -2       905      1012       999      3905      3906      3862
 -1      1924    8    0    1
 -2       925       980       981      3835      3907      3826
 -1      1925    8    0    1
 -2       805       634       722      3343      2998      3625
 -1      1926    8    0    1
 -2       821       914       990      3593      3908      3830
 -1      1927    8    0    1
 -2       928       898      1011      3643      3902      3909
 -1      1928    8    0    1
 -2       923       926      1013      3640      3910      3911
 -1      1929    8    0    1
 -2       923      1013      1008      3911      3912      3893
 -1      1930    8    0    1
 -2       894      1003       977      3878      3913      3785
 -1      1931    8    0    1
 -2      1012       867       955      3904      3720      3914
 -1      1932    8    0    1
 -2       954       989      1014      3843      3915      3916
 -1      1933    8    0    1
 -2       820       944      1015      3691      3917      3918
 -1      1934    8    0    1
 -2       931       930      1016      3652      3919      3920
 -1      1935    8    0    1
 -2       932       931      1017      3655      3921      3922
 -1      1936    8    0    1
 -2       931      1016      1017      3920      3923      3921
 -1      1937    8    0    1
 -2       933       932      1018      3658      3924      3925
 -1      1938    8    0    1
 -2       932      1017      1018      3922      3926      3924
 -1      1939    8    0    1
 -2       934       933      1019      3661      3927      3928
 -1      1940    8    0    1
 -2       933      1018      1019      3925      3929      3927
 -1      1941    8    0    1
 -2       935       934      1020      3664      3930      3931
 -1      1942    8    0    1
 -2       934      1019      1020      3928      3932      3930
 -1      1943    8    0    1
 -2       936       935      1021      3667      3933      3934
 -1      1944    8    0    1
 -2       935      1020      1021      3931      3935      3933
 -1      1945    8    0    1
 -2       937       936      1022      3670      3936      3937
 -1      1946    8    0    1
 -2       936      1021      1022      3934      3938      3936
 -1      1947    8    0    1
 -2       938       937      1023      3673      3939      3940
 -1      1948    8    0    1
 -2       937      1022      1023      3937      3941      3939
 -1      1949    8    0    1
 -2       939       938      1024      3676      3942      3943
 -1      1950    8    0    1
 -2       938      1023      1024      3940      3944      3942
 -1      1951    8    0    1
 -2       940       939      1025      3679      3945      3946
 -1      1952    8    0    1
 -2       939      1024      1025      3943      3947      3945
 -1      1953    8    0    1
 -2       941       940      1026      3682      3948      3949
 -1      1954    8    0    1
 -2       940      1025      1026      3946      3950      3948
 -1      1955    8    0    1
 -2       942       941      1027      3685      3951      3952
 -1      1956    8    0    1
 -2       941      1026      1027      3949      3953      3951
 -1      1957    8    0    1
 -2       914       820      1015      3594      3918      3954
 -1      1958    8    0    1
 -2       981       980      1028      3907      3955      3956
 -1      1959    8    0    1
 -2       947       946      1029      3699      3957      3958
 -1      1960    8    0    1
 -2       948       947      1030      3702      3959      3960
 -1      1961    8    0    1
 -2       947      1029      1030      3958      3961      3959
 -1      1962    8    0    1
 -2       949       948      1031      3705      3962      3963
 -1      1963    8    0    1
 -2       948      1030      1031      3960      3964      3962
 -1      1964    8    0    1
 -2       950       949      1032      3708      3965      3966
 -1      1965    8    0    1
 -2       949      1031      1032      3963      3967      3965
 -1      1966    8    0    1
 -2       951       950      1033      3711      3968      3969
 -1      1967    8    0    1
 -2       950      1032      1033      3966      3970      3968
 -1      1968    8    0    1
 -2       911       990       962      3831      3971      3972
 -1      1969    8    0    1
 -2       957       958      1034      3729      3973      3974
 -1      1970    8    0    1
 -2       956       957      1035      3726      3975      3976
 -1      1971    8    0    1
 -2       957      1034      1035      3974      3977      3975
 -1      1972    8    0    1
 -2       960       961      1015      3738      3978      3979
 -1      1973    8    0    1
 -2       961       962       990      3741      3971      3980
 -1      1974    8    0    1
 -2       962       963       911      3744      3806      3972
 -1      1975    8    0    1
 -2       878       920       963      3746      3888      3742
 -1      1976    8    0    1
 -2       996       983       998      3875      3981      3857
 -1      1977    8    0    1
 -2      1002       964       921      3874      3982      3889
 -1      1978    8    0    1
 -2       967       968      1036      3760      3983      3984
 -1      1979    8    0    1
 -2       968       969      1037      3763      3985      3986
 -1      1980    8    0    1
 -2       968      1037      1036      3986      3987      3983
 -1      1981    8    0    1
 -2       969       970      1038      3766      3988      3989
 -1      1982    8    0    1
 -2       969      1038      1037      3989      3990      3985
 -1      1983    8    0    1
 -2       970       971      1039      3769      3991      3992
 -1      1984    8    0    1
 -2       970      1039      1038      3992      3993      3988
 -1      1985    8    0    1
 -2       971       972      1040      3772      3994      3995
 -1      1986    8    0    1
 -2       971      1040      1039      3995      3996      3991
 -1      1987    8    0    1
 -2       972       973      1041      3775      3997      3998
 -1      1988    8    0    1
 -2       972      1041      1040      3998      3999      3994
 -1      1989    8    0    1
 -2       973       974      1042      3778      4000      4001
 -1      1990    8    0    1
 -2       973      1042      1041      4001      4002      3997
 -1      1991    8    0    1
 -2       974       975      1043      3781      4003      4004
 -1      1992    8    0    1
 -2       974      1043      1042      4004      4005      4000
 -1      1993    8    0    1
 -2       975       976      1044      3784      4006      4007
 -1      1994    8    0    1
 -2       975      1044      1043      4007      4008      4003
 -1      1995    8    0    1
 -2       976       977      1045      3787      4009      4010
 -1      1996    8    0    1
 -2       976      1045      1044      4010      4011      4006
 -1      1997    8    0    1
 -2      1012       955      1046      3914      4012      4013
 -1      1998    8    0    1
 -2      1015       944      1047      3917      4014      4015
 -1      1999    8    0    1
 -2       960      1015      1047      3979      4015      4016
 -1      2000    8    0    1
 -2       944      1010      1047      3900      4017      4014
 -1      2001    8    0    1
 -2       979      1004      1048      3880      4018      4019
 -1      2002    8    0    1
 -2       966       967      1049      3757      4020      4021
 -1      2003    8    0    1
 -2       967      1036      1049      3984      4022      4020
 -1      2004    8    0    1
 -2       965       966       993      3754      4023      4024
 -1      2005    8    0    1
 -2       927       979      1050      3792      4025      4026
 -1      2006    8    0    1
 -2       979      1048      1050      4019      4027      4025
 -1      2007    8    0    1
 -2       955       954      1051      3721      4028      4029
 -1      2008    8    0    1
 -2       954      1014      1051      3916      4030      4028
 -1      2009    8    0    1
 -2       992      1001      1052      3887      4031      4032
 -1      2010    8    0    1
 -2       926       981      1028      3797      3956      4033
 -1      2011    8    0    1
 -2       946       945      1053      3696      4034      4035
 -1      2012    8    0    1
 -2       946      1053      1029      4035      4036      3957
 -1      2013    8    0    1
 -2       982       953      1054      3800      4037      4038
 -1      2014    8    0    1
 -2       930       929      1055      3649      4039      4040
 -1      2015    8    0    1
 -2       930      1055      1016      4040      4041      3919
 -1      2016    8    0    1
 -2       990       914       961      3908      4042      3980
 -1      2017    8    0    1
 -2       980       913      1056      3866      4043      4044
 -1      2018    8    0    1
 -2      1028       980      1056      3955      4044      4045
 -1      2019    8    0    1
 -2       913       992      1056      3839      4046      4043
 -1      2020    8    0    1
 -2       945       986      1057      3814      4047      4048
 -1      2021    8    0    1
 -2       945      1057      1053      4048      4049      4034
 -1      2022    8    0    1
 -2      1004       907       943      3903      3688      4050
 -1      2023    8    0    1
 -2      1003       895       924      3877      3837      4051
 -1      2024    8    0    1
 -2       989       956      1058      3829      4052      4053
 -1      2025    8    0    1
 -2       989      1058      1014      4053      4054      3915
 -1      2026    8    0    1
 -2       929       991      1059      3834      4055      4056
 -1      2027    8    0    1
 -2      1055       929      1059      4039      4056      4057
 -1      2028    8    0    1
 -2       991       998      1059      3859      4058      4055
 -1      2029    8    0    1
 -2      1003       924      1009      4051      3896      4059
 -1      2030    8    0    1
 -2       912       993      1060      3842      4060      4061
 -1      2031    8    0    1
 -2       912      1060      1006      4061      4062      3886
 -1      2032    8    0    1
 -2       994       985      1061      3846      4063      4064
 -1      2033    8    0    1
 -2       914      1015       961      3954      3978      4042
 -1      2034    8    0    1
 -2       982      1054      1062      4038      4065      4066
 -1      2035    8    0    1
 -2       982      1062       987      4066      4067      3819
 -1      2036    8    0    1
 -2       943       942      1063      3689      4068      4069
 -1      2037    8    0    1
 -2      1004       943      1063      4050      4069      4070
 -1      2038    8    0    1
 -2       942      1027      1063      3952      4071      4068
 -1      2039    8    0    1
 -2       983      1008       998      3894      4072      3981
 -1      2040    8    0    1
 -2       995       952       997      3850      4073      3856
 -1      2041    8    0    1
 -2      1057       986      1064      4047      4074      4075
 -1      2042    8    0    1
 -2       986       988      1064      3823      4076      4074
 -1      2043    8    0    1
 -2       984       997      1065      3855      4077      4078
 -1      2044    8    0    1
 -2       985       987      1066      3818      4079      4080
 -1      2045    8    0    1
 -2      1061       985      1066      4063      4080      4081
 -1      2046    8    0    1
 -2       987      1062      1066      4067      4082      4079
 -1      2047    8    0    1
 -2       951      1033      1065      3969      4083      4084
 -1      2048    8    0    1
 -2       952       951      1065      3714      4084      4085
 -1      2049    8    0    1
 -2      1000       984      1067      3865      4086      4087
 -1      2050    8    0    1
 -2       984      1065      1067      4078      4088      4086
 -1      2051    8    0    1
 -2      1005       918      1068      3881      4089      4090
 -1      2052    8    0    1
 -2      1001       994      1069      3869      4091      4092
 -1      2053    8    0    1
 -2       994      1061      1069      4064      4093      4091
 -1      2054    8    0    1
 -2       977      1003      1009      3913      4059      4094
 -1      2055    8    0    1
 -2      1048      1004      1063      4018      4070      4095
 -1      2056    8    0    1
 -2       992      1052      1070      4032      4096      4097
 -1      2057    8    0    1
 -2       992      1070      1056      4097      4098      4046
 -1      2058    8    0    1
 -2       956      1035      1058      3976      4099      4052
 -1      2059    8    0    1
 -2       959       960      1047      3735      4016      4100
 -1      2060    8    0    1
 -2       997       952      1065      4073      4085      4077
 -1      2061    8    0    1
 -2       999      1012      1071      3906      4101      4102
 -1      2062    8    0    1
 -2      1012      1046      1071      4013      4103      4101
 -1      2063    8    0    1
 -2       964       965      1011      3751      4104      4105
 -1      2064    8    0    1
 -2       998      1008      1072      4072      4106      4107
 -1      2065    8    0    1
 -2       998      1072      1059      4107      4108      4058
 -1      2066    8    0    1
 -2      1068       918      1006      4089      3885      4109
 -1      2067    8    0    1
 -2      1001      1069      1052      4092      4110      4031
 -1      2068    8    0    1
 -2      1072      1008      1013      4106      3912      4111
 -1      2069    8    0    1
 -2      1011       965       928      4104      4112      3909
 -1      2070    8    0    1
 -2       964      1011       921      4105      3901      3982
 -1      2071    8    0    1
 -2      1045       977      1009      4009      4094      4113
 -1      2072    8    0    1
 -2      1046       955      1051      4012      4029      4114
 -1      2073    8    0    1
 -2       927      1050      1034      4026      4115      4116
 -1      2074    8    0    1
 -2       958       959      1010      3732      4117      4118
 -1      2075    8    0    1
 -2       926      1028      1013      4033      4119      3910
 -1      2076    8    0    1
 -2      1007      1000      1073      3892      4120      4121
 -1      2077    8    0    1
 -2      1000      1067      1073      4087      4122      4120
 -1      2078    8    0    1
 -2      1054       953      1074      4037      4123      4124
 -1      2079    8    0    1
 -2       953       999      1074      3861      4125      4123
 -1      2080    8    0    1
 -2      1009      1007      1045      3897      4126      4113
 -1      2081    8    0    1
 -2      1034       958      1010      3973      4118      4127
 -1      2082    8    0    1
 -2       988       919      1075      3824      4128      4129
 -1      2083    8    0    1
 -2      1064       988      1075      4076      4129      4130
 -1      2084    8    0    1
 -2       919      1005      1075      3883      4131      4128
 -1      2085    8    0    1
 -2      1007      1073      1045      4121      4132      4126
 -1      2086    8    0    1
 -2      1065      1033      1076      4083      4133      4134
 -1      2087    8    0    1
 -2      1065      1076      1067      4134      4135      4088
 -1      2088    8    0    1
 -2      1029      1053      1077      4036      4136      4137
 -1      2089    8    0    1
 -2      1018      1017      1078      3926      4138      4139
 -1      2090    8    0    1
 -2      1019      1018      1079      3929      4140      4141
 -1      2091    8    0    1
 -2      1018      1078      1079      4139      4142      4140
 -1      2092    8    0    1
 -2      1020      1019      1080      3932      4143      4144
 -1      2093    8    0    1
 -2      1019      1079      1080      4141      4145      4143
 -1      2094    8    0    1
 -2      1021      1020      1081      3935      4146      4147
 -1      2095    8    0    1
 -2      1020      1080      1081      4144      4148      4146
 -1      2096    8    0    1
 -2      1022      1021      1082      3938      4149      4150
 -1      2097    8    0    1
 -2      1021      1081      1082      4147      4151      4149
 -1      2098    8    0    1
 -2      1023      1022      1083      3941      4152      4153
 -1      2099    8    0    1
 -2      1022      1082      1083      4150      4154      4152
 -1      2100    8    0    1
 -2      1024      1023      1084      3944      4155      4156
 -1      2101    8    0    1
 -2      1023      1083      1084      4153      4157      4155
 -1      2102    8    0    1
 -2      1025      1024      1085      3947      4158      4159
 -1      2103    8    0    1
 -2      1024      1084      1085      4156      4160      4158
 -1      2104    8    0    1
 -2      1026      1025      1086      3950      4161      4162
 -1      2105    8    0    1
 -2      1025      1085      1086      4159      4163      4161
 -1      2106    8    0    1
 -2      1027      1026      1087      3953      4164      4165
 -1      2107    8    0    1
 -2      1026      1086      1087      4162      4166      4164
 -1      2108    8    0    1
 -2      1063      1027      1088      4071      4167      4168
 -1      2109    8    0    1
 -2      1063      1088      1048      4168      4169      4095
 -1      2110    8    0    1
 -2      1069      1061      1089      4093      4170      4171
 -1      2111    8    0    1
 -2      1031      1030      1090      3964      4172      4173
 -1      2112    8    0    1
 -2      1032      1031      1091      3967      4174      4175
 -1      2113    8    0    1
 -2      1031      1090      1091      4173      4176      4174
 -1      2114    8    0    1
 -2      1033      1032      1076      3970      4177      4133
 -1      2115    8    0    1
 -2      1028      1056      1092      4045      4178      4179
 -1      2116    8    0    1
 -2      1013      1028      1092      4119      4179      4180
 -1      2117    8    0    1
 -2      1056      1070      1092      4098      4181      4178
 -1      2118    8    0    1
 -2      1050      1048      1093      4027      4182      4183
 -1      2119    8    0    1
 -2      1048      1088      1093      4169      4184      4182
 -1      2120    8    0    1
 -2      1038      1039      1094      3993      4185      4186
 -1      2121    8    0    1
 -2      1037      1038      1095      3990      4187      4188
 -1      2122    8    0    1
 -2      1038      1094      1095      4186      4189      4187
 -1      2123    8    0    1
 -2      1036      1037      1096      3987      4190      4191
 -1      2124    8    0    1
 -2      1037      1095      1096      4188      4192      4190
 -1      2125    8    0    1
 -2      1039      1040      1097      3996      4193      4194
 -1      2126    8    0    1
 -2      1039      1097      1094      4194      4195      4185
 -1      2127    8    0    1
 -2      1040      1041      1098      3999      4196      4197
 -1      2128    8    0    1
 -2      1040      1098      1097      4197      4198      4193
 -1      2129    8    0    1
 -2      1041      1042      1099      4002      4199      4200
 -1      2130    8    0    1
 -2      1041      1099      1098      4200      4201      4196
 -1      2131    8    0    1
 -2      1042      1043      1100      4005      4202      4203
 -1      2132    8    0    1
 -2      1042      1100      1099      4203      4204      4199
 -1      2133    8    0    1
 -2      1043      1044      1101      4008      4205      4206
 -1      2134    8    0    1
 -2      1043      1101      1100      4206      4207      4202
 -1      2135    8    0    1
 -2      1044      1045      1102      4011      4208      4209
 -1      2136    8    0    1
 -2      1101      1044      1102      4205      4209      4210
 -1      2137    8    0    1
 -2      1045      1073      1102      4132      4211      4208
 -1      2138    8    0    1
 -2      1034      1050      1035      4115      4212      3977
 -1      2139    8    0    1
 -2      1049      1036      1060      4022      4213      4214
 -1      2140    8    0    1
 -2       966      1049       993      4021      4215      4023
 -1      2141    8    0    1
 -2      1035      1050      1093      4212      4183      4216
 -1      2142    8    0    1
 -2      1046      1051      1103      4114      4217      4218
 -1      2143    8    0    1
 -2      1051      1014      1104      4030      4219      4220
 -1      2144    8    0    1
 -2      1051      1104      1103      4220      4221      4217
 -1      2145    8    0    1
 -2      1072      1013      1092      4111      4180      4222
 -1      2146    8    0    1
 -2      1052      1069      1105      4110      4223      4224
 -1      2147    8    0    1
 -2      1069      1089      1105      4171      4225      4223
 -1      2148    8    0    1
 -2       927      1034      1010      4116      4127      3898
 -1      2149    8    0    1
 -2      1016      1055      1106      4041      4226      4227
 -1      2150    8    0    1
 -2      1058      1035      1093      4099      4216      4228
 -1      2151    8    0    1
 -2      1053      1057      1107      4049      4229      4230
 -1      2152    8    0    1
 -2      1053      1107      1077      4230      4231      4136
 -1      2153    8    0    1
 -2      1017      1016      1108      3923      4232      4233
 -1      2154    8    0    1
 -2      1017      1108      1078      4233      4234      4138
 -1      2155    8    0    1
 -2       928       965       993      4112      4024      3840
 -1      2156    8    0    1
 -2      1014      1058      1109      4054      4235      4236
 -1      2157    8    0    1
 -2      1014      1109      1104      4236      4237      4219
 -1      2158    8    0    1
 -2      1068      1006      1060      4109      4062      4238
 -1      2159    8    0    1
 -2      1030      1029      1110      3961      4239      4240
 -1      2160    8    0    1
 -2      1090      1030      1110      4172      4240      4241
 -1      2161    8    0    1
 -2      1029      1077      1110      4137      4242      4239
 -1      2162    8    0    1
 -2      1005      1068      1111      4090      4243      4244
 -1      2163    8    0    1
 -2      1005      1111      1075      4244      4245      4131
 -1      2164    8    0    1
 -2       993      1049      1060      4215      4214      4060
 -1      2165    8    0    1
 -2      1036      1096      1060      4191      4246      4213
 -1      2166    8    0    1
 -2      1027      1087      1088      4165      4247      4167
 -1      2167    8    0    1
 -2      1089      1061      1112      4170      4248      4249
 -1      2168    8    0    1
 -2      1061      1066      1112      4081      4250      4248
 -1      2169    8    0    1
 -2       999      1071      1074      4102      4251      4125
 -1      2170    8    0    1
 -2      1057      1064      1113      4075      4252      4253
 -1      2171    8    0    1
 -2      1057      1113      1107      4253      4254      4229
 -1      2172    8    0    1
 -2      1076      1032      1091      4177      4175      4255
 -1      2173    8    0    1
 -2      1071      1046      1114      4103      4256      4257
 -1      2174    8    0    1
 -2      1046      1103      1114      4218      4258      4256
 -1      2175    8    0    1
 -2      1070      1052      1115      4096      4259      4260
 -1      2176    8    0    1
 -2      1052      1105      1115      4224      4261      4259
 -1      2177    8    0    1
 -2      1062      1054      1116      4065      4262      4263
 -1      2178    8    0    1
 -2      1010       959      1047      4117      4100      4017
 -1      2179    8    0    1
 -2      1068      1060      1096      4238      4246      4264
 -1      2180    8    0    1
 -2      1073      1067      1117      4122      4265      4266
 -1      2181    8    0    1
 -2      1102      1073      1117      4211      4266      4267
 -1      2182    8    0    1
 -2      1067      1076      1117      4135      4268      4265
 -1      2183    8    0    1
 -2      1058      1093      1109      4228      4269      4235
 -1      2184    8    0    1
 -2      1068      1096      1111      4264      4270      4243
 -1      2185    8    0    1
 -2      1016      1106      1108      4227      4271      4232
 -1      2186    8    0    1
 -2      1055      1059      1118      4057      4272      4273
 -1      2187    8    0    1
 -2      1106      1055      1118      4226      4273      4274
 -1      2188    8    0    1
 -2      1059      1072      1118      4108      4275      4272
 -1      2189    8    0    1
 -2      1054      1074      1119      4124      4276      4277
 -1      2190    8    0    1
 -2      1054      1119      1116      4277      4278      4262
 -1      2191    8    0    1
 -2      1078      1108      1089      4234      4279      4280
 -1      2192    8    0    1
 -2      1080      1079      1120      4145      4281      4282
 -1      2193    8    0    1
 -2      1081      1080      1116      4148      4283      4284
 -1      2194    8    0    1
 -2      1082      1081      1119      4151      4285      4286
 -1      2195    8    0    1
 -2      1084      1083      1121      4157      4287      4288
 -1      2196    8    0    1
 -2      1085      1084      1103      4160      4289      4290
 -1      2197    8    0    1
 -2      1086      1085      1104      4163      4291      4292
 -1      2198    8    0    1
 -2      1087      1086      1109      4166      4293      4294
 -1      2199    8    0    1
 -2      1066      1062      1122      4082      4295      4296
 -1      2200    8    0    1
 -2      1112      1066      1122      4250      4296      4297
 -1      2201    8    0    1
 -2      1062      1116      1122      4263      4298      4295
 -1      2202    8    0    1
 -2      1074      1071      1123      4251      4299      4300
 -1      2203    8    0    1
 -2      1119      1074      1123      4276      4300      4301
 -1      2204    8    0    1
 -2      1071      1114      1123      4257      4302      4299
 -1      2205    8    0    1
 -2      1075      1111      1124      4245      4303      4304
 -1      2206    8    0    1
 -2      1075      1124      1064      4304      4305      4130
 -1      2207    8    0    1
 -2      1078      1089      1112      4280      4249      4306
 -1      2208    8    0    1
 -2      1095      1094      1113      4189      4307      4308
 -1      2209    8    0    1
 -2      1097      1098      1125      4198      4309      4310
 -1      2210    8    0    1
 -2      1096      1095      1111      4192      4311      4270
 -1      2211    8    0    1
 -2      1098      1099      1126      4201      4312      4313
 -1      2212    8    0    1
 -2      1098      1126      1125      4313      4314      4309
 -1      2213    8    0    1
 -2      1099      1100      1127      4204      4315      4316
 -1      2214    8    0    1
 -2      1099      1127      1126      4316      4317      4312
 -1      2215    8    0    1
 -2      1100      1101      1128      4207      4318      4319
 -1      2216    8    0    1
 -2      1100      1128      1127      4319      4320      4315
 -1      2217    8    0    1
 -2      1101      1102      1129      4210      4321      4322
 -1      2218    8    0    1
 -2      1128      1101      1129      4318      4322      4323
 -1      2219    8    0    1
 -2      1102      1117      1129      4267      4324      4321
 -1      2220    8    0    1
 -2      1109      1086      1104      4293      4292      4237
 -1      2221    8    0    1
 -2      1072      1092      1130      4222      4325      4326
 -1      2222    8    0    1
 -2      1103      1104      1085      4221      4291      4290
 -1      2223    8    0    1
 -2      1105      1089      1108      4225      4279      4327
 -1      2224    8    0    1
 -2      1091      1090      1127      4176      4328      4329
 -1      2225    8    0    1
 -2      1108      1106      1115      4271      4330      4331
 -1      2226    8    0    1
 -2      1118      1072      1130      4275      4326      4332
 -1      2227    8    0    1
 -2      1106      1118      1115      4274      4333      4330
 -1      2228    8    0    1
 -2      1079      1078      1112      4142      4306      4334
 -1      2229    8    0    1
 -2      1105      1108      1115      4327      4331      4261
 -1      2230    8    0    1
 -2      1081      1116      1119      4284      4278      4285
 -1      2231    8    0    1
 -2      1082      1119      1123      4286      4301      4335
 -1      2232    8    0    1
 -2      1083      1082      1123      4154      4335      4336
 -1      2233    8    0    1
 -2      1130      1092      1070      4325      4181      4337
 -1      2234    8    0    1
 -2      1087      1109      1093      4294      4269      4338
 -1      2235    8    0    1
 -2      1113      1064      1124      4252      4305      4339
 -1      2236    8    0    1
 -2      1113      1094      1131      4307      4340      4341
 -1      2237    8    0    1
 -2      1107      1113      1131      4254      4341      4342
 -1      2238    8    0    1
 -2      1094      1097      1131      4195      4343      4340
 -1      2239    8    0    1
 -2      1097      1125      1131      4310      4344      4343
 -1      2240    8    0    1
 -2      1117      1076      1129      4268      4345      4324
 -1      2241    8    0    1
 -2      1077      1107      1131      4231      4342      4346
 -1      2242    8    0    1
 -2      1127      1090      1126      4328      4347      4317
 -1      2243    8    0    1
 -2      1103      1084      1121      4289      4288      4348
 -1      2244    8    0    1
 -2      1130      1070      1115      4337      4260      4349
 -1      2245    8    0    1
 -2      1116      1080      1120      4283      4282      4350
 -1      2246    8    0    1
 -2      1076      1091      1129      4255      4351      4345
 -1      2247    8    0    1
 -2      1090      1110      1126      4241      4352      4347
 -1      2248    8    0    1
 -2      1110      1077      1125      4242      4353      4354
 -1      2249    8    0    1
 -2      1077      1131      1125      4346      4344      4353
 -1      2250    8    0    1
 -2      1129      1091      1128      4351      4355      4323
 -1      2251    8    0    1
 -2      1095      1113      1124      4308      4339      4356
 -1      2252    8    0    1
 -2      1126      1110      1125      4352      4354      4314
 -1      2253    8    0    1
 -2      1087      1093      1088      4338      4184      4247
 -1      2254    8    0    1
 -2      1111      1095      1124      4311      4356      4303
 -1      2255    8    0    1
 -2      1127      1128      1091      4320      4355      4329
 -1      2256    8    0    1
 -2      1121      1083      1123      4287      4336      4357
 -1      2257    8    0    1
 -2      1118      1130      1115      4332      4349      4333
 -1      2258    8    0    1
 -2      1079      1112      1120      4334      4358      4281
 -1      2259    8    0    1
 -2      1123      1114      1121      4302      4359      4357
 -1      2260    8    0    1
 -2      1112      1122      1120      4297      4360      4358
 -1      2261    8    0    1
 -2      1114      1103      1121      4258      4348      4359
 -1      2262    8    0    1
 -2      1122      1116      1120      4298      4350      4360
 -3
    1PSTEP                         1           1           1          
  100CL  101 1.000000000        4360                     0    1           1
 -4  DISP        4    1
 -5  D1          1    2    1    0
 -5  D2          1    2    2    0
 -5  D3          1    2    3    0
 -5  ALL         1    2    0    0    1ALL
 -1         1 9.46634E-03-2.04824E-03-3.34383E-14
 -1         2 1.10833E-02-9.99785E-04-3.72126E-14
 -1         3 1.39144E-02-3.00402E-03-8.99287E-14
 -1         4 1.66834E-02-4.42363E-03-9.86791E-14
 -1         5 0.00000E+00 0.00000E+00 0.00000E+00
 -1         6 0.00000E+00 0.00000E+00 0.00000E+00
 -1         7 0.00000E+00 0.00000E+00 0.00000E+00
 -1         8 0.00000E+00 0.00000E+00 0.00000E+00
 -1         9 0.00000E+00 0.00000E+00 0.00000E+00
 -1        10 0.00000E+00 0.00000E+00 0.00000E+00
 -1        11 0.00000E+00 0.00000E+00 0.00000E+00
 -1        12 0.00000E+00 0.00000E+00 0.00000E+00
 -1        13 0.00000E+00 0.00000E+00 0.00000E+00
 -1        14 0.00000E+00 0.00000E+00 0.00000E+00
 -1        15 0.00000E+00 0.00000E+00 0.00000E+00
 -1        16 0.00000E+00 0.00000E+00 0.00000E+00
 -1        17 0.00000E+00 0.00000E+00 0.00000E+00
 -1        18 0.00000E+00 0.00000E+00 0.00000E+00
 -1        19 0.00000E+00 0.00000E+00 0.00000E+00
 -1        20 0.00000E+00 0.00000E+00 0.00000E+00
 -1        21 0.00000E+00 0.00000E+00 0.00000E+00
 -1        22 0.00000E+00 0.00000E+00 0.00000E+00
 -1        23 3.94835E-04-2.51847E-04 8.80237E-18
 -1        24 6.88899E-04-3.94712E-04-8.64617E-17
 -1        25 9.59201E-04-4.93436E-04-2.83939E-16
 -1        26 1.22358E-03-5.62796E-04-5.80617E-16
 -1        27 1.48687E-03-6.12160E-04-9.73793E-16
 -1        28 1.75129E-03-6.46983E-04-1.46153E-15
 -1        29 2.00448E-03-6.70010E-04-2.00952E-15
 -1        30 2.27353E-03-6.86241E-04-2.67181E-15
 -1        31 2.54536E-03-6.96230E-04-3.42299E-15
 -1        32 2.81997E-03-7.01476E-04-4.26467E-15
 -1        33 3.09735E-03-7.03088E-04-5.19086E-15
 -1        34 3.37753E-03-7.01876E-04-6.20212E-15
 -1        35 3.64643E-03-6.98654E-04-7.23837E-15
 -1        36 3.93271E-03-6.93510E-04-8.40973E-15
 -1        37 4.22297E-03-6.86950E-04-9.66362E-15
 -1        38 4.51836E-03-6.79416E-04-1.10010E-14
 -1        39 4.82076E-03-6.71596E-04-1.24251E-14
 -1        40 5.13305E-03-6.64746E-04-1.39314E-14
 -1        41 5.44285E-03-6.61391E-04-1.54341E-14
 -1        42 5.78876E-03-6.65604E-04-1.70946E-14
 -1        43 6.16338E-03-6.86307E-04-1.88361E-14
 -1        44 6.57684E-03-7.38961E-04-2.06566E-14
 -1        45 7.03745E-03-8.48940E-04-2.25564E-14
 -1        46 7.54221E-03-1.05107E-03-2.45267E-14
 -1        47 8.00960E-03-1.33543E-03-2.63684E-14
 -1        48 8.48256E-03-1.74921E-03-2.85060E-14
 -1        49 8.80894E-03-2.11481E-03-3.05259E-14
 -1        50 9.01955E-03-2.31498E-03-3.24124E-14
 -1        51 9.22749E-03-2.32210E-03-3.45143E-14
 -1        52 9.51843E-03-2.14124E-03-3.68374E-14
 -1        53 9.96110E-03-1.87953E-03-3.94965E-14
 -1        54 1.04748E-02-1.69830E-03-4.22200E-14
 -1        55 1.09614E-02-1.63915E-03-4.48397E-14
 -1        56 1.14344E-02-1.67490E-03-4.76231E-14
 -1        57 1.18595E-02-1.77604E-03-5.04309E-14
 -1        58 1.22434E-02-1.91444E-03-5.32830E-14
 -1        59 1.25962E-02-2.07239E-03-5.61798E-14
 -1        60 1.29272E-02-2.23983E-03-5.91161E-14
 -1        61 1.32277E-02-2.40280E-03-6.19389E-14
 -1        62 1.35339E-02-2.57574E-03-6.49302E-14
 -1        63 1.38332E-02-2.74876E-03-6.79490E-14
 -1        64 1.41278E-02-2.92122E-03-7.09783E-14
 -1        65 1.44191E-02-3.09288E-03-7.40058E-14
 -1        66 1.47084E-02-3.26366E-03-7.70524E-14
 -1        67 1.49818E-02-3.42513E-03-7.99609E-14
 -1        68 1.52687E-02-3.59433E-03-8.30538E-14
 -1        69 1.55549E-02-3.76283E-03-8.61687E-14
 -1        70 1.58408E-02-3.93072E-03-8.93041E-14
 -1        71 1.61264E-02-4.09809E-03-9.24582E-14
 -1        72 1.64120E-02-4.26510E-03-9.56412E-14
 -1        73 4.13440E-04 2.61171E-04 6.64684E-17
 -1        74 7.02517E-04 4.03117E-04 7.22214E-17
 -1        75 9.73047E-04 4.99151E-04 1.33560E-17
 -1        76 1.23761E-03 5.67290E-04-1.15999E-16
 -1        77 1.50112E-03 6.15901E-04-3.19155E-16
 -1        78 1.76578E-03 6.50276E-04-6.00546E-16
 -1        79 2.03265E-03 6.74075E-04-9.60637E-16
 -1        80 2.30215E-03 6.89971E-04-1.39786E-15
 -1        81 2.57446E-03 6.99978E-04-1.91383E-15
 -1        82 2.84954E-03 7.05644E-04-2.51198E-15
 -1        83 3.12732E-03 7.08185E-04-3.18835E-15
 -1        84 3.40769E-03 7.08581E-04-3.94471E-15
 -1        85 3.69054E-03 7.07662E-04-4.78435E-15
 -1        86 3.97577E-03 7.06173E-04-5.70707E-15
 -1        87 4.26326E-03 7.04832E-04-6.71506E-15
 -1        88 4.55277E-03 7.04358E-04-7.81455E-15
 -1        89 4.84394E-03 7.05471E-04-8.99904E-15
 -1        90 5.13610E-03 7.08834E-04-1.02668E-14
 -1        91 5.42823E-03 7.14926E-04-1.16253E-14
 -1        92 5.71879E-03 7.23826E-04-1.30714E-14
 -1        93 6.00576E-03 7.34901E-04-1.46085E-14
 -1        94 6.28672E-03 7.46456E-04-1.62354E-14
 -1        95 6.55923E-03 7.55429E-04-1.79561E-14
 -1        96 6.82128E-03 7.57302E-04-1.97653E-14
 -1        97 7.07206E-03 7.46402E-04-2.16625E-14
 -1        98 7.31249E-03 7.16686E-04-2.36446E-14
 -1        99 7.54543E-03 6.62931E-04-2.57056E-14
 -1       100 7.77538E-03 5.81980E-04-2.78442E-14
 -1       101 8.00752E-03 4.73582E-04-3.00568E-14
 -1       102 8.24652E-03 3.40456E-04-3.23440E-14
 -1       103 8.49557E-03 1.87560E-04-3.46972E-14
 -1       104 8.75591E-03 2.08753E-05-3.71127E-14
 -1       105 9.02699E-03-1.53814E-04-3.95828E-14
 -1       106 9.30698E-03-3.31788E-04-4.21177E-14
 -1       107 9.59350E-03-5.09761E-04-4.47340E-14
 -1       108 9.88416E-03-6.85835E-04-4.74384E-14
 -1       109 1.01769E-02-8.59223E-04-5.02169E-14
 -1       110 1.04703E-02-1.02988E-03-5.30618E-14
 -1       111 1.07633E-02-1.19818E-03-5.59638E-14
 -1       112 1.10554E-02-1.36466E-03-5.89096E-14
 -1       113 1.13463E-02-1.52990E-03-6.18939E-14
 -1       114 1.16360E-02-1.69439E-03-6.49149E-14
 -1       115 1.19246E-02-1.85852E-03-6.79720E-14
 -1       116 1.22123E-02-2.02260E-03-7.10597E-14
 -1       117 1.24993E-02-2.18681E-03-7.41700E-14
 -1       118 1.27856E-02-2.35128E-03-7.73008E-14
 -1       119 1.30716E-02-2.51609E-03-8.04781E-14
 -1       120 1.33574E-02-2.68125E-03-8.36797E-14
 -1       121 1.36430E-02-2.84671E-03-8.68796E-14
 -1       122 1.40773E-02-3.08834E-03-9.04828E-14
 -1       123 1.42403E-02-3.17267E-03-9.10310E-14
 -1       124 1.44035E-02-3.25692E-03-9.15780E-14
 -1       125 1.45670E-02-3.34096E-03-9.21370E-14
 -1       126 1.47307E-02-3.42470E-03-9.27066E-14
 -1       127 1.48917E-02-3.50673E-03-9.32613E-14
 -1       128 1.50553E-02-3.58991E-03-9.38119E-14
 -1       129 1.52188E-02-3.67290E-03-9.43446E-14
 -1       130 1.53821E-02-3.75583E-03-9.48783E-14
 -1       131 1.55451E-02-3.83882E-03-9.53930E-14
 -1       132 1.57081E-02-3.92202E-03-9.58854E-14
 -1       133 1.58682E-02-4.00410E-03-9.63660E-14
 -1       134 1.60312E-02-4.08792E-03-9.68537E-14
 -1       135 1.61945E-02-4.17204E-03-9.72969E-14
 -1       136 1.63581E-02-4.25637E-03-9.77527E-14
 -1       137 1.65221E-02-4.34074E-03-9.82150E-14
 -1       138 1.09579E-02-8.12238E-04-3.69125E-14
 -1       139 1.07374E-02-6.29093E-04-3.63607E-14
 -1       140 1.04171E-02-4.49054E-04-3.55532E-14
 -1       141 1.00572E-02-2.99377E-04-3.46521E-14
 -1       142 9.58337E-03-1.51443E-04-3.34820E-14
 -1       143 9.11215E-03-4.71103E-05-3.23521E-14
 -1       144 8.59708E-03 2.63951E-05-3.11527E-14
 -1       145 8.08561E-03 5.87300E-05-2.99807E-14
 -1       146 7.62411E-03 4.96782E-05-2.89691E-14
 -1       147 7.21909E-03 4.71861E-06-2.81144E-14
 -1       148 6.86026E-03-7.61304E-05-2.73847E-14
 -1       149 6.58462E-03-1.83385E-04-2.68568E-14
 -1       150 6.37376E-03-3.27356E-04-2.64906E-14
 -1       151 6.26712E-03-4.84314E-04-2.63544E-14
 -1       152 6.25238E-03-6.68743E-04-2.64316E-14
 -1       153 6.33518E-03-8.65023E-04-2.67152E-14
 -1       154 6.53540E-03-1.09608E-03-2.72482E-14
 -1       155 6.82058E-03-1.32381E-03-2.79322E-14
 -1       156 7.24552E-03-1.57939E-03-2.88767E-14
 -1       157 7.69758E-03-1.78606E-03-2.98304E-14
 -1       158 8.28647E-03-1.97157E-03-3.10379E-14
 -1       159 8.90566E-03-2.06193E-03-3.22930E-14
 -1       160 1.00006E-02-1.94736E-03-3.45644E-14
 -1       161 1.04505E-02-1.78673E-03-3.55659E-14
 -1       162 1.07895E-02-1.59821E-03-3.63704E-14
 -1       163 1.10064E-02-1.40121E-03-3.69327E-14
 -1       164 1.11063E-02-1.19300E-03-3.72335E-14
 -1       165 2.40231E-04-1.25410E-04-2.91108E-17
 -1       166 2.25235E-04-9.45245E-05-3.94311E-17
 -1       167 2.19552E-04-7.26886E-05-4.39610E-17
 -1       168 2.16776E-04-5.50070E-05-4.54281E-17
 -1       169 2.15302E-04-3.98747E-05-4.52417E-17
 -1       170 2.14476E-04-2.58435E-05-4.41440E-17
 -1       171 2.14060E-04-1.26047E-05-4.25956E-17
 -1       172 2.13936E-04 2.72195E-07-4.06474E-17
 -1       173 2.14072E-04 1.31595E-05-3.83299E-17
 -1       174 2.14505E-04 2.64324E-05-3.52433E-17
 -1       175 2.15336E-04 4.02836E-05-3.13673E-17
 -1       176 2.16865E-04 5.57854E-05-2.59734E-17
 -1       177 2.19694E-04 7.36818E-05-1.80384E-17
 -1       178 2.25403E-04 9.58860E-05-6.23755E-18
 -1       179 2.39223E-04 1.27448E-04 1.17941E-17
 -1       180 2.97495E-04 1.85309E-04 3.26955E-17
 -1       181 4.53200E-04-2.56310E-04-7.07815E-17
 -1       182 7.51837E-04-3.76599E-04-2.31626E-16
 -1       183 1.03601E-03-4.60480E-04-4.86485E-16
 -1       184 1.31351E-03-5.19625E-04-8.34209E-16
 -1       185 1.58814E-03-5.61198E-04-1.27454E-15
 -1       186 1.84839E-03-5.88750E-04-1.77729E-15
 -1       187 2.12282E-03-6.08350E-04-2.39176E-15
 -1       188 2.39846E-03-6.20694E-04-3.09353E-15
 -1       189 2.67570E-03-6.27563E-04-3.88289E-15
 -1       190 2.95478E-03-6.30266E-04-4.75800E-15
 -1       191 3.23587E-03-6.29749E-04-5.71641E-15
 -1       192 3.50496E-03-6.26889E-04-6.70424E-15
 -1       193 3.79066E-03-6.21832E-04-7.82460E-15
 -1       194 4.07932E-03-6.15012E-04-9.02778E-15
 -1       195 4.37165E-03-6.06729E-04-1.03123E-14
 -1       196 4.66872E-03-5.97373E-04-1.16809E-14
 -1       197 4.97212E-03-5.87666E-04-1.31327E-14
 -1       198 5.26824E-03-5.79474E-04-1.45864E-14
 -1       199 5.59116E-03-5.74765E-04-1.61931E-14
 -1       200 5.92951E-03-5.79912E-04-1.78807E-14
 -1       201 6.28809E-03-6.06101E-04-1.96463E-14
 -1       202 6.67203E-03-6.73336E-04-2.14885E-14
 -1       203 7.08527E-03-8.13424E-04-2.34077E-14
 -1       204 7.48224E-03-1.03463E-03-2.51986E-14
 -1       205 7.94244E-03-1.40710E-03-2.72710E-14
 -1       206 8.35487E-03-1.81482E-03-2.92225E-14
 -1       207 8.70558E-03-2.12696E-03-3.10384E-14
 -1       208 9.06221E-03-2.27098E-03-3.30585E-14
 -1       209 9.44543E-03-2.16507E-03-3.53034E-14
 -1       210 9.89678E-03-1.88539E-03-3.78993E-14
 -1       211 1.03592E-02-1.64298E-03-4.05705E-14
 -1       212 1.07849E-02-1.53164E-03-4.31611E-14
 -1       213 1.12060E-02-1.53237E-03-4.59199E-14
 -1       214 1.15973E-02-1.61565E-03-4.87066E-14
 -1       215 1.19621E-02-1.74679E-03-5.15247E-14
 -1       216 1.23056E-02-1.90295E-03-5.43861E-14
 -1       217 1.26327E-02-2.07107E-03-5.72917E-14
 -1       218 1.29322E-02-2.23552E-03-6.00850E-14
 -1       219 1.32388E-02-2.41019E-03-6.30524E-14
 -1       220 1.35390E-02-2.58484E-03-6.60460E-14
 -1       221 1.38347E-02-2.75870E-03-6.90583E-14
 -1       222 1.41273E-02-2.93152E-03-7.20819E-14
 -1       223 1.44176E-02-3.10324E-03-7.51214E-14
 -1       224 1.46919E-02-3.26544E-03-7.80237E-14
 -1       225 1.49795E-02-3.43526E-03-8.10943E-14
 -1       226 1.52664E-02-3.60426E-03-8.41959E-14
 -1       227 1.55527E-02-3.77255E-03-8.73254E-14
 -1       228 1.58388E-02-3.94023E-03-9.04753E-14
 -1       229 1.61246E-02-4.10742E-03-9.36464E-14
 -1       230 6.04147E-04 3.30554E-04 1.88651E-17
 -1       231 8.93069E-04 4.31760E-04-5.60092E-17
 -1       232 1.17182E-03 5.02954E-04-1.98934E-16
 -1       233 1.44609E-03 5.53344E-04-4.14443E-16
 -1       234 1.71894E-03 5.88713E-04-7.05697E-16
 -1       235 1.99200E-03 6.13011E-04-1.07579E-15
 -1       236 2.26617E-03 6.29088E-04-1.52382E-15
 -1       237 2.54195E-03 6.39070E-04-2.05048E-15
 -1       238 2.81956E-03 6.44574E-04-2.65605E-15
 -1       239 3.09910E-03 6.46858E-04-3.34025E-15
 -1       240 3.38058E-03 6.46927E-04-4.10370E-15
 -1       241 3.66399E-03 6.45622E-04-4.94912E-15
 -1       242 3.94929E-03 6.43698E-04-5.87677E-15
 -1       243 4.23637E-03 6.41884E-04-6.88888E-15
 -1       244 4.52507E-03 6.40920E-04-7.99027E-15
 -1       245 4.81509E-03 6.41566E-04-9.17732E-15
 -1       246 5.10595E-03 6.44558E-04-1.04503E-14
 -1       247 5.39688E-03 6.50482E-04-1.18094E-14
 -1       248 5.68679E-03 6.59561E-04-1.32564E-14
 -1       249 5.97425E-03 6.71337E-04-1.47963E-14
 -1       250 6.25761E-03 6.84283E-04-1.64258E-14
 -1       251 6.53514E-03 6.95451E-04-1.81465E-14
 -1       252 6.80547E-03 7.00313E-04-1.99516E-14
 -1       253 7.06798E-03 6.92998E-04-2.18471E-14
 -1       254 7.32322E-03 6.67077E-04-2.38264E-14
 -1       255 7.57309E-03 6.16817E-04-2.58876E-14
 -1       256 7.82059E-03 5.38572E-04-2.80250E-14
 -1       257 8.06928E-03 4.31772E-04-3.02380E-14
 -1       258 8.32245E-03 2.99082E-04-3.25249E-14
 -1       259 8.58241E-03 1.45657E-04-3.48801E-14
 -1       260 8.85018E-03-2.21748E-05-3.72972E-14
 -1       261 9.12553E-03-1.98260E-04-3.97735E-14
 -1       262 9.40730E-03-3.77581E-04-4.23169E-14
 -1       263 9.69390E-03-5.56668E-04-4.49394E-14
 -1       264 9.98367E-03-7.33549E-04-4.76404E-14
 -1       265 1.02751E-02-9.07438E-04-5.04102E-14
 -1       266 1.05672E-02-1.07834E-03-5.32444E-14
 -1       267 1.08590E-02-1.24669E-03-5.61393E-14
 -1       268 1.11502E-02-1.41310E-03-5.90794E-14
 -1       269 1.14405E-02-1.57819E-03-6.20604E-14
 -1       270 1.17298E-02-1.74250E-03-6.50760E-14
 -1       271 1.20183E-02-1.90645E-03-6.81269E-14
 -1       272 1.23060E-02-2.07035E-03-7.12048E-14
 -1       273 1.25930E-02-2.23440E-03-7.43072E-14
 -1       274 1.28796E-02-2.39875E-03-7.74403E-14
 -1       275 1.31658E-02-2.56346E-03-8.06078E-14
 -1       276 1.34517E-02-2.72855E-03-8.38037E-14
 -1       277 1.37375E-02-2.89397E-03-8.70042E-14
 -1       278 1.39113E-02-2.98702E-03-8.79921E-14
 -1       279 1.40745E-02-3.07118E-03-8.85452E-14
 -1       280 1.42379E-02-3.15518E-03-8.91029E-14
 -1       281 1.44016E-02-3.23897E-03-8.96634E-14
 -1       282 1.45626E-02-3.32109E-03-9.02120E-14
 -1       283 1.47264E-02-3.40441E-03-9.07601E-14
 -1       284 1.48900E-02-3.48754E-03-9.12969E-14
 -1       285 1.50534E-02-3.57057E-03-9.18297E-14
 -1       286 1.52165E-02-3.65359E-03-9.23557E-14
 -1       287 1.53795E-02-3.73671E-03-9.28623E-14
 -1       288 1.55395E-02-3.81860E-03-9.33455E-14
 -1       289 1.57024E-02-3.90213E-03-9.38288E-14
 -1       290 1.58655E-02-3.98593E-03-9.43005E-14
 -1       291 1.60289E-02-4.06995E-03-9.47633E-14
 -1       292 1.10504E-02-1.00263E-03-3.81746E-14
 -1       293 1.08219E-02-8.83861E-04-3.76535E-14
 -1       294 1.04652E-02-7.40053E-04-3.69415E-14
 -1       295 1.00744E-02-5.22123E-04-3.57504E-14
 -1       296 9.59339E-03-3.20927E-04-3.46426E-14
 -1       297 9.17577E-03-9.80070E-05-3.31513E-14
 -1       298 8.75202E-03 5.24278E-05-3.17764E-14
 -1       299 8.32801E-03 1.37657E-04-3.03407E-14
 -1       300 7.93501E-03 1.10790E-04-2.90974E-14
 -1       301 7.55035E-03 2.36204E-05-2.80465E-14
 -1       302 7.17394E-03-1.02489E-04-2.71415E-14
 -1       303 6.82343E-03-2.40154E-04-2.64304E-14
 -1       304 6.52259E-03-3.74214E-04-2.58763E-14
 -1       305 6.30861E-03-4.80176E-04-2.56503E-14
 -1       306 6.21779E-03-5.76523E-04-2.55653E-14
 -1       307 6.26596E-03-6.77438E-04-2.57679E-14
 -1       308 6.46470E-03-8.07590E-04-2.61788E-14
 -1       309 6.78691E-03-1.02123E-03-2.69641E-14
 -1       310 7.24593E-03-1.26576E-03-2.77852E-14
 -1       311 7.71028E-03-1.59198E-03-2.89606E-14
 -1       312 8.22190E-03-1.89520E-03-3.01852E-14
 -1       313 8.70595E-03-2.12412E-03-3.16876E-14
 -1       314 9.14599E-03-2.15891E-03-3.31406E-14
 -1       315 9.59664E-03-2.03101E-03-3.44688E-14
 -1       316 1.00585E-02-1.81012E-03-3.57498E-14
 -1       317 1.04841E-02-1.56596E-03-3.68978E-14
 -1       318 1.08400E-02-1.36982E-03-3.76549E-14
 -1       319 1.10690E-02-1.21033E-03-3.83057E-14
 -1       320 1.11381E-02-1.10085E-03-3.83048E-14
 -1       321 1.61926E-02-4.15414E-03-9.52269E-14
 -1       322 4.55310E-04-1.64485E-04-1.48454E-16
 -1       323 4.74176E-04-2.12787E-04-1.33503E-16
 -1       324 4.40591E-04-9.37637E-05-1.56356E-16
 -1       325 4.37645E-04-6.47061E-05-1.54600E-16
 -1       326 4.36027E-04-3.77718E-05-1.51155E-16
 -1       327 4.35312E-04-1.19733E-05-1.46069E-16
 -1       328 4.35335E-04 1.34816E-05-1.39842E-16
 -1       329 4.36102E-04 3.93316E-05-1.31717E-16
 -1       330 4.37754E-04 6.59071E-05-1.21444E-16
 -1       331 4.40785E-04 9.51213E-05-1.08061E-16
 -1       332 4.46130E-04 1.27996E-04-9.04767E-17
 -1       333 4.55965E-04 1.66962E-04-6.64142E-17
 -1       334 4.75737E-04 2.16604E-04-3.28683E-17
 -1       335 5.31727E-04 2.69533E-04-1.17500E-17
 -1       336 8.24098E-04 3.72653E-04-9.73343E-17
 -1       337 8.48653E-04-3.52623E-04-3.88724E-16
 -1       338 1.13514E-03-4.21918E-04-6.95234E-16
 -1       339 1.41807E-03-4.71180E-04-1.09102E-15
 -1       340 1.68493E-03-5.04137E-04-1.54963E-15
 -1       341 1.96496E-03-5.27905E-04-2.11817E-15
 -1       342 2.24492E-03-5.43261E-04-2.77257E-15
 -1       343 2.52536E-03-5.52298E-04-3.51244E-15
 -1       344 2.80667E-03-5.56560E-04-4.33635E-15
 -1       345 3.08909E-03-5.57169E-04-5.24279E-15
 -1       346 3.35861E-03-5.55095E-04-6.18158E-15
 -1       347 3.64379E-03-5.50648E-04-7.25261E-15
 -1       348 3.93070E-03-5.44259E-04-8.40446E-15
 -1       349 4.21964E-03-5.36217E-04-9.63750E-15
 -1       350 4.51099E-03-5.26822E-04-1.09530E-14
 -1       351 4.80523E-03-5.16562E-04-1.23508E-14
 -1       352 5.08797E-03-5.06890E-04-1.37543E-14
 -1       353 5.38962E-03-4.98642E-04-1.53079E-14
 -1       354 5.69627E-03-4.96153E-04-1.69416E-14
 -1       355 6.00919E-03-5.06659E-04-1.86548E-14
 -1       356 6.33094E-03-5.43237E-04-2.04447E-14
 -1       357 6.66746E-03-6.28018E-04-2.23092E-14
 -1       358 6.99376E-03-7.74237E-04-2.40493E-14
 -1       359 7.40021E-03-1.05418E-03-2.60581E-14
 -1       360 8.80320E-03-2.17721E-03-3.18726E-14
 -1       361 9.27339E-03-2.18000E-03-3.39700E-14
 -1       362 9.78286E-03-1.91699E-03-3.63588E-14
 -1       363 1.02708E-02-1.62034E-03-3.89856E-14
 -1       364 1.06817E-02-1.46060E-03-4.15404E-14
 -1       365 1.10660E-02-1.42552E-03-4.42727E-14
 -1       366 1.14178E-02-1.48613E-03-4.70360E-14
 -1       367 1.17507E-02-1.60411E-03-4.98297E-14
 -1       368 1.20717E-02-1.75349E-03-5.26574E-14
 -1       369 1.23842E-02-1.91871E-03-5.55291E-14
 -1       370 1.26753E-02-2.08238E-03-5.82992E-14
 -1       371 1.29766E-02-2.25732E-03-6.12421E-14
 -1       372 1.32740E-02-2.43269E-03-6.42121E-14
 -1       373 1.35683E-02-2.60743E-03-6.72055E-14
 -1       374 1.38602E-02-2.78111E-03-7.02199E-14
 -1       375 1.41503E-02-2.95362E-03-7.32487E-14
 -1       376 1.44246E-02-3.11647E-03-7.61432E-14
 -1       377 1.47125E-02-3.28688E-03-7.92024E-14
 -1       378 1.49996E-02-3.45638E-03-8.22877E-14
 -1       379 1.52862E-02-3.62509E-03-8.54033E-14
 -1       380 1.55724E-02-3.79310E-03-8.85474E-14
 -1       381 1.58584E-02-3.96054E-03-9.17106E-14
 -1       382 1.10948E-03 4.46434E-04-2.49018E-16
 -1       383 1.06415E-02-9.30177E-04-3.84281E-14
 -1       384 1.39023E-03 4.98830E-04-4.71896E-16
 -1       385 1.66863E-03 5.35577E-04-7.69756E-16
 -1       386 1.94621E-03 5.60771E-04-1.14528E-15
 -1       387 2.22398E-03 5.77398E-04-1.59853E-15
 -1       388 2.50255E-03 5.87685E-04-2.13010E-15
 -1       389 2.78224E-03 5.93317E-04-2.73978E-15
 -1       390 3.06327E-03 5.95598E-04-3.42781E-15
 -1       391 3.34573E-03 5.95559E-04-4.19408E-15
 -1       392 3.62968E-03 5.94057E-04-5.04143E-15
 -1       393 3.91512E-03 5.91851E-04-5.97023E-15
 -1       394 4.20203E-03 5.89671E-04-6.98259E-15
 -1       395 4.49034E-03 5.88264E-04-8.08399E-15
 -1       396 4.77988E-03 5.88408E-04-9.27011E-15
 -1       397 5.07035E-03 5.90878E-04-1.05421E-14
 -1       398 5.36127E-03 5.96343E-04-1.18993E-14
 -1       399 5.65189E-03 6.05157E-04-1.33459E-14
 -1       400 5.94122E-03 6.17052E-04-1.48834E-14
 -1       401 6.22798E-03 6.30731E-04-1.65113E-14
 -1       402 6.51079E-03 6.43468E-04-1.82271E-14
 -1       403 6.78835E-03 6.50864E-04-2.00291E-14
 -1       404 7.05992E-03 6.46986E-04-2.19198E-14
 -1       405 7.32559E-03 6.25088E-04-2.38955E-14
 -1       406 7.58666E-03 5.78901E-04-2.59510E-14
 -1       407 7.84548E-03 5.04179E-04-2.80856E-14
 -1       408 8.10494E-03 3.99895E-04-3.02957E-14
 -1       409 8.36781E-03 2.68553E-04-3.25820E-14
 -1       410 8.63600E-03 1.15440E-04-3.49353E-14
 -1       411 8.91030E-03-5.27977E-05-3.73535E-14
 -1       412 9.19041E-03-2.29653E-04-3.98319E-14
 -1       413 9.47531E-03-4.09824E-04-4.23779E-14
 -1       414 9.76366E-03-5.89660E-04-4.50008E-14
 -1       415 1.00541E-02-7.67109E-04-4.76975E-14
 -1       416 1.03456E-02-9.41370E-04-5.04612E-14
 -1       417 1.06373E-02-1.11247E-03-5.32887E-14
 -1       418 1.09287E-02-1.28088E-03-5.61747E-14
 -1       419 1.12193E-02-1.44726E-03-5.91098E-14
 -1       420 1.15092E-02-1.61227E-03-6.20852E-14
 -1       421 1.17982E-02-1.77645E-03-6.50981E-14
 -1       422 1.20864E-02-1.94027E-03-6.81426E-14
 -1       423 1.23740E-02-2.10403E-03-7.12114E-14
 -1       424 1.26610E-02-2.26797E-03-7.43069E-14
 -1       425 1.29476E-02-2.43220E-03-7.74369E-14
 -1       426 1.32338E-02-2.59682E-03-8.06000E-14
 -1       427 1.35198E-02-2.76183E-03-8.37907E-14
 -1       428 1.37156E-02-2.87436E-03-8.58912E-14
 -1       429 1.40724E-02-3.05366E-03-8.66254E-14
 -1       430 1.39087E-02-2.96983E-03-8.60654E-14
 -1       431 1.38120E-02-2.92215E-03-8.59791E-14
 -1       432 1.42335E-02-3.13583E-03-8.71694E-14
 -1       433 1.43974E-02-3.21919E-03-8.77170E-14
 -1       434 1.45612E-02-3.30233E-03-8.82527E-14
 -1       435 1.47247E-02-3.38533E-03-8.87844E-14
 -1       436 1.48880E-02-3.46825E-03-8.93146E-14
 -1       437 1.50510E-02-3.55120E-03-8.98314E-14
 -1       438 1.52110E-02-3.63286E-03-9.03274E-14
 -1       439 1.53738E-02-3.71613E-03-9.08173E-14
 -1       440 1.55366E-02-3.79965E-03-9.12945E-14
 -1       441 1.56997E-02-3.88344E-03-9.17674E-14
 -1       442 1.01608E-02-7.13745E-04-3.70578E-14
 -1       443 1.11325E-02-1.09579E-03-3.94629E-14
 -1       444 4.45780E-04-1.26220E-04-1.55027E-16
 -1       445 9.74838E-03-5.09160E-04-3.59201E-14
 -1       446 9.21419E-03-2.08446E-04-3.41301E-14
 -1       447 8.87014E-03-7.88093E-06-3.26040E-14
 -1       448 8.52536E-03 1.24234E-04-3.11451E-14
 -1       449 8.10260E-03 1.60553E-04-2.93119E-14
 -1       450 7.76591E-03 8.51872E-05-2.80445E-14
 -1       451 7.41348E-03-4.89270E-05-2.69231E-14
 -1       452 7.04324E-03-2.08718E-04-2.60001E-14
 -1       453 6.69929E-03-3.48796E-04-2.53976E-14
 -1       454 6.39499E-03-4.63865E-04-2.48306E-14
 -1       455 6.23597E-03-5.28471E-04-2.47757E-14
 -1       456 6.20871E-03-5.77898E-04-2.47360E-14
 -1       457 6.34602E-03-6.33281E-04-2.49166E-14
 -1       458 6.67965E-03-8.04064E-04-2.58563E-14
 -1       459 7.05871E-03-1.00492E-03-2.66455E-14
 -1       460 7.62526E-03-1.36050E-03-2.78851E-14
 -1       461 8.05023E-03-1.68219E-03-2.90746E-14
 -1       462 8.45361E-03-1.99510E-03-3.05375E-14
 -1       463 9.77009E-03-1.92305E-03-3.58048E-14
 -1       464 1.02034E-02-1.64974E-03-3.72207E-14
 -1       465 1.06474E-02-1.39754E-03-3.83696E-14
 -1       466 1.09515E-02-1.24406E-03-3.93381E-14
 -1       467 1.11472E-02-1.14752E-03-3.96937E-14
 -1       468 1.09484E-02-1.02505E-03-3.89857E-14
 -1       469 7.91649E-03-1.49360E-03-2.80902E-14
 -1       470 8.29452E-03 1.73312E-04-3.00961E-14
 -1       471 6.66055E-04-7.48235E-05-3.25244E-16
 -1       472 6.70011E-04-1.15464E-04-3.30089E-16
 -1       473 6.63359E-04 1.09420E-06-3.06368E-16
 -1       474 6.64066E-04 3.85822E-05-2.92318E-16
 -1       475 6.66194E-04 7.64782E-05-2.74899E-16
 -1       476 6.70267E-04 1.17256E-04-2.52497E-16
 -1       477 6.77236E-04 1.61778E-04-2.24054E-16
 -1       478 6.89060E-04 2.12095E-04-1.87838E-16
 -1       479 7.09677E-04 2.71063E-04-1.40438E-16
 -1       480 7.63285E-04 3.19767E-04-1.22915E-16
 -1       481 9.62002E-04-3.24452E-04-5.58371E-16
 -1       482 1.54139E-02-3.71615E-03-8.85965E-14
 -1       483 9.93785E-03-6.80112E-04-3.73277E-14
 -1       484 1.08384E-02-1.05706E-03-3.99938E-14
 -1       485 1.24796E-03-3.79527E-04-9.12099E-16
 -1       486 1.51887E-03-4.17439E-04-1.32838E-15
 -1       487 1.80321E-03-4.45436E-04-1.85148E-15
 -1       488 2.08702E-03-4.64067E-04-2.45992E-15
 -1       489 2.37065E-03-4.75607E-04-3.15163E-15
 -1       490 2.65440E-03-4.81789E-04-3.92655E-15
 -1       491 2.93848E-03-4.83905E-04-4.78255E-15
 -1       492 3.20879E-03-4.83010E-04-5.67211E-15
 -1       493 3.49389E-03-4.79657E-04-6.69150E-15
 -1       494 3.77959E-03-4.74310E-04-7.79326E-15
 -1       495 4.06588E-03-4.67335E-04-8.97537E-15
 -1       496 4.35266E-03-4.59078E-04-1.02397E-14
 -1       497 4.63967E-03-4.49998E-04-1.15848E-14
 -1       498 4.91209E-03-4.41311E-04-1.29382E-14
 -1       499 5.19782E-03-4.33459E-04-1.44397E-14
 -1       500 5.48126E-03-4.29441E-04-1.60212E-14
 -1       501 5.76085E-03-4.33716E-04-1.76803E-14
 -1       502 6.03531E-03-4.53777E-04-1.94182E-14
 -1       503 6.30551E-03-5.01679E-04-2.12316E-14
 -1       504 6.55178E-03-5.85828E-04-2.29251E-14
 -1       505 6.94483E-03-7.92815E-04-2.49214E-14
 -1       506 1.05059E-03 3.94547E-04-2.80774E-16
 -1       507 1.11864E-02-1.14993E-03-4.08784E-14
 -1       508 1.06663E-02-1.38944E-03-3.99992E-14
 -1       509 1.10055E-02-1.33037E-03-4.27012E-14
 -1       510 1.13070E-02-1.37564E-03-4.54423E-14
 -1       511 1.15953E-02-1.48103E-03-4.82123E-14
 -1       512 1.18819E-02-1.62090E-03-5.10141E-14
 -1       513 1.21699E-02-1.77982E-03-5.38534E-14
 -1       514 1.24450E-02-1.93993E-03-5.65943E-14
 -1       515 1.27352E-02-2.11290E-03-5.95114E-14
 -1       516 1.30255E-02-2.28746E-03-6.24605E-14
 -1       517 1.33153E-02-2.46205E-03-6.54347E-14
 -1       518 1.36045E-02-2.63592E-03-6.84341E-14
 -1       519 1.38930E-02-2.80879E-03-7.14519E-14
 -1       520 1.41665E-02-2.97203E-03-7.43372E-14
 -1       521 1.44539E-02-3.14285E-03-7.73883E-14
 -1       522 1.47408E-02-3.31274E-03-8.04627E-14
 -1       523 1.50273E-02-3.48180E-03-8.35675E-14
 -1       524 1.52207E-02-3.59920E-03-8.60755E-14
 -1       525 1.50113E-03 4.47781E-04-7.30302E-16
 -1       526 1.27595E-03 4.26867E-04-4.78394E-16
 -1       527 2.06621E-03 4.97786E-04-1.52180E-15
 -1       528 2.34831E-03 5.10605E-04-2.03338E-15
 -1       529 2.63070E-03 5.18023E-04-2.62253E-15
 -1       530 2.91363E-03 5.21501E-04-3.28890E-15
 -1       531 3.19730E-03 5.22179E-04-4.03346E-15
 -1       532 3.48183E-03 5.20973E-04-4.85661E-15
 -1       533 3.76733E-03 5.18663E-04-5.75937E-15
 -1       534 4.05387E-03 5.15964E-04-6.74590E-15
 -1       535 4.34155E-03 5.13590E-04-7.81707E-15
 -1       536 4.63044E-03 5.12296E-04-8.97402E-15
 -1       537 4.92057E-03 5.12878E-04-1.02167E-14
 -1       538 5.21190E-03 5.16130E-04-1.15427E-14
 -1       539 5.50425E-03 5.22707E-04-1.29582E-14
 -1       540 5.79723E-03 5.32885E-04-1.44627E-14
 -1       541 6.09012E-03 5.46188E-04-1.60572E-14
 -1       542 6.38185E-03 5.60919E-04-1.77377E-14
 -1       543 6.67104E-03 5.73691E-04-1.95055E-14
 -1       544 6.95630E-03 5.79182E-04-2.13587E-14
 -1       545 7.23669E-03 5.70428E-04-2.33006E-14
 -1       546 7.51230E-03 5.39892E-04-2.53245E-14
 -1       547 7.78456E-03 4.81240E-04-2.74269E-14
 -1       548 8.05602E-03 3.91224E-04-2.96055E-14
 -1       549 8.32950E-03 2.70763E-04-3.18633E-14
 -1       550 8.60712E-03 1.24626E-04-3.41962E-14
 -1       551 8.88974E-03-4.01059E-05-3.65919E-14
 -1       552 9.17695E-03-2.15979E-04-3.90551E-14
 -1       553 9.46755E-03-3.96678E-04-4.15811E-14
 -1       554 9.76013E-03-5.77741E-04-4.41783E-14
 -1       555 1.00534E-02-7.56578E-04-4.68486E-14
 -1       556 1.03466E-02-9.32085E-04-4.95861E-14
 -1       557 1.06391E-02-1.10415E-03-5.23839E-14
 -1       558 1.09306E-02-1.27324E-03-5.52411E-14
 -1       559 1.12211E-02-1.44001E-03-5.81518E-14
 -1       560 1.15107E-02-1.60517E-03-6.11096E-14
 -1       561 1.17994E-02-1.76936E-03-6.41037E-14
 -1       562 1.20874E-02-1.93305E-03-6.71277E-14
 -1       563 1.23748E-02-2.09662E-03-7.01827E-14
 -1       564 1.26617E-02-2.26031E-03-7.32586E-14
 -1       565 1.29483E-02-2.42430E-03-7.63691E-14
 -1       566 1.32345E-02-2.58865E-03-7.95128E-14
 -1       567 1.35205E-02-2.75342E-03-8.26930E-14
 -1       568 1.40683E-02-3.03431E-03-8.46823E-14
 -1       569 1.42323E-02-3.11742E-03-8.52187E-14
 -1       570 1.37431E-02-2.86871E-03-8.35857E-14
 -1       571 1.39057E-02-2.95165E-03-8.41383E-14
 -1       572 1.43961E-02-3.20030E-03-8.57506E-14
 -1       573 1.45596E-02-3.28305E-03-8.62804E-14
 -1       574 1.47227E-02-3.36574E-03-8.68039E-14
 -1       575 1.48827E-02-3.44709E-03-8.73106E-14
 -1       576 1.50453E-02-3.53001E-03-8.78125E-14
 -1       577 1.52079E-02-3.61320E-03-8.83005E-14
 -1       578 8.92436E-03-8.27610E-05-3.33922E-14
 -1       579 7.05622E-04-2.49327E-04-3.20853E-16
 -1       580 6.52298E-03-6.49970E-04-2.46210E-14
 -1       581 1.78399E-03 4.77663E-04-1.08792E-15
 -1       582 1.03739E-02-9.06769E-04-3.90536E-14
 -1       583 6.63982E-04-3.63614E-05-3.17234E-16
 -1       584 9.44220E-03-4.01208E-04-3.56353E-14
 -1       585 7.90143E-03 1.50445E-04-2.81271E-14
 -1       586 8.63349E-03 7.29720E-05-3.19103E-14
 -1       587 7.58258E-03 3.81905E-05-2.68681E-14
 -1       588 7.21569E-03-1.22763E-04-2.56881E-14
 -1       589 6.83359E-03-2.87739E-04-2.47384E-14
 -1       590 6.52834E-03-4.03211E-04-2.41858E-14
 -1       591 6.24622E-03-4.76439E-04-2.34885E-14
 -1       592 6.16282E-03-5.05443E-04-2.34515E-14
 -1       593 6.21936E-03-5.38749E-04-2.37308E-14
 -1       594 6.87708E-03-8.09163E-04-2.54368E-14
 -1       595 7.35104E-03-1.07587E-03-2.64948E-14
 -1       596 1.08076E-02-1.31259E-03-3.99663E-14
 -1       597 1.11164E-02-1.19692E-03-4.09681E-14
 -1       598 1.10817E-02-1.12259E-03-4.06980E-14
 -1       599 6.76775E-04-1.59571E-04-3.31075E-16
 -1       600 9.15864E-03-2.51347E-04-3.48710E-14
 -1       601 8.07346E-03 1.90373E-04-2.88872E-14
 -1       602 8.42167E-03 1.48161E-04-3.08419E-14
 -1       603 6.88463E-04-2.01524E-04-3.29032E-16
 -1       604 1.10395E-02-1.25321E-03-4.16032E-14
 -1       605 6.31919E-03-5.43671E-04-2.34352E-14
 -1       606 8.99940E-04 7.36916E-05-4.92831E-16
 -1       607 8.97859E-04 2.50242E-05-5.18289E-16
 -1       608 9.11992E-04 1.77387E-04-4.22741E-16
 -1       609 9.24288E-04 2.35781E-04-3.74270E-16
 -1       610 9.43806E-04 3.00642E-04-3.14026E-16
 -1       611 9.95275E-04 3.46349E-04-3.00961E-16
 -1       612 1.08367E-03-2.90946E-04-7.40432E-16
 -1       613 1.35491E-03-3.31481E-04-1.11560E-15
 -1       614 1.64115E-03-3.62553E-04-1.59386E-15
 -1       615 1.92745E-03-3.83971E-04-2.15686E-15
 -1       616 2.21361E-03-3.97881E-04-2.80186E-15
 -1       617 2.49959E-03-4.06043E-04-3.52841E-15
 -1       618 2.78541E-03-4.09838E-04-4.33512E-15
 -1       619 3.05682E-03-4.10360E-04-5.17706E-15
 -1       620 3.34234E-03-4.08421E-04-6.14483E-15
 -1       621 3.62760E-03-4.04517E-04-7.19531E-15
 -1       622 3.91238E-03-3.99127E-04-8.32622E-15
 -1       623 4.19631E-03-3.92698E-04-9.53930E-15
 -1       624 4.47875E-03-3.85769E-04-1.08329E-14
 -1       625 4.74475E-03-3.79422E-04-1.21366E-14
 -1       626 5.02084E-03-3.74182E-04-1.35861E-14
 -1       627 5.29067E-03-3.72352E-04-1.51151E-14
 -1       628 5.55105E-03-3.76992E-04-1.67216E-14
 -1       629 5.79786E-03-3.92592E-04-1.84081E-14
 -1       630 6.02645E-03-4.25342E-04-2.01727E-14
 -1       631 6.21375E-03-4.76899E-04-2.18231E-14
 -1       632 9.04094E-04-1.21604E-04-5.63463E-16
 -1       633 1.10105E-02-1.15194E-03-4.19053E-14
 -1       634 1.12417E-02-1.27924E-03-4.37820E-14
 -1       635 1.14726E-02-1.37032E-03-4.65080E-14
 -1       636 1.17128E-02-1.49863E-03-4.92840E-14
 -1       637 1.19671E-02-1.64713E-03-5.20952E-14
 -1       638 1.22193E-02-1.79974E-03-5.48055E-14
 -1       639 1.24927E-02-1.96732E-03-5.76950E-14
 -1       640 1.27716E-02-2.13851E-03-6.06192E-14
 -1       641 1.30538E-02-2.31114E-03-6.35761E-14
 -1       642 1.33379E-02-2.48398E-03-6.65491E-14
 -1       643 1.36232E-02-2.65640E-03-6.95529E-14
 -1       644 1.38947E-02-2.81951E-03-7.24258E-14
 -1       645 1.41807E-02-2.99040E-03-7.54709E-14
 -1       646 1.44667E-02-3.16046E-03-7.85354E-14
 -1       647 1.47527E-02-3.32973E-03-8.16292E-14
 -1       648 1.12034E-02-1.18431E-03-4.22514E-14
 -1       649 2.76099E-03 4.46562E-04-3.13343E-15
 -1       650 2.19098E-03 4.32237E-04-1.92002E-15
 -1       651 3.04617E-03 4.48246E-04-3.85619E-15
 -1       652 3.33165E-03 4.47640E-04-4.65683E-15
 -1       653 3.61758E-03 4.45526E-04-5.53612E-15
 -1       654 3.90410E-03 4.42586E-04-6.49632E-15
 -1       655 4.19142E-03 4.39468E-04-7.53991E-15
 -1       656 4.47978E-03 4.36845E-04-8.66789E-15
 -1       657 4.76948E-03 4.35455E-04-9.88157E-15
 -1       658 5.06086E-03 4.36104E-04-1.11798E-14
 -1       659 5.35425E-03 4.39622E-04-1.25628E-14
 -1       660 5.64985E-03 4.46725E-04-1.40342E-14
 -1       661 5.94757E-03 4.57738E-04-1.55962E-14
 -1       662 6.24683E-03 4.72154E-04-1.72442E-14
 -1       663 6.54639E-03 4.88015E-04-1.89772E-14
 -1       664 6.84436E-03 5.01255E-04-2.07950E-14
 -1       665 7.13870E-03 5.05330E-04-2.26998E-14
 -1       666 7.42801E-03 4.91686E-04-2.46912E-14
 -1       667 7.71252E-03 4.51463E-04-2.67609E-14
 -1       668 7.99442E-03 3.78212E-04-2.89091E-14
 -1       669 8.27708E-03 2.70334E-04-3.11357E-14
 -1       670 8.56353E-03 1.31721E-04-3.34416E-14
 -1       671 8.85514E-03-2.97883E-05-3.58186E-14
 -1       672 9.15132E-03-2.05196E-04-3.82608E-14
 -1       673 9.45029E-03-3.86706E-04-4.07716E-14
 -1       674 9.74999E-03-5.68875E-04-4.33486E-14
 -1       675 1.00488E-02-7.48640E-04-4.59960E-14
 -1       676 1.03458E-02-9.24767E-04-4.87098E-14
 -1       677 1.06406E-02-1.09717E-03-5.14824E-14
 -1       678 1.09333E-02-1.26638E-03-5.43117E-14
 -1       679 1.12243E-02-1.43314E-03-5.71965E-14
 -1       680 1.15138E-02-1.59820E-03-6.01351E-14
 -1       681 1.18022E-02-1.76222E-03-6.31094E-14
 -1       682 1.20898E-02-1.92571E-03-6.61175E-14
 -1       683 1.23768E-02-2.08907E-03-6.91556E-14
 -1       684 1.26634E-02-2.25254E-03-7.22164E-14
 -1       685 1.29497E-02-2.41629E-03-7.53091E-14
 -1       686 1.32357E-02-2.58042E-03-7.84347E-14
 -1       687 1.34895E-02-2.72443E-03-8.10027E-14
 -1       688 6.96754E-03-1.80522E-04-2.42999E-14
 -1       689 1.42313E-02-3.09817E-03-8.32657E-14
 -1       690 1.39034E-02-2.93289E-03-8.21989E-14
 -1       691 1.43946E-02-3.18054E-03-8.37951E-14
 -1       692 1.40675E-02-3.01565E-03-8.27362E-14
 -1       693 1.45547E-02-3.26149E-03-8.43091E-14
 -1       694 1.47173E-02-3.34396E-03-8.48217E-14
 -1       695 1.48796E-02-3.42669E-03-8.53221E-14
 -1       696 7.66621E-03 1.21129E-04-2.67311E-14
 -1       697 8.84818E-04-2.49141E-04-5.14386E-16
 -1       698 1.12462E-02-1.21061E-03-4.26287E-14
 -1       699 9.04385E-04 1.23962E-04-4.61772E-16
 -1       700 1.00977E-02-8.09077E-04-3.89359E-14
 -1       701 1.07053E-02-1.06989E-03-4.11986E-14
 -1       702 1.50515E-02-3.51335E-03-8.56980E-14
 -1       703 7.33476E-03-7.08154E-06-2.53498E-14
 -1       704 8.72965E-03 2.64703E-06-3.27665E-14
 -1       705 6.61078E-03-3.23325E-04-2.34384E-14
 -1       706 6.30909E-03-4.13259E-04-2.27573E-14
 -1       707 6.13115E-03-4.52521E-04-2.23847E-14
 -1       708 6.59931E-03-6.39240E-04-2.41184E-14
 -1       709 2.47597E-03 4.41630E-04-2.48830E-15
 -1       710 6.11371E-03-4.72223E-04-2.24185E-14
 -1       711 9.65160E-03-5.64553E-04-3.72053E-14
 -1       712 8.97816E-04-2.30361E-05-5.37917E-16
 -1       713 1.90585E-03 4.16828E-04-1.42817E-15
 -1       714 9.11486E-04-1.74834E-04-5.68501E-16
 -1       715 7.83106E-03 1.83139E-04-2.74637E-14
 -1       716 1.49022E-02-3.42172E-03-8.36549E-14
 -1       717 1.31653E-03 3.64074E-04-6.41858E-16
 -1       718 1.36522E-02-2.80738E-03-8.15612E-14
 -1       719 9.38159E-03-4.10163E-04-3.64144E-14
 -1       720 1.60214E-03 3.99064E-04-9.74315E-16
 -1       721 1.04673E-02-9.95353E-04-4.10712E-14
 -1       722 1.12478E-02-1.24150E-03-4.32041E-14
 -1       723 8.53067E-03 9.77045E-05-3.16775E-14
 -1       724 8.99790E-04-7.14448E-05-5.52960E-16
 -1       725 1.37778E-02-2.87026E-03-8.18845E-14
 -1       726 1.17936E-03 3.11506E-04-5.55986E-16
 -1       727 1.16166E-03 2.42291E-04-6.28285E-16
 -1       728 1.15549E-02-1.39572E-03-4.75320E-14
 -1       729 2.31978E-03 3.64571E-04-2.33966E-15
 -1       730 1.20347E-03-2.50899E-04-9.24208E-16
 -1       731 1.48903E-03-2.82397E-04-1.35979E-15
 -1       732 1.77597E-03-3.04999E-04-1.87902E-15
 -1       733 2.06351E-03-3.20346E-04-2.48017E-15
 -1       734 2.35111E-03-3.29970E-04-3.16164E-15
 -1       735 2.63846E-03-3.35191E-04-3.92252E-15
 -1       736 2.91105E-03-3.37049E-04-4.71878E-15
 -1       737 3.19737E-03-3.36550E-04-5.63682E-15
 -1       738 3.48287E-03-3.34196E-04-6.63780E-15
 -1       739 3.76720E-03-3.30555E-04-7.72054E-15
 -1       740 4.04989E-03-3.26176E-04-8.88296E-15
 -1       741 4.33018E-03-3.21690E-04-1.01271E-14
 -1       742 4.59320E-03-3.18091E-04-1.13829E-14
 -1       743 4.86503E-03-3.16177E-04-1.27833E-14
 -1       744 5.12932E-03-3.17931E-04-1.42625E-14
 -1       745 5.38267E-03-3.25883E-04-1.58207E-14
 -1       746 5.62035E-03-3.43403E-04-1.74557E-14
 -1       747 5.83586E-03-3.74573E-04-1.91712E-14
 -1       748 6.00349E-03-4.17772E-04-2.07831E-14
 -1       749 1.17715E-02-1.52927E-03-5.03183E-14
 -1       750 1.19978E-02-1.67014E-03-5.29967E-14
 -1       751 1.22515E-02-1.82816E-03-5.58577E-14
 -1       752 1.25162E-02-1.99253E-03-5.87552E-14
 -1       753 1.27884E-02-2.16057E-03-6.16851E-14
 -1       754 1.30656E-02-2.33044E-03-6.46433E-14
 -1       755 1.33460E-02-2.50100E-03-6.76231E-14
 -1       756 1.36143E-02-2.66306E-03-7.04822E-14
 -1       757 1.38980E-02-2.83332E-03-7.35162E-14
 -1       758 1.41826E-02-3.00306E-03-7.65685E-14
 -1       759 1.44676E-02-3.17222E-03-7.96465E-14
 -1       760 2.60664E-03 3.70942E-04-2.96418E-15
 -1       761 8.98161E-03-1.61299E-04-3.45895E-14
 -1       762 2.89335E-03 3.73755E-04-3.66464E-15
 -1       763 3.75323E-03 3.69464E-04-6.23501E-15
 -1       764 4.04031E-03 3.65934E-04-7.25305E-15
 -1       765 4.32808E-03 3.62281E-04-8.35364E-15
 -1       766 4.61701E-03 3.59103E-04-9.53843E-15
 -1       767 4.90771E-03 3.57098E-04-1.08076E-14
 -1       768 5.20090E-03 3.57101E-04-1.21611E-14
 -1       769 5.49735E-03 3.60058E-04-1.36015E-14
 -1       770 5.79771E-03 3.66916E-04-1.51286E-14
 -1       771 6.10219E-03 3.78324E-04-1.67442E-14
 -1       772 6.41016E-03 3.94054E-04-1.84454E-14
 -1       773 6.71984E-03 4.12084E-04-2.02288E-14
 -1       774 7.02832E-03 4.27442E-04-2.20976E-14
 -1       775 7.33242E-03 4.31548E-04-2.40508E-14
 -1       776 7.63028E-03 4.13045E-04-2.60892E-14
 -1       777 7.92290E-03 3.60897E-04-2.82066E-14
 -1       778 8.21416E-03 2.69034E-04-3.04020E-14
 -1       779 8.50870E-03 1.39149E-04-3.26779E-14
 -1       780 8.80934E-03-1.99328E-05-3.50329E-14
 -1       781 9.11569E-03-1.96535E-04-3.74558E-14
 -1       782 9.42508E-03-3.80292E-04-3.99481E-14
 -1       783 9.73429E-03-5.64216E-04-4.25114E-14
 -1       784 1.00408E-02-7.44775E-04-4.51362E-14
 -1       785 1.03435E-02-9.20866E-04-4.78317E-14
 -1       786 1.06420E-02-1.09274E-03-5.05866E-14
 -1       787 1.09368E-02-1.26122E-03-5.33911E-14
 -1       788 1.12287E-02-1.42724E-03-5.62517E-14
 -1       789 1.15184E-02-1.59167E-03-5.91624E-14
 -1       790 1.18065E-02-1.75517E-03-6.21163E-14
 -1       791 1.20935E-02-1.91827E-03-6.51052E-14
 -1       792 1.23799E-02-2.08132E-03-6.81288E-14
 -1       793 1.26660E-02-2.24454E-03-7.11767E-14
 -1       794 1.29518E-02-2.40808E-03-7.42505E-14
 -1       795 1.32375E-02-2.57201E-03-7.73640E-14
 -1       796 1.34449E-02-2.68961E-03-7.94572E-14
 -1       797 1.42285E-02-3.07698E-03-8.13276E-14
 -1       798 1.40654E-02-2.99511E-03-8.08006E-14
 -1       799 8.96827E-04-2.11240E-04-5.43453E-16
 -1       800 8.18834E-03 2.01634E-04-2.95351E-14
 -1       801 1.09744E-02-1.18641E-03-4.34456E-14
 -1       802 1.47306E-02-3.33520E-03-8.32859E-14
 -1       803 1.13836E-03 5.86206E-05-7.76638E-16
 -1       804 7.43334E-03 9.71156E-05-2.53630E-14
 -1       805 1.13150E-02-1.24771E-03-4.39834E-14
 -1       806 1.12095E-02-1.23107E-03-4.37681E-14
 -1       807 6.12468E-03-3.89575E-04-2.14231E-14
 -1       808 1.43911E-02-3.15888E-03-8.18475E-14
 -1       809 3.46652E-03 3.72325E-04-5.29904E-15
 -1       810 1.45609E-02-3.24684E-03-8.25715E-14
 -1       811 6.36448E-03-3.19919E-04-2.19026E-14
 -1       812 6.01273E-03-4.15048E-04-2.11279E-14
 -1       813 6.67492E-03-2.03770E-04-2.26259E-14
 -1       814 3.17995E-03 3.73963E-04-4.44204E-15
 -1       815 7.00564E-03-6.79904E-05-2.36371E-14
 -1       816 9.89296E-03-7.17922E-04-3.90128E-14
 -1       817 1.14992E-03 1.77962E-04-6.87621E-16
 -1       818 2.03278E-03 3.53430E-04-1.79123E-15
 -1       819 1.14946E-03-1.75051E-04-8.64665E-16
 -1       820 7.10952E-03 4.44041E-05-2.36418E-14
 -1       821 7.59536E-03 1.67810E-04-2.60694E-14
 -1       822 1.45992E-02-3.25388E-03-8.14604E-14
 -1       823 8.77885E-03-4.02639E-05-3.34664E-14
 -1       824 1.37389E-02-2.83147E-03-7.97388E-14
 -1       825 1.02654E-02-9.14626E-04-4.11432E-14
 -1       826 1.39024E-02-2.91343E-03-8.02722E-14
 -1       827 1.14225E-03-1.14434E-04-8.52627E-16
 -1       828 1.07833E-02-1.13539E-03-4.33115E-14
 -1       829 1.14249E-03 1.17127E-04-7.36438E-16
 -1       830 1.13700E-03 1.16921E-06-8.08794E-16
 -1       831 1.36131E-02-2.76916E-03-7.94225E-14
 -1       832 1.46525E-03 3.50036E-04-8.65515E-16
 -1       833 9.63496E-03-5.71135E-04-3.81973E-14
 -1       834 1.14782E-02-1.37462E-03-4.73055E-14
 -1       835 3.02766E-03 2.99982E-04-4.21462E-15
 -1       836 1.62018E-03-2.28145E-04-1.60109E-15
 -1       837 1.90782E-03-2.43732E-04-2.15573E-15
 -1       838 2.19618E-03-2.54059E-04-2.79015E-15
 -1       839 2.48460E-03-2.60261E-04-3.50380E-15
 -1       840 2.75824E-03-2.63219E-04-4.25340E-15
 -1       841 3.04555E-03-2.64033E-04-5.12033E-15
 -1       842 3.33178E-03-2.63164E-04-6.06896E-15
 -1       843 3.61653E-03-2.61220E-04-7.09878E-15
 -1       844 3.89931E-03-2.58798E-04-8.21104E-15
 -1       845 4.17942E-03-2.56577E-04-9.40214E-15
 -1       846 4.44215E-03-2.55438E-04-1.06085E-14
 -1       847 4.71382E-03-2.56407E-04-1.19569E-14
 -1       848 4.97857E-03-2.61214E-04-1.33844E-14
 -1       849 5.23375E-03-2.72089E-04-1.48904E-14
 -1       850 5.47575E-03-2.91882E-04-1.64759E-14
 -1       851 5.69971E-03-3.23866E-04-1.81396E-14
 -1       852 5.86867E-03-3.64145E-04-1.96056E-14
 -1       853 1.17783E-02-1.55904E-03-5.12690E-14
 -1       854 1.20167E-02-1.70499E-03-5.41005E-14
 -1       855 1.22696E-02-1.86004E-03-5.69748E-14
 -1       856 1.25327E-02-2.02128E-03-5.98791E-14
 -1       857 1.28031E-02-2.18637E-03-6.28146E-14
 -1       858 1.30785E-02-2.35367E-03-6.57782E-14
 -1       859 1.33433E-02-2.51364E-03-6.86216E-14
 -1       860 1.36243E-02-2.68246E-03-7.16431E-14
 -1       861 1.39070E-02-2.85129E-03-7.46806E-14
 -1       862 1.41907E-02-3.01990E-03-7.77414E-14
 -1       863 2.45200E-03 2.95106E-04-2.78078E-15
 -1       864 2.73999E-03 2.98911E-04-3.45989E-15
 -1       865 4.17600E-03 2.88780E-04-8.02863E-15
 -1       866 3.88889E-03 2.92998E-04-6.95439E-15
 -1       867 4.75304E-03 2.80002E-04-1.04287E-14
 -1       868 5.04464E-03 2.76576E-04-1.17524E-14
 -1       869 5.33982E-03 2.74913E-04-1.31610E-14
 -1       870 5.63991E-03 2.76227E-04-1.46564E-14
 -1       871 5.94612E-03 2.81980E-04-1.62387E-14
 -1       872 6.25901E-03 2.93606E-04-1.79082E-14
 -1       873 6.57785E-03 3.11630E-04-1.96589E-14
 -1       874 6.89991E-03 3.34193E-04-2.14915E-14
 -1       875 7.22054E-03 3.54784E-04-2.34088E-14
 -1       876 7.53501E-03 3.61018E-04-2.54104E-14
 -1       877 7.84127E-03 3.36497E-04-2.74959E-14
 -1       878 8.14257E-03 2.67231E-04-2.96609E-14
 -1       879 8.44499E-03 1.49571E-04-3.19063E-14
 -1       880 8.75475E-03-7.49043E-06-3.42357E-14
 -1       881 9.07241E-03-1.88092E-04-3.66386E-14
 -1       882 9.39425E-03-3.77028E-04-3.91143E-14
 -1       883 9.71526E-03-5.64453E-04-4.16585E-14
 -1       884 1.00315E-02-7.46220E-04-4.42696E-14
 -1       885 1.03413E-02-9.21721E-04-4.69457E-14
 -1       886 1.06445E-02-1.09203E-03-4.96849E-14
 -1       887 1.09419E-02-1.25865E-03-5.24713E-14
 -1       888 1.12349E-02-1.42295E-03-5.53132E-14
 -1       889 1.15246E-02-1.58596E-03-5.82001E-14
 -1       890 1.18123E-02-1.74841E-03-6.11294E-14
 -1       891 1.20987E-02-1.91077E-03-6.40999E-14
 -1       892 1.23843E-02-2.07331E-03-6.71011E-14
 -1       893 1.26696E-02-2.23621E-03-7.01377E-14
 -1       894 1.29548E-02-2.39953E-03-7.31975E-14
 -1       895 1.32400E-02-2.56332E-03-7.62892E-14
 -1       896 1.39013E-02-2.89239E-03-7.83656E-14
 -1       897 1.13173E-02-1.34065E-03-4.69677E-14
 -1       898 9.23310E-03-3.21346E-04-3.63196E-14
 -1       899 1.71439E-03 3.37666E-04-1.26479E-15
 -1       900 1.13825E-03-5.61445E-05-8.33965E-16
 -1       901 8.30540E-03 1.81160E-04-3.04207E-14
 -1       902 1.40641E-02-2.97364E-03-7.88869E-14
 -1       903 6.10592E-03-3.03182E-04-2.03423E-14
 -1       904 3.60198E-03 2.96538E-04-5.96131E-15
 -1       905 4.46382E-03 2.84286E-04-9.18674E-15
 -1       906 3.31497E-03 2.99011E-04-5.04787E-15
 -1       907 5.95488E-03-3.46196E-04-1.99822E-14
 -1       908 6.68701E-03-6.95387E-05-2.17866E-14
 -1       909 1.35289E-02-2.72951E-03-7.94438E-14
 -1       910 6.37682E-03-2.09097E-04-2.09828E-14
 -1       911 7.92077E-03 2.36232E-04-2.78895E-14
 -1       912 1.00059E-02-7.82401E-04-4.03043E-14
 -1       913 2.16382E-03 2.87685E-04-2.17711E-15
 -1       914 7.27753E-03 1.19804E-04-2.43198E-14
 -1       915 1.43217E-02-3.10159E-03-7.95426E-14
 -1       916 1.42337E-02-3.06089E-03-7.96120E-14
 -1       917 1.37384E-02-2.81134E-03-7.78401E-14
 -1       918 1.06039E-02-1.07413E-03-4.33797E-14
 -1       919 1.11805E-02-1.30816E-03-4.68273E-14
 -1       920 8.53997E-03 8.68787E-05-3.21613E-14
 -1       921 9.02327E-03-1.89206E-04-3.51667E-14
 -1       922 1.35749E-02-2.72997E-03-7.73058E-14
 -1       923 1.38095E-03 3.37776E-05-1.12608E-15
 -1       924 1.34488E-02-2.66808E-03-7.69848E-14
 -1       925 1.47546E-03 2.68352E-04-1.01030E-15
 -1       926 1.38411E-03 9.90566E-05-1.07791E-15
 -1       927 6.33286E-03-8.16770E-05-1.99077E-14
 -1       928 9.52627E-03-4.99309E-04-3.83553E-14
 -1       929 2.04319E-03-1.79544E-04-2.43438E-15
 -1       930 2.33208E-03-1.85795E-04-3.09983E-15
 -1       931 2.60648E-03-1.89245E-04-3.80368E-15
 -1       932 2.89472E-03-1.90921E-04-4.62035E-15
 -1       933 3.18188E-03-1.91201E-04-5.51708E-15
 -1       934 3.46755E-03-1.90653E-04-6.49526E-15
 -1       935 3.75124E-03-1.89856E-04-7.55384E-15
 -1       936 4.03238E-03-1.89465E-04-8.69331E-15
 -1       937 4.29643E-03-1.90212E-04-9.84856E-15
 -1       938 4.57024E-03-1.93216E-04-1.11450E-14
 -1       939 4.83858E-03-1.99921E-04-1.25207E-14
 -1       940 5.09984E-03-2.12221E-04-1.39743E-14
 -1       941 5.35207E-03-2.32458E-04-1.55085E-14
 -1       942 5.59302E-03-2.63218E-04-1.71223E-14
 -1       943 5.78045E-03-3.00196E-04-1.85232E-14
 -1       944 6.82128E-03 8.19935E-05-2.18137E-14
 -1       945 1.20101E-02-1.73104E-03-5.51287E-14
 -1       946 1.22676E-02-1.88418E-03-5.80074E-14
 -1       947 1.25330E-02-2.04320E-03-6.09203E-14
 -1       948 1.28043E-02-2.20610E-03-6.38626E-14
 -1       949 1.30659E-02-2.36308E-03-6.66905E-14
 -1       950 1.33444E-02-2.52968E-03-6.96935E-14
 -1       951 1.36251E-02-2.69700E-03-7.27203E-14
 -1       952 1.39074E-02-2.86460E-03-7.57630E-14
 -1       953 4.02445E-03 2.16355E-04-7.69241E-15
 -1       954 5.17902E-03 1.93381E-04-1.27144E-14
 -1       955 4.88709E-03 1.99293E-04-1.13352E-14
 -1       956 5.77935E-03 1.87064E-04-1.57287E-14
 -1       957 6.09192E-03 1.90771E-04-1.73649E-14
 -1       958 6.41449E-03 2.02806E-04-1.90835E-14
 -1       959 6.74670E-03 2.25268E-04-2.08846E-14
 -1       960 7.08392E-03 2.56588E-04-2.27668E-14
 -1       961 7.41861E-03 2.87079E-04-2.47305E-14
 -1       962 7.74500E-03 2.97441E-04-2.67774E-14
 -1       963 8.06057E-03 2.62274E-04-2.89114E-14
 -1       964 9.02381E-03-1.76508E-04-3.58075E-14
 -1       965 9.36083E-03-3.75645E-04-3.82652E-14
 -1       966 9.69649E-03-5.69790E-04-4.07951E-14
 -1       967 1.00243E-02-7.54015E-04-4.33917E-14
 -1       968 1.03422E-02-9.28533E-04-4.60542E-14
 -1       969 1.06503E-02-1.09605E-03-4.87748E-14
 -1       970 1.09501E-02-1.25942E-03-5.15494E-14
 -1       971 1.12438E-02-1.42074E-03-5.43738E-14
 -1       972 1.15332E-02-1.58135E-03-5.72442E-14
 -1       973 1.18201E-02-1.74204E-03-6.01530E-14
 -1       974 1.21053E-02-1.90320E-03-6.30992E-14
 -1       975 1.23899E-02-2.06499E-03-6.60819E-14
 -1       976 1.26742E-02-2.22745E-03-6.91001E-14
 -1       977 1.29585E-02-2.39054E-03-7.21493E-14
 -1       978 1.40650E-03-1.45679E-04-1.23950E-15
 -1       979 6.08579E-03-1.92634E-04-1.93051E-14
 -1       980 1.84853E-03 2.76253E-04-1.59952E-15
 -1       981 1.39074E-03 1.65941E-04-1.01976E-15
 -1       982 3.73797E-03 2.20583E-04-6.64338E-15
 -1       983 1.38087E-03-3.10084E-05-1.16434E-15
 -1       984 1.37376E-02-2.78920E-03-7.59556E-14
 -1       985 3.16375E-03 2.25605E-04-4.78535E-15
 -1       986 1.17633E-02-1.58637E-03-5.22826E-14
 -1       987 3.45114E-03 2.23739E-04-5.67514E-15
 -1       988 1.14764E-02-1.44269E-03-4.95347E-14
 -1       989 5.47574E-03 1.88747E-04-1.41777E-14
 -1       990 7.62810E-03 2.49896E-04-2.60673E-14
 -1       991 1.75496E-03-1.69845E-04-1.84747E-15
 -1       992 2.29833E-03 2.19787E-04-2.58512E-15
 -1       993 9.87272E-03-7.01622E-04-4.04605E-14
 -1       994 2.87574E-03 2.25878E-04-3.97563E-15
 -1       995 1.40704E-02-2.96283E-03-7.76767E-14
 -1       996 1.32654E-03-7.81823E-05-1.10243E-15
 -1       997 1.39043E-02-2.87586E-03-7.68171E-14
 -1       998 1.67311E-03-9.57149E-05-1.67529E-15
 -1       999 4.31097E-03 2.11237E-04-8.82469E-15
 -1      1000 1.35751E-02-2.70896E-03-7.54343E-14
 -1      1001 2.58719E-03 2.24129E-04-3.24231E-15
 -1      1002 8.76495E-03-2.97025E-05-3.38640E-14
 -1      1003 1.32429E-02-2.55421E-03-7.52202E-14
 -1      1004 5.88220E-03-2.48455E-04-1.86534E-14
 -1      1005 1.10428E-02-1.27000E-03-4.68940E-14
 -1      1006 1.03597E-02-9.63162E-04-4.25159E-14
 -1      1007 1.34115E-02-2.62832E-03-7.49010E-14
 -1      1008 1.62717E-03 1.49109E-06-1.54125E-15
 -1      1009 1.32852E-02-2.56697E-03-7.45801E-14
 -1      1010 6.46226E-03 5.36549E-05-1.99300E-14
 -1      1011 9.19151E-03-2.87846E-04-3.65891E-14
 -1      1012 4.59820E-03 2.05443E-04-1.00392E-14
 -1      1013 1.62894E-03 7.24351E-05-1.48624E-15
 -1      1014 5.30877E-03 1.07318E-04-1.36936E-14
 -1      1015 7.15632E-03 1.76923E-04-2.34116E-14
 -1      1016 2.46373E-03-1.15787E-04-3.38937E-15
 -1      1017 2.75265E-03-1.17608E-04-4.15833E-15
 -1      1018 3.04071E-03-1.18484E-04-5.00427E-15
 -1      1019 3.32742E-03-1.18873E-04-5.93177E-15
 -1      1020 3.61235E-03-1.19254E-04-6.94032E-15
 -1      1021 3.89504E-03-1.20190E-04-8.02798E-15
 -1      1022 4.16107E-03-1.22231E-04-9.13445E-15
 -1      1023 4.43789E-03-1.26456E-04-1.03787E-14
 -1      1024 4.71079E-03-1.33987E-04-1.17038E-14
 -1      1025 4.97909E-03-1.46302E-04-1.31088E-14
 -1      1026 5.24224E-03-1.65145E-04-1.45919E-14
 -1      1027 5.50003E-03-1.92289E-04-1.61565E-14
 -1      1028 1.75472E-03 1.74069E-04-1.58773E-15
 -1      1029 1.22581E-02-1.90367E-03-5.90322E-14
 -1      1030 1.25276E-02-2.06178E-03-6.19525E-14
 -1      1031 1.27874E-02-2.21529E-03-6.47592E-14
 -1      1032 1.30641E-02-2.37916E-03-6.77453E-14
 -1      1033 1.33433E-02-2.54451E-03-7.07561E-14
 -1      1034 6.22994E-03 9.21587E-05-1.85018E-14
 -1      1035 5.91158E-03 9.16470E-05-1.68148E-14
 -1      1036 1.03510E-02-9.42433E-04-4.51513E-14
 -1      1037 1.06631E-02-1.10559E-03-4.78607E-14
 -1      1038 1.09641E-02-1.26398E-03-5.06214E-14
 -1      1039 1.12572E-02-1.42081E-03-5.34343E-14
 -1      1040 1.15452E-02-1.57788E-03-5.62889E-14
 -1      1041 1.18303E-02-1.73601E-03-5.91782E-14
 -1      1042 1.21138E-02-1.89547E-03-6.21079E-14
 -1      1043 1.23967E-02-2.05622E-03-6.50709E-14
 -1      1044 1.26796E-02-2.21811E-03-6.80726E-14
 -1      1045 1.29628E-02-2.38095E-03-7.11047E-14
 -1      1046 4.73046E-03 1.25909E-04-1.09100E-14
 -1      1047 6.78321E-03 1.54069E-04-2.13263E-14
 -1      1048 5.81155E-03-1.55305E-04-1.75997E-14
 -1      1049 1.00247E-02-7.69500E-04-4.25020E-14
 -1      1050 6.02402E-03-6.45518E-05-1.81708E-14
 -1      1051 5.01786E-03 1.16989E-04-1.22603E-14
 -1      1052 2.43591E-03 1.49993E-04-3.01365E-15
 -1      1053 1.19938E-02-1.75072E-03-5.61451E-14
 -1      1054 3.87433E-03 1.44816E-04-7.34693E-15
 -1      1055 2.17452E-03-1.12572E-04-2.69735E-15
 -1      1056 2.02615E-03 1.98063E-04-2.05663E-15
 -1      1057 1.17359E-02-1.60488E-03-5.32869E-14
 -1      1058 5.60554E-03 9.81743E-05-1.52123E-14
 -1      1059 1.92330E-03-1.04838E-04-2.15635E-15
 -1      1060 1.02166E-02-8.86733E-04-4.26702E-14
 -1      1061 3.01364E-03 1.52205E-04-4.51275E-15
 -1      1062 3.58832E-03 1.48522E-04-6.32356E-15
 -1      1063 5.69155E-03-2.17857E-04-1.73826E-14
 -1      1064 1.14277E-02-1.45295E-03-5.05209E-14
 -1      1065 1.36101E-02-2.70555E-03-7.38871E-14
 -1      1066 3.30144E-03 1.51004E-04-5.37774E-15
 -1      1067 1.34482E-02-2.62621E-03-7.33642E-14
 -1      1068 1.06885E-02-1.12022E-03-4.53950E-14
 -1      1069 2.72505E-03 1.51962E-04-3.72456E-15
 -1      1070 2.16395E-03 1.31472E-04-2.43485E-15
 -1      1071 4.44480E-03 1.33560E-04-9.64053E-15
 -1      1072 1.87676E-03-1.81407E-06-1.99853E-15
 -1      1073 1.32848E-02-2.54647E-03-7.28366E-14
 -1      1074 4.15967E-03 1.39853E-04-8.45209E-15
 -1      1075 1.12376E-02-1.36058E-03-4.86965E-14
 -1      1076 1.31816E-02-2.46659E-03-7.02380E-14
 -1      1077 1.19748E-02-1.76486E-03-5.71494E-14
 -1      1078 2.89420E-03-4.53584E-05-4.48764E-15
 -1      1079 3.18193E-03-4.61285E-05-5.36138E-15
 -1      1080 3.46819E-03-4.71667E-05-6.31586E-15
 -1      1081 3.75260E-03-4.88859E-05-7.35038E-15
 -1      1082 4.02081E-03-5.16049E-05-8.40595E-15
 -1      1083 4.30080E-03-5.62781E-05-9.59516E-15
 -1      1084 4.57828E-03-6.36309E-05-1.08672E-14
 -1      1085 4.85310E-03-7.46939E-05-1.22194E-14
 -1      1086 5.12567E-03-9.06561E-05-1.36493E-14
 -1      1087 5.39694E-03-1.12399E-04-1.51613E-14
 -1      1088 5.60388E-03-1.33068E-04-1.63656E-14
 -1      1089 2.86530E-03 7.89971E-05-4.22871E-15
 -1      1090 1.25126E-02-2.07320E-03-6.29013E-14
 -1      1091 1.27889E-02-2.23436E-03-6.58693E-14
 -1      1092 1.89558E-03 1.01618E-04-1.93351E-15
 -1      1093 5.79649E-03-5.20367E-05-1.69143E-14
 -1      1094 1.12773E-02-1.42287E-03-5.24856E-14
 -1      1095 1.09872E-02-1.27223E-03-4.96868E-14
 -1      1096 1.06881E-02-1.12096E-03-4.69364E-14
 -1      1097 1.15617E-02-1.57517E-03-5.53283E-14
 -1      1098 1.18435E-02-1.72993E-03-5.82053E-14
 -1      1099 1.21243E-02-1.88723E-03-6.11167E-14
 -1      1100 1.24049E-02-2.04672E-03-6.40652E-14
 -1      1101 1.26860E-02-2.20797E-03-6.70459E-14
 -1      1102 1.29853E-02-2.37667E-03-6.99315E-14
 -1      1103 4.85962E-03 4.61000E-05-1.17987E-14
 -1      1104 5.14361E-03 3.34496E-05-1.32034E-14
 -1      1105 2.57629E-03 7.86629E-05-3.46449E-15
 -1      1106 2.31610E-03-4.34284E-05-2.97353E-15
 -1      1107 1.17067E-02-1.61624E-03-5.42845E-14
 -1      1108 2.60542E-03-4.45503E-05-3.69264E-15
 -1      1109 5.43119E-03 1.85020E-05-1.46909E-14
 -1      1110 1.22423E-02-1.91699E-03-6.00082E-14
 -1      1111 1.09058E-02-1.22251E-03-4.71782E-14
 -1      1112 3.15350E-03 7.83003E-05-5.06945E-15
 -1      1113 1.13847E-02-1.45544E-03-5.14968E-14
 -1      1114 4.57697E-03 5.62424E-05-1.04753E-14
 -1      1115 2.30474E-03 6.24280E-05-2.83520E-15
 -1      1116 3.72641E-03 7.37866E-05-6.99196E-15
 -1      1117 1.30838E-02-2.42193E-03-7.00877E-14
 -1      1118 2.09607E-03-2.20792E-05-2.46193E-15
 -1      1119 4.01092E-03 6.96730E-05-8.07067E-15
 -1      1120 3.32562E-03 2.60289E-05-5.70999E-15
 -1      1121 4.44558E-03 9.72681E-06-1.00455E-14
 -1      1122 3.44059E-03 7.66023E-05-5.99110E-15
 -1      1123 4.29429E-03 6.39415E-05-9.23193E-15
 -1      1124 1.11141E-02-1.32170E-03-4.89857E-14
 -1      1125 1.18603E-02-1.72304E-03-5.72255E-14
 -1      1126 1.21368E-02-1.87790E-03-6.01212E-14
 -1      1127 1.24142E-02-2.03604E-03-6.30554E-14
 -1      1128 1.26929E-02-2.19669E-03-6.60256E-14
 -1      1129 1.28881E-02-2.30896E-03-6.80501E-14
 -1      1130 2.13508E-03 4.89535E-05-2.47651E-15
 -1      1131 1.16325E-02-1.59769E-03-5.48118E-14
 -1      1132 0.00000E+00 0.00000E+00 0.00000E+00
 -1      1133 0.00000E+00 0.00000E+00 0.00000E+00
 -1      1134 0.00000E+00 0.00000E+00 0.00000E+00
 -1      1135 0.00000E+00 0.00000E+00 0.00000E+00
 -1      1136 0.00000E+00 0.00000E+00 0.00000E+00
 -1      1137 0.00000E+00 0.00000E+00 0.00000E+00
 -1      1138 0.00000E+00 0.00000E+00 0.00000E+00
 -1      1139 0.00000E+00 0.00000E+00 0.00000E+00
 -1      1140 0.00000E+00 0.00000E+00 0.00000E+00
 -1      1141 0.00000E+00 0.00000E+00 0.00000E+00
 -1      1142 0.00000E+00 0.00000E+00 0.00000E+00
 -1      1143 0.00000E+00 0.00000E+00 0.00000E+00
 -1      1144 0.00000E+00 0.00000E+00 0.00000E+00
 -1      1145 0.00000E+00 0.00000E+00 0.00000E+00
 -1      1146 0.00000E+00 0.00000E+00 0.00000E+00
 -1      1147 0.00000E+00 0.00000E+00 0.00000E+00
 -1      1148 0.00000E+00 0.00000E+00 0.00000E+00
 -1      1149 2.02568E-04-1.42950E-04 1.63986E-18
 -1      1150 5.36510E-04-3.29973E-04-5.29362E-17
 -1      1151 8.19018E-04-4.53478E-04-1.96891E-16
 -1      1152 1.08865E-03-5.36193E-04-4.44401E-16
 -1      1153 1.35393E-03-5.93803E-04-7.90017E-16
 -1      1154 1.61853E-03-6.34395E-04-1.23066E-15
 -1      1155 1.87773E-03-6.62086E-04-1.74950E-15
 -1      1156 2.13902E-03-6.80979E-04-2.35403E-15
 -1      1157 2.40958E-03-6.93422E-04-3.06036E-15
 -1      1158 2.68287E-03-7.00528E-04-3.85686E-15
 -1      1159 2.95893E-03-7.03563E-04-4.73996E-15
 -1      1160 3.23777E-03-7.03455E-04-5.70813E-15
 -1      1161 3.51242E-03-7.00965E-04-6.73365E-15
 -1      1162 3.79007E-03-6.96572E-04-7.83660E-15
 -1      1163 4.07847E-03-6.90448E-04-9.04965E-15
 -1      1164 4.37149E-03-6.83021E-04-1.03442E-14
 -1      1165 4.67065E-03-6.74731E-04-1.17248E-14
 -1      1166 4.97832E-03-6.66350E-04-1.31913E-14
 -1      1167 5.28992E-03-6.59547E-04-1.46977E-14
 -1      1168 5.61786E-03-6.56873E-04-1.62782E-14
 -1      1169 5.97811E-03-6.64292E-04-1.79783E-14
 -1      1170 6.37152E-03-6.93387E-04-1.97584E-14
 -1      1171 6.80731E-03-7.65102E-04-2.16172E-14
 -1      1172 7.28937E-03-9.13133E-04-2.35534E-14
 -1      1173 7.77793E-03-1.16151E-03-2.54636E-14
 -1      1174 8.25583E-03-1.53053E-03-2.74546E-14
 -1      1175 8.65876E-03-1.96121E-03-2.95363E-14
 -1      1176 8.92110E-03-2.27351E-03-3.14890E-14
 -1      1177 9.12011E-03-2.38543E-03-3.34790E-14
 -1      1178 9.36031E-03-2.27475E-03-3.56926E-14
 -1      1179 9.72716E-03-2.01133E-03-3.81805E-14
 -1      1180 1.02140E-02-1.75838E-03-4.08686E-14
 -1      1181 1.07180E-02-1.63250E-03-4.35400E-14
 -1      1182 1.11981E-02-1.62576E-03-4.62385E-14
 -1      1183 1.16459E-02-1.70393E-03-4.90345E-14
 -1      1184 1.20495E-02-1.83193E-03-5.18622E-14
 -1      1185 1.24177E-02-1.98575E-03-5.47367E-14
 -1      1186 1.27599E-02-2.15194E-03-5.76507E-14
 -1      1187 1.30758E-02-2.31917E-03-6.05292E-14
 -1      1188 1.33797E-02-2.48821E-03-6.34368E-14
 -1      1189 1.36827E-02-2.66184E-03-6.64421E-14
 -1      1190 1.39799E-02-2.83492E-03-6.94685E-14
 -1      1191 1.42730E-02-3.00716E-03-7.24973E-14
 -1      1192 1.45635E-02-3.17846E-03-7.55328E-14
 -1      1193 1.48449E-02-3.34460E-03-7.85105E-14
 -1      1194 1.51251E-02-3.50995E-03-8.15134E-14
 -1      1195 1.54117E-02-3.67878E-03-8.46151E-14
 -1      1196 1.56978E-02-3.84695E-03-8.77387E-14
 -1      1197 1.59835E-02-4.01455E-03-9.08820E-14
 -1      1198 1.62692E-02-4.18169E-03-9.40526E-14
 -1      1199 1.65477E-02-4.34440E-03-9.71672E-14
 -1      1200 2.28214E-04 1.60577E-04 3.30275E-17
 -1      1201 5.53277E-04 3.41762E-04 6.25991E-17
 -1      1202 8.33583E-04 4.60435E-04 3.53314E-17
 -1      1203 1.10289E-03 5.41161E-04-6.04849E-17
 -1      1204 1.36812E-03 5.97781E-04-2.28021E-16
 -1      1205 1.63288E-03 6.37791E-04-4.70937E-16
 -1      1206 1.89901E-03 6.65740E-04-7.92931E-16
 -1      1207 2.16739E-03 6.84720E-04-1.19085E-15
 -1      1208 2.43841E-03 6.96997E-04-1.66702E-15
 -1      1209 2.71217E-03 7.04300E-04-2.22385E-15
 -1      1210 2.98863E-03 7.07973E-04-2.86110E-15
 -1      1211 3.26772E-03 7.09083E-04-3.57772E-15
 -1      1212 3.54934E-03 7.08509E-04-4.37679E-15
 -1      1213 3.83337E-03 7.07020E-04-5.25871E-15
 -1      1214 4.11970E-03 7.05335E-04-6.22427E-15
 -1      1215 4.40815E-03 7.04174E-04-7.27920E-15
 -1      1216 4.69842E-03 7.04271E-04-8.42009E-15
 -1      1217 4.99000E-03 7.06356E-04-9.64486E-15
 -1      1218 5.28203E-03 7.11068E-04-1.09590E-14
 -1      1219 5.57325E-03 7.18774E-04-1.23627E-14
 -1      1220 5.86188E-03 7.29304E-04-1.38551E-14
 -1      1221 6.14575E-03 7.41588E-04-1.54365E-14
 -1      1222 6.42243E-03 7.53288E-04-1.71073E-14
 -1      1223 6.68972E-03 7.60552E-04-1.88739E-14
 -1      1224 6.94622E-03 7.58084E-04-2.07262E-14
 -1      1225 7.19194E-03 7.39691E-04-2.26650E-14
 -1      1226 7.42878E-03 6.99350E-04-2.46872E-14
 -1      1227 7.66039E-03 6.32545E-04-2.67867E-14
 -1      1228 7.89161E-03 5.37434E-04-2.89605E-14
 -1      1229 8.12733E-03 4.15358E-04-3.12091E-14
 -1      1230 8.37149E-03 2.70465E-04-3.35290E-14
 -1      1231 8.62627E-03 1.08619E-04-3.59150E-14
 -1      1232 8.89201E-03-6.39489E-05-3.83580E-14
 -1      1233 9.16750E-03-2.41768E-04-4.08601E-14
 -1      1234 9.45067E-03-4.20758E-04-4.34369E-14
 -1      1235 9.73915E-03-5.98366E-04-4.60969E-14
 -1      1236 1.00307E-02-7.73343E-04-4.88348E-14
 -1      1237 1.03237E-02-9.45384E-04-5.16490E-14
 -1      1238 1.06168E-02-1.11475E-03-5.45207E-14
 -1      1239 1.09093E-02-1.28198E-03-5.74439E-14
 -1      1240 1.12008E-02-1.44767E-03-6.04069E-14
 -1      1241 1.14911E-02-1.61238E-03-6.34112E-14
 -1      1242 1.17802E-02-1.77656E-03-6.64459E-14
 -1      1243 1.20684E-02-1.94057E-03-6.95184E-14
 -1      1244 1.23557E-02-2.10465E-03-7.26171E-14
 -1      1245 1.26424E-02-2.26896E-03-7.57396E-14
 -1      1246 1.29286E-02-2.43358E-03-7.88916E-14
 -1      1247 1.32145E-02-2.59857E-03-8.20850E-14
 -1      1248 1.35002E-02-2.76390E-03-8.52776E-14
 -1      1249 1.37787E-02-2.92533E-03-8.84034E-14
 -1      1250 1.39958E-02-3.04615E-03-9.02067E-14
 -1      1251 1.41587E-02-3.13048E-03-9.07583E-14
 -1      1252 1.43218E-02-3.21477E-03-9.13063E-14
 -1      1253 1.44852E-02-3.29892E-03-9.18518E-14
 -1      1254 1.46488E-02-3.38281E-03-9.24212E-14
 -1      1255 1.48112E-02-3.46570E-03-9.29839E-14
 -1      1256 1.49735E-02-3.54830E-03-9.35385E-14
 -1      1257 1.51371E-02-3.63139E-03-9.40782E-14
 -1      1258 1.53005E-02-3.71436E-03-9.46131E-14
 -1      1259 1.54636E-02-3.79733E-03-9.51378E-14
 -1      1260 1.56266E-02-3.88044E-03-9.56371E-14
 -1      1261 1.57881E-02-3.96308E-03-9.61219E-14
 -1      1262 1.59496E-02-4.04603E-03-9.66090E-14
 -1      1263 1.61128E-02-4.13000E-03-9.70766E-14
 -1      1264 1.62762E-02-4.21423E-03-9.75234E-14
 -1      1265 1.64400E-02-4.29859E-03-9.79802E-14
 -1      1266 1.66027E-02-4.38222E-03-9.84538E-14
 -1      1267 1.10760E-02-9.21977E-04-3.71031E-14
 -1      1268 1.08826E-02-7.57559E-04-3.66756E-14
 -1      1269 1.05832E-02-5.81756E-04-3.60019E-14
 -1      1270 1.02149E-02-4.05619E-04-3.51449E-14
 -1      1271 9.78329E-03-2.32268E-04-3.41137E-14
 -1      1272 9.31036E-03-7.69181E-05-3.29607E-14
 -1      1273 8.83523E-03 3.35240E-05-3.17905E-14
 -1      1274 8.34701E-03 9.03759E-05-3.05953E-14
 -1      1275 7.88243E-03 8.94543E-05-2.94955E-14
 -1      1276 7.45966E-03 3.78227E-05-2.85548E-14
 -1      1277 7.07121E-03-5.16991E-05-2.77513E-14
 -1      1278 6.73453E-03-1.65561E-04-2.71137E-14
 -1      1279 6.46176E-03-2.95874E-04-2.66533E-14
 -1      1280 6.27802E-03-4.35468E-04-2.63987E-14
 -1      1281 6.20119E-03-5.82102E-04-2.63656E-14
 -1      1282 6.23673E-03-7.44394E-04-2.65547E-14
 -1      1283 6.39391E-03-9.35125E-04-2.69687E-14
 -1      1284 6.66656E-03-1.15791E-03-2.75922E-14
 -1      1285 7.04929E-03-1.41506E-03-2.84117E-14
 -1      1286 7.50811E-03-1.68078E-03-2.93758E-14
 -1      1287 8.02503E-03-1.91847E-03-3.04657E-14
 -1      1288 8.60999E-03-2.08479E-03-3.17128E-14
 -1      1289 9.17349E-03-2.12014E-03-3.29178E-14
 -1      1290 9.70272E-03-2.03513E-03-3.40495E-14
 -1      1291 1.01945E-02-1.86303E-03-3.51104E-14
 -1      1292 1.06087E-02-1.65477E-03-3.60088E-14
 -1      1293 1.09167E-02-1.44977E-03-3.66837E-14
 -1      1294 1.11041E-02-1.25809E-03-3.71207E-14
 -1      1295 1.11551E-02-1.08350E-03-3.72614E-14
 -1      1296 1.58596E-04-1.05061E-04-1.12622E-17
 -1      1297 1.12460E-04-5.69195E-05-2.50315E-17
 -1      1298 1.17483E-04-6.74575E-05-2.12910E-17
 -1      1299 1.08409E-04-4.34651E-05-3.07100E-17
 -1      1300 1.10255E-04-4.95700E-05-2.91515E-17
 -1      1301 2.26233E-04-1.07544E-04-6.89959E-17
 -1      1302 1.06866E-04-3.35915E-05-3.31224E-17
 -1      1303 1.07698E-04-3.83181E-05-3.25396E-17
 -1      1304 2.19101E-04-8.24015E-05-7.85098E-17
 -1      1305 1.06104E-04-2.53153E-05-3.40846E-17
 -1      1306 1.06529E-04-2.93486E-05-3.39897E-17
 -1      1307 2.15932E-04-6.32047E-05-8.27246E-17
 -1      1308 1.05706E-04-1.80579E-05-3.39762E-17
 -1      1309 1.05932E-04-2.16236E-05-3.41117E-17
 -1      1310 2.14293E-04-4.71043E-05-8.39037E-17
 -1      1311 1.05491E-04-1.12133E-05-3.34205E-17
 -1      1312 1.05612E-04-1.45929E-05-3.36238E-17
 -1      1313 2.13388E-04-3.26796E-05-8.32396E-17
 -1      1314 1.05393E-04-4.67648E-06-3.24312E-17
 -1      1315 1.05445E-04-7.92160E-06-3.27836E-17
 -1      1316 2.12898E-04-1.91388E-05-8.15591E-17
 -1      1317 1.05380E-04 1.73880E-06-3.10082E-17
 -1      1318 1.05379E-04-1.46511E-06-3.14148E-17
 -1      1319 2.12684E-04-6.14147E-06-7.88893E-17
 -1      1320 1.05450E-04 8.20331E-06-2.94090E-17
 -1      1321 1.05395E-04 4.95276E-06-2.98698E-17
 -1      1322 2.12688E-04 6.68974E-06-7.54063E-17
 -1      1323 1.05622E-04 1.48960E-05-2.71864E-17
 -1      1324 1.05497E-04 1.15037E-05-2.78504E-17
 -1      1325 2.12913E-04 1.97088E-05-7.10152E-17
 -1      1326 1.05947E-04 2.19054E-05-2.42997E-17
 -1      1327 1.05717E-04 1.83192E-05-2.51264E-17
 -1      1328 2.13414E-04 3.31813E-05-6.53096E-17
 -1      1329 1.06559E-04 2.97684E-05-2.04914E-17
 -1      1330 1.06126E-04 2.56936E-05-2.17518E-17
 -1      1331 2.14338E-04 4.76895E-05-5.80319E-17
 -1      1332 1.07737E-04 3.88694E-05-1.50433E-17
 -1      1333 1.06895E-04 3.40734E-05-1.70762E-17
 -1      1334 2.16022E-04 6.40920E-05-4.83283E-17
 -1      1335 1.10243E-04 5.03090E-05-7.31836E-18
 -1      1336 1.08424E-04 4.41266E-05-1.05845E-17
 -1      1337 2.19220E-04 8.36023E-05-3.49520E-17
 -1      1338 1.16865E-04 6.75688E-05 3.95734E-18
 -1      1339 1.12136E-04 5.77284E-05-1.34170E-18
 -1      1340 2.26241E-04 1.09336E-04-1.66832E-17
 -1      1341 1.57445E-04 1.09774E-04 2.03966E-17
 -1      1342 1.35568E-04 8.60258E-05 1.10047E-17
 -1      1343 2.55880E-04 1.51950E-04 4.85180E-18
 -1      1344 3.34800E-04 2.20531E-04 3.30817E-17
 -1      1345 4.05767E-04-2.53393E-04-5.65005E-17
 -1      1346 5.59265E-04-3.29844E-04-1.06049E-16
 -1      1347 7.06794E-04-3.91466E-04-1.82661E-16
 -1      1348 8.50207E-04-4.41512E-04-2.84169E-16
 -1      1349 5.96828E-04-3.24586E-04-1.65680E-16
 -1      1350 9.90372E-04-4.83092E-04-4.09408E-16
 -1      1351 1.12829E-03-5.17406E-04-5.58838E-16
 -1      1352 8.90453E-04-4.26667E-04-3.72898E-16
 -1      1353 1.26481E-03-5.46366E-04-7.31918E-16
 -1      1354 1.40044E-03-5.70457E-04-9.29188E-16
 -1      1355 1.17312E-03-4.96764E-04-6.74035E-16
 -1      1356 1.53566E-03-5.90763E-04-1.14923E-15
 -1      1357 1.67073E-03-6.07622E-04-1.39217E-15
 -1      1358 1.45015E-03-5.45662E-04-1.06799E-15
 -1      1359 1.79913E-03-6.21020E-04-1.64450E-15
 -1      1360 1.92773E-03-6.32124E-04-1.91710E-15
 -1      1361 1.71806E-03-5.78921E-04-1.54060E-15
 -1      1362 2.06345E-03-6.41716E-04-2.22511E-15
 -1      1363 2.19958E-03-6.49400E-04-2.55545E-15
 -1      1364 1.98563E-03-6.01716E-04-2.09822E-15
 -1      1365 2.33619E-03-6.55448E-04-2.90764E-15
 -1      1366 2.47331E-03-6.60067E-04-3.28139E-15
 -1      1367 2.26080E-03-6.16960E-04-2.75614E-15
 -1      1368 2.61098E-03-6.63440E-04-3.67790E-15
 -1      1369 2.74921E-03-6.65733E-04-4.09621E-15
 -1      1370 2.53731E-03-6.26001E-04-3.50161E-15
 -1      1371 2.88802E-03-6.67068E-04-4.53572E-15
 -1      1372 3.02743E-03-6.67579E-04-4.99550E-15
 -1      1373 2.81552E-03-6.30349E-04-4.33360E-15
 -1      1374 3.16744E-03-6.67337E-04-5.47752E-15
 -1      1375 3.30809E-03-6.66455E-04-5.98072E-15
 -1      1376 3.09566E-03-6.31098E-04-5.25007E-15
 -1      1377 3.44233E-03-6.65053E-04-6.47758E-15
 -1      1378 3.57719E-03-6.63188E-04-6.99339E-15
 -1      1379 3.37084E-03-6.29110E-04-6.22428E-15
 -1      1380 3.71988E-03-6.60723E-04-7.55575E-15
 -1      1381 3.86338E-03-6.57838E-04-8.13860E-15
 -1      1382 3.64828E-03-6.24939E-04-7.27783E-15
 -1      1383 4.00778E-03-6.54505E-04-8.74232E-15
 -1      1384 4.15318E-03-6.50833E-04-9.36720E-15
 -1      1385 3.93558E-03-6.18747E-04-8.43897E-15
 -1      1386 4.29972E-03-6.46770E-04-1.00129E-14
 -1      1387 4.44757E-03-6.42462E-04-1.06781E-14
 -1      1388 4.22624E-03-6.10875E-04-9.68286E-15
 -1      1389 4.59693E-03-6.37845E-04-1.13650E-14
 -1      1390 4.74806E-03-6.33138E-04-1.20739E-14
 -1      1391 4.52120E-03-6.01574E-04-1.10095E-14
 -1      1392 4.90127E-03-6.28288E-04-1.28030E-14
 -1      1393 5.05693E-03-6.23651E-04-1.35534E-14
 -1      1394 4.82178E-03-5.91250E-04-1.24197E-14
 -1      1395 5.20746E-03-6.19455E-04-1.42838E-14
 -1      1396 5.36106E-03-6.15955E-04-1.50319E-14
 -1      1397 5.12209E-03-5.81016E-04-1.38740E-14
 -1      1398 5.52658E-03-6.13268E-04-1.58389E-14
 -1      1399 5.69673E-03-6.12505E-04-1.66649E-14
 -1      1400 5.43199E-03-5.72304E-04-1.54027E-14
 -1      1401 5.87224E-03-6.14386E-04-1.75116E-14
 -1      1402 6.05395E-03-6.20464E-04-1.83787E-14
 -1      1403 5.76305E-03-5.68743E-04-1.70493E-14
 -1      1404 6.24265E-03-6.32474E-04-1.92653E-14
 -1      1405 6.43916E-03-6.52987E-04-2.01705E-14
 -1      1406 6.11156E-03-5.78390E-04-1.87758E-14
 -1      1407 6.64411E-03-6.85456E-04-2.10961E-14
 -1      1408 6.85782E-03-7.33981E-04-2.20408E-14
 -1      1409 6.48204E-03-6.16398E-04-2.05800E-14
 -1      1410 7.08033E-03-8.04020E-04-2.30047E-14
 -1      1411 7.31047E-03-9.01125E-04-2.39866E-14
 -1      1412 6.87900E-03-7.09772E-04-2.24613E-14
 -1      1413 7.52314E-03-1.01614E-03-2.48882E-14
 -1      1414 7.73776E-03-1.16122E-03-2.58078E-14
 -1      1415 7.28360E-03-8.86740E-04-2.43189E-14
 -1      1416 7.97660E-03-1.35594E-03-2.68500E-14
 -1      1417 8.20749E-03-1.57969E-03-2.79171E-14
 -1      1418 7.71411E-03-1.18807E-03-2.62504E-14
 -1      1419 8.40564E-03-1.79397E-03-2.89008E-14
 -1      1420 8.58964E-03-2.00034E-03-2.99056E-14
 -1      1421 8.15668E-03-1.61188E-03-2.82667E-14
 -1      1422 8.74024E-03-2.16132E-03-3.08205E-14
 -1      1423 8.88212E-03-2.27848E-03-3.17548E-14
 -1      1424 8.53918E-03-2.01437E-03-3.01545E-14
 -1      1425 9.02455E-03-2.34680E-03-3.27734E-14
 -1      1426 9.16922E-03-2.34912E-03-3.38163E-14
 -1      1427 8.88676E-03-2.27469E-03-3.20718E-14
 -1      1428 9.32700E-03-2.28754E-03-3.49414E-14
 -1      1429 9.49972E-03-2.17847E-03-3.60932E-14
 -1      1430 9.24625E-03-2.28582E-03-3.41998E-14
 -1      1431 9.70918E-03-2.02694E-03-3.73946E-14
 -1      1432 9.93329E-03-1.87458E-03-3.87147E-14
 -1      1433 9.66097E-03-2.04612E-03-3.66143E-14
 -1      1434 1.01686E-02-1.74310E-03-4.00540E-14
 -1      1435 1.04072E-02-1.64450E-03-4.14080E-14
 -1      1436 1.01246E-02-1.73921E-03-3.92458E-14
 -1      1437 1.06336E-02-1.58516E-03-4.27037E-14
 -1      1438 1.08553E-02-1.55722E-03-4.40094E-14
 -1      1439 1.05723E-02-1.54878E-03-4.18749E-14
 -1      1440 1.10821E-02-1.55698E-03-4.53913E-14
 -1      1441 1.13003E-02-1.58110E-03-4.67790E-14
 -1      1442 1.09955E-02-1.49597E-03-4.45464E-14
 -1      1443 1.15098E-02-1.62377E-03-4.81747E-14
 -1      1444 1.17107E-02-1.68049E-03-4.95775E-14
 -1      1445 1.14000E-02-1.54813E-03-4.73191E-14
 -1      1446 1.19034E-02-1.74720E-03-5.09912E-14
 -1      1447 1.20888E-02-1.82109E-03-5.24142E-14
 -1      1448 1.17771E-02-1.66467E-03-5.01212E-14
 -1      1449 1.22675E-02-1.89995E-03-5.38489E-14
 -1      1450 1.24406E-02-1.98211E-03-5.52933E-14
 -1      1451 1.21311E-02-1.81501E-03-5.29633E-14
 -1      1452 1.26087E-02-2.06659E-03-5.67462E-14
 -1      1453 1.27727E-02-2.15238E-03-5.82089E-14
 -1      1454 1.24668E-02-1.98143E-03-5.58439E-14
 -1      1455 1.29251E-02-2.23477E-03-5.96093E-14
 -1      1456 1.30748E-02-2.31748E-03-6.10151E-14
 -1      1457 1.27805E-02-2.15027E-03-5.86919E-14
 -1      1458 1.32299E-02-2.40485E-03-6.25027E-14
 -1      1459 1.33829E-02-2.49216E-03-6.39964E-14
 -1      1460 1.30841E-02-2.32127E-03-6.15720E-14
 -1      1461 1.35340E-02-2.57944E-03-6.54953E-14
 -1      1462 1.36837E-02-2.66648E-03-6.70009E-14
 -1      1463 1.33879E-02-2.49679E-03-6.45522E-14
 -1      1464 1.38322E-02-2.75334E-03-6.85094E-14
 -1      1465 1.39797E-02-2.83990E-03-7.00219E-14
 -1      1466 1.36862E-02-2.67152E-03-6.75550E-14
 -1      1467 1.41263E-02-2.92623E-03-7.15356E-14
 -1      1468 1.42721E-02-3.01227E-03-7.30503E-14
 -1      1469 1.39805E-02-2.84511E-03-7.05741E-14
 -1      1470 1.44175E-02-3.09807E-03-7.45695E-14
 -1      1471 1.45623E-02-3.18359E-03-7.60899E-14
 -1      1472 1.42721E-02-3.01751E-03-7.36038E-14
 -1      1473 1.46995E-02-3.26463E-03-7.75411E-14
 -1      1474 1.48364E-02-3.34544E-03-7.89985E-14
 -1      1475 1.45545E-02-3.18451E-03-7.65752E-14
 -1      1476 1.49802E-02-3.43031E-03-8.05380E-14
 -1      1477 1.51238E-02-3.51496E-03-8.20820E-14
 -1      1478 1.48355E-02-3.35055E-03-7.95622E-14
 -1      1479 1.52672E-02-3.59942E-03-8.36339E-14
 -1      1480 1.54105E-02-3.68370E-03-8.51898E-14
 -1      1481 1.51228E-02-3.51996E-03-8.26515E-14
 -1      1482 1.55536E-02-3.76781E-03-8.67526E-14
 -1      1483 1.56966E-02-3.85177E-03-8.83217E-14
 -1      1484 1.54095E-02-3.68859E-03-8.57672E-14
 -1      1485 1.58396E-02-3.93558E-03-8.98955E-14
 -1      1486 1.59825E-02-4.01926E-03-9.14725E-14
 -1      1487 1.56957E-02-3.85655E-03-8.89052E-14
 -1      1488 1.61254E-02-4.10283E-03-9.30558E-14
 -1      1489 1.62683E-02-4.18631E-03-9.46471E-14
 -1      1490 1.59816E-02-4.02394E-03-9.20630E-14
 -1      1491 1.64670E-02-4.30297E-03-9.69344E-14
 -1      1492 6.42538E-04 3.71512E-04 2.82435E-17
 -1      1493 4.92536E-04 3.03347E-04 3.82317E-17
 -1      1494 4.44561E-04 2.65586E-04 1.74014E-17
 -1      1495 9.27916E-04 4.71057E-04-4.08473E-17
 -1      1496 7.87155E-04 4.25787E-04 1.99222E-18
 -1      1497 7.44235E-04 3.90052E-04-2.70779E-17
 -1      1498 1.20263E-03 5.39934E-04-1.78880E-16
 -1      1499 1.06605E-03 5.08547E-04-1.00831E-16
 -1      1500 1.03013E-03 4.75027E-04-1.37328E-16
 -1      1501 1.47308E-03 5.88421E-04-3.89418E-16
 -1      1502 1.33807E-03 5.66338E-04-2.74710E-16
 -1      1503 1.30794E-03 5.34226E-04-3.17454E-16
 -1      1504 1.74261E-03 6.22433E-04-6.76827E-16
 -1      1505 1.60778E-03 6.06998E-04-5.23087E-16
 -1      1506 1.58215E-03 5.75718E-04-5.71551E-16
 -1      1507 2.01295E-03 6.45803E-04-1.04176E-15
 -1      1508 1.87759E-03 6.35277E-04-8.49621E-16
 -1      1509 1.85542E-03 6.04455E-04-9.02680E-16
 -1      1510 2.28498E-03 6.61254E-04-1.48422E-15
 -1      1511 2.14871E-03 6.54387E-04-1.25338E-15
 -1      1512 2.12920E-03 6.23789E-04-1.31161E-15
 -1      1513 2.55910E-03 6.70819E-04-2.00534E-15
 -1      1514 2.42176E-03 6.66669E-04-1.73470E-15
 -1      1515 2.40426E-03 6.36147E-04-1.79862E-15
 -1      1516 2.83546E-03 6.76057E-04-2.60684E-15
 -1      1517 2.69699E-03 6.73897E-04-2.29616E-15
 -1      1518 2.68100E-03 6.43355E-04-2.36427E-15
 -1      1519 3.11411E-03 6.78182E-04-3.28704E-15
 -1      1520 2.97450E-03 6.77442E-04-2.93723E-15
 -1      1521 2.95959E-03 6.46817E-04-3.00933E-15
 -1      1522 3.39501E-03 6.78168E-04-4.04855E-15
 -1      1523 3.25428E-03 6.78386E-04-3.65750E-15
 -1      1524 3.24011E-03 6.47633E-04-3.73342E-15
 -1      1525 3.67810E-03 6.76839E-04-4.89145E-15
 -1      1526 3.53629E-03 6.77619E-04-4.45939E-15
 -1      1527 3.52255E-03 6.46702E-04-4.53824E-15
 -1      1528 3.96331E-03 6.74935E-04-5.81725E-15
 -1      1529 3.82045E-03 6.75913E-04-5.34386E-15
 -1      1530 3.80689E-03 6.44806E-04-5.42513E-15
 -1      1531 4.25049E-03 6.73176E-04-6.82963E-15
 -1      1532 4.10666E-03 6.73993E-04-6.31243E-15
 -1      1533 4.09305E-03 6.42671E-04-6.39599E-15
 -1      1534 4.53944E-03 6.72299E-04-7.92849E-15
 -1      1535 4.39476E-03 6.72585E-04-7.36790E-15
 -1      1536 4.38089E-03 6.41033E-04-7.45361E-15
 -1      1537 4.82978E-03 6.73064E-04-9.11391E-15
 -1      1538 4.68446E-03 6.72440E-04-8.51096E-15
 -1      1539 4.67018E-03 6.40655E-04-8.59733E-15
 -1      1540 5.12093E-03 6.76208E-04-1.03838E-14
 -1      1541 4.97530E-03 6.74317E-04-9.73813E-15
 -1      1542 4.96052E-03 6.42318E-04-9.82719E-15
 -1      1543 5.41197E-03 6.82315E-04-1.17440E-14
 -1      1544 5.26653E-03 6.78896E-04-1.10529E-14
 -1      1545 5.25128E-03 6.46744E-04-1.11433E-14
 -1      1546 5.70159E-03 6.91601E-04-1.31928E-14
 -1      1547 5.55704E-03 6.86611E-04-1.24565E-14
 -1      1548 5.54153E-03 6.54421E-04-1.25470E-14
 -1      1549 5.98813E-03 7.03581E-04-1.47304E-14
 -1      1550 5.84536E-03 6.97371E-04-1.39500E-14
 -1      1551 5.83004E-03 6.65334E-04-1.40411E-14
 -1      1552 6.26965E-03 7.16685E-04-1.63575E-14
 -1      1553 6.12964E-03 7.10194E-04-1.55321E-14
 -1      1554 6.11528E-03 6.78588E-04-1.56247E-14
 -1      1555 6.54422E-03 7.27892E-04-1.80752E-14
 -1      1556 6.40792E-03 7.22818E-04-1.72054E-14
 -1      1557 6.39561E-03 6.91999E-04-1.72983E-14
 -1      1558 6.81031E-03 7.32588E-04-1.98855E-14
 -1      1559 6.67840E-03 7.31422E-04-1.89696E-14
 -1      1560 6.66951E-03 7.01787E-04-1.90618E-14
 -1      1561 7.06735E-03 7.24821E-04-2.17803E-14
 -1      1562 6.93997E-03 7.30659E-04-2.08224E-14
 -1      1563 6.93599E-03 7.02575E-04-2.09134E-14
 -1      1564 7.31608E-03 6.98122E-04-2.37592E-14
 -1      1565 7.19266E-03 7.14190E-04-2.27591E-14
 -1      1566 7.19503E-03 6.87902E-04-2.28505E-14
 -1      1567 7.55878E-03 6.46782E-04-2.58203E-14
 -1      1568 7.43799E-03 6.75758E-04-2.47792E-14
 -1      1569 7.44783E-03 6.51295E-04-2.48696E-14
 -1      1570 7.79894E-03 5.67249E-04-2.79570E-14
 -1      1571 7.67892E-03 6.10577E-04-2.68796E-14
 -1      1572 7.69680E-03 5.87718E-04-2.69681E-14
 -1      1573 8.04064E-03 4.59096E-04-3.01673E-14
 -1      1574 7.91933E-03 5.16585E-04-2.90530E-14
 -1      1575 7.94519E-03 4.94890E-04-2.91424E-14
 -1      1576 8.28761E-03 3.25141E-04-3.24538E-14
 -1      1577 8.16325E-03 3.95018E-04-3.13017E-14
 -1      1578 8.19638E-03 3.73936E-04-3.13909E-14
 -1      1579 8.54248E-03 1.70662E-04-3.48061E-14
 -1      1580 8.41393E-03 2.50059E-04-3.36211E-14
 -1      1581 8.45313E-03 2.29058E-04-3.37111E-14
 -1      1582 8.80640E-03 2.05334E-06-3.72229E-14
 -1      1583 8.67328E-03 8.77200E-05-3.60072E-14
 -1      1584 8.71709E-03 6.63897E-05-3.60972E-14
 -1      1585 9.07911E-03-1.74521E-04-3.96977E-14
 -1      1586 8.94171E-03-8.55727E-05-3.84531E-14
 -1      1587 8.98865E-03-1.07469E-04-3.85449E-14
 -1      1588 9.35929E-03-3.54082E-04-4.22418E-14
 -1      1589 9.21837E-03-2.64164E-04-4.09601E-14
 -1      1590 9.26712E-03-2.86699E-04-4.10560E-14
 -1      1591 9.64513E-03-5.33225E-04-4.48612E-14
 -1      1592 9.50163E-03-4.43843E-04-4.35402E-14
 -1      1593 9.55116E-03-4.66968E-04-4.36401E-14
 -1      1594 9.93470E-03-7.10049E-04-4.75571E-14
 -1      1595 9.78957E-03-6.21986E-04-4.62003E-14
 -1      1596 9.83918E-03-6.45582E-04-4.62993E-14
 -1      1597 1.02263E-02-8.83830E-04-5.03319E-14
 -1      1598 1.00804E-02-7.97326E-04-4.89355E-14
 -1      1599 1.01296E-02-8.21252E-04-4.90327E-14
 -1      1600 1.05187E-02-1.05462E-03-5.31717E-14
 -1      1601 1.03725E-02-9.69573E-04-5.17443E-14
 -1      1602 1.04212E-02-9.93695E-04-5.18372E-14
 -1      1603 1.08109E-02-1.22287E-03-5.60648E-14
 -1      1604 1.06649E-02-1.13902E-03-5.46120E-14
 -1      1605 1.07131E-02-1.16323E-03-5.47006E-14
 -1      1606 1.11024E-02-1.38922E-03-5.90061E-14
 -1      1607 1.09568E-02-1.30624E-03-5.75311E-14
 -1      1608 1.10045E-02-1.33046E-03-5.76170E-14
 -1      1609 1.13930E-02-1.55428E-03-6.19890E-14
 -1      1610 1.12478E-02-1.47188E-03-6.04922E-14
 -1      1611 1.12952E-02-1.49605E-03-6.05760E-14
 -1      1612 1.16825E-02-1.71858E-03-6.50060E-14
 -1      1613 1.15379E-02-1.63650E-03-6.34932E-14
 -1      1614 1.15850E-02-1.66059E-03-6.35750E-14
 -1      1615 1.19711E-02-1.88255E-03-6.80556E-14
 -1      1616 1.18270E-02-1.80059E-03-6.65263E-14
 -1      1617 1.18740E-02-1.82460E-03-6.66055E-14
 -1      1618 1.22589E-02-2.04647E-03-7.11384E-14
 -1      1619 1.21151E-02-1.96450E-03-6.95945E-14
 -1      1620 1.21620E-02-1.98843E-03-6.96696E-14
 -1      1621 1.25459E-02-2.21057E-03-7.42473E-14
 -1      1622 1.24025E-02-2.12849E-03-7.26902E-14
 -1      1623 1.24494E-02-2.15234E-03-7.27608E-14
 -1      1624 1.28325E-02-2.37496E-03-7.73818E-14
 -1      1625 1.26893E-02-2.29272E-03-7.58105E-14
 -1      1626 1.27363E-02-2.31650E-03-7.58805E-14
 -1      1627 1.31186E-02-2.53971E-03-8.05520E-14
 -1      1628 1.29756E-02-2.45729E-03-7.89608E-14
 -1      1629 1.30226E-02-2.48100E-03-7.90292E-14
 -1      1630 1.34045E-02-2.70484E-03-8.37435E-14
 -1      1631 1.32616E-02-2.62223E-03-8.21455E-14
 -1      1632 1.33087E-02-2.64590E-03-8.22095E-14
 -1      1633 1.36902E-02-2.87030E-03-8.69382E-14
 -1      1634 1.35473E-02-2.78754E-03-8.53413E-14
 -1      1635 1.35945E-02-2.81118E-03-8.54021E-14
 -1      1636 1.38601E-02-2.96747E-03-8.86822E-14
 -1      1637 1.40757E-02-3.07978E-03-8.95144E-14
 -1      1638 1.39942E-02-3.03765E-03-8.92356E-14
 -1      1639 1.42389E-02-3.16395E-03-9.00609E-14
 -1      1640 1.41573E-02-3.12188E-03-8.97872E-14
 -1      1641 1.39928E-02-3.02908E-03-8.82660E-14
 -1      1642 1.44024E-02-3.24795E-03-9.06174E-14
 -1      1643 1.43206E-02-3.20598E-03-9.03372E-14
 -1      1644 1.41561E-02-3.11316E-03-8.88185E-14
 -1      1645 1.45661E-02-3.33172E-03-9.11828E-14
 -1      1646 1.44843E-02-3.28987E-03-9.09005E-14
 -1      1647 1.43197E-02-3.19705E-03-8.93802E-14
 -1      1648 1.47271E-02-3.41381E-03-9.17347E-14
 -1      1649 1.46466E-02-3.37279E-03-9.14596E-14
 -1      1650 1.44821E-02-3.28000E-03-8.99372E-14
 -1      1651 1.48909E-02-3.49709E-03-9.22846E-14
 -1      1652 1.48090E-02-3.45548E-03-9.20118E-14
 -1      1653 1.46445E-02-3.36273E-03-9.04877E-14
 -1      1654 1.50544E-02-3.58020E-03-9.28201E-14
 -1      1655 1.49727E-02-3.53866E-03-9.25518E-14
 -1      1656 1.48082E-02-3.44596E-03-9.10289E-14
 -1      1657 1.52178E-02-3.66322E-03-9.33538E-14
 -1      1658 1.51361E-02-3.62171E-03-9.30882E-14
 -1      1659 1.49717E-02-3.52905E-03-9.15629E-14
 -1      1660 1.53809E-02-3.74627E-03-9.38701E-14
 -1      1661 1.52993E-02-3.70474E-03-9.36130E-14
 -1      1662 1.51350E-02-3.61209E-03-9.20917E-14
 -1      1663 1.55438E-02-3.82946E-03-9.43697E-14
 -1      1664 1.54623E-02-3.78784E-03-9.41204E-14
 -1      1665 1.52980E-02-3.69517E-03-9.26032E-14
 -1      1666 1.57038E-02-3.91145E-03-9.48495E-14
 -1      1667 1.56238E-02-3.87042E-03-9.46135E-14
 -1      1668 1.54595E-02-3.77768E-03-9.30980E-14
 -1      1669 1.58667E-02-3.99512E-03-9.53382E-14
 -1      1670 1.57853E-02-3.95325E-03-9.50934E-14
 -1      1671 1.56209E-02-3.86039E-03-9.35860E-14
 -1      1672 1.60299E-02-4.07905E-03-9.57999E-14
 -1      1673 1.59483E-02-4.03705E-03-9.55725E-14
 -1      1674 1.57838E-02-3.94406E-03-9.40639E-14
 -1      1675 1.61934E-02-4.16320E-03-9.62606E-14
 -1      1676 1.61116E-02-4.12110E-03-9.60296E-14
 -1      1677 1.59470E-02-4.02796E-03-9.45316E-14
 -1      1678 1.10468E-02-9.51361E-04-3.75492E-14
 -1      1679 1.11202E-02-1.00205E-03-3.77013E-14
 -1      1680 1.07929E-02-8.20156E-04-3.70168E-14
 -1      1681 1.09252E-02-8.84239E-04-3.72930E-14
 -1      1682 1.04164E-02-6.58561E-04-3.62651E-14
 -1      1683 1.05997E-02-7.43337E-04-3.66696E-14
 -1      1684 1.00207E-02-4.46643E-04-3.52281E-14
 -1      1685 1.02092E-02-5.37242E-04-3.56788E-14
 -1      1686 9.53229E-03-2.36525E-04-3.40926E-14
 -1      1687 9.75248E-03-3.44336E-04-3.46799E-14
 -1      1688 9.10950E-03-3.73939E-05-3.27907E-14
 -1      1689 9.30808E-03-1.17591E-04-3.33547E-14
 -1      1690 8.67677E-03 9.39015E-05-3.15013E-14
 -1      1691 8.87673E-03 4.12136E-05-3.21042E-14
 -1      1692 8.25206E-03 1.50317E-04-3.01963E-14
 -1      1693 8.43924E-03 1.40143E-04-3.07798E-14
 -1      1694 7.84701E-03 1.04525E-04-2.90678E-14
 -1      1695 8.02835E-03 1.32797E-04-2.95713E-14
 -1      1696 7.45555E-03 4.82156E-06-2.81097E-14
 -1      1697 7.63263E-03 5.65516E-05-2.85352E-14
 -1      1698 7.07201E-03-1.29451E-04-2.72869E-14
 -1      1699 7.24842E-03-6.39574E-05-2.76491E-14
 -1      1700 6.72802E-03-2.67642E-04-2.66581E-14
 -1      1701 6.88009E-03-2.04946E-04-2.69207E-14
 -1      1702 6.43496E-03-4.02312E-04-2.61922E-14
 -1      1703 6.56417E-03-3.43123E-04-2.63740E-14
 -1      1704 6.24545E-03-5.08785E-04-2.60058E-14
 -1      1705 6.31701E-03-4.61277E-04-2.60727E-14
 -1      1706 6.18051E-03-6.11703E-04-2.60012E-14
 -1      1707 6.19406E-03-5.64998E-04-2.59626E-14
 -1      1708 6.25520E-03-7.24008E-04-2.62493E-14
 -1      1709 6.20354E-03-6.70185E-04-2.61071E-14
 -1      1710 6.48413E-03-8.78266E-04-2.67273E-14
 -1      1711 6.35876E-03-7.98173E-04-2.64637E-14
 -1      1712 6.82205E-03-1.10288E-03-2.74684E-14
 -1      1713 6.65373E-03-9.98355E-04-2.71295E-14
 -1      1714 7.29970E-03-1.37809E-03-2.83577E-14
 -1      1715 7.07252E-03-1.23164E-03-2.78882E-14
 -1      1716 7.76121E-03-1.69423E-03-2.94290E-14
 -1      1717 7.54952E-03-1.55691E-03-2.89536E-14
 -1      1718 8.28642E-03-1.99034E-03-3.06537E-14
 -1      1719 8.05145E-03-1.85613E-03-3.00482E-14
 -1      1720 8.78453E-03-2.17299E-03-3.20407E-14
 -1      1721 8.56269E-03-2.11267E-03-3.14090E-14
 -1      1722 9.24295E-03-2.16138E-03-3.33353E-14
 -1      1723 9.03796E-03-2.18640E-03-3.27623E-14
 -1      1724 9.72030E-03-2.00219E-03-3.45509E-14
 -1      1725 9.50030E-03-2.08992E-03-3.39875E-14
 -1      1726 1.01892E-02-1.76552E-03-3.56826E-14
 -1      1727 9.97501E-03-1.88061E-03-3.51791E-14
 -1      1728 1.06068E-02-1.52066E-03-3.66452E-14
 -1      1729 1.04199E-02-1.62920E-03-3.62441E-14
 -1      1730 1.09376E-02-1.32860E-03-3.72904E-14
 -1      1731 1.08016E-02-1.41312E-03-3.70143E-14
 -1      1732 1.11342E-02-1.17151E-03-3.77656E-14
 -1      1733 1.10601E-02-1.23492E-03-3.76170E-14
 -1      1734 1.11669E-02-1.05859E-03-3.77602E-14
 -1      1735 1.11721E-02-1.10882E-03-3.77713E-14
 -1      1736 1.63233E-02-4.22415E-03-9.59319E-14
 -1      1737 1.06624E-02-8.56842E-04-3.73108E-14
 -1      1738 1.39073E-02-2.99111E-03-8.87426E-14
 -1      1739 1.38243E-02-2.94046E-03-8.74963E-14
 -1      1740 1.11539E-02-1.05225E-03-3.82438E-14
 -1      1741 1.09821E-02-9.73477E-04-3.79219E-14
 -1      1742 1.63573E-02-4.24747E-03-9.67193E-14
 -1      1743 1.62753E-02-4.20533E-03-9.64895E-14
 -1      1744 1.61106E-02-4.11207E-03-9.49952E-14
 -1      1745 1.02579E-02-6.75107E-04-3.63659E-14
 -1      1746 9.79471E-03-4.46489E-04-3.52235E-14
 -1      1747 9.34571E-03-2.01936E-04-3.39266E-14
 -1      1748 8.93155E-03 1.15208E-05-3.24977E-14
 -1      1749 8.52417E-03 1.44136E-04-3.10892E-14
 -1      1750 8.15879E-03 1.67277E-04-2.97485E-14
 -1      1751 7.78456E-03 8.79792E-05-2.85999E-14
 -1      1752 7.40491E-03-4.69217E-05-2.76175E-14
 -1      1753 7.02718E-03-2.04344E-04-2.68025E-14
 -1      1754 6.67477E-03-3.53769E-04-2.61627E-14
 -1      1755 6.38746E-03-4.69116E-04-2.57688E-14
 -1      1756 6.21244E-03-5.52184E-04-2.56104E-14
 -1      1757 6.18264E-03-6.20154E-04-2.56712E-14
 -1      1758 6.31452E-03-7.07272E-04-2.59837E-14
 -1      1759 6.59991E-03-8.58032E-04-2.65871E-14
 -1      1760 7.02310E-03-1.09096E-03-2.73974E-14
 -1      1761 7.51078E-03-1.40140E-03-2.83991E-14
 -1      1762 8.01535E-03-1.75828E-03-2.96060E-14
 -1      1763 8.49358E-03-2.07107E-03-3.09746E-14
 -1      1764 8.91901E-03-2.21688E-03-3.24552E-14
 -1      1765 9.33522E-03-2.14765E-03-3.38406E-14
 -1      1766 9.78553E-03-1.93232E-03-3.51338E-14
 -1      1767 1.02421E-02-1.65722E-03-3.63360E-14
 -1      1768 1.06616E-02-1.41407E-03-3.72775E-14
 -1      1769 1.09872E-02-1.23545E-03-3.79752E-14
 -1      1770 1.11599E-02-1.12805E-03-3.83034E-14
 -1      1771 2.77393E-04-1.71968E-04-4.87484E-17
 -1      1772 3.32179E-04-1.16643E-04-1.22556E-16
 -1      1773 3.36237E-04-1.32855E-04-1.18056E-16
 -1      1774 3.42143E-04-1.51864E-04-1.11890E-16
 -1      1775 3.51630E-04-1.73885E-04-1.02376E-16
 -1      1776 4.58265E-04-1.87845E-04-1.71927E-16
 -1      1777 3.24684E-04-6.52283E-05-1.27841E-16
 -1      1778 3.25817E-04-7.65157E-05-1.27936E-16
 -1      1779 3.23213E-04-4.37632E-05-1.26459E-16
 -1      1780 3.23858E-04-5.42349E-05-1.27448E-16
 -1      1781 4.36672E-04-7.90622E-05-1.88136E-16
 -1      1782 3.22435E-04-2.36939E-05-1.23572E-16
 -1      1783 3.22765E-04-3.35805E-05-1.25266E-16
 -1      1784 4.34692E-04-5.11455E-05-1.85480E-16
 -1      1785 3.22139E-04-4.32176E-06-1.19127E-16
 -1      1786 3.22238E-04-1.39415E-05-1.21539E-16
 -1      1787 4.33674E-04-2.48322E-05-1.80737E-16
 -1      1788 3.22254E-04 1.49287E-05-1.13787E-16
 -1      1789 3.22144E-04 5.30019E-06-1.16714E-16
 -1      1790 4.33371E-04 7.53609E-07-1.74258E-16
 -1      1791 3.22809E-04 3.46141E-05-1.06672E-16
 -1      1792 3.22464E-04 2.46990E-05-1.10494E-16
 -1      1793 4.33716E-04 2.63649E-05-1.65883E-16
 -1      1794 3.23920E-04 5.50004E-05-9.75917E-17
 -1      1795 3.23267E-04 4.46616E-05-1.02457E-16
 -1      1796 4.34778E-04 5.25306E-05-1.55082E-16
 -1      1797 3.25948E-04 7.76165E-05-8.60450E-17
 -1      1798 3.24767E-04 6.60512E-05-9.23605E-17
 -1      1799 4.36810E-04 8.03386E-05-1.41556E-16
 -1      1800 3.29598E-04 1.03434E-04-7.04596E-17
 -1      1801 3.27468E-04 9.00948E-05-7.90925E-17
 -1      1802 4.40418E-04 1.11262E-04-1.24100E-16
 -1      1803 3.36605E-04 1.34915E-04-4.92770E-17
 -1      1804 3.32477E-04 1.18392E-04-6.10270E-17
 -1      1805 4.46865E-04 1.47016E-04-1.01115E-16
 -1      1806 3.52126E-04 1.77344E-04-2.00713E-17
 -1      1807 3.42711E-04 1.54512E-04-3.60768E-17
 -1      1808 4.59217E-04 1.91089E-04-6.99853E-17
 -1      1809 4.07429E-04 2.33401E-04 3.32037E-18
 -1      1810 3.77889E-04 2.02412E-04-1.10182E-17
 -1      1811 4.95653E-04 2.43633E-04-4.04543E-17
 -1      1812 5.58197E-04 3.02070E-04-1.37694E-17
 -1      1813 3.32276E-04-1.87090E-04-7.75747E-17
 -1      1814 8.53105E-04 4.06256E-04-9.60061E-17
 -1      1815 7.06760E-04 3.58733E-04-4.68104E-17
 -1      1816 6.73113E-04 3.28212E-04-6.40492E-17
 -1      1817 7.92336E-04-3.68945E-04-3.35073E-16
 -1      1818 9.37739E-04-4.10610E-04-4.63998E-16
 -1      1819 1.08069E-03-4.45619E-04-6.15664E-16
 -1      1820 1.22246E-03-4.74695E-04-7.90383E-16
 -1      1821 9.89313E-04-3.93453E-04-5.57470E-16
 -1      1822 1.36294E-03-4.99234E-04-9.87735E-16
 -1      1823 1.50270E-03-5.19544E-04-1.20765E-15
 -1      1824 1.27517E-03-4.51755E-04-9.08019E-16
 -1      1825 1.63499E-03-5.35766E-04-1.43765E-15
 -1      1826 1.76698E-03-5.49195E-04-1.68790E-15
 -1      1827 1.55072E-03-4.91715E-04-1.33595E-15
 -1      1828 1.90582E-03-5.60908E-04-1.97258E-15
 -1      1829 2.04461E-03-5.70324E-04-2.27893E-15
 -1      1830 1.82457E-03-5.19368E-04-1.84833E-15
 -1      1831 2.18354E-03-5.77865E-04-2.60699E-15
 -1      1832 2.32261E-03-5.83702E-04-2.95667E-15
 -1      1833 2.10481E-03-5.38201E-04-2.45961E-15
 -1      1834 2.46194E-03-5.88120E-04-3.32750E-15
 -1      1835 2.60154E-03-5.91262E-04-3.72029E-15
 -1      1836 2.38516E-03-5.49811E-04-3.15611E-15
 -1      1837 2.74149E-03-5.93323E-04-4.13401E-15
 -1      1838 2.88177E-03-5.94417E-04-4.56861E-15
 -1      1839 2.66615E-03-5.55993E-04-3.93725E-15
 -1      1840 3.02247E-03-5.94671E-04-5.02499E-15
 -1      1841 3.16357E-03-5.94180E-04-5.50163E-15
 -1      1842 2.94809E-03-5.58054E-04-4.80283E-15
 -1      1843 3.29803E-03-5.93090E-04-5.97393E-15
 -1      1844 3.43292E-03-5.91461E-04-6.46530E-15
 -1      1845 3.22415E-03-5.56989E-04-5.72662E-15
 -1      1846 3.57541E-03-5.89198E-04-7.00216E-15
 -1      1847 3.71846E-03-5.86438E-04-7.56011E-15
 -1      1848 3.50156E-03-5.53497E-04-6.72982E-15
 -1      1849 3.86208E-03-5.83187E-04-8.13882E-15
 -1      1850 4.00639E-03-5.79510E-04-8.73769E-15
 -1      1851 3.78770E-03-5.47813E-04-7.84136E-15
 -1      1852 4.15139E-03-5.75391E-04-9.35661E-15
 -1      1853 4.29725E-03-5.70906E-04-9.99686E-15
 -1      1854 4.07576E-03-5.40286E-04-9.03414E-15
 -1      1855 4.44394E-03-5.66033E-04-1.06577E-14
 -1      1856 4.59176E-03-5.60875E-04-1.13385E-14
 -1      1857 4.36607E-03-5.31141E-04-1.03086E-14
 -1      1858 4.74060E-03-5.55433E-04-1.20401E-14
 -1      1859 4.89092E-03-5.49867E-04-1.27625E-14
 -1      1860 4.65908E-03-5.20658E-04-1.16651E-14
 -1      1861 5.03491E-03-5.44542E-04-1.34679E-14
 -1      1862 5.18066E-03-5.39392E-04-1.41912E-14
 -1      1863 4.94785E-03-5.09678E-04-1.30663E-14
 -1      1864 5.33561E-03-5.34451E-04-1.49718E-14
 -1      1865 5.49310E-03-5.30394E-04-1.57718E-14
 -1      1866 5.24022E-03-4.99035E-04-1.45444E-14
 -1      1867 5.65255E-03-5.27944E-04-1.65917E-14
 -1      1868 5.81525E-03-5.27837E-04-1.74315E-14
 -1      1869 5.54447E-03-4.90896E-04-1.61384E-14
 -1      1870 5.98046E-03-5.31563E-04-1.82913E-14
 -1      1871 6.14972E-03-5.40541E-04-1.91708E-14
 -1      1872 5.85396E-03-4.90512E-04-1.78107E-14
 -1      1873 6.32250E-03-5.57446E-04-2.00683E-14
 -1      1874 6.50022E-03-5.85143E-04-2.09861E-14
 -1      1875 6.17026E-03-5.07408E-04-1.95623E-14
 -1      1876 6.68361E-03-6.27592E-04-2.19232E-14
 -1      1877 6.87314E-03-6.90521E-04-2.28778E-14
 -1      1878 6.49750E-03-5.58865E-04-2.13897E-14
 -1      1879 7.05219E-03-7.67791E-04-2.37541E-14
 -1      1880 7.23687E-03-8.72148E-04-2.46459E-14
 -1      1881 6.82802E-03-6.66196E-04-2.31952E-14
 -1      1882 7.45708E-03-1.01991E-03-2.56559E-14
 -1      1883 7.68407E-03-1.21100E-03-2.66887E-14
 -1      1884 7.19624E-03-8.69074E-04-2.50684E-14
 -1      1885 8.75324E-03-2.20313E-03-3.14950E-14
 -1      1886 8.94933E-03-2.28150E-03-3.25017E-14
 -1      1887 9.13947E-03-2.28208E-03-3.35526E-14
 -1      1888 9.35090E-03-2.21071E-03-3.46667E-14
 -1      1889 9.57814E-03-2.06814E-03-3.58561E-14
 -1      1890 9.82147E-03-1.90118E-03-3.71481E-14
 -1      1891 1.00678E-02-1.74206E-03-3.84606E-14
 -1      1892 1.03011E-02-1.61029E-03-3.97917E-14
 -1      1893 1.00116E-02-1.74814E-03-3.76793E-14
 -1      1894 1.05188E-02-1.52299E-03-4.10707E-14
 -1      1895 1.07218E-02-1.46873E-03-4.23596E-14
 -1      1896 1.04739E-02-1.49895E-03-4.02688E-14
 -1      1897 1.09284E-02-1.44781E-03-4.37254E-14
 -1      1898 1.11241E-02-1.45461E-03-4.51020E-14
 -1      1899 1.08769E-02-1.40259E-03-4.29095E-14
 -1      1900 1.13133E-02-1.48491E-03-4.64862E-14
 -1      1901 1.14958E-02-1.53250E-03-4.78771E-14
 -1      1902 1.12438E-02-1.42596E-03-4.56551E-14
 -1      1903 1.16730E-02-1.59297E-03-4.92764E-14
 -1      1904 1.18460E-02-1.66289E-03-5.06849E-14
 -1      1905 1.15841E-02-1.52519E-03-4.84346E-14
 -1      1906 1.20146E-02-1.73920E-03-5.21053E-14
 -1      1907 1.21803E-02-1.82017E-03-5.35328E-14
 -1      1908 1.19099E-02-1.66632E-03-5.12479E-14
 -1      1909 1.23423E-02-1.90405E-03-5.49720E-14
 -1      1910 1.25021E-02-1.98996E-03-5.64201E-14
 -1      1911 1.22263E-02-1.82861E-03-5.41005E-14
 -1      1912 1.26514E-02-2.07264E-03-5.78029E-14
 -1      1913 1.27990E-02-2.15596E-03-5.91965E-14
 -1      1914 1.25281E-02-1.99623E-03-5.69197E-14
 -1      1915 1.29524E-02-2.24397E-03-6.06708E-14
 -1      1916 1.31043E-02-2.33205E-03-6.21516E-14
 -1      1917 1.28247E-02-2.16738E-03-5.97717E-14
 -1      1918 1.32548E-02-2.42005E-03-6.36389E-14
 -1      1919 1.34041E-02-2.50784E-03-6.51328E-14
 -1      1920 1.31243E-02-2.34370E-03-6.27280E-14
 -1      1921 1.35524E-02-2.59538E-03-6.66326E-14
 -1      1922 1.36998E-02-2.68260E-03-6.81357E-14
 -1      1923 1.34204E-02-2.51944E-03-6.57109E-14
 -1      1924 1.38465E-02-2.76952E-03-6.96419E-14
 -1      1925 1.39926E-02-2.85611E-03-7.11539E-14
 -1      1926 1.37137E-02-2.69403E-03-6.87139E-14
 -1      1927 1.41381E-02-2.94241E-03-7.26699E-14
 -1      1928 1.42831E-02-3.02839E-03-7.41888E-14
 -1      1929 1.40048E-02-2.86734E-03-7.17328E-14
 -1      1930 1.44206E-02-3.10982E-03-7.56355E-14
 -1      1931 1.45577E-02-3.19099E-03-7.70851E-14
 -1      1932 1.42872E-02-3.03512E-03-7.46957E-14
 -1      1933 1.47018E-02-3.27620E-03-7.86180E-14
 -1      1934 1.48456E-02-3.36115E-03-8.01562E-14
 -1      1935 1.45684E-02-3.20181E-03-7.76739E-14
 -1      1936 1.49893E-02-3.44590E-03-8.17015E-14
 -1      1937 1.51327E-02-3.53042E-03-8.32529E-14
 -1      1938 1.48559E-02-3.37179E-03-8.07503E-14
 -1      1939 1.52761E-02-3.61476E-03-8.48093E-14
 -1      1940 1.54193E-02-3.69892E-03-8.63715E-14
 -1      1941 1.51428E-02-3.54090E-03-8.38533E-14
 -1      1942 1.55624E-02-3.78291E-03-8.79421E-14
 -1      1943 1.57055E-02-3.86675E-03-8.95180E-14
 -1      1944 1.54292E-02-3.70925E-03-8.69795E-14
 -1      1945 1.58485E-02-3.95046E-03-9.10987E-14
 -1      1946 1.59914E-02-4.03404E-03-9.26833E-14
 -1      1947 1.57153E-02-3.87695E-03-9.01319E-14
 -1      1948 1.13806E-03 4.78685E-04-2.44975E-16
 -1      1949 9.96336E-04 4.45743E-04-1.61749E-16
 -1      1950 9.64107E-04 4.16352E-04-1.83542E-16
 -1      1951 1.05531E-02-8.90786E-04-3.76978E-14
 -1      1952 1.07416E-02-9.51854E-04-3.80543E-14
 -1      1953 1.41713E-03 5.29450E-04-4.65462E-16
 -1      1954 1.27798E-03 5.06387E-04-3.45928E-16
 -1      1955 1.24851E-03 4.78314E-04-3.71502E-16
 -1      1956 1.69357E-03 5.64852E-04-7.60785E-16
 -1      1957 1.55549E-03 5.48831E-04-6.03508E-16
 -1      1958 1.52878E-03 5.21710E-04-6.32700E-16
 -1      1959 1.96933E-03 5.89030E-04-1.13336E-15
 -1      1960 1.83144E-03 5.78176E-04-9.37279E-16
 -1      1961 1.80716E-03 5.51697E-04-9.69345E-16
 -1      1962 2.24554E-03 6.04907E-04-1.58418E-15
 -1      1963 2.10733E-03 5.97881E-04-1.34909E-15
 -1      1964 2.08505E-03 5.71809E-04-1.38374E-15
 -1      1965 2.52284E-03 6.14648E-04-2.11297E-15
 -1      1966 2.38403E-03 6.10449E-04-1.83889E-15
 -1      1967 2.36334E-03 5.84622E-04-1.87612E-15
 -1      1968 2.80155E-03 6.19890E-04-2.72001E-15
 -1      1969 2.66200E-03 6.17757E-04-2.40639E-15
 -1      1970 2.64255E-03 5.92060E-04-2.44612E-15
 -1      1971 3.08185E-03 6.21897E-04-3.40620E-15
 -1      1972 2.94150E-03 6.21239E-04-3.05343E-15
 -1      1973 2.92295E-03 5.95591E-04-3.09433E-15
 -1      1974 3.36382E-03 6.21676E-04-4.17225E-15
 -1      1975 3.22263E-03 6.22017E-04-3.77915E-15
 -1      1976 3.20471E-03 5.96355E-04-3.82206E-15
 -1      1977 3.64747E-03 6.20064E-04-5.01902E-15
 -1      1978 3.50544E-03 6.21002E-04-4.58555E-15
 -1      1979 3.48792E-03 5.95275E-04-4.62962E-15
 -1      1980 3.93280E-03 6.17813E-04-5.94800E-15
 -1      1981 3.78993E-03 6.18979E-04-5.47289E-15
 -1      1982 3.77260E-03 5.93143E-04-5.51806E-15
 -1      1983 4.21972E-03 6.15650E-04-6.96273E-15
 -1      1984 4.07606E-03 6.16681E-04-6.44408E-15
 -1      1985 4.05875E-03 5.90690E-04-6.48967E-15
 -1      1986 4.50811E-03 6.14326E-04-8.06251E-15
 -1      1987 4.36374E-03 6.14844E-04-7.50203E-15
 -1      1988 4.34632E-03 5.88654E-04-7.54731E-15
 -1      1989 4.79771E-03 6.14631E-04-9.24949E-15
 -1      1990 4.65278E-03 6.14238E-04-8.64510E-15
 -1      1991 4.63517E-03 5.87808E-04-8.69049E-15
 -1      1992 5.08812E-03 6.17351E-04-1.05215E-14
 -1      1993 4.94286E-03 6.15659E-04-9.87543E-15
 -1      1994 4.92509E-03 5.88959E-04-9.92019E-15
 -1      1995 5.37871E-03 6.23159E-04-1.18810E-14
 -1      1996 5.23346E-03 6.19858E-04-1.11903E-14
 -1      1997 5.21567E-03 5.92885E-04-1.12351E-14
 -1      1998 5.66858E-03 6.32400E-04-1.33294E-14
 -1      1999 5.52383E-03 6.27375E-04-1.25936E-14
 -1      2000 5.50632E-03 6.00176E-04-1.26378E-14
 -1      2001 5.95654E-03 6.44761E-04-1.48674E-14
 -1      2002 5.81291E-03 6.38271E-04-1.40871E-14
 -1      2003 5.79618E-03 6.10973E-04-1.41305E-14
 -1      2004 6.24119E-03 6.58859E-04-1.64943E-14
 -1      2005 6.09941E-03 6.51750E-04-1.56699E-14
 -1      2006 6.08415E-03 6.24592E-04-1.57124E-14
 -1      2007 6.52108E-03 6.71841E-04-1.82105E-14
 -1      2008 6.38186E-03 6.65737E-04-1.73413E-14
 -1      2009 6.36891E-03 6.39082E-04-1.73822E-14
 -1      2010 6.79498E-03 6.79159E-04-2.00167E-14
 -1      2011 6.65887E-03 6.76540E-04-1.91027E-14
 -1      2012 6.64914E-03 6.50854E-04-1.91413E-14
 -1      2013 7.06225E-03 6.74759E-04-2.19093E-14
 -1      2014 6.92947E-03 6.78802E-04-2.09517E-14
 -1      2015 6.92380E-03 6.54585E-04-2.09881E-14
 -1      2016 7.32327E-03 6.51853E-04-2.38845E-14
 -1      2017 7.19347E-03 6.65974E-04-2.28863E-14
 -1      2018 7.19255E-03 6.43638E-04-2.29202E-14
 -1      2019 7.57954E-03 6.04247E-04-2.59419E-14
 -1      2020 7.45182E-03 6.31382E-04-2.49036E-14
 -1      2021 7.45603E-03 6.11119E-04-2.49352E-14
 -1      2022 7.83361E-03 5.27863E-04-2.80772E-14
 -1      2023 7.70660E-03 5.69716E-04-2.70000E-14
 -1      2024 7.71606E-03 5.51414E-04-2.70297E-14
 -1      2025 8.08854E-03 4.21885E-04-3.02872E-14
 -1      2026 7.96070E-03 4.78435E-04-2.91733E-14
 -1      2027 7.97527E-03 4.61700E-04-2.92009E-14
 -1      2028 8.34718E-03 2.88992E-04-3.25731E-14
 -1      2029 8.21717E-03 3.58499E-04-3.14206E-14
 -1      2030 8.23653E-03 3.42773E-04-3.14487E-14
 -1      2031 8.61156E-03 1.34582E-04-3.49247E-14
 -1      2032 8.47851E-03 2.14088E-04-3.37406E-14
 -1      2033 8.50218E-03 1.98805E-04-3.37676E-14
 -1      2034 8.88257E-03-3.46558E-05-3.73418E-14
 -1      2035 8.74620E-03 5.14319E-05-3.61253E-14
 -1      2036 8.77354E-03 3.61490E-05-3.61527E-14
 -1      2037 9.16001E-03-2.12221E-04-3.98231E-14
 -1      2038 9.02053E-03-1.22713E-04-3.85758E-14
 -1      2039 9.05083E-03-1.38267E-04-3.86028E-14
 -1      2040 9.44290E-03-3.92846E-04-4.23711E-14
 -1      2041 9.30087E-03-3.02368E-04-4.10873E-14
 -1      2042 9.33335E-03-3.18304E-04-4.11176E-14
 -1      2043 9.72988E-03-5.72933E-04-4.49942E-14
 -1      2044 9.58600E-03-4.83077E-04-4.36731E-14
 -1      2045 9.61993E-03-4.99392E-04-4.37037E-14
 -1      2046 1.00195E-02-7.50485E-04-4.76883E-14
 -1      2047 9.87449E-03-6.62070E-04-4.63326E-14
 -1      2048 9.90926E-03-6.78699E-04-4.63625E-14
 -1      2049 1.03107E-02-9.24754E-04-5.04543E-14
 -1      2050 1.01650E-02-8.38025E-04-4.90621E-14
 -1      2051 1.02001E-02-8.54881E-04-4.90907E-14
 -1      2052 1.06022E-02-1.09581E-03-5.32846E-14
 -1      2053 1.04565E-02-1.01065E-03-5.18616E-14
 -1      2054 1.04916E-02-1.02765E-03-5.18859E-14
 -1      2055 1.08937E-02-1.26417E-03-5.61706E-14
 -1      2056 1.07480E-02-1.18029E-03-5.47206E-14
 -1      2057 1.07830E-02-1.19735E-03-5.47407E-14
 -1      2058 1.11845E-02-1.43050E-03-5.91067E-14
 -1      2059 1.10392E-02-1.34755E-03-5.76345E-14
 -1      2060 1.10740E-02-1.36462E-03-5.76504E-14
 -1      2061 1.14745E-02-1.59546E-03-6.20852E-14
 -1      2062 1.13296E-02-1.51312E-03-6.05905E-14
 -1      2063 1.13642E-02-1.53017E-03-6.06045E-14
 -1      2064 1.17637E-02-1.75963E-03-6.50964E-14
 -1      2065 1.16192E-02-1.67762E-03-6.35860E-14
 -1      2066 1.16536E-02-1.69462E-03-6.35983E-14
 -1      2067 1.20521E-02-1.92344E-03-6.81413E-14
 -1      2068 1.19080E-02-1.84156E-03-6.66154E-14
 -1      2069 1.19422E-02-1.85850E-03-6.66224E-14
 -1      2070 1.23398E-02-2.08722E-03-7.12143E-14
 -1      2071 1.21960E-02-2.00532E-03-6.96758E-14
 -1      2072 1.22301E-02-2.02220E-03-6.96813E-14
 -1      2073 1.26268E-02-2.25117E-03-7.43186E-14
 -1      2074 1.24834E-02-2.16916E-03-7.27629E-14
 -1      2075 1.25174E-02-2.18598E-03-7.27647E-14
 -1      2076 1.29134E-02-2.41544E-03-7.74498E-14
 -1      2077 1.27702E-02-2.33326E-03-7.58795E-14
 -1      2078 1.28042E-02-2.35002E-03-7.58801E-14
 -1      2079 1.31997E-02-2.58009E-03-8.06136E-14
 -1      2080 1.30566E-02-2.49771E-03-7.90278E-14
 -1      2081 1.30906E-02-2.51442E-03-7.90249E-14
 -1      2082 1.34857E-02-2.74514E-03-8.37967E-14
 -1      2083 1.33427E-02-2.66257E-03-8.22029E-14
 -1      2084 1.33768E-02-2.67923E-03-8.21980E-14
 -1      2085 1.37265E-02-2.88412E-03-8.64455E-14
 -1      2086 1.35836E-02-2.80140E-03-8.48480E-14
 -1      2087 1.36176E-02-2.81803E-03-8.48406E-14
 -1      2088 1.38134E-02-2.93063E-03-8.69406E-14
 -1      2089 1.42370E-02-3.14622E-03-8.81450E-14
 -1      2090 1.41551E-02-3.10435E-03-8.78641E-14
 -1      2091 1.40733E-02-3.06242E-03-8.75805E-14
 -1      2092 1.39915E-02-3.02044E-03-8.73007E-14
 -1      2093 1.39905E-02-3.01173E-03-8.63437E-14
 -1      2094 1.39432E-02-2.99659E-03-8.72579E-14
 -1      2095 1.38616E-02-2.95453E-03-8.69806E-14
 -1      2096 1.37637E-02-2.89822E-03-8.59325E-14
 -1      2097 1.38603E-02-2.94596E-03-8.60174E-14
 -1      2098 1.43980E-02-3.22837E-03-8.86892E-14
 -1      2099 1.43175E-02-3.18732E-03-8.84157E-14
 -1      2100 1.41529E-02-3.09473E-03-8.68979E-14
 -1      2101 1.45619E-02-3.31172E-03-8.92375E-14
 -1      2102 1.44800E-02-3.27007E-03-8.89646E-14
 -1      2103 1.43154E-02-3.17750E-03-8.74424E-14
 -1      2104 1.47256E-02-3.39488E-03-8.97730E-14
 -1      2105 1.46438E-02-3.35332E-03-8.95071E-14
 -1      2106 1.44793E-02-3.26075E-03-8.79854E-14
 -1      2107 1.48891E-02-3.47793E-03-9.03087E-14
 -1      2108 1.48074E-02-3.43641E-03-9.00409E-14
 -1      2109 1.46430E-02-3.34382E-03-8.85210E-14
 -1      2110 1.50523E-02-3.56093E-03-9.08326E-14
 -1      2111 1.49707E-02-3.51943E-03-9.05732E-14
 -1      2112 1.48064E-02-3.42679E-03-8.90527E-14
 -1      2113 1.52152E-02-3.64400E-03-9.13461E-14
 -1      2114 1.51338E-02-3.60245E-03-9.10935E-14
 -1      2115 1.49695E-02-3.50973E-03-8.95777E-14
 -1      2116 1.53752E-02-3.72579E-03-9.18387E-14
 -1      2117 1.52952E-02-3.68487E-03-9.15924E-14
 -1      2118 1.51310E-02-3.59204E-03-9.00873E-14
 -1      2119 1.55380E-02-3.80920E-03-9.23245E-14
 -1      2120 1.54566E-02-3.76747E-03-9.20815E-14
 -1      2121 1.52924E-02-3.67450E-03-9.05793E-14
 -1      2122 1.57009E-02-3.89286E-03-9.28006E-14
 -1      2123 1.56194E-02-3.85100E-03-9.25651E-14
 -1      2124 1.54551E-02-3.75790E-03-9.10640E-14
 -1      2125 1.58642E-02-3.97677E-03-9.32707E-14
 -1      2126 1.57825E-02-3.93479E-03-9.30351E-14
 -1      2127 1.56180E-02-3.84156E-03-9.15404E-14
 -1      2128 1.00853E-02-6.65361E-04-3.64261E-14
 -1      2129 1.02918E-02-7.74651E-04-3.70203E-14
 -1      2130 1.61586E-02-4.13084E-03-9.44373E-14
 -1      2131 4.51382E-04-2.33269E-04-1.31270E-16
 -1      2132 1.11353E-02-1.06812E-03-3.88233E-14
 -1      2133 1.11799E-02-1.08485E-03-3.88882E-14
 -1      2134 3.27296E-04-8.88191E-05-1.27109E-16
 -1      2135 3.29377E-04-1.01999E-04-1.25347E-16
 -1      2136 4.46408E-04-1.44879E-04-1.83433E-16
 -1      2137 4.40173E-04-1.09703E-04-1.87974E-16
 -1      2138 9.62814E-03-4.37338E-04-3.53071E-14
 -1      2139 9.85809E-03-5.53744E-04-3.58643E-14
 -1      2140 9.92727E-03-6.43614E-04-3.65089E-14
 -1      2141 9.14917E-03-1.42056E-04-3.36742E-14
 -1      2142 9.34067E-03-2.71350E-04-3.44175E-14
 -1      2143 8.79105E-03 5.84589E-05-3.22253E-14
 -1      2144 8.96670E-03-3.11142E-05-3.29145E-14
 -1      2145 8.43733E-03 1.74626E-04-3.07741E-14
 -1      2146 8.60716E-03 1.28934E-04-3.14952E-14
 -1      2147 8.67525E-03 9.65182E-05-3.19024E-14
 -1      2148 8.06350E-03 1.67365E-04-2.92383E-14
 -1      2149 8.22135E-03 1.90029E-04-2.98558E-14
 -1      2150 7.72053E-03 6.14864E-05-2.80755E-14
 -1      2151 7.88366E-03 1.22170E-04-2.85989E-14
 -1      2152 7.35540E-03-9.79741E-05-2.70579E-14
 -1      2153 7.52934E-03-1.71026E-05-2.75067E-14
 -1      2154 6.97542E-03-2.69045E-04-2.62313E-14
 -1      2155 7.15115E-03-1.89924E-04-2.65859E-14
 -1      2156 6.62069E-03-4.11103E-04-2.56486E-14
 -1      2157 6.78262E-03-3.47143E-04-2.59234E-14
 -1      2158 6.33253E-03-5.10963E-04-2.52471E-14
 -1      2159 6.45090E-03-4.74404E-04-2.53590E-14
 -1      2160 6.18648E-03-5.64198E-04-2.51750E-14
 -1      2161 6.23994E-03-5.43459E-04-2.52169E-14
 -1      2162 6.19426E-03-6.05449E-04-2.52586E-14
 -1      2163 6.16917E-03-5.87449E-04-2.51577E-14
 -1      2164 6.37669E-03-6.67167E-04-2.55586E-14
 -1      2165 6.26841E-03-6.31869E-04-2.53547E-14
 -1      2166 6.73422E-03-8.46345E-04-2.64283E-14
 -1      2167 6.55630E-03-7.57293E-04-2.60384E-14
 -1      2168 7.17743E-03-1.08011E-03-2.72389E-14
 -1      2169 6.94231E-03-9.55258E-04-2.68313E-14
 -1      2170 6.86343E-03-8.50603E-04-2.62727E-14
 -1      2171 7.71619E-03-1.45353E-03-2.84517E-14
 -1      2172 7.48646E-03-1.27439E-03-2.78660E-14
 -1      2173 8.17378E-03-1.80732E-03-2.96647E-14
 -1      2174 7.94798E-03-1.63183E-03-2.90532E-14
 -1      2175 7.87376E-03-1.51249E-03-2.85077E-14
 -1      2176 8.58936E-03-2.11776E-03-3.11539E-14
 -1      2177 8.38648E-03-1.97741E-03-3.04019E-14
 -1      2178 8.28441E-03-1.86731E-03-2.98368E-14
 -1      2179 8.93838E-03-2.24198E-03-3.25485E-14
 -1      2180 8.77056E-03-2.20641E-03-3.18259E-14
 -1      2181 9.36733E-03-2.14633E-03-3.42585E-14
 -1      2182 9.19224E-03-2.22172E-03-3.35953E-14
 -1      2183 9.84657E-03-1.85914E-03-3.58036E-14
 -1      2184 9.64210E-03-1.99461E-03-3.51620E-14
 -1      2185 1.02956E-02-1.56480E-03-3.70720E-14
 -1      2186 1.00841E-02-1.70278E-03-3.64990E-14
 -1      2187 1.07304E-02-1.32719E-03-3.80141E-14
 -1      2188 1.05421E-02-1.42368E-03-3.76390E-14
 -1      2189 1.10310E-02-1.18209E-03-3.88202E-14
 -1      2190 1.08991E-02-1.23906E-03-3.84954E-14
 -1      2191 1.11846E-02-1.10988E-03-3.90004E-14
 -1      2192 1.11427E-02-1.13229E-03-3.90012E-14
 -1      2193 1.09116E-02-9.99545E-04-3.83278E-14
 -1      2194 1.10353E-02-1.03438E-03-3.85899E-14
 -1      2195 1.60255E-02-4.05744E-03-9.34692E-14
 -1      2196 1.11928E-02-1.11035E-03-3.95835E-14
 -1      2197 9.03025E-03-2.26337E-03-3.29481E-14
 -1      2198 1.08240E-02-1.01376E-03-3.87184E-14
 -1      2199 6.00284E-04-2.95039E-04-2.09210E-16
 -1      2200 6.56187E-04-2.89522E-04-2.72148E-16
 -1      2201 7.94606E-03-1.44180E-03-2.77121E-14
 -1      2202 8.16320E-03-1.66405E-03-2.86864E-14
 -1      2203 8.41599E-03-1.93268E-03-2.99171E-14
 -1      2204 8.61059E-03-2.10203E-03-3.08269E-14
 -1      2205 9.50555E-03-2.09139E-03-3.51804E-14
 -1      2206 1.04067E-02-8.68134E-04-3.77558E-14
 -1      2207 8.32118E-03 1.95316E-04-3.02522E-14
 -1      2208 8.40156E-03 1.85259E-04-3.06498E-14
 -1      2209 8.21968E-03 2.01781E-04-2.97350E-14
 -1      2210 9.43996E-03-3.64925E-04-3.50458E-14
 -1      2211 1.59435E-02-4.01536E-03-9.32375E-14
 -1      2212 1.10928E-02-1.07701E-03-3.92319E-14
 -1      2213 1.10977E-02-1.15353E-03-3.95192E-14
 -1      2214 1.08131E-02-1.26516E-03-3.88555E-14
 -1      2215 1.04094E-02-1.47818E-03-3.78005E-14
 -1      2216 9.95048E-03-1.77502E-03-3.65271E-14
 -1      2217 8.65284E-03-2.14311E-03-3.12406E-14
 -1      2218 7.36157E-03-1.14000E-03-2.72892E-14
 -1      2219 6.47206E-03-6.68624E-04-2.54002E-14
 -1      2220 6.22595E-03-5.87691E-04-2.48373E-14
 -1      2221 6.16850E-03-5.63863E-04-2.47628E-14
 -1      2222 6.28015E-03-5.27500E-04-2.48093E-14
 -1      2223 6.53340E-03-4.51980E-04-2.51216E-14
 -1      2224 6.88918E-03-3.17917E-04-2.57108E-14
 -1      2225 7.26465E-03-1.49039E-04-2.64779E-14
 -1      2226 7.63105E-03 2.40110E-05-2.75059E-14
 -1      2227 7.66895E-03-1.24182E-03-2.70903E-14
 -1      2228 1.57789E-02-3.92200E-03-9.17463E-14
 -1      2229 9.00913E-03-8.84365E-05-3.33940E-14
 -1      2230 7.96703E-03 1.52613E-04-2.87039E-14
 -1      2231 5.47995E-04-5.50938E-05-2.61808E-16
 -1      2232 5.49030E-04-7.17616E-05-2.64410E-16
 -1      2233 5.50444E-04-8.90439E-05-2.66294E-16
 -1      2234 5.52299E-04-1.06989E-04-2.67310E-16
 -1      2235 6.65519E-04-9.51237E-05-3.59223E-16
 -1      2236 5.46595E-04 8.81713E-06-2.45192E-16
 -1      2237 5.46580E-04-6.95444E-06-2.50207E-16
 -1      2238 5.47339E-04 4.06984E-05-2.32873E-16
 -1      2239 5.46844E-04 2.46879E-05-2.39487E-16
 -1      2240 6.61539E-04 1.98342E-05-3.29110E-16
 -1      2241 5.49152E-04 7.32062E-05-2.17383E-16
 -1      2242 5.48096E-04 5.67684E-05-2.25663E-16
 -1      2243 6.62855E-04 5.75234E-05-3.12155E-16
 -1      2244 5.52522E-04 1.08588E-04-1.97894E-16
 -1      2245 5.50611E-04 9.05547E-05-2.08316E-16
 -1      2246 6.65704E-04 9.68463E-05-2.90932E-16
 -1      2247 5.58357E-04 1.47866E-04-1.72781E-16
 -1      2248 5.55066E-04 1.27665E-04-1.86158E-16
 -1      2249 6.70773E-04 1.39503E-04-2.64057E-16
 -1      2250 5.68646E-04 1.93436E-04-1.40336E-16
 -1      2251 5.62811E-04 1.69737E-04-1.57792E-16
 -1      2252 6.79368E-04 1.86988E-04-2.29959E-16
 -1      2253 5.87903E-04 2.48998E-04-9.72936E-17
 -1      2254 5.76843E-04 2.19750E-04-1.20468E-16
 -1      2255 6.94193E-04 2.41852E-04-1.86496E-16
 -1      2256 6.41923E-04 3.00758E-04-7.63820E-17
 -1      2257 6.14270E-04 2.73289E-04-8.89046E-17
 -1      2258 7.31406E-04 2.97138E-04-1.51870E-16
 -1      2259 7.88326E-04 3.48964E-04-1.29711E-16
 -1      2260 9.00673E-04-3.41891E-04-4.99329E-16
 -1      2261 1.04481E-03-3.75461E-04-6.53300E-16
 -1      2262 1.56359E-02-3.83838E-03-9.01602E-14
 -1      2263 1.55567E-02-3.79991E-03-9.01877E-14
 -1      2264 1.54929E-02-3.75463E-03-8.85807E-14
 -1      2265 8.01186E-03-1.58506E-03-2.86136E-14
 -1      2266 8.24123E-03-1.76246E-03-2.91868E-14
 -1      2267 9.81482E-03-6.24110E-04-3.66437E-14
 -1      2268 1.00179E-02-7.30864E-04-3.72139E-14
 -1      2269 1.07556E-02-1.03350E-03-3.92201E-14
 -1      2270 1.09115E-02-1.06873E-03-3.95009E-14
 -1      2271 1.18813E-03-4.03979E-04-8.29374E-16
 -1      2272 1.33102E-03-4.27886E-04-1.02753E-15
 -1      2273 1.10265E-03-3.56464E-04-7.51921E-16
 -1      2274 1.46617E-03-4.47101E-04-1.23592E-15
 -1      2275 1.60098E-03-4.63138E-04-1.46419E-15
 -1      2276 1.38195E-03-4.02267E-04-1.13737E-15
 -1      2277 1.74254E-03-4.77242E-04-1.72591E-15
 -1      2278 1.88387E-03-4.88699E-04-2.00950E-15
 -1      2279 1.66015E-03-4.34731E-04-1.60555E-15
 -1      2280 2.02506E-03-4.98008E-04-2.31389E-15
 -1      2281 2.16617E-03-5.05343E-04-2.64011E-15
 -1      2282 1.94460E-03-4.57405E-04-2.17080E-15
 -1      2283 2.30730E-03-5.11061E-04-2.98690E-15
 -1      2284 2.44846E-03-5.15303E-04-3.35467E-15
 -1      2285 2.22858E-03-4.71936E-04-2.81978E-15
 -1      2286 2.58973E-03-5.18320E-04-3.74417E-15
 -1      2287 2.73113E-03-5.20226E-04-4.15338E-15
 -1      2288 2.51244E-03-4.80334E-04-3.55293E-15
 -1      2289 2.87271E-03-5.21196E-04-4.58387E-15
 -1      2290 3.01447E-03-5.21318E-04-5.03533E-15
 -1      2291 2.79649E-03-4.84100E-04-4.36835E-15
 -1      2292 3.14935E-03-5.20753E-04-5.48315E-15
 -1      2293 3.28444E-03-5.19586E-04-5.94987E-15
 -1      2294 3.07379E-03-4.84362E-04-5.24273E-15
 -1      2295 3.42689E-03-5.17776E-04-6.46107E-15
 -1      2296 3.56961E-03-5.15423E-04-6.99301E-15
 -1      2297 3.35158E-03-4.81995E-04-6.19540E-15
 -1      2298 3.71262E-03-5.12566E-04-7.54656E-15
 -1      2299 3.85596E-03-5.09253E-04-8.12044E-15
 -1      2300 3.63708E-03-4.77373E-04-7.25543E-15
 -1      2301 3.99958E-03-5.05503E-04-8.71459E-15
 -1      2302 4.14359E-03-5.01359E-04-9.32846E-15
 -1      2303 3.92319E-03-4.70913E-04-8.39738E-15
 -1      2304 4.28789E-03-4.96842E-04-9.96282E-15
 -1      2305 4.43263E-03-4.91996E-04-1.06186E-14
 -1      2306 4.20984E-03-4.62918E-04-9.62087E-15
 -1      2307 4.57764E-03-4.86873E-04-1.12928E-14
 -1      2308 4.72314E-03-4.81530E-04-1.19878E-14
 -1      2309 4.49687E-03-4.53711E-04-1.09244E-14
 -1      2310 4.86153E-03-4.76377E-04-1.26689E-14
 -1      2311 5.00041E-03-4.71213E-04-1.33673E-14
 -1      2312 4.77670E-03-4.44050E-04-1.22742E-14
 -1      2313 5.14665E-03-4.66064E-04-1.41207E-14
 -1      2314 5.29342E-03-4.61334E-04-1.48950E-14
 -1      2315 5.05585E-03-4.34568E-04-1.37015E-14
 -1      2316 5.44000E-03-4.57651E-04-1.56890E-14
 -1      2317 5.58711E-03-4.55267E-04-1.65020E-14
 -1      2318 5.34032E-03-4.26720E-04-1.52436E-14
 -1      2319 5.73376E-03-4.55333E-04-1.73352E-14
 -1      2320 5.88100E-03-4.58392E-04-1.81883E-14
 -1      2321 5.62130E-03-4.23914E-04-1.68635E-14
 -1      2322 6.02773E-03-4.66329E-04-1.90600E-14
 -1      2323 6.17558E-03-4.80418E-04-1.99504E-14
 -1      2324 5.89700E-03-4.31658E-04-1.85620E-14
 -1      2325 6.32382E-03-5.03244E-04-2.08611E-14
 -1      2326 6.47528E-03-5.38132E-04-2.17901E-14
 -1      2327 6.16683E-03-4.59074E-04-2.03372E-14
 -1      2328 6.61481E-03-5.82037E-04-2.26412E-14
 -1      2329 6.76064E-03-6.43371E-04-2.35078E-14
 -1      2330 6.42178E-03-5.16576E-04-2.20930E-14
 -1      2331 6.97928E-03-7.52494E-04-2.45099E-14
 -1      2332 7.17382E-03-8.84442E-04-2.55104E-14
 -1      2333 1.07702E-03 4.23691E-04-2.85823E-16
 -1      2334 9.33154E-04 3.89474E-04-1.99181E-16
 -1      2335 9.03796E-04 3.62987E-04-2.12748E-16
 -1      2336 1.11949E-02-1.12159E-03-4.01773E-14
 -1      2337 1.12028E-02-1.12708E-03-4.02935E-14
 -1      2338 1.04577E-02-1.46860E-03-3.95045E-14
 -1      2339 1.06571E-02-1.39272E-03-4.07788E-14
 -1      2340 1.08507E-02-1.35812E-03-4.21311E-14
 -1      2341 1.10281E-02-1.35155E-03-4.34921E-14
 -1      2342 1.08409E-02-1.31119E-03-4.13537E-14
 -1      2343 1.11957E-02-1.37192E-03-4.48630E-14
 -1      2344 1.13566E-02-1.41040E-03-4.62428E-14
 -1      2345 1.11626E-02-1.31995E-03-4.40736E-14
 -1      2346 1.15130E-02-1.46381E-03-4.76304E-14
 -1      2347 1.16673E-02-1.52782E-03-4.90259E-14
 -1      2348 1.14546E-02-1.40640E-03-4.68285E-14
 -1      2349 1.18196E-02-1.59954E-03-5.04298E-14
 -1      2350 1.19714E-02-1.67708E-03-5.18443E-14
 -1      2351 1.17396E-02-1.53684E-03-4.96150E-14
 -1      2352 1.21220E-02-1.75839E-03-5.32688E-14
 -1      2353 1.22724E-02-1.84260E-03-5.47030E-14
 -1      2354 1.20255E-02-1.69145E-03-5.24389E-14
 -1      2355 1.24144E-02-1.92413E-03-5.60749E-14
 -1      2356 1.25563E-02-2.00680E-03-5.74525E-14
 -1      2357 1.23065E-02-1.85444E-03-5.52304E-14
 -1      2358 1.27048E-02-2.09441E-03-5.89134E-14
 -1      2359 1.28529E-02-2.18240E-03-6.03828E-14
 -1      2360 1.25891E-02-2.02308E-03-5.80586E-14
 -1      2361 1.30004E-02-2.27044E-03-6.18581E-14
 -1      2362 1.31475E-02-2.35843E-03-6.33415E-14
 -1      2363 1.28794E-02-2.19826E-03-6.09909E-14
 -1      2364 1.32940E-02-2.44622E-03-6.48299E-14
 -1      2365 1.34401E-02-2.53377E-03-6.63246E-14
 -1      2366 1.31697E-02-2.37369E-03-6.39520E-14
 -1      2367 1.35858E-02-2.62103E-03-6.78247E-14
 -1      2368 1.37311E-02-2.70797E-03-6.93285E-14
 -1      2369 1.34593E-02-2.54845E-03-6.69348E-14
 -1      2370 1.38761E-02-2.79460E-03-7.08382E-14
 -1      2371 1.40208E-02-2.88092E-03-7.23540E-14
 -1      2372 1.37483E-02-2.72213E-03-6.99452E-14
 -1      2373 1.41580E-02-2.96265E-03-7.37961E-14
 -1      2374 1.42950E-02-3.04411E-03-7.52411E-14
 -1      2375 1.40294E-02-2.89034E-03-7.28961E-14
 -1      2376 1.44389E-02-3.12961E-03-7.67699E-14
 -1      2377 1.45827E-02-3.21483E-03-7.83034E-14
 -1      2378 1.43100E-02-3.05749E-03-7.58660E-14
 -1      2379 1.47264E-02-3.29982E-03-7.98398E-14
 -1      2380 1.48699E-02-3.38458E-03-8.13860E-14
 -1      2381 1.45971E-02-3.22790E-03-7.89306E-14
 -1      2382 1.50132E-02-3.46914E-03-8.29374E-14
 -1      2383 1.51565E-02-3.55349E-03-8.44944E-14
 -1      2384 1.48839E-02-3.39740E-03-8.20207E-14
 -1      2385 1.52532E-02-3.61217E-03-8.57459E-14
 -1      2386 1.53963E-02-3.69620E-03-8.73145E-14
 -1      2387 1.53172E-02-3.65778E-03-8.73397E-14
 -1      2388 1.51239E-02-3.54060E-03-8.48267E-14
 -1      2389 1.58425E-03 4.94369E-04-7.74066E-16
 -1      2390 1.44329E-03 4.76492E-04-6.19378E-16
 -1      2391 1.33144E-03 4.65811E-04-4.97933E-16
 -1      2392 1.18945E-03 4.40943E-04-3.77912E-16
 -1      2393 1.16112E-03 4.15164E-04-3.93403E-16
 -1      2394 1.38707E-03 4.41099E-04-6.18822E-16
 -1      2395 2.14552E-03 5.39412E-04-1.58428E-15
 -1      2396 2.00536E-03 5.31453E-04-1.35260E-15
 -1      2397 2.42605E-03 5.50574E-04-2.10541E-15
 -1      2398 2.28574E-03 5.45736E-04-1.83499E-15
 -1      2399 2.20706E-03 5.06409E-04-1.78968E-15
 -1      2400 2.70717E-03 5.56757E-04-2.70415E-15
 -1      2401 2.56652E-03 5.54206E-04-2.39510E-15
 -1      2402 2.48944E-03 5.16007E-04-2.33960E-15
 -1      2403 2.98918E-03 5.59339E-04-3.38146E-15
 -1      2404 2.84806E-03 5.58433E-04-3.03284E-15
 -1      2405 2.77220E-03 5.21024E-04-2.96714E-15
 -1      2406 3.27222E-03 5.59396E-04-4.13727E-15
 -1      2407 3.13057E-03 5.59629E-04-3.74929E-15
 -1      2408 3.05556E-03 5.22742E-04-3.67267E-15
 -1      2409 3.55641E-03 5.57808E-04-4.97294E-15
 -1      2410 3.41417E-03 5.58762E-04-4.54517E-15
 -1      2411 3.33968E-03 5.22170E-04-4.45695E-15
 -1      2412 3.84182E-03 5.55339E-04-5.88967E-15
 -1      2413 3.69896E-03 5.56642E-04-5.42078E-15
 -1      2414 3.62470E-03 5.20139E-04-5.32006E-15
 -1      2415 4.12846E-03 5.52713E-04-6.89032E-15
 -1      2416 3.98499E-03 5.54005E-04-6.37922E-15
 -1      2417 3.91071E-03 5.17385E-04-6.26578E-15
 -1      2418 4.41635E-03 5.50669E-04-7.97631E-15
 -1      2419 4.27226E-03 5.51575E-04-7.42291E-15
 -1      2420 4.19779E-03 5.14616E-04-7.29486E-15
 -1      2421 4.70544E-03 5.49992E-04-9.14754E-15
 -1      2422 4.56077E-03 5.50115E-04-8.55124E-15
 -1      2423 4.48602E-03 5.12569E-04-8.40942E-15
 -1      2424 4.99560E-03 5.51506E-04-1.04044E-14
 -1      2425 4.85042E-03 5.50432E-04-9.76525E-15
 -1      2426 4.77545E-03 5.12039E-04-9.60848E-15
 -1      2427 5.28658E-03 5.55990E-04-1.17480E-14
 -1      2428 5.14104E-03 5.53341E-04-1.10656E-14
 -1      2429 5.06611E-03 5.13857E-04-1.08937E-14
 -1      2430 5.57794E-03 5.64011E-04-1.31796E-14
 -1      2431 5.43229E-03 5.59544E-04-1.24523E-14
 -1      2432 5.35789E-03 5.18809E-04-1.22654E-14
 -1      2433 5.86899E-03 5.75629E-04-1.47003E-14
 -1      2434 5.72360E-03 5.69398E-04-1.39287E-14
 -1      2435 5.65053E-03 5.27443E-04-1.37253E-14
 -1      2436 6.15878E-03 5.89993E-04-1.63102E-14
 -1      2437 6.01417E-03 5.82565E-04-1.54941E-14
 -1      2438 5.94350E-03 5.39762E-04-1.52741E-14
 -1      2439 6.44610E-03 6.04875E-04-1.80069E-14
 -1      2440 6.30288E-03 5.97564E-04-1.71481E-14
 -1      2441 6.23593E-03 5.54773E-04-1.69120E-14
 -1      2442 6.72965E-03 6.16283E-04-1.97933E-14
 -1      2443 6.58845E-03 6.11320E-04-1.88888E-14
 -1      2444 6.52659E-03 5.69983E-04-1.86364E-14
 -1      2445 7.00834E-03 6.18404E-04-2.16654E-14
 -1      2446 6.86965E-03 6.18909E-04-2.07182E-14
 -1      2447 6.81404E-03 5.80981E-04-2.04472E-14
 -1      2448 7.28176E-03 6.04150E-04-2.36209E-14
 -1      2449 7.14566E-03 6.13768E-04-2.26321E-14
 -1      2450 7.09701E-03 5.81411E-04-2.23433E-14
 -1      2451 7.55058E-03 5.66406E-04-2.56599E-14
 -1      2452 7.41658E-03 5.88598E-04-2.46306E-14
 -1      2453 7.37499E-03 5.63653E-04-2.43247E-14
 -1      2454 7.81665E-03 4.99773E-04-2.77772E-14
 -1      2455 7.68370E-03 5.36917E-04-2.67088E-14
 -1      2456 7.64870E-03 5.20326E-04-2.63868E-14
 -1      2457 8.08262E-03 4.02137E-04-2.99726E-14
 -1      2458 7.94936E-03 4.54810E-04-2.88658E-14
 -1      2459 7.92022E-03 4.46296E-04-2.85279E-14
 -1      2460 8.35118E-03 2.75341E-04-3.22436E-14
 -1      2461 8.21635E-03 3.42135E-04-3.10986E-14
 -1      2462 8.19238E-03 3.40309E-04-3.07468E-14
 -1      2463 8.62428E-03 1.24596E-04-3.45831E-14
 -1      2464 8.48704E-03 2.02564E-04-3.34045E-14
 -1      2465 8.46779E-03 2.05425E-04-3.30394E-14
 -1      2466 8.90266E-03-4.30649E-05-3.69896E-14
 -1      2467 8.76280E-03 4.24397E-05-3.57781E-14
 -1      2468 8.74797E-03 4.79778E-05-3.54019E-14
 -1      2469 9.18601E-03-2.20521E-04-3.94650E-14
 -1      2470 9.04379E-03-1.30957E-04-3.82187E-14
 -1      2471 9.03308E-03-1.24337E-04-3.78324E-14
 -1      2472 9.47329E-03-4.01873E-04-4.20024E-14
 -1      2473 9.32928E-03-3.10997E-04-4.07247E-14
 -1      2474 9.32221E-03-3.04326E-04-4.03297E-14
 -1      2475 9.76322E-03-5.83026E-04-4.46131E-14
 -1      2476 9.61805E-03-4.92653E-04-4.32988E-14
 -1      2477 9.61398E-03-4.86464E-04-4.28922E-14
 -1      2478 1.00546E-02-7.61656E-04-4.72943E-14
 -1      2479 9.90883E-03-6.72744E-04-4.59454E-14
 -1      2480 9.90702E-03-6.67221E-04-4.55268E-14
 -1      2481 1.03465E-02-9.36838E-04-5.00422E-14
 -1      2482 1.02006E-02-8.49701E-04-4.86601E-14
 -1      2483 1.02003E-02-8.44829E-04-4.82295E-14
 -1      2484 1.06382E-02-1.10857E-03-5.28536E-14
 -1      2485 1.04924E-02-1.02312E-03-5.14406E-14
 -1      2486 1.04930E-02-1.01879E-03-5.09966E-14
 -1      2487 1.09295E-02-1.27737E-03-5.57219E-14
 -1      2488 1.07840E-02-1.19331E-03-5.42814E-14
 -1      2489 1.07850E-02-1.18936E-03-5.38225E-14
 -1      2490 1.12199E-02-1.44393E-03-5.86438E-14
 -1      2491 1.10748E-02-1.36089E-03-5.71764E-14
 -1      2492 1.10759E-02-1.35719E-03-5.67041E-14
 -1      2493 1.15096E-02-1.60896E-03-6.16089E-14
 -1      2494 1.13649E-02-1.52660E-03-6.01208E-14
 -1      2495 1.13659E-02-1.52303E-03-5.96387E-14
 -1      2496 1.17984E-02-1.77308E-03-6.46087E-14
 -1      2497 1.16541E-02-1.69110E-03-6.31054E-14
 -1      2498 1.16550E-02-1.68757E-03-6.26127E-14
 -1      2499 1.20866E-02-1.93677E-03-6.76409E-14
 -1      2500 1.19426E-02-1.85496E-03-6.61197E-14
 -1      2501 1.19434E-02-1.85139E-03-6.56196E-14
 -1      2502 1.23741E-02-2.10038E-03-7.07020E-14
 -1      2503 1.22304E-02-2.01857E-03-6.91685E-14
 -1      2504 1.22311E-02-2.01492E-03-6.86580E-14
 -1      2505 1.26611E-02-2.26415E-03-7.37920E-14
 -1      2506 1.25177E-02-2.18224E-03-7.22424E-14
 -1      2507 1.25182E-02-2.17848E-03-7.17243E-14
 -1      2508 1.29477E-02-2.42823E-03-7.69133E-14
 -1      2509 1.28045E-02-2.34615E-03-7.53495E-14
 -1      2510 1.28049E-02-2.34227E-03-7.48191E-14
 -1      2511 1.32340E-02-2.59270E-03-8.00679E-14
 -1      2512 1.30909E-02-2.51041E-03-7.84865E-14
 -1      2513 1.30913E-02-2.50640E-03-7.79493E-14
 -1      2514 1.35200E-02-2.75758E-03-8.32408E-14
 -1      2515 1.33771E-02-2.67508E-03-8.16517E-14
 -1      2516 1.33775E-02-2.67095E-03-8.11067E-14
 -1      2517 1.36658E-02-2.84195E-03-8.48823E-14
 -1      2518 1.42328E-02-3.12667E-03-8.61970E-14
 -1      2519 1.41509E-02-3.08502E-03-8.59242E-14
 -1      2520 1.43967E-02-3.20981E-03-8.67373E-14
 -1      2521 1.43148E-02-3.16827E-03-8.64695E-14
 -1      2522 1.41503E-02-3.07587E-03-8.49542E-14
 -1      2523 1.39078E-02-2.96111E-03-8.51051E-14
 -1      2524 1.38259E-02-2.91920E-03-8.48235E-14
 -1      2525 1.40696E-02-3.04366E-03-8.56532E-14
 -1      2526 1.39890E-02-3.00259E-03-8.53819E-14
 -1      2527 1.38243E-02-2.91018E-03-8.38634E-14
 -1      2528 1.39870E-02-2.99299E-03-8.44117E-14
 -1      2529 1.45604E-02-3.29276E-03-8.72706E-14
 -1      2530 1.44786E-02-3.25130E-03-8.70024E-14
 -1      2531 1.43142E-02-3.15887E-03-8.54904E-14
 -1      2532 1.47238E-02-3.37562E-03-8.78002E-14
 -1      2533 1.46421E-02-3.33419E-03-8.75374E-14
 -1      2534 1.44779E-02-3.24168E-03-8.60234E-14
 -1      2535 1.48868E-02-3.45846E-03-8.83238E-14
 -1      2536 1.48053E-02-3.41703E-03-8.80616E-14
 -1      2537 1.46412E-02-3.32439E-03-8.65518E-14
 -1      2538 1.50468E-02-3.53999E-03-8.88245E-14
 -1      2539 1.49668E-02-3.49920E-03-8.85758E-14
 -1      2540 1.48027E-02-3.40640E-03-8.70679E-14
 -1      2541 1.52095E-02-3.62310E-03-8.93198E-14
 -1      2542 1.51282E-02-3.58152E-03-8.90743E-14
 -1      2543 1.49640E-02-3.48854E-03-8.75709E-14
 -1      2544 1.53722E-02-3.70648E-03-8.98058E-14
 -1      2545 1.52908E-02-3.66476E-03-8.95631E-14
 -1      2546 1.51266E-02-3.57159E-03-8.80673E-14
 -1      2547 1.54752E-02-3.75800E-03-8.99515E-14
 -1      2548 8.86917E-03-2.68219E-05-3.30295E-14
 -1      2549 9.02359E-03-1.32932E-04-3.37898E-14
 -1      2550 5.84929E-04-2.36445E-04-2.47388E-16
 -1      2551 7.70432E-04-3.01136E-04-3.84282E-16
 -1      2552 8.30051E-04-2.90161E-04-4.59919E-16
 -1      2553 5.75487E-04-2.08713E-04-2.56292E-16
 -1      2554 9.47990E-03-2.09507E-03-3.49116E-14
 -1      2555 6.58843E-03-6.76191E-04-2.52540E-14
 -1      2556 6.41015E-03-6.09115E-04-2.47853E-14
 -1      2557 1.86515E-03 5.21473E-04-1.14008E-15
 -1      2558 1.72483E-03 5.09291E-04-9.47417E-16
 -1      2559 1.64178E-03 4.66285E-04-9.20948E-16
 -1      2560 1.92467E-03 4.90564E-04-1.31690E-15
 -1      2561 1.02554E-02-8.55784E-04-3.80710E-14
 -1      2562 1.04986E-02-9.56646E-04-3.87592E-14
 -1      2563 5.46800E-04-2.28103E-05-2.54598E-16
 -1      2564 5.47262E-04-3.87907E-05-2.58623E-16
 -1      2565 6.62745E-04-5.55786E-05-3.52379E-16
 -1      2566 6.61501E-04-1.76285E-05-3.42405E-16
 -1      2567 9.29537E-03-3.09491E-04-3.49066E-14
 -1      2568 9.54745E-03-4.70732E-04-3.58043E-14
 -1      2569 7.87857E-03 1.36067E-04-2.81156E-14
 -1      2570 8.02088E-03 1.81313E-04-2.87458E-14
 -1      2571 8.57228E-03 1.30778E-04-3.15579E-14
 -1      2572 8.71566E-03 6.06359E-05-3.22893E-14
 -1      2573 8.75592E-03 2.09439E-05-3.26753E-14
 -1      2574 7.54863E-03-8.35757E-06-2.69214E-14
 -1      2575 7.70878E-03 6.82595E-05-2.74796E-14
 -1      2576 7.17249E-03-1.90588E-04-2.58627E-14
 -1      2577 7.35023E-03-1.03210E-04-2.63232E-14
 -1      2578 6.79109E-03-3.57483E-04-2.50817E-14
 -1      2579 6.96148E-03-2.85719E-04-2.53793E-14
 -1      2580 6.45863E-03-4.70365E-04-2.45187E-14
 -1      2581 6.61803E-03-4.22125E-04-2.47997E-14
 -1      2582 6.68374E-03-3.81468E-04-2.44739E-14
 -1      2583 6.22050E-03-5.24643E-04-2.41385E-14
 -1      2584 6.30054E-03-5.08317E-04-2.41647E-14
 -1      2585 6.15138E-03-5.38573E-04-2.41003E-14
 -1      2586 6.16850E-03-5.37043E-04-2.41189E-14
 -1      2587 6.16792E-03-5.06952E-04-2.34795E-14
 -1      2588 6.24871E-03-5.58059E-04-2.43342E-14
 -1      2589 6.18235E-03-5.50937E-04-2.42444E-14
 -1      2590 6.97504E-03-8.54111E-04-2.60627E-14
 -1      2591 6.78206E-03-7.60380E-04-2.56707E-14
 -1      2592 7.81172E-03-1.41259E-03-2.80202E-14
 -1      2593 7.51052E-03-1.18132E-03-2.72136E-14
 -1      2594 7.23421E-03-9.99544E-04-2.65991E-14
 -1      2595 1.08819E-02-1.23433E-03-3.96560E-14
 -1      2596 1.07204E-02-1.30214E-03-3.91715E-14
 -1      2597 1.11583E-02-1.14550E-03-4.03349E-14
 -1      2598 1.10566E-02-1.17273E-03-4.01563E-14
 -1      2599 1.10459E-02-1.09960E-03-3.98486E-14
 -1      2600 1.11412E-02-1.11298E-03-4.00892E-14
 -1      2601 7.65455E-03-1.25810E-03-2.73144E-14
 -1      2602 6.70427E-04-1.37511E-04-3.62029E-16
 -1      2603 5.54759E-04-1.25871E-04-2.67364E-16
 -1      2604 5.57941E-04-1.45831E-04-2.66090E-16
 -1      2605 1.12000E-02-1.14925E-03-4.09319E-14
 -1      2606 1.01491E-02-8.28032E-04-3.82039E-14
 -1      2607 9.01754E-03-1.58097E-04-3.41559E-14
 -1      2608 9.14358E-03-2.29483E-04-3.45318E-14
 -1      2609 9.26318E-03-3.24806E-04-3.52787E-14
 -1      2610 7.11755E-03-8.97716E-04-2.59881E-14
 -1      2611 1.06228E-02-1.01776E-03-3.95372E-14
 -1      2612 1.09961E-02-1.11237E-03-4.03557E-14
 -1      2613 7.14748E-03-8.87602E-04-2.57263E-14
 -1      2614 7.39267E-03-1.03562E-03-2.63031E-14
 -1      2615 6.73389E-03-6.43253E-04-2.39358E-14
 -1      2616 9.65977E-03-5.58092E-04-3.64984E-14
 -1      2617 1.11810E-02-1.13720E-03-4.07986E-14
 -1      2618 8.11217E-03 2.02539E-04-2.91320E-14
 -1      2619 8.18838E-03 2.11074E-04-2.95194E-14
 -1      2620 8.01082E-03 1.95518E-04-2.85344E-14
 -1      2621 1.36662E-02-2.83769E-03-8.43331E-14
 -1      2622 7.04691E-03-2.31334E-04-2.52274E-14
 -1      2623 1.37146E-02-2.86155E-03-8.43777E-14
 -1      2624 1.53108E-02-3.66463E-03-8.84610E-14
 -1      2625 7.77577E-03 1.11825E-04-2.75190E-14
 -1      2626 8.36404E-03 1.91696E-04-3.05001E-14
 -1      2627 8.46229E-03 1.67421E-04-3.10268E-14
 -1      2628 8.51365E-03 1.39844E-04-3.14043E-14
 -1      2629 5.62692E-04-1.64148E-04-2.64871E-16
 -1      2630 5.68061E-04-1.87161E-04-2.60574E-16
 -1      2631 6.92637E-04-2.25836E-04-3.55401E-16
 -1      2632 6.79141E-04-1.80783E-04-3.60972E-16
 -1      2633 6.68187E-03-6.84435E-04-2.50471E-14
 -1      2634 1.09964E-02-1.20155E-03-4.04731E-14
 -1      2635 1.09353E-02-1.23701E-03-4.07908E-14
 -1      2636 1.10932E-02-1.19280E-03-4.12929E-14
 -1      2637 6.14460E-03-5.17590E-04-2.36027E-14
 -1      2638 6.35782E-03-4.76670E-04-2.38463E-14
 -1      2639 7.43360E-03-4.69954E-05-2.62960E-14
 -1      2640 1.36317E-02-2.81108E-03-8.31401E-14
 -1      2641 6.31630E-03-5.58038E-04-2.41885E-14
 -1      2642 6.24096E-03-5.22521E-04-2.35985E-14
 -1      2643 6.39653E-03-5.62385E-04-2.40410E-14
 -1      2644 1.07321E-02-1.31091E-03-3.99911E-14
 -1      2645 1.06346E-02-1.34516E-03-3.91905E-14
 -1      2646 1.01981E-02-1.60484E-03-3.81152E-14
 -1      2647 1.04276E-02-1.46053E-03-3.86122E-14
 -1      2648 9.94730E-03-1.77307E-03-3.68069E-14
 -1      2649 9.73950E-03-1.92351E-03-3.61039E-14
 -1      2650 7.80388E-04 7.69495E-05-4.02862E-16
 -1      2651 7.79132E-04 5.51877E-05-4.14802E-16
 -1      2652 7.78290E-04 3.33827E-05-4.25468E-16
 -1      2653 7.77874E-04 1.18287E-05-4.35036E-16
 -1      2654 8.96684E-04 4.93911E-05-5.33739E-16
 -1      2655 7.91694E-04 1.72431E-04-3.39342E-16
 -1      2656 7.87703E-04 1.47079E-04-3.58220E-16
 -1      2657 8.03487E-04 2.27545E-04-2.95147E-16
 -1      2658 7.96913E-04 1.99187E-04-3.18593E-16
 -1      2659 9.14992E-04 2.06904E-04-4.23530E-16
 -1      2660 8.23137E-04 2.90386E-04-2.39378E-16
 -1      2661 8.12137E-04 2.57862E-04-2.69018E-16
 -1      2662 9.30186E-04 2.68877E-04-3.68073E-16
 -1      2663 8.75505E-04 3.38264E-04-2.22912E-16
 -1      2664 8.48951E-04 3.13391E-04-2.32792E-16
 -1      2665 9.66236E-04 3.25307E-04-3.29435E-16
 -1      2666 1.01971E-03 3.72943E-04-3.12142E-16
 -1      2667 1.01948E-03-3.10311E-04-6.75810E-16
 -1      2668 1.16274E-03-3.36499E-04-8.52833E-16
 -1      2669 6.91667E-03-7.63447E-04-2.52028E-14
 -1      2670 1.29880E-03-3.57874E-04-1.04094E-15
 -1      2671 1.43492E-03-3.76042E-04-1.24816E-15
 -1      2672 1.21715E-03-3.14341E-04-9.46495E-16
 -1      2673 1.57804E-03-3.92216E-04-1.48716E-15
 -1      2674 1.72106E-03-4.05577E-04-1.74794E-15
 -1      2675 1.49657E-03-3.49987E-04-1.37148E-15
 -1      2676 1.86393E-03-4.16595E-04-2.02957E-15
 -1      2677 2.00670E-03-4.25457E-04-2.33231E-15
 -1      2678 1.78335E-03-3.75771E-04-1.89113E-15
 -1      2679 2.14937E-03-4.32534E-04-2.65559E-15
 -1      2680 2.29198E-03-4.37977E-04-2.99943E-15
 -1      2681 2.06993E-03-3.92974E-04-2.49415E-15
 -1      2682 2.43455E-03-4.42069E-04-3.36440E-15
 -1      2683 2.57710E-03-4.44928E-04-3.75004E-15
 -1      2684 2.35626E-03-4.03591E-04-3.17923E-15
 -1      2685 2.71965E-03-4.46761E-04-4.15553E-15
 -1      2686 2.86221E-03-4.47661E-04-4.58146E-15
 -1      2687 2.64235E-03-4.09205E-04-3.94616E-15
 -1      2688 2.99766E-03-4.47787E-04-5.00569E-15
 -1      2689 3.13315E-03-4.47262E-04-5.44839E-15
 -1      2690 2.92111E-03-4.11020E-04-4.77191E-15
 -1      2691 3.27581E-03-4.46109E-04-5.93372E-15
 -1      2692 3.41850E-03-4.44387E-04-6.44008E-15
 -1      2693 3.19970E-03-4.10072E-04-5.67539E-15
 -1      2694 3.56122E-03-4.42174E-04-6.96729E-15
 -1      2695 3.70397E-03-4.39507E-04-7.51528E-15
 -1      2696 3.48520E-03-4.06884E-04-6.68366E-15
 -1      2697 3.84671E-03-4.36446E-04-8.08412E-15
 -1      2698 3.98944E-03-4.33017E-04-8.67295E-15
 -1      2699 3.77032E-03-4.01956E-04-7.77380E-15
 -1      2700 4.13207E-03-4.29287E-04-9.28172E-15
 -1      2701 4.27463E-03-4.25274E-04-9.91110E-15
 -1      2702 4.05477E-03-3.95715E-04-8.94617E-15
 -1      2703 4.41694E-03-4.21078E-04-1.05606E-14
 -1      2704 4.55904E-03-4.16710E-04-1.12289E-14
 -1      2705 4.33804E-03-3.88599E-04-1.01988E-14
 -1      2706 4.69356E-03-4.12573E-04-1.18839E-14
 -1      2707 4.82771E-03-4.08442E-04-1.25580E-14
 -1      2708 4.61229E-03-3.81380E-04-1.14984E-14
 -1      2709 4.96805E-03-4.04420E-04-1.32861E-14
 -1      2710 5.10761E-03-4.00724E-04-1.40335E-14
 -1      2711 4.88337E-03-3.74727E-04-1.28739E-14
 -1      2712 5.24571E-03-3.97939E-04-1.48012E-14
 -1      2713 5.38249E-03-3.96039E-04-1.55885E-14
 -1      2714 5.15614E-03-3.69929E-04-1.43634E-14
 -1      2715 5.51702E-03-3.96012E-04-1.63955E-14
 -1      2716 5.64956E-03-3.97805E-04-1.72222E-14
 -1      2717 5.42067E-03-3.69522E-04-1.59312E-14
 -1      2718 5.77884E-03-4.02962E-04-1.80690E-14
 -1      2719 5.90554E-03-4.11428E-04-1.89336E-14
 -1      2720 5.67297E-03-3.77076E-04-1.75778E-14
 -1      2721 6.02805E-03-4.25393E-04-1.98173E-14
 -1      2722 6.14817E-03-4.45034E-04-2.07213E-14
 -1      2723 5.90814E-03-3.97574E-04-1.93022E-14
 -1      2724 6.25247E-03-4.69839E-04-2.15488E-14
 -1      2725 6.35662E-03-5.01580E-04-2.23916E-14
 -1      2726 6.11154E-03-4.34829E-04-2.10102E-14
 -1      2727 7.81986E-04-9.75321E-05-4.66790E-16
 -1      2728 7.84295E-04-1.20810E-04-4.70029E-16
 -1      2729 1.09438E-02-1.12752E-03-4.09583E-14
 -1      2730 1.10670E-02-1.14929E-03-4.13142E-14
 -1      2731 1.11434E-02-1.27196E-03-4.32496E-14
 -1      2732 1.12758E-02-1.30521E-03-4.46170E-14
 -1      2733 1.14054E-02-1.35119E-03-4.59809E-14
 -1      2734 1.15344E-02-1.40969E-03-4.73637E-14
 -1      2735 1.16640E-02-1.47585E-03-4.87566E-14
 -1      2736 1.17963E-02-1.54830E-03-5.01566E-14
 -1      2737 1.15968E-02-1.42036E-03-4.78986E-14
 -1      2738 1.19302E-02-1.62504E-03-5.15660E-14
 -1      2739 1.20666E-02-1.70549E-03-5.29862E-14
 -1      2740 1.18415E-02-1.56348E-03-5.06954E-14
 -1      2741 1.21974E-02-1.78398E-03-5.43433E-14
 -1      2742 1.23299E-02-1.86430E-03-5.57092E-14
 -1      2743 1.20935E-02-1.71738E-03-5.34573E-14
 -1      2744 1.24703E-02-1.94988E-03-5.71567E-14
 -1      2745 1.26119E-02-2.03641E-03-5.86117E-14
 -1      2746 1.23555E-02-1.87954E-03-5.62572E-14
 -1      2747 1.27540E-02-2.12333E-03-6.00762E-14
 -1      2748 1.28967E-02-2.21057E-03-6.15472E-14
 -1      2749 1.26315E-02-2.05042E-03-5.91636E-14
 -1      2750 1.30397E-02-2.29782E-03-6.30232E-14
 -1      2751 1.31831E-02-2.38504E-03-6.45086E-14
 -1      2752 1.29120E-02-2.22332E-03-6.21001E-14
 -1      2753 1.33265E-02-2.47211E-03-6.60009E-14
 -1      2754 1.34701E-02-2.55898E-03-6.74972E-14
 -1      2755 1.31953E-02-2.39670E-03-6.50661E-14
 -1      2756 1.36136E-02-2.64562E-03-6.89997E-14
 -1      2757 1.37572E-02-2.73200E-03-7.05079E-14
 -1      2758 1.34801E-02-2.56972E-03-6.80566E-14
 -1      2759 1.38936E-02-2.81383E-03-7.19447E-14
 -1      2760 1.40299E-02-2.89542E-03-7.33854E-14
 -1      2761 1.37586E-02-2.73772E-03-7.09919E-14
 -1      2762 1.41734E-02-2.98105E-03-7.49076E-14
 -1      2763 1.43168E-02-3.06644E-03-7.64374E-14
 -1      2764 1.40374E-02-2.90488E-03-7.39516E-14
 -1      2765 1.44601E-02-3.15159E-03-7.79689E-14
 -1      2766 1.46034E-02-3.23651E-03-7.95073E-14
 -1      2767 1.43235E-02-3.07545E-03-7.70055E-14
 -1      2768 1.47466E-02-3.32123E-03-8.10535E-14
 -1      2769 1.48897E-02-3.40574E-03-8.26063E-14
 -1      2770 1.46096E-02-3.24516E-03-8.00852E-14
 -1      2771 1.11720E-02-1.16025E-03-4.14830E-14
 -1      2772 1.12235E-02-1.16019E-03-4.15758E-14
 -1      2773 2.83765E-03 4.84871E-04-3.23465E-15
 -1      2774 2.69557E-03 4.83350E-04-2.89729E-15
 -1      2775 2.26964E-03 4.72786E-04-2.00058E-15
 -1      2776 2.12768E-03 4.66712E-04-1.74028E-15
 -1      2777 3.12213E-03 4.85815E-04-3.96832E-15
 -1      2778 2.97984E-03 4.85664E-04-3.59173E-15
 -1      2779 2.90352E-03 4.48398E-04-3.50701E-15
 -1      2780 3.40715E-03 4.84690E-04-4.78052E-15
 -1      2781 3.26457E-03 4.85466E-04-4.36433E-15
 -1      2782 3.18891E-03 4.48640E-04-4.26842E-15
 -1      2783 3.69284E-03 4.82275E-04-5.67188E-15
 -1      2784 3.54991E-03 4.83604E-04-5.21612E-15
 -1      2785 3.47464E-03 4.47021E-04-5.10852E-15
 -1      2786 3.97934E-03 4.79269E-04-6.64684E-15
 -1      2787 3.83599E-03 4.80808E-04-6.14943E-15
 -1      2788 3.76087E-03 4.44259E-04-6.02902E-15
 -1      2789 4.26680E-03 4.76359E-04-7.70449E-15
 -1      2790 4.12295E-03 4.77762E-04-7.16452E-15
 -1      2791 4.04777E-03 4.41012E-04-7.03222E-15
 -1      2792 4.55539E-03 4.74274E-04-8.84704E-15
 -1      2793 4.41095E-03 4.75169E-04-8.26550E-15
 -1      2794 4.33556E-03 4.37938E-04-8.11809E-15
 -1      2795 4.84528E-03 4.73808E-04-1.00744E-14
 -1      2796 4.70017E-03 4.73788E-04-9.45020E-15
 -1      2797 4.62453E-03 4.35748E-04-9.28917E-15
 -1      2798 5.13666E-03 4.75803E-04-1.13876E-14
 -1      2799 4.99080E-03 4.74444E-04-1.07200E-14
 -1      2800 4.91501E-03 4.35232E-04-1.05450E-14
 -1      2801 5.42961E-03 4.81059E-04-1.27871E-14
 -1      2802 5.28297E-03 4.77976E-04-1.20763E-14
 -1      2803 5.20735E-03 4.37250E-04-1.18853E-14
 -1      2804 5.72405E-03 4.90138E-04-1.42755E-14
 -1      2805 5.57670E-03 4.85097E-04-1.35204E-14
 -1      2806 5.50185E-03 4.42637E-04-1.33135E-14
 -1      2807 6.01960E-03 5.03024E-04-1.58522E-14
 -1      2808 5.87178E-03 4.96132E-04-1.50526E-14
 -1      2809 5.79862E-03 4.52006E-04-1.48296E-14
 -1      2810 6.31540E-03 5.18638E-04-1.75168E-14
 -1      2811 6.16760E-03 5.10607E-04-1.66735E-14
 -1      2812 6.09736E-03 4.65384E-04-1.64338E-14
 -1      2813 6.61009E-03 5.34256E-04-1.92661E-14
 -1      2814 6.46303E-03 5.26694E-04-1.83802E-14
 -1      2815 6.39717E-03 4.81659E-04-1.81243E-14
 -1      2816 6.90194E-03 5.45026E-04-2.11037E-14
 -1      2817 6.75650E-03 5.40647E-04-2.01748E-14
 -1      2818 6.69640E-03 4.97889E-04-1.99000E-14
 -1      2819 7.18939E-03 5.43936E-04-2.30245E-14
 -1      2820 7.04627E-03 5.46488E-04-2.20539E-14
 -1      2821 6.99295E-03 5.08693E-04-2.17621E-14
 -1      2822 7.47178E-03 5.22666E-04-2.50296E-14
 -1      2823 7.33114E-03 5.36372E-04-2.40160E-14
 -1      2824 7.28484E-03 5.06220E-04-2.37077E-14
 -1      2825 7.75000E-03 4.73442E-04-2.71149E-14
 -1      2826 7.61118E-03 5.01961E-04-2.60625E-14
 -1      2827 7.57135E-03 4.81232E-04-2.57358E-14
 -1      2828 8.02652E-03 3.91427E-04-2.92801E-14
 -1      2829 7.88815E-03 4.36665E-04-2.81875E-14
 -1      2830 7.85374E-03 4.25495E-04-2.78465E-14
 -1      2831 8.30452E-03 2.76435E-04-3.15229E-14
 -1      2832 8.16504E-03 3.37852E-04-3.03927E-14
 -1      2833 8.13510E-03 3.34644E-04-3.00351E-14
 -1      2834 8.58656E-03 1.33025E-04-3.38373E-14
 -1      2835 8.44486E-03 2.07831E-04-3.26706E-14
 -1      2836 8.41899E-03 2.09929E-04-3.22999E-14
 -1      2837 8.87368E-03-3.11826E-05-3.62237E-14
 -1      2838 8.72947E-03 5.29699E-05-3.50230E-14
 -1      2839 8.70784E-03 5.76933E-05-3.46401E-14
 -1      2840 9.16532E-03-2.07841E-04-3.86795E-14
 -1      2841 9.01904E-03-1.18454E-04-3.74425E-14
 -1      2842 9.00197E-03-1.13057E-04-3.70512E-14
 -1      2843 9.45995E-03-3.89830E-04-4.11982E-14
 -1      2844 9.31242E-03-2.98533E-04-3.99294E-14
 -1      2845 9.30000E-03-2.93479E-04-3.95273E-14
 -1      2846 9.75586E-03-5.72170E-04-4.37859E-14
 -1      2847 9.60790E-03-4.81173E-04-4.24836E-14
 -1      2848 9.59979E-03-4.76761E-04-4.20723E-14
 -1      2849 1.00517E-02-7.52019E-04-4.64446E-14
 -1      2850 9.90389E-03-6.62501E-04-4.51068E-14
 -1      2851 9.89938E-03-6.58650E-04-4.46842E-14
 -1      2852 1.03465E-02-9.28221E-04-4.91665E-14
 -1      2853 1.01993E-02-8.40593E-04-4.77966E-14
 -1      2854 1.01975E-02-8.37100E-04-4.73644E-14
 -1      2855 1.06399E-02-1.10070E-03-5.19507E-14
 -1      2856 1.04934E-02-1.01490E-03-5.05518E-14
 -1      2857 1.04934E-02-1.01158E-03-5.01071E-14
 -1      2858 1.09319E-02-1.26998E-03-5.47934E-14
 -1      2859 1.07861E-02-1.18570E-03-5.33663E-14
 -1      2860 1.07872E-02-1.18241E-03-5.29085E-14
 -1      2861 1.12225E-02-1.43679E-03-5.76888E-14
 -1      2862 1.10774E-02-1.35365E-03-5.62346E-14
 -1      2863 1.10790E-02-1.35032E-03-5.57666E-14
 -1      2864 1.15120E-02-1.60191E-03-6.06331E-14
 -1      2865 1.13674E-02-1.51952E-03-5.91549E-14
 -1      2866 1.13692E-02-1.51612E-03-5.86734E-14
 -1      2867 1.18005E-02-1.76598E-03-6.36155E-14
 -1      2868 1.16564E-02-1.68404E-03-6.21209E-14
 -1      2869 1.16580E-02-1.68053E-03-6.16276E-14
 -1      2870 1.20883E-02-1.92953E-03-6.66289E-14
 -1      2871 1.19445E-02-1.84779E-03-6.51179E-14
 -1      2872 1.19460E-02-1.84418E-03-6.46158E-14
 -1      2873 1.23755E-02-2.09294E-03-6.96735E-14
 -1      2874 1.22320E-02-2.01124E-03-6.81477E-14
 -1      2875 1.22333E-02-2.00751E-03-6.76380E-14
 -1      2876 1.26623E-02-2.25649E-03-7.27447E-14
 -1      2877 1.25190E-02-2.17469E-03-7.12059E-14
 -1      2878 1.25200E-02-2.17085E-03-7.06888E-14
 -1      2879 1.29488E-02-2.42032E-03-7.58496E-14
 -1      2880 1.28056E-02-2.33836E-03-7.42927E-14
 -1      2881 1.28065E-02-2.33441E-03-7.37667E-14
 -1      2882 1.32350E-02-2.58453E-03-7.89848E-14
 -1      2883 1.30919E-02-2.50237E-03-7.74130E-14
 -1      2884 1.30926E-02-2.49831E-03-7.68796E-14
 -1      2885 1.35049E-02-2.73890E-03-8.18507E-14
 -1      2886 1.33619E-02-2.65655E-03-8.02688E-14
 -1      2887 1.33626E-02-2.65238E-03-7.97266E-14
 -1      2888 1.36163E-02-2.79651E-03-8.22980E-14
 -1      2889 6.92739E-03-2.57304E-04-2.45360E-14
 -1      2890 7.11317E-03-1.73375E-04-2.50075E-14
 -1      2891 1.43954E-02-3.19055E-03-8.47812E-14
 -1      2892 1.43137E-02-3.14925E-03-8.45145E-14
 -1      2893 1.40679E-02-3.02509E-03-8.37137E-14
 -1      2894 1.39858E-02-2.98358E-03-8.34428E-14
 -1      2895 1.45586E-02-3.27309E-03-8.53075E-14
 -1      2896 1.44771E-02-3.23182E-03-8.50443E-14
 -1      2897 1.43130E-02-3.13936E-03-8.35424E-14
 -1      2898 1.42318E-02-3.10791E-03-8.42482E-14
 -1      2899 1.41499E-02-3.06653E-03-8.39822E-14
 -1      2900 1.39855E-02-2.97430E-03-8.24757E-14
 -1      2901 1.41494E-02-3.05693E-03-8.30125E-14
 -1      2902 1.47187E-02-3.35425E-03-8.58137E-14
 -1      2903 1.46387E-02-3.31366E-03-8.55607E-14
 -1      2904 1.44747E-02-3.22100E-03-8.40603E-14
 -1      2905 1.48812E-02-3.43697E-03-8.63223E-14
 -1      2906 1.48000E-02-3.39559E-03-8.60698E-14
 -1      2907 1.46360E-02-3.30269E-03-8.45713E-14
 -1      2908 1.50436E-02-3.51996E-03-8.68181E-14
 -1      2909 1.49624E-02-3.47843E-03-8.65720E-14
 -1      2910 1.47984E-02-3.38529E-03-8.50793E-14
 -1      2911 7.66168E-03 8.77022E-05-2.68262E-14
 -1      2912 7.80448E-03 1.48211E-04-2.74505E-14
 -1      2913 7.91545E-04-2.52593E-04-4.41921E-16
 -1      2914 9.19226E-04-2.87362E-04-5.65791E-16
 -1      2915 9.81449E-04-2.72261E-04-6.50779E-16
 -1      2916 7.83258E-04-2.27195E-04-4.45932E-16
 -1      2917 1.12411E-02-1.16726E-03-4.17626E-14
 -1      2918 1.12090E-02-1.17428E-03-4.18076E-14
 -1      2919 7.84567E-04 1.22897E-04-3.74809E-16
 -1      2920 7.82187E-04 9.95458E-05-3.89662E-16
 -1      2921 8.99792E-04 9.89066E-05-5.04493E-16
 -1      2922 9.05521E-04 1.50834E-04-4.68389E-16
 -1      2923 1.00010E-02-7.72084E-04-3.81486E-14
 -1      2924 1.02211E-02-8.82850E-04-3.90145E-14
 -1      2925 1.05499E-02-1.02100E-03-4.01379E-14
 -1      2926 1.07749E-02-1.08820E-03-4.06118E-14
 -1      2927 1.52326E-02-3.61477E-03-8.71516E-14
 -1      2928 1.51297E-02-3.56337E-03-8.70025E-14
 -1      2929 7.31458E-03-7.27730E-05-2.55412E-14
 -1      2930 7.48537E-03 1.07000E-05-2.61267E-14
 -1      2931 8.66782E-03 5.79049E-05-3.23658E-14
 -1      2932 8.79840E-03-2.22012E-05-3.31069E-14
 -1      2933 6.57871E-03-3.92487E-04-2.38257E-14
 -1      2934 6.72986E-03-3.37547E-04-2.40989E-14
 -1      2935 6.26470E-03-4.66459E-04-2.31348E-14
 -1      2936 6.40834E-03-4.41447E-04-2.34803E-14
 -1      2937 6.44733E-03-3.98417E-04-2.31122E-14
 -1      2938 6.12443E-03-4.86181E-04-2.29267E-14
 -1      2939 6.16657E-03-4.81663E-04-2.29448E-14
 -1      2940 6.72634E-03-6.79012E-04-2.47953E-14
 -1      2941 6.55227E-03-6.11386E-04-2.43890E-14
 -1      2942 6.76080E-03-6.77009E-04-2.45402E-14
 -1      2943 2.55355E-03 4.80921E-04-2.57884E-15
 -1      2944 2.41159E-03 4.77479E-04-2.28010E-15
 -1      2945 2.33316E-03 4.38681E-04-2.21665E-15
 -1      2946 6.14001E-03-4.93518E-04-2.30844E-14
 -1      2947 6.11096E-03-4.90024E-04-2.29445E-14
 -1      2948 9.52274E-03-4.97099E-04-3.64431E-14
 -1      2949 9.75959E-03-6.39652E-04-3.72909E-14
 -1      2950 9.85772E-03-7.05646E-04-3.80881E-14
 -1      2951 8.95672E-04 9.95248E-07-5.57117E-16
 -1      2952 7.77853E-04-9.67760E-06-4.43398E-16
 -1      2953 7.78227E-04-3.12166E-05-4.50798E-16
 -1      2954 1.12641E-02-1.18793E-03-4.24537E-14
 -1      2955 1.98565E-03 4.58940E-04-1.49917E-15
 -1      2956 1.84352E-03 4.49313E-04-1.27703E-15
 -1      2957 2.04786E-03 4.26755E-04-1.68663E-15
 -1      2958 8.91407E-03-1.03045E-04-3.38363E-14
 -1      2959 6.57350E-03-5.82181E-04-2.35411E-14
 -1      2960 9.05139E-04-1.48371E-04-5.96487E-16
 -1      2961 7.87338E-04-1.44892E-04-4.71940E-16
 -1      2962 7.91195E-04-1.70015E-04-4.72251E-16
 -1      2963 1.13663E-02-1.30265E-03-4.51474E-14
 -1      2964 1.10236E-02-1.26137E-03-4.21593E-14
 -1      2965 1.11543E-02-1.23319E-03-4.26964E-14
 -1      2966 7.88983E-03 1.82100E-04-2.78231E-14
 -1      2967 7.96395E-03 2.06803E-04-2.81986E-14
 -1      2968 7.77021E-03 1.67419E-04-2.71211E-14
 -1      2969 1.51359E-02-3.55624E-03-8.58900E-14
 -1      2970 1.11451E-02-1.17724E-03-4.20918E-14
 -1      2971 1.49645E-02-3.45171E-03-8.36188E-14
 -1      2972 1.50613E-02-3.51046E-03-8.48683E-14
 -1      2973 1.49768E-02-3.46760E-03-8.46768E-14
 -1      2974 1.48274E-02-3.37578E-03-8.26450E-14
 -1      2975 1.40709E-03 4.08101E-04-7.08824E-16
 -1      2976 1.29338E-03 3.97689E-04-5.81756E-16
 -1      2977 2.61832E-03 4.45437E-04-2.82319E-15
 -1      2978 6.79830E-03-2.77812E-04-2.38839E-14
 -1      2979 1.36976E-02-2.83802E-03-8.25729E-14
 -1      2980 1.35708E-02-2.76593E-03-8.12883E-14
 -1      2981 1.37789E-02-2.87946E-03-8.28485E-14
 -1      2982 6.17234E-03-4.88676E-04-2.29398E-14
 -1      2983 9.37714E-03-4.12775E-04-3.60539E-14
 -1      2984 9.49026E-03-4.91759E-04-3.68351E-14
 -1      2985 9.24972E-03-3.32188E-04-3.56671E-14
 -1      2986 1.54978E-03 4.25784E-04-8.72159E-16
 -1      2987 1.45794E-03 3.85012E-04-8.20551E-16
 -1      2988 1.69222E-03 4.40397E-04-1.05389E-15
 -1      2989 1.49655E-02-3.46997E-03-8.55162E-14
 -1      2990 7.52659E-03 6.33224E-05-2.60574E-14
 -1      2991 6.19013E-03-4.53889E-04-2.25857E-14
 -1      2992 8.25317E-03 2.08660E-04-2.98845E-14
 -1      2993 1.04126E-02-9.77490E-04-4.00797E-14
 -1      2994 1.05877E-02-1.05277E-03-4.11549E-14
 -1      2995 1.02834E-02-9.27112E-04-4.00178E-14
 -1      2996 1.11962E-02-1.18940E-03-4.20916E-14
 -1      2997 1.11700E-02-1.21273E-03-4.24133E-14
 -1      2998 1.12594E-02-1.23968E-03-4.35015E-14
 -1      2999 1.12663E-02-1.20780E-03-4.29291E-14
 -1      3000 1.08797E-02-1.13260E-03-4.15681E-14
 -1      3001 8.56585E-03 1.06547E-04-3.18252E-14
 -1      3002 8.61539E-03 7.12275E-05-3.22469E-14
 -1      3003 8.47217E-03 1.46072E-04-3.12891E-14
 -1      3004 7.79017E-04-5.28984E-05-4.57208E-16
 -1      3005 7.80244E-04-7.49915E-05-4.62521E-16
 -1      3006 8.99583E-04-9.65996E-05-5.88518E-16
 -1      3007 8.96594E-04-4.72714E-05-5.75237E-16
 -1      3008 7.17706E-03-1.03891E-04-2.48412E-14
 -1      3009 6.37785E-03-5.17937E-04-2.29771E-14
 -1      3010 1.39230E-02-2.95222E-03-8.32837E-14
 -1      3011 1.38417E-02-2.91093E-03-8.30121E-14
 -1      3012 1.37149E-02-2.83884E-03-8.17252E-14
 -1      3013 1.38406E-02-2.90159E-03-8.20476E-14
 -1      3014 1.08726E-02-1.26973E-03-4.08106E-14
 -1      3015 6.43249E-03-5.59253E-04-2.37940E-14
 -1      3016 6.08560E-03-4.66658E-04-2.24155E-14
 -1      3017 1.05888E-03 3.09873E-04-4.48060E-16
 -1      3018 1.04874E-03 2.75218E-04-4.83798E-16
 -1      3019 1.04041E-03 2.42134E-04-5.16080E-16
 -1      3020 1.03381E-03 2.10482E-04-5.45178E-16
 -1      3021 1.16763E-03 2.77685E-04-6.16613E-16
 -1      3022 1.13347E-03 3.90738E-04-4.05207E-16
 -1      3023 1.15333E-02-1.37005E-03-4.70268E-14
 -1      3024 1.16408E-02-1.43614E-03-4.84151E-14
 -1      3025 2.39759E-03 4.04086E-04-2.43773E-15
 -1      3026 2.25445E-03 3.99717E-04-2.14920E-15
 -1      3027 1.14091E-03-2.72962E-04-8.59271E-16
 -1      3028 1.27659E-03-2.91837E-04-1.04668E-15
 -1      3029 1.41978E-03-3.08948E-04-1.26442E-15
 -1      3030 1.56327E-03-3.23410E-04-1.50289E-15
 -1      3031 1.34425E-03-2.68970E-04-1.15981E-15
 -1      3032 1.70685E-03-3.35537E-04-1.76259E-15
 -1      3033 1.85053E-03-3.45505E-04-2.04287E-15
 -1      3034 1.63110E-03-2.95864E-04-1.63667E-15
 -1      3035 1.99419E-03-3.53637E-04-2.34331E-15
 -1      3036 2.13784E-03-3.60085E-04-2.66456E-15
 -1      3037 1.91879E-03-3.14522E-04-2.19555E-15
 -1      3038 2.28143E-03-3.65121E-04-3.00637E-15
 -1      3039 2.42496E-03-3.68866E-04-3.36829E-15
 -1      3040 2.20669E-03-3.26672E-04-2.83603E-15
 -1      3041 2.56841E-03-3.71538E-04-3.74939E-15
 -1      3042 2.71178E-03-3.73231E-04-4.15132E-15
 -1      3043 2.49441E-03-3.33781E-04-3.55655E-15
 -1      3044 2.84789E-03-3.74086E-04-4.55235E-15
 -1      3045 2.98391E-03-3.74267E-04-4.97162E-15
 -1      3046 2.77457E-03-3.37006E-04-4.33583E-15
 -1      3047 3.12697E-03-3.73854E-04-5.43271E-15
 -1      3048 3.26991E-03-3.72872E-04-5.91404E-15
 -1      3049 3.05418E-03-3.37468E-04-5.19268E-15
 -1      3050 3.41268E-03-3.71425E-04-6.41647E-15
 -1      3051 3.55529E-03-3.69548E-04-6.93847E-15
 -1      3052 3.34022E-03-3.35794E-04-6.15180E-15
 -1      3053 3.69766E-03-3.67334E-04-7.48146E-15
 -1      3054 3.83977E-03-3.64807E-04-8.04543E-15
 -1      3055 3.62524E-03-3.32544E-04-7.19272E-15
 -1      3056 3.98153E-03-3.62067E-04-8.62908E-15
 -1      3057 4.12290E-03-3.59127E-04-9.23312E-15
 -1      3058 3.90884E-03-3.28250E-04-8.31515E-15
 -1      3059 4.26371E-03-3.56125E-04-9.85682E-15
 -1      3060 4.40393E-03-3.53062E-04-1.05010E-14
 -1      3061 4.19040E-03-3.23467E-04-9.51797E-15
 -1      3062 4.53633E-03-3.50294E-04-1.11319E-14
 -1      3063 4.66789E-03-3.47648E-04-1.17806E-14
 -1      3064 4.46203E-03-3.18997E-04-1.07683E-14
 -1      3065 4.80510E-03-3.45319E-04-1.24829E-14
 -1      3066 4.94088E-03-3.43425E-04-1.32056E-14
 -1      3067 4.72946E-03-3.15635E-04-1.20951E-14
 -1      3068 5.07469E-03-3.42511E-04-1.39477E-14
 -1      3069 5.20633E-03-3.42486E-04-1.47089E-14
 -1      3070 4.99732E-03-3.14743E-04-1.35347E-14
 -1      3071 5.33503E-03-3.44221E-04-1.54911E-14
 -1      3072 5.46054E-03-3.47489E-04-1.62923E-14
 -1      3073 5.25564E-03-3.18540E-04-1.50533E-14
 -1      3074 5.58176E-03-3.53632E-04-1.71125E-14
 -1      3075 5.69840E-03-3.62113E-04-1.79532E-14
 -1      3076 5.50008E-03-3.29965E-04-1.66507E-14
 -1      3077 5.80897E-03-3.74947E-04-1.88135E-14
 -1      3078 5.91325E-03-3.90889E-04-1.96920E-14
 -1      3079 5.72462E-03-3.52745E-04-1.83262E-14
 -1      3080 5.99996E-03-4.10541E-04-2.04983E-14
 -1      3081 6.08016E-03-4.32903E-04-2.13199E-14
 -1      3082 5.91207E-03-3.88528E-04-1.99898E-14
 -1      3083 1.15326E-03 3.60903E-04-4.76941E-16
 -1      3084 1.17537E-02-1.50580E-03-4.98116E-14
 -1      3085 1.18725E-02-1.58019E-03-5.12167E-14
 -1      3086 1.16672E-02-1.45418E-03-4.89286E-14
 -1      3087 1.19892E-02-1.65328E-03-5.25600E-14
 -1      3088 1.21097E-02-1.72906E-03-5.39111E-14
 -1      3089 1.18864E-02-1.59403E-03-5.16636E-14
 -1      3090 1.22394E-02-1.81038E-03-5.53441E-14
 -1      3091 1.23720E-02-1.89352E-03-5.67862E-14
 -1      3092 1.21251E-02-1.74506E-03-5.44333E-14
 -1      3093 1.25067E-02-1.97756E-03-5.82366E-14
 -1      3094 1.26433E-02-2.06256E-03-5.96954E-14
 -1      3095 1.23837E-02-1.90756E-03-5.73124E-14
 -1      3096 1.27812E-02-2.14797E-03-6.11630E-14
 -1      3097 1.29203E-02-2.23382E-03-6.26352E-14
 -1      3098 1.26519E-02-2.07472E-03-6.02247E-14
 -1      3099 1.30603E-02-2.31977E-03-6.41141E-14
 -1      3100 1.32010E-02-2.40584E-03-6.56029E-14
 -1      3101 1.29266E-02-2.24434E-03-6.31676E-14
 -1      3102 1.33422E-02-2.49184E-03-6.70968E-14
 -1      3103 1.34839E-02-2.57779E-03-6.85938E-14
 -1      3104 1.32054E-02-2.41501E-03-6.61368E-14
 -1      3105 1.36188E-02-2.65930E-03-7.00254E-14
 -1      3106 1.37539E-02-2.74068E-03-7.14605E-14
 -1      3107 1.34798E-02-2.58162E-03-6.90584E-14
 -1      3108 1.38963E-02-2.82617E-03-7.29750E-14
 -1      3109 1.40389E-02-2.91148E-03-7.44982E-14
 -1      3110 1.37559E-02-2.74797E-03-7.20036E-14
 -1      3111 1.41815E-02-2.99660E-03-7.60265E-14
 -1      3112 1.43243E-02-3.08153E-03-7.75591E-14
 -1      3113 1.40401E-02-2.91810E-03-7.50448E-14
 -1      3114 1.44671E-02-3.16628E-03-7.90999E-14
 -1      3115 1.46099E-02-3.25085E-03-8.06481E-14
 -1      3116 1.43249E-02-3.08763E-03-7.81129E-14
 -1      3117 2.68374E-03 4.09558E-04-3.07233E-15
 -1      3118 2.54068E-03 4.07331E-04-2.74528E-15
 -1      3119 2.46282E-03 3.69095E-04-2.66413E-15
 -1      3120 8.84247E-03-6.78511E-05-3.36991E-14
 -1      3121 9.04139E-03-1.98085E-04-3.47583E-14
 -1      3122 2.96982E-03 4.11619E-04-3.78403E-15
 -1      3123 2.82679E-03 4.10959E-04-3.41875E-15
 -1      3124 2.74977E-03 3.73375E-04-3.32678E-15
 -1      3125 3.82883E-03 4.06094E-04-6.39132E-15
 -1      3126 3.68547E-03 4.07727E-04-5.90607E-15
 -1      3127 4.11602E-03 4.02597E-04-7.42174E-15
 -1      3128 3.97234E-03 4.04363E-04-6.89615E-15
 -1      3129 3.89672E-03 3.67812E-04-6.75764E-15
 -1      3130 4.40409E-03 3.99304E-04-8.53698E-15
 -1      3131 4.25993E-03 4.00885E-04-7.96886E-15
 -1      3132 4.18410E-03 3.64034E-04-7.81679E-15
 -1      3133 4.69344E-03 3.96898E-04-9.73611E-15
 -1      3134 4.54859E-03 3.97942E-04-9.12622E-15
 -1      3135 4.47239E-03 3.60438E-04-8.96055E-15
 -1      3136 4.98459E-03 3.96166E-04-1.10196E-14
 -1      3137 4.83877E-03 3.96264E-04-1.03671E-14
 -1      3138 4.76214E-03 3.57676E-04-1.01875E-14
 -1      3139 5.27808E-03 3.97992E-04-1.23883E-14
 -1      3140 5.13102E-03 3.96692E-04-1.16933E-14
 -1      3141 5.05402E-03 3.56530E-04-1.14989E-14
 -1      3142 5.57444E-03 4.03277E-04-1.38450E-14
 -1      3143 5.42590E-03 4.00135E-04-1.31057E-14
 -1      3144 5.34884E-03 3.57927E-04-1.28961E-14
 -1      3145 5.87397E-03 4.12745E-04-1.53889E-14
 -1      3146 5.72385E-03 4.07442E-04-1.46061E-14
 -1      3147 5.64736E-03 3.62883E-04-1.43809E-14
 -1      3148 6.17646E-03 4.26546E-04-1.70201E-14
 -1      3149 6.02494E-03 4.19117E-04-1.61932E-14
 -1      3150 5.95007E-03 3.72306E-04-1.59521E-14
 -1      3151 6.48088E-03 4.43622E-04-1.87347E-14
 -1      3152 6.32859E-03 4.34809E-04-1.78668E-14
 -1      3153 6.25684E-03 3.86579E-04-1.76085E-14
 -1      3154 6.78524E-03 4.60837E-04-2.05380E-14
 -1      3155 6.63328E-03 4.52534E-04-1.96254E-14
 -1      3156 6.56642E-03 4.04776E-04-1.93510E-14
 -1      3157 7.08684E-03 4.72178E-04-2.24238E-14
 -1      3158 6.93658E-03 4.67789E-04-2.14708E-14
 -1      3159 6.87631E-03 4.23541E-04-2.11778E-14
 -1      3160 7.38323E-03 4.68695E-04-2.43939E-14
 -1      3161 7.23575E-03 4.73013E-04-2.33988E-14
 -1      3162 7.18309E-03 4.36005E-04-2.30880E-14
 -1      3163 7.67365E-03 4.39888E-04-2.64467E-14
 -1      3164 7.52904E-03 4.58156E-04-2.54096E-14
 -1      3165 7.48383E-03 4.31680E-04-2.50828E-14
 -1      3166 7.95995E-03 3.76914E-04-2.85792E-14
 -1      3167 7.81695E-03 4.13082E-04-2.75031E-14
 -1      3168 7.77792E-03 3.98468E-04-2.71595E-14
 -1      3169 8.24608E-03 2.76119E-04-3.07932E-14
 -1      3170 8.10261E-03 3.31179E-04-2.96759E-14
 -1      3171 8.06816E-03 3.26968E-04-2.93153E-14
 -1      3172 8.53606E-03 1.40706E-04-3.30819E-14
 -1      3173 8.39028E-03 2.12242E-04-3.19289E-14
 -1      3174 8.35950E-03 2.14824E-04-3.15526E-14
 -1      3175 8.83202E-03-2.07992E-05-3.54456E-14
 -1      3176 8.68324E-03 6.24771E-05-3.42538E-14
 -1      3177 8.65633E-03 6.77855E-05-3.38676E-14
 -1      3178 9.13332E-03-1.97860E-04-3.78802E-14
 -1      3179 8.98215E-03-1.08062E-04-3.66546E-14
 -1      3180 8.95996E-03-1.02966E-04-3.62556E-14
 -1      3181 9.43757E-03-3.81370E-04-4.03821E-14
 -1      3182 9.28530E-03-2.89292E-04-3.91231E-14
 -1      3183 9.26852E-03-2.85615E-04-3.87144E-14
 -1      3184 9.74208E-03-5.65137E-04-4.29517E-14
 -1      3185 9.59001E-03-4.73490E-04-4.16580E-14
 -1      3186 9.57863E-03-4.71194E-04-4.12419E-14
 -1      3187 1.00448E-02-7.45856E-04-4.55872E-14
 -1      3188 9.89380E-03-6.55973E-04-4.42599E-14
 -1      3189 9.88718E-03-6.54467E-04-4.38339E-14
 -1      3190 1.03446E-02-9.22382E-04-4.82882E-14
 -1      3191 1.01951E-02-8.34640E-04-4.69300E-14
 -1      3192 1.01922E-02-8.33298E-04-4.64937E-14
 -1      3193 1.06412E-02-1.09481E-03-5.10515E-14
 -1      3194 1.04933E-02-1.00906E-03-4.96635E-14
 -1      3195 1.04930E-02-1.00746E-03-4.92183E-14
 -1      3196 1.09349E-02-1.26384E-03-5.38701E-14
 -1      3197 1.07884E-02-1.17969E-03-5.24530E-14
 -1      3198 1.07898E-02-1.17763E-03-5.19990E-14
 -1      3199 1.12263E-02-1.43034E-03-5.67399E-14
 -1      3200 1.10809E-02-1.34735E-03-5.52985E-14
 -1      3201 1.10831E-02-1.34480E-03-5.48322E-14
 -1      3202 1.15159E-02-1.59512E-03-5.96596E-14
 -1      3203 1.13713E-02-1.51289E-03-5.81946E-14
 -1      3204 1.13738E-02-1.50990E-03-5.77157E-14
 -1      3205 1.18041E-02-1.75888E-03-6.26216E-14
 -1      3206 1.16601E-02-1.67709E-03-6.11353E-14
 -1      3207 1.16625E-02-1.67375E-03-6.06459E-14
 -1      3208 1.20914E-02-1.92216E-03-6.56174E-14
 -1      3209 1.19479E-02-1.84055E-03-6.41155E-14
 -1      3210 1.19501E-02-1.83694E-03-6.36155E-14
 -1      3211 1.23782E-02-2.08532E-03-6.86475E-14
 -1      3212 1.22348E-02-2.00374E-03-6.71284E-14
 -1      3213 1.22368E-02-1.99992E-03-6.66197E-14
 -1      3214 1.26645E-02-2.24863E-03-7.17036E-14
 -1      3215 1.25214E-02-2.16695E-03-7.01726E-14
 -1      3216 1.25230E-02-2.16298E-03-6.96569E-14
 -1      3217 1.29506E-02-2.41224E-03-7.47904E-14
 -1      3218 1.28076E-02-2.33040E-03-7.32412E-14
 -1      3219 1.28089E-02-2.32631E-03-7.27186E-14
 -1      3220 1.32365E-02-2.57624E-03-7.79097E-14
 -1      3221 1.30936E-02-2.49419E-03-7.63454E-14
 -1      3222 1.30946E-02-2.49001E-03-7.58119E-14
 -1      3223 1.34671E-02-2.70702E-03-8.02362E-14
 -1      3224 1.33402E-02-2.63505E-03-7.89548E-14
 -1      3225 1.33412E-02-2.63079E-03-7.84154E-14
 -1      3226 1.35485E-02-2.74846E-03-8.05100E-14
 -1      3227 1.43916E-02-3.16916E-03-8.28237E-14
 -1      3228 1.43115E-02-3.12880E-03-8.25690E-14
 -1      3229 1.42300E-02-3.08774E-03-8.23070E-14
 -1      3230 1.41483E-02-3.04666E-03-8.20437E-14
 -1      3231 1.41470E-02-3.03603E-03-8.10775E-14
 -1      3232 7.83478E-04-1.86463E-04-4.60745E-16
 -1      3233 7.89533E-04-2.09569E-04-4.59851E-16
 -1      3234 8.87772E-04-2.31158E-04-5.58432E-16
 -1      3235 9.01487E-04-1.93782E-04-5.85794E-16
 -1      3236 8.14462E-03 2.21154E-04-2.92407E-14
 -1      3237 8.30002E-03 2.00989E-04-3.02158E-14
 -1      3238 1.08538E-02-1.14632E-03-4.23327E-14
 -1      3239 1.10011E-02-1.18085E-03-4.26902E-14
 -1      3240 1.48909E-02-3.42421E-03-8.44937E-14
 -1      3241 1.48051E-02-3.38098E-03-8.43069E-14
 -1      3242 1.48163E-02-3.37837E-03-8.34749E-14
 -1      3243 1.01672E-03 6.77673E-05-6.53137E-16
 -1      3244 1.01555E-03 4.09496E-05-6.68993E-16
 -1      3245 7.41083E-03 4.78869E-05-2.53786E-14
 -1      3246 7.56762E-03 1.12717E-04-2.60660E-14
 -1      3247 1.12803E-02-1.21126E-03-4.31250E-14
 -1      3248 1.13045E-02-1.21536E-03-4.33173E-14
 -1      3249 1.11322E-02-1.20065E-03-4.28473E-14
 -1      3250 1.12260E-02-1.20846E-03-4.30229E-14
 -1      3251 6.11323E-03-4.32298E-04-2.19166E-14
 -1      3252 6.20328E-03-4.18860E-04-2.21017E-14
 -1      3253 1.45541E-02-3.25136E-03-8.33400E-14
 -1      3254 1.44729E-02-3.21023E-03-8.30818E-14
 -1      3255 1.43098E-02-3.11789E-03-8.15980E-14
 -1      3256 3.54221E-03 4.09174E-04-5.44150E-15
 -1      3257 3.39904E-03 4.10376E-04-4.99736E-15
 -1      3258 3.60984E-03 3.71203E-04-5.78029E-15
 -1      3259 1.47201E-02-3.33671E-03-8.39509E-14
 -1      3260 1.46390E-02-3.29544E-03-8.36995E-14
 -1      3261 1.44760E-02-3.20280E-03-8.22158E-14
 -1      3262 1.46457E-02-3.29094E-03-8.29317E-14
 -1      3263 6.33639E-03-3.85512E-04-2.23470E-14
 -1      3264 6.48547E-03-3.45242E-04-2.26813E-14
 -1      3265 6.04360E-03-4.41367E-04-2.17839E-14
 -1      3266 6.05260E-03-4.39091E-04-2.17669E-14
 -1      3267 6.65862E-03-2.82057E-04-2.30488E-14
 -1      3268 6.83028E-03-2.13167E-04-2.34730E-14
 -1      3269 3.25593E-03 4.11233E-04-4.57340E-15
 -1      3270 3.11286E-03 4.11687E-04-4.16899E-15
 -1      3271 3.32317E-03 3.73663E-04-4.88325E-15
 -1      3272 7.01143E-03-1.35294E-04-2.39871E-14
 -1      3273 7.18529E-03-4.84293E-05-2.45052E-14
 -1      3274 6.85197E-03-1.50262E-04-2.31465E-14
 -1      3275 9.75836E-03-6.56905E-04-3.81286E-14
 -1      3276 9.97525E-03-7.77849E-04-3.89968E-14
 -1      3277 1.15325E-03 2.10574E-04-6.83535E-16
 -1      3278 1.02848E-03 1.80177E-04-5.71388E-16
 -1      3279 1.02431E-03 1.50967E-04-5.95281E-16
 -1      3280 9.15499E-03-2.76457E-04-3.55211E-14
 -1      3281 2.11126E-03 3.93977E-04-1.87979E-15
 -1      3282 1.96800E-03 3.86733E-04-1.62915E-15
 -1      3283 2.17566E-03 3.60694E-04-2.07833E-15
 -1      3284 1.14098E-02-1.29279E-03-4.52505E-14
 -1      3285 1.14387E-02-1.30908E-03-4.57576E-14
 -1      3286 1.24576E-03 3.39560E-04-6.20516E-16
 -1      3287 1.08371E-03 3.32441E-04-4.42734E-16
 -1      3288 1.02393E-03-1.48307E-04-7.35469E-16
 -1      3289 1.02799E-03-1.77436E-04-7.38572E-16
 -1      3290 3.03652E-03 3.74615E-04-4.06591E-15
 -1      3291 7.24204E-03 1.22421E-05-2.45117E-14
 -1      3292 7.28429E-03 6.84147E-05-2.45152E-14
 -1      3293 7.07565E-03-1.50146E-05-2.36589E-14
 -1      3294 7.65112E-03 1.52238E-04-2.64254E-14
 -1      3295 7.72664E-03 1.86440E-04-2.67872E-14
 -1      3296 7.53252E-03 1.40202E-04-2.57373E-14
 -1      3297 6.25558E-03-4.87384E-04-2.26413E-14
 -1      3298 8.02399E-03 2.25018E-04-2.85157E-14
 -1      3299 1.11161E-02-1.21950E-03-4.36244E-14
 -1      3300 1.75304E-03 4.10970E-04-1.21206E-15
 -1      3301 1.46758E-02-3.29169E-03-8.15546E-14
 -1      3302 1.47505E-02-3.33771E-03-8.25647E-14
 -1      3303 1.46648E-02-3.29455E-03-8.23768E-14
 -1      3304 1.45333E-02-3.21305E-03-8.05613E-14
 -1      3305 8.74104E-03-7.23047E-06-3.31430E-14
 -1      3306 8.86556E-03-8.91168E-05-3.40498E-14
 -1      3307 8.64667E-03 4.63230E-05-3.25929E-14
 -1      3308 1.39032E-02-2.92349E-03-8.12446E-14
 -1      3309 1.38211E-02-2.88218E-03-8.09745E-14
 -1      3310 1.00748E-02-8.32476E-04-4.00946E-14
 -1      3311 1.01717E-02-8.80674E-04-4.00573E-14
 -1      3312 1.03587E-02-9.69230E-04-4.11309E-14
 -1      3313 1.40668E-02-3.00572E-03-8.17790E-14
 -1      3314 1.39849E-02-2.96455E-03-8.15117E-14
 -1      3315 1.38207E-02-2.87248E-03-8.00176E-14
 -1      3316 1.39840E-02-2.95428E-03-8.05505E-14
 -1      3317 6.13190E-03-4.60347E-04-2.21393E-14
 -1      3318 1.02073E-03-1.20020E-04-7.30576E-16
 -1      3319 1.14353E-03-1.44979E-04-8.88314E-16
 -1      3320 1.01834E-03-9.24435E-05-7.24125E-16
 -1      3321 8.35600E-03 1.82261E-04-3.06242E-14
 -1      3322 9.86761E-04-2.51381E-04-6.67516E-16
 -1      3323 6.22718E-03-3.75434E-04-2.16815E-14
 -1      3324 1.07441E-02-1.11810E-03-4.22681E-14
 -1      3325 1.08871E-02-1.17321E-03-4.33957E-14
 -1      3326 1.06334E-02-1.08303E-03-4.22034E-14
 -1      3327 1.02100E-03 1.22558E-04-6.16559E-16
 -1      3328 1.01853E-03 9.49310E-05-6.35844E-16
 -1      3329 1.13825E-03 8.79934E-05-7.83526E-16
 -1      3330 1.14387E-03 1.47787E-04-7.38477E-16
 -1      3331 6.51903E-03-2.82996E-04-2.22811E-14
 -1      3332 6.03941E-03-4.13068E-04-2.12939E-14
 -1      3333 1.04739E-03-2.34027E-04-7.50349E-16
 -1      3334 1.12918E-02-1.23799E-03-4.38891E-14
 -1      3335 1.13559E-03 2.99325E-05-8.20294E-16
 -1      3336 1.01496E-03 1.43428E-05-6.82831E-16
 -1      3337 1.01494E-03-1.21634E-05-6.95136E-16
 -1      3338 1.36760E-02-2.80035E-03-7.95911E-14
 -1      3339 1.37582E-02-2.85097E-03-8.08169E-14
 -1      3340 1.36954E-02-2.81970E-03-8.06575E-14
 -1      3341 6.04647E-03-4.36756E-04-2.16101E-14
 -1      3342 5.98597E-03-4.13575E-04-2.09737E-14
 -1      3343 1.13222E-02-1.24074E-03-4.38947E-14
 -1      3344 1.53231E-03 3.76318E-04-9.42145E-16
 -1      3345 1.38904E-03 3.59490E-04-7.72033E-16
 -1      3346 1.32040E-03 3.33885E-04-7.23935E-16
 -1      3347 9.49446E-03-4.97140E-04-3.73265E-14
 -1      3348 9.62050E-03-5.76611E-04-3.77264E-14
 -1      3349 9.74740E-03-6.51821E-04-3.86274E-14
 -1      3350 1.14058E-02-1.30343E-03-4.56496E-14
 -1      3351 1.15330E-02-1.37999E-03-4.74284E-14
 -1      3352 1.13524E-02-1.29959E-03-4.55401E-14
 -1      3353 3.10365E-03 3.37401E-04-4.35264E-15
 -1      3354 2.96005E-03 3.37444E-04-3.95944E-15
 -1      3355 1.55272E-03-2.56849E-04-1.50738E-15
 -1      3356 1.69644E-03-2.67117E-04-1.76539E-15
 -1      3357 1.84038E-03-2.75688E-04-2.04350E-15
 -1      3358 1.98449E-03-2.82671E-04-2.34151E-15
 -1      3359 1.76269E-03-2.37497E-04-1.89513E-15
 -1      3360 2.12866E-03-2.88288E-04-2.66016E-15
 -1      3361 2.27284E-03-2.92653E-04-2.99926E-15
 -1      3362 2.05107E-03-2.50207E-04-2.48864E-15
 -1      3363 2.41696E-03-2.95964E-04-3.35741E-15
 -1      3364 2.56100E-03-2.98312E-04-3.73491E-15
 -1      3365 2.33977E-03-2.58226E-04-3.16180E-15
 -1      3366 2.69772E-03-2.99805E-04-4.11253E-15
 -1      3367 2.83429E-03-3.00638E-04-4.50880E-15
 -1      3368 2.62103E-03-2.62542E-04-3.89391E-15
 -1      3369 2.97787E-03-3.00934E-04-4.94488E-15
 -1      3370 3.12123E-03-3.00686E-04-5.40158E-15
 -1      3371 2.90170E-03-2.64243E-04-4.70099E-15
 -1      3372 3.26432E-03-3.00010E-04-5.87875E-15
 -1      3373 3.40712E-03-2.98946E-04-6.37571E-15
 -1      3374 3.18862E-03-2.64001E-04-5.60928E-15
 -1      3375 3.54957E-03-2.97603E-04-6.89341E-15
 -1      3376 3.69162E-03-2.96007E-04-7.43187E-15
 -1      3377 3.47423E-03-2.62378E-04-6.59852E-15
 -1      3378 3.83319E-03-2.94279E-04-7.98951E-15
 -1      3379 3.97421E-03-2.92437E-04-8.56807E-15
 -1      3380 3.75808E-03-2.59961E-04-7.66830E-15
 -1      3381 4.11456E-03-2.90635E-04-9.16712E-15
 -1      3382 4.25414E-03-2.88883E-04-9.78534E-15
 -1      3383 4.03959E-03-2.57366E-04-8.81917E-15
 -1      3384 4.38584E-03-2.87470E-04-1.03916E-14
 -1      3385 4.51657E-03-2.86297E-04-1.10162E-14
 -1      3386 4.31098E-03-2.55382E-04-1.00188E-14
 -1      3387 4.65285E-03-2.85632E-04-1.16934E-14
 -1      3388 4.78756E-03-2.85544E-04-1.23908E-14
 -1      3389 4.57818E-03-2.54877E-04-1.12953E-14
 -1      3390 4.92035E-03-2.86516E-04-1.31065E-14
 -1      3391 5.05088E-03-2.88500E-04-1.38425E-14
 -1      3392 4.84621E-03-2.57261E-04-1.26826E-14
 -1      3393 5.17867E-03-2.92231E-04-1.45995E-14
 -1      3394 5.30321E-03-2.97551E-04-1.53760E-14
 -1      3395 5.10577E-03-2.64528E-04-1.41487E-14
 -1      3396 5.42389E-03-3.05558E-04-1.61711E-14
 -1      3397 5.53993E-03-3.15834E-04-1.69862E-14
 -1      3398 5.35355E-03-2.79303E-04-1.56951E-14
 -1      3399 5.65060E-03-3.30005E-04-1.78215E-14
 -1      3400 5.75464E-03-3.47013E-04-1.86765E-14
 -1      3401 5.58504E-03-3.04856E-04-1.73198E-14
 -1      3402 5.83711E-03-3.66180E-04-1.94120E-14
 -1      3403 5.91730E-03-3.87916E-04-2.02113E-14
 -1      3404 5.93138E-03-3.88500E-04-2.03784E-14
 -1      3405 5.77830E-03-3.41824E-04-1.88871E-14
 -1      3406 1.16320E-02-1.44453E-03-4.88168E-14
 -1      3407 1.17843E-02-1.54095E-03-5.08047E-14
 -1      3408 1.18935E-02-1.61017E-03-5.21428E-14
 -1      3409 1.20131E-02-1.68524E-03-5.35601E-14
 -1      3410 1.21369E-02-1.76305E-03-5.49891E-14
 -1      3411 1.18989E-02-1.62864E-03-5.26898E-14
 -1      3412 1.22641E-02-1.84243E-03-5.64258E-14
 -1      3413 1.23942E-02-1.92358E-03-5.78713E-14
 -1      3414 1.21436E-02-1.77992E-03-5.55417E-14
 -1      3415 1.25266E-02-2.00572E-03-5.93276E-14
 -1      3416 1.26610E-02-2.08891E-03-6.07896E-14
 -1      3417 1.24011E-02-1.93878E-03-5.84304E-14
 -1      3418 1.27970E-02-2.17264E-03-6.22576E-14
 -1      3419 1.29344E-02-2.25694E-03-6.37334E-14
 -1      3420 1.26677E-02-2.10252E-03-6.13504E-14
 -1      3421 1.30727E-02-2.34149E-03-6.52185E-14
 -1      3422 1.32121E-02-2.42630E-03-6.67091E-14
 -1      3423 1.29405E-02-2.26915E-03-6.43011E-14
 -1      3424 1.33450E-02-2.50693E-03-6.81296E-14
 -1      3425 1.34785E-02-2.58762E-03-6.95598E-14
 -1      3426 1.32106E-02-2.43311E-03-6.72049E-14
 -1      3427 1.36195E-02-2.67252E-03-7.10688E-14
 -1      3428 1.37609E-02-2.75739E-03-7.25824E-14
 -1      3429 1.34835E-02-2.59772E-03-7.01344E-14
 -1      3430 1.39026E-02-2.84216E-03-7.41035E-14
 -1      3431 1.40445E-02-2.92685E-03-7.56301E-14
 -1      3432 1.37654E-02-2.76669E-03-7.31644E-14
 -1      3433 1.41866E-02-3.01141E-03-7.71638E-14
 -1      3434 1.43289E-02-3.09585E-03-7.87047E-14
 -1      3435 1.40486E-02-2.93551E-03-7.62145E-14
 -1      3436 2.52885E-03 3.33707E-04-2.89615E-15
 -1      3437 2.38497E-03 3.30833E-04-2.57982E-15
 -1      3438 2.81639E-03 3.36898E-04-3.58580E-15
 -1      3439 2.67266E-03 3.35702E-04-3.23140E-15
 -1      3440 2.59557E-03 2.97994E-04-3.13299E-15
 -1      3441 2.88356E-03 3.00202E-04-3.84987E-15
 -1      3442 4.25202E-03 3.25309E-04-8.21686E-15
 -1      3443 4.10820E-03 3.27385E-04-7.66211E-15
 -1      3444 3.96456E-03 3.29419E-04-7.12875E-15
 -1      3445 3.82102E-03 3.31354E-04-6.61607E-15
 -1      3446 4.03232E-03 2.90943E-04-7.50502E-15
 -1      3447 4.83050E-03 3.18005E-04-1.06438E-14
 -1      3448 4.68522E-03 3.19512E-04-1.00060E-14
 -1      3449 5.12313E-03 3.16202E-04-1.19829E-14
 -1      3450 4.97645E-03 3.16846E-04-1.13030E-14
 -1      3451 4.89849E-03 2.77830E-04-1.11049E-14
 -1      3452 5.41935E-03 3.16881E-04-1.34081E-14
 -1      3453 5.27074E-03 3.16139E-04-1.26841E-14
 -1      3454 5.19182E-03 2.75091E-04-1.24713E-14
 -1      3455 5.72022E-03 3.21220E-04-1.49199E-14
 -1      3456 5.56918E-03 3.18486E-04-1.41530E-14
 -1      3457 5.48951E-03 2.74741E-04-1.39238E-14
 -1      3458 6.02646E-03 3.30412E-04-1.65177E-14
 -1      3459 5.87270E-03 3.25114E-04-1.57079E-14
 -1      3460 5.79289E-03 2.78192E-04-1.54618E-14
 -1      3461 6.33799E-03 3.45193E-04-1.82004E-14
 -1      3462 6.18169E-03 3.37076E-04-1.73487E-14
 -1      3463 6.10299E-03 2.87050E-04-1.70873E-14
 -1      3464 6.65337E-03 3.64906E-04-1.99687E-14
 -1      3465 6.49545E-03 3.54579E-04-1.90742E-14
 -1      3466 6.41979E-03 3.02573E-04-1.87966E-14
 -1      3467 6.96942E-03 3.85958E-04-2.18199E-14
 -1      3468 6.81165E-03 3.75703E-04-2.08838E-14
 -1      3469 6.74153E-03 3.24496E-04-2.05888E-14
 -1      3470 7.28179E-03 4.00414E-04-2.37541E-14
 -1      3471 7.12635E-03 3.94835E-04-2.27768E-14
 -1      3472 7.06413E-03 3.48917E-04-2.24643E-14
 -1      3473 7.58694E-03 3.95696E-04-2.57728E-14
 -1      3474 7.43533E-03 4.01523E-04-2.47535E-14
 -1      3475 7.38219E-03 3.66225E-04-2.44228E-14
 -1      3476 7.88454E-03 3.57503E-04-2.78728E-14
 -1      3477 7.73634E-03 3.81685E-04-2.68128E-14
 -1      3478 7.69157E-03 3.60981E-04-2.64651E-14
 -1      3479 8.17882E-03 2.75879E-04-3.00550E-14
 -1      3480 8.03152E-03 3.22383E-04-2.89537E-14
 -1      3481 7.99285E-03 3.16181E-04-2.85910E-14
 -1      3482 8.47578E-03 1.50627E-04-3.23168E-14
 -1      3483 8.32629E-03 2.18301E-04-3.11756E-14
 -1      3484 8.29166E-03 2.22374E-04-3.07972E-14
 -1      3485 8.78028E-03-9.16928E-06-3.46549E-14
 -1      3486 8.62692E-03 7.40124E-05-3.34777E-14
 -1      3487 8.59588E-03 8.17809E-05-3.30839E-14
 -1      3488 9.09218E-03-1.89143E-04-3.70703E-14
 -1      3489 8.93548E-03-9.76617E-05-3.58529E-14
 -1      3490 8.90932E-03-9.12596E-05-3.54486E-14
 -1      3491 9.40803E-03-3.76450E-04-3.95547E-14
 -1      3492 9.24996E-03-2.82558E-04-3.83029E-14
 -1      3493 9.22996E-03-2.79491E-04-3.78888E-14
 -1      3494 9.72350E-03-5.62903E-04-4.21050E-14
 -1      3495 9.56615E-03-4.70144E-04-4.08216E-14
 -1      3496 9.55273E-03-4.69973E-04-4.03985E-14
 -1      3497 1.00353E-02-7.44603E-04-4.47238E-14
 -1      3498 9.88004E-03-6.54421E-04-4.34070E-14
 -1      3499 9.87252E-03-6.55760E-04-4.29756E-14
 -1      3500 1.03417E-02-9.20801E-04-4.74058E-14
 -1      3501 1.01892E-02-8.33339E-04-4.60560E-14
 -1      3502 1.01863E-02-8.34829E-04-4.56174E-14
 -1      3503 1.06428E-02-1.09218E-03-5.01511E-14
 -1      3504 1.04929E-02-1.00699E-03-4.87712E-14
 -1      3505 1.04932E-02-1.00777E-03-4.83236E-14
 -1      3506 1.09390E-02-1.25992E-03-5.29501E-14
 -1      3507 1.07914E-02-1.17640E-03-5.15444E-14
 -1      3508 1.07936E-02-1.17611E-03-5.10878E-14
 -1      3509 1.12315E-02-1.42520E-03-5.57979E-14
 -1      3510 1.10857E-02-1.34279E-03-5.43676E-14
 -1      3511 1.10888E-02-1.34141E-03-5.39022E-14
 -1      3512 1.15213E-02-1.58898E-03-5.86929E-14
 -1      3513 1.13767E-02-1.50722E-03-5.72394E-14
 -1      3514 1.13801E-02-1.50490E-03-5.67652E-14
 -1      3515 1.18092E-02-1.75198E-03-6.16336E-14
 -1      3516 1.16654E-02-1.67053E-03-6.01595E-14
 -1      3517 1.16687E-02-1.66749E-03-5.96722E-14
 -1      3518 1.20959E-02-1.91469E-03-6.46109E-14
 -1      3519 1.19526E-02-1.83334E-03-6.31179E-14
 -1      3520 1.19556E-02-1.82979E-03-6.26220E-14
 -1      3521 1.23820E-02-2.07747E-03-6.76222E-14
 -1      3522 1.22390E-02-1.99606E-03-6.61126E-14
 -1      3523 1.22416E-02-1.99215E-03-6.56062E-14
 -1      3524 1.26676E-02-2.24049E-03-7.06647E-14
 -1      3525 1.25248E-02-2.15894E-03-6.91393E-14
 -1      3526 1.25270E-02-2.15481E-03-6.86251E-14
 -1      3527 1.29532E-02-2.40389E-03-7.37340E-14
 -1      3528 1.28104E-02-2.32214E-03-7.21960E-14
 -1      3529 1.28122E-02-2.31788E-03-7.16744E-14
 -1      3530 1.32386E-02-2.56772E-03-7.68363E-14
 -1      3531 1.30959E-02-2.48575E-03-7.52808E-14
 -1      3532 1.30973E-02-2.48140E-03-7.47496E-14
 -1      3533 1.40649E-02-2.98457E-03-7.98538E-14
 -1      3534 1.39833E-02-2.94378E-03-7.95934E-14
 -1      3535 1.05424E-03-2.13428E-04-7.65027E-16
 -1      3536 1.11576E-02-1.26941E-03-4.52099E-14
 -1      3537 1.12662E-02-1.28732E-03-4.53763E-14
 -1      3538 1.14140E-02-1.35956E-03-4.71492E-14
 -1      3539 9.09509E-03-2.37498E-04-3.54765E-14
 -1      3540 9.28519E-03-3.63503E-04-3.63964E-14
 -1      3541 9.41488E-03-4.44787E-04-3.72780E-14
 -1      3542 1.80907E-03 3.78610E-04-1.36940E-15
 -1      3543 1.65643E-03 3.70224E-04-1.13936E-15
 -1      3544 1.01548E-03-3.87014E-05-7.06520E-16
 -1      3545 1.01659E-03-6.53812E-05-7.16102E-16
 -1      3546 1.13807E-03-8.54081E-05-8.72796E-16
 -1      3547 8.25088E-03 2.11318E-04-3.00057E-14
 -1      3548 8.40912E-03 1.59304E-04-3.10752E-14
 -1      3549 1.42275E-02-3.06614E-03-8.03739E-14
 -1      3550 1.41462E-02-3.02534E-03-8.01155E-14
 -1      3551 1.39828E-02-2.93298E-03-7.86385E-14
 -1      3552 6.11115E-03-3.57420E-04-2.08999E-14
 -1      3553 6.22741E-03-3.26043E-04-2.11358E-14
 -1      3554 3.67755E-03 3.33122E-04-6.12319E-15
 -1      3555 3.53411E-03 3.34679E-04-5.65037E-15
 -1      3556 3.74533E-03 2.94979E-04-6.47072E-15
 -1      3557 4.54043E-03 3.21301E-04-9.38882E-15
 -1      3558 4.39607E-03 3.23254E-04-8.79231E-15
 -1      3559 4.31972E-03 2.86427E-04-8.62167E-15
 -1      3560 4.60816E-03 2.81869E-04-9.82154E-15
 -1      3561 1.31050E-03 2.96867E-04-7.68103E-16
 -1      3562 3.39066E-03 3.35948E-04-5.19834E-15
 -1      3563 3.24718E-03 3.36887E-04-4.76580E-15
 -1      3564 3.45836E-03 2.98149E-04-5.51809E-15
 -1      3565 5.96808E-03-3.85956E-04-2.05727E-14
 -1      3566 6.03016E-03-3.75151E-04-2.07157E-14
 -1      3567 6.01653E-03-3.35532E-04-2.01859E-14
 -1      3568 5.89382E-03-3.59230E-04-1.98170E-14
 -1      3569 6.69645E-03-1.45289E-04-2.22254E-14
 -1      3570 6.85385E-03-8.01899E-05-2.27228E-14
 -1      3571 1.36533E-02-2.79984E-03-8.06662E-14
 -1      3572 1.35905E-02-2.76843E-03-8.05034E-14
 -1      3573 1.34869E-02-2.70958E-03-7.94566E-14
 -1      3574 1.35710E-02-2.74937E-03-7.94414E-14
 -1      3575 6.37689E-03-2.77162E-04-2.14629E-14
 -1      3576 6.52636E-03-2.21984E-04-2.18163E-14
 -1      3577 7.89253E-03 2.27850E-04-2.77032E-14
 -1      3578 8.05768E-03 2.38661E-04-2.87337E-14
 -1      3579 1.17375E-03-2.13037E-04-9.24025E-16
 -1      3580 1.31594E-03-2.28291E-04-1.12738E-15
 -1      3581 1.38214E-03-2.04158E-04-1.23285E-15
 -1      3582 9.81210E-03-6.86175E-04-3.92668E-14
 -1      3583 9.93965E-03-7.60424E-04-3.96787E-14
 -1      3584 1.01277E-02-8.58721E-04-4.07450E-14
 -1      3585 2.24104E-03 3.26895E-04-2.28234E-15
 -1      3586 2.09708E-03 3.21787E-04-2.00378E-15
 -1      3587 2.30727E-03 2.92639E-04-2.49192E-15
 -1      3588 3.17114E-03 3.00050E-04-4.64459E-15
 -1      3589 6.53735E-03-1.52305E-04-2.14064E-14
 -1      3590 1.16287E-02-1.46098E-03-4.92878E-14
 -1      3591 6.90656E-03-2.16009E-05-2.27246E-14
 -1      3592 7.36984E-03 1.09879E-04-2.48621E-14
 -1      3593 7.44909E-03 1.48601E-04-2.52099E-14
 -1      3594 7.20702E-03 8.32557E-05-2.40008E-14
 -1      3595 1.43946E-02-3.13676E-03-7.96072E-14
 -1      3596 1.44603E-02-3.17758E-03-8.05119E-14
 -1      3597 1.42561E-02-3.06072E-03-7.86514E-14
 -1      3598 1.43972E-02-3.15377E-03-8.10961E-14
 -1      3599 1.43124E-02-3.10991E-03-8.07371E-14
 -1      3600 1.41489E-02-3.01718E-03-7.92609E-14
 -1      3601 1.38200E-02-2.85187E-03-7.81149E-14
 -1      3602 1.39019E-02-2.90312E-03-7.93306E-14
 -1      3603 1.38204E-02-2.86241E-03-7.90651E-14
 -1      3604 6.23399E-03-2.72660E-04-2.06855E-14
 -1      3605 1.33832E-02-2.65078E-03-7.84110E-14
 -1      3606 7.77525E-03 2.23828E-04-2.69948E-14
 -1      3607 1.33844E-02-2.64636E-03-7.78712E-14
 -1      3608 1.04374E-02-1.00813E-03-4.22756E-14
 -1      3609 1.05319E-02-1.04767E-03-4.22408E-14
 -1      3610 1.06941E-02-1.11572E-03-4.33641E-14
 -1      3611 1.87261E-03 3.47924E-04-1.53828E-15
 -1      3612 1.10783E-02-1.25240E-03-4.51422E-14
 -1      3613 1.12576E-02-1.32920E-03-4.69099E-14
 -1      3614 1.09934E-02-1.23093E-03-4.50720E-14
 -1      3615 8.42035E-03 1.51553E-04-3.13111E-14
 -1      3616 8.52886E-03 1.03834E-04-3.19510E-14
 -1      3617 8.64711E-03 3.84926E-05-3.28357E-14
 -1      3618 8.98993E-03-1.69463E-04-3.49035E-14
 -1      3619 9.11529E-03-2.49754E-04-3.57667E-14
 -1      3620 8.89040E-03-1.05481E-04-3.43362E-14
 -1      3621 1.45259E-02-3.21830E-03-8.14166E-14
 -1      3622 1.37387E-02-2.82162E-03-7.87984E-14
 -1      3623 1.36568E-02-2.78073E-03-7.85293E-14
 -1      3624 1.36568E-02-2.77070E-03-7.75844E-14
 -1      3625 1.13146E-02-1.22671E-03-4.36064E-14
 -1      3626 1.13553E-03-2.75203E-05-8.49811E-16
 -1      3627 8.11825E-03 2.39334E-04-2.91648E-14
 -1      3628 1.25750E-03 4.74491E-05-9.69385E-16
 -1      3629 1.25676E-03 1.66298E-05-9.88494E-16
 -1      3630 1.35939E-02-2.74972E-03-7.83716E-14
 -1      3631 1.35309E-02-2.71863E-03-7.82126E-14
 -1      3632 1.35119E-02-2.69908E-03-7.71586E-14
 -1      3633 1.46791E-03 3.10175E-04-9.62866E-16
 -1      3634 1.31648E-03 2.58128E-04-8.30770E-16
 -1      3635 1.44412E-02-3.17426E-03-8.10607E-14
 -1      3636 1.30983E-03 2.23323E-04-8.67551E-16
 -1      3637 1.58824E-03 3.46572E-04-1.07818E-15
 -1      3638 1.26119E-03 1.09748E-04-9.24581E-16
 -1      3639 1.25897E-03 7.84262E-05-9.48094E-16
 -1      3640 1.38057E-03 6.65376E-05-1.12907E-15
 -1      3641 6.36340E-03-1.52073E-04-2.04675E-14
 -1      3642 6.51056E-03-8.54216E-05-2.08584E-14
 -1      3643 9.37080E-03-4.11826E-04-3.73572E-14
 -1      3644 9.56529E-03-5.36626E-04-3.83022E-14
 -1      3645 1.97411E-03-2.12633E-04-2.32084E-15
 -1      3646 2.11853E-03-2.17145E-04-2.63574E-15
 -1      3647 2.26301E-03-2.20710E-04-2.97016E-15
 -1      3648 2.40749E-03-2.23411E-04-3.32416E-15
 -1      3649 2.18677E-03-1.83521E-04-2.78269E-15
 -1      3650 2.54466E-03-2.25308E-04-3.67851E-15
 -1      3651 2.68172E-03-2.26607E-04-4.05073E-15
 -1      3652 2.46869E-03-1.88175E-04-3.46752E-15
 -1      3653 2.82580E-03-2.27453E-04-4.46170E-15
 -1      3654 2.96965E-03-2.27811E-04-4.89298E-15
 -1      3655 2.75023E-03-1.90598E-04-4.22665E-15
 -1      3656 3.11321E-03-2.27799E-04-5.34417E-15
 -1      3657 3.25643E-03-2.27453E-04-5.81604E-15
 -1      3658 3.03811E-03-1.91406E-04-5.08330E-15
 -1      3659 3.39926E-03-2.26887E-04-6.30748E-15
 -1      3660 3.54164E-03-2.26129E-04-6.81882E-15
 -1      3661 3.32466E-03-1.91101E-04-6.02045E-15
 -1      3662 3.68352E-03-2.25302E-04-7.35116E-15
 -1      3663 3.82481E-03-2.24432E-04-7.90314E-15
 -1      3664 3.60944E-03-1.90246E-04-7.03780E-15
 -1      3665 3.96542E-03-2.23667E-04-8.47561E-15
 -1      3666 4.10526E-03-2.23033E-04-9.06825E-15
 -1      3667 3.89191E-03-1.89447E-04-8.13660E-15
 -1      3668 4.23727E-03-2.22737E-04-9.65020E-15
 -1      3669 4.36836E-03-2.22757E-04-1.02500E-14
 -1      3670 4.16448E-03-1.89417E-04-9.28458E-15
 -1      3671 4.50518E-03-2.23388E-04-1.09006E-14
 -1      3672 4.64062E-03-2.24675E-04-1.15717E-14
 -1      3673 4.43340E-03-1.91008E-04-1.05099E-14
 -1      3674 4.77446E-03-2.27011E-04-1.22622E-14
 -1      3675 4.90641E-03-2.30418E-04-1.29716E-14
 -1      3676 4.70432E-03-1.95564E-04-1.18450E-14
 -1      3677 5.03625E-03-2.35461E-04-1.37021E-14
 -1      3678 5.16349E-03-2.42118E-04-1.44531E-14
 -1      3679 4.96880E-03-2.04785E-04-1.32594E-14
 -1      3680 5.28795E-03-2.51179E-04-1.52230E-14
 -1      3681 5.40889E-03-2.62505E-04-1.60125E-14
 -1      3682 5.22495E-03-2.20899E-04-1.47536E-14
 -1      3683 5.52622E-03-2.77179E-04-1.68213E-14
 -1      3684 5.63875E-03-2.94754E-04-1.76505E-14
 -1      3685 5.47052E-03-2.46612E-04-1.63270E-14
 -1      3686 5.72809E-03-3.13444E-04-1.83563E-14
 -1      3687 5.81342E-03-3.34795E-04-1.90851E-14
 -1      3688 5.86186E-03-3.25390E-04-1.92684E-14
 -1      3689 5.68284E-03-2.81884E-04-1.78374E-14
 -1      3690 6.76837E-03 4.17381E-06-2.18238E-14
 -1      3691 6.97350E-03 5.90599E-05-2.27411E-14
 -1      3692 1.20174E-02-1.71749E-03-5.46246E-14
 -1      3693 1.21429E-02-1.79373E-03-5.60575E-14
 -1      3694 1.22712E-02-1.87159E-03-5.74995E-14
 -1      3695 1.24018E-02-1.95116E-03-5.89510E-14
 -1      3696 1.21393E-02-1.80600E-03-5.65719E-14
 -1      3697 1.25345E-02-2.03180E-03-6.04091E-14
 -1      3698 1.26689E-02-2.11351E-03-6.18735E-14
 -1      3699 1.24004E-02-1.96244E-03-5.94682E-14
 -1      3700 1.28047E-02-2.19588E-03-6.33470E-14
 -1      3701 1.29417E-02-2.27889E-03-6.48293E-14
 -1      3702 1.26685E-02-2.12373E-03-6.23967E-14
 -1      3703 1.30728E-02-2.35809E-03-6.62420E-14
 -1      3704 1.32047E-02-2.43761E-03-6.76627E-14
 -1      3705 1.29350E-02-2.28397E-03-6.52801E-14
 -1      3706 1.33442E-02-2.52148E-03-6.91645E-14
 -1      3707 1.34843E-02-2.60552E-03-7.06717E-14
 -1      3708 1.32050E-02-2.44595E-03-6.81936E-14
 -1      3709 1.36249E-02-2.68962E-03-7.21840E-14
 -1      3710 1.37659E-02-2.77376E-03-7.37022E-14
 -1      3711 1.34846E-02-2.61307E-03-7.12063E-14
 -1      3712 1.39073E-02-2.85788E-03-7.52288E-14
 -1      3713 1.40489E-02-2.94198E-03-7.67597E-14
 -1      3714 1.37661E-02-2.78065E-03-7.42428E-14
 -1      3715 4.09998E-03 2.52402E-04-7.88672E-15
 -1      3716 3.95657E-03 2.54696E-04-7.34525E-15
 -1      3717 5.25978E-03 2.33133E-04-1.29639E-14
 -1      3718 5.11230E-03 2.34907E-04-1.22561E-14
 -1      3719 4.96588E-03 2.37119E-04-1.15701E-14
 -1      3720 4.82033E-03 2.39541E-04-1.09043E-14
 -1      3721 5.03255E-03 1.95814E-04-1.20392E-14
 -1      3722 5.86475E-03 2.33599E-04-1.60101E-14
 -1      3723 5.71086E-03 2.31823E-04-1.52161E-14
 -1      3724 6.17893E-03 2.41938E-04-1.76602E-14
 -1      3725 6.02084E-03 2.36812E-04-1.68245E-14
 -1      3726 5.93555E-03 1.87321E-04-1.65607E-14
 -1      3727 6.50148E-03 2.58333E-04-1.93953E-14
 -1      3728 6.33933E-03 2.49006E-04-1.85172E-14
 -1      3729 6.25405E-03 1.95084E-04-1.82371E-14
 -1      3730 6.83046E-03 2.83177E-04-2.12129E-14
 -1      3731 6.66566E-03 2.69896E-04-2.02936E-14
 -1      3732 6.58292E-03 2.12744E-04-1.99974E-14
 -1      3733 7.16041E-03 3.12274E-04-2.31113E-14
 -1      3734 6.99585E-03 2.97907E-04-2.21515E-14
 -1      3735 6.91971E-03 2.41843E-04-2.18390E-14
 -1      3736 7.48472E-03 3.33680E-04-2.50942E-14
 -1      3737 7.32367E-03 3.25193E-04-2.40926E-14
 -1      3738 7.25755E-03 2.77393E-04-2.37622E-14
 -1      3739 7.79860E-03 3.28189E-04-2.71594E-14
 -1      3740 7.64293E-03 3.36030E-04-2.61162E-14
 -1      3741 7.58830E-03 3.03970E-04-2.57669E-14
 -1      3742 8.10323E-03 2.75141E-04-2.93112E-14
 -1      3743 7.95113E-03 3.08717E-04-2.82246E-14
 -1      3744 7.90648E-03 2.97155E-04-2.78574E-14
 -1      3745 8.48804E-03 1.25566E-04-3.20639E-14
 -1      3746 8.33226E-03 1.93433E-04-3.09281E-14
 -1      3747 9.04404E-03-1.78952E-04-3.62474E-14
 -1      3748 8.88119E-03-8.37289E-05-3.50426E-14
 -1      3749 9.37372E-03-3.74256E-04-3.87151E-14
 -1      3750 9.20863E-03-2.76630E-04-3.74715E-14
 -1      3751 9.18661E-03-2.72867E-04-3.70531E-14
 -1      3752 9.70288E-03-5.66021E-04-4.12498E-14
 -1      3753 9.53909E-03-4.71105E-04-3.99741E-14
 -1      3754 9.52526E-03-4.72993E-04-3.95464E-14
 -1      3755 1.00257E-02-7.49468E-04-4.38528E-14
 -1      3756 9.86537E-03-6.58801E-04-4.25420E-14
 -1      3757 9.85884E-03-6.63412E-04-4.21069E-14
 -1      3758 1.03402E-02-9.24824E-04-4.65189E-14
 -1      3759 1.01841E-02-8.38019E-04-4.51781E-14
 -1      3760 1.01830E-02-8.42970E-04-4.47353E-14
 -1      3761 1.06463E-02-1.09396E-03-4.92457E-14
 -1      3762 1.04943E-02-1.00997E-03-4.78748E-14
 -1      3763 1.04966E-02-1.01373E-03-4.74254E-14
 -1      3764 1.09453E-02-1.25910E-03-5.20296E-14
 -1      3765 1.07966E-02-1.17687E-03-5.06310E-14
 -1      3766 1.08008E-02-1.17879E-03-5.01735E-14
 -1      3767 1.12389E-02-1.42199E-03-5.48576E-14
 -1      3768 1.10927E-02-1.34071E-03-5.34361E-14
 -1      3769 1.10975E-02-1.34080E-03-5.29713E-14
 -1      3770 1.15287E-02-1.58385E-03-5.77339E-14
 -1      3771 1.13842E-02-1.50297E-03-5.62911E-14
 -1      3772 1.13890E-02-1.50150E-03-5.58163E-14
 -1      3773 1.18160E-02-1.74543E-03-6.06525E-14
 -1      3774 1.16725E-02-1.66463E-03-5.91877E-14
 -1      3775 1.16770E-02-1.66197E-03-5.87045E-14
 -1      3776 1.21018E-02-1.90718E-03-6.36091E-14
 -1      3777 1.19590E-02-1.82626E-03-6.21265E-14
 -1      3778 1.19629E-02-1.82278E-03-6.16319E-14
 -1      3779 1.23870E-02-2.06932E-03-6.66022E-14
 -1      3780 1.22445E-02-1.98819E-03-6.51029E-14
 -1      3781 1.22477E-02-1.98417E-03-6.45990E-14
 -1      3782 1.26718E-02-2.23197E-03-6.96278E-14
 -1      3783 1.25294E-02-2.15058E-03-6.81105E-14
 -1      3784 1.25321E-02-2.14624E-03-6.75990E-14
 -1      3785 1.29565E-02-2.39515E-03-7.26820E-14
 -1      3786 1.28141E-02-2.31349E-03-7.11503E-14
 -1      3787 1.28163E-02-2.30898E-03-7.06310E-14
 -1      3788 1.27575E-03-1.62859E-04-1.07320E-15
 -1      3789 1.51113E-03-1.86603E-04-1.44284E-15
 -1      3790 6.09804E-03-2.56411E-04-1.98446E-14
 -1      3791 6.22845E-03-2.10738E-04-2.01567E-14
 -1      3792 6.20932E-03-1.47540E-04-1.96304E-14
 -1      3793 1.93950E-03 3.15676E-04-1.71921E-15
 -1      3794 1.77980E-03 3.08489E-04-1.45173E-15
 -1      3795 1.26823E-03 1.74061E-04-8.70167E-16
 -1      3796 1.26427E-03 1.41590E-04-8.98668E-16
 -1      3797 1.38541E-03 1.32757E-04-1.07554E-15
 -1      3798 3.81318E-03 2.56796E-04-6.82387E-15
 -1      3799 3.66977E-03 2.58677E-04-6.32312E-15
 -1      3800 3.88106E-03 2.18621E-04-7.18242E-15
 -1      3801 1.27213E-03-1.30597E-04-1.06542E-15
 -1      3802 1.25673E-03-1.40575E-05-1.00525E-15
 -1      3803 1.25740E-03-4.47938E-05-1.02072E-15
 -1      3804 1.37897E-03 1.39090E-06-1.17282E-15
 -1      3805 1.59327E-03 3.04156E-04-1.15796E-15
 -1      3806 8.00009E-03 2.67003E-04-2.84250E-14
 -1      3807 8.18038E-03 2.36138E-04-2.96891E-14
 -1      3808 1.39008E-02-2.88125E-03-7.74285E-14
 -1      3809 1.38194E-02-2.84082E-03-7.71675E-14
 -1      3810 3.23903E-03 2.62582E-04-4.94194E-15
 -1      3811 3.09521E-03 2.63173E-04-4.52088E-15
 -1      3812 1.17770E-02-1.57232E-03-5.17869E-14
 -1      3813 1.18952E-02-1.64379E-03-5.32008E-14
 -1      3814 1.18878E-02-1.65680E-03-5.37088E-14
 -1      3815 1.42778E-02-3.08118E-03-7.95896E-14
 -1      3816 3.52629E-03 2.60290E-04-5.84274E-15
 -1      3817 3.38272E-03 2.61613E-04-5.38260E-15
 -1      3818 3.30725E-03 2.25064E-04-5.24410E-15
 -1      3819 3.59441E-03 2.22430E-04-6.17315E-15
 -1      3820 1.15582E-02-1.44555E-03-4.91178E-14
 -1      3821 1.13997E-02-1.39212E-03-4.82592E-14
 -1      3822 1.16411E-02-1.50182E-03-5.04135E-14
 -1      3823 1.16243E-02-1.51362E-03-5.09150E-14
 -1      3824 1.13358E-02-1.37748E-03-4.81877E-14
 -1      3825 1.34266E-02-2.66621E-03-7.78652E-14
 -1      3826 1.43043E-03 2.16917E-04-1.04345E-15
 -1      3827 5.55882E-03 2.31390E-04-1.44435E-14
 -1      3828 5.40857E-03 2.31847E-04-1.36929E-14
 -1      3829 5.62708E-03 1.86697E-04-1.49680E-14
 -1      3830 7.62720E-03 2.19581E-04-2.60941E-14
 -1      3831 7.78094E-03 2.55370E-04-2.69965E-14
 -1      3832 1.68590E-03-2.00216E-04-1.75074E-15
 -1      3833 1.82987E-03-2.07025E-04-2.02571E-15
 -1      3834 1.89786E-03-1.75709E-04-2.15717E-15
 -1      3835 1.66039E-03 2.75135E-04-1.31071E-15
 -1      3836 1.57889E-03-1.58952E-04-1.55572E-15
 -1      3837 1.33444E-02-2.61582E-03-7.66517E-14
 -1      3838 2.37433E-03 2.57931E-04-2.70660E-15
 -1      3839 2.22993E-03 2.54658E-04-2.40067E-15
 -1      3840 9.69192E-03-6.04390E-04-3.94266E-14
 -1      3841 9.74625E-03-6.43783E-04-3.93489E-14
 -1      3842 9.92754E-03-7.46149E-04-4.04065E-14
 -1      3843 5.32682E-03 1.90226E-04-1.34605E-14
 -1      3844 2.95127E-03 2.63303E-04-4.11909E-15
 -1      3845 2.80719E-03 2.62937E-04-3.73704E-15
 -1      3846 3.01946E-03 2.26271E-04-4.39391E-15
 -1      3847 1.41306E-02-2.99125E-03-7.77217E-14
 -1      3848 1.41960E-02-3.03205E-03-7.86224E-14
 -1      3849 1.41520E-02-3.01182E-03-7.86545E-14
 -1      3850 1.39888E-02-2.91365E-03-7.67285E-14
 -1      3851 1.23229E-03-9.78513E-05-1.00287E-15
 -1      3852 1.36442E-03-1.11670E-04-1.19852E-15
 -1      3853 1.40689E-02-2.96819E-03-7.82224E-14
 -1      3854 1.39841E-02-2.92472E-03-7.78625E-14
 -1      3855 1.38210E-02-2.83244E-03-7.63991E-14
 -1      3856 1.39874E-02-2.91922E-03-7.72607E-14
 -1      3857 1.49771E-03-8.75199E-05-1.40124E-15
 -1      3858 1.53781E-03-1.22686E-04-1.47855E-15
 -1      3859 1.71230E-03-1.32750E-04-1.78800E-15
 -1      3860 4.24349E-03 2.49954E-04-8.44825E-15
 -1      3861 4.16751E-03 2.13826E-04-8.27254E-15
 -1      3862 4.38717E-03 2.47398E-04-9.03117E-15
 -1      3863 1.37382E-02-2.80053E-03-7.69050E-14
 -1      3864 1.36567E-02-2.76017E-03-7.66422E-14
 -1      3865 1.36565E-02-2.74907E-03-7.57035E-14
 -1      3866 2.00521E-03 2.83645E-04-1.89956E-15
 -1      3867 2.66300E-03 2.61966E-04-3.37519E-15
 -1      3868 2.51870E-03 2.60342E-04-3.03186E-15
 -1      3869 2.73105E-03 2.25691E-04-3.62213E-15
 -1      3870 8.59606E-03 7.26814E-05-3.29038E-14
 -1      3871 8.64703E-03 3.95785E-05-3.30306E-14
 -1      3872 8.76253E-03-2.76761E-05-3.36910E-14
 -1      3873 8.75528E-03-1.31881E-05-3.40733E-14
 -1      3874 8.88851E-03-9.64427E-05-3.48530E-14
 -1      3875 1.35189E-03-5.50319E-05-1.16113E-15
 -1      3876 1.23037E-03-6.71389E-05-9.91652E-16
 -1      3877 1.32414E-02-2.55884E-03-7.57681E-14
 -1      3878 1.30989E-02-2.47693E-03-7.42222E-14
 -1      3879 5.99066E-03-2.81730E-04-1.95117E-14
 -1      3880 5.97726E-03-2.29464E-04-1.90027E-14
 -1      3881 1.08324E-02-1.18154E-03-4.51403E-14
 -1      3882 1.09127E-02-1.20831E-03-4.51074E-14
 -1      3883 1.11162E-02-1.29469E-03-4.68742E-14
 -1      3884 1.03081E-02-9.48252E-04-4.18497E-14
 -1      3885 1.04807E-02-1.02839E-03-4.29664E-14
 -1      3886 1.01812E-02-8.84120E-04-4.14240E-14
 -1      3887 2.44214E-03 2.22822E-04-2.92695E-15
 -1      3888 8.29417E-03 2.02265E-04-3.05387E-14
 -1      3889 8.88025E-03-9.84444E-05-3.45368E-14
 -1      3890 1.35750E-02-2.71973E-03-7.63793E-14
 -1      3891 1.34931E-02-2.67917E-03-7.61111E-14
 -1      3892 1.34934E-02-2.66869E-03-7.51777E-14
 -1      3893 1.50219E-03 1.85020E-05-1.35159E-15
 -1      3894 1.50215E-03-1.56022E-05-1.37362E-15
 -1      3895 1.34301E-02-2.64841E-03-7.59510E-14
 -1      3896 1.33669E-02-2.61755E-03-7.57917E-14
 -1      3897 1.33485E-02-2.59771E-03-7.47524E-14
 -1      3898 6.40482E-03-1.82609E-05-1.99448E-14
 -1      3899 6.58370E-03-1.10983E-05-2.08733E-14
 -1      3900 6.64486E-03 6.32157E-05-2.08825E-14
 -1      3901 9.09892E-03-2.35409E-04-3.59007E-14
 -1      3902 9.20065E-03-3.01512E-04-3.64830E-14
 -1      3903 5.91485E-03-3.03902E-04-1.93377E-14
 -1      3904 4.67546E-03 2.42136E-04-1.02588E-14
 -1      3905 4.53113E-03 2.44766E-04-9.63436E-15
 -1      3906 4.45430E-03 2.08230E-04-9.44542E-15
 -1      3907 1.61691E-03 2.21116E-04-1.32148E-15
 -1      3908 7.47249E-03 1.99809E-04-2.52084E-14
 -1      3909 9.34616E-03-3.90289E-04-3.74921E-14
 -1      3910 1.50470E-03 8.70266E-05-1.29924E-15
 -1      3911 1.50303E-03 5.26650E-05-1.32671E-15
 -1      3912 1.62625E-03 3.70264E-05-1.54106E-15
 -1      3913 1.31007E-02-2.47234E-03-7.36928E-14
 -1      3914 4.74225E-03 2.02082E-04-1.07013E-14
 -1      3915 5.39245E-03 1.46405E-04-1.39620E-14
 -1      3916 5.24463E-03 1.50044E-04-1.32270E-14
 -1      3917 6.99870E-03 1.29686E-04-2.26278E-14
 -1      3918 7.14987E-03 1.14106E-04-2.35504E-14
 -1      3919 2.39684E-03-1.51302E-04-3.26945E-15
 -1      3920 2.53422E-03-1.52711E-04-3.61857E-15
 -1      3921 2.67870E-03-1.53786E-04-4.00538E-15
 -1      3922 2.82299E-03-1.54478E-04-4.41154E-15
 -1      3923 2.60766E-03-1.17051E-04-3.78796E-15
 -1      3924 2.96701E-03-1.54890E-04-4.83783E-15
 -1      3925 3.11073E-03-1.55051E-04-5.28360E-15
 -1      3926 2.89635E-03-1.18280E-04-4.59576E-15
 -1      3927 3.25406E-03-1.55064E-04-5.74943E-15
 -1      3928 3.39697E-03-1.54951E-04-6.23573E-15
 -1      3929 3.18389E-03-1.18794E-04-5.48243E-15
 -1      3930 3.53940E-03-1.54826E-04-6.74207E-15
 -1      3931 3.68128E-03-1.54715E-04-7.26865E-15
 -1      3932 3.46982E-03-1.19050E-04-6.44969E-15
 -1      3933 3.82254E-03-1.54751E-04-7.81517E-15
 -1      3934 3.96312E-03-1.54964E-04-8.38114E-15
 -1      3935 3.75369E-03-1.19568E-04-7.49705E-15
 -1      3936 4.09595E-03-1.55488E-04-8.93812E-15
 -1      3937 4.22800E-03-1.56355E-04-9.51332E-15
 -1      3938 4.02803E-03-1.20922E-04-8.59516E-15
 -1      3939 4.36607E-03-1.57852E-04-1.01382E-14
 -1      3940 4.50305E-03-1.60003E-04-1.07832E-14
 -1      3941 4.29945E-03-1.23873E-04-9.76942E-15
 -1      3942 4.63886E-03-1.63112E-04-1.14483E-14
 -1      3943 4.77327E-03-1.67239E-04-1.21330E-14
 -1      3944 4.57418E-03-1.29580E-04-1.10545E-14
 -1      3945 4.90626E-03-1.72786E-04-1.28368E-14
 -1      3946 5.03750E-03-1.79819E-04-1.35619E-14
 -1      3947 4.84452E-03-1.39389E-04-1.24182E-14
 -1      3948 5.16707E-03-1.88859E-04-1.43069E-14
 -1      3949 5.29447E-03-1.99932E-04-1.50713E-14
 -1      3950 5.10981E-03-1.55011E-04-1.38622E-14
 -1      3951 5.42000E-03-2.13647E-04-1.58557E-14
 -1      3952 5.54295E-03-2.29980E-04-1.66595E-14
 -1      3953 5.36961E-03-1.78423E-04-1.53864E-14
 -1      3954 7.22763E-03 1.50362E-04-2.38880E-14
 -1      3955 1.79956E-03 2.25180E-04-1.62151E-15
 -1      3956 1.57085E-03 1.71976E-04-1.31228E-15
 -1      3957 1.22645E-02-1.89401E-03-5.85275E-14
 -1      3958 1.23972E-02-1.97271E-03-5.99814E-14
 -1      3959 1.25314E-02-2.05247E-03-6.14454E-14
 -1      3960 1.26669E-02-2.13324E-03-6.29152E-14
 -1      3961 1.23930E-02-1.98191E-03-6.04953E-14
 -1      3962 1.27966E-02-2.21062E-03-6.43210E-14
 -1      3963 1.29272E-02-2.28859E-03-6.57323E-14
 -1      3964 1.26576E-02-2.13794E-03-6.33604E-14
 -1      3965 1.30655E-02-2.37107E-03-6.72248E-14
 -1      3966 1.32045E-02-2.45394E-03-6.87239E-14
 -1      3967 1.29257E-02-2.29677E-03-6.62562E-14
 -1      3968 1.33441E-02-2.53705E-03-7.02288E-14
 -1      3969 1.34843E-02-2.62038E-03-7.17396E-14
 -1      3970 1.32036E-02-2.46151E-03-6.92506E-14
 -1      3971 7.69533E-03 2.85470E-04-2.64456E-14
 -1      3972 7.83842E-03 2.76093E-04-2.73598E-14
 -1      3973 6.32725E-03 1.46173E-04-1.88178E-14
 -1      3974 6.16424E-03 1.41284E-04-1.79552E-14
 -1      3975 6.00431E-03 1.39194E-04-1.71144E-14
 -1      3976 5.84758E-03 1.39060E-04-1.62955E-14
 -1      3977 6.07060E-03 8.91016E-05-1.76725E-14
 -1      3978 7.30154E-03 2.41632E-04-2.40895E-14
 -1      3979 7.12844E-03 2.19911E-04-2.31130E-14
 -1      3980 7.52966E-03 2.74434E-04-2.54202E-14
 -1      3981 1.52478E-03-6.22787E-05-1.43483E-15
 -1      3982 9.01419E-03-1.78888E-04-3.55155E-14
 -1      3983 1.03439E-02-9.35697E-04-4.56231E-14
 -1      3984 1.01839E-02-8.49926E-04-4.42879E-14
 -1      3985 1.06550E-02-1.10115E-03-4.83339E-14
 -1      3986 1.05009E-02-1.01914E-03-4.69724E-14
 -1      3987 1.05076E-02-1.02638E-03-4.65164E-14
 -1      3988 1.09560E-02-1.26203E-03-5.11037E-14
 -1      3989 1.08066E-02-1.18190E-03-4.97125E-14
 -1      3990 1.08144E-02-1.18633E-03-4.92510E-14
 -1      3991 1.12499E-02-1.42109E-03-5.39187E-14
 -1      3992 1.11037E-02-1.34162E-03-5.25054E-14
 -1      3993 1.11114E-02-1.34330E-03-5.20366E-14
 -1      3994 1.15389E-02-1.57990E-03-5.67768E-14
 -1      3995 1.13948E-02-1.50044E-03-5.53422E-14
 -1      3996 1.14018E-02-1.49983E-03-5.48684E-14
 -1      3997 1.18250E-02-1.73928E-03-5.96753E-14
 -1      3998 1.16822E-02-1.65948E-03-5.82212E-14
 -1      3999 1.16882E-02-1.65717E-03-5.77388E-14
 -1      4000 1.21095E-02-1.89956E-03-6.26129E-14
 -1      4001 1.19673E-02-1.81930E-03-6.11399E-14
 -1      4002 1.19723E-02-1.81582E-03-6.06484E-14
 -1      4003 1.23932E-02-2.06080E-03-6.55868E-14
 -1      4004 1.22514E-02-1.98006E-03-6.40943E-14
 -1      4005 1.22554E-02-1.97585E-03-6.35935E-14
 -1      4006 1.26768E-02-2.22294E-03-6.85973E-14
 -1      4007 1.25350E-02-2.14177E-03-6.70892E-14
 -1      4008 1.25383E-02-2.13713E-03-6.65763E-14
 -1      4009 1.29606E-02-2.38587E-03-7.16312E-14
 -1      4010 1.28187E-02-2.30432E-03-7.01101E-14
 -1      4011 1.28213E-02-2.29948E-03-6.95931E-14
 -1      4012 4.80835E-03 1.61761E-04-1.11486E-14
 -1      4013 4.66447E-03 1.65460E-04-1.04959E-14
 -1      4014 6.80980E-03 1.17800E-04-2.15926E-14
 -1      4015 6.97511E-03 1.64198E-04-2.23806E-14
 -1      4016 6.94248E-03 2.07838E-04-2.20643E-14
 -1      4017 6.62884E-03 1.01044E-04-2.06450E-14
 -1      4018 5.84680E-03-2.06448E-04-1.81486E-14
 -1      4019 5.94634E-03-1.78625E-04-1.84650E-14
 -1      4020 1.00203E-02-7.61769E-04-4.29706E-14
 -1      4021 9.85372E-03-6.70129E-04-4.16681E-14
 -1      4022 1.01873E-02-8.59032E-04-4.38397E-14
 -1      4023 9.76953E-03-6.32959E-04-4.06573E-14
 -1      4024 9.59502E-03-5.33558E-04-3.93838E-14
 -1      4025 6.06020E-03-1.33312E-04-1.87605E-14
 -1      4026 6.17773E-03-7.89004E-05-1.90529E-14
 -1      4027 5.91556E-03-1.17114E-04-1.79104E-14
 -1      4028 5.09820E-03 1.53969E-04-1.25128E-14
 -1      4029 4.95285E-03 1.57875E-04-1.18203E-14
 -1      4030 5.16263E-03 1.11525E-04-1.29914E-14
 -1      4031 2.51069E-03 1.87332E-04-3.15277E-15
 -1      4032 2.36604E-03 1.85545E-04-2.81959E-15
 -1      4033 1.56702E-03 1.36129E-04-1.34784E-15
 -1      4034 1.20043E-02-1.74122E-03-5.56458E-14
 -1      4035 1.21334E-02-1.81684E-03-5.70831E-14
 -1      4036 1.21264E-02-1.82624E-03-5.75915E-14
 -1      4037 3.94895E-03 1.80495E-04-7.54534E-15
 -1      4038 3.80590E-03 1.82697E-04-7.01669E-15
 -1      4039 2.10756E-03-1.46741E-04-2.59161E-15
 -1      4040 2.25218E-03-1.49309E-04-2.92081E-15
 -1      4041 2.31833E-03-1.14640E-04-3.05811E-15
 -1      4042 7.37027E-03 2.16526E-04-2.45525E-14
 -1      4043 2.09369E-03 2.43221E-04-2.14264E-15
 -1      4044 1.93563E-03 2.38525E-04-1.84642E-15
 -1      4045 1.88919E-03 1.86912E-04-1.83871E-15
 -1      4046 2.16136E-03 2.09775E-04-2.33648E-15
 -1      4047 1.17528E-02-1.59652E-03-5.27955E-14
 -1      4048 1.18773E-02-1.66777E-03-5.42159E-14
 -1      4049 1.18658E-02-1.67685E-03-5.47213E-14
 -1      4050 5.82106E-03-2.80665E-04-1.86148E-14
 -1      4051 1.33459E-02-2.61114E-03-7.61175E-14
 -1      4052 5.69352E-03 1.40646E-04-1.54961E-14
 -1      4053 5.54198E-03 1.43108E-04-1.47180E-14
 -1      4054 5.45639E-03 1.01555E-04-1.44671E-14
 -1      4055 1.83754E-03-1.38390E-04-2.02715E-15
 -1      4056 1.98182E-03-1.42228E-04-2.32014E-15
 -1      4057 2.04784E-03-1.09153E-04-2.44496E-15
 -1      4058 1.79684E-03-1.00748E-04-1.93457E-15
 -1      4059 1.32641E-02-2.56068E-03-7.49137E-14
 -1      4060 1.00415E-02-8.00672E-04-4.15827E-14
 -1      4061 1.01064E-02-8.41834E-04-4.15046E-14
 -1      4062 1.02812E-02-9.30446E-04-4.26166E-14
 -1      4063 3.08815E-03 1.89133E-04-4.67372E-15
 -1      4064 2.94402E-03 1.89382E-04-4.26383E-15
 -1      4065 3.73117E-03 1.46875E-04-6.84897E-15
 -1      4066 3.66271E-03 1.84604E-04-6.50837E-15
 -1      4067 3.51936E-03 1.86226E-04-6.01998E-15
 -1      4068 5.63454E-03-2.43951E-04-1.72764E-14
 -1      4069 5.73204E-03-2.62885E-04-1.79741E-14
 -1      4070 5.78334E-03-2.36076E-04-1.80354E-14
 -1      4071 5.59312E-03-2.06301E-04-1.67867E-14
 -1      4072 1.64798E-03-4.68434E-05-1.63633E-15
 -1      4073 1.39059E-02-2.87022E-03-7.63003E-14
 -1      4074 1.16048E-02-1.52241E-03-5.14135E-14
 -1      4075 1.15853E-02-1.52911E-03-5.19107E-14
 -1      4076 1.14556E-02-1.45051E-03-5.00398E-14
 -1      4077 1.37571E-02-2.79054E-03-7.53582E-14
 -1      4078 1.36739E-02-2.74739E-03-7.49256E-14
 -1      4079 3.37582E-03 1.87527E-04-5.55133E-15
 -1      4080 3.23209E-03 1.88513E-04-5.10276E-15
 -1      4081 3.15728E-03 1.51956E-04-4.95838E-15
 -1      4082 3.44470E-03 1.50038E-04-5.86400E-15
 -1      4083 1.34765E-02-2.62489E-03-7.23227E-14
 -1      4084 1.36179E-02-2.70131E-03-7.33072E-14
 -1      4085 1.37588E-02-2.78479E-03-7.48326E-14
 -1      4086 1.35929E-02-2.70754E-03-7.46675E-14
 -1      4087 1.35116E-02-2.66761E-03-7.44038E-14
 -1      4088 1.35294E-02-2.66584E-03-7.36335E-14
 -1      4089 1.06428E-02-1.10245E-03-4.44034E-14
 -1      4090 1.08698E-02-1.20385E-03-4.61591E-14
 -1      4091 2.79972E-03 1.89188E-04-3.87426E-15
 -1      4092 2.65526E-03 1.88535E-04-3.50415E-15
 -1      4093 2.86895E-03 1.52527E-04-4.13234E-15
 -1      4094 1.31220E-02-2.47879E-03-7.33724E-14
 -1      4095 5.74679E-03-1.91894E-04-1.75160E-14
 -1      4096 2.29911E-03 1.41225E-04-2.74058E-15
 -1      4097 2.22987E-03 1.75765E-04-2.53537E-15
 -1      4098 2.09374E-03 1.65556E-04-2.26665E-15
 -1      4099 5.75788E-03 9.29785E-05-1.60278E-14
 -1      4100 6.77080E-03 1.90555E-04-2.11294E-14
 -1      4101 4.52103E-03 1.68976E-04-9.86465E-15
 -1      4102 4.37786E-03 1.72241E-04-9.25395E-15
 -1      4103 4.58725E-03 1.29659E-04-1.02893E-14
 -1      4104 9.27072E-03-3.30824E-04-3.74511E-14
 -1      4105 9.09834E-03-2.26869E-04-3.62239E-14
 -1      4106 1.75049E-03-9.71544E-08-1.78816E-15
 -1      4107 1.77284E-03-5.00738E-05-1.86315E-15
 -1      4108 1.89809E-03-5.31651E-05-2.10501E-15
 -1      4109 1.05262E-02-1.04948E-03-4.39660E-14
 -1      4110 2.57990E-03 1.51523E-04-3.38309E-15
 -1      4111 1.75094E-03 3.66443E-05-1.75871E-15
 -1      4112 9.42980E-03-4.33715E-04-3.83391E-14
 -1      4113 1.31240E-02-2.47388E-03-7.28454E-14
 -1      4114 4.87363E-03 1.21159E-04-1.15992E-14
 -1      4115 6.13239E-03 8.69657E-06-1.83645E-14
 -1      4116 6.29161E-03 3.99135E-06-1.92294E-14
 -1      4117 6.61566E-03 1.39428E-04-2.04302E-14
 -1      4118 6.44650E-03 1.28938E-04-1.95319E-14
 -1      4119 1.68960E-03 1.22688E-04-1.56533E-15
 -1      4120 1.34300E-02-2.62759E-03-7.41403E-14
 -1      4121 1.33481E-02-2.58744E-03-7.38765E-14
 -1      4122 1.33667E-02-2.58639E-03-7.31097E-14
 -1      4123 4.09192E-03 1.78017E-04-8.09484E-15
 -1      4124 4.01682E-03 1.42471E-04-7.91389E-15
 -1      4125 4.23486E-03 1.75263E-04-8.66420E-15
 -1      4126 1.31874E-02-2.50452E-03-7.30069E-14
 -1      4127 6.34841E-03 7.05858E-05-1.92336E-14
 -1      4128 1.12103E-02-1.33736E-03-4.77738E-14
 -1      4129 1.13649E-02-1.40633E-03-4.91298E-14
 -1      4130 1.13360E-02-1.40865E-03-4.96187E-14
 -1      4131 1.11440E-02-1.31862E-03-4.78066E-14
 -1      4132 1.31242E-02-2.46386E-03-7.19769E-14
 -1      4133 1.32628E-02-2.50548E-03-7.05010E-14
 -1      4134 1.33959E-02-2.58563E-03-7.20639E-14
 -1      4135 1.33147E-02-2.54628E-03-7.18035E-14
 -1      4136 1.19855E-02-1.75841E-03-5.66561E-14
 -1      4137 1.21186E-02-1.83435E-03-5.80961E-14
 -1      4138 2.82259E-03-8.16387E-05-4.34802E-15
 -1      4139 2.96675E-03-8.20213E-05-4.76835E-15
 -1      4140 3.11060E-03-8.23474E-05-5.20862E-15
 -1      4141 3.25408E-03-8.26354E-05-5.66862E-15
 -1      4142 3.03777E-03-4.57491E-05-4.93900E-15
 -1      4143 3.39714E-03-8.29657E-05-6.14886E-15
 -1      4144 3.53973E-03-8.33645E-05-6.64941E-15
 -1      4145 3.32488E-03-4.65914E-05-5.85284E-15
 -1      4146 3.68179E-03-8.39414E-05-7.16977E-15
 -1      4147 3.82328E-03-8.47156E-05-7.70975E-15
 -1      4148 3.61029E-03-4.78981E-05-6.84678E-15
 -1      4149 3.95713E-03-8.57602E-05-8.24163E-15
 -1      4150 4.09036E-03-8.71315E-05-8.79144E-15
 -1      4151 3.88659E-03-5.00590E-05-7.89237E-15
 -1      4152 4.22992E-03-8.91037E-05-9.38985E-15
 -1      4153 4.36868E-03-9.16503E-05-1.00084E-14
 -1      4154 4.16068E-03-5.36551E-05-9.01418E-15
 -1      4155 4.50665E-03-9.50032E-05-1.06471E-14
 -1      4156 4.64371E-03-9.92353E-05-1.13062E-14
 -1      4157 4.43932E-03-5.95684E-05-1.02441E-14
 -1      4158 4.77991E-03-1.04608E-04-1.19853E-14
 -1      4159 4.91512E-03-1.11193E-04-1.26834E-14
 -1      4160 4.71522E-03-6.88300E-05-1.15554E-14
 -1      4161 5.04948E-03-1.19337E-04-1.34026E-14
 -1      4162 5.18285E-03-1.29076E-04-1.41417E-14
 -1      4163 4.98857E-03-8.25088E-05-1.29468E-14
 -1      4164 5.31558E-03-1.40764E-04-1.49004E-14
 -1      4165 5.44749E-03-1.54475E-04-1.56796E-14
 -1      4166 5.26003E-03-1.01869E-04-1.44178E-14
 -1      4167 5.54779E-03-1.66112E-04-1.62855E-14
 -1      4168 5.64698E-03-1.78495E-04-1.68957E-14
 -1      4169 5.70573E-03-1.46610E-04-1.69994E-14
 -1      4170 2.93875E-03 1.15739E-04-4.39502E-15
 -1      4171 2.79436E-03 1.15761E-04-3.99752E-15
 -1      4172 1.25208E-02-2.06767E-03-6.24368E-14
 -1      4173 1.26509E-02-2.14398E-03-6.38397E-14
 -1      4174 1.27886E-02-2.22493E-03-6.53231E-14
 -1      4175 1.29271E-02-2.30648E-03-6.68135E-14
 -1      4176 1.26508E-02-2.15339E-03-6.43896E-14
 -1      4177 1.31230E-02-2.42305E-03-6.89947E-14
 -1      4178 1.95915E-03 1.49698E-04-2.02243E-15
 -1      4179 1.82346E-03 1.38820E-04-1.78233E-15
 -1      4180 1.76075E-03 8.71241E-05-1.72835E-15
 -1      4181 2.02861E-03 1.16851E-04-2.20185E-15
 -1      4182 5.80551E-03-1.07494E-04-1.72816E-14
 -1      4183 5.90950E-03-6.16219E-05-1.75602E-14
 -1      4184 5.69752E-03-9.75406E-05-1.66646E-14
 -1      4185 1.12664E-02-1.42250E-03-5.29736E-14
 -1      4186 1.11212E-02-1.34564E-03-5.15669E-14
 -1      4187 1.09742E-02-1.26897E-03-5.01715E-14
 -1      4188 1.08250E-02-1.19192E-03-4.87866E-14
 -1      4189 1.11333E-02-1.34875E-03-5.10943E-14
 -1      4190 1.06730E-02-1.11442E-03-4.74164E-14
 -1      4191 1.05178E-02-1.03549E-03-4.60596E-14
 -1      4192 1.08389E-02-1.19889E-03-4.83219E-14
 -1      4193 1.15531E-02-1.57700E-03-5.58182E-14
 -1      4194 1.14103E-02-1.49951E-03-5.43914E-14
 -1      4195 1.14203E-02-1.49951E-03-5.39127E-14
 -1      4196 1.18368E-02-1.73334E-03-5.87006E-14
 -1      4197 1.16952E-02-1.65490E-03-5.72556E-14
 -1      4198 1.17032E-02-1.65268E-03-5.67711E-14
 -1      4199 1.21190E-02-1.89164E-03-6.16229E-14
 -1      4200 1.19780E-02-1.81224E-03-6.01582E-14
 -1      4201 1.19843E-02-1.80855E-03-5.96651E-14
 -1      4202 1.24008E-02-2.05170E-03-6.45751E-14
 -1      4203 1.22599E-02-1.97146E-03-6.30933E-14
 -1      4204 1.22648E-02-1.96687E-03-6.25953E-14
 -1      4205 1.26828E-02-2.21322E-03-6.75700E-14
 -1      4206 1.25418E-02-2.13230E-03-6.60693E-14
 -1      4207 1.25455E-02-2.12722E-03-6.55619E-14
 -1      4208 1.29741E-02-2.37903E-03-7.05227E-14
 -1      4209 1.28329E-02-2.29757E-03-6.90111E-14
 -1      4210 1.28358E-02-2.29221E-03-6.84955E-14
 -1      4211 1.31351E-02-2.46145E-03-7.13888E-14
 -1      4212 5.97424E-03 1.23831E-05-1.75165E-14
 -1      4213 1.02786E-02-9.15485E-04-4.39296E-14
 -1      4214 1.01123E-02-8.29793E-04-4.26118E-14
 -1      4215 9.94391E-03-7.38047E-04-4.15025E-14
 -1      4216 5.85754E-03 1.60563E-05-1.68940E-14
 -1      4217 4.93790E-03 8.04320E-05-1.20542E-14
 -1      4218 4.79516E-03 8.56291E-05-1.13755E-14
 -1      4219 5.22548E-03 6.86715E-05-1.34733E-14
 -1      4220 5.08119E-03 7.46916E-05-1.27534E-14
 -1      4221 5.00097E-03 3.96240E-05-1.25141E-14
 -1      4222 1.88421E-03 4.98744E-05-1.99428E-15
 -1      4223 2.64979E-03 1.15426E-04-3.61884E-15
 -1      4224 2.50509E-03 1.14741E-04-3.25980E-15
 -1      4225 2.72028E-03 7.91034E-05-3.86029E-15
 -1      4226 2.24409E-03-7.84462E-05-2.86049E-15
 -1      4227 2.38884E-03-7.95728E-05-3.20303E-15
 -1      4228 5.70587E-03 2.25129E-05-1.60819E-14
 -1      4229 1.17227E-02-1.61175E-03-5.37947E-14
 -1      4230 1.18534E-02-1.68417E-03-5.52212E-14
 -1      4231 1.18415E-02-1.69019E-03-5.57189E-14
 -1      4232 2.53356E-03-8.04650E-05-3.56514E-15
 -1      4233 2.67817E-03-8.11279E-05-3.94671E-15
 -1      4234 2.74934E-03-4.50151E-05-4.10460E-15
 -1      4235 5.51812E-03 5.58614E-05-1.49775E-14
 -1      4236 5.37091E-03 6.22284E-05-1.42155E-14
 -1      4237 5.28648E-03 2.53807E-05-1.39609E-14
 -1      4238 1.04543E-02-1.01292E-03-4.40450E-14
 -1      4239 1.22511E-02-1.91067E-03-5.95277E-14
 -1      4240 1.23863E-02-1.98919E-03-6.09876E-14
 -1      4241 1.23776E-02-1.99464E-03-6.14589E-14
 -1      4242 1.21090E-02-1.84045E-03-5.85814E-14
 -1      4243 1.07989E-02-1.17600E-03-4.63003E-14
 -1      4244 1.09745E-02-1.25117E-03-4.70508E-14
 -1      4245 1.10766E-02-1.29802E-03-4.79515E-14
 -1      4246 1.04558E-02-1.00984E-03-4.48064E-14
 -1      4247 5.49874E-03-1.24250E-04-1.57805E-14
 -1      4248 3.08293E-03 1.15417E-04-4.81201E-15
 -1      4249 3.00906E-03 7.88913E-05-4.66332E-15
 -1      4250 3.22685E-03 1.14779E-04-5.24884E-15
 -1      4251 4.30198E-03 1.36750E-04-9.06060E-15
 -1      4252 1.14072E-02-1.45640E-03-5.10209E-14
 -1      4253 1.15660E-02-1.53350E-03-5.24041E-14
 -1      4254 1.15483E-02-1.53668E-03-5.28930E-14
 -1      4255 1.29849E-02-2.35004E-03-6.80523E-14
 -1      4256 4.65289E-03 9.03914E-05-1.07174E-14
 -1      4257 4.51080E-03 9.46165E-05-1.00790E-14
 -1      4258 4.71784E-03 5.12344E-05-1.11497E-14
 -1      4259 2.36910E-03 1.06200E-04-2.95048E-15
 -1      4260 2.23312E-03 9.74733E-05-2.65578E-15
 -1      4261 2.43978E-03 7.07314E-05-3.16573E-15
 -1      4262 3.79979E-03 1.09296E-04-7.19418E-15
 -1      4263 3.65697E-03 1.11128E-04-6.67797E-15
 -1      4264 1.06838E-02-1.12272E-03-4.61848E-14
 -1      4265 1.32661E-02-2.52382E-03-7.17298E-14
 -1      4266 1.31842E-02-2.48419E-03-7.14647E-14
 -1      4267 1.30348E-02-2.39937E-03-7.00158E-14
 -1      4268 1.31329E-02-2.44427E-03-7.01671E-14
 -1      4269 5.61399E-03-1.71426E-05-1.58085E-14
 -1      4270 1.07945E-02-1.17577E-03-4.70750E-14
 -1      4271 2.46004E-03-4.40963E-05-3.34707E-15
 -1      4272 2.00807E-03-6.42262E-05-2.33499E-15
 -1      4273 2.13379E-03-6.72226E-05-2.60507E-15
 -1      4274 2.20513E-03-3.27166E-05-2.73615E-15
 -1      4275 1.98523E-03-1.17892E-05-2.24907E-15
 -1      4276 4.08466E-03 1.04617E-04-8.28713E-15
 -1      4277 3.94233E-03 1.07134E-04-7.73002E-15
 -1      4278 3.86852E-03 7.19383E-05-7.54430E-15
 -1      4279 2.73387E-03 1.69983E-05-3.98633E-15
 -1      4280 2.87832E-03 1.68057E-05-4.38638E-15
 -1      4281 3.25308E-03-9.99829E-06-5.56114E-15
 -1      4282 3.39634E-03-1.06475E-05-6.03470E-15
 -1      4283 3.59595E-03 1.34572E-05-6.68087E-15
 -1      4284 3.73831E-03 1.21376E-05-7.19894E-15
 -1      4285 3.88023E-03 1.04616E-05-7.73753E-15
 -1      4286 4.01463E-03 8.54562E-06-8.26777E-15
 -1      4287 4.37215E-03-2.34054E-05-9.84502E-15
 -1      4288 4.51152E-03-2.73313E-05-1.04767E-14
 -1      4289 4.71571E-03-1.00366E-05-1.13586E-14
 -1      4290 4.85497E-03-1.60861E-05-1.20373E-14
 -1      4291 4.99425E-03-2.31368E-05-1.27366E-14
 -1      4292 5.13350E-03-3.12480E-05-1.34557E-14
 -1      4293 5.27328E-03-4.04305E-05-1.41964E-14
 -1      4294 5.41353E-03-5.07820E-05-1.49570E-14
 -1      4295 3.51388E-03 1.12636E-04-6.18236E-15
 -1      4296 3.37050E-03 1.13861E-04-5.70574E-15
 -1      4297 3.29682E-03 7.76693E-05-5.54452E-15
 -1      4298 3.58333E-03 7.53973E-05-6.50517E-15
 -1      4299 4.36882E-03 9.83740E-05-9.46113E-15
 -1      4300 4.22679E-03 1.01704E-04-8.86433E-15
 -1      4301 4.15242E-03 6.70077E-05-8.66474E-15
 -1      4302 4.43530E-03 6.02019E-05-9.86688E-15
 -1      4303 1.10119E-02-1.27528E-03-4.80926E-14
 -1      4304 1.11771E-02-1.34495E-03-4.88563E-14
 -1      4305 1.12759E-02-1.39198E-03-4.97657E-14
 -1      4306 3.02252E-03 1.64628E-05-4.80552E-15
 -1      4307 1.13291E-02-1.44119E-03-5.20067E-14
 -1      4308 1.11881E-02-1.36889E-03-5.06049E-14
 -1      4309 1.18520E-02-1.72701E-03-5.77230E-14
 -1      4310 1.17125E-02-1.65026E-03-5.62842E-14
 -1      4311 1.09421E-02-1.24796E-03-4.84464E-14
 -1      4312 1.21307E-02-1.88292E-03-6.06296E-14
 -1      4313 1.19913E-02-1.80457E-03-5.91711E-14
 -1      4314 1.19990E-02-1.80022E-03-5.86768E-14
 -1      4315 1.24097E-02-2.04163E-03-6.35692E-14
 -1      4316 1.22701E-02-1.96197E-03-6.20964E-14
 -1      4317 1.22758E-02-1.95667E-03-6.15935E-14
 -1      4318 1.26896E-02-2.20252E-03-6.65462E-14
 -1      4319 1.25495E-02-2.12184E-03-6.50520E-14
 -1      4320 1.25537E-02-2.11610E-03-6.45447E-14
 -1      4321 1.29367E-02-2.34288E-03-6.89948E-14
 -1      4322 1.27874E-02-2.25861E-03-6.75583E-14
 -1      4323 1.27907E-02-2.25272E-03-6.70418E-14
 -1      4324 1.29861E-02-2.36533E-03-6.90722E-14
 -1      4325 2.01397E-03 7.61504E-05-2.22145E-15
 -1      4326 2.00456E-03 2.31414E-05-2.25738E-15
 -1      4327 2.58923E-03 1.71106E-05-3.60570E-15
 -1      4328 1.24640E-02-2.05493E-03-6.29905E-14
 -1      4329 1.26025E-02-2.13503E-03-6.44691E-14
 -1      4330 2.30884E-03 9.53274E-06-2.93125E-15
 -1      4331 2.45364E-03 9.56295E-06-3.27519E-15
 -1      4332 2.11424E-03 1.33734E-05-2.49536E-15
 -1      4333 2.19897E-03 1.97071E-05-2.67269E-15
 -1      4334 3.16643E-03 1.60056E-05-5.24426E-15
 -1      4335 4.15568E-03 6.05816E-06-8.84536E-15
 -1      4336 4.29627E-03 3.08719E-06-9.44331E-15
 -1      4337 2.14810E-03 9.03128E-05-2.48175E-15
 -1      4338 5.58985E-03-8.78418E-05-1.60514E-14
 -1      4339 1.12516E-02-1.39033E-03-5.02472E-14
 -1      4340 1.14570E-02-1.51231E-03-5.36567E-14
 -1      4341 1.15081E-02-1.52621E-03-5.31568E-14
 -1      4342 1.16704E-02-1.60822E-03-5.45563E-14
 -1      4343 1.15972E-02-1.58735E-03-5.50789E-14
 -1      4344 1.17471E-02-1.66042E-03-5.60221E-14
 -1      4345 1.30352E-02-2.38761E-03-6.91478E-14
 -1      4346 1.18062E-02-1.68230E-03-5.59865E-14
 -1      4347 1.23261E-02-1.97556E-03-6.15188E-14
 -1      4348 4.65111E-03 2.80296E-05-1.09286E-14
 -1      4349 2.21899E-03 5.58080E-05-2.67685E-15
 -1      4350 3.52573E-03 5.03067E-05-6.35978E-15
 -1      4351 1.28386E-02-2.27182E-03-6.69656E-14
 -1      4352 1.21904E-02-1.89798E-03-6.00746E-14
 -1      4353 1.19186E-02-1.74485E-03-5.71951E-14
 -1      4354 1.20534E-02-1.82040E-03-5.86210E-14
 -1      4355 1.27414E-02-2.21571E-03-6.59556E-14
 -1      4356 1.10482E-02-1.29975E-03-4.93534E-14
 -1      4357 4.36971E-03 3.66943E-05-9.65853E-15
 -1      4358 3.23911E-03 5.22371E-05-5.40956E-15
 -1      4359 4.51047E-03 3.26614E-05-1.02835E-14
 -1      4360 3.38260E-03 5.13915E-05-5.87529E-15
 -3
    1PSTEP                         2           1           1          
  100CL  101 1.000000000        4360                     0    1           1
 -4  STRESS      6    1
 -5  SXX         1    4    1    1
 -5  SYY         1    4    2    2
 -5  SZZ         1    4    3    3
 -5  SXY         1    4    1    2
 -5  SYZ         1    4    2    3
 -5  SZX         1    4    3    1
 -1         1 6.95694E+01 4.41752E+00 4.67556E+00-1.50011E+01-6.96082E-13 3.01859E-12
 -1         2-6.97618E-01-2.68478E+01-3.48660E+00 8.19036E-02 1.73513E-12 5.09974E-14
 -1         3 1.99995E+01-2.85342E-04 2.21448E-03-3.04071E-04-3.23994E-13-1.77863E-13
 -1         4 1.99997E+01-1.33495E-04 2.69073E-03 1.66412E-04 2.43168E-14 3.31293E-13
 -1         5 3.27364E+01 6.13661E+00 2.73894E+00 6.21943E+00-3.84207E-14 2.27759E-12
 -1         6 3.59079E+01 1.23367E+01 5.21415E+00-8.75045E+00-1.28897E-13 1.48398E-12
 -1         7 2.07066E+01 6.10122E+00-1.46131E-01-4.69429E+00-1.80689E-14 2.19200E-14
 -1         8 1.96657E+01 5.93453E+00 5.08312E-02-3.27095E+00-1.83881E-14-3.52222E-13
 -1         9 1.91368E+01 5.77206E+00 4.91943E-02-2.52497E+00-1.42074E-14-5.23903E-13
 -1        10 1.89001E+01 5.69348E+00 5.14260E-02-1.94932E+00-2.45724E-15-5.82715E-13
 -1        11 1.87808E+01 5.65336E+00 5.05255E-02-1.45384E+00-1.25811E-15-5.91933E-13
 -1        12 1.87189E+01 5.63213E+00 4.88226E-02-1.01308E+00-2.79074E-16-5.73067E-13
 -1        13 1.86862E+01 5.62095E+00 4.73881E-02-5.93859E-01 5.04403E-15-5.44972E-13
 -1        14 1.86723E+01 5.61618E+00 4.66167E-02-1.90628E-01 6.47000E-15-5.09633E-13
 -1        15 1.86726E+01 5.61626E+00 4.66443E-02 2.07685E-01 1.24566E-14-4.68802E-13
 -1        16 1.86870E+01 5.62122E+00 4.74864E-02 6.11596E-01 1.41362E-14-4.28928E-13
 -1        17 1.87206E+01 5.63257E+00 4.90535E-02 1.03251E+00 1.52009E-14-3.62309E-13
 -1        18 1.87836E+01 5.65407E+00 5.08653E-02 1.47608E+00 1.92320E-14-2.78689E-13
 -1        19 1.89044E+01 5.69475E+00 5.18160E-02 1.97705E+00 2.75804E-14-1.50251E-13
 -1        20 1.91424E+01 5.77429E+00 4.93281E-02 2.56119E+00 3.07896E-14 6.44185E-14
 -1        21 1.96603E+01 5.94747E+00 4.59945E-02 3.30624E+00 3.06075E-14 4.33047E-13
 -1        22 2.11872E+01 6.37719E+00 1.39438E-01 4.51982E+00 2.30371E-15 1.07311E-12
 -1        23 2.32446E+01-1.30465E+00-9.17315E-01-8.33149E-01-8.95638E-14 1.04511E-12
 -1        24 1.94082E+01-1.08849E-01-3.29932E-01 6.48078E-02-2.19711E-14 6.77959E-13
 -1        25 1.86779E+01-5.84767E-02-7.50752E-02 6.19996E-02-1.45777E-14 3.03917E-13
 -1        26 1.84621E+01-2.30469E-02-7.93193E-03 3.35060E-02 7.74565E-15-3.47986E-15
 -1        27 1.84692E+01-1.24503E-02 1.25613E-03 2.27391E-02-1.36624E-14-1.56541E-13
 -1        28 1.85848E+01-6.62370E-03 1.57392E-03 1.65810E-02-4.49814E-15-2.69357E-13
 -1        29 1.87441E+01-3.75763E-03 1.39728E-03 1.20776E-02-8.69137E-15-3.65066E-13
 -1        30 1.89321E+01-2.02789E-03 1.37182E-03 9.11267E-03-9.02110E-15-4.45888E-13
 -1        31 1.91266E+01-1.15085E-03 1.28978E-03 6.79222E-03 2.30469E-14-4.72437E-13
 -1        32 1.93208E+01-8.83562E-04 9.57499E-04 5.02701E-03 1.55714E-14-4.92207E-13
 -1        33 1.95149E+01-1.11362E-03 3.14237E-04 3.68806E-03-3.30375E-14-5.52832E-13
 -1        34 1.97147E+01-1.64432E-03-6.96369E-04 2.88538E-03 3.17753E-15-7.18835E-13
 -1        35 1.99211E+01-2.84676E-03-2.10519E-03 2.19304E-03-1.09540E-14-6.36455E-13
 -1        36 2.01728E+01-4.50853E-03-4.30341E-03 2.21747E-03 2.24196E-14-6.85321E-13
 -1        37 2.04874E+01-6.95046E-03-7.61234E-03 2.99045E-03 3.98999E-14-6.75658E-13
 -1        38 2.09056E+01-1.03707E-02-1.26851E-02 5.10193E-03-4.69828E-14-8.54273E-13
 -1        39 2.14867E+01-1.52292E-02-2.05540E-02 9.47518E-03 2.16949E-15-1.00230E-12
 -1        40 2.23159E+01-1.96688E-02-3.19917E-02 1.99703E-02 3.85734E-14-9.07475E-13
 -1        41 2.34439E+01-2.73025E-02-4.81026E-02 3.28405E-02-3.30194E-14-6.83108E-13
 -1        42 2.51284E+01-3.14491E-02-6.66905E-02 6.07152E-02 1.24763E-14-7.17596E-13
 -1        43 2.74754E+01-2.83414E-02-7.43860E-02 1.04188E-01 2.71174E-14-5.42767E-13
 -1        44 3.05219E+01-6.40084E-03-3.42835E-02 1.59223E-01-6.41081E-14-6.25465E-13
 -1        45 3.39019E+01 4.84211E-02 1.14987E-01 1.88452E-01 1.59215E-14-4.78485E-13
 -1        46 3.63030E+01 9.58346E-02 3.67080E-01 4.21485E-02-7.83800E-14-4.52188E-13
 -1        47 3.55969E+01 1.44880E-01 5.27244E-01-2.89257E-01-2.36269E-14-4.31349E-13
 -1        48 2.96188E+01 4.58406E-02 5.89578E-02-9.08332E-01-5.12090E-15-5.13034E-13
 -1        49 2.12410E+01-5.03426E-02-9.13000E-01-9.03108E-01-2.10196E-14-6.25250E-13
 -1        50 1.65100E+01-2.14366E-01-1.56435E+00-1.70920E-01-1.19002E-15-1.12929E-12
 -1        51 1.86748E+01-1.87058E-01-1.27957E+00 7.60923E-01-1.36537E-13-2.09988E-12
 -1        52 2.67708E+01-8.59610E-03-2.20171E-01 1.00373E+00 1.15431E-13-2.14845E-12
 -1        53 3.43890E+01 1.15173E-01 4.77367E-01 4.82734E-01-2.61458E-14-1.51457E-12
 -1        54 3.64831E+01 1.21887E-01 4.26133E-01-1.87909E-02 2.83194E-15-1.40348E-12
 -1        55 3.46923E+01 6.37433E-02 1.70985E-01-1.76155E-01-9.33160E-14-1.00959E-12
 -1        56 3.13920E+01 2.75885E-03-1.04530E-02-1.71709E-01 1.83603E-13-5.11799E-13
 -1        57 2.82062E+01-2.54542E-02-7.11935E-02-1.17524E-01-2.00953E-14-4.31669E-13
 -1        58 2.56872E+01-3.18817E-02-7.06635E-02-6.99504E-02-1.61670E-14-5.49165E-13
 -1        59 2.38626E+01-2.86249E-02-5.30205E-02-3.88399E-02 6.90485E-15-7.51770E-13
 -1        60 2.25985E+01-2.14520E-02-3.51995E-02-1.94384E-02-2.93088E-14-7.67069E-13
 -1        61 2.17680E+01-1.75172E-02-2.41808E-02-1.10519E-02-1.37438E-14-1.01236E-12
 -1        62 2.11727E+01-1.19548E-02-1.52870E-02-5.30866E-03-5.71098E-14-1.02479E-12
 -1        63 2.07711E+01-8.42835E-03-9.83326E-03-2.37009E-03-2.90964E-14-8.53225E-13
 -1        64 2.04999E+01-5.89287E-03-6.38285E-03-8.75523E-04 4.42559E-14-6.92000E-13
 -1        65 2.03164E+01-4.14052E-03-4.19315E-03-1.42839E-04 4.47733E-14-2.58010E-13
 -1        66 2.01926E+01-2.79181E-03-2.73689E-03 3.52214E-04-4.75185E-14-1.26998E-13
 -1        67 2.01125E+01-2.15834E-03-1.97144E-03 3.17088E-04 7.55326E-14-1.39519E-13
 -1        68 2.00562E+01-1.50984E-03-1.38441E-03 4.12009E-04 5.75108E-14 1.27149E-13
 -1        69 2.00204E+01-1.12205E-03-1.08066E-03 4.66501E-04 7.15253E-14 3.98707E-13
 -1        70 2.00002E+01-8.49717E-04-9.50431E-04 5.79021E-04-4.01170E-14 2.98258E-13
 -1        71 1.99925E+01-5.56139E-04-7.16007E-04 8.99212E-04-1.15609E-13-1.68709E-13
 -1        72 1.99956E+01 5.40611E-05 5.45104E-04 1.30065E-03 6.89718E-14-5.10959E-14
 -1        73 2.10202E+01-4.04784E-01-9.80108E-01-3.11223E-01 9.93303E-15 2.24377E-12
 -1        74 1.93116E+01-6.60406E-02-2.90830E-01-5.39457E-02 2.31265E-14 1.90435E-12
 -1        75 1.86702E+01-2.04934E-02-6.40088E-02-2.01469E-02-2.92279E-15 1.58454E-12
 -1        76 1.84710E+01-9.98881E-03-8.99099E-03-1.52602E-02 1.11684E-14 1.46729E-12
 -1        77 1.84873E+01-5.34134E-03 5.89318E-04-1.21068E-02 1.52372E-14 1.33602E-12
 -1        78 1.86083E+01-2.85648E-03 1.38333E-03-9.82074E-03-2.55536E-15 1.24634E-12
 -1        79 1.87788E+01-1.45081E-03 1.40817E-03-8.04593E-03-1.70741E-14 1.34109E-12
 -1        80 1.89694E+01-6.60352E-04 1.46544E-03-6.62404E-03-7.33066E-15 1.29396E-12
 -1        81 1.91642E+01-2.28007E-04 1.44667E-03-5.44770E-03-1.14603E-14 1.16932E-12
 -1        82 1.93552E+01-3.12056E-06 1.28876E-03-4.50573E-03 7.76857E-15 1.13737E-12
 -1        83 1.95395E+01 1.21938E-04 1.03995E-03-3.81638E-03-1.77877E-16 1.01725E-12
 -1        84 1.97165E+01 2.36388E-04 7.96646E-04-3.40705E-03 1.90911E-14 8.30775E-13
 -1        85 1.98865E+01 4.23491E-04 6.81371E-04-3.30323E-03-1.38151E-15 7.24024E-13
 -1        86 2.00487E+01 7.64247E-04 8.42548E-04-3.51357E-03 4.66597E-15 7.89842E-13
 -1        87 2.01996E+01 1.33225E-03 1.45353E-03-4.00606E-03-7.54660E-15 7.67396E-13
 -1        88 2.03306E+01 2.17713E-03 2.69583E-03-4.67251E-03-4.89368E-14 8.57257E-13
 -1        89 2.04264E+01 3.29421E-03 4.71181E-03-5.28323E-03 1.57933E-15 9.26108E-13
 -1        90 2.04636E+01 4.58161E-03 7.51355E-03-5.44429E-03 4.03947E-14 6.44128E-13
 -1        91 2.04113E+01 5.79569E-03 1.08466E-02-4.58717E-03-3.54210E-14 5.61426E-13
 -1        92 2.02335E+01 6.53074E-03 1.40386E-02-2.04016E-03 1.70233E-14 6.38069E-13
 -1        93 1.98974E+01 6.26640E-03 1.59221E-02 2.75911E-03 8.87360E-15 6.62427E-13
 -1        94 1.93856E+01 4.52539E-03 1.49794E-02 9.88616E-03-1.03077E-14 7.95635E-13
 -1        95 1.87114E+01 1.13762E-03 9.85844E-03 1.84804E-02 4.19601E-14 6.25302E-13
 -1        96 1.79326E+01-3.49175E-03 2.24193E-04 2.65029E-02-5.26323E-14 5.48790E-13
 -1        97 1.71542E+01-8.30602E-03-1.24336E-02 3.10813E-02 5.05867E-14 6.15655E-13
 -1        98 1.65124E+01-1.18851E-02-2.47147E-02 2.96173E-02-8.39389E-15 5.55024E-13
 -1        99 1.61391E+01-1.30461E-02-3.24429E-02 2.12616E-02-6.84782E-14 6.22211E-13
 -1       100 1.61183E+01-1.14175E-02-3.26729E-02 7.78093E-03-6.91841E-14 8.29406E-13
 -1       101 1.64549E+01-7.61251E-03-2.53053E-02-6.99776E-03 3.70348E-14 7.89033E-13
 -1       102 1.70730E+01-2.89577E-03-1.31488E-02-1.89442E-02 3.30439E-14 5.71963E-13
 -1       103 1.78443E+01 1.41616E-03-3.64214E-04-2.54532E-02-1.22846E-14 2.43002E-13
 -1       104 1.86316E+01 4.43965E-03 9.52643E-03-2.62040E-02-5.95410E-14 6.16627E-13
 -1       105 1.93259E+01 5.89892E-03 1.48916E-02-2.26621E-02-3.62943E-14 6.87269E-13
 -1       106 1.98648E+01 6.00551E-03 1.59661E-02-1.69713E-02 1.57578E-14 6.65165E-13
 -1       107 2.02316E+01 5.21336E-03 1.40678E-02-1.10043E-02-2.74242E-14 3.86405E-13
 -1       108 2.04420E+01 3.99726E-03 1.07386E-02-5.92841E-03 4.40188E-14 2.15789E-13
 -1       109 2.05294E+01 2.72261E-03 7.18781E-03-2.21057E-03 5.49503E-15-2.83621E-13
 -1       110 2.05309E+01 1.60929E-03 4.12615E-03 1.63616E-04-1.43633E-14-1.80763E-13
 -1       111 2.04802E+01 7.50970E-04 1.83339E-03 1.44958E-03 3.58347E-14-3.13603E-13
 -1       112 2.04036E+01 1.56012E-04 3.10725E-04 1.96877E-03 5.93492E-15-4.22836E-13
 -1       113 2.03192E+01-2.13201E-04-5.77236E-04 2.01218E-03-4.25998E-14-4.18805E-13
 -1       114 2.02386E+01-4.11591E-04-1.00611E-03 1.80287E-03-2.55604E-14-1.78990E-13
 -1       115 2.01678E+01-4.94265E-04-1.14040E-03 1.49245E-03-1.57606E-14-1.39958E-13
 -1       116 2.01093E+01-5.08114E-04-1.11469E-03 1.17207E-03-3.93190E-14-3.42288E-13
 -1       117 2.00637E+01-4.87652E-04-1.03312E-03 8.85206E-04 1.19664E-13-2.66864E-13
 -1       118 2.00303E+01-4.54416E-04-9.72873E-04 6.35868E-04-7.62260E-14-8.08147E-13
 -1       119 2.00083E+01-4.09770E-04-9.56858E-04 3.85708E-04 4.98706E-15-8.70172E-13
 -1       120 1.99974E+01-2.66824E-04-7.86667E-04-3.30215E-05-4.51574E-14-1.76443E-13
 -1       121 1.99969E+01 3.37332E-04 3.01330E-04-7.95882E-04 1.58780E-13-1.44124E-13
 -1       122 1.99999E+01-2.70552E-03 1.94469E-04-1.07686E-03-1.98020E-14 1.67595E-13
 -1       123 1.99994E+01-1.73245E-03-8.05338E-04-2.65029E-04 4.73078E-13-1.16564E-13
 -1       124 1.99995E+01 9.32014E-03-7.30225E-04 2.96169E-04 5.01515E-13 2.90075E-14
 -1       125 1.99996E+01 2.76217E-02-3.64467E-04 5.93483E-04-4.24589E-13-1.26989E-13
 -1       126 1.99999E+01 4.92910E-02 3.41798E-05 6.76848E-04-6.24022E-13-1.42552E-14
 -1       127 2.00001E+01 6.99204E-02 3.80627E-04 6.08517E-04-6.49819E-13 5.40916E-14
 -1       128 2.00003E+01 8.64559E-02 6.50859E-04 4.10797E-04-1.20433E-13 2.31075E-13
 -1       129 2.00004E+01 9.55287E-02 8.15128E-04 1.22942E-04-1.24856E-13-7.31541E-14
 -1       130 2.00004E+01 9.53020E-02 8.42189E-04-2.08545E-04 1.30372E-13 2.15245E-13
 -1       131 2.00003E+01 8.54725E-02 7.10234E-04-5.23703E-04 5.40291E-13-3.47055E-13
 -1       132 2.00001E+01 6.75022E-02 4.12731E-04-7.57889E-04 2.29277E-13-3.71264E-14
 -1       133 1.99999E+01 4.49690E-02-1.89550E-05-8.17751E-04-4.00077E-14-3.68318E-14
 -1       134 1.99996E+01 2.16739E-02-5.23624E-04-6.48141E-04 2.08850E-13 7.74895E-14
 -1       135 1.99993E+01 3.12184E-03-9.78263E-04-2.45121E-04 7.25138E-13-1.40595E-13
 -1       136 1.99994E+01-6.18294E-03-9.54056E-04 6.48025E-04 3.74901E-13-2.13251E-13
 -1       137 1.99996E+01-3.99491E-03 3.44014E-04 1.99350E-03-3.52500E-13-1.33252E-13
 -1       138-1.32018E+00-1.98332E+01-2.98070E+00-3.67043E+00 1.32527E-12 1.58457E-13
 -1       139-1.08821E+00-6.88435E+00-2.04425E+00-2.15331E+00 1.85635E-12 1.04217E-12
 -1       140 4.70467E+00 5.77675E+00-7.70321E-01 5.44861E+00 1.54721E-12 9.72278E-13
 -1       141 1.78241E+01 1.18519E+01 6.25475E-01 1.43593E+01 1.18683E-12 1.49863E-12
 -1       142 3.86781E+01 1.07234E+01 2.01796E+00 1.97381E+01 8.46795E-13 1.47138E-12
 -1       143 5.80495E+01 5.03676E+00 3.02081E+00 1.59694E+01 2.60209E-13 9.06497E-13
 -1       144 6.86958E+01 1.08888E+00 3.50672E+00 3.34130E+00 1.69274E-14-1.08413E-13
 -1       145 6.47679E+01 2.62204E+00 3.32149E+00-1.03247E+01 2.28484E-13-1.03129E-12
 -1       146 4.92704E+01 7.91414E+00 2.58880E+00-1.88680E+01 6.58251E-13-1.68471E-12
 -1       147 2.93369E+01 1.22315E+01 1.45808E+00-1.85819E+01 1.48148E-12-2.10754E-12
 -1       148 1.17197E+01 1.06925E+01 9.53660E-02-1.11926E+01 2.17276E-12-2.26302E-12
 -1       149 1.74627E+00 2.04408E+00-1.22699E+00-2.25586E+00 2.30005E-12-1.38223E-12
 -1       150-1.58763E+00-1.15125E+01-2.40909E+00 3.51601E+00 1.98647E-12-7.78211E-13
 -1       151-1.02357E+00-2.27535E+01-3.17733E+00 2.93457E+00 7.06490E-13-1.85338E-13
 -1       152-8.62121E-01-2.70778E+01-3.53584E+00-1.63144E+00-1.15605E-12-1.62891E-13
 -1       153-2.26507E+00-2.23652E+01-3.46117E+00-5.64220E+00-2.18467E-12-6.30392E-13
 -1       154-2.59087E+00-1.04555E+01-2.89633E+00-4.48890E+00-2.47868E-12-1.38864E-12
 -1       155 2.84019E+00 2.00793E+00-1.77517E+00 2.91286E+00-1.95177E-12-1.49691E-12
 -1       156 2.02604E+01 9.52766E+00 1.08586E-01 1.38404E+01-1.12482E-12-1.55598E-12
 -1       157 4.47246E+01 8.96803E+00 2.38683E+00 1.91488E+01-5.66880E-13-1.29696E-12
 -1       158 7.08770E+01 4.25547E+00 4.72997E+00 1.38605E+01-1.30854E-13-2.82829E-13
 -1       159 8.09552E+01 1.63444E+00 5.65210E+00-1.01929E+00-2.19089E-13 1.50038E-12
 -1       160 4.30716E+01 9.52553E+00 2.30713E+00-1.96453E+01-1.43896E-12 3.07099E-12
 -1       161 1.69597E+01 9.28274E+00-1.75410E-01-1.26525E+01-1.77619E-12 2.19480E-12
 -1       162 1.51944E+00 7.05181E-01-1.97109E+00-1.62726E+00-1.26155E-12 1.16401E-12
 -1       163-2.88214E+00-1.29083E+01-3.07198E+00 5.25168E+00 6.56863E-13-1.28147E-13
 -1       164-1.87290E+00-2.43090E+01-3.54286E+00 5.09586E+00 1.92560E-12-4.47713E-13
 -1       165 2.10007E+01 3.69988E+00-5.20254E-02-3.62056E+00-2.54016E-13-1.40700E-13
 -1       166 1.99872E+01 4.20876E+00-4.54934E-02-2.80647E+00-1.98047E-13-3.53568E-13
 -1       167 1.95128E+01 4.47675E+00-3.12713E-02-2.19336E+00-1.31829E-13-4.53941E-13
 -1       168 1.92736E+01 4.61687E+00-2.34630E-02-1.67160E+00-6.84316E-14-4.88968E-13
 -1       169 1.91449E+01 4.70007E+00-1.94946E-02-1.21609E+00-1.79365E-14-4.76841E-13
 -1       170 1.90720E+01 4.75230E+00-1.73873E-02-7.89693E-01 3.46092E-14-4.59446E-13
 -1       171 1.90350E+01 4.78097E+00-1.63691E-02-3.85543E-01 8.45188E-14-4.30161E-13
 -1       172 1.90240E+01 4.78981E+00-1.60743E-02 8.29797E-03 1.29089E-13-4.03288E-13
 -1       173 1.90361E+01 4.77979E+00-1.64072E-02 4.02406E-01 1.69001E-13-3.64173E-13
 -1       174 1.90745E+01 4.74953E+00-1.74632E-02 8.07422E-01 2.06214E-13-3.16626E-13
 -1       175 1.91479E+01 4.69601E+00-1.96336E-02 1.22802E+00 2.44753E-13-2.51482E-13
 -1       176 1.92815E+01 4.60756E+00-2.39286E-02 1.69414E+00 2.94269E-13-1.46086E-13
 -1       177 1.95259E+01 4.46008E+00-3.25195E-02 2.22172E+00 3.24805E-13-1.33227E-15
 -1       178 2.00091E+01 4.18326E+00-4.70552E-02 2.84394E+00 3.22852E-13 2.57381E-13
 -1       179 2.11247E+01 3.46174E+00-5.99650E-02 3.53247E+00 2.57579E-13 6.63462E-13
 -1       180 2.24027E+01 1.14301E+00-3.36287E-01 3.01196E+00 1.50073E-13 1.16462E-12
 -1       181 2.20194E+01 9.23233E-01-6.71209E-04-2.03323E+00-2.19963E-13 1.79450E-13
 -1       182 2.04825E+01 2.08784E-01-1.10995E-02-8.00218E-01-2.13300E-13 7.21840E-14
 -1       183 1.96864E+01 1.05857E-01 1.32453E-02-2.99048E-01-1.71438E-13-9.80813E-15
 -1       184 1.93365E+01 4.94925E-02 1.02443E-02-7.22563E-02-1.05017E-13-1.26492E-13
 -1       185 1.92053E+01 2.43501E-02 5.44403E-03 4.10499E-02-6.84266E-14-1.83464E-13
 -1       186 1.91950E+01 1.18253E-02 2.66354E-03 9.68953E-02-6.58202E-14-2.16959E-13
 -1       187 1.92530E+01 4.79211E-03 1.39312E-03 1.26372E-01-3.46476E-14-2.18656E-13
 -1       188 1.93505E+01 1.27951E-03 7.82085E-04 1.39810E-01-9.55155E-15-1.99424E-13
 -1       189 1.94707E+01 2.10875E-04 5.29107E-04 1.45713E-01 4.88575E-15-1.82117E-13
 -1       190 1.96059E+01 1.02571E-03 4.78865E-04 1.50282E-01-4.17992E-14-2.15238E-13
 -1       191 1.97547E+01 3.59457E-03 5.61843E-04 1.58612E-01-1.01712E-13-1.83935E-13
 -1       192 1.99126E+01 7.67252E-03 8.04612E-04 1.74289E-01-3.73797E-14-2.60984E-13
 -1       193 2.01050E+01 1.42909E-02 1.18397E-03 2.04155E-01-3.83694E-14-3.15691E-13
 -1       194 2.03389E+01 2.40632E-02 1.74730E-03 2.54838E-01 9.56440E-15-3.71355E-13
 -1       195 2.06364E+01 3.83629E-02 2.51067E-03 3.35736E-01-5.73856E-14-4.22322E-13
 -1       196 2.10280E+01 5.90983E-02 3.45511E-03 4.60014E-01-6.66914E-15-2.94668E-13
 -1       197 2.15543E+01 8.85174E-02 4.29299E-03 6.45840E-01 7.76087E-14-2.57620E-13
 -1       198 2.22273E+01 1.25431E-01 4.75480E-03 8.98159E-01 5.34846E-14-2.00360E-13
 -1       199 2.31738E+01 1.71452E-01 3.77729E-03 1.25844E+00 2.88246E-14-1.10361E-13
 -1       200 2.44199E+01 2.08156E-01 4.56137E-04 1.71356E+00 5.58126E-14-5.71769E-14
 -1       201 2.59913E+01 1.86127E-01-4.13307E-03 2.18248E+00-1.22435E-14-7.67476E-14
 -1       202 2.78390E+01-6.82355E-03-3.79484E-03 2.41178E+00 7.21112E-14-1.93005E-14
 -1       203 2.97655E+01-5.29317E-01 8.38955E-03 1.86363E+00 3.54040E-14-9.01033E-14
 -1       204 3.12580E+01-1.27622E+00 1.87194E-02 1.20212E-01 1.10970E-14 6.84648E-14
 -1       205 3.20403E+01-1.64658E+00-2.65168E-02-3.03859E+00-4.10947E-14 1.49002E-13
 -1       206 3.13890E+01-3.20861E-01-1.66044E-01-5.20248E+00-1.93005E-13 1.50378E-13
 -1       207 3.02526E+01 1.90978E+00-2.77718E-01-3.67151E+00-4.58050E-13-3.05263E-13
 -1       208 2.98682E+01 2.88586E+00-2.98204E-01 1.08873E+00-6.37379E-13-6.78621E-13
 -1       209 3.08397E+01 8.29260E-01-2.27855E-01 4.86403E+00-2.55782E-13-8.87544E-13
 -1       210 3.19744E+01-1.45895E+00-6.08023E-02 4.00496E+00 3.62647E-13-1.13634E-12
 -1       211 3.16167E+01-1.50236E+00 1.74312E-02 7.31722E-01 2.51802E-13-5.71760E-13
 -1       212 3.02335E+01-7.19348E-01 1.36854E-02-1.52568E+00 1.49334E-13-3.60945E-13
 -1       213 2.83429E+01-9.81568E-02-2.12319E-03-2.36534E+00 1.99538E-13-2.93564E-13
 -1       214 2.64563E+01 1.62481E-01-5.04135E-03-2.26297E+00 8.08448E-14-4.23881E-13
 -1       215 2.48132E+01 2.14223E-01-9.34096E-04-1.81855E+00-3.99724E-15-3.06418E-13
 -1       216 2.34963E+01 1.85988E-01 2.91169E-03-1.34616E+00-1.14307E-13-3.02540E-13
 -1       217 2.24969E+01 1.40055E-01 4.62043E-03-9.55823E-01-7.78847E-15-2.76362E-13
 -1       218 2.17918E+01 1.01070E-01 4.34476E-03-6.76645E-01-3.98648E-14-4.19123E-13
 -1       219 2.12510E+01 6.97964E-02 3.77632E-03-4.66726E-01-7.42420E-14-3.50683E-13
 -1       220 2.08664E+01 4.74650E-02 2.87427E-03-3.20516E-01 4.70520E-14-2.07456E-13
 -1       221 2.05939E+01 3.21955E-02 2.09934E-03-2.20009E-01-4.54736E-15-3.63905E-13
 -1       222 2.04017E+01 2.18962E-02 1.50314E-03-1.51037E-01 8.43964E-14-3.50001E-13
 -1       223 2.02667E+01 1.49651E-02 1.07720E-03-1.03524E-01 1.72261E-13-3.89783E-13
 -1       224 2.01760E+01 1.05428E-02 7.51740E-04-7.19411E-02 7.32950E-14-1.17975E-13
 -1       225 2.01090E+01 7.46637E-03 5.52905E-04-4.84459E-02 9.12809E-14-2.29581E-13
 -1       226 2.00633E+01 5.46808E-03 3.91314E-04-3.14776E-02 9.58706E-14-2.00605E-13
 -1       227 2.00332E+01 4.21970E-03 2.65369E-04-1.87897E-02-1.53235E-13-3.92011E-13
 -1       228 2.00146E+01 3.51361E-03 1.70523E-04-8.82694E-03-2.04179E-13-2.51485E-13
 -1       229 2.00042E+01 2.80966E-03 1.53488E-04-9.90311E-04 2.35594E-13-1.94589E-13
 -1       230 2.09497E+01 2.78165E-01-5.06803E-02 1.16324E+00 1.89376E-13 1.01346E-12
 -1       231 1.98569E+01 1.28554E-01 8.92374E-03 4.42606E-01 1.47488E-13 8.59430E-13
 -1       232 1.93542E+01 5.84997E-02 1.29240E-02 1.47456E-01 7.76128E-14 7.29907E-13
 -1       233 1.91502E+01 2.81949E-02 7.61202E-03 6.39629E-03 8.32917E-14 6.54607E-13
 -1       234 1.91086E+01 1.38779E-02 3.82108E-03-6.49013E-02 1.14526E-14 6.01374E-13
 -1       235 1.91557E+01 6.30082E-03 1.93168E-03-1.00502E-01-4.18157E-14 5.77841E-13
 -1       236 1.92511E+01 2.15020E-03 1.05757E-03-1.16631E-01 6.68894E-14 5.60074E-13
 -1       237 1.93711E+01-2.57549E-05 6.08298E-04-1.21998E-01 4.23336E-14 5.13839E-13
 -1       238 1.95024E+01-9.94217E-04 3.41965E-04-1.21827E-01 2.38702E-14 4.76399E-13
 -1       239 1.96378E+01-1.27673E-03 1.63462E-04-1.19210E-01 5.18810E-14 4.35050E-13
 -1       240 1.97733E+01-1.28681E-03 2.90954E-05-1.15722E-01 7.25431E-14 4.46556E-13
 -1       241 1.99065E+01-1.41020E-03-8.69750E-05-1.11660E-01 7.09083E-14 4.28614E-13
 -1       242 2.00348E+01-2.04835E-03-2.00766E-04-1.06088E-01-3.31049E-14 3.41720E-13
 -1       243 2.01542E+01-3.63055E-03-3.18625E-04-9.68003E-02-2.68416E-14 3.65885E-13
 -1       244 2.02574E+01-6.58453E-03-4.34799E-04-8.03129E-02-5.44719E-14 4.62893E-13
 -1       245 2.03330E+01-1.12427E-02-5.29065E-04-5.20483E-02 3.29745E-14 3.20563E-13
 -1       246 2.03644E+01-1.76587E-02-5.67659E-04-6.93939E-03 1.78483E-13 3.07070E-13
 -1       247 2.03307E+01-2.53298E-02-5.11711E-04 5.92838E-02-2.73457E-15 2.16063E-13
 -1       248 2.02084E+01-3.28768E-02-3.35986E-04 1.47944E-01-6.83328E-14 2.79555E-13
 -1       249 1.99771E+01-3.78394E-02-5.64070E-05 2.54533E-01-6.38465E-14 4.60331E-13
 -1       250 1.96267E+01-3.68824E-02 2.48327E-04 3.65892E-01 5.96066E-14 3.83693E-13
 -1       251 1.91674E+01-2.67552E-02 4.47847E-04 4.59165E-01 1.24489E-13 1.19382E-13
 -1       252 1.86377E+01-6.07836E-03 4.21140E-04 5.04864E-01-6.46755E-14 7.94425E-14
 -1       253 1.81062E+01 2.26911E-02 1.55270E-04 4.75481E-01 1.63725E-14 1.82793E-13
 -1       254 1.76620E+01 5.25395E-02-1.92460E-04 3.58055E-01-9.90516E-14 3.61732E-13
 -1       255 1.73926E+01 7.38287E-02-3.58455E-04 1.64817E-01-7.62264E-14 4.95101E-13
 -1       256 1.73568E+01 7.87015E-02-1.59080E-04-6.58227E-02 1.41595E-14 5.16924E-13
 -1       257 1.75626E+01 6.53372E-02 3.53944E-04-2.81416E-01-5.10746E-15 2.56463E-13
 -1       258 1.79652E+01 3.89662E-02 9.05794E-04-4.35372E-01 5.28508E-14 2.68919E-13
 -1       259 1.84829E+01 8.90330E-03 1.19499E-03-5.03554E-01 6.22026E-14 2.86744E-13
 -1       260 1.90246E+01-1.61780E-02 1.07939E-03-4.88969E-01-1.36151E-13 2.50200E-13
 -1       261 1.95147E+01-3.15188E-02 6.46438E-04-4.14450E-01 3.59002E-14 1.45076E-13
 -1       262 1.99063E+01-3.67505E-02 1.01391E-04-3.10021E-01 6.05621E-14 1.53910E-13
 -1       263 2.01825E+01-3.43651E-02-3.64567E-04-2.02148E-01-6.47249E-14 2.71859E-13
 -1       264 2.03493E+01-2.77428E-02-6.45307E-04-1.08350E-01 2.33369E-13 2.71531E-13
 -1       265 2.04261E+01-1.97906E-02-7.31726E-04-3.67434E-02 1.79988E-13-4.22140E-14
 -1       266 2.04371E+01-1.24017E-02-6.71932E-04 1.16698E-02-5.95551E-14 1.73498E-14
 -1       267 2.04055E+01-6.49161E-03-5.31362E-04 4.00238E-02 9.73448E-14 6.57280E-14
 -1       268 2.03505E+01-2.27948E-03-3.66256E-04 5.31127E-02-4.79763E-14 1.50916E-13
 -1       269 2.02863E+01 4.08516E-04-2.13358E-04 5.57833E-02-2.10476E-14 3.15551E-13
 -1       270 2.02224E+01 1.90926E-03-9.06278E-05 5.21152E-02-4.95919E-14 2.55428E-13
 -1       271 2.01643E+01 2.58324E-03-2.69610E-06 4.51445E-02-1.15813E-13 9.47763E-14
 -1       272 2.01148E+01 2.74719E-03 5.27256E-05 3.68944E-02 1.65296E-13 2.30683E-13
 -1       273 2.00749E+01 2.65312E-03 7.90223E-05 2.85402E-02 9.73774E-14-9.29528E-14
 -1       274 2.00444E+01 2.48290E-03 7.51155E-05 2.06109E-02 1.04145E-13 1.46865E-13
 -1       275 2.00228E+01 2.36025E-03 4.21882E-05 1.32142E-02-7.06046E-14-5.90527E-14
 -1       276 2.00092E+01 2.34318E-03 5.96230E-05 6.27344E-03-3.48963E-13-5.07750E-14
 -1       277 2.00022E+01 1.54643E-03 1.88571E-04 4.10649E-04 1.58091E-13 7.95821E-14
 -1       278 2.00026E+01 5.35046E-03 9.05534E-05 3.46672E-03 1.68165E-13 3.00790E-13
 -1       279 2.00025E+01 1.46914E-02 2.98155E-05 9.88182E-03 2.77666E-13-6.43781E-14
 -1       280 2.00014E+01 2.82897E-02 1.32909E-05 1.49939E-02 3.53939E-14-4.04268E-13
 -1       281 2.00002E+01 4.45230E-02-3.12828E-06 1.73381E-02-3.85863E-14-2.19644E-13
 -1       282 1.99990E+01 6.08420E-02-3.80906E-05 1.66733E-02-1.58822E-13-6.59494E-14
 -1       283 1.99979E+01 7.53257E-02-7.24793E-05 1.31476E-02 9.49496E-14 5.51622E-14
 -1       284 1.99971E+01 8.53584E-02-9.88765E-05 7.30158E-03 8.55328E-14 7.31695E-14
 -1       285 1.99968E+01 8.92398E-02-1.09354E-04 2.99087E-05 1.26040E-13 1.64431E-13
 -1       286 1.99969E+01 8.61642E-02-1.01398E-04-7.49285E-03-2.32245E-14 6.71392E-15
 -1       287 1.99977E+01 7.64426E-02-7.61708E-05-1.39263E-02 3.35690E-13-1.56134E-13
 -1       288 1.99989E+01 6.18521E-02-3.90589E-05-1.79108E-02 2.63651E-13-2.54820E-13
 -1       289 2.00004E+01 4.43125E-02-1.11982E-05-1.85654E-02 2.60423E-13 6.90027E-14
 -1       290 2.00019E+01 2.71395E-02 7.16466E-06-1.53343E-02 1.83379E-13 2.71910E-13
 -1       291 2.00032E+01 1.31816E-02 2.81242E-05-9.06785E-03 1.64079E-13-4.23905E-13
 -1       292-7.02030E-01-1.10011E+01-8.97413E-01 2.42925E+00 7.78530E-13-9.81437E-14
 -1       293 3.50366E+00-8.17957E+00-6.76566E-01 4.64478E+00 6.52034E-13 5.87218E-13
 -1       294 1.17232E+01-4.50555E+00-3.19790E-01 7.05761E+00 7.32803E-13 3.35898E-13
 -1       295 2.01366E+01 2.17676E-01-2.34870E-02 8.24401E+00 7.22727E-13 8.58147E-13
 -1       296 3.14019E+01 2.36405E+00 2.65361E-01 7.08637E+00 4.88734E-13 4.22024E-13
 -1       297 4.11230E+01 5.87184E+00 7.47945E-01 6.98439E+00 5.85155E-13 4.27214E-13
 -1       298 4.78111E+01 6.90468E+00 1.00696E+00 3.54950E+00 5.52405E-13 3.20438E-14
 -1       299 4.55422E+01 7.88252E+00 6.63673E-01-7.85722E-01 4.37705E-13-2.92474E-14
 -1       300 4.43502E+01 6.54909E+00 8.10429E-01-5.04842E+00 5.76386E-13-3.39673E-13
 -1       301 3.68978E+01 5.07818E+00 6.17278E-01-8.06523E+00 7.11743E-13-5.68157E-13
 -1       302 2.66419E+01 2.52070E+00 2.39078E-01-8.72754E+00 9.39721E-13-6.60361E-13
 -1       303 1.64183E+01-1.21987E+00-1.70872E-01-7.71275E+00 9.01251E-13-8.95867E-13
 -1       304 8.02682E+00-5.67819E+00-5.10414E-01-5.99749E+00 8.65863E-13-7.49650E-13
 -1       305 1.62690E+00-9.63115E+00-8.42220E-01-3.63653E+00 4.77673E-13-8.32612E-13
 -1       306-1.28297E+00-1.14400E+01-9.32785E-01-1.80961E+00-5.17086E-14-9.59871E-13
 -1       307-1.04854E+00-1.14469E+01-9.48604E-01 3.78219E-01-3.98501E-13-6.76709E-13
 -1       308 3.22814E+00-9.46694E+00-8.32903E-01 3.00730E+00-6.55281E-13-6.15549E-13
 -1       309 1.05497E+01-6.51557E+00-7.44941E-01 4.72346E+00-9.23650E-13-3.05422E-13
 -1       310 2.38738E+01-3.75198E+00-2.42311E-01 5.85285E+00-5.93386E-13-2.36922E-13
 -1       311 3.61199E+01 3.84610E-01 3.18397E-01 5.28044E+00-4.78700E-13-2.80442E-13
 -1       312 4.53831E+01 3.78303E+00 7.43878E-01 1.59329E+00-4.96408E-13 1.64091E-13
 -1       313 5.02070E+01 7.10429E+00 1.12243E+00 2.35028E-01-7.76879E-13 5.70599E-13
 -1       314 5.19161E+01 7.03672E+00 1.42304E+00-6.61428E-01-8.24590E-13 8.07160E-13
 -1       315 4.72569E+01 4.30547E+00 1.17050E+00-3.99326E+00-6.35256E-13 1.29624E-12
 -1       316 3.47220E+01 5.78381E-01 3.04707E-01-6.14939E+00-5.62606E-13 1.37895E-12
 -1       317 2.11531E+01-3.51538E+00-3.62276E-01-6.07205E+00-3.61100E-13 1.20251E-12
 -1       318 8.98237E+00-7.15873E+00-8.25334E-01-4.34021E+00 2.03337E-13 1.09503E-12
 -1       319 1.94076E+00-9.93815E+00-8.75245E-01-2.44416E+00 6.80817E-13 5.18252E-13
 -1       320-1.54514E+00-1.23889E+01-1.07409E+00 3.48006E-01 7.48394E-13-3.13999E-13
 -1       321 2.00027E+01 4.49690E-03 1.99320E-04-1.94203E-03 2.27614E-13-2.56649E-13
 -1       322 2.01377E+01 3.00003E+00-2.20093E-02-2.09320E+00-1.84447E-13-3.02888E-13
 -1       323 2.07476E+01 2.20705E+00-1.79070E-02-2.36176E+00-2.44151E-13-1.81081E-13
 -1       324 1.95903E+01 3.69582E+00-1.56031E-02-1.31224E+00-6.62328E-14-3.77057E-13
 -1       325 1.94679E+01 3.85496E+00-1.36939E-02-9.19454E-01-1.94048E-15-3.53675E-13
 -1       326 1.93990E+01 3.94748E+00-1.26885E-02-5.41017E-01 7.31047E-14-3.20816E-13
 -1       327 1.93682E+01 3.98975E+00-1.22614E-02-1.72171E-01 1.40067E-13-3.03717E-13
 -1       328 1.93692E+01 3.98825E+00-1.22769E-02 1.93475E-01 1.84023E-13-2.84527E-13
 -1       329 1.94021E+01 3.94262E+00-1.27247E-02 5.62533E-01 2.24346E-13-2.41980E-13
 -1       330 1.94723E+01 3.84789E+00-1.37455E-02 9.34927E-01 2.76359E-13-1.99793E-13
 -1       331 1.95983E+01 3.68354E+00-1.56796E-02 1.32803E+00 3.21326E-13-1.05748E-13
 -1       332 1.98115E+01 3.41266E+00-1.90660E-02 1.73340E+00 3.56572E-13 4.51462E-15
 -1       333 2.01738E+01 2.95250E+00-2.33932E-02 2.11919E+00 3.63168E-13 1.34662E-13
 -1       334 2.07539E+01 2.10582E+00-2.93712E-02 2.30240E+00 3.22828E-13 3.95899E-13
 -1       335 2.10834E+01 1.18597E+00-2.39002E-02 1.91131E+00 2.61013E-13 6.49911E-13
 -1       336 2.03698E+01 4.92365E-01 8.41686E-03 9.15008E-01 2.17573E-13 5.44329E-13
 -1       337 2.04737E+01 7.02778E-01 1.18697E-02-1.05663E+00-2.24585E-13-1.04167E-13
 -1       338 2.00512E+01 3.50318E-01 7.28538E-03-4.72082E-01-1.76269E-13-1.22572E-13
 -1       339 1.97960E+01 1.85673E-01 4.31524E-03-1.50754E-01-1.06868E-13-1.43024E-13
 -1       340 1.96672E+01 1.02265E-01 2.04384E-03 2.41382E-02-9.71773E-14-1.66571E-13
 -1       341 1.96161E+01 5.29797E-02 9.75139E-04 1.29255E-01-4.32351E-14-1.56373E-13
 -1       342 1.96221E+01 2.59638E-02 4.52833E-04 1.87383E-01 4.82774E-15-1.07122E-13
 -1       343 1.96653E+01 1.29677E-02 2.43781E-04 2.19649E-01 3.29702E-14-8.39459E-14
 -1       344 1.97336E+01 9.86794E-03 1.95970E-04 2.40213E-01-5.24207E-14-1.18331E-13
 -1       345 1.98202E+01 1.48123E-02 2.51307E-04 2.59667E-01-5.03788E-14-1.67323E-13
 -1       346 1.99178E+01 2.64756E-02 4.08864E-04 2.85111E-01-6.10776E-14-8.58093E-14
 -1       347 2.00377E+01 4.68874E-02 6.86233E-04 3.27578E-01-4.67527E-14-6.49438E-14
 -1       348 2.01791E+01 7.77400E-02 1.09962E-03 3.95873E-01-5.01960E-14-7.50367E-14
 -1       349 2.03483E+01 1.22546E-01 1.70306E-03 5.01956E-01-5.06908E-15-6.51476E-14
 -1       350 2.05535E+01 1.86373E-01 2.54365E-03 6.61323E-01 4.00515E-14 1.40406E-14
 -1       351 2.08030E+01 2.75365E-01 3.62732E-03 8.94037E-01 7.42317E-14 5.63308E-14
 -1       352 2.10890E+01 3.87600E-01 4.72532E-03 1.20430E+00 1.01877E-13-1.62004E-14
 -1       353 2.14475E+01 5.30725E-01 5.77318E-03 1.64576E+00 6.91894E-14-1.51909E-14
 -1       354 2.18689E+01 6.71740E-01 5.80898E-03 2.21639E+00 1.07090E-13-1.90715E-14
 -1       355 2.23737E+01 7.18839E-01 4.59396E-03 2.88474E+00 6.40588E-14 9.97548E-14
 -1       356 2.30494E+01 4.54229E-01 4.51233E-03 3.52113E+00 6.41939E-14 1.66834E-13
 -1       357 2.41506E+01-5.18868E-01 7.97433E-03 3.80554E+00 5.80282E-14 1.49583E-13
 -1       358 2.59957E+01-2.27241E+00 3.44651E-02 3.25845E+00 9.13887E-14 2.59188E-13
 -1       359 2.94976E+01-4.46411E+00 1.27803E-02 1.02863E+00 6.63913E-14 2.77766E-13
 -1       360 3.86435E+01 6.22687E+00 6.33363E-02-1.00404E+00-7.81847E-13-2.21975E-14
 -1       361 3.90990E+01 4.86186E+00 8.95343E-02 3.17664E+00-6.68687E-13-5.58859E-14
 -1       362 3.56398E+01-1.57628E+00-9.80837E-02 3.71457E+00 8.40092E-14-5.85088E-14
 -1       363 3.12160E+01-4.47100E+00-3.71944E-02 5.98080E-01 5.23928E-13-2.62245E-13
 -1       364 2.76996E+01-2.87478E+00 1.31036E-02-2.27532E+00 3.22681E-13-2.63879E-13
 -1       365 2.52870E+01-8.55110E-01 1.06777E-02-3.51123E+00 7.75907E-14-2.43514E-13
 -1       366 2.38894E+01 2.49822E-01 2.13333E-03-3.48781E+00 1.13300E-13-1.57632E-13
 -1       367 2.29962E+01 6.16664E-01 2.87800E-03-2.93725E+00 8.53885E-14-2.16228E-13
 -1       368 2.23324E+01 6.23522E-01 4.86310E-03-2.27551E+00-2.14746E-14-5.43041E-14
 -1       369 2.18001E+01 5.09246E-01 5.71913E-03-1.68332E+00-1.68120E-13 5.51999E-14
 -1       370 2.13861E+01 3.86557E-01 5.10642E-03-1.23287E+00-1.83527E-13-1.39700E-13
 -1       371 2.10358E+01 2.76134E-01 4.09062E-03-8.75738E-01 2.28066E-14-1.18210E-13
 -1       372 2.07630E+01 1.93043E-01 3.01374E-03-6.17366E-01 9.01967E-14-7.04664E-15
 -1       373 2.05540E+01 1.33665E-01 2.13165E-03-4.33586E-01-1.29639E-13 2.22577E-13
 -1       374 2.03963E+01 9.23682E-02 1.48273E-03-3.03921E-01-2.19787E-13-2.30899E-14
 -1       375 2.02790E+01 6.39720E-02 1.03959E-03-2.12645E-01 8.50054E-14-1.68972E-13
 -1       376 2.01961E+01 4.54741E-02 7.16819E-04-1.50880E-01 3.31158E-14-2.81820E-13
 -1       377 2.01318E+01 3.20756E-02 5.10252E-04-1.04288E-01-1.51974E-13-6.15774E-13
 -1       378 2.00855E+01 2.31211E-02 3.69812E-04-7.08186E-02 1.45748E-13-7.43110E-13
 -1       379 2.00527E+01 1.73678E-02 2.96028E-04-4.64474E-02 6.93219E-14-5.24493E-13
 -1       380 2.00299E+01 1.33336E-02 1.94492E-04-2.77646E-02-1.65199E-13-2.54556E-13
 -1       381 2.00141E+01 1.04384E-02 1.32732E-04-1.34384E-02-1.60741E-13-3.43814E-13
 -1       382 1.98755E+01 2.38076E-01 1.10954E-02 3.93912E-01 1.62315E-13 4.70171E-13
 -1       383 1.12370E+01-5.28582E+00-1.87254E-02 8.06059E+00 1.95399E-14 4.20219E-13
 -1       384 1.96001E+01 1.21909E-01 6.43888E-03 1.13629E-01 1.23731E-13 3.66803E-13
 -1       385 1.94756E+01 6.04474E-02 2.70143E-03-4.03855E-02 3.35322E-14 3.30259E-13
 -1       386 1.94459E+01 2.99184E-02 1.21759E-03-1.22732E-01-1.37737E-14 2.65797E-13
 -1       387 1.94758E+01 1.27021E-02 5.40603E-04-1.65124E-01 5.12397E-14 2.04534E-13
 -1       388 1.95408E+01 3.34126E-03 2.26070E-04-1.84649E-01 8.55953E-14 2.56744E-13
 -1       389 1.96259E+01-1.28459E-03 6.33373E-05-1.91539E-01 6.56210E-14 2.49367E-13
 -1       390 1.97221E+01-3.18945E-03-2.82294E-05-1.91926E-01 7.22057E-14 2.45104E-13
 -1       391 1.98238E+01-3.91882E-03-8.99815E-05-1.89125E-01 6.55483E-14 2.30627E-13
 -1       392 1.99276E+01-4.85849E-03-1.53045E-04-1.84175E-01 1.25367E-13 2.49759E-13
 -1       393 2.00307E+01-7.39565E-03-2.44780E-04-1.76024E-01 5.79454E-14 2.26088E-13
 -1       394 2.01294E+01-1.29635E-02-3.88721E-04-1.61541E-01-5.13789E-14 2.85291E-13
 -1       395 2.02188E+01-2.29445E-02-6.00942E-04-1.35570E-01 8.46979E-16 2.00836E-13
 -1       396 2.02908E+01-3.83685E-02-8.83306E-04-9.12426E-02 1.17452E-13 1.02737E-13
 -1       397 2.03342E+01-5.93334E-02-1.21445E-03-2.09016E-02 1.73117E-13 7.57948E-14
 -1       398 2.03342E+01-8.41416E-02-1.54110E-03 8.19849E-02 3.33510E-14 1.06926E-13
 -1       399 2.02737E+01-1.08323E-01-1.77547E-03 2.19644E-01-1.22104E-13 1.41272E-13
 -1       400 2.01359E+01-1.24026E-01-1.80382E-03 3.85695E-01-9.41367E-14 6.00577E-14
 -1       401 1.99094E+01-1.20659E-01-1.51970E-03 5.60787E-01 5.59258E-14 8.83399E-14
 -1       402 1.95953E+01-8.78549E-02-8.65918E-04 7.10617E-01 2.32448E-13 1.20293E-13
 -1       403 1.92154E+01-2.10138E-02 1.18262E-04 7.89830E-01 9.59627E-16 1.41025E-13
 -1       404 1.88164E+01 7.24248E-02 1.27662E-03 7.54472E-01-5.48340E-14 4.61900E-14
 -1       405 1.84662E+01 1.70383E-01 2.38226E-03 5.81301E-01-1.55654E-13 1.87971E-13
 -1       406 1.82382E+01 2.41782E-01 3.20147E-03 2.85551E-01-1.28289E-13 2.01613E-13
 -1       407 1.81864E+01 2.60416E-01 3.53758E-03-7.53442E-02 7.28361E-14 2.53196E-13
 -1       408 1.83241E+01 2.19092E-01 3.28525E-03-4.19236E-01 8.96535E-14 3.11518E-13
 -1       409 1.86180E+01 1.33736E-01 2.47259E-03-6.70624E-01 8.93113E-14 2.63930E-13
 -1       410 1.90023E+01 3.44288E-02 1.28716E-03-7.88283E-01 4.84602E-14 3.55267E-13
 -1       411 1.94037E+01-4.99559E-02 1.25352E-05-7.74209E-01-3.97255E-14 8.43928E-14
 -1       412 1.97626E+01-1.02905E-01-1.03467E-03-6.62794E-01 5.49605E-14-2.77526E-14
 -1       413 2.00445E+01-1.22356E-01-1.67488E-03-5.00908E-01-1.08653E-13-7.77121E-14
 -1       414 2.02385E+01-1.15990E-01-1.88823E-03-3.30647E-01 4.63789E-15 1.79083E-13
 -1       415 2.03508E+01-9.48045E-02-1.76023E-03-1.80474E-01 3.05707E-13 1.75628E-13
 -1       416 2.03970E+01-6.85177E-02-1.43289E-03-6.41781E-02 2.09636E-13 4.20830E-13
 -1       417 2.03954E+01-4.36274E-02-1.03458E-03 1.57750E-02-1.04113E-13 3.43683E-13
 -1       418 2.03631E+01-2.34095E-02-6.56025E-04 6.36934E-02-1.66089E-14 2.03210E-13
 -1       419 2.03141E+01-8.77934E-03-3.45714E-04 8.67893E-02-1.35760E-13 1.19059E-13
 -1       420 2.02589E+01 7.21810E-04-1.18750E-04 9.26022E-02-4.28983E-14 2.93849E-13
 -1       421 2.02043E+01 6.15657E-03 3.04514E-05 8.76296E-02-3.62407E-14 2.25680E-13
 -1       422 2.01546E+01 8.70894E-03 1.17297E-04 7.68158E-02-4.35622E-14 2.61369E-13
 -1       423 2.01119E+01 9.43883E-03 1.59322E-04 6.35440E-02 1.26461E-13 3.67538E-13
 -1       424 2.00768E+01 9.19367E-03 1.71550E-04 4.98679E-02 6.33655E-14 4.76694E-13
 -1       425 2.00493E+01 8.58469E-03 1.64253E-04 3.68196E-02 9.53378E-14 5.15645E-13
 -1       426 2.00287E+01 7.96453E-03 1.36439E-04 2.47875E-02-4.61970E-15 5.15223E-13
 -1       427 2.00142E+01 7.29480E-03 1.05673E-04 1.39388E-02-2.75124E-13 4.54915E-13
 -1       428 2.00076E+01 6.89985E-03 6.69364E-05 8.37853E-03-9.86020E-14 2.46532E-13
 -1       429 2.00033E+01 4.20398E-02 3.61835E-05 3.05431E-02-1.57073E-13-4.09981E-13
 -1       430 2.00076E+01 2.67565E-02 7.87978E-05 2.50386E-02-6.92442E-14-2.74248E-13
 -1       431 2.00087E+01 1.56961E-02 9.44663E-05 1.68661E-02-1.01931E-13 1.52215E-13
 -1       432 1.99986E+01 5.76499E-02-1.06120E-05 3.14320E-02-1.18421E-13-3.17546E-13
 -1       433 1.99941E+01 7.24114E-02-5.27040E-05 2.74659E-02-2.06719E-14 2.32856E-13
 -1       434 1.99904E+01 8.42225E-02-8.60403E-05 1.90818E-02 1.70709E-13 2.36181E-13
 -1       435 1.99881E+01 9.14662E-02-1.05960E-04 7.41888E-03-1.36273E-13-1.21442E-13
 -1       436 1.99876E+01 9.29789E-02-1.07927E-04-5.82480E-03-2.14073E-13-3.28168E-14
 -1       437 1.99893E+01 8.83036E-02-8.96895E-05-1.85349E-02-3.44357E-14 1.45154E-13
 -1       438 1.99930E+01 7.80885E-02-5.38969E-05-2.83070E-02 6.54112E-14-3.87478E-13
 -1       439 1.99984E+01 6.32876E-02-6.91001E-06-3.34785E-02 2.06405E-13 1.81156E-13
 -1       440 2.00045E+01 4.60896E-02 5.75240E-05-3.26042E-02 1.91198E-13 1.84159E-13
 -1       441 2.00094E+01 2.89891E-02 3.02252E-05-2.59499E-02-1.34617E-13-3.20337E-13
 -1       442 2.10695E+01-4.73353E+00 2.19510E-02 7.42143E+00 3.87204E-13 3.82319E-13
 -1       443 6.93595E-01-4.71533E+00-7.11166E-02 1.47896E+00 2.37203E-13-1.48270E-13
 -1       444 1.97954E+01 3.43506E+00-1.87136E-02-1.71494E+00-1.28133E-13-3.53452E-13
 -1       445 2.80927E+01-2.68449E+00-1.14919E-02 4.94763E+00 3.53412E-13 9.29951E-14
 -1       446 3.37263E+01 2.10845E+00-5.05071E-03 1.20771E+00 3.32519E-13-2.03670E-13
 -1       447 3.70006E+01 6.40254E+00 7.40871E-02 5.98765E-01 5.27231E-13-2.19352E-13
 -1       448 3.73656E+01 8.64389E+00 3.39075E-02-8.19431E-02 4.23911E-13-1.28751E-13
 -1       449 3.70319E+01 7.65269E+00 3.05557E-02-3.70064E-02 5.99257E-13 2.60902E-14
 -1       450 3.56477E+01 4.28040E+00 5.47709E-02-1.28375E+00 4.88505E-13-2.05669E-14
 -1       451 3.17387E+01-9.52276E-03 2.41585E-02-3.39882E+00 4.79734E-13 1.03612E-13
 -1       452 2.54345E+01-3.51257E+00 6.50592E-03-6.15780E+00 2.51507E-13-2.32314E-14
 -1       453 1.70705E+01-5.14003E+00-2.34722E-02-7.94296E+00 2.17298E-13-3.27956E-13
 -1       454 8.56231E+00-5.26928E+00-3.19804E-02-7.58595E+00 3.93435E-14-6.87825E-13
 -1       455 2.52746E+00-5.06354E+00-7.00178E-02-4.75968E+00 2.53547E-14-1.00148E-12
 -1       456 9.91477E-01-4.24758E+00-1.66059E-02-2.80560E-01 1.34903E-13-8.79130E-13
 -1       457 4.86380E+00-4.22490E+00 5.41615E-02 4.13491E+00 1.15116E-13-5.96523E-13
 -1       458 1.25115E+01-6.46331E+00-8.72468E-02 6.25112E+00-7.89369E-14 4.26048E-15
 -1       459 2.18927E+01-6.77231E+00-1.19206E-01 5.50862E+00-1.69892E-13 2.44221E-13
 -1       460 3.28532E+01-4.72552E+00-1.39243E-02 1.12183E+00-2.06613E-13 1.73223E-13
 -1       461 3.73229E+01-1.07650E+00 2.25147E-03-2.51891E+00-4.23078E-13 1.13881E-13
 -1       462 4.00098E+01 3.98543E+00 1.67757E-01-2.85245E+00-6.71574E-13 2.37754E-13
 -1       463 3.82543E+01-8.83434E-01 2.01861E-02 1.54837E+00-1.43968E-13 5.57804E-13
 -1       464 3.15748E+01-5.14497E+00-5.23881E-02-2.05456E+00-1.47521E-14 6.52034E-13
 -1       465 2.05442E+01-6.89990E+00-1.33427E-01-5.70914E+00 5.34767E-13 1.01961E-12
 -1       466 1.16206E+01-5.96949E+00-9.23854E-03-6.30641E+00 4.52735E-13 1.20980E-12
 -1       467 2.83970E+00-4.53428E+00-2.85360E-02-2.94402E+00 1.60004E-13 2.69784E-14
 -1       468 3.92792E+00-5.11688E+00-6.48259E-02 5.74943E+00 2.29275E-13-2.98372E-14
 -1       469 3.39029E+01-3.14502E+00-8.98185E-02-2.91138E+00-9.24174E-14 1.70197E-13
 -1       470 3.32210E+01 8.60143E+00-1.26518E-01 3.13533E-01 3.25892E-13-2.65576E-13
 -1       471 1.97392E+01 3.11555E+00-5.39626E-03-6.28651E-01 4.17205E-14-2.78828E-13
 -1       472 1.98354E+01 2.93959E+00-5.99977E-03-9.43556E-01-2.26046E-14-3.11842E-13
 -1       473 1.96703E+01 3.24077E+00-5.01710E-03 8.99680E-03 1.52075E-13-2.63945E-13
 -1       474 1.96885E+01 3.20726E+00-5.09471E-03 3.27749E-01 1.94679E-13-2.35121E-13
 -1       475 1.97422E+01 3.10891E+00-5.41055E-03 6.40681E-01 2.36851E-13-1.99915E-13
 -1       476 1.98405E+01 2.92867E+00-5.99210E-03 9.54281E-01 2.80913E-13-1.21667E-13
 -1       477 1.99957E+01 2.63988E+00-6.74981E-03 1.24870E+00 3.06061E-13-4.21709E-14
 -1       478 2.02196E+01 2.19679E+00-6.74067E-03 1.48054E+00 3.30122E-13 6.96314E-14
 -1       479 2.04800E+01 1.53640E+00-3.58519E-03 1.52739E+00 2.97079E-13 2.07800E-13
 -1       480 2.05300E+01 9.87248E-01 4.13316E-03 1.28782E+00 2.61023E-13 3.48055E-13
 -1       481 2.03526E+01 1.00512E+00 2.60939E-03-9.61112E-01-1.87135E-13-1.96708E-13
 -1       482 2.00207E+01 3.74900E-02 6.98032E-05-4.50085E-02-1.15591E-13-4.66819E-13
 -1       483 2.54971E+01-4.93690E+00-3.98738E-03 5.08994E+00-1.14422E-14-2.39031E-13
 -1       484 9.81692E+00-3.07407E+00 1.38920E-01 7.28449E+00 3.30985E-15 2.05266E-13
 -1       485 2.01856E+01 5.65659E-01 1.98550E-03-4.74629E-01-1.55909E-13-1.53813E-13
 -1       486 2.00469E+01 3.32055E-01 1.12486E-03-1.72903E-01-9.26728E-14-1.49225E-13
 -1       487 1.99483E+01 1.87158E-01 5.36147E-04 2.72741E-02-5.67758E-14-1.22337E-13
 -1       488 1.98951E+01 1.02954E-01 2.34735E-04 1.48830E-01 3.51016E-16-8.64299E-14
 -1       489 1.98777E+01 5.64114E-02 1.07279E-04 2.21947E-01-1.49506E-14-1.20069E-13
 -1       490 1.98864E+01 3.54775E-02 6.64503E-05 2.67788E-01-4.50195E-14-1.87353E-13
 -1       491 1.99139E+01 3.38561E-02 7.32629E-05 3.01901E-01-6.93289E-14-1.26843E-13
 -1       492 1.99528E+01 4.74986E-02 1.14538E-04 3.34532E-01-1.79354E-14-5.07092E-14
 -1       493 2.00035E+01 7.75368E-02 2.14592E-04 3.79294E-01 6.95577E-15-2.57668E-15
 -1       494 2.00609E+01 1.25765E-01 3.57682E-04 4.44979E-01-8.54335E-14 1.76121E-14
 -1       495 2.01212E+01 1.96500E-01 5.73822E-04 5.42620E-01-3.67634E-14-1.54274E-14
 -1       496 2.01782E+01 2.96551E-01 8.84450E-04 6.85014E-01 1.00645E-13 8.76599E-14
 -1       497 2.02205E+01 4.34808E-01 1.34960E-03 8.87267E-01 3.93740E-14 1.19653E-14
 -1       498 2.02307E+01 6.09181E-01 1.75987E-03 1.15078E+00 5.89701E-14 9.48771E-15
 -1       499 2.01833E+01 8.39094E-01 2.36734E-03 1.52026E+00 4.47721E-16-7.94696E-15
 -1       500 2.00369E+01 1.09798E+00 2.81679E-03 2.00137E+00 8.55392E-14-8.10936E-14
 -1       501 1.97578E+01 1.31055E+00 3.60214E-03 2.60543E+00 1.26842E-13-1.04087E-13
 -1       502 1.93591E+01 1.28680E+00 8.29315E-03 3.33483E+00 1.03848E-13-6.55149E-14
 -1       503 1.89900E+01 6.17121E-01 2.27133E-02 4.20313E+00 6.51345E-14 3.47361E-14
 -1       504 1.91894E+01-1.03484E+00 8.80709E-02 4.95579E+00 1.32139E-13 1.28527E-13
 -1       505 2.30375E+01-4.36044E+00 6.51722E-02 4.67629E+00 1.01009E-13 1.95715E-13
 -1       506 2.01661E+01 5.07629E-01 6.73507E-03 6.37725E-01 2.07667E-13 3.14261E-13
 -1       507 4.24832E+00-1.12563E+00 1.79106E-01-7.78728E-01-7.64389E-14-2.06293E-13
 -1       508 2.45339E+01-5.52187E+00 7.76529E-02-4.29658E+00 4.68084E-13 7.74122E-13
 -1       509 2.14542E+01-2.08386E+00 7.60867E-02-4.82125E+00-1.40374E-13 4.86024E-13
 -1       510 2.04277E+01 1.29789E-01 2.59506E-02-4.30316E+00 1.65000E-13-3.29103E-14
 -1       511 2.03053E+01 1.02004E+00 8.53225E-03-3.54783E+00 6.29411E-14-7.96689E-14
 -1       512 2.04209E+01 1.16708E+00 3.83086E-03-2.78781E+00 9.27367E-14-1.65343E-13
 -1       513 2.05166E+01 1.01941E+00 3.63624E-03-2.12521E+00 8.45796E-14-1.08298E-13
 -1       514 2.05396E+01 8.07569E-01 3.30759E-03-1.60757E+00-1.74177E-13 1.09751E-13
 -1       515 2.05054E+01 5.97496E-01 2.65906E-03-1.18017E+00-5.27235E-14 2.52884E-13
 -1       516 2.04394E+01 4.29008E-01 1.98375E-03-8.57699E-01 1.09344E-13 1.04519E-13
 -1       517 2.03621E+01 3.03447E-01 1.40131E-03-6.19119E-01 1.26854E-13 1.63804E-13
 -1       518 2.02869E+01 2.13307E-01 9.65416E-04-4.44838E-01-2.09107E-13 1.50730E-13
 -1       519 2.02203E+01 1.49817E-01 6.74914E-04-3.18456E-01-1.32747E-13 2.61001E-13
 -1       520 2.01669E+01 1.07468E-01 4.58025E-04-2.30790E-01-1.38434E-13-1.40294E-13
 -1       521 2.01211E+01 7.62341E-02 3.20741E-04-1.63330E-01-1.90623E-13-4.83319E-13
 -1       522 2.00853E+01 5.47870E-02 2.38807E-04-1.14296E-01 2.63089E-14-4.73270E-13
 -1       523 2.00578E+01 4.04655E-02 2.22491E-04-7.84791E-02 1.52407E-13-3.80355E-13
 -1       524 2.00362E+01 3.90927E-02 1.08686E-04-6.04683E-02 2.22775E-13-4.99916E-13
 -1       525 1.99310E+01 2.52857E-01 1.77584E-03 1.44327E-01 1.43038E-13 1.71014E-13
 -1       526 2.00143E+01 3.54956E-01 3.84076E-03 3.50494E-01 1.54775E-13 2.24192E-13
 -1       527 1.97748E+01 7.19848E-02 3.85633E-04-1.49548E-01 7.43501E-14 3.67434E-14
 -1       528 1.97683E+01 3.35434E-02 1.46556E-04-2.09554E-01 4.98086E-14 3.12778E-14
 -1       529 1.97904E+01 1.21386E-02 3.30026E-05-2.40735E-01 3.54884E-14 6.27618E-14
 -1       530 1.98316E+01 1.12286E-03-2.66994E-05-2.55311E-01 5.67273E-14 9.10634E-14
 -1       531 1.98853E+01-4.21822E-03-6.01590E-05-2.60712E-01 8.30655E-14 1.10189E-13
 -1       532 1.99477E+01-7.72766E-03-8.70652E-05-2.60767E-01 1.03287E-13 1.06801E-13
 -1       533 2.00162E+01-1.29771E-02-1.25113E-04-2.56213E-01 7.45906E-14 1.73364E-13
 -1       534 2.00891E+01-2.35344E-02-1.90765E-04-2.44859E-01 1.24978E-14 1.17001E-13
 -1       535 2.01648E+01-4.29270E-02-2.98235E-04-2.21640E-01 9.03768E-15 7.93062E-14
 -1       536 2.02409E+01-7.42042E-02-4.55938E-04-1.78798E-01 1.27722E-13 7.85068E-14
 -1       537 2.03136E+01-1.18927E-01-6.61168E-04-1.06539E-01 1.07080E-13 6.22638E-14
 -1       538 2.03762E+01-1.75462E-01-8.92840E-04 5.34804E-03 9.79865E-14 1.65608E-13
 -1       539 2.04187E+01-2.36728E-01-1.10396E-03 1.64378E-01-4.56990E-14 1.33667E-13
 -1       540 2.04268E+01-2.88076E-01-1.22050E-03 3.70425E-01-2.45198E-14 4.25425E-14
 -1       541 2.03828E+01-3.06834E-01-1.14355E-03 6.09289E-01 2.32612E-14-5.12342E-14
 -1       542 2.02697E+01-2.66052E-01-7.98944E-04 8.46609E-01 3.02909E-14-8.12736E-14
 -1       543 2.00792E+01-1.44717E-01-1.65999E-04 1.02636E+00 3.22400E-14 1.40456E-13
 -1       544 1.98234E+01 5.64885E-02 6.66250E-04 1.07997E+00-2.06140E-14 2.46429E-13
 -1       545 1.95438E+01 3.01653E-01 1.48102E-03 9.49751E-01-1.25273E-13 2.63700E-13
 -1       546 1.93082E+01 5.21122E-01 2.08577E-03 6.21126E-01-9.59221E-14 1.96954E-13
 -1       547 1.91877E+01 6.37052E-01 2.36254E-03 1.45914E-01-4.10642E-14 1.87120E-14
 -1       548 1.92230E+01 6.04092E-01 2.29011E-03-3.65908E-01 1.17363E-14 2.91040E-14
 -1       549 1.94024E+01 4.35523E-01 1.87093E-03-7.89054E-01 6.53661E-14 4.68136E-14
 -1       550 1.96681E+01 1.95682E-01 1.18883E-03-1.03525E+00 7.18529E-14 8.20000E-14
 -1       551 1.99466E+01-3.64621E-02 2.95978E-04-1.08282E+00 1.72716E-13 1.50337E-14
 -1       552 2.01804E+01-2.04031E-01-5.02302E-04-9.69212E-01 1.49900E-13-1.14906E-13
 -1       553 2.03414E+01-2.87316E-01-1.03883E-03-7.60790E-01-6.24043E-14-1.69324E-14
 -1       554 2.04283E+01-2.97109E-01-1.27874E-03-5.22933E-01-4.69129E-14-1.09997E-13
 -1       555 2.04548E+01-2.58700E-01-1.24204E-03-3.02837E-01 3.02842E-14 3.47430E-14
 -1       556 2.04393E+01-1.98048E-01-1.04154E-03-1.25763E-01-1.57175E-14 3.71264E-13
 -1       557 2.03988E+01-1.34532E-01-7.72420E-04 8.06117E-04 1.27485E-13 5.72397E-13
 -1       558 2.03460E+01-7.93757E-02-5.05876E-04 8.06067E-02 9.65958E-14 4.94378E-13
 -1       559 2.02896E+01-3.71252E-02-2.81991E-04 1.22727E-01 1.19654E-13 2.41898E-13
 -1       560 2.02353E+01-8.01550E-03-1.14928E-04 1.37569E-01-2.58720E-13 1.06495E-13
 -1       561 2.01859E+01 9.93661E-03-2.83569E-06 1.34578E-01 4.50034E-14 3.17879E-13
 -1       562 2.01429E+01 1.94875E-02 6.40805E-05 1.21262E-01-1.46127E-13 2.89065E-13
 -1       563 2.01067E+01 2.33400E-02 9.79148E-05 1.03014E-01-1.46924E-13 4.41142E-13
 -1       564 2.00771E+01 2.37650E-02 1.09375E-04 8.33429E-02-6.26217E-14 5.73393E-13
 -1       565 2.00533E+01 2.24876E-02 1.14271E-04 6.42797E-02 3.01765E-14 5.29093E-13
 -1       566 2.00348E+01 2.06891E-02 1.28834E-04 4.68159E-02 2.07479E-13 6.77618E-13
 -1       567 2.00203E+01 1.87318E-02 1.15807E-04 3.12039E-02-1.76365E-13 5.84788E-13
 -1       568 1.99920E+01 7.24398E-02-2.48932E-05 4.35822E-02 3.43761E-14 4.44057E-13
 -1       569 1.99832E+01 8.73948E-02-3.21257E-05 3.47673E-02 1.62397E-13 3.41893E-13
 -1       570 2.00111E+01 3.85320E-02 1.32925E-05 4.25447E-02 4.56593E-14-4.26358E-13
 -1       571 2.00017E+01 5.56866E-02-4.61848E-06 4.61887E-02-3.01454E-15-4.37276E-13
 -1       572 1.99767E+01 9.86854E-02-4.37101E-05 2.06205E-02-2.81466E-14-8.58125E-15
 -1       573 1.99735E+01 1.04822E-01-4.90567E-05 2.88385E-03-3.98282E-14-8.86531E-14
 -1       574 1.99745E+01 1.04686E-01-4.54454E-05-1.59757E-02-1.11855E-13 1.27931E-13
 -1       575 1.99799E+01 9.80125E-02-3.52024E-05-3.27303E-02-6.58243E-14-2.11632E-13
 -1       576 1.99894E+01 8.50137E-02-1.60937E-05-4.49954E-02 1.09356E-13-2.85524E-13
 -1       577 2.00015E+01 6.72297E-02 1.82655E-06-5.01795E-02 1.03624E-13 3.72829E-15
 -1       578 3.12653E+01 4.02355E+00-1.49886E-01-1.42669E+00 4.00499E-13-4.06959E-13
 -1       579 2.03899E+01 1.78538E+00-5.32420E-03-1.53524E+00-2.12916E-13-2.40820E-13
 -1       580 1.21850E+01-3.49457E+00 1.42659E-01 5.98283E+00 1.86698E-13 1.42664E-14
 -1       581 1.98226E+01 1.37940E-01 8.12526E-04-4.15374E-02 4.93429E-14 1.21718E-13
 -1       582 1.93241E+01-4.99415E+00 1.01852E-01 7.43233E+00-3.66693E-13-2.44822E-14
 -1       583 1.96866E+01 3.21144E+00-5.10466E-03-3.09895E-01 1.12044E-13-2.66562E-13
 -1       584 3.00880E+01-1.80746E+00-6.29774E-02 1.15083E+00 2.35749E-13-2.88311E-13
 -1       585 3.14690E+01 5.04247E+00-1.72419E-01 1.48037E+00 3.57853E-13 1.11827E-13
 -1       586 3.11318E+01 6.97412E+00-2.01186E-01-1.24429E+00 4.16500E-13-1.45908E-13
 -1       587 3.14666E+01 8.37552E-01-1.01591E-01 2.12131E-01 2.74950E-13 3.65388E-13
 -1       588 2.87800E+01-3.37050E+00-4.24896E-02-2.82820E+00 1.12653E-13 3.16955E-13
 -1       589 2.29989E+01-5.33381E+00 2.73844E-02-6.34953E+00-1.74707E-13 1.53676E-13
 -1       590 1.58851E+01-4.76526E+00 1.03532E-01-8.04048E+00-1.84769E-13-1.14183E-13
 -1       591 8.73779E+00-2.00668E+00 1.77072E-01-6.37948E+00-2.85667E-13-5.44467E-13
 -1       592 5.40155E+00-4.66320E-01 2.20464E-01-2.92532E+00 6.37962E-14-8.29115E-13
 -1       593 5.64001E+00-6.53434E-01 1.85218E-01 1.89133E+00 2.83294E-13-6.98039E-13
 -1       594 2.01289E+01-5.51115E+00 6.20800E-02 5.82199E+00 8.04357E-14 3.51420E-13
 -1       595 2.87294E+01-5.89395E+00-2.39400E-02 2.27757E+00-4.15570E-14 2.12677E-13
 -1       596 1.94894E+01-5.21497E+00 8.26517E-02-5.87465E+00 3.56978E-13 9.48665E-13
 -1       597 9.93225E+00-2.34964E+00 1.86739E-01-5.24295E+00-1.38396E-13 8.80046E-13
 -1       598 5.20654E+00-1.25437E+00 1.86544E-01 3.99090E+00-5.97127E-14-1.35655E-13
 -1       599 1.99845E+01 2.65896E+00-6.75400E-03-1.23641E+00-1.04434E-13-3.30406E-13
 -1       600 2.94407E+01 4.40935E-01-1.13094E-01-1.28905E+00 3.35808E-13-3.48045E-13
 -1       601 2.94709E+01 6.70712E+00-1.77803E-01 1.39969E+00 3.16219E-13-1.33598E-13
 -1       602 2.90957E+01 7.59424E+00-1.90612E-01-5.14262E-01 4.70346E-13-4.65452E-14
 -1       603 2.01642E+01 2.29867E+00-6.27282E-03-1.43449E+00-1.49876E-13-2.95332E-13
 -1       604 1.61768E+01-2.73233E+00 1.37713E-01-5.81186E+00-1.08268E-13 9.16926E-13
 -1       605 1.04751E+01-7.30042E-01 1.59322E-01 4.26917E+00 3.72341E-13-4.19623E-13
 -1       606 1.99624E+01 2.46832E+00-1.60113E-03 3.88566E-01 1.91035E-13-1.76690E-13
 -1       607 1.99305E+01 2.54464E+00-1.52874E-03 1.33970E-01 1.63003E-13-2.25056E-13
 -1       608 2.01241E+01 2.05835E+00-1.71940E-03 8.39787E-01 2.54363E-13-5.70419E-14
 -1       609 2.02446E+01 1.69126E+00-1.03642E-03 9.86803E-01 2.73454E-13 2.97426E-14
 -1       610 2.03350E+01 1.20231E+00 2.45768E-04 1.00004E+00 2.45780E-13 8.32041E-14
 -1       611 2.03099E+01 8.36392E-01 5.79418E-03 8.47910E-01 2.25139E-13 1.77657E-13
 -1       612 2.02986E+01 1.15329E+00-3.20705E-04-7.72251E-01-1.22430E-13-1.93842E-13
 -1       613 2.02553E+01 7.21228E-01 2.42414E-04-4.07076E-01-9.85845E-14-1.38957E-13
 -1       614 2.01857E+01 4.34454E-01 2.28934E-04-1.34365E-01-5.76122E-14-1.23536E-13
 -1       615 2.01228E+01 2.55762E-01 9.62637E-05 4.72004E-02-2.70057E-14-1.48904E-13
 -1       616 2.00758E+01 1.48324E-01 3.86856E-05 1.64371E-01-2.36910E-14-1.72398E-13
 -1       617 2.00448E+01 8.97011E-02 1.91406E-05 2.39689E-01-3.38478E-14-1.60889E-13
 -1       618 2.00267E+01 6.67815E-02 1.91593E-05 2.91102E-01-1.72981E-14-1.19739E-13
 -1       619 2.00176E+01 7.12958E-02 1.74547E-05 3.30741E-01 1.09882E-14-8.67543E-14
 -1       620 2.00117E+01 1.00605E-01 4.81040E-05 3.73774E-01 1.63997E-14-3.65137E-14
 -1       621 2.00031E+01 1.55415E-01 7.98056E-05 4.27828E-01-4.81746E-14-1.41093E-13
 -1       622 1.99832E+01 2.38882E-01 1.31027E-04 5.01727E-01-6.38987E-14-3.83335E-14
 -1       623 1.99391E+01 3.57225E-01 2.04247E-04 6.03842E-01 6.44053E-14 1.98465E-14
 -1       624 1.98504E+01 5.19378E-01 3.59185E-04 7.42039E-01 1.33594E-14-7.18521E-14
 -1       625 1.96979E+01 7.22738E-01 3.94067E-04 9.13738E-01 1.86421E-14-9.93275E-14
 -1       626 1.94240E+01 9.94359E-01 5.64560E-04 1.14266E+00-5.48784E-15-2.09836E-13
 -1       627 1.89701E+01 1.31962E+00 6.56541E-04 1.42630E+00-1.38086E-14-1.90395E-13
 -1       628 1.82554E+01 1.65915E+00 1.13018E-03 1.77349E+00 2.65406E-14-2.26330E-13
 -1       629 1.71853E+01 1.90403E+00 4.88992E-03 2.21290E+00 8.18626E-14-2.44690E-13
 -1       630 1.56755E+01 1.80116E+00 2.45952E-02 2.83891E+00 1.41088E-13-2.49102E-13
 -1       631 1.38123E+01 1.12578E+00 9.31594E-02 3.76140E+00 2.60283E-13-3.37862E-13
 -1       632 2.00238E+01 2.32057E+00-1.66705E-03-6.20948E-01 9.35184E-15-2.50100E-13
 -1       633 1.01541E+01-5.08813E-01 1.47171E-01 5.30250E+00-1.69018E-13-2.01464E-13
 -1       634 1.57084E+01-4.10311E-02 1.09850E-01-4.75746E+00-5.25639E-13 8.64798E-13
 -1       635 1.65853E+01 1.42984E+00 3.14376E-02-3.54272E+00-1.19649E-13 2.22121E-13
 -1       636 1.77722E+01 1.74174E+00 5.04520E-03-2.69845E+00-1.35438E-13-1.27208E-13
 -1       637 1.86736E+01 1.59702E+00 1.74090E-03-2.10650E+00 1.87472E-13-1.69833E-13
 -1       638 1.92597E+01 1.31653E+00 1.46507E-03-1.65658E+00 6.28097E-14-1.81584E-14
 -1       639 1.96498E+01 1.00995E+00 1.13664E-03-1.27299E+00-1.31738E-13 1.59864E-13
 -1       640 1.98768E+01 7.47712E-01 9.03344E-04-9.67143E-01-6.14493E-14 2.56045E-13
 -1       641 1.99980E+01 5.42728E-01 6.57559E-04-7.26918E-01 1.94803E-14-7.50691E-15
 -1       642 2.00549E+01 3.89900E-01 4.54455E-04-5.41474E-01-1.05867E-13-1.02262E-13
 -1       643 2.00753E+01 2.78923E-01 3.21055E-04-4.00373E-01-3.47111E-13-2.16635E-13
 -1       644 2.00763E+01 2.02888E-01 2.20897E-04-2.98373E-01-2.85210E-13-2.50521E-13
 -1       645 2.00679E+01 1.45505E-01 1.51118E-04-2.17194E-01-2.62912E-13 1.27871E-13
 -1       646 2.00560E+01 1.05148E-01 1.24230E-04-1.56605E-01-3.28470E-13 1.23449E-13
 -1       647 2.00433E+01 7.72438E-02 1.23860E-04-1.11602E-01 9.38969E-14-2.09270E-13
 -1       648 7.14982E+00 7.41265E-01 1.68339E-01 1.26243E+00-2.54857E-13-2.25438E-13
 -1       649 1.99653E+01 2.38965E-02 5.17540E-06-2.68096E-01 3.31057E-14 5.79400E-14
 -1       650 1.99932E+01 1.13184E-01 8.50472E-05-1.64976E-01 8.27301E-14 3.62540E-14
 -1       651 1.99756E+01 6.77661E-03-9.24642E-06-2.88778E-01 6.85734E-14 4.91556E-14
 -1       652 1.99979E+01-2.68086E-03-1.85268E-05-2.99901E-01 9.91923E-14 1.19975E-13
 -1       653 2.00308E+01-1.09998E-02-2.85748E-05-3.05034E-01 5.39373E-14 8.71510E-14
 -1       654 2.00745E+01-2.44669E-02-4.53725E-05-3.04364E-01 9.57520E-14 1.29902E-13
 -1       655 2.01301E+01-4.93711E-02-7.49460E-05-2.94752E-01 2.52838E-14 9.14914E-14
 -1       656 2.01999E+01-9.17177E-02-1.22867E-04-2.69700E-01 6.26978E-14 9.78512E-14
 -1       657 2.02861E+01-1.56183E-01-1.91645E-04-2.19463E-01 1.27334E-13 1.41318E-13
 -1       658 2.03897E+01-2.43956E-01-2.79147E-04-1.31714E-01 4.67598E-15 1.49612E-13
 -1       659 2.05087E+01-3.49333E-01-3.74991E-04 6.55018E-03 6.27563E-15 1.73356E-13
 -1       660 2.06344E+01-4.55554E-01-4.52409E-04 2.05054E-01 2.97422E-14 1.25077E-13
 -1       661 2.07488E+01-5.31322E-01-4.74786E-04 4.63550E-01 2.08536E-14 1.14743E-13
 -1       662 2.08232E+01-5.31337E-01-3.64514E-04 7.62240E-01 1.63637E-15 1.53804E-13
 -1       663 2.08225E+01-4.06282E-01-1.25587E-04 1.05186E+00-3.43514E-14 1.80704E-13
 -1       664 2.07204E+01-1.26532E-01 2.31053E-04 1.25062E+00-3.69060E-14 3.32469E-13
 -1       665 2.05222E+01 2.85179E-01 6.21769E-04 1.26055E+00-7.74967E-14 4.36258E-13
 -1       666 2.02821E+01 7.32620E-01 8.04694E-04 1.00885E+00-4.22732E-15 2.20275E-13
 -1       667 2.00947E+01 1.06475E+00 7.15021E-04 5.02319E-01 1.27167E-14 1.23501E-13
 -1       668 2.00476E+01 1.14757E+00 5.48294E-04-1.44730E-01 3.56196E-14 7.40407E-14
 -1       669 2.01641E+01 9.46407E-01 6.29706E-04-7.51791E-01 9.92636E-14-3.86252E-14
 -1       670 2.03884E+01 5.46111E-01 8.13333E-04-1.15679E+00-1.30283E-14 2.38343E-14
 -1       671 2.06216E+01 9.93903E-02 5.21801E-04-1.29187E+00 4.66725E-14 6.98133E-14
 -1       672 2.07831E+01-2.60251E-01 1.74663E-04-1.19149E+00 2.33577E-13 1.95969E-13
 -1       673 2.08413E+01-4.69213E-01-1.33894E-04-9.46049E-01 8.96506E-14 1.74056E-13
 -1       674 2.08079E+01-5.31402E-01-3.93173E-04-6.50398E-01-1.22514E-14-1.01199E-13
 -1       675 2.07156E+01-4.88782E-01-4.48786E-04-3.72855E-01-1.19588E-13-2.04175E-14
 -1       676 2.05978E+01-3.90895E-01-4.12137E-04-1.49090E-01-5.97257E-14 2.74640E-14
 -1       677 2.04788E+01-2.77505E-01-3.23569E-04 1.06077E-02-6.74652E-14-7.65246E-14
 -1       678 2.03723E+01-1.73414E-01-2.22205E-04 1.11181E-01-7.15044E-14 2.01138E-13
 -1       679 2.02837E+01-9.02126E-02-1.33196E-04 1.64345E-01 1.62659E-13 5.70716E-13
 -1       680 2.02132E+01-3.04886E-02-6.49218E-05 1.83241E-01-1.49363E-14 7.06675E-13
 -1       681 2.01586E+01 8.15778E-03-1.77214E-05 1.79664E-01-2.57981E-14 4.79729E-13
 -1       682 2.01171E+01 3.02099E-02 1.18107E-05 1.62963E-01 1.49817E-13 4.38709E-13
 -1       683 2.00857E+01 4.04689E-02 2.79227E-05 1.39892E-01-9.01677E-14 2.38875E-13
 -1       684 2.00621E+01 4.31623E-02 3.47388E-05 1.14923E-01-1.49658E-13-1.55074E-13
 -1       685 2.00441E+01 4.16174E-02 3.97529E-05 9.07594E-02-6.30677E-14-1.96245E-13
 -1       686 2.00303E+01 3.82590E-02 5.86170E-05 6.87793E-02 5.70318E-15-1.13473E-13
 -1       687 2.00194E+01 3.86422E-02 4.01103E-05 5.52709E-02-2.45109E-13-1.13914E-13
 -1       688 2.60801E+01-4.66334E+00-9.27918E-04-3.56203E+00-1.23363E-13 3.41251E-13
 -1       689 1.99566E+01 1.19587E-01-1.54998E-05 1.86458E-02-4.74564E-14-1.43602E-13
 -1       690 1.99786E+01 9.12071E-02-7.65151E-06 5.43303E-02 7.32538E-14 5.67997E-13
 -1       691 1.99540E+01 1.25094E-01-1.54434E-05-5.89552E-03-1.17017E-13-1.51935E-14
 -1       692 1.99654E+01 1.07695E-01-1.35801E-05 3.95367E-02 2.17499E-13 1.20905E-13
 -1       693 1.99587E+01 1.22960E-01-1.57882E-05-3.03420E-02-8.79697E-14-6.45764E-14
 -1       694 1.99708E+01 1.12546E-01-3.15734E-05-5.17550E-02 6.67307E-14-2.01265E-13
 -1       695 1.99891E+01 9.45794E-02-5.99187E-05-6.58478E-02-1.02867E-13 3.41648E-14
 -1       696 2.88311E+01 1.88316E+00-1.19873E-01 1.87441E+00 2.29042E-13 3.65367E-14
 -1       697 2.02722E+01 1.65719E+00 5.47119E-04-1.09476E+00-1.53095E-13-2.43254E-13
 -1       698 9.37169E+00 4.77297E-01 1.43485E-01-2.98147E+00-4.41676E-13 3.29917E-13
 -1       699 2.00270E+01 2.31077E+00-1.69760E-03 6.29420E-01 2.26344E-13-1.31425E-13
 -1       700 2.36841E+01-4.86118E+00 2.53745E-02 4.98941E+00-4.10106E-13-2.38516E-13
 -1       701 1.56122E+01-2.63305E+00 1.11181E-01 6.74251E+00-4.69774E-13-1.62179E-13
 -1       702 2.00143E+01 6.80111E-02 3.07513E-05-7.07770E-02 1.68992E-13-1.84242E-13
 -1       703 2.86081E+01-1.98101E+00-6.30797E-02 9.23651E-02 1.30989E-14 1.70718E-13
 -1       704 2.80647E+01 4.54384E+00-1.50243E-01-1.98693E+00 3.64479E-13-6.78832E-14
 -1       705 2.05653E+01-4.67964E+00 5.89356E-02-6.49725E+00-1.51008E-13 1.69941E-13
 -1       706 1.40336E+01-2.42434E+00 1.18148E-01-6.88417E+00-3.74895E-13-3.69912E-13
 -1       707 9.38733E+00 1.55112E-01 1.40729E-01-4.22892E+00-1.62153E-13-4.31814E-13
 -1       708 1.62855E+01-2.72394E+00 1.20385E-01 5.80221E+00 1.79919E-13 1.89522E-13
 -1       709 1.99697E+01 5.61298E-02 2.88765E-05-2.30639E-01 6.82389E-14 6.54123E-14
 -1       710 8.19969E+00 1.29563E+00 1.67938E-01-9.47289E-02 1.89356E-13-6.29372E-13
 -1       711 2.75263E+01-3.65257E+00-3.15426E-02 1.79875E+00-1.65355E-13-2.39433E-13
 -1       712 1.99299E+01 2.54640E+00-1.53187E-03-1.24174E-01 1.19455E-13-2.29940E-13
 -1       713 2.00400E+01 2.08841E-01 2.26189E-04-5.41113E-02 9.13948E-14 1.35024E-14
 -1       714 2.01233E+01 2.06992E+00-7.11889E-04-8.32686E-01-4.57493E-14-2.53467E-13
 -1       715 2.75851E+01 3.89549E+00-1.18086E-01 2.12008E+00 2.18593E-13-2.01426E-13
 -1       716 2.00261E+01 7.25009E-02 2.19525E-05-8.98304E-02 1.30502E-13-3.19613E-13
 -1       717 2.02049E+01 6.12875E-01 1.82698E-03 4.14114E-01 1.89980E-13 6.58706E-14
 -1       718 2.00052E+01 5.78424E-02-4.98030E-06 6.05830E-02 1.18240E-13-5.35723E-13
 -1       719 2.77223E+01-1.82694E+00-5.46881E-02-4.72517E-01-4.15154E-14-3.55660E-13
 -1       720 2.00972E+01 3.59897E-01 5.94689E-04 1.32743E-01 1.22234E-13 5.07837E-14
 -1       721 1.98516E+01-3.55770E+00 5.15575E-02 5.75112E+00-4.10810E-13 2.32279E-14
 -1       722 1.25567E+01 1.68529E-01 1.20093E-01-4.05497E+00-5.90070E-13 8.45622E-13
 -1       723 2.66365E+01 5.60296E+00-1.25379E-01-1.42879E+00 4.11983E-13-2.32254E-13
 -1       724 1.99609E+01 2.47373E+00-1.59620E-03-3.78246E-01 6.64826E-14-2.17403E-13
 -1       725 1.99920E+01 7.47545E-02-1.13877E-05 6.01779E-02 8.46847E-14 1.30409E-13
 -1       726 2.02769E+01 9.63109E-01 6.68431E-04 6.26805E-01 2.09242E-13 1.77272E-14
 -1       727 2.02777E+01 1.31687E+00 7.45303E-04 6.19462E-01 2.15618E-13 1.55305E-14
 -1       728 1.48232E+01 2.16038E+00 2.28479E-02-1.55045E+00-3.24994E-13 3.15052E-13
 -1       729 2.01349E+01 1.43741E-01 9.92853E-06-1.74537E-01 4.74914E-14-3.36296E-14
 -1       730 2.02829E+01 1.22178E+00-6.33097E-05-5.76072E-01-5.25307E-14-2.23175E-13
 -1       731 2.03001E+01 7.73839E-01-6.27584E-04-2.88226E-01-4.14330E-14-1.88365E-13
 -1       732 2.02707E+01 4.86038E-01 8.20987E-05-7.27634E-02-3.83744E-14-1.20903E-13
 -1       733 2.02301E+01 2.95415E-01-6.00493E-06 7.52369E-02-4.30873E-14-1.05754E-13
 -1       734 2.01858E+01 1.80134E-01-8.39332E-06 1.74647E-01-2.31036E-14-1.28478E-13
 -1       735 2.01421E+01 1.20286E-01-2.79879E-06 2.41507E-01 2.45017E-14-9.87693E-14
 -1       736 2.01009E+01 1.03123E-01-1.09044E-05 2.87506E-01-2.67390E-15-6.96050E-14
 -1       737 2.00551E+01 1.19716E-01 2.91916E-06 3.28064E-01 3.86056E-14-5.72764E-14
 -1       738 2.00008E+01 1.68949E-01 6.26795E-06 3.69012E-01-7.77933E-14-3.46992E-14
 -1       739 1.99286E+01 2.51105E-01 1.17069E-05 4.16763E-01-9.40016E-15 4.47570E-15
 -1       740 1.98247E+01 3.69763E-01 1.53598E-05 4.75462E-01 6.30395E-14 4.34206E-14
 -1       741 1.96678E+01 5.31201E-01 6.39331E-05 5.46330E-01-4.40991E-14-1.82874E-14
 -1       742 1.94419E+01 7.30924E-01-1.67391E-05 6.23421E-01-9.92809E-14-1.50615E-13
 -1       743 1.90819E+01 9.95325E-01-2.32593E-05 7.08164E-01-2.01596E-14-1.54981E-13
 -1       744 1.85330E+01 1.31477E+00-1.55177E-04 7.84054E-01-4.60841E-14-1.91127E-13
 -1       745 1.77069E+01 1.67015E+00-2.10561E-04 8.34572E-01-6.08162E-14-2.04156E-13
 -1       746 1.64774E+01 2.00765E+00 1.70845E-03 8.46620E-01 3.64060E-14-2.08362E-13
 -1       747 1.46562E+01 2.19899E+00 1.39193E-02 8.25364E-01 7.49304E-14-3.19657E-13
 -1       748 1.22831E+01 2.05350E+00 5.69833E-02 8.40054E-01 7.01607E-14-4.18023E-13
 -1       749 1.65561E+01 2.07744E+00 5.26852E-03-1.32772E+00-2.16846E-13 1.21589E-13
 -1       750 1.77411E+01 1.76018E+00 8.78279E-04-1.15062E+00-2.18177E-14-2.22046E-13
 -1       751 1.85844E+01 1.40348E+00 1.51351E-04-9.80641E-01 3.67329E-14-3.88718E-13
 -1       752 1.91353E+01 1.07756E+00 1.17220E-04-8.16737E-01-1.02317E-13-2.63154E-13
 -1       753 1.94876E+01 8.08071E-01 1.11157E-04-6.63366E-01-1.38959E-13-2.41793E-13
 -1       754 1.97076E+01 5.97386E-01 8.18290E-05-5.27313E-01-8.43172E-14-2.64922E-13
 -1       755 1.98417E+01 4.38174E-01 6.22774E-05-4.11829E-01-3.06329E-13-4.38276E-13
 -1       756 1.99181E+01 3.25238E-01 5.75988E-05-3.20843E-01 5.59900E-14-2.43582E-14
 -1       757 1.99648E+01 2.37408E-01 2.86355E-05-2.43279E-01 1.38976E-13 1.40523E-13
 -1       758 1.99902E+01 1.73772E-01 3.18437E-05-1.82100E-01-3.21426E-13 3.94377E-13
 -1       759 2.00026E+01 1.28519E-01 5.00548E-05-1.34742E-01-4.42676E-13 4.00471E-13
 -1       760 2.01016E+01 7.51481E-02 5.39619E-06-2.37188E-01 3.20297E-14-4.58372E-14
 -1       761 2.66521E+01 1.30029E+00-6.29788E-02-2.06874E+00 1.47745E-13-3.72022E-13
 -1       762 2.00786E+01 3.62368E-02-5.57614E-08-2.76164E-01 2.78362E-14-4.10906E-14
 -1       763 2.00760E+01-1.22568E-02-6.26851E-06-3.32526E-01 1.91392E-14 1.61745E-14
 -1       764 2.01040E+01-3.71510E-02-1.06336E-05-3.41493E-01 6.99982E-14 1.95569E-14
 -1       765 2.01538E+01-8.18121E-02-1.99364E-05-3.42357E-01 2.83163E-14 4.38186E-14
 -1       766 2.02326E+01-1.54929E-01-3.79751E-05-3.27714E-01 3.59613E-14 6.41947E-15
 -1       767 2.03486E+01-2.62781E-01-6.47050E-05-2.85954E-01 2.21804E-14 1.86045E-13
 -1       768 2.05090E+01-4.05449E-01-1.02105E-04-2.01330E-01 1.99638E-15 2.05647E-13
 -1       769 2.07156E+01-5.71070E-01-1.46187E-04-5.55882E-02-4.74966E-14 2.01487E-13
 -1       770 2.09593E+01-7.29064E-01-1.72279E-04 1.67644E-01 1.79208E-14 2.68571E-13
 -1       771 2.12127E+01-8.23946E-01-1.75367E-04 4.73662E-01-1.02056E-15 2.49665E-13
 -1       772 2.14261E+01-7.77660E-01-1.92298E-05 8.40595E-01-8.75423E-14 2.79089E-13
 -1       773 2.15337E+01-5.08749E-01 1.18761E-04 1.20044E+00-1.60700E-13 2.21931E-13
 -1       774 2.14845E+01 1.64353E-02 2.28285E-04 1.42986E+00-1.60578E-13 3.12343E-13
 -1       775 2.12858E+01 7.24469E-01 5.37329E-04 1.38124E+00 3.09544E-14 4.23618E-13
 -1       776 2.10329E+01 1.40519E+00 2.40913E-04 9.61886E-01 8.03510E-14 4.42822E-13
 -1       777 2.08776E+01 1.77878E+00-6.60389E-04 2.31955E-01 9.04784E-14 1.91374E-13
 -1       778 2.09225E+01 1.67425E+00-6.69313E-04-5.78469E-01 1.29415E-13 2.02546E-13
 -1       779 2.11410E+01 1.13515E+00 6.99623E-04-1.19443E+00 3.91271E-14 1.91423E-13
 -1       780 2.13884E+01 4.10571E-01 3.31501E-04-1.45106E+00 1.94932E-13 7.97754E-14
 -1       781 2.15288E+01-2.32797E-01 4.26046E-04-1.36441E+00-1.34387E-14-1.73987E-13
 -1       782 2.15062E+01-6.44717E-01 3.69621E-04-1.06437E+00 5.99342E-14 6.91657E-14
 -1       783 2.13443E+01-8.04097E-01-8.68013E-05-6.95348E-01 2.40251E-13 1.86450E-13
 -1       784 2.11069E+01-7.73971E-01-1.42776E-04-3.57106E-01-3.02214E-14 3.28325E-14
 -1       785 2.08534E+01-6.37802E-01-1.61324E-04-9.53371E-02-1.50717E-13-2.33759E-13
 -1       786 2.06238E+01-4.64979E-01-1.37395E-04 8.16363E-02-1.88041E-13-2.45545E-13
 -1       787 2.04366E+01-2.99996E-01-8.94257E-05 1.85315E-01-2.45746E-13 6.64802E-14
 -1       788 2.02952E+01-1.64581E-01-4.89623E-05 2.33700E-01-2.86733E-13 2.62919E-13
 -1       789 2.01942E+01-6.49782E-02-2.23275E-05 2.44315E-01-1.96042E-13 6.00001E-13
 -1       790 2.01254E+01 1.30015E-03-6.08868E-06 2.31556E-01-8.24697E-14 7.63965E-13
 -1       791 2.00803E+01 4.06195E-02 3.37758E-06 2.06104E-01 1.17027E-13 5.54163E-13
 -1       792 2.00516E+01 6.02353E-02 8.02886E-06 1.75289E-01 1.60538E-14 4.06768E-13
 -1       793 2.00338E+01 6.67461E-02 9.29138E-06 1.43764E-01 1.51037E-13 4.16331E-13
 -1       794 2.00227E+01 6.54395E-02 1.42034E-05 1.14195E-01 1.38812E-13 1.77293E-13
 -1       795 2.00156E+01 6.02922E-02 1.16015E-05 8.80317E-02-1.25613E-13-1.43089E-13
 -1       796 2.00093E+01 5.93079E-02-4.81358E-05 7.36868E-02-2.93759E-13-6.30756E-14
 -1       797 1.99299E+01 1.52125E-01-1.02401E-05-1.93989E-02-2.01512E-13 8.25938E-14
 -1       798 1.99298E+01 1.47378E-01-3.93979E-06 1.33297E-02-1.74620E-13-2.08438E-13
 -1       799 2.01927E+01 1.89281E+00-8.99598E-05-9.80924E-01-1.04946E-13-2.65222E-13
 -1       800 2.64294E+01 6.38116E+00-1.20203E-01 5.89300E-01 3.56645E-13-2.49058E-13
 -1       801 1.43169E+01-4.13068E-01 7.67681E-02 4.96011E+00-3.11923E-13-4.31209E-13
 -1       802 1.99906E+01 1.05597E-01-2.31092E-05-8.61006E-02-1.45928E-13 4.79015E-13
 -1       803 2.01374E+01 1.91656E+00-3.31738E-04 1.94100E-01 1.37336E-13-1.93479E-13
 -1       804 2.72281E+01-2.95701E-01-6.99922E-02 1.43496E+00 1.35135E-15 1.33661E-13
 -1       805 1.01708E+01 1.76136E+00 1.04881E-01-8.85451E-01-4.42423E-13 1.85733E-13
 -1       806 1.06671E+01 1.24765E+00 9.16658E-02 2.62616E+00-1.93127E-13-1.74992E-13
 -1       807 1.35538E+01-4.23244E-01 7.27207E-02-5.05984E+00-2.17819E-13-2.60590E-13
 -1       808 1.99416E+01 1.46602E-01-2.64508E-05-5.12893E-02-1.61934E-13 1.07084E-14
 -1       809 2.00645E+01 2.13064E-03-4.25631E-06-3.19083E-01 6.66451E-14-6.20497E-15
 -1       810 1.99636E+01 1.29677E-01 2.65576E-05-7.33691E-02-1.31093E-13-5.83560E-13
 -1       811 1.86143E+01-2.93142E+00 5.13509E-02-5.82326E+00-3.27018E-13 6.41570E-14
 -1       812 1.11049E+01 1.59522E+00 7.79522E-02-1.87677E+00 6.89412E-14-2.83152E-13
 -1       813 2.34045E+01-4.20680E+00 1.70737E-02-4.04638E+00-1.66279E-13 1.72659E-13
 -1       814 2.00660E+01 1.52136E-02-2.69002E-06-3.01331E-01 6.35611E-14-5.51014E-14
 -1       815 2.62125E+01-3.48565E+00-8.55697E-03-1.34237E+00-1.10756E-13 1.94415E-13
 -1       816 2.51729E+01-3.99805E+00-8.60371E-03 2.59540E+00-3.63268E-13-1.66760E-13
 -1       817 2.02254E+01 1.59911E+00 4.35839E-05 5.22153E-01 1.93340E-13-6.85755E-14
 -1       818 2.01784E+01 2.56709E-01 9.90119E-05-7.55529E-02 8.60270E-14-4.20187E-14
 -1       819 2.02280E+01 1.60279E+00 1.45014E-05-5.16549E-01-1.69752E-14-2.06098E-13
 -1       820 2.60507E+01-2.21825E+00 1.13677E-03 3.22536E-01-1.43262E-13 2.63439E-13
 -1       821 2.65428E+01 1.54152E+00-5.08830E-02 2.11610E+00-6.37754E-14-1.14894E-13
 -1       822 1.99941E+01 1.16245E-01-2.41081E-04-1.07830E-01-4.34076E-13 4.61456E-13
 -1       823 2.57064E+01 2.72641E+00-5.86514E-02-2.07906E+00 1.59137E-13-2.44007E-13
 -1       824 1.99571E+01 1.15238E-01-1.10021E-05 6.42466E-02 1.98907E-13 4.65779E-13
 -1       825 2.23984E+01-3.61463E+00 1.98237E-02 3.97934E+00-3.17289E-13-1.85678E-13
 -1       826 1.99397E+01 1.34272E-01-3.87587E-06 4.22364E-02-3.75340E-14-3.60755E-13
 -1       827 2.01690E+01 1.80950E+00-1.22599E-04-3.63897E-01 4.81832E-14-1.90156E-13
 -1       828 1.74397E+01-1.60378E+00 3.39181E-02 5.03211E+00-4.86403E-13-1.76920E-13
 -1       829 2.01710E+01 1.80012E+00-3.49909E-04 3.71619E-01 1.69107E-13-1.24914E-13
 -1       830 2.01253E+01 1.95620E+00-3.07431E-04 3.48838E-03 1.39266E-13-2.23071E-13
 -1       831 1.99760E+01 9.59407E-02 3.26693E-05 7.49512E-02 4.40434E-13 4.34674E-13
 -1       832 2.02229E+01 5.74641E-01 5.78817E-04 2.86439E-01 1.41820E-13 3.29643E-14
 -1       833 2.60367E+01-3.01352E+00-2.17233E-02 6.22908E-01-8.57591E-14-1.49904E-13
 -1       834 1.40283E+01 2.14678E+00 1.87958E-02 4.24715E-01-4.16303E-13 2.55252E-14
 -1       835 2.01412E+01 4.92777E-02 3.18701E-06-2.68822E-01 4.72435E-14-5.14676E-14
 -1       836 2.03375E+01 7.84225E-01 5.09597E-04-1.76360E-01 3.20107E-15-1.52584E-13
 -1       837 2.03267E+01 5.01591E-01-6.35660E-05-1.85302E-02 9.83104E-16-1.19848E-13
 -1       838 2.02941E+01 3.13143E-01-1.30022E-05 9.22709E-02-3.44970E-14-6.87933E-14
 -1       839 2.02457E+01 2.00679E-01 4.71321E-09 1.68259E-01-7.08323E-15-8.10844E-14
 -1       840 2.01900E+01 1.48331E-01-1.26325E-05 2.18108E-01 1.24012E-14-1.39123E-13
 -1       841 2.01221E+01 1.39115E-01-6.20216E-06 2.55828E-01 2.80400E-14-1.57377E-13
 -1       842 2.00416E+01 1.69961E-01-8.00882E-06 2.85187E-01 5.30505E-14-1.77975E-13
 -1       843 1.99418E+01 2.37066E-01-1.07977E-05 3.10445E-01-2.48728E-14-4.50860E-14
 -1       844 1.98115E+01 3.39945E-01-1.81889E-05 3.32604E-01-1.02123E-14 5.13085E-14
 -1       845 1.96336E+01 4.80479E-01 6.60503E-06 3.48444E-01-2.45276E-14-7.46925E-14
 -1       846 1.93987E+01 6.51273E-01-5.58759E-05 3.50523E-01-5.38182E-14-8.52446E-14
 -1       847 1.90504E+01 8.71567E-01-5.95828E-05 3.24299E-01-3.82869E-14-2.38810E-14
 -1       848 1.85515E+01 1.13012E+00-1.17787E-04 2.44178E-01-5.19931E-14-1.00317E-14
 -1       849 1.78383E+01 1.41110E+00-2.39406E-04 7.41427E-02-1.16744E-13-4.25360E-15
 -1       850 1.68205E+01 1.67654E+00 2.38264E-04-2.34700E-01 3.65100E-14-7.53674E-14
 -1       851 1.53692E+01 1.84417E+00 7.12481E-03-7.48622E-01-5.63693E-14-1.01212E-13
 -1       852 1.36254E+01 1.86992E+00 3.03652E-02-1.25881E+00 5.46828E-15-2.08002E-13
 -1       853 1.65119E+01 1.92259E+00 2.26425E-03-9.60379E-02-2.69954E-13 1.39419E-13
 -1       854 1.76857E+01 1.58263E+00 7.18694E-04-2.78211E-01-1.23189E-13-5.97418E-14
 -1       855 1.84599E+01 1.27680E+00-3.02052E-05-3.71730E-01-5.86109E-14-1.68997E-13
 -1       856 1.89887E+01 9.98928E-01-3.62606E-05-3.90325E-01-3.93261E-14-1.48306E-13
 -1       857 1.93445E+01 7.66311E-01-3.33482E-05-3.66317E-01-2.05817E-13-2.68141E-13
 -1       858 1.95811E+01 5.80515E-01-1.93232E-05-3.21645E-01-2.08871E-13-4.55595E-13
 -1       859 1.97306E+01 4.42454E-01 1.77238E-05-2.72402E-01 1.95440E-13-1.29274E-13
 -1       860 1.98342E+01 3.30840E-01-8.46940E-06-2.21250E-01 4.49720E-14-1.86349E-13
 -1       861 1.99009E+01 2.46889E-01-1.70323E-05-1.75075E-01 4.52627E-14-4.22275E-13
 -1       862 1.99426E+01 1.84794E-01-6.34905E-05-1.35689E-01-4.52059E-13-4.49623E-13
 -1       863 2.02217E+01 1.61220E-01 5.47139E-06-1.76075E-01 6.91174E-14-1.92044E-14
 -1       864 2.01796E+01 8.92656E-02 6.32518E-06-2.30786E-01 4.07217E-14-2.55539E-14
 -1       865 2.01022E+01-4.49092E-02 6.72291E-06-3.79299E-01 3.71574E-14-5.28562E-14
 -1       866 2.00843E+01-7.26753E-03 4.20048E-06-3.52086E-01 9.92737E-14-2.66460E-14
 -1       867 2.02507E+01-2.21627E-01-2.46415E-06-4.16842E-01-5.11232E-14-2.53273E-14
 -1       868 2.04102E+01-3.81209E-01-1.55913E-05-4.05700E-01 6.65110E-15-7.81040E-15
 -1       869 2.06469E+01-5.90472E-01-4.21664E-05-3.48879E-01-4.19376E-14-1.23587E-14
 -1       870 2.09686E+01-8.30311E-01-3.50523E-05-2.18431E-01 6.40739E-15-7.25608E-14
 -1       871 2.13667E+01-1.05341E+00-4.44588E-05 1.72479E-02-9.04384E-15 6.75440E-15
 -1       872 2.17991E+01-1.16830E+00-7.75560E-05 3.77851E-01-2.52767E-14-4.12341E-14
 -1       873 2.21856E+01-1.04902E+00-1.02727E-04 8.46808E-01-6.08044E-14-1.07921E-13
 -1       874 2.24086E+01-5.59577E-01-1.16990E-03 1.32233E+00-2.00409E-13-4.15061E-14
 -1       875 2.23820E+01 3.34919E-01-1.10021E-03 1.60485E+00-1.48476E-13 3.38086E-14
 -1       876 2.21294E+01 1.45418E+00-5.50855E-04 1.46369E+00 3.75825E-14 1.91253E-14
 -1       877 2.18442E+01 2.35764E+00-2.01581E-03 7.81841E-01 1.96483E-13 1.09336E-13
 -1       878 2.17428E+01 2.61788E+00-3.42548E-03-2.26686E-01 1.50754E-14-2.28639E-14
 -1       879 2.19526E+01 2.01722E+00-1.56715E-03-1.14176E+00 2.35075E-14 1.51886E-14
 -1       880 2.22594E+01 9.66279E-01-1.90049E-04-1.59375E+00 1.63195E-13 5.72688E-14
 -1       881 2.24249E+01-8.71563E-02-1.20159E-03-1.52839E+00 2.93531E-13 8.70880E-14
 -1       882 2.23390E+01-8.10526E-01 5.28475E-04-1.13413E+00-6.59966E-14 7.31427E-14
 -1       883 2.20252E+01-1.11893E+00-4.44301E-04-6.48188E-01 5.22940E-14-1.92264E-14
 -1       884 2.16056E+01-1.11395E+00-5.10403E-05-2.27816E-01 1.14713E-13 7.35688E-14
 -1       885 2.11788E+01-9.32272E-01-4.26227E-05 7.07291E-02-1.67705E-13 8.43364E-14
 -1       886 2.08073E+01-6.85834E-01-8.82077E-05 2.47900E-01-4.73120E-14 6.97713E-14
 -1       887 2.05175E+01-4.46903E-01-4.96343E-05 3.31325E-01-3.98129E-13 1.59994E-13
 -1       888 2.03089E+01-2.49419E-01-1.15071E-05 3.52156E-01-4.00672E-13 3.84557E-13
 -1       889 2.01688E+01-1.03155E-01 3.80372E-06 3.35552E-01-4.33673E-13 2.49561E-13
 -1       890 2.00811E+01-4.92358E-03 5.35732E-06 2.99508E-01-2.85438E-13 3.39615E-13
 -1       891 2.00303E+01 5.42314E-02 6.55877E-06 2.55743E-01 1.54733E-14 4.63222E-13
 -1       892 2.00039E+01 8.45444E-02 4.92125E-06 2.11279E-01 7.72970E-14 5.76438E-13
 -1       893 1.99925E+01 9.53652E-02 1.63604E-06 1.69962E-01 5.02263E-14 5.58742E-13
 -1       894 1.99897E+01 9.42784E-02 1.90513E-05 1.33625E-01 6.46956E-14 6.99405E-13
 -1       895 1.99909E+01 8.69497E-02 7.17616E-05 1.02901E-01 2.34947E-13 7.83106E-13
 -1       896 1.98955E+01 1.82952E-01 3.90943E-06 3.34854E-03-6.86181E-14 4.06019E-14
 -1       897 1.49631E+01 1.26903E+00 8.53169E-03 2.40534E+00-4.20742E-13-1.81500E-13
 -1       898 2.60002E+01-7.30380E-01-2.15102E-02-1.41368E+00 2.08167E-14-4.92838E-13
 -1       899 2.02261E+01 4.52775E-01 2.12990E-05 1.00106E-01 1.20056E-13-2.22652E-15
 -1       900 2.01352E+01 1.92070E+00-6.00463E-04-1.85380E-01 9.10888E-14-1.76894E-13
 -1       901 2.43926E+01 5.02510E+00-5.00442E-02-4.71243E-01 3.40422E-13-1.37329E-14
 -1       902 1.99015E+01 1.86209E-01-1.91222E-05-3.99442E-02 1.99269E-15-6.04060E-14
 -1       903 1.71614E+01-1.11437E+00 2.48694E-02-4.61102E+00-2.90253E-13-7.40180E-14
 -1       904 2.00893E+01 1.29319E-02 2.28660E-06-3.25149E-01 5.08268E-14 5.88566E-15
 -1       905 2.01532E+01-1.12387E-01 5.13422E-06-4.03435E-01 2.53562E-14-8.47890E-14
 -1       906 2.01099E+01 2.78481E-02 2.00923E-06-2.98396E-01 1.72077E-14-1.79734E-14
 -1       907 1.44963E+01 6.60779E-01 3.08634E-02-3.44149E+00-5.75547E-14-5.05949E-14
 -1       908 2.41768E+01-3.36724E+00-2.18935E-03-1.89401E+00-2.16276E-13 2.61705E-13
 -1       909 1.99935E+01 7.71938E-02-3.52373E-06 7.69000E-02 3.00118E-13 2.62346E-13
 -1       910 2.11889E+01-2.98791E+00 1.33830E-02-4.09996E+00-2.59113E-13 2.45775E-13
 -1       911 2.50370E+01 4.27910E+00-6.37420E-02 1.59897E+00 2.82630E-13 7.12117E-14
 -1       912 2.41086E+01-3.53539E+00 1.41570E-03 2.34940E+00-1.81283E-13 1.44329E-13
 -1       913 2.02635E+01 2.81536E-01 8.68651E-05-9.39745E-02 7.59158E-14-1.56338E-15
 -1       914 2.59526E+01-8.39184E-01-1.78674E-02 1.38093E+00-2.44036E-13 1.08983E-13
 -1       915 1.99487E+01 1.62689E-01 9.84876E-05-1.06418E-01-5.84156E-14-4.66881E-13
 -1       916 1.99245E+01 1.73436E-01-4.24411E-05-7.56071E-02-2.58293E-14-1.02867E-13
 -1       917 1.99050E+01 1.68244E-01 7.76400E-06 4.26532E-02-1.42324E-13-6.28527E-13
 -1       918 2.00123E+01-2.30604E+00 6.89598E-03 4.16208E+00-4.60579E-13 1.00072E-13
 -1       919 1.65421E+01 3.51443E-01 1.12248E-02 3.10197E+00-3.54491E-13-5.44402E-13
 -1       920 2.38041E+01 3.35440E+00-1.95240E-02-1.48398E+00 1.17769E-13-2.49624E-13
 -1       921 2.54446E+01 6.21787E-01-3.21452E-02-1.88493E+00 2.41994E-16-4.15105E-13
 -1       922 1.99263E+01 1.45448E-01-1.06096E-05 7.37258E-02-7.22632E-14-6.15545E-14
 -1       923 2.02673E+01 1.44570E+00 1.88709E-06 6.64164E-02 1.09420E-13-2.16538E-13
 -1       924 1.99512E+01 1.21865E-01-1.06756E-05 9.07835E-02 5.13834E-13 2.41079E-13
 -1       925 2.03029E+01 8.36873E-01-1.95776E-04 2.96025E-01 1.59284E-13 4.90405E-15
 -1       926 2.02820E+01 1.37224E+00 4.82479E-04 1.89199E-01 1.32025E-13-1.44052E-13
 -1       927 2.22409E+01-2.56709E+00 9.00402E-03-2.37305E+00-9.22003E-14 1.73927E-13
 -1       928 2.50714E+01-1.97622E+00 7.41205E-03-4.65779E-01-8.57387E-14-5.28569E-13
 -1       929 2.03602E+01 4.83699E-01-4.73297E-05 1.83563E-02 1.70717E-14-1.18928E-13
 -1       930 2.03254E+01 3.08207E-01-2.36421E-05 9.20158E-02-4.33985E-14-7.19741E-14
 -1       931 2.02712E+01 2.11075E-01 5.14062E-06 1.39836E-01 7.48866E-15-4.67287E-14
 -1       932 2.01972E+01 1.66004E-01-4.96193E-06 1.72852E-01 7.18624E-15-4.59105E-14
 -1       933 2.01069E+01 1.68963E-01-4.34145E-06 1.92696E-01-1.51981E-14-3.63363E-14
 -1       934 1.99976E+01 2.11664E-01-1.14588E-05 2.01749E-01 9.42469E-14-6.12606E-14
 -1       935 1.98627E+01 2.89164E-01-2.21108E-05 1.98914E-01 7.63766E-14-4.58553E-14
 -1       936 1.96913E+01 3.98389E-01-8.32497E-06 1.78711E-01-4.88388E-14-4.98072E-14
 -1       937 1.94808E+01 5.29184E-01-3.87647E-05 1.34107E-01-3.31363E-14-6.01140E-14
 -1       938 1.91901E+01 6.90544E-01-2.43180E-05 4.27784E-02-1.75394E-14-2.86066E-14
 -1       939 1.88020E+01 8.67388E-01 2.54209E-05-1.21854E-01-9.46272E-15 1.32426E-14
 -1       940 1.82854E+01 1.03908E+00 1.12466E-04-4.00242E-01 4.82144E-15 9.33013E-14
 -1       941 1.76033E+01 1.16593E+00 2.64908E-04-8.49413E-01-9.97839E-14 2.04582E-13
 -1       942 1.67204E+01 1.17029E+00 2.44049E-03-1.55182E+00-9.53593E-14 4.45335E-14
 -1       943 1.57443E+01 1.03903E+00 9.89868E-03-2.35469E+00-5.00793E-14-1.73036E-14
 -1       944 2.43288E+01-2.26730E+00-6.95255E-03-1.70205E-02-2.11445E-13 1.28326E-13
 -1       945 1.80380E+01 1.24747E+00 6.92631E-04 3.09312E-01-5.83532E-14-1.19181E-13
 -1       946 1.86258E+01 1.04448E+00 2.09577E-06 6.27464E-02-5.16829E-14-1.30802E-13
 -1       947 1.90485E+01 8.46641E-01-3.76921E-05-7.00150E-02-1.72440E-13-2.18535E-13
 -1       948 1.93482E+01 6.71230E-01-4.11183E-05-1.31797E-01-2.49177E-13-1.35203E-14
 -1       949 1.95502E+01 5.30668E-01 1.73872E-05-1.50618E-01 1.44787E-13 7.05419E-14
 -1       950 1.96996E+01 4.09619E-01-2.39508E-05-1.46841E-01-1.15641E-13-3.61798E-13
 -1       951 1.98023E+01 3.14380E-01-2.28807E-05-1.30770E-01-1.42492E-13-5.57040E-13
 -1       952 1.98727E+01 2.40274E-01 4.33946E-05-1.10586E-01-1.04759E-13-8.41618E-13
 -1       953 2.00528E+01 1.11304E-02 9.74684E-06-3.70259E-01 6.71970E-14 5.61361E-14
 -1       954 2.04364E+01-4.92478E-01-4.27169E-05-6.02692E-01 2.36736E-14-5.43281E-14
 -1       955 2.02298E+01-2.74786E-01 9.39024E-06-5.54461E-01-1.94448E-16-7.24402E-14
 -1       956 2.12238E+01-1.11878E+00 8.74832E-05-5.22926E-01-3.34274E-14-5.37817E-14
 -1       957 2.18252E+01-1.43615E+00 7.65461E-04-2.84792E-01 5.70420E-14-7.36773E-14
 -1       958 2.25049E+01-1.57972E+00 1.31232E-03 1.52760E-01-6.08603E-14-1.35885E-13
 -1       959 2.31404E+01-1.36857E+00-5.48676E-04 7.79912E-01-1.78029E-13-4.60093E-14
 -1       960 2.35162E+01-5.35539E-01-1.31509E-03 1.46322E+00-3.03137E-13 1.14841E-14
 -1       961 2.34822E+01 9.68709E-01-7.17511E-03 1.86390E+00-7.14368E-14 6.87965E-14
 -1       962 2.31475E+01 2.56615E+00-7.83198E-03 1.47877E+00 5.25149E-14 1.11305E-14
 -1       963 2.28035E+01 3.62939E+00-2.75424E-02 4.03497E-01 2.96798E-13-7.13457E-14
 -1       964 2.35209E+01 2.35688E-01-2.21931E-03-1.72017E+00 2.05312E-13-3.33205E-13
 -1       965 2.33821E+01-9.60604E-01-8.78295E-03-1.21249E+00-3.16853E-14-5.50736E-14
 -1       966 2.28741E+01-1.48300E+00-1.05380E-03-5.23561E-01 6.49099E-14 1.49086E-13
 -1       967 2.21935E+01-1.52410E+00 8.12730E-04 4.87145E-02 1.40536E-14 2.30564E-13
 -1       968 2.15345E+01-1.27512E+00 2.08866E-04 3.89625E-01-1.14805E-13 4.17049E-13
 -1       969 2.09849E+01-9.27297E-01-1.03328E-04 5.44291E-01-1.15916E-13 3.85352E-13
 -1       970 2.05757E+01-5.96136E-01-6.00829E-05 5.75469E-01-2.61392E-13 4.13458E-13
 -1       971 2.02945E+01-3.26986E-01 1.03864E-05 5.37969E-01-6.15953E-13 4.18798E-13
 -1       972 2.01158E+01-1.30078E-01 3.42328E-05 4.68804E-01-2.59542E-13 3.62248E-13
 -1       973 2.00121E+01 6.83413E-04 1.90911E-05 3.90536E-01-2.59298E-13 2.96104E-13
 -1       974 1.99593E+01 7.86808E-02 1.21234E-05 3.15513E-01-2.25320E-13 1.43430E-13
 -1       975 1.99386E+01 1.18216E-01 8.94620E-06 2.49213E-01-1.12318E-14 1.17360E-13
 -1       976 1.99367E+01 1.31776E-01 2.32925E-06 1.93387E-01-1.81337E-13 4.00517E-13
 -1       977 1.99445E+01 1.29623E-01 1.33774E-05 1.47866E-01 7.99107E-14 5.17394E-13
 -1       978 2.03007E+01 1.24622E+00-6.62006E-04-2.45437E-01 3.46040E-14-1.50199E-13
 -1       979 1.97321E+01-1.64886E+00 4.08139E-03-3.51451E+00-1.91508E-13 2.10430E-13
 -1       980 2.03071E+01 4.79241E-01 3.75575E-04 4.33631E-02 1.14263E-13 1.32873E-14
 -1       981 2.03046E+01 1.22348E+00-8.78581E-05 2.89428E-01 1.47908E-13-6.41901E-14
 -1       982 2.00735E+01 3.45674E-02 4.17058E-06-3.22919E-01 2.66567E-14-9.61992E-15
 -1       983 2.02687E+01 1.44559E+00 1.55051E-04-6.22256E-02 1.07900E-13-1.87551E-13
 -1       984 1.98526E+01 2.27617E-01 1.02637E-05-1.26637E-02-1.33365E-13 4.02281E-13
 -1       985 2.01608E+01 6.51948E-02 5.43675E-06-2.47907E-01 4.49806E-14-5.62676E-14
 -1       986 1.71912E+01 1.42161E+00-1.34568E-03 7.43860E-01-2.56054E-13-3.60057E-13
 -1       987 2.01120E+01 4.79135E-02 2.91696E-06-2.83400E-01 1.96971E-14-4.60873E-14
 -1       988 1.66288E+01 1.16154E+00 8.63970E-03 1.74846E+00-3.92639E-13-5.72992E-13
 -1       989 2.07616E+01-7.82687E-01-1.35036E-04-6.05865E-01 1.00036E-15-5.30136E-14
 -1       990 2.44168E+01 2.07066E+00-3.05402E-02 1.95718E+00-2.93368E-14 1.97487E-13
 -1       991 2.03636E+01 7.52213E-01 8.14151E-05-8.55352E-02 4.02340E-14-1.23628E-13
 -1       992 2.03135E+01 2.82063E-01-4.38051E-05-1.02999E-01 7.81325E-14-3.02250E-14
 -1       993 2.41290E+01-2.74486E+00-3.01953E-03 8.59122E-01-2.47508E-13-4.13099E-13
 -1       994 2.02142E+01 1.00141E-01 1.61446E-05-2.10966E-01 6.06481E-14-3.12601E-14
 -1       995 1.99016E+01 2.04159E-01 1.46059E-04-9.17554E-02-1.69443E-13-4.81656E-13
 -1       996 2.02517E+01 1.50739E+00 5.73114E-04-1.72316E-01 8.45415E-14-1.42723E-13
 -1       997 1.98712E+01 2.21037E-01-1.42800E-05-5.48959E-02 1.92148E-13 1.83977E-13
 -1       998 2.03645E+01 9.39245E-01-1.43579E-04-7.71679E-02 3.24007E-14-1.01604E-13
 -1       999 2.00610E+01-3.76367E-02 9.10360E-06-4.26682E-01 4.89736E-14 7.86904E-14
 -1      1000 1.98594E+01 2.10741E-01-4.12843E-05 4.03655E-02 1.35681E-13-3.31076E-13
 -1      1001 2.02670E+01 1.66938E-01-5.29158E-06-1.65575E-01 6.58082E-14-1.87368E-14
 -1      1002 2.36294E+01 1.69313E+00-8.79771E-03-1.83554E+00 1.66030E-14-3.41583E-13
 -1      1003 1.99562E+01 1.18306E-01-1.14904E-04 1.11495E-01 2.04752E-13 5.16188E-13
 -1      1004 1.75890E+01-2.51973E-01 8.59949E-03-3.28790E+00-9.94631E-14-3.88439E-14
 -1      1005 1.82440E+01-4.63827E-01 1.46780E-03 3.15321E+00-4.70586E-13-3.43255E-14
 -1      1006 2.19202E+01-2.87362E+00 8.29494E-03 3.26373E+00-2.59193E-13 5.40987E-14
 -1      1007 1.98840E+01 1.83222E-01 3.15786E-05 8.29662E-02-2.89069E-14-4.31426E-13
 -1      1008 2.03516E+01 1.05496E+00 3.64144E-04 8.23204E-04 8.14843E-14-2.07592E-13
 -1      1009 1.99160E+01 1.53505E-01-1.37354E-05 1.07534E-01 1.28622E-13-4.78855E-13
 -1      1010 2.30897E+01-2.35510E+00-9.77824E-03-8.52825E-01-1.70354E-13 2.54969E-13
 -1      1011 2.45148E+01-4.61474E-01-1.21773E-02-1.48865E+00 1.32687E-14-1.89188E-13
 -1      1012 2.01130E+01-1.27149E-01 3.36603E-05-4.90392E-01-7.86436E-15 3.45478E-14
 -1      1013 2.03539E+01 1.01734E+00-6.09607E-04 6.70831E-02 1.17382E-13-1.72827E-13
 -1      1014 2.03725E+01-5.67181E-01 9.39789E-05-8.94530E-01 6.40492E-14 1.42385E-13
 -1      1015 2.46197E+01-8.83613E-01-3.09439E-02 1.32432E+00-2.86267E-13 1.13977E-14
 -1      1016 2.03331E+01 2.87030E-01-5.95981E-05 6.85134E-02-2.11014E-14-1.05636E-13
 -1      1017 2.02649E+01 2.01923E-01-5.07708E-05 9.23523E-02 2.71552E-14-1.34111E-13
 -1      1018 2.01765E+01 1.72266E-01-4.11396E-05 1.02538E-01 1.59621E-14-6.92223E-14
 -1      1019 2.00695E+01 1.86494E-01-1.35459E-05 1.00096E-01 1.53518E-14-5.16797E-14
 -1      1020 1.99424E+01 2.34901E-01-5.35713E-05 8.21639E-02 6.74209E-14-7.49885E-14
 -1      1021 1.97900E+01 3.10526E-01-4.75074E-05 4.28878E-02 1.75772E-14-1.26017E-13
 -1      1022 1.96161E+01 4.00452E-01-9.80155E-06-2.43869E-02-3.46882E-14-1.00557E-13
 -1      1023 1.93934E+01 5.04368E-01-1.14337E-04-1.41987E-01-4.57212E-14-7.48588E-14
 -1      1024 1.91208E+01 6.05158E-01 1.23307E-04-3.33495E-01-3.26967E-14 4.00956E-15
 -1      1025 1.87939E+01 6.76154E-01 4.10189E-04-6.32316E-01 3.20314E-14 4.44354E-15
 -1      1026 1.84161E+01 6.75116E-01 1.21753E-03-1.08467E+00-2.66322E-14-1.06359E-13
 -1      1027 1.80077E+01 5.33451E-01 1.51899E-03-1.74978E+00-1.45528E-13-1.16630E-14
 -1      1028 2.03606E+01 7.41651E-01-6.07537E-04 8.74817E-02 1.38613E-13-5.32373E-14
 -1      1029 1.89186E+01 7.83882E-01 1.32393E-04 3.16414E-01-1.30745E-14 9.08948E-15
 -1      1030 1.92119E+01 6.68472E-01 8.61691E-05 1.35499E-01-2.19039E-13-2.18080E-13
 -1      1031 1.94250E+01 5.57639E-01 3.57112E-05 3.48803E-02-4.23916E-14-1.52399E-13
 -1      1032 1.95939E+01 4.50948E-01 1.05950E-04-2.17449E-02-2.00982E-13-1.94021E-13
 -1      1033 1.97179E+01 3.58942E-01 1.79656E-04-4.90164E-02-3.11525E-13-3.78978E-14
 -1      1034 2.23016E+01-1.90498E+00-3.72767E-03-8.00322E-01-2.03417E-14 1.27694E-13
 -1      1035 2.14311E+01-1.43270E+00-1.60486E-04-1.00002E+00-3.31197E-14 5.44256E-15
 -1      1036 2.18490E+01-1.67030E+00-8.05592E-04 9.09360E-01-1.07869E-13 2.12852E-13
 -1      1037 2.10840E+01-1.17087E+00 1.45627E-04 1.00927E+00-1.22647E-13 7.37048E-14
 -1      1038 2.05485E+01-7.21444E-01-9.78697E-05 9.40530E-01-2.08450E-13 1.67743E-13
 -1      1039 2.02045E+01-3.71661E-01 1.03795E-04 8.03054E-01-4.73624E-13 4.07447E-13
 -1      1040 2.00014E+01-1.24067E-01 9.20329E-05 6.49382E-01-3.26264E-13 4.42351E-13
 -1      1041 1.98968E+01 3.45483E-02 3.36785E-05 5.05981E-01-2.44473E-13 3.06138E-13
 -1      1042 1.98545E+01 1.25388E-01 1.96725E-05 3.84794E-01-1.03621E-13 1.01300E-13
 -1      1043 1.98492E+01 1.68512E-01 2.71738E-05 2.87664E-01-4.58600E-14-1.11894E-13
 -1      1044 1.98635E+01 1.80381E-01 3.56257E-05 2.12710E-01-8.62664E-14-2.08930E-13
 -1      1045 1.98861E+01 1.73944E-01 5.09591E-05 1.55637E-01 8.98534E-15-4.40272E-13
 -1      1046 2.00083E+01-1.06509E-01 2.56619E-04-6.09657E-01 4.46585E-14 9.82484E-14
 -1      1047 2.37829E+01-1.76816E+00 1.56768E-02 4.59155E-01-2.19345E-13 9.86762E-14
 -1      1048 1.92233E+01-7.33998E-01 1.24681E-03-2.66768E+00-1.00769E-14 2.04790E-13
 -1      1049 2.28026E+01-2.02799E+00-3.91302E-03 5.62091E-01-1.07414E-13 6.15885E-14
 -1      1050 2.10674E+01-1.73171E+00 1.52259E-05-2.21227E+00-1.41543E-13 1.02330E-13
 -1      1051 2.01317E+01-2.89539E-01 2.84404E-04-7.50447E-01 8.77395E-15 1.51026E-13
 -1      1052 2.03333E+01 2.66211E-01-1.17649E-04-9.60030E-02 6.61295E-14-9.05424E-14
 -1      1053 1.85415E+01 8.76572E-01 6.98967E-04 6.13521E-01-2.26028E-14-1.16968E-13
 -1      1054 2.00160E+01 7.40763E-02 4.10834E-05-3.14225E-01-8.98485E-15-1.90550E-15
 -1      1055 2.03759E+01 4.44197E-01-5.54549E-06 2.96837E-02 1.23833E-14-1.11762E-13
 -1      1056 2.03553E+01 4.68994E-01 2.05163E-04-1.50930E-02 9.52899E-14-2.37947E-14
 -1      1057 1.80565E+01 9.04933E-01-4.74629E-04 1.08491E+00 1.43782E-13-3.23368E-13
 -1      1058 2.07904E+01-9.55821E-01-1.43963E-03-9.93617E-01 7.75053E-15 3.07822E-14
 -1      1059 2.03865E+01 6.54875E-01 2.98922E-05-1.77917E-02 3.17624E-14-1.15696E-13
 -1      1060 2.26833E+01-2.58904E+00 5.88460E-03 1.90192E+00-3.44637E-13-2.48879E-13
 -1      1061 2.02121E+01 1.11256E-01 5.19146E-06-1.76996E-01 2.98202E-14 2.55210E-14
 -1      1062 2.00750E+01 8.01238E-02-8.06257E-06-2.57754E-01 2.50278E-14 5.12295E-15
 -1      1063 1.77483E+01 2.40757E-01 1.92358E-03-2.43114E+00-1.47914E-13-1.76843E-14
 -1      1064 1.79887E+01 4.91682E-01-3.72024E-03 1.89847E+00-2.16879E-13-1.57643E-13
 -1      1065 1.98071E+01 2.77824E-01-3.88758E-05-4.26081E-02-1.93935E-13 3.15269E-13
 -1      1066 2.01425E+01 8.78106E-02-8.96902E-06-2.13963E-01 4.02864E-14 6.39973E-15
 -1      1067 1.98064E+01 2.61052E-01 5.80847E-05 2.73215E-02-6.42962E-14 6.71020E-15
 -1      1068 2.05064E+01-1.69460E+00 1.45581E-03 2.83202E+00-2.87845E-13 1.92286E-13
 -1      1069 2.02778E+01 1.65290E-01-2.96814E-05-1.39883E-01 5.51841E-14-4.90855E-15
 -1      1070 2.03741E+01 4.31507E-01 1.35295E-04-3.76143E-02 1.18209E-13-9.41520E-14
 -1      1071 1.99660E+01-1.02871E-03 2.65723E-05-4.86675E-01 9.00089E-15 1.00659E-13
 -1      1072 2.03934E+01 7.40490E-01-3.24535E-04-1.97146E-03 4.92679E-14-1.92851E-13
 -1      1073 1.98310E+01 2.28242E-01-2.55220E-05 8.67635E-02-1.15350E-13-3.66338E-13
 -1      1074 1.99746E+01 5.34068E-02 3.26869E-05-3.89584E-01-1.46284E-14 6.12561E-14
 -1      1075 1.80388E+01 8.98047E-02-2.08403E-03 2.50096E+00-3.10077E-13-9.53671E-14
 -1      1076 1.97194E+01 3.28734E-01-2.51765E-04 4.75606E-02-1.99962E-14 1.73130E-13
 -1      1077 1.90157E+01 5.58667E-01-1.19459E-04 7.05908E-01-1.72345E-14-2.74685E-13
 -1      1078 2.02416E+01 1.84557E-01 4.73071E-05 2.26032E-02 1.83333E-14-1.77020E-13
 -1      1079 2.01453E+01 1.66559E-01 9.13445E-05 1.07981E-02 1.39588E-14-1.15049E-13
 -1      1080 2.00326E+01 1.85007E-01 1.53077E-04-1.44980E-02 5.60772E-14-7.87198E-14
 -1      1081 1.99031E+01 2.29148E-01 8.33145E-05-6.10627E-02 6.47639E-15-8.48113E-14
 -1      1082 1.97650E+01 2.82628E-01-1.63221E-04-1.32837E-01-8.60813E-15-1.12724E-13
 -1      1083 1.96105E+01 3.35129E-01-2.54077E-04-2.48415E-01-4.59253E-14-9.95679E-14
 -1      1084 1.94317E+01 3.81491E-01 3.04212E-05-4.27676E-01 7.40002E-15-1.26338E-14
 -1      1085 1.92512E+01 3.76777E-01-5.77080E-04-6.98062E-01-1.26234E-14-3.67635E-14
 -1      1086 1.90896E+01 2.92250E-01-5.05421E-04-1.08077E+00-5.34080E-14-3.23727E-14
 -1      1087 1.89887E+01 7.20792E-02 1.56347E-03-1.60493E+00-2.01213E-14-4.70471E-14
 -1      1088 1.90301E+01-2.49971E-01 1.61152E-04-2.08288E+00-6.67270E-14-4.17537E-15
 -1      1089 2.02599E+01 1.62995E-01 2.68280E-05-9.69902E-02 2.42434E-14-3.78552E-14
 -1      1090 1.93982E+01 5.02439E-01-3.78865E-06 2.47520E-01-7.47016E-14-1.41690E-13
 -1      1091 1.95499E+01 4.35316E-01-2.29704E-05 1.30343E-01-4.61062E-14 3.72891E-14
 -1      1092 2.03874E+01 6.80099E-01 2.00002E-04 2.26081E-02 1.04412E-13-1.28487E-13
 -1      1093 2.03905E+01-1.13057E+00-3.37158E-03-1.97629E+00 4.12490E-14 1.68276E-13
 -1      1094 1.99679E+01-3.51053E-01-2.03569E-03 1.15065E+00-4.97893E-13 1.80468E-14
 -1      1095 2.03791E+01-7.97438E-01 2.92070E-03 1.44274E+00-1.55482E-13-1.05986E-13
 -1      1096 2.09808E+01-1.37417E+00 4.14701E-03 1.68688E+00-8.25617E-14-2.01750E-13
 -1      1097 1.97775E+01-5.52215E-02-7.29211E-05 8.70432E-01-3.70202E-13-1.67685E-13
 -1      1098 1.97066E+01 1.18138E-01 1.48813E-04 6.36945E-01-1.44647E-13-1.98035E-13
 -1      1099 1.96994E+01 2.08900E-01 8.40544E-05 4.55772E-01-7.41739E-15-9.82185E-14
 -1      1100 1.97268E+01 2.44893E-01 6.28941E-05 3.20079E-01 6.73405E-15-2.89641E-13
 -1      1101 1.97693E+01 2.46225E-01-2.88638E-05 2.22058E-01 2.47729E-14-6.55643E-13
 -1      1102 1.97953E+01 2.45912E-01 1.27382E-05 1.45044E-01-1.43163E-13-5.26165E-13
 -1      1103 1.97946E+01-2.45199E-02-5.39889E-06-7.61614E-01 1.11217E-15 1.13097E-14
 -1      1104 1.98961E+01-2.38980E-01-2.51367E-04-1.01869E+00-3.27415E-14-4.84850E-15
 -1      1105 2.03259E+01 2.42954E-01-5.31694E-06-6.87619E-02-8.58175E-16-7.26560E-14
 -1      1106 2.03723E+01 3.80606E-01-1.27267E-06 1.48358E-02 1.19249E-14-1.46982E-13
 -1      1107 1.88014E+01 4.80368E-01-2.10154E-03 1.10876E+00-3.07968E-15 7.24908E-14
 -1      1108 2.03220E+01 2.48554E-01 2.99565E-05 2.22653E-02-7.00299E-15-1.19723E-13
 -1      1109 2.01534E+01-5.81183E-01 2.30584E-03-1.31266E+00 3.16854E-14 1.73361E-13
 -1      1110 1.92195E+01 5.51115E-01 1.11924E-04 4.29744E-01-2.43682E-13-1.81164E-13
 -1      1111 1.98080E+01-1.03359E+00 1.87512E-03 2.56630E+00-3.90288E-13 4.61292E-13
 -1      1112 2.01781E+01 1.28095E-01-8.66090E-05-1.27991E-01 7.33950E-14-2.61645E-14
 -1      1113 1.90350E+01 4.04208E-02 5.19887E-04 1.66812E+00-1.55539E-13 4.09800E-13
 -1      1114 1.98019E+01 8.29225E-02 1.30802E-03-5.53801E-01 1.10620E-13-8.01639E-15
 -1      1115 2.03768E+01 3.74243E-01-2.60302E-04-3.38352E-02 6.55843E-14-7.65337E-14
 -1      1116 1.99987E+01 1.31063E-01-7.38841E-05-2.20269E-01-2.66753E-14 6.58252E-14
 -1      1117 1.97524E+01 2.89067E-01 5.95939E-05 1.02936E-01-7.92398E-14-3.20714E-13
 -1      1118 2.03966E+01 5.34284E-01 3.79060E-04 1.31650E-03 2.64981E-14-1.57314E-13
 -1      1119 1.99124E+01 1.39926E-01-1.00583E-04-2.98817E-01-8.15862E-14 5.18188E-14
 -1      1120 2.01105E+01 1.44543E-01-4.58505E-04-9.17784E-02 3.84551E-14 8.85262E-15
 -1      1121 1.96813E+01 2.13594E-01-8.65623E-04-4.39695E-01 1.01986E-13-6.30977E-14
 -1      1122 2.00908E+01 1.22536E-01 4.43660E-04-1.66268E-01 4.82797E-15-1.50456E-14
 -1      1123 1.98375E+01 1.32631E-01-6.35980E-05-4.08759E-01 1.11993E-15 4.74599E-14
 -1      1124 1.92938E+01-4.80916E-01-6.60896E-03 2.20614E+00-6.45014E-14 3.81621E-13
 -1      1125 1.94095E+01 2.72649E-01-1.78608E-04 7.60902E-01-1.00957E-13-2.65771E-13
 -1      1126 1.94762E+01 3.43775E-01-1.86509E-04 5.09978E-01-2.02382E-13-3.32186E-13
 -1      1127 1.95633E+01 3.56181E-01-9.83675E-05 3.32797E-01 1.55208E-13-2.28530E-13
 -1      1128 1.96534E+01 3.33206E-01-7.19712E-05 2.11969E-01 2.17065E-13-6.93102E-14
 -1      1129 1.97034E+01 3.14914E-01-5.32365E-06 1.51470E-01-6.30702E-14 1.76557E-14
 -1      1130 2.03917E+01 4.95518E-01 2.17256E-04-1.31291E-02 5.93123E-14-9.12259E-14
 -1      1131 1.93841E+01 1.52478E-01 8.29947E-04 1.04511E+00-3.53954E-13-2.25048E-13
 -1      1132 2.79039E+01 9.06813E+00 2.32299E+00-6.71027E+00-3.58047E-14 7.31221E-13
 -1      1133 2.05295E+01 6.22115E+00 2.07580E-01-3.89502E+00-1.85685E-14-1.18412E-13
 -1      1134 1.94311E+01 5.85185E+00 7.50574E-02-2.88582E+00-1.14631E-14-4.27818E-13
 -1      1135 1.90280E+01 5.72654E+00 6.04834E-02-2.23362E+00-4.50681E-15-5.39928E-13
 -1      1136 1.88458E+01 5.67113E+00 5.79884E-02-1.69946E+00-2.49627E-15-5.78402E-13
 -1      1137 1.87539E+01 5.64288E+00 5.56766E-02-1.23208E+00 1.05818E-16-5.75049E-13
 -1      1138 1.87063E+01 5.62803E+00 5.38130E-02-8.02613E-01 8.16187E-16-5.47499E-13
 -1      1139 1.86828E+01 5.62059E+00 5.25040E-02-3.91833E-01 2.91347E-15-5.18376E-13
 -1      1140 1.86759E+01 5.61840E+00 5.20739E-02 8.51337E-03 3.82507E-15-4.78379E-13
 -1      1141 1.86833E+01 5.62078E+00 5.25886E-02 4.09193E-01 4.96781E-15-4.41152E-13
 -1      1142 1.87075E+01 5.62846E+00 5.40132E-02 8.21102E-01 5.90196E-15-3.88077E-13
 -1      1143 1.87567E+01 5.64390E+00 5.62819E-02 1.25287E+00 9.22439E-15-3.10072E-13
 -1      1144 1.88497E+01 5.67251E+00 5.86215E-02 1.72435E+00 1.10745E-14-2.02782E-13
 -1      1145 1.90332E+01 5.72822E+00 6.08696E-02 2.26557E+00 1.32012E-14-3.36823E-14
 -1      1146 1.94277E+01 5.84923E+00 6.96579E-02 2.92621E+00 1.55292E-14 2.56869E-13
 -1      1147 2.04426E+01 6.17869E+00 1.52949E-01 3.87589E+00 1.36835E-14 7.60073E-13
 -1      1148 2.51960E+01 7.98738E+00 1.42852E+00 5.84214E+00 1.21569E-14 1.64641E-12
 -1      1149 2.90891E+01 3.74275E+00 1.36775E+00-4.36543E+00-1.48742E-13 1.27082E-12
 -1      1150 2.03696E+01-1.70593E-01-6.23902E-01-1.48973E-01-5.10147E-14 9.36695E-13
 -1      1151 1.88442E+01-9.81909E-02-2.50075E-01 6.27065E-02-2.25982E-14 4.90113E-13
 -1      1152 1.84891E+01-4.98262E-02-6.41859E-02 4.12086E-02-8.92862E-15 1.45488E-13
 -1      1153 1.84267E+01-2.56471E-02-1.65977E-02 2.70751E-02-4.52611E-15-8.15355E-14
 -1      1154 1.85077E+01-1.35566E-02-5.58276E-03 1.91274E-02-1.77727E-14-2.27512E-13
 -1      1155 1.86552E+01-7.90897E-03-2.24219E-03 1.42087E-02-7.04428E-15-3.26841E-13
 -1      1156 1.88333E+01-4.06515E-03-5.53454E-04 1.07253E-02-1.52955E-14-3.99741E-13
 -1      1157 1.90275E+01-2.07505E-03 4.38880E-04 8.05560E-03 4.64282E-15-4.40389E-13
 -1      1158 1.92228E+01-1.25643E-03 6.19845E-04 6.05520E-03 9.58405E-15-5.08328E-13
 -1      1159 1.94166E+01-1.28968E-03 7.18829E-05 4.54076E-03-1.20989E-14-4.90232E-13
 -1      1160 1.96120E+01-1.98526E-03-1.18686E-03 3.45518E-03-8.52733E-15-6.95039E-13
 -1      1161 1.98126E+01-3.50930E-03-3.21481E-03 2.81351E-03 5.09532E-15-6.92836E-13
 -1      1162 2.00370E+01-5.83415E-03-6.36457E-03 2.58716E-03-1.13796E-14-6.34081E-13
 -1      1163 2.03138E+01-9.28559E-03-1.10634E-02 3.09388E-03 1.66801E-14-6.98997E-13
 -1      1164 2.06709E+01-1.42230E-02-1.80579E-02 4.73368E-03 1.76237E-14-7.33247E-13
 -1      1165 2.11572E+01-2.11080E-02-2.84346E-02 8.32287E-03-2.17929E-14-9.84114E-13
 -1      1166 2.18443E+01-2.95507E-02-4.33225E-02 1.54988E-02-6.95754E-15-9.82440E-13
 -1      1167 2.28027E+01-4.22436E-02-6.38737E-02 2.85177E-02 1.20550E-14-7.69884E-13
 -1      1168 2.41793E+01-5.38300E-02-8.87684E-02 4.90132E-02-2.71623E-14-7.03528E-13
 -1      1169 2.61792E+01-6.17218E-02-1.07202E-01 8.42114E-02 5.55944E-14-6.16757E-13
 -1      1170 2.89013E+01-5.17653E-02-8.60164E-02 1.32420E-01-3.63017E-14-6.19851E-13
 -1      1171 3.22456E+01 2.11637E-03 4.05670E-02 1.72548E-01-8.51250E-15-5.99243E-13
 -1      1172 3.54487E+01 1.22556E-01 3.26067E-01 1.23541E-01-4.09187E-14-4.05419E-13
 -1      1173 3.66212E+01 3.01602E-01 6.46217E-01-1.29349E-01-3.14332E-14-4.55053E-13
 -1      1174 3.33694E+01 3.40126E-01 5.33693E-01-6.06641E-01-3.67276E-14-4.29545E-13
 -1      1175 2.52657E+01 3.21260E-02-4.53541E-01-9.42465E-01 6.07500E-15-5.70877E-13
 -1      1176 1.78098E+01-4.32293E-01-1.58826E+00-5.22528E-01-1.29063E-15-8.21843E-13
 -1      1177 1.63563E+01-6.70811E-01-1.84983E+00 3.25259E-01-5.62467E-14-1.64019E-12
 -1      1178 2.22920E+01-2.42503E-01-8.86208E-01 9.38225E-01 9.36751E-15-2.24676E-12
 -1      1179 3.11820E+01 3.04440E-01 3.29522E-01 7.77905E-01 5.31797E-14-1.78912E-12
 -1      1180 3.62542E+01 3.39756E-01 6.87060E-01 2.30137E-01-3.67831E-14-1.57657E-12
 -1      1181 3.60162E+01 1.88995E-01 4.17324E-01-1.04616E-01-3.84311E-14-1.15137E-12
 -1      1182 3.31388E+01 2.69080E-02 9.69136E-02-1.75309E-01 5.77103E-14-8.52735E-13
 -1      1183 2.97206E+01-4.40579E-02-6.80155E-02-1.45660E-01 5.40544E-14-3.42781E-13
 -1      1184 2.68237E+01-6.22330E-02-1.08074E-01-9.59248E-02-3.46372E-14-5.75623E-13
 -1      1185 2.46621E+01-5.71923E-02-9.52518E-02-5.67737E-02-2.45351E-14-6.20087E-13
 -1      1186 2.31412E+01-4.47463E-02-7.02741E-02-3.15948E-02 6.27341E-14-7.90798E-13
 -1      1187 2.21197E+01-3.57101E-02-5.00096E-02-1.55306E-02-1.02692E-13-9.28379E-13
 -1      1188 2.14253E+01-2.42339E-02-3.32451E-02-9.23756E-03 1.28419E-14-9.05973E-13
 -1      1189 2.09410E+01-1.70010E-02-2.20766E-02-4.60612E-03-2.57999E-14-1.07695E-12
 -1      1190 2.06144E+01-1.18363E-02-1.46814E-02-2.14124E-03 2.02473E-14-7.15875E-13
 -1      1191 2.03937E+01-8.22928E-03-9.82354E-03-8.45919E-04 7.14440E-14-5.27391E-13
 -1      1192 2.02445E+01-5.65573E-03-6.60672E-03-1.71979E-04 3.50504E-14-1.94105E-14
 -1      1193 2.01457E+01-4.28928E-03-4.67093E-03 3.01669E-04-1.21957E-13-1.23960E-13
 -1      1194 2.00794E+01-2.94191E-03-3.26365E-03 2.89831E-04 9.72861E-14-4.96596E-14
 -1      1195 2.00347E+01-2.15631E-03-2.40164E-03 3.82715E-04 4.76840E-14 2.60428E-13
 -1      1196 2.00075E+01-1.63153E-03-1.90431E-03 4.88409E-04-1.07373E-14 3.04745E-13
 -1      1197 1.99941E+01-1.26685E-03-1.55200E-03 6.99418E-04-6.73305E-14 2.19508E-13
 -1      1198 1.99927E+01-1.05675E-03-6.39881E-04 1.20759E-03-5.39656E-14-3.60093E-13
 -1      1199 1.99979E+01 7.03977E-04 1.74989E-03 6.53176E-04 9.12039E-14 1.72216E-13
 -1      1200 2.77651E+01 5.25199E-01 3.75944E-01 1.96523E+00-3.42712E-14 2.34013E-12
 -1      1201 2.00642E+01-6.66061E-02-5.73549E-01 1.29465E-01 5.93275E-15 2.09660E-12
 -1      1202 1.88894E+01-4.11389E-02-1.93094E-01 1.93623E-02 8.54525E-15 1.76048E-12
 -1      1203 1.85123E+01-2.14357E-02-5.02975E-02 1.60869E-03 7.64709E-15 1.52615E-12
 -1      1204 1.84453E+01-1.25840E-02-1.33566E-02-3.83737E-03 7.36130E-15 1.42803E-12
 -1      1205 1.85268E+01-7.77188E-03-5.08559E-03-5.22003E-03 8.06180E-15 1.28436E-12
 -1      1206 1.86801E+01-4.85203E-03-2.62527E-03-5.34538E-03-1.25439E-14 1.29630E-12
 -1      1207 1.88653E+01-3.03748E-03-1.25770E-03-5.00838E-03-1.48155E-14 1.35719E-12
 -1      1208 1.90608E+01-1.93475E-03-3.95864E-04-4.48753E-03-9.85740E-15 1.26040E-12
 -1      1209 1.92555E+01-1.29023E-03 3.53908E-05-3.91318E-03 5.00671E-16 1.15107E-12
 -1      1210 1.94442E+01-9.17248E-04 1.43415E-04-3.38815E-03 7.15271E-15 1.10348E-12
 -1      1211 1.96254E+01-6.56075E-04 9.52346E-05-3.00136E-03-4.19071E-16 9.16198E-13
 -1      1212 1.97994E+01-3.49289E-04 9.13049E-05-2.83309E-03 1.06652E-14 7.70379E-13
 -1      1213 1.99661E+01 1.70639E-04 3.65966E-04-2.95385E-03-7.95838E-17 7.54603E-13
 -1      1214 2.01237E+01 1.08152E-03 1.19157E-03-3.41267E-03-1.02860E-15 8.18877E-13
 -1      1215 2.02667E+01 2.55342E-03 2.86518E-03-4.21177E-03-1.70460E-14 7.77232E-13
 -1      1216 2.03835E+01 4.70329E-03 5.65773E-03-5.26495E-03-2.37101E-14 8.99469E-13
 -1      1217 2.04550E+01 7.51534E-03 9.70516E-03-6.34274E-03 2.00764E-14 8.29755E-13
 -1      1218 2.04540E+01 1.07317E-02 1.48316E-02-7.02010E-03 8.18453E-15 5.58832E-13
 -1      1219 2.03465E+01 1.37444E-02 2.03287E-02-6.66296E-03-4.01307E-15 6.08352E-13
 -1      1220 2.00968E+01 1.55603E-02 2.47809E-02-4.51269E-03 1.98227E-14 6.62312E-13
 -1      1221 1.96772E+01 1.49519E-02 2.61176E-02 6.76758E-05-1.78635E-14 7.64652E-13
 -1      1222 1.90831E+01 1.08842E-02 2.21132E-02 7.17621E-03 5.75039E-15 7.58577E-13
 -1      1223 1.83477E+01 3.16606E-03 1.14160E-02 1.59150E-02 5.09716E-15 5.28903E-13
 -1      1224 1.75524E+01-6.98680E-03-5.20650E-03 2.42051E-02-9.36957E-15 6.09929E-13
 -1      1225 1.68205E+01-1.69686E-02-2.41950E-02 2.92271E-02 1.67399E-14 5.47711E-13
 -1      1226 1.62918E+01-2.36917E-02-3.99693E-02 2.85571E-02-1.92730E-14 5.61474E-13
 -1      1227 1.60805E+01-2.50438E-02-4.72388E-02 2.14958E-02-5.93826E-14 6.95742E-13
 -1      1228 1.62352E+01-2.09486E-02-4.36406E-02 9.70042E-03-2.40155E-14 8.87984E-13
 -1      1229 1.67202E+01-1.32915E-02-3.09417E-02-3.44395E-03 2.28745E-14 6.27574E-13
 -1      1230 1.74294E+01-4.81110E-03-1.39590E-02-1.43685E-02 4.43246E-14 4.28484E-13
 -1      1231 1.82250E+01 2.19712E-03 1.94553E-03-2.08059E-02-3.47685E-14 3.60694E-13
 -1      1232 1.89794E+01 6.59714E-03 1.31180E-02-2.23605E-02-5.39918E-14 7.03805E-13
 -1      1233 1.96047E+01 8.37149E-03 1.84492E-02-2.01132E-02-5.46747E-14 6.60780E-13
 -1      1234 2.00615E+01 8.16883E-03 1.88360E-02-1.57593E-02 6.04346E-14 5.87818E-13
 -1      1235 2.03503E+01 6.82314E-03 1.60936E-02-1.08561E-02-6.34150E-16 2.95980E-13
 -1      1236 2.04972E+01 5.04490E-03 1.20173E-02-6.44919E-03 4.39744E-14-7.04391E-14
 -1      1237 2.05388E+01 3.30828E-03 7.89824E-03-3.03375E-03 1.98798E-14-2.28635E-13
 -1      1238 2.05114E+01 1.86013E-03 4.44101E-03-6.96169E-04 2.27956E-14-1.74502E-13
 -1      1239 2.04453E+01 7.81571E-04 1.88967E-03 7.07368E-04-9.40388E-15-4.13889E-13
 -1      1240 2.03630E+01 5.47400E-05 2.07684E-04 1.40862E-03 1.56246E-14-3.97492E-13
 -1      1241 2.02792E+01-3.85289E-04-7.71941E-04 1.64013E-03-3.90659E-14-2.77595E-13
 -1      1242 2.02027E+01-6.17269E-04-1.25026E-03 1.59425E-03-6.85422E-14-1.21641E-13
 -1      1243 2.01377E+01-7.16184E-04-1.41356E-03 1.41157E-03 9.34636E-15-3.48284E-13
 -1      1244 2.00854E+01-7.45326E-04-1.41659E-03 1.18351E-03-4.91912E-14-2.31496E-13
 -1      1245 2.00457E+01-7.50894E-04-1.37968E-03 9.58078E-04 6.27279E-14-5.66087E-13
 -1      1246 2.00179E+01-7.59911E-04-1.37630E-03 7.40623E-04 7.55621E-15-8.78383E-13
 -1      1247 2.00013E+01-7.26467E-04-1.32809E-03 4.56162E-04 2.58017E-14-5.99074E-13
 -1      1248 1.99957E+01-3.36994E-04-6.69467E-04-1.00806E-04 7.39524E-14-8.36462E-16
 -1      1249 1.99984E+01 4.94094E-04 1.36269E-03-5.00001E-04-8.90237E-14-2.54168E-13
 -1      1250 2.00002E+01-1.49039E-03 1.25864E-03-5.19326E-04-1.93412E-13 3.05844E-14
 -1      1251 1.99991E+01-3.92497E-03-8.15790E-04-6.72588E-04 2.50494E-13 8.42137E-14
 -1      1252 1.99990E+01 2.26354E-03-1.23829E-03 2.43999E-05 5.09407E-13-7.99785E-14
 -1      1253 1.99993E+01 1.74904E-02-8.44542E-04 4.39652E-04 8.52740E-14-4.23689E-14
 -1      1254 1.99997E+01 3.82381E-02-2.24344E-04 6.24167E-04-6.10432E-13-8.74209E-14
 -1      1255 2.00001E+01 6.01440E-02 3.86492E-04 6.27150E-04-6.33579E-13 3.31839E-15
 -1      1256 2.00005E+01 7.93879E-02 9.02158E-04 5.00279E-04-3.90068E-13 4.37334E-14
 -1      1257 2.00008E+01 9.26767E-02 1.27479E-03 2.59366E-04 9.45918E-15-1.92783E-14
 -1      1258 2.00009E+01 9.73161E-02 1.44104E-03-4.66393E-05-5.85567E-14 2.47948E-14
 -1      1259 2.00008E+01 9.21801E-02 1.35659E-03-3.65790E-04 2.65709E-13 4.57333E-14
 -1      1260 2.00006E+01 7.78256E-02 1.00005E-03-6.32651E-04 3.97146E-13-2.69555E-13
 -1      1261 2.00002E+01 5.68154E-02 4.03463E-04-7.77562E-04 1.99104E-13-3.12670E-14
 -1      1262 1.99997E+01 3.29726E-02-3.62642E-04-7.23858E-04-2.37851E-13-6.55077E-14
 -1      1263 1.99992E+01 1.11302E-02-1.12342E-03-4.24651E-04 8.80357E-13-5.21254E-14
 -1      1264 1.99988E+01-3.41963E-03-1.57567E-03 1.64825E-04 3.62783E-13-6.08799E-14
 -1      1265 1.99992E+01-6.31820E-03-6.10533E-04 1.30436E-03 6.74198E-14-3.00258E-13
 -1      1266 2.00004E+01-2.09012E-03 1.55928E-03 7.79510E-04-2.43580E-13 2.24877E-13
 -1      1267-1.09657E+00-2.50016E+01-3.70515E+00-2.14003E+00 1.50258E-12 6.43027E-14
 -1      1268-1.51818E+00-1.44338E+01-2.88356E+00-3.63818E+00 1.62315E-12 6.89560E-13
 -1      1269 1.19477E+00-6.03136E-01-1.58303E+00 1.15155E+00 1.77880E-12 1.00830E-12
 -1      1270 1.08861E+01 9.52423E+00 3.25688E-02 9.97101E+00 1.31273E-12 1.19194E-12
 -1      1271 2.85191E+01 1.22441E+01 1.66071E+00 1.76253E+01 1.04128E-12 1.52145E-12
 -1      1272 4.97563E+01 8.39108E+00 3.04438E+00 1.88165E+01 5.84421E-13 1.23479E-12
 -1      1273 6.59249E+01 3.08145E+00 3.97403E+00 1.02732E+01 8.45157E-14 3.51275E-13
 -1      1274 6.90862E+01 2.22421E+00 4.16030E+00-3.70177E+00 1.07019E-13-6.32383E-13
 -1      1275 5.91819E+01 5.69408E+00 3.68682E+00-1.54348E+01 4.18665E-13-1.45539E-12
 -1      1276 4.02062E+01 1.07966E+01 2.48316E+00-1.95496E+01 1.05993E-12-1.89848E-12
 -1      1277 2.04953E+01 1.22523E+01 9.91517E-01-1.53013E+01 1.91491E-12-2.28551E-12
 -1      1278 6.25557E+00 6.76594E+00-5.85320E-01-6.54028E+00 2.26752E-12-1.89870E-12
 -1      1279-4.30223E-01-5.08828E+00-2.04320E+00 1.22891E+00 2.23599E-12-1.10212E-12
 -1      1280-1.51029E+00-1.84277E+01-3.20474E+00 3.83351E+00 1.45350E-12-4.71734E-13
 -1      1281-9.95047E-01-2.67258E+01-3.85839E+00 8.31924E-01-2.98983E-13-2.04472E-13
 -1      1282-1.67833E+00-2.66439E+01-4.05945E+00-4.03763E+00-1.78924E-12-4.32848E-13
 -1      1283-2.90319E+00-1.76877E+01-3.64033E+00-5.85380E+00-2.36788E-12-1.01669E-12
 -1      1284-6.72437E-01-4.63416E+00-2.65595E+00-1.61108E+00-2.35523E-12-1.56297E-12
 -1      1285 1.07816E+01 6.33139E+00-8.71587E-01 8.26681E+00-1.53078E-12-1.59273E-12
 -1      1286 3.28291E+01 1.02434E+01 1.64006E+00 1.73254E+01-8.95284E-13-1.48326E-12
 -1      1287 6.01307E+01 7.49650E+00 4.45364E+00 1.77918E+01-4.08451E-13-8.29781E-13
 -1      1288 8.01657E+01 3.38114E+00 6.47121E+00 7.00604E+00-1.18759E-13 5.70211E-13
 -1      1289 7.91460E+01 3.49255E+00 6.38721E+00-8.60525E+00-4.55871E-13 2.53197E-12
 -1      1290 5.83447E+01 7.53610E+00 4.20705E+00-1.85661E+01-1.10900E-12 3.11218E-12
 -1      1291 2.99334E+01 1.02039E+01 1.26273E+00-1.68059E+01-1.65179E-12 2.76268E-12
 -1      1292 8.42888E+00 5.38973E+00-1.17146E+00-6.88089E+00-1.63847E-12 1.72595E-12
 -1      1293-1.43749E+00-6.64050E+00-2.86554E+00 2.68566E+00-3.26406E-13 5.68656E-13
 -1      1294-2.71960E+00-1.99960E+01-3.75471E+00 5.92208E+00 1.49658E-12-3.79585E-13
 -1      1295-1.20194E+00-2.75876E+01-4.03446E+00 2.83828E+00 1.89929E-12-2.28519E-13
 -1      1296 2.23161E+01 1.89067E+00-7.17171E-01-2.85048E+00-5.46230E-14 5.16198E-13
 -1      1297 2.03513E+01 4.69458E+00-4.71594E-02-3.30860E+00-1.24373E-13-2.66273E-13
 -1      1298 2.08446E+01 4.84952E+00-9.82857E-02-4.16473E+00-1.72834E-13-1.02966E-13
 -1      1299 1.95298E+01 4.99427E+00-1.93179E-02-2.65294E+00-1.06561E-13-4.80317E-13
 -1      1300 1.98260E+01 5.09133E+00 1.03614E-03-3.04289E+00-1.26517E-13-3.94844E-13
 -1      1301 2.05212E+01 3.95282E+00-2.48297E-02-3.07603E+00-2.07726E-13-2.24043E-13
 -1      1302 1.91883E+01 5.08483E+00-3.28848E-03-2.06870E+00-6.63185E-14-5.62050E-13
 -1      1303 1.93344E+01 5.13954E+00 1.06720E-02-2.36212E+00-8.52929E-14-5.28955E-13
 -1      1304 1.97547E+01 4.36700E+00-2.37170E-02-2.48855E+00-1.57430E-13-3.97599E-13
 -1      1305 1.90156E+01 5.13274E+00 3.49979E-03-1.56208E+00-3.26692E-14-5.82003E-13
 -1      1306 1.90923E+01 5.16207E+00 1.29183E-02-1.81213E+00-4.27401E-14-5.74946E-13
 -1      1307 1.93972E+01 4.55606E+00-1.94297E-02-1.92861E+00-9.67976E-14-4.67331E-13
 -1      1308 1.89237E+01 5.16342E+00 6.56052E-03-1.11464E+00-4.09872E-15-5.67017E-13
 -1      1309 1.89653E+01 5.17957E+00 1.28558E-02-1.33596E+00-1.34510E-14-5.74221E-13
 -1      1310 1.92126E+01 4.66397E+00-1.59718E-02-1.44173E+00-4.48179E-14-4.79214E-13
 -1      1311 1.88732E+01 5.18397E+00 8.16707E-03-6.91971E-01 2.62826E-14-5.40356E-13
 -1      1312 1.88958E+01 5.19273E+00 1.20549E-02-9.01840E-01 1.57157E-14-5.57858E-13
 -1      1313 1.91111E+01 4.73070E+00-1.39121E-02-1.00160E+00 6.91504E-15-4.68747E-13
 -1      1314 1.88496E+01 5.19634E+00 9.25816E-03-2.88258E-01 5.27571E-14-5.10370E-13
 -1      1315 1.88594E+01 5.20015E+00 1.10869E-02-4.89856E-01 4.48209E-14-5.26922E-13
 -1      1316 1.90560E+01 4.77067E+00-1.28347E-02-5.86928E-01 5.44655E-14-4.36175E-13
 -1      1317 1.88457E+01 5.20142E+00 1.02001E-02 1.07944E-01 7.90766E-14-4.70384E-13
 -1      1318 1.88455E+01 5.20133E+00 1.01417E-02-9.11224E-02 6.73218E-14-4.94143E-13
 -1      1319 1.90319E+01 4.78923E+00-1.23819E-02-1.88411E-01 1.00374E-13-4.16039E-13
 -1      1320 1.88604E+01 5.19974E+00 1.11607E-02 5.07157E-01 1.01925E-13-4.29802E-13
 -1      1321 1.88501E+01 5.19572E+00 9.19957E-03 3.05207E-01 9.52883E-14-4.54518E-13
 -1      1322 1.90324E+01 4.78864E+00-1.23995E-02 2.05111E-01 1.42523E-13-3.80619E-13
 -1      1323 1.88980E+01 5.19153E+00 1.21251E-02 9.20390E-01 1.23590E-13-3.72539E-13
 -1      1324 1.88748E+01 5.18265E+00 8.10472E-03 7.09689E-01 1.15775E-13-4.07200E-13
 -1      1325 1.90577E+01 4.76874E+00-1.28891E-02 6.04182E-01 1.77858E-13-3.35461E-13
 -1      1326 1.89684E+01 5.17772E+00 1.29582E-02 1.35292E+00 1.47476E-13-2.95802E-13
 -1      1327 1.89259E+01 5.16121E+00 6.43380E-03 1.13033E+00 1.37467E-13-3.41095E-13
 -1      1328 1.91142E+01 4.72740E+00-1.39167E-02 1.01643E+00 2.14797E-13-2.79464E-13
 -1      1329 1.90988E+01 5.15821E+00 1.30035E-02 1.83723E+00 1.80187E-13-1.76539E-13
 -1      1330 1.90205E+01 5.12819E+00 3.16475E-03 1.58455E+00 1.65304E-13-2.46339E-13
 -1      1331 1.92180E+01 4.65781E+00-1.60685E-02 1.45884E+00 2.55063E-13-1.94032E-13
 -1      1332 1.93447E+01 5.13323E+00 1.05480E-02 2.39438E+00 2.00281E-13 8.76382E-15
 -1      1333 1.91961E+01 5.07697E+00-4.09884E-03 2.09697E+00 1.84998E-13-1.03854E-13
 -1      1334 1.94083E+01 4.54385E+00-1.98293E-02 1.95397E+00 2.91794E-13-6.77514E-14
 -1      1335 1.98494E+01 5.09795E+00 6.14084E-03 3.08110E+00 1.98702E-13 3.21770E-13
 -1      1336 1.95414E+01 4.98392E+00-2.01150E-02 2.69391E+00 1.87163E-13 1.35659E-13
 -1      1337 1.97731E+01 4.34568E+00-2.46222E-02 2.52446E+00 3.09707E-13 1.35274E-13
 -1      1338 2.10904E+01 4.90358E+00 8.00119E-03 4.05046E+00 1.42331E-13 8.42049E-13
 -1      1339 2.03251E+01 4.73196E+00-4.79444E-02 3.41306E+00 1.48229E-13 5.30173E-13
 -1      1340 2.05558E+01 3.91458E+00-2.28051E-02 3.17505E+00 2.75738E-13 4.69694E-13
 -1      1341 2.71786E+01 3.20256E+00 9.27656E-01 4.57859E+00 4.28407E-14 1.68987E-12
 -1      1342 2.20041E+01 3.52012E+00-1.81907E-01 3.88201E+00 5.46785E-14 1.12232E-12
 -1      1343 2.20991E+01 2.56024E+00-3.25132E-02 3.45349E+00 2.10923E-13 9.27536E-13
 -1      1344 2.14073E+01 3.59478E-01-7.63229E-01 1.18275E+00 9.67351E-14 1.68754E-12
 -1      1345 2.21080E+01 1.95605E-01-4.01828E-01-1.36793E+00-1.46758E-13 5.97800E-13
 -1      1346 2.07239E+01 3.28637E-01-1.78507E-01-8.46705E-01-1.28175E-13 4.19359E-13
 -1      1347 2.01261E+01 1.61014E-01-8.03438E-02-4.20185E-01-1.14624E-13 3.60580E-13
 -1      1348 1.96328E+01 9.41147E-02-1.86317E-02-3.45364E-01-1.12181E-13 1.88179E-13
 -1      1349 2.10195E+01 4.15711E-01-1.02787E-01-1.33326E+00-2.29539E-13 1.33501E-13
 -1      1350 1.92634E+01 6.74754E-02 1.35507E-03-1.42156E-01-9.29846E-14 1.40301E-13
 -1      1351 1.91004E+01 4.29533E-02 1.27379E-02-1.23678E-01-8.03524E-14 2.70964E-15
 -1      1352 1.99451E+01 1.41421E-01-3.69391E-02-5.28093E-01-1.95229E-13 2.95944E-14
 -1      1353 1.89348E+01 3.28738E-02 1.31881E-02-3.03158E-02-4.54740E-14-6.69430E-14
 -1      1354 1.89127E+01 2.05199E-02 1.13136E-02-2.05055E-02-5.74159E-14-1.46935E-13
 -1      1355 1.94513E+01 5.81508E-02-9.24315E-03-1.78789E-01-1.38348E-13-5.02948E-14
 -1      1356 1.88556E+01 1.66533E-02 8.92783E-03 2.56520E-02-4.64830E-14-1.71340E-13
 -1      1357 1.88987E+01 1.02214E-02 6.75174E-03 3.05848E-02-3.36350E-14-2.24367E-13
 -1      1358 1.92370E+01 2.62278E-02-3.72998E-03-1.24982E-02-1.00001E-13-1.64405E-13
 -1      1359 1.88998E+01 8.78599E-03 4.84855E-03 5.32874E-02-3.12584E-14-2.39836E-13
 -1      1360 1.89701E+01 5.02101E-03 4.00285E-03 5.54390E-02-2.78744E-14-2.87929E-13
 -1      1361 1.91817E+01 1.11367E-02-2.57473E-03 7.06439E-02-6.50504E-14-2.10545E-13
 -1      1362 1.90044E+01 4.35044E-03 2.68598E-03 6.71467E-02-2.30718E-14-2.81900E-13
 -1      1363 1.90921E+01 1.73512E-03 2.51420E-03 6.80756E-02-3.02550E-14-3.25139E-13
 -1      1364 1.92130E+01 4.81148E-03-1.66006E-03 1.12738E-01-4.29177E-14-2.19068E-13
 -1      1365 1.91447E+01 2.02768E-03 1.58259E-03 7.32336E-02-5.61701E-15-3.12997E-13
 -1      1366 1.92377E+01 3.54933E-04 1.77008E-03 7.33576E-02 9.02506E-15-3.22866E-13
 -1      1367 1.92955E+01 9.43789E-04-1.01641E-03 1.33728E-01-3.10092E-14-2.08328E-13
 -1      1368 1.93007E+01 9.77420E-04 1.01340E-03 7.55104E-02 1.42253E-14-3.36088E-13
 -1      1369 1.93951E+01 8.24556E-05 1.38305E-03 7.54205E-02 4.14791E-15-3.37036E-13
 -1      1370 1.94068E+01-4.82965E-04-5.96182E-04 1.43059E-01-9.09429E-16-1.96289E-13
 -1      1371 1.94649E+01 9.63978E-04 7.20952E-04 7.70989E-02-5.76991E-15-3.44183E-13
 -1      1372 1.95605E+01 7.02006E-04 1.20567E-03 7.72274E-02-4.16547E-14-3.61450E-13
 -1      1373 1.95354E+01-3.05866E-04-4.45593E-04 1.48055E-01-2.46207E-14-1.99883E-13
 -1      1374 1.96367E+01 1.78474E-03 5.57616E-04 8.05050E-02-5.54315E-14-3.74652E-13
 -1      1375 1.97361E+01 2.17045E-03 1.13178E-03 8.12666E-02-4.26976E-14-4.40813E-13
 -1      1376 1.96772E+01 1.26526E-03-5.40113E-04 1.54263E-01-7.61000E-14-2.02323E-13
 -1      1377 1.98163E+01 3.50930E-03 4.89002E-04 8.78109E-02-1.31181E-14-4.80532E-13
 -1      1378 1.99200E+01 4.38477E-03 1.25781E-03 8.94011E-02-9.79756E-15-4.70378E-13
 -1      1379 1.98294E+01 4.09679E-03-8.21347E-04 1.66122E-01-6.63269E-14-2.21158E-13
 -1      1380 2.00174E+01 6.33010E-03 5.05414E-04 1.01789E-01-3.29788E-14-4.69061E-13
 -1      1381 2.01447E+01 7.80570E-03 1.43520E-03 1.05175E-01-2.22401E-14-5.01550E-13
 -1      1382 2.00019E+01 8.53528E-03-1.45036E-03 1.88575E-01-2.48663E-14-2.90130E-13
 -1      1383 2.02630E+01 1.06425E-02 4.83086E-04 1.26302E-01 1.27582E-14-5.41158E-13
 -1      1384 2.04226E+01 1.28389E-02 1.69006E-03 1.32041E-01 1.39962E-14-5.45504E-13
 -1      1385 2.02113E+01 1.52374E-02-2.36405E-03 2.28550E-01-2.65519E-14-3.49146E-13
 -1      1386 2.05733E+01 1.69441E-02 3.09318E-04 1.65894E-01-9.49414E-15-5.60385E-13
 -1      1387 2.07855E+01 2.00776E-02 1.90031E-03 1.75117E-01-6.89344E-14-6.20298E-13
 -1      1388 2.04716E+01 2.52254E-02-3.66535E-03 2.93885E-01-5.61010E-15-4.19516E-13
 -1      1389 2.09845E+01 2.61141E-02-2.48780E-04 2.27288E-01-4.73887E-14-5.90610E-13
 -1      1390 2.12786E+01 3.04158E-02 1.85434E-03 2.41582E-01 5.44920E-15-6.48415E-13
 -1      1391 2.08088E+01 3.98920E-02-5.52489E-03 3.95879E-01-6.59512E-14-3.60600E-13
 -1      1392 2.15475E+01 3.85530E-02-1.86569E-03 3.19534E-01 3.25330E-14-6.29990E-13
 -1      1393 2.19645E+01 4.50536E-02 8.19409E-04 3.41371E-01 4.47671E-14-5.77746E-13
 -1      1394 2.12582E+01 6.12932E-02-8.12882E-03 5.50007E-01 5.32421E-14-3.02737E-13
 -1      1395 2.23105E+01 5.59187E-02-4.89900E-03 4.48945E-01 6.77375E-14-5.41961E-13
 -1      1396 2.28737E+01 6.17194E-02-1.60966E-03 4.77618E-01 2.67607E-14-4.67085E-13
 -1      1397 2.18487E+01 8.96250E-02-1.15719E-02 7.68812E-01 5.34061E-14-1.90080E-13
 -1      1398 2.33634E+01 7.73334E-02-1.04093E-02 6.30088E-01-3.08078E-14-4.10613E-13
 -1      1399 2.41954E+01 7.98714E-02-6.82959E-03 6.74169E-01-1.34181E-14-4.21975E-13
 -1      1400 2.26442E+01 1.26071E-01-1.67810E-02 1.07386E+00 5.37157E-14-1.80919E-13
 -1      1401 2.48456E+01 9.81601E-02-1.85952E-02 8.66704E-01 6.39315E-14-3.79148E-13
 -1      1402 2.59835E+01 8.88987E-02-1.27844E-02 9.22580E-01 5.34963E-14-3.12070E-13
 -1      1403 2.37323E+01 1.61276E-01-2.30084E-02 1.48330E+00 4.43742E-14-4.82028E-14
 -1      1404 2.68093E+01 9.90435E-02-2.46285E-02 1.12019E+00-5.04458E-15-2.89199E-13
 -1      1405 2.82486E+01 6.07245E-02-1.09070E-02 1.17553E+00-3.17472E-14-3.14623E-13
 -1      1406 2.51455E+01 1.66924E-01-2.64652E-02 1.95193E+00 1.45751E-14-1.23689E-13
 -1      1407 2.92210E+01 3.61766E-02-1.17877E-02 1.26756E+00-7.86524E-15-3.11362E-13
 -1      1408 3.07574E+01-5.66895E-02 1.82779E-02 1.27879E+00 3.86913E-14-2.93335E-13
 -1      1409 2.68857E+01 6.83499E-02-1.80069E-02 2.32046E+00 2.14613E-14-2.09902E-14
 -1      1410 3.17592E+01-1.60498E-01 4.70626E-02 1.03582E+00 2.33910E-14-2.81497E-13
 -1      1411 3.27910E+01-3.24580E-01 8.33954E-02 8.98395E-01-2.47857E-14-3.12368E-13
 -1      1412 2.88423E+01-2.54086E-01 1.66762E-02 2.19889E+00 5.07164E-14-6.69083E-14
 -1      1413 3.34997E+01-4.92624E-01 1.41565E-01 1.17239E-01-3.50449E-14-2.02494E-13
 -1      1414 3.31127E+01-6.07520E-01 1.28123E-01-1.81493E-01-1.28925E-14-2.14107E-13
 -1      1415 3.06302E+01-8.51253E-01 6.65039E-02 1.07341E+00 1.76664E-14-8.65714E-15
 -1      1416 3.33768E+01-7.39201E-01 1.70696E-01-1.56824E+00-3.12216E-14-1.50213E-13
 -1      1417 3.07826E+01-6.10348E-01-2.31001E-02-2.04813E+00-5.88052E-14-1.58762E-13
 -1      1418 3.18518E+01-1.35787E+00 9.34357E-02-1.41663E+00 1.39749E-14 5.32872E-14
 -1      1419 3.02424E+01-3.04904E-01-9.10046E-02-2.92256E+00-5.60385E-14-2.53797E-13
 -1      1420 2.67621E+01 1.52314E-01-3.88173E-01-2.93630E+00-8.90954E-14-2.90490E-13
 -1      1421 3.17980E+01-9.53909E-01-5.74261E-02-4.24506E+00-1.28592E-13 2.16206E-13
 -1      1422 2.61116E+01 7.00997E-01-4.68710E-01-2.25631E+00-1.99396E-13-4.42757E-13
 -1      1423 2.41332E+01 1.05461E+00-6.48723E-01-1.74552E+00-2.37588E-13-6.70630E-13
 -1      1424 3.08170E+01 7.28139E-01-2.28573E-01-4.58633E+00-2.77639E-13-9.86954E-14
 -1      1425 2.38038E+01 1.25087E+00-7.10570E-01 3.20896E-01-3.34233E-13-9.12985E-13
 -1      1426 2.46424E+01 1.14927E+00-6.30000E-01 1.03041E+00-3.88634E-13-1.34776E-12
 -1      1427 2.98994E+01 2.34260E+00-3.86535E-01-1.38746E+00-5.70710E-13-4.87041E-13
 -1      1428 2.52610E+01 6.11232E-01-5.49563E-01 2.69759E+00-2.35867E-13-1.44287E-12
 -1      1429 2.85944E+01 9.12537E-02-2.43102E-01 2.88973E+00-1.99563E-14-1.49419E-12
 -1      1430 3.01902E+01 1.79480E+00-3.45489E-01 3.22020E+00-4.75175E-13-7.90187E-13
 -1      1431 2.94899E+01-4.11686E-01-1.10038E-01 2.55825E+00 2.16879E-13-1.57085E-12
 -1      1432 3.27147E+01-7.40566E-01 1.13912E-01 2.12817E+00 2.17226E-13-1.30182E-12
 -1      1433 3.14870E+01-3.06387E-01-1.17195E-01 4.74104E+00 7.01661E-14-1.04825E-12
 -1      1434 3.27537E+01-6.56269E-01 1.25113E-01 7.20044E-01 2.08028E-14-1.08258E-12
 -1      1435 3.37103E+01-6.17503E-01 1.49859E-01 2.94404E-01 6.97567E-14-1.01794E-12
 -1      1436 3.20098E+01-1.35543E+00 8.64608E-02 2.37233E+00 3.04439E-13-9.20625E-13
 -1      1437 3.30720E+01-3.96538E-01 1.00314E-01-6.94407E-01 1.07882E-13-8.00186E-13
 -1      1438 3.23385E+01-2.51025E-01 6.49763E-02-8.63592E-01 1.92173E-14-6.51604E-13
 -1      1439 3.10926E+01-1.00142E+00 9.89725E-02-4.87694E-01 2.31308E-13-4.43659E-13
 -1      1440 3.13713E+01-1.05675E-01 3.11579E-02-1.24493E+00 7.28393E-14-5.91471E-13
 -1      1441 2.98914E+01 3.21106E-03-1.95022E-03-1.25768E+00 2.41370E-13-4.06494E-13
 -1      1442 2.93556E+01-3.81876E-01 3.20180E-02-2.01454E+00 1.31384E-13-3.24366E-13
 -1      1443 2.88932E+01 4.11299E-02-8.90925E-03-1.22257E+00 1.24323E-13-3.84165E-13
 -1      1444 2.74086E+01 9.41027E-02-2.25257E-02-1.17202E+00-1.35742E-15-3.91465E-13
 -1      1445 2.73846E+01 1.89328E-02-1.15698E-02-2.34388E+00 1.74170E-13-3.49037E-13
 -1      1446 2.65361E+01 8.57189E-02-1.55416E-02-9.85120E-01-6.15653E-15-4.20934E-13
 -1      1447 2.53300E+01 1.03826E-01-1.90916E-02-9.27113E-01-1.33643E-14-4.63060E-13
 -1      1448 2.55810E+01 1.59437E-01-2.57339E-02-2.04831E+00-8.57040E-15-3.58727E-13
 -1      1449 2.46343E+01 8.29306E-02-9.97225E-03-7.26218E-01-5.93371E-14-4.22495E-13
 -1      1450 2.37439E+01 8.55816E-02-1.09462E-02-6.78821E-01-9.94283E-14-4.91544E-13
 -1      1451 2.40926E+01 1.70566E-01-2.39616E-02-1.58151E+00-1.29289E-14-3.68802E-13
 -1      1452 2.32189E+01 6.54913E-02-4.03583E-03-5.12662E-01-1.44017E-14-5.45695E-13
 -1      1453 2.25942E+01 6.35833E-02-4.38998E-03-4.78122E-01 3.42486E-14-5.88378E-13
 -1      1454 2.29402E+01 1.38694E-01-1.78558E-02-1.14786E+00-9.93979E-14-2.14273E-13
 -1      1455 2.22291E+01 4.96356E-02 4.99445E-06-3.59311E-01-8.45400E-14-6.05046E-13
 -1      1456 2.18137E+01 4.53418E-02-1.61039E-03-3.36715E-01-5.76986E-14-6.88987E-13
 -1      1457 2.20993E+01 1.00325E-01-1.34869E-02-8.12913E-01-1.24232E-14-4.15426E-13
 -1      1458 2.15334E+01 3.41951E-02 9.44316E-04-2.47417E-01-5.47236E-14-6.49043E-13
 -1      1459 2.12344E+01 3.08710E-02-1.49278E-04-2.30863E-01-9.49635E-14-6.76890E-13
 -1      1460 2.14868E+01 7.20217E-02-8.48995E-03-5.69406E-01-4.61419E-14-3.33499E-13
 -1      1461 2.10368E+01 2.37829E-02 1.48482E-03-1.68928E-01 7.08157E-15-6.29140E-13
 -1      1462 2.08339E+01 2.09286E-02 4.59424E-04-1.57878E-01 4.98187E-14-5.77669E-13
 -1      1463 2.10340E+01 4.87588E-02-5.84341E-03-3.91871E-01-1.44949E-14-2.51565E-13
 -1      1464 2.06947E+01 1.63113E-02 1.41397E-03-1.15393E-01-1.99489E-14-5.25982E-13
 -1      1465 2.05571E+01 1.41797E-02 6.12737E-04-1.07965E-01-4.80570E-14-5.06474E-13
 -1      1466 2.07125E+01 3.28683E-02-4.01617E-03-2.69057E-01 8.28005E-14-2.98599E-13
 -1      1467 2.04594E+01 1.11881E-02 1.17214E-03-7.88762E-02 6.46657E-14-5.42423E-13
 -1      1468 2.03659E+01 9.65290E-03 5.93270E-04-7.38613E-02 9.53803E-14-3.82161E-13
 -1      1469 2.04853E+01 2.21490E-02-2.78377E-03-1.84692E-01-3.00879E-14-3.31494E-13
 -1      1470 2.02975E+01 7.63828E-03 8.94085E-04-5.38746E-02 1.30172E-13-3.36980E-13
 -1      1471 2.02343E+01 6.67446E-03 5.50469E-04-5.04586E-02 8.21064E-14-2.64355E-13
 -1      1472 2.03253E+01 1.50373E-02-1.93132E-03-1.26710E-01 1.82450E-13-4.15355E-13
 -1      1473 2.01887E+01 5.48800E-03 7.17939E-04-3.71625E-02 4.67743E-14-1.99850E-13
 -1      1474 2.01475E+01 4.72719E-03 4.22734E-04-3.49425E-02 5.92196E-14-4.57063E-14
 -1      1475 2.02151E+01 1.01023E-02-1.47916E-03-8.73196E-02 1.29759E-13-2.42293E-13
 -1      1476 2.01138E+01 3.82446E-03 5.01875E-04-2.50792E-02 1.35420E-13-1.14023E-13
 -1      1477 2.00849E+01 3.30517E-03 3.14082E-04-2.33708E-02 8.23917E-14 1.53268E-14
 -1      1478 2.01378E+01 7.29029E-03-9.88430E-04-5.99329E-02 4.64242E-14-9.37409E-14
 -1      1479 2.00620E+01 2.82488E-03 3.62434E-04-1.62653E-02 9.09122E-14 5.61232E-14
 -1      1480 2.00435E+01 2.43140E-03 2.16139E-04-1.50188E-02 6.62522E-14 1.55009E-13
 -1      1481 2.00828E+01 5.17980E-03-7.34744E-04-3.97803E-02 1.33713E-13-2.26599E-13
 -1      1482 2.00286E+01 2.16539E-03 2.19298E-04-9.70488E-03 2.39774E-14-1.68244E-14
 -1      1483 2.00179E+01 1.88006E-03 1.10629E-04-8.72813E-03-6.96445E-14-5.37048E-14
 -1      1484 2.00458E+01 3.86659E-03-5.75981E-04-2.50199E-02-6.16887E-14-2.94207E-13
 -1      1485 2.00088E+01 1.77925E-03 8.34104E-05-4.55455E-03-1.09152E-13 3.39702E-14
 -1      1486 2.00044E+01 1.47541E-03 4.37387E-05-3.67974E-03-1.99725E-13-1.37134E-13
 -1      1487 2.00220E+01 3.09714E-03-4.65951E-04-1.37629E-02-1.47270E-13-2.81497E-13
 -1      1488 1.99995E+01 1.66223E-03 1.18903E-04-4.76706E-04 2.83364E-14-1.83143E-13
 -1      1489 1.99999E+01 9.14470E-04 3.03265E-04 3.88942E-04 1.88752E-13-9.81104E-14
 -1      1490 2.00082E+01 2.50129E-03-3.15323E-04-4.93248E-03-1.18405E-13-2.22890E-13
 -1      1491 1.99986E+01-7.55832E-04 8.16205E-04 1.34902E-03-9.32434E-14 9.33452E-14
 -1      1492 2.02419E+01 7.60070E-02-1.51749E-01 4.82814E-01 1.16483E-13 1.44407E-12
 -1      1493 2.15111E+01 2.16079E-01-2.29187E-01 7.20200E-01 9.50212E-14 1.59055E-12
 -1      1494 2.17130E+01 8.81928E-01-8.51629E-02 2.06306E+00 1.71467E-13 1.11858E-12
 -1      1495 1.93154E+01 3.27846E-02-2.11973E-02 1.85466E-01 7.78093E-14 1.21321E-12
 -1      1496 1.97359E+01 1.13532E-01-6.23957E-02 2.37478E-01 8.69166E-14 1.35311E-12
 -1      1497 2.02904E+01 1.88357E-01-5.46585E-02 7.85020E-01 1.66644E-13 9.53945E-13
 -1      1498 1.89374E+01 1.50356E-02 5.78891E-03 5.20795E-02 4.27193E-14 1.08796E-12
 -1      1499 1.90748E+01 5.19101E-02 1.35808E-03 7.83206E-02 3.58073E-14 1.13670E-12
 -1      1500 1.95477E+01 7.39362E-02-1.14061E-02 2.97068E-01 1.13343E-13 8.03319E-13
 -1      1501 1.88324E+01 7.23698E-03 6.94310E-03-1.11456E-02 5.26107E-14 9.92323E-13
 -1      1502 1.88446E+01 2.62183E-02 1.13473E-02 3.32082E-03 3.57162E-14 1.04429E-12
 -1      1503 1.92167E+01 3.19306E-02-2.30763E-03 8.00421E-02 6.33304E-14 6.98469E-13
 -1      1504 1.88662E+01 3.52227E-03 4.66661E-03-4.25417E-02 8.91778E-15 9.09030E-13
 -1      1505 1.88186E+01 1.42724E-02 8.56632E-03-3.41401E-02 2.08466E-14 9.52577E-13
 -1      1506 1.91067E+01 1.38087E-02-1.74285E-03-2.68367E-02 5.85382E-14 6.48055E-13
 -1      1507 1.89718E+01 1.50586E-03 3.16784E-03-5.76103E-02-2.60318E-14 9.41913E-13
 -1      1508 1.88955E+01 7.92067E-03 5.35993E-03-5.27268E-02-2.38373E-14 9.11961E-13
 -1      1509 1.91172E+01 5.30549E-03-1.82035E-03-8.09157E-02-1.71445E-14 6.00951E-13
 -1      1510 1.91129E+01 3.96418E-04 2.36413E-03-6.38253E-02 3.48401E-14 9.17929E-13
 -1      1511 1.90241E+01 4.33547E-03 3.45230E-03-6.10334E-02 2.08239E-14 9.39060E-13
 -1      1512 1.91934E+01 9.65761E-04-1.60901E-03-1.07287E-01 2.34166E-15 5.81525E-13
 -1      1513 1.92692E+01-1.66542E-04 1.86402E-03-6.52138E-02 2.09248E-14 8.29191E-13
 -1      1514 1.91766E+01 2.26485E-03 2.36356E-03-6.36536E-02 2.17737E-14 8.66873E-13
 -1      1515 1.93041E+01-1.24396E-03-1.29953E-03-1.18361E-01 5.92881E-14 5.44834E-13
 -1      1516 1.94298E+01-3.93570E-04 1.47337E-03-6.42247E-02 1.41832E-14 8.14339E-13
 -1      1517 1.93379E+01 1.13267E-03 1.68813E-03-6.33361E-02 1.08199E-15 8.12119E-13
 -1      1518 1.94318E+01-2.19496E-03-1.04178E-03-1.21178E-01 2.28873E-14 5.21528E-13
 -1      1519 1.95892E+01-4.40218E-04 1.13687E-03-6.23050E-02 3.93743E-14 7.49402E-13
 -1      1520 1.95000E+01 5.71324E-04 1.21824E-03-6.17335E-02 3.10072E-14 7.81749E-13
 -1      1521 1.95664E+01-2.41156E-03-8.69275E-04-1.19934E-01 3.94292E-14 4.53935E-13
 -1      1522 1.97453E+01-4.40420E-04 8.51921E-04-6.01648E-02 5.41619E-14 6.34744E-13
 -1      1523 1.96592E+01 3.05615E-04 8.65125E-04-5.97209E-02 4.12097E-14 6.93926E-13
 -1      1524 1.97027E+01-2.27151E-03-7.59691E-04-1.16998E-01 6.44589E-14 4.47320E-13
 -1      1525 1.98966E+01-5.26412E-04 6.36416E-04-5.78763E-02 3.38002E-14 5.71526E-13
 -1      1526 1.98138E+01 8.91528E-05 5.86588E-04-5.75254E-02 4.23677E-14 6.06031E-13
 -1      1527 1.98377E+01-2.09415E-03-6.68825E-04-1.13337E-01 6.74246E-14 4.50116E-13
 -1      1528 2.00415E+01-8.39189E-04 5.22054E-04-5.48810E-02-2.96545E-14 5.58388E-13
 -1      1529 1.99626E+01-3.29391E-04 3.60426E-04-5.47548E-02-1.94598E-14 5.25619E-13
 -1      1530 1.99692E+01-2.19106E-03-5.38340E-04-1.08669E-01 3.49729E-14 4.10700E-13
 -1      1531 2.01760E+01-1.52818E-03 5.53650E-04-4.99581E-02-3.19684E-14 5.58063E-13
 -1      1532 2.01029E+01-1.22079E-03 1.77368E-04-5.03770E-02-5.65162E-15 5.47051E-13
 -1      1533 2.00940E+01-2.88986E-03-2.95107E-04-1.01463E-01-3.07905E-14 3.38363E-13
 -1      1534 2.02919E+01-2.73492E-03 7.85776E-04-4.12126E-02-5.35884E-14 6.45495E-13
 -1      1535 2.02291E+01-2.86654E-03 4.04405E-05-4.27054E-02-1.93142E-14 5.98105E-13
 -1      1536 2.02069E+01-4.52916E-03 1.47720E-04-8.89132E-02-4.19256E-14 4.35096E-13
 -1      1537 2.03759E+01-4.55203E-03 1.27006E-03-2.61699E-02 1.45448E-14 6.22032E-13
 -1      1538 2.03309E+01-5.51480E-03-3.51311E-05-2.94663E-02-4.70761E-15 6.13224E-13
 -1      1539 2.02986E+01-7.41172E-03 8.81028E-04-6.70196E-02-1.14279E-14 3.94077E-13
 -1      1540 2.04081E+01-6.95011E-03 2.02622E-03-2.10052E-03 1.02009E-13 5.09699E-13
 -1      1541 2.03920E+01-9.28550E-03-2.60549E-05-8.05948E-03 8.47406E-14 6.07649E-13
 -1      1542 2.03555E+01-1.16958E-02 1.97483E-03-3.09625E-02 8.71837E-14 2.95076E-13
 -1      1543 2.03624E+01-9.67530E-03 2.99286E-03 3.32817E-02-3.41383E-14 3.84925E-13
 -1      1544 2.03903E+01-1.40172E-02 8.60133E-05 2.38546E-02 2.93079E-14 4.03569E-13
 -1      1545 2.03587E+01-1.72101E-02 3.43319E-03 2.39756E-02 1.24656E-13 2.79661E-13
 -1      1546 2.02100E+01-1.21441E-02 3.96453E-03 8.06496E-02-5.75560E-15 4.31493E-13
 -1      1547 2.02984E+01-1.90755E-02 2.89327E-04 6.73330E-02-3.62397E-14 4.03000E-13
 -1      1548 2.02855E+01-2.32081E-02 5.13107E-03 1.00717E-01-6.25845E-14 2.47952E-13
 -1      1549 1.99247E+01-1.34023E-02 4.54378E-03 1.37496E-01-1.00269E-14 5.60457E-13
 -1      1550 2.00887E+01-2.31992E-02 5.07823E-04 1.20723E-01-1.47759E-14 5.36577E-13
 -1      1551 2.01132E+01-2.81398E-02 6.75301E-03 1.97885E-01-6.48674E-14 3.84135E-13
 -1      1552 1.94939E+01-1.22603E-02 4.16796E-03 1.96617E-01 3.92147E-14 5.63398E-13
 -1      1553 1.97408E+01-2.45347E-02 5.75948E-04 1.78166E-01 4.98646E-15 5.28652E-13
 -1      1554 1.98252E+01-2.96239E-02 7.77760E-03 3.06914E-01-2.78857E-14 4.74577E-13
 -1      1555 1.89302E+01-7.70767E-03 2.28540E-03 2.45597E-01 5.84097E-14 4.08323E-13
 -1      1556 1.92526E+01-2.10568E-02 2.59840E-04 2.28816E-01 2.55039E-14 4.48310E-13
 -1      1557 1.94200E+01-2.48842E-02 7.57731E-03 4.10022E-01 9.75652E-14 2.55794E-13
 -1      1558 1.82820E+01 4.19275E-04-1.30493E-03 2.68549E-01-3.61848E-14 3.23436E-13
 -1      1559 1.86519E+01-1.14666E-02-6.39158E-04 2.57948E-01 4.11267E-14 3.51958E-13
 -1      1560 1.89205E+01-1.18641E-02 5.66979E-03 4.81063E-01 7.61296E-14 1.27245E-13
 -1      1561 1.76352E+01 1.08239E-02-6.07938E-03 2.50884E-01 8.74973E-15 4.46952E-13
 -1      1562 1.80028E+01 3.67725E-03-2.10826E-03 2.50835E-01-5.80003E-14 3.90903E-13
 -1      1563 1.83802E+01 9.16100E-03 2.05893E-03 4.91234E-01-5.94954E-14 1.04706E-13
 -1      1564 1.71006E+01 2.07168E-02-1.06767E-02 1.86112E-01-4.68141E-14 5.05089E-13
 -1      1565 1.74023E+01 2.12800E-02-3.77328E-03 1.98935E-01 1.53783E-15 4.86847E-13
 -1      1566 1.78795E+01 3.43097E-02-2.53445E-03 4.19693E-01-1.36913E-14 2.69599E-13
 -1      1567 1.67854E+01 2.67576E-02-1.33259E-02 8.14555E-02-8.12323E-14 5.48910E-13
 -1      1568 1.69602E+01 3.62985E-02-4.94154E-03 1.05809E-01-5.20192E-14 4.96778E-13
 -1      1569 1.75099E+01 5.64039E-02-6.81241E-03 2.65428E-01-9.32743E-14 4.40328E-13
 -1      1570 1.67590E+01 2.66765E-02-1.27409E-02-4.19159E-02-3.91028E-14 6.61141E-13
 -1      1571 1.67681E+01 4.37792E-02-4.92208E-03-1.11767E-02-4.48929E-14 5.59276E-13
 -1      1572 1.73479E+01 6.75881E-02-9.46206E-03 5.34459E-02-5.70386E-14 5.19231E-13
 -1      1573 1.70275E+01 2.05338E-02-8.90914E-03-1.55719E-01 1.92919E-14 5.40422E-13
 -1      1574 1.68689E+01 4.13134E-02-3.46019E-03-1.25778E-01-3.81440E-14 5.79680E-13
 -1      1575 1.74293E+01 6.32669E-02-9.80906E-03-1.70619E-01 7.08635E-15 4.18371E-13
 -1      1576 1.75318E+01 1.06789E-02-3.17127E-03-2.35366E-01 2.70582E-14 4.35901E-13
 -1      1577 1.72404E+01 3.02542E-02-9.57379E-04-2.12648E-01 4.27098E-14 5.16219E-13
 -1      1578 1.77360E+01 4.47552E-02-8.10716E-03-3.56690E-01 2.02251E-14 2.41177E-13
 -1      1579 1.81690E+01 4.52865E-04 2.51593E-03-2.68704E-01 2.64383E-14 2.89289E-13
 -1      1580 1.78042E+01 1.48548E-02 1.71974E-03-2.56631E-01 8.13783E-14 4.20448E-13
 -1      1581 1.82029E+01 1.86418E-02-5.28525E-03-4.68862E-01 8.91351E-14 2.52950E-13
 -1      1582 1.88269E+01-7.42210E-03 6.55294E-03-2.58184E-01-1.07919E-13 4.01070E-13
 -1      1583 1.84530E+01 8.90088E-06 3.71095E-03-2.56607E-01-7.93305E-14 2.24286E-13
 -1      1584 1.87412E+01-6.70161E-03-2.39141E-03-4.96323E-01-2.46050E-14 2.80049E-13
 -1      1585 1.94147E+01-1.17275E-02 8.31043E-03-2.16608E-01 1.83174E-14 4.25108E-13
 -1      1586 1.90830E+01-1.08251E-02 4.55992E-03-2.22811E-01-1.57439E-14 4.21885E-13
 -1      1587 1.92651E+01-2.49701E-02-1.41267E-04-4.52029E-01-7.76380E-14 1.93940E-13
 -1      1588 1.98778E+01-1.26817E-02 8.06796E-03-1.60210E-01 5.17223E-14 3.65826E-13
 -1      1589 1.96184E+01-1.64390E-02 4.32358E-03-1.70557E-01 1.63350E-14 3.57034E-13
 -1      1590 1.97120E+01-3.38135E-02 1.21293E-03-3.62579E-01 5.31706E-14 1.30847E-13
 -1      1591 2.01991E+01-1.13096E-02 6.58001E-03-1.02965E-01-2.66354E-14 3.24629E-13
 -1      1592 2.00209E+01-1.74663E-02 3.38688E-03-1.14244E-01 1.84809E-14 3.82001E-13
 -1      1593 2.00495E+01-3.43498E-02 1.76352E-03-2.56367E-01 2.32709E-14 1.70126E-13
 -1      1594 2.03888E+01-8.78296E-03 4.63604E-03-5.38751E-02 8.67329E-14 2.57015E-13
 -1      1595 2.02850E+01-1.54371E-02 2.20584E-03-6.39425E-02 5.77923E-14 3.03535E-13
 -1      1596 2.02724E+01-2.94588E-02 1.76187E-03-1.55464E-01 8.17462E-14 3.52834E-13
 -1      1597 2.04725E+01-6.02604E-03 2.79715E-03-1.68943E-02 7.92380E-14-1.81875E-13
 -1      1598 2.04279E+01-1.19460E-02 1.12683E-03-2.47207E-02 1.49768E-13 8.60502E-14
 -1      1599 2.03941E+01-2.21624E-02 1.46731E-03-7.27103E-02 2.16041E-13 1.33374E-13
 -1      1600 2.04804E+01-3.59393E-03 1.34734E-03 7.73545E-03 8.56780E-15-9.70365E-14
 -1      1601 2.04776E+01-8.19979E-03 3.23457E-04 2.34490E-03 3.93609E-15-1.00086E-13
 -1      1602 2.04369E+01-1.47168E-02 1.07357E-03-1.26607E-02 3.86490E-14-1.45154E-14
 -1      1603 2.04408E+01-1.72220E-03 3.55308E-04 2.18624E-02 9.26806E-14-1.44732E-13
 -1      1604 2.04637E+01-4.90897E-03-1.72332E-04 1.86168E-02 2.19824E-14-9.62693E-14
 -1      1605 2.04253E+01-8.39871E-03 6.96395E-04 2.57575E-02 1.33427E-14 9.04853E-15
 -1      1606 2.03761E+01-4.34828E-04-2.33029E-04 2.81146E-02-3.72616E-15-1.37227E-13
 -1      1607 2.04122E+01-2.37065E-03-4.10814E-04 2.65223E-02 1.02947E-14-1.21057E-13
 -1      1608 2.03806E+01-3.68226E-03 3.88759E-04 4.65121E-02 2.97959E-14 7.40143E-14
 -1      1609 2.03026E+01 3.54199E-04-5.19126E-04 2.90749E-02-2.57116E-14-9.08063E-14
 -1      1610 2.03430E+01-6.11935E-04-4.70942E-04 2.86265E-02 4.57933E-15-8.22805E-14
 -1      1611 2.03199E+01-5.35067E-04 1.63785E-04 5.44234E-02-2.92015E-14 2.29308E-13
 -1      1612 2.02308E+01 7.69567E-04-6.06385E-04 2.68771E-02 9.46420E-15 1.24670E-14
 -1      1613 2.02698E+01 4.80876E-04-4.27464E-04 2.71388E-02-8.41396E-14-9.54085E-14
 -1      1614 2.02550E+01 1.32175E-03 1.36743E-05 5.39529E-02-1.13155E-13 2.77717E-13
 -1      1615 2.01666E+01 9.34199E-04-5.79938E-04 2.30838E-02-5.26590E-14-5.80118E-14
 -1      1616 2.02011E+01 1.07259E-03-3.37146E-04 2.37307E-02-8.64049E-14-6.95639E-14
 -1      1617 2.01934E+01 2.23886E-03-7.80403E-05 4.86575E-02-3.81630E-14 2.13430E-13
 -1      1618 2.01127E+01 9.51586E-04-5.02690E-04 1.87180E-02 5.04808E-14-5.54626E-14
 -1      1619 2.01413E+01 1.32820E-03-2.37330E-04 1.95335E-02 9.23718E-14 5.93941E-14
 -1      1620 2.01392E+01 2.54429E-03-1.30185E-04 4.10673E-02 6.62839E-14 1.63750E-13
 -1      1621 2.00700E+01 9.01550E-04-4.19887E-04 1.43576E-02 1.09654E-13-1.90431E-13
 -1      1622 2.00924E+01 1.39045E-03-1.50855E-04 1.52196E-02 8.24167E-15-1.78886E-13
 -1      1623 2.00942E+01 2.50583E-03-1.61880E-04 3.27840E-02 6.36430E-14 7.57317E-14
 -1      1624 2.00380E+01 8.38834E-04-3.64256E-04 1.02449E-02-1.46965E-14-2.99324E-13
 -1      1625 2.00546E+01 1.37129E-03-9.32370E-05 1.11067E-02 1.29215E-13-1.53059E-13
 -1      1626 2.00589E+01 2.32497E-03-1.92098E-04 2.46626E-02 1.33218E-13-7.07028E-14
 -1      1627 2.00163E+01 7.95161E-04-3.42774E-04 6.40294E-03-4.06809E-14-5.02677E-13
 -1      1628 2.00272E+01 1.34792E-03-7.39003E-05 7.27415E-03-2.15987E-14-4.39804E-13
 -1      1629 2.00327E+01 2.13761E-03-2.35586E-04 1.70222E-02 6.38323E-14 1.24298E-13
 -1      1630 2.00039E+01 7.68429E-04-2.59731E-04 2.74769E-03-1.97080E-13-1.95081E-13
 -1      1631 2.00096E+01 1.34909E-03-6.73394E-05 3.69446E-03-2.12675E-13-4.17266E-13
 -1      1632 2.00151E+01 2.04017E-03-2.64081E-04 9.89513E-03-2.66070E-13-7.77827E-14
 -1      1633 1.99999E+01 5.52305E-04 2.49525E-04-2.65004E-04 1.36473E-13 6.68047E-15
 -1      1634 2.00007E+01 1.10064E-03 4.65029E-05 5.62628E-04 6.39322E-14 3.37902E-15
 -1      1635 2.00047E+01 1.70065E-03-1.92819E-04 3.37476E-03-2.80453E-14-2.47705E-14
 -1      1636 1.99992E+01-3.74090E-04 5.29711E-04-7.86391E-04 3.08128E-14-1.26673E-14
 -1      1637 2.00011E+01 2.56030E-03-1.59236E-04 1.84938E-03 2.81157E-13 1.21028E-13
 -1      1638 2.00010E+01 1.28804E-03 1.75500E-04 1.10242E-03 5.06219E-14 3.04394E-13
 -1      1639 2.00009E+01 1.26197E-02-1.64960E-04 5.28825E-03 3.02245E-13-8.16396E-14
 -1      1640 2.00011E+01 7.20135E-03-1.11645E-04 4.61137E-03 3.83656E-13-1.52821E-13
 -1      1641 2.00023E+01 9.19887E-03-2.40486E-04 6.64433E-03 2.87400E-13 4.61650E-14
 -1      1642 2.00004E+01 2.81664E-02-9.56394E-05 7.85399E-03-1.92671E-13-3.15772E-13
 -1      1643 2.00007E+01 1.94836E-02-1.07900E-04 7.43308E-03 2.49683E-13-1.96401E-13
 -1      1644 2.00016E+01 2.07632E-02-2.79543E-04 1.25565E-02 1.65011E-13-2.38163E-13
 -1      1645 1.99998E+01 4.67163E-02-3.73444E-05 8.94449E-03-3.59778E-13-4.02430E-14
 -1      1646 2.00001E+01 3.64741E-02-5.60252E-05 8.85070E-03-2.23253E-13-1.93004E-13
 -1      1647 2.00006E+01 3.60647E-02-1.30373E-04 1.63160E-02-1.35026E-14-4.28077E-13
 -1      1648 1.99992E+01 6.48367E-02-8.81765E-06 8.46331E-03-3.51821E-13 6.63551E-14
 -1      1649 1.99996E+01 5.50968E-02-1.71171E-05 8.67527E-03-3.59321E-13 1.01357E-15
 -1      1650 1.99996E+01 5.28691E-02 4.79155E-05 1.71501E-02-1.77862E-13-1.34448E-13
 -1      1651 1.99988E+01 8.00948E-02 6.73563E-06 6.51300E-03-2.48639E-14 2.23633E-13
 -1      1652 1.99990E+01 7.22936E-02 7.36205E-06 7.00192E-03-3.07061E-13 1.60793E-13
 -1      1653 1.99987E+01 6.87931E-02 2.15802E-04 1.50438E-02-5.13012E-14 2.58997E-14
 -1      1654 1.99984E+01 8.95221E-02 1.42470E-05 3.39824E-03-1.63293E-14-5.07473E-14
 -1      1655 1.99986E+01 8.52537E-02 2.15117E-05 4.08498E-03-8.88997E-14 2.17274E-13
 -1      1656 1.99980E+01 8.14841E-02 3.53764E-04 1.03196E-02 8.61402E-14 9.44946E-14
 -1      1657 1.99984E+01 9.13806E-02 1.69734E-05-4.00606E-04 1.93595E-13 1.24908E-13
 -1      1658 1.99984E+01 9.15041E-02 2.98581E-05 3.78829E-04-7.43054E-15 1.36162E-13
 -1      1659 1.99976E+01 8.87144E-02 4.42099E-04 3.70790E-03 1.13219E-13 1.43919E-13
 -1      1660 1.99985E+01 8.51233E-02 1.23984E-05-4.26189E-03 1.72691E-13-2.20961E-14
 -1      1661 1.99984E+01 8.97678E-02 3.04287E-05-3.52115E-03 5.20398E-14 1.63494E-13
 -1      1662 1.99975E+01 8.91728E-02 4.64120E-04-3.75421E-03 7.87821E-14-1.02844E-13
 -1      1663 1.99989E+01 7.16184E-02-4.86070E-06-7.48313E-03 3.04932E-13-1.82443E-13
 -1      1664 1.99986E+01 8.00814E-02 2.00478E-05-6.92518E-03 4.56123E-13-2.82190E-13
 -1      1665 1.99979E+01 8.25849E-02 4.07406E-04-1.08012E-02 1.14738E-13 5.68687E-14
 -1      1666 1.99995E+01 5.34955E-02-3.77445E-05-9.36853E-03 1.78144E-13-1.27845E-13
 -1      1667 1.99991E+01 6.40690E-02-1.30493E-05-9.12381E-03 3.38133E-13-1.63814E-13
 -1      1668 1.99987E+01 6.99911E-02 2.76848E-04-1.60662E-02 3.40472E-13-2.96740E-13
 -1      1669 2.00003E+01 3.35093E-02-9.57525E-05-9.45602E-03 1.16708E-13 2.47528E-14
 -1      1670 1.99999E+01 4.44475E-02-7.38379E-05-9.60989E-03 7.40997E-14 4.10181E-14
 -1      1671 1.99998E+01 5.33406E-02 7.53761E-05-1.84288E-02 1.99474E-13-1.41112E-14
 -1      1672 2.00009E+01 1.59685E-02-1.67954E-04-7.53320E-03 4.33532E-13-3.19565E-14
 -1      1673 2.00006E+01 2.47252E-02-1.55247E-04-8.08725E-03 1.89938E-13 2.35616E-13
 -1      1674 2.00010E+01 3.53207E-02-1.73639E-04-1.71397E-02 2.03954E-13 2.07681E-13
 -1      1675 2.00014E+01 4.18917E-03-1.73734E-04-3.87075E-03 1.72954E-13-3.09325E-13
 -1      1676 2.00013E+01 8.88880E-03-2.32571E-04-4.88803E-03 3.51217E-13-2.64891E-13
 -1      1677 2.00021E+01 1.92338E-02-3.52123E-04-1.23607E-02 2.24616E-13-2.14441E-13
 -1      1678-4.58670E-01-1.49192E+01-1.59963E+00-2.95287E-01 1.03939E-12-2.31204E-14
 -1      1679-5.97862E-01-1.80256E+01-1.90579E+00 9.91586E-01 1.20665E-12 1.61537E-14
 -1      1680 1.83233E+00-7.35274E+00-1.07462E+00 1.31895E+00 1.28209E-12 8.87818E-13
 -1      1681 9.10512E-01-1.31471E+01-1.65369E+00 5.14508E-01 9.97313E-13 4.22117E-13
 -1      1682 8.80172E+00 4.60755E-01-3.57251E-01 6.01648E+00 1.17972E-12 6.76237E-13
 -1      1683 5.26293E+00-5.17511E+00-1.10321E+00 2.93070E+00 1.21347E-12 6.44707E-13
 -1      1684 1.86629E+01 6.15972E+00 2.94988E-01 1.08518E+01 9.49907E-13 1.18261E-12
 -1      1685 1.20980E+01 3.05623E+00-5.16687E-01 7.18481E+00 1.08402E-12 8.76521E-13
 -1      1686 3.43122E+01 6.54700E+00 9.94189E-01 1.28201E+01 7.13929E-13 9.50240E-13
 -1      1687 2.48138E+01 6.27961E+00 1.87021E-01 1.09339E+01 8.65530E-13 9.53460E-13
 -1      1688 4.85802E+01 5.69129E+00 1.67919E+00 1.15094E+01 4.80893E-13 7.55285E-13
 -1      1689 3.95461E+01 7.48160E+00 9.90752E-01 1.32786E+01 7.01605E-13 9.55902E-13
 -1      1690 5.70242E+01 3.73270E+00 1.81702E+00 3.78154E+00 2.76695E-13-4.04676E-14
 -1      1691 5.23563E+01 5.28234E+00 1.60911E+00 9.34386E+00 3.73493E-13 4.29212E-13
 -1      1692 5.41770E+01 4.67532E+00 1.49589E+00-4.96993E+00 3.52052E-13-4.63629E-13
 -1      1693 5.59032E+01 4.20832E+00 1.62319E+00 7.74536E-01 2.48301E-13-9.81160E-14
 -1      1694 4.63153E+01 6.41012E+00 1.27083E+00-1.15955E+01 5.66741E-13-1.01330E-12
 -1      1695 5.31441E+01 4.47107E+00 1.63111E+00-7.81908E+00 4.29032E-13-6.40377E-13
 -1      1696 3.29199E+01 7.85900E+00 6.95074E-01-1.33365E+01 1.05649E-12-1.30229E-12
 -1      1697 4.20889E+01 6.62413E+00 1.38027E+00-1.32816E+01 7.22922E-13-1.11344E-12
 -1      1698 1.90438E+01 6.19333E+00-4.90950E-02-1.02736E+01 1.50491E-12-1.47282E-12
 -1      1699 2.75387E+01 7.53464E+00 8.09005E-01-1.32558E+01 1.26310E-12-1.33227E-12
 -1      1700 8.88769E+00 5.59708E-01-7.61606E-01-5.37326E+00 1.55098E-12-1.19127E-12
 -1      1701 1.42054E+01 4.80596E+00 7.44731E-02-9.07451E+00 1.51346E-12-1.55509E-12
 -1      1702 3.02218E+00-7.96710E+00-1.37506E+00-1.50619E+00 1.38733E-12-8.01526E-13
 -1      1703 5.47006E+00-1.83946E+00-6.48165E-01-3.99322E+00 1.56497E-12-9.54403E-13
 -1      1704 2.20363E-01-1.53300E+01-1.79872E+00-2.62751E-01 5.98632E-13-5.01821E-13
 -1      1705 6.49227E-01-1.02881E+01-1.31759E+00-2.23577E-01 1.19471E-12-7.32331E-13
 -1      1706-8.31110E-01-1.83763E+01-1.90211E+00-1.38829E+00-5.41789E-13-5.24025E-13
 -1      1707-6.97312E-01-1.65022E+01-1.71869E+00 2.30623E-01 2.69007E-13-5.65104E-13
 -1      1708-1.01869E+00-1.62677E+01-1.80524E+00-2.23762E+00-1.28908E-12-6.13010E-13
 -1      1709-7.93740E-01-1.83663E+01-1.92550E+00-8.65837E-01-7.59837E-13-4.13114E-13
 -1      1710 1.18981E+00-9.70595E+00-1.48097E+00-5.71470E-01-1.54288E-12-9.08662E-13
 -1      1711 3.94513E-01-1.48902E+01-1.89197E+00-1.25472E+00-1.35369E-12-6.17943E-13
 -1      1712 7.18248E+00-2.05968E+00-1.00214E+00 3.58898E+00-1.44262E-12-8.38996E-13
 -1      1713 3.67785E+00-7.78401E+00-1.73765E+00 4.30361E-01-1.66889E-12-8.85736E-13
 -1      1714 2.21191E+01 2.78277E+00 9.93677E-03 9.26998E+00-8.68861E-13-8.82627E-13
 -1      1715 1.35274E+01-9.36934E-01-1.05026E+00 5.05329E+00-1.21281E-12-8.70193E-13
 -1      1716 3.92341E+01 4.82997E+00 1.11036E+00 1.18312E+01-5.20139E-13-7.46514E-13
 -1      1717 2.79931E+01 4.42662E+00-6.92963E-02 9.89331E+00-7.41962E-13-8.86402E-13
 -1      1718 5.59885E+01 3.91137E+00 2.11337E+00 7.58435E+00-3.60389E-13-7.70495E-14
 -1      1719 4.48162E+01 5.27228E+00 1.06954E+00 9.95752E+00-4.87943E-13-5.01821E-13
 -1      1720 6.34986E+01 4.09437E+00 2.67028E+00 2.02386E-01-5.07927E-13 8.87651E-13
 -1      1721 5.91787E+01 4.80981E+00 2.19838E+00 6.22054E+00-4.24438E-13 1.31450E-13
 -1      1722 5.96587E+01 4.77971E+00 2.40695E+00-7.13205E+00-7.01383E-13 1.86429E-12
 -1      1723 6.42779E+01 3.75277E+00 2.74354E+00-1.47638E+00-5.91027E-13 1.18583E-12
 -1      1724 4.49201E+01 5.89806E+00 1.30997E+00-1.17854E+01-9.99867E-13 2.11142E-12
 -1      1725 5.66062E+01 4.31793E+00 2.42429E+00-9.70846E+00-7.08753E-13 2.04037E-12
 -1      1726 2.57814E+01 4.46440E+00-1.59783E-01-9.81316E+00-1.10389E-12 1.80456E-12
 -1      1727 3.80625E+01 5.35299E+00 1.21175E+00-1.25630E+01-1.02385E-12 2.18492E-12
 -1      1728 1.12769E+01-1.30203E+00-1.21637E+00-4.43593E+00-8.21343E-13 1.12954E-12
 -1      1729 1.92185E+01 2.96090E+00-1.18534E-01-8.87101E+00-1.13842E-12 1.59273E-12
 -1      1730 2.73295E+00-9.23460E+00-1.84413E+00 2.17086E-01 3.16192E-13 5.25691E-13
 -1      1731 5.86785E+00-3.01554E+00-1.09827E+00-2.78452E+00-4.92939E-13 1.12466E-12
 -1      1732-4.19025E-02-1.61326E+01-1.95610E+00 1.34702E+00 1.24789E-12 1.26565E-14
 -1      1733 4.31968E-01-1.11609E+01-1.58027E+00 1.14369E+00 6.80345E-13 2.15258E-13
 -1      1734-8.94872E-01-1.88686E+01-1.98226E+00 5.14612E-01 1.25425E-12-1.34504E-13
 -1      1735-1.18553E+00-1.77230E+01-1.95272E+00 2.32478E+00 1.30479E-12-3.38563E-13
 -1      1736 2.00012E+01 5.90010E-05 1.71627E-04 9.22053E-04 1.27942E-13-1.61427E-13
 -1      1737 7.33745E+00-6.64178E+00-6.63009E-01 5.89618E+00 6.78235E-13 5.06664E-13
 -1      1738 2.00007E+01-1.83089E-04 1.44962E-04-4.87300E-04 4.29843E-15 7.75692E-14
 -1      1739 2.00022E+01 3.43138E-03 6.02693E-05 1.83686E-03 1.36284E-13 2.79899E-13
 -1      1740-1.64229E+00-1.26705E+01-1.38610E+00 1.40745E+00 7.93449E-13-1.18072E-13
 -1      1741 9.52819E-01-1.03907E+01-1.11734E+00 3.44842E+00 7.16427E-13 1.66867E-13
 -1      1742 2.00009E+01-4.91842E-04 1.23376E-04 3.37955E-05-2.78665E-14-3.42324E-13
 -1      1743 2.00013E+01-2.75831E-04-2.09807E-04-9.64009E-04 3.29329E-13-3.06795E-13
 -1      1744 2.00025E+01 7.82219E-03-3.18772E-04-5.26981E-03 1.17468E-13-3.36240E-13
 -1      1745 1.57562E+01-2.39509E+00-2.49469E-01 7.43957E+00 8.09131E-13 5.75762E-13
 -1      1746 2.64357E+01 1.65206E+00 3.74970E-01 8.03913E+00 6.29830E-13 6.73017E-13
 -1      1747 3.66255E+01 4.64327E+00 7.83902E-01 7.00926E+00 5.15699E-13 4.06009E-13
 -1      1748 4.57313E+01 6.98772E+00 1.38347E+00 5.50537E+00 5.97272E-13 2.52465E-13
 -1      1749 4.80677E+01 8.00768E+00 1.36480E+00 1.32349E+00 4.78895E-13-9.50490E-14
 -1      1750 4.63979E+01 7.81533E+00 1.28447E+00-2.98913E+00 5.70544E-13-1.78690E-13
 -1      1751 4.17441E+01 6.42959E+00 1.19421E+00-6.78338E+00 5.98653E-13-5.64881E-13
 -1      1752 3.23606E+01 4.26631E+00 7.25917E-01-8.57908E+00 8.62144E-13-5.94524E-13
 -1      1753 2.16828E+01 8.12007E-01 1.26449E-01-8.28967E+00 9.27813E-13-8.61977E-13
 -1      1754 1.20522E+01-3.71140E+00-4.42822E-01-6.75466E+00 9.22706E-13-7.91478E-13
 -1      1755 4.44078E+00-8.14657E+00-9.16816E-01-4.77249E+00 7.28750E-13-8.29212E-13
 -1      1756-2.78728E-01-1.14839E+01-1.25893E+00-2.64820E+00 1.75859E-13-9.42135E-13
 -1      1757-1.71584E+00-1.24873E+01-1.37198E+00-7.69926E-01-2.23453E-13-8.17790E-13
 -1      1758 5.03248E-01-1.13201E+01-1.28582E+00 1.58864E+00-5.75096E-13-6.74127E-13
 -1      1759 6.36408E+00-8.74849E+00-1.11208E+00 3.62408E+00-8.68305E-13-5.20521E-13
 -1      1760 1.71381E+01-5.16720E+00-5.41637E-01 5.53367E+00-7.84151E-13-2.79055E-13
 -1      1761 3.01798E+01-1.54010E+00 1.65885E-01 5.50492E+00-5.45675E-13-3.12195E-13
 -1      1762 4.22288E+01 2.71477E+00 1.08407E+00 3.67786E+00-4.79991E-13-8.33777E-14
 -1      1763 4.95148E+01 6.42016E+00 1.66936E+00 9.87744E-01-6.43485E-13 3.92575E-13
 -1      1764 5.29276E+01 8.27469E+00 2.13606E+00-2.50186E-02-8.93730E-13 7.48901E-13
 -1      1765 5.15132E+01 6.55591E+00 2.07458E+00-2.27088E+00-6.80345E-13 1.09557E-12
 -1      1766 4.20491E+01 2.90037E+00 1.16588E+00-5.29860E+00-5.97911E-13 1.44018E-12
 -1      1767 2.80694E+01-1.42916E+00 3.78853E-02-6.10679E+00-5.08149E-13 1.34526E-12
 -1      1768 1.48138E+01-5.54700E+00-7.21703E-01-5.26048E+00-4.34097E-14 1.19638E-12
 -1      1769 4.94296E+00-9.37862E+00-1.19128E+00-3.18604E+00 4.82503E-13 8.33444E-13
 -1      1770-3.84075E-01-1.20310E+01-1.36086E+00-9.47554E-01 7.31804E-13 5.50671E-14
 -1      1771 2.29044E+01 2.00656E+00-2.68498E-02-2.77778E+00-1.76487E-13 4.01068E-13
 -1      1772 1.98240E+01 3.71792E+00-3.48888E-02-2.15201E+00-1.56081E-13-3.36939E-13
 -1      1773 2.00510E+01 3.56044E+00-4.24478E-02-2.43934E+00-1.97545E-13-2.92686E-13
 -1      1774 2.03621E+01 3.17923E+00-4.49645E-02-2.58320E+00-2.10695E-13-2.17472E-13
 -1      1775 2.05755E+01 2.81502E+00-1.38985E-01-2.86166E+00-2.47753E-13-1.22020E-13
 -1      1776 2.04285E+01 2.68601E+00-3.78697E-03-2.21780E+00-2.10733E-13-2.37709E-13
 -1      1777 1.93619E+01 4.19255E+00-2.02342E-02-1.26656E+00-4.29734E-14-3.84952E-13
 -1      1778 1.94345E+01 4.15216E+00-1.71394E-02-1.49087E+00-7.10534E-14-3.93763E-13
 -1      1779 1.92662E+01 4.29998E+00-1.68347E-02-8.56379E-01 1.73316E-14-3.66814E-13
 -1      1780 1.93086E+01 4.27549E+00-1.43238E-02-1.06676E+00-1.07522E-14-3.76060E-13
 -1      1781 1.95338E+01 3.78841E+00-9.24058E-03-1.11495E+00-3.45337E-14-3.66419E-13
 -1      1782 1.92148E+01 4.36164E+00-1.48203E-02-4.64709E-01 7.55513E-14-3.35393E-13
 -1      1783 1.92368E+01 4.34844E+00-1.32913E-02-6.64396E-01 5.45751E-14-3.52076E-13
 -1      1784 1.94372E+01 3.91069E+00-9.14282E-03-7.29621E-01 3.91309E-14-3.40823E-13
 -1      1785 1.91952E+01 4.38790E+00-1.36656E-02-8.31134E-02 1.38255E-13-3.17000E-13
 -1      1786 1.92018E+01 4.38384E+00-1.31928E-02-2.77806E-01 1.10508E-13-3.28843E-13
 -1      1787 1.93868E+01 3.97648E+00-9.06868E-03-3.56289E-01 9.69497E-14-3.12297E-13
 -1      1788 1.92029E+01 4.38257E+00-1.31484E-02 2.96934E-01 1.80127E-13-2.88249E-13
 -1      1789 1.91955E+01 4.38713E+00-1.37401E-02 1.02112E-01 1.61965E-13-3.08822E-13
 -1      1790 1.93717E+01 3.99642E+00-9.04559E-03 1.06431E-02 1.61352E-13-2.98664E-13
 -1      1791 1.92397E+01 4.34468E+00-1.32926E-02 6.84080E-01 2.16941E-13-2.45880E-13
 -1      1792 1.92167E+01 4.35869E+00-1.49173E-02 4.83981E-01 1.99856E-13-2.70686E-13
 -1      1793 1.93888E+01 3.97338E+00-9.09158E-03 3.77699E-01 1.99756E-13-2.63322E-13
 -1      1794 1.93124E+01 4.27004E+00-1.43612E-02 1.08050E+00 2.65232E-13-1.93035E-13
 -1      1795 1.92695E+01 4.29499E+00-1.69883E-02 8.73064E-01 2.41560E-13-2.27497E-13
 -1      1796 1.94411E+01 3.90479E+00-9.11075E-03 7.48103E-01 2.40744E-13-2.19640E-13
 -1      1797 1.94426E+01 4.14120E+00-1.73673E-02 1.50978E+00 3.12745E-13-9.45598E-14
 -1      1798 1.93670E+01 4.18436E+00-2.05304E-02 1.28056E+00 2.81876E-13-1.50581E-13
 -1      1799 1.95401E+01 3.77911E+00-9.19481E-03 1.13057E+00 2.90208E-13-1.53036E-13
 -1      1800 1.96690E+01 3.92293E+00-2.52508E-02 1.97468E+00 3.44310E-13 2.26000E-14
 -1      1801 1.95380E+01 4.00047E+00-2.69068E-02 1.71740E+00 3.22153E-13-4.48253E-14
 -1      1802 1.97118E+01 3.56977E+00-8.83944E-03 1.52968E+00 3.31881E-13-4.83103E-14
 -1      1803 2.00766E+01 3.52283E+00-4.42251E-02 2.47146E+00 3.45207E-13 2.09152E-13
 -1      1804 1.98415E+01 3.68468E+00-3.78760E-02 2.17679E+00 3.41694E-13 8.43561E-14
 -1      1805 2.00035E+01 3.22312E+00-6.60500E-03 1.92657E+00 3.57664E-13 7.30041E-14
 -1      1806 2.09109E+01 2.66851E+00-6.20418E-02 2.85114E+00 2.94238E-13 5.41255E-13
 -1      1807 2.04079E+01 3.09977E+00-4.95962E-02 2.60886E+00 3.15077E-13 3.49429E-13
 -1      1808 2.04940E+01 2.60899E+00-1.00820E-03 2.23363E+00 3.35682E-13 2.70124E-13
 -1      1809 2.17163E+01 1.21094E+00-1.23236E-01 2.32577E+00 2.14675E-13 9.16961E-13
 -1      1810 2.12671E+01 2.27161E+00 3.43009E-03 2.73801E+00 2.57508E-13 6.75696E-13
 -1      1811 2.09512E+01 1.68870E+00-1.35600E-02 2.14153E+00 2.95977E-13 5.26482E-13
 -1      1812 2.09476E+01 7.78789E-01-6.03795E-02 1.52091E+00 2.29601E-13 8.40635E-13
 -1      1813 2.18088E+01 2.48913E+00 9.18298E-02-3.08382E+00-2.27398E-13 6.77514E-14
 -1      1814 2.00969E+01 2.96649E-01-8.07681E-03 6.55390E-01 1.83492E-13 7.07996E-13
 -1      1815 2.06378E+01 4.38337E-01-1.46937E-02 1.03107E+00 1.95302E-13 7.76320E-13
 -1      1816 2.07406E+01 8.50677E-01 6.96705E-03 1.40536E+00 2.34830E-13 5.97387E-13
 -1      1817 2.05439E+01 5.24857E-01 3.09557E-02-9.57356E-01-2.07251E-13-2.16676E-14
 -1      1818 2.01055E+01 3.66476E-01 6.85092E-03-6.51502E-01-1.89336E-13-6.82319E-14
 -1      1819 1.99112E+01 2.67222E-01 2.78234E-02-4.05931E-01-1.73229E-13-7.47050E-14
 -1      1820 1.97149E+01 1.85565E-01 1.06052E-02-2.62283E-01-1.33478E-13-1.23091E-13
 -1      1821 2.02145E+01 5.02479E-01-6.25234E-03-7.44787E-01-2.10240E-13-1.11035E-13
 -1      1822 1.95922E+01 1.38666E-01 1.70615E-02-1.23328E-01-1.10446E-13-1.33892E-13
 -1      1823 1.95134E+01 9.90452E-02 7.52627E-03-4.90810E-02-8.12761E-14-1.61900E-13
 -1      1824 1.98864E+01 2.54876E-01-5.97667E-03-3.03410E-01-1.48055E-13-1.32876E-13
 -1      1825 1.94517E+01 7.51482E-02 9.10741E-03 2.59463E-02-7.79463E-14-1.68596E-13
 -1      1826 1.94391E+01 5.43887E-02 4.76375E-03 6.40290E-02-8.37624E-14-1.93519E-13
 -1      1827 1.97070E+01 1.34267E-01-5.23914E-03-5.91220E-02-9.41558E-14-1.51800E-13
 -1      1828 1.94150E+01 3.92093E-02 4.61695E-03 1.08998E-01-6.78732E-14-1.81099E-13
 -1      1829 1.94395E+01 2.74859E-02 3.04683E-03 1.30132E-01-3.55094E-14-1.80462E-13
 -1      1830 1.96251E+01 7.21074E-02-3.75466E-03 7.93372E-02-7.45934E-14-1.74801E-13
 -1      1831 1.94431E+01 1.93315E-02 2.26195E-03 1.54489E-01-1.73149E-14-1.74698E-13
 -1      1832 1.94895E+01 1.31834E-02 2.18264E-03 1.65082E-01 2.68942E-15-1.64823E-13
 -1      1833 1.96084E+01 3.58023E-02-2.72259E-03 1.59800E-01-2.69560E-14-1.33759E-13
 -1      1834 1.95112E+01 9.11852E-03 9.68740E-04 1.78313E-01 7.11028E-15-1.57052E-13
 -1      1835 1.95704E+01 6.93229E-03 1.83017E-03 1.83761E-01 2.53195E-14-1.43617E-13
 -1      1836 1.96367E+01 1.70751E-02-1.89981E-03 2.04276E-01 2.01713E-14-1.03044E-13
 -1      1837 1.96042E+01 5.73638E-03 3.08784E-04 1.92073E-01-2.36792E-14-1.62365E-13
 -1      1838 1.96720E+01 6.54148E-03 1.82880E-03 1.96238E-01-4.01505E-14-1.78907E-13
 -1      1839 1.96945E+01 9.75114E-03-1.35197E-03 2.30196E-01-1.53281E-14-9.65778E-14
 -1      1840 1.97147E+01 7.62734E-03 1.29291E-05 2.04250E-01-4.94660E-14-1.96356E-13
 -1      1841 1.97900E+01 1.10848E-02 2.08598E-03 2.10243E-01-9.56771E-14-1.68923E-13
 -1      1842 1.97729E+01 1.09870E-02-1.04305E-03 2.49779E-01-4.54458E-14-1.50544E-13
 -1      1843 1.98377E+01 1.41319E-02-2.70910E-05 2.21292E-01-9.82503E-14-1.50933E-13
 -1      1844 1.99186E+01 1.99783E-02 2.73392E-03 2.31201E-01-5.64709E-14-1.60210E-13
 -1      1845 1.98654E+01 1.93804E-02-8.60233E-04 2.71953E-01-6.91966E-14-1.37227E-13
 -1      1846 1.99772E+01 2.55957E-02 9.95652E-05 2.49887E-01-4.58917E-14-1.50358E-13
 -1      1847 2.00762E+01 3.49480E-02 3.85374E-03 2.68132E-01-1.58645E-14-1.54332E-13
 -1      1848 1.99732E+01 3.50197E-02-9.65733E-04 3.05451E-01-4.51896E-14-8.64433E-14
 -1      1849 2.01450E+01 4.35742E-02 3.56964E-04 2.98520E-01-4.08206E-14-1.82961E-13
 -1      1850 2.02659E+01 5.71603E-02 5.46913E-03 3.28637E-01-2.04431E-14-1.82086E-13
 -1      1851 2.01024E+01 6.00713E-02-1.10673E-03 3.60398E-01-4.78220E-14-6.54682E-14
 -1      1852 2.03478E+01 6.98021E-02 6.48789E-04 3.76214E-01 1.32771E-15-1.89494E-13
 -1      1853 2.05021E+01 8.93185E-02 7.79065E-03 4.23522E-01-1.77896E-15-2.18483E-13
 -1      1854 2.02559E+01 9.70939E-02-1.27296E-03 4.46993E-01-2.73349E-14-6.83200E-14
 -1      1855 2.06008E+01 1.07410E-01 9.03355E-04 4.95455E-01-7.30188E-15-1.99812E-13
 -1      1856 2.08039E+01 1.35034E-01 1.09568E-02 5.67190E-01 2.35328E-14-1.24473E-13
 -1      1857 2.04408E+01 1.50385E-01-1.39174E-03 5.78941E-01 1.27101E-14-5.58911E-14
 -1      1858 2.09234E+01 1.60111E-01 9.02107E-04 6.72690E-01 3.64422E-14-1.09526E-13
 -1      1859 2.11951E+01 1.98187E-01 1.46364E-02 7.78451E-01 8.61481E-14-1.22160E-13
 -1      1860 2.06659E+01 2.25577E-01-1.34094E-03 7.73894E-01 5.24693E-14 4.08813E-14
 -1      1861 2.13301E+01 2.29619E-01 4.05803E-04 9.21019E-01 1.14591E-13-1.35048E-13
 -1      1862 2.16790E+01 2.76426E-01 1.88041E-02 1.06138E+00 6.88841E-14-8.29134E-14
 -1      1863 2.09330E+01 3.26234E-01-4.54511E-04 1.04478E+00 1.00958E-13-9.47484E-15
 -1      1864 2.18485E+01 3.17355E-01-9.82059E-04 1.26515E+00 1.70029E-14-8.07988E-14
 -1      1865 2.23349E+01 3.74061E-01 2.29820E-02 1.46483E+00 7.81484E-14-8.67600E-14
 -1      1866 2.12534E+01 4.52237E-01-5.02592E-04 1.41893E+00 5.38198E-14-5.02625E-15
 -1      1867 2.25340E+01 4.13727E-01-3.16661E-03 1.73001E+00 9.34088E-14-4.63746E-14
 -1      1868 2.31687E+01 4.57818E-01 2.37086E-02 1.97771E+00 4.67551E-14-1.72041E-14
 -1      1869 2.16442E+01 5.94499E-01-2.54933E-04 1.92518E+00 1.21450E-13-4.77843E-14
 -1      1870 2.34114E+01 4.68352E-01-4.84619E-03 2.29070E+00 3.77155E-14 1.63246E-14
 -1      1871 2.42024E+01 4.47678E-01 1.88023E-02 2.54274E+00 5.29906E-14-4.70630E-15
 -1      1872 2.21087E+01 6.90436E-01-1.10648E-03 2.54735E+00 5.33666E-14 1.60750E-14
 -1      1873 2.45418E+01 3.60170E-01 1.35699E-03 2.84043E+00 2.72401E-14 7.12052E-14
 -1      1874 2.54584E+01 1.64111E-01 7.83840E-03 2.96897E+00 8.69730E-14 1.23178E-13
 -1      1875 2.26903E+01 5.84516E-01-4.90692E-03 3.20943E+00 7.71987E-14 1.32780E-13
 -1      1876 2.60449E+01-1.59434E-01 2.68475E-02 3.08665E+00 6.45595E-14 7.74866E-14
 -1      1877 2.69906E+01-6.67886E-01-5.46451E-03 2.82635E+00 4.27644E-14 1.07216E-13
 -1      1878 2.35372E+01-2.95264E-02-1.42330E-02 3.69254E+00 4.74794E-14 1.27588E-13
 -1      1879 2.79882E+01-1.24346E+00 8.00728E-02 2.49297E+00 3.94199E-14 1.17718E-13
 -1      1880 2.86720E+01-1.97203E+00-2.06923E-02 1.68485E+00 2.72421E-14 1.97995E-13
 -1      1881 2.49401E+01-1.46530E+00-3.49194E-02 3.59079E+00 7.43780E-14 2.02050E-13
 -1      1882 3.05133E+01-2.77141E+00 8.27285E-02 4.85327E-01 5.92443E-14 1.94844E-13
 -1      1883 3.09476E+01-3.14271E+00-5.66261E-02-1.07972E+00 4.21191E-15 1.83372E-13
 -1      1884 2.74840E+01-3.41100E+00-2.32290E-02 2.26611E+00 8.76382E-14 3.07140E-13
 -1      1885 3.39813E+01 3.87828E+00-2.19608E-01-2.43241E+00-6.19060E-13-1.96974E-13
 -1      1886 3.39297E+01 4.56199E+00-2.18461E-01-2.02307E-01-6.98885E-13-3.71862E-13
 -1      1887 3.41824E+01 4.25491E+00-1.15274E-01 2.08688E+00-6.68909E-13-4.17943E-13
 -1      1888 3.45982E+01 2.32312E+00-2.02656E-01 3.86804E+00-4.40314E-13-5.05568E-13
 -1      1889 3.33033E+01 1.82634E-01-1.26372E-01 4.39155E+00-1.64729E-13-5.77483E-13
 -1      1890 3.37564E+01-2.03236E+00-1.29090E-01 3.90356E+00 2.06779E-13-6.22807E-13
 -1      1891 3.17071E+01-2.80374E+00-4.86854E-02 2.26456E+00 3.98001E-13-6.62564E-13
 -1      1892 3.15116E+01-2.91722E+00 4.98856E-02 6.62737E-01 4.39523E-13-3.97460E-13
 -1      1893 3.32180E+01-3.36307E+00-1.20047E-01 2.27595E+00 3.65364E-13-1.33338E-13
 -1      1894 2.96711E+01-2.36958E+00-4.23719E-02-7.86331E-01 3.49616E-13-3.78009E-13
 -1      1895 2.90521E+01-1.61343E+00 8.32924E-02-1.86857E+00 2.12191E-13-3.05030E-13
 -1      1896 2.92235E+01-3.71808E+00-6.30561E-02-9.47580E-01 4.06224E-13-3.25847E-13
 -1      1897 2.77550E+01-9.71367E-01-2.75910E-02-2.52178E+00 7.21437E-14-3.34099E-13
 -1      1898 2.68707E+01-3.39694E-01 4.40040E-02-2.91282E+00 1.14103E-13-3.36235E-13
 -1      1899 2.63407E+01-1.89379E+00-2.96069E-02-2.98212E+00 1.51351E-13-1.97491E-13
 -1      1900 2.61169E+01-1.57853E-02-7.77276E-03-2.92375E+00 1.25394E-13-2.32796E-13
 -1      1901 2.51965E+01 2.71983E-01 9.28948E-03-2.85644E+00 8.84509E-14-3.11355E-13
 -1      1902 2.45250E+01-3.09833E-01-1.60568E-02-3.53720E+00 1.20980E-13-2.14028E-13
 -1      1903 2.47377E+01 3.65875E-01 8.81185E-03-2.60228E+00 1.23223E-13-3.59809E-13
 -1      1904 2.39154E+01 4.37092E-01-1.80105E-03-2.36190E+00 5.20677E-14-2.19537E-13
 -1      1905 2.34184E+01 4.29903E-01-8.08166E-03-3.22436E+00 7.90357E-14-1.90263E-13
 -1      1906 2.35910E+01 4.27096E-01 1.77771E-02-2.05410E+00 5.31172E-15-1.38171E-13
 -1      1907 2.29214E+01 4.06743E-01-2.26483E-03-1.79737E+00-4.64993E-14-1.50609E-13
 -1      1908 2.26491E+01 6.14460E-01-3.22701E-03-2.60653E+00 2.21819E-14-1.40440E-13
 -1      1909 2.26671E+01 3.65979E-01 1.96821E-02-1.52368E+00-1.13491E-13-8.64911E-14
 -1      1910 2.21550E+01 3.20618E-01 5.87349E-05-1.30858E+00-9.90180E-14-3.78023E-14
 -1      1911 2.20505E+01 5.59420E-01-1.07899E-03-1.97543E+00-2.63357E-14 4.82557E-15
 -1      1912 2.19616E+01 2.82479E-01 1.79922E-02-1.10342E+00-1.03082E-13-2.67886E-13
 -1      1913 2.15955E+01 2.38187E-01 1.05484E-03-9.46858E-01-4.83892E-14-3.18763E-13
 -1      1914 2.15764E+01 4.39622E-01-1.40134E-03-1.45367E+00-2.71382E-13-3.65412E-14
 -1      1915 2.14276E+01 2.03808E-01 1.39989E-02-7.83766E-01 1.77055E-14-2.95211E-13
 -1      1916 2.11482E+01 1.68265E-01 1.37140E-03-6.64962E-01-1.68702E-15-2.26110E-13
 -1      1917 2.11963E+01 3.25307E-01-4.63338E-04-1.05055E+00-3.58112E-14-1.42684E-13
 -1      1918 2.10183E+01 1.43254E-01 1.05858E-02-5.47917E-01 3.28730E-14-1.91389E-13
 -1      1919 2.08186E+01 1.16688E-01 1.39643E-03-4.64332E-01 1.03125E-14-8.10229E-14
 -1      1920 2.08870E+01 2.29574E-01-7.29782E-04-7.43639E-01 6.90728E-14-3.17600E-14
 -1      1921 2.07186E+01 9.92377E-02 7.63144E-03-3.81525E-01-6.61411E-14-3.44223E-15
 -1      1922 2.05771E+01 8.04324E-02 1.24288E-03-3.23458E-01-2.54701E-15-6.96164E-14
 -1      1923 2.06484E+01 1.59385E-01-8.57903E-04-5.23350E-01-5.93629E-14 6.79062E-14
 -1      1924 2.05013E+01 6.84849E-02 5.39252E-03-2.65291E-01-7.33281E-14-2.28412E-13
 -1      1925 2.04014E+01 5.54472E-02 1.03600E-03-2.25069E-01-1.08077E-13-1.39018E-13
 -1      1926 2.04672E+01 1.09971E-01-8.60866E-04-3.67246E-01-1.18373E-13 1.48311E-13
 -1      1927 2.03447E+01 4.72877E-02 3.75961E-03-1.84268E-01 7.01512E-14-2.76461E-13
 -1      1928 2.02748E+01 3.84523E-02 9.00734E-04-1.56366E-01 1.46320E-13-3.29482E-13
 -1      1929 2.03315E+01 7.59020E-02-7.76167E-04-2.57203E-01-1.24261E-13-1.41686E-13
 -1      1930 2.02348E+01 3.33525E-02 2.67002E-03-1.28979E-01 8.26997E-14-3.35895E-13
 -1      1931 2.01875E+01 2.73363E-02 7.13132E-04-1.10214E-01 5.02327E-14-2.74418E-13
 -1      1932 2.02329E+01 5.27591E-02-7.98448E-04-1.81025E-01 7.92899E-14-2.06023E-13
 -1      1933 2.01562E+01 2.34473E-02 1.84387E-03-8.94522E-02-6.30277E-14-3.81908E-13
 -1      1934 2.01214E+01 1.93249E-02 5.43694E-04-7.54428E-02-6.91772E-14-4.96882E-13
 -1      1935 2.01603E+01 3.75010E-02-5.43341E-04-1.27069E-01-6.43773E-14-4.15042E-13
 -1      1936 2.00989E+01 1.68419E-02 1.30443E-03-6.06047E-02 1.10999E-13-5.11065E-13
 -1      1937 2.00752E+01 1.40592E-02 4.50126E-04-5.04754E-02 1.31917E-13-5.69656E-13
 -1      1938 2.01060E+01 2.66268E-02-4.42156E-04-8.71894E-02 3.55771E-14-6.78968E-13
 -1      1939 2.00590E+01 1.25044E-02 8.90925E-04-3.95383E-02 2.56988E-14-4.70302E-13
 -1      1940 2.00435E+01 1.06701E-02 3.75339E-04-3.19226E-02-1.51253E-13-5.17601E-13
 -1      1941 2.00669E+01 1.95167E-02-3.78874E-04-5.84086E-02 8.80415E-14-6.36812E-13
 -1      1942 2.00322E+01 9.65429E-03 6.11725E-04-2.37334E-02-1.46603E-13-3.66994E-13
 -1      1943 2.00225E+01 8.40385E-03 2.82075E-04-1.78139E-02-1.48258E-13-2.62435E-13
 -1      1944 2.00393E+01 1.44455E-02-4.96938E-04-3.68760E-02-9.05013E-15-3.38306E-13
 -1      1945 2.00148E+01 7.79176E-03 4.85243E-04-1.16380E-02-2.01458E-13-3.32001E-13
 -1      1946 2.00090E+01 5.99101E-03 1.70684E-05-7.12138E-03 1.20969E-14-3.37338E-13
 -1      1947 2.00207E+01 1.09689E-02-4.25835E-04-2.03018E-02-2.67383E-13-2.77604E-13
 -1      1948 1.96148E+01 1.39655E-01 7.40556E-03 2.54187E-01 1.30951E-13 6.02031E-13
 -1      1949 1.98783E+01 2.05929E-01 1.51924E-02 4.27629E-01 1.52246E-13 6.57788E-13
 -1      1950 2.01029E+01 3.65149E-01 6.06569E-03 6.52079E-01 1.86712E-13 5.10783E-13
 -1      1951 1.15024E+01-4.80755E+00-9.20591E-02 7.64858E+00 3.72591E-13 3.83419E-13
 -1      1952 7.42420E+00-6.59410E+00-3.55985E-01 6.32238E+00 2.98650E-13 4.79186E-13
 -1      1953 1.93773E+01 7.21605E-02 6.70106E-03 4.92551E-02 1.09871E-13 5.06865E-13
 -1      1954 1.94868E+01 1.03596E-01 1.36867E-02 1.39104E-01 9.50212E-14 5.44839E-13
 -1      1955 1.97126E+01 1.72357E-01 1.02378E-03 2.53366E-01 1.31687E-13 4.25078E-13
 -1      1956 1.92946E+01 3.80605E-02 4.48104E-03-5.84303E-02 1.32030E-14 4.70615E-13
 -1      1957 1.93205E+01 5.37858E-02 8.36554E-03-9.77521E-03 6.49914E-14 4.94996E-13
 -1      1958 1.95166E+01 8.29017E-02-2.58530E-03 3.50374E-02 9.10201E-14 3.55108E-13
 -1      1959 1.93037E+01 1.90544E-02 2.99763E-03-1.15361E-01-2.70725E-14 4.26999E-13
 -1      1960 1.92827E+01 2.76348E-02 4.46114E-03-8.87084E-02-4.11075E-15 4.43601E-13
 -1      1961 1.94446E+01 4.08152E-02-3.04375E-03-8.20802E-02 1.06525E-14 3.03471E-13
 -1      1962 1.93663E+01 8.28420E-03 2.19133E-03-1.43342E-01 6.26316E-14 3.92245E-13
 -1      1963 1.93196E+01 1.30465E-02 2.31919E-03-1.29184E-01-7.23000E-16 3.95992E-13
 -1      1964 1.94502E+01 1.81885E-02-2.48330E-03-1.44069E-01 1.03022E-14 2.45844E-13
 -1      1965 1.94586E+01 2.40255E-03 1.70416E-03-1.54984E-01 5.76723E-14 3.90170E-13
 -1      1966 1.93987E+01 4.88946E-03 1.17490E-03-1.48000E-01 7.46145E-14 4.04286E-13
 -1      1967 1.95012E+01 5.84571E-03-1.88699E-03-1.74784E-01 7.71783E-14 2.28007E-13
 -1      1968 1.95666E+01-5.08049E-04 1.35952E-03-1.57838E-01 5.11955E-14 3.33906E-13
 -1      1969 1.95006E+01 6.21893E-04 5.44346E-04-1.54803E-01 3.97180E-14 3.93410E-13
 -1      1970 1.95786E+01-5.08564E-04-1.40474E-03-1.87867E-01 6.17775E-14 2.77058E-13
 -1      1971 1.96821E+01-1.72571E-03 1.08290E-03-1.56405E-01 5.59929E-14 3.16944E-13
 -1      1972 1.96139E+01-1.33052E-03 1.85015E-04-1.55367E-01 5.73533E-14 3.31572E-13
 -1      1973 1.96707E+01-3.34959E-03-1.05831E-03-1.91451E-01 7.64759E-14 2.46519E-13
 -1      1974 1.98004E+01-2.25279E-03 8.27756E-04-1.53043E-01 6.73678E-14 3.43983E-13
 -1      1975 1.97321E+01-2.11205E-03-2.92395E-05-1.52973E-01 5.59923E-14 3.30833E-13
 -1      1976 1.97707E+01-4.38514E-03-8.18203E-04-1.90249E-01 6.79759E-14 2.48530E-13
 -1      1977 1.99185E+01-3.00428E-03 5.50151E-04-1.48347E-01 8.38530E-14 3.45135E-13
 -1      1978 1.98516E+01-2.69899E-03-1.79960E-04-1.49001E-01 6.73471E-14 3.66756E-13
 -1      1979 1.98743E+01-5.01171E-03-6.46300E-04-1.86442E-01 8.16820E-14 2.32846E-13
 -1      1980 2.00336E+01-4.90524E-03 2.04648E-04-1.41247E-01 3.02516E-14 2.92541E-13
 -1      1981 1.99694E+01-4.03911E-03-3.30042E-04-1.43143E-01 6.73848E-14 3.33718E-13
 -1      1982 1.99784E+01-6.54559E-03-5.03360E-04-1.80039E-01 1.04510E-13 2.41998E-13
 -1      1983 2.01419E+01-8.91113E-03-2.51479E-04-1.28994E-01-2.36699E-14 3.27697E-13
 -1      1984 2.00827E+01-7.10964E-03-5.31859E-04-1.33449E-01-4.34139E-14 2.97353E-13
 -1      1985 2.00802E+01-1.03233E-02-3.47946E-04-1.68968E-01-1.97733E-14 2.70888E-13
 -1      1986 2.02371E+01-1.59310E-02-8.47307E-04-1.07189E-01-4.76594E-14 3.44433E-13
 -1      1987 2.01865E+01-1.28872E-02-8.26868E-04-1.16322E-01-3.12952E-14 3.08357E-13
 -1      1988 2.01754E+01-1.76757E-02-1.34387E-04-1.49102E-01-1.36366E-14 2.30994E-13
 -1      1989 2.03095E+01-2.66084E-02-1.58014E-03-7.00444E-02 7.79138E-14 2.09486E-13
 -1      1990 2.02734E+01-2.21931E-02-1.23945E-03-8.66721E-02 1.78574E-14 2.78504E-13
 -1      1991 2.02578E+01-2.97341E-02 1.87329E-04-1.14430E-01 5.44871E-14 1.44198E-13
 -1      1992 2.03452E+01-4.09150E-02-2.39254E-03-1.11741E-02 1.55247E-13 1.54855E-13
 -1      1993 2.03317E+01-3.53642E-02-1.76580E-03-3.84490E-02 8.96128E-14 1.82904E-13
 -1      1994 2.03178E+01-4.70051E-02 6.66155E-04-5.76534E-02 1.59527E-13 1.27577E-13
 -1      1995 2.03265E+01-5.75624E-02-3.15273E-03 7.47632E-02 3.51334E-14 1.71674E-13
 -1      1996 2.03458E+01-5.17231E-02-2.35946E-03 3.41386E-02 1.40370E-13 1.82123E-13
 -1      1997 2.03423E+01-6.86794E-02 1.33481E-03 2.84206E-02 1.16495E-13 7.24183E-14
 -1      1998 2.02337E+01-7.33627E-02-3.65450E-03 1.89351E-01-1.09630E-13 2.29508E-13
 -1      1999 2.02967E+01-6.89163E-02-2.91833E-03 1.34439E-01-8.84171E-14 1.96044E-13
 -1      2000 2.03152E+01-9.17566E-02 2.18157E-03 1.48350E-01-5.96426E-14 1.42217E-13
 -1      2001 2.00485E+01-8.28891E-02-3.65944E-03 3.26786E-01-8.91925E-14 2.36417E-13
 -1      2002 2.01647E+01-8.23693E-02-3.27940E-03 2.60187E-01-1.10123E-13 1.97645E-13
 -1      2003 2.02187E+01-1.10307E-01 3.10939E-03 3.00312E-01-1.03780E-13 1.13911E-13
 -1      2004 1.97607E+01-7.90516E-02-3.00026E-03 4.70312E-01 6.47275E-14 2.26773E-13
 -1      2005 1.99341E+01-8.53770E-02-3.23441E-03 3.99911E-01-2.49171E-14 2.74987E-13
 -1      2006 2.00380E+01-1.15528E-01 3.89355E-03 4.71704E-01-2.76324E-14 5.69759E-14
 -1      2007 1.93762E+01-5.52493E-02-1.71680E-03 5.90844E-01 2.08364E-13 6.88356E-14
 -1      2008 1.96013E+01-7.05433E-02-2.57063E-03 5.30469E-01 1.68813E-13 2.42639E-13
 -1      2009 1.97667E+01-9.75351E-02 4.17245E-03 6.35818E-01 1.59441E-13 1.23395E-13
 -1      2010 1.89246E+01-9.15529E-03-1.44781E-04 6.50702E-01-5.06694E-14 9.24807E-14
 -1      2011 1.91828E+01-3.30112E-02-1.14768E-03 6.18274E-01 1.00946E-13 8.88924E-14
 -1      2012 1.94156E+01-4.94391E-02 3.54387E-03 7.52587E-01 1.03090E-13 1.07634E-13
 -1      2013 1.84627E+01 5.33103E-02 1.16625E-03 6.14436E-01-1.64122E-14 5.58199E-14
 -1      2014 1.87215E+01 2.52471E-02 9.95916E-04 6.26713E-01-1.27503E-13-1.86188E-14
 -1      2015 1.90186E+01 2.71070E-02 1.79167E-03 7.76646E-01-3.02015E-14 6.96470E-14
 -1      2016 1.80675E+01 1.16796E-01 1.75103E-03 4.64863E-01-1.81962E-13 2.47075E-13
 -1      2017 1.82854E+01 9.25461E-02 3.55504E-03 5.29828E-01-4.87921E-14 1.61370E-13
 -1      2018 1.86343E+01 1.17890E-01-8.29624E-04 6.73383E-01-8.75814E-14 1.78645E-13
 -1      2019 1.78191E+01 1.60895E-01 1.56567E-03 2.16983E-01-7.75638E-14 3.61356E-13
 -1      2020 1.79546E+01 1.49279E-01 5.94394E-03 3.27514E-01-1.27442E-13 2.67743E-13
 -1      2021 1.83360E+01 1.97827E-01-3.47469E-03 4.38038E-01-1.38069E-13 1.71144E-13
 -1      2022 1.77741E+01 1.69471E-01 1.04174E-03-8.02838E-02 4.53405E-14 4.00408E-13
 -1      2023 1.77985E+01 1.75673E-01 7.43331E-03 5.32487E-02-1.08004E-14 4.01821E-13
 -1      2024 1.81904E+01 2.40147E-01-5.06594E-03 1.07094E-01-4.81134E-14 2.44106E-13
 -1      2025 1.79447E+01 1.39383E-01 7.62729E-04-3.59389E-01 1.84045E-14 2.81114E-13
 -1      2026 1.78519E+01 1.61863E-01 7.45873E-03-2.33402E-01 8.37611E-14 4.12946E-13
 -1      2027 1.82327E+01 2.29224E-01-4.99387E-03-2.48516E-01 1.01956E-13 2.66203E-13
 -1      2028 1.82928E+01 8.22278E-02 1.01929E-03-5.59827E-01 2.73843E-14 2.33206E-13
 -1      2029 1.81018E+01 1.13362E-01 5.93111E-03-4.68213E-01-8.02700E-15 2.33965E-13
 -1      2030 1.84528E+01 1.68992E-01-3.52559E-03-5.48524E-01 5.82720E-14 3.19289E-13
 -1      2031 1.87447E+01 1.78646E-02 1.64878E-03-6.49848E-01 3.25976E-14 3.12965E-13
 -1      2032 1.84932E+01 4.79035E-02 3.31425E-03-6.06348E-01 7.81393E-14 2.58942E-13
 -1      2033 1.87989E+01 8.08561E-02-1.56497E-03-7.33719E-01 9.82387E-14 2.91838E-13
 -1      2034 1.92177E+01-3.55181E-02 2.23126E-03-6.32788E-01-9.71996E-14 1.91892E-13
 -1      2035 1.89496E+01-1.39599E-02 4.06454E-04-6.35788E-01-2.78763E-14 1.79529E-13
 -1      2036 1.91989E+01-7.39595E-03-1.46865E-05-7.84637E-01 1.15218E-14 1.99290E-13
 -1      2037 1.96434E+01-6.80829E-02 2.45481E-03-5.37770E-01 2.93279E-14 3.05125E-14
 -1      2038 1.93968E+01-5.78076E-02-2.03474E-03-5.74678E-01-3.37111E-14 1.25516E-13
 -1      2039 1.95848E+01-7.38834E-02 7.72908E-04-7.20257E-01 2.62524E-14 3.57819E-14
 -1      2040 1.99806E+01-7.91850E-02 2.24876E-03-4.03399E-01-4.69368E-14 1.02548E-13
 -1      2041 1.97803E+01-7.89100E-02-3.57139E-03-4.57726E-01-4.39917E-14 3.96161E-14
 -1      2042 1.99087E+01-1.09304E-01 9.21820E-04-5.82016E-01-3.19120E-14-7.30798E-14
 -1      2043 2.02153E+01-7.41184E-02 1.74303E-03-2.63867E-01-4.78177E-14 2.82457E-13
 -1      2044 2.00715E+01-8.04336E-02-4.14419E-03-3.21079E-01-2.38342E-14 2.52168E-13
 -1      2045 2.01481E+01-1.16016E-01 7.31729E-04-4.14854E-01-7.54678E-14 5.47630E-14
 -1      2046 2.03540E+01-6.00072E-02 1.14164E-03-1.41962E-01 3.09619E-13 1.94648E-13
 -1      2047 2.02649E+01-6.92849E-02-3.95133E-03-1.92352E-01 3.91896E-14 2.46628E-13
 -1      2048 2.03012E+01-1.02860E-01 4.61913E-04-2.54137E-01 1.21151E-13 1.69129E-13
 -1      2049 2.04143E+01-4.29901E-02 6.01958E-04-4.84070E-02 1.79509E-13 1.59529E-13
 -1      2050 2.03712E+01-5.24737E-02-3.29118E-03-8.73343E-02 2.48947E-13 2.80464E-13
 -1      2051 2.03796E+01-7.98592E-02 2.38959E-04-1.20856E-01 2.83099E-13 3.26460E-13
 -1      2052 2.04180E+01-2.70936E-02 2.03816E-04 1.52532E-02-1.23679E-13 1.51768E-13
 -1      2053 2.04090E+01-3.51879E-02-2.44364E-03-1.14263E-02 4.39273E-14 1.15022E-13
 -1      2054 2.04006E+01-5.49383E-02 9.15086E-05-2.29467E-02 6.54854E-14 3.75325E-13
 -1      2055 2.03852E+01-1.42968E-02-4.09813E-05 5.28703E-02 5.53434E-14 2.19239E-13
 -1      2056 2.03987E+01-2.03805E-02-1.61003E-03 3.69441E-02-7.34716E-14 1.59700E-13
 -1      2057 2.03823E+01-3.29163E-02 4.31125E-06 4.06750E-02-7.81919E-14 2.81774E-13
 -1      2058 2.03326E+01-5.10535E-03-1.59123E-04 7.05204E-02-1.31074E-13 1.80414E-13
 -1      2059 2.03588E+01-9.18993E-03-9.04663E-04 6.28931E-02-2.00683E-14 1.79531E-13
 -1      2060 2.03404E+01-1.58806E-02-4.66285E-05 7.58722E-02-4.17338E-14 1.32195E-13
 -1      2061 2.02726E+01 8.18477E-04-1.89637E-04 7.44243E-02 2.97512E-15 3.67173E-13
 -1      2062 2.03041E+01-1.59827E-03-3.71084E-04 7.25510E-02-6.62670E-14 2.77647E-13
 -1      2063 2.02873E+01-4.07705E-03-7.84825E-05 9.00711E-02-1.42303E-13 2.06265E-13
 -1      2064 2.02131E+01 4.17367E-03-1.68379E-04 6.98696E-02-6.80699E-14 2.91552E-13
 -1      2065 2.02450E+01 2.99049E-03-6.50240E-06 7.15711E-02-6.35513E-14 3.37863E-13
 -1      2066 2.02317E+01 3.22926E-03-9.99853E-05 9.03051E-02-2.67593E-14 2.39264E-13
 -1      2067 2.01592E+01 5.72230E-03-1.21781E-04 6.08299E-02-1.17124E-13 2.30498E-13
 -1      2068 2.01884E+01 5.35795E-03 2.16124E-04 6.44593E-02-3.12320E-14 2.91417E-13
 -1      2069 2.01791E+01 7.13530E-03-1.14472E-04 8.22908E-02-1.91950E-14 2.05368E-13
 -1      2070 2.01131E+01 6.14072E-03-6.65923E-05 4.99860E-02 1.79461E-13 2.68785E-13
 -1      2071 2.01381E+01 6.25308E-03 3.31934E-04 5.44287E-02 1.79213E-15 2.42192E-13
 -1      2072 2.01326E+01 8.73960E-03-1.23093E-04 7.01798E-02 5.63576E-14 3.19869E-13
 -1      2073 2.00756E+01 5.96705E-03-1.31029E-05 3.89298E-02 9.66923E-14 2.09289E-13
 -1      2074 2.00959E+01 6.29905E-03 3.73992E-04 4.35260E-02 1.03729E-13 2.84911E-13
 -1      2075 2.00935E+01 8.97640E-03-1.26941E-04 5.66779E-02 6.19264E-14 4.13167E-13
 -1      2076 2.00467E+01 5.58626E-03 2.83705E-05 2.84214E-02 9.09055E-14 3.49135E-13
 -1      2077 2.00623E+01 5.96752E-03 3.67340E-04 3.28662E-02 4.40500E-14 2.66300E-13
 -1      2078 2.00622E+01 8.56277E-03-1.28215E-04 4.33161E-02 6.27848E-14 5.01364E-13
 -1      2079 2.00257E+01 5.21421E-03 4.42864E-05 1.87037E-02-4.81782E-14 3.16060E-13
 -1      2080 2.00368E+01 5.55444E-03 3.23517E-04 2.29143E-02 1.04619E-13 3.67733E-13
 -1      2081 2.00382E+01 7.95711E-03-1.34682E-04 3.07910E-02 9.43670E-14 4.42542E-13
 -1      2082 2.00118E+01 4.86971E-03 1.12042E-04 9.90744E-03-2.79302E-13 1.87377E-13
 -1      2083 2.00188E+01 5.13017E-03 2.42603E-04 1.37954E-02-2.47182E-13 2.44991E-13
 -1      2084 2.00207E+01 7.37968E-03-1.28137E-04 1.93389E-02-2.12105E-13 5.16843E-13
 -1      2085 2.00049E+01 4.18238E-03 1.86716E-04 4.22209E-03 5.91225E-14 1.68323E-13
 -1      2086 2.00087E+01 4.90821E-03 1.69747E-04 7.42146E-03-2.25633E-13 1.90152E-13
 -1      2087 2.00105E+01 7.02295E-03-9.25080E-05 1.11268E-02-1.55256E-13 4.08421E-13
 -1      2088 2.00051E+01 5.99523E-03 2.32039E-05 5.84490E-03 6.02635E-14 1.90113E-13
 -1      2089 2.00013E+01 4.31770E-02-9.67291E-05 2.39115E-02 1.39521E-14-3.83632E-13
 -1      2090 2.00029E+01 3.54444E-02 1.94450E-04 2.26144E-02-7.64067E-14-3.67431E-13
 -1      2091 2.00042E+01 2.75774E-02-5.26132E-06 2.01115E-02 5.92289E-15-4.17903E-13
 -1      2092 2.00054E+01 2.09707E-02 2.09918E-04 1.71927E-02 1.13611E-13-5.90218E-14
 -1      2093 2.00054E+01 3.41463E-02-5.71352E-05 2.80326E-02-1.79547E-13-4.30082E-13
 -1      2094 2.00055E+01 1.53351E-02 5.63800E-05 1.34252E-02 8.92049E-14 1.01111E-13
 -1      2095 2.00058E+01 1.04274E-02 1.65409E-04 9.87189E-03 6.18546E-14 2.09097E-13
 -1      2096 2.00084E+01 1.11558E-02 9.80934E-05 1.25620E-02-3.47352E-14 1.22906E-13
 -1      2097 2.00078E+01 2.09401E-02-1.17933E-04 2.08753E-02-7.69771E-14 3.03070E-14
 -1      2098 1.99983E+01 5.89368E-02-1.99924E-04 2.39025E-02-1.90444E-13-2.79541E-13
 -1      2099 1.99999E+01 5.11858E-02 9.96683E-05 2.43346E-02-9.02719E-14-2.82298E-13
 -1      2100 2.00010E+01 4.99066E-02 2.63463E-05 3.12159E-02-1.09829E-13-4.16756E-13
 -1      2101 1.99954E+01 7.33656E-02-2.94613E-04 2.00461E-02 7.03743E-14 3.19124E-14
 -1      2102 1.99969E+01 6.65139E-02-1.74354E-05 2.21488E-02-1.04314E-13 1.19793E-13
 -1      2103 1.99965E+01 6.54466E-02 1.22599E-04 2.96755E-02-1.03186E-13-1.48343E-14
 -1      2104 1.99933E+01 8.41579E-02-3.55312E-04 1.28528E-02 1.55816E-13 1.42870E-13
 -1      2105 1.99943E+01 7.94367E-02-1.36602E-04 1.63132E-02 1.53879E-13 6.83529E-14
 -1      2106 1.99926E+01 7.90848E-02 2.25212E-04 2.34581E-02 8.16764E-14 1.80936E-13
 -1      2107 1.99921E+01 8.96798E-02-3.65608E-04 3.35388E-03-6.37957E-14 5.89637E-14
 -1      2108 1.99926E+01 8.78925E-02-2.38129E-04 7.65837E-03 5.50341E-14-1.58063E-14
 -1      2109 1.99897E+01 8.88983E-02 3.12298E-04 1.33677E-02 2.74721E-14-1.93588E-14
 -1      2110 1.99921E+01 8.89627E-02-3.15398E-04-7.00400E-03-9.54411E-14-1.37567E-13
 -1      2111 1.99919E+01 9.04746E-02-3.08004E-04-2.53854E-03-1.55759E-13 5.69339E-14
 -1      2112 1.99884E+01 9.34379E-02 3.66509E-04 8.23537E-04-2.79695E-13-5.67045E-15
 -1      2113 1.99936E+01 8.19310E-02-2.07459E-04-1.64879E-02 1.41627E-13 1.40771E-13
 -1      2114 1.99927E+01 8.65773E-02-3.33850E-04-1.26463E-02-9.01183E-14 1.13119E-13
 -1      2115 1.99890E+01 9.18562E-02 3.73938E-04-1.22592E-02-9.97161E-14-4.55233E-14
 -1      2116 1.99963E+01 6.97747E-02-5.29980E-05-2.32341E-02 1.79092E-13-2.67000E-13
 -1      2117 1.99947E+01 7.66813E-02-3.16190E-04-2.08008E-02 1.22893E-13-1.81071E-13
 -1      2118 1.99916E+01 8.42167E-02 3.34827E-04-2.36003E-02-1.11851E-14-1.33198E-13
 -1      2119 2.00000E+01 5.39009E-02 1.14709E-04-2.59990E-02 2.62663E-13 1.66985E-13
 -1      2120 1.99979E+01 6.21492E-02-2.54242E-04-2.54854E-02 1.41996E-13 4.55452E-14
 -1      2121 1.99960E+01 7.13848E-02 2.36658E-04-3.11634E-02 1.35837E-13-1.12948E-13
 -1      2122 2.00039E+01 3.69027E-02 2.56785E-04-2.36984E-02 2.77466E-13 3.34161E-13
 -1      2123 2.00020E+01 4.49655E-02-1.39769E-04-2.55189E-02 3.10819E-13 1.32347E-13
 -1      2124 2.00016E+01 5.48971E-02 1.14004E-04-3.34112E-02 2.78374E-13 8.75039E-14
 -1      2125 2.00068E+01 2.15189E-02 2.95594E-04-1.74487E-02 5.86841E-14-4.32182E-13
 -1      2126 2.00052E+01 2.81441E-02-5.79467E-05-2.07018E-02 1.10180E-13-5.16463E-14
 -1      2127 2.00063E+01 3.72527E-02-2.09662E-04-2.92842E-02-1.26794E-15 5.34934E-14
 -1      2128 2.07272E+01-2.38078E+00 4.25283E-02 7.80884E+00 5.67102E-13 6.22946E-13
 -1      2129 1.62669E+01-4.51420E+00-2.14079E-01 7.15042E+00 5.77982E-13 2.99261E-13
 -1      2130 2.00038E+01 4.48276E-03 4.43051E-04-1.51484E-03 3.06536E-13-2.04296E-13
 -1      2131 2.15239E+01 1.76862E+00 7.84144E-02-2.36675E+00-2.29844E-13-1.93595E-15
 -1      2132 8.43554E-02-7.55900E+00-3.71700E-01 2.17646E+00 5.40956E-13-8.96505E-14
 -1      2133-2.57893E-01-8.21595E+00-4.55197E-01 6.68631E-01 4.69014E-13-1.93068E-13
 -1      2134 1.95281E+01 4.01748E+00-2.57127E-02-1.69692E+00-9.63513E-14-3.86621E-13
 -1      2135 1.96550E+01 3.94341E+00-2.42432E-02-1.95231E+00-1.34759E-13-3.64826E-13
 -1      2136 1.99760E+01 3.25319E+00-8.20353E-03-1.90450E+00-1.56433E-13-3.27016E-13
 -1      2137 1.96994E+01 3.58597E+00-9.30882E-03-1.51256E+00-9.61557E-14-3.72024E-13
 -1      2138 2.93618E+01-1.31026E-01 7.45208E-02 6.07270E+00 3.93574E-13 2.64566E-13
 -1      2139 2.43617E+01-1.53903E+00-9.63277E-02 6.58101E+00 5.00044E-13 4.83003E-13
 -1      2140 2.47948E+01-3.64724E+00 7.60266E-02 6.23263E+00 3.78197E-13 2.79110E-13
 -1      2141 3.71346E+01 4.03904E+00 3.66663E-01 4.06872E+00 4.33514E-13 7.38298E-14
 -1      2142 3.24735E+01 2.05475E+00-1.50963E-02 4.00669E+00 3.12500E-13 1.08691E-13
 -1      2143 4.18409E+01 6.63128E+00 4.05957E-01 2.32790E+00 5.64992E-13-5.77316E-14
 -1      2144 3.88121E+01 5.73711E+00 1.92967E-01 3.51790E+00 5.27967E-13 3.13638E-14
 -1      2145 4.11098E+01 8.09268E+00 1.95876E-01-2.09173E-01 3.89688E-13-4.81316E-14
 -1      2146 4.25919E+01 7.66918E+00 4.83779E-01 1.31444E+00 5.00378E-13-4.16611E-14
 -1      2147 3.80093E+01 7.96022E+00 3.65364E-01 2.96116E-01 5.18807E-13-1.50824E-13
 -1      2148 4.07463E+01 6.92919E+00 3.67498E-01-2.19205E+00 6.25666E-13-7.57172E-14
 -1      2149 4.08378E+01 7.63902E+00 1.96508E-01-6.50533E-01 5.10869E-13 1.97065E-14
 -1      2150 3.61259E+01 4.27807E+00 1.49193E-01-4.38491E+00 5.33802E-13-3.04201E-13
 -1      2151 3.94353E+01 5.36162E+00 3.01884E-01-3.32769E+00 5.28300E-13-2.00284E-13
 -1      2152 2.91686E+01 8.48037E-01-4.42619E-02-5.91523E+00 6.57863E-13-2.55573E-13
 -1      2153 3.39398E+01 2.53125E+00 2.71435E-01-5.67236E+00 6.02504E-13-1.91513E-13
 -1      2154 2.09586E+01-2.58301E+00-2.00368E-01-6.94418E+00 5.64826E-13-4.62685E-13
 -1      2155 2.59542E+01-5.54414E-01 1.42133E-01-7.35916E+00 5.97133E-13-3.55438E-13
 -1      2156 1.24484E+01-5.30491E+00-3.16888E-01-6.93700E+00 5.26135E-13-5.28369E-13
 -1      2157 1.68617E+01-3.14919E+00-1.48281E-02-7.85303E+00 5.74318E-13-5.50116E-13
 -1      2158 5.09964E+00-7.20434E+00-4.27448E-01-5.55939E+00 2.48801E-13-7.96974E-13
 -1      2159 8.50961E+00-5.38726E+00-1.46990E-01-6.93333E+00 4.77174E-13-7.11098E-13
 -1      2160 6.57391E-01-7.95853E+00-4.29247E-01-3.08144E+00-3.32512E-14-9.79161E-13
 -1      2161 2.28473E+00-7.17486E+00-3.32738E-01-4.41243E+00 2.33535E-13-9.09717E-13
 -1      2162 1.57367E-01-7.51979E+00-3.50890E-01 2.76640E-01-1.11328E-13-7.76934E-13
 -1      2163-6.59936E-02-7.52380E+00-3.68240E-01-1.29777E+00 5.51642E-14-9.27036E-13
 -1      2164 4.35168E+00-6.60613E+00-2.10588E-01 3.84285E+00-2.80387E-13-5.82367E-13
 -1      2165 1.89355E+00-7.38123E+00-3.62180E-01 2.15372E+00-1.02862E-13-6.15286E-13
 -1      2166 1.19108E+01-6.51533E+00-2.85159E-01 5.60765E+00-5.18030E-13-1.12042E-13
 -1      2167 7.74094E+00-7.65456E+00-4.53157E-01 4.63074E+00-2.96929E-13-2.94292E-13
 -1      2168 2.26821E+01-5.17852E+00-1.58489E-01 5.71617E+00-4.03011E-13 4.45199E-14
 -1      2169 1.62709E+01-6.67940E+00-4.93122E-01 5.13313E+00-5.11369E-13 1.41553E-14
 -1      2170 1.72008E+01-6.73549E+00-1.25392E-01 5.91154E+00-1.71863E-13 1.09503E-13
 -1      2171 3.42288E+01-2.36160E+00 1.17046E-01 3.14127E+00-3.83971E-13-6.57252E-14
 -1      2172 2.83648E+01-4.35667E+00-2.40390E-01 3.34640E+00-3.69926E-13-1.44329E-14
 -1      2173 4.06973E+01 1.23170E+00 2.48422E-01-1.01328E-01-4.46754E-13 9.20375E-14
 -1      2174 3.68883E+01-6.98041E-01 3.94702E-02 1.12122E+00-4.41994E-13-7.61613E-14
 -1      2175 3.56917E+01-2.68788E+00 2.10331E-01-7.23785E-01-3.19217E-13 1.48104E-13
 -1      2176 4.47545E+01 5.43122E+00 5.19361E-01-9.50004E-01-6.26665E-13 3.88800E-13
 -1      2177 4.24310E+01 3.72695E+00 3.12104E-01-8.40201E-01-5.17864E-13 2.36033E-13
 -1      2178 3.92750E+01 1.70163E+00 3.45672E-01-2.76013E+00-5.43926E-13 2.09388E-13
 -1      2179 4.49270E+01 6.78370E+00 6.23779E-01-3.46709E-01-7.90368E-13 3.61364E-13
 -1      2180 4.39694E+01 6.20738E+00 3.85161E-01-7.21600E-01-7.69718E-13 3.22631E-13
 -1      2181 4.30127E+01 4.35006E+00 4.16459E-01 3.18967E-01-5.75817E-13 6.15064E-13
 -1      2182 4.47060E+01 5.53666E+00 4.63500E-01 8.96490E-01-7.10543E-13 3.50164E-13
 -1      2183 3.62950E+01-4.59433E-01-3.44101E-02-1.90801E+00-3.23352E-13 8.49432E-13
 -1      2184 4.20773E+01 1.62810E+00 4.60680E-01-1.26070E+00-4.34042E-13 8.80851E-13
 -1      2185 2.63501E+01-4.41606E+00-3.27797E-01-4.01820E+00-1.52767E-13 9.11049E-13
 -1      2186 3.29689E+01-2.34995E+00 1.30156E-01-4.05418E+00-3.55271E-13 9.73888E-13
 -1      2187 1.47198E+01-6.90364E+00-5.30821E-01-5.11770E+00 3.53495E-13 9.12104E-13
 -1      2188 2.09077E+01-5.05929E+00-1.40231E-01-5.97637E+00 8.95950E-14 1.12804E-12
 -1      2189 6.71557E+00-7.52291E+00-3.87254E-01-4.39777E+00 5.82978E-13 8.41632E-13
 -1      2190 1.07699E+01-6.57863E+00-2.48814E-01-5.53931E+00 3.47056E-13 1.12074E-12
 -1      2191 6.61126E-01-8.04225E+00-4.70311E-01-1.12046E+00 4.12559E-13-2.19658E-13
 -1      2192 2.59916E+00-6.93759E+00-3.00065E-01-2.93411E+00 4.06564E-13 3.22520E-13
 -1      2193 3.89807E+00-6.53108E+00-2.68708E-01 5.35751E+00 4.47975E-13 2.51188E-13
 -1      2194 1.61677E+00-7.81110E+00-4.45237E-01 3.90270E+00 4.94493E-13-4.29656E-14
 -1      2195 2.00076E+01 7.90648E-03 1.25159E-04-7.22814E-03 7.07577E-14-2.07763E-13
 -1      2196 1.52978E+00-4.97037E+00-1.95597E-01-7.31219E-01 1.85046E-13-1.00364E-13
 -1      2197 3.95358E+01 6.12241E+00 3.33869E-01 1.13484E+00-7.81264E-13-4.36873E-14
 -1      2198 7.49096E+00-5.35773E+00-1.01568E-01 7.00165E+00 1.25011E-13 2.48024E-13
 -1      2199 2.07399E+01 1.12025E+00-2.40769E-02-1.63312E+00-2.28973E-13-6.07760E-14
 -1      2200 2.06317E+01 1.35030E+00-1.80669E-02-1.69451E+00-2.38875E-13-1.36122E-13
 -1      2201 3.31271E+01-2.58995E+00-1.08573E-02-2.96582E+00-6.47555E-14 1.67935E-13
 -1      2202 3.30763E+01-1.37918E+00-2.98766E-02-4.03346E+00-1.66769E-13 2.30788E-13
 -1      2203 3.50148E+01 1.21639E+00-1.73559E-01-4.10811E+00-4.68459E-13 1.96704E-13
 -1      2204 3.47491E+01 3.01759E+00-1.59425E-01-3.47042E+00-6.22724E-13-5.63438E-14
 -1      2205 3.74205E+01 1.71261E+00 1.90996E-02 3.60217E+00-3.04479E-13-4.47975E-14
 -1      2206 1.61839E+01-5.27376E+00-2.06571E-02 7.78764E+00 2.45692E-13 3.45848E-13
 -1      2207 3.90594E+01 8.33048E+00 2.83815E-01-1.80365E-01 3.52829E-13-2.35229E-14
 -1      2208 3.53547E+01 8.65406E+00-1.56365E-02 1.53952E-01 3.26905E-13-1.97361E-13
 -1      2209 3.52784E+01 8.23725E+00 2.19770E-02 1.11708E-01 4.64628E-13-1.21861E-13
 -1      2210 3.14796E+01-2.01556E-01 1.28204E-01 3.19072E+00 3.26905E-13-3.60267E-14
 -1      2211 2.00086E+01 1.23114E-02 7.99710E-05-1.14987E-02 7.76910E-14-2.71283E-13
 -1      2212 2.00904E+00-5.30244E+00-2.10473E-01 3.64674E+00 2.46525E-13-1.00864E-13
 -1      2213 6.91026E+00-5.55745E+00-1.22158E-01-4.71453E+00 3.50386E-13 7.12763E-13
 -1      2214 1.58702E+01-6.73060E+00-1.78196E-01-5.96694E+00 4.69513E-13 1.04688E-12
 -1      2215 2.61983E+01-6.10135E+00-6.08949E-02-4.17157E+00 2.39031E-13 8.97615E-13
 -1      2216 3.52781E+01-2.75662E+00 1.22776E-01-1.30856E-01-7.39131E-14 6.46372E-13
 -1      2217 4.00394E+01 5.48449E+00 3.98713E-01-1.91391E+00-7.25864E-13 1.15352E-13
 -1      2218 2.77396E+01-5.83457E+00-3.22175E-03 3.51728E+00-1.64591E-13 1.63425E-13
 -1      2219 8.30930E+00-5.78711E+00-1.60699E-01 5.20252E+00 1.77636E-14-3.54217E-13
 -1      2220 2.62969E+00-4.58038E+00-1.30208E-01 1.95575E+00 1.13604E-13-7.21978E-13
 -1      2221 1.42202E+00-5.12763E+00-2.18364E-01-2.52452E+00 6.84591E-14-9.92706E-13
 -1      2222 5.37077E+00-5.45814E+00-1.73623E-01-6.24670E+00 1.73195E-14-8.91842E-13
 -1      2223 1.27374E+01-5.48744E+00-8.27426E-02-7.76781E+00 1.62537E-13-4.77063E-13
 -1      2224 2.14230E+01-4.34274E+00 2.77163E-02-7.15195E+00 2.54075E-13-2.45304E-13
 -1      2225 2.89384E+01-1.66861E+00 1.38471E-01-4.81973E+00 3.78503E-13 3.96905E-14
 -1      2226 3.41964E+01 2.40720E+00 2.49963E-01-2.36869E+00 4.79700E-13-2.87548E-14
 -1      2227 3.16401E+01-4.02657E+00-6.35626E-02-9.72350E-01-1.92138E-14 1.80383E-13
 -1      2228 2.00127E+01 1.95399E-02 1.98574E-04-1.99095E-02-1.37837E-13-4.15559E-13
 -1      2229 3.56313E+01 4.52655E+00 1.87407E-01 8.83073E-01 4.30350E-13-2.56906E-13
 -1      2230 3.70648E+01 6.36750E+00 3.19506E-01-7.15905E-01 5.82590E-13-1.24900E-14
 -1      2231 1.95668E+01 3.52579E+00-1.11821E-02-5.87534E-01 6.25161E-14-3.02080E-13
 -1      2232 1.96024E+01 3.47916E+00-1.05089E-02-7.71154E-01 1.88141E-14-3.20117E-13
 -1      2233 1.96490E+01 3.38973E+00-1.28672E-02-9.34928E-01-7.69702E-15-3.33316E-13
 -1      2234 1.97097E+01 3.30821E+00-1.28226E-02-1.12369E+00-4.76034E-14-3.45080E-13
 -1      2235 1.97932E+01 3.04378E+00 2.35470E-04-7.86199E-01 1.21594E-14-2.92781E-13
 -1      2236 1.95186E+01 3.61012E+00-9.63628E-03 9.90358E-02 1.72038E-13-2.74731E-13
 -1      2237 1.95181E+01 3.61090E+00-9.64015E-03-7.93733E-02 1.46212E-13-2.86620E-13
 -1      2238 1.95444E+01 3.57013E+00-9.71714E-03 4.42786E-01 2.14080E-13-2.39700E-13
 -1      2239 1.95271E+01 3.59302E+00-1.01689E-02 2.62972E-01 1.86175E-13-2.63858E-13
 -1      2240 1.96838E+01 3.23545E+00-8.06770E-04 1.68353E-01 1.72284E-13-2.48272E-13
 -1      2241 1.96060E+01 3.47212E+00-1.05997E-02 7.84836E-01 2.57352E-13-2.02619E-13
 -1      2242 1.95698E+01 3.51979E+00-1.12539E-02 6.04219E-01 2.27528E-13-2.25080E-13
 -1      2243 1.97204E+01 3.17089E+00-4.15225E-04 4.84184E-01 2.13341E-13-2.16415E-13
 -1      2244 1.97162E+01 3.29616E+00-1.29513E-02 1.13676E+00 3.05732E-13-1.17155E-13
 -1      2245 1.96538E+01 3.38043E+00-1.29586E-02 9.48052E-01 2.76430E-13-1.68084E-13
 -1      2246 1.97973E+01 3.03523E+00 3.11362E-04 7.97714E-01 2.53948E-13-1.63846E-13
 -1      2247 1.98942E+01 3.00801E+00-1.82957E-02 1.48321E+00 3.38963E-13-1.31024E-14
 -1      2248 1.97954E+01 3.15012E+00-1.53606E-02 1.29311E+00 3.12886E-13-7.76688E-14
 -1      2249 1.99262E+01 2.80720E+00 1.87740E-03 1.10246E+00 2.86362E-13-8.59842E-14
 -1      2250 2.01699E+01 2.54077E+00-2.80012E-02 1.78331E+00 3.50796E-13 9.84074E-14
 -1      2251 2.00208E+01 2.78699E+00-1.72030E-02 1.61457E+00 3.43438E-13 3.60441E-14
 -1      2252 2.01196E+01 2.45231E+00 5.05213E-03 1.36837E+00 3.19276E-13 2.37700E-14
 -1      2253 2.05811E+01 1.79003E+00-2.82719E-02 1.88450E+00 3.15355E-13 2.95680E-13
 -1      2254 2.03611E+01 2.22717E+00-1.10610E-02 1.84516E+00 3.29565E-13 1.72789E-13
 -1      2255 2.03746E+01 1.91202E+00 9.83074E-03 1.52083E+00 3.11133E-13 1.34883E-13
 -1      2256 2.07837E+01 1.06502E+00-1.87453E-02 1.58722E+00 2.55271E-13 4.94649E-13
 -1      2257 2.06751E+01 1.54035E+00 2.73167E-03 1.78805E+00 2.90015E-13 3.70679E-13
 -1      2258 2.05080E+01 1.27934E+00 2.97155E-03 1.41566E+00 2.82866E-13 2.84364E-13
 -1      2259 2.04379E+01 7.40602E-01-3.09328E-03 1.10257E+00 2.46208E-13 4.49096E-13
 -1      2260 2.04133E+01 8.83264E-01 1.26439E-02-1.02551E+00-2.06325E-13-1.46536E-13
 -1      2261 2.02013E+01 6.49803E-01-4.59046E-03-7.08194E-01-1.82020E-13-1.52238E-13
 -1      2262 2.00187E+01 2.34638E-02 2.94737E-04-2.87763E-02-2.14742E-13-4.40570E-13
 -1      2263 2.00148E+01 3.30120E-02-1.00103E-05-3.50633E-02-1.59494E-13-3.35884E-13
 -1      2264 2.00268E+01 2.60262E-02 5.60599E-04-3.68569E-02-1.92220E-13-4.07541E-13
 -1      2265 3.51502E+01-2.23153E+00-1.80290E-01-2.66507E+00-2.54505E-13 1.55209E-13
 -1      2266 3.41771E+01-6.53185E-01-1.51583E-01-4.18202E+00-3.43114E-13 1.68282E-13
 -1      2267 2.64327E+01-3.92267E+00-1.01289E-01 5.12693E+00 2.04087E-13-6.88338E-14
 -1      2268 2.33320E+01-4.73737E+00 1.73102E-02 6.13176E+00 1.52406E-13 7.17204E-14
 -1      2269 1.02768E+01-4.21274E+00-3.86788E-03 7.74144E+00 8.32667E-15 3.57298E-13
 -1      2270 7.06260E+00-3.94193E+00 9.22066E-02 6.40341E+00 1.08163E-13 7.33302E-14
 -1      2271 2.01388E+01 4.87236E-01 1.63624E-02-4.85824E-01-1.60306E-13-1.30020E-13
 -1      2272 1.99974E+01 3.60678E-01 3.95698E-04-3.07908E-01-1.32514E-13-1.49595E-13
 -1      2273 2.02547E+01 7.71839E-01-2.28296E-03-7.06208E-01-1.74169E-13-1.79431E-13
 -1      2274 1.99388E+01 2.78409E-01 1.11983E-02-1.70710E-01-1.00838E-13-1.47411E-13
 -1      2275 1.98636E+01 2.08626E-01 1.22612E-03-7.12513E-02-8.41994E-14-1.66590E-13
 -1      2276 2.00976E+01 4.40539E-01-4.33062E-03-3.17349E-01-1.33266E-13-1.42484E-13
 -1      2277 1.98198E+01 1.57028E-01 6.62283E-03 1.98264E-02-8.43447E-14-1.43889E-13
 -1      2278 1.97870E+01 1.15047E-01 1.14009E-03 8.06792E-02-4.43782E-14-1.42453E-13
 -1      2279 1.99821E+01 2.53753E-01-3.82328E-03-6.85287E-02-7.10590E-14-1.47477E-13
 -1      2280 1.97637E+01 8.57730E-02 3.81065E-03 1.35093E-01-1.56559E-14-1.16411E-13
 -1      2281 1.97623E+01 6.18610E-02 1.17051E-03 1.69818E-01 3.13107E-15-8.84777E-14
 -1      2282 1.99101E+01 1.40785E-01-3.19313E-03 9.06734E-02-2.92939E-14-1.00894E-13
 -1      2283 1.97551E+01 4.57373E-02 1.99869E-03 2.02071E-01-5.65611E-15-8.35005E-14
 -1      2284 1.97744E+01 3.37600E-02 1.26408E-03 2.22082E-01 1.87121E-14-8.86126E-14
 -1      2285 1.98780E+01 7.66428E-02-2.43649E-03 1.86928E-01-8.48842E-15-9.25205E-14
 -1      2286 1.97792E+01 2.65109E-02 8.63379E-04 2.42022E-01 2.02414E-15-1.26216E-13
 -1      2287 1.98125E+01 2.30255E-02 1.44572E-03 2.55076E-01-4.27701E-14-1.23867E-13
 -1      2288 1.98760E+01 4.37765E-02-1.79134E-03 2.45661E-01-3.04428E-14-1.95171E-13
 -1      2289 1.98259E+01 2.24255E-02 1.21306E-04 2.69914E-01-7.06888E-14-1.17167E-13
 -1      2290 1.98695E+01 2.57680E-02 1.70363E-03 2.81774E-01-5.18649E-14-1.35757E-13
 -1      2291 1.98957E+01 3.30674E-02-1.30200E-03 2.85053E-01-5.87836E-14-1.49077E-13
 -1      2292 1.98876E+01 3.05283E-02-3.63876E-04 2.96462E-01-3.04129E-14-1.07267E-13
 -1      2293 1.99379E+01 3.95205E-02 2.16932E-03 3.10904E-01-3.99917E-14-5.86399E-14
 -1      2294 1.99301E+01 3.95411E-02-8.95521E-04 3.18019E-01-3.66894E-14-8.73413E-14
 -1      2295 1.99615E+01 5.00665E-02-7.39674E-04 3.31559E-01-2.46660E-14-2.87792E-14
 -1      2296 2.00238E+01 6.60920E-02 2.92307E-03 3.54826E-01-2.23115E-14-2.68681E-14
 -1      2297 1.99753E+01 6.14533E-02-6.78943E-04 3.56237E-01-1.86152E-14-5.26007E-14
 -1      2298 2.00497E+01 8.31514E-02-1.10117E-03 3.85754E-01-6.98377E-14-3.69236E-14
 -1      2299 2.01239E+01 1.07204E-01 3.92758E-03 4.22152E-01-6.43555E-14-2.45383E-14
 -1      2300 2.00298E+01 1.00705E-01-4.01046E-04 4.11032E-01-3.42544E-14 9.43906E-15
 -1      2301 2.01501E+01 1.32384E-01-1.57836E-03 4.68798E-01-4.59242E-14-6.62382E-14
 -1      2302 2.02396E+01 1.66935E-01 5.31590E-03 5.24401E-01-1.70549E-14-3.72208E-14
 -1      2303 2.00892E+01 1.60322E-01-2.79915E-06 4.92185E-01-6.79889E-14-1.66070E-15
 -1      2304 2.02625E+01 2.02805E-01-2.28130E-03 5.93187E-01 4.78044E-14-8.85620E-15
 -1      2305 2.03714E+01 2.51245E-01 7.14209E-03 6.75632E-01 7.97149E-14 5.95965E-14
 -1      2306 2.01490E+01 2.46008E-01 6.66221E-04 6.11591E-01 2.83352E-14 4.05861E-14
 -1      2307 2.03851E+01 3.01212E-01-3.33401E-03 7.74305E-01 3.25861E-14 4.68826E-14
 -1      2308 2.05170E+01 3.67294E-01 9.14958E-03 8.93207E-01 6.22501E-14 3.83623E-14
 -1      2309 2.02011E+01 3.65639E-01 1.81108E-03 7.83161E-01 6.11204E-14 9.25979E-14
 -1      2310 2.05112E+01 4.30214E-01-5.03119E-03 1.02395E+00 8.15021E-14 2.51199E-14
 -1      2311 2.06650E+01 5.12810E-01 1.15182E-02 1.17927E+00 8.21582E-14 2.24141E-14
 -1      2312 2.02320E+01 5.24740E-01 4.28744E-03 1.01549E+00 6.16242E-14-4.27313E-14
 -1      2313 2.06285E+01 5.97166E-01-7.34464E-03 1.36427E+00 2.03947E-14-1.42176E-14
 -1      2314 2.08194E+01 7.01963E-01 1.46317E-02 1.58372E+00 5.60411E-14 4.12539E-16
 -1      2315 2.02201E+01 7.27914E-01 6.52140E-03 1.33081E+00 2.96490E-14 1.56999E-14
 -1      2316 2.07302E+01 7.95910E-01-1.01827E-02 1.82797E+00 1.15559E-13-2.72381E-14
 -1      2317 2.09546E+01 9.01305E-01 1.69367E-02 2.10688E+00 1.24137E-13-4.22089E-14
 -1      2318 2.01336E+01 9.76703E-01 1.03968E-02 1.75560E+00 3.40786E-14-6.06298E-14
 -1      2319 2.07994E+01 9.73653E-01-1.22069E-02 2.41771E+00 1.32724E-13-4.11832E-14
 -1      2320 2.10680E+01 1.02557E+00 1.95554E-02 2.73968E+00 1.08444E-13 2.28244E-14
 -1      2321 1.99336E+01 1.21854E+00 1.47426E-02 2.29783E+00 1.12654E-13-1.13256E-13
 -1      2322 2.08617E+01 9.94762E-01-7.91968E-03 3.11667E+00 7.38717E-14 4.89463E-14
 -1      2323 2.12215E+01 8.68704E-01 2.80683E-02 3.42333E+00 9.14345E-14 6.51744E-14
 -1      2324 1.96009E+01 1.31925E+00 1.85239E-02 2.96493E+00 1.08199E-13-9.89159E-14
 -1      2325 2.10665E+01 5.53299E-01 1.43381E-02 3.85149E+00 4.36439E-14 8.33170E-14
 -1      2326 2.16283E+01 7.66626E-03 4.14548E-02 4.01824E+00 5.92582E-14 7.72177E-14
 -1      2327 1.91976E+01 9.85283E-01 2.11732E-02 3.75688E+00 9.77135E-14-3.37647E-14
 -1      2328 2.18062E+01-6.94888E-01 8.24195E-02 4.33498E+00 9.54306E-14 8.86999E-14
 -1      2329 2.25965E+01-1.79760E+00 4.12445E-02 4.22022E+00 1.22083E-13 1.45335E-13
 -1      2330 1.90649E+01-2.80541E-01 1.50953E-02 4.58611E+00 1.03535E-13 6.89102E-14
 -1      2331 2.47578E+01-3.12526E+00 1.54606E-01 3.88021E+00 1.09572E-13 2.15510E-13
 -1      2332 2.62918E+01-4.58719E+00 1.51835E-04 3.01084E+00 6.82232E-14 2.24917E-13
 -1      2333 2.00239E+01 3.65490E-01 4.62763E-03 5.10618E-01 1.92971E-13 3.85961E-13
 -1      2334 2.02687E+01 5.09663E-01 8.54079E-03 7.78204E-01 2.12606E-13 4.30968E-13
 -1      2335 2.03530E+01 7.55586E-01 1.18391E-02 9.60102E-01 2.27599E-13 3.38667E-13
 -1      2336 2.53772E+00-2.82794E+00 6.90538E-02 4.67941E-01 7.62723E-14-1.62426E-13
 -1      2337 3.49573E+00-2.79305E+00 5.66026E-02-1.93066E+00 2.32731E-14-1.03639E-13
 -1      2338 2.81574E+01-5.03754E+00 5.85690E-02-2.00756E+00 4.66072E-13 1.91860E-13
 -1      2339 2.63920E+01-4.01430E+00 1.17636E-01-3.16060E+00 4.20823E-13 1.80696E-13
 -1      2340 2.47027E+01-2.63074E+00 4.79083E-02-3.62683E+00 1.29632E-13 1.01219E-13
 -1      2341 2.35179E+01-1.33387E+00 9.72387E-02-4.09182E+00-8.77076E-15 8.64048E-14
 -1      2342 2.26614E+01-3.84619E+00-1.09574E-02-4.66714E+00 2.07778E-13 7.12777E-13
 -1      2343 2.28992E+01-4.35285E-01 2.91575E-02-3.92704E+00 1.24557E-13-1.42226E-13
 -1      2344 2.22073E+01 2.49090E-01 3.12450E-02-3.87751E+00 1.86155E-13-1.35815E-13
 -1      2345 2.08050E+01-9.87849E-01 2.80345E-04-4.57649E+00-4.89608E-14 1.53523E-13
 -1      2346 2.21106E+01 6.08055E-01 1.78088E-02-3.51361E+00 1.19121E-13-1.28080E-13
 -1      2347 2.16571E+01 8.31101E-01 1.39155E-03-3.23988E+00 3.89747E-14-1.41012E-13
 -1      2348 2.03500E+01 5.86339E-01 8.55036E-03-3.92961E+00 1.05936E-13-4.00600E-14
 -1      2349 2.17128E+01 8.91302E-01 1.58711E-02-2.85632E+00 1.03585E-13-1.95460E-13
 -1      2350 2.13691E+01 8.89485E-01-6.85638E-03-2.53292E+00 5.71058E-14-1.34566E-13
 -1      2351 2.03833E+01 1.10601E+00 1.09345E-02-3.16482E+00 8.91819E-14-1.56048E-13
 -1      2352 2.14284E+01 8.31946E-01 1.57382E-02-2.19723E+00 2.64016E-14-1.41139E-13
 -1      2353 2.11504E+01 7.53001E-01-6.15120E-03-1.90412E+00-8.17488E-15-1.19956E-13
 -1      2354 2.04905E+01 1.10286E+00 1.04253E-02-2.45279E+00 7.16805E-14-6.71655E-14
 -1      2355 2.11781E+01 6.72128E-01 1.48580E-02-1.64645E+00-1.93984E-13 1.48328E-14
 -1      2356 2.09574E+01 5.84884E-01-4.64697E-03-1.41953E+00-2.09340E-13 3.38863E-14
 -1      2357 2.05408E+01 9.17949E-01 7.51904E-03-1.86261E+00-2.81880E-14-6.76108E-14
 -1      2358 2.09519E+01 5.05189E-01 1.23114E-02-1.20808E+00-1.24291E-13 8.67898E-14
 -1      2359 2.07668E+01 4.26705E-01-3.26455E-03-1.02674E+00-1.04070E-14 2.96902E-14
 -1      2360 2.05297E+01 7.04971E-01 5.70047E-03-1.38989E+00-1.25358E-13 2.38043E-13
 -1      2361 2.07442E+01 3.63781E-01 9.71315E-03-8.68971E-01 6.32185E-14 6.42946E-14
 -1      2362 2.05992E+01 3.03325E-01-2.05332E-03-7.36075E-01 1.14917E-13 9.80073E-14
 -1      2363 2.04746E+01 5.13897E-01 3.36309E-03-1.01574E+00 4.87058E-14 1.53058E-13
 -1      2364 2.05684E+01 2.57167E-01 7.33257E-03-6.20536E-01 1.05551E-13 7.93142E-14
 -1      2365 2.04572E+01 2.12970E-01-1.25112E-03-5.24957E-01-6.02656E-14 2.02844E-13
 -1      2366 2.03999E+01 3.65858E-01 1.70677E-03-7.35889E-01 1.04900E-13 1.02292E-13
 -1      2367 2.04252E+01 1.80305E-01 5.38634E-03-4.41267E-01-1.58572E-13 1.36408E-13
 -1      2368 2.03414E+01 1.48899E-01-7.33779E-04-3.73158E-01-1.77343E-13 1.04201E-13
 -1      2369 2.03223E+01 2.57562E-01 6.82966E-04-5.30079E-01-7.58663E-14 1.22514E-13
 -1      2370 2.03121E+01 1.26172E-01 3.89497E-03-3.12868E-01-1.82823E-13 6.12863E-14
 -1      2371 2.02499E+01 1.04292E-01-3.19595E-04-2.64519E-01-1.63638E-14 4.84676E-14
 -1      2372 2.02509E+01 1.80616E-01 1.09806E-04-3.80203E-01-1.60965E-13 2.18296E-13
 -1      2373 2.02262E+01 8.94921E-02 2.84079E-03-2.23183E-01 2.70774E-14-8.33582E-14
 -1      2374 2.01819E+01 7.46422E-02-1.43815E-04-1.90056E-01-3.37485E-14-1.75680E-13
 -1      2375 2.01909E+01 1.27508E-01-3.21540E-04-2.73638E-01-9.35379E-14 1.25822E-13
 -1      2376 2.01608E+01 6.35621E-02 2.01320E-03-1.58192E-01-7.97151E-14-3.91639E-13
 -1      2377 2.01268E+01 5.28616E-02-7.82236E-05-1.33173E-01-2.07033E-13-5.17803E-13
 -1      2378 2.01417E+01 9.10586E-02-2.66915E-04-1.96297E-01-2.01266E-13-3.57619E-13
 -1      2379 2.01102E+01 4.54337E-02 1.44551E-03-1.10126E-01-7.75841E-14-4.53346E-13
 -1      2380 2.00858E+01 3.81454E-02 3.38868E-05-9.20581E-02 5.44445E-14-5.35154E-13
 -1      2381 2.01013E+01 6.48399E-02-2.96241E-04-1.38257E-01-8.39058E-14-4.81133E-13
 -1      2382 2.00728E+01 3.30066E-02 9.97954E-04-7.49868E-02 1.52016E-13-5.28483E-13
 -1      2383 2.00563E+01 2.85818E-02 3.99744E-04-6.20663E-02 1.62338E-13-4.45517E-13
 -1      2384 2.00697E+01 4.70504E-02-3.26181E-04-9.59374E-02 7.74063E-14-3.66324E-13
 -1      2385 2.00456E+01 2.90419E-02 6.85893E-04-5.40700E-02 2.17477E-13-5.28736E-13
 -1      2386 2.00345E+01 2.60899E-02 4.80813E-04-4.39244E-02 5.33869E-14-3.96764E-13
 -1      2387 2.00264E+01 3.70645E-02-8.18958E-04-5.23105E-02 7.72127E-14-4.84315E-13
 -1      2388 2.00447E+01 3.87686E-02-7.22750E-04-6.91874E-02 1.42984E-13-4.42475E-13
 -1      2389 1.97118E+01 1.49234E-01 3.25892E-03 4.57594E-02 9.18180E-14 2.50054E-13
 -1      2390 1.97811E+01 2.01564E-01 9.59573E-03 1.36900E-01 1.34187E-13 2.72015E-13
 -1      2391 1.98196E+01 2.33492E-01 6.35923E-03 2.26172E-01 1.40483E-13 2.92445E-13
 -1      2392 1.99560E+01 3.13460E-01 1.19009E-02 3.82109E-01 1.57890E-13 3.43624E-13
 -1      2393 2.00749E+01 4.22492E-01-1.94568E-03 4.92279E-01 1.84013E-13 2.62243E-13
 -1      2394 1.99553E+01 2.94718E-01-5.04035E-03 2.43268E-01 1.52998E-13 1.92463E-13
 -1      2395 1.96286E+01 4.00684E-02 1.66541E-03-1.60027E-01 5.87826E-14 9.31236E-14
 -1      2396 1.96183E+01 5.78013E-02 3.72517E-03-1.33487E-01 2.39803E-14 1.25496E-13
 -1      2397 1.96564E+01 1.73871E-02 1.28749E-03-1.99038E-01 7.53512E-14 1.28386E-13
 -1      2398 1.96267E+01 2.73918E-02 1.92239E-03-1.85736E-01 5.35325E-14 9.32136E-14
 -1      2399 1.97628E+01 4.97209E-02-2.49734E-03-1.81087E-01 7.01708E-14 3.35357E-14
 -1      2400 1.97092E+01 5.08321E-03 1.02847E-03-2.17560E-01 5.01407E-14 1.63184E-13
 -1      2401 1.96682E+01 1.03274E-02 8.60888E-04-2.11767E-01 5.64966E-14 1.59503E-13
 -1      2402 1.97736E+01 2.08057E-02-1.76038E-03-2.26054E-01 4.30477E-14 4.41307E-14
 -1      2403 1.97773E+01-1.01449E-03 8.25715E-04-2.24683E-01 6.15050E-14 1.76564E-13
 -1      2404 1.97300E+01 1.44918E-03 2.42989E-04-2.22928E-01 6.42710E-14 1.67619E-13
 -1      2405 1.98072E+01 5.29552E-03-1.22330E-03-2.48542E-01 4.81101E-14 9.93292E-14
 -1      2406 1.98546E+01-3.96992E-03 6.28783E-04-2.25709E-01 6.89196E-14 1.70399E-13
 -1      2407 1.98042E+01-2.78039E-03-9.78773E-05-2.26085E-01 7.63759E-14 1.85818E-13
 -1      2408 1.98560E+01-2.42708E-03-8.59853E-04-2.58303E-01 6.69502E-14 1.13877E-13
 -1      2409 1.99373E+01-6.38991E-03 3.80787E-04-2.23003E-01 1.21039E-13 1.48231E-13
 -1      2410 1.98858E+01-5.14727E-03-2.60261E-04-2.24863E-01 7.77847E-14 1.50737E-13
 -1      2411 1.99149E+01-6.55717E-03-6.24008E-04-2.60939E-01 1.02692E-13 9.88527E-14
 -1      2412 2.00226E+01-1.07737E-02 1.77042E-05-2.16337E-01 7.99016E-14 1.75125E-13
 -1      2413 1.99716E+01-8.17690E-03-3.09628E-04-2.20190E-01 1.31451E-13 1.85752E-13
 -1      2414 1.99810E+01-1.07304E-02-4.72293E-04-2.58722E-01 8.66821E-14 1.49301E-13
 -1      2415 2.01077E+01-1.96440E-02-5.26098E-04-2.02982E-01-2.98912E-14 2.00865E-13
 -1      2416 2.00593E+01-1.43747E-02-2.93592E-04-2.10471E-01 2.54958E-14 1.89785E-13
 -1      2417 2.00523E+01-1.84531E-02-3.65490E-04-2.50925E-01 4.80627E-14 1.55892E-13
 -1      2418 2.01892E+01-3.54496E-02-1.30581E-03-1.77761E-01 2.84619E-14 1.49962E-13
 -1      2419 2.01462E+01-2.62549E-02-2.50572E-04-1.91631E-01-8.52682E-15 1.79101E-13
 -1      2420 2.01272E+01-3.32148E-02-2.65665E-04-2.33917E-01 5.23496E-15 6.47966E-14
 -1      2421 2.02621E+01-6.01491E-02-2.34346E-03-1.33318E-01 1.10795E-13 7.74416E-14
 -1      2422 2.02284E+01-4.61059E-02-2.16871E-04-1.57231E-01 8.77635E-14 1.47346E-13
 -1      2423 2.02039E+01-5.82485E-02-1.31185E-04-2.01276E-01 8.15760E-14 9.66329E-14
 -1      2424 2.03186E+01-9.43555E-02-3.59264E-03-6.09260E-02 1.53823E-13 9.78770E-14
 -1      2425 2.02999E+01-7.53775E-02-2.34367E-04-9.89676E-02 1.22263E-13 8.73444E-14
 -1      2426 2.02795E+01-9.58050E-02 8.96416E-05-1.44183E-01 1.05732E-13 6.15029E-14
 -1      2427 2.03485E+01-1.35992E-01-4.89488E-03 4.77085E-02 6.59235E-14 1.35498E-13
 -1      2428 2.03519E+01-1.13585E-01-3.56918E-04-7.94144E-03 1.58150E-13 1.50813E-13
 -1      2429 2.03486E+01-1.45798E-01 4.60348E-04-5.25382E-02 1.06327E-13 1.34870E-13
 -1      2430 2.03384E+01-1.78657E-01-5.94219E-03 1.97257E-01-7.87001E-14 1.20753E-13
 -1      2431 2.03720E+01-1.56776E-01-6.49610E-04 1.22818E-01-2.78796E-14 1.12860E-13
 -1      2432 2.04031E+01-2.03841E-01 1.04650E-03 8.26972E-02 2.66302E-14 1.20713E-13
 -1      2433 2.02735E+01-2.10342E-01-6.27501E-03 3.84122E-01-6.03532E-14 2.67943E-14
 -1      2434 2.03444E+01-1.95943E-01-1.17244E-03 2.94300E-01-7.27209E-14 5.42944E-14
 -1      2435 2.04306E+01-2.59086E-01 1.88555E-03 2.65478E-01-3.26774E-14 1.02061E-13
 -1      2436 2.01398E+01-2.13809E-01-5.37200E-03 5.91048E-01 1.51502E-14-1.28273E-14
 -1      2437 2.02524E+01-2.16316E-01-1.92760E-03 4.96183E-01-4.60515E-14-1.49038E-14
 -1      2438 2.04148E+01-2.93007E-01 2.91743E-03 4.88961E-01-1.48184E-14 3.57434E-16
 -1      2439 1.99301E+01-1.70477E-01-2.88427E-03 7.83205E-01 1.28094E-13 1.26112E-14
 -1      2440 2.00822E+01-1.99199E-01-2.78092E-03 7.01689E-01 7.65106E-14-1.90797E-14
 -1      2441 2.03375E+01-2.81125E-01 3.87891E-03 7.29110E-01 4.73671E-14-8.85157E-14
 -1      2442 1.96510E+01-6.89017E-02 1.02383E-03 9.09648E-01 9.62940E-15 1.47237E-13
 -1      2443 1.98309E+01-1.28072E-01-3.35638E-03 8.65939E-01 1.02753E-13 1.60221E-13
 -1      2444 2.01847E+01-2.00108E-01 4.21278E-03 9.40656E-01 2.26070E-14 3.50286E-14
 -1      2445 1.93308E+01 8.40730E-02 5.41419E-03 9.14481E-01-1.31589E-14 1.41187E-13
 -1      2446 1.95164E+01 1.02456E-03-3.05045E-03 9.32462E-01-1.21076E-15 1.86829E-13
 -1      2447 1.99572E+01-4.05976E-02 3.21686E-03 1.06058E+00 8.87878E-15 1.72405E-13
 -1      2448 1.90222E+01 2.56168E-01 8.73124E-03 7.58431E-01-1.14692E-13 2.44742E-13
 -1      2449 1.91828E+01 1.69121E-01-1.28984E-03 8.50893E-01-7.74081E-14 2.51006E-13
 -1      2450 1.96813E+01 1.78687E-01 4.89890E-04 1.02435E+00-9.68277E-14 2.66852E-13
 -1      2451 1.87929E+01 3.95269E-01 9.57682E-03 4.43557E-01-1.36920E-13 1.55253E-13
 -1      2452 1.88972E+01 3.32341E-01 2.02115E-03 6.02313E-01-1.08512E-13 1.80896E-13
 -1      2453 1.94135E+01 4.05666E-01-3.42243E-03 7.94231E-01-9.20750E-14 2.41290E-13
 -1      2454 1.87043E+01 4.51010E-01 7.65136E-03 2.57454E-02 1.46376E-14 1.35497E-13
 -1      2455 1.87294E+01 4.35722E-01 6.04648E-03 2.19423E-01-1.07955E-13 1.36327E-13
 -1      2456 1.92273E+01 5.68827E-01-6.78508E-03 3.88230E-01-8.62487E-14 1.15019E-13
 -1      2457 1.87842E+01 4.01723E-01 4.02096E-03-3.99166E-01 4.64915E-14 1.60973E-13
 -1      2458 1.87241E+01 4.39983E-01 9.15848E-03-2.15303E-01 6.74582E-14 1.50229E-13
 -1      2459 1.91825E+01 6.09101E-01-7.67636E-03-1.11381E-01 1.24727E-14 2.99594E-14
 -1      2460 1.90127E+01 2.66904E-01 3.88455E-04-7.32320E-01 9.28285E-14 1.77266E-13
 -1      2461 1.88807E+01 3.43589E-01 9.84647E-03-5.98936E-01 5.90179E-14 2.14471E-13
 -1      2462 1.92949E+01 5.11113E-01-5.58654E-03-5.84346E-01 3.19363E-14 1.41985E-14
 -1      2463 1.93306E+01 9.60518E-02-1.95929E-03-9.10825E-01 1.18566E-14 2.89851E-13
 -1      2464 1.91542E+01 1.83715E-01 7.70217E-03-8.49388E-01 9.01904E-14 2.14133E-13
 -1      2465 1.95269E+01 3.12117E-01-1.73666E-03-9.21610E-01 5.37212E-14 5.07978E-14
 -1      2466 1.96661E+01-5.80714E-02-2.78257E-03-9.25779E-01 9.34341E-14 1.20219E-14
 -1      2467 1.94776E+01 1.50595E-02 3.64568E-03-9.34304E-01 1.19444E-13 1.97472E-13
 -1      2468 1.98086E+01 8.09388E-02 1.72347E-03-1.06777E+00 1.40315E-13 8.28328E-14
 -1      2469 1.99610E+01-1.61743E-01-2.47949E-03-8.12963E-01 8.94161E-14-6.03499E-14
 -1      2470 1.97879E+01-1.17015E-01-6.91427E-04-8.72494E-01 4.11267E-14-3.07985E-14
 -1      2471 2.00712E+01-1.16010E-01 3.57613E-03-1.03195E+00 1.41598E-13-1.21239E-13
 -1      2472 2.01831E+01-2.06865E-01-1.69263E-03-6.28360E-01-7.25153E-14-5.61567E-14
 -1      2473 2.00432E+01-1.91563E-01-3.98830E-03-7.13887E-01 1.05601E-16-4.68776E-15
 -1      2474 2.02711E+01-2.40556E-01 3.82414E-03-8.67665E-01 6.18378E-14-5.60933E-14
 -1      2475 2.03254E+01-2.04211E-01-9.05290E-04-4.25095E-01-4.18257E-14-3.46201E-14
 -1      2476 2.02257E+01-2.11108E-01-5.70909E-03-5.14564E-01-9.51171E-14-1.34703E-13
 -1      2477 2.03948E+01-2.87576E-01 3.07598E-03-6.41911E-01-5.37794E-14-7.26750E-14
 -1      2478 2.03970E+01-1.72189E-01-3.13559E-04-2.40665E-01 1.68537E-13 1.16502E-13
 -1      2479 2.03363E+01-1.91543E-01-5.98111E-03-3.19351E-01 5.20916E-14 2.51595E-14
 -1      2480 2.04497E+01-2.74301E-01 2.03739E-03-4.11364E-01-2.28966E-14-6.54613E-14
 -1      2481 2.04144E+01-1.28189E-01 4.66778E-05-9.44883E-02 9.36071E-14 4.41101E-13
 -1      2482 2.03865E+01-1.51612E-01-5.27414E-03-1.55345E-01 1.69450E-13 3.39750E-13
 -1      2483 2.04531E+01-2.25894E-01 1.11073E-03-2.12142E-01 6.67955E-15 1.95943E-13
 -1      2484 2.03950E+01-8.44873E-02 2.29702E-04 8.44330E-03-2.33665E-14 4.82669E-13
 -1      2485 2.03915E+01-1.06461E-01-4.09521E-03-3.33793E-02 1.49532E-13 5.26397E-13
 -1      2486 2.04230E+01-1.64781E-01 4.38620E-04-6.03169E-02 8.47611E-14 4.43144E-13
 -1      2487 2.03537E+01-4.77619E-02 3.01807E-04 7.21014E-02 2.26972E-14 3.28012E-13
 -1      2488 2.03664E+01-6.55478E-02-2.83006E-03 4.70418E-02-3.33127E-14 4.71245E-13
 -1      2489 2.03746E+01-1.06194E-01 1.43196E-05 4.25358E-02 9.28442E-14 5.32586E-13
 -1      2490 2.03019E+01-2.03604E-02 3.14158E-04 1.04591E-01 9.22903E-15 1.64216E-13
 -1      2491 2.03240E+01-3.32239E-02-1.70948E-03 9.25368E-02 8.35045E-14 2.24612E-13
 -1      2492 2.03187E+01-5.80287E-02-2.25801E-04 1.03046E-01 1.31882E-13 4.12520E-13
 -1      2493 2.02476E+01-1.96532E-03 2.99092E-04 1.14852E-01-1.88814E-13 1.45641E-13
 -1      2494 2.02737E+01-1.03292E-02-8.33743E-04 1.11878E-01-2.30559E-13 1.03313E-13
 -1      2495 2.02624E+01-2.27082E-02-3.45659E-04 1.31089E-01-1.14788E-13 2.26020E-13
 -1      2496 2.01959E+01 9.02575E-03 2.74538E-04 1.10836E-01 2.43536E-14 2.62549E-13
 -1      2497 2.02223E+01 4.23176E-03-2.16912E-04 1.13553E-01 7.31965E-15 2.59351E-13
 -1      2498 2.02099E+01 6.03096E-04-3.92501E-04 1.36649E-01-1.23773E-13 1.74888E-13
 -1      2499 2.01497E+01 1.45883E-02 2.49699E-04 9.87587E-02-8.29333E-14 2.69920E-13
 -1      2500 2.01742E+01 1.23343E-02 1.73213E-04 1.04577E-01-4.94159E-14 2.59052E-13
 -1      2501 2.01634E+01 1.42392E-02-3.96700E-04 1.28224E-01-3.86047E-14 3.50497E-13
 -1      2502 2.01102E+01 1.65734E-02 2.28872E-04 8.29993E-02-3.99298E-14 4.65887E-13
 -1      2503 2.01315E+01 1.59383E-02 3.86691E-04 9.01380E-02-5.76160E-14 4.14585E-13
 -1      2504 2.01237E+01 2.08988E-02-3.76404E-04 1.12258E-01-1.12306E-13 3.25844E-13
 -1      2505 2.00778E+01 1.64971E-02 2.12797E-04 6.63341E-02 1.82527E-14 5.52514E-13
 -1      2506 2.00954E+01 1.67475E-02 4.73938E-04 7.37028E-02-1.06935E-14 5.51238E-13
 -1      2507 2.00907E+01 2.30446E-02-3.41905E-04 9.31863E-02-1.45994E-13 5.49067E-13
 -1      2508 2.00521E+01 1.54979E-02 2.08170E-04 5.02910E-02 1.27828E-13 4.99877E-13
 -1      2509 2.00660E+01 1.60969E-02 4.78582E-04 5.73264E-02 5.14351E-14 5.73691E-13
 -1      2510 2.00641E+01 2.26583E-02-2.97232E-04 7.37556E-02-1.53063E-14 4.93275E-13
 -1      2511 2.00323E+01 1.42362E-02 1.84515E-04 3.54958E-02 1.13446E-13 5.04523E-13
 -1      2512 2.00428E+01 1.49113E-02 4.27136E-04 4.19862E-02 2.23293E-13 5.58484E-13
 -1      2513 2.00430E+01 2.11820E-02-2.56183E-04 5.54775E-02 1.41496E-13 5.73561E-13
 -1      2514 2.00175E+01 1.29369E-02 1.53837E-04 2.23086E-02-2.72024E-13 4.16828E-13
 -1      2515 2.00251E+01 1.36231E-02 3.59871E-04 2.81246E-02-1.29479E-13 5.41125E-13
 -1      2516 2.00266E+01 1.92097E-02-2.65822E-04 3.88429E-02 8.21569E-15 6.98985E-13
 -1      2517 2.00119E+01 1.17145E-02 2.40150E-04 1.55337E-02-1.46403E-13 2.59555E-13
 -1      2518 1.99923E+01 7.19780E-02-3.40524E-04 3.52996E-02 2.63362E-14 2.96181E-13
 -1      2519 1.99959E+01 6.51291E-02 1.46846E-04 3.74856E-02-2.63379E-14 1.34670E-13
 -1      2520 1.99861E+01 8.52348E-02-3.84456E-04 2.66374E-02 2.01810E-13 3.25396E-13
 -1      2521 1.99891E+01 7.98246E-02 5.06110E-05 3.11705E-02 5.16426E-14 2.25227E-13
 -1      2522 1.99878E+01 8.04453E-02 1.64103E-04 3.94372E-02 1.04421E-13 3.13930E-13
 -1      2523 2.00065E+01 4.01495E-02-1.72851E-04 3.63808E-02-5.83771E-14-4.00049E-13
 -1      2524 2.00098E+01 3.29663E-02 2.62950E-04 3.37722E-02 5.85779E-15-3.33509E-13
 -1      2525 1.99994E+01 5.63776E-02-2.60623E-04 3.86214E-02-6.90350E-14-3.45996E-13
 -1      2526 2.00032E+01 4.90702E-02 2.24505E-04 3.82936E-02-1.28690E-13-3.90661E-13
 -1      2527 2.00066E+01 4.72928E-02 1.23779E-04 4.45939E-02 4.41427E-14-4.85501E-13
 -1      2528 1.99970E+01 6.44085E-02 1.30803E-04 4.51477E-02-3.26227E-14 4.91471E-14
 -1      2529 1.99819E+01 9.44607E-02-3.81965E-04 1.37033E-02-1.15222E-13-9.73219E-14
 -1      2530 1.99838E+01 9.11898E-02-7.01495E-05 2.00101E-02 6.04868E-14 1.10878E-13
 -1      2531 1.99803E+01 9.38188E-02 2.70975E-04 2.79044E-02 9.78464E-14 1.83894E-13
 -1      2532 1.99803E+01 9.83236E-02-3.22851E-04-1.77790E-03-1.04562E-13-3.53395E-15
 -1      2533 1.99807E+01 9.76989E-02-1.95552E-04 5.40510E-03-6.16748E-14-7.39442E-14
 -1      2534 1.99755E+01 1.02762E-01 3.58265E-04 1.18643E-02-5.63802E-14-7.39550E-14
 -1      2535 1.99819E+01 9.60364E-02-2.09008E-04-1.75054E-02-8.15100E-14 6.53835E-14
 -1      2536 1.99807E+01 9.82465E-02-3.04941E-04-1.05733E-02-1.15379E-13-1.89071E-14
 -1      2537 1.99745E+01 1.05903E-01 4.13632E-04-6.56007E-03-7.36547E-14 3.13607E-15
 -1      2538 1.99868E+01 8.77820E-02-4.87663E-05-3.06794E-02 1.24968E-14-3.13430E-13
 -1      2539 1.99839E+01 9.24832E-02-3.87204E-04-2.52757E-02-2.16715E-14-4.52508E-14
 -1      2540 1.99777E+01 1.02486E-01 4.26605E-04-2.45023E-02-1.42766E-13-6.98229E-14
 -1      2541 1.99946E+01 7.41072E-02 1.35866E-04-3.92967E-02 1.78494E-13 8.33033E-15
 -1      2542 1.99903E+01 8.08710E-02-4.22245E-04-3.62988E-02 1.39937E-13-4.17945E-13
 -1      2543 1.99851E+01 9.25241E-02 3.74530E-04-3.91411E-02 7.32813E-15-3.15764E-13
 -1      2544 2.00039E+01 5.70093E-02 3.51351E-04-4.15002E-02 1.23547E-13-4.54630E-14
 -1      2545 1.99988E+01 6.46155E-02-4.49200E-04-4.14347E-02 2.32077E-13 1.13074E-13
 -1      2546 1.99958E+01 7.68460E-02 3.02696E-04-4.78227E-02 1.76481E-13 6.11781E-14
 -1      2547 2.00113E+01 4.18244E-02-1.87010E-04-3.89166E-02-5.88654E-15-1.06420E-13
 -1      2548 3.39845E+01 5.10414E+00-6.07136E-02-3.24903E-01 4.58716E-13-2.91378E-13
 -1      2549 3.23701E+01 3.11401E+00-1.24187E-01-1.53920E-01 4.02511E-13-3.16525E-13
 -1      2550 2.05432E+01 1.96903E+00-1.44150E-02-1.90590E+00-2.15335E-13-2.18473E-13
 -1      2551 2.04178E+01 1.24634E+00-6.56897E-03-1.31000E+00-2.22888E-13-1.74949E-13
 -1      2552 2.03789E+01 1.40656E+00 4.11812E-03-1.24823E+00-2.06188E-13-2.09248E-13
 -1      2553 2.02872E+01 2.37946E+00-7.78717E-03-1.82937E+00-1.86963E-13-2.70325E-13
 -1      2554 3.95515E+01 2.56243E+00 3.62682E-01 2.43421E+00-3.93630E-13 3.26184E-13
 -1      2555 1.23540E+01-5.06838E+00 2.15512E-02 6.18164E+00 3.60822E-14 1.34337E-14
 -1      2556 8.51117E+00-3.80421E+00 8.26225E-02 5.10342E+00 1.35586E-13-2.67841E-13
 -1      2557 1.96405E+01 7.97553E-02 2.32829E-03-8.60774E-02 1.25962E-14 1.71225E-13
 -1      2558 1.96622E+01 1.10050E-01 6.71751E-03-3.66782E-02 3.87506E-14 2.21849E-13
 -1      2559 1.98587E+01 1.88016E-01-4.29846E-03 4.58287E-02 9.08800E-14 1.57471E-13
 -1      2560 1.97865E+01 1.00543E-01-3.32015E-03-9.81347E-02 5.75471E-14 7.11571E-14
 -1      2561 2.00016E+01-5.05193E+00 8.44618E-03 7.51664E+00 2.99760E-15 2.26243E-13
 -1      2562 1.56172E+01-4.95569E+00 1.17868E-01 7.72817E+00-1.12466E-13 2.25674E-13
 -1      2563 1.95257E+01 3.59588E+00-1.01362E-02-2.43348E-01 1.26409E-13-2.84661E-13
 -1      2564 1.95420E+01 3.57478E+00-9.66797E-03-4.23105E-01 8.84398E-14-2.91379E-13
 -1      2565 1.97177E+01 3.17628E+00-5.00720E-04-4.69243E-01 7.61223E-14-2.70863E-13
 -1      2566 1.96828E+01 3.23747E+00-8.21016E-04-1.50426E-01 1.28244E-13-2.72423E-13
 -1      2567 3.15244E+01-1.55984E-02-1.43529E-01 1.23132E+00 3.03875E-13-2.00506E-13
 -1      2568 2.93172E+01-2.14427E+00 5.74738E-03 2.90709E+00 2.49932E-13-7.69385E-14
 -1      2569 3.35128E+01 4.66038E+00-9.58327E-02 2.98453E-01 4.47448E-13 7.91311E-14
 -1      2570 3.38503E+01 6.25805E+00-1.83155E-01 6.13155E-01 4.88942E-13 3.13638E-14
 -1      2571 3.38638E+01 7.72403E+00-2.00672E-01-5.21589E-01 4.64850E-13-1.71377E-13
 -1      2572 3.39680E+01 6.64749E+00-1.20097E-01-5.11941E-01 5.07927E-13-2.50078E-13
 -1      2573 3.15547E+01 5.64145E+00-6.12031E-02-1.37075E+00 3.85997E-13-3.07254E-13
 -1      2574 3.16217E+01 4.35278E-01-5.85518E-02-1.44617E+00 3.62974E-13 1.93068E-13
 -1      2575 3.32220E+01 2.42830E+00-1.14868E-01-6.23254E-01 3.97141E-13 2.08222E-13
 -1      2576 2.72168E+01-3.37461E+00-5.51706E-03-4.37020E+00 1.80245E-13 1.70641E-13
 -1      2577 2.99514E+01-1.82352E+00-8.98848E-02-3.21011E+00 3.08864E-13 2.48995E-13
 -1      2578 2.02272E+01-5.16268E+00 2.29857E-02-7.06476E+00-4.10783E-15-9.03305E-14
 -1      2579 2.39398E+01-4.55579E+00-5.54162E-02-6.31864E+00 1.24900E-14 7.83817E-14
 -1      2580 1.23084E+01-4.84717E+00 6.70857E-02-7.76917E+00-8.32667E-14-3.47999E-13
 -1      2581 1.63726E+01-5.05341E+00 4.18173E-03-8.06624E+00 3.00315E-14-1.92176E-13
 -1      2582 1.96041E+01-5.11082E+00 9.38597E-02-7.25066E+00-1.54543E-13 4.51670E-14
 -1      2583 5.82341E+00-3.27276E+00 1.06312E-01-5.53270E+00-1.01252E-13-7.60059E-13
 -1      2584 8.55044E+00-3.55685E+00 7.88858E-02-7.09662E+00-1.59150E-13-6.43902E-13
 -1      2585 3.24061E+00-2.14100E+00 1.42399E-01-1.57623E+00 1.00957E-13-8.74079E-13
 -1      2586 3.99144E+00-2.59842E+00 1.10387E-01-3.94430E+00 5.75928E-14-9.23595E-13
 -1      2587 7.07252E+00-1.36730E+00 1.71496E-01-4.66810E+00-9.24955E-14-6.99024E-13
 -1      2588 5.17807E+00-2.32543E+00 1.15054E-01 2.98808E+00 2.06321E-13-6.46150E-13
 -1      2589 3.39187E+00-2.36050E+00 9.59248E-02 7.33199E-01 2.08777E-13-7.54286E-13
 -1      2590 2.08589E+01-6.25745E+00-8.23020E-02 5.73615E+00-7.02216E-14 3.12517E-13
 -1      2591 1.64955E+01-5.84771E+00 1.36203E-02 5.92791E+00-3.24185E-14 1.72001E-13
 -1      2592 3.34400E+01-3.75634E+00-2.88738E-02-1.22876E+00-1.47951E-13 1.73306E-13
 -1      2593 3.04020E+01-5.54627E+00-1.49030E-01 1.78888E+00-1.18849E-13 1.87378E-13
 -1      2594 2.56482E+01-6.17948E+00 2.36847E-03 3.71431E+00-1.01974E-13 1.87794E-13
 -1      2595 1.56677E+01-5.56956E+00 1.87964E-02-6.09146E+00 3.79585E-13 9.78370E-13
 -1      2596 2.00228E+01-6.05890E+00 2.92860E-03-5.72747E+00 4.46032E-13 9.64638E-13
 -1      2597 6.46868E+00-3.39736E+00 9.22710E-02-4.07036E+00 7.21645E-15 5.03042E-13
 -1      2598 1.06249E+01-4.18774E+00 5.87876E-02-5.77381E+00 1.36502E-13 1.19374E-12
 -1      2599 4.49724E+00-3.11663E+00 6.10614E-02 4.96449E+00 8.24896E-14-1.58984E-13
 -1      2600 3.02239E+00-2.80662E+00 9.53498E-02 2.68549E+00 5.34295E-14-1.09579E-13
 -1      2601 3.16029E+01-4.62811E+00-3.91345E-02-3.04758E-01-7.10265E-14 1.77441E-13
 -1      2602 1.99180E+01 2.82068E+00 1.12880E-03-1.09168E+00-6.78824E-14-3.18585E-13
 -1      2603 1.97881E+01 3.16646E+00-1.47840E-02-1.28057E+00-7.80562E-14-3.56278E-13
 -1      2604 1.98838E+01 3.02988E+00-1.69501E-02-1.47000E+00-1.12885E-13-3.48008E-13
 -1      2605 6.92731E+00-1.82172E+00 1.77921E-01-3.13828E+00-1.45883E-13 2.80331E-13
 -1      2606 2.23993E+01-5.11895E+00 5.49468E-02 6.25253E+00-2.41196E-13-1.05298E-13
 -1      2607 3.02465E+01 2.10641E+00-1.82875E-01-1.38858E+00 3.80779E-13-4.16667E-13
 -1      2608 3.14712E+01 1.17165E+00-5.13507E-02-1.70329E-01 3.31735E-13-2.64233E-13
 -1      2609 2.98463E+01-5.64938E-01-3.90212E-02-7.12745E-03 3.34913E-13-2.40974E-13
 -1      2610 2.45995E+01-5.78597E+00 3.56400E-02 4.12967E+00 2.19547E-14 2.33091E-13
 -1      2611 1.46539E+01-4.09539E+00 1.33540E-01 7.58899E+00-1.55487E-13 1.97439E-13
 -1      2612 7.47980E+00-2.26000E+00 1.61916E-01 5.65342E+00 2.88658E-15-1.51545E-14
 -1      2613 2.55542E+01-5.22865E+00-5.58845E-02 3.54487E+00 4.99600E-14 1.74466E-13
 -1      2614 2.93307E+01-5.06760E+00 1.00105E-01 1.61999E+00 2.57294E-14 2.39642E-13
 -1      2615 2.08007E+01-2.66281E+00 2.25294E-02 4.90555E+00 1.24095E-13 2.07771E-13
 -1      2616 2.81794E+01-3.35398E+00 4.93859E-02 3.14364E+00 9.91013E-14-2.48579E-13
 -1      2617 4.64056E+00-1.27150E+00 1.69431E-01 1.65958E+00-7.46764E-14-1.06748E-13
 -1      2618 3.30411E+01 7.11836E+00-7.94896E-02 7.45026E-01 4.56524E-13-8.26145E-14
 -1      2619 3.11310E+01 7.57973E+00-2.33774E-01 8.42448E-01 3.12750E-13-2.25896E-13
 -1      2620 3.06330E+01 5.98335E+00-8.95287E-02 1.38327E+00 3.61322E-13-2.81164E-14
 -1      2621 2.00140E+01 1.73132E-02 3.35867E-05 2.39121E-02-1.49221E-13 3.03694E-13
 -1      2622 2.61217E+01-4.40940E+00 4.85711E-02-4.64245E+00-1.59595E-14 1.91069E-13
 -1      2623 2.00135E+01 2.28249E-02 3.37436E-05 2.82507E-02-8.56652E-14 1.69517E-13
 -1      2624 2.00111E+01 5.30504E-02 1.80568E-04-4.84454E-02 2.94362E-14-2.53498E-13
 -1      2625 3.18215E+01 3.13176E+00-2.44198E-02 8.65965E-01 3.17968E-13 2.78749E-13
 -1      2626 3.09882E+01 8.04726E+00-2.22973E-01-9.24326E-02 4.21274E-13-1.85833E-13
 -1      2627 3.29636E+01 8.05601E+00-9.29824E-02-3.10887E-01 4.60687E-13-1.00871E-13
 -1      2628 3.03138E+01 7.36860E+00-1.03534E-01-8.52919E-01 4.54414E-13-7.36217E-14
 -1      2629 1.99889E+01 2.84847E+00-1.51971E-02-1.58330E+00-1.28779E-13-3.18317E-13
 -1      2630 2.01330E+01 2.62237E+00-2.18787E-02-1.75026E+00-1.61629E-13-3.05674E-13
 -1      2631 2.02796E+01 2.07191E+00 1.06927E-03-1.48988E+00-1.88412E-13-2.70592E-13
 -1      2632 2.00859E+01 2.50371E+00 2.45457E-03-1.33723E+00-1.26594E-13-3.13909E-13
 -1      2633 1.61367E+01-4.62366E+00 8.77836E-02 5.96780E+00 1.36446E-13 1.53003E-13
 -1      2634 1.42716E+01-4.25186E+00 1.14209E-01-5.95482E+00 1.73417E-13 9.46021E-13
 -1      2635 1.76752E+01-4.17155E+00 3.05807E-02-5.85242E+00 1.26371E-13 9.67323E-13
 -1      2636 1.31699E+01-2.52642E+00 1.60884E-01-5.61276E+00-8.48766E-14 8.67195E-13
 -1      2637 5.46661E+00-7.11059E-01 1.86715E-01-5.33256E-01 1.91789E-13-7.84095E-13
 -1      2638 1.21712E+01-3.53787E+00 1.30547E-01-7.31102E+00-2.71977E-13-3.91909E-13
 -1      2639 3.04114E+01-1.23289E+00 5.86957E-03-1.28004E+00 1.84891E-13 3.12195E-13
 -1      2640 2.00161E+01 2.86529E-02 1.38505E-04 3.72600E-02-8.81533E-14 1.74346E-13
 -1      2641 8.11761E+00-2.31855E+00 1.78768E-01 4.14914E+00 2.44860E-13-4.93050E-13
 -1      2642 7.88951E+00-7.24734E-01 1.05836E-01 3.11663E+00 3.36065E-13-5.73708E-13
 -1      2643 1.11300E+01-2.17065E+00 7.14739E-02 5.17039E+00 2.62707E-13-1.56763E-13
 -1      2644 2.22590E+01-5.25201E+00 1.66181E-01-5.08425E+00 3.71619E-13 9.30450E-13
 -1      2645 2.27630E+01-6.32090E+00-1.93351E-02-4.79066E+00 5.39568E-13 9.00863E-13
 -1      2646 3.16186E+01-5.12373E+00-1.89710E-02-4.79515E-01 3.47639E-13 2.03004E-13
 -1      2647 2.74771E+01-5.77792E+00-9.31169E-02-3.14708E+00 2.87853E-13 6.38795E-13
 -1      2648 3.40949E+01-3.07728E+00 1.43693E-02 7.31439E-01 4.66502E-14 3.53662E-13
 -1      2649 3.71088E+01-1.41002E+00-5.40787E-02 2.48517E+00 3.08503E-14 3.93741E-13
 -1      2650 1.98486E+01 2.78045E+00-6.30092E-03 5.10858E-01 2.19673E-13-1.79739E-13
 -1      2651 1.98237E+01 2.83089E+00-5.77586E-03 3.61344E-01 1.93097E-13-2.04242E-13
 -1      2652 1.98068E+01 2.86918E+00-5.64741E-03 2.27590E-01 1.79654E-13-2.33563E-13
 -1      2653 1.97983E+01 2.88628E+00-5.49674E-03 7.45009E-02 1.59963E-13-2.43083E-13
 -1      2654 1.99520E+01 2.52100E+00 3.73738E-03 2.61552E-01 1.69214E-13-2.08926E-13
 -1      2655 2.00477E+01 2.33303E+00-1.09548E-02 1.03656E+00 2.81312E-13-6.06490E-14
 -1      2656 1.99832E+01 2.48391E+00-6.51811E-03 9.01504E-01 2.67231E-13-9.11033E-14
 -1      2657 2.02088E+01 1.92080E+00-1.50994E-02 1.22154E+00 3.01123E-13 5.16141E-14
 -1      2658 2.01272E+01 2.15442E+00-5.23294E-03 1.12387E+00 2.87959E-13-6.15523E-15
 -1      2659 2.01945E+01 1.90070E+00 7.66650E-03 9.17162E-01 2.65576E-13-1.40238E-14
 -1      2660 2.03870E+01 1.35224E+00-9.40351E-03 1.24800E+00 2.67003E-13 1.39962E-13
 -1      2661 2.03008E+01 1.69030E+00 6.88214E-04 1.25199E+00 2.85449E-13 7.67017E-14
 -1      2662 2.03072E+01 1.47292E+00 9.29587E-03 1.00404E+00 2.58718E-13 6.20910E-14
 -1      2663 2.04097E+01 9.02402E-01-5.99349E-04 1.06165E+00 2.37650E-13 2.53964E-13
 -1      2664 2.04021E+01 1.18098E+00 6.09097E-03 1.18053E+00 2.52688E-13 1.96015E-13
 -1      2665 2.03233E+01 1.02517E+00 3.45223E-03 9.25596E-01 2.38095E-13 1.37190E-13
 -1      2666 2.02397E+01 6.75560E-01 6.03907E-03 7.44523E-01 2.13675E-13 2.51214E-13
 -1      2667 2.03288E+01 1.09440E+00 5.75541E-03-8.70297E-01-1.47777E-13-2.01831E-13
 -1      2668 2.02382E+01 8.45336E-01-5.34106E-03-6.22443E-01-1.38875E-13-1.78116E-13
 -1      2669 2.18713E+01-4.74738E+00 1.83454E-01 5.12683E+00 1.14853E-13 2.49689E-13
 -1      2670 2.02320E+01 6.63147E-01 8.71224E-03-4.47747E-01-1.22656E-13-1.47240E-13
 -1      2671 2.01521E+01 5.14299E-01-3.06022E-03-2.88929E-01-9.87984E-14-1.30519E-13
 -1      2672 2.02709E+01 9.34595E-01-6.22009E-04-5.82986E-01-1.14676E-13-1.67382E-13
 -1      2673 2.01266E+01 3.97924E-01 6.63197E-03-1.59172E-01-6.83090E-14-1.41335E-13
 -1      2674 2.00689E+01 3.02164E-01-1.56142E-03-5.20497E-02-4.63312E-14-1.34344E-13
 -1      2675 2.02118E+01 5.74164E-01-1.72392E-03-2.66231E-01-8.20830E-14-1.20517E-13
 -1      2676 2.00440E+01 2.31906E-01 4.55956E-03 3.29489E-02-3.39339E-14-1.31996E-13
 -1      2677 2.00113E+01 1.73970E-01-4.99271E-04 9.94115E-02-1.10584E-14-1.13615E-13
 -1      2678 2.01457E+01 3.41897E-01-2.03108E-03-4.03732E-02-4.32674E-14-1.36123E-13
 -1      2679 1.99916E+01 1.32479E-01 2.83880E-03 1.53505E-01-1.02816E-14-1.33435E-13
 -1      2680 1.99790E+01 9.94447E-02 2.04001E-04 1.94343E-01-1.83842E-14-1.53789E-13
 -1      2681 2.00920E+01 1.99309E-01-1.94197E-03 1.07940E-01-2.40664E-14-1.51672E-13
 -1      2682 1.99654E+01 7.71351E-02 1.54774E-03 2.28671E-01-3.22588E-14-1.80416E-13
 -1      2683 1.99677E+01 6.14846E-02 6.97077E-04 2.54760E-01-3.96486E-14-1.88194E-13
 -1      2684 2.00545E+01 1.16887E-01-1.60548E-03 2.03331E-01-3.64530E-14-1.77888E-13
 -1      2685 1.99592E+01 5.30212E-02 5.70669E-04 2.78017E-01-3.36389E-14-1.45536E-13
 -1      2686 1.99722E+01 5.06137E-02 1.06445E-03 2.97376E-01-4.52164E-14-1.31829E-13
 -1      2687 2.00314E+01 7.66196E-02-1.21608E-03 2.66038E-01-1.53376E-14-1.37014E-13
 -1      2688 1.99670E+01 5.29096E-02-1.79331E-04 3.15518E-01-1.84755E-14-1.10846E-13
 -1      2689 1.99870E+01 6.08295E-02 1.41806E-03 3.33425E-01 7.55727E-15-5.66191E-14
 -1      2690 2.00192E+01 6.79757E-02-8.07419E-04 3.11064E-01-1.45115E-14-1.08166E-13
 -1      2691 1.99826E+01 7.28134E-02-8.43957E-04 3.53663E-01 7.64585E-15-6.12064E-14
 -1      2692 2.00094E+01 9.16139E-02 1.84082E-03 3.77344E-01 3.21634E-14-2.73573E-14
 -1      2693 2.00127E+01 8.51972E-02-4.23706E-04 3.51956E-01 8.26999E-15-7.07216E-14
 -1      2694 2.00026E+01 1.13866E-01-1.52709E-03 4.03495E-01-7.11771E-15-7.43676E-14
 -1      2695 2.00337E+01 1.44190E-01 2.27923E-03 4.37127E-01-6.94935E-14-4.92804E-14
 -1      2696 2.00068E+01 1.27743E-01 7.41565E-05 4.00120E-01-4.11940E-15-7.30979E-14
 -1      2697 2.00201E+01 1.78156E-01-2.35549E-03 4.73763E-01-9.05433E-14-6.57888E-15
 -1      2698 2.00535E+01 2.22355E-01 2.77885E-03 5.22684E-01-4.77026E-14-8.29468E-15
 -1      2699 1.99944E+01 1.97505E-01 7.68570E-04 4.63735E-01-6.60113E-14-9.69283E-14
 -1      2700 2.00264E+01 2.70861E-01-3.44960E-03 5.74307E-01 2.49575E-14-1.34786E-14
 -1      2701 2.00590E+01 3.32550E-01 3.29752E-03 6.44453E-01 8.14760E-14 4.46720E-14
 -1      2702 1.99652E+01 2.99353E-01 1.81908E-03 5.51387E-01 6.78411E-15-1.30310E-14
 -1      2703 2.00081E+01 3.99777E-01-4.89868E-03 7.15674E-01 4.62413E-14-7.61918E-15
 -1      2704 2.00334E+01 4.83326E-01 3.59861E-03 8.13772E-01 2.32850E-14-3.43900E-14
 -1      2705 1.99033E+01 4.40898E-01 3.43068E-03 6.71239E-01 4.02738E-14-5.32229E-15
 -1      2706 1.99477E+01 5.67966E-01-7.09256E-03 9.04427E-01 5.40911E-14-7.35763E-14
 -1      2707 1.99591E+01 6.72370E-01 3.77490E-03 1.02939E+00 4.14401E-14-4.69336E-14
 -1      2708 1.97894E+01 6.27294E-01 6.37066E-03 8.25900E-01 1.01384E-14-8.89077E-14
 -1      2709 1.98114E+01 7.87182E-01-9.92372E-03 1.15286E+00 2.20121E-14-8.98285E-14
 -1      2710 1.97933E+01 9.23494E-01 4.18258E-03 1.32567E+00 1.55700E-14-1.11408E-13
 -1      2711 1.95869E+01 8.67189E-01 9.59694E-03 1.02599E+00 2.16854E-15-1.58334E-13
 -1      2712 1.95521E+01 1.06047E+00-1.39710E-02 1.48348E+00-2.65550E-14-7.96805E-14
 -1      2713 1.94854E+01 1.21490E+00 4.14411E-03 1.70335E+00 6.82440E-15-1.20507E-13
 -1      2714 1.92387E+01 1.17176E+00 1.50796E-02 1.28221E+00-1.38109E-14-1.97793E-13
 -1      2715 1.91113E+01 1.35372E+00-1.89747E-02 1.90326E+00 4.71787E-14-1.30563E-13
 -1      2716 1.89799E+01 1.49132E+00 5.67361E-03 2.17279E+00 4.29986E-14-1.77683E-13
 -1      2717 1.86774E+01 1.51259E+00 2.26598E-02 1.59731E+00 3.22203E-14-1.99487E-13
 -1      2718 1.84271E+01 1.57337E+00-2.30848E-02 2.43204E+00 8.19609E-14-1.81642E-13
 -1      2719 1.82414E+01 1.60730E+00 1.52306E-02 2.75197E+00 8.65020E-14-1.55015E-13
 -1      2720 1.78150E+01 1.81617E+00 3.37072E-02 1.98888E+00 3.97148E-14-2.80093E-13
 -1      2721 1.74762E+01 1.49794E+00-1.79495E-02 3.11127E+00 1.23230E-13-1.85298E-13
 -1      2722 1.72985E+01 1.23853E+00 4.28820E-02 3.49495E+00 1.17741E-13-1.09784E-13
 -1      2723 1.65617E+01 1.90503E+00 5.37481E-02 2.51348E+00 1.24219E-13-2.21122E-13
 -1      2724 1.64259E+01 8.27837E-01 3.52283E-02 3.98596E+00 1.44065E-13-9.90527E-14
 -1      2725 1.63659E+01-9.98824E-02 4.54196E-02 4.41975E+00 1.83298E-13-8.57023E-14
 -1      2726 1.50165E+01 1.49756E+00 1.20495E-01 3.24710E+00 1.67984E-13-2.34431E-13
 -1      2727 1.98803E+01 2.71017E+00-6.20503E-03-6.28400E-01 2.93409E-14-2.62405E-13
 -1      2728 1.99234E+01 2.61943E+00-7.75090E-03-7.76897E-01-7.72995E-15-2.82178E-13
 -1      2729 9.76113E+00-1.83989E+00 5.97614E-02 6.30234E+00-1.05166E-13-5.91194E-14
 -1      2730 7.83743E+00-8.08094E-01 2.01421E-01 4.60721E+00-8.19345E-14-1.50324E-13
 -1      2731 1.86424E+01-1.06685E+00 1.20561E-01-4.79714E+00-4.31988E-13 7.05283E-13
 -1      2732 1.80950E+01 5.34923E-02 4.14021E-02-4.48532E+00-1.87045E-13 3.92030E-13
 -1      2733 1.85461E+01 7.71389E-01 5.62644E-02-3.88280E+00 4.36370E-14 1.50251E-13
 -1      2734 1.84536E+01 1.18129E+00-2.20337E-03-3.54064E+00-4.70284E-14 6.60270E-14
 -1      2735 1.90345E+01 1.38845E+00 2.10896E-02-3.10402E+00-2.84148E-15-8.77675E-14
 -1      2736 1.90751E+01 1.42602E+00-1.68552E-02-2.76085E+00-6.06676E-14-2.11741E-13
 -1      2737 1.72998E+01 1.63037E+00 5.48795E-02-3.10840E+00-1.11535E-13 3.18495E-15
 -1      2738 1.95363E+01 1.38801E+00 1.01173E-02-2.43299E+00 5.98367E-14-1.77011E-13
 -1      2739 1.95740E+01 1.28627E+00-1.48735E-02-2.12826E+00 9.71956E-14-1.36399E-13
 -1      2740 1.83022E+01 1.70033E+00 2.87938E-02-2.39705E+00-5.40908E-15-2.13050E-13
 -1      2741 1.98815E+01 1.17383E+00 7.62216E-03-1.88378E+00 9.15058E-14 1.81710E-14
 -1      2742 1.98839E+01 1.04348E+00-1.14080E-02-1.64077E+00-3.42841E-14 1.02397E-13
 -1      2743 1.90201E+01 1.47783E+00 2.01171E-02-1.87868E+00 1.58383E-13-1.00124E-13
 -1      2744 2.00900E+01 9.16371E-01 6.73046E-03-1.43536E+00-1.83695E-13 1.60231E-13
 -1      2745 2.00664E+01 7.88963E-01-8.43880E-03-1.23206E+00-9.27406E-14 2.43807E-13
 -1      2746 1.94920E+01 1.17670E+00 1.41868E-02-1.46167E+00-8.06384E-14 6.81284E-14
 -1      2747 2.01903E+01 6.79917E-01 5.82811E-03-1.07163E+00-7.84691E-14 2.46353E-13
 -1      2748 2.01511E+01 5.77112E-01-5.84521E-03-9.15436E-01 3.65036E-14 2.07000E-13
 -1      2749 1.97861E+01 8.87002E-01 9.23429E-03-1.11752E+00-8.23061E-14 1.90231E-13
 -1      2750 2.02199E+01 4.92591E-01 4.91339E-03-7.91840E-01 9.23302E-14 4.34174E-14
 -1      2751 2.01759E+01 4.14720E-01-3.99667E-03-6.74540E-01 1.44635E-13 1.02286E-13
 -1      2752 1.99504E+01 6.49831E-01 5.65920E-03-8.44771E-01-1.74616E-15 1.04034E-13
 -1      2753 2.02106E+01 3.52426E-01 3.97420E-03-5.80620E-01 6.10699E-15 5.38183E-14
 -1      2754 2.01686E+01 2.95500E-01-2.70049E-03-4.93809E-01-2.31928E-13 4.10762E-14
 -1      2755 2.00333E+01 4.68720E-01 3.27288E-03-6.32320E-01-2.29347E-15-2.81300E-14
 -1      2756 2.01834E+01 2.50832E-01 3.13530E-03-4.23200E-01-2.95672E-13-3.74049E-14
 -1      2757 2.01467E+01 2.10148E-01-1.69841E-03-3.59539E-01-2.26955E-13-6.35139E-16
 -1      2758 2.00682E+01 3.35441E-01 1.74708E-03-4.69354E-01-2.84682E-13-1.61103E-13
 -1      2759 2.01508E+01 1.80083E-01 2.44197E-03-3.09342E-01-2.36984E-13-4.30821E-14
 -1      2760 2.01211E+01 1.52112E-01-1.12235E-03-2.64560E-01-2.41025E-13-2.18321E-13
 -1      2761 2.00766E+01 2.41151E-01 7.23211E-04-3.48254E-01-2.64427E-13-3.00246E-13
 -1      2762 2.01193E+01 1.29353E-01 1.83080E-03-2.24666E-01-2.27129E-13-1.94285E-13
 -1      2763 2.00943E+01 1.08644E-01-7.85076E-04-1.90121E-01-2.26085E-13-1.82816E-13
 -1      2764 2.00721E+01 1.74189E-01 3.79818E-04-2.56846E-01-3.03635E-13-9.75875E-14
 -1      2765 2.00901E+01 9.28924E-02 1.37258E-03-1.60558E-01-2.43610E-13-2.14226E-13
 -1      2766 2.00706E+01 7.84804E-02-4.56671E-04-1.35234E-01-7.31830E-14-3.27136E-13
 -1      2767 2.00615E+01 1.25144E-01 9.82028E-05-1.86188E-01-2.87910E-13 2.10767E-13
 -1      2768 2.00655E+01 6.73607E-02 9.83751E-04-1.13013E-01 1.75779E-13-4.80425E-13
 -1      2769 2.00515E+01 5.82458E-02 1.74055E-04-9.47232E-02 2.01607E-13-4.19189E-13
 -1      2770 2.00485E+01 9.07800E-02-1.67212E-04-1.33437E-01-7.28429E-14-8.68262E-14
 -1      2771 6.06029E+00-3.00320E-01 1.26087E-01 2.63425E+00-1.54023E-13-2.11581E-13
 -1      2772 5.72888E+00-1.83445E-01 1.57364E-01 2.13439E-01-1.23557E-13-1.93651E-13
 -1      2773 1.99000E+01 1.18209E-02 6.79422E-04-2.62346E-01 4.99399E-14 7.39148E-14
 -1      2774 1.98808E+01 2.07830E-02 8.68074E-04-2.52933E-01 4.34085E-14 7.81546E-14
 -1      2775 1.98832E+01 7.03715E-02 3.83511E-04-1.88467E-01 6.85348E-14 6.16878E-14
 -1      2776 1.98907E+01 9.99204E-02 3.13361E-03-1.53939E-01 8.52662E-14 6.63340E-14
 -1      2777 1.99317E+01 1.05880E-03 6.78621E-04-2.75210E-01 7.79888E-14 8.66577E-14
 -1      2778 1.99055E+01 5.57415E-03 3.29736E-04-2.71072E-01 6.03237E-14 6.64411E-14
 -1      2779 1.99670E+01 1.40699E-02-1.10441E-03-2.78959E-01 4.37643E-14 4.37388E-14
 -1      2780 1.99737E+01-5.31208E-03 5.90822E-04-2.80656E-01 1.01544E-13 1.27057E-13
 -1      2781 1.99428E+01-2.43543E-03 4.96715E-05-2.79652E-01 1.01020E-13 1.03929E-13
 -1      2782 1.99842E+01 1.09423E-03-8.74457E-04-2.94638E-01 9.29068E-14 7.83248E-14
 -1      2783 2.00241E+01-1.23344E-02 3.92152E-04-2.80806E-01 4.98827E-14 1.62817E-13
 -1      2784 1.99901E+01-8.49910E-03-2.22149E-05-2.82416E-01 7.06946E-14 1.41182E-13
 -1      2785 2.00123E+01-7.61175E-03-7.56260E-04-3.02689E-01 7.96025E-14 1.19209E-13
 -1      2786 2.00820E+01-2.49535E-02 4.50294E-05-2.74634E-01 6.30932E-14 1.27675E-13
 -1      2787 2.00461E+01-1.75796E-02 8.48742E-05-2.79859E-01 8.30779E-14 1.55221E-13
 -1      2788 2.00509E+01-1.84282E-02-7.36892E-04-3.04985E-01 6.91070E-14 8.90715E-14
 -1      2789 2.01471E+01-4.80950E-02-4.93847E-04-2.58014E-01 4.42698E-15 5.90293E-14
 -1      2790 2.01105E+01-3.46255E-02 3.53361E-04-2.69342E-01 1.70754E-14 1.09716E-13
 -1      2791 2.01006E+01-3.76212E-02-8.02219E-04-3.00052E-01 6.93264E-14 1.38596E-13
 -1      2792 2.02194E+01-8.62696E-02-1.26135E-03-2.23805E-01 1.12426E-13 7.87847E-14
 -1      2793 2.01835E+01-6.44414E-02 7.64297E-04-2.45108E-01 5.97484E-14 8.68315E-14
 -1      2794 2.01632E+01-7.13167E-02-9.31843E-04-2.83073E-01 4.35627E-14 6.43581E-14
 -1      2795 2.02979E+01-1.42488E-01-2.26447E-03-1.62227E-01 1.06168E-13 8.95376E-14
 -1      2796 2.02650E+01-1.10995E-01 1.27820E-03-1.98443E-01 1.18670E-13 1.09721E-13
 -1      2797 2.02410E+01-1.24825E-01-1.08516E-03-2.45920E-01 8.78427E-14 1.25709E-13
 -1      2798 2.03799E+01-2.16247E-01-3.44206E-03-6.20120E-02 3.80521E-14 1.51008E-13
 -1      2799 2.03535E+01-1.75905E-01 1.80570E-03-1.18356E-01 5.32972E-14 1.01523E-13
 -1      2800 2.03358E+01-2.01010E-01-1.17853E-03-1.77510E-01 7.82117E-14 1.37272E-13
 -1      2801 2.04595E+01-3.00620E-01-4.61499E-03 8.70703E-02-1.11645E-14 1.87123E-13
 -1      2802 2.04443E+01-2.55971E-01 2.17804E-03 6.63969E-03 4.55324E-14 1.73191E-13
 -1      2803 2.04474E+01-2.97496E-01-1.07230E-03-6.50646E-02-6.99775E-15 1.57656E-13
 -1      2804 2.05255E+01-3.79058E-01-5.43053E-03 2.89753E-01 2.57402E-14 1.12740E-13
 -1      2805 2.05277E+01-3.40005E-01 2.13492E-03 1.84989E-01-9.61687E-16 1.47629E-13
 -1      2806 2.05709E+01-4.02881E-01-5.73118E-04 1.03003E-01 1.33292E-14 1.57779E-13
 -1      2807 2.05604E+01-4.23491E-01-5.33781E-03 5.38658E-01 2.63777E-14 5.53069E-14
 -1      2808 2.05873E+01-4.05986E-01 1.35095E-03 4.16296E-01-4.46361E-15 7.36268E-14
 -1      2809 2.06933E+01-4.92897E-01 5.27033E-04 3.31795E-01 2.59046E-14 8.17960E-14
 -1      2810 2.05422E+01-3.96873E-01-3.69744E-03 8.06422E-01-1.14756E-14 1.04835E-13
 -1      2811 2.05996E+01-4.20798E-01-4.10033E-04 6.83457E-01 4.70738E-14 5.02313E-14
 -1      2812 2.07912E+01-5.29167E-01 2.27757E-03 6.11790E-01 2.20943E-14 1.07981E-13
 -1      2813 2.04500E+01-2.64178E-01-1.66512E-04 1.03996E+00 1.69751E-14 1.29675E-13
 -1      2814 2.05391E+01-3.46379E-01-3.07486E-03 9.44861E-01-2.29282E-14 9.60657E-14
 -1      2815 2.08320E+01-4.64531E-01 4.35056E-03 9.08910E-01-2.63463E-14 1.95897E-13
 -1      2816 2.02764E+01-1.32681E-02 4.74048E-03 1.16382E+00-3.82029E-14 2.59743E-13
 -1      2817 2.03897E+01-1.55654E-01-5.87174E-03 1.13244E+00 1.87623E-14 2.19271E-13
 -1      2818 2.07830E+01-2.60616E-01 5.66648E-03 1.15754E+00-1.70868E-14 2.36266E-13
 -1      2819 2.00434E+01 3.21784E-01 9.25920E-03 1.10052E+00-1.05679E-13 3.05080E-13
 -1      2820 2.01621E+01 1.43652E-01-7.31878E-03 1.16418E+00-5.66171E-14 3.62666E-13
 -1      2821 2.06308E+01 8.44824E-02 4.87997E-03 1.26653E+00-8.24365E-14 3.83422E-13
 -1      2822 1.98089E+01 6.52801E-01 1.08983E-02 8.07739E-01-4.28360E-14 2.06477E-13
 -1      2823 1.99059E+01 4.90482E-01-5.90612E-03 9.75837E-01-5.33320E-14 2.56426E-13
 -1      2824 2.04041E+01 5.10326E-01 1.27749E-03 1.14794E+00-3.13445E-14 3.32378E-13
 -1      2825 1.96532E+01 8.63775E-01 8.19352E-03 3.16808E-01 7.67615E-15 4.40486E-14
 -1      2826 1.97019E+01 7.77221E-01-1.20990E-03 5.63037E-01 3.62536E-14 1.53782E-13
 -1      2827 2.01801E+01 8.94216E-01-4.02595E-03 7.66098E-01 1.27950E-14 1.28007E-13
 -1      2828 1.96405E+01 8.70125E-01 2.32350E-03-2.59456E-01 2.60196E-14 2.79122E-14
 -1      2829 1.96262E+01 8.94800E-01 5.06273E-03 6.36128E-03 1.91561E-14 2.40288E-14
 -1      2830 2.00563E+01 1.09782E+00-7.54226E-03 1.81424E-01 1.80044E-14 1.34387E-13
 -1      2831 1.97801E+01 6.69395E-01-3.62887E-03-7.69497E-01 1.00704E-13-3.73896E-14
 -1      2832 1.97070E+01 7.94918E-01 9.84108E-03-5.51112E-01 6.31181E-14-3.43058E-14
 -1      2833 2.00927E+01 1.03948E+00-6.74723E-03-4.54756E-01 6.57377E-14-2.81030E-14
 -1      2834 2.00191E+01 3.42971E-01-6.82780E-03-1.09106E+00 6.19193E-14 1.60222E-14
 -1      2835 1.99082E+01 5.19115E-01 1.07025E-02-9.66590E-01 6.60452E-14 4.93714E-14
 -1      2836 2.02723E+01 7.44578E-01-1.70494E-03-9.66672E-01 5.42339E-14 1.70686E-14
 -1      2837 2.02733E+01 7.04388E-03-6.81714E-03-1.18099E+00 1.33039E-13 1.26773E-13
 -1      2838 2.01528E+01 1.73851E-01 7.54252E-03-1.16034E+00 1.29668E-13 1.04918E-13
 -1      2839 2.05108E+01 3.26151E-01 3.21711E-03-1.23702E+00-1.85306E-14 1.04929E-14
 -1      2840 2.04729E+01-2.47535E-01-4.52987E-03-1.07491E+00 1.92463E-13 2.46845E-14
 -1      2841 2.03668E+01-1.30968E-01 2.55462E-03-1.13682E+00 1.80456E-13 8.82412E-14
 -1      2842 2.07133E+01-7.46676E-02 5.62424E-03-1.25068E+00 1.69049E-13 1.09138E-13
 -1      2843 2.05861E+01-3.83958E-01-1.62532E-03-8.50006E-01 4.13981E-14 6.42965E-14
 -1      2844 2.05081E+01-3.29662E-01-1.90512E-03-9.59110E-01 1.86674E-13 7.61541E-14
 -1      2845 2.08230E+01-3.59459E-01 5.35693E-03-1.07295E+00 1.62415E-13 2.19399E-13
 -1      2846 2.06162E+01-4.12681E-01 6.69948E-04-5.85206E-01 2.36375E-14-9.46963E-14
 -1      2847 2.05696E+01-4.10598E-01-4.65187E-03-7.07778E-01-3.99890E-14 6.23629E-15
 -1      2848 2.08319E+01-4.97086E-01 3.45368E-03-7.98515E-01 2.93871E-14 7.17823E-14
 -1      2849 2.05857E+01-3.68122E-01 2.01494E-03-3.37756E-01-6.47289E-14 4.43038E-14
 -1      2850 2.05665E+01-3.98893E-01-5.57615E-03-4.50081E-01-3.17634E-14-4.88392E-14
 -1      2851 2.07650E+01-5.08776E-01 1.41700E-03-5.09668E-01-4.31584E-14-1.29083E-13
 -1      2852 2.05203E+01-2.87492E-01 2.46989E-03-1.38074E-01-4.07133E-14 1.53657E-13
 -1      2853 2.05215E+01-3.32424E-01-5.21806E-03-2.27814E-01-4.72864E-15 1.35568E-13
 -1      2854 2.06569E+01-4.39891E-01-8.78292E-05-2.58145E-01-1.00482E-13 1.07335E-13
 -1      2855 2.04410E+01-1.99391E-01 2.34063E-03 4.79041E-03 6.99946E-14 2.10859E-13
 -1      2856 2.04554E+01-2.45096E-01-4.20650E-03-5.89777E-02-2.30571E-14 1.85235E-13
 -1      2857 2.05368E+01-3.34973E-01-9.24197E-04-6.64313E-02-6.88926E-14-7.50294E-14
 -1      2858 2.03612E+01-1.20952E-01 1.92537E-03 9.49746E-02 4.92938E-14 3.40439E-13
 -1      2859 2.03831E+01-1.59987E-01-3.01188E-03 5.50360E-02 7.95279E-14 4.07255E-13
 -1      2860 2.04234E+01-2.26483E-01-1.22567E-03 6.32491E-02-5.39298E-14 2.70599E-15
 -1      2861 2.02884E+01-5.96398E-02 1.43380E-03 1.42733E-01 1.80723E-13 3.80497E-13
 -1      2862 2.03133E+01-8.92029E-02-1.91217E-03 1.21904E-01 1.77459E-13 5.54892E-13
 -1      2863 2.03257E+01-1.32835E-01-1.21043E-03 1.39528E-01 3.84510E-14 4.06075E-13
 -1      2864 2.02256E+01-1.65283E-02 9.84348E-04 1.59751E-01-1.40164E-13 4.10543E-13
 -1      2865 2.02507E+01-3.67073E-02-1.02882E-03 1.52721E-01 2.45868E-14 4.27043E-13
 -1      2866 2.02463E+01-6.12604E-02-1.05091E-03 1.74996E-01 8.47528E-14 6.59618E-13
 -1      2867 2.01733E+01 1.07196E-02 6.26816E-04 1.56605E-01 4.78395E-15 3.72079E-13
 -1      2868 2.01968E+01-1.59839E-03-3.87662E-04 1.58585E-01-1.25761E-13 2.68231E-13
 -1      2869 2.01841E+01-1.19355E-02-8.52343E-04 1.82192E-01-6.12452E-14 5.94606E-13
 -1      2870 2.01307E+01 2.57541E-02 3.69516E-04 1.41711E-01-1.41720E-14 2.51727E-13
 -1      2871 2.01517E+01 1.93103E-02 3.48024E-05 1.48896E-01 1.27603E-13 3.63529E-13
 -1      2872 2.01364E+01 1.85446E-02-6.67118E-04 1.71708E-01 6.43536E-14 5.52405E-13
 -1      2873 2.00968E+01 3.22975E-02 1.99925E-04 1.21140E-01-1.28437E-13 2.02530E-13
 -1      2874 2.01148E+01 2.98224E-02 2.81719E-04 1.30799E-01-1.34771E-13 1.46645E-13
 -1      2875 2.01002E+01 3.48110E-02-5.13938E-04 1.51585E-01 4.03694E-14 2.83610E-13
 -1      2876 2.00700E+01 3.35447E-02 9.67722E-05 9.88872E-02-7.58370E-14 1.95904E-13
 -1      2877 2.00850E+01 3.34587E-02 3.99150E-04 1.09236E-01-1.49754E-13 1.06782E-13
 -1      2878 2.00729E+01 4.13785E-02-3.94068E-04 1.27417E-01-1.38205E-13 6.58974E-14
 -1      2879 2.00491E+01 3.19951E-02 6.06583E-05 7.73254E-02-7.19545E-14 1.56642E-13
 -1      2880 2.00612E+01 3.30817E-02 4.27563E-04 8.73188E-02-6.15262E-14 1.95107E-13
 -1      2881 2.00522E+01 4.20259E-02-3.00569E-04 1.02759E-01-6.35465E-14-1.91554E-13
 -1      2882 2.00330E+01 2.94221E-02 1.60979E-04 5.76391E-02 1.08501E-13 2.92051E-13
 -1      2883 2.00423E+01 3.07554E-02 3.94231E-04 6.66809E-02 5.93033E-14 3.12984E-13
 -1      2884 2.00364E+01 3.96684E-02-2.40826E-04 7.96313E-02-5.37168E-14-9.15296E-14
 -1      2885 2.00205E+01 2.86129E-02 1.81679E-04 4.30854E-02-1.52501E-13 2.50443E-13
 -1      2886 2.00276E+01 3.00214E-02 3.44979E-04 5.13452E-02-3.12947E-14 2.89934E-13
 -1      2887 2.00238E+01 3.79448E-02-3.80837E-04 6.18849E-02-1.49006E-13-1.08327E-13
 -1      2888 2.00145E+01 3.80277E-02-3.39092E-04 4.88172E-02-1.45694E-13-2.36608E-13
 -1      2889 2.47434E+01-4.81423E+00 9.03945E-02-4.83290E+00-1.45703E-13 2.14023E-13
 -1      2890 2.71263E+01-4.20474E+00-1.30627E-01-3.28372E+00-1.66603E-14 3.38826E-13
 -1      2891 1.99645E+01 1.11566E-01-3.69381E-04 1.04511E-02-6.35435E-14-1.27917E-13
 -1      2892 1.99669E+01 1.08881E-01-2.20000E-05 1.97865E-02-7.80045E-15 1.79976E-15
 -1      2893 1.99800E+01 8.87563E-02-4.01498E-04 4.43100E-02 1.33765E-13 3.33276E-13
 -1      2894 1.99860E+01 8.18752E-02 1.64028E-04 4.88758E-02 6.74166E-14 4.25878E-13
 -1      2895 1.99641E+01 1.14334E-01-2.61813E-04-1.12234E-02-2.55316E-14 1.13064E-13
 -1      2896 1.99636E+01 1.14478E-01-1.83291E-04-1.23508E-03-1.03703E-13-4.36364E-14
 -1      2897 1.99558E+01 1.23424E-01 4.38975E-04 6.47308E-03-1.54606E-13-1.03776E-13
 -1      2898 1.99703E+01 1.02554E-01-4.20543E-04 2.97767E-02 1.50886E-13 7.38389E-14
 -1      2899 1.99749E+01 9.75042E-02 1.14796E-04 3.71932E-02 1.91866E-13 2.71248E-13
 -1      2900 1.99721E+01 1.00017E-01 2.03413E-04 4.72755E-02 1.10157E-13 3.27075E-13
 -1      2901 1.99613E+01 1.14466E-01 3.29744E-04 2.93203E-02 1.45523E-13-3.04081E-14
 -1      2902 1.99695E+01 1.10090E-01-1.00879E-04-3.17556E-02-8.41787E-14-1.99374E-13
 -1      2903 1.99660E+01 1.13129E-01-3.46834E-04-2.28011E-02-7.30401E-14 7.24280E-14
 -1      2904 1.99569E+01 1.25255E-01 5.12052E-04-1.81845E-02-4.70293E-14-1.63197E-14
 -1      2905 1.99808E+01 9.85961E-02 8.80043E-05-4.84601E-02 3.59989E-14-3.10773E-13
 -1      2906 1.99744E+01 1.04471E-01-4.83071E-04-4.17828E-02-3.23992E-14-1.88605E-13
 -1      2907 1.99652E+01 1.19031E-01 4.91853E-04-4.12833E-02-4.10629E-14-1.11068E-13
 -1      2908 1.99966E+01 8.09734E-02 3.57148E-04-5.79503E-02-2.94931E-15 1.16427E-13
 -1      2909 1.99878E+01 8.89624E-02-5.97257E-04-5.48682E-02 9.88323E-14-1.60465E-13
 -1      2910 1.99805E+01 1.04755E-01 4.46452E-04-5.90809E-02 7.63298E-14-2.09331E-13
 -1      2911 3.01539E+01 1.46586E+00-9.33575E-02 1.16756E+00 2.45581E-13 2.33424E-13
 -1      2912 2.99593E+01 3.36199E+00-2.03716E-01 1.63183E+00 2.62373E-13 5.57887E-14
 -1      2913 2.03164E+01 1.71711E+00-7.00637E-03-1.30366E+00-1.86418E-13-2.40685E-13
 -1      2914 2.03039E+01 1.33443E+00-2.86821E-03-1.03339E+00-1.77693E-13-2.20230E-13
 -1      2915 2.02848E+01 1.40849E+00 9.45714E-04-9.31577E-01-1.40235E-13-2.21602E-13
 -1      2916 2.02245E+01 1.97514E+00-9.38207E-04-1.26818E+00-1.50686E-13-2.64935E-13
 -1      2917 6.91192E+00-2.51418E-01 1.81568E-01-1.92239E+00-2.81511E-13 1.55431E-15
 -1      2918 9.55031E+00-9.08001E-01 1.49730E-01-4.05832E+00-2.77930E-13 5.31852E-13
 -1      2919 1.99272E+01 2.60886E+00-7.91019E-03 7.86648E-01 2.55479E-13-1.26261E-13
 -1      2920 1.98834E+01 2.70205E+00-6.22844E-03 6.38709E-01 2.34954E-13-1.73502E-13
 -1      2921 2.00010E+01 2.40629E+00 4.40282E-03 5.09636E-01 2.10793E-13-1.58433E-13
 -1      2922 2.00834E+01 2.20534E+00 5.74431E-03 7.36256E-01 2.33051E-13-8.54419E-14
 -1      2923 2.44426E+01-5.02798E+00-4.31702E-02 5.12753E+00-2.08139E-13-2.39656E-13
 -1      2924 2.15325E+01-4.82566E+00 6.49273E-02 6.14252E+00-4.08742E-13-2.11655E-13
 -1      2925 1.71234E+01-3.88318E+00 2.98031E-02 7.10414E+00-4.47115E-13-9.96148E-14
 -1      2926 1.30229E+01-2.74669E+00 1.93906E-01 7.01330E+00-2.66745E-13 1.08802E-14
 -1      2927 2.00189E+01 5.29710E-02 4.85578E-04-5.78758E-02 5.12494E-14-3.26410E-13
 -1      2928 2.00060E+01 6.67916E-02-6.64967E-04-6.00885E-02 7.16563E-14-1.38215E-13
 -1      2929 2.88417E+01-2.48918E+00 3.23389E-03-1.20477E+00 2.76775E-14 2.92266E-13
 -1      2930 2.97598E+01-7.50267E-01-1.69609E-01 7.53382E-02 1.53974E-13 2.45914E-13
 -1      2931 2.94291E+01 5.67011E+00-2.22187E-01-1.52517E+00 3.54800E-13-5.60177E-14
 -1      2932 2.97236E+01 4.34241E+00-1.33535E-01-1.82200E+00 3.67706E-13-2.30926E-13
 -1      2933 1.84400E+01-4.57558E+00 1.41076E-01-7.15604E+00-1.60066E-13 9.87127E-14
 -1      2934 2.14642E+01-5.14386E+00-6.60160E-02-6.50816E+00-1.41956E-13 1.63227E-13
 -1      2935 1.14651E+01-2.15557E+00 1.69537E-01-6.58767E+00-3.67692E-13-4.24938E-13
 -1      2936 1.47057E+01-3.69505E+00 3.51937E-02-7.52650E+00-2.93515E-13-3.01259E-13
 -1      2937 1.73808E+01-3.58944E+00 1.30712E-01-6.78614E+00-2.45137E-13-1.05041E-13
 -1      2938 7.48522E+00-1.63059E-01 1.76200E-01-3.50975E+00-9.18779E-14-5.93858E-13
 -1      2939 8.94866E+00-9.69610E-01 1.01287E-01-5.31038E+00-2.19630E-13-4.50417E-13
 -1      2940 1.79622E+01-4.22837E+00 1.65195E-02 5.84642E+00 1.54265E-13 2.95305E-13
 -1      2941 1.45158E+01-2.94257E+00 2.42576E-01 5.75810E+00 1.75443E-13 7.96585E-14
 -1      2942 1.96512E+01-3.74893E+00 3.44565E-02 5.37793E+00 1.52323E-13 2.35659E-13
 -1      2943 1.98820E+01 3.25695E-02 5.93384E-04-2.36570E-01 5.48929E-14 5.17276E-14
 -1      2944 1.98735E+01 4.94019E-02 1.74280E-03-2.17851E-01 5.42415E-14 7.42556E-14
 -1      2945 1.99749E+01 8.22352E-02-1.93002E-03-1.99286E-01 7.37807E-14 6.33236E-14
 -1      2946 7.09235E+00 3.93135E-01 2.42100E-01 9.00868E-01 2.38275E-13-7.21007E-13
 -1      2947 6.79015E+00 3.68301E-01 1.66566E-01-1.52502E+00 1.39673E-13-6.89115E-13
 -1      2948 2.85286E+01-2.89122E+00-1.40260E-01 1.51822E+00 3.68009E-14-3.42365E-13
 -1      2949 2.67370E+01-4.16334E+00 2.64512E-02 3.33129E+00-5.60663E-14-2.48190E-13
 -1      2950 2.58416E+01-4.33384E+00 3.59873E-02 3.39377E+00-2.49398E-13-1.92978E-13
 -1      2951 1.99355E+01 2.55928E+00 3.52248E-03 4.85431E-03 1.46325E-13-2.15311E-13
 -1      2952 1.97979E+01 2.88713E+00-5.54712E-03-6.07154E-02 1.35759E-13-2.46125E-13
 -1      2953 1.98058E+01 2.87215E+00-5.58005E-03-2.13886E-01 1.13228E-13-2.55224E-13
 -1      2954 8.30319E+00 5.94479E-01 1.95644E-01-9.24869E-01-3.51951E-13 3.16969E-14
 -1      2955 1.99103E+01 1.35392E-01-4.98037E-05-1.03259E-01 8.26183E-14 4.93353E-14
 -1      2956 1.99402E+01 1.85253E-01 5.14422E-03-4.29659E-02 7.87143E-14 7.72277E-14
 -1      2957 2.00078E+01 1.58244E-01-2.41013E-03-1.11868E-01 8.84157E-14 1.05628E-14
 -1      2958 2.89617E+01 2.63746E+00-9.79217E-02-1.69647E+00 3.63279E-13-2.11262E-13
 -1      2959 1.79301E+01-1.66328E+00 1.96086E-01 5.27031E+00 1.88044E-13 1.71363E-13
 -1      2960 2.00795E+01 2.21827E+00 6.09094E-03-7.29770E-01-1.81994E-14-2.53619E-13
 -1      2961 1.99783E+01 2.49770E+00-6.15763E-03-8.93477E-01-3.10614E-14-2.84526E-13
 -1      2962 2.00436E+01 2.35245E+00-8.76430E-03-1.02604E+00-7.81507E-14-2.92106E-13
 -1      2963 1.61463E+01 7.44208E-01 6.59288E-02-4.14334E+00-2.46428E-13 5.12902E-13
 -1      2964 1.88926E+01-2.32454E+00 1.37164E-01-5.28136E+00-1.78205E-13 7.76962E-13
 -1      2965 1.58596E+01-1.38886E+00 8.23280E-02-5.25817E+00-3.76504E-13 9.63743E-13
 -1      2966 2.95011E+01 4.36867E+00-1.31535E-01 1.81911E+00 2.90185E-13-5.68573E-14
 -1      2967 2.84068E+01 5.22342E+00-1.90230E-01 1.76478E+00 2.89296E-13-1.63800E-13
 -1      2968 2.82749E+01 2.93158E+00-8.49775E-02 1.91418E+00 2.22461E-13-9.16142E-14
 -1      2969 2.00263E+01 5.44550E-02 5.72445E-04-6.62579E-02 1.97402E-13-2.77225E-13
 -1      2970 8.54546E+00 1.38824E-01 1.74358E-01 3.36762E+00-1.98508E-13-1.96648E-13
 -1      2971 2.00429E+01 5.74689E-02 5.71586E-04-8.49639E-02 2.87316E-14-4.36603E-13
 -1      2972 2.00325E+01 5.59806E-02 4.70942E-04-7.50672E-02 5.12073E-14-4.63872E-13
 -1      2973 2.00181E+01 6.89386E-02-9.04824E-04-7.97890E-02 1.95266E-13-2.88304E-13
 -1      2974 2.00325E+01 7.37091E-02-8.45648E-04-1.00327E-01 7.32220E-14-1.87990E-13
 -1      2975 2.00776E+01 4.24838E-01 1.77316E-03 2.82941E-01 1.74499E-13 1.07999E-13
 -1      2976 2.01188E+01 4.98593E-01 7.33822E-03 3.89609E-01 1.69778E-13 1.52693E-13
 -1      2977 1.99627E+01 3.82726E-02-1.45815E-03-2.50279E-01 5.03941E-14 6.48977E-14
 -1      2978 2.34959E+01-4.73229E+00 6.82111E-02-5.07903E+00-1.55778E-13 1.95420E-13
 -1      2979 2.00088E+01 4.82442E-02 1.70966E-04 5.14635E-02 8.37571E-14-4.47117E-13
 -1      2980 2.00128E+01 4.86696E-02 2.78821E-04 5.82098E-02-1.14174E-13-2.68856E-13
 -1      2981 2.00027E+01 5.62696E-02-3.44055E-04 5.32367E-02 1.39119E-13-4.89481E-13
 -1      2982 8.92651E+00 3.33591E-01 1.25284E-01 2.04723E+00 3.16573E-13-6.19449E-13
 -1      2983 2.89264E+01-1.81384E+00-2.84960E-02 2.75321E-01 1.23637E-13-3.25420E-13
 -1      2984 2.77055E+01-2.68757E+00-1.34804E-02 7.13892E-01-9.44366E-14-2.14273E-13
 -1      2985 2.83900E+01-7.92213E-01-1.47119E-01-8.76700E-01 1.47993E-13-3.57436E-13
 -1      2986 2.00255E+01 3.20555E-01 7.60253E-03 1.42855E-01 1.28953E-13 1.11371E-13
 -1      2987 2.01401E+01 4.80427E-01-2.03143E-03 2.71029E-01 1.56723E-13 4.69828E-14
 -1      2988 1.99639E+01 2.38955E-01-5.31365E-04 4.31644E-02 8.67068E-14 9.32738E-14
 -1      2989 2.00020E+01 8.23518E-02 3.49942E-04-6.90055E-02-7.37370E-15 7.28208E-14
 -1      2990 2.88824E+01-1.21153E-02-5.65485E-02 1.03308E+00 1.51497E-13 9.87960E-14
 -1      2991 1.17010E+01-1.10021E+00 1.69892E-01-5.60790E+00-2.88616E-13-3.90785E-13
 -1      2992 2.95645E+01 7.27419E+00-1.45604E-01 4.40760E-01 3.77059E-13-7.70911E-14
 -1      2993 1.96950E+01-4.24294E+00 1.00029E-01 6.50314E+00-4.36789E-13-8.62470E-14
 -1      2994 1.77166E+01-3.12877E+00 5.89162E-02 6.32829E+00-4.17652E-13-7.63348E-14
 -1      2995 2.16828E+01-4.23361E+00 4.01979E-02 5.36085E+00-4.33049E-13-8.54282E-14
 -1      2996 1.15081E+01-1.03653E+00 1.89327E-01-4.57205E+00-3.23616E-13 7.97029E-13
 -1      2997 1.43226E+01-1.20437E+00 1.57438E-01-4.88943E+00-3.46410E-13 9.36043E-13
 -1      2998 1.41271E+01 5.78261E-02 1.29552E-01-4.43023E+00-5.79217E-13 8.90552E-13
 -1      2999 1.08852E+01 2.55257E-01 7.54736E-02-3.53649E+00-4.57190E-13 6.25111E-13
 -1      3000 1.30133E+01-1.64976E+00 1.54893E-01 6.12879E+00-3.42518E-13-1.90042E-13
 -1      3001 2.88456E+01 6.20208E+00-1.58783E-01-1.35670E+00 3.72313E-13-1.53488E-13
 -1      3002 2.74306E+01 5.18913E+00-8.09798E-02-1.66227E+00 3.67303E-13-1.72452E-13
 -1      3003 2.77352E+01 6.54606E+00-2.03826E-01-9.53922E-01 3.76976E-13-1.54494E-13
 -1      3004 1.98218E+01 2.83578E+00-5.78655E-03-3.47337E-01 9.43932E-14-2.40318E-13
 -1      3005 1.98465E+01 2.78665E+00-6.20147E-03-4.99664E-01 5.43119E-14-2.48301E-13
 -1      3006 1.99987E+01 2.41353E+00 4.33134E-03-5.00277E-01 3.59993E-14-2.32251E-13
 -1      3007 1.99509E+01 2.52440E+00 3.67646E-03-2.51456E-01 9.11436E-14-2.28885E-13
 -1      3008 2.75797E+01-3.35511E+00-5.02426E-03-1.71762E+00-6.60964E-14 3.22964E-13
 -1      3009 1.47274E+01-6.41240E-01 8.14730E-02 4.73883E+00 2.41709E-13-8.74439E-14
 -1      3010 1.99912E+01 7.31057E-02-3.64191E-04 5.16933E-02 4.00690E-14 3.03580E-13
 -1      3011 1.99975E+01 6.52879E-02 1.41917E-04 5.31078E-02 5.85761E-14-1.49540E-13
 -1      3012 1.99989E+01 6.66595E-02 2.01355E-04 6.06040E-02 1.40430E-13-2.95221E-13
 -1      3013 1.99855E+01 8.33449E-02 1.64598E-04 5.75336E-02 7.70412E-14 3.86811E-13
 -1      3014 2.02196E+01-4.21162E+00 1.03627E-01-5.24615E+00 1.44912E-13 9.88709E-13
 -1      3015 1.32234E+01-1.84185E+00 8.53866E-02 5.21987E+00 2.16868E-13-7.28306E-14
 -1      3016 8.78947E+00 6.85106E-01 1.69691E-01-2.21830E+00 2.02685E-14-5.05568E-13
 -1      3017 2.02881E+01 1.08156E+00-4.79802E-03 8.07566E-01 2.21143E-13 4.98795E-14
 -1      3018 2.02777E+01 1.32116E+00 3.21341E-03 8.13369E-01 2.36615E-13 2.31468E-14
 -1      3019 2.02399E+01 1.48856E+00-9.72242E-03 7.92684E-01 2.48894E-13 1.02301E-14
 -1      3020 2.02037E+01 1.68170E+00-1.30590E-03 7.35006E-01 2.34136E-13-2.02867E-14
 -1      3021 2.02951E+01 1.16056E+00 1.00113E-02 6.28610E-01 2.10587E-13 1.18331E-14
 -1      3022 2.01706E+01 5.84630E-01 6.57263E-03 5.92450E-01 1.86671E-13 2.07753E-13
 -1      3023 1.55288E+01 1.82584E+00 5.33718E-03-2.52833E+00-2.47389E-13 2.50217E-13
 -1      3024 1.61518E+01 1.92841E+00-2.80260E-02-2.16062E+00-2.10538E-13 1.33577E-13
 -1      3025 2.00537E+01 9.69701E-02-1.71660E-04-2.03391E-01 6.52530E-14 1.89030E-14
 -1      3026 2.00690E+01 1.34567E-01 2.36862E-03-1.67183E-01 6.03686E-14 4.38388E-15
 -1      3027 2.02964E+01 1.20316E+00 5.72770E-03-6.75346E-01-8.88857E-14-2.07519E-13
 -1      3028 2.02625E+01 9.61866E-01-5.71316E-03-4.88352E-01-7.92693E-14-1.95276E-13
 -1      3029 2.02854E+01 7.63244E-01 5.74359E-03-3.52377E-01-6.74123E-14-1.64062E-13
 -1      3030 2.02383E+01 5.99799E-01-3.38146E-03-2.10631E-01-5.36819E-14-1.49092E-13
 -1      3031 2.02868E+01 9.85827E-01-4.34362E-03-4.25682E-01-5.37064E-14-2.08599E-13
 -1      3032 2.02348E+01 4.70531E-01 4.09414E-03-1.06824E-01-5.70020E-14-1.25147E-13
 -1      3033 2.01965E+01 3.63968E-01-2.16277E-03-1.20203E-02-4.10817E-14-1.43410E-13
 -1      3034 2.02791E+01 6.34690E-01 3.59439E-04-1.75847E-01-3.71858E-14-1.52846E-13
 -1      3035 2.01818E+01 2.83233E-01 2.89783E-03 5.83478E-02-4.03881E-14-1.33243E-13
 -1      3036 2.01537E+01 2.17451E-01-1.04002E-03 1.20595E-01-3.36675E-14-1.47573E-13
 -1      3037 2.02463E+01 3.89119E-01-6.55004E-04 3.66825E-03-4.19887E-14-9.89712E-14
 -1      3038 2.01350E+01 1.69439E-01 1.88857E-03 1.67297E-01-2.73683E-14-1.49813E-13
 -1      3039 2.01165E+01 1.32462E-01-2.40520E-04 2.07942E-01-2.86009E-14-1.34279E-13
 -1      3040 2.02038E+01 2.36278E-01-8.81288E-04 1.26624E-01-3.18110E-14-1.24785E-13
 -1      3041 2.00964E+01 1.08019E-01 9.78834E-04 2.39059E-01-9.31285E-15-1.09613E-13
 -1      3042 2.00857E+01 9.26244E-02 3.16638E-04 2.66980E-01 4.23332E-15-1.08482E-13
 -1      3043 2.01604E+01 1.48898E-01-7.99682E-04 2.09129E-01-9.31789E-15-1.13512E-13
 -1      3044 2.00655E+01 8.63446E-02 2.05092E-04 2.88333E-01-6.88845E-15-7.77938E-14
 -1      3045 2.00605E+01 8.74116E-02 6.83482E-04 3.09648E-01-5.02848E-15-6.24952E-14
 -1      3046 2.01190E+01 1.10843E-01-5.65829E-04 2.65027E-01 1.89490E-14-9.33832E-14
 -1      3047 2.00371E+01 9.52753E-02-5.14811E-04 3.28951E-01 2.64135E-14-7.21426E-14
 -1      3048 2.00344E+01 1.11246E-01 9.49962E-04 3.51328E-01 1.35071E-14-5.92365E-14
 -1      3049 2.00767E+01 1.10882E-01-1.70431E-04 3.07917E-01 1.75688E-14-6.05454E-14
 -1      3050 2.00057E+01 1.33244E-01-1.23755E-03 3.71500E-01-4.42402E-14-3.91451E-14
 -1      3051 2.00024E+01 1.63893E-01 1.08157E-03 3.98536E-01-6.50760E-14-8.80291E-14
 -1      3052 2.00282E+01 1.44397E-01 3.68763E-04 3.48345E-01-2.56980E-14-5.17916E-14
 -1      3053 1.99639E+01 2.00417E-01-2.05438E-03 4.23066E-01-1.87301E-14-7.80059E-14
 -1      3054 1.99554E+01 2.47048E-01 1.06712E-03 4.58867E-01-8.44678E-15-3.84483E-14
 -1      3055 1.99672E+01 2.10864E-01 1.13604E-03 3.92468E-01-4.30827E-14-2.11048E-14
 -1      3056 1.99001E+01 3.00138E-01-3.05401E-03 4.90239E-01-7.58086E-15-5.08061E-15
 -1      3057 1.98796E+01 3.65470E-01 8.15159E-04 5.38439E-01 4.27070E-14 3.31836E-14
 -1      3058 1.98824E+01 3.12391E-01 2.25838E-03 4.45558E-01 2.59149E-14 1.68992E-14
 -1      3059 1.97970E+01 4.38710E-01-4.27759E-03 5.78080E-01 1.90263E-14 3.50710E-14
 -1      3060 1.97537E+01 5.26483E-01 1.36581E-04 6.41703E-01 3.24854E-15-3.11364E-14
 -1      3061 1.97568E+01 4.53935E-01 3.88919E-03 5.10408E-01 2.28243E-14 5.00664E-14
 -1      3062 1.96349E+01 6.17966E-01-6.09813E-03 6.87280E-01-4.56952E-14-1.08587E-13
 -1      3063 1.95602E+01 7.26416E-01-1.09159E-03 7.63837E-01-4.70354E-14-1.35678E-13
 -1      3064 1.95720E+01 6.37839E-01 6.56861E-03 5.84367E-01-9.06647E-14-7.90582E-14
 -1      3065 1.93742E+01 8.49928E-01-8.32475E-03 8.18374E-01-1.30798E-14-1.45748E-13
 -1      3066 1.92362E+01 9.92020E-01-2.82302E-03 9.17150E-01-3.27747E-14-1.84588E-13
 -1      3067 1.92899E+01 8.72633E-01 9.78634E-03 6.65913E-01-4.18091E-14-1.87471E-13
 -1      3068 1.89536E+01 1.14284E+00-1.17894E-02 9.74978E-01-3.29748E-14-1.73948E-13
 -1      3069 1.87240E+01 1.31057E+00-5.73186E-03 1.09158E+00-2.51589E-14-1.92170E-13
 -1      3070 1.88509E+01 1.17046E+00 1.50376E-02 7.46945E-01-3.80578E-14-1.43511E-13
 -1      3071 1.83007E+01 1.47876E+00-1.67656E-02 1.14844E+00-9.34290E-15-2.25264E-13
 -1      3072 1.79379E+01 1.65412E+00-9.11982E-03 1.28262E+00 2.89525E-15-2.19904E-13
 -1      3073 1.81869E+01 1.51607E+00 2.25922E-02 8.11138E-01-4.74859E-14-1.99913E-13
 -1      3074 1.73083E+01 1.80824E+00-2.35946E-02 1.33786E+00 3.64344E-14-2.53757E-13
 -1      3075 1.67649E+01 1.94453E+00-9.72140E-03 1.49755E+00 6.34037E-14-2.75367E-13
 -1      3076 1.71950E+01 1.87403E+00 3.44999E-02 8.42962E-01-1.49551E-14-1.71876E-13
 -1      3077 1.58281E+01 2.01587E+00-2.88748E-02 1.56635E+00 6.66385E-14-2.66752E-13
 -1      3078 1.50510E+01 2.00325E+00 2.67801E-03 1.79438E+00 9.81832E-14-2.99292E-13
 -1      3079 1.57228E+01 2.15712E+00 5.57389E-02 8.38160E-01 6.36975E-14-2.56688E-13
 -1      3080 1.37791E+01 1.86846E+00-2.65916E-02 1.90987E+00 9.92297E-14-3.40457E-13
 -1      3081 1.28300E+01 1.52297E+00 1.76665E-02 2.26718E+00 1.79042E-13-3.73125E-13
 -1      3082 1.36903E+01 2.20617E+00 1.05169E-01 8.14980E-01 6.68159E-14-3.76192E-13
 -1      3083 2.02374E+01 7.21247E-01-1.51818E-03 6.20537E-01 2.10753E-13 1.29144E-13
 -1      3084 1.70865E+01 1.89105E+00-8.74605E-03-1.98211E+00-1.23790E-13 4.37766E-14
 -1      3085 1.75547E+01 1.79470E+00-2.57891E-02-1.74246E+00 5.43921E-14 8.29549E-14
 -1      3086 1.57963E+01 2.16211E+00 5.26612E-02-1.45606E+00-2.25066E-13 1.82938E-13
 -1      3087 1.81646E+01 1.67322E+00-5.08630E-03-1.61124E+00 1.22678E-13-1.87657E-13
 -1      3088 1.84617E+01 1.51809E+00-1.77613E-02-1.42285E+00 2.45948E-14-2.20332E-13
 -1      3089 1.72559E+01 1.95399E+00 4.06443E-02-1.23806E+00-1.52324E-13-4.62456E-15
 -1      3090 1.88928E+01 1.35794E+00-3.36305E-03-1.30619E+00 7.24377E-15-2.84295E-13
 -1      3091 1.90909E+01 1.19266E+00-1.27309E-02-1.14003E+00-3.78248E-14-1.10520E-13
 -1      3092 1.82351E+01 1.60681E+00 2.46451E-02-1.06509E+00-8.10474E-15-3.44322E-13
 -1      3093 1.93746E+01 1.04321E+00-1.58286E-03-1.03772E+00-1.13660E-13-2.42999E-14
 -1      3094 1.94891E+01 9.02044E-01-8.93186E-03-9.00355E-01-1.10735E-13-4.27350E-14
 -1      3095 1.89064E+01 1.25698E+00 1.62673E-02-8.98471E-01-7.58063E-15-2.79189E-13
 -1      3096 1.96719E+01 7.79243E-01-1.10505E-04-8.11323E-01-9.77641E-14-5.80670E-14
 -1      3097 1.97320E+01 6.67202E-01-6.28724E-03-7.00448E-01-1.11424E-13-1.95732E-13
 -1      3098 1.93411E+01 9.53338E-01 1.06524E-02-7.39379E-01-1.32985E-13-2.52920E-13
 -1      3099 1.98474E+01 5.72408E-01 7.08871E-04-6.25181E-01-1.15377E-13-1.78184E-13
 -1      3100 1.98746E+01 4.87311E-01-4.41690E-03-5.37681E-01-4.31118E-14-2.76093E-13
 -1      3101 1.96161E+01 7.09271E-01 6.82316E-03-5.94480E-01-1.22600E-13-2.28837E-13
 -1      3102 1.99458E+01 4.16775E-01 1.10583E-03-4.75807E-01-2.31767E-13-2.82087E-13
 -1      3103 1.99545E+01 3.53853E-01-2.99375E-03-4.08008E-01-3.95804E-13-3.33475E-13
 -1      3104 1.97859E+01 5.21577E-01 4.22455E-03-4.68600E-01-1.59425E-13-3.25334E-13
 -1      3105 1.99961E+01 3.04710E-01 1.18074E-03-3.60745E-01-1.59785E-13-1.02560E-13
 -1      3106 1.99948E+01 2.60447E-01-2.08236E-03-3.10831E-01-9.83383E-14-1.33512E-13
 -1      3107 1.98861E+01 3.84126E-01 2.52487E-03-3.65550E-01-1.22906E-13-3.07913E-13
 -1      3108 2.00205E+01 2.22464E-01 1.07848E-03-2.70926E-01-3.91288E-14 1.06949E-13
 -1      3109 2.00149E+01 1.88734E-01-1.48716E-03-2.30970E-01-1.45541E-13 2.75070E-13
 -1      3110 1.99453E+01 2.82596E-01 1.56832E-03-2.81294E-01 1.14270E-13 3.50905E-14
 -1      3111 2.00295E+01 1.61585E-01 9.28653E-04-1.99909E-01-2.51845E-13 4.36093E-13
 -1      3112 2.00223E+01 1.37497E-01-9.73929E-04-1.69727E-01-3.20379E-13 3.23656E-13
 -1      3113 1.99796E+01 2.06307E-01 9.07077E-04-2.12057E-01-1.25504E-13 3.18244E-13
 -1      3114 2.00301E+01 1.18143E-01 8.21292E-04-1.45524E-01-4.51331E-13 3.50027E-13
 -1      3115 2.00235E+01 1.01953E-01-1.67616E-04-1.23248E-01-2.32462E-13 1.50128E-13
 -1      3116 1.99972E+01 1.51098E-01 3.32287E-04-1.57752E-01-3.89448E-13 3.33427E-13
 -1      3117 2.00349E+01 4.79280E-02 2.59352E-04-2.53342E-01 1.89867E-14-6.33795E-15
 -1      3118 2.00392E+01 6.96184E-02 1.43933E-03-2.32079E-01 5.47759E-14-1.66344E-15
 -1      3119 2.01136E+01 1.07726E-01-1.27614E-03-2.07117E-01 5.34629E-14-4.32247E-14
 -1      3120 2.72693E+01 2.84504E+00-1.32066E-01-2.04914E+00 2.74142E-13-2.05488E-13
 -1      3121 2.80847E+01 9.77821E-01-5.93015E-02-1.75696E+00 2.30427E-13-3.60129E-13
 -1      3122 2.00285E+01 2.08214E-02 5.14459E-04-2.83075E-01 4.18081E-14 5.83739E-15
 -1      3123 2.00245E+01 3.25314E-02 7.88153E-04-2.70829E-01 1.66877E-14 8.91542E-15
 -1      3124 2.00863E+01 5.43115E-02-1.09096E-03-2.57440E-01 1.40416E-14-3.58219E-14
 -1      3125 2.00763E+01-1.86041E-02 5.56403E-04-3.18883E-01 3.74029E-14 6.34400E-14
 -1      3126 2.00547E+01-1.06189E-02 2.52930E-04-3.18103E-01 3.84699E-14 2.75435E-14
 -1      3127 2.01180E+01-4.41009E-02 3.16482E-04-3.18540E-01 4.95971E-14 1.04989E-13
 -1      3128 2.00908E+01-2.93189E-02 5.21618E-04-3.22155E-01 5.95562E-14 9.99728E-14
 -1      3129 2.00871E+01-2.58333E-02-1.16495E-03-3.37243E-01 2.35611E-14 1.45878E-14
 -1      3130 2.01777E+01-8.86159E-02-1.00379E-04-3.06441E-01 1.28307E-14 8.73885E-14
 -1      3131 2.01441E+01-6.31202E-02 1.02513E-03-3.17531E-01 3.72618E-14 6.84346E-14
 -1      3132 2.01252E+01-6.09099E-02-1.50261E-03-3.42389E-01 7.31037E-14 2.65136E-14
 -1      3133 2.02599E+01-1.58851E-01-7.44733E-04-2.73997E-01 8.94186E-14 9.48007E-14
 -1      3134 2.02193E+01-1.19369E-01 1.76427E-03-2.97277E-01 2.96338E-14 7.34252E-14
 -1      3135 2.01884E+01-1.20277E-01-1.98467E-03-3.35900E-01 7.66782E-15 2.24130E-14
 -1      3136 2.03692E+01-2.58470E-01-1.65669E-03-2.09203E-01 3.89428E-14 1.70831E-13
 -1      3137 2.03215E+01-2.03618E-01 2.70043E-03-2.50756E-01 9.21699E-14 1.68444E-13
 -1      3138 2.02844E+01-2.11393E-01-2.55982E-03-3.08293E-01 3.60728E-14 8.96059E-14
 -1      3139 2.05081E+01-3.84391E-01-2.82384E-03-9.76261E-02-1.40779E-14 1.64446E-13
 -1      3140 2.04545E+01-3.16783E-01 3.69958E-03-1.64042E-01 9.66980E-16 2.13124E-13
 -1      3141 2.04211E+01-3.37335E-01-3.08689E-03-2.45872E-01 2.12204E-14 2.19029E-13
 -1      3142 2.06731E+01-5.21711E-01-4.11289E-03 7.47928E-02-3.00771E-14 1.81754E-13
 -1      3143 2.06179E+01-4.50695E-01 4.48091E-03-2.17330E-02-2.33701E-14 1.75399E-13
 -1      3144 2.06038E+01-4.91968E-01-3.30015E-03-1.31524E-01-2.14545E-14 1.78189E-13
 -1      3145 2.08507E+01-6.38342E-01-5.13024E-03 3.16214E-01 1.83645E-14 2.13179E-13
 -1      3146 2.08020E+01-5.82758E-01 4.57983E-03 1.88848E-01 1.67619E-14 2.19916E-13
 -1      3147 2.08297E+01-6.53715E-01-2.80377E-03 5.22973E-02-2.76874E-14 2.44092E-13
 -1      3148 2.10135E+01-6.82216E-01-5.13491E-03 6.19238E-01-4.05692E-15 1.93693E-13
 -1      3149 2.09833E+01-6.71186E-01 3.34408E-03 4.69694E-01 1.73350E-14 2.16195E-13
 -1      3150 2.10816E+01-7.78787E-01-1.06709E-03 3.17006E-01 1.89726E-14 2.38196E-13
 -1      3151 2.11204E+01-5.87904E-01-3.09112E-03 9.48062E-01-8.16161E-14 2.52996E-13
 -1      3152 2.11219E+01-6.55942E-01 2.87052E-04 7.99663E-01-2.95038E-14 2.23770E-13
 -1      3153 2.13216E+01-8.00406E-01 2.00980E-03 6.55127E-01-3.39227E-14 2.47852E-13
 -1      3154 2.11267E+01-3.00097E-01 1.51046E-03 1.22669E+00-1.02543E-13 3.20660E-13
 -1      3155 2.11684E+01-4.72143E-01-4.63483E-03 1.12034E+00-1.09683E-13 2.36168E-13
 -1      3156 2.14911E+01-6.38107E-01 6.14899E-03 1.02290E+00-1.21155E-13 2.39566E-13
 -1      3157 2.10093E+01 1.82542E-01 7.70022E-03 1.34389E+00-1.59693E-13 4.14070E-13
 -1      3158 2.10863E+01-8.47384E-02-9.88157E-03 1.33080E+00-1.19778E-13 3.57558E-13
 -1      3159 2.15271E+01-2.37152E-01 8.83197E-03 1.32435E+00-1.40302E-13 2.50699E-13
 -1      3160 2.07960E+01 7.66420E-01 1.23453E-02 1.19004E+00 2.08385E-14 3.60148E-13
 -1      3161 2.08861E+01 4.65409E-01-1.24339E-02 1.31092E+00-1.07069E-14 4.17833E-13
 -1      3162 2.14024E+01 3.79543E-01 7.75086E-03 1.42180E+00-1.00906E-13 3.38239E-13
 -1      3163 2.05767E+01 1.26241E+00 1.11408E-02 7.24713E-01-2.86444E-14 2.83384E-13
 -1      3164 2.06453E+01 1.03387E+00-9.77764E-03 9.79690E-01 4.46450E-14 3.33498E-13
 -1      3165 2.11668E+01 1.06859E+00 1.90616E-03 1.19003E+00 7.17459E-14 4.95957E-13
 -1      3166 2.04688E+01 1.46502E+00 3.37520E-03 3.88141E-02 6.38865E-14 1.75075E-13
 -1      3167 2.04859E+01 1.40775E+00-1.93669E-03 3.68750E-01 3.65655E-14 2.07919E-13
 -1      3168 2.09509E+01 1.58734E+00-5.81961E-03 6.08066E-01 8.98825E-14 2.72596E-13
 -1      3169 2.05369E+01 1.28487E+00-6.31567E-03-6.63733E-01 1.02024E-13 5.29064E-14
 -1      3170 2.04955E+01 1.42448E+00 7.16677E-03-3.54487E-01 7.23250E-14 1.44557E-13
 -1      3171 2.08927E+01 1.71865E+00-8.38727E-03-1.76538E-01 9.70858E-14 2.29010E-13
 -1      3172 2.07492E+01 8.01260E-01-1.15829E-02-1.16786E+00 4.76051E-15 1.01476E-13
 -1      3173 2.06663E+01 1.07474E+00 1.26070E-02-9.66718E-01 8.45008E-14 9.85417E-14
 -1      3174 2.10331E+01 1.40663E+00-1.52323E-03-9.02637E-01 7.56025E-14 1.59722E-13
 -1      3175 2.09873E+01 2.18585E-01-1.17674E-02-1.36124E+00 7.92161E-14-1.00798E-14
 -1      3176 2.08981E+01 5.14986E-01 1.07794E-02-1.30072E+00 7.73109E-14 7.16250E-14
 -1      3177 2.12779E+01 7.79733E-01 5.23793E-03-1.34130E+00 1.23721E-13 1.64720E-13
 -1      3178 2.11423E+01-2.69702E-01-7.48601E-03-1.26994E+00 1.51000E-13 3.88076E-14
 -1      3179 2.10781E+01-4.09793E-02 5.02049E-03-1.32813E+00 2.39899E-14-3.09150E-14
 -1      3180 2.14775E+01 9.83066E-02 8.88023E-03-1.42109E+00 6.36377E-14-8.73152E-14
 -1      3181 2.11673E+01-5.65066E-01-2.02444E-03-1.00134E+00 6.21598E-14 1.08664E-13
 -1      3182 2.11422E+01-4.41401E-01-6.87676E-04-1.12962E+00 1.65008E-13 1.89464E-13
 -1      3183 2.15331E+01-4.30885E-01 8.41077E-03-1.22042E+00 2.94960E-14-7.29458E-14
 -1      3184 2.10761E+01-6.64883E-01 1.99912E-03-6.72606E-01 9.85587E-14 3.78839E-14
 -1      3185 2.10884E+01-6.37234E-01-4.29074E-03-8.22315E-01 1.22143E-13 1.50573E-13
 -1      3186 2.14322E+01-7.21832E-01 4.32786E-03-8.79849E-01 1.59150E-13 1.16585E-13
 -1      3187 2.09153E+01-6.22837E-01 4.25014E-03-3.66909E-01-8.34093E-14-7.25306E-14
 -1      3188 2.09533E+01-6.59531E-01-5.36641E-03-5.04748E-01 5.38415E-16-1.16902E-13
 -1      3189 2.12245E+01-7.89908E-01 5.50208E-04-5.23212E-01 1.16727E-13 1.37789E-13
 -1      3190 2.07314E+01-5.04239E-01 4.83063E-03-1.25011E-01-1.00290E-13-1.43602E-13
 -1      3191 2.07817E+01-5.72093E-01-4.86296E-03-2.34452E-01-1.27259E-13-1.78432E-13
 -1      3192 2.09739E+01-7.08956E-01-1.96991E-03-2.22318E-01-1.04345E-13-9.07109E-14
 -1      3193 2.05571E+01-3.61992E-01 4.38339E-03 4.33516E-02-1.49495E-13-5.88544E-14
 -1      3194 2.06093E+01-4.36129E-01-3.70411E-03-3.36444E-02-1.31918E-13-1.11200E-13
 -1      3195 2.07302E+01-5.55167E-01-3.13056E-03-3.26396E-03-1.54805E-13-2.79403E-13
 -1      3196 2.04094E+01-2.29339E-01 3.48730E-03 1.45931E-01-1.85491E-13 1.45556E-13
 -1      3197 2.04573E+01-2.95240E-01-2.46676E-03 9.82497E-02-1.60364E-13 5.76887E-14
 -1      3198 2.05220E+01-3.86006E-01-3.24819E-03 1.36272E-01-2.28517E-13-8.25572E-14
 -1      3199 2.02932E+01-1.22085E-01 2.51227E-03 1.97273E-01-7.03212E-14 3.76351E-13
 -1      3200 2.03339E+01-1.73597E-01-1.43282E-03 1.72794E-01-1.88824E-13 2.27545E-13
 -1      3201 2.03590E+01-2.35162E-01-2.82206E-03 2.11478E-01-2.50788E-13 1.71808E-13
 -1      3202 2.02063E+01-4.42294E-02 1.65321E-03 2.12550E-01-9.22371E-14 6.33852E-13
 -1      3203 2.02394E+01-8.05262E-02-6.70831E-04 2.04683E-01-7.97768E-14 5.77718E-13
 -1      3204 2.02394E+01-1.16937E-01-2.21189E-03 2.40274E-01-2.33204E-13 4.81684E-13
 -1      3205 2.01438E+01 6.82017E-03 9.84377E-04 2.04797E-01-5.20649E-14 6.00722E-13
 -1      3206 2.01699E+01-1.62221E-02-1.57295E-04 2.07727E-01 1.25521E-15 6.90830E-13
 -1      3207 2.01560E+01-3.33641E-02-1.61443E-03 2.38666E-01-1.51912E-13 7.06056E-13
 -1      3208 2.00998E+01 3.64943E-02 5.09562E-04 1.84020E-01 1.19958E-13 5.43168E-13
 -1      3209 2.01201E+01 2.36926E-02 1.59213E-04 1.93185E-01 3.79264E-14 5.66032E-13
 -1      3210 2.01003E+01 1.99255E-02-1.11763E-03 2.19184E-01-8.90738E-15 6.99845E-13
 -1      3211 2.00693E+01 5.07631E-02 1.99460E-04 1.57279E-01-4.34826E-14 4.28359E-13
 -1      3212 2.00850E+01 4.51401E-02 3.31458E-04 1.69402E-01 8.41815E-14 3.91605E-13
 -1      3213 2.00643E+01 4.97448E-02-7.42556E-04 1.90803E-01 1.06992E-13 3.74107E-13
 -1      3214 2.00483E+01 5.49600E-02 1.46382E-05 1.29161E-01-1.04262E-14 1.55085E-13
 -1      3215 2.00604E+01 5.38886E-02 4.03725E-04 1.42079E-01 6.72426E-14 3.53894E-13
 -1      3216 2.00416E+01 6.30464E-02-4.77390E-04 1.59485E-01 1.13540E-13 4.04901E-13
 -1      3217 2.00336E+01 5.33238E-02-7.26903E-05 1.02371E-01 3.71255E-14-1.04245E-13
 -1      3218 2.00429E+01 5.47703E-02 4.11379E-04 1.14784E-01-5.54601E-14-1.15759E-14
 -1      3219 2.00275E+01 6.58097E-02-2.97240E-04 1.28855E-01 1.18533E-13 4.07601E-13
 -1      3220 2.00233E+01 4.91800E-02 4.66910E-05 7.83899E-02-5.41274E-14-2.19185E-13
 -1      3221 2.00304E+01 5.13892E-02 3.65724E-04 8.95180E-02-3.28244E-14-1.95095E-13
 -1      3222 2.00187E+01 6.26743E-02-1.86651E-04 1.00924E-01 5.04052E-14-3.02371E-14
 -1      3223 2.00150E+01 4.90647E-02 1.62588E-04 6.44707E-02-2.70220E-13-7.20246E-14
 -1      3224 2.00204E+01 4.91510E-02 2.82914E-04 7.15727E-02-1.89309E-13-1.70617E-13
 -1      3225 2.00119E+01 5.97036E-02-1.73512E-04 8.07693E-02-2.60951E-13-1.14460E-13
 -1      3226 2.00065E+01 5.82029E-02-3.30642E-04 6.69712E-02-8.91446E-14-2.46815E-13
 -1      3227 1.99443E+01 1.36969E-01-2.25161E-04-2.51631E-02-1.91679E-13-4.64967E-14
 -1      3228 1.99417E+01 1.38007E-01-2.37588E-04-1.23159E-02-1.75622E-13 6.77636E-14
 -1      3229 1.99414E+01 1.35549E-01-3.86164E-04 3.36520E-03-1.96957E-13-1.15996E-13
 -1      3230 1.99435E+01 1.33189E-01-1.33951E-05 1.61587E-02-1.06234E-13-1.73641E-13
 -1      3231 1.99304E+01 1.51037E-01 5.56684E-04-2.95751E-03-1.84645E-13 9.33428E-15
 -1      3232 2.00893E+01 2.26386E+00-6.25661E-03-1.11182E+00-1.09904E-13-2.92640E-13
 -1      3233 2.01657E+01 2.08642E+00-8.21558E-03-1.19773E+00-1.30220E-13-2.80430E-13
 -1      3234 2.02366E+01 1.79100E+00 5.34633E-03-1.03939E+00-1.19848E-13-2.59719E-13
 -1      3235 2.01719E+01 1.99728E+00 8.06996E-03-9.07817E-01-8.27230E-14-2.58032E-13
 -1      3236 2.79718E+01 6.58812E+00-1.36598E-01 1.02784E+00 3.52607E-13-2.06793E-13
 -1      3237 2.77474E+01 7.00689E+00-1.55184E-01 4.25091E-04 4.01679E-13-1.74930E-13
 -1      3238 1.47324E+01-1.59720E+00 2.53860E-02 5.84318E+00-3.93484E-13-3.09405E-13
 -1      3239 1.24914E+01-3.89744E-01 1.81413E-01 5.12365E+00-2.53200E-13-2.47441E-13
 -1      3240 2.00035E+01 8.72154E-02 3.58301E-04-7.86337E-02 6.19405E-14 1.93370E-13
 -1      3241 1.99881E+01 9.87398E-02-8.85405E-04-7.54819E-02-1.67755E-13 2.96532E-13
 -1      3242 2.00090E+01 9.08136E-02 6.82027E-04-8.87610E-02 8.34257E-14 1.80065E-13
 -1      3243 2.00452E+01 2.18404E+00-4.32615E-03 2.87227E-01 1.64335E-13-1.85658E-13
 -1      3244 2.00319E+01 2.22343E+00-3.42078E-03 1.67500E-01 1.47221E-13-2.13475E-13
 -1      3245 2.79352E+01-9.92718E-01-4.02628E-02 8.12268E-01 5.82520E-14 1.26857E-13
 -1      3246 2.79661E+01 7.16330E-01-1.22339E-01 1.60883E+00 1.37723E-13 7.46625E-14
 -1      3247 8.75367E+00 1.22691E+00 1.38674E-01 2.31138E-01-3.03672E-13-7.09155E-15
 -1      3248 9.82820E+00 1.12528E+00 1.52443E-01-1.89699E+00-4.15144E-13 2.75863E-13
 -1      3249 1.01356E+01 2.77058E-01 3.40516E-02 3.95735E+00-1.88294E-13-2.11262E-13
 -1      3250 8.97580E+00 1.02770E+00 1.49637E-01 1.93451E+00-2.43878E-13-2.20962E-13
 -1      3251 1.14962E+01-1.35613E-01 9.77302E-02-4.62511E+00-1.55383E-13-3.25892E-13
 -1      3252 1.36380E+01-1.48345E+00 2.94215E-02-5.97524E+00-2.91510E-13-2.77237E-13
 -1      3253 1.99568E+01 1.29249E-01-2.69378E-05-5.16906E-02-6.85300E-14-1.21368E-13
 -1      3254 1.99493E+01 1.33975E-01-4.43357E-04-4.03109E-02-1.60226E-13-3.78597E-14
 -1      3255 1.99363E+01 1.50845E-01 6.01815E-04-3.54997E-02-1.89184E-13-1.80548E-14
 -1      3256 2.00489E+01-4.46185E-03 6.57406E-04-3.12532E-01 7.30982E-14 2.24243E-14
 -1      3257 2.00326E+01 7.36677E-04 2.08841E-04-3.08760E-01 8.08402E-14 5.30301E-14
 -1      3258 2.00676E+01-6.05409E-03-9.71343E-04-3.25960E-01 5.76669E-14 1.35457E-14
 -1      3259 1.99773E+01 1.12096E-01 1.92441E-04-6.97607E-02-1.31482E-13-3.84004E-13
 -1      3260 1.99660E+01 1.20107E-01-6.17219E-04-6.21961E-02-2.53805E-14-3.92931E-13
 -1      3261 1.99533E+01 1.39655E-01 6.39391E-04-6.26859E-02-1.65397E-13-2.89049E-13
 -1      3262 1.99782E+01 1.18745E-01 6.43278E-04-8.01269E-02-9.85522E-14-1.20332E-13
 -1      3263 1.64887E+01-2.59569E+00 1.21491E-01-6.29867E+00-3.26260E-13-1.49047E-13
 -1      3264 1.93224E+01-3.91995E+00-4.19785E-02-6.21125E+00-2.37144E-13 1.38070E-13
 -1      3265 9.63756E+00 1.38724E+00 7.08240E-02-1.03894E+00 1.30808E-13-4.18179E-13
 -1      3266 1.02102E+01 8.85390E-01 9.55549E-02-3.03405E+00-2.07750E-14-3.47652E-13
 -1      3267 2.21983E+01-4.29184E+00 1.05945E-01-5.16732E+00-1.51761E-13 1.12728E-13
 -1      3268 2.44242E+01-4.58099E+00-9.42220E-02-3.88717E+00-1.34399E-13 2.26296E-13
 -1      3269 2.00332E+01 6.09199E-03 6.41720E-04-3.01144E-01 7.38960E-14 1.31200E-14
 -1      3270 2.00226E+01 1.24857E-02 3.84437E-04-2.94115E-01 7.89408E-14-6.10874E-15
 -1      3271 2.00626E+01 7.67215E-03-9.09536E-04-3.10425E-01 4.71496E-14-4.27345E-14
 -1      3272 2.63075E+01-3.93656E+00 5.61232E-02-2.32994E+00-1.02585E-13 2.68480E-13
 -1      3273 2.72414E+01-2.83699E+00-8.21332E-02-6.59534E-01-4.84734E-14 1.63460E-13
 -1      3274 2.49752E+01-3.93334E+00 2.60080E-02-2.69448E+00-1.48416E-13 1.95259E-13
 -1      3275 2.61977E+01-3.90935E+00-6.20308E-02 2.23790E+00-2.62814E-13-2.03450E-13
 -1      3276 2.45449E+01-4.37967E+00 2.65629E-02 3.71807E+00-3.75210E-13-1.99145E-13
 -1      3277 2.02667E+01 1.48156E+00 1.06429E-02 5.76550E-01 2.00514E-13-1.50782E-14
 -1      3278 2.01604E+01 1.81479E+00-8.20823E-03 6.71455E-01 2.19038E-13-6.48867E-14
 -1      3279 2.01241E+01 1.94921E+00-2.96226E-03 5.78704E-01 2.05520E-13-9.70435E-14
 -1      3280 2.73364E+01-2.08860E-01-4.00565E-02-1.31343E+00 4.20740E-14-3.97536E-13
 -1      3281 2.00868E+01 1.80177E-01-9.31907E-04-1.20707E-01 7.92456E-14-2.52233E-14
 -1      3282 2.01160E+01 2.43228E-01 4.14653E-03-6.14394E-02 8.59353E-14-1.70297E-14
 -1      3283 2.01507E+01 1.98506E-01-1.47311E-03-1.26460E-01 5.62631E-14-4.83785E-14
 -1      3284 1.33225E+01 1.58201E+00 4.10993E-02-2.42845E+00-3.97120E-13 3.60489E-13
 -1      3285 1.27753E+01 1.98122E+00 7.01056E-02-1.22508E+00-4.56064E-13 2.32963E-13
 -1      3286 2.02364E+01 7.77728E-01-2.67723E-03 5.13812E-01 2.00426E-13 4.71862E-14
 -1      3287 2.02863E+01 9.23922E-01 4.84867E-03 7.43996E-01 2.16874E-13 9.43813E-14
 -1      3288 2.01226E+01 1.95799E+00-3.13059E-03-5.72505E-01 4.77212E-16-2.30587E-13
 -1      3289 2.01609E+01 1.82448E+00-7.90253E-03-6.68173E-01-3.18558E-14-2.34354E-13
 -1      3290 2.00692E+01 2.45886E-02-9.58366E-04-2.89166E-01 6.42499E-14-4.87673E-14
 -1      3291 2.72123E+01-2.18621E+00-5.14052E-02 1.77528E-01-4.35403E-14 1.96593E-13
 -1      3292 2.66096E+01-1.30574E+00-3.90058E-02 9.13960E-01-5.82017E-14 1.93928E-13
 -1      3293 2.61409E+01-2.78057E+00 1.49418E-02-5.09824E-01-1.14894E-13 2.46637E-13
 -1      3294 2.76724E+01 1.69857E+00-7.15627E-02 1.98520E+00 9.93927E-14-1.98452E-14
 -1      3295 2.70094E+01 2.66161E+00-1.03450E-01 2.08969E+00 6.21239E-14-1.47451E-13
 -1      3296 2.69002E+01 6.35005E-01-5.47091E-02 1.71928E+00-3.00038E-14 1.87940E-14
 -1      3297 1.24481E+01 4.85962E-01 2.70671E-01 3.94109E+00 3.55396E-13-4.33736E-13
 -1      3298 2.71128E+01 5.22976E+00-1.13016E-01 1.40736E+00 2.78361E-13-2.17160E-13
 -1      3299 1.24842E+01 3.95438E-01 1.01949E-01 3.94376E+00-2.18277E-13-2.15265E-13
 -1      3300 2.00599E+01 2.78216E-01-2.77864E-03 3.56628E-02 1.09452E-13 3.34432E-14
 -1      3301 2.00197E+01 9.82864E-02 5.97602E-04-1.10988E-01-2.73439E-13 2.34010E-13
 -1      3302 2.00117E+01 9.44829E-02 3.01434E-04-9.93080E-02-7.76358E-14 1.61095E-13
 -1      3303 1.99907E+01 1.09705E-01-9.12896E-04-9.64931E-02-3.34705E-13 4.80436E-13
 -1      3304 1.99969E+01 1.22106E-01-5.16487E-04-1.20776E-01-3.88317E-13 3.79571E-13
 -1      3305 2.68662E+01 3.49761E+00-1.15046E-01-2.04284E+00 2.44457E-13-1.79842E-13
 -1      3306 2.61956E+01 2.08728E+00-3.69844E-02-2.01435E+00 1.64091E-13-2.94730E-13
 -1      3307 2.61665E+01 4.13604E+00-9.49062E-02-1.82371E+00 3.03479E-13-1.90091E-13
 -1      3308 1.99602E+01 1.10864E-01-4.70020E-04 5.16297E-02 1.68667E-13 3.00721E-13
 -1      3309 1.99686E+01 1.03368E-01 2.23926E-04 5.92322E-02 1.34767E-13 6.10638E-13
 -1      3310 2.38281E+01-3.84681E+00 2.36725E-02 3.27659E+00-3.57396E-13-1.37039E-13
 -1      3311 2.30067E+01-4.25020E+00 1.87186E-02 4.49447E+00-4.02574E-13-2.01172E-13
 -1      3312 2.11299E+01-3.58410E+00 2.00865E-02 4.87060E+00-3.87430E-13-1.29938E-13
 -1      3313 1.99473E+01 1.26220E-01-4.71449E-04 3.01072E-02-3.62764E-14-3.28085E-13
 -1      3314 1.99532E+01 1.20966E-01 1.60138E-04 4.09172E-02 1.22631E-13-1.48202E-13
 -1      3315 1.99486E+01 1.25379E-01 2.42086E-04 5.36354E-02 1.01717E-13 1.41434E-14
 -1      3316 1.99352E+01 1.41768E-01 4.15707E-04 2.80404E-02-1.01848E-13-3.04617E-13
 -1      3317 1.08177E+01 1.10474E+00 6.18673E-02 2.07009E+00 2.23252E-13-5.04596E-13
 -1      3318 2.00909E+01 2.05313E+00-5.25753E-03-4.88161E-01 2.59372E-14-2.23984E-13
 -1      3319 2.01996E+01 1.72580E+00 4.71206E-03-4.40229E-01 1.07845E-14-2.03259E-13
 -1      3320 2.00653E+01 2.13338E+00-2.94555E-03-3.74541E-01 5.73247E-14-2.00949E-13
 -1      3321 2.66369E+01 6.07358E+00-1.14957E-01-4.36395E-01 3.75117E-13-2.73996E-13
 -1      3322 2.02432E+01 1.51434E+00-4.89211E-03-8.80930E-01-1.09093E-13-2.33505E-13
 -1      3323 1.61222E+01-1.65223E+00 1.03566E-01-5.53719E+00-3.05977E-13-1.96315E-13
 -1      3324 1.67063E+01-2.04752E+00 1.21382E-01 5.81698E+00-4.26818E-13-1.80321E-13
 -1      3325 1.58558E+01-1.10821E+00 2.15095E-02 5.08529E+00-3.85421E-13-3.17326E-13
 -1      3326 1.85269E+01-2.59354E+00 2.17147E-02 5.37552E+00-4.58626E-13-1.11192E-13
 -1      3327 2.00919E+01 2.04487E+00-5.51435E-03 4.95428E-01 2.03698E-13-1.25158E-13
 -1      3328 2.00660E+01 2.12681E+00-3.21382E-03 3.83676E-01 1.78627E-13-1.53455E-13
 -1      3329 2.01606E+01 1.87448E+00 5.55593E-03 2.83722E-01 1.46303E-13-1.57359E-13
 -1      3330 2.02034E+01 1.72123E+00 6.87738E-03 4.49163E-01 1.89653E-13-9.92970E-14
 -1      3331 2.11547E+01-3.61583E+00 6.83337E-02-4.99450E+00-2.33848E-13 1.55091E-13
 -1      3332 1.22336E+01 6.50825E-01 1.04575E-01-3.50254E+00-6.26374E-14-2.44325E-13
 -1      3333 2.02338E+01 1.54508E+00-2.82362E-03-7.73841E-01-7.66489E-14-2.37277E-13
 -1      3334 1.04996E+01 1.50063E+00 1.37687E-01 9.56565E-01-2.45054E-13-6.26860E-14
 -1      3335 2.01371E+01 1.95144E+00 5.13489E-03 9.89686E-02 1.37666E-13-2.02721E-13
 -1      3336 2.00248E+01 2.24282E+00-3.72201E-03 6.51320E-02 1.53753E-13-2.13060E-13
 -1      3337 2.00245E+01 2.24376E+00-3.71342E-03-5.68030E-02 1.28011E-13-2.20784E-13
 -1      3338 1.99670E+01 1.05819E-01 1.94833E-04 7.00180E-02 3.08517E-13 4.12715E-13
 -1      3339 1.99765E+01 9.29552E-02-3.80658E-04 6.43997E-02 2.62577E-13 6.15020E-13
 -1      3340 1.99846E+01 8.54097E-02 1.77718E-04 6.73472E-02 2.41204E-13 3.10850E-13
 -1      3341 1.05668E+01 1.76707E+00 1.82732E-01 3.91261E-01 1.20092E-13-4.86999E-13
 -1      3342 1.16978E+01 1.79288E+00 5.98354E-02-3.99486E-01 4.66181E-14-3.63896E-13
 -1      3343 1.25649E+01 8.91450E-01 1.02197E-01-2.96802E+00-4.67973E-13 5.66908E-13
 -1      3344 2.01531E+01 4.65918E-01-1.62691E-03 2.08097E-01 1.36565E-13 4.39875E-14
 -1      3345 2.02202E+01 6.11649E-01 8.93790E-03 3.52041E-01 1.61574E-13 4.83812E-14
 -1      3346 2.02390E+01 7.48983E-01-6.34279E-03 4.47852E-01 1.84976E-13 3.28779E-14
 -1      3347 2.67326E+01-2.47795E+00-8.28122E-02 9.19897E-02-7.33788E-14-2.87218E-13
 -1      3348 2.68099E+01-3.28521E+00-6.70641E-04 1.14814E+00-1.56197E-13-2.43736E-13
 -1      3349 2.56715E+01-3.49381E+00-4.31079E-03 1.62528E+00-1.98788E-13-1.37114E-13
 -1      3350 1.22058E+01 2.00405E+00 4.42568E-02-9.29954E-02-4.13749E-13 6.13606E-14
 -1      3351 1.44173E+01 2.12741E+00 2.22510E-02-5.74906E-01-3.61317E-13 2.06150E-13
 -1      3352 1.23144E+01 1.71273E+00 1.41983E-02 1.50963E+00-3.44089E-13-6.43652E-14
 -1      3353 2.01049E+01 3.19177E-02 5.09340E-04-2.85655E-01 6.68078E-14-3.89915E-14
 -1      3354 2.01119E+01 4.46025E-02 5.70876E-04-2.71452E-01 5.20836E-14-4.44152E-14
 -1      3355 2.03241E+01 7.88011E-01 3.61666E-03-2.31747E-01-1.37385E-14-1.68033E-13
 -1      3356 2.02993E+01 6.27712E-01-4.05224E-03-1.23967E-01-8.10721E-15-1.27357E-13
 -1      3357 2.03019E+01 5.00884E-01 2.28285E-03-4.75339E-02-1.12463E-14-1.18557E-13
 -1      3358 2.02773E+01 3.92986E-01-2.05758E-03 2.82034E-02-1.34428E-14-9.88803E-14
 -1      3359 2.03303E+01 6.45651E-01 9.87057E-04-9.53050E-02-6.37267E-16-1.48304E-13
 -1      3360 2.02653E+01 3.09731E-01 1.79765E-03 8.19730E-02-4.12476E-14-1.03451E-13
 -1      3361 2.02398E+01 2.42898E-01-1.12291E-03 1.33656E-01-2.33142E-14-1.16893E-13
 -1      3362 2.03088E+01 4.06722E-01 1.15360E-04 3.85011E-02-1.74150E-14-8.73889E-14
 -1      3363 2.02183E+01 1.94140E-01 1.16555E-03 1.70090E-01-9.53956E-15-1.01680E-13
 -1      3364 2.01941E+01 1.58301E-01-4.48669E-04 2.05172E-01 2.27757E-14-8.50709E-14
 -1      3365 2.02680E+01 2.56103E-01-1.24213E-04 1.31550E-01-2.24532E-14-8.13061E-14
 -1      3366 2.01676E+01 1.36666E-01 5.24429E-04 2.28762E-01 3.61534E-14-1.12890E-13
 -1      3367 2.01458E+01 1.24620E-01-5.22071E-05 2.53004E-01 3.58926E-15-1.11576E-13
 -1      3368 2.02163E+01 1.73991E-01-1.62655E-04 1.93989E-01 1.24715E-14-1.02372E-13
 -1      3369 2.01122E+01 1.22027E-01-1.12509E-04 2.71164E-01 1.00436E-14-1.17335E-13
 -1      3370 2.00886E+01 1.29035E-01 1.39823E-04 2.92011E-01 3.44592E-14-9.67655E-14
 -1      3371 2.01554E+01 1.43390E-01 1.05373E-04 2.37458E-01 1.36579E-14-1.46340E-13
 -1      3372 2.00478E+01 1.44699E-01-7.31306E-04 3.06605E-01 3.39903E-14-1.06925E-13
 -1      3373 2.00204E+01 1.69400E-01 1.16619E-04 3.26806E-01-1.37007E-14-8.16109E-14
 -1      3374 2.00825E+01 1.54776E-01 5.36930E-04 2.70731E-01 3.39146E-14-1.65126E-13
 -1      3375 1.99694E+01 2.01966E-01-1.37007E-03 3.40309E-01-5.26329E-14-3.30396E-14
 -1      3376 1.99332E+01 2.43871E-01-1.68413E-04 3.62708E-01-3.45490E-14 4.96149E-15
 -1      3377 1.99944E+01 2.04486E-01 1.20266E-03 2.97919E-01 1.72516E-14-1.21711E-13
 -1      3378 1.98664E+01 2.93780E-01-2.07017E-03 3.76026E-01-2.73409E-14 4.89440E-14
 -1      3379 1.98141E+01 3.53830E-01-8.14492E-04 4.02172E-01 4.67390E-14 1.92208E-14
 -1      3380 1.98821E+01 2.90520E-01 2.17878E-03 3.21648E-01-1.91251E-14 2.59787E-14
 -1      3381 1.97233E+01 4.23013E-01-2.81647E-03 4.14447E-01 2.29511E-14-3.52200E-14
 -1      3382 1.96435E+01 5.03161E-01-1.93643E-03 4.44165E-01-5.13533E-14-9.44234E-14
 -1      3383 1.97322E+01 4.13607E-01 3.55824E-03 3.40939E-01 5.93967E-16-1.66581E-14
 -1      3384 1.95237E+01 5.88667E-01-3.86552E-03 4.51867E-01-7.89700E-14-1.13935E-13
 -1      3385 1.94086E+01 6.85588E-01-3.81619E-03 4.81564E-01-8.09047E-14-1.34560E-13
 -1      3386 1.95310E+01 5.71752E-01 5.60846E-03 3.50065E-01-5.46482E-14-6.35862E-14
 -1      3387 1.92331E+01 7.98953E-01-4.92625E-03 4.79747E-01-6.59839E-14-7.08006E-14
 -1      3388 1.90474E+01 9.23491E-01-6.61101E-03 5.07358E-01-3.07107E-14-8.32095E-14
 -1      3389 1.92480E+01 7.69740E-01 8.23249E-03 3.39116E-01-3.19720E-14-6.34497E-14
 -1      3390 1.87966E+01 1.06071E+00-6.60191E-03 4.85042E-01-4.02119E-14-5.78609E-14
 -1      3391 1.85129E+01 1.20599E+00-1.09337E-02 5.00259E-01-5.35787E-14-1.21023E-13
 -1      3392 1.88361E+01 1.01365E+00 1.22224E-02 2.87163E-01-4.99765E-14-7.73069E-15
 -1      3393 1.81554E+01 1.36111E+00-8.99593E-03 4.42620E-01-8.14922E-14-1.24748E-13
 -1      3394 1.77275E+01 1.51545E+00-1.70967E-02 4.33179E-01-9.73687E-14-1.16661E-13
 -1      3395 1.82473E+01 1.28948E+00 1.77636E-02 1.64000E-01-7.16784E-14-1.44064E-14
 -1      3396 1.72171E+01 1.67039E+00-1.25369E-02 3.20790E-01-2.87294E-14-1.60876E-13
 -1      3397 1.65799E+01 1.80602E+00-2.44365E-02 2.73562E-01 2.72421E-14-1.42119E-13
 -1      3398 1.74076E+01 1.57127E+00 2.60213E-02-7.29950E-02-4.34984E-14-5.00663E-14
 -1      3399 1.58491E+01 1.92382E+00-1.42696E-02 8.56228E-02-1.14934E-14-1.83172E-13
 -1      3400 1.49167E+01 1.98135E+00-2.18931E-02-8.60652E-03 2.52784E-14-2.52976E-13
 -1      3401 1.62109E+01 1.80169E+00 4.02819E-02-4.78844E-01-5.02658E-15-8.51940E-14
 -1      3402 1.40250E+01 2.00534E+00-1.14039E-02-1.67496E-01 3.28799E-14-3.09973E-13
 -1      3403 1.28516E+01 1.91785E+00 5.79704E-03-2.76514E-01 2.55785E-14-3.46403E-13
 -1      3404 1.25765E+01 1.79294E+00 1.10526E-01-1.56541E+00 3.71049E-14-2.91940E-13
 -1      3405 1.46579E+01 1.90621E+00 7.02848E-02-1.00008E+00-3.27750E-14-1.19607E-13
 -1      3406 1.52369E+01 2.11539E+00-3.20028E-04-5.31904E-01-3.45350E-13-1.96466E-14
 -1      3407 1.64927E+01 1.94709E+00-2.07189E-02-6.53906E-01-3.02001E-13 9.25648E-14
 -1      3408 1.70889E+01 1.80031E+00-1.82999E-02-6.32777E-01-1.33998E-13 4.72010E-14
 -1      3409 1.76630E+01 1.65140E+00-1.53448E-02-6.91051E-01-6.19396E-14-9.64470E-14
 -1      3410 1.80986E+01 1.48717E+00-1.15337E-02-6.45562E-01-5.16206E-14-2.07212E-13
 -1      3411 1.72174E+01 1.76277E+00 3.48865E-02-1.83622E-01-2.09340E-13 1.12426E-13
 -1      3412 1.84908E+01 1.32505E+00-1.03779E-02-6.61166E-01 2.05597E-14-2.63135E-13
 -1      3413 1.87743E+01 1.17239E+00-8.35798E-03-6.04536E-01-2.82928E-14-2.85141E-13
 -1      3414 1.81327E+01 1.45199E+00 2.10596E-02-3.29597E-01-8.83471E-14-1.31684E-13
 -1      3415 1.90418E+01 1.02916E+00-6.36501E-03-5.93829E-01-6.07003E-14-2.46558E-13
 -1      3416 1.92224E+01 8.99344E-01-6.15940E-03-5.33573E-01-9.14273E-14-1.57363E-13
 -1      3417 1.87649E+01 1.15258E+00 1.41944E-02-3.83334E-01-4.90813E-14-2.14142E-13
 -1      3418 1.94034E+01 7.82302E-01-3.62998E-03-5.08795E-01-1.61589E-13-1.74321E-13
 -1      3419 1.95155E+01 6.78110E-01-4.58626E-03-4.51187E-01-1.57384E-13-1.66233E-13
 -1      3420 1.91935E+01 8.92458E-01 9.60037E-03-3.79546E-01-9.56733E-14-1.37698E-13
 -1      3421 1.96368E+01 5.86883E-01-1.80882E-03-4.20777E-01-1.75589E-13-2.93637E-13
 -1      3422 1.97043E+01 5.06079E-01-3.37760E-03-3.69437E-01-2.57444E-13-3.17336E-13
 -1      3423 1.94805E+01 6.79689E-01 6.38457E-03-3.44429E-01-2.35146E-13-3.77847E-13
 -1      3424 1.97817E+01 4.39835E-01-7.85256E-04-3.40312E-01-5.40984E-14-2.49380E-13
 -1      3425 1.98197E+01 3.81013E-01-2.49862E-03-2.98408E-01 1.47315E-13-6.90378E-14
 -1      3426 1.96669E+01 5.16073E-01 4.29685E-03-2.97108E-01-2.73368E-14-3.36171E-13
 -1      3427 1.98736E+01 3.28359E-01-1.99886E-04-2.69773E-01 7.47031E-14-8.04552E-14
 -1      3428 1.98963E+01 2.81826E-01-1.85746E-03-2.33450E-01 1.38444E-13-1.06988E-13
 -1      3429 1.97900E+01 3.89278E-01 2.82402E-03-2.46661E-01 1.44207E-13-1.92846E-13
 -1      3430 1.99315E+01 2.42842E-01 8.32928E-05-2.08537E-01 1.20239E-13-2.46455E-13
 -1      3431 1.99435E+01 2.08519E-01-1.32892E-03-1.79301E-01-1.74116E-13-3.82383E-14
 -1      3432 1.98722E+01 2.90613E-01 1.82195E-03-1.97882E-01 3.37577E-14-3.16735E-13
 -1      3433 1.99663E+01 1.80071E-01 3.43746E-04-1.58295E-01-3.72194E-13-1.20677E-13
 -1      3434 1.99721E+01 1.55585E-01-6.08348E-04-1.35615E-01-4.10706E-13-2.02458E-14
 -1      3435 1.99245E+01 2.16554E-01 9.85801E-04-1.55027E-01-1.85177E-13-4.46502E-13
 -1      3436 2.01625E+01 1.15739E-01-3.25619E-04-2.07146E-01 5.60382E-14-3.88923E-14
 -1      3437 2.01818E+01 1.57088E-01 1.64756E-03-1.73485E-01 5.67047E-14-3.59173E-14
 -1      3438 2.01302E+01 6.15521E-02 1.68387E-04-2.54033E-01 2.65612E-14-4.47359E-14
 -1      3439 2.01432E+01 8.52440E-02 1.02883E-03-2.32613E-01 3.17518E-14-1.77121E-14
 -1      3440 2.01976E+01 1.24085E-01-7.27047E-04-2.04360E-01 5.92417E-14-1.35077E-14
 -1      3441 2.01576E+01 6.82249E-02-7.64102E-04-2.50315E-01 3.32639E-14-5.79067E-14
 -1      3442 2.01302E+01-6.34767E-02 8.68086E-04-3.61803E-01 3.00458E-14-3.25137E-14
 -1      3443 2.01054E+01-3.95578E-02 7.88194E-04-3.59295E-01 7.19446E-14-5.56047E-14
 -1      3444 2.00960E+01-2.18623E-02 9.25489E-04-3.47581E-01 8.36618E-14-2.53635E-14
 -1      3445 2.00818E+01-8.92536E-03 3.75512E-04-3.41487E-01 4.39339E-14 4.46754E-15
 -1      3446 2.00891E+01-2.76857E-02-1.65270E-03-3.65715E-01 7.26967E-14-2.48582E-14
 -1      3447 2.03025E+01-2.44794E-01 1.49349E-04-3.52965E-01-4.92674E-14 8.38362E-14
 -1      3448 2.02466E+01-1.83603E-01 2.56808E-03-3.69873E-01-2.96351E-14-1.91309E-14
 -1      3449 2.04624E+01-3.98144E-01-7.45533E-04-3.05389E-01-6.57276E-15 9.39767E-14
 -1      3450 2.03864E+01-3.14602E-01 3.96710E-03-3.42400E-01-1.32576E-14 5.34022E-14
 -1      3451 2.03192E+01-3.05912E-01-4.40153E-03-4.12670E-01-1.59395E-14-4.68535E-15
 -1      3452 2.06834E+01-5.88300E-01-2.13676E-03-2.04213E-01-4.82254E-14 1.02663E-13
 -1      3453 2.05870E+01-4.87316E-01 5.55144E-03-2.70561E-01-2.79718E-14 9.68943E-14
 -1      3454 2.05141E+01-4.91846E-01-5.56373E-03-3.79794E-01-1.69957E-14 1.20176E-14
 -1      3455 2.09645E+01-7.89996E-01-4.01986E-03-2.71128E-02 1.25805E-14 7.40016E-14
 -1      3456 2.08526E+01-6.87038E-01 6.95861E-03-1.31582E-01-6.95006E-15 5.76880E-14
 -1      3457 2.07908E+01-7.17671E-01-6.26679E-03-2.87478E-01-2.56262E-15-3.38649E-14
 -1      3458 2.12876E+01-9.49670E-01-5.83284E-03 2.44827E-01 2.14290E-14 1.41319E-13
 -1      3459 2.11731E+01-8.76292E-01 7.43510E-03 9.77128E-02 3.65633E-14 1.53998E-13
 -1      3460 2.11509E+01-9.49699E-01-5.83086E-03-1.06054E-01-1.76824E-14-3.07534E-14
 -1      3461 2.16073E+01-9.80149E-01-6.60653E-03 6.09872E-01-7.95588E-14 1.46039E-13
 -1      3462 2.15117E+01-9.84384E-01 5.75155E-03 4.28910E-01-3.61723E-14 1.40265E-13
 -1      3463 2.15708E+01-1.11638E+00-3.21247E-03 1.91633E-01-3.12280E-15-1.97734E-14
 -1      3464 2.18534E+01-7.72855E-01-4.16951E-03 1.02640E+00-1.05585E-13 2.13233E-14
 -1      3465 2.18035E+01-9.12705E-01 1.08603E-03 8.41577E-01-5.68561E-14 5.53503E-14
 -1      3466 2.19914E+01-1.11219E+00 1.07226E-03 6.07559E-01-3.29067E-14-9.46323E-14
 -1      3467 2.19446E+01-2.44090E-01 2.18294E-03 1.37928E+00-1.22100E-13 9.04934E-14
 -1      3468 2.19564E+01-5.53687E-01-7.51986E-03 1.25205E+00-1.68310E-13 7.25925E-14
 -1      3469 2.23119E+01-7.98005E-01 7.59937E-03 1.08621E+00-1.54489E-13-4.50809E-14
 -1      3470 2.18408E+01 5.77616E-01 1.11679E-02 1.49288E+00-8.14854E-14 1.85357E-13
 -1      3471 2.19065E+01 1.32001E-01-1.65399E-02 1.50260E+00-1.46881E-13 1.83800E-13
 -1      3472 2.24216E+01-9.66567E-02 1.19413E-02 1.47795E+00-1.39437E-13 2.21498E-14
 -1      3473 2.15963E+01 1.47852E+00 1.57336E-02 1.20660E+00 7.47438E-14 2.52912E-13
 -1      3474 2.16810E+01 1.03026E+00-1.95609E-02 1.40730E+00 3.63242E-14 2.27784E-13
 -1      3475 2.22853E+01 9.09434E-01 1.05205E-02 1.56186E+00-7.12501E-14-6.19730E-16
 -1      3476 2.13696E+01 2.08857E+00 7.70629E-03 4.99476E-01 1.38624E-13 1.28305E-13
 -1      3477 2.14225E+01 1.83862E+00-1.32182E-02 8.65934E-01 1.77712E-13 2.40775E-13
 -1      3478 2.20018E+01 1.91338E+00 7.37965E-04 1.14816E+00 1.38762E-13 6.75992E-14
 -1      3479 2.13204E+01 2.10793E+00-1.31878E-02-3.94271E-01 7.55927E-14 1.37597E-13
 -1      3480 2.13255E+01 2.17973E+00 4.80729E-05 9.97129E-03 3.00671E-14 7.80170E-14
 -1      3481 2.18138E+01 2.46515E+00-8.23758E-03 2.81433E-01 8.97754E-14 5.29737E-14
 -1      3482 2.15266E+01 1.52111E+00-1.87965E-02-1.15798E+00 2.96351E-14 1.28782E-13
 -1      3483 2.14585E+01 1.88873E+00 1.42772E-02-8.62636E-01 1.14081E-13 1.32499E-13
 -1      3484 2.18625E+01 2.35287E+00 6.95083E-03-7.18227E-01 3.99730E-14 2.08600E-15
 -1      3485 2.17972E+01 6.34278E-01-1.88063E-02-1.50805E+00 1.73638E-13 1.16079E-13
 -1      3486 2.17108E+01 1.10390E+00 1.46353E-02-1.39364E+00 1.02302E-13 1.30369E-13
 -1      3487 2.21374E+01 1.52445E+00 1.21815E-02-1.39669E+00 8.35981E-14-3.24463E-14
 -1      3488 2.19554E+01-1.93970E-01-1.26152E-02-1.43298E+00 1.45047E-13-5.28615E-14
 -1      3489 2.19096E+01 2.00299E-01 6.88586E-03-1.49079E+00 2.56939E-13 9.42260E-14
 -1      3490 2.23742E+01 4.50691E-01 1.13178E-02-1.58166E+00 1.88125E-13 7.58239E-14
 -1      3491 2.19132E+01-7.36880E-01-2.74520E-03-1.09350E+00-6.42132E-14 2.04700E-14
 -1      3492 2.19290E+01-5.03823E-01-4.66069E-04-1.25307E+00-6.60690E-14-1.40832E-13
 -1      3493 2.24059E+01-4.34560E-01 1.22656E-02-1.34069E+00 1.64308E-13 4.45048E-14
 -1      3494 2.16863E+01-9.54554E-01 3.41362E-03-6.72378E-01 1.42641E-13 7.48873E-14
 -1      3495 2.17594E+01-8.82991E-01-5.78574E-03-8.57886E-01 1.39596E-14 6.82024E-14
 -1      3496 2.21883E+01-9.65336E-01 4.14347E-03-8.89075E-01-2.87284E-14 7.65937E-14
 -1      3497 2.13647E+01-9.30092E-01 6.90875E-03-2.96839E-01 2.45081E-14 1.10887E-13
 -1      3498 2.14711E+01-9.68770E-01-6.53380E-03-4.61779E-01 1.92596E-13 1.47312E-13
 -1      3499 2.18087E+01-1.11959E+00-8.59595E-04-4.32387E-01 1.10223E-13 4.05347E-15
 -1      3500 2.10267E+01-7.70023E-01 7.51023E-03-1.78484E-02-1.29111E-13-2.59540E-14
 -1      3501 2.11418E+01-8.64455E-01-5.22719E-03-1.42075E-01-4.48236E-14 8.82812E-14
 -1      3502 2.13779E+01-1.03010E+00-4.55028E-03-7.26080E-02-4.17105E-14 1.00927E-13
 -1      3503 2.07256E+01-5.62698E-01 6.50617E-03 1.59662E-01-1.29151E-13-1.22322E-13
 -1      3504 2.08315E+01-6.71297E-01-3.35155E-03 7.81093E-02-1.17914E-13-3.51578E-14
 -1      3505 2.09759E+01-8.16757E-01-6.18444E-03 1.64188E-01-1.15642E-13 3.15670E-14
 -1      3506 2.04853E+01-3.64029E-01 4.97187E-03 2.54282E-01-3.32914E-13 5.40551E-14
 -1      3507 2.05730E+01-4.62569E-01-1.68456E-03 2.08364E-01-2.81276E-13-6.14212E-14
 -1      3508 2.06466E+01-5.73024E-01-5.97316E-03 2.92928E-01-2.27345E-13 1.15039E-13
 -1      3509 2.03081E+01-2.00652E-01 3.45303E-03 2.90025E-01-3.73180E-13 2.39811E-13
 -1      3510 2.03754E+01-2.78803E-01-5.41332E-04 2.70364E-01-3.32029E-13 1.49219E-13
 -1      3511 2.04005E+01-3.53332E-01-4.93417E-03 3.43784E-01-4.23445E-13 2.61729E-13
 -1      3512 2.01856E+01-8.01743E-02 2.18384E-03 2.88006E-01-2.93398E-13 3.64636E-13
 -1      3513 2.02344E+01-1.36064E-01 1.29012E-04 2.85906E-01-3.86967E-13 2.59289E-13
 -1      3514 2.02296E+01-1.80000E-01-3.70647E-03 3.44978E-01-3.75310E-13 3.41996E-13
 -1      3515 2.01058E+01 3.04778E-04 1.23361E-03 2.64346E-01-2.02523E-13 5.60049E-13
 -1      3516 2.01396E+01-3.58542E-02 4.65383E-04 2.72851E-01-1.97931E-13 4.37771E-13
 -1      3517 2.01186E+01-5.65211E-02-2.58722E-03 3.18038E-01-3.55903E-13 3.02218E-13
 -1      3518 2.00567E+01 4.83509E-02 5.81178E-04 2.30253E-01 4.86645E-14 5.72215E-13
 -1      3519 2.00794E+01 2.76682E-02 5.95491E-04 2.44314E-01-3.64599E-14 5.67763E-13
 -1      3520 2.00516E+01 2.30963E-02-1.69372E-03 2.77759E-01-1.46804E-13 3.39323E-13
 -1      3521 2.00285E+01 7.25742E-02 1.65773E-04 1.92949E-01 1.60475E-14 5.84340E-13
 -1      3522 2.00432E+01 6.29467E-02 6.10195E-04 2.09154E-01 1.37055E-13 5.70243E-13
 -1      3523 2.00146E+01 6.84684E-02-1.04116E-03 2.33431E-01 8.60797E-14 5.65318E-13
 -1      3524 2.00134E+01 8.08160E-02-7.77995E-05 1.56731E-01 1.15312E-13 4.75014E-13
 -1      3525 2.00229E+01 7.83948E-02 5.64983E-04 1.72949E-01 2.86794E-14 4.80501E-13
 -1      3526 1.99968E+01 8.94568E-02-5.94403E-04 1.90436E-01 2.89129E-14 5.38376E-13
 -1      3527 2.00062E+01 7.94576E-02-1.73940E-04 1.23887E-01 1.43851E-13 4.66216E-13
 -1      3528 2.00123E+01 8.11894E-02 4.95946E-04 1.38915E-01 5.91412E-14 5.13645E-13
 -1      3529 1.99904E+01 9.45745E-02-3.01936E-04 1.51551E-01 8.72703E-14 6.10734E-13
 -1      3530 2.00033E+01 7.31150E-02-1.64109E-04 9.54131E-02-1.82135E-14 3.83406E-13
 -1      3531 2.00072E+01 7.66861E-02 3.73769E-04 1.08534E-01 2.32503E-13 4.96090E-13
 -1      3532 1.99899E+01 9.05410E-02-1.33386E-04 1.17972E-01 1.97109E-13 7.78316E-13
 -1      3533 1.99122E+01 1.66733E-01-4.38124E-04-8.42010E-03-9.48432E-14 1.10643E-13
 -1      3534 1.99129E+01 1.64769E-01-4.74882E-05 8.57159E-03-9.20616E-14-1.33962E-13
 -1      3535 2.02088E+01 1.63357E+00-1.86244E-03-7.12007E-01-4.85906E-14-2.29599E-13
 -1      3536 1.45247E+01 4.23676E-01 2.38111E-03 3.62502E+00-3.31942E-13-3.56742E-13
 -1      3537 1.30290E+01 1.35763E+00 8.56272E-02 2.51158E+00-3.24398E-13-1.42004E-13
 -1      3538 1.44800E+01 1.67338E+00 1.54242E-02 1.49646E+00-4.40619E-13-9.95887E-14
 -1      3539 2.62805E+01 2.29867E-01-6.56627E-02-1.72475E+00 5.27148E-14-4.42146E-13
 -1      3540 2.69253E+01-1.17275E+00-2.35100E-03-9.80189E-01-1.84332E-14-4.67959E-13
 -1      3541 2.61068E+01-1.89322E+00-2.64563E-02-4.30580E-01-3.81171E-14-3.37445E-13
 -1      3542 2.01326E+01 3.22922E-01-1.92716E-03 2.18808E-02 1.03166E-13 5.32465E-15
 -1      3543 2.01672E+01 4.22123E-01 4.84843E-03 1.21232E-01 1.20649E-13 3.05065E-14
 -1      3544 2.00316E+01 2.22580E+00-3.36933E-03-1.58928E-01 1.09167E-13-2.10129E-13
 -1      3545 2.00444E+01 2.18856E+00-4.20179E-03-2.79116E-01 7.66707E-14-2.03584E-13
 -1      3546 2.01551E+01 1.87888E+00 3.73852E-03-2.74858E-01 6.80147E-14-1.79023E-13
 -1      3547 2.54017E+01 5.70343E+00-7.42497E-02 7.44644E-02 3.35357E-13-1.34766E-13
 -1      3548 2.54867E+01 5.35263E+00-8.11725E-02-9.24347E-01 3.98945E-13-1.41104E-13
 -1      3549 1.99217E+01 1.65727E-01-2.39510E-04-4.58611E-02-1.29112E-13-5.30483E-14
 -1      3550 1.99153E+01 1.68386E-01-3.15385E-04-2.91501E-02-1.11549E-13-9.26328E-14
 -1      3551 1.98991E+01 1.86173E-01 6.97545E-04-1.82500E-02-7.59969E-14-1.52588E-14
 -1      3552 1.54333E+01-7.54979E-01 5.22758E-02-4.81284E+00-2.60287E-13-1.57777E-13
 -1      3553 1.76516E+01-2.08846E+00-3.73146E-02-5.24348E+00-3.21059E-13-2.75786E-14
 -1      3554 2.00843E+01 7.82044E-04 8.75766E-04-3.29510E-01 4.94060E-14 2.34545E-14
 -1      3555 2.00783E+01 8.25538E-03 2.24464E-04-3.21379E-01 6.28142E-14 1.38601E-14
 -1      3556 2.00836E+01 1.63517E-03-1.20352E-03-3.38576E-01 8.08781E-14-7.70343E-15
 -1      3557 2.01955E+01-1.34705E-01 6.43623E-04-3.66823E-01 2.99120E-14-4.99306E-14
 -1      3558 2.01569E+01-9.43877E-02 1.50468E-03-3.71283E-01 2.46549E-14-1.73208E-14
 -1      3559 2.01219E+01-8.08835E-02-2.32425E-03-3.91601E-01 2.21969E-14-7.46946E-14
 -1      3560 2.01938E+01-1.70236E-01-3.27002E-03-4.10802E-01-4.37397E-15-8.72027E-14
 -1      3561 2.02605E+01 9.30480E-01-9.15694E-04 4.57384E-01 1.74158E-13 2.05778E-14
 -1      3562 2.00887E+01 1.52035E-02 7.37299E-04-3.09349E-01 4.15763E-14-8.37608E-15
 -1      3563 2.00895E+01 2.26029E-02 2.98323E-04-2.99044E-01 3.99787E-14-1.99447E-14
 -1      3564 2.00968E+01 1.93732E-02-9.43449E-04-3.11804E-01 2.95816E-14-1.08541E-14
 -1      3565 1.27167E+01 1.09103E+00 1.94346E-02-2.75017E+00 1.43566E-14-1.42948E-13
 -1      3566 1.40095E+01 1.33112E-01 4.15197E-02-4.22609E+00-1.43014E-13-1.31319E-13
 -1      3567 1.58960E+01-1.77546E-01 7.06974E-02-4.01413E+00-1.80089E-13-5.08569E-14
 -1      3568 1.39781E+01 1.28356E+00 2.76388E-02-2.31838E+00-5.38610E-15-1.26572E-13
 -1      3569 2.39458E+01-3.61750E+00 7.87254E-02-2.87744E+00-1.93409E-13 2.73906E-13
 -1      3570 2.50182E+01-3.56635E+00-7.79974E-02-1.70166E+00-1.95004E-13 2.64482E-13
 -1      3571 1.99921E+01 7.56018E-02-3.06717E-04 6.83486E-02 2.30190E-13 2.03985E-13
 -1      3572 1.99999E+01 6.74294E-02 9.17497E-05 6.85762E-02 1.65405E-13-1.51929E-13
 -1      3573 2.00016E+01 6.82895E-02 5.48841E-05 7.53943E-02-1.44411E-14 1.82580E-13
 -1      3574 1.99842E+01 8.66507E-02-1.03480E-04 7.60658E-02 4.31051E-13 2.46984E-13
 -1      3575 2.00801E+01-2.85806E+00 9.22358E-02-4.88161E+00-2.85149E-13 1.41633E-13
 -1      3576 2.20387E+01-3.71737E+00-8.01232E-02-4.12722E+00-2.08875E-13 2.00385E-13
 -1      3577 2.63598E+01 4.17102E+00-6.71950E-02 1.89153E+00 2.46511E-13-7.21784E-14
 -1      3578 2.56818E+01 5.30777E+00-1.05478E-01 1.08372E+00 3.18426E-13-6.95138E-14
 -1      3579 2.02673E+01 1.43700E+00 8.49055E-03-5.55913E-01-3.33946E-14-2.13338E-13
 -1      3580 2.02727E+01 1.17199E+00-2.57202E-03-4.12165E-01-3.27511E-14-1.98583E-13
 -1      3581 2.02907E+01 1.17343E+00 4.26006E-04-3.42596E-01-1.06787E-14-1.76121E-13
 -1      3582 2.51035E+01-3.32541E+00-6.43832E-03 1.49725E+00-1.17123E-13 3.13256E-14
 -1      3583 2.46545E+01-3.78987E+00-2.19895E-03 2.48246E+00-2.79868E-13-4.13753E-14
 -1      3584 2.32517E+01-3.60218E+00-4.39625E-03 3.17934E+00-2.06966E-13 1.98196E-14
 -1      3585 2.01995E+01 2.08376E-01-1.02673E-03-1.34618E-01 5.43577E-14-2.97471E-14
 -1      3586 2.02257E+01 2.76142E-01 2.81699E-03-8.19116E-02 8.49418E-14-2.38337E-14
 -1      3587 2.02393E+01 2.19800E-01-7.24351E-04-1.36468E-01 6.70786E-14-1.97770E-14
 -1      3588 2.01229E+01 3.75790E-02-8.15722E-04-2.83826E-01 4.30093E-14-3.37175E-14
 -1      3589 2.27926E+01-3.22200E+00 2.03694E-02-3.03372E+00-2.19099E-13 2.96225E-13
 -1      3590 1.54615E+01 2.08199E+00 6.40088E-02 1.05853E-01-3.02275E-13 1.33782E-14
 -1      3591 2.51797E+01-2.90007E+00-9.53605E-04-8.11333E-01-2.16762E-13 2.41088E-13
 -1      3592 2.65961E+01-6.85860E-01-5.30527E-02 1.35711E+00-1.27369E-13 1.88991E-13
 -1      3593 2.62064E+01 2.62932E-01-5.67608E-02 1.72819E+00-1.61149E-13 1.89571E-14
 -1      3594 2.60882E+01-1.43724E+00 4.38891E-02 8.26302E-01-1.67808E-13 1.94733E-13
 -1      3595 1.99751E+01 1.47332E-01 4.40908E-04-1.21882E-01-2.27998E-13-3.59350E-14
 -1      3596 1.99725E+01 1.39995E-01 3.21109E-04-1.07863E-01-1.78853E-13-9.12150E-14
 -1      3597 1.99449E+01 1.73746E-01-1.42772E-04-1.20366E-01-3.25689E-13-3.93491E-13
 -1      3598 1.99444E+01 1.50575E-01-2.36400E-04-7.43100E-02-7.83575E-14-3.20714E-13
 -1      3599 1.99321E+01 1.58811E-01-6.02343E-04-6.29130E-02-1.21732E-13 3.08423E-14
 -1      3600 1.99134E+01 1.81567E-01 6.33287E-04-5.81283E-02-6.67587E-14 3.07192E-14
 -1      3601 1.99008E+01 1.76774E-01 5.57507E-04 2.32767E-02-7.86973E-14-3.39772E-13
 -1      3602 1.99164E+01 1.56952E-01-5.57587E-04 2.75995E-02-1.70305E-13-4.01209E-13
 -1      3603 1.99231E+01 1.51223E-01 1.97692E-04 4.24659E-02-1.39182E-13-4.13736E-13
 -1      3604 1.92277E+01-2.04419E+00 5.36940E-02-4.44486E+00-3.09242E-13 4.27115E-14
 -1      3605 2.00046E+01 6.91744E-02 2.01730E-04 8.26259E-02 5.42978E-15 1.64481E-13
 -1      3606 2.58908E+01 2.95289E+00-5.28221E-02 1.91635E+00 1.11140E-13-1.23027E-14
 -1      3607 1.99923E+01 8.22717E-02 1.14572E-04 8.95625E-02 2.11546E-13 4.13437E-13
 -1      3608 2.11608E+01-2.96010E+00 9.82480E-03 4.05867E+00-3.76244E-13-1.21262E-13
 -1      3609 2.00119E+01-2.86326E+00 5.83361E-02 4.91246E+00-4.39801E-13 2.26381E-15
 -1      3610 1.86952E+01-2.00765E+00-9.66815E-03 4.65184E+00-5.16030E-13-6.79960E-14
 -1      3611 2.01945E+01 3.51914E-01-1.77264E-03 7.62371E-03 1.07095E-13-1.41732E-14
 -1      3612 1.55806E+01 5.08474E-02 7.84928E-02 3.91330E+00-3.06504E-13-5.00903E-13
 -1      3613 1.57576E+01 7.25185E-01-3.81863E-03 2.83441E+00-3.31246E-13-3.12453E-13
 -1      3614 1.68552E+01-5.76624E-01 6.44765E-03 4.01318E+00-3.95224E-13-3.59240E-13
 -1      3615 2.41217E+01 4.22319E+00-1.15911E-02-1.02786E+00 2.07528E-13-8.16500E-14
 -1      3616 2.51599E+01 4.29051E+00-8.95862E-02-1.43230E+00 2.88214E-13-2.16381E-13
 -1      3617 2.47519E+01 3.08285E+00-3.03242E-02-1.76336E+00 1.52347E-13-2.74027E-13
 -1      3618 2.60593E+01 8.91793E-01-5.57847E-02-1.94054E+00 2.89421E-14-3.53158E-13
 -1      3619 2.57216E+01-5.82844E-02-3.00287E-02-1.60462E+00-1.80463E-14-4.20018E-13
 -1      3620 2.56177E+01 1.70134E+00-3.12329E-02-2.01134E+00 5.77871E-14-3.00083E-13
 -1      3621 1.99713E+01 1.32868E-01 5.17816E-05-9.61524E-02-6.36004E-14-7.74072E-14
 -1      3622 1.99318E+01 1.39162E-01-5.59615E-04 5.76660E-02-6.69491E-14-1.47842E-13
 -1      3623 1.99426E+01 1.30512E-01 2.72763E-04 6.88919E-02 6.64528E-14 2.30986E-13
 -1      3624 1.99158E+01 1.57536E-01 2.94084E-04 5.86614E-02-1.17177E-13-3.22105E-13
 -1      3625 1.09808E+01 9.38643E-01 5.69249E-02-2.51774E+00-4.96166E-13 4.70943E-13
 -1      3626 2.01363E+01 1.95219E+00 4.70320E-03-9.11906E-02 1.14307E-13-2.06780E-13
 -1      3627 2.47371E+01 4.72243E+00-6.79504E-02 5.75080E-01 3.04562E-13-3.50067E-15
 -1      3628 2.01983E+01 1.67292E+00-3.38765E-03 1.26026E-01 1.24912E-13-2.03117E-13
 -1      3629 2.01941E+01 1.69375E+00-2.61984E-03 3.86676E-02 1.28151E-13-2.24187E-13
 -1      3630 1.99529E+01 1.17987E-01-5.35465E-04 7.71219E-02 3.37339E-13 2.90067E-13
 -1      3631 1.99645E+01 1.09286E-01 3.38226E-04 8.28816E-02 5.02623E-13 3.21605E-13
 -1      3632 1.99390E+01 1.34040E-01 1.92930E-04 8.24550E-02 1.52552E-13 6.84950E-14
 -1      3633 2.02760E+01 7.27163E-01 7.82698E-03 2.96406E-01 1.42595E-13 9.55895E-15
 -1      3634 2.02760E+01 1.05725E+00-7.97769E-03 4.50816E-01 1.91991E-13 1.57995E-14
 -1      3635 1.99550E+01 1.44761E-01-5.81773E-04-8.87691E-02-4.39026E-14-4.47976E-13
 -1      3636 2.02738E+01 1.20835E+00 1.12031E-04 4.18120E-01 1.74065E-13-2.23345E-14
 -1      3637 2.02119E+01 5.09662E-01-4.97264E-03 1.87165E-01 1.31954E-13 1.69127E-14
 -1      3638 2.02179E+01 1.57649E+00-5.01168E-03 2.72928E-01 1.49252E-13-1.30419E-13
 -1      3639 2.02064E+01 1.63924E+00-2.27741E-03 1.93458E-01 1.35732E-13-1.67054E-13
 -1      3640 2.02799E+01 1.42735E+00 6.36301E-03 1.28357E-01 1.12060E-13-1.71836E-13
 -1      3641 2.18432E+01-2.69421E+00 5.87735E-02-3.18897E+00-1.51002E-13 2.24795E-13
 -1      3642 2.30251E+01-3.01717E+00-4.81502E-02-2.17151E+00-1.29752E-13 1.88008E-13
 -1      3643 2.54919E+01-1.42976E+00-3.10067E-02-9.15413E-01 2.46452E-14-5.32043E-13
 -1      3644 2.55425E+01-2.41103E+00 7.77005E-03 7.02717E-02-6.79803E-14-3.19002E-13
 -1      3645 2.03450E+01 4.96850E-01 1.05325E-03-1.36818E-03-1.87536E-15-1.15479E-13
 -1      3646 2.03260E+01 3.94285E-01-1.67019E-03 5.51136E-02-1.30915E-14-9.03586E-14
 -1      3647 2.03116E+01 3.14258E-01 9.77099E-04 9.11482E-02-4.22835E-14-5.52316E-14
 -1      3648 2.02849E+01 2.51649E-01-1.04654E-03 1.30020E-01-4.11126E-14-9.53409E-14
 -1      3649 2.03428E+01 3.95275E-01 5.22530E-04 5.64905E-02-1.59115E-14-9.22104E-14
 -1      3650 2.02597E+01 2.08587E-01 6.18730E-04 1.53088E-01-1.54296E-14-6.95402E-14
 -1      3651 2.02303E+01 1.77739E-01-6.13837E-04 1.78889E-01 2.90198E-15-9.97537E-14
 -1      3652 2.02977E+01 2.59833E-01 3.87969E-04 1.16781E-01-1.73621E-14-5.33615E-14
 -1      3653 2.01944E+01 1.58734E-01 1.71337E-04 1.94998E-01 7.38306E-15-9.26095E-14
 -1      3654 2.01592E+01 1.51186E-01-4.25894E-04 2.14185E-01 1.55178E-14-1.05253E-13
 -1      3655 2.02341E+01 1.88406E-01 3.97327E-04 1.56966E-01 1.02529E-14-3.93409E-14
 -1      3656 2.01144E+01 1.54858E-01-2.55283E-04 2.24119E-01 5.00690E-15-1.12935E-13
 -1      3657 2.00732E+01 1.68232E-01-4.70617E-04 2.38488E-01 1.53553E-14-1.28422E-13
 -1      3658 2.01527E+01 1.67750E-01 6.03487E-04 1.83207E-01-4.14762E-15-3.33703E-14
 -1      3659 2.00185E+01 1.91103E-01-6.54694E-04 2.43797E-01 8.24132E-14-1.26904E-13
 -1      3660 1.99675E+01 2.22739E-01-8.12298E-04 2.55098E-01 4.57225E-14-6.79278E-14
 -1      3661 2.00543E+01 1.91113E-01 1.03420E-03 1.97642E-01 2.80816E-14-3.46568E-14
 -1      3662 1.98999E+01 2.63180E-01-1.03136E-03 2.55596E-01 2.82585E-14-4.62179E-14
 -1      3663 1.98332E+01 3.11825E-01-1.53181E-03 2.63910E-01 3.15376E-14 6.92588E-16
 -1      3664 1.99343E+01 2.52011E-01 1.71985E-03 2.00875E-01 8.80639E-14-4.83783E-14
 -1      3665 1.97477E+01 3.69495E-01-1.32475E-03 2.57453E-01-2.46047E-14 1.52829E-14
 -1      3666 1.96561E+01 4.34837E-01-2.65293E-03 2.60560E-01-1.45586E-14-3.23218E-14
 -1      3667 1.97841E+01 3.46424E-01 2.68587E-03 1.89779E-01 1.23461E-14-4.32869E-14
 -1      3668 1.95512E+01 5.05493E-01-1.67291E-03 2.43514E-01-2.41405E-14-4.94173E-14
 -1      3669 1.94297E+01 5.82471E-01-4.50973E-03 2.37580E-01-4.80912E-14-4.37051E-14
 -1      3670 1.95967E+01 4.68022E-01 4.01146E-03 1.57618E-01-2.94056E-14-6.45505E-14
 -1      3671 1.92865E+01 6.73293E-01-1.69687E-03 2.00709E-01-3.13306E-14-6.54173E-14
 -1      3672 1.91047E+01 7.68311E-01-7.28938E-03 1.76089E-01-1.56401E-14-5.41530E-14
 -1      3673 1.93518E+01 6.16018E-01 5.80699E-03 9.10006E-02-4.89508E-14-3.49323E-14
 -1      3674 1.89146E+01 8.74114E-01-1.69305E-03 1.06965E-01-8.08359E-15 1.47837E-14
 -1      3675 1.86536E+01 9.78963E-01-1.13033E-02 5.00516E-02-2.79282E-14 2.20796E-14
 -1      3676 1.90193E+01 7.87868E-01 8.19620E-03-3.56143E-02 1.20883E-15-8.40614E-15
 -1      3677 1.84022E+01 1.09274E+00-1.36962E-03-6.97287E-02-2.37505E-14 5.51628E-14
 -1      3678 1.80280E+01 1.19541E+00-1.70612E-02-1.79273E-01-5.89175E-14 5.45232E-14
 -1      3679 1.85763E+01 9.65660E-01 1.12619E-02-2.54937E-01-8.77326E-15 6.35272E-14
 -1      3680 1.76972E+01 1.30154E+00-7.75114E-04-3.75595E-01-1.12777E-13 1.42812E-13
 -1      3681 1.71627E+01 1.37808E+00-2.49622E-02-5.65568E-01-2.40075E-14 1.17974E-13
 -1      3682 1.79891E+01 1.11980E+00 1.52282E-02-6.15707E-01-4.24839E-14 1.47580E-13
 -1      3683 1.67318E+01 1.44701E+00 1.41567E-03-8.73209E-01-1.77152E-14 1.30377E-14
 -1      3684 1.59791E+01 1.45394E+00-2.89334E-02-1.18033E+00-6.85016E-14-1.57530E-14
 -1      3685 1.72194E+01 1.19411E+00 2.06018E-02-1.18540E+00-9.96876E-14 1.16798E-13
 -1      3686 1.54930E+01 1.45443E+00 3.01168E-03-1.53300E+00-5.09187E-14-3.89497E-14
 -1      3687 1.45989E+01 1.39210E+00-2.15609E-02-1.84311E+00-2.08462E-14-4.00045E-14
 -1      3688 1.51957E+01 8.66930E-01 3.85268E-02-2.88227E+00-6.25888E-14-3.34038E-14
 -1      3689 1.62987E+01 1.12344E+00 2.59727E-02-1.94304E+00-5.66370E-14-2.51095E-14
 -1      3690 2.42833E+01-2.76526E+00 1.86207E-03-9.15173E-01-1.93095E-13 1.79792E-13
 -1      3691 2.51116E+01-2.32101E+00-3.98576E-02 1.23114E-01-1.81778E-13 2.14360E-13
 -1      3692 1.78229E+01 1.38628E+00-1.67898E-02 3.21133E-02-9.20032E-14-1.53413E-13
 -1      3693 1.82265E+01 1.26808E+00-3.49734E-03-4.23854E-02-7.33429E-14-7.42085E-14
 -1      3694 1.85161E+01 1.14063E+00-1.20252E-02-1.42196E-01-7.35470E-14-9.15934E-14
 -1      3695 1.87923E+01 1.02458E+00-3.25799E-03-1.71208E-01-1.06358E-14-1.21039E-13
 -1      3696 1.83722E+01 1.16044E+00 1.39561E-02 1.79826E-01-6.62315E-14-9.69420E-14
 -1      3697 1.90008E+01 9.10038E-01-7.73855E-03-2.21959E-01-8.89690E-14-1.79322E-13
 -1      3698 1.91860E+01 8.07397E-01-2.85894E-03-2.23302E-01-1.67488E-13-2.75544E-13
 -1      3699 1.88660E+01 9.56236E-01 1.00263E-02-7.39215E-03-8.36702E-14-2.17662E-13
 -1      3700 1.93349E+01 7.11135E-01-4.75407E-03-2.43646E-01-2.75755E-13-2.67258E-13
 -1      3701 1.94573E+01 6.25482E-01-2.46826E-03-2.30163E-01-2.28834E-13-2.58087E-13
 -1      3702 1.92187E+01 7.66210E-01 7.10182E-03-1.03188E-01-2.29413E-13-1.01572E-13
 -1      3703 1.95580E+01 5.51250E-01-2.88075E-03-2.32902E-01 1.24576E-14-2.61972E-13
 -1      3704 1.96351E+01 4.85529E-01-2.02616E-03-2.13860E-01 1.66387E-13-4.36491E-14
 -1      3705 1.94629E+01 6.06775E-01 5.20957E-03-1.42488E-01-4.32930E-14 7.32629E-14
 -1      3706 1.97104E+01 4.23776E-01-1.62601E-03-2.07306E-01 5.02047E-14-2.03380E-13
 -1      3707 1.97632E+01 3.69139E-01-1.61619E-03-1.85772E-01-4.21015E-14-2.89330E-13
 -1      3708 1.96346E+01 4.73563E-01 3.51131E-03-1.49386E-01 1.37186E-14-1.38010E-13
 -1      3709 1.98155E+01 3.21425E-01-8.93978E-04-1.74821E-01-1.32586E-13-3.47948E-13
 -1      3710 1.98490E+01 2.79355E-01-1.33638E-03-1.54344E-01-7.14761E-14-5.17067E-13
 -1      3711 1.97578E+01 3.64328E-01 2.47485E-03-1.39126E-01-1.46527E-13-4.42437E-13
 -1      3712 1.98853E+01 2.43235E-01-3.56488E-04-1.41761E-01-9.00336E-15-5.29095E-13
 -1      3713 1.99065E+01 2.11530E-01-8.07788E-04-1.23980E-01-3.13036E-13-5.95671E-13
 -1      3714 1.98418E+01 2.79202E-01 1.70142E-03-1.20803E-01-5.50571E-14-7.17366E-13
 -1      3715 2.00804E+01-1.54220E-02 1.53273E-03-3.76003E-01 6.65495E-14 2.86283E-14
 -1      3716 2.00703E+01 2.10816E-03 2.70265E-04-3.60304E-01 9.41273E-14 3.45373E-14
 -1      3717 2.05482E+01-5.45617E-01 5.90391E-04-4.79591E-01-2.40581E-14-4.35031E-14
 -1      3718 2.04336E+01-4.28165E-01 5.05181E-03-4.99123E-01 1.72310E-14-1.12736E-14
 -1      3719 2.03258E+01-3.29096E-01 1.52933E-03-4.83057E-01 1.65429E-14-3.28695E-14
 -1      3720 2.02472E+01-2.43362E-01 3.07943E-03-4.82289E-01-1.76664E-14-4.81221E-14
 -1      3721 2.03163E+01-3.90231E-01-6.54257E-03-5.79589E-01 2.77963E-14-4.74361E-14
 -1      3722 2.12990E+01-1.10070E+00-4.34961E-03-2.56685E-01-8.06512E-14-5.82278E-14
 -1      3723 2.11134E+01-9.54609E-01 1.02728E-02-3.61348E-01-4.71625E-14-5.11733E-14
 -1      3724 2.18108E+01-1.31785E+00-7.04273E-03 4.40105E-02 2.03866E-14-9.09986E-14
 -1      3725 2.16125E+01-1.22032E+00 1.19330E-02-1.24698E-01 7.98678E-16-7.14671E-14
 -1      3726 2.14942E+01-1.29258E+00-1.03985E-02-4.13083E-01 1.23578E-14-7.50334E-14
 -1      3727 2.23306E+01-1.33447E+00-1.16116E-02 4.88757E-01-6.32585E-14-1.22384E-13
 -1      3728 2.21572E+01-1.35252E+00 1.01745E-02 2.66183E-01-2.02429E-14-1.33665E-13
 -1      3729 2.21287E+01-1.52154E+00-9.03890E-03-7.49850E-02-1.07856E-14-8.39700E-14
 -1      3730 2.27493E+01-9.54154E-01-9.33896E-03 1.05035E+00-2.42062E-13-1.43444E-14
 -1      3731 2.26651E+01-1.19378E+00 8.56365E-03 8.16906E-01-1.48018E-13-7.23436E-14
 -1      3732 2.28095E+01-1.50841E+00-8.96136E-03 4.54728E-01-1.28327E-13-1.23834E-13
 -1      3733 2.29309E+01-4.67473E-02 2.63968E-03 1.53451E+00-2.08809E-13 2.49957E-14
 -1      3734 2.29367E+01-5.69821E-01-9.76032E-03 1.37989E+00-2.43756E-13-3.18226E-14
 -1      3735 2.33189E+01-9.76649E-01-3.88214E-03 1.10637E+00-2.33811E-13 7.94265E-15
 -1      3736 2.28159E+01 1.26063E+00 1.49169E-02 1.63294E+00-3.19605E-14 5.78499E-14
 -1      3737 2.28785E+01 5.54550E-01-3.32188E-02 1.67643E+00-1.35388E-13 4.09513E-14
 -1      3738 2.34932E+01 2.12770E-01-4.01039E-03 1.67142E+00-1.91970E-13 3.36450E-14
 -1      3739 2.25044E+01 2.53604E+00 1.40625E-02 1.12952E+00 1.50092E-13 7.29332E-14
 -1      3740 2.25958E+01 1.93384E+00-3.20566E-02 1.45312E+00 7.23028E-14 6.06401E-14
 -1      3741 2.33643E+01 1.75089E+00 2.25826E-03 1.68892E+00-1.74949E-14 6.68215E-14
 -1      3742 2.22752E+01 3.12485E+00-1.03846E-02 7.84106E-02 1.45365E-13-3.95777E-14
 -1      3743 2.23141E+01 2.93962E+00-2.17801E-02 5.70061E-01 2.38807E-13 2.40756E-14
 -1      3744 2.29987E+01 3.12417E+00-9.90691E-03 9.71851E-01 1.79018E-13-2.43295E-14
 -1      3745 2.28309E+01 2.59397E+00-3.16879E-02-1.27241E+00 6.23273E-14-1.09516E-13
 -1      3746 2.27242E+01 3.06240E+00-1.27457E-02-8.22136E-01 7.25461E-14-1.58642E-13
 -1      3747 2.29390E+01 3.02210E-02-2.16854E-02-1.61301E+00 2.09093E-13-1.36728E-13
 -1      3748 2.28760E+01 6.52121E-01 1.34230E-03-1.64879E+00 2.10258E-13-8.99816E-14
 -1      3749 2.28590E+01-8.98312E-01 7.38525E-04-1.15102E+00 7.07420E-15 2.53042E-14
 -1      3750 2.28990E+01-4.98060E-01-7.45438E-05-1.35614E+00 1.45003E-13-1.82688E-14
 -1      3751 2.34828E+01-3.83032E-01 5.67691E-03-1.46383E+00 7.74977E-14-2.61829E-13
 -1      3752 2.24413E+01-1.28676E+00 5.98676E-03-5.72293E-01 4.33375E-14 4.44297E-14
 -1      3753 2.25830E+01-1.15794E+00-1.09128E-02-8.04240E-01-1.48941E-14 1.49348E-13
 -1      3754 2.31332E+01-1.24022E+00-7.42299E-03-8.61621E-01 1.25533E-14 8.49819E-15
 -1      3755 2.19129E+01-1.29504E+00 1.12985E-02-9.78876E-02 5.36493E-14 1.18553E-13
 -1      3756 2.21040E+01-1.33757E+00-9.29842E-03-2.97764E-01 5.36385E-14 6.18443E-14
 -1      3757 2.24942E+01-1.52604E+00-1.13813E-02-2.26088E-01 4.36946E-14 1.98889E-13
 -1      3758 2.13743E+01-1.08065E+00 1.14042E-02 2.20420E-01-1.97602E-13 3.08086E-13
 -1      3759 2.15708E+01-1.21131E+00-6.45498E-03 8.37698E-02-2.19780E-14 2.51047E-13
 -1      3760 2.18360E+01-1.41309E+00-8.48480E-03 2.28599E-01-6.61178E-14 3.38263E-13
 -1      3761 2.09120E+01-7.89106E-01 9.10999E-03 3.87870E-01-6.27653E-14 1.72104E-13
 -1      3762 2.10867E+01-9.41821E-01-3.04953E-03 3.11730E-01-1.54051E-13 2.08939E-13
 -1      3763 2.12297E+01-1.11463E+00-1.07410E-02 4.73991E-01-1.00915E-13 4.49467E-13
 -1      3764 2.05588E+01-5.09907E-01 6.46251E-03 4.47273E-01-3.51619E-13 2.66310E-13
 -1      3765 2.06977E+01-6.47680E-01-5.23737E-04 4.15641E-01-1.56018E-13 2.54319E-13
 -1      3766 2.07546E+01-7.72342E-01-9.63456E-03 5.63761E-01-1.74496E-13 3.62669E-13
 -1      3767 2.03102E+01-2.81234E-01 4.18651E-03 4.40894E-01-5.08084E-13 4.64471E-13
 -1      3768 2.04119E+01-3.89873E-01 8.59056E-04 4.37911E-01-4.82388E-13 3.39242E-13
 -1      3769 2.04155E+01-4.69411E-01-7.53615E-03 5.58613E-01-4.35600E-13 3.87745E-13
 -1      3770 2.01478E+01-1.12964E-01 2.44217E-03 3.99552E-01-3.37775E-13 3.92000E-13
 -1      3771 2.02173E+01-1.90399E-01 1.42564E-03 4.12954E-01-3.20269E-13 5.09970E-13
 -1      3772 2.01913E+01-2.33929E-01-5.40103E-03 5.04099E-01-4.51941E-13 3.70949E-13
 -1      3773 2.00498E+01-6.00022E-04 1.22169E-03 3.43515E-01-3.16660E-13 2.84871E-13
 -1      3774 2.00942E+01-5.06334E-02 1.50733E-03 3.64781E-01-3.72520E-13 2.95227E-13
 -1      3775 2.00549E+01-6.81387E-02-3.60721E-03 4.29672E-01-2.27846E-13 3.66039E-13
 -1      3776 1.99965E+01 6.67198E-02 4.47572E-04 2.84862E-01-1.20542E-13 2.61255E-13
 -1      3777 2.00229E+01 3.80211E-02 1.34993E-03 3.08664E-01-2.55290E-13 2.16609E-13
 -1      3778 1.99802E+01 3.76390E-02-2.25303E-03 3.52702E-01-2.49095E-13 2.19210E-13
 -1      3779 1.99719E+01 1.00955E-01-1.27670E-05 2.29933E-01 3.42320E-14 2.88199E-13
 -1      3780 1.99863E+01 8.75121E-02 1.11711E-03 2.53209E-01 5.76818E-14 2.80557E-13
 -1      3781 1.99459E+01 9.73500E-02-1.29665E-03 2.81927E-01-9.25915E-14 1.16051E-13
 -1      3782 1.99647E+01 1.12837E-01-2.58487E-04 1.81637E-01-4.28330E-14 5.04310E-13
 -1      3783 1.99715E+01 1.09399E-01 8.80936E-04 2.02784E-01-5.30850E-15 4.05043E-13
 -1      3784 1.99362E+01 1.24454E-01-6.78518E-04 2.20839E-01-1.32705E-13 2.62512E-13
 -1      3785 1.99669E+01 1.11080E-01-3.39319E-04 1.40866E-01 7.58970E-14 7.16968E-13
 -1      3786 1.99693E+01 1.13485E-01 6.64626E-04 1.59174E-01 7.58070E-14 6.28120E-13
 -1      3787 1.99401E+01 1.30498E-01-2.56893E-04 1.70208E-01-4.75413E-14 4.82042E-13
 -1      3788 2.02598E+01 1.42189E+00-1.66248E-03-3.74276E-01 1.04981E-14-1.78675E-13
 -1      3789 2.03185E+01 1.01055E+00-1.66528E-03-2.14194E-01 1.55042E-14-1.46786E-13
 -1      3790 1.85237E+01-1.36509E+00 2.72825E-02-4.04885E+00-2.27396E-13 3.15980E-14
 -1      3791 2.02713E+01-2.38594E+00-5.66396E-02-3.83145E+00-2.25487E-13 1.98321E-13
 -1      3792 2.10751E+01-2.14166E+00 2.80772E-02-3.00212E+00-1.40471E-13 1.61425E-13
 -1      3793 2.02379E+01 3.66138E-01-1.73812E-03-1.70355E-02 9.53503E-14-9.95775E-15
 -1      3794 2.02741E+01 4.84586E-01 7.25669E-03 7.54748E-02 1.03963E-13-1.21470E-14
 -1      3795 2.02507E+01 1.39645E+00-8.52080E-03 3.99322E-01 1.80021E-13-6.98016E-14
 -1      3796 2.02356E+01 1.50883E+00-1.74143E-03 3.32713E-01 1.54857E-13-9.28440E-14
 -1      3797 2.03038E+01 1.32059E+00 9.14954E-03 2.41634E-01 1.31856E-13-9.72872E-14
 -1      3798 2.00811E+01 1.49820E-02 1.27308E-03-3.38413E-01 8.76505E-14-2.05475E-14
 -1      3799 2.00826E+01 2.37947E-02 6.07224E-05-3.23379E-01 5.40435E-14-1.62941E-14
 -1      3800 2.00595E+01 2.15438E-02-1.37784E-03-3.46193E-01 3.58489E-14 4.08710E-14
 -1      3801 2.02380E+01 1.53043E+00 1.64848E-03-3.09426E-01 4.51686E-14-1.76861E-13
 -1      3802 2.01936E+01 1.69486E+00-2.62004E-03-3.31872E-02 1.28626E-13-2.11412E-13
 -1      3803 2.01978E+01 1.67837E+00-2.43942E-03-1.18941E-01 9.28121E-14-1.71645E-13
 -1      3804 2.02739E+01 1.46053E+00 5.42001E-03 1.86446E-03 1.20843E-13-2.07523E-13
 -1      3805 2.02667E+01 6.33998E-01-2.06478E-03 1.96709E-01 1.40524E-13-3.99626E-15
 -1      3806 2.38825E+01 4.04491E+00-2.24051E-02 9.70496E-01 2.77733E-13-1.06404E-14
 -1      3807 2.35744E+01 4.28152E+00-5.61862E-02-3.45908E-02 3.42205E-13-5.38024E-14
 -1      3808 1.98768E+01 2.06277E-01-3.82057E-04-2.69673E-02-5.46670E-14 1.66328E-13
 -1      3809 1.98743E+01 2.04698E-01-9.50258E-05-4.27468E-03-1.05609E-13 1.31917E-13
 -1      3810 2.01367E+01 4.68246E-02 6.43228E-04-2.73741E-01 2.70238E-14-4.19022E-14
 -1      3811 2.01524E+01 5.82203E-02 2.60269E-04-2.57613E-01 4.61510E-14-4.81727E-14
 -1      3812 1.68071E+01 1.64743E+00-1.21841E-02 3.53008E-01-2.59994E-13-5.48502E-14
 -1      3813 1.74175E+01 1.51195E+00-3.23004E-03 2.02736E-01-1.61779E-13-1.29708E-13
 -1      3814 1.76743E+01 1.35042E+00 1.55689E-02 5.13457E-01-1.74753E-13-2.27494E-13
 -1      3815 1.99369E+01 1.69335E-01 6.06208E-04-9.07426E-02-1.25215E-14-3.42860E-13
 -1      3816 2.01023E+01 3.13432E-02 9.73322E-04-3.04989E-01 2.68800E-14-3.26642E-14
 -1      3817 2.01122E+01 3.82243E-02 7.57996E-05-2.90254E-01 1.46079E-14-3.25945E-14
 -1      3818 2.01342E+01 5.57323E-02-6.80096E-04-2.65586E-01 2.90905E-14-4.97286E-14
 -1      3819 2.00901E+01 4.02818E-02-9.35933E-04-3.02897E-01 2.68341E-14-3.54572E-14
 -1      3820 1.56117E+01 1.63184E+00-1.52931E-02 1.05442E+00-3.34776E-13-7.97036E-14
 -1      3821 1.58799E+01 1.24085E+00 3.74431E-02 2.02900E+00-3.68843E-13-2.86414E-13
 -1      3822 1.64724E+01 1.55458E+00-9.20053E-04 8.46295E-01-2.80334E-13-2.60804E-13
 -1      3823 1.69108E+01 1.28220E+00 2.90867E-03 1.23878E+00-2.94405E-13-5.65743E-13
 -1      3824 1.64921E+01 7.23581E-01-2.45647E-02 2.41613E+00-4.27188E-13-4.53880E-13
 -1      3825 1.99823E+01 9.15095E-02-1.64233E-04 8.88665E-02 3.35236E-13 5.42255E-13
 -1      3826 2.03183E+01 1.05338E+00 8.63965E-03 3.00188E-01 1.58833E-13-2.36611E-14
 -1      3827 2.08711E+01-8.14350E-01-1.17415E-03-4.16497E-01 2.06348E-14-4.77817E-14
 -1      3828 2.07180E+01-6.72289E-01 7.53855E-03-4.70497E-01 1.89894E-14-5.61989E-14
 -1      3829 2.09635E+01-9.63278E-01-1.08620E-02-5.68764E-01-2.05348E-14-2.15247E-14
 -1      3830 2.55423E+01 1.85470E+00-1.85025E-02 2.06785E+00-8.83703E-14 4.66155E-14
 -1      3831 2.47042E+01 3.10305E+00-5.63236E-02 1.79030E+00 1.15161E-13 1.63538E-13
 -1      3832 2.03493E+01 7.74470E-01 8.18872E-04-1.33448E-01 2.00502E-14-1.32582E-13
 -1      3833 2.03427E+01 6.21583E-01-2.57115E-03-5.23356E-02 1.65918E-14-1.22031E-13
 -1      3834 2.03630E+01 6.17686E-01 1.06540E-03-3.21581E-02 2.50717E-14-1.21207E-13
 -1      3835 2.02934E+01 6.38668E-01-6.73371E-03 1.60904E-01 1.34130E-13-5.32885E-16
 -1      3836 2.03363E+01 9.98809E-01 2.08843E-03-1.64384E-01 3.42703E-14-1.24162E-13
 -1      3837 1.99709E+01 1.04431E-01 3.66722E-05 9.76202E-02 4.44083E-13 5.86023E-13
 -1      3838 2.02675E+01 2.18797E-01-8.19150E-04-1.39947E-01 6.48419E-14-1.62386E-14
 -1      3839 2.02909E+01 2.85276E-01 1.07989E-03-9.71179E-02 6.72548E-14-1.38658E-14
 -1      3840 2.46245E+01-2.41341E+00-1.25236E-03 2.15143E-01-1.80547E-13-4.34243E-13
 -1      3841 2.49517E+01-2.92454E+00-3.26142E-02 8.48870E-01-1.27806E-13-2.28390E-13
 -1      3842 2.40993E+01-3.08974E+00 5.51561E-03 1.60096E+00-2.05059E-13-1.14457E-13
 -1      3843 2.05757E+01-6.46859E-01-8.85739E-03-6.07275E-01 6.17399E-15-5.01309E-14
 -1      3844 2.01787E+01 7.41716E-02 2.52341E-04-2.40383E-01 3.41004E-14-4.06514E-14
 -1      3845 2.01987E+01 9.66017E-02 5.73415E-04-2.19923E-01 5.21344E-14-1.70457E-14
 -1      3846 2.01855E+01 8.19217E-02-4.93910E-04-2.29645E-01 5.47700E-14-4.98509E-14
 -1      3847 1.99215E+01 1.95605E-01 2.50955E-04-1.14076E-01-3.52511E-13-4.87044E-13
 -1      3848 1.99242E+01 1.82716E-01-4.33067E-04-9.89371E-02-1.99859E-13-4.86920E-13
 -1      3849 1.99129E+01 1.87955E-01-2.41129E-04-8.36347E-02-7.86448E-14-2.95269E-13
 -1      3850 1.98888E+01 2.22851E-01 7.76214E-04-1.00913E-01-1.42546E-13-7.19107E-13
 -1      3851 2.02041E+01 1.65267E+00-3.47691E-03-2.65658E-01 6.96058E-14-1.62111E-13
 -1      3852 2.02753E+01 1.38425E+00 8.64126E-04-2.10287E-01 5.71255E-14-1.51796E-13
 -1      3853 1.98977E+01 1.97175E-01-2.13346E-04-6.58475E-02 7.59680E-14-3.31155E-14
 -1      3854 1.98863E+01 2.02326E-01-4.39318E-04-4.73492E-02 1.70303E-13 1.25939E-13
 -1      3855 1.98635E+01 2.25627E-01 8.53047E-04-3.45201E-02-5.74524E-15 3.64111E-13
 -1      3856 1.98852E+01 2.13240E-01-5.29215E-05-7.33325E-02 1.23049E-14-1.38769E-13
 -1      3857 2.03124E+01 1.21593E+00 1.08457E-03-1.25155E-01 5.35441E-14-1.27344E-13
 -1      3858 2.03303E+01 1.08784E+00-2.16343E-03-1.55048E-01 3.33915E-14-1.27862E-13
 -1      3859 2.03616E+01 8.49844E-01 5.91945E-06-8.09654E-02 3.84437E-14-1.18046E-13
 -1      3860 2.00844E+01-4.04006E-02 7.75953E-04-4.01659E-01 4.88949E-14 2.24386E-14
 -1      3861 2.00516E+01-1.52810E-02-2.10951E-03-3.98102E-01 7.20756E-14 6.72264E-14
 -1      3862 2.01109E+01-7.36917E-02 1.74911E-03-4.16684E-01 2.31979E-14-4.85754E-15
 -1      3863 1.98764E+01 1.95909E-01-6.88427E-04 2.12985E-02 3.76569E-14-6.59782E-14
 -1      3864 1.98832E+01 1.89488E-01 2.17522E-04 4.15791E-02 6.23263E-14-4.69520E-13
 -1      3865 1.98566E+01 2.20680E-01 6.80721E-04 1.42373E-02-8.65526E-15-9.86394E-15
 -1      3866 2.02752E+01 3.81149E-01-1.75308E-03-2.99851E-02 1.06241E-13 1.92092E-14
 -1      3867 2.02238E+01 1.26495E-01-2.46737E-04-1.98546E-01 5.75565E-14 5.34661E-16
 -1      3868 2.02465E+01 1.67109E-01 9.49461E-04-1.69653E-01 6.66797E-14-8.91497E-15
 -1      3869 2.02386E+01 1.32826E-01-3.36251E-04-1.88807E-01 6.72232E-14-8.39097E-15
 -1      3870 2.27668E+01 1.91880E+00-1.07745E-03-1.46505E+00-2.47406E-14-1.50948E-13
 -1      3871 2.37816E+01 2.54032E+00 1.05525E-02-1.71002E+00 9.87387E-14-3.00248E-13
 -1      3872 2.46284E+01 2.13016E+00-5.37578E-02-1.92030E+00 1.07902E-13-3.15355E-13
 -1      3873 2.29021E+01 1.26892E+00-2.72720E-02-1.69427E+00 6.05512E-14-1.27126E-13
 -1      3874 2.36164E+01 9.83936E-01 1.13642E-02-1.80509E+00 1.03086E-13-3.12519E-13
 -1      3875 2.02641E+01 1.48430E+00 3.71840E-03-1.16078E-01 9.13298E-14-1.62529E-13
 -1      3876 2.01927E+01 1.70836E+00-1.82636E-03-1.80038E-01 8.96524E-14-1.50857E-13
 -1      3877 1.99743E+01 1.02440E-01 6.98798E-05 1.07448E-01 2.86027E-13 7.31720E-13
 -1      3878 1.99736E+01 1.07174E-01 4.93050E-04 1.22484E-01 1.17010E-13 7.55007E-13
 -1      3879 1.73309E+01-6.97129E-01-9.64862E-03-3.92495E+00-1.74126E-13-6.22610E-14
 -1      3880 1.87086E+01-9.04157E-01 4.27598E-02-3.40200E+00-1.31728E-13 9.35237E-14
 -1      3881 1.89977E+01-1.33657E+00-8.71142E-03 3.64492E+00-4.88455E-13 1.03115E-13
 -1      3882 1.79224E+01-9.43418E-01 4.80324E-02 4.01434E+00-4.88844E-13-1.46010E-13
 -1      3883 1.73924E+01-9.79286E-02-5.54293E-03 3.16361E+00-3.96037E-13-4.05038E-13
 -1      3884 2.21931E+01-3.18649E+00 3.83687E-02 3.60130E+00-2.37428E-13-4.90181E-14
 -1      3885 2.09725E+01-2.66912E+00-1.29396E-02 3.75235E+00-3.27254E-13 8.65774E-14
 -1      3886 2.30225E+01-3.19412E+00 2.02944E-02 2.81178E+00-2.34153E-13 7.98348E-14
 -1      3887 2.02885E+01 2.23665E-01-1.42442E-04-1.35413E-01 6.58664E-14-2.83906E-14
 -1      3888 2.33220E+01 3.61843E+00-2.40717E-02-5.49245E-01 1.89113E-13-1.41640E-13
 -1      3889 2.45296E+01 1.22295E+00-1.55030E-02-1.87145E+00 4.49276E-14-4.27755E-13
 -1      3890 1.98934E+01 1.74656E-01-6.63777E-04 6.24257E-02-9.64847E-14-5.24027E-13
 -1      3891 1.99065E+01 1.64646E-01 4.44203E-04 7.80264E-02-4.74476E-14-2.62245E-13
 -1      3892 1.98726E+01 1.97547E-01 4.84727E-04 6.23662E-02 3.90955E-14-2.94428E-13
 -1      3893 2.03077E+01 1.24076E+00-2.52189E-03 3.09302E-02 1.04935E-13-2.22201E-13
 -1      3894 2.03090E+01 1.24107E+00-2.48579E-03-2.77949E-02 9.62840E-14-2.01584E-13
 -1      3895 1.99200E+01 1.48780E-01-5.63598E-04 9.05178E-02-7.42904E-15-2.07903E-13
 -1      3896 1.99351E+01 1.37607E-01 3.26687E-04 9.88311E-02 2.80289E-13-1.22244E-13
 -1      3897 1.98988E+01 1.68274E-01-3.23439E-04 9.57633E-02 4.73493E-14-3.41598E-13
 -1      3898 2.27176E+01-2.44930E+00 1.28325E-02-1.61871E+00-1.14219E-13 2.40886E-13
 -1      3899 2.36545E+01-2.78468E+00 1.95845E-02-1.33038E+00-1.62447E-13 2.06720E-13
 -1      3900 2.36467E+01-2.30521E+00-1.46736E-02-4.65904E-01-1.85507E-13 1.56084E-13
 -1      3901 2.49590E+01 7.59887E-02-1.80869E-02-1.67670E+00 1.31223E-14-3.07329E-13
 -1      3902 2.52844E+01-5.64814E-01 5.83690E-03-1.45275E+00 1.65857E-14-3.41057E-13
 -1      3903 1.60722E+01 1.62097E-01 5.26149E-04-3.39346E+00-9.75591E-14-4.44506E-14
 -1      3904 2.01866E+01-1.73869E-01 1.80544E-03-4.55897E-01-1.91572E-14-5.84282E-15
 -1      3905 2.01376E+01-1.17508E-01 1.67069E-03-4.44777E-01-6.79249E-15-2.06489E-14
 -1      3906 2.00792E+01-8.53351E-02-3.10951E-03-4.58242E-01 9.86745E-15 4.45003E-14
 -1      3907 2.03144E+01 8.31445E-01-1.12283E-03 1.70984E-01 1.34748E-13-2.72907E-14
 -1      3908 2.53012E+01 6.81789E-01-6.18717E-03 1.77641E+00-1.70025E-13 1.31391E-13
 -1      3909 2.48396E+01-1.26430E+00-1.24511E-02-9.77993E-01-3.63789E-14-3.90801E-13
 -1      3910 2.03133E+01 1.18257E+00-4.39207E-03 1.27495E-01 1.26624E-13-1.59455E-13
 -1      3911 2.03092E+01 1.22333E+00-2.50699E-03 7.06351E-02 1.03135E-13-1.81949E-13
 -1      3912 2.03560E+01 1.04512E+00 3.02784E-03 3.26480E-02 9.56991E-14-1.92854E-13
 -1      3913 1.99504E+01 1.24471E-01 6.61199E-05 1.29230E-01 8.33873E-14 5.27843E-13
 -1      3914 2.01596E+01-2.05494E-01-4.62237E-03-5.22652E-01-1.09085E-14-3.12220E-14
 -1      3915 2.05798E+01-6.78848E-01 2.79710E-03-7.57021E-01-9.42031E-15 1.12353E-14
 -1      3916 2.04184E+01-5.21526E-01 5.68535E-03-7.41488E-01 4.06195E-14 2.19740E-14
 -1      3917 2.45407E+01-1.61848E+00-8.43942E-03 6.76274E-01-2.71413E-13 5.81145E-14
 -1      3918 2.52810E+01-1.42775E+00-1.56339E-02 8.65671E-01-2.29044E-13 1.03749E-13
 -1      3919 2.03300E+01 2.99995E-01 3.87406E-04 7.97119E-02-1.93372E-14-7.91339E-14
 -1      3920 2.03012E+01 2.47242E-01-9.46332E-04 1.03986E-01 2.73334E-16-7.15471E-14
 -1      3921 2.02685E+01 2.08129E-01 1.85937E-04 1.15807E-01 1.85324E-14-1.10361E-13
 -1      3922 2.02302E+01 1.82488E-01-7.28659E-04 1.32399E-01 1.13665E-14-1.01431E-13
 -1      3923 2.02992E+01 2.44799E-01 5.70714E-04 8.10083E-02 3.63283E-15-1.24940E-13
 -1      3924 2.01869E+01 1.70315E-01-3.22951E-05 1.37526E-01 5.79251E-15-6.79832E-14
 -1      3925 2.01405E+01 1.69113E-01-7.44030E-04 1.47233E-01 3.27905E-15-5.67474E-14
 -1      3926 2.02211E+01 1.87270E-01 5.17548E-04 9.78525E-02 2.12260E-14-9.07801E-14
 -1      3927 2.00878E+01 1.78683E-01-1.73399E-04 1.46484E-01 1.21675E-16-3.40163E-14
 -1      3928 2.00316E+01 1.96958E-01-1.05467E-03 1.50149E-01 3.35635E-14-5.05790E-14
 -1      3929 2.01243E+01 1.79892E-01 7.62143E-04 1.01754E-01 1.93350E-14-6.85210E-14
 -1      3930 1.99689E+01 2.24396E-01-2.88127E-04 1.42429E-01 8.23632E-14-9.48099E-14
 -1      3931 1.98993E+01 2.58833E-01-1.70399E-03 1.39161E-01 8.23737E-14-7.02415E-14
 -1      3932 2.00086E+01 2.11686E-01 1.16675E-03 9.18555E-02 3.14776E-14-5.86282E-14
 -1      3933 1.98245E+01 3.01567E-01-2.62609E-04 1.21882E-01 3.92356E-14-8.79550E-14
 -1      3934 1.97356E+01 3.49423E-01-2.66429E-03 1.08606E-01-2.69540E-14-7.14069E-14
 -1      3935 1.98707E+01 2.74469E-01 1.71496E-03 6.36156E-02 4.79566E-14-9.56396E-14
 -1      3936 1.96508E+01 4.01995E-01-1.22280E-04 7.82633E-02-4.05748E-14-9.66411E-14
 -1      3937 1.95407E+01 4.57153E-01-4.15866E-03 5.15594E-02-1.15474E-14-5.84209E-14
 -1      3938 1.97095E+01 3.57882E-01 2.38878E-03 1.07567E-02-2.72321E-14-1.25407E-13
 -1      3939 1.94335E+01 5.21764E-01 4.12109E-04-1.72919E-03-4.82912E-14-7.35586E-14
 -1      3940 1.92804E+01 5.85282E-01-6.43437E-03-5.47544E-02-3.25554E-14-3.22245E-14
 -1      3941 1.95143E+01 4.56491E-01 3.39349E-03-8.05779E-02-3.32849E-14-8.91886E-14
 -1      3942 1.91506E+01 6.55599E-01 1.36086E-03-1.42857E-01-3.16150E-14-2.84259E-14
 -1      3943 1.89452E+01 7.18044E-01-9.42748E-03-2.34940E-01-5.30189E-14-2.75416E-14
 -1      3944 1.92699E+01 5.59210E-01 4.26725E-03-2.34110E-01-2.44593E-14-3.28502E-14
 -1      3945 1.87923E+01 7.84104E-01 3.23451E-03-3.73789E-01 1.83922E-14-4.26780E-14
 -1      3946 1.85176E+01 8.31165E-01-1.33982E-02-5.26099E-01 3.50378E-14 1.28651E-14
 -1      3947 1.89737E+01 6.47222E-01 5.71411E-03-4.77239E-01-3.87575E-16 2.79624E-14
 -1      3948 1.83440E+01 8.75995E-01 6.28176E-03-7.38556E-01 7.33224E-15-5.47311E-15
 -1      3949 1.79816E+01 8.84510E-01-1.78545E-02-9.80425E-01-5.18485E-14 2.11873E-14
 -1      3950 1.86236E+01 6.83486E-01 6.76467E-03-8.49996E-01 8.59230E-15-3.00090E-14
 -1      3951 1.77961E+01 8.77843E-01 1.03403E-02-1.29284E+00-1.33899E-13 8.54704E-14
 -1      3952 1.73400E+01 8.11671E-01-1.78033E-02-1.66456E+00-1.31859E-13 4.95656E-14
 -1      3953 1.82280E+01 6.19108E-01 7.99886E-03-1.40517E+00-8.32546E-14-5.41286E-14
 -1      3954 2.51781E+01-8.82166E-01-6.11821E-02 1.31515E+00-2.64198E-13 2.77530E-14
 -1      3955 2.03465E+01 6.23880E-01 5.94668E-03 7.11865E-02 1.32598E-13-1.17769E-14
 -1      3956 2.03249E+01 9.60261E-01-6.75080E-03 1.81686E-01 1.42113E-13-6.62826E-14
 -1      3957 1.87531E+01 8.94267E-01-1.05907E-02 1.98578E-01-1.81636E-14-4.83797E-14
 -1      3958 1.89763E+01 8.22479E-01 5.81663E-04 1.19180E-01-9.42778E-14-8.92230E-14
 -1      3959 1.91169E+01 7.44341E-01-7.11463E-03 3.91297E-02-2.00519E-13-1.43750E-13
 -1      3960 1.92742E+01 6.73483E-01-4.13513E-04-1.03193E-03-1.83815E-13-8.84580E-14
 -1      3961 1.90831E+01 7.33086E-01 6.29001E-03 2.21933E-01-1.31142E-13-1.50033E-13
 -1      3962 1.93769E+01 6.06035E-01-4.76034E-03-4.42425E-02-8.50897E-14-3.18861E-14
 -1      3963 1.94830E+01 5.46140E-01-7.08967E-04-6.00538E-02 6.48436E-14 2.11467E-14
 -1      3964 1.93316E+01 6.18607E-01 4.94015E-03 8.28169E-02-1.14887E-13-2.04703E-13
 -1      3965 1.95653E+01 4.85813E-01-2.97692E-03-8.34811E-02-7.48671E-14-1.02804E-13
 -1      3966 1.96431E+01 4.31233E-01-7.42863E-04-8.59451E-02-1.67271E-13-3.24525E-13
 -1      3967 1.95192E+01 5.08519E-01 3.71669E-03 4.64547E-03-1.46433E-13-1.85805E-13
 -1      3968 1.97038E+01 3.81523E-01-1.87047E-03-9.64099E-02-2.44629E-13-2.21744E-13
 -1      3969 1.97559E+01 3.36960E-01-1.10195E-03-9.05860E-02-2.50639E-13-3.17491E-13
 -1      3970 1.96611E+01 4.04057E-01 1.18180E-03-3.56047E-02-1.92688E-13-4.85866E-14
 -1      3971 2.37591E+01 2.38620E+00 8.42659E-04 1.69252E+00 7.71952E-15 7.26459E-14
 -1      3972 2.40379E+01 3.29908E+00-4.69197E-02 1.50003E+00 1.35567E-13 2.22014E-14
 -1      3973 2.24325E+01-1.74270E+00 6.92553E-03-3.22001E-01-3.78932E-14-1.02594E-14
 -1      3974 2.20883E+01-1.62396E+00 2.26844E-02-5.33284E-01 5.16486E-14 1.90284E-14
 -1      3975 2.16241E+01-1.45532E+00-5.32890E-03-6.56899E-01 3.73280E-14-4.57291E-14
 -1      3976 2.13461E+01-1.24580E+00 1.53794E-02-7.53261E-01 1.55323E-15-4.49412E-14
 -1      3977 2.17714E+01-1.70576E+00-3.28903E-02-9.20400E-01-8.35399E-15 5.60741E-14
 -1      3978 2.41728E+01 1.37662E-01 2.17072E-02 1.65640E+00-1.67199E-13 3.40301E-14
 -1      3979 2.41131E+01-6.86837E-01 4.73353E-03 1.39570E+00-2.85482E-13 6.25333E-14
 -1      3980 2.38664E+01 1.42096E+00-6.42038E-02 1.89113E+00-2.82413E-15 1.55130E-13
 -1      3981 2.03179E+01 1.18421E+00-1.54715E-03-7.71429E-02 6.96527E-14-1.55950E-13
 -1      3982 2.44366E+01 3.98997E-01-2.56005E-02-1.78574E+00 1.17607E-13-3.82099E-13
 -1      3983 2.17235E+01-1.43888E+00 1.72582E-02 6.37861E-01-1.12880E-13 2.50228E-13
 -1      3984 2.20336E+01-1.61947E+00-5.17198E-03 4.85564E-01-3.21106E-14 2.71750E-13
 -1      3985 2.10586E+01-1.02511E+00 1.27136E-02 7.64476E-01-1.79257E-13 2.74096E-13
 -1      3986 2.13192E+01-1.23909E+00-2.24798E-03 7.08021E-01-9.94366E-14 2.22313E-13
 -1      3987 2.14153E+01-1.44826E+00-2.03127E-02 9.73877E-01-1.10338E-13 1.16039E-13
 -1      3988 2.05794E+01-6.45366E-01 7.90622E-03 7.49509E-01-2.12930E-13 2.90020E-13
 -1      3989 2.07788E+01-8.30929E-01 1.46649E-03 7.49177E-01-1.57902E-13 2.48124E-13
 -1      3990 2.07775E+01-9.62722E-01-1.45777E-02 9.79381E-01-1.72472E-13 7.39926E-14
 -1      3991 2.02603E+01-3.42503E-01 4.52375E-03 6.65105E-01-5.95525E-13 4.07550E-13
 -1      3992 2.04005E+01-4.84504E-01 3.08441E-03 6.94593E-01-3.72324E-13 3.90109E-13
 -1      3993 2.03490E+01-5.57340E-01-1.05141E-02 8.72746E-01-3.33185E-13 2.34148E-13
 -1      3994 2.00651E+01-1.24683E-01 2.22967E-03 5.55914E-01-3.30724E-13 2.70781E-13
 -1      3995 2.01563E+01-2.23625E-01 3.35791E-03 5.97505E-01-4.79011E-13 3.81242E-13
 -1      3996 2.00846E+01-2.54498E-01-6.97728E-03 7.26105E-01-4.18922E-13 4.90414E-13
 -1      3997 1.99579E+01 1.76140E-02 7.70034E-04 4.46661E-01-2.34393E-13 2.95526E-13
 -1      3998 2.00123E+01-4.47178E-02 3.01537E-03 4.89991E-01-2.51310E-13 3.05769E-13
 -1      3999 1.99380E+01-4.88121E-02-4.41567E-03 5.76756E-01-2.82915E-13 4.31872E-13
 -1      4000 1.99084E+01 1.00895E-01-4.24577E-05 3.49485E-01-2.24661E-13 1.76433E-13
 -1      4001 1.99374E+01 6.61426E-02 2.41469E-03 3.89332E-01-2.01179E-13 2.21565E-13
 -1      4002 1.98694E+01 7.77314E-02-2.58034E-03 4.44321E-01-1.63729E-13 1.50814E-13
 -1      4003 1.98942E+01 1.41840E-01-4.33524E-04 2.68306E-01 2.83619E-15 3.57055E-14
 -1      4004 1.99069E+01 1.26347E-01 1.82510E-03 3.02589E-01-8.37252E-14 5.00481E-14
 -1      4005 1.98487E+01 1.45886E-01-1.35486E-03 3.35207E-01-8.62402E-14 3.34183E-14
 -1      4006 1.98997E+01 1.54513E-01-6.50028E-04 2.02955E-01-2.32163E-13 1.20785E-13
 -1      4007 1.99027E+01 1.51602E-01 1.32655E-03 2.31335E-01-1.26202E-13-2.97913E-14
 -1      4008 1.98551E+01 1.74074E-01-6.16223E-04 2.49300E-01-7.07244E-14-2.24064E-13
 -1      4009 1.99150E+01 1.49948E-01-6.80753E-04 1.51850E-01 2.96410E-14-3.98169E-14
 -1      4010 1.99128E+01 1.54254E-01 9.46978E-04 1.74541E-01-1.37751E-13-3.76789E-14
 -1      4011 1.98747E+01 1.76369E-01-3.46606E-04 1.83479E-01-4.04742E-14-1.97975E-13
 -1      4012 2.01266E+01-1.87897E-01 3.53739E-03-5.85278E-01 3.03403E-14 1.56358E-14
 -1      4013 2.00656E+01-1.16117E-01 1.39498E-03-5.47391E-01 2.75155E-14 7.11373E-14
 -1      4014 2.40989E+01-1.97067E+00 3.16504E-02 2.34478E-01-2.38010E-13 8.70487E-14
 -1      4015 2.41695E+01-1.38718E+00-1.72004E-02 8.60613E-01-2.80697E-13 8.16610E-14
 -1      4016 2.36580E+01-1.20348E+00-9.63962E-03 9.52251E-01-2.87026E-13 7.41464E-14
 -1      4017 2.34369E+01-2.10201E+00-6.93534E-03-2.08316E-01-1.97461E-13 1.45121E-13
 -1      4018 1.84181E+01-5.04830E-01 7.53342E-04-2.95439E+00-5.22786E-14 8.86402E-14
 -1      4019 1.93798E+01-1.20581E+00-2.89737E-02-3.08372E+00-1.00224E-13 2.46927E-13
 -1      4020 2.25523E+01-1.74734E+00 2.16468E-02 2.96841E-01-4.91020E-14 1.73690E-13
 -1      4021 2.29104E+01-1.77829E+00 5.28836E-03-7.78524E-04-1.49891E-14 1.95845E-13
 -1      4022 2.22999E+01-1.83016E+00-5.32226E-04 7.37936E-01-8.15728E-14 1.75224E-13
 -1      4023 2.35425E+01-2.04403E+00 5.47723E-03 8.07664E-02-7.06562E-14-1.12832E-13
 -1      4024 2.38932E+01-1.83741E+00-6.41868E-03-2.85993E-01-1.68734E-13-1.75266E-13
 -1      4025 2.04747E+01-1.65000E+00 2.67311E-02-2.83623E+00-1.59456E-13 1.63018E-13
 -1      4026 2.15112E+01-2.21997E+00-5.03022E-02-2.31182E+00-1.41351E-13 1.51436E-13
 -1      4027 2.01858E+01-1.21212E+00 2.46996E-02-2.46495E+00-5.42164E-14 1.40319E-13
 -1      4028 2.02940E+01-3.89932E-01 3.67155E-03-6.81183E-01 3.80196E-14 2.45987E-14
 -1      4029 2.01892E+01-2.78694E-01 3.03539E-03-6.48140E-01 1.18928E-14 5.64082E-14
 -1      4030 2.02311E+01-4.36682E-01-7.98228E-03-8.21764E-01 5.91476E-14 1.51878E-13
 -1      4031 2.03000E+01 2.14899E-01-5.67798E-04-1.31034E-01 6.68926E-14-7.62782E-14
 -1      4032 2.03244E+01 2.75838E-01 2.46623E-04-9.87241E-02 7.54117E-14-5.87407E-14
 -1      4033 2.03247E+01 1.03927E+00-2.82381E-03 1.41791E-01 1.33025E-13-1.11098E-13
 -1      4034 1.82649E+01 1.03429E+00-1.38801E-02 4.73671E-01-2.12970E-14-1.50940E-13
 -1      4035 1.85740E+01 9.72801E-01 2.29418E-03 3.32356E-01-1.85778E-14-1.69594E-13
 -1      4036 1.87519E+01 8.38376E-01 7.63284E-03 4.58574E-01 1.41976E-14 5.41789E-14
 -1      4037 2.00373E+01 4.52194E-02 1.86319E-03-3.43340E-01 2.28719E-14 5.16237E-15
 -1      4038 2.00455E+01 5.31551E-02-3.46395E-04-3.18100E-01-3.84473E-15 7.30370E-15
 -1      4039 2.03680E+01 4.65649E-01 2.58235E-05 2.32753E-02 2.18894E-14-1.21634E-13
 -1      4040 2.03496E+01 3.72983E-01-1.20230E-03 6.05821E-02-1.16200E-14-9.34604E-14
 -1      4041 2.03553E+01 3.64284E-01 6.24825E-04 5.01752E-02-2.30115E-15-1.00998E-13
 -1      4042 2.46898E+01 2.29080E-01-6.88815E-03 1.70036E+00-1.64060E-13 5.43671E-14
 -1      4043 2.03096E+01 3.71984E-01-1.04170E-03-5.55624E-02 8.38624E-14-1.49995E-15
 -1      4044 2.03302E+01 4.76474E-01-1.03728E-03 1.22481E-02 1.09036E-13-4.80627E-16
 -1      4045 2.03569E+01 6.13004E-01 1.90469E-03 3.81730E-02 1.15782E-13-3.34160E-14
 -1      4046 2.03330E+01 3.74802E-01 3.60848E-04-6.01978E-02 9.65150E-14-3.75178E-14
 -1      4047 1.76188E+01 1.13261E+00-1.20265E-02 9.28801E-01-1.04961E-13-4.00034E-13
 -1      4048 1.80467E+01 1.09555E+00 6.77034E-03 6.80150E-01-1.21615E-14-2.37958E-13
 -1      4049 1.83210E+01 8.99010E-01 5.39504E-03 8.38397E-01 2.09329E-14-2.78063E-13
 -1      4050 1.66891E+01 4.23003E-01 3.21815E-02-2.83466E+00-9.42566E-14-8.17272E-15
 -1      4051 1.99530E+01 1.19593E-01-4.07811E-04 1.01379E-01 4.08559E-13 3.66127E-13
 -1      4052 2.10176E+01-1.04235E+00 1.99663E-03-7.74928E-01 1.84694E-15-4.07399E-14
 -1      4053 2.07907E+01-8.48206E-01 9.80613E-03-7.94901E-01-1.40647E-14-1.73999E-14
 -1      4054 2.05390E+01-7.75957E-01-1.50407E-02-9.47515E-01 3.07839E-14 6.95181E-14
 -1      4055 2.03733E+01 7.02575E-01-1.05220E-03-5.16186E-02 3.70501E-14-1.28066E-13
 -1      4056 2.03720E+01 5.67270E-01-1.11864E-03-1.09412E-04 3.19323E-14-1.24524E-13
 -1      4057 2.03825E+01 5.50123E-01 1.27728E-03 5.91329E-03 2.14300E-14-1.14184E-13
 -1      4058 2.03757E+01 8.01536E-01 1.72392E-03-4.78650E-02 3.79216E-14-9.41426E-14
 -1      4059 1.99358E+01 1.35016E-01-3.98534E-04 1.09913E-01 1.75590E-13-1.04871E-13
 -1      4060 2.34520E+01-2.65688E+00 2.92916E-02 1.39158E+00-3.22998E-13-3.76533E-13
 -1      4061 2.33498E+01-3.07013E+00-8.57432E-03 2.14409E+00-2.71508E-13-3.11110E-14
 -1      4062 2.23439E+01-2.71003E+00 1.68397E-02 2.56521E+00-3.14924E-13-1.06282E-13
 -1      4063 2.01874E+01 8.85454E-02 4.28949E-04-2.12881E-01 2.22973E-14-2.01258E-14
 -1      4064 2.02141E+01 1.06495E-01 1.26737E-04-1.93414E-01 3.60223E-14-2.09721E-14
 -1      4065 2.00434E+01 7.65352E-02-7.12759E-04-2.85248E-01 1.27846E-14 2.29629E-14
 -1      4066 2.00763E+01 5.92796E-02 1.31853E-03-2.91094E-01 5.77973E-15 2.09606E-14
 -1      4067 2.00942E+01 6.33690E-02-2.92165E-04-2.70180E-01 1.95898E-14-2.08338E-14
 -1      4068 1.72367E+01 7.29764E-01 1.59649E-02-1.99465E+00-1.08448E-13 3.09335E-14
 -1      4069 1.67436E+01 6.03381E-01-1.03203E-02-2.40941E+00-6.26079E-14-2.05838E-14
 -1      4070 1.76404E+01-2.65407E-02-8.47097E-03-2.84850E+00-1.17399E-13-4.84647E-14
 -1      4071 1.78741E+01 3.82036E-01-1.71321E-03-2.08111E+00-1.56988E-13 1.21702E-14
 -1      4072 2.03586E+01 1.00893E+00 2.04416E-03-3.94726E-02 5.54667E-14-1.47741E-13
 -1      4073 1.98696E+01 2.29831E-01-7.20059E-04-8.20998E-02 2.31792E-14-3.79209E-13
 -1      4074 1.75778E+01 9.92056E-01 1.29917E-02 1.34159E+00-2.10527E-13-4.51669E-13
 -1      4075 1.79916E+01 7.00640E-01-9.83462E-03 1.48103E+00 1.33707E-14-2.76689E-13
 -1      4076 1.73187E+01 8.13071E-01-9.63086E-04 1.83824E+00-3.29762E-13-4.71244E-13
 -1      4077 1.98415E+01 2.49731E-01 6.41058E-04-4.90278E-02 3.34875E-15 2.48568E-13
 -1      4078 1.98297E+01 2.51845E-01-2.43462E-04-2.66441E-02-1.14814E-13 4.93421E-13
 -1      4079 2.01287E+01 6.90096E-02 8.55624E-04-2.49290E-01 2.40151E-14-2.11471E-14
 -1      4080 2.01524E+01 7.64551E-02-1.30524E-04-2.30495E-01 3.89306E-14-2.48530E-14
 -1      4081 2.01759E+01 9.90149E-02-2.94905E-04-1.95327E-01 3.46702E-14 2.66325E-14
 -1      4082 2.01071E+01 8.33756E-02-5.20296E-04-2.35487E-01 2.27503E-14-1.69644E-14
 -1      4083 1.97665E+01 3.19372E-01 1.38957E-03-4.61898E-02-2.66122E-13 8.70398E-14
 -1      4084 1.98020E+01 2.94517E-01-9.15643E-04-8.47660E-02-1.26551E-13-2.22547E-13
 -1      4085 1.98378E+01 2.59429E-01-4.89098E-04-7.75055E-02-1.41916E-13-3.59270E-13
 -1      4086 1.98284E+01 2.42669E-01-7.97652E-04 7.46645E-03-1.00225E-13 2.75550E-13
 -1      4087 1.98339E+01 2.35779E-01 2.93310E-04 3.43402E-02 2.61849E-14-3.47139E-13
 -1      4088 1.98062E+01 2.70205E-01 1.85937E-04-7.13849E-03-1.27706E-13 3.04453E-13
 -1      4089 2.03297E+01-1.90703E+00 4.25026E-02 3.44876E+00-3.84276E-13 1.82850E-13
 -1      4090 1.93749E+01-1.10462E+00 2.65087E-03 3.05259E+00-3.91205E-13 2.27137E-13
 -1      4091 2.02464E+01 1.32149E-01-4.83406E-05-1.75707E-01 6.75784E-14-2.25352E-14
 -1      4092 2.02735E+01 1.67748E-01 3.50365E-04-1.52033E-01 7.07716E-14-2.34713E-14
 -1      4093 2.02437E+01 1.37901E-01-1.26158E-04-1.58607E-01 4.46515E-14 3.85077E-15
 -1      4094 1.99302E+01 1.43011E-01 5.29829E-04 1.27612E-01 1.24327E-13-1.09583E-13
 -1      4095 1.85274E+01-2.23842E-01 2.37297E-02-2.55224E+00-1.10509E-13 5.25827E-14
 -1      4096 2.03531E+01 3.48172E-01 2.73746E-04-6.71014E-02 9.70086E-14-9.90847E-14
 -1      4097 2.03434E+01 3.55438E-01-7.90549E-04-7.02979E-02 1.10403E-13-6.32103E-14
 -1      4098 2.03636E+01 4.50390E-01-3.78181E-04-2.53584E-02 1.13172E-13-5.62253E-14
 -1      4099 2.10543E+01-1.22188E+00-2.25812E-02-1.00389E+00-2.22511E-14 7.30080E-15
 -1      4100 2.34812E+01-1.53814E+00 1.70106E-02 6.25265E-01-1.51879E-13 2.14507E-14
 -1      4101 2.00450E+01-6.04958E-02 2.99661E-03-4.90798E-01 6.04662E-15 6.56150E-14
 -1      4102 2.00164E+01-2.00216E-02 3.57072E-04-4.55379E-01 2.88185E-14 1.00203E-13
 -1      4103 1.99781E+01-5.64731E-02-3.35174E-03-5.46913E-01 1.14386E-14 1.03154E-13
 -1      4104 2.38772E+01-7.58248E-01-3.22132E-02-1.31619E+00 1.48245E-14-1.26316E-13
 -1      4105 2.40064E+01-8.62736E-02-3.49660E-03-1.59829E+00 1.22210E-13-2.69604E-13
 -1      4106 2.03728E+01 8.96787E-01 4.05000E-04-1.45236E-03 6.22282E-14-1.89183E-13
 -1      4107 2.03771E+01 8.42522E-01-1.26603E-03-3.43861E-02 4.00805E-14-1.36693E-13
 -1      4108 2.03901E+01 7.04092E-01 5.39273E-04-8.59559E-03 3.41034E-14-1.54880E-13
 -1      4109 2.11031E+01-2.31288E+00-3.14479E-02 3.07306E+00-2.74792E-13 1.06513E-13
 -1      4110 2.03046E+01 2.14916E-01-5.44757E-06-1.18611E-01 5.55602E-14-4.85852E-14
 -1      4111 2.03720E+01 8.76295E-01-1.72383E-03 2.53600E-02 8.42425E-14-1.85643E-13
 -1      4112 2.42435E+01-1.40364E+00 9.62041E-03-8.77083E-01-9.45338E-14-2.71004E-13
 -1      4113 1.99020E+01 1.64803E-01 4.59173E-04 1.30351E-01 6.11885E-14-4.80378E-13
 -1      4114 2.00560E+01-2.02624E-01-5.03360E-03-6.79070E-01 2.33925E-14 1.25353E-13
 -1      4115 2.17719E+01-1.84316E+00 1.06269E-02-1.52002E+00-1.09273E-13 1.55887E-13
 -1      4116 2.23539E+01-2.17649E+00 2.76460E-02-1.51809E+00-8.84813E-14 2.20088E-13
 -1      4117 2.31946E+01-1.88553E+00-2.43989E-03-1.39849E-03-1.83273E-13 6.61853E-14
 -1      4118 2.28286E+01-1.90936E+00 1.29551E-02-3.00762E-01-1.14382E-13 8.93185E-14
 -1      4119 2.03643E+01 8.91486E-01 3.64740E-03 8.08926E-02 1.30283E-13-1.21990E-13
 -1      4120 1.98432E+01 2.17854E-01-1.15121E-03 6.35209E-02 2.55239E-14-3.64221E-13
 -1      4121 1.98589E+01 2.06299E-01 5.65600E-04 8.52990E-02-1.62141E-14-4.18791E-13
 -1      4122 1.98187E+01 2.45712E-01 4.59421E-04 5.77208E-02-8.90700E-14-2.06441E-13
 -1      4123 2.00152E+01 3.09855E-02-1.79955E-04-3.79128E-01 1.96411E-14 2.15602E-14
 -1      4124 1.99921E+01 6.27701E-02-1.20423E-03-3.50789E-01-1.44171E-14 1.21273E-14
 -1      4125 2.00218E+01 1.07731E-02 2.33219E-03-4.09863E-01 2.10170E-14 6.48872E-14
 -1      4126 1.98823E+01 1.79573E-01-3.91138E-04 1.18615E-01 2.52450E-14-4.84132E-13
 -1      4127 2.25835E+01-2.14852E+00-4.37402E-02-8.33585E-01-9.67234E-14 2.30935E-13
 -1      4128 1.73646E+01 2.37551E-01 2.54629E-02 2.78335E+00-3.96586E-13-3.57905E-13
 -1      4129 1.73334E+01 6.36680E-01 1.16517E-02 2.15462E+00-4.31921E-13-3.69068E-13
 -1      4130 1.79735E+01 2.49980E-01-2.69571E-02 2.19525E+00-3.00530E-13-1.04297E-13
 -1      4131 1.80726E+01-2.30806E-01-3.47805E-02 2.81799E+00-3.63678E-13-9.26168E-14
 -1      4132 1.98573E+01 2.02864E-01 4.97647E-04 1.22826E-01-4.10005E-14-4.07312E-13
 -1      4133 1.97178E+01 3.46033E-01 6.47403E-04 2.88895E-04-1.71471E-13 1.60074E-13
 -1      4134 1.97614E+01 3.04440E-01-5.94549E-04-8.55645E-05-1.91788E-13 3.05236E-13
 -1      4135 1.97655E+01 2.95387E-01 6.56198E-04 3.61291E-02-6.31266E-14 8.41974E-14
 -1      4136 1.87677E+01 6.94583E-01-9.88504E-03 6.66907E-01 2.79187E-15-1.26380E-13
 -1      4137 1.89689E+01 6.83052E-01 4.75446E-03 5.07446E-01 2.65590E-14-1.33014E-13
 -1      4138 2.02528E+01 1.93753E-01-5.86189E-05 5.66494E-02 2.91548E-14-1.41129E-13
 -1      4139 2.02082E+01 1.76521E-01-6.25033E-04 6.23461E-02 2.84888E-14-1.26329E-13
 -1      4140 2.01606E+01 1.70277E-01 5.83051E-05 5.64425E-02 2.42337E-14-1.10791E-13
 -1      4141 2.01061E+01 1.74248E-01-8.93887E-04 5.50132E-02 3.04924E-14-9.93911E-14
 -1      4142 2.01940E+01 1.75291E-01 5.74691E-04 1.68809E-02 1.96718E-14-1.84633E-13
 -1      4143 2.00512E+01 1.86690E-01 1.95368E-04 4.27448E-02 4.03972E-14-7.87371E-14
 -1      4144 1.99847E+01 2.05967E-01-1.88148E-03 3.23972E-02 4.71244E-14-7.39853E-14
 -1      4145 2.00913E+01 1.75114E-01 8.81124E-04-9.57846E-04 4.82160E-14-7.60255E-14
 -1      4146 1.99236E+01 2.33346E-01 4.58074E-04 1.16206E-02 3.65413E-14-6.68440E-14
 -1      4147 1.98432E+01 2.63883E-01-2.67624E-03-1.06231E-02 2.04765E-14-9.29690E-14
 -1      4148 1.99721E+01 2.09768E-01 2.13189E-03-3.59556E-02 2.89376E-14-7.55457E-14
 -1      4149 1.97793E+01 2.98658E-01 8.53224E-04-4.28881E-02 9.89489E-15-1.16118E-13
 -1      4150 1.96857E+01 3.32696E-01-4.14350E-03-8.01284E-02-2.49453E-14-6.75803E-14
 -1      4151 1.98419E+01 2.60180E-01 3.33767E-03-9.39209E-02-2.05096E-15-1.05108E-13
 -1      4152 1.96139E+01 3.75074E-01 2.21351E-03-1.33063E-01-3.55030E-14-9.20598E-14
 -1      4153 1.94956E+01 4.10069E-01-4.83857E-03-1.96671E-01-3.54731E-14-7.81659E-14
 -1      4154 1.96940E+01 3.15543E-01 3.33935E-03-1.87536E-01-3.34507E-14-8.88819E-14
 -1      4155 1.94149E+01 4.48855E-01 2.54964E-03-2.82942E-01-1.08889E-14-5.00047E-14
 -1      4156 1.92651E+01 4.76679E-01-8.35085E-03-3.84633E-01 1.02310E-14-1.23619E-14
 -1      4157 1.95299E+01 3.56787E-01 1.09284E-03-3.33896E-01-1.90120E-14-5.90776E-14
 -1      4158 1.91944E+01 5.02800E-01 5.78702E-03-5.07140E-01-1.20348E-15-2.36063E-14
 -1      4159 1.90092E+01 5.03745E-01-1.16920E-02-6.66713E-01 4.17862E-15-1.04176E-14
 -1      4160 1.93533E+01 3.87574E-01 4.66081E-03-5.52874E-01-7.80281E-15-4.24028E-14
 -1      4161 1.89552E+01 5.02867E-01 9.78147E-03-8.44062E-01-3.16396E-14-3.16985E-14
 -1      4162 1.87380E+01 4.56487E-01-1.38588E-02-1.08184E+00-4.92296E-14-9.31073E-14
 -1      4163 1.91827E+01 3.46332E-01 4.75294E-03-8.76030E-01-2.53238E-14-3.22991E-14
 -1      4164 1.87252E+01 3.89466E-01 1.32312E-02-1.32919E+00-4.85300E-14-1.02219E-13
 -1      4165 1.84995E+01 2.74099E-01-1.11873E-02-1.67870E+00-6.95143E-14-7.49505E-14
 -1      4166 1.90460E+01 1.93455E-01 3.35887E-03-1.32293E+00-4.39360E-14-3.31900E-14
 -1      4167 1.85532E+01 1.65005E-01 1.95395E-02-1.91315E+00-1.10964E-13-6.25549E-14
 -1      4168 1.84092E+01-1.77448E-02-1.81151E-03-2.24955E+00-1.54727E-13-8.08490E-15
 -1      4169 1.90860E+01-5.25090E-01-2.12980E-02-2.37451E+00-4.81139E-14 1.00048E-13
 -1      4170 2.02358E+01 1.37291E-01 2.12456E-04-1.37718E-01 4.83577E-14-2.69187E-16
 -1      4171 2.02694E+01 1.64514E-01 1.79952E-04-1.17995E-01 3.77119E-14-1.53293E-14
 -1      4172 1.92962E+01 5.72912E-01-5.99877E-03 1.96868E-01-2.23901E-13-2.22070E-13
 -1      4173 1.94102E+01 5.33975E-01 9.98235E-04 1.39523E-01-9.47502E-14-2.64818E-13
 -1      4174 1.94802E+01 4.87800E-01-4.39468E-03 8.66314E-02-9.69475E-14-1.13837E-13
 -1      4175 1.95711E+01 4.46318E-01 8.21329E-04 5.23607E-02-1.60458E-13-8.01502E-14
 -1      4176 1.94834E+01 4.74361E-01 3.90750E-03 1.85916E-01-2.24344E-14-1.13533E-13
 -1      4177 1.96548E+01 3.84876E-01-1.89871E-03 1.68344E-02-5.45182E-14 1.23160E-13
 -1      4178 2.03715E+01 5.75429E-01-1.46617E-05 4.43729E-03 1.01581E-13-7.62441E-14
 -1      4179 2.03698E+01 7.11345E-01-2.31808E-03 5.52750E-02 1.21177E-13-8.98469E-14
 -1      4180 2.03712E+01 8.51453E-01 1.10093E-03 4.84043E-02 1.11258E-13-1.54964E-13
 -1      4181 2.03810E+01 5.53011E-01 3.72354E-04-7.03300E-03 1.11539E-13-1.15502E-13
 -1      4182 1.98524E+01-9.22834E-01 1.26552E-02-2.31279E+00 4.47255E-14 1.74441E-13
 -1      4183 2.06488E+01-1.47480E+00-3.52763E-02-2.09446E+00-4.42613E-14 1.12619E-13
 -1      4184 1.96824E+01-6.99666E-01-5.69282E-03-2.06120E+00 4.41591E-14 1.26011E-13
 -1      4185 2.00971E+01-3.55382E-01 3.20718E-03 9.71022E-01-4.56794E-13 1.62783E-13
 -1      4186 2.02788E+01-5.31051E-01 7.64143E-03 1.05351E+00-3.53340E-13 1.42770E-13
 -1      4187 2.04675E+01-7.38421E-01 9.32765E-03 1.17799E+00-2.13770E-13 4.57609E-15
 -1      4188 2.07305E+01-9.82469E-01 4.70232E-03 1.23503E+00-1.35702E-13-4.92679E-14
 -1      4189 2.01207E+01-5.96246E-01-1.81706E-02 1.29993E+00-3.61818E-13-3.59521E-14
 -1      4190 2.10760E+01-1.23814E+00 2.22708E-02 1.33087E+00-8.79061E-14-2.03405E-14
 -1      4191 2.14157E+01-1.55661E+00-4.94804E-03 1.32372E+00-9.86542E-14 1.46878E-14
 -1      4192 2.06050E+01-1.10376E+00-2.33834E-02 1.55314E+00-8.36086E-14-1.62596E-13
 -1      4193 1.98966E+01-9.15651E-02 7.84278E-04 7.56510E-01-3.69981E-13 1.32967E-13
 -1      4194 2.00051E+01-2.07518E-01 6.50256E-03 8.40899E-01-4.25366E-13 2.00790E-13
 -1      4195 1.98500E+01-2.03061E-01-6.94092E-03 1.00825E+00-4.29008E-13-8.02125E-15
 -1      4196 1.98044E+01 7.31882E-02-4.06113E-04 5.70226E-01-2.11747E-13 1.14542E-13
 -1      4197 1.98624E+01 3.62400E-03 5.07414E-03 6.46419E-01-2.27523E-13 1.99172E-13
 -1      4198 1.97321E+01 2.83933E-02-4.05585E-03 7.51123E-01-2.37576E-13-2.49867E-13
 -1      4199 1.97775E+01 1.63491E-01-1.04521E-03 4.20023E-01-3.71843E-14-5.61460E-15
 -1      4200 1.98035E+01 1.27370E-01 3.71916E-03 4.82895E-01-1.41345E-13 5.29796E-14
 -1      4201 1.96981E+01 1.61924E-01-2.06225E-03 5.44193E-01-1.08135E-13-1.54506E-13
 -1      4202 1.97875E+01 2.03319E-01-1.18389E-03 3.04109E-01-7.08182E-14-1.70667E-13
 -1      4203 1.97939E+01 1.89699E-01 2.65808E-03 3.53557E-01-2.03985E-14-1.86973E-14
 -1      4204 1.97114E+01 2.26478E-01-8.01937E-04 3.86062E-01-2.60669E-16-1.45836E-13
 -1      4205 1.98161E+01 2.11138E-01-7.46298E-04 2.17610E-01 1.14096E-14-5.32465E-13
 -1      4206 1.98112E+01 2.10975E-01 1.83666E-03 2.54924E-01 9.91455E-15-3.88849E-13
 -1      4207 1.97477E+01 2.45922E-01-2.21355E-04 2.69425E-01 8.81569E-14-4.97917E-13
 -1      4208 1.98407E+01 2.08345E-01-3.77630E-04 1.51905E-01 4.86698E-15-4.73900E-13
 -1      4209 1.98295E+01 2.15862E-01 1.13456E-03 1.80014E-01-6.95130E-14-3.78393E-13
 -1      4210 1.97803E+01 2.45990E-01-7.10477E-04 1.82633E-01-1.67823E-13-5.66216E-13
 -1      4211 1.98121E+01 2.35491E-01-8.84009E-04 1.15109E-01-1.03855E-13-3.96998E-13
 -1      4212 2.13420E+01-1.53596E+00 2.97971E-02-1.57193E+00-9.10038E-14 8.99038E-14
 -1      4213 2.22609E+01-2.07188E+00 1.22334E-02 1.35345E+00-2.38747E-13 1.00467E-14
 -1      4214 2.27341E+01-2.30818E+00-1.22771E-02 1.19776E+00-2.23921E-13-1.46637E-13
 -1      4215 2.33818E+01-2.38314E+00-1.87563E-02 7.18390E-01-1.89550E-13-2.11702E-13
 -1      4216 2.10041E+01-1.30232E+00 1.12796E-02-1.48985E+00-3.91941E-14 1.15599E-13
 -1      4217 1.99824E+01-1.52993E-01 6.72303E-03-7.53133E-01-1.46010E-15 3.24651E-14
 -1      4218 1.99101E+01-7.35325E-02-1.06395E-03-6.81424E-01 4.63568E-14 3.28001E-14
 -1      4219 2.01578E+01-3.97173E-01 8.05550E-03-9.50991E-01 4.36887E-14 9.39335E-14
 -1      4220 2.00216E+01-2.67332E-01-6.90701E-04-8.75464E-01-4.20744E-15 7.23965E-14
 -1      4221 1.98418E+01-1.24152E-01 5.57090E-04-8.83809E-01-2.54708E-14-4.23016E-14
 -1      4222 2.03923E+01 7.20680E-01 2.55936E-03 9.57786E-03 7.93137E-14-1.58103E-13
 -1      4223 2.03019E+01 2.02752E-01-3.62698E-04-1.04980E-01 1.14734E-14-3.45453E-14
 -1      4224 2.03300E+01 2.53770E-01-4.34575E-04-8.15747E-02 2.44225E-14-7.03620E-14
 -1      4225 2.02926E+01 2.01746E-01 3.55951E-06-8.40648E-02 1.12012E-14-7.51151E-14
 -1      4226 2.03735E+01 4.11704E-01-6.62679E-04 2.21876E-02 1.11607E-14-1.31780E-13
 -1      4227 2.03514E+01 3.30873E-01-1.24143E-03 4.23682E-02-8.76882E-15-1.37707E-13
 -1      4228 2.06526E+01-1.03399E+00 6.94398E-03-1.45761E+00-3.59435E-15 1.36445E-13
 -1      4229 1.84390E+01 6.78904E-01-3.20046E-03 1.11284E+00 1.07998E-13-1.23962E-13
 -1      4230 1.86820E+01 6.96854E-01 9.32356E-03 8.56821E-01-3.94646E-14-2.29166E-14
 -1      4231 1.89183E+01 5.29085E-01 3.25244E-03 8.99295E-01-8.51619E-15-1.13022E-13
 -1      4232 2.03277E+01 2.69852E-01 6.05427E-04 4.49732E-02-1.49143E-14-1.18940E-13
 -1      4233 2.02918E+01 2.24459E-01-4.97327E-04 5.78361E-02 1.94634E-14-1.16896E-13
 -1      4234 2.02805E+01 2.16293E-01 2.59912E-04 2.29771E-02 4.03865E-17-1.34361E-13
 -1      4235 2.05136E+01-7.62066E-01 1.25511E-02-1.13641E+00 1.33275E-14 1.43798E-13
 -1      4236 2.02755E+01-5.70846E-01 3.23478E-03-1.08689E+00 5.96658E-14 1.69638E-13
 -1      4237 2.00099E+01-4.03077E-01-8.21968E-04-1.15928E+00-4.85679E-15 4.86959E-14
 -1      4238 2.16126E+01-2.18395E+00 7.02975E-03 2.42938E+00-2.80166E-13-5.34295E-14
 -1      4239 1.90579E+01 6.49554E-01-8.34496E-03 3.79941E-01-1.81010E-13-1.46045E-13
 -1      4240 1.92153E+01 6.16221E-01 2.21942E-03 2.79893E-01-2.83452E-13-2.68011E-13
 -1      4241 1.93222E+01 5.33851E-01 5.28867E-03 3.34006E-01-2.02741E-13-1.24682E-13
 -1      4242 1.91328E+01 5.64032E-01 6.08954E-03 5.61627E-01-1.32544E-13-1.73304E-13
 -1      4243 2.00797E+01-1.42242E+00-3.68557E-02 2.71294E+00-3.49609E-13 3.88374E-13
 -1      4244 1.90839E+01-7.33154E-01 2.46449E-02 2.87587E+00-4.52107E-13 3.23975E-13
 -1      4245 1.89296E+01-4.47167E-01 1.79733E-02 2.56903E+00-3.40689E-13 2.42813E-13
 -1      4246 2.17010E+01-1.98431E+00-1.72192E-02 1.82734E+00-2.26176E-13-1.80614E-13
 -1      4247 1.90073E+01-5.78341E-02 1.06517E-02-1.84441E+00-2.57952E-14-3.67604E-14
 -1      4248 2.01955E+01 1.18992E-01-2.47532E-04-1.51956E-01 5.65223E-14 4.26551E-15
 -1      4249 2.02181E+01 1.45169E-01 1.16333E-05-1.13055E-01 4.81586E-14-1.44749E-14
 -1      4250 2.01609E+01 1.08763E-01 5.38875E-04-1.71344E-01 5.97504E-14-2.86221E-14
 -1      4251 1.99649E+01 2.35717E-02-2.31820E-03-4.37311E-01-7.02170E-16 8.26726E-14
 -1      4252 1.85329E+01 2.63957E-01 1.59912E-03 1.77917E+00-2.29486E-13 2.29644E-13
 -1      4253 1.85330E+01 5.01738E-01 1.15525E-02 1.39785E+00 3.34780E-14 1.03822E-13
 -1      4254 1.88887E+01 2.76459E-01-2.77319E-03 1.37594E+00-5.38328E-14 2.30976E-13
 -1      4255 1.96427E+01 3.81331E-01 1.22855E-03 8.67592E-02 4.88203E-14 9.89316E-14
 -1      4256 1.99111E+01-4.20495E-03 5.11636E-03-5.83111E-01 7.19124E-14 3.21608E-14
 -1      4257 1.98864E+01 3.74963E-02-4.74517E-08-5.19328E-01 5.60433E-14 6.55876E-14
 -1      4258 1.97962E+01 3.44399E-02 7.22307E-04-6.49021E-01 7.29753E-14-1.47793E-14
 -1      4259 2.03558E+01 3.21755E-01 3.32226E-04-6.52355E-02 7.34902E-14-8.55256E-14
 -1      4260 2.03752E+01 4.03650E-01-1.01354E-04-3.60478E-02 9.39393E-14-8.28590E-14
 -1      4261 2.03510E+01 3.05637E-01-4.40034E-04-5.08247E-02 3.75426E-14-7.95881E-14
 -1      4262 2.00110E+01 1.05358E-01 1.90860E-03-2.67281E-01-1.08329E-14 5.29990E-14
 -1      4263 2.00379E+01 1.02695E-01-8.75984E-04-2.38799E-01 9.36707E-15 3.36114E-14
 -1      4264 2.08249E+01-1.48795E+00 3.30458E-02 2.21998E+00-2.05946E-13-6.81816E-14
 -1      4265 1.97768E+01 2.74822E-01-9.17854E-04 6.41388E-02-5.65794E-14-9.92198E-14
 -1      4266 1.97938E+01 2.58624E-01 4.49424E-04 9.41561E-02-1.11360E-13-3.64315E-13
 -1      4267 1.97767E+01 2.67714E-01 9.68422E-04 1.24136E-01-1.22756E-13-4.43773E-13
 -1      4268 1.97337E+01 3.07707E-01-8.96477E-04 7.59466E-02-2.48033E-14-1.35683E-13
 -1      4269 2.02493E+01-8.34524E-01-2.69770E-03-1.62214E+00 1.67984E-14 1.77809E-13
 -1      4270 2.04608E+01-1.23521E+00 4.24700E-03 2.12158E+00-2.20434E-13 6.82000E-14
 -1      4271 2.03468E+01 3.11128E-01-2.96447E-04 1.97627E-02 5.58826E-15-1.37937E-13
 -1      4272 2.03900E+01 5.92921E-01-1.36352E-03-7.27675E-03 2.73111E-14-1.43423E-13
 -1      4273 2.03858E+01 4.91626E-01 8.78574E-06 1.52552E-02 1.92574E-14-1.32250E-13
 -1      4274 2.03847E+01 4.57231E-01 5.01596E-04 5.94751E-03 2.05415E-14-1.42772E-13
 -1      4275 2.03930E+01 6.34233E-01-6.67366E-04-2.31207E-03 4.13535E-14-1.83289E-13
 -1      4276 1.99491E+01 1.00686E-01 2.82073E-03-3.43201E-01-4.36187E-14 7.04120E-14
 -1      4277 1.99644E+01 1.02710E-01-1.59822E-03-3.05688E-01-4.48183E-14 5.66335E-14
 -1      4278 1.99579E+01 1.38311E-01 1.28554E-03-2.58296E-01-3.63079E-14 9.69517E-14
 -1      4279 2.02916E+01 2.05815E-01-4.92512E-04-3.42973E-02-7.28860E-15-8.23169E-14
 -1      4280 2.02516E+01 1.76123E-01 2.06890E-05-3.66265E-02 1.25949E-14-7.88431E-14
 -1      4281 2.01280E+01 1.56183E-01-2.55939E-04-4.06322E-02 2.96583E-14-3.16336E-14
 -1      4282 2.00705E+01 1.62891E-01-9.77967E-04-5.29498E-02 5.66305E-14-3.84433E-14
 -1      4283 2.00114E+01 1.61853E-01 2.22967E-05-1.19306E-01 6.96383E-16-2.24302E-14
 -1      4284 1.99460E+01 1.76746E-01-2.38544E-03-1.44418E-01-5.19833E-15-2.44270E-14
 -1      4285 1.99012E+01 1.87418E-01-6.03552E-04-1.83680E-01-4.54991E-14-4.48133E-14
 -1      4286 1.98308E+01 2.05246E-01-3.76704E-03-2.20916E-01-5.26311E-14-7.62147E-14
 -1      4287 1.96471E+01 2.75376E-01 2.46910E-04-3.46257E-01 1.25195E-14-8.59904E-14
 -1      4288 1.95560E+01 2.90306E-01-2.60157E-03-4.34034E-01 4.42171E-14-1.89854E-14
 -1      4289 1.95978E+01 1.91099E-01 1.99159E-03-6.11190E-01-1.96110E-14 4.03728E-14
 -1      4290 1.95142E+01 1.54963E-01-7.68724E-03-7.47343E-01-3.48905E-14 2.80846E-14
 -1      4291 1.95596E+01 8.16635E-02 3.28584E-03-8.84994E-01-3.25940E-14 1.54359E-14
 -1      4292 1.94842E+01-1.01875E-03-9.67250E-03-1.06986E+00-4.64718E-14 3.21324E-14
 -1      4293 1.96049E+01-1.33694E-01 6.06659E-03-1.24214E+00-1.04894E-14 7.44799E-14
 -1      4294 1.95540E+01-2.94071E-01-1.37841E-02-1.48281E+00 1.62580E-14 1.02904E-13
 -1      4295 2.00838E+01 1.03014E-01 1.00384E-03-2.12714E-01 1.01621E-14-4.63781E-15
 -1      4296 2.01167E+01 1.03803E-01-4.28264E-04-1.89981E-01 3.08716E-14-4.53680E-15
 -1      4297 2.01334E+01 1.23945E-01-1.12544E-04-1.46644E-01 4.08627E-14-5.18840E-14
 -1      4298 2.00446E+01 1.25014E-01-3.06763E-04-1.91353E-01-1.79860E-14 1.66555E-14
 -1      4299 1.99068E+01 6.81827E-02 2.31904E-03-4.48557E-01 1.44696E-14 9.51036E-14
 -1      4300 1.99070E+01 8.79736E-02-1.72220E-03-3.98298E-01-5.20715E-15 9.66131E-14
 -1      4301 1.98782E+01 1.40651E-01 1.90971E-03-3.50411E-01-5.20993E-14 2.93211E-14
 -1      4302 1.98164E+01 1.01988E-01-2.44199E-03-4.79050E-01 6.22440E-14 5.24328E-14
 -1      4303 1.94990E+01-7.56297E-01-1.67223E-02 2.37240E+00-2.19476E-13 3.79569E-13
 -1      4304 1.87067E+01-1.91927E-01 8.90163E-03 2.36175E+00-1.38617E-13 1.65288E-13
 -1      4305 1.86896E+01 2.11455E-02 1.77745E-02 2.06866E+00-1.70791E-13 2.28464E-13
 -1      4306 2.02105E+01 1.56953E-01-2.03641E-04-5.15425E-02 5.26257E-14-6.49803E-14
 -1      4307 1.95487E+01-1.74788E-01 1.83957E-03 1.41302E+00-3.06323E-13 1.03396E-13
 -1      4308 1.97339E+01-3.84913E-01 1.14126E-02 1.59728E+00-1.95893E-13 1.49533E-13
 -1      4309 1.95587E+01 1.85649E-01-3.40182E-03 6.99095E-01-1.27500E-13-2.58036E-13
 -1      4310 1.96027E+01 1.17936E-01 5.94574E-03 8.17278E-01-2.36401E-13-2.08162E-13
 -1      4311 2.01589E+01-9.04651E-01 1.19962E-02 1.95465E+00-1.85161E-13 1.53485E-13
 -1      4312 1.95869E+01 2.67562E-01-3.20445E-03 4.84384E-01-8.55367E-14-1.88623E-13
 -1      4313 1.95986E+01 2.38845E-01 4.89491E-03 5.74172E-01-1.39803E-13-2.77131E-13
 -1      4314 1.94468E+01 3.13790E-01 1.96742E-03 6.30660E-01-1.38257E-13-2.74807E-13
 -1      4315 1.96432E+01 2.93537E-01-2.70356E-03 3.28056E-01 9.93438E-14-2.97012E-13
 -1      4316 1.96355E+01 2.88654E-01 3.34063E-03 3.94463E-01 1.10263E-13-1.32793E-13
 -1      4317 1.95248E+01 3.54227E-01 2.07654E-03 4.17979E-01-7.51424E-14-3.11361E-13
 -1      4318 1.97096E+01 2.86132E-01-1.57687E-03 2.17933E-01 1.64241E-13-4.31166E-13
 -1      4319 1.96912E+01 2.94702E-01 2.19993E-03 2.65585E-01 1.99238E-13-3.65071E-13
 -1      4320 1.96114E+01 3.48415E-01 1.48605E-03 2.70187E-01 2.13567E-13-1.88458E-13
 -1      4321 1.97501E+01 2.79877E-01-6.55170E-05 1.48070E-01-1.84643E-13-3.05840E-13
 -1      4322 1.97379E+01 2.82376E-01 1.24160E-03 1.87908E-01-1.06236E-13-3.01433E-13
 -1      4323 1.96785E+01 3.20224E-01-1.15409E-03 1.82346E-01 5.92650E-14 1.06427E-13
 -1      4324 1.97281E+01 3.03535E-01 4.60561E-04 1.26357E-01-1.02374E-13-2.42038E-13
 -1      4325 2.03883E+01 5.82362E-01-1.47433E-03 1.13549E-03 8.82823E-14-1.14906E-13
 -1      4326 2.03925E+01 6.13884E-01-5.73514E-04-3.76831E-03 6.19221E-14-1.54703E-13
 -1      4327 2.03265E+01 2.51110E-01 1.09491E-03-2.43264E-02 2.62899E-15-1.00228E-13
 -1      4328 1.94708E+01 4.21019E-01-5.03395E-03 2.93176E-01 5.10108E-14-1.45028E-13
 -1      4329 1.95519E+01 4.01862E-01 7.49127E-04 2.31484E-01 6.52228E-14-2.46207E-14
 -1      4330 2.03777E+01 3.83449E-01 1.59593E-03-1.03521E-02 3.83771E-14-1.03710E-13
 -1      4331 2.03504E+01 3.09016E-01-6.41296E-04-1.13506E-02 3.70526E-14-1.01943E-13
 -1      4332 2.03966E+01 5.19645E-01 2.28522E-03-3.98121E-03 4.38408E-14-1.33320E-13
 -1      4333 2.03866E+01 4.53689E-01-2.68350E-04-1.20070E-02 3.80402E-14-1.14074E-13
 -1      4334 2.01623E+01 1.49047E-01-7.92633E-05-5.91525E-02 4.43236E-14-4.05890E-14
 -1      4335 1.97931E+01 2.13293E-01 8.96810E-05-2.76044E-01-2.46740E-14-8.31821E-14
 -1      4336 1.97190E+01 2.27829E-01-2.67394E-03-3.35695E-01-2.34863E-14-5.29464E-14
 -1      4337 2.03836E+01 4.67574E-01 1.00492E-03-2.66583E-02 7.85901E-14-8.15897E-14
 -1      4338 1.96340E+01-5.03891E-01 4.05030E-03-1.82742E+00 3.68579E-14 9.74013E-14
 -1      4339 1.91159E+01-2.43527E-01-2.30323E-02 1.93835E+00-1.61466E-13 4.70409E-13
 -1      4340 1.96862E+01-8.39739E-02 7.75256E-03 1.09806E+00-3.83531E-13-1.13703E-13
 -1      4341 1.92237E+01 9.24902E-02-1.98955E-03 1.33121E+00-2.21412E-13 7.40165E-14
 -1      4342 1.90799E+01 3.00910E-01-1.00054E-02 1.08439E+00-2.38844E-13-2.35397E-14
 -1      4343 1.95773E+01 3.62224E-02-4.29357E-03 9.57090E-01-3.03359E-13-2.08318E-13
 -1      4344 1.94004E+01 2.16013E-01 2.57314E-03 8.98480E-01-2.09194E-13-2.73277E-13
 -1      4345 1.97112E+01 3.24390E-01 5.22721E-04 9.79872E-02 2.89208E-14 1.98264E-14
 -1      4346 1.91939E+01 3.69819E-01 5.17542E-03 8.83304E-01-2.49876E-13-2.71718E-13
 -1      4347 1.94313E+01 4.30774E-01 1.07338E-03 3.79865E-01-1.46305E-13-2.03081E-13
 -1      4348 1.97236E+01 1.07376E-01-1.98152E-04-5.98805E-01 6.13159E-14-1.52965E-14
 -1      4349 2.03802E+01 4.34295E-01-1.12982E-03-2.26204E-02 5.99562E-14-7.42867E-14
 -1      4350 2.00532E+01 1.39846E-01 3.55299E-04-1.53742E-01-1.41053E-14 3.31377E-14
 -1      4351 1.96277E+01 3.70863E-01-1.05000E-03 1.41755E-01 2.48103E-14 8.43290E-14
 -1      4352 1.93343E+01 4.35425E-01-7.04813E-03 4.74197E-01-2.13585E-13-2.63931E-13
 -1      4353 1.91963E+01 3.99093E-01-9.31518E-03 7.40061E-01-9.75013E-14-2.45727E-13
 -1      4354 1.93069E+01 4.23053E-01 2.23077E-03 5.98417E-01-1.06930E-13-2.55226E-13
 -1      4355 1.95980E+01 3.82863E-01-1.10441E-03 1.73626E-01-2.27868E-15 1.24533E-13
 -1      4356 1.99038E+01-6.47130E-01 7.46148E-03 1.81760E+00-9.67878E-14 1.39507E-13
 -1      4357 1.97691E+01 1.75204E-01 2.64518E-03-4.22424E-01 5.34438E-14-1.10218E-14
 -1      4358 2.01452E+01 1.36172E-01-1.61599E-04-1.11033E-01 6.35730E-14-2.05428E-14
 -1      4359 1.97389E+01 1.48630E-01-1.94802E-04-4.99834E-01 1.14385E-13-5.62966E-14
 -1      4360 2.01010E+01 1.34544E-01 5.07214E-04-1.29034E-01 2.14377E-14-1.60871E-14
 -3
    1PSTEP                         3           1           1          
  100CL  101 1.000000000        4360                     0    1           1
 -4  TOSTRAIN    6    1
 -5  EXX         1    4    1    1
 -5  EYY         1    4    2    2
 -5  EZZ         1    4    3    3
 -5  EXY         1    4    1    2
 -5  EYZ         1    4    2    3
 -5  EZX         1    4    3    1
 -1         1 3.18293E-04-8.50284E-05-8.34310E-05-9.28641E-05-4.30859E-18 1.86860E-17
 -1         2 4.00129E-05-1.21869E-04 2.27477E-05 5.07023E-07 1.07410E-17 3.15837E-19
 -1         3 9.52331E-05-2.85753E-05-2.85598E-05-1.88235E-09-2.00568E-18-1.10106E-18
 -1         4 9.52329E-05-2.85754E-05-2.85580E-05 1.03017E-09 1.50532E-19 2.05086E-18
 -1         5 1.43208E-04-2.14571E-05-4.24903E-05 3.85013E-05-2.37804E-19 1.40988E-17
 -1         6 1.45918E-04 2.56874E-10-4.40916E-05-5.41695E-05-7.98329E-19 9.18692E-18
 -1         7 9.00957E-05-3.18692E-07-3.89928E-05-2.90599E-05-1.11914E-19 1.35737E-19
 -1         8 8.50957E-05 9.31940E-08-3.63297E-05-2.02487E-05-1.13899E-19-2.18041E-18
 -1         9 8.28117E-05 7.73810E-08-3.53499E-05-1.56307E-05-8.79458E-20-3.24320E-18
 -1        10 8.17933E-05 3.82425E-08-3.48887E-05-1.20672E-05-1.52135E-20-3.60729E-18
 -1        11 8.12840E-05 1.88841E-08-3.46654E-05-8.99994E-06-7.78873E-21-3.66433E-18
 -1        12 8.10219E-05 8.67066E-09-3.45547E-05-6.27147E-06-1.72881E-21-3.54756E-18
 -1        13 8.08843E-05 4.14063E-09-3.44989E-05-3.67627E-06 3.12269E-20-3.37362E-18
 -1        14 8.08262E-05 2.34550E-09-3.44759E-05-1.18008E-06 4.00527E-20-3.15486E-18
 -1        15 8.08272E-05 2.36171E-09-3.44762E-05 1.28567E-06 7.71135E-20-2.90212E-18
 -1        16 8.08876E-05 4.14017E-09-3.44999E-05 3.78607E-06 8.75041E-20-2.65527E-18
 -1        17 8.10291E-05 7.98828E-09-3.45567E-05 6.39173E-06 9.41034E-20-2.24287E-18
 -1        18 8.12960E-05 1.77140E-08-3.46688E-05 9.13762E-06 1.19051E-19-1.72522E-18
 -1        19 8.18113E-05 3.76366E-08-3.48948E-05 1.22389E-05 1.70750E-19-9.30130E-19
 -1        20 8.28348E-05 7.98800E-08-3.53604E-05 1.58550E-05 1.90596E-19 3.98757E-19
 -1        21 8.50586E-05 1.69388E-07-3.63636E-05 2.04672E-05 1.89524E-19 2.68076E-18
 -1        22 9.15818E-05-9.89943E-08-3.87137E-05 2.79798E-05 1.41878E-20 6.64304E-18
 -1        23 1.13863E-04-3.81087E-05-3.57109E-05-5.15759E-06-5.54410E-19 6.46974E-18
 -1        24 9.30468E-05-2.77730E-05-2.91416E-05 4.01191E-07-1.35988E-19 4.19684E-18
 -1        25 8.91331E-05-2.68539E-05-2.69567E-05 3.83807E-07-9.02487E-20 1.88141E-18
 -1        26 8.79589E-05-2.64728E-05-2.63792E-05 2.07418E-07 4.79550E-20-2.15861E-20
 -1        27 8.79648E-05-2.64457E-05-2.63609E-05 1.40766E-07-8.45759E-20-9.69065E-19
 -1        28 8.85060E-05-2.65834E-05-2.65327E-05 1.02644E-07-2.78443E-20-1.66744E-18
 -1        29 8.92610E-05-2.67972E-05-2.67653E-05 7.47663E-08-5.38044E-20-2.25992E-18
 -1        30 9.01537E-05-2.70574E-05-2.70364E-05 5.64118E-08-5.58445E-20-2.76027E-18
 -1        31 9.10790E-05-2.73311E-05-2.73160E-05 4.20471E-08 1.42671E-19-2.92460E-18
 -1        32 9.20037E-05-2.76067E-05-2.75953E-05 3.11196E-08 9.63941E-20-3.04700E-18
 -1        33 9.29292E-05-2.78842E-05-2.78753E-05 2.28309E-08-2.04518E-19-3.42230E-18
 -1        34 9.38829E-05-2.81707E-05-2.81648E-05 1.78619E-08 1.96704E-20-4.44993E-18
 -1        35 9.48694E-05-2.84693E-05-2.84647E-05 1.35759E-08-6.78104E-20-3.93996E-18
 -1        36 9.60734E-05-2.88336E-05-2.88323E-05 1.37272E-08 1.38787E-19-4.24246E-18
 -1        37 9.75801E-05-2.92900E-05-2.92941E-05 1.85123E-08 2.47000E-19-4.18265E-18
 -1        38 9.95834E-05-2.98964E-05-2.99107E-05 3.15834E-08-2.90850E-19-5.28835E-18
 -1        39 1.02369E-04-3.07384E-05-3.07714E-05 5.86559E-08 1.34334E-20-6.20473E-18
 -1        40 1.06340E-04-3.19278E-05-3.20041E-05 1.23626E-07 2.38785E-19-5.61771E-18
 -1        41 1.11745E-04-3.35525E-05-3.36813E-05 2.03298E-07-2.04401E-19-4.22879E-18
 -1        42 1.19799E-04-3.59522E-05-3.61703E-05 3.75856E-07 7.72339E-20-4.44218E-18
 -1        43 1.30982E-04-3.92793E-05-3.95643E-05 6.44974E-07 1.67876E-19-3.35997E-18
 -1        44 1.45401E-04-4.35842E-05-4.37568E-05 9.85665E-07-3.96861E-19-3.87179E-18
 -1        45 1.61204E-04-4.83650E-05-4.79529E-05 1.16661E-06 9.85586E-20-2.96197E-18
 -1        46 1.72210E-04-5.19295E-05-5.02504E-05 2.60920E-07-4.85211E-19-2.79923E-18
 -1        47 1.68549E-04-5.09160E-05-4.85490E-05-1.79064E-06-1.46285E-19-2.67038E-18
 -1        48 1.40892E-04-4.21785E-05-4.20973E-05-5.62301E-06-3.16876E-20-3.17659E-18
 -1        49 1.02524E-04-2.92798E-05-3.46200E-05-5.59067E-06-1.30006E-19-3.86988E-18
 -1        50 8.11601E-05-2.23717E-05-3.07288E-05-1.05808E-06-7.30566E-21-6.99088E-18
 -1        51 9.10226E-05-2.57410E-05-3.25042E-05 4.71048E-06-8.45524E-19-1.29993E-17
 -1        52 1.27807E-04-3.79704E-05-3.92802E-05 6.21360E-06 7.14581E-19-1.33001E-17
 -1        53 1.62911E-04-4.92606E-05-4.70185E-05 2.98836E-06-1.61876E-19-9.37613E-18
 -1        54 1.72946E-04-5.21470E-05-5.02636E-05-1.16325E-07 1.75495E-20-8.68815E-18
 -1        55 1.64866E-04-4.95011E-05-4.88372E-05-1.09048E-06-5.77673E-19-6.24967E-18
 -1        56 1.49497E-04-4.48176E-05-4.48994E-05-1.06296E-06 1.13659E-18-3.16833E-18
 -1        57 1.34453E-04-4.03141E-05-4.05972E-05-7.27532E-07-1.24396E-19-2.67242E-18
 -1        58 1.22467E-04-3.67469E-05-3.69870E-05-4.33026E-07-1.00082E-19-3.39951E-18
 -1        59 1.13748E-04-3.41500E-05-3.43010E-05-2.40438E-07 4.27371E-20-4.65380E-18
 -1        60 1.07693E-04-3.23354E-05-3.24205E-05-1.20333E-07-1.81429E-19-4.74857E-18
 -1        61 1.03717E-04-3.11460E-05-3.11873E-05-6.84164E-08-8.50780E-20-6.26699E-18
 -1        62 1.00861E-04-3.02818E-05-3.03025E-05-3.28631E-08-3.53535E-19-6.34392E-18
 -1        63 9.89362E-05-2.96991E-05-2.97078E-05-1.46720E-08-1.80120E-19-5.28187E-18
 -1        64 9.76359E-05-2.93045E-05-2.93075E-05-5.41990E-09 2.73965E-19-4.28381E-18
 -1        65 9.67567E-05-2.90372E-05-2.90375E-05-8.84243E-10 2.77168E-19-1.59721E-18
 -1        66 9.61632E-05-2.88560E-05-2.88556E-05 2.18037E-09-2.94162E-19-7.86175E-19
 -1        67 9.57798E-05-2.87396E-05-2.87385E-05 1.96293E-09 4.67582E-19-8.63688E-19
 -1        68 9.55097E-05-2.86569E-05-2.86561E-05 2.55053E-09 3.56019E-19 7.87113E-19
 -1        69 9.53386E-05-2.86044E-05-2.86042E-05 2.88786E-09 4.42776E-19 2.46819E-18
 -1        70 9.52416E-05-2.85744E-05-2.85750E-05 3.58441E-09-2.48343E-19 1.84636E-18
 -1        71 9.52044E-05-2.85624E-05-2.85634E-05 5.56655E-09-7.15677E-19-1.04439E-18
 -1        72 9.52164E-05-2.85657E-05-2.85626E-05 8.05164E-09 4.26968E-19-3.16310E-19
 -1        73 1.02075E-04-3.05562E-05-3.41178E-05-1.92662E-06 6.15422E-20 1.38902E-17
 -1        74 9.24700E-05-2.74871E-05-2.88786E-05-3.33950E-07 1.43162E-19 1.17889E-17
 -1        75 8.90266E-05-2.66779E-05-2.69473E-05-1.24719E-07-1.80904E-20 9.80898E-18
 -1        76 8.79845E-05-2.64219E-05-2.64157E-05-9.44678E-08 6.91399E-20 9.08325E-18
 -1        77 8.80415E-05-2.64367E-05-2.64000E-05-7.49471E-08 9.43259E-20 8.27060E-18
 -1        78 8.86129E-05-2.65988E-05-2.65726E-05-6.07951E-08-1.58180E-20 7.71546E-18
 -1        79 8.94229E-05-2.68358E-05-2.68181E-05-4.98081E-08-1.05696E-19 8.30197E-18
 -1        80 9.03293E-05-2.71044E-05-2.70912E-05-4.10060E-08-4.53800E-20 8.01027E-18
 -1        81 9.12562E-05-2.73805E-05-2.73702E-05-3.37238E-08-7.09444E-20 7.23867E-18
 -1        82 9.21660E-05-2.76522E-05-2.76442E-05-2.78926E-08 4.80911E-20 7.04087E-18
 -1        83 9.30437E-05-2.79145E-05-2.79088E-05-2.36252E-08-1.10118E-21 6.29726E-18
 -1        84 9.38867E-05-2.81665E-05-2.81630E-05-2.10913E-08 1.18183E-19 5.14289E-18
 -1        85 9.46961E-05-2.84083E-05-2.84067E-05-2.04486E-08-8.55227E-21 4.48206E-18
 -1        86 9.54679E-05-2.86386E-05-2.86381E-05-2.17507E-08 2.88847E-20 4.88949E-18
 -1        87 9.61846E-05-2.88523E-05-2.88515E-05-2.47994E-08-4.67169E-20 4.75054E-18
 -1        88 9.68052E-05-2.90371E-05-2.90339E-05-2.89250E-08-3.02942E-19 5.30683E-18
 -1        89 9.72569E-05-2.91715E-05-2.91628E-05-3.27057E-08 9.77810E-21 5.73305E-18
 -1        90 9.74286E-05-2.92227E-05-2.92045E-05-3.37028E-08 2.50061E-19 3.98746E-18
 -1        91 9.71727E-05-2.91468E-05-2.91156E-05-2.83967E-08-2.19272E-19 3.47549E-18
 -1        92 9.63205E-05-2.88939E-05-2.88474E-05-1.26296E-08 1.05381E-19 3.94996E-18
 -1        93 9.47180E-05-2.84178E-05-2.83580E-05 1.70802E-08 5.49343E-20 4.10072E-18
 -1        94 9.22846E-05-2.76936E-05-2.76289E-05 6.12000E-08-6.38095E-20 4.92536E-18
 -1        95 8.90863E-05-2.67393E-05-2.66853E-05 1.14402E-07 2.59752E-19 3.87094E-18
 -1        96 8.53981E-05-2.56350E-05-2.56120E-05 1.64066E-07-3.25819E-19 3.39724E-18
 -1        97 8.17164E-05-2.45278E-05-2.45534E-05 1.92408E-07 3.13155E-19 3.81118E-18
 -1        98 7.86828E-05-2.36104E-05-2.36899E-05 1.83345E-07-5.19643E-20 3.43588E-18
 -1        99 7.69179E-05-2.30716E-05-2.31917E-05 1.31620E-07-4.23914E-19 3.85179E-18
 -1       100 7.68168E-05-2.30338E-05-2.31654E-05 4.81677E-08-4.28280E-19 5.13441E-18
 -1       101 7.84037E-05-2.35071E-05-2.36166E-05-4.33195E-08 2.29265E-19 4.88451E-18
 -1       102 8.13229E-05-2.43850E-05-2.44485E-05-1.17274E-07 2.04557E-19 3.54073E-18
 -1       103 8.49714E-05-2.54846E-05-2.54956E-05-1.57567E-07-7.60473E-20 1.50428E-18
 -1       104 8.87020E-05-2.66091E-05-2.65776E-05-1.62215E-07-3.68588E-19 3.81722E-18
 -1       105 9.19984E-05-2.76016E-05-2.75460E-05-1.40289E-07-2.24680E-19 4.25453E-18
 -1       106 9.45630E-05-2.83725E-05-2.83109E-05-1.05060E-07 9.75504E-20 4.11768E-18
 -1       107 9.63132E-05-2.88975E-05-2.88427E-05-6.81221E-08-1.69769E-19 2.39202E-18
 -1       108 9.73220E-05-2.91992E-05-2.91575E-05-3.66997E-08 2.72498E-19 1.33584E-18
 -1       109 9.77448E-05-2.93250E-05-2.92973E-05-1.36845E-08 3.40169E-20-1.75575E-18
 -1       110 9.77580E-05-2.93281E-05-2.93125E-05 1.01286E-09-8.89155E-20-1.11901E-18
 -1       111 9.75212E-05-2.92565E-05-2.92498E-05 8.97358E-09 2.21834E-19-1.94135E-18
 -1       112 9.71592E-05-2.91477E-05-2.91467E-05 1.21876E-08 3.67400E-20-2.61756E-18
 -1       113 9.67594E-05-2.90277E-05-2.90299E-05 1.24563E-08-2.63713E-19-2.59260E-18
 -1       114 9.63763E-05-2.89128E-05-2.89165E-05 1.11606E-08-1.58231E-19-1.10803E-18
 -1       115 9.60393E-05-2.88118E-05-2.88158E-05 9.23896E-09-9.75659E-20-8.66406E-19
 -1       116 9.57610E-05-2.87284E-05-2.87322E-05 7.25570E-09-2.43403E-19-2.11892E-18
 -1       117 9.55435E-05-2.86632E-05-2.86666E-05 5.47984E-09 7.40775E-19-1.65201E-18
 -1       118 9.53843E-05-2.86154E-05-2.86187E-05 3.93633E-09-4.71876E-19-5.00282E-18
 -1       119 9.52797E-05-2.85839E-05-2.85873E-05 2.38772E-09 3.08721E-20-5.38678E-18
 -1       120 9.52273E-05-2.85679E-05-2.85711E-05-2.04419E-10-2.79546E-19-1.09226E-18
 -1       121 9.52225E-05-2.85658E-05-2.85661E-05-4.92689E-09 9.82925E-19-8.92199E-19
 -1       122 9.52410E-05-2.85844E-05-2.85664E-05-6.66631E-09-1.22584E-19 1.03749E-18
 -1       123 9.52389E-05-2.85777E-05-2.85719E-05-1.64065E-09 2.92858E-18-7.21587E-19
 -1       124 9.52232E-05-2.85252E-05-2.85874E-05 1.83342E-09 3.10462E-18 1.79570E-19
 -1       125 9.51974E-05-2.84388E-05-2.86121E-05 3.67394E-09-2.62841E-18-7.86121E-19
 -1       126 9.51670E-05-2.83366E-05-2.86415E-05 4.19001E-09-3.86300E-18-8.82465E-20
 -1       127 9.51381E-05-2.82391E-05-2.86696E-05 3.76701E-09-4.02269E-18 3.34853E-19
 -1       128 9.51149E-05-2.81611E-05-2.86922E-05 2.54303E-09-7.45536E-19 1.43046E-18
 -1       129 9.51023E-05-2.81182E-05-2.87046E-05 7.61070E-10-7.72920E-19-4.52859E-19
 -1       130 9.51027E-05-2.81194E-05-2.87041E-05-1.29099E-09 8.07063E-19 1.33247E-18
 -1       131 9.51165E-05-2.81659E-05-2.86906E-05-3.24197E-09 3.34466E-18-2.14844E-18
 -1       132 9.51417E-05-2.82508E-05-2.86661E-05-4.69169E-09 1.41934E-18-2.29830E-19
 -1       133 9.51733E-05-2.83571E-05-2.86356E-05-5.06227E-09-2.47667E-19-2.28006E-19
 -1       134 9.52060E-05-2.84669E-05-2.86043E-05-4.01230E-09 1.29288E-18 4.79697E-19
 -1       135 9.52319E-05-2.85542E-05-2.85796E-05-1.51741E-09 4.48895E-18-8.70347E-19
 -1       136 9.52455E-05-2.85987E-05-2.85663E-05 4.01159E-09 2.32081E-18-1.32012E-18
 -1       137 9.52416E-05-2.85904E-05-2.85636E-05 1.23407E-08-2.18214E-18-8.24891E-19
 -1       138 2.63047E-05-8.82996E-05 1.60253E-05-2.27217E-05 8.20521E-18 9.80917E-19
 -1       139 7.57321E-06-2.83077E-05 1.65486E-06-1.33300E-05 1.14925E-17 6.45206E-18
 -1       140 1.52512E-05 2.18878E-05-1.86417E-05 3.37295E-05 9.57867E-18 6.01902E-18
 -1       141 6.70516E-05 3.00814E-05-3.94158E-05 8.88909E-05 7.34759E-18 9.27543E-18
 -1       142 1.65979E-04-7.07329E-06-6.09643E-05 1.22188E-04 5.24165E-18 9.10815E-18
 -1       143 2.64915E-04-6.32587E-05-7.57384E-05 9.88580E-05 1.61079E-18 5.61117E-18
 -1       144 3.20558E-04-9.79613E-05-8.29937E-05 2.06842E-05 1.04635E-19-6.71115E-19
 -1       145 2.99928E-04-8.47846E-05-8.04547E-05-6.39146E-05 1.41442E-18-6.38303E-18
 -1       146 2.19617E-04-3.63982E-05-6.93646E-05-1.16802E-04 4.07550E-18-1.04287E-17
 -1       147 1.20143E-04 1.42523E-05-5.24401E-05-1.15031E-04 9.17104E-18-1.30464E-17
 -1       148 4.03967E-05 3.40380E-05-3.15633E-05-6.92874E-05 1.34530E-17-1.40112E-17
 -1       149 7.14831E-06 8.99189E-06-1.12576E-05-1.39648E-05 1.42369E-17-8.55736E-18
 -1       150 1.23278E-05-4.91119E-05 7.24266E-06 2.17658E-05 1.22955E-17-4.81729E-18
 -1       151 3.21699E-05-1.02349E-04 1.88370E-05 1.81664E-05 4.37344E-18-1.14732E-18
 -1       152 3.96284E-05-1.22659E-04 2.30767E-05-1.00994E-05-7.15645E-18-1.00826E-18
 -1       153 2.61088E-05-9.83206E-05 1.87043E-05-3.49279E-05-1.35235E-17-3.90249E-18
 -1       154 6.73662E-06-4.19494E-05 4.84567E-06-2.77884E-05-1.53440E-17-8.59633E-18
 -1       155 1.31922E-05 8.04010E-06-1.53791E-05 1.80320E-05-1.20829E-17-9.26908E-18
 -1       156 8.27118E-05 1.62713E-05-4.20372E-05 8.56788E-05-6.96303E-18-9.63331E-18
 -1       157 1.96753E-04-2.45971E-05-6.53378E-05 1.18540E-04-3.50841E-18-8.02648E-18
 -1       158 3.24673E-04-8.77457E-05-8.48084E-05 8.58030E-05-8.09975E-19-1.75124E-18
 -1       159 3.75092E-04-1.15942E-04-9.10704E-05-6.30991E-06-1.35599E-18 9.28772E-18
 -1       160 1.88199E-04-1.94671E-05-6.41524E-05-1.21614E-04-8.90676E-18 1.90125E-17
 -1       161 6.77499E-05 2.02260E-05-3.83245E-05-7.83250E-05-1.09953E-17 1.35889E-17
 -1       162 9.04388E-06 4.00322E-06-1.25642E-05-1.00735E-05-7.80922E-18 7.20656E-18
 -1       163 9.10449E-06-5.29622E-05 7.92930E-06 3.25104E-05 4.06703E-18-7.94517E-19
 -1       164 3.08699E-05-1.08021E-04 2.05320E-05 3.15458E-05 1.19203E-17-2.77149E-18
 -1       165 9.47920E-05-1.23082E-05-3.55342E-05-2.24130E-05-1.57248E-18-8.70829E-19
 -1       166 8.92298E-05-8.44651E-06-3.47824E-05-1.73734E-05-1.22601E-18-2.18875E-18
 -1       167 8.65672E-05-6.51280E-06-3.44196E-05-1.35779E-05-8.16090E-19-2.81008E-18
 -1       168 8.52170E-05-5.51508E-06-3.42410E-05-1.03480E-05-4.23619E-19-3.02697E-18
 -1       169 8.44796E-05-4.94068E-06-3.41571E-05-7.52816E-06-1.11034E-19-2.95188E-18
 -1       170 8.40549E-05-4.59088E-06-3.41175E-05-4.88857E-06 2.14245E-19-2.84418E-18
 -1       171 8.38365E-05-4.40303E-06-3.41008E-05-2.38669E-06 5.23211E-19-2.66291E-18
 -1       172 8.37708E-05-4.34553E-06-3.40963E-05 5.13684E-08 7.99121E-19-2.49654E-18
 -1       173 8.38432E-05-4.41008E-06-3.41008E-05 2.49109E-06 1.04620E-18-2.25441E-18
 -1       174 8.40709E-05-4.60754E-06-3.41175E-05 4.99833E-06 1.27656E-18-1.96008E-18
 -1       175 8.44999E-05-4.96410E-06-3.41562E-05 7.60202E-06 1.51514E-18-1.55679E-18
 -1       176 8.52686E-05-5.57007E-06-3.42412E-05 1.04876E-05 1.82167E-18-9.04366E-19
 -1       177 8.66553E-05-6.60919E-06-3.44205E-05 1.37535E-05 2.01069E-18-8.23210E-21
 -1       178 8.93727E-05-8.59694E-06-3.47846E-05 1.76053E-05 1.99860E-18 1.59330E-18
 -1       179 9.57339E-05-1.36079E-05-3.54090E-05 2.18677E-05 1.59455E-18 4.10716E-18
 -1       180 1.05527E-04-2.60805E-05-3.52380E-05 1.86455E-05 9.29036E-19 7.20963E-18
 -1       181 1.03536E-04-2.70589E-05-3.27783E-05-1.25866E-05-1.36168E-18 1.11086E-18
 -1       182 9.72535E-05-2.82507E-05-2.96119E-05-4.95373E-06-1.32042E-18 4.46860E-19
 -1       183 9.35748E-05-2.76383E-05-2.82116E-05-1.85125E-06-1.06129E-18-6.07151E-20
 -1       184 9.19933E-05-2.74025E-05-2.76455E-05-4.47301E-07-6.50111E-19-7.83046E-19
 -1       185 9.14110E-05-2.73279E-05-2.74449E-05 2.54118E-07-4.23593E-19-1.13573E-18
 -1       186 9.13841E-05-2.73689E-05-2.74256E-05 5.99828E-07-4.07459E-19-1.34308E-18
 -1       187 9.16722E-05-2.74835E-05-2.75045E-05 7.82303E-07-2.14485E-19-1.35359E-18
 -1       188 9.21421E-05-2.76385E-05-2.76416E-05 8.65489E-07-5.91287E-20-1.23453E-18
 -1       189 9.27166E-05-2.78151E-05-2.78131E-05 9.02030E-07 3.02450E-20-1.12739E-18
 -1       190 9.33594E-05-2.80042E-05-2.80076E-05 9.30318E-07-2.58757E-19-1.33243E-18
 -1       191 9.40641E-05-2.82047E-05-2.82235E-05 9.81885E-07-6.29643E-19-1.13865E-18
 -1       192 9.48099E-05-2.84112E-05-2.84537E-05 1.07893E-06-2.31398E-19-1.61562E-18
 -1       193 9.57158E-05-2.86550E-05-2.87362E-05 1.26382E-06-2.37526E-19-1.95428E-18
 -1       194 9.68151E-05-2.89435E-05-2.90817E-05 1.57757E-06 5.92071E-20-2.29886E-18
 -1       195 9.82102E-05-2.93015E-05-2.95234E-05 2.07836E-06-3.55246E-19-2.61437E-18
 -1       196 1.00044E-04-2.97634E-05-3.01079E-05 2.84771E-06-4.12912E-20-1.82413E-18
 -1       197 1.02507E-04-3.03765E-05-3.08979E-05 3.99806E-06 4.80438E-19-1.59479E-18
 -1       198 1.05658E-04-3.11628E-05-3.19099E-05 5.56003E-06 3.31089E-19-1.24032E-18
 -1       199 1.10101E-04-3.22944E-05-3.33324E-05 7.79033E-06 1.78436E-19-6.83196E-19
 -1       200 1.15987E-04-3.38951E-05-3.51808E-05 1.06077E-05 3.45503E-19-3.53947E-19
 -1       201 1.23508E-04-3.62382E-05-3.74160E-05 1.35106E-05-7.57879E-20-4.75080E-19
 -1       202 1.32582E-04-3.97971E-05-3.97784E-05 1.49300E-05 4.46400E-19-1.19498E-19
 -1       203 1.42485E-04-4.50547E-05-4.17260E-05 1.15367E-05 2.19190E-19-5.57818E-19
 -1       204 1.50644E-04-5.07583E-05-4.27420E-05 7.44167E-07 6.87288E-20 4.23824E-19
 -1       205 1.54963E-04-5.35748E-05-4.35458E-05-1.88103E-05-2.54398E-19 9.22313E-19
 -1       206 1.50167E-04-4.61322E-05-4.51738E-05-3.22058E-05-1.19485E-18 9.30902E-19
 -1       207 1.41729E-04-3.37271E-05-4.72688E-05-2.27284E-05-2.83576E-18-1.88970E-18
 -1       208 1.38533E-04-2.85007E-05-4.82116E-05 6.73974E-06-3.94580E-18-4.20097E-18
 -1       209 1.45996E-04-3.97823E-05-4.63264E-05 3.01107E-05-1.58353E-18-5.49426E-18
 -1       210 1.54430E-04-5.25383E-05-4.38831E-05 2.47926E-05 2.24494E-18-7.03448E-18
 -1       211 1.52677E-04-5.23457E-05-4.29374E-05 4.52971E-06 1.55875E-18-3.53953E-18
 -1       212 1.44977E-04-4.66357E-05-4.20979E-05-9.44470E-06 9.24464E-19-2.23441E-18
 -1       213 1.35109E-04-4.09542E-05-4.03597E-05-1.46426E-05 1.23524E-18-1.81728E-18
 -1       214 1.25757E-04-3.70137E-05-3.80508E-05-1.40088E-05 5.00467E-19-2.62405E-18
 -1       215 1.17853E-04-3.44259E-05-3.57579E-05-1.12577E-05-2.47492E-20-1.89688E-18
 -1       216 1.11617E-04-3.26847E-05-3.38180E-05-8.33335E-06-7.07617E-19-1.87286E-18
 -1       217 1.06921E-04-3.14781E-05-3.23165E-05-5.91700E-06-4.82147E-20-1.71081E-18
 -1       218 1.03620E-04-3.06560E-05-3.12548E-05-4.18876E-06-2.46784E-19-2.59457E-18
 -1       219 1.01090E-04-3.00317E-05-3.04403E-05-2.88926E-06-4.59590E-19-2.17089E-18
 -1       220 9.92917E-05-2.95872E-05-2.98632E-05-1.98414E-06 2.91273E-19-1.28425E-18
 -1       221 9.80174E-05-2.92696E-05-2.94559E-05-1.36196E-06-2.81498E-20-2.25275E-18
 -1       222 9.71177E-05-2.90432E-05-2.91695E-05-9.34991E-07 5.22455E-19-2.16667E-18
 -1       223 9.64853E-05-2.88827E-05-2.89687E-05-6.40866E-07 1.06638E-18-2.41294E-18
 -1       224 9.60600E-05-2.87737E-05-2.88343E-05-4.45350E-07 4.53732E-19-7.30321E-19
 -1       225 9.57457E-05-2.86924E-05-2.87352E-05-2.99903E-07 5.65072E-19-1.42121E-18
 -1       226 9.55311E-05-2.86364E-05-2.86678E-05-1.94862E-07 5.93485E-19-1.24184E-18
 -1       227 9.53897E-05-2.85991E-05-2.86236E-05-1.16317E-07-9.48595E-19-2.42673E-18
 -1       228 9.53022E-05-2.85757E-05-2.85964E-05-5.46430E-08-1.26397E-18-1.55681E-18
 -1       229 9.52537E-05-2.85642E-05-2.85807E-05-6.13050E-09 1.45844E-18-1.20460E-18
 -1       230 9.94357E-05-2.85312E-05-3.05669E-05 7.20104E-06 1.17236E-18 6.27379E-18
 -1       231 9.43604E-05-2.77676E-05-2.85082E-05 2.73994E-06 9.13015E-19 5.32027E-18
 -1       232 9.20609E-05-2.73888E-05-2.76709E-05 9.12825E-07 4.80465E-19 4.51848E-18
 -1       233 9.11405E-05-2.72341E-05-2.73615E-05 3.95961E-08 5.15612E-19 4.05234E-18
 -1       234 9.09679E-05-2.72373E-05-2.72996E-05-4.01770E-07 7.08977E-20 3.72280E-18
 -1       235 9.12061E-05-2.73381E-05-2.73651E-05-6.22153E-07-2.58859E-19 3.57711E-18
 -1       236 9.16672E-05-2.74928E-05-2.74996E-05-7.22002E-07 4.14076E-19 3.46713E-18
 -1       237 9.22423E-05-2.76739E-05-2.76700E-05-7.55225E-07 2.62065E-19 3.18091E-18
 -1       238 9.28696E-05-2.78658E-05-2.78575E-05-7.54167E-07 1.47768E-19 2.94914E-18
 -1       239 9.35149E-05-2.80603E-05-2.80514E-05-7.37968E-07 3.21168E-19 2.69317E-18
 -1       240 9.41603E-05-2.82537E-05-2.82456E-05-7.16375E-07 4.49076E-19 2.76439E-18
 -1       241 9.47948E-05-2.84444E-05-2.84362E-05-6.91227E-07 4.38956E-19 2.65332E-18
 -1       242 9.54070E-05-2.86306E-05-2.86192E-05-6.56734E-07-2.04935E-19 2.11541E-18
 -1       243 9.59779E-05-2.88085E-05-2.87880E-05-5.99240E-07-1.66162E-19 2.26500E-18
 -1       244 9.64738E-05-2.89699E-05-2.89318E-05-4.97175E-07-3.37208E-19 2.86553E-18
 -1       245 9.68406E-05-2.90999E-05-2.90336E-05-3.22204E-07 2.04126E-19 1.98444E-18
 -1       246 9.69995E-05-2.91753E-05-2.90695E-05-4.29581E-08 1.10490E-18 1.90091E-18
 -1       247 9.68497E-05-2.91637E-05-2.90101E-05 3.66995E-07-1.69249E-20 1.33753E-18
 -1       248 9.62781E-05-2.90253E-05-2.88238E-05 9.15844E-07-4.23012E-19 1.73058E-18
 -1       249 9.51833E-05-2.87189E-05-2.84850E-05 1.57568E-06-3.95239E-19 2.84967E-18
 -1       250 9.35130E-05-2.82142E-05-2.79843E-05 2.26504E-06 3.68993E-19 2.37524E-18
 -1       251 9.13110E-05-2.75101E-05-2.73417E-05 2.84245E-06 7.70647E-19 7.39018E-19
 -1       252 8.87591E-05-2.66549E-05-2.66146E-05 3.12535E-06-4.00372E-19 4.91777E-19
 -1       253 8.61874E-05-2.57582E-05-2.58977E-05 2.94346E-06 1.01352E-19 1.13157E-18
 -1       254 8.40298E-05-2.49809E-05-2.53073E-05 2.21653E-06-6.13177E-19 2.23929E-18
 -1       255 8.27172E-05-2.44946E-05-2.49538E-05 1.02030E-06-4.71877E-19 3.06491E-18
 -1       256 8.25390E-05-2.44204E-05-2.49086E-05-4.07474E-07 8.76596E-20 3.20001E-18
 -1       257 8.35376E-05-2.47788E-05-2.51811E-05-1.74210E-06-3.16198E-20 1.58763E-18
 -1       258 8.54916E-05-2.54803E-05-2.57159E-05-2.69516E-06 3.27171E-19 1.66473E-18
 -1       259 8.79993E-05-2.63634E-05-2.64111E-05-3.11724E-06 3.85064E-19 1.77508E-18
 -1       260 9.06148E-05-2.72566E-05-2.71497E-05-3.02695E-06-8.42838E-19 1.54886E-18
 -1       261 9.29712E-05-2.80291E-05-2.78300E-05-2.56564E-06 2.22239E-19 8.98091E-19
 -1       262 9.48443E-05-2.86127E-05-2.83846E-05-1.91918E-06 3.74910E-19 9.52779E-19
 -1       263 9.61567E-05-2.89953E-05-2.87848E-05-1.25139E-06-4.00679E-19 1.68294E-18
 -1       264 9.69420E-05-2.92016E-05-2.90339E-05-6.70741E-07 1.44467E-18 1.68091E-18
 -1       265 9.72964E-05-2.92733E-05-2.91553E-05-2.27459E-07 1.11421E-18-2.61325E-19
 -1       266 9.73380E-05-2.92539E-05-2.91813E-05 7.22419E-08-3.68672E-19 1.07404E-19
 -1       267 9.71790E-05-2.91808E-05-2.91439E-05 2.47766E-07 6.02611E-19 4.06887E-19
 -1       268 9.69110E-05-2.90825E-05-2.90706E-05 3.28793E-07-2.96996E-19 9.34241E-19
 -1       269 9.66014E-05-2.89782E-05-2.89821E-05 3.45325E-07-1.30295E-19 1.95341E-18
 -1       270 9.62946E-05-2.88799E-05-2.88923E-05 3.22618E-07-3.06997E-19 1.58122E-18
 -1       271 9.60168E-05-2.87938E-05-2.88099E-05 2.79466E-07-7.16938E-19 5.86711E-19
 -1       272 9.57808E-05-2.87224E-05-2.87391E-05 2.28394E-07 1.02326E-18 1.42804E-18
 -1       273 9.55907E-05-2.86659E-05-2.86818E-05 1.76678E-07 6.02813E-19-5.75422E-19
 -1       274 9.54459E-05-2.86231E-05-2.86380E-05 1.27591E-07 6.44708E-19 9.09162E-19
 -1       275 9.53432E-05-2.85928E-05-2.86072E-05 8.18024E-08-4.37076E-19-3.65564E-19
 -1       276 9.52784E-05-2.85735E-05-2.85876E-05 3.88356E-08-2.16025E-18-3.14322E-19
 -1       277 9.52459E-05-2.85674E-05-2.85758E-05 2.54211E-09 9.78659E-19 4.92651E-19
 -1       278 9.52428E-05-2.85498E-05-2.85824E-05 2.14606E-08 1.04102E-18 1.86203E-18
 -1       279 9.52289E-05-2.85051E-05-2.85958E-05 6.11732E-08 1.71889E-18-3.98531E-19
 -1       280 9.52044E-05-2.84388E-05-2.86138E-05 9.28193E-08 2.19105E-19-2.50261E-18
 -1       281 9.51753E-05-2.83597E-05-2.86353E-05 1.07331E-07-2.38868E-19-1.35970E-18
 -1       282 9.51463E-05-2.82802E-05-2.86570E-05 1.03216E-07-9.83181E-19-4.08258E-19
 -1       283 9.51205E-05-2.82096E-05-2.86764E-05 8.13902E-08 5.87783E-19 3.41480E-19
 -1       284 9.51026E-05-2.81607E-05-2.86897E-05 4.52003E-08 5.29489E-19 4.52954E-19
 -1       285 9.50954E-05-2.81417E-05-2.86948E-05 1.85149E-10 7.80248E-19 1.01790E-18
 -1       286 9.51005E-05-2.81566E-05-2.86906E-05-4.63843E-08-1.43771E-19 4.15623E-20
 -1       287 9.51178E-05-2.82040E-05-2.86776E-05-8.62103E-08 2.07808E-18-9.66546E-19
 -1       288 9.51443E-05-2.82752E-05-2.86583E-05-1.10876E-07 1.63212E-18-1.57746E-18
 -1       289 9.51768E-05-2.83610E-05-2.86354E-05-1.14929E-07 1.61214E-18 4.27160E-19
 -1       290 9.52085E-05-2.84450E-05-2.86129E-05-9.49268E-08 1.13520E-18 1.68325E-18
 -1       291 9.52343E-05-2.85132E-05-2.85946E-05-5.61343E-08 1.01573E-18-2.62417E-18
 -1       292 1.36548E-05-5.01011E-05 1.24453E-05 1.50382E-05 4.81941E-18-6.08064E-19
 -1       293 2.93357E-05-4.29890E-05 3.45813E-06 2.87534E-05 4.03590E-18 3.63523E-18
 -1       294 6.27180E-05-3.77456E-05-1.18337E-05 4.36900E-05 4.53671E-18 2.07915E-18
 -1       295 9.56110E-05-2.76964E-05-2.91893E-05 5.10344E-05 4.47382E-18 5.31174E-18
 -1       296 1.45776E-04-3.39815E-05-4.69734E-05 4.38680E-05 3.02555E-18 2.61267E-18
 -1       297 1.86367E-04-3.18545E-05-6.35739E-05 4.32367E-05 3.62240E-18 2.64528E-18
 -1       298 2.16369E-04-3.68606E-05-7.33703E-05 2.19731E-05 3.41937E-18 1.98735E-19
 -1       299 2.04659E-04-2.84726E-05-7.31607E-05-4.86400E-06 2.70923E-18-1.81053E-19
 -1       300 2.00678E-04-3.33290E-05-6.88540E-05-3.12521E-05 3.56813E-18-2.10276E-18
 -1       301 1.67567E-04-2.94111E-05-5.70263E-05-4.99276E-05 4.40616E-18-3.51773E-18
 -1       302 1.22923E-04-2.63980E-05-4.05223E-05-5.40276E-05 5.81785E-18-4.08799E-18
 -1       303 8.01693E-05-2.90196E-05-2.25258E-05-4.77456E-05 5.57983E-18-5.54574E-18
 -1       304 4.70638E-05-3.77767E-05-5.78572E-06-3.71273E-05 5.35960E-18-4.64068E-18
 -1       305 2.27091E-05-4.69836E-05 7.42408E-06-2.25118E-05 2.95636E-18-5.15414E-18
 -1       306 1.15660E-05-5.13108E-05 1.37338E-05-1.12024E-05-3.20284E-19-5.94194E-18
 -1       307 1.27147E-05-5.16557E-05 1.33334E-05 2.34136E-06-2.46730E-18-4.18932E-18
 -1       308 3.00861E-05-4.85024E-05 4.94636E-06 1.86166E-05-4.05665E-18-3.81048E-18
 -1       309 6.06088E-05-4.50333E-05-9.31039E-06 2.92405E-05-5.71705E-18-1.89058E-18
 -1       310 1.19391E-04-5.16258E-05-2.98993E-05 3.62319E-05-3.67401E-18-1.46600E-18
 -1       311 1.70995E-04-5.02232E-05-5.06331E-05 3.26884E-05-2.96324E-18-1.73557E-18
 -1       312 2.09643E-04-4.78813E-05-6.66951E-05 9.86323E-06-3.07298E-18 1.01623E-18
 -1       313 2.27329E-04-3.94979E-05-7.65284E-05 1.45494E-06-4.80945E-18 3.53213E-18
 -1       314 2.35134E-04-4.26906E-05-7.74419E-05-4.09455E-06-5.10507E-18 4.99696E-18
 -1       315 2.17210E-04-4.86798E-05-6.80868E-05-2.47202E-05-3.93235E-18 8.02394E-18
 -1       316 1.64081E-04-4.72839E-05-4.89781E-05-3.80676E-05-3.48194E-18 8.53682E-18
 -1       317 1.06268E-04-4.64410E-05-2.69218E-05-3.75889E-05-2.23490E-18 7.44500E-18
 -1       318 5.41790E-05-4.57421E-05-6.53537E-06-2.68680E-05 1.25763E-18 6.77843E-18
 -1       319 2.46894E-05-4.88467E-05 7.25700E-06-1.51305E-05 4.21441E-18 3.20835E-18
 -1       320 1.18750E-05-5.52529E-05 1.47910E-05 2.15432E-06 4.63301E-18-1.94394E-18
 -1       321 9.52445E-05-2.85542E-05-2.85808E-05-1.20221E-08 1.40904E-18-1.58878E-18
 -1       322 9.16396E-05-1.44509E-05-3.31587E-05-1.29579E-05-1.14182E-18-1.87503E-18
 -1       323 9.56707E-05-1.91041E-05-3.28776E-05-1.46204E-05-1.51141E-18-1.12099E-18
 -1       324 8.80297E-05-1.03647E-05-3.33402E-05-8.12337E-06-4.10013E-19-2.33416E-18
 -1       325 8.72167E-05-9.43474E-06-3.33836E-05-5.69186E-06-1.20125E-20-2.18942E-18
 -1       326 8.67552E-05-8.89726E-06-3.34126E-05-3.34915E-06 4.52553E-19-1.98601E-18
 -1       327 8.65475E-05-8.65255E-06-3.34269E-05-1.06582E-06 8.67082E-19-1.88015E-18
 -1       328 8.65541E-05-8.66101E-06-3.34262E-05 1.19770E-06 1.13919E-18-1.76136E-18
 -1       329 8.67769E-05-8.92477E-06-3.34102E-05 3.48234E-06 1.38881E-18-1.49797E-18
 -1       330 8.72481E-05-9.47473E-06-3.33801E-05 5.78765E-06 1.71079E-18-1.23682E-18
 -1       331 8.80852E-05-1.04344E-05-3.33344E-05 8.22116E-06 1.98916E-18-6.54644E-19
 -1       332 8.94924E-05-1.20241E-05-3.32681E-05 1.07305E-05 2.20735E-18 2.79455E-20
 -1       333 9.18812E-05-1.47267E-05-3.31489E-05 1.31188E-05 2.24818E-18 8.33619E-19
 -1       334 9.58616E-05-1.95787E-05-3.27965E-05 1.42529E-05 1.99846E-18 2.45082E-18
 -1       335 9.87371E-05-2.44375E-05-3.19272E-05 1.18319E-05 1.61577E-18 4.02325E-18
 -1       336 9.62839E-05-2.67672E-05-2.97631E-05 5.66433E-06 1.34688E-18 3.36966E-18
 -1       337 9.64730E-05-2.59186E-05-3.01956E-05-6.54105E-06-1.39029E-18-6.44843E-19
 -1       338 9.49709E-05-2.69867E-05-2.91103E-05-2.92242E-06-1.09119E-18-7.58779E-19
 -1       339 9.39955E-05-2.74021E-05-2.85248E-05-9.33237E-07-6.61563E-19-8.85386E-19
 -1       340 9.35044E-05-2.76120E-05-2.82324E-05 1.49427E-07-6.01572E-19-1.03115E-18
 -1       341 9.33329E-05-2.77721E-05-2.80940E-05 8.00148E-07-2.67646E-19-9.68023E-19
 -1       342 9.34006E-05-2.79085E-05-2.80664E-05 1.15999E-06 2.98858E-20-6.63134E-19
 -1       343 9.36254E-05-2.80319E-05-2.81106E-05 1.35973E-06 2.04101E-19-5.19665E-19
 -1       344 9.39549E-05-2.81441E-05-2.82040E-05 1.48703E-06-3.24510E-19-7.32524E-19
 -1       345 9.43606E-05-2.82445E-05-2.83346E-05 1.60746E-06-3.11869E-19-1.03581E-18
 -1       346 9.48084E-05-2.83286E-05-2.84899E-05 1.76498E-06-3.78099E-19-5.31201E-19
 -1       347 9.53498E-05-2.84030E-05-2.86890E-05 2.02786E-06-2.89421E-19-4.02033E-19
 -1       348 9.59783E-05-2.84586E-05-2.89331E-05 2.45064E-06-3.10737E-19-4.64513E-19
 -1       349 9.67193E-05-2.84879E-05-2.92360E-05 3.10735E-06-3.13799E-20-4.03295E-19
 -1       350 9.76040E-05-2.84783E-05-2.96163E-05 4.09390E-06 2.47939E-19 8.69189E-20
 -1       351 9.86636E-05-2.84126E-05-3.00947E-05 5.53452E-06 4.59529E-19 3.48713E-19
 -1       352 9.98632E-05-2.82881E-05-3.06583E-05 7.45519E-06 6.30667E-19-1.00287E-19
 -1       353 1.01364E-04-2.81202E-05-3.13699E-05 1.01881E-05 4.28319E-19-9.40413E-20
 -1       354 1.03170E-04-2.80508E-05-3.21732E-05 1.37205E-05 6.62944E-19-1.18062E-19
 -1       355 1.05508E-04-2.85459E-05-3.29674E-05 1.78579E-05 3.96552E-19 6.17528E-19
 -1       356 1.09104E-04-3.07712E-05-3.35551E-05 2.17975E-05 3.97390E-19 1.03278E-18
 -1       357 1.15733E-04-3.69830E-05-3.37216E-05 2.35581E-05 3.59182E-19 9.26006E-19
 -1       358 1.26986E-04-4.80070E-05-3.37263E-05 2.01714E-05 5.65765E-19 1.60450E-18
 -1       359 1.46824E-04-6.34153E-05-3.57012E-05 6.36770E-06 4.11049E-19 1.71952E-18
 -1       360 1.75031E-04-2.56438E-05-6.37990E-05-6.21548E-06-4.83973E-18-1.37537E-19
 -1       361 1.79112E-04-3.28319E-05-6.23749E-05 1.96649E-05-4.14009E-18-3.46013E-19
 -1       362 1.72105E-04-5.82799E-05-4.91292E-05 2.29950E-05 5.19972E-19-3.62212E-19
 -1       363 1.55088E-04-6.58316E-05-3.83843E-05 3.70240E-06 3.24342E-18-1.62347E-18
 -1       364 1.35991E-04-5.32790E-05-3.54016E-05-1.40853E-05 1.99754E-18-1.63352E-18
 -1       365 1.21621E-04-4.02116E-05-3.48519E-05-2.17362E-05 4.80340E-19-1.50747E-18
 -1       366 1.13399E-04-3.29411E-05-3.44744E-05-2.15912E-05 7.01381E-19-9.75819E-19
 -1       367 1.08621E-04-2.99193E-05-3.37189E-05-1.81830E-05 5.28597E-19-1.33855E-18
 -1       368 1.05447E-04-2.89412E-05-3.27710E-05-1.40865E-05-1.32941E-19-3.36169E-19
 -1       369 1.03074E-04-2.87261E-05-3.18432E-05-1.04205E-05-1.04074E-18 3.41713E-19
 -1       370 1.01279E-04-2.87182E-05-3.10795E-05-7.63207E-06-1.13611E-18-8.64809E-19
 -1       371 9.97704E-05-2.87421E-05-3.04262E-05-5.42124E-06 1.41186E-19-7.31777E-19
 -1       372 9.85912E-05-2.87464E-05-2.99228E-05-3.82179E-06 5.58363E-19-4.36220E-20
 -1       373 9.76821E-05-2.87294E-05-2.95436E-05-2.68410E-06-8.02529E-19 1.37786E-18
 -1       374 9.69913E-05-2.86999E-05-2.92625E-05-1.88141E-06-1.36059E-18-1.42938E-19
 -1       375 9.64740E-05-2.86669E-05-2.90565E-05-1.31637E-06 5.26224E-19-1.04602E-18
 -1       376 9.61057E-05-2.86360E-05-2.89131E-05-9.34016E-07 2.05003E-19-1.74460E-18
 -1       377 9.58190E-05-2.86076E-05-2.88030E-05-6.45592E-07-9.40794E-19-3.81193E-18
 -1       378 9.56115E-05-2.85840E-05-2.87248E-05-4.38401E-07 9.02252E-19-4.60020E-18
 -1       379 9.54636E-05-2.85644E-05-2.86701E-05-2.87531E-07 4.29136E-19-3.24686E-18
 -1       380 9.53613E-05-2.85510E-05-2.86323E-05-1.71876E-07-1.02266E-18-1.57583E-18
 -1       381 9.52899E-05-2.85420E-05-2.86058E-05-8.31899E-08-9.95065E-19-2.12837E-18
 -1       382 9.42893E-05-2.72757E-05-2.86809E-05 2.43850E-06 1.00480E-18 2.91058E-18
 -1       383 6.10873E-05-4.11966E-05-8.59080E-06 4.98989E-05 1.21020E-19 2.60134E-18
 -1       384 9.31506E-05-2.74289E-05-2.81437E-05 7.03420E-07 7.65949E-19 2.27069E-18
 -1       385 9.26506E-05-2.75383E-05-2.78957E-05-2.50005E-07 2.07579E-19 2.04446E-18
 -1       386 9.25550E-05-2.76391E-05-2.78168E-05-7.59772E-07-8.52666E-20 1.64541E-18
 -1       387 9.27228E-05-2.77628E-05-2.78381E-05-1.02220E-06 3.17199E-19 1.26616E-18
 -1       388 9.30461E-05-2.78998E-05-2.79191E-05-1.14307E-06 5.29876E-19 1.58937E-18
 -1       389 9.34584E-05-2.80432E-05-2.80349E-05-1.18572E-06 4.06225E-19 1.54370E-18
 -1       390 9.39193E-05-2.81895E-05-2.81700E-05-1.18812E-06 4.46988E-19 1.51731E-18
 -1       391 9.44049E-05-2.83383E-05-2.83146E-05-1.17077E-06 4.05775E-19 1.42769E-18
 -1       392 9.49007E-05-2.84910E-05-2.84618E-05-1.14013E-06 7.76083E-19 1.54613E-18
 -1       393 9.53950E-05-2.86501E-05-2.86058E-05-1.08967E-06 3.58710E-19 1.39959E-18
 -1       394 9.58735E-05-2.88175E-05-2.87397E-05-1.00002E-06-3.18060E-19 1.76608E-18
 -1       395 9.63134E-05-2.89923E-05-2.88540E-05-8.39245E-07 5.24246E-21 1.24327E-18
 -1       396 9.66787E-05-2.91682E-05-2.89362E-05-5.64835E-07 7.27082E-19 6.35991E-19
 -1       397 9.69159E-05-2.93296E-05-2.89698E-05-1.29391E-07 1.07168E-18 4.69206E-19
 -1       398 9.69520E-05-2.94473E-05-2.89360E-05 5.07526E-07 2.06460E-19 6.61921E-19
 -1       399 9.66989E-05-2.94758E-05-2.88162E-05 1.35970E-06-7.55883E-19 8.74542E-19
 -1       400 9.60650E-05-2.93536E-05-2.85970E-05 2.38763E-06-5.82748E-19 3.71785E-19
 -1       401 9.49810E-05-2.90143E-05-2.82768E-05 3.47154E-06 3.46207E-19 5.46865E-19
 -1       402 9.34377E-05-2.84104E-05-2.78719E-05 4.39906E-06 1.43896E-18 7.44674E-19
 -1       403 9.15317E-05-2.75508E-05-2.74200E-05 4.88942E-06 5.94071E-21 8.73011E-19
 -1       404 8.94966E-05-2.65375E-05-2.69779E-05 4.67054E-06-3.39448E-19 2.85937E-19
 -1       405 8.76877E-05-2.55724E-05-2.66124E-05 3.59853E-06-9.63573E-19 1.16363E-18
 -1       406 8.64987E-05-2.49078E-05-2.63848E-05 1.76770E-06-7.94169E-19 1.24808E-18
 -1       407 8.62250E-05-2.47456E-05-2.63358E-05-4.66416E-07 4.50894E-19 1.56740E-18
 -1       408 8.69400E-05-2.51387E-05-2.64746E-05-2.59527E-06 5.54997E-19 1.92844E-18
 -1       409 8.84626E-05-2.59638E-05-2.67764E-05-4.15148E-06 5.52877E-19 1.63385E-18
 -1       410 9.04364E-05-2.69841E-05-2.71893E-05-4.87985E-06 2.99992E-19 2.19927E-18
 -1       411 9.24698E-05-2.79574E-05-2.76481E-05-4.79272E-06-2.45919E-19 5.22432E-19
 -1       412 9.42563E-05-2.87209E-05-2.80903E-05-4.10301E-06 3.40234E-19-1.71803E-19
 -1       413 9.56273E-05-2.92153E-05-2.84682E-05-3.10086E-06-6.72612E-19-4.81075E-19
 -1       414 9.65420E-05-2.94617E-05-2.87554E-05-2.04686E-06 2.87123E-20 1.10861E-18
 -1       415 9.70465E-05-2.95215E-05-2.89455E-05-1.11722E-06 1.89247E-18 1.08722E-18
 -1       416 9.72284E-05-2.94628E-05-2.90475E-05-3.97293E-07 1.29774E-18 2.60514E-18
 -1       417 9.71846E-05-2.93425E-05-2.90788E-05 9.76545E-08-6.44507E-19 2.12756E-18
 -1       418 9.70014E-05-2.92006E-05-2.90598E-05 3.94292E-07-1.02817E-19 1.25797E-18
 -1       419 9.67470E-05-2.90615E-05-2.90093E-05 5.37267E-07-8.40420E-19 7.37032E-19
 -1       420 9.64701E-05-2.89377E-05-2.89429E-05 5.73251E-07-2.65561E-19 1.81907E-18
 -1       421 9.62023E-05-2.88341E-05-2.88720E-05 5.42469E-07-2.24347E-19 1.39707E-18
 -1       422 9.59618E-05-2.87510E-05-2.88042E-05 4.75526E-07-2.69671E-19 1.61800E-18
 -1       423 9.57571E-05-2.86865E-05-2.87440E-05 3.93367E-07 7.82852E-19 2.27523E-18
 -1       424 9.55905E-05-2.86376E-05-2.86935E-05 3.08706E-07 3.92263E-19 2.95096E-18
 -1       425 9.54604E-05-2.86012E-05-2.86534E-05 2.27931E-07 5.90187E-19 3.19209E-18
 -1       426 9.53634E-05-2.85748E-05-2.86232E-05 1.53446E-07-2.85980E-20 3.18948E-18
 -1       427 9.52951E-05-2.85571E-05-2.86016E-05 8.62880E-08-1.70315E-18 2.81614E-18
 -1       428 9.52644E-05-2.85495E-05-2.85918E-05 5.18671E-08-6.10394E-19 1.52615E-18
 -1       429 9.51939E-05-2.83761E-05-2.86361E-05 1.89077E-07-9.72354E-19-2.53798E-18
 -1       430 9.52361E-05-2.84550E-05-2.86202E-05 1.55001E-07-4.28654E-19-1.69772E-18
 -1       431 9.52570E-05-2.85093E-05-2.86058E-05 1.04409E-07-6.31000E-19 9.42283E-19
 -1       432 9.51492E-05-2.82949E-05-2.86519E-05 1.94579E-07-7.33082E-19-1.96576E-18
 -1       433 9.51065E-05-2.82181E-05-2.86667E-05 1.70027E-07-1.27969E-19 1.44149E-18
 -1       434 9.50721E-05-2.81565E-05-2.86784E-05 1.18125E-07 1.05677E-18 1.46207E-18
 -1       435 9.50508E-05-2.81187E-05-2.86856E-05 4.59264E-08-8.43593E-19-7.51782E-19
 -1       436 9.50465E-05-2.81108E-05-2.86871E-05-3.60583E-08-1.32521E-18-2.03152E-19
 -1       437 9.50612E-05-2.81355E-05-2.86827E-05-1.14740E-07-2.13173E-19 8.98570E-19
 -1       438 9.50933E-05-2.81895E-05-2.86732E-05-1.75234E-07 4.04927E-19-2.39867E-18
 -1       439 9.51400E-05-2.82677E-05-2.86596E-05-2.07248E-07 1.27774E-18 1.12144E-18
 -1       440 9.51935E-05-2.83584E-05-2.86434E-05-2.01836E-07 1.18361E-18 1.14003E-18
 -1       441 9.52412E-05-2.84468E-05-2.86261E-05-1.60642E-07-8.33342E-19-1.98304E-18
 -1       442 1.07062E-04-5.26712E-05-2.32325E-05 4.59422E-05 2.39647E-18 2.36672E-18
 -1       443 1.01406E-05-2.33432E-05 5.40669E-06 9.15545E-06 1.46840E-18-9.18184E-19
 -1       444 8.93835E-05-1.18950E-05-3.32756E-05-1.06163E-05-7.93203E-19-2.18803E-18
 -1       445 1.37626E-04-5.28993E-05-3.63521E-05 3.06282E-05 2.18778E-18 5.75559E-19
 -1       446 1.57597E-04-3.81330E-05-5.12166E-05 7.47629E-06 2.05837E-18-1.26102E-18
 -1       447 1.66941E-04-2.24756E-05-6.16517E-05 3.70664E-06 3.26394E-18-1.35790E-18
 -1       448 1.65534E-04-1.22664E-05-6.55663E-05-5.07267E-07 2.62421E-18-7.96979E-19
 -1       449 1.65366E-04-1.65049E-05-6.36896E-05-2.29087E-07 3.71011E-18 1.61783E-19
 -1       450 1.63558E-04-3.06206E-05-5.67793E-05-7.94701E-06 3.02401E-18-1.27267E-19
 -1       451 1.51116E-04-4.54208E-05-4.52123E-05-2.10403E-05 2.96974E-18 6.41310E-19
 -1       452 1.26126E-04-5.30709E-05-3.12861E-05-3.81197E-05 1.55727E-18-1.44101E-19
 -1       453 8.86647E-05-4.88293E-05-1.71553E-05-4.91707E-05 1.34498E-18-2.03021E-18
 -1       454 4.83461E-05-3.72780E-05-4.85661E-06-4.69606E-05 2.43098E-19-4.25793E-18
 -1       455 1.93692E-05-2.76227E-05 3.28955E-06-2.94647E-05 1.56701E-19-6.19933E-18
 -1       456 1.08130E-05-2.16193E-05 4.57251E-06-1.73680E-06 8.35055E-19-5.44197E-18
 -1       457 2.91191E-05-2.71442E-05-6.54805E-07 2.55971E-05 7.12355E-19-3.69253E-18
 -1       458 6.89366E-05-4.85266E-05-9.05577E-06 3.86974E-05-4.88526E-19 2.63639E-20
 -1       459 1.14096E-04-6.33541E-05-2.21682E-05 3.41010E-05-1.05138E-18 1.51169E-18
 -1       460 1.63215E-04-6.94158E-05-4.02487E-05 6.94468E-06-1.27918E-18 1.07256E-18
 -1       461 1.79263E-04-5.84479E-05-5.17699E-05-1.55933E-05-2.61895E-18 7.04096E-19
 -1       462 1.84590E-04-3.84183E-05-6.20515E-05-1.76580E-05-4.15745E-18 1.47161E-18
 -1       463 1.83397E-04-5.88847E-05-5.32908E-05 9.58512E-06-8.91290E-19 3.45357E-18
 -1       464 1.57781E-04-6.95319E-05-3.80064E-05-1.27187E-05-9.12678E-20 4.03654E-18
 -1       465 1.07877E-04-6.20149E-05-2.01273E-05-3.53423E-05 3.31042E-18 6.31193E-18
 -1       466 6.38771E-05-4.50138E-05-8.11695E-06-3.90397E-05 2.80241E-18 7.48904E-18
 -1       467 2.00407E-05-2.56077E-05 2.28494E-06-1.82249E-05 9.90446E-19 1.67077E-19
 -1       468 2.61068E-05-2.98848E-05 1.38982E-06 3.55917E-05 1.41973E-18-1.84971E-19
 -1       469 1.66064E-04-6.32807E-05-4.43676E-05-1.80228E-05-5.72118E-19 1.05344E-18
 -1       470 1.46088E-04-6.31869E-06-6.03488E-05 1.94092E-06 2.01753E-18-1.64402E-18
 -1       471 8.95531E-05-1.33552E-05-3.26753E-05-3.89165E-06 2.58270E-19-1.72608E-18
 -1       472 9.02634E-05-1.43296E-05-3.25643E-05-5.84106E-06-1.39934E-19-1.93045E-18
 -1       473 8.90458E-05-1.26611E-05-3.27541E-05 5.56945E-08 9.41416E-19-1.63394E-18
 -1       474 8.91804E-05-1.28465E-05-3.27326E-05 2.02892E-06 1.20516E-18-1.45552E-18
 -1       475 8.95768E-05-1.33911E-05-3.26702E-05 3.96612E-06 1.46622E-18-1.23757E-18
 -1       476 9.03032E-05-1.43889E-05-3.25559E-05 5.90745E-06 1.73898E-18-7.53179E-19
 -1       477 9.14560E-05-1.59848E-05-3.23687E-05 7.73002E-06 1.89467E-18-2.61055E-19
 -1       478 9.31553E-05-1.84147E-05-3.20556E-05 9.16524E-06 2.04361E-18 4.31049E-19
 -1       479 9.53342E-05-2.19359E-05-3.14691E-05 9.45526E-06 1.83906E-18 1.28638E-18
 -1       480 9.63455E-05-2.46332E-05-3.07192E-05 7.97220E-06 1.61586E-18 2.15462E-18
 -1       481 9.54775E-05-2.42926E-05-3.04986E-05-5.94974E-06-1.15845E-18-1.21771E-18
 -1       482 9.52831E-05-2.84226E-05-2.86543E-05-2.78624E-07-7.15564E-19-2.88983E-18
 -1       483 1.28473E-04-5.99278E-05-2.93907E-05 3.15091E-05-7.07802E-20-1.47990E-18
 -1       484 5.09403E-05-2.88611E-05-8.97112E-06 4.50945E-05 2.03288E-20 1.27071E-18
 -1       485 9.53109E-05-2.61458E-05-2.96352E-05-2.93818E-06-9.65151E-19-9.52176E-19
 -1       486 9.49854E-05-2.70588E-05-2.91074E-05-1.07035E-06-5.73687E-19-9.23775E-19
 -1       487 9.47238E-05-2.76071E-05-2.87624E-05 1.68840E-07-3.51469E-19-7.57326E-19
 -1       488 9.45914E-05-2.79317E-05-2.85676E-05 9.21326E-07 2.17263E-21-5.35042E-19
 -1       489 9.45748E-05-2.81282E-05-2.84767E-05 1.37396E-06-9.25515E-20-7.43285E-19
 -1       490 9.46463E-05-2.82403E-05-2.84595E-05 1.65773E-06-2.78692E-19-1.15981E-18
 -1       491 9.47797E-05-2.82873E-05-2.84965E-05 1.86891E-06-4.29179E-19-7.85219E-19
 -1       492 9.49451E-05-2.82779E-05-2.85712E-05 2.07091E-06-1.11029E-19-3.13914E-19
 -1       493 9.51436E-05-2.82075E-05-2.86861E-05 2.34801E-06 4.30596E-20-1.59510E-20
 -1       494 9.53479E-05-2.80601E-05-2.88364E-05 2.75463E-06-5.28874E-19 1.09027E-19
 -1       495 9.55339E-05-2.78097E-05-2.90226E-05 3.35908E-06-2.27582E-19-9.55030E-20
 -1       496 9.56619E-05-2.74152E-05-2.92455E-05 4.24056E-06 6.23039E-19 5.42657E-19
 -1       497 9.56652E-05-2.68179E-05-2.95012E-05 5.49261E-06 2.43743E-19 7.40713E-20
 -1       498 9.54638E-05-2.60026E-05-2.97629E-05 7.12387E-06 3.65053E-19 5.87329E-20
 -1       499 9.49089E-05-2.48410E-05-3.00207E-05 9.41113E-06 2.77188E-21-4.91943E-20
 -1       500 9.38413E-05-2.33997E-05-3.01793E-05 1.23894E-05 5.29528E-19-5.02008E-19
 -1       501 9.22074E-05-2.19899E-05-3.00805E-05 1.61289E-05 7.85208E-19-6.44349E-19
 -1       502 9.03359E-05-2.15400E-05-2.94546E-05 2.06442E-05 6.42867E-19-4.05562E-19
 -1       503 8.95144E-05-2.42223E-05-2.79020E-05 2.60194E-05 4.03204E-19 2.15040E-19
 -1       504 9.27306E-05-3.24670E-05-2.55157E-05 3.06787E-05 8.17982E-19 7.95615E-19
 -1       505 1.15839E-04-5.37679E-05-2.63712E-05 2.89485E-05 6.25269E-19 1.21157E-18
 -1       506 9.52943E-05-2.64011E-05-2.95018E-05 3.94782E-06 1.28557E-18 1.94542E-18
 -1       507 2.15823E-05-1.16850E-05-3.60811E-06-4.82070E-06-4.73174E-19-1.27658E-18
 -1       508 1.24605E-04-6.14539E-05-2.67902E-05-2.65979E-05 2.89775E-18 4.79217E-18
 -1       509 1.05031E-04-4.06807E-05-2.73096E-05-2.98459E-05-8.69003E-19 3.00878E-18
 -1       510 9.70524E-05-2.86015E-05-2.92443E-05-2.66386E-05 1.02144E-18-2.03751E-19
 -1       511 9.52227E-05-2.41625E-05-3.04242E-05-2.19628E-05 3.89638E-19-4.93192E-19
 -1       512 9.55697E-05-2.36207E-05-3.08217E-05-1.72579E-05 5.74086E-19-1.02355E-18
 -1       513 9.62368E-05-2.44603E-05-3.07485E-05-1.31561E-05 5.23584E-19-6.70418E-19
 -1       514 9.66492E-05-2.55014E-05-3.04802E-05-9.95161E-06-1.07824E-18 6.79413E-19
 -1       515 9.67876E-05-2.64521E-05-3.01344E-05-7.30579E-06-3.26381E-19 1.56547E-18
 -1       516 9.67146E-05-2.71590E-05-2.98025E-05-5.30956E-06 6.76889E-19 6.47023E-19
 -1       517 9.65271E-05-2.76458E-05-2.95156E-05-3.83264E-06 7.85289E-19 1.01402E-18
 -1       518 9.62983E-05-2.79669E-05-2.92814E-05-2.75376E-06-1.29447E-18 9.33090E-19
 -1       519 9.60724E-05-2.81738E-05-2.90970E-05-1.97139E-06-8.21767E-19 1.61572E-18
 -1       520 9.58786E-05-2.82987E-05-2.89612E-05-1.42870E-06-8.56971E-19-8.68489E-19
 -1       521 9.57055E-05-2.83819E-05-2.88519E-05-1.01109E-06-1.18004E-18-2.99197E-18
 -1       522 9.55658E-05-2.84328E-05-2.87704E-05-7.07550E-07 1.62865E-19-2.92977E-18
 -1       523 9.54553E-05-2.84617E-05-2.87108E-05-4.85823E-07 9.43472E-19-2.35458E-18
 -1       524 9.53542E-05-2.84371E-05-2.86784E-05-3.74328E-07 1.37908E-18-3.09472E-18
 -1       525 9.45457E-05-2.72713E-05-2.88256E-05 8.93452E-07 8.85472E-19 1.05866E-18
 -1       526 9.47935E-05-2.69070E-05-2.90806E-05 2.16972E-06 9.58136E-19 1.38786E-18
 -1       527 9.40622E-05-2.79074E-05-2.83507E-05-9.25773E-07 4.60263E-19 2.27459E-19
 -1       528 9.40866E-05-2.80809E-05-2.82876E-05-1.29724E-06 3.08339E-19 1.93625E-19
 -1       529 9.42228E-05-2.82143E-05-2.82892E-05-1.49026E-06 2.19690E-19 3.88526E-19
 -1       530 9.44345E-05-2.83254E-05-2.83326E-05-1.58050E-06 3.51169E-19 5.63726E-19
 -1       531 9.46982E-05-2.84276E-05-2.84019E-05-1.61393E-06 5.14215E-19 6.82120E-19
 -1       532 9.50002E-05-2.85334E-05-2.84861E-05-1.61427E-06 6.39398E-19 6.61148E-19
 -1       533 9.53339E-05-2.86562E-05-2.85766E-05-1.58608E-06 4.61752E-19 1.07321E-18
 -1       534 9.56962E-05-2.88105E-05-2.86660E-05-1.51579E-06 7.73671E-20 7.24291E-19
 -1       535 9.60845E-05-2.90108E-05-2.87469E-05-1.37205E-06 5.59474E-20 4.90943E-19
 -1       536 9.64919E-05-2.92683E-05-2.88118E-05-1.10684E-06 7.90663E-19 4.85994E-19
 -1       537 9.69021E-05-2.95848E-05-2.88526E-05-6.59529E-07 6.62879E-19 3.85443E-19
 -1       538 9.72816E-05-2.99431E-05-2.88625E-05 3.31069E-08 6.06584E-19 1.02519E-18
 -1       539 9.75719E-05-3.02953E-05-2.88367E-05 1.01758E-06-2.82899E-19 8.27463E-19
 -1       540 9.76838E-05-3.05512E-05-2.87754E-05 2.29310E-06-1.51789E-19 2.63358E-19
 -1       541 9.75010E-05-3.05778E-05-2.86854E-05 3.77179E-06 1.43997E-19-3.17164E-19
 -1       542 9.69036E-05-3.02225E-05-2.85805E-05 5.24091E-06 1.87516E-19-5.03122E-19
 -1       543 9.58221E-05-2.93734E-05-2.84786E-05 6.35365E-06 1.99582E-19 8.69489E-19
 -1       544 9.43153E-05-2.80510E-05-2.83966E-05 6.68554E-06-1.27610E-19 1.52552E-18
 -1       545 9.26327E-05-2.64854E-05-2.83436E-05 5.87941E-06-7.75499E-19 1.63243E-18
 -1       546 9.11963E-05-2.51046E-05-2.83177E-05 3.84506E-06-5.93801E-19 1.21924E-18
 -1       547 9.04565E-05-2.43808E-05-2.83098E-05 9.03275E-07-2.54207E-19 1.15836E-19
 -1       548 9.06718E-05-2.45881E-05-2.83135E-05-2.26514E-06 7.26550E-20 1.80167E-19
 -1       549 9.17673E-05-2.56464E-05-2.83309E-05-4.88462E-06 4.04647E-19 2.89798E-19
 -1       550 9.33762E-05-2.71671E-05-2.83711E-05-6.40866E-06 4.44803E-19 5.07619E-19
 -1       551 9.50356E-05-2.86692E-05-2.84417E-05-6.70318E-06 1.06919E-18 9.30659E-20
 -1       552 9.63892E-05-2.98000E-05-2.85400E-05-5.99988E-06 9.27954E-19-7.11323E-19
 -1       553 9.72757E-05-3.04258E-05-2.86536E-05-4.70965E-06-3.86312E-19-1.04819E-19
 -1       554 9.77038E-05-3.05962E-05-2.87649E-05-3.23720E-06-2.90413E-19-6.80932E-19
 -1       555 9.77751E-05-3.04513E-05-2.88575E-05-1.87470E-06 1.87474E-19 2.15075E-19
 -1       556 9.76146E-05-3.01407E-05-2.89211E-05-7.78533E-07-9.72996E-20 2.29830E-18
 -1       557 9.73303E-05-2.97806E-05-2.89526E-05 4.99025E-09 7.89195E-19 3.54341E-18
 -1       558 9.69996E-05-2.94429E-05-2.89547E-05 4.98994E-07 5.97974E-19 3.06043E-18
 -1       559 9.66707E-05-2.91616E-05-2.89335E-05 7.59739E-07 7.40717E-19 1.49746E-18
 -1       560 9.63700E-05-2.89455E-05-2.88966E-05 8.51620E-07-1.60160E-18 6.59255E-19
 -1       561 9.61090E-05-2.87896E-05-2.88512E-05 8.33102E-07 2.78593E-19 1.96782E-18
 -1       562 9.58905E-05-2.86828E-05-2.88031E-05 7.50669E-07-9.04597E-19 1.78945E-18
 -1       563 9.57127E-05-2.86128E-05-2.87567E-05 6.37706E-07-9.09527E-19 2.73088E-18
 -1       564 9.55709E-05-2.85685E-05-2.87149E-05 5.15932E-07-3.87658E-19 3.54957E-18
 -1       565 9.54598E-05-2.85407E-05-2.86792E-05 3.97922E-07 1.86807E-19 3.27534E-18
 -1       566 9.53739E-05-2.85228E-05-2.86500E-05 2.89813E-07 1.28440E-18 4.19478E-18
 -1       567 9.53078E-05-2.85114E-05-2.86266E-05 1.93167E-07-1.09179E-18 3.62012E-18
 -1       568 9.50966E-05-2.82150E-05-2.86636E-05 2.69795E-07 2.12805E-19 2.74892E-18
 -1       569 9.50334E-05-2.81313E-05-2.86725E-05 2.15226E-07 1.00531E-18 2.11648E-18
 -1       570 9.52357E-05-2.84038E-05-2.86422E-05 2.63372E-07 2.82653E-19-2.63936E-18
 -1       571 9.51668E-05-2.83087E-05-2.86535E-05 2.85930E-07-1.86614E-20-2.70695E-18
 -1       572 9.49862E-05-2.80682E-05-2.86793E-05 1.27651E-07-1.74241E-19-5.31221E-20
 -1       573 9.49623E-05-2.80344E-05-2.86836E-05 1.78524E-08-2.46555E-19-5.48805E-19
 -1       574 9.49672E-05-2.80364E-05-2.86848E-05-9.88970E-08-6.92434E-19 7.91955E-19
 -1       575 9.50023E-05-2.80759E-05-2.86829E-05-2.02616E-07-4.07484E-19-1.31011E-18
 -1       576 9.50661E-05-2.81514E-05-2.86778E-05-2.78543E-07 6.76965E-19-1.76753E-18
 -1       577 9.51491E-05-2.82534E-05-2.86696E-05-3.10635E-07 6.41482E-19 2.30799E-20
 -1       578 1.43348E-04-2.52908E-05-5.11263E-05-8.83186E-06 2.47937E-18-2.51939E-18
 -1       579 9.45520E-05-2.06191E-05-3.17044E-05-9.50386E-06-1.31806E-18-1.49080E-18
 -1       580 6.28121E-05-3.42517E-05-1.17355E-05 3.70366E-05 1.15594E-18 8.84091E-20
 -1       581 9.41952E-05-2.76623E-05-2.85112E-05-2.57136E-07 3.05455E-19 7.53493E-19
 -1       582 9.90087E-05-5.15331E-05-1.99864E-05 4.60097E-05-2.27005E-18-1.51592E-19
 -1       583 8.91650E-05-1.28238E-05-3.27357E-05-1.91840E-06 6.93605E-19-1.65014E-18
 -1       584 1.45948E-04-5.14999E-05-4.07007E-05 7.12418E-06 1.45940E-18-1.78496E-18
 -1       585 1.42895E-04-2.06976E-05-5.29803E-05 9.16422E-06 2.21536E-18 6.92291E-19
 -1       586 1.38571E-04-1.09766E-05-5.53951E-05-7.70276E-06 2.57826E-18-9.03281E-19
 -1       587 1.48790E-04-4.08188E-05-4.66326E-05 1.31319E-06 1.70209E-18 2.26216E-18
 -1       588 1.41923E-04-5.71036E-05-3.65016E-05-1.75079E-05 6.97439E-19 1.96199E-18
 -1       589 1.17099E-04-5.82938E-05-2.51055E-05-3.93066E-05-1.08129E-18 9.51284E-19
 -1       590 8.23030E-05-4.55326E-05-1.53925E-05-4.97744E-05-1.14413E-18-7.06875E-19
 -1       591 4.42223E-05-2.22912E-05-8.77267E-06-3.94920E-05-1.76855E-18-3.37056E-18
 -1       592 2.60729E-05-1.02520E-05-6.00049E-06-1.81091E-05 3.94942E-19-5.13260E-18
 -1       593 2.75261E-05-1.14333E-05-6.24168E-06 1.17082E-05 1.75369E-18-4.32124E-18
 -1       594 1.03636E-04-5.50878E-05-2.05868E-05 3.60409E-05 4.97738E-19 2.17549E-18
 -1       595 1.45261E-04-6.90742E-05-3.27360E-05 1.40992E-05-2.57233E-19 1.31655E-18
 -1       596 1.00138E-04-5.27932E-05-1.99984E-05-3.63669E-05 2.21007E-18 5.87280E-18
 -1       597 5.03863E-05-2.56445E-05-9.94306E-06-3.24564E-05-8.56774E-19 5.44790E-18
 -1       598 2.63185E-05-1.36776E-05-4.75764E-06 2.47056E-05-3.69650E-19-8.39727E-19
 -1       599 9.13755E-05-1.58779E-05-3.23800E-05-7.65399E-06-6.46494E-19-2.04537E-18
 -1       600 1.39725E-04-3.97968E-05-4.32265E-05-7.97985E-06 2.07883E-18-2.15459E-18
 -1       601 1.31010E-04-9.90856E-06-5.25295E-05 8.66473E-06 1.95755E-18-8.26969E-19
 -1       602 1.27974E-04-5.12995E-06-5.33219E-05-3.18353E-06 2.91168E-18-2.88150E-19
 -1       603 9.27454E-05-1.78511E-05-3.21198E-05-8.88019E-06-9.27806E-19-1.82825E-18
 -1       604 8.07388E-05-3.63175E-05-1.85506E-05-3.59782E-05-6.70241E-19 5.67621E-18
 -1       605 5.06966E-05-1.86684E-05-1.31628E-05 2.64282E-05 2.30491E-18-2.59785E-18
 -1       606 9.15354E-05-1.67616E-05-3.20516E-05 2.40541E-06 1.18259E-18-1.09380E-18
 -1       607 9.12741E-05-1.63526E-05-3.21146E-05 8.29340E-07 1.00907E-18-1.39320E-18
 -1       608 9.28910E-05-1.89446E-05-3.16974E-05 5.19868E-06 1.57463E-18-3.53118E-19
 -1       609 9.39882E-05-2.08657E-05-3.13419E-05 6.10878E-06 1.69281E-18 1.84121E-19
 -1       610 9.51153E-05-2.33250E-05-3.07664E-05 6.19072E-06 1.52149E-18 5.15073E-19
 -1       611 9.55109E-05-2.50397E-05-3.01815E-05 5.24897E-06 1.39372E-18 1.09978E-18
 -1       612 9.50128E-05-2.35057E-05-3.06471E-05-4.78060E-06-7.57899E-19-1.19998E-18
 -1       613 9.54231E-05-2.55021E-05-2.99653E-05-2.51999E-06-6.10285E-19-8.60211E-19
 -1       614 9.55013E-05-2.67682E-05-2.94562E-05-8.31786E-07-3.56647E-19-7.64744E-19
 -1       615 9.54574E-05-2.75291E-05-2.91118E-05 2.92193E-07-1.67178E-19-9.21789E-19
 -1       616 9.53872E-05-2.79735E-05-2.88915E-05 1.01753E-06-1.46659E-19-1.06723E-18
 -1       617 9.53234E-05-2.82084E-05-2.87635E-05 1.48379E-06-2.09534E-19-9.95978E-19
 -1       618 9.52700E-05-2.82917E-05-2.87049E-05 1.80206E-06-1.07084E-19-7.41239E-19
 -1       619 9.52199E-05-2.82571E-05-2.86983E-05 2.04745E-06 6.80221E-20-5.37050E-19
 -1       620 9.51499E-05-2.81091E-05-2.87316E-05 2.31384E-06 1.01522E-19-2.26037E-19
 -1       621 9.50307E-05-2.78359E-05-2.87975E-05 2.64846E-06-2.98224E-19-8.73431E-19
 -1       622 9.48168E-05-2.74101E-05-2.88881E-05 3.10593E-06-3.95563E-19-2.37303E-19
 -1       623 9.44375E-05-2.67836E-05-2.89938E-05 3.73807E-06 3.98700E-19 1.22859E-19
 -1       624 9.37834E-05-2.58850E-05-2.90980E-05 4.59358E-06 8.27010E-20-4.44799E-19
 -1       625 9.27666E-05-2.46988E-05-2.91705E-05 5.65647E-06 1.15403E-19-6.14885E-19
 -1       626 9.10737E-05-2.30143E-05-2.91663E-05 7.07360E-06-3.39729E-20-1.29898E-18
 -1       627 8.84479E-05-2.08172E-05-2.89823E-05 8.82948E-06-8.54807E-20-1.17864E-18
 -1       628 8.45589E-05-1.81801E-05-2.84440E-05 1.09787E-05 1.64299E-19-1.40109E-18
 -1       629 7.91077E-05-1.54906E-05-2.72472E-05 1.36989E-05 5.06771E-19-1.51475E-18
 -1       630 7.20368E-05-1.38517E-05-2.48495E-05 1.75742E-05 8.73413E-19-1.54205E-18
 -1       631 6.40317E-05-1.45041E-05-2.08965E-05 2.32849E-05 1.61128E-18-2.09147E-18
 -1       632 9.20385E-05-1.75527E-05-3.19284E-05-3.84396E-06 5.78923E-20-1.54824E-18
 -1       633 4.88697E-05-1.71391E-05-1.30782E-05 3.28250E-05-1.04635E-18-1.24715E-18
 -1       634 7.47034E-05-2.27928E-05-2.18588E-05-2.94510E-05-3.25401E-18 5.35358E-18
 -1       635 7.68899E-05-1.69294E-05-2.55861E-05-2.19311E-05-7.40677E-19 1.37506E-18
 -1       636 8.21340E-05-1.71020E-05-2.78530E-05-1.67047E-05-8.38421E-19-7.87478E-19
 -1       637 8.66379E-05-1.90742E-05-2.89497E-05-1.30402E-05 1.16054E-18-1.05135E-18
 -1       638 8.98299E-05-2.12467E-05-2.93876E-05-1.02550E-05 3.88822E-19-1.12407E-19
 -1       639 9.21260E-05-2.32635E-05-2.95085E-05-7.88042E-06-8.15521E-19 9.89634E-19
 -1       640 9.35821E-05-2.48362E-05-2.94593E-05-5.98707E-06-3.80401E-19 1.58504E-18
 -1       641 9.44523E-05-2.59851E-05-2.93408E-05-4.49997E-06 1.20592E-19-4.64709E-20
 -1       642 9.49420E-05-2.67939E-05-2.92047E-05-3.35198E-06-6.55368E-19-6.33051E-19
 -1       643 9.51977E-05-2.73512E-05-2.90759E-05-2.47850E-06-2.14878E-18-1.34107E-18
 -1       644 9.53110E-05-2.77145E-05-2.89691E-05-1.84707E-06-1.76559E-18-1.55084E-18
 -1       645 9.53535E-05-2.79758E-05-2.88756E-05-1.34453E-06-1.62755E-18 7.91582E-19
 -1       646 9.53542E-05-2.81509E-05-2.88010E-05-9.69461E-07-2.03338E-18 7.64211E-19
 -1       647 9.53336E-05-2.82656E-05-2.87430E-05-6.90872E-07 5.81267E-19-1.29548E-18
 -1       648 3.27473E-05-6.92468E-06-1.04714E-05 7.81503E-06-1.57771E-18-1.39565E-18
 -1       649 9.50388E-05-2.84081E-05-2.85560E-05-1.65964E-06 2.04940E-19 3.58676E-19
 -1       650 9.50438E-05-2.80228E-05-2.87230E-05-1.02128E-06 5.12139E-19 2.24430E-19
 -1       651 9.51124E-05-2.85043E-05-2.85464E-05-1.78767E-06 4.24502E-19 3.04296E-19
 -1       652 9.52321E-05-2.85812E-05-2.85647E-05-1.85653E-06 6.14048E-19 7.42703E-19
 -1       653 9.54007E-05-2.86678E-05-2.85999E-05-1.88830E-06 3.33897E-19 5.39506E-19
 -1       654 9.56279E-05-2.87943E-05-2.86431E-05-1.88416E-06 5.92750E-19 8.04154E-19
 -1       655 9.59285E-05-2.89923E-05-2.86872E-05-1.82466E-06 1.56519E-19 5.66375E-19
 -1       656 9.63212E-05-2.92936E-05-2.87266E-05-1.66957E-06 3.88129E-19 6.05746E-19
 -1       657 9.68236E-05-2.97235E-05-2.87579E-05-1.35858E-06 7.88258E-19 8.74824E-19
 -1       658 9.74428E-05-3.02895E-05-2.87810E-05-8.15370E-07 2.89466E-20 9.26171E-19
 -1       659 9.81600E-05-3.09611E-05-2.88009E-05 4.05487E-08 3.88489E-20 1.07316E-18
 -1       660 9.89106E-05-3.16464E-05-2.88291E-05 1.26938E-06 1.84118E-19 7.74289E-19
 -1       661 9.95638E-05-3.21706E-05-2.88844E-05 2.86960E-06 1.29094E-19 7.10312E-19
 -1       662 9.99176E-05-3.22771E-05-2.89901E-05 4.71863E-06 1.01293E-20 9.52119E-19
 -1       663 9.97353E-05-3.16809E-05-2.91666E-05 6.51150E-06-2.12651E-19 1.11864E-18
 -1       664 9.88491E-05-3.02035E-05-2.94187E-05 7.74192E-06-2.28466E-19 2.05814E-18
 -1       665 9.73164E-05-2.79603E-05-2.97219E-05 7.80337E-06-4.79741E-19 2.70065E-18
 -1       666 9.55337E-05-2.54869E-05-3.00172E-05 6.24528E-06-2.61692E-20 1.36361E-18
 -1       667 9.41670E-05-2.36375E-05-3.02244E-05 3.10959E-06 7.87226E-20 7.64529E-19
 -1       668 9.38244E-05-2.31755E-05-3.02761E-05-8.95947E-07 2.20501E-19 4.58347E-19
 -1       669 9.46664E-05-2.43000E-05-3.01548E-05-4.65395E-06 6.14488E-19-2.39108E-19
 -1       670 9.63062E-05-2.65269E-05-2.99025E-05-7.16107E-06-8.06518E-20 1.47545E-19
 -1       671 9.80553E-05-2.89869E-05-2.95989E-05-7.99732E-06 2.88926E-19 4.32177E-19
 -1       672 9.93387E-05-3.09297E-05-2.93175E-05-7.37587E-06 1.44596E-18 1.21314E-18
 -1       673 9.99149E-05-3.20075E-05-2.91036E-05-5.85649E-06 5.54980E-19 1.07749E-18
 -1       674 9.98447E-05-3.22554E-05-2.89682E-05-4.02627E-06-7.58422E-20-6.26469E-19
 -1       675 9.93444E-05-3.19205E-05-2.88975E-05-2.30815E-06-7.40305E-19-1.26395E-19
 -1       676 9.86436E-05-3.12862E-05-2.88689E-05-9.22941E-07-3.69730E-19 1.70015E-19
 -1       677 9.79150E-05-3.05764E-05-2.88605E-05 6.56667E-08-4.17642E-19-4.73724E-19
 -1       678 9.72592E-05-2.99288E-05-2.88567E-05 6.88261E-07-4.42646E-19 1.24514E-18
 -1       679 9.67181E-05-2.94061E-05-2.88485E-05 1.01737E-06 1.00694E-18 3.53301E-18
 -1       680 9.62969E-05-2.90211E-05-2.88327E-05 1.13435E-06-9.24628E-20 4.37466E-18
 -1       681 9.59819E-05-2.87592E-05-2.88098E-05 1.11220E-06-1.59702E-19 2.96975E-18
 -1       682 9.57526E-05-2.85949E-05-2.87818E-05 1.00882E-06 9.27441E-19 2.71582E-18
 -1       683 9.55885E-05-2.85012E-05-2.87516E-05 8.65999E-07-5.58181E-19 1.47875E-18
 -1       684 9.54719E-05-2.84546E-05-2.87216E-05 7.11426E-07-9.26454E-19-9.59982E-19
 -1       685 9.53886E-05-2.84363E-05-2.86937E-05 5.61844E-07-3.90419E-19-1.21485E-18
 -1       686 9.53278E-05-2.84327E-05-2.86691E-05 4.25776E-07 3.53054E-20-7.02453E-19
 -1       687 9.52753E-05-2.84152E-05-2.86542E-05 3.42153E-07-1.51734E-18-7.05180E-19
 -1       688 1.30854E-04-5.94624E-05-3.05998E-05-2.20506E-05-7.63666E-19 2.11257E-18
 -1       689 9.48606E-05-2.79399E-05-2.86803E-05 1.15426E-07-2.93778E-19-8.88962E-19
 -1       690 9.50060E-05-2.81066E-05-2.86712E-05 3.36330E-07 4.53476E-19 3.51617E-18
 -1       691 9.48405E-05-2.79100E-05-2.86845E-05-3.64961E-08-7.24391E-19-9.40550E-20
 -1       692 9.49193E-05-2.80091E-05-2.86759E-05 2.44751E-07 1.34642E-18 7.48458E-19
 -1       693 9.48656E-05-2.79268E-05-2.86881E-05-1.87832E-07-5.44575E-19-3.99759E-19
 -1       694 9.49385E-05-2.79938E-05-2.86907E-05-3.20388E-07 4.13095E-19-1.24593E-18
 -1       695 9.50510E-05-2.81054E-05-2.86912E-05-4.07629E-07-6.36793E-19 2.11496E-19
 -1       696 1.34772E-04-3.20486E-05-4.44483E-05 1.16035E-05 1.41777E-18 2.26184E-19
 -1       697 9.41659E-05-2.10696E-05-3.13250E-05-6.77708E-06-9.47732E-19-1.50586E-18
 -1       698 4.37403E-05-1.13203E-05-1.33867E-05-1.84567E-05-2.73416E-18 2.04230E-18
 -1       699 9.20679E-05-1.76039E-05-3.19192E-05 3.89641E-06 1.40118E-18-8.13585E-19
 -1       700 1.19690E-04-5.70192E-05-2.67691E-05 3.08868E-05-2.53880E-18-1.47653E-18
 -1       701 7.79467E-05-3.50004E-05-1.80123E-05 4.17394E-05-2.90813E-18-1.00392E-18
 -1       702 9.52090E-05-2.82680E-05-2.86889E-05-4.38143E-07 1.04614E-18-1.14055E-18
 -1       703 1.39149E-04-5.02120E-05-3.83391E-05 5.71784E-07 8.10637E-20 1.05689E-18
 -1       704 1.27365E-04-1.82405E-05-4.72991E-05-1.23001E-05 2.25631E-18-4.20234E-19
 -1       705 1.04531E-04-5.17473E-05-2.24132E-05-4.02211E-05-9.34754E-19 1.05203E-18
 -1       706 7.01213E-05-3.17613E-05-1.60221E-05-4.26163E-05-2.32087E-18-2.28987E-18
 -1       707 4.42789E-05-1.28729E-05-1.29619E-05-2.61790E-05-1.00389E-18-2.67318E-18
 -1       708 8.12694E-05-3.64081E-05-1.88004E-05 3.59184E-05 1.11374E-18 1.17330E-18
 -1       709 9.50138E-05-2.82610E-05-2.86083E-05-1.42777E-06 4.22431E-19 4.04933E-19
 -1       710 3.69553E-05-5.78408E-06-1.27650E-05-5.86417E-07 1.17221E-18-3.89598E-18
 -1       711 1.36340E-04-5.66713E-05-3.42555E-05 1.11351E-05-1.02362E-18-1.48219E-18
 -1       712 9.12686E-05-1.63433E-05-3.21162E-05-7.68698E-07 7.39482E-19-1.42344E-18
 -1       713 9.51297E-05-2.76343E-05-2.89258E-05-3.34975E-07 5.65778E-19 8.35864E-20
 -1       714 9.28693E-05-1.88898E-05-3.17080E-05-5.15472E-06-2.83210E-19-1.56908E-18
 -1       715 1.25961E-04-2.06886E-05-4.55345E-05 1.31243E-05 1.35329E-18-1.24685E-18
 -1       716 9.52588E-05-2.82635E-05-2.87122E-05-5.56093E-07 8.07871E-19-1.97856E-18
 -1       717 9.53355E-05-2.59483E-05-2.97309E-05 2.56356E-06 1.17607E-18 4.07770E-19
 -1       718 9.51800E-05-2.83033E-05-2.86614E-05 3.75038E-07 7.31962E-19-3.31638E-18
 -1       719 1.34699E-04-4.82248E-05-3.72537E-05-2.92511E-06-2.57008E-19-2.20170E-18
 -1       720 9.51858E-05-2.69973E-05-2.92215E-05 8.21740E-07 7.56685E-19 3.14376E-19
 -1       721 9.95402E-05-4.53745E-05-2.30315E-05 3.56022E-05-2.54311E-18 1.43790E-19
 -1       722 5.93814E-05-1.73072E-05-1.76070E-05-2.51022E-05-3.65282E-18 5.23466E-18
 -1       723 1.19015E-04-1.11922E-05-4.66534E-05-8.84488E-06 2.55039E-18-1.43777E-18
 -1       724 9.15201E-05-1.67336E-05-3.20570E-05-2.34153E-06 4.11559E-19-1.34583E-18
 -1       725 9.50930E-05-2.82039E-05-2.86668E-05 3.72530E-07 5.24238E-19 8.07291E-19
 -1       726 9.51799E-05-2.43817E-05-3.03397E-05 3.88022E-06 1.29531E-18 1.09739E-19
 -1       727 9.46782E-05-2.26984E-05-3.08458E-05 3.83476E-06 1.33477E-18 9.61409E-20
 -1       728 6.74677E-05-1.09211E-05-2.41534E-05-9.59801E-06-2.01187E-18 1.95033E-18
 -1       729 9.56749E-05-2.80796E-05-2.89694E-05-1.08047E-06 2.93994E-19-2.08183E-19
 -1       730 9.48398E-05-2.31574E-05-3.07212E-05-3.56616E-06-3.25190E-19-1.38156E-18
 -1       731 9.55624E-05-2.53143E-05-3.01086E-05-1.78426E-06-2.56490E-19-1.16607E-18
 -1       732 9.58328E-05-2.66438E-05-2.96521E-05-4.50440E-07-2.37556E-19-7.48447E-19
 -1       733 9.59116E-05-2.74933E-05-2.93221E-05 4.65752E-07-2.66731E-19-6.54669E-19
 -1       734 9.58655E-05-2.79790E-05-2.90942E-05 1.08115E-06-1.43022E-19-7.95338E-19
 -1       735 9.57428E-05-2.82016E-05-2.89462E-05 1.49504E-06 1.51677E-19-6.11429E-19
 -1       736 9.55713E-05-2.82245E-05-2.88629E-05 1.77980E-06-1.65527E-20-4.30888E-19
 -1       737 9.53295E-05-2.80801E-05-2.88212E-05 2.03087E-06 2.38987E-19-3.54568E-19
 -1       738 9.50003E-05-2.77680E-05-2.88138E-05 2.28436E-06-4.81578E-19-2.14805E-19
 -1       739 9.45395E-05-2.72738E-05-2.88281E-05 2.57996E-06-5.81914E-20 2.77068E-20
 -1       740 9.38751E-05-2.65602E-05-2.88492E-05 2.94333E-06 3.90245E-19 2.68794E-19
 -1       741 9.28971E-05-2.55674E-05-2.88554E-05 3.38204E-06-2.72995E-19-1.13208E-19
 -1       742 9.15365E-05-2.42936E-05-2.88184E-05 3.85927E-06-6.14595E-19-9.32382E-19
 -1       743 8.94446E-05-2.25202E-05-2.86819E-05 4.38387E-06-1.24798E-19-9.59406E-19
 -1       744 8.63742E-05-2.02146E-05-2.83547E-05 4.85366E-06-2.85284E-19-1.18317E-18
 -1       745 8.19331E-05-1.73422E-05-2.76826E-05 5.16640E-06-3.76483E-19-1.26382E-18
 -1       746 7.55931E-05-1.39813E-05-2.63990E-05 5.24098E-06 2.25364E-19-1.28986E-18
 -1       747 6.66303E-05-1.04860E-05-2.40126E-05 5.10940E-06 4.63861E-19-1.97884E-18
 -1       748 5.54758E-05-7.85007E-06-2.02095E-05 5.20033E-06 4.34333E-19-2.58773E-18
 -1       749 7.58632E-05-1.37665E-05-2.65942E-05-8.21922E-06-1.34238E-18 7.52691E-19
 -1       750 8.19657E-05-1.69639E-05-2.78548E-05-7.12290E-06-1.35061E-19-1.37457E-18
 -1       751 8.64921E-05-1.98662E-05-2.85534E-05-6.07064E-06 2.27395E-19-2.40635E-18
 -1       752 8.95811E-05-2.22051E-05-2.88750E-05-5.05599E-06-6.33391E-19-1.62905E-18
 -1       753 9.16436E-05-2.39916E-05-2.89933E-05-4.10655E-06-8.60220E-19-1.49682E-18
 -1       754 9.29923E-05-2.53092E-05-2.90068E-05-3.26432E-06-5.21964E-19-1.63999E-18
 -1       755 9.38580E-05-2.62588E-05-2.89709E-05-2.54942E-06-1.89632E-18-2.71314E-18
 -1       756 9.43834E-05-2.69058E-05-2.89188E-05-1.98617E-06 3.46605E-19-1.50789E-19
 -1       757 9.47312E-05-2.73906E-05-2.88601E-05-1.50601E-06 8.60329E-19 8.69907E-19
 -1       758 9.49434E-05-2.77301E-05-2.88056E-05-1.12728E-06-1.98978E-18 2.44138E-18
 -1       759 9.50667E-05-2.79632E-05-2.87585E-05-8.34116E-07-2.74038E-18 2.47911E-18
 -1       760 9.56144E-05-2.83587E-05-2.88239E-05-1.46831E-06 1.98279E-19-2.83754E-19
 -1       761 1.25147E-04-3.17927E-05-4.02319E-05-1.28065E-05 9.14584E-19-2.30300E-18
 -1       762 9.55606E-05-2.85112E-05-2.87355E-05-1.70959E-06 1.72320E-19-2.54370E-19
 -1       763 9.56176E-05-2.87384E-05-2.86626E-05-2.05850E-06 1.18481E-19 1.00128E-19
 -1       764 9.57863E-05-2.88968E-05-2.86669E-05-2.11400E-06 4.33322E-19 1.21066E-19
 -1       765 9.60872E-05-2.91806E-05-2.86743E-05-2.11936E-06 1.75291E-19 2.71258E-19
 -1       766 9.65669E-05-2.96414E-05-2.86825E-05-2.02871E-06 2.22617E-19 3.97396E-20
 -1       767 9.72736E-05-3.03207E-05-2.86943E-05-1.77019E-06 1.37307E-19 1.15171E-18
 -1       768 9.82410E-05-3.12291E-05-2.87198E-05-1.24633E-06 1.23585E-20 1.27305E-18
 -1       769 9.94615E-05-3.23128E-05-2.87785E-05-3.44118E-07-2.94027E-19 1.24730E-18
 -1       770 1.00848E-04-3.34134E-05-2.89012E-05 1.03780E-06 1.10939E-19 1.66258E-18
 -1       771 1.02190E-04-3.42271E-05-2.91276E-05 2.93219E-06-6.31767E-21 1.54554E-18
 -1       772 1.03140E-04-3.43118E-05-2.94978E-05 5.20369E-06-5.41928E-19 1.72769E-18
 -1       773 1.03268E-04-3.31852E-05-3.00351E-05 7.43129E-06-9.94811E-19 1.37386E-18
 -1       774 1.02283E-04-3.06142E-05-3.07146E-05 8.85151E-06-9.94051E-19 1.93355E-18
 -1       775 1.00325E-04-2.69592E-05-3.14407E-05 8.55051E-06 1.91623E-19 2.62239E-18
 -1       776 9.81489E-05-2.33560E-05-3.20533E-05 5.95453E-06 4.97411E-19 2.74128E-18
 -1       777 9.68770E-05-2.13538E-05-3.23694E-05 1.43591E-06 5.60104E-19 1.18469E-18
 -1       778 9.72401E-05-2.19157E-05-3.22842E-05-3.58100E-06 8.01142E-19 1.25386E-18
 -1       779 9.90488E-05-2.47969E-05-3.18197E-05-7.39409E-06 2.42217E-19 1.18500E-18
 -1       780 1.01263E-04-2.86003E-05-3.11399E-05-8.98275E-06 1.20672E-18 4.93848E-19
 -1       781 1.02850E-04-3.18645E-05-3.04208E-05-8.44636E-06-8.31922E-20-1.07706E-18
 -1       782 1.03331E-04-3.37937E-05-2.98003E-05-6.58895E-06 3.71021E-19 4.28169E-19
 -1       783 1.02789E-04-3.43208E-05-2.93436E-05-4.30454E-06 1.48727E-18 1.15422E-18
 -1       784 1.01615E-04-3.38381E-05-2.90477E-05-2.21065E-06-1.87085E-19 2.03248E-19
 -1       785 1.00213E-04-3.28275E-05-2.88802E-05-5.90182E-07-9.33009E-19-1.44708E-18
 -1       786 9.88728E-05-3.16765E-05-2.87989E-05 5.05367E-07-1.16407E-18-1.52004E-18
 -1       787 9.77459E-05-3.06236E-05-2.87670E-05 1.14719E-06-1.52129E-18 4.11544E-19
 -1       788 9.68788E-05-2.97767E-05-2.87582E-05 1.44671E-06-1.77501E-18 1.62760E-18
 -1       789 9.62557E-05-2.91582E-05-2.87561E-05 1.51243E-06-1.21360E-18 3.71429E-18
 -1       790 9.58335E-05-2.87444E-05-2.87525E-05 1.43344E-06-5.10527E-19 4.72931E-18
 -1       791 9.55625E-05-2.84928E-05-2.87442E-05 1.27588E-06 7.24452E-19 3.43053E-18
 -1       792 9.53980E-05-2.83584E-05-2.87312E-05 1.08513E-06 9.93806E-20 2.51809E-18
 -1       793 9.53036E-05-2.83019E-05-2.87150E-05 8.89970E-07 9.34988E-19 2.57729E-18
 -1       794 9.52528E-05-2.82923E-05-2.86973E-05 7.06924E-07 8.59311E-19 1.09753E-18
 -1       795 9.52261E-05-2.83066E-05-2.86798E-05 5.44958E-07-7.77605E-19-8.85792E-19
 -1       796 9.51977E-05-2.83022E-05-2.86697E-05 4.56156E-07-1.81851E-18-3.90468E-19
 -1       797 9.46871E-05-2.77469E-05-2.86887E-05-1.20089E-07-1.24745E-18 5.11295E-19
 -1       798 9.46933E-05-2.77693E-05-2.86817E-05 8.25172E-08-1.08098E-18-1.29033E-18
 -1       799 9.34519E-05-1.98332E-05-3.15512E-05-6.07239E-06-6.49669E-19-1.64185E-18
 -1       800 1.16910E-04-7.19803E-06-4.74446E-05 3.64805E-06 2.20795E-18-1.54179E-18
 -1       801 6.86562E-05-2.25294E-05-1.94971E-05 3.07055E-05-1.93093E-18-2.66937E-18
 -1       802 9.50423E-05-2.80551E-05-2.87089E-05-5.33004E-07-9.03363E-19 2.96533E-18
 -1       803 9.31550E-05-1.96408E-05-3.15073E-05 1.20157E-06 8.50178E-19-1.19772E-18
 -1       804 1.30180E-04-4.02055E-05-3.88082E-05 8.88310E-06 8.40416E-21 8.27432E-19
 -1       805 4.57664E-05-6.29213E-06-1.65465E-05-5.48136E-06-2.73881E-18 1.14974E-18
 -1       806 4.88824E-05-9.42846E-06-1.65846E-05 1.62572E-05-1.19551E-18-1.08328E-18
 -1       807 6.50428E-05-2.14820E-05-1.84117E-05-3.13228E-05-1.34840E-18-1.61316E-18
 -1       808 9.47507E-05-2.77899E-05-2.86976E-05-3.17505E-07-1.00245E-18 6.62899E-20
 -1       809 9.55424E-05-2.86535E-05-2.86667E-05-1.97528E-06 4.12565E-19-3.84117E-20
 -1       810 9.48796E-05-2.79020E-05-2.87046E-05-4.54190E-07-8.11526E-19-3.61251E-18
 -1       811 9.27540E-05-4.06244E-05-2.21596E-05-3.60488E-05-2.02444E-18 3.97179E-19
 -1       812 5.04901E-05-8.37921E-06-1.77718E-05-1.16181E-05 4.26784E-19-1.75279E-18
 -1       813 1.17435E-04-5.34917E-05-2.73439E-05-2.50490E-05-1.02935E-18 1.06885E-18
 -1       814 9.55308E-05-2.85933E-05-2.86875E-05-1.86538E-06 3.93473E-19-3.41104E-19
 -1       815 1.29813E-04-5.40325E-05-3.25076E-05-8.30991E-06-6.85630E-19 1.20353E-18
 -1       816 1.25595E-04-5.49874E-05-3.02908E-05 1.60668E-05-2.24880E-18-1.03233E-18
 -1       817 9.40270E-05-2.12787E-05-3.11777E-05 3.23238E-06 1.19687E-18-4.24515E-19
 -1       818 9.57205E-05-2.76039E-05-2.91925E-05-4.67709E-07 5.32548E-19-2.60116E-19
 -1       819 9.40339E-05-2.12648E-05-3.11867E-05-3.19768E-06-1.05085E-19-1.27584E-18
 -1       820 1.27218E-04-4.77800E-05-3.40410E-05 1.99665E-06-8.86852E-19 1.63082E-18
 -1       821 1.24265E-04-3.05050E-05-4.03628E-05 1.30997E-05-3.94770E-19-7.11256E-19
 -1       822 9.50443E-05-2.80091E-05-2.87302E-05-6.67521E-07-2.68714E-18 2.85663E-18
 -1       823 1.18600E-04-2.36567E-05-4.08976E-05-1.28704E-05 9.85113E-19-1.51052E-18
 -1       824 9.48694E-05-2.79614E-05-2.86749E-05 3.97717E-07 1.23133E-18 2.88340E-18
 -1       825 1.11794E-04-4.92385E-05-2.67395E-05 2.46340E-05-1.96415E-18-1.14943E-18
 -1       826 9.47591E-05-2.78459E-05-2.86771E-05 2.61463E-07-2.32353E-19-2.23324E-18
 -1       827 9.34579E-05-2.01960E-05-3.13984E-05-2.25269E-06 2.98277E-19-1.17716E-18
 -1       828 8.52890E-05-3.25994E-05-2.24613E-05 3.11511E-05-3.01106E-18-1.09520E-18
 -1       829 9.34811E-05-2.02432E-05-3.13889E-05 2.30050E-06 1.04685E-18-7.73277E-19
 -1       830 9.30406E-05-1.94348E-05-3.15465E-05 2.15947E-08 8.62120E-19-1.38092E-18
 -1       831 9.49865E-05-2.80803E-05-2.86740E-05 4.63983E-07 2.72649E-18 2.69084E-18
 -1       832 9.54779E-05-2.61543E-05-2.97080E-05 1.77319E-06 8.77930E-19 2.04065E-19
 -1       833 1.28320E-04-5.15144E-05-3.29937E-05 3.85609E-06-5.30895E-19-9.27984E-19
 -1       834 6.37075E-05-9.84445E-06-2.30177E-05 2.62919E-06-2.57711E-18 1.58018E-19
 -1       835 9.58403E-05-2.85386E-05-2.88436E-05-1.66413E-06 2.92460E-19-3.18609E-19
 -1       836 9.57244E-05-2.53200E-05-3.01715E-05-1.09175E-06 1.98159E-20-9.44569E-19
 -1       837 9.60773E-05-2.66495E-05-2.97550E-05-1.14711E-07 6.08598E-21-7.41919E-19
 -1       838 9.61911E-05-2.75003E-05-2.94389E-05 5.71201E-07-2.13553E-19-4.25864E-19
 -1       839 9.61215E-05-2.79668E-05-2.92091E-05 1.04160E-06-4.38485E-20-5.01951E-19
 -1       840 9.59311E-05-2.81365E-05-2.90548E-05 1.35019E-06 7.67690E-20-8.61235E-19
 -1       841 9.56210E-05-2.80834E-05-2.89447E-05 1.58370E-06 1.73581E-19-9.74238E-19
 -1       842 9.51934E-05-2.78215E-05-2.88737E-05 1.76544E-06 3.28408E-19-1.10175E-18
 -1       843 9.46223E-05-2.73594E-05-2.88270E-05 1.92180E-06-1.53975E-19-2.79104E-19
 -1       844 9.38548E-05-2.66833E-05-2.87878E-05 2.05898E-06-6.32193E-20 3.17624E-19
 -1       845 9.28068E-05-2.57600E-05-2.87343E-05 2.15703E-06-1.51837E-19-4.62382E-19
 -1       846 9.14445E-05-2.46111E-05-2.86431E-05 2.16990E-06-3.33160E-19-5.27704E-19
 -1       847 8.94712E-05-2.30645E-05-2.84602E-05 2.00756E-06-2.37013E-19-1.47834E-19
 -1       848 8.67263E-05-2.11205E-05-2.81172E-05 1.51158E-06-3.21863E-19-6.21012E-20
 -1       849 8.29290E-05-1.87635E-05-2.75003E-05 4.58979E-07-7.22702E-19-2.63331E-20
 -1       850 7.77023E-05-1.60461E-05-2.64232E-05-1.45291E-06 2.26013E-19-4.66563E-19
 -1       851 7.05419E-05-1.31844E-05-2.45566E-05-4.63432E-06-3.48952E-19-6.26551E-19
 -1       852 6.21679E-05-1.06038E-05-2.19915E-05-7.79265E-06 3.38482E-20-1.28762E-18
 -1       853 7.58782E-05-1.44364E-05-2.63242E-05-5.94520E-07-1.67115E-18 8.63070E-19
 -1       854 8.19556E-05-1.77299E-05-2.75227E-05-1.72226E-06-7.62601E-19-3.69830E-19
 -1       855 8.60805E-05-2.02913E-05-2.81955E-05-2.30118E-06-3.62829E-19-1.04617E-18
 -1       856 8.89953E-05-2.23698E-05-2.85539E-05-2.41630E-06-2.43447E-19-9.18083E-19
 -1       857 9.10219E-05-2.39858E-05-2.87299E-05-2.26768E-06-1.27411E-18-1.65992E-18
 -1       858 9.24139E-05-2.52086E-05-2.88023E-05-1.99114E-06-1.29301E-18-2.82035E-18
 -1       859 9.33233E-05-2.60797E-05-2.88186E-05-1.68630E-06 1.20987E-18-8.00271E-19
 -1       860 9.39759E-05-2.67591E-05-2.88072E-05-1.36964E-06 2.78398E-19-1.15359E-18
 -1       861 9.44133E-05-2.72541E-05-2.87826E-05-1.08380E-06 2.80198E-19-2.61408E-18
 -1       862 9.47011E-05-2.76094E-05-2.87538E-05-8.39979E-07-2.79846E-18-2.78338E-18
 -1       863 9.60637E-05-2.81205E-05-2.91185E-05-1.08999E-06 4.27870E-19-1.18885E-19
 -1       864 9.59659E-05-2.84030E-05-2.89555E-05-1.42867E-06 2.52087E-19-1.58191E-19
 -1       865 9.57891E-05-2.89314E-05-2.86533E-05-2.34804E-06 2.30022E-19-3.27205E-19
 -1       866 9.56498E-05-2.87264E-05-2.86814E-05-2.17958E-06 6.14551E-19-1.64952E-19
 -1       867 9.67483E-05-2.99849E-05-2.86129E-05-2.58045E-06-3.16477E-19-1.56788E-19
 -1       868 9.77359E-05-3.09727E-05-2.86129E-05-2.51147E-06 4.11733E-20-4.83500E-20
 -1       869 9.91621E-05-3.23073E-05-2.86522E-05-2.15973E-06-2.59613E-19-7.65065E-20
 -1       870 1.01037E-04-3.39090E-05-2.87692E-05-1.35219E-06 3.96644E-20-4.49186E-19
 -1       871 1.03251E-04-3.55401E-05-2.90192E-05 1.06773E-07-5.59858E-20 4.18127E-20
 -1       872 1.05475E-04-3.67049E-05-2.94730E-05 2.33907E-06-1.56475E-19-2.55258E-19
 -1       873 1.07145E-04-3.66890E-05-3.01957E-05 5.24214E-06-3.76409E-19-6.68085E-19
 -1       874 1.07508E-04-3.46752E-05-3.12184E-05 8.18585E-06-1.24063E-18-2.56943E-19
 -1       875 1.06104E-04-3.03778E-05-3.24580E-05 9.93480E-06-9.19134E-19 2.09294E-19
 -1       876 1.03302E-04-2.46880E-05-3.36935E-05 9.06096E-06 2.32657E-19 1.18398E-19
 -1       877 1.00655E-04-1.99763E-05-3.45837E-05 4.83997E-06 1.21633E-18 6.76841E-19
 -1       878 9.98021E-05-1.85901E-05-3.48173E-05-1.40329E-06 9.33258E-20-1.41538E-19
 -1       879 1.01656E-04-2.17527E-05-3.42500E-05-7.06805E-06 1.45524E-19 9.40252E-20
 -1       880 1.04617E-04-2.71975E-05-3.31804E-05-9.86609E-06 1.01025E-18 3.54521E-19
 -1       881 1.06911E-04-3.24488E-05-3.19167E-05-9.46145E-06 1.81709E-18 5.39115E-19
 -1       882 1.07533E-04-3.57733E-05-3.07525E-05-7.02081E-06-4.08551E-19 4.52789E-19
 -1       883 1.06481E-04-3.67921E-05-2.98681E-05-4.01259E-06 3.23724E-19-1.19020E-19
 -1       884 1.04475E-04-3.61696E-05-2.92741E-05-1.41029E-06 7.10128E-19 4.55426E-19
 -1       885 1.02183E-04-3.46948E-05-2.89238E-05 4.37847E-07-1.03817E-18 5.22083E-19
 -1       886 1.00062E-04-3.29905E-05-2.87454E-05 1.53462E-06-2.92885E-19 4.31918E-19
 -1       887 9.83407E-05-3.14387E-05-2.86725E-05 2.05106E-06-2.46461E-18 9.90439E-19
 -1       888 9.70652E-05-3.02003E-05-2.86564E-05 2.18001E-06-2.48035E-18 2.38059E-18
 -1       889 9.61892E-05-2.93038E-05-2.86652E-05 2.07722E-06-2.68464E-18 1.54490E-18
 -1       890 9.56311E-05-2.87107E-05-2.86802E-05 1.85409E-06-1.76699E-18 2.10238E-18
 -1       891 9.53047E-05-2.83564E-05-2.86921E-05 1.58317E-06 9.57870E-20 2.86757E-18
 -1       892 9.51358E-05-2.81744E-05-2.86977E-05 1.30792E-06 4.78505E-19 3.56843E-18
 -1       893 9.50662E-05-2.81066E-05-2.86970E-05 1.05214E-06 3.10925E-19 3.45888E-18
 -1       894 9.50542E-05-2.81078E-05-2.86913E-05 8.27200E-07 4.00497E-19 4.32965E-18
 -1       895 9.50706E-05-2.81445E-05-2.86824E-05 6.37008E-07 1.45444E-18 4.84780E-18
 -1       896 9.44793E-05-2.75510E-05-2.86835E-05 2.07290E-08-4.24778E-19 2.51345E-19
 -1       897 6.94277E-05-1.53451E-05-2.31481E-05 1.48902E-05-2.60458E-18-1.12358E-18
 -1       898 1.24885E-04-4.05904E-05-3.62022E-05-8.75137E-06 1.28862E-19-3.05086E-18
 -1       899 9.56681E-05-2.67384E-05-2.95412E-05 6.19701E-07 7.43205E-19-1.37832E-20
 -1       900 9.31391E-05-1.96176E-05-3.15114E-05-1.14759E-06 5.63883E-19-1.09506E-18
 -1       901 1.09048E-04-1.08460E-05-4.22635E-05-2.91722E-06 2.10735E-18-8.50011E-20
 -1       902 9.45031E-05-2.75440E-05-2.86968E-05-2.47274E-07 1.23357E-20-3.73942E-19
 -1       903 8.32775E-05-2.98584E-05-2.28059E-05-2.85444E-05-1.79680E-18-4.58202E-19
 -1       904 9.56447E-05-2.86374E-05-2.87174E-05-2.01282E-06 3.14642E-19 3.64352E-20
 -1       905 9.61284E-05-2.93255E-05-2.86298E-05-2.49746E-06 1.56967E-19-5.24884E-19
 -1       906 9.57217E-05-2.85959E-05-2.87682E-05-1.84721E-06 1.06524E-19-1.11264E-19
 -1       907 6.80420E-05-1.76065E-05-2.15060E-05-2.13044E-05-3.56303E-19-3.13204E-19
 -1       908 1.19941E-04-5.05696E-05-2.97384E-05-1.17248E-05-1.33886E-18 1.62008E-18
 -1       909 9.50970E-05-2.81946E-05-2.86725E-05 4.76047E-07 1.85788E-18 1.62405E-18
 -1       910 1.05149E-04-4.45170E-05-2.59376E-05-2.53807E-05-1.60403E-18 1.52146E-18
 -1       911 1.13202E-04-1.52994E-05-4.21837E-05 9.89840E-06 1.74964E-18 4.40831E-19
 -1       912 1.19851E-04-5.12780E-05-2.93835E-05 1.45439E-05-1.12225E-18 8.93460E-19
 -1       913 9.60905E-05-2.76073E-05-2.93496E-05-5.81747E-07 4.69955E-19-9.67812E-21
 -1       914 1.24808E-04-4.10457E-05-3.59614E-05 8.54864E-06-1.51071E-18 6.74655E-19
 -1       915 9.47612E-05-2.77236E-05-2.87301E-05-6.58776E-07-3.61620E-19-2.89021E-18
 -1       916 9.46306E-05-2.76376E-05-2.87115E-05-4.68044E-07-1.59896E-19-6.36797E-19
 -1       917 9.45454E-05-2.76346E-05-2.86760E-05 2.64044E-07-8.81055E-19-3.89088E-18
 -1       918 9.85810E-05-3.95800E-05-2.52618E-05 2.57653E-05-2.85121E-18 6.19495E-19
 -1       919 7.82538E-05-2.19741E-05-2.40802E-05 1.92027E-05-2.19447E-18-3.37010E-18
 -1       920 1.08589E-04-1.80046E-05-3.88908E-05-9.18656E-06 7.29042E-19-1.54530E-18
 -1       921 1.20323E-04-3.33426E-05-3.73908E-05-1.16686E-05 1.50547E-21-2.56969E-18
 -1       922 9.46795E-05-2.77735E-05-2.86740E-05 4.56398E-07-4.47344E-19-3.81052E-19
 -1       923 9.44455E-05-2.20690E-05-3.10185E-05 4.11149E-07 6.77360E-19-1.34047E-18
 -1       924 9.48317E-05-2.79214E-05-2.86759E-05 5.61993E-07 3.18088E-18 1.49239E-18
 -1       925 9.54851E-05-2.50187E-05-3.02006E-05 1.83254E-06 9.86043E-19 3.03588E-20
 -1       926 9.46201E-05-2.24406E-05-3.09324E-05 1.17123E-06 8.17300E-19-8.91753E-19
 -1       927 1.09564E-04-4.40099E-05-2.80626E-05-1.46903E-05-5.70765E-19 1.07669E-18
 -1       928 1.22200E-04-4.52374E-05-3.29578E-05-2.88339E-06-5.30769E-19-3.27209E-18
 -1       929 9.62626E-05-2.67827E-05-2.97773E-05 1.13634E-07 1.05682E-19-7.36220E-19
 -1       930 9.63474E-05-2.75686E-05-2.94767E-05 5.69622E-07-2.68657E-19-4.45554E-19
 -1       931 9.62279E-05-2.79537E-05-2.92603E-05 8.65648E-07 4.63583E-20-2.89273E-19
 -1       932 9.59401E-05-2.80627E-05-2.90903E-05 1.07004E-06 4.44862E-20-2.84208E-19
 -1       933 9.55055E-05-2.79195E-05-2.89655E-05 1.19288E-06-9.40836E-20-2.24939E-19
 -1       934 9.49241E-05-2.75600E-05-2.88704E-05 1.24893E-06 5.83433E-19-3.79232E-19
 -1       935 9.41711E-05-2.69982E-05-2.87884E-05 1.23137E-06 4.72808E-19-2.83866E-19
 -1       936 9.31991E-05-2.62334E-05-2.86996E-05 1.10630E-06-3.02336E-19-3.08330E-19
 -1       937 9.20100E-05-2.53098E-05-2.85859E-05 8.30187E-07-2.05129E-19-3.72134E-19
 -1       938 9.03948E-05-2.41260E-05-2.84010E-05 2.64819E-07-1.08577E-19-1.77088E-19
 -1       939 8.82940E-05-2.27296E-05-2.80990E-05-7.54337E-07-5.85782E-20 8.19777E-20
 -1       940 8.55889E-05-2.11742E-05-2.76059E-05-2.47769E-06 2.98483E-20 5.77579E-19
 -1       941 8.21594E-05-1.95959E-05-2.68120E-05-5.25827E-06-6.17709E-19 1.26646E-18
 -1       942 7.79456E-05-1.83169E-05-2.55465E-05-9.60650E-06-5.90317E-19 2.75684E-19
 -1       943 7.34743E-05-1.75582E-05-2.39290E-05-1.45767E-05-3.10016E-19-1.07113E-19
 -1       944 1.19100E-04-4.55421E-05-3.15495E-05-1.05365E-07-1.30895E-18 7.94394E-19
 -1       945 8.41121E-05-1.98292E-05-2.75474E-05 1.91479E-06-3.61236E-19-7.37786E-19
 -1       946 8.72024E-05-2.16346E-05-2.81005E-05 3.88430E-07-3.19941E-19-8.09727E-19
 -1       947 8.94978E-05-2.31805E-05-2.84218E-05-4.33426E-07-1.06748E-18-1.35284E-18
 -1       948 9.11756E-05-2.44439E-05-2.85994E-05-8.15884E-07-1.54252E-18-8.36973E-20
 -1       949 9.23380E-05-2.54019E-05-2.86869E-05-9.32399E-07 8.96303E-19 4.36688E-19
 -1       950 9.32226E-05-2.61917E-05-2.87276E-05-9.09018E-07-7.15875E-19-2.23970E-18
 -1       951 9.38476E-05-2.67919E-05-2.87382E-05-8.09531E-07-8.82094E-19-3.44835E-18
 -1       952 9.42888E-05-2.72455E-05-2.87327E-05-6.84580E-07-6.48508E-19-5.21002E-18
 -1       953 9.54736E-05-2.85939E-05-2.86627E-05-2.29208E-06 4.15982E-19 3.47509E-19
 -1       954 9.80198E-05-3.15399E-05-2.84915E-05-3.73095E-06 1.46550E-19-3.36317E-19
 -1       955 9.67248E-05-3.02082E-05-2.85071E-05-3.43238E-06-1.20373E-21-4.48439E-19
 -1       956 1.02664E-04-3.56473E-05-2.87210E-05-3.23716E-06-2.06932E-19-3.32934E-19
 -1       957 1.05980E-04-3.80188E-05-2.91236E-05-1.76300E-06 3.53115E-19-4.56098E-19
 -1       958 1.09421E-04-3.96742E-05-2.98869E-05 9.45656E-07-3.76754E-19-8.41195E-19
 -1       959 1.12148E-04-3.95740E-05-3.11053E-05 4.82803E-06-1.10208E-18-2.84822E-19
 -1       960 1.12749E-04-3.61429E-05-3.28358E-05 9.05803E-06-1.87655E-18 7.10896E-20
 -1       961 1.10447E-04-2.89229E-05-3.49641E-05 1.15384E-05-4.42224E-19 4.25889E-19
 -1       962 1.06572E-04-2.08370E-05-3.67712E-05 9.15432E-06 3.25087E-19 6.89120E-20
 -1       963 1.03443E-04-1.52543E-05-3.78924E-05 2.49784E-06 1.83733E-18-4.41665E-19
 -1       964 1.11671E-04-3.24758E-05-3.39486E-05-1.06486E-05 1.27098E-18-2.06269E-18
 -1       965 1.12728E-04-3.79647E-05-3.20725E-05-7.50589E-06-1.96152E-19-3.40929E-19
 -1       966 1.11044E-04-3.97377E-05-3.05637E-05-3.24109E-06 4.01821E-19 9.22918E-19
 -1       967 1.07860E-04-3.89638E-05-2.95239E-05 3.01566E-07 8.69998E-20 1.42731E-18
 -1       968 1.04367E-04-3.68359E-05-2.89410E-05 2.41196E-06-7.10701E-19 2.58173E-18
 -1       969 1.01253E-04-3.43940E-05-2.86543E-05 3.36942E-06-7.17571E-19 2.38551E-18
 -1       970 9.88311E-05-3.22325E-05-2.85425E-05 3.56243E-06-1.61814E-18 2.55950E-18
 -1       971 9.71076E-05-3.05492E-05-2.85250E-05 3.33029E-06-3.81304E-18 2.59256E-18
 -1       972 9.59751E-05-2.93563E-05-2.85508E-05 2.90212E-06-1.60669E-18 2.24249E-18
 -1       973 9.52946E-05-2.85855E-05-2.85896E-05 2.41761E-06-1.60518E-18 1.83303E-18
 -1       974 9.49318E-05-2.81386E-05-2.86256E-05 1.95317E-06-1.39484E-18 8.87898E-19
 -1       975 9.47769E-05-2.79208E-05-2.86526E-05 1.54275E-06-6.95302E-20 7.26517E-19
 -1       976 9.47486E-05-2.78536E-05-2.86693E-05 1.19716E-06-1.12256E-18 2.47939E-18
 -1       977 9.47884E-05-2.78749E-05-2.86772E-05 9.15358E-07 4.94685E-19 3.20292E-18
 -1       978 9.48907E-05-2.30657E-05-3.07845E-05-1.51937E-06 2.14215E-19-9.29804E-19
 -1       979 9.63120E-05-3.60462E-05-2.58138E-05-2.17565E-05-1.18552E-18 1.30265E-18
 -1       980 9.60153E-05-2.67286E-05-2.96930E-05 2.68438E-07 7.07344E-19 8.22547E-20
 -1       981 9.49408E-05-2.31803E-05-3.07548E-05 1.79170E-06 9.15622E-19-3.97367E-19
 -1       982 9.55385E-05-2.85118E-05-2.87257E-05-1.99902E-06 1.65017E-19-5.95519E-20
 -1       983 9.44521E-05-2.20717E-05-3.10196E-05-3.85206E-07 6.67951E-19-1.16103E-18
 -1       984 9.42112E-05-2.72770E-05-2.86860E-05-7.83944E-08-8.25592E-19 2.49031E-18
 -1       985 9.59109E-05-2.84908E-05-2.88943E-05-1.53466E-06 2.78451E-19-3.48323E-19
 -1       986 7.98338E-05-1.77873E-05-2.65961E-05 4.60485E-06-1.58510E-18-2.22892E-18
 -1       987 9.57031E-05-2.85033E-05-2.87999E-05-1.75438E-06 1.21935E-19-2.85303E-19
 -1       988 7.75129E-05-1.82366E-05-2.53736E-05 1.08238E-05-2.43062E-18-3.54709E-18
 -1       989 9.99830E-05-3.33863E-05-2.85419E-05-3.75059E-06 6.19331E-21-3.28179E-19
 -1       990 1.13356E-04-2.49772E-05-3.79847E-05 1.21159E-05-1.81609E-19 1.22253E-18
 -1       991 9.58946E-05-2.55089E-05-3.01650E-05-5.29503E-07 2.49067E-19-7.65316E-19
 -1       992 9.63281E-05-2.76761E-05-2.94225E-05-6.37611E-07 4.83678E-19-1.87107E-19
 -1       993 1.18825E-04-4.75364E-05-3.05631E-05 5.31838E-06-1.53219E-18-2.55728E-18
 -1       994 9.61151E-05-2.84006E-05-2.90204E-05-1.30598E-06 3.75440E-19-1.93515E-19
 -1       995 9.44776E-05-2.74589E-05-2.87218E-05-5.68010E-07-1.04893E-18-2.98168E-18
 -1       996 9.42824E-05-2.17538E-05-3.10817E-05-1.06672E-06 5.23352E-19-8.83524E-19
 -1       997 9.43089E-05-2.73348E-05-2.87032E-05-3.39832E-07 1.18949E-18 1.13891E-18
 -1       998 9.56323E-05-2.46194E-05-3.04346E-05-4.77706E-07 2.00576E-19-6.28974E-19
 -1       999 9.55825E-05-2.88379E-05-2.86048E-05-2.64136E-06 3.03170E-19 4.87131E-19
 -1      1000 9.42678E-05-2.73671E-05-2.86719E-05 2.49881E-07 8.39929E-19-2.04952E-18
 -1      1001 9.62711E-05-2.81579E-05-2.91914E-05-1.02499E-06 4.07384E-19-1.15990E-19
 -1      1002 1.10115E-04-2.56812E-05-3.62169E-05-1.13629E-05 1.02776E-19-2.11456E-18
 -1      1003 9.48606E-05-2.79453E-05-2.86784E-05 6.90209E-07 1.26751E-18 3.19545E-18
 -1      1004 8.41047E-05-2.63392E-05-2.47262E-05-2.03537E-05-6.15724E-19-2.40467E-19
 -1      1005 8.75366E-05-2.82736E-05-2.53932E-05 1.95199E-05-2.91315E-18-2.12492E-19
 -1      1006 1.08475E-04-4.50103E-05-2.71699E-05 2.02040E-05-1.60454E-18 3.34897E-19
 -1      1007 9.44240E-05-2.75333E-05-2.86673E-05 5.13601E-07-1.78947E-19-2.67073E-18
 -1      1008 9.54046E-05-2.40506E-05-3.05790E-05 5.09603E-09 5.04427E-19-1.28509E-18
 -1      1009 9.46186E-05-2.77204E-05-2.86707E-05 6.65686E-07 7.96229E-19-2.96434E-18
 -1      1010 1.13329E-04-4.41861E-05-2.96674E-05-5.27939E-06-1.05457E-18 1.57838E-18
 -1      1011 1.17414E-04-3.72012E-05-3.44199E-05-9.21543E-06 8.21357E-20-1.17116E-18
 -1      1012 9.59577E-05-2.93384E-05-2.85510E-05-3.03576E-06-4.86845E-20 2.13867E-19
 -1      1013 9.54710E-05-2.42317E-05-3.05333E-05 4.15276E-07 7.26653E-19-1.06988E-18
 -1      1014 9.78221E-05-3.18046E-05-2.82929E-05-5.53757E-06 3.96495E-19 8.81429E-19
 -1      1015 1.18543E-04-3.93345E-05-3.40560E-05 8.19815E-06-1.77213E-18 7.05635E-20
 -1      1016 9.64145E-05-2.76804E-05-2.94577E-05 4.24131E-07-1.30628E-19-6.53939E-19
 -1      1017 9.62110E-05-2.79882E-05-2.92385E-05 5.71705E-07 1.68103E-19-8.30210E-19
 -1      1018 9.58323E-05-2.80031E-05-2.90698E-05 6.34761E-07 9.88127E-20-4.28519E-19
 -1      1019 9.53026E-05-2.77826E-05-2.89372E-05 6.19640E-07 9.50350E-20-3.19922E-19
 -1      1020 9.46281E-05-2.73704E-05-2.88249E-05 5.08634E-07 4.17368E-19-4.64214E-19
 -1      1021 9.37945E-05-2.67927E-05-2.87153E-05 2.65496E-07 1.08811E-19-7.80108E-19
 -1      1022 9.28377E-05-2.61160E-05-2.85951E-05-1.50967E-07-2.14736E-19-6.22498E-19
 -1      1023 9.16290E-05-2.53029E-05-2.84259E-05-8.78967E-07-2.83036E-19-4.63411E-19
 -1      1024 9.01869E-05-2.44339E-05-2.81794E-05-2.06449E-06-2.02408E-19 2.48214E-20
 -1      1025 8.85281E-05-2.36292E-05-2.78124E-05-3.91434E-06 1.98289E-19 2.75079E-20
 -1      1026 8.67295E-05-2.30956E-05-2.72673E-05-6.71464E-06-1.64866E-19-6.58411E-19
 -1      1027 8.49869E-05-2.31873E-05-2.64802E-05-1.08320E-05-9.00886E-19-7.21992E-20
 -1      1028 9.58966E-05-2.55540E-05-3.01490E-05 5.41554E-07 8.58077E-19-3.29564E-19
 -1      1029 8.89683E-05-2.32939E-05-2.81457E-05 1.95875E-06-8.09375E-20 5.62681E-20
 -1      1030 9.05302E-05-2.42625E-05-2.84001E-05 8.38802E-07-1.35596E-18-1.35002E-18
 -1      1031 9.17034E-05-2.50947E-05-2.85465E-05 2.15926E-07-2.62424E-19-9.43422E-19
 -1      1032 9.26598E-05-2.58440E-05-2.86349E-05-1.34611E-07-1.24418E-18-1.20108E-18
 -1      1033 9.33816E-05-2.64594E-05-2.86803E-05-3.03435E-07-1.92849E-18-2.34606E-19
 -1      1034 1.08925E-04-4.09255E-05-2.91558E-05-4.95437E-06-1.25924E-19 7.90489E-19
 -1      1035 1.04100E-04-3.74380E-05-2.85699E-05-6.19059E-06-2.05028E-19 3.36905E-20
 -1      1036 1.06430E-04-3.91654E-05-2.88305E-05 5.62937E-06-6.67760E-19 1.31765E-18
 -1      1037 1.02072E-04-3.56957E-05-2.84466E-05 6.24785E-06-7.59240E-19 4.56268E-19
 -1      1038 9.88809E-05-3.27903E-05-2.83249E-05 5.82233E-06-1.29041E-18 1.03841E-18
 -1      1039 9.67429E-05-3.06336E-05-2.83322E-05 4.97128E-06-2.93196E-18 2.52229E-18
 -1      1040 9.54219E-05-2.91644E-05-2.83957E-05 4.01998E-06-2.01973E-18 2.73836E-18
 -1      1041 9.46970E-05-2.82595E-05-2.84731E-05 3.13227E-06-1.51340E-18 1.89514E-18
 -1      1042 9.43660E-05-2.77665E-05-2.85426E-05 2.38206E-06-6.41464E-19 6.27094E-19
 -1      1043 9.42793E-05-2.75536E-05-2.85966E-05 1.78078E-06-2.83895E-19-6.92679E-19
 -1      1044 9.43304E-05-2.75175E-05-2.86340E-05 1.31678E-06-5.34030E-19-1.29338E-18
 -1      1045 9.44470E-05-2.75804E-05-2.86569E-05 9.63470E-07 5.56235E-20-2.72549E-18
 -1      1046 9.54292E-05-2.90908E-05-2.84298E-05-3.77407E-06 2.76458E-19 6.08205E-19
 -1      1047 1.15755E-04-4.24178E-05-3.13750E-05 2.84239E-06-1.35785E-18 6.10857E-19
 -1      1048 9.25862E-05-3.09588E-05-2.64073E-05-1.65142E-05-6.23769E-20 1.26775E-18
 -1      1049 1.11486E-04-4.22266E-05-2.96966E-05 3.47961E-06-6.64949E-19 3.81262E-19
 -1      1050 1.02795E-04-3.83425E-05-2.76223E-05-1.36950E-05-8.76218E-19 6.33474E-19
 -1      1051 9.62785E-05-3.01387E-05-2.83446E-05-4.64563E-06 5.43147E-20 9.34921E-19
 -1      1052 9.64451E-05-2.77797E-05-2.94284E-05-5.94304E-07 4.09373E-19-5.60501E-19
 -1      1053 8.70397E-05-2.23147E-05-2.77368E-05 3.79799E-06-1.39922E-19-7.24089E-19
 -1      1054 9.52085E-05-2.82416E-05-2.86999E-05-1.94520E-06-5.56206E-20-1.17959E-20
 -1      1055 9.63933E-05-2.69931E-05-2.97430E-05 1.83756E-07 7.66586E-20-6.91862E-19
 -1      1056 9.62599E-05-2.68460E-05-2.97481E-05-9.34328E-08 5.89890E-19-1.47301E-19
 -1      1057 8.46911E-05-2.14851E-05-2.70900E-05 6.71612E-06 8.90076E-19-2.00180E-18
 -1      1058 1.00369E-04-3.42500E-05-2.83419E-05-6.15096E-06 4.79798E-20 1.90556E-19
 -1      1059 9.61429E-05-2.60051E-05-3.00589E-05-1.10139E-07 1.96624E-19-7.16214E-19
 -1      1060 1.11706E-04-4.47419E-05-2.86781E-05 1.17738E-05-2.13347E-18-1.54068E-18
 -1      1061 9.60891E-05-2.83446E-05-2.90333E-05-1.09569E-06 1.84602E-19 1.57987E-19
 -1      1062 9.54810E-05-2.82971E-05-2.87931E-05-1.59562E-06 1.54934E-19 3.17134E-20
 -1      1063 8.41689E-05-2.42110E-05-2.56895E-05-1.50499E-05-9.15659E-19-1.09475E-19
 -1      1064 8.49635E-05-2.33515E-05-2.64183E-05 1.17524E-05-1.34258E-18-9.75880E-19
 -1      1065 9.39227E-05-2.69728E-05-2.86929E-05-2.63765E-07-1.20055E-18 1.95166E-18
 -1      1066 9.57911E-05-2.83568E-05-2.89005E-05-1.32454E-06 2.49392E-19 3.96174E-20
 -1      1067 9.39431E-05-2.70518E-05-2.86675E-05 1.69133E-07-3.98024E-19 4.15393E-20
 -1      1068 1.00068E-04-3.73664E-05-2.68670E-05 1.75316E-05-1.78189E-18 1.19034E-18
 -1      1069 9.63249E-05-2.81812E-05-2.92046E-05-8.65943E-07 3.41616E-19-3.03863E-20
 -1      1070 9.64029E-05-2.70513E-05-2.97216E-05-2.32850E-07 7.31767E-19-5.82846E-19
 -1      1071 9.50777E-05-2.85278E-05-2.85213E-05-3.01275E-06 5.57199E-20 6.23128E-19
 -1      1072 9.60540E-05-2.56068E-05-3.01928E-05-1.22043E-08 3.04992E-19-1.19384E-18
 -1      1073 9.41073E-05-2.72431E-05-2.86562E-05 5.37107E-07-7.14072E-19-2.26781E-18
 -1      1074 9.50409E-05-2.82809E-05-2.86113E-05-2.41171E-06-9.05564E-20 3.79205E-19
 -1      1075 8.57740E-05-2.53392E-05-2.59080E-05 1.54821E-05-1.91952E-18-5.90370E-19
 -1      1076 9.34329E-05-2.66049E-05-2.86415E-05 2.94423E-07-1.23786E-19 1.07176E-18
 -1      1077 8.97532E-05-2.45048E-05-2.79640E-05 4.36991E-06-1.06690E-19-1.70043E-18
 -1      1078 9.61248E-05-2.80378E-05-2.91800E-05 1.39925E-07 1.13492E-19-1.09584E-18
 -1      1079 9.56921E-05-2.79860E-05-2.90166E-05 6.68453E-08 8.64119E-20-7.12210E-19
 -1      1080 9.51287E-05-2.77372E-05-2.88815E-05-8.97495E-08 3.47144E-19-4.87313E-19
 -1      1081 9.44492E-05-2.73419E-05-2.87600E-05-3.78007E-07 4.00918E-20-5.25023E-19
 -1      1082 9.37153E-05-2.68896E-05-2.86402E-05-8.22324E-07-5.32883E-20-6.97817E-19
 -1      1083 9.29050E-05-2.64188E-05-2.84950E-05-1.53781E-06-2.84300E-19-6.16372E-19
 -1      1084 9.19867E-05-2.59429E-05-2.83044E-05-2.64752E-06 4.58099E-20-7.82093E-20
 -1      1085 9.11350E-05-2.57067E-05-2.80427E-05-4.32134E-06-7.81449E-20-2.27583E-19
 -1      1086 9.04859E-05-2.58784E-05-2.76907E-05-6.69047E-06-3.30621E-19-2.00402E-19
 -1      1087 9.03172E-05-2.67857E-05-2.72222E-05-9.93527E-06-1.24561E-19-2.91242E-19
 -1      1088 9.09764E-05-2.83764E-05-2.68280E-05-1.28940E-05-4.13073E-19-2.58461E-20
 -1      1089 9.62428E-05-2.81666E-05-2.91754E-05-6.00415E-07 1.50078E-19-2.34342E-19
 -1      1090 9.16546E-05-2.53192E-05-2.84295E-05 1.53227E-06-4.62439E-19-8.77128E-19
 -1      1091 9.24727E-05-2.58554E-05-2.85504E-05 8.06883E-07-2.85419E-19 2.30837E-19
 -1      1092 9.61110E-05-2.58866E-05-3.00955E-05 1.39955E-07 6.46362E-19-7.95399E-19
 -1      1093 9.87175E-05-3.45081E-05-2.75302E-05-1.22341E-05 2.55350E-19 1.04171E-18
 -1      1094 9.55895E-05-3.01943E-05-2.80337E-05 7.12309E-06-3.08219E-18 1.11719E-19
 -1      1095 9.81783E-05-3.29145E-05-2.79599E-05 8.93122E-06-9.62507E-19-6.56105E-19
 -1      1096 1.01866E-04-3.65221E-05-2.79897E-05 1.04426E-05-5.11097E-19-1.24893E-18
 -1      1097 9.42575E-05-2.85164E-05-2.81750E-05 5.38839E-06-2.29173E-18-1.03805E-18
 -1      1098 9.36720E-05-2.75900E-05-2.83204E-05 3.94299E-06-8.95436E-19-1.22593E-18
 -1      1099 9.35083E-05-2.71474E-05-2.84401E-05 2.82145E-06-4.59172E-20-6.08019E-19
 -1      1100 9.35870E-05-2.70150E-05-2.85306E-05 1.98144E-06 4.16869E-20-1.79302E-18
 -1      1101 9.37877E-05-2.70693E-05-2.85937E-05 1.37465E-06 1.53356E-19-4.05874E-18
 -1      1102 9.39121E-05-2.71080E-05-2.86303E-05 8.97890E-07-8.86247E-19-3.25721E-18
 -1      1103 9.42948E-05-2.83947E-05-2.82429E-05-4.71475E-06 6.88442E-21 7.00138E-20
 -1      1104 9.50850E-05-2.95606E-05-2.80828E-05-6.30615E-06-2.02686E-19-3.00149E-20
 -1      1105 9.64430E-05-2.78801E-05-2.93841E-05-4.25669E-07-5.31255E-21-4.49775E-19
 -1      1106 9.64670E-05-2.72908E-05-2.96469E-05 9.18407E-08 7.38208E-20-9.09888E-19
 -1      1107 8.88470E-05-2.45686E-05-2.75553E-05 6.86378E-06-1.90653E-20 4.48752E-19
 -1      1108 9.64161E-05-2.78478E-05-2.93863E-05 1.37833E-07-4.33519E-20-7.41143E-19
 -1      1109 9.67957E-05-3.15614E-05-2.79494E-05-8.12597E-06 1.96148E-19 1.07318E-18
 -1      1110 9.07341E-05-2.48323E-05-2.82432E-05 2.66032E-06-1.50851E-18-1.12149E-18
 -1      1111 9.57979E-05-3.32218E-05-2.68117E-05 1.58866E-05-2.41606E-18 2.85562E-18
 -1      1112 9.59034E-05-2.82158E-05-2.90093E-05-7.92327E-07 4.54350E-19-1.61970E-19
 -1      1113 9.05842E-05-2.70011E-05-2.72481E-05 1.03264E-05-9.62863E-19 2.53685E-18
 -1      1114 9.41746E-05-2.78955E-05-2.84007E-05-3.42829E-06 6.84788E-19-4.96255E-20
 -1      1115 9.64980E-05-2.73272E-05-2.96456E-05-2.09456E-07 4.05998E-19-4.73780E-19
 -1      1116 9.50446E-05-2.79453E-05-2.87571E-05-1.36357E-06-1.65133E-19 4.07489E-19
 -1      1117 9.36461E-05-2.68413E-05-2.86304E-05 6.37223E-07-4.90532E-19-1.98537E-18
 -1      1118 9.63631E-05-2.65944E-05-2.98995E-05 8.14979E-09 1.64036E-19-9.73850E-19
 -1      1119 9.46212E-05-2.77798E-05-2.86467E-05-1.84982E-06-5.05058E-19 3.20784E-19
 -1      1120 9.55582E-05-2.80403E-05-2.89379E-05-5.68152E-07 2.38056E-19 5.48021E-20
 -1      1121 9.34164E-05-2.70977E-05-2.84253E-05-2.72192E-06 6.31339E-19-3.90604E-19
 -1      1122 9.54946E-05-2.81182E-05-2.88740E-05-1.02928E-06 2.98873E-20-9.31396E-20
 -1      1123 9.42751E-05-2.77077E-05-2.85291E-05-2.53041E-06 6.93301E-21 2.93799E-19
 -1      1124 9.25718E-05-2.98432E-05-2.69071E-05 1.36571E-05-3.99294E-19 2.36242E-18
 -1      1125 9.20369E-05-2.64293E-05-2.81182E-05 4.71034E-06-6.24973E-19-1.64525E-18
 -1      1126 9.22528E-05-2.61858E-05-2.83151E-05 3.15701E-06-1.25284E-18-2.05639E-18
 -1      1127 9.26498E-05-2.62513E-05-2.84569E-05 2.06017E-06 9.60814E-19-1.41471E-18
 -1      1128 9.31117E-05-2.64895E-05-2.85526E-05 1.31219E-06 1.34374E-18-4.29063E-19
 -1      1129 9.33760E-05-2.66482E-05-2.85977E-05 9.37674E-07-3.90434E-19 1.09297E-19
 -1      1130 9.63951E-05-2.67717E-05-2.98378E-05-8.12755E-08 3.67171E-19-5.64732E-19
 -1      1131 9.20863E-05-2.69667E-05-2.79055E-05 6.46972E-06-2.19115E-18-1.39315E-18
 -1      1132 1.16603E-04 2.56874E-10-4.17554E-05-4.15398E-05-2.21923E-19 4.52676E-18
 -1      1133 8.85758E-05 7.14444E-11-3.72268E-05-2.41120E-05-1.14667E-19-7.33001E-19
 -1      1134 8.40619E-05 4.13893E-11-3.57610E-05-1.78646E-05-7.09390E-20-2.64838E-18
 -1      1135 8.23422E-05 3.20449E-11-3.50756E-05-1.38272E-05-2.78727E-20-3.34243E-18
 -1      1136 8.15573E-05 2.73443E-11-3.47480E-05-1.05205E-05-1.54584E-20-3.58057E-18
 -1      1137 8.11636E-05 2.45908E-11-3.45874E-05-7.62715E-06 6.55127E-22-3.55981E-18
 -1      1138 8.09605E-05 2.29128E-11-3.45070E-05-4.96856E-06 5.05242E-21-3.38928E-18
 -1      1139 8.08613E-05 2.20008E-11-3.44691E-05-2.42564E-06 1.80358E-20-3.20899E-18
 -1      1140 8.08323E-05 2.17214E-11-3.44582E-05 5.27018E-08 2.36805E-20-2.96139E-18
 -1      1141 8.08635E-05 2.20376E-11-3.44698E-05 2.53310E-06 3.07496E-20-2.73095E-18
 -1      1142 8.09656E-05 2.29992E-11-3.45085E-05 5.08301E-06 3.65382E-20-2.40238E-18
 -1      1143 8.11745E-05 2.47330E-11-3.45900E-05 7.75584E-06 5.71085E-20-1.91950E-18
 -1      1144 8.15732E-05 2.76260E-11-3.47526E-05 1.06745E-05 6.85435E-20-1.25532E-18
 -1      1145 8.23641E-05 3.25152E-11-3.50836E-05 1.40250E-05 8.17387E-20-2.08529E-19
 -1      1146 8.40575E-05 4.19146E-11-3.57783E-05 1.81147E-05 9.61382E-20 1.59011E-18
 -1      1147 8.83007E-05 6.67146E-11-3.73021E-05 2.39936E-05 8.45974E-20 4.70532E-18
 -1      1148 1.06530E-04 1.63781E-10-4.06023E-05 3.61656E-05 7.55977E-20 1.01916E-17
 -1      1149 1.31219E-04-2.56872E-05-4.03896E-05-2.70241E-05-9.20831E-19 7.86809E-18
 -1      1150 9.81328E-05-2.90204E-05-3.18266E-05-9.22214E-07-3.15837E-19 5.79847E-18
 -1      1151 9.02319E-05-2.70306E-05-2.79709E-05 3.88183E-07-1.39893E-19 3.03399E-18
 -1      1152 8.82064E-05-2.65586E-05-2.66475E-05 2.55101E-07-5.52623E-20 9.00687E-19
 -1      1153 8.78063E-05-2.64222E-05-2.63662E-05 1.67608E-07-2.80166E-20-5.04752E-19
 -1      1154 8.81593E-05-2.64962E-05-2.64468E-05 1.18408E-07-1.10019E-19-1.40840E-18
 -1      1155 8.88486E-05-2.66847E-05-2.66496E-05 8.79584E-08-4.36057E-20-2.02330E-18
 -1      1156 8.96889E-05-2.69232E-05-2.69015E-05 6.63949E-08-9.46861E-20-2.47459E-18
 -1      1157 9.06095E-05-2.71927E-05-2.71771E-05 4.98680E-08 2.87416E-20-2.72622E-18
 -1      1158 9.15382E-05-2.74680E-05-2.74564E-05 3.74846E-08 5.93296E-20-3.14678E-18
 -1      1159 9.24616E-05-2.77442E-05-2.77358E-05 2.81095E-08-7.48979E-20-3.03477E-18
 -1      1160 9.33952E-05-2.80250E-05-2.80200E-05 2.13892E-08-5.27880E-20-4.30262E-18
 -1      1161 9.43551E-05-2.83158E-05-2.83139E-05 1.74170E-08 3.15418E-20-4.28898E-18
 -1      1162 9.54317E-05-2.86430E-05-2.86463E-05 1.60158E-08-7.04452E-20-3.92527E-18
 -1      1163 9.67615E-05-2.90481E-05-2.90592E-05 1.91526E-08 1.03256E-19-4.32712E-18
 -1      1164 9.84790E-05-2.95718E-05-2.95955E-05 2.93037E-08 1.09097E-19-4.53915E-18
 -1      1165 1.00819E-04-3.02845E-05-3.03299E-05 5.15225E-08-1.34910E-19-6.09213E-18
 -1      1166 1.04124E-04-3.12849E-05-3.13702E-05 9.59452E-08-4.30746E-20-6.08180E-18
 -1      1167 1.08736E-04-3.26852E-05-3.28191E-05 1.76538E-07 7.46282E-20-4.76596E-18
 -1      1168 1.15343E-04-3.46714E-05-3.48877E-05 3.03415E-07-1.68143E-19-4.35513E-18
 -1      1169 1.24904E-04-3.75396E-05-3.78211E-05 5.21309E-07 3.44153E-19-3.81800E-18
 -1      1170 1.37822E-04-4.14112E-05-4.16233E-05 8.19740E-07-2.24725E-19-3.83685E-18
 -1      1171 1.53489E-04-4.61129E-05-4.58749E-05 1.06816E-06-5.26947E-20-3.70958E-18
 -1      1172 1.68162E-04-5.05232E-05-4.92634E-05 7.64777E-07-2.53316E-19-2.50981E-18
 -1      1173 1.73033E-04-5.18030E-05-4.96697E-05-8.00729E-07-1.94579E-19-2.81681E-18
 -1      1174 1.57653E-04-4.68133E-05-4.56150E-05-3.75540E-06-2.27362E-19-2.65968E-18
 -1      1175 1.20915E-04-3.52929E-05-3.82994E-05-5.83431E-06 3.76400E-20-3.53340E-18
 -1      1176 8.76949E-05-2.52321E-05-3.23881E-05-3.23469E-06-7.78212E-21-5.08686E-18
 -1      1177 8.14882E-05-2.39179E-05-3.12166E-05 2.01351E-06-3.48183E-19-1.01538E-17
 -1      1178 1.07765E-04-3.17345E-05-3.57193E-05 5.80806E-06 5.78629E-20-1.39079E-17
 -1      1179 1.47580E-04-4.35668E-05-4.34115E-05 4.81560E-06 3.29218E-19-1.10758E-17
 -1      1180 1.71172E-04-5.11554E-05-4.90054E-05 1.42466E-06-2.27746E-19-9.75930E-18
 -1      1181 1.70639E-04-5.11479E-05-4.97344E-05-6.47626E-07-2.37910E-19-7.12741E-18
 -1      1182 1.57627E-04-4.73514E-05-4.69180E-05-1.08525E-06 3.57249E-19-5.27871E-18
 -1      1183 1.41687E-04-4.25706E-05-4.27190E-05-9.01706E-07 3.34628E-19-2.12224E-18
 -1      1184 1.27975E-04-3.84615E-05-3.87453E-05-5.93820E-07-2.14418E-19-3.56326E-18
 -1      1185 1.17656E-04-3.53678E-05-3.56034E-05-3.51456E-07-1.51887E-19-3.83865E-18
 -1      1186 1.10361E-04-3.31716E-05-3.33296E-05-1.95587E-07 3.88351E-19-4.89551E-18
 -1      1187 1.05455E-04-3.16982E-05-3.17868E-05-9.61417E-08-6.35702E-19-5.74712E-18
 -1      1188 1.02108E-04-3.06755E-05-3.07313E-05-5.71849E-08 7.95003E-20-5.60840E-18
 -1      1189 9.97751E-05-2.99652E-05-2.99966E-05-2.85141E-08-1.59715E-19-6.66684E-18
 -1      1190 9.82017E-05-2.94845E-05-2.95022E-05-1.32553E-08 1.25342E-19-4.43161E-18
 -1      1191 9.71388E-05-2.91591E-05-2.91689E-05-5.23664E-09 4.42273E-19-3.26480E-18
 -1      1192 9.64200E-05-2.89382E-05-2.89441E-05-1.06463E-09 2.16979E-19-1.20160E-19
 -1      1193 9.59449E-05-2.87934E-05-2.87957E-05 1.86748E-09-7.54969E-19-7.67371E-19
 -1      1194 9.56249E-05-2.86941E-05-2.86961E-05 1.79419E-09 6.02247E-19-3.07416E-19
 -1      1195 9.54097E-05-2.86278E-05-2.86293E-05 2.36919E-09 2.95187E-19 1.61218E-18
 -1      1196 9.52790E-05-2.85872E-05-2.85889E-05 3.02348E-09-6.64687E-20 1.88652E-18
 -1      1197 9.52142E-05-2.85669E-05-2.85686E-05 4.32973E-09-4.16808E-19 1.35886E-18
 -1      1198 9.52056E-05-2.85651E-05-2.85625E-05 7.47553E-09-3.34073E-19-2.22915E-18
 -1      1199 9.52247E-05-2.85676E-05-2.85611E-05 4.04347E-09 5.64596E-19 1.06610E-18
 -1      1200 1.30928E-04-3.77006E-05-3.86245E-05 1.21657E-05-2.12076E-19 1.44868E-17
 -1      1201 9.64583E-05-2.81609E-05-3.12992E-05 8.01447E-07 3.67136E-20 1.29787E-17
 -1      1202 9.02841E-05-2.69049E-05-2.78456E-05 1.19862E-07 5.28932E-20 1.08982E-17
 -1      1203 8.82564E-05-2.64764E-05-2.66551E-05 9.95858E-09 4.73445E-20 9.44757E-18
 -1      1204 8.78720E-05-2.63913E-05-2.63961E-05-2.37551E-08 4.55694E-20 8.84022E-18
 -1      1205 8.82414E-05-2.64967E-05-2.64800E-05-3.23144E-08 4.99055E-20 7.95083E-18
 -1      1206 8.89635E-05-2.67052E-05-2.66914E-05-3.30905E-08-7.76512E-20 8.02471E-18
 -1      1207 8.98407E-05-2.69630E-05-2.69520E-05-3.10043E-08-9.17145E-20 8.40167E-18
 -1      1208 9.07692E-05-2.72384E-05-2.72289E-05-2.77799E-08-6.10221E-20 7.80249E-18
 -1      1209 9.16947E-05-2.75141E-05-2.75059E-05-2.42245E-08 3.09934E-21 7.12568E-18
 -1      1210 9.25925E-05-2.77820E-05-2.77754E-05-2.09743E-08 4.42786E-20 6.83106E-18
 -1      1211 9.34552E-05-2.80396E-05-2.80349E-05-1.85798E-08-2.59432E-21 5.67171E-18
 -1      1212 9.42830E-05-2.82866E-05-2.82839E-05-1.75382E-08 6.60228E-20 4.76900E-18
 -1      1213 9.50758E-05-2.85227E-05-2.85215E-05-1.82857E-08-4.92664E-22 4.67135E-18
 -1      1214 9.58241E-05-2.87448E-05-2.87441E-05-2.11261E-08-6.36748E-21 5.06923E-18
 -1      1215 9.65004E-05-2.89444E-05-2.89424E-05-2.60729E-08-1.05523E-19 4.81143E-18
 -1      1216 9.70493E-05-2.91049E-05-2.90990E-05-3.25925E-08-1.46777E-19 5.56814E-18
 -1      1217 9.73802E-05-2.91995E-05-2.91860E-05-3.92646E-08 1.24285E-19 5.13658E-18
 -1      1218 9.73637E-05-2.91902E-05-2.91648E-05-4.34577E-08 5.06648E-20 3.45943E-18
 -1      1219 9.68396E-05-2.90301E-05-2.89893E-05-4.12469E-08-2.48419E-20 3.76598E-18
 -1      1220 9.56413E-05-2.86710E-05-2.86139E-05-2.79357E-08 1.22712E-19 4.10004E-18
 -1      1221 9.36425E-05-2.80765E-05-2.80073E-05 4.18945E-10-1.10581E-19 4.73356E-18
 -1      1222 9.08248E-05-2.72413E-05-2.71718E-05 4.44242E-08 3.55977E-20 4.69595E-18
 -1      1223 8.73494E-05-2.62123E-05-2.61612E-05 9.85213E-08 3.15532E-20 3.27415E-18
 -1      1224 8.36001E-05-2.51007E-05-2.50896E-05 1.49841E-07-5.80013E-20 3.77570E-18
 -1      1225 8.01563E-05-2.40755E-05-2.41202E-05 1.80930E-07 1.03628E-19 3.39057E-18
 -1      1226 7.76709E-05-2.33297E-05-2.34305E-05 1.76782E-07-1.19313E-19 3.47579E-18
 -1      1227 7.66773E-05-2.30240E-05-2.31614E-05 1.33069E-07-3.67606E-19 4.30696E-18
 -1      1228 7.74028E-05-2.32306E-05-2.33710E-05 6.00502E-08-1.48661E-19 5.49703E-18
 -1      1229 7.96830E-05-2.39050E-05-2.40143E-05-2.13197E-08 1.41608E-19 3.88500E-18
 -1      1230 8.30242E-05-2.49022E-05-2.49588E-05-8.89480E-08 2.74389E-19 2.65251E-18
 -1      1231 8.67798E-05-2.60280E-05-2.60296E-05-1.28799E-07-2.15234E-19 2.23288E-18
 -1      1232 9.03497E-05-2.71007E-05-2.70603E-05-1.38422E-07-3.34235E-19 4.35690E-18
 -1      1233 9.33176E-05-2.79933E-05-2.79309E-05-1.24510E-07-3.38465E-19 4.09056E-18
 -1      1234 9.54922E-05-2.86472E-05-2.85812E-05-9.75578E-08 3.74120E-19 3.63885E-18
 -1      1235 9.68734E-05-2.90623E-05-2.90050E-05-6.72042E-08-3.92497E-21 1.83226E-18
 -1      1236 9.75816E-05-2.92749E-05-2.92318E-05-3.99236E-08 2.72221E-19-4.36045E-19
 -1      1237 9.77880E-05-2.93367E-05-2.93083E-05-1.87803E-08 1.23065E-19-1.41536E-18
 -1      1238 9.76643E-05-2.92995E-05-2.92835E-05-4.30962E-09 1.41116E-19-1.08025E-18
 -1      1239 9.73548E-05-2.92066E-05-2.91997E-05 4.37895E-09-5.82148E-20-2.56218E-18
 -1      1240 9.69662E-05-2.90900E-05-2.90891E-05 8.72002E-09 9.67235E-20-2.46067E-18
 -1      1241 9.65694E-05-2.89711E-05-2.89735E-05 1.01532E-08-2.41837E-19-1.71844E-18
 -1      1242 9.62061E-05-2.88622E-05-2.88661E-05 9.86914E-09-4.24309E-19-7.53017E-19
 -1      1243 9.58966E-05-2.87695E-05-2.87738E-05 8.73830E-09 5.78584E-20-2.15605E-18
 -1      1244 9.56478E-05-2.86949E-05-2.86991E-05 7.32650E-09-3.04517E-19-1.43307E-18
 -1      1245 9.54589E-05-2.86384E-05-2.86423E-05 5.93096E-09 3.88315E-19-3.50434E-18
 -1      1246 9.53265E-05-2.85987E-05-2.86025E-05 4.58481E-09 4.67764E-20-5.43761E-18
 -1      1247 9.52472E-05-2.85748E-05-2.85786E-05 2.82386E-09 1.59725E-19-3.70855E-18
 -1      1248 9.52189E-05-2.85659E-05-2.85679E-05-6.24039E-10 4.57800E-19-5.17774E-21
 -1      1249 9.52280E-05-2.85688E-05-2.85634E-05-3.09525E-09-5.51099E-19-1.57342E-18
 -1      1250 9.52396E-05-2.85807E-05-2.85637E-05-3.21488E-09-1.19731E-18 1.89332E-19
 -1      1251 9.52408E-05-2.85877E-05-2.85685E-05-4.16364E-09 1.55068E-18 5.21323E-19
 -1      1252 9.52320E-05-2.85575E-05-2.85792E-05 1.51047E-10 3.15347E-18-4.95105E-19
 -1      1253 9.52109E-05-2.84859E-05-2.85994E-05 2.72166E-09 5.27887E-19-2.62283E-19
 -1      1254 9.51824E-05-2.83886E-05-2.86267E-05 3.86389E-09-3.77886E-18-5.41177E-19
 -1      1255 9.51522E-05-2.82858E-05-2.86557E-05 3.88236E-09-3.92216E-18 2.05424E-20
 -1      1256 9.51258E-05-2.81954E-05-2.86813E-05 3.09697E-09-2.41471E-18 2.70731E-19
 -1      1257 9.51076E-05-2.81330E-05-2.86989E-05 1.60560E-09 5.85567E-20-1.19342E-19
 -1      1258 9.51013E-05-2.81114E-05-2.87049E-05-2.88719E-10-3.62494E-19 1.53491E-19
 -1      1259 9.51085E-05-2.81356E-05-2.86979E-05-2.26442E-09 1.64487E-18 2.83111E-19
 -1      1260 9.51283E-05-2.82031E-05-2.86787E-05-3.91641E-09 2.45852E-18-1.66867E-18
 -1      1261 9.51573E-05-2.83017E-05-2.86510E-05-4.81348E-09 1.23255E-18-1.93557E-19
 -1      1262 9.51899E-05-2.84134E-05-2.86198E-05-4.48102E-09-1.47241E-18-4.05524E-19
 -1      1263 9.52198E-05-2.85156E-05-2.85915E-05-2.62879E-09 5.44983E-18-3.22681E-19
 -1      1264 9.52395E-05-2.85837E-05-2.85723E-05 1.02035E-09 2.24580E-18-3.76875E-19
 -1      1265 9.52443E-05-2.85995E-05-2.85642E-05 8.07459E-09 4.17361E-19-1.85874E-18
 -1      1266 9.52406E-05-2.85841E-05-2.85615E-05 4.82554E-09-1.50787E-18 1.39210E-18
 -1      1267 3.57878E-05-1.12195E-04 1.96394E-05-1.32478E-05 9.30212E-18 3.98105E-19
 -1      1268 1.75096E-05-6.24440E-05 9.05726E-06-2.25221E-05 1.00492E-17 4.26905E-18
 -1      1269 8.81245E-06-2.31742E-06-8.38341E-06 7.12864E-06 1.10097E-17 6.24433E-18
 -1      1270 3.81858E-05 2.97555E-05-2.90025E-05 6.17253E-05 8.12643E-18 7.37935E-18
 -1      1271 1.15942E-04 1.51909E-05-5.03250E-05 1.09109E-04 6.44677E-18 9.41901E-18
 -1      1272 2.20598E-04-3.54720E-05-6.85706E-05 1.16483E-04 3.61683E-18 7.64278E-18
 -1      1273 3.03849E-04-8.51820E-05-7.96565E-05 6.35959E-05 5.23149E-19 2.17349E-18
 -1      1274 3.19861E-04-9.40464E-05-8.20611E-05-2.29157E-05 6.62644E-19-3.91414E-18
 -1      1275 2.68417E-04-6.26978E-05-7.51237E-05-9.55490E-05 2.59192E-18-9.00735E-18
 -1      1276 1.72487E-04-9.57223E-06-6.10366E-05-1.21022E-04 6.56196E-18-1.17534E-17
 -1      1277 7.86770E-05 2.76486E-05-4.20607E-05-9.47222E-05 1.18551E-17-1.41488E-17
 -1      1278 2.09590E-05 2.41184E-05-2.13894E-05-4.04874E-05 1.40404E-17-1.17551E-17
 -1      1279 8.13914E-06-2.06964E-05-1.84593E-06 7.60755E-06 1.38405E-17-6.82285E-18
 -1      1280 2.37117E-05-8.10154E-05 1.32222E-05 2.37313E-05 8.99634E-18-2.92015E-18
 -1      1281 3.89534E-05-1.20332E-04 2.12279E-05 5.15001E-06-1.85077E-18-1.26581E-18
 -1      1282 3.58699E-05-1.18679E-04 2.11297E-05-2.49948E-05-1.10762E-17-2.67951E-18
 -1      1283 1.66438E-05-7.48790E-05 1.20806E-05-3.62378E-05-1.46588E-17-6.29388E-18
 -1      1284 7.21236E-06-1.73126E-05-5.06652E-06-9.97336E-06-1.45825E-17-9.67820E-18
 -1      1285 4.35414E-05 1.59923E-05-2.85976E-05 5.11755E-05-9.47660E-18-9.86116E-18
 -1      1286 1.39353E-04-4.63663E-07-5.37223E-05 1.07252E-04-5.54129E-18-9.18014E-18
 -1      1287 2.69265E-04-5.65658E-05-7.54025E-05 1.10140E-04-2.52755E-18-5.13810E-18
 -1      1288 3.67667E-04-1.07666E-04-8.85373E-05 4.33707E-05-7.34907E-19 3.53001E-18
 -1      1289 3.62772E-04-1.05559E-04-8.76398E-05-5.32706E-05-2.82221E-18 1.56727E-17
 -1      1290 2.61056E-04-5.34735E-05-7.40819E-05-1.14933E-04-6.86520E-18 1.92666E-17
 -1      1291 1.26159E-04 4.02419E-06-5.13260E-05-1.04036E-04-1.02254E-17 1.71067E-17
 -1      1292 3.41114E-05 1.52976E-05-2.53192E-05-4.25960E-05-1.01407E-17 1.06862E-17
 -1      1293 6.73484E-06-2.54742E-05-2.10543E-06 1.66255E-05-2.01933E-18 3.52112E-18
 -1      1294 2.09791E-05-8.59700E-05 1.45713E-05 3.66605E-05 9.26485E-18-2.35009E-18
 -1      1295 3.94509E-05-1.23889E-04 2.19162E-05 1.75703E-05 1.17570E-17-1.41468E-18
 -1      1296 1.04591E-04-2.18524E-05-3.79962E-05-1.76458E-05-3.38178E-19 3.19564E-18
 -1      1297 9.02719E-05-6.65081E-06-3.60044E-05-2.04818E-05-7.69953E-19-1.64843E-18
 -1      1298 9.24727E-05-6.54470E-06-3.71740E-05-2.57816E-05-1.06980E-18-6.37233E-19
 -1      1299 8.58919E-05-4.08988E-06-3.51264E-05-1.64230E-05-6.59653E-19-2.97338E-18
 -1      1300 8.71348E-05-4.07993E-06-3.55913E-05-1.88369E-05-7.83188E-19-2.44422E-18
 -1      1301 9.21087E-05-1.04576E-05-3.50812E-05-1.90421E-05-1.28595E-18-1.38686E-18
 -1      1302 8.41137E-05-3.19375E-06-3.46916E-05-1.28062E-05-4.10533E-19-3.47939E-18
 -1      1303 8.47109E-05-3.16174E-06-3.49119E-05-1.46226E-05-5.27993E-19-3.27452E-18
 -1      1304 8.78654E-05-7.39189E-06-3.45725E-05-1.54053E-05-9.74551E-19-2.46135E-18
 -1      1305 8.32131E-05-2.72853E-06-3.44810E-05-9.67001E-06-2.02222E-19-3.60287E-18
 -1      1306 8.35230E-05-2.71191E-06-3.45876E-05-1.12179E-05-2.64579E-19-3.55922E-18
 -1      1307 8.58869E-05-5.98706E-06-3.43115E-05-1.19390E-05-5.99223E-19-2.89304E-18
 -1      1308 8.27272E-05-2.45553E-06-3.43790E-05-6.90017E-06-2.53746E-20-3.51012E-18
 -1      1309 8.28934E-05-2.44710E-06-3.44315E-05-8.27022E-06-8.32607E-20-3.55471E-18
 -1      1310 8.48484E-05-5.21434E-06-3.41854E-05-8.92498E-06-2.77440E-19-2.96652E-18
 -1      1311 8.24552E-05-2.28785E-06-3.43285E-05-4.28363E-06 1.62701E-19-3.34507E-18
 -1      1312 8.25447E-05-2.28397E-06-3.43548E-05-5.58282E-06 9.72831E-20-3.45341E-18
 -1      1313 8.42671E-05-4.75460E-06-3.41260E-05-6.20039E-06 4.28099E-20-2.90175E-18
 -1      1314 8.23232E-05-2.19668E-06-3.43072E-05-1.78445E-06 3.26592E-19-3.15942E-18
 -1      1315 8.23619E-05-2.19516E-06-3.43180E-05-3.03244E-06 2.77466E-19-3.26188E-18
 -1      1316 8.39459E-05-4.48704E-06-3.40992E-05-3.63336E-06 3.37169E-19-2.70013E-18
 -1      1317 8.22960E-05-2.16827E-06-3.43044E-05 6.68222E-07 4.89522E-19-2.91190E-18
 -1      1318 8.22953E-05-2.16834E-06-3.43042E-05-5.64091E-07 4.16755E-19-3.05898E-18
 -1      1319 8.38038E-05-4.36481E-06-3.40891E-05-1.16636E-06 6.21366E-19-2.57550E-18
 -1      1320 8.23673E-05-2.19871E-06-3.43185E-05 3.13954E-06 6.30960E-19-2.66070E-18
 -1      1321 8.23268E-05-2.20033E-06-3.43074E-05 1.88938E-06 5.89881E-19-2.81370E-18
 -1      1322 8.38071E-05-4.36834E-06-3.40891E-05 1.26974E-06 8.82287E-19-2.35622E-18
 -1      1323 8.25567E-05-2.29291E-06-3.43559E-05 5.69765E-06 7.65079E-19-2.30618E-18
 -1      1324 8.24645E-05-2.29625E-06-3.43292E-05 4.39331E-06 7.16702E-19-2.52077E-18
 -1      1325 8.39569E-05-4.49861E-06-3.40992E-05 3.74018E-06 1.10102E-18-2.07669E-18
 -1      1326 8.29103E-05-2.46040E-06-3.44327E-05 8.37523E-06 9.12943E-19-1.83115E-18
 -1      1327 8.27412E-05-2.46905E-06-3.43796E-05 6.99727E-06 8.50990E-19-2.11155E-18
 -1      1328 8.42862E-05-4.77462E-06-3.41256E-05 6.29218E-06 1.32970E-18-1.73004E-18
 -1      1329 8.35593E-05-2.73967E-06-3.45910E-05 1.13733E-05 1.11544E-18-1.09286E-18
 -1      1330 8.32433E-05-2.75668E-06-3.44831E-05 9.80914E-06 1.02331E-18-1.52496E-18
 -1      1331 8.48834E-05-5.25134E-06-3.41848E-05 9.03091E-06 1.57897E-18-1.20115E-18
 -1      1332 8.47692E-05-3.20637E-06-3.49182E-05 1.48223E-05 1.23979E-18 5.42630E-20
 -1      1333 8.41633E-05-3.24117E-06-3.46954E-05 1.29812E-05 1.14523E-18-6.42885E-19
 -1      1334 8.59576E-05-6.06041E-06-3.43118E-05 1.20960E-05 1.80634E-18-4.19361E-19
 -1      1335 8.72296E-05-4.08914E-06-3.56099E-05 1.90735E-05 1.23000E-18 1.99193E-18
 -1      1336 8.59629E-05-4.15453E-06-3.51319E-05 1.66766E-05 1.15858E-18 8.39807E-19
 -1      1337 8.79847E-05-7.51839E-06-3.45727E-05 1.56276E-05 1.91722E-18 8.37424E-19
 -1      1338 9.34141E-05-6.79025E-06-3.70962E-05 2.50743E-05 8.80914E-19 5.21285E-18
 -1      1339 9.00949E-05-6.43428E-06-3.60242E-05 2.11285E-05 9.17707E-19 3.28199E-18
 -1      1340 9.23250E-05-1.06920E-05-3.50663E-05 1.96550E-05 1.70696E-18 2.90765E-18
 -1      1341 1.23522E-04-2.49016E-05-3.89843E-05 2.83436E-05 2.65333E-19 1.04604E-17
 -1      1342 1.00012E-04-1.44120E-05-3.73293E-05 2.40315E-05 3.38707E-19 6.94758E-18
 -1      1343 1.01623E-04-1.93321E-05-3.53824E-05 2.13787E-05 1.30573E-18 5.74182E-18
 -1      1344 1.02516E-04-2.77797E-05-3.47298E-05 7.32180E-06 5.98905E-19 1.04471E-17
 -1      1345 1.05571E-04-3.00774E-05-3.37758E-05-8.46815E-06-9.08655E-19 3.70069E-18
 -1      1346 9.84707E-05-2.77856E-05-3.09251E-05-5.24151E-06-7.93511E-19 2.59605E-18
 -1      1347 9.57235E-05-2.78701E-05-2.93642E-05-2.60115E-06-7.09549E-19 2.23212E-18
 -1      1348 9.33815E-05-2.75720E-05-2.82700E-05-2.13797E-06-6.94461E-19 1.16494E-18
 -1      1349 9.96458E-05-2.79014E-05-3.11112E-05-8.25351E-06-1.42100E-18 8.26413E-19
 -1      1350 9.16320E-05-2.71997E-05-2.76090E-05-8.80013E-07-5.75638E-19 8.68579E-19
 -1      1351 9.08746E-05-2.70999E-05-2.72869E-05-7.65626E-07-4.97440E-19 1.67554E-20
 -1      1352 9.48273E-05-2.77668E-05-2.88709E-05-3.26915E-06-1.20856E-18 1.83197E-19
 -1      1353 9.01000E-05-2.69121E-05-2.70339E-05-1.87669E-07-2.81506E-19-4.14411E-19
 -1      1354 9.00150E-05-2.69366E-05-2.69936E-05-1.26939E-07-3.55433E-19-9.09594E-19
 -1      1355 9.25556E-05-2.74975E-05-2.79147E-05-1.10679E-06-8.56456E-19-3.11338E-19
 -1      1356 8.97520E-05-2.68700E-05-2.69178E-05 1.58798E-07-2.87750E-19-1.06068E-18
 -1      1357 8.99697E-05-2.69591E-05-2.69806E-05 1.89334E-07-2.08215E-19-1.38895E-18
 -1      1358 9.15725E-05-2.73512E-05-2.75366E-05-7.73699E-08-6.19059E-19-1.01774E-18
 -1      1359 8.99795E-05-2.69648E-05-2.69892E-05 3.29874E-07-1.93505E-19-1.48472E-18
 -1      1360 9.03209E-05-2.70820E-05-2.70883E-05 3.43194E-07-1.72555E-19-1.78241E-18
 -1      1361 9.13290E-05-2.73457E-05-2.74305E-05 4.37319E-07-4.02690E-19-1.30337E-18
 -1      1362 9.04872E-05-2.71323E-05-2.71426E-05 4.15670E-07-1.42826E-19-1.74509E-18
 -1      1363 9.09087E-05-2.72698E-05-2.72649E-05 4.21420E-07-1.87293E-19-2.01278E-18
 -1      1364 9.14859E-05-2.74218E-05-2.74619E-05 6.97904E-07-2.65680E-19-1.35614E-18
 -1      1365 9.11601E-05-2.73422E-05-2.73449E-05 4.53351E-07-3.47720E-20-1.93759E-18
 -1      1366 9.16049E-05-2.74832E-05-2.74745E-05 4.54118E-07 5.58696E-20-1.99869E-18
 -1      1367 9.18833E-05-2.75590E-05-2.75711E-05 8.27841E-07-1.91963E-19-1.28965E-18
 -1      1368 9.19054E-05-2.75693E-05-2.75691E-05 4.67446E-07 8.80610E-20-2.08053E-18
 -1      1369 9.23556E-05-2.77089E-05-2.77009E-05 4.66889E-07 2.56773E-20-2.08641E-18
 -1      1370 9.24149E-05-2.77254E-05-2.77261E-05 8.85603E-07-5.63020E-21-1.21513E-18
 -1      1371 9.26878E-05-2.78035E-05-2.78050E-05 4.77279E-07-3.57185E-20-2.13066E-18
 -1      1372 9.31427E-05-2.79420E-05-2.79389E-05 4.78074E-07-2.57863E-19-2.23755E-18
 -1      1373 9.30269E-05-2.79086E-05-2.79094E-05 9.16531E-07-1.52414E-19-1.23737E-18
 -1      1374 9.35045E-05-2.80447E-05-2.80523E-05 4.98364E-07-3.43147E-19-2.31928E-18
 -1      1375 9.39767E-05-2.81857E-05-2.81921E-05 5.03079E-07-2.64318E-19-2.72884E-18
 -1      1376 9.36997E-05-2.81034E-05-2.81146E-05 9.54960E-07-4.71095E-19-1.25247E-18
 -1      1377 9.43577E-05-2.82930E-05-2.83117E-05 5.43592E-07-8.12076E-20-2.97472E-18
 -1      1378 9.48489E-05-2.84380E-05-2.84574E-05 5.53435E-07-6.06514E-20-2.91187E-18
 -1      1379 9.44212E-05-2.83071E-05-2.83375E-05 1.02837E-06-4.10595E-19-1.36907E-18
 -1      1380 9.53112E-05-2.85669E-05-2.86029E-05 6.30124E-07-2.04154E-19-2.90371E-18
 -1      1381 9.59138E-05-2.87430E-05-2.87824E-05 6.51081E-07-1.37678E-19-3.10483E-18
 -1      1382 9.52368E-05-2.85314E-05-2.85932E-05 1.16737E-06-1.53934E-19-1.79604E-18
 -1      1383 9.64748E-05-2.88972E-05-2.89601E-05 7.81867E-07 7.89792E-20-3.35003E-18
 -1      1384 9.72299E-05-2.91165E-05-2.91855E-05 8.17395E-07 8.66422E-20-3.37693E-18
 -1      1385 9.62257E-05-2.87973E-05-2.89062E-05 1.41484E-06-1.64371E-19-2.16138E-18
 -1      1386 9.79437E-05-2.93102E-05-2.94132E-05 1.02696E-06-5.87761E-20-3.46905E-18
 -1      1387 9.89471E-05-2.96007E-05-2.97132E-05 1.08406E-06-4.26741E-19-3.83994E-18
 -1      1388 9.74530E-05-2.91198E-05-2.92986E-05 1.81929E-06-3.47300E-20-2.59701E-18
 -1      1389 9.98892E-05-2.98531E-05-3.00163E-05 1.40702E-06-2.93368E-19-3.65615E-18
 -1      1390 1.01281E-04-3.02559E-05-3.04327E-05 1.49551E-06 3.37291E-20-4.01400E-18
 -1      1391 9.90403E-05-2.95290E-05-2.98101E-05 2.45068E-06-4.08270E-19-2.23228E-18
 -1      1392 1.02555E-04-3.05958E-05-3.08460E-05 1.97807E-06 2.01402E-19-3.89992E-18
 -1      1393 1.04527E-04-3.11645E-05-3.14383E-05 2.11325E-06 2.77135E-19-3.57653E-18
 -1      1394 1.01154E-04-3.00654E-05-3.04951E-05 3.40481E-06 3.29595E-19-1.87408E-18
 -1      1395 1.06168E-04-3.15989E-05-3.19754E-05 2.77918E-06 4.19334E-19-3.35499E-18
 -1      1396 1.08836E-04-3.23805E-05-3.27725E-05 2.95669E-06 1.65668E-19-2.89147E-18
 -1      1397 1.03930E-04-3.07691E-05-3.13956E-05 4.75932E-06 3.30594E-19-1.17669E-18
 -1      1398 1.11159E-04-3.29931E-05-3.35363E-05 3.90055E-06-1.90702E-19-2.54189E-18
 -1      1399 1.15112E-04-3.41747E-05-3.47114E-05 4.17342E-06-8.30622E-20-2.61225E-18
 -1      1400 1.07673E-04-3.17245E-05-3.26088E-05 6.64770E-06 3.32527E-19-1.11997E-18
 -1      1401 1.18199E-04-3.49997E-05-3.57224E-05 5.36531E-06 3.95763E-19-2.34705E-18
 -1      1402 1.23622E-04-3.66777E-05-3.73072E-05 5.71121E-06 3.31177E-19-1.93198E-18
 -1      1403 1.12813E-04-3.31024E-05-3.42432E-05 9.18236E-06 2.74703E-19-2.98394E-19
 -1      1404 1.27557E-04-3.77922E-05-3.85578E-05 6.93448E-06-3.12277E-20-1.79031E-18
 -1      1405 1.34446E-04-4.00504E-05-4.04938E-05 7.27708E-06-1.96525E-19-1.94754E-18
 -1      1406 1.19540E-04-3.50894E-05-3.62866E-05 1.20834E-05 9.02222E-20-7.65718E-19
 -1      1407 1.39113E-04-4.15551E-05-4.18521E-05 7.84680E-06-4.86978E-20-1.92732E-18
 -1      1408 1.46519E-04-4.42352E-05-4.37711E-05 7.91630E-06 2.39518E-19-1.81583E-18
 -1      1409 1.27955E-04-3.80570E-05-3.85916E-05 1.43648E-05 1.32863E-19-1.29967E-19
 -1      1410 1.51397E-04-4.62019E-05-4.49170E-05 6.41224E-06 1.44829E-19-1.74256E-18
 -1      1411 1.56492E-04-4.85090E-05-4.59835E-05 5.56149E-06-1.53419E-19-1.93373E-18
 -1      1412 1.37683E-04-4.24370E-05-4.07609E-05 1.36122E-05 3.13998E-19-4.14199E-19
 -1      1413 1.60024E-04-5.04048E-05-4.64789E-05 7.25765E-07-2.16920E-19-1.25352E-18
 -1      1414 1.58364E-04-5.03799E-05-4.58259E-05-1.12353E-06-7.98329E-20-1.32561E-18
 -1      1415 1.46979E-04-4.79060E-05-4.22246E-05 6.64494E-06 1.09347E-19-5.35748E-20
 -1      1416 1.59749E-04-5.14450E-05-4.58123E-05-9.70815E-06-1.93282E-19-9.30042E-19
 -1      1417 1.47489E-04-4.68485E-05-4.32132E-05-1.26789E-05-3.64036E-19-9.83193E-19
 -1      1418 1.53482E-04-5.21022E-05-4.31179E-05-8.76959E-06 8.64768E-20 3.29840E-19
 -1      1419 1.44577E-04-4.45253E-05-4.32012E-05-1.80921E-05-3.46860E-19-1.57167E-18
 -1      1420 1.27775E-04-3.69517E-05-4.02976E-05-1.81771E-05-5.51524E-19-1.79825E-18
 -1      1421 1.52864E-04-4.98860E-05-4.43364E-05-2.62790E-05-7.95999E-19 1.33831E-18
 -1      1422 1.24009E-04-3.32946E-05-4.05357E-05-1.39676E-05-1.23434E-18-2.74079E-18
 -1      1423 1.14340E-04-2.85273E-05-3.90717E-05-1.08056E-05-1.47066E-18-4.15152E-18
 -1      1424 1.46034E-04-4.02304E-05-4.61529E-05-2.83916E-05-1.71905E-18-6.10870E-19
 -1      1425 1.12580E-04-2.70338E-05-3.91761E-05 1.98650E-06-2.06951E-18-5.65177E-18
 -1      1426 1.16603E-04-2.88307E-05-3.98452E-05 6.37870E-06-2.40621E-18-8.34306E-18
 -1      1427 1.39584E-04-3.10061E-05-4.79007E-05-8.58907E-06-3.53297E-18-3.01496E-18
 -1      1428 1.20202E-04-3.23914E-05-3.95773E-05 1.66993E-05-1.46050E-18-8.93196E-18
 -1      1429 1.36381E-04-4.00673E-05-4.21371E-05 1.78888E-05-1.23561E-19-9.24960E-18
 -1      1430 1.41693E-04-3.40887E-05-4.73381E-05 1.99346E-05-2.94217E-18-4.89167E-18
 -1      1431 1.41173E-04-4.39316E-05-4.20643E-05 1.58368E-05 1.34257E-18-9.72479E-18
 -1      1432 1.56679E-04-5.04245E-05-4.51348E-05 1.31744E-05 1.34471E-18-8.05909E-18
 -1      1433 1.50543E-04-4.62731E-05-4.51019E-05 2.93493E-05 4.34528E-19-6.48912E-18
 -1      1434 1.56729E-04-5.00949E-05-4.52577E-05 4.45741E-06 1.28696E-19-6.70172E-18
 -1      1435 1.61193E-04-5.13121E-05-4.65617E-05 1.82250E-06 4.31802E-19-6.30145E-18
 -1      1436 1.54240E-04-5.23062E-05-4.33802E-05 1.46859E-05 1.88463E-18-5.69920E-18
 -1      1437 1.57909E-04-4.92772E-05-4.62015E-05-4.29871E-06 6.67885E-19-4.95355E-18
 -1      1438 1.54259E-04-4.74861E-05-4.55299E-05-5.34604E-06 1.18955E-19-4.03362E-18
 -1      1439 1.49349E-04-4.93281E-05-4.25162E-05-3.01906E-06 1.43186E-18-2.74645E-18
 -1      1440 1.49493E-04-4.53638E-05-4.45168E-05-7.70674E-06 4.50919E-19-3.66146E-18
 -1      1441 1.42338E-04-4.26839E-05-4.27158E-05-7.78564E-06 1.49418E-18-2.51632E-18
 -1      1442 1.40288E-04-4.38007E-05-4.12385E-05-1.24710E-05 8.13310E-19-2.00800E-18
 -1      1443 1.37541E-04-4.10674E-05-4.13772E-05-7.56832E-06 7.69615E-19-2.37826E-18
 -1      1444 1.30415E-04-3.86748E-05-3.93968E-05-7.25539E-06-8.40085E-21-2.42347E-18
 -1      1445 1.30392E-04-3.90142E-05-3.92030E-05-1.45098E-05 1.07819E-18-2.16068E-18
 -1      1446 1.26262E-04-3.74783E-05-3.81052E-05-6.09836E-06-3.81032E-20-2.60584E-18
 -1      1447 1.20498E-04-3.56640E-05-3.64249E-05-5.73927E-06-8.27313E-20-2.86657E-18
 -1      1448 1.21623E-04-3.57483E-05-3.68946E-05-1.26800E-05-5.30521E-20-2.22071E-18
 -1      1449 1.17202E-04-3.47826E-05-3.53578E-05-4.49564E-06-3.67328E-19-2.61543E-18
 -1      1450 1.12960E-04-3.34967E-05-3.40943E-05-4.20222E-06-6.15515E-19-3.04286E-18
 -1      1451 1.14517E-04-3.35715E-05-3.47758E-05-9.79029E-06-8.00578E-20-2.28306E-18
 -1      1452 1.10479E-04-3.28523E-05-3.32827E-05-3.17362E-06-8.91502E-20-3.37813E-18
 -1      1453 1.07507E-04-3.19683E-05-3.23891E-05-2.95980E-06 2.12016E-19-3.64237E-18
 -1      1454 1.09066E-04-3.20857E-05-3.30548E-05-7.10580E-06-6.15310E-19-1.32645E-18
 -1      1455 1.05782E-04-3.15195E-05-3.18267E-05-2.22431E-06-5.23331E-19-3.74553E-18
 -1      1456 1.03812E-04-3.09443E-05-3.12349E-05-2.08443E-06-3.57190E-19-4.26514E-18
 -1      1457 1.05111E-04-3.10735E-05-3.17780E-05-5.03232E-06-7.68947E-20-2.57169E-18
 -1      1458 1.02490E-04-3.06006E-05-3.08064E-05-1.53163E-06-3.38764E-19-4.01788E-18
 -1      1459 1.01072E-04-3.01877E-05-3.03797E-05-1.42915E-06-5.87864E-19-4.19028E-18
 -1      1460 1.02228E-04-3.03404E-05-3.08388E-05-3.52489E-06-2.85635E-19-2.06452E-18
 -1      1461 1.00139E-04-2.99415E-05-3.00795E-05-1.04575E-06 4.38406E-20-3.89468E-18
 -1      1462 9.91786E-05-2.96637E-05-2.97905E-05-9.77339E-07 3.08399E-19-3.57605E-18
 -1      1463 1.00100E-04-2.98080E-05-3.01460E-05-2.42587E-06-8.97259E-20-1.55730E-18
 -1      1464 9.85210E-05-2.94883E-05-2.95805E-05-7.14335E-07-1.23491E-19-3.25608E-18
 -1      1465 9.78698E-05-2.93006E-05-2.93846E-05-6.68356E-07-2.97496E-19-3.13531E-18
 -1      1466 9.85896E-05-2.94270E-05-2.96553E-05-1.66559E-06 5.12574E-19-1.84847E-18
 -1      1467 9.74079E-05-2.91761E-05-2.92381E-05-4.88281E-07 4.00311E-19-3.35785E-18
 -1      1468 9.69661E-05-2.90491E-05-2.91052E-05-4.57237E-07 5.90450E-19-2.36576E-18
 -1      1469 9.75214E-05-2.91553E-05-2.93096E-05-1.14333E-06-1.86256E-19-2.05211E-18
 -1      1470 9.66425E-05-2.89613E-05-2.90031E-05-3.33509E-07 8.05824E-19-2.08607E-18
 -1      1471 9.63435E-05-2.88752E-05-2.89131E-05-3.12363E-07 5.08277E-19-1.63648E-18
 -1      1472 9.67683E-05-2.89617E-05-2.90668E-05-7.84395E-07 1.12945E-18-2.57125E-18
 -1      1473 9.61277E-05-2.88159E-05-2.88454E-05-2.30053E-07 2.89556E-19-1.23717E-18
 -1      1474 9.59333E-05-2.87603E-05-2.87869E-05-2.16311E-07 3.66598E-19-2.82944E-19
 -1      1475 9.62500E-05-2.88285E-05-2.89002E-05-5.40550E-07 8.03267E-19-1.49991E-18
 -1      1476 9.57739E-05-2.87165E-05-2.87371E-05-1.55252E-07 8.38314E-19-7.05854E-19
 -1      1477 9.56371E-05-2.86774E-05-2.86959E-05-1.44677E-07 5.10044E-19 9.48799E-20
 -1      1478 9.58855E-05-2.87322E-05-2.87835E-05-3.71013E-07 2.87387E-19-5.80301E-19
 -1      1479 9.55288E-05-2.86471E-05-2.86623E-05-1.00690E-07 5.62790E-19 3.47430E-19
 -1      1480 9.54416E-05-2.86223E-05-2.86360E-05-9.29734E-08 4.10134E-19 9.59577E-19
 -1      1481 9.56261E-05-2.86640E-05-2.87006E-05-2.46259E-07 8.27748E-19-1.40276E-18
 -1      1482 9.53707E-05-2.86022E-05-2.86143E-05-6.00778E-08 1.48432E-19-1.04151E-19
 -1      1483 9.53205E-05-2.85882E-05-2.85992E-05-5.40313E-08-4.31133E-19-3.32458E-19
 -1      1484 9.54513E-05-2.86176E-05-2.86451E-05-1.54885E-07-3.81882E-19-1.82128E-18
 -1      1485 9.52774E-05-2.85757E-05-2.85862E-05-2.81948E-08-6.75705E-19 2.10292E-19
 -1      1486 9.52567E-05-2.85707E-05-2.85796E-05-2.27794E-08-1.23639E-18-8.48924E-19
 -1      1487 9.53393E-05-2.85875E-05-2.86095E-05-8.51989E-08-9.11669E-19-1.74260E-18
 -1      1488 9.52332E-05-2.85630E-05-2.85725E-05-2.95104E-09 1.75416E-19-1.13374E-18
 -1      1489 9.52358E-05-2.85673E-05-2.85711E-05 2.40774E-09 1.16847E-18-6.07351E-19
 -1      1490 9.52740E-05-2.85708E-05-2.85882E-05-3.05344E-08-7.32985E-19-1.37980E-18
 -1      1491 9.52312E-05-2.85741E-05-2.85644E-05 8.35108E-09-5.77221E-19 5.77850E-19
 -1      1492 9.64982E-05-2.83383E-05-2.97482E-05 2.98885E-06 7.21063E-19 8.93948E-18
 -1      1493 1.02453E-04-2.93738E-05-3.21302E-05 4.45838E-06 5.88317E-19 9.84591E-18
 -1      1494 1.02257E-04-2.66972E-05-3.26840E-05 1.27713E-05 1.06154E-18 6.92449E-18
 -1      1495 9.19613E-05-2.74070E-05-2.77411E-05 1.14812E-06 4.81671E-19 7.51032E-18
 -1      1496 9.39074E-05-2.75644E-05-2.86534E-05 1.47010E-06 5.38038E-19 8.37639E-18
 -1      1497 9.64299E-05-2.80113E-05-2.95156E-05 4.85965E-06 1.03155E-18 5.90536E-18
 -1      1498 9.01484E-05-2.69901E-05-2.70474E-05 3.22397E-07 2.64460E-19 6.73497E-18
 -1      1499 9.07562E-05-2.70044E-05-2.73174E-05 4.84842E-07 2.21665E-19 7.03667E-18
 -1      1500 9.29950E-05-2.75569E-05-2.80852E-05 1.83899E-06 7.01661E-19 4.97293E-18
 -1      1501 8.96577E-05-2.68789E-05-2.68807E-05-6.89966E-08 3.25684E-19 6.14296E-18
 -1      1502 8.96825E-05-2.68122E-05-2.69043E-05 2.05575E-08 2.21097E-19 6.46463E-18
 -1      1503 9.14656E-05-2.72970E-05-2.75090E-05 4.95498E-07 3.92044E-19 4.32386E-18
 -1      1504 8.98274E-05-2.69416E-05-2.69345E-05-2.63353E-07 5.52060E-20 5.62734E-18
 -1      1505 8.95796E-05-2.68280E-05-2.68633E-05-2.11343E-07 1.29050E-19 5.89691E-18
 -1      1506 9.09670E-05-2.72270E-05-2.73233E-05-1.66132E-07 3.62381E-19 4.01177E-18
 -1      1507 9.03354E-05-2.71000E-05-2.70897E-05-3.56635E-07-1.61148E-19 5.83089E-18
 -1      1508 8.99596E-05-2.69635E-05-2.69794E-05-3.26404E-07-1.47562E-19 5.64548E-18
 -1      1509 9.10295E-05-2.72825E-05-2.73266E-05-5.00907E-07-1.06134E-19 3.72018E-18
 -1      1510 9.10098E-05-2.73056E-05-2.72934E-05-3.95109E-07 2.15677E-19 5.68243E-18
 -1      1511 9.05798E-05-2.71616E-05-2.71670E-05-3.77826E-07 1.28910E-19 5.81323E-18
 -1      1512 9.13979E-05-2.74122E-05-2.74281E-05-6.64157E-07 1.44947E-20 3.59992E-18
 -1      1513 9.17555E-05-2.75308E-05-2.75183E-05-4.03704E-07 1.29534E-19 5.13309E-18
 -1      1514 9.13107E-05-2.73878E-05-2.73872E-05-3.94046E-07 1.34790E-19 5.36636E-18
 -1      1515 9.19281E-05-2.75814E-05-2.75817E-05-7.32709E-07 3.67021E-19 3.37278E-18
 -1      1516 9.25211E-05-2.77608E-05-2.77492E-05-3.97581E-07 8.78006E-20 5.04114E-18
 -1      1517 9.20812E-05-2.76226E-05-2.76192E-05-3.92080E-07 6.69810E-21 5.02741E-18
 -1      1518 9.25370E-05-2.77687E-05-2.77615E-05-7.50148E-07 1.41683E-19 3.22851E-18
 -1      1519 9.32811E-05-2.79883E-05-2.79786E-05-3.85698E-07 2.43746E-19 4.63915E-18
 -1      1520 9.28546E-05-2.78562E-05-2.78522E-05-3.82160E-07 1.91949E-19 4.83939E-18
 -1      1521 9.31782E-05-2.79623E-05-2.79527E-05-7.42451E-07 2.44086E-19 2.81007E-18
 -1      1522 9.40245E-05-2.82108E-05-2.82028E-05-3.72449E-07 3.35288E-19 3.92937E-18
 -1      1523 9.36135E-05-2.80843E-05-2.80809E-05-3.69701E-07 2.55108E-19 4.29573E-18
 -1      1524 9.38268E-05-2.81565E-05-2.81471E-05-7.24271E-07 3.99031E-19 2.76912E-18
 -1      1525 9.47457E-05-2.84272E-05-2.84200E-05-3.58282E-07 2.09239E-19 3.53802E-18
 -1      1526 9.43506E-05-2.83059E-05-2.83028E-05-3.56110E-07 2.62277E-19 3.75163E-18
 -1      1527 9.44692E-05-2.83486E-05-2.83398E-05-7.01608E-07 4.17391E-19 2.78643E-18
 -1      1528 9.54363E-05-2.86355E-05-2.86271E-05-3.39740E-07-1.83576E-19 3.45669E-18
 -1      1529 9.50601E-05-2.85201E-05-2.85159E-05-3.38958E-07-1.20466E-19 3.25384E-18
 -1      1530 9.50951E-05-2.85370E-05-2.85268E-05-6.72710E-07 2.16499E-19 2.54243E-18
 -1      1531 9.60774E-05-2.88309E-05-2.88180E-05-3.09265E-07-1.97899E-19 3.45468E-18
 -1      1532 9.57298E-05-2.87246E-05-2.87159E-05-3.11858E-07-3.49858E-20 3.38650E-18
 -1      1533 9.56903E-05-2.87191E-05-2.87030E-05-6.28102E-07-1.90607E-19 2.09463E-18
 -1      1534 9.66310E-05-2.90026E-05-2.89808E-05-2.55125E-07-3.31738E-19 3.99592E-18
 -1      1535 9.63332E-05-2.89124E-05-2.88945E-05-2.64367E-07-1.19564E-19 3.70255E-18
 -1      1536 9.62295E-05-2.88887E-05-2.88598E-05-5.50415E-07-2.59539E-19 2.69345E-18
 -1      1537 9.70330E-05-2.91320E-05-2.90959E-05-1.62004E-07 9.00394E-20 3.85067E-18
 -1      1538 9.68216E-05-2.90703E-05-2.90364E-05-1.82410E-07-2.91432E-20 3.79615E-18
 -1      1539 9.66695E-05-2.90346E-05-2.89833E-05-4.14883E-07-7.07454E-20 2.43953E-18
 -1      1540 9.71884E-05-2.91904E-05-2.91348E-05-1.30032E-08 6.31486E-19 3.15528E-18
 -1      1541 9.71183E-05-2.91757E-05-2.91184E-05-4.98920E-08 5.24586E-19 3.76164E-18
 -1      1542 9.69449E-05-2.91378E-05-2.90532E-05-1.91673E-07 5.39709E-19 1.82666E-18
 -1      1543 9.69736E-05-2.91396E-05-2.90611E-05 2.06030E-07-2.11330E-19 2.38286E-18
 -1      1544 9.71165E-05-2.91958E-05-2.91085E-05 1.47671E-07 1.81432E-19 2.49828E-18
 -1      1545 9.69656E-05-2.91706E-05-2.90429E-05 1.48420E-07 7.71688E-19 1.73123E-18
 -1      1546 9.62496E-05-2.89349E-05-2.88352E-05 4.99259E-07-3.56316E-20 2.67115E-18
 -1      1547 9.66858E-05-2.90889E-05-2.89691E-05 4.16823E-07-2.24340E-19 2.49476E-18
 -1      1548 9.66234E-05-2.90971E-05-2.89217E-05 6.23489E-07-3.87428E-19 1.53494E-18
 -1      1549 9.48922E-05-2.85342E-05-2.84231E-05 8.51166E-07-6.20716E-20 3.46949E-18
 -1      1550 9.56929E-05-2.88093E-05-2.86626E-05 7.47336E-07-9.14696E-20 3.32167E-18
 -1      1551 9.58079E-05-2.88769E-05-2.86609E-05 1.22500E-06-4.01560E-19 2.37797E-18
 -1      1552 9.28397E-05-2.79128E-05-2.78111E-05 1.21715E-06 2.42754E-19 3.48771E-18
 -1      1553 9.40381E-05-2.83188E-05-2.81634E-05 1.10293E-06 3.08704E-20 3.27260E-18
 -1      1554 9.44371E-05-2.84740E-05-2.82424E-05 1.89994E-06-1.72623E-19 2.93785E-18
 -1      1555 9.01515E-05-2.70831E-05-2.70212E-05 1.52036E-06 3.61583E-19 2.52772E-18
 -1      1556 9.17090E-05-2.76044E-05-2.74725E-05 1.41648E-06 1.57879E-19 2.77522E-18
 -1      1557 9.25008E-05-2.78721E-05-2.76712E-05 2.53823E-06 6.03974E-19 1.58348E-18
 -1      1558 8.70582E-05-2.61132E-05-2.61239E-05 1.66245E-06-2.24002E-19 2.00221E-18
 -1      1559 8.88357E-05-2.66992E-05-2.66322E-05 1.59682E-06 2.54593E-19 2.17878E-18
 -1      1560 9.01064E-05-2.70939E-05-2.69853E-05 2.97801E-06 4.71277E-19 7.87701E-19
 -1      1561 8.39703E-05-2.51329E-05-2.52376E-05 1.55309E-06 5.41646E-20 2.76683E-18
 -1      1562 8.57255E-05-2.56978E-05-2.57336E-05 1.55279E-06-3.59049E-19 2.41983E-18
 -1      1563 8.75088E-05-2.62168E-05-2.62607E-05 3.04097E-06-3.68304E-19 6.48185E-19
 -1      1564 8.14170E-05-2.43155E-05-2.45098E-05 1.15212E-06-2.89804E-19 3.12673E-18
 -1      1565 8.28432E-05-2.47537E-05-2.49088E-05 1.23150E-06 9.52250E-21 3.01378E-18
 -1      1566 8.50953E-05-2.53752E-05-2.56033E-05 2.59810E-06-8.47562E-20 1.66894E-18
 -1      1567 7.99113E-05-2.38327E-05-2.40808E-05 5.04248E-07-5.02870E-19 3.39801E-18
 -1      1568 8.07180E-05-2.40489E-05-2.43042E-05 6.55007E-07-3.22021E-19 3.07531E-18
 -1      1569 8.33098E-05-2.47359E-05-2.51272E-05 1.64313E-06-5.77418E-19 2.72584E-18
 -1      1570 7.97848E-05-2.37962E-05-2.40402E-05-2.59479E-07-2.42073E-19 4.09278E-18
 -1      1571 7.97928E-05-2.37390E-05-2.40405E-05-6.91889E-08-2.77906E-19 3.46218E-18
 -1      1572 8.25263E-05-2.44474E-05-2.49244E-05 3.30856E-07-3.53100E-19 3.21429E-18
 -1      1573 8.10670E-05-2.42146E-05-2.43968E-05-9.63977E-07 1.19425E-19 3.34546E-18
 -1      1574 8.02738E-05-2.38967E-05-2.41739E-05-7.78625E-07-2.36127E-19 3.58849E-18
 -1      1575 8.29205E-05-2.45838E-05-2.50361E-05-1.05621E-06 4.38670E-20 2.58992E-18
 -1      1576 8.34741E-05-2.49901E-05-2.50758E-05-1.45703E-06 1.67506E-19 2.69841E-18
 -1      1577 8.20552E-05-2.44837E-05-2.46769E-05-1.31639E-06 2.64393E-19 3.19564E-18
 -1      1578 8.44048E-05-2.51125E-05-2.54397E-05-2.20808E-06 1.25199E-19 1.49299E-18
 -1      1579 8.65146E-05-2.59571E-05-2.59443E-05-1.66341E-06 1.63665E-19 1.79083E-18
 -1      1580 8.47584E-05-2.53664E-05-2.54477E-05-1.58867E-06 5.03770E-19 2.60279E-18
 -1      1581 8.66616E-05-2.59079E-05-2.60560E-05-2.90248E-06 5.51787E-19 1.56589E-18
 -1      1582 8.96533E-05-2.69403E-05-2.68538E-05-1.59828E-06-6.68067E-19 2.48281E-18
 -1      1583 8.78661E-05-2.63667E-05-2.63438E-05-1.58852E-06-4.91095E-19 1.38843E-18
 -1      1584 8.92568E-05-2.68016E-05-2.67750E-05-3.07247E-06-1.52317E-19 1.73364E-18
 -1      1585 9.24556E-05-2.78029E-05-2.76789E-05-1.34091E-06 1.13392E-19 2.63163E-18
 -1      1586 9.08802E-05-2.73194E-05-2.72242E-05-1.37931E-06-9.74617E-20 2.61167E-18
 -1      1587 9.17745E-05-2.76403E-05-2.74866E-05-2.79828E-06-4.80615E-19 1.20059E-18
 -1      1588 9.46629E-05-2.84688E-05-2.83403E-05-9.91777E-07 3.20185E-19 2.26466E-18
 -1      1589 9.34384E-05-2.81108E-05-2.79822E-05-1.05583E-06 1.01118E-19 2.21021E-18
 -1      1590 9.39132E-05-2.83227E-05-2.81059E-05-2.24453E-06 3.29152E-19 8.10002E-19
 -1      1591 9.61930E-05-2.89191E-05-2.88084E-05-6.37405E-07-1.64885E-19 2.00961E-18
 -1      1592 9.53576E-05-2.86892E-05-2.85602E-05-7.07227E-07 1.14407E-19 2.36477E-18
 -1      1593 9.55203E-05-2.88082E-05-2.85847E-05-1.58703E-06 1.44058E-19 1.05316E-18
 -1      1594 9.70955E-05-2.91753E-05-2.90923E-05-3.33512E-07 5.36920E-19 1.59105E-18
 -1      1595 9.66140E-05-2.90552E-05-2.89460E-05-3.95835E-07 3.57764E-19 1.87902E-18
 -1      1596 9.65749E-05-2.91034E-05-2.89101E-05-9.62397E-07 5.06049E-19 2.18421E-18
 -1      1597 9.74927E-05-2.92791E-05-2.92245E-05-1.04584E-07 4.90520E-19-1.12589E-18
 -1      1598 9.72913E-05-2.92412E-05-2.91603E-05-1.53033E-07 9.27132E-19 5.32694E-19
 -1      1599 9.71442E-05-2.92420E-05-2.90958E-05-4.50111E-07 1.33740E-18 8.25645E-19
 -1      1600 9.75291E-05-2.92768E-05-2.92462E-05 4.78861E-08 5.30388E-20-6.00704E-19
 -1      1601 9.75238E-05-2.92933E-05-2.92405E-05 1.45161E-08 2.43679E-20-6.19577E-19
 -1      1602 9.73383E-05-2.92673E-05-2.91695E-05-7.83756E-08 2.39255E-19-8.98575E-20
 -1      1603 9.73389E-05-2.92098E-05-2.91969E-05 1.35339E-07 5.73737E-19-8.95959E-19
 -1      1604 9.74537E-05-2.92570E-05-2.92277E-05 1.15247E-07 1.36082E-19-5.95952E-19
 -1      1605 9.72742E-05-2.92200E-05-2.91637E-05 1.59451E-07 8.25989E-20 5.60142E-20
 -1      1606 9.70298E-05-2.91104E-05-2.91091E-05 1.74043E-07-2.30668E-20-8.49501E-19
 -1      1607 9.72050E-05-2.91710E-05-2.91589E-05 1.64186E-07 6.37293E-20-7.49401E-19
 -1      1608 9.70554E-05-2.91333E-05-2.91081E-05 2.87932E-07 1.84451E-19 4.58183E-19
 -1      1609 9.66792E-05-2.90013E-05-2.90067E-05 1.79987E-07-1.59167E-19-5.62135E-19
 -1      1610 9.68728E-05-2.90636E-05-2.90627E-05 1.77212E-07 2.83483E-20-5.09358E-19
 -1      1611 9.67621E-05-2.90313E-05-2.90269E-05 3.36907E-07-1.80771E-19 1.41953E-18
 -1      1612 9.63368E-05-2.88966E-05-2.89051E-05 1.66382E-07 5.85879E-20 7.71776E-20
 -1      1613 9.65226E-05-2.89539E-05-2.89595E-05 1.68002E-07-5.20864E-19-5.90624E-19
 -1      1614 9.64505E-05-2.89294E-05-2.89375E-05 3.33994E-07-7.00485E-19 1.71920E-18
 -1      1615 9.60308E-05-2.88041E-05-2.88135E-05 1.42900E-07-3.25985E-19-3.59119E-19
 -1      1616 9.61945E-05-2.88531E-05-2.88618E-05 1.46904E-07-5.34887E-19-4.30633E-19
 -1      1617 9.61558E-05-2.88369E-05-2.88512E-05 3.01213E-07-2.36247E-19 1.32123E-18
 -1      1618 9.57742E-05-2.87272E-05-2.87362E-05 1.15873E-07 3.12500E-19-3.43340E-19
 -1      1619 9.59096E-05-2.87667E-05-2.87764E-05 1.20922E-07 5.71826E-19 3.67678E-19
 -1      1620 9.58974E-05-2.87579E-05-2.87745E-05 2.54226E-07 4.10329E-19 1.01369E-18
 -1      1621 9.55706E-05-2.86665E-05-2.86747E-05 8.88801E-08 6.78813E-19-1.17886E-18
 -1      1622 9.56765E-05-2.86966E-05-2.87062E-05 9.42164E-08 5.10199E-20-1.10739E-18
 -1      1623 9.56834E-05-2.86939E-05-2.87104E-05 2.02948E-07 3.93981E-19 4.68816E-19
 -1      1624 9.54185E-05-2.86212E-05-2.86287E-05 6.34207E-08-9.09783E-20-1.85296E-18
 -1      1625 9.54961E-05-2.86427E-05-2.86518E-05 6.87560E-08 7.99905E-19-9.47509E-19
 -1      1626 9.55154E-05-2.86442E-05-2.86598E-05 1.52673E-07 8.24681E-19-4.37684E-19
 -1      1627 9.53149E-05-2.85904E-05-2.85974E-05 3.96372E-08-2.51835E-19-3.11181E-18
 -1      1628 9.53658E-05-2.86038E-05-2.86126E-05 4.50304E-08-1.33706E-19-2.72259E-18
 -1      1629 9.53913E-05-2.86077E-05-2.86224E-05 1.05376E-07 3.95153E-19 7.69464E-19
 -1      1630 9.52559E-05-2.85730E-05-2.85793E-05 1.70095E-08-1.22002E-18-1.20765E-18
 -1      1631 9.52818E-05-2.85786E-05-2.85873E-05 2.28704E-08-1.31656E-18-2.58308E-18
 -1      1632 9.53073E-05-2.85828E-05-2.85971E-05 6.12556E-08-1.64710E-18-4.81512E-19
 -1      1633 9.52363E-05-2.85690E-05-2.85708E-05-1.64050E-09 8.44830E-19 4.13557E-20
 -1      1634 9.52397E-05-2.85672E-05-2.85737E-05 3.48294E-09 3.95771E-19 2.09177E-20
 -1      1635 9.52585E-05-2.85698E-05-2.85815E-05 2.08914E-08-1.73614E-19-1.53341E-19
 -1      1636 9.52338E-05-2.85728E-05-2.85672E-05-4.86814E-09 1.90746E-19-7.84169E-20
 -1      1637 9.52398E-05-2.85605E-05-2.85774E-05 1.14486E-08 1.74050E-18 7.49218E-19
 -1      1638 9.52406E-05-2.85669E-05-2.85738E-05 6.82452E-09 3.13374E-19 1.88434E-18
 -1      1639 9.52246E-05-2.85124E-05-2.85915E-05 3.27368E-08 1.87104E-18-5.05388E-19
 -1      1640 9.52331E-05-2.85385E-05-2.85838E-05 2.85466E-08 2.37502E-18-9.46033E-19
 -1      1641 9.52362E-05-2.85305E-05-2.85890E-05 4.11316E-08 1.77914E-18 2.85784E-19
 -1      1642 9.51999E-05-2.84377E-05-2.86127E-05 4.86199E-08-1.19272E-18-1.95478E-18
 -1      1643 9.52138E-05-2.84795E-05-2.86008E-05 4.60143E-08 1.54566E-18-1.21581E-18
 -1      1644 9.52163E-05-2.84744E-05-2.86047E-05 7.77306E-08 1.02150E-18-1.47434E-18
 -1      1645 9.51705E-05-2.83486E-05-2.86381E-05 5.53706E-08-2.22720E-18-2.49124E-19
 -1      1646 9.51867E-05-2.83979E-05-2.86240E-05 5.47900E-08-1.38204E-18-1.19479E-18
 -1      1647 9.51898E-05-2.84004E-05-2.86245E-05 1.01004E-07-8.35876E-20-2.65000E-18
 -1      1648 9.51419E-05-2.82616E-05-2.86630E-05 5.23919E-08-2.17794E-18 4.10770E-19
 -1      1649 9.51573E-05-2.83084E-05-2.86496E-05 5.37041E-08-2.22437E-18 6.27453E-21
 -1      1650 9.51608E-05-2.83192E-05-2.86462E-05 1.06167E-07-1.10105E-18-8.32296E-19
 -1      1651 9.51178E-05-2.81883E-05-2.86840E-05 4.03186E-08-1.53919E-19 1.38439E-18
 -1      1652 9.51301E-05-2.82258E-05-2.86733E-05 4.33452E-08-1.90085E-18 9.95386E-19
 -1      1653 9.51335E-05-2.82423E-05-2.86669E-05 9.31283E-08-3.17579E-19 1.60331E-19
 -1      1654 9.51028E-05-2.81429E-05-2.86970E-05 2.10367E-08-1.01086E-19-3.14150E-19
 -1      1655 9.51096E-05-2.81635E-05-2.86911E-05 2.52880E-08-5.50331E-19 1.34503E-18
 -1      1656 9.51117E-05-2.81811E-05-2.86833E-05 6.38830E-08 5.33249E-19 5.84967E-19
 -1      1657 9.50997E-05-2.81340E-05-2.86995E-05-2.47994E-09 1.19845E-18 7.73241E-19
 -1      1658 9.50996E-05-2.81334E-05-2.86997E-05 2.34513E-09-4.59985E-20 8.42906E-19
 -1      1659 9.50992E-05-2.81461E-05-2.86926E-05 2.29537E-08 7.00877E-19 8.90926E-19
 -1      1660 9.51094E-05-2.81640E-05-2.86908E-05-2.63831E-08 1.06904E-18-1.36785E-19
 -1      1661 9.51020E-05-2.81417E-05-2.86972E-05-2.17976E-08 3.22151E-19 1.01211E-18
 -1      1662 9.50982E-05-2.81439E-05-2.86930E-05-2.32404E-08 4.87699E-19-6.36655E-19
 -1      1663 9.51306E-05-2.82288E-05-2.86722E-05-4.63242E-08 1.88767E-18-1.12941E-18
 -1      1664 9.51172E-05-2.81882E-05-2.86838E-05-4.28702E-08 2.82362E-18-1.74689E-18
 -1      1665 9.51094E-05-2.81757E-05-2.86844E-05-6.68647E-08 7.10286E-19 3.52044E-19
 -1      1666 9.51595E-05-2.83160E-05-2.86474E-05-5.79956E-08 1.10280E-18-7.91422E-19
 -1      1667 9.51425E-05-2.82651E-05-2.86618E-05-5.64807E-08 2.09321E-18-1.01409E-18
 -1      1668 9.51313E-05-2.82366E-05-2.86682E-05-9.94575E-08 2.10768E-18-1.83696E-18
 -1      1669 9.51917E-05-2.84121E-05-2.86202E-05-5.85373E-08 7.22480E-19 1.53232E-19
 -1      1670 9.51740E-05-2.83595E-05-2.86351E-05-5.94898E-08 4.58712E-19 2.53922E-19
 -1      1671 9.51606E-05-2.83172E-05-2.86469E-05-1.14083E-07 1.23484E-18-8.73547E-20
 -1      1672 9.52199E-05-2.84965E-05-2.85964E-05-4.66341E-08 2.68377E-18-1.97826E-19
 -1      1673 9.52059E-05-2.84543E-05-2.86084E-05-5.00639E-08 1.17580E-18 1.45857E-18
 -1      1674 9.51925E-05-2.84044E-05-2.86241E-05-1.06103E-07 1.26257E-18 1.28565E-18
 -1      1675 9.52388E-05-2.85532E-05-2.85802E-05-2.39618E-08 1.07067E-18-1.91487E-18
 -1      1676 9.52317E-05-2.85306E-05-2.85870E-05-3.02592E-08 2.17420E-18-1.63980E-18
 -1      1677 9.52210E-05-2.84823E-05-2.86035E-05-7.65189E-08 1.39048E-18-1.32749E-18
 -1      1678 2.14141E-05-6.81032E-05 1.43511E-05-1.82797E-06 6.43576E-18-1.42937E-19
 -1      1679 2.56264E-05-8.22593E-05 1.75297E-05 6.13839E-06 7.46998E-18 9.99499E-20
 -1      1680 2.07645E-05-3.60955E-05 2.76905E-06 8.16491E-06 7.93670E-18 5.49619E-18
 -1      1681 2.54797E-05-6.15434E-05 9.60607E-06 3.18505E-06 6.17402E-18 2.61310E-18
 -1      1682 4.17651E-05-9.86946E-06-1.49333E-05 3.72449E-05 7.30312E-18 4.18688E-18
 -1      1683 3.40306E-05-3.05858E-05-5.37884E-06 1.81424E-05 7.51318E-18 3.99164E-18
 -1      1684 7.96500E-05 2.24929E-06-3.40562E-05 6.71781E-05 5.88010E-18 7.32006E-18
 -1      1685 5.39816E-05-1.99128E-06-2.41093E-05 4.44774E-05 6.71104E-18 5.42609E-18
 -1      1686 1.52618E-04-1.92614E-05-5.36360E-05 7.93626E-05 4.41982E-18 5.88180E-18
 -1      1687 1.08923E-04-5.81255E-06-4.35286E-05 6.76860E-05 5.35833E-18 5.90128E-18
 -1      1688 2.20805E-04-4.46978E-05-6.95346E-05 7.12485E-05 2.97690E-18 4.67562E-18
 -1      1689 1.76211E-04-2.22831E-05-6.24646E-05 8.22011E-05 4.34316E-18 5.91907E-18
 -1      1690 2.63616E-04-6.62841E-05-7.81431E-05 2.34095E-05 1.71249E-18-2.50510E-19
 -1      1691 2.39471E-04-5.19394E-05-7.46784E-05 5.78429E-05 2.31229E-18 2.65630E-18
 -1      1692 2.49170E-04-5.72693E-05-7.69514E-05-3.07663E-05 2.17942E-18-2.86932E-18
 -1      1693 2.57875E-04-6.21409E-05-7.81440E-05 4.79475E-06 1.53758E-18-6.07429E-19
 -1      1694 2.09576E-04-3.74558E-05-6.92704E-05-7.17814E-05 3.50862E-18-6.27313E-18
 -1      1695 2.44350E-04-5.69594E-05-7.45401E-05-4.84038E-05 2.65587E-18-3.96327E-18
 -1      1696 1.44541E-04-1.05975E-05-5.49456E-05-8.25591E-05 6.54121E-18-8.06121E-18
 -1      1697 1.88988E-04-3.05553E-05-6.30173E-05-8.22194E-05 4.47509E-18-6.89485E-18
 -1      1698 8.19075E-05 2.35667E-06-3.62869E-05-6.35984E-05 9.31736E-18-9.11916E-18
 -1      1699 1.19217E-04-4.61749E-06-4.62524E-05-8.20599E-05 7.81981E-18-8.24925E-18
 -1      1700 4.26108E-05-8.94342E-06-1.71230E-05-3.32630E-05 9.60112E-18-7.37512E-18
 -1      1701 6.06726E-05 2.48575E-06-2.68044E-05-5.61755E-05 9.37157E-18-9.62653E-18
 -1      1702 2.77373E-05-4.02916E-05 5.16281E-07-9.32404E-06 8.58722E-18-4.96150E-18
 -1      1703 2.96017E-05-1.56478E-05-8.27307E-06-2.47200E-05 9.68752E-18-5.90848E-18
 -1      1704 2.55189E-05-7.07451E-05 1.30198E-05-1.62655E-06 3.70662E-18-3.10639E-18
 -1      1705 1.96712E-05-4.80364E-05 7.49565E-06-1.38405E-06 7.39544E-18-4.53311E-18
 -1      1706 2.50115E-05-8.36018E-05 1.83815E-05-8.59416E-06-3.35383E-18-3.24414E-18
 -1      1707 2.27093E-05-7.51305E-05 1.63865E-05 1.42766E-06 1.66527E-18-3.49867E-18
 -1      1708 2.09676E-05-7.34313E-05 1.60985E-05-1.38519E-05-7.97990E-18-3.79513E-18
 -1      1709 2.52086E-05-8.35740E-05 1.82025E-05-5.35994E-06-4.70400E-18-2.55740E-18
 -1      1710 2.16471E-05-4.58029E-05 5.11368E-06-3.53767E-06-9.55114E-18-5.62472E-18
 -1      1711 2.58531E-05-6.87663E-05 1.16987E-05-7.76729E-06-8.38054E-18-3.82552E-18
 -1      1712 3.85763E-05-1.86371E-05-1.20904E-05 2.22175E-05-8.93027E-18-5.19485E-18
 -1      1713 3.11159E-05-3.98384E-05-2.40857E-06 2.66414E-06-1.03313E-17-5.48327E-18
 -1      1714 1.01339E-04-1.83616E-05-3.55268E-05 5.73856E-05-5.37951E-18-5.46252E-18
 -1      1715 6.72551E-05-2.22861E-05-2.29877E-05 3.12823E-05-7.50979E-18-5.38713E-18
 -1      1716 1.78343E-04-3.46351E-05-5.76612E-05 7.32410E-05-3.21957E-18-4.61802E-18
 -1      1717 1.27076E-04-1.88120E-05-4.66438E-05 6.12443E-05-4.59261E-18-5.48708E-18
 -1      1718 2.58005E-04-6.43771E-05-7.55076E-05 4.69507E-05-2.23095E-18-4.75185E-19
 -1      1719 2.04351E-04-4.04450E-05-6.64620E-05 6.16418E-05-3.01988E-18-3.10522E-18
 -1      1720 2.92710E-04-7.50299E-05-8.38457E-05 1.25287E-06-3.14376E-18 5.49502E-18
 -1      1721 2.71792E-04-6.47777E-05-8.09437E-05 3.85081E-05-2.62686E-18 8.13152E-19
 -1      1722 2.73823E-04-6.59047E-05-8.05932E-05-4.41508E-05-4.34189E-18 1.15408E-17
 -1      1723 2.96805E-04-7.78746E-05-8.41222E-05-9.13950E-06-3.65834E-18 7.34039E-18
 -1      1724 2.03608E-04-3.79570E-05-6.63595E-05-7.29574E-05-6.18969E-18 1.30697E-17
 -1      1725 2.59922E-04-6.37677E-05-7.54902E-05-6.01000E-05-4.38715E-18 1.26301E-17
 -1      1726 1.16619E-04-1.53432E-05-4.39691E-05-6.07481E-05-6.83386E-18 1.11724E-17
 -1      1727 1.71872E-04-3.06157E-05-5.62519E-05-7.77707E-05-6.33750E-18 1.35271E-17
 -1      1728 5.72971E-05-2.05723E-05-2.00420E-05-2.74605E-05-5.08389E-18 6.99310E-18
 -1      1729 8.74562E-05-1.31862E-05-3.22493E-05-5.49158E-05-7.04647E-18 9.85946E-18
 -1      1730 2.88408E-05-4.52440E-05 5.06509E-07 1.34386E-06 1.95665E-18 3.25345E-18
 -1      1731 3.38190E-05-2.11734E-05-9.30460E-06-1.72375E-05-3.05186E-18 6.96261E-18
 -1      1732 2.56414E-05-7.39675E-05 1.37916E-05 8.33872E-06 7.72494E-18 7.82447E-20
 -1      1733 2.02587E-05-5.15067E-05 7.80196E-06 7.07996E-06 4.21145E-18 1.33217E-18
 -1      1734 2.55257E-05-8.57403E-05 1.87942E-05 3.18570E-06 7.76443E-18-8.32210E-19
 -1      1735 2.24628E-05-7.99123E-05 1.77136E-05 1.43915E-05 8.07709E-18-2.09577E-18
 -1      1736 9.52433E-05-2.85731E-05-2.85724E-05 5.70795E-09 7.92025E-19-9.99311E-19
 -1      1737 4.53756E-05-4.11625E-05-4.15099E-06 3.65001E-05 4.19790E-18 3.13646E-18
 -1      1738 9.52413E-05-2.85735E-05-2.85714E-05-3.01662E-09 2.66096E-20 4.80191E-19
 -1      1739 9.52438E-05-2.85584E-05-2.85793E-05 1.13710E-08 8.43663E-19 1.73271E-18
 -1      1740 1.22603E-05-5.60092E-05 1.38463E-05 8.71277E-06 4.91205E-18-7.30989E-19
 -1      1741 2.09772E-05-4.92443E-05 8.16195E-06 2.13474E-05 4.43464E-18 1.03296E-18
 -1      1742 9.52428E-05-2.85752E-05-2.85714E-05 2.09210E-10-1.72507E-19-2.11915E-18
 -1      1743 9.52449E-05-2.85743E-05-2.85739E-05-5.96767E-09 2.03870E-18-1.89921E-18
 -1      1744 9.52391E-05-2.85372E-05-2.85876E-05-3.26226E-08 7.27180E-19-2.08149E-18
 -1      1745 7.88077E-05-3.35577E-05-2.02753E-05 4.60545E-05 5.00851E-18 3.56389E-18
 -1      1746 1.22988E-04-3.04340E-05-3.83397E-05 4.97660E-05 3.89847E-18 4.16571E-18
 -1      1747 1.66654E-04-3.13312E-05-5.52226E-05 4.33907E-05 3.19236E-18 2.51399E-18
 -1      1748 2.05809E-04-3.40319E-05-6.87249E-05 3.40809E-05 3.69730E-18 1.56362E-18
 -1      1749 2.15504E-04-3.24860E-05-7.36086E-05 8.19306E-06 2.96377E-18-5.88476E-19
 -1      1750 2.07943E-04-3.09019E-05-7.13310E-05-1.85042E-05 3.53128E-18-1.10601E-18
 -1      1751 1.87890E-04-3.07234E-05-6.31329E-05-4.19923E-05 3.70593E-18-3.49825E-18
 -1      1752 1.46967E-04-2.69507E-05-4.88675E-05-5.31086E-05 5.33758E-18-3.67951E-18
 -1      1753 1.01911E-04-2.72894E-05-3.15333E-05-5.13170E-05 5.74288E-18-5.33631E-18
 -1      1754 6.33260E-05-3.42581E-05-1.40241E-05-4.18146E-05 5.71154E-18-4.89966E-18
 -1      1755 3.40943E-05-4.38275E-05 9.28201E-07-2.95440E-05 4.51045E-18-5.13305E-18
 -1      1756 1.68767E-05-5.24884E-05 1.08088E-05-1.63936E-05 1.08886E-18-5.83225E-18
 -1      1757 1.16283E-05-5.50522E-05 1.37570E-05-4.76621E-06-1.38358E-18-5.06229E-18
 -1      1758 2.04048E-05-5.27871E-05 9.32964E-06 9.83442E-06-3.56050E-18-4.17354E-18
 -1      1759 4.43917E-05-4.91623E-05-1.88934E-06 2.24348E-05-5.37527E-18-3.22211E-18
 -1      1760 8.97653E-05-4.83149E-05-1.96805E-05 3.42561E-05-4.85435E-18-1.72752E-18
 -1      1761 1.45677E-04-5.06848E-05-4.01240E-05 3.40781E-05-3.37839E-18-1.93293E-18
 -1      1762 1.95663E-04-4.89481E-05-5.90429E-05 2.27677E-05-2.97118E-18-5.14996E-19
 -1      1763 2.24228E-04-4.25480E-05-7.19577E-05 6.11460E-06-3.98317E-18 2.43098E-18
 -1      1764 2.37164E-04-3.92591E-05-7.72601E-05-1.54877E-07-5.53197E-18 4.63581E-18
 -1      1765 2.32972E-04-4.53353E-05-7.30769E-05-1.40578E-05-4.21145E-18 6.78135E-18
 -1      1766 1.94425E-04-4.79244E-05-5.86617E-05-3.28009E-05-3.70048E-18 8.91672E-18
 -1      1767 1.35651E-04-4.69588E-05-3.78771E-05-3.78039E-05-3.14419E-18 8.32972E-18
 -1      1768 7.94970E-05-4.65458E-05-1.66749E-05-3.25649E-05-2.70204E-19 7.40646E-18
 -1      1769 3.86378E-05-5.00196E-05 6.63912E-07-1.97231E-05 2.98664E-18 5.15944E-18
 -1      1770 1.73023E-05-5.47976E-05 1.12555E-05-5.86581E-06 4.52993E-18 3.41354E-19
 -1      1771 1.06241E-04-2.31272E-05-3.57150E-05-1.71958E-05-1.09259E-18 2.48308E-18
 -1      1772 8.91388E-05-1.05659E-05-3.37975E-05-1.33220E-05-9.66216E-19-2.08579E-18
 -1      1773 9.04551E-05-1.16292E-05-3.39327E-05-1.51007E-05-1.22288E-18-1.81188E-18
 -1      1774 9.24849E-05-1.38853E-05-3.38446E-05-1.59912E-05-1.30431E-18-1.34620E-18
 -1      1775 9.41557E-05-1.57902E-05-3.40769E-05-1.77150E-05-1.53373E-18-7.55289E-19
 -1      1776 9.34468E-05-1.63876E-05-3.30387E-05-1.37292E-05-1.30455E-18-1.47151E-18
 -1      1777 8.62393E-05-7.66650E-06-3.37456E-05-7.84062E-06-2.66023E-19-2.38303E-18
 -1      1778 8.66382E-05-7.96692E-06-3.37769E-05-9.22921E-06-4.39852E-19-2.43760E-18
 -1      1779 8.56249E-05-7.02293E-06-3.37461E-05-5.30139E-06 1.07290E-19-2.27074E-18
 -1      1780 8.58581E-05-7.20373E-06-3.37597E-05-6.60375E-06-6.65583E-20-2.32799E-18
 -1      1781 8.76194E-05-9.85225E-06-3.33615E-05-6.90206E-06-2.13780E-19-2.26831E-18
 -1      1782 8.52895E-05-6.65888E-06-3.37513E-05-2.87677E-06 4.67698E-19-2.07625E-18
 -1      1783 8.54105E-05-6.75523E-06-3.37564E-05-4.11293E-06 3.37845E-19-2.17951E-18
 -1      1784 8.69844E-05-9.13202E-06-3.33977E-05-4.51670E-06 2.42239E-19-2.10985E-18
 -1      1785 8.51569E-05-6.50748E-06-3.37552E-05-5.14511E-07 8.55862E-19-1.96238E-18
 -1      1786 8.51933E-05-6.53685E-06-3.37566E-05-1.71975E-06 6.84096E-19-2.03567E-18
 -1      1787 8.66505E-05-8.74690E-06-3.34193E-05-2.20560E-06 6.00165E-19-1.93325E-18
 -1      1788 8.52004E-05-6.54459E-06-3.37562E-05 1.83816E-06 1.11507E-18-1.78439E-18
 -1      1789 8.51596E-05-6.51149E-06-3.37549E-05 6.32120E-07 1.00264E-18-1.91175E-18
 -1      1790 8.65501E-05-8.63041E-06-3.34261E-05 6.58856E-08 9.98847E-19-1.84888E-18
 -1      1791 8.54298E-05-6.77732E-06-3.37552E-05 4.23478E-06 1.34297E-18-1.52212E-18
 -1      1792 8.53029E-05-6.67552E-06-3.37502E-05 2.99607E-06 1.23720E-18-1.67567E-18
 -1      1793 8.66642E-05-8.76438E-06-3.34178E-05 2.33813E-06 1.23658E-18-1.63009E-18
 -1      1794 8.58844E-05-7.23512E-06-3.37576E-05 6.68881E-06 1.64192E-18-1.19496E-18
 -1      1795 8.56480E-05-7.05124E-06-3.37444E-05 5.40468E-06 1.49537E-18-1.40832E-18
 -1      1796 8.70115E-05-9.16577E-06-3.33947E-05 4.63112E-06 1.49032E-18-1.35968E-18
 -1      1797 8.66928E-05-8.03038E-06-3.37739E-05 9.34625E-06 1.93604E-18-5.85379E-19
 -1      1798 8.62753E-05-7.71224E-06-3.37425E-05 7.92730E-06 1.74495E-18-9.32160E-19
 -1      1799 8.76623E-05-9.90544E-06-3.33569E-05 6.99875E-06 1.79652E-18-9.47393E-19
 -1      1800 8.80936E-05-9.38184E-06-3.38229E-05 1.22242E-05 2.13144E-18 1.39946E-19
 -1      1801 8.73614E-05-8.82307E-06-3.37545E-05 1.06315E-05 1.99428E-18-2.77509E-19
 -1      1802 8.87788E-05-1.11482E-05-3.33015E-05 9.46944E-06 2.05450E-18-2.99069E-19
 -1      1803 9.06336E-05-1.18423E-05-3.39241E-05 1.52995E-05 2.13700E-18 1.29474E-18
 -1      1804 8.92738E-05-1.07448E-05-3.37893E-05 1.34753E-05 2.11525E-18 5.22169E-19
 -1      1805 9.06596E-05-1.32188E-05-3.32123E-05 1.19264E-05 2.21411E-18 4.51919E-19
 -1      1806 9.58524E-05-1.70770E-05-3.39804E-05 1.76499E-05 1.82147E-18 3.35065E-18
 -1      1807 9.28229E-05-1.43224E-05-3.38185E-05 1.61501E-05 1.95049E-18 2.16303E-18
 -1      1808 9.38647E-05-1.68519E-05-3.30091E-05 1.38272E-05 2.07803E-18 1.67220E-18
 -1      1809 1.01857E-04-2.50809E-05-3.33401E-05 1.43976E-05 1.32889E-18 5.67660E-18
 -1      1810 9.80217E-05-1.95693E-05-3.36104E-05 1.69496E-05 1.59408E-18 4.18286E-18
 -1      1811 9.73744E-05-2.18694E-05-3.24072E-05 1.32571E-05 1.83221E-18 3.25922E-18
 -1      1812 9.87242E-05-2.61304E-05-3.13252E-05 9.41513E-06 1.42124E-18 5.20393E-18
 -1      1813 1.00164E-04-1.94337E-05-3.42741E-05-1.90903E-05-1.40770E-18 4.19599E-19
 -1      1814 9.52872E-05-2.72857E-05-2.91721E-05 4.05718E-06 1.13592E-18 4.38283E-18
 -1      1815 9.76701E-05-2.73743E-05-3.01788E-05 6.38282E-06 1.20901E-18 4.80579E-18
 -1      1816 9.75397E-05-2.55886E-05-3.08116E-05 8.69982E-06 1.45364E-18 3.69813E-18
 -1      1817 9.70339E-05-2.68933E-05-2.99508E-05-5.92649E-06-1.28296E-18-1.34130E-19
 -1      1818 9.52073E-05-2.69869E-05-2.92131E-05-4.03311E-06-1.17210E-18-4.22372E-19
 -1      1819 9.43939E-05-2.72119E-05-2.86939E-05-2.51290E-06-1.07236E-18-4.62454E-19
 -1      1820 9.36000E-05-2.72956E-05-2.83787E-05-1.62366E-06-8.26294E-19-7.61992E-19
 -1      1821 9.55507E-05-2.64762E-05-2.96255E-05-4.61059E-06-1.30148E-18-6.87359E-19
 -1      1822 9.30737E-05-2.73529E-05-2.81057E-05-7.63456E-07-6.83714E-19-8.28855E-19
 -1      1823 9.27687E-05-2.74154E-05-2.79820E-05-3.03835E-07-5.03141E-19-1.00224E-18
 -1      1824 9.43418E-05-2.71870E-05-2.88018E-05-1.87825E-06-9.16529E-19-8.22558E-19
 -1      1825 9.25068E-05-2.74433E-05-2.78521E-05 1.60620E-07-4.82526E-19-1.04369E-18
 -1      1826 9.24829E-05-2.75180E-05-2.78252E-05 3.96370E-07-5.18530E-19-1.19798E-18
 -1      1827 9.36587E-05-2.75061E-05-2.83697E-05-3.65994E-07-5.82868E-19-9.39714E-19
 -1      1828 9.23900E-05-2.75557E-05-2.77698E-05 6.74747E-07-4.20169E-19-1.12109E-18
 -1      1829 9.25254E-05-2.76442E-05-2.77955E-05 8.05580E-07-2.19820E-19-1.11715E-18
 -1      1830 9.33552E-05-2.76871E-05-2.81568E-05 4.91135E-07-4.61769E-19-1.08210E-18
 -1      1831 9.25555E-05-2.76871E-05-2.77927E-05 9.56360E-07-1.07188E-19-1.08146E-18
 -1      1832 9.27852E-05-2.77825E-05-2.78506E-05 1.02194E-06 1.66487E-20-1.02033E-18
 -1      1833 9.33263E-05-2.78377E-05-2.80762E-05 9.89241E-07-1.66870E-19-8.28030E-19
 -1      1834 9.28962E-05-2.78312E-05-2.78816E-05 1.10384E-06 4.40158E-20-9.72225E-19
 -1      1835 9.31800E-05-2.79273E-05-2.79589E-05 1.13757E-06 1.56740E-19-8.89058E-19
 -1      1836 9.34863E-05-2.79684E-05-2.80858E-05 1.26456E-06 1.24870E-19-6.37888E-19
 -1      1837 9.33449E-05-2.79792E-05-2.80128E-05 1.18903E-06-1.46586E-19-1.00512E-18
 -1      1838 9.36641E-05-2.80743E-05-2.81035E-05 1.21481E-06-2.48551E-19-1.10752E-18
 -1      1839 9.37713E-05-2.80866E-05-2.81554E-05 1.42502E-06-9.48888E-20-5.97863E-19
 -1      1840 9.38686E-05-2.81276E-05-2.81747E-05 1.26441E-06-3.06218E-19-1.21554E-18
 -1      1841 9.42192E-05-2.82216E-05-2.82773E-05 1.30151E-06-5.92287E-19-1.04571E-18
 -1      1842 9.41426E-05-2.81932E-05-2.82677E-05 1.54625E-06-2.81331E-19-9.31936E-19
 -1      1843 9.44449E-05-2.82722E-05-2.83598E-05 1.36990E-06-6.08216E-19-9.34348E-19
 -1      1844 9.48179E-05-2.83639E-05-2.84706E-05 1.43124E-06-3.49582E-19-9.91774E-19
 -1      1845 9.45705E-05-2.82856E-05-2.84109E-05 1.68352E-06-4.28360E-19-8.49499E-19
 -1      1846 9.50929E-05-2.84171E-05-2.85750E-05 1.54692E-06-2.84090E-19-9.30786E-19
 -1      1847 9.55456E-05-2.85194E-05-2.87119E-05 1.65986E-06-9.82078E-20-9.55390E-19
 -1      1848 9.50617E-05-2.83650E-05-2.85877E-05 1.89089E-06-2.79745E-19-5.35125E-19
 -1      1849 9.58656E-05-2.85715E-05-2.88391E-05 1.84798E-06-2.52699E-19-1.13261E-18
 -1      1850 9.64149E-05-2.86869E-05-2.90069E-05 2.03442E-06-1.26551E-19-1.12720E-18
 -1      1851 9.56417E-05-2.84301E-05-2.88089E-05 2.23104E-06-2.96040E-19-4.05280E-19
 -1      1852 9.67938E-05-2.87369E-05-2.91650E-05 2.32894E-06 8.21887E-21-1.17306E-18
 -1      1853 9.74901E-05-2.88745E-05-2.93792E-05 2.62180E-06-1.10114E-20-1.35251E-18
 -1      1854 9.63196E-05-2.84728E-05-2.90817E-05 2.76710E-06-1.69216E-19-4.22933E-19
 -1      1855 9.79443E-05-2.89195E-05-2.95789E-05 3.06710E-06-4.52038E-20-1.23693E-18
 -1      1856 9.88578E-05-2.90925E-05-2.98606E-05 3.51118E-06 1.45676E-19-7.70551E-19
 -1      1857 9.71241E-05-2.84830E-05-2.94226E-05 3.58392E-06 7.86831E-20-3.45992E-19
 -1      1858 9.94053E-05-2.91294E-05-3.01150E-05 4.16427E-06 2.25592E-19-6.78019E-19
 -1      1859 1.00625E-04-2.93559E-05-3.04922E-05 4.81898E-06 5.33300E-19-7.56227E-19
 -1      1860 9.80887E-05-2.84466E-05-2.98513E-05 4.79077E-06 3.24812E-19 2.53076E-19
 -1      1861 1.01243E-04-2.93787E-05-3.07976E-05 5.70155E-06 7.09370E-19-8.36013E-19
 -1      1862 1.02811E-04-2.96805E-05-3.12753E-05 6.57043E-06 4.26415E-19-5.13274E-19
 -1      1863 9.92158E-05-2.83502E-05-3.03726E-05 6.46766E-06 6.24978E-19-5.86546E-20
 -1      1864 1.03588E-04-2.96995E-05-3.16702E-05 7.83185E-06 1.05257E-19-5.00182E-19
 -1      1865 1.05790E-04-3.01587E-05-3.23320E-05 9.06803E-06 4.83782E-19-5.37088E-19
 -1      1866 1.00561E-04-2.82078E-05-3.10104E-05 8.78383E-06 3.33172E-19-3.11152E-20
 -1      1867 1.06718E-04-3.02168E-05-3.27975E-05 1.07096E-05 5.78246E-19-2.87080E-19
 -1      1868 1.09639E-04-3.09519E-05-3.36392E-05 1.22430E-05 2.89454E-19-1.06504E-19
 -1      1869 1.02219E-04-2.80890E-05-3.17708E-05 1.19178E-05 7.51831E-19-2.95808E-19
 -1      1870 1.10821E-04-3.12077E-05-3.41370E-05 1.41806E-05 2.33470E-19 1.01062E-19
 -1      1871 1.14583E-04-3.24699E-05-3.51249E-05 1.57408E-05 3.28033E-19-2.91432E-20
 -1      1872 1.04295E-04-2.82945E-05-3.25755E-05 1.57693E-05 3.30369E-19 9.95115E-20
 -1      1873 1.16349E-04-3.33465E-05-3.55677E-05 1.75836E-05 1.68628E-19 4.40801E-19
 -1      1874 1.20985E-04-3.55988E-05-3.65662E-05 1.83793E-05 5.38405E-19 7.62502E-19
 -1      1875 1.07221E-04-2.96243E-05-3.32731E-05 1.98679E-05 4.77894E-19 8.21976E-19
 -1      1876 1.24213E-04-3.80046E-05-3.68514E-05 1.91078E-05 3.99641E-19 4.79672E-19
 -1      1877 1.29489E-04-4.17306E-05-3.76299E-05 1.74964E-05 2.64724E-19 6.63703E-19
 -1      1878 1.12144E-04-3.37448E-05-3.36501E-05 2.28586E-05 2.93920E-19 7.89838E-19
 -1      1879 1.34939E-04-4.60187E-05-3.78254E-05 1.54327E-05 2.44051E-19 7.28713E-19
 -1      1880 1.39380E-04-5.03211E-05-3.82413E-05 1.04300E-05 1.68771E-19 1.22568E-18
 -1      1881 1.20906E-04-4.25565E-05-3.37018E-05 2.22287E-05 4.60468E-19 1.25080E-18
 -1      1882 1.49142E-04-5.69058E-05-3.92373E-05 3.00440E-06 3.66765E-19 1.20612E-18
 -1      1883 1.51940E-04-5.90953E-05-3.99909E-05-6.68397E-06 2.60992E-20 1.13512E-18
 -1      1884 1.35782E-04-5.54725E-05-3.45006E-05 1.40283E-05 5.42630E-19 1.90132E-18
 -1      1885 1.56589E-04-2.97629E-05-5.51308E-05-1.50578E-05-3.83198E-18-1.21930E-18
 -1      1886 1.55365E-04-2.64352E-05-5.60285E-05-1.25238E-06-4.32707E-18-2.30192E-18
 -1      1887 1.56860E-04-2.84058E-05-5.54593E-05 1.29188E-05-4.14072E-18-2.58705E-18
 -1      1888 1.61724E-04-3.80739E-05-5.37097E-05 2.39450E-05-2.72575E-18-3.12947E-18
 -1      1889 1.58507E-04-4.65259E-05-4.84388E-05 2.71858E-05-1.01983E-18-3.57490E-18
 -1      1890 1.63832E-04-5.77168E-05-4.59347E-05 2.41649E-05 1.27997E-18-3.85569E-18
 -1      1891 1.55061E-04-5.85774E-05-4.15224E-05 1.40187E-05 2.46381E-18-4.10162E-18
 -1      1892 1.54151E-04-5.89793E-05-4.06116E-05 4.10266E-06 2.72088E-18-2.46047E-18
 -1      1893 1.63157E-04-6.32974E-05-4.32216E-05 1.40892E-05 2.26184E-18-8.25434E-19
 -1      1894 1.44737E-04-5.36105E-05-3.92040E-05-4.86776E-06 2.16428E-18-2.34007E-18
 -1      1895 1.40529E-04-4.93050E-05-3.88015E-05-1.15674E-05 1.31359E-18-1.88827E-18
 -1      1896 1.44561E-04-5.93630E-05-3.67366E-05-5.86597E-06 2.51479E-18-2.01713E-18
 -1      1897 1.33594E-04-4.42361E-05-3.83936E-05-1.56110E-05 4.46678E-19-2.06821E-18
 -1      1898 1.28378E-04-4.00672E-05-3.76919E-05-1.80317E-05 7.06359E-19-2.08148E-18
 -1      1899 1.28180E-04-4.66054E-05-3.50652E-05-1.84607E-05 9.36871E-19-1.22256E-18
 -1      1900 1.24400E-04-3.73739E-05-3.73243E-05-1.80994E-05 7.76246E-19-1.44112E-18
 -1      1901 1.19582E-04-3.47132E-05-3.63394E-05-1.76827E-05 5.47547E-19-1.92742E-18
 -1      1902 1.17251E-04-3.64882E-05-3.46695E-05-2.18969E-05 7.48936E-19-1.32494E-18
 -1      1903 1.17263E-04-3.36098E-05-3.58202E-05-1.61094E-05 7.62813E-19-2.22741E-18
 -1      1904 1.13261E-04-3.20808E-05-3.47978E-05-1.46213E-05 3.22323E-19-1.35904E-18
 -1      1905 1.10913E-04-3.13961E-05-3.41075E-05-1.99603E-05 4.89267E-19-1.17781E-18
 -1      1906 1.11703E-04-3.16931E-05-3.42270E-05-1.27159E-05 3.28688E-20-8.55344E-19
 -1      1907 1.08572E-04-3.08048E-05-3.33367E-05-1.11266E-05-2.87852E-19-9.32343E-19
 -1      1908 1.06980E-04-2.94252E-05-3.32490E-05-1.61356E-05 1.37319E-19-8.69390E-19
 -1      1909 1.07387E-04-3.06669E-05-3.28106E-05-9.43233E-06-7.02554E-19-5.35421E-19
 -1      1910 1.05042E-04-3.01234E-05-3.21078E-05-8.10072E-06-6.12974E-19-2.34016E-19
 -1      1911 1.04205E-04-2.88352E-05-3.23050E-05-1.22289E-05-1.63027E-19 2.98720E-20
 -1      1912 1.04150E-04-3.00542E-05-3.16915E-05-6.83068E-06-6.38133E-19-1.65834E-18
 -1      1913 1.02494E-04-2.97179E-05-3.11859E-05-5.86150E-06-2.99552E-19-1.97330E-18
 -1      1914 1.02119E-04-2.87280E-05-3.14581E-05-8.99889E-06-1.67998E-18-2.26208E-19
 -1      1915 1.01725E-04-2.96604E-05-3.08354E-05-4.85189E-06 1.09605E-19-1.82750E-18
 -1      1916 1.00464E-04-2.94125E-05-3.04456E-05-4.11643E-06-1.04423E-20-1.39973E-18
 -1      1917 1.00471E-04-2.87306E-05-3.07473E-05-6.50342E-06-2.21691E-19-8.83280E-19
 -1      1918 9.98671E-05-2.93590E-05-3.01803E-05-3.39187E-06 2.03500E-19-1.18479E-18
 -1      1919 9.89675E-05-2.91872E-05-2.99009E-05-2.87443E-06 6.38385E-20-5.01569E-19
 -1      1920 9.91351E-05-2.87444E-05-3.01700E-05-4.60348E-06 4.27599E-19-1.96610E-19
 -1      1921 9.85073E-05-2.91363E-05-2.97034E-05-2.36182E-06-4.09448E-19-2.13090E-20
 -1      1922 9.78694E-05-2.90146E-05-2.95048E-05-2.00236E-06-1.57694E-20-4.30957E-19
 -1      1923 9.80992E-05-2.87375E-05-2.97295E-05-3.23979E-06-3.67483E-19 4.20373E-19
 -1      1924 9.75197E-05-2.89692E-05-2.93597E-05-1.64228E-06-4.53935E-19-1.41398E-18
 -1      1925 9.70690E-05-2.88824E-05-2.92192E-05-1.39329E-06-6.69048E-19-8.60587E-19
 -1      1926 9.73071E-05-2.87140E-05-2.94001E-05-2.27343E-06-7.32784E-19 9.18113E-19
 -1      1927 9.68068E-05-2.88441E-05-2.91136E-05-1.14070E-06 4.34270E-19-1.71142E-18
 -1      1928 9.64902E-05-2.87821E-05-2.90146E-05-9.67978E-07 9.05791E-19-2.03965E-18
 -1      1929 9.67093E-05-2.86824E-05-2.91571E-05-1.59221E-06-7.69236E-19-8.77105E-19
 -1      1930 9.63048E-05-2.87519E-05-2.89418E-05-7.98440E-07 5.11950E-19-2.07935E-18
 -1      1931 9.60910E-05-2.87102E-05-2.88750E-05-6.82280E-07 3.10965E-19-1.69878E-18
 -1      1932 9.62728E-05-2.86517E-05-2.89833E-05-1.12063E-06 4.90842E-19-1.27538E-18
 -1      1933 9.59456E-05-2.86855E-05-2.88192E-05-5.53752E-07-3.90170E-19-2.36420E-18
 -1      1934 9.57880E-05-2.86537E-05-2.87699E-05-4.67027E-07-4.28240E-19-3.07594E-18
 -1      1935 9.59488E-05-2.86211E-05-2.88566E-05-7.86615E-07-3.98526E-19-2.56931E-18
 -1      1936 9.56831E-05-2.86344E-05-2.87305E-05-3.75172E-07 6.87137E-19-3.16373E-18
 -1      1937 9.55755E-05-2.86126E-05-2.86968E-05-3.12467E-07 8.16627E-19-3.52644E-18
 -1      1938 9.57053E-05-2.85954E-05-2.87629E-05-5.39744E-07 2.20239E-19-4.20314E-18
 -1      1939 9.54999E-05-2.85974E-05-2.86693E-05-2.44761E-07 1.59088E-19-2.91139E-18
 -1      1940 9.54293E-05-2.85833E-05-2.86470E-05-1.97616E-07-9.36328E-19-3.20420E-18
 -1      1941 9.55291E-05-2.85735E-05-2.86966E-05-3.61577E-07 5.45019E-19-3.94217E-18
 -1      1942 9.53766E-05-2.85723E-05-2.86283E-05-1.46921E-07-9.07544E-19-2.27187E-18
 -1      1943 9.53328E-05-2.85639E-05-2.86142E-05-1.10277E-07-9.17789E-19-1.62460E-18
 -1      1944 9.54054E-05-2.85581E-05-2.86506E-05-2.28280E-07-5.60249E-20-2.09428E-18
 -1      1945 9.52970E-05-2.85562E-05-2.86015E-05-7.20446E-08-1.24712E-18-2.05525E-18
 -1      1946 9.52722E-05-2.85557E-05-2.85927E-05-4.40848E-08 7.48858E-20-2.08828E-18
 -1      1947 9.53214E-05-2.85481E-05-2.86186E-05-1.25678E-07-1.65523E-18-1.71850E-18
 -1      1948 9.31938E-05-2.73667E-05-2.81854E-05 1.57354E-06 8.10650E-19 3.72685E-18
 -1      1949 9.43426E-05-2.74387E-05-2.86194E-05 2.64723E-06 9.42496E-19 4.07201E-18
 -1      1950 9.51979E-05-2.69883E-05-2.92112E-05 4.03668E-06 1.15583E-18 3.16199E-18
 -1      1951 6.17727E-05-3.91936E-05-1.00024E-05 4.73484E-05 2.30732E-18 2.37333E-18
 -1      1952 4.52820E-05-4.14979E-05-2.88103E-06 3.91386E-05 1.84865E-18 2.96652E-18
 -1      1953 9.21603E-05-2.73478E-05-2.77531E-05 3.04913E-07 6.80154E-19 3.13773E-18
 -1      1954 9.26265E-05-2.73645E-05-2.79210E-05 8.61123E-07 5.88231E-19 3.37281E-18
 -1      1955 9.36217E-05-2.73415E-05-2.84022E-05 1.56846E-06 8.15203E-19 2.63144E-18
 -1      1956 9.18184E-05-2.73889E-05-2.75968E-05-3.61711E-07 8.17321E-20 2.91333E-18
 -1      1957 9.19134E-05-2.73565E-05-2.76377E-05-6.05132E-08 4.02326E-19 3.06426E-18
 -1      1958 9.28216E-05-2.74824E-05-2.80116E-05 2.16898E-07 5.63454E-19 2.19830E-18
 -1      1959 9.18909E-05-2.74903E-05-2.75897E-05-7.14138E-07-1.67593E-19 2.64333E-18
 -1      1960 9.17763E-05-2.74214E-05-2.75649E-05-5.49147E-07-2.54474E-20 2.74610E-18
 -1      1961 9.25395E-05-2.75793E-05-2.78508E-05-5.08115E-07 6.59404E-20 1.87863E-18
 -1      1962 9.22053E-05-2.76298E-05-2.76675E-05-8.87353E-07 3.87719E-19 2.42818E-18
 -1      1963 9.19763E-05-2.75407E-05-2.76071E-05-7.99707E-07-4.47587E-21 2.45138E-18
 -1      1964 9.25975E-05-2.76958E-05-2.78238E-05-8.91854E-07 6.37756E-20 1.52189E-18
 -1      1965 9.26539E-05-2.77889E-05-2.77933E-05-9.59423E-07 3.57019E-19 2.41534E-18
 -1      1966 9.23663E-05-2.76909E-05-2.77139E-05-9.16193E-07 4.61899E-19 2.50272E-18
 -1      1967 9.28570E-05-2.78283E-05-2.78761E-05-1.08200E-06 4.77771E-19 1.41147E-18
 -1      1968 9.31729E-05-2.79566E-05-2.79450E-05-9.77091E-07 3.16924E-19 2.06704E-18
 -1      1969 9.28583E-05-2.78558E-05-2.78563E-05-9.58301E-07 2.45873E-19 2.43540E-18
 -1      1970 9.32339E-05-2.79698E-05-2.79753E-05-1.16299E-06 3.82432E-19 1.71512E-18
 -1      1971 9.37251E-05-2.81270E-05-2.81096E-05-9.68219E-07 3.46623E-19 1.96204E-18
 -1      1972 9.34011E-05-2.80264E-05-2.80170E-05-9.61793E-07 3.55044E-19 2.05259E-18
 -1      1973 9.36765E-05-2.81155E-05-2.81013E-05-1.18517E-06 4.73423E-19 1.52607E-18
 -1      1974 9.42896E-05-2.82982E-05-2.82791E-05-9.47412E-07 4.17039E-19 2.12942E-18
 -1      1975 9.39656E-05-2.81988E-05-2.81859E-05-9.46978E-07 3.46619E-19 2.04801E-18
 -1      1976 9.41537E-05-2.82636E-05-2.82415E-05-1.17773E-06 4.20803E-19 1.53852E-18
 -1      1977 9.48534E-05-2.84701E-05-2.84481E-05-9.18341E-07 5.19090E-19 2.13655E-18
 -1      1978 9.45353E-05-2.83720E-05-2.83564E-05-9.22385E-07 4.16910E-19 2.27040E-18
 -1      1979 9.46474E-05-2.84147E-05-2.83877E-05-1.15416E-06 5.05650E-19 1.44143E-18
 -1      1980 9.54049E-05-2.86431E-05-2.86115E-05-8.74383E-07 1.87272E-19 1.81097E-18
 -1      1981 9.50988E-05-2.85465E-05-2.85236E-05-8.86126E-07 4.17144E-19 2.06588E-18
 -1      1982 9.51453E-05-2.85710E-05-2.85336E-05-1.11453E-06 6.46964E-19 1.49808E-18
 -1      1983 9.59270E-05-2.88162E-05-2.87626E-05-7.98533E-07-1.46528E-19 2.02860E-18
 -1      1984 9.56427E-05-2.87226E-05-2.86819E-05-8.26111E-07-2.68753E-19 1.84076E-18
 -1      1985 9.56351E-05-2.87346E-05-2.86729E-05-1.04599E-06-1.22407E-19 1.67692E-18
 -1      1986 9.63911E-05-2.89848E-05-2.88914E-05-6.63552E-07-2.95034E-19 2.13221E-18
 -1      1987 9.61459E-05-2.88981E-05-2.88234E-05-7.20086E-07-1.93732E-19 1.90887E-18
 -1      1988 9.60990E-05-2.89060E-05-2.87974E-05-9.23015E-07-8.44175E-20 1.42996E-18
 -1      1989 9.67521E-05-2.91380E-05-2.89830E-05-4.33608E-07 4.82323E-19 1.29682E-18
 -1      1990 9.65733E-05-2.90658E-05-2.89361E-05-5.36542E-07 1.10544E-19 1.72408E-18
 -1      1991 9.65080E-05-2.90816E-05-2.88964E-05-7.08379E-07 3.37301E-19 8.92655E-19
 -1      1992 9.69437E-05-2.92560E-05-2.90175E-05-6.91732E-08 9.61052E-19 9.58627E-19
 -1      1993 9.68705E-05-2.92111E-05-2.90031E-05-2.38018E-07 5.54745E-19 1.13226E-18
 -1      1994 9.68177E-05-2.92502E-05-2.89551E-05-3.56902E-07 9.87548E-19 7.89761E-19
 -1      1995 9.68798E-05-2.93075E-05-2.89707E-05 4.62820E-07 2.17496E-19 1.06275E-18
 -1      1996 9.69620E-05-2.93084E-05-2.90028E-05 2.11334E-07 8.68958E-19 1.12743E-18
 -1      1997 9.69645E-05-2.93894E-05-2.89560E-05 1.75937E-07 7.21163E-19 4.48303E-19
 -1      1998 9.64609E-05-2.92494E-05-2.88179E-05 1.17217E-06-6.78664E-19 1.42076E-18
 -1      1999 9.67537E-05-2.93193E-05-2.89108E-05 8.32240E-07-5.47345E-19 1.21360E-18
 -1      2000 9.68669E-05-2.94617E-05-2.88802E-05 9.18358E-07-3.69214E-19 8.80388E-19
 -1      2001 9.55925E-05-2.90301E-05-2.85397E-05 2.02296E-06-5.52143E-19 1.46354E-18
 -1      2002 9.61446E-05-2.91942E-05-2.87046E-05 1.61068E-06-6.81709E-19 1.22352E-18
 -1      2003 9.64327E-05-2.94136E-05-2.87115E-05 1.85908E-06-6.42448E-19 7.05163E-19
 -1      2004 9.42156E-05-2.86017E-05-2.81309E-05 2.91146E-06 4.00700E-19 1.40383E-18
 -1      2005 9.50509E-05-2.88792E-05-2.83707E-05 2.47564E-06-1.54246E-19 1.70230E-18
 -1      2006 9.55784E-05-2.91814E-05-2.84421E-05 2.92007E-06-1.71058E-19 3.52707E-19
 -1      2007 9.23489E-05-2.79409E-05-2.76095E-05 3.65760E-06 1.28987E-18 4.26124E-19
 -1      2008 9.34439E-05-2.83341E-05-2.79133E-05 3.28386E-06 1.04504E-18 1.50205E-18
 -1      2009 9.42607E-05-2.87086E-05-2.80790E-05 3.93601E-06 9.87012E-19 7.63872E-19
 -1      2010 9.01306E-05-2.70786E-05-2.70228E-05 4.02815E-06-3.13668E-19 5.72502E-19
 -1      2011 9.13954E-05-2.75595E-05-2.73623E-05 3.82741E-06 6.24903E-19 5.50284E-19
 -1      2012 9.25207E-05-2.79770E-05-2.76490E-05 4.65887E-06 6.38174E-19 6.66301E-19
 -1      2013 8.78396E-05-2.61230E-05-2.64458E-05 3.80365E-06-1.01603E-19 3.45553E-19
 -1      2014 8.91125E-05-2.66262E-05-2.67763E-05 3.87965E-06-7.89304E-19-1.15256E-19
 -1      2015 9.05234E-05-2.70429E-05-2.71996E-05 4.80781E-06-1.86963E-19 4.31148E-19
 -1      2016 8.58664E-05-2.52571E-05-2.59692E-05 2.87772E-06-1.12643E-18 1.52952E-18
 -1      2017 8.69359E-05-2.56863E-05-2.62372E-05 3.27989E-06-3.02043E-19 9.98963E-19
 -1      2018 8.85677E-05-2.60579E-05-2.67928E-05 4.16856E-06-5.42169E-19 1.10589E-18
 -1      2019 8.46207E-05-2.46919E-05-2.56782E-05 1.34323E-06-4.80165E-19 2.23697E-18
 -1      2020 8.52763E-05-2.49470E-05-2.58344E-05 2.02747E-06-7.88922E-19 1.65746E-18
 -1      2021 8.70369E-05-2.52474E-05-2.64935E-05 2.71166E-06-8.54709E-19 1.05946E-18
 -1      2022 8.43952E-05-2.45861E-05-2.56288E-05-4.96995E-07 2.80686E-19 2.47871E-18
 -1      2023 8.44934E-05-2.46006E-05-2.56421E-05 3.29635E-07-6.68627E-20 2.48747E-18
 -1      2024 8.62850E-05-2.48354E-05-2.63534E-05 6.62961E-07-2.97845E-19 1.51113E-18
 -1      2025 8.52509E-05-2.49727E-05-2.58308E-05-2.22479E-06 1.13933E-19 1.74024E-18
 -1      2026 8.47673E-05-2.47426E-05-2.56985E-05-1.44487E-06 5.18530E-19 2.55633E-18
 -1      2027 8.65021E-05-2.49481E-05-2.63980E-05-1.53843E-06 6.31159E-19 1.64792E-18
 -1      2028 8.69894E-05-2.57424E-05-2.62451E-05-3.46560E-06 1.69526E-19 1.44365E-18
 -1      2029 8.60287E-05-2.53284E-05-2.59934E-05-2.89846E-06-4.96904E-20 1.44836E-18
 -1      2030 8.76339E-05-2.55513E-05-2.66193E-05-3.39563E-06 3.60727E-19 1.97655E-18
 -1      2031 8.92326E-05-2.66954E-05-2.67958E-05-4.02287E-06 2.01795E-19 1.93741E-18
 -1      2032 8.79898E-05-2.61955E-05-2.64715E-05-3.75358E-06 4.83719E-19 1.60297E-18
 -1      2033 8.94053E-05-2.64683E-05-2.69785E-05-4.54207E-06 6.08143E-19 1.80662E-18
 -1      2034 9.15604E-05-2.76262E-05-2.73925E-05-3.91726E-06-6.01711E-19 1.18790E-18
 -1      2035 9.02557E-05-2.71380E-05-2.70490E-05-3.93583E-06-1.72567E-19 1.11137E-18
 -1      2036 9.14341E-05-2.74623E-05-2.74166E-05-4.85728E-06 7.13263E-20 1.23370E-18
 -1      2037 9.36339E-05-2.83897E-05-2.79531E-05-3.32905E-06 1.81555E-19 1.88885E-19
 -1      2038 9.24514E-05-2.79821E-05-2.76369E-05-3.55753E-06-2.08686E-19 7.77007E-19
 -1      2039 9.33653E-05-2.83312E-05-2.78690E-05-4.45873E-06 1.62516E-19 2.21506E-19
 -1      2040 9.52557E-05-2.89240E-05-2.84199E-05-2.49723E-06-2.90564E-19 6.34822E-19
 -1      2041 9.43098E-05-2.86283E-05-2.81619E-05-2.83354E-06-2.72331E-19 2.45243E-19
 -1      2042 9.49581E-05-2.89628E-05-2.82804E-05-3.60296E-06-1.97552E-19-4.52397E-19
 -1      2043 9.63668E-05-2.92345E-05-2.87648E-05-1.63347E-06-2.96012E-19 1.74854E-18
 -1      2044 9.56993E-05-2.90506E-05-2.85784E-05-1.98763E-06-1.47543E-19 1.56104E-18
 -1      2045 9.61079E-05-2.93365E-05-2.86137E-05-2.56815E-06-4.67182E-19 3.39009E-19
 -1      2046 9.70077E-05-2.93645E-05-2.89859E-05-8.78814E-07 1.91669E-18 1.20496E-18
 -1      2047 9.66044E-05-2.92742E-05-2.88698E-05-1.19075E-06 2.42605E-19 1.52675E-18
 -1      2048 9.68187E-05-2.94922E-05-2.88526E-05-1.57323E-06 7.49982E-19 1.04699E-18
 -1      2049 9.72717E-05-2.93689E-05-2.90991E-05-2.99662E-07 1.11124E-18 9.87559E-19
 -1      2050 9.70856E-05-2.93470E-05-2.90425E-05-5.40641E-07 1.54110E-18 1.73620E-18
 -1      2051 9.71594E-05-2.94943E-05-2.89985E-05-7.48159E-07 1.75252E-18 2.02094E-18
 -1      2052 9.72668E-05-2.92978E-05-2.91288E-05 9.44243E-08-7.65629E-19 9.39514E-19
 -1      2053 9.72395E-05-2.93198E-05-2.91171E-05-7.07341E-08 2.71932E-19 7.12040E-19
 -1      2054 9.72240E-05-2.94054E-05-2.90648E-05-1.42051E-07 4.05387E-19 2.32344E-18
 -1      2055 9.70928E-05-2.91897E-05-2.91015E-05 3.27293E-07 3.42602E-19 1.35719E-18
 -1      2056 9.71680E-05-2.92357E-05-2.91195E-05 2.28702E-07-4.54824E-19 9.88616E-19
 -1      2057 9.71054E-05-2.92743E-05-2.90705E-05 2.51798E-07-4.84043E-19 1.74431E-18
 -1      2058 9.68296E-05-2.90707E-05-2.90401E-05 4.36555E-07-8.11410E-19 1.11685E-18
 -1      2059 9.69612E-05-2.91265E-05-2.90752E-05 3.89338E-07-1.24233E-19 1.11138E-18
 -1      2060 9.68818E-05-2.91333E-05-2.90353E-05 4.69685E-07-2.58352E-19 8.18348E-19
 -1      2061 9.65351E-05-2.89566E-05-2.89629E-05 4.60722E-07 1.84174E-20 2.27298E-18
 -1      2062 9.66889E-05-2.90129E-05-2.90053E-05 4.49126E-07-4.10224E-19 1.71877E-18
 -1      2063 9.66123E-05-2.90012E-05-2.89765E-05 5.57583E-07-8.80921E-19 1.27688E-18
 -1      2064 9.62473E-05-2.88558E-05-2.88827E-05 4.32526E-07-4.21385E-19 1.80485E-18
 -1      2065 9.64005E-05-2.89072E-05-2.89257E-05 4.43059E-07-3.93413E-19 2.09153E-18
 -1      2066 9.63370E-05-2.88869E-05-2.89075E-05 5.59032E-07-1.65653E-19 1.48116E-18
 -1      2067 9.59880E-05-2.87714E-05-2.88075E-05 3.76566E-07-7.25052E-19 1.42689E-18
 -1      2068 9.61273E-05-2.88154E-05-2.88472E-05 3.99034E-07-1.93341E-19 1.80401E-18
 -1      2069 9.60809E-05-2.87931E-05-2.88380E-05 5.09419E-07-1.18826E-19 1.27132E-18
 -1      2070 9.57677E-05-2.87036E-05-2.87420E-05 3.09437E-07 1.11095E-18 1.66390E-18
 -1      2071 9.58864E-05-2.87394E-05-2.87761E-05 3.36939E-07 1.10941E-20 1.49929E-18
 -1      2072 9.58571E-05-2.87190E-05-2.87739E-05 4.34446E-07 3.48880E-19 1.98014E-18
 -1      2073 9.55897E-05-2.86510E-05-2.86881E-05 2.40994E-07 5.98571E-19 1.29560E-18
 -1      2074 9.56854E-05-2.86790E-05-2.87157E-05 2.69446E-07 6.42131E-19 1.76374E-18
 -1      2075 9.56708E-05-2.86621E-05-2.87185E-05 3.50863E-07 3.83354E-19 2.55770E-18
 -1      2076 9.54526E-05-2.86116E-05-2.86460E-05 1.75942E-07 5.62749E-19 2.16131E-18
 -1      2077 9.55257E-05-2.86325E-05-2.86672E-05 2.03457E-07 2.72691E-19 1.64852E-18
 -1      2078 9.55222E-05-2.86193E-05-2.86731E-05 2.68147E-07 3.88668E-19 3.10368E-18
 -1      2079 9.53532E-05-2.85834E-05-2.86154E-05 1.15785E-07-2.98246E-19 1.95656E-18
 -1      2080 9.54051E-05-2.85980E-05-2.86304E-05 1.41851E-07 6.47643E-19 2.27644E-18
 -1      2081 9.54088E-05-2.85879E-05-2.86380E-05 1.90611E-07 5.84177E-19 2.73954E-18
 -1      2082 9.52874E-05-2.85653E-05-2.85948E-05 6.13318E-08-1.72901E-18 1.15995E-18
 -1      2083 9.53198E-05-2.85741E-05-2.86044E-05 8.54002E-08-1.53018E-18 1.51661E-18
 -1      2084 9.53263E-05-2.85657E-05-2.86122E-05 1.19717E-07-1.31303E-18 3.19950E-18
 -1      2085 9.52552E-05-2.85588E-05-2.85835E-05 2.61367E-08 3.65996E-19 1.04200E-18
 -1      2086 9.52723E-05-2.85607E-05-2.85901E-05 4.59424E-08-1.39678E-18 1.17713E-18
 -1      2087 9.52780E-05-2.85528E-05-2.85968E-05 6.88801E-08-9.61109E-19 2.52832E-18
 -1      2088 9.52538E-05-2.85502E-05-2.85872E-05 3.61827E-08 3.73060E-19 1.17689E-18
 -1      2089 9.51828E-05-2.83676E-05-2.86354E-05 1.48023E-07 8.63702E-20-2.37486E-18
 -1      2090 9.52009E-05-2.84070E-05-2.86253E-05 1.39994E-07-4.72994E-19-2.27457E-18
 -1      2091 9.52189E-05-2.84462E-05-2.86169E-05 1.24500E-07 3.66655E-20-2.58702E-18
 -1      2092 9.52338E-05-2.84796E-05-2.86082E-05 1.06431E-07 7.03308E-19-3.65373E-19
 -1      2093 9.52149E-05-2.84164E-05-2.86281E-05 1.73535E-07-1.11148E-18-2.66241E-18
 -1      2094 9.52424E-05-2.85064E-05-2.86010E-05 8.31083E-08 5.52221E-19 6.25924E-19
 -1      2095 9.52508E-05-2.85304E-05-2.85939E-05 6.11117E-08 3.82909E-19 1.29441E-18
 -1      2096 9.52619E-05-2.85304E-05-2.85989E-05 7.77649E-08-2.15027E-19 7.60847E-19
 -1      2097 9.52453E-05-2.84826E-05-2.86130E-05 1.29228E-07-4.76525E-19 1.87615E-19
 -1      2098 9.51459E-05-2.82880E-05-2.86541E-05 1.47968E-07-1.17894E-18-1.73049E-18
 -1      2099 9.51641E-05-2.83276E-05-2.86439E-05 1.50643E-07-5.58826E-19-1.74756E-18
 -1      2100 9.51715E-05-2.83352E-05-2.86440E-05 1.93241E-07-6.79893E-19-2.57992E-18
 -1      2101 9.51120E-05-2.82151E-05-2.86711E-05 1.24095E-07 4.35650E-19 1.97553E-19
 -1      2102 9.51282E-05-2.82502E-05-2.86621E-05 1.37112E-07-6.45756E-19 7.41575E-19
 -1      2103 9.51279E-05-2.82550E-05-2.86594E-05 1.83706E-07-6.38770E-19-9.18315E-20
 -1      2104 9.50863E-05-2.81605E-05-2.86837E-05 7.95650E-08 9.64574E-19 8.84436E-19
 -1      2105 9.50977E-05-2.81848E-05-2.86774E-05 1.00987E-07 9.52586E-19 4.23137E-19
 -1      2106 9.50894E-05-2.81845E-05-2.86727E-05 1.45217E-07 5.05616E-19 1.12008E-18
 -1      2107 9.50728E-05-2.81325E-05-2.86900E-05 2.07621E-08-3.94926E-19 3.65013E-19
 -1      2108 9.50775E-05-2.81419E-05-2.86875E-05 4.74089E-08 3.40687E-19-9.78487E-20
 -1      2109 9.50616E-05-2.81338E-05-2.86822E-05 8.27525E-08 1.70066E-19-1.19840E-19
 -1      2110 9.50740E-05-2.81361E-05-2.86888E-05-4.33581E-08-5.90826E-19-8.51607E-19
 -1      2111 9.50709E-05-2.81287E-05-2.86906E-05-1.57148E-08-9.64224E-19 3.52448E-19
 -1      2112 9.50489E-05-2.81104E-05-2.86866E-05 5.09809E-09-1.73144E-18-3.51029E-20
 -1      2113 9.50908E-05-2.81718E-05-2.86803E-05-1.02068E-07 8.76736E-19 8.71441E-19
 -1      2114 9.50800E-05-2.81482E-05-2.86862E-05-7.82865E-08-5.57875E-19 7.00263E-19
 -1      2115 9.50540E-05-2.81189E-05-2.86852E-05-7.58904E-08-6.17290E-19-2.81811E-19
 -1      2116 9.51208E-05-2.82338E-05-2.86660E-05-1.43830E-07 1.10866E-18-1.65285E-18
 -1      2117 9.51039E-05-2.81983E-05-2.86749E-05-1.28767E-07 7.60764E-19-1.12092E-18
 -1      2118 9.50775E-05-2.81589E-05-2.86782E-05-1.46097E-07-6.92409E-20-8.24558E-19
 -1      2119 9.51607E-05-2.83149E-05-2.86478E-05-1.60946E-07 1.62601E-18 1.03372E-18
 -1      2120 9.51399E-05-2.82722E-05-2.86585E-05-1.57767E-07 8.79022E-19 2.81946E-19
 -1      2121 9.51167E-05-2.82261E-05-2.86666E-05-1.92916E-07 8.40896E-19-6.99200E-19
 -1      2122 9.52035E-05-2.84016E-05-2.86285E-05-1.46704E-07 1.71764E-18 2.06862E-18
 -1      2123 9.51833E-05-2.83599E-05-2.86391E-05-1.57974E-07 1.92412E-18 8.19290E-19
 -1      2124 9.51672E-05-2.83125E-05-2.86516E-05-2.06831E-07 1.72327E-18 5.41691E-19
 -1      2125 9.52395E-05-2.84792E-05-2.86105E-05-1.08016E-07 3.63282E-19-2.67541E-18
 -1      2126 9.52229E-05-2.84448E-05-2.86194E-05-1.28154E-07 6.82064E-19-3.19715E-19
 -1      2127 9.52151E-05-2.84027E-05-2.86346E-05-1.81283E-07-7.84912E-21 3.31150E-19
 -1      2128 1.02041E-04-4.10080E-05-2.60066E-05 4.83405E-05 3.51180E-18 3.85654E-18
 -1      2129 8.42159E-05-4.44287E-05-1.78089E-05 4.42645E-05 3.57702E-18 1.85246E-18
 -1      2130 9.52494E-05-2.85562E-05-2.85812E-05-9.37758E-09 1.89761E-18-1.26469E-18
 -1      2131 9.98562E-05-2.24384E-05-3.29016E-05-1.46513E-05-1.42286E-18-1.19643E-20
 -1      2132 1.17313E-05-3.55847E-05 8.90806E-06 1.34733E-05 3.34917E-18-5.54807E-19
 -1      2133 1.11593E-05-3.81049E-05 9.93788E-06 4.13914E-06 2.90347E-18-1.19516E-18
 -1      2134 8.72886E-05-8.72974E-06-3.37590E-05-1.05047E-05-5.96460E-19-2.39337E-18
 -1      2135 8.79965E-05-9.26582E-06-3.38275E-05-1.20857E-05-8.34228E-19-2.25845E-18
 -1      2136 9.04883E-05-1.30341E-05-3.32237E-05-1.17897E-05-9.68397E-19-2.02438E-18
 -1      2137 8.86972E-05-1.10527E-05-3.33091E-05-9.36349E-06-5.95251E-19-2.30300E-18
 -1      2138 1.39899E-04-4.26758E-05-4.14033E-05 3.75929E-05 2.43649E-18 1.63731E-18
 -1      2139 1.18344E-04-4.19936E-05-3.30626E-05 4.07396E-05 3.09591E-18 2.99045E-18
 -1      2140 1.23172E-04-5.28976E-05-2.98488E-05 3.85829E-05 2.34141E-18 1.72774E-18
 -1      2141 1.70537E-04-3.43396E-05-5.70734E-05 2.51873E-05 2.68372E-18 4.56974E-19
 -1      2142 1.51722E-04-3.65846E-05-4.93980E-05 2.48033E-05 1.93457E-18 6.72968E-19
 -1      2143 1.89189E-04-2.87751E-05-6.73128E-05 1.44108E-05 3.49761E-18-3.56601E-19
 -1      2144 1.76348E-04-2.84019E-05-6.27229E-05 2.17775E-05 3.26828E-18 1.94394E-19
 -1      2145 1.83920E-04-2.04715E-05-6.93565E-05-1.29488E-06 2.41193E-18-2.98023E-19
 -1      2146 1.91172E-04-2.50168E-05-6.94978E-05 8.13700E-06 3.09802E-18-2.57498E-19
 -1      2147 1.69103E-04-1.69152E-05-6.39310E-05 1.83310E-06 3.21195E-18-9.33430E-19
 -1      2148 1.83606E-04-2.57379E-05-6.63578E-05-1.35698E-05 3.87348E-18-4.68409E-19
 -1      2149 1.83272E-04-2.22442E-05-6.83168E-05-4.02711E-06 3.16282E-18 1.22079E-19
 -1      2150 1.65703E-04-3.14497E-05-5.70095E-05-2.71447E-05 3.30459E-18-1.88338E-18
 -1      2151 1.79696E-04-3.12358E-05-6.25580E-05-2.06000E-05 3.27082E-18-1.24006E-18
 -1      2152 1.37750E-04-3.75679E-05-4.30916E-05-3.66181E-05 4.07253E-18-1.58141E-18
 -1      2153 1.57614E-04-3.68197E-05-5.08090E-05-3.51146E-05 3.72991E-18-1.18500E-18
 -1      2154 1.03779E-04-4.19546E-05-2.72050E-05-4.29878E-05 3.49655E-18-2.86467E-18
 -1      2155 1.24180E-04-3.99205E-05-3.56085E-05-4.55567E-05 3.69645E-18-2.20017E-18
 -1      2156 6.73094E-05-4.25922E-05-1.17140E-05-4.29433E-05 3.25769E-18-3.27092E-18
 -1      2157 8.48138E-05-3.90631E-05-1.96599E-05-4.86140E-05 3.55627E-18-3.40613E-18
 -1      2158 3.51866E-05-4.09810E-05 9.71254E-07-3.44153E-05 1.53991E-18-4.93333E-18
 -1      2159 4.84280E-05-3.76002E-05-5.16046E-06-4.29206E-05 2.95360E-18-4.40214E-18
 -1      2160 1.51130E-05-3.82237E-05 8.38616E-06-1.90756E-05-2.06253E-19-6.06137E-18
 -1      2161 2.16048E-05-3.69546E-05 5.40143E-06-2.73150E-05 1.44546E-18-5.63129E-18
 -1      2162 1.19932E-05-3.55321E-05 8.84684E-06 1.71253E-06-6.89273E-19-4.80945E-18
 -1      2163 1.09601E-05-3.52073E-05 9.08904E-06-8.03380E-06 3.41248E-19-5.73907E-18
 -1      2164 3.04604E-05-3.73736E-05 2.21785E-06 2.37891E-05-1.73557E-18-3.60497E-18
 -1      2165 2.00789E-05-3.73364E-05 6.11487E-06 1.33325E-05-6.37392E-19-3.80911E-18
 -1      2166 6.64330E-05-4.76334E-05-9.06568E-06 3.47140E-05-3.20687E-18-6.93508E-19
 -1      2167 4.84441E-05-4.68614E-05-2.28128E-06 2.86665E-05-1.83849E-18-1.82218E-18
 -1      2168 1.15634E-04-5.68362E-05-2.57599E-05 3.53858E-05-2.49536E-18 2.76556E-19
 -1      2169 8.77268E-05-5.43463E-05-1.60503E-05 3.17765E-05-3.16324E-18 8.74562E-20
 -1      2170 9.17096E-05-5.64671E-05-1.55475E-05 3.65952E-05-1.06387E-18 6.78050E-19
 -1      2171 1.66201E-04-6.03112E-05-4.49672E-05 1.94460E-05-2.37635E-18-4.06576E-19
 -1      2172 1.41638E-04-6.09237E-05-3.54420E-05 2.07158E-05-2.29080E-18-8.80914E-20
 -1      2173 1.91682E-04-5.26286E-05-5.87156E-05-6.27269E-07-2.76546E-18 5.68783E-19
 -1      2174 1.76599E-04-5.60780E-05-5.15124E-05 6.94092E-06-2.73592E-18-4.70103E-19
 -1      2175 1.73500E-04-6.40880E-05-4.61467E-05-4.48058E-06-1.97602E-18 9.16913E-19
 -1      2176 2.04616E-04-3.88139E-05-6.92207E-05-5.88098E-06-3.87941E-18 2.40684E-18
 -1      2177 1.96282E-04-4.33142E-05-6.44537E-05-5.20125E-06-3.20602E-18 1.46113E-18
 -1      2178 1.84099E-04-4.84980E-05-5.68920E-05-1.70865E-05-3.36717E-18 1.29596E-18
 -1      2179 2.03356E-04-3.27692E-05-7.09021E-05-2.14630E-06-4.89331E-18 2.23680E-18
 -1      2180 1.99960E-04-3.38046E-05-6.98470E-05-4.46705E-06-4.76541E-18 1.99709E-18
 -1      2181 1.98013E-04-4.13272E-05-6.56780E-05 1.97456E-06-3.56431E-18 3.80699E-18
 -1      2182 2.04314E-04-3.81629E-05-6.95681E-05 5.54970E-06-4.39907E-18 2.16756E-18
 -1      2183 1.73539E-04-5.39886E-05-5.13575E-05-1.18115E-05-2.00133E-18 5.25923E-18
 -1      2184 1.97384E-04-5.30157E-05-6.02426E-05-7.80435E-06-2.68689E-18 5.45320E-18
 -1      2185 1.32254E-04-5.82036E-05-3.28953E-05-2.48746E-05-9.45289E-19 5.64039E-18
 -1      2186 1.60166E-04-5.84746E-05-4.31216E-05-2.50973E-05-2.19932E-18 6.02918E-18
 -1      2187 8.07151E-05-5.31445E-05-1.36937E-05-3.16810E-05 2.18789E-18 5.64632E-18
 -1      2188 1.06988E-04-5.37597E-05-2.33084E-05-3.69966E-05 5.55654E-19 6.98379E-18
 -1      2189 4.32791E-05-4.48638E-05-6.90724E-07-2.72243E-05 3.60836E-18 5.21031E-18
 -1      2190 6.10389E-05-4.63570E-05-7.17240E-06-3.42910E-05 2.14808E-18 6.93784E-18
 -1      2191 1.53090E-05-3.85690E-05 8.30488E-06-6.93618E-06 2.55433E-18-1.35949E-18
 -1      2192 2.27165E-05-3.63206E-05 4.76888E-06-1.81635E-05 2.51696E-18 1.99646E-18
 -1      2193 2.82762E-05-3.62852E-05 2.48188E-06 3.31655E-05 2.77319E-18 1.55515E-18
 -1      2194 1.94937E-05-3.88693E-05 6.72886E-06 2.41596E-05 3.06075E-18-2.66815E-19
 -1      2195 9.52628E-05-2.85448E-05-2.85930E-05-4.47456E-08 4.38024E-19-1.28615E-18
 -1      2196 1.46646E-05-2.55744E-05 3.98371E-06-4.52659E-06 1.14572E-18-6.21722E-19
 -1      2197 1.79042E-04-2.78023E-05-6.36362E-05 7.02519E-06-4.83698E-18-2.70309E-19
 -1      2198 4.34702E-05-3.60693E-05-3.53113E-06 4.33435E-05 7.74612E-19 1.53546E-18
 -1      2199 9.71954E-05-2.42595E-05-3.13434E-05-1.01098E-05-1.41743E-18-3.76215E-19
 -1      2200 9.63430E-05-2.30180E-05-3.14889E-05-1.04898E-05-1.47873E-18-8.42665E-19
 -1      2201 1.61463E-04-5.96420E-05-4.36761E-05-1.83598E-05-4.00888E-19 1.03952E-18
 -1      2202 1.59519E-04-5.37767E-05-4.54238E-05-2.49690E-05-1.03253E-18 1.42873E-18
 -1      2203 1.65247E-04-4.39808E-05-5.25853E-05-2.54312E-05-2.90003E-18 1.21803E-18
 -1      2204 1.61389E-04-3.50443E-05-5.47116E-05-2.14836E-05-3.85569E-18-3.48978E-19
 -1      2205 1.75719E-04-4.53298E-05-5.58135E-05 2.22992E-05-1.88507E-18-2.76980E-19
 -1      2206 8.46296E-05-4.82035E-05-1.56843E-05 4.82092E-05 1.51958E-18 2.14088E-18
 -1      2207 1.73691E-04-1.65356E-05-6.63483E-05-1.11655E-06 2.18407E-18-1.45690E-19
 -1      2208 1.56015E-04-9.27457E-06-6.29441E-05 9.53039E-07 2.02399E-18-1.22175E-18
 -1      2209 1.56193E-04-1.12041E-05-6.20605E-05 6.91523E-07 2.87695E-18-7.54283E-19
 -1      2210 1.50008E-04-4.61138E-05-4.40724E-05 1.97521E-05 2.02377E-18-2.23617E-19
 -1      2211 9.52611E-05-2.85251E-05-2.86009E-05-7.11821E-08 4.80944E-19-1.67937E-18
 -1      2212 1.74424E-05-2.78191E-05 3.70261E-06 2.25751E-05 1.52635E-18-6.25110E-19
 -1      2213 4.10197E-05-3.61613E-05-2.51429E-06-2.91852E-05 2.16840E-18 4.41241E-18
 -1      2214 8.54420E-05-5.44676E-05-1.39051E-05-3.69382E-05 2.90659E-18 6.48060E-18
 -1      2215 1.33557E-04-6.63932E-05-2.89999E-05-2.58240E-05 1.47977E-18 5.55675E-18
 -1      2216 1.71754E-04-6.36994E-05-4.58746E-05-8.10061E-07-4.57610E-19 4.00223E-18
 -1      2217 1.82259E-04-3.16522E-05-6.31356E-05-1.18480E-05-4.49478E-18 7.14049E-19
 -1      2218 1.40433E-04-6.74071E-05-3.13083E-05 2.17736E-05-1.01813E-18 1.01136E-18
 -1      2219 4.80650E-05-3.91985E-05-4.36837E-06 3.22061E-05 1.09691E-19-2.19297E-18
 -1      2220 1.92517E-05-2.53820E-05 2.16665E-06 1.21070E-05 7.02931E-19-4.46895E-18
 -1      2221 1.44087E-05-2.61368E-05 4.25390E-06-1.56280E-05 4.23622E-19-6.14480E-18
 -1      2222 3.36205E-05-3.34157E-05-7.01962E-07-3.86700E-05 1.07150E-19-5.52075E-18
 -1      2223 6.86115E-05-4.42087E-05-1.07511E-05-4.80864E-05 1.00628E-18-2.95318E-18
 -1      2224 1.08179E-04-5.13237E-05-2.42684E-05-4.42740E-05 1.57252E-18-1.51894E-18
 -1      2225 1.39988E-04-4.94841E-05-3.82974E-05-2.98364E-05 2.34289E-18 2.45640E-19
 -1      2226 1.59044E-04-3.77462E-05-5.11005E-05-1.46633E-05 2.96959E-18-1.77877E-19
 -1      2227 1.56510E-04-6.42836E-05-3.97506E-05-6.01931E-06-1.19008E-19 1.11660E-18
 -1      2228 9.52704E-05-2.84968E-05-2.86165E-05-1.23249E-07-8.53275E-19-2.57251E-18
 -1      2229 1.62939E-04-2.96146E-05-5.64760E-05 5.46664E-06 2.66413E-18-1.58988E-18
 -1      2230 1.66946E-04-2.30847E-05-6.05247E-05-4.43179E-06 3.60624E-18-7.70800E-20
 -1      2231 8.81543E-05-1.11471E-05-3.30426E-05-3.63712E-06 3.87005E-19-1.87001E-18
 -1      2232 8.83895E-05-1.14210E-05-3.30237E-05-4.77381E-06 1.16467E-19-1.98167E-18
 -1      2233 8.87424E-05-1.19100E-05-3.29737E-05-5.78765E-06-4.76485E-20-2.06339E-18
 -1      2234 8.91480E-05-1.23850E-05-3.29438E-05-6.95616E-06-2.94687E-19-2.13621E-18
 -1      2235 8.99045E-05-1.37821E-05-3.26231E-05-4.86695E-06 7.52718E-20-1.81246E-18
 -1      2236 8.78022E-05-1.06789E-05-3.30869E-05 6.13079E-07 1.06500E-18-1.70071E-18
 -1      2237 8.77989E-05-1.06746E-05-3.30874E-05-4.91358E-07 9.05121E-19-1.77431E-18
 -1      2238 8.79824E-05-1.09061E-05-3.30671E-05 2.74105E-06 1.32526E-18-1.48386E-18
 -1      2239 8.78679E-05-1.07717E-05-3.30772E-05 1.62792E-06 1.15251E-18-1.63340E-18
 -1      2240 8.91114E-05-1.27116E-05-3.27456E-05 1.04218E-06 1.06652E-18-1.53692E-18
 -1      2241 8.84169E-05-1.14595E-05-3.30192E-05 4.85851E-06 1.59313E-18-1.25432E-18
 -1      2242 8.81775E-05-1.11799E-05-3.30388E-05 3.74040E-06 1.40851E-18-1.39336E-18
 -1      2243 8.93775E-05-1.30720E-05-3.27039E-05 2.99733E-06 1.32068E-18-1.33972E-18
 -1      2244 8.91965E-05-1.24515E-05-3.29365E-05 7.03710E-06 1.89262E-18-7.25252E-19
 -1      2245 8.87788E-05-1.19610E-05-3.29677E-05 5.86889E-06 1.71123E-18-1.04054E-18
 -1      2246 8.99363E-05-1.38288E-05-3.26164E-05 4.93823E-06 1.57206E-18-1.01429E-18
 -1      2247 9.04630E-05-1.40702E-05-3.28045E-05 9.18180E-06 2.09834E-18-8.11166E-20
 -1      2248 8.97858E-05-1.32567E-05-3.28525E-05 8.00496E-06 1.93692E-18-4.80810E-19
 -1      2249 9.08737E-05-1.51010E-05-3.24674E-05 6.82473E-06 1.77272E-18-5.32291E-19
 -1      2250 9.24577E-05-1.66753E-05-3.25772E-05 1.10396E-05 2.17159E-18 6.09189E-19
 -1      2251 9.13803E-05-1.53052E-05-3.26645E-05 9.99495E-06 2.12604E-18 2.23120E-19
 -1      2252 9.22971E-05-1.70718E-05-3.22215E-05 8.47087E-06 1.97647E-18 1.47142E-19
 -1      2253 9.54883E-05-2.08372E-05-3.20933E-05 1.16659E-05 1.95221E-18 1.83041E-18
 -1      2254 9.37919E-05-1.84660E-05-3.23217E-05 1.14224E-05 2.04017E-18 1.06964E-18
 -1      2255 9.42765E-05-2.00158E-05-3.17912E-05 9.41467E-06 1.92606E-18 8.34983E-19
 -1      2256 9.74752E-05-2.45927E-05-3.13017E-05 9.82562E-06 1.58022E-18 3.06213E-18
 -1      2257 9.62486E-05-2.22048E-05-3.17234E-05 1.10689E-05 1.79531E-18 2.29472E-18
 -1      2258 9.58252E-05-2.32093E-05-3.11106E-05 8.76358E-06 1.75107E-18 1.76035E-18
 -1      2259 9.62696E-05-2.56658E-05-3.02697E-05 6.82544E-06 1.52416E-18 2.78012E-18
 -1      2260 9.59264E-05-2.49739E-05-3.03635E-05-6.34841E-06-1.27725E-18-9.07126E-19
 -1      2261 9.52749E-05-2.57581E-05-2.98091E-05-4.38406E-06-1.12679E-18-9.42427E-19
 -1      2262 9.52930E-05-2.84868E-05-2.86302E-05-1.78139E-07-1.32935E-18-2.72734E-18
 -1      2263 9.52613E-05-2.84353E-05-2.86397E-05-2.17058E-07-9.87344E-19-2.07928E-18
 -1      2264 9.53275E-05-2.84865E-05-2.86442E-05-2.28161E-07-1.18993E-18-2.52288E-18
 -1      2265 1.70828E-04-6.05834E-05-4.78852E-05-1.64980E-05-1.57543E-18 9.60747E-19
 -1      2266 1.63898E-04-5.17183E-05-4.86132E-05-2.58887E-05-2.12415E-18 1.04143E-18
 -1      2267 1.31619E-04-5.62957E-05-3.26395E-05 3.17381E-05 1.26377E-18-4.26269E-19
 -1      2268 1.17848E-04-5.59150E-05-2.64813E-05 3.79585E-05 9.43595E-19 4.43845E-19
 -1      2269 5.49610E-05-3.47363E-05-8.68138E-06 4.79232E-05 5.18808E-20 2.21160E-18
 -1      2270 3.91310E-05-2.89922E-05-4.01903E-06 3.96401E-05 6.69791E-19 4.54010E-19
 -1      2271 9.51794E-05-2.64729E-05-2.93878E-05-3.00748E-06-9.92374E-19-8.04886E-19
 -1      2272 9.47097E-05-2.68507E-05-2.90810E-05-1.90610E-06-8.20328E-19-9.26063E-19
 -1      2273 9.53517E-05-2.52566E-05-3.00488E-05-4.37177E-06-1.07819E-18-1.11076E-18
 -1      2274 9.45329E-05-2.71742E-05-2.88284E-05-1.05678E-06-6.24233E-19-9.12545E-19
 -1      2275 9.42888E-05-2.73849E-05-2.86688E-05-4.41079E-07-5.21231E-19-1.03127E-18
 -1      2276 9.50799E-05-2.66069E-05-2.93609E-05-1.96454E-06-8.24983E-19-8.82045E-19
 -1      2277 9.41464E-05-2.75758E-05-2.85068E-05 1.22735E-07-5.22134E-19-8.90739E-19
 -1      2278 9.40579E-05-2.77210E-05-2.84261E-05 4.99443E-07-2.74723E-19-8.81850E-19
 -1      2279 9.47957E-05-2.73320E-05-2.89265E-05-4.24225E-07-4.39888E-19-9.12952E-19
 -1      2280 9.39850E-05-2.78309E-05-2.83383E-05 8.36293E-07-9.69174E-20-7.20641E-19
 -1      2281 9.40160E-05-2.79389E-05-2.83146E-05 1.05126E-06 1.93821E-20-5.47719E-19
 -1      2282 9.46136E-05-2.77681E-05-2.86594E-05 5.61311E-07-1.81343E-19-6.24584E-19
 -1      2283 9.40039E-05-2.80067E-05-2.82775E-05 1.25092E-06-3.50145E-20-5.16908E-19
 -1      2284 9.41137E-05-2.80902E-05-2.82913E-05 1.37479E-06 1.15837E-19-5.48554E-19
 -1      2285 9.45511E-05-2.80287E-05-2.85182E-05 1.15717E-06-5.25477E-20-5.72746E-19
 -1      2286 9.41476E-05-2.81310E-05-2.82898E-05 1.49823E-06 1.25304E-20-7.81338E-19
 -1      2287 9.43103E-05-2.81960E-05-2.83296E-05 1.57904E-06-2.64768E-19-7.66793E-19
 -1      2288 9.45875E-05-2.81832E-05-2.84653E-05 1.52076E-06-1.88456E-19-1.20820E-18
 -1      2289 9.43767E-05-2.82160E-05-2.83541E-05 1.67090E-06-4.37597E-19-7.25322E-19
 -1      2290 9.45773E-05-2.82647E-05-2.84137E-05 1.74431E-06-3.21069E-19-8.40402E-19
 -1      2291 9.46960E-05-2.82631E-05-2.84758E-05 1.76461E-06-3.63898E-19-9.22860E-19
 -1      2292 9.46598E-05-2.82650E-05-2.84562E-05 1.83524E-06-1.88271E-19-6.64033E-19
 -1      2293 9.48830E-05-2.82977E-05-2.85289E-05 1.92464E-06-2.47568E-19-3.63009E-19
 -1      2294 9.48499E-05-2.82820E-05-2.85323E-05 1.96869E-06-2.27125E-19-5.40684E-19
 -1      2295 9.49843E-05-2.82770E-05-2.85915E-05 2.05251E-06-1.52695E-19-1.78157E-19
 -1      2296 9.52531E-05-2.82949E-05-2.86860E-05 2.19654E-06-1.38118E-19-1.66326E-19
 -1      2297 9.50335E-05-2.82425E-05-2.86271E-05 2.20528E-06-1.15237E-19-3.25624E-19
 -1      2298 9.53577E-05-2.82449E-05-2.87665E-05 2.38800E-06-4.32329E-19-2.28574E-19
 -1      2299 9.56696E-05-2.82436E-05-2.88829E-05 2.61332E-06-3.98391E-19-1.51903E-19
 -1      2300 9.52365E-05-2.81338E-05-2.87597E-05 2.54448E-06-2.12051E-19 5.84321E-20
 -1      2301 9.57661E-05-2.81532E-05-2.89825E-05 2.90208E-06-2.84292E-19-4.10046E-19
 -1      2302 9.61328E-05-2.81263E-05-2.91268E-05 3.24629E-06-1.05578E-19-2.30415E-19
 -1      2303 9.54339E-05-2.79354E-05-2.89279E-05 3.04686E-06-4.20883E-19-1.02805E-20
 -1      2304 9.62017E-05-2.79774E-05-2.92470E-05 3.67211E-06 2.95932E-19-5.48243E-20
 -1      2305 9.66377E-05-2.79158E-05-2.94269E-05 4.18248E-06 4.93474E-19 3.68931E-19
 -1      2306 9.55952E-05-2.76138E-05-2.91325E-05 3.78604E-06 1.75408E-19 2.51247E-19
 -1      2307 9.66465E-05-2.76825E-05-2.95678E-05 4.79331E-06 2.01725E-19 2.90225E-19
 -1      2308 9.71622E-05-2.75740E-05-2.97911E-05 5.52937E-06 3.85354E-19 2.37479E-19
 -1      2309 9.56710E-05-2.71202E-05-2.93725E-05 4.84814E-06 3.78363E-19 5.73225E-19
 -1      2310 9.70650E-05-2.72459E-05-2.99403E-05 6.33877E-06 5.04536E-19 1.55502E-19
 -1      2311 9.76555E-05-2.70959E-05-3.01991E-05 7.30022E-06 5.08595E-19 1.38757E-19
 -1      2312 9.55872E-05-2.64103E-05-2.96321E-05 6.28635E-06 3.81482E-19-2.64527E-19
 -1      2313 9.73885E-05-2.66152E-05-3.03574E-05 8.44548E-06 1.26249E-19-8.80120E-20
 -1      2314 9.81163E-05-2.64202E-05-3.06751E-05 9.80399E-06 3.46920E-19 2.55185E-21
 -1      2315 9.52372E-05-2.54290E-05-2.98947E-05 8.23833E-06 1.83546E-19 9.71900E-20
 -1      2316 9.75926E-05-2.58099E-05-3.08000E-05 1.13160E-05 7.15369E-19-1.68620E-19
 -1      2317 9.84722E-05-2.56675E-05-3.11421E-05 1.30426E-05 7.68464E-19-2.61294E-19
 -1      2318 9.44642E-05-2.41262E-05-3.01081E-05 1.08680E-05 2.10961E-19-3.75327E-19
 -1      2319 9.76714E-05-2.50596E-05-3.11625E-05 1.49667E-05 8.21624E-19-2.54943E-19
 -1      2320 9.88308E-05-2.52414E-05-3.14691E-05 1.69599E-05 6.71320E-19 1.41291E-19
 -1      2321 9.31599E-05-2.26950E-05-3.01471E-05 1.42246E-05 6.97383E-19-7.01112E-19
 -1      2322 9.79317E-05-2.50542E-05-3.12612E-05 1.92937E-05 4.57302E-19 3.03000E-19
 -1      2323 9.97737E-05-2.62199E-05-3.14238E-05 2.11920E-05 5.66024E-19 4.03460E-19
 -1      2324 9.14266E-05-2.17456E-05-2.97977E-05 1.83543E-05 6.69802E-19-6.12337E-19
 -1      2325 9.95057E-05-2.74807E-05-3.08171E-05 2.38425E-05 2.70177E-19 5.15770E-19
 -1      2326 1.02922E-04-3.09203E-05-3.07111E-05 2.48748E-05 3.66792E-19 4.78005E-19
 -1      2327 8.99793E-05-2.27635E-05-2.87318E-05 2.32569E-05 6.04887E-19-2.09019E-19
 -1      2328 1.04714E-04-3.45785E-05-2.97666E-05 2.68356E-05 5.90779E-19 5.49116E-19
 -1      2329 1.10112E-04-4.08997E-05-2.95163E-05 2.61252E-05 7.55765E-19 8.99708E-19
 -1      2330 9.11644E-05-2.85930E-05-2.67629E-05 2.83902E-05 6.40939E-19 4.26613E-19
 -1      2331 1.22138E-04-5.04713E-05-3.01673E-05 2.40203E-05 6.78262E-19 1.33412E-18
 -1      2332 1.31752E-04-5.94038E-05-3.10059E-05 1.86385E-05 4.22564E-19 1.39237E-18
 -1      2333 9.48232E-05-2.68718E-05-2.91057E-05 3.16097E-06 1.19459E-18 2.38928E-18
 -1      2334 9.57773E-05-2.65405E-05-2.96427E-05 4.81745E-06 1.31616E-18 2.66790E-18
 -1      2335 9.58226E-05-2.54946E-05-3.00987E-05 5.94349E-06 1.40895E-18 2.09651E-18
 -1      2336 1.60256E-05-1.71903E-05 7.43430E-07 2.89678E-06 4.72194E-19-1.00543E-18
 -1      2337 2.05556E-05-1.83750E-05-7.34299E-07-1.19517E-05 1.44419E-19-6.41204E-19
 -1      2338 1.41196E-04-6.42968E-05-3.27494E-05-1.24278E-05 2.88521E-18 1.18765E-18
 -1      2339 1.31243E-04-5.69865E-05-3.14079E-05-1.95656E-05 2.60505E-18 1.11859E-18
 -1      2340 1.21321E-04-4.78853E-05-3.13032E-05-2.24518E-05 8.02352E-19 6.26626E-19
 -1      2341 1.13756E-04-4.00876E-05-3.12284E-05-2.53303E-05-5.42630E-20 5.34888E-19
 -1      2342 1.13422E-04-5.06730E-05-2.69311E-05-2.88918E-05 1.28622E-18 4.41246E-18
 -1      2343 1.09624E-04-3.48276E-05-3.19525E-05-2.43103E-05 7.71065E-19-8.80458E-19
 -1      2344 1.05349E-04-3.05832E-05-3.19318E-05-2.40037E-05 1.15240E-18-8.40766E-19
 -1      2345 1.00482E-04-3.44259E-05-2.83089E-05-2.83306E-05-3.03079E-19 9.50344E-19
 -1      2346 1.04395E-04-2.87165E-05-3.23704E-05-2.17509E-05 7.37415E-19-7.92881E-19
 -1      2347 1.01940E-04-2.69830E-05-3.21193E-05-2.00564E-05 2.41272E-19-8.72929E-19
 -1      2348 9.60550E-05-2.62916E-05-2.98684E-05-2.43261E-05 6.55802E-19-2.47982E-19
 -1      2349 1.02099E-04-2.67967E-05-3.22161E-05-1.76820E-05 6.41234E-19-1.20999E-18
 -1      2350 1.00497E-04-2.62818E-05-3.18306E-05-1.56800E-05 3.53514E-19-8.33027E-19
 -1      2351 9.54677E-05-2.38679E-05-3.06469E-05-1.95918E-05 5.52080E-19-9.66012E-19
 -1      2352 1.00829E-04-2.66728E-05-3.17255E-05-1.36019E-05 1.63431E-19-8.73720E-19
 -1      2353 9.96491E-05-2.66203E-05-3.13198E-05-1.17874E-05-5.06102E-20-7.42586E-19
 -1      2354 9.59834E-05-2.40353E-05-3.07980E-05-1.51839E-05 4.43738E-19-4.15786E-19
 -1      2355 9.98666E-05-2.70750E-05-3.11438E-05-1.01923E-05-1.20085E-18 9.18212E-20
 -1      2356 9.89683E-05-2.71474E-05-3.07969E-05-8.78760E-06-1.29591E-18 2.09773E-19
 -1      2357 9.64911E-05-2.49835E-05-3.06195E-05-1.15305E-05-1.74497E-19-4.18543E-19
 -1      2358 9.90319E-05-2.75433E-05-3.05944E-05-7.47860E-06-7.69414E-19 5.37270E-19
 -1      2359 9.82845E-05-2.76302E-05-3.02920E-05-6.35601E-06-6.44258E-20 1.83797E-19
 -1      2360 9.67454E-05-2.59793E-05-3.03082E-05-8.60409E-06-7.76028E-19 1.47360E-18
 -1      2361 9.82481E-05-2.79161E-05-3.01079E-05-5.37934E-06 3.91352E-19 3.98014E-19
 -1      2362 9.76609E-05-2.79800E-05-2.98705E-05-4.55665E-06 7.11392E-19 6.06711E-19
 -1      2363 9.67590E-05-2.68071E-05-2.99675E-05-6.28791E-06 3.01514E-19 9.47503E-19
 -1      2364 9.75667E-05-2.81692E-05-2.97158E-05-3.84142E-06 6.53413E-19 4.90992E-19
 -1      2365 9.71129E-05-2.82087E-05-2.95348E-05-3.24973E-06-3.73072E-19 1.25570E-18
 -1      2366 9.66174E-05-2.74030E-05-2.96573E-05-4.55550E-06 6.49378E-19 6.33237E-19
 -1      2367 9.69978E-05-2.83280E-05-2.94109E-05-2.73165E-06-9.81640E-19 8.44429E-19
 -1      2368 9.66523E-05-2.83491E-05-2.92754E-05-2.31003E-06-1.09784E-18 6.45051E-19
 -1      2369 9.64041E-05-2.78064E-05-2.93966E-05-3.28144E-06-4.69647E-19 7.58423E-19
 -1      2370 9.65384E-05-2.84220E-05-2.91789E-05-1.93680E-06-1.13177E-18 3.79391E-19
 -1      2371 9.62796E-05-2.84314E-05-2.90790E-05-1.63750E-06-1.01300E-19 3.00037E-19
 -1      2372 9.61748E-05-2.80700E-05-2.91874E-05-2.35363E-06-9.96450E-19 1.35135E-18
 -1      2373 9.61832E-05-2.84724E-05-2.90089E-05-1.38161E-06 1.67622E-19-5.16027E-19
 -1      2374 9.59979E-05-2.84756E-05-2.89386E-05-1.17654E-06-2.08919E-19-1.08754E-18
 -1      2375 9.59654E-05-2.82365E-05-2.90278E-05-1.69395E-06-5.79044E-19 7.78896E-19
 -1      2376 9.59102E-05-2.85014E-05-2.88824E-05-9.79286E-07-4.93474E-19-2.42443E-18
 -1      2377 9.57665E-05-2.85007E-05-2.88285E-05-8.24404E-07-1.28163E-18-3.20545E-18
 -1      2378 9.57832E-05-2.83399E-05-2.89052E-05-1.21517E-06-1.24593E-18-2.21383E-18
 -1      2379 9.56960E-05-2.85146E-05-2.87869E-05-6.81735E-07-4.80283E-19-2.80643E-18
 -1      2380 9.55919E-05-2.85123E-05-2.87483E-05-5.69883E-07 3.37037E-19-3.31286E-18
 -1      2381 9.56283E-05-2.84070E-05-2.88102E-05-8.55874E-07-5.19417E-19-2.97844E-18
 -1      2382 9.55363E-05-2.85197E-05-2.87179E-05-4.64204E-07 9.41054E-19-3.27156E-18
 -1      2383 9.54646E-05-2.85163E-05-2.86907E-05-3.84220E-07 1.00495E-18-2.75796E-18
 -1      2384 9.55032E-05-2.84465E-05-2.87397E-05-5.93898E-07 4.79182E-19-2.26772E-18
 -1      2385 9.54128E-05-2.84993E-05-2.86748E-05-3.34719E-07 1.34629E-18-3.27312E-18
 -1      2386 9.53645E-05-2.84972E-05-2.86557E-05-2.71913E-07 3.30490E-19-2.45616E-18
 -1      2387 9.53121E-05-2.84315E-05-2.86660E-05-3.23827E-07 4.77983E-19-2.99814E-18
 -1      2388 9.53965E-05-2.84496E-05-2.86941E-05-4.28303E-07 8.85139E-19-2.73913E-18
 -1      2389 9.36480E-05-2.74538E-05-2.83574E-05 2.83272E-07 5.68399E-19 1.54795E-18
 -1      2390 9.38940E-05-2.73126E-05-2.85010E-05 8.47477E-07 8.30683E-19 1.68391E-18
 -1      2391 9.40365E-05-2.72110E-05-2.86170E-05 1.40011E-06 8.69658E-19 1.81038E-18
 -1      2392 9.45636E-05-2.70328E-05-2.88996E-05 2.36544E-06 9.77416E-19 2.12720E-18
 -1      2393 9.49939E-05-2.66638E-05-2.92912E-05 3.04744E-06 1.13914E-18 1.62341E-18
 -1      2394 9.46116E-05-2.70970E-05-2.89527E-05 1.50595E-06 9.47133E-19 1.19144E-18
 -1      2395 9.34101E-05-2.78525E-05-2.80902E-05-9.90645E-07 3.63892E-19 5.76479E-19
 -1      2396 9.33324E-05-2.77562E-05-2.80909E-05-8.26351E-07 1.48449E-19 7.76882E-19
 -1      2397 9.35754E-05-2.79997E-05-2.80993E-05-1.23214E-06 4.66460E-19 7.94768E-19
 -1      2398 9.34186E-05-2.79104E-05-2.80681E-05-1.14980E-06 3.31392E-19 5.77036E-19
 -1      2399 9.40412E-05-2.79923E-05-2.83155E-05-1.12101E-06 4.34390E-19 2.07602E-19
 -1      2400 9.38445E-05-2.81332E-05-2.81583E-05-1.34680E-06 3.10395E-19 1.01019E-18
 -1      2401 9.36420E-05-2.80495E-05-2.81081E-05-1.31094E-06 3.49741E-19 9.87399E-19
 -1      2402 9.41327E-05-2.81464E-05-2.82861E-05-1.39938E-06 2.66486E-19 2.73190E-19
 -1      2403 9.41777E-05-2.82592E-05-2.82478E-05-1.39089E-06 3.80745E-19 1.09301E-18
 -1      2404 9.39501E-05-2.81792E-05-2.81867E-05-1.38003E-06 3.97868E-19 1.03764E-18
 -1      2405 9.43142E-05-2.82690E-05-2.83094E-05-1.53859E-06 2.97825E-19 6.14895E-19
 -1      2406 9.45505E-05-2.83835E-05-2.83550E-05-1.39724E-06 4.26645E-19 1.05485E-18
 -1      2407 9.43099E-05-2.83048E-05-2.82882E-05-1.39957E-06 4.72803E-19 1.15030E-18
 -1      2408 9.45570E-05-2.83760E-05-2.83663E-05-1.59902E-06 4.14454E-19 7.04952E-19
 -1      2409 9.49481E-05-2.85128E-05-2.84709E-05-1.38049E-06 7.49290E-19 9.17618E-19
 -1      2410 9.47020E-05-2.84324E-05-2.84022E-05-1.39201E-06 4.81524E-19 9.33131E-19
 -1      2411 9.48433E-05-2.84802E-05-2.84435E-05-1.61534E-06 6.35715E-19 6.11945E-19
 -1      2412 9.53609E-05-2.86550E-05-2.85882E-05-1.33923E-06 4.94629E-19 1.08411E-18
 -1      2413 9.51151E-05-2.85694E-05-2.85207E-05-1.36308E-06 8.13744E-19 1.14989E-18
 -1      2414 9.51637E-05-2.85947E-05-2.85312E-05-1.60162E-06 5.36604E-19 9.24243E-19
 -1      2415 9.57798E-05-2.88181E-05-2.86997E-05-1.25656E-06-1.85041E-19 1.24345E-18
 -1      2416 9.55414E-05-2.87242E-05-2.86370E-05-1.30291E-06 1.57831E-19 1.17486E-18
 -1      2417 9.55139E-05-2.87335E-05-2.86215E-05-1.55334E-06 2.97531E-19 9.65044E-19
 -1      2418 9.61918E-05-2.90087E-05-2.87974E-05-1.10043E-06 1.76192E-19 9.28337E-19
 -1      2419 9.59719E-05-2.89049E-05-2.87439E-05-1.18628E-06-5.27851E-20 1.10872E-18
 -1      2420 9.58916E-05-2.89109E-05-2.87070E-05-1.44806E-06 3.24068E-20 4.01122E-19
 -1      2421 9.65753E-05-2.92289E-05-2.88710E-05-8.25304E-07 6.85871E-19 4.79400E-19
 -1      2422 9.63917E-05-2.91169E-05-2.88328E-05-9.73338E-07 5.43298E-19 9.12141E-19
 -1      2423 9.62926E-05-2.91399E-05-2.87802E-05-1.24600E-06 5.04994E-19 5.98204E-19
 -1      2424 9.68952E-05-2.94708E-05-2.89089E-05-3.77161E-07 9.52240E-19 6.05905E-19
 -1      2425 9.67744E-05-2.93585E-05-2.88933E-05-6.12656E-07 7.56869E-19 5.40704E-19
 -1      2426 9.67056E-05-2.94270E-05-2.88334E-05-8.92563E-07 6.54529E-19 3.80732E-19
 -1      2427 9.70988E-05-2.97098E-05-2.88983E-05 2.95338E-07 4.08097E-19 8.38797E-19
 -1      2428 9.70768E-05-2.96146E-05-2.89136E-05-4.91613E-08 9.79028E-19 9.33606E-19
 -1      2429 9.71058E-05-2.97644E-05-2.88590E-05-3.25236E-07 6.58212E-19 8.34908E-19
 -1      2430 9.71133E-05-2.98971E-05-2.88279E-05 1.22112E-06-4.87191E-19 7.47518E-19
 -1      2431 9.72344E-05-2.98485E-05-2.88820E-05 7.60301E-07-1.72588E-19 6.98655E-19
 -1      2432 9.74475E-05-3.01195E-05-2.88511E-05 5.11935E-07 1.64853E-19 7.47271E-19
 -1      2433 9.68497E-05-2.99547E-05-2.86915E-05 2.37790E-06-3.73613E-19 1.65869E-19
 -1      2434 9.71599E-05-2.99949E-05-2.87892E-05 1.82186E-06-4.50178E-19 3.36108E-19
 -1      2435 9.76562E-05-3.04231E-05-2.88075E-05 1.64344E-06-2.02289E-19 6.31804E-19
 -1      2436 9.62169E-05-2.97816E-05-2.84913E-05 3.65887E-06 9.37874E-20-7.94069E-20
 -1      2437 9.67518E-05-2.99593E-05-2.86322E-05 3.07161E-06-2.85078E-19-9.22615E-20
 -1      2438 9.76279E-05-3.05635E-05-2.87316E-05 3.02690E-06-9.17327E-20 2.21271E-21
 -1      2439 9.51529E-05-2.92792E-05-2.82418E-05 4.84841E-06 7.92962E-19 7.80693E-20
 -1      2440 9.59179E-05-2.96334E-05-2.84175E-05 4.34379E-06 4.73638E-19-1.18112E-19
 -1      2441 9.72413E-05-3.03978E-05-2.86335E-05 4.51354E-06 2.93226E-19-5.47955E-19
 -1      2442 9.36732E-05-2.84024E-05-2.79696E-05 5.63115E-06 5.96112E-20 9.11462E-19
 -1      2443 9.46208E-05-2.89350E-05-2.81629E-05 5.36057E-06 6.36091E-19 9.91842E-19
 -1      2444 9.63977E-05-2.97943E-05-2.85294E-05 5.82311E-06 1.39948E-19 2.16844E-19
 -1      2445 9.19238E-05-2.72229E-05-2.77098E-05 5.66107E-06-8.14599E-20 8.74017E-19
 -1      2446 9.29380E-05-2.78713E-05-2.78965E-05 5.77238E-06-7.49477E-21 1.15656E-18
 -1      2447 9.50875E-05-2.87081E-05-2.84369E-05 6.56551E-06 5.49645E-20 1.06727E-18
 -1      2448 9.02032E-05-2.59671E-05-2.74989E-05 4.69505E-06-7.09999E-19 1.51507E-18
 -1      2449 9.11071E-05-2.65969E-05-2.76518E-05 5.26743E-06-4.79192E-19 1.55385E-18
 -1      2450 9.34643E-05-2.72659E-05-2.83690E-05 6.34121E-06-5.99410E-19 1.65194E-18
 -1      2451 8.89116E-05-2.49784E-05-2.73661E-05 2.74583E-06-8.47599E-19 9.61092E-19
 -1      2452 8.95089E-05-2.54163E-05-2.74611E-05 3.72861E-06-6.71745E-19 1.11983E-18
 -1      2453 9.18705E-05-2.57969E-05-2.83294E-05 4.91667E-06-5.69987E-19 1.49370E-18
 -1      2454 8.84130E-05-2.45837E-05-2.73283E-05 1.59376E-07 9.06160E-20 8.38794E-19
 -1      2455 8.85564E-05-2.46900E-05-2.73499E-05 1.35834E-06-6.68289E-19 8.43931E-19
 -1      2456 9.07554E-05-2.47491E-05-2.83124E-05 2.40333E-06-5.33922E-19 7.12024E-19
 -1      2457 8.88691E-05-2.49274E-05-2.73894E-05-2.47103E-06 2.87806E-19 9.96502E-19
 -1      2458 8.85209E-05-2.46667E-05-2.73337E-05-1.33283E-06 4.17607E-19 9.29989E-19
 -1      2459 9.04862E-05-2.44922E-05-2.83103E-05-6.89499E-07 7.72123E-20 1.85463E-19
 -1      2460 9.01546E-05-2.58905E-05-2.75404E-05-4.53341E-06 5.74651E-19 1.09736E-18
 -1      2461 8.94032E-05-2.53504E-05-2.74164E-05-3.70770E-06 3.65347E-19 1.32768E-18
 -1      2462 9.11583E-05-2.51223E-05-2.83209E-05-3.61738E-06 1.97701E-19 8.78952E-20
 -1      2463 9.19159E-05-2.71549E-05-2.77616E-05-5.63844E-06 7.33990E-20 1.79432E-18
 -1      2464 9.09371E-05-2.64994E-05-2.75890E-05-5.25811E-06 5.58319E-19 1.32558E-18
 -1      2465 9.25420E-05-2.64069E-05-2.83498E-05-5.70521E-06 3.32560E-19 3.14462E-19
 -1      2466 9.37352E-05-2.83670E-05-2.80248E-05-5.73101E-06 5.78401E-19 7.44214E-20
 -1      2467 9.27236E-05-2.77586E-05-2.78293E-05-5.78379E-06 7.39416E-19 1.22245E-18
 -1      2468 9.42086E-05-2.79150E-05-2.84054E-05-6.61003E-06 8.68617E-19 5.12775E-19
 -1      2469 9.52870E-05-2.92824E-05-2.82965E-05-5.03263E-06 5.53529E-19-3.73595E-19
 -1      2470 9.43961E-05-2.88246E-05-2.81045E-05-5.40115E-06 2.54593E-19-1.90657E-19
 -1      2471 9.57376E-05-2.92306E-05-2.84903E-05-6.38828E-06 8.76559E-19-7.50527E-19
 -1      2472 9.64080E-05-2.98157E-05-2.85456E-05-3.88985E-06-4.48903E-19-3.47638E-19
 -1      2473 9.57230E-05-2.95396E-05-2.83784E-05-4.41930E-06 6.55127E-22-2.90192E-20
 -1      2474 9.68674E-05-3.01097E-05-2.85969E-05-5.37126E-06 3.82806E-19-3.47244E-19
 -1      2475 9.70804E-05-3.00074E-05-2.87488E-05-2.63154E-06-2.58919E-19-2.14314E-19
 -1      2476 9.66225E-05-2.98910E-05-2.86194E-05-3.18540E-06-5.88819E-19-8.33874E-19
 -1      2477 9.75246E-05-3.05093E-05-2.87100E-05-3.97374E-06-3.32920E-19-4.49893E-19
 -1      2478 9.73748E-05-2.99580E-05-2.88940E-05-1.48983E-06 1.04333E-18 7.21202E-19
 -1      2479 9.71217E-05-2.99554E-05-2.88067E-05-1.97694E-06 3.22471E-19 1.55750E-19
 -1      2480 9.77686E-05-3.05230E-05-2.88123E-05-2.54654E-06-1.41742E-19-4.05237E-19
 -1      2481 9.73944E-05-2.97739E-05-2.89801E-05-5.84928E-07 5.79471E-19 2.73062E-18
 -1      2482 9.73025E-05-2.98379E-05-2.89320E-05-9.61662E-07 1.04897E-18 2.10322E-18
 -1      2483 9.77166E-05-3.02959E-05-2.88907E-05-1.31326E-06 4.13499E-20 1.21298E-18
 -1      2484 9.72393E-05-2.95383E-05-2.90139E-05 5.22680E-08-1.44651E-19 2.98795E-18
 -1      2485 9.72603E-05-2.96318E-05-2.89981E-05-2.06634E-07 9.25680E-19 3.25865E-18
 -1      2486 9.74870E-05-2.99610E-05-2.89382E-05-3.73390E-07 5.24711E-19 2.74327E-18
 -1      2487 9.69900E-05-2.93045E-05-2.90070E-05 4.46342E-07 1.40507E-19 2.03055E-18
 -1      2488 9.70808E-05-2.94030E-05-2.90148E-05 2.91211E-07-2.06220E-19 2.91723E-18
 -1      2489 9.71734E-05-2.96122E-05-2.89547E-05 2.63317E-07 5.74750E-19 3.29696E-18
 -1      2490 9.67042E-05-2.91001E-05-2.89721E-05 6.47468E-07 5.71321E-20 1.01657E-18
 -1      2491 9.68307E-05-2.91900E-05-2.89949E-05 5.72847E-07 5.16933E-19 1.39045E-18
 -1      2492 9.68389E-05-2.93027E-05-2.89449E-05 6.37904E-07 8.16414E-19 2.55369E-18
 -1      2493 9.64195E-05-2.89349E-05-2.89209E-05 7.10988E-07-1.16885E-18 9.01585E-19
 -1      2494 9.65574E-05-2.90104E-05-2.89516E-05 6.92577E-07-1.42727E-18 6.39558E-19
 -1      2495 9.65207E-05-2.90540E-05-2.89155E-05 8.11502E-07-7.10595E-19 1.39917E-18
 -1      2496 9.61576E-05-2.88087E-05-2.88629E-05 6.86129E-07 1.50760E-19 1.62530E-18
 -1      2497 9.62911E-05-2.88686E-05-2.88961E-05 7.02944E-07 4.53121E-20 1.60551E-18
 -1      2498 9.62376E-05-2.88679E-05-2.88741E-05 8.45925E-07-7.66215E-19 1.08264E-18
 -1      2499 9.59295E-05-2.87161E-05-2.88049E-05 6.11363E-07-5.13396E-19 1.67093E-18
 -1      2500 9.60495E-05-2.87617E-05-2.88370E-05 6.47379E-07-3.05908E-19 1.60366E-18
 -1      2501 9.59965E-05-2.87365E-05-2.88271E-05 7.93766E-07-2.38981E-19 2.16974E-18
 -1      2502 9.57388E-05-2.86502E-05-2.87514E-05 5.13805E-07-2.47184E-19 2.88406E-18
 -1      2503 9.58410E-05-2.86839E-05-2.87802E-05 5.57997E-07-3.56671E-19 2.56648E-18
 -1      2504 9.57977E-05-2.86480E-05-2.87797E-05 6.94928E-07-6.95228E-19 2.01713E-18
 -1      2505 9.55846E-05-2.86043E-05-2.87051E-05 4.10639E-07 1.12993E-19 3.42032E-18
 -1      2506 9.56679E-05-2.86287E-05-2.87294E-05 4.56255E-07-6.61978E-20 3.41243E-18
 -1      2507 9.56377E-05-2.85908E-05-2.87356E-05 5.76868E-07-9.03771E-19 3.39898E-18
 -1      2508 9.54636E-05-2.85723E-05-2.86670E-05 3.11325E-07 7.91319E-19 3.09448E-18
 -1      2509 9.55288E-05-2.85898E-05-2.86864E-05 3.54877E-07 3.18408E-19 3.55142E-18
 -1      2510 9.55114E-05-2.85547E-05-2.86968E-05 4.56582E-07-9.47532E-20 3.05361E-18
 -1      2511 9.53712E-05-2.85500E-05-2.86370E-05 2.19736E-07 7.02287E-19 3.12324E-18
 -1      2512 9.54200E-05-2.85622E-05-2.86518E-05 2.59914E-07 1.38229E-18 3.45728E-18
 -1      2513 9.54129E-05-2.85316E-05-2.86643E-05 3.43432E-07 8.75926E-19 3.55062E-18
 -1      2514 9.53028E-05-2.85351E-05-2.86142E-05 1.38101E-07-1.68396E-18 2.58037E-18
 -1      2515 9.53379E-05-2.85430E-05-2.86251E-05 1.74105E-07-8.01535E-19 3.34982E-18
 -1      2516 9.53377E-05-2.85176E-05-2.86381E-05 2.40456E-07 5.08590E-20 4.32705E-18
 -1      2517 9.52776E-05-2.85330E-05-2.86040E-05 9.61611E-08-9.06305E-19 1.60677E-18
 -1      2518 9.50990E-05-2.82171E-05-2.86648E-05 2.18522E-07 1.63033E-19 1.83350E-18
 -1      2519 9.51255E-05-2.82557E-05-2.86580E-05 2.32053E-07-1.63044E-19 8.33672E-19
 -1      2520 9.50508E-05-2.81452E-05-2.86752E-05 1.64898E-07 1.24930E-18 2.01436E-18
 -1      2521 9.50722E-05-2.81759E-05-2.86697E-05 1.92960E-07 3.19692E-19 1.39426E-18
 -1      2522 9.50648E-05-2.81711E-05-2.86681E-05 2.44135E-07 6.46414E-19 1.94338E-18
 -1      2523 9.52118E-05-2.83892E-05-2.86389E-05 2.25215E-07-3.61382E-19-2.47650E-18
 -1      2524 9.52374E-05-2.84289E-05-2.86313E-05 2.09066E-07 3.62625E-20-2.06458E-18
 -1      2525 9.51551E-05-2.83017E-05-2.86524E-05 2.39085E-07-4.27360E-19-2.14188E-18
 -1      2526 9.51827E-05-2.83426E-05-2.86450E-05 2.37056E-07-7.96651E-19-2.41838E-18
 -1      2527 9.52020E-05-2.83559E-05-2.86479E-05 2.76057E-07 2.73264E-19-3.00548E-18
 -1      2528 9.51318E-05-2.82607E-05-2.86586E-05 2.79486E-07-2.01950E-19 3.04244E-19
 -1      2529 9.50173E-05-2.80952E-05-2.86823E-05 8.48301E-08-7.13281E-19-6.02469E-19
 -1      2530 9.50308E-05-2.81139E-05-2.86789E-05 1.23872E-07 3.74442E-19 6.86390E-19
 -1      2531 9.50099E-05-2.80969E-05-2.86760E-05 1.72741E-07 6.05716E-19 1.13839E-18
 -1      2532 9.50043E-05-2.80746E-05-2.86853E-05-1.10061E-08-6.47287E-19-2.18770E-20
 -1      2533 9.50071E-05-2.80784E-05-2.86844E-05 3.34602E-08-3.81797E-19-4.57750E-19
 -1      2534 9.49743E-05-2.80477E-05-2.86816E-05 7.34455E-08-3.49020E-19-4.57817E-19
 -1      2535 9.50152E-05-2.80880E-05-2.86838E-05-1.08367E-07-5.04586E-19 4.04755E-19
 -1      2536 9.50063E-05-2.80756E-05-2.86857E-05-6.54540E-08-7.14252E-19-1.17044E-19
 -1      2537 9.49648E-05-2.80313E-05-2.86843E-05-4.06099E-08-4.55957E-19 1.94138E-20
 -1      2538 9.50500E-05-2.81345E-05-2.86782E-05-1.89920E-07 7.73614E-20-1.94028E-18
 -1      2539 9.50300E-05-2.81075E-05-2.86824E-05-1.56469E-07-1.34157E-19-2.80124E-19
 -1      2540 9.49850E-05-2.80522E-05-2.86840E-05-1.51681E-07-8.83788E-19-4.32237E-19
 -1      2541 9.51063E-05-2.82110E-05-2.86689E-05-2.43265E-07 1.10496E-18 5.15687E-20
 -1      2542 9.50769E-05-2.81718E-05-2.86751E-05-2.24707E-07 8.66274E-19-2.58728E-18
 -1      2543 9.50342E-05-2.81100E-05-2.86805E-05-2.42302E-07 4.53647E-20-1.95473E-18
 -1      2544 9.51747E-05-2.83060E-05-2.86568E-05-2.56906E-07 7.64812E-19-2.81438E-19
 -1      2545 9.51407E-05-2.82614E-05-2.86641E-05-2.56501E-07 1.43667E-18 6.99982E-19
 -1      2546 9.51081E-05-2.82000E-05-2.86738E-05-2.96045E-07 1.09250E-18 3.78721E-19
 -1      2547 9.52326E-05-2.83882E-05-2.86483E-05-2.40912E-07-3.64404E-20-6.58788E-19
 -1      2548 1.54626E-04-2.41571E-05-5.61301E-05-2.01131E-06 2.83968E-18-1.80397E-18
 -1      2549 1.49872E-04-3.12369E-05-5.12829E-05-9.52836E-07 2.49176E-18-1.95940E-18
 -1      2550 9.50326E-05-1.99505E-05-3.22290E-05-1.17984E-05-1.33304E-18-1.35247E-18
 -1      2551 9.54567E-05-2.32240E-05-3.09801E-05-8.10955E-06-1.37978E-18-1.08302E-18
 -1      2552 9.50271E-05-2.24207E-05-3.11025E-05-7.72711E-06-1.27641E-18-1.29534E-18
 -1      2553 9.32176E-05-1.76398E-05-3.24180E-05-1.13247E-05-1.15740E-18-1.67345E-18
 -1      2554 1.84162E-04-4.48183E-05-5.84357E-05 1.50689E-05-2.43691E-18 2.01933E-18
 -1      2555 6.60383E-05-4.18145E-05-1.03054E-05 3.82673E-05 2.23617E-19 8.32210E-20
 -1      2556 4.58459E-05-3.03921E-05-6.33079E-06 3.15926E-05 8.39410E-19-1.65807E-18
 -1      2557 9.34088E-05-2.76813E-05-2.81607E-05-5.32860E-07 7.79742E-20 1.05997E-18
 -1      2558 9.34629E-05-2.75745E-05-2.82141E-05-2.27055E-07 2.39883E-19 1.37335E-18
 -1      2559 9.43028E-05-2.74681E-05-2.86586E-05 2.83701E-07 5.62590E-19 9.74818E-19
 -1      2560 9.40825E-05-2.77829E-05-2.84259E-05-6.07501E-07 3.56244E-19 4.40496E-19
 -1      2561 1.02451E-04-5.26426E-05-2.13164E-05 4.65316E-05 1.82112E-20 1.40062E-18
 -1      2562 8.12787E-05-4.60772E-05-1.46694E-05 4.78411E-05-6.96473E-19 1.39697E-18
 -1      2563 8.78570E-05-1.07561E-05-3.30791E-05-1.50644E-06 7.82529E-19-1.76219E-18
 -1      2564 8.79640E-05-1.08805E-05-3.30700E-05-2.61922E-06 5.47485E-19-1.80378E-18
 -1      2565 8.93571E-05-1.30423E-05-3.27081E-05-2.90484E-06 4.71233E-19-1.67676E-18
 -1      2566 8.91040E-05-1.27006E-05-3.27472E-05-9.31210E-07 7.93890E-19-1.68642E-18
 -1      2567 1.50343E-04-4.49041E-05-4.56960E-05 7.62243E-06 1.88115E-18-1.24175E-18
 -1      2568 1.42661E-04-5.21008E-05-3.87911E-05 1.79963E-05 1.54716E-18-4.76668E-19
 -1      2569 1.53064E-04-2.55462E-05-5.49894E-05 1.84757E-06 2.76980E-18 4.89797E-19
 -1      2570 1.52514E-04-1.82957E-05-5.81698E-05 3.79572E-06 3.02687E-18 1.93971E-19
 -1      2571 1.50509E-04-1.13091E-05-6.03668E-05-3.22889E-06 2.87737E-18-1.06080E-18
 -1      2572 1.52428E-04-1.66995E-05-5.85940E-05-3.16916E-06 3.14461E-18-1.54838E-18
 -1      2573 1.42289E-04-1.81266E-05-5.34288E-05-8.48557E-06 2.38948E-18-1.90212E-18
 -1      2574 1.50041E-04-4.30175E-05-4.60745E-05-8.95250E-06 2.24702E-18 1.19559E-18
 -1      2575 1.54895E-04-3.57326E-05-5.14761E-05-3.85824E-06 2.45851E-18 1.28940E-18
 -1      2576 1.34433E-04-5.49429E-05-3.40866E-05-2.70536E-05 1.11554E-18 1.05625E-18
 -1      2577 1.45359E-04-5.13427E-05-4.06107E-05-1.98721E-05 1.91212E-18 1.54139E-18
 -1      2578 1.03662E-04-5.35130E-05-2.14113E-05-4.37342E-05-2.54110E-20-5.59148E-19
 -1      2579 1.20586E-04-5.58148E-05-2.79553E-05-3.91154E-05 7.75035E-20 4.84926E-19
 -1      2580 6.54400E-05-4.07610E-05-1.03394E-05-4.80949E-05-5.16055E-19-2.15422E-18
 -1      2581 8.51782E-05-4.74593E-05-1.61504E-05-4.99338E-05 1.85077E-19-1.18968E-18
 -1      2582 1.00520E-04-5.24772E-05-2.02577E-05-4.48850E-05-9.56512E-19 2.79514E-19
 -1      2583 3.22540E-05-2.40556E-05-3.13754E-06-3.42501E-05-6.26804E-19-4.70569E-18
 -1      2584 4.56849E-05-2.92650E-05-6.75805E-06-4.39315E-05-9.85735E-19-3.98614E-18
 -1      2585 1.82866E-05-1.50281E-05-8.92780E-07-9.75761E-06 6.24978E-19-5.41085E-18
 -1      2586 2.25612E-05-1.82332E-05-1.46437E-06-2.44171E-05 3.56495E-19-5.71747E-18
 -1      2587 3.53870E-05-1.68595E-05-7.33367E-06-2.88978E-05-5.72594E-19-4.32749E-18
 -1      2588 2.78152E-05-1.86351E-05-3.52733E-06 1.84977E-05 1.27711E-18-3.99927E-18
 -1      2589 1.93869E-05-1.62231E-05-1.01660E-06 4.53885E-06 1.29241E-18-4.66885E-18
 -1      2590 1.08385E-04-5.94782E-05-2.12511E-05 3.55095E-05-4.34528E-19 1.93465E-18
 -1      2591 8.68843E-05-5.14307E-05-1.51462E-05 3.66966E-05-2.00959E-19 1.06477E-18
 -1      2592 1.64645E-04-6.56175E-05-4.25427E-05-7.60662E-06-9.15960E-19 1.07277E-18
 -1      2593 1.52907E-04-6.96293E-05-3.62178E-05 1.10740E-05-7.35860E-19 1.15980E-18
 -1      2594 1.30959E-04-6.60698E-05-2.78012E-05 2.29934E-05-6.31040E-19 1.16224E-18
 -1      2595 8.25378E-05-4.89310E-05-1.43364E-05-3.77090E-05 2.34946E-18 6.05681E-18
 -1      2596 1.03998E-04-5.74601E-05-1.99345E-05-3.54558E-05 2.76133E-18 5.97174E-18
 -1      2597 3.55248E-05-2.55507E-05-3.94821E-06-2.51974E-05 4.48927E-20 3.11412E-18
 -1      2598 5.64932E-05-3.52040E-05-8.91599E-06-3.57426E-05 8.45127E-19 7.38994E-18
 -1      2599 2.57805E-05-2.13530E-05-1.68153E-06 3.07325E-05 5.10761E-19-9.84252E-19
 -1      2600 1.82656E-05-1.78188E-05 1.45802E-07 1.66245E-05 3.30660E-19-6.78473E-19
 -1      2601 1.57157E-04-6.71297E-05-3.87218E-05-1.88660E-06-4.39610E-19 1.09818E-18
 -1      2602 9.08165E-05-1.50241E-05-3.24785E-05-6.75800E-06-4.20226E-19-1.97219E-18
 -1      2603 8.97265E-05-1.31691E-05-3.28626E-05-7.92737E-06-4.83206E-19-2.20552E-18
 -1      2604 9.03805E-05-1.39532E-05-3.28145E-05-9.10002E-06-6.98807E-19-2.15434E-18
 -1      2605 3.53355E-05-1.88252E-05-6.44647E-06-1.94275E-05-9.03149E-19 1.73557E-18
 -1      2606 1.13898E-04-5.64535E-05-2.44246E-05 3.87061E-05-1.49332E-18-6.51792E-19
 -1      2607 1.41283E-04-3.29175E-05-4.70893E-05-8.59594E-06 2.35729E-18-2.57943E-18
 -1      2608 1.48263E-04-3.93062E-05-4.68772E-05-1.05442E-06 2.05347E-18-1.63562E-18
 -1      2609 1.42988E-04-4.52720E-05-4.20164E-05-4.41223E-08 2.07327E-18-1.49173E-18
 -1      2610 1.25355E-04-6.27453E-05-2.67068E-05 2.55646E-05 1.35949E-19 1.44281E-18
 -1      2611 7.54404E-05-4.06268E-05-1.44477E-05 4.69795E-05-9.62865E-19 1.22227E-18
 -1      2612 3.86154E-05-2.16786E-05-6.68584E-06 3.49974E-05 1.77877E-20-9.40207E-20
 -1      2613 1.29236E-04-6.13245E-05-2.93026E-05 2.19444E-05 3.09485E-19 1.08006E-18
 -1      2614 1.46766E-04-6.61754E-05-3.41849E-05 1.00285E-05 1.59348E-19 1.48358E-18
 -1      2615 1.02823E-04-4.24276E-05-2.58040E-05 3.03677E-05 7.68206E-19 1.28617E-18
 -1      2616 1.38908E-04-5.62981E-05-3.52297E-05 1.94606E-05 6.13464E-19-1.53906E-18
 -1      2617 2.36723E-05-1.29262E-05-4.00613E-06 1.02736E-05-4.62348E-19-6.60686E-19
 -1      2618 1.47283E-04-1.31910E-05-5.77491E-05 4.61206E-06 2.82655E-18-5.11396E-19
 -1      2619 1.37748E-04-8.04487E-06-5.64142E-05 5.21515E-06 1.93611E-18-1.39845E-18
 -1      2620 1.37451E-04-1.51413E-05-5.27353E-05 8.56312E-06 2.23659E-18-1.73959E-19
 -1      2621 9.52802E-05-2.85091E-05-2.86161E-05 1.48027E-07-9.23747E-19 1.88001E-18
 -1      2622 1.30619E-04-5.83833E-05-3.07863E-05-2.87390E-05-9.86793E-20 1.18288E-18
 -1      2623 9.52698E-05-2.84821E-05-2.86232E-05 1.74885E-07-5.30308E-19 1.04939E-18
 -1      2624 9.52150E-05-2.83350E-05-2.86622E-05-2.99900E-07 1.82224E-19-1.56927E-18
 -1      2625 1.47092E-04-3.05113E-05-5.00496E-05 5.36074E-06 1.96829E-18 1.72562E-18
 -1      2626 1.36385E-04-5.63002E-06-5.68267E-05-5.72202E-07 2.60780E-18-1.15042E-18
 -1      2627 1.45594E-04-8.59601E-06-5.90421E-05-1.92454E-06 2.85217E-18-6.24422E-19
 -1      2628 1.33973E-04-8.06893E-06-5.43250E-05-5.27997E-06 2.81300E-18-4.55757E-19
 -1      2629 9.11377E-05-1.49697E-05-3.26972E-05-9.80141E-06-7.97202E-19-1.97052E-18
 -1      2630 9.21565E-05-1.62427E-05-3.26119E-05-1.08349E-05-1.00056E-18-1.89227E-18
 -1      2631 9.36080E-05-1.91061E-05-3.19256E-05-9.22309E-06-1.16636E-18-1.67509E-18
 -1      2632 9.20667E-05-1.67752E-05-3.22591E-05-8.27810E-06-7.83677E-19-1.94324E-18
 -1      2633 8.33212E-05-4.51952E-05-1.60292E-05 3.69435E-05 8.44704E-19 9.47195E-19
 -1      2634 7.38711E-05-4.07982E-05-1.37701E-05-3.68632E-05 1.07319E-18 5.85649E-18
 -1      2635 9.00834E-05-4.51585E-05-1.91453E-05-3.62292E-05 7.82235E-19 5.98821E-18
 -1      2636 6.60934E-05-3.10746E-05-1.44389E-05-3.47457E-05-5.25478E-19 5.36828E-18
 -1      2637 2.67806E-05-1.14622E-05-5.90453E-06-3.30111E-06 1.18724E-18-4.85435E-18
 -1      2638 6.28259E-05-3.44210E-05-1.17117E-05-4.52587E-05-1.68390E-18-2.42622E-18
 -1      2639 1.46569E-04-4.93241E-05-4.16556E-05-7.92406E-06 1.14459E-18 1.93229E-18
 -1      2640 9.52734E-05-2.84581E-05-2.86346E-05 2.30657E-07-5.45711E-19 1.07928E-18
 -1      2641 4.17121E-05-2.28927E-05-7.43310E-06 2.56851E-05 1.51598E-18-3.05186E-18
 -1      2642 3.84532E-05-1.48730E-05-9.73142E-06 1.92934E-05 2.08037E-18-3.55161E-18
 -1      2643 5.59987E-05-2.63385E-05-1.24587E-05 3.20072E-05 1.62630E-18-9.70488E-19
 -1      2644 1.13261E-04-5.70455E-05-2.35043E-05-3.14740E-05 2.30097E-18 5.76004E-18
 -1      2645 1.17453E-04-6.25906E-05-2.35808E-05-2.96565E-05 3.33985E-18 5.57686E-18
 -1      2646 1.57911E-04-6.95410E-05-3.79401E-05-2.96843E-06 2.15231E-18 1.25657E-18
 -1      2647 1.39230E-04-6.66338E-05-3.14422E-05-1.94819E-05 1.78237E-18 3.95437E-18
 -1      2648 1.66732E-04-6.33813E-05-4.42425E-05 4.52795E-06 2.88732E-19 2.18958E-18
 -1      2649 1.78800E-04-5.96497E-05-5.12558E-05 1.53844E-05 1.91006E-19 2.43776E-18
 -1      2650 9.05541E-05-1.51059E-05-3.23572E-05 3.16245E-06 1.35988E-18-1.11267E-18
 -1      2651 9.03626E-05-1.48308E-05-3.23912E-05 2.23689E-06 1.19536E-18-1.26436E-18
 -1      2652 9.02273E-05-1.46246E-05-3.24211E-05 1.40889E-06 1.11214E-18-1.44587E-18
 -1      2653 9.01623E-05-1.45313E-05-3.24328E-05 4.61196E-07 9.90248E-19-1.50480E-18
 -1      2654 9.14028E-05-1.65034E-05-3.20865E-05 1.61913E-06 1.04752E-18-1.29335E-18
 -1      2655 9.21479E-05-1.75142E-05-3.20246E-05 6.41677E-06 1.74146E-18-3.75447E-19
 -1      2656 9.16190E-05-1.67100E-05-3.21269E-05 5.58074E-06 1.65428E-18-5.63977E-19
 -1      2657 9.35099E-05-1.97015E-05-3.16856E-05 7.56188E-06 1.86410E-18 3.19520E-19
 -1      2658 9.27733E-05-1.84864E-05-3.18558E-05 6.95729E-06 1.78260E-18-3.81032E-20
 -1      2659 9.34381E-05-1.98093E-05-3.15281E-05 5.67767E-06 1.64404E-18-8.68151E-20
 -1      2660 9.51625E-05-2.26716E-05-3.11008E-05 7.72574E-06 1.65288E-18 8.66434E-19
 -1      2661 9.42550E-05-2.09531E-05-3.14126E-05 7.75039E-06 1.76706E-18 4.74818E-19
 -1      2662 9.45834E-05-2.20096E-05-3.10702E-05 6.21551E-06 1.60158E-18 3.84373E-19
 -1      2663 9.59007E-05-2.48587E-05-3.04487E-05 6.57210E-06 1.47117E-18 1.57216E-18
 -1      2664 9.54573E-05-2.35309E-05-3.08040E-05 7.30804E-06 1.56425E-18 1.21343E-18
 -1      2665 9.53082E-05-2.41565E-05-3.04814E-05 5.72988E-06 1.47393E-18 8.49270E-19
 -1      2666 9.54060E-05-2.57056E-05-2.98502E-05 4.60895E-06 1.32276E-18 1.55513E-18
 -1      2667 9.52323E-05-2.38380E-05-3.05772E-05-5.38755E-06-9.14808E-19-1.24943E-18
 -1      2668 9.51724E-05-2.48787E-05-3.01448E-05-3.85322E-06-8.59704E-19-1.10263E-18
 -1      2669 1.10669E-04-5.41133E-05-2.35892E-05 3.17375E-05 7.10661E-19 1.54570E-18
 -1      2670 9.53832E-05-2.57575E-05-2.98088E-05-2.77176E-06-7.59297E-19-9.11484E-19
 -1      2671 9.52319E-05-2.63352E-05-2.95379E-05-1.78861E-06-6.11609E-19-8.07977E-19
 -1      2672 9.51939E-05-2.45071E-05-3.02966E-05-3.60896E-06-7.09900E-19-1.03617E-18
 -1      2673 9.52632E-05-2.68670E-05-2.92892E-05-9.85350E-07-4.22865E-19-8.74933E-19
 -1      2674 9.51370E-05-2.72288E-05-2.91090E-05-3.22212E-07-2.86812E-19-8.31652E-19
 -1      2675 9.54289E-05-2.61374E-05-2.97024E-05-1.64810E-06-5.08133E-19-7.46060E-19
 -1      2676 9.51097E-05-2.75365E-05-2.89438E-05 2.03970E-07-2.10067E-19-8.17117E-19
 -1      2677 9.50443E-05-2.77585E-05-2.88385E-05 6.15404E-07-6.84571E-20-7.03330E-19
 -1      2678 9.54463E-05-2.71486E-05-2.92776E-05-2.49929E-07-2.67845E-19-8.42666E-19
 -1      2679 9.50048E-05-2.79326E-05-2.87352E-05 9.50269E-07-6.36480E-20-8.26025E-19
 -1      2680 9.49958E-05-2.80682E-05-2.86826E-05 1.20308E-06-1.13807E-19-9.52027E-19
 -1      2681 9.53943E-05-2.77510E-05-2.89969E-05 6.68201E-07-1.48982E-19-9.38925E-19
 -1      2682 9.49611E-05-2.81569E-05-2.86249E-05 1.41558E-06-1.99698E-19-1.11686E-18
 -1      2683 9.49956E-05-2.82335E-05-2.86098E-05 1.57709E-06-2.45443E-19-1.16501E-18
 -1      2684 9.53330E-05-2.80904E-05-2.88239E-05 1.25872E-06-2.25661E-19-1.10121E-18
 -1      2685 9.49673E-05-2.82615E-05-2.85862E-05 1.72106E-06-2.08241E-19-9.00940E-19
 -1      2686 9.50321E-05-2.82923E-05-2.85990E-05 1.84090E-06-2.79911E-19-8.16084E-19
 -1      2687 9.52799E-05-2.82497E-05-2.87315E-05 1.64690E-06-9.49472E-20-8.48183E-19
 -1      2688 9.50055E-05-2.82721E-05-2.86007E-05 1.95321E-06-1.14372E-19-6.86190E-19
 -1      2689 9.50874E-05-2.82653E-05-2.86330E-05 2.06406E-06 4.67831E-20-3.50499E-19
 -1      2690 9.52334E-05-2.82739E-05-2.86997E-05 1.92564E-06-8.98332E-20-6.69597E-19
 -1      2691 9.50526E-05-2.81987E-05-2.86547E-05 2.18934E-06 4.73315E-20-3.78897E-19
 -1      2692 9.51494E-05-2.81513E-05-2.87070E-05 2.33594E-06 1.99107E-19-1.69355E-19
 -1      2693 9.51775E-05-2.81833E-05-2.87133E-05 2.17877E-06 5.11952E-20-4.37801E-19
 -1      2694 9.50899E-05-2.80307E-05-2.87451E-05 2.49783E-06-4.40619E-20-4.60371E-19
 -1      2695 9.51892E-05-2.79362E-05-2.88147E-05 2.70603E-06-4.30198E-19-3.05069E-19
 -1      2696 9.50879E-05-2.79729E-05-2.87633E-05 2.47693E-06-2.55010E-20-4.52511E-19
 -1      2697 9.50825E-05-2.77484E-05-2.88658E-05 2.93282E-06-5.60506E-19-4.07265E-20
 -1      2698 9.51712E-05-2.75930E-05-2.89523E-05 3.23567E-06-2.95301E-19-5.13483E-20
 -1      2699 9.49282E-05-2.76240E-05-2.88419E-05 2.87074E-06-4.08641E-19-6.00032E-19
 -1      2700 9.49817E-05-2.73144E-05-2.90125E-05 3.55523E-06 1.54499E-19-8.34392E-20
 -1      2701 9.50390E-05-2.70768E-05-2.91150E-05 3.98947E-06 5.04375E-19 2.76541E-19
 -1      2702 9.46419E-05-2.70988E-05-2.89406E-05 3.41335E-06 4.19967E-20-8.06682E-20
 -1      2703 9.47125E-05-2.66723E-05-2.91774E-05 4.43036E-06 2.86256E-19-4.71664E-20
 -1      2704 9.47013E-05-2.63227E-05-2.92924E-05 5.03763E-06 1.44143E-19-2.12889E-19
 -1      2705 9.41430E-05-2.63387E-05-2.90468E-05 4.15529E-06 2.49314E-19-3.29476E-20
 -1      2706 9.41878E-05-2.57820E-05-2.93419E-05 5.59883E-06 3.34850E-19-4.55471E-19
 -1      2707 9.40774E-05-2.53166E-05-2.94556E-05 6.37239E-06 2.56534E-19-2.90543E-19
 -1      2708 9.33302E-05-2.52926E-05-2.91364E-05 5.11271E-06 6.27613E-20-5.50381E-19
 -1      2709 9.32298E-05-2.45394E-05-2.94739E-05 7.13678E-06 1.36266E-19-5.56082E-19
 -1      2710 9.29283E-05-2.38845E-05-2.95754E-05 8.20652E-06 9.63831E-20-6.89667E-19
 -1      2711 9.20184E-05-2.38655E-05-2.91744E-05 6.35135E-06 1.34233E-20-9.80160E-19
 -1      2712 9.16104E-05-2.28618E-05-2.95131E-05 9.18345E-06-1.64387E-19-4.93259E-19
 -1      2713 9.10460E-05-2.20570E-05-2.95521E-05 1.05446E-05 4.22491E-20-7.45995E-19
 -1      2714 8.99174E-05-2.19256E-05-2.90860E-05 7.93751E-06-8.54982E-20-1.22443E-18
 -1      2715 8.90995E-05-2.08285E-05-2.93261E-05 1.17821E-05 2.92058E-19-8.08246E-19
 -1      2716 8.82420E-05-2.00207E-05-2.92176E-05 1.34506E-05 2.66180E-19-1.09995E-18
 -1      2717 8.67467E-05-1.95115E-05-2.87349E-05 9.88813E-06 1.99461E-19-1.23492E-18
 -1      2718 8.55336E-05-1.87993E-05-2.86821E-05 1.50555E-05 5.07374E-19-1.12445E-18
 -1      2719 8.45460E-05-1.84271E-05-2.82828E-05 1.70360E-05 5.35489E-19-9.59609E-19
 -1      2720 8.21908E-05-1.68498E-05-2.78841E-05 1.23121E-05 2.45852E-19-1.73391E-18
 -1      2721 8.11058E-05-1.78073E-05-2.71914E-05 1.92602E-05 7.62852E-19-1.14708E-18
 -1      2722 8.05434E-05-1.88757E-05-2.62773E-05 2.16354E-05 7.28878E-19-6.79598E-19
 -1      2723 7.60671E-05-1.46648E-05-2.61251E-05 1.55596E-05 7.68980E-19-1.36885E-18
 -1      2724 7.69858E-05-1.95739E-05-2.44805E-05 2.46750E-05 8.91820E-19-6.13146E-19
 -1      2725 7.80108E-05-2.39204E-05-2.30209E-05 2.73604E-05 1.13465E-18-5.30454E-19
 -1      2726 6.91958E-05-1.44931E-05-2.30178E-05 2.01011E-05 1.03988E-18-1.45121E-18
 -1      2727 9.08055E-05-1.54861E-05-3.23017E-05-3.89009E-06 1.81634E-19-1.62441E-18
 -1      2728 9.11424E-05-1.59775E-05-3.22410E-05-4.80936E-06-4.78520E-20-1.74682E-18
 -1      2729 4.90246E-05-2.27912E-05-1.10315E-05 3.90145E-05-6.50945E-19-3.65706E-19
 -1      2730 3.81878E-05-1.53321E-05-9.08277E-06 2.85208E-05-5.07108E-19-9.30466E-19
 -1      2731 9.01250E-05-3.18844E-05-2.45338E-05-2.96966E-05-2.67424E-18 4.36608E-18
 -1      2732 8.60310E-05-2.56544E-05-2.57292E-05-2.77663E-05-1.15795E-18 2.42683E-18
 -1      2733 8.71323E-05-2.29015E-05-2.73285E-05-2.40364E-05 2.70131E-19 9.30148E-19
 -1      2734 8.61900E-05-2.07340E-05-2.80604E-05-2.19182E-05-2.91121E-19 4.08720E-19
 -1      2735 8.86267E-05-2.06106E-05-2.90752E-05-1.92153E-05-1.75892E-20-5.43322E-19
 -1      2736 8.88208E-05-2.04355E-05-2.93676E-05-1.70910E-05-3.75564E-19-1.31078E-18
 -1      2737 7.99724E-05-1.70287E-05-2.67817E-05-1.92425E-05-6.90451E-19 1.97068E-20
 -1      2738 9.10326E-05-2.13139E-05-2.98437E-05-1.50614E-05 3.70415E-19-1.09578E-18
 -1      2739 9.13932E-05-2.18165E-05-2.98712E-05-1.31749E-05 6.01685E-19-8.44379E-19
 -1      2740 8.46831E-05-1.80903E-05-2.84379E-05-1.48389E-05-3.34851E-20-1.31888E-18
 -1      2741 9.29858E-05-2.28233E-05-3.00427E-05-1.16615E-05 5.66467E-19 1.12486E-19
 -1      2742 9.32111E-05-2.34204E-05-2.99506E-05-1.01572E-05-2.12234E-19 6.33889E-19
 -1      2743 8.84320E-05-2.01630E-05-2.91870E-05-1.16299E-05 9.80467E-19-6.19815E-19
 -1      2744 9.43480E-05-2.43460E-05-2.99771E-05-8.88556E-06-1.13716E-18 9.91909E-19
 -1      2745 9.44390E-05-2.48972E-05-2.98335E-05-7.62703E-06-5.74110E-19 1.50928E-18
 -1      2746 9.11179E-05-2.22627E-05-2.94592E-05-9.04843E-06-4.99190E-19 4.21746E-19
 -1      2747 9.51645E-05-2.56139E-05-2.97868E-05-6.63389E-06-4.85760E-19 1.52504E-18
 -1      2748 9.51413E-05-2.60307E-05-2.96395E-05-5.66698E-06 2.25976E-19 1.28143E-18
 -1      2749 9.29392E-05-2.40552E-05-2.94890E-05-6.91795E-06-5.09515E-19 1.17762E-18
 -1      2750 9.55743E-05-2.65469E-05-2.95658E-05-4.90187E-06 5.71568E-19 2.68773E-19
 -1      2751 9.54890E-05-2.68421E-05-2.94342E-05-4.17572E-06 8.95361E-19 6.33198E-19
 -1      2752 9.40655E-05-2.54142E-05-2.94019E-05-5.22954E-06-1.08104E-20 6.44020E-19
 -1      2753 9.57320E-05-2.71998E-05-2.93569E-05-3.59432E-06 3.78050E-20 3.33161E-19
 -1      2754 9.56225E-05-2.74013E-05-2.92473E-05-3.05692E-06-1.43575E-18 2.54281E-19
 -1      2755 9.47224E-05-2.63917E-05-2.92730E-05-3.91436E-06-1.41977E-20-1.74138E-19
 -1      2756 9.57486E-05-2.76435E-05-2.91768E-05-2.61981E-06-1.83035E-18-2.31554E-19
 -1      2757 9.56387E-05-2.77778E-05-2.90893E-05-2.22571E-06-1.40496E-18-3.93205E-21
 -1      2758 9.50813E-05-2.70741E-05-2.91398E-05-2.90553E-06-1.76232E-18-9.97302E-19
 -1      2759 9.56953E-05-2.79328E-05-2.90325E-05-1.91498E-06-1.46704E-18-2.66699E-19
 -1      2760 9.55992E-05-2.80185E-05-2.89671E-05-1.63775E-06-1.49206E-18-1.35151E-18
 -1      2761 9.52572E-05-2.75335E-05-2.90219E-05-2.15586E-06-1.63693E-18-1.85867E-18
 -1      2762 9.56187E-05-2.81285E-05-2.89179E-05-1.39079E-06-1.40604E-18-1.20272E-18
 -1      2763 9.55330E-05-2.81877E-05-2.88651E-05-1.17694E-06-1.39957E-18-1.13172E-18
 -1      2764 9.53322E-05-2.78456E-05-2.89215E-05-1.59000E-06-1.87965E-18-6.04113E-19
 -1      2765 9.55325E-05-2.82598E-05-2.88263E-05-9.93930E-07-1.50806E-18-1.32616E-18
 -1      2766 9.54629E-05-2.82980E-05-2.87866E-05-8.37166E-07-4.53038E-19-2.02513E-18
 -1      2767 9.53520E-05-2.80635E-05-2.88376E-05-1.15259E-06-1.78230E-18 1.30475E-18
 -1      2768 9.54525E-05-2.83457E-05-2.87566E-05-6.99603E-07 1.08816E-18-2.97406E-18
 -1      2769 9.53998E-05-2.83679E-05-2.87273E-05-5.86382E-07 1.24804E-18-2.59498E-18
 -1      2770 9.53396E-05-2.82082E-05-2.87712E-05-8.26039E-07-4.50932E-19-5.37495E-19
 -1      2771 2.91074E-05-1.02678E-05-7.62811E-06 1.63073E-05-9.53441E-19-1.30972E-18
 -1      2772 2.73176E-05-9.28247E-06-7.17270E-06 1.32129E-06-7.64897E-19-1.19855E-18
 -1      2773 9.47439E-05-2.83732E-05-2.84422E-05-1.62404E-06 3.09152E-19 4.57568E-19
 -1      2774 9.46395E-05-2.83034E-05-2.84267E-05-1.56578E-06 2.68719E-19 4.83814E-19
 -1      2775 9.45807E-05-2.80700E-05-2.85032E-05-1.16670E-06 4.24263E-19 3.81877E-19
 -1      2776 9.45702E-05-2.79439E-05-2.85431E-05-9.52956E-07 5.27838E-19 4.10639E-19
 -1      2777 9.49102E-05-2.84697E-05-2.84721E-05-1.70368E-06 4.82788E-19 5.36452E-19
 -1      2778 9.47795E-05-2.84103E-05-2.84428E-05-1.67807E-06 3.73433E-19 4.11302E-19
 -1      2779 9.50623E-05-2.84557E-05-2.85496E-05-1.72689E-06 2.70922E-19 2.70764E-19
 -1      2780 9.51195E-05-2.85600E-05-2.85234E-05-1.73740E-06 6.28603E-19 7.86545E-19
 -1      2781 9.49693E-05-2.85014E-05-2.84860E-05-1.73118E-06 6.25363E-19 6.43369E-19
 -1      2782 9.51624E-05-2.85424E-05-2.85545E-05-1.82395E-06 5.75137E-19 4.84868E-19
 -1      2783 9.53698E-05-2.86651E-05-2.85863E-05-1.73832E-06 3.08798E-19 1.00791E-18
 -1      2784 9.52033E-05-2.85978E-05-2.85453E-05-1.74829E-06 4.37633E-19 8.73984E-19
 -1      2785 9.53087E-05-2.86242E-05-2.85818E-05-1.87379E-06 4.92777E-19 7.37959E-19
 -1      2786 9.56639E-05-2.88074E-05-2.86526E-05-1.70011E-06 3.90577E-19 7.90368E-19
 -1      2787 9.54827E-05-2.87211E-05-2.86118E-05-1.73246E-06 5.14292E-19 9.60891E-19
 -1      2788 9.55077E-05-2.87308E-05-2.86213E-05-1.88800E-06 4.27805E-19 5.51395E-19
 -1      2789 9.60080E-05-2.90099E-05-2.87152E-05-1.59723E-06 2.74051E-20 3.65420E-19
 -1      2790 9.58133E-05-2.88947E-05-2.86782E-05-1.66736E-06 1.05705E-19 6.79192E-19
 -1      2791 9.57719E-05-2.88931E-05-2.86652E-05-1.85746E-06 4.29164E-19 8.57973E-19
 -1      2792 9.64077E-05-2.92938E-05-2.87676E-05-1.38546E-06 6.95972E-19 4.87715E-19
 -1      2793 9.62030E-05-2.91416E-05-2.87379E-05-1.51733E-06 3.69871E-19 5.37528E-19
 -1      2794 9.61183E-05-2.91428E-05-2.87071E-05-1.75236E-06 2.69674E-19 3.98407E-19
 -1      2795 9.68633E-05-2.96722E-05-2.88042E-05-1.00426E-06 6.57234E-19 5.54280E-19
 -1      2796 9.66568E-05-2.94804E-05-2.87854E-05-1.22845E-06 7.34621E-19 6.79226E-19
 -1      2797 9.65654E-05-2.95085E-05-2.87425E-05-1.52236E-06 5.43788E-19 7.78197E-19
 -1      2798 9.73612E-05-3.01390E-05-2.88217E-05-3.83884E-07 2.35560E-19 9.34812E-19
 -1      2799 9.71700E-05-2.99166E-05-2.88165E-05-7.32679E-07 3.29935E-19 6.28475E-19
 -1      2800 9.71260E-05-3.00066E-05-2.87696E-05-1.09887E-06 4.84168E-19 8.49780E-19
 -1      2801 9.78624E-05-3.06528E-05-2.88204E-05 5.39007E-07-6.91138E-20 1.15838E-18
 -1      2802 9.77162E-05-3.04281E-05-2.88300E-05 4.11029E-08 2.81867E-19 1.07213E-18
 -1      2803 9.77953E-05-3.06258E-05-2.87908E-05-4.02781E-07-4.33196E-20 9.75964E-19
 -1      2804 9.82896E-05-3.11194E-05-2.88064E-05 1.79371E-06 1.59343E-19 6.97912E-19
 -1      2805 9.82337E-05-3.09474E-05-2.88294E-05 1.14517E-06-5.95322E-21 9.13895E-19
 -1      2806 9.85331E-05-3.13047E-05-2.88142E-05 6.37635E-07 8.25135E-20 9.76727E-19
 -1      2807 9.85194E-05-3.13810E-05-2.87925E-05 3.33455E-06 1.63290E-19 3.42376E-19
 -1      2808 9.86128E-05-3.13456E-05-2.88240E-05 2.57707E-06-2.76320E-20 4.55786E-19
 -1      2809 9.92429E-05-3.19097E-05-2.88552E-05 2.05397E-06 1.60362E-19 5.06357E-19
 -1      2810 9.83924E-05-3.12306E-05-2.87967E-05 4.99213E-06-7.10387E-20 6.48976E-19
 -1      2811 9.86951E-05-3.14312E-05-2.88288E-05 4.23092E-06 2.91409E-19 3.10955E-19
 -1      2812 9.97585E-05-3.22249E-05-2.89350E-05 3.78727E-06 1.36774E-19 6.68452E-19
 -1      2813 9.77584E-05-3.04720E-05-2.88376E-05 6.43787E-06 1.05084E-19 8.02750E-19
 -1      2814 9.83043E-05-3.09866E-05-2.88613E-05 5.84914E-06-1.41936E-19 5.94693E-19
 -1      2815 9.98576E-05-3.19783E-05-2.90757E-05 5.62659E-06-1.63096E-19 1.21270E-18
 -1      2816 9.65666E-05-2.90363E-05-2.89248E-05 7.20463E-06-2.36494E-19 1.60793E-18
 -1      2817 9.73244E-05-2.98609E-05-2.89337E-05 7.01033E-06 1.16148E-19 1.35739E-18
 -1      2818 9.93307E-05-3.09391E-05-2.92906E-05 7.16575E-06-1.05775E-19 1.46260E-18
 -1      2819 9.49718E-05-2.71143E-05-2.90490E-05 6.81272E-06-6.54205E-19 1.88859E-18
 -1      2820 9.58152E-05-2.81085E-05-2.90431E-05 7.20682E-06-3.50487E-19 2.24507E-18
 -1      2821 9.81141E-05-2.90772E-05-2.95700E-05 7.84041E-06-5.10321E-19 2.37356E-18
 -1      2822 9.33798E-05-2.52054E-05-2.91791E-05 5.00029E-06-2.65173E-19 1.27819E-18
 -1      2823 9.40979E-05-2.60930E-05-2.91658E-05 6.04090E-06-3.30150E-19 1.58740E-18
 -1      2824 9.64315E-05-2.67204E-05-2.98717E-05 7.10631E-06-1.94038E-19 2.05758E-18
 -1      2825 9.23408E-05-2.39744E-05-2.92709E-05 1.96119E-06 4.75166E-20 2.72682E-19
 -1      2826 9.27100E-05-2.44428E-05-2.92617E-05 3.48547E-06 2.24427E-19 9.51983E-19
 -1      2827 9.48242E-05-2.45648E-05-3.01254E-05 4.74251E-06 7.92083E-20 7.92422E-19
 -1      2828 9.22799E-05-2.39177E-05-2.92898E-05-1.60616E-06 1.61074E-19 1.72790E-19
 -1      2829 9.21728E-05-2.37838E-05-2.92917E-05 3.93794E-08 1.18585E-19 1.48749E-19
 -1      2830 9.39488E-05-2.34134E-05-3.02562E-05 1.12310E-06 1.11455E-19 8.31919E-19
 -1      2831 9.32397E-05-2.50645E-05-2.92308E-05-4.76355E-06 6.23409E-19-2.31460E-19
 -1      2832 9.26933E-05-2.43816E-05-2.92416E-05-3.41165E-06 3.90732E-19-2.12370E-19
 -1      2833 9.42043E-05-2.37443E-05-3.02210E-05-2.81516E-06 4.06947E-19-1.73971E-19
 -1      2834 9.48489E-05-2.69558E-05-2.91212E-05-6.75420E-06 3.83310E-19 9.91856E-20
 -1      2835 9.40439E-05-2.59835E-05-2.91309E-05-5.98365E-06 4.08852E-19 3.05632E-19
 -1      2836 9.54735E-05-2.54124E-05-3.00322E-05-5.98416E-06 3.35732E-19 1.05663E-19
 -1      2837 9.65392E-05-2.89186E-05-2.90044E-05-7.31092E-06 8.23573E-19 7.84786E-19
 -1      2838 9.57064E-05-2.79726E-05-2.90021E-05-7.18304E-06 8.02709E-19 6.49494E-19
 -1      2839 9.72000E-05-2.77526E-05-2.97518E-05-7.65777E-06-1.14712E-19 6.49556E-20
 -1      2840 9.78500E-05-3.04192E-05-2.89149E-05-6.65423E-06 1.19144E-18 1.52809E-19
 -1      2841 9.71682E-05-2.97227E-05-2.88961E-05-7.03746E-06 1.11711E-18 5.46254E-19
 -1      2842 9.87333E-05-2.99540E-05-2.94570E-05-7.74228E-06 1.04650E-18 6.75615E-19
 -1      2843 9.85797E-05-3.12347E-05-2.88679E-05-5.26194E-06 2.56274E-19 3.98026E-19
 -1      2844 9.81315E-05-3.08644E-05-2.88355E-05-5.93735E-06 1.15560E-18 4.71430E-19
 -1      2845 9.96628E-05-3.14664E-05-2.92081E-05-6.64207E-06 1.00542E-18 1.35819E-18
 -1      2846 9.87610E-05-3.14178E-05-2.88590E-05-3.62271E-06 1.46327E-19-5.86216E-19
 -1      2847 9.85437E-05-3.13337E-05-2.88207E-05-4.38148E-06-2.47551E-19 3.86058E-20
 -1      2848 9.99047E-05-3.21319E-05-2.90333E-05-4.94319E-06 1.81920E-19 4.44367E-19
 -1      2849 9.85502E-05-3.11640E-05-2.88727E-05-2.09087E-06-4.00702E-19 2.74261E-19
 -1      2850 9.85133E-05-3.12722E-05-2.88374E-05-2.78622E-06-1.96631E-19-3.02338E-19
 -1      2851 9.96060E-05-3.20891E-05-2.89308E-05-3.15509E-06-2.67171E-19-7.99086E-19
 -1      2852 9.81231E-05-3.06873E-05-2.88923E-05-8.54742E-07-2.52034E-19 9.51210E-19
 -1      2853 9.82037E-05-3.08919E-05-2.88664E-05-1.41028E-06-2.92723E-20 8.39231E-19
 -1      2854 9.89949E-05-3.16045E-05-2.88819E-05-1.59804E-06-6.22033E-19 6.64455E-19
 -1      2855 9.76194E-05-3.01542E-05-2.89054E-05 2.96549E-08 4.33299E-19 1.30532E-18
 -1      2856 9.77629E-05-3.03831E-05-2.88919E-05-3.65100E-07-1.42735E-19 1.14669E-18
 -1      2857 9.82741E-05-3.09321E-05-2.88641E-05-4.11242E-07-4.26478E-19-4.64468E-19
 -1      2858 9.71282E-05-2.96662E-05-2.89055E-05 5.87938E-07 3.05152E-19 2.10748E-18
 -1      2859 9.72951E-05-2.98762E-05-2.89045E-05 3.40699E-07 4.92316E-19 2.52111E-18
 -1      2860 9.75794E-05-3.02530E-05-2.88585E-05 3.91542E-07-3.33851E-19 1.67514E-20
 -1      2861 9.66945E-05-2.92695E-05-2.88914E-05 8.83587E-07 1.11876E-18 2.35546E-18
 -1      2862 9.68604E-05-2.94411E-05-2.89007E-05 7.54642E-07 1.09856E-18 3.43505E-18
 -1      2863 9.69806E-05-2.96676E-05-2.88527E-05 8.63746E-07 2.38030E-19 2.51380E-18
 -1      2864 9.63344E-05-2.89738E-05-2.88654E-05 9.88935E-07-8.67683E-19 2.54145E-18
 -1      2865 9.64859E-05-2.91029E-05-2.88821E-05 9.45418E-07 1.52204E-19 2.64360E-18
 -1      2866 9.65002E-05-2.92136E-05-2.88408E-05 1.08331E-06 5.24660E-19 4.08335E-18
 -1      2867 9.60469E-05-2.87688E-05-2.88313E-05 9.69462E-07 2.96150E-20 2.30335E-18
 -1      2868 9.61782E-05-2.88597E-05-2.88522E-05 9.81714E-07-7.78520E-19 1.66048E-18
 -1      2869 9.61331E-05-2.88901E-05-2.88215E-05 1.12786E-06-3.79137E-19 3.68089E-18
 -1      2870 9.58234E-05-2.86361E-05-2.87932E-05 8.77259E-07-8.77313E-20 1.55831E-18
 -1      2871 9.59331E-05-2.86963E-05-2.88156E-05 9.21739E-07 7.89923E-19 2.25042E-18
 -1      2872 9.58620E-05-2.86770E-05-2.87959E-05 1.06295E-06 3.98380E-19 3.41965E-18
 -1      2873 9.56525E-05-2.85562E-05-2.87549E-05 7.49914E-07-7.95086E-19 1.25376E-18
 -1      2874 9.57417E-05-2.85938E-05-2.87767E-05 8.09705E-07-8.34295E-19 9.07801E-19
 -1      2875 9.56661E-05-2.85480E-05-2.87667E-05 9.38384E-07 2.49906E-19 1.75568E-18
 -1      2876 9.55232E-05-2.85118E-05-2.87188E-05 6.12159E-07-4.69467E-19 1.21274E-18
 -1      2877 9.55943E-05-2.85340E-05-2.87387E-05 6.76225E-07-9.27046E-19 6.61031E-19
 -1      2878 9.55265E-05-2.84779E-05-2.87365E-05 7.88774E-07-8.55558E-19 4.07936E-19
 -1      2879 9.54259E-05-2.84892E-05-2.86869E-05 4.78681E-07-4.45432E-19 9.69688E-19
 -1      2880 9.54815E-05-2.85019E-05-2.87040E-05 5.40545E-07-3.80876E-19 1.20780E-18
 -1      2881 9.54272E-05-2.84455E-05-2.87075E-05 6.36127E-07-3.93383E-19-1.18581E-18
 -1      2882 9.53531E-05-2.84787E-05-2.86599E-05 3.56814E-07 6.71676E-19 1.80794E-18
 -1      2883 9.53952E-05-2.84860E-05-2.86740E-05 4.12787E-07 3.67116E-19 1.93752E-18
 -1      2884 9.53550E-05-2.84342E-05-2.86812E-05 4.92956E-07-3.32532E-19-5.66612E-19
 -1      2885 9.52947E-05-2.84648E-05-2.86408E-05 2.66719E-07-9.44052E-19 1.55036E-18
 -1      2886 9.53263E-05-2.84684E-05-2.86522E-05 3.17851E-07-1.93729E-19 1.79483E-18
 -1      2887 9.52977E-05-2.84242E-05-2.86614E-05 3.83097E-07-9.22418E-19-6.70597E-19
 -1      2888 9.52532E-05-2.84105E-05-2.86481E-05 3.02202E-07-9.01913E-19-1.46472E-18
 -1      2889 1.24574E-04-5.84018E-05-2.80398E-05-2.99180E-05-9.01878E-19 1.32487E-18
 -1      2890 1.35366E-04-5.85878E-05-3.33671E-05-2.03278E-05-1.03073E-19 2.09747E-18
 -1      2891 9.49104E-05-2.79890E-05-2.86819E-05 6.46975E-08-3.93364E-19-7.91867E-19
 -1      2892 9.49251E-05-2.80057E-05-2.86798E-05 1.22488E-07-4.82885E-20 1.11413E-20
 -1      2893 9.50168E-05-2.81197E-05-2.86716E-05 2.74300E-07 8.28070E-19 2.06314E-18
 -1      2894 9.50542E-05-2.81618E-05-2.86676E-05 3.02564E-07 4.17341E-19 2.63638E-18
 -1      2895 9.49042E-05-2.79753E-05-2.86847E-05-6.94779E-08-1.58053E-19 6.99923E-19
 -1      2896 9.49017E-05-2.79741E-05-2.86839E-05-7.64574E-09-6.41968E-19-2.70130E-19
 -1      2897 9.48506E-05-2.79212E-05-2.86825E-05 4.00715E-08-9.57086E-19-6.42423E-19
 -1      2898 9.49506E-05-2.80400E-05-2.86775E-05 1.84332E-07 9.34059E-19 4.57098E-19
 -1      2899 9.49790E-05-2.80714E-05-2.86743E-05 2.30244E-07 1.18774E-18 1.67915E-18
 -1      2900 9.49623E-05-2.80557E-05-2.86735E-05 2.92658E-07 6.81927E-19 2.02475E-18
 -1      2901 9.48899E-05-2.79716E-05-2.86781E-05 1.81507E-07 9.00858E-19-1.88241E-19
 -1      2902 9.49359E-05-2.80035E-05-2.86857E-05-1.96582E-07-5.21106E-19-1.23422E-18
 -1      2903 9.49152E-05-2.79837E-05-2.86862E-05-1.41150E-07-4.52153E-19 4.48364E-19
 -1      2904 9.48533E-05-2.79142E-05-2.86864E-05-1.12571E-07-2.91134E-19-1.01027E-19
 -1      2905 9.50058E-05-2.80747E-05-2.86845E-05-2.99991E-07 2.22850E-19-1.92383E-18
 -1      2906 9.49676E-05-2.80367E-05-2.86864E-05-2.58656E-07-2.00567E-19-1.16755E-18
 -1      2907 9.49019E-05-2.79557E-05-2.86895E-05-2.55563E-07-2.54199E-19-6.87564E-19
 -1      2908 9.51057E-05-2.81815E-05-2.86805E-05-3.58740E-07-1.82576E-20 7.20741E-19
 -1      2909 9.50540E-05-2.81296E-05-2.86840E-05-3.39660E-07 6.11819E-19-9.93358E-19
 -1      2910 9.49949E-05-2.80453E-05-2.86911E-05-3.65739E-07 4.72518E-19-1.29586E-18
 -1      2911 1.41629E-04-3.59633E-05-4.56156E-05 7.22776E-06 1.52042E-18 1.44536E-18
 -1      2912 1.38151E-04-2.64985E-05-4.85719E-05 1.01018E-05 1.62440E-18 3.45378E-19
 -1      2913 9.43018E-05-2.08367E-05-3.15098E-05-8.07026E-06-1.15402E-18-1.48995E-18
 -1      2914 9.47830E-05-2.26471E-05-3.09256E-05-6.39718E-06-1.10000E-18-1.36333E-18
 -1      2915 9.45807E-05-2.22725E-05-3.09859E-05-5.76690E-06-8.68124E-19-1.37182E-18
 -1      2916 9.34867E-05-1.94853E-05-3.17182E-05-7.85067E-06-9.32817E-19-1.64007E-18
 -1      2917 3.30137E-05-1.13308E-05-8.65039E-06-1.19005E-05-1.74266E-18 9.95264E-21
 -1      2918 4.65609E-05-1.81810E-05-1.16332E-05-2.51229E-05-1.72064E-18 3.29242E-18
 -1      2919 9.11758E-05-1.60330E-05-3.22321E-05 4.86973E-06 1.58153E-18-7.81615E-19
 -1      2920 9.08316E-05-1.55290E-05-3.22945E-05 3.95391E-06 1.45448E-18-1.07406E-18
 -1      2921 9.17992E-05-1.71207E-05-3.19895E-05 3.15489E-06 1.30491E-18-9.80773E-19
 -1      2922 9.24767E-05-1.81972E-05-3.18137E-05 4.55777E-06 1.44270E-18-5.28926E-19
 -1      2923 1.23638E-04-5.87991E-05-2.79407E-05 3.17418E-05-1.28865E-18-1.48363E-18
 -1      2924 1.09337E-04-5.38328E-05-2.35577E-05 3.80251E-05-2.53041E-18-1.31027E-18
 -1      2925 8.70447E-05-4.29958E-05-1.87726E-05 4.39780E-05-2.76768E-18-6.16640E-19
 -1      2926 6.56604E-05-3.19606E-05-1.37569E-05 4.34156E-05-1.65129E-18 6.74450E-20
 -1      2927 9.52518E-05-2.83469E-05-2.86718E-05-3.58279E-07 3.17258E-19-2.02063E-18
 -1      2928 9.51721E-05-2.82609E-05-2.86785E-05-3.71976E-07 4.43587E-19-8.55619E-19
 -1      2929 1.40893E-04-5.30603E-05-3.76311E-05-7.45809E-06 1.71273E-19 1.80926E-18
 -1      2930 1.43027E-04-4.58444E-05-4.22498E-05 4.66379E-07 9.53124E-19 1.52233E-18
 -1      2931 1.32356E-04-1.47236E-05-5.11997E-05-9.44150E-06 2.19636E-18-3.46807E-19
 -1      2932 1.35528E-04-2.15934E-05-4.93016E-05-1.12791E-05 2.27619E-18-1.42947E-18
 -1      2933 9.41445E-05-4.83329E-05-1.91345E-05-4.42993E-05-9.90923E-19 6.11108E-19
 -1      2934 1.09653E-04-5.50634E-05-2.36292E-05-4.02886E-05-8.78585E-19 1.01044E-18
 -1      2935 5.74330E-05-2.68856E-05-1.24921E-05-4.07808E-05-2.27619E-18-2.63057E-18
 -1      2936 7.52555E-05-3.86539E-05-1.55619E-05-4.65926E-05-1.81710E-18-1.86495E-18
 -1      2937 8.77066E-05-4.21089E-05-1.90795E-05-4.20095E-05-1.51757E-18-6.50151E-19
 -1      2938 3.56251E-05-1.17214E-05-9.62118E-06-2.17271E-05-5.68836E-19-3.67655E-18
 -1      2939 4.38531E-05-1.75457E-05-1.09163E-05-3.28738E-05-1.35965E-18-2.78864E-18
 -1      2940 9.15510E-05-4.58189E-05-1.95410E-05 3.61921E-05 9.55030E-19 1.82821E-18
 -1      2941 7.29799E-05-3.50956E-05-1.53780E-05 3.56454E-05 1.08611E-18 4.93397E-19
 -1      2942 9.88834E-05-4.59744E-05-2.25534E-05 3.32920E-05 9.42854E-19 1.45901E-18
 -1      2943 9.46290E-05-2.82487E-05-2.84466E-05-1.46448E-06 3.39813E-19 3.20219E-19
 -1      2944 9.45626E-05-2.81580E-05-2.84530E-05-1.34860E-06 3.35780E-19 4.59678E-19
 -1      2945 9.50039E-05-2.81412E-05-2.86623E-05-1.23368E-06 4.56737E-19 3.92003E-19
 -1      2946 3.28656E-05-8.60572E-06-9.54070E-06 5.57680E-06 1.47505E-18-4.46323E-18
 -1      2947 3.15699E-05-8.18434E-06-9.43319E-06-9.44058E-06 8.64635E-19-4.26587E-18
 -1      2948 1.40181E-04-5.43225E-05-3.72927E-05 9.39850E-06 2.27832E-19-2.11938E-18
 -1      2949 1.33229E-04-5.80590E-05-3.21222E-05 2.06222E-05-3.47098E-19-1.53652E-18
 -1      2950 1.29195E-04-5.76053E-05-3.05539E-05 2.10090E-05-1.54404E-18-1.19463E-18
 -1      2951 9.12698E-05-1.62973E-05-3.21186E-05 3.00505E-08 9.05823E-19-1.33288E-18
 -1      2952 9.01591E-05-1.45265E-05-3.24336E-05-3.75857E-07 8.40410E-19-1.52363E-18
 -1      2953 9.02180E-05-1.46091E-05-3.24236E-05-1.32405E-06 7.00935E-19-1.57995E-18
 -1      2954 3.84103E-05-9.31035E-06-1.17793E-05-5.72538E-06-2.17875E-18 1.95876E-19
 -1      2955 9.46175E-05-2.77985E-05-2.86369E-05-6.39222E-07 5.11447E-19 3.05409E-19
 -1      2956 9.46815E-05-2.76112E-05-2.87262E-05-2.65980E-07 4.87279E-19 4.78077E-19
 -1      2957 9.50527E-05-2.78256E-05-2.88201E-05-6.92518E-07 5.47335E-19 6.53888E-20
 -1      2958 1.34285E-04-2.86746E-05-4.56079E-05-1.05020E-05 2.24898E-18-1.30787E-18
 -1      2959 8.74773E-05-3.38149E-05-2.23045E-05 3.26257E-05 1.16414E-18 1.06086E-18
 -1      2960 9.24389E-05-1.81305E-05-3.18249E-05-4.51762E-06-1.12663E-19-1.57002E-18
 -1      2961 9.15754E-05-1.66378E-05-3.21379E-05-5.53105E-06-1.92285E-19-1.76135E-18
 -1      2962 9.20975E-05-1.74190E-05-3.20361E-05-6.35165E-06-4.83790E-19-1.80828E-18
 -1      2963 7.57297E-05-1.96164E-05-2.38153E-05-2.56492E-05-1.52553E-18 3.17516E-18
 -1      2964 9.30896E-05-3.82546E-05-2.30155E-05-3.26942E-05-1.10326E-18 4.80972E-18
 -1      2965 7.73882E-05-2.93877E-05-2.02804E-05-3.25505E-05-2.33098E-18 5.96597E-18
 -1      2966 1.34428E-04-2.11533E-05-4.90117E-05 1.12612E-05 1.79645E-18-3.51730E-19
 -1      2967 1.28080E-04-1.54359E-05-4.89490E-05 1.09248E-05 1.79105E-18-1.01390E-18
 -1      2968 1.30576E-04-2.63114E-05-4.49853E-05 1.18497E-05 1.37728E-18-5.67194E-19
 -1      2969 9.52847E-05-2.83505E-05-2.86841E-05-4.10168E-07 1.22201E-18-1.71615E-18
 -1      2970 4.02453E-05-1.17958E-05-1.15758E-05 2.08472E-05-1.22883E-18-1.21740E-18
 -1      2971 9.53592E-05-2.83598E-05-2.87120E-05-5.25967E-07 1.77862E-19-2.70278E-18
 -1      2972 9.53121E-05-2.83519E-05-2.86956E-05-4.64702E-07 3.16998E-19-2.87159E-18
 -1      2973 9.52270E-05-2.82677E-05-2.87001E-05-4.93932E-07 1.20879E-18-1.78474E-18
 -1      2974 9.52885E-05-2.82656E-05-2.87271E-05-6.21073E-07 4.53279E-19-1.16374E-18
 -1      2975 9.49981E-05-2.66618E-05-2.92807E-05 1.75154E-06 1.08024E-18 6.68566E-19
 -1      2976 9.50809E-05-2.63773E-05-2.94184E-05 2.41187E-06 1.05101E-18 9.45242E-19
 -1      2977 9.50081E-05-2.83339E-05-2.85798E-05-1.54935E-06 3.11963E-19 4.01747E-19
 -1      2978 1.18548E-04-5.61978E-05-2.64804E-05-3.14416E-05-9.64188E-19 1.20977E-18
 -1      2979 9.52108E-05-2.83545E-05-2.86521E-05 3.18584E-07 5.18496E-19-2.76787E-18
 -1      2980 9.52289E-05-2.83583E-05-2.86579E-05 3.60346E-07-7.06791E-19-1.66435E-18
 -1      2981 9.51711E-05-2.83069E-05-2.86573E-05 3.29561E-07 8.61213E-19-3.03012E-18
 -1      2982 4.18516E-05-1.13426E-05-1.26321E-05 1.26733E-05 1.95972E-18-3.83452E-18
 -1      2983 1.40377E-04-4.99201E-05-3.88679E-05 1.70437E-06 7.65374E-19-2.01446E-18
 -1      2984 1.35789E-04-5.23579E-05-3.58041E-05 4.41933E-06-5.84598E-19-1.32645E-18
 -1      2985 1.36532E-04-4.41194E-05-4.01260E-05-5.42719E-06 9.16066E-19-2.21256E-18
 -1      2986 9.48906E-05-2.70922E-05-2.90295E-05 8.84342E-07 7.98278E-19 6.89441E-19
 -1      2987 9.52218E-05-2.64809E-05-2.94676E-05 1.67780E-06 9.70189E-19 2.90846E-19
 -1      2988 9.47258E-05-2.73813E-05-2.88638E-05 2.67208E-07 5.36755E-19 5.77410E-19
 -1      2989 9.51293E-05-2.81826E-05-2.86902E-05-4.27177E-07-4.56467E-20 4.50795E-19
 -1      2990 1.37633E-04-4.12375E-05-4.15125E-05 6.39527E-06 9.37824E-19 6.11664E-19
 -1      2991 5.70478E-05-2.21974E-05-1.43349E-05-3.47156E-05-1.78682E-18-2.41923E-18
 -1      2992 1.30600E-04-7.38799E-06-5.33200E-05 2.72851E-06 2.33421E-18-4.77224E-19
 -1      2993 9.97040E-05-4.84830E-05-2.15980E-05 4.02576E-05-2.70394E-18-5.33922E-19
 -1      2994 8.87502E-05-4.02925E-05-2.05592E-05 3.91751E-05-2.58541E-18-4.72539E-19
 -1      2995 1.09242E-04-5.11928E-05-2.47359E-05 3.31862E-05-2.68081E-18-5.28840E-19
 -1      2996 5.60106E-05-2.16464E-05-1.40578E-05-2.83032E-05-2.00334E-18 4.93397E-18
 -1      2997 6.96987E-05-2.64209E-05-1.79907E-05-3.02679E-05-2.14442E-18 5.79455E-18
 -1      2998 6.70041E-05-2.00912E-05-1.96472E-05-2.74252E-05-3.58560E-18 5.51291E-18
 -1      2999 5.13616E-05-1.44425E-05-1.55555E-05-2.18926E-05-2.83025E-18 3.86935E-18
 -1      3000 6.41039E-05-2.66678E-05-1.54961E-05 3.79402E-05-2.12049E-18-1.17653E-18
 -1      3001 1.28727E-04-1.14475E-05-5.08242E-05-8.39860E-06 2.30478E-18-9.50159E-19
 -1      3002 1.23325E-04-1.43608E-05-4.69853E-05-1.02903E-05 2.27365E-18-1.06758E-18
 -1      3003 1.23012E-04-8.15884E-06-4.99439E-05-5.90523E-06 2.33400E-18-9.56406E-19
 -1      3004 9.03466E-05-1.48049E-05-3.23955E-05-2.15018E-06 5.84339E-19-1.48768E-18
 -1      3005 9.05350E-05-1.50735E-05-3.23626E-05-3.09316E-06 3.36216E-19-1.53710E-18
 -1      3006 9.17778E-05-1.70828E-05-3.19968E-05-3.09695E-06 2.22853E-19-1.43775E-18
 -1      3007 9.13926E-05-1.64855E-05-3.20900E-05-1.55663E-06 5.64222E-19-1.41691E-18
 -1      3008 1.36132E-04-5.53690E-05-3.46304E-05-1.06329E-05-4.09223E-19 1.99926E-18
 -1      3009 7.09300E-05-2.42090E-05-1.97351E-05 2.93356E-05 1.49634E-18-5.41360E-19
 -1      3010 9.50922E-05-2.82102E-05-2.86650E-05 3.20006E-07 2.48046E-19 1.87930E-18
 -1      3011 9.51325E-05-2.82571E-05-2.86604E-05 3.28762E-07 3.62614E-19-9.25722E-19
 -1      3012 9.51373E-05-2.82527E-05-2.86641E-05 3.75168E-07 8.69330E-19-1.82756E-18
 -1      3013 9.50498E-05-2.81541E-05-2.86690E-05 3.56160E-07 4.76921E-19 2.39454E-18
 -1      3014 1.02153E-04-4.90886E-05-2.23751E-05-3.24762E-05 8.97220E-19 6.12061E-18
 -1      3015 6.54779E-05-2.77833E-05-1.58528E-05 3.23135E-05 1.34234E-18-4.50727E-19
 -1      3016 4.06335E-05-9.53639E-06-1.27270E-05-1.37323E-05 1.25467E-19-3.12957E-18
 -1      3017 9.50716E-05-2.38258E-05-3.05509E-05 4.99922E-06 1.36898E-18 3.08778E-19
 -1      3018 9.46686E-05-2.26815E-05-3.08403E-05 5.03514E-06 1.46476E-18 1.43290E-19
 -1      3019 9.42679E-05-2.18119E-05-3.10870E-05 4.90709E-06 1.54077E-18 6.33285E-20
 -1      3020 9.38077E-05-2.08525E-05-3.12711E-05 4.55004E-06 1.44941E-18-1.25585E-19
 -1      3021 9.49711E-05-2.34808E-05-3.06033E-05 3.89140E-06 1.30363E-18 7.32524E-20
 -1      3022 9.52057E-05-2.60405E-05-2.96190E-05 3.66755E-06 1.15558E-18 1.28609E-18
 -1      3023 7.13306E-05-1.34971E-05-2.47669E-05-1.56515E-05-1.53146E-18 1.54893E-18
 -1      3024 7.41983E-05-1.38510E-05-2.59623E-05-1.33753E-05-1.30333E-18 8.26916E-19
 -1      3025 9.53557E-05-2.81862E-05-2.87875E-05-1.25909E-06 4.03947E-19 1.17019E-19
 -1      3026 9.53711E-05-2.80326E-05-2.88510E-05-1.03494E-06 3.73711E-19 2.71386E-20
 -1      3027 9.49226E-05-2.32737E-05-3.06864E-05-4.18072E-06-5.50245E-19-1.28464E-18
 -1      3028 9.51222E-05-2.43580E-05-3.03477E-05-3.02313E-06-4.90715E-19-1.20885E-18
 -1      3029 9.54986E-05-2.53528E-05-3.00421E-05-2.18138E-06-4.17314E-19-1.01562E-18
 -1      3030 9.55211E-05-2.60509E-05-2.97849E-05-1.30391E-06-3.32317E-19-9.22950E-19
 -1      3031 9.52017E-05-2.42805E-05-3.04101E-05-2.63518E-06-3.32468E-19-1.29133E-18
 -1      3032 9.56783E-05-2.66721E-05-2.95596E-05-6.61290E-07-3.52870E-19-7.74717E-19
 -1      3033 9.56572E-05-2.71159E-05-2.93825E-05-7.44114E-08-2.54316E-19-8.87777E-19
 -1      3034 9.56600E-05-2.59483E-05-2.98751E-05-1.08858E-06-2.30198E-19-9.46190E-19
 -1      3035 9.56952E-05-2.74866E-05-2.92220E-05 3.61201E-07-2.50022E-19-8.24838E-19
 -1      3036 9.56606E-05-2.77540E-05-2.91065E-05 7.46538E-07-2.08418E-19-9.13550E-19
 -1      3037 9.58560E-05-2.70694E-05-2.94823E-05 2.27082E-08-2.59930E-19-6.12679E-19
 -1      3038 9.56363E-05-2.79602E-05-2.89974E-05 1.03565E-06-1.69423E-19-9.27415E-19
 -1      3039 9.56038E-05-2.81067E-05-2.89282E-05 1.28726E-06-1.77053E-19-8.31253E-19
 -1      3040 9.58722E-05-2.77362E-05-2.92043E-05 7.83865E-07-1.96925E-19-7.72476E-19
 -1      3041 9.55416E-05-2.81962E-05-2.88588E-05 1.47989E-06-5.76510E-20-6.78559E-19
 -1      3042 9.55133E-05-2.82532E-05-2.88246E-05 1.65273E-06 2.62062E-20-6.71557E-19
 -1      3043 9.57905E-05-2.80904E-05-2.90171E-05 1.29461E-06-5.76821E-20-7.02690E-19
 -1      3044 9.54263E-05-2.82541E-05-2.87874E-05 1.78492E-06-4.26428E-20-4.81581E-19
 -1      3045 9.54003E-05-2.82426E-05-2.87795E-05 1.91687E-06-3.11287E-20-3.86875E-19
 -1      3046 9.56472E-05-2.82128E-05-2.89025E-05 1.64064E-06 1.17304E-19-5.78087E-19
 -1      3047 9.52793E-05-2.81700E-05-2.87629E-05 2.03636E-06 1.63512E-19-4.46597E-19
 -1      3048 9.52416E-05-2.80922E-05-2.87750E-05 2.17489E-06 8.36157E-20-3.66702E-19
 -1      3049 9.54454E-05-2.81528E-05-2.88403E-05 1.90615E-06 1.08759E-19-3.74805E-19
 -1      3050 9.50765E-05-2.79433E-05-2.87758E-05 2.29976E-06-2.73868E-19-2.42327E-19
 -1      3051 9.50138E-05-2.77959E-05-2.88038E-05 2.46713E-06-4.02851E-19-5.44942E-19
 -1      3052 9.51658E-05-2.79247E-05-2.88163E-05 2.15642E-06-1.59083E-19-3.20615E-19
 -1      3053 9.47827E-05-2.75625E-05-2.88159E-05 2.61898E-06-1.15948E-19-4.82893E-19
 -1      3054 9.46712E-05-2.73328E-05-2.88556E-05 2.84060E-06-5.22897E-20-2.38014E-19
 -1      3055 9.47791E-05-2.75221E-05-2.88204E-05 2.42956E-06-2.66702E-19-1.30649E-19
 -1      3056 9.43378E-05-2.69951E-05-2.88720E-05 3.03481E-06-4.69292E-20-3.14516E-20
 -1      3057 9.41416E-05-2.66603E-05-2.89177E-05 3.33319E-06 2.64377E-19 2.05422E-19
 -1      3058 9.42284E-05-2.69190E-05-2.88389E-05 2.75822E-06 1.60426E-19 1.04614E-19
 -1      3059 9.36510E-05-2.61863E-05-2.89286E-05 3.57859E-06 1.17782E-19 2.17106E-19
 -1      3060 9.33129E-05-2.57127E-05-2.89710E-05 3.97245E-06 2.01096E-20-1.92750E-19
 -1      3061 9.34259E-05-2.60679E-05-2.88539E-05 3.15967E-06 1.41293E-19 3.09935E-19
 -1      3062 9.26254E-05-2.50985E-05-2.89617E-05 4.25459E-06-2.82875E-19-6.72208E-19
 -1      3063 9.21075E-05-2.44824E-05-2.89860E-05 4.72851E-06-2.91171E-19-8.39915E-19
 -1      3064 9.22792E-05-2.49320E-05-2.88399E-05 3.61751E-06-5.61258E-19-4.89406E-19
 -1      3065 9.10558E-05-2.36183E-05-2.89313E-05 5.06612E-06-8.09715E-20-9.02249E-19
 -1      3066 9.01876E-05-2.27523E-05-2.89108E-05 5.67759E-06-2.02890E-19-1.14269E-18
 -1      3067 9.05959E-05-2.34155E-05-2.87570E-05 4.12232E-06-2.58817E-19-1.16053E-18
 -1      3068 8.86396E-05-2.16177E-05-2.87654E-05 6.03558E-06-2.04129E-19-1.07682E-18
 -1      3069 8.72977E-05-2.04995E-05-2.86481E-05 6.75740E-06-1.55748E-19-1.18962E-18
 -1      3070 8.80724E-05-2.13777E-05-2.85303E-05 4.62394E-06-2.35596E-19-8.88399E-19
 -1      3071 8.50575E-05-1.90782E-05-2.83362E-05 7.10937E-06-5.78381E-20-1.39449E-18
 -1      3072 8.30684E-05-1.77357E-05-2.80320E-05 7.94003E-06 1.79200E-20-1.36132E-18
 -1      3073 8.44064E-05-1.87942E-05-2.80396E-05 5.02133E-06-2.93962E-19-1.23756E-18
 -1      3074 7.98711E-05-1.60818E-05-2.74217E-05 8.28201E-06 2.25547E-19-1.57088E-18
 -1      3075 7.70689E-05-1.46763E-05-2.67741E-05 9.27054E-06 3.92494E-19-1.70466E-18
 -1      3076 7.91545E-05-1.56896E-05-2.70772E-05 5.21834E-06-9.25838E-20-1.06400E-18
 -1      3077 7.25335E-05-1.29710E-05-2.56289E-05 9.69644E-06 4.12528E-19-1.65133E-18
 -1      3078 6.88057E-05-1.19659E-05-2.43504E-05 1.11081E-05 6.07809E-19-1.85275E-18
 -1      3079 7.17092E-05-1.22688E-05-2.52773E-05 5.18861E-06 3.94310E-19-1.58902E-18
 -1      3080 6.29835E-05-1.07490E-05-2.24803E-05 1.18230E-05 6.14297E-19-2.10752E-18
 -1      3081 5.88941E-05-1.11015E-05-2.04201E-05 1.40349E-05 1.10835E-18-2.30975E-18
 -1      3082 6.18900E-05-9.20225E-06-2.22084E-05 5.04512E-06 4.13628E-19-2.32880E-18
 -1      3083 9.53404E-05-2.54739E-05-2.99482E-05 3.84142E-06 1.30466E-18 7.99460E-19
 -1      3084 7.86755E-05-1.53919E-05-2.71525E-05-1.22702E-05-7.66313E-19 2.71001E-19
 -1      3085 8.10668E-05-1.64951E-05-2.77648E-05-1.07867E-05 3.36712E-19 5.13537E-19
 -1      3086 7.20566E-05-1.23456E-05-2.54041E-05-9.01373E-06-1.39327E-18 1.13247E-18
 -1      3087 8.41152E-05-1.79745E-05-2.83640E-05-9.97435E-06 7.59435E-19-1.16168E-18
 -1      3088 8.57694E-05-1.91194E-05-2.86271E-05-8.80812E-06 1.52254E-19-1.36396E-18
 -1      3089 7.93214E-05-1.54046E-05-2.72491E-05-7.66416E-06-9.42961E-19-2.86271E-20
 -1      3090 8.80305E-05-2.05185E-05-2.89456E-05-8.08593E-06 4.48415E-20-1.75992E-18
 -1      3091 8.92232E-05-2.15751E-05-2.90371E-05-7.05734E-06-2.34153E-19-6.84174E-19
 -1      3092 8.45034E-05-1.84340E-05-2.82283E-05-6.59344E-06-5.01710E-20-2.13151E-18
 -1      3093 9.07722E-05-2.27081E-05-2.91759E-05-6.42396E-06-7.03606E-19-1.50428E-19
 -1      3094 9.15295E-05-2.35334E-05-2.91728E-05-5.57363E-06-6.85501E-19-2.64550E-19
 -1      3095 8.82117E-05-2.10468E-05-2.87274E-05-5.56196E-06-4.69272E-20-1.72831E-18
 -1      3096 9.25626E-05-2.43919E-05-2.92164E-05-5.02247E-06-6.05208E-19-3.59463E-19
 -1      3097 9.30179E-05-2.50025E-05-2.91717E-05-4.33611E-06-6.89766E-19-1.21168E-18
 -1      3098 9.07234E-05-2.31057E-05-2.89414E-05-4.57711E-06-8.23241E-19-1.56569E-18
 -1      3099 9.36925E-05-2.56286E-05-2.91677E-05-3.87017E-06-7.14236E-19-1.10304E-18
 -1      3100 9.39509E-05-2.60654E-05-2.91094E-05-3.32850E-06-2.66882E-19-1.70915E-18
 -1      3101 9.23870E-05-2.46553E-05-2.90037E-05-3.68011E-06-7.58952E-19-1.41661E-18
 -1      3102 9.43832E-05-2.65110E-05-2.90842E-05-2.94547E-06-1.43475E-18-1.74626E-18
 -1      3103 9.45201E-05-2.68171E-05-2.90261E-05-2.52577E-06-2.45022E-18-2.06437E-18
 -1      3104 9.34673E-05-2.57879E-05-2.89905E-05-2.90086E-06-9.86916E-19-2.01397E-18
 -1      3105 9.47824E-05-2.71165E-05-2.89955E-05-2.23318E-06-9.89143E-19-6.34896E-19
 -1      3106 9.48445E-05-2.73209E-05-2.89460E-05-1.92419E-06-6.08761E-19-8.26503E-19
 -1      3107 9.41434E-05-2.65832E-05-2.89455E-05-2.26293E-06-7.60847E-19-1.90613E-18
 -1      3108 9.50162E-05-2.75429E-05-2.89133E-05-1.67716E-06-2.42226E-19 6.62068E-19
 -1      3109 9.50415E-05-2.76918E-05-2.88694E-05-1.42981E-06-9.00968E-19 1.70282E-18
 -1      3110 9.45717E-05-2.71498E-05-2.88895E-05-1.74134E-06 7.07383E-19 2.17227E-19
 -1      3111 9.51463E-05-2.78454E-05-2.88400E-05-1.23753E-06-1.55904E-18 2.69962E-18
 -1      3112 9.51494E-05-2.79472E-05-2.88044E-05-1.05069E-06-1.98330E-18 2.00358E-18
 -1      3113 9.48449E-05-2.75612E-05-2.88327E-05-1.31274E-06-7.76931E-19 1.97008E-18
 -1      3114 9.52116E-05-2.80531E-05-2.87793E-05-9.00865E-07-2.79395E-18 2.16683E-18
 -1      3115 9.52046E-05-2.81193E-05-2.87514E-05-7.62962E-07-1.43905E-18 9.29365E-19
 -1      3116 9.50082E-05-2.78483E-05-2.87816E-05-9.76560E-07-2.41087E-18 2.06407E-18
 -1      3117 9.53353E-05-2.83934E-05-2.86885E-05-1.56831E-06 1.17537E-19-3.92350E-20
 -1      3118 9.53235E-05-2.82980E-05-2.87201E-05-1.43668E-06 3.39089E-19-1.02975E-20
 -1      3119 9.56270E-05-2.82189E-05-2.88937E-05-1.28215E-06 3.30960E-19-2.67582E-19
 -1      3120 1.25978E-04-2.52196E-05-4.36493E-05-1.26851E-05 1.69719E-18-1.27201E-18
 -1      3121 1.32425E-04-3.53800E-05-4.18003E-05-1.08764E-05 1.42646E-18-2.22939E-18
 -1      3122 9.53432E-05-2.85137E-05-2.86394E-05-1.75237E-06 2.58812E-19 3.61362E-20
 -1      3123 9.53070E-05-2.84526E-05-2.86491E-05-1.67656E-06 1.03305E-19 5.51907E-20
 -1      3124 9.55732E-05-2.84346E-05-2.87776E-05-1.59367E-06 8.69246E-20-2.21755E-19
 -1      3125 9.56274E-05-2.87699E-05-2.86513E-05-1.97404E-06 2.31542E-19 3.92724E-19
 -1      3126 9.55135E-05-2.87005E-05-2.86332E-05-1.96921E-06 2.38147E-19 1.70507E-19
 -1      3127 9.58627E-05-2.89505E-05-2.86755E-05-1.97192E-06 3.07029E-19 6.49932E-19
 -1      3128 9.57115E-05-2.88415E-05-2.86567E-05-1.99429E-06 3.68682E-19 6.18879E-19
 -1      3129 9.56912E-05-2.88171E-05-2.86644E-05-2.08770E-06 1.45855E-19 9.03051E-20
 -1      3130 9.62108E-05-2.92471E-05-2.86991E-05-1.89701E-06 7.94279E-20 5.40977E-19
 -1      3131 9.60129E-05-2.90793E-05-2.86822E-05-1.96567E-06 2.30668E-19 4.23643E-19
 -1      3132 9.59235E-05-2.90382E-05-2.86704E-05-2.11955E-06 4.52547E-19 1.64132E-19
 -1      3133 9.67035E-05-2.96980E-05-2.87193E-05-1.69617E-06 5.53544E-19 5.86861E-19
 -1      3134 9.64502E-05-2.94556E-05-2.87057E-05-1.84029E-06 1.83447E-19 4.54537E-19
 -1      3135 9.63099E-05-2.94105E-05-2.86782E-05-2.07938E-06 4.74674E-20 1.38747E-19
 -1      3136 9.73679E-05-3.03273E-05-2.87375E-05-1.29507E-06 2.41074E-19 1.05752E-18
 -1      3137 9.70559E-05-3.00041E-05-2.87269E-05-1.55230E-06 5.70576E-19 1.04275E-18
 -1      3138 9.68980E-05-2.99807E-05-2.86879E-05-1.90848E-06 2.23308E-19 5.54703E-19
 -1      3139 9.82107E-05-3.11237E-05-2.87616E-05-6.04352E-07-8.71489E-20 1.01800E-18
 -1      3140 9.78498E-05-3.07345E-05-2.87506E-05-1.01550E-06 5.98615E-21 1.31934E-18
 -1      3141 9.77298E-05-3.07750E-05-2.87059E-05-1.52207E-06 1.31364E-19 1.35589E-18
 -1      3142 9.91943E-05-3.20114E-05-2.88072E-05 4.63003E-07-1.86191E-19 1.12514E-18
 -1      3143 9.88179E-05-3.16067E-05-2.87890E-05-1.34538E-07-1.44672E-19 1.08580E-18
 -1      3144 9.88207E-05-3.17719E-05-2.87469E-05-8.14194E-07-1.32813E-19 1.10307E-18
 -1      3145 1.00208E-04-3.28192E-05-2.88993E-05 1.95752E-06 1.13685E-19 1.31968E-18
 -1      3146 9.98832E-05-3.24988E-05-2.88629E-05 1.16906E-06 1.03764E-19 1.36138E-18
 -1      3147 1.00127E-04-3.28656E-05-2.88361E-05 3.23745E-07-1.71398E-19 1.51105E-18
 -1      3148 1.01046E-04-3.32606E-05-2.90692E-05 3.83338E-06-2.51149E-20 1.19905E-18
 -1      3149 1.00874E-04-3.31770E-05-2.90013E-05 2.90763E-06 1.07312E-19 1.33835E-18
 -1      3150 1.01503E-04-3.38236E-05-2.90091E-05 1.96242E-06 1.17451E-19 1.47455E-18
 -1      3151 1.01418E-04-3.29671E-05-2.93468E-05 5.86895E-06-5.05243E-19 1.56616E-18
 -1      3152 1.01517E-04-3.32981E-05-2.92358E-05 4.95030E-06-1.82642E-19 1.38524E-18
 -1      3153 1.02672E-04-3.42737E-05-2.93064E-05 4.05555E-06-2.09998E-19 1.53432E-18
 -1      3154 1.01030E-04-3.16122E-05-2.97451E-05 7.59382E-06-6.34791E-19 1.98504E-18
 -1      3155 1.01483E-04-3.24822E-05-2.95881E-05 6.93542E-06-6.78990E-19 1.46199E-18
 -1      3156 1.03241E-04-3.37489E-05-2.97607E-05 6.33226E-06-7.50006E-19 1.48303E-18
 -1      3157 9.97723E-05-2.91550E-05-3.02373E-05 8.31934E-06-9.88573E-19 2.56329E-18
 -1      3158 1.00546E-04-3.05128E-05-3.00494E-05 8.23828E-06-7.41484E-19 2.21345E-18
 -1      3159 1.02836E-04-3.18949E-05-3.03721E-05 8.19834E-06-8.68536E-19 1.55194E-18
 -1      3160 9.79160E-05-2.60766E-05-3.07447E-05 7.36690E-06 1.28998E-19 2.22949E-18
 -1      3161 9.88105E-05-2.76033E-05-3.05614E-05 8.11523E-06-6.62787E-20 2.58659E-18
 -1      3162 1.01363E-04-2.87786E-05-3.10801E-05 8.80160E-06-6.24654E-19 2.09386E-18
 -1      3163 9.61649E-05-2.33997E-05-3.11457E-05 4.48632E-06-1.77323E-19 1.75428E-18
 -1      3164 9.68478E-05-2.45561E-05-3.10167E-05 6.06475E-06 2.76375E-19 2.06451E-18
 -1      3165 9.92652E-05-2.51526E-05-3.17558E-05 7.36683E-06 4.44141E-19 3.07021E-18
 -1      3166 9.53730E-05-2.22698E-05-3.13180E-05 2.40278E-07 3.95487E-19 1.08380E-18
 -1      3167 9.55435E-05-2.25592E-05-3.12859E-05 2.28274E-06 2.26357E-19 1.28712E-18
 -1      3168 9.75070E-05-2.23628E-05-3.22252E-05 3.76422E-06 5.56416E-19 1.68750E-18
 -1      3169 9.59683E-05-2.32110E-05-3.12041E-05-4.10882E-06 6.31578E-19 3.27514E-19
 -1      3170 9.55522E-05-2.25062E-05-3.12801E-05-2.19444E-06 4.47726E-19 8.94878E-19
 -1      3171 9.70457E-05-2.16507E-05-3.23418E-05-1.09286E-06 6.01008E-19 1.41768E-18
 -1      3172 9.76774E-05-2.58096E-05-3.08415E-05-7.22962E-06 2.94700E-20 6.28187E-19
 -1      3173 9.68578E-05-2.44236E-05-3.09987E-05-5.98445E-06 5.23099E-19 6.10020E-19
 -1      3174 9.81501E-05-2.33468E-05-3.20639E-05-5.58775E-06 4.68017E-19 9.88758E-19
 -1      3175 9.96439E-05-2.89241E-05-3.03501E-05-8.42672E-06 4.90387E-19-6.24000E-20
 -1      3176 9.87639E-05-2.74176E-05-3.05389E-05-8.05209E-06 4.78591E-19 4.43392E-19
 -1      3177 1.00202E-04-2.66915E-05-3.14860E-05-8.30328E-06 7.65896E-19 1.01969E-18
 -1      3178 1.01074E-04-3.14769E-05-2.98537E-05-7.86150E-06 9.34764E-19 2.40237E-19
 -1      3179 1.00423E-04-3.03139E-05-3.00291E-05-8.22178E-06 1.48510E-19-1.91379E-19
 -1      3180 1.02121E-04-3.02267E-05-3.07803E-05-8.79722E-06 3.93946E-19-5.40521E-19
 -1      3181 1.01607E-04-3.29269E-05-2.94414E-05-6.19878E-06 3.84799E-19 6.72684E-19
 -1      3182 1.01309E-04-3.23041E-05-2.95759E-05-6.99289E-06 1.02148E-18 1.17287E-18
 -1      3183 1.03142E-04-3.28254E-05-3.01059E-05-7.55498E-06 1.82594E-19-4.51569E-19
 -1      3184 1.01309E-04-3.32777E-05-2.91494E-05-4.16375E-06 6.10125E-19 2.34519E-19
 -1      3185 1.01338E-04-3.31547E-05-2.92364E-05-5.09052E-06 7.56122E-19 9.32121E-19
 -1      3186 1.03083E-04-3.40610E-05-2.95657E-05-5.44668E-06 9.85212E-19 7.21713E-19
 -1      3187 1.00481E-04-3.28510E-05-2.89690E-05-2.27134E-06-5.16344E-19-4.48999E-19
 -1      3188 1.00727E-04-3.30663E-05-2.90167E-05-3.12463E-06 3.33312E-21-7.23678E-19
 -1      3189 1.02197E-04-3.40830E-05-2.91897E-05-3.23893E-06 7.22597E-19 8.52982E-19
 -1      3190 9.94343E-05-3.20243E-05-2.88729E-05-7.73876E-07-6.20842E-19-8.88966E-19
 -1      3191 9.97847E-05-3.24054E-05-2.88940E-05-1.45137E-06-7.87795E-19-1.10458E-18
 -1      3192 1.00891E-04-3.33359E-05-2.89593E-05-1.37625E-06-6.45947E-19-5.61543E-19
 -1      3193 9.84017E-05-3.10973E-05-2.88293E-05 2.68367E-07-9.25446E-19-3.64337E-19
 -1      3194 9.87679E-05-3.15134E-05-2.88365E-05-2.08275E-07-8.16637E-19-6.88383E-19
 -1      3195 9.95130E-05-3.22538E-05-2.88364E-05-2.02055E-08-9.58319E-19-1.72964E-18
 -1      3196 9.75103E-05-3.02534E-05-2.88121E-05 9.03384E-07-1.14828E-18 9.01058E-19
 -1      3197 9.78408E-05-3.06270E-05-2.88146E-05 6.08212E-07-9.92732E-19 3.57120E-19
 -1      3198 9.82800E-05-3.11507E-05-2.87812E-05 8.43586E-07-1.41463E-18-5.11068E-19
 -1      3199 9.68050E-05-2.95752E-05-2.88039E-05 1.22121E-06-4.35322E-19 2.32979E-18
 -1      3200 9.70782E-05-2.98730E-05-2.88073E-05 1.06968E-06-1.16891E-18 1.40861E-18
 -1      3201 9.72876E-05-3.02001E-05-2.87618E-05 1.30915E-06-1.55250E-18 1.06357E-18
 -1      3202 9.62815E-05-2.90792E-05-2.87951E-05 1.31579E-06-5.70992E-19 3.92384E-18
 -1      3203 9.64942E-05-2.92960E-05-2.88016E-05 1.26709E-06-4.93857E-19 3.57635E-18
 -1      3204 9.65483E-05-2.94671E-05-2.87569E-05 1.48741E-06-1.44365E-18 2.98185E-18
 -1      3205 9.59115E-05-2.87457E-05-2.87819E-05 1.26779E-06-3.22307E-19 3.71876E-18
 -1      3206 9.60707E-05-2.88912E-05-2.87918E-05 1.28593E-06 7.77030E-21 4.27657E-18
 -1      3207 9.60310E-05-2.89509E-05-2.87543E-05 1.47746E-06-9.40408E-19 4.37083E-18
 -1      3208 9.56604E-05-2.85409E-05-2.87637E-05 1.13917E-06 7.42599E-19 3.36247E-18
 -1      3209 9.57762E-05-2.86305E-05-2.87762E-05 1.19591E-06 2.34783E-19 3.50401E-18
 -1      3210 9.56887E-05-2.86182E-05-2.87485E-05 1.35685E-06-5.51409E-20 4.33238E-18
 -1      3211 9.54954E-05-2.84290E-05-2.87420E-05 9.73633E-07-2.69178E-19 2.65175E-18
 -1      3212 9.55781E-05-2.84784E-05-2.87558E-05 1.04868E-06 5.21123E-19 2.42422E-18
 -1      3213 9.54741E-05-2.84253E-05-2.87378E-05 1.18116E-06 6.62330E-19 2.31590E-18
 -1      3214 9.53893E-05-2.83787E-05-2.87188E-05 7.99569E-07-6.45433E-20 9.60048E-19
 -1      3215 9.54481E-05-2.84017E-05-2.87327E-05 8.79535E-07 4.16264E-19 2.19077E-18
 -1      3216 9.53468E-05-2.83299E-05-2.87232E-05 9.87290E-07 7.02869E-19 2.50653E-18
 -1      3217 9.53219E-05-2.83654E-05-2.86959E-05 6.33723E-07 2.29825E-19-6.45324E-19
 -1      3218 9.53637E-05-2.83725E-05-2.87090E-05 7.10566E-07-3.43325E-19-7.16606E-20
 -1      3219 9.52755E-05-2.82969E-05-2.87062E-05 7.97677E-07 7.33779E-19 2.52324E-18
 -1      3220 9.52789E-05-2.83707E-05-2.86748E-05 4.85271E-07-3.35074E-19-1.35686E-18
 -1      3221 9.53087E-05-2.83706E-05-2.86865E-05 5.54159E-07-2.03199E-19-1.20773E-18
 -1      3222 9.52376E-05-2.82994E-05-2.86885E-05 6.24771E-07 3.12032E-19-1.87182E-19
 -1      3223 9.52394E-05-2.83595E-05-2.86622E-05 3.99104E-07-1.67279E-18-4.45866E-19
 -1      3224 9.52647E-05-2.83669E-05-2.86695E-05 4.43069E-07-1.17192E-18-1.05620E-18
 -1      3225 9.52098E-05-2.83039E-05-2.86746E-05 5.00001E-07-1.61541E-18-7.08562E-19
 -1      3226 9.51864E-05-2.83031E-05-2.86655E-05 4.14583E-07-5.51847E-19-1.52790E-18
 -1      3227 9.47775E-05-2.78393E-05-2.86886E-05-1.55772E-07-1.18658E-18-2.87837E-19
 -1      3228 9.47637E-05-2.78306E-05-2.86864E-05-7.62413E-08-1.08718E-18 4.19489E-19
 -1      3229 9.47660E-05-2.78417E-05-2.86832E-05 2.08322E-08-1.21926E-18-7.18073E-19
 -1      3230 9.47786E-05-2.78564E-05-2.86810E-05 1.00030E-07-6.57637E-19-1.07492E-18
 -1      3231 9.46902E-05-2.77536E-05-2.86851E-05-1.83084E-08-1.14304E-18 5.77837E-20
 -1      3232 9.24383E-05-1.79098E-05-3.19629E-05-6.88272E-06-6.80359E-19-1.81159E-18
 -1      3233 9.30583E-05-1.88611E-05-3.18279E-05-7.41450E-06-8.06122E-19-1.73600E-18
 -1      3234 9.37987E-05-2.03885E-05-3.14426E-05-6.43435E-06-7.41913E-19-1.60779E-18
 -1      3235 9.31920E-05-1.93177E-05-3.16319E-05-5.61982E-06-5.12096E-19-1.59734E-18
 -1      3236 1.23982E-04-8.39254E-06-5.00217E-05 6.36281E-06 2.18302E-18-1.28008E-18
 -1      3237 1.22342E-04-6.05130E-06-5.03879E-05 2.63152E-09 2.48668E-18-1.08289E-18
 -1      3238 7.23998E-05-2.86883E-05-1.86437E-05 3.61721E-05-2.43585E-18-1.91535E-18
 -1      3239 5.97803E-05-1.99599E-05-1.64242E-05 3.17178E-05-1.56738E-18-1.53175E-18
 -1      3240 9.51297E-05-2.81616E-05-2.86993E-05-4.86780E-07 3.83441E-19 1.19705E-18
 -1      3241 9.50415E-05-2.80829E-05-2.86997E-05-4.67269E-07-1.03848E-18 1.83568E-18
 -1      3242 9.51503E-05-2.81528E-05-2.87108E-05-5.49473E-07 5.16445E-19 1.11469E-18
 -1      3243 9.23396E-05-1.82297E-05-3.17767E-05 1.77807E-06 1.01731E-18-1.14931E-18
 -1      3244 9.22185E-05-1.80243E-05-3.18096E-05 1.03690E-06 9.11365E-19-1.32151E-18
 -1      3245 1.34501E-04-4.45772E-05-3.86810E-05 5.02833E-06 3.60624E-19 7.85305E-19
 -1      3246 1.32324E-04-3.63658E-05-4.15575E-05 9.95943E-06 8.52539E-19 4.62162E-19
 -1      3247 3.97333E-05-6.86091E-06-1.35976E-05 1.43086E-06-1.87986E-18-4.38340E-20
 -1      3248 4.49757E-05-8.89961E-06-1.49219E-05-1.17433E-05-2.56990E-18 1.70772E-18
 -1      3249 4.78205E-05-1.32088E-05-1.47131E-05 2.44979E-05-1.16552E-18-1.30771E-18
 -1      3250 4.10600E-05-8.14252E-06-1.35782E-05 1.19755E-05-1.50973E-18-1.36796E-18
 -1      3251 5.47981E-05-1.72086E-05-1.57641E-05-2.86316E-05-9.61912E-19-2.01731E-18
 -1      3252 6.70199E-05-2.65889E-05-1.72235E-05-3.69896E-05-1.80450E-18-1.71630E-18
 -1      3253 9.48476E-05-2.78941E-05-2.86944E-05-3.19990E-07-4.24233E-19-7.51327E-19
 -1      3254 9.48059E-05-2.78604E-05-2.86925E-05-2.49544E-07-9.91875E-19-2.34369E-19
 -1      3255 9.47185E-05-2.77630E-05-2.86931E-05-2.19760E-07-1.17114E-18-1.11768E-19
 -1      3256 9.54763E-05-2.86634E-05-2.86317E-05-1.93472E-06 4.52513E-19 1.38817E-19
 -1      3257 9.53920E-05-2.86148E-05-2.86181E-05-1.91137E-06 5.00439E-19 3.28281E-19
 -1      3258 9.55703E-05-2.86955E-05-2.86640E-05-2.01785E-06 3.56986E-19 8.38544E-20
 -1      3259 9.49697E-05-2.80055E-05-2.86983E-05-4.31852E-07-8.13933E-19-2.37717E-18
 -1      3260 9.49053E-05-2.79500E-05-2.86973E-05-3.85024E-07-1.57118E-19-2.43243E-18
 -1      3261 9.48153E-05-2.78406E-05-2.87012E-05-3.88056E-07-1.02389E-18-1.78935E-18
 -1      3262 9.49636E-05-2.79757E-05-2.87068E-05-4.96024E-07-6.10085E-19-7.44913E-19
 -1      3263 8.20523E-05-3.60893E-05-1.92687E-05-3.89918E-05-2.01975E-18-9.22684E-19
 -1      3264 9.76713E-05-4.62099E-05-2.22034E-05-3.84506E-05-1.46812E-18 8.54709E-19
 -1      3265 4.38102E-05-7.26321E-06-1.54125E-05-6.43153E-06 8.09760E-19-2.58874E-18
 -1      3266 4.72187E-05-1.05064E-05-1.53958E-05-1.87822E-05-1.28643E-19-2.15210E-18
 -1      3267 1.11686E-04-5.23005E-05-2.50761E-05-3.19882E-05-9.39412E-19 6.97843E-19
 -1      3268 1.22984E-04-5.65713E-05-2.87961E-05-2.40634E-05-8.31998E-19 1.40086E-18
 -1      3269 9.53867E-05-2.85908E-05-2.86246E-05-1.86423E-06 4.57451E-19 8.12187E-20
 -1      3270 9.53274E-05-2.85448E-05-2.86197E-05-1.82071E-06 4.88681E-19-3.78161E-20
 -1      3271 9.55265E-05-2.86230E-05-2.86761E-05-1.92168E-06 2.91879E-19-2.64547E-19
 -1      3272 1.30817E-04-5.64078E-05-3.16912E-05-1.44234E-05-6.35063E-19 1.66198E-18
 -1      3273 1.33891E-04-5.23084E-05-3.52546E-05-4.08283E-06-3.00088E-19 1.01191E-18
 -1      3274 1.24512E-04-5.44462E-05-2.99360E-05-1.66801E-05-9.18766E-19 1.20874E-18
 -1      3275 1.30424E-04-5.59526E-05-3.21358E-05 1.38537E-05-1.62695E-18-1.25950E-18
 -1      3276 1.23099E-04-5.59577E-05-2.86810E-05 2.30166E-05-2.32275E-18-1.23278E-18
 -1      3277 9.43766E-05-2.19127E-05-3.10183E-05 3.56912E-06 1.24128E-18-9.33411E-20
 -1      3278 9.34212E-05-2.01470E-05-3.14323E-05 4.15663E-06 1.35595E-18-4.01680E-19
 -1      3279 9.30489E-05-1.94626E-05-3.15475E-05 3.58245E-06 1.27227E-18-6.00745E-19
 -1      3280 1.30529E-04-3.99893E-05-3.89443E-05-8.13079E-06 2.60436E-19-2.46095E-18
 -1      3281 9.53953E-05-2.78361E-05-2.89573E-05-7.47232E-07 4.90568E-19-1.56144E-19
 -1      3282 9.54372E-05-2.75849E-05-2.90649E-05-3.80339E-07 5.31980E-19-1.05422E-19
 -1      3283 9.56745E-05-2.78394E-05-2.90774E-05-7.82849E-07 3.48296E-19-2.99486E-19
 -1      3284 6.11219E-05-1.15575E-05-2.10965E-05-1.50333E-05-2.45838E-18 2.23167E-18
 -1      3285 5.79043E-05-8.91623E-06-2.07469E-05-7.58385E-06-2.82325E-18 1.44221E-18
 -1      3286 9.52565E-05-2.52018E-05-3.00329E-05 3.18074E-06 1.24073E-18 2.92105E-19
 -1      3287 9.52746E-05-2.45877E-05-3.02772E-05 4.60569E-06 1.34255E-18 5.84265E-19
 -1      3288 9.30295E-05-1.94184E-05-3.15587E-05-3.54408E-06 2.95386E-21-1.42744E-18
 -1      3289 9.34089E-05-2.01019E-05-3.14452E-05-4.13631E-06-1.97203E-19-1.45076E-18
 -1      3290 9.55340E-05-2.85519E-05-2.87100E-05-1.79008E-06 3.97737E-19-3.01893E-19
 -1      3291 1.32779E-04-4.92118E-05-3.59963E-05 1.09898E-06-2.69542E-19 1.21703E-18
 -1      3292 1.28633E-04-4.41757E-05-3.63340E-05 5.65785E-06-3.60280E-19 1.20048E-18
 -1      3293 1.28431E-04-5.06063E-05-3.33008E-05-3.15605E-06-7.11256E-19 1.52679E-18
 -1      3294 1.29449E-04-3.13413E-05-4.22993E-05 1.22893E-05 6.15316E-19-1.22873E-19
 -1      3295 1.24962E-04-2.57627E-05-4.28798E-05 1.29362E-05 3.84659E-19-9.12784E-19
 -1      3296 1.27267E-04-3.53268E-05-3.95965E-05 1.06432E-05-1.85686E-19 1.16361E-19
 -1      3297 5.81958E-05-1.58556E-05-1.71883E-05 2.43972E-05 2.20009E-18-2.68509E-18
 -1      3298 1.21799E-04-1.36674E-05-4.67418E-05 8.71220E-06 1.72318E-18-1.34427E-18
 -1      3299 5.87380E-05-1.60972E-05-1.79140E-05 2.44137E-05-1.35112E-18-1.33254E-18
 -1      3300 9.51297E-05-2.73282E-05-2.90676E-05 2.20770E-07 6.77559E-19 2.07029E-19
 -1      3301 9.51904E-05-2.81323E-05-2.87371E-05-6.87071E-07-1.69272E-18 1.44863E-18
 -1      3302 9.51585E-05-2.81387E-05-2.87217E-05-6.14764E-07-4.80603E-19 9.97252E-19
 -1      3303 9.50384E-05-2.80344E-05-2.87192E-05-5.97338E-07-2.07198E-18 2.97413E-18
 -1      3304 9.50498E-05-2.79848E-05-2.87439E-05-7.47662E-07-2.40387E-18 2.34973E-18
 -1      3305 1.23102E-04-2.15607E-05-4.39248E-05-1.26462E-05 1.51328E-18-1.11321E-18
 -1      3306 1.21812E-04-2.74300E-05-4.05802E-05-1.24698E-05 1.01578E-18-1.82451E-18
 -1      3307 1.18829E-04-1.75497E-05-4.37413E-05-1.12897E-05 1.87872E-18-1.17671E-18
 -1      3308 9.48909E-05-2.79860E-05-2.86752E-05 3.19612E-07 1.04413E-18 1.86161E-18
 -1      3309 9.49408E-05-2.80347E-05-2.86732E-05 3.66676E-07 8.34269E-19 3.78014E-18
 -1      3310 1.18929E-04-5.23921E-05-2.84320E-05 2.02836E-05-2.21246E-18-8.48340E-19
 -1      3311 1.15601E-04-5.31325E-05-2.67059E-05 2.78229E-05-2.49210E-18-1.24534E-18
 -1      3312 1.05710E-04-4.72814E-05-2.49697E-05 3.01513E-05-2.39837E-18-8.04364E-19
 -1      3313 9.48075E-05-2.78944E-05-2.86787E-05 1.86378E-07-2.24568E-19-2.03100E-18
 -1      3314 9.48421E-05-2.79287E-05-2.86766E-05 2.53297E-07 7.59143E-19-9.17439E-19
 -1      3315 9.48137E-05-2.79012E-05-2.86759E-05 3.32029E-07 6.29679E-19 8.75541E-20
 -1      3316 9.47262E-05-2.78043E-05-2.86793E-05 1.73584E-07-6.30488E-19-1.88572E-18
 -1      3317 4.98464E-05-1.02816E-05-1.67375E-05 1.28148E-05 1.38204E-18-3.12354E-18
 -1      3318 9.27456E-05-1.89170E-05-3.16594E-05-3.02195E-06 1.60564E-19-1.38657E-18
 -1      3319 9.37166E-05-2.06453E-05-3.12996E-05-2.72523E-06 6.67615E-20-1.25827E-18
 -1      3320 9.25055E-05-1.85015E-05-3.17264E-05-2.31859E-06 3.54867E-19-1.24397E-18
 -1      3321 1.18330E-04-8.96672E-06-4.72767E-05-2.70149E-06 2.32214E-18-1.69618E-18
 -1      3322 9.42397E-05-2.17007E-05-3.11054E-05-5.45338E-06-6.75339E-19-1.44551E-18
 -1      3323 7.89849E-05-3.10474E-05-2.01782E-05-3.42778E-05-1.89415E-18-1.21531E-18
 -1      3324 8.23056E-05-3.37897E-05-2.03632E-05 3.60099E-05-2.64227E-18-1.11628E-18
 -1      3325 7.70562E-05-2.79590E-05-2.09655E-05 3.14803E-05-2.38596E-18-1.96438E-18
 -1      3326 9.18975E-05-3.88483E-05-2.26586E-05 3.32770E-05-2.83910E-18-6.88320E-19
 -1      3327 9.27625E-05-1.89574E-05-3.16502E-05 3.06694E-06 1.26099E-18-7.74789E-19
 -1      3328 9.25186E-05-1.85335E-05-3.17193E-05 2.37513E-06 1.10579E-18-9.49962E-19
 -1      3329 9.33172E-05-1.98828E-05-3.14523E-05 1.75637E-06 9.05684E-19-9.74128E-19
 -1      3330 9.37380E-05-2.06755E-05-3.12882E-05 2.78053E-06 1.17405E-18-6.14696E-19
 -1      3331 1.05804E-04-4.75368E-05-2.47301E-05-3.09183E-05-1.44755E-18 9.60125E-19
 -1      3332 5.71761E-05-1.45268E-05-1.79083E-05-2.16824E-05-3.87716E-19-1.51254E-18
 -1      3333 9.41483E-05-2.15439E-05-3.11262E-05-4.79045E-06-4.74494E-19-1.46886E-18
 -1      3334 4.76574E-05-8.05018E-06-1.64875E-05 5.92159E-06-1.51701E-18-3.88100E-19
 -1      3335 9.30960E-05-1.94821E-05-3.15307E-05 6.12663E-07 8.52218E-19-1.25494E-18
 -1      3336 9.21576E-05-1.79215E-05-3.18286E-05 4.03198E-07 9.51801E-19-1.31894E-18
 -1      3337 9.21545E-05-1.79165E-05-3.18294E-05-3.51638E-07 7.92447E-19-1.36676E-18
 -1      3338 9.49293E-05-2.80206E-05-2.86745E-05 4.33445E-07 1.90987E-18 2.55490E-18
 -1      3339 9.49941E-05-2.80947E-05-2.86725E-05 3.98665E-07 1.62548E-18 3.80727E-18
 -1      3340 9.50425E-05-2.81430E-05-2.86706E-05 4.16912E-07 1.49317E-18 1.92431E-18
 -1      3341 4.75328E-05-6.94191E-06-1.67497E-05 2.42209E-06 7.43437E-19-3.01448E-18
 -1      3342 5.30571E-05-8.25911E-06-1.89875E-05-2.47301E-06 2.88593E-19-2.25268E-18
 -1      3343 5.84133E-05-1.38508E-05-1.87367E-05-1.83734E-05-2.89696E-18 3.50947E-18
 -1      3344 9.53037E-05-2.65691E-05-2.94634E-05 1.28822E-06 8.45403E-19 2.72303E-19
 -1      3345 9.53999E-05-2.59861E-05-2.97172E-05 2.17930E-06 1.00022E-18 2.99503E-19
 -1      3346 9.53155E-05-2.53373E-05-3.00131E-05 2.77242E-06 1.14509E-18 2.03529E-19
 -1      3347 1.30956E-04-4.98709E-05-3.50439E-05 5.69460E-07-4.54235E-19-1.77803E-18
 -1      3348 1.32360E-04-5.39428E-05-3.36099E-05 7.10755E-06-9.66941E-19-1.50883E-18
 -1      3349 1.27243E-04-5.33046E-05-3.17029E-05 1.00612E-05-1.23059E-18-8.48820E-19
 -1      3350 5.51966E-05-7.95696E-06-2.00890E-05-5.75686E-07-2.56130E-18 3.79894E-19
 -1      3351 6.55827E-05-1.04973E-05-2.35293E-05-3.55894E-06-2.23672E-18 1.27617E-18
 -1      3352 5.61729E-05-9.45640E-06-1.99711E-05 9.34533E-06-2.13005E-18-3.98503E-19
 -1      3353 9.56913E-05-2.85700E-05-2.87645E-05-1.76834E-06 4.13572E-19-2.41376E-19
 -1      3354 9.57063E-05-2.85197E-05-2.87923E-05-1.68042E-06 3.22422E-19-2.74951E-19
 -1      3355 9.56507E-05-2.52872E-05-3.01430E-05-1.43462E-06-8.50475E-20-1.04020E-18
 -1      3356 9.57726E-05-2.60042E-05-2.99151E-05-7.67417E-07-5.01878E-20-7.88398E-19
 -1      3357 9.59569E-05-2.66208E-05-2.97074E-05-2.94258E-07-6.96197E-20-7.33927E-19
 -1      3358 9.60003E-05-2.70933E-05-2.95388E-05 1.74593E-07-8.32175E-20-6.12116E-19
 -1      3359 9.58870E-05-2.59701E-05-2.99609E-05-5.89983E-07-3.94534E-21-9.18075E-19
 -1      3360 9.60564E-05-2.74781E-05-2.93843E-05 5.07452E-07-2.55342E-19-6.40410E-19
 -1      3361 9.60345E-05-2.77557E-05-2.92663E-05 8.27396E-07-1.44326E-19-7.23620E-19
 -1      3362 9.61272E-05-2.70759E-05-2.95930E-05 2.38340E-07-1.07807E-19-5.40979E-19
 -1      3363 9.59987E-05-2.79605E-05-2.91551E-05 1.05294E-06-5.90543E-20-6.29449E-19
 -1      3364 9.59370E-05-2.80943E-05-2.90770E-05 1.27011E-06 1.40993E-19-5.26630E-19
 -1      3365 9.61486E-05-2.77346E-05-2.93207E-05 8.14358E-07-1.38996E-19-5.03323E-19
 -1      3366 9.58402E-05-2.81608E-05-2.90036E-05 1.41614E-06 2.23807E-19-6.98845E-19
 -1      3367 9.57543E-05-2.81862E-05-2.89580E-05 1.56621E-06 2.22193E-20-6.90707E-19
 -1      3368 9.60195E-05-2.80516E-05-2.91297E-05 1.20088E-06 7.72043E-20-6.33730E-19
 -1      3369 9.55981E-05-2.81504E-05-2.89065E-05 1.67864E-06 6.21747E-20-7.26358E-19
 -1      3370 9.54755E-05-2.80838E-05-2.88817E-05 1.80768E-06 2.13319E-19-5.99024E-19
 -1      3371 9.57731E-05-2.81108E-05-2.89978E-05 1.46998E-06 8.45491E-20-9.05913E-19
 -1      3372 9.52601E-05-2.79497E-05-2.88499E-05 1.89803E-06 2.10416E-19-6.61915E-19
 -1      3373 9.50933E-05-2.77941E-05-2.88421E-05 2.02308E-06-8.48136E-20-5.05210E-19
 -1      3374 9.54093E-05-2.79531E-05-2.89079E-05 1.67595E-06 2.09948E-19-1.02221E-18
 -1      3375 9.48057E-05-2.75640E-05-2.88227E-05 2.10668E-06-3.25823E-19-2.04531E-19
 -1      3376 9.45720E-05-2.73145E-05-2.88252E-05 2.24534E-06-2.13875E-19 3.07140E-20
 -1      3377 9.49174E-05-2.75913E-05-2.88498E-05 1.84426E-06 1.06796E-19-7.53452E-19
 -1      3378 9.41853E-05-2.69787E-05-2.88101E-05 2.32778E-06-1.69253E-19 3.02987E-19
 -1      3379 9.38486E-05-2.66198E-05-2.88152E-05 2.48964E-06 2.89337E-19 1.18986E-19
 -1      3380 9.42586E-05-2.70227E-05-2.88077E-05 1.99116E-06-1.18393E-19 1.60821E-19
 -1      3381 9.33204E-05-2.61578E-05-2.87939E-05 2.56562E-06 1.42079E-19-2.18029E-19
 -1      3382 9.28246E-05-2.56634E-05-2.87902E-05 2.74959E-06-3.17902E-19-5.84526E-19
 -1      3383 9.33667E-05-2.62243E-05-2.87627E-05 2.11057E-06 3.67682E-21-1.03122E-19
 -1      3384 9.21344E-05-2.50823E-05-2.87503E-05 2.79727E-06-4.88862E-19-7.05310E-19
 -1      3385 9.14482E-05-2.44565E-05-2.87242E-05 2.98111E-06-5.00839E-19-8.32987E-19
 -1      3386 9.21798E-05-2.51868E-05-2.86915E-05 2.16707E-06-3.38299E-19-3.93629E-19
 -1      3387 9.04518E-05-2.36642E-05-2.86406E-05 2.96986E-06-4.08471E-19-4.38290E-19
 -1      3388 8.93922E-05-2.28036E-05-2.85614E-05 3.14079E-06-1.90113E-19-5.15106E-19
 -1      3389 9.05458E-05-2.38435E-05-2.85576E-05 2.09929E-06-1.97922E-19-3.92782E-19
 -1      3390 8.80019E-05-2.17919E-05-2.83991E-05 3.00264E-06-2.48932E-19-3.58187E-19
 -1      3391 8.64495E-05-2.06886E-05-2.82219E-05 3.09684E-06-3.31676E-19-7.49192E-19
 -1      3392 8.82301E-05-2.20993E-05-2.82986E-05 1.77767E-06-3.09376E-19-4.78541E-20
 -1      3393 8.45227E-05-1.94419E-05-2.79236E-05 2.74003E-06-5.04475E-19-7.72253E-19
 -1      3394 8.22762E-05-1.80841E-05-2.75714E-05 2.68159E-06-6.02757E-19-7.22188E-19
 -1      3395 8.50245E-05-1.99526E-05-2.78251E-05 1.01524E-06-4.43725E-19-8.91817E-20
 -1      3396 7.96179E-05-1.66237E-05-2.70418E-05 1.98585E-06-1.77850E-19-9.95900E-19
 -1      3397 7.64068E-05-1.50506E-05-2.63820E-05 1.69348E-06 1.68641E-19-8.79791E-19
 -1      3398 8.06115E-05-1.74230E-05-2.69888E-05-4.51874E-07-2.69274E-19-3.09936E-19
 -1      3399 7.27439E-05-1.34601E-05-2.54578E-05 5.30046E-07-7.11508E-20-1.13393E-18
 -1      3400 6.82328E-05-1.18433E-05-2.42444E-05-5.32784E-08 1.56483E-19-1.56606E-18
 -1      3401 7.45635E-05-1.46365E-05-2.55405E-05-2.96427E-06-3.11185E-20-5.27394E-19
 -1      3402 6.39374E-05-1.04702E-05-2.29548E-05-1.03688E-06 2.03543E-19-1.91890E-18
 -1      3403 5.84499E-05-9.23506E-06-2.10716E-05-1.71175E-06 1.58342E-19-2.14442E-18
 -1      3404 5.71688E-05-9.58649E-06-2.00014E-05-9.69062E-06 2.29692E-19-1.80722E-18
 -1      3405 6.69762E-05-1.19631E-05-2.33284E-05-6.19100E-06-2.02884E-19-7.40416E-19
 -1      3406 6.95350E-05-1.16932E-05-2.47905E-05-3.29274E-06-2.13787E-18-1.21629E-19
 -1      3407 7.57847E-05-1.42595E-05-2.64412E-05-4.04799E-06-1.86954E-18 5.73021E-19
 -1      3408 7.88300E-05-1.58137E-05-2.70717E-05-3.91719E-06-8.29512E-19 2.92198E-19
 -1      3409 8.17724E-05-1.73472E-05-2.76651E-05-4.27793E-06-3.83436E-19-5.97054E-19
 -1      3410 8.40758E-05-1.87569E-05-2.80346E-05-3.99634E-06-3.19554E-19-1.28274E-18
 -1      3411 7.94195E-05-1.62520E-05-2.69484E-05-1.13671E-06-1.29592E-18 6.95970E-19
 -1      3412 8.61732E-05-2.00908E-05-2.83577E-05-4.09293E-06 1.27274E-19-1.62893E-18
 -1      3413 8.77385E-05-2.12257E-05-2.85351E-05-3.74236E-06-1.75146E-19-1.76516E-18
 -1      3414 8.42416E-05-1.90197E-05-2.78778E-05-2.04036E-06-5.46909E-19-8.15186E-19
 -1      3415 8.92142E-05-2.22927E-05-2.87031E-05-3.67608E-06-3.75763E-19-1.52631E-18
 -1      3416 9.02595E-05-2.31692E-05-2.87747E-05-3.30307E-06-5.65978E-19-9.74149E-19
 -1      3417 8.76899E-05-2.13388E-05-2.83860E-05-2.37302E-06-3.03837E-19-1.32564E-18
 -1      3418 9.12847E-05-2.39887E-05-2.88540E-05-3.14968E-06-1.00031E-18-1.07913E-18
 -1      3419 9.19688E-05-2.46436E-05-2.88699E-05-2.79306E-06-9.74282E-19-1.02906E-18
 -1      3420 9.01090E-05-2.31832E-05-2.86485E-05-2.34957E-06-5.92263E-19-8.52417E-19
 -1      3421 9.26727E-05-2.52553E-05-2.88996E-05-2.60481E-06-1.08698E-18-1.81775E-18
 -1      3422 9.31121E-05-2.57343E-05-2.88881E-05-2.28699E-06-1.59370E-18-1.96446E-18
 -1      3423 9.17843E-05-2.46018E-05-2.87699E-05-2.13218E-06-1.45567E-18-2.33906E-18
 -1      3424 9.35714E-05-2.61640E-05-2.88917E-05-2.10669E-06-3.34895E-19-1.54378E-18
 -1      3425 9.38387E-05-2.64959E-05-2.88700E-05-1.84729E-06 9.11948E-19-4.27377E-19
 -1      3426 9.29086E-05-2.56443E-05-2.88124E-05-1.83924E-06-1.69228E-19-2.08106E-18
 -1      3427 9.41672E-05-2.68269E-05-2.88608E-05-1.67002E-06 4.62448E-19-4.98056E-19
 -1      3428 9.43443E-05-2.70786E-05-2.88347E-05-1.44517E-06 8.57033E-19-6.62304E-19
 -1      3429 9.36777E-05-2.64217E-05-2.88140E-05-1.52695E-06 8.92712E-19-1.19381E-18
 -1      3430 9.45646E-05-2.73172E-05-2.88200E-05-1.29095E-06 7.44334E-19-1.52568E-18
 -1      3431 9.46730E-05-2.74959E-05-2.87949E-05-1.10996E-06-1.07786E-18-2.36714E-19
 -1      3432 9.42119E-05-2.70076E-05-2.87954E-05-1.22499E-06 2.08976E-19-1.96074E-18
 -1      3433 9.48198E-05-2.76663E-05-2.87789E-05-9.79922E-07-2.30406E-18-7.47051E-19
 -1      3434 9.48838E-05-2.77898E-05-2.87567E-05-8.39519E-07-2.54247E-18-1.25331E-19
 -1      3435 9.45680E-05-2.74338E-05-2.87683E-05-9.59692E-07-1.14634E-18-2.76406E-18
 -1      3436 9.58469E-05-2.82519E-05-2.89704E-05-1.28233E-06 3.46903E-19-2.40762E-19
 -1      3437 9.58769E-05-2.80854E-05-2.90477E-05-1.07396E-06 3.51029E-19-2.22345E-19
 -1      3438 9.57699E-05-2.84646E-05-2.88445E-05-1.57259E-06 1.64427E-19-2.76937E-19
 -1      3439 9.57969E-05-2.83716E-05-2.88929E-05-1.43998E-06 1.96559E-19-1.09646E-19
 -1      3440 9.60030E-05-2.82618E-05-2.90345E-05-1.26508E-06 3.66734E-19-8.36194E-20
 -1      3441 9.58922E-05-2.84706E-05-2.88977E-05-1.54957E-06 2.05919E-19-3.58470E-19
 -1      3442 9.59475E-05-2.90609E-05-2.86626E-05-2.23973E-06 1.85998E-19-2.01275E-19
 -1      3443 9.57953E-05-2.89115E-05-2.86617E-05-2.22420E-06 4.45371E-19-3.44219E-19
 -1      3444 9.57251E-05-2.88140E-05-2.86729E-05-2.15169E-06 5.17906E-19-1.57012E-19
 -1      3445 9.56398E-05-2.87313E-05-2.86737E-05-2.11396E-06 2.71972E-19 2.76562E-20
 -1      3446 9.57042E-05-2.88281E-05-2.86670E-05-2.26395E-06 4.50027E-19-1.53884E-19
 -1      3447 9.70280E-05-3.01695E-05-2.86531E-05-2.18502E-06-3.04989E-19 5.18986E-19
 -1      3448 9.66711E-05-2.98017E-05-2.86492E-05-2.28969E-06-1.83455E-19-1.18429E-19
 -1      3449 9.80099E-05-3.11269E-05-2.86668E-05-1.89050E-06-4.06886E-20 5.81760E-19
 -1      3450 9.75220E-05-3.06272E-05-2.86551E-05-2.11962E-06-8.20708E-20 3.30585E-19
 -1      3451 9.72015E-05-3.04779E-05-2.86114E-05-2.55462E-06-9.86733E-20-2.90047E-20
 -1      3452 9.93360E-05-3.23461E-05-2.87175E-05-1.26417E-06-2.98538E-19 6.35535E-19
 -1      3453 9.87217E-05-3.17385E-05-2.86875E-05-1.67490E-06-1.73159E-19 5.99821E-19
 -1      3454 9.83966E-05-3.16400E-05-2.86297E-05-2.35111E-06-1.05212E-19 7.43954E-20
 -1      3455 1.00965E-04-3.37054E-05-2.88399E-05-1.67841E-07 7.78791E-20 4.58104E-19
 -1      3456 1.00270E-04-3.30710E-05-2.87749E-05-8.14555E-07-4.30241E-20 3.57116E-19
 -1      3457 1.00038E-04-3.31097E-05-2.87058E-05-1.77963E-06-1.58630E-20-2.09641E-19
 -1      3458 1.02735E-04-3.49248E-05-2.90820E-05 1.51559E-06 1.32656E-19 8.74832E-19
 -1      3459 1.02066E-04-3.44307E-05-2.89601E-05 6.04889E-07 2.26345E-19 9.53324E-19
 -1      3460 1.02084E-04-3.47296E-05-2.88866E-05-6.56528E-07-1.09463E-19-1.90379E-19
 -1      3461 1.04301E-04-3.55255E-05-2.94988E-05 3.77540E-06-4.92507E-19 9.04054E-19
 -1      3462 1.03835E-04-3.54268E-05-2.92974E-05 2.65515E-06-2.23924E-19 8.68304E-19
 -1      3463 1.04318E-04-3.61270E-05-2.92360E-05 1.18630E-06-1.93320E-20-1.22407E-19
 -1      3464 1.05174E-04-3.48934E-05-3.01349E-05 6.35393E-06-6.53619E-19 1.32002E-19
 -1      3465 1.05129E-04-3.54957E-05-2.98389E-05 5.20976E-06-3.51966E-19 3.42645E-19
 -1      3466 1.06308E-04-3.67140E-05-2.98223E-05 3.76108E-06-2.03708E-19-5.85819E-19
 -1      3467 1.04844E-04-3.25149E-05-3.09904E-05 8.53837E-06-7.55860E-19 5.60196E-19
 -1      3468 1.05356E-04-3.39921E-05-3.06111E-05 7.75080E-06-1.04192E-18 4.49381E-19
 -1      3469 1.07376E-04-3.56850E-05-3.06979E-05 6.72418E-06-9.56360E-19-2.79072E-19
 -1      3470 1.03163E-04-2.84666E-05-3.19732E-05 9.24162E-06-5.04432E-19 1.14745E-18
 -1      3471 1.04152E-04-3.06428E-05-3.15624E-05 9.30181E-06-9.09265E-19 1.13781E-18
 -1      3472 1.06891E-04-3.25082E-05-3.18359E-05 9.14923E-06-8.63176E-19 1.37116E-19
 -1      3473 1.00705E-04-2.38338E-05-3.28891E-05 7.46942E-06 4.62698E-19 1.56565E-18
 -1      3474 1.01799E-04-2.60389E-05-3.25378E-05 8.71186E-06 2.24864E-19 1.41009E-18
 -1      3475 1.04806E-04-2.75205E-05-3.30852E-05 9.66868E-06-4.41071E-19-3.83646E-21
 -1      3476 9.87655E-05-2.05935E-05-3.34750E-05 3.09200E-06 8.58150E-19 7.94270E-19
 -1      3477 9.94040E-05-2.18293E-05-3.32931E-05 5.36054E-06 1.10012E-18 1.49052E-18
 -1      3478 1.02036E-04-2.23209E-05-3.41610E-05 7.10765E-06 8.59013E-19 4.18471E-19
 -1      3479 9.85333E-05-2.04011E-05-3.35318E-05-2.44073E-06 4.67953E-19 8.51793E-19
 -1      3480 9.84361E-05-2.00854E-05-3.35787E-05 6.17271E-08 1.86129E-19 4.82961E-19
 -1      3481 1.00365E-04-1.94120E-05-3.47234E-05 1.74221E-06 5.55753E-19 3.27936E-19
 -1      3482 1.00362E-04-2.34821E-05-3.30149E-05-7.16846E-06 1.83455E-19 7.97223E-19
 -1      3483 9.94645E-05-2.16814E-05-3.32851E-05-5.34013E-06 7.06215E-19 8.20228E-19
 -1      3484 1.00736E-04-2.00379E-05-3.45603E-05-4.44616E-06 2.47459E-19 1.29106E-20
 -1      3485 1.02917E-04-2.80916E-05-3.21345E-05-9.33556E-06 1.07490E-18 7.18586E-19
 -1      3486 1.01787E-04-2.57797E-05-3.25228E-05-8.62727E-06 6.33299E-19 8.07045E-19
 -1      3487 1.03221E-04-2.43829E-05-3.37446E-05-8.64620E-06 5.17514E-19-2.00859E-19
 -1      3488 1.04845E-04-3.22705E-05-3.11479E-05-8.87086E-06 8.97911E-19-3.27237E-19
 -1      3489 1.04035E-04-3.03554E-05-3.15527E-05-9.22869E-06 1.59057E-18 5.83305E-19
 -1      3490 1.05884E-04-2.98331E-05-3.25530E-05-9.79120E-06 1.16458E-18 4.69387E-19
 -1      3491 1.05405E-04-3.48096E-05-3.02649E-05-6.76927E-06-3.97510E-19 1.26719E-19
 -1      3492 1.05144E-04-3.37257E-05-3.06097E-05-7.75708E-06-4.08999E-19-8.71813E-19
 -1      3493 1.07298E-04-3.40953E-05-3.13292E-05-8.29951E-06 1.01714E-18 2.75507E-19
 -1      3494 1.04627E-04-3.55308E-05-2.96005E-05-4.16234E-06 8.83015E-19 4.63588E-19
 -1      3495 1.04886E-04-3.52813E-05-2.98510E-05-5.31072E-06 8.64160E-20 4.22205E-19
 -1      3496 1.07032E-04-3.63004E-05-3.02988E-05-5.50380E-06-1.77844E-19 4.74153E-19
 -1      3497 1.03055E-04-3.49599E-05-2.91594E-05-1.83758E-06 1.51717E-19 6.86440E-19
 -1      3498 1.03637E-04-3.52769E-05-2.93202E-05-2.85863E-06 1.19226E-18 9.11934E-19
 -1      3499 1.05452E-04-3.64855E-05-2.95600E-05-2.67668E-06 6.82334E-19 2.50929E-20
 -1      3500 1.01217E-04-3.37157E-05-2.89024E-05-1.10490E-07-7.99259E-19-1.60668E-19
 -1      3501 1.01918E-04-3.43115E-05-2.89925E-05-8.79509E-07-2.77480E-19 5.46501E-19
 -1      3502 1.03277E-04-3.54386E-05-2.90899E-05-4.49478E-07-2.58207E-19 6.24788E-19
 -1      3503 9.94881E-05-3.22969E-05-2.87732E-05 9.88385E-07-7.99503E-19-7.57231E-19
 -1      3504 1.00162E-04-3.29512E-05-2.88163E-05 4.83534E-07-7.29941E-19-2.17643E-19
 -1      3505 1.01061E-04-3.38461E-05-2.88283E-05 1.01640E-06-7.15879E-19 1.95415E-19
 -1      3506 9.80619E-05-3.10053E-05-2.87210E-05 1.57413E-06-2.06090E-18 3.34627E-19
 -1      3507 9.86297E-05-3.15903E-05-2.87372E-05 1.28987E-06-1.74123E-18-3.80226E-19
 -1      3508 9.91445E-05-3.22154E-05-2.87050E-05 1.81336E-06-1.40738E-18 7.12148E-19
 -1      3509 9.69868E-05-2.99719E-05-2.87084E-05 1.79539E-06-2.31016E-18 1.48455E-18
 -1      3510 9.74245E-05-3.04345E-05-2.87119E-05 1.67368E-06-2.05542E-18 9.23738E-19
 -1      3511 9.76572E-05-3.08191E-05-2.86624E-05 2.12818E-06-2.62133E-18 1.62022E-18
 -1      3512 9.62333E-05-2.92215E-05-2.87116E-05 1.78289E-06-1.81627E-18 2.25727E-18
 -1      3513 9.65483E-05-2.95543E-05-2.87112E-05 1.76989E-06-2.39551E-18 1.60512E-18
 -1      3514 9.65936E-05-2.97512E-05-2.86599E-05 2.13558E-06-2.32335E-18 2.11712E-18
 -1      3515 9.57397E-05-2.87229E-05-2.87171E-05 1.63643E-06-1.25371E-18 3.46697E-18
 -1      3516 9.59534E-05-2.89422E-05-2.87174E-05 1.68908E-06-1.22529E-18 2.71001E-18
 -1      3517 9.58873E-05-2.90063E-05-2.86724E-05 1.96881E-06-2.20321E-18 1.87087E-18
 -1      3518 9.54384E-05-2.84231E-05-2.87188E-05 1.42537E-06 3.01256E-19 3.54229E-18
 -1      3519 9.55757E-05-2.85539E-05-2.87215E-05 1.51242E-06-2.25704E-19 3.51472E-18
 -1      3520 9.54533E-05-2.85328E-05-2.86862E-05 1.71946E-06-9.08790E-19 2.10057E-18
 -1      3521 9.52698E-05-2.82668E-05-2.87150E-05 1.19444E-06 9.93420E-20 3.61734E-18
 -1      3522 9.53532E-05-2.83343E-05-2.87202E-05 1.29476E-06 8.48434E-19 3.53008E-18
 -1      3523 9.52115E-05-2.82648E-05-2.86951E-05 1.44505E-06 5.32875E-19 3.49959E-18
 -1      3524 9.51866E-05-2.82056E-05-2.87064E-05 9.70241E-07 7.13833E-19 2.94056E-18
 -1      3525 9.52345E-05-2.82317E-05-2.87135E-05 1.07064E-06 1.77539E-19 2.97453E-18
 -1      3526 9.50961E-05-2.81401E-05-2.86975E-05 1.17889E-06 1.78985E-19 3.33280E-18
 -1      3527 9.51544E-05-2.82017E-05-2.86946E-05 7.66921E-07 8.90508E-19 2.88610E-18
 -1      3528 9.51801E-05-2.82031E-05-2.87027E-05 8.59951E-07 3.66112E-19 3.17971E-18
 -1      3529 9.50577E-05-2.81069E-05-2.86943E-05 9.38176E-07 5.40245E-19 3.78074E-18
 -1      3530 9.51497E-05-2.82278E-05-2.86814E-05 5.90652E-07-1.12750E-19 2.37347E-18
 -1      3531 9.51625E-05-2.82171E-05-2.86895E-05 6.71876E-07 1.43930E-18 3.07103E-18
 -1      3532 9.50608E-05-2.81257E-05-2.86870E-05 7.30303E-07 1.22020E-18 4.81815E-18
 -1      3533 9.45826E-05-2.76515E-05-2.86863E-05-5.21244E-08-5.87124E-19 6.84935E-19
 -1      3534 9.45880E-05-2.76623E-05-2.86826E-05 5.30622E-08-5.69905E-19-8.29289E-19
 -1      3535 9.39014E-05-2.10881E-05-3.12123E-05-4.40766E-06-3.00800E-19-1.42133E-18
 -1      3536 6.85564E-05-1.87354E-05-2.13434E-05 2.24406E-05-2.05485E-18-2.20840E-18
 -1      3537 5.99812E-05-1.22703E-05-2.01446E-05 1.55479E-05-2.00813E-18-8.79061E-19
 -1      3538 6.65398E-05-1.27393E-05-2.30028E-05 9.26381E-06-2.72764E-18-6.16521E-19
 -1      3539 1.24911E-04-3.63551E-05-3.81846E-05-1.06770E-05 3.26319E-19-2.73708E-18
 -1      3540 1.29894E-04-4.40459E-05-3.68006E-05-6.06783E-06-1.14111E-19-2.89685E-18
 -1      3541 1.27061E-04-4.62730E-05-3.47168E-05-2.66550E-06-2.35945E-19-2.08894E-18
 -1      3542 9.54111E-05-2.72204E-05-2.92314E-05 1.35453E-07 6.38646E-19 3.29622E-20
 -1      3543 9.54244E-05-2.68071E-05-2.93902E-05 7.50486E-07 7.46874E-19 1.88850E-19
 -1      3544 9.22138E-05-1.80128E-05-3.18124E-05-9.83839E-07 6.75796E-19-1.30080E-18
 -1      3545 9.23290E-05-1.82071E-05-3.17814E-05-1.72786E-06 4.74628E-19-1.26028E-18
 -1      3546 9.32872E-05-1.98513E-05-3.14593E-05-1.70150E-06 4.21043E-19-1.10824E-18
 -1      3547 1.12919E-04-9.02285E-06-4.47895E-05 4.60970E-07 2.07597E-18-8.34270E-19
 -1      3548 1.13834E-04-1.08049E-05-4.44427E-05-5.72215E-06 2.46963E-18-8.73516E-19
 -1      3549 9.46289E-05-2.76701E-05-2.86975E-05-2.83902E-07-7.99267E-19-3.28394E-19
 -1      3550 9.45946E-05-2.76481E-05-2.86925E-05-1.80453E-07-6.90539E-19-5.73441E-19
 -1      3551 9.44907E-05-2.75418E-05-2.86899E-05-1.12976E-07-4.70457E-19-9.44592E-20
 -1      3552 7.44956E-05-2.57173E-05-2.07201E-05-2.97938E-05-1.61132E-18-9.76735E-19
 -1      3553 8.70922E-05-3.51084E-05-2.24108E-05-3.24596E-05-1.98754E-18-1.70704E-19
 -1      3554 9.56370E-05-2.86893E-05-2.86887E-05-2.03982E-06 3.05847E-19 1.45194E-19
 -1      3555 9.55989E-05-2.86443E-05-2.86940E-05-1.98949E-06 3.88849E-19 8.58010E-20
 -1      3556 9.56354E-05-2.86813E-05-2.86989E-05-2.09595E-06 5.00674E-19-4.76879E-20
 -1      3557 9.63604E-05-2.94930E-05-2.86552E-05-2.27081E-06 1.85169E-19-3.09094E-19
 -1      3558 9.61179E-05-2.92472E-05-2.86536E-05-2.29842E-06 1.52625E-19-1.07224E-19
 -1      3559 9.59376E-05-2.91275E-05-2.86411E-05-2.42419E-06 1.37409E-19-4.62395E-19
 -1      3560 9.64087E-05-2.96542E-05-2.86206E-05-2.54306E-06-2.70766E-20-5.39826E-19
 -1      3561 9.51508E-05-2.45114E-05-3.02772E-05 2.83143E-06 1.07812E-18 1.27387E-19
 -1      3562 9.56375E-05-2.86267E-05-2.87163E-05-1.91501E-06 2.57377E-19-5.18518E-20
 -1      3563 9.56316E-05-2.85921E-05-2.87302E-05-1.85122E-06 2.47487E-19-1.23467E-19
 -1      3564 9.56729E-05-2.86162E-05-2.87419E-05-1.93021E-06 1.83124E-19-6.71919E-20
 -1      3565 5.89695E-05-1.29991E-05-1.96328E-05-1.70249E-05 8.88723E-20-8.84885E-19
 -1      3566 6.64626E-05-1.94391E-05-2.00061E-05-2.61615E-05-8.85335E-19-8.12913E-19
 -1      3567 7.58478E-05-2.36550E-05-2.21183E-05-2.48494E-05-1.11483E-18-3.14818E-19
 -1      3568 6.46891E-05-1.38960E-05-2.16707E-05-1.43518E-05-3.33474E-20-7.83505E-19
 -1      3569 1.19083E-04-5.15469E-05-2.86656E-05-1.78127E-05-1.19731E-18 1.69559E-18
 -1      3570 1.24341E-04-5.26115E-05-3.10169E-05-1.05341E-05-1.20716E-18 1.63727E-18
 -1      3571 9.50927E-05-2.81996E-05-2.86695E-05 4.23111E-07 1.42499E-18 1.26276E-18
 -1      3572 9.51413E-05-2.82504E-05-2.86672E-05 4.24519E-07 1.02393E-18-9.40515E-19
 -1      3573 9.51482E-05-2.82487E-05-2.86711E-05 4.66727E-07-8.93975E-20 1.13026E-18
 -1      3574 9.50394E-05-2.81361E-05-2.86732E-05 4.70884E-07 2.66841E-18 1.52895E-18
 -1      3575 9.95706E-05-4.24274E-05-2.41637E-05-3.02195E-05-1.76520E-18 8.76772E-19
 -1      3576 1.10371E-04-4.90712E-05-2.65549E-05-2.55495E-05-1.29304E-18 1.24048E-18
 -1      3577 1.19660E-04-1.76989E-05-4.39355E-05 1.17095E-05 1.52604E-18-4.46704E-19
 -1      3578 1.14862E-04-1.12624E-05-4.47730E-05 6.70876E-06 1.97115E-18-4.30326E-19
 -1      3579 9.44462E-05-2.21226E-05-3.09658E-05-3.44137E-06-2.06728E-19-1.32066E-18
 -1      3580 9.48659E-05-2.33764E-05-3.06475E-05-2.55150E-06-2.02744E-19-1.22932E-18
 -1      3581 9.49454E-05-2.33995E-05-3.06610E-05-2.12083E-06-6.61060E-20-1.09027E-18
 -1      3582 1.24300E-04-5.16882E-05-3.11422E-05 9.26866E-06-7.25054E-19 1.93918E-19
 -1      3583 1.22820E-04-5.32646E-05-2.98171E-05 1.53676E-05-1.73253E-18-2.56132E-19
 -1      3584 1.15875E-04-5.03637E-05-2.80917E-05 1.96816E-05-1.28124E-18 1.22687E-19
 -1      3585 9.58919E-05-2.78627E-05-2.91590E-05-8.33348E-07 3.36500E-19-1.84148E-19
 -1      3586 9.59143E-05-2.75829E-05-2.92749E-05-5.07072E-07 5.25830E-19-1.47542E-19
 -1      3587 9.60644E-05-2.78655E-05-2.92307E-05-8.44805E-07 4.15248E-19-1.22429E-19
 -1      3588 9.57709E-05-2.85669E-05-2.88046E-05-1.75702E-06 2.66248E-19-2.08727E-19
 -1      3589 1.13110E-04-4.79328E-05-2.78610E-05-1.87802E-05-1.35634E-18 1.83377E-18
 -1      3590 7.05603E-05-1.22650E-05-2.47573E-05 6.55284E-07-1.87124E-18 8.28239E-20
 -1      3591 1.24048E-04-4.97795E-05-3.18326E-05-5.02254E-06-1.34185E-18 1.49246E-18
 -1      3592 1.27704E-04-4.11847E-05-3.72673E-05 8.40113E-06-7.88455E-19 1.16996E-18
 -1      3593 1.24498E-04-3.61046E-05-3.80836E-05 1.06983E-05-9.97646E-19 1.17367E-19
 -1      3594 1.26220E-04-4.41756E-05-3.50067E-05 5.11520E-06-1.03881E-18 1.20550E-18
 -1      3595 9.49084E-05-2.78349E-05-2.87442E-05-7.54509E-07-1.41141E-18-2.22455E-19
 -1      3596 9.49069E-05-2.78660E-05-2.87307E-05-6.67721E-07-1.10719E-18-5.64665E-19
 -1      3597 9.47275E-05-2.76651E-05-2.87415E-05-7.45126E-07-2.01617E-18-2.43590E-18
 -1      3598 9.47585E-05-2.77746E-05-2.87082E-05-4.60015E-07-4.85070E-19-1.98537E-18
 -1      3599 9.46888E-05-2.77173E-05-2.87042E-05-3.89462E-07-7.53579E-19 1.90929E-19
 -1      3600 9.45655E-05-2.75840E-05-2.87041E-05-3.59842E-07-4.13268E-19 1.90166E-19
 -1      3601 9.45124E-05-2.75887E-05-2.86796E-05 1.44094E-07-4.87174E-19-2.10335E-18
 -1      3602 9.46168E-05-2.77039E-05-2.86789E-05 1.70854E-07-1.05427E-18-2.48368E-18
 -1      3603 9.46557E-05-2.77418E-05-2.86767E-05 2.62884E-07-8.61601E-19-2.56122E-18
 -1      3604 9.44042E-05-3.72791E-05-2.42922E-05-2.75158E-05-1.91435E-18 2.64413E-19
 -1      3605 9.51607E-05-2.82488E-05-2.86758E-05 5.11494E-07 3.36129E-20 1.01822E-18
 -1      3606 1.19146E-04-2.28500E-05-4.14568E-05 1.18631E-05 6.88082E-19-7.61536E-20
 -1      3607 9.50836E-05-2.81688E-05-2.86774E-05 5.54435E-07 1.30957E-18 2.55937E-18
 -1      3608 1.04980E-04-4.43395E-05-2.59542E-05 2.51251E-05-2.32914E-18-7.50663E-19
 -1      3609 9.93020E-05-4.23064E-05-2.42203E-05 3.04105E-05-2.72256E-18 1.40290E-20
 -1      3610 9.19068E-05-3.62539E-05-2.38854E-05 2.87971E-05-3.19447E-18-4.20949E-19
 -1      3611 9.56639E-05-2.71709E-05-2.93604E-05 4.71944E-08 6.62970E-19-8.77388E-20
 -1      3612 7.40086E-05-2.21280E-05-2.19569E-05 2.42252E-05-1.89742E-18-3.10083E-18
 -1      3613 7.40056E-05-1.90521E-05-2.35650E-05 1.75463E-05-2.05057E-18-1.93423E-18
 -1      3614 8.10774E-05-2.68339E-05-2.32244E-05 2.48435E-05-2.44664E-18-2.22387E-18
 -1      3615 1.08849E-04-1.43325E-05-4.05478E-05-6.36291E-06 1.28468E-18-5.05467E-19
 -1      3616 1.13808E-04-1.53837E-05-4.24986E-05-8.86662E-06 1.78425E-18-1.33952E-18
 -1      3617 1.13506E-04-2.06363E-05-3.99084E-05-1.09160E-05 9.43065E-19-1.69638E-18
 -1      3618 1.22898E-04-3.29013E-05-3.87672E-05-1.20129E-05 1.79147E-19-2.18619E-18
 -1      3619 1.22610E-04-3.69797E-05-3.68048E-05-9.93336E-06-1.11716E-19-2.60013E-18
 -1      3620 1.19603E-04-2.84505E-05-3.91759E-05-1.24511E-05 3.57713E-19-1.85768E-18
 -1      3621 9.49116E-05-2.78978E-05-2.87200E-05-5.95229E-07-3.93717E-19-4.79187E-19
 -1      3622 9.47153E-05-2.78105E-05-2.86755E-05 3.56980E-07-4.14447E-19-9.15215E-19
 -1      3623 9.47781E-05-2.78684E-05-2.86746E-05 4.26474E-07 4.11374E-19 1.42991E-18
 -1      3624 9.46117E-05-2.77014E-05-2.86748E-05 3.63142E-07-7.25382E-19-1.99398E-18
 -1      3625 5.08675E-05-1.12985E-05-1.67568E-05-1.55860E-05-3.07150E-18 2.91517E-18
 -1      3626 9.30915E-05-1.94767E-05-3.15326E-05-5.64513E-07 7.07617E-19-1.28006E-18
 -1      3627 1.11146E-04-1.27539E-05-4.24086E-05 3.56002E-06 1.88528E-18-2.16787E-20
 -1      3628 9.37974E-05-2.08836E-05-3.12608E-05 7.80159E-07 7.73263E-19-1.25739E-18
 -1      3629 9.37464E-05-2.07795E-05-3.12808E-05 2.39371E-07 7.93317E-19-1.38782E-18
 -1      3630 9.48462E-05-2.79416E-05-2.86753E-05 4.77421E-07 2.08829E-18 1.79565E-18
 -1      3631 9.49122E-05-2.80007E-05-2.86752E-05 5.13077E-07 3.11148E-18 1.99089E-18
 -1      3632 9.47559E-05-2.78463E-05-2.86749E-05 5.10436E-07 9.44373E-19 4.24017E-19
 -1      3633 9.55024E-05-2.55142E-05-2.99672E-05 1.83489E-06 8.82732E-19 5.91751E-20
 -1      3634 9.50534E-05-2.39198E-05-3.05141E-05 2.79077E-06 1.18851E-18 9.78071E-20
 -1      3635 9.48178E-05-2.78170E-05-2.87167E-05-5.49523E-07-2.71778E-19-2.77318E-18
 -1      3636 9.48155E-05-2.32087E-05-3.06882E-05 2.58836E-06 1.07754E-18-1.38261E-19
 -1      3637 9.55259E-05-2.64400E-05-2.96258E-05 1.15864E-06 8.16857E-19 1.04697E-19
 -1      3638 9.40306E-05-2.13684E-05-3.11587E-05 1.68955E-06 9.23940E-19-8.07359E-19
 -1      3639 9.38825E-05-2.10572E-05-3.12189E-05 1.19760E-06 8.40246E-19-1.03414E-18
 -1      3640 9.45229E-05-2.21835E-05-3.09801E-05 7.94591E-07 6.93703E-19-1.06375E-18
 -1      3641 1.07780E-04-4.41181E-05-2.70758E-05-1.97413E-05-9.34777E-19 1.39159E-18
 -1      3642 1.14023E-04-4.71918E-05-2.88121E-05-1.34427E-05-8.03234E-19 1.16385E-18
 -1      3643 1.23477E-04-4.31811E-05-3.45221E-05-5.66684E-06 1.52572E-19-3.29361E-18
 -1      3644 1.25064E-04-4.79815E-05-3.30080E-05 4.35015E-07-4.20830E-19-1.97476E-18
 -1      3645 9.61698E-05-2.66999E-05-2.97691E-05-8.46969E-09-1.16094E-20-7.14871E-19
 -1      3646 9.62297E-05-2.71572E-05-2.96084E-05 3.41179E-07-8.10425E-20-5.59363E-19
 -1      3647 9.62714E-05-2.75215E-05-2.94608E-05 5.64251E-07-2.61755E-19-3.41910E-19
 -1      3648 9.62369E-05-2.77787E-05-2.93430E-05 8.04886E-07-2.54507E-19-5.90206E-19
 -1      3649 9.63052E-05-2.71797E-05-2.96234E-05 3.49703E-07-9.85000E-20-5.70826E-19
 -1      3650 9.61761E-05-2.79501E-05-2.92375E-05 9.47690E-07-9.55166E-20-4.30487E-19
 -1      3651 9.60817E-05-2.80532E-05-2.91572E-05 1.10741E-06 1.79646E-20-6.17523E-19
 -1      3652 9.62841E-05-2.77600E-05-2.93661E-05 7.22931E-07-1.07480E-19-3.30333E-19
 -1      3653 9.59366E-05-2.80934E-05-2.90750E-05 1.20713E-06 4.57047E-20-5.73297E-19
 -1      3654 9.57807E-05-2.80783E-05-2.90168E-05 1.32591E-06 9.60628E-20-6.51568E-19
 -1      3655 9.60830E-05-2.80092E-05-2.91731E-05 9.71695E-07 6.34702E-20-2.43539E-19
 -1      3656 9.55618E-05-2.79970E-05-2.89572E-05 1.38740E-06 3.09951E-20-6.99121E-19
 -1      3657 9.53468E-05-2.78742E-05-2.89185E-05 1.47635E-06 9.50566E-20-7.94994E-19
 -1      3658 9.57248E-05-2.79916E-05-2.90264E-05 1.13414E-06-2.56757E-20-2.06578E-19
 -1      3659 9.50540E-05-2.76869E-05-2.88739E-05 1.50922E-06 5.10177E-19-7.85598E-19
 -1      3660 9.47664E-05-2.74632E-05-2.88471E-05 1.57918E-06 2.83044E-19-4.20506E-19
 -1      3661 9.52221E-05-2.77404E-05-2.89171E-05 1.22350E-06 1.73839E-19-2.14542E-19
 -1      3662 9.43870E-05-2.71737E-05-2.88093E-05 1.58226E-06 1.74934E-19-2.86111E-19
 -1      3663 9.40005E-05-2.68461E-05-2.87859E-05 1.63373E-06 1.95233E-19 4.28754E-21
 -1      3664 9.45626E-05-2.72799E-05-2.88294E-05 1.24351E-06 5.45158E-19-2.99485E-19
 -1      3665 9.35106E-05-2.64496E-05-2.87451E-05 1.59376E-06-1.52315E-19 9.46089E-20
 -1      3666 9.29828E-05-2.60056E-05-2.87139E-05 1.61299E-06-9.01251E-20-2.00087E-19
 -1      3667 9.37114E-05-2.66172E-05-2.87451E-05 1.17482E-06 7.64289E-20-2.67966E-19
 -1      3668 9.23814E-05-2.55208E-05-2.86604E-05 1.50747E-06-1.49441E-19-3.05916E-19
 -1      3669 9.16968E-05-2.49766E-05-2.86103E-05 1.47073E-06-2.97707E-19-2.70555E-19
 -1      3670 9.26433E-05-2.57724E-05-2.86448E-05 9.75732E-07-1.82034E-19-3.99598E-19
 -1      3671 9.08811E-05-2.43436E-05-2.85221E-05 1.24249E-06-1.93951E-19-4.04964E-19
 -1      3672 8.98876E-05-2.36234E-05-2.84247E-05 1.09007E-06-9.68198E-20-3.35233E-19
 -1      3673 9.12632E-05-2.47203E-05-2.84978E-05 5.63337E-07-3.03028E-19-2.16248E-19
 -1      3674 8.88234E-05-2.28561E-05-2.82777E-05 6.62167E-07-5.00399E-20 9.15188E-20
 -1      3675 8.74442E-05-2.19701E-05-2.81003E-05 3.09843E-07-1.72888E-19 1.36684E-19
 -1      3676 8.94309E-05-2.34304E-05-2.82569E-05-2.20470E-07 7.48392E-21-5.20375E-20
 -1      3677 8.60703E-05-2.10833E-05-2.78564E-05-4.31654E-07-1.47028E-19 3.41483E-19
 -1      3678 8.41643E-05-2.00375E-05-2.75433E-05-1.10978E-06-3.64727E-19 3.37524E-19
 -1      3679 8.70631E-05-2.19553E-05-2.78635E-05-1.57818E-06-5.43098E-20 3.93263E-19
 -1      3680 8.24143E-05-1.90828E-05-2.71448E-05-2.32511E-06-6.98145E-19 8.84077E-19
 -1      3681 7.97942E-05-1.79202E-05-2.66057E-05-3.50114E-06-1.48616E-19 7.30315E-19
 -1      3682 8.40411E-05-2.03881E-05-2.72260E-05-3.81152E-06-2.62994E-19 9.13591E-19
 -1      3683 7.76059E-05-1.70140E-05-2.59629E-05-5.40558E-06-1.09666E-19 8.07072E-20
 -1      3684 7.40550E-05-1.58624E-05-2.50421E-05-7.30683E-06-4.24052E-19-9.75180E-20
 -1      3685 8.02620E-05-1.89424E-05-2.62070E-05-7.33821E-06-6.17112E-19 7.23035E-19
 -1      3686 7.16941E-05-1.52113E-05-2.41963E-05-9.49000E-06-3.15215E-19-2.41107E-19
 -1      3687 6.75609E-05-1.41958E-05-2.29470E-05-1.14098E-05-1.29053E-19-2.47625E-19
 -1      3688 7.10668E-05-1.76349E-05-2.27631E-05-1.78426E-05-3.87451E-19-2.06808E-19
 -1      3689 7.59707E-05-1.79712E-05-2.47651E-05-1.20283E-05-3.50612E-19-1.55438E-19
 -1      3690 1.19583E-04-4.78610E-05-3.07312E-05-5.66536E-06-1.19535E-18 1.11299E-18
 -1      3691 1.22952E-04-4.68692E-05-3.27477E-05 7.62133E-07-1.12529E-18 1.32699E-18
 -1      3692 8.29146E-05-1.88360E-05-2.75217E-05 1.98796E-07-5.69547E-19-9.49701E-19
 -1      3693 8.49864E-05-1.99944E-05-2.78661E-05-2.62386E-07-4.54026E-19-4.59388E-19
 -1      3694 8.65597E-05-2.10029E-05-2.81383E-05-8.80260E-07-4.55292E-19-5.67007E-19
 -1      3695 8.80281E-05-2.19625E-05-2.83254E-05-1.05986E-06-6.58415E-20-7.49289E-19
 -1      3696 8.58091E-05-2.07401E-05-2.78374E-05 1.11321E-06-4.10003E-19-6.00118E-19
 -1      3697 8.91911E-05-2.27995E-05-2.84809E-05-1.37403E-06-5.50761E-19-1.11009E-18
 -1      3698 9.02127E-05-2.35598E-05-2.85756E-05-1.38234E-06-1.03683E-18-1.70575E-18
 -1      3699 8.84575E-05-2.24122E-05-2.82697E-05-4.57610E-08-5.17958E-19-1.34743E-18
 -1      3700 9.10619E-05-2.42282E-05-2.86599E-05-1.50829E-06-1.70706E-18-1.65445E-18
 -1      3701 9.17638E-05-2.48141E-05-2.87014E-05-1.42482E-06-1.41659E-18-1.59768E-18
 -1      3702 9.04127E-05-2.38168E-05-2.85160E-05-6.38785E-07-1.42018E-18-6.28776E-19
 -1      3703 9.23502E-05-2.53109E-05-2.87413E-05-1.44178E-06 7.71187E-20-1.62173E-18
 -1      3704 9.28100E-05-2.57353E-05-2.87535E-05-1.32390E-06 1.03002E-18-2.70209E-19
 -1      3705 9.18060E-05-2.49221E-05-2.86461E-05-8.82071E-07-2.68004E-19 4.53532E-19
 -1      3706 9.32559E-05-2.61374E-05-2.87708E-05-1.28332E-06 3.10791E-19-1.25902E-18
 -1      3707 9.35855E-05-2.64730E-05-2.87682E-05-1.15002E-06-2.60628E-19-1.79109E-18
 -1      3708 9.28166E-05-2.57994E-05-2.87093E-05-9.24773E-07 8.49250E-20-8.54347E-19
 -1      3709 9.39016E-05-2.67760E-05-2.87713E-05-1.08223E-06-8.20773E-19-2.15396E-18
 -1      3710 9.41219E-05-2.70236E-05-2.87612E-05-9.55464E-07-4.42471E-19-3.20089E-18
 -1      3711 9.35608E-05-2.64941E-05-2.87341E-05-8.61258E-07-9.07074E-19-2.73889E-18
 -1      3712 9.43451E-05-2.72488E-05-2.87568E-05-8.77571E-07-5.57351E-20-3.27535E-18
 -1      3713 9.44920E-05-2.74295E-05-2.87439E-05-7.67497E-07-1.93784E-18-3.68748E-18
 -1      3714 9.40833E-05-2.70183E-05-2.87361E-05-7.47829E-07-3.40830E-19-4.44084E-18
 -1      3715 9.56407E-05-2.87619E-05-2.86569E-05-2.32764E-06 4.11973E-19 1.77223E-19
 -1      3716 9.55694E-05-2.86622E-05-2.86736E-05-2.23046E-06 5.82693E-19 2.13802E-19
 -1      3717 9.86273E-05-3.19536E-05-2.85723E-05-2.96890E-06-1.48931E-19-2.69305E-19
 -1      3718 9.79072E-05-3.12369E-05-2.85551E-05-3.08981E-06 1.06668E-19-6.97890E-20
 -1      3719 9.72577E-05-3.06062E-05-2.85595E-05-2.99035E-06 1.02408E-19-2.03478E-19
 -1      3720 9.67583E-05-3.00878E-05-2.85622E-05-2.98560E-06-1.09363E-19-2.97899E-19
 -1      3721 9.73109E-05-3.08721E-05-2.84969E-05-3.58793E-06 1.72072E-19-2.93652E-19
 -1      3722 1.03002E-04-3.56623E-05-2.88754E-05-1.58900E-06-4.99269E-19-3.60458E-19
 -1      3723 1.01889E-04-3.47224E-05-2.87493E-05-2.23691E-06-2.91960E-19-3.16787E-19
 -1      3724 1.05754E-04-3.74237E-05-2.93091E-05 2.72446E-07 1.26202E-19-5.63323E-19
 -1      3725 1.04643E-04-3.67031E-05-2.90748E-05-7.71939E-07 4.94364E-21-4.42415E-19
 -1      3726 1.04215E-04-3.68463E-05-2.89090E-05-2.55718E-06 7.64997E-20-4.64492E-19
 -1      3727 1.08259E-04-3.82389E-05-3.00498E-05 3.02564E-06-3.91601E-19-7.57615E-19
 -1      3728 1.07428E-04-3.81083E-05-2.96725E-05 1.64780E-06-1.25314E-19-8.27448E-19
 -1      3729 1.07561E-04-3.88450E-05-2.94818E-05-4.64193E-07-6.67692E-20-5.19815E-19
 -1      3730 1.09706E-04-3.70292E-05-3.11804E-05 6.50216E-06-1.49848E-18-8.88011E-20
 -1      3731 1.09622E-04-3.80756E-05-3.06325E-05 5.05703E-06-9.16304E-19-4.47842E-19
 -1      3732 1.10784E-04-3.97552E-05-3.04728E-05 2.81498E-06-7.94402E-19-7.66591E-19
 -1      3733 1.09258E-04-3.29849E-05-3.26791E-05 9.49936E-06-1.29262E-18 1.54738E-19
 -1      3734 1.10050E-04-3.54662E-05-3.19991E-05 8.54220E-06-1.50897E-18-1.96996E-19
 -1      3735 1.12443E-04-3.79578E-05-3.19360E-05 6.84893E-06-1.44740E-18 4.91709E-20
 -1      3736 1.06825E-04-2.66125E-05-3.43241E-05 1.01087E-05-1.97855E-19 3.58122E-19
 -1      3737 1.08201E-04-2.99955E-05-3.36340E-05 1.03779E-05-8.38116E-19 2.53510E-19
 -1      3738 1.11574E-04-3.25427E-05-3.38847E-05 1.03469E-05-1.18839E-18 2.08277E-19
 -1      3739 1.03521E-04-2.00928E-05-3.57050E-05 6.99225E-06 9.29136E-19 4.51490E-19
 -1      3740 1.04882E-04-2.30251E-05-3.51949E-05 8.99549E-06 4.47592E-19 3.75396E-19
 -1      3741 1.08754E-04-2.50432E-05-3.58681E-05 1.04552E-05-1.08304E-19 4.13663E-19
 -1      3742 1.01623E-04-1.69267E-05-3.63353E-05 4.85399E-07 8.99880E-19-2.45004E-19
 -1      3743 1.02089E-04-1.78480E-05-3.61805E-05 3.52895E-06 1.47834E-18 1.49038E-19
 -1      3744 1.05069E-04-1.79641E-05-3.73656E-05 6.01622E-06 1.10820E-18-1.50600E-19
 -1      3745 1.05058E-04-2.02181E-05-3.64722E-05-7.87680E-06 3.85843E-19-6.77964E-19
 -1      3746 1.03854E-04-1.78620E-05-3.68986E-05-5.08942E-06 4.49086E-19-9.82072E-19
 -1      3747 1.09221E-04-3.25951E-05-3.29164E-05-9.98533E-06 1.29438E-18-8.46414E-19
 -1      3748 1.08000E-04-2.95766E-05-3.36053E-05-1.02068E-05 1.30160E-18-5.57027E-19
 -1      3749 1.10135E-04-3.69345E-05-3.13689E-05-7.12536E-06 4.37909E-20 1.56647E-19
 -1      3750 1.09755E-04-3.50845E-05-3.20017E-05-8.39513E-06 8.97635E-19-1.13092E-19
 -1      3751 1.12362E-04-3.53789E-05-3.29726E-05-9.06182E-06 4.79749E-19-1.62085E-18
 -1      3752 1.08693E-04-3.81951E-05-3.01923E-05-3.54277E-06 2.68279E-19 2.75044E-19
 -1      3753 1.09208E-04-3.77599E-05-3.06592E-05-4.97863E-06-9.22075E-20 9.24539E-19
 -1      3754 1.11940E-04-3.89426E-05-3.13111E-05-5.33384E-06 7.77020E-20 5.26070E-20
 -1      3755 1.06181E-04-3.74872E-05-2.94003E-05-6.05971E-07 3.32115E-19 7.33900E-19
 -1      3756 1.07181E-04-3.79332E-05-2.97105E-05-1.84330E-06 3.32047E-19 3.82845E-19
 -1      3757 1.09312E-04-3.93852E-05-3.00087E-05-1.39959E-06 2.70490E-19 1.23122E-18
 -1      3758 1.03310E-04-3.56969E-05-2.89366E-05 1.36451E-06-1.22325E-18 1.90720E-18
 -1      3759 1.04458E-04-3.65744E-05-2.91158E-05 5.18575E-07-1.36055E-19 1.55410E-18
 -1      3760 1.06012E-04-3.79111E-05-2.92160E-05 1.41513E-06-4.09301E-19 2.09401E-18
 -1      3761 1.00695E-04-3.36450E-05-2.87036E-05 2.40110E-06-3.88548E-19 1.06541E-18
 -1      3762 1.01762E-04-3.46043E-05-2.87929E-05 1.92976E-06-9.53649E-19 1.29343E-18
 -1      3763 1.02701E-04-3.56205E-05-2.87870E-05 2.93423E-06-6.24712E-19 2.78242E-18
 -1      3764 9.86183E-05-3.18071E-05-2.86105E-05 2.76883E-06-2.17669E-18 1.64859E-18
 -1      3765 9.94865E-05-3.26516E-05-2.86454E-05 2.57302E-06-9.65828E-19 1.57436E-18
 -1      3766 9.99487E-05-3.33135E-05-2.85920E-05 3.48995E-06-1.08021E-18 2.24510E-18
 -1      3767 9.71112E-05-3.03598E-05-2.85929E-05 2.72935E-06-3.14528E-18 2.87529E-18
 -1      3768 9.77555E-05-3.10177E-05-2.85989E-05 2.71088E-06-2.98621E-18 2.10007E-18
 -1      3769 9.78979E-05-3.13895E-05-2.85303E-05 3.45808E-06-2.69657E-18 2.40033E-18
 -1      3770 9.60997E-05-2.93240E-05-2.86095E-05 2.47341E-06-2.09099E-18 2.42667E-18
 -1      3771 9.65427E-05-2.97905E-05-2.86030E-05 2.55638E-06-1.98262E-18 3.15696E-18
 -1      3772 9.64912E-05-2.99510E-05-2.85363E-05 3.12062E-06-2.79773E-18 2.29635E-18
 -1      3773 9.54744E-05-2.86472E-05-2.86359E-05 2.12652E-06-1.96028E-18 1.76349E-18
 -1      3774 9.57570E-05-2.89493E-05-2.86265E-05 2.25817E-06-2.30607E-18 1.82759E-18
 -1      3775 9.56021E-05-2.89692E-05-2.85697E-05 2.65988E-06-1.41048E-18 2.26596E-18
 -1      3776 9.51253E-05-2.82493E-05-2.86596E-05 1.76343E-06-7.46212E-19 1.61729E-18
 -1      3777 9.52909E-05-2.84250E-05-2.86520E-05 1.91077E-06-1.58037E-18 1.34091E-18
 -1      3778 9.50934E-05-2.83607E-05-2.86077E-05 2.18339E-06-1.54202E-18 1.35701E-18
 -1      3779 9.49603E-05-2.80506E-05-2.86756E-05 1.42339E-06 2.11913E-19 1.78409E-18
 -1      3780 9.50463E-05-2.81367E-05-2.86716E-05 1.56749E-06 3.57078E-19 1.73678E-18
 -1      3781 9.48433E-05-2.80287E-05-2.86394E-05 1.74527E-06-5.73185E-19 7.18411E-19
 -1      3782 9.49093E-05-2.79834E-05-2.86835E-05 1.12442E-06-2.65157E-19 3.12192E-18
 -1      3783 9.49451E-05-2.80111E-05-2.86829E-05 1.25533E-06-3.28622E-20 2.50741E-18
 -1      3784 9.47574E-05-2.78867E-05-2.86613E-05 1.36710E-06-8.21507E-19 1.62507E-18
 -1      3785 9.49225E-05-2.79948E-05-2.86845E-05 8.72029E-07 4.69838E-19 4.43837E-18
 -1      3786 9.49290E-05-2.79882E-05-2.86866E-05 9.85361E-07 4.69281E-19 3.88836E-18
 -1      3787 9.47670E-05-2.78641E-05-2.86736E-05 1.05367E-06-2.94303E-19 2.98407E-18
 -1      3788 9.44465E-05-2.21694E-05-3.09818E-05-2.31695E-06 6.49891E-20-1.10609E-18
 -1      3789 9.53137E-05-2.42119E-05-3.04781E-05-1.32596E-06 9.59787E-20-9.08678E-19
 -1      3790 9.01195E-05-3.30019E-05-2.43825E-05-2.50643E-05-1.40768E-18 1.95598E-19
 -1      3791 1.00020E-04-4.02397E-05-2.58203E-05-2.37185E-05-1.39587E-18 1.22768E-18
 -1      3792 1.03377E-04-4.03458E-05-2.69141E-05-1.85846E-05-8.69585E-19 9.99297E-19
 -1      3793 9.58504E-05-2.71653E-05-2.94426E-05-1.05458E-07 5.90264E-19-6.16429E-20
 -1      3794 9.58408E-05-2.66658E-05-2.96207E-05 4.67225E-07 6.43581E-19-7.51957E-20
 -1      3795 9.44489E-05-2.22676E-05-3.09650E-05 2.47199E-06 1.11442E-18-4.32105E-19
 -1      3796 9.42069E-05-2.17206E-05-3.10717E-05 2.05965E-06 9.58637E-19-5.74748E-19
 -1      3797 9.47851E-05-2.27300E-05-3.08484E-05 1.49583E-06 8.16249E-19-6.02254E-19
 -1      3798 9.56009E-05-2.86177E-05-2.87026E-05-2.09494E-06 5.42598E-19-1.27199E-19
 -1      3799 9.55975E-05-2.85763E-05-2.87232E-05-2.00187E-06 3.34555E-19-1.00868E-19
 -1      3800 9.54927E-05-2.85519E-05-2.86938E-05-2.14310E-06 2.21922E-19 2.53011E-19
 -1      3801 9.41828E-05-2.16260E-05-3.10899E-05-1.91550E-06 2.79616E-19-1.09486E-18
 -1      3802 9.37425E-05-2.07735E-05-3.12817E-05-2.05445E-07 7.96255E-19-1.30874E-18
 -1      3803 9.37857E-05-2.08582E-05-3.12633E-05-7.36299E-07 5.74551E-19-1.06256E-18
 -1      3804 9.44480E-05-2.20155E-05-3.10233E-05 1.15419E-08 7.48076E-19-1.28467E-18
 -1      3805 9.56052E-05-2.59304E-05-2.98679E-05 1.21772E-06 8.69911E-19-2.47381E-20
 -1      3806 1.07980E-04-1.48244E-05-4.00031E-05 6.00783E-06 1.71929E-18-6.58634E-20
 -1      3807 1.06223E-04-1.32092E-05-4.00617E-05-2.14134E-07 2.11843E-18-3.33056E-19
 -1      3808 9.43573E-05-2.74126E-05-2.86919E-05-1.66940E-07-3.38415E-19 1.02965E-18
 -1      3809 9.43472E-05-2.74170E-05-2.86847E-05-2.64623E-08-6.53772E-19 8.16627E-19
 -1      3810 9.58213E-05-2.85447E-05-2.88305E-05-1.69459E-06 1.67290E-19-2.59395E-19
 -1      3811 9.58804E-05-2.85123E-05-2.88711E-05-1.59475E-06 2.85696E-19-2.98212E-19
 -1      3812 7.76978E-05-1.61478E-05-2.64216E-05 2.18529E-06-1.60949E-18-3.39554E-19
 -1      3813 8.07851E-05-1.76778E-05-2.70574E-05 1.25503E-06-1.00149E-18-8.02949E-19
 -1      3814 8.22120E-05-1.88407E-05-2.71041E-05 3.17854E-06-1.08180E-18-1.40829E-18
 -1      3815 9.46951E-05-2.76759E-05-2.87204E-05-5.61740E-07-7.75138E-20-2.12247E-18
 -1      3816 9.56793E-05-2.85698E-05-2.87578E-05-1.88803E-06 1.66400E-19-2.02207E-19
 -1      3817 9.57174E-05-2.85497E-05-2.87859E-05-1.79681E-06 9.04298E-20-2.01776E-19
 -1      3818 9.57984E-05-2.84968E-05-2.88460E-05-1.64410E-06 1.80084E-19-3.07844E-19
 -1      3819 9.56108E-05-2.85069E-05-2.87621E-05-1.87508E-06 1.66116E-19-2.19497E-19
 -1      3820 7.20321E-05-1.45099E-05-2.47065E-05 6.52738E-06-2.07242E-18-4.93410E-19
 -1      3821 7.37926E-05-1.68303E-05-2.42800E-05 1.25605E-05-2.28332E-18-1.77305E-18
 -1      3822 7.62206E-05-1.61279E-05-2.57572E-05 5.23897E-06-1.73540E-18-1.61451E-18
 -1      3823 7.86917E-05-1.80567E-05-2.59761E-05 7.66863E-06-1.82251E-18-3.50222E-18
 -1      3824 7.75351E-05-2.00794E-05-2.47108E-05 1.49570E-05-2.64449E-18-2.80973E-18
 -1      3825 9.50232E-05-2.81101E-05-2.86776E-05 5.50126E-07 2.07527E-18 3.35682E-18
 -1      3826 9.52364E-05-2.40223E-05-3.04898E-05 1.85831E-06 9.83253E-19-1.46474E-19
 -1      3827 1.00551E-04-3.36920E-05-2.86580E-05-2.57832E-06 1.27739E-19-2.95792E-19
 -1      3828 9.96066E-05-3.28092E-05-2.86008E-05-2.91260E-06 1.17554E-19-3.47898E-19
 -1      3829 1.01218E-04-3.45193E-05-2.86234E-05-3.52092E-06-1.27120E-19-1.33248E-19
 -1      3830 1.19007E-04-2.76306E-05-3.92266E-05 1.28010E-05-5.47077E-19 2.88547E-19
 -1      3831 1.13286E-04-2.04348E-05-3.99928E-05 1.10828E-05 7.12937E-19 1.01236E-18
 -1      3832 9.57939E-05-2.53837E-05-3.01729E-05-8.26110E-07 1.24120E-19-8.20748E-19
 -1      3833 9.59855E-05-2.60973E-05-2.99612E-05-3.23982E-07 1.02711E-19-7.55429E-19
 -1      3834 9.60829E-05-2.61502E-05-2.99674E-05-1.99074E-07 1.55206E-19-7.50329E-19
 -1      3835 9.57324E-05-2.59397E-05-2.99350E-05 9.96074E-07 8.30327E-19-3.29880E-21
 -1      3836 9.54096E-05-2.42986E-05-3.04688E-05-1.01761E-06 2.12150E-19-7.68623E-19
 -1      3837 9.49503E-05-2.80326E-05-2.86789E-05 6.04316E-07 2.74908E-18 3.62776E-18
 -1      3838 9.62005E-05-2.79105E-05-2.92700E-05-8.66340E-07 4.01402E-19-1.00525E-19
 -1      3839 9.62141E-05-2.76300E-05-2.93893E-05-6.01206E-07 4.16339E-19-8.58358E-20
 -1      3840 1.20709E-04-4.66685E-05-3.17361E-05 1.33184E-06-1.11766E-18-2.68815E-18
 -1      3841 1.23042E-04-4.95251E-05-3.16227E-05 5.25491E-06-7.91182E-19-1.41384E-18
 -1      3842 1.19165E-04-4.91486E-05-2.99874E-05 9.91071E-06-1.26941E-18-7.08551E-19
 -1      3843 9.89162E-05-3.24615E-05-2.85119E-05-3.75932E-06 3.82193E-20-3.10333E-19
 -1      3844 9.59827E-05-2.84739E-05-2.89315E-05-1.48808E-06 2.11097E-19-2.51651E-19
 -1      3845 9.60453E-05-2.83960E-05-2.89905E-05-1.36143E-06 3.22737E-19-1.05521E-19
 -1      3846 9.60049E-05-2.84456E-05-2.89558E-05-1.42161E-06 3.39052E-19-3.08601E-19
 -1      3847 9.45845E-05-2.75282E-05-2.87375E-05-7.06188E-07-2.18221E-18-3.01503E-18
 -1      3848 9.46165E-05-2.75924E-05-2.87262E-05-6.12468E-07-1.23722E-18-3.01427E-18
 -1      3849 9.45553E-05-2.75517E-05-2.87167E-05-5.17739E-07-4.86849E-19-1.82786E-18
 -1      3850 9.43889E-05-2.73524E-05-2.87272E-05-6.24702E-07-8.82427E-19-4.45161E-18
 -1      3851 9.38542E-05-2.09882E-05-3.12406E-05-1.64455E-06 4.30893E-19-1.00355E-18
 -1      3852 9.45702E-05-2.23742E-05-3.09381E-05-1.30178E-06 3.53634E-19-9.39688E-19
 -1      3853 9.44697E-05-2.74861E-05-2.87080E-05-4.07628E-07 4.70278E-19-2.05000E-19
 -1      3854 9.44081E-05-2.74449E-05-2.87001E-05-2.93114E-07 1.05426E-18 7.79621E-19
 -1      3855 9.42647E-05-2.73033E-05-2.86947E-05-2.13696E-07-3.55658E-20 2.25402E-18
 -1      3856 9.43867E-05-2.73919E-05-2.87123E-05-4.53963E-07 7.61733E-20-8.59046E-19
 -1      3857 9.49872E-05-2.32292E-05-3.07496E-05-7.74771E-07 3.31463E-19-7.88321E-19
 -1      3858 9.52600E-05-2.38600E-05-3.06077E-05-9.59819E-07 2.06709E-19-7.91525E-19
 -1      3859 9.57458E-05-2.50411E-05-3.03020E-05-5.01215E-07 2.37984E-19-7.30760E-19
 -1      3860 9.56966E-05-2.88855E-05-2.86306E-05-2.48646E-06 3.02683E-19 1.38906E-19
 -1      3861 9.55088E-05-2.87149E-05-2.86334E-05-2.46444E-06 4.46182E-19 4.16164E-19
 -1      3862 9.58689E-05-2.90832E-05-2.86162E-05-2.57947E-06 1.43606E-19-3.00704E-20
 -1      3863 9.43705E-05-2.74609E-05-2.86780E-05 1.31848E-07 2.33114E-19-4.08437E-19
 -1      3864 9.44107E-05-2.75025E-05-2.86742E-05 2.57395E-07 3.85829E-19-2.90655E-18
 -1      3865 9.42389E-05-2.73167E-05-2.86786E-05 8.81354E-08-5.35802E-20-6.10625E-20
 -1      3866 9.60064E-05-2.71470E-05-2.95174E-05-1.85622E-07 6.57683E-19 1.18914E-19
 -1      3867 9.61237E-05-2.82885E-05-2.90731E-05-1.22909E-06 3.56302E-19 3.30976E-21
 -1      3868 9.61720E-05-2.81292E-05-2.91578E-05-1.05023E-06 4.12779E-19-5.51880E-20
 -1      3869 9.61852E-05-2.82794E-05-2.91037E-05-1.16881E-06 4.16144E-19-5.19439E-20
 -1      3870 1.05674E-04-2.33853E-05-3.52703E-05-9.06934E-06-1.53161E-19-9.34436E-19
 -1      3871 1.09602E-04-2.18921E-05-3.75526E-05-1.05859E-05 6.11234E-19-1.85867E-18
 -1      3872 1.14312E-04-2.49630E-05-3.84825E-05-1.18876E-05 6.67965E-19-1.95219E-18
 -1      3873 1.07284E-04-2.66359E-05-3.46599E-05-1.04884E-05 3.74841E-19-7.86976E-19
 -1      3874 1.11037E-04-2.90686E-05-3.50893E-05-1.11744E-05 6.38147E-19-1.93464E-18
 -1      3875 9.43701E-05-2.18860E-05-3.10515E-05-7.18578E-07 5.65375E-19-1.00614E-18
 -1      3876 9.37180E-05-2.07091E-05-3.12960E-05-1.11452E-06 5.54991E-19-9.33877E-19
 -1      3877 9.49691E-05-2.80469E-05-2.86807E-05 6.65154E-07 1.77064E-18 4.52970E-18
 -1      3878 9.49587E-05-2.80241E-05-2.86845E-05 7.58236E-07 7.24348E-19 4.67385E-18
 -1      3879 8.35377E-05-2.80643E-05-2.38085E-05-2.42973E-05-1.07793E-18-3.85420E-19
 -1      3880 9.03190E-05-3.10931E-05-2.52313E-05-2.10600E-05-8.15460E-19 5.78950E-19
 -1      3881 9.23869E-05-3.34917E-05-2.52716E-05 2.25638E-05-3.02377E-18 6.38325E-19
 -1      3882 8.66240E-05-3.01645E-05-2.40270E-05 2.48507E-05-3.02617E-18-9.03850E-19
 -1      3883 8.29686E-05-2.53046E-05-2.47327E-05 1.95843E-05-2.45166E-18-2.50738E-18
 -1      3884 1.10179E-04-4.69330E-05-2.69696E-05 2.22937E-05-1.46980E-18-3.03440E-19
 -1      3885 1.03700E-04-4.26522E-05-2.62092E-05 2.32288E-05-2.02588E-18 5.35953E-19
 -1      3886 1.14165E-04-4.81283E-05-2.82296E-05 1.74062E-05-1.44954E-18 4.94216E-19
 -1      3887 9.62924E-05-2.79182E-05-2.93037E-05-8.38271E-07 4.07744E-19-1.75751E-19
 -1      3888 1.05922E-04-1.60521E-05-3.86009E-05-3.40009E-06 1.17069E-18-8.76825E-19
 -1      3889 1.15083E-04-2.91966E-05-3.68632E-05-1.15851E-05 2.78131E-19-2.64800E-18
 -1      3890 9.44819E-05-2.75865E-05-2.86718E-05 3.86445E-07-5.97286E-19-3.24397E-18
 -1      3891 9.45572E-05-2.76545E-05-2.86710E-05 4.83021E-07-2.93723E-19-1.62342E-18
 -1      3892 9.43486E-05-2.74494E-05-2.86694E-05 3.86076E-07 2.42020E-19-1.82265E-18
 -1      3893 9.49345E-05-2.30990E-05-3.07955E-05 1.91473E-07 6.49596E-19-1.37553E-18
 -1      3894 9.49400E-05-2.30994E-05-3.07976E-05-1.72064E-07 5.96043E-19-1.24790E-18
 -1      3895 9.46453E-05-2.77478E-05-2.86723E-05 5.60348E-07-4.59893E-20-1.28702E-18
 -1      3896 9.47319E-05-2.78239E-05-2.86737E-05 6.11812E-07 1.73512E-18-7.56749E-19
 -1      3897 9.45162E-05-2.76251E-05-2.86688E-05 5.92820E-07 2.93115E-19-2.11466E-18
 -1      3898 1.11660E-04-4.41353E-05-2.88936E-05-1.00206E-05-7.07071E-19 1.49119E-18
 -1      3899 1.16590E-04-4.70805E-05-2.97207E-05-8.23571E-06-1.00562E-18 1.27970E-18
 -1      3900 1.15918E-04-4.47373E-05-3.05578E-05-2.88417E-06-1.14837E-18 9.66233E-19
 -1      3901 1.18769E-04-3.52680E-05-3.58503E-05-1.03796E-05 8.12291E-20-1.90250E-18
 -1      3902 1.21201E-04-3.88185E-05-3.52859E-05-8.99322E-06 1.02676E-19-2.11130E-18
 -1      3903 7.63022E-05-2.21892E-05-2.31894E-05-2.10071E-05-6.03938E-19-2.75173E-19
 -1      3904 9.63725E-05-2.96685E-05-2.85810E-05-2.82222E-06-1.18592E-19-3.61699E-20
 -1      3905 9.60587E-05-2.93299E-05-2.85921E-05-2.75338E-06-4.20487E-20-1.27826E-19
 -1      3906 9.57414E-05-2.90864E-05-2.85774E-05-2.83674E-06 6.10842E-20 2.75478E-19
 -1      3907 9.55490E-05-2.50597E-05-3.02137E-05 1.05847E-06 8.34151E-19-1.68942E-19
 -1      3908 1.19517E-04-3.28892E-05-3.71481E-05 1.09968E-05-1.05256E-18 8.13377E-19
 -1      3909 1.20108E-04-4.14878E-05-3.37382E-05-6.05424E-06-2.25205E-19-2.41925E-18
 -1      3910 9.50470E-05-2.33815E-05-3.07293E-05 7.89256E-07 7.83863E-19-9.87104E-19
 -1      3911 9.49666E-05-2.31842E-05-3.07727E-05 4.37265E-07 6.38455E-19-1.12635E-18
 -1      3912 9.54361E-05-2.41076E-05-3.05586E-05 2.02107E-07 5.92423E-19-1.19386E-18
 -1      3913 9.48239E-05-2.79079E-05-2.86780E-05 7.99997E-07 5.16207E-19 3.26760E-18
 -1      3914 9.62984E-05-2.97714E-05-2.85279E-05-3.23547E-06-6.75294E-20-1.93279E-19
 -1      3915 9.89648E-05-3.26363E-05-2.84166E-05-4.68632E-06-5.83162E-20 6.95516E-20
 -1      3916 9.79675E-05-3.16607E-05-2.83971E-05-4.59016E-06 2.51454E-19 1.36029E-19
 -1      3917 1.19185E-04-4.27531E-05-3.27862E-05 4.18646E-06-1.68018E-18 3.59757E-19
 -1      3918 1.22448E-04-4.28922E-05-3.41506E-05 5.35891E-06-1.41791E-18 6.42263E-19
 -1      3919 9.63804E-05-2.76149E-05-2.94696E-05 4.93455E-07-1.19706E-19-4.89877E-19
 -1      3920 9.63207E-05-2.78231E-05-2.93595E-05 6.43725E-07 1.69200E-21-4.42911E-19
 -1      3921 9.62192E-05-2.79642E-05-2.92515E-05 7.16899E-07 1.14724E-19-6.83188E-19
 -1      3922 9.60746E-05-2.80303E-05-2.91645E-05 8.19616E-07 7.03643E-20-6.27904E-19
 -1      3923 9.63121E-05-2.78339E-05-2.93458E-05 5.01480E-07 2.24888E-20-7.73441E-19
 -1      3924 9.58850E-05-2.80274E-05-2.90819E-05 8.51350E-07 3.58584E-20-4.20848E-19
 -1      3925 9.56667E-05-2.79658E-05-2.90173E-05 9.11443E-07 2.02988E-20-3.51294E-19
 -1      3926 9.60227E-05-2.79963E-05-2.91523E-05 6.05753E-07 1.31399E-19-5.61972E-19
 -1      3927 9.54011E-05-2.78457E-05-2.89529E-05 9.06806E-07 7.53355E-22-2.10577E-19
 -1      3928 9.51089E-05-2.76772E-05-2.89030E-05 9.29493E-07 2.07774E-19-3.13108E-19
 -1      3929 9.55719E-05-2.78935E-05-2.90024E-05 6.29903E-07 1.19693E-19-4.24178E-19
 -1      3930 9.47698E-05-2.74580E-05-2.88489E-05 8.81700E-07 5.09868E-19-5.86918E-19
 -1      3931 9.43912E-05-2.71926E-05-2.88054E-05 8.61471E-07 5.09933E-19-4.34828E-19
 -1      3932 9.49752E-05-2.75774E-05-2.88806E-05 5.68629E-07 1.94861E-19-3.62936E-19
 -1      3933 9.39721E-05-2.68844E-05-2.87528E-05 7.54509E-07 2.42887E-19-5.44483E-19
 -1      3934 9.34839E-05-2.65261E-05-2.87056E-05 6.72325E-07-1.66858E-19-4.42043E-19
 -1      3935 9.42277E-05-2.70821E-05-2.87706E-05 3.93811E-07 2.96875E-19-5.92055E-19
 -1      3936 9.30009E-05-2.61581E-05-2.86474E-05 4.84487E-07-2.51177E-19-5.98254E-19
 -1      3937 9.24036E-05-2.57324E-05-2.85881E-05 3.19177E-07-7.14837E-20-3.61653E-19
 -1      3938 9.33402E-05-2.64557E-05-2.86563E-05 6.65890E-08-1.68579E-19-7.76329E-19
 -1      3939 9.17944E-05-2.52781E-05-2.85055E-05-1.07045E-08-2.98946E-19-4.55363E-19
 -1      3940 9.09843E-05-2.47471E-05-2.84101E-05-3.38956E-07-2.01534E-19-1.99485E-19
 -1      3941 9.22681E-05-2.57086E-05-2.85135E-05-4.98816E-07-2.06049E-19-5.52120E-19
 -1      3942 9.02549E-05-2.42381E-05-2.82881E-05-8.84353E-07-1.95711E-19-1.75969E-19
 -1      3943 8.92031E-05-2.36319E-05-2.81353E-05-1.45439E-06-3.28212E-19-1.70495E-19
 -1      3944 9.09565E-05-2.48716E-05-2.83070E-05-1.44925E-06-1.51415E-19-2.03358E-19
 -1      3945 8.83624E-05-2.31169E-05-2.79509E-05-2.31393E-06 1.13857E-19-2.64197E-19
 -1      3946 8.70110E-05-2.24767E-05-2.77050E-05-3.25680E-06 2.16900E-19 7.96422E-20
 -1      3947 8.94182E-05-2.40314E-05-2.80027E-05-2.95434E-06-2.39965E-21 1.73101E-19
 -1      3948 8.60922E-05-2.20433E-05-2.74273E-05-4.57201E-06 4.53907E-20-3.38792E-20
 -1      3949 8.43887E-05-2.14506E-05-2.70366E-05-6.06930E-06-3.20967E-19 1.31160E-19
 -1      3950 8.76978E-05-2.33601E-05-2.75494E-05-5.26188E-06 5.31894E-20-1.85770E-19
 -1      3951 8.34743E-05-2.12575E-05-2.66278E-05-8.00330E-06-8.28899E-19 5.29105E-19
 -1      3952 8.14373E-05-2.08809E-05-2.60157E-05-1.03044E-05-8.16268E-19 3.06838E-19
 -1      3953 8.59040E-05-2.31033E-05-2.68863E-05-8.69868E-06-5.15386E-19-3.35082E-19
 -1      3954 1.21243E-04-4.00820E-05-3.49998E-05 8.14138E-06-1.63552E-18 1.71819E-19
 -1      3955 9.59886E-05-2.61041E-05-2.99294E-05 4.40678E-07 8.20845E-19-7.29052E-20
 -1      3956 9.54233E-05-2.44533E-05-3.04396E-05 1.12473E-06 8.79747E-19-4.10321E-19
 -1      3957 8.80379E-05-2.25165E-05-2.81180E-05 1.22929E-06-1.12442E-19-2.99493E-19
 -1      3958 8.91873E-05-2.31932E-05-2.82811E-05 7.37781E-07-5.83625E-19-5.52333E-19
 -1      3959 8.99795E-05-2.37552E-05-2.84070E-05 2.42232E-07-1.24131E-18-8.89880E-19
 -1      3960 9.08206E-05-2.43270E-05-2.84987E-05-6.38813E-09-1.13790E-18-5.47598E-19
 -1      3961 8.98155E-05-2.37796E-05-2.82788E-05 1.37387E-06-8.11835E-19-9.28773E-19
 -1      3962 9.14120E-05-2.47886E-05-2.85697E-05-2.73882E-07-5.26745E-19-1.97391E-19
 -1      3963 9.19969E-05-2.52311E-05-2.86164E-05-3.71761E-07 4.01413E-19 1.30908E-19
 -1      3964 9.11645E-05-2.46779E-05-2.84768E-05 5.12676E-07-7.11207E-19-1.26721E-18
 -1      3965 9.24781E-05-2.56327E-05-2.86586E-05-5.16788E-07-4.63463E-19-6.36404E-19
 -1      3966 9.29237E-05-2.60070E-05-2.86812E-05-5.32041E-07-1.03549E-18-2.00897E-18
 -1      3967 9.22169E-05-2.54684E-05-2.85934E-05 2.87577E-08-9.06489E-19-1.15022E-18
 -1      3968 9.32853E-05-2.63289E-05-2.87023E-05-5.96823E-07-1.51437E-18-1.37270E-18
 -1      3969 9.35961E-05-2.66166E-05-2.87094E-05-5.60771E-07-1.55157E-18-1.96542E-18
 -1      3970 9.30455E-05-2.61649E-05-2.86589E-05-2.20410E-07-1.19283E-18-3.00774E-19
 -1      3971 1.09728E-04-2.25799E-05-3.73464E-05 1.04775E-05 4.78044E-20 4.49722E-19
 -1      3972 1.09820E-04-1.85629E-05-3.92762E-05 9.28588E-06 8.39224E-19 1.37454E-19
 -1      3973 1.09301E-04-4.03549E-05-2.95239E-05-1.99334E-06-2.34578E-19-6.35109E-20
 -1      3974 1.07470E-04-3.93203E-05-2.91268E-05-3.30128E-06 3.19728E-19 1.17795E-19
 -1      3975 1.05058E-04-3.78140E-05-2.88378E-05-4.06652E-06 2.31076E-19-2.83086E-19
 -1      3976 1.03406E-04-3.64488E-05-2.86415E-05-4.66305E-06 9.61515E-21-2.78207E-19
 -1      3977 1.06157E-04-3.91778E-05-2.88219E-05-5.69771E-06-5.17153E-20 3.47123E-19
 -1      3978 1.14881E-04-3.39081E-05-3.46259E-05 1.02539E-05-1.03504E-18 2.10663E-19
 -1      3979 1.15799E-04-3.77248E-05-3.34436E-05 8.64006E-06-1.76727E-18 3.87107E-19
 -1      3980 1.11711E-04-2.72367E-05-3.64306E-05 1.17070E-05-1.74634E-20 9.60340E-19
 -1      3981 9.50625E-05-2.33843E-05-3.07247E-05-4.77551E-07 4.31183E-19-9.65403E-19
 -1      3982 1.15831E-04-3.29729E-05-3.56013E-05-1.10546E-05 7.28038E-19-2.36537E-18
 -1      3983 1.05476E-04-3.79100E-05-2.88958E-05 3.94866E-06-6.98783E-19 1.54903E-18
 -1      3984 1.07243E-04-3.91810E-05-2.91877E-05 3.00587E-06-1.98775E-19 1.68226E-18
 -1      3985 1.01726E-04-3.49834E-05-2.85588E-05 4.73247E-06-1.10968E-18 1.69679E-18
 -1      3986 1.03293E-04-3.63533E-05-2.86966E-05 4.38299E-06-6.15561E-19 1.37622E-18
 -1      3987 1.04076E-04-3.74608E-05-2.86211E-05 6.02876E-06-6.83044E-19 7.18334E-19
 -1      3988 9.89076E-05-3.24835E-05-2.84395E-05 4.63982E-06-1.31814E-18 1.79536E-18
 -1      3989 1.00132E-04-3.36429E-05-2.84900E-05 4.63776E-06-9.77487E-19 1.53600E-18
 -1      3990 1.00336E-04-3.42457E-05-2.83762E-05 6.06283E-06-1.06768E-18 4.58050E-19
 -1      3991 9.69607E-05-3.05808E-05-2.84325E-05 4.11732E-06-3.68658E-18 2.52293E-18
 -1      3992 9.78329E-05-3.14551E-05-2.84367E-05 4.29986E-06-2.30487E-18 2.41496E-18
 -1      3993 9.77114E-05-3.17090E-05-2.83239E-05 5.40272E-06-2.06258E-18 1.44948E-18
 -1      3994 9.57233E-05-2.92614E-05-2.84758E-05 3.44137E-06-2.04734E-18 1.67626E-18
 -1      3995 9.62968E-05-2.98643E-05-2.84592E-05 3.69884E-06-2.96530E-18 2.36007E-18
 -1      3996 9.60143E-05-2.98942E-05-2.83619E-05 4.49494E-06-2.59333E-18 3.03589E-18
 -1      3997 9.50112E-05-2.84285E-05-2.85327E-05 2.76504E-06-1.45100E-18 1.82945E-18
 -1      3998 9.53561E-05-2.88062E-05-2.85107E-05 3.03327E-06-1.55573E-18 1.89286E-18
 -1      3999 9.50187E-05-2.87089E-05-2.84341E-05 3.57040E-06-1.75138E-18 2.67350E-18
 -1      4000 9.46577E-05-2.79600E-05-2.85849E-05 2.16348E-06-1.39076E-18 1.09220E-18
 -1      4001 9.48419E-05-2.81705E-05-2.85650E-05 2.41015E-06-1.24540E-18 1.37159E-18
 -1      4002 9.45088E-05-2.80110E-05-2.85082E-05 2.75056E-06-1.01356E-18 9.33610E-19
 -1      4003 9.45324E-05-2.77443E-05-2.86250E-05 1.66094E-06 1.75573E-20 2.21034E-19
 -1      4004 9.46115E-05-2.78393E-05-2.86102E-05 1.87317E-06-5.18299E-19 3.09822E-19
 -1      4005 9.43112E-05-2.76587E-05-2.85702E-05 2.07509E-06-5.33868E-19 2.06875E-19
 -1      4006 9.45406E-05-2.76914E-05-2.86519E-05 1.25639E-06-1.43720E-18 7.47717E-19
 -1      4007 9.45561E-05-2.77123E-05-2.86426E-05 1.43207E-06-7.81252E-19-1.84423E-19
 -1      4008 9.43002E-05-2.75346E-05-2.86160E-05 1.54329E-06-4.37818E-19-1.38706E-18
 -1      4009 9.46200E-05-2.77350E-05-2.86674E-05 9.40023E-07 1.83492E-19-2.46486E-19
 -1      4010 9.46013E-05-2.77137E-05-2.86628E-05 1.08049E-06-8.52743E-19-2.33250E-19
 -1      4011 9.43901E-05-2.75521E-05-2.86461E-05 1.13582E-06-2.50555E-19-1.22556E-18
 -1      4012 9.61045E-05-2.96521E-05-2.84671E-05-3.62315E-06 1.87821E-19 9.67931E-20
 -1      4013 9.57144E-05-2.92201E-05-2.84926E-05-3.38861E-06 1.70334E-19 4.40373E-19
 -1      4014 1.17527E-04-4.38563E-05-3.14610E-05 1.45153E-06-1.47340E-18 5.38874E-19
 -1      4015 1.17099E-04-4.11090E-05-3.26281E-05 5.32760E-06-1.73765E-18 5.05522E-19
 -1      4016 1.14390E-04-3.95142E-05-3.21238E-05 5.89489E-06-1.77682E-18 4.59003E-19
 -1      4017 1.14617E-04-4.34810E-05-3.05115E-05-1.28957E-06-1.22238E-18 8.98374E-19
 -1      4018 8.84255E-05-2.87167E-05-2.55869E-05-1.82891E-05-3.23631E-19 5.48725E-19
 -1      4019 9.40485E-05-3.33859E-05-2.61007E-05-1.90897E-05-6.20430E-19 1.52859E-18
 -1      4020 1.09857E-04-4.05691E-05-2.96183E-05 1.83759E-06-3.03965E-19 1.07522E-18
 -1      4021 1.11630E-04-4.12048E-05-3.01636E-05-4.81944E-09-9.27898E-20 1.21238E-18
 -1      4022 1.08805E-04-4.05712E-05-2.92450E-05 4.56817E-06-5.04976E-19 1.08472E-18
 -1      4023 1.15019E-04-4.33734E-05-3.06860E-05 4.99982E-07-4.37393E-19-6.98485E-19
 -1      4024 1.16411E-04-4.28735E-05-3.15388E-05-1.77043E-06-1.04455E-18-1.08499E-18
 -1      4025 9.98175E-05-3.71449E-05-2.67651E-05-1.75576E-05-9.87104E-19 1.00916E-18
 -1      4026 1.05678E-04-4.12298E-05-2.77985E-05-1.43113E-05-8.75033E-19 9.37460E-19
 -1      4027 9.78193E-05-3.46442E-05-2.69877E-05-1.52592E-05-3.35622E-19 8.68646E-19
 -1      4028 9.71899E-05-3.08535E-05-2.84169E-05-4.21685E-06 2.35359E-19 1.52277E-19
 -1      4029 9.65327E-05-3.01731E-05-2.84291E-05-4.01230E-06 7.36220E-20 3.49193E-19
 -1      4030 9.69740E-05-3.09697E-05-2.83158E-05-5.08711E-06 3.66151E-19 9.40196E-19
 -1      4031 9.63606E-05-2.79759E-05-2.93097E-05-8.11163E-07 4.14097E-19-4.72198E-19
 -1      4032 9.63884E-05-2.77217E-05-2.94277E-05-6.11149E-07 4.66834E-19-3.63633E-19
 -1      4033 9.53035E-05-2.40823E-05-3.05334E-05 8.77751E-07 8.23486E-19-6.87750E-19
 -1      4034 8.55181E-05-2.11477E-05-2.76364E-05 2.93225E-06-1.31839E-19-9.34394E-19
 -1      4035 8.70545E-05-2.19051E-05-2.79130E-05 2.05744E-06-1.15005E-19-1.04987E-18
 -1      4036 8.80862E-05-2.28071E-05-2.79498E-05 2.83879E-06 8.78892E-20 3.35394E-19
 -1      4037 9.53485E-05-2.84120E-05-2.86804E-05-2.12544E-06 1.41588E-19 3.19575E-20
 -1      4038 9.53795E-05-2.83829E-05-2.87141E-05-1.96919E-06-2.38008E-20 4.52134E-20
 -1      4039 9.63251E-05-2.68798E-05-2.97622E-05 1.44085E-07 1.35506E-19-7.52975E-19
 -1      4040 9.63719E-05-2.72931E-05-2.96095E-05 3.75032E-07-7.19334E-20-5.78565E-19
 -1      4041 9.64089E-05-2.73453E-05-2.95965E-05 3.10608E-07-1.42453E-20-6.25227E-19
 -1      4042 1.17253E-04-3.41705E-05-3.56312E-05 1.05260E-05-1.01562E-18 3.36550E-19
 -1      4043 9.61827E-05-2.72409E-05-2.95501E-05-3.43958E-07 5.19148E-19-9.28541E-21
 -1      4044 9.61314E-05-2.67728E-05-2.97288E-05 7.58214E-08 6.74985E-19-2.97537E-21
 -1      4045 9.60593E-05-2.61650E-05-2.99480E-05 2.36309E-07 7.16745E-19-2.06861E-19
 -1      4046 9.62881E-05-2.72629E-05-2.95809E-05-3.72653E-07 5.97474E-19-2.32253E-19
 -1      4047 8.22980E-05-1.97591E-05-2.68449E-05 5.74972E-06-6.49760E-19-2.47640E-18
 -1      4048 8.43619E-05-2.05738E-05-2.73138E-05 4.21045E-06-7.52858E-20-1.47307E-18
 -1      4049 8.59510E-05-2.18996E-05-2.74315E-05 5.19008E-06 1.29584E-19-1.72134E-18
 -1      4050 7.88214E-05-2.18732E-05-2.42926E-05-1.75479E-05-5.83493E-19-5.05953E-20
 -1      4051 9.48439E-05-2.79342E-05-2.86770E-05 6.27587E-07 2.52918E-18 2.26650E-18
 -1      4052 1.01570E-04-3.49916E-05-2.85266E-05-4.79717E-06 1.14333E-20-2.52200E-19
 -1      4053 1.00201E-04-3.37540E-05-2.84425E-05-4.92082E-06-8.70674E-20-1.07713E-19
 -1      4054 9.89349E-05-3.30150E-05-2.83046E-05-5.86557E-06 1.90567E-19 4.30349E-19
 -1      4055 9.60135E-05-2.57576E-05-3.01134E-05-3.19544E-07 2.29358E-19-7.92788E-19
 -1      4056 9.62005E-05-2.63999E-05-2.99185E-05-6.77312E-10 1.97676E-19-7.70864E-19
 -1      4057 9.62718E-05-2.65001E-05-2.98977E-05 3.66061E-08 1.32662E-19-7.06852E-19
 -1      4058 9.58794E-05-2.52937E-05-3.02449E-05-2.96307E-07 2.34753E-19-5.82788E-19
 -1      4059 9.47403E-05-2.78363E-05-2.86745E-05 6.80414E-07 1.08699E-18-6.49203E-19
 -1      4060 1.15430E-04-4.61965E-05-2.95679E-05 8.61452E-06-1.99951E-18-2.33092E-18
 -1      4061 1.15588E-04-4.79643E-05-2.90119E-05 1.32730E-05-1.68076E-18-1.92597E-19
 -1      4062 1.10247E-04-4.48488E-05-2.79682E-05 1.58799E-05-1.94953E-18-6.57936E-19
 -1      4063 9.60033E-05-2.84181E-05-2.89636E-05-1.31783E-06 1.38031E-19-1.24588E-19
 -1      4064 9.61052E-05-2.83703E-05-2.90288E-05-1.19732E-06 2.22995E-19-1.29827E-19
 -1      4065 9.53362E-05-2.82679E-05-2.87461E-05-1.76582E-06 7.91424E-20 1.42151E-19
 -1      4066 9.55146E-05-2.84000E-05-2.87588E-05-1.80201E-06 3.57792E-20 1.29756E-19
 -1      4067 9.55964E-05-2.84038E-05-2.87979E-05-1.67254E-06 1.21270E-19-1.28971E-19
 -1      4068 8.10144E-05-2.11716E-05-2.55904E-05-1.23479E-05-6.71343E-19 1.91494E-19
 -1      4069 7.88840E-05-2.10314E-05-2.48305E-05-1.49154E-05-3.87574E-19-1.27419E-19
 -1      4070 8.40520E-05-2.53149E-05-2.52030E-05-1.76335E-05-7.26755E-19-3.00018E-19
 -1      4071 8.45716E-05-2.37128E-05-2.60884E-05-1.28831E-05-9.71827E-19 7.53413E-20
 -1      4072 9.55015E-05-2.42822E-05-3.05153E-05-2.44354E-07 3.43365E-19-9.14585E-19
 -1      4073 9.42899E-05-2.72897E-05-2.87169E-05-5.08237E-07 1.43490E-19-2.34748E-18
 -1      4074 8.22682E-05-2.04057E-05-2.64665E-05 8.30508E-06-1.30327E-18-2.79604E-18
 -1      4075 8.46874E-05-2.23518E-05-2.67500E-05 9.16828E-06 8.27685E-20-1.71284E-18
 -1      4076 8.13100E-05-2.08679E-05-2.59072E-05 1.13796E-05-2.04138E-18-2.91722E-18
 -1      4077 9.41258E-05-2.71568E-05-2.86987E-05-3.03505E-07 2.07304E-20 1.53875E-18
 -1      4078 9.40679E-05-2.71286E-05-2.86891E-05-1.64940E-07-7.10750E-19 3.05451E-18
 -1      4079 9.57509E-05-2.84278E-05-2.88497E-05-1.54322E-06 1.48665E-19-1.30910E-19
 -1      4080 9.58547E-05-2.84249E-05-2.88990E-05-1.42687E-06 2.40999E-19-1.53852E-19
 -1      4081 9.59345E-05-2.83507E-05-2.89655E-05-1.20916E-06 2.14625E-19 1.64868E-19
 -1      4082 9.56295E-05-2.83266E-05-2.88459E-05-1.45778E-06 1.40835E-19-1.05018E-19
 -1      4083 9.36679E-05-2.67190E-05-2.86875E-05-2.85937E-07-1.64742E-18 5.38818E-19
 -1      4084 9.38759E-05-2.68848E-05-2.87137E-05-5.24742E-07-7.83414E-19-1.37767E-18
 -1      4085 9.40960E-05-2.71037E-05-2.87127E-05-4.79796E-07-8.78528E-19-2.22405E-18
 -1      4086 9.40754E-05-2.71696E-05-2.86768E-05 4.62209E-08-6.20439E-19 1.70579E-18
 -1      4087 9.41098E-05-2.72118E-05-2.86695E-05 2.12582E-07 1.62097E-19-2.14896E-18
 -1      4088 9.39288E-05-2.70081E-05-2.86796E-05-4.41906E-08-7.90561E-19 1.88471E-18
 -1      4089 9.94717E-05-3.81842E-05-2.61157E-05 2.13494E-05-2.37886E-18 1.13194E-18
 -1      4090 9.38357E-05-3.29423E-05-2.60878E-05 1.88970E-05-2.42175E-18 1.40609E-18
 -1      4091 9.62229E-05-2.82941E-05-2.91125E-05-1.08771E-06 4.18343E-19-1.39504E-19
 -1      4092 9.63006E-05-2.81639E-05-2.92002E-05-9.41157E-07 4.38110E-19-1.45298E-19
 -1      4093 9.62015E-05-2.82627E-05-2.91171E-05-9.81853E-07 2.76414E-19 2.38381E-20
 -1      4094 9.47008E-05-2.77915E-05-2.86735E-05 7.89981E-07 7.69644E-19-6.78371E-19
 -1      4095 8.85114E-05-2.75675E-05-2.60349E-05-1.57996E-05-6.84102E-19 3.25509E-19
 -1      4096 9.64218E-05-2.74183E-05-2.95720E-05-4.15390E-07 6.00529E-19-6.13382E-19
 -1      4097 9.63665E-05-2.73683E-05-2.95735E-05-4.35178E-07 6.83447E-19-3.91302E-19
 -1      4098 9.63265E-05-2.69455E-05-2.97360E-05-1.56981E-07 7.00588E-19-3.48062E-19
 -1      4099 1.02036E-04-3.58638E-05-2.84396E-05-6.21455E-06-1.37744E-19 4.51955E-20
 -1      4100 1.13988E-04-4.08933E-05-3.12662E-05 3.87069E-06-9.40200E-19 1.32792E-19
 -1      4101 9.55345E-05-2.89281E-05-2.85350E-05-3.03828E-06 3.74315E-20 4.06188E-19
 -1      4102 9.53444E-05-2.86908E-05-2.85646E-05-2.81901E-06 1.78400E-19 6.20305E-19
 -1      4103 9.52192E-05-2.88043E-05-2.84754E-05-3.38565E-06 7.08106E-20 6.38571E-19
 -1      4104 1.14830E-04-3.76750E-05-3.31805E-05-8.14782E-06 9.17658E-20-7.81957E-19
 -1      4105 1.14444E-04-3.47007E-05-3.41882E-05-9.89418E-06 7.56539E-19-1.66898E-18
 -1      4106 9.57317E-05-2.48342E-05-3.03832E-05-8.99081E-09 3.85222E-19-1.17113E-18
 -1      4107 9.58322E-05-2.50964E-05-3.03198E-05-2.12867E-07 2.48118E-19-8.46196E-19
 -1      4108 9.60893E-05-2.57767E-05-3.01321E-05-5.32108E-08 2.11116E-19-9.58783E-19
 -1      4109 1.03840E-04-4.11161E-05-2.69930E-05 1.90237E-05-1.70109E-18 6.59362E-19
 -1      4110 9.63817E-05-2.79832E-05-2.93136E-05-7.34260E-07 3.43944E-19-3.00765E-19
 -1      4111 9.57604E-05-2.49276E-05-3.03630E-05 1.56990E-07 5.21501E-19-1.14922E-18
 -1      4112 1.17437E-04-4.13314E-05-3.25826E-05-5.42956E-06-5.85207E-19-1.67764E-18
 -1      4113 9.45351E-05-2.76472E-05-2.86646E-05 8.06934E-07 3.78786E-19-2.97377E-18
 -1      4114 9.58015E-05-2.96091E-05-2.83860E-05-4.20377E-06 1.44811E-19 7.75997E-19
 -1      4115 1.06293E-04-3.98948E-05-2.84190E-05-9.40964E-06-6.76455E-19 9.65022E-19
 -1      4116 1.09517E-04-4.23379E-05-2.86933E-05-9.39772E-06-5.47746E-19 1.36245E-18
 -1      4117 1.13148E-04-4.21104E-05-3.04532E-05-8.65730E-09-1.13455E-18 4.09719E-19
 -1      4118 1.11417E-04-4.17230E-05-2.98229E-05-1.86186E-06-7.08077E-19 5.52927E-19
 -1      4119 9.56942E-05-2.48519E-05-3.03481E-05 5.00764E-07 8.06511E-19-7.55177E-19
 -1      4120 9.41820E-05-2.73084E-05-2.86642E-05 3.93224E-07 1.58005E-19-2.25470E-18
 -1      4121 9.42706E-05-2.73883E-05-2.86619E-05 5.28041E-07-1.00373E-19-2.59251E-18
 -1      4122 9.40231E-05-2.71430E-05-2.86613E-05 3.57319E-07-5.51385E-19-1.27797E-18
 -1      4123 9.52665E-05-2.84454E-05-2.86383E-05-2.34698E-06 1.21588E-19 1.33468E-19
 -1      4124 9.51124E-05-2.82595E-05-2.86555E-05-2.17155E-06-8.92485E-20 7.50740E-20
 -1      4125 9.53234E-05-2.85547E-05-2.86069E-05-2.53725E-06 1.30105E-19 4.01683E-19
 -1      4126 9.44218E-05-2.75477E-05-2.86617E-05 7.34284E-07 1.56279E-19-2.99701E-18
 -1      4127 1.10672E-04-4.24308E-05-2.94012E-05-5.16029E-06-5.98765E-19 1.42960E-18
 -1      4128 8.23127E-05-2.37117E-05-2.50246E-05 1.72303E-05-2.45505E-18-2.21560E-18
 -1      4129 8.16138E-05-2.17468E-05-2.56161E-05 1.33381E-05-2.67380E-18-2.28471E-18
 -1      4130 8.52695E-05-2.44475E-05-2.61619E-05 1.35896E-05-1.86042E-18-6.45648E-19
 -1      4131 8.64392E-05-2.68673E-05-2.56538E-05 1.74447E-05-2.25134E-18-5.73339E-19
 -1      4132 9.42681E-05-2.74023E-05-2.86550E-05 7.60355E-07-2.53813E-19-2.52146E-18
 -1      4133 9.33989E-05-2.65214E-05-2.86595E-05 1.78840E-09-1.06148E-18 9.90937E-19
 -1      4134 9.36680E-05-2.67801E-05-2.86684E-05-5.29685E-10-1.18726E-18 1.88956E-18
 -1      4135 9.36986E-05-2.68308E-05-2.86553E-05 2.23657E-07-3.90783E-19 5.21222E-19
 -1      4136 8.83920E-05-2.34894E-05-2.78504E-05 4.12847E-06 1.72827E-20-7.82349E-19
 -1      4137 8.93454E-05-2.38526E-05-2.80515E-05 3.14133E-06 1.64412E-19-8.23419E-19
 -1      4138 9.61653E-05-2.80099E-05-2.92097E-05 3.50687E-07 1.80482E-19-8.73653E-19
 -1      4139 9.59784E-05-2.80274E-05-2.91240E-05 3.85952E-07 1.76359E-19-7.82039E-19
 -1      4140 9.57596E-05-2.79901E-05-2.90439E-05 3.49406E-07 1.50018E-19-6.85850E-19
 -1      4141 9.54956E-05-2.78920E-05-2.89762E-05 3.40558E-07 1.88763E-19-6.15278E-19
 -1      4142 9.59109E-05-2.80147E-05-2.90963E-05 1.04501E-07 1.21778E-19-1.14297E-18
 -1      4143 9.52150E-05-2.77559E-05-2.89104E-05 2.64611E-07 2.50078E-19-4.87420E-19
 -1      4144 9.48739E-05-2.75661E-05-2.88528E-05 2.00554E-07 2.91722E-19-4.58004E-19
 -1      4145 9.54212E-05-2.78692E-05-2.89478E-05-5.92952E-09 2.98480E-19-4.70634E-19
 -1      4146 9.45401E-05-2.73517E-05-2.87934E-05 7.19372E-08 2.26208E-19-4.13796E-19
 -1      4147 9.41185E-05-2.70871E-05-2.87372E-05-6.57621E-08 1.26759E-19-5.75523E-19
 -1      4148 9.48025E-05-2.75357E-05-2.88211E-05-2.22582E-07 1.79138E-19-4.67664E-19
 -1      4149 9.37591E-05-2.68351E-05-2.86787E-05-2.65498E-07 6.12542E-20-7.18826E-19
 -1      4150 9.32723E-05-2.65323E-05-2.86175E-05-4.96033E-07-1.54424E-19-4.18355E-19
 -1      4151 9.41086E-05-2.71113E-05-2.87013E-05-5.81415E-07-1.26964E-20-6.50668E-19
 -1      4152 9.28606E-05-2.62370E-05-2.85452E-05-8.23721E-07-2.19780E-19-5.69894E-19
 -1      4153 9.22575E-05-2.58913E-05-2.84598E-05-1.21749E-06-2.19596E-19-4.83884E-19
 -1      4154 9.33254E-05-2.66365E-05-2.85691E-05-1.16093E-06-2.07075E-19-5.50221E-19
 -1      4155 9.18070E-05-2.56018E-05-2.83646E-05-1.75154E-06-6.74074E-20-3.09552E-19
 -1      4156 9.10695E-05-2.52397E-05-2.82423E-05-2.38106E-06 6.33349E-20-7.65258E-20
 -1      4157 9.24883E-05-2.62024E-05-2.84044E-05-2.06697E-06-1.17692E-19-3.65718E-19
 -1      4158 9.06755E-05-2.50346E-05-2.81114E-05-3.13944E-06-7.45031E-21-1.46134E-19
 -1      4159 8.98172E-05-2.47405E-05-2.79313E-05-4.12727E-06 2.58680E-20-6.44899E-20
 -1      4160 9.15984E-05-2.58087E-05-2.81791E-05-3.42255E-06-4.83032E-20-2.62493E-19
 -1      4161 8.95304E-05-2.46982E-05-2.77506E-05-5.22515E-06-1.95864E-19-1.96229E-19
 -1      4162 8.85964E-05-2.45751E-05-2.74867E-05-6.69708E-06-3.04754E-19-5.76378E-19
 -1      4163 9.08449E-05-2.57615E-05-2.78761E-05-5.42304E-06-1.56766E-19-1.99948E-19
 -1      4164 8.85925E-05-2.49146E-05-2.72437E-05-8.22833E-06-3.00424E-19-6.32787E-19
 -1      4165 8.77175E-05-2.51067E-05-2.68728E-05-1.03919E-05-4.30325E-19-4.63980E-19
 -1      4166 9.04142E-05-2.62922E-05-2.74690E-05-8.18959E-06-2.71986E-19-2.05461E-19
 -1      4167 8.80850E-05-2.57468E-05-2.66473E-05-1.18433E-05-6.86921E-19-3.87244E-19
 -1      4168 8.76906E-05-2.63807E-05-2.62821E-05-1.39258E-05-9.57833E-19-5.00502E-20
 -1      4169 9.16662E-05-2.97357E-05-2.66170E-05-1.46994E-05-2.97845E-19 6.19347E-19
 -1      4170 9.61646E-05-2.82549E-05-2.91034E-05-8.52540E-07 2.99357E-19-1.66664E-21
 -1      4171 9.62854E-05-2.81731E-05-2.91904E-05-7.30444E-07 2.33454E-19-9.48954E-20
 -1      4172 9.10770E-05-2.48293E-05-2.84131E-05 1.21871E-06-1.38605E-18-1.37472E-18
 -1      4173 9.16654E-05-2.51876E-05-2.84870E-05 8.63712E-07-5.86549E-19-1.63935E-18
 -1      4174 9.20723E-05-2.54997E-05-2.85466E-05 5.36289E-07-6.00151E-19-7.04705E-19
 -1      4175 9.25571E-05-2.58346E-05-2.85924E-05 3.24138E-07-9.93309E-19-4.96168E-19
 -1      4176 9.20950E-05-2.55802E-05-2.84925E-05 1.15091E-06-1.38880E-19-7.02826E-19
 -1      4177 9.30470E-05-2.62428E-05-2.86371E-05 1.04213E-07-3.37494E-19 7.62417E-19
 -1      4178 9.61853E-05-2.63620E-05-2.99243E-05 2.74690E-08 6.28835E-19-4.71987E-19
 -1      4179 9.59860E-05-2.57090E-05-3.01269E-05 3.42179E-07 7.50145E-19-5.56195E-19
 -1      4180 9.57880E-05-2.50488E-05-3.03129E-05 2.99646E-07 6.88743E-19-9.59303E-19
 -1      4181 9.62619E-05-2.64829E-05-2.99040E-05-4.35376E-08 6.90480E-19-7.15013E-19
 -1      4182 9.58354E-05-3.27731E-05-2.69819E-05-1.43172E-05 2.76874E-19 1.07987E-18
 -1      4183 1.00485E-04-3.64707E-05-2.75594E-05-1.29657E-05-2.74000E-19 6.97171E-19
 -1      4184 9.47333E-05-3.14413E-05-2.71453E-05-1.27598E-05 2.73365E-19 7.80071E-19
 -1      4185 9.62037E-05-3.04071E-05-2.81872E-05 6.01109E-06-2.82777E-18 1.00771E-18
 -1      4186 9.73133E-05-3.15094E-05-2.81746E-05 6.52174E-06-2.18734E-18 8.83813E-19
 -1      4187 9.85061E-05-3.27690E-05-2.81400E-05 7.29230E-06-1.32334E-18 2.83318E-20
 -1      4188 1.00113E-04-3.43001E-05-2.81890E-05 7.64542E-06-8.40061E-19-3.04992E-19
 -1      4189 9.66908E-05-3.15572E-05-2.79787E-05 8.04716E-06-2.23983E-18-2.22559E-19
 -1      4190 1.02099E-04-3.60363E-05-2.82338E-05 8.23874E-06-5.44178E-19-1.25917E-19
 -1      4191 1.04210E-04-3.79992E-05-2.83936E-05 8.19447E-06-6.10711E-19 9.09253E-20
 -1      4192 9.97291E-05-3.46583E-05-2.79702E-05 9.61469E-06-5.17575E-19-1.00654E-18
 -1      4193 9.48756E-05-2.88609E-05-2.82892E-05 4.68316E-06-2.29036E-18 8.23128E-19
 -1      4194 9.55497E-05-2.95762E-05-2.82513E-05 5.20556E-06-2.63322E-18 1.24299E-18
 -1      4195 9.48237E-05-2.93141E-05-2.81001E-05 6.24157E-06-2.65576E-18-4.96557E-20
 -1      4196 9.42026E-05-2.79429E-05-2.83985E-05 3.52997E-06-1.31082E-18 7.09070E-19
 -1      4197 9.45703E-05-2.83648E-05-2.83558E-05 4.00164E-06-1.40848E-18 1.23297E-18
 -1      4198 9.39275E-05-2.80477E-05-2.82486E-05 4.64981E-06-1.47071E-18-1.54679E-18
 -1      4199 9.39465E-05-2.74736E-05-2.84921E-05 2.60014E-06-2.30189E-19-3.47570E-20
 -1      4200 9.41150E-05-2.76895E-05-2.84549E-05 2.98935E-06-8.74991E-19 3.27969E-19
 -1      4201 9.35719E-05-2.73661E-05-2.83812E-05 3.36882E-06-6.69410E-19-9.56463E-19
 -1      4202 9.39373E-05-2.72979E-05-2.85639E-05 1.88258E-06-4.38398E-19-1.05651E-18
 -1      4203 9.39820E-05-2.73775E-05-2.85354E-05 2.18868E-06-1.26277E-19-1.15745E-19
 -1      4204 9.35414E-05-2.70795E-05-2.84865E-05 2.38991E-06-1.61383E-21-9.02793E-19
 -1      4205 9.40619E-05-2.73022E-05-2.86139E-05 1.34711E-06 7.06311E-20-3.29621E-18
 -1      4206 9.40353E-05-2.72998E-05-2.85944E-05 1.57810E-06 6.13758E-20-2.40716E-18
 -1      4207 9.36856E-05-2.70396E-05-2.85634E-05 1.66787E-06 5.45733E-19-3.08234E-18
 -1      4208 9.41823E-05-2.73512E-05-2.86433E-05 9.40364E-07 3.01288E-20-2.93367E-18
 -1      4209 9.41162E-05-2.73016E-05-2.86308E-05 1.11437E-06-4.30319E-19-2.34243E-18
 -1      4210 9.38417E-05-2.70852E-05-2.86124E-05 1.13058E-06-1.03891E-18-3.50514E-18
 -1      4211 9.40082E-05-2.71804E-05-2.86436E-05 7.12582E-07-6.42914E-19-2.45761E-18
 -1      4212 1.03780E-04-3.78453E-05-2.81525E-05-9.73101E-06-5.63358E-19 5.56557E-19
 -1      4213 1.08947E-04-4.16848E-05-2.87832E-05 8.37852E-06-1.47796E-18 6.21957E-20
 -1      4214 1.11573E-04-4.34511E-05-2.92384E-05 7.41473E-06-1.38618E-18-9.07755E-19
 -1      4215 1.14773E-04-4.47240E-05-3.00873E-05 4.44717E-06-1.17341E-18-1.31053E-18
 -1      4216 1.01864E-04-3.62234E-05-2.80916E-05-9.22286E-06-2.42632E-19 7.15617E-19
 -1      4217 9.53630E-05-2.92844E-05-2.82956E-05-4.66225E-06-9.03840E-21 2.00975E-19
 -1      4218 9.49164E-05-2.87916E-05-2.83430E-05-4.21834E-06 2.86971E-19 2.03049E-19
 -1      4219 9.65456E-05-3.06997E-05-2.81912E-05-5.88709E-06 2.70454E-19 5.81493E-19
 -1      4220 9.57236E-05-2.98742E-05-2.82236E-05-5.41954E-06-2.60461E-20 4.48169E-19
 -1      4221 9.46613E-05-2.89374E-05-2.81654E-05-5.47120E-06-1.57677E-19-2.61868E-19
 -1      4222 9.60731E-05-2.57037E-05-3.01492E-05 5.92915E-08 4.90989E-19-9.78731E-19
 -1      4223 9.63864E-05-2.80366E-05-2.92940E-05-6.49877E-07 7.10256E-20-2.13852E-19
 -1      4224 9.64474E-05-2.78337E-05-2.94074E-05-5.04987E-07 1.51187E-19-4.35574E-19
 -1      4225 9.63432E-05-2.80287E-05-2.92776E-05-5.20401E-07 6.93405E-20-4.64998E-19
 -1      4226 9.64296E-05-2.71436E-05-2.96964E-05 1.37352E-07 6.90900E-20-8.15781E-19
 -1      4227 9.64405E-05-2.74960E-05-2.95520E-05 2.62279E-07-5.42833E-20-8.52472E-19
 -1      4228 9.98129E-05-3.44374E-05-2.79935E-05-9.02331E-06-2.22528E-20 8.44658E-19
 -1      4229 8.68395E-05-2.31040E-05-2.73265E-05 6.88904E-06 6.68558E-19-7.67382E-19
 -1      4230 8.79533E-05-2.33836E-05-2.76397E-05 5.30413E-06-2.44306E-19-1.41863E-19
 -1      4231 8.93265E-05-2.45113E-05-2.77664E-05 5.56706E-06-5.27193E-20-6.99658E-19
 -1      4232 9.64122E-05-2.77554E-05-2.94222E-05 2.78406E-07-9.23268E-20-7.36295E-19
 -1      4233 9.63078E-05-2.79188E-05-2.93114E-05 3.58033E-07 1.20488E-19-7.23641E-19
 -1      4234 9.62646E-05-2.79426E-05-2.92799E-05 1.42239E-07 2.49912E-22-8.31759E-19
 -1      4235 9.87544E-05-3.29519E-05-2.81567E-05-7.03492E-06 8.25038E-20 8.90179E-19
 -1      4236 9.73610E-05-3.16880E-05-2.81341E-05-6.72834E-06 3.69360E-19 1.05014E-18
 -1      4237 9.58624E-05-3.05039E-05-2.80137E-05-7.17650E-06-3.00647E-20 3.01451E-19
 -1      4238 1.06027E-04-4.12849E-05-2.77217E-05 1.50390E-05-1.73435E-18-3.30760E-19
 -1      4239 8.98358E-05-2.41205E-05-2.81932E-05 2.35202E-06-1.12054E-18-9.04086E-19
 -1      4240 9.06179E-05-2.45192E-05-2.83202E-05 1.73267E-06-1.75470E-18-1.65911E-18
 -1      4241 9.12404E-05-2.50686E-05-2.83406E-05 2.06766E-06-1.25506E-18-7.71840E-19
 -1      4242 9.02940E-05-2.46554E-05-2.81093E-05 3.47674E-06-8.20510E-19-1.07283E-18
 -1      4243 9.77021E-05-3.54060E-05-2.68287E-05 1.67944E-05-2.16425E-18 2.40422E-18
 -1      4244 9.18878E-05-3.07891E-05-2.60980E-05 1.78030E-05-2.79876E-18 2.00556E-18
 -1      4245 9.07538E-05-2.91973E-05-2.63178E-05 1.59035E-05-2.10902E-18 1.50313E-18
 -1      4246 1.06197E-04-4.04259E-05-2.82487E-05 1.13121E-05-1.40014E-18-1.11809E-18
 -1      4247 9.05785E-05-2.74440E-05-2.70200E-05-1.14178E-05-1.59684E-19-2.27566E-19
 -1      4248 9.59992E-05-2.82837E-05-2.90218E-05-9.40680E-07 3.49900E-19 2.64055E-20
 -1      4249 9.60691E-05-2.81917E-05-2.90903E-05-6.99865E-07 2.98125E-19-8.96066E-20
 -1      4250 9.58480E-05-2.82841E-05-2.89540E-05-1.06070E-06 3.69884E-19-1.77184E-19
 -1      4251 9.50407E-05-2.84058E-05-2.85660E-05-2.70717E-06-4.34678E-21 5.11783E-19
 -1      4252 8.78727E-05-2.52210E-05-2.68451E-05 1.10139E-05-1.42063E-18 1.42161E-18
 -1      4253 8.75192E-05-2.41030E-05-2.71375E-05 8.65337E-06 2.07245E-19 6.42705E-19
 -1      4254 8.95550E-05-2.56634E-05-2.73920E-05 8.51771E-06-3.33250E-19 1.42985E-18
 -1      4255 9.29904E-05-2.62470E-05-2.86000E-05 5.37081E-07 3.02221E-19 6.12434E-19
 -1      4256 9.48133E-05-2.84717E-05-2.84140E-05-3.60974E-06 4.45172E-19 1.99091E-19
 -1      4257 9.46435E-05-2.82306E-05-2.84627E-05-3.21489E-06 3.46935E-19 4.06018E-19
 -1      4258 9.42176E-05-2.81174E-05-2.83261E-05-4.01775E-06 4.51752E-19-9.14899E-20
 -1      4259 9.64723E-05-2.75480E-05-2.95378E-05-4.03839E-07 4.54939E-19-5.29444E-19
 -1      4260 9.64482E-05-2.71851E-05-2.96845E-05-2.23153E-07 5.81529E-19-5.12937E-19
 -1      4261 9.64735E-05-2.76168E-05-2.95116E-05-3.14629E-07 2.32407E-19-4.92688E-19
 -1      4262 9.51373E-05-2.80882E-05-2.87286E-05-1.65459E-06-6.70607E-20 3.28089E-19
 -1      4263 9.52731E-05-2.81353E-05-2.87765E-05-1.47828E-06 5.79865E-20 2.08070E-19
 -1      4264 1.01245E-04-3.68825E-05-2.74668E-05 1.37427E-05-1.27491E-18-4.22087E-19
 -1      4265 9.37841E-05-2.69426E-05-2.86496E-05 3.97050E-07-3.50253E-19-6.14218E-19
 -1      4266 9.38860E-05-2.70459E-05-2.86442E-05 5.82871E-07-6.89368E-19-2.25528E-18
 -1      4267 9.37908E-05-2.69790E-05-2.86302E-05 7.68462E-07-7.59916E-19-2.74716E-18
 -1      4268 9.35315E-05-2.67244E-05-2.86348E-05 4.70145E-07-1.53544E-19-8.39945E-19
 -1      4269 9.76211E-05-3.28976E-05-2.77482E-05-1.00418E-05 1.03991E-19 1.10073E-18
 -1      4270 9.91907E-05-3.51177E-05-2.74448E-05 1.31336E-05-1.36459E-18 4.22188E-19
 -1      4271 9.64453E-05-2.75848E-05-2.95127E-05 1.22341E-07 3.45939E-20-8.53897E-19
 -1      4272 9.62500E-05-2.63031E-05-2.99820E-05-4.50465E-08 1.69069E-19-8.87854E-19
 -1      4273 9.63728E-05-2.67815E-05-2.98248E-05 9.44370E-08 1.19213E-19-8.18689E-19
 -1      4274 9.64163E-05-2.69445E-05-2.97719E-05 3.68179E-08 1.27161E-19-8.83829E-19
 -1      4275 9.62046E-05-2.61118E-05-3.00421E-05-1.43128E-08 2.55998E-19-1.13465E-18
 -1      4276 9.48477E-05-2.80232E-05-2.86291E-05-2.12458E-06-2.70020E-19 4.35884E-19
 -1      4277 9.49240E-05-2.80292E-05-2.86749E-05-1.89235E-06-2.77447E-19 3.50588E-19
 -1      4278 9.48381E-05-2.78545E-05-2.87027E-05-1.59898E-06-2.24763E-19 6.00177E-19
 -1      4279 9.63331E-05-2.80072E-05-2.92843E-05-2.12316E-07-4.51202E-20-5.09581E-19
 -1      4280 9.61846E-05-2.80922E-05-2.91824E-05-2.26735E-07 7.79685E-20-4.88076E-19
 -1      4281 9.56250E-05-2.80102E-05-2.89787E-05-2.51533E-07 1.83599E-19-1.95827E-19
 -1      4282 9.53426E-05-2.78951E-05-2.89095E-05-3.27784E-07 3.50570E-19-2.37983E-19
 -1      4283 9.50613E-05-2.78171E-05-2.88189E-05-7.38559E-07 4.31116E-21-1.38854E-19
 -1      4284 9.47320E-05-2.76493E-05-2.87582E-05-8.94013E-07-3.21800E-20-1.51215E-19
 -1      4285 9.45010E-05-2.75370E-05-2.87010E-05-1.13707E-06-2.81661E-19-2.77415E-19
 -1      4286 9.41444E-05-2.73469E-05-2.86408E-05-1.36757E-06-3.25812E-19-4.71805E-19
 -1      4287 9.31640E-05-2.67564E-05-2.84595E-05-2.14349E-06 7.75019E-20-5.32321E-19
 -1      4288 9.27127E-05-2.65510E-05-2.83642E-05-2.68688E-06 2.73725E-19-1.17528E-19
 -1      4289 9.30470E-05-2.70897E-05-2.82604E-05-3.78355E-06-1.21401E-19 2.49928E-19
 -1      4290 9.27145E-05-2.71286E-05-2.81354E-05-4.62641E-06-2.15989E-19 1.73858E-19
 -1      4291 9.30194E-05-2.75581E-05-2.80432E-05-5.47854E-06-2.01773E-19 9.55555E-20
 -1      4292 9.27971E-05-2.78256E-05-2.78791E-05-6.62292E-06-2.87683E-19 1.98915E-19
 -1      4293 9.35390E-05-2.86523E-05-2.77871E-05-7.68944E-06-6.49337E-20 4.61066E-19
 -1      4294 9.35541E-05-2.93149E-05-2.75798E-05-9.17930E-06 1.00645E-19 6.37025E-19
 -1      4295 9.54886E-05-2.82020E-05-2.88335E-05-1.31680E-06 6.29084E-20-2.87104E-20
 -1      4296 9.56461E-05-2.82432E-05-2.88885E-05-1.17608E-06 1.91110E-19-2.80849E-20
 -1      4297 9.56967E-05-2.81717E-05-2.89397E-05-9.07796E-07 2.52960E-19-3.21187E-19
 -1      4298 9.52722E-05-2.80394E-05-2.88152E-05-1.18456E-06-1.11342E-19 1.03105E-19
 -1      4299 9.46934E-05-2.81169E-05-2.85246E-05-2.77678E-06 8.95738E-20 5.88737E-19
 -1      4300 9.46719E-05-2.80171E-05-2.85724E-05-2.46566E-06-3.22347E-20 5.98081E-19
 -1      4301 9.44545E-05-2.77304E-05-2.85893E-05-2.16921E-06-3.22520E-19 1.81512E-19
 -1      4302 9.42217E-05-2.78200E-05-2.84665E-05-2.96555E-06 3.85320E-19 3.24584E-19
 -1      4303 9.39566E-05-3.14332E-05-2.68549E-05 1.46863E-05-1.35867E-18 2.34972E-18
 -1      4304 8.93409E-05-2.76505E-05-2.64073E-05 1.46204E-05-8.58107E-19 1.02321E-18
 -1      4305 8.89426E-05-2.66241E-05-2.66450E-05 1.28060E-05-1.05728E-18 1.41430E-18
 -1      4306 9.60167E-05-2.81245E-05-2.90974E-05-3.19073E-07 3.25778E-19-4.02259E-19
 -1      4307 9.33360E-05-2.87616E-05-2.76682E-05 8.74724E-06-1.89629E-18 6.40068E-19
 -1      4308 9.45045E-05-3.00405E-05-2.75870E-05 9.88794E-06-1.21267E-18 9.25681E-19
 -1      4309 9.28765E-05-2.70521E-05-2.82225E-05 4.32773E-06-7.89284E-19-1.59736E-18
 -1      4310 9.31692E-05-2.74507E-05-2.81440E-05 5.05934E-06-1.46343E-18-1.28862E-18
 -1      4311 9.72700E-05-3.31234E-05-2.74489E-05 1.21002E-05-1.14623E-18 9.50143E-19
 -1      4312 9.28934E-05-2.67026E-05-2.83788E-05 2.99857E-06-5.29513E-19-1.16767E-18
 -1      4313 9.29786E-05-2.68677E-05-2.83159E-05 3.55440E-06-8.65446E-19-1.71557E-18
 -1      4314 9.21526E-05-2.62897E-05-2.82200E-05 3.90409E-06-8.55877E-19-1.70119E-18
 -1      4315 9.31237E-05-2.66601E-05-2.84940E-05 2.03082E-06 6.14985E-19-1.83864E-18
 -1      4316 9.30850E-05-2.66809E-05-2.84471E-05 2.44191E-06 6.82583E-19-8.22051E-19
 -1      4317 9.24661E-05-2.62087E-05-2.83887E-05 2.58749E-06-4.65167E-19-1.92747E-18
 -1      4318 9.34489E-05-2.67918E-05-2.85729E-05 1.34911E-06 1.01673E-18-2.66912E-18
 -1      4319 9.33434E-05-2.67301E-05-2.85408E-05 1.64410E-06 1.23338E-18-2.25996E-18
 -1      4320 9.28877E-05-2.63593E-05-2.85069E-05 1.67258E-06 1.32208E-18-1.16665E-18
 -1      4321 9.36484E-05-2.68816E-05-2.86146E-05 9.16622E-07-1.14303E-18-1.89330E-18
 -1      4322 9.35851E-05-2.68542E-05-2.85945E-05 1.16324E-06-6.57654E-19-1.86601E-18
 -1      4323 9.32512E-05-2.65856E-05-2.85751E-05 1.12881E-06 3.66879E-19 6.58833E-19
 -1      4324 9.35090E-05-2.67382E-05-2.86144E-05 7.82212E-07-6.33744E-19-1.49833E-18
 -1      4325 9.62574E-05-2.63509E-05-2.99651E-05 7.02923E-09 5.46509E-19-7.11321E-19
 -1      4326 9.62310E-05-2.62081E-05-3.00119E-05-2.33276E-08 3.83327E-19-9.57685E-19
 -1      4327 9.64326E-05-2.78437E-05-2.93914E-05-1.50592E-07 1.62748E-20-6.20461E-19
 -1      4328 9.21238E-05-2.58034E-05-2.84409E-05 1.81490E-06 3.15781E-19-8.97793E-19
 -1      4329 9.25292E-05-2.60187E-05-2.85018E-05 1.43300E-06 4.03759E-19-1.52414E-19
 -1      4330 9.64866E-05-2.72873E-05-2.96512E-05-6.40845E-08 2.37573E-19-6.42012E-19
 -1      4331 9.64663E-05-2.75996E-05-2.95165E-05-7.02655E-08 2.29373E-19-6.31078E-19
 -1      4332 9.63809E-05-2.66667E-05-2.98694E-05-2.46456E-08 2.71396E-19-8.25314E-19
 -1      4333 9.64315E-05-2.69630E-05-2.97732E-05-7.43293E-08 2.35487E-19-7.06170E-19
 -1      4334 9.57981E-05-2.80934E-05-2.90166E-05-3.66182E-07 2.74384E-19-2.51265E-19
 -1      4335 9.39479E-05-2.72603E-05-2.85801E-05-1.70884E-06-1.52743E-19-5.14936E-19
 -1      4336 9.35782E-05-2.70812E-05-2.85082E-05-2.07811E-06-1.45391E-19-3.27764E-19
 -1      4337 9.63953E-05-2.68943E-05-2.97826E-05-1.65027E-07 4.86511E-19-5.05079E-19
 -1      4338 9.42093E-05-3.04538E-05-2.73094E-05-1.13126E-05 2.28166E-19 6.02962E-19
 -1      4339 9.14091E-05-2.84352E-05-2.70703E-05 1.19993E-05-9.99553E-19 2.91205E-18
 -1      4340 9.38527E-05-2.85341E-05-2.79663E-05 6.79752E-06-2.37424E-18-7.03879E-19
 -1      4341 9.14123E-05-2.70192E-05-2.76041E-05 8.24081E-06-1.37065E-18 4.58197E-19
 -1      4342 9.04411E-05-2.58098E-05-2.77345E-05 6.71288E-06-1.47856E-18-1.45720E-19
 -1      4343 9.31795E-05-2.77889E-05-2.80397E-05 5.92484E-06-1.87794E-18-1.28959E-18
 -1      4344 9.20707E-05-2.66899E-05-2.80112E-05 5.56202E-06-1.29501E-18-1.69172E-18
 -1      4345 9.33986E-05-2.66149E-05-2.86198E-05 6.06587E-07 1.79033E-19 1.22735E-19
 -1      4346 9.08639E-05-2.56662E-05-2.79236E-05 5.46808E-06-1.54685E-18-1.68206E-18
 -1      4347 9.19129E-05-2.57092E-05-2.83692E-05 2.35155E-06-9.05696E-19-1.25717E-18
 -1      4348 9.37687E-05-2.76649E-05-2.83309E-05-3.70689E-06 3.79575E-19-9.46915E-20
 -1      4349 9.64299E-05-2.70449E-05-2.97404E-05-1.40031E-07 3.71157E-19-4.59870E-19
 -1      4350 9.52911E-05-2.79820E-05-2.88455E-05-9.51738E-07-8.73182E-20 2.05138E-19
 -1      4351 9.29371E-05-2.62721E-05-2.85744E-05 8.77534E-07 1.53588E-19 5.22036E-19
 -1      4352 9.14563E-05-2.55370E-05-2.82761E-05 2.93550E-06-1.32219E-18-1.63386E-18
 -1      4353 9.08542E-05-2.55095E-05-2.80378E-05 4.58133E-06-6.03579E-19-1.52117E-18
 -1      4354 9.13299E-05-2.55699E-05-2.81750E-05 3.70448E-06-6.61947E-19-1.57997E-18
 -1      4355 9.27782E-05-2.61723E-05-2.85493E-05 1.07483E-06-1.41061E-20 7.70918E-19
 -1      4356 9.56939E-05-3.15263E-05-2.74740E-05 1.12518E-05-5.99163E-19 8.63617E-19
 -1      4357 9.38845E-05-2.74110E-05-2.84793E-05-2.61500E-06 3.30843E-19-6.82300E-20
 -1      4358 9.57350E-05-2.81301E-05-2.89741E-05-6.87348E-07 3.93547E-19-1.27169E-19
 -1      4359 9.37828E-05-2.74904E-05-2.84117E-05-3.09421E-06 7.08099E-19-3.48503E-19
 -1      4360 9.55259E-05-2.80757E-05-2.89054E-05-7.98780E-07 1.32710E-19-9.95869E-20
 -3
    1PSTEP                         4           1           1          
  100CL  101 1.000000000        4360                     0    1           1
 -4  ERROR       1    1
 -5  STR(%)      1    1    0    0
 -1         1 1.42483E+01
 -1         2 2.44595E+01
 -1         3 4.19177E-03
 -1         4 6.03109E-03
 -1         5 1.40410E+01
 -1         6 1.33761E+01
 -1         7 1.33761E+01
 -1         8 3.64902E+00
 -1         9 1.81815E+00
 -1        10 1.28684E+00
 -1        11 1.04063E+00
 -1        12 8.96919E-01
 -1        13 8.05804E-01
 -1        14 7.51353E-01
 -1        15 7.52873E-01
 -1        16 8.09584E-01
 -1        17 8.97316E-01
 -1        18 1.04929E+00
 -1        19 1.30252E+00
 -1        20 1.82339E+00
 -1        21 3.50030E+00
 -1        22 8.63730E+00
 -1        23 1.33761E+01
 -1        24 4.26921E+00
 -1        25 3.41286E+00
 -1        26 2.16928E+00
 -1        27 1.40545E+00
 -1        28 1.05103E+00
 -1        29 8.12753E-01
 -1        30 6.49508E-01
 -1        31 5.16559E-01
 -1        32 4.17328E-01
 -1        33 3.46237E-01
 -1        34 2.99779E-01
 -1        35 3.08225E-01
 -1        36 3.88307E-01
 -1        37 5.12988E-01
 -1        38 6.96953E-01
 -1        39 9.54766E-01
 -1        40 1.22580E+00
 -1        41 1.66946E+00
 -1        42 2.37599E+00
 -1        43 3.24686E+00
 -1        44 4.35986E+00
 -1        45 5.15654E+00
 -1        46 5.15654E+00
 -1        47 4.63874E+00
 -1        48 8.47715E+00
 -1        49 1.42437E+01
 -1        50 1.44254E+01
 -1        51 1.44254E+01
 -1        52 1.09795E+01
 -1        53 4.73522E+00
 -1        54 5.15697E+00
 -1        55 5.15697E+00
 -1        56 4.64088E+00
 -1        57 3.47053E+00
 -1        58 2.57931E+00
 -1        59 1.80659E+00
 -1        60 1.34815E+00
 -1        61 9.52204E-01
 -1        62 7.15434E-01
 -1        63 5.01334E-01
 -1        64 3.48141E-01
 -1        65 2.40500E-01
 -1        66 1.65450E-01
 -1        67 1.15681E-01
 -1        68 9.17875E-02
 -1        69 7.22651E-02
 -1        70 5.53889E-02
 -1        71 3.84641E-02
 -1        72 1.97516E-02
 -1        73 1.40410E+01
 -1        74 3.40371E+00
 -1        75 2.42378E+00
 -1        76 1.67654E+00
 -1        77 1.15617E+00
 -1        78 9.28414E-01
 -1        79 7.59712E-01
 -1        80 6.23186E-01
 -1        81 5.11073E-01
 -1        82 4.18762E-01
 -1        83 3.42635E-01
 -1        84 2.79866E-01
 -1        85 2.27351E-01
 -1        86 1.84458E-01
 -1        87 1.74583E-01
 -1        88 1.57948E-01
 -1        89 1.78891E-01
 -1        90 2.48404E-01
 -1        91 3.59529E-01
 -1        92 4.46724E-01
 -1        93 6.24868E-01
 -1        94 8.06955E-01
 -1        95 9.23297E-01
 -1        96 1.21413E+00
 -1        97 1.64628E+00
 -1        98 1.94576E+00
 -1        99 2.01958E+00
 -1       100 2.26357E+00
 -1       101 2.26357E+00
 -1       102 2.22964E+00
 -1       103 1.93218E+00
 -1       104 1.48602E+00
 -1       105 1.07913E+00
 -1       106 6.94559E-01
 -1       107 4.60946E-01
 -1       108 2.84296E-01
 -1       109 1.97582E-01
 -1       110 1.80497E-01
 -1       111 1.80497E-01
 -1       112 1.67478E-01
 -1       113 1.40507E-01
 -1       114 1.10666E-01
 -1       115 8.58827E-02
 -1       116 7.00303E-02
 -1       117 5.66819E-02
 -1       118 4.32809E-02
 -1       119 3.02926E-02
 -1       120 2.30601E-02
 -1       121 1.35069E-02
 -1       122 5.34443E-03
 -1       123 5.62351E-03
 -1       124 5.62351E-03
 -1       125 3.70713E-03
 -1       126 1.98618E-03
 -1       127 4.20234E-03
 -1       128 5.80508E-03
 -1       129 6.47948E-03
 -1       130 6.47948E-03
 -1       131 6.19832E-03
 -1       132 4.67109E-03
 -1       133 2.51184E-03
 -1       134 4.88443E-03
 -1       135 7.39839E-03
 -1       136 7.39839E-03
 -1       137 6.72282E-03
 -1       138 2.44595E+01
 -1       139 4.44795E+01
 -1       140 4.44795E+01
 -1       141 1.75607E+01
 -1       142 1.17414E+01
 -1       143 1.19631E+01
 -1       144 1.29792E+01
 -1       145 1.29792E+01
 -1       146 1.25238E+01
 -1       147 1.20828E+01
 -1       148 2.43146E+01
 -1       149 3.17772E+01
 -1       150 3.17772E+01
 -1       151 2.42778E+01
 -1       152 2.46428E+01
 -1       153 2.58778E+01
 -1       154 3.33539E+01
 -1       155 3.33539E+01
 -1       156 2.32616E+01
 -1       157 1.45178E+01
 -1       158 1.48788E+01
 -1       159 1.48788E+01
 -1       160 1.37523E+01
 -1       161 2.64381E+01
 -1       162 2.90436E+01
 -1       163 2.90436E+01
 -1       164 2.58404E+01
 -1       165 6.18525E+00
 -1       166 2.29232E+00
 -1       167 1.50194E+00
 -1       168 1.15533E+00
 -1       169 9.69482E-01
 -1       170 8.61848E-01
 -1       171 7.93451E-01
 -1       172 7.52873E-01
 -1       173 7.96320E-01
 -1       174 8.64107E-01
 -1       175 9.77978E-01
 -1       176 1.16844E+00
 -1       177 1.52328E+00
 -1       178 2.25452E+00
 -1       179 3.92705E+00
 -1       180 1.40410E+01
 -1       181 4.26921E+00
 -1       182 3.41286E+00
 -1       183 2.16928E+00
 -1       184 1.48014E+00
 -1       185 1.05435E+00
 -1       186 8.12753E-01
 -1       187 6.49508E-01
 -1       188 5.16559E-01
 -1       189 4.17835E-01
 -1       190 3.46237E-01
 -1       191 2.99779E-01
 -1       192 2.63965E-01
 -1       193 3.08225E-01
 -1       194 3.91678E-01
 -1       195 5.24823E-01
 -1       196 8.17285E-01
 -1       197 1.21393E+00
 -1       198 1.75751E+00
 -1       199 2.44757E+00
 -1       200 3.19526E+00
 -1       201 3.79354E+00
 -1       202 4.35986E+00
 -1       203 5.15654E+00
 -1       204 5.10112E+00
 -1       205 4.63398E+00
 -1       206 8.47715E+00
 -1       207 1.42437E+01
 -1       208 1.44254E+01
 -1       209 1.09795E+01
 -1       210 5.25297E+00
 -1       211 4.61670E+00
 -1       212 5.15697E+00
 -1       213 4.64088E+00
 -1       214 3.77782E+00
 -1       215 3.00150E+00
 -1       216 2.36801E+00
 -1       217 1.73794E+00
 -1       218 1.18655E+00
 -1       219 8.37748E-01
 -1       220 5.54791E-01
 -1       221 3.74071E-01
 -1       222 2.64647E-01
 -1       223 1.86315E-01
 -1       224 1.26223E-01
 -1       225 9.26247E-02
 -1       226 7.22651E-02
 -1       227 5.53889E-02
 -1       228 3.84641E-02
 -1       229 2.21219E-02
 -1       230 3.40371E+00
 -1       231 2.42378E+00
 -1       232 1.67654E+00
 -1       233 1.15617E+00
 -1       234 9.28414E-01
 -1       235 7.59712E-01
 -1       236 6.23186E-01
 -1       237 5.11073E-01
 -1       238 4.18762E-01
 -1       239 3.42635E-01
 -1       240 2.79866E-01
 -1       241 2.27351E-01
 -1       242 1.84458E-01
 -1       243 1.74583E-01
 -1       244 1.57948E-01
 -1       245 1.43420E-01
 -1       246 1.78891E-01
 -1       247 2.48404E-01
 -1       248 3.59529E-01
 -1       249 4.65681E-01
 -1       250 6.24868E-01
 -1       251 8.06955E-01
 -1       252 1.00872E+00
 -1       253 1.33935E+00
 -1       254 1.64628E+00
 -1       255 1.94576E+00
 -1       256 2.01958E+00
 -1       257 2.26357E+00
 -1       258 2.22964E+00
 -1       259 1.93218E+00
 -1       260 1.48602E+00
 -1       261 1.08484E+00
 -1       262 7.49551E-01
 -1       263 4.60946E-01
 -1       264 2.84296E-01
 -1       265 1.97582E-01
 -1       266 1.67796E-01
 -1       267 1.80497E-01
 -1       268 1.67478E-01
 -1       269 1.40507E-01
 -1       270 1.10666E-01
 -1       271 8.85631E-02
 -1       272 7.00303E-02
 -1       273 5.66819E-02
 -1       274 4.32809E-02
 -1       275 3.06712E-02
 -1       276 2.30601E-02
 -1       277 1.35069E-02
 -1       278 8.44702E-03
 -1       279 9.45572E-03
 -1       280 9.45572E-03
 -1       281 5.39528E-03
 -1       282 7.66391E-03
 -1       283 1.10066E-02
 -1       284 1.28473E-02
 -1       285 1.31506E-02
 -1       286 1.31506E-02
 -1       287 1.23690E-02
 -1       288 9.63646E-03
 -1       289 7.53096E-03
 -1       290 1.19093E-02
 -1       291 1.54057E-02
 -1       292 2.91244E+01
 -1       293 3.86059E+01
 -1       294 4.44795E+01
 -1       295 1.76982E+01
 -1       296 1.09959E+01
 -1       297 1.17414E+01
 -1       298 1.19631E+01
 -1       299 1.29792E+01
 -1       300 1.25238E+01
 -1       301 1.14093E+01
 -1       302 1.20828E+01
 -1       303 2.62908E+01
 -1       304 3.22826E+01
 -1       305 3.22826E+01
 -1       306 3.09962E+01
 -1       307 3.09962E+01
 -1       308 3.09074E+01
 -1       309 3.33539E+01
 -1       310 2.59018E+01
 -1       311 1.22618E+01
 -1       312 1.45178E+01
 -1       313 1.48788E+01
 -1       314 1.42483E+01
 -1       315 1.30427E+01
 -1       316 1.37523E+01
 -1       317 2.87872E+01
 -1       318 3.45179E+01
 -1       319 3.45179E+01
 -1       320 2.91244E+01
 -1       321 1.54057E-02
 -1       322 1.06518E+00
 -1       323 2.53098E+00
 -1       324 7.86443E-01
 -1       325 6.92614E-01
 -1       326 6.29409E-01
 -1       327 5.85158E-01
 -1       328 5.87882E-01
 -1       329 6.31581E-01
 -1       330 6.98340E-01
 -1       331 7.93678E-01
 -1       332 9.27708E-01
 -1       333 1.13767E+00
 -1       334 1.32310E+00
 -1       335 2.19673E+00
 -1       336 1.91146E+00
 -1       337 1.74660E+00
 -1       338 1.29417E+00
 -1       339 9.29990E-01
 -1       340 6.81285E-01
 -1       341 5.72804E-01
 -1       342 4.78981E-01
 -1       343 3.98104E-01
 -1       344 3.29909E-01
 -1       345 2.74035E-01
 -1       346 2.20726E-01
 -1       347 2.44583E-01
 -1       348 3.03240E-01
 -1       349 4.48348E-01
 -1       350 6.94370E-01
 -1       351 1.02403E+00
 -1       352 1.48548E+00
 -1       353 2.10876E+00
 -1       354 2.89067E+00
 -1       355 3.77876E+00
 -1       356 4.62836E+00
 -1       357 5.42018E+00
 -1       358 7.42607E+00
 -1       359 7.41666E+00
 -1       360 1.16858E+01
 -1       361 1.06751E+01
 -1       362 5.68056E+00
 -1       363 8.12294E+00
 -1       364 6.57967E+00
 -1       365 4.73689E+00
 -1       366 4.03110E+00
 -1       367 3.43355E+00
 -1       368 2.72082E+00
 -1       369 2.03564E+00
 -1       370 1.44967E+00
 -1       371 1.04003E+00
 -1       372 7.13701E-01
 -1       373 4.83124E-01
 -1       374 3.23334E-01
 -1       375 2.13901E-01
 -1       376 1.35746E-01
 -1       377 9.26247E-02
 -1       378 6.56689E-02
 -1       379 4.69933E-02
 -1       380 3.25462E-02
 -1       381 2.13181E-02
 -1       382 1.13234E+00
 -1       383 2.56479E+01
 -1       384 8.15285E-01
 -1       385 6.99596E-01
 -1       386 5.43506E-01
 -1       387 4.48940E-01
 -1       388 3.81859E-01
 -1       389 3.25063E-01
 -1       390 2.74795E-01
 -1       391 2.30673E-01
 -1       392 1.91746E-01
 -1       393 1.55276E-01
 -1       394 1.46814E-01
 -1       395 1.33458E-01
 -1       396 1.10266E-01
 -1       397 9.13345E-02
 -1       398 1.64439E-01
 -1       399 3.23520E-01
 -1       400 5.25161E-01
 -1       401 7.54814E-01
 -1       402 9.85676E-01
 -1       403 1.23987E+00
 -1       404 1.41888E+00
 -1       405 1.48234E+00
 -1       406 1.48234E+00
 -1       407 1.46189E+00
 -1       408 1.47013E+00
 -1       409 1.52438E+00
 -1       410 1.41542E+00
 -1       411 1.17621E+00
 -1       412 9.32324E-01
 -1       413 6.81541E-01
 -1       414 4.44169E-01
 -1       415 2.57866E-01
 -1       416 1.42247E-01
 -1       417 9.50316E-02
 -1       418 1.10936E-01
 -1       419 1.19578E-01
 -1       420 1.11487E-01
 -1       421 9.60434E-02
 -1       422 8.18820E-02
 -1       423 6.50689E-02
 -1       424 5.25342E-02
 -1       425 4.14893E-02
 -1       426 3.06712E-02
 -1       427 2.02441E-02
 -1       428 1.08844E-02
 -1       429 1.06674E-02
 -1       430 1.65505E-02
 -1       431 1.65505E-02
 -1       432 9.92292E-03
 -1       433 1.49713E-02
 -1       434 1.82805E-02
 -1       435 1.90888E-02
 -1       436 1.97889E-02
 -1       437 1.97889E-02
 -1       438 1.86359E-02
 -1       439 1.42767E-02
 -1       440 2.32396E-02
 -1       441 2.32396E-02
 -1       442 1.45331E+01
 -1       443 3.80367E+01
 -1       444 9.10350E-01
 -1       445 7.92263E+00
 -1       446 7.63319E+00
 -1       447 9.86074E+00
 -1       448 1.00368E+01
 -1       449 8.85087E+00
 -1       450 8.76915E+00
 -1       451 7.05683E+00
 -1       452 1.09539E+01
 -1       453 1.85749E+01
 -1       454 3.22826E+01
 -1       455 3.45853E+01
 -1       456 3.64488E+01
 -1       457 3.64488E+01
 -1       458 3.09074E+01
 -1       459 1.83856E+01
 -1       460 1.08670E+01
 -1       461 6.80517E+00
 -1       462 9.54309E+00
 -1       463 7.74094E+00
 -1       464 1.14530E+01
 -1       465 2.03834E+01
 -1       466 3.45179E+01
 -1       467 3.80367E+01
 -1       468 2.70706E+01
 -1       469 6.08824E+00
 -1       470 9.02953E+00
 -1       471 4.84139E-01
 -1       472 5.08835E-01
 -1       473 4.28498E-01
 -1       474 4.54513E-01
 -1       475 4.84334E-01
 -1       476 5.08689E-01
 -1       477 5.08689E-01
 -1       478 5.03750E-01
 -1       479 6.39222E-01
 -1       480 1.31299E+00
 -1       481 8.14122E-01
 -1       482 3.26262E-02
 -1       483 7.11171E+00
 -1       484 1.94124E+01
 -1       485 7.10560E-01
 -1       486 6.00252E-01
 -1       487 4.86422E-01
 -1       488 3.88887E-01
 -1       489 3.41278E-01
 -1       490 2.89561E-01
 -1       491 2.37393E-01
 -1       492 1.81033E-01
 -1       493 1.59888E-01
 -1       494 1.92932E-01
 -1       495 3.14328E-01
 -1       496 4.89320E-01
 -1       497 7.17053E-01
 -1       498 1.03669E+00
 -1       499 1.50657E+00
 -1       500 2.24158E+00
 -1       501 3.27958E+00
 -1       502 4.72467E+00
 -1       503 7.11759E+00
 -1       504 8.39663E+00
 -1       505 8.98771E+00
 -1       506 9.40957E-01
 -1       507 3.80367E+01
 -1       508 9.92604E+00
 -1       509 8.42394E+00
 -1       510 6.20104E+00
 -1       511 4.57323E+00
 -1       512 3.21789E+00
 -1       513 2.27635E+00
 -1       514 1.62180E+00
 -1       515 1.15112E+00
 -1       516 8.04957E-01
 -1       517 5.59542E-01
 -1       518 3.86189E-01
 -1       519 2.64359E-01
 -1       520 1.77580E-01
 -1       521 1.22422E-01
 -1       522 8.07526E-02
 -1       523 5.10163E-02
 -1       524 3.59271E-02
 -1       525 6.99596E-01
 -1       526 7.43225E-01
 -1       527 4.48940E-01
 -1       528 3.81859E-01
 -1       529 3.16102E-01
 -1       530 2.54623E-01
 -1       531 1.98469E-01
 -1       532 1.49802E-01
 -1       533 1.21904E-01
 -1       534 1.19123E-01
 -1       535 1.11915E-01
 -1       536 1.04563E-01
 -1       537 1.27007E-01
 -1       538 1.62434E-01
 -1       539 2.67854E-01
 -1       540 4.04219E-01
 -1       541 5.93558E-01
 -1       542 8.42887E-01
 -1       543 1.07378E+00
 -1       544 1.23987E+00
 -1       545 1.41888E+00
 -1       546 1.48234E+00
 -1       547 1.42886E+00
 -1       548 1.46189E+00
 -1       549 1.47013E+00
 -1       550 1.35767E+00
 -1       551 1.17728E+00
 -1       552 9.79367E-01
 -1       553 7.33331E-01
 -1       554 4.92259E-01
 -1       555 3.27477E-01
 -1       556 1.97285E-01
 -1       557 1.35495E-01
 -1       558 1.09491E-01
 -1       559 9.79666E-02
 -1       560 9.44538E-02
 -1       561 8.73895E-02
 -1       562 7.43292E-02
 -1       563 6.27719E-02
 -1       564 4.97705E-02
 -1       565 3.72310E-02
 -1       566 2.76277E-02
 -1       567 1.98712E-02
 -1       568 1.75984E-02
 -1       569 2.32728E-02
 -1       570 1.52114E-02
 -1       571 1.46801E-02
 -1       572 2.57206E-02
 -1       573 2.57206E-02
 -1       574 2.76460E-02
 -1       575 2.76460E-02
 -1       576 2.56108E-02
 -1       577 3.26262E-02
 -1       578 5.81178E+00
 -1       579 8.57296E-01
 -1       580 2.13806E+01
 -1       581 5.43506E-01
 -1       582 1.44663E+01
 -1       583 4.54979E-01
 -1       584 5.48222E+00
 -1       585 6.76510E+00
 -1       586 7.79807E+00
 -1       587 4.45708E+00
 -1       588 6.44409E+00
 -1       589 9.13102E+00
 -1       590 1.47820E+01
 -1       591 2.21562E+01
 -1       592 3.45853E+01
 -1       593 3.64488E+01
 -1       594 1.33560E+01
 -1       595 9.47767E+00
 -1       596 1.40800E+01
 -1       597 2.43344E+01
 -1       598 2.70706E+01
 -1       599 5.08835E-01
 -1       600 4.07790E+00
 -1       601 8.10094E+00
 -1       602 8.61590E+00
 -1       603 4.58618E-01
 -1       604 1.28683E+01
 -1       605 1.68329E+01
 -1       606 3.56318E-01
 -1       607 3.40122E-01
 -1       608 3.60244E-01
 -1       609 3.37670E-01
 -1       610 4.29543E-01
 -1       611 7.16960E-01
 -1       612 4.04354E-01
 -1       613 3.95878E-01
 -1       614 3.83247E-01
 -1       615 3.39029E-01
 -1       616 2.82121E-01
 -1       617 2.31635E-01
 -1       618 1.92623E-01
 -1       619 1.44743E-01
 -1       620 9.25477E-02
 -1       621 9.90653E-02
 -1       622 2.04982E-01
 -1       623 3.59918E-01
 -1       624 5.72189E-01
 -1       625 8.93961E-01
 -1       626 1.36016E+00
 -1       627 2.04565E+00
 -1       628 3.06518E+00
 -1       629 4.77690E+00
 -1       630 7.33960E+00
 -1       631 1.48428E+01
 -1       632 3.59511E-01
 -1       633 1.45045E+01
 -1       634 1.20424E+01
 -1       635 1.11934E+01
 -1       636 5.09302E+00
 -1       637 3.33762E+00
 -1       638 2.23318E+00
 -1       639 1.48382E+00
 -1       640 9.77792E-01
 -1       641 6.51093E-01
 -1       642 4.38023E-01
 -1       643 2.91968E-01
 -1       644 2.05451E-01
 -1       645 1.45162E-01
 -1       646 1.00302E-01
 -1       647 6.65173E-02
 -1       648 1.76816E+01
 -1       649 2.26487E-01
 -1       650 3.13482E-01
 -1       651 1.82868E-01
 -1       652 1.40744E-01
 -1       653 1.02171E-01
 -1       654 8.52004E-02
 -1       655 8.90852E-02
 -1       656 1.04563E-01
 -1       657 1.41058E-01
 -1       658 1.98999E-01
 -1       659 2.67854E-01
 -1       660 4.04219E-01
 -1       661 5.60276E-01
 -1       662 7.40861E-01
 -1       663 9.12636E-01
 -1       664 1.09430E+00
 -1       665 1.18319E+00
 -1       666 1.25946E+00
 -1       667 1.21925E+00
 -1       668 1.15106E+00
 -1       669 1.26491E+00
 -1       670 1.21748E+00
 -1       671 1.15063E+00
 -1       672 1.02523E+00
 -1       673 8.23699E-01
 -1       674 6.55243E-01
 -1       675 4.80366E-01
 -1       676 3.27477E-01
 -1       677 2.36670E-01
 -1       678 1.74392E-01
 -1       679 1.21700E-01
 -1       680 1.11550E-01
 -1       681 9.85861E-02
 -1       682 8.42218E-02
 -1       683 7.00764E-02
 -1       684 5.71067E-02
 -1       685 4.42390E-02
 -1       686 3.23054E-02
 -1       687 2.27023E-02
 -1       688 6.39603E+00
 -1       689 3.44790E-02
 -1       690 2.78716E-02
 -1       691 3.66830E-02
 -1       692 3.33347E-02
 -1       693 3.77072E-02
 -1       694 3.77072E-02
 -1       695 3.72368E-02
 -1       696 3.53836E+00
 -1       697 3.66756E-01
 -1       698 1.81263E+01
 -1       699 3.60244E-01
 -1       700 6.72953E+00
 -1       701 1.06629E+01
 -1       702 3.72368E-02
 -1       703 3.76452E+00
 -1       704 4.64974E+00
 -1       705 8.72369E+00
 -1       706 1.22920E+01
 -1       707 1.37381E+01
 -1       708 1.15478E+01
 -1       709 2.68699E-01
 -1       710 1.48428E+01
 -1       711 4.44767E+00
 -1       712 3.40346E-01
 -1       713 3.86996E-01
 -1       714 3.59511E-01
 -1       715 4.82356E+00
 -1       716 5.15302E-02
 -1       717 4.83850E-01
 -1       718 2.04285E-02
 -1       719 2.78867E+00
 -1       720 4.38171E-01
 -1       721 6.64623E+00
 -1       722 1.20424E+01
 -1       723 5.97460E+00
 -1       724 3.56195E-01
 -1       725 2.02928E-02
 -1       726 2.36469E-01
 -1       727 2.47060E-01
 -1       728 9.11208E+00
 -1       729 2.33650E-01
 -1       730 2.55500E-01
 -1       731 2.24648E-01
 -1       732 2.44061E-01
 -1       733 2.33490E-01
 -1       734 2.03910E-01
 -1       735 1.63870E-01
 -1       736 1.35798E-01
 -1       737 9.96008E-02
 -1       738 1.16354E-01
 -1       739 1.71059E-01
 -1       740 2.96594E-01
 -1       741 4.50049E-01
 -1       742 6.94394E-01
 -1       743 1.03121E+00
 -1       744 1.52869E+00
 -1       745 2.30192E+00
 -1       746 3.60027E+00
 -1       747 5.40605E+00
 -1       748 1.00541E+01
 -1       749 4.88262E+00
 -1       750 2.69881E+00
 -1       751 1.81719E+00
 -1       752 1.22373E+00
 -1       753 8.30946E-01
 -1       754 5.64875E-01
 -1       755 3.82862E-01
 -1       756 2.59512E-01
 -1       757 1.75213E-01
 -1       758 1.15401E-01
 -1       759 7.68252E-02
 -1       760 1.88079E-01
 -1       761 3.25499E+00
 -1       762 1.55520E-01
 -1       763 6.14764E-02
 -1       764 6.28837E-02
 -1       765 9.46302E-02
 -1       766 1.41058E-01
 -1       767 1.98999E-01
 -1       768 2.92021E-01
 -1       769 4.04643E-01
 -1       770 5.60276E-01
 -1       771 7.40861E-01
 -1       772 9.24643E-01
 -1       773 1.07676E+00
 -1       774 1.14543E+00
 -1       775 1.29631E+00
 -1       776 1.45986E+00
 -1       777 1.33190E+00
 -1       778 1.48708E+00
 -1       779 1.42121E+00
 -1       780 1.21748E+00
 -1       781 1.09264E+00
 -1       782 1.02475E+00
 -1       783 8.23699E-01
 -1       784 6.55243E-01
 -1       785 4.74767E-01
 -1       786 3.61210E-01
 -1       787 2.55059E-01
 -1       788 1.74462E-01
 -1       789 1.47646E-01
 -1       790 1.22403E-01
 -1       791 9.85861E-02
 -1       792 8.17300E-02
 -1       793 6.46192E-02
 -1       794 4.94167E-02
 -1       795 3.64415E-02
 -1       796 2.76606E-02
 -1       797 5.11117E-02
 -1       798 4.53355E-02
 -1       799 2.64863E-01
 -1       800 4.96725E+00
 -1       801 8.66124E+00
 -1       802 5.52296E-02
 -1       803 2.85298E-01
 -1       804 2.35478E+00
 -1       805 1.20424E+01
 -1       806 1.07332E+01
 -1       807 9.53676E+00
 -1       808 5.11117E-02
 -1       809 8.90627E-02
 -1       810 5.52296E-02
 -1       811 7.30008E+00
 -1       812 1.00541E+01
 -1       813 5.64109E+00
 -1       814 1.20557E-01
 -1       815 3.80697E+00
 -1       816 3.29032E+00
 -1       817 2.77802E-01
 -1       818 2.73639E-01
 -1       819 2.79357E-01
 -1       820 2.85210E+00
 -1       821 2.61180E+00
 -1       822 6.51533E-02
 -1       823 3.00709E+00
 -1       824 3.98995E-02
 -1       825 4.75500E+00
 -1       826 4.53355E-02
 -1       827 2.86038E-01
 -1       828 5.43439E+00
 -1       829 2.85298E-01
 -1       830 2.77680E-01
 -1       831 3.99431E-02
 -1       832 2.49665E-01
 -1       833 2.66958E+00
 -1       834 8.81502E+00
 -1       835 1.16149E-01
 -1       836 1.53223E-01
 -1       837 1.61613E-01
 -1       838 1.64754E-01
 -1       839 1.49602E-01
 -1       840 1.25835E-01
 -1       841 1.10991E-01
 -1       842 1.28088E-01
 -1       843 1.51565E-01
 -1       844 2.10539E-01
 -1       845 2.92422E-01
 -1       846 4.53570E-01
 -1       847 6.80494E-01
 -1       848 1.02382E+00
 -1       849 1.54206E+00
 -1       850 2.32108E+00
 -1       851 3.34975E+00
 -1       852 5.83669E+00
 -1       853 3.95644E+00
 -1       854 1.69310E+00
 -1       855 1.11658E+00
 -1       856 7.63193E-01
 -1       857 5.49827E-01
 -1       858 3.94566E-01
 -1       859 2.82712E-01
 -1       860 2.01701E-01
 -1       861 1.40490E-01
 -1       862 9.70024E-02
 -1       863 1.72386E-01
 -1       864 1.41726E-01
 -1       865 8.38188E-02
 -1       866 5.27976E-02
 -1       867 1.94220E-01
 -1       868 2.92021E-01
 -1       869 4.04643E-01
 -1       870 5.73177E-01
 -1       871 7.60847E-01
 -1       872 9.24643E-01
 -1       873 1.19788E+00
 -1       874 1.33178E+00
 -1       875 1.29631E+00
 -1       876 1.68945E+00
 -1       877 1.90406E+00
 -1       878 2.69428E+00
 -1       879 2.22371E+00
 -1       880 1.58282E+00
 -1       881 1.29155E+00
 -1       882 1.35207E+00
 -1       883 1.02475E+00
 -1       884 8.42262E-01
 -1       885 6.87855E-01
 -1       886 5.03770E-01
 -1       887 3.61210E-01
 -1       888 2.64050E-01
 -1       889 2.05302E-01
 -1       890 1.58308E-01
 -1       891 1.24597E-01
 -1       892 9.85390E-02
 -1       893 7.50203E-02
 -1       894 5.61140E-02
 -1       895 5.30333E-02
 -1       896 6.17778E-02
 -1       897 7.94961E+00
 -1       898 2.06839E+00
 -1       899 2.96115E-01
 -1       900 2.86038E-01
 -1       901 3.65407E+00
 -1       902 6.47284E-02
 -1       903 6.14413E+00
 -1       904 5.02179E-02
 -1       905 1.30256E-01
 -1       906 8.49501E-02
 -1       907 6.77589E+00
 -1       908 3.72645E+00
 -1       909 2.94047E-02
 -1       910 5.04150E+00
 -1       911 3.61313E+00
 -1       912 3.29032E+00
 -1       913 1.93335E-01
 -1       914 2.68468E+00
 -1       915 7.04392E-02
 -1       916 6.47284E-02
 -1       917 6.04981E-02
 -1       918 3.89518E+00
 -1       919 3.21539E+00
 -1       920 3.07448E+00
 -1       921 2.03443E+00
 -1       922 5.38478E-02
 -1       923 2.12278E-01
 -1       924 5.30333E-02
 -1       925 1.87427E-01
 -1       926 2.12278E-01
 -1       927 3.08219E+00
 -1       928 1.98512E+00
 -1       929 1.11965E-01
 -1       930 1.20652E-01
 -1       931 1.14806E-01
 -1       932 1.15521E-01
 -1       933 1.32540E-01
 -1       934 1.57565E-01
 -1       935 2.06244E-01
 -1       936 2.65839E-01
 -1       937 3.82895E-01
 -1       938 5.30917E-01
 -1       939 7.31476E-01
 -1       940 1.07247E+00
 -1       941 1.76168E+00
 -1       942 2.77446E+00
 -1       943 4.11448E+00
 -1       944 2.12596E+00
 -1       945 1.22858E+00
 -1       946 8.46466E-01
 -1       947 5.86220E-01
 -1       948 4.01190E-01
 -1       949 2.63573E-01
 -1       950 1.89348E-01
 -1       951 1.40954E-01
 -1       952 1.04922E-01
 -1       953 1.06754E-01
 -1       954 4.16211E-01
 -1       955 2.97197E-01
 -1       956 7.68645E-01
 -1       957 1.09780E+00
 -1       958 1.19788E+00
 -1       959 1.33178E+00
 -1       960 1.33178E+00
 -1       961 2.68468E+00
 -1       962 2.22260E+00
 -1       963 3.13403E+00
 -1       964 1.97384E+00
 -1       965 1.98512E+00
 -1       966 1.54210E+00
 -1       967 1.22139E+00
 -1       968 9.48606E-01
 -1       969 6.87855E-01
 -1       970 5.07418E-01
 -1       971 3.88654E-01
 -1       972 2.83635E-01
 -1       973 2.19167E-01
 -1       974 1.63819E-01
 -1       975 1.21242E-01
 -1       976 9.38522E-02
 -1       977 7.08740E-02
 -1       978 1.98898E-01
 -1       979 3.86123E+00
 -1       980 2.04342E-01
 -1       981 2.06749E-01
 -1       982 8.07449E-02
 -1       983 2.08326E-01
 -1       984 8.25511E-02
 -1       985 8.92512E-02
 -1       986 2.07518E+00
 -1       987 8.48809E-02
 -1       988 2.59230E+00
 -1       989 5.73177E-01
 -1       990 2.68468E+00
 -1       991 1.03115E-01
 -1       992 1.38898E-01
 -1       993 2.33943E+00
 -1       994 1.04568E-01
 -1       995 7.77006E-02
 -1       996 1.98898E-01
 -1       997 8.25511E-02
 -1       998 1.59164E-01
 -1       999 1.44613E-01
 -1      1000 7.39497E-02
 -1      1001 1.26879E-01
 -1      1002 2.22371E+00
 -1      1003 5.61140E-02
 -1      1004 4.11448E+00
 -1      1005 3.08883E+00
 -1      1006 3.17269E+00
 -1      1007 7.39497E-02
 -1      1008 1.50429E-01
 -1      1009 6.98830E-02
 -1      1010 2.33211E+00
 -1      1011 1.98512E+00
 -1      1012 2.12513E-01
 -1      1013 1.57710E-01
 -1      1014 5.66913E-01
 -1      1015 2.02927E+00
 -1      1016 9.75782E-02
 -1      1017 1.15303E-01
 -1      1018 1.32223E-01
 -1      1019 1.52086E-01
 -1      1020 1.82931E-01
 -1      1021 2.19628E-01
 -1      1022 2.92164E-01
 -1      1023 3.89344E-01
 -1      1024 5.90542E-01
 -1      1025 8.82914E-01
 -1      1026 1.28473E+00
 -1      1027 1.76168E+00
 -1      1028 1.57710E-01
 -1      1029 6.14213E-01
 -1      1030 4.09128E-01
 -1      1031 2.90326E-01
 -1      1032 2.22637E-01
 -1      1033 1.57939E-01
 -1      1034 1.76388E+00
 -1      1035 1.42394E+00
 -1      1036 1.96810E+00
 -1      1037 1.01849E+00
 -1      1038 7.25000E-01
 -1      1039 5.56104E-01
 -1      1040 4.30486E-01
 -1      1041 3.09478E-01
 -1      1042 2.14629E-01
 -1      1043 1.59126E-01
 -1      1044 1.21343E-01
 -1      1045 1.14290E-01
 -1      1046 3.36449E-01
 -1      1047 1.59941E+00
 -1      1048 2.53055E+00
 -1      1049 1.88400E+00
 -1      1050 2.25730E+00
 -1      1051 4.65820E-01
 -1      1052 1.00903E-01
 -1      1053 1.02296E+00
 -1      1054 1.30837E-01
 -1      1055 8.39035E-02
 -1      1056 1.49739E-01
 -1      1057 1.53982E+00
 -1      1058 8.30495E-01
 -1      1059 6.12844E-02
 -1      1060 2.62099E+00
 -1      1061 1.03249E-01
 -1      1062 1.07374E-01
 -1      1063 2.77446E+00
 -1      1064 2.07518E+00
 -1      1065 1.18250E-01
 -1      1066 1.06133E-01
 -1      1067 1.09492E-01
 -1      1068 3.08883E+00
 -1      1069 9.31818E-02
 -1      1070 9.82398E-02
 -1      1071 2.21215E-01
 -1      1072 8.35353E-02
 -1      1073 1.14290E-01
 -1      1074 1.79717E-01
 -1      1075 2.56701E+00
 -1      1076 2.14896E-01
 -1      1077 7.06260E-01
 -1      1078 1.21724E-01
 -1      1079 1.36140E-01
 -1      1080 1.52086E-01
 -1      1081 1.82931E-01
 -1      1082 2.48225E-01
 -1      1083 3.24286E-01
 -1      1084 6.24126E-01
 -1      1085 9.31536E-01
 -1      1086 1.31295E+00
 -1      1087 1.77218E+00
 -1      1088 1.72593E+00
 -1      1089 1.04299E-01
 -1      1090 2.91770E-01
 -1      1091 2.22637E-01
 -1      1092 8.35353E-02
 -1      1093 1.77218E+00
 -1      1094 1.26396E+00
 -1      1095 1.72508E+00
 -1      1096 2.00987E+00
 -1      1097 6.73967E-01
 -1      1098 4.16349E-01
 -1      1099 2.86219E-01
 -1      1100 2.05769E-01
 -1      1101 1.59126E-01
 -1      1102 1.25712E-01
 -1      1103 8.19967E-01
 -1      1104 1.27765E+00
 -1      1105 9.17495E-02
 -1      1106 9.11806E-02
 -1      1107 1.12722E+00
 -1      1108 1.04418E-01
 -1      1109 1.77218E+00
 -1      1110 4.61549E-01
 -1      1111 2.33611E+00
 -1      1112 1.21724E-01
 -1      1113 1.72508E+00
 -1      1114 2.76623E-01
 -1      1115 9.11806E-02
 -1      1116 1.47039E-01
 -1      1117 1.25712E-01
 -1      1118 5.61868E-02
 -1      1119 2.13798E-01
 -1      1120 1.36140E-01
 -1      1121 4.07901E-01
 -1      1122 1.23816E-01
 -1      1123 3.21816E-01
 -1      1124 1.89329E+00
 -1      1125 5.47102E-01
 -1      1126 3.86062E-01
 -1      1127 2.86219E-01
 -1      1128 2.05769E-01
 -1      1129 2.14896E-01
 -1      1130 5.61868E-02
 -1      1131 1.04013E+00
 -1      1132 1.33761E+01
 -1      1133 8.51255E+00
 -1      1134 2.73358E+00
 -1      1135 1.55250E+00
 -1      1136 1.16374E+00
 -1      1137 9.68773E-01
 -1      1138 8.51362E-01
 -1      1139 7.78579E-01
 -1      1140 7.52113E-01
 -1      1141 7.81228E-01
 -1      1142 8.53450E-01
 -1      1143 9.73301E-01
 -1      1144 1.17590E+00
 -1      1145 1.56295E+00
 -1      1146 2.66185E+00
 -1      1147 6.06880E+00
 -1      1148 1.13391E+01
 -1      1149 1.33761E+01
 -1      1150 8.82265E+00
 -1      1151 3.84104E+00
 -1      1152 2.79107E+00
 -1      1153 1.78737E+00
 -1      1154 1.22824E+00
 -1      1155 9.31894E-01
 -1      1156 7.31130E-01
 -1      1157 5.83034E-01
 -1      1158 4.66944E-01
 -1      1159 3.81782E-01
 -1      1160 3.23008E-01
 -1      1161 3.04002E-01
 -1      1162 3.48266E-01
 -1      1163 4.50648E-01
 -1      1164 6.04971E-01
 -1      1165 8.25860E-01
 -1      1166 1.09028E+00
 -1      1167 1.44763E+00
 -1      1168 2.02273E+00
 -1      1169 2.81143E+00
 -1      1170 3.80336E+00
 -1      1171 4.75820E+00
 -1      1172 5.15654E+00
 -1      1173 4.89764E+00
 -1      1174 6.55795E+00
 -1      1175 1.13604E+01
 -1      1176 1.43345E+01
 -1      1177 1.44254E+01
 -1      1178 1.27024E+01
 -1      1179 7.85734E+00
 -1      1180 4.94609E+00
 -1      1181 5.15697E+00
 -1      1182 4.89893E+00
 -1      1183 4.05571E+00
 -1      1184 3.02492E+00
 -1      1185 2.19295E+00
 -1      1186 1.57737E+00
 -1      1187 1.15018E+00
 -1      1188 8.33819E-01
 -1      1189 6.08384E-01
 -1      1190 4.24738E-01
 -1      1191 2.94320E-01
 -1      1192 2.02975E-01
 -1      1193 1.40565E-01
 -1      1194 1.03734E-01
 -1      1195 8.20263E-02
 -1      1196 6.38270E-02
 -1      1197 4.69265E-02
 -1      1198 2.91079E-02
 -1      1199 1.28913E-02
 -1      1200 1.40410E+01
 -1      1201 8.72233E+00
 -1      1202 2.91375E+00
 -1      1203 2.05016E+00
 -1      1204 1.41636E+00
 -1      1205 1.04229E+00
 -1      1206 8.44063E-01
 -1      1207 6.91449E-01
 -1      1208 5.67129E-01
 -1      1209 4.64917E-01
 -1      1210 3.80699E-01
 -1      1211 3.11250E-01
 -1      1212 2.53608E-01
 -1      1213 2.05905E-01
 -1      1214 1.79521E-01
 -1      1215 1.66266E-01
 -1      1216 1.68420E-01
 -1      1217 2.13648E-01
 -1      1218 3.03966E-01
 -1      1219 4.03126E-01
 -1      1220 5.35796E-01
 -1      1221 7.15911E-01
 -1      1222 8.65126E-01
 -1      1223 1.06872E+00
 -1      1224 1.43021E+00
 -1      1225 1.79602E+00
 -1      1226 1.98267E+00
 -1      1227 2.14157E+00
 -1      1228 2.26357E+00
 -1      1229 2.24660E+00
 -1      1230 2.08091E+00
 -1      1231 1.70910E+00
 -1      1232 1.28257E+00
 -1      1233 8.86847E-01
 -1      1234 5.77753E-01
 -1      1235 3.72621E-01
 -1      1236 2.40939E-01
 -1      1237 1.89039E-01
 -1      1238 1.80497E-01
 -1      1239 1.73987E-01
 -1      1240 1.53993E-01
 -1      1241 1.25586E-01
 -1      1242 9.82741E-02
 -1      1243 7.79565E-02
 -1      1244 6.33561E-02
 -1      1245 4.99814E-02
 -1      1246 3.67867E-02
 -1      1247 2.66764E-02
 -1      1248 1.82835E-02
 -1      1249 8.84933E-03
 -1      1250 4.76810E-03
 -1      1251 5.48397E-03
 -1      1252 5.62351E-03
 -1      1253 4.66532E-03
 -1      1254 2.84666E-03
 -1      1255 3.09426E-03
 -1      1256 5.00371E-03
 -1      1257 6.14228E-03
 -1      1258 6.47948E-03
 -1      1259 6.33890E-03
 -1      1260 5.43471E-03
 -1      1261 3.59147E-03
 -1      1262 3.69814E-03
 -1      1263 6.14141E-03
 -1      1264 7.39839E-03
 -1      1265 7.06060E-03
 -1      1266 6.37695E-03
 -1      1267 2.44595E+01
 -1      1268 3.44695E+01
 -1      1269 4.44795E+01
 -1      1270 3.10201E+01
 -1      1271 1.46510E+01
 -1      1272 1.18522E+01
 -1      1273 1.24711E+01
 -1      1274 1.29792E+01
 -1      1275 1.27515E+01
 -1      1276 1.23033E+01
 -1      1277 1.81987E+01
 -1      1278 2.80459E+01
 -1      1279 3.17772E+01
 -1      1280 2.80275E+01
 -1      1281 2.44603E+01
 -1      1282 2.52603E+01
 -1      1283 2.96159E+01
 -1      1284 3.33539E+01
 -1      1285 2.83078E+01
 -1      1286 1.88897E+01
 -1      1287 1.46983E+01
 -1      1288 1.48788E+01
 -1      1289 1.45635E+01
 -1      1290 1.40003E+01
 -1      1291 2.00952E+01
 -1      1292 2.77408E+01
 -1      1293 2.90436E+01
 -1      1294 2.74420E+01
 -1      1295 2.51500E+01
 -1      1296 1.33761E+01
 -1      1297 4.91713E+00
 -1      1298 9.78066E+00
 -1      1299 2.05523E+00
 -1      1300 2.97067E+00
 -1      1301 4.23878E+00
 -1      1302 1.39439E+00
 -1      1303 1.66004E+00
 -1      1304 1.89713E+00
 -1      1305 1.09798E+00
 -1      1306 1.22108E+00
 -1      1307 1.32863E+00
 -1      1308 9.33201E-01
 -1      1309 1.00505E+00
 -1      1310 1.06240E+00
 -1      1311 8.33826E-01
 -1      1312 8.79384E-01
 -1      1313 9.15665E-01
 -1      1314 7.72402E-01
 -1      1315 7.99627E-01
 -1      1316 8.27649E-01
 -1      1317 7.52873E-01
 -1      1318 7.52113E-01
 -1      1319 7.73162E-01
 -1      1320 8.02952E-01
 -1      1321 7.74597E-01
 -1      1322 7.74597E-01
 -1      1323 8.80711E-01
 -1      1324 8.36845E-01
 -1      1325 8.30213E-01
 -1      1326 1.01363E+00
 -1      1327 9.37647E-01
 -1      1328 9.21042E-01
 -1      1329 1.23548E+00
 -1      1330 1.10886E+00
 -1      1331 1.07321E+00
 -1      1332 1.67333E+00
 -1      1333 1.41290E+00
 -1      1334 1.34586E+00
 -1      1335 2.87741E+00
 -1      1336 2.03896E+00
 -1      1337 1.88890E+00
 -1      1338 6.28218E+00
 -1      1339 3.71368E+00
 -1      1340 3.09078E+00
 -1      1341 1.40410E+01
 -1      1342 1.13391E+01
 -1      1343 8.98400E+00
 -1      1344 1.40410E+01
 -1      1345 8.82265E+00
 -1      1346 4.26921E+00
 -1      1347 3.84104E+00
 -1      1348 3.41286E+00
 -1      1349 3.84104E+00
 -1      1350 2.79107E+00
 -1      1351 2.16928E+00
 -1      1352 2.79107E+00
 -1      1353 1.82471E+00
 -1      1354 1.44280E+00
 -1      1355 1.82471E+00
 -1      1356 1.22990E+00
 -1      1357 1.05269E+00
 -1      1358 1.26725E+00
 -1      1359 9.31894E-01
 -1      1360 8.12753E-01
 -1      1361 9.33550E-01
 -1      1362 7.31130E-01
 -1      1363 6.49508E-01
 -1      1364 7.31130E-01
 -1      1365 5.83034E-01
 -1      1366 5.16559E-01
 -1      1367 5.83034E-01
 -1      1368 4.67197E-01
 -1      1369 4.17581E-01
 -1      1370 4.67197E-01
 -1      1371 3.81782E-01
 -1      1372 3.46237E-01
 -1      1373 3.82036E-01
 -1      1374 3.23008E-01
 -1      1375 2.99779E-01
 -1      1376 3.23008E-01
 -1      1377 2.81872E-01
 -1      1378 2.86095E-01
 -1      1379 2.81872E-01
 -1      1380 3.08225E-01
 -1      1381 3.48266E-01
 -1      1382 2.86095E-01
 -1      1383 3.89992E-01
 -1      1384 4.52333E-01
 -1      1385 3.49951E-01
 -1      1386 5.18906E-01
 -1      1387 6.10888E-01
 -1      1388 4.58250E-01
 -1      1389 7.57119E-01
 -1      1390 8.86025E-01
 -1      1391 6.71054E-01
 -1      1392 1.08435E+00
 -1      1393 1.21987E+00
 -1      1394 1.01561E+00
 -1      1395 1.49166E+00
 -1      1396 1.71349E+00
 -1      1397 1.48572E+00
 -1      1398 2.05852E+00
 -1      1399 2.41178E+00
 -1      1400 2.10254E+00
 -1      1401 2.78563E+00
 -1      1402 3.22106E+00
 -1      1403 2.82141E+00
 -1      1404 3.52020E+00
 -1      1405 4.07670E+00
 -1      1406 3.49440E+00
 -1      1407 4.35986E+00
 -1      1408 4.75820E+00
 -1      1409 4.07670E+00
 -1      1410 5.15654E+00
 -1      1411 5.15654E+00
 -1      1412 4.75820E+00
 -1      1413 5.12883E+00
 -1      1414 4.86993E+00
 -1      1415 5.12883E+00
 -1      1416 4.63636E+00
 -1      1417 6.55557E+00
 -1      1418 4.86755E+00
 -1      1419 8.47715E+00
 -1      1420 1.13604E+01
 -1      1421 6.55557E+00
 -1      1422 1.42437E+01
 -1      1423 1.43345E+01
 -1      1424 1.13604E+01
 -1      1425 1.44254E+01
 -1      1426 1.44254E+01
 -1      1427 1.43345E+01
 -1      1428 1.27024E+01
 -1      1429 1.09795E+01
 -1      1430 1.27024E+01
 -1      1431 8.11621E+00
 -1      1432 4.99410E+00
 -1      1433 8.11621E+00
 -1      1434 4.67596E+00
 -1      1435 4.88684E+00
 -1      1436 4.93484E+00
 -1      1437 5.15697E+00
 -1      1438 5.15697E+00
 -1      1439 4.88684E+00
 -1      1440 4.89893E+00
 -1      1441 4.64088E+00
 -1      1442 4.89893E+00
 -1      1443 4.20935E+00
 -1      1444 3.62417E+00
 -1      1445 4.20935E+00
 -1      1446 3.23602E+00
 -1      1447 2.79041E+00
 -1      1448 3.38966E+00
 -1      1449 2.47366E+00
 -1      1450 2.08730E+00
 -1      1451 2.68476E+00
 -1      1452 1.77227E+00
 -1      1453 1.54305E+00
 -1      1454 2.05298E+00
 -1      1455 1.26735E+00
 -1      1456 1.06938E+00
 -1      1457 1.46225E+00
 -1      1458 8.94976E-01
 -1      1459 7.76591E-01
 -1      1460 1.01215E+00
 -1      1461 6.35113E-01
 -1      1462 5.28063E-01
 -1      1463 6.96269E-01
 -1      1464 4.37703E-01
 -1      1465 3.61106E-01
 -1      1466 4.64431E-01
 -1      1467 3.06394E-01
 -1      1468 2.52573E-01
 -1      1469 3.19359E-01
 -1      1470 2.13408E-01
 -1      1471 1.75882E-01
 -1      1472 2.25481E-01
 -1      1473 1.45836E-01
 -1      1474 1.20952E-01
 -1      1475 1.56269E-01
 -1      1476 1.04153E-01
 -1      1477 9.22061E-02
 -1      1478 1.09424E-01
 -1      1479 8.20263E-02
 -1      1480 7.22651E-02
 -1      1481 8.24449E-02
 -1      1482 6.38270E-02
 -1      1483 5.53889E-02
 -1      1484 6.38270E-02
 -1      1485 4.69265E-02
 -1      1486 3.84641E-02
 -1      1487 4.69265E-02
 -1      1488 3.02930E-02
 -1      1489 2.09367E-02
 -1      1490 3.02930E-02
 -1      1491 1.32372E-02
 -1      1492 3.40371E+00
 -1      1493 8.72233E+00
 -1      1494 8.72233E+00
 -1      1495 2.42378E+00
 -1      1496 2.91375E+00
 -1      1497 2.91375E+00
 -1      1498 1.67654E+00
 -1      1499 2.05016E+00
 -1      1500 2.05016E+00
 -1      1501 1.15617E+00
 -1      1502 1.41636E+00
 -1      1503 1.41636E+00
 -1      1504 9.28414E-01
 -1      1505 1.04229E+00
 -1      1506 1.04229E+00
 -1      1507 7.59712E-01
 -1      1508 8.44063E-01
 -1      1509 8.44063E-01
 -1      1510 6.23186E-01
 -1      1511 6.91449E-01
 -1      1512 6.91449E-01
 -1      1513 5.11073E-01
 -1      1514 5.67129E-01
 -1      1515 5.67129E-01
 -1      1516 4.18762E-01
 -1      1517 4.64917E-01
 -1      1518 4.64917E-01
 -1      1519 3.42635E-01
 -1      1520 3.80699E-01
 -1      1521 3.80699E-01
 -1      1522 2.79866E-01
 -1      1523 3.11250E-01
 -1      1524 3.11250E-01
 -1      1525 2.27351E-01
 -1      1526 2.53608E-01
 -1      1527 2.53608E-01
 -1      1528 1.84458E-01
 -1      1529 2.05905E-01
 -1      1530 2.05905E-01
 -1      1531 1.74583E-01
 -1      1532 1.79521E-01
 -1      1533 1.79521E-01
 -1      1534 1.57948E-01
 -1      1535 1.66266E-01
 -1      1536 1.66266E-01
 -1      1537 1.61155E-01
 -1      1538 1.50684E-01
 -1      1539 1.50684E-01
 -1      1540 2.13648E-01
 -1      1541 1.78891E-01
 -1      1542 1.61155E-01
 -1      1543 3.03966E-01
 -1      1544 2.48404E-01
 -1      1545 2.13648E-01
 -1      1546 4.03126E-01
 -1      1547 3.59529E-01
 -1      1548 3.03966E-01
 -1      1549 5.45275E-01
 -1      1550 4.56202E-01
 -1      1551 4.12605E-01
 -1      1552 7.15911E-01
 -1      1553 6.24868E-01
 -1      1554 5.45275E-01
 -1      1555 8.65126E-01
 -1      1556 8.06955E-01
 -1      1557 7.15911E-01
 -1      1558 1.11143E+00
 -1      1559 9.66007E-01
 -1      1560 9.07836E-01
 -1      1561 1.49281E+00
 -1      1562 1.27674E+00
 -1      1563 1.17403E+00
 -1      1564 1.79602E+00
 -1      1565 1.64628E+00
 -1      1566 1.49281E+00
 -1      1567 1.98267E+00
 -1      1568 1.94576E+00
 -1      1569 1.79602E+00
 -1      1570 2.14157E+00
 -1      1571 2.01958E+00
 -1      1572 1.98267E+00
 -1      1573 2.26357E+00
 -1      1574 2.26357E+00
 -1      1575 2.14157E+00
 -1      1576 2.22964E+00
 -1      1577 2.24660E+00
 -1      1578 2.24660E+00
 -1      1579 1.93218E+00
 -1      1580 2.08091E+00
 -1      1581 2.08091E+00
 -1      1582 1.48602E+00
 -1      1583 1.70910E+00
 -1      1584 1.70910E+00
 -1      1585 1.08199E+00
 -1      1586 1.28543E+00
 -1      1587 1.28543E+00
 -1      1588 7.22055E-01
 -1      1589 9.14343E-01
 -1      1590 9.17197E-01
 -1      1591 4.60946E-01
 -1      1592 5.77753E-01
 -1      1593 6.05249E-01
 -1      1594 2.84296E-01
 -1      1595 3.72621E-01
 -1      1596 3.72621E-01
 -1      1597 1.97582E-01
 -1      1598 2.40939E-01
 -1      1599 2.40939E-01
 -1      1600 1.74147E-01
 -1      1601 1.82689E-01
 -1      1602 1.82689E-01
 -1      1603 1.80497E-01
 -1      1604 1.80497E-01
 -1      1605 1.74147E-01
 -1      1606 1.67478E-01
 -1      1607 1.73987E-01
 -1      1608 1.73987E-01
 -1      1609 1.40507E-01
 -1      1610 1.53993E-01
 -1      1611 1.53993E-01
 -1      1612 1.10666E-01
 -1      1613 1.25586E-01
 -1      1614 1.25586E-01
 -1      1615 8.72229E-02
 -1      1616 9.96143E-02
 -1      1617 9.96143E-02
 -1      1618 7.00303E-02
 -1      1619 7.79565E-02
 -1      1620 7.92967E-02
 -1      1621 5.66819E-02
 -1      1622 6.33561E-02
 -1      1623 6.33561E-02
 -1      1624 4.32809E-02
 -1      1625 4.99814E-02
 -1      1626 4.99814E-02
 -1      1627 3.04819E-02
 -1      1628 3.69760E-02
 -1      1629 3.69760E-02
 -1      1630 2.30601E-02
 -1      1631 2.66764E-02
 -1      1632 2.68657E-02
 -1      1633 1.35069E-02
 -1      1634 1.82835E-02
 -1      1635 1.82835E-02
 -1      1636 9.42566E-03
 -1      1637 7.03527E-03
 -1      1638 6.89573E-03
 -1      1639 7.53961E-03
 -1      1640 7.53961E-03
 -1      1641 8.95137E-03
 -1      1642 6.58142E-03
 -1      1643 7.53961E-03
 -1      1644 9.45572E-03
 -1      1645 3.69073E-03
 -1      1646 4.55121E-03
 -1      1647 7.42550E-03
 -1      1648 5.93313E-03
 -1      1649 4.82505E-03
 -1      1650 6.52960E-03
 -1      1651 8.40584E-03
 -1      1652 7.60447E-03
 -1      1653 9.33526E-03
 -1      1654 9.66338E-03
 -1      1655 9.32617E-03
 -1      1656 1.19269E-02
 -1      1657 9.81503E-03
 -1      1658 9.81503E-03
 -1      1659 1.29989E-02
 -1      1660 9.67446E-03
 -1      1661 9.81503E-03
 -1      1662 1.31506E-02
 -1      1663 8.52003E-03
 -1      1664 9.28364E-03
 -1      1665 1.27598E-02
 -1      1666 6.07415E-03
 -1      1667 7.15378E-03
 -1      1668 1.10027E-02
 -1      1669 6.20770E-03
 -1      1670 5.02140E-03
 -1      1671 8.58371E-03
 -1      1672 9.65383E-03
 -1      1673 8.39685E-03
 -1      1674 9.72012E-03
 -1      1675 1.14020E-02
 -1      1676 1.14020E-02
 -1      1677 1.36575E-02
 -1      1678 2.67920E+01
 -1      1679 2.67920E+01
 -1      1680 4.15427E+01
 -1      1681 3.15327E+01
 -1      1682 4.44795E+01
 -1      1683 4.44795E+01
 -1      1684 1.76295E+01
 -1      1685 3.10889E+01
 -1      1686 1.13686E+01
 -1      1687 1.42783E+01
 -1      1688 1.18522E+01
 -1      1689 1.17414E+01
 -1      1690 1.24711E+01
 -1      1691 1.19631E+01
 -1      1692 1.29792E+01
 -1      1693 1.29792E+01
 -1      1694 1.25238E+01
 -1      1695 1.27515E+01
 -1      1696 1.17460E+01
 -1      1697 1.19666E+01
 -1      1698 1.81987E+01
 -1      1699 1.20828E+01
 -1      1700 2.90340E+01
 -1      1701 2.53027E+01
 -1      1702 3.20299E+01
 -1      1703 3.20299E+01
 -1      1704 2.82802E+01
 -1      1705 3.20299E+01
 -1      1706 2.78195E+01
 -1      1707 2.76370E+01
 -1      1708 2.84370E+01
 -1      1709 2.78195E+01
 -1      1710 3.21307E+01
 -1      1711 2.83926E+01
 -1      1712 3.33539E+01
 -1      1713 3.33539E+01
 -1      1714 2.45817E+01
 -1      1715 2.96278E+01
 -1      1716 1.33898E+01
 -1      1717 1.77617E+01
 -1      1718 1.46983E+01
 -1      1719 1.45178E+01
 -1      1720 1.48788E+01
 -1      1721 1.48788E+01
 -1      1722 1.42483E+01
 -1      1723 1.45635E+01
 -1      1724 1.33975E+01
 -1      1725 1.36455E+01
 -1      1726 2.00952E+01
 -1      1727 1.37523E+01
 -1      1728 2.89154E+01
 -1      1729 2.76127E+01
 -1      1730 3.17807E+01
 -1      1731 3.17807E+01
 -1      1732 3.01792E+01
 -1      1733 3.17807E+01
 -1      1734 2.67920E+01
 -1      1735 2.74824E+01
 -1      1736 1.44224E-02
 -1      1737 4.15427E+01
 -1      1738 9.42566E-03
 -1      1739 1.09770E-02
 -1      1740 2.91244E+01
 -1      1741 3.38651E+01
 -1      1742 1.10642E-02
 -1      1743 1.14020E-02
 -1      1744 1.54057E-02
 -1      1745 3.10889E+01
 -1      1746 1.43471E+01
 -1      1747 1.13686E+01
 -1      1748 1.18522E+01
 -1      1749 1.24711E+01
 -1      1750 1.27515E+01
 -1      1751 1.19666E+01
 -1      1752 1.17460E+01
 -1      1753 1.91868E+01
 -1      1754 2.92868E+01
 -1      1755 3.22826E+01
 -1      1756 3.16394E+01
 -1      1757 3.09962E+01
 -1      1758 3.09518E+01
 -1      1759 3.21307E+01
 -1      1760 2.96278E+01
 -1      1761 1.90818E+01
 -1      1762 1.33898E+01
 -1      1763 1.46983E+01
 -1      1764 1.45635E+01
 -1      1765 1.36455E+01
 -1      1766 1.33975E+01
 -1      1767 2.12698E+01
 -1      1768 3.16526E+01
 -1      1769 3.45179E+01
 -1      1770 3.18212E+01
 -1      1771 9.78066E+00
 -1      1772 1.28356E+00
 -1      1773 1.67875E+00
 -1      1774 2.41165E+00
 -1      1775 4.35811E+00
 -1      1776 1.79808E+00
 -1      1777 8.77963E-01
 -1      1778 9.70884E-01
 -1      1779 7.77231E-01
 -1      1780 8.31048E-01
 -1      1781 7.39528E-01
 -1      1782 7.11430E-01
 -1      1783 7.45628E-01
 -1      1784 6.61011E-01
 -1      1785 6.69016E-01
 -1      1786 6.89304E-01
 -1      1787 6.07283E-01
 -1      1788 6.92101E-01
 -1      1789 6.70378E-01
 -1      1790 5.86520E-01
 -1      1791 7.47844E-01
 -1      1792 7.13951E-01
 -1      1793 6.09732E-01
 -1      1794 8.38159E-01
 -1      1795 7.81223E-01
 -1      1796 6.64961E-01
 -1      1797 9.81059E-01
 -1      1798 8.85828E-01
 -1      1799 7.46009E-01
 -1      1800 1.22549E+00
 -1      1801 1.04807E+00
 -1      1802 8.60693E-01
 -1      1803 1.69609E+00
 -1      1804 1.33047E+00
 -1      1805 1.03269E+00
 -1      1806 2.62507E+00
 -1      1807 1.78881E+00
 -1      1808 1.23038E+00
 -1      1809 8.11884E+00
 -1      1810 3.06189E+00
 -1      1811 1.75991E+00
 -1      1812 2.80022E+00
 -1      1813 5.22723E+00
 -1      1814 2.16762E+00
 -1      1815 2.65758E+00
 -1      1816 2.05409E+00
 -1      1817 2.57973E+00
 -1      1818 1.95794E+00
 -1      1819 1.73173E+00
 -1      1820 1.38716E+00
 -1      1821 1.52039E+00
 -1      1822 1.20507E+00
 -1      1823 9.92169E-01
 -1      1824 1.11208E+00
 -1      1825 8.67817E-01
 -1      1826 7.47019E-01
 -1      1827 8.05638E-01
 -1      1828 6.92779E-01
 -1      1829 6.11156E-01
 -1      1830 6.27045E-01
 -1      1831 5.64244E-01
 -1      1832 4.97770E-01
 -1      1833 5.25893E-01
 -1      1834 4.57332E-01
 -1      1835 4.07969E-01
 -1      1836 4.38543E-01
 -1      1837 3.73872E-01
 -1      1838 3.38073E-01
 -1      1839 3.64006E-01
 -1      1840 3.10136E-01
 -1      1841 2.86907E-01
 -1      1842 3.01972E-01
 -1      1843 2.60252E-01
 -1      1844 2.42345E-01
 -1      1845 2.47380E-01
 -1      1846 2.54274E-01
 -1      1847 2.76404E-01
 -1      1848 2.32654E-01
 -1      1849 3.05733E-01
 -1      1850 3.47459E-01
 -1      1851 2.73912E-01
 -1      1852 4.20013E-01
 -1      1853 4.86585E-01
 -1      1854 3.75794E-01
 -1      1855 6.09597E-01
 -1      1856 7.55827E-01
 -1      1857 5.71359E-01
 -1      1858 9.20655E-01
 -1      1859 1.11898E+00
 -1      1860 8.59198E-01
 -1      1861 1.34970E+00
 -1      1862 1.62149E+00
 -1      1863 1.25475E+00
 -1      1864 1.93314E+00
 -1      1865 2.27817E+00
 -1      1866 1.79712E+00
 -1      1867 2.66912E+00
 -1      1868 3.04297E+00
 -1      1869 2.49972E+00
 -1      1870 3.48701E+00
 -1      1871 3.78615E+00
 -1      1872 3.33472E+00
 -1      1873 4.21095E+00
 -1      1874 4.49411E+00
 -1      1875 4.20356E+00
 -1      1876 4.89002E+00
 -1      1877 5.28836E+00
 -1      1878 5.02427E+00
 -1      1879 6.29131E+00
 -1      1880 6.26360E+00
 -1      1881 6.42313E+00
 -1      1882 6.25889E+00
 -1      1883 6.02532E+00
 -1      1884 7.42136E+00
 -1      1885 1.29648E+01
 -1      1886 1.30556E+01
 -1      1887 1.25502E+01
 -1      1888 1.08273E+01
 -1      1889 8.33001E+00
 -1      1890 5.46677E+00
 -1      1891 6.68795E+00
 -1      1892 6.36982E+00
 -1      1893 6.90175E+00
 -1      1894 5.59819E+00
 -1      1895 5.86832E+00
 -1      1896 7.35130E+00
 -1      1897 4.94693E+00
 -1      1898 4.68889E+00
 -1      1899 5.65828E+00
 -1      1900 4.33599E+00
 -1      1901 3.90446E+00
 -1      1902 4.38399E+00
 -1      1903 3.60569E+00
 -1      1904 3.21753E+00
 -1      1905 3.73232E+00
 -1      1906 2.86116E+00
 -1      1907 2.54441E+00
 -1      1908 3.07719E+00
 -1      1909 2.20183E+00
 -1      1910 1.88679E+00
 -1      1911 2.37823E+00
 -1      1912 1.59381E+00
 -1      1913 1.31811E+00
 -1      1914 1.74265E+00
 -1      1915 1.11329E+00
 -1      1916 9.38890E-01
 -1      1917 1.24485E+00
 -1      1918 7.75724E-01
 -1      1919 6.34246E-01
 -1      1920 8.76867E-01
 -1      1921 5.18957E-01
 -1      1922 4.28597E-01
 -1      1923 5.98412E-01
 -1      1924 3.48703E-01
 -1      1925 2.93991E-01
 -1      1926 4.03229E-01
 -1      1927 2.39274E-01
 -1      1928 2.00108E-01
 -1      1929 2.68618E-01
 -1      1930 1.61031E-01
 -1      1931 1.30984E-01
 -1      1932 1.74823E-01
 -1      1933 1.09424E-01
 -1      1934 9.26247E-02
 -1      1935 1.14185E-01
 -1      1936 7.91468E-02
 -1      1937 6.89670E-02
 -1      1938 7.91468E-02
 -1      1939 5.96292E-02
 -1      1940 5.11911E-02
 -1      1941 5.63311E-02
 -1      1942 4.39675E-02
 -1      1943 3.55052E-02
 -1      1944 3.97698E-02
 -1      1945 2.98911E-02
 -1      1946 2.17200E-02
 -1      1947 2.69322E-02
 -1      1948 1.40444E+00
 -1      1949 1.77806E+00
 -1      1950 1.52190E+00
 -1      1951 3.50637E+01
 -1      1952 3.21269E+01
 -1      1953 9.85729E-01
 -1      1954 1.24591E+00
 -1      1955 9.73810E-01
 -1      1956 8.14005E-01
 -1      1957 9.27885E-01
 -1      1958 7.57441E-01
 -1      1959 6.51609E-01
 -1      1960 7.35960E-01
 -1      1961 6.21551E-01
 -1      1962 5.36063E-01
 -1      1963 6.04326E-01
 -1      1964 4.96223E-01
 -1      1965 4.46466E-01
 -1      1966 5.02522E-01
 -1      1967 4.15400E-01
 -1      1968 3.71913E-01
 -1      1969 4.18068E-01
 -1      1970 3.53461E-01
 -1      1971 3.08715E-01
 -1      1972 3.46779E-01
 -1      1973 2.99929E-01
 -1      1974 2.55269E-01
 -1      1975 2.86654E-01
 -1      1976 2.52734E-01
 -1      1977 2.09548E-01
 -1      1978 2.35806E-01
 -1      1979 2.11209E-01
 -1      1980 1.69867E-01
 -1      1981 1.91314E-01
 -1      1982 1.73511E-01
 -1      1983 1.60698E-01
 -1      1984 1.65636E-01
 -1      1985 1.51045E-01
 -1      1986 1.45703E-01
 -1      1987 1.54021E-01
 -1      1988 1.40136E-01
 -1      1989 1.26843E-01
 -1      1990 1.34107E-01
 -1      1991 1.21862E-01
 -1      1992 1.35113E-01
 -1      1993 1.17377E-01
 -1      1994 1.00800E-01
 -1      1995 2.06421E-01
 -1      1996 1.71665E-01
 -1      1997 1.27887E-01
 -1      1998 3.41525E-01
 -1      1999 2.85962E-01
 -1      2000 2.43979E-01
 -1      2001 4.95421E-01
 -1      2002 4.42345E-01
 -1      2003 4.24340E-01
 -1      2004 6.89841E-01
 -1      2005 6.10248E-01
 -1      2006 6.39987E-01
 -1      2007 8.96316E-01
 -1      2008 8.05272E-01
 -1      2009 8.70245E-01
 -1      2010 1.12429E+00
 -1      2011 1.02341E+00
 -1      2012 1.11277E+00
 -1      2013 1.37912E+00
 -1      2014 1.21380E+00
 -1      2015 1.32938E+00
 -1      2016 1.56431E+00
 -1      2017 1.41084E+00
 -1      2018 1.45061E+00
 -1      2019 1.71405E+00
 -1      2020 1.56431E+00
 -1      2021 1.48234E+00
 -1      2022 1.74073E+00
 -1      2023 1.70382E+00
 -1      2024 1.47211E+00
 -1      2025 1.86685E+00
 -1      2026 1.74485E+00
 -1      2027 1.46601E+00
 -1      2028 1.87701E+00
 -1      2029 1.89398E+00
 -1      2030 1.49725E+00
 -1      2031 1.67380E+00
 -1      2032 1.82253E+00
 -1      2033 1.46990E+00
 -1      2034 1.33111E+00
 -1      2035 1.55420E+00
 -1      2036 1.29581E+00
 -1      2037 1.00858E+00
 -1      2038 1.20917E+00
 -1      2039 1.05427E+00
 -1      2040 7.15546E-01
 -1      2041 8.83192E-01
 -1      2042 8.06933E-01
 -1      2043 4.52558E-01
 -1      2044 5.96860E-01
 -1      2045 5.62855E-01
 -1      2046 2.71081E-01
 -1      2047 3.59406E-01
 -1      2048 3.51018E-01
 -1      2049 1.69914E-01
 -1      2050 2.13272E-01
 -1      2051 2.00056E-01
 -1      2052 1.31414E-01
 -1      2053 1.46307E-01
 -1      2054 1.18639E-01
 -1      2055 1.45716E-01
 -1      2056 1.39366E-01
 -1      2057 1.02984E-01
 -1      2058 1.43528E-01
 -1      2059 1.50037E-01
 -1      2060 1.15257E-01
 -1      2061 1.25997E-01
 -1      2062 1.39482E-01
 -1      2063 1.15532E-01
 -1      2064 1.03354E-01
 -1      2065 1.18275E-01
 -1      2066 1.03765E-01
 -1      2067 8.52225E-02
 -1      2068 9.62738E-02
 -1      2069 8.89627E-02
 -1      2070 6.75496E-02
 -1      2071 7.68160E-02
 -1      2072 7.34754E-02
 -1      2073 5.46081E-02
 -1      2074 6.12822E-02
 -1      2075 5.88015E-02
 -1      2076 4.23851E-02
 -1      2077 4.90856E-02
 -1      2078 4.70117E-02
 -1      2079 3.06712E-02
 -1      2080 3.69760E-02
 -1      2081 3.60802E-02
 -1      2082 2.16521E-02
 -1      2083 2.54577E-02
 -1      2084 2.54577E-02
 -1      2085 1.21957E-02
 -1      2086 1.69723E-02
 -1      2087 1.55643E-02
 -1      2088 9.66572E-03
 -1      2089 8.03135E-03
 -1      2090 1.00616E-02
 -1      2091 1.30031E-02
 -1      2092 1.30031E-02
 -1      2093 1.36090E-02
 -1      2094 1.30031E-02
 -1      2095 1.24988E-02
 -1      2096 1.37175E-02
 -1      2097 1.65505E-02
 -1      2098 8.79342E-03
 -1      2099 7.65910E-03
 -1      2100 1.02952E-02
 -1      2101 1.29890E-02
 -1      2102 1.13176E-02
 -1      2103 1.24471E-02
 -1      2104 1.55639E-02
 -1      2105 1.46436E-02
 -1      2106 1.66259E-02
 -1      2107 1.61197E-02
 -1      2108 1.59680E-02
 -1      2109 1.86847E-02
 -1      2110 1.64697E-02
 -1      2111 1.64697E-02
 -1      2112 1.94388E-02
 -1      2113 1.60789E-02
 -1      2114 1.64697E-02
 -1      2115 1.97889E-02
 -1      2116 1.41362E-02
 -1      2117 1.55024E-02
 -1      2118 1.92124E-02
 -1      2119 1.09039E-02
 -1      2120 1.19566E-02
 -1      2121 1.64563E-02
 -1      2122 1.75744E-02
 -1      2123 1.53853E-02
 -1      2124 1.87582E-02
 -1      2125 1.93226E-02
 -1      2126 1.75744E-02
 -1      2127 2.32396E-02
 -1      2128 1.61157E+01
 -1      2129 2.95063E+01
 -1      2130 1.87638E-02
 -1      2131 3.40010E+00
 -1      2132 3.35805E+01
 -1      2133 3.35805E+01
 -1      2134 1.03284E+00
 -1      2135 1.20614E+00
 -1      2136 9.87764E-01
 -1      2137 8.48396E-01
 -1      2138 9.45926E+00
 -1      2139 1.28104E+01
 -1      2140 1.12279E+01
 -1      2141 9.68728E+00
 -1      2142 9.31453E+00
 -1      2143 1.09119E+01
 -1      2144 1.08011E+01
 -1      2145 1.15080E+01
 -1      2146 1.09999E+01
 -1      2147 9.94877E+00
 -1      2148 1.06873E+01
 -1      2149 1.09150E+01
 -1      2150 1.00892E+01
 -1      2151 1.06465E+01
 -1      2152 9.56980E+00
 -1      2153 9.23307E+00
 -1      2154 1.86224E+01
 -1      2155 1.15183E+01
 -1      2156 2.54288E+01
 -1      2157 2.24329E+01
 -1      2158 3.22826E+01
 -1      2159 3.22826E+01
 -1      2160 3.27907E+01
 -1      2161 3.34340E+01
 -1      2162 3.37225E+01
 -1      2163 3.37225E+01
 -1      2164 3.36781E+01
 -1      2165 3.37225E+01
 -1      2166 3.21307E+01
 -1      2167 3.09074E+01
 -1      2168 2.21437E+01
 -1      2169 2.58697E+01
 -1      2170 2.46465E+01
 -1      2171 1.15644E+01
 -1      2172 1.83844E+01
 -1      2173 1.06615E+01
 -1      2174 9.53348E+00
 -1      2175 8.83610E+00
 -1      2176 1.22109E+01
 -1      2177 1.20304E+01
 -1      2178 8.17413E+00
 -1      2179 1.29671E+01
 -1      2180 1.32823E+01
 -1      2181 1.18589E+01
 -1      2182 1.24617E+01
 -1      2183 1.07466E+01
 -1      2184 1.03918E+01
 -1      2185 2.01201E+01
 -1      2186 1.26027E+01
 -1      2187 2.74506E+01
 -1      2188 2.45853E+01
 -1      2189 3.45179E+01
 -1      2190 3.45179E+01
 -1      2191 3.35805E+01
 -1      2192 3.62773E+01
 -1      2193 3.28382E+01
 -1      2194 2.80975E+01
 -1      2195 1.83619E-02
 -1      2196 3.80367E+01
 -1      2197 1.11805E+01
 -1      2198 2.63593E+01
 -1      2199 2.97192E+00
 -1      2200 2.13879E+00
 -1      2201 5.36111E+00
 -1      2202 7.28270E+00
 -1      2203 9.01012E+00
 -1      2204 1.18934E+01
 -1      2205 8.17782E+00
 -1      2206 2.00905E+01
 -1      2207 1.10043E+01
 -1      2208 9.53316E+00
 -1      2209 8.94020E+00
 -1      2210 7.77791E+00
 -1      2211 1.83619E-02
 -1      2212 3.25536E+01
 -1      2213 3.62773E+01
 -1      2214 2.74506E+01
 -1      2215 1.59182E+01
 -1      2216 9.59699E+00
 -1      2217 1.06145E+01
 -1      2218 1.46263E+01
 -1      2219 3.36781E+01
 -1      2220 3.64488E+01
 -1      2221 3.55171E+01
 -1      2222 3.34340E+01
 -1      2223 2.54288E+01
 -1      2224 1.47644E+01
 -1      2225 9.00536E+00
 -1      2226 7.91299E+00
 -1      2227 6.75245E+00
 -1      2228 2.22789E-02
 -1      2229 8.74696E+00
 -1      2230 8.81001E+00
 -1      2231 5.56774E-01
 -1      2232 5.88377E-01
 -1      2233 6.00724E-01
 -1      2234 6.47639E-01
 -1      2235 4.96487E-01
 -1      2236 5.08190E-01
 -1      2237 5.06828E-01
 -1      2238 5.43047E-01
 -1      2239 5.21198E-01
 -1      2240 4.41506E-01
 -1      2241 5.91337E-01
 -1      2242 5.57958E-01
 -1      2243 4.69424E-01
 -1      2244 6.51183E-01
 -1      2245 6.03514E-01
 -1      2246 4.96511E-01
 -1      2247 7.18198E-01
 -1      2248 6.51183E-01
 -1      2249 5.08689E-01
 -1      2250 8.20708E-01
 -1      2251 7.15729E-01
 -1      2252 5.06219E-01
 -1      2253 9.81160E-01
 -1      2254 8.88444E-01
 -1      2255 5.71486E-01
 -1      2256 1.75486E+00
 -1      2257 1.31804E+00
 -1      2258 9.76106E-01
 -1      2259 1.61222E+00
 -1      2260 1.28036E+00
 -1      2261 1.05415E+00
 -1      2262 2.69722E-02
 -1      2263 2.79329E-02
 -1      2264 3.25862E-02
 -1      2265 6.44670E+00
 -1      2266 7.64116E+00
 -1      2267 7.51717E+00
 -1      2268 1.08224E+01
 -1      2269 2.25302E+01
 -1      2270 2.32415E+01
 -1      2271 1.00237E+00
 -1      2272 8.20275E-01
 -1      2273 7.62341E-01
 -1      2274 7.65121E-01
 -1      2275 6.40769E-01
 -1      2276 6.55406E-01
 -1      2277 5.83854E-01
 -1      2278 5.29613E-01
 -1      2279 5.43337E-01
 -1      2280 4.80846E-01
 -1      2281 4.33934E-01
 -1      2282 4.37655E-01
 -1      2283 4.10129E-01
 -1      2284 3.69691E-01
 -1      2285 3.65082E-01
 -1      2286 3.43833E-01
 -1      2287 3.09735E-01
 -1      2288 3.15420E-01
 -1      2289 2.83651E-01
 -1      2290 2.55714E-01
 -1      2291 2.63477E-01
 -1      2292 2.27534E-01
 -1      2293 2.00879E-01
 -1      2294 2.09213E-01
 -1      2295 1.90307E-01
 -1      2296 2.02235E-01
 -1      2297 1.70460E-01
 -1      2298 2.18757E-01
 -1      2299 2.48086E-01
 -1      2300 1.76410E-01
 -1      2301 3.08784E-01
 -1      2302 3.81338E-01
 -1      2303 2.53630E-01
 -1      2304 4.68834E-01
 -1      2305 5.91845E-01
 -1      2306 4.01824E-01
 -1      2307 7.05712E-01
 -1      2308 8.70540E-01
 -1      2309 6.03187E-01
 -1      2310 1.03036E+00
 -1      2311 1.26108E+00
 -1      2312 8.76873E-01
 -1      2313 1.49603E+00
 -1      2314 1.80767E+00
 -1      2315 1.27163E+00
 -1      2316 2.17517E+00
 -1      2317 2.56613E+00
 -1      2318 1.87408E+00
 -1      2319 3.08512E+00
 -1      2320 3.52917E+00
 -1      2321 2.76058E+00
 -1      2322 4.25171E+00
 -1      2323 4.67651E+00
 -1      2324 4.00212E+00
 -1      2325 5.87298E+00
 -1      2326 6.26889E+00
 -1      2327 5.92113E+00
 -1      2328 6.90840E+00
 -1      2329 7.91135E+00
 -1      2330 7.75711E+00
 -1      2331 8.20689E+00
 -1      2332 8.20218E+00
 -1      2333 1.03665E+00
 -1      2334 1.42621E+00
 -1      2335 1.12697E+00
 -1      2336 3.80367E+01
 -1      2337 3.80367E+01
 -1      2338 9.02449E+00
 -1      2339 8.25286E+00
 -1      2340 7.50180E+00
 -1      2341 6.58041E+00
 -1      2342 9.17499E+00
 -1      2343 5.46897E+00
 -1      2344 5.11607E+00
 -1      2345 7.31249E+00
 -1      2346 4.30217E+00
 -1      2347 4.00339E+00
 -1      2348 5.38714E+00
 -1      2349 3.32572E+00
 -1      2350 2.96935E+00
 -1      2351 3.89556E+00
 -1      2352 2.49858E+00
 -1      2353 2.15600E+00
 -1      2354 2.74712E+00
 -1      2355 1.82872E+00
 -1      2356 1.53573E+00
 -1      2357 1.94907E+00
 -1      2358 1.30039E+00
 -1      2359 1.09557E+00
 -1      2360 1.38646E+00
 -1      2361 9.22494E-01
 -1      2362 7.59329E-01
 -1      2363 9.78037E-01
 -1      2364 6.36621E-01
 -1      2365 5.21333E-01
 -1      2366 6.82249E-01
 -1      2367 4.34656E-01
 -1      2368 3.54762E-01
 -1      2369 4.72865E-01
 -1      2370 2.93847E-01
 -1      2371 2.39130E-01
 -1      2372 3.25274E-01
 -1      2373 1.95740E-01
 -1      2374 1.56663E-01
 -1      2375 2.20970E-01
 -1      2376 1.29084E-01
 -1      2377 1.07524E-01
 -1      2378 1.50001E-01
 -1      2379 8.66887E-02
 -1      2380 7.32108E-02
 -1      2381 1.01588E-01
 -1      2382 5.83426E-02
 -1      2383 4.90048E-02
 -1      2384 6.58844E-02
 -1      2385 4.14602E-02
 -1      2386 3.42367E-02
 -1      2387 3.42767E-02
 -1      2388 4.34717E-02
 -1      2389 6.99596E-01
 -1      2390 7.57441E-01
 -1      2391 7.79255E-01
 -1      2392 9.37780E-01
 -1      2393 8.42091E-01
 -1      2394 7.21411E-01
 -1      2395 4.48940E-01
 -1      2396 4.96223E-01
 -1      2397 3.81859E-01
 -1      2398 4.15400E-01
 -1      2399 4.15400E-01
 -1      2400 3.20582E-01
 -1      2401 3.48980E-01
 -1      2402 3.48980E-01
 -1      2403 2.64709E-01
 -1      2404 2.89843E-01
 -1      2405 2.85363E-01
 -1      2406 2.14571E-01
 -1      2407 2.36632E-01
 -1      2408 2.26546E-01
 -1      2409 1.70774E-01
 -1      2410 1.90237E-01
 -1      2411 1.74135E-01
 -1      2412 1.38590E-01
 -1      2413 1.56825E-01
 -1      2414 1.35853E-01
 -1      2415 1.32969E-01
 -1      2416 1.37200E-01
 -1      2417 1.20514E-01
 -1      2418 1.22687E-01
 -1      2419 1.29365E-01
 -1      2420 1.15519E-01
 -1      2421 1.07415E-01
 -1      2422 1.19011E-01
 -1      2423 1.08239E-01
 -1      2424 1.09171E-01
 -1      2425 1.18636E-01
 -1      2426 1.15785E-01
 -1      2427 1.63436E-01
 -1      2428 1.26884E-01
 -1      2429 1.44720E-01
 -1      2430 2.95687E-01
 -1      2431 2.16146E-01
 -1      2432 2.15144E-01
 -1      2433 4.64690E-01
 -1      2434 3.63869E-01
 -1      2435 3.36036E-01
 -1      2436 6.74186E-01
 -1      2437 5.59359E-01
 -1      2438 4.98888E-01
 -1      2439 9.14282E-01
 -1      2440 7.98851E-01
 -1      2441 7.18223E-01
 -1      2442 1.15682E+00
 -1      2443 1.02973E+00
 -1      2444 9.58331E-01
 -1      2445 1.32938E+00
 -1      2446 1.23987E+00
 -1      2447 1.15682E+00
 -1      2448 1.45061E+00
 -1      2449 1.41888E+00
 -1      2450 1.32938E+00
 -1      2451 1.48234E+00
 -1      2452 1.48234E+00
 -1      2453 1.45061E+00
 -1      2454 1.44537E+00
 -1      2455 1.45560E+00
 -1      2456 1.45560E+00
 -1      2457 1.46601E+00
 -1      2458 1.46189E+00
 -1      2459 1.44537E+00
 -1      2460 1.49725E+00
 -1      2461 1.47013E+00
 -1      2462 1.46601E+00
 -1      2463 1.38654E+00
 -1      2464 1.44103E+00
 -1      2465 1.41390E+00
 -1      2466 1.17675E+00
 -1      2467 1.29635E+00
 -1      2468 1.26748E+00
 -1      2469 9.55845E-01
 -1      2470 1.07779E+00
 -1      2471 1.07832E+00
 -1      2472 7.07436E-01
 -1      2473 8.32827E-01
 -1      2474 8.56349E-01
 -1      2475 4.68214E-01
 -1      2476 5.86900E-01
 -1      2477 6.12795E-01
 -1      2478 2.92671E-01
 -1      2479 3.85823E-01
 -1      2480 4.09868E-01
 -1      2481 1.69766E-01
 -1      2482 2.27575E-01
 -1      2483 2.62381E-01
 -1      2484 1.15263E-01
 -1      2485 1.38871E-01
 -1      2486 1.66390E-01
 -1      2487 1.10213E-01
 -1      2488 1.02261E-01
 -1      2489 1.22493E-01
 -1      2490 1.08772E-01
 -1      2491 1.04451E-01
 -1      2492 1.03729E-01
 -1      2493 1.02970E-01
 -1      2494 1.07016E-01
 -1      2495 9.62102E-02
 -1      2496 9.17165E-02
 -1      2497 9.94380E-02
 -1      2498 9.09216E-02
 -1      2499 7.81056E-02
 -1      2500 8.51863E-02
 -1      2501 8.08594E-02
 -1      2502 6.39204E-02
 -1      2503 7.23269E-02
 -1      2504 6.85505E-02
 -1      2505 5.11523E-02
 -1      2506 5.74197E-02
 -1      2507 5.62712E-02
 -1      2508 3.93601E-02
 -1      2509 4.48826E-02
 -1      2510 4.35007E-02
 -1      2511 2.91495E-02
 -1      2512 3.45585E-02
 -1      2513 3.24294E-02
 -1      2514 2.00577E-02
 -1      2515 2.52712E-02
 -1      2516 2.37495E-02
 -1      2517 1.83973E-02
 -1      2518 1.62849E-02
 -1      2519 1.37607E-02
 -1      2520 2.07767E-02
 -1      2521 1.91221E-02
 -1      2522 2.04356E-02
 -1      2523 1.29394E-02
 -1      2524 1.58809E-02
 -1      2525 1.23015E-02
 -1      2526 1.26738E-02
 -1      2527 1.49457E-02
 -1      2528 1.61393E-02
 -1      2529 2.24047E-02
 -1      2530 2.20006E-02
 -1      2531 2.44967E-02
 -1      2532 2.27548E-02
 -1      2533 2.24047E-02
 -1      2534 2.57206E-02
 -1      2535 2.37174E-02
 -1      2536 2.37174E-02
 -1      2537 2.66833E-02
 -1      2538 2.31410E-02
 -1      2539 2.37174E-02
 -1      2540 2.76460E-02
 -1      2541 1.99438E-02
 -1      2542 2.21234E-02
 -1      2543 2.66284E-02
 -1      2544 2.79329E-02
 -1      2545 2.34515E-02
 -1      2546 2.91185E-02
 -1      2547 2.79329E-02
 -1      2548 7.83626E+00
 -1      2549 6.72248E+00
 -1      2550 1.69414E+00
 -1      2551 1.30195E+00
 -1      2552 8.35709E-01
 -1      2553 9.61237E-01
 -1      2554 9.20801E+00
 -1      2555 2.61440E+01
 -1      2556 2.89147E+01
 -1      2557 5.43506E-01
 -1      2558 6.21551E-01
 -1      2559 6.21551E-01
 -1      2560 4.96223E-01
 -1      2561 1.44997E+01
 -1      2562 2.00571E+01
 -1      2563 5.20068E-01
 -1      2564 5.42194E-01
 -1      2565 4.69559E-01
 -1      2566 4.41738E-01
 -1      2567 6.55770E+00
 -1      2568 6.70243E+00
 -1      2569 7.76712E+00
 -1      2570 7.80798E+00
 -1      2571 8.91743E+00
 -1      2572 8.82940E+00
 -1      2573 6.80492E+00
 -1      2574 5.75696E+00
 -1      2575 6.61311E+00
 -1      2576 8.69899E+00
 -1      2577 6.75046E+00
 -1      2578 1.38530E+01
 -1      2579 1.00425E+01
 -1      2580 2.35323E+01
 -1      2581 1.66784E+01
 -1      2582 1.19565E+01
 -1      2583 2.83707E+01
 -1      2584 2.72194E+01
 -1      2585 3.55171E+01
 -1      2586 3.45853E+01
 -1      2587 2.83707E+01
 -1      2588 3.64488E+01
 -1      2589 3.64488E+01
 -1      2590 1.58708E+01
 -1      2591 2.21317E+01
 -1      2592 8.47764E+00
 -1      2593 1.01724E+01
 -1      2594 1.39316E+01
 -1      2595 2.42990E+01
 -1      2596 1.72317E+01
 -1      2597 3.11855E+01
 -1      2598 2.94261E+01
 -1      2599 2.70706E+01
 -1      2600 3.25536E+01
 -1      2601 7.78295E+00
 -1      2602 5.08835E-01
 -1      2603 6.47639E-01
 -1      2604 7.09592E-01
 -1      2605 3.11855E+01
 -1      2606 1.07890E+01
 -1      2607 4.94484E+00
 -1      2608 5.85554E+00
 -1      2609 4.78006E+00
 -1      2610 1.14169E+01
 -1      2611 1.69394E+01
 -1      2612 2.32415E+01
 -1      2613 9.23269E+00
 -1      2614 8.44716E+00
 -1      2615 8.69217E+00
 -1      2616 6.29696E+00
 -1      2617 3.25536E+01
 -1      2618 8.47590E+00
 -1      2619 8.56524E+00
 -1      2620 7.43302E+00
 -1      2621 1.82108E-02
 -1      2622 7.78756E+00
 -1      2623 1.82108E-02
 -1      2624 3.26262E-02
 -1      2625 5.61109E+00
 -1      2626 8.82271E+00
 -1      2627 9.32635E+00
 -1      2628 8.20698E+00
 -1      2629 6.84484E-01
 -1      2630 7.61898E-01
 -1      2631 6.57957E-01
 -1      2632 4.83727E-01
 -1      2633 1.73683E+01
 -1      2634 2.36931E+01
 -1      2635 1.34742E+01
 -1      2636 1.86013E+01
 -1      2637 3.55171E+01
 -1      2638 1.84691E+01
 -1      2639 5.45058E+00
 -1      2640 1.75413E-02
 -1      2641 2.66409E+01
 -1      2642 2.66409E+01
 -1      2643 1.91067E+01
 -1      2644 1.20030E+01
 -1      2645 1.51547E+01
 -1      2646 9.78799E+00
 -1      2647 1.06895E+01
 -1      2648 8.56680E+00
 -1      2649 6.71075E+00
 -1      2650 4.20326E-01
 -1      2651 4.05416E-01
 -1      2652 3.97317E-01
 -1      2653 3.84310E-01
 -1      2654 3.48220E-01
 -1      2655 4.34466E-01
 -1      2656 4.34466E-01
 -1      2657 4.20710E-01
 -1      2658 4.23179E-01
 -1      2659 3.48957E-01
 -1      2660 5.34382E-01
 -1      2661 4.66647E-01
 -1      2662 3.83606E-01
 -1      2663 1.01498E+00
 -1      2664 6.78091E-01
 -1      2665 5.73251E-01
 -1      2666 8.28958E-01
 -1      2667 6.09238E-01
 -1      2668 5.57457E-01
 -1      2669 1.11719E+01
 -1      2670 5.53219E-01
 -1      2671 4.98065E-01
 -1      2672 4.00116E-01
 -1      2673 4.91750E-01
 -1      2674 4.34835E-01
 -1      2675 3.89563E-01
 -1      2676 4.12725E-01
 -1      2677 3.63958E-01
 -1      2678 3.61138E-01
 -1      2679 3.35504E-01
 -1      2680 3.11699E-01
 -1      2681 3.10575E-01
 -1      2682 2.86457E-01
 -1      2683 2.60598E-01
 -1      2684 2.56878E-01
 -1      2685 2.41092E-01
 -1      2686 2.15008E-01
 -1      2687 2.12129E-01
 -1      2688 1.91068E-01
 -1      2689 1.62888E-01
 -1      2690 1.68683E-01
 -1      2691 1.36790E-01
 -1      2692 1.26218E-01
 -1      2693 1.18645E-01
 -1      2694 1.29477E-01
 -1      2695 1.45999E-01
 -1      2696 9.58065E-02
 -1      2697 1.98957E-01
 -1      2698 2.59655E-01
 -1      2699 1.52024E-01
 -1      2700 3.37123E-01
 -1      2701 4.24619E-01
 -1      2702 2.82450E-01
 -1      2703 5.30754E-01
 -1      2704 6.44621E-01
 -1      2705 4.66054E-01
 -1      2706 8.05507E-01
 -1      2707 9.65326E-01
 -1      2708 7.33075E-01
 -1      2709 1.19843E+00
 -1      2710 1.43337E+00
 -1      2711 1.12706E+00
 -1      2712 1.77611E+00
 -1      2713 2.14362E+00
 -1      2714 1.70291E+00
 -1      2715 2.65338E+00
 -1      2716 3.17238E+00
 -1      2717 2.55542E+00
 -1      2718 4.02824E+00
 -1      2719 4.75079E+00
 -1      2720 3.92104E+00
 -1      2721 6.03213E+00
 -1      2722 7.22859E+00
 -1      2723 6.05825E+00
 -1      2724 1.09802E+01
 -1      2725 1.16197E+01
 -1      2726 1.10912E+01
 -1      2727 4.21825E-01
 -1      2728 4.34173E-01
 -1      2729 1.69585E+01
 -1      2730 2.07876E+01
 -1      2731 1.02332E+01
 -1      2732 9.12175E+00
 -1      2733 8.69722E+00
 -1      2734 7.88332E+00
 -1      2735 4.83313E+00
 -1      2736 4.15546E+00
 -1      2737 8.14321E+00
 -1      2738 3.27776E+00
 -1      2739 2.80699E+00
 -1      2740 4.21532E+00
 -1      2741 2.25476E+00
 -1      2742 1.92749E+00
 -1      2743 2.78540E+00
 -1      2744 1.55281E+00
 -1      2745 1.31747E+00
 -1      2746 1.85850E+00
 -1      2747 1.06445E+00
 -1      2748 8.91374E-01
 -1      2749 1.23081E+00
 -1      2750 7.28025E-01
 -1      2751 6.05318E-01
 -1      2752 8.14443E-01
 -1      2753 4.98782E-01
 -1      2754 4.12106E-01
 -1      2755 5.44558E-01
 -1      2756 3.39078E-01
 -1      2757 2.78163E-01
 -1      2758 3.64995E-01
 -1      2759 2.34905E-01
 -1      2760 1.91515E-01
 -1      2761 2.48709E-01
 -1      2762 1.61371E-01
 -1      2763 1.33792E-01
 -1      2764 1.75306E-01
 -1      2765 1.11362E-01
 -1      2766 9.05273E-02
 -1      2767 1.22732E-01
 -1      2768 7.36349E-02
 -1      2769 5.87668E-02
 -1      2770 8.34097E-02
 -1      2771 2.23761E+01
 -1      2772 2.78592E+01
 -1      2773 2.40555E-01
 -1      2774 2.71294E-01
 -1      2775 3.47671E-01
 -1      2776 3.81211E-01
 -1      2777 1.90668E-01
 -1      2778 2.18746E-01
 -1      2779 2.04677E-01
 -1      2780 1.45273E-01
 -1      2781 1.69606E-01
 -1      2782 1.61806E-01
 -1      2783 1.12037E-01
 -1      2784 1.25986E-01
 -1      2785 1.21458E-01
 -1      2786 1.02162E-01
 -1      2787 1.03552E-01
 -1      2788 9.36855E-02
 -1      2789 1.00500E-01
 -1      2790 1.04104E-01
 -1      2791 8.71428E-02
 -1      2792 1.04563E-01
 -1      2793 1.08239E-01
 -1      2794 9.68244E-02
 -1      2795 1.34033E-01
 -1      2796 1.22811E-01
 -1      2797 1.22811E-01
 -1      2798 1.80716E-01
 -1      2799 1.63003E-01
 -1      2800 1.70028E-01
 -1      2801 2.67854E-01
 -1      2802 2.15144E-01
 -1      2803 2.33426E-01
 -1      2804 4.04219E-01
 -1      2805 3.36036E-01
 -1      2806 3.36036E-01
 -1      2807 5.76917E-01
 -1      2808 4.82247E-01
 -1      2809 4.82247E-01
 -1      2810 7.91874E-01
 -1      2811 6.67210E-01
 -1      2812 6.50568E-01
 -1      2813 9.93206E-01
 -1      2814 8.77761E-01
 -1      2815 8.26748E-01
 -1      2816 1.16709E+00
 -1      2817 1.08404E+00
 -1      2818 1.00347E+00
 -1      2819 1.30104E+00
 -1      2820 1.21153E+00
 -1      2821 1.13874E+00
 -1      2822 1.37090E+00
 -1      2823 1.33917E+00
 -1      2824 1.22133E+00
 -1      2825 1.32406E+00
 -1      2826 1.35079E+00
 -1      2827 1.23936E+00
 -1      2828 1.30647E+00
 -1      2829 1.28996E+00
 -1      2830 1.18516E+00
 -1      2831 1.36752E+00
 -1      2832 1.36340E+00
 -1      2833 1.20798E+00
 -1      2834 1.28757E+00
 -1      2835 1.34380E+00
 -1      2836 1.24119E+00
 -1      2837 1.16396E+00
 -1      2838 1.25415E+00
 -1      2839 1.18405E+00
 -1      2840 1.00230E+00
 -1      2841 1.10126E+00
 -1      2842 1.08793E+00
 -1      2843 7.78515E-01
 -1      2844 9.01533E-01
 -1      2845 9.24463E-01
 -1      2846 5.73751E-01
 -1      2847 6.94287E-01
 -1      2848 7.39471E-01
 -1      2849 4.03921E-01
 -1      2850 4.86312E-01
 -1      2851 5.67804E-01
 -1      2852 2.62381E-01
 -1      2853 3.27477E-01
 -1      2854 4.03921E-01
 -1      2855 1.86083E-01
 -1      2856 2.16978E-01
 -1      2857 2.82074E-01
 -1      2858 1.41941E-01
 -1      2859 1.54944E-01
 -1      2860 2.05531E-01
 -1      2861 1.09833E-01
 -1      2862 1.15595E-01
 -1      2863 1.48046E-01
 -1      2864 1.03002E-01
 -1      2865 1.04758E-01
 -1      2866 1.16625E-01
 -1      2867 9.29878E-02
 -1      2868 9.65199E-02
 -1      2869 1.05068E-01
 -1      2870 7.92755E-02
 -1      2871 8.58056E-02
 -1      2872 9.14039E-02
 -1      2873 6.64241E-02
 -1      2874 7.22028E-02
 -1      2875 7.71491E-02
 -1      2876 5.34386E-02
 -1      2877 5.99393E-02
 -1      2878 6.35915E-02
 -1      2879 4.07350E-02
 -1      2880 4.70047E-02
 -1      2881 5.06728E-02
 -1      2882 2.99666E-02
 -1      2883 3.47682E-02
 -1      2884 3.82722E-02
 -1      2885 2.12867E-02
 -1      2886 2.51650E-02
 -1      2887 2.75038E-02
 -1      2888 1.89568E-02
 -1      2889 7.76353E+00
 -1      2890 6.42006E+00
 -1      2891 3.00998E-02
 -1      2892 3.00998E-02
 -1      2893 2.55722E-02
 -1      2894 2.27350E-02
 -1      2895 3.21645E-02
 -1      2896 3.12018E-02
 -1      2897 3.55810E-02
 -1      2898 2.95277E-02
 -1      2899 2.83038E-02
 -1      2900 3.06031E-02
 -1      2901 3.39068E-02
 -1      2902 3.26766E-02
 -1      2903 3.26766E-02
 -1      2904 3.71951E-02
 -1      2905 3.16590E-02
 -1      2906 3.26766E-02
 -1      2907 3.77072E-02
 -1      2908 3.49315E-02
 -1      2909 3.14238E-02
 -1      2910 3.74720E-02
 -1      2911 3.99772E+00
 -1      2912 5.15173E+00
 -1      2913 6.12026E-01
 -1      2914 5.90439E-01
 -1      2915 3.85555E-01
 -1      2916 4.12687E-01
 -1      2917 2.80815E+01
 -1      2918 2.12303E+01
 -1      2919 4.34466E-01
 -1      2920 4.22289E-01
 -1      2921 3.58281E-01
 -1      2922 3.60244E-01
 -1      2923 6.92062E+00
 -1      2924 1.05979E+01
 -1      2925 1.25646E+01
 -1      2926 1.50377E+01
 -1      2927 3.49315E-02
 -1      2928 3.49315E-02
 -1      2929 5.10430E+00
 -1      2930 4.11080E+00
 -1      2931 6.22390E+00
 -1      2932 5.23076E+00
 -1      2933 1.17528E+01
 -1      2934 8.92736E+00
 -1      2935 1.72241E+01
 -1      2936 1.35370E+01
 -1      2937 1.05079E+01
 -1      2938 2.41617E+01
 -1      2939 1.79471E+01
 -1      2940 1.24519E+01
 -1      2941 1.64642E+01
 -1      2942 1.02677E+01
 -1      2943 2.92401E-01
 -1      2944 3.25279E-01
 -1      2945 2.91091E-01
 -1      2946 2.56458E+01
 -1      2947 2.47141E+01
 -1      2948 4.96494E+00
 -1      2949 5.77969E+00
 -1      2950 5.58860E+00
 -1      2951 3.40234E-01
 -1      2952 3.84422E-01
 -1      2953 3.97662E-01
 -1      2954 1.79039E+01
 -1      2955 4.17968E-01
 -1      2956 4.65251E-01
 -1      2957 3.50239E-01
 -1      2958 4.36382E+00
 -1      2959 9.97219E+00
 -1      2960 3.59511E-01
 -1      2961 4.34173E-01
 -1      2962 4.34173E-01
 -1      2963 1.16179E+01
 -1      2964 1.06461E+01
 -1      2965 1.24554E+01
 -1      2966 5.79433E+00
 -1      2967 6.46225E+00
 -1      2968 4.18096E+00
 -1      2969 3.65820E-02
 -1      2970 1.60931E+01
 -1      2971 5.12732E-02
 -1      2972 4.37286E-02
 -1      2973 4.43835E-02
 -1      2974 5.90237E-02
 -1      2975 5.91723E-01
 -1      2976 6.13538E-01
 -1      2977 2.47593E-01
 -1      2978 7.55986E+00
 -1      2979 1.78199E-02
 -1      2980 2.15654E-02
 -1      2981 1.75543E-02
 -1      2982 1.58379E+01
 -1      2983 4.13545E+00
 -1      2984 3.61817E+00
 -1      2985 3.43329E+00
 -1      2986 5.68884E-01
 -1      2987 4.61011E-01
 -1      2988 4.90838E-01
 -1      2989 3.72368E-02
 -1      2990 3.65144E+00
 -1      2991 1.30151E+01
 -1      2992 8.35842E+00
 -1      2993 1.05563E+01
 -1      2994 8.65456E+00
 -1      2995 6.68788E+00
 -1      2996 1.81884E+01
 -1      2997 1.24554E+01
 -1      2998 1.20424E+01
 -1      2999 1.50843E+01
 -1      3000 1.25837E+01
 -1      3001 6.88634E+00
 -1      3002 5.31217E+00
 -1      3003 7.29525E+00
 -1      3004 4.05587E-01
 -1      3005 4.20167E-01
 -1      3006 3.57853E-01
 -1      3007 3.48270E-01
 -1      3008 5.08027E+00
 -1      3009 1.31953E+01
 -1      3010 1.89456E-02
 -1      3011 1.74865E-02
 -1      3012 2.03606E-02
 -1      3013 2.40822E-02
 -1      3014 1.13972E+01
 -1      3015 1.41903E+01
 -1      3016 1.42905E+01
 -1      3017 3.33006E-01
 -1      3018 2.87069E-01
 -1      3019 2.92365E-01
 -1      3020 3.03652E-01
 -1      3021 2.41764E-01
 -1      3022 7.30093E-01
 -1      3023 1.01527E+01
 -1      3024 7.10255E+00
 -1      3025 2.51175E-01
 -1      3026 2.73566E-01
 -1      3027 3.29927E-01
 -1      3028 3.25689E-01
 -1      3029 3.10263E-01
 -1      3030 3.03948E-01
 -1      3031 2.40074E-01
 -1      3032 3.13654E-01
 -1      3033 2.91545E-01
 -1      3034 2.34355E-01
 -1      3035 2.86259E-01
 -1      3036 2.57805E-01
 -1      3037 2.38776E-01
 -1      3038 2.43015E-01
 -1      3039 2.17773E-01
 -1      3040 2.18700E-01
 -1      3041 1.97753E-01
 -1      3042 1.78246E-01
 -1      3043 1.83890E-01
 -1      3044 1.64210E-01
 -1      3045 1.40270E-01
 -1      3046 1.49834E-01
 -1      3047 1.22172E-01
 -1      3048 9.60743E-02
 -1      3049 1.17699E-01
 -1      3050 1.04451E-01
 -1      3051 1.07710E-01
 -1      3052 1.07977E-01
 -1      3053 1.35062E-01
 -1      3054 1.88021E-01
 -1      3055 1.43707E-01
 -1      3056 2.50788E-01
 -1      3057 3.28256E-01
 -1      3058 2.33827E-01
 -1      3059 4.04983E-01
 -1      3060 5.11119E-01
 -1      3061 3.73321E-01
 -1      3062 6.33292E-01
 -1      3063 7.94177E-01
 -1      3064 5.72221E-01
 -1      3065 9.62584E-01
 -1      3066 1.19568E+00
 -1      3067 8.62801E-01
 -1      3068 1.44443E+00
 -1      3069 1.78717E+00
 -1      3070 1.27995E+00
 -1      3071 2.17379E+00
 -1      3072 2.68355E+00
 -1      3073 1.91531E+00
 -1      3074 3.33273E+00
 -1      3075 4.18859E+00
 -1      3076 2.95109E+00
 -1      3077 5.09148E+00
 -1      3078 6.37283E+00
 -1      3079 4.50316E+00
 -1      3080 8.69684E+00
 -1      3081 1.24485E+01
 -1      3082 7.73007E+00
 -1      3083 6.00405E-01
 -1      3084 4.98782E+00
 -1      3085 4.11012E+00
 -1      3086 6.99735E+00
 -1      3087 3.01821E+00
 -1      3088 2.46599E+00
 -1      3089 3.79072E+00
 -1      3090 2.02518E+00
 -1      3091 1.65050E+00
 -1      3092 2.25800E+00
 -1      3093 1.35378E+00
 -1      3094 1.10076E+00
 -1      3095 1.52046E+00
 -1      3096 9.04369E-01
 -1      3097 7.41020E-01
 -1      3098 1.02734E+00
 -1      3099 6.07984E-01
 -1      3100 5.01449E-01
 -1      3101 6.97911E-01
 -1      3102 4.10443E-01
 -1      3103 3.37415E-01
 -1      3104 4.73869E-01
 -1      3105 2.75740E-01
 -1      3106 2.32481E-01
 -1      3107 3.21187E-01
 -1      3108 1.90332E-01
 -1      3109 1.60187E-01
 -1      3110 2.17362E-01
 -1      3111 1.30281E-01
 -1      3112 1.07852E-01
 -1      3113 1.45307E-01
 -1      3114 8.85636E-02
 -1      3115 7.16713E-02
 -1      3116 9.61132E-02
 -1      3117 2.07283E-01
 -1      3118 2.28389E-01
 -1      3119 2.10864E-01
 -1      3120 3.95236E+00
 -1      3121 3.66644E+00
 -1      3122 1.69194E-01
 -1      3123 1.91003E-01
 -1      3124 1.71799E-01
 -1      3125 7.33384E-02
 -1      3126 8.18236E-02
 -1      3127 7.59845E-02
 -1      3128 7.40420E-02
 -1      3129 6.21801E-02
 -1      3130 9.95968E-02
 -1      3131 9.18577E-02
 -1      3132 7.87570E-02
 -1      3133 1.41058E-01
 -1      3134 1.22811E-01
 -1      3135 1.17844E-01
 -1      3136 1.98999E-01
 -1      3137 1.70028E-01
 -1      3138 1.70028E-01
 -1      3139 2.79938E-01
 -1      3140 2.45510E-01
 -1      3141 2.45510E-01
 -1      3142 4.04431E-01
 -1      3143 3.36248E-01
 -1      3144 3.48332E-01
 -1      3145 5.60276E-01
 -1      3146 4.82247E-01
 -1      3147 4.82459E-01
 -1      3148 7.40861E-01
 -1      3149 6.50568E-01
 -1      3150 6.50568E-01
 -1      3151 9.18639E-01
 -1      3152 8.32752E-01
 -1      3153 8.32752E-01
 -1      3154 1.08553E+00
 -1      3155 9.94697E-01
 -1      3156 1.00070E+00
 -1      3157 1.16431E+00
 -1      3158 1.11987E+00
 -1      3159 1.11110E+00
 -1      3160 1.27788E+00
 -1      3161 1.23975E+00
 -1      3162 1.22087E+00
 -1      3163 1.33956E+00
 -1      3164 1.35966E+00
 -1      3165 1.37809E+00
 -1      3166 1.24148E+00
 -1      3167 1.27558E+00
 -1      3168 1.39588E+00
 -1      3169 1.37599E+00
 -1      3170 1.31907E+00
 -1      3171 1.40949E+00
 -1      3172 1.31935E+00
 -1      3173 1.34306E+00
 -1      3174 1.45415E+00
 -1      3175 1.18405E+00
 -1      3176 1.21748E+00
 -1      3177 1.31935E+00
 -1      3178 1.05893E+00
 -1      3179 1.12164E+00
 -1      3180 1.15506E+00
 -1      3181 9.24223E-01
 -1      3182 1.02499E+00
 -1      3183 1.05869E+00
 -1      3184 7.39471E-01
 -1      3185 8.23699E-01
 -1      3186 9.24223E-01
 -1      3187 5.67804E-01
 -1      3188 6.55243E-01
 -1      3189 7.39471E-01
 -1      3190 4.01122E-01
 -1      3191 4.77566E-01
 -1      3192 5.65005E-01
 -1      3193 2.98940E-01
 -1      3194 3.44344E-01
 -1      3195 4.17988E-01
 -1      3196 2.14725E-01
 -1      3197 2.45865E-01
 -1      3198 3.08134E-01
 -1      3199 1.48081E-01
 -1      3200 1.74427E-01
 -1      3201 2.14760E-01
 -1      3202 1.29598E-01
 -1      3203 1.34673E-01
 -1      3204 1.61054E-01
 -1      3205 1.10494E-01
 -1      3206 1.16976E-01
 -1      3207 1.35024E-01
 -1      3208 9.14039E-02
 -1      3209 9.85861E-02
 -1      3210 1.10494E-01
 -1      3211 7.59032E-02
 -1      3212 8.29759E-02
 -1      3213 9.01580E-02
 -1      3214 6.08629E-02
 -1      3215 6.73478E-02
 -1      3216 7.31746E-02
 -1      3217 4.68279E-02
 -1      3218 5.32617E-02
 -1      3219 5.70179E-02
 -1      3220 3.43735E-02
 -1      3221 4.03403E-02
 -1      3222 4.29291E-02
 -1      3223 2.51814E-02
 -1      3224 2.99830E-02
 -1      3225 3.20511E-02
 -1      3226 2.40445E-02
 -1      3227 4.44095E-02
 -1      3228 4.38973E-02
 -1      3229 4.10092E-02
 -1      3230 3.99072E-02
 -1      3231 4.82236E-02
 -1      3232 3.86849E-01
 -1      3233 3.61741E-01
 -1      3234 3.15810E-01
 -1      3235 3.12187E-01
 -1      3236 6.53410E+00
 -1      3237 6.79157E+00
 -1      3238 9.66207E+00
 -1      3239 1.15829E+01
 -1      3240 4.62332E-02
 -1      3241 4.62332E-02
 -1      3242 5.33799E-02
 -1      3243 3.20808E-01
 -1      3244 3.12710E-01
 -1      3245 3.05965E+00
 -1      3246 2.94657E+00
 -1      3247 1.48620E+01
 -1      3248 1.50843E+01
 -1      3249 1.26189E+01
 -1      3250 1.42074E+01
 -1      3251 1.16374E+01
 -1      3252 1.09144E+01
 -1      3253 4.44095E-02
 -1      3254 4.44095E-02
 -1      3255 5.11117E-02
 -1      3256 9.56167E-02
 -1      3257 1.14903E-01
 -1      3258 7.52695E-02
 -1      3259 4.62332E-02
 -1      3260 4.64684E-02
 -1      3261 5.31707E-02
 -1      3262 5.52296E-02
 -1      3263 9.79605E+00
 -1      3264 8.01188E+00
 -1      3265 1.24485E+01
 -1      3266 1.18961E+01
 -1      3267 7.18239E+00
 -1      3268 6.01856E+00
 -1      3269 1.30651E-01
 -1      3270 1.51713E-01
 -1      3271 1.04810E-01
 -1      3272 5.10150E+00
 -1      3273 3.78574E+00
 -1      3274 4.72403E+00
 -1      3275 3.86900E+00
 -1      3276 5.00992E+00
 -1      3277 2.62431E-01
 -1      3278 3.19023E-01
 -1      3279 3.19023E-01
 -1      3280 3.02183E+00
 -1      3281 2.93560E-01
 -1      3282 3.30317E-01
 -1      3283 2.53644E-01
 -1      3284 1.16179E+01
 -1      3285 1.05773E+01
 -1      3286 3.60159E-01
 -1      3287 4.76714E-01
 -1      3288 3.19434E-01
 -1      3289 3.19434E-01
 -1      3290 1.38038E-01
 -1      3291 3.30831E+00
 -1      3292 2.60344E+00
 -1      3293 3.32954E+00
 -1      3294 3.07508E+00
 -1      3295 3.71768E+00
 -1      3296 2.48329E+00
 -1      3297 1.58379E+01
 -1      3298 4.89541E+00
 -1      3299 9.69722E+00
 -1      3300 4.12583E-01
 -1      3301 6.58353E-02
 -1      3302 5.83417E-02
 -1      3303 6.01915E-02
 -1      3304 7.09893E-02
 -1      3305 3.82842E+00
 -1      3306 3.13104E+00
 -1      3307 4.49085E+00
 -1      3308 3.66171E-02
 -1      3309 3.38855E-02
 -1      3310 4.02266E+00
 -1      3311 5.74226E+00
 -1      3312 5.70062E+00
 -1      3313 3.99072E-02
 -1      3314 3.93351E-02
 -1      3315 4.26175E-02
 -1      3316 4.53355E-02
 -1      3317 1.48428E+01
 -1      3318 3.22775E-01
 -1      3319 2.82698E-01
 -1      3320 3.21116E-01
 -1      3321 5.47093E+00
 -1      3322 3.34609E-01
 -1      3323 8.41842E+00
 -1      3324 8.04864E+00
 -1      3325 7.04782E+00
 -1      3326 6.04031E+00
 -1      3327 3.22771E-01
 -1      3328 3.20808E-01
 -1      3329 2.85298E-01
 -1      3330 2.81550E-01
 -1      3331 6.47058E+00
 -1      3332 9.79542E+00
 -1      3333 2.60182E-01
 -1      3334 1.13878E+01
 -1      3335 2.81489E-01
 -1      3336 3.08901E-01
 -1      3337 3.09013E-01
 -1      3338 3.99213E-02
 -1      3339 3.39074E-02
 -1      3340 3.01180E-02
 -1      3341 1.24485E+01
 -1      3342 1.00541E+01
 -1      3343 1.20424E+01
 -1      3344 3.43918E-01
 -1      3345 3.66757E-01
 -1      3346 2.43067E-01
 -1      3347 2.72912E+00
 -1      3348 3.55862E+00
 -1      3349 2.97995E+00
 -1      3350 1.04287E+01
 -1      3351 8.96355E+00
 -1      3352 9.77412E+00
 -1      3353 1.18353E-01
 -1      3354 1.35834E-01
 -1      3355 1.88936E-01
 -1      3356 1.98642E-01
 -1      3357 2.02837E-01
 -1      3358 1.97551E-01
 -1      3359 1.57418E-01
 -1      3360 1.99122E-01
 -1      3361 1.84332E-01
 -1      3362 1.63183E-01
 -1      3363 1.76756E-01
 -1      3364 1.56736E-01
 -1      3365 1.57178E-01
 -1      3366 1.44853E-01
 -1      3367 1.30817E-01
 -1      3368 1.37719E-01
 -1      3369 1.23394E-01
 -1      3370 1.05296E-01
 -1      3371 1.18413E-01
 -1      3372 1.13844E-01
 -1      3373 1.22221E-01
 -1      3374 1.19539E-01
 -1      3375 1.33960E-01
 -1      3376 1.61312E-01
 -1      3377 1.39827E-01
 -1      3378 1.90799E-01
 -1      3379 2.53566E-01
 -1      3380 1.81052E-01
 -1      3381 2.94508E-01
 -1      3382 3.71235E-01
 -1      3383 2.51480E-01
 -1      3384 4.51809E-01
 -1      3385 5.73982E-01
 -1      3386 3.72996E-01
 -1      3387 6.87444E-01
 -1      3388 8.55851E-01
 -1      3389 5.67032E-01
 -1      3390 1.02751E+00
 -1      3391 1.27626E+00
 -1      3392 8.52156E-01
 -1      3393 1.53538E+00
 -1      3394 1.92199E+00
 -1      3395 1.28294E+00
 -1      3396 2.31150E+00
 -1      3397 2.96067E+00
 -1      3398 1.93157E+00
 -1      3399 3.47501E+00
 -1      3400 4.37790E+00
 -1      3401 2.83541E+00
 -1      3402 5.62137E+00
 -1      3403 7.94539E+00
 -1      3404 7.94539E+00
 -1      3405 4.59322E+00
 -1      3406 6.84882E+00
 -1      3407 4.41953E+00
 -1      3408 3.32762E+00
 -1      3409 2.19595E+00
 -1      3410 1.75514E+00
 -1      3411 2.82477E+00
 -1      3412 1.46689E+00
 -1      3413 1.17016E+00
 -1      3414 1.40484E+00
 -1      3415 9.93461E-01
 -1      3416 7.97070E-01
 -1      3417 9.39889E-01
 -1      3418 6.90386E-01
 -1      3419 5.57351E-01
 -1      3420 6.56510E-01
 -1      3421 4.79721E-01
 -1      3422 3.88714E-01
 -1      3423 4.72197E-01
 -1      3424 3.32787E-01
 -1      3425 2.71112E-01
 -1      3426 3.38639E-01
 -1      3427 2.30606E-01
 -1      3428 1.88457E-01
 -1      3429 2.42207E-01
 -1      3430 1.57852E-01
 -1      3431 1.27946E-01
 -1      3432 1.71096E-01
 -1      3433 1.06202E-01
 -1      3434 8.69138E-02
 -1      3435 1.18746E-01
 -1      3436 1.80232E-01
 -1      3437 2.03018E-01
 -1      3438 1.48623E-01
 -1      3439 1.64903E-01
 -1      3440 1.57056E-01
 -1      3441 1.28938E-01
 -1      3442 8.92245E-02
 -1      3443 7.33513E-02
 -1      3444 5.78407E-02
 -1      3445 5.71370E-02
 -1      3446 6.83082E-02
 -1      3447 1.96609E-01
 -1      3448 1.67639E-01
 -1      3449 2.92021E-01
 -1      3450 2.45510E-01
 -1      3451 2.43121E-01
 -1      3452 4.04643E-01
 -1      3453 3.48332E-01
 -1      3454 3.48332E-01
 -1      3455 5.66727E-01
 -1      3456 4.88910E-01
 -1      3457 4.88910E-01
 -1      3458 7.50854E-01
 -1      3459 6.60561E-01
 -1      3460 6.67012E-01
 -1      3461 9.24643E-01
 -1      3462 8.32752E-01
 -1      3463 8.42745E-01
 -1      3464 1.13732E+00
 -1      3465 1.06126E+00
 -1      3466 1.06126E+00
 -1      3467 1.23861E+00
 -1      3468 1.20427E+00
 -1      3469 1.26483E+00
 -1      3470 1.29631E+00
 -1      3471 1.22087E+00
 -1      3472 1.31405E+00
 -1      3473 1.57466E+00
 -1      3474 1.49288E+00
 -1      3475 1.49288E+00
 -1      3476 1.61798E+00
 -1      3477 1.68196E+00
 -1      3478 1.79675E+00
 -1      3479 2.09068E+00
 -1      3480 2.01309E+00
 -1      3481 2.29917E+00
 -1      3482 1.82246E+00
 -1      3483 1.85539E+00
 -1      3484 2.45899E+00
 -1      3485 1.40015E+00
 -1      3486 1.50202E+00
 -1      3487 1.90327E+00
 -1      3488 1.19210E+00
 -1      3489 1.25452E+00
 -1      3490 1.43719E+00
 -1      3491 1.18841E+00
 -1      3492 1.22235E+00
 -1      3493 1.32181E+00
 -1      3494 9.24223E-01
 -1      3495 1.02475E+00
 -1      3496 1.18841E+00
 -1      3497 7.48753E-01
 -1      3498 8.32981E-01
 -1      3499 9.33505E-01
 -1      3500 5.81311E-01
 -1      3501 6.71549E-01
 -1      3502 7.65059E-01
 -1      3503 4.32490E-01
 -1      3504 4.89269E-01
 -1      3505 5.95813E-01
 -1      3506 3.08134E-01
 -1      3507 3.61210E-01
 -1      3508 4.32490E-01
 -1      3509 2.19256E-01
 -1      3510 2.59554E-01
 -1      3511 3.12630E-01
 -1      3512 1.76474E-01
 -1      3513 1.89882E-01
 -1      3514 2.34676E-01
 -1      3515 1.40355E-01
 -1      3516 1.52977E-01
 -1      3517 1.81805E-01
 -1      3518 1.11592E-01
 -1      3519 1.23500E-01
 -1      3520 1.41453E-01
 -1      3521 9.01345E-02
 -1      3522 9.85625E-02
 -1      3523 1.11568E-01
 -1      3524 6.98197E-02
 -1      3525 7.83752E-02
 -1      3526 8.67797E-02
 -1      3527 5.27654E-02
 -1      3528 6.03666E-02
 -1      3529 6.55672E-02
 -1      3530 4.47374E-02
 -1      3531 5.12250E-02
 -1      3532 5.45737E-02
 -1      3533 5.64447E-02
 -1      3534 5.35566E-02
 -1      3535 3.07506E-01
 -1      3536 8.30542E+00
 -1      3537 9.34141E+00
 -1      3538 8.38231E+00
 -1      3539 2.66169E+00
 -1      3540 2.42853E+00
 -1      3541 2.36898E+00
 -1      3542 3.41556E-01
 -1      3543 3.67143E-01
 -1      3544 3.13192E-01
 -1      3545 3.21116E-01
 -1      3546 2.86038E-01
 -1      3547 4.31066E+00
 -1      3548 4.81434E+00
 -1      3549 5.79200E-02
 -1      3550 5.79200E-02
 -1      3551 6.32531E-02
 -1      3552 7.84044E+00
 -1      3553 6.72210E+00
 -1      3554 5.58472E-02
 -1      3555 6.96403E-02
 -1      3556 5.15078E-02
 -1      3557 1.35657E-01
 -1      3558 1.12443E-01
 -1      3559 1.07037E-01
 -1      3560 1.62238E-01
 -1      3561 2.48362E-01
 -1      3562 8.70064E-02
 -1      3563 1.02754E-01
 -1      3564 6.75840E-02
 -1      3565 8.41499E+00
 -1      3566 8.15632E+00
 -1      3567 6.46001E+00
 -1      3568 6.30629E+00
 -1      3569 4.68377E+00
 -1      3570 3.76671E+00
 -1      3571 2.48488E-02
 -1      3572 2.49166E-02
 -1      3573 2.85326E-02
 -1      3574 3.46739E-02
 -1      3575 6.17079E+00
 -1      3576 5.34129E+00
 -1      3577 4.21835E+00
 -1      3578 4.29019E+00
 -1      3579 2.67429E-01
 -1      3580 2.52003E-01
 -1      3581 2.16290E-01
 -1      3582 2.97995E+00
 -1      3583 3.29032E+00
 -1      3584 4.02266E+00
 -1      3585 2.13493E-01
 -1      3586 2.33487E-01
 -1      3587 1.82860E-01
 -1      3588 1.00549E-01
 -1      3589 4.38398E+00
 -1      3590 6.38573E+00
 -1      3591 3.28928E+00
 -1      3592 2.51973E+00
 -1      3593 2.64824E+00
 -1      3594 2.76839E+00
 -1      3595 7.36322E-02
 -1      3596 6.77963E-02
 -1      3597 8.37208E-02
 -1      3598 5.99790E-02
 -1      3599 5.79200E-02
 -1      3600 6.47284E-02
 -1      3601 6.11380E-02
 -1      3602 5.29168E-02
 -1      3603 5.29168E-02
 -1      3604 5.59281E+00
 -1      3605 3.29231E-02
 -1      3606 3.11247E+00
 -1      3607 4.12190E-02
 -1      3608 4.32509E+00
 -1      3609 5.27071E+00
 -1      3610 4.66479E+00
 -1      3611 2.84877E-01
 -1      3612 5.93832E+00
 -1      3613 5.58250E+00
 -1      3614 4.32489E+00
 -1      3615 3.36428E+00
 -1      3616 4.52454E+00
 -1      3617 3.04079E+00
 -1      3618 2.64471E+00
 -1      3619 2.05141E+00
 -1      3620 2.52076E+00
 -1      3621 6.28344E-02
 -1      3622 4.95917E-02
 -1      3623 4.68736E-02
 -1      3624 5.71730E-02
 -1      3625 1.20424E+01
 -1      3626 2.81859E-01
 -1      3627 3.63360E+00
 -1      3628 2.48788E-01
 -1      3629 2.44979E-01
 -1      3630 4.64664E-02
 -1      3631 4.64882E-02
 -1      3632 5.34406E-02
 -1      3633 2.18546E-01
 -1      3634 2.17243E-01
 -1      3635 6.28344E-02
 -1      3636 2.32614E-01
 -1      3637 2.72890E-01
 -1      3638 2.48788E-01
 -1      3639 2.48788E-01
 -1      3640 2.12278E-01
 -1      3641 4.06184E+00
 -1      3642 3.40432E+00
 -1      3643 2.02676E+00
 -1      3644 2.32735E+00
 -1      3645 1.36789E-01
 -1      3646 1.38359E-01
 -1      3647 1.42703E-01
 -1      3648 1.35127E-01
 -1      3649 1.16308E-01
 -1      3650 1.32204E-01
 -1      3651 1.20321E-01
 -1      3652 1.17729E-01
 -1      3653 1.20678E-01
 -1      3654 1.13256E-01
 -1      3655 1.15163E-01
 -1      3656 1.21765E-01
 -1      3657 1.30314E-01
 -1      3658 1.24030E-01
 -1      3659 1.42827E-01
 -1      3660 1.54565E-01
 -1      3661 1.45053E-01
 -1      3662 1.78904E-01
 -1      3663 2.08391E-01
 -1      3664 1.81905E-01
 -1      3665 2.38189E-01
 -1      3666 2.79131E-01
 -1      3667 2.36041E-01
 -1      3668 3.37658E-01
 -1      3669 4.18232E-01
 -1      3670 3.24367E-01
 -1      3671 4.92244E-01
 -1      3672 6.05706E-01
 -1      3673 4.56906E-01
 -1      3674 7.05985E-01
 -1      3675 8.77647E-01
 -1      3676 6.31197E-01
 -1      3677 1.04814E+00
 -1      3678 1.30726E+00
 -1      3679 9.01973E-01
 -1      3680 1.65187E+00
 -1      3681 2.04138E+00
 -1      3682 1.41707E+00
 -1      3683 2.54777E+00
 -1      3684 3.06210E+00
 -1      3685 2.26807E+00
 -1      3686 3.73211E+00
 -1      3687 4.97559E+00
 -1      3688 5.44518E+00
 -1      3689 3.44447E+00
 -1      3690 2.92621E+00
 -1      3691 2.48903E+00
 -1      3692 1.46084E+00
 -1      3693 1.17258E+00
 -1      3694 9.81525E-01
 -1      3695 8.04829E-01
 -1      3696 1.03752E+00
 -1      3697 6.74707E-01
 -1      3698 5.68024E-01
 -1      3699 7.16343E-01
 -1      3700 4.75508E-01
 -1      3701 3.97878E-01
 -1      3702 4.93705E-01
 -1      3703 3.29070E-01
 -1      3704 2.73143E-01
 -1      3705 3.32381E-01
 -1      3706 2.36030E-01
 -1      3707 1.95524E-01
 -1      3708 2.26460E-01
 -1      3709 1.71327E-01
 -1      3710 1.40722E-01
 -1      3711 1.65151E-01
 -1      3712 1.22706E-01
 -1      3713 1.00962E-01
 -1      3714 1.22938E-01
 -1      3715 9.52863E-02
 -1      3716 7.97756E-02
 -1      3717 4.10427E-01
 -1      3718 3.54116E-01
 -1      3719 2.94609E-01
 -1      3720 2.45709E-01
 -1      3721 3.56704E-01
 -1      3722 7.64746E-01
 -1      3723 6.70911E-01
 -1      3724 1.01122E+00
 -1      3725 9.29324E-01
 -1      3726 9.33222E-01
 -1      3727 1.19788E+00
 -1      3728 1.06126E+00
 -1      3729 1.14784E+00
 -1      3730 1.33178E+00
 -1      3731 1.26483E+00
 -1      3732 1.26483E+00
 -1      3733 1.31405E+00
 -1      3734 1.33178E+00
 -1      3735 1.33178E+00
 -1      3736 2.18706E+00
 -1      3737 1.99049E+00
 -1      3738 2.00823E+00
 -1      3739 2.06333E+00
 -1      3740 1.95603E+00
 -1      3741 2.45364E+00
 -1      3742 2.91415E+00
 -1      3743 2.51904E+00
 -1      3744 2.67832E+00
 -1      3745 2.64910E+00
 -1      3746 2.88438E+00
 -1      3747 1.63270E+00
 -1      3748 1.77833E+00
 -1      3749 1.66859E+00
 -1      3750 1.63834E+00
 -1      3751 1.97948E+00
 -1      3752 1.28343E+00
 -1      3753 1.44709E+00
 -1      3754 1.76361E+00
 -1      3755 1.03182E+00
 -1      3756 1.12307E+00
 -1      3757 1.38174E+00
 -1      3758 8.18231E-01
 -1      3759 8.95434E-01
 -1      3760 1.08500E+00
 -1      3761 5.95813E-01
 -1      3762 6.87855E-01
 -1      3763 8.18231E-01
 -1      3764 4.34314E-01
 -1      3765 5.05594E-01
 -1      3766 5.97637E-01
 -1      3767 3.26352E-01
 -1      3768 3.74932E-01
 -1      3769 4.48036E-01
 -1      3770 2.44469E-01
 -1      3771 2.73843E-01
 -1      3772 3.36145E-01
 -1      3773 1.88737E-01
 -1      3774 2.12234E-01
 -1      3775 2.51401E-01
 -1      3776 1.44208E-01
 -1      3777 1.61064E-01
 -1      3778 1.91493E-01
 -1      3779 1.09890E-01
 -1      3780 1.22920E-01
 -1      3781 1.42531E-01
 -1      3782 8.44363E-02
 -1      3783 9.61956E-02
 -1      3784 1.07547E-01
 -1      3785 6.34940E-02
 -1      3786 7.29471E-02
 -1      3787 8.23631E-02
 -1      3788 2.39127E-01
 -1      3789 1.76060E-01
 -1      3790 5.00268E+00
 -1      3791 4.45136E+00
 -1      3792 3.47171E+00
 -1      3793 2.38990E-01
 -1      3794 2.50229E-01
 -1      3795 2.42276E-01
 -1      3796 2.46024E-01
 -1      3797 2.09514E-01
 -1      3798 6.67713E-02
 -1      3799 6.54814E-02
 -1      3800 9.37493E-02
 -1      3801 2.42468E-01
 -1      3802 2.43003E-01
 -1      3803 2.47182E-01
 -1      3804 2.10302E-01
 -1      3805 2.41771E-01
 -1      3806 3.37358E+00
 -1      3807 3.39405E+00
 -1      3808 7.36397E-02
 -1      3809 7.21644E-02
 -1      3810 8.71007E-02
 -1      3811 1.02700E-01
 -1      3812 3.01581E+00
 -1      3813 1.88414E+00
 -1      3814 1.65188E+00
 -1      3815 6.75838E-02
 -1      3816 6.75494E-02
 -1      3817 8.49155E-02
 -1      3818 8.70661E-02
 -1      3819 8.28129E-02
 -1      3820 5.95302E+00
 -1      3821 5.27096E+00
 -1      3822 3.27437E+00
 -1      3823 2.33374E+00
 -1      3824 2.90385E+00
 -1      3825 4.64882E-02
 -1      3826 1.97088E-01
 -1      3827 5.73177E-01
 -1      3828 4.88910E-01
 -1      3829 6.70911E-01
 -1      3830 2.64824E+00
 -1      3831 3.14891E+00
 -1      3832 1.28169E-01
 -1      3833 1.32364E-01
 -1      3834 1.07540E-01
 -1      3835 1.95884E-01
 -1      3836 1.51007E-01
 -1      3837 5.30333E-02
 -1      3838 1.55642E-01
 -1      3839 1.66117E-01
 -1      3840 2.16228E+00
 -1      3841 2.50450E+00
 -1      3842 2.81488E+00
 -1      3843 4.94694E-01
 -1      3844 1.10358E-01
 -1      3845 1.23147E-01
 -1      3846 9.69094E-02
 -1      3847 8.73515E-02
 -1      3848 7.40699E-02
 -1      3849 7.12145E-02
 -1      3850 9.13112E-02
 -1      3851 2.42468E-01
 -1      3852 1.98898E-01
 -1      3853 7.36397E-02
 -1      3854 7.36397E-02
 -1      3855 8.25511E-02
 -1      3856 8.01258E-02
 -1      3857 1.79031E-01
 -1      3858 1.79031E-01
 -1      3859 1.31140E-01
 -1      3860 1.14216E-01
 -1      3861 1.25684E-01
 -1      3862 1.37435E-01
 -1      3863 6.78638E-02
 -1      3864 6.72239E-02
 -1      3865 7.82504E-02
 -1      3866 1.98839E-01
 -1      3867 1.34303E-01
 -1      3868 1.49632E-01
 -1      3869 1.15723E-01
 -1      3870 2.22371E+00
 -1      3871 2.64910E+00
 -1      3872 2.61540E+00
 -1      3873 1.90327E+00
 -1      3874 2.09878E+00
 -1      3875 2.03612E-01
 -1      3876 2.42468E-01
 -1      3877 5.45737E-02
 -1      3878 5.61140E-02
 -1      3879 5.12930E+00
 -1      3880 3.98785E+00
 -1      3881 3.49201E+00
 -1      3882 4.26161E+00
 -1      3883 3.15211E+00
 -1      3884 3.96384E+00
 -1      3885 3.53394E+00
 -1      3886 3.23151E+00
 -1      3887 1.32889E-01
 -1      3888 3.10425E+00
 -1      3889 2.12907E+00
 -1      3890 6.72239E-02
 -1      3891 6.38988E-02
 -1      3892 7.39497E-02
 -1      3893 1.81354E-01
 -1      3894 1.79377E-01
 -1      3895 6.18654E-02
 -1      3896 6.14582E-02
 -1      3897 7.19164E-02
 -1      3898 2.70715E+00
 -1      3899 3.02928E+00
 -1      3900 2.22903E+00
 -1      3901 2.00978E+00
 -1      3902 2.02676E+00
 -1      3903 5.44518E+00
 -1      3904 2.03367E-01
 -1      3905 1.71385E-01
 -1      3906 1.78563E-01
 -1      3907 2.05546E-01
 -1      3908 2.68468E+00
 -1      3909 1.98512E+00
 -1      3910 1.84994E-01
 -1      3911 1.84994E-01
 -1      3912 1.54070E-01
 -1      3913 6.34940E-02
 -1      3914 2.54855E-01
 -1      3915 5.70045E-01
 -1      3916 4.91562E-01
 -1      3917 2.07762E+00
 -1      3918 2.44069E+00
 -1      3919 1.09115E-01
 -1      3920 1.06192E-01
 -1      3921 1.15054E-01
 -1      3922 1.15412E-01
 -1      3923 1.06440E-01
 -1      3924 1.23872E-01
 -1      3925 1.32382E-01
 -1      3926 1.23763E-01
 -1      3927 1.42313E-01
 -1      3928 1.54826E-01
 -1      3929 1.42155E-01
 -1      3930 1.70248E-01
 -1      3931 1.94587E-01
 -1      3932 1.67509E-01
 -1      3933 2.12936E-01
 -1      3934 2.42733E-01
 -1      3935 2.01279E-01
 -1      3936 2.79002E-01
 -1      3937 3.37529E-01
 -1      3938 2.55896E-01
 -1      3939 3.86119E-01
 -1      3940 4.60131E-01
 -1      3941 3.40754E-01
 -1      3942 5.60730E-01
 -1      3943 6.61009E-01
 -1      3944 4.89943E-01
 -1      3945 8.07195E-01
 -1      3946 9.77692E-01
 -1      3947 7.36728E-01
 -1      3948 1.17860E+00
 -1      3949 1.52320E+00
 -1      3950 1.08382E+00
 -1      3951 1.76168E+00
 -1      3952 2.26807E+00
 -1      3953 1.52320E+00
 -1      3954 2.35698E+00
 -1      3955 1.81026E-01
 -1      3956 1.82230E-01
 -1      3957 7.30339E-01
 -1      3958 6.00217E-01
 -1      3959 4.97674E-01
 -1      3960 4.05159E-01
 -1      3961 5.11671E-01
 -1      3962 3.45758E-01
 -1      3963 2.76949E-01
 -1      3964 3.49727E-01
 -1      3965 2.43105E-01
 -1      3966 2.05992E-01
 -1      3967 2.56481E-01
 -1      3968 1.73643E-01
 -1      3969 1.49446E-01
 -1      3970 1.90288E-01
 -1      3971 2.45364E+00
 -1      3972 2.91787E+00
 -1      3973 1.48088E+00
 -1      3974 1.43084E+00
 -1      3975 1.26087E+00
 -1      3976 1.09629E+00
 -1      3977 1.59391E+00
 -1      3978 2.35698E+00
 -1      3979 1.68053E+00
 -1      3980 2.68468E+00
 -1      3981 1.83745E-01
 -1      3982 2.00414E+00
 -1      3983 1.45836E+00
 -1      3984 1.59474E+00
 -1      3985 8.53172E-01
 -1      3986 9.83548E-01
 -1      3987 1.49330E+00
 -1      3988 6.16209E-01
 -1      3989 7.06428E-01
 -1      3990 8.71745E-01
 -1      3991 4.72379E-01
 -1      3992 5.31761E-01
 -1      3993 6.40552E-01
 -1      3994 3.57061E-01
 -1      3995 4.09570E-01
 -1      3996 4.93295E-01
 -1      3997 2.64323E-01
 -1      3998 2.96557E-01
 -1      3999 3.69982E-01
 -1      4000 1.89224E-01
 -1      4001 2.16898E-01
 -1      4002 2.62054E-01
 -1      4003 1.40184E-01
 -1      4004 1.61473E-01
 -1      4005 1.86877E-01
 -1      4006 1.07598E-01
 -1      4007 1.21293E-01
 -1      4008 1.40234E-01
 -1      4009 9.25822E-02
 -1      4010 1.04071E-01
 -1      4011 1.17817E-01
 -1      4012 3.16823E-01
 -1      4013 2.74481E-01
 -1      4014 1.86268E+00
 -1      4015 1.81434E+00
 -1      4016 1.46559E+00
 -1      4017 1.96576E+00
 -1      4018 3.32251E+00
 -1      4019 3.19589E+00
 -1      4020 1.55269E+00
 -1      4021 1.71305E+00
 -1      4022 1.92605E+00
 -1      4023 1.94077E+00
 -1      4024 2.16228E+00
 -1      4025 3.05926E+00
 -1      4026 2.66974E+00
 -1      4027 2.39392E+00
 -1      4028 4.41016E-01
 -1      4029 3.81509E-01
 -1      4030 5.16366E-01
 -1      4031 1.13891E-01
 -1      4032 1.19901E-01
 -1      4033 1.84994E-01
 -1      4034 1.12577E+00
 -1      4035 9.34712E-01
 -1      4036 8.18586E-01
 -1      4037 1.18795E-01
 -1      4038 1.05791E-01
 -1      4039 9.79340E-02
 -1      4040 1.02278E-01
 -1      4041 9.07409E-02
 -1      4042 2.68468E+00
 -1      4043 1.71537E-01
 -1      4044 1.77041E-01
 -1      4045 1.53725E-01
 -1      4046 1.44319E-01
 -1      4047 1.80750E+00
 -1      4048 1.38420E+00
 -1      4049 1.28139E+00
 -1      4050 4.11448E+00
 -1      4051 5.45737E-02
 -1      4052 7.99570E-01
 -1      4053 7.01836E-01
 -1      4054 6.98704E-01
 -1      4055 8.21999E-02
 -1      4056 8.66245E-02
 -1      4057 7.25940E-02
 -1      4058 1.10224E-01
 -1      4059 6.29985E-02
 -1      4060 2.48021E+00
 -1      4061 2.95566E+00
 -1      4062 2.89684E+00
 -1      4063 9.62501E-02
 -1      4064 1.03908E-01
 -1      4065 1.19106E-01
 -1      4066 9.40596E-02
 -1      4067 9.61276E-02
 -1      4068 2.77446E+00
 -1      4069 3.44447E+00
 -1      4070 3.44447E+00
 -1      4071 2.26807E+00
 -1      4072 1.54796E-01
 -1      4073 9.37365E-02
 -1      4074 2.07518E+00
 -1      4075 1.80750E+00
 -1      4076 2.33374E+00
 -1      4077 1.00401E-01
 -1      4078 1.00401E-01
 -1      4079 9.55069E-02
 -1      4080 9.76921E-02
 -1      4081 1.04691E-01
 -1      4082 1.06754E-01
 -1      4083 1.38095E-01
 -1      4084 1.29602E-01
 -1      4085 1.11586E-01
 -1      4086 9.60216E-02
 -1      4087 9.17210E-02
 -1      4088 1.13871E-01
 -1      4089 3.49201E+00
 -1      4090 3.08883E+00
 -1      4091 9.88746E-02
 -1      4092 1.10030E-01
 -1      4093 9.82154E-02
 -1      4094 7.03785E-02
 -1      4095 2.65250E+00
 -1      4096 9.95715E-02
 -1      4097 1.18569E-01
 -1      4098 1.23990E-01
 -1      4099 1.12722E+00
 -1      4100 1.46559E+00
 -1      4101 2.16864E-01
 -1      4102 1.82914E-01
 -1      4103 2.78832E-01
 -1      4104 1.98512E+00
 -1      4105 1.97948E+00
 -1      4106 1.16982E-01
 -1      4107 1.21350E-01
 -1      4108 7.24099E-02
 -1      4109 3.13076E+00
 -1      4110 9.70425E-02
 -1      4111 1.20623E-01
 -1      4112 1.98512E+00
 -1      4113 9.20867E-02
 -1      4114 4.01135E-01
 -1      4115 2.01059E+00
 -1      4116 2.42303E+00
 -1      4117 1.83194E+00
 -1      4118 1.76499E+00
 -1      4119 1.57710E-01
 -1      4120 9.41200E-02
 -1      4121 9.41200E-02
 -1      4122 1.11891E-01
 -1      4123 1.43235E-01
 -1      4124 1.55277E-01
 -1      4125 1.62165E-01
 -1      4126 9.41200E-02
 -1      4127 2.04799E+00
 -1      4128 2.89120E+00
 -1      4129 2.57965E+00
 -1      4130 2.32109E+00
 -1      4131 2.82792E+00
 -1      4132 1.14290E-01
 -1      4133 1.86418E-01
 -1      4134 1.66573E-01
 -1      4135 1.62194E-01
 -1      4136 8.64609E-01
 -1      4137 6.60237E-01
 -1      4138 1.18513E-01
 -1      4139 1.26973E-01
 -1      4140 1.34181E-01
 -1      4141 1.44113E-01
 -1      4142 1.28932E-01
 -1      4143 1.52086E-01
 -1      4144 1.67509E-01
 -1      4145 1.44113E-01
 -1      4146 1.82931E-01
 -1      4147 2.01279E-01
 -1      4148 1.67509E-01
 -1      4149 2.33926E-01
 -1      4150 2.70194E-01
 -1      4151 2.15578E-01
 -1      4152 3.08225E-01
 -1      4153 3.56815E-01
 -1      4154 2.86255E-01
 -1      4155 5.06735E-01
 -1      4156 6.07334E-01
 -1      4157 4.74206E-01
 -1      4158 7.61039E-01
 -1      4159 9.07225E-01
 -1      4160 7.77831E-01
 -1      4161 1.09793E+00
 -1      4162 1.29884E+00
 -1      4163 1.12224E+00
 -1      4164 1.52846E+00
 -1      4165 1.76693E+00
 -1      4166 1.54256E+00
 -1      4167 1.74380E+00
 -1      4168 2.25019E+00
 -1      4169 2.12824E+00
 -1      4170 1.03774E-01
 -1      4171 9.87406E-02
 -1      4172 3.50449E-01
 -1      4173 2.91048E-01
 -1      4174 2.56481E-01
 -1      4175 2.22637E-01
 -1      4176 2.57203E-01
 -1      4177 2.18767E-01
 -1      4178 1.16637E-01
 -1      4179 1.20623E-01
 -1      4180 1.20623E-01
 -1      4181 9.08875E-02
 -1      4182 2.15137E+00
 -1      4183 2.01474E+00
 -1      4184 1.74905E+00
 -1      4185 9.10033E-01
 -1      4186 9.94481E-01
 -1      4187 1.22504E+00
 -1      4188 1.37179E+00
 -1      4189 1.49452E+00
 -1      4190 1.51418E+00
 -1      4191 1.98899E+00
 -1      4192 1.86748E+00
 -1      4193 5.52226E-01
 -1      4194 6.15035E-01
 -1      4195 9.68965E-01
 -1      4196 3.62914E-01
 -1      4197 4.23418E-01
 -1      4198 5.45158E-01
 -1      4199 2.50424E-01
 -1      4200 2.97848E-01
 -1      4201 3.51284E-01
 -1      4202 1.82447E-01
 -1      4203 2.10199E-01
 -1      4204 2.45994E-01
 -1      4205 1.40234E-01
 -1      4206 1.59126E-01
 -1      4207 1.82447E-01
 -1      4208 1.20001E-01
 -1      4209 1.23528E-01
 -1      4210 1.42419E-01
 -1      4211 1.20001E-01
 -1      4212 1.84062E+00
 -1      4213 2.29455E+00
 -1      4214 2.25249E+00
 -1      4215 2.11171E+00
 -1      4216 1.59806E+00
 -1      4217 6.42894E-01
 -1      4218 5.78208E-01
 -1      4219 9.22282E-01
 -1      4220 8.71736E-01
 -1      4221 1.04881E+00
 -1      4222 8.35353E-02
 -1      4223 9.24656E-02
 -1      4224 9.63263E-02
 -1      4225 9.80244E-02
 -1      4226 8.75421E-02
 -1      4227 9.43794E-02
 -1      4228 1.30134E+00
 -1      4229 1.33352E+00
 -1      4230 1.07509E+00
 -1      4231 9.16741E-01
 -1      4232 1.00998E-01
 -1      4233 1.09860E-01
 -1      4234 1.13071E-01
 -1      4235 1.30134E+00
 -1      4236 1.16955E+00
 -1      4237 1.52492E+00
 -1      4238 2.85491E+00
 -1      4239 5.37881E-01
 -1      4240 4.35339E-01
 -1      4241 3.76659E-01
 -1      4242 5.83905E-01
 -1      4243 2.71247E+00
 -1      4244 2.71247E+00
 -1      4245 2.45156E+00
 -1      4246 2.31543E+00
 -1      4247 1.74905E+00
 -1      4248 1.12486E-01
 -1      4249 1.13012E-01
 -1      4250 1.13928E-01
 -1      4251 2.00466E-01
 -1      4252 1.90013E+00
 -1      4253 1.63245E+00
 -1      4254 1.42615E+00
 -1      4255 2.18767E-01
 -1      4256 3.06536E-01
 -1      4257 2.48919E-01
 -1      4258 5.48295E-01
 -1      4259 9.60419E-02
 -1      4260 9.47102E-02
 -1      4261 9.14651E-02
 -1      4262 1.38938E-01
 -1      4263 1.27207E-01
 -1      4264 2.54935E+00
 -1      4265 1.17602E-01
 -1      4266 1.20001E-01
 -1      4267 1.25712E-01
 -1      4268 1.70304E-01
 -1      4269 1.77218E+00
 -1      4270 2.17299E+00
 -1      4271 9.77992E-02
 -1      4272 5.87356E-02
 -1      4273 7.00452E-02
 -1      4274 7.36837E-02
 -1      4275 6.98610E-02
 -1      4276 1.96758E-01
 -1      4277 1.72318E-01
 -1      4278 1.80418E-01
 -1      4279 1.04359E-01
 -1      4280 1.13012E-01
 -1      4281 1.36140E-01
 -1      4282 1.44113E-01
 -1      4283 1.49563E-01
 -1      4284 1.64985E-01
 -1      4285 1.98365E-01
 -1      4286 2.31012E-01
 -1      4287 3.66093E-01
 -1      4288 5.16014E-01
 -1      4289 7.22047E-01
 -1      4290 8.75751E-01
 -1      4291 1.10459E+00
 -1      4292 1.29530E+00
 -1      4293 1.54256E+00
 -1      4294 1.77218E+00
 -1      4295 1.15595E-01
 -1      4296 1.14974E-01
 -1      4297 1.22770E-01
 -1      4298 1.35427E-01
 -1      4299 2.71516E-01
 -1      4300 2.50767E-01
 -1      4301 2.67807E-01
 -1      4302 2.99220E-01
 -1      4303 2.11470E+00
 -1      4304 2.23015E+00
 -1      4305 1.98424E+00
 -1      4306 1.21724E-01
 -1      4307 1.49452E+00
 -1      4308 1.72508E+00
 -1      4309 4.81726E-01
 -1      4310 6.10534E-01
 -1      4311 2.03059E+00
 -1      4312 3.36140E-01
 -1      4313 4.01205E-01
 -1      4314 4.66582E-01
 -1      4315 2.45994E-01
 -1      4316 2.86219E-01
 -1      4317 3.36140E-01
 -1      4318 1.82447E-01
 -1      4319 2.05769E-01
 -1      4320 2.45994E-01
 -1      4321 1.70304E-01
 -1      4322 1.87011E-01
 -1      4323 2.10333E-01
 -1      4324 1.70304E-01
 -1      4325 6.98610E-02
 -1      4326 6.98610E-02
 -1      4327 9.80836E-02
 -1      4328 2.88994E-01
 -1      4329 2.54428E-01
 -1      4330 9.11806E-02
 -1      4331 9.77992E-02
 -1      4332 5.61868E-02
 -1      4333 7.36837E-02
 -1      4334 1.28932E-01
 -1      4335 2.85021E-01
 -1      4336 3.23051E-01
 -1      4337 7.72133E-02
 -1      4338 1.77218E+00
 -1      4339 1.80919E+00
 -1      4340 1.15205E+00
 -1      4341 1.38260E+00
 -1      4342 1.08367E+00
 -1      4343 8.57048E-01
 -1      4344 7.93615E-01
 -1      4345 2.14896E-01
 -1      4346 8.73194E-01
 -1      4347 3.38916E-01
 -1      4348 6.13934E-01
 -1      4349 7.36837E-02
 -1      4350 1.41589E-01
 -1      4351 2.18767E-01
 -1      4352 4.23805E-01
 -1      4353 6.26681E-01
 -1      4354 5.04326E-01
 -1      4355 2.14203E-01
 -1      4356 1.80919E+00
 -1      4357 3.64859E-01
 -1      4358 1.28932E-01
 -1      4359 3.42262E-01
 -1      4360 1.29978E-01
 -3
 9999
