    1C
    1UUSER                                                              
    1UDATE              27.october.2022                                 
    1UTIME              01:06:44                                        
    1UHOST                                                              
    1UPGM               CalculiX                                        
    1UVERSION           Version 2.17                             
    1UCOMPILETIME       Thu Jul 23 21:43:50 CEST 2020                    
    1UDIR                                                               
    1UDBN                                                               
    1UMAT    1SOLIDMATERIAL                                             
    2C                          4310                                     1
 -1         1 1.39088E+02 2.96987E+01 0.00000E+00
 -1         2 1.43276E+02 2.32885E+01 0.00000E+00
 -1         3 1.50000E+02 0.00000E+00 0.00000E+00
 -1         4 1.50000E+02 5.00000E+01 0.00000E+00
 -1         5 0.00000E+00 0.00000E+00 0.00000E+00
 -1         6 0.00000E+00 5.00000E+01 0.00000E+00
 -1         7 0.00000E+00 4.70500E+01 0.00000E+00
 -1         8 0.00000E+00 4.41000E+01 0.00000E+00
 -1         9 0.00000E+00 4.11500E+01 0.00000E+00
 -1        10 0.00000E+00 3.82000E+01 0.00000E+00
 -1        11 0.00000E+00 3.52500E+01 0.00000E+00
 -1        12 0.00000E+00 3.23500E+01 0.00000E+00
 -1        13 0.00000E+00 2.94000E+01 0.00000E+00
 -1        14 0.00000E+00 2.64500E+01 0.00000E+00
 -1        15 0.00000E+00 2.35000E+01 0.00000E+00
 -1        16 0.00000E+00 2.05500E+01 0.00000E+00
 -1        17 0.00000E+00 1.76000E+01 0.00000E+00
 -1        18 0.00000E+00 1.47000E+01 0.00000E+00
 -1        19 0.00000E+00 1.17500E+01 0.00000E+00
 -1        20 0.00000E+00 8.80000E+00 0.00000E+00
 -1        21 0.00000E+00 5.85000E+00 0.00000E+00
 -1        22 0.00000E+00 2.90000E+00 0.00000E+00
 -1        23 3.15000E+00 5.00000E+01 0.00000E+00
 -1        24 6.15000E+00 5.00000E+01 0.00000E+00
 -1        25 9.15000E+00 5.00000E+01 0.00000E+00
 -1        26 1.21500E+01 5.00000E+01 0.00000E+00
 -1        27 1.51500E+01 5.00000E+01 0.00000E+00
 -1        28 1.81500E+01 5.00000E+01 0.00000E+00
 -1        29 2.11500E+01 5.00000E+01 0.00000E+00
 -1        30 2.41500E+01 5.00000E+01 0.00000E+00
 -1        31 2.71500E+01 5.00000E+01 0.00000E+00
 -1        32 3.01500E+01 5.00000E+01 0.00000E+00
 -1        33 3.31500E+01 5.00000E+01 0.00000E+00
 -1        34 3.61500E+01 5.00000E+01 0.00000E+00
 -1        35 3.91500E+01 5.00000E+01 0.00000E+00
 -1        36 4.21500E+01 5.00000E+01 0.00000E+00
 -1        37 4.51500E+01 5.00000E+01 0.00000E+00
 -1        38 4.81500E+01 5.00000E+01 0.00000E+00
 -1        39 5.11500E+01 5.00000E+01 0.00000E+00
 -1        40 5.41500E+01 5.00000E+01 0.00000E+00
 -1        41 5.71500E+01 5.00000E+01 0.00000E+00
 -1        42 6.01500E+01 5.00000E+01 0.00000E+00
 -1        43 6.31500E+01 5.00000E+01 0.00000E+00
 -1        44 6.61500E+01 5.00000E+01 0.00000E+00
 -1        45 6.91500E+01 5.00000E+01 0.00000E+00
 -1        46 7.21500E+01 5.00000E+01 0.00000E+00
 -1        47 7.51500E+01 5.00000E+01 0.00000E+00
 -1        48 7.81500E+01 5.00000E+01 0.00000E+00
 -1        49 8.11500E+01 5.00000E+01 0.00000E+00
 -1        50 8.41500E+01 5.00000E+01 0.00000E+00
 -1        51 8.71500E+01 5.00000E+01 0.00000E+00
 -1        52 9.01500E+01 5.00000E+01 0.00000E+00
 -1        53 9.31500E+01 5.00000E+01 0.00000E+00
 -1        54 9.61500E+01 5.00000E+01 0.00000E+00
 -1        55 9.91500E+01 5.00000E+01 0.00000E+00
 -1        56 1.02150E+02 5.00000E+01 0.00000E+00
 -1        57 1.05150E+02 5.00000E+01 0.00000E+00
 -1        58 1.08150E+02 5.00000E+01 0.00000E+00
 -1        59 1.11150E+02 5.00000E+01 0.00000E+00
 -1        60 1.14150E+02 5.00000E+01 0.00000E+00
 -1        61 1.17150E+02 5.00000E+01 0.00000E+00
 -1        62 1.20150E+02 5.00000E+01 0.00000E+00
 -1        63 1.23150E+02 5.00000E+01 0.00000E+00
 -1        64 1.26150E+02 5.00000E+01 0.00000E+00
 -1        65 1.29150E+02 5.00000E+01 0.00000E+00
 -1        66 1.32150E+02 5.00000E+01 0.00000E+00
 -1        67 1.35150E+02 5.00000E+01 0.00000E+00
 -1        68 1.38150E+02 5.00000E+01 0.00000E+00
 -1        69 1.41150E+02 5.00000E+01 0.00000E+00
 -1        70 1.44150E+02 5.00000E+01 0.00000E+00
 -1        71 1.47150E+02 5.00000E+01 0.00000E+00
 -1        72 3.15000E+00 0.00000E+00 0.00000E+00
 -1        73 6.15000E+00 0.00000E+00 0.00000E+00
 -1        74 9.15000E+00 0.00000E+00 0.00000E+00
 -1        75 1.21500E+01 0.00000E+00 0.00000E+00
 -1        76 1.51500E+01 0.00000E+00 0.00000E+00
 -1        77 1.81500E+01 0.00000E+00 0.00000E+00
 -1        78 2.11500E+01 0.00000E+00 0.00000E+00
 -1        79 2.41500E+01 0.00000E+00 0.00000E+00
 -1        80 2.71500E+01 0.00000E+00 0.00000E+00
 -1        81 3.01500E+01 0.00000E+00 0.00000E+00
 -1        82 3.31500E+01 0.00000E+00 0.00000E+00
 -1        83 3.61500E+01 0.00000E+00 0.00000E+00
 -1        84 3.91500E+01 0.00000E+00 0.00000E+00
 -1        85 4.21500E+01 0.00000E+00 0.00000E+00
 -1        86 4.51500E+01 0.00000E+00 0.00000E+00
 -1        87 4.81500E+01 0.00000E+00 0.00000E+00
 -1        88 5.11500E+01 0.00000E+00 0.00000E+00
 -1        89 5.41500E+01 0.00000E+00 0.00000E+00
 -1        90 5.71500E+01 0.00000E+00 0.00000E+00
 -1        91 6.01500E+01 0.00000E+00 0.00000E+00
 -1        92 6.31500E+01 0.00000E+00 0.00000E+00
 -1        93 6.61500E+01 0.00000E+00 0.00000E+00
 -1        94 6.91500E+01 0.00000E+00 0.00000E+00
 -1        95 7.21500E+01 0.00000E+00 0.00000E+00
 -1        96 7.51500E+01 0.00000E+00 0.00000E+00
 -1        97 7.81500E+01 0.00000E+00 0.00000E+00
 -1        98 8.11500E+01 0.00000E+00 0.00000E+00
 -1        99 8.41500E+01 0.00000E+00 0.00000E+00
 -1       100 8.71500E+01 0.00000E+00 0.00000E+00
 -1       101 9.01500E+01 0.00000E+00 0.00000E+00
 -1       102 9.31500E+01 0.00000E+00 0.00000E+00
 -1       103 9.61500E+01 0.00000E+00 0.00000E+00
 -1       104 9.91500E+01 0.00000E+00 0.00000E+00
 -1       105 1.02150E+02 0.00000E+00 0.00000E+00
 -1       106 1.05150E+02 0.00000E+00 0.00000E+00
 -1       107 1.08150E+02 0.00000E+00 0.00000E+00
 -1       108 1.11150E+02 0.00000E+00 0.00000E+00
 -1       109 1.14150E+02 0.00000E+00 0.00000E+00
 -1       110 1.17150E+02 0.00000E+00 0.00000E+00
 -1       111 1.20150E+02 0.00000E+00 0.00000E+00
 -1       112 1.23150E+02 0.00000E+00 0.00000E+00
 -1       113 1.26150E+02 0.00000E+00 0.00000E+00
 -1       114 1.29150E+02 0.00000E+00 0.00000E+00
 -1       115 1.32150E+02 0.00000E+00 0.00000E+00
 -1       116 1.35150E+02 0.00000E+00 0.00000E+00
 -1       117 1.38150E+02 0.00000E+00 0.00000E+00
 -1       118 1.41150E+02 0.00000E+00 0.00000E+00
 -1       119 1.44150E+02 0.00000E+00 0.00000E+00
 -1       120 1.47150E+02 0.00000E+00 0.00000E+00
 -1       121 1.50000E+02 2.95000E+00 0.00000E+00
 -1       122 1.50000E+02 5.90000E+00 0.00000E+00
 -1       123 1.50000E+02 8.85000E+00 0.00000E+00
 -1       124 1.50000E+02 1.18000E+01 0.00000E+00
 -1       125 1.50000E+02 1.44500E+01 0.00000E+00
 -1       126 1.50000E+02 1.67500E+01 0.00000E+00
 -1       127 1.50000E+02 1.88000E+01 0.00000E+00
 -1       128 1.50000E+02 2.08000E+01 0.00000E+00
 -1       129 1.50000E+02 2.30500E+01 0.00000E+00
 -1       130 1.50000E+02 2.54500E+01 0.00000E+00
 -1       131 1.50000E+02 2.76500E+01 0.00000E+00
 -1       132 1.50000E+02 2.99500E+01 0.00000E+00
 -1       133 1.50000E+02 3.23500E+01 0.00000E+00
 -1       134 1.50000E+02 3.53000E+01 0.00000E+00
 -1       135 1.50000E+02 3.82500E+01 0.00000E+00
 -1       136 1.50000E+02 4.12000E+01 0.00000E+00
 -1       137 1.50000E+02 4.41500E+01 0.00000E+00
 -1       138 1.50000E+02 4.71000E+01 0.00000E+00
 -1       139 1.43109E+02 2.17689E+01 0.00000E+00
 -1       140 1.42587E+02 2.02596E+01 0.00000E+00
 -1       141 1.41832E+02 1.90305E+01 0.00000E+00
 -1       142 1.40799E+02 1.79458E+01 0.00000E+00
 -1       143 1.39524E+02 1.70874E+01 0.00000E+00
 -1       144 1.38218E+02 1.65633E+01 0.00000E+00
 -1       145 1.36807E+02 1.63086E+01 0.00000E+00
 -1       146 1.35352E+02 1.63497E+01 0.00000E+00
 -1       147 1.33933E+02 1.66924E+01 0.00000E+00
 -1       148 1.32617E+02 1.73209E+01 0.00000E+00
 -1       149 1.31253E+02 1.84136E+01 0.00000E+00
 -1       150 1.30371E+02 1.95298E+01 0.00000E+00
 -1       151 1.29725E+02 2.08226E+01 0.00000E+00
 -1       152 1.29361E+02 2.22011E+01 0.00000E+00
 -1       153 1.29296E+02 2.38161E+01 0.00000E+00
 -1       154 1.29553E+02 2.52374E+01 0.00000E+00
 -1       155 1.30116E+02 2.66132E+01 0.00000E+00
 -1       156 1.30919E+02 2.77934E+01 0.00000E+00
 -1       157 1.32077E+02 2.88891E+01 0.00000E+00
 -1       158 1.33358E+02 2.96514E+01 0.00000E+00
 -1       159 1.34752E+02 3.01204E+01 0.00000E+00
 -1       160 1.36234E+02 3.02883E+01 0.00000E+00
 -1       161 1.37678E+02 3.01467E+01 0.00000E+00
 -1       162 1.40244E+02 2.90552E+01 0.00000E+00
 -1       163 1.41343E+02 2.81180E+01 0.00000E+00
 -1       164 1.42153E+02 2.70916E+01 0.00000E+00
 -1       165 1.42783E+02 2.58696E+01 0.00000E+00
 -1       166 1.43148E+02 2.46239E+01 0.00000E+00
 -1       167 2.59800E+00 4.55750E+01 0.00000E+00
 -1       168 2.59800E+00 4.26250E+01 0.00000E+00
 -1       169 2.59800E+00 3.96750E+01 0.00000E+00
 -1       170 2.59800E+00 3.67250E+01 0.00000E+00
 -1       171 2.59800E+00 3.38250E+01 0.00000E+00
 -1       172 2.59800E+00 3.08750E+01 0.00000E+00
 -1       173 2.59800E+00 2.79250E+01 0.00000E+00
 -1       174 2.59800E+00 2.49750E+01 0.00000E+00
 -1       175 2.59800E+00 2.20250E+01 0.00000E+00
 -1       176 2.59800E+00 1.90750E+01 0.00000E+00
 -1       177 2.59800E+00 1.61750E+01 0.00000E+00
 -1       178 2.59800E+00 1.32250E+01 0.00000E+00
 -1       179 2.59800E+00 1.02750E+01 0.00000E+00
 -1       180 2.59800E+00 7.32500E+00 0.00000E+00
 -1       181 2.59800E+00 4.37500E+00 0.00000E+00
 -1       182 2.87400E+00 2.18750E+00 0.00000E+00
 -1       183 4.65000E+00 4.74020E+01 0.00000E+00
 -1       184 7.65000E+00 4.74020E+01 0.00000E+00
 -1       185 1.06500E+01 4.74020E+01 0.00000E+00
 -1       186 1.36500E+01 4.74020E+01 0.00000E+00
 -1       187 1.66500E+01 4.74020E+01 0.00000E+00
 -1       188 1.96500E+01 4.74020E+01 0.00000E+00
 -1       189 2.26500E+01 4.74020E+01 0.00000E+00
 -1       190 2.56500E+01 4.74020E+01 0.00000E+00
 -1       191 2.86500E+01 4.74020E+01 0.00000E+00
 -1       192 3.16500E+01 4.74020E+01 0.00000E+00
 -1       193 3.46500E+01 4.74020E+01 0.00000E+00
 -1       194 3.76500E+01 4.74020E+01 0.00000E+00
 -1       195 4.06500E+01 4.74020E+01 0.00000E+00
 -1       196 4.36500E+01 4.74020E+01 0.00000E+00
 -1       197 4.66500E+01 4.74020E+01 0.00000E+00
 -1       198 4.96500E+01 4.74020E+01 0.00000E+00
 -1       199 5.26500E+01 4.74020E+01 0.00000E+00
 -1       200 5.56500E+01 4.74020E+01 0.00000E+00
 -1       201 5.86500E+01 4.74020E+01 0.00000E+00
 -1       202 6.16500E+01 4.74020E+01 0.00000E+00
 -1       203 6.46500E+01 4.74020E+01 0.00000E+00
 -1       204 6.76500E+01 4.74020E+01 0.00000E+00
 -1       205 7.06500E+01 4.74020E+01 0.00000E+00
 -1       206 7.36500E+01 4.74020E+01 0.00000E+00
 -1       207 7.66500E+01 4.74020E+01 0.00000E+00
 -1       208 7.96500E+01 4.74020E+01 0.00000E+00
 -1       209 8.26500E+01 4.74020E+01 0.00000E+00
 -1       210 8.56500E+01 4.74020E+01 0.00000E+00
 -1       211 8.86500E+01 4.74020E+01 0.00000E+00
 -1       212 9.16500E+01 4.74020E+01 0.00000E+00
 -1       213 9.46500E+01 4.74020E+01 0.00000E+00
 -1       214 9.76500E+01 4.74020E+01 0.00000E+00
 -1       215 1.00650E+02 4.74020E+01 0.00000E+00
 -1       216 1.03650E+02 4.74020E+01 0.00000E+00
 -1       217 1.06650E+02 4.74020E+01 0.00000E+00
 -1       218 1.09650E+02 4.74020E+01 0.00000E+00
 -1       219 1.12650E+02 4.74020E+01 0.00000E+00
 -1       220 1.15650E+02 4.74020E+01 0.00000E+00
 -1       221 1.18650E+02 4.74020E+01 0.00000E+00
 -1       222 1.21650E+02 4.74020E+01 0.00000E+00
 -1       223 1.24650E+02 4.74020E+01 0.00000E+00
 -1       224 1.27650E+02 4.74020E+01 0.00000E+00
 -1       225 1.30650E+02 4.74020E+01 0.00000E+00
 -1       226 1.33650E+02 4.74020E+01 0.00000E+00
 -1       227 1.36650E+02 4.74020E+01 0.00000E+00
 -1       228 1.39650E+02 4.74020E+01 0.00000E+00
 -1       229 1.42650E+02 4.74020E+01 0.00000E+00
 -1       230 1.45650E+02 4.74020E+01 0.00000E+00
 -1       231 5.87400E+00 2.18750E+00 0.00000E+00
 -1       232 8.87400E+00 2.18750E+00 0.00000E+00
 -1       233 1.18740E+01 2.18750E+00 0.00000E+00
 -1       234 1.48740E+01 2.18750E+00 0.00000E+00
 -1       235 1.78740E+01 2.18750E+00 0.00000E+00
 -1       236 2.08740E+01 2.18750E+00 0.00000E+00
 -1       237 2.38740E+01 2.18750E+00 0.00000E+00
 -1       238 2.68740E+01 2.18750E+00 0.00000E+00
 -1       239 2.98740E+01 2.18750E+00 0.00000E+00
 -1       240 3.28740E+01 2.18750E+00 0.00000E+00
 -1       241 3.58740E+01 2.18750E+00 0.00000E+00
 -1       242 3.88740E+01 2.18750E+00 0.00000E+00
 -1       243 4.18740E+01 2.18750E+00 0.00000E+00
 -1       244 4.48740E+01 2.18750E+00 0.00000E+00
 -1       245 4.78740E+01 2.18750E+00 0.00000E+00
 -1       246 5.08740E+01 2.18750E+00 0.00000E+00
 -1       247 5.38740E+01 2.18750E+00 0.00000E+00
 -1       248 5.68740E+01 2.18750E+00 0.00000E+00
 -1       249 5.98740E+01 2.18750E+00 0.00000E+00
 -1       250 6.28740E+01 2.18750E+00 0.00000E+00
 -1       251 6.58740E+01 2.18750E+00 0.00000E+00
 -1       252 6.88740E+01 2.18750E+00 0.00000E+00
 -1       253 7.18740E+01 2.18750E+00 0.00000E+00
 -1       254 7.48740E+01 2.18750E+00 0.00000E+00
 -1       255 7.78740E+01 2.18750E+00 0.00000E+00
 -1       256 8.08740E+01 2.18750E+00 0.00000E+00
 -1       257 8.38740E+01 2.18750E+00 0.00000E+00
 -1       258 8.68740E+01 2.18750E+00 0.00000E+00
 -1       259 8.98740E+01 2.18750E+00 0.00000E+00
 -1       260 9.28740E+01 2.18750E+00 0.00000E+00
 -1       261 9.58740E+01 2.18750E+00 0.00000E+00
 -1       262 9.88740E+01 2.18750E+00 0.00000E+00
 -1       263 1.01874E+02 2.18750E+00 0.00000E+00
 -1       264 1.04874E+02 2.18750E+00 0.00000E+00
 -1       265 1.07874E+02 2.18750E+00 0.00000E+00
 -1       266 1.10874E+02 2.18750E+00 0.00000E+00
 -1       267 1.13874E+02 2.18750E+00 0.00000E+00
 -1       268 1.16874E+02 2.18750E+00 0.00000E+00
 -1       269 1.19874E+02 2.18750E+00 0.00000E+00
 -1       270 1.22874E+02 2.18750E+00 0.00000E+00
 -1       271 1.25874E+02 2.18750E+00 0.00000E+00
 -1       272 1.28874E+02 2.18750E+00 0.00000E+00
 -1       273 1.31874E+02 2.18750E+00 0.00000E+00
 -1       274 1.34874E+02 2.18750E+00 0.00000E+00
 -1       275 1.37874E+02 2.18750E+00 0.00000E+00
 -1       276 1.40874E+02 2.18750E+00 0.00000E+00
 -1       277 1.43874E+02 2.18750E+00 0.00000E+00
 -1       278 1.46874E+02 2.18750E+00 0.00000E+00
 -1       279 1.47402E+02 4.42500E+00 0.00000E+00
 -1       280 1.47402E+02 7.37500E+00 0.00000E+00
 -1       281 1.47402E+02 1.03250E+01 0.00000E+00
 -1       282 1.47402E+02 1.29750E+01 0.00000E+00
 -1       283 1.47402E+02 1.52750E+01 0.00000E+00
 -1       284 1.47402E+02 1.73250E+01 0.00000E+00
 -1       285 1.47402E+02 1.93250E+01 0.00000E+00
 -1       286 1.47402E+02 2.15750E+01 0.00000E+00
 -1       287 1.47402E+02 2.39750E+01 0.00000E+00
 -1       288 1.47402E+02 2.61750E+01 0.00000E+00
 -1       289 1.47402E+02 2.84750E+01 0.00000E+00
 -1       290 1.47402E+02 3.08750E+01 0.00000E+00
 -1       291 1.47402E+02 3.38250E+01 0.00000E+00
 -1       292 1.47402E+02 3.67750E+01 0.00000E+00
 -1       293 1.47402E+02 3.97250E+01 0.00000E+00
 -1       294 1.47402E+02 4.26750E+01 0.00000E+00
 -1       295 1.46526E+02 4.50385E+01 0.00000E+00
 -1       296 1.44565E+02 2.23780E+01 0.00000E+00
 -1       297 1.44311E+02 2.05082E+01 0.00000E+00
 -1       298 1.43314E+02 1.89668E+01 0.00000E+00
 -1       299 1.42254E+02 1.75942E+01 0.00000E+00
 -1       300 1.40885E+02 1.64413E+01 0.00000E+00
 -1       301 1.39323E+02 1.57002E+01 0.00000E+00
 -1       302 1.37743E+02 1.51603E+01 0.00000E+00
 -1       303 1.36043E+02 1.50335E+01 0.00000E+00
 -1       304 1.34338E+02 1.52611E+01 0.00000E+00
 -1       305 1.32716E+02 1.58371E+01 0.00000E+00
 -1       306 1.30915E+02 1.65939E+01 0.00000E+00
 -1       307 1.29861E+02 1.82202E+01 0.00000E+00
 -1       308 1.28963E+02 1.96343E+01 0.00000E+00
 -1       309 1.28290E+02 2.11811E+01 0.00000E+00
 -1       310 1.27950E+02 2.29530E+01 0.00000E+00
 -1       311 1.28232E+02 2.47424E+01 0.00000E+00
 -1       312 1.28558E+02 2.64481E+01 0.00000E+00
 -1       313 1.29515E+02 2.78849E+01 0.00000E+00
 -1       314 1.30550E+02 2.93439E+01 0.00000E+00
 -1       315 1.32098E+02 3.03122E+01 0.00000E+00
 -1       316 1.33641E+02 3.11143E+01 0.00000E+00
 -1       317 1.35356E+02 3.14091E+01 0.00000E+00
 -1       318 1.37074E+02 3.14241E+01 0.00000E+00
 -1       319 1.38801E+02 3.12380E+01 0.00000E+00
 -1       320 1.40256E+02 3.04362E+01 0.00000E+00
 -1       321 1.41689E+02 2.96367E+01 0.00000E+00
 -1       322 1.42700E+02 2.83556E+01 0.00000E+00
 -1       323 1.43695E+02 2.71129E+01 0.00000E+00
 -1       324 1.44059E+02 2.58672E+01 0.00000E+00
 -1       325 1.44502E+02 2.40804E+01 0.00000E+00
 -1       326 5.19600E+00 4.11500E+01 0.00000E+00
 -1       327 5.19600E+00 4.41000E+01 0.00000E+00
 -1       328 5.19600E+00 3.52750E+01 0.00000E+00
 -1       329 5.19600E+00 3.23250E+01 0.00000E+00
 -1       330 5.19600E+00 2.93750E+01 0.00000E+00
 -1       331 5.19600E+00 2.64250E+01 0.00000E+00
 -1       332 5.19600E+00 2.34750E+01 0.00000E+00
 -1       333 5.19600E+00 2.05250E+01 0.00000E+00
 -1       334 5.19600E+00 1.76250E+01 0.00000E+00
 -1       335 5.19600E+00 1.46750E+01 0.00000E+00
 -1       336 5.19600E+00 1.17250E+01 0.00000E+00
 -1       337 5.19600E+00 8.77500E+00 0.00000E+00
 -1       338 5.19600E+00 5.82500E+00 0.00000E+00
 -1       339 5.53500E+00 4.00625E+00 0.00000E+00
 -1       340 8.53500E+00 4.00625E+00 0.00000E+00
 -1       341 1.45539E+02 2.52856E+01 0.00000E+00
 -1       342 9.15000E+00 4.48040E+01 0.00000E+00
 -1       343 1.21500E+01 4.48040E+01 0.00000E+00
 -1       344 1.51500E+01 4.48040E+01 0.00000E+00
 -1       345 1.81500E+01 4.48040E+01 0.00000E+00
 -1       346 2.11500E+01 4.48040E+01 0.00000E+00
 -1       347 2.41500E+01 4.48040E+01 0.00000E+00
 -1       348 2.71500E+01 4.48040E+01 0.00000E+00
 -1       349 3.01500E+01 4.48040E+01 0.00000E+00
 -1       350 3.31500E+01 4.48040E+01 0.00000E+00
 -1       351 3.61500E+01 4.48040E+01 0.00000E+00
 -1       352 3.91500E+01 4.48040E+01 0.00000E+00
 -1       353 4.21500E+01 4.48040E+01 0.00000E+00
 -1       354 4.51500E+01 4.48040E+01 0.00000E+00
 -1       355 4.81500E+01 4.48040E+01 0.00000E+00
 -1       356 5.11500E+01 4.48040E+01 0.00000E+00
 -1       357 5.41500E+01 4.48040E+01 0.00000E+00
 -1       358 5.71500E+01 4.48040E+01 0.00000E+00
 -1       359 6.01500E+01 4.48040E+01 0.00000E+00
 -1       360 6.31500E+01 4.48040E+01 0.00000E+00
 -1       361 6.61500E+01 4.48040E+01 0.00000E+00
 -1       362 6.91500E+01 4.48040E+01 0.00000E+00
 -1       363 7.21500E+01 4.48040E+01 0.00000E+00
 -1       364 7.51500E+01 4.48040E+01 0.00000E+00
 -1       365 7.81500E+01 4.48040E+01 0.00000E+00
 -1       366 8.11500E+01 4.48040E+01 0.00000E+00
 -1       367 8.41500E+01 4.48040E+01 0.00000E+00
 -1       368 8.71500E+01 4.48040E+01 0.00000E+00
 -1       369 9.01500E+01 4.48040E+01 0.00000E+00
 -1       370 9.31500E+01 4.48040E+01 0.00000E+00
 -1       371 9.61500E+01 4.48040E+01 0.00000E+00
 -1       372 9.91500E+01 4.48040E+01 0.00000E+00
 -1       373 1.02150E+02 4.48040E+01 0.00000E+00
 -1       374 1.05150E+02 4.48040E+01 0.00000E+00
 -1       375 1.08150E+02 4.48040E+01 0.00000E+00
 -1       376 1.11150E+02 4.48040E+01 0.00000E+00
 -1       377 1.14150E+02 4.48040E+01 0.00000E+00
 -1       378 1.17150E+02 4.48040E+01 0.00000E+00
 -1       379 1.20150E+02 4.48040E+01 0.00000E+00
 -1       380 1.23150E+02 4.48040E+01 0.00000E+00
 -1       381 1.26150E+02 4.48040E+01 0.00000E+00
 -1       382 1.29150E+02 4.48040E+01 0.00000E+00
 -1       383 1.32150E+02 4.48040E+01 0.00000E+00
 -1       384 1.35150E+02 4.48040E+01 0.00000E+00
 -1       385 1.38150E+02 4.48040E+01 0.00000E+00
 -1       386 1.41150E+02 4.48040E+01 0.00000E+00
 -1       387 1.43838E+02 4.49212E+01 0.00000E+00
 -1       388 1.15350E+01 4.00625E+00 0.00000E+00
 -1       389 1.45350E+01 4.00625E+00 0.00000E+00
 -1       390 1.75350E+01 4.00625E+00 0.00000E+00
 -1       391 2.05350E+01 4.00625E+00 0.00000E+00
 -1       392 2.35350E+01 4.00625E+00 0.00000E+00
 -1       393 2.65350E+01 4.00625E+00 0.00000E+00
 -1       394 2.95350E+01 4.00625E+00 0.00000E+00
 -1       395 3.25350E+01 4.00625E+00 0.00000E+00
 -1       396 3.55350E+01 4.00625E+00 0.00000E+00
 -1       397 3.85350E+01 4.00625E+00 0.00000E+00
 -1       398 4.15350E+01 4.00625E+00 0.00000E+00
 -1       399 4.45350E+01 4.00625E+00 0.00000E+00
 -1       400 4.75350E+01 4.00625E+00 0.00000E+00
 -1       401 5.05350E+01 4.00625E+00 0.00000E+00
 -1       402 5.35350E+01 4.00625E+00 0.00000E+00
 -1       403 5.65350E+01 4.00625E+00 0.00000E+00
 -1       404 5.95350E+01 4.00625E+00 0.00000E+00
 -1       405 6.25350E+01 4.00625E+00 0.00000E+00
 -1       406 6.55350E+01 4.00625E+00 0.00000E+00
 -1       407 6.85350E+01 4.00625E+00 0.00000E+00
 -1       408 7.15350E+01 4.00625E+00 0.00000E+00
 -1       409 7.45350E+01 4.00625E+00 0.00000E+00
 -1       410 7.75350E+01 4.00625E+00 0.00000E+00
 -1       411 8.05350E+01 4.00625E+00 0.00000E+00
 -1       412 8.35350E+01 4.00625E+00 0.00000E+00
 -1       413 8.65350E+01 4.00625E+00 0.00000E+00
 -1       414 8.95350E+01 4.00625E+00 0.00000E+00
 -1       415 9.25350E+01 4.00625E+00 0.00000E+00
 -1       416 9.55350E+01 4.00625E+00 0.00000E+00
 -1       417 9.85350E+01 4.00625E+00 0.00000E+00
 -1       418 1.01535E+02 4.00625E+00 0.00000E+00
 -1       419 1.04535E+02 4.00625E+00 0.00000E+00
 -1       420 1.07535E+02 4.00625E+00 0.00000E+00
 -1       421 1.10535E+02 4.00625E+00 0.00000E+00
 -1       422 1.13535E+02 4.00625E+00 0.00000E+00
 -1       423 1.16535E+02 4.00625E+00 0.00000E+00
 -1       424 1.19535E+02 4.00625E+00 0.00000E+00
 -1       425 1.22535E+02 4.00625E+00 0.00000E+00
 -1       426 1.25535E+02 4.00625E+00 0.00000E+00
 -1       427 1.28535E+02 4.00625E+00 0.00000E+00
 -1       428 1.31535E+02 4.00625E+00 0.00000E+00
 -1       429 1.34535E+02 4.00625E+00 0.00000E+00
 -1       430 1.37535E+02 4.00625E+00 0.00000E+00
 -1       431 1.40535E+02 4.00625E+00 0.00000E+00
 -1       432 1.43535E+02 4.00625E+00 0.00000E+00
 -1       433 1.45469E+02 4.21562E+00 0.00000E+00
 -1       434 1.44804E+02 1.16500E+01 0.00000E+00
 -1       435 1.44804E+02 8.70000E+00 0.00000E+00
 -1       436 1.45136E+02 6.45781E+00 0.00000E+00
 -1       437 1.44804E+02 1.39500E+01 0.00000E+00
 -1       438 1.44804E+02 1.60000E+01 0.00000E+00
 -1       439 1.45352E+02 2.96750E+01 0.00000E+00
 -1       440 1.45352E+02 3.23500E+01 0.00000E+00
 -1       441 1.44849E+02 3.53000E+01 0.00000E+00
 -1       442 1.44849E+02 3.82500E+01 0.00000E+00
 -1       443 1.44849E+02 4.12000E+01 0.00000E+00
 -1       444 1.44901E+02 1.90338E+01 0.00000E+00
 -1       445 1.45971E+02 2.12349E+01 0.00000E+00
 -1       446 1.44009E+02 1.73346E+01 0.00000E+00
 -1       447 1.45174E+02 2.65314E+01 0.00000E+00
 -1       448 1.40803E+02 1.45968E+01 0.00000E+00
 -1       449 1.42567E+02 1.58340E+01 0.00000E+00
 -1       450 5.19600E+00 3.82125E+01 0.00000E+00
 -1       451 1.38979E+02 1.41244E+01 0.00000E+00
 -1       452 1.36989E+02 1.38043E+01 0.00000E+00
 -1       453 1.34997E+02 1.36964E+01 0.00000E+00
 -1       454 1.33009E+02 1.40908E+01 0.00000E+00
 -1       455 1.31208E+02 1.48476E+01 0.00000E+00
 -1       456 1.29230E+02 1.66561E+01 0.00000E+00
 -1       457 1.28247E+02 1.81880E+01 0.00000E+00
 -1       458 1.27438E+02 1.98902E+01 0.00000E+00
 -1       459 1.26600E+02 2.17755E+01 0.00000E+00
 -1       460 1.26728E+02 2.40623E+01 0.00000E+00
 -1       461 1.27039E+02 2.58543E+01 0.00000E+00
 -1       462 1.27957E+02 2.78851E+01 0.00000E+00
 -1       463 1.28838E+02 2.94613E+01 0.00000E+00
 -1       464 1.30592E+02 3.09980E+01 0.00000E+00
 -1       465 1.32272E+02 3.18634E+01 0.00000E+00
 -1       466 1.34265E+02 3.26217E+01 0.00000E+00
 -1       467 1.36201E+02 3.30479E+01 0.00000E+00
 -1       468 1.38086E+02 3.27031E+01 0.00000E+00
 -1       469 1.40235E+02 3.21192E+01 0.00000E+00
 -1       470 1.41668E+02 3.13196E+01 0.00000E+00
 -1       471 1.43212E+02 2.97991E+01 0.00000E+00
 -1       472 1.44207E+02 2.85564E+01 0.00000E+00
 -1       473 1.45983E+02 2.31765E+01 0.00000E+00
 -1       474 1.45352E+02 1.83250E+01 0.00000E+00
 -1       475 1.29523E+02 1.49098E+01 0.00000E+00
 -1       476 1.00350E+01 6.60425E+00 0.00000E+00
 -1       477 7.79400E+00 3.08500E+01 0.00000E+00
 -1       478 7.79400E+00 3.38000E+01 0.00000E+00
 -1       479 7.79400E+00 2.49500E+01 0.00000E+00
 -1       480 7.79400E+00 2.20000E+01 0.00000E+00
 -1       481 7.79400E+00 1.91000E+01 0.00000E+00
 -1       482 7.79400E+00 1.61500E+01 0.00000E+00
 -1       483 7.79400E+00 1.32000E+01 0.00000E+00
 -1       484 7.79400E+00 1.02500E+01 0.00000E+00
 -1       485 1.06500E+01 4.22060E+01 0.00000E+00
 -1       486 1.39610E+02 3.40662E+01 0.00000E+00
 -1       487 1.42251E+02 3.97250E+01 0.00000E+00
 -1       488 1.30350E+01 6.60425E+00 0.00000E+00
 -1       489 7.92300E+00 4.16780E+01 0.00000E+00
 -1       490 1.36500E+01 4.22060E+01 0.00000E+00
 -1       491 1.66500E+01 4.22060E+01 0.00000E+00
 -1       492 1.96500E+01 4.22060E+01 0.00000E+00
 -1       493 2.26500E+01 4.22060E+01 0.00000E+00
 -1       494 2.56500E+01 4.22060E+01 0.00000E+00
 -1       495 2.86500E+01 4.22060E+01 0.00000E+00
 -1       496 3.16500E+01 4.22060E+01 0.00000E+00
 -1       497 3.46500E+01 4.22060E+01 0.00000E+00
 -1       498 3.76500E+01 4.22060E+01 0.00000E+00
 -1       499 4.06500E+01 4.22060E+01 0.00000E+00
 -1       500 4.36500E+01 4.22060E+01 0.00000E+00
 -1       501 4.66500E+01 4.22060E+01 0.00000E+00
 -1       502 4.96500E+01 4.22060E+01 0.00000E+00
 -1       503 5.26500E+01 4.22060E+01 0.00000E+00
 -1       504 5.56500E+01 4.22060E+01 0.00000E+00
 -1       505 5.86500E+01 4.22060E+01 0.00000E+00
 -1       506 6.16500E+01 4.22060E+01 0.00000E+00
 -1       507 6.46500E+01 4.22060E+01 0.00000E+00
 -1       508 6.76500E+01 4.22060E+01 0.00000E+00
 -1       509 7.06500E+01 4.22060E+01 0.00000E+00
 -1       510 7.36500E+01 4.22060E+01 0.00000E+00
 -1       511 7.66500E+01 4.22060E+01 0.00000E+00
 -1       512 7.96500E+01 4.22060E+01 0.00000E+00
 -1       513 8.26500E+01 4.22060E+01 0.00000E+00
 -1       514 8.56500E+01 4.22060E+01 0.00000E+00
 -1       515 8.86500E+01 4.22060E+01 0.00000E+00
 -1       516 9.16500E+01 4.22060E+01 0.00000E+00
 -1       517 9.46500E+01 4.22060E+01 0.00000E+00
 -1       518 9.76500E+01 4.22060E+01 0.00000E+00
 -1       519 1.00650E+02 4.22060E+01 0.00000E+00
 -1       520 1.03650E+02 4.22060E+01 0.00000E+00
 -1       521 1.06650E+02 4.22060E+01 0.00000E+00
 -1       522 1.09650E+02 4.22060E+01 0.00000E+00
 -1       523 1.12650E+02 4.22060E+01 0.00000E+00
 -1       524 1.15650E+02 4.22060E+01 0.00000E+00
 -1       525 1.18650E+02 4.22060E+01 0.00000E+00
 -1       526 1.21650E+02 4.22060E+01 0.00000E+00
 -1       527 1.24650E+02 4.22060E+01 0.00000E+00
 -1       528 1.27650E+02 4.22060E+01 0.00000E+00
 -1       529 1.30650E+02 4.22060E+01 0.00000E+00
 -1       530 1.33650E+02 4.22060E+01 0.00000E+00
 -1       531 1.36650E+02 4.22060E+01 0.00000E+00
 -1       532 1.39650E+02 4.22060E+01 0.00000E+00
 -1       533 1.90350E+01 6.60425E+00 0.00000E+00
 -1       534 2.20350E+01 6.60425E+00 0.00000E+00
 -1       535 2.50350E+01 6.60425E+00 0.00000E+00
 -1       536 2.80350E+01 6.60425E+00 0.00000E+00
 -1       537 3.10350E+01 6.60425E+00 0.00000E+00
 -1       538 3.40350E+01 6.60425E+00 0.00000E+00
 -1       539 3.70350E+01 6.60425E+00 0.00000E+00
 -1       540 4.00350E+01 6.60425E+00 0.00000E+00
 -1       541 4.30350E+01 6.60425E+00 0.00000E+00
 -1       542 4.60350E+01 6.60425E+00 0.00000E+00
 -1       543 4.90350E+01 6.60425E+00 0.00000E+00
 -1       544 5.20350E+01 6.60425E+00 0.00000E+00
 -1       545 5.50350E+01 6.60425E+00 0.00000E+00
 -1       546 5.80350E+01 6.60425E+00 0.00000E+00
 -1       547 6.10350E+01 6.60425E+00 0.00000E+00
 -1       548 6.40350E+01 6.60425E+00 0.00000E+00
 -1       549 6.70350E+01 6.60425E+00 0.00000E+00
 -1       550 7.00350E+01 6.60425E+00 0.00000E+00
 -1       551 7.30350E+01 6.60425E+00 0.00000E+00
 -1       552 7.60350E+01 6.60425E+00 0.00000E+00
 -1       553 7.90350E+01 6.60425E+00 0.00000E+00
 -1       554 8.20350E+01 6.60425E+00 0.00000E+00
 -1       555 8.50350E+01 6.60425E+00 0.00000E+00
 -1       556 8.80350E+01 6.60425E+00 0.00000E+00
 -1       557 9.10350E+01 6.60425E+00 0.00000E+00
 -1       558 9.40350E+01 6.60425E+00 0.00000E+00
 -1       559 9.70350E+01 6.60425E+00 0.00000E+00
 -1       560 1.00035E+02 6.60425E+00 0.00000E+00
 -1       561 1.03035E+02 6.60425E+00 0.00000E+00
 -1       562 1.06035E+02 6.60425E+00 0.00000E+00
 -1       563 1.09035E+02 6.60425E+00 0.00000E+00
 -1       564 1.12035E+02 6.60425E+00 0.00000E+00
 -1       565 1.15035E+02 6.60425E+00 0.00000E+00
 -1       566 1.18035E+02 6.60425E+00 0.00000E+00
 -1       567 1.21035E+02 6.60425E+00 0.00000E+00
 -1       568 1.24035E+02 6.60425E+00 0.00000E+00
 -1       569 1.27035E+02 6.60425E+00 0.00000E+00
 -1       570 1.30035E+02 6.60425E+00 0.00000E+00
 -1       571 1.33035E+02 6.60425E+00 0.00000E+00
 -1       572 1.36035E+02 6.60425E+00 0.00000E+00
 -1       573 1.39035E+02 6.60425E+00 0.00000E+00
 -1       574 1.42035E+02 6.60425E+00 0.00000E+00
 -1       575 1.42419E+02 1.01750E+01 0.00000E+00
 -1       576 1.42419E+02 1.24750E+01 0.00000E+00
 -1       577 1.43637E+02 3.10125E+01 0.00000E+00
 -1       578 1.42251E+02 3.67750E+01 0.00000E+00
 -1       579 1.60350E+01 6.60425E+00 0.00000E+00
 -1       580 1.42754E+02 3.38250E+01 0.00000E+00
 -1       581 1.33669E+02 1.22113E+01 0.00000E+00
 -1       582 1.40279E+02 1.28625E+01 0.00000E+00
 -1       583 7.79400E+00 2.79000E+01 0.00000E+00
 -1       584 1.38230E+02 1.24365E+01 0.00000E+00
 -1       585 1.31380E+02 1.27335E+01 0.00000E+00
 -1       586 1.26445E+02 1.83752E+01 0.00000E+00
 -1       587 1.25606E+02 2.02605E+01 0.00000E+00
 -1       588 1.24784E+02 2.30237E+01 0.00000E+00
 -1       589 1.25441E+02 2.52090E+01 0.00000E+00
 -1       590 1.26088E+02 2.75073E+01 0.00000E+00
 -1       591 1.26974E+02 2.94691E+01 0.00000E+00
 -1       592 1.28364E+02 3.17717E+01 0.00000E+00
 -1       593 1.30723E+02 3.28065E+01 0.00000E+00
 -1       594 1.32748E+02 3.36107E+01 0.00000E+00
 -1       595 1.34937E+02 3.41825E+01 0.00000E+00
 -1       596 1.37452E+02 3.45626E+01 0.00000E+00
 -1       597 1.41746E+02 3.31440E+01 0.00000E+00
 -1       598 1.42574E+02 1.39485E+01 0.00000E+00
 -1       599 7.61550E+00 6.21462E+00 0.00000E+00
 -1       600 1.27295E+02 1.64954E+01 0.00000E+00
 -1       601 1.36081E+02 1.21214E+01 0.00000E+00
 -1       602 7.79400E+00 3.67375E+01 0.00000E+00
 -1       603 1.27588E+02 1.47491E+01 0.00000E+00
 -1       604 1.23790E+02 2.15087E+01 0.00000E+00
 -1       605 1.41701E+02 4.22645E+01 0.00000E+00
 -1       606 1.29694E+02 1.27957E+01 0.00000E+00
 -1       607 1.03920E+01 2.05500E+01 0.00000E+00
 -1       608 1.03920E+01 2.35000E+01 0.00000E+00
 -1       609 1.03920E+01 1.46750E+01 0.00000E+00
 -1       610 1.03920E+01 1.17250E+01 0.00000E+00
 -1       611 1.34811E+02 1.04525E+01 0.00000E+00
 -1       612 1.21500E+01 3.96080E+01 0.00000E+00
 -1       613 1.15350E+01 9.20225E+00 0.00000E+00
 -1       614 2.65350E+01 9.20225E+00 0.00000E+00
 -1       615 1.51500E+01 3.96080E+01 0.00000E+00
 -1       616 1.81500E+01 3.96080E+01 0.00000E+00
 -1       617 2.11500E+01 3.96080E+01 0.00000E+00
 -1       618 2.41500E+01 3.96080E+01 0.00000E+00
 -1       619 2.71500E+01 3.96080E+01 0.00000E+00
 -1       620 3.01500E+01 3.96080E+01 0.00000E+00
 -1       621 3.31500E+01 3.96080E+01 0.00000E+00
 -1       622 3.61500E+01 3.96080E+01 0.00000E+00
 -1       623 3.91500E+01 3.96080E+01 0.00000E+00
 -1       624 4.21500E+01 3.96080E+01 0.00000E+00
 -1       625 4.51500E+01 3.96080E+01 0.00000E+00
 -1       626 4.81500E+01 3.96080E+01 0.00000E+00
 -1       627 5.11500E+01 3.96080E+01 0.00000E+00
 -1       628 5.41500E+01 3.96080E+01 0.00000E+00
 -1       629 5.71500E+01 3.96080E+01 0.00000E+00
 -1       630 6.01500E+01 3.96080E+01 0.00000E+00
 -1       631 6.31500E+01 3.96080E+01 0.00000E+00
 -1       632 6.61500E+01 3.96080E+01 0.00000E+00
 -1       633 6.91500E+01 3.96080E+01 0.00000E+00
 -1       634 7.21500E+01 3.96080E+01 0.00000E+00
 -1       635 7.51500E+01 3.96080E+01 0.00000E+00
 -1       636 7.81500E+01 3.96080E+01 0.00000E+00
 -1       637 8.11500E+01 3.96080E+01 0.00000E+00
 -1       638 8.41500E+01 3.96080E+01 0.00000E+00
 -1       639 8.71500E+01 3.96080E+01 0.00000E+00
 -1       640 9.01500E+01 3.96080E+01 0.00000E+00
 -1       641 9.31500E+01 3.96080E+01 0.00000E+00
 -1       642 9.61500E+01 3.96080E+01 0.00000E+00
 -1       643 9.91500E+01 3.96080E+01 0.00000E+00
 -1       644 1.02150E+02 3.96080E+01 0.00000E+00
 -1       645 1.05150E+02 3.96080E+01 0.00000E+00
 -1       646 1.08150E+02 3.96080E+01 0.00000E+00
 -1       647 1.11150E+02 3.96080E+01 0.00000E+00
 -1       648 1.14150E+02 3.96080E+01 0.00000E+00
 -1       649 1.17150E+02 3.96080E+01 0.00000E+00
 -1       650 1.20150E+02 3.96080E+01 0.00000E+00
 -1       651 1.23150E+02 3.96080E+01 0.00000E+00
 -1       652 1.26150E+02 3.96080E+01 0.00000E+00
 -1       653 1.29150E+02 3.96080E+01 0.00000E+00
 -1       654 1.32150E+02 3.96080E+01 0.00000E+00
 -1       655 1.35150E+02 3.96080E+01 0.00000E+00
 -1       656 1.38150E+02 3.96080E+01 0.00000E+00
 -1       657 2.35350E+01 9.20225E+00 0.00000E+00
 -1       658 2.05350E+01 9.20225E+00 0.00000E+00
 -1       659 2.95350E+01 9.20225E+00 0.00000E+00
 -1       660 3.25350E+01 9.20225E+00 0.00000E+00
 -1       661 3.55350E+01 9.20225E+00 0.00000E+00
 -1       662 3.85350E+01 9.20225E+00 0.00000E+00
 -1       663 4.15350E+01 9.20225E+00 0.00000E+00
 -1       664 4.45350E+01 9.20225E+00 0.00000E+00
 -1       665 4.75350E+01 9.20225E+00 0.00000E+00
 -1       666 5.05350E+01 9.20225E+00 0.00000E+00
 -1       667 5.35350E+01 9.20225E+00 0.00000E+00
 -1       668 5.65350E+01 9.20225E+00 0.00000E+00
 -1       669 5.95350E+01 9.20225E+00 0.00000E+00
 -1       670 6.25350E+01 9.20225E+00 0.00000E+00
 -1       671 6.55350E+01 9.20225E+00 0.00000E+00
 -1       672 6.85350E+01 9.20225E+00 0.00000E+00
 -1       673 7.15350E+01 9.20225E+00 0.00000E+00
 -1       674 7.45350E+01 9.20225E+00 0.00000E+00
 -1       675 7.75350E+01 9.20225E+00 0.00000E+00
 -1       676 8.05350E+01 9.20225E+00 0.00000E+00
 -1       677 8.35350E+01 9.20225E+00 0.00000E+00
 -1       678 8.65350E+01 9.20225E+00 0.00000E+00
 -1       679 8.95350E+01 9.20225E+00 0.00000E+00
 -1       680 9.25350E+01 9.20225E+00 0.00000E+00
 -1       681 9.55350E+01 9.20225E+00 0.00000E+00
 -1       682 9.85350E+01 9.20225E+00 0.00000E+00
 -1       683 1.01535E+02 9.20225E+00 0.00000E+00
 -1       684 1.04535E+02 9.20225E+00 0.00000E+00
 -1       685 1.07535E+02 9.20225E+00 0.00000E+00
 -1       686 1.10535E+02 9.20225E+00 0.00000E+00
 -1       687 1.13535E+02 9.20225E+00 0.00000E+00
 -1       688 1.16535E+02 9.20225E+00 0.00000E+00
 -1       689 1.19535E+02 9.20225E+00 0.00000E+00
 -1       690 1.22535E+02 9.20225E+00 0.00000E+00
 -1       691 1.25535E+02 9.20225E+00 0.00000E+00
 -1       692 1.28535E+02 9.20225E+00 0.00000E+00
 -1       693 1.31535E+02 9.20225E+00 0.00000E+00
 -1       694 1.32522E+02 1.09747E+01 0.00000E+00
 -1       695 1.39653E+02 3.82500E+01 0.00000E+00
 -1       696 1.75350E+01 9.20225E+00 0.00000E+00
 -1       697 1.37380E+02 1.07478E+01 0.00000E+00
 -1       698 1.45350E+01 9.20225E+00 0.00000E+00
 -1       699 1.35951E+02 3.59855E+01 0.00000E+00
 -1       700 1.40279E+02 1.05625E+01 0.00000E+00
 -1       701 1.38953E+02 3.61492E+01 0.00000E+00
 -1       702 1.03920E+01 1.76125E+01 0.00000E+00
 -1       703 1.03920E+01 3.23250E+01 0.00000E+00
 -1       704 1.24535E+02 1.86551E+01 0.00000E+00
 -1       705 1.23791E+02 2.69137E+01 0.00000E+00
 -1       706 1.24968E+02 2.91939E+01 0.00000E+00
 -1       707 1.26201E+02 3.15068E+01 0.00000E+00
 -1       708 1.28855E+02 3.38597E+01 0.00000E+00
 -1       709 1.31103E+02 3.48026E+01 0.00000E+00
 -1       710 1.33409E+02 3.55560E+01 0.00000E+00
 -1       711 1.25385E+02 1.67754E+01 0.00000E+00
 -1       712 1.23134E+02 2.47284E+01 0.00000E+00
 -1       713 1.03920E+01 3.52625E+01 0.00000E+00
 -1       714 1.03920E+01 2.64500E+01 0.00000E+00
 -1       715 1.30836E+02 1.10369E+01 0.00000E+00
 -1       716 1.37535E+02 9.20225E+00 0.00000E+00
 -1       717 1.26691E+02 3.35949E+01 0.00000E+00
 -1       718 1.05210E+01 3.87342E+01 0.00000E+00
 -1       719 1.25678E+02 1.50290E+01 0.00000E+00
 -1       720 1.22140E+02 2.32134E+01 0.00000E+00
 -1       721 1.03920E+01 2.93875E+01 0.00000E+00
 -1       722 1.22719E+02 1.99033E+01 0.00000E+00
 -1       723 1.29900E+01 1.32000E+01 0.00000E+00
 -1       724 2.80350E+01 1.18003E+01 0.00000E+00
 -1       725 1.66500E+01 3.70100E+01 0.00000E+00
 -1       726 1.96500E+01 3.70100E+01 0.00000E+00
 -1       727 2.26500E+01 3.70100E+01 0.00000E+00
 -1       728 2.56500E+01 3.70100E+01 0.00000E+00
 -1       729 2.86500E+01 3.70100E+01 0.00000E+00
 -1       730 3.16500E+01 3.70100E+01 0.00000E+00
 -1       731 3.46500E+01 3.70100E+01 0.00000E+00
 -1       732 3.76500E+01 3.70100E+01 0.00000E+00
 -1       733 4.06500E+01 3.70100E+01 0.00000E+00
 -1       734 4.36500E+01 3.70100E+01 0.00000E+00
 -1       735 4.66500E+01 3.70100E+01 0.00000E+00
 -1       736 4.96500E+01 3.70100E+01 0.00000E+00
 -1       737 5.26500E+01 3.70100E+01 0.00000E+00
 -1       738 5.56500E+01 3.70100E+01 0.00000E+00
 -1       739 5.86500E+01 3.70100E+01 0.00000E+00
 -1       740 6.16500E+01 3.70100E+01 0.00000E+00
 -1       741 6.46500E+01 3.70100E+01 0.00000E+00
 -1       742 6.76500E+01 3.70100E+01 0.00000E+00
 -1       743 7.06500E+01 3.70100E+01 0.00000E+00
 -1       744 7.36500E+01 3.70100E+01 0.00000E+00
 -1       745 7.66500E+01 3.70100E+01 0.00000E+00
 -1       746 7.96500E+01 3.70100E+01 0.00000E+00
 -1       747 8.26500E+01 3.70100E+01 0.00000E+00
 -1       748 8.56500E+01 3.70100E+01 0.00000E+00
 -1       749 8.86500E+01 3.70100E+01 0.00000E+00
 -1       750 9.16500E+01 3.70100E+01 0.00000E+00
 -1       751 9.46500E+01 3.70100E+01 0.00000E+00
 -1       752 9.76500E+01 3.70100E+01 0.00000E+00
 -1       753 1.00650E+02 3.70100E+01 0.00000E+00
 -1       754 1.03650E+02 3.70100E+01 0.00000E+00
 -1       755 1.06650E+02 3.70100E+01 0.00000E+00
 -1       756 1.09650E+02 3.70100E+01 0.00000E+00
 -1       757 1.12650E+02 3.70100E+01 0.00000E+00
 -1       758 1.15650E+02 3.70100E+01 0.00000E+00
 -1       759 1.18650E+02 3.70100E+01 0.00000E+00
 -1       760 1.21650E+02 3.70100E+01 0.00000E+00
 -1       761 1.24650E+02 3.70100E+01 0.00000E+00
 -1       762 1.27650E+02 3.70100E+01 0.00000E+00
 -1       763 1.33650E+02 3.75578E+01 0.00000E+00
 -1       764 1.36650E+02 3.72226E+01 0.00000E+00
 -1       765 2.50350E+01 1.18003E+01 0.00000E+00
 -1       766 2.20350E+01 1.18003E+01 0.00000E+00
 -1       767 3.40350E+01 1.18003E+01 0.00000E+00
 -1       768 3.70350E+01 1.18003E+01 0.00000E+00
 -1       769 4.00350E+01 1.18003E+01 0.00000E+00
 -1       770 4.30350E+01 1.18003E+01 0.00000E+00
 -1       771 4.60350E+01 1.18003E+01 0.00000E+00
 -1       772 4.90350E+01 1.18003E+01 0.00000E+00
 -1       773 5.20350E+01 1.18003E+01 0.00000E+00
 -1       774 5.50350E+01 1.18003E+01 0.00000E+00
 -1       775 5.80350E+01 1.18003E+01 0.00000E+00
 -1       776 6.10350E+01 1.18003E+01 0.00000E+00
 -1       777 6.40350E+01 1.18003E+01 0.00000E+00
 -1       778 6.70350E+01 1.18003E+01 0.00000E+00
 -1       779 7.00350E+01 1.18003E+01 0.00000E+00
 -1       780 7.30350E+01 1.18003E+01 0.00000E+00
 -1       781 7.60350E+01 1.18003E+01 0.00000E+00
 -1       782 7.90350E+01 1.18003E+01 0.00000E+00
 -1       783 8.20350E+01 1.18003E+01 0.00000E+00
 -1       784 8.50350E+01 1.18003E+01 0.00000E+00
 -1       785 8.80350E+01 1.18003E+01 0.00000E+00
 -1       786 9.10350E+01 1.18003E+01 0.00000E+00
 -1       787 9.40350E+01 1.18003E+01 0.00000E+00
 -1       788 9.70350E+01 1.18003E+01 0.00000E+00
 -1       789 1.00035E+02 1.18003E+01 0.00000E+00
 -1       790 1.03035E+02 1.18003E+01 0.00000E+00
 -1       791 1.06035E+02 1.18003E+01 0.00000E+00
 -1       792 1.09035E+02 1.18003E+01 0.00000E+00
 -1       793 1.12035E+02 1.18003E+01 0.00000E+00
 -1       794 1.15035E+02 1.18003E+01 0.00000E+00
 -1       795 1.18035E+02 1.18003E+01 0.00000E+00
 -1       796 1.21035E+02 1.18003E+01 0.00000E+00
 -1       797 1.24035E+02 1.18003E+01 0.00000E+00
 -1       798 1.36500E+01 3.70100E+01 0.00000E+00
 -1       799 1.90350E+01 1.18003E+01 0.00000E+00
 -1       800 1.22706E+02 2.89172E+01 0.00000E+00
 -1       801 3.10350E+01 1.18003E+01 0.00000E+00
 -1       802 1.23245E+02 1.69391E+01 0.00000E+00
 -1       803 1.27133E+02 1.21464E+01 0.00000E+00
 -1       804 1.29900E+01 2.20250E+01 0.00000E+00
 -1       805 1.37625E+01 1.12011E+01 0.00000E+00
 -1       806 1.29251E+02 3.60673E+01 0.00000E+00
 -1       807 1.23923E+02 3.12359E+01 0.00000E+00
 -1       808 1.31450E+02 3.68125E+01 0.00000E+00
 -1       809 1.21820E+02 2.63150E+01 0.00000E+00
 -1       810 1.20210E+01 3.61362E+01 0.00000E+00
 -1       811 1.29900E+01 2.49750E+01 0.00000E+00
 -1       812 1.27834E+02 1.06743E+01 0.00000E+00
 -1       813 1.20826E+02 2.48000E+01 0.00000E+00
 -1       814 1.23538E+02 1.51927E+01 0.00000E+00
 -1       815 1.63988E+01 1.15007E+01 0.00000E+00
 -1       816 1.27171E+02 3.53024E+01 0.00000E+00
 -1       817 1.29900E+01 1.61375E+01 0.00000E+00
 -1       818 1.29900E+01 3.08563E+01 0.00000E+00
 -1       819 1.21069E+02 2.16080E+01 0.00000E+00
 -1       820 1.29900E+01 1.90812E+01 0.00000E+00
 -1       821 1.24414E+02 3.33240E+01 0.00000E+00
 -1       822 1.25055E+01 3.34963E+01 0.00000E+00
 -1       823 1.81500E+01 3.44120E+01 0.00000E+00
 -1       824 2.11500E+01 3.44120E+01 0.00000E+00
 -1       825 2.41500E+01 3.44120E+01 0.00000E+00
 -1       826 2.71500E+01 3.44120E+01 0.00000E+00
 -1       827 3.01500E+01 3.44120E+01 0.00000E+00
 -1       828 3.31500E+01 3.44120E+01 0.00000E+00
 -1       829 3.61500E+01 3.44120E+01 0.00000E+00
 -1       830 3.91500E+01 3.44120E+01 0.00000E+00
 -1       831 4.21500E+01 3.44120E+01 0.00000E+00
 -1       832 4.51500E+01 3.44120E+01 0.00000E+00
 -1       833 4.81500E+01 3.44120E+01 0.00000E+00
 -1       834 5.11500E+01 3.44120E+01 0.00000E+00
 -1       835 5.41500E+01 3.44120E+01 0.00000E+00
 -1       836 5.71500E+01 3.44120E+01 0.00000E+00
 -1       837 6.01500E+01 3.44120E+01 0.00000E+00
 -1       838 6.31500E+01 3.44120E+01 0.00000E+00
 -1       839 6.61500E+01 3.44120E+01 0.00000E+00
 -1       840 6.91500E+01 3.44120E+01 0.00000E+00
 -1       841 7.21500E+01 3.44120E+01 0.00000E+00
 -1       842 7.51500E+01 3.44120E+01 0.00000E+00
 -1       843 7.81500E+01 3.44120E+01 0.00000E+00
 -1       844 8.11500E+01 3.44120E+01 0.00000E+00
 -1       845 8.41500E+01 3.44120E+01 0.00000E+00
 -1       846 8.71500E+01 3.44120E+01 0.00000E+00
 -1       847 9.01500E+01 3.44120E+01 0.00000E+00
 -1       848 9.31500E+01 3.44120E+01 0.00000E+00
 -1       849 9.61500E+01 3.44120E+01 0.00000E+00
 -1       850 9.91500E+01 3.44120E+01 0.00000E+00
 -1       851 1.02150E+02 3.44120E+01 0.00000E+00
 -1       852 1.05150E+02 3.44120E+01 0.00000E+00
 -1       853 1.08150E+02 3.44120E+01 0.00000E+00
 -1       854 1.11150E+02 3.44120E+01 0.00000E+00
 -1       855 1.14150E+02 3.44120E+01 0.00000E+00
 -1       856 1.17150E+02 3.44120E+01 0.00000E+00
 -1       857 1.20150E+02 3.44120E+01 0.00000E+00
 -1       858 2.35350E+01 1.43982E+01 0.00000E+00
 -1       859 4.15350E+01 1.43982E+01 0.00000E+00
 -1       860 3.85350E+01 1.43982E+01 0.00000E+00
 -1       861 3.55350E+01 1.43982E+01 0.00000E+00
 -1       862 4.45350E+01 1.43982E+01 0.00000E+00
 -1       863 4.75350E+01 1.43982E+01 0.00000E+00
 -1       864 5.05350E+01 1.43982E+01 0.00000E+00
 -1       865 5.35350E+01 1.43982E+01 0.00000E+00
 -1       866 5.65350E+01 1.43982E+01 0.00000E+00
 -1       867 5.95350E+01 1.43982E+01 0.00000E+00
 -1       868 6.25350E+01 1.43982E+01 0.00000E+00
 -1       869 6.55350E+01 1.43982E+01 0.00000E+00
 -1       870 6.85350E+01 1.43982E+01 0.00000E+00
 -1       871 7.15350E+01 1.43982E+01 0.00000E+00
 -1       872 7.45350E+01 1.43982E+01 0.00000E+00
 -1       873 7.75350E+01 1.43982E+01 0.00000E+00
 -1       874 8.05350E+01 1.43982E+01 0.00000E+00
 -1       875 8.35350E+01 1.43982E+01 0.00000E+00
 -1       876 8.65350E+01 1.43982E+01 0.00000E+00
 -1       877 8.95350E+01 1.43982E+01 0.00000E+00
 -1       878 9.25350E+01 1.43982E+01 0.00000E+00
 -1       879 9.55350E+01 1.43982E+01 0.00000E+00
 -1       880 9.85350E+01 1.43982E+01 0.00000E+00
 -1       881 1.01535E+02 1.43982E+01 0.00000E+00
 -1       882 1.04535E+02 1.43982E+01 0.00000E+00
 -1       883 1.07535E+02 1.43982E+01 0.00000E+00
 -1       884 1.10535E+02 1.43982E+01 0.00000E+00
 -1       885 1.13535E+02 1.43982E+01 0.00000E+00
 -1       886 1.16535E+02 1.43982E+01 0.00000E+00
 -1       887 1.19535E+02 1.43982E+01 0.00000E+00
 -1       888 2.05350E+01 1.43982E+01 0.00000E+00
 -1       889 1.29900E+01 2.79188E+01 0.00000E+00
 -1       890 1.20005E+02 2.83852E+01 0.00000E+00
 -1       891 2.95350E+01 1.43982E+01 0.00000E+00
 -1       892 3.25350E+01 1.43982E+01 0.00000E+00
 -1       893 2.65350E+01 1.43982E+01 0.00000E+00
 -1       894 1.21202E+02 3.11847E+01 0.00000E+00
 -1       895 1.41345E+01 3.43700E+01 0.00000E+00
 -1       896 1.20633E+02 1.80043E+01 0.00000E+00
 -1       897 1.75351E+01 1.43983E+01 0.00000E+00
 -1       898 1.46190E+01 3.17300E+01 0.00000E+00
 -1       899 1.46190E+01 2.87925E+01 0.00000E+00
 -1       900 1.19012E+02 2.68702E+01 0.00000E+00
 -1       901 1.19755E+02 2.31946E+01 0.00000E+00
 -1       902 1.55880E+01 1.46687E+01 0.00000E+00
 -1       903 1.55880E+01 2.05531E+01 0.00000E+00
 -1       904 1.55880E+01 2.35031E+01 0.00000E+00
 -1       905 1.96500E+01 3.18140E+01 0.00000E+00
 -1       906 2.26500E+01 3.18140E+01 0.00000E+00
 -1       907 2.56500E+01 3.18140E+01 0.00000E+00
 -1       908 2.86500E+01 3.18140E+01 0.00000E+00
 -1       909 3.16500E+01 3.18140E+01 0.00000E+00
 -1       910 3.46500E+01 3.18140E+01 0.00000E+00
 -1       911 3.76500E+01 3.18140E+01 0.00000E+00
 -1       912 4.06500E+01 3.18140E+01 0.00000E+00
 -1       913 4.36500E+01 3.18140E+01 0.00000E+00
 -1       914 4.66500E+01 3.18140E+01 0.00000E+00
 -1       915 4.96500E+01 3.18140E+01 0.00000E+00
 -1       916 5.26500E+01 3.18140E+01 0.00000E+00
 -1       917 5.56500E+01 3.18140E+01 0.00000E+00
 -1       918 5.86500E+01 3.18140E+01 0.00000E+00
 -1       919 6.16500E+01 3.18140E+01 0.00000E+00
 -1       920 6.46500E+01 3.18140E+01 0.00000E+00
 -1       921 6.76500E+01 3.18140E+01 0.00000E+00
 -1       922 7.06500E+01 3.18140E+01 0.00000E+00
 -1       923 7.36500E+01 3.18140E+01 0.00000E+00
 -1       924 7.66500E+01 3.18140E+01 0.00000E+00
 -1       925 7.96500E+01 3.18140E+01 0.00000E+00
 -1       926 8.26500E+01 3.18140E+01 0.00000E+00
 -1       927 8.56500E+01 3.18140E+01 0.00000E+00
 -1       928 8.86500E+01 3.18140E+01 0.00000E+00
 -1       929 9.16500E+01 3.18140E+01 0.00000E+00
 -1       930 9.46500E+01 3.18140E+01 0.00000E+00
 -1       931 9.76500E+01 3.18140E+01 0.00000E+00
 -1       932 1.00650E+02 3.18140E+01 0.00000E+00
 -1       933 1.03650E+02 3.18140E+01 0.00000E+00
 -1       934 1.06650E+02 3.18140E+01 0.00000E+00
 -1       935 1.09650E+02 3.18140E+01 0.00000E+00
 -1       936 1.12650E+02 3.18140E+01 0.00000E+00
 -1       937 1.15650E+02 3.18140E+01 0.00000E+00
 -1       938 4.60350E+01 1.69963E+01 0.00000E+00
 -1       939 4.30350E+01 1.69963E+01 0.00000E+00
 -1       940 3.70350E+01 1.69963E+01 0.00000E+00
 -1       941 4.90350E+01 1.69963E+01 0.00000E+00
 -1       942 5.20350E+01 1.69963E+01 0.00000E+00
 -1       943 5.50350E+01 1.69963E+01 0.00000E+00
 -1       944 5.80350E+01 1.69963E+01 0.00000E+00
 -1       945 6.10350E+01 1.69963E+01 0.00000E+00
 -1       946 6.40350E+01 1.69963E+01 0.00000E+00
 -1       947 6.70350E+01 1.69963E+01 0.00000E+00
 -1       948 7.00350E+01 1.69963E+01 0.00000E+00
 -1       949 7.30350E+01 1.69963E+01 0.00000E+00
 -1       950 7.60350E+01 1.69963E+01 0.00000E+00
 -1       951 7.90350E+01 1.69963E+01 0.00000E+00
 -1       952 8.20350E+01 1.69963E+01 0.00000E+00
 -1       953 8.50350E+01 1.69963E+01 0.00000E+00
 -1       954 8.80350E+01 1.69963E+01 0.00000E+00
 -1       955 9.10350E+01 1.69963E+01 0.00000E+00
 -1       956 9.40350E+01 1.69963E+01 0.00000E+00
 -1       957 9.70350E+01 1.69963E+01 0.00000E+00
 -1       958 1.00035E+02 1.69963E+01 0.00000E+00
 -1       959 1.03035E+02 1.69963E+01 0.00000E+00
 -1       960 1.06035E+02 1.69963E+01 0.00000E+00
 -1       961 1.09035E+02 1.69963E+01 0.00000E+00
 -1       962 1.12035E+02 1.69963E+01 0.00000E+00
 -1       963 1.15035E+02 1.69963E+01 0.00000E+00
 -1       964 1.18035E+02 1.69963E+01 0.00000E+00
 -1       965 3.40350E+01 1.69963E+01 0.00000E+00
 -1       966 1.90351E+01 1.69963E+01 0.00000E+00
 -1       967 2.20351E+01 1.69963E+01 0.00000E+00
 -1       968 1.21101E+02 1.54181E+01 0.00000E+00
 -1       969 3.10350E+01 1.69963E+01 0.00000E+00
 -1       970 4.00350E+01 1.69963E+01 0.00000E+00
 -1       971 2.50351E+01 1.69963E+01 0.00000E+00
 -1       972 1.18410E+02 3.07227E+01 0.00000E+00
 -1       973 2.80350E+01 1.69963E+01 0.00000E+00
 -1       974 1.55880E+01 1.76109E+01 0.00000E+00
 -1       975 1.73115E+01 1.73036E+01 0.00000E+00
 -1       976 1.51035E+01 2.61478E+01 0.00000E+00
 -1       977 1.18483E+02 2.00924E+01 0.00000E+00
 -1       978 1.71345E+01 3.03032E+01 0.00000E+00
 -1       979 1.17417E+02 2.92077E+01 0.00000E+00
 -1       980 1.17940E+02 2.52648E+01 0.00000E+00
 -1       981 1.73115E+01 2.02458E+01 0.00000E+00
 -1       982 1.73115E+01 2.31958E+01 0.00000E+00
 -1       983 2.41500E+01 2.92160E+01 0.00000E+00
 -1       984 2.71500E+01 2.92160E+01 0.00000E+00
 -1       985 3.01500E+01 2.92160E+01 0.00000E+00
 -1       986 3.31500E+01 2.92160E+01 0.00000E+00
 -1       987 3.61500E+01 2.92160E+01 0.00000E+00
 -1       988 3.91500E+01 2.92160E+01 0.00000E+00
 -1       989 4.21500E+01 2.92160E+01 0.00000E+00
 -1       990 4.51500E+01 2.92160E+01 0.00000E+00
 -1       991 4.81500E+01 2.92160E+01 0.00000E+00
 -1       992 5.11500E+01 2.92160E+01 0.00000E+00
 -1       993 5.41500E+01 2.92160E+01 0.00000E+00
 -1       994 5.71500E+01 2.92160E+01 0.00000E+00
 -1       995 6.01500E+01 2.92160E+01 0.00000E+00
 -1       996 6.31500E+01 2.92160E+01 0.00000E+00
 -1       997 6.61500E+01 2.92160E+01 0.00000E+00
 -1       998 6.91500E+01 2.92160E+01 0.00000E+00
 -1       999 7.21500E+01 2.92160E+01 0.00000E+00
 -1      1000 7.51500E+01 2.92160E+01 0.00000E+00
 -1      1001 7.81500E+01 2.92160E+01 0.00000E+00
 -1      1002 8.11500E+01 2.92160E+01 0.00000E+00
 -1      1003 8.41500E+01 2.92160E+01 0.00000E+00
 -1      1004 8.71500E+01 2.92160E+01 0.00000E+00
 -1      1005 9.01500E+01 2.92160E+01 0.00000E+00
 -1      1006 9.31500E+01 2.92160E+01 0.00000E+00
 -1      1007 9.61500E+01 2.92160E+01 0.00000E+00
 -1      1008 9.91500E+01 2.92160E+01 0.00000E+00
 -1      1009 1.02150E+02 2.92160E+01 0.00000E+00
 -1      1010 1.05150E+02 2.92160E+01 0.00000E+00
 -1      1011 1.08150E+02 2.92160E+01 0.00000E+00
 -1      1012 1.11150E+02 2.92160E+01 0.00000E+00
 -1      1013 1.14150E+02 2.92160E+01 0.00000E+00
 -1      1014 5.05350E+01 1.95942E+01 0.00000E+00
 -1      1015 5.35350E+01 1.95942E+01 0.00000E+00
 -1      1016 4.75350E+01 1.95942E+01 0.00000E+00
 -1      1017 5.65350E+01 1.95942E+01 0.00000E+00
 -1      1018 5.95350E+01 1.95942E+01 0.00000E+00
 -1      1019 6.25350E+01 1.95942E+01 0.00000E+00
 -1      1020 6.55350E+01 1.95942E+01 0.00000E+00
 -1      1021 6.85350E+01 1.95942E+01 0.00000E+00
 -1      1022 7.15350E+01 1.95942E+01 0.00000E+00
 -1      1023 7.45350E+01 1.95942E+01 0.00000E+00
 -1      1024 7.75350E+01 1.95942E+01 0.00000E+00
 -1      1025 8.05350E+01 1.95942E+01 0.00000E+00
 -1      1026 8.35350E+01 1.95942E+01 0.00000E+00
 -1      1027 8.65350E+01 1.95942E+01 0.00000E+00
 -1      1028 8.95350E+01 1.95942E+01 0.00000E+00
 -1      1029 9.25350E+01 1.95942E+01 0.00000E+00
 -1      1030 9.55350E+01 1.95942E+01 0.00000E+00
 -1      1031 9.85350E+01 1.95942E+01 0.00000E+00
 -1      1032 1.01535E+02 1.95942E+01 0.00000E+00
 -1      1033 1.04535E+02 1.95942E+01 0.00000E+00
 -1      1034 1.07535E+02 1.95942E+01 0.00000E+00
 -1      1035 1.10535E+02 1.95942E+01 0.00000E+00
 -1      1036 1.13535E+02 1.95942E+01 0.00000E+00
 -1      1037 1.16009E+02 1.98433E+01 0.00000E+00
 -1      1038 3.55350E+01 1.95942E+01 0.00000E+00
 -1      1039 2.05351E+01 1.95943E+01 0.00000E+00
 -1      1040 3.85350E+01 1.95942E+01 0.00000E+00
 -1      1041 3.25350E+01 1.95942E+01 0.00000E+00
 -1      1042 4.45350E+01 1.95942E+01 0.00000E+00
 -1      1043 4.15350E+01 1.95942E+01 0.00000E+00
 -1      1044 1.16974E+02 2.25541E+01 0.00000E+00
 -1      1045 2.35351E+01 1.95943E+01 0.00000E+00
 -1      1046 2.11500E+01 2.92160E+01 0.00000E+00
 -1      1047 1.16345E+02 2.76023E+01 0.00000E+00
 -1      1048 2.95350E+01 1.95943E+01 0.00000E+00
 -1      1049 2.65350E+01 1.95943E+01 0.00000E+00
 -1      1050 1.68270E+01 2.58405E+01 0.00000E+00
 -1      1051 1.69808E+01 2.80719E+01 0.00000E+00
 -1      1052 1.99095E+01 2.17208E+01 0.00000E+00
 -1      1053 5.50350E+01 2.21922E+01 0.00000E+00
 -1      1054 2.86500E+01 2.66180E+01 0.00000E+00
 -1      1055 3.16500E+01 2.66180E+01 0.00000E+00
 -1      1056 3.46500E+01 2.66180E+01 0.00000E+00
 -1      1057 3.76500E+01 2.66180E+01 0.00000E+00
 -1      1058 4.06500E+01 2.66180E+01 0.00000E+00
 -1      1059 4.36500E+01 2.66180E+01 0.00000E+00
 -1      1060 4.66500E+01 2.66180E+01 0.00000E+00
 -1      1061 4.96500E+01 2.66180E+01 0.00000E+00
 -1      1062 5.26500E+01 2.66180E+01 0.00000E+00
 -1      1063 5.56500E+01 2.66180E+01 0.00000E+00
 -1      1064 5.86500E+01 2.66180E+01 0.00000E+00
 -1      1065 6.16500E+01 2.66180E+01 0.00000E+00
 -1      1066 6.46500E+01 2.66180E+01 0.00000E+00
 -1      1067 6.76500E+01 2.66180E+01 0.00000E+00
 -1      1068 7.06500E+01 2.66180E+01 0.00000E+00
 -1      1069 7.36500E+01 2.66180E+01 0.00000E+00
 -1      1070 7.66500E+01 2.66180E+01 0.00000E+00
 -1      1071 7.96500E+01 2.66180E+01 0.00000E+00
 -1      1072 8.26500E+01 2.66180E+01 0.00000E+00
 -1      1073 8.56500E+01 2.66180E+01 0.00000E+00
 -1      1074 8.86500E+01 2.66180E+01 0.00000E+00
 -1      1075 9.16500E+01 2.66180E+01 0.00000E+00
 -1      1076 9.46500E+01 2.66180E+01 0.00000E+00
 -1      1077 9.76500E+01 2.66180E+01 0.00000E+00
 -1      1078 1.00650E+02 2.66180E+01 0.00000E+00
 -1      1079 1.03650E+02 2.66180E+01 0.00000E+00
 -1      1080 1.06650E+02 2.66180E+01 0.00000E+00
 -1      1081 1.09650E+02 2.66180E+01 0.00000E+00
 -1      1082 1.12650E+02 2.66180E+01 0.00000E+00
 -1      1083 5.20350E+01 2.21922E+01 0.00000E+00
 -1      1084 4.90350E+01 2.21922E+01 0.00000E+00
 -1      1085 6.10350E+01 2.21922E+01 0.00000E+00
 -1      1086 6.40350E+01 2.21922E+01 0.00000E+00
 -1      1087 6.70350E+01 2.21922E+01 0.00000E+00
 -1      1088 7.00350E+01 2.21922E+01 0.00000E+00
 -1      1089 7.30350E+01 2.21922E+01 0.00000E+00
 -1      1090 7.60350E+01 2.21922E+01 0.00000E+00
 -1      1091 7.90350E+01 2.21922E+01 0.00000E+00
 -1      1092 8.20350E+01 2.21922E+01 0.00000E+00
 -1      1093 8.50350E+01 2.21922E+01 0.00000E+00
 -1      1094 8.80350E+01 2.21922E+01 0.00000E+00
 -1      1095 9.10350E+01 2.21922E+01 0.00000E+00
 -1      1096 9.40350E+01 2.21922E+01 0.00000E+00
 -1      1097 9.70350E+01 2.21922E+01 0.00000E+00
 -1      1098 1.00035E+02 2.21922E+01 0.00000E+00
 -1      1099 1.03035E+02 2.21922E+01 0.00000E+00
 -1      1100 1.06035E+02 2.21922E+01 0.00000E+00
 -1      1101 1.09035E+02 2.21922E+01 0.00000E+00
 -1      1102 1.12035E+02 2.21922E+01 0.00000E+00
 -1      1103 1.14505E+02 2.23732E+01 0.00000E+00
 -1      1104 2.26500E+01 2.66180E+01 0.00000E+00
 -1      1105 2.29095E+01 2.17208E+01 0.00000E+00
 -1      1106 3.70350E+01 2.21922E+01 0.00000E+00
 -1      1107 3.40350E+01 2.21922E+01 0.00000E+00
 -1      1108 5.80350E+01 2.21922E+01 0.00000E+00
 -1      1109 4.60350E+01 2.21922E+01 0.00000E+00
 -1      1110 4.30350E+01 2.21922E+01 0.00000E+00
 -1      1111 2.56500E+01 2.66180E+01 0.00000E+00
 -1      1112 1.98932E+01 2.47176E+01 0.00000E+00
 -1      1113 4.00350E+01 2.21922E+01 0.00000E+00
 -1      1114 3.10350E+01 2.21923E+01 0.00000E+00
 -1      1115 1.96501E+01 2.66180E+01 0.00000E+00
 -1      1116 2.59095E+01 2.17208E+01 0.00000E+00
 -1      1117 1.14812E+02 2.45860E+01 0.00000E+00
 -1      1118 2.84723E+01 2.19565E+01 0.00000E+00
 -1      1119 2.41500E+01 2.40200E+01 0.00000E+00
 -1      1120 0.00000E+00 4.85250E+01 0.00000E+00
 -1      1121 0.00000E+00 4.55750E+01 0.00000E+00
 -1      1122 0.00000E+00 4.26250E+01 0.00000E+00
 -1      1123 0.00000E+00 3.96750E+01 0.00000E+00
 -1      1124 0.00000E+00 3.67250E+01 0.00000E+00
 -1      1125 0.00000E+00 3.38000E+01 0.00000E+00
 -1      1126 0.00000E+00 3.08750E+01 0.00000E+00
 -1      1127 0.00000E+00 2.79250E+01 0.00000E+00
 -1      1128 0.00000E+00 2.49750E+01 0.00000E+00
 -1      1129 0.00000E+00 2.20250E+01 0.00000E+00
 -1      1130 0.00000E+00 1.90750E+01 0.00000E+00
 -1      1131 0.00000E+00 1.61500E+01 0.00000E+00
 -1      1132 0.00000E+00 1.32250E+01 0.00000E+00
 -1      1133 0.00000E+00 1.02750E+01 0.00000E+00
 -1      1134 0.00000E+00 7.32500E+00 0.00000E+00
 -1      1135 0.00000E+00 4.37500E+00 0.00000E+00
 -1      1136 0.00000E+00 1.45000E+00 0.00000E+00
 -1      1137 1.57500E+00 5.00000E+01 0.00000E+00
 -1      1138 4.65000E+00 5.00000E+01 0.00000E+00
 -1      1139 7.65000E+00 5.00000E+01 0.00000E+00
 -1      1140 1.06500E+01 5.00000E+01 0.00000E+00
 -1      1141 1.36500E+01 5.00000E+01 0.00000E+00
 -1      1142 1.66500E+01 5.00000E+01 0.00000E+00
 -1      1143 1.96500E+01 5.00000E+01 0.00000E+00
 -1      1144 2.26500E+01 5.00000E+01 0.00000E+00
 -1      1145 2.56500E+01 5.00000E+01 0.00000E+00
 -1      1146 2.86500E+01 5.00000E+01 0.00000E+00
 -1      1147 3.16500E+01 5.00000E+01 0.00000E+00
 -1      1148 3.46500E+01 5.00000E+01 0.00000E+00
 -1      1149 3.76500E+01 5.00000E+01 0.00000E+00
 -1      1150 4.06500E+01 5.00000E+01 0.00000E+00
 -1      1151 4.36500E+01 5.00000E+01 0.00000E+00
 -1      1152 4.66500E+01 5.00000E+01 0.00000E+00
 -1      1153 4.96500E+01 5.00000E+01 0.00000E+00
 -1      1154 5.26500E+01 5.00000E+01 0.00000E+00
 -1      1155 5.56500E+01 5.00000E+01 0.00000E+00
 -1      1156 5.86500E+01 5.00000E+01 0.00000E+00
 -1      1157 6.16500E+01 5.00000E+01 0.00000E+00
 -1      1158 6.46500E+01 5.00000E+01 0.00000E+00
 -1      1159 6.76500E+01 5.00000E+01 0.00000E+00
 -1      1160 7.06500E+01 5.00000E+01 0.00000E+00
 -1      1161 7.36500E+01 5.00000E+01 0.00000E+00
 -1      1162 7.66500E+01 5.00000E+01 0.00000E+00
 -1      1163 7.96500E+01 5.00000E+01 0.00000E+00
 -1      1164 8.26500E+01 5.00000E+01 0.00000E+00
 -1      1165 8.56500E+01 5.00000E+01 0.00000E+00
 -1      1166 8.86500E+01 5.00000E+01 0.00000E+00
 -1      1167 9.16500E+01 5.00000E+01 0.00000E+00
 -1      1168 9.46500E+01 5.00000E+01 0.00000E+00
 -1      1169 9.76500E+01 5.00000E+01 0.00000E+00
 -1      1170 1.00650E+02 5.00000E+01 0.00000E+00
 -1      1171 1.03650E+02 5.00000E+01 0.00000E+00
 -1      1172 1.06650E+02 5.00000E+01 0.00000E+00
 -1      1173 1.09650E+02 5.00000E+01 0.00000E+00
 -1      1174 1.12650E+02 5.00000E+01 0.00000E+00
 -1      1175 1.15650E+02 5.00000E+01 0.00000E+00
 -1      1176 1.18650E+02 5.00000E+01 0.00000E+00
 -1      1177 1.21650E+02 5.00000E+01 0.00000E+00
 -1      1178 1.24650E+02 5.00000E+01 0.00000E+00
 -1      1179 1.27650E+02 5.00000E+01 0.00000E+00
 -1      1180 1.30650E+02 5.00000E+01 0.00000E+00
 -1      1181 1.33650E+02 5.00000E+01 0.00000E+00
 -1      1182 1.36650E+02 5.00000E+01 0.00000E+00
 -1      1183 1.39650E+02 5.00000E+01 0.00000E+00
 -1      1184 1.42650E+02 5.00000E+01 0.00000E+00
 -1      1185 1.45650E+02 5.00000E+01 0.00000E+00
 -1      1186 1.48575E+02 5.00000E+01 0.00000E+00
 -1      1187 1.57500E+00 0.00000E+00 0.00000E+00
 -1      1188 4.65000E+00 0.00000E+00 0.00000E+00
 -1      1189 7.65000E+00 0.00000E+00 0.00000E+00
 -1      1190 1.06500E+01 0.00000E+00 0.00000E+00
 -1      1191 1.36500E+01 0.00000E+00 0.00000E+00
 -1      1192 1.66500E+01 0.00000E+00 0.00000E+00
 -1      1193 1.96500E+01 0.00000E+00 0.00000E+00
 -1      1194 2.26500E+01 0.00000E+00 0.00000E+00
 -1      1195 2.56500E+01 0.00000E+00 0.00000E+00
 -1      1196 2.86500E+01 0.00000E+00 0.00000E+00
 -1      1197 3.16500E+01 0.00000E+00 0.00000E+00
 -1      1198 3.46500E+01 0.00000E+00 0.00000E+00
 -1      1199 3.76500E+01 0.00000E+00 0.00000E+00
 -1      1200 4.06500E+01 0.00000E+00 0.00000E+00
 -1      1201 4.36500E+01 0.00000E+00 0.00000E+00
 -1      1202 4.66500E+01 0.00000E+00 0.00000E+00
 -1      1203 4.96500E+01 0.00000E+00 0.00000E+00
 -1      1204 5.26500E+01 0.00000E+00 0.00000E+00
 -1      1205 5.56500E+01 0.00000E+00 0.00000E+00
 -1      1206 5.86500E+01 0.00000E+00 0.00000E+00
 -1      1207 6.16500E+01 0.00000E+00 0.00000E+00
 -1      1208 6.46500E+01 0.00000E+00 0.00000E+00
 -1      1209 6.76500E+01 0.00000E+00 0.00000E+00
 -1      1210 7.06500E+01 0.00000E+00 0.00000E+00
 -1      1211 7.36500E+01 0.00000E+00 0.00000E+00
 -1      1212 7.66500E+01 0.00000E+00 0.00000E+00
 -1      1213 7.96500E+01 0.00000E+00 0.00000E+00
 -1      1214 8.26500E+01 0.00000E+00 0.00000E+00
 -1      1215 8.56500E+01 0.00000E+00 0.00000E+00
 -1      1216 8.86500E+01 0.00000E+00 0.00000E+00
 -1      1217 9.16500E+01 0.00000E+00 0.00000E+00
 -1      1218 9.46500E+01 0.00000E+00 0.00000E+00
 -1      1219 9.76500E+01 0.00000E+00 0.00000E+00
 -1      1220 1.00650E+02 0.00000E+00 0.00000E+00
 -1      1221 1.03650E+02 0.00000E+00 0.00000E+00
 -1      1222 1.06650E+02 0.00000E+00 0.00000E+00
 -1      1223 1.09650E+02 0.00000E+00 0.00000E+00
 -1      1224 1.12650E+02 0.00000E+00 0.00000E+00
 -1      1225 1.15650E+02 0.00000E+00 0.00000E+00
 -1      1226 1.18650E+02 0.00000E+00 0.00000E+00
 -1      1227 1.21650E+02 0.00000E+00 0.00000E+00
 -1      1228 1.24650E+02 0.00000E+00 0.00000E+00
 -1      1229 1.27650E+02 0.00000E+00 0.00000E+00
 -1      1230 1.30650E+02 0.00000E+00 0.00000E+00
 -1      1231 1.33650E+02 0.00000E+00 0.00000E+00
 -1      1232 1.36650E+02 0.00000E+00 0.00000E+00
 -1      1233 1.39650E+02 0.00000E+00 0.00000E+00
 -1      1234 1.42650E+02 0.00000E+00 0.00000E+00
 -1      1235 1.45650E+02 0.00000E+00 0.00000E+00
 -1      1236 1.48575E+02 0.00000E+00 0.00000E+00
 -1      1237 1.50000E+02 1.47500E+00 0.00000E+00
 -1      1238 1.50000E+02 4.42500E+00 0.00000E+00
 -1      1239 1.50000E+02 7.37500E+00 0.00000E+00
 -1      1240 1.50000E+02 1.03250E+01 0.00000E+00
 -1      1241 1.50000E+02 1.31250E+01 0.00000E+00
 -1      1242 1.50000E+02 1.56000E+01 0.00000E+00
 -1      1243 1.50000E+02 1.77750E+01 0.00000E+00
 -1      1244 1.50000E+02 1.98000E+01 0.00000E+00
 -1      1245 1.50000E+02 2.19250E+01 0.00000E+00
 -1      1246 1.50000E+02 2.42500E+01 0.00000E+00
 -1      1247 1.50000E+02 2.65500E+01 0.00000E+00
 -1      1248 1.50000E+02 2.88000E+01 0.00000E+00
 -1      1249 1.50000E+02 3.11500E+01 0.00000E+00
 -1      1250 1.50000E+02 3.38250E+01 0.00000E+00
 -1      1251 1.50000E+02 3.67750E+01 0.00000E+00
 -1      1252 1.50000E+02 3.97250E+01 0.00000E+00
 -1      1253 1.50000E+02 4.26750E+01 0.00000E+00
 -1      1254 1.50000E+02 4.56250E+01 0.00000E+00
 -1      1255 1.50000E+02 4.85500E+01 0.00000E+00
 -1      1256 1.43234E+02 2.25241E+01 0.00000E+00
 -1      1257 1.42891E+02 2.09993E+01 0.00000E+00
 -1      1258 1.42241E+02 1.96256E+01 0.00000E+00
 -1      1259 1.41345E+02 1.84604E+01 0.00000E+00
 -1      1260 1.40185E+02 1.74814E+01 0.00000E+00
 -1      1261 1.38884E+02 1.67924E+01 0.00000E+00
 -1      1262 1.37519E+02 1.63997E+01 0.00000E+00
 -1      1263 1.36078E+02 1.62913E+01 0.00000E+00
 -1      1264 1.34633E+02 1.64840E+01 0.00000E+00
 -1      1265 1.33259E+02 1.69723E+01 0.00000E+00
 -1      1266 1.31901E+02 1.78245E+01 0.00000E+00
 -1      1267 1.30783E+02 1.89492E+01 0.00000E+00
 -1      1268 1.30015E+02 2.01595E+01 0.00000E+00
 -1      1269 1.29508E+02 2.15025E+01 0.00000E+00
 -1      1270 1.29282E+02 2.30067E+01 0.00000E+00
 -1      1271 1.29388E+02 2.45334E+01 0.00000E+00
 -1      1272 1.29798E+02 2.59403E+01 0.00000E+00
 -1      1273 1.30487E+02 2.72238E+01 0.00000E+00
 -1      1274 1.31467E+02 2.83744E+01 0.00000E+00
 -1      1275 1.32697E+02 2.93044E+01 0.00000E+00
 -1      1276 1.34043E+02 2.99226E+01 0.00000E+00
 -1      1277 1.35488E+02 3.02440E+01 0.00000E+00
 -1      1278 1.36960E+02 3.02550E+01 0.00000E+00
 -1      1279 1.38395E+02 2.99601E+01 0.00000E+00
 -1      1280 1.39682E+02 2.94043E+01 0.00000E+00
 -1      1281 1.40818E+02 2.86150E+01 0.00000E+00
 -1      1282 1.41772E+02 2.76237E+01 0.00000E+00
 -1      1283 1.42498E+02 2.64961E+01 0.00000E+00
 -1      1284 1.42994E+02 2.52552E+01 0.00000E+00
 -1      1285 1.43244E+02 2.39592E+01 0.00000E+00
 -1      1286 1.57500E+00 4.85250E+01 0.00000E+00
 -1      1287 1.29900E+00 4.48375E+01 0.00000E+00
 -1      1288 1.29900E+00 4.63125E+01 0.00000E+00
 -1      1289 1.29900E+00 4.18875E+01 0.00000E+00
 -1      1290 1.29900E+00 4.33625E+01 0.00000E+00
 -1      1291 2.59800E+00 4.41000E+01 0.00000E+00
 -1      1292 1.29900E+00 3.89375E+01 0.00000E+00
 -1      1293 1.29900E+00 4.04125E+01 0.00000E+00
 -1      1294 2.59800E+00 4.11500E+01 0.00000E+00
 -1      1295 1.29900E+00 3.59875E+01 0.00000E+00
 -1      1296 1.29900E+00 3.74625E+01 0.00000E+00
 -1      1297 2.59800E+00 3.82000E+01 0.00000E+00
 -1      1298 1.29900E+00 3.30875E+01 0.00000E+00
 -1      1299 1.29900E+00 3.45375E+01 0.00000E+00
 -1      1300 2.59800E+00 3.52750E+01 0.00000E+00
 -1      1301 1.29900E+00 3.01375E+01 0.00000E+00
 -1      1302 1.29900E+00 3.16125E+01 0.00000E+00
 -1      1303 2.59800E+00 3.23500E+01 0.00000E+00
 -1      1304 1.29900E+00 2.71875E+01 0.00000E+00
 -1      1305 1.29900E+00 2.86625E+01 0.00000E+00
 -1      1306 2.59800E+00 2.94000E+01 0.00000E+00
 -1      1307 1.29900E+00 2.42375E+01 0.00000E+00
 -1      1308 1.29900E+00 2.57125E+01 0.00000E+00
 -1      1309 2.59800E+00 2.64500E+01 0.00000E+00
 -1      1310 1.29900E+00 2.12875E+01 0.00000E+00
 -1      1311 1.29900E+00 2.27625E+01 0.00000E+00
 -1      1312 2.59800E+00 2.35000E+01 0.00000E+00
 -1      1313 1.29900E+00 1.83375E+01 0.00000E+00
 -1      1314 1.29900E+00 1.98125E+01 0.00000E+00
 -1      1315 2.59800E+00 2.05500E+01 0.00000E+00
 -1      1316 1.29900E+00 1.54375E+01 0.00000E+00
 -1      1317 1.29900E+00 1.68875E+01 0.00000E+00
 -1      1318 2.59800E+00 1.76250E+01 0.00000E+00
 -1      1319 1.29900E+00 1.24875E+01 0.00000E+00
 -1      1320 1.29900E+00 1.39625E+01 0.00000E+00
 -1      1321 2.59800E+00 1.47000E+01 0.00000E+00
 -1      1322 1.29900E+00 9.53750E+00 0.00000E+00
 -1      1323 1.29900E+00 1.10125E+01 0.00000E+00
 -1      1324 2.59800E+00 1.17500E+01 0.00000E+00
 -1      1325 1.29900E+00 6.58750E+00 0.00000E+00
 -1      1326 1.29900E+00 8.06250E+00 0.00000E+00
 -1      1327 2.59800E+00 8.80000E+00 0.00000E+00
 -1      1328 1.29900E+00 3.63750E+00 0.00000E+00
 -1      1329 1.29900E+00 5.11250E+00 0.00000E+00
 -1      1330 2.59800E+00 5.85000E+00 0.00000E+00
 -1      1331 1.43700E+00 1.09375E+00 0.00000E+00
 -1      1332 1.43700E+00 2.54375E+00 0.00000E+00
 -1      1333 2.73600E+00 3.28125E+00 0.00000E+00
 -1      1334 3.01200E+00 1.09375E+00 0.00000E+00
 -1      1335 3.90000E+00 4.87010E+01 0.00000E+00
 -1      1336 5.40000E+00 4.87010E+01 0.00000E+00
 -1      1337 6.90000E+00 4.87010E+01 0.00000E+00
 -1      1338 8.40000E+00 4.87010E+01 0.00000E+00
 -1      1339 6.15000E+00 4.74020E+01 0.00000E+00
 -1      1340 9.90000E+00 4.87010E+01 0.00000E+00
 -1      1341 1.14000E+01 4.87010E+01 0.00000E+00
 -1      1342 9.15000E+00 4.74020E+01 0.00000E+00
 -1      1343 1.29000E+01 4.87010E+01 0.00000E+00
 -1      1344 1.44000E+01 4.87010E+01 0.00000E+00
 -1      1345 1.21500E+01 4.74020E+01 0.00000E+00
 -1      1346 1.59000E+01 4.87010E+01 0.00000E+00
 -1      1347 1.74000E+01 4.87010E+01 0.00000E+00
 -1      1348 1.51500E+01 4.74020E+01 0.00000E+00
 -1      1349 1.89000E+01 4.87010E+01 0.00000E+00
 -1      1350 2.04000E+01 4.87010E+01 0.00000E+00
 -1      1351 1.81500E+01 4.74020E+01 0.00000E+00
 -1      1352 2.19000E+01 4.87010E+01 0.00000E+00
 -1      1353 2.34000E+01 4.87010E+01 0.00000E+00
 -1      1354 2.11500E+01 4.74020E+01 0.00000E+00
 -1      1355 2.49000E+01 4.87010E+01 0.00000E+00
 -1      1356 2.64000E+01 4.87010E+01 0.00000E+00
 -1      1357 2.41500E+01 4.74020E+01 0.00000E+00
 -1      1358 2.79000E+01 4.87010E+01 0.00000E+00
 -1      1359 2.94000E+01 4.87010E+01 0.00000E+00
 -1      1360 2.71500E+01 4.74020E+01 0.00000E+00
 -1      1361 3.09000E+01 4.87010E+01 0.00000E+00
 -1      1362 3.24000E+01 4.87010E+01 0.00000E+00
 -1      1363 3.01500E+01 4.74020E+01 0.00000E+00
 -1      1364 3.39000E+01 4.87010E+01 0.00000E+00
 -1      1365 3.54000E+01 4.87010E+01 0.00000E+00
 -1      1366 3.31500E+01 4.74020E+01 0.00000E+00
 -1      1367 3.69000E+01 4.87010E+01 0.00000E+00
 -1      1368 3.84000E+01 4.87010E+01 0.00000E+00
 -1      1369 3.61500E+01 4.74020E+01 0.00000E+00
 -1      1370 3.99000E+01 4.87010E+01 0.00000E+00
 -1      1371 4.14000E+01 4.87010E+01 0.00000E+00
 -1      1372 3.91500E+01 4.74020E+01 0.00000E+00
 -1      1373 4.29000E+01 4.87010E+01 0.00000E+00
 -1      1374 4.44000E+01 4.87010E+01 0.00000E+00
 -1      1375 4.21500E+01 4.74020E+01 0.00000E+00
 -1      1376 4.59000E+01 4.87010E+01 0.00000E+00
 -1      1377 4.74000E+01 4.87010E+01 0.00000E+00
 -1      1378 4.51500E+01 4.74020E+01 0.00000E+00
 -1      1379 4.89000E+01 4.87010E+01 0.00000E+00
 -1      1380 5.04000E+01 4.87010E+01 0.00000E+00
 -1      1381 4.81500E+01 4.74020E+01 0.00000E+00
 -1      1382 5.19000E+01 4.87010E+01 0.00000E+00
 -1      1383 5.34000E+01 4.87010E+01 0.00000E+00
 -1      1384 5.11500E+01 4.74020E+01 0.00000E+00
 -1      1385 5.49000E+01 4.87010E+01 0.00000E+00
 -1      1386 5.64000E+01 4.87010E+01 0.00000E+00
 -1      1387 5.41500E+01 4.74020E+01 0.00000E+00
 -1      1388 5.79000E+01 4.87010E+01 0.00000E+00
 -1      1389 5.94000E+01 4.87010E+01 0.00000E+00
 -1      1390 5.71500E+01 4.74020E+01 0.00000E+00
 -1      1391 6.09000E+01 4.87010E+01 0.00000E+00
 -1      1392 6.24000E+01 4.87010E+01 0.00000E+00
 -1      1393 6.01500E+01 4.74020E+01 0.00000E+00
 -1      1394 6.39000E+01 4.87010E+01 0.00000E+00
 -1      1395 6.54000E+01 4.87010E+01 0.00000E+00
 -1      1396 6.31500E+01 4.74020E+01 0.00000E+00
 -1      1397 6.69000E+01 4.87010E+01 0.00000E+00
 -1      1398 6.84000E+01 4.87010E+01 0.00000E+00
 -1      1399 6.61500E+01 4.74020E+01 0.00000E+00
 -1      1400 6.99000E+01 4.87010E+01 0.00000E+00
 -1      1401 7.14000E+01 4.87010E+01 0.00000E+00
 -1      1402 6.91500E+01 4.74020E+01 0.00000E+00
 -1      1403 7.29000E+01 4.87010E+01 0.00000E+00
 -1      1404 7.44000E+01 4.87010E+01 0.00000E+00
 -1      1405 7.21500E+01 4.74020E+01 0.00000E+00
 -1      1406 7.59000E+01 4.87010E+01 0.00000E+00
 -1      1407 7.74000E+01 4.87010E+01 0.00000E+00
 -1      1408 7.51500E+01 4.74020E+01 0.00000E+00
 -1      1409 7.89000E+01 4.87010E+01 0.00000E+00
 -1      1410 8.04000E+01 4.87010E+01 0.00000E+00
 -1      1411 7.81500E+01 4.74020E+01 0.00000E+00
 -1      1412 8.19000E+01 4.87010E+01 0.00000E+00
 -1      1413 8.34000E+01 4.87010E+01 0.00000E+00
 -1      1414 8.11500E+01 4.74020E+01 0.00000E+00
 -1      1415 8.49000E+01 4.87010E+01 0.00000E+00
 -1      1416 8.64000E+01 4.87010E+01 0.00000E+00
 -1      1417 8.41500E+01 4.74020E+01 0.00000E+00
 -1      1418 8.79000E+01 4.87010E+01 0.00000E+00
 -1      1419 8.94000E+01 4.87010E+01 0.00000E+00
 -1      1420 8.71500E+01 4.74020E+01 0.00000E+00
 -1      1421 9.09000E+01 4.87010E+01 0.00000E+00
 -1      1422 9.24000E+01 4.87010E+01 0.00000E+00
 -1      1423 9.01500E+01 4.74020E+01 0.00000E+00
 -1      1424 9.39000E+01 4.87010E+01 0.00000E+00
 -1      1425 9.54000E+01 4.87010E+01 0.00000E+00
 -1      1426 9.31500E+01 4.74020E+01 0.00000E+00
 -1      1427 9.69000E+01 4.87010E+01 0.00000E+00
 -1      1428 9.84000E+01 4.87010E+01 0.00000E+00
 -1      1429 9.61500E+01 4.74020E+01 0.00000E+00
 -1      1430 9.99000E+01 4.87010E+01 0.00000E+00
 -1      1431 1.01400E+02 4.87010E+01 0.00000E+00
 -1      1432 9.91500E+01 4.74020E+01 0.00000E+00
 -1      1433 1.02900E+02 4.87010E+01 0.00000E+00
 -1      1434 1.04400E+02 4.87010E+01 0.00000E+00
 -1      1435 1.02150E+02 4.74020E+01 0.00000E+00
 -1      1436 1.05900E+02 4.87010E+01 0.00000E+00
 -1      1437 1.07400E+02 4.87010E+01 0.00000E+00
 -1      1438 1.05150E+02 4.74020E+01 0.00000E+00
 -1      1439 1.08900E+02 4.87010E+01 0.00000E+00
 -1      1440 1.10400E+02 4.87010E+01 0.00000E+00
 -1      1441 1.08150E+02 4.74020E+01 0.00000E+00
 -1      1442 1.11900E+02 4.87010E+01 0.00000E+00
 -1      1443 1.13400E+02 4.87010E+01 0.00000E+00
 -1      1444 1.11150E+02 4.74020E+01 0.00000E+00
 -1      1445 1.14900E+02 4.87010E+01 0.00000E+00
 -1      1446 1.16400E+02 4.87010E+01 0.00000E+00
 -1      1447 1.14150E+02 4.74020E+01 0.00000E+00
 -1      1448 1.17900E+02 4.87010E+01 0.00000E+00
 -1      1449 1.19400E+02 4.87010E+01 0.00000E+00
 -1      1450 1.17150E+02 4.74020E+01 0.00000E+00
 -1      1451 1.20900E+02 4.87010E+01 0.00000E+00
 -1      1452 1.22400E+02 4.87010E+01 0.00000E+00
 -1      1453 1.20150E+02 4.74020E+01 0.00000E+00
 -1      1454 1.23900E+02 4.87010E+01 0.00000E+00
 -1      1455 1.25400E+02 4.87010E+01 0.00000E+00
 -1      1456 1.23150E+02 4.74020E+01 0.00000E+00
 -1      1457 1.26900E+02 4.87010E+01 0.00000E+00
 -1      1458 1.28400E+02 4.87010E+01 0.00000E+00
 -1      1459 1.26150E+02 4.74020E+01 0.00000E+00
 -1      1460 1.29900E+02 4.87010E+01 0.00000E+00
 -1      1461 1.31400E+02 4.87010E+01 0.00000E+00
 -1      1462 1.29150E+02 4.74020E+01 0.00000E+00
 -1      1463 1.32900E+02 4.87010E+01 0.00000E+00
 -1      1464 1.34400E+02 4.87010E+01 0.00000E+00
 -1      1465 1.32150E+02 4.74020E+01 0.00000E+00
 -1      1466 1.35900E+02 4.87010E+01 0.00000E+00
 -1      1467 1.37400E+02 4.87010E+01 0.00000E+00
 -1      1468 1.35150E+02 4.74020E+01 0.00000E+00
 -1      1469 1.38900E+02 4.87010E+01 0.00000E+00
 -1      1470 1.40400E+02 4.87010E+01 0.00000E+00
 -1      1471 1.38150E+02 4.74020E+01 0.00000E+00
 -1      1472 1.41900E+02 4.87010E+01 0.00000E+00
 -1      1473 1.43400E+02 4.87010E+01 0.00000E+00
 -1      1474 1.41150E+02 4.74020E+01 0.00000E+00
 -1      1475 1.44900E+02 4.87010E+01 0.00000E+00
 -1      1476 1.46400E+02 4.87010E+01 0.00000E+00
 -1      1477 1.44150E+02 4.74020E+01 0.00000E+00
 -1      1478 1.48575E+02 4.85500E+01 0.00000E+00
 -1      1479 1.47825E+02 4.72510E+01 0.00000E+00
 -1      1480 6.01200E+00 1.09375E+00 0.00000E+00
 -1      1481 4.51200E+00 1.09375E+00 0.00000E+00
 -1      1482 4.37400E+00 2.18750E+00 0.00000E+00
 -1      1483 9.01200E+00 1.09375E+00 0.00000E+00
 -1      1484 7.51200E+00 1.09375E+00 0.00000E+00
 -1      1485 7.37400E+00 2.18750E+00 0.00000E+00
 -1      1486 1.20120E+01 1.09375E+00 0.00000E+00
 -1      1487 1.05120E+01 1.09375E+00 0.00000E+00
 -1      1488 1.03740E+01 2.18750E+00 0.00000E+00
 -1      1489 1.50120E+01 1.09375E+00 0.00000E+00
 -1      1490 1.35120E+01 1.09375E+00 0.00000E+00
 -1      1491 1.33740E+01 2.18750E+00 0.00000E+00
 -1      1492 1.80120E+01 1.09375E+00 0.00000E+00
 -1      1493 1.65120E+01 1.09375E+00 0.00000E+00
 -1      1494 1.63740E+01 2.18750E+00 0.00000E+00
 -1      1495 2.10120E+01 1.09375E+00 0.00000E+00
 -1      1496 1.95120E+01 1.09375E+00 0.00000E+00
 -1      1497 1.93740E+01 2.18750E+00 0.00000E+00
 -1      1498 2.40120E+01 1.09375E+00 0.00000E+00
 -1      1499 2.25120E+01 1.09375E+00 0.00000E+00
 -1      1500 2.23740E+01 2.18750E+00 0.00000E+00
 -1      1501 2.70120E+01 1.09375E+00 0.00000E+00
 -1      1502 2.55120E+01 1.09375E+00 0.00000E+00
 -1      1503 2.53740E+01 2.18750E+00 0.00000E+00
 -1      1504 3.00120E+01 1.09375E+00 0.00000E+00
 -1      1505 2.85120E+01 1.09375E+00 0.00000E+00
 -1      1506 2.83740E+01 2.18750E+00 0.00000E+00
 -1      1507 3.30120E+01 1.09375E+00 0.00000E+00
 -1      1508 3.15120E+01 1.09375E+00 0.00000E+00
 -1      1509 3.13740E+01 2.18750E+00 0.00000E+00
 -1      1510 3.60120E+01 1.09375E+00 0.00000E+00
 -1      1511 3.45120E+01 1.09375E+00 0.00000E+00
 -1      1512 3.43740E+01 2.18750E+00 0.00000E+00
 -1      1513 3.90120E+01 1.09375E+00 0.00000E+00
 -1      1514 3.75120E+01 1.09375E+00 0.00000E+00
 -1      1515 3.73740E+01 2.18750E+00 0.00000E+00
 -1      1516 4.20120E+01 1.09375E+00 0.00000E+00
 -1      1517 4.05120E+01 1.09375E+00 0.00000E+00
 -1      1518 4.03740E+01 2.18750E+00 0.00000E+00
 -1      1519 4.50120E+01 1.09375E+00 0.00000E+00
 -1      1520 4.35120E+01 1.09375E+00 0.00000E+00
 -1      1521 4.33740E+01 2.18750E+00 0.00000E+00
 -1      1522 4.80120E+01 1.09375E+00 0.00000E+00
 -1      1523 4.65120E+01 1.09375E+00 0.00000E+00
 -1      1524 4.63740E+01 2.18750E+00 0.00000E+00
 -1      1525 5.10120E+01 1.09375E+00 0.00000E+00
 -1      1526 4.95120E+01 1.09375E+00 0.00000E+00
 -1      1527 4.93740E+01 2.18750E+00 0.00000E+00
 -1      1528 5.40120E+01 1.09375E+00 0.00000E+00
 -1      1529 5.25120E+01 1.09375E+00 0.00000E+00
 -1      1530 5.23740E+01 2.18750E+00 0.00000E+00
 -1      1531 5.70120E+01 1.09375E+00 0.00000E+00
 -1      1532 5.55120E+01 1.09375E+00 0.00000E+00
 -1      1533 5.53740E+01 2.18750E+00 0.00000E+00
 -1      1534 6.00120E+01 1.09375E+00 0.00000E+00
 -1      1535 5.85120E+01 1.09375E+00 0.00000E+00
 -1      1536 5.83740E+01 2.18750E+00 0.00000E+00
 -1      1537 6.30120E+01 1.09375E+00 0.00000E+00
 -1      1538 6.15120E+01 1.09375E+00 0.00000E+00
 -1      1539 6.13740E+01 2.18750E+00 0.00000E+00
 -1      1540 6.60120E+01 1.09375E+00 0.00000E+00
 -1      1541 6.45120E+01 1.09375E+00 0.00000E+00
 -1      1542 6.43740E+01 2.18750E+00 0.00000E+00
 -1      1543 6.90120E+01 1.09375E+00 0.00000E+00
 -1      1544 6.75120E+01 1.09375E+00 0.00000E+00
 -1      1545 6.73740E+01 2.18750E+00 0.00000E+00
 -1      1546 7.20120E+01 1.09375E+00 0.00000E+00
 -1      1547 7.05120E+01 1.09375E+00 0.00000E+00
 -1      1548 7.03740E+01 2.18750E+00 0.00000E+00
 -1      1549 7.50120E+01 1.09375E+00 0.00000E+00
 -1      1550 7.35120E+01 1.09375E+00 0.00000E+00
 -1      1551 7.33740E+01 2.18750E+00 0.00000E+00
 -1      1552 7.80120E+01 1.09375E+00 0.00000E+00
 -1      1553 7.65120E+01 1.09375E+00 0.00000E+00
 -1      1554 7.63740E+01 2.18750E+00 0.00000E+00
 -1      1555 8.10120E+01 1.09375E+00 0.00000E+00
 -1      1556 7.95120E+01 1.09375E+00 0.00000E+00
 -1      1557 7.93740E+01 2.18750E+00 0.00000E+00
 -1      1558 8.40120E+01 1.09375E+00 0.00000E+00
 -1      1559 8.25120E+01 1.09375E+00 0.00000E+00
 -1      1560 8.23740E+01 2.18750E+00 0.00000E+00
 -1      1561 8.70120E+01 1.09375E+00 0.00000E+00
 -1      1562 8.55120E+01 1.09375E+00 0.00000E+00
 -1      1563 8.53740E+01 2.18750E+00 0.00000E+00
 -1      1564 9.00120E+01 1.09375E+00 0.00000E+00
 -1      1565 8.85120E+01 1.09375E+00 0.00000E+00
 -1      1566 8.83740E+01 2.18750E+00 0.00000E+00
 -1      1567 9.30120E+01 1.09375E+00 0.00000E+00
 -1      1568 9.15120E+01 1.09375E+00 0.00000E+00
 -1      1569 9.13740E+01 2.18750E+00 0.00000E+00
 -1      1570 9.60120E+01 1.09375E+00 0.00000E+00
 -1      1571 9.45120E+01 1.09375E+00 0.00000E+00
 -1      1572 9.43740E+01 2.18750E+00 0.00000E+00
 -1      1573 9.90120E+01 1.09375E+00 0.00000E+00
 -1      1574 9.75120E+01 1.09375E+00 0.00000E+00
 -1      1575 9.73740E+01 2.18750E+00 0.00000E+00
 -1      1576 1.02012E+02 1.09375E+00 0.00000E+00
 -1      1577 1.00512E+02 1.09375E+00 0.00000E+00
 -1      1578 1.00374E+02 2.18750E+00 0.00000E+00
 -1      1579 1.05012E+02 1.09375E+00 0.00000E+00
 -1      1580 1.03512E+02 1.09375E+00 0.00000E+00
 -1      1581 1.03374E+02 2.18750E+00 0.00000E+00
 -1      1582 1.08012E+02 1.09375E+00 0.00000E+00
 -1      1583 1.06512E+02 1.09375E+00 0.00000E+00
 -1      1584 1.06374E+02 2.18750E+00 0.00000E+00
 -1      1585 1.11012E+02 1.09375E+00 0.00000E+00
 -1      1586 1.09512E+02 1.09375E+00 0.00000E+00
 -1      1587 1.09374E+02 2.18750E+00 0.00000E+00
 -1      1588 1.14012E+02 1.09375E+00 0.00000E+00
 -1      1589 1.12512E+02 1.09375E+00 0.00000E+00
 -1      1590 1.12374E+02 2.18750E+00 0.00000E+00
 -1      1591 1.17012E+02 1.09375E+00 0.00000E+00
 -1      1592 1.15512E+02 1.09375E+00 0.00000E+00
 -1      1593 1.15374E+02 2.18750E+00 0.00000E+00
 -1      1594 1.20012E+02 1.09375E+00 0.00000E+00
 -1      1595 1.18512E+02 1.09375E+00 0.00000E+00
 -1      1596 1.18374E+02 2.18750E+00 0.00000E+00
 -1      1597 1.23012E+02 1.09375E+00 0.00000E+00
 -1      1598 1.21512E+02 1.09375E+00 0.00000E+00
 -1      1599 1.21374E+02 2.18750E+00 0.00000E+00
 -1      1600 1.26012E+02 1.09375E+00 0.00000E+00
 -1      1601 1.24512E+02 1.09375E+00 0.00000E+00
 -1      1602 1.24374E+02 2.18750E+00 0.00000E+00
 -1      1603 1.29012E+02 1.09375E+00 0.00000E+00
 -1      1604 1.27512E+02 1.09375E+00 0.00000E+00
 -1      1605 1.27374E+02 2.18750E+00 0.00000E+00
 -1      1606 1.32012E+02 1.09375E+00 0.00000E+00
 -1      1607 1.30512E+02 1.09375E+00 0.00000E+00
 -1      1608 1.30374E+02 2.18750E+00 0.00000E+00
 -1      1609 1.35012E+02 1.09375E+00 0.00000E+00
 -1      1610 1.33512E+02 1.09375E+00 0.00000E+00
 -1      1611 1.33374E+02 2.18750E+00 0.00000E+00
 -1      1612 1.38012E+02 1.09375E+00 0.00000E+00
 -1      1613 1.36512E+02 1.09375E+00 0.00000E+00
 -1      1614 1.36374E+02 2.18750E+00 0.00000E+00
 -1      1615 1.41012E+02 1.09375E+00 0.00000E+00
 -1      1616 1.39512E+02 1.09375E+00 0.00000E+00
 -1      1617 1.39374E+02 2.18750E+00 0.00000E+00
 -1      1618 1.44012E+02 1.09375E+00 0.00000E+00
 -1      1619 1.42512E+02 1.09375E+00 0.00000E+00
 -1      1620 1.42374E+02 2.18750E+00 0.00000E+00
 -1      1621 1.47012E+02 1.09375E+00 0.00000E+00
 -1      1622 1.45512E+02 1.09375E+00 0.00000E+00
 -1      1623 1.45374E+02 2.18750E+00 0.00000E+00
 -1      1624 1.48575E+02 1.47500E+00 0.00000E+00
 -1      1625 1.48701E+02 5.16250E+00 0.00000E+00
 -1      1626 1.48701E+02 3.68750E+00 0.00000E+00
 -1      1627 1.48701E+02 8.11250E+00 0.00000E+00
 -1      1628 1.48701E+02 6.63750E+00 0.00000E+00
 -1      1629 1.47402E+02 5.90000E+00 0.00000E+00
 -1      1630 1.48701E+02 1.10625E+01 0.00000E+00
 -1      1631 1.48701E+02 9.58750E+00 0.00000E+00
 -1      1632 1.47402E+02 8.85000E+00 0.00000E+00
 -1      1633 1.48701E+02 1.37125E+01 0.00000E+00
 -1      1634 1.48701E+02 1.23875E+01 0.00000E+00
 -1      1635 1.47402E+02 1.16500E+01 0.00000E+00
 -1      1636 1.48701E+02 1.60125E+01 0.00000E+00
 -1      1637 1.48701E+02 1.48625E+01 0.00000E+00
 -1      1638 1.47402E+02 1.41250E+01 0.00000E+00
 -1      1639 1.48701E+02 1.80625E+01 0.00000E+00
 -1      1640 1.48701E+02 1.70375E+01 0.00000E+00
 -1      1641 1.47402E+02 1.63000E+01 0.00000E+00
 -1      1642 1.48701E+02 2.00625E+01 0.00000E+00
 -1      1643 1.48701E+02 1.90625E+01 0.00000E+00
 -1      1644 1.47402E+02 1.83250E+01 0.00000E+00
 -1      1645 1.48701E+02 2.23125E+01 0.00000E+00
 -1      1646 1.48701E+02 2.11875E+01 0.00000E+00
 -1      1647 1.47402E+02 2.04500E+01 0.00000E+00
 -1      1648 1.48701E+02 2.47125E+01 0.00000E+00
 -1      1649 1.48701E+02 2.35125E+01 0.00000E+00
 -1      1650 1.47402E+02 2.27750E+01 0.00000E+00
 -1      1651 1.48701E+02 2.69125E+01 0.00000E+00
 -1      1652 1.48701E+02 2.58125E+01 0.00000E+00
 -1      1653 1.47402E+02 2.50750E+01 0.00000E+00
 -1      1654 1.48701E+02 2.92125E+01 0.00000E+00
 -1      1655 1.48701E+02 2.80625E+01 0.00000E+00
 -1      1656 1.47402E+02 2.73250E+01 0.00000E+00
 -1      1657 1.48701E+02 3.16125E+01 0.00000E+00
 -1      1658 1.48701E+02 3.04125E+01 0.00000E+00
 -1      1659 1.47402E+02 2.96750E+01 0.00000E+00
 -1      1660 1.48701E+02 3.45625E+01 0.00000E+00
 -1      1661 1.48701E+02 3.30875E+01 0.00000E+00
 -1      1662 1.47402E+02 3.23500E+01 0.00000E+00
 -1      1663 1.48701E+02 3.75125E+01 0.00000E+00
 -1      1664 1.48701E+02 3.60375E+01 0.00000E+00
 -1      1665 1.47402E+02 3.53000E+01 0.00000E+00
 -1      1666 1.48701E+02 4.04625E+01 0.00000E+00
 -1      1667 1.48701E+02 3.89875E+01 0.00000E+00
 -1      1668 1.47402E+02 3.82500E+01 0.00000E+00
 -1      1669 1.48701E+02 4.34125E+01 0.00000E+00
 -1      1670 1.48701E+02 4.19375E+01 0.00000E+00
 -1      1671 1.47402E+02 4.12000E+01 0.00000E+00
 -1      1672 1.48263E+02 4.60692E+01 0.00000E+00
 -1      1673 1.48263E+02 4.45942E+01 0.00000E+00
 -1      1674 1.46964E+02 4.38568E+01 0.00000E+00
 -1      1675 1.46088E+02 4.62202E+01 0.00000E+00
 -1      1676 1.43837E+02 2.20735E+01 0.00000E+00
 -1      1677 1.43920E+02 2.28332E+01 0.00000E+00
 -1      1678 1.43449E+02 2.03839E+01 0.00000E+00
 -1      1679 1.43710E+02 2.11385E+01 0.00000E+00
 -1      1680 1.42573E+02 1.89987E+01 0.00000E+00
 -1      1681 1.42951E+02 1.96132E+01 0.00000E+00
 -1      1682 1.41527E+02 1.77700E+01 0.00000E+00
 -1      1683 1.42043E+02 1.83124E+01 0.00000E+00
 -1      1684 1.40204E+02 1.67643E+01 0.00000E+00
 -1      1685 1.40842E+02 1.71935E+01 0.00000E+00
 -1      1686 1.38771E+02 1.61317E+01 0.00000E+00
 -1      1687 1.39423E+02 1.63938E+01 0.00000E+00
 -1      1688 1.37275E+02 1.57345E+01 0.00000E+00
 -1      1689 1.37981E+02 1.58618E+01 0.00000E+00
 -1      1690 1.35697E+02 1.56916E+01 0.00000E+00
 -1      1691 1.36425E+02 1.56711E+01 0.00000E+00
 -1      1692 1.34135E+02 1.59768E+01 0.00000E+00
 -1      1693 1.34845E+02 1.58054E+01 0.00000E+00
 -1      1694 1.32667E+02 1.65790E+01 0.00000E+00
 -1      1695 1.33324E+02 1.62648E+01 0.00000E+00
 -1      1696 1.31084E+02 1.75037E+01 0.00000E+00
 -1      1697 1.31766E+02 1.69574E+01 0.00000E+00
 -1      1698 1.30116E+02 1.88750E+01 0.00000E+00
 -1      1699 1.30557E+02 1.83169E+01 0.00000E+00
 -1      1700 1.29344E+02 2.02284E+01 0.00000E+00
 -1      1701 1.29667E+02 1.95820E+01 0.00000E+00
 -1      1702 1.28826E+02 2.16911E+01 0.00000E+00
 -1      1703 1.29007E+02 2.10019E+01 0.00000E+00
 -1      1704 1.28623E+02 2.33846E+01 0.00000E+00
 -1      1705 1.28656E+02 2.25771E+01 0.00000E+00
 -1      1706 1.28892E+02 2.49899E+01 0.00000E+00
 -1      1707 1.28764E+02 2.42792E+01 0.00000E+00
 -1      1708 1.29337E+02 2.65307E+01 0.00000E+00
 -1      1709 1.29055E+02 2.58428E+01 0.00000E+00
 -1      1710 1.30217E+02 2.78392E+01 0.00000E+00
 -1      1711 1.29815E+02 2.72491E+01 0.00000E+00
 -1      1712 1.31313E+02 2.91165E+01 0.00000E+00
 -1      1713 1.30734E+02 2.85687E+01 0.00000E+00
 -1      1714 1.32728E+02 2.99818E+01 0.00000E+00
 -1      1715 1.32088E+02 2.96007E+01 0.00000E+00
 -1      1716 1.34197E+02 3.06174E+01 0.00000E+00
 -1      1717 1.33500E+02 3.03828E+01 0.00000E+00
 -1      1718 1.35795E+02 3.08487E+01 0.00000E+00
 -1      1719 1.35054E+02 3.07647E+01 0.00000E+00
 -1      1720 1.37376E+02 3.07854E+01 0.00000E+00
 -1      1721 1.36654E+02 3.08562E+01 0.00000E+00
 -1      1722 1.38945E+02 3.04683E+01 0.00000E+00
 -1      1723 1.38239E+02 3.06923E+01 0.00000E+00
 -1      1724 1.40250E+02 2.97457E+01 0.00000E+00
 -1      1725 1.39672E+02 3.00675E+01 0.00000E+00
 -1      1726 1.41516E+02 2.88773E+01 0.00000E+00
 -1      1727 1.40967E+02 2.93459E+01 0.00000E+00
 -1      1728 1.42427E+02 2.77236E+01 0.00000E+00
 -1      1729 1.42022E+02 2.82368E+01 0.00000E+00
 -1      1730 1.43239E+02 2.64913E+01 0.00000E+00
 -1      1731 1.42924E+02 2.71022E+01 0.00000E+00
 -1      1732 1.43603E+02 2.52455E+01 0.00000E+00
 -1      1733 1.43421E+02 2.58684E+01 0.00000E+00
 -1      1734 1.43877E+02 2.64901E+01 0.00000E+00
 -1      1735 1.43889E+02 2.36844E+01 0.00000E+00
 -1      1736 1.43825E+02 2.43521E+01 0.00000E+00
 -1      1737 1.41570E+02 1.70177E+01 0.00000E+00
 -1      1738 1.42784E+02 1.82805E+01 0.00000E+00
 -1      1739 1.48437E+02 2.56875E+00 0.00000E+00
 -1      1740 1.47138E+02 3.30625E+00 0.00000E+00
 -1      1741 1.44438E+02 2.14431E+01 0.00000E+00
 -1      1742 1.43812E+02 1.97375E+01 0.00000E+00
 -1      1743 1.44533E+02 2.32292E+01 0.00000E+00
 -1      1744 1.40104E+02 1.60707E+01 0.00000E+00
 -1      1745 1.38533E+02 1.54303E+01 0.00000E+00
 -1      1746 1.36893E+02 1.50969E+01 0.00000E+00
 -1      1747 1.35191E+02 1.51473E+01 0.00000E+00
 -1      1748 1.33527E+02 1.55491E+01 0.00000E+00
 -1      1749 1.31816E+02 1.62155E+01 0.00000E+00
 -1      1750 1.30388E+02 1.74070E+01 0.00000E+00
 -1      1751 1.29412E+02 1.89272E+01 0.00000E+00
 -1      1752 1.28627E+02 2.04077E+01 0.00000E+00
 -1      1753 1.28120E+02 2.20671E+01 0.00000E+00
 -1      1754 1.28091E+02 2.38477E+01 0.00000E+00
 -1      1755 1.28395E+02 2.55952E+01 0.00000E+00
 -1      1756 1.29036E+02 2.71665E+01 0.00000E+00
 -1      1757 1.30032E+02 2.86144E+01 0.00000E+00
 -1      1758 1.31324E+02 2.98280E+01 0.00000E+00
 -1      1759 1.32870E+02 3.07133E+01 0.00000E+00
 -1      1760 1.34499E+02 3.12617E+01 0.00000E+00
 -1      1761 1.36215E+02 3.14166E+01 0.00000E+00
 -1      1762 1.37938E+02 3.13310E+01 0.00000E+00
 -1      1763 1.39529E+02 3.08371E+01 0.00000E+00
 -1      1764 1.40973E+02 3.00364E+01 0.00000E+00
 -1      1765 1.42195E+02 2.89961E+01 0.00000E+00
 -1      1766 1.43197E+02 2.77343E+01 0.00000E+00
 -1      1767 2.87400E+00 4.77875E+01 0.00000E+00
 -1      1768 1.44281E+02 2.49738E+01 0.00000E+00
 -1      1769 3.89700E+00 4.04125E+01 0.00000E+00
 -1      1770 3.89700E+00 4.18875E+01 0.00000E+00
 -1      1771 3.89700E+00 4.33625E+01 0.00000E+00
 -1      1772 3.89700E+00 4.48375E+01 0.00000E+00
 -1      1773 5.19600E+00 4.26250E+01 0.00000E+00
 -1      1774 3.89700E+00 3.45500E+01 0.00000E+00
 -1      1775 3.89700E+00 3.60000E+01 0.00000E+00
 -1      1776 3.89700E+00 3.16000E+01 0.00000E+00
 -1      1777 3.89700E+00 3.30750E+01 0.00000E+00
 -1      1778 5.19600E+00 3.38000E+01 0.00000E+00
 -1      1779 3.89700E+00 2.86500E+01 0.00000E+00
 -1      1780 3.89700E+00 3.01250E+01 0.00000E+00
 -1      1781 5.19600E+00 3.08500E+01 0.00000E+00
 -1      1782 3.89700E+00 2.57000E+01 0.00000E+00
 -1      1783 3.89700E+00 2.71750E+01 0.00000E+00
 -1      1784 5.19600E+00 2.79000E+01 0.00000E+00
 -1      1785 3.89700E+00 2.27500E+01 0.00000E+00
 -1      1786 3.89700E+00 2.42250E+01 0.00000E+00
 -1      1787 5.19600E+00 2.49500E+01 0.00000E+00
 -1      1788 3.89700E+00 1.98000E+01 0.00000E+00
 -1      1789 3.89700E+00 2.12750E+01 0.00000E+00
 -1      1790 5.19600E+00 2.20000E+01 0.00000E+00
 -1      1791 3.89700E+00 1.69000E+01 0.00000E+00
 -1      1792 3.89700E+00 1.83500E+01 0.00000E+00
 -1      1793 5.19600E+00 1.90750E+01 0.00000E+00
 -1      1794 3.89700E+00 1.39500E+01 0.00000E+00
 -1      1795 3.89700E+00 1.54250E+01 0.00000E+00
 -1      1796 5.19600E+00 1.61500E+01 0.00000E+00
 -1      1797 3.89700E+00 1.10000E+01 0.00000E+00
 -1      1798 3.89700E+00 1.24750E+01 0.00000E+00
 -1      1799 5.19600E+00 1.32000E+01 0.00000E+00
 -1      1800 3.89700E+00 8.05000E+00 0.00000E+00
 -1      1801 3.89700E+00 9.52500E+00 0.00000E+00
 -1      1802 5.19600E+00 1.02500E+01 0.00000E+00
 -1      1803 3.89700E+00 5.10000E+00 0.00000E+00
 -1      1804 3.89700E+00 6.57500E+00 0.00000E+00
 -1      1805 5.19600E+00 7.30000E+00 0.00000E+00
 -1      1806 4.20450E+00 3.09687E+00 0.00000E+00
 -1      1807 4.06650E+00 4.19063E+00 0.00000E+00
 -1      1808 5.36550E+00 4.91563E+00 0.00000E+00
 -1      1809 5.70450E+00 3.09687E+00 0.00000E+00
 -1      1810 3.62400E+00 4.64885E+01 0.00000E+00
 -1      1811 8.70450E+00 3.09687E+00 0.00000E+00
 -1      1812 7.20450E+00 3.09687E+00 0.00000E+00
 -1      1813 7.03500E+00 4.00625E+00 0.00000E+00
 -1      1814 1.45021E+02 2.46830E+01 0.00000E+00
 -1      1815 1.44799E+02 2.55764E+01 0.00000E+00
 -1      1816 4.92300E+00 4.57510E+01 0.00000E+00
 -1      1817 8.40000E+00 4.61030E+01 0.00000E+00
 -1      1818 9.90000E+00 4.61030E+01 0.00000E+00
 -1      1819 1.14000E+01 4.61030E+01 0.00000E+00
 -1      1820 1.29000E+01 4.61030E+01 0.00000E+00
 -1      1821 1.06500E+01 4.48040E+01 0.00000E+00
 -1      1822 1.44000E+01 4.61030E+01 0.00000E+00
 -1      1823 1.59000E+01 4.61030E+01 0.00000E+00
 -1      1824 1.36500E+01 4.48040E+01 0.00000E+00
 -1      1825 1.74000E+01 4.61030E+01 0.00000E+00
 -1      1826 1.89000E+01 4.61030E+01 0.00000E+00
 -1      1827 1.66500E+01 4.48040E+01 0.00000E+00
 -1      1828 2.04000E+01 4.61030E+01 0.00000E+00
 -1      1829 2.19000E+01 4.61030E+01 0.00000E+00
 -1      1830 1.96500E+01 4.48040E+01 0.00000E+00
 -1      1831 2.34000E+01 4.61030E+01 0.00000E+00
 -1      1832 2.49000E+01 4.61030E+01 0.00000E+00
 -1      1833 2.26500E+01 4.48040E+01 0.00000E+00
 -1      1834 2.64000E+01 4.61030E+01 0.00000E+00
 -1      1835 2.79000E+01 4.61030E+01 0.00000E+00
 -1      1836 2.56500E+01 4.48040E+01 0.00000E+00
 -1      1837 2.94000E+01 4.61030E+01 0.00000E+00
 -1      1838 3.09000E+01 4.61030E+01 0.00000E+00
 -1      1839 2.86500E+01 4.48040E+01 0.00000E+00
 -1      1840 3.24000E+01 4.61030E+01 0.00000E+00
 -1      1841 3.39000E+01 4.61030E+01 0.00000E+00
 -1      1842 3.16500E+01 4.48040E+01 0.00000E+00
 -1      1843 3.54000E+01 4.61030E+01 0.00000E+00
 -1      1844 3.69000E+01 4.61030E+01 0.00000E+00
 -1      1845 3.46500E+01 4.48040E+01 0.00000E+00
 -1      1846 3.84000E+01 4.61030E+01 0.00000E+00
 -1      1847 3.99000E+01 4.61030E+01 0.00000E+00
 -1      1848 3.76500E+01 4.48040E+01 0.00000E+00
 -1      1849 4.14000E+01 4.61030E+01 0.00000E+00
 -1      1850 4.29000E+01 4.61030E+01 0.00000E+00
 -1      1851 4.06500E+01 4.48040E+01 0.00000E+00
 -1      1852 4.44000E+01 4.61030E+01 0.00000E+00
 -1      1853 4.59000E+01 4.61030E+01 0.00000E+00
 -1      1854 4.36500E+01 4.48040E+01 0.00000E+00
 -1      1855 4.74000E+01 4.61030E+01 0.00000E+00
 -1      1856 4.89000E+01 4.61030E+01 0.00000E+00
 -1      1857 4.66500E+01 4.48040E+01 0.00000E+00
 -1      1858 5.04000E+01 4.61030E+01 0.00000E+00
 -1      1859 5.19000E+01 4.61030E+01 0.00000E+00
 -1      1860 4.96500E+01 4.48040E+01 0.00000E+00
 -1      1861 5.34000E+01 4.61030E+01 0.00000E+00
 -1      1862 5.49000E+01 4.61030E+01 0.00000E+00
 -1      1863 5.26500E+01 4.48040E+01 0.00000E+00
 -1      1864 5.64000E+01 4.61030E+01 0.00000E+00
 -1      1865 5.79000E+01 4.61030E+01 0.00000E+00
 -1      1866 5.56500E+01 4.48040E+01 0.00000E+00
 -1      1867 5.94000E+01 4.61030E+01 0.00000E+00
 -1      1868 6.09000E+01 4.61030E+01 0.00000E+00
 -1      1869 5.86500E+01 4.48040E+01 0.00000E+00
 -1      1870 6.24000E+01 4.61030E+01 0.00000E+00
 -1      1871 6.39000E+01 4.61030E+01 0.00000E+00
 -1      1872 6.16500E+01 4.48040E+01 0.00000E+00
 -1      1873 6.54000E+01 4.61030E+01 0.00000E+00
 -1      1874 6.69000E+01 4.61030E+01 0.00000E+00
 -1      1875 6.46500E+01 4.48040E+01 0.00000E+00
 -1      1876 6.84000E+01 4.61030E+01 0.00000E+00
 -1      1877 6.99000E+01 4.61030E+01 0.00000E+00
 -1      1878 6.76500E+01 4.48040E+01 0.00000E+00
 -1      1879 7.14000E+01 4.61030E+01 0.00000E+00
 -1      1880 7.29000E+01 4.61030E+01 0.00000E+00
 -1      1881 7.06500E+01 4.48040E+01 0.00000E+00
 -1      1882 7.44000E+01 4.61030E+01 0.00000E+00
 -1      1883 7.59000E+01 4.61030E+01 0.00000E+00
 -1      1884 7.36500E+01 4.48040E+01 0.00000E+00
 -1      1885 7.74000E+01 4.61030E+01 0.00000E+00
 -1      1886 7.89000E+01 4.61030E+01 0.00000E+00
 -1      1887 7.66500E+01 4.48040E+01 0.00000E+00
 -1      1888 8.04000E+01 4.61030E+01 0.00000E+00
 -1      1889 8.19000E+01 4.61030E+01 0.00000E+00
 -1      1890 7.96500E+01 4.48040E+01 0.00000E+00
 -1      1891 8.34000E+01 4.61030E+01 0.00000E+00
 -1      1892 8.49000E+01 4.61030E+01 0.00000E+00
 -1      1893 8.26500E+01 4.48040E+01 0.00000E+00
 -1      1894 8.64000E+01 4.61030E+01 0.00000E+00
 -1      1895 8.79000E+01 4.61030E+01 0.00000E+00
 -1      1896 8.56500E+01 4.48040E+01 0.00000E+00
 -1      1897 8.94000E+01 4.61030E+01 0.00000E+00
 -1      1898 9.09000E+01 4.61030E+01 0.00000E+00
 -1      1899 8.86500E+01 4.48040E+01 0.00000E+00
 -1      1900 9.24000E+01 4.61030E+01 0.00000E+00
 -1      1901 9.39000E+01 4.61030E+01 0.00000E+00
 -1      1902 9.16500E+01 4.48040E+01 0.00000E+00
 -1      1903 9.54000E+01 4.61030E+01 0.00000E+00
 -1      1904 9.69000E+01 4.61030E+01 0.00000E+00
 -1      1905 9.46500E+01 4.48040E+01 0.00000E+00
 -1      1906 9.84000E+01 4.61030E+01 0.00000E+00
 -1      1907 9.99000E+01 4.61030E+01 0.00000E+00
 -1      1908 9.76500E+01 4.48040E+01 0.00000E+00
 -1      1909 1.01400E+02 4.61030E+01 0.00000E+00
 -1      1910 1.02900E+02 4.61030E+01 0.00000E+00
 -1      1911 1.00650E+02 4.48040E+01 0.00000E+00
 -1      1912 1.04400E+02 4.61030E+01 0.00000E+00
 -1      1913 1.05900E+02 4.61030E+01 0.00000E+00
 -1      1914 1.03650E+02 4.48040E+01 0.00000E+00
 -1      1915 1.07400E+02 4.61030E+01 0.00000E+00
 -1      1916 1.08900E+02 4.61030E+01 0.00000E+00
 -1      1917 1.06650E+02 4.48040E+01 0.00000E+00
 -1      1918 1.10400E+02 4.61030E+01 0.00000E+00
 -1      1919 1.11900E+02 4.61030E+01 0.00000E+00
 -1      1920 1.09650E+02 4.48040E+01 0.00000E+00
 -1      1921 1.13400E+02 4.61030E+01 0.00000E+00
 -1      1922 1.14900E+02 4.61030E+01 0.00000E+00
 -1      1923 1.12650E+02 4.48040E+01 0.00000E+00
 -1      1924 1.16400E+02 4.61030E+01 0.00000E+00
 -1      1925 1.17900E+02 4.61030E+01 0.00000E+00
 -1      1926 1.15650E+02 4.48040E+01 0.00000E+00
 -1      1927 1.19400E+02 4.61030E+01 0.00000E+00
 -1      1928 1.20900E+02 4.61030E+01 0.00000E+00
 -1      1929 1.18650E+02 4.48040E+01 0.00000E+00
 -1      1930 1.22400E+02 4.61030E+01 0.00000E+00
 -1      1931 1.23900E+02 4.61030E+01 0.00000E+00
 -1      1932 1.21650E+02 4.48040E+01 0.00000E+00
 -1      1933 1.25400E+02 4.61030E+01 0.00000E+00
 -1      1934 1.26900E+02 4.61030E+01 0.00000E+00
 -1      1935 1.24650E+02 4.48040E+01 0.00000E+00
 -1      1936 1.28400E+02 4.61030E+01 0.00000E+00
 -1      1937 1.29900E+02 4.61030E+01 0.00000E+00
 -1      1938 1.27650E+02 4.48040E+01 0.00000E+00
 -1      1939 1.31400E+02 4.61030E+01 0.00000E+00
 -1      1940 1.32900E+02 4.61030E+01 0.00000E+00
 -1      1941 1.30650E+02 4.48040E+01 0.00000E+00
 -1      1942 1.34400E+02 4.61030E+01 0.00000E+00
 -1      1943 1.35900E+02 4.61030E+01 0.00000E+00
 -1      1944 1.33650E+02 4.48040E+01 0.00000E+00
 -1      1945 1.37400E+02 4.61030E+01 0.00000E+00
 -1      1946 1.38900E+02 4.61030E+01 0.00000E+00
 -1      1947 1.36650E+02 4.48040E+01 0.00000E+00
 -1      1948 1.40400E+02 4.61030E+01 0.00000E+00
 -1      1949 1.41900E+02 4.61030E+01 0.00000E+00
 -1      1950 1.39650E+02 4.48040E+01 0.00000E+00
 -1      1951 1.43244E+02 4.61616E+01 0.00000E+00
 -1      1952 1.44744E+02 4.61616E+01 0.00000E+00
 -1      1953 1.45182E+02 4.49799E+01 0.00000E+00
 -1      1954 1.42494E+02 4.48626E+01 0.00000E+00
 -1      1955 1.17045E+01 3.09687E+00 0.00000E+00
 -1      1956 1.02045E+01 3.09687E+00 0.00000E+00
 -1      1957 1.00350E+01 4.00625E+00 0.00000E+00
 -1      1958 1.47045E+01 3.09687E+00 0.00000E+00
 -1      1959 1.32045E+01 3.09687E+00 0.00000E+00
 -1      1960 1.30350E+01 4.00625E+00 0.00000E+00
 -1      1961 1.77045E+01 3.09687E+00 0.00000E+00
 -1      1962 1.62045E+01 3.09687E+00 0.00000E+00
 -1      1963 1.60350E+01 4.00625E+00 0.00000E+00
 -1      1964 2.07045E+01 3.09687E+00 0.00000E+00
 -1      1965 1.92045E+01 3.09687E+00 0.00000E+00
 -1      1966 1.90350E+01 4.00625E+00 0.00000E+00
 -1      1967 2.37045E+01 3.09687E+00 0.00000E+00
 -1      1968 2.22045E+01 3.09687E+00 0.00000E+00
 -1      1969 2.20350E+01 4.00625E+00 0.00000E+00
 -1      1970 2.67045E+01 3.09687E+00 0.00000E+00
 -1      1971 2.52045E+01 3.09687E+00 0.00000E+00
 -1      1972 2.50350E+01 4.00625E+00 0.00000E+00
 -1      1973 2.97045E+01 3.09687E+00 0.00000E+00
 -1      1974 2.82045E+01 3.09687E+00 0.00000E+00
 -1      1975 2.80350E+01 4.00625E+00 0.00000E+00
 -1      1976 3.27045E+01 3.09687E+00 0.00000E+00
 -1      1977 3.12045E+01 3.09687E+00 0.00000E+00
 -1      1978 3.10350E+01 4.00625E+00 0.00000E+00
 -1      1979 3.57045E+01 3.09687E+00 0.00000E+00
 -1      1980 3.42045E+01 3.09687E+00 0.00000E+00
 -1      1981 3.40350E+01 4.00625E+00 0.00000E+00
 -1      1982 3.87045E+01 3.09687E+00 0.00000E+00
 -1      1983 3.72045E+01 3.09687E+00 0.00000E+00
 -1      1984 3.70350E+01 4.00625E+00 0.00000E+00
 -1      1985 4.17045E+01 3.09687E+00 0.00000E+00
 -1      1986 4.02045E+01 3.09687E+00 0.00000E+00
 -1      1987 4.00350E+01 4.00625E+00 0.00000E+00
 -1      1988 4.47045E+01 3.09687E+00 0.00000E+00
 -1      1989 4.32045E+01 3.09687E+00 0.00000E+00
 -1      1990 4.30350E+01 4.00625E+00 0.00000E+00
 -1      1991 4.77045E+01 3.09687E+00 0.00000E+00
 -1      1992 4.62045E+01 3.09687E+00 0.00000E+00
 -1      1993 4.60350E+01 4.00625E+00 0.00000E+00
 -1      1994 5.07045E+01 3.09687E+00 0.00000E+00
 -1      1995 4.92045E+01 3.09687E+00 0.00000E+00
 -1      1996 4.90350E+01 4.00625E+00 0.00000E+00
 -1      1997 5.37045E+01 3.09687E+00 0.00000E+00
 -1      1998 5.22045E+01 3.09687E+00 0.00000E+00
 -1      1999 5.20350E+01 4.00625E+00 0.00000E+00
 -1      2000 5.67045E+01 3.09687E+00 0.00000E+00
 -1      2001 5.52045E+01 3.09687E+00 0.00000E+00
 -1      2002 5.50350E+01 4.00625E+00 0.00000E+00
 -1      2003 5.97045E+01 3.09687E+00 0.00000E+00
 -1      2004 5.82045E+01 3.09687E+00 0.00000E+00
 -1      2005 5.80350E+01 4.00625E+00 0.00000E+00
 -1      2006 6.27045E+01 3.09687E+00 0.00000E+00
 -1      2007 6.12045E+01 3.09687E+00 0.00000E+00
 -1      2008 6.10350E+01 4.00625E+00 0.00000E+00
 -1      2009 6.57045E+01 3.09687E+00 0.00000E+00
 -1      2010 6.42045E+01 3.09687E+00 0.00000E+00
 -1      2011 6.40350E+01 4.00625E+00 0.00000E+00
 -1      2012 6.87045E+01 3.09687E+00 0.00000E+00
 -1      2013 6.72045E+01 3.09687E+00 0.00000E+00
 -1      2014 6.70350E+01 4.00625E+00 0.00000E+00
 -1      2015 7.17045E+01 3.09687E+00 0.00000E+00
 -1      2016 7.02045E+01 3.09687E+00 0.00000E+00
 -1      2017 7.00350E+01 4.00625E+00 0.00000E+00
 -1      2018 7.47045E+01 3.09687E+00 0.00000E+00
 -1      2019 7.32045E+01 3.09687E+00 0.00000E+00
 -1      2020 7.30350E+01 4.00625E+00 0.00000E+00
 -1      2021 7.77045E+01 3.09687E+00 0.00000E+00
 -1      2022 7.62045E+01 3.09687E+00 0.00000E+00
 -1      2023 7.60350E+01 4.00625E+00 0.00000E+00
 -1      2024 8.07045E+01 3.09687E+00 0.00000E+00
 -1      2025 7.92045E+01 3.09687E+00 0.00000E+00
 -1      2026 7.90350E+01 4.00625E+00 0.00000E+00
 -1      2027 8.37045E+01 3.09687E+00 0.00000E+00
 -1      2028 8.22045E+01 3.09687E+00 0.00000E+00
 -1      2029 8.20350E+01 4.00625E+00 0.00000E+00
 -1      2030 8.67045E+01 3.09687E+00 0.00000E+00
 -1      2031 8.52045E+01 3.09687E+00 0.00000E+00
 -1      2032 8.50350E+01 4.00625E+00 0.00000E+00
 -1      2033 8.97045E+01 3.09687E+00 0.00000E+00
 -1      2034 8.82045E+01 3.09687E+00 0.00000E+00
 -1      2035 8.80350E+01 4.00625E+00 0.00000E+00
 -1      2036 9.27045E+01 3.09687E+00 0.00000E+00
 -1      2037 9.12045E+01 3.09687E+00 0.00000E+00
 -1      2038 9.10350E+01 4.00625E+00 0.00000E+00
 -1      2039 9.57045E+01 3.09687E+00 0.00000E+00
 -1      2040 9.42045E+01 3.09687E+00 0.00000E+00
 -1      2041 9.40350E+01 4.00625E+00 0.00000E+00
 -1      2042 9.87045E+01 3.09687E+00 0.00000E+00
 -1      2043 9.72045E+01 3.09687E+00 0.00000E+00
 -1      2044 9.70350E+01 4.00625E+00 0.00000E+00
 -1      2045 1.01704E+02 3.09687E+00 0.00000E+00
 -1      2046 1.00204E+02 3.09687E+00 0.00000E+00
 -1      2047 1.00035E+02 4.00625E+00 0.00000E+00
 -1      2048 1.04704E+02 3.09687E+00 0.00000E+00
 -1      2049 1.03204E+02 3.09687E+00 0.00000E+00
 -1      2050 1.03035E+02 4.00625E+00 0.00000E+00
 -1      2051 1.07704E+02 3.09687E+00 0.00000E+00
 -1      2052 1.06204E+02 3.09687E+00 0.00000E+00
 -1      2053 1.06035E+02 4.00625E+00 0.00000E+00
 -1      2054 1.10704E+02 3.09687E+00 0.00000E+00
 -1      2055 1.09204E+02 3.09687E+00 0.00000E+00
 -1      2056 1.09035E+02 4.00625E+00 0.00000E+00
 -1      2057 1.13704E+02 3.09687E+00 0.00000E+00
 -1      2058 1.12204E+02 3.09687E+00 0.00000E+00
 -1      2059 1.12035E+02 4.00625E+00 0.00000E+00
 -1      2060 1.16704E+02 3.09687E+00 0.00000E+00
 -1      2061 1.15204E+02 3.09687E+00 0.00000E+00
 -1      2062 1.15035E+02 4.00625E+00 0.00000E+00
 -1      2063 1.19704E+02 3.09687E+00 0.00000E+00
 -1      2064 1.18204E+02 3.09687E+00 0.00000E+00
 -1      2065 1.18035E+02 4.00625E+00 0.00000E+00
 -1      2066 1.22704E+02 3.09687E+00 0.00000E+00
 -1      2067 1.21204E+02 3.09687E+00 0.00000E+00
 -1      2068 1.21035E+02 4.00625E+00 0.00000E+00
 -1      2069 1.25704E+02 3.09687E+00 0.00000E+00
 -1      2070 1.24204E+02 3.09687E+00 0.00000E+00
 -1      2071 1.24035E+02 4.00625E+00 0.00000E+00
 -1      2072 1.28704E+02 3.09687E+00 0.00000E+00
 -1      2073 1.27204E+02 3.09687E+00 0.00000E+00
 -1      2074 1.27035E+02 4.00625E+00 0.00000E+00
 -1      2075 1.31704E+02 3.09687E+00 0.00000E+00
 -1      2076 1.30204E+02 3.09687E+00 0.00000E+00
 -1      2077 1.30035E+02 4.00625E+00 0.00000E+00
 -1      2078 1.34704E+02 3.09687E+00 0.00000E+00
 -1      2079 1.33204E+02 3.09687E+00 0.00000E+00
 -1      2080 1.33035E+02 4.00625E+00 0.00000E+00
 -1      2081 1.37704E+02 3.09687E+00 0.00000E+00
 -1      2082 1.36204E+02 3.09687E+00 0.00000E+00
 -1      2083 1.36035E+02 4.00625E+00 0.00000E+00
 -1      2084 1.40704E+02 3.09687E+00 0.00000E+00
 -1      2085 1.39204E+02 3.09687E+00 0.00000E+00
 -1      2086 1.39035E+02 4.00625E+00 0.00000E+00
 -1      2087 1.43704E+02 3.09687E+00 0.00000E+00
 -1      2088 1.42204E+02 3.09687E+00 0.00000E+00
 -1      2089 1.42035E+02 4.00625E+00 0.00000E+00
 -1      2090 1.46171E+02 3.20156E+00 0.00000E+00
 -1      2091 1.44671E+02 3.20156E+00 0.00000E+00
 -1      2092 1.44502E+02 4.11094E+00 0.00000E+00
 -1      2093 1.46435E+02 4.32031E+00 0.00000E+00
 -1      2094 1.46103E+02 1.23125E+01 0.00000E+00
 -1      2095 1.46103E+02 1.09875E+01 0.00000E+00
 -1      2096 1.46103E+02 9.51250E+00 0.00000E+00
 -1      2097 1.46103E+02 8.03750E+00 0.00000E+00
 -1      2098 1.44804E+02 1.01750E+01 0.00000E+00
 -1      2099 1.46269E+02 6.91641E+00 0.00000E+00
 -1      2100 1.46269E+02 5.44141E+00 0.00000E+00
 -1      2101 1.45302E+02 5.33672E+00 0.00000E+00
 -1      2102 1.44970E+02 7.57891E+00 0.00000E+00
 -1      2103 1.46103E+02 1.46125E+01 0.00000E+00
 -1      2104 1.46103E+02 1.34625E+01 0.00000E+00
 -1      2105 1.44804E+02 1.28000E+01 0.00000E+00
 -1      2106 1.46103E+02 1.66625E+01 0.00000E+00
 -1      2107 1.46103E+02 1.56375E+01 0.00000E+00
 -1      2108 1.44804E+02 1.49750E+01 0.00000E+00
 -1      2109 1.46470E+02 2.57303E+01 0.00000E+00
 -1      2110 1.46470E+02 2.46303E+01 0.00000E+00
 -1      2111 1.46377E+02 3.02750E+01 0.00000E+00
 -1      2112 1.46377E+02 2.90750E+01 0.00000E+00
 -1      2113 1.46377E+02 3.30875E+01 0.00000E+00
 -1      2114 1.46377E+02 3.16125E+01 0.00000E+00
 -1      2115 1.46126E+02 3.60375E+01 0.00000E+00
 -1      2116 1.46126E+02 3.45625E+01 0.00000E+00
 -1      2117 1.46126E+02 3.89875E+01 0.00000E+00
 -1      2118 1.46126E+02 3.75125E+01 0.00000E+00
 -1      2119 1.44849E+02 3.67750E+01 0.00000E+00
 -1      2120 1.46126E+02 4.19375E+01 0.00000E+00
 -1      2121 1.46126E+02 4.04625E+01 0.00000E+00
 -1      2122 1.44849E+02 3.97250E+01 0.00000E+00
 -1      2123 1.44108E+02 1.90003E+01 0.00000E+00
 -1      2124 1.44606E+02 1.97710E+01 0.00000E+00
 -1      2125 1.45141E+02 2.08715E+01 0.00000E+00
 -1      2126 1.45268E+02 2.18064E+01 0.00000E+00
 -1      2127 1.43132E+02 1.74644E+01 0.00000E+00
 -1      2128 1.43662E+02 1.81507E+01 0.00000E+00
 -1      2129 1.44617E+02 2.61993E+01 0.00000E+00
 -1      2130 1.44434E+02 2.68221E+01 0.00000E+00
 -1      2131 1.45357E+02 2.59085E+01 0.00000E+00
 -1      2132 1.40063E+02 1.51485E+01 0.00000E+00
 -1      2133 1.40844E+02 1.55190E+01 0.00000E+00
 -1      2134 1.41726E+02 1.61376E+01 0.00000E+00
 -1      2135 1.42410E+02 1.67141E+01 0.00000E+00
 -1      2136 3.89700E+00 3.74688E+01 0.00000E+00
 -1      2137 3.89700E+00 3.89437E+01 0.00000E+00
 -1      2138 5.19600E+00 3.96813E+01 0.00000E+00
 -1      2139 5.19600E+00 3.67438E+01 0.00000E+00
 -1      2140 1.38361E+02 1.46424E+01 0.00000E+00
 -1      2141 1.39151E+02 1.49123E+01 0.00000E+00
 -1      2142 1.36516E+02 1.44189E+01 0.00000E+00
 -1      2143 1.37366E+02 1.44823E+01 0.00000E+00
 -1      2144 1.34667E+02 1.44788E+01 0.00000E+00
 -1      2145 1.35520E+02 1.43650E+01 0.00000E+00
 -1      2146 1.32863E+02 1.49639E+01 0.00000E+00
 -1      2147 1.33674E+02 1.46759E+01 0.00000E+00
 -1      2148 1.31062E+02 1.57207E+01 0.00000E+00
 -1      2149 1.31962E+02 1.53423E+01 0.00000E+00
 -1      2150 1.32109E+02 1.44692E+01 0.00000E+00
 -1      2151 1.29545E+02 1.74381E+01 0.00000E+00
 -1      2152 1.30073E+02 1.66250E+01 0.00000E+00
 -1      2153 1.28605E+02 1.89111E+01 0.00000E+00
 -1      2154 1.29054E+02 1.82041E+01 0.00000E+00
 -1      2155 1.27864E+02 2.05357E+01 0.00000E+00
 -1      2156 1.28201E+02 1.97622E+01 0.00000E+00
 -1      2157 1.27275E+02 2.23643E+01 0.00000E+00
 -1      2158 1.27445E+02 2.14783E+01 0.00000E+00
 -1      2159 1.27480E+02 2.44023E+01 0.00000E+00
 -1      2160 1.27339E+02 2.35077E+01 0.00000E+00
 -1      2161 1.27798E+02 2.61512E+01 0.00000E+00
 -1      2162 1.27635E+02 2.52983E+01 0.00000E+00
 -1      2163 1.28736E+02 2.78850E+01 0.00000E+00
 -1      2164 1.28257E+02 2.71666E+01 0.00000E+00
 -1      2165 1.29694E+02 2.94026E+01 0.00000E+00
 -1      2166 1.29176E+02 2.86731E+01 0.00000E+00
 -1      2167 1.31345E+02 3.06551E+01 0.00000E+00
 -1      2168 1.30571E+02 3.01710E+01 0.00000E+00
 -1      2169 1.32957E+02 3.14889E+01 0.00000E+00
 -1      2170 1.32185E+02 3.10878E+01 0.00000E+00
 -1      2171 1.34811E+02 3.20154E+01 0.00000E+00
 -1      2172 1.33953E+02 3.18680E+01 0.00000E+00
 -1      2173 1.36638E+02 3.22360E+01 0.00000E+00
 -1      2174 1.35779E+02 3.22285E+01 0.00000E+00
 -1      2175 1.38443E+02 3.19705E+01 0.00000E+00
 -1      2176 1.37580E+02 3.20636E+01 0.00000E+00
 -1      2177 1.40245E+02 3.12777E+01 0.00000E+00
 -1      2178 1.39518E+02 3.16786E+01 0.00000E+00
 -1      2179 1.41679E+02 3.04781E+01 0.00000E+00
 -1      2180 1.40962E+02 3.08779E+01 0.00000E+00
 -1      2181 1.40951E+02 3.17194E+01 0.00000E+00
 -1      2182 1.42956E+02 2.90774E+01 0.00000E+00
 -1      2183 1.42451E+02 2.97179E+01 0.00000E+00
 -1      2184 1.43951E+02 2.78347E+01 0.00000E+00
 -1      2185 1.43453E+02 2.84560E+01 0.00000E+00
 -1      2186 1.43709E+02 2.91778E+01 0.00000E+00
 -1      2187 1.41685E+02 1.52154E+01 0.00000E+00
 -1      2188 1.45243E+02 2.36284E+01 0.00000E+00
 -1      2189 1.45761E+02 2.42311E+01 0.00000E+00
 -1      2190 1.46693E+02 2.35758E+01 0.00000E+00
 -1      2191 1.45274E+02 2.27773E+01 0.00000E+00
 -1      2192 6.42300E+00 4.57510E+01 0.00000E+00
 -1      2193 7.17300E+00 4.44520E+01 0.00000E+00
 -1      2194 1.45100E+02 3.38250E+01 0.00000E+00
 -1      2195 1.45352E+02 3.10125E+01 0.00000E+00
 -1      2196 1.46288E+02 2.63532E+01 0.00000E+00
 -1      2197 1.46377E+02 1.88250E+01 0.00000E+00
 -1      2198 1.46377E+02 1.78250E+01 0.00000E+00
 -1      2199 1.46687E+02 2.14049E+01 0.00000E+00
 -1      2200 1.46687E+02 2.02799E+01 0.00000E+00
 -1      2201 1.46693E+02 2.23757E+01 0.00000E+00
 -1      2202 1.46288E+02 2.75032E+01 0.00000E+00
 -1      2203 1.45688E+02 4.31193E+01 0.00000E+00
 -1      2204 1.44455E+02 1.81842E+01 0.00000E+00
 -1      2205 1.44690E+02 2.75439E+01 0.00000E+00
 -1      2206 1.42440E+02 3.05594E+01 0.00000E+00
 -1      2207 1.45977E+02 2.22057E+01 0.00000E+00
 -1      2208 1.39160E+02 3.24111E+01 0.00000E+00
 -1      2209 1.37143E+02 3.28755E+01 0.00000E+00
 -1      2210 1.35233E+02 3.28348E+01 0.00000E+00
 -1      2211 1.33269E+02 3.22426E+01 0.00000E+00
 -1      2212 1.31432E+02 3.14307E+01 0.00000E+00
 -1      2213 1.29715E+02 3.02297E+01 0.00000E+00
 -1      2214 1.28398E+02 2.86732E+01 0.00000E+00
 -1      2215 1.27498E+02 2.68697E+01 0.00000E+00
 -1      2216 1.26883E+02 2.49583E+01 0.00000E+00
 -1      2217 1.26664E+02 2.29189E+01 0.00000E+00
 -1      2218 1.27019E+02 2.08328E+01 0.00000E+00
 -1      2219 1.27842E+02 1.90391E+01 0.00000E+00
 -1      2220 1.30219E+02 1.57518E+01 0.00000E+00
 -1      2221 1.30366E+02 1.48787E+01 0.00000E+00
 -1      2222 1.29377E+02 1.57829E+01 0.00000E+00
 -1      2223 1.34003E+02 1.38936E+01 0.00000E+00
 -1      2224 1.45078E+02 1.71625E+01 0.00000E+00
 -1      2225 1.43288E+02 1.65843E+01 0.00000E+00
 -1      2226 1.45436E+02 2.01343E+01 0.00000E+00
 -1      2227 1.39891E+02 1.43606E+01 0.00000E+00
 -1      2228 1.35993E+02 1.37504E+01 0.00000E+00
 -1      2229 1.37984E+02 1.39644E+01 0.00000E+00
 -1      2230 1.28738E+02 1.74220E+01 0.00000E+00
 -1      2231 1.07850E+01 5.30525E+00 0.00000E+00
 -1      2232 9.28500E+00 5.30525E+00 0.00000E+00
 -1      2233 6.49500E+00 3.01125E+01 0.00000E+00
 -1      2234 6.49500E+00 3.15875E+01 0.00000E+00
 -1      2235 6.49500E+00 3.30625E+01 0.00000E+00
 -1      2236 6.49500E+00 3.45375E+01 0.00000E+00
 -1      2237 7.79400E+00 3.23250E+01 0.00000E+00
 -1      2238 6.49500E+00 2.42125E+01 0.00000E+00
 -1      2239 6.49500E+00 2.56875E+01 0.00000E+00
 -1      2240 6.49500E+00 2.12625E+01 0.00000E+00
 -1      2241 6.49500E+00 2.27375E+01 0.00000E+00
 -1      2242 7.79400E+00 2.34750E+01 0.00000E+00
 -1      2243 6.49500E+00 1.83625E+01 0.00000E+00
 -1      2244 6.49500E+00 1.98125E+01 0.00000E+00
 -1      2245 7.79400E+00 2.05500E+01 0.00000E+00
 -1      2246 6.49500E+00 1.54125E+01 0.00000E+00
 -1      2247 6.49500E+00 1.68875E+01 0.00000E+00
 -1      2248 7.79400E+00 1.76250E+01 0.00000E+00
 -1      2249 6.49500E+00 1.24625E+01 0.00000E+00
 -1      2250 6.49500E+00 1.39375E+01 0.00000E+00
 -1      2251 7.79400E+00 1.46750E+01 0.00000E+00
 -1      2252 6.49500E+00 9.51250E+00 0.00000E+00
 -1      2253 6.49500E+00 1.09875E+01 0.00000E+00
 -1      2254 7.79400E+00 1.17250E+01 0.00000E+00
 -1      2255 9.90000E+00 4.35050E+01 0.00000E+00
 -1      2256 1.14000E+01 4.35050E+01 0.00000E+00
 -1      2257 1.39922E+02 3.30927E+01 0.00000E+00
 -1      2258 1.38848E+02 3.33846E+01 0.00000E+00
 -1      2259 1.43550E+02 4.04625E+01 0.00000E+00
 -1      2260 1.43550E+02 3.89875E+01 0.00000E+00
 -1      2261 1.37850E+01 5.30525E+00 0.00000E+00
 -1      2262 1.22850E+01 5.30525E+00 0.00000E+00
 -1      2263 1.15350E+01 6.60425E+00 0.00000E+00
 -1      2264 6.55950E+00 4.28890E+01 0.00000E+00
 -1      2265 8.53650E+00 4.32410E+01 0.00000E+00
 -1      2266 9.28650E+00 4.19420E+01 0.00000E+00
 -1      2267 6.55950E+00 4.14140E+01 0.00000E+00
 -1      2268 1.29000E+01 4.35050E+01 0.00000E+00
 -1      2269 1.44000E+01 4.35050E+01 0.00000E+00
 -1      2270 1.21500E+01 4.22060E+01 0.00000E+00
 -1      2271 1.59000E+01 4.35050E+01 0.00000E+00
 -1      2272 1.74000E+01 4.35050E+01 0.00000E+00
 -1      2273 1.51500E+01 4.22060E+01 0.00000E+00
 -1      2274 1.89000E+01 4.35050E+01 0.00000E+00
 -1      2275 2.04000E+01 4.35050E+01 0.00000E+00
 -1      2276 1.81500E+01 4.22060E+01 0.00000E+00
 -1      2277 2.19000E+01 4.35050E+01 0.00000E+00
 -1      2278 2.34000E+01 4.35050E+01 0.00000E+00
 -1      2279 2.11500E+01 4.22060E+01 0.00000E+00
 -1      2280 2.49000E+01 4.35050E+01 0.00000E+00
 -1      2281 2.64000E+01 4.35050E+01 0.00000E+00
 -1      2282 2.41500E+01 4.22060E+01 0.00000E+00
 -1      2283 2.79000E+01 4.35050E+01 0.00000E+00
 -1      2284 2.94000E+01 4.35050E+01 0.00000E+00
 -1      2285 2.71500E+01 4.22060E+01 0.00000E+00
 -1      2286 3.09000E+01 4.35050E+01 0.00000E+00
 -1      2287 3.24000E+01 4.35050E+01 0.00000E+00
 -1      2288 3.01500E+01 4.22060E+01 0.00000E+00
 -1      2289 3.39000E+01 4.35050E+01 0.00000E+00
 -1      2290 3.54000E+01 4.35050E+01 0.00000E+00
 -1      2291 3.31500E+01 4.22060E+01 0.00000E+00
 -1      2292 3.69000E+01 4.35050E+01 0.00000E+00
 -1      2293 3.84000E+01 4.35050E+01 0.00000E+00
 -1      2294 3.61500E+01 4.22060E+01 0.00000E+00
 -1      2295 3.99000E+01 4.35050E+01 0.00000E+00
 -1      2296 4.14000E+01 4.35050E+01 0.00000E+00
 -1      2297 3.91500E+01 4.22060E+01 0.00000E+00
 -1      2298 4.29000E+01 4.35050E+01 0.00000E+00
 -1      2299 4.44000E+01 4.35050E+01 0.00000E+00
 -1      2300 4.21500E+01 4.22060E+01 0.00000E+00
 -1      2301 4.59000E+01 4.35050E+01 0.00000E+00
 -1      2302 4.74000E+01 4.35050E+01 0.00000E+00
 -1      2303 4.51500E+01 4.22060E+01 0.00000E+00
 -1      2304 4.89000E+01 4.35050E+01 0.00000E+00
 -1      2305 5.04000E+01 4.35050E+01 0.00000E+00
 -1      2306 4.81500E+01 4.22060E+01 0.00000E+00
 -1      2307 5.19000E+01 4.35050E+01 0.00000E+00
 -1      2308 5.34000E+01 4.35050E+01 0.00000E+00
 -1      2309 5.11500E+01 4.22060E+01 0.00000E+00
 -1      2310 5.49000E+01 4.35050E+01 0.00000E+00
 -1      2311 5.64000E+01 4.35050E+01 0.00000E+00
 -1      2312 5.41500E+01 4.22060E+01 0.00000E+00
 -1      2313 5.79000E+01 4.35050E+01 0.00000E+00
 -1      2314 5.94000E+01 4.35050E+01 0.00000E+00
 -1      2315 5.71500E+01 4.22060E+01 0.00000E+00
 -1      2316 6.09000E+01 4.35050E+01 0.00000E+00
 -1      2317 6.24000E+01 4.35050E+01 0.00000E+00
 -1      2318 6.01500E+01 4.22060E+01 0.00000E+00
 -1      2319 6.39000E+01 4.35050E+01 0.00000E+00
 -1      2320 6.54000E+01 4.35050E+01 0.00000E+00
 -1      2321 6.31500E+01 4.22060E+01 0.00000E+00
 -1      2322 6.69000E+01 4.35050E+01 0.00000E+00
 -1      2323 6.84000E+01 4.35050E+01 0.00000E+00
 -1      2324 6.61500E+01 4.22060E+01 0.00000E+00
 -1      2325 6.99000E+01 4.35050E+01 0.00000E+00
 -1      2326 7.14000E+01 4.35050E+01 0.00000E+00
 -1      2327 6.91500E+01 4.22060E+01 0.00000E+00
 -1      2328 7.29000E+01 4.35050E+01 0.00000E+00
 -1      2329 7.44000E+01 4.35050E+01 0.00000E+00
 -1      2330 7.21500E+01 4.22060E+01 0.00000E+00
 -1      2331 7.59000E+01 4.35050E+01 0.00000E+00
 -1      2332 7.74000E+01 4.35050E+01 0.00000E+00
 -1      2333 7.51500E+01 4.22060E+01 0.00000E+00
 -1      2334 7.89000E+01 4.35050E+01 0.00000E+00
 -1      2335 8.04000E+01 4.35050E+01 0.00000E+00
 -1      2336 7.81500E+01 4.22060E+01 0.00000E+00
 -1      2337 8.19000E+01 4.35050E+01 0.00000E+00
 -1      2338 8.34000E+01 4.35050E+01 0.00000E+00
 -1      2339 8.11500E+01 4.22060E+01 0.00000E+00
 -1      2340 8.49000E+01 4.35050E+01 0.00000E+00
 -1      2341 8.64000E+01 4.35050E+01 0.00000E+00
 -1      2342 8.41500E+01 4.22060E+01 0.00000E+00
 -1      2343 8.79000E+01 4.35050E+01 0.00000E+00
 -1      2344 8.94000E+01 4.35050E+01 0.00000E+00
 -1      2345 8.71500E+01 4.22060E+01 0.00000E+00
 -1      2346 9.09000E+01 4.35050E+01 0.00000E+00
 -1      2347 9.24000E+01 4.35050E+01 0.00000E+00
 -1      2348 9.01500E+01 4.22060E+01 0.00000E+00
 -1      2349 9.39000E+01 4.35050E+01 0.00000E+00
 -1      2350 9.54000E+01 4.35050E+01 0.00000E+00
 -1      2351 9.31500E+01 4.22060E+01 0.00000E+00
 -1      2352 9.69000E+01 4.35050E+01 0.00000E+00
 -1      2353 9.84000E+01 4.35050E+01 0.00000E+00
 -1      2354 9.61500E+01 4.22060E+01 0.00000E+00
 -1      2355 9.99000E+01 4.35050E+01 0.00000E+00
 -1      2356 1.01400E+02 4.35050E+01 0.00000E+00
 -1      2357 9.91500E+01 4.22060E+01 0.00000E+00
 -1      2358 1.02900E+02 4.35050E+01 0.00000E+00
 -1      2359 1.04400E+02 4.35050E+01 0.00000E+00
 -1      2360 1.02150E+02 4.22060E+01 0.00000E+00
 -1      2361 1.05900E+02 4.35050E+01 0.00000E+00
 -1      2362 1.07400E+02 4.35050E+01 0.00000E+00
 -1      2363 1.05150E+02 4.22060E+01 0.00000E+00
 -1      2364 1.08900E+02 4.35050E+01 0.00000E+00
 -1      2365 1.10400E+02 4.35050E+01 0.00000E+00
 -1      2366 1.08150E+02 4.22060E+01 0.00000E+00
 -1      2367 1.11900E+02 4.35050E+01 0.00000E+00
 -1      2368 1.13400E+02 4.35050E+01 0.00000E+00
 -1      2369 1.11150E+02 4.22060E+01 0.00000E+00
 -1      2370 1.14900E+02 4.35050E+01 0.00000E+00
 -1      2371 1.16400E+02 4.35050E+01 0.00000E+00
 -1      2372 1.14150E+02 4.22060E+01 0.00000E+00
 -1      2373 1.17900E+02 4.35050E+01 0.00000E+00
 -1      2374 1.19400E+02 4.35050E+01 0.00000E+00
 -1      2375 1.17150E+02 4.22060E+01 0.00000E+00
 -1      2376 1.20900E+02 4.35050E+01 0.00000E+00
 -1      2377 1.22400E+02 4.35050E+01 0.00000E+00
 -1      2378 1.20150E+02 4.22060E+01 0.00000E+00
 -1      2379 1.23900E+02 4.35050E+01 0.00000E+00
 -1      2380 1.25400E+02 4.35050E+01 0.00000E+00
 -1      2381 1.23150E+02 4.22060E+01 0.00000E+00
 -1      2382 1.26900E+02 4.35050E+01 0.00000E+00
 -1      2383 1.28400E+02 4.35050E+01 0.00000E+00
 -1      2384 1.26150E+02 4.22060E+01 0.00000E+00
 -1      2385 1.29900E+02 4.35050E+01 0.00000E+00
 -1      2386 1.31400E+02 4.35050E+01 0.00000E+00
 -1      2387 1.29150E+02 4.22060E+01 0.00000E+00
 -1      2388 1.32900E+02 4.35050E+01 0.00000E+00
 -1      2389 1.34400E+02 4.35050E+01 0.00000E+00
 -1      2390 1.32150E+02 4.22060E+01 0.00000E+00
 -1      2391 1.35900E+02 4.35050E+01 0.00000E+00
 -1      2392 1.37400E+02 4.35050E+01 0.00000E+00
 -1      2393 1.35150E+02 4.22060E+01 0.00000E+00
 -1      2394 1.38900E+02 4.35050E+01 0.00000E+00
 -1      2395 1.40400E+02 4.35050E+01 0.00000E+00
 -1      2396 1.38150E+02 4.22060E+01 0.00000E+00
 -1      2397 1.97850E+01 5.30525E+00 0.00000E+00
 -1      2398 1.82850E+01 5.30525E+00 0.00000E+00
 -1      2399 2.27850E+01 5.30525E+00 0.00000E+00
 -1      2400 2.12850E+01 5.30525E+00 0.00000E+00
 -1      2401 2.05350E+01 6.60425E+00 0.00000E+00
 -1      2402 2.57850E+01 5.30525E+00 0.00000E+00
 -1      2403 2.42850E+01 5.30525E+00 0.00000E+00
 -1      2404 2.35350E+01 6.60425E+00 0.00000E+00
 -1      2405 2.87850E+01 5.30525E+00 0.00000E+00
 -1      2406 2.72850E+01 5.30525E+00 0.00000E+00
 -1      2407 2.65350E+01 6.60425E+00 0.00000E+00
 -1      2408 3.17850E+01 5.30525E+00 0.00000E+00
 -1      2409 3.02850E+01 5.30525E+00 0.00000E+00
 -1      2410 2.95350E+01 6.60425E+00 0.00000E+00
 -1      2411 3.47850E+01 5.30525E+00 0.00000E+00
 -1      2412 3.32850E+01 5.30525E+00 0.00000E+00
 -1      2413 3.25350E+01 6.60425E+00 0.00000E+00
 -1      2414 3.77850E+01 5.30525E+00 0.00000E+00
 -1      2415 3.62850E+01 5.30525E+00 0.00000E+00
 -1      2416 3.55350E+01 6.60425E+00 0.00000E+00
 -1      2417 4.07850E+01 5.30525E+00 0.00000E+00
 -1      2418 3.92850E+01 5.30525E+00 0.00000E+00
 -1      2419 3.85350E+01 6.60425E+00 0.00000E+00
 -1      2420 4.37850E+01 5.30525E+00 0.00000E+00
 -1      2421 4.22850E+01 5.30525E+00 0.00000E+00
 -1      2422 4.15350E+01 6.60425E+00 0.00000E+00
 -1      2423 4.67850E+01 5.30525E+00 0.00000E+00
 -1      2424 4.52850E+01 5.30525E+00 0.00000E+00
 -1      2425 4.45350E+01 6.60425E+00 0.00000E+00
 -1      2426 4.97850E+01 5.30525E+00 0.00000E+00
 -1      2427 4.82850E+01 5.30525E+00 0.00000E+00
 -1      2428 4.75350E+01 6.60425E+00 0.00000E+00
 -1      2429 5.27850E+01 5.30525E+00 0.00000E+00
 -1      2430 5.12850E+01 5.30525E+00 0.00000E+00
 -1      2431 5.05350E+01 6.60425E+00 0.00000E+00
 -1      2432 5.57850E+01 5.30525E+00 0.00000E+00
 -1      2433 5.42850E+01 5.30525E+00 0.00000E+00
 -1      2434 5.35350E+01 6.60425E+00 0.00000E+00
 -1      2435 5.87850E+01 5.30525E+00 0.00000E+00
 -1      2436 5.72850E+01 5.30525E+00 0.00000E+00
 -1      2437 5.65350E+01 6.60425E+00 0.00000E+00
 -1      2438 6.17850E+01 5.30525E+00 0.00000E+00
 -1      2439 6.02850E+01 5.30525E+00 0.00000E+00
 -1      2440 5.95350E+01 6.60425E+00 0.00000E+00
 -1      2441 6.47850E+01 5.30525E+00 0.00000E+00
 -1      2442 6.32850E+01 5.30525E+00 0.00000E+00
 -1      2443 6.25350E+01 6.60425E+00 0.00000E+00
 -1      2444 6.77850E+01 5.30525E+00 0.00000E+00
 -1      2445 6.62850E+01 5.30525E+00 0.00000E+00
 -1      2446 6.55350E+01 6.60425E+00 0.00000E+00
 -1      2447 7.07850E+01 5.30525E+00 0.00000E+00
 -1      2448 6.92850E+01 5.30525E+00 0.00000E+00
 -1      2449 6.85350E+01 6.60425E+00 0.00000E+00
 -1      2450 7.37850E+01 5.30525E+00 0.00000E+00
 -1      2451 7.22850E+01 5.30525E+00 0.00000E+00
 -1      2452 7.15350E+01 6.60425E+00 0.00000E+00
 -1      2453 7.67850E+01 5.30525E+00 0.00000E+00
 -1      2454 7.52850E+01 5.30525E+00 0.00000E+00
 -1      2455 7.45350E+01 6.60425E+00 0.00000E+00
 -1      2456 7.97850E+01 5.30525E+00 0.00000E+00
 -1      2457 7.82850E+01 5.30525E+00 0.00000E+00
 -1      2458 7.75350E+01 6.60425E+00 0.00000E+00
 -1      2459 8.27850E+01 5.30525E+00 0.00000E+00
 -1      2460 8.12850E+01 5.30525E+00 0.00000E+00
 -1      2461 8.05350E+01 6.60425E+00 0.00000E+00
 -1      2462 8.57850E+01 5.30525E+00 0.00000E+00
 -1      2463 8.42850E+01 5.30525E+00 0.00000E+00
 -1      2464 8.35350E+01 6.60425E+00 0.00000E+00
 -1      2465 8.87850E+01 5.30525E+00 0.00000E+00
 -1      2466 8.72850E+01 5.30525E+00 0.00000E+00
 -1      2467 8.65350E+01 6.60425E+00 0.00000E+00
 -1      2468 9.17850E+01 5.30525E+00 0.00000E+00
 -1      2469 9.02850E+01 5.30525E+00 0.00000E+00
 -1      2470 8.95350E+01 6.60425E+00 0.00000E+00
 -1      2471 9.47850E+01 5.30525E+00 0.00000E+00
 -1      2472 9.32850E+01 5.30525E+00 0.00000E+00
 -1      2473 9.25350E+01 6.60425E+00 0.00000E+00
 -1      2474 9.77850E+01 5.30525E+00 0.00000E+00
 -1      2475 9.62850E+01 5.30525E+00 0.00000E+00
 -1      2476 9.55350E+01 6.60425E+00 0.00000E+00
 -1      2477 1.00785E+02 5.30525E+00 0.00000E+00
 -1      2478 9.92850E+01 5.30525E+00 0.00000E+00
 -1      2479 9.85350E+01 6.60425E+00 0.00000E+00
 -1      2480 1.03785E+02 5.30525E+00 0.00000E+00
 -1      2481 1.02285E+02 5.30525E+00 0.00000E+00
 -1      2482 1.01535E+02 6.60425E+00 0.00000E+00
 -1      2483 1.06785E+02 5.30525E+00 0.00000E+00
 -1      2484 1.05285E+02 5.30525E+00 0.00000E+00
 -1      2485 1.04535E+02 6.60425E+00 0.00000E+00
 -1      2486 1.09785E+02 5.30525E+00 0.00000E+00
 -1      2487 1.08285E+02 5.30525E+00 0.00000E+00
 -1      2488 1.07535E+02 6.60425E+00 0.00000E+00
 -1      2489 1.12785E+02 5.30525E+00 0.00000E+00
 -1      2490 1.11285E+02 5.30525E+00 0.00000E+00
 -1      2491 1.10535E+02 6.60425E+00 0.00000E+00
 -1      2492 1.15785E+02 5.30525E+00 0.00000E+00
 -1      2493 1.14285E+02 5.30525E+00 0.00000E+00
 -1      2494 1.13535E+02 6.60425E+00 0.00000E+00
 -1      2495 1.18785E+02 5.30525E+00 0.00000E+00
 -1      2496 1.17285E+02 5.30525E+00 0.00000E+00
 -1      2497 1.16535E+02 6.60425E+00 0.00000E+00
 -1      2498 1.21785E+02 5.30525E+00 0.00000E+00
 -1      2499 1.20285E+02 5.30525E+00 0.00000E+00
 -1      2500 1.19535E+02 6.60425E+00 0.00000E+00
 -1      2501 1.24785E+02 5.30525E+00 0.00000E+00
 -1      2502 1.23285E+02 5.30525E+00 0.00000E+00
 -1      2503 1.22535E+02 6.60425E+00 0.00000E+00
 -1      2504 1.27785E+02 5.30525E+00 0.00000E+00
 -1      2505 1.26285E+02 5.30525E+00 0.00000E+00
 -1      2506 1.25535E+02 6.60425E+00 0.00000E+00
 -1      2507 1.30785E+02 5.30525E+00 0.00000E+00
 -1      2508 1.29285E+02 5.30525E+00 0.00000E+00
 -1      2509 1.28535E+02 6.60425E+00 0.00000E+00
 -1      2510 1.33785E+02 5.30525E+00 0.00000E+00
 -1      2511 1.32285E+02 5.30525E+00 0.00000E+00
 -1      2512 1.31535E+02 6.60425E+00 0.00000E+00
 -1      2513 1.36785E+02 5.30525E+00 0.00000E+00
 -1      2514 1.35285E+02 5.30525E+00 0.00000E+00
 -1      2515 1.34535E+02 6.60425E+00 0.00000E+00
 -1      2516 1.39785E+02 5.30525E+00 0.00000E+00
 -1      2517 1.38285E+02 5.30525E+00 0.00000E+00
 -1      2518 1.37535E+02 6.60425E+00 0.00000E+00
 -1      2519 1.42785E+02 5.30525E+00 0.00000E+00
 -1      2520 1.41285E+02 5.30525E+00 0.00000E+00
 -1      2521 1.40535E+02 6.60425E+00 0.00000E+00
 -1      2522 1.44336E+02 5.23203E+00 0.00000E+00
 -1      2523 1.43611E+02 1.09125E+01 0.00000E+00
 -1      2524 1.43611E+02 9.43750E+00 0.00000E+00
 -1      2525 1.43611E+02 1.32125E+01 0.00000E+00
 -1      2526 1.43611E+02 1.20625E+01 0.00000E+00
 -1      2527 1.42419E+02 1.13250E+01 0.00000E+00
 -1      2528 1.45263E+02 2.81032E+01 0.00000E+00
 -1      2529 1.44344E+02 4.30606E+01 0.00000E+00
 -1      2530 1.44494E+02 3.16812E+01 0.00000E+00
 -1      2531 1.44494E+02 3.03438E+01 0.00000E+00
 -1      2532 1.43550E+02 3.75125E+01 0.00000E+00
 -1      2533 1.43550E+02 3.60375E+01 0.00000E+00
 -1      2534 1.42251E+02 3.82500E+01 0.00000E+00
 -1      2535 1.67850E+01 5.30525E+00 0.00000E+00
 -1      2536 1.52850E+01 5.30525E+00 0.00000E+00
 -1      2537 1.75350E+01 6.60425E+00 0.00000E+00
 -1      2538 1.43801E+02 3.45625E+01 0.00000E+00
 -1      2539 1.44053E+02 3.30875E+01 0.00000E+00
 -1      2540 1.42502E+02 3.53000E+01 0.00000E+00
 -1      2541 1.43424E+02 3.04058E+01 0.00000E+00
 -1      2542 1.42652E+02 3.11660E+01 0.00000E+00
 -1      2543 1.33339E+02 1.31510E+01 0.00000E+00
 -1      2544 1.34333E+02 1.29539E+01 0.00000E+00
 -1      2545 1.39629E+02 1.34935E+01 0.00000E+00
 -1      2546 1.40541E+02 1.37296E+01 0.00000E+00
 -1      2547 6.49500E+00 2.71625E+01 0.00000E+00
 -1      2548 6.49500E+00 2.86375E+01 0.00000E+00
 -1      2549 7.79400E+00 2.93750E+01 0.00000E+00
 -1      2550 7.79400E+00 2.64250E+01 0.00000E+00
 -1      2551 1.37610E+02 1.31204E+01 0.00000E+00
 -1      2552 1.38604E+02 1.32805E+01 0.00000E+00
 -1      2553 1.31294E+02 1.37905E+01 0.00000E+00
 -1      2554 1.32194E+02 1.34122E+01 0.00000E+00
 -1      2555 1.26941E+02 1.91327E+01 0.00000E+00
 -1      2556 1.27346E+02 1.82816E+01 0.00000E+00
 -1      2557 1.26103E+02 2.10180E+01 0.00000E+00
 -1      2558 1.26522E+02 2.00753E+01 0.00000E+00
 -1      2559 1.26025E+02 1.93178E+01 0.00000E+00
 -1      2560 1.25756E+02 2.35430E+01 0.00000E+00
 -1      2561 1.25692E+02 2.23996E+01 0.00000E+00
 -1      2562 1.26240E+02 2.55317E+01 0.00000E+00
 -1      2563 1.26084E+02 2.46357E+01 0.00000E+00
 -1      2564 1.27023E+02 2.76962E+01 0.00000E+00
 -1      2565 1.26564E+02 2.66808E+01 0.00000E+00
 -1      2566 1.27906E+02 2.94652E+01 0.00000E+00
 -1      2567 1.27466E+02 2.86771E+01 0.00000E+00
 -1      2568 1.29478E+02 3.13849E+01 0.00000E+00
 -1      2569 1.28601E+02 3.06165E+01 0.00000E+00
 -1      2570 1.31498E+02 3.23349E+01 0.00000E+00
 -1      2571 1.30658E+02 3.19023E+01 0.00000E+00
 -1      2572 1.33507E+02 3.31162E+01 0.00000E+00
 -1      2573 1.32510E+02 3.27370E+01 0.00000E+00
 -1      2574 1.35569E+02 3.36152E+01 0.00000E+00
 -1      2575 1.34601E+02 3.34021E+01 0.00000E+00
 -1      2576 1.37769E+02 3.36328E+01 0.00000E+00
 -1      2577 1.36827E+02 3.38052E+01 0.00000E+00
 -1      2578 1.41707E+02 3.22318E+01 0.00000E+00
 -1      2579 1.40991E+02 3.26316E+01 0.00000E+00
 -1      2580 1.41688E+02 1.42727E+01 0.00000E+00
 -1      2581 1.42570E+02 1.48913E+01 0.00000E+00
 -1      2582 8.07525E+00 5.11044E+00 0.00000E+00
 -1      2583 6.57525E+00 5.11044E+00 0.00000E+00
 -1      2584 6.40575E+00 6.01981E+00 0.00000E+00
 -1      2585 8.82525E+00 6.40944E+00 0.00000E+00
 -1      2586 1.27771E+02 1.73417E+01 0.00000E+00
 -1      2587 1.28263E+02 1.65758E+01 0.00000E+00
 -1      2588 1.35539E+02 1.29089E+01 0.00000E+00
 -1      2589 1.36535E+02 1.29629E+01 0.00000E+00
 -1      2590 1.39254E+02 1.26495E+01 0.00000E+00
 -1      2591 7.79400E+00 3.52687E+01 0.00000E+00
 -1      2592 6.49500E+00 3.60062E+01 0.00000E+00
 -1      2593 6.49500E+00 3.74750E+01 0.00000E+00
 -1      2594 1.43195E+02 3.24188E+01 0.00000E+00
 -1      2595 6.40575E+00 7.49481E+00 0.00000E+00
 -1      2596 1.26870E+02 1.74353E+01 0.00000E+00
 -1      2597 1.38531E+02 3.43144E+01 0.00000E+00
 -1      2598 1.45350E+01 6.60425E+00 0.00000E+00
 -1      2599 6.55950E+00 3.99453E+01 0.00000E+00
 -1      2600 1.44282E+02 2.97371E+01 0.00000E+00
 -1      2601 1.43586E+02 6.53103E+00 0.00000E+00
 -1      2602 1.43685E+02 1.59170E+01 0.00000E+00
 -1      2603 1.43685E+02 1.48920E+01 0.00000E+00
 -1      2604 1.32524E+02 1.24724E+01 0.00000E+00
 -1      2605 1.43419E+02 7.65212E+00 0.00000E+00
 -1      2606 1.37156E+02 1.22790E+01 0.00000E+00
 -1      2607 1.44407E+02 1.66673E+01 0.00000E+00
 -1      2608 1.45661E+02 1.97799E+01 0.00000E+00
 -1      2609 7.70475E+00 8.23231E+00 0.00000E+00
 -1      2610 1.34875E+02 1.21664E+01 0.00000E+00
 -1      2611 1.27442E+02 1.56223E+01 0.00000E+00
 -1      2612 1.28409E+02 1.57026E+01 0.00000E+00
 -1      2613 1.28556E+02 1.48295E+01 0.00000E+00
 -1      2614 1.41426E+02 1.34055E+01 0.00000E+00
 -1      2615 1.36194E+02 3.43725E+01 0.00000E+00
 -1      2616 1.33842E+02 3.38966E+01 0.00000E+00
 -1      2617 1.31736E+02 3.32086E+01 0.00000E+00
 -1      2618 1.29544E+02 3.22891E+01 0.00000E+00
 -1      2619 1.27669E+02 3.06204E+01 0.00000E+00
 -1      2620 1.26531E+02 2.84882E+01 0.00000E+00
 -1      2621 1.25765E+02 2.63582E+01 0.00000E+00
 -1      2622 1.25195E+02 2.16421E+01 0.00000E+00
 -1      2623 1.24698E+02 2.08846E+01 0.00000E+00
 -1      2624 1.24287E+02 2.22662E+01 0.00000E+00
 -1      2625 1.42769E+02 4.35929E+01 0.00000E+00
 -1      2626 1.43275E+02 4.17323E+01 0.00000E+00
 -1      2627 1.41976E+02 4.09948E+01 0.00000E+00
 -1      2628 1.41425E+02 4.35342E+01 0.00000E+00
 -1      2629 1.30451E+02 1.38216E+01 0.00000E+00
 -1      2630 1.30537E+02 1.27646E+01 0.00000E+00
 -1      2631 1.29609E+02 1.38527E+01 0.00000E+00
 -1      2632 1.43689E+02 1.39493E+01 0.00000E+00
 -1      2633 1.40675E+02 4.22352E+01 0.00000E+00
 -1      2634 1.44779E+02 2.91157E+01 0.00000E+00
 -1      2635 1.40678E+02 3.36051E+01 0.00000E+00
 -1      2636 1.42227E+02 8.38962E+00 0.00000E+00
 -1      2637 1.44680E+02 1.78298E+01 0.00000E+00
 -1      2638 1.25113E+02 2.41164E+01 0.00000E+00
 -1      2639 9.09300E+00 1.98250E+01 0.00000E+00
 -1      2640 9.09300E+00 2.12750E+01 0.00000E+00
 -1      2641 9.09300E+00 2.27500E+01 0.00000E+00
 -1      2642 9.09300E+00 2.42250E+01 0.00000E+00
 -1      2643 1.03920E+01 2.20250E+01 0.00000E+00
 -1      2644 9.09300E+00 1.39375E+01 0.00000E+00
 -1      2645 9.09300E+00 1.54125E+01 0.00000E+00
 -1      2646 9.09300E+00 1.09875E+01 0.00000E+00
 -1      2647 9.09300E+00 1.24625E+01 0.00000E+00
 -1      2648 1.03920E+01 1.32000E+01 0.00000E+00
 -1      2649 1.34240E+02 1.13319E+01 0.00000E+00
 -1      2650 1.35446E+02 1.12869E+01 0.00000E+00
 -1      2651 1.14000E+01 4.09070E+01 0.00000E+00
 -1      2652 1.29000E+01 4.09070E+01 0.00000E+00
 -1      2653 1.22850E+01 7.90325E+00 0.00000E+00
 -1      2654 1.07850E+01 7.90325E+00 0.00000E+00
 -1      2655 2.72850E+01 7.90325E+00 0.00000E+00
 -1      2656 2.57850E+01 7.90325E+00 0.00000E+00
 -1      2657 1.44000E+01 4.09070E+01 0.00000E+00
 -1      2658 1.59000E+01 4.09070E+01 0.00000E+00
 -1      2659 1.36500E+01 3.96080E+01 0.00000E+00
 -1      2660 1.74000E+01 4.09070E+01 0.00000E+00
 -1      2661 1.89000E+01 4.09070E+01 0.00000E+00
 -1      2662 1.66500E+01 3.96080E+01 0.00000E+00
 -1      2663 2.04000E+01 4.09070E+01 0.00000E+00
 -1      2664 2.19000E+01 4.09070E+01 0.00000E+00
 -1      2665 1.96500E+01 3.96080E+01 0.00000E+00
 -1      2666 2.34000E+01 4.09070E+01 0.00000E+00
 -1      2667 2.49000E+01 4.09070E+01 0.00000E+00
 -1      2668 2.26500E+01 3.96080E+01 0.00000E+00
 -1      2669 2.64000E+01 4.09070E+01 0.00000E+00
 -1      2670 2.79000E+01 4.09070E+01 0.00000E+00
 -1      2671 2.56500E+01 3.96080E+01 0.00000E+00
 -1      2672 2.94000E+01 4.09070E+01 0.00000E+00
 -1      2673 3.09000E+01 4.09070E+01 0.00000E+00
 -1      2674 2.86500E+01 3.96080E+01 0.00000E+00
 -1      2675 3.24000E+01 4.09070E+01 0.00000E+00
 -1      2676 3.39000E+01 4.09070E+01 0.00000E+00
 -1      2677 3.16500E+01 3.96080E+01 0.00000E+00
 -1      2678 3.54000E+01 4.09070E+01 0.00000E+00
 -1      2679 3.69000E+01 4.09070E+01 0.00000E+00
 -1      2680 3.46500E+01 3.96080E+01 0.00000E+00
 -1      2681 3.84000E+01 4.09070E+01 0.00000E+00
 -1      2682 3.99000E+01 4.09070E+01 0.00000E+00
 -1      2683 3.76500E+01 3.96080E+01 0.00000E+00
 -1      2684 4.14000E+01 4.09070E+01 0.00000E+00
 -1      2685 4.29000E+01 4.09070E+01 0.00000E+00
 -1      2686 4.06500E+01 3.96080E+01 0.00000E+00
 -1      2687 4.44000E+01 4.09070E+01 0.00000E+00
 -1      2688 4.59000E+01 4.09070E+01 0.00000E+00
 -1      2689 4.36500E+01 3.96080E+01 0.00000E+00
 -1      2690 4.74000E+01 4.09070E+01 0.00000E+00
 -1      2691 4.89000E+01 4.09070E+01 0.00000E+00
 -1      2692 4.66500E+01 3.96080E+01 0.00000E+00
 -1      2693 5.04000E+01 4.09070E+01 0.00000E+00
 -1      2694 5.19000E+01 4.09070E+01 0.00000E+00
 -1      2695 4.96500E+01 3.96080E+01 0.00000E+00
 -1      2696 5.34000E+01 4.09070E+01 0.00000E+00
 -1      2697 5.49000E+01 4.09070E+01 0.00000E+00
 -1      2698 5.26500E+01 3.96080E+01 0.00000E+00
 -1      2699 5.64000E+01 4.09070E+01 0.00000E+00
 -1      2700 5.79000E+01 4.09070E+01 0.00000E+00
 -1      2701 5.56500E+01 3.96080E+01 0.00000E+00
 -1      2702 5.94000E+01 4.09070E+01 0.00000E+00
 -1      2703 6.09000E+01 4.09070E+01 0.00000E+00
 -1      2704 5.86500E+01 3.96080E+01 0.00000E+00
 -1      2705 6.24000E+01 4.09070E+01 0.00000E+00
 -1      2706 6.39000E+01 4.09070E+01 0.00000E+00
 -1      2707 6.16500E+01 3.96080E+01 0.00000E+00
 -1      2708 6.54000E+01 4.09070E+01 0.00000E+00
 -1      2709 6.69000E+01 4.09070E+01 0.00000E+00
 -1      2710 6.46500E+01 3.96080E+01 0.00000E+00
 -1      2711 6.84000E+01 4.09070E+01 0.00000E+00
 -1      2712 6.99000E+01 4.09070E+01 0.00000E+00
 -1      2713 6.76500E+01 3.96080E+01 0.00000E+00
 -1      2714 7.14000E+01 4.09070E+01 0.00000E+00
 -1      2715 7.29000E+01 4.09070E+01 0.00000E+00
 -1      2716 7.06500E+01 3.96080E+01 0.00000E+00
 -1      2717 7.44000E+01 4.09070E+01 0.00000E+00
 -1      2718 7.59000E+01 4.09070E+01 0.00000E+00
 -1      2719 7.36500E+01 3.96080E+01 0.00000E+00
 -1      2720 7.74000E+01 4.09070E+01 0.00000E+00
 -1      2721 7.89000E+01 4.09070E+01 0.00000E+00
 -1      2722 7.66500E+01 3.96080E+01 0.00000E+00
 -1      2723 8.04000E+01 4.09070E+01 0.00000E+00
 -1      2724 8.19000E+01 4.09070E+01 0.00000E+00
 -1      2725 7.96500E+01 3.96080E+01 0.00000E+00
 -1      2726 8.34000E+01 4.09070E+01 0.00000E+00
 -1      2727 8.49000E+01 4.09070E+01 0.00000E+00
 -1      2728 8.26500E+01 3.96080E+01 0.00000E+00
 -1      2729 8.64000E+01 4.09070E+01 0.00000E+00
 -1      2730 8.79000E+01 4.09070E+01 0.00000E+00
 -1      2731 8.56500E+01 3.96080E+01 0.00000E+00
 -1      2732 8.94000E+01 4.09070E+01 0.00000E+00
 -1      2733 9.09000E+01 4.09070E+01 0.00000E+00
 -1      2734 8.86500E+01 3.96080E+01 0.00000E+00
 -1      2735 9.24000E+01 4.09070E+01 0.00000E+00
 -1      2736 9.39000E+01 4.09070E+01 0.00000E+00
 -1      2737 9.16500E+01 3.96080E+01 0.00000E+00
 -1      2738 9.54000E+01 4.09070E+01 0.00000E+00
 -1      2739 9.69000E+01 4.09070E+01 0.00000E+00
 -1      2740 9.46500E+01 3.96080E+01 0.00000E+00
 -1      2741 9.84000E+01 4.09070E+01 0.00000E+00
 -1      2742 9.99000E+01 4.09070E+01 0.00000E+00
 -1      2743 9.76500E+01 3.96080E+01 0.00000E+00
 -1      2744 1.01400E+02 4.09070E+01 0.00000E+00
 -1      2745 1.02900E+02 4.09070E+01 0.00000E+00
 -1      2746 1.00650E+02 3.96080E+01 0.00000E+00
 -1      2747 1.04400E+02 4.09070E+01 0.00000E+00
 -1      2748 1.05900E+02 4.09070E+01 0.00000E+00
 -1      2749 1.03650E+02 3.96080E+01 0.00000E+00
 -1      2750 1.07400E+02 4.09070E+01 0.00000E+00
 -1      2751 1.08900E+02 4.09070E+01 0.00000E+00
 -1      2752 1.06650E+02 3.96080E+01 0.00000E+00
 -1      2753 1.10400E+02 4.09070E+01 0.00000E+00
 -1      2754 1.11900E+02 4.09070E+01 0.00000E+00
 -1      2755 1.09650E+02 3.96080E+01 0.00000E+00
 -1      2756 1.13400E+02 4.09070E+01 0.00000E+00
 -1      2757 1.14900E+02 4.09070E+01 0.00000E+00
 -1      2758 1.12650E+02 3.96080E+01 0.00000E+00
 -1      2759 1.16400E+02 4.09070E+01 0.00000E+00
 -1      2760 1.17900E+02 4.09070E+01 0.00000E+00
 -1      2761 1.15650E+02 3.96080E+01 0.00000E+00
 -1      2762 1.19400E+02 4.09070E+01 0.00000E+00
 -1      2763 1.20900E+02 4.09070E+01 0.00000E+00
 -1      2764 1.18650E+02 3.96080E+01 0.00000E+00
 -1      2765 1.22400E+02 4.09070E+01 0.00000E+00
 -1      2766 1.23900E+02 4.09070E+01 0.00000E+00
 -1      2767 1.21650E+02 3.96080E+01 0.00000E+00
 -1      2768 1.25400E+02 4.09070E+01 0.00000E+00
 -1      2769 1.26900E+02 4.09070E+01 0.00000E+00
 -1      2770 1.24650E+02 3.96080E+01 0.00000E+00
 -1      2771 1.28400E+02 4.09070E+01 0.00000E+00
 -1      2772 1.29900E+02 4.09070E+01 0.00000E+00
 -1      2773 1.27650E+02 3.96080E+01 0.00000E+00
 -1      2774 1.31400E+02 4.09070E+01 0.00000E+00
 -1      2775 1.32900E+02 4.09070E+01 0.00000E+00
 -1      2776 1.30650E+02 3.96080E+01 0.00000E+00
 -1      2777 1.34400E+02 4.09070E+01 0.00000E+00
 -1      2778 1.35900E+02 4.09070E+01 0.00000E+00
 -1      2779 1.33650E+02 3.96080E+01 0.00000E+00
 -1      2780 1.37400E+02 4.09070E+01 0.00000E+00
 -1      2781 1.38900E+02 4.09070E+01 0.00000E+00
 -1      2782 1.36650E+02 3.96080E+01 0.00000E+00
 -1      2783 2.42850E+01 7.90325E+00 0.00000E+00
 -1      2784 2.27850E+01 7.90325E+00 0.00000E+00
 -1      2785 2.50350E+01 9.20225E+00 0.00000E+00
 -1      2786 2.12850E+01 7.90325E+00 0.00000E+00
 -1      2787 1.97850E+01 7.90325E+00 0.00000E+00
 -1      2788 2.20350E+01 9.20225E+00 0.00000E+00
 -1      2789 3.02850E+01 7.90325E+00 0.00000E+00
 -1      2790 2.87850E+01 7.90325E+00 0.00000E+00
 -1      2791 2.80350E+01 9.20225E+00 0.00000E+00
 -1      2792 3.32850E+01 7.90325E+00 0.00000E+00
 -1      2793 3.17850E+01 7.90325E+00 0.00000E+00
 -1      2794 3.10350E+01 9.20225E+00 0.00000E+00
 -1      2795 3.62850E+01 7.90325E+00 0.00000E+00
 -1      2796 3.47850E+01 7.90325E+00 0.00000E+00
 -1      2797 3.40350E+01 9.20225E+00 0.00000E+00
 -1      2798 3.92850E+01 7.90325E+00 0.00000E+00
 -1      2799 3.77850E+01 7.90325E+00 0.00000E+00
 -1      2800 3.70350E+01 9.20225E+00 0.00000E+00
 -1      2801 4.22850E+01 7.90325E+00 0.00000E+00
 -1      2802 4.07850E+01 7.90325E+00 0.00000E+00
 -1      2803 4.00350E+01 9.20225E+00 0.00000E+00
 -1      2804 4.52850E+01 7.90325E+00 0.00000E+00
 -1      2805 4.37850E+01 7.90325E+00 0.00000E+00
 -1      2806 4.30350E+01 9.20225E+00 0.00000E+00
 -1      2807 4.82850E+01 7.90325E+00 0.00000E+00
 -1      2808 4.67850E+01 7.90325E+00 0.00000E+00
 -1      2809 4.60350E+01 9.20225E+00 0.00000E+00
 -1      2810 5.12850E+01 7.90325E+00 0.00000E+00
 -1      2811 4.97850E+01 7.90325E+00 0.00000E+00
 -1      2812 4.90350E+01 9.20225E+00 0.00000E+00
 -1      2813 5.42850E+01 7.90325E+00 0.00000E+00
 -1      2814 5.27850E+01 7.90325E+00 0.00000E+00
 -1      2815 5.20350E+01 9.20225E+00 0.00000E+00
 -1      2816 5.72850E+01 7.90325E+00 0.00000E+00
 -1      2817 5.57850E+01 7.90325E+00 0.00000E+00
 -1      2818 5.50350E+01 9.20225E+00 0.00000E+00
 -1      2819 6.02850E+01 7.90325E+00 0.00000E+00
 -1      2820 5.87850E+01 7.90325E+00 0.00000E+00
 -1      2821 5.80350E+01 9.20225E+00 0.00000E+00
 -1      2822 6.32850E+01 7.90325E+00 0.00000E+00
 -1      2823 6.17850E+01 7.90325E+00 0.00000E+00
 -1      2824 6.10350E+01 9.20225E+00 0.00000E+00
 -1      2825 6.62850E+01 7.90325E+00 0.00000E+00
 -1      2826 6.47850E+01 7.90325E+00 0.00000E+00
 -1      2827 6.40350E+01 9.20225E+00 0.00000E+00
 -1      2828 6.92850E+01 7.90325E+00 0.00000E+00
 -1      2829 6.77850E+01 7.90325E+00 0.00000E+00
 -1      2830 6.70350E+01 9.20225E+00 0.00000E+00
 -1      2831 7.22850E+01 7.90325E+00 0.00000E+00
 -1      2832 7.07850E+01 7.90325E+00 0.00000E+00
 -1      2833 7.00350E+01 9.20225E+00 0.00000E+00
 -1      2834 7.52850E+01 7.90325E+00 0.00000E+00
 -1      2835 7.37850E+01 7.90325E+00 0.00000E+00
 -1      2836 7.30350E+01 9.20225E+00 0.00000E+00
 -1      2837 7.82850E+01 7.90325E+00 0.00000E+00
 -1      2838 7.67850E+01 7.90325E+00 0.00000E+00
 -1      2839 7.60350E+01 9.20225E+00 0.00000E+00
 -1      2840 8.12850E+01 7.90325E+00 0.00000E+00
 -1      2841 7.97850E+01 7.90325E+00 0.00000E+00
 -1      2842 7.90350E+01 9.20225E+00 0.00000E+00
 -1      2843 8.42850E+01 7.90325E+00 0.00000E+00
 -1      2844 8.27850E+01 7.90325E+00 0.00000E+00
 -1      2845 8.20350E+01 9.20225E+00 0.00000E+00
 -1      2846 8.72850E+01 7.90325E+00 0.00000E+00
 -1      2847 8.57850E+01 7.90325E+00 0.00000E+00
 -1      2848 8.50350E+01 9.20225E+00 0.00000E+00
 -1      2849 9.02850E+01 7.90325E+00 0.00000E+00
 -1      2850 8.87850E+01 7.90325E+00 0.00000E+00
 -1      2851 8.80350E+01 9.20225E+00 0.00000E+00
 -1      2852 9.32850E+01 7.90325E+00 0.00000E+00
 -1      2853 9.17850E+01 7.90325E+00 0.00000E+00
 -1      2854 9.10350E+01 9.20225E+00 0.00000E+00
 -1      2855 9.62850E+01 7.90325E+00 0.00000E+00
 -1      2856 9.47850E+01 7.90325E+00 0.00000E+00
 -1      2857 9.40350E+01 9.20225E+00 0.00000E+00
 -1      2858 9.92850E+01 7.90325E+00 0.00000E+00
 -1      2859 9.77850E+01 7.90325E+00 0.00000E+00
 -1      2860 9.70350E+01 9.20225E+00 0.00000E+00
 -1      2861 1.02285E+02 7.90325E+00 0.00000E+00
 -1      2862 1.00785E+02 7.90325E+00 0.00000E+00
 -1      2863 1.00035E+02 9.20225E+00 0.00000E+00
 -1      2864 1.05285E+02 7.90325E+00 0.00000E+00
 -1      2865 1.03785E+02 7.90325E+00 0.00000E+00
 -1      2866 1.03035E+02 9.20225E+00 0.00000E+00
 -1      2867 1.08285E+02 7.90325E+00 0.00000E+00
 -1      2868 1.06785E+02 7.90325E+00 0.00000E+00
 -1      2869 1.06035E+02 9.20225E+00 0.00000E+00
 -1      2870 1.11285E+02 7.90325E+00 0.00000E+00
 -1      2871 1.09785E+02 7.90325E+00 0.00000E+00
 -1      2872 1.09035E+02 9.20225E+00 0.00000E+00
 -1      2873 1.14285E+02 7.90325E+00 0.00000E+00
 -1      2874 1.12785E+02 7.90325E+00 0.00000E+00
 -1      2875 1.12035E+02 9.20225E+00 0.00000E+00
 -1      2876 1.17285E+02 7.90325E+00 0.00000E+00
 -1      2877 1.15785E+02 7.90325E+00 0.00000E+00
 -1      2878 1.15035E+02 9.20225E+00 0.00000E+00
 -1      2879 1.20285E+02 7.90325E+00 0.00000E+00
 -1      2880 1.18785E+02 7.90325E+00 0.00000E+00
 -1      2881 1.18035E+02 9.20225E+00 0.00000E+00
 -1      2882 1.23285E+02 7.90325E+00 0.00000E+00
 -1      2883 1.21785E+02 7.90325E+00 0.00000E+00
 -1      2884 1.21035E+02 9.20225E+00 0.00000E+00
 -1      2885 1.26285E+02 7.90325E+00 0.00000E+00
 -1      2886 1.24785E+02 7.90325E+00 0.00000E+00
 -1      2887 1.24035E+02 9.20225E+00 0.00000E+00
 -1      2888 1.29285E+02 7.90325E+00 0.00000E+00
 -1      2889 1.27785E+02 7.90325E+00 0.00000E+00
 -1      2890 1.27035E+02 9.20225E+00 0.00000E+00
 -1      2891 1.32285E+02 7.90325E+00 0.00000E+00
 -1      2892 1.30785E+02 7.90325E+00 0.00000E+00
 -1      2893 1.30035E+02 9.20225E+00 0.00000E+00
 -1      2894 1.35423E+02 8.52835E+00 0.00000E+00
 -1      2895 1.33923E+02 8.52835E+00 0.00000E+00
 -1      2896 1.40727E+02 8.38962E+00 0.00000E+00
 -1      2897 1.42496E+02 1.32118E+01 0.00000E+00
 -1      2898 1.31951E+02 1.18541E+01 0.00000E+00
 -1      2899 1.33095E+02 1.15930E+01 0.00000E+00
 -1      2900 1.33667E+02 1.07136E+01 0.00000E+00
 -1      2901 1.45126E+02 1.86794E+01 0.00000E+00
 -1      2902 8.91450E+00 8.42712E+00 0.00000E+00
 -1      2903 1.40952E+02 3.89875E+01 0.00000E+00
 -1      2904 1.40952E+02 3.75125E+01 0.00000E+00
 -1      2905 1.42211E+02 3.25723E+01 0.00000E+00
 -1      2906 1.82850E+01 7.90325E+00 0.00000E+00
 -1      2907 1.67850E+01 7.90325E+00 0.00000E+00
 -1      2908 1.90350E+01 9.20225E+00 0.00000E+00
 -1      2909 1.36731E+02 1.14346E+01 0.00000E+00
 -1      2910 1.37805E+02 1.15921E+01 0.00000E+00
 -1      2911 1.52850E+01 7.90325E+00 0.00000E+00
 -1      2912 1.37850E+01 7.90325E+00 0.00000E+00
 -1      2913 1.30350E+01 9.20225E+00 0.00000E+00
 -1      2914 1.60350E+01 9.20225E+00 0.00000E+00
 -1      2915 1.41349E+02 1.26687E+01 0.00000E+00
 -1      2916 1.36701E+02 3.52741E+01 0.00000E+00
 -1      2917 1.35444E+02 3.50840E+01 0.00000E+00
 -1      2918 1.40279E+02 1.17125E+01 0.00000E+00
 -1      2919 1.41349E+02 1.15187E+01 0.00000E+00
 -1      2920 1.41349E+02 1.03687E+01 0.00000E+00
 -1      2921 7.85850E+00 3.92077E+01 0.00000E+00
 -1      2922 1.39281E+02 3.51077E+01 0.00000E+00
 -1      2923 1.38203E+02 3.53559E+01 0.00000E+00
 -1      2924 9.09300E+00 1.68813E+01 0.00000E+00
 -1      2925 9.09300E+00 1.83563E+01 0.00000E+00
 -1      2926 1.03920E+01 1.90812E+01 0.00000E+00
 -1      2927 1.03920E+01 1.61437E+01 0.00000E+00
 -1      2928 9.09300E+00 3.15875E+01 0.00000E+00
 -1      2929 9.09300E+00 3.30625E+01 0.00000E+00
 -1      2930 1.25071E+02 1.94578E+01 0.00000E+00
 -1      2931 1.25490E+02 1.85151E+01 0.00000E+00
 -1      2932 1.24940E+02 2.72105E+01 0.00000E+00
 -1      2933 1.24616E+02 2.60614E+01 0.00000E+00
 -1      2934 1.25971E+02 2.93315E+01 0.00000E+00
 -1      2935 1.25528E+02 2.83506E+01 0.00000E+00
 -1      2936 1.27282E+02 3.16392E+01 0.00000E+00
 -1      2937 1.26587E+02 3.04879E+01 0.00000E+00
 -1      2938 1.29789E+02 3.33331E+01 0.00000E+00
 -1      2939 1.28609E+02 3.28157E+01 0.00000E+00
 -1      2940 1.31925E+02 3.42066E+01 0.00000E+00
 -1      2941 1.30913E+02 3.38045E+01 0.00000E+00
 -1      2942 1.34173E+02 3.48692E+01 0.00000E+00
 -1      2943 1.33078E+02 3.45833E+01 0.00000E+00
 -1      2944 1.25915E+02 1.75753E+01 0.00000E+00
 -1      2945 1.26340E+02 1.66354E+01 0.00000E+00
 -1      2946 1.24960E+02 1.77152E+01 0.00000E+00
 -1      2947 1.24288E+02 2.49687E+01 0.00000E+00
 -1      2948 1.23959E+02 2.38760E+01 0.00000E+00
 -1      2949 1.23463E+02 2.58211E+01 0.00000E+00
 -1      2950 1.39254E+02 1.14995E+01 0.00000E+00
 -1      2951 9.09300E+00 3.45313E+01 0.00000E+00
 -1      2952 9.09300E+00 3.60000E+01 0.00000E+00
 -1      2953 1.03920E+01 3.37938E+01 0.00000E+00
 -1      2954 1.03920E+01 2.49750E+01 0.00000E+00
 -1      2955 9.09300E+00 2.57000E+01 0.00000E+00
 -1      2956 9.09300E+00 2.71750E+01 0.00000E+00
 -1      2957 1.36096E+02 1.06001E+01 0.00000E+00
 -1      2958 1.38830E+02 1.06551E+01 0.00000E+00
 -1      2959 1.30265E+02 1.19163E+01 0.00000E+00
 -1      2960 1.31108E+02 1.18852E+01 0.00000E+00
 -1      2961 1.31679E+02 1.10058E+01 0.00000E+00
 -1      2962 1.38285E+02 7.90325E+00 0.00000E+00
 -1      2963 1.36785E+02 7.90325E+00 0.00000E+00
 -1      2964 1.34680E+02 3.57708E+01 0.00000E+00
 -1      2965 1.32256E+02 3.51793E+01 0.00000E+00
 -1      2966 1.27528E+02 3.26833E+01 0.00000E+00
 -1      2967 1.26446E+02 3.25509E+01 0.00000E+00
 -1      2968 1.27773E+02 3.37273E+01 0.00000E+00
 -1      2969 1.25584E+02 3.03504E+01 0.00000E+00
 -1      2970 9.15750E+00 3.77359E+01 0.00000E+00
 -1      2971 9.22200E+00 4.02061E+01 0.00000E+00
 -1      2972 1.05855E+01 4.04701E+01 0.00000E+00
 -1      2973 1.04565E+01 3.69984E+01 0.00000E+00
 -1      2974 9.66450E+00 9.72612E+00 0.00000E+00
 -1      2975 1.40602E+02 3.64621E+01 0.00000E+00
 -1      2976 1.40853E+02 3.49871E+01 0.00000E+00
 -1      2977 1.26487E+02 1.57622E+01 0.00000E+00
 -1      2978 1.26633E+02 1.48891E+01 0.00000E+00
 -1      2979 1.25532E+02 1.59022E+01 0.00000E+00
 -1      2980 1.39303E+02 3.71996E+01 0.00000E+00
 -1      2981 1.24379E+02 2.80538E+01 0.00000E+00
 -1      2982 1.23462E+02 2.31185E+01 0.00000E+00
 -1      2983 1.22965E+02 2.23610E+01 0.00000E+00
 -1      2984 1.22637E+02 2.39709E+01 0.00000E+00
 -1      2985 1.39925E+02 4.09362E+01 0.00000E+00
 -1      2986 1.40201E+02 3.96665E+01 0.00000E+00
 -1      2987 9.09300E+00 2.86437E+01 0.00000E+00
 -1      2988 9.09300E+00 3.01187E+01 0.00000E+00
 -1      2989 1.03920E+01 3.08563E+01 0.00000E+00
 -1      2990 1.03920E+01 2.79188E+01 0.00000E+00
 -1      2991 1.09635E+01 1.04636E+01 0.00000E+00
 -1      2992 1.28641E+02 1.37724E+01 0.00000E+00
 -1      2993 1.13355E+01 3.91711E+01 0.00000E+00
 -1      2994 1.24163E+02 2.00819E+01 0.00000E+00
 -1      2995 1.23627E+02 1.92792E+01 0.00000E+00
 -1      2996 1.23255E+02 2.07060E+01 0.00000E+00
 -1      2997 1.29979E+02 3.43312E+01 0.00000E+00
 -1      2998 1.16910E+01 1.24625E+01 0.00000E+00
 -1      2999 1.16910E+01 1.39375E+01 0.00000E+00
 -1      3000 2.87850E+01 1.05013E+01 0.00000E+00
 -1      3001 2.72850E+01 1.05013E+01 0.00000E+00
 -1      3002 1.59000E+01 3.83090E+01 0.00000E+00
 -1      3003 1.74000E+01 3.83090E+01 0.00000E+00
 -1      3004 1.89000E+01 3.83090E+01 0.00000E+00
 -1      3005 2.04000E+01 3.83090E+01 0.00000E+00
 -1      3006 1.81500E+01 3.70100E+01 0.00000E+00
 -1      3007 2.19000E+01 3.83090E+01 0.00000E+00
 -1      3008 2.34000E+01 3.83090E+01 0.00000E+00
 -1      3009 2.11500E+01 3.70100E+01 0.00000E+00
 -1      3010 2.49000E+01 3.83090E+01 0.00000E+00
 -1      3011 2.64000E+01 3.83090E+01 0.00000E+00
 -1      3012 2.41500E+01 3.70100E+01 0.00000E+00
 -1      3013 2.79000E+01 3.83090E+01 0.00000E+00
 -1      3014 2.94000E+01 3.83090E+01 0.00000E+00
 -1      3015 2.71500E+01 3.70100E+01 0.00000E+00
 -1      3016 3.09000E+01 3.83090E+01 0.00000E+00
 -1      3017 3.24000E+01 3.83090E+01 0.00000E+00
 -1      3018 3.01500E+01 3.70100E+01 0.00000E+00
 -1      3019 3.39000E+01 3.83090E+01 0.00000E+00
 -1      3020 3.54000E+01 3.83090E+01 0.00000E+00
 -1      3021 3.31500E+01 3.70100E+01 0.00000E+00
 -1      3022 3.69000E+01 3.83090E+01 0.00000E+00
 -1      3023 3.84000E+01 3.83090E+01 0.00000E+00
 -1      3024 3.61500E+01 3.70100E+01 0.00000E+00
 -1      3025 3.99000E+01 3.83090E+01 0.00000E+00
 -1      3026 4.14000E+01 3.83090E+01 0.00000E+00
 -1      3027 3.91500E+01 3.70100E+01 0.00000E+00
 -1      3028 4.29000E+01 3.83090E+01 0.00000E+00
 -1      3029 4.44000E+01 3.83090E+01 0.00000E+00
 -1      3030 4.21500E+01 3.70100E+01 0.00000E+00
 -1      3031 4.59000E+01 3.83090E+01 0.00000E+00
 -1      3032 4.74000E+01 3.83090E+01 0.00000E+00
 -1      3033 4.51500E+01 3.70100E+01 0.00000E+00
 -1      3034 4.89000E+01 3.83090E+01 0.00000E+00
 -1      3035 5.04000E+01 3.83090E+01 0.00000E+00
 -1      3036 4.81500E+01 3.70100E+01 0.00000E+00
 -1      3037 5.19000E+01 3.83090E+01 0.00000E+00
 -1      3038 5.34000E+01 3.83090E+01 0.00000E+00
 -1      3039 5.11500E+01 3.70100E+01 0.00000E+00
 -1      3040 5.49000E+01 3.83090E+01 0.00000E+00
 -1      3041 5.64000E+01 3.83090E+01 0.00000E+00
 -1      3042 5.41500E+01 3.70100E+01 0.00000E+00
 -1      3043 5.79000E+01 3.83090E+01 0.00000E+00
 -1      3044 5.94000E+01 3.83090E+01 0.00000E+00
 -1      3045 5.71500E+01 3.70100E+01 0.00000E+00
 -1      3046 6.09000E+01 3.83090E+01 0.00000E+00
 -1      3047 6.24000E+01 3.83090E+01 0.00000E+00
 -1      3048 6.01500E+01 3.70100E+01 0.00000E+00
 -1      3049 6.39000E+01 3.83090E+01 0.00000E+00
 -1      3050 6.54000E+01 3.83090E+01 0.00000E+00
 -1      3051 6.31500E+01 3.70100E+01 0.00000E+00
 -1      3052 6.69000E+01 3.83090E+01 0.00000E+00
 -1      3053 6.84000E+01 3.83090E+01 0.00000E+00
 -1      3054 6.61500E+01 3.70100E+01 0.00000E+00
 -1      3055 6.99000E+01 3.83090E+01 0.00000E+00
 -1      3056 7.14000E+01 3.83090E+01 0.00000E+00
 -1      3057 6.91500E+01 3.70100E+01 0.00000E+00
 -1      3058 7.29000E+01 3.83090E+01 0.00000E+00
 -1      3059 7.44000E+01 3.83090E+01 0.00000E+00
 -1      3060 7.21500E+01 3.70100E+01 0.00000E+00
 -1      3061 7.59000E+01 3.83090E+01 0.00000E+00
 -1      3062 7.74000E+01 3.83090E+01 0.00000E+00
 -1      3063 7.51500E+01 3.70100E+01 0.00000E+00
 -1      3064 7.89000E+01 3.83090E+01 0.00000E+00
 -1      3065 8.04000E+01 3.83090E+01 0.00000E+00
 -1      3066 7.81500E+01 3.70100E+01 0.00000E+00
 -1      3067 8.19000E+01 3.83090E+01 0.00000E+00
 -1      3068 8.34000E+01 3.83090E+01 0.00000E+00
 -1      3069 8.11500E+01 3.70100E+01 0.00000E+00
 -1      3070 8.49000E+01 3.83090E+01 0.00000E+00
 -1      3071 8.64000E+01 3.83090E+01 0.00000E+00
 -1      3072 8.41500E+01 3.70100E+01 0.00000E+00
 -1      3073 8.79000E+01 3.83090E+01 0.00000E+00
 -1      3074 8.94000E+01 3.83090E+01 0.00000E+00
 -1      3075 8.71500E+01 3.70100E+01 0.00000E+00
 -1      3076 9.09000E+01 3.83090E+01 0.00000E+00
 -1      3077 9.24000E+01 3.83090E+01 0.00000E+00
 -1      3078 9.01500E+01 3.70100E+01 0.00000E+00
 -1      3079 9.39000E+01 3.83090E+01 0.00000E+00
 -1      3080 9.54000E+01 3.83090E+01 0.00000E+00
 -1      3081 9.31500E+01 3.70100E+01 0.00000E+00
 -1      3082 9.69000E+01 3.83090E+01 0.00000E+00
 -1      3083 9.84000E+01 3.83090E+01 0.00000E+00
 -1      3084 9.61500E+01 3.70100E+01 0.00000E+00
 -1      3085 9.99000E+01 3.83090E+01 0.00000E+00
 -1      3086 1.01400E+02 3.83090E+01 0.00000E+00
 -1      3087 9.91500E+01 3.70100E+01 0.00000E+00
 -1      3088 1.02900E+02 3.83090E+01 0.00000E+00
 -1      3089 1.04400E+02 3.83090E+01 0.00000E+00
 -1      3090 1.02150E+02 3.70100E+01 0.00000E+00
 -1      3091 1.05900E+02 3.83090E+01 0.00000E+00
 -1      3092 1.07400E+02 3.83090E+01 0.00000E+00
 -1      3093 1.05150E+02 3.70100E+01 0.00000E+00
 -1      3094 1.08900E+02 3.83090E+01 0.00000E+00
 -1      3095 1.10400E+02 3.83090E+01 0.00000E+00
 -1      3096 1.08150E+02 3.70100E+01 0.00000E+00
 -1      3097 1.11900E+02 3.83090E+01 0.00000E+00
 -1      3098 1.13400E+02 3.83090E+01 0.00000E+00
 -1      3099 1.11150E+02 3.70100E+01 0.00000E+00
 -1      3100 1.14900E+02 3.83090E+01 0.00000E+00
 -1      3101 1.16400E+02 3.83090E+01 0.00000E+00
 -1      3102 1.14150E+02 3.70100E+01 0.00000E+00
 -1      3103 1.17900E+02 3.83090E+01 0.00000E+00
 -1      3104 1.19400E+02 3.83090E+01 0.00000E+00
 -1      3105 1.17150E+02 3.70100E+01 0.00000E+00
 -1      3106 1.20900E+02 3.83090E+01 0.00000E+00
 -1      3107 1.22400E+02 3.83090E+01 0.00000E+00
 -1      3108 1.20150E+02 3.70100E+01 0.00000E+00
 -1      3109 1.23900E+02 3.83090E+01 0.00000E+00
 -1      3110 1.25400E+02 3.83090E+01 0.00000E+00
 -1      3111 1.23150E+02 3.70100E+01 0.00000E+00
 -1      3112 1.26900E+02 3.83090E+01 0.00000E+00
 -1      3113 1.28400E+02 3.83090E+01 0.00000E+00
 -1      3114 1.26150E+02 3.70100E+01 0.00000E+00
 -1      3115 1.32900E+02 3.85829E+01 0.00000E+00
 -1      3116 1.34400E+02 3.85829E+01 0.00000E+00
 -1      3117 1.35900E+02 3.84153E+01 0.00000E+00
 -1      3118 1.37400E+02 3.84153E+01 0.00000E+00
 -1      3119 2.57850E+01 1.05013E+01 0.00000E+00
 -1      3120 2.42850E+01 1.05013E+01 0.00000E+00
 -1      3121 2.65350E+01 1.18003E+01 0.00000E+00
 -1      3122 2.27850E+01 1.05013E+01 0.00000E+00
 -1      3123 2.12850E+01 1.05013E+01 0.00000E+00
 -1      3124 2.35350E+01 1.18003E+01 0.00000E+00
 -1      3125 1.39977E+02 9.68863E+00 0.00000E+00
 -1      3126 3.47850E+01 1.05013E+01 0.00000E+00
 -1      3127 3.32850E+01 1.05013E+01 0.00000E+00
 -1      3128 3.77850E+01 1.05013E+01 0.00000E+00
 -1      3129 3.62850E+01 1.05013E+01 0.00000E+00
 -1      3130 3.55350E+01 1.18003E+01 0.00000E+00
 -1      3131 4.07850E+01 1.05013E+01 0.00000E+00
 -1      3132 3.92850E+01 1.05013E+01 0.00000E+00
 -1      3133 3.85350E+01 1.18003E+01 0.00000E+00
 -1      3134 4.37850E+01 1.05013E+01 0.00000E+00
 -1      3135 4.22850E+01 1.05013E+01 0.00000E+00
 -1      3136 4.15350E+01 1.18003E+01 0.00000E+00
 -1      3137 4.67850E+01 1.05013E+01 0.00000E+00
 -1      3138 4.52850E+01 1.05013E+01 0.00000E+00
 -1      3139 4.45350E+01 1.18003E+01 0.00000E+00
 -1      3140 4.97850E+01 1.05013E+01 0.00000E+00
 -1      3141 4.82850E+01 1.05013E+01 0.00000E+00
 -1      3142 4.75350E+01 1.18003E+01 0.00000E+00
 -1      3143 5.27850E+01 1.05013E+01 0.00000E+00
 -1      3144 5.12850E+01 1.05013E+01 0.00000E+00
 -1      3145 5.05350E+01 1.18003E+01 0.00000E+00
 -1      3146 5.57850E+01 1.05013E+01 0.00000E+00
 -1      3147 5.42850E+01 1.05013E+01 0.00000E+00
 -1      3148 5.35350E+01 1.18003E+01 0.00000E+00
 -1      3149 5.87850E+01 1.05013E+01 0.00000E+00
 -1      3150 5.72850E+01 1.05013E+01 0.00000E+00
 -1      3151 5.65350E+01 1.18003E+01 0.00000E+00
 -1      3152 6.17850E+01 1.05013E+01 0.00000E+00
 -1      3153 6.02850E+01 1.05013E+01 0.00000E+00
 -1      3154 5.95350E+01 1.18003E+01 0.00000E+00
 -1      3155 6.47850E+01 1.05013E+01 0.00000E+00
 -1      3156 6.32850E+01 1.05013E+01 0.00000E+00
 -1      3157 6.25350E+01 1.18003E+01 0.00000E+00
 -1      3158 6.77850E+01 1.05013E+01 0.00000E+00
 -1      3159 6.62850E+01 1.05013E+01 0.00000E+00
 -1      3160 6.55350E+01 1.18003E+01 0.00000E+00
 -1      3161 7.07850E+01 1.05013E+01 0.00000E+00
 -1      3162 6.92850E+01 1.05013E+01 0.00000E+00
 -1      3163 6.85350E+01 1.18003E+01 0.00000E+00
 -1      3164 7.37850E+01 1.05013E+01 0.00000E+00
 -1      3165 7.22850E+01 1.05013E+01 0.00000E+00
 -1      3166 7.15350E+01 1.18003E+01 0.00000E+00
 -1      3167 7.67850E+01 1.05013E+01 0.00000E+00
 -1      3168 7.52850E+01 1.05013E+01 0.00000E+00
 -1      3169 7.45350E+01 1.18003E+01 0.00000E+00
 -1      3170 7.97850E+01 1.05013E+01 0.00000E+00
 -1      3171 7.82850E+01 1.05013E+01 0.00000E+00
 -1      3172 7.75350E+01 1.18003E+01 0.00000E+00
 -1      3173 8.27850E+01 1.05013E+01 0.00000E+00
 -1      3174 8.12850E+01 1.05013E+01 0.00000E+00
 -1      3175 8.05350E+01 1.18003E+01 0.00000E+00
 -1      3176 8.57850E+01 1.05013E+01 0.00000E+00
 -1      3177 8.42850E+01 1.05013E+01 0.00000E+00
 -1      3178 8.35350E+01 1.18003E+01 0.00000E+00
 -1      3179 8.87850E+01 1.05013E+01 0.00000E+00
 -1      3180 8.72850E+01 1.05013E+01 0.00000E+00
 -1      3181 8.65350E+01 1.18003E+01 0.00000E+00
 -1      3182 9.17850E+01 1.05013E+01 0.00000E+00
 -1      3183 9.02850E+01 1.05013E+01 0.00000E+00
 -1      3184 8.95350E+01 1.18003E+01 0.00000E+00
 -1      3185 9.47850E+01 1.05013E+01 0.00000E+00
 -1      3186 9.32850E+01 1.05013E+01 0.00000E+00
 -1      3187 9.25350E+01 1.18003E+01 0.00000E+00
 -1      3188 9.77850E+01 1.05013E+01 0.00000E+00
 -1      3189 9.62850E+01 1.05013E+01 0.00000E+00
 -1      3190 9.55350E+01 1.18003E+01 0.00000E+00
 -1      3191 1.00785E+02 1.05013E+01 0.00000E+00
 -1      3192 9.92850E+01 1.05013E+01 0.00000E+00
 -1      3193 9.85350E+01 1.18003E+01 0.00000E+00
 -1      3194 1.03785E+02 1.05013E+01 0.00000E+00
 -1      3195 1.02285E+02 1.05013E+01 0.00000E+00
 -1      3196 1.01535E+02 1.18003E+01 0.00000E+00
 -1      3197 1.06785E+02 1.05013E+01 0.00000E+00
 -1      3198 1.05285E+02 1.05013E+01 0.00000E+00
 -1      3199 1.04535E+02 1.18003E+01 0.00000E+00
 -1      3200 1.09785E+02 1.05013E+01 0.00000E+00
 -1      3201 1.08285E+02 1.05013E+01 0.00000E+00
 -1      3202 1.07535E+02 1.18003E+01 0.00000E+00
 -1      3203 1.12785E+02 1.05013E+01 0.00000E+00
 -1      3204 1.11285E+02 1.05013E+01 0.00000E+00
 -1      3205 1.10535E+02 1.18003E+01 0.00000E+00
 -1      3206 1.15785E+02 1.05013E+01 0.00000E+00
 -1      3207 1.14285E+02 1.05013E+01 0.00000E+00
 -1      3208 1.13535E+02 1.18003E+01 0.00000E+00
 -1      3209 1.18785E+02 1.05013E+01 0.00000E+00
 -1      3210 1.17285E+02 1.05013E+01 0.00000E+00
 -1      3211 1.16535E+02 1.18003E+01 0.00000E+00
 -1      3212 1.21785E+02 1.05013E+01 0.00000E+00
 -1      3213 1.20285E+02 1.05013E+01 0.00000E+00
 -1      3214 1.19535E+02 1.18003E+01 0.00000E+00
 -1      3215 1.24785E+02 1.05013E+01 0.00000E+00
 -1      3216 1.23285E+02 1.05013E+01 0.00000E+00
 -1      3217 1.22535E+02 1.18003E+01 0.00000E+00
 -1      3218 1.31186E+02 1.01196E+01 0.00000E+00
 -1      3219 1.29686E+02 1.01196E+01 0.00000E+00
 -1      3220 1.33173E+02 9.82735E+00 0.00000E+00
 -1      3221 1.34800E+02 3.67716E+01 0.00000E+00
 -1      3222 1.33529E+02 3.65569E+01 0.00000E+00
 -1      3223 1.29000E+01 3.83090E+01 0.00000E+00
 -1      3224 1.44000E+01 3.83090E+01 0.00000E+00
 -1      3225 1.51500E+01 3.70100E+01 0.00000E+00
 -1      3226 1.42250E+02 3.34845E+01 0.00000E+00
 -1      3227 1.97850E+01 1.05013E+01 0.00000E+00
 -1      3228 1.82850E+01 1.05013E+01 0.00000E+00
 -1      3229 2.05350E+01 1.18003E+01 0.00000E+00
 -1      3230 1.23837E+02 2.90556E+01 0.00000E+00
 -1      3231 1.23249E+02 2.79155E+01 0.00000E+00
 -1      3232 1.37452E+02 3.60674E+01 0.00000E+00
 -1      3233 3.17850E+01 1.05013E+01 0.00000E+00
 -1      3234 3.02850E+01 1.05013E+01 0.00000E+00
 -1      3235 2.95350E+01 1.18003E+01 0.00000E+00
 -1      3236 1.23890E+02 1.77971E+01 0.00000E+00
 -1      3237 1.24315E+02 1.68572E+01 0.00000E+00
 -1      3238 1.27361E+02 1.34478E+01 0.00000E+00
 -1      3239 1.28414E+02 1.24710E+01 0.00000E+00
 -1      3240 1.16910E+01 2.12875E+01 0.00000E+00
 -1      3241 1.16910E+01 2.27625E+01 0.00000E+00
 -1      3242 1.26488E+01 1.02017E+01 0.00000E+00
 -1      3243 1.20772E+01 1.14631E+01 0.00000E+00
 -1      3244 1.33763E+01 1.22006E+01 0.00000E+00
 -1      3245 1.41488E+01 1.02017E+01 0.00000E+00
 -1      3246 1.30177E+02 3.54349E+01 0.00000E+00
 -1      3247 1.29053E+02 3.49635E+01 0.00000E+00
 -1      3248 1.25062E+02 3.13714E+01 0.00000E+00
 -1      3249 1.24445E+02 3.02149E+01 0.00000E+00
 -1      3250 1.32429E+02 3.61842E+01 0.00000E+00
 -1      3251 1.31276E+02 3.58075E+01 0.00000E+00
 -1      3252 1.30350E+02 3.64399E+01 0.00000E+00
 -1      3253 1.32550E+02 3.71851E+01 0.00000E+00
 -1      3254 1.22806E+02 2.66144E+01 0.00000E+00
 -1      3255 1.22477E+02 2.55217E+01 0.00000E+00
 -1      3256 1.12710E+01 3.74352E+01 0.00000E+00
 -1      3257 1.20855E+01 3.78721E+01 0.00000E+00
 -1      3258 1.12065E+01 3.56994E+01 0.00000E+00
 -1      3259 1.16910E+01 2.42375E+01 0.00000E+00
 -1      3260 1.16910E+01 2.57125E+01 0.00000E+00
 -1      3261 1.29900E+01 2.35000E+01 0.00000E+00
 -1      3262 1.41182E+02 3.39456E+01 0.00000E+00
 -1      3263 1.28764E+02 1.17350E+01 0.00000E+00
 -1      3264 1.29335E+02 1.08556E+01 0.00000E+00
 -1      3265 1.28185E+02 9.93828E+00 0.00000E+00
 -1      3266 1.27484E+02 1.14103E+01 0.00000E+00
 -1      3267 1.28450E+02 3.65387E+01 0.00000E+00
 -1      3268 1.29200E+02 3.78377E+01 0.00000E+00
 -1      3269 1.31800E+02 3.82103E+01 0.00000E+00
 -1      3270 1.30300E+02 3.82103E+01 0.00000E+00
 -1      3271 1.26334E+02 1.06743E+01 0.00000E+00
 -1      3272 1.25584E+02 1.19733E+01 0.00000E+00
 -1      3273 1.26685E+02 9.93828E+00 0.00000E+00
 -1      3274 1.32028E+02 1.00885E+01 0.00000E+00
 -1      3275 1.21323E+02 2.55575E+01 0.00000E+00
 -1      3276 1.21980E+02 2.47642E+01 0.00000E+00
 -1      3277 1.21483E+02 2.40067E+01 0.00000E+00
 -1      3278 1.36173E+02 9.82735E+00 0.00000E+00
 -1      3279 3.25350E+01 1.18003E+01 0.00000E+00
 -1      3280 1.23391E+02 1.60659E+01 0.00000E+00
 -1      3281 1.24462E+02 1.59840E+01 0.00000E+00
 -1      3282 1.24608E+02 1.51109E+01 0.00000E+00
 -1      3283 1.26406E+02 1.35877E+01 0.00000E+00
 -1      3284 1.69669E+01 1.03515E+01 0.00000E+00
 -1      3285 1.54669E+01 1.03515E+01 0.00000E+00
 -1      3286 1.50806E+01 1.13509E+01 0.00000E+00
 -1      3287 1.77169E+01 1.16505E+01 0.00000E+00
 -1      3288 1.38902E+02 3.89290E+01 0.00000E+00
 -1      3289 1.23315E+02 3.00766E+01 0.00000E+00
 -1      3290 1.37458E+02 9.97502E+00 0.00000E+00
 -1      3291 1.38907E+02 9.88237E+00 0.00000E+00
 -1      3292 1.37801E+02 3.66859E+01 0.00000E+00
 -1      3293 1.36300E+02 3.66041E+01 0.00000E+00
 -1      3294 1.28211E+02 3.56849E+01 0.00000E+00
 -1      3295 1.28013E+02 3.45811E+01 0.00000E+00
 -1      3296 1.26931E+02 3.44487E+01 0.00000E+00
 -1      3297 1.27410E+02 3.61562E+01 0.00000E+00
 -1      3298 1.38152E+02 3.77363E+01 0.00000E+00
 -1      3299 1.22982E+02 1.84212E+01 0.00000E+00
 -1      3300 1.16910E+01 1.54063E+01 0.00000E+00
 -1      3301 1.16910E+01 1.68750E+01 0.00000E+00
 -1      3302 1.29900E+01 1.46687E+01 0.00000E+00
 -1      3303 1.16910E+01 3.01219E+01 0.00000E+00
 -1      3304 1.16910E+01 3.15906E+01 0.00000E+00
 -1      3305 1.22263E+02 2.76161E+01 0.00000E+00
 -1      3306 1.28355E+01 3.65731E+01 0.00000E+00
 -1      3307 1.22430E+02 2.15583E+01 0.00000E+00
 -1      3308 1.21894E+02 2.07556E+01 0.00000E+00
 -1      3309 1.21605E+02 2.24107E+01 0.00000E+00
 -1      3310 1.16910E+01 1.83469E+01 0.00000E+00
 -1      3311 1.16910E+01 1.98156E+01 0.00000E+00
 -1      3312 1.29900E+01 2.05531E+01 0.00000E+00
 -1      3313 1.29900E+01 1.76094E+01 0.00000E+00
 -1      3314 1.25307E+02 3.24154E+01 0.00000E+00
 -1      3315 1.24168E+02 3.22800E+01 0.00000E+00
 -1      3316 1.25553E+02 3.34595E+01 0.00000E+00
 -1      3317 1.14487E+01 3.29106E+01 0.00000E+00
 -1      3318 1.14487E+01 3.43794E+01 0.00000E+00
 -1      3319 1.22633E+01 3.48162E+01 0.00000E+00
 -1      3320 1.27478E+01 3.21763E+01 0.00000E+00
 -1      3321 1.74000E+01 3.57110E+01 0.00000E+00
 -1      3322 1.89000E+01 3.57110E+01 0.00000E+00
 -1      3323 1.35150E+02 3.73902E+01 0.00000E+00
 -1      3324 1.24857E+02 1.34146E+01 0.00000E+00
 -1      3325 2.04000E+01 3.57110E+01 0.00000E+00
 -1      3326 2.19000E+01 3.57110E+01 0.00000E+00
 -1      3327 1.96500E+01 3.44120E+01 0.00000E+00
 -1      3328 2.34000E+01 3.57110E+01 0.00000E+00
 -1      3329 2.49000E+01 3.57110E+01 0.00000E+00
 -1      3330 2.26500E+01 3.44120E+01 0.00000E+00
 -1      3331 2.64000E+01 3.57110E+01 0.00000E+00
 -1      3332 2.79000E+01 3.57110E+01 0.00000E+00
 -1      3333 2.56500E+01 3.44120E+01 0.00000E+00
 -1      3334 2.94000E+01 3.57110E+01 0.00000E+00
 -1      3335 3.09000E+01 3.57110E+01 0.00000E+00
 -1      3336 2.86500E+01 3.44120E+01 0.00000E+00
 -1      3337 3.24000E+01 3.57110E+01 0.00000E+00
 -1      3338 3.39000E+01 3.57110E+01 0.00000E+00
 -1      3339 3.16500E+01 3.44120E+01 0.00000E+00
 -1      3340 3.54000E+01 3.57110E+01 0.00000E+00
 -1      3341 3.69000E+01 3.57110E+01 0.00000E+00
 -1      3342 3.46500E+01 3.44120E+01 0.00000E+00
 -1      3343 3.84000E+01 3.57110E+01 0.00000E+00
 -1      3344 3.99000E+01 3.57110E+01 0.00000E+00
 -1      3345 3.76500E+01 3.44120E+01 0.00000E+00
 -1      3346 4.14000E+01 3.57110E+01 0.00000E+00
 -1      3347 4.29000E+01 3.57110E+01 0.00000E+00
 -1      3348 4.06500E+01 3.44120E+01 0.00000E+00
 -1      3349 4.44000E+01 3.57110E+01 0.00000E+00
 -1      3350 4.59000E+01 3.57110E+01 0.00000E+00
 -1      3351 4.36500E+01 3.44120E+01 0.00000E+00
 -1      3352 4.74000E+01 3.57110E+01 0.00000E+00
 -1      3353 4.89000E+01 3.57110E+01 0.00000E+00
 -1      3354 4.66500E+01 3.44120E+01 0.00000E+00
 -1      3355 5.04000E+01 3.57110E+01 0.00000E+00
 -1      3356 5.19000E+01 3.57110E+01 0.00000E+00
 -1      3357 4.96500E+01 3.44120E+01 0.00000E+00
 -1      3358 5.34000E+01 3.57110E+01 0.00000E+00
 -1      3359 5.49000E+01 3.57110E+01 0.00000E+00
 -1      3360 5.26500E+01 3.44120E+01 0.00000E+00
 -1      3361 5.64000E+01 3.57110E+01 0.00000E+00
 -1      3362 5.79000E+01 3.57110E+01 0.00000E+00
 -1      3363 5.56500E+01 3.44120E+01 0.00000E+00
 -1      3364 5.94000E+01 3.57110E+01 0.00000E+00
 -1      3365 6.09000E+01 3.57110E+01 0.00000E+00
 -1      3366 5.86500E+01 3.44120E+01 0.00000E+00
 -1      3367 6.24000E+01 3.57110E+01 0.00000E+00
 -1      3368 6.39000E+01 3.57110E+01 0.00000E+00
 -1      3369 6.16500E+01 3.44120E+01 0.00000E+00
 -1      3370 6.54000E+01 3.57110E+01 0.00000E+00
 -1      3371 6.69000E+01 3.57110E+01 0.00000E+00
 -1      3372 6.46500E+01 3.44120E+01 0.00000E+00
 -1      3373 6.84000E+01 3.57110E+01 0.00000E+00
 -1      3374 6.99000E+01 3.57110E+01 0.00000E+00
 -1      3375 6.76500E+01 3.44120E+01 0.00000E+00
 -1      3376 7.14000E+01 3.57110E+01 0.00000E+00
 -1      3377 7.29000E+01 3.57110E+01 0.00000E+00
 -1      3378 7.06500E+01 3.44120E+01 0.00000E+00
 -1      3379 7.44000E+01 3.57110E+01 0.00000E+00
 -1      3380 7.59000E+01 3.57110E+01 0.00000E+00
 -1      3381 7.36500E+01 3.44120E+01 0.00000E+00
 -1      3382 7.74000E+01 3.57110E+01 0.00000E+00
 -1      3383 7.89000E+01 3.57110E+01 0.00000E+00
 -1      3384 7.66500E+01 3.44120E+01 0.00000E+00
 -1      3385 8.04000E+01 3.57110E+01 0.00000E+00
 -1      3386 8.19000E+01 3.57110E+01 0.00000E+00
 -1      3387 7.96500E+01 3.44120E+01 0.00000E+00
 -1      3388 8.34000E+01 3.57110E+01 0.00000E+00
 -1      3389 8.49000E+01 3.57110E+01 0.00000E+00
 -1      3390 8.26500E+01 3.44120E+01 0.00000E+00
 -1      3391 8.64000E+01 3.57110E+01 0.00000E+00
 -1      3392 8.79000E+01 3.57110E+01 0.00000E+00
 -1      3393 8.56500E+01 3.44120E+01 0.00000E+00
 -1      3394 8.94000E+01 3.57110E+01 0.00000E+00
 -1      3395 9.09000E+01 3.57110E+01 0.00000E+00
 -1      3396 8.86500E+01 3.44120E+01 0.00000E+00
 -1      3397 9.24000E+01 3.57110E+01 0.00000E+00
 -1      3398 9.39000E+01 3.57110E+01 0.00000E+00
 -1      3399 9.16500E+01 3.44120E+01 0.00000E+00
 -1      3400 9.54000E+01 3.57110E+01 0.00000E+00
 -1      3401 9.69000E+01 3.57110E+01 0.00000E+00
 -1      3402 9.46500E+01 3.44120E+01 0.00000E+00
 -1      3403 9.84000E+01 3.57110E+01 0.00000E+00
 -1      3404 9.99000E+01 3.57110E+01 0.00000E+00
 -1      3405 9.76500E+01 3.44120E+01 0.00000E+00
 -1      3406 1.01400E+02 3.57110E+01 0.00000E+00
 -1      3407 1.02900E+02 3.57110E+01 0.00000E+00
 -1      3408 1.00650E+02 3.44120E+01 0.00000E+00
 -1      3409 1.04400E+02 3.57110E+01 0.00000E+00
 -1      3410 1.05900E+02 3.57110E+01 0.00000E+00
 -1      3411 1.03650E+02 3.44120E+01 0.00000E+00
 -1      3412 1.07400E+02 3.57110E+01 0.00000E+00
 -1      3413 1.08900E+02 3.57110E+01 0.00000E+00
 -1      3414 1.06650E+02 3.44120E+01 0.00000E+00
 -1      3415 1.10400E+02 3.57110E+01 0.00000E+00
 -1      3416 1.11900E+02 3.57110E+01 0.00000E+00
 -1      3417 1.09650E+02 3.44120E+01 0.00000E+00
 -1      3418 1.13400E+02 3.57110E+01 0.00000E+00
 -1      3419 1.14900E+02 3.57110E+01 0.00000E+00
 -1      3420 1.12650E+02 3.44120E+01 0.00000E+00
 -1      3421 1.16400E+02 3.57110E+01 0.00000E+00
 -1      3422 1.17900E+02 3.57110E+01 0.00000E+00
 -1      3423 1.15650E+02 3.44120E+01 0.00000E+00
 -1      3424 1.19400E+02 3.57110E+01 0.00000E+00
 -1      3425 1.20900E+02 3.57110E+01 0.00000E+00
 -1      3426 1.18650E+02 3.44120E+01 0.00000E+00
 -1      3427 1.23032E+02 3.51670E+01 0.00000E+00
 -1      3428 1.24532E+02 3.51670E+01 0.00000E+00
 -1      3429 1.25910E+02 3.61562E+01 0.00000E+00
 -1      3430 2.42850E+01 1.30992E+01 0.00000E+00
 -1      3431 2.27850E+01 1.30992E+01 0.00000E+00
 -1      3432 4.22850E+01 1.30992E+01 0.00000E+00
 -1      3433 4.07850E+01 1.30992E+01 0.00000E+00
 -1      3434 3.92850E+01 1.30992E+01 0.00000E+00
 -1      3435 3.77850E+01 1.30992E+01 0.00000E+00
 -1      3436 4.00350E+01 1.43982E+01 0.00000E+00
 -1      3437 3.62850E+01 1.30992E+01 0.00000E+00
 -1      3438 3.47850E+01 1.30992E+01 0.00000E+00
 -1      3439 3.70350E+01 1.43982E+01 0.00000E+00
 -1      3440 4.52850E+01 1.30992E+01 0.00000E+00
 -1      3441 4.37850E+01 1.30992E+01 0.00000E+00
 -1      3442 4.30350E+01 1.43982E+01 0.00000E+00
 -1      3443 4.82850E+01 1.30992E+01 0.00000E+00
 -1      3444 4.67850E+01 1.30992E+01 0.00000E+00
 -1      3445 4.60350E+01 1.43982E+01 0.00000E+00
 -1      3446 5.12850E+01 1.30992E+01 0.00000E+00
 -1      3447 4.97850E+01 1.30992E+01 0.00000E+00
 -1      3448 4.90350E+01 1.43982E+01 0.00000E+00
 -1      3449 5.42850E+01 1.30992E+01 0.00000E+00
 -1      3450 5.27850E+01 1.30992E+01 0.00000E+00
 -1      3451 5.20350E+01 1.43982E+01 0.00000E+00
 -1      3452 5.72850E+01 1.30992E+01 0.00000E+00
 -1      3453 5.57850E+01 1.30992E+01 0.00000E+00
 -1      3454 5.50350E+01 1.43982E+01 0.00000E+00
 -1      3455 6.02850E+01 1.30992E+01 0.00000E+00
 -1      3456 5.87850E+01 1.30992E+01 0.00000E+00
 -1      3457 5.80350E+01 1.43982E+01 0.00000E+00
 -1      3458 6.32850E+01 1.30992E+01 0.00000E+00
 -1      3459 6.17850E+01 1.30992E+01 0.00000E+00
 -1      3460 6.10350E+01 1.43982E+01 0.00000E+00
 -1      3461 6.62850E+01 1.30992E+01 0.00000E+00
 -1      3462 6.47850E+01 1.30992E+01 0.00000E+00
 -1      3463 6.40350E+01 1.43982E+01 0.00000E+00
 -1      3464 6.92850E+01 1.30992E+01 0.00000E+00
 -1      3465 6.77850E+01 1.30992E+01 0.00000E+00
 -1      3466 6.70350E+01 1.43982E+01 0.00000E+00
 -1      3467 7.22850E+01 1.30992E+01 0.00000E+00
 -1      3468 7.07850E+01 1.30992E+01 0.00000E+00
 -1      3469 7.00350E+01 1.43982E+01 0.00000E+00
 -1      3470 7.52850E+01 1.30992E+01 0.00000E+00
 -1      3471 7.37850E+01 1.30992E+01 0.00000E+00
 -1      3472 7.30350E+01 1.43982E+01 0.00000E+00
 -1      3473 7.82850E+01 1.30992E+01 0.00000E+00
 -1      3474 7.67850E+01 1.30992E+01 0.00000E+00
 -1      3475 7.60350E+01 1.43982E+01 0.00000E+00
 -1      3476 8.12850E+01 1.30992E+01 0.00000E+00
 -1      3477 7.97850E+01 1.30992E+01 0.00000E+00
 -1      3478 7.90350E+01 1.43982E+01 0.00000E+00
 -1      3479 8.42850E+01 1.30992E+01 0.00000E+00
 -1      3480 8.27850E+01 1.30992E+01 0.00000E+00
 -1      3481 8.20350E+01 1.43982E+01 0.00000E+00
 -1      3482 8.72850E+01 1.30992E+01 0.00000E+00
 -1      3483 8.57850E+01 1.30992E+01 0.00000E+00
 -1      3484 8.50350E+01 1.43982E+01 0.00000E+00
 -1      3485 9.02850E+01 1.30992E+01 0.00000E+00
 -1      3486 8.87850E+01 1.30992E+01 0.00000E+00
 -1      3487 8.80350E+01 1.43982E+01 0.00000E+00
 -1      3488 9.32850E+01 1.30992E+01 0.00000E+00
 -1      3489 9.17850E+01 1.30992E+01 0.00000E+00
 -1      3490 9.10350E+01 1.43982E+01 0.00000E+00
 -1      3491 9.62850E+01 1.30992E+01 0.00000E+00
 -1      3492 9.47850E+01 1.30992E+01 0.00000E+00
 -1      3493 9.40350E+01 1.43982E+01 0.00000E+00
 -1      3494 9.92850E+01 1.30992E+01 0.00000E+00
 -1      3495 9.77850E+01 1.30992E+01 0.00000E+00
 -1      3496 9.70350E+01 1.43982E+01 0.00000E+00
 -1      3497 1.02285E+02 1.30992E+01 0.00000E+00
 -1      3498 1.00785E+02 1.30992E+01 0.00000E+00
 -1      3499 1.00035E+02 1.43982E+01 0.00000E+00
 -1      3500 1.05285E+02 1.30992E+01 0.00000E+00
 -1      3501 1.03785E+02 1.30992E+01 0.00000E+00
 -1      3502 1.03035E+02 1.43982E+01 0.00000E+00
 -1      3503 1.08285E+02 1.30992E+01 0.00000E+00
 -1      3504 1.06785E+02 1.30992E+01 0.00000E+00
 -1      3505 1.06035E+02 1.43982E+01 0.00000E+00
 -1      3506 1.11285E+02 1.30992E+01 0.00000E+00
 -1      3507 1.09785E+02 1.30992E+01 0.00000E+00
 -1      3508 1.09035E+02 1.43982E+01 0.00000E+00
 -1      3509 1.14285E+02 1.30992E+01 0.00000E+00
 -1      3510 1.12785E+02 1.30992E+01 0.00000E+00
 -1      3511 1.12035E+02 1.43982E+01 0.00000E+00
 -1      3512 1.17285E+02 1.30992E+01 0.00000E+00
 -1      3513 1.15785E+02 1.30992E+01 0.00000E+00
 -1      3514 1.15035E+02 1.43982E+01 0.00000E+00
 -1      3515 1.20285E+02 1.30992E+01 0.00000E+00
 -1      3516 1.18785E+02 1.30992E+01 0.00000E+00
 -1      3517 1.18035E+02 1.43982E+01 0.00000E+00
 -1      3518 2.12850E+01 1.30992E+01 0.00000E+00
 -1      3519 1.97850E+01 1.30992E+01 0.00000E+00
 -1      3520 2.20350E+01 1.43982E+01 0.00000E+00
 -1      3521 1.16910E+01 2.71844E+01 0.00000E+00
 -1      3522 1.16910E+01 2.86531E+01 0.00000E+00
 -1      3523 1.29900E+01 2.93875E+01 0.00000E+00
 -1      3524 1.21356E+02 2.86512E+01 0.00000E+00
 -1      3525 1.20913E+02 2.73501E+01 0.00000E+00
 -1      3526 3.02850E+01 1.30992E+01 0.00000E+00
 -1      3527 2.87850E+01 1.30992E+01 0.00000E+00
 -1      3528 3.32850E+01 1.30992E+01 0.00000E+00
 -1      3529 3.17850E+01 1.30992E+01 0.00000E+00
 -1      3530 3.40350E+01 1.43982E+01 0.00000E+00
 -1      3531 2.72850E+01 1.30992E+01 0.00000E+00
 -1      3532 2.57850E+01 1.30992E+01 0.00000E+00
 -1      3533 2.80350E+01 1.43982E+01 0.00000E+00
 -1      3534 1.23786E+02 1.34965E+01 0.00000E+00
 -1      3535 1.22563E+02 3.12103E+01 0.00000E+00
 -1      3536 1.21954E+02 3.00509E+01 0.00000E+00
 -1      3537 1.30778E+01 3.52531E+01 0.00000E+00
 -1      3538 1.38923E+01 3.56900E+01 0.00000E+00
 -1      3539 1.33200E+01 3.39331E+01 0.00000E+00
 -1      3540 1.21676E+02 1.89538E+01 0.00000E+00
 -1      3541 1.21939E+02 1.74717E+01 0.00000E+00
 -1      3542 1.90350E+01 1.43983E+01 0.00000E+00
 -1      3543 1.82850E+01 1.30993E+01 0.00000E+00
 -1      3544 1.38045E+01 3.12931E+01 0.00000E+00
 -1      3545 1.35623E+01 3.26131E+01 0.00000E+00
 -1      3546 1.43767E+01 3.30500E+01 0.00000E+00
 -1      3547 1.22282E+02 3.38680E+01 0.00000E+00
 -1      3548 1.38045E+01 2.98244E+01 0.00000E+00
 -1      3549 1.46190E+01 3.02612E+01 0.00000E+00
 -1      3550 1.38045E+01 2.83556E+01 0.00000E+00
 -1      3551 2.50350E+01 1.43982E+01 0.00000E+00
 -1      3552 1.22286E+02 1.34965E+01 0.00000E+00
 -1      3553 1.21536E+02 1.47955E+01 0.00000E+00
 -1      3554 1.20416E+02 2.65926E+01 0.00000E+00
 -1      3555 1.19919E+02 2.58351E+01 0.00000E+00
 -1      3556 1.19508E+02 2.76277E+01 0.00000E+00
 -1      3557 3.10350E+01 1.43982E+01 0.00000E+00
 -1      3558 1.53923E+01 3.56900E+01 0.00000E+00
 -1      3559 1.69669E+01 1.29495E+01 0.00000E+00
 -1      3560 1.29900E+01 2.64469E+01 0.00000E+00
 -1      3561 1.20291E+02 2.39973E+01 0.00000E+00
 -1      3562 1.20948E+02 2.32040E+01 0.00000E+00
 -1      3563 1.20412E+02 2.24013E+01 0.00000E+00
 -1      3564 1.20604E+02 2.97849E+01 0.00000E+00
 -1      3565 1.42890E+01 1.39344E+01 0.00000E+00
 -1      3566 1.42890E+01 1.54031E+01 0.00000E+00
 -1      3567 1.61423E+01 3.43910E+01 0.00000E+00
 -1      3568 1.20851E+02 1.98062E+01 0.00000E+00
 -1      3569 1.42890E+01 1.98172E+01 0.00000E+00
 -1      3570 1.42890E+01 2.12891E+01 0.00000E+00
 -1      3571 1.55880E+01 2.20281E+01 0.00000E+00
 -1      3572 1.42890E+01 2.27641E+01 0.00000E+00
 -1      3573 1.42890E+01 2.42391E+01 0.00000E+00
 -1      3574 1.63845E+01 3.30710E+01 0.00000E+00
 -1      3575 1.89000E+01 3.31130E+01 0.00000E+00
 -1      3576 2.04000E+01 3.31130E+01 0.00000E+00
 -1      3577 2.19000E+01 3.31130E+01 0.00000E+00
 -1      3578 2.34000E+01 3.31130E+01 0.00000E+00
 -1      3579 2.11500E+01 3.18140E+01 0.00000E+00
 -1      3580 2.49000E+01 3.31130E+01 0.00000E+00
 -1      3581 2.64000E+01 3.31130E+01 0.00000E+00
 -1      3582 2.41500E+01 3.18140E+01 0.00000E+00
 -1      3583 2.79000E+01 3.31130E+01 0.00000E+00
 -1      3584 2.94000E+01 3.31130E+01 0.00000E+00
 -1      3585 2.71500E+01 3.18140E+01 0.00000E+00
 -1      3586 3.09000E+01 3.31130E+01 0.00000E+00
 -1      3587 3.24000E+01 3.31130E+01 0.00000E+00
 -1      3588 3.01500E+01 3.18140E+01 0.00000E+00
 -1      3589 3.39000E+01 3.31130E+01 0.00000E+00
 -1      3590 3.54000E+01 3.31130E+01 0.00000E+00
 -1      3591 3.31500E+01 3.18140E+01 0.00000E+00
 -1      3592 3.69000E+01 3.31130E+01 0.00000E+00
 -1      3593 3.84000E+01 3.31130E+01 0.00000E+00
 -1      3594 3.61500E+01 3.18140E+01 0.00000E+00
 -1      3595 3.99000E+01 3.31130E+01 0.00000E+00
 -1      3596 4.14000E+01 3.31130E+01 0.00000E+00
 -1      3597 3.91500E+01 3.18140E+01 0.00000E+00
 -1      3598 4.29000E+01 3.31130E+01 0.00000E+00
 -1      3599 4.44000E+01 3.31130E+01 0.00000E+00
 -1      3600 4.21500E+01 3.18140E+01 0.00000E+00
 -1      3601 4.59000E+01 3.31130E+01 0.00000E+00
 -1      3602 4.74000E+01 3.31130E+01 0.00000E+00
 -1      3603 4.51500E+01 3.18140E+01 0.00000E+00
 -1      3604 4.89000E+01 3.31130E+01 0.00000E+00
 -1      3605 5.04000E+01 3.31130E+01 0.00000E+00
 -1      3606 4.81500E+01 3.18140E+01 0.00000E+00
 -1      3607 5.19000E+01 3.31130E+01 0.00000E+00
 -1      3608 5.34000E+01 3.31130E+01 0.00000E+00
 -1      3609 5.11500E+01 3.18140E+01 0.00000E+00
 -1      3610 5.49000E+01 3.31130E+01 0.00000E+00
 -1      3611 5.64000E+01 3.31130E+01 0.00000E+00
 -1      3612 5.41500E+01 3.18140E+01 0.00000E+00
 -1      3613 5.79000E+01 3.31130E+01 0.00000E+00
 -1      3614 5.94000E+01 3.31130E+01 0.00000E+00
 -1      3615 5.71500E+01 3.18140E+01 0.00000E+00
 -1      3616 6.09000E+01 3.31130E+01 0.00000E+00
 -1      3617 6.24000E+01 3.31130E+01 0.00000E+00
 -1      3618 6.01500E+01 3.18140E+01 0.00000E+00
 -1      3619 6.39000E+01 3.31130E+01 0.00000E+00
 -1      3620 6.54000E+01 3.31130E+01 0.00000E+00
 -1      3621 6.31500E+01 3.18140E+01 0.00000E+00
 -1      3622 6.69000E+01 3.31130E+01 0.00000E+00
 -1      3623 6.84000E+01 3.31130E+01 0.00000E+00
 -1      3624 6.61500E+01 3.18140E+01 0.00000E+00
 -1      3625 6.99000E+01 3.31130E+01 0.00000E+00
 -1      3626 7.14000E+01 3.31130E+01 0.00000E+00
 -1      3627 6.91500E+01 3.18140E+01 0.00000E+00
 -1      3628 7.29000E+01 3.31130E+01 0.00000E+00
 -1      3629 7.44000E+01 3.31130E+01 0.00000E+00
 -1      3630 7.21500E+01 3.18140E+01 0.00000E+00
 -1      3631 7.59000E+01 3.31130E+01 0.00000E+00
 -1      3632 7.74000E+01 3.31130E+01 0.00000E+00
 -1      3633 7.51500E+01 3.18140E+01 0.00000E+00
 -1      3634 7.89000E+01 3.31130E+01 0.00000E+00
 -1      3635 8.04000E+01 3.31130E+01 0.00000E+00
 -1      3636 7.81500E+01 3.18140E+01 0.00000E+00
 -1      3637 8.19000E+01 3.31130E+01 0.00000E+00
 -1      3638 8.34000E+01 3.31130E+01 0.00000E+00
 -1      3639 8.11500E+01 3.18140E+01 0.00000E+00
 -1      3640 8.49000E+01 3.31130E+01 0.00000E+00
 -1      3641 8.64000E+01 3.31130E+01 0.00000E+00
 -1      3642 8.41500E+01 3.18140E+01 0.00000E+00
 -1      3643 8.79000E+01 3.31130E+01 0.00000E+00
 -1      3644 8.94000E+01 3.31130E+01 0.00000E+00
 -1      3645 8.71500E+01 3.18140E+01 0.00000E+00
 -1      3646 9.09000E+01 3.31130E+01 0.00000E+00
 -1      3647 9.24000E+01 3.31130E+01 0.00000E+00
 -1      3648 9.01500E+01 3.18140E+01 0.00000E+00
 -1      3649 9.39000E+01 3.31130E+01 0.00000E+00
 -1      3650 9.54000E+01 3.31130E+01 0.00000E+00
 -1      3651 9.31500E+01 3.18140E+01 0.00000E+00
 -1      3652 9.69000E+01 3.31130E+01 0.00000E+00
 -1      3653 9.84000E+01 3.31130E+01 0.00000E+00
 -1      3654 9.61500E+01 3.18140E+01 0.00000E+00
 -1      3655 9.99000E+01 3.31130E+01 0.00000E+00
 -1      3656 1.01400E+02 3.31130E+01 0.00000E+00
 -1      3657 9.91500E+01 3.18140E+01 0.00000E+00
 -1      3658 1.02900E+02 3.31130E+01 0.00000E+00
 -1      3659 1.04400E+02 3.31130E+01 0.00000E+00
 -1      3660 1.02150E+02 3.18140E+01 0.00000E+00
 -1      3661 1.05900E+02 3.31130E+01 0.00000E+00
 -1      3662 1.07400E+02 3.31130E+01 0.00000E+00
 -1      3663 1.05150E+02 3.18140E+01 0.00000E+00
 -1      3664 1.08900E+02 3.31130E+01 0.00000E+00
 -1      3665 1.10400E+02 3.31130E+01 0.00000E+00
 -1      3666 1.08150E+02 3.18140E+01 0.00000E+00
 -1      3667 1.11900E+02 3.31130E+01 0.00000E+00
 -1      3668 1.13400E+02 3.31130E+01 0.00000E+00
 -1      3669 1.11150E+02 3.18140E+01 0.00000E+00
 -1      3670 1.14900E+02 3.31130E+01 0.00000E+00
 -1      3671 1.16400E+02 3.31130E+01 0.00000E+00
 -1      3672 1.14150E+02 3.18140E+01 0.00000E+00
 -1      3673 1.25792E+02 3.43132E+01 0.00000E+00
 -1      3674 4.67850E+01 1.56973E+01 0.00000E+00
 -1      3675 4.52850E+01 1.56973E+01 0.00000E+00
 -1      3676 4.37850E+01 1.56973E+01 0.00000E+00
 -1      3677 4.22850E+01 1.56973E+01 0.00000E+00
 -1      3678 4.45350E+01 1.69963E+01 0.00000E+00
 -1      3679 3.77850E+01 1.56973E+01 0.00000E+00
 -1      3680 3.62850E+01 1.56973E+01 0.00000E+00
 -1      3681 4.97850E+01 1.56973E+01 0.00000E+00
 -1      3682 4.82850E+01 1.56973E+01 0.00000E+00
 -1      3683 4.75350E+01 1.69963E+01 0.00000E+00
 -1      3684 5.27850E+01 1.56973E+01 0.00000E+00
 -1      3685 5.12850E+01 1.56973E+01 0.00000E+00
 -1      3686 5.05350E+01 1.69963E+01 0.00000E+00
 -1      3687 5.57850E+01 1.56973E+01 0.00000E+00
 -1      3688 5.42850E+01 1.56973E+01 0.00000E+00
 -1      3689 5.35350E+01 1.69963E+01 0.00000E+00
 -1      3690 5.87850E+01 1.56973E+01 0.00000E+00
 -1      3691 5.72850E+01 1.56973E+01 0.00000E+00
 -1      3692 5.65350E+01 1.69963E+01 0.00000E+00
 -1      3693 6.17850E+01 1.56973E+01 0.00000E+00
 -1      3694 6.02850E+01 1.56973E+01 0.00000E+00
 -1      3695 5.95350E+01 1.69963E+01 0.00000E+00
 -1      3696 6.47850E+01 1.56973E+01 0.00000E+00
 -1      3697 6.32850E+01 1.56973E+01 0.00000E+00
 -1      3698 6.25350E+01 1.69963E+01 0.00000E+00
 -1      3699 6.77850E+01 1.56973E+01 0.00000E+00
 -1      3700 6.62850E+01 1.56973E+01 0.00000E+00
 -1      3701 6.55350E+01 1.69963E+01 0.00000E+00
 -1      3702 7.07850E+01 1.56973E+01 0.00000E+00
 -1      3703 6.92850E+01 1.56973E+01 0.00000E+00
 -1      3704 6.85350E+01 1.69963E+01 0.00000E+00
 -1      3705 7.37850E+01 1.56973E+01 0.00000E+00
 -1      3706 7.22850E+01 1.56973E+01 0.00000E+00
 -1      3707 7.15350E+01 1.69963E+01 0.00000E+00
 -1      3708 7.67850E+01 1.56973E+01 0.00000E+00
 -1      3709 7.52850E+01 1.56973E+01 0.00000E+00
 -1      3710 7.45350E+01 1.69963E+01 0.00000E+00
 -1      3711 7.97850E+01 1.56973E+01 0.00000E+00
 -1      3712 7.82850E+01 1.56973E+01 0.00000E+00
 -1      3713 7.75350E+01 1.69963E+01 0.00000E+00
 -1      3714 8.27850E+01 1.56973E+01 0.00000E+00
 -1      3715 8.12850E+01 1.56973E+01 0.00000E+00
 -1      3716 8.05350E+01 1.69963E+01 0.00000E+00
 -1      3717 8.57850E+01 1.56973E+01 0.00000E+00
 -1      3718 8.42850E+01 1.56973E+01 0.00000E+00
 -1      3719 8.35350E+01 1.69963E+01 0.00000E+00
 -1      3720 8.87850E+01 1.56973E+01 0.00000E+00
 -1      3721 8.72850E+01 1.56973E+01 0.00000E+00
 -1      3722 8.65350E+01 1.69963E+01 0.00000E+00
 -1      3723 9.17850E+01 1.56973E+01 0.00000E+00
 -1      3724 9.02850E+01 1.56973E+01 0.00000E+00
 -1      3725 8.95350E+01 1.69963E+01 0.00000E+00
 -1      3726 9.47850E+01 1.56973E+01 0.00000E+00
 -1      3727 9.32850E+01 1.56973E+01 0.00000E+00
 -1      3728 9.25350E+01 1.69963E+01 0.00000E+00
 -1      3729 9.77850E+01 1.56973E+01 0.00000E+00
 -1      3730 9.62850E+01 1.56973E+01 0.00000E+00
 -1      3731 9.55350E+01 1.69963E+01 0.00000E+00
 -1      3732 1.00785E+02 1.56973E+01 0.00000E+00
 -1      3733 9.92850E+01 1.56973E+01 0.00000E+00
 -1      3734 9.85350E+01 1.69963E+01 0.00000E+00
 -1      3735 1.03785E+02 1.56973E+01 0.00000E+00
 -1      3736 1.02285E+02 1.56973E+01 0.00000E+00
 -1      3737 1.01535E+02 1.69963E+01 0.00000E+00
 -1      3738 1.06785E+02 1.56973E+01 0.00000E+00
 -1      3739 1.05285E+02 1.56973E+01 0.00000E+00
 -1      3740 1.04535E+02 1.69963E+01 0.00000E+00
 -1      3741 1.09785E+02 1.56973E+01 0.00000E+00
 -1      3742 1.08285E+02 1.56973E+01 0.00000E+00
 -1      3743 1.07535E+02 1.69963E+01 0.00000E+00
 -1      3744 1.12785E+02 1.56973E+01 0.00000E+00
 -1      3745 1.11285E+02 1.56973E+01 0.00000E+00
 -1      3746 1.10535E+02 1.69963E+01 0.00000E+00
 -1      3747 1.15785E+02 1.56973E+01 0.00000E+00
 -1      3748 1.14285E+02 1.56973E+01 0.00000E+00
 -1      3749 1.13535E+02 1.69963E+01 0.00000E+00
 -1      3750 1.18785E+02 1.56973E+01 0.00000E+00
 -1      3751 1.17285E+02 1.56973E+01 0.00000E+00
 -1      3752 1.16535E+02 1.69963E+01 0.00000E+00
 -1      3753 3.47850E+01 1.56973E+01 0.00000E+00
 -1      3754 3.32850E+01 1.56973E+01 0.00000E+00
 -1      3755 3.55350E+01 1.69963E+01 0.00000E+00
 -1      3756 1.97850E+01 1.56973E+01 0.00000E+00
 -1      3757 1.82851E+01 1.56973E+01 0.00000E+00
 -1      3758 2.27850E+01 1.56973E+01 0.00000E+00
 -1      3759 2.12850E+01 1.56973E+01 0.00000E+00
 -1      3760 2.05351E+01 1.69963E+01 0.00000E+00
 -1      3761 1.46944E+01 1.23503E+01 0.00000E+00
 -1      3762 1.59934E+01 1.30847E+01 0.00000E+00
 -1      3763 1.20867E+02 1.67112E+01 0.00000E+00
 -1      3764 1.22173E+02 1.61786E+01 0.00000E+00
 -1      3765 3.17850E+01 1.56973E+01 0.00000E+00
 -1      3766 3.02850E+01 1.56973E+01 0.00000E+00
 -1      3767 3.25350E+01 1.69963E+01 0.00000E+00
 -1      3768 4.07850E+01 1.56973E+01 0.00000E+00
 -1      3769 3.92850E+01 1.56973E+01 0.00000E+00
 -1      3770 4.15350E+01 1.69963E+01 0.00000E+00
 -1      3771 2.57850E+01 1.56973E+01 0.00000E+00
 -1      3772 2.42850E+01 1.56973E+01 0.00000E+00
 -1      3773 2.35351E+01 1.69963E+01 0.00000E+00
 -1      3774 1.19806E+02 3.09537E+01 0.00000E+00
 -1      3775 1.19208E+02 2.95540E+01 0.00000E+00
 -1      3776 2.87850E+01 1.56973E+01 0.00000E+00
 -1      3777 2.72850E+01 1.56973E+01 0.00000E+00
 -1      3778 2.65350E+01 1.69963E+01 0.00000E+00
 -1      3779 2.95350E+01 1.69963E+01 0.00000E+00
 -1      3780 1.42890E+01 1.68742E+01 0.00000E+00
 -1      3781 1.42890E+01 1.83461E+01 0.00000E+00
 -1      3782 1.55880E+01 1.90820E+01 0.00000E+00
 -1      3783 1.55880E+01 1.61398E+01 0.00000E+00
 -1      3784 1.22808E+02 3.22544E+01 0.00000E+00
 -1      3785 1.65615E+01 1.45335E+01 0.00000E+00
 -1      3786 1.74233E+01 1.58509E+01 0.00000E+00
 -1      3787 1.64498E+01 1.59862E+01 0.00000E+00
 -1      3788 1.64498E+01 1.74573E+01 0.00000E+00
 -1      3789 1.81733E+01 1.71499E+01 0.00000E+00
 -1      3790 1.40468E+01 2.55614E+01 0.00000E+00
 -1      3791 1.40468E+01 2.70333E+01 0.00000E+00
 -1      3792 1.48612E+01 2.74702E+01 0.00000E+00
 -1      3793 1.53457E+01 2.48255E+01 0.00000E+00
 -1      3794 1.19776E+02 2.08502E+01 0.00000E+00
 -1      3795 1.19558E+02 1.90484E+01 0.00000E+00
 -1      3796 1.58767E+01 3.10166E+01 0.00000E+00
 -1      3797 1.76423E+01 3.23576E+01 0.00000E+00
 -1      3798 1.83923E+01 3.10586E+01 0.00000E+00
 -1      3799 1.58767E+01 2.95479E+01 0.00000E+00
 -1      3800 1.20676E+02 3.27983E+01 0.00000E+00
 -1      3801 1.19280E+02 3.25674E+01 0.00000E+00
 -1      3802 1.19334E+02 1.75003E+01 0.00000E+00
 -1      3803 1.19568E+02 1.62072E+01 0.00000E+00
 -1      3804 1.17780E+02 3.25674E+01 0.00000E+00
 -1      3805 1.19119E+02 2.16435E+01 0.00000E+00
 -1      3806 1.17914E+02 2.99652E+01 0.00000E+00
 -1      3807 1.18711E+02 2.87964E+01 0.00000E+00
 -1      3808 1.18214E+02 2.80389E+01 0.00000E+00
 -1      3809 3.85350E+01 1.69963E+01 0.00000E+00
 -1      3810 1.18476E+02 2.60675E+01 0.00000E+00
 -1      3811 1.19383E+02 2.50324E+01 0.00000E+00
 -1      3812 1.18847E+02 2.42297E+01 0.00000E+00
 -1      3813 1.22320E+02 1.53054E+01 0.00000E+00
 -1      3814 1.17030E+02 3.12684E+01 0.00000E+00
 -1      3815 1.64498E+01 1.89284E+01 0.00000E+00
 -1      3816 1.64498E+01 2.03995E+01 0.00000E+00
 -1      3817 1.73115E+01 1.87747E+01 0.00000E+00
 -1      3818 1.64498E+01 2.18745E+01 0.00000E+00
 -1      3819 1.64498E+01 2.33495E+01 0.00000E+00
 -1      3820 1.73115E+01 2.17208E+01 0.00000E+00
 -1      3821 1.18259E+02 1.85443E+01 0.00000E+00
 -1      3822 2.34000E+01 3.05150E+01 0.00000E+00
 -1      3823 2.49000E+01 3.05150E+01 0.00000E+00
 -1      3824 2.64000E+01 3.05150E+01 0.00000E+00
 -1      3825 2.79000E+01 3.05150E+01 0.00000E+00
 -1      3826 2.56500E+01 2.92160E+01 0.00000E+00
 -1      3827 2.94000E+01 3.05150E+01 0.00000E+00
 -1      3828 3.09000E+01 3.05150E+01 0.00000E+00
 -1      3829 2.86500E+01 2.92160E+01 0.00000E+00
 -1      3830 3.24000E+01 3.05150E+01 0.00000E+00
 -1      3831 3.39000E+01 3.05150E+01 0.00000E+00
 -1      3832 3.16500E+01 2.92160E+01 0.00000E+00
 -1      3833 3.54000E+01 3.05150E+01 0.00000E+00
 -1      3834 3.69000E+01 3.05150E+01 0.00000E+00
 -1      3835 3.46500E+01 2.92160E+01 0.00000E+00
 -1      3836 3.84000E+01 3.05150E+01 0.00000E+00
 -1      3837 3.99000E+01 3.05150E+01 0.00000E+00
 -1      3838 3.76500E+01 2.92160E+01 0.00000E+00
 -1      3839 4.14000E+01 3.05150E+01 0.00000E+00
 -1      3840 4.29000E+01 3.05150E+01 0.00000E+00
 -1      3841 4.06500E+01 2.92160E+01 0.00000E+00
 -1      3842 4.44000E+01 3.05150E+01 0.00000E+00
 -1      3843 4.59000E+01 3.05150E+01 0.00000E+00
 -1      3844 4.36500E+01 2.92160E+01 0.00000E+00
 -1      3845 4.74000E+01 3.05150E+01 0.00000E+00
 -1      3846 4.89000E+01 3.05150E+01 0.00000E+00
 -1      3847 4.66500E+01 2.92160E+01 0.00000E+00
 -1      3848 5.04000E+01 3.05150E+01 0.00000E+00
 -1      3849 5.19000E+01 3.05150E+01 0.00000E+00
 -1      3850 4.96500E+01 2.92160E+01 0.00000E+00
 -1      3851 5.34000E+01 3.05150E+01 0.00000E+00
 -1      3852 5.49000E+01 3.05150E+01 0.00000E+00
 -1      3853 5.26500E+01 2.92160E+01 0.00000E+00
 -1      3854 5.64000E+01 3.05150E+01 0.00000E+00
 -1      3855 5.79000E+01 3.05150E+01 0.00000E+00
 -1      3856 5.56500E+01 2.92160E+01 0.00000E+00
 -1      3857 5.94000E+01 3.05150E+01 0.00000E+00
 -1      3858 6.09000E+01 3.05150E+01 0.00000E+00
 -1      3859 5.86500E+01 2.92160E+01 0.00000E+00
 -1      3860 6.24000E+01 3.05150E+01 0.00000E+00
 -1      3861 6.39000E+01 3.05150E+01 0.00000E+00
 -1      3862 6.16500E+01 2.92160E+01 0.00000E+00
 -1      3863 6.54000E+01 3.05150E+01 0.00000E+00
 -1      3864 6.69000E+01 3.05150E+01 0.00000E+00
 -1      3865 6.46500E+01 2.92160E+01 0.00000E+00
 -1      3866 6.84000E+01 3.05150E+01 0.00000E+00
 -1      3867 6.99000E+01 3.05150E+01 0.00000E+00
 -1      3868 6.76500E+01 2.92160E+01 0.00000E+00
 -1      3869 7.14000E+01 3.05150E+01 0.00000E+00
 -1      3870 7.29000E+01 3.05150E+01 0.00000E+00
 -1      3871 7.06500E+01 2.92160E+01 0.00000E+00
 -1      3872 7.44000E+01 3.05150E+01 0.00000E+00
 -1      3873 7.59000E+01 3.05150E+01 0.00000E+00
 -1      3874 7.36500E+01 2.92160E+01 0.00000E+00
 -1      3875 7.74000E+01 3.05150E+01 0.00000E+00
 -1      3876 7.89000E+01 3.05150E+01 0.00000E+00
 -1      3877 7.66500E+01 2.92160E+01 0.00000E+00
 -1      3878 8.04000E+01 3.05150E+01 0.00000E+00
 -1      3879 8.19000E+01 3.05150E+01 0.00000E+00
 -1      3880 7.96500E+01 2.92160E+01 0.00000E+00
 -1      3881 8.34000E+01 3.05150E+01 0.00000E+00
 -1      3882 8.49000E+01 3.05150E+01 0.00000E+00
 -1      3883 8.26500E+01 2.92160E+01 0.00000E+00
 -1      3884 8.64000E+01 3.05150E+01 0.00000E+00
 -1      3885 8.79000E+01 3.05150E+01 0.00000E+00
 -1      3886 8.56500E+01 2.92160E+01 0.00000E+00
 -1      3887 8.94000E+01 3.05150E+01 0.00000E+00
 -1      3888 9.09000E+01 3.05150E+01 0.00000E+00
 -1      3889 8.86500E+01 2.92160E+01 0.00000E+00
 -1      3890 9.24000E+01 3.05150E+01 0.00000E+00
 -1      3891 9.39000E+01 3.05150E+01 0.00000E+00
 -1      3892 9.16500E+01 2.92160E+01 0.00000E+00
 -1      3893 9.54000E+01 3.05150E+01 0.00000E+00
 -1      3894 9.69000E+01 3.05150E+01 0.00000E+00
 -1      3895 9.46500E+01 2.92160E+01 0.00000E+00
 -1      3896 9.84000E+01 3.05150E+01 0.00000E+00
 -1      3897 9.99000E+01 3.05150E+01 0.00000E+00
 -1      3898 9.76500E+01 2.92160E+01 0.00000E+00
 -1      3899 1.01400E+02 3.05150E+01 0.00000E+00
 -1      3900 1.02900E+02 3.05150E+01 0.00000E+00
 -1      3901 1.00650E+02 2.92160E+01 0.00000E+00
 -1      3902 1.04400E+02 3.05150E+01 0.00000E+00
 -1      3903 1.05900E+02 3.05150E+01 0.00000E+00
 -1      3904 1.03650E+02 2.92160E+01 0.00000E+00
 -1      3905 1.07400E+02 3.05150E+01 0.00000E+00
 -1      3906 1.08900E+02 3.05150E+01 0.00000E+00
 -1      3907 1.06650E+02 2.92160E+01 0.00000E+00
 -1      3908 1.10400E+02 3.05150E+01 0.00000E+00
 -1      3909 1.11900E+02 3.05150E+01 0.00000E+00
 -1      3910 1.09650E+02 2.92160E+01 0.00000E+00
 -1      3911 1.13400E+02 3.05150E+01 0.00000E+00
 -1      3912 1.14900E+02 3.05150E+01 0.00000E+00
 -1      3913 1.12650E+02 2.92160E+01 0.00000E+00
 -1      3914 5.12850E+01 1.82952E+01 0.00000E+00
 -1      3915 4.97850E+01 1.82952E+01 0.00000E+00
 -1      3916 5.42850E+01 1.82952E+01 0.00000E+00
 -1      3917 5.27850E+01 1.82952E+01 0.00000E+00
 -1      3918 5.20350E+01 1.95942E+01 0.00000E+00
 -1      3919 4.82850E+01 1.82952E+01 0.00000E+00
 -1      3920 4.67850E+01 1.82952E+01 0.00000E+00
 -1      3921 4.90350E+01 1.95942E+01 0.00000E+00
 -1      3922 5.72850E+01 1.82952E+01 0.00000E+00
 -1      3923 5.57850E+01 1.82952E+01 0.00000E+00
 -1      3924 5.50350E+01 1.95942E+01 0.00000E+00
 -1      3925 6.02850E+01 1.82952E+01 0.00000E+00
 -1      3926 5.87850E+01 1.82952E+01 0.00000E+00
 -1      3927 5.80350E+01 1.95942E+01 0.00000E+00
 -1      3928 6.32850E+01 1.82952E+01 0.00000E+00
 -1      3929 6.17850E+01 1.82952E+01 0.00000E+00
 -1      3930 6.10350E+01 1.95942E+01 0.00000E+00
 -1      3931 6.62850E+01 1.82952E+01 0.00000E+00
 -1      3932 6.47850E+01 1.82952E+01 0.00000E+00
 -1      3933 6.40350E+01 1.95942E+01 0.00000E+00
 -1      3934 6.92850E+01 1.82952E+01 0.00000E+00
 -1      3935 6.77850E+01 1.82952E+01 0.00000E+00
 -1      3936 6.70350E+01 1.95942E+01 0.00000E+00
 -1      3937 7.22850E+01 1.82952E+01 0.00000E+00
 -1      3938 7.07850E+01 1.82952E+01 0.00000E+00
 -1      3939 7.00350E+01 1.95942E+01 0.00000E+00
 -1      3940 7.52850E+01 1.82952E+01 0.00000E+00
 -1      3941 7.37850E+01 1.82952E+01 0.00000E+00
 -1      3942 7.30350E+01 1.95942E+01 0.00000E+00
 -1      3943 7.82850E+01 1.82952E+01 0.00000E+00
 -1      3944 7.67850E+01 1.82952E+01 0.00000E+00
 -1      3945 7.60350E+01 1.95942E+01 0.00000E+00
 -1      3946 8.12850E+01 1.82952E+01 0.00000E+00
 -1      3947 7.97850E+01 1.82952E+01 0.00000E+00
 -1      3948 7.90350E+01 1.95942E+01 0.00000E+00
 -1      3949 8.42850E+01 1.82952E+01 0.00000E+00
 -1      3950 8.27850E+01 1.82952E+01 0.00000E+00
 -1      3951 8.20350E+01 1.95942E+01 0.00000E+00
 -1      3952 8.72850E+01 1.82952E+01 0.00000E+00
 -1      3953 8.57850E+01 1.82952E+01 0.00000E+00
 -1      3954 8.50350E+01 1.95942E+01 0.00000E+00
 -1      3955 9.02850E+01 1.82952E+01 0.00000E+00
 -1      3956 8.87850E+01 1.82952E+01 0.00000E+00
 -1      3957 8.80350E+01 1.95942E+01 0.00000E+00
 -1      3958 9.32850E+01 1.82952E+01 0.00000E+00
 -1      3959 9.17850E+01 1.82952E+01 0.00000E+00
 -1      3960 9.10350E+01 1.95942E+01 0.00000E+00
 -1      3961 9.62850E+01 1.82952E+01 0.00000E+00
 -1      3962 9.47850E+01 1.82952E+01 0.00000E+00
 -1      3963 9.40350E+01 1.95942E+01 0.00000E+00
 -1      3964 9.92850E+01 1.82952E+01 0.00000E+00
 -1      3965 9.77850E+01 1.82952E+01 0.00000E+00
 -1      3966 9.70350E+01 1.95942E+01 0.00000E+00
 -1      3967 1.02285E+02 1.82952E+01 0.00000E+00
 -1      3968 1.00785E+02 1.82952E+01 0.00000E+00
 -1      3969 1.00035E+02 1.95942E+01 0.00000E+00
 -1      3970 1.05285E+02 1.82952E+01 0.00000E+00
 -1      3971 1.03785E+02 1.82952E+01 0.00000E+00
 -1      3972 1.03035E+02 1.95942E+01 0.00000E+00
 -1      3973 1.08285E+02 1.82952E+01 0.00000E+00
 -1      3974 1.06785E+02 1.82952E+01 0.00000E+00
 -1      3975 1.06035E+02 1.95942E+01 0.00000E+00
 -1      3976 1.11285E+02 1.82952E+01 0.00000E+00
 -1      3977 1.09785E+02 1.82952E+01 0.00000E+00
 -1      3978 1.09035E+02 1.95942E+01 0.00000E+00
 -1      3979 1.14285E+02 1.82952E+01 0.00000E+00
 -1      3980 1.12785E+02 1.82952E+01 0.00000E+00
 -1      3981 1.12035E+02 1.95942E+01 0.00000E+00
 -1      3982 1.17022E+02 1.84198E+01 0.00000E+00
 -1      3983 1.15522E+02 1.84198E+01 0.00000E+00
 -1      3984 1.14772E+02 1.97188E+01 0.00000E+00
 -1      3985 1.17246E+02 1.99679E+01 0.00000E+00
 -1      3986 3.62850E+01 1.82952E+01 0.00000E+00
 -1      3987 3.47850E+01 1.82952E+01 0.00000E+00
 -1      3988 2.12851E+01 1.82953E+01 0.00000E+00
 -1      3989 1.97851E+01 1.82953E+01 0.00000E+00
 -1      3990 3.92850E+01 1.82952E+01 0.00000E+00
 -1      3991 3.77850E+01 1.82952E+01 0.00000E+00
 -1      3992 3.70350E+01 1.95942E+01 0.00000E+00
 -1      3993 3.32850E+01 1.82952E+01 0.00000E+00
 -1      3994 3.17850E+01 1.82952E+01 0.00000E+00
 -1      3995 3.40350E+01 1.95942E+01 0.00000E+00
 -1      3996 1.16533E+02 3.05109E+01 0.00000E+00
 -1      3997 4.52850E+01 1.82952E+01 0.00000E+00
 -1      3998 4.37850E+01 1.82952E+01 0.00000E+00
 -1      3999 4.60350E+01 1.95942E+01 0.00000E+00
 -1      4000 4.22850E+01 1.82952E+01 0.00000E+00
 -1      4001 4.07850E+01 1.82952E+01 0.00000E+00
 -1      4002 4.30350E+01 1.95942E+01 0.00000E+00
 -1      4003 1.18365E+02 2.28743E+01 0.00000E+00
 -1      4004 1.17729E+02 2.13232E+01 0.00000E+00
 -1      4005 1.16492E+02 2.11987E+01 0.00000E+00
 -1      4006 1.17457E+02 2.39094E+01 0.00000E+00
 -1      4007 2.42851E+01 1.82953E+01 0.00000E+00
 -1      4008 2.27851E+01 1.82953E+01 0.00000E+00
 -1      4009 2.20351E+01 1.95943E+01 0.00000E+00
 -1      4010 2.04000E+01 3.05150E+01 0.00000E+00
 -1      4011 2.19000E+01 3.05150E+01 0.00000E+00
 -1      4012 2.26500E+01 2.92160E+01 0.00000E+00
 -1      4013 4.00350E+01 1.95942E+01 0.00000E+00
 -1      4014 1.17678E+02 2.72362E+01 0.00000E+00
 -1      4015 1.17143E+02 2.64335E+01 0.00000E+00
 -1      4016 1.16881E+02 2.84050E+01 0.00000E+00
 -1      4017 3.10350E+01 1.95943E+01 0.00000E+00
 -1      4018 3.02850E+01 1.82953E+01 0.00000E+00
 -1      4019 2.87850E+01 1.82953E+01 0.00000E+00
 -1      4020 2.57850E+01 1.82953E+01 0.00000E+00
 -1      4021 2.50350E+01 1.95943E+01 0.00000E+00
 -1      4022 2.72850E+01 1.82953E+01 0.00000E+00
 -1      4023 1.70693E+01 2.45181E+01 0.00000E+00
 -1      4024 1.62075E+01 2.46718E+01 0.00000E+00
 -1      4025 1.59653E+01 2.59941E+01 0.00000E+00
 -1      4026 1.60421E+01 2.71098E+01 0.00000E+00
 -1      4027 1.57999E+01 2.84322E+01 0.00000E+00
 -1      4028 1.70576E+01 2.91876E+01 0.00000E+00
 -1      4029 1.69039E+01 2.69562E+01 0.00000E+00
 -1      4030 1.86105E+01 2.09833E+01 0.00000E+00
 -1      4031 1.86105E+01 2.24583E+01 0.00000E+00
 -1      4032 1.15783E+02 2.92119E+01 0.00000E+00
 -1      4033 1.91423E+01 2.97596E+01 0.00000E+00
 -1      4034 1.89233E+01 1.99200E+01 0.00000E+00
 -1      4035 2.02223E+01 2.06575E+01 0.00000E+00
 -1      4036 1.89233E+01 1.84489E+01 0.00000E+00
 -1      4037 5.57850E+01 2.08932E+01 0.00000E+00
 -1      4038 5.42850E+01 2.08932E+01 0.00000E+00
 -1      4039 2.79000E+01 2.79170E+01 0.00000E+00
 -1      4040 2.94000E+01 2.79170E+01 0.00000E+00
 -1      4041 3.09000E+01 2.79170E+01 0.00000E+00
 -1      4042 3.24000E+01 2.79170E+01 0.00000E+00
 -1      4043 3.01500E+01 2.66180E+01 0.00000E+00
 -1      4044 3.39000E+01 2.79170E+01 0.00000E+00
 -1      4045 3.54000E+01 2.79170E+01 0.00000E+00
 -1      4046 3.31500E+01 2.66180E+01 0.00000E+00
 -1      4047 3.69000E+01 2.79170E+01 0.00000E+00
 -1      4048 3.84000E+01 2.79170E+01 0.00000E+00
 -1      4049 3.61500E+01 2.66180E+01 0.00000E+00
 -1      4050 3.99000E+01 2.79170E+01 0.00000E+00
 -1      4051 4.14000E+01 2.79170E+01 0.00000E+00
 -1      4052 3.91500E+01 2.66180E+01 0.00000E+00
 -1      4053 4.29000E+01 2.79170E+01 0.00000E+00
 -1      4054 4.44000E+01 2.79170E+01 0.00000E+00
 -1      4055 4.21500E+01 2.66180E+01 0.00000E+00
 -1      4056 4.59000E+01 2.79170E+01 0.00000E+00
 -1      4057 4.74000E+01 2.79170E+01 0.00000E+00
 -1      4058 4.51500E+01 2.66180E+01 0.00000E+00
 -1      4059 4.89000E+01 2.79170E+01 0.00000E+00
 -1      4060 5.04000E+01 2.79170E+01 0.00000E+00
 -1      4061 4.81500E+01 2.66180E+01 0.00000E+00
 -1      4062 5.19000E+01 2.79170E+01 0.00000E+00
 -1      4063 5.34000E+01 2.79170E+01 0.00000E+00
 -1      4064 5.11500E+01 2.66180E+01 0.00000E+00
 -1      4065 5.49000E+01 2.79170E+01 0.00000E+00
 -1      4066 5.64000E+01 2.79170E+01 0.00000E+00
 -1      4067 5.41500E+01 2.66180E+01 0.00000E+00
 -1      4068 5.79000E+01 2.79170E+01 0.00000E+00
 -1      4069 5.94000E+01 2.79170E+01 0.00000E+00
 -1      4070 5.71500E+01 2.66180E+01 0.00000E+00
 -1      4071 6.09000E+01 2.79170E+01 0.00000E+00
 -1      4072 6.24000E+01 2.79170E+01 0.00000E+00
 -1      4073 6.01500E+01 2.66180E+01 0.00000E+00
 -1      4074 6.39000E+01 2.79170E+01 0.00000E+00
 -1      4075 6.54000E+01 2.79170E+01 0.00000E+00
 -1      4076 6.31500E+01 2.66180E+01 0.00000E+00
 -1      4077 6.69000E+01 2.79170E+01 0.00000E+00
 -1      4078 6.84000E+01 2.79170E+01 0.00000E+00
 -1      4079 6.61500E+01 2.66180E+01 0.00000E+00
 -1      4080 6.99000E+01 2.79170E+01 0.00000E+00
 -1      4081 7.14000E+01 2.79170E+01 0.00000E+00
 -1      4082 6.91500E+01 2.66180E+01 0.00000E+00
 -1      4083 7.29000E+01 2.79170E+01 0.00000E+00
 -1      4084 7.44000E+01 2.79170E+01 0.00000E+00
 -1      4085 7.21500E+01 2.66180E+01 0.00000E+00
 -1      4086 7.59000E+01 2.79170E+01 0.00000E+00
 -1      4087 7.74000E+01 2.79170E+01 0.00000E+00
 -1      4088 7.51500E+01 2.66180E+01 0.00000E+00
 -1      4089 7.89000E+01 2.79170E+01 0.00000E+00
 -1      4090 8.04000E+01 2.79170E+01 0.00000E+00
 -1      4091 7.81500E+01 2.66180E+01 0.00000E+00
 -1      4092 8.19000E+01 2.79170E+01 0.00000E+00
 -1      4093 8.34000E+01 2.79170E+01 0.00000E+00
 -1      4094 8.11500E+01 2.66180E+01 0.00000E+00
 -1      4095 8.49000E+01 2.79170E+01 0.00000E+00
 -1      4096 8.64000E+01 2.79170E+01 0.00000E+00
 -1      4097 8.41500E+01 2.66180E+01 0.00000E+00
 -1      4098 8.79000E+01 2.79170E+01 0.00000E+00
 -1      4099 8.94000E+01 2.79170E+01 0.00000E+00
 -1      4100 8.71500E+01 2.66180E+01 0.00000E+00
 -1      4101 9.09000E+01 2.79170E+01 0.00000E+00
 -1      4102 9.24000E+01 2.79170E+01 0.00000E+00
 -1      4103 9.01500E+01 2.66180E+01 0.00000E+00
 -1      4104 9.39000E+01 2.79170E+01 0.00000E+00
 -1      4105 9.54000E+01 2.79170E+01 0.00000E+00
 -1      4106 9.31500E+01 2.66180E+01 0.00000E+00
 -1      4107 9.69000E+01 2.79170E+01 0.00000E+00
 -1      4108 9.84000E+01 2.79170E+01 0.00000E+00
 -1      4109 9.61500E+01 2.66180E+01 0.00000E+00
 -1      4110 9.99000E+01 2.79170E+01 0.00000E+00
 -1      4111 1.01400E+02 2.79170E+01 0.00000E+00
 -1      4112 9.91500E+01 2.66180E+01 0.00000E+00
 -1      4113 1.02900E+02 2.79170E+01 0.00000E+00
 -1      4114 1.04400E+02 2.79170E+01 0.00000E+00
 -1      4115 1.02150E+02 2.66180E+01 0.00000E+00
 -1      4116 1.05900E+02 2.79170E+01 0.00000E+00
 -1      4117 1.07400E+02 2.79170E+01 0.00000E+00
 -1      4118 1.05150E+02 2.66180E+01 0.00000E+00
 -1      4119 1.08900E+02 2.79170E+01 0.00000E+00
 -1      4120 1.10400E+02 2.79170E+01 0.00000E+00
 -1      4121 1.08150E+02 2.66180E+01 0.00000E+00
 -1      4122 1.11900E+02 2.79170E+01 0.00000E+00
 -1      4123 1.13400E+02 2.79170E+01 0.00000E+00
 -1      4124 1.11150E+02 2.66180E+01 0.00000E+00
 -1      4125 5.27850E+01 2.08932E+01 0.00000E+00
 -1      4126 5.12850E+01 2.08932E+01 0.00000E+00
 -1      4127 5.35350E+01 2.21922E+01 0.00000E+00
 -1      4128 4.97850E+01 2.08932E+01 0.00000E+00
 -1      4129 4.82850E+01 2.08932E+01 0.00000E+00
 -1      4130 5.05350E+01 2.21922E+01 0.00000E+00
 -1      4131 6.17850E+01 2.08932E+01 0.00000E+00
 -1      4132 6.02850E+01 2.08932E+01 0.00000E+00
 -1      4133 6.47850E+01 2.08932E+01 0.00000E+00
 -1      4134 6.32850E+01 2.08932E+01 0.00000E+00
 -1      4135 6.25350E+01 2.21922E+01 0.00000E+00
 -1      4136 6.77850E+01 2.08932E+01 0.00000E+00
 -1      4137 6.62850E+01 2.08932E+01 0.00000E+00
 -1      4138 6.55350E+01 2.21922E+01 0.00000E+00
 -1      4139 7.07850E+01 2.08932E+01 0.00000E+00
 -1      4140 6.92850E+01 2.08932E+01 0.00000E+00
 -1      4141 6.85350E+01 2.21922E+01 0.00000E+00
 -1      4142 7.37850E+01 2.08932E+01 0.00000E+00
 -1      4143 7.22850E+01 2.08932E+01 0.00000E+00
 -1      4144 7.15350E+01 2.21922E+01 0.00000E+00
 -1      4145 7.67850E+01 2.08932E+01 0.00000E+00
 -1      4146 7.52850E+01 2.08932E+01 0.00000E+00
 -1      4147 7.45350E+01 2.21922E+01 0.00000E+00
 -1      4148 7.97850E+01 2.08932E+01 0.00000E+00
 -1      4149 7.82850E+01 2.08932E+01 0.00000E+00
 -1      4150 7.75350E+01 2.21922E+01 0.00000E+00
 -1      4151 8.27850E+01 2.08932E+01 0.00000E+00
 -1      4152 8.12850E+01 2.08932E+01 0.00000E+00
 -1      4153 8.05350E+01 2.21922E+01 0.00000E+00
 -1      4154 8.57850E+01 2.08932E+01 0.00000E+00
 -1      4155 8.42850E+01 2.08932E+01 0.00000E+00
 -1      4156 8.35350E+01 2.21922E+01 0.00000E+00
 -1      4157 8.87850E+01 2.08932E+01 0.00000E+00
 -1      4158 8.72850E+01 2.08932E+01 0.00000E+00
 -1      4159 8.65350E+01 2.21922E+01 0.00000E+00
 -1      4160 9.17850E+01 2.08932E+01 0.00000E+00
 -1      4161 9.02850E+01 2.08932E+01 0.00000E+00
 -1      4162 8.95350E+01 2.21922E+01 0.00000E+00
 -1      4163 9.47850E+01 2.08932E+01 0.00000E+00
 -1      4164 9.32850E+01 2.08932E+01 0.00000E+00
 -1      4165 9.25350E+01 2.21922E+01 0.00000E+00
 -1      4166 9.77850E+01 2.08932E+01 0.00000E+00
 -1      4167 9.62850E+01 2.08932E+01 0.00000E+00
 -1      4168 9.55350E+01 2.21922E+01 0.00000E+00
 -1      4169 1.00785E+02 2.08932E+01 0.00000E+00
 -1      4170 9.92850E+01 2.08932E+01 0.00000E+00
 -1      4171 9.85350E+01 2.21922E+01 0.00000E+00
 -1      4172 1.03785E+02 2.08932E+01 0.00000E+00
 -1      4173 1.02285E+02 2.08932E+01 0.00000E+00
 -1      4174 1.01535E+02 2.21922E+01 0.00000E+00
 -1      4175 1.06785E+02 2.08932E+01 0.00000E+00
 -1      4176 1.05285E+02 2.08932E+01 0.00000E+00
 -1      4177 1.04535E+02 2.21922E+01 0.00000E+00
 -1      4178 1.09785E+02 2.08932E+01 0.00000E+00
 -1      4179 1.08285E+02 2.08932E+01 0.00000E+00
 -1      4180 1.07535E+02 2.21922E+01 0.00000E+00
 -1      4181 1.12785E+02 2.08932E+01 0.00000E+00
 -1      4182 1.11285E+02 2.08932E+01 0.00000E+00
 -1      4183 1.10535E+02 2.21922E+01 0.00000E+00
 -1      4184 1.15257E+02 2.11082E+01 0.00000E+00
 -1      4185 1.14020E+02 2.09837E+01 0.00000E+00
 -1      4186 1.13270E+02 2.22827E+01 0.00000E+00
 -1      4187 1.15740E+02 2.24636E+01 0.00000E+00
 -1      4188 2.19000E+01 2.79170E+01 0.00000E+00
 -1      4189 2.34000E+01 2.79170E+01 0.00000E+00
 -1      4190 2.32223E+01 2.06575E+01 0.00000E+00
 -1      4191 2.17223E+01 2.06575E+01 0.00000E+00
 -1      4192 2.14095E+01 2.17208E+01 0.00000E+00
 -1      4193 1.20318E+02 1.49082E+01 0.00000E+00
 -1      4194 3.77850E+01 2.08932E+01 0.00000E+00
 -1      4195 3.62850E+01 2.08932E+01 0.00000E+00
 -1      4196 3.47850E+01 2.08932E+01 0.00000E+00
 -1      4197 3.32850E+01 2.08932E+01 0.00000E+00
 -1      4198 3.55350E+01 2.21922E+01 0.00000E+00
 -1      4199 5.87850E+01 2.08932E+01 0.00000E+00
 -1      4200 5.72850E+01 2.08932E+01 0.00000E+00
 -1      4201 5.95350E+01 2.21922E+01 0.00000E+00
 -1      4202 4.67850E+01 2.08932E+01 0.00000E+00
 -1      4203 4.52850E+01 2.08932E+01 0.00000E+00
 -1      4204 4.75350E+01 2.21922E+01 0.00000E+00
 -1      4205 1.15248E+02 2.84092E+01 0.00000E+00
 -1      4206 4.37850E+01 2.08932E+01 0.00000E+00
 -1      4207 4.22850E+01 2.08932E+01 0.00000E+00
 -1      4208 4.45350E+01 2.21922E+01 0.00000E+00
 -1      4209 2.49000E+01 2.79170E+01 0.00000E+00
 -1      4210 2.64000E+01 2.79170E+01 0.00000E+00
 -1      4211 2.41500E+01 2.66180E+01 0.00000E+00
 -1      4212 1.99014E+01 2.32192E+01 0.00000E+00
 -1      4213 1.86024E+01 2.39567E+01 0.00000E+00
 -1      4214 4.07850E+01 2.08932E+01 0.00000E+00
 -1      4215 3.92850E+01 2.08932E+01 0.00000E+00
 -1      4216 4.15350E+01 2.21922E+01 0.00000E+00
 -1      4217 5.65350E+01 2.21922E+01 0.00000E+00
 -1      4218 1.14498E+02 2.71102E+01 0.00000E+00
 -1      4219 2.71500E+01 2.66180E+01 0.00000E+00
 -1      4220 1.83601E+01 2.52790E+01 0.00000E+00
 -1      4221 3.17850E+01 2.08933E+01 0.00000E+00
 -1      4222 3.02850E+01 2.08933E+01 0.00000E+00
 -1      4223 3.25350E+01 2.21923E+01 0.00000E+00
 -1      4224 2.04000E+01 2.79170E+01 0.00000E+00
 -1      4225 2.11500E+01 2.66180E+01 0.00000E+00
 -1      4226 2.47223E+01 2.06575E+01 0.00000E+00
 -1      4227 2.44095E+01 2.17208E+01 0.00000E+00
 -1      4228 2.62223E+01 2.06575E+01 0.00000E+00
 -1      4229 2.80350E+01 1.95943E+01 0.00000E+00
 -1      4230 2.14014E+01 2.32192E+01 0.00000E+00
 -1      4231 3.85350E+01 2.21922E+01 0.00000E+00
 -1      4232 1.15579E+02 2.60942E+01 0.00000E+00
 -1      4233 1.16376E+02 2.49254E+01 0.00000E+00
 -1      4234 1.15893E+02 2.35700E+01 0.00000E+00
 -1      4235 1.13731E+02 2.56020E+01 0.00000E+00
 -1      4236 1.90654E+01 2.86439E+01 0.00000E+00
 -1      4237 1.83154E+01 2.73449E+01 0.00000E+00
 -1      4238 3.28425E+01 2.44051E+01 0.00000E+00
 -1      4239 3.43425E+01 2.44051E+01 0.00000E+00
 -1      4240 3.58425E+01 2.44051E+01 0.00000E+00
 -1      4241 3.73425E+01 2.44051E+01 0.00000E+00
 -1      4242 3.88425E+01 2.44051E+01 0.00000E+00
 -1      4243 4.03425E+01 2.44051E+01 0.00000E+00
 -1      4244 4.18425E+01 2.44051E+01 0.00000E+00
 -1      4245 4.33425E+01 2.44051E+01 0.00000E+00
 -1      4246 4.48425E+01 2.44051E+01 0.00000E+00
 -1      4247 4.63425E+01 2.44051E+01 0.00000E+00
 -1      4248 4.78425E+01 2.44051E+01 0.00000E+00
 -1      4249 4.93425E+01 2.44051E+01 0.00000E+00
 -1      4250 5.08425E+01 2.44051E+01 0.00000E+00
 -1      4251 5.23425E+01 2.44051E+01 0.00000E+00
 -1      4252 5.38425E+01 2.44051E+01 0.00000E+00
 -1      4253 5.53425E+01 2.44051E+01 0.00000E+00
 -1      4254 5.68425E+01 2.44051E+01 0.00000E+00
 -1      4255 5.83425E+01 2.44051E+01 0.00000E+00
 -1      4256 5.98425E+01 2.44051E+01 0.00000E+00
 -1      4257 6.13425E+01 2.44051E+01 0.00000E+00
 -1      4258 6.28425E+01 2.44051E+01 0.00000E+00
 -1      4259 6.43425E+01 2.44051E+01 0.00000E+00
 -1      4260 6.58425E+01 2.44051E+01 0.00000E+00
 -1      4261 6.73425E+01 2.44051E+01 0.00000E+00
 -1      4262 6.88425E+01 2.44051E+01 0.00000E+00
 -1      4263 7.03425E+01 2.44051E+01 0.00000E+00
 -1      4264 7.18425E+01 2.44051E+01 0.00000E+00
 -1      4265 7.33425E+01 2.44051E+01 0.00000E+00
 -1      4266 7.48425E+01 2.44051E+01 0.00000E+00
 -1      4267 7.63425E+01 2.44051E+01 0.00000E+00
 -1      4268 7.78425E+01 2.44051E+01 0.00000E+00
 -1      4269 7.93425E+01 2.44051E+01 0.00000E+00
 -1      4270 8.08425E+01 2.44051E+01 0.00000E+00
 -1      4271 8.23425E+01 2.44051E+01 0.00000E+00
 -1      4272 8.38425E+01 2.44051E+01 0.00000E+00
 -1      4273 8.53425E+01 2.44051E+01 0.00000E+00
 -1      4274 8.68425E+01 2.44051E+01 0.00000E+00
 -1      4275 8.83425E+01 2.44051E+01 0.00000E+00
 -1      4276 8.98425E+01 2.44051E+01 0.00000E+00
 -1      4277 9.13425E+01 2.44051E+01 0.00000E+00
 -1      4278 9.28425E+01 2.44051E+01 0.00000E+00
 -1      4279 9.43425E+01 2.44051E+01 0.00000E+00
 -1      4280 9.58425E+01 2.44051E+01 0.00000E+00
 -1      4281 9.73425E+01 2.44051E+01 0.00000E+00
 -1      4282 9.88425E+01 2.44051E+01 0.00000E+00
 -1      4283 1.00342E+02 2.44051E+01 0.00000E+00
 -1      4284 1.01842E+02 2.44051E+01 0.00000E+00
 -1      4285 1.03342E+02 2.44051E+01 0.00000E+00
 -1      4286 1.04842E+02 2.44051E+01 0.00000E+00
 -1      4287 1.06342E+02 2.44051E+01 0.00000E+00
 -1      4288 1.07842E+02 2.44051E+01 0.00000E+00
 -1      4289 1.09342E+02 2.44051E+01 0.00000E+00
 -1      4290 1.10842E+02 2.44051E+01 0.00000E+00
 -1      4291 1.12342E+02 2.44051E+01 0.00000E+00
 -1      4292 3.13425E+01 2.44051E+01 0.00000E+00
 -1      4293 1.82386E+01 2.62292E+01 0.00000E+00
 -1      4294 2.90037E+01 2.07754E+01 0.00000E+00
 -1      4295 2.75037E+01 2.07754E+01 0.00000E+00
 -1      4296 2.71909E+01 2.18386E+01 0.00000E+00
 -1      4297 2.97537E+01 2.20744E+01 0.00000E+00
 -1      4298 2.98425E+01 2.44051E+01 0.00000E+00
 -1      4299 1.97717E+01 2.56678E+01 0.00000E+00
 -1      4300 2.34000E+01 2.53190E+01 0.00000E+00
 -1      4301 2.49000E+01 2.53190E+01 0.00000E+00
 -1      4302 2.70611E+01 2.42873E+01 0.00000E+00
 -1      4303 2.85611E+01 2.42873E+01 0.00000E+00
 -1      4304 2.12716E+01 2.56678E+01 0.00000E+00
 -1      4305 2.20216E+01 2.43688E+01 0.00000E+00
 -1      4306 1.13424E+02 2.33891E+01 0.00000E+00
 -1      4307 2.50298E+01 2.28704E+01 0.00000E+00
 -1      4308 2.35298E+01 2.28704E+01 0.00000E+00
 -1      4309 2.63111E+01 2.29883E+01 0.00000E+00
 -1      4310 1.14658E+02 2.34796E+01 0.00000E+00
 -3
    3C                          2072                                     1
 -1       167    8    0    1
 -2         6         7        23      1120      1286      1137
 -1       168    8    0    1
 -2         7         8       167      1121      1287      1288
 -1       169    8    0    1
 -2         8         9       168      1122      1289      1290
 -1       170    8    0    1
 -2         8       168       167      1290      1291      1287
 -1       171    8    0    1
 -2         9        10       169      1123      1292      1293
 -1       172    8    0    1
 -2         9       169       168      1293      1294      1289
 -1       173    8    0    1
 -2        10        11       170      1124      1295      1296
 -1       174    8    0    1
 -2        10       170       169      1296      1297      1292
 -1       175    8    0    1
 -2        11        12       171      1125      1298      1299
 -1       176    8    0    1
 -2        11       171       170      1299      1300      1295
 -1       177    8    0    1
 -2        12        13       172      1126      1301      1302
 -1       178    8    0    1
 -2        12       172       171      1302      1303      1298
 -1       179    8    0    1
 -2        13        14       173      1127      1304      1305
 -1       180    8    0    1
 -2        13       173       172      1305      1306      1301
 -1       181    8    0    1
 -2        14        15       174      1128      1307      1308
 -1       182    8    0    1
 -2        14       174       173      1308      1309      1304
 -1       183    8    0    1
 -2        15        16       175      1129      1310      1311
 -1       184    8    0    1
 -2        15       175       174      1311      1312      1307
 -1       185    8    0    1
 -2        16        17       176      1130      1313      1314
 -1       186    8    0    1
 -2        16       176       175      1314      1315      1310
 -1       187    8    0    1
 -2        17        18       177      1131      1316      1317
 -1       188    8    0    1
 -2        17       177       176      1317      1318      1313
 -1       189    8    0    1
 -2        18        19       178      1132      1319      1320
 -1       190    8    0    1
 -2        18       178       177      1320      1321      1316
 -1       191    8    0    1
 -2        19        20       179      1133      1322      1323
 -1       192    8    0    1
 -2        19       179       178      1323      1324      1319
 -1       193    8    0    1
 -2        20        21       180      1134      1325      1326
 -1       194    8    0    1
 -2        20       180       179      1326      1327      1322
 -1       195    8    0    1
 -2        21        22       181      1135      1328      1329
 -1       196    8    0    1
 -2        21       181       180      1329      1330      1325
 -1       197    8    0    1
 -2        22         5       182      1136      1331      1332
 -1       198    8    0    1
 -2       181        22       182      1328      1332      1333
 -1       199    8    0    1
 -2         5        72       182      1187      1334      1331
 -1       200    8    0    1
 -2        24        23       183      1138      1335      1336
 -1       201    8    0    1
 -2        25        24       184      1139      1337      1338
 -1       202    8    0    1
 -2        24       183       184      1336      1339      1337
 -1       203    8    0    1
 -2        26        25       185      1140      1340      1341
 -1       204    8    0    1
 -2        25       184       185      1338      1342      1340
 -1       205    8    0    1
 -2        27        26       186      1141      1343      1344
 -1       206    8    0    1
 -2        26       185       186      1341      1345      1343
 -1       207    8    0    1
 -2        28        27       187      1142      1346      1347
 -1       208    8    0    1
 -2        27       186       187      1344      1348      1346
 -1       209    8    0    1
 -2        29        28       188      1143      1349      1350
 -1       210    8    0    1
 -2        28       187       188      1347      1351      1349
 -1       211    8    0    1
 -2        30        29       189      1144      1352      1353
 -1       212    8    0    1
 -2        29       188       189      1350      1354      1352
 -1       213    8    0    1
 -2        31        30       190      1145      1355      1356
 -1       214    8    0    1
 -2        30       189       190      1353      1357      1355
 -1       215    8    0    1
 -2        32        31       191      1146      1358      1359
 -1       216    8    0    1
 -2        31       190       191      1356      1360      1358
 -1       217    8    0    1
 -2        33        32       192      1147      1361      1362
 -1       218    8    0    1
 -2        32       191       192      1359      1363      1361
 -1       219    8    0    1
 -2        34        33       193      1148      1364      1365
 -1       220    8    0    1
 -2        33       192       193      1362      1366      1364
 -1       221    8    0    1
 -2        35        34       194      1149      1367      1368
 -1       222    8    0    1
 -2        34       193       194      1365      1369      1367
 -1       223    8    0    1
 -2        36        35       195      1150      1370      1371
 -1       224    8    0    1
 -2        35       194       195      1368      1372      1370
 -1       225    8    0    1
 -2        37        36       196      1151      1373      1374
 -1       226    8    0    1
 -2        36       195       196      1371      1375      1373
 -1       227    8    0    1
 -2        38        37       197      1152      1376      1377
 -1       228    8    0    1
 -2        37       196       197      1374      1378      1376
 -1       229    8    0    1
 -2        39        38       198      1153      1379      1380
 -1       230    8    0    1
 -2        38       197       198      1377      1381      1379
 -1       231    8    0    1
 -2        40        39       199      1154      1382      1383
 -1       232    8    0    1
 -2        39       198       199      1380      1384      1382
 -1       233    8    0    1
 -2        41        40       200      1155      1385      1386
 -1       234    8    0    1
 -2        40       199       200      1383      1387      1385
 -1       235    8    0    1
 -2        42        41       201      1156      1388      1389
 -1       236    8    0    1
 -2        41       200       201      1386      1390      1388
 -1       237    8    0    1
 -2        43        42       202      1157      1391      1392
 -1       238    8    0    1
 -2        42       201       202      1389      1393      1391
 -1       239    8    0    1
 -2        44        43       203      1158      1394      1395
 -1       240    8    0    1
 -2        43       202       203      1392      1396      1394
 -1       241    8    0    1
 -2        45        44       204      1159      1397      1398
 -1       242    8    0    1
 -2        44       203       204      1395      1399      1397
 -1       243    8    0    1
 -2        46        45       205      1160      1400      1401
 -1       244    8    0    1
 -2        45       204       205      1398      1402      1400
 -1       245    8    0    1
 -2        47        46       206      1161      1403      1404
 -1       246    8    0    1
 -2        46       205       206      1401      1405      1403
 -1       247    8    0    1
 -2        48        47       207      1162      1406      1407
 -1       248    8    0    1
 -2        47       206       207      1404      1408      1406
 -1       249    8    0    1
 -2        49        48       208      1163      1409      1410
 -1       250    8    0    1
 -2        48       207       208      1407      1411      1409
 -1       251    8    0    1
 -2        50        49       209      1164      1412      1413
 -1       252    8    0    1
 -2        49       208       209      1410      1414      1412
 -1       253    8    0    1
 -2        51        50       210      1165      1415      1416
 -1       254    8    0    1
 -2        50       209       210      1413      1417      1415
 -1       255    8    0    1
 -2        52        51       211      1166      1418      1419
 -1       256    8    0    1
 -2        51       210       211      1416      1420      1418
 -1       257    8    0    1
 -2        53        52       212      1167      1421      1422
 -1       258    8    0    1
 -2        52       211       212      1419      1423      1421
 -1       259    8    0    1
 -2        54        53       213      1168      1424      1425
 -1       260    8    0    1
 -2        53       212       213      1422      1426      1424
 -1       261    8    0    1
 -2        55        54       214      1169      1427      1428
 -1       262    8    0    1
 -2        54       213       214      1425      1429      1427
 -1       263    8    0    1
 -2        56        55       215      1170      1430      1431
 -1       264    8    0    1
 -2        55       214       215      1428      1432      1430
 -1       265    8    0    1
 -2        57        56       216      1171      1433      1434
 -1       266    8    0    1
 -2        56       215       216      1431      1435      1433
 -1       267    8    0    1
 -2        58        57       217      1172      1436      1437
 -1       268    8    0    1
 -2        57       216       217      1434      1438      1436
 -1       269    8    0    1
 -2        59        58       218      1173      1439      1440
 -1       270    8    0    1
 -2        58       217       218      1437      1441      1439
 -1       271    8    0    1
 -2        60        59       219      1174      1442      1443
 -1       272    8    0    1
 -2        59       218       219      1440      1444      1442
 -1       273    8    0    1
 -2        61        60       220      1175      1445      1446
 -1       274    8    0    1
 -2        60       219       220      1443      1447      1445
 -1       275    8    0    1
 -2        62        61       221      1176      1448      1449
 -1       276    8    0    1
 -2        61       220       221      1446      1450      1448
 -1       277    8    0    1
 -2        63        62       222      1177      1451      1452
 -1       278    8    0    1
 -2        62       221       222      1449      1453      1451
 -1       279    8    0    1
 -2        64        63       223      1178      1454      1455
 -1       280    8    0    1
 -2        63       222       223      1452      1456      1454
 -1       281    8    0    1
 -2        65        64       224      1179      1457      1458
 -1       282    8    0    1
 -2        64       223       224      1455      1459      1457
 -1       283    8    0    1
 -2        66        65       225      1180      1460      1461
 -1       284    8    0    1
 -2        65       224       225      1458      1462      1460
 -1       285    8    0    1
 -2        67        66       226      1181      1463      1464
 -1       286    8    0    1
 -2        66       225       226      1461      1465      1463
 -1       287    8    0    1
 -2        68        67       227      1182      1466      1467
 -1       288    8    0    1
 -2        67       226       227      1464      1468      1466
 -1       289    8    0    1
 -2        69        68       228      1183      1469      1470
 -1       290    8    0    1
 -2        68       227       228      1467      1471      1469
 -1       291    8    0    1
 -2        70        69       229      1184      1472      1473
 -1       292    8    0    1
 -2        69       228       229      1470      1474      1472
 -1       293    8    0    1
 -2        71        70       230      1185      1475      1476
 -1       294    8    0    1
 -2        70       229       230      1473      1477      1475
 -1       295    8    0    1
 -2         4        71       138      1186      1478      1255
 -1       296    8    0    1
 -2       138        71       230      1478      1476      1479
 -1       297    8    0    1
 -2        72        73       231      1188      1480      1481
 -1       298    8    0    1
 -2        72       231       182      1481      1482      1334
 -1       299    8    0    1
 -2        73        74       232      1189      1483      1484
 -1       300    8    0    1
 -2        73       232       231      1484      1485      1480
 -1       301    8    0    1
 -2        74        75       233      1190      1486      1487
 -1       302    8    0    1
 -2        74       233       232      1487      1488      1483
 -1       303    8    0    1
 -2        75        76       234      1191      1489      1490
 -1       304    8    0    1
 -2        75       234       233      1490      1491      1486
 -1       305    8    0    1
 -2        76        77       235      1192      1492      1493
 -1       306    8    0    1
 -2        76       235       234      1493      1494      1489
 -1       307    8    0    1
 -2        77        78       236      1193      1495      1496
 -1       308    8    0    1
 -2        77       236       235      1496      1497      1492
 -1       309    8    0    1
 -2        78        79       237      1194      1498      1499
 -1       310    8    0    1
 -2        78       237       236      1499      1500      1495
 -1       311    8    0    1
 -2        79        80       238      1195      1501      1502
 -1       312    8    0    1
 -2        79       238       237      1502      1503      1498
 -1       313    8    0    1
 -2        80        81       239      1196      1504      1505
 -1       314    8    0    1
 -2        80       239       238      1505      1506      1501
 -1       315    8    0    1
 -2        81        82       240      1197      1507      1508
 -1       316    8    0    1
 -2        81       240       239      1508      1509      1504
 -1       317    8    0    1
 -2        82        83       241      1198      1510      1511
 -1       318    8    0    1
 -2        82       241       240      1511      1512      1507
 -1       319    8    0    1
 -2        83        84       242      1199      1513      1514
 -1       320    8    0    1
 -2        83       242       241      1514      1515      1510
 -1       321    8    0    1
 -2        84        85       243      1200      1516      1517
 -1       322    8    0    1
 -2        84       243       242      1517      1518      1513
 -1       323    8    0    1
 -2        85        86       244      1201      1519      1520
 -1       324    8    0    1
 -2        85       244       243      1520      1521      1516
 -1       325    8    0    1
 -2        86        87       245      1202      1522      1523
 -1       326    8    0    1
 -2        86       245       244      1523      1524      1519
 -1       327    8    0    1
 -2        87        88       246      1203      1525      1526
 -1       328    8    0    1
 -2        87       246       245      1526      1527      1522
 -1       329    8    0    1
 -2        88        89       247      1204      1528      1529
 -1       330    8    0    1
 -2        88       247       246      1529      1530      1525
 -1       331    8    0    1
 -2        89        90       248      1205      1531      1532
 -1       332    8    0    1
 -2        89       248       247      1532      1533      1528
 -1       333    8    0    1
 -2        90        91       249      1206      1534      1535
 -1       334    8    0    1
 -2        90       249       248      1535      1536      1531
 -1       335    8    0    1
 -2        91        92       250      1207      1537      1538
 -1       336    8    0    1
 -2        91       250       249      1538      1539      1534
 -1       337    8    0    1
 -2        92        93       251      1208      1540      1541
 -1       338    8    0    1
 -2        92       251       250      1541      1542      1537
 -1       339    8    0    1
 -2        93        94       252      1209      1543      1544
 -1       340    8    0    1
 -2        93       252       251      1544      1545      1540
 -1       341    8    0    1
 -2        94        95       253      1210      1546      1547
 -1       342    8    0    1
 -2        94       253       252      1547      1548      1543
 -1       343    8    0    1
 -2        95        96       254      1211      1549      1550
 -1       344    8    0    1
 -2        95       254       253      1550      1551      1546
 -1       345    8    0    1
 -2        96        97       255      1212      1552      1553
 -1       346    8    0    1
 -2        96       255       254      1553      1554      1549
 -1       347    8    0    1
 -2        97        98       256      1213      1555      1556
 -1       348    8    0    1
 -2        97       256       255      1556      1557      1552
 -1       349    8    0    1
 -2        98        99       257      1214      1558      1559
 -1       350    8    0    1
 -2        98       257       256      1559      1560      1555
 -1       351    8    0    1
 -2        99       100       258      1215      1561      1562
 -1       352    8    0    1
 -2        99       258       257      1562      1563      1558
 -1       353    8    0    1
 -2       100       101       259      1216      1564      1565
 -1       354    8    0    1
 -2       100       259       258      1565      1566      1561
 -1       355    8    0    1
 -2       101       102       260      1217      1567      1568
 -1       356    8    0    1
 -2       101       260       259      1568      1569      1564
 -1       357    8    0    1
 -2       102       103       261      1218      1570      1571
 -1       358    8    0    1
 -2       102       261       260      1571      1572      1567
 -1       359    8    0    1
 -2       103       104       262      1219      1573      1574
 -1       360    8    0    1
 -2       103       262       261      1574      1575      1570
 -1       361    8    0    1
 -2       104       105       263      1220      1576      1577
 -1       362    8    0    1
 -2       104       263       262      1577      1578      1573
 -1       363    8    0    1
 -2       105       106       264      1221      1579      1580
 -1       364    8    0    1
 -2       105       264       263      1580      1581      1576
 -1       365    8    0    1
 -2       106       107       265      1222      1582      1583
 -1       366    8    0    1
 -2       106       265       264      1583      1584      1579
 -1       367    8    0    1
 -2       107       108       266      1223      1585      1586
 -1       368    8    0    1
 -2       107       266       265      1586      1587      1582
 -1       369    8    0    1
 -2       108       109       267      1224      1588      1589
 -1       370    8    0    1
 -2       108       267       266      1589      1590      1585
 -1       371    8    0    1
 -2       109       110       268      1225      1591      1592
 -1       372    8    0    1
 -2       109       268       267      1592      1593      1588
 -1       373    8    0    1
 -2       110       111       269      1226      1594      1595
 -1       374    8    0    1
 -2       110       269       268      1595      1596      1591
 -1       375    8    0    1
 -2       111       112       270      1227      1597      1598
 -1       376    8    0    1
 -2       111       270       269      1598      1599      1594
 -1       377    8    0    1
 -2       112       113       271      1228      1600      1601
 -1       378    8    0    1
 -2       112       271       270      1601      1602      1597
 -1       379    8    0    1
 -2       113       114       272      1229      1603      1604
 -1       380    8    0    1
 -2       113       272       271      1604      1605      1600
 -1       381    8    0    1
 -2       114       115       273      1230      1606      1607
 -1       382    8    0    1
 -2       114       273       272      1607      1608      1603
 -1       383    8    0    1
 -2       115       116       274      1231      1609      1610
 -1       384    8    0    1
 -2       115       274       273      1610      1611      1606
 -1       385    8    0    1
 -2       116       117       275      1232      1612      1613
 -1       386    8    0    1
 -2       116       275       274      1613      1614      1609
 -1       387    8    0    1
 -2       117       118       276      1233      1615      1616
 -1       388    8    0    1
 -2       117       276       275      1616      1617      1612
 -1       389    8    0    1
 -2       118       119       277      1234      1618      1619
 -1       390    8    0    1
 -2       118       277       276      1619      1620      1615
 -1       391    8    0    1
 -2       119       120       278      1235      1621      1622
 -1       392    8    0    1
 -2       119       278       277      1622      1623      1618
 -1       393    8    0    1
 -2       120         3       121      1236      1237      1624
 -1       394    8    0    1
 -2       121       122       279      1238      1625      1626
 -1       395    8    0    1
 -2       122       123       280      1239      1627      1628
 -1       396    8    0    1
 -2       122       280       279      1628      1629      1625
 -1       397    8    0    1
 -2       123       124       281      1240      1630      1631
 -1       398    8    0    1
 -2       123       281       280      1631      1632      1627
 -1       399    8    0    1
 -2       124       125       282      1241      1633      1634
 -1       400    8    0    1
 -2       124       282       281      1634      1635      1630
 -1       401    8    0    1
 -2       125       126       283      1242      1636      1637
 -1       402    8    0    1
 -2       125       283       282      1637      1638      1633
 -1       403    8    0    1
 -2       126       127       284      1243      1639      1640
 -1       404    8    0    1
 -2       126       284       283      1640      1641      1636
 -1       405    8    0    1
 -2       127       128       285      1244      1642      1643
 -1       406    8    0    1
 -2       127       285       284      1643      1644      1639
 -1       407    8    0    1
 -2       128       129       286      1245      1645      1646
 -1       408    8    0    1
 -2       128       286       285      1646      1647      1642
 -1       409    8    0    1
 -2       129       130       287      1246      1648      1649
 -1       410    8    0    1
 -2       129       287       286      1649      1650      1645
 -1       411    8    0    1
 -2       130       131       288      1247      1651      1652
 -1       412    8    0    1
 -2       130       288       287      1652      1653      1648
 -1       413    8    0    1
 -2       131       132       289      1248      1654      1655
 -1       414    8    0    1
 -2       131       289       288      1655      1656      1651
 -1       415    8    0    1
 -2       132       133       290      1249      1657      1658
 -1       416    8    0    1
 -2       132       290       289      1658      1659      1654
 -1       417    8    0    1
 -2       133       134       291      1250      1660      1661
 -1       418    8    0    1
 -2       133       291       290      1661      1662      1657
 -1       419    8    0    1
 -2       134       135       292      1251      1663      1664
 -1       420    8    0    1
 -2       134       292       291      1664      1665      1660
 -1       421    8    0    1
 -2       135       136       293      1252      1666      1667
 -1       422    8    0    1
 -2       135       293       292      1667      1668      1663
 -1       423    8    0    1
 -2       136       137       294      1253      1669      1670
 -1       424    8    0    1
 -2       136       294       293      1670      1671      1666
 -1       425    8    0    1
 -2       137       138       295      1254      1672      1673
 -1       426    8    0    1
 -2       294       137       295      1669      1673      1674
 -1       427    8    0    1
 -2       138       230       295      1479      1675      1672
 -1       428    8    0    1
 -2         2       139       296      1256      1676      1677
 -1       429    8    0    1
 -2       139       140       297      1257      1678      1679
 -1       430    8    0    1
 -2       140       141       298      1258      1680      1681
 -1       431    8    0    1
 -2       141       142       299      1259      1682      1683
 -1       432    8    0    1
 -2       142       143       300      1260      1684      1685
 -1       433    8    0    1
 -2       143       144       301      1261      1686      1687
 -1       434    8    0    1
 -2       144       145       302      1262      1688      1689
 -1       435    8    0    1
 -2       145       146       303      1263      1690      1691
 -1       436    8    0    1
 -2       146       147       304      1264      1692      1693
 -1       437    8    0    1
 -2       147       148       305      1265      1694      1695
 -1       438    8    0    1
 -2       148       149       306      1266      1696      1697
 -1       439    8    0    1
 -2       149       150       307      1267      1698      1699
 -1       440    8    0    1
 -2       150       151       308      1268      1700      1701
 -1       441    8    0    1
 -2       151       152       309      1269      1702      1703
 -1       442    8    0    1
 -2       152       153       310      1270      1704      1705
 -1       443    8    0    1
 -2       153       154       311      1271      1706      1707
 -1       444    8    0    1
 -2       154       155       312      1272      1708      1709
 -1       445    8    0    1
 -2       155       156       313      1273      1710      1711
 -1       446    8    0    1
 -2       156       157       314      1274      1712      1713
 -1       447    8    0    1
 -2       157       158       315      1275      1714      1715
 -1       448    8    0    1
 -2       158       159       316      1276      1716      1717
 -1       449    8    0    1
 -2       159       160       317      1277      1718      1719
 -1       450    8    0    1
 -2       160       161       318      1278      1720      1721
 -1       451    8    0    1
 -2       161         1       319      1279      1722      1723
 -1       452    8    0    1
 -2         1       162       320      1280      1724      1725
 -1       453    8    0    1
 -2       162       163       321      1281      1726      1727
 -1       454    8    0    1
 -2       163       164       322      1282      1728      1729
 -1       455    8    0    1
 -2       164       165       323      1283      1730      1731
 -1       456    8    0    1
 -2       165       166       324      1284      1732      1733
 -1       457    8    0    1
 -2       165       324       323      1733      1734      1730
 -1       458    8    0    1
 -2       166         2       325      1285      1735      1736
 -1       459    8    0    1
 -2       299       142       300      1682      1685      1737
 -1       460    8    0    1
 -2       298       141       299      1680      1683      1738
 -1       461    8    0    1
 -2       120       121       278      1624      1739      1621
 -1       462    8    0    1
 -2       121       279       278      1626      1740      1739
 -1       463    8    0    1
 -2       296       139       297      1676      1679      1741
 -1       464    8    0    1
 -2       297       140       298      1678      1681      1742
 -1       465    8    0    1
 -2         2       296       325      1677      1743      1735
 -1       466    8    0    1
 -2       143       301       300      1687      1744      1684
 -1       467    8    0    1
 -2       144       302       301      1689      1745      1686
 -1       468    8    0    1
 -2       145       303       302      1691      1746      1688
 -1       469    8    0    1
 -2       146       304       303      1693      1747      1690
 -1       470    8    0    1
 -2       147       305       304      1695      1748      1692
 -1       471    8    0    1
 -2       148       306       305      1697      1749      1694
 -1       472    8    0    1
 -2       149       307       306      1699      1750      1696
 -1       473    8    0    1
 -2       150       308       307      1701      1751      1698
 -1       474    8    0    1
 -2       151       309       308      1703      1752      1700
 -1       475    8    0    1
 -2       152       310       309      1705      1753      1702
 -1       476    8    0    1
 -2       153       311       310      1707      1754      1704
 -1       477    8    0    1
 -2       154       312       311      1709      1755      1706
 -1       478    8    0    1
 -2       155       313       312      1711      1756      1708
 -1       479    8    0    1
 -2       156       314       313      1713      1757      1710
 -1       480    8    0    1
 -2       157       315       314      1715      1758      1712
 -1       481    8    0    1
 -2       158       316       315      1717      1759      1714
 -1       482    8    0    1
 -2       159       317       316      1719      1760      1716
 -1       483    8    0    1
 -2       160       318       317      1721      1761      1718
 -1       484    8    0    1
 -2       161       319       318      1723      1762      1720
 -1       485    8    0    1
 -2         1       320       319      1725      1763      1722
 -1       486    8    0    1
 -2       162       321       320      1727      1764      1724
 -1       487    8    0    1
 -2       163       322       321      1729      1765      1726
 -1       488    8    0    1
 -2       164       323       322      1731      1766      1728
 -1       489    8    0    1
 -2        23         7       167      1286      1288      1767
 -1       490    8    0    1
 -2       166       325       324      1736      1768      1732
 -1       491    8    0    1
 -2       168       169       326      1294      1769      1770
 -1       492    8    0    1
 -2       167       168       327      1291      1771      1772
 -1       493    8    0    1
 -2       168       326       327      1770      1773      1771
 -1       494    8    0    1
 -2       170       171       328      1300      1774      1775
 -1       495    8    0    1
 -2       171       172       329      1303      1776      1777
 -1       496    8    0    1
 -2       171       329       328      1777      1778      1774
 -1       497    8    0    1
 -2       172       173       330      1306      1779      1780
 -1       498    8    0    1
 -2       172       330       329      1780      1781      1776
 -1       499    8    0    1
 -2       173       174       331      1309      1782      1783
 -1       500    8    0    1
 -2       173       331       330      1783      1784      1779
 -1       501    8    0    1
 -2       174       175       332      1312      1785      1786
 -1       502    8    0    1
 -2       174       332       331      1786      1787      1782
 -1       503    8    0    1
 -2       175       176       333      1315      1788      1789
 -1       504    8    0    1
 -2       175       333       332      1789      1790      1785
 -1       505    8    0    1
 -2       176       177       334      1318      1791      1792
 -1       506    8    0    1
 -2       176       334       333      1792      1793      1788
 -1       507    8    0    1
 -2       177       178       335      1321      1794      1795
 -1       508    8    0    1
 -2       177       335       334      1795      1796      1791
 -1       509    8    0    1
 -2       178       179       336      1324      1797      1798
 -1       510    8    0    1
 -2       178       336       335      1798      1799      1794
 -1       511    8    0    1
 -2       179       180       337      1327      1800      1801
 -1       512    8    0    1
 -2       179       337       336      1801      1802      1797
 -1       513    8    0    1
 -2       180       181       338      1330      1803      1804
 -1       514    8    0    1
 -2       180       338       337      1804      1805      1800
 -1       515    8    0    1
 -2       181       182       339      1333      1806      1807
 -1       516    8    0    1
 -2       338       181       339      1803      1807      1808
 -1       517    8    0    1
 -2       182       231       339      1482      1809      1806
 -1       518    8    0    1
 -2       183        23       167      1335      1767      1810
 -1       519    8    0    1
 -2       231       232       340      1485      1811      1812
 -1       520    8    0    1
 -2       231       340       339      1812      1813      1809
 -1       521    8    0    1
 -2       324       325       341      1768      1814      1815
 -1       522    8    0    1
 -2       183       167       327      1810      1772      1816
 -1       523    8    0    1
 -2       185       184       342      1342      1817      1818
 -1       524    8    0    1
 -2       186       185       343      1345      1819      1820
 -1       525    8    0    1
 -2       185       342       343      1818      1821      1819
 -1       526    8    0    1
 -2       187       186       344      1348      1822      1823
 -1       527    8    0    1
 -2       186       343       344      1820      1824      1822
 -1       528    8    0    1
 -2       188       187       345      1351      1825      1826
 -1       529    8    0    1
 -2       187       344       345      1823      1827      1825
 -1       530    8    0    1
 -2       189       188       346      1354      1828      1829
 -1       531    8    0    1
 -2       188       345       346      1826      1830      1828
 -1       532    8    0    1
 -2       190       189       347      1357      1831      1832
 -1       533    8    0    1
 -2       189       346       347      1829      1833      1831
 -1       534    8    0    1
 -2       191       190       348      1360      1834      1835
 -1       535    8    0    1
 -2       190       347       348      1832      1836      1834
 -1       536    8    0    1
 -2       192       191       349      1363      1837      1838
 -1       537    8    0    1
 -2       191       348       349      1835      1839      1837
 -1       538    8    0    1
 -2       193       192       350      1366      1840      1841
 -1       539    8    0    1
 -2       192       349       350      1838      1842      1840
 -1       540    8    0    1
 -2       194       193       351      1369      1843      1844
 -1       541    8    0    1
 -2       193       350       351      1841      1845      1843
 -1       542    8    0    1
 -2       195       194       352      1372      1846      1847
 -1       543    8    0    1
 -2       194       351       352      1844      1848      1846
 -1       544    8    0    1
 -2       196       195       353      1375      1849      1850
 -1       545    8    0    1
 -2       195       352       353      1847      1851      1849
 -1       546    8    0    1
 -2       197       196       354      1378      1852      1853
 -1       547    8    0    1
 -2       196       353       354      1850      1854      1852
 -1       548    8    0    1
 -2       198       197       355      1381      1855      1856
 -1       549    8    0    1
 -2       197       354       355      1853      1857      1855
 -1       550    8    0    1
 -2       199       198       356      1384      1858      1859
 -1       551    8    0    1
 -2       198       355       356      1856      1860      1858
 -1       552    8    0    1
 -2       200       199       357      1387      1861      1862
 -1       553    8    0    1
 -2       199       356       357      1859      1863      1861
 -1       554    8    0    1
 -2       201       200       358      1390      1864      1865
 -1       555    8    0    1
 -2       200       357       358      1862      1866      1864
 -1       556    8    0    1
 -2       202       201       359      1393      1867      1868
 -1       557    8    0    1
 -2       201       358       359      1865      1869      1867
 -1       558    8    0    1
 -2       203       202       360      1396      1870      1871
 -1       559    8    0    1
 -2       202       359       360      1868      1872      1870
 -1       560    8    0    1
 -2       204       203       361      1399      1873      1874
 -1       561    8    0    1
 -2       203       360       361      1871      1875      1873
 -1       562    8    0    1
 -2       205       204       362      1402      1876      1877
 -1       563    8    0    1
 -2       204       361       362      1874      1878      1876
 -1       564    8    0    1
 -2       206       205       363      1405      1879      1880
 -1       565    8    0    1
 -2       205       362       363      1877      1881      1879
 -1       566    8    0    1
 -2       207       206       364      1408      1882      1883
 -1       567    8    0    1
 -2       206       363       364      1880      1884      1882
 -1       568    8    0    1
 -2       208       207       365      1411      1885      1886
 -1       569    8    0    1
 -2       207       364       365      1883      1887      1885
 -1       570    8    0    1
 -2       209       208       366      1414      1888      1889
 -1       571    8    0    1
 -2       208       365       366      1886      1890      1888
 -1       572    8    0    1
 -2       210       209       367      1417      1891      1892
 -1       573    8    0    1
 -2       209       366       367      1889      1893      1891
 -1       574    8    0    1
 -2       211       210       368      1420      1894      1895
 -1       575    8    0    1
 -2       210       367       368      1892      1896      1894
 -1       576    8    0    1
 -2       212       211       369      1423      1897      1898
 -1       577    8    0    1
 -2       211       368       369      1895      1899      1897
 -1       578    8    0    1
 -2       213       212       370      1426      1900      1901
 -1       579    8    0    1
 -2       212       369       370      1898      1902      1900
 -1       580    8    0    1
 -2       214       213       371      1429      1903      1904
 -1       581    8    0    1
 -2       213       370       371      1901      1905      1903
 -1       582    8    0    1
 -2       215       214       372      1432      1906      1907
 -1       583    8    0    1
 -2       214       371       372      1904      1908      1906
 -1       584    8    0    1
 -2       216       215       373      1435      1909      1910
 -1       585    8    0    1
 -2       215       372       373      1907      1911      1909
 -1       586    8    0    1
 -2       217       216       374      1438      1912      1913
 -1       587    8    0    1
 -2       216       373       374      1910      1914      1912
 -1       588    8    0    1
 -2       218       217       375      1441      1915      1916
 -1       589    8    0    1
 -2       217       374       375      1913      1917      1915
 -1       590    8    0    1
 -2       219       218       376      1444      1918      1919
 -1       591    8    0    1
 -2       218       375       376      1916      1920      1918
 -1       592    8    0    1
 -2       220       219       377      1447      1921      1922
 -1       593    8    0    1
 -2       219       376       377      1919      1923      1921
 -1       594    8    0    1
 -2       221       220       378      1450      1924      1925
 -1       595    8    0    1
 -2       220       377       378      1922      1926      1924
 -1       596    8    0    1
 -2       222       221       379      1453      1927      1928
 -1       597    8    0    1
 -2       221       378       379      1925      1929      1927
 -1       598    8    0    1
 -2       223       222       380      1456      1930      1931
 -1       599    8    0    1
 -2       222       379       380      1928      1932      1930
 -1       600    8    0    1
 -2       224       223       381      1459      1933      1934
 -1       601    8    0    1
 -2       223       380       381      1931      1935      1933
 -1       602    8    0    1
 -2       225       224       382      1462      1936      1937
 -1       603    8    0    1
 -2       224       381       382      1934      1938      1936
 -1       604    8    0    1
 -2       226       225       383      1465      1939      1940
 -1       605    8    0    1
 -2       225       382       383      1937      1941      1939
 -1       606    8    0    1
 -2       227       226       384      1468      1942      1943
 -1       607    8    0    1
 -2       226       383       384      1940      1944      1942
 -1       608    8    0    1
 -2       228       227       385      1471      1945      1946
 -1       609    8    0    1
 -2       227       384       385      1943      1947      1945
 -1       610    8    0    1
 -2       229       228       386      1474      1948      1949
 -1       611    8    0    1
 -2       228       385       386      1946      1950      1948
 -1       612    8    0    1
 -2       230       229       387      1477      1951      1952
 -1       613    8    0    1
 -2       295       230       387      1675      1952      1953
 -1       614    8    0    1
 -2       229       386       387      1949      1954      1951
 -1       615    8    0    1
 -2       232       233       388      1488      1955      1956
 -1       616    8    0    1
 -2       232       388       340      1956      1957      1811
 -1       617    8    0    1
 -2       233       234       389      1491      1958      1959
 -1       618    8    0    1
 -2       233       389       388      1959      1960      1955
 -1       619    8    0    1
 -2       234       235       390      1494      1961      1962
 -1       620    8    0    1
 -2       234       390       389      1962      1963      1958
 -1       621    8    0    1
 -2       235       236       391      1497      1964      1965
 -1       622    8    0    1
 -2       235       391       390      1965      1966      1961
 -1       623    8    0    1
 -2       236       237       392      1500      1967      1968
 -1       624    8    0    1
 -2       236       392       391      1968      1969      1964
 -1       625    8    0    1
 -2       237       238       393      1503      1970      1971
 -1       626    8    0    1
 -2       237       393       392      1971      1972      1967
 -1       627    8    0    1
 -2       238       239       394      1506      1973      1974
 -1       628    8    0    1
 -2       238       394       393      1974      1975      1970
 -1       629    8    0    1
 -2       239       240       395      1509      1976      1977
 -1       630    8    0    1
 -2       239       395       394      1977      1978      1973
 -1       631    8    0    1
 -2       240       241       396      1512      1979      1980
 -1       632    8    0    1
 -2       240       396       395      1980      1981      1976
 -1       633    8    0    1
 -2       241       242       397      1515      1982      1983
 -1       634    8    0    1
 -2       241       397       396      1983      1984      1979
 -1       635    8    0    1
 -2       242       243       398      1518      1985      1986
 -1       636    8    0    1
 -2       242       398       397      1986      1987      1982
 -1       637    8    0    1
 -2       243       244       399      1521      1988      1989
 -1       638    8    0    1
 -2       243       399       398      1989      1990      1985
 -1       639    8    0    1
 -2       244       245       400      1524      1991      1992
 -1       640    8    0    1
 -2       244       400       399      1992      1993      1988
 -1       641    8    0    1
 -2       245       246       401      1527      1994      1995
 -1       642    8    0    1
 -2       245       401       400      1995      1996      1991
 -1       643    8    0    1
 -2       246       247       402      1530      1997      1998
 -1       644    8    0    1
 -2       246       402       401      1998      1999      1994
 -1       645    8    0    1
 -2       247       248       403      1533      2000      2001
 -1       646    8    0    1
 -2       247       403       402      2001      2002      1997
 -1       647    8    0    1
 -2       248       249       404      1536      2003      2004
 -1       648    8    0    1
 -2       248       404       403      2004      2005      2000
 -1       649    8    0    1
 -2       249       250       405      1539      2006      2007
 -1       650    8    0    1
 -2       249       405       404      2007      2008      2003
 -1       651    8    0    1
 -2       250       251       406      1542      2009      2010
 -1       652    8    0    1
 -2       250       406       405      2010      2011      2006
 -1       653    8    0    1
 -2       251       252       407      1545      2012      2013
 -1       654    8    0    1
 -2       251       407       406      2013      2014      2009
 -1       655    8    0    1
 -2       252       253       408      1548      2015      2016
 -1       656    8    0    1
 -2       252       408       407      2016      2017      2012
 -1       657    8    0    1
 -2       253       254       409      1551      2018      2019
 -1       658    8    0    1
 -2       253       409       408      2019      2020      2015
 -1       659    8    0    1
 -2       254       255       410      1554      2021      2022
 -1       660    8    0    1
 -2       254       410       409      2022      2023      2018
 -1       661    8    0    1
 -2       255       256       411      1557      2024      2025
 -1       662    8    0    1
 -2       255       411       410      2025      2026      2021
 -1       663    8    0    1
 -2       256       257       412      1560      2027      2028
 -1       664    8    0    1
 -2       256       412       411      2028      2029      2024
 -1       665    8    0    1
 -2       257       258       413      1563      2030      2031
 -1       666    8    0    1
 -2       257       413       412      2031      2032      2027
 -1       667    8    0    1
 -2       258       259       414      1566      2033      2034
 -1       668    8    0    1
 -2       258       414       413      2034      2035      2030
 -1       669    8    0    1
 -2       259       260       415      1569      2036      2037
 -1       670    8    0    1
 -2       259       415       414      2037      2038      2033
 -1       671    8    0    1
 -2       260       261       416      1572      2039      2040
 -1       672    8    0    1
 -2       260       416       415      2040      2041      2036
 -1       673    8    0    1
 -2       261       262       417      1575      2042      2043
 -1       674    8    0    1
 -2       261       417       416      2043      2044      2039
 -1       675    8    0    1
 -2       262       263       418      1578      2045      2046
 -1       676    8    0    1
 -2       262       418       417      2046      2047      2042
 -1       677    8    0    1
 -2       263       264       419      1581      2048      2049
 -1       678    8    0    1
 -2       263       419       418      2049      2050      2045
 -1       679    8    0    1
 -2       264       265       420      1584      2051      2052
 -1       680    8    0    1
 -2       264       420       419      2052      2053      2048
 -1       681    8    0    1
 -2       265       266       421      1587      2054      2055
 -1       682    8    0    1
 -2       265       421       420      2055      2056      2051
 -1       683    8    0    1
 -2       266       267       422      1590      2057      2058
 -1       684    8    0    1
 -2       266       422       421      2058      2059      2054
 -1       685    8    0    1
 -2       267       268       423      1593      2060      2061
 -1       686    8    0    1
 -2       267       423       422      2061      2062      2057
 -1       687    8    0    1
 -2       268       269       424      1596      2063      2064
 -1       688    8    0    1
 -2       268       424       423      2064      2065      2060
 -1       689    8    0    1
 -2       269       270       425      1599      2066      2067
 -1       690    8    0    1
 -2       269       425       424      2067      2068      2063
 -1       691    8    0    1
 -2       270       271       426      1602      2069      2070
 -1       692    8    0    1
 -2       270       426       425      2070      2071      2066
 -1       693    8    0    1
 -2       271       272       427      1605      2072      2073
 -1       694    8    0    1
 -2       271       427       426      2073      2074      2069
 -1       695    8    0    1
 -2       272       273       428      1608      2075      2076
 -1       696    8    0    1
 -2       272       428       427      2076      2077      2072
 -1       697    8    0    1
 -2       273       274       429      1611      2078      2079
 -1       698    8    0    1
 -2       273       429       428      2079      2080      2075
 -1       699    8    0    1
 -2       274       275       430      1614      2081      2082
 -1       700    8    0    1
 -2       274       430       429      2082      2083      2078
 -1       701    8    0    1
 -2       275       276       431      1617      2084      2085
 -1       702    8    0    1
 -2       275       431       430      2085      2086      2081
 -1       703    8    0    1
 -2       276       277       432      1620      2087      2088
 -1       704    8    0    1
 -2       276       432       431      2088      2089      2084
 -1       705    8    0    1
 -2       277       278       433      1623      2090      2091
 -1       706    8    0    1
 -2       432       277       433      2087      2091      2092
 -1       707    8    0    1
 -2       278       279       433      1740      2093      2090
 -1       708    8    0    1
 -2       281       282       434      1635      2094      2095
 -1       709    8    0    1
 -2       280       281       435      1632      2096      2097
 -1       710    8    0    1
 -2       281       434       435      2095      2098      2096
 -1       711    8    0    1
 -2       279       280       436      1629      2099      2100
 -1       712    8    0    1
 -2       433       279       436      2093      2100      2101
 -1       713    8    0    1
 -2       280       435       436      2097      2102      2099
 -1       714    8    0    1
 -2       282       283       437      1638      2103      2104
 -1       715    8    0    1
 -2       282       437       434      2104      2105      2094
 -1       716    8    0    1
 -2       283       284       438      1641      2106      2107
 -1       717    8    0    1
 -2       283       438       437      2107      2108      2103
 -1       718    8    0    1
 -2       287       288       341      1653      2109      2110
 -1       719    8    0    1
 -2       289       290       439      1659      2111      2112
 -1       720    8    0    1
 -2       290       291       440      1662      2113      2114
 -1       721    8    0    1
 -2       291       292       441      1665      2115      2116
 -1       722    8    0    1
 -2       292       293       442      1668      2117      2118
 -1       723    8    0    1
 -2       292       442       441      2118      2119      2115
 -1       724    8    0    1
 -2       293       294       443      1671      2120      2121
 -1       725    8    0    1
 -2       293       443       442      2121      2122      2117
 -1       726    8    0    1
 -2       297       298       444      1742      2123      2124
 -1       727    8    0    1
 -2       296       297       445      1741      2125      2126
 -1       728    8    0    1
 -2       298       299       446      1738      2127      2128
 -1       729    8    0    1
 -2       323       324       447      1734      2129      2130
 -1       730    8    0    1
 -2       324       341       447      1815      2131      2129
 -1       731    8    0    1
 -2       300       301       448      1744      2132      2133
 -1       732    8    0    1
 -2       299       300       449      1737      2134      2135
 -1       733    8    0    1
 -2       169       170       450      1297      2136      2137
 -1       734    8    0    1
 -2       326       169       450      1769      2137      2138
 -1       735    8    0    1
 -2       170       328       450      1775      2139      2136
 -1       736    8    0    1
 -2       301       302       451      1745      2140      2141
 -1       737    8    0    1
 -2       302       303       452      1746      2142      2143
 -1       738    8    0    1
 -2       303       304       453      1747      2144      2145
 -1       739    8    0    1
 -2       304       305       454      1748      2146      2147
 -1       740    8    0    1
 -2       305       306       455      1749      2148      2149
 -1       741    8    0    1
 -2       305       455       454      2149      2150      2146
 -1       742    8    0    1
 -2       306       307       456      1750      2151      2152
 -1       743    8    0    1
 -2       307       308       457      1751      2153      2154
 -1       744    8    0    1
 -2       308       309       458      1752      2155      2156
 -1       745    8    0    1
 -2       309       310       459      1753      2157      2158
 -1       746    8    0    1
 -2       310       311       460      1754      2159      2160
 -1       747    8    0    1
 -2       311       312       461      1755      2161      2162
 -1       748    8    0    1
 -2       312       313       462      1756      2163      2164
 -1       749    8    0    1
 -2       313       314       463      1757      2165      2166
 -1       750    8    0    1
 -2       314       315       464      1758      2167      2168
 -1       751    8    0    1
 -2       315       316       465      1759      2169      2170
 -1       752    8    0    1
 -2       316       317       466      1760      2171      2172
 -1       753    8    0    1
 -2       317       318       467      1761      2173      2174
 -1       754    8    0    1
 -2       318       319       468      1762      2175      2176
 -1       755    8    0    1
 -2       319       320       469      1763      2177      2178
 -1       756    8    0    1
 -2       320       321       470      1764      2179      2180
 -1       757    8    0    1
 -2       320       470       469      2180      2181      2177
 -1       758    8    0    1
 -2       321       322       471      1765      2182      2183
 -1       759    8    0    1
 -2       322       323       472      1766      2184      2185
 -1       760    8    0    1
 -2       322       472       471      2185      2186      2182
 -1       761    8    0    1
 -2       300       448       449      2133      2187      2134
 -1       762    8    0    1
 -2       341       325       473      1814      2188      2189
 -1       763    8    0    1
 -2       287       341       473      2110      2189      2190
 -1       764    8    0    1
 -2       325       296       473      1743      2191      2188
 -1       765    8    0    1
 -2       184       183       327      1339      1816      2192
 -1       766    8    0    1
 -2       342       184       327      1817      2192      2193
 -1       767    8    0    1
 -2       440       291       441      2113      2116      2194
 -1       768    8    0    1
 -2       439       290       440      2111      2114      2195
 -1       769    8    0    1
 -2       341       288       447      2109      2196      2131
 -1       770    8    0    1
 -2       284       285       474      1644      2197      2198
 -1       771    8    0    1
 -2       285       286       445      1647      2199      2200
 -1       772    8    0    1
 -2       286       287       473      1650      2190      2201
 -1       773    8    0    1
 -2       288       289       447      1656      2202      2196
 -1       774    8    0    1
 -2       443       294       295      2120      1674      2203
 -1       775    8    0    1
 -2       444       298       446      2123      2128      2204
 -1       776    8    0    1
 -2       472       323       447      2184      2130      2205
 -1       777    8    0    1
 -2       470       321       471      2179      2183      2206
 -1       778    8    0    1
 -2       296       445       473      2126      2207      2191
 -1       779    8    0    1
 -2       468       319       469      2175      2178      2208
 -1       780    8    0    1
 -2       467       318       468      2173      2176      2209
 -1       781    8    0    1
 -2       466       317       467      2171      2174      2210
 -1       782    8    0    1
 -2       465       316       466      2169      2172      2211
 -1       783    8    0    1
 -2       464       315       465      2167      2170      2212
 -1       784    8    0    1
 -2       463       314       464      2165      2168      2213
 -1       785    8    0    1
 -2       462       313       463      2163      2166      2214
 -1       786    8    0    1
 -2       461       312       462      2161      2164      2215
 -1       787    8    0    1
 -2       460       311       461      2159      2162      2216
 -1       788    8    0    1
 -2       459       310       460      2157      2160      2217
 -1       789    8    0    1
 -2       458       309       459      2155      2158      2218
 -1       790    8    0    1
 -2       457       308       458      2153      2156      2219
 -1       791    8    0    1
 -2       455       306       475      2148      2220      2221
 -1       792    8    0    1
 -2       306       456       475      2152      2222      2220
 -1       793    8    0    1
 -2       453       304       454      2144      2147      2223
 -1       794    8    0    1
 -2       284       474       438      2198      2224      2106
 -1       795    8    0    1
 -2       446       299       449      2127      2135      2225
 -1       796    8    0    1
 -2       445       297       444      2125      2124      2226
 -1       797    8    0    1
 -2       448       301       451      2132      2141      2227
 -1       798    8    0    1
 -2       452       303       453      2142      2145      2228
 -1       799    8    0    1
 -2       302       452       451      2143      2229      2140
 -1       800    8    0    1
 -2       456       307       457      2151      2154      2230
 -1       801    8    0    1
 -2       445       286       473      2199      2201      2207
 -1       802    8    0    1
 -2       340       388       476      1957      2231      2232
 -1       803    8    0    1
 -2       329       330       477      1781      2233      2234
 -1       804    8    0    1
 -2       328       329       478      1778      2235      2236
 -1       805    8    0    1
 -2       329       477       478      2234      2237      2235
 -1       806    8    0    1
 -2       331       332       479      1787      2238      2239
 -1       807    8    0    1
 -2       332       333       480      1790      2240      2241
 -1       808    8    0    1
 -2       332       480       479      2241      2242      2238
 -1       809    8    0    1
 -2       333       334       481      1793      2243      2244
 -1       810    8    0    1
 -2       333       481       480      2244      2245      2240
 -1       811    8    0    1
 -2       334       335       482      1796      2246      2247
 -1       812    8    0    1
 -2       334       482       481      2247      2248      2243
 -1       813    8    0    1
 -2       335       336       483      1799      2249      2250
 -1       814    8    0    1
 -2       335       483       482      2250      2251      2246
 -1       815    8    0    1
 -2       336       337       484      1802      2252      2253
 -1       816    8    0    1
 -2       336       484       483      2253      2254      2249
 -1       817    8    0    1
 -2       343       342       485      1821      2255      2256
 -1       818    8    0    1
 -2       468       469       486      2208      2257      2258
 -1       819    8    0    1
 -2       442       443       487      2122      2259      2260
 -1       820    8    0    1
 -2       388       389       488      1960      2261      2262
 -1       821    8    0    1
 -2       388       488       476      2262      2263      2231
 -1       822    8    0    1
 -2       342       327       489      2193      2264      2265
 -1       823    8    0    1
 -2       485       342       489      2255      2265      2266
 -1       824    8    0    1
 -2       327       326       489      1773      2267      2264
 -1       825    8    0    1
 -2       344       343       490      1824      2268      2269
 -1       826    8    0    1
 -2       343       485       490      2256      2270      2268
 -1       827    8    0    1
 -2       345       344       491      1827      2271      2272
 -1       828    8    0    1
 -2       344       490       491      2269      2273      2271
 -1       829    8    0    1
 -2       346       345       492      1830      2274      2275
 -1       830    8    0    1
 -2       345       491       492      2272      2276      2274
 -1       831    8    0    1
 -2       347       346       493      1833      2277      2278
 -1       832    8    0    1
 -2       346       492       493      2275      2279      2277
 -1       833    8    0    1
 -2       348       347       494      1836      2280      2281
 -1       834    8    0    1
 -2       347       493       494      2278      2282      2280
 -1       835    8    0    1
 -2       349       348       495      1839      2283      2284
 -1       836    8    0    1
 -2       348       494       495      2281      2285      2283
 -1       837    8    0    1
 -2       350       349       496      1842      2286      2287
 -1       838    8    0    1
 -2       349       495       496      2284      2288      2286
 -1       839    8    0    1
 -2       351       350       497      1845      2289      2290
 -1       840    8    0    1
 -2       350       496       497      2287      2291      2289
 -1       841    8    0    1
 -2       352       351       498      1848      2292      2293
 -1       842    8    0    1
 -2       351       497       498      2290      2294      2292
 -1       843    8    0    1
 -2       353       352       499      1851      2295      2296
 -1       844    8    0    1
 -2       352       498       499      2293      2297      2295
 -1       845    8    0    1
 -2       354       353       500      1854      2298      2299
 -1       846    8    0    1
 -2       353       499       500      2296      2300      2298
 -1       847    8    0    1
 -2       355       354       501      1857      2301      2302
 -1       848    8    0    1
 -2       354       500       501      2299      2303      2301
 -1       849    8    0    1
 -2       356       355       502      1860      2304      2305
 -1       850    8    0    1
 -2       355       501       502      2302      2306      2304
 -1       851    8    0    1
 -2       357       356       503      1863      2307      2308
 -1       852    8    0    1
 -2       356       502       503      2305      2309      2307
 -1       853    8    0    1
 -2       358       357       504      1866      2310      2311
 -1       854    8    0    1
 -2       357       503       504      2308      2312      2310
 -1       855    8    0    1
 -2       359       358       505      1869      2313      2314
 -1       856    8    0    1
 -2       358       504       505      2311      2315      2313
 -1       857    8    0    1
 -2       360       359       506      1872      2316      2317
 -1       858    8    0    1
 -2       359       505       506      2314      2318      2316
 -1       859    8    0    1
 -2       361       360       507      1875      2319      2320
 -1       860    8    0    1
 -2       360       506       507      2317      2321      2319
 -1       861    8    0    1
 -2       362       361       508      1878      2322      2323
 -1       862    8    0    1
 -2       361       507       508      2320      2324      2322
 -1       863    8    0    1
 -2       363       362       509      1881      2325      2326
 -1       864    8    0    1
 -2       362       508       509      2323      2327      2325
 -1       865    8    0    1
 -2       364       363       510      1884      2328      2329
 -1       866    8    0    1
 -2       363       509       510      2326      2330      2328
 -1       867    8    0    1
 -2       365       364       511      1887      2331      2332
 -1       868    8    0    1
 -2       364       510       511      2329      2333      2331
 -1       869    8    0    1
 -2       366       365       512      1890      2334      2335
 -1       870    8    0    1
 -2       365       511       512      2332      2336      2334
 -1       871    8    0    1
 -2       367       366       513      1893      2337      2338
 -1       872    8    0    1
 -2       366       512       513      2335      2339      2337
 -1       873    8    0    1
 -2       368       367       514      1896      2340      2341
 -1       874    8    0    1
 -2       367       513       514      2338      2342      2340
 -1       875    8    0    1
 -2       369       368       515      1899      2343      2344
 -1       876    8    0    1
 -2       368       514       515      2341      2345      2343
 -1       877    8    0    1
 -2       370       369       516      1902      2346      2347
 -1       878    8    0    1
 -2       369       515       516      2344      2348      2346
 -1       879    8    0    1
 -2       371       370       517      1905      2349      2350
 -1       880    8    0    1
 -2       370       516       517      2347      2351      2349
 -1       881    8    0    1
 -2       372       371       518      1908      2352      2353
 -1       882    8    0    1
 -2       371       517       518      2350      2354      2352
 -1       883    8    0    1
 -2       373       372       519      1911      2355      2356
 -1       884    8    0    1
 -2       372       518       519      2353      2357      2355
 -1       885    8    0    1
 -2       374       373       520      1914      2358      2359
 -1       886    8    0    1
 -2       373       519       520      2356      2360      2358
 -1       887    8    0    1
 -2       375       374       521      1917      2361      2362
 -1       888    8    0    1
 -2       374       520       521      2359      2363      2361
 -1       889    8    0    1
 -2       376       375       522      1920      2364      2365
 -1       890    8    0    1
 -2       375       521       522      2362      2366      2364
 -1       891    8    0    1
 -2       377       376       523      1923      2367      2368
 -1       892    8    0    1
 -2       376       522       523      2365      2369      2367
 -1       893    8    0    1
 -2       378       377       524      1926      2370      2371
 -1       894    8    0    1
 -2       377       523       524      2368      2372      2370
 -1       895    8    0    1
 -2       379       378       525      1929      2373      2374
 -1       896    8    0    1
 -2       378       524       525      2371      2375      2373
 -1       897    8    0    1
 -2       380       379       526      1932      2376      2377
 -1       898    8    0    1
 -2       379       525       526      2374      2378      2376
 -1       899    8    0    1
 -2       381       380       527      1935      2379      2380
 -1       900    8    0    1
 -2       380       526       527      2377      2381      2379
 -1       901    8    0    1
 -2       382       381       528      1938      2382      2383
 -1       902    8    0    1
 -2       381       527       528      2380      2384      2382
 -1       903    8    0    1
 -2       383       382       529      1941      2385      2386
 -1       904    8    0    1
 -2       382       528       529      2383      2387      2385
 -1       905    8    0    1
 -2       384       383       530      1944      2388      2389
 -1       906    8    0    1
 -2       383       529       530      2386      2390      2388
 -1       907    8    0    1
 -2       385       384       531      1947      2391      2392
 -1       908    8    0    1
 -2       384       530       531      2389      2393      2391
 -1       909    8    0    1
 -2       386       385       532      1950      2394      2395
 -1       910    8    0    1
 -2       385       531       532      2392      2396      2394
 -1       911    8    0    1
 -2       390       391       533      1966      2397      2398
 -1       912    8    0    1
 -2       391       392       534      1969      2399      2400
 -1       913    8    0    1
 -2       391       534       533      2400      2401      2397
 -1       914    8    0    1
 -2       392       393       535      1972      2402      2403
 -1       915    8    0    1
 -2       392       535       534      2403      2404      2399
 -1       916    8    0    1
 -2       393       394       536      1975      2405      2406
 -1       917    8    0    1
 -2       393       536       535      2406      2407      2402
 -1       918    8    0    1
 -2       394       395       537      1978      2408      2409
 -1       919    8    0    1
 -2       394       537       536      2409      2410      2405
 -1       920    8    0    1
 -2       395       396       538      1981      2411      2412
 -1       921    8    0    1
 -2       395       538       537      2412      2413      2408
 -1       922    8    0    1
 -2       396       397       539      1984      2414      2415
 -1       923    8    0    1
 -2       396       539       538      2415      2416      2411
 -1       924    8    0    1
 -2       397       398       540      1987      2417      2418
 -1       925    8    0    1
 -2       397       540       539      2418      2419      2414
 -1       926    8    0    1
 -2       398       399       541      1990      2420      2421
 -1       927    8    0    1
 -2       398       541       540      2421      2422      2417
 -1       928    8    0    1
 -2       399       400       542      1993      2423      2424
 -1       929    8    0    1
 -2       399       542       541      2424      2425      2420
 -1       930    8    0    1
 -2       400       401       543      1996      2426      2427
 -1       931    8    0    1
 -2       400       543       542      2427      2428      2423
 -1       932    8    0    1
 -2       401       402       544      1999      2429      2430
 -1       933    8    0    1
 -2       401       544       543      2430      2431      2426
 -1       934    8    0    1
 -2       402       403       545      2002      2432      2433
 -1       935    8    0    1
 -2       402       545       544      2433      2434      2429
 -1       936    8    0    1
 -2       403       404       546      2005      2435      2436
 -1       937    8    0    1
 -2       403       546       545      2436      2437      2432
 -1       938    8    0    1
 -2       404       405       547      2008      2438      2439
 -1       939    8    0    1
 -2       404       547       546      2439      2440      2435
 -1       940    8    0    1
 -2       405       406       548      2011      2441      2442
 -1       941    8    0    1
 -2       405       548       547      2442      2443      2438
 -1       942    8    0    1
 -2       406       407       549      2014      2444      2445
 -1       943    8    0    1
 -2       406       549       548      2445      2446      2441
 -1       944    8    0    1
 -2       407       408       550      2017      2447      2448
 -1       945    8    0    1
 -2       407       550       549      2448      2449      2444
 -1       946    8    0    1
 -2       408       409       551      2020      2450      2451
 -1       947    8    0    1
 -2       408       551       550      2451      2452      2447
 -1       948    8    0    1
 -2       409       410       552      2023      2453      2454
 -1       949    8    0    1
 -2       409       552       551      2454      2455      2450
 -1       950    8    0    1
 -2       410       411       553      2026      2456      2457
 -1       951    8    0    1
 -2       410       553       552      2457      2458      2453
 -1       952    8    0    1
 -2       411       412       554      2029      2459      2460
 -1       953    8    0    1
 -2       411       554       553      2460      2461      2456
 -1       954    8    0    1
 -2       412       413       555      2032      2462      2463
 -1       955    8    0    1
 -2       412       555       554      2463      2464      2459
 -1       956    8    0    1
 -2       413       414       556      2035      2465      2466
 -1       957    8    0    1
 -2       413       556       555      2466      2467      2462
 -1       958    8    0    1
 -2       414       415       557      2038      2468      2469
 -1       959    8    0    1
 -2       414       557       556      2469      2470      2465
 -1       960    8    0    1
 -2       415       416       558      2041      2471      2472
 -1       961    8    0    1
 -2       415       558       557      2472      2473      2468
 -1       962    8    0    1
 -2       416       417       559      2044      2474      2475
 -1       963    8    0    1
 -2       416       559       558      2475      2476      2471
 -1       964    8    0    1
 -2       417       418       560      2047      2477      2478
 -1       965    8    0    1
 -2       417       560       559      2478      2479      2474
 -1       966    8    0    1
 -2       418       419       561      2050      2480      2481
 -1       967    8    0    1
 -2       418       561       560      2481      2482      2477
 -1       968    8    0    1
 -2       419       420       562      2053      2483      2484
 -1       969    8    0    1
 -2       419       562       561      2484      2485      2480
 -1       970    8    0    1
 -2       420       421       563      2056      2486      2487
 -1       971    8    0    1
 -2       420       563       562      2487      2488      2483
 -1       972    8    0    1
 -2       421       422       564      2059      2489      2490
 -1       973    8    0    1
 -2       421       564       563      2490      2491      2486
 -1       974    8    0    1
 -2       422       423       565      2062      2492      2493
 -1       975    8    0    1
 -2       422       565       564      2493      2494      2489
 -1       976    8    0    1
 -2       423       424       566      2065      2495      2496
 -1       977    8    0    1
 -2       423       566       565      2496      2497      2492
 -1       978    8    0    1
 -2       424       425       567      2068      2498      2499
 -1       979    8    0    1
 -2       424       567       566      2499      2500      2495
 -1       980    8    0    1
 -2       425       426       568      2071      2501      2502
 -1       981    8    0    1
 -2       425       568       567      2502      2503      2498
 -1       982    8    0    1
 -2       426       427       569      2074      2504      2505
 -1       983    8    0    1
 -2       426       569       568      2505      2506      2501
 -1       984    8    0    1
 -2       427       428       570      2077      2507      2508
 -1       985    8    0    1
 -2       427       570       569      2508      2509      2504
 -1       986    8    0    1
 -2       428       429       571      2080      2510      2511
 -1       987    8    0    1
 -2       428       571       570      2511      2512      2507
 -1       988    8    0    1
 -2       429       430       572      2083      2513      2514
 -1       989    8    0    1
 -2       429       572       571      2514      2515      2510
 -1       990    8    0    1
 -2       430       431       573      2086      2516      2517
 -1       991    8    0    1
 -2       430       573       572      2517      2518      2513
 -1       992    8    0    1
 -2       431       432       574      2089      2519      2520
 -1       993    8    0    1
 -2       431       574       573      2520      2521      2516
 -1       994    8    0    1
 -2       432       433       436      2092      2101      2522
 -1       995    8    0    1
 -2       435       434       575      2098      2523      2524
 -1       996    8    0    1
 -2       434       437       576      2105      2525      2526
 -1       997    8    0    1
 -2       434       576       575      2526      2527      2523
 -1       998    8    0    1
 -2       289       439       447      2112      2528      2202
 -1       999    8    0    1
 -2       443       295       387      2203      1953      2529
 -1      1000    8    0    1
 -2       439       440       577      2195      2530      2531
 -1      1001    8    0    1
 -2       441       442       578      2119      2532      2533
 -1      1002    8    0    1
 -2       442       487       578      2260      2534      2532
 -1      1003    8    0    1
 -2       389       390       579      1963      2535      2536
 -1      1004    8    0    1
 -2       390       533       579      2398      2537      2535
 -1      1005    8    0    1
 -2       440       441       580      2194      2538      2539
 -1      1006    8    0    1
 -2       441       578       580      2533      2540      2538
 -1      1007    8    0    1
 -2       470       471       577      2206      2541      2542
 -1      1008    8    0    1
 -2       453       454       581      2223      2543      2544
 -1      1009    8    0    1
 -2       448       451       582      2227      2545      2546
 -1      1010    8    0    1
 -2       330       331       583      1784      2547      2548
 -1      1011    8    0    1
 -2       477       330       583      2233      2548      2549
 -1      1012    8    0    1
 -2       331       479       583      2239      2550      2547
 -1      1013    8    0    1
 -2       451       452       584      2229      2551      2552
 -1      1014    8    0    1
 -2       454       455       585      2150      2553      2554
 -1      1015    8    0    1
 -2       457       458       586      2219      2555      2556
 -1      1016    8    0    1
 -2       458       459       587      2218      2557      2558
 -1      1017    8    0    1
 -2       458       587       586      2558      2559      2555
 -1      1018    8    0    1
 -2       459       460       588      2217      2560      2561
 -1      1019    8    0    1
 -2       460       461       589      2216      2562      2563
 -1      1020    8    0    1
 -2       461       462       590      2215      2564      2565
 -1      1021    8    0    1
 -2       462       463       591      2214      2566      2567
 -1      1022    8    0    1
 -2       463       464       592      2213      2568      2569
 -1      1023    8    0    1
 -2       464       465       593      2212      2570      2571
 -1      1024    8    0    1
 -2       465       466       594      2211      2572      2573
 -1      1025    8    0    1
 -2       466       467       595      2210      2574      2575
 -1      1026    8    0    1
 -2       467       468       596      2209      2576      2577
 -1      1027    8    0    1
 -2       469       470       597      2181      2578      2579
 -1      1028    8    0    1
 -2       449       448       598      2187      2580      2581
 -1      1029    8    0    1
 -2       339       340       599      1813      2582      2583
 -1      1030    8    0    1
 -2       338       339       599      1808      2583      2584
 -1      1031    8    0    1
 -2       340       476       599      2232      2585      2582
 -1      1032    8    0    1
 -2       456       457       600      2230      2586      2587
 -1      1033    8    0    1
 -2       452       453       601      2228      2588      2589
 -1      1034    8    0    1
 -2       451       584       582      2552      2590      2545
 -1      1035    8    0    1
 -2       328       478       602      2236      2591      2592
 -1      1036    8    0    1
 -2       328       602       450      2592      2593      2139
 -1      1037    8    0    1
 -2       440       580       577      2539      2594      2530
 -1      1038    8    0    1
 -2       337       338       599      1805      2584      2595
 -1      1039    8    0    1
 -2       600       457       586      2586      2556      2596
 -1      1040    8    0    1
 -2       468       486       596      2258      2597      2576
 -1      1041    8    0    1
 -2       389       579       488      2536      2598      2261
 -1      1042    8    0    1
 -2       489       326       450      2267      2138      2599
 -1      1043    8    0    1
 -2       439       577       471      2531      2541      2600
 -1      1044    8    0    1
 -2       432       436       574      2522      2601      2519
 -1      1045    8    0    1
 -2       437       438       449      2108      2602      2603
 -1      1046    8    0    1
 -2       581       454       585      2543      2554      2604
 -1      1047    8    0    1
 -2       436       435       574      2102      2605      2601
 -1      1048    8    0    1
 -2       584       452       601      2551      2589      2606
 -1      1049    8    0    1
 -2       446       449       438      2225      2602      2607
 -1      1050    8    0    1
 -2       474       285       445      2197      2200      2608
 -1      1051    8    0    1
 -2       337       599       484      2595      2609      2252
 -1      1052    8    0    1
 -2       453       581       601      2544      2610      2588
 -1      1053    8    0    1
 -2       456       600       603      2587      2611      2612
 -1      1054    8    0    1
 -2       456       603       475      2612      2613      2222
 -1      1055    8    0    1
 -2       598       448       582      2580      2546      2614
 -1      1056    8    0    1
 -2       595       467       596      2574      2577      2615
 -1      1057    8    0    1
 -2       594       466       595      2572      2575      2616
 -1      1058    8    0    1
 -2       593       465       594      2570      2573      2617
 -1      1059    8    0    1
 -2       592       464       593      2568      2571      2618
 -1      1060    8    0    1
 -2       591       463       592      2566      2569      2619
 -1      1061    8    0    1
 -2       590       462       591      2564      2567      2620
 -1      1062    8    0    1
 -2       589       461       590      2562      2565      2621
 -1      1063    8    0    1
 -2       587       459       604      2557      2622      2623
 -1      1064    8    0    1
 -2       459       588       604      2561      2624      2622
 -1      1065    8    0    1
 -2       443       387       605      2529      2625      2626
 -1      1066    8    0    1
 -2       487       443       605      2259      2626      2627
 -1      1067    8    0    1
 -2       387       386       605      1954      2628      2625
 -1      1068    8    0    1
 -2       585       455       606      2553      2629      2630
 -1      1069    8    0    1
 -2       455       475       606      2221      2631      2629
 -1      1070    8    0    1
 -2       437       449       598      2603      2581      2632
 -1      1071    8    0    1
 -2       605       386       532      2628      2395      2633
 -1      1072    8    0    1
 -2       439       471       472      2600      2186      2634
 -1      1073    8    0    1
 -2       486       469       597      2257      2579      2635
 -1      1074    8    0    1
 -2       574       435       575      2605      2524      2636
 -1      1075    8    0    1
 -2       438       474       446      2224      2637      2607
 -1      1076    8    0    1
 -2       588       460       589      2560      2563      2638
 -1      1077    8    0    1
 -2       480       481       607      2245      2639      2640
 -1      1078    8    0    1
 -2       479       480       608      2242      2641      2642
 -1      1079    8    0    1
 -2       480       607       608      2640      2643      2641
 -1      1080    8    0    1
 -2       482       483       609      2251      2644      2645
 -1      1081    8    0    1
 -2       483       484       610      2254      2646      2647
 -1      1082    8    0    1
 -2       483       610       609      2647      2648      2644
 -1      1083    8    0    1
 -2       601       581       611      2610      2649      2650
 -1      1084    8    0    1
 -2       490       485       612      2270      2651      2652
 -1      1085    8    0    1
 -2       476       488       613      2263      2653      2654
 -1      1086    8    0    1
 -2       535       536       614      2407      2655      2656
 -1      1087    8    0    1
 -2       491       490       615      2273      2657      2658
 -1      1088    8    0    1
 -2       490       612       615      2652      2659      2657
 -1      1089    8    0    1
 -2       492       491       616      2276      2660      2661
 -1      1090    8    0    1
 -2       491       615       616      2658      2662      2660
 -1      1091    8    0    1
 -2       493       492       617      2279      2663      2664
 -1      1092    8    0    1
 -2       492       616       617      2661      2665      2663
 -1      1093    8    0    1
 -2       494       493       618      2282      2666      2667
 -1      1094    8    0    1
 -2       493       617       618      2664      2668      2666
 -1      1095    8    0    1
 -2       495       494       619      2285      2669      2670
 -1      1096    8    0    1
 -2       494       618       619      2667      2671      2669
 -1      1097    8    0    1
 -2       496       495       620      2288      2672      2673
 -1      1098    8    0    1
 -2       495       619       620      2670      2674      2672
 -1      1099    8    0    1
 -2       497       496       621      2291      2675      2676
 -1      1100    8    0    1
 -2       496       620       621      2673      2677      2675
 -1      1101    8    0    1
 -2       498       497       622      2294      2678      2679
 -1      1102    8    0    1
 -2       497       621       622      2676      2680      2678
 -1      1103    8    0    1
 -2       499       498       623      2297      2681      2682
 -1      1104    8    0    1
 -2       498       622       623      2679      2683      2681
 -1      1105    8    0    1
 -2       500       499       624      2300      2684      2685
 -1      1106    8    0    1
 -2       499       623       624      2682      2686      2684
 -1      1107    8    0    1
 -2       501       500       625      2303      2687      2688
 -1      1108    8    0    1
 -2       500       624       625      2685      2689      2687
 -1      1109    8    0    1
 -2       502       501       626      2306      2690      2691
 -1      1110    8    0    1
 -2       501       625       626      2688      2692      2690
 -1      1111    8    0    1
 -2       503       502       627      2309      2693      2694
 -1      1112    8    0    1
 -2       502       626       627      2691      2695      2693
 -1      1113    8    0    1
 -2       504       503       628      2312      2696      2697
 -1      1114    8    0    1
 -2       503       627       628      2694      2698      2696
 -1      1115    8    0    1
 -2       505       504       629      2315      2699      2700
 -1      1116    8    0    1
 -2       504       628       629      2697      2701      2699
 -1      1117    8    0    1
 -2       506       505       630      2318      2702      2703
 -1      1118    8    0    1
 -2       505       629       630      2700      2704      2702
 -1      1119    8    0    1
 -2       507       506       631      2321      2705      2706
 -1      1120    8    0    1
 -2       506       630       631      2703      2707      2705
 -1      1121    8    0    1
 -2       508       507       632      2324      2708      2709
 -1      1122    8    0    1
 -2       507       631       632      2706      2710      2708
 -1      1123    8    0    1
 -2       509       508       633      2327      2711      2712
 -1      1124    8    0    1
 -2       508       632       633      2709      2713      2711
 -1      1125    8    0    1
 -2       510       509       634      2330      2714      2715
 -1      1126    8    0    1
 -2       509       633       634      2712      2716      2714
 -1      1127    8    0    1
 -2       511       510       635      2333      2717      2718
 -1      1128    8    0    1
 -2       510       634       635      2715      2719      2717
 -1      1129    8    0    1
 -2       512       511       636      2336      2720      2721
 -1      1130    8    0    1
 -2       511       635       636      2718      2722      2720
 -1      1131    8    0    1
 -2       513       512       637      2339      2723      2724
 -1      1132    8    0    1
 -2       512       636       637      2721      2725      2723
 -1      1133    8    0    1
 -2       514       513       638      2342      2726      2727
 -1      1134    8    0    1
 -2       513       637       638      2724      2728      2726
 -1      1135    8    0    1
 -2       515       514       639      2345      2729      2730
 -1      1136    8    0    1
 -2       514       638       639      2727      2731      2729
 -1      1137    8    0    1
 -2       516       515       640      2348      2732      2733
 -1      1138    8    0    1
 -2       515       639       640      2730      2734      2732
 -1      1139    8    0    1
 -2       517       516       641      2351      2735      2736
 -1      1140    8    0    1
 -2       516       640       641      2733      2737      2735
 -1      1141    8    0    1
 -2       518       517       642      2354      2738      2739
 -1      1142    8    0    1
 -2       517       641       642      2736      2740      2738
 -1      1143    8    0    1
 -2       519       518       643      2357      2741      2742
 -1      1144    8    0    1
 -2       518       642       643      2739      2743      2741
 -1      1145    8    0    1
 -2       520       519       644      2360      2744      2745
 -1      1146    8    0    1
 -2       519       643       644      2742      2746      2744
 -1      1147    8    0    1
 -2       521       520       645      2363      2747      2748
 -1      1148    8    0    1
 -2       520       644       645      2745      2749      2747
 -1      1149    8    0    1
 -2       522       521       646      2366      2750      2751
 -1      1150    8    0    1
 -2       521       645       646      2748      2752      2750
 -1      1151    8    0    1
 -2       523       522       647      2369      2753      2754
 -1      1152    8    0    1
 -2       522       646       647      2751      2755      2753
 -1      1153    8    0    1
 -2       524       523       648      2372      2756      2757
 -1      1154    8    0    1
 -2       523       647       648      2754      2758      2756
 -1      1155    8    0    1
 -2       525       524       649      2375      2759      2760
 -1      1156    8    0    1
 -2       524       648       649      2757      2761      2759
 -1      1157    8    0    1
 -2       526       525       650      2378      2762      2763
 -1      1158    8    0    1
 -2       525       649       650      2760      2764      2762
 -1      1159    8    0    1
 -2       527       526       651      2381      2765      2766
 -1      1160    8    0    1
 -2       526       650       651      2763      2767      2765
 -1      1161    8    0    1
 -2       528       527       652      2384      2768      2769
 -1      1162    8    0    1
 -2       527       651       652      2766      2770      2768
 -1      1163    8    0    1
 -2       529       528       653      2387      2771      2772
 -1      1164    8    0    1
 -2       528       652       653      2769      2773      2771
 -1      1165    8    0    1
 -2       530       529       654      2390      2774      2775
 -1      1166    8    0    1
 -2       529       653       654      2772      2776      2774
 -1      1167    8    0    1
 -2       531       530       655      2393      2777      2778
 -1      1168    8    0    1
 -2       530       654       655      2775      2779      2777
 -1      1169    8    0    1
 -2       532       531       656      2396      2780      2781
 -1      1170    8    0    1
 -2       531       655       656      2778      2782      2780
 -1      1171    8    0    1
 -2       534       535       657      2404      2783      2784
 -1      1172    8    0    1
 -2       535       614       657      2656      2785      2783
 -1      1173    8    0    1
 -2       533       534       658      2401      2786      2787
 -1      1174    8    0    1
 -2       534       657       658      2784      2788      2786
 -1      1175    8    0    1
 -2       536       537       659      2410      2789      2790
 -1      1176    8    0    1
 -2       536       659       614      2790      2791      2655
 -1      1177    8    0    1
 -2       537       538       660      2413      2792      2793
 -1      1178    8    0    1
 -2       537       660       659      2793      2794      2789
 -1      1179    8    0    1
 -2       538       539       661      2416      2795      2796
 -1      1180    8    0    1
 -2       538       661       660      2796      2797      2792
 -1      1181    8    0    1
 -2       539       540       662      2419      2798      2799
 -1      1182    8    0    1
 -2       539       662       661      2799      2800      2795
 -1      1183    8    0    1
 -2       540       541       663      2422      2801      2802
 -1      1184    8    0    1
 -2       540       663       662      2802      2803      2798
 -1      1185    8    0    1
 -2       541       542       664      2425      2804      2805
 -1      1186    8    0    1
 -2       541       664       663      2805      2806      2801
 -1      1187    8    0    1
 -2       542       543       665      2428      2807      2808
 -1      1188    8    0    1
 -2       542       665       664      2808      2809      2804
 -1      1189    8    0    1
 -2       543       544       666      2431      2810      2811
 -1      1190    8    0    1
 -2       543       666       665      2811      2812      2807
 -1      1191    8    0    1
 -2       544       545       667      2434      2813      2814
 -1      1192    8    0    1
 -2       544       667       666      2814      2815      2810
 -1      1193    8    0    1
 -2       545       546       668      2437      2816      2817
 -1      1194    8    0    1
 -2       545       668       667      2817      2818      2813
 -1      1195    8    0    1
 -2       546       547       669      2440      2819      2820
 -1      1196    8    0    1
 -2       546       669       668      2820      2821      2816
 -1      1197    8    0    1
 -2       547       548       670      2443      2822      2823
 -1      1198    8    0    1
 -2       547       670       669      2823      2824      2819
 -1      1199    8    0    1
 -2       548       549       671      2446      2825      2826
 -1      1200    8    0    1
 -2       548       671       670      2826      2827      2822
 -1      1201    8    0    1
 -2       549       550       672      2449      2828      2829
 -1      1202    8    0    1
 -2       549       672       671      2829      2830      2825
 -1      1203    8    0    1
 -2       550       551       673      2452      2831      2832
 -1      1204    8    0    1
 -2       550       673       672      2832      2833      2828
 -1      1205    8    0    1
 -2       551       552       674      2455      2834      2835
 -1      1206    8    0    1
 -2       551       674       673      2835      2836      2831
 -1      1207    8    0    1
 -2       552       553       675      2458      2837      2838
 -1      1208    8    0    1
 -2       552       675       674      2838      2839      2834
 -1      1209    8    0    1
 -2       553       554       676      2461      2840      2841
 -1      1210    8    0    1
 -2       553       676       675      2841      2842      2837
 -1      1211    8    0    1
 -2       554       555       677      2464      2843      2844
 -1      1212    8    0    1
 -2       554       677       676      2844      2845      2840
 -1      1213    8    0    1
 -2       555       556       678      2467      2846      2847
 -1      1214    8    0    1
 -2       555       678       677      2847      2848      2843
 -1      1215    8    0    1
 -2       556       557       679      2470      2849      2850
 -1      1216    8    0    1
 -2       556       679       678      2850      2851      2846
 -1      1217    8    0    1
 -2       557       558       680      2473      2852      2853
 -1      1218    8    0    1
 -2       557       680       679      2853      2854      2849
 -1      1219    8    0    1
 -2       558       559       681      2476      2855      2856
 -1      1220    8    0    1
 -2       558       681       680      2856      2857      2852
 -1      1221    8    0    1
 -2       559       560       682      2479      2858      2859
 -1      1222    8    0    1
 -2       559       682       681      2859      2860      2855
 -1      1223    8    0    1
 -2       560       561       683      2482      2861      2862
 -1      1224    8    0    1
 -2       560       683       682      2862      2863      2858
 -1      1225    8    0    1
 -2       561       562       684      2485      2864      2865
 -1      1226    8    0    1
 -2       561       684       683      2865      2866      2861
 -1      1227    8    0    1
 -2       562       563       685      2488      2867      2868
 -1      1228    8    0    1
 -2       562       685       684      2868      2869      2864
 -1      1229    8    0    1
 -2       563       564       686      2491      2870      2871
 -1      1230    8    0    1
 -2       563       686       685      2871      2872      2867
 -1      1231    8    0    1
 -2       564       565       687      2494      2873      2874
 -1      1232    8    0    1
 -2       564       687       686      2874      2875      2870
 -1      1233    8    0    1
 -2       565       566       688      2497      2876      2877
 -1      1234    8    0    1
 -2       565       688       687      2877      2878      2873
 -1      1235    8    0    1
 -2       566       567       689      2500      2879      2880
 -1      1236    8    0    1
 -2       566       689       688      2880      2881      2876
 -1      1237    8    0    1
 -2       567       568       690      2503      2882      2883
 -1      1238    8    0    1
 -2       567       690       689      2883      2884      2879
 -1      1239    8    0    1
 -2       568       569       691      2506      2885      2886
 -1      1240    8    0    1
 -2       568       691       690      2886      2887      2882
 -1      1241    8    0    1
 -2       569       570       692      2509      2888      2889
 -1      1242    8    0    1
 -2       569       692       691      2889      2890      2885
 -1      1243    8    0    1
 -2       570       571       693      2512      2891      2892
 -1      1244    8    0    1
 -2       570       693       692      2892      2893      2888
 -1      1245    8    0    1
 -2       571       572       611      2515      2894      2895
 -1      1246    8    0    1
 -2       573       574       575      2521      2636      2896
 -1      1247    8    0    1
 -2       576       437       598      2525      2632      2897
 -1      1248    8    0    1
 -2       447       439       472      2528      2634      2205
 -1      1249    8    0    1
 -2       581       585       694      2604      2898      2899
 -1      1250    8    0    1
 -2       581       694       611      2899      2900      2649
 -1      1251    8    0    1
 -2       446       474       444      2637      2901      2204
 -1      1252    8    0    1
 -2       484       599       476      2609      2585      2902
 -1      1253    8    0    1
 -2       578       487       695      2534      2903      2904
 -1      1254    8    0    1
 -2       470       577       580      2542      2594      2905
 -1      1255    8    0    1
 -2       579       533       696      2537      2906      2907
 -1      1256    8    0    1
 -2       533       658       696      2787      2908      2906
 -1      1257    8    0    1
 -2       584       601       697      2606      2909      2910
 -1      1258    8    0    1
 -2       488       579       698      2598      2911      2912
 -1      1259    8    0    1
 -2       613       488       698      2653      2912      2913
 -1      1260    8    0    1
 -2       579       696       698      2907      2914      2911
 -1      1261    8    0    1
 -2       598       582       576      2614      2915      2897
 -1      1262    8    0    1
 -2       595       596       699      2615      2916      2917
 -1      1263    8    0    1
 -2       576       582       700      2915      2918      2919
 -1      1264    8    0    1
 -2       576       700       575      2919      2920      2527
 -1      1265    8    0    1
 -2       489       450       602      2599      2593      2921
 -1      1266    8    0    1
 -2       596       486       701      2597      2922      2923
 -1      1267    8    0    1
 -2       481       482       702      2248      2924      2925
 -1      1268    8    0    1
 -2       607       481       702      2639      2925      2926
 -1      1269    8    0    1
 -2       482       609       702      2645      2927      2924
 -1      1270    8    0    1
 -2       478       477       703      2237      2928      2929
 -1      1271    8    0    1
 -2       586       587       704      2559      2930      2931
 -1      1272    8    0    1
 -2       589       590       705      2621      2932      2933
 -1      1273    8    0    1
 -2       590       591       706      2620      2934      2935
 -1      1274    8    0    1
 -2       591       592       707      2619      2936      2937
 -1      1275    8    0    1
 -2       592       593       708      2618      2938      2939
 -1      1276    8    0    1
 -2       593       594       709      2617      2940      2941
 -1      1277    8    0    1
 -2       594       595       710      2616      2942      2943
 -1      1278    8    0    1
 -2       600       586       711      2596      2944      2945
 -1      1279    8    0    1
 -2       586       704       711      2931      2946      2944
 -1      1280    8    0    1
 -2       588       589       712      2638      2947      2948
 -1      1281    8    0    1
 -2       589       705       712      2933      2949      2947
 -1      1282    8    0    1
 -2       582       584       700      2590      2950      2918
 -1      1283    8    0    1
 -2       602       478       713      2591      2951      2952
 -1      1284    8    0    1
 -2       478       703       713      2929      2953      2951
 -1      1285    8    0    1
 -2       479       608       714      2642      2954      2955
 -1      1286    8    0    1
 -2       479       714       583      2955      2956      2550
 -1      1287    8    0    1
 -2       601       611       697      2650      2957      2909
 -1      1288    8    0    1
 -2       584       697       700      2910      2958      2950
 -1      1289    8    0    1
 -2       585       606       715      2630      2959      2960
 -1      1290    8    0    1
 -2       585       715       694      2960      2961      2898
 -1      1291    8    0    1
 -2       572       573       716      2518      2962      2963
 -1      1292    8    0    1
 -2       710       595       699      2942      2917      2964
 -1      1293    8    0    1
 -2       709       594       710      2940      2943      2965
 -1      1294    8    0    1
 -2       707       592       717      2936      2966      2967
 -1      1295    8    0    1
 -2       592       708       717      2939      2968      2966
 -1      1296    8    0    1
 -2       706       591       707      2934      2937      2969
 -1      1297    8    0    1
 -2       489       602       718      2921      2970      2971
 -1      1298    8    0    1
 -2       485       489       718      2266      2971      2972
 -1      1299    8    0    1
 -2       602       713       718      2952      2973      2970
 -1      1300    8    0    1
 -2       484       476       613      2902      2654      2974
 -1      1301    8    0    1
 -2       580       578       701      2540      2975      2976
 -1      1302    8    0    1
 -2       603       600       719      2611      2977      2978
 -1      1303    8    0    1
 -2       600       711       719      2945      2979      2977
 -1      1304    8    0    1
 -2       578       695       701      2904      2980      2975
 -1      1305    8    0    1
 -2       705       590       706      2932      2935      2981
 -1      1306    8    0    1
 -2       604       588       720      2624      2982      2983
 -1      1307    8    0    1
 -2       588       712       720      2948      2984      2982
 -1      1308    8    0    1
 -2       487       605       656      2627      2985      2986
 -1      1309    8    0    1
 -2       477       583       721      2549      2987      2988
 -1      1310    8    0    1
 -2       703       477       721      2928      2988      2989
 -1      1311    8    0    1
 -2       583       714       721      2956      2990      2987
 -1      1312    8    0    1
 -2       484       613       610      2974      2991      2646
 -1      1313    8    0    1
 -2       606       475       603      2631      2613      2992
 -1      1314    8    0    1
 -2       612       485       718      2651      2972      2993
 -1      1315    8    0    1
 -2       704       587       722      2930      2994      2995
 -1      1316    8    0    1
 -2       587       604       722      2623      2996      2994
 -1      1317    8    0    1
 -2       708       593       709      2938      2941      2997
 -1      1318    8    0    1
 -2       609       610       723      2648      2998      2999
 -1      1319    8    0    1
 -2       444       474       445      2901      2608      2226
 -1      1320    8    0    1
 -2       614       659       724      2791      3000      3001
 -1      1321    8    0    1
 -2       616       615       725      2662      3002      3003
 -1      1322    8    0    1
 -2       617       616       726      2665      3004      3005
 -1      1323    8    0    1
 -2       616       725       726      3003      3006      3004
 -1      1324    8    0    1
 -2       618       617       727      2668      3007      3008
 -1      1325    8    0    1
 -2       617       726       727      3005      3009      3007
 -1      1326    8    0    1
 -2       619       618       728      2671      3010      3011
 -1      1327    8    0    1
 -2       618       727       728      3008      3012      3010
 -1      1328    8    0    1
 -2       620       619       729      2674      3013      3014
 -1      1329    8    0    1
 -2       619       728       729      3011      3015      3013
 -1      1330    8    0    1
 -2       621       620       730      2677      3016      3017
 -1      1331    8    0    1
 -2       620       729       730      3014      3018      3016
 -1      1332    8    0    1
 -2       622       621       731      2680      3019      3020
 -1      1333    8    0    1
 -2       621       730       731      3017      3021      3019
 -1      1334    8    0    1
 -2       623       622       732      2683      3022      3023
 -1      1335    8    0    1
 -2       622       731       732      3020      3024      3022
 -1      1336    8    0    1
 -2       624       623       733      2686      3025      3026
 -1      1337    8    0    1
 -2       623       732       733      3023      3027      3025
 -1      1338    8    0    1
 -2       625       624       734      2689      3028      3029
 -1      1339    8    0    1
 -2       624       733       734      3026      3030      3028
 -1      1340    8    0    1
 -2       626       625       735      2692      3031      3032
 -1      1341    8    0    1
 -2       625       734       735      3029      3033      3031
 -1      1342    8    0    1
 -2       627       626       736      2695      3034      3035
 -1      1343    8    0    1
 -2       626       735       736      3032      3036      3034
 -1      1344    8    0    1
 -2       628       627       737      2698      3037      3038
 -1      1345    8    0    1
 -2       627       736       737      3035      3039      3037
 -1      1346    8    0    1
 -2       629       628       738      2701      3040      3041
 -1      1347    8    0    1
 -2       628       737       738      3038      3042      3040
 -1      1348    8    0    1
 -2       630       629       739      2704      3043      3044
 -1      1349    8    0    1
 -2       629       738       739      3041      3045      3043
 -1      1350    8    0    1
 -2       631       630       740      2707      3046      3047
 -1      1351    8    0    1
 -2       630       739       740      3044      3048      3046
 -1      1352    8    0    1
 -2       632       631       741      2710      3049      3050
 -1      1353    8    0    1
 -2       631       740       741      3047      3051      3049
 -1      1354    8    0    1
 -2       633       632       742      2713      3052      3053
 -1      1355    8    0    1
 -2       632       741       742      3050      3054      3052
 -1      1356    8    0    1
 -2       634       633       743      2716      3055      3056
 -1      1357    8    0    1
 -2       633       742       743      3053      3057      3055
 -1      1358    8    0    1
 -2       635       634       744      2719      3058      3059
 -1      1359    8    0    1
 -2       634       743       744      3056      3060      3058
 -1      1360    8    0    1
 -2       636       635       745      2722      3061      3062
 -1      1361    8    0    1
 -2       635       744       745      3059      3063      3061
 -1      1362    8    0    1
 -2       637       636       746      2725      3064      3065
 -1      1363    8    0    1
 -2       636       745       746      3062      3066      3064
 -1      1364    8    0    1
 -2       638       637       747      2728      3067      3068
 -1      1365    8    0    1
 -2       637       746       747      3065      3069      3067
 -1      1366    8    0    1
 -2       639       638       748      2731      3070      3071
 -1      1367    8    0    1
 -2       638       747       748      3068      3072      3070
 -1      1368    8    0    1
 -2       640       639       749      2734      3073      3074
 -1      1369    8    0    1
 -2       639       748       749      3071      3075      3073
 -1      1370    8    0    1
 -2       641       640       750      2737      3076      3077
 -1      1371    8    0    1
 -2       640       749       750      3074      3078      3076
 -1      1372    8    0    1
 -2       642       641       751      2740      3079      3080
 -1      1373    8    0    1
 -2       641       750       751      3077      3081      3079
 -1      1374    8    0    1
 -2       643       642       752      2743      3082      3083
 -1      1375    8    0    1
 -2       642       751       752      3080      3084      3082
 -1      1376    8    0    1
 -2       644       643       753      2746      3085      3086
 -1      1377    8    0    1
 -2       643       752       753      3083      3087      3085
 -1      1378    8    0    1
 -2       645       644       754      2749      3088      3089
 -1      1379    8    0    1
 -2       644       753       754      3086      3090      3088
 -1      1380    8    0    1
 -2       646       645       755      2752      3091      3092
 -1      1381    8    0    1
 -2       645       754       755      3089      3093      3091
 -1      1382    8    0    1
 -2       647       646       756      2755      3094      3095
 -1      1383    8    0    1
 -2       646       755       756      3092      3096      3094
 -1      1384    8    0    1
 -2       648       647       757      2758      3097      3098
 -1      1385    8    0    1
 -2       647       756       757      3095      3099      3097
 -1      1386    8    0    1
 -2       649       648       758      2761      3100      3101
 -1      1387    8    0    1
 -2       648       757       758      3098      3102      3100
 -1      1388    8    0    1
 -2       650       649       759      2764      3103      3104
 -1      1389    8    0    1
 -2       649       758       759      3101      3105      3103
 -1      1390    8    0    1
 -2       651       650       760      2767      3106      3107
 -1      1391    8    0    1
 -2       650       759       760      3104      3108      3106
 -1      1392    8    0    1
 -2       652       651       761      2770      3109      3110
 -1      1393    8    0    1
 -2       651       760       761      3107      3111      3109
 -1      1394    8    0    1
 -2       653       652       762      2773      3112      3113
 -1      1395    8    0    1
 -2       652       761       762      3110      3114      3112
 -1      1396    8    0    1
 -2       655       654       763      2779      3115      3116
 -1      1397    8    0    1
 -2       656       655       764      2782      3117      3118
 -1      1398    8    0    1
 -2       657       614       765      2785      3119      3120
 -1      1399    8    0    1
 -2       614       724       765      3001      3121      3119
 -1      1400    8    0    1
 -2       658       657       766      2788      3122      3123
 -1      1401    8    0    1
 -2       657       765       766      3120      3124      3122
 -1      1402    8    0    1
 -2       716       573       575      2962      2896      3125
 -1      1403    8    0    1
 -2       660       661       767      2797      3126      3127
 -1      1404    8    0    1
 -2       661       662       768      2800      3128      3129
 -1      1405    8    0    1
 -2       661       768       767      3129      3130      3126
 -1      1406    8    0    1
 -2       662       663       769      2803      3131      3132
 -1      1407    8    0    1
 -2       662       769       768      3132      3133      3128
 -1      1408    8    0    1
 -2       663       664       770      2806      3134      3135
 -1      1409    8    0    1
 -2       663       770       769      3135      3136      3131
 -1      1410    8    0    1
 -2       664       665       771      2809      3137      3138
 -1      1411    8    0    1
 -2       664       771       770      3138      3139      3134
 -1      1412    8    0    1
 -2       665       666       772      2812      3140      3141
 -1      1413    8    0    1
 -2       665       772       771      3141      3142      3137
 -1      1414    8    0    1
 -2       666       667       773      2815      3143      3144
 -1      1415    8    0    1
 -2       666       773       772      3144      3145      3140
 -1      1416    8    0    1
 -2       667       668       774      2818      3146      3147
 -1      1417    8    0    1
 -2       667       774       773      3147      3148      3143
 -1      1418    8    0    1
 -2       668       669       775      2821      3149      3150
 -1      1419    8    0    1
 -2       668       775       774      3150      3151      3146
 -1      1420    8    0    1
 -2       669       670       776      2824      3152      3153
 -1      1421    8    0    1
 -2       669       776       775      3153      3154      3149
 -1      1422    8    0    1
 -2       670       671       777      2827      3155      3156
 -1      1423    8    0    1
 -2       670       777       776      3156      3157      3152
 -1      1424    8    0    1
 -2       671       672       778      2830      3158      3159
 -1      1425    8    0    1
 -2       671       778       777      3159      3160      3155
 -1      1426    8    0    1
 -2       672       673       779      2833      3161      3162
 -1      1427    8    0    1
 -2       672       779       778      3162      3163      3158
 -1      1428    8    0    1
 -2       673       674       780      2836      3164      3165
 -1      1429    8    0    1
 -2       673       780       779      3165      3166      3161
 -1      1430    8    0    1
 -2       674       675       781      2839      3167      3168
 -1      1431    8    0    1
 -2       674       781       780      3168      3169      3164
 -1      1432    8    0    1
 -2       675       676       782      2842      3170      3171
 -1      1433    8    0    1
 -2       675       782       781      3171      3172      3167
 -1      1434    8    0    1
 -2       676       677       783      2845      3173      3174
 -1      1435    8    0    1
 -2       676       783       782      3174      3175      3170
 -1      1436    8    0    1
 -2       677       678       784      2848      3176      3177
 -1      1437    8    0    1
 -2       677       784       783      3177      3178      3173
 -1      1438    8    0    1
 -2       678       679       785      2851      3179      3180
 -1      1439    8    0    1
 -2       678       785       784      3180      3181      3176
 -1      1440    8    0    1
 -2       679       680       786      2854      3182      3183
 -1      1441    8    0    1
 -2       679       786       785      3183      3184      3179
 -1      1442    8    0    1
 -2       680       681       787      2857      3185      3186
 -1      1443    8    0    1
 -2       680       787       786      3186      3187      3182
 -1      1444    8    0    1
 -2       681       682       788      2860      3188      3189
 -1      1445    8    0    1
 -2       681       788       787      3189      3190      3185
 -1      1446    8    0    1
 -2       682       683       789      2863      3191      3192
 -1      1447    8    0    1
 -2       682       789       788      3192      3193      3188
 -1      1448    8    0    1
 -2       683       684       790      2866      3194      3195
 -1      1449    8    0    1
 -2       683       790       789      3195      3196      3191
 -1      1450    8    0    1
 -2       684       685       791      2869      3197      3198
 -1      1451    8    0    1
 -2       684       791       790      3198      3199      3194
 -1      1452    8    0    1
 -2       685       686       792      2872      3200      3201
 -1      1453    8    0    1
 -2       685       792       791      3201      3202      3197
 -1      1454    8    0    1
 -2       686       687       793      2875      3203      3204
 -1      1455    8    0    1
 -2       686       793       792      3204      3205      3200
 -1      1456    8    0    1
 -2       687       688       794      2878      3206      3207
 -1      1457    8    0    1
 -2       687       794       793      3207      3208      3203
 -1      1458    8    0    1
 -2       688       689       795      2881      3209      3210
 -1      1459    8    0    1
 -2       688       795       794      3210      3211      3206
 -1      1460    8    0    1
 -2       689       690       796      2884      3212      3213
 -1      1461    8    0    1
 -2       689       796       795      3213      3214      3209
 -1      1462    8    0    1
 -2       690       691       797      2887      3215      3216
 -1      1463    8    0    1
 -2       690       797       796      3216      3217      3212
 -1      1464    8    0    1
 -2       692       693       715      2893      3218      3219
 -1      1465    8    0    1
 -2       571       611       693      2895      3220      2891
 -1      1466    8    0    1
 -2       710       699       763      2964      3221      3222
 -1      1467    8    0    1
 -2       615       612       798      2659      3223      3224
 -1      1468    8    0    1
 -2       615       798       725      3224      3225      3002
 -1      1469    8    0    1
 -2       470       580       597      2905      3226      2578
 -1      1470    8    0    1
 -2       696       658       799      2908      3227      3228
 -1      1471    8    0    1
 -2       658       766       799      3123      3229      3227
 -1      1472    8    0    1
 -2       705       706       800      2981      3230      3231
 -1      1473    8    0    1
 -2       699       596       701      2916      2923      3232
 -1      1474    8    0    1
 -2       659       660       801      2794      3233      3234
 -1      1475    8    0    1
 -2       659       801       724      3234      3235      3000
 -1      1476    8    0    1
 -2       711       704       802      2946      3236      3237
 -1      1477    8    0    1
 -2       606       603       803      2992      3238      3239
 -1      1478    8    0    1
 -2       608       607       804      2643      3240      3241
 -1      1479    8    0    1
 -2       610       613       805      2991      3242      3243
 -1      1480    8    0    1
 -2       723       610       805      2998      3243      3244
 -1      1481    8    0    1
 -2       613       698       805      2913      3245      3242
 -1      1482    8    0    1
 -2       708       709       806      2997      3246      3247
 -1      1483    8    0    1
 -2       706       707       807      2969      3248      3249
 -1      1484    8    0    1
 -2       709       710       808      2965      3250      3251
 -1      1485    8    0    1
 -2       806       709       808      3246      3251      3252
 -1      1486    8    0    1
 -2       710       763       808      3222      3253      3250
 -1      1487    8    0    1
 -2       712       705       809      2949      3254      3255
 -1      1488    8    0    1
 -2       612       718       810      2993      3256      3257
 -1      1489    8    0    1
 -2       718       713       810      2973      3258      3256
 -1      1490    8    0    1
 -2       714       608       811      2954      3259      3260
 -1      1491    8    0    1
 -2       608       804       811      3241      3261      3259
 -1      1492    8    0    1
 -2       597       580       486      3226      3262      2635
 -1      1493    8    0    1
 -2       580       701       486      2976      2922      3262
 -1      1494    8    0    1
 -2       715       606       812      2959      3263      3264
 -1      1495    8    0    1
 -2       692       715       812      3219      3264      3265
 -1      1496    8    0    1
 -2       606       803       812      3239      3266      3263
 -1      1497    8    0    1
 -2       653       762       806      3113      3267      3268
 -1      1498    8    0    1
 -2       763       654       808      3115      3269      3253
 -1      1499    8    0    1
 -2       654       653       808      2776      3270      3269
 -1      1500    8    0    1
 -2       797       691       803      3215      3271      3272
 -1      1501    8    0    1
 -2       691       692       812      2890      3265      3273
 -1      1502    8    0    1
 -2       693       611       694      3220      2900      3274
 -1      1503    8    0    1
 -2       712       809       813      3255      3275      3276
 -1      1504    8    0    1
 -2       712       813       720      3276      3277      2984
 -1      1505    8    0    1
 -2       611       572       716      2894      2963      3278
 -1      1506    8    0    1
 -2       660       767       801      3127      3279      3233
 -1      1507    8    0    1
 -2       711       802       814      3237      3280      3281
 -1      1508    8    0    1
 -2       711       814       719      3281      3282      2979
 -1      1509    8    0    1
 -2       803       603       719      3238      2978      3283
 -1      1510    8    0    1
 -2       698       696       815      2914      3284      3285
 -1      1511    8    0    1
 -2       805       698       815      3245      3285      3286
 -1      1512    8    0    1
 -2       696       799       815      3228      3287      3284
 -1      1513    8    0    1
 -2       695       487       656      2903      2986      3288
 -1      1514    8    0    1
 -2       800       706       807      3230      3249      3289
 -1      1515    8    0    1
 -2       700       697       716      2958      3290      3291
 -1      1516    8    0    1
 -2       699       701       764      3232      3292      3293
 -1      1517    8    0    1
 -2       708       806       816      3247      3294      3295
 -1      1518    8    0    1
 -2       717       708       816      2968      3295      3296
 -1      1519    8    0    1
 -2       806       762       816      3267      3297      3294
 -1      1520    8    0    1
 -2       808       653       806      3270      3268      3252
 -1      1521    8    0    1
 -2       695       656       764      3288      3118      3298
 -1      1522    8    0    1
 -2       693       694       715      3274      2961      3218
 -1      1523    8    0    1
 -2       716       697       611      3290      2957      3278
 -1      1524    8    0    1
 -2       764       701       695      3292      2980      3298
 -1      1525    8    0    1
 -2       802       704       722      3236      2995      3299
 -1      1526    8    0    1
 -2       702       609       817      2927      3300      3301
 -1      1527    8    0    1
 -2       609       723       817      2999      3302      3300
 -1      1528    8    0    1
 -2       703       721       818      2989      3303      3304
 -1      1529    8    0    1
 -2       705       800       809      3231      3305      3254
 -1      1530    8    0    1
 -2       798       612       810      3223      3257      3306
 -1      1531    8    0    1
 -2       722       604       819      2996      3307      3308
 -1      1532    8    0    1
 -2       604       720       819      2983      3309      3307
 -1      1533    8    0    1
 -2       607       702       820      2926      3310      3311
 -1      1534    8    0    1
 -2       804       607       820      3240      3311      3312
 -1      1535    8    0    1
 -2       702       817       820      3301      3313      3310
 -1      1536    8    0    1
 -2       807       707       821      3248      3314      3315
 -1      1537    8    0    1
 -2       707       717       821      2967      3316      3314
 -1      1538    8    0    1
 -2       605       532       656      2633      2781      2985
 -1      1539    8    0    1
 -2       713       703       822      2953      3317      3318
 -1      1540    8    0    1
 -2       810       713       822      3258      3318      3319
 -1      1541    8    0    1
 -2       703       818       822      3304      3320      3317
 -1      1542    8    0    1
 -2       726       725       823      3006      3321      3322
 -1      1543    8    0    1
 -2       655       763       764      3116      3323      3117
 -1      1544    8    0    1
 -2       797       803       719      3272      3283      3324
 -1      1545    8    0    1
 -2       727       726       824      3009      3325      3326
 -1      1546    8    0    1
 -2       726       823       824      3322      3327      3325
 -1      1547    8    0    1
 -2       728       727       825      3012      3328      3329
 -1      1548    8    0    1
 -2       727       824       825      3326      3330      3328
 -1      1549    8    0    1
 -2       729       728       826      3015      3331      3332
 -1      1550    8    0    1
 -2       728       825       826      3329      3333      3331
 -1      1551    8    0    1
 -2       730       729       827      3018      3334      3335
 -1      1552    8    0    1
 -2       729       826       827      3332      3336      3334
 -1      1553    8    0    1
 -2       731       730       828      3021      3337      3338
 -1      1554    8    0    1
 -2       730       827       828      3335      3339      3337
 -1      1555    8    0    1
 -2       732       731       829      3024      3340      3341
 -1      1556    8    0    1
 -2       731       828       829      3338      3342      3340
 -1      1557    8    0    1
 -2       733       732       830      3027      3343      3344
 -1      1558    8    0    1
 -2       732       829       830      3341      3345      3343
 -1      1559    8    0    1
 -2       734       733       831      3030      3346      3347
 -1      1560    8    0    1
 -2       733       830       831      3344      3348      3346
 -1      1561    8    0    1
 -2       735       734       832      3033      3349      3350
 -1      1562    8    0    1
 -2       734       831       832      3347      3351      3349
 -1      1563    8    0    1
 -2       736       735       833      3036      3352      3353
 -1      1564    8    0    1
 -2       735       832       833      3350      3354      3352
 -1      1565    8    0    1
 -2       737       736       834      3039      3355      3356
 -1      1566    8    0    1
 -2       736       833       834      3353      3357      3355
 -1      1567    8    0    1
 -2       738       737       835      3042      3358      3359
 -1      1568    8    0    1
 -2       737       834       835      3356      3360      3358
 -1      1569    8    0    1
 -2       739       738       836      3045      3361      3362
 -1      1570    8    0    1
 -2       738       835       836      3359      3363      3361
 -1      1571    8    0    1
 -2       740       739       837      3048      3364      3365
 -1      1572    8    0    1
 -2       739       836       837      3362      3366      3364
 -1      1573    8    0    1
 -2       741       740       838      3051      3367      3368
 -1      1574    8    0    1
 -2       740       837       838      3365      3369      3367
 -1      1575    8    0    1
 -2       742       741       839      3054      3370      3371
 -1      1576    8    0    1
 -2       741       838       839      3368      3372      3370
 -1      1577    8    0    1
 -2       743       742       840      3057      3373      3374
 -1      1578    8    0    1
 -2       742       839       840      3371      3375      3373
 -1      1579    8    0    1
 -2       744       743       841      3060      3376      3377
 -1      1580    8    0    1
 -2       743       840       841      3374      3378      3376
 -1      1581    8    0    1
 -2       745       744       842      3063      3379      3380
 -1      1582    8    0    1
 -2       744       841       842      3377      3381      3379
 -1      1583    8    0    1
 -2       746       745       843      3066      3382      3383
 -1      1584    8    0    1
 -2       745       842       843      3380      3384      3382
 -1      1585    8    0    1
 -2       747       746       844      3069      3385      3386
 -1      1586    8    0    1
 -2       746       843       844      3383      3387      3385
 -1      1587    8    0    1
 -2       748       747       845      3072      3388      3389
 -1      1588    8    0    1
 -2       747       844       845      3386      3390      3388
 -1      1589    8    0    1
 -2       749       748       846      3075      3391      3392
 -1      1590    8    0    1
 -2       748       845       846      3389      3393      3391
 -1      1591    8    0    1
 -2       750       749       847      3078      3394      3395
 -1      1592    8    0    1
 -2       749       846       847      3392      3396      3394
 -1      1593    8    0    1
 -2       751       750       848      3081      3397      3398
 -1      1594    8    0    1
 -2       750       847       848      3395      3399      3397
 -1      1595    8    0    1
 -2       752       751       849      3084      3400      3401
 -1      1596    8    0    1
 -2       751       848       849      3398      3402      3400
 -1      1597    8    0    1
 -2       753       752       850      3087      3403      3404
 -1      1598    8    0    1
 -2       752       849       850      3401      3405      3403
 -1      1599    8    0    1
 -2       754       753       851      3090      3406      3407
 -1      1600    8    0    1
 -2       753       850       851      3404      3408      3406
 -1      1601    8    0    1
 -2       755       754       852      3093      3409      3410
 -1      1602    8    0    1
 -2       754       851       852      3407      3411      3409
 -1      1603    8    0    1
 -2       756       755       853      3096      3412      3413
 -1      1604    8    0    1
 -2       755       852       853      3410      3414      3412
 -1      1605    8    0    1
 -2       757       756       854      3099      3415      3416
 -1      1606    8    0    1
 -2       756       853       854      3413      3417      3415
 -1      1607    8    0    1
 -2       758       757       855      3102      3418      3419
 -1      1608    8    0    1
 -2       757       854       855      3416      3420      3418
 -1      1609    8    0    1
 -2       759       758       856      3105      3421      3422
 -1      1610    8    0    1
 -2       758       855       856      3419      3423      3421
 -1      1611    8    0    1
 -2       760       759       857      3108      3424      3425
 -1      1612    8    0    1
 -2       759       856       857      3422      3426      3424
 -1      1613    8    0    1
 -2       761       760       821      3111      3427      3428
 -1      1614    8    0    1
 -2       762       761       816      3114      3429      3297
 -1      1615    8    0    1
 -2       803       691       812      3271      3273      3266
 -1      1616    8    0    1
 -2       766       765       858      3124      3430      3431
 -1      1617    8    0    1
 -2       769       770       859      3136      3432      3433
 -1      1618    8    0    1
 -2       768       769       860      3133      3434      3435
 -1      1619    8    0    1
 -2       769       859       860      3433      3436      3434
 -1      1620    8    0    1
 -2       767       768       861      3130      3437      3438
 -1      1621    8    0    1
 -2       768       860       861      3435      3439      3437
 -1      1622    8    0    1
 -2       770       771       862      3139      3440      3441
 -1      1623    8    0    1
 -2       770       862       859      3441      3442      3432
 -1      1624    8    0    1
 -2       771       772       863      3142      3443      3444
 -1      1625    8    0    1
 -2       771       863       862      3444      3445      3440
 -1      1626    8    0    1
 -2       772       773       864      3145      3446      3447
 -1      1627    8    0    1
 -2       772       864       863      3447      3448      3443
 -1      1628    8    0    1
 -2       773       774       865      3148      3449      3450
 -1      1629    8    0    1
 -2       773       865       864      3450      3451      3446
 -1      1630    8    0    1
 -2       774       775       866      3151      3452      3453
 -1      1631    8    0    1
 -2       774       866       865      3453      3454      3449
 -1      1632    8    0    1
 -2       775       776       867      3154      3455      3456
 -1      1633    8    0    1
 -2       775       867       866      3456      3457      3452
 -1      1634    8    0    1
 -2       776       777       868      3157      3458      3459
 -1      1635    8    0    1
 -2       776       868       867      3459      3460      3455
 -1      1636    8    0    1
 -2       777       778       869      3160      3461      3462
 -1      1637    8    0    1
 -2       777       869       868      3462      3463      3458
 -1      1638    8    0    1
 -2       778       779       870      3163      3464      3465
 -1      1639    8    0    1
 -2       778       870       869      3465      3466      3461
 -1      1640    8    0    1
 -2       779       780       871      3166      3467      3468
 -1      1641    8    0    1
 -2       779       871       870      3468      3469      3464
 -1      1642    8    0    1
 -2       780       781       872      3169      3470      3471
 -1      1643    8    0    1
 -2       780       872       871      3471      3472      3467
 -1      1644    8    0    1
 -2       781       782       873      3172      3473      3474
 -1      1645    8    0    1
 -2       781       873       872      3474      3475      3470
 -1      1646    8    0    1
 -2       782       783       874      3175      3476      3477
 -1      1647    8    0    1
 -2       782       874       873      3477      3478      3473
 -1      1648    8    0    1
 -2       783       784       875      3178      3479      3480
 -1      1649    8    0    1
 -2       783       875       874      3480      3481      3476
 -1      1650    8    0    1
 -2       784       785       876      3181      3482      3483
 -1      1651    8    0    1
 -2       784       876       875      3483      3484      3479
 -1      1652    8    0    1
 -2       785       786       877      3184      3485      3486
 -1      1653    8    0    1
 -2       785       877       876      3486      3487      3482
 -1      1654    8    0    1
 -2       786       787       878      3187      3488      3489
 -1      1655    8    0    1
 -2       786       878       877      3489      3490      3485
 -1      1656    8    0    1
 -2       787       788       879      3190      3491      3492
 -1      1657    8    0    1
 -2       787       879       878      3492      3493      3488
 -1      1658    8    0    1
 -2       788       789       880      3193      3494      3495
 -1      1659    8    0    1
 -2       788       880       879      3495      3496      3491
 -1      1660    8    0    1
 -2       789       790       881      3196      3497      3498
 -1      1661    8    0    1
 -2       789       881       880      3498      3499      3494
 -1      1662    8    0    1
 -2       790       791       882      3199      3500      3501
 -1      1663    8    0    1
 -2       790       882       881      3501      3502      3497
 -1      1664    8    0    1
 -2       791       792       883      3202      3503      3504
 -1      1665    8    0    1
 -2       791       883       882      3504      3505      3500
 -1      1666    8    0    1
 -2       792       793       884      3205      3506      3507
 -1      1667    8    0    1
 -2       792       884       883      3507      3508      3503
 -1      1668    8    0    1
 -2       793       794       885      3208      3509      3510
 -1      1669    8    0    1
 -2       793       885       884      3510      3511      3506
 -1      1670    8    0    1
 -2       794       795       886      3211      3512      3513
 -1      1671    8    0    1
 -2       794       886       885      3513      3514      3509
 -1      1672    8    0    1
 -2       795       796       887      3214      3515      3516
 -1      1673    8    0    1
 -2       795       887       886      3516      3517      3512
 -1      1674    8    0    1
 -2       763       699       764      3221      3293      3323
 -1      1675    8    0    1
 -2       799       766       888      3229      3518      3519
 -1      1676    8    0    1
 -2       766       858       888      3431      3520      3518
 -1      1677    8    0    1
 -2       721       714       889      2990      3521      3522
 -1      1678    8    0    1
 -2       721       889       818      3522      3523      3303
 -1      1679    8    0    1
 -2       809       800       890      3305      3524      3525
 -1      1680    8    0    1
 -2       724       801       891      3235      3526      3527
 -1      1681    8    0    1
 -2       801       767       892      3279      3528      3529
 -1      1682    8    0    1
 -2       767       861       892      3438      3530      3528
 -1      1683    8    0    1
 -2       765       724       893      3121      3531      3532
 -1      1684    8    0    1
 -2       724       891       893      3527      3533      3531
 -1      1685    8    0    1
 -2       797       719       814      3324      3282      3534
 -1      1686    8    0    1
 -2       800       807       894      3289      3535      3536
 -1      1687    8    0    1
 -2       798       810       895      3306      3537      3538
 -1      1688    8    0    1
 -2       810       822       895      3319      3539      3537
 -1      1689    8    0    1
 -2       802       722       896      3299      3540      3541
 -1      1690    8    0    1
 -2       799       888       897      3519      3542      3543
 -1      1691    8    0    1
 -2       822       818       898      3320      3544      3545
 -1      1692    8    0    1
 -2       822       898       895      3545      3546      3539
 -1      1693    8    0    1
 -2       821       760       857      3427      3425      3547
 -1      1694    8    0    1
 -2       898       818       899      3544      3548      3549
 -1      1695    8    0    1
 -2       818       889       899      3523      3550      3548
 -1      1696    8    0    1
 -2       765       893       858      3532      3551      3430
 -1      1697    8    0    1
 -2       796       797       814      3217      3534      3552
 -1      1698    8    0    1
 -2       796       814       887      3552      3553      3515
 -1      1699    8    0    1
 -2       813       809       900      3275      3554      3555
 -1      1700    8    0    1
 -2       809       890       900      3525      3556      3554
 -1      1701    8    0    1
 -2       891       801       892      3526      3529      3557
 -1      1702    8    0    1
 -2       725       798       895      3225      3538      3558
 -1      1703    8    0    1
 -2       815       799       897      3287      3543      3559
 -1      1704    8    0    1
 -2       714       811       889      3260      3560      3521
 -1      1705    8    0    1
 -2       720       813       901      3277      3561      3562
 -1      1706    8    0    1
 -2       720       901       819      3562      3563      3309
 -1      1707    8    0    1
 -2       890       800       894      3524      3536      3564
 -1      1708    8    0    1
 -2       817       723       902      3302      3565      3566
 -1      1709    8    0    1
 -2       725       895       823      3558      3567      3321
 -1      1710    8    0    1
 -2       896       722       819      3540      3308      3568
 -1      1711    8    0    1
 -2       804       820       903      3312      3569      3570
 -1      1712    8    0    1
 -2       804       903       904      3570      3571      3572
 -1      1713    8    0    1
 -2       804       904       811      3572      3573      3261
 -1      1714    8    0    1
 -2       895       898       823      3546      3574      3567
 -1      1715    8    0    1
 -2       824       823       905      3327      3575      3576
 -1      1716    8    0    1
 -2       825       824       906      3330      3577      3578
 -1      1717    8    0    1
 -2       824       905       906      3576      3579      3577
 -1      1718    8    0    1
 -2       826       825       907      3333      3580      3581
 -1      1719    8    0    1
 -2       825       906       907      3578      3582      3580
 -1      1720    8    0    1
 -2       827       826       908      3336      3583      3584
 -1      1721    8    0    1
 -2       826       907       908      3581      3585      3583
 -1      1722    8    0    1
 -2       828       827       909      3339      3586      3587
 -1      1723    8    0    1
 -2       827       908       909      3584      3588      3586
 -1      1724    8    0    1
 -2       829       828       910      3342      3589      3590
 -1      1725    8    0    1
 -2       828       909       910      3587      3591      3589
 -1      1726    8    0    1
 -2       830       829       911      3345      3592      3593
 -1      1727    8    0    1
 -2       829       910       911      3590      3594      3592
 -1      1728    8    0    1
 -2       831       830       912      3348      3595      3596
 -1      1729    8    0    1
 -2       830       911       912      3593      3597      3595
 -1      1730    8    0    1
 -2       832       831       913      3351      3598      3599
 -1      1731    8    0    1
 -2       831       912       913      3596      3600      3598
 -1      1732    8    0    1
 -2       833       832       914      3354      3601      3602
 -1      1733    8    0    1
 -2       832       913       914      3599      3603      3601
 -1      1734    8    0    1
 -2       834       833       915      3357      3604      3605
 -1      1735    8    0    1
 -2       833       914       915      3602      3606      3604
 -1      1736    8    0    1
 -2       835       834       916      3360      3607      3608
 -1      1737    8    0    1
 -2       834       915       916      3605      3609      3607
 -1      1738    8    0    1
 -2       836       835       917      3363      3610      3611
 -1      1739    8    0    1
 -2       835       916       917      3608      3612      3610
 -1      1740    8    0    1
 -2       837       836       918      3366      3613      3614
 -1      1741    8    0    1
 -2       836       917       918      3611      3615      3613
 -1      1742    8    0    1
 -2       838       837       919      3369      3616      3617
 -1      1743    8    0    1
 -2       837       918       919      3614      3618      3616
 -1      1744    8    0    1
 -2       839       838       920      3372      3619      3620
 -1      1745    8    0    1
 -2       838       919       920      3617      3621      3619
 -1      1746    8    0    1
 -2       840       839       921      3375      3622      3623
 -1      1747    8    0    1
 -2       839       920       921      3620      3624      3622
 -1      1748    8    0    1
 -2       841       840       922      3378      3625      3626
 -1      1749    8    0    1
 -2       840       921       922      3623      3627      3625
 -1      1750    8    0    1
 -2       842       841       923      3381      3628      3629
 -1      1751    8    0    1
 -2       841       922       923      3626      3630      3628
 -1      1752    8    0    1
 -2       843       842       924      3384      3631      3632
 -1      1753    8    0    1
 -2       842       923       924      3629      3633      3631
 -1      1754    8    0    1
 -2       844       843       925      3387      3634      3635
 -1      1755    8    0    1
 -2       843       924       925      3632      3636      3634
 -1      1756    8    0    1
 -2       845       844       926      3390      3637      3638
 -1      1757    8    0    1
 -2       844       925       926      3635      3639      3637
 -1      1758    8    0    1
 -2       846       845       927      3393      3640      3641
 -1      1759    8    0    1
 -2       845       926       927      3638      3642      3640
 -1      1760    8    0    1
 -2       847       846       928      3396      3643      3644
 -1      1761    8    0    1
 -2       846       927       928      3641      3645      3643
 -1      1762    8    0    1
 -2       848       847       929      3399      3646      3647
 -1      1763    8    0    1
 -2       847       928       929      3644      3648      3646
 -1      1764    8    0    1
 -2       849       848       930      3402      3649      3650
 -1      1765    8    0    1
 -2       848       929       930      3647      3651      3649
 -1      1766    8    0    1
 -2       850       849       931      3405      3652      3653
 -1      1767    8    0    1
 -2       849       930       931      3650      3654      3652
 -1      1768    8    0    1
 -2       851       850       932      3408      3655      3656
 -1      1769    8    0    1
 -2       850       931       932      3653      3657      3655
 -1      1770    8    0    1
 -2       852       851       933      3411      3658      3659
 -1      1771    8    0    1
 -2       851       932       933      3656      3660      3658
 -1      1772    8    0    1
 -2       853       852       934      3414      3661      3662
 -1      1773    8    0    1
 -2       852       933       934      3659      3663      3661
 -1      1774    8    0    1
 -2       854       853       935      3417      3664      3665
 -1      1775    8    0    1
 -2       853       934       935      3662      3666      3664
 -1      1776    8    0    1
 -2       855       854       936      3420      3667      3668
 -1      1777    8    0    1
 -2       854       935       936      3665      3669      3667
 -1      1778    8    0    1
 -2       856       855       937      3423      3670      3671
 -1      1779    8    0    1
 -2       855       936       937      3668      3672      3670
 -1      1780    8    0    1
 -2       816       761       821      3429      3428      3673
 -1      1781    8    0    1
 -2       862       863       938      3445      3674      3675
 -1      1782    8    0    1
 -2       716       575       700      3125      2920      3291
 -1      1783    8    0    1
 -2       859       862       939      3442      3676      3677
 -1      1784    8    0    1
 -2       862       938       939      3675      3678      3676
 -1      1785    8    0    1
 -2       861       860       940      3439      3679      3680
 -1      1786    8    0    1
 -2       863       864       941      3448      3681      3682
 -1      1787    8    0    1
 -2       863       941       938      3682      3683      3674
 -1      1788    8    0    1
 -2       864       865       942      3451      3684      3685
 -1      1789    8    0    1
 -2       864       942       941      3685      3686      3681
 -1      1790    8    0    1
 -2       865       866       943      3454      3687      3688
 -1      1791    8    0    1
 -2       865       943       942      3688      3689      3684
 -1      1792    8    0    1
 -2       866       867       944      3457      3690      3691
 -1      1793    8    0    1
 -2       866       944       943      3691      3692      3687
 -1      1794    8    0    1
 -2       867       868       945      3460      3693      3694
 -1      1795    8    0    1
 -2       867       945       944      3694      3695      3690
 -1      1796    8    0    1
 -2       868       869       946      3463      3696      3697
 -1      1797    8    0    1
 -2       868       946       945      3697      3698      3693
 -1      1798    8    0    1
 -2       869       870       947      3466      3699      3700
 -1      1799    8    0    1
 -2       869       947       946      3700      3701      3696
 -1      1800    8    0    1
 -2       870       871       948      3469      3702      3703
 -1      1801    8    0    1
 -2       870       948       947      3703      3704      3699
 -1      1802    8    0    1
 -2       871       872       949      3472      3705      3706
 -1      1803    8    0    1
 -2       871       949       948      3706      3707      3702
 -1      1804    8    0    1
 -2       872       873       950      3475      3708      3709
 -1      1805    8    0    1
 -2       872       950       949      3709      3710      3705
 -1      1806    8    0    1
 -2       873       874       951      3478      3711      3712
 -1      1807    8    0    1
 -2       873       951       950      3712      3713      3708
 -1      1808    8    0    1
 -2       874       875       952      3481      3714      3715
 -1      1809    8    0    1
 -2       874       952       951      3715      3716      3711
 -1      1810    8    0    1
 -2       875       876       953      3484      3717      3718
 -1      1811    8    0    1
 -2       875       953       952      3718      3719      3714
 -1      1812    8    0    1
 -2       876       877       954      3487      3720      3721
 -1      1813    8    0    1
 -2       876       954       953      3721      3722      3717
 -1      1814    8    0    1
 -2       877       878       955      3490      3723      3724
 -1      1815    8    0    1
 -2       877       955       954      3724      3725      3720
 -1      1816    8    0    1
 -2       878       879       956      3493      3726      3727
 -1      1817    8    0    1
 -2       878       956       955      3727      3728      3723
 -1      1818    8    0    1
 -2       879       880       957      3496      3729      3730
 -1      1819    8    0    1
 -2       879       957       956      3730      3731      3726
 -1      1820    8    0    1
 -2       880       881       958      3499      3732      3733
 -1      1821    8    0    1
 -2       880       958       957      3733      3734      3729
 -1      1822    8    0    1
 -2       881       882       959      3502      3735      3736
 -1      1823    8    0    1
 -2       881       959       958      3736      3737      3732
 -1      1824    8    0    1
 -2       882       883       960      3505      3738      3739
 -1      1825    8    0    1
 -2       882       960       959      3739      3740      3735
 -1      1826    8    0    1
 -2       883       884       961      3508      3741      3742
 -1      1827    8    0    1
 -2       883       961       960      3742      3743      3738
 -1      1828    8    0    1
 -2       884       885       962      3511      3744      3745
 -1      1829    8    0    1
 -2       884       962       961      3745      3746      3741
 -1      1830    8    0    1
 -2       885       886       963      3514      3747      3748
 -1      1831    8    0    1
 -2       885       963       962      3748      3749      3744
 -1      1832    8    0    1
 -2       886       887       964      3517      3750      3751
 -1      1833    8    0    1
 -2       886       964       963      3751      3752      3747
 -1      1834    8    0    1
 -2       892       861       965      3530      3753      3754
 -1      1835    8    0    1
 -2       861       940       965      3680      3755      3753
 -1      1836    8    0    1
 -2       897       888       966      3542      3756      3757
 -1      1837    8    0    1
 -2       888       858       967      3520      3758      3759
 -1      1838    8    0    1
 -2       888       967       966      3759      3760      3756
 -1      1839    8    0    1
 -2       902       723       815      3565      3761      3762
 -1      1840    8    0    1
 -2       802       896       968      3541      3763      3764
 -1      1841    8    0    1
 -2       891       892       969      3557      3765      3766
 -1      1842    8    0    1
 -2       892       965       969      3754      3767      3765
 -1      1843    8    0    1
 -2       860       859       970      3436      3768      3769
 -1      1844    8    0    1
 -2       859       939       970      3677      3770      3768
 -1      1845    8    0    1
 -2       858       893       971      3551      3771      3772
 -1      1846    8    0    1
 -2       858       971       967      3772      3773      3758
 -1      1847    8    0    1
 -2       890       894       972      3564      3774      3775
 -1      1848    8    0    1
 -2       893       891       973      3533      3776      3777
 -1      1849    8    0    1
 -2       971       893       973      3771      3777      3778
 -1      1850    8    0    1
 -2       891       969       973      3766      3779      3776
 -1      1851    8    0    1
 -2       820       817       974      3313      3780      3781
 -1      1852    8    0    1
 -2       903       820       974      3569      3781      3782
 -1      1853    8    0    1
 -2       817       902       974      3566      3783      3780
 -1      1854    8    0    1
 -2       723       805       815      3244      3286      3761
 -1      1855    8    0    1
 -2       894       807       821      3535      3315      3784
 -1      1856    8    0    1
 -2       815       897       902      3559      3785      3762
 -1      1857    8    0    1
 -2       902       897       975      3785      3786      3787
 -1      1858    8    0    1
 -2       974       902       975      3783      3787      3788
 -1      1859    8    0    1
 -2       897       966       975      3757      3789      3786
 -1      1860    8    0    1
 -2       889       811       976      3560      3790      3791
 -1      1861    8    0    1
 -2       899       889       976      3550      3791      3792
 -1      1862    8    0    1
 -2       811       904       976      3573      3793      3790
 -1      1863    8    0    1
 -2       896       819       977      3568      3794      3795
 -1      1864    8    0    1
 -2       823       898       978      3574      3796      3797
 -1      1865    8    0    1
 -2       905       823       978      3575      3797      3798
 -1      1866    8    0    1
 -2       898       899       978      3549      3799      3796
 -1      1867    8    0    1
 -2       894       821       857      3784      3547      3800
 -1      1868    8    0    1
 -2       894       857       972      3800      3801      3774
 -1      1869    8    0    1
 -2       968       896       964      3763      3802      3803
 -1      1870    8    0    1
 -2       857       856       972      3426      3804      3801
 -1      1871    8    0    1
 -2       977       819       901      3794      3563      3805
 -1      1872    8    0    1
 -2       890       972       979      3775      3806      3807
 -1      1873    8    0    1
 -2       890       979       900      3807      3808      3556
 -1      1874    8    0    1
 -2       940       860       970      3679      3769      3809
 -1      1875    8    0    1
 -2       813       900       980      3555      3810      3811
 -1      1876    8    0    1
 -2       813       980       901      3811      3812      3561
 -1      1877    8    0    1
 -2       814       802       968      3280      3764      3813
 -1      1878    8    0    1
 -2       972       856       937      3804      3671      3814
 -1      1879    8    0    1
 -2       717       816       821      3296      3673      3316
 -1      1880    8    0    1
 -2       903       974       981      3782      3815      3816
 -1      1881    8    0    1
 -2       974       975       981      3788      3817      3815
 -1      1882    8    0    1
 -2       904       903       982      3571      3818      3819
 -1      1883    8    0    1
 -2       903       981       982      3816      3820      3818
 -1      1884    8    0    1
 -2       896       977       964      3795      3821      3802
 -1      1885    8    0    1
 -2       907       906       983      3582      3822      3823
 -1      1886    8    0    1
 -2       908       907       984      3585      3824      3825
 -1      1887    8    0    1
 -2       907       983       984      3823      3826      3824
 -1      1888    8    0    1
 -2       909       908       985      3588      3827      3828
 -1      1889    8    0    1
 -2       908       984       985      3825      3829      3827
 -1      1890    8    0    1
 -2       910       909       986      3591      3830      3831
 -1      1891    8    0    1
 -2       909       985       986      3828      3832      3830
 -1      1892    8    0    1
 -2       911       910       987      3594      3833      3834
 -1      1893    8    0    1
 -2       910       986       987      3831      3835      3833
 -1      1894    8    0    1
 -2       912       911       988      3597      3836      3837
 -1      1895    8    0    1
 -2       911       987       988      3834      3838      3836
 -1      1896    8    0    1
 -2       913       912       989      3600      3839      3840
 -1      1897    8    0    1
 -2       912       988       989      3837      3841      3839
 -1      1898    8    0    1
 -2       914       913       990      3603      3842      3843
 -1      1899    8    0    1
 -2       913       989       990      3840      3844      3842
 -1      1900    8    0    1
 -2       915       914       991      3606      3845      3846
 -1      1901    8    0    1
 -2       914       990       991      3843      3847      3845
 -1      1902    8    0    1
 -2       916       915       992      3609      3848      3849
 -1      1903    8    0    1
 -2       915       991       992      3846      3850      3848
 -1      1904    8    0    1
 -2       917       916       993      3612      3851      3852
 -1      1905    8    0    1
 -2       916       992       993      3849      3853      3851
 -1      1906    8    0    1
 -2       918       917       994      3615      3854      3855
 -1      1907    8    0    1
 -2       917       993       994      3852      3856      3854
 -1      1908    8    0    1
 -2       919       918       995      3618      3857      3858
 -1      1909    8    0    1
 -2       918       994       995      3855      3859      3857
 -1      1910    8    0    1
 -2       920       919       996      3621      3860      3861
 -1      1911    8    0    1
 -2       919       995       996      3858      3862      3860
 -1      1912    8    0    1
 -2       921       920       997      3624      3863      3864
 -1      1913    8    0    1
 -2       920       996       997      3861      3865      3863
 -1      1914    8    0    1
 -2       922       921       998      3627      3866      3867
 -1      1915    8    0    1
 -2       921       997       998      3864      3868      3866
 -1      1916    8    0    1
 -2       923       922       999      3630      3869      3870
 -1      1917    8    0    1
 -2       922       998       999      3867      3871      3869
 -1      1918    8    0    1
 -2       924       923      1000      3633      3872      3873
 -1      1919    8    0    1
 -2       923       999      1000      3870      3874      3872
 -1      1920    8    0    1
 -2       925       924      1001      3636      3875      3876
 -1      1921    8    0    1
 -2       924      1000      1001      3873      3877      3875
 -1      1922    8    0    1
 -2       926       925      1002      3639      3878      3879
 -1      1923    8    0    1
 -2       925      1001      1002      3876      3880      3878
 -1      1924    8    0    1
 -2       927       926      1003      3642      3881      3882
 -1      1925    8    0    1
 -2       926      1002      1003      3879      3883      3881
 -1      1926    8    0    1
 -2       928       927      1004      3645      3884      3885
 -1      1927    8    0    1
 -2       927      1003      1004      3882      3886      3884
 -1      1928    8    0    1
 -2       929       928      1005      3648      3887      3888
 -1      1929    8    0    1
 -2       928      1004      1005      3885      3889      3887
 -1      1930    8    0    1
 -2       930       929      1006      3651      3890      3891
 -1      1931    8    0    1
 -2       929      1005      1006      3888      3892      3890
 -1      1932    8    0    1
 -2       931       930      1007      3654      3893      3894
 -1      1933    8    0    1
 -2       930      1006      1007      3891      3895      3893
 -1      1934    8    0    1
 -2       932       931      1008      3657      3896      3897
 -1      1935    8    0    1
 -2       931      1007      1008      3894      3898      3896
 -1      1936    8    0    1
 -2       933       932      1009      3660      3899      3900
 -1      1937    8    0    1
 -2       932      1008      1009      3897      3901      3899
 -1      1938    8    0    1
 -2       934       933      1010      3663      3902      3903
 -1      1939    8    0    1
 -2       933      1009      1010      3900      3904      3902
 -1      1940    8    0    1
 -2       935       934      1011      3666      3905      3906
 -1      1941    8    0    1
 -2       934      1010      1011      3903      3907      3905
 -1      1942    8    0    1
 -2       936       935      1012      3669      3908      3909
 -1      1943    8    0    1
 -2       935      1011      1012      3906      3910      3908
 -1      1944    8    0    1
 -2       937       936      1013      3672      3911      3912
 -1      1945    8    0    1
 -2       936      1012      1013      3909      3913      3911
 -1      1946    8    0    1
 -2       941       942      1014      3686      3914      3915
 -1      1947    8    0    1
 -2       942       943      1015      3689      3916      3917
 -1      1948    8    0    1
 -2       942      1015      1014      3917      3918      3914
 -1      1949    8    0    1
 -2       938       941      1016      3683      3919      3920
 -1      1950    8    0    1
 -2       941      1014      1016      3915      3921      3919
 -1      1951    8    0    1
 -2       943       944      1017      3692      3922      3923
 -1      1952    8    0    1
 -2       943      1017      1015      3923      3924      3916
 -1      1953    8    0    1
 -2       944       945      1018      3695      3925      3926
 -1      1954    8    0    1
 -2       944      1018      1017      3926      3927      3922
 -1      1955    8    0    1
 -2       945       946      1019      3698      3928      3929
 -1      1956    8    0    1
 -2       945      1019      1018      3929      3930      3925
 -1      1957    8    0    1
 -2       946       947      1020      3701      3931      3932
 -1      1958    8    0    1
 -2       946      1020      1019      3932      3933      3928
 -1      1959    8    0    1
 -2       947       948      1021      3704      3934      3935
 -1      1960    8    0    1
 -2       947      1021      1020      3935      3936      3931
 -1      1961    8    0    1
 -2       948       949      1022      3707      3937      3938
 -1      1962    8    0    1
 -2       948      1022      1021      3938      3939      3934
 -1      1963    8    0    1
 -2       949       950      1023      3710      3940      3941
 -1      1964    8    0    1
 -2       949      1023      1022      3941      3942      3937
 -1      1965    8    0    1
 -2       950       951      1024      3713      3943      3944
 -1      1966    8    0    1
 -2       950      1024      1023      3944      3945      3940
 -1      1967    8    0    1
 -2       951       952      1025      3716      3946      3947
 -1      1968    8    0    1
 -2       951      1025      1024      3947      3948      3943
 -1      1969    8    0    1
 -2       952       953      1026      3719      3949      3950
 -1      1970    8    0    1
 -2       952      1026      1025      3950      3951      3946
 -1      1971    8    0    1
 -2       953       954      1027      3722      3952      3953
 -1      1972    8    0    1
 -2       953      1027      1026      3953      3954      3949
 -1      1973    8    0    1
 -2       954       955      1028      3725      3955      3956
 -1      1974    8    0    1
 -2       954      1028      1027      3956      3957      3952
 -1      1975    8    0    1
 -2       955       956      1029      3728      3958      3959
 -1      1976    8    0    1
 -2       955      1029      1028      3959      3960      3955
 -1      1977    8    0    1
 -2       956       957      1030      3731      3961      3962
 -1      1978    8    0    1
 -2       956      1030      1029      3962      3963      3958
 -1      1979    8    0    1
 -2       957       958      1031      3734      3964      3965
 -1      1980    8    0    1
 -2       957      1031      1030      3965      3966      3961
 -1      1981    8    0    1
 -2       958       959      1032      3737      3967      3968
 -1      1982    8    0    1
 -2       958      1032      1031      3968      3969      3964
 -1      1983    8    0    1
 -2       959       960      1033      3740      3970      3971
 -1      1984    8    0    1
 -2       959      1033      1032      3971      3972      3967
 -1      1985    8    0    1
 -2       960       961      1034      3743      3973      3974
 -1      1986    8    0    1
 -2       960      1034      1033      3974      3975      3970
 -1      1987    8    0    1
 -2       961       962      1035      3746      3976      3977
 -1      1988    8    0    1
 -2       961      1035      1034      3977      3978      3973
 -1      1989    8    0    1
 -2       962       963      1036      3749      3979      3980
 -1      1990    8    0    1
 -2       962      1036      1035      3980      3981      3976
 -1      1991    8    0    1
 -2       963       964      1037      3752      3982      3983
 -1      1992    8    0    1
 -2      1036       963      1037      3979      3983      3984
 -1      1993    8    0    1
 -2       964       977      1037      3821      3985      3982
 -1      1994    8    0    1
 -2       965       940      1038      3755      3986      3987
 -1      1995    8    0    1
 -2       966       967      1039      3760      3988      3989
 -1      1996    8    0    1
 -2       940       970      1040      3809      3990      3991
 -1      1997    8    0    1
 -2       940      1040      1038      3991      3992      3986
 -1      1998    8    0    1
 -2       969       965      1041      3767      3993      3994
 -1      1999    8    0    1
 -2       965      1038      1041      3987      3995      3993
 -1      2000    8    0    1
 -2       972       937       979      3814      3996      3806
 -1      2001    8    0    1
 -2       939       938      1042      3678      3997      3998
 -1      2002    8    0    1
 -2       938      1016      1042      3920      3999      3997
 -1      2003    8    0    1
 -2       970       939      1043      3770      4000      4001
 -1      2004    8    0    1
 -2       939      1042      1043      3998      4002      4000
 -1      2005    8    0    1
 -2       977       901      1044      3805      4003      4004
 -1      2006    8    0    1
 -2      1037       977      1044      3985      4004      4005
 -1      2007    8    0    1
 -2       901       980      1044      3812      4006      4003
 -1      2008    8    0    1
 -2       967       971      1045      3773      4007      4008
 -1      2009    8    0    1
 -2       967      1045      1039      4008      4009      3988
 -1      2010    8    0    1
 -2       906       905      1046      3579      4010      4011
 -1      2011    8    0    1
 -2       906      1046       983      4011      4012      3822
 -1      2012    8    0    1
 -2       970      1043      1040      4001      4013      3990
 -1      2013    8    0    1
 -2       980       900      1047      3810      4014      4015
 -1      2014    8    0    1
 -2       900       979      1047      3808      4016      4014
 -1      2015    8    0    1
 -2       969      1041      1048      3994      4017      4018
 -1      2016    8    0    1
 -2       969      1048       973      4018      4019      3779
 -1      2017    8    0    1
 -2      1045       971      1049      4007      4020      4021
 -1      2018    8    0    1
 -2       971       973      1049      3778      4022      4020
 -1      2019    8    0    1
 -2       904       982      1050      3819      4023      4024
 -1      2020    8    0    1
 -2       904      1050       976      4024      4025      3793
 -1      2021    8    0    1
 -2       899       976      1051      3792      4026      4027
 -1      2022    8    0    1
 -2       978       899      1051      3799      4027      4028
 -1      2023    8    0    1
 -2       976      1050      1051      4025      4029      4026
 -1      2024    8    0    1
 -2       982       981      1052      3820      4030      4031
 -1      2025    8    0    1
 -2       979       937      1013      3996      3912      4032
 -1      2026    8    0    1
 -2      1046       905       978      4010      3798      4033
 -1      2027    8    0    1
 -2      1052       981      1039      4030      4034      4035
 -1      2028    8    0    1
 -2       981       975      1039      3817      4036      4034
 -1      2029    8    0    1
 -2      1015      1017      1053      3924      4037      4038
 -1      2030    8    0    1
 -2       985       984      1054      3829      4039      4040
 -1      2031    8    0    1
 -2       986       985      1055      3832      4041      4042
 -1      2032    8    0    1
 -2       985      1054      1055      4040      4043      4041
 -1      2033    8    0    1
 -2       987       986      1056      3835      4044      4045
 -1      2034    8    0    1
 -2       986      1055      1056      4042      4046      4044
 -1      2035    8    0    1
 -2       988       987      1057      3838      4047      4048
 -1      2036    8    0    1
 -2       987      1056      1057      4045      4049      4047
 -1      2037    8    0    1
 -2       989       988      1058      3841      4050      4051
 -1      2038    8    0    1
 -2       988      1057      1058      4048      4052      4050
 -1      2039    8    0    1
 -2       990       989      1059      3844      4053      4054
 -1      2040    8    0    1
 -2       989      1058      1059      4051      4055      4053
 -1      2041    8    0    1
 -2       991       990      1060      3847      4056      4057
 -1      2042    8    0    1
 -2       990      1059      1060      4054      4058      4056
 -1      2043    8    0    1
 -2       992       991      1061      3850      4059      4060
 -1      2044    8    0    1
 -2       991      1060      1061      4057      4061      4059
 -1      2045    8    0    1
 -2       993       992      1062      3853      4062      4063
 -1      2046    8    0    1
 -2       992      1061      1062      4060      4064      4062
 -1      2047    8    0    1
 -2       994       993      1063      3856      4065      4066
 -1      2048    8    0    1
 -2       993      1062      1063      4063      4067      4065
 -1      2049    8    0    1
 -2       995       994      1064      3859      4068      4069
 -1      2050    8    0    1
 -2       994      1063      1064      4066      4070      4068
 -1      2051    8    0    1
 -2       996       995      1065      3862      4071      4072
 -1      2052    8    0    1
 -2       995      1064      1065      4069      4073      4071
 -1      2053    8    0    1
 -2       997       996      1066      3865      4074      4075
 -1      2054    8    0    1
 -2       996      1065      1066      4072      4076      4074
 -1      2055    8    0    1
 -2       998       997      1067      3868      4077      4078
 -1      2056    8    0    1
 -2       997      1066      1067      4075      4079      4077
 -1      2057    8    0    1
 -2       999       998      1068      3871      4080      4081
 -1      2058    8    0    1
 -2       998      1067      1068      4078      4082      4080
 -1      2059    8    0    1
 -2      1000       999      1069      3874      4083      4084
 -1      2060    8    0    1
 -2       999      1068      1069      4081      4085      4083
 -1      2061    8    0    1
 -2      1001      1000      1070      3877      4086      4087
 -1      2062    8    0    1
 -2      1000      1069      1070      4084      4088      4086
 -1      2063    8    0    1
 -2      1002      1001      1071      3880      4089      4090
 -1      2064    8    0    1
 -2      1001      1070      1071      4087      4091      4089
 -1      2065    8    0    1
 -2      1003      1002      1072      3883      4092      4093
 -1      2066    8    0    1
 -2      1002      1071      1072      4090      4094      4092
 -1      2067    8    0    1
 -2      1004      1003      1073      3886      4095      4096
 -1      2068    8    0    1
 -2      1003      1072      1073      4093      4097      4095
 -1      2069    8    0    1
 -2      1005      1004      1074      3889      4098      4099
 -1      2070    8    0    1
 -2      1004      1073      1074      4096      4100      4098
 -1      2071    8    0    1
 -2      1006      1005      1075      3892      4101      4102
 -1      2072    8    0    1
 -2      1005      1074      1075      4099      4103      4101
 -1      2073    8    0    1
 -2      1007      1006      1076      3895      4104      4105
 -1      2074    8    0    1
 -2      1006      1075      1076      4102      4106      4104
 -1      2075    8    0    1
 -2      1008      1007      1077      3898      4107      4108
 -1      2076    8    0    1
 -2      1007      1076      1077      4105      4109      4107
 -1      2077    8    0    1
 -2      1009      1008      1078      3901      4110      4111
 -1      2078    8    0    1
 -2      1008      1077      1078      4108      4112      4110
 -1      2079    8    0    1
 -2      1010      1009      1079      3904      4113      4114
 -1      2080    8    0    1
 -2      1009      1078      1079      4111      4115      4113
 -1      2081    8    0    1
 -2      1011      1010      1080      3907      4116      4117
 -1      2082    8    0    1
 -2      1010      1079      1080      4114      4118      4116
 -1      2083    8    0    1
 -2      1012      1011      1081      3910      4119      4120
 -1      2084    8    0    1
 -2      1011      1080      1081      4117      4121      4119
 -1      2085    8    0    1
 -2      1013      1012      1082      3913      4122      4123
 -1      2086    8    0    1
 -2      1012      1081      1082      4120      4124      4122
 -1      2087    8    0    1
 -2      1014      1015      1083      3918      4125      4126
 -1      2088    8    0    1
 -2      1015      1053      1083      4038      4127      4125
 -1      2089    8    0    1
 -2      1016      1014      1084      3921      4128      4129
 -1      2090    8    0    1
 -2      1014      1083      1084      4126      4130      4128
 -1      2091    8    0    1
 -2      1018      1019      1085      3930      4131      4132
 -1      2092    8    0    1
 -2      1019      1020      1086      3933      4133      4134
 -1      2093    8    0    1
 -2      1019      1086      1085      4134      4135      4131
 -1      2094    8    0    1
 -2      1020      1021      1087      3936      4136      4137
 -1      2095    8    0    1
 -2      1020      1087      1086      4137      4138      4133
 -1      2096    8    0    1
 -2      1021      1022      1088      3939      4139      4140
 -1      2097    8    0    1
 -2      1021      1088      1087      4140      4141      4136
 -1      2098    8    0    1
 -2      1022      1023      1089      3942      4142      4143
 -1      2099    8    0    1
 -2      1022      1089      1088      4143      4144      4139
 -1      2100    8    0    1
 -2      1023      1024      1090      3945      4145      4146
 -1      2101    8    0    1
 -2      1023      1090      1089      4146      4147      4142
 -1      2102    8    0    1
 -2      1024      1025      1091      3948      4148      4149
 -1      2103    8    0    1
 -2      1024      1091      1090      4149      4150      4145
 -1      2104    8    0    1
 -2      1025      1026      1092      3951      4151      4152
 -1      2105    8    0    1
 -2      1025      1092      1091      4152      4153      4148
 -1      2106    8    0    1
 -2      1026      1027      1093      3954      4154      4155
 -1      2107    8    0    1
 -2      1026      1093      1092      4155      4156      4151
 -1      2108    8    0    1
 -2      1027      1028      1094      3957      4157      4158
 -1      2109    8    0    1
 -2      1027      1094      1093      4158      4159      4154
 -1      2110    8    0    1
 -2      1028      1029      1095      3960      4160      4161
 -1      2111    8    0    1
 -2      1028      1095      1094      4161      4162      4157
 -1      2112    8    0    1
 -2      1029      1030      1096      3963      4163      4164
 -1      2113    8    0    1
 -2      1029      1096      1095      4164      4165      4160
 -1      2114    8    0    1
 -2      1030      1031      1097      3966      4166      4167
 -1      2115    8    0    1
 -2      1030      1097      1096      4167      4168      4163
 -1      2116    8    0    1
 -2      1031      1032      1098      3969      4169      4170
 -1      2117    8    0    1
 -2      1031      1098      1097      4170      4171      4166
 -1      2118    8    0    1
 -2      1032      1033      1099      3972      4172      4173
 -1      2119    8    0    1
 -2      1032      1099      1098      4173      4174      4169
 -1      2120    8    0    1
 -2      1033      1034      1100      3975      4175      4176
 -1      2121    8    0    1
 -2      1033      1100      1099      4176      4177      4172
 -1      2122    8    0    1
 -2      1034      1035      1101      3978      4178      4179
 -1      2123    8    0    1
 -2      1034      1101      1100      4179      4180      4175
 -1      2124    8    0    1
 -2      1035      1036      1102      3981      4181      4182
 -1      2125    8    0    1
 -2      1035      1102      1101      4182      4183      4178
 -1      2126    8    0    1
 -2      1036      1037      1103      3984      4184      4185
 -1      2127    8    0    1
 -2      1102      1036      1103      4181      4185      4186
 -1      2128    8    0    1
 -2      1037      1044      1103      4005      4187      4184
 -1      2129    8    0    1
 -2       983      1046      1104      4012      4188      4189
 -1      2130    8    0    1
 -2      1039      1045      1105      4009      4190      4191
 -1      2131    8    0    1
 -2      1039      1105      1052      4191      4192      4035
 -1      2132    8    0    1
 -2       964       887       968      3750      4193      3803
 -1      2133    8    0    1
 -2      1038      1040      1106      3992      4194      4195
 -1      2134    8    0    1
 -2      1041      1038      1107      3995      4196      4197
 -1      2135    8    0    1
 -2      1038      1106      1107      4195      4198      4196
 -1      2136    8    0    1
 -2       814       968       887      3813      4193      3553
 -1      2137    8    0    1
 -2      1017      1018      1108      3927      4199      4200
 -1      2138    8    0    1
 -2      1018      1085      1108      4132      4201      4199
 -1      2139    8    0    1
 -2      1042      1016      1109      3999      4202      4203
 -1      2140    8    0    1
 -2      1016      1084      1109      4129      4204      4202
 -1      2141    8    0    1
 -2       979      1013      1047      4032      4205      4016
 -1      2142    8    0    1
 -2      1043      1042      1110      4002      4206      4207
 -1      2143    8    0    1
 -2      1042      1109      1110      4203      4208      4206
 -1      2144    8    0    1
 -2       984       983      1111      3826      4209      4210
 -1      2145    8    0    1
 -2       983      1104      1111      4189      4211      4209
 -1      2146    8    0    1
 -2       982      1052      1112      4031      4212      4213
 -1      2147    8    0    1
 -2      1040      1043      1113      4013      4214      4215
 -1      2148    8    0    1
 -2      1043      1110      1113      4207      4216      4214
 -1      2149    8    0    1
 -2      1053      1017      1108      4037      4200      4217
 -1      2150    8    0    1
 -2      1013      1082      1047      4123      4218      4205
 -1      2151    8    0    1
 -2       984      1111      1054      4210      4219      4039
 -1      2152    8    0    1
 -2       982      1112      1050      4213      4220      4023
 -1      2153    8    0    1
 -2      1048      1041      1114      4017      4221      4222
 -1      2154    8    0    1
 -2      1041      1107      1114      4197      4223      4221
 -1      2155    8    0    1
 -2      1104      1046      1115      4188      4224      4225
 -1      2156    8    0    1
 -2      1105      1045      1116      4190      4226      4227
 -1      2157    8    0    1
 -2      1045      1049      1116      4021      4228      4226
 -1      2158    8    0    1
 -2      1049       973      1048      4022      4019      4229
 -1      2159    8    0    1
 -2      1052      1105      1112      4192      4230      4212
 -1      2160    8    0    1
 -2      1106      1040      1113      4194      4215      4231
 -1      2161    8    0    1
 -2       966      1039       975      3989      4036      3789
 -1      2162    8    0    1
 -2       980      1047      1117      4015      4232      4233
 -1      2163    8    0    1
 -2      1044       980      1117      4006      4233      4234
 -1      2164    8    0    1
 -2      1047      1082      1117      4218      4235      4232
 -1      2165    8    0    1
 -2       978      1051      1046      4028      4236      4033
 -1      2166    8    0    1
 -2      1115      1046      1051      4224      4236      4237
 -1      2167    8    0    1
 -2      1056      1055      1107      4046      4238      4239
 -1      2168    8    0    1
 -2      1057      1056      1106      4049      4240      4241
 -1      2169    8    0    1
 -2      1058      1057      1113      4052      4242      4243
 -1      2170    8    0    1
 -2      1059      1058      1110      4055      4244      4245
 -1      2171    8    0    1
 -2      1060      1059      1109      4058      4246      4247
 -1      2172    8    0    1
 -2      1061      1060      1084      4061      4248      4249
 -1      2173    8    0    1
 -2      1062      1061      1083      4064      4250      4251
 -1      2174    8    0    1
 -2      1063      1062      1053      4067      4252      4253
 -1      2175    8    0    1
 -2      1064      1063      1108      4070      4254      4255
 -1      2176    8    0    1
 -2      1065      1064      1085      4073      4256      4257
 -1      2177    8    0    1
 -2      1066      1065      1086      4076      4258      4259
 -1      2178    8    0    1
 -2      1067      1066      1087      4079      4260      4261
 -1      2179    8    0    1
 -2      1068      1067      1088      4082      4262      4263
 -1      2180    8    0    1
 -2      1069      1068      1089      4085      4264      4265
 -1      2181    8    0    1
 -2      1070      1069      1090      4088      4266      4267
 -1      2182    8    0    1
 -2      1071      1070      1091      4091      4268      4269
 -1      2183    8    0    1
 -2      1072      1071      1092      4094      4270      4271
 -1      2184    8    0    1
 -2      1073      1072      1093      4097      4272      4273
 -1      2185    8    0    1
 -2      1074      1073      1094      4100      4274      4275
 -1      2186    8    0    1
 -2      1075      1074      1095      4103      4276      4277
 -1      2187    8    0    1
 -2      1076      1075      1096      4106      4278      4279
 -1      2188    8    0    1
 -2      1077      1076      1097      4109      4280      4281
 -1      2189    8    0    1
 -2      1078      1077      1098      4112      4282      4283
 -1      2190    8    0    1
 -2      1079      1078      1099      4115      4284      4285
 -1      2191    8    0    1
 -2      1080      1079      1100      4118      4286      4287
 -1      2192    8    0    1
 -2      1081      1080      1101      4121      4288      4289
 -1      2193    8    0    1
 -2      1082      1081      1102      4124      4290      4291
 -1      2194    8    0    1
 -2      1083      1053      1062      4127      4252      4251
 -1      2195    8    0    1
 -2      1053      1108      1063      4217      4254      4253
 -1      2196    8    0    1
 -2      1094      1073      1093      4274      4273      4159
 -1      2197    8    0    1
 -2      1098      1077      1097      4282      4281      4171
 -1      2198    8    0    1
 -2      1084      1083      1061      4130      4250      4249
 -1      2199    8    0    1
 -2      1097      1076      1096      4280      4279      4168
 -1      2200    8    0    1
 -2      1086      1087      1066      4138      4260      4259
 -1      2201    8    0    1
 -2      1107      1055      1114      4238      4292      4223
 -1      2202    8    0    1
 -2      1085      1086      1065      4135      4258      4257
 -1      2203    8    0    1
 -2      1088      1089      1068      4144      4264      4263
 -1      2204    8    0    1
 -2      1089      1090      1069      4147      4266      4265
 -1      2205    8    0    1
 -2      1090      1091      1070      4150      4268      4267
 -1      2206    8    0    1
 -2      1091      1092      1071      4153      4270      4269
 -1      2207    8    0    1
 -2      1092      1093      1072      4156      4272      4271
 -1      2208    8    0    1
 -2      1094      1095      1074      4162      4276      4275
 -1      2209    8    0    1
 -2      1095      1096      1075      4165      4278      4277
 -1      2210    8    0    1
 -2      1098      1099      1078      4174      4284      4283
 -1      2211    8    0    1
 -2      1099      1100      1079      4177      4286      4285
 -1      2212    8    0    1
 -2      1100      1101      1080      4180      4288      4287
 -1      2213    8    0    1
 -2      1101      1102      1081      4183      4290      4289
 -1      2214    8    0    1
 -2      1085      1064      1108      4256      4255      4201
 -1      2215    8    0    1
 -2      1107      1106      1056      4198      4240      4239
 -1      2216    8    0    1
 -2      1109      1059      1110      4246      4245      4208
 -1      2217    8    0    1
 -2      1051      1050      1115      4029      4293      4237
 -1      2218    8    0    1
 -2      1049      1048      1118      4229      4294      4295
 -1      2219    8    0    1
 -2      1116      1049      1118      4228      4295      4296
 -1      2220    8    0    1
 -2      1048      1114      1118      4222      4297      4294
 -1      2221    8    0    1
 -2      1055      1054      1114      4043      4298      4292
 -1      2222    8    0    1
 -2      1109      1084      1060      4204      4248      4247
 -1      2223    8    0    1
 -2      1113      1110      1058      4216      4244      4243
 -1      2224    8    0    1
 -2      1115      1050      1112      4293      4220      4299
 -1      2225    8    0    1
 -2      1111      1104      1119      4211      4300      4301
 -1      2226    8    0    1
 -2      1113      1057      1106      4242      4241      4231
 -1      2227    8    0    1
 -2      1054      1111      1118      4219      4302      4303
 -1      2228    8    0    1
 -2      1088      1067      1087      4262      4261      4141
 -1      2229    8    0    1
 -2      1115      1112      1104      4299      4304      4225
 -1      2230    8    0    1
 -2      1104      1112      1119      4304      4305      4300
 -1      2231    8    0    1
 -2      1082      1102      1117      4291      4306      4235
 -1      2232    8    0    1
 -2      1105      1116      1119      4227      4307      4308
 -1      2233    8    0    1
 -2      1119      1112      1105      4305      4230      4308
 -1      2234    8    0    1
 -2      1118      1111      1119      4302      4301      4309
 -1      2235    8    0    1
 -2      1102      1103      1117      4186      4310      4306
 -1      2236    8    0    1
 -2      1103      1044      1117      4187      4234      4310
 -1      2237    8    0    1
 -2      1114      1054      1118      4298      4303      4297
 -1      2238    8    0    1
 -2      1119      1116      1118      4307      4296      4309
 -3
    1PSTEP                         1           1           1          
  100CL  101 1.000000000        4310                     0    1           1
 -4  DISP        4    1
 -5  D1          1    2    1    0
 -5  D2          1    2    2    0
 -5  D3          1    2    3    0
 -5  ALL         1    2    0    0    1ALL
 -1         1 1.47766E-02-8.87674E-04-7.51677E-14
 -1         2 1.70702E-02 1.47707E-04-7.82526E-14
 -1         3 1.42208E-02 5.57632E-04-8.23158E-14
 -1         4 1.41511E-02-5.00374E-04-8.53861E-14
 -1         5 0.00000E+00 0.00000E+00 0.00000E+00
 -1         6 0.00000E+00 0.00000E+00 0.00000E+00
 -1         7 0.00000E+00 0.00000E+00 0.00000E+00
 -1         8 0.00000E+00 0.00000E+00 0.00000E+00
 -1         9 0.00000E+00 0.00000E+00 0.00000E+00
 -1        10 0.00000E+00 0.00000E+00 0.00000E+00
 -1        11 0.00000E+00 0.00000E+00 0.00000E+00
 -1        12 0.00000E+00 0.00000E+00 0.00000E+00
 -1        13 0.00000E+00 0.00000E+00 0.00000E+00
 -1        14 0.00000E+00 0.00000E+00 0.00000E+00
 -1        15 0.00000E+00 0.00000E+00 0.00000E+00
 -1        16 0.00000E+00 0.00000E+00 0.00000E+00
 -1        17 0.00000E+00 0.00000E+00 0.00000E+00
 -1        18 0.00000E+00 0.00000E+00 0.00000E+00
 -1        19 0.00000E+00 0.00000E+00 0.00000E+00
 -1        20 0.00000E+00 0.00000E+00 0.00000E+00
 -1        21 0.00000E+00 0.00000E+00 0.00000E+00
 -1        22 0.00000E+00 0.00000E+00 0.00000E+00
 -1        23 4.11414E-04-2.60731E-04 2.72440E-17
 -1        24 7.03443E-04-4.00968E-04-5.89467E-17
 -1        25 9.73568E-04-4.98347E-04-2.56061E-16
 -1        26 1.23812E-03-5.67102E-04-5.62237E-16
 -1        27 1.50173E-03-6.16380E-04-9.72245E-16
 -1        28 1.76649E-03-6.51571E-04-1.48383E-15
 -1        29 2.03335E-03-6.76392E-04-2.09530E-15
 -1        30 2.30268E-03-6.93544E-04-2.80489E-15
 -1        31 2.57453E-03-7.05056E-04-3.60826E-15
 -1        32 2.84876E-03-7.12462E-04-4.50470E-15
 -1        33 3.12514E-03-7.16930E-04-5.48939E-15
 -1        34 3.40338E-03-7.19333E-04-6.55356E-15
 -1        35 3.68321E-03-7.20320E-04-7.69815E-15
 -1        36 3.96433E-03-7.20362E-04-8.92104E-15
 -1        37 4.24651E-03-7.19791E-04-1.02245E-14
 -1        38 4.52951E-03-7.18831E-04-1.16093E-14
 -1        39 4.81314E-03-7.17623E-04-1.30645E-14
 -1        40 5.09725E-03-7.16245E-04-1.45860E-14
 -1        41 5.38173E-03-7.14722E-04-1.61735E-14
 -1        42 5.66648E-03-7.13046E-04-1.78267E-14
 -1        43 5.95147E-03-7.11176E-04-1.95425E-14
 -1        44 6.23667E-03-7.09054E-04-2.13218E-14
 -1        45 6.52211E-03-7.06603E-04-2.31653E-14
 -1        46 6.80789E-03-7.03744E-04-2.50683E-14
 -1        47 7.09411E-03-7.00396E-04-2.70252E-14
 -1        48 7.38100E-03-6.96498E-04-2.90337E-14
 -1        49 7.66882E-03-6.92018E-04-3.10985E-14
 -1        50 7.95796E-03-6.86982E-04-3.32126E-14
 -1        51 8.24889E-03-6.81511E-04-3.53687E-14
 -1        52 8.54224E-03-6.75860E-04-3.75645E-14
 -1        53 8.83875E-03-6.70486E-04-3.97840E-14
 -1        54 9.13928E-03-6.66128E-04-4.20269E-14
 -1        55 9.44481E-03-6.63895E-04-4.42932E-14
 -1        56 9.75630E-03-6.65381E-04-4.65827E-14
 -1        57 1.00746E-02-6.72760E-04-4.89032E-14
 -1        58 1.04001E-02-6.88842E-04-5.12476E-14
 -1        59 1.07324E-02-7.16995E-04-5.36141E-14
 -1        60 1.10698E-02-7.60813E-04-5.59945E-14
 -1        61 1.14082E-02-8.23331E-04-5.83782E-14
 -1        62 1.17412E-02-9.05592E-04-6.07683E-14
 -1        63 1.20596E-02-1.00453E-03-6.31832E-14
 -1        64 1.23525E-02-1.11062E-03-6.56316E-14
 -1        65 1.26112E-02-1.20658E-03-6.81066E-14
 -1        66 1.28327E-02-1.26889E-03-7.05876E-14
 -1        67 1.30244E-02-1.27372E-03-7.30750E-14
 -1        68 1.32039E-02-1.20584E-03-7.55471E-14
 -1        69 1.33949E-02-1.06684E-03-7.80221E-14
 -1        70 1.36181E-02-8.78155E-04-8.04981E-14
 -1        71 1.38807E-02-6.75344E-04-8.29884E-14
 -1        72 4.13859E-04 2.61436E-04 3.96513E-17
 -1        73 7.03266E-04 4.03675E-04-2.20838E-17
 -1        74 9.74104E-04 5.00118E-04-1.81539E-16
 -1        75 1.23895E-03 5.68812E-04-4.41219E-16
 -1        76 1.50269E-03 6.18140E-04-8.00863E-16
 -1        77 1.76752E-03 6.53423E-04-1.26129E-15
 -1        78 2.03441E-03 6.78355E-04-1.82073E-15
 -1        79 2.30376E-03 6.95629E-04-2.47527E-15
 -1        80 2.57563E-03 7.07268E-04-3.22520E-15
 -1        81 2.84987E-03 7.14806E-04-4.06844E-15
 -1        82 3.12625E-03 7.19406E-04-5.00064E-15
 -1        83 3.40450E-03 7.21943E-04-6.01480E-15
 -1        84 3.68433E-03 7.23064E-04-7.11201E-15
 -1        85 3.96546E-03 7.23241E-04-8.29262E-15
 -1        86 4.24763E-03 7.22805E-04-9.55575E-15
 -1        87 4.53063E-03 7.21980E-04-1.08977E-14
 -1        88 4.81426E-03 7.20907E-04-1.23161E-14
 -1        89 5.09837E-03 7.19663E-04-1.38049E-14
 -1        90 5.38285E-03 7.18275E-04-1.53610E-14
 -1        91 5.66759E-03 7.16731E-04-1.69837E-14
 -1        92 5.95257E-03 7.14992E-04-1.86673E-14
 -1        93 6.23775E-03 7.12994E-04-2.04000E-14
 -1        94 6.52318E-03 7.10659E-04-2.21895E-14
 -1        95 6.80893E-03 7.07900E-04-2.40348E-14
 -1        96 7.09512E-03 7.04629E-04-2.59369E-14
 -1        97 7.38197E-03 7.00767E-04-2.78866E-14
 -1        98 7.66976E-03 6.96262E-04-2.98740E-14
 -1        99 7.95888E-03 6.91112E-04-3.18916E-14
 -1       100 8.24986E-03 6.85392E-04-3.39412E-14
 -1       101 8.54336E-03 6.79309E-04-3.60379E-14
 -1       102 8.84026E-03 6.73259E-04-3.81689E-14
 -1       103 9.14162E-03 6.67919E-04-4.03291E-14
 -1       104 9.44871E-03 6.64375E-04-4.25122E-14
 -1       105 9.76301E-03 6.64271E-04-4.47236E-14
 -1       106 1.00861E-02 6.70016E-04-4.69722E-14
 -1       107 1.04194E-02 6.84991E-04-4.92553E-14
 -1       108 1.07638E-02 7.13717E-04-5.15534E-14
 -1       109 1.11191E-02 7.61817E-04-5.38690E-14
 -1       110 1.14822E-02 8.35452E-04-5.61934E-14
 -1       111 1.18466E-02 9.39745E-04-5.85218E-14
 -1       112 1.22003E-02 1.07562E-03-6.08718E-14
 -1       113 1.25266E-02 1.23503E-03-6.32436E-14
 -1       114 1.28078E-02 1.39624E-03-6.56220E-14
 -1       115 1.30330E-02 1.52325E-03-6.80116E-14
 -1       116 1.32068E-02 1.57401E-03-7.04028E-14
 -1       117 1.33533E-02 1.51729E-03-7.28028E-14
 -1       118 1.35080E-02 1.34885E-03-7.52191E-14
 -1       119 1.37030E-02 1.09645E-03-7.76391E-14
 -1       120 1.39522E-02 8.11871E-04-8.00421E-14
 -1       121 1.44679E-02 4.69969E-04-8.24961E-14
 -1       122 1.46984E-02 3.46946E-04-8.26877E-14
 -1       123 1.49656E-02 1.65213E-04-8.28898E-14
 -1       124 1.53394E-02-6.15030E-05-8.30772E-14
 -1       125 1.58117E-02-2.53874E-04-8.32212E-14
 -1       126 1.63185E-02-3.45124E-04-8.33400E-14
 -1       127 1.67854E-02-3.11675E-04-8.34562E-14
 -1       128 1.71555E-02-1.52249E-04-8.35590E-14
 -1       129 1.73384E-02 1.39702E-04-8.36848E-14
 -1       130 1.71766E-02 4.59567E-04-8.38149E-14
 -1       131 1.67689E-02 6.40044E-04-8.39252E-14
 -1       132 1.62326E-02 6.65691E-04-8.40680E-14
 -1       133 1.57018E-02 5.48823E-04-8.42168E-14
 -1       134 1.51980E-02 3.07585E-04-8.43933E-14
 -1       135 1.48600E-02 5.68921E-05-8.45888E-14
 -1       136 1.46373E-02-1.52292E-04-8.48061E-14
 -1       137 1.44726E-02-3.06835E-04-8.50255E-14
 -1       138 1.43191E-02-4.16011E-04-8.52185E-14
 -1       139 1.69604E-02 4.25138E-04-7.80535E-14
 -1       140 1.66199E-02 6.89143E-04-7.75678E-14
 -1       141 1.61729E-02 8.94765E-04-7.69048E-14
 -1       142 1.56274E-02 1.06411E-03-7.60216E-14
 -1       143 1.50269E-02 1.18930E-03-7.49547E-14
 -1       144 1.44646E-02 1.25772E-03-7.38696E-14
 -1       145 1.38977E-02 1.28015E-03-7.27172E-14
 -1       146 1.33426E-02 1.25190E-03-7.15441E-14
 -1       147 1.28225E-02 1.17388E-03-7.04178E-14
 -1       148 1.23553E-02 1.05259E-03-6.93879E-14
 -1       149 1.18859E-02 8.61987E-04-6.83363E-14
 -1       150 1.15874E-02 6.81216E-04-6.76754E-14
 -1       151 1.13722E-02 4.82309E-04-6.72196E-14
 -1       152 1.12521E-02 2.78944E-04-6.70088E-14
 -1       153 1.12304E-02 4.76618E-05-6.70488E-14
 -1       154 1.13143E-02-1.56134E-04-6.73329E-14
 -1       155 1.14995E-02-3.52913E-04-6.78464E-14
 -1       156 1.17657E-02-5.26772E-04-6.85335E-14
 -1       157 1.21556E-02-6.93702E-04-6.94994E-14
 -1       158 1.25972E-02-8.16702E-04-7.05489E-14
 -1       159 1.30898E-02-9.00253E-04-7.16892E-14
 -1       160 1.36350E-02-9.41638E-04-7.28947E-14
 -1       161 1.41941E-02-9.37692E-04-7.40545E-14
 -1       162 1.53000E-02-8.05563E-04-7.60759E-14
 -1       163 1.58511E-02-6.73055E-04-7.69280E-14
 -1       164 1.63098E-02-5.16175E-04-7.75413E-14
 -1       165 1.67106E-02-3.15070E-04-7.79898E-14
 -1       166 1.69695E-02-9.52412E-05-7.82189E-14
 -1       167 2.40429E-04-1.25501E-04-2.21516E-17
 -1       168 2.25291E-04-9.45955E-05-3.71915E-17
 -1       169 2.19527E-04-7.27511E-05-4.54077E-17
 -1       170 2.16705E-04-5.50833E-05-4.97683E-17
 -1       171 2.15210E-04-3.99471E-05-5.17978E-17
 -1       172 2.14368E-04-2.58999E-05-5.25635E-17
 -1       173 2.13945E-04-1.26361E-05-5.26143E-17
 -1       174 2.13822E-04 2.72878E-07-5.22450E-17
 -1       175 2.13964E-04 1.31943E-05-5.16521E-17
 -1       176 2.14409E-04 2.64981E-05-5.05746E-17
 -1       177 2.15258E-04 4.03725E-05-4.85723E-17
 -1       178 2.16815E-04 5.58891E-05-4.50859E-17
 -1       179 2.19679E-04 7.37909E-05-3.93803E-17
 -1       180 2.25461E-04 9.59949E-05-2.94496E-17
 -1       181 2.39360E-04 1.27579E-04-1.26886E-17
 -1       182 2.97740E-04 1.85489E-04 4.65868E-18
 -1       183 4.68677E-04-2.63530E-04-5.98242E-17
 -1       184 7.66862E-04-3.82114E-04-2.22651E-16
 -1       185 1.05076E-03-4.64999E-04-4.88589E-16
 -1       186 1.32820E-03-5.23783E-04-8.56859E-16
 -1       187 1.60287E-03-5.65496E-04-1.32490E-15
 -1       188 1.87683E-03-5.94830E-04-1.89152E-15
 -1       189 2.15121E-03-6.15094E-04-2.55530E-15
 -1       190 2.42662E-03-6.28719E-04-3.31307E-15
 -1       191 2.70331E-03-6.37525E-04-4.16344E-15
 -1       192 2.98134E-03-6.42883E-04-5.10239E-15
 -1       193 3.26067E-03-6.45821E-04-6.12360E-15
 -1       194 3.54116E-03-6.47100E-04-7.22491E-15
 -1       195 3.82268E-03-6.47275E-04-8.40618E-15
 -1       196 4.10507E-03-6.46739E-04-9.66560E-15
 -1       197 4.38817E-03-6.45763E-04-1.10050E-14
 -1       198 4.67185E-03-6.44518E-04-1.24203E-14
 -1       199 4.95599E-03-6.43104E-04-1.39026E-14
 -1       200 5.24050E-03-6.41565E-04-1.54500E-14
 -1       201 5.52531E-03-6.39900E-04-1.70651E-14
 -1       202 5.81037E-03-6.38074E-04-1.87424E-14
 -1       203 6.09567E-03-6.36029E-04-2.04848E-14
 -1       204 6.38122E-03-6.33686E-04-2.22877E-14
 -1       205 6.66709E-03-6.30957E-04-2.41550E-14
 -1       206 6.95335E-03-6.27746E-04-2.60783E-14
 -1       207 7.24016E-03-6.23966E-04-2.80540E-14
 -1       208 7.52772E-03-6.19548E-04-3.00817E-14
 -1       209 7.81628E-03-6.14466E-04-3.21604E-14
 -1       210 8.10620E-03-6.08762E-04-3.42853E-14
 -1       211 8.39788E-03-6.02590E-04-3.64504E-14
 -1       212 8.69185E-03-5.96269E-04-3.86529E-14
 -1       213 8.98868E-03-5.90360E-04-4.08798E-14
 -1       214 9.28903E-03-5.85753E-04-4.31277E-14
 -1       215 9.59353E-03-5.83786E-04-4.53993E-14
 -1       216 9.90279E-03-5.86362E-04-4.76966E-14
 -1       217 1.02172E-02-5.96055E-04-5.00222E-14
 -1       218 1.05366E-02-6.16144E-04-5.23731E-14
 -1       219 1.08603E-02-6.50463E-04-5.47388E-14
 -1       220 1.11865E-02-7.02895E-04-5.71195E-14
 -1       221 1.15119E-02-7.76278E-04-5.95034E-14
 -1       222 1.18316E-02-8.70514E-04-6.19038E-14
 -1       223 1.21396E-02-9.79992E-04-6.43267E-14
 -1       224 1.24295E-02-1.09112E-03-6.67759E-14
 -1       225 1.26972E-02-1.18181E-03-6.92387E-14
 -1       226 1.29432E-02-1.22513E-03-7.17094E-14
 -1       227 1.31742E-02-1.19782E-03-7.41804E-14
 -1       228 1.34022E-02-1.09085E-03-7.66511E-14
 -1       229 1.36399E-02-9.16223E-04-7.91194E-14
 -1       230 1.38965E-02-7.06814E-04-8.15974E-14
 -1       231 6.04635E-04 3.31014E-04-7.18487E-17
 -1       232 8.93774E-04 4.32624E-04-2.41191E-16
 -1       233 1.17272E-03 5.04374E-04-5.06658E-16
 -1       234 1.44712E-03 5.55476E-04-8.69554E-16
 -1       235 1.72001E-03 5.91755E-04-1.32995E-15
 -1       236 1.99298E-03 6.17195E-04-1.88788E-15
 -1       237 2.26689E-03 6.34674E-04-2.54169E-15
 -1       238 2.54215E-03 6.46333E-04-3.28891E-15
 -1       239 2.81888E-03 6.53784E-04-4.12750E-15
 -1       240 3.09706E-03 6.58240E-04-5.05319E-15
 -1       241 3.37658E-03 6.60609E-04-6.06244E-15
 -1       242 3.65730E-03 6.61560E-04-7.15405E-15
 -1       243 3.93903E-03 6.61579E-04-8.32765E-15
 -1       244 4.22161E-03 6.61003E-04-9.58157E-15
 -1       245 4.50488E-03 6.60061E-04-1.09143E-14
 -1       246 4.78870E-03 6.58893E-04-1.23232E-14
 -1       247 5.07295E-03 6.57576E-04-1.38053E-14
 -1       248 5.35754E-03 6.56134E-04-1.53535E-14
 -1       249 5.64242E-03 6.54552E-04-1.69659E-14
 -1       250 5.92754E-03 6.52786E-04-1.86420E-14
 -1       251 6.21290E-03 6.50765E-04-2.03710E-14
 -1       252 6.49853E-03 6.48406E-04-2.21560E-14
 -1       253 6.78450E-03 6.45609E-04-2.39934E-14
 -1       254 7.07093E-03 6.42275E-04-2.58815E-14
 -1       255 7.35800E-03 6.38310E-04-2.78237E-14
 -1       256 7.64594E-03 6.33639E-04-2.98071E-14
 -1       257 7.93508E-03 6.28230E-04-3.18247E-14
 -1       258 8.22586E-03 6.22126E-04-3.38770E-14
 -1       259 8.51879E-03 6.15486E-04-3.59690E-14
 -1       260 8.81457E-03 6.08648E-04-3.80967E-14
 -1       261 9.11398E-03 6.02221E-04-4.02535E-14
 -1       262 9.41797E-03 5.97208E-04-4.24384E-14
 -1       263 9.72757E-03 5.95166E-04-4.46528E-14
 -1       264 1.00439E-02 5.98418E-04-4.69031E-14
 -1       265 1.03677E-02 6.10293E-04-4.91820E-14
 -1       266 1.06998E-02 6.35345E-04-5.14778E-14
 -1       267 1.10395E-02 6.79406E-04-5.37883E-14
 -1       268 1.13852E-02 7.49169E-04-5.61119E-14
 -1       269 1.17325E-02 8.50776E-04-5.84462E-14
 -1       270 1.20744E-02 9.86741E-04-6.07991E-14
 -1       271 1.24009E-02 1.15092E-03-6.31661E-14
 -1       272 1.27011E-02 1.32286E-03-6.55446E-14
 -1       273 1.29674E-02 1.46574E-03-6.79335E-14
 -1       274 1.32009E-02 1.53376E-03-7.03281E-14
 -1       275 1.34140E-02 1.49029E-03-7.27230E-14
 -1       276 1.36265E-02 1.32719E-03-7.51324E-14
 -1       277 1.38566E-02 1.07143E-03-7.75459E-14
 -1       278 1.41138E-02 7.77042E-04-7.99507E-14
 -1       279 1.43289E-02 6.51984E-04-8.05094E-14
 -1       280 1.45563E-02 5.33945E-04-8.06999E-14
 -1       281 1.48569E-02 3.94422E-04-8.08816E-14
 -1       282 1.52509E-02 2.61541E-04-8.10391E-14
 -1       283 1.57162E-02 1.56954E-04-8.11707E-14
 -1       284 1.62109E-02 9.12315E-05-8.12832E-14
 -1       285 1.67001E-02 7.02611E-05-8.13911E-14
 -1       286 1.71065E-02 1.05170E-04-8.15084E-14
 -1       287 1.71844E-02 1.85929E-04-8.16278E-14
 -1       288 1.68917E-02 2.42931E-04-8.17386E-14
 -1       289 1.63551E-02 2.40041E-04-8.18595E-14
 -1       290 1.57512E-02 1.71727E-04-8.19964E-14
 -1       291 1.51428E-02 3.01620E-05-8.21802E-14
 -1       292 1.47290E-02-1.30027E-04-8.23697E-14
 -1       293 1.44658E-02-2.82669E-04-8.25661E-14
 -1       294 1.42897E-02-4.15620E-04-8.27612E-14
 -1       295 1.40909E-02-5.70722E-04-8.21861E-14
 -1       296 1.70786E-02 2.02356E-04-7.92557E-14
 -1       297 1.67520E-02 3.18134E-04-7.89639E-14
 -1       298 1.62380E-02 5.44556E-04-7.80854E-14
 -1       299 1.56571E-02 7.85802E-04-7.71657E-14
 -1       300 1.50658E-02 1.03824E-03-7.60026E-14
 -1       301 1.45471E-02 1.23842E-03-7.47054E-14
 -1       302 1.40717E-02 1.35171E-03-7.34011E-14
 -1       303 1.36310E-02 1.36496E-03-7.20245E-14
 -1       304 1.32001E-02 1.27291E-03-7.06654E-14
 -1       305 1.27692E-02 1.09648E-03-6.93939E-14
 -1       306 1.23248E-02 8.37484E-04-6.79922E-14
 -1       307 1.18572E-02 6.19437E-04-6.72303E-14
 -1       308 1.15296E-02 4.31708E-04-6.65858E-14
 -1       309 1.13001E-02 2.73109E-04-6.61324E-14
 -1       310 1.11914E-02 1.42255E-04-6.59540E-14
 -1       311 1.12435E-02 1.59016E-05-6.62666E-14
 -1       312 1.14334E-02-1.12151E-04-6.66106E-14
 -1       313 1.17264E-02-2.91663E-04-6.74357E-14
 -1       314 1.21245E-02-4.85534E-04-6.83214E-14
 -1       315 1.25469E-02-7.10945E-04-6.95914E-14
 -1       316 1.29837E-02-8.91705E-04-7.08641E-14
 -1       317 1.34124E-02-1.00531E-03-7.22570E-14
 -1       318 1.38528E-02-1.02934E-03-7.36456E-14
 -1       319 1.43009E-02-9.57606E-04-7.50302E-14
 -1       320 1.48025E-02-8.04428E-04-7.61641E-14
 -1       321 1.52996E-02-5.86389E-04-7.72881E-14
 -1       322 1.58724E-02-3.77119E-04-7.80427E-14
 -1       323 1.63793E-02-1.51022E-04-7.87849E-14
 -1       324 1.67543E-02-3.61299E-05-7.90166E-14
 -1       325 1.70763E-02 1.08023E-04-7.92872E-14
 -1       326 4.55418E-04-1.64751E-04-1.53631E-16
 -1       327 4.74300E-04-2.12942E-04-1.29237E-16
 -1       328 4.40433E-04-9.39763E-05-1.76359E-16
 -1       329 4.37453E-04-6.48803E-05-1.80299E-16
 -1       330 4.35820E-04-3.78867E-05-1.81851E-16
 -1       331 4.35104E-04-1.20111E-05-1.81590E-16
 -1       332 4.35135E-04 1.35294E-05-1.80049E-16
 -1       333 4.35918E-04 3.94628E-05-1.77159E-16
 -1       334 4.37594E-04 6.61090E-05-1.72256E-16
 -1       335 4.40665E-04 9.53763E-05-1.64575E-16
 -1       336 4.46070E-04 1.28284E-04-1.52585E-16
 -1       337 4.55924E-04 1.67265E-04-1.33990E-16
 -1       338 4.75935E-04 2.17012E-04-1.04998E-16
 -1       339 5.32074E-04 2.69943E-04-9.36954E-17
 -1       340 8.24591E-04 3.73468E-04-2.67930E-16
 -1       341 1.69480E-02 1.26331E-04-8.01851E-14
 -1       342 8.63361E-04-3.57361E-04-4.04553E-16
 -1       343 1.14975E-03-4.26118E-04-7.34046E-16
 -1       344 1.43258E-03-4.75299E-04-1.16145E-15
 -1       345 1.71334E-03-5.10061E-04-1.68574E-15
 -1       346 1.99317E-03-5.34204E-04-2.30542E-15
 -1       347 2.27282E-03-5.50557E-04-3.01920E-15
 -1       348 2.55277E-03-5.61243E-04-3.82450E-15
 -1       349 2.83326E-03-5.67862E-04-4.71907E-15
 -1       350 3.11442E-03-5.71614E-04-5.69859E-15
 -1       351 3.39626E-03-5.73393E-04-6.75712E-15
 -1       352 3.67876E-03-5.73851E-04-7.89583E-15
 -1       353 3.96184E-03-5.73457E-04-9.11312E-15
 -1       354 4.24545E-03-5.72536E-04-1.04084E-14
 -1       355 4.52948E-03-5.71299E-04-1.17811E-14
 -1       356 4.81388E-03-5.69878E-04-1.32247E-14
 -1       357 5.09858E-03-5.68336E-04-1.47337E-14
 -1       358 5.38353E-03-5.66687E-04-1.63096E-14
 -1       359 5.66871E-03-5.64908E-04-1.79497E-14
 -1       360 5.95408E-03-5.62947E-04-1.96538E-14
 -1       361 6.23967E-03-5.60728E-04-2.14217E-14
 -1       362 6.52549E-03-5.58160E-04-2.32513E-14
 -1       363 6.81162E-03-5.55142E-04-2.51393E-14
 -1       364 7.09813E-03-5.51571E-04-2.70809E-14
 -1       365 7.38515E-03-5.47356E-04-2.90744E-14
 -1       366 7.67285E-03-5.42433E-04-3.11197E-14
 -1       367 7.96144E-03-5.36788E-04-3.32132E-14
 -1       368 8.25118E-03-5.30493E-04-3.53505E-14
 -1       369 8.54240E-03-5.23753E-04-3.75281E-14
 -1       370 8.83546E-03-5.16967E-04-3.97348E-14
 -1       371 9.13082E-03-5.10815E-04-4.19665E-14
 -1       372 9.42892E-03-5.06358E-04-4.42215E-14
 -1       373 9.73026E-03-5.05164E-04-4.64988E-14
 -1       374 1.00353E-02-5.09426E-04-4.88070E-14
 -1       375 1.03444E-02-5.22065E-04-5.11400E-14
 -1       376 1.06579E-02-5.46722E-04-5.34926E-14
 -1       377 1.09756E-02-5.87537E-04-5.58634E-14
 -1       378 1.12967E-02-6.48492E-04-5.82398E-14
 -1       379 1.16197E-02-7.32071E-04-6.06281E-14
 -1       380 1.19411E-02-8.36965E-04-6.30330E-14
 -1       381 1.22561E-02-9.55002E-04-6.54641E-14
 -1       382 1.25584E-02-1.06839E-03-6.79097E-14
 -1       383 1.28433E-02-1.14983E-03-7.03630E-14
 -1       384 1.31104E-02-1.16880E-03-7.28225E-14
 -1       385 1.33660E-02-1.10380E-03-7.52843E-14
 -1       386 1.36202E-02-9.54186E-04-7.77449E-14
 -1       387 1.38501E-02-7.70686E-04-7.99574E-14
 -1       388 1.11011E-03 4.47787E-04-5.35186E-16
 -1       389 1.39091E-03 5.00860E-04-8.97472E-16
 -1       390 1.66928E-03 5.38497E-04-1.35534E-15
 -1       391 1.94674E-03 5.64823E-04-1.90953E-15
 -1       392 2.22423E-03 5.82851E-04-2.55871E-15
 -1       393 2.50229E-03 5.94828E-04-3.30095E-15
 -1       394 2.78119E-03 6.02438E-04-4.13279E-15
 -1       395 3.06102E-03 6.06952E-04-5.05143E-15
 -1       396 3.34179E-03 6.09314E-04-6.05337E-15
 -1       397 3.62343E-03 6.10224E-04-7.13687E-15
 -1       398 3.90584E-03 6.10182E-04-8.30170E-15
 -1       399 4.18891E-03 6.09541E-04-9.54633E-15
 -1       400 4.47253E-03 6.08537E-04-1.08699E-14
 -1       401 4.75662E-03 6.07317E-04-1.22691E-14
 -1       402 5.04107E-03 6.05958E-04-1.37420E-14
 -1       403 5.32582E-03 6.04486E-04-1.52817E-14
 -1       404 5.61083E-03 6.02886E-04-1.68859E-14
 -1       405 5.89607E-03 6.01111E-04-1.85534E-14
 -1       406 6.18153E-03 5.99091E-04-2.02773E-14
 -1       407 6.46725E-03 5.96736E-04-2.20560E-14
 -1       408 6.75329E-03 5.93944E-04-2.38850E-14
 -1       409 7.03974E-03 5.90605E-04-2.57653E-14
 -1       410 7.32674E-03 5.86615E-04-2.76979E-14
 -1       411 7.61448E-03 5.81886E-04-2.96757E-14
 -1       412 7.90323E-03 5.76368E-04-3.16906E-14
 -1       413 8.19331E-03 5.70074E-04-3.37409E-14
 -1       414 8.48514E-03 5.63129E-04-3.58306E-14
 -1       415 8.77921E-03 5.55825E-04-3.79543E-14
 -1       416 9.07613E-03 5.48709E-04-4.01067E-14
 -1       417 9.37658E-03 5.42701E-04-4.22917E-14
 -1       418 9.68134E-03 5.39256E-04-4.45052E-14
 -1       419 9.99121E-03 5.40565E-04-4.67561E-14
 -1       420 1.03069E-02 5.49807E-04-4.90325E-14
 -1       421 1.06291E-02 5.71384E-04-5.13282E-14
 -1       422 1.09580E-02 6.11046E-04-5.36367E-14
 -1       423 1.12930E-02 6.75624E-04-5.59574E-14
 -1       424 1.16326E-02 7.71916E-04-5.82958E-14
 -1       425 1.19731E-02 9.03991E-04-6.06496E-14
 -1       426 1.23081E-02 1.06837E-03-6.30149E-14
 -1       427 1.26288E-02 1.24757E-03-6.53929E-14
 -1       428 1.29263E-02 1.40589E-03-6.77792E-14
 -1       429 1.31973E-02 1.49422E-03-7.01697E-14
 -1       430 1.34484E-02 1.46882E-03-7.25651E-14
 -1       431 1.36938E-02 1.31577E-03-7.49723E-14
 -1       432 1.39474E-02 1.05957E-03-7.73859E-14
 -1       433 1.41332E-02 8.58385E-04-7.89465E-14
 -1       434 1.47341E-02 6.81458E-04-7.88692E-14
 -1       435 1.44056E-02 7.90064E-04-7.86904E-14
 -1       436 1.42584E-02 8.24774E-04-7.88202E-14
 -1       437 1.51106E-02 5.78523E-04-7.90043E-14
 -1       438 1.55624E-02 4.72737E-04-7.91228E-14
 -1       439 1.58070E-02-4.43611E-05-8.02648E-14
 -1       440 1.51711E-02-1.78553E-04-8.04228E-14
 -1       441 1.46205E-02-3.77461E-04-8.01957E-14
 -1       442 1.43150E-02-4.86206E-04-8.03794E-14
 -1       443 1.41185E-02-5.82167E-04-8.05663E-14
 -1       444 1.64087E-02 3.11319E-04-7.93631E-14
 -1       445 1.69857E-02 1.64445E-04-8.03365E-14
 -1       446 1.58113E-02 5.09404E-04-7.85566E-14
 -1       447 1.66575E-02 6.64791E-05-7.99521E-14
 -1       448 1.46108E-02 1.10117E-03-7.58270E-14
 -1       449 1.51834E-02 8.02187E-04-7.73178E-14
 -1       450 4.45601E-04-1.26443E-04-1.68183E-16
 -1       451 1.42061E-02 1.30394E-03-7.43324E-14
 -1       452 1.37998E-02 1.40177E-03-7.27132E-14
 -1       453 1.34220E-02 1.36407E-03-7.11074E-14
 -1       454 1.30403E-02 1.20144E-03-6.95385E-14
 -1       455 1.26531E-02 9.69689E-04-6.81431E-14
 -1       456 1.20892E-02 6.31257E-04-6.66662E-14
 -1       457 1.17268E-02 4.39439E-04-6.59642E-14
 -1       458 1.14198E-02 2.86691E-04-6.54116E-14
 -1       459 1.12142E-02 1.70732E-04-6.48447E-14
 -1       460 1.11827E-02 8.72028E-05-6.50533E-14
 -1       461 1.13062E-02 7.75888E-06-6.53879E-14
 -1       462 1.16142E-02-1.42055E-04-6.62097E-14
 -1       463 1.19491E-02-3.06095E-04-6.69810E-14
 -1       464 1.24263E-02-5.75525E-04-6.84374E-14
 -1       465 1.28139E-02-7.95841E-04-6.98144E-14
 -1       466 1.32335E-02-9.88328E-04-7.14515E-14
 -1       467 1.35920E-02-1.06795E-03-7.30383E-14
 -1       468 1.39586E-02-1.02759E-03-7.45408E-14
 -1       469 1.44287E-02-8.44464E-04-7.62478E-14
 -1       470 1.48361E-02-6.40435E-04-7.73675E-14
 -1       471 1.54796E-02-3.45889E-04-7.85359E-14
 -1       472 1.59848E-02-1.37494E-04-7.92745E-14
 -1       473 1.71515E-02 1.57892E-04-8.04423E-14
 -1       474 1.62543E-02 2.91431E-04-7.96898E-14
 -1       475 1.23770E-02 7.82629E-04-6.68117E-14
 -1       476 9.31335E-04 3.45984E-04-4.54528E-16
 -1       477 6.65782E-04-7.51089E-05-3.84390E-16
 -1       478 6.69764E-04-1.15856E-04-3.79057E-16
 -1       479 6.63098E-04 1.10436E-06-3.84075E-16
 -1       480 6.63822E-04 3.87527E-05-3.79688E-16
 -1       481 6.65971E-04 7.67940E-05-3.71875E-16
 -1       482 6.70079E-04 1.17696E-04-3.60213E-16
 -1       483 6.77109E-04 1.62306E-04-3.42665E-16
 -1       484 6.89048E-04 2.12667E-04-3.16482E-16
 -1       485 9.76359E-04-3.28601E-04-6.06022E-16
 -1       486 1.40721E-02-9.32813E-04-7.58607E-14
 -1       487 1.39478E-02-7.76692E-04-7.83512E-14
 -1       488 1.21725E-03 4.06474E-04-7.85098E-16
 -1       489 7.12671E-04-2.51782E-04-3.42547E-16
 -1       490 1.26231E-03-3.83461E-04-9.94180E-16
 -1       491 1.54735E-03-4.23228E-04-1.47766E-15
 -1       492 1.83150E-03-4.51320E-04-2.05551E-15
 -1       493 2.11507E-03-4.70639E-04-2.72647E-15
 -1       494 2.39836E-03-4.83484E-04-3.48823E-15
 -1       495 2.68164E-03-4.91633E-04-4.33948E-15
 -1       496 2.96506E-03-4.96438E-04-5.27599E-15
 -1       497 3.24870E-03-4.98919E-04-6.29414E-15
 -1       498 3.53261E-03-4.99828E-04-7.39004E-15
 -1       499 3.81680E-03-4.99710E-04-8.56650E-15
 -1       500 4.10125E-03-4.98948E-04-9.81841E-15
 -1       501 4.38593E-03-4.97801E-04-1.11474E-14
 -1       502 4.67082E-03-4.96432E-04-1.25502E-14
 -1       503 4.95589E-03-4.94933E-04-1.40220E-14
 -1       504 5.24111E-03-4.93336E-04-1.55608E-14
 -1       505 5.52647E-03-4.91635E-04-1.71639E-14
 -1       506 5.81196E-03-4.89787E-04-1.88319E-14
 -1       507 6.09758E-03-4.87726E-04-2.05646E-14
 -1       508 6.38334E-03-4.85367E-04-2.23586E-14
 -1       509 6.66927E-03-4.82608E-04-2.42099E-14
 -1       510 6.95541E-03-4.79346E-04-2.61181E-14
 -1       511 7.24183E-03-4.75475E-04-2.80775E-14
 -1       512 7.52860E-03-4.70910E-04-3.00899E-14
 -1       513 7.81583E-03-4.65597E-04-3.21512E-14
 -1       514 8.10366E-03-4.59544E-04-3.42581E-14
 -1       515 8.39224E-03-4.52860E-04-3.64101E-14
 -1       516 8.68180E-03-4.45804E-04-3.85981E-14
 -1       517 8.97258E-03-4.38852E-04-4.08090E-14
 -1       518 9.26490E-03-4.32785E-04-4.30479E-14
 -1       519 9.55916E-03-4.28795E-04-4.53080E-14
 -1       520 9.85587E-03-4.28598E-04-4.75944E-14
 -1       521 1.01557E-02-4.34560E-04-4.99120E-14
 -1       522 1.04595E-02-4.49782E-04-5.22537E-14
 -1       523 1.07685E-02-4.78100E-04-5.46121E-14
 -1       524 1.10839E-02-5.23886E-04-5.69815E-14
 -1       525 1.14067E-02-5.91423E-04-5.93584E-14
 -1       526 1.17368E-02-6.83492E-04-6.17495E-14
 -1       527 1.20715E-02-7.98611E-04-6.41613E-14
 -1       528 1.24046E-02-9.26774E-04-6.65873E-14
 -1       529 1.27265E-02-1.04497E-03-6.90227E-14
 -1       530 1.30294E-02-1.11754E-03-7.14691E-14
 -1       531 1.33129E-02-1.10733E-03-7.39215E-14
 -1       532 1.35862E-02-9.95628E-04-7.63709E-14
 -1       533 1.78417E-03 4.81079E-04-1.72576E-15
 -1       534 2.06620E-03 5.02477E-04-2.33688E-15
 -1       535 2.34798E-03 5.16864E-04-3.04066E-15
 -1       536 2.62986E-03 5.26157E-04-3.83423E-15
 -1       537 2.91205E-03 5.31813E-04-4.71503E-15
 -1       538 3.19464E-03 5.34924E-04-5.67992E-15
 -1       539 3.47767E-03 5.36301E-04-6.72525E-15
 -1       540 3.76113E-03 5.36533E-04-7.85077E-15
 -1       541 4.04499E-03 5.36040E-04-9.05617E-15
 -1       542 4.32921E-03 5.35106E-04-1.03410E-14
 -1       543 4.61373E-03 5.33915E-04-1.17025E-14
 -1       544 4.89851E-03 5.32573E-04-1.31383E-14
 -1       545 5.18350E-03 5.31125E-04-1.46430E-14
 -1       546 5.46869E-03 5.29573E-04-1.62144E-14
 -1       547 5.75405E-03 5.27880E-04-1.78504E-14
 -1       548 6.03957E-03 5.25984E-04-1.95452E-14
 -1       549 6.32528E-03 5.23799E-04-2.12971E-14
 -1       550 6.61120E-03 5.21225E-04-2.31011E-14
 -1       551 6.89738E-03 5.18151E-04-2.49550E-14
 -1       552 7.18390E-03 5.14462E-04-2.68602E-14
 -1       553 7.47088E-03 5.10051E-04-2.88124E-14
 -1       554 7.75844E-03 5.04837E-04-3.08088E-14
 -1       555 8.04677E-03 4.98785E-04-3.28418E-14
 -1       556 8.33608E-03 4.91939E-04-3.49158E-14
 -1       557 8.62666E-03 4.84477E-04-3.70256E-14
 -1       558 8.91880E-03 4.76772E-04-3.91636E-14
 -1       559 9.21288E-03 4.69492E-04-4.13347E-14
 -1       560 9.50935E-03 4.63727E-04-4.35382E-14
 -1       561 9.80871E-03 4.61157E-04-4.57754E-14
 -1       562 1.01116E-02 4.64261E-04-4.80415E-14
 -1       563 1.04188E-02 4.76555E-04-5.03305E-14
 -1       564 1.07315E-02 5.02814E-04-5.26309E-14
 -1       565 1.10510E-02 5.49164E-04-5.49476E-14
 -1       566 1.13791E-02 6.22815E-04-5.72847E-14
 -1       567 1.17173E-02 7.30918E-04-5.96355E-14
 -1       568 1.20653E-02 8.77592E-04-6.19973E-14
 -1       569 1.24182E-02 1.05800E-03-6.43649E-14
 -1       570 1.27651E-02 1.24892E-03-6.67467E-14
 -1       571 1.30928E-02 1.40256E-03-6.91318E-14
 -1       572 1.33954E-02 1.45611E-03-7.15208E-14
 -1       573 1.36834E-02 1.36663E-03-7.39249E-14
 -1       574 1.39679E-02 1.14327E-03-7.63382E-14
 -1       575 1.42741E-02 1.02553E-03-7.68639E-14
 -1       576 1.45333E-02 9.61181E-04-7.70017E-14
 -1       577 1.52236E-02-3.45061E-04-7.89517E-14
 -1       578 1.41551E-02-7.20250E-04-7.81746E-14
 -1       579 1.50139E-03 4.50161E-04-1.20857E-15
 -1       580 1.45533E-02-5.84997E-04-7.84020E-14
 -1       581 1.32201E-02 1.31343E-03-6.99609E-14
 -1       582 1.42693E-02 1.20260E-03-7.53036E-14
 -1       583 6.63710E-04-3.65085E-05-3.85891E-16
 -1       584 1.39188E-02 1.36924E-03-7.36290E-14
 -1       585 1.28492E-02 1.10089E-03-6.81663E-14
 -1       586 1.15482E-02 3.16817E-04-6.45610E-14
 -1       587 1.12934E-02 2.03293E-04-6.39957E-14
 -1       588 1.11316E-02 1.14356E-04-6.34828E-14
 -1       589 1.12025E-02 5.89985E-05-6.41023E-14
 -1       590 1.14312E-02-3.96408E-05-6.47201E-14
 -1       591 1.17432E-02-1.82578E-04-6.55099E-14
 -1       592 1.21874E-02-4.26923E-04-6.67176E-14
 -1       593 1.26398E-02-6.93827E-04-6.86334E-14
 -1       594 1.30101E-02-9.06569E-04-7.02905E-14
 -1       595 1.33614E-02-1.04829E-03-7.20844E-14
 -1       596 1.37202E-02-1.05885E-03-7.41420E-14
 -1       597 1.45081E-02-6.90273E-04-7.75404E-14
 -1       598 1.47849E-02 8.85625E-04-7.72136E-14
 -1       599 7.03877E-04 2.90852E-04-2.48289E-16
 -1       600 1.18750E-02 4.80538E-04-6.51365E-14
 -1       601 1.35818E-02 1.41471E-03-7.18848E-14
 -1       602 6.76613E-04-1.60010E-04-3.68666E-16
 -1       603 1.21138E-02 6.25028E-04-6.52787E-14
 -1       604 1.11371E-02 1.42054E-04-6.26311E-14
 -1       605 1.37700E-02-8.67480E-04-7.80506E-14
 -1       606 1.25856E-02 9.38820E-04-6.68366E-14
 -1       607 8.99699E-04 7.40949E-05-6.46232E-16
 -1       608 8.97601E-04 2.51726E-05-6.55939E-16
 -1       609 9.11810E-04 1.78193E-04-6.08695E-16
 -1       610 9.24213E-04 2.36752E-04-5.76765E-16
 -1       611 1.33663E-02 1.39930E-03-7.07718E-14
 -1       612 1.09775E-03-2.94608E-04-8.26667E-16
 -1       613 1.04893E-03 3.13880E-04-6.64382E-16
 -1       614 2.47555E-03 4.48614E-04-3.53277E-15
 -1       615 1.38333E-03-3.37014E-04-1.27021E-15
 -1       616 1.66953E-03-3.67963E-04-1.80709E-15
 -1       617 1.95575E-03-3.89778E-04-2.43576E-15
 -1       618 2.24179E-03-4.04631E-04-3.15473E-15
 -1       619 2.52765E-03-4.14317E-04-3.96315E-15
 -1       620 2.81336E-03-4.20261E-04-4.85774E-15
 -1       621 3.09898E-03-4.23561E-04-5.83513E-15
 -1       622 3.38455E-03-4.25045E-04-6.89091E-15
 -1       623 3.67010E-03-4.25323E-04-8.02440E-15
 -1       624 3.95565E-03-4.24830E-04-9.23571E-15
 -1       625 4.24121E-03-4.23867E-04-1.05221E-14
 -1       626 4.52679E-03-4.22632E-04-1.18827E-14
 -1       627 4.81239E-03-4.21241E-04-1.33150E-14
 -1       628 5.09802E-03-4.19753E-04-1.48168E-14
 -1       629 5.38367E-03-4.18176E-04-1.63857E-14
 -1       630 5.66934E-03-4.16485E-04-1.80187E-14
 -1       631 5.95505E-03-4.14627E-04-1.97162E-14
 -1       632 6.24079E-03-4.12528E-04-2.14754E-14
 -1       633 6.52656E-03-4.10096E-04-2.32915E-14
 -1       634 6.81238E-03-4.07230E-04-2.51645E-14
 -1       635 7.09825E-03-4.03827E-04-2.70902E-14
 -1       636 7.38419E-03-3.99789E-04-2.90700E-14
 -1       637 7.67021E-03-3.95039E-04-3.10982E-14
 -1       638 7.95636E-03-3.89543E-04-3.31748E-14
 -1       639 8.24265E-03-3.83332E-04-3.52999E-14
 -1       640 8.52917E-03-3.76547E-04-3.74631E-14
 -1       641 8.81600E-03-3.69486E-04-3.96569E-14
 -1       642 9.10330E-03-3.62669E-04-4.18764E-14
 -1       643 9.39134E-03-3.56918E-04-4.41226E-14
 -1       644 9.68053E-03-3.53452E-04-4.63917E-14
 -1       645 9.97159E-03-3.53992E-04-4.86894E-14
 -1       646 1.02656E-02-3.60878E-04-5.10171E-14
 -1       647 1.05643E-02-3.77183E-04-5.33664E-14
 -1       648 1.08701E-02-4.06818E-04-5.57252E-14
 -1       649 1.11862E-02-4.54571E-04-5.80938E-14
 -1       650 1.15156E-02-5.25834E-04-6.04748E-14
 -1       651 1.18601E-02-6.25350E-04-6.28702E-14
 -1       652 1.22171E-02-7.53663E-04-6.52760E-14
 -1       653 1.25766E-02-8.99437E-04-6.76945E-14
 -1       654 1.29235E-02-1.02995E-03-7.01224E-14
 -1       655 1.32465E-02-1.09263E-03-7.25610E-14
 -1       656 1.35491E-02-1.04041E-03-7.50045E-14
 -1       657 2.19077E-03 4.37516E-04-2.77674E-15
 -1       658 1.90576E-03 4.20711E-04-2.11091E-15
 -1       659 2.76024E-03 4.55574E-04-4.37650E-15
 -1       660 3.04492E-03 4.59603E-04-5.30448E-15
 -1       661 3.32967E-03 4.61607E-04-6.31381E-15
 -1       662 3.61453E-03 4.62256E-04-7.40165E-15
 -1       663 3.89949E-03 4.62031E-04-8.56917E-15
 -1       664 4.18458E-03 4.61267E-04-9.81513E-15
 -1       665 4.46978E-03 4.60187E-04-1.11383E-14
 -1       666 4.75507E-03 4.58926E-04-1.25368E-14
 -1       667 5.04046E-03 4.57555E-04-1.40086E-14
 -1       668 5.32594E-03 4.56093E-04-1.55470E-14
 -1       669 5.61149E-03 4.54520E-04-1.71497E-14
 -1       670 5.89711E-03 4.52786E-04-1.88155E-14
 -1       671 6.18282E-03 4.50817E-04-2.05385E-14
 -1       672 6.46862E-03 4.48521E-04-2.23161E-14
 -1       673 6.75453E-03 4.45792E-04-2.41465E-14
 -1       674 7.04058E-03 4.42517E-04-2.60257E-14
 -1       675 7.32679E-03 4.38586E-04-2.79558E-14
 -1       676 7.61322E-03 4.33901E-04-2.99280E-14
 -1       677 7.89992E-03 4.28398E-04-3.19418E-14
 -1       678 8.18696E-03 4.22070E-04-3.39987E-14
 -1       679 8.47441E-03 4.15007E-04-3.60931E-14
 -1       680 8.76236E-03 4.07447E-04-3.82212E-14
 -1       681 9.05093E-03 3.99846E-04-4.03755E-14
 -1       682 9.34027E-03 3.92974E-04-4.25687E-14
 -1       683 9.63063E-03 3.88033E-04-4.47924E-14
 -1       684 9.92238E-03 3.86807E-04-4.70475E-14
 -1       685 1.02162E-02 3.91842E-04-4.93279E-14
 -1       686 1.05135E-02 4.06651E-04-5.16245E-14
 -1       687 1.08162E-02 4.35932E-04-5.39352E-14
 -1       688 1.11280E-02 4.85802E-04-5.62659E-14
 -1       689 1.14537E-02 5.63962E-04-5.86175E-14
 -1       690 1.17990E-02 6.79286E-04-6.09765E-14
 -1       691 1.21668E-02 8.39103E-04-6.33412E-14
 -1       692 1.25526E-02 1.04126E-03-6.57120E-14
 -1       693 1.29391E-02 1.25445E-03-6.80925E-14
 -1       694 1.30635E-02 1.26596E-03-6.89768E-14
 -1       695 1.37673E-02-9.54347E-04-7.61480E-14
 -1       696 1.62040E-03 3.96198E-04-1.53682E-15
 -1       697 1.37019E-02 1.40754E-03-7.28447E-14
 -1       698 1.33468E-03 3.61515E-04-1.05472E-15
 -1       699 1.34554E-02-1.07619E-03-7.30095E-14
 -1       700 1.40499E-02 1.23571E-03-7.51660E-14
 -1       701 1.38158E-02-9.89710E-04-7.54537E-14
 -1       702 9.04166E-04 1.24590E-04-6.31040E-16
 -1       703 9.03797E-04-1.22188E-04-6.55844E-16
 -1       704 1.13733E-02 2.44576E-04-6.30760E-14
 -1       705 1.12339E-02 1.30196E-05-6.28882E-14
 -1       706 1.15147E-02-9.98871E-05-6.39192E-14
 -1       707 1.18721E-02-2.82582E-04-6.49960E-14
 -1       708 1.24215E-02-6.02435E-04-6.72022E-14
 -1       709 1.27942E-02-8.24133E-04-6.90392E-14
 -1       710 1.31304E-02-9.98565E-04-7.09313E-14
 -1       711 1.16334E-02 3.66043E-04-6.36482E-14
 -1       712 1.10942E-02 7.23303E-05-6.22692E-14
 -1       713 9.11246E-04-1.75594E-04-6.44246E-16
 -1       714 8.97539E-04-2.31516E-05-6.60730E-16
 -1       715 1.28255E-02 1.13215E-03-6.76441E-14
 -1       716 1.36473E-02 1.40965E-03-7.28761E-14
 -1       717 1.20979E-02-4.46997E-04-6.54752E-14
 -1       718 9.38254E-04-2.47111E-04-6.34204E-16
 -1       719 1.18388E-02 4.88416E-04-6.37880E-14
 -1       720 1.10325E-02 9.81987E-05-6.14172E-14
 -1       721 8.99492E-04-7.18086E-05-6.60737E-16
 -1       722 1.11631E-02 1.75174E-04-6.17105E-14
 -1       723 1.16152E-03 2.43591E-04-9.12305E-16
 -1       724 2.60668E-03 3.78449E-04-4.03763E-15
 -1       725 1.51021E-03-2.86505E-04-1.56248E-15
 -1       726 1.79727E-03-3.09494E-04-2.14955E-15
 -1       727 2.08492E-03-3.25612E-04-2.82608E-15
 -1       728 2.37270E-03-3.36445E-04-3.59240E-15
 -1       729 2.66039E-03-3.43347E-04-4.44486E-15
 -1       730 2.94787E-03-3.47414E-04-5.38089E-15
 -1       731 3.23511E-03-3.49494E-04-6.39825E-15
 -1       732 3.52212E-03-3.50227E-04-7.49088E-15
 -1       733 3.80890E-03-3.50081E-04-8.66001E-15
 -1       734 4.09549E-03-3.49385E-04-9.90375E-15
 -1       735 4.38190E-03-3.48363E-04-1.12235E-14
 -1       736 4.66816E-03-3.47155E-04-1.26161E-14
 -1       737 4.95431E-03-3.45838E-04-1.40779E-14
 -1       738 5.24035E-03-3.44442E-04-1.56130E-14
 -1       739 5.52630E-03-3.42959E-04-1.72137E-14
 -1       740 5.81216E-03-3.41351E-04-1.88754E-14
 -1       741 6.09795E-03-3.39559E-04-2.06003E-14
 -1       742 6.38365E-03-3.37507E-04-2.23843E-14
 -1       743 6.66924E-03-3.35108E-04-2.42222E-14
 -1       744 6.95471E-03-3.32264E-04-2.61157E-14
 -1       745 7.24001E-03-3.28880E-04-2.80617E-14
 -1       746 7.52509E-03-3.24872E-04-3.00603E-14
 -1       747 7.80991E-03-3.20176E-04-3.21068E-14
 -1       748 8.09440E-03-3.14774E-04-3.42002E-14
 -1       749 8.37849E-03-3.08716E-04-3.63356E-14
 -1       750 8.66215E-03-3.02158E-04-3.85071E-14
 -1       751 8.94537E-03-2.95401E-04-4.07085E-14
 -1       752 9.22823E-03-2.88949E-04-4.29396E-14
 -1       753 9.51097E-03-2.83571E-04-4.51939E-14
 -1       754 9.79407E-03-2.80372E-04-4.74734E-14
 -1       755 1.00785E-02-2.80887E-04-4.97837E-14
 -1       756 1.03658E-02-2.87201E-04-5.21200E-14
 -1       757 1.06586E-02-3.02147E-04-5.44718E-14
 -1       758 1.09608E-02-3.29664E-04-5.68318E-14
 -1       759 1.12778E-02-3.75412E-04-5.92054E-14
 -1       760 1.16155E-02-4.47391E-04-6.15871E-14
 -1       761 1.19788E-02-5.54618E-04-6.39811E-14
 -1       762 1.23652E-02-7.04406E-04-6.63786E-14
 -1       763 1.31333E-02-1.04197E-03-7.12348E-14
 -1       764 1.34916E-02-1.07368E-03-7.36485E-14
 -1       765 2.31977E-03 3.70283E-04-3.23039E-15
 -1       766 2.03273E-03 3.57672E-04-2.51166E-15
 -1       767 3.17997E-03 3.86093E-04-5.90230E-15
 -1       768 3.46637E-03 3.87246E-04-6.95465E-15
 -1       769 3.75263E-03 3.87385E-04-8.08502E-15
 -1       770 4.03878E-03 3.86886E-04-9.29294E-15
 -1       771 4.32483E-03 3.86003E-04-1.05778E-14
 -1       772 4.61081E-03 3.84901E-04-1.19403E-14
 -1       773 4.89672E-03 3.83673E-04-1.33765E-14
 -1       774 5.18259E-03 3.82358E-04-1.48817E-14
 -1       775 5.46843E-03 3.80954E-04-1.64528E-14
 -1       776 5.75423E-03 3.79428E-04-1.80852E-14
 -1       777 6.04000E-03 3.77722E-04-1.97806E-14
 -1       778 6.32575E-03 3.75757E-04-2.15333E-14
 -1       779 6.61145E-03 3.73440E-04-2.33376E-14
 -1       780 6.89711E-03 3.70669E-04-2.51928E-14
 -1       781 7.18270E-03 3.67341E-04-2.70980E-14
 -1       782 7.46820E-03 3.63356E-04-2.90498E-14
 -1       783 7.75357E-03 3.58638E-04-3.10446E-14
 -1       784 8.03875E-03 3.53151E-04-3.30813E-14
 -1       785 8.32368E-03 3.46926E-04-3.51601E-14
 -1       786 8.60827E-03 3.40101E-04-3.72741E-14
 -1       787 8.89244E-03 3.32971E-04-3.94194E-14
 -1       788 9.17609E-03 3.26049E-04-4.15954E-14
 -1       789 9.45919E-03 3.20147E-04-4.38065E-14
 -1       790 9.74180E-03 3.16463E-04-4.60495E-14
 -1       791 1.00242E-02 3.16686E-04-4.83196E-14
 -1       792 1.03074E-02 3.23113E-04-5.06130E-14
 -1       793 1.05929E-02 3.38813E-04-5.29216E-14
 -1       794 1.08842E-02 3.67917E-04-5.52476E-14
 -1       795 1.11868E-02 4.16246E-04-5.75947E-14
 -1       796 1.15092E-02 4.92732E-04-5.99483E-14
 -1       797 1.18629E-02 6.10193E-04-6.23107E-14
 -1       798 1.22452E-03-2.54999E-04-1.06674E-15
 -1       799 1.74569E-03 3.39080E-04-1.88266E-15
 -1       800 1.12946E-02-5.78308E-05-6.21252E-14
 -1       801 2.89342E-03 3.83400E-04-4.92889E-15
 -1       802 1.14130E-02 2.96013E-04-6.19729E-14
 -1       803 1.22511E-02 7.71435E-04-6.47758E-14
 -1       804 1.13817E-03 5.90462E-05-9.92167E-16
 -1       805 1.24623E-03 3.00812E-04-9.86224E-16
 -1       806 1.25611E-02-7.53254E-04-6.76180E-14
 -1       807 1.15834E-02-1.91151E-04-6.31846E-14
 -1       808 1.28656E-02-9.22196E-04-6.94192E-14
 -1       809 1.10830E-02 3.09938E-05-6.13120E-14
 -1       810 1.06660E-03-2.14907E-04-8.43235E-16
 -1       811 1.13680E-03 1.19242E-06-1.00236E-15
 -1       812 1.24166E-02 9.11986E-04-6.52442E-14
 -1       813 1.09806E-02 6.20599E-05-6.04612E-14
 -1       814 1.15794E-02 3.93625E-04-6.21090E-14
 -1       815 1.49561E-03 3.24122E-04-1.39845E-15
 -1       816 1.22504E-02-5.82073E-04-6.59261E-14
 -1       817 1.14976E-03 1.79085E-04-9.48555E-16
 -1       818 1.14195E-03-1.15175E-04-1.00323E-15
 -1       819 1.10017E-02 1.24267E-04-6.04994E-14
 -1       820 1.14230E-03 1.17917E-04-9.74596E-16
 -1       821 1.17845E-02-3.29261E-04-6.36570E-14
 -1       822 1.10284E-03-1.65171E-04-9.24984E-16
 -1       823 1.64153E-03-2.31738E-04-1.87008E-15
 -1       824 1.92945E-03-2.47780E-04-2.50493E-15
 -1       825 2.21822E-03-2.58912E-04-3.22859E-15
 -1       826 2.50727E-03-2.66260E-04-4.03913E-15
 -1       827 2.79625E-03-2.70804E-04-4.93396E-15
 -1       828 3.08498E-03-2.73340E-04-5.91038E-15
 -1       829 3.37337E-03-2.74482E-04-6.96420E-15
 -1       830 3.66139E-03-2.74693E-04-8.09168E-15
 -1       831 3.94904E-03-2.74307E-04-9.29559E-15
 -1       832 4.23635E-03-2.73557E-04-1.05732E-14
 -1       833 4.52335E-03-2.72595E-04-1.19252E-14
 -1       834 4.81009E-03-2.71512E-04-1.33499E-14
 -1       835 5.09659E-03-2.70353E-04-1.48455E-14
 -1       836 5.38289E-03-2.69125E-04-1.64128E-14
 -1       837 5.66899E-03-2.67810E-04-1.80434E-14
 -1       838 5.95491E-03-2.66365E-04-1.97351E-14
 -1       839 6.24064E-03-2.64732E-04-2.14860E-14
 -1       840 6.52614E-03-2.62842E-04-2.32917E-14
 -1       841 6.81137E-03-2.60613E-04-2.51539E-14
 -1       842 7.09625E-03-2.57962E-04-2.70665E-14
 -1       843 7.38071E-03-2.54807E-04-2.90331E-14
 -1       844 7.66462E-03-2.51076E-04-3.10499E-14
 -1       845 7.94784E-03-2.46723E-04-3.31125E-14
 -1       846 8.23023E-03-2.41738E-04-3.52192E-14
 -1       847 8.51160E-03-2.36176E-04-3.73671E-14
 -1       848 8.79181E-03-2.30176E-04-3.95486E-14
 -1       849 9.07075E-03-2.23996E-04-4.17595E-14
 -1       850 9.34841E-03-2.18051E-04-4.40002E-14
 -1       851 9.62497E-03-2.12943E-04-4.62640E-14
 -1       852 9.90091E-03-2.09519E-04-4.85570E-14
 -1       853 1.01773E-02-2.08931E-04-5.08795E-14
 -1       854 1.04560E-02-2.12789E-04-5.32215E-14
 -1       855 1.07401E-02-2.23469E-04-5.55731E-14
 -1       856 1.10347E-02-2.44776E-04-5.79401E-14
 -1       857 1.13481E-02-2.83844E-04-6.03105E-14
 -1       858 2.16413E-03 2.92075E-04-2.92809E-15
 -1       859 3.89207E-03 3.11893E-04-8.77498E-15
 -1       860 3.60478E-03 3.12070E-04-7.60298E-15
 -1       861 3.31719E-03 3.11534E-04-6.50919E-15
 -1       862 4.17907E-03 3.11278E-04-1.00221E-14
 -1       863 4.46583E-03 3.10405E-04-1.13466E-14
 -1       864 4.75238E-03 3.09386E-04-1.27471E-14
 -1       865 5.03873E-03 3.08278E-04-1.42190E-14
 -1       866 5.32493E-03 3.07096E-04-1.57571E-14
 -1       867 5.61099E-03 3.05825E-04-1.73604E-14
 -1       868 5.89690E-03 3.04424E-04-1.90252E-14
 -1       869 6.18268E-03 3.02832E-04-2.07510E-14
 -1       870 6.46829E-03 3.00975E-04-2.25306E-14
 -1       871 6.75370E-03 2.98768E-04-2.43599E-14
 -1       872 7.03887E-03 2.96121E-04-2.62417E-14
 -1       873 7.32371E-03 2.92945E-04-2.81708E-14
 -1       874 7.60812E-03 2.89167E-04-3.01470E-14
 -1       875 7.89196E-03 2.84736E-04-3.21649E-14
 -1       876 8.17508E-03 2.79653E-04-3.42245E-14
 -1       877 8.45725E-03 2.73989E-04-3.63226E-14
 -1       878 8.73825E-03 2.67924E-04-3.84560E-14
 -1       879 9.01778E-03 2.61789E-04-4.06213E-14
 -1       880 9.29558E-03 2.56110E-04-4.28186E-14
 -1       881 9.57138E-03 2.51656E-04-4.50477E-14
 -1       882 9.84505E-03 2.49485E-04-4.73092E-14
 -1       883 1.01168E-02 2.50971E-04-4.95979E-14
 -1       884 1.03872E-02 2.57852E-04-5.19041E-14
 -1       885 1.06582E-02 2.72341E-04-5.42281E-14
 -1       886 1.09332E-02 2.97512E-04-5.65666E-14
 -1       887 1.12195E-02 3.38723E-04-5.89191E-14
 -1       888 1.87584E-03 2.78748E-04-2.24672E-15
 -1       889 1.13801E-03-5.65059E-05-1.00645E-15
 -1       890 1.10491E-02-3.26442E-05-5.99760E-14
 -1       891 2.74107E-03 3.06618E-04-4.55382E-15
 -1       892 3.02928E-03 3.09896E-04-5.49134E-15
 -1       893 2.45264E-03 3.00984E-04-3.69825E-15
 -1       894 1.12996E-02-1.46017E-04-6.10322E-14
 -1       895 1.25900E-03-1.99609E-04-1.16145E-15
 -1       896 1.11239E-02 2.16752E-04-5.99752E-14
 -1       897 1.58827E-03 2.59680E-04-1.65478E-15
 -1       898 1.29683E-03-1.44342E-04-1.25121E-15
 -1       899 1.29150E-03-8.02331E-05-1.25698E-15
 -1       900 1.09196E-02 8.00833E-06-5.91296E-14
 -1       901 1.09081E-02 8.83733E-05-5.95470E-14
 -1       902 1.40126E-03 2.37040E-04-1.32229E-15
 -1       903 1.38410E-03 1.00043E-04-1.38908E-15
 -1       904 1.38092E-03 3.40346E-05-1.40746E-15
 -1       905 1.77665E-03-1.72689E-04-2.19215E-15
 -1       906 2.06542E-03-1.82861E-04-2.87308E-15
 -1       907 2.35509E-03-1.89796E-04-3.64159E-15
 -1       908 2.64505E-03-1.94264E-04-4.49447E-15
 -1       909 2.93492E-03-1.96917E-04-5.42943E-15
 -1       910 3.22448E-03-1.98281E-04-6.44317E-15
 -1       911 3.51360E-03-1.98764E-04-7.53190E-15
 -1       912 3.80224E-03-1.98667E-04-8.69464E-15
 -1       913 4.09043E-03-1.98207E-04-9.93232E-15
 -1       914 4.37817E-03-1.97528E-04-1.12449E-14
 -1       915 4.66552E-03-1.96725E-04-1.26306E-14
 -1       916 4.95252E-03-1.95849E-04-1.40883E-14
 -1       917 5.23921E-03-1.94919E-04-1.56189E-14
 -1       918 5.52561E-03-1.93930E-04-1.72162E-14
 -1       919 5.81173E-03-1.92858E-04-1.88755E-14
 -1       920 6.09758E-03-1.91666E-04-2.05947E-14
 -1       921 6.38311E-03-1.90302E-04-2.23713E-14
 -1       922 6.66827E-03-1.88707E-04-2.42027E-14
 -1       923 6.95298E-03-1.86816E-04-2.60855E-14
 -1       924 7.23712E-03-1.84561E-04-2.80204E-14
 -1       925 7.52054E-03-1.81877E-04-3.00046E-14
 -1       926 7.80305E-03-1.78709E-04-3.20358E-14
 -1       927 8.08443E-03-1.75017E-04-3.41129E-14
 -1       928 8.36442E-03-1.70793E-04-3.62354E-14
 -1       929 8.64276E-03-1.66072E-04-3.83961E-14
 -1       930 8.91916E-03-1.60945E-04-4.05873E-14
 -1       931 9.19339E-03-1.55578E-04-4.28073E-14
 -1       932 9.46530E-03-1.50223E-04-4.50594E-14
 -1       933 9.73489E-03-1.45231E-04-4.73380E-14
 -1       934 1.00025E-02-1.41069E-04-4.96430E-14
 -1       935 1.02688E-02-1.38367E-04-5.19732E-14
 -1       936 1.05354E-02-1.38064E-04-5.43169E-14
 -1       937 1.08055E-02-1.41822E-04-5.66723E-14
 -1       938 4.32036E-03 2.35388E-04-1.07570E-14
 -1       939 4.03280E-03 2.35984E-04-9.46962E-15
 -1       940 3.45644E-03 2.36165E-04-7.12329E-15
 -1       941 4.60758E-03 2.34633E-04-1.21202E-14
 -1       942 4.89447E-03 2.33785E-04-1.35567E-14
 -1       943 5.18109E-03 2.32874E-04-1.50627E-14
 -1       944 5.46746E-03 2.31899E-04-1.66363E-14
 -1       945 5.75360E-03 2.30837E-04-1.82733E-14
 -1       946 6.03949E-03 2.29647E-04-1.99699E-14
 -1       947 6.32512E-03 2.28276E-04-2.17236E-14
 -1       948 6.61045E-03 2.26658E-04-2.35298E-14
 -1       949 6.89540E-03 2.24724E-04-2.53865E-14
 -1       950 7.17987E-03 2.22406E-04-2.72907E-14
 -1       951 7.46371E-03 2.19638E-04-2.92458E-14
 -1       952 7.74675E-03 2.16376E-04-3.12479E-14
 -1       953 8.02876E-03 2.12603E-04-3.32878E-14
 -1       954 8.30945E-03 2.08356E-04-3.53692E-14
 -1       955 8.58849E-03 2.03741E-04-3.74886E-14
 -1       956 8.86546E-03 1.98966E-04-3.96427E-14
 -1       957 9.13994E-03 1.94367E-04-4.18295E-14
 -1       958 9.41142E-03 1.90435E-04-4.40473E-14
 -1       959 9.67941E-03 1.87825E-04-4.62973E-14
 -1       960 9.94346E-03 1.87344E-04-4.85773E-14
 -1       961 1.02033E-02 1.89917E-04-5.08799E-14
 -1       962 1.04588E-02 1.96542E-04-5.32007E-14
 -1       963 1.07107E-02 2.08306E-04-5.55377E-14
 -1       964 1.09610E-02 2.27146E-04-5.78860E-14
 -1       965 3.16762E-03 2.35302E-04-6.06380E-15
 -1       966 1.72163E-03 2.02459E-04-1.98417E-15
 -1       967 2.01003E-03 2.15214E-04-2.62806E-15
 -1       968 1.13154E-02 3.23226E-04-6.02048E-14
 -1       969 2.87840E-03 2.33345E-04-5.08101E-15
 -1       970 3.74483E-03 2.36304E-04-8.25897E-15
 -1       971 2.29933E-03 2.24018E-04-3.36047E-15
 -1       972 1.10158E-02-1.11123E-04-5.88113E-14
 -1       973 2.58890E-03 2.29798E-04-4.17917E-15
 -1       974 1.39067E-03 1.67348E-04-1.36092E-15
 -1       975 1.55566E-03 1.85399E-04-1.65832E-15
 -1       976 1.33498E-03-2.41718E-05-1.33480E-15
 -1       977 1.08822E-02 1.46520E-04-5.83986E-14
 -1       978 1.53234E-03-1.24707E-04-1.69434E-15
 -1       979 1.08742E-02-6.04451E-05-5.79703E-14
 -1       980 1.08109E-02 4.03175E-05-5.82163E-14
 -1       981 1.54836E-03 1.13886E-04-1.69130E-15
 -1       982 1.54462E-03 4.35543E-05-1.71407E-15
 -1       983 2.20476E-03-1.14888E-04-3.25267E-15
 -1       984 2.49512E-03-1.18469E-04-4.06299E-15
 -1       985 2.78569E-03-1.20698E-04-4.95603E-15
 -1       986 3.07607E-03-1.21941E-04-5.92959E-15
 -1       987 3.36606E-03-1.22493E-04-6.97953E-15
 -1       988 3.65554E-03-1.22581E-04-8.10242E-15
 -1       989 3.94449E-03-1.22370E-04-9.29969E-15
 -1       990 4.23290E-03-1.21974E-04-1.05730E-14
 -1       991 4.52082E-03-1.21471E-04-1.19217E-14
 -1       992 4.80830E-03-1.20906E-04-1.33420E-14
 -1       993 5.09538E-03-1.20301E-04-1.48323E-14
 -1       994 5.38210E-03-1.19661E-04-1.63965E-14
 -1       995 5.66847E-03-1.18976E-04-1.80219E-14
 -1       996 5.95450E-03-1.18227E-04-1.97085E-14
 -1       997 6.24016E-03-1.17382E-04-2.14545E-14
 -1       998 6.52540E-03-1.16407E-04-2.32567E-14
 -1       999 6.81014E-03-1.15258E-04-2.51122E-14
 -1      1000 7.09424E-03-1.13890E-04-2.70172E-14
 -1      1001 7.37754E-03-1.12255E-04-2.89710E-14
 -1      1002 7.65984E-03-1.10304E-04-3.09715E-14
 -1      1003 7.94087E-03-1.07994E-04-3.30187E-14
 -1      1004 8.22033E-03-1.05289E-04-3.51128E-14
 -1      1005 8.49786E-03-1.02165E-04-3.72497E-14
 -1      1006 8.77309E-03-9.86159E-05-3.94209E-14
 -1      1007 9.04561E-03-9.46549E-05-4.16199E-14
 -1      1008 9.31501E-03-9.03169E-05-4.38527E-14
 -1      1009 9.58090E-03-8.56534E-05-4.61187E-14
 -1      1010 9.84298E-03-8.07231E-05-4.84089E-14
 -1      1011 1.01010E-02-7.55831E-05-5.07251E-14
 -1      1012 1.03550E-02-7.03238E-05-5.30580E-14
 -1      1013 1.06051E-02-6.52505E-05-5.54035E-14
 -1      1014 4.74998E-03 1.58844E-04-1.28987E-14
 -1      1015 5.03704E-03 1.58240E-04-1.43722E-14
 -1      1016 4.46255E-03 1.59394E-04-1.14979E-14
 -1      1017 5.32375E-03 1.57592E-04-1.59134E-14
 -1      1018 5.61015E-03 1.56892E-04-1.75207E-14
 -1      1019 5.89623E-03 1.56118E-04-1.91896E-14
 -1      1020 6.18198E-03 1.55235E-04-2.09168E-14
 -1      1021 6.46736E-03 1.54203E-04-2.26989E-14
 -1      1022 6.75228E-03 1.52975E-04-2.45335E-14
 -1      1023 7.03664E-03 1.51504E-04-2.64165E-14
 -1      1024 7.32029E-03 1.49746E-04-2.83480E-14
 -1      1025 7.60301E-03 1.47667E-04-3.03267E-14
 -1      1026 7.88455E-03 1.45254E-04-3.23499E-14
 -1      1027 8.16460E-03 1.42524E-04-3.44149E-14
 -1      1028 8.44277E-03 1.39543E-04-3.65202E-14
 -1      1029 8.71861E-03 1.36440E-04-3.86634E-14
 -1      1030 8.99159E-03 1.33432E-04-4.08383E-14
 -1      1031 9.26109E-03 1.30832E-04-4.30444E-14
 -1      1032 9.52644E-03 1.29063E-04-4.52841E-14
 -1      1033 9.78683E-03 1.28633E-04-4.75565E-14
 -1      1034 1.00413E-02 1.30090E-04-4.98530E-14
 -1      1035 1.02888E-02 1.33929E-04-5.21690E-14
 -1      1036 1.05278E-02 1.40591E-04-5.45034E-14
 -1      1037 1.07114E-02 1.42710E-04-5.64470E-14
 -1      1038 3.30818E-03 1.59866E-04-6.64525E-15
 -1      1039 1.85852E-03 1.41057E-04-2.33264E-15
 -1      1040 3.59752E-03 1.60225E-04-7.74640E-15
 -1      1041 3.01835E-03 1.58871E-04-5.62050E-15
 -1      1042 4.17469E-03 1.59857E-04-1.01721E-14
 -1      1043 3.88636E-03 1.60169E-04-8.92131E-15
 -1      1044 1.07378E-02 9.00818E-05-5.73364E-14
 -1      1045 2.14776E-03 1.48570E-04-3.02704E-15
 -1      1046 1.91520E-03-1.09510E-04-2.52813E-15
 -1      1047 1.07431E-02-1.86854E-05-5.70639E-14
 -1      1048 2.72817E-03 1.56938E-04-4.67330E-15
 -1      1049 2.43784E-03 1.53663E-04-3.80799E-15
 -1      1050 1.49801E-03-1.87168E-05-1.63568E-15
 -1      1051 1.51419E-03-7.11362E-05-1.66744E-15
 -1      1052 1.79468E-03 8.45287E-05-2.22122E-15
 -1      1053 5.17997E-03 8.28793E-05-1.51917E-14
 -1      1054 2.63795E-03-4.52519E-05-4.49123E-15
 -1      1055 2.92879E-03-4.58736E-05-5.42375E-15
 -1      1056 3.21934E-03-4.61719E-05-6.43388E-15
 -1      1057 3.50941E-03-4.62480E-05-7.51777E-15
 -1      1058 3.79892E-03-4.61770E-05-8.67613E-15
 -1      1059 4.08787E-03-4.60133E-05-9.90873E-15
 -1      1060 4.37626E-03-4.57938E-05-1.12181E-14
 -1      1061 4.66414E-03-4.55423E-05-1.26022E-14
 -1      1062 4.95156E-03-4.52719E-05-1.40553E-14
 -1      1063 5.23857E-03-4.49876E-05-1.55800E-14
 -1      1064 5.52518E-03-4.46881E-05-1.71743E-14
 -1      1065 5.81143E-03-4.43671E-05-1.88272E-14
 -1      1066 6.09728E-03-4.40142E-05-2.05446E-14
 -1      1067 6.38270E-03-4.36154E-05-2.23171E-14
 -1      1068 6.66761E-03-4.31532E-05-2.41430E-14
 -1      1069 6.95189E-03-4.26070E-05-2.60218E-14
 -1      1070 7.23538E-03-4.19527E-05-2.79468E-14
 -1      1071 7.51787E-03-4.11624E-05-2.99177E-14
 -1      1072 7.79910E-03-4.02040E-05-3.19340E-14
 -1      1073 8.07874E-03-3.90401E-05-3.39992E-14
 -1      1074 8.35642E-03-3.76264E-05-3.61092E-14
 -1      1075 8.63169E-03-3.59096E-05-3.82585E-14
 -1      1076 8.90407E-03-3.38233E-05-4.04378E-14
 -1      1077 9.17300E-03-3.12832E-05-4.26501E-14
 -1      1078 9.43788E-03-2.81791E-05-4.48943E-14
 -1      1079 9.69802E-03-2.43659E-05-4.71721E-14
 -1      1080 9.95263E-03-1.96526E-05-4.94731E-14
 -1      1081 1.02006E-02-1.37940E-05-5.17944E-14
 -1      1082 1.04404E-02-6.58012E-06-5.41309E-14
 -1      1083 4.89292E-03 8.31830E-05-1.36841E-14
 -1      1084 4.60546E-03 8.34619E-05-1.22466E-14
 -1      1085 5.75294E-03 8.21894E-05-1.84092E-14
 -1      1086 6.03888E-03 8.17801E-05-2.01100E-14
 -1      1087 6.32440E-03 8.13037E-05-2.18670E-14
 -1      1088 6.60945E-03 8.07380E-05-2.36773E-14
 -1      1089 6.89392E-03 8.00603E-05-2.55396E-14
 -1      1090 7.17765E-03 7.92497E-05-2.74498E-14
 -1      1091 7.46045E-03 7.82916E-05-2.94072E-14
 -1      1092 7.74207E-03 7.71825E-05-3.14069E-14
 -1      1093 8.02217E-03 7.59380E-05-3.34568E-14
 -1      1094 8.30039E-03 7.46016E-05-3.55489E-14
 -1      1095 8.57626E-03 7.32567E-05-3.76771E-14
 -1      1096 8.84925E-03 7.20392E-05-3.98417E-14
 -1      1097 9.11873E-03 7.11489E-05-4.20391E-14
 -1      1098 9.38400E-03 7.08582E-05-4.42671E-14
 -1      1099 9.64420E-03 7.15088E-05-4.65282E-14
 -1      1100 9.89826E-03 7.34943E-05-4.88201E-14
 -1      1101 1.01448E-02 7.72154E-05-5.11305E-14
 -1      1102 1.03814E-02 8.28667E-05-5.34596E-14
 -1      1103 1.05656E-02 8.57824E-05-5.53953E-14
 -1      1104 2.05694E-03-4.24699E-05-2.87474E-15
 -1      1105 2.08372E-03 8.95528E-05-2.90149E-15
 -1      1106 3.45065E-03 8.38572E-05-7.23576E-15
 -1      1107 3.16059E-03 8.34783E-05-6.17043E-15
 -1      1108 5.46664E-03 8.25509E-05-1.67684E-14
 -1      1109 4.31755E-03 8.37046E-05-1.08809E-14
 -1      1110 4.02913E-03 8.38853E-05-9.59088E-15
 -1      1111 2.34715E-03-4.41641E-05-3.64064E-15
 -1      1112 1.79093E-03 8.10735E-06-2.23997E-15
 -1      1113 3.74017E-03 8.39593E-05-8.37575E-15
 -1      1114 2.87009E-03 8.26841E-05-5.18033E-15
 -1      1115 1.76806E-03-4.00393E-05-2.19579E-15
 -1      1116 2.37390E-03 9.30182E-05-3.66857E-15
 -1      1117 1.05867E-02 4.29000E-05-5.57342E-14
 -1      1118 2.62195E-03 8.82946E-05-4.39445E-15
 -1      1119 2.20168E-03 2.79484E-05-3.23095E-15
 -1      1120 0.00000E+00 0.00000E+00 0.00000E+00
 -1      1121 0.00000E+00 0.00000E+00 0.00000E+00
 -1      1122 0.00000E+00 0.00000E+00 0.00000E+00
 -1      1123 0.00000E+00 0.00000E+00 0.00000E+00
 -1      1124 0.00000E+00 0.00000E+00 0.00000E+00
 -1      1125 0.00000E+00 0.00000E+00 0.00000E+00
 -1      1126 0.00000E+00 0.00000E+00 0.00000E+00
 -1      1127 0.00000E+00 0.00000E+00 0.00000E+00
 -1      1128 0.00000E+00 0.00000E+00 0.00000E+00
 -1      1129 0.00000E+00 0.00000E+00 0.00000E+00
 -1      1130 0.00000E+00 0.00000E+00 0.00000E+00
 -1      1131 0.00000E+00 0.00000E+00 0.00000E+00
 -1      1132 0.00000E+00 0.00000E+00 0.00000E+00
 -1      1133 0.00000E+00 0.00000E+00 0.00000E+00
 -1      1134 0.00000E+00 0.00000E+00 0.00000E+00
 -1      1135 0.00000E+00 0.00000E+00 0.00000E+00
 -1      1136 0.00000E+00 0.00000E+00 0.00000E+00
 -1      1137 2.11678E-04-1.48328E-04 1.16281E-17
 -1      1138 5.51681E-04-3.37494E-04-3.09540E-17
 -1      1139 8.33548E-04-4.58974E-04-1.70030E-16
 -1      1140 1.10318E-03-5.40653E-04-4.22419E-16
 -1      1141 1.36866E-03-5.97908E-04-7.81317E-16
 -1      1142 1.63356E-03-6.38638E-04-1.24210E-15
 -1      1143 1.89972E-03-6.67497E-04-1.80345E-15
 -1      1144 2.16800E-03-6.87612E-04-2.46340E-15
 -1      1145 2.43868E-03-7.01274E-04-3.21908E-15
 -1      1146 2.71176E-03-7.10216E-04-4.06897E-15
 -1      1147 2.98708E-03-7.15756E-04-5.00938E-15
 -1      1148 3.26440E-03-7.18889E-04-6.03369E-15
 -1      1149 3.54343E-03-7.20358E-04-7.13821E-15
 -1      1150 3.82389E-03-7.20707E-04-8.32228E-15
 -1      1151 4.10552E-03-7.20325E-04-9.58470E-15
 -1      1152 4.38809E-03-7.19479E-04-1.09273E-14
 -1      1153 4.67139E-03-7.18344E-04-1.23471E-14
 -1      1154 4.95526E-03-7.17023E-04-1.38341E-14
 -1      1155 5.23954E-03-7.15561E-04-1.53880E-14
 -1      1156 5.52415E-03-7.13964E-04-1.70110E-14
 -1      1157 5.80902E-03-7.12203E-04-1.86954E-14
 -1      1158 6.09412E-03-7.10225E-04-2.04436E-14
 -1      1159 6.37945E-03-7.07959E-04-2.22527E-14
 -1      1160 6.66508E-03-7.05324E-04-2.41255E-14
 -1      1161 6.95110E-03-7.02234E-04-2.60550E-14
 -1      1162 7.23769E-03-6.98613E-04-2.80359E-14
 -1      1163 7.52508E-03-6.94403E-04-3.00731E-14
 -1      1164 7.81361E-03-6.89592E-04-3.21615E-14
 -1      1165 8.10370E-03-6.84237E-04-3.42982E-14
 -1      1166 8.39591E-03-6.78505E-04-3.64741E-14
 -1      1167 8.69090E-03-6.72728E-04-3.86769E-14
 -1      1168 8.98949E-03-6.67474E-04-4.09081E-14
 -1      1169 9.29258E-03-6.63636E-04-4.31627E-14
 -1      1170 9.60111E-03-6.62542E-04-4.54388E-14
 -1      1171 9.91596E-03-6.66068E-04-4.77445E-14
 -1      1172 1.02377E-02-6.76738E-04-5.00786E-14
 -1      1173 1.05664E-02-6.97754E-04-5.24335E-14
 -1      1174 1.09009E-02-7.32836E-04-5.48072E-14
 -1      1175 1.12384E-02-7.85709E-04-5.71903E-14
 -1      1176 1.15738E-02-8.58996E-04-5.95719E-14
 -1      1177 1.18992E-02-9.52333E-04-6.19749E-14
 -1      1178 1.22049E-02-1.05984E-03-6.44102E-14
 -1      1179 1.24810E-02-1.16785E-03-6.68752E-14
 -1      1180 1.27215E-02-1.25460E-03-6.93522E-14
 -1      1181 1.29282E-02-1.29412E-03-7.18328E-14
 -1      1182 1.31137E-02-1.26434E-03-7.43131E-14
 -1      1183 1.32985E-02-1.15694E-03-7.67879E-14
 -1      1184 1.35050E-02-9.83939E-04-7.92644E-14
 -1      1185 1.37483E-02-7.77746E-04-8.17464E-14
 -1      1186 1.40181E-02-5.83382E-04-8.41888E-14
 -1      1187 2.28437E-04 1.60707E-04 2.04237E-17
 -1      1188 5.53853E-04 3.42126E-04-2.95445E-18
 -1      1189 8.34477E-04 4.61141E-04-1.13882E-16
 -1      1190 1.10408E-03 5.42338E-04-3.24054E-16
 -1      1191 1.36957E-03 5.99588E-04-6.34489E-16
 -1      1192 1.63452E-03 6.40408E-04-1.04437E-15
 -1      1193 1.90073E-03 6.69374E-04-1.55468E-15
 -1      1194 2.16904E-03 6.89607E-04-2.16137E-15
 -1      1195 2.43975E-03 7.03396E-04-2.86364E-15
 -1      1196 2.71285E-03 7.12470E-04-3.65860E-15
 -1      1197 2.98819E-03 7.18146E-04-4.54620E-15
 -1      1198 3.26551E-03 7.21416E-04-5.52058E-15
 -1      1199 3.54454E-03 7.23022E-04-6.57585E-15
 -1      1200 3.82501E-03 7.23508E-04-7.71423E-15
 -1      1201 4.10664E-03 7.23263E-04-8.93490E-15
 -1      1202 4.38922E-03 7.22554E-04-1.02387E-14
 -1      1203 4.67252E-03 7.21556E-04-1.16184E-14
 -1      1204 4.95638E-03 7.20371E-04-1.30717E-14
 -1      1205 5.24066E-03 7.19045E-04-1.45920E-14
 -1      1206 5.52527E-03 7.17583E-04-1.61819E-14
 -1      1207 5.81013E-03 7.15955E-04-1.78354E-14
 -1      1208 6.09521E-03 7.14106E-04-1.95424E-14
 -1      1209 6.38053E-03 7.11964E-04-2.13007E-14
 -1      1210 6.66613E-03 7.09441E-04-2.31167E-14
 -1      1211 6.95212E-03 7.06445E-04-2.49947E-14
 -1      1212 7.23868E-03 7.02887E-04-2.69218E-14
 -1      1213 7.52604E-03 6.98693E-04-2.88875E-14
 -1      1214 7.81455E-03 6.93823E-04-3.08890E-14
 -1      1215 8.10466E-03 6.88299E-04-3.29220E-14
 -1      1216 8.39698E-03 6.82238E-04-3.49936E-14
 -1      1217 8.69227E-03 6.75912E-04-3.71059E-14
 -1      1218 8.99150E-03 6.69817E-04-3.92536E-14
 -1      1219 9.29582E-03 6.64786E-04-4.14242E-14
 -1      1220 9.60660E-03 6.62126E-04-4.36200E-14
 -1      1221 9.92532E-03 6.63806E-04-4.58518E-14
 -1      1222 1.02535E-02 6.72689E-04-4.81163E-14
 -1      1223 1.05922E-02 6.92765E-04-5.04025E-14
 -1      1224 1.09416E-02 7.29301E-04-5.27139E-14
 -1      1225 1.13003E-02 7.88663E-04-5.50353E-14
 -1      1226 1.16635E-02 8.77369E-04-5.73607E-14
 -1      1227 1.20222E-02 9.99709E-04-5.96978E-14
 -1      1228 1.23623E-02 1.15343E-03-6.20616E-14
 -1      1229 1.26666E-02 1.32408E-03-6.44360E-14
 -1      1230 1.29204E-02 1.48123E-03-6.68172E-14
 -1      1231 1.31199E-02 1.58181E-03-6.92032E-14
 -1      1232 1.32794E-02 1.58415E-03-7.16007E-14
 -1      1233 1.34289E-02 1.46731E-03-7.40127E-14
 -1      1234 1.36027E-02 1.24392E-03-7.64320E-14
 -1      1235 1.38251E-02 9.58784E-04-7.88421E-14
 -1      1236 1.40880E-02 6.80117E-04-8.11793E-14
 -1      1237 1.43488E-02 5.11964E-04-8.24059E-14
 -1      1238 1.45766E-02 4.11478E-04-8.25880E-14
 -1      1239 1.48063E-02 2.61871E-04-8.27864E-14
 -1      1240 1.51107E-02 5.92531E-05-8.29836E-14
 -1      1241 1.55372E-02-1.52004E-04-8.31528E-14
 -1      1242 1.60533E-02-2.96782E-04-8.32831E-14
 -1      1243 1.65802E-02-3.28984E-04-8.33969E-14
 -1      1244 1.70424E-02-2.36370E-04-8.35029E-14
 -1      1245 1.73610E-02-1.19762E-05-8.36196E-14
 -1      1246 1.73794E-02 3.04192E-04-8.37571E-14
 -1      1247 1.70509E-02 5.57050E-04-8.38749E-14
 -1      1248 1.65281E-02 6.56922E-04-8.40000E-14
 -1      1249 1.59505E-02 6.04181E-04-8.41462E-14
 -1      1250 1.54030E-02 4.22369E-04-8.43072E-14
 -1      1251 1.49825E-02 1.75163E-04-8.44909E-14
 -1      1252 1.47166E-02-5.19146E-05-8.46931E-14
 -1      1253 1.45397E-02-2.31199E-04-8.49162E-14
 -1      1254 1.43937E-02-3.60952E-04-8.51296E-14
 -1      1255 1.42390E-02-4.54779E-04-8.53138E-14
 -1      1256 1.71302E-02 2.70678E-04-7.81828E-14
 -1      1257 1.68675E-02 5.19775E-04-7.78447E-14
 -1      1258 1.64166E-02 7.53065E-04-7.72588E-14
 -1      1259 1.58760E-02 9.60646E-04-7.64839E-14
 -1      1260 1.52807E-02 1.14164E-03-7.55082E-14
 -1      1261 1.47032E-02 1.27026E-03-7.44198E-14
 -1      1262 1.41613E-02 1.33464E-03-7.32956E-14
 -1      1263 1.36304E-02 1.33223E-03-7.21305E-14
 -1      1264 1.31185E-02 1.26040E-03-7.09766E-14
 -1      1265 1.26361E-02 1.12908E-03-6.98959E-14
 -1      1266 1.21546E-02 9.38228E-04-6.88412E-14
 -1      1267 1.17476E-02 7.28696E-04-6.79830E-14
 -1      1268 1.14595E-02 5.35627E-04-6.74111E-14
 -1      1269 1.12669E-02 3.48362E-04-6.70786E-14
 -1      1270 1.11809E-02 1.57888E-04-6.69907E-14
 -1      1271 1.12207E-02-3.04886E-05-6.71635E-14
 -1      1272 1.13776E-02-2.11862E-04-6.75649E-14
 -1      1273 1.16341E-02-3.94437E-04-6.81726E-14
 -1      1274 1.19888E-02-5.81306E-04-6.90006E-14
 -1      1275 1.24213E-02-7.56432E-04-7.00176E-14
 -1      1276 1.28851E-02-8.91682E-04-7.11157E-14
 -1      1277 1.33834E-02-9.78658E-04-7.22924E-14
 -1      1278 1.39060E-02-1.00468E-03-7.34840E-14
 -1      1279 1.44497E-02-9.65930E-04-7.46257E-14
 -1      1280 1.49891E-02-8.74541E-04-7.56373E-14
 -1      1281 1.55347E-02-7.36784E-04-7.65253E-14
 -1      1282 1.60688E-02-5.65836E-04-7.72665E-14
 -1      1283 1.65453E-02-3.75463E-04-7.78045E-14
 -1      1284 1.69191E-02-1.71520E-04-7.81342E-14
 -1      1285 1.71290E-02 3.88665E-05-7.82612E-14
 -1      1286 1.66713E-04-1.10335E-04-4.16063E-18
 -1      1287 1.12551E-04-5.69633E-05-2.24023E-17
 -1      1288 1.17633E-04-6.75730E-05-1.73337E-17
 -1      1289 1.08431E-04-4.34787E-05-3.06829E-17
 -1      1290 1.10294E-04-4.95940E-05-2.82028E-17
 -1      1291 2.26349E-04-1.07602E-04-6.62854E-17
 -1      1292 1.06843E-04-3.35944E-05-3.53992E-17
 -1      1293 1.07693E-04-3.83180E-05-3.41524E-17
 -1      1294 2.19121E-04-8.24322E-05-8.13829E-17
 -1      1295 1.06058E-04-2.53414E-05-3.78929E-17
 -1      1296 1.06490E-04-2.93719E-05-3.72694E-17
 -1      1297 2.15863E-04-6.32499E-05-9.00023E-17
 -1      1298 1.05656E-04-1.80813E-05-3.91397E-17
 -1      1299 1.05887E-04-2.16486E-05-3.89500E-17
 -1      1300 2.14203E-04-4.71689E-05-9.46373E-17
 -1      1301 1.05432E-04-1.12320E-05-3.97225E-17
 -1      1302 1.05556E-04-1.46158E-05-3.96547E-17
 -1      1303 2.13283E-04-3.27352E-05-9.69548E-17
 -1      1304 1.05330E-04-4.68589E-06-3.97767E-17
 -1      1305 1.05384E-04-7.93733E-06-3.98173E-17
 -1      1306 2.12780E-04-1.91786E-05-9.78221E-17
 -1      1307 1.05319E-04 1.74204E-06-3.94650E-17
 -1      1308 1.05317E-04-1.46945E-06-3.95463E-17
 -1      1309 2.12563E-04-6.15643E-06-9.76866E-17
 -1      1310 1.05392E-04 8.21977E-06-3.90584E-17
 -1      1311 1.05335E-04 4.96178E-06-3.91804E-17
 -1      1312 2.12571E-04 6.70471E-06-9.69006E-17
 -1      1313 1.05572E-04 1.49235E-05-3.81910E-17
 -1      1314 1.05443E-04 1.15251E-05-3.83943E-17
 -1      1315 2.12805E-04 1.97531E-05-9.54640E-17
 -1      1316 1.05908E-04 2.19396E-05-3.64834E-17
 -1      1317 1.05671E-04 1.83495E-05-3.69713E-17
 -1      1318 2.13321E-04 3.32492E-05-9.26586E-17
 -1      1319 1.06536E-04 2.98048E-05-3.38678E-17
 -1      1320 1.06094E-04 2.57284E-05-3.47893E-17
 -1      1321 2.14269E-04 4.77724E-05-8.81321E-17
 -1      1322 1.07730E-04 3.89036E-05-2.98156E-17
 -1      1323 1.06877E-04 3.41098E-05-3.13877E-17
 -1      1324 2.15981E-04 6.41830E-05-8.13423E-17
 -1      1325 1.10273E-04 5.03324E-05-2.29038E-17
 -1      1326 1.08433E-04 4.41476E-05-2.57634E-17
 -1      1327 2.19216E-04 8.36817E-05-7.06358E-17
 -1      1328 1.16949E-04 6.76094E-05-1.20617E-17
 -1      1329 1.12198E-04 5.77628E-05-1.73066E-17
 -1      1330 2.26337E-04 1.09421E-04-5.42101E-17
 -1      1331 1.57592E-04 1.09854E-04 5.02799E-18
 -1      1332 1.35675E-04 8.60823E-05-5.77338E-18
 -1      1333 2.56065E-04 1.52073E-04-3.49249E-17
 -1      1334 3.35113E-04 2.20723E-04-6.76271E-18
 -1      1335 4.21579E-04-2.61717E-04-4.28260E-17
 -1      1336 5.74695E-04-3.36767E-04-8.95280E-17
 -1      1337 7.21904E-04-3.97362E-04-1.65720E-16
 -1      1338 8.65096E-04-4.46652E-04-2.68950E-16
 -1      1339 6.12139E-04-3.30852E-04-1.56654E-16
 -1      1340 1.00515E-03-4.87723E-04-3.98133E-16
 -1      1341 1.14302E-03-5.21711E-04-5.54000E-16
 -1      1342 9.05415E-04-4.31539E-04-3.70743E-16
 -1      1343 1.27954E-03-5.50486E-04-7.35374E-16
 -1      1344 1.41522E-03-5.74528E-04-9.42551E-16
 -1      1345 1.18789E-03-5.00959E-04-6.87587E-16
 -1      1346 1.55050E-03-5.94901E-04-1.17462E-15
 -1      1347 1.68564E-03-6.11941E-04-1.43174E-15
 -1      1348 1.46488E-03-5.49740E-04-1.10570E-15
 -1      1349 1.82086E-03-6.26276E-04-1.71370E-15
 -1      1350 1.95630E-03-6.38200E-04-2.01986E-15
 -1      1351 1.73964E-03-5.84068E-04-1.62271E-15
 -1      1352 2.09206E-03-6.48115E-04-2.35035E-15
 -1      1353 2.22819E-03-6.56272E-04-2.70552E-15
 -1      1354 2.01403E-03-6.07930E-04-2.23745E-15
 -1      1355 2.36475E-03-6.62947E-04-3.08419E-15
 -1      1356 2.50175E-03-6.68346E-04-3.48540E-15
 -1      1357 2.28903E-03-6.24144E-04-2.94830E-15
 -1      1358 2.63920E-03-6.72665E-04-3.91007E-15
 -1      1359 2.77709E-03-6.76069E-04-4.35799E-15
 -1      1360 2.56513E-03-6.34790E-04-3.75208E-15
 -1      1361 2.91542E-03-6.78700E-04-4.82699E-15
 -1      1362 3.05416E-03-6.80687E-04-5.31721E-15
 -1      1363 2.84250E-03-6.41431E-04-4.64555E-15
 -1      1364 3.19329E-03-6.82132E-04-5.82845E-15
 -1      1365 3.33280E-03-6.83134E-04-6.36016E-15
 -1      1366 3.12118E-03-6.45241E-04-5.62511E-15
 -1      1367 3.47265E-03-6.83765E-04-6.91175E-15
 -1      1368 3.61282E-03-6.84101E-04-7.48319E-15
 -1      1369 3.40108E-03-6.47092E-04-6.68622E-15
 -1      1370 3.75329E-03-6.84189E-04-8.07454E-15
 -1      1371 3.89402E-03-6.84088E-04-8.68538E-15
 -1      1372 3.68206E-03-6.47628E-04-7.82790E-15
 -1      1373 4.03500E-03-6.83827E-04-9.31614E-15
 -1      1374 4.17620E-03-6.83449E-04-9.96672E-15
 -1      1375 3.96400E-03-6.47310E-04-9.04830E-15
 -1      1376 4.31759E-03-6.82971E-04-1.06371E-14
 -1      1377 4.45916E-03-6.82423E-04-1.13262E-14
 -1      1378 4.24672E-03-6.46457E-04-1.03474E-14
 -1      1379 4.60088E-03-6.81813E-04-1.20335E-14
 -1      1380 4.74275E-03-6.81160E-04-1.27593E-14
 -1      1381 4.53009E-03-6.45282E-04-1.17227E-14
 -1      1382 4.88473E-03-6.80467E-04-1.35019E-14
 -1      1383 5.02682E-03-6.79745E-04-1.42601E-14
 -1      1384 4.81399E-03-6.43913E-04-1.31701E-14
 -1      1385 5.16901E-03-6.78989E-04-1.50358E-14
 -1      1386 5.31128E-03-6.78207E-04-1.58291E-14
 -1      1387 5.09830E-03-6.42417E-04-1.46853E-14
 -1      1388 5.45362E-03-6.77389E-04-1.66376E-14
 -1      1389 5.59604E-03-6.76537E-04-1.74633E-14
 -1      1390 5.38295E-03-6.40810E-04-1.62671E-14
 -1      1391 5.73852E-03-6.75641E-04-1.83042E-14
 -1      1392 5.88106E-03-6.74698E-04-1.91600E-14
 -1      1393 5.66788E-03-6.39071E-04-1.79137E-14
 -1      1394 6.02366E-03-6.73693E-04-2.00321E-14
 -1      1395 6.16633E-03-6.72624E-04-2.09201E-14
 -1      1396 5.95306E-03-6.37149E-04-1.96232E-14
 -1      1397 6.30906E-03-6.71474E-04-2.18241E-14
 -1      1398 6.45186E-03-6.70238E-04-2.27426E-14
 -1      1399 6.23850E-03-6.34974E-04-2.13963E-14
 -1      1400 6.59475E-03-6.68898E-04-2.36771E-14
 -1      1401 6.73773E-03-6.67450E-04-2.46263E-14
 -1      1402 6.52422E-03-6.32457E-04-2.32315E-14
 -1      1403 6.88083E-03-6.65874E-04-2.55889E-14
 -1      1404 7.02406E-03-6.64168E-04-2.65652E-14
 -1      1405 6.81030E-03-6.29503E-04-2.51256E-14
 -1      1406 7.16744E-03-6.62313E-04-2.75548E-14
 -1      1407 7.31101E-03-6.60310E-04-2.85565E-14
 -1      1408 7.09687E-03-6.26014E-04-2.70740E-14
 -1      1409 7.45480E-03-6.58142E-04-2.95720E-14
 -1      1410 7.59883E-03-6.55819E-04-3.06018E-14
 -1      1411 7.38409E-03-6.21905E-04-2.90744E-14
 -1      1412 7.74316E-03-6.53326E-04-3.16440E-14
 -1      1413 7.88784E-03-6.50684E-04-3.26975E-14
 -1      1414 7.67220E-03-6.17119E-04-3.11282E-14
 -1      1415 8.03292E-03-6.47886E-04-3.37620E-14
 -1      1416 8.17845E-03-6.44970E-04-3.48382E-14
 -1      1417 7.96150E-03-6.11649E-04-3.32302E-14
 -1      1418 8.32452E-03-6.41944E-04-3.59236E-14
 -1      1419 8.47118E-03-6.38868E-04-3.70160E-14
 -1      1420 8.25237E-03-6.05578E-04-3.53748E-14
 -1      1421 8.61852E-03-6.35770E-04-3.81167E-14
 -1      1422 8.76663E-03-6.32745E-04-3.92232E-14
 -1      1423 8.54527E-03-5.99118E-04-3.75576E-14
 -1      1424 8.91560E-03-6.29852E-04-4.03371E-14
 -1      1425 9.06552E-03-6.27227E-04-4.14594E-14
 -1      1426 8.84075E-03-5.92685E-04-3.97697E-14
 -1      1427 9.21649E-03-6.24981E-04-4.25849E-14
 -1      1428 9.36860E-03-6.23298E-04-4.37141E-14
 -1      1429 9.13942E-03-5.86973E-04-4.20064E-14
 -1      1430 9.52196E-03-6.22361E-04-4.48529E-14
 -1      1431 9.67664E-03-6.22415E-04-4.59970E-14
 -1      1432 9.44190E-03-5.83070E-04-4.42673E-14
 -1      1433 9.83272E-03-6.23735E-04-4.71486E-14
 -1      1434 9.99025E-03-6.26630E-04-4.83079E-14
 -1      1435 9.74880E-03-5.82576E-04-4.65538E-14
 -1      1436 1.01493E-02-6.31495E-04-4.94703E-14
 -1      1437 1.03097E-02-6.38695E-04-5.06402E-14
 -1      1438 1.00606E-02-5.87738E-04-4.88660E-14
 -1      1439 1.04716E-02-6.48757E-04-5.18162E-14
 -1      1440 1.06347E-02-6.62073E-04-5.29972E-14
 -1      1441 1.03773E-02-6.01545E-04-5.12018E-14
 -1      1442 1.07989E-02-6.79278E-04-5.41817E-14
 -1      1443 1.09638E-02-7.00726E-04-5.53715E-14
 -1      1444 1.06986E-02-6.27709E-04-5.35596E-14
 -1      1445 1.11291E-02-7.27069E-04-5.65608E-14
 -1      1446 1.12943E-02-7.58494E-04-5.77485E-14
 -1      1447 1.10231E-02-6.70392E-04-5.59308E-14
 -1      1448 1.14586E-02-7.95464E-04-5.89430E-14
 -1      1449 1.16213E-02-8.37789E-04-6.01398E-14
 -1      1450 1.13483E-02-7.33444E-04-5.83126E-14
 -1      1451 1.17816E-02-8.85396E-04-6.13397E-14
 -1      1452 1.19384E-02-9.37443E-04-6.25476E-14
 -1      1453 1.16703E-02-8.18879E-04-6.07045E-14
 -1      1454 1.20909E-02-9.92884E-04-6.37634E-14
 -1      1455 1.22380E-02-1.04996E-03-6.49857E-14
 -1      1456 1.19838E-02-9.24473E-04-6.31182E-14
 -1      1457 1.23790E-02-1.10634E-03-6.62121E-14
 -1      1458 1.25132E-02-1.15930E-03-6.74451E-14
 -1      1459 1.22828E-02-1.04085E-03-6.55561E-14
 -1      1460 1.26405E-02-1.20534E-03-6.86796E-14
 -1      1461 1.27611E-02-1.24124E-03-6.99128E-14
 -1      1462 1.25619E-02-1.14949E-03-6.80099E-14
 -1      1463 1.28755E-02-1.26322E-03-7.11506E-14
 -1      1464 1.29849E-02-1.26854E-03-7.23898E-14
 -1      1465 1.28193E-02-1.22396E-03-7.04744E-14
 -1      1466 1.30910E-02-1.25462E-03-7.36287E-14
 -1      1467 1.31956E-02-1.22039E-03-7.48648E-14
 -1      1468 1.30583E-02-1.23646E-03-7.29458E-14
 -1      1469 1.33007E-02-1.16592E-03-7.60991E-14
 -1      1470 1.34085E-02-1.09261E-03-7.73352E-14
 -1      1471 1.32881E-02-1.16848E-03-7.54148E-14
 -1      1472 1.35207E-02-1.00372E-03-7.85745E-14
 -1      1473 1.36388E-02-9.03122E-04-7.98131E-14
 -1      1474 1.35208E-02-1.02080E-03-7.78851E-14
 -1      1475 1.37635E-02-7.96462E-04-8.10552E-14
 -1      1476 1.38949E-02-6.89562E-04-8.22997E-14
 -1      1477 1.37675E-02-8.17167E-04-8.03602E-14
 -1      1478 1.41042E-02-5.40946E-04-8.41090E-14
 -1      1479 1.41048E-02-5.49680E-04-8.34066E-14
 -1      1480 6.43145E-04 3.71979E-04-7.38613E-17
 -1      1481 4.92998E-04 3.03665E-04-2.77014E-17
 -1      1482 4.44928E-04 2.65866E-04-4.88027E-17
 -1      1483 9.28777E-04 4.71931E-04-2.39270E-16
 -1      1484 7.87889E-04 4.26445E-04-1.44497E-16
 -1      1485 7.44828E-04 3.90670E-04-1.69881E-16
 -1      1486 1.20372E-03 5.41350E-04-5.02324E-16
 -1      1487 1.06703E-03 5.09670E-04-3.58410E-16
 -1      1488 1.03092E-03 4.76102E-04-3.87778E-16
 -1      1489 1.47434E-03 5.90557E-04-8.63960E-16
 -1      1490 1.33925E-03 5.68092E-04-6.70796E-16
 -1      1491 1.30889E-03 5.35929E-04-7.02387E-16
 -1      1492 1.74394E-03 6.25478E-04-1.32389E-15
 -1      1493 1.60909E-03 6.09562E-04-1.08137E-15
 -1      1494 1.58318E-03 5.78232E-04-1.11387E-15
 -1      1495 2.01424E-03 6.49984E-04-1.88238E-15
 -1      1496 1.87892E-03 6.38860E-04-1.59094E-15
 -1      1497 1.85642E-03 6.07992E-04-1.62301E-15
 -1      1498 2.28602E-03 6.66829E-04-2.53572E-15
 -1      1499 2.14991E-03 6.59233E-04-2.19712E-15
 -1      1500 2.13001E-03 6.28596E-04-2.22856E-15
 -1      1501 2.55962E-03 6.78061E-04-3.28359E-15
 -1      1502 2.42258E-03 6.73045E-04-2.89818E-15
 -1      1503 2.40467E-03 6.42500E-04-2.92858E-15
 -1      1504 2.83507E-03 6.85230E-04-4.12241E-15
 -1      1505 2.69711E-03 6.82075E-04-3.69174E-15
 -1      1506 2.68069E-03 6.51538E-04-3.72047E-15
 -1      1507 3.11229E-03 6.89506E-04-5.05135E-15
 -1      1508 2.97347E-03 6.87670E-04-4.57634E-15
 -1      1509 2.95815E-03 6.57092E-04-4.60252E-15
 -1      1510 3.39110E-03 6.91767E-04-6.06329E-15
 -1      1511 3.25151E-03 6.90844E-04-5.54671E-15
 -1      1512 3.23699E-03 6.60199E-04-5.57044E-15
 -1      1513 3.67129E-03 6.92660E-04-7.15735E-15
 -1      1514 3.53103E-03 6.92352E-04-6.59974E-15
 -1      1515 3.51709E-03 6.61631E-04-6.62003E-15
 -1      1516 3.95263E-03 6.92652E-04-8.33311E-15
 -1      1517 3.81183E-03 6.92745E-04-7.73551E-15
 -1      1518 3.79830E-03 6.61948E-04-7.75233E-15
 -1      1519 4.23494E-03 6.92071E-04-9.59160E-15
 -1      1520 4.09368E-03 6.92417E-04-8.95197E-15
 -1      1521 4.08043E-03 6.61548E-04-8.96588E-15
 -1      1522 4.51800E-03 6.91137E-04-1.09283E-14
 -1      1523 4.37639E-03 6.91638E-04-1.02503E-14
 -1      1524 4.36334E-03 6.60706E-04-1.02594E-14
 -1      1525 4.80168E-03 6.89985E-04-1.23415E-14
 -1      1526 4.65977E-03 6.90583E-04-1.16255E-14
 -1      1527 4.64686E-03 6.59598E-04-1.16299E-14
 -1      1528 5.08582E-03 6.88688E-04-1.38242E-14
 -1      1529 4.94370E-03 6.89352E-04-1.30743E-14
 -1      1530 4.93089E-03 6.58326E-04-1.30745E-14
 -1      1531 5.37032E-03 6.87267E-04-1.53752E-14
 -1      1532 5.22803E-03 6.87993E-04-1.45916E-14
 -1      1533 5.21530E-03 6.56934E-04-1.45884E-14
 -1      1534 5.65512E-03 6.85706E-04-1.69949E-14
 -1      1535 5.51269E-03 6.86506E-04-1.61766E-14
 -1      1536 5.50003E-03 6.55423E-04-1.61692E-14
 -1      1537 5.94017E-03 6.83961E-04-1.86691E-14
 -1      1538 5.79761E-03 6.84860E-04-1.78252E-14
 -1      1539 5.78502E-03 6.53759E-04-1.78131E-14
 -1      1540 6.22546E-03 6.81963E-04-2.04027E-14
 -1      1541 6.08278E-03 6.82998E-04-1.95292E-14
 -1      1542 6.07027E-03 6.51883E-04-1.95146E-14
 -1      1543 6.51102E-03 6.79628E-04-2.21848E-14
 -1      1544 6.36820E-03 6.80842E-04-2.12876E-14
 -1      1545 6.35577E-03 6.49715E-04-2.12707E-14
 -1      1546 6.79693E-03 6.76860E-04-2.40292E-14
 -1      1547 6.65392E-03 6.78302E-04-2.31002E-14
 -1      1548 6.64159E-03 6.47158E-04-2.30815E-14
 -1      1549 7.08332E-03 6.73559E-04-2.59281E-14
 -1      1550 6.94006E-03 6.75279E-04-2.49719E-14
 -1      1551 6.92781E-03 6.44110E-04-2.49472E-14
 -1      1552 7.37039E-03 6.69636E-04-2.78689E-14
 -1      1553 7.22676E-03 6.71676E-04-2.68924E-14
 -1      1554 7.21459E-03 6.40467E-04-2.68633E-14
 -1      1555 7.65840E-03 6.65018E-04-2.98514E-14
 -1      1556 7.51426E-03 6.67409E-04-2.88553E-14
 -1      1557 7.50214E-03 6.36137E-04-2.88230E-14
 -1      1558 7.94773E-03 6.59678E-04-3.18686E-14
 -1      1559 7.80288E-03 6.62427E-04-3.08561E-14
 -1      1560 7.79074E-03 6.31056E-04-3.08221E-14
 -1      1561 8.23884E-03 6.53662E-04-3.39214E-14
 -1      1562 8.09303E-03 6.56734E-04-3.28905E-14
 -1      1563 8.08078E-03 6.25214E-04-3.28570E-14
 -1      1564 8.53236E-03 6.47132E-04-3.60123E-14
 -1      1565 8.38526E-03 6.50427E-04-3.49628E-14
 -1      1566 8.37272E-03 6.18688E-04-3.49287E-14
 -1      1567 8.82904E-03 6.40433E-04-3.81402E-14
 -1      1568 8.68025E-03 6.43750E-04-3.70716E-14
 -1      1569 8.66718E-03 6.11701E-04-3.70371E-14
 -1      1570 9.12982E-03 6.34179E-04-4.02999E-14
 -1      1571 8.97886E-03 6.37170E-04-3.92169E-14
 -1      1572 8.96490E-03 6.04690E-04-3.91790E-14
 -1      1573 9.43579E-03 6.29377E-04-4.24830E-14
 -1      1574 9.28209E-03 6.31480E-04-4.13884E-14
 -1      1575 9.26672E-03 5.98413E-04-4.13503E-14
 -1      1576 9.74815E-03 6.27595E-04-4.46983E-14
 -1      1577 9.59109E-03 6.27946E-04-4.35852E-14
 -1      1578 9.57364E-03 5.94097E-04-4.35492E-14
 -1      1579 1.00681E-02 6.31176E-04-4.69465E-14
 -1      1580 9.90711E-03 6.28497E-04-4.58177E-14
 -1      1581 9.88666E-03 5.93629E-04-4.57816E-14
 -1      1582 1.03968E-02 6.43490E-04-4.92204E-14
 -1      1583 1.02313E-02 6.35961E-04-4.80816E-14
 -1      1584 1.02067E-02 5.99799E-04-4.80444E-14
 -1      1585 1.07346E-02 6.69169E-04-5.15183E-14
 -1      1586 1.05645E-02 6.54324E-04-5.03663E-14
 -1      1587 1.05346E-02 6.16575E-04-5.03298E-14
 -1      1588 1.10809E-02 7.14187E-04-5.38333E-14
 -1      1589 1.09067E-02 6.88909E-04-5.26746E-14
 -1      1590 1.08701E-02 6.49306E-04-5.26347E-14
 -1      1591 1.14331E-02 7.85440E-04-5.61581E-14
 -1      1592 1.12565E-02 7.46255E-04-5.49939E-14
 -1      1593 1.12122E-02 7.04656E-04-5.49526E-14
 -1      1594 1.17857E-02 8.89278E-04-5.84890E-14
 -1      1595 1.16098E-02 8.33256E-04-5.73234E-14
 -1      1596 1.15579E-02 7.89816E-04-5.72825E-14
 -1      1597 1.21296E-02 1.02825E-03-6.08404E-14
 -1      1598 1.19595E-02 9.54866E-04-5.96603E-14
 -1      1599 1.19017E-02 9.10310E-04-5.96248E-14
 -1      1600 1.24525E-02 1.19579E-03-6.32087E-14
 -1      1601 1.22946E-02 1.10977E-03-6.20239E-14
 -1      1602 1.22354E-02 1.06570E-03-6.19837E-14
 -1      1603 1.27416E-02 1.37035E-03-6.55874E-14
 -1      1604 1.26021E-02 1.28446E-03-6.43963E-14
 -1      1605 1.25488E-02 1.24346E-03-6.43571E-14
 -1      1606 1.29891E-02 1.51366E-03-6.79719E-14
 -1      1607 1.28708E-02 1.44873E-03-6.67786E-14
 -1      1608 1.28325E-02 1.41388E-03-6.67397E-14
 -1      1609 1.31982E-02 1.57880E-03-7.03620E-14
 -1      1610 1.30977E-02 1.55834E-03-6.91662E-14
 -1      1611 1.30830E-02 1.53186E-03-6.91274E-14
 -1      1612 1.33852E-02 1.52938E-03-7.27666E-14
 -1      1613 1.32929E-02 1.56910E-03-7.15637E-14
 -1      1614 1.33066E-02 1.55086E-03-7.15237E-14
 -1      1615 1.35748E-02 1.35811E-03-7.51785E-14
 -1      1616 1.34780E-02 1.45739E-03-7.39706E-14
 -1      1617 1.35196E-02 1.44469E-03-7.39290E-14
 -1      1618 1.37892E-02 1.09419E-03-7.75912E-14
 -1      1619 1.36777E-02 1.23438E-03-7.63857E-14
 -1      1620 1.37407E-02 1.22303E-03-7.63411E-14
 -1      1621 1.40394E-02 7.94917E-04-7.99962E-14
 -1      1622 1.39097E-02 9.44919E-04-7.87957E-14
 -1      1623 1.39838E-02 9.30493E-04-7.87494E-14
 -1      1624 1.42144E-02 6.36554E-04-8.12674E-14
 -1      1625 1.45023E-02 4.94015E-04-8.15967E-14
 -1      1626 1.43966E-02 5.51894E-04-8.15034E-14
 -1      1627 1.47355E-02 3.52798E-04-8.17897E-14
 -1      1628 1.46124E-02 4.27504E-04-8.16933E-14
 -1      1629 1.44276E-02 5.95728E-04-8.06021E-14
 -1      1630 1.50649E-02 1.85415E-04-8.19784E-14
 -1      1631 1.48833E-02 2.71097E-04-8.18851E-14
 -1      1632 1.46716E-02 4.69709E-04-8.07900E-14
 -1      1633 1.55066E-02 3.65550E-05-8.21327E-14
 -1      1634 1.52652E-02 1.08347E-04-8.20566E-14
 -1      1635 1.50101E-02 3.36290E-04-8.09620E-14
 -1      1636 1.60203E-02-5.90136E-05-8.22582E-14
 -1      1637 1.57486E-02-1.81637E-05-8.21949E-14
 -1      1638 1.54494E-02 2.17803E-04-8.11051E-14
 -1      1639 1.65406E-02-8.75071E-05-8.23638E-14
 -1      1640 1.62775E-02-8.27586E-05-8.23117E-14
 -1      1641 1.59566E-02 1.28231E-04-8.12241E-14
 -1      1642 1.70093E-02-4.18991E-05-8.24698E-14
 -1      1643 1.67879E-02-7.44760E-05-8.24189E-14
 -1      1644 1.64894E-02 7.71983E-05-8.13334E-14
 -1      1645 1.73293E-02 9.18125E-05-8.25940E-14
 -1      1646 1.72098E-02 1.70080E-05-8.25302E-14
 -1      1647 1.69940E-02 7.90957E-05-8.14476E-14
 -1      1648 1.72748E-02 2.69642E-04-8.27221E-14
 -1      1649 1.73580E-02 1.83791E-04-8.26584E-14
 -1      1650 1.72822E-02 1.42960E-04-8.15673E-14
 -1      1651 1.68847E-02 3.84102E-04-8.28371E-14
 -1      1652 1.71116E-02 3.38123E-04-8.27822E-14
 -1      1653 1.71499E-02 2.19972E-04-8.16872E-14
 -1      1654 1.63039E-02 4.06336E-04-8.29667E-14
 -1      1655 1.66035E-02 4.07882E-04-8.29019E-14
 -1      1656 1.66800E-02 2.48031E-04-8.18062E-14
 -1      1657 1.57047E-02 3.32227E-04-8.31139E-14
 -1      1658 1.59936E-02 3.78478E-04-8.30412E-14
 -1      1659 1.60515E-02 2.05106E-04-8.19399E-14
 -1      1660 1.51339E-02 1.65155E-04-8.32902E-14
 -1      1661 1.53933E-02 2.54716E-04-8.32004E-14
 -1      1662 1.54014E-02 9.45311E-05-8.20984E-14
 -1      1663 1.47618E-02-2.57568E-05-8.34811E-14
 -1      1664 1.49257E-02 6.93671E-05-8.33844E-14
 -1      1665 1.48838E-02-5.78442E-05-8.22784E-14
 -1      1666 1.45307E-02-2.01818E-04-8.36801E-14
 -1      1667 1.46329E-02-1.16976E-04-8.35804E-14
 -1      1668 1.45578E-02-2.10677E-04-8.24685E-14
 -1      1669 1.43725E-02-3.48361E-04-8.38912E-14
 -1      1670 1.44460E-02-2.79126E-04-8.37847E-14
 -1      1671 1.43553E-02-3.50215E-04-8.26652E-14
 -1      1672 1.42045E-02-4.81630E-04-8.37002E-14
 -1      1673 1.42740E-02-4.27457E-04-8.36066E-14
 -1      1674 1.41812E-02-4.93712E-04-8.24786E-14
 -1      1675 1.39937E-02-6.40055E-04-8.18981E-14
 -1      1676 1.71106E-02 2.52132E-04-7.86509E-14
 -1      1677 1.71836E-02 1.86991E-04-7.87541E-14
 -1      1678 1.67191E-02 4.17158E-04-7.82655E-14
 -1      1679 1.69327E-02 3.31013E-04-7.85077E-14
 -1      1680 1.61855E-02 6.57510E-04-7.74908E-14
 -1      1681 1.64415E-02 5.53989E-04-7.78274E-14
 -1      1682 1.55886E-02 9.03868E-04-7.65917E-14
 -1      1683 1.58681E-02 7.88457E-04-7.70296E-14
 -1      1684 1.49912E-02 1.14166E-03-7.54789E-14
 -1      1685 1.52636E-02 1.03597E-03-7.60164E-14
 -1      1686 1.44752E-02 1.31076E-03-7.42855E-14
 -1      1687 1.47052E-02 1.24413E-03-7.48286E-14
 -1      1688 1.39958E-02 1.39389E-03-7.30595E-14
 -1      1689 1.42101E-02 1.36725E-03-7.36343E-14
 -1      1690 1.35414E-02 1.37572E-03-7.17895E-14
 -1      1691 1.37482E-02 1.39734E-03-7.23733E-14
 -1      1692 1.30948E-02 1.25810E-03-7.05485E-14
 -1      1693 1.32992E-02 1.32383E-03-7.11092E-14
 -1      1694 1.26503E-02 1.06729E-03-6.93995E-14
 -1      1695 1.28539E-02 1.16252E-03-6.99111E-14
 -1      1696 1.21768E-02 7.96122E-04-6.81736E-14
 -1      1697 1.24097E-02 9.24567E-04-6.86946E-14
 -1      1698 1.17429E-02 5.89177E-04-6.74523E-14
 -1      1699 1.19121E-02 6.84502E-04-6.77842E-14
 -1      1700 1.14320E-02 4.05291E-04-6.68949E-14
 -1      1701 1.15653E-02 4.86341E-04-6.71237E-14
 -1      1702 1.12301E-02 2.52428E-04-6.65647E-14
 -1      1703 1.13086E-02 3.16233E-04-6.66690E-14
 -1      1704 1.11567E-02 1.15193E-04-6.64982E-14
 -1      1705 1.11711E-02 1.76624E-04-6.64792E-14
 -1      1706 1.12416E-02-1.78874E-05-6.67975E-14
 -1      1707 1.11855E-02 4.24264E-05-6.66570E-14
 -1      1708 1.14638E-02-1.59725E-04-6.72289E-14
 -1      1709 1.13456E-02-8.79794E-05-6.69721E-14
 -1      1710 1.17764E-02-3.46388E-04-6.79877E-14
 -1      1711 1.16208E-02-2.61707E-04-6.76414E-14
 -1      1712 1.22002E-02-5.54755E-04-6.89161E-14
 -1      1713 1.19968E-02-4.49250E-04-6.84319E-14
 -1      1714 1.26327E-02-7.72902E-04-7.00803E-14
 -1      1715 1.24292E-02-6.78891E-04-6.95538E-14
 -1      1716 1.30786E-02-9.42578E-04-7.12819E-14
 -1      1717 1.28767E-02-8.70211E-04-7.07148E-14
 -1      1718 1.35256E-02-1.04189E-03-7.25782E-14
 -1      1719 1.33159E-02-1.00554E-03-7.19770E-14
 -1      1720 1.39831E-02-1.05031E-03-7.38552E-14
 -1      1721 1.37713E-02-1.05821E-03-7.32734E-14
 -1      1722 1.44604E-02-9.64947E-04-7.51048E-14
 -1      1723 1.42331E-02-1.01785E-03-7.45493E-14
 -1      1724 1.49673E-02-8.12196E-04-7.61236E-14
 -1      1725 1.47412E-02-8.88360E-04-7.56708E-14
 -1      1726 1.55023E-02-5.94005E-04-7.71094E-14
 -1      1727 1.52382E-02-6.98754E-04-7.66853E-14
 -1      1728 1.60646E-02-3.89616E-04-7.78028E-14
 -1      1729 1.58192E-02-4.86665E-04-7.74915E-14
 -1      1730 1.65744E-02-1.70385E-04-7.83968E-14
 -1      1731 1.63379E-02-2.61243E-04-7.81760E-14
 -1      1732 1.69446E-02-3.51527E-05-7.86230E-14
 -1      1733 1.67776E-02-1.04692E-04-7.85115E-14
 -1      1734 1.66114E-02-4.66181E-05-7.89104E-14
 -1      1735 1.71793E-02 1.17077E-04-7.87722E-14
 -1      1736 1.71136E-02 5.92194E-05-7.87548E-14
 -1      1737 1.53151E-02 9.06017E-04-7.65827E-14
 -1      1738 1.59351E-02 6.27681E-04-7.76217E-14
 -1      1739 1.42889E-02 6.15112E-04-8.12246E-14
 -1      1740 1.42209E-02 7.16089E-04-8.02284E-14
 -1      1741 1.70212E-02 2.28700E-04-7.91092E-14
 -1      1742 1.65401E-02 3.78405E-04-7.85232E-14
 -1      1743 1.72017E-02 1.55526E-04-7.92721E-14
 -1      1744 1.47558E-02 1.16913E-03-7.53551E-14
 -1      1745 1.42727E-02 1.35180E-03-7.40523E-14
 -1      1746 1.38484E-02 1.42626E-03-7.27162E-14
 -1      1747 1.34447E-02 1.37673E-03-7.13511E-14
 -1      1748 1.30346E-02 1.21492E-03-7.00370E-14
 -1      1749 1.25934E-02 9.61708E-04-6.86991E-14
 -1      1750 1.21242E-02 6.89305E-04-6.76134E-14
 -1      1751 1.16923E-02 4.73506E-04-6.69016E-14
 -1      1752 1.13830E-02 3.06404E-04-6.63498E-14
 -1      1753 1.11912E-02 1.85021E-04-6.60359E-14
 -1      1754 1.11591E-02 9.24882E-05-6.61054E-14
 -1      1755 1.12978E-02-1.15851E-05-6.64366E-14
 -1      1756 1.15690E-02-1.48879E-04-6.70226E-14
 -1      1757 1.19469E-02-3.43308E-04-6.78796E-14
 -1      1758 1.23792E-02-5.78585E-04-6.89608E-14
 -1      1759 1.28188E-02-8.15045E-04-7.02330E-14
 -1      1760 1.32339E-02-9.93894E-04-7.15637E-14
 -1      1761 1.36428E-02-1.08021E-03-7.29550E-14
 -1      1762 1.40595E-02-1.05527E-03-7.43437E-14
 -1      1763 1.45007E-02-9.20439E-04-7.56034E-14
 -1      1764 1.49998E-02-7.06997E-04-7.67296E-14
 -1      1765 1.55475E-02-4.59738E-04-7.76704E-14
 -1      1766 1.61284E-02-2.19488E-04-7.84233E-14
 -1      1767 2.85268E-04-1.76212E-04-3.90448E-17
 -1      1768 1.70221E-02 7.03998E-05-7.91569E-14
 -1      1769 3.32204E-04-1.16729E-04-1.29210E-16
 -1      1770 3.36349E-04-1.32976E-04-1.21011E-16
 -1      1771 3.42236E-04-1.51967E-04-1.11022E-16
 -1      1772 3.51795E-04-1.73973E-04-9.71445E-17
 -1      1773 4.58367E-04-1.88023E-04-1.75451E-16
 -1      1774 3.24556E-04-6.53407E-05-1.45595E-16
 -1      1775 3.25699E-04-7.66369E-05-1.43155E-16
 -1      1776 3.23052E-04-4.38587E-05-1.48549E-16
 -1      1777 3.23710E-04-5.43429E-05-1.47384E-16
 -1      1778 4.36492E-04-7.92378E-05-2.15946E-16
 -1      1779 3.22262E-04-2.37540E-05-1.49444E-16
 -1      1780 3.22596E-04-3.36608E-05-1.49213E-16
 -1      1781 4.34480E-04-5.12832E-05-2.19348E-16
 -1      1782 3.21967E-04-4.33366E-06-1.48996E-16
 -1      1783 3.22064E-04-1.39790E-05-1.49430E-16
 -1      1784 4.33454E-04-2.49067E-05-2.20242E-16
 -1      1785 3.22090E-04 1.49702E-05-1.47546E-16
 -1      1786 3.21975E-04 5.31477E-06-1.48387E-16
 -1      1787 4.33156E-04 7.57116E-07-2.19239E-16
 -1      1788 3.22659E-04 3.47060E-05-1.44687E-16
 -1      1789 3.22306E-04 2.47665E-05-1.46300E-16
 -1      1790 4.33513E-04 2.64500E-05-2.16434E-16
 -1      1791 3.23793E-04 5.51320E-05-1.39889E-16
 -1      1792 3.23127E-04 4.47748E-05-1.42654E-16
 -1      1793 4.34594E-04 5.26896E-05-2.11623E-16
 -1      1794 3.25858E-04 7.77744E-05-1.32801E-16
 -1      1795 3.24656E-04 6.61975E-05-1.36948E-16
 -1      1796 4.36657E-04 8.05557E-05-2.04494E-16
 -1      1797 3.29556E-04 1.03608E-04-1.21607E-16
 -1      1798 3.27403E-04 9.02592E-05-1.27855E-16
 -1      1799 4.40317E-04 1.11515E-04-1.93245E-16
 -1      1800 3.36599E-04 1.35066E-04-1.04124E-16
 -1      1801 3.32413E-04 1.18567E-04-1.14058E-16
 -1      1802 4.46801E-04 1.47279E-04-1.76129E-16
 -1      1803 3.52334E-04 1.77565E-04-7.78186E-17
 -1      1804 3.42835E-04 1.54716E-04-9.25909E-17
 -1      1805 4.59349E-04 1.91402E-04-1.50352E-16
 -1      1806 4.07740E-04 2.33651E-04-6.02139E-17
 -1      1807 3.78126E-04 2.02625E-04-7.20181E-17
 -1      1808 4.95903E-04 2.43945E-04-1.27651E-16
 -1      1809 5.58606E-04 3.02457E-04-1.09775E-16
 -1      1810 3.40057E-04-1.90878E-04-6.98633E-17
 -1      1811 8.53667E-04 4.07051E-04-2.82299E-16
 -1      1812 7.07242E-04 3.59319E-04-1.84287E-16
 -1      1813 6.73471E-04 3.28750E-04-1.95834E-16
 -1      1814 1.70997E-02 1.29903E-04-7.97397E-14
 -1      1815 1.69168E-02 9.71140E-05-7.96064E-14
 -1      1816 4.59001E-04-2.36673E-04-1.26079E-16
 -1      1817 8.07320E-04-3.74048E-04-3.40019E-16
 -1      1818 9.52607E-04-4.15226E-04-4.76453E-16
 -1      1819 1.09547E-03-4.49911E-04-6.37728E-16
 -1      1820 1.23716E-03-4.78802E-04-8.24143E-16
 -1      1821 1.00403E-03-3.97838E-04-5.86065E-16
 -1      1822 1.37759E-03-5.03284E-04-1.03528E-15
 -1      1823 1.51731E-03-5.23658E-04-1.27111E-15
 -1      1824 1.28975E-03-4.55791E-04-9.63693E-16
 -1      1825 1.65650E-03-5.40843E-04-1.53150E-15
 -1      1826 1.79538E-03-5.55078E-04-1.81596E-15
 -1      1827 1.57221E-03-4.96740E-04-1.43909E-15
 -1      1828 1.93413E-03-5.66971E-04-2.12418E-15
 -1      1829 2.07282E-03-5.76726E-04-2.45627E-15
 -1      1830 1.85288E-03-5.25304E-04-2.01057E-15
 -1      1831 2.21161E-03-5.84762E-04-2.81246E-15
 -1      1832 2.35048E-03-5.91250E-04-3.19180E-15
 -1      1833 2.13283E-03-5.44823E-04-2.67684E-15
 -1      1834 2.48957E-03-5.96489E-04-3.59379E-15
 -1      1835 2.62882E-03-6.00618E-04-4.01864E-15
 -1      1836 2.41276E-03-5.57756E-04-3.43605E-15
 -1      1837 2.76833E-03-6.03852E-04-4.46556E-15
 -1      1838 2.90804E-03-6.06304E-04-4.93377E-15
 -1      1839 2.69305E-03-5.65944E-04-4.28578E-15
 -1      1840 3.04802E-03-6.08127E-04-5.42285E-15
 -1      1841 3.18821E-03-6.09410E-04-5.93255E-15
 -1      1842 2.97391E-03-5.70766E-04-5.22179E-15
 -1      1843 3.32865E-03-6.10263E-04-6.46283E-15
 -1      1844 3.46929E-03-6.10754E-04-7.01303E-15
 -1      1845 3.25543E-03-5.73250E-04-6.24049E-15
 -1      1846 3.61016E-03-6.10959E-04-7.58305E-15
 -1      1847 3.75121E-03-6.10930E-04-8.17300E-15
 -1      1848 3.53760E-03-5.74155E-04-7.33941E-15
 -1      1849 3.89246E-03-6.10719E-04-8.78174E-15
 -1      1850 4.03386E-03-6.10361E-04-9.41119E-15
 -1      1851 3.82039E-03-5.74029E-04-8.51715E-15
 -1      1852 4.17544E-03-6.09892E-04-1.00597E-14
 -1      1853 4.31714E-03-6.09337E-04-1.07272E-14
 -1      1854 4.10373E-03-5.73257E-04-9.77274E-15
 -1      1855 4.45898E-03-6.08716E-04-1.14135E-14
 -1      1856 4.60094E-03-6.08045E-04-1.21173E-14
 -1      1857 4.38754E-03-5.72098E-04-1.11055E-14
 -1      1858 4.74300E-03-6.07334E-04-1.28404E-14
 -1      1859 4.88516E-03-6.06594E-04-1.35800E-14
 -1      1860 4.67175E-03-5.70717E-04-1.25122E-14
 -1      1861 5.02740E-03-6.05825E-04-1.43360E-14
 -1      1862 5.16972E-03-6.05034E-04-1.51089E-14
 -1      1863 4.95629E-03-5.69204E-04-1.39885E-14
 -1      1864 5.31212E-03-6.04214E-04-1.58977E-14
 -1      1865 5.45458E-03-6.03367E-04-1.67032E-14
 -1      1866 5.24111E-03-5.67594E-04-1.55305E-14
 -1      1867 5.59710E-03-6.02484E-04-1.75257E-14
 -1      1868 5.73968E-03-6.01562E-04-1.83635E-14
 -1      1869 5.52617E-03-5.65879E-04-1.71393E-14
 -1      1870 5.88232E-03-6.00589E-04-1.92176E-14
 -1      1871 6.02502E-03-5.99561E-04-2.00865E-14
 -1      1872 5.81144E-03-5.64016E-04-1.88124E-14
 -1      1873 6.16778E-03-5.98460E-04-2.09707E-14
 -1      1874 6.31061E-03-5.97282E-04-2.18720E-14
 -1      1875 6.09693E-03-5.61938E-04-2.05489E-14
 -1      1876 6.45351E-03-5.96008E-04-2.27878E-14
 -1      1877 6.59649E-03-5.94632E-04-2.37180E-14
 -1      1878 6.38265E-03-5.59559E-04-2.23462E-14
 -1      1879 6.73956E-03-5.93134E-04-2.46629E-14
 -1      1880 6.88273E-03-5.91509E-04-2.56217E-14
 -1      1881 6.66864E-03-5.56778E-04-2.42033E-14
 -1      1882 7.02602E-03-5.89735E-04-2.65950E-14
 -1      1883 7.16946E-03-5.87811E-04-2.75804E-14
 -1      1884 6.95498E-03-5.53489E-04-2.61173E-14
 -1      1885 7.31305E-03-5.85716E-04-2.85798E-14
 -1      1886 7.45683E-03-5.83452E-04-2.95905E-14
 -1      1887 7.24177E-03-5.49589E-04-2.80854E-14
 -1      1888 7.60082E-03-5.81003E-04-3.06156E-14
 -1      1889 7.74506E-03-5.78377E-04-3.16528E-14
 -1      1890 7.52917E-03-5.44991E-04-3.01055E-14
 -1      1891 7.88958E-03-5.75566E-04-3.27009E-14
 -1      1892 8.03443E-03-5.72589E-04-3.37604E-14
 -1      1893 7.81735E-03-5.39645E-04-3.21735E-14
 -1      1894 8.17963E-03-5.69451E-04-3.48311E-14
 -1      1895 8.32527E-03-5.66187E-04-3.59113E-14
 -1      1896 8.10656E-03-5.33566E-04-3.42894E-14
 -1      1897 8.47136E-03-5.62823E-04-3.70002E-14
 -1      1898 8.61799E-03-5.59416E-04-3.80970E-14
 -1      1899 8.39709E-03-5.26875E-04-3.64449E-14
 -1      1900 8.76519E-03-5.56027E-04-3.92012E-14
 -1      1901 8.91306E-03-5.52740E-04-4.03118E-14
 -1      1902 8.68929E-03-5.19851E-04-3.86351E-14
 -1      1903 9.06162E-03-5.49666E-04-4.14307E-14
 -1      1904 9.21099E-03-5.46928E-04-4.25533E-14
 -1      1905 8.98354E-03-5.13008E-04-4.08544E-14
 -1      1906 9.36118E-03-5.44706E-04-4.36813E-14
 -1      1907 9.51232E-03-5.43173E-04-4.48165E-14
 -1      1908 9.28028E-03-5.07193E-04-4.30979E-14
 -1      1909 9.66439E-03-5.42599E-04-4.59576E-14
 -1      1910 9.81753E-03-5.43217E-04-4.71063E-14
 -1      1911 9.57998E-03-5.03698E-04-4.53642E-14
 -1      1912 9.97171E-03-5.45414E-04-4.82630E-14
 -1      1913 1.01270E-02-5.49490E-04-4.94221E-14
 -1      1914 9.88310E-03-5.04400E-04-4.76570E-14
 -1      1915 1.02834E-02-5.55958E-04-5.05888E-14
 -1      1916 1.04408E-02-5.65188E-04-5.17623E-14
 -1      1917 1.01900E-02-5.11884E-04-4.99784E-14
 -1      1918 1.05994E-02-5.77806E-04-5.29389E-14
 -1      1919 1.07588E-02-5.94233E-04-5.41202E-14
 -1      1920 1.05011E-02-5.29522E-04-5.23212E-14
 -1      1921 1.09191E-02-6.15137E-04-5.53059E-14
 -1      1922 1.10799E-02-6.40929E-04-5.64921E-14
 -1      1923 1.08163E-02-5.61402E-04-5.46809E-14
 -1      1924 1.12413E-02-6.72157E-04-5.76819E-14
 -1      1925 1.14023E-02-7.09079E-04-5.88748E-14
 -1      1926 1.11354E-02-6.11931E-04-5.70548E-14
 -1      1927 1.15633E-02-7.51841E-04-6.00719E-14
 -1      1928 1.17229E-02-8.00285E-04-6.12711E-14
 -1      1929 1.14573E-02-6.84869E-04-5.94368E-14
 -1      1930 1.18815E-02-8.53755E-04-6.24747E-14
 -1      1931 1.20374E-02-9.11302E-04-6.36869E-14
 -1      1932 1.17797E-02-7.81470E-04-6.18357E-14
 -1      1933 1.21908E-02-9.71077E-04-6.49018E-14
 -1      1934 1.23402E-02-1.03097E-03-6.61228E-14
 -1      1935 1.20986E-02-8.97590E-04-6.42507E-14
 -1      1936 1.24856E-02-1.08780E-03-6.73478E-14
 -1      1937 1.26264E-02-1.13828E-03-6.85736E-14
 -1      1938 1.24083E-02-1.02030E-03-6.66874E-14
 -1      1939 1.27619E-02-1.17843E-03-6.98043E-14
 -1      1940 1.28934E-02-1.20451E-03-7.10355E-14
 -1      1941 1.27025E-02-1.12592E-03-6.91351E-14
 -1      1942 1.30198E-02-1.21300E-03-7.22661E-14
 -1      1943 1.31442E-02-1.20122E-03-7.35005E-14
 -1      1944 1.29781E-02-1.18305E-03-7.15937E-14
 -1      1945 1.32653E-02-1.16779E-03-7.47340E-14
 -1      1946 1.33872E-02-1.11249E-03-7.59648E-14
 -1      1947 1.32379E-02-1.16258E-03-7.40505E-14
 -1      1948 1.35085E-02-1.03707E-03-7.71970E-14
 -1      1949 1.36331E-02-9.44474E-04-7.84326E-14
 -1      1950 1.34907E-02-1.05177E-03-7.65138E-14
 -1      1951 1.37444E-02-8.51893E-04-7.95425E-14
 -1      1952 1.38753E-02-7.40188E-04-8.07810E-14
 -1      1953 1.39656E-02-6.72489E-04-8.10723E-14
 -1      1954 1.37314E-02-8.74958E-04-7.88503E-14
 -1      1955 1.13877E-03 4.80004E-04-5.48877E-16
 -1      1956 9.96971E-04 4.46757E-04-4.03432E-16
 -1      1957 9.64578E-04 4.17300E-04-4.16388E-16
 -1      1958 1.41794E-03 5.31485E-04-9.11814E-16
 -1      1959 1.27875E-03 5.08035E-04-7.18311E-16
 -1      1960 1.24910E-03 4.79894E-04-7.31145E-16
 -1      1961 1.69437E-03 5.67792E-04-1.37059E-15
 -1      1962 1.55631E-03 5.51290E-04-1.12925E-15
 -1      1963 1.52942E-03 5.24113E-04-1.14146E-15
 -1      1964 1.97001E-03 5.93107E-04-1.92638E-15
 -1      1965 1.83220E-03 5.81653E-04-1.63649E-15
 -1      1966 1.80772E-03 5.55112E-04-1.64730E-15
 -1      1967 2.24593E-03 6.10392E-04-2.57711E-15
 -1      1968 2.10789E-03 6.02628E-04-2.23993E-15
 -1      1969 2.08540E-03 5.76490E-04-2.24857E-15
 -1      1970 2.52268E-03 6.21829E-04-3.32080E-15
 -1      1971 2.38418E-03 6.16747E-04-2.93727E-15
 -1      1972 2.36329E-03 5.90854E-04-2.94358E-15
 -1      1973 2.80051E-03 6.29055E-04-4.15459E-15
 -1      1974 2.66145E-03 6.25897E-04-3.72662E-15
 -1      1975 2.64183E-03 6.00143E-04-3.72986E-15
 -1      1976 3.07950E-03 6.33299E-04-5.07644E-15
 -1      1977 2.93986E-03 6.31497E-04-4.60459E-15
 -1      1978 2.92122E-03 6.05810E-04-4.60467E-15
 -1      1979 3.35960E-03 6.35478E-04-6.08132E-15
 -1      1980 3.21942E-03 6.34608E-04-5.56856E-15
 -1      1981 3.20153E-03 6.08944E-04-5.56471E-15
 -1      1982 3.64073E-03 6.36266E-04-7.16874E-15
 -1      1983 3.50005E-03 6.36018E-04-6.61472E-15
 -1      1984 3.48273E-03 6.10348E-04-6.60694E-15
 -1      1985 3.92274E-03 6.36148E-04-8.33737E-15
 -1      1986 3.78163E-03 6.36301E-04-7.74283E-15
 -1      1987 3.76474E-03 6.10610E-04-7.73097E-15
 -1      1988 4.20551E-03 6.35462E-04-9.58626E-15
 -1      1989 4.06404E-03 6.35863E-04-8.95165E-15
 -1      1990 4.04747E-03 6.10143E-04-8.93566E-15
 -1      1991 4.48891E-03 6.34435E-04-1.09138E-14
 -1      1992 4.34715E-03 6.34983E-04-1.02407E-14
 -1      1993 4.33081E-03 6.09234E-04-1.02195E-14
 -1      1994 4.77282E-03 6.33205E-04-1.23176E-14
 -1      1995 4.63081E-03 6.33841E-04-1.16059E-14
 -1      1996 4.61465E-03 6.08064E-04-1.15806E-14
 -1      1997 5.05715E-03 6.31845E-04-1.37926E-14
 -1      1998 4.91494E-03 6.32540E-04-1.30465E-14
 -1      1999 4.89890E-03 6.06739E-04-1.30163E-14
 -1      2000 5.34180E-03 6.30378E-04-1.53355E-14
 -1      2001 5.19944E-03 6.31126E-04-1.45560E-14
 -1      2002 5.18350E-03 6.05307E-04-1.45217E-14
 -1      2003 5.62673E-03 6.28784E-04-1.69449E-14
 -1      2004 5.48423E-03 6.29599E-04-1.61314E-14
 -1      2005 5.46837E-03 6.03768E-04-1.60933E-14
 -1      2006 5.91191E-03 6.27017E-04-1.86126E-14
 -1      2007 5.76929E-03 6.27926E-04-1.77719E-14
 -1      2008 5.75350E-03 6.02088E-04-1.77282E-14
 -1      2009 6.19733E-03 6.25002E-04-2.03404E-14
 -1      2010 6.05459E-03 6.26044E-04-1.94692E-14
 -1      2011 6.03885E-03 6.00204E-04-1.94233E-14
 -1      2012 6.48304E-03 6.22650E-04-2.21187E-14
 -1      2013 6.34015E-03 6.23873E-04-2.12230E-14
 -1      2014 6.32446E-03 5.98034E-04-2.11733E-14
 -1      2015 6.76908E-03 6.19858E-04-2.39536E-14
 -1      2016 6.62601E-03 6.21314E-04-2.30299E-14
 -1      2017 6.61035E-03 5.95478E-04-2.29776E-14
 -1      2018 7.05558E-03 6.16517E-04-2.58426E-14
 -1      2019 6.91227E-03 6.18260E-04-2.48911E-14
 -1      2020 6.89661E-03 5.92426E-04-2.48348E-14
 -1      2021 7.34270E-03 6.12521E-04-2.77757E-14
 -1      2022 7.19905E-03 6.14602E-04-2.68036E-14
 -1      2023 7.18337E-03 5.88765E-04-2.67430E-14
 -1      2024 7.63066E-03 6.07782E-04-2.97535E-14
 -1      2025 7.48656E-03 6.10243E-04-2.87597E-14
 -1      2026 7.47078E-03 5.84391E-04-2.86958E-14
 -1      2027 7.91975E-03 6.02250E-04-3.17679E-14
 -1      2028 7.77504E-03 6.05110E-04-3.07561E-14
 -1      2029 7.75908E-03 5.79225E-04-3.06902E-14
 -1      2030 8.21035E-03 5.95939E-04-3.38210E-14
 -1      2031 8.06483E-03 5.99179E-04-3.27894E-14
 -1      2032 8.04856E-03 5.73232E-04-3.27214E-14
 -1      2033 8.50294E-03 5.88975E-04-3.59100E-14
 -1      2034 8.35636E-03 5.92515E-04-3.48606E-14
 -1      2035 8.33959E-03 5.66463E-04-3.47911E-14
 -1      2036 8.79811E-03 5.81650E-04-3.80329E-14
 -1      2037 8.65016E-03 5.85319E-04-3.69676E-14
 -1      2038 8.63262E-03 5.59100E-04-3.68972E-14
 -1      2039 9.09655E-03 5.74518E-04-4.01896E-14
 -1      2040 8.94686E-03 5.78001E-04-3.91077E-14
 -1      2041 8.92821E-03 5.51527E-04-3.90357E-14
 -1      2042 9.39906E-03 5.68511E-04-4.23742E-14
 -1      2043 9.24722E-03 5.71286E-04-4.12785E-14
 -1      2044 9.22699E-03 5.44436E-04-4.12052E-14
 -1      2045 9.70649E-03 5.65109E-04-4.45891E-14
 -1      2046 9.55208E-03 5.66357E-04-4.34775E-14
 -1      2047 9.52968E-03 5.38964E-04-4.34046E-14
 -1      2048 1.00197E-02 5.66556E-04-4.68377E-14
 -1      2049 9.86230E-03 5.65049E-04-4.57091E-14
 -1      2050 9.83702E-03 5.36884E-04-4.56363E-14
 -1      2051 1.03395E-02 5.76127E-04-4.91108E-14
 -1      2052 1.01787E-02 5.70087E-04-4.79719E-14
 -1      2053 1.01498E-02 5.40845E-04-4.78974E-14
 -1      2054 1.06663E-02 5.98396E-04-5.14049E-14
 -1      2055 1.05020E-02 5.85370E-04-5.02553E-14
 -1      2056 1.04685E-02 5.54650E-04-5.01813E-14
 -1      2057 1.09998E-02 6.39374E-04-5.37176E-14
 -1      2058 1.08323E-02 6.16188E-04-5.25595E-14
 -1      2059 1.07937E-02 5.83497E-04-5.24830E-14
 -1      2060 1.13388E-02 7.06234E-04-5.60396E-14
 -1      2061 1.11688E-02 6.69213E-04-5.48765E-14
 -1      2062 1.11251E-02 6.34014E-04-5.48001E-14
 -1      2063 1.16805E-02 8.06067E-04-5.83775E-14
 -1      2064 1.15097E-02 7.51812E-04-5.72074E-14
 -1      2065 1.14618E-02 7.13699E-04-5.71315E-14
 -1      2066 1.20196E-02 9.42893E-04-6.07269E-14
 -1      2067 1.18511E-02 8.70039E-04-5.95503E-14
 -1      2068 1.18014E-02 8.29115E-04-5.94758E-14
 -1      2069 1.23488E-02 1.11238E-03-6.30938E-14
 -1      2070 1.21864E-02 1.02451E-03-6.19082E-14
 -1      2071 1.21394E-02 9.82013E-04-6.18335E-14
 -1      2072 1.26587E-02 1.29522E-03-6.54702E-14
 -1      2073 1.25070E-02 1.20415E-03-6.42795E-14
 -1      2074 1.24683E-02 1.16300E-03-6.42028E-14
 -1      2075 1.29415E-02 1.45352E-03-6.78561E-14
 -1      2076 1.28038E-02 1.38031E-03-6.66644E-14
 -1      2077 1.27788E-02 1.34485E-03-6.65858E-14
 -1      2078 1.31958E-02 1.53705E-03-7.02452E-14
 -1      2079 1.30715E-02 1.50729E-03-6.90504E-14
 -1      2080 1.30634E-02 1.48145E-03-6.89721E-14
 -1      2081 1.34305E-02 1.50364E-03-7.26465E-14
 -1      2082 1.33140E-02 1.53608E-03-7.14436E-14
 -1      2083 1.33229E-02 1.52073E-03-7.13654E-14
 -1      2084 1.36617E-02 1.34108E-03-7.50551E-14
 -1      2085 1.35448E-02 1.43719E-03-7.38496E-14
 -1      2086 1.35689E-02 1.42956E-03-7.37680E-14
 -1      2087 1.39041E-02 1.07648E-03-7.74634E-14
 -1      2088 1.37802E-02 1.21834E-03-7.62600E-14
 -1      2089 1.38166E-02 1.21354E-03-7.61786E-14
 -1      2090 1.41252E-02 8.19684E-04-7.94496E-14
 -1      2091 1.39928E-02 9.75716E-04-7.82468E-14
 -1      2092 1.40360E-02 9.69145E-04-7.81656E-14
 -1      2093 1.42257E-02 7.56788E-04-7.97276E-14
 -1      2094 1.49629E-02 4.87639E-04-7.99554E-14
 -1      2095 1.47717E-02 5.44731E-04-7.98765E-14
 -1      2096 1.46018E-02 6.07529E-04-7.97872E-14
 -1      2097 1.44638E-02 6.63565E-04-7.96949E-14
 -1      2098 1.45291E-02 7.48587E-04-7.87825E-14
 -1      2099 1.43913E-02 6.85462E-04-7.97583E-14
 -1      2100 1.42859E-02 7.37522E-04-7.96655E-14
 -1      2101 1.41874E-02 8.48009E-04-7.88846E-14
 -1      2102 1.43122E-02 8.15998E-04-7.87571E-14
 -1      2103 1.53951E-02 3.76223E-04-8.00869E-14
 -1      2104 1.51597E-02 4.30615E-04-8.00213E-14
 -1      2105 1.48783E-02 6.39707E-04-7.89380E-14
 -1      2106 1.58939E-02 2.71843E-04-8.01988E-14
 -1      2107 1.56287E-02 3.20116E-04-8.01432E-14
 -1      2108 1.52965E-02 5.23076E-04-7.90610E-14
 -1      2109 1.69813E-02 1.88933E-04-8.09679E-14
 -1      2110 1.71612E-02 1.85270E-04-8.09103E-14
 -1      2111 1.57666E-02 5.80077E-05-8.11400E-14
 -1      2112 1.60962E-02 1.09573E-04-8.10691E-14
 -1      2113 1.51275E-02-8.30963E-05-8.13064E-14
 -1      2114 1.54400E-02-1.20183E-05-8.12209E-14
 -1      2115 1.46453E-02-2.58378E-04-8.12848E-14
 -1      2116 1.48461E-02-1.92698E-04-8.11927E-14
 -1      2117 1.43679E-02-3.82356E-04-8.14719E-14
 -1      2118 1.44901E-02-3.22912E-04-8.13770E-14
 -1      2119 1.44234E-02-4.43749E-04-8.02909E-14
 -1      2120 1.41914E-02-4.94686E-04-8.16637E-14
 -1      2121 1.42706E-02-4.39870E-04-8.15679E-14
 -1      2122 1.41891E-02-5.41796E-04-8.04757E-14
 -1      2123 1.63319E-02 3.71624E-04-7.87214E-14
 -1      2124 1.66181E-02 2.75020E-04-7.91627E-14
 -1      2125 1.69355E-02 1.92033E-04-7.96471E-14
 -1      2126 1.71171E-02 1.71431E-04-7.97945E-14
 -1      2127 1.57020E-02 6.08576E-04-7.78562E-14
 -1      2128 1.60036E-02 4.81316E-04-7.83189E-14
 -1      2129 1.67494E-02 5.87283E-05-7.94920E-14
 -1      2130 1.65494E-02 1.32986E-05-7.93778E-14
 -1      2131 1.68696E-02 1.28277E-04-8.00748E-14
 -1      2132 1.45344E-02 1.20554E-03-7.52662E-14
 -1      2133 1.47590E-02 1.08004E-03-7.59174E-14
 -1      2134 1.50728E-02 9.18050E-04-7.66586E-14
 -1      2135 1.53564E-02 7.69315E-04-7.72363E-14
 -1      2136 3.27130E-04-8.89418E-05-1.39849E-16
 -1      2137 3.29248E-04-1.02084E-04-1.35119E-16
 -1      2138 4.46328E-04-1.45048E-04-1.96457E-16
 -1      2139 4.39993E-04-1.09892E-04-2.08953E-16
 -1      2140 1.41243E-02 1.38644E-03-7.38689E-14
 -1      2141 1.43153E-02 1.31374E-03-7.45191E-14
 -1      2142 1.37381E-02 1.44628E-03-7.23737E-14
 -1      2143 1.39089E-02 1.43637E-03-7.30587E-14
 -1      2144 1.33695E-02 1.36498E-03-7.08952E-14
 -1      2145 1.35374E-02 1.42142E-03-7.15719E-14
 -1      2146 1.29825E-02 1.16386E-03-6.94736E-14
 -1      2147 1.31632E-02 1.27076E-03-7.01069E-14
 -1      2148 1.25566E-02 8.84930E-04-6.80734E-14
 -1      2149 1.27695E-02 1.03188E-03-6.87720E-14
 -1      2150 1.28955E-02 1.09828E-03-6.88434E-14
 -1      2151 1.20171E-02 5.73550E-04-6.69477E-14
 -1      2152 1.22472E-02 6.95831E-04-6.73303E-14
 -1      2153 1.16362E-02 3.81086E-04-6.62686E-14
 -1      2154 1.18128E-02 4.69005E-04-6.65924E-14
 -1      2155 1.13359E-02 2.41931E-04-6.57633E-14
 -1      2156 1.14652E-02 3.00277E-04-6.59900E-14
 -1      2157 1.11613E-02 1.49518E-04-6.53944E-14
 -1      2158 1.12229E-02 1.82457E-04-6.54833E-14
 -1      2159 1.11736E-02 8.10574E-05-6.56566E-14
 -1      2160 1.11430E-02 1.10449E-04-6.55004E-14
 -1      2161 1.13490E-02 3.69268E-07-6.59991E-14
 -1      2162 1.12438E-02 4.13866E-05-6.58269E-14
 -1      2163 1.16826E-02-1.55090E-04-6.68210E-14
 -1      2164 1.15204E-02-7.73783E-05-6.64085E-14
 -1      2165 1.20745E-02-3.46684E-04-6.76519E-14
 -1      2166 1.18711E-02-2.43764E-04-6.72070E-14
 -1      2167 1.25442E-02-6.26096E-04-6.90221E-14
 -1      2168 1.23368E-02-4.97329E-04-6.83839E-14
 -1      2169 1.29481E-02-8.61859E-04-7.03466E-14
 -1      2170 1.27554E-02-7.51397E-04-6.97115E-14
 -1      2171 1.33476E-02-1.04483E-03-7.18602E-14
 -1      2172 1.31739E-02-9.72822E-04-7.11642E-14
 -1      2173 1.37082E-02-1.10856E-03-7.33455E-14
 -1      2174 1.35431E-02-1.09417E-03-7.26502E-14
 -1      2175 1.40825E-02-1.04171E-03-7.47920E-14
 -1      2176 1.39068E-02-1.08980E-03-7.40980E-14
 -1      2177 1.45426E-02-8.47848E-04-7.62140E-14
 -1      2178 1.43316E-02-9.44531E-04-7.56486E-14
 -1      2179 1.49962E-02-6.07056E-04-7.73303E-14
 -1      2180 1.47659E-02-7.38024E-04-7.67707E-14
 -1      2181 1.45825E-02-7.66627E-04-7.68156E-14
 -1      2182 1.56296E-02-3.25128E-04-7.82922E-14
 -1      2183 1.53443E-02-4.46655E-04-7.79136E-14
 -1      2184 1.61793E-02-9.89087E-05-7.90373E-14
 -1      2185 1.59073E-02-2.10916E-04-7.86656E-14
 -1      2186 1.57104E-02-2.14432E-04-7.89085E-14
 -1      2187 1.48444E-02 9.66797E-04-7.65722E-14
 -1      2188 1.72092E-02 1.55239E-04-7.98641E-14
 -1      2189 1.71753E-02 1.61595E-04-8.03129E-14
 -1      2190 1.72565E-02 1.64506E-04-8.10328E-14
 -1      2191 1.72089E-02 1.57745E-04-7.98452E-14
 -1      2192 6.07942E-04-2.98072E-04-2.05619E-16
 -1      2193 6.63662E-04-2.92349E-04-2.77556E-16
 -1      2194 1.48379E-02-2.90127E-04-8.03150E-14
 -1      2195 1.54472E-02-1.06862E-04-8.03493E-14
 -1      2196 1.68284E-02 1.77422E-04-8.08528E-14
 -1      2197 1.65187E-02 1.57852E-04-8.05358E-14
 -1      2198 1.62436E-02 1.88782E-04-8.04830E-14
 -1      2199 1.71205E-02 1.21386E-04-8.09196E-14
 -1      2200 1.69081E-02 1.17663E-04-8.08612E-14
 -1      2201 1.72306E-02 1.43271E-04-8.09716E-14
 -1      2202 1.65294E-02 1.56247E-04-8.09121E-14
 -1      2203 1.40933E-02-5.73706E-04-8.13769E-14
 -1      2204 1.61167E-02 3.74627E-04-7.89581E-14
 -1      2205 1.63528E-02 6.47769E-06-7.96198E-14
 -1      2206 1.51071E-02-4.91831E-04-7.79544E-14
 -1      2207 1.71852E-02 1.49370E-04-8.03848E-14
 -1      2208 1.41595E-02-9.89922E-04-7.54013E-14
 -1      2209 1.37669E-02-1.10746E-03-7.37930E-14
 -1      2210 1.34402E-02-1.08194E-03-7.22485E-14
 -1      2211 1.30712E-02-9.23099E-04-7.06385E-14
 -1      2212 1.26690E-02-6.82168E-04-6.91320E-14
 -1      2213 1.22199E-02-4.07004E-04-6.77108E-14
 -1      2214 1.17905E-02-1.76822E-04-6.65922E-14
 -1      2215 1.14321E-02-2.06240E-05-6.57976E-14
 -1      2216 1.12005E-02 7.17081E-05-6.52195E-14
 -1      2217 1.11402E-02 1.25953E-04-6.49446E-14
 -1      2218 1.12751E-02 1.92590E-04-6.51202E-14
 -1      2219 1.15597E-02 3.14744E-04-6.56786E-14
 -1      2220 1.24160E-02 7.75960E-04-6.74071E-14
 -1      2221 1.25550E-02 8.59716E-04-6.74788E-14
 -1      2222 1.22782E-02 6.77951E-04-6.67399E-14
 -1      2223 1.32686E-02 1.32661E-03-7.03291E-14
 -1      2224 1.58978E-02 3.59322E-04-7.94018E-14
 -1      2225 1.54641E-02 6.38221E-04-7.79342E-14
 -1      2226 1.67779E-02 1.93351E-04-7.98471E-14
 -1      2227 1.43691E-02 1.24563E-03-7.50826E-14
 -1      2228 1.36208E-02 1.44565E-03-7.19155E-14
 -1      2229 1.39846E-02 1.41641E-03-7.35261E-14
 -1      2230 1.19248E-02 4.89969E-04-6.63105E-14
 -1      2231 1.01669E-03 3.99733E-04-5.23480E-16
 -1      2232 8.72207E-04 3.63355E-04-3.85529E-16
 -1      2233 5.47737E-04-5.52728E-05-3.11559E-16
 -1      2234 5.48780E-04-7.19813E-05-3.10190E-16
 -1      2235 5.50208E-04-8.92953E-05-3.07954E-16
 -1      2236 5.52092E-04-1.07263E-04-3.04607E-16
 -1      2237 6.65240E-04-9.54523E-05-4.18339E-16
 -1      2238 5.46347E-04 8.85221E-06-3.10001E-16
 -1      2239 5.46327E-04-6.97747E-06-3.11288E-16
 -1      2240 5.47107E-04 4.08480E-05-3.05718E-16
 -1      2241 5.46604E-04 2.47810E-05-3.08334E-16
 -1      2242 6.61271E-04 1.99217E-05-4.18488E-16
 -1      2243 5.48945E-04 7.34560E-05-2.98386E-16
 -1      2244 5.47876E-04 5.69702E-05-3.02438E-16
 -1      2245 6.62605E-04 5.77613E-05-4.11997E-16
 -1      2246 5.52353E-04 1.08917E-04-2.87517E-16
 -1      2247 5.50420E-04 9.08476E-05-2.93439E-16
 -1      2248 6.65482E-04 9.72155E-05-4.01250E-16
 -1      2249 5.58254E-04 1.48243E-04-2.70725E-16
 -1      2250 5.54924E-04 1.28022E-04-2.80022E-16
 -1      2251 6.70595E-04 1.39974E-04-3.85610E-16
 -1      2252 5.68607E-04 1.93838E-04-2.46087E-16
 -1      2253 5.62756E-04 1.70121E-04-2.59626E-16
 -1      2254 6.79272E-04 1.87510E-04-3.62313E-16
 -1      2255 9.15252E-04-3.46307E-04-5.32750E-16
 -1      2256 1.05936E-03-3.79623E-04-6.99920E-16
 -1      2257 1.41965E-02-9.23512E-04-7.60614E-14
 -1      2258 1.40013E-02-1.02599E-03-7.52038E-14
 -1      2259 1.40194E-02-6.88422E-04-7.94569E-14
 -1      2260 1.41067E-02-6.52600E-04-7.93667E-14
 -1      2261 1.30218E-03 4.56666E-04-8.69733E-16
 -1      2262 1.15984E-03 4.30728E-04-6.84674E-16
 -1      2263 1.07186E-03 3.81249E-04-6.35885E-16
 -1      2264 5.88548E-04-2.37915E-04-2.55953E-16
 -1      2265 7.81366E-04-3.04752E-04-4.06454E-16
 -1      2266 8.40786E-04-2.93523E-04-4.95982E-16
 -1      2267 5.79003E-04-2.10115E-04-2.71498E-16
 -1      2268 1.20263E-03-4.07991E-04-8.91201E-16
 -1      2269 1.34546E-03-4.31860E-04-1.10670E-15
 -1      2270 1.11704E-03-3.60423E-04-8.17949E-16
 -1      2271 1.48765E-03-4.52080E-04-1.34590E-15
 -1      2272 1.62944E-03-4.68921E-04-1.60955E-15
 -1      2273 1.40339E-03-4.07181E-04-1.25281E-15
 -1      2274 1.77088E-03-4.83058E-04-1.89689E-15
 -1      2275 1.91208E-03-4.94706E-04-2.20742E-15
 -1      2276 1.68854E-03-4.40424E-04-1.78282E-15
 -1      2277 2.05312E-03-5.04361E-04-2.54144E-15
 -1      2278 2.19406E-03-5.12198E-04-2.89902E-15
 -1      2279 1.97275E-03-4.63487E-04-2.40656E-15
 -1      2280 2.33497E-03-5.18579E-04-3.27884E-15
 -1      2281 2.47588E-03-5.23648E-04-3.68163E-15
 -1      2282 2.25640E-03-4.79017E-04-3.12216E-15
 -1      2283 2.61684E-03-5.27670E-04-4.10670E-15
 -1      2284 2.75786E-03-5.30759E-04-4.55342E-15
 -1      2285 2.53984E-03-4.89057E-04-3.92829E-15
 -1      2286 2.89897E-03-5.33109E-04-5.02101E-15
 -1      2287 3.04017E-03-5.34811E-04-5.50958E-15
 -1      2288 2.82328E-03-4.95166E-04-4.82135E-15
 -1      2289 3.18149E-03-5.36003E-04-6.01820E-15
 -1      2290 3.32290E-03-5.36755E-04-6.54755E-15
 -1      2291 3.10686E-03-4.98517E-04-5.79784E-15
 -1      2292 3.46444E-03-5.37167E-04-7.09671E-15
 -1      2293 3.60607E-03-5.37292E-04-7.66540E-15
 -1      2294 3.39068E-03-4.99986E-04-6.85479E-15
 -1      2295 3.74782E-03-5.37197E-04-8.25352E-15
 -1      2296 3.88966E-03-5.36921E-04-8.86123E-15
 -1      2297 3.67475E-03-5.00209E-04-7.99111E-15
 -1      2298 4.03161E-03-5.36511E-04-9.48757E-15
 -1      2299 4.17364E-03-5.35992E-04-1.01339E-14
 -1      2300 3.95907E-03-4.99640E-04-9.20465E-15
 -1      2301 4.31576E-03-5.35395E-04-1.07996E-14
 -1      2302 4.45795E-03-5.34737E-04-1.14832E-14
 -1      2303 4.24364E-03-4.98594E-04-1.04941E-14
 -1      2304 4.60023E-03-5.34034E-04-1.21851E-14
 -1      2305 4.74256E-03-5.33297E-04-1.29048E-14
 -1      2306 4.52843E-03-4.97273E-04-1.18600E-14
 -1      2307 4.88496E-03-5.32532E-04-1.36418E-14
 -1      2308 5.02741E-03-5.31745E-04-1.43954E-14
 -1      2309 4.81341E-03-4.95798E-04-1.32961E-14
 -1      2310 5.16992E-03-5.30934E-04-1.51656E-14
 -1      2311 5.31248E-03-5.30102E-04-1.59517E-14
 -1      2312 5.09855E-03-4.94226E-04-1.48012E-14
 -1      2313 5.45508E-03-5.29241E-04-1.67548E-14
 -1      2314 5.59773E-03-5.28350E-04-1.75746E-14
 -1      2315 5.38384E-03-4.92567E-04-1.63727E-14
 -1      2316 5.74042E-03-5.27418E-04-1.84098E-14
 -1      2317 5.88316E-03-5.26439E-04-1.92618E-14
 -1      2318 5.66927E-03-4.90792E-04-1.80089E-14
 -1      2319 6.02594E-03-5.25400E-04-2.01284E-14
 -1      2320 6.16877E-03-5.24294E-04-2.10100E-14
 -1      2321 5.95483E-03-4.88843E-04-1.97094E-14
 -1      2322 6.31164E-03-5.23104E-04-2.19086E-14
 -1      2323 6.45458E-03-5.21823E-04-2.28209E-14
 -1      2324 6.24053E-03-4.86642E-04-2.14723E-14
 -1      2325 6.59757E-03-5.20431E-04-2.37482E-14
 -1      2326 6.74063E-03-5.18921E-04-2.46884E-14
 -1      2327 6.52639E-03-4.84091E-04-2.32947E-14
 -1      2328 6.88377E-03-5.17273E-04-2.56428E-14
 -1      2329 7.02699E-03-5.15481E-04-2.66116E-14
 -1      2330 6.81244E-03-4.81085E-04-2.51718E-14
 -1      2331 7.17031E-03-5.13523E-04-2.75950E-14
 -1      2332 7.31375E-03-5.11397E-04-2.85905E-14
 -1      2333 7.09875E-03-4.77512E-04-2.71060E-14
 -1      2334 7.45732E-03-5.09084E-04-2.95984E-14
 -1      2335 7.60104E-03-5.06587E-04-3.06189E-14
 -1      2336 7.38536E-03-4.73272E-04-2.90934E-14
 -1      2337 7.74492E-03-5.03891E-04-3.16496E-14
 -1      2338 7.88900E-03-5.01007E-04-3.26933E-14
 -1      2339 7.67239E-03-4.68283E-04-3.11284E-14
 -1      2340 8.03329E-03-4.97932E-04-3.37491E-14
 -1      2341 8.17784E-03-4.94686E-04-3.48160E-14
 -1      2342 7.95995E-03-4.62514E-04-3.32114E-14
 -1      2343 8.32264E-03-4.91286E-04-3.58922E-14
 -1      2344 8.46778E-03-4.87767E-04-3.69773E-14
 -1      2345 8.24819E-03-4.56008E-04-3.53399E-14
 -1      2346 8.61325E-03-4.84174E-04-3.80709E-14
 -1      2347 8.75913E-03-4.80565E-04-3.91711E-14
 -1      2348 8.53728E-03-4.48930E-04-3.75078E-14
 -1      2349 8.90540E-03-4.77025E-04-4.02785E-14
 -1      2350 9.05219E-03-4.73643E-04-4.13940E-14
 -1      2351 8.82746E-03-4.41628E-04-3.97054E-14
 -1      2352 9.19947E-03-4.70562E-04-4.25138E-14
 -1      2353 9.34735E-03-4.67913E-04-4.36391E-14
 -1      2354 9.11899E-03-4.34708E-04-4.19302E-14
 -1      2355 9.49584E-03-4.65914E-04-4.47725E-14
 -1      2356 9.64505E-03-4.64754E-04-4.59104E-14
 -1      2357 9.41222E-03-4.29135E-04-4.41811E-14
 -1      2358 9.79499E-03-4.64742E-04-4.70565E-14
 -1      2359 9.94576E-03-4.66144E-04-4.82102E-14
 -1      2360 9.70758E-03-4.26351E-04-4.64565E-14
 -1      2361 1.00974E-02-4.69372E-04-4.93682E-14
 -1      2362 1.02500E-02-4.74785E-04-5.05328E-14
 -1      2363 1.00057E-02-4.28400E-04-4.87597E-14
 -1      2364 1.04037E-02-4.82895E-04-5.17031E-14
 -1      2365 1.05585E-02-4.94171E-04-5.28787E-14
 -1      2366 1.03072E-02-4.38053E-04-5.10866E-14
 -1      2367 1.07145E-02-5.09183E-04-5.40567E-14
 -1      2368 1.08717E-02-5.28504E-04-5.52396E-14
 -1      2369 1.06133E-02-4.58873E-04-5.34348E-14
 -1      2370 1.10303E-02-5.52668E-04-5.64260E-14
 -1      2371 1.11901E-02-5.82294E-04-5.76117E-14
 -1      2372 1.09253E-02-4.95158E-04-5.57961E-14
 -1      2373 1.13514E-02-6.17702E-04-5.88033E-14
 -1      2374 1.15135E-02-6.59368E-04-5.99992E-14
 -1      2375 1.12444E-02-5.51585E-04-5.81708E-14
 -1      2376 1.16770E-02-7.07129E-04-6.11957E-14
 -1      2377 1.18404E-02-7.60901E-04-6.23965E-14
 -1      2378 1.15714E-02-6.32272E-04-6.05582E-14
 -1      2379 1.20043E-02-8.19689E-04-6.36046E-14
 -1      2380 1.21667E-02-8.82208E-04-6.48152E-14
 -1      2381 1.19052E-02-7.38700E-04-6.29583E-14
 -1      2382 1.23278E-02-9.46271E-04-6.60296E-14
 -1      2383 1.24856E-02-1.00875E-03-6.72484E-14
 -1      2384 1.22413E-02-8.65966E-04-6.53760E-14
 -1      2385 1.26397E-02-1.06626E-03-6.84688E-14
 -1      2386 1.27891E-02-1.11379E-03-6.96927E-14
 -1      2387 1.25708E-02-9.97759E-04-6.78055E-14
 -1      2388 1.29329E-02-1.14753E-03-7.09189E-14
 -1      2389 1.30726E-02-1.16215E-03-7.21441E-14
 -1      2390 1.28833E-02-1.10301E-03-7.02444E-14
 -1      2391 1.32067E-02-1.15496E-03-7.33706E-14
 -1      2392 1.33394E-02-1.12320E-03-7.45994E-14
 -1      2393 1.31735E-02-1.14133E-03-7.26919E-14
 -1      2394 1.34689E-02-1.06716E-03-7.58280E-14
 -1      2395 1.35999E-02-9.88148E-04-7.70553E-14
 -1      2396 1.34465E-02-1.08079E-03-7.51424E-14
 -1      2397 1.86542E-03 5.25173E-04-1.84543E-15
 -1      2398 1.72518E-03 5.12422E-04-1.56601E-15
 -1      2399 2.14554E-03 5.44460E-04-2.47489E-15
 -1      2400 2.00553E-03 5.35792E-04-2.14843E-15
 -1      2401 1.92472E-03 4.94554E-04-2.04682E-15
 -1      2402 2.42564E-03 5.57267E-04-3.19649E-15
 -1      2403 2.28558E-03 5.51568E-04-2.82417E-15
 -1      2404 2.20684E-03 5.11824E-04-2.70370E-15
 -1      2405 2.70609E-03 5.65403E-04-4.00813E-15
 -1      2406 2.56581E-03 5.61837E-04-3.59124E-15
 -1      2407 2.48881E-03 5.23155E-04-3.45139E-15
 -1      2408 2.98710E-03 5.70229E-04-4.90684E-15
 -1      2409 2.84653E-03 5.68167E-04-4.44637E-15
 -1      2410 2.77093E-03 5.30222E-04-4.28794E-15
 -1      2411 3.26874E-03 5.72758E-04-5.88893E-15
 -1      2412 3.12784E-03 5.71733E-04-5.38756E-15
 -1      2413 3.05336E-03 5.34283E-04-5.20985E-15
 -1      2414 3.55101E-03 5.73739E-04-6.95330E-15
 -1      2415 3.40980E-03 5.73407E-04-6.41097E-15
 -1      2416 3.33620E-03 5.36279E-04-6.21484E-15
 -1      2417 3.83389E-03 5.73709E-04-8.09824E-15
 -1      2418 3.69239E-03 5.73824E-04-7.51570E-15
 -1      2419 3.61946E-03 5.36894E-04-7.30062E-15
 -1      2420 4.11729E-03 5.73048E-04-9.32231E-15
 -1      2421 3.97553E-03 5.73439E-04-8.70007E-15
 -1      2422 3.90313E-03 5.36624E-04-8.46553E-15
 -1      2423 4.40116E-03 5.72010E-04-1.06262E-14
 -1      2424 4.25917E-03 5.72564E-04-9.96469E-15
 -1      2425 4.18717E-03 5.35809E-04-9.71002E-15
 -1      2426 4.68541E-03 5.70756E-04-1.20055E-14
 -1      2427 4.54324E-03 5.71403E-04-1.13065E-14
 -1      2428 4.47153E-03 5.34677E-04-1.10329E-14
 -1      2429 4.96998E-03 5.69374E-04-1.34583E-14
 -1      2430 4.82766E-03 5.70077E-04-1.27232E-14
 -1      2431 4.75618E-03 5.33365E-04-1.24309E-14
 -1      2432 5.25483E-03 5.67894E-04-1.49797E-14
 -1      2433 5.11238E-03 5.68645E-04-1.42107E-14
 -1      2434 5.04106E-03 5.31944E-04-1.39009E-14
 -1      2435 5.53991E-03 5.66308E-04-1.65676E-14
 -1      2436 5.39734E-03 5.67115E-04-1.57655E-14
 -1      2437 5.32615E-03 5.30432E-04-1.54389E-14
 -1      2438 5.82520E-03 5.64570E-04-1.82169E-14
 -1      2439 5.68253E-03 5.65460E-04-1.73851E-14
 -1      2440 5.61142E-03 5.28809E-04-1.70420E-14
 -1      2441 6.11070E-03 5.62610E-04-1.99271E-14
 -1      2442 5.96793E-03 5.63621E-04-1.90647E-14
 -1      2443 5.89687E-03 5.27021E-04-1.87068E-14
 -1      2444 6.39644E-03 5.60338E-04-2.16893E-14
 -1      2445 6.25354E-03 5.61517E-04-2.08014E-14
 -1      2446 6.18249E-03 5.24993E-04-2.04296E-14
 -1      2447 6.68244E-03 5.57648E-04-2.35072E-14
 -1      2448 6.53940E-03 5.59050E-04-2.25913E-14
 -1      2449 6.46831E-03 5.22626E-04-2.22063E-14
 -1      2450 6.96880E-03 5.54426E-04-2.53767E-14
 -1      2451 6.82557E-03 5.56108E-04-2.44344E-14
 -1      2452 6.75438E-03 5.19812E-04-2.40365E-14
 -1      2453 7.25562E-03 5.50556E-04-2.72923E-14
 -1      2454 7.11214E-03 5.52576E-04-2.63284E-14
 -1      2455 7.04076E-03 5.16433E-04-2.59152E-14
 -1      2456 7.54306E-03 5.45932E-04-2.92568E-14
 -1      2457 7.39925E-03 5.48340E-04-2.82700E-14
 -1      2458 7.32754E-03 5.12370E-04-2.78446E-14
 -1      2459 7.83130E-03 5.40477E-04-3.12597E-14
 -1      2460 7.68706E-03 5.43308E-04-3.02535E-14
 -1      2461 7.61485E-03 5.07522E-04-2.98178E-14
 -1      2462 8.12060E-03 5.34169E-04-3.33027E-14
 -1      2463 7.97579E-03 5.37424E-04-3.22766E-14
 -1      2464 7.90284E-03 5.01818E-04-3.18316E-14
 -1      2465 8.41128E-03 5.27073E-04-3.53836E-14
 -1      2466 8.26573E-03 5.30706E-04-3.43389E-14
 -1      2467 8.19171E-03 4.95246E-04-3.38854E-14
 -1      2468 8.70370E-03 5.19403E-04-3.74973E-14
 -1      2469 8.55723E-03 5.23286E-04-3.64358E-14
 -1      2470 8.48171E-03 4.87896E-04-3.59757E-14
 -1      2471 8.99832E-03 5.11594E-04-3.96441E-14
 -1      2472 8.85068E-03 5.15476E-04-3.85667E-14
 -1      2473 8.77312E-03 4.80016E-04-3.80995E-14
 -1      2474 9.29564E-03 5.04410E-04-4.18231E-14
 -1      2475 9.14658E-03 5.07861E-04-4.07296E-14
 -1      2476 9.06627E-03 4.72093E-04-4.02539E-14
 -1      2477 9.59624E-03 4.99097E-04-4.40321E-14
 -1      2478 9.44546E-03 5.01424E-04-4.29233E-14
 -1      2479 9.36156E-03 4.64965E-04-4.24428E-14
 -1      2480 9.90073E-03 4.97571E-04-4.62743E-14
 -1      2481 9.74792E-03 4.97720E-04-4.51494E-14
 -1      2482 9.65944E-03 4.59975E-04-4.46620E-14
 -1      2483 1.02098E-02 5.02675E-04-4.85423E-14
 -1      2484 1.00546E-02 4.99094E-04-4.74045E-14
 -1      2485 9.96045E-03 4.59163E-04-4.69121E-14
 -1      2486 1.05241E-02 5.18440E-04-5.08304E-14
 -1      2487 1.03662E-02 5.08946E-04-4.96843E-14
 -1      2488 1.02653E-02 4.65511E-04-4.91869E-14
 -1      2489 1.08443E-02 5.50321E-04-5.31385E-14
 -1      2490 1.06834E-02 5.31995E-04-5.19830E-14
 -1      2491 1.05748E-02 4.83200E-04-5.14820E-14
 -1      2492 1.11711E-02 6.05187E-04-5.54591E-14
 -1      2493 1.10070E-02 5.74420E-04-5.42975E-14
 -1      2494 1.08904E-02 5.17830E-04-5.37931E-14
 -1      2495 1.15048E-02 6.90707E-04-5.77977E-14
 -1      2496 1.13373E-02 6.43623E-04-5.66265E-14
 -1      2497 1.12138E-02 5.76419E-04-5.61204E-14
 -1      2498 1.18448E-02 8.13427E-04-6.01456E-14
 -1      2499 1.16745E-02 7.47078E-04-5.89692E-14
 -1      2500 1.15469E-02 6.66866E-04-5.84626E-14
 -1      2501 1.21880E-02 9.74610E-04-6.25087E-14
 -1      2502 1.20168E-02 8.89429E-04-6.13266E-14
 -1      2503 1.18909E-02 7.96066E-04-6.08180E-14
 -1      2504 1.25273E-02 1.16311E-03-6.48800E-14
 -1      2505 1.23593E-02 1.06684E-03-6.36919E-14
 -1      2506 1.22438E-02 9.65482E-04-6.31819E-14
 -1      2507 1.28515E-02 1.34758E-03-6.72613E-14
 -1      2508 1.26922E-02 1.25884E-03-6.60686E-14
 -1      2509 1.25973E-02 1.16257E-03-6.55542E-14
 -1      2510 1.31507E-02 1.47570E-03-6.96495E-14
 -1      2511 1.30041E-02 1.42276E-03-6.84564E-14
 -1      2512 1.29367E-02 1.35081E-03-6.79369E-14
 -1      2513 1.34246E-02 1.49126E-03-7.20442E-14
 -1      2514 1.32887E-02 1.50055E-03-7.08451E-14
 -1      2515 1.32490E-02 1.46934E-03-7.03265E-14
 -1      2516 1.36880E-02 1.36501E-03-7.44520E-14
 -1      2517 1.35555E-02 1.44566E-03-7.32462E-14
 -1      2518 1.35372E-02 1.45612E-03-7.27228E-14
 -1      2519 1.39539E-02 1.11557E-03-7.68602E-14
 -1      2520 1.38191E-02 1.25315E-03-7.56571E-14
 -1      2521 1.38176E-02 1.29176E-03-7.51342E-14
 -1      2522 1.40905E-02 9.56604E-04-7.81001E-14
 -1      2523 1.44705E-02 8.77594E-04-7.78651E-14
 -1      2524 1.43224E-02 9.23564E-04-7.77756E-14
 -1      2525 1.47819E-02 7.86338E-04-7.80001E-14
 -1      2526 1.46092E-02 8.35470E-04-7.79337E-14
 -1      2527 1.43651E-02 1.01437E-03-7.69283E-14
 -1      2528 1.62504E-02 3.93259E-05-8.01133E-14
 -1      2529 1.39700E-02-6.85964E-04-8.02663E-14
 -1      2530 1.51633E-02-2.59514E-04-7.96905E-14
 -1      2531 1.54912E-02-1.80754E-04-7.96113E-14
 -1      2532 1.42146E-02-6.15211E-04-7.92759E-14
 -1      2533 1.43515E-02-5.74148E-04-7.91868E-14
 -1      2534 1.40222E-02-7.64716E-04-7.82624E-14
 -1      2535 1.58464E-03 4.96991E-04-1.31030E-15
 -1      2536 1.44368E-03 4.78666E-04-1.07825E-15
 -1      2537 1.64196E-03 4.69133E-04-1.48305E-15
 -1      2538 1.45559E-02-4.93336E-04-7.92995E-14
 -1      2539 1.48222E-02-3.97422E-04-7.94154E-14
 -1      2540 1.43015E-02-6.75326E-04-7.82868E-14
 -1      2541 1.53072E-02-3.31123E-04-7.87425E-14
 -1      2542 1.49912E-02-4.93688E-04-7.81621E-14
 -1      2543 1.31831E-02 1.28822E-03-6.97557E-14
 -1      2544 1.33431E-02 1.37694E-03-7.05414E-14
 -1      2545 1.42104E-02 1.29302E-03-7.48180E-14
 -1      2546 1.43856E-02 1.18115E-03-7.55663E-14
 -1      2547 5.46542E-04-2.28895E-05-3.12006E-16
 -1      2548 5.47003E-04-3.89227E-05-3.12142E-16
 -1      2549 6.62454E-04-5.57917E-05-4.21944E-16
 -1      2550 6.61218E-04-1.76974E-05-4.21700E-16
 -1      2551 1.38603E-02 1.43960E-03-7.31754E-14
 -1      2552 1.40249E-02 1.38360E-03-7.39845E-14
 -1      2553 1.28116E-02 1.03974E-03-6.81570E-14
 -1      2554 1.29845E-02 1.16376E-03-6.88541E-14
 -1      2555 1.14802E-02 2.61576E-04-6.49790E-14
 -1      2556 1.16389E-02 3.28164E-04-6.52565E-14
 -1      2557 1.12263E-02 1.65585E-04-6.44143E-14
 -1      2558 1.13379E-02 2.04018E-04-6.46949E-14
 -1      2559 1.13976E-02 2.23781E-04-6.42714E-14
 -1      2560 1.11241E-02 1.10085E-04-6.42650E-14
 -1      2561 1.11371E-02 1.26972E-04-6.41608E-14
 -1      2562 1.12272E-02 6.50556E-05-6.47449E-14
 -1      2563 1.11619E-02 8.66652E-05-6.45756E-14
 -1      2564 1.15164E-02-4.15694E-05-6.54625E-14
 -1      2565 1.13546E-02 1.82319E-05-6.50542E-14
 -1      2566 1.18626E-02-1.97702E-04-6.62442E-14
 -1      2567 1.16944E-02-1.18345E-04-6.58591E-14
 -1      2568 1.23455E-02-4.70405E-04-6.75798E-14
 -1      2569 1.21142E-02-3.32267E-04-6.68469E-14
 -1      2570 1.27726E-02-7.43964E-04-6.92320E-14
 -1      2571 1.25916E-02-6.24189E-04-6.85417E-14
 -1      2572 1.31535E-02-9.75566E-04-7.08782E-14
 -1      2573 1.29718E-02-8.67709E-04-7.00608E-14
 -1      2574 1.34841E-02-1.10329E-03-7.25639E-14
 -1      2575 1.33373E-02-1.05821E-03-7.17729E-14
 -1      2576 1.38155E-02-1.09028E-03-7.43435E-14
 -1      2577 1.36685E-02-1.11445E-03-7.35893E-14
 -1      2578 1.46131E-02-6.79612E-04-7.74579E-14
 -1      2579 1.44295E-02-7.91715E-04-7.69013E-14
 -1      2580 1.46591E-02 1.00972E-03-7.65207E-14
 -1      2581 1.49251E-02 8.46890E-04-7.72623E-14
 -1      2582 7.57956E-04 3.34157E-04-2.87219E-16
 -1      2583 6.11527E-04 2.84804E-04-1.91213E-16
 -1      2584 5.84797E-04 2.58034E-04-1.96918E-16
 -1      2585 8.13776E-04 3.22823E-04-3.71502E-16
 -1      2586 1.18248E-02 4.16679E-04-6.55453E-14
 -1      2587 1.20042E-02 5.11853E-04-6.58976E-14
 -1      2588 1.35324E-02 1.43995E-03-7.15049E-14
 -1      2589 1.36843E-02 1.45936E-03-7.23048E-14
 -1      2590 1.40679E-02 1.33595E-03-7.44677E-14
 -1      2591 6.70221E-04-1.37902E-04-4.09815E-16
 -1      2592 5.54609E-04-1.26157E-04-2.99917E-16
 -1      2593 5.57775E-04-1.46151E-04-2.93778E-16
 -1      2594 1.48173E-02-4.76897E-04-7.86742E-14
 -1      2595 5.72288E-04 2.27836E-04-2.17884E-16
 -1      2596 1.17127E-02 3.59285E-04-6.48426E-14
 -1      2597 1.38765E-02-1.04770E-03-7.50020E-14
 -1      2598 1.35790E-03 4.32646E-04-1.01275E-15
 -1      2599 5.71842E-04-1.85142E-04-2.83654E-16
 -1      2600 1.56241E-02-1.71231E-04-7.94048E-14
 -1      2601 1.41027E-02 1.00323E-03-7.75803E-14
 -1      2602 1.53465E-02 6.23638E-04-7.82150E-14
 -1      2603 1.51046E-02 6.84809E-04-7.81583E-14
 -1      2604 1.30690E-02 1.23587E-03-6.90658E-14
 -1      2605 1.41613E-02 9.92925E-04-7.75166E-14
 -1      2606 1.37444E-02 1.45102E-03-7.27629E-14
 -1      2607 1.56601E-02 4.71023E-04-7.88362E-14
 -1      2608 1.67078E-02 1.89365E-04-8.00090E-14
 -1      2609 6.89572E-04 2.51180E-04-3.14893E-16
 -1      2610 1.34196E-02 1.41756E-03-7.09299E-14
 -1      2611 1.20179E-02 5.24826E-04-6.52047E-14
 -1      2612 1.21456E-02 5.91700E-04-6.59721E-14
 -1      2613 1.22715E-02 6.76748E-04-6.60446E-14
 -1      2614 1.44827E-02 1.07726E-03-7.62572E-14
 -1      2615 1.35530E-02-1.11284E-03-7.31133E-14
 -1      2616 1.32186E-02-1.01782E-03-7.11910E-14
 -1      2617 1.28664E-02-8.13841E-04-6.94673E-14
 -1      2618 1.24455E-02-5.44487E-04-6.76751E-14
 -1      2619 1.19848E-02-2.70884E-04-6.61124E-14
 -1      2620 1.15798E-02-7.14839E-05-6.51154E-14
 -1      2621 1.12823E-02 4.14483E-05-6.44100E-14
 -1      2622 1.11566E-02 1.37784E-04-6.37357E-14
 -1      2623 1.11867E-02 1.49779E-04-6.33079E-14
 -1      2624 1.11057E-02 1.22259E-04-6.30539E-14
 -1      2625 1.38051E-02-8.26022E-04-7.90048E-14
 -1      2626 1.39301E-02-7.42148E-04-7.93094E-14
 -1      2627 1.38429E-02-8.35914E-04-7.82011E-14
 -1      2628 1.36879E-02-9.22478E-04-7.78981E-14
 -1      2629 1.26702E-02 9.44589E-04-6.74894E-14
 -1      2630 1.27485E-02 1.02240E-03-6.74993E-14
 -1      2631 1.25287E-02 8.51556E-04-6.68240E-14
 -1      2632 1.49182E-02 7.38763E-04-7.81079E-14
 -1      2633 1.36713E-02-9.50433E-04-7.72093E-14
 -1      2634 1.58814E-02-6.69158E-05-7.97764E-14
 -1      2635 1.42493E-02-8.49242E-04-7.67032E-14
 -1      2636 1.40910E-02 1.10565E-03-7.65990E-14
 -1      2637 1.60356E-02 3.67764E-04-7.91186E-14
 -1      2638 1.11227E-02 9.81798E-05-6.37905E-14
 -1      2639 7.80133E-04 7.73057E-05-5.34485E-16
 -1      2640 7.78866E-04 5.54515E-05-5.39906E-16
 -1      2641 7.78015E-04 3.35475E-05-5.44107E-16
 -1      2642 7.77590E-04 1.18915E-05-5.46899E-16
 -1      2643 8.96416E-04 4.96635E-05-6.85866E-16
 -1      2644 7.91517E-04 1.73079E-04-4.98286E-16
 -1      2645 7.87499E-04 1.47669E-04-5.10144E-16
 -1      2646 8.03409E-04 2.28270E-04-4.67630E-16
 -1      2647 7.96772E-04 1.99881E-04-4.84449E-16
 -1      2648 9.14821E-04 2.07770E-04-6.25110E-16
 -1      2649 1.33221E-02 1.39449E-03-7.03736E-14
 -1      2650 1.34782E-02 1.44614E-03-7.13355E-14
 -1      2651 1.03375E-03-3.14173E-04-7.44481E-16
 -1      2652 1.17699E-03-3.40288E-04-9.40356E-16
 -1      2653 1.12987E-03 3.61884E-04-7.53697E-16
 -1      2654 9.86260E-04 3.32821E-04-5.84900E-16
 -1      2655 2.55284E-03 4.88497E-04-3.70929E-15
 -1      2656 2.41108E-03 4.84108E-04-3.31134E-15
 -1      2657 1.32018E-03-3.62692E-04-1.15996E-15
 -1      2658 1.46342E-03-3.81674E-04-1.40278E-15
 -1      2659 1.23843E-03-3.19010E-04-1.06718E-15
 -1      2660 1.60646E-03-3.97761E-04-1.66921E-15
 -1      2661 1.74940E-03-4.11177E-04-1.95917E-15
 -1      2662 1.52500E-03-3.55350E-04-1.55647E-15
 -1      2663 1.89217E-03-4.22392E-04-2.27222E-15
 -1      2664 2.03483E-03-4.31595E-04-2.60783E-15
 -1      2665 1.81168E-03-3.81265E-04-2.13840E-15
 -1      2666 2.17739E-03-4.39163E-04-2.96650E-15
 -1      2667 2.31986E-03-4.45248E-04-3.34753E-15
 -1      2668 2.09813E-03-3.99139E-04-2.81155E-15
 -1      2669 2.46228E-03-4.50141E-04-3.75065E-15
 -1      2670 2.60464E-03-4.53964E-04-4.17612E-15
 -1      2671 2.38431E-03-4.10997E-04-3.57463E-15
 -1      2672 2.74700E-03-4.56936E-04-4.62312E-15
 -1      2673 2.88934E-03-4.59152E-04-5.09044E-15
 -1      2674 2.67025E-03-4.18464E-04-4.42531E-15
 -1      2675 3.03169E-03-4.60776E-04-5.57825E-15
 -1      2676 3.17404E-03-4.61880E-04-6.08636E-15
 -1      2677 2.95603E-03-4.22801E-04-5.36031E-15
 -1      2678 3.31642E-03-4.62582E-04-6.61431E-15
 -1      2679 3.45881E-03-4.62938E-04-7.16275E-15
 -1      2680 3.24170E-03-4.24966E-04-6.37618E-15
 -1      2681 3.60123E-03-4.63033E-04-7.73023E-15
 -1      2682 3.74368E-03-4.62905E-04-8.31694E-15
 -1      2683 3.52730E-03-4.25669E-04-7.47071E-15
 -1      2684 3.88616E-03-4.62614E-04-8.92346E-15
 -1      2685 4.02866E-03-4.62188E-04-9.54795E-15
 -1      2686 3.81288E-03-4.25427E-04-8.64312E-15
 -1      2687 4.17120E-03-4.61664E-04-1.01919E-14
 -1      2688 4.31377E-03-4.61063E-04-1.08549E-14
 -1      2689 4.09846E-03-4.24599E-04-9.89156E-15
 -1      2690 4.45636E-03-4.60407E-04-1.15364E-14
 -1      2691 4.59898E-03-4.59708E-04-1.22355E-14
 -1      2692 4.38404E-03-4.23429E-04-1.12144E-14
 -1      2693 4.74163E-03-4.58979E-04-1.29526E-14
 -1      2694 4.88430E-03-4.58225E-04-1.36870E-14
 -1      2695 4.66964E-03-4.22067E-04-1.26109E-14
 -1      2696 5.02699E-03-4.57449E-04-1.44384E-14
 -1      2697 5.16971E-03-4.56654E-04-1.52070E-14
 -1      2698 4.95525E-03-4.20597E-04-1.40769E-14
 -1      2699 5.31244E-03-4.55837E-04-1.59918E-14
 -1      2700 5.45520E-03-4.54996E-04-1.67930E-14
 -1      2701 5.24090E-03-4.19047E-04-1.56127E-14
 -1      2702 5.59798E-03-4.54123E-04-1.76098E-14
 -1      2703 5.74078E-03-4.53214E-04-1.84437E-14
 -1      2704 5.52656E-03-4.17406E-04-1.72136E-14
 -1      2705 5.88360E-03-4.52256E-04-1.92928E-14
 -1      2706 6.02644E-03-4.51244E-04-2.01572E-14
 -1      2707 5.81226E-03-4.15632E-04-1.88779E-14
 -1      2708 6.16930E-03-4.50162E-04-2.10375E-14
 -1      2709 6.31219E-03-4.49003E-04-2.19332E-14
 -1      2710 6.09799E-03-4.13657E-04-2.06054E-14
 -1      2711 6.45511E-03-4.47750E-04-2.28428E-14
 -1      2712 6.59806E-03-4.46393E-04-2.37661E-14
 -1      2713 6.38376E-03-4.11396E-04-2.23931E-14
 -1      2714 6.74103E-03-4.44915E-04-2.47045E-14
 -1      2715 6.88405E-03-4.43306E-04-2.56548E-14
 -1      2716 6.66957E-03-4.08750E-04-2.42377E-14
 -1      2717 7.02710E-03-4.41548E-04-2.66201E-14
 -1      2718 7.17021E-03-4.39633E-04-2.75997E-14
 -1      2719 6.95543E-03-4.05611E-04-2.61385E-14
 -1      2720 7.31336E-03-4.37544E-04-2.85899E-14
 -1      2721 7.45658E-03-4.35274E-04-2.95937E-14
 -1      2722 7.24136E-03-4.01873E-04-2.80900E-14
 -1      2723 7.59985E-03-4.32813E-04-3.06100E-14
 -1      2724 7.74321E-03-4.30158E-04-3.16368E-14
 -1      2725 7.52736E-03-3.97443E-04-3.00935E-14
 -1      2726 7.88665E-03-4.27306E-04-3.26776E-14
 -1      2727 8.03020E-03-4.24261E-04-3.37294E-14
 -1      2728 7.81347E-03-3.92254E-04-3.21465E-14
 -1      2729 8.17384E-03-4.21034E-04-3.47912E-14
 -1      2730 8.31762E-03-4.17642E-04-3.58643E-14
 -1      2731 8.09970E-03-3.86295E-04-3.42460E-14
 -1      2732 8.46153E-03-4.14115E-04-3.69472E-14
 -1      2733 8.60562E-03-4.10486E-04-3.80366E-14
 -1      2734 8.38611E-03-3.79639E-04-3.63872E-14
 -1      2735 8.74986E-03-4.06818E-04-3.91340E-14
 -1      2736 8.89435E-03-4.03167E-04-4.02379E-14
 -1      2737 8.67277E-03-3.72486E-04-3.85640E-14
 -1      2738 9.03904E-03-3.99639E-04-4.13500E-14
 -1      2739 9.18404E-03-3.96324E-04-4.24675E-14
 -1      2740 8.95979E-03-3.65229E-04-4.07699E-14
 -1      2741 9.32933E-03-3.93381E-04-4.35913E-14
 -1      2742 9.47503E-03-3.90951E-04-4.47216E-14
 -1      2743 9.24737E-03-3.58519E-04-4.30041E-14
 -1      2744 9.62113E-03-3.89262E-04-4.58593E-14
 -1      2745 9.76779E-03-3.88520E-04-4.70029E-14
 -1      2746 9.53584E-03-3.53360E-04-4.52622E-14
 -1      2747 9.91504E-03-3.89030E-04-4.81522E-14
 -1      2748 1.00630E-02-3.91094E-04-4.93085E-14
 -1      2749 9.82574E-03-3.51210E-04-4.75466E-14
 -1      2750 1.02119E-02-3.95089E-04-5.04724E-14
 -1      2751 1.03618E-02-4.01450E-04-5.16416E-14
 -1      2752 1.01180E-02-3.54097E-04-4.98589E-14
 -1      2753 1.05131E-02-4.10607E-04-5.28132E-14
 -1      2754 1.06658E-02-4.23168E-04-5.39898E-14
 -1      2755 1.04140E-02-3.64747E-04-5.21931E-14
 -1      2756 1.08204E-02-4.39571E-04-5.51715E-14
 -1      2757 1.09769E-02-4.60626E-04-5.63533E-14
 -1      2758 1.07159E-02-3.86707E-04-5.45454E-14
 -1      2759 1.11360E-02-4.86688E-04-5.75392E-14
 -1      2760 1.12976E-02-5.18758E-04-5.87308E-14
 -1      2761 1.10267E-02-4.24459E-04-5.69104E-14
 -1      2762 1.14624E-02-5.56972E-04-5.99217E-14
 -1      2763 1.16297E-02-6.02284E-04-6.11159E-14
 -1      2764 1.13499E-02-4.83411E-04-5.92872E-14
 -1      2765 1.18003E-02-6.54428E-04-6.23161E-14
 -1      2766 1.19726E-02-7.13579E-04-6.35183E-14
 -1      2767 1.16885E-02-5.69420E-04-6.16742E-14
 -1      2768 1.21471E-02-7.78636E-04-6.47244E-14
 -1      2769 1.23210E-02-8.48001E-04-6.59324E-14
 -1      2770 1.20424E-02-6.86318E-04-6.40754E-14
 -1      2771 1.24941E-02-9.19327E-04-6.71439E-14
 -1      2772 1.26634E-02-9.87523E-04-6.83587E-14
 -1      2773 1.24049E-02-8.30550E-04-6.64863E-14
 -1      2774 1.28276E-02-1.04895E-03-6.95756E-14
 -1      2775 1.29860E-02-1.09519E-03-7.07941E-14
 -1      2776 1.27609E-02-9.80955E-04-6.89092E-14
 -1      2777 1.31366E-02-1.12237E-03-7.20152E-14
 -1      2778 1.32828E-02-1.12281E-03-7.32383E-14
 -1      2779 1.30935E-02-1.09147E-03-7.13400E-14
 -1      2780 1.34225E-02-1.09509E-03-7.44616E-14
 -1      2781 1.35619E-02-1.03662E-03-7.56841E-14
 -1      2782 1.33981E-02-1.10404E-03-7.37811E-14
 -1      2783 2.26929E-03 4.78549E-04-2.93533E-15
 -1      2784 2.12746E-03 4.71689E-04-2.58227E-15
 -1      2785 2.33279E-03 4.44766E-04-3.17042E-15
 -1      2786 1.98554E-03 4.63209E-04-2.25179E-15
 -1      2787 1.84349E-03 4.52945E-04-1.94423E-15
 -1      2788 2.04767E-03 4.31282E-04-2.46007E-15
 -1      2789 2.83638E-03 4.94583E-04-4.57018E-15
 -1      2790 2.69461E-03 4.91954E-04-4.12891E-15
 -1      2791 2.61768E-03 4.53402E-04-3.96963E-15
 -1      2792 3.12007E-03 4.97963E-04-5.51475E-15
 -1      2793 2.97821E-03 4.96559E-04-5.03209E-15
 -1      2794 2.90247E-03 4.58578E-04-4.85428E-15
 -1      2795 3.40398E-03 4.99496E-04-6.54212E-15
 -1      2796 3.26200E-03 4.98922E-04-6.01842E-15
 -1      2797 3.18725E-03 4.61340E-04-5.82227E-15
 -1      2798 3.68812E-03 4.99810E-04-7.64894E-15
 -1      2799 3.54602E-03 4.99777E-04-7.08563E-15
 -1      2800 3.47210E-03 4.62469E-04-6.87098E-15
 -1      2801 3.97251E-03 4.99351E-04-8.83421E-15
 -1      2802 3.83029E-03 4.99657E-04-8.23201E-15
 -1      2803 3.75703E-03 4.62531E-04-7.99854E-15
 -1      2804 4.25713E-03 4.98425E-04-1.00995E-14
 -1      2805 4.11480E-03 4.98933E-04-9.45667E-15
 -1      2806 4.04207E-03 4.61925E-04-9.20481E-15
 -1      2807 4.54196E-03 4.97232E-04-1.14412E-14
 -1      2808 4.39953E-03 4.97853E-04-1.07612E-14
 -1      2809 4.32722E-03 4.60923E-04-1.04896E-14
 -1      2810 4.82697E-03 4.95889E-04-1.28571E-14
 -1      2811 4.68445E-03 4.96575E-04-1.21402E-14
 -1      2812 4.61247E-03 4.59698E-04-1.18499E-14
 -1      2813 5.11214E-03 4.94451E-04-1.43442E-14
 -1      2814 4.96954E-03 4.95180E-04-1.35920E-14
 -1      2815 4.89782E-03 4.58348E-04-1.32841E-14
 -1      2816 5.39746E-03 4.92925E-04-1.58982E-14
 -1      2817 5.25479E-03 4.93700E-04-1.51128E-14
 -1      2818 5.18325E-03 4.56911E-04-1.47880E-14
 -1      2819 5.68290E-03 4.91280E-04-1.75163E-14
 -1      2820 5.54017E-03 4.92119E-04-1.66997E-14
 -1      2821 5.46877E-03 4.55386E-04-1.63577E-14
 -1      2822 5.96848E-03 4.89456E-04-1.91959E-14
 -1      2823 5.82568E-03 4.90394E-04-1.83486E-14
 -1      2824 5.75436E-03 4.53733E-04-1.79910E-14
 -1      2825 6.25419E-03 4.87371E-04-2.09326E-14
 -1      2826 6.11132E-03 4.88451E-04-2.00575E-14
 -1      2827 6.04004E-03 4.51887E-04-1.96852E-14
 -1      2828 6.54007E-03 4.84926E-04-2.27225E-14
 -1      2829 6.39711E-03 4.86199E-04-2.18209E-14
 -1      2830 6.32580E-03 4.49762E-04-2.14362E-14
 -1      2831 6.82613E-03 4.82006E-04-2.45664E-14
 -1      2832 6.68307E-03 4.83531E-04-2.36381E-14
 -1      2833 6.61167E-03 4.47256E-04-2.32399E-14
 -1      2834 7.11244E-03 4.78493E-04-2.64561E-14
 -1      2835 6.96925E-03 4.80329E-04-2.55047E-14
 -1      2836 6.89767E-03 4.44254E-04-2.50943E-14
 -1      2837 7.39907E-03 4.74273E-04-2.83964E-14
 -1      2838 7.25571E-03 4.76476E-04-2.74198E-14
 -1      2839 7.18383E-03 4.40640E-04-2.69973E-14
 -1      2840 7.68610E-03 4.69246E-04-3.03793E-14
 -1      2841 7.54252E-03 4.71863E-04-2.93829E-14
 -1      2842 7.47018E-03 4.36303E-04-2.89482E-14
 -1      2843 7.97365E-03 4.63351E-04-3.24038E-14
 -1      2844 7.82979E-03 4.66407E-04-3.13863E-14
 -1      2845 7.75678E-03 4.31152E-04-3.09418E-14
 -1      2846 8.26184E-03 4.56595E-04-3.44689E-14
 -1      2847 8.11764E-03 4.60076E-04-3.34312E-14
 -1      2848 8.04368E-03 4.25138E-04-3.29771E-14
 -1      2849 8.55086E-03 4.49092E-04-3.65678E-14
 -1      2850 8.40622E-03 4.52924E-04-3.55137E-14
 -1      2851 8.33095E-03 4.18287E-04-3.50514E-14
 -1      2852 8.84087E-03 4.41127E-04-3.87004E-14
 -1      2853 8.69571E-03 4.45143E-04-3.76307E-14
 -1      2854 8.61867E-03 4.10742E-04-3.71617E-14
 -1      2855 9.13213E-03 4.33237E-04-4.08668E-14
 -1      2856 8.98631E-03 4.37131E-04-3.97796E-14
 -1      2857 8.90694E-03 4.02823E-04-3.93042E-14
 -1      2858 9.42488E-03 4.26325E-04-4.30624E-14
 -1      2859 9.27827E-03 4.29593E-04-4.19598E-14
 -1      2860 9.19587E-03 3.95113E-04-4.14778E-14
 -1      2861 9.71951E-03 4.21806E-04-4.52926E-14
 -1      2862 9.57191E-03 4.23665E-04-4.41735E-14
 -1      2863 9.48563E-03 3.88563E-04-4.36839E-14
 -1      2864 1.00165E-02 4.21798E-04-4.75505E-14
 -1      2865 9.86764E-03 4.21088E-04-4.64189E-14
 -1      2866 9.77652E-03 3.84629E-04-4.59235E-14
 -1      2867 1.03167E-02 4.29343E-04-4.98317E-14
 -1      2868 1.01661E-02 4.24406E-04-4.86884E-14
 -1      2869 1.00690E-02 3.85448E-04-4.81892E-14
 -1      2870 1.06212E-02 4.48655E-04-5.21327E-14
 -1      2871 1.04683E-02 4.37212E-04-5.09807E-14
 -1      2872 1.03642E-02 3.94031E-04-5.04789E-14
 -1      2873 1.09323E-02 4.85338E-04-5.44490E-14
 -1      2874 1.07758E-02 4.64380E-04-5.32888E-14
 -1      2875 1.06636E-02 4.14495E-04-5.27836E-14
 -1      2876 1.12528E-02 5.46470E-04-5.67825E-14
 -1      2877 1.10913E-02 5.12248E-04-5.56124E-14
 -1      2878 1.09702E-02 4.52321E-04-5.51054E-14
 -1      2879 1.15868E-02 6.40290E-04-5.91277E-14
 -1      2880 1.14182E-02 5.88562E-04-5.79538E-14
 -1      2881 1.12887E-02 5.14629E-04-5.74437E-14
 -1      2882 1.19374E-02 7.74601E-04-6.14878E-14
 -1      2883 1.17604E-02 7.01746E-04-6.03061E-14
 -1      2884 1.16250E-02 6.10394E-04-5.97951E-14
 -1      2885 1.23039E-02 9.52253E-04-6.38543E-14
 -1      2886 1.21197E-02 8.58020E-04-6.26713E-14
 -1      2887 1.19846E-02 7.49298E-04-6.21571E-14
 -1      2888 1.26759E-02 1.16021E-03-6.62281E-14
 -1      2889 1.24910E-02 1.05439E-03-6.50408E-14
 -1      2890 1.23677E-02 9.37092E-04-6.45258E-14
 -1      2891 1.30340E-02 1.35560E-03-6.86097E-14
 -1      2892 1.28582E-02 1.26432E-03-6.74171E-14
 -1      2893 1.27603E-02 1.16029E-03-6.69010E-14
 -1      2894 1.33948E-02 1.46119E-03-7.11500E-14
 -1      2895 1.32286E-02 1.42263E-03-6.99551E-14
 -1      2896 1.39341E-02 1.25039E-03-7.53931E-14
 -1      2897 1.46150E-02 9.38218E-04-7.71038E-14
 -1      2898 1.29963E-02 1.20623E-03-6.85728E-14
 -1      2899 1.31650E-02 1.31419E-03-6.94719E-14
 -1      2900 1.32370E-02 1.37126E-03-6.98773E-14
 -1      2901 1.63475E-02 2.72528E-04-7.95227E-14
 -1      2902 8.03122E-04 2.78176E-04-4.15385E-16
 -1      2903 1.38465E-02-8.89692E-04-7.72467E-14
 -1      2904 1.39351E-02-8.72991E-04-7.71594E-14
 -1      2905 1.46327E-02-6.22965E-04-7.78862E-14
 -1      2906 1.70127E-03 4.40478E-04-1.65951E-15
 -1      2907 1.55880E-03 4.25601E-04-1.39828E-15
 -1      2908 1.76216E-03 4.11157E-04-1.84032E-15
 -1      2909 1.36500E-02 1.45763E-03-7.23739E-14
 -1      2910 1.37935E-02 1.43126E-03-7.32432E-14
 -1      2911 1.41612E-03 4.07778E-04-1.16064E-15
 -1      2912 1.27307E-03 3.86748E-04-9.45682E-16
 -1      2913 1.18970E-03 3.41429E-04-8.77092E-16
 -1      2914 1.47614E-03 3.82130E-04-1.31260E-15
 -1      2915 1.43732E-02 1.11107E-03-7.61494E-14
 -1      2916 1.35806E-02-1.10974E-03-7.35765E-14
 -1      2917 1.34296E-02-1.10253E-03-7.25495E-14
 -1      2918 1.41238E-02 1.25018E-03-7.52349E-14
 -1      2919 1.42475E-02 1.13702E-03-7.60825E-14
 -1      2920 1.41437E-02 1.16253E-03-7.60133E-14
 -1      2921 6.88556E-04-2.03950E-04-3.92657E-16
 -1      2922 1.39122E-02-9.97008E-04-7.56593E-14
 -1      2923 1.37629E-02-1.06540E-03-7.47963E-14
 -1      2924 7.84341E-04 1.23419E-04-5.19617E-16
 -1      2925 7.81945E-04 9.99889E-05-5.27681E-16
 -1      2926 8.99542E-04 9.94172E-05-6.72531E-16
 -1      2927 9.05302E-04 1.51544E-04-6.52907E-16
 -1      2928 7.81676E-04-9.79390E-05-5.47170E-16
 -1      2929 7.83998E-04-1.21288E-04-5.43524E-16
 -1      2930 1.13221E-02 1.98482E-04-6.35298E-14
 -1      2931 1.14518E-02 2.45738E-04-6.38132E-14
 -1      2932 1.13163E-02 1.92647E-05-6.38003E-14
 -1      2933 1.12021E-02 5.58367E-05-6.34925E-14
 -1      2934 1.16289E-02-1.04487E-04-6.47119E-14
 -1      2935 1.14742E-02-3.91614E-05-6.43165E-14
 -1      2936 1.20446E-02-3.24867E-04-6.58514E-14
 -1      2937 1.18298E-02-2.03227E-04-6.52516E-14
 -1      2938 1.25632E-02-6.38389E-04-6.79215E-14
 -1      2939 1.23428E-02-5.03347E-04-6.69580E-14
 -1      2940 1.29327E-02-8.76975E-04-6.96722E-14
 -1      2941 1.27635E-02-7.65934E-04-6.88421E-14
 -1      2942 1.32621E-02-1.05463E-03-7.15110E-14
 -1      2943 1.31102E-02-9.79468E-04-7.06157E-14
 -1      2944 1.15975E-02 3.09332E-04-6.41001E-14
 -1      2945 1.17581E-02 3.87043E-04-6.43871E-14
 -1      2946 1.14934E-02 2.74819E-04-6.33576E-14
 -1      2947 1.11267E-02 8.12881E-05-6.31848E-14
 -1      2948 1.10848E-02 9.54506E-05-6.28737E-14
 -1      2949 1.11343E-02 5.95152E-05-6.25750E-14
 -1      2950 1.39754E-02 1.34437E-03-7.44001E-14
 -1      2951 7.87071E-04-1.45436E-04-5.38347E-16
 -1      2952 7.90997E-04-1.70611E-04-5.31313E-16
 -1      2953 9.04835E-04-1.49037E-04-6.85012E-16
 -1      2954 8.95386E-04 1.00982E-06-6.93401E-16
 -1      2955 7.77561E-04-9.71735E-06-5.48986E-16
 -1      2956 7.77926E-04-3.13568E-05-5.50205E-16
 -1      2957 1.35369E-02 1.45664E-03-7.18147E-14
 -1      2958 1.38669E-02 1.37567E-03-7.40088E-14
 -1      2959 1.27411E-02 1.04432E-03-6.72364E-14
 -1      2960 1.28702E-02 1.12591E-03-6.79040E-14
 -1      2961 1.29677E-02 1.21728E-03-6.83082E-14
 -1      2962 1.36632E-02 1.41880E-03-7.34073E-14
 -1      2963 1.35121E-02 1.46458E-03-7.22029E-14
 -1      2964 1.33114E-02-1.08216E-03-7.19710E-14
 -1      2965 1.29928E-02-9.37024E-04-6.99871E-14
 -1      2966 1.21716E-02-4.17469E-04-6.60921E-14
 -1      2967 1.20061E-02-3.47517E-04-6.52283E-14
 -1      2968 1.22783E-02-5.10616E-04-6.63336E-14
 -1      2969 1.16956E-02-1.59780E-04-6.44511E-14
 -1      2970 8.03068E-04-2.03274E-04-5.26814E-16
 -1      2971 8.21707E-04-2.53797E-04-5.10863E-16
 -1      2972 9.52840E-04-2.88192E-04-6.54004E-16
 -1      2973 9.21138E-04-2.11216E-04-6.73954E-16
 -1      2974 8.64874E-04 2.66494E-04-5.04669E-16
 -1      2975 1.39710E-02-8.94386E-04-7.68129E-14
 -1      2976 1.41259E-02-8.52298E-04-7.69268E-14
 -1      2977 1.18765E-02 4.55650E-04-6.44598E-14
 -1      2978 1.19873E-02 5.30406E-04-6.45315E-14
 -1      2979 1.17438E-02 4.02069E-04-6.37154E-14
 -1      2980 1.37768E-02-9.98745E-04-7.57995E-14
 -1      2981 1.13539E-02-1.31012E-05-6.33978E-14
 -1      2982 1.10647E-02 1.04957E-04-6.24481E-14
 -1      2983 1.10572E-02 1.13047E-04-6.20214E-14
 -1      2984 1.10381E-02 8.94189E-05-6.18415E-14
 -1      2985 1.36562E-02-9.80508E-04-7.65234E-14
 -1      2986 1.37382E-02-9.50004E-04-7.66743E-14
 -1      2987 7.78709E-04-5.31344E-05-5.50192E-16
 -1      2988 7.79931E-04-7.53165E-05-5.49189E-16
 -1      2989 8.99259E-04-9.70718E-05-6.93510E-16
 -1      2990 8.96286E-04-4.75118E-05-6.95963E-16
 -1      2991 9.82962E-04 2.75729E-04-6.51172E-16
 -1      2992 1.23805E-02 7.67929E-04-6.60541E-14
 -1      2993 1.01523E-03-2.72339E-04-7.58955E-16
 -1      2994 1.12176E-02 1.65976E-04-6.28492E-14
 -1      2995 1.12485E-02 1.86458E-04-6.23898E-14
 -1      2996 1.11314E-02 1.45622E-04-6.21684E-14
 -1      2997 1.26389E-02-7.16304E-04-6.81208E-14
 -1      2998 1.04026E-03 2.43211E-04-7.65582E-16
 -1      2999 1.03362E-03 2.11492E-04-7.84637E-16
 -1      3000 2.68334E-03 4.17854E-04-4.23229E-15
 -1      3001 2.54036E-03 4.14615E-04-3.80968E-15
 -1      3002 1.44458E-03-3.13688E-04-1.44459E-15
 -1      3003 1.58807E-03-3.28166E-04-1.71351E-15
 -1      3004 1.73166E-03-3.40425E-04-2.00554E-15
 -1      3005 1.87532E-03-3.50639E-04-2.32036E-15
 -1      3006 1.65233E-03-3.00104E-04-1.87415E-15
 -1      3007 2.01898E-03-3.59138E-04-2.65776E-15
 -1      3008 2.16262E-03-3.66078E-04-3.01763E-15
 -1      3009 1.94010E-03-3.19329E-04-2.50539E-15
 -1      3010 2.30621E-03-3.71736E-04-3.39966E-15
 -1      3011 2.44975E-03-3.76237E-04-3.80352E-15
 -1      3012 2.22813E-03-3.32474E-04-3.22598E-15
 -1      3013 2.59324E-03-3.79806E-04-4.22911E-15
 -1      3014 2.73667E-03-3.82541E-04-4.67620E-15
 -1      3015 2.51608E-03-3.41041E-04-4.03471E-15
 -1      3016 2.88004E-03-3.84615E-04-5.14359E-15
 -1      3017 3.02336E-03-3.86103E-04-5.63120E-15
 -1      3018 2.80382E-03-3.46267E-04-4.92830E-15
 -1      3019 3.16664E-03-3.87137E-04-6.13885E-15
 -1      3020 3.30986E-03-3.87773E-04-6.66665E-15
 -1      3021 3.09130E-03-3.49127E-04-5.90364E-15
 -1      3022 3.45305E-03-3.88108E-04-7.21306E-15
 -1      3023 3.59619E-03-3.88181E-04-7.77885E-15
 -1      3024 3.37851E-03-3.50362E-04-6.95765E-15
 -1      3025 3.73931E-03-3.88061E-04-8.36459E-15
 -1      3026 3.88238E-03-3.87778E-04-8.96898E-15
 -1      3027 3.66546E-03-3.50523E-04-8.08776E-15
 -1      3028 4.02544E-03-3.87378E-04-9.59181E-15
 -1      3029 4.16847E-03-3.86880E-04-1.02336E-14
 -1      3030 3.95218E-03-3.50000E-04-9.29454E-15
 -1      3031 4.31148E-03-3.86317E-04-1.08950E-14
 -1      3032 4.45447E-03-3.85697E-04-1.15740E-14
 -1      3033 4.23871E-03-3.49067E-04-1.05766E-14
 -1      3034 4.59744E-03-3.85042E-04-1.22706E-14
 -1      3035 4.74040E-03-3.84356E-04-1.29849E-14
 -1      3036 4.52506E-03-3.47899E-04-1.19329E-14
 -1      3037 4.88335E-03-3.83649E-04-1.37184E-14
 -1      3038 5.02628E-03-3.82922E-04-1.44682E-14
 -1      3039 4.81128E-03-3.46601E-04-1.33602E-14
 -1      3040 5.16920E-03-3.82177E-04-1.52342E-14
 -1      3041 5.31212E-03-3.81412E-04-1.60183E-14
 -1      3042 5.09738E-03-3.45223E-04-1.48586E-14
 -1      3043 5.45503E-03-3.80624E-04-1.68179E-14
 -1      3044 5.59793E-03-3.79808E-04-1.76337E-14
 -1      3045 5.38338E-03-3.43771E-04-1.64236E-14
 -1      3046 5.74083E-03-3.78956E-04-1.84664E-14
 -1      3047 5.88372E-03-3.78061E-04-1.93129E-14
 -1      3048 5.66930E-03-3.42221E-04-1.80552E-14
 -1      3049 6.02660E-03-3.77113E-04-2.01760E-14
 -1      3050 6.16948E-03-3.76103E-04-2.10539E-14
 -1      3051 5.95514E-03-3.40521E-04-1.97482E-14
 -1      3052 6.31235E-03-3.75018E-04-2.19468E-14
 -1      3053 6.45521E-03-3.73847E-04-2.28534E-14
 -1      3054 6.24089E-03-3.38602E-04-2.15024E-14
 -1      3055 6.59807E-03-3.72576E-04-2.37741E-14
 -1      3056 6.74092E-03-3.71195E-04-2.47091E-14
 -1      3057 6.52655E-03-3.36377E-04-2.33135E-14
 -1      3058 6.88375E-03-3.69687E-04-2.56570E-14
 -1      3059 7.02658E-03-3.68042E-04-2.66187E-14
 -1      3060 6.81209E-03-3.33752E-04-2.51792E-14
 -1      3061 7.16939E-03-3.66245E-04-2.75937E-14
 -1      3062 7.31219E-03-3.64286E-04-2.85808E-14
 -1      3063 7.09749E-03-3.30627E-04-2.70992E-14
 -1      3064 7.45496E-03-3.62155E-04-2.95811E-14
 -1      3065 7.59773E-03-3.59841E-04-3.05935E-14
 -1      3066 7.38270E-03-3.26905E-04-2.90711E-14
 -1      3067 7.74046E-03-3.57341E-04-3.16177E-14
 -1      3068 7.88317E-03-3.54649E-04-3.26550E-14
 -1      3069 7.66767E-03-3.22506E-04-3.10933E-14
 -1      3070 8.02584E-03-3.51771E-04-3.37026E-14
 -1      3071 8.16850E-03-3.48706E-04-3.47605E-14
 -1      3072 7.95233E-03-3.17382E-04-3.31614E-14
 -1      3073 8.31112E-03-3.45479E-04-3.58307E-14
 -1      3074 8.45372E-03-3.42097E-04-3.69083E-14
 -1      3075 8.23661E-03-3.11537E-04-3.52755E-14
 -1      3076 8.59628E-03-3.38608E-04-3.79948E-14
 -1      3077 8.73884E-03-3.35035E-04-3.90892E-14
 -1      3078 8.52047E-03-3.05061E-04-3.74279E-14
 -1      3079 8.88136E-03-3.31454E-04-4.01904E-14
 -1      3080 9.02392E-03-3.27914E-04-4.13000E-14
 -1      3081 8.80385E-03-2.98169E-04-3.96132E-14
 -1      3082 9.16648E-03-3.24529E-04-4.24151E-14
 -1      3083 9.30914E-03-3.21382E-04-4.35373E-14
 -1      3084 9.08679E-03-2.91248E-04-4.18271E-14
 -1      3085 9.45188E-03-3.18634E-04-4.46664E-14
 -1      3086 9.59483E-03-3.16417E-04-4.58022E-14
 -1      3087 9.36942E-03-2.84916E-04-4.40717E-14
 -1      3088 9.73802E-03-3.14944E-04-4.69424E-14
 -1      3089 9.88162E-03-3.14423E-04-4.80897E-14
 -1      3090 9.65209E-03-2.80092E-04-4.63386E-14
 -1      3091 1.00257E-02-3.15113E-04-4.92455E-14
 -1      3092 1.01706E-02-3.17336E-04-5.04081E-14
 -1      3093 9.93551E-03-2.78076E-04-4.86339E-14
 -1      3094 1.03164E-02-3.21388E-04-5.15760E-14
 -1      3095 1.04636E-02-3.27766E-04-5.27462E-14
 -1      3096 1.02210E-02-2.80652E-04-5.09566E-14
 -1      3097 1.06124E-02-3.36772E-04-5.39209E-14
 -1      3098 1.07632E-02-3.49178E-04-5.51000E-14
 -1      3099 1.05106E-02-2.90243E-04-5.32996E-14
 -1      3100 1.09168E-02-3.65257E-04-5.62811E-14
 -1      3101 1.10736E-02-3.86173E-04-5.74662E-14
 -1      3102 1.08077E-02-3.10186E-04-5.56527E-14
 -1      3103 1.12344E-02-4.12114E-04-5.86533E-14
 -1      3104 1.13994E-02-4.44775E-04-5.98422E-14
 -1      3105 1.11173E-02-3.45238E-04-5.80196E-14
 -1      3106 1.15698E-02-4.84300E-04-6.10338E-14
 -1      3107 1.17450E-02-5.32534E-04-6.22303E-14
 -1      3108 1.14456E-02-4.02500E-04-6.03971E-14
 -1      3109 1.19269E-02-5.88947E-04-6.34277E-14
 -1      3110 1.21122E-02-6.55410E-04-6.46272E-14
 -1      3111 1.17995E-02-4.91540E-04-6.27829E-14
 -1      3112 1.23021E-02-7.30585E-04-6.58313E-14
 -1      3113 1.24920E-02-8.12143E-04-6.70359E-14
 -1      3114 1.21810E-02-6.23053E-04-6.51789E-14
 -1      3115 1.30357E-02-1.05304E-03-7.06796E-14
 -1      3116 1.32023E-02-1.09559E-03-7.18953E-14
 -1      3117 1.33651E-02-1.10885E-03-7.31055E-14
 -1      3118 1.35200E-02-1.08567E-03-7.43252E-14
 -1      3119 2.39732E-03 4.10444E-04-3.40860E-15
 -1      3120 2.25424E-03 4.05232E-04-3.02895E-15
 -1      3121 2.46279E-03 3.75668E-04-3.64940E-15
 -1      3122 2.11108E-03 3.98729E-04-2.67184E-15
 -1      3123 1.96786E-03 3.90795E-04-2.33745E-15
 -1      3124 2.17559E-03 3.65626E-04-2.88754E-15
 -1      3125 1.39385E-02 1.29757E-03-7.48721E-14
 -1      3126 3.25492E-03 4.24411E-04-6.13138E-15
 -1      3127 3.11207E-03 4.23528E-04-5.62594E-15
 -1      3128 3.54059E-03 4.25197E-04-7.20107E-15
 -1      3129 3.39777E-03 4.24952E-04-6.65649E-15
 -1      3130 3.32308E-03 3.87239E-04-6.44242E-15
 -1      3131 3.82622E-03 4.25059E-04-8.34962E-15
 -1      3132 3.68341E-03 4.25222E-04-7.76545E-15
 -1      3133 3.60946E-03 3.87733E-04-7.53308E-15
 -1      3134 4.11184E-03 4.24350E-04-9.57580E-15
 -1      3135 3.96904E-03 4.24761E-04-8.95318E-15
 -1      3136 3.89570E-03 3.87438E-04-8.70223E-15
 -1      3137 4.39746E-03 4.23308E-04-1.08798E-14
 -1      3138 4.25465E-03 4.23861E-04-1.02180E-14
 -1      3139 4.18182E-03 3.86662E-04-9.94781E-15
 -1      3140 4.68309E-03 4.22080E-04-1.22597E-14
 -1      3141 4.54027E-03 4.22712E-04-1.15606E-14
 -1      3142 4.46785E-03 3.85609E-04-1.12716E-14
 -1      3143 4.96873E-03 4.20746E-04-1.37118E-14
 -1      3144 4.82591E-03 4.21424E-04-1.29767E-14
 -1      3145 4.75381E-03 3.84403E-04-1.26702E-14
 -1      3146 5.25439E-03 4.19332E-04-1.52318E-14
 -1      3147 5.11156E-03 4.20049E-04-1.44633E-14
 -1      3148 5.03971E-03 3.83106E-04-1.41394E-14
 -1      3149 5.54008E-03 4.17826E-04-1.68180E-14
 -1      3150 5.39723E-03 4.18593E-04-1.60169E-14
 -1      3151 5.32557E-03 3.81732E-04-1.56767E-14
 -1      3152 5.82579E-03 4.16183E-04-1.84669E-14
 -1      3153 5.68293E-03 4.17025E-04-1.76352E-14
 -1      3154 5.61139E-03 3.80262E-04-1.72795E-14
 -1      3155 6.11153E-03 4.14334E-04-2.01760E-14
 -1      3156 5.96866E-03 4.15289E-04-1.93142E-14
 -1      3157 5.89719E-03 3.78647E-04-1.89437E-14
 -1      3158 6.39731E-03 4.12191E-04-2.19397E-14
 -1      3159 6.25441E-03 4.13304E-04-2.10507E-14
 -1      3160 6.18296E-03 3.76814E-04-2.06665E-14
 -1      3161 6.68312E-03 4.09650E-04-2.37571E-14
 -1      3162 6.54021E-03 4.10976E-04-2.28417E-14
 -1      3163 6.46870E-03 3.74677E-04-2.24446E-14
 -1      3164 6.96898E-03 4.06601E-04-2.56231E-14
 -1      3165 6.82604E-03 4.08195E-04-2.46841E-14
 -1      3166 6.75440E-03 3.72133E-04-2.42730E-14
 -1      3167 7.25489E-03 4.02930E-04-2.75389E-14
 -1      3168 7.11192E-03 4.04849E-04-2.65749E-14
 -1      3169 7.04004E-03 3.69075E-04-2.61529E-14
 -1      3170 7.54085E-03 3.98532E-04-2.95006E-14
 -1      3171 7.39786E-03 4.00827E-04-2.85142E-14
 -1      3172 7.32561E-03 3.65396E-04-2.80805E-14
 -1      3173 7.82687E-03 3.93328E-04-3.15047E-14
 -1      3174 7.68384E-03 3.96034E-04-3.04976E-14
 -1      3175 7.61107E-03 3.61001E-04-3.00534E-14
 -1      3176 8.11294E-03 3.87285E-04-3.35522E-14
 -1      3177 7.96989E-03 3.90412E-04-3.25236E-14
 -1      3178 7.89636E-03 3.55823E-04-3.20702E-14
 -1      3179 8.39907E-03 3.80450E-04-3.56363E-14
 -1      3180 8.25599E-03 3.83962E-04-3.45894E-14
 -1      3181 8.18144E-03 3.49849E-04-3.41274E-14
 -1      3182 8.68524E-03 3.72994E-04-3.77552E-14
 -1      3183 8.54213E-03 3.76787E-04-3.66914E-14
 -1      3184 8.46620E-03 3.43146E-04-3.62219E-14
 -1      3185 8.97144E-03 3.65270E-04-3.99078E-14
 -1      3186 8.82832E-03 3.69141E-04-3.88266E-14
 -1      3187 8.75057E-03 3.35913E-04-3.83503E-14
 -1      3188 9.25770E-03 3.57894E-04-4.20904E-14
 -1      3189 9.11454E-03 3.61497E-04-4.09959E-14
 -1      3190 9.03443E-03 3.28529E-04-4.05120E-14
 -1      3191 9.54408E-03 3.51845E-04-4.43081E-14
 -1      3192 9.40084E-03 3.54638E-04-4.31953E-14
 -1      3193 9.31770E-03 3.21633E-04-4.27061E-14
 -1      3194 9.83082E-03 3.48580E-04-4.65554E-14
 -1      3195 9.68736E-03 3.49765E-04-4.54275E-14
 -1      3196 9.60035E-03 3.16199E-04-4.49319E-14
 -1      3197 1.01184E-02 3.50184E-04-4.88284E-14
 -1      3198 9.97444E-03 3.48626E-04-4.76892E-14
 -1      3199 9.88257E-03 3.13641E-04-4.71873E-14
 -1      3200 1.04081E-02 3.59537E-04-5.11243E-14
 -1      3201 1.02629E-02 3.53673E-04-4.99743E-14
 -1      3202 1.01649E-02 3.15915E-04-4.94702E-14
 -1      3203 1.07019E-02 3.80528E-04-5.34356E-14
 -1      3204 1.05542E-02 3.68250E-04-5.22773E-14
 -1      3205 1.04486E-02 3.25654E-04-5.17705E-14
 -1      3206 1.10037E-02 4.18374E-04-5.57628E-14
 -1      3207 1.08515E-02 3.96836E-04-5.45968E-14
 -1      3208 1.07362E-02 3.46364E-04-5.40879E-14
 -1      3209 1.13195E-02 4.80195E-04-5.81057E-14
 -1      3210 1.11594E-02 4.45502E-04-5.69322E-14
 -1      3211 1.10325E-02 3.82871E-04-5.64211E-14
 -1      3212 1.16578E-02 5.76000E-04-6.04612E-14
 -1      3213 1.14855E-02 5.22699E-04-5.92826E-14
 -1      3214 1.13449E-02 4.42377E-04-5.87698E-14
 -1      3215 1.20276E-02 7.18000E-04-6.28248E-14
 -1      3216 1.18390E-02 6.39665E-04-6.16411E-14
 -1      3217 1.16850E-02 5.36177E-04-6.11260E-14
 -1      3218 1.29069E-02 1.21027E-03-6.78645E-14
 -1      3219 1.27034E-02 1.09032E-03-6.66777E-14
 -1      3220 1.31614E-02 1.36100E-03-6.94313E-14
 -1      3221 1.32980E-02-1.09228E-03-7.21230E-14
 -1      3222 1.31517E-02-1.04481E-03-7.10852E-14
 -1      3223 1.15850E-03-2.76873E-04-9.75606E-16
 -1      3224 1.30136E-03-2.96657E-04-1.19864E-15
 -1      3225 1.36540E-03-2.73054E-04-1.33407E-15
 -1      3226 1.44930E-02-6.54804E-04-7.79714E-14
 -1      3227 1.82458E-03 3.81116E-04-2.02517E-15
 -1      3228 1.68122E-03 3.69519E-04-1.73560E-15
 -1      3229 1.88824E-03 3.50406E-04-2.21412E-15
 -1      3230 1.13973E-02-5.35709E-05-6.30164E-14
 -1      3231 1.12569E-02-3.28441E-06-6.25018E-14
 -1      3232 1.36338E-02-1.08903E-03-7.42318E-14
 -1      3233 2.96919E-03 4.22196E-04-5.14035E-15
 -1      3234 2.82628E-03 4.20353E-04-4.67604E-15
 -1      3235 2.74977E-03 3.81931E-04-4.49777E-15
 -1      3236 1.13913E-02 2.48652E-04-6.25213E-14
 -1      3237 1.15188E-02 3.04227E-04-6.28067E-14
 -1      3238 1.22145E-02 6.85771E-04-6.50267E-14
 -1      3239 1.24368E-02 8.42586E-04-6.58031E-14
 -1      3240 1.01647E-03 6.81851E-05-8.43469E-16
 -1      3241 1.01530E-03 4.12109E-05-8.49716E-16
 -1      3242 1.14502E-03 3.10509E-04-8.47467E-16
 -1      3243 1.08236E-03 2.71585E-04-7.97959E-16
 -1      3244 1.20145E-03 2.73020E-04-9.79617E-16
 -1      3245 1.28818E-03 3.32477E-04-1.05047E-15
 -1      3246 1.26999E-02-7.91401E-04-6.83339E-14
 -1      3247 1.25240E-02-6.80480E-04-6.74109E-14
 -1      3248 1.17304E-02-2.10290E-04-6.40837E-14
 -1      3249 1.15576E-02-1.23492E-04-6.35472E-14
 -1      3250 1.30150E-02-9.78427E-04-7.01778E-14
 -1      3251 1.28603E-02-8.87731E-04-6.92324E-14
 -1      3252 1.27356E-02-8.49672E-04-6.85181E-14
 -1      3253 1.30189E-02-1.00810E-03-7.03254E-14
 -1      3254 1.11425E-02 3.83466E-05-6.20955E-14
 -1      3255 1.10714E-02 6.10765E-05-6.17889E-14
 -1      3256 9.99577E-04-2.33033E-04-7.68482E-16
 -1      3257 1.07877E-03-2.54998E-04-8.69015E-16
 -1      3258 9.86326E-04-1.95940E-04-7.73876E-16
 -1      3259 1.01470E-03 1.44429E-05-8.54284E-16
 -1      3260 1.01466E-03-1.22260E-05-8.57319E-16
 -1      3261 1.13537E-03 3.01551E-05-1.03090E-15
 -1      3262 1.42822E-02-8.00003E-04-7.71316E-14
 -1      3263 1.25255E-02 9.20797E-04-6.60414E-14
 -1      3264 1.26374E-02 1.02284E-03-6.64433E-14
 -1      3265 1.25017E-02 9.80217E-04-6.54797E-14
 -1      3266 1.23531E-02 8.38119E-04-6.50104E-14
 -1      3267 1.24784E-02-7.29097E-04-6.70006E-14
 -1      3268 1.25921E-02-8.37105E-04-6.76596E-14
 -1      3269 1.29145E-02-9.95452E-04-6.97720E-14
 -1      3270 1.27314E-02-9.16953E-04-6.85613E-14
 -1      3271 1.22260E-02 8.02336E-04-6.40588E-14
 -1      3272 1.20624E-02 6.73343E-04-6.35400E-14
 -1      3273 1.23004E-02 8.71070E-04-6.42940E-14
 -1      3274 1.30189E-02 1.27786E-03-6.85330E-14
 -1      3275 1.10127E-02 5.50800E-05-6.08844E-14
 -1      3276 1.10234E-02 7.32952E-05-6.13635E-14
 -1      3277 1.09871E-02 8.24174E-05-6.09382E-14
 -1      3278 1.35192E-02 1.45865E-03-7.18309E-14
 -1      3279 3.03653E-03 3.85510E-04-5.42960E-15
 -1      3280 1.14949E-02 3.25574E-04-6.20396E-14
 -1      3281 1.16151E-02 3.57860E-04-6.28771E-14
 -1      3282 1.17105E-02 4.17842E-04-6.29476E-14
 -1      3283 1.20668E-02 6.12530E-04-6.42807E-14
 -1      3284 1.55632E-03 3.61445E-04-1.49671E-15
 -1      3285 1.41296E-03 3.45260E-04-1.25091E-15
 -1      3286 1.36910E-03 3.15014E-04-1.21245E-15
 -1      3287 1.61928E-03 3.33837E-04-1.66029E-15
 -1      3288 1.36459E-02-1.02488E-03-7.55743E-14
 -1      3289 1.14315E-02-1.00759E-04-6.26488E-14
 -1      3290 1.36702E-02 1.44399E-03-7.28698E-14
 -1      3291 1.38282E-02 1.37292E-03-7.40252E-14
 -1      3292 1.36408E-02-1.07543E-03-7.45513E-14
 -1      3293 1.34778E-02-1.10746E-03-7.33297E-14
 -1      3294 1.24245E-02-6.66231E-04-6.67696E-14
 -1      3295 1.23575E-02-5.84107E-04-6.65634E-14
 -1      3296 1.21944E-02-5.07187E-04-6.56942E-14
 -1      3297 1.23269E-02-6.43351E-04-6.61504E-14
 -1      3298 1.36281E-02-1.05872E-03-7.48962E-14
 -1      3299 1.12680E-02 2.12463E-04-6.18403E-14
 -1      3300 1.02828E-03 1.81119E-04-8.00697E-16
 -1      3301 1.02409E-03 1.51797E-04-8.14534E-16
 -1      3302 1.15303E-03 2.11763E-04-9.62514E-16
 -1      3303 1.01801E-03-9.29590E-05-8.57441E-16
 -1      3304 1.02040E-03-1.20661E-04-8.54500E-16
 -1      3305 1.11676E-02 5.85871E-06-6.17151E-14
 -1      3306 1.14325E-03-2.35978E-04-9.84103E-16
 -1      3307 1.10554E-02 1.24417E-04-6.15622E-14
 -1      3308 1.10600E-02 1.38108E-04-6.11030E-14
 -1      3309 1.09967E-02 1.08061E-04-6.09571E-14
 -1      3310 1.02077E-03 1.23261E-04-8.26135E-16
 -1      3311 1.01829E-03 9.54975E-05-8.35798E-16
 -1      3312 1.13805E-03 8.85989E-05-1.01645E-15
 -1      3313 1.14367E-03 1.48734E-04-9.94200E-16
 -1      3314 1.18444E-02-2.87783E-04-6.43235E-14
 -1      3315 1.16918E-02-2.43130E-04-6.34153E-14
 -1      3316 1.19492E-02-3.70647E-04-6.45598E-14
 -1      3317 1.00070E-03-1.43791E-04-8.18749E-16
 -1      3318 1.00460E-03-1.72507E-04-8.12054E-16
 -1      3319 1.08225E-03-1.90828E-04-9.17411E-16
 -1      3320 1.12015E-03-1.40813E-04-9.97263E-16
 -1      3321 1.57395E-03-2.60677E-04-1.74464E-15
 -1      3322 1.71775E-03-2.71138E-04-2.03841E-15
 -1      3323 1.33189E-02-1.10035E-03-7.24399E-14
 -1      3324 1.18738E-02 5.37533E-04-6.30480E-14
 -1      3325 1.86178E-03-2.79970E-04-2.35449E-15
 -1      3326 2.00600E-03-2.87312E-04-2.69332E-15
 -1      3327 1.78415E-03-2.41250E-04-2.20607E-15
 -1      3328 2.15030E-03-2.93384E-04-3.05408E-15
 -1      3329 2.29464E-03-2.98306E-04-3.43695E-15
 -1      3330 2.07286E-03-2.54611E-04-2.88398E-15
 -1      3331 2.43898E-03-3.02276E-04-3.84156E-15
 -1      3332 2.58328E-03-3.05392E-04-4.26765E-15
 -1      3333 2.36205E-03-2.63617E-04-3.65035E-15
 -1      3334 2.72754E-03-3.07820E-04-4.71426E-15
 -1      3335 2.87172E-03-3.09635E-04-5.18162E-15
 -1      3336 2.65128E-03-2.69349E-04-4.50219E-15
 -1      3337 3.01583E-03-3.10966E-04-5.66931E-15
 -1      3338 3.15985E-03-3.11870E-04-6.17647E-15
 -1      3339 2.94029E-03-2.72704E-04-5.43631E-15
 -1      3340 3.30380E-03-3.12447E-04-6.70335E-15
 -1      3341 3.44765E-03-3.12736E-04-7.24876E-15
 -1      3342 3.22897E-03-2.74391E-04-6.45038E-15
 -1      3343 3.59143E-03-3.12812E-04-7.81340E-15
 -1      3344 3.73512E-03-3.12701E-04-8.39728E-15
 -1      3345 3.51726E-03-2.74946E-04-7.54103E-15
 -1      3346 3.87874E-03-3.12459E-04-8.99984E-15
 -1      3347 4.02228E-03-3.12103E-04-9.62068E-15
 -1      3348 3.80515E-03-2.74764E-04-8.70658E-15
 -1      3349 4.16576E-03-3.11669E-04-1.02605E-14
 -1      3350 4.30917E-03-3.11167E-04-1.09196E-14
 -1      3351 4.09267E-03-2.74124E-04-9.94754E-15
 -1      3352 4.45253E-03-3.10624E-04-1.15968E-14
 -1      3353 4.59582E-03-3.10042E-04-1.22915E-14
 -1      3354 4.37986E-03-2.73216E-04-1.12624E-14
 -1      3355 4.73907E-03-3.09438E-04-1.30042E-14
 -1      3356 4.88227E-03-3.08811E-04-1.37355E-14
 -1      3357 4.66675E-03-2.72157E-04-1.26513E-14
 -1      3358 5.02543E-03-3.08169E-04-1.44842E-14
 -1      3359 5.16855E-03-3.07509E-04-1.52494E-14
 -1      3360 4.95338E-03-2.71011E-04-1.41109E-14
 -1      3361 5.31163E-03-3.06833E-04-1.60323E-14
 -1      3362 5.45468E-03-3.06135E-04-1.68316E-14
 -1      3363 5.23979E-03-2.69803E-04-1.56421E-14
 -1      3364 5.59769E-03-3.05413E-04-1.76461E-14
 -1      3365 5.74067E-03-3.04659E-04-1.84773E-14
 -1      3366 5.52601E-03-2.68524E-04-1.72396E-14
 -1      3367 5.88361E-03-3.03867E-04-1.93232E-14
 -1      3368 6.02652E-03-3.03028E-04-2.01842E-14
 -1      3369 5.81203E-03-2.67141E-04-1.88993E-14
 -1      3370 6.16939E-03-3.02134E-04-2.10603E-14
 -1      3371 6.31223E-03-3.01174E-04-2.19506E-14
 -1      3372 6.09787E-03-2.65603E-04-2.06205E-14
 -1      3373 6.45502E-03-3.00138E-04-2.28547E-14
 -1      3374 6.59777E-03-2.99014E-04-2.37733E-14
 -1      3375 6.38349E-03-2.63842E-04-2.23993E-14
 -1      3376 6.74046E-03-2.97791E-04-2.47044E-14
 -1      3377 6.88310E-03-2.96457E-04-2.56492E-14
 -1      3378 6.66887E-03-2.61780E-04-2.42329E-14
 -1      3379 7.02567E-03-2.95000E-04-2.66084E-14
 -1      3380 7.16817E-03-2.93408E-04-2.75800E-14
 -1      3381 6.95394E-03-2.59333E-04-2.61201E-14
 -1      3382 7.31058E-03-2.91673E-04-2.85649E-14
 -1      3383 7.45291E-03-2.89779E-04-2.95622E-14
 -1      3384 7.23863E-03-2.56414E-04-2.80611E-14
 -1      3385 7.59512E-03-2.87726E-04-3.05709E-14
 -1      3386 7.73722E-03-2.85497E-04-3.15921E-14
 -1      3387 7.52283E-03-2.52940E-04-3.00518E-14
 -1      3388 7.87917E-03-2.83100E-04-3.26239E-14
 -1      3389 8.02099E-03-2.80521E-04-3.36671E-14
 -1      3390 7.80640E-03-2.48848E-04-3.20884E-14
 -1      3391 8.16263E-03-2.77777E-04-3.47230E-14
 -1      3392 8.30411E-03-2.74861E-04-3.57888E-14
 -1      3393 8.08919E-03-2.44102E-04-3.41729E-14
 -1      3394 8.44538E-03-2.71805E-04-3.68640E-14
 -1      3395 8.58647E-03-2.68609E-04-3.79467E-14
 -1      3396 8.37104E-03-2.38715E-04-3.63014E-14
 -1      3397 8.72731E-03-2.65327E-04-3.90371E-14
 -1      3398 8.86796E-03-2.61970E-04-4.01361E-14
 -1      3399 8.65178E-03-2.32773E-04-3.84649E-14
 -1      3400 9.00836E-03-2.58620E-04-4.12423E-14
 -1      3401 9.14858E-03-2.55308E-04-4.23557E-14
 -1      3402 8.93125E-03-2.26463E-04-4.06590E-14
 -1      3403 9.28857E-03-2.52144E-04-4.34771E-14
 -1      3404 9.42842E-03-2.49189E-04-4.46058E-14
 -1      3405 9.20939E-03-2.20106E-04-4.28842E-14
 -1      3406 9.56813E-03-2.46586E-04-4.57380E-14
 -1      3407 9.70784E-03-2.44440E-04-4.68768E-14
 -1      3408 9.48625E-03-2.14193E-04-4.51375E-14
 -1      3409 9.84757E-03-2.42923E-04-4.80246E-14
 -1      3410 9.98758E-03-2.42214E-04-4.91797E-14
 -1      3411 9.76216E-03-2.09424E-04-4.74162E-14
 -1      3412 1.01279E-02-2.42503E-04-5.03385E-14
 -1      3413 1.02690E-02-2.44090E-04-5.15051E-14
 -1      3414 1.00379E-02-2.06760E-04-4.97237E-14
 -1      3415 1.04111E-02-2.47162E-04-5.26749E-14
 -1      3416 1.05546E-02-2.52244E-04-5.38480E-14
 -1      3417 1.03148E-02-2.07505E-04-5.20519E-14
 -1      3418 1.07001E-02-2.59485E-04-5.50254E-14
 -1      3419 1.08483E-02-2.69823E-04-5.62065E-14
 -1      3420 1.05957E-02-2.13515E-04-5.43977E-14
 -1      3421 1.09998E-02-2.83332E-04-5.73876E-14
 -1      3422 1.11559E-02-3.01764E-04-5.85730E-14
 -1      3423 1.08846E-02-2.27690E-04-5.67573E-14
 -1      3424 1.13174E-02-3.25108E-04-5.97600E-14
 -1      3425 1.14855E-02-3.56232E-04-6.09500E-14
 -1      3426 1.11886E-02-2.55090E-04-5.91244E-14
 -1      3427 1.17156E-02-3.82957E-04-6.26239E-14
 -1      3428 1.19036E-02-4.37317E-04-6.38169E-14
 -1      3429 1.21250E-02-5.60917E-04-6.49525E-14
 -1      3430 2.24117E-03 3.31945E-04-3.10686E-15
 -1      3431 2.09713E-03 3.26129E-04-2.74601E-15
 -1      3432 3.96548E-03 3.49674E-04-9.05614E-15
 -1      3433 3.82213E-03 3.49945E-04-8.45194E-15
 -1      3434 3.67873E-03 3.50081E-04-7.86661E-15
 -1      3435 3.53527E-03 3.50061E-04-7.30111E-15
 -1      3436 3.74837E-03 3.12289E-04-8.20215E-15
 -1      3437 3.39174E-03 3.49823E-04-6.75512E-15
 -1      3438 3.24815E-03 3.49337E-04-6.22815E-15
 -1      3439 3.46087E-03 3.12221E-04-7.06951E-15
 -1      3440 4.25203E-03 3.48868E-04-1.03216E-14
 -1      3441 4.10878E-03 3.49311E-04-9.67954E-15
 -1      3442 4.03555E-03 3.11809E-04-9.41173E-15
 -1      3443 4.53841E-03 3.47835E-04-1.16653E-14
 -1      3444 4.39524E-03 3.48374E-04-1.09836E-14
 -1      3445 4.32246E-03 3.11004E-04-1.06971E-14
 -1      3446 4.82465E-03 3.46675E-04-1.30816E-14
 -1      3447 4.68155E-03 3.47268E-04-1.23643E-14
 -1      3448 4.60913E-03 3.10014E-04-1.20590E-14
 -1      3449 5.11076E-03 3.45436E-04-1.45678E-14
 -1      3450 4.96772E-03 3.46065E-04-1.38160E-14
 -1      3451 4.89560E-03 3.08922E-04-1.34934E-14
 -1      3452 5.39678E-03 3.44123E-04-1.61228E-14
 -1      3453 5.25378E-03 3.44790E-04-1.53376E-14
 -1      3454 5.18189E-03 3.07759E-04-1.49983E-14
 -1      3455 5.68271E-03 3.42709E-04-1.77412E-14
 -1      3456 5.53975E-03 3.43431E-04-1.69239E-14
 -1      3457 5.46802E-03 3.06524E-04-1.65696E-14
 -1      3458 5.96855E-03 3.41142E-04-1.94203E-14
 -1      3459 5.82564E-03 3.41949E-04-1.85727E-14
 -1      3460 5.75402E-03 3.05184E-04-1.82028E-14
 -1      3461 6.25431E-03 3.39351E-04-2.11575E-14
 -1      3462 6.11144E-03 3.40280E-04-2.02818E-14
 -1      3463 6.03988E-03 3.03688E-04-1.98979E-14
 -1      3464 6.53997E-03 3.37250E-04-2.29484E-14
 -1      3465 6.39715E-03 3.38345E-04-2.20464E-14
 -1      3466 6.32558E-03 3.01965E-04-2.16491E-14
 -1      3467 6.82550E-03 3.34740E-04-2.47898E-14
 -1      3468 6.68275E-03 3.36052E-04-2.38625E-14
 -1      3469 6.61111E-03 2.99932E-04-2.34528E-14
 -1      3470 7.11086E-03 3.31722E-04-2.66828E-14
 -1      3471 6.96820E-03 3.33301E-04-2.57308E-14
 -1      3472 6.89642E-03 2.97499E-04-2.53080E-14
 -1      3473 7.39601E-03 3.28095E-04-2.86222E-14
 -1      3474 7.25346E-03 3.29991E-04-2.76465E-14
 -1      3475 7.18144E-03 2.94571E-04-2.72128E-14
 -1      3476 7.68086E-03 3.23778E-04-3.06066E-14
 -1      3477 7.53847E-03 3.26029E-04-2.96090E-14
 -1      3478 7.46608E-03 2.91063E-04-2.91644E-14
 -1      3479 7.96531E-03 3.18720E-04-3.26362E-14
 -1      3480 7.82313E-03 3.21346E-04-3.16159E-14
 -1      3481 7.75023E-03 2.86904E-04-3.11621E-14
 -1      3482 8.24923E-03 3.12925E-04-3.47023E-14
 -1      3483 8.10733E-03 3.15915E-04-3.36638E-14
 -1      3484 8.03372E-03 2.82062E-04-3.32006E-14
 -1      3485 8.53247E-03 3.06484E-04-3.68063E-14
 -1      3486 8.39093E-03 3.09780E-04-3.57508E-14
 -1      3487 8.31636E-03 2.76560E-04-3.52784E-14
 -1      3488 8.81483E-03 2.99618E-04-3.89467E-14
 -1      3489 8.67376E-03 3.03092E-04-3.78724E-14
 -1      3490 8.59792E-03 2.70511E-04-3.73929E-14
 -1      3491 9.09613E-03 2.92727E-04-4.11168E-14
 -1      3492 8.95561E-03 2.96153E-04-4.00270E-14
 -1      3493 8.87812E-03 2.64153E-04-3.95427E-14
 -1      3494 9.37616E-03 2.86452E-04-4.33221E-14
 -1      3495 9.23629E-03 2.89476E-04-4.22161E-14
 -1      3496 9.15667E-03 2.57898E-04-4.17239E-14
 -1      3497 9.65482E-03 2.81741E-04-4.55568E-14
 -1      3498 9.51564E-03 2.83846E-04-4.44360E-14
 -1      3499 9.43327E-03 2.52374E-04-4.39385E-14
 -1      3500 9.93220E-03 2.79916E-04-4.78210E-14
 -1      3501 9.79362E-03 2.80387E-04-4.66853E-14
 -1      3502 9.70770E-03 2.48468E-04-4.61834E-14
 -1      3503 1.02088E-02 2.82739E-04-5.01104E-14
 -1      3504 1.00705E-02 2.80628E-04-4.89624E-14
 -1      3505 9.97994E-03 2.47366E-04-4.84556E-14
 -1      3506 1.04859E-02 2.92509E-04-5.24196E-14
 -1      3507 1.03471E-02 2.86577E-04-5.12633E-14
 -1      3508 1.02504E-02 2.50564E-04-5.07531E-14
 -1      3509 1.07664E-02 3.12245E-04-5.47427E-14
 -1      3510 1.06254E-02 3.00842E-04-5.35789E-14
 -1      3511 1.05202E-02 2.59920E-04-5.30686E-14
 -1      3512 1.10553E-02 3.46225E-04-5.70805E-14
 -1      3513 1.09092E-02 3.26905E-04-5.59099E-14
 -1      3514 1.07922E-02 2.77799E-04-5.53974E-14
 -1      3515 1.13616E-02 4.01676E-04-5.94329E-14
 -1      3516 1.12054E-02 3.70363E-04-5.82567E-14
 -1      3517 1.10716E-02 3.07821E-04-5.77426E-14
 -1      3518 1.95310E-03 3.18990E-04-2.40748E-15
 -1      3519 1.80912E-03 3.10395E-04-2.09129E-15
 -1      3520 2.01900E-03 2.86893E-04-2.60486E-15
 -1      3521 1.01519E-03-3.89211E-05-8.58959E-16
 -1      3522 1.01629E-03-6.57535E-05-8.59054E-16
 -1      3523 1.13779E-03-8.59514E-05-1.03867E-15
 -1      3524 1.11614E-02-2.95101E-05-6.10453E-14
 -1      3525 1.10591E-02 9.85510E-06-6.06419E-14
 -1      3526 2.81696E-03 3.45624E-04-4.76604E-15
 -1      3527 2.67310E-03 3.43374E-04-4.31950E-15
 -1      3528 3.10449E-03 3.48517E-04-5.72086E-15
 -1      3529 2.96076E-03 3.47317E-04-5.23297E-15
 -1      3530 3.17303E-03 3.11276E-04-6.01434E-15
 -1      3531 2.52917E-03 3.40419E-04-3.89391E-15
 -1      3532 2.38519E-03 3.36672E-04-3.48956E-15
 -1      3533 2.59638E-03 3.04756E-04-4.14169E-15
 -1      3534 1.17339E-02 4.87039E-04-6.22093E-14
 -1      3535 1.14382E-02-1.49260E-04-6.21013E-14
 -1      3536 1.12992E-02-8.73092E-05-6.15754E-14
 -1      3537 1.16054E-03-2.09414E-04-1.02918E-15
 -1      3538 1.23942E-03-2.28208E-04-1.14680E-15
 -1      3539 1.17875E-03-1.82990E-04-1.07263E-15
 -1      3540 1.11373E-02 1.83070E-04-6.08419E-14
 -1      3541 1.12545E-02 2.36041E-04-6.09711E-14
 -1      3542 1.73070E-03 2.70962E-04-1.96875E-15
 -1      3543 1.66528E-03 3.00078E-04-1.79732E-15
 -1      3544 1.21736E-03-1.30049E-04-1.15672E-15
 -1      3545 1.19769E-03-1.56557E-04-1.11525E-15
 -1      3546 1.27579E-03-1.72681E-04-1.23932E-15
 -1      3547 1.15649E-02-2.89675E-04-6.19818E-14
 -1      3548 1.21467E-03-9.89568E-05-1.15972E-15
 -1      3549 1.29207E-03-1.12485E-04-1.28749E-15
 -1      3550 1.21277E-03-6.83129E-05-1.16107E-15
 -1      3551 2.30769E-03 2.97735E-04-3.32990E-15
 -1      3552 1.15587E-02 4.33629E-04-6.10292E-14
 -1      3553 1.13963E-02 3.48190E-04-6.05130E-14
 -1      3554 1.09941E-02 2.77023E-05-6.02181E-14
 -1      3555 1.09384E-02 4.12733E-05-5.97933E-14
 -1      3556 1.09724E-02-3.06157E-06-5.95494E-14
 -1      3557 2.88486E-03 3.08996E-04-5.03734E-15
 -1      3558 1.38204E-03-2.43184E-04-1.38707E-15
 -1      3559 1.53985E-03 2.93333E-04-1.55485E-15
 -1      3560 1.13529E-03-2.76901E-05-1.03826E-15
 -1      3561 1.09265E-02 7.75892E-05-6.00009E-14
 -1      3562 1.09576E-02 9.28772E-05-6.04792E-14
 -1      3563 1.09369E-02 1.03383E-04-6.00203E-14
 -1      3564 1.11625E-02-7.22006E-05-6.04995E-14
 -1      3565 1.27925E-03 2.42847E-04-1.13849E-15
 -1      3566 1.27309E-03 2.08650E-04-1.15919E-15
 -1      3567 1.44809E-03-2.17966E-04-1.52661E-15
 -1      3568 1.10395E-02 1.56961E-04-6.02378E-14
 -1      3569 1.26104E-03 1.10631E-04-1.20463E-15
 -1      3570 1.25882E-03 7.90817E-05-1.21511E-15
 -1      3571 1.38050E-03 6.71481E-05-1.43089E-15
 -1      3572 1.25735E-03 4.78105E-05-1.22329E-15
 -1      3573 1.25661E-03 1.67533E-05-1.22959E-15
 -1      3574 1.46657E-03-1.87739E-04-1.57810E-15
 -1      3575 1.70737E-03-2.03434E-04-2.05941E-15
 -1      3576 1.85154E-03-2.10460E-04-2.37669E-15
 -1      3577 1.99599E-03-2.16356E-04-2.71620E-15
 -1      3578 2.14067E-03-2.21218E-04-3.07794E-15
 -1      3579 1.91977E-03-1.78772E-04-2.55078E-15
 -1      3580 2.28546E-03-2.25206E-04-3.46138E-15
 -1      3581 2.43033E-03-2.28403E-04-3.86618E-15
 -1      3582 2.20932E-03-1.87162E-04-3.27447E-15
 -1      3583 2.57520E-03-2.30949E-04-4.29232E-15
 -1      3584 2.72005E-03-2.32909E-04-4.73878E-15
 -1      3585 2.49940E-03-1.92708E-04-4.08418E-15
 -1      3586 2.86483E-03-2.34403E-04-5.20549E-15
 -1      3587 3.00954E-03-2.35479E-04-5.69270E-15
 -1      3588 2.78952E-03-1.96126E-04-4.97679E-15
 -1      3589 3.15415E-03-2.36232E-04-6.19920E-15
 -1      3590 3.29865E-03-2.36695E-04-6.72476E-15
 -1      3591 3.07938E-03-1.98013E-04-5.94978E-15
 -1      3592 3.44304E-03-2.36944E-04-7.26990E-15
 -1      3593 3.58732E-03-2.37001E-04-7.83340E-15
 -1      3594 3.36883E-03-1.98836E-04-7.00063E-15
 -1      3595 3.73149E-03-2.36921E-04-8.41559E-15
 -1      3596 3.87555E-03-2.36719E-04-9.01625E-15
 -1      3597 3.65780E-03-1.98949E-04-8.12620E-15
 -1      3598 4.01950E-03-2.36434E-04-9.63623E-15
 -1      3599 4.16335E-03-2.36076E-04-1.02745E-14
 -1      3600 3.94627E-03-1.98608E-04-9.32688E-15
 -1      3601 4.30710E-03-2.35671E-04-1.09316E-14
 -1      3602 4.45076E-03-2.35223E-04-1.16069E-14
 -1      3603 4.23428E-03-1.97993E-04-1.06026E-14
 -1      3604 4.59433E-03-2.34750E-04-1.22997E-14
 -1      3605 4.73783E-03-2.34253E-04-1.30114E-14
 -1      3606 4.52186E-03-1.97219E-04-1.19518E-14
 -1      3607 4.88125E-03-2.33741E-04-1.37415E-14
 -1      3608 5.02460E-03-2.33213E-04-1.44890E-14
 -1      3609 4.80905E-03-1.96356E-04-1.33737E-14
 -1      3610 5.16788E-03-2.32673E-04-1.52535E-14
 -1      3611 5.31110E-03-2.32117E-04-1.60353E-14
 -1      3612 5.09591E-03-1.95438E-04-1.48673E-14
 -1      3613 5.45426E-03-2.31545E-04-1.68339E-14
 -1      3614 5.59737E-03-2.30951E-04-1.76478E-14
 -1      3615 5.38247E-03-1.94470E-04-1.64302E-14
 -1      3616 5.74041E-03-2.30333E-04-1.84771E-14
 -1      3617 5.88339E-03-2.29683E-04-1.93224E-14
 -1      3618 5.66875E-03-1.93436E-04-1.80567E-14
 -1      3619 6.02632E-03-2.28996E-04-2.01818E-14
 -1      3620 6.16918E-03-2.28262E-04-2.10562E-14
 -1      3621 5.95475E-03-1.92302E-04-1.97449E-14
 -1      3622 6.31197E-03-2.27475E-04-2.19450E-14
 -1      3623 6.45468E-03-2.26625E-04-2.28471E-14
 -1      3624 6.24045E-03-1.91024E-04-2.14921E-14
 -1      3625 6.59732E-03-2.25704E-04-2.37638E-14
 -1      3626 6.73986E-03-2.24701E-04-2.46932E-14
 -1      3627 6.52581E-03-1.89544E-04-2.32956E-14
 -1      3628 6.88231E-03-2.23608E-04-2.56356E-14
 -1      3629 7.02464E-03-2.22412E-04-2.65912E-14
 -1      3630 6.81076E-03-1.87797E-04-2.51535E-14
 -1      3631 7.16684E-03-2.21107E-04-2.75593E-14
 -1      3632 7.30890E-03-2.19679E-04-2.85415E-14
 -1      3633 7.09520E-03-1.85716E-04-2.70622E-14
 -1      3634 7.45079E-03-2.18126E-04-2.95358E-14
 -1      3635 7.59250E-03-2.16430E-04-3.05404E-14
 -1      3636 7.37899E-03-1.83229E-04-2.90209E-14
 -1      3637 7.73400E-03-2.14596E-04-3.15579E-14
 -1      3638 7.87528E-03-2.12606E-04-3.25861E-14
 -1      3639 7.66196E-03-1.80273E-04-3.10293E-14
 -1      3640 8.01629E-03-2.10472E-04-3.36263E-14
 -1      3641 8.15703E-03-2.08176E-04-3.46781E-14
 -1      3642 7.94390E-03-1.76797E-04-3.30829E-14
 -1      3643 8.29744E-03-2.05742E-04-3.57391E-14
 -1      3644 8.43753E-03-2.03152E-04-3.68117E-14
 -1      3645 8.22456E-03-1.72770E-04-3.51812E-14
 -1      3646 8.57724E-03-2.00446E-04-3.78920E-14
 -1      3647 8.71657E-03-1.97608E-04-3.89804E-14
 -1      3648 8.50367E-03-1.68199E-04-3.73204E-14
 -1      3649 8.85546E-03-1.94697E-04-4.00781E-14
 -1      3650 8.99392E-03-1.91702E-04-4.11809E-14
 -1      3651 8.78094E-03-1.63137E-04-3.94974E-14
 -1      3652 9.13191E-03-1.88703E-04-4.22928E-14
 -1      3653 9.26946E-03-1.85699E-04-4.34122E-14
 -1      3654 9.05611E-03-1.57703E-04-4.17032E-14
 -1      3655 9.40653E-03-1.82790E-04-4.45360E-14
 -1      3656 9.54319E-03-1.79994E-04-4.56691E-14
 -1      3657 9.32895E-03-1.52092E-04-4.39376E-14
 -1      3658 9.67941E-03-1.77427E-04-4.68092E-14
 -1      3659 9.81534E-03-1.75136E-04-4.79553E-14
 -1      3660 9.59938E-03-1.46586E-04-4.62024E-14
 -1      3661 9.95099E-03-1.73248E-04-4.91086E-14
 -1      3662 1.00866E-02-1.71863E-04-5.02673E-14
 -1      3663 9.86753E-03-1.41556E-04-4.84942E-14
 -1      3664 1.02223E-02-1.71104E-04-5.14301E-14
 -1      3665 1.03584E-02-1.71178E-04-5.25977E-14
 -1      3666 1.01339E-02-1.37485E-04-5.08090E-14
 -1      3667 1.04951E-02-1.72173E-04-5.37703E-14
 -1      3668 1.06332E-02-1.74559E-04-5.49469E-14
 -1      3669 1.03997E-02-1.35017E-04-5.31437E-14
 -1      3670 1.07729E-02-1.78370E-04-5.61251E-14
 -1      3671 1.09156E-02-1.84610E-04-5.73060E-14
 -1      3672 1.06671E-02-1.35164E-04-5.54929E-14
 -1      3673 1.20292E-02-4.39533E-04-6.47859E-14
 -1      3674 4.39312E-03 2.73078E-04-1.10735E-14
 -1      3675 4.24956E-03 2.73491E-04-1.04115E-14
 -1      3676 4.10592E-03 2.73852E-04-9.76850E-15
 -1      3677 3.96220E-03 2.74154E-04-9.14432E-15
 -1      3678 4.17656E-03 2.35839E-04-1.01265E-14
 -1      3679 3.53047E-03 2.74436E-04-7.38595E-15
 -1      3680 3.38637E-03 2.74230E-04-6.83842E-15
 -1      3681 4.68002E-03 2.72158E-04-1.24543E-14
 -1      3682 4.53661E-03 2.72633E-04-1.17551E-14
 -1      3683 4.46398E-03 2.35122E-04-1.14516E-14
 -1      3684 4.96666E-03 2.71154E-04-1.39066E-14
 -1      3685 4.82337E-03 2.71665E-04-1.31713E-14
 -1      3686 4.75106E-03 2.34292E-04-1.28504E-14
 -1      3687 5.25308E-03 2.70087E-04-1.54293E-14
 -1      3688 5.10990E-03 2.70629E-04-1.46594E-14
 -1      3689 5.03783E-03 2.33394E-04-1.43215E-14
 -1      3690 5.53930E-03 2.68949E-04-1.70167E-14
 -1      3691 5.39622E-03 2.69529E-04-1.62147E-14
 -1      3692 5.32434E-03 2.32440E-04-1.58606E-14
 -1      3693 5.82533E-03 2.67705E-04-1.86663E-14
 -1      3694 5.68234E-03 2.68343E-04-1.78338E-14
 -1      3695 5.61060E-03 2.31416E-04-1.74653E-14
 -1      3696 6.11116E-03 2.66304E-04-2.03760E-14
 -1      3697 5.96827E-03 2.67028E-04-1.95141E-14
 -1      3698 5.89663E-03 2.30288E-04-1.91305E-14
 -1      3699 6.39678E-03 2.64678E-04-2.21411E-14
 -1      3700 6.25400E-03 2.65524E-04-2.12517E-14
 -1      3701 6.18241E-03 2.29007E-04-2.08545E-14
 -1      3702 6.68214E-03 2.62752E-04-2.39586E-14
 -1      3703 6.53949E-03 2.63758E-04-2.30431E-14
 -1      3704 6.46790E-03 2.27511E-04-2.26338E-14
 -1      3705 6.96718E-03 2.60442E-04-2.58269E-14
 -1      3706 6.82470E-03 2.61651E-04-2.48865E-14
 -1      3707 6.75305E-03 2.25732E-04-2.44656E-14
 -1      3708 7.25180E-03 2.57665E-04-2.77440E-14
 -1      3709 7.10955E-03 2.59118E-04-2.67805E-14
 -1      3710 7.03778E-03 2.23595E-04-2.63473E-14
 -1      3711 7.53588E-03 2.54348E-04-2.97087E-14
 -1      3712 7.39391E-03 2.56080E-04-2.87203E-14
 -1      3713 7.32195E-03 2.21031E-04-2.82769E-14
 -1      3714 7.81924E-03 2.50436E-04-3.17178E-14
 -1      3715 7.67766E-03 2.52471E-04-3.07069E-14
 -1      3716 7.60541E-03 2.17980E-04-3.02535E-14
 -1      3717 8.10169E-03 2.45914E-04-3.37672E-14
 -1      3718 7.96059E-03 2.48255E-04-3.27388E-14
 -1      3719 7.88794E-03 2.14405E-04-3.22739E-14
 -1      3720 8.38296E-03 2.40825E-04-3.58554E-14
 -1      3721 8.24248E-03 2.43442E-04-3.48065E-14
 -1      3722 8.16928E-03 2.10309E-04-3.43346E-14
 -1      3723 8.66275E-03 2.35302E-04-3.79827E-14
 -1      3724 8.52305E-03 2.38115E-04-3.69141E-14
 -1      3725 8.44912E-03 2.05753E-04-3.64353E-14
 -1      3726 8.94068E-03 2.29595E-04-4.01403E-14
 -1      3727 8.80196E-03 2.32462E-04-3.90573E-14
 -1      3728 8.72706E-03 2.00884E-04-3.85719E-14
 -1      3729 9.21638E-03 2.24116E-04-4.23342E-14
 -1      3730 9.07882E-03 2.26811E-04-4.12326E-14
 -1      3731 9.00268E-03 1.95963E-04-4.07412E-14
 -1      3732 9.48944E-03 2.19465E-04-4.45569E-14
 -1      3733 9.35325E-03 2.21663E-04-4.34410E-14
 -1      3734 9.27547E-03 1.91390E-04-4.29439E-14
 -1      3735 9.75951E-03 2.16451E-04-4.68118E-14
 -1      3736 9.62484E-03 2.17720E-04-4.56807E-14
 -1      3737 9.54493E-03 1.87724E-04-4.51777E-14
 -1      3738 1.00264E-02 2.16095E-04-4.90926E-14
 -1      3739 9.89331E-03 2.15898E-04-4.79489E-14
 -1      3740 9.81053E-03 1.85676E-04-4.74422E-14
 -1      3741 1.02902E-02 2.19598E-04-5.13995E-14
 -1      3742 1.01586E-02 2.17308E-04-5.02424E-14
 -1      3743 1.00719E-02 1.86075E-04-4.97325E-14
 -1      3744 1.05519E-02 2.28342E-04-5.37188E-14
 -1      3745 1.04211E-02 2.23227E-04-5.25567E-14
 -1      3746 1.03287E-02 1.89796E-04-5.20432E-14
 -1      3747 1.08137E-02 2.44055E-04-5.60531E-14
 -1      3748 1.06824E-02 2.35161E-04-5.48845E-14
 -1      3749 1.05812E-02 1.97712E-04-5.43697E-14
 -1      3750 1.10800E-02 2.69329E-04-5.84023E-14
 -1      3751 1.09455E-02 2.55071E-04-5.72270E-14
 -1      3752 1.08308E-02 2.10740E-04-5.67101E-14
 -1      3753 3.24216E-03 2.73792E-04-6.30966E-15
 -1      3754 3.09786E-03 2.73092E-04-5.80026E-15
 -1      3755 3.31182E-03 2.36117E-04-6.60728E-15
 -1      3756 1.79716E-03 2.40956E-04-2.14431E-15
 -1      3757 1.65316E-03 2.32416E-04-1.84645E-15
 -1      3758 2.08592E-03 2.54099E-04-2.80613E-15
 -1      3759 1.94144E-03 2.48142E-04-2.46403E-15
 -1      3760 1.86454E-03 2.10047E-04-2.32418E-15
 -1      3761 1.32612E-03 2.85541E-04-1.17290E-15
 -1      3762 1.44601E-03 2.80924E-04-1.39231E-15
 -1      3763 1.12111E-02 2.54134E-04-6.00905E-14
 -1      3764 1.13658E-02 2.94556E-04-6.10878E-14
 -1      3765 2.95346E-03 2.72046E-04-5.31071E-15
 -1      3766 2.80897E-03 2.70610E-04-4.84107E-15
 -1      3767 3.02269E-03 2.34830E-04-5.58669E-15
 -1      3768 3.81838E-03 2.74366E-04-8.53904E-15
 -1      3769 3.67448E-03 2.74475E-04-7.95283E-15
 -1      3770 3.88875E-03 2.36354E-04-8.87788E-15
 -1      3771 2.37515E-03 2.62984E-04-3.55654E-15
 -1      3772 2.23051E-03 2.59013E-04-3.17046E-15
 -1      3773 2.15373E-03 2.20634E-04-3.01162E-15
 -1      3774 1.11512E-02-1.15966E-04-5.99153E-14
 -1      3775 1.10308E-02-6.30343E-05-5.93903E-14
 -1      3776 2.66441E-03 2.68674E-04-4.39213E-15
 -1      3777 2.51979E-03 2.66178E-04-3.96372E-15
 -1      3778 2.44344E-03 2.27736E-04-3.78651E-15
 -1      3779 2.73318E-03 2.32227E-04-4.64526E-15
 -1      3780 1.26807E-03 1.75287E-04-1.17686E-15
 -1      3781 1.26411E-03 1.42640E-04-1.19209E-15
 -1      3782 1.38530E-03 1.33938E-04-1.40754E-15
 -1      3783 1.39374E-03 2.02619E-04-1.37389E-15
 -1      3784 1.15329E-02-2.11190E-04-6.23371E-14
 -1      3785 1.49313E-03 2.49623E-04-1.51378E-15
 -1      3786 1.57002E-03 2.22979E-04-1.68825E-15
 -1      3787 1.47644E-03 2.12825E-04-1.51745E-15
 -1      3788 1.47149E-03 1.77129E-04-1.53688E-15
 -1      3789 1.63720E-03 1.94702E-04-1.84777E-15
 -1      3790 1.23381E-03-1.08967E-05-1.19587E-15
 -1      3791 1.23438E-03-4.15039E-05-1.19827E-15
 -1      3792 1.31128E-03-5.26190E-05-1.32880E-15
 -1      3793 1.35601E-03 4.63864E-06-1.40385E-15
 -1      3794 1.09336E-02 1.29440E-04-5.94463E-14
 -1      3795 1.09852E-02 1.69318E-04-5.91844E-14
 -1      3796 1.41265E-03-1.36103E-04-1.49720E-15
 -1      3797 1.58445E-03-1.77727E-04-1.81494E-15
 -1      3798 1.65277E-03-1.48825E-04-1.96657E-15
 -1      3799 1.40982E-03-1.02235E-04-1.49991E-15
 -1      3800 1.13303E-02-2.05606E-04-6.06716E-14
 -1      3801 1.11763E-02-1.81656E-04-5.95599E-14
 -1      3802 1.10388E-02 2.12465E-04-5.89291E-14
 -1      3803 1.11251E-02 2.58605E-04-5.90447E-14
 -1      3804 1.10286E-02-1.71061E-04-5.83751E-14
 -1      3805 1.08758E-02 1.12746E-04-5.89700E-14
 -1      3806 1.09383E-02-7.75156E-05-5.83874E-14
 -1      3807 1.09579E-02-3.90814E-05-5.89706E-14
 -1      3808 1.08910E-02-1.93361E-05-5.85487E-14
 -1      3809 3.60051E-03 2.36520E-04-7.70464E-15
 -1      3810 1.08522E-02 2.95267E-05-5.86702E-14
 -1      3811 1.08878E-02 5.47832E-05-5.93366E-14
 -1      3812 1.08458E-02 6.62907E-05-5.88790E-14
 -1      3813 1.14431E-02 3.40296E-04-6.11573E-14
 -1      3814 1.09091E-02-1.20517E-04-5.77387E-14
 -1      3815 1.46754E-03 1.42017E-04-1.55380E-15
 -1      3816 1.46455E-03 1.07361E-04-1.56786E-15
 -1      3817 1.55010E-03 1.49959E-04-1.70708E-15
 -1      3818 1.46240E-03 7.29885E-05-1.57937E-15
 -1      3819 1.46109E-03 3.88646E-05-1.58852E-15
 -1      3820 1.54463E-03 7.88755E-05-1.73508E-15
 -1      3821 1.09099E-02 1.77407E-04-5.81411E-14
 -1      3822 2.13375E-03-1.49641E-04-3.08983E-15
 -1      3823 2.27882E-03-1.52458E-04-3.47317E-15
 -1      3824 2.42401E-03-1.54743E-04-3.87784E-15
 -1      3825 2.56925E-03-1.56544E-04-4.30366E-15
 -1      3826 2.34908E-03-1.17149E-04-3.67412E-15
 -1      3827 2.71448E-03-1.57955E-04-4.75046E-15
 -1      3828 2.85968E-03-1.59011E-04-5.21652E-15
 -1      3829 2.63979E-03-1.19963E-04-4.52511E-15
 -1      3830 3.00480E-03-1.59790E-04-5.70277E-15
 -1      3831 3.14982E-03-1.60317E-04-6.20837E-15
 -1      3832 2.93045E-03-1.21617E-04-5.45770E-15
 -1      3833 3.29473E-03-1.60657E-04-6.73306E-15
 -1      3834 3.43951E-03-1.60824E-04-7.27696E-15
 -1      3835 3.22078E-03-1.22445E-04-6.46815E-15
 -1      3836 3.58416E-03-1.60870E-04-7.83962E-15
 -1      3837 3.72868E-03-1.60802E-04-8.42023E-15
 -1      3838 3.51062E-03-1.22709E-04-7.55441E-15
 -1      3839 3.87306E-03-1.60659E-04-9.01957E-15
 -1      3840 4.01732E-03-1.60445E-04-9.63815E-15
 -1      3841 3.79991E-03-1.22603E-04-8.71480E-15
 -1      3842 4.16145E-03-1.60188E-04-1.02751E-14
 -1      3843 4.30546E-03-1.59888E-04-1.09314E-14
 -1      3844 4.08864E-03-1.22266E-04-9.95008E-15
 -1      3845 4.44935E-03-1.59564E-04-1.16048E-14
 -1      3846 4.59314E-03-1.59216E-04-1.22967E-14
 -1      3847 4.37685E-03-1.21792E-04-1.12601E-14
 -1      3848 4.73682E-03-1.58855E-04-1.30075E-14
 -1      3849 4.88041E-03-1.58479E-04-1.37363E-14
 -1      3850 4.66458E-03-1.21240E-04-1.26439E-14
 -1      3851 5.02391E-03-1.58095E-04-1.44835E-14
 -1      3852 5.16732E-03-1.57698E-04-1.52470E-14
 -1      3853 4.95188E-03-1.20643E-04-1.41001E-14
 -1      3854 5.31065E-03-1.57293E-04-1.60274E-14
 -1      3855 5.45389E-03-1.56874E-04-1.68246E-14
 -1      3856 5.23880E-03-1.20013E-04-1.56269E-14
 -1      3857 5.59706E-03-1.56441E-04-1.76376E-14
 -1      3858 5.74015E-03-1.55989E-04-1.84658E-14
 -1      3859 5.52536E-03-1.19346E-04-1.72204E-14
 -1      3860 5.88316E-03-1.55515E-04-1.93096E-14
 -1      3861 6.02609E-03-1.55013E-04-2.01680E-14
 -1      3862 5.81157E-03-1.18627E-04-1.88755E-14
 -1      3863 6.16893E-03-1.54479E-04-2.10411E-14
 -1      3864 6.31169E-03-1.53905E-04-2.19283E-14
 -1      3865 6.09743E-03-1.17830E-04-2.05914E-14
 -1      3866 6.45434E-03-1.53287E-04-2.28301E-14
 -1      3867 6.59688E-03-1.52615E-04-2.37451E-14
 -1      3868 6.38290E-03-1.16920E-04-2.23654E-14
 -1      3869 6.73929E-03-1.51887E-04-2.46722E-14
 -1      3870 6.88158E-03-1.51090E-04-2.56129E-14
 -1      3871 6.66790E-03-1.15856E-04-2.41934E-14
 -1      3872 7.02370E-03-1.50221E-04-2.65667E-14
 -1      3873 7.16566E-03-1.49267E-04-2.75322E-14
 -1      3874 6.95233E-03-1.14595E-04-2.60724E-14
 -1      3875 7.30742E-03-1.48229E-04-2.85110E-14
 -1      3876 7.44897E-03-1.47090E-04-2.95013E-14
 -1      3877 7.23605E-03-1.13085E-04-2.80024E-14
 -1      3878 7.59026E-03-1.45853E-04-3.05038E-14
 -1      3879 7.73128E-03-1.44500E-04-3.15169E-14
 -1      3880 7.51886E-03-1.11279E-04-2.99803E-14
 -1      3881 7.87199E-03-1.43040E-04-3.25423E-14
 -1      3882 8.01236E-03-1.41451E-04-3.35787E-14
 -1      3883 7.80052E-03-1.09127E-04-3.20037E-14
 -1      3884 8.15235E-03-1.39751E-04-3.46268E-14
 -1      3885 8.29192E-03-1.37913E-04-3.56852E-14
 -1      3886 8.08074E-03-1.06586E-04-3.40738E-14
 -1      3887 8.43101E-03-1.35967E-04-3.67531E-14
 -1      3888 8.56962E-03-1.33882E-04-3.78311E-14
 -1      3889 8.35919E-03-1.03622E-04-3.61885E-14
 -1      3890 8.70766E-03-1.31699E-04-3.89167E-14
 -1      3891 8.84512E-03-1.29385E-04-4.00115E-14
 -1      3892 8.63550E-03-1.00215E-04-3.83397E-14
 -1      3893 8.98193E-03-1.26997E-04-4.11134E-14
 -1      3894 9.11808E-03-1.24494E-04-4.22225E-14
 -1      3895 8.90924E-03-9.63625E-05-4.05244E-14
 -1      3896 9.25349E-03-1.21952E-04-4.33400E-14
 -1      3897 9.38819E-03-1.19324E-04-4.44634E-14
 -1      3898 9.18000E-03-9.20794E-05-4.27412E-14
 -1      3899 9.52208E-03-1.16702E-04-4.55938E-14
 -1      3900 9.65523E-03-1.14034E-04-4.67339E-14
 -1      3901 9.44736E-03-8.73952E-05-4.49879E-14
 -1      3902 9.78754E-03-1.11424E-04-4.78808E-14
 -1      3903 9.91916E-03-1.08818E-04-4.90322E-14
 -1      3904 9.71096E-03-8.23414E-05-4.72647E-14
 -1      3905 1.00500E-02-1.06325E-04-5.01884E-14
 -1      3906 1.01802E-02-1.03904E-04-5.13492E-14
 -1      3907 9.97048E-03-7.69296E-05-4.95671E-14
 -1      3908 1.03098E-02-1.01671E-04-5.25157E-14
 -1      3909 1.04391E-02-9.96037E-05-5.36870E-14
 -1      3910 1.02257E-02-7.11413E-05-5.18890E-14
 -1      3911 1.05680E-02-9.78178E-05-5.48614E-14
 -1      3912 1.06973E-02-9.64135E-05-5.60370E-14
 -1      3913 1.04768E-02-6.49206E-05-5.42278E-14
 -1      3914 4.82224E-03 1.96430E-04-1.32484E-14
 -1      3915 4.67869E-03 1.96799E-04-1.25312E-14
 -1      3916 5.10910E-03 1.95655E-04-1.47372E-14
 -1      3917 4.96571E-03 1.96050E-04-1.39837E-14
 -1      3918 4.89355E-03 1.58594E-04-1.36483E-14
 -1      3919 4.53504E-03 1.97150E-04-1.18312E-14
 -1      3920 4.39130E-03 1.97483E-04-1.11494E-14
 -1      3921 4.60628E-03 1.59188E-04-1.22120E-14
 -1      3922 5.39566E-03 1.94831E-04-1.62940E-14
 -1      3923 5.25241E-03 1.95251E-04-1.55073E-14
 -1      3924 5.18045E-03 1.57958E-04-1.51541E-14
 -1      3925 5.68193E-03 1.93940E-04-1.79146E-14
 -1      3926 5.53883E-03 1.94396E-04-1.70968E-14
 -1      3927 5.46702E-03 1.57278E-04-1.67283E-14
 -1      3928 5.96792E-03 1.92950E-04-1.95962E-14
 -1      3929 5.82496E-03 1.93461E-04-1.87482E-14
 -1      3930 5.75327E-03 1.56538E-04-1.83652E-14
 -1      3931 6.25361E-03 1.91817E-04-2.13341E-14
 -1      3932 6.11081E-03 1.92405E-04-2.04577E-14
 -1      3933 6.03920E-03 1.55707E-04-2.00615E-14
 -1      3934 6.53895E-03 1.90485E-04-2.31282E-14
 -1      3935 6.39633E-03 1.91180E-04-2.22249E-14
 -1      3936 6.32478E-03 1.54749E-04-2.18154E-14
 -1      3937 6.82387E-03 1.88895E-04-2.49734E-14
 -1      3938 6.68147E-03 1.89727E-04-2.40448E-14
 -1      3939 6.60995E-03 1.53616E-04-2.36240E-14
 -1      3940 7.10826E-03 1.86986E-04-2.68679E-14
 -1      3941 6.96614E-03 1.87985E-04-2.59148E-14
 -1      3942 6.89461E-03 1.52260E-04-2.54826E-14
 -1      3943 7.39195E-03 1.84700E-04-2.88100E-14
 -1      3944 7.25020E-03 1.85896E-04-2.78330E-14
 -1      3945 7.17863E-03 1.50634E-04-2.73895E-14
 -1      3946 7.67476E-03 1.81995E-04-3.07967E-14
 -1      3947 7.53348E-03 1.83406E-04-2.97977E-14
 -1      3948 7.46182E-03 1.48694E-04-2.93431E-14
 -1      3949 7.95642E-03 1.78850E-04-3.28318E-14
 -1      3950 7.81575E-03 1.80482E-04-3.18099E-14
 -1      3951 7.74396E-03 1.46414E-04-3.13443E-14
 -1      3952 8.23663E-03 1.75285E-04-3.49030E-14
 -1      3953 8.09673E-03 1.77124E-04-3.38620E-14
 -1      3954 8.02475E-03 1.43790E-04-3.33889E-14
 -1      3955 8.51501E-03 1.71377E-04-3.70148E-14
 -1      3956 8.37607E-03 1.73376E-04-3.59535E-14
 -1      3957 8.30383E-03 1.40858E-04-3.54730E-14
 -1      3958 8.79112E-03 1.67287E-04-3.91625E-14
 -1      3959 8.65337E-03 1.69354E-04-3.80857E-14
 -1      3960 8.58078E-03 1.37709E-04-3.75961E-14
 -1      3961 9.06443E-03 1.63275E-04-4.13432E-14
 -1      3962 8.92815E-03 1.65267E-04-4.02480E-14
 -1      3963 8.85508E-03 1.34511E-04-3.97559E-14
 -1      3964 9.33436E-03 1.59725E-04-4.35563E-14
 -1      3965 9.19984E-03 1.61435E-04-4.24471E-14
 -1      3966 9.12616E-03 1.31520E-04-4.19472E-14
 -1      3967 9.60028E-03 1.57147E-04-4.58005E-14
 -1      3968 9.46785E-03 1.58307E-04-4.46738E-14
 -1      3969 9.39333E-03 1.29099E-04-4.41697E-14
 -1      3970 9.86148E-03 1.56154E-04-4.80732E-14
 -1      3971 9.73149E-03 1.56450E-04-4.69339E-14
 -1      3972 9.65584E-03 1.27705E-04-4.64241E-14
 -1      3973 1.01172E-02 1.57394E-04-5.03726E-14
 -1      3974 9.99004E-03 1.56506E-04-4.92205E-14
 -1      3975 9.91277E-03 1.27855E-04-4.87078E-14
 -1      3976 1.03668E-02 1.61454E-04-5.26889E-14
 -1      3977 1.02427E-02 1.59107E-04-5.15282E-14
 -1      3978 1.01630E-02 1.30033E-04-5.10124E-14
 -1      3979 1.06094E-02 1.68761E-04-5.50198E-14
 -1      3980 1.04889E-02 1.64778E-04-5.38531E-14
 -1      3981 1.04052E-02 1.34561E-04-5.33343E-14
 -1      3982 1.08204E-02 1.75185E-04-5.71658E-14
 -1      3983 1.07037E-02 1.69914E-04-5.59924E-14
 -1      3984 1.06149E-02 1.38193E-04-5.54720E-14
 -1      3985 1.07904E-02 1.39715E-04-5.74192E-14
 -1      3986 3.38201E-03 1.98263E-04-6.90706E-15
 -1      3987 3.23734E-03 1.97919E-04-6.37665E-15
 -1      3988 1.93283E-03 1.78240E-04-2.50898E-15
 -1      3989 1.78843E-03 1.72831E-04-2.18556E-15
 -1      3990 3.67098E-03 1.98483E-04-8.02467E-15
 -1      3991 3.52656E-03 1.98446E-04-7.45646E-15
 -1      3992 3.45266E-03 1.60278E-04-7.20893E-15
 -1      3993 3.09255E-03 1.97356E-04-5.86571E-15
 -1      3994 2.94765E-03 1.96548E-04-5.37379E-15
 -1      3995 3.16296E-03 1.59677E-04-6.14705E-15
 -1      3996 1.08384E-02-9.54885E-05-5.73220E-14
 -1      3997 4.24746E-03 1.97784E-04-1.04867E-14
 -1      3998 4.10352E-03 1.98053E-04-9.84279E-15
 -1      3999 4.31860E-03 1.59719E-04-1.08486E-14
 -1      4000 3.95946E-03 1.98266E-04-9.21772E-15
 -1      4001 3.81528E-03 1.98421E-04-8.61151E-15
 -1      4002 4.03047E-03 1.60141E-04-9.55979E-15
 -1      4003 1.08148E-02 8.80301E-05-5.84385E-14
 -1      4004 1.07936E-02 1.13686E-04-5.78654E-14
 -1      4005 1.07122E-02 1.12883E-04-5.68902E-14
 -1      4006 1.07577E-02 6.63712E-05-5.77745E-14
 -1      4007 2.22243E-03 1.86505E-04-3.22171E-15
 -1      4008 2.07752E-03 1.82771E-04-2.85428E-15
 -1      4009 2.00196E-03 1.45560E-04-2.69831E-15
 -1      4010 1.84433E-03-1.42059E-04-2.38825E-15
 -1      4011 1.98889E-03-1.46191E-04-2.72833E-15
 -1      4012 2.05882E-03-1.12761E-04-2.90821E-15
 -1      4013 3.74183E-03 1.60370E-04-8.34651E-15
 -1      4014 1.08263E-02-5.35254E-07-5.80942E-14
 -1      4015 1.07684E-02 1.52895E-05-5.76393E-14
 -1      4016 1.08000E-02-3.33199E-05-5.75157E-14
 -1      4017 2.87282E-03 1.58305E-04-5.16181E-15
 -1      4018 2.80267E-03 1.95420E-04-4.90210E-15
 -1      4019 2.65762E-03 1.93933E-04-4.45083E-15
 -1      4020 2.36745E-03 1.89554E-04-3.61003E-15
 -1      4021 2.29192E-03 1.51743E-04-3.43489E-15
 -1      4022 2.51253E-03 1.91995E-04-4.01986E-15
 -1      4023 1.51952E-03 1.21936E-05-1.70720E-15
 -1      4024 1.43760E-03 8.30994E-06-1.55181E-15
 -1      4025 1.41477E-03-2.16705E-05-1.51376E-15
 -1      4026 1.42264E-03-4.70797E-05-1.52936E-15
 -1      4027 1.40095E-03-7.65295E-05-1.48747E-15
 -1      4028 1.52154E-03-9.81128E-05-1.71349E-15
 -1      4029 1.50438E-03-4.49775E-05-1.68410E-15
 -1      4030 1.66984E-03 1.00378E-04-1.97851E-15
 -1      4031 1.66793E-03 6.37190E-05-1.99107E-15
 -1      4032 1.07351E-02-5.78429E-05-5.66839E-14
 -1      4033 1.72190E-03-1.18755E-04-2.12219E-15
 -1      4034 1.70176E-03 1.28013E-04-2.02988E-15
 -1      4035 1.82515E-03 1.12901E-04-2.30752E-15
 -1      4036 1.70524E-03 1.65334E-04-2.01217E-15
 -1      4037 5.25188E-03 1.20312E-04-1.55728E-14
 -1      4038 5.10847E-03 1.20559E-04-1.48020E-14
 -1      4039 2.56554E-03-8.22409E-05-4.30228E-15
 -1      4040 2.71100E-03-8.29920E-05-4.74843E-15
 -1      4041 2.85644E-03-8.35626E-05-5.21356E-15
 -1      4042 3.00181E-03-8.39687E-05-5.69922E-15
 -1      4043 2.78283E-03-4.56771E-05-4.97206E-15
 -1      4044 3.14708E-03-8.42513E-05-6.20447E-15
 -1      4045 3.29223E-03-8.44178E-05-6.72783E-15
 -1      4046 3.07369E-03-4.61116E-05-5.94220E-15
 -1      4047 3.43726E-03-8.45033E-05-7.27021E-15
 -1      4048 3.58214E-03-8.45095E-05-7.83184E-15
 -1      4049 3.36412E-03-4.62778E-05-6.98846E-15
 -1      4050 3.72688E-03-8.44654E-05-8.41208E-15
 -1      4051 3.87147E-03-8.43691E-05-9.01022E-15
 -1      4052 3.65401E-03-4.62634E-05-8.11024E-15
 -1      4053 4.01592E-03-8.42437E-05-9.62769E-15
 -1      4054 4.16023E-03-8.40853E-05-1.02635E-14
 -1      4055 3.94331E-03-4.61328E-05-9.30667E-15
 -1      4056 4.30440E-03-8.39114E-05-1.09178E-14
 -1      4057 4.44844E-03-8.37173E-05-1.15910E-14
 -1      4058 4.23203E-03-4.59312E-05-1.05771E-14
 -1      4059 4.59237E-03-8.35159E-05-1.22819E-14
 -1      4060 4.73617E-03-8.33019E-05-1.29918E-14
 -1      4061 4.52020E-03-4.56885E-05-1.19224E-14
 -1      4062 4.87987E-03-8.30844E-05-1.37198E-14
 -1      4063 5.02346E-03-8.28581E-05-1.44655E-14
 -1      4064 4.80788E-03-4.54225E-05-1.33407E-14
 -1      4065 5.16695E-03-8.26288E-05-1.52282E-14
 -1      4066 5.31034E-03-8.23913E-05-1.60075E-14
 -1      4067 5.09511E-03-4.51419E-05-1.48302E-14
 -1      4068 5.45365E-03-8.21490E-05-1.68032E-14
 -1      4069 5.59686E-03-8.18966E-05-1.76157E-14
 -1      4070 5.38194E-03-4.48481E-05-1.63891E-14
 -1      4071 5.73998E-03-8.16356E-05-1.84428E-14
 -1      4072 5.88300E-03-8.13606E-05-1.92851E-14
 -1      4073 5.66839E-03-4.45371E-05-1.80112E-14
 -1      4074 6.02594E-03-8.10718E-05-2.01429E-14
 -1      4075 6.16877E-03-8.07634E-05-2.10151E-14
 -1      4076 5.95445E-03-4.42000E-05-1.96954E-14
 -1      4077 6.31149E-03-8.04347E-05-2.19021E-14
 -1      4078 6.45409E-03-8.00793E-05-2.28029E-14
 -1      4079 6.24010E-03-4.38245E-05-2.14401E-14
 -1      4080 6.59657E-03-7.96962E-05-2.37158E-14
 -1      4081 6.73890E-03-7.92777E-05-2.46417E-14
 -1      4082 6.52528E-03-4.33943E-05-2.32393E-14
 -1      4083 6.88107E-03-7.88236E-05-2.55806E-14
 -1      4084 7.02306E-03-7.83243E-05-2.65321E-14
 -1      4085 6.80989E-03-4.28903E-05-2.50899E-14
 -1      4086 7.16485E-03-7.77808E-05-2.74952E-14
 -1      4087 7.30641E-03-7.71812E-05-2.84709E-14
 -1      4088 7.09379E-03-4.22895E-05-2.69908E-14
 -1      4089 7.44772E-03-7.65287E-05-2.94592E-14
 -1      4090 7.58873E-03-7.58083E-05-3.04579E-14
 -1      4091 7.37679E-03-4.15655E-05-2.89398E-14
 -1      4092 7.72943E-03-7.50264E-05-3.14680E-14
 -1      4093 7.86976E-03-7.41641E-05-3.24904E-14
 -1      4094 7.65865E-03-4.06879E-05-3.09343E-14
 -1      4095 8.00968E-03-7.32324E-05-3.35236E-14
 -1      4096 8.14916E-03-7.22070E-05-3.45684E-14
 -1      4097 7.93908E-03-3.96210E-05-3.29754E-14
 -1      4098 8.28813E-03-7.11053E-05-3.56242E-14
 -1      4099 8.42656E-03-6.98965E-05-3.66891E-14
 -1      4100 8.21770E-03-3.83228E-05-3.50623E-14
 -1      4101 8.56437E-03-6.86055E-05-3.77640E-14
 -1      4102 8.70152E-03-6.71933E-05-3.88470E-14
 -1      4103 8.49412E-03-3.67430E-05-3.71894E-14
 -1      4104 8.83794E-03-6.56939E-05-3.99381E-14
 -1      4105 8.97358E-03-6.40581E-05-4.10378E-14
 -1      4106 8.76784E-03-3.48192E-05-3.93542E-14
 -1      4107 9.10835E-03-6.23302E-05-4.21448E-14
 -1      4108 9.24223E-03-6.04478E-05-4.32600E-14
 -1      4109 9.03833E-03-3.24719E-05-4.15496E-14
 -1      4110 9.37509E-03-5.84661E-05-4.43836E-14
 -1      4111 9.50693E-03-5.63054E-05-4.55125E-14
 -1      4112 9.30500E-03-2.95968E-05-4.37779E-14
 -1      4113 9.63760E-03-5.40328E-05-4.66497E-14
 -1      4114 9.76712E-03-5.15440E-05-4.77958E-14
 -1      4115 9.56717E-03-2.60534E-05-4.60363E-14
 -1      4116 9.89529E-03-4.89206E-05-4.89458E-14
 -1      4117 1.00222E-02-4.60195E-05-5.01008E-14
 -1      4118 9.82409E-03-2.16494E-05-4.83229E-14
 -1      4119 1.01475E-02-4.29496E-05-5.12628E-14
 -1      4120 1.02714E-02-3.95120E-05-5.24266E-14
 -1      4121 1.00748E-02-1.61196E-05-5.06333E-14
 -1      4122 1.03935E-02-3.59346E-05-5.35942E-14
 -1      4123 1.05140E-02-3.17489E-05-5.47667E-14
 -1      4124 1.03178E-02-9.14923E-06-5.29615E-14
 -1      4125 4.96497E-03 1.20796E-04-1.40480E-14
 -1      4126 4.82138E-03 1.21028E-04-1.33126E-14
 -1      4127 5.03649E-03 8.30546E-05-1.44505E-14
 -1      4128 4.67768E-03 1.21248E-04-1.25938E-14
 -1      4129 4.53388E-03 1.21461E-04-1.18934E-14
 -1      4130 4.74922E-03 8.33526E-05-1.29773E-14
 -1      4131 5.82463E-03 1.19220E-04-1.88170E-14
 -1      4132 5.68157E-03 1.19514E-04-1.79825E-14
 -1      4133 6.11048E-03 1.18572E-04-2.05284E-14
 -1      4134 5.96760E-03 1.18908E-04-1.96662E-14
 -1      4135 5.89600E-03 8.20003E-05-1.92695E-14
 -1      4136 6.39593E-03 1.17817E-04-2.22972E-14
 -1      4137 6.25326E-03 1.18211E-04-2.14054E-14
 -1      4138 6.18175E-03 8.15565E-05-2.09965E-14
 -1      4139 6.68090E-03 1.16920E-04-2.41195E-14
 -1      4140 6.53848E-03 1.17390E-04-2.32021E-14
 -1      4141 6.46705E-03 8.10341E-05-2.27799E-14
 -1      4142 6.96529E-03 1.15844E-04-2.59916E-14
 -1      4143 6.82318E-03 1.16408E-04-2.50486E-14
 -1      4144 6.75183E-03 8.04096E-05-2.46151E-14
 -1      4145 7.24894E-03 1.14556E-04-2.79113E-14
 -1      4146 7.10722E-03 1.15231E-04-2.69449E-14
 -1      4147 7.03594E-03 7.96599E-05-2.65000E-14
 -1      4148 7.53163E-03 1.13028E-04-2.98770E-14
 -1      4149 7.39042E-03 1.13827E-04-2.88897E-14
 -1      4150 7.31922E-03 7.87659E-05-2.84345E-14
 -1      4151 7.81311E-03 1.11250E-04-3.18924E-14
 -1      4152 7.67254E-03 1.12176E-04-3.08786E-14
 -1      4153 7.60143E-03 7.77164E-05-3.04137E-14
 -1      4154 8.09305E-03 1.09234E-04-3.39480E-14
 -1      4155 7.95329E-03 1.10276E-04-3.29145E-14
 -1      4156 7.88228E-03 7.65152E-05-3.24388E-14
 -1      4157 8.37105E-03 1.07029E-04-3.60442E-14
 -1      4158 8.23232E-03 1.08159E-04-3.49914E-14
 -1      4159 8.16142E-03 7.51892E-05-3.45088E-14
 -1      4160 8.64664E-03 1.04736E-04-3.81812E-14
 -1      4161 8.50917E-03 1.05897E-04-3.71080E-14
 -1      4162 8.43841E-03 7.37988E-05-3.66188E-14
 -1      4163 8.91926E-03 1.02525E-04-4.03493E-14
 -1      4164 8.78335E-03 1.03623E-04-3.92607E-14
 -1      4165 8.71275E-03 7.24508E-05-3.87647E-14
 -1      4166 9.18826E-03 1.00644E-04-4.25510E-14
 -1      4167 9.05425E-03 1.01546E-04-4.14456E-14
 -1      4168 8.98385E-03 7.13105E-05-4.09446E-14
 -1      4169 9.45291E-03 9.94282E-05-4.47844E-14
 -1      4170 9.32117E-03 9.99574E-05-4.36647E-14
 -1      4171 9.25101E-03 7.06129E-05-4.31566E-14
 -1      4172 9.71230E-03 9.92869E-05-4.70496E-14
 -1      4173 9.58331E-03 9.92347E-05-4.59133E-14
 -1      4174 9.51342E-03 7.06653E-05-4.54013E-14
 -1      4175 9.96532E-03 1.00663E-04-4.93416E-14
 -1      4176 9.83966E-03 9.98153E-05-4.81924E-14
 -1      4177 9.77010E-03 7.18378E-05-4.76766E-14
 -1      4178 1.02105E-02 1.03926E-04-5.16535E-14
 -1      4179 1.00890E-02 1.02136E-04-5.04964E-14
 -1      4180 1.00197E-02 7.45288E-05-4.99760E-14
 -1      4181 1.04457E-02 1.09235E-04-5.39816E-14
 -1      4182 1.03294E-02 1.06440E-04-5.28158E-14
 -1      4183 1.02604E-02 7.90503E-05-5.22946E-14
 -1      4184 1.06265E-02 1.10942E-04-5.59211E-14
 -1      4185 1.05376E-02 1.10506E-04-5.49490E-14
 -1      4186 1.04692E-02 8.31137E-05-5.44276E-14
 -1      4187 1.06457E-02 8.64885E-05-5.63640E-14
 -1      4188 1.98459E-03-7.66682E-05-2.72966E-15
 -1      4189 2.12954E-03-7.85184E-05-3.09074E-15
 -1      4190 2.11456E-03 1.19227E-04-2.99424E-15
 -1      4191 1.96968E-03 1.16348E-04-2.63987E-15
 -1      4192 1.93786E-03 8.74893E-05-2.58052E-15
 -1      4193 1.12662E-02 3.20364E-04-5.95626E-14
 -1      4194 3.52375E-03 1.22180E-04-7.51256E-15
 -1      4195 3.37890E-03 1.22054E-04-6.96203E-15
 -1      4196 3.23392E-03 1.21810E-04-6.43015E-15
 -1      4197 3.08881E-03 1.21442E-04-5.91763E-15
 -1      4198 3.30535E-03 8.38013E-05-6.71613E-15
 -1      4199 5.53843E-03 1.19792E-04-1.71624E-14
 -1      4200 5.39520E-03 1.20058E-04-1.63592E-14
 -1      4201 5.60987E-03 8.23869E-05-1.75990E-14
 -1      4202 4.38996E-03 1.21657E-04-1.12118E-14
 -1      4203 4.24592E-03 1.21839E-04-1.05486E-14
 -1      4204 4.46150E-03 8.36235E-05-1.15762E-14
 -1      4205 1.06707E-02-3.82494E-05-5.62329E-14
 -1      4206 4.10176E-03 1.21991E-04-9.90379E-15
 -1      4207 3.95747E-03 1.22118E-04-9.27763E-15
 -1      4208 4.17330E-03 8.38497E-05-1.02488E-14
 -1      4209 2.27474E-03-8.00438E-05-3.47349E-15
 -1      4210 2.42010E-03-8.12629E-05-3.87749E-15
 -1      4211 2.20100E-03-4.35230E-05-3.27574E-15
 -1      4212 1.79112E-03 4.64020E-05-2.26250E-15
 -1      4213 1.66607E-03 2.66396E-05-1.99938E-15
 -1      4214 3.81303E-03 1.22196E-04-8.67054E-15
 -1      4215 3.66847E-03 1.22226E-04-8.08221E-15
 -1      4216 3.88456E-03 8.39968E-05-8.99626E-15
 -1      4217 5.32337E-03 8.27343E-05-1.59915E-14
 -1      4218 1.05859E-02-9.59960E-06-5.55935E-14
 -1      4219 2.49179E-03-4.48525E-05-4.08258E-15
 -1      4220 1.64266E-03-5.96047E-06-1.95776E-15
 -1      4221 2.94359E-03 1.20900E-04-5.42428E-15
 -1      4222 2.79829E-03 1.20174E-04-4.95067E-15
 -1      4223 3.01493E-03 8.32556E-05-5.68957E-15
 -1      4224 1.84001E-03-7.44242E-05-2.39018E-15
 -1      4225 1.91111E-03-4.14607E-05-2.55431E-15
 -1      4226 2.25966E-03 1.21602E-04-3.36965E-15
 -1      4227 2.22781E-03 9.16957E-05-3.30308E-15
 -1      4228 2.40493E-03 1.23520E-04-3.76633E-15
 -1      4229 2.58237E-03 1.55809E-04-4.25698E-15
 -1      4230 1.93554E-03 4.79103E-05-2.59219E-15
 -1      4231 3.59524E-03 8.40086E-05-7.81872E-15
 -1      4232 1.06507E-02 1.63308E-05-5.63984E-14
 -1      4233 1.06923E-02 4.32091E-05-5.69721E-14
 -1      4234 1.06527E-02 6.63335E-05-5.65340E-14
 -1      4235 1.05081E-02 1.96863E-05-5.49319E-14
 -1      4236 1.71271E-03-9.03929E-05-2.10712E-15
 -1      4237 1.63938E-03-5.65912E-05-1.95469E-15
 -1      4238 3.04364E-03 1.86227E-05-5.81986E-15
 -1      4239 3.18897E-03 1.87224E-05-6.32869E-15
 -1      4240 3.33417E-03 1.87834E-05-6.85647E-15
 -1      4241 3.47925E-03 1.88439E-05-7.40303E-15
 -1      4242 3.62417E-03 1.88750E-05-7.96856E-15
 -1      4243 3.76894E-03 1.89094E-05-8.55300E-15
 -1      4244 3.91357E-03 1.89220E-05-9.15549E-15
 -1      4245 4.05805E-03 1.89397E-05-9.77748E-15
 -1      4246 4.20238E-03 1.89416E-05-1.04180E-14
 -1      4247 4.34657E-03 1.89490E-05-1.10765E-14
 -1      4248 4.49064E-03 1.89451E-05-1.17541E-14
 -1      4249 4.63457E-03 1.89464E-05-1.24488E-14
 -1      4250 4.77839E-03 1.89393E-05-1.31625E-14
 -1      4251 4.92209E-03 1.89367E-05-1.38954E-14
 -1      4252 5.06569E-03 1.89278E-05-1.46450E-14
 -1      4253 5.20918E-03 1.89222E-05-1.54116E-14
 -1      4254 5.35257E-03 1.89114E-05-1.61942E-14
 -1      4255 5.49587E-03 1.89026E-05-1.69930E-14
 -1      4256 5.63907E-03 1.88889E-05-1.78093E-14
 -1      4257 5.78217E-03 1.88762E-05-1.86401E-14
 -1      4258 5.92517E-03 1.88581E-05-1.94858E-14
 -1      4259 6.06807E-03 1.88402E-05-2.03463E-14
 -1      4260 6.21087E-03 1.88160E-05-2.12207E-14
 -1      4261 6.35354E-03 1.87915E-05-2.21107E-14
 -1      4262 6.49609E-03 1.87594E-05-2.30140E-14
 -1      4263 6.63849E-03 1.87273E-05-2.39288E-14
 -1      4264 6.78074E-03 1.86861E-05-2.48563E-14
 -1      4265 6.92281E-03 1.86465E-05-2.57968E-14
 -1      4266 7.06469E-03 1.85962E-05-2.67492E-14
 -1      4267 7.20634E-03 1.85508E-05-2.77139E-14
 -1      4268 7.34774E-03 1.84936E-05-2.86909E-14
 -1      4269 7.48886E-03 1.84473E-05-2.96786E-14
 -1      4270 7.62966E-03 1.83892E-05-3.06774E-14
 -1      4271 7.77010E-03 1.83516E-05-3.16880E-14
 -1      4272 7.91013E-03 1.83043E-05-3.27097E-14
 -1      4273 8.04972E-03 1.82923E-05-3.37435E-14
 -1      4274 8.18880E-03 1.82759E-05-3.47872E-14
 -1      4275 8.32732E-03 1.83169E-05-3.58417E-14
 -1      4276 8.46522E-03 1.83634E-05-3.69065E-14
 -1      4277 8.60243E-03 1.84989E-05-3.79787E-14
 -1      4278 8.73887E-03 1.86562E-05-3.90608E-14
 -1      4279 8.87449E-03 1.89467E-05-4.01506E-14
 -1      4280 9.00918E-03 1.92832E-05-4.12485E-14
 -1      4281 9.14288E-03 1.98128E-05-4.23548E-14
 -1      4282 9.27546E-03 2.04212E-05-4.34698E-14
 -1      4283 9.40686E-03 2.13022E-05-4.45923E-14
 -1      4284 9.53692E-03 2.23019E-05-4.57222E-14
 -1      4285 9.66557E-03 2.36778E-05-4.68588E-14
 -1      4286 9.79258E-03 2.52136E-05-4.80021E-14
 -1      4287 9.91791E-03 2.72612E-05-4.91518E-14
 -1      4288 1.00412E-02 2.94975E-05-5.03075E-14
 -1      4289 1.01624E-02 3.24332E-05-5.14678E-14
 -1      4290 1.02810E-02 3.55210E-05-5.26306E-14
 -1      4291 1.03969E-02 3.96528E-05-5.37980E-14
 -1      4292 2.89821E-03 1.85157E-05-5.33028E-15
 -1      4293 1.63129E-03-2.91518E-05-1.93702E-15
 -1      4294 2.67428E-03 1.22754E-04-4.56043E-15
 -1      4295 2.52891E-03 1.21516E-04-4.12425E-15
 -1      4296 2.49717E-03 9.09509E-05-4.05101E-15
 -1      4297 2.74544E-03 8.57161E-05-4.80564E-15
 -1      4298 2.75270E-03 1.83573E-05-4.86063E-15
 -1      4299 1.77806E-03-1.60792E-05-2.24895E-15
 -1      4300 2.12797E-03-7.68822E-06-3.08090E-15
 -1      4301 2.27321E-03-7.81552E-06-3.46249E-15
 -1      4302 2.48287E-03 2.13209E-05-4.04134E-15
 -1      4303 2.62840E-03 2.15950E-05-4.47372E-15
 -1      4304 1.92244E-03-1.65791E-05-2.57795E-15
 -1      4305 1.99483E-03 1.78071E-05-2.74338E-15
 -1      4306 1.04765E-02 6.24323E-05-5.45974E-14
 -1      4307 2.28669E-03 6.03524E-05-3.47595E-15
 -1      4308 2.14145E-03 5.91910E-05-3.09423E-15
 -1      4309 2.41078E-03 5.78177E-05-3.82042E-15
 -1      4310 1.05664E-02 6.41761E-05-5.55653E-14
 -3
    1PSTEP                         2           1           1          
  100CL  101 1.000000000        4310                     0    1           1
 -4  STRESS      6    1
 -5  SXX         1    4    1    1
 -5  SYY         1    4    2    2
 -5  SZZ         1    4    3    3
 -5  SXY         1    4    1    2
 -5  SYZ         1    4    2    3
 -5  SZX         1    4    3    1
 -1         1 6.11571E+01 1.17998E+01 3.70222E+00-2.56858E+01 3.24712E-13-5.43343E-13
 -1         2-1.45967E+00-3.87898E+01-7.17339E+00-2.83407E-01 1.82274E-13 2.30163E-13
 -1         3 2.02580E+01 2.76319E-01 2.69160E-01 2.61886E-01-1.49584E-13-1.31668E-13
 -1         4 2.01607E+01 1.64963E-01 7.47978E-02-1.60792E-01 1.15965E-13-5.09539E-14
 -1         5 3.27686E+01 6.14286E+00 2.74228E+00 6.22416E+00-2.90670E-14 2.09377E-12
 -1         6 3.57523E+01 1.22633E+01 5.12516E+00-8.64638E+00-1.34781E-13 2.06585E-12
 -1         7 2.08202E+01 6.10012E+00-1.28515E-01-4.72492E+00-1.91236E-14 3.45661E-13
 -1         8 1.96730E+01 5.93534E+00 5.10178E-02-3.27392E+00-2.55768E-14-1.74400E-13
 -1         9 1.91383E+01 5.77219E+00 4.91942E-02-2.52557E+00-1.82025E-14-4.56365E-13
 -1        10 1.88951E+01 5.69214E+00 5.09587E-02-1.95024E+00-1.38431E-14-5.92514E-13
 -1        11 1.87733E+01 5.65113E+00 5.02776E-02-1.45537E+00-8.00228E-15-6.56208E-13
 -1        12 1.87095E+01 5.62942E+00 4.88123E-02-1.01453E+00-4.99188E-15-6.72045E-13
 -1        13 1.86756E+01 5.61786E+00 4.73933E-02-5.94933E-01-1.80455E-15-6.74414E-13
 -1        14 1.86613E+01 5.61298E+00 4.66588E-02-1.91058E-01-3.83022E-16-6.66763E-13
 -1        15 1.86618E+01 5.61313E+00 4.67003E-02 2.08064E-01 6.28615E-15-6.58109E-13
 -1        16 1.86771E+01 5.61835E+00 4.75252E-02 6.12772E-01 4.92271E-15-6.49741E-13
 -1        17 1.87122E+01 5.63015E+00 4.90477E-02 1.03431E+00 7.90752E-15-6.29360E-13
 -1        18 1.87775E+01 5.65230E+00 5.08082E-02 1.47821E+00 1.47074E-14-5.82023E-13
 -1        19 1.89012E+01 5.69383E+00 5.15347E-02 1.97925E+00 2.07568E-14-4.93532E-13
 -1        20 1.91432E+01 5.77471E+00 4.88099E-02 2.56286E+00 2.18731E-14-3.23569E-13
 -1        21 1.96686E+01 5.94993E+00 4.59813E-02 3.30798E+00 3.04270E-14 3.17021E-16
 -1        22 2.12030E+01 6.38182E+00 1.39771E-01 4.52252E+00 8.56260E-15 6.39939E-13
 -1        23 2.30312E+01-1.37931E+00-9.38351E-01-7.11006E-01-8.70866E-14 1.60003E-12
 -1        24 1.93694E+01-9.94852E-02-3.09812E-01 6.32370E-02-2.74997E-14 1.19912E-12
 -1        25 1.86818E+01-5.63258E-02-6.88038E-02 6.07250E-02-1.21047E-14 7.56726E-13
 -1        26 1.84801E+01-2.20934E-02-6.49995E-03 3.30040E-02-7.74652E-15 4.60404E-13
 -1        27 1.84923E+01-1.18023E-02 1.58664E-03 2.26327E-02-3.73150E-15 2.84221E-13
 -1        28 1.86074E+01-6.23856E-03 1.78235E-03 1.63312E-02-8.71525E-15 1.71210E-13
 -1        29 1.87682E+01-3.08110E-03 1.72138E-03 1.21913E-02-1.04736E-14 4.33655E-14
 -1        30 1.89434E+01-1.22203E-03 1.90784E-03 9.24541E-03 1.19157E-14-6.43088E-14
 -1        31 1.91153E+01-1.20622E-04 2.07519E-03 7.03265E-03-1.11789E-14-1.97176E-13
 -1        32 1.92740E+01 5.13118E-04 2.11441E-03 5.32108E-03-1.29346E-14-3.41149E-13
 -1        33 1.94145E+01 8.48863E-04 2.03347E-03 3.98019E-03 2.24811E-14-3.67615E-13
 -1        34 1.95349E+01 9.92585E-04 1.87099E-03 2.92653E-03-1.54842E-14-3.31136E-13
 -1        35 1.96354E+01 1.01355E-03 1.66318E-03 2.10057E-03 3.07554E-14-3.03439E-13
 -1        36 1.97173E+01 9.57968E-04 1.43667E-03 1.45632E-03-1.94406E-14-2.40822E-13
 -1        37 1.97824E+01 8.56475E-04 1.20883E-03 9.56608E-04-1.96811E-14-3.08510E-13
 -1        38 1.98332E+01 7.28662E-04 9.89463E-04 5.70869E-04-3.75390E-14-4.98843E-13
 -1        39 1.98720E+01 5.85982E-04 7.82361E-04 2.74061E-04 1.17226E-14-6.20636E-13
 -1        40 1.99013E+01 4.33781E-04 5.86586E-04 4.61810E-05-8.32748E-14-7.20091E-13
 -1        41 1.99234E+01 2.72752E-04 3.97413E-04-1.27951E-04 2.68103E-14-8.90681E-13
 -1        42 1.99409E+01 1.00019E-04 2.07025E-04-2.58707E-04-1.42876E-14-7.68767E-13
 -1        43 1.99562E+01-9.00274E-05 4.99199E-06-3.51469E-04-4.57098E-14-6.53049E-13
 -1        44 1.99722E+01-3.05004E-04-2.21401E-04-4.06228E-04 3.26865E-14-5.68914E-13
 -1        45 1.99918E+01-5.53815E-04-4.86855E-04-4.16909E-04-3.61031E-14-5.05844E-13
 -1        46 2.00187E+01-8.45763E-04-8.07669E-04-3.70382E-04 4.01642E-14-5.50201E-13
 -1        47 2.00571E+01-1.18929E-03-1.20102E-03-2.45134E-04 3.53769E-15-2.56841E-13
 -1        48 2.01123E+01-1.59004E-03-1.68361E-03-9.61832E-06-3.03167E-14-5.23613E-13
 -1        49 2.01902E+01-2.04790E-03-2.26913E-03 3.79601E-04 1.01766E-14-7.08529E-13
 -1        50 2.02982E+01-2.55224E-03-2.96363E-03 9.79579E-04-2.91279E-14-7.56686E-13
 -1        51 2.04446E+01-3.07481E-03-3.75738E-03 1.86183E-03 1.76737E-14-7.28434E-13
 -1        52 2.06384E+01-3.55897E-03-4.61078E-03 3.11066E-03 4.04036E-14-2.81007E-13
 -1        53 2.08888E+01-3.90428E-03-5.43065E-03 4.81559E-03-8.37366E-14-6.00676E-13
 -1        54 2.12037E+01-3.94587E-03-6.03180E-03 7.05166E-03 6.82031E-14-7.36731E-13
 -1        55 2.15870E+01-3.43016E-03-6.07873E-03 9.83610E-03-3.85156E-14-6.41927E-13
 -1        56 2.20350E+01-1.99441E-03-5.00748E-03 1.30430E-02-5.16875E-14-8.37332E-13
 -1        57 2.25295E+01 8.29972E-04-1.94733E-03 1.62508E-02 2.44974E-15-9.35158E-13
 -1        58 2.30291E+01 5.54795E-03 4.28687E-03 1.85006E-02 6.44550E-14-7.44053E-13
 -1        59 2.34578E+01 1.24921E-02 1.49641E-02 1.79867E-02 3.01946E-14-5.63685E-13
 -1        60 2.36940E+01 2.13920E-02 3.06952E-02 1.18288E-02 5.45187E-14-3.19026E-13
 -1        61 2.35693E+01 3.07138E-02 4.99001E-02-3.64630E-03 6.30763E-14 3.86110E-14
 -1        62 2.28889E+01 3.70278E-02 6.67296E-02-3.13566E-02-1.68403E-13-3.70310E-13
 -1        63 2.14948E+01 3.51650E-02 7.00866E-02-7.00404E-02 3.45566E-14-9.34010E-13
 -1        64 1.93767E+01 2.02164E-02 4.67321E-02-1.09796E-01-6.06234E-14-1.06939E-12
 -1        65 1.67980E+01-8.43263E-03-9.21973E-03-1.30665E-01-3.88446E-14-4.42660E-13
 -1        66 1.43434E+01-4.33793E-02-8.49574E-02-1.10471E-01-6.30737E-14-3.65499E-13
 -1        67 1.27803E+01-6.99900E-02-1.48043E-01-4.11377E-02 1.01624E-14-2.57386E-13
 -1        68 1.27323E+01-7.31512E-02-1.62933E-01 6.03849E-02 7.13548E-14 5.73146E-13
 -1        69 1.43357E+01-4.50636E-02-1.07479E-01 1.58633E-01 1.00042E-13 5.04354E-13
 -1        70 1.70243E+01-3.42712E-04 1.27355E-02 1.96085E-01-4.82763E-15 1.01049E-12
 -1        71 1.95319E+01-2.00952E-02 1.30332E-01 1.28905E-01-9.03973E-14 9.05560E-13
 -1        72 2.10437E+01-4.04900E-01-9.80439E-01-3.11671E-01 3.66929E-14 1.88657E-12
 -1        73 1.93339E+01-6.58838E-02-2.91118E-01-5.38450E-02 1.17324E-14 1.42512E-12
 -1        74 1.86913E+01-2.05085E-02-6.42686E-02-2.03511E-02 7.31349E-15 1.08187E-12
 -1        75 1.84892E+01-9.88222E-03-9.31606E-03-1.54521E-02-5.39271E-15 8.30648E-13
 -1        76 1.85013E+01-5.16908E-03 6.70754E-04-1.23870E-02 2.90680E-15 6.31007E-13
 -1        77 1.86156E+01-2.61667E-03 1.73358E-03-1.01215E-02-1.40377E-15 4.35449E-13
 -1        78 1.87754E+01-1.14451E-03 1.87031E-03-8.38942E-03 2.69043E-14 3.56446E-13
 -1        79 1.89496E+01-2.77465E-04 2.06559E-03-6.96518E-03 4.25965E-15 2.90276E-13
 -1        80 1.91206E+01 2.26100E-04 2.21011E-03-5.74345E-03 4.29596E-15 2.10149E-13
 -1        81 1.92784E+01 5.01559E-04 2.22663E-03-4.68276E-03 1.96437E-14 3.41361E-14
 -1        82 1.94181E+01 6.31206E-04 2.12616E-03-3.76451E-03 2.33817E-14-1.32925E-13
 -1        83 1.95378E+01 6.67616E-04 1.94678E-03-2.97683E-03-1.49041E-14-7.49353E-14
 -1        84 1.96377E+01 6.45483E-04 1.72433E-03-2.30842E-03 2.34985E-14-1.26859E-13
 -1        85 1.97191E+01 5.87845E-04 1.48523E-03-1.74681E-03-2.56119E-14-1.77235E-13
 -1        86 1.97838E+01 5.09649E-04 1.24672E-03-1.27827E-03 2.55590E-14-3.34521E-13
 -1        87 1.98341E+01 4.19966E-04 1.01841E-03-8.88251E-04-1.94684E-15-3.66485E-13
 -1        88 1.98726E+01 3.23468E-04 8.03905E-04-5.62079E-04-2.03294E-14-3.05294E-13
 -1        89 1.99015E+01 2.21459E-04 6.01991E-04-2.85549E-04-3.89010E-16-2.53644E-13
 -1        90 1.99232E+01 1.12600E-04 4.07634E-04-4.54804E-05 2.91313E-14-5.02618E-13
 -1        91 1.99403E+01-6.56403E-06 2.12610E-04 1.69819E-04-6.30672E-14-3.89166E-13
 -1        92 1.99552E+01-1.41245E-04 5.89776E-06 3.70115E-04 3.26527E-14-2.10376E-13
 -1        93 1.99706E+01-2.98129E-04-2.26159E-04 5.62737E-04-5.81361E-14-1.19926E-13
 -1        94 1.99897E+01-4.85136E-04-4.99867E-04 7.51906E-04 6.29965E-14-3.61745E-13
 -1        95 2.00159E+01-7.11115E-04-8.34306E-04 9.37754E-04 1.97915E-14-7.98520E-13
 -1        96 2.00538E+01-9.85368E-04-1.25147E-03 1.11484E-03 2.61081E-14-6.29866E-13
 -1        97 2.01087E+01-1.31680E-03-1.77626E-03 1.26987E-03-4.94600E-14-2.83261E-13
 -1        98 2.01873E+01-1.71231E-03-2.43603E-03 1.37825E-03 1.85246E-14-5.36794E-14
 -1        99 2.02978E+01-2.17391E-03-3.25897E-03 1.39864E-03-5.58262E-14-5.04441E-15
 -1       100 2.04501E+01-2.69343E-03-4.27009E-03 1.26485E-03-8.55869E-15 2.37764E-13
 -1       101 2.06562E+01-3.24321E-03-5.48200E-03 8.73439E-04 1.42354E-14 1.06368E-13
 -1       102 2.09297E+01-3.76021E-03-6.87524E-03 6.61069E-05-3.67051E-15-1.43975E-13
 -1       103 2.12856E+01-4.12001E-03-8.35809E-03-1.39344E-03-1.27456E-14 3.80893E-14
 -1       104 2.17387E+01-4.09767E-03-9.68904E-03-3.84361E-03-1.97706E-14 2.03061E-13
 -1       105 2.22999E+01-3.31590E-03-1.03365E-02-7.73331E-03-7.80848E-15 2.95701E-14
 -1       106 2.29702E+01-1.19553E-03-9.25163E-03-1.35694E-02-4.74949E-14-4.21599E-14
 -1       107 2.37291E+01 3.04139E-03-4.57137E-03-2.17010E-02 8.03009E-15-7.87339E-14
 -1       108 2.45157E+01 1.01917E-02 6.57287E-03-3.17518E-02 8.99521E-14-3.80947E-13
 -1       109 2.52021E+01 2.04898E-02 2.75837E-02-4.14571E-02-1.80281E-15-3.55410E-13
 -1       110 2.55653E+01 3.24358E-02 6.01589E-02-4.49237E-02-5.71507E-14-1.23470E-13
 -1       111 2.52780E+01 4.12579E-02 9.92108E-02-3.14398E-02 4.68002E-14-2.23155E-14
 -1       112 2.39628E+01 3.87234E-02 1.26351E-01 1.18206E-02 2.73635E-14-1.10720E-13
 -1       113 2.13689E+01 1.74382E-02 1.10211E-01 8.83863E-02 4.04529E-14-9.39249E-14
 -1       114 1.76663E+01-2.04776E-02 2.54113E-02 1.75059E-01-1.46136E-13 4.04593E-13
 -1       115 1.36873E+01-5.80268E-02-1.12479E-01 2.18130E-01 6.52720E-14 3.60822E-13
 -1       116 1.07818E+01-7.38928E-02-2.33169E-01 1.68159E-01 1.59636E-13-2.10158E-13
 -1       117 1.01415E+01-6.04658E-02-2.58861E-01 3.23880E-02 3.91354E-15-9.79314E-13
 -1       118 1.20503E+01-2.04748E-02-1.71454E-01-1.31038E-01 2.82695E-14-8.83467E-13
 -1       119 1.56911E+01 4.74056E-02 2.33436E-02-2.73763E-01-6.37188E-14-4.57634E-13
 -1       120 1.91360E+01-6.56899E-03 1.86764E-01-2.71836E-01 1.53803E-13-9.25579E-14
 -1       121 2.00420E+01-1.05547E+00 2.10035E-01-2.83396E-01-2.03088E-13 1.37629E-14
 -1       122 1.99995E+01-4.75080E+00 5.93409E-02-3.64663E-01-5.86323E-13-2.50676E-13
 -1       123 1.98572E+01-8.83240E+00-2.73916E-01-3.70837E-01-6.32785E-13 2.07799E-13
 -1       124 1.97467E+01-1.04205E+01-7.00745E-01-1.12922E-01-2.19268E-13 5.83873E-14
 -1       125 1.97040E+01-6.55979E+00-9.19424E-01 5.43841E-01 6.17562E-14 1.11479E-13
 -1       126 1.97553E+01 2.96033E+00-5.26884E-01 1.32664E+00-1.27010E-13-1.09015E-13
 -1       127 1.99591E+01 1.57955E+01 5.63946E-01 1.70682E+00-5.17253E-13 1.80366E-13
 -1       128 2.04085E+01 2.85051E+01 1.97322E+00 1.37206E+00-2.18381E-13 1.69378E-14
 -1       129 2.06712E+01 3.56874E+01 2.87699E+00 3.20098E-02-4.74207E-13 1.15200E-13
 -1       130 2.05820E+01 2.99622E+01 2.16556E+00-1.55667E+00 2.46414E-13-3.03230E-14
 -1       131 2.02499E+01 1.62153E+01 6.62626E-01-1.76852E+00-3.87967E-13-1.42875E-13
 -1       132 1.98792E+01 1.52370E+00-5.58602E-01-1.14116E+00-8.92897E-13 6.37893E-14
 -1       133 1.96312E+01-8.48657E+00-9.52161E-01-3.97701E-01-1.99674E-13 9.74637E-14
 -1       134 1.97577E+01-1.22648E+01-6.09648E-01 1.81106E-01-3.64875E-13 1.01776E-13
 -1       135 1.98746E+01-1.05701E+01-2.05055E-01 3.15650E-01-9.65117E-13-1.37170E-13
 -1       136 1.99794E+01-6.92933E+00 1.53762E-02 2.95777E-01-1.85837E-12 2.04329E-14
 -1       137 2.00456E+01-3.30029E+00 1.09100E-01 3.22501E-01-1.71203E-12 2.84822E-14
 -1       138 2.00605E+01-7.17343E-01 1.40980E-01 1.72396E-01-9.57387E-13 1.75074E-13
 -1       139-2.15709E+00-2.85296E+01-5.85388E+00-4.83296E+00 1.20826E-12 1.52961E-13
 -1       140 1.88374E-01-5.56479E+00-2.73894E+00-3.12463E-01 7.94920E-13 3.41505E-13
 -1       141 9.80937E+00 1.27909E+01 1.51825E-01 1.12113E+01 7.33080E-13 7.22533E-13
 -1       142 2.91988E+01 1.92821E+01 2.23012E+00 2.31982E+01 6.28719E-13 6.47815E-13
 -1       143 5.36288E+01 1.47533E+01 3.48056E+00 2.71705E+01-1.23707E-13-9.50351E-14
 -1       144 7.28144E+01 6.66543E+00 4.09564E+00 2.03279E+01 3.47153E-14-3.69704E-14
 -1       145 8.11097E+01 1.49866E+00 4.23360E+00 6.13707E+00 1.87808E-13-3.24463E-13
 -1       146 7.47616E+01 2.11425E+00 3.78205E+00-9.34855E+00 4.71966E-14-2.03171E-13
 -1       147 5.58909E+01 7.03534E+00 2.73987E+00-1.87673E+01 2.20823E-13-4.03233E-13
 -1       148 3.19446E+01 1.09712E+01 1.25772E+00-1.82775E+01 6.92280E-13-1.03473E-12
 -1       149 9.38664E+00 7.39833E+00-5.65655E-01-8.50841E+00 1.71407E-12-1.76853E-12
 -1       150-5.18023E-01-3.19119E+00-1.97138E+00 1.04630E+00 1.71596E-12-1.21847E-12
 -1       151-2.50558E+00-1.71421E+01-2.99639E+00 5.61128E+00 3.76477E-13-2.06918E-13
 -1       152-1.35037E+00-2.75832E+01-3.58680E+00 3.82008E+00-9.51544E-13 6.07812E-14
 -1       153-9.09307E-01-2.93704E+01-3.65754E+00-1.82625E+00-1.11877E-12-1.66533E-13
 -1       154-2.11518E+00-2.08445E+01-3.15445E+00-5.45521E+00-7.11431E-13-1.70974E-14
 -1       155-1.43868E+00-7.04685E+00-2.20635E+00-2.68205E+00 1.29563E-13 2.68674E-14
 -1       156 5.29098E+00 5.33679E+00-9.14152E-01 5.56935E+00 3.95239E-13 3.06422E-13
 -1       157 2.25342E+01 1.14212E+01 6.51962E-01 1.58716E+01 3.98181E-13 6.31828E-13
 -1       158 4.56553E+01 9.23410E+00 2.11634E+00 1.98510E+01 2.00756E-13 2.70006E-13
 -1       159 6.69912E+01 3.81539E+00 3.22729E+00 1.43046E+01-8.06716E-14-3.22742E-13
 -1       160 7.90656E+01 8.11774E-01 3.88797E+00 2.96266E-01-1.25223E-13-8.28282E-13
 -1       161 7.64232E+01 4.14302E+00 4.02872E+00-1.54760E+01 8.15615E-14-3.51108E-13
 -1       162 4.05955E+01 1.86245E+01 2.95532E+00-2.67213E+01 7.35578E-13-1.04494E-12
 -1       163 1.95026E+01 1.84524E+01 1.49922E+00-1.86111E+01 1.17506E-12-9.82991E-13
 -1       164 5.50738E+00 8.20962E+00-6.73223E-01-7.00012E+00 5.79314E-13-8.31668E-13
 -1       165-9.09321E-01-1.09305E+01-3.43872E+00 2.56860E+00 3.55271E-15 2.50910E-13
 -1       166-2.10969E+00-3.02209E+01-6.16517E+00 4.66059E+00-6.74238E-13 7.16302E-14
 -1       167 2.10149E+01 3.69396E+00-5.73358E-02-3.60951E+00-3.12677E-13 7.64735E-14
 -1       168 1.99920E+01 4.20784E+00-4.57225E-02-2.80854E+00-2.71220E-13-2.45727E-13
 -1       169 1.95093E+01 4.47721E+00-3.15872E-02-2.19341E+00-2.18568E-13-4.21036E-13
 -1       170 1.92672E+01 4.61528E+00-2.37301E-02-1.67476E+00-1.61537E-13-5.16275E-13
 -1       171 1.91366E+01 4.69693E+00-1.94772E-02-1.21844E+00-1.05338E-13-5.48795E-13
 -1       172 1.90623E+01 4.74805E+00-1.74082E-02-7.91572E-01-5.87875E-14-5.68828E-13
 -1       173 1.90248E+01 4.77592E+00-1.64159E-02-3.86642E-01-1.05628E-14-5.65732E-13
 -1       174 1.90138E+01 4.78444E+00-1.61282E-02 8.26713E-03 3.61175E-14-5.64687E-13
 -1       175 1.90265E+01 4.77462E+00-1.64618E-02 4.03523E-01 8.28357E-14-5.55572E-13
 -1       176 1.90659E+01 4.74508E+00-1.75158E-02 8.09558E-01 1.25516E-13-5.41849E-13
 -1       177 1.91409E+01 4.69265E+00-1.96845E-02 1.23087E+00 1.63916E-13-5.04314E-13
 -1       178 1.92769E+01 4.60549E+00-2.40046E-02 1.69744E+00 2.24687E-13-4.39863E-13
 -1       179 1.95244E+01 4.45967E+00-3.28485E-02 2.22575E+00 2.78002E-13-3.33124E-13
 -1       180 2.00145E+01 4.18389E+00-4.72076E-02 2.84602E+00 3.13292E-13-1.19949E-13
 -1       181 2.11366E+01 3.46364E+00-5.97712E-02 3.53607E+00 3.07969E-13 2.71901E-13
 -1       182 2.24210E+01 1.14329E+00-3.36461E-01 3.01435E+00 2.40465E-13 7.86052E-13
 -1       183 2.19735E+01 8.58190E-01 6.60682E-04-1.95845E+00-2.69455E-13 4.56163E-13
 -1       184 2.04495E+01 1.90145E-01-9.99244E-03-7.63707E-01-2.50461E-13 3.28977E-13
 -1       185 1.96744E+01 1.01781E-01 1.35591E-02-2.85137E-01-1.77956E-13 2.23682E-13
 -1       186 1.93353E+01 4.71980E-02 1.00095E-02-6.72866E-02-1.18117E-13 1.06369E-13
 -1       187 1.92062E+01 2.25737E-02 5.15929E-03 4.00178E-02-8.84442E-14 3.35298E-14
 -1       188 1.91934E+01 9.55448E-03 2.43040E-03 9.26974E-02-8.83089E-14-1.40428E-14
 -1       189 1.92427E+01 2.15511E-03 1.12680E-03 1.15154E-01-7.51493E-14-8.81173E-14
 -1       190 1.93226E+01-2.09416E-03 4.91830E-04 1.20125E-01-9.40080E-14-1.58847E-13
 -1       191 1.94141E+01-4.41926E-03 1.54838E-04 1.15004E-01-7.00800E-14-1.50974E-13
 -1       192 1.95063E+01-5.52272E-03-3.41881E-05 1.04374E-01-4.53165E-14-1.61081E-13
 -1       193 1.95925E+01-5.84622E-03-1.38488E-04 9.11553E-02 5.85083E-14-2.57178E-13
 -1       194 1.96694E+01-5.68173E-03-1.89675E-04 7.72174E-02 1.17247E-14-2.05445E-13
 -1       195 1.97356E+01-5.22603E-03-2.06552E-04 6.37277E-02 2.17814E-14-2.40057E-13
 -1       196 1.97911E+01-4.61051E-03-2.01307E-04 5.13849E-02-4.01291E-14-1.79812E-13
 -1       197 1.98365E+01-3.91925E-03-1.81968E-04 4.05776E-02-1.18965E-13-1.61243E-13
 -1       198 1.98731E+01-3.20106E-03-1.53657E-04 3.15006E-02-7.86876E-14-2.14834E-13
 -1       199 1.99022E+01-2.47801E-03-1.19389E-04 2.42413E-02-1.25525E-13-2.62868E-13
 -1       200 1.99256E+01-1.75158E-03-8.06070E-05 1.88450E-02-9.27454E-14-2.80939E-13
 -1       201 1.99450E+01-1.00722E-03-3.75768E-05 1.53654E-02-4.61597E-14-3.53616E-13
 -1       202 1.99623E+01-2.17731E-04 1.03114E-05 1.39040E-02 6.75114E-15-4.48569E-13
 -1       203 1.99798E+01 6.54239E-04 6.42872E-05 1.46403E-02 4.13229E-14-3.76727E-13
 -1       204 1.99997E+01 1.65389E-03 1.25950E-04 1.78561E-02 4.11069E-14-3.04655E-13
 -1       205 2.00248E+01 2.83182E-03 1.96983E-04 2.39517E-02 9.38730E-14-2.40761E-13
 -1       206 2.00582E+01 4.24054E-03 2.78766E-04 3.34543E-02 1.28607E-13-1.11221E-13
 -1       207 2.01035E+01 5.92891E-03 3.71824E-04 4.70129E-02-1.62483E-13-2.12481E-14
 -1       208 2.01652E+01 7.93298E-03 4.74998E-04 6.53741E-02-1.13298E-13-1.23834E-13
 -1       209 2.02481E+01 1.02606E-02 5.84197E-04 8.93236E-02-7.12965E-14-3.30417E-13
 -1       210 2.03578E+01 1.28666E-02 6.90567E-04 1.19576E-01 1.03646E-13-3.02918E-13
 -1       211 2.05000E+01 1.56119E-02 7.77921E-04 1.56581E-01 1.41311E-13-1.67901E-13
 -1       212 2.06805E+01 1.82005E-02 8.19385E-04 2.00195E-01-8.02448E-14-2.01609E-13
 -1       213 2.09039E+01 2.00832E-02 7.73702E-04 2.49160E-01-1.33808E-13-1.71508E-13
 -1       214 2.11723E+01 2.03204E-02 5.82593E-04 3.00302E-01-7.69574E-14-2.95955E-13
 -1       215 2.14834E+01 1.74067E-02 1.72636E-04 3.47356E-01-6.72222E-14-3.70285E-13
 -1       216 2.18267E+01 9.09625E-03-5.32056E-04 3.79406E-01 9.56650E-14-1.85967E-13
 -1       217 2.21794E+01-7.64175E-03-1.57709E-03 3.79121E-01 1.93701E-14-1.65631E-13
 -1       218 2.25015E+01-3.62318E-02-2.91775E-03 3.21483E-01 1.38527E-13-1.91875E-13
 -1       219 2.27308E+01-7.90907E-02-4.34008E-03 1.74761E-01 1.60853E-13-1.84427E-13
 -1       220 2.27814E+01-1.34456E-01-5.39152E-03-9.30451E-02 5.08573E-14-2.06029E-13
 -1       221 2.25510E+01-1.91205E-01-5.43575E-03-4.97914E-01-2.45403E-13-3.63006E-13
 -1       222 2.19431E+01-2.23848E-01-3.97160E-03-1.01147E+00-2.56339E-13-1.88729E-13
 -1       223 2.09116E+01-1.94212E-01-1.06741E-03-1.52857E+00-5.92868E-14-3.88159E-13
 -1       224 1.95232E+01-6.92585E-02 2.33918E-03-1.85754E+00 3.72508E-13-3.09519E-13
 -1       225 1.80082E+01 1.43484E-01 4.79655E-03-1.77404E+00 1.12112E-13-1.46301E-13
 -1       226 1.67433E+01 3.70656E-01 5.43068E-03-1.15145E+00 2.71290E-13 1.02938E-13
 -1       227 1.61198E+01 4.98693E-01 4.51014E-03-9.45795E-02 3.80962E-13 3.79759E-13
 -1       228 1.63421E+01 4.44335E-01 2.96896E-03 1.04893E+00 1.03641E-13 3.66123E-13
 -1       229 1.72971E+01 1.71783E-01 2.28789E-03 1.81159E+00 2.15835E-13 4.22365E-13
 -1       230 1.86192E+01-3.00534E-01 8.68123E-03 1.76386E+00-1.23573E-13 4.19113E-13
 -1       231 2.09654E+01 2.77006E-01-5.13275E-02 1.16442E+00 2.22444E-13 6.68398E-13
 -1       232 1.98712E+01 1.26849E-01 8.31192E-03 4.42722E-01 1.73064E-13 4.83541E-13
 -1       233 1.93654E+01 5.80826E-02 1.27348E-02 1.49637E-01 1.30204E-13 3.54274E-13
 -1       234 1.91563E+01 2.77440E-02 7.62823E-03 1.03003E-02 1.26038E-13 2.41780E-13
 -1       235 1.91072E+01 1.31002E-02 3.82235E-03-5.89063E-02 8.81055E-14 1.67758E-13
 -1       236 1.91437E+01 5.15297E-03 1.90460E-03-9.14123E-02 5.69936E-14 1.00113E-13
 -1       237 1.92236E+01 6.06546E-04 1.00091E-03-1.03240E-01 5.02772E-14 3.67152E-14
 -1       238 1.93220E+01-1.98631E-03 5.39862E-04-1.03096E-01 5.11586E-14-5.32420E-14
 -1       239 1.94243E+01-3.37240E-03 2.75728E-04-9.61705E-02 7.76812E-14-1.16241E-13
 -1       240 1.95219E+01-3.98922E-03 1.14099E-04-8.57198E-02 3.09940E-14-1.05704E-13
 -1       241 1.96102E+01-4.11593E-03 1.48697E-05-7.38249E-02 1.64270E-14-4.97830E-14
 -1       242 1.96871E+01-3.93868E-03-4.31403E-05-6.18054E-02 6.80781E-14-9.04316E-14
 -1       243 1.97521E+01-3.58310E-03-7.31913E-05-5.04719E-02 8.24760E-14-1.77136E-13
 -1       244 1.98055E+01-3.13247E-03-8.41825E-05-4.02948E-02 3.61915E-14-2.06384E-13
 -1       245 1.98486E+01-2.63911E-03-8.21612E-05-3.15227E-02-9.88765E-16-1.53027E-13
 -1       246 1.98829E+01-2.13207E-03-7.11606E-05-2.42704E-02-6.85742E-14-1.88732E-13
 -1       247 1.99099E+01-1.62261E-03-5.37432E-05-1.85845E-02 6.23864E-14-2.14390E-13
 -1       248 1.99315E+01-1.10810E-03-3.13757E-05-1.44945E-02 6.63246E-14-2.88777E-13
 -1       249 1.99497E+01-5.74904E-04-4.70188E-06-1.20523E-02-1.03412E-13-2.55895E-13
 -1       250 1.99665E+01-1.63069E-07 2.62455E-05-1.13640E-02-4.50846E-14-3.26782E-13
 -1       251 1.99842E+01 6.46921E-04 6.18642E-05-1.26164E-02-5.26688E-14-2.85615E-13
 -1       252 2.00055E+01 1.40438E-03 1.02808E-04-1.61006E-02 1.35467E-13-3.79572E-13
 -1       253 2.00334E+01 2.31693E-03 1.49785E-04-2.22324E-02 1.12946E-13-4.92465E-13
 -1       254 2.00715E+01 3.43536E-03 2.03294E-04-3.15695E-02-1.96807E-13-3.27871E-13
 -1       255 2.01243E+01 4.81517E-03 2.63217E-04-4.48260E-02-1.96020E-13 6.81474E-14
 -1       256 2.01972E+01 6.51374E-03 3.28188E-04-6.28769E-02-1.13779E-13 1.28528E-13
 -1       257 2.02963E+01 8.58417E-03 3.94565E-04-8.67478E-02 5.50367E-14 1.66365E-13
 -1       258 2.04293E+01 1.10628E-02 4.54795E-04-1.17572E-01-1.29123E-13-3.78280E-14
 -1       259 2.06046E+01 1.39446E-02 4.94928E-04-1.56487E-01 4.79824E-14 5.10700E-14
 -1       260 2.08317E+01 1.71362E-02 4.91161E-04-2.04419E-01 7.58794E-14 1.43634E-13
 -1       261 2.11202E+01 2.03697E-02 4.05938E-04-2.61658E-01-6.89187E-14 6.37118E-14
 -1       262 2.14783E+01 2.30487E-02 1.85954E-04-3.27082E-01 1.85910E-14 6.05465E-14
 -1       263 2.19105E+01 2.39937E-02-2.31544E-04-3.96783E-01 1.39509E-13 4.23461E-14
 -1       264 2.24127E+01 2.10577E-02-8.90646E-04-4.61799E-01-2.81265E-14 5.36717E-14
 -1       265 2.29654E+01 1.06498E-02-1.74748E-03-5.04706E-01 1.83433E-13-4.53353E-14
 -1       266 2.35231E+01-1.25720E-02-2.54537E-03-4.95272E-01 8.49419E-14-2.00451E-13
 -1       267 2.40010E+01-5.50336E-02-2.68094E-03-3.86944E-01-1.22817E-13-2.11630E-13
 -1       268 2.42638E+01-1.20820E-01-1.24402E-03-1.19358E-01-5.20278E-14-1.27278E-13
 -1       269 2.41261E+01-2.03224E-01 2.41902E-03 3.62386E-01-7.07637E-14 1.31091E-13
 -1       270 2.33847E+01-2.71676E-01 7.33085E-03 1.05913E+00 8.15355E-14 3.05720E-13
 -1       271 2.19062E+01-2.64948E-01 9.58268E-03 1.84045E+00-6.32619E-14 2.98353E-13
 -1       272 1.97719E+01-1.18425E-01 3.90642E-03 2.39454E+00-2.56547E-13 3.82369E-13
 -1       273 1.74088E+01 1.63812E-01-1.09747E-02 2.31865E+00 3.18195E-13 3.51497E-13
 -1       274 1.55427E+01 4.50729E-01-2.55793E-02 1.40559E+00 4.86080E-13-5.32794E-14
 -1       275 1.48539E+01 5.57207E-01-2.69204E-02-7.40648E-02 2.82644E-13-1.75987E-13
 -1       276 1.55182E+01 4.33870E-01-1.45743E-02-1.48372E+00-4.39631E-14-3.44388E-13
 -1       277 1.71048E+01 9.84784E-02 1.34142E-02-2.21109E+00-3.39827E-13-6.29635E-14
 -1       278 1.88840E+01-4.62748E-01 5.79344E-02-1.79874E+00 1.64046E-13 8.39259E-15
 -1       279 1.95650E+01-1.68797E+00 2.57307E-02-2.46527E+00-9.93736E-14-2.26281E-13
 -1       280 2.02523E+01-3.06709E+00 1.83174E-02-2.55149E+00 7.63868E-14 1.85069E-14
 -1       281 2.11962E+01-3.89861E+00-9.68416E-03-8.87116E-01-7.35037E-14 2.75828E-13
 -1       282 2.23299E+01-3.42538E+00-3.07111E-02 2.67487E+00-2.17749E-13 6.04135E-14
 -1       283 2.28881E+01-1.55969E+00-2.25867E-02 7.21373E+00-2.38627E-13-2.62247E-13
 -1       284 2.20287E+01 1.57972E+00 4.99751E-02 1.09232E+01-3.65531E-13-4.55528E-13
 -1       285 1.92220E+01 5.94642E+00 1.80217E-01 1.17228E+01-3.23585E-13 3.97446E-13
 -1       286 1.50270E+01 1.01817E+01 2.15876E-01 6.92797E+00-6.84088E-15-1.95677E-14
 -1       287 1.39668E+01 1.11401E+01 2.76796E-01-3.39213E+00-1.66997E-13 3.27544E-13
 -1       288 1.74100E+01 8.24610E+00 2.90112E-01-1.08897E+01-1.40239E-13-2.43583E-13
 -1       289 2.14637E+01 3.14113E+00 1.37382E-01-1.19174E+01-2.56357E-14-4.54678E-13
 -1       290 2.29627E+01-1.41983E+00 9.98283E-03-8.12590E+00-4.98792E-13 5.60472E-14
 -1       291 2.22056E+01-4.36049E+00-4.07542E-02-2.54283E+00-6.50082E-13-7.19563E-15
 -1       292 2.09574E+01-4.85798E+00 3.89339E-03 9.33874E-01-5.77238E-13-1.58731E-13
 -1       293 2.02243E+01-4.07700E+00 1.63705E-02 2.31616E+00-5.43857E-13-4.08435E-13
 -1       294 1.98149E+01-2.69496E+00 1.75266E-02 2.40490E+00-5.34312E-13 1.97011E-13
 -1       295 1.94212E+01-1.25497E+00 7.09811E-03 2.41406E+00-2.60644E-13 2.28238E-13
 -1       296 9.52482E-01-1.00452E+01-1.81700E+00 3.75727E+00 2.53630E-13 2.90795E-13
 -1       297 8.70051E+00-7.20823E+00-1.03658E+00 1.06338E+01 1.36779E-13 8.72913E-14
 -1       298 1.81295E+01-3.31961E+00-3.78548E-01 1.19863E+01 4.18443E-13 4.96186E-13
 -1       299 2.92062E+01 2.87207E+00 3.86052E-01 1.28223E+01 4.14557E-13 3.11529E-13
 -1       300 4.04307E+01 7.51339E+00 8.67709E-01 1.24232E+01 4.95659E-13 3.03091E-14
 -1       301 5.01524E+01 9.51461E+00 1.18240E+00 1.08391E+01 1.58124E-13 7.91034E-14
 -1       302 5.47325E+01 9.43834E+00 1.16453E+00 6.51802E+00 1.01974E-13-2.00354E-13
 -1       303 5.50321E+01 8.31026E+00 1.09837E+00 1.84300E+00 9.25093E-14-9.25926E-14
 -1       304 5.00471E+01 6.31967E+00 8.81854E-01-2.46815E+00 2.22919E-13-3.32234E-13
 -1       305 4.08049E+01 3.38627E+00 5.04318E-01-5.44554E+00 5.43156E-13-1.35281E-13
 -1       306 2.94532E+01-2.18696E+00 4.59027E-02-5.65066E+00 8.16652E-13 6.65301E-14
 -1       307 1.53593E+01-4.75980E+00-3.90227E-01-6.20736E+00 7.87759E-13-7.95003E-13
 -1       308 6.28373E+00-9.34237E+00-7.74908E-01-4.09615E+00 3.53939E-13-9.94819E-13
 -1       309 8.04973E-01-1.26137E+01-9.04925E-01-2.36962E+00 9.43690E-14-8.43450E-13
 -1       310-1.76234E+00-1.36220E+01-9.25836E-01-2.18070E-01-2.41189E-13-2.21934E-13
 -1       311-5.26343E-01-1.37553E+01-1.02401E+00 1.73924E+00-3.13777E-13 1.89904E-13
 -1       312 4.82441E+00-1.00218E+01-6.80624E-01 4.38048E+00-2.49994E-13 1.96607E-13
 -1       313 1.21576E+01-5.76197E+00-4.78912E-01 5.85886E+00-1.67477E-13 2.03976E-13
 -1       314 2.39454E+01-1.82497E+00-5.57186E-02 7.04203E+00 6.23113E-14 2.64844E-13
 -1       315 3.57437E+01 2.88959E+00 3.99205E-01 7.33238E+00 4.61478E-13 1.27454E-13
 -1       316 4.62336E+01 5.44293E+00 7.20112E-01 4.37540E+00 3.73444E-13-1.74305E-14
 -1       317 5.41263E+01 7.40990E+00 1.08047E+00 4.35226E-01 2.16771E-13-2.52159E-13
 -1       318 5.60169E+01 8.88999E+00 1.20383E+00-4.96683E+00-2.21767E-14-6.39908E-13
 -1       319 5.05579E+01 9.95058E+00 9.95714E-01-8.88133E+00 2.30690E-13-5.04430E-13
 -1       320 4.43831E+01 9.32670E+00 1.02738E+00-1.27034E+01 6.73475E-13-3.79863E-13
 -1       321 3.48200E+01 5.60616E+00 6.28454E-01-1.27895E+01 5.40429E-13-5.09592E-13
 -1       322 2.40983E+01 1.38381E+00 1.47634E-01-1.29104E+01 1.92235E-13-6.15230E-13
 -1       323 1.49561E+01-4.70341E+00-6.51692E-01-1.21608E+01 6.93889E-15-7.20840E-13
 -1       324 7.11890E+00-8.51798E+00-1.32878E+00-9.18553E+00-2.80387E-13-2.60722E-13
 -1       325 4.71045E-01-1.10153E+01-2.02342E+00-3.57715E+00 2.23155E-13 5.55389E-13
 -1       326 2.01463E+01 3.01527E+00-1.79043E-02-2.10905E+00-2.91367E-13-2.21297E-13
 -1       327 2.07573E+01 2.20829E+00-1.78553E-02-2.36249E+00-3.30408E-13-4.25666E-14
 -1       328 1.95839E+01 3.69193E+00-1.50785E-02-1.31600E+00-1.63114E-13-4.03086E-13
 -1       329 1.94593E+01 3.84919E+00-1.35691E-02-9.22887E-01-1.07233E-13-4.36227E-13
 -1       330 1.93899E+01 3.93995E+00-1.26817E-02-5.43508E-01-4.40527E-14-4.43487E-13
 -1       331 1.93592E+01 3.98125E+00-1.22826E-02-1.73138E-01 1.57238E-14-4.37098E-13
 -1       332 1.93605E+01 3.97963E+00-1.23053E-02 1.94263E-01 7.36968E-14-4.43804E-13
 -1       333 1.93941E+01 3.93470E+00-1.27528E-02 5.64993E-01 1.30547E-13-4.25386E-13
 -1       334 1.94653E+01 3.84137E+00-1.37611E-02 9.38726E-01 1.86696E-13-4.20669E-13
 -1       335 1.95927E+01 3.67903E+00-1.56501E-02 1.33259E+00 2.41356E-13-3.48910E-13
 -1       336 1.98089E+01 3.41022E+00-1.88290E-02 1.73775E+00 3.04976E-13-2.72108E-13
 -1       337 2.01801E+01 2.95531E+00-2.29383E-02 2.12630E+00 3.40655E-13-1.62472E-13
 -1       338 2.07504E+01 2.12942E+00-3.04669E-02 2.32136E+00 3.46269E-13 8.74110E-14
 -1       339 2.10972E+01 1.18769E+00-2.49187E-02 1.92125E+00 3.02808E-13 3.28071E-13
 -1       340 2.03938E+01 4.89302E-01 8.33389E-03 9.26631E-01 2.53550E-13 2.16561E-13
 -1       341 8.99840E+00-9.69866E-01-4.02869E-01-9.97089E+00 2.68563E-13 2.30232E-13
 -1       342 2.04602E+01 6.75290E-01 1.23362E-02-1.02463E+00-2.71189E-13-2.08947E-15
 -1       343 2.00389E+01 3.37079E-01 7.17961E-03-4.56579E-01-2.03159E-13-3.80284E-14
 -1       344 1.97851E+01 1.76492E-01 4.12879E-03-1.47776E-01-1.57017E-13-6.14690E-14
 -1       345 1.96499E+01 9.05789E-02 1.88801E-03 2.34795E-02-1.23934E-13-1.07194E-13
 -1       346 1.95949E+01 4.14592E-02 7.86366E-04 1.14756E-01-1.30397E-13-1.66945E-13
 -1       347 1.95899E+01 1.24407E-02 2.71189E-04 1.57987E-01-9.49302E-14-2.20352E-13
 -1       348 1.96142E+01-4.62174E-03 1.36534E-05 1.72047E-01-8.26747E-14-2.36192E-13
 -1       349 1.96537E+01-1.41847E-02-1.21914E-04 1.68664E-01-8.37917E-14-2.23122E-13
 -1       350 1.96996E+01-1.89242E-02-1.90783E-04 1.55379E-01-2.27198E-14-1.71488E-13
 -1       351 1.97459E+01-2.05558E-02-2.18979E-04 1.37114E-01 2.91281E-14-2.43712E-13
 -1       352 1.97896E+01-2.02217E-02-2.21566E-04 1.17072E-01 2.06136E-15-2.07477E-13
 -1       353 1.98286E+01-1.86912E-02-2.08297E-04 9.73004E-02 3.57665E-14-1.66146E-13
 -1       354 1.98625E+01-1.64747E-02-1.85599E-04 7.90612E-02-1.68570E-14-9.02924E-14
 -1       355 1.98912E+01-1.38943E-02-1.57560E-04 6.31040E-02-1.03905E-13-5.20941E-14
 -1       356 1.99152E+01-1.11327E-02-1.26547E-04 4.98580E-02-1.59116E-13-8.23495E-14
 -1       357 1.99353E+01-8.26650E-03-9.36392E-05 3.95779E-02-1.30534E-13-1.15014E-13
 -1       358 1.99526E+01-5.29130E-03-5.89382E-05 3.24545E-02-6.43072E-14-1.02905E-13
 -1       359 1.99683E+01-2.13993E-03-2.17949E-05 2.86985E-02-8.28279E-14-2.08005E-13
 -1       360 1.99838E+01 1.30357E-03 1.90104E-05 2.86057E-02 5.63131E-14-1.66322E-13
 -1       361 2.00007E+01 5.19233E-03 6.51131E-05 3.26048E-02 1.45597E-13-1.76117E-13
 -1       362 2.00209E+01 9.70510E-03 1.18402E-04 4.12925E-02 1.12870E-13-4.28867E-14
 -1       363 2.00463E+01 1.50322E-02 1.80813E-04 5.54515E-02 1.14349E-13-6.27391E-14
 -1       364 2.00795E+01 2.13552E-02 2.54029E-04 7.60488E-02 1.79006E-14-2.01662E-13
 -1       365 2.01231E+01 2.88152E-02 3.39008E-04 1.04203E-01-1.18674E-13-1.88079E-13
 -1       366 2.01803E+01 3.74621E-02 4.35242E-04 1.41109E-01-1.42926E-13-1.12554E-13
 -1       367 2.02546E+01 4.71744E-02 5.39585E-04 1.87886E-01-7.70200E-15-1.61266E-14
 -1       368 2.03494E+01 5.75325E-02 6.44457E-04 2.45324E-01 1.26751E-13-2.20596E-13
 -1       369 2.04685E+01 6.76251E-02 7.35191E-04 3.13467E-01 5.63889E-14-2.69736E-13
 -1       370 2.06150E+01 7.57599E-02 7.86345E-04 3.90956E-01-1.02555E-13-1.99649E-13
 -1       371 2.07913E+01 7.90551E-02 7.57139E-04 4.74044E-01-8.07416E-14-9.19898E-14
 -1       372 2.09979E+01 7.29092E-02 5.87015E-04 5.55177E-01-1.24973E-13 1.03424E-13
 -1       373 2.12328E+01 5.04322E-02 1.94197E-04 6.21087E-01-1.95058E-14-1.11715E-14
 -1       374 2.14900E+01 2.12337E-03-5.16964E-04 6.50493E-01 2.89549E-15-1.52353E-13
 -1       375 2.17579E+01-8.34934E-02-1.62843E-03 6.11962E-01 7.88882E-14 1.02731E-14
 -1       376 2.20172E+01-2.16838E-01-3.14773E-03 4.63322E-01 1.59170E-13 6.19578E-15
 -1       377 2.22373E+01-3.99608E-01-4.91166E-03 1.55708E-01 1.71553E-13-3.96888E-14
 -1       378 2.23720E+01-6.10418E-01-6.41146E-03-3.52596E-01-5.97007E-14-2.18243E-14
 -1       379 2.23537E+01-7.85636E-01-6.78102E-03-1.06597E+00-1.25013E-13 1.16518E-13
 -1       380 2.20962E+01-8.09516E-01-5.31510E-03-1.90334E+00-1.65819E-13 4.12249E-13
 -1       381 2.15210E+01-5.42414E-01-1.95215E-03-2.65061E+00 8.42074E-14 4.49373E-13
 -1       382 2.06247E+01 8.35326E-02 2.30019E-03-2.96563E+00 2.35734E-13 1.52330E-13
 -1       383 1.95661E+01 9.28488E-01 6.01765E-03-2.51457E+00 4.39731E-13 2.94962E-13
 -1       384 1.86650E+01 1.62217E+00 8.11048E-03-1.22778E+00 4.04660E-13 2.08048E-13
 -1       385 1.82322E+01 1.76553E+00 9.34378E-03 5.15199E-01 1.48010E-13 4.02773E-13
 -1       386 1.83288E+01 1.18217E+00 6.89946E-03 2.06274E+00 6.07971E-14 2.92848E-13
 -1       387 1.86955E+01 1.21590E-01-4.81342E-03 2.72213E+00 8.59197E-14 2.89872E-13
 -1       388 1.98926E+01 2.28535E-01 1.07967E-02 3.97917E-01 1.97656E-13 1.42997E-13
 -1       389 1.96044E+01 1.15403E-01 6.17648E-03 1.19156E-01 1.84828E-13 7.85916E-14
 -1       390 1.94703E+01 5.77135E-02 2.80860E-03-2.97479E-02 1.13799E-13 3.57278E-14
 -1       391 1.94310E+01 2.58066E-02 1.17775E-03-1.06673E-01 9.43714E-14-3.90571E-14
 -1       392 1.94472E+01 7.32215E-03 4.48032E-04-1.41893E-01 8.29820E-14-8.95241E-14
 -1       393 1.94937E+01-3.42461E-03 9.96826E-05-1.52323E-01 9.47602E-14-9.21484E-14
 -1       394 1.95543E+01-9.40099E-03-8.33959E-05-1.48153E-01 1.16173E-13-9.42696E-14
 -1       395 1.96190E+01-1.23353E-02-1.80740E-04-1.35807E-01 2.74072E-14-6.43000E-14
 -1       396 1.96818E+01-1.33188E-02-2.26375E-04-1.19430E-01 1.29430E-14-9.76823E-14
 -1       397 1.97391E+01-1.30735E-02-2.39026E-04-1.01699E-01 9.26559E-14-1.08948E-13
 -1       398 1.97894E+01-1.20853E-02-2.30777E-04-8.43069E-02 1.51655E-13-8.72241E-14
 -1       399 1.98322E+01-1.06774E-02-2.09715E-04-6.82876E-02 2.12819E-14-7.90345E-14
 -1       400 1.98678E+01-9.05565E-03-1.81130E-04-5.42397E-02-1.65665E-15-1.12029E-13
 -1       401 1.98970E+01-7.33845E-03-1.48235E-04-4.24901E-02-1.66304E-14-1.34167E-13
 -1       402 1.99209E+01-5.57775E-03-1.12680E-04-3.32161E-02 1.17957E-13-1.92431E-13
 -1       403 1.99407E+01-3.77417E-03-7.49173E-05-2.65381E-02 1.05730E-13-2.02417E-13
 -1       404 1.99580E+01-1.88781E-03-3.44606E-05-2.25924E-02-8.77266E-14-2.89606E-13
 -1       405 1.99744E+01 1.54318E-04 9.92420E-06-2.15877E-02-3.22657E-15-3.47917E-13
 -1       406 1.99919E+01 2.45311E-03 6.00802E-05-2.38521E-02-5.98391E-14-4.20122E-13
 -1       407 2.00124E+01 5.13385E-03 1.18346E-04-2.98719E-02 1.54376E-13-4.97079E-13
 -1       408 2.00385E+01 8.34320E-03 1.87441E-04-4.03240E-02 9.20358E-14-4.85794E-13
 -1       409 2.00731E+01 1.22455E-02 2.70307E-04-5.61019E-02-3.25013E-13-2.97355E-13
 -1       410 2.01197E+01 1.70161E-02 3.69839E-04-7.83320E-02-3.70164E-13-1.29238E-13
 -1       411 2.01823E+01 2.28295E-02 4.88408E-04-1.08373E-01-1.06477E-13 6.72298E-14
 -1       412 2.02658E+01 2.98343E-02 6.26964E-04-1.47786E-01 9.69619E-14 1.01301E-13
 -1       413 2.03755E+01 3.81075E-02 7.83417E-04-1.98249E-01 5.57114E-14-6.38897E-14
 -1       414 2.05176E+01 4.75677E-02 9.49795E-04-2.61375E-01 2.71223E-14-4.04484E-14
 -1       415 2.06985E+01 5.78162E-02 1.10745E-03-3.38350E-01-4.05888E-14 1.26249E-13
 -1       416 2.09245E+01 6.78562E-02 1.21957E-03-4.29276E-01 9.15794E-14 4.69279E-14
 -1       417 2.12007E+01 7.56142E-02 1.22068E-03-5.32000E-01 5.66196E-14-6.45904E-14
 -1       418 2.15299E+01 7.71755E-02 1.00513E-03-6.40146E-01-3.59398E-14 3.74193E-14
 -1       419 2.19099E+01 6.56874E-02 4.21579E-04-7.39977E-01 3.51651E-14 1.65469E-13
 -1       420 2.23304E+01 3.00991E-02-7.09370E-04-8.05848E-01 1.90082E-13 2.14960E-13
 -1       421 2.27686E+01-4.54538E-02-2.52892E-03-7.94595E-01 1.53892E-13 3.28464E-13
 -1       422 2.31833E+01-1.79332E-01-4.97871E-03-6.41060E-01 1.10305E-13 1.31664E-13
 -1       423 2.35084E+01-3.82412E-01-7.59040E-03-2.61015E-01-1.04211E-13-5.28466E-14
 -1       424 2.36455E+01-6.34121E-01-9.31313E-03 4.25256E-01-3.17819E-13 2.84232E-14
 -1       425 2.34615E+01-8.46331E-01-8.85423E-03 1.43132E+00-7.87842E-14 2.29613E-13
 -1       426 2.28076E+01-8.39704E-01-6.13463E-03 2.59931E+00-4.77474E-14 5.77213E-13
 -1       427 2.16050E+01-4.14647E-01-3.39317E-03 3.50671E+00-1.27650E-13 3.64571E-13
 -1       428 2.00036E+01 4.42277E-01-3.06337E-03 3.55358E+00 2.57397E-13 2.14036E-13
 -1       429 1.84849E+01 1.35802E+00-5.27750E-03 2.35445E+00 4.73536E-13 4.66660E-13
 -1       430 1.76512E+01 1.74508E+00 2.54616E-03 2.39413E-01 5.01682E-13 1.72320E-13
 -1       431 1.77125E+01 1.35002E+00 3.20399E-03-1.81918E+00 1.34573E-13-1.68415E-13
 -1       432 1.83845E+01 3.65672E-01 6.68347E-03-2.95720E+00-2.69339E-13-3.29686E-13
 -1       433 1.90469E+01-5.53890E-01 1.08759E-02-2.99316E+00-2.46883E-13-4.73050E-13
 -1       434 2.54434E+01-9.60134E-01-2.42549E-02 2.80504E-01-1.13763E-13-1.34934E-13
 -1       435 2.20374E+01-3.30642E-01-1.38137E-02-2.57442E+00 1.67735E-14 6.09825E-14
 -1       436 2.02648E+01-5.70002E-01-1.39766E-03-3.25636E+00-1.74812E-13 2.24906E-13
 -1       437 2.83375E+01-2.21157E+00-3.90450E-02 4.51077E+00-5.90179E-14 2.22530E-13
 -1       438 2.86820E+01-3.06419E+00 4.46840E-02 9.75099E+00-4.77951E-14-5.28570E-13
 -1       439 2.64294E+01-2.75377E+00 6.94680E-02-1.22691E+01-9.51322E-14-2.43720E-13
 -1       440 2.72244E+01-2.53293E+00-2.36689E-02-5.68636E+00-1.44789E-13 1.24185E-13
 -1       441 2.47492E+01-9.86623E-01-2.15350E-02-2.93815E-01-2.51932E-13 1.10398E-14
 -1       442 2.18036E+01-5.11897E-01-2.22333E-03 2.27038E+00-2.66430E-13-2.37331E-13
 -1       443 2.01642E+01-4.89085E-01-6.23544E-04 3.11529E+00 4.12136E-14-3.88027E-14
 -1       444 1.97837E+01-3.48784E+00 8.63556E-02 1.40515E+01 1.96620E-13 7.27675E-13
 -1       445 1.05053E+01 1.50713E+00-2.21618E-01 1.00022E+01-1.13326E-13 9.77829E-14
 -1       446 2.77978E+01-3.45702E+00 2.10248E-02 1.21550E+01 4.35540E-13-4.47697E-14
 -1       447 1.47200E+01-2.83801E+00-2.83288E-01-1.38828E+01 2.93099E-14-6.00742E-13
 -1       448 3.85371E+01 5.34348E+00 6.03824E-02 4.03857E+00 3.88821E-13 1.19016E-13
 -1       449 3.47497E+01-1.69708E-01 7.72834E-02 7.80516E+00 4.04864E-13-1.00975E-13
 -1       450 1.97865E+01 3.44015E+00-2.09050E-02-1.72563E+00-2.18188E-13-3.36610E-13
 -1       451 4.14544E+01 9.42673E+00 1.16489E-01 3.40910E+00 3.26378E-13-2.05738E-13
 -1       452 4.25087E+01 1.06491E+01 1.18852E-01 3.22396E+00-2.39808E-14-2.07597E-13
 -1       453 4.07663E+01 8.45341E+00 2.23121E-02 3.32504E+00 2.46747E-13-4.13045E-13
 -1       454 3.85463E+01 3.42680E+00-2.61815E-02 2.49497E+00 2.34951E-14-1.96843E-13
 -1       455 3.46850E+01-2.08202E+00-3.49824E-02 7.95778E-02 3.70958E-13 3.36398E-13
 -1       456 2.52784E+01-7.07132E+00-3.28437E-02-4.97292E+00 4.13114E-13 1.87225E-13
 -1       457 1.63079E+01-8.19212E+00-5.93519E-02-6.81066E+00 2.61346E-13-6.12749E-13
 -1       458 7.60625E+00-8.18976E+00-9.40094E-02-6.12429E+00 2.90490E-13-1.02393E-12
 -1       459 2.33975E+00-6.53354E+00 2.65474E-02-3.18952E+00 3.89959E-13-8.51014E-13
 -1       460 8.76880E-01-7.03330E+00-6.36283E-02 2.03599E+00 2.41904E-13 2.03781E-13
 -1       461 4.87678E+00-7.56711E+00-7.66096E-02 5.54878E+00 9.91290E-14 4.54567E-13
 -1       462 1.37079E+01-7.94241E+00-4.94402E-02 7.22646E+00 8.65974E-14 2.23965E-13
 -1       463 2.26043E+01-7.16946E+00-4.07514E-02 6.14847E+00-1.34129E-13 3.81993E-13
 -1       464 3.19680E+01-3.29117E+00 1.65778E-02 2.73950E+00 1.17524E-13-2.01505E-14
 -1       465 3.75906E+01 1.71078E+00 3.76567E-02 5.19051E-02 3.19196E-13 2.20102E-14
 -1       466 4.07930E+01 7.15116E+00 5.53934E-02-2.42270E+00 5.35252E-13 1.00739E-13
 -1       467 4.03093E+01 1.05365E+01-1.17579E-02-3.31914E+00 5.55223E-13 2.30718E-15
 -1       468 4.13645E+01 1.07770E+01 8.25465E-02-3.49529E+00 9.63118E-14-4.91156E-13
 -1       469 3.92552E+01 7.53329E+00 8.96515E-02-4.36103E+00 1.80966E-13-1.33588E-13
 -1       470 3.70831E+01 3.42360E+00 1.54964E-01-6.40824E+00 1.57411E-13 2.26680E-13
 -1       471 3.12034E+01-1.37758E+00 9.49720E-02-1.09590E+01-2.20102E-13-3.41116E-13
 -1       472 2.54232E+01-3.60292E+00 1.24812E-01-1.34789E+01-3.10585E-14-5.19834E-13
 -1       473 6.68229E+00 2.49451E+00-2.74275E-01 3.39075E-01-2.67876E-14 4.12392E-13
 -1       474 2.21424E+01-2.56939E+00-8.46306E-03 1.42979E+01-1.17184E-13 3.80102E-13
 -1       475 3.05780E+01-5.86138E+00-3.36742E-02-1.02092E+00 3.66762E-13 3.75179E-13
 -1       476 2.03747E+01 8.32103E-01 4.01129E-03 9.70987E-01 2.59179E-13-2.76538E-14
 -1       477 1.97313E+01 3.10460E+00-5.35179E-03-6.33497E-01-6.90895E-14-3.99876E-13
 -1       478 1.98276E+01 2.93155E+00-5.79930E-03-9.49881E-01-1.30180E-13-3.68455E-13
 -1       479 1.96634E+01 3.22731E+00-5.01687E-03 8.81033E-03 3.57423E-14-4.01276E-13
 -1       480 1.96820E+01 3.19429E+00-5.10036E-03 3.30160E-01 1.05470E-13-3.89653E-13
 -1       481 1.97361E+01 3.09743E+00-5.41154E-03 6.45323E-01 1.54662E-13-4.07698E-13
 -1       482 1.98351E+01 2.91949E+00-5.94364E-03 9.60732E-01 2.39385E-13-3.47788E-13
 -1       483 1.99911E+01 2.63429E+00-6.52645E-03 1.25576E+00 2.59707E-13-2.83044E-13
 -1       484 2.02339E+01 2.18800E+00-5.70376E-03 1.50047E+00 2.88403E-13-2.23260E-13
 -1       485 2.03445E+01 9.75848E-01 2.92217E-03-9.42421E-01-2.54298E-13-1.16682E-13
 -1       486 3.30186E+01 8.53736E+00-1.27610E-01-8.85481E-01 5.28189E-14-8.01303E-14
 -1       487 2.14437E+01 2.55807E+00-3.34075E-02 2.46522E+00 2.51062E-14 8.77571E-14
 -1       488 2.01132E+01 4.53738E-01 5.07615E-03 4.62987E-01 2.23874E-13-7.09207E-14
 -1       489 2.03929E+01 1.77168E+00-5.66994E-03-1.54544E+00-2.81084E-13-1.59223E-13
 -1       490 2.01725E+01 5.43944E-01 1.93015E-03-4.66853E-01-1.95438E-13-1.27250E-13
 -1       491 2.00257E+01 3.03865E-01 1.06771E-03-1.65261E-01-1.53206E-13-1.50072E-13
 -1       492 1.99250E+01 1.61888E-01 4.39733E-04 1.63786E-02-1.48960E-13-1.53051E-13
 -1       493 1.98663E+01 7.54997E-02 1.56754E-04 1.19051E-01-1.61708E-13-1.71156E-13
 -1       494 1.98390E+01 2.26527E-02 2.16529E-05 1.70360E-01-1.07644E-13-2.03827E-13
 -1       495 1.98328E+01-9.01324E-03-4.70697E-05 1.88881E-01-6.80742E-14-2.06260E-13
 -1       496 1.98398E+01-2.69160E-02-8.27051E-05 1.87128E-01-3.79485E-14-1.99883E-13
 -1       497 1.98543E+01-3.57843E-02-9.86254E-05 1.73566E-01-2.87162E-14-1.68248E-13
 -1       498 1.98722E+01-3.87633E-02-1.01958E-04 1.53904E-01 4.32982E-14-9.71244E-14
 -1       499 1.98910E+01-3.79873E-02-9.73683E-05 1.31934E-01 2.46485E-14-9.74616E-14
 -1       500 1.99091E+01-3.49015E-02-8.80291E-05 1.10126E-01 2.41012E-14-9.18813E-14
 -1       501 1.99259E+01-3.04587E-02-7.60325E-05 9.00433E-02-5.09804E-14-1.00887E-13
 -1       502 1.99409E+01-2.52496E-02-6.26511E-05 7.26537E-02-1.20740E-13-8.63766E-14
 -1       503 1.99542E+01-1.95934E-02-4.85374E-05 5.85580E-02-1.99760E-13-6.37520E-14
 -1       504 1.99662E+01-1.36030E-02-3.38739E-05 4.81648E-02-1.04543E-13-1.35782E-13
 -1       505 1.99774E+01-7.23337E-03-1.84842E-05 4.18219E-02-1.07061E-13-9.67819E-14
 -1       506 1.99886E+01-3.18397E-04-1.91526E-06 3.99168E-02-4.19628E-14-1.90863E-14
 -1       507 2.00005E+01 7.40019E-03 1.64961E-05 4.29514E-02 8.42054E-14-1.09909E-13
 -1       508 2.00141E+01 1.62462E-02 3.75613E-05 5.15968E-02 1.64905E-13-9.93942E-14
 -1       509 2.00305E+01 2.65802E-02 6.21697E-05 6.67257E-02 1.32490E-13-5.10575E-14
 -1       510 2.00511E+01 3.87622E-02 9.11904E-05 8.94218E-02-9.18641E-15-1.86184E-13
 -1       511 2.00772E+01 5.30968E-02 1.25322E-04 1.20957E-01-8.12066E-14-3.10806E-13
 -1       512 2.01106E+01 6.97490E-02 1.64853E-04 1.62723E-01-1.26604E-13-1.71035E-13
 -1       513 2.01530E+01 8.86147E-02 2.09276E-04 2.16097E-01-6.05273E-14-9.73651E-14
 -1       514 2.02064E+01 1.09121E-01 2.56683E-04 2.82211E-01-5.83598E-14-2.17054E-13
 -1       515 2.02727E+01 1.29924E-01 3.02834E-04 3.61577E-01 5.46575E-14-7.27340E-14
 -1       516 2.03542E+01 1.48466E-01 3.39784E-04 4.53522E-01 2.27593E-14-9.79936E-14
 -1       517 2.04532E+01 1.60342E-01 3.53983E-04 5.55344E-01-2.88911E-14-3.04105E-14
 -1       518 2.05724E+01 1.58458E-01 3.23942E-04 6.61112E-01-5.40265E-14-2.84091E-14
 -1       519 2.07153E+01 1.32044E-01 2.17944E-04 7.60031E-01-1.04061E-13-8.40036E-14
 -1       520 2.08869E+01 6.57769E-02-6.79274E-06 8.34334E-01-6.91130E-14-1.12767E-14
 -1       521 2.10946E+01-6.02080E-02-4.01661E-04 8.56804E-01 9.64686E-14 8.90325E-14
 -1       522 2.13489E+01-2.67771E-01-1.00970E-03 7.88407E-01 1.51924E-13 1.14135E-13
 -1       523 2.16615E+01-5.72506E-01-1.82918E-03 5.77287E-01 1.10892E-13 1.00589E-13
 -1       524 2.20377E+01-9.65142E-01-2.77299E-03 1.62506E-01-1.30211E-13-1.50447E-13
 -1       525 2.24584E+01-1.37933E+00-3.34419E-03-5.10646E-01 6.62592E-14-5.08315E-14
 -1       526 2.28485E+01-1.65182E+00-2.78395E-03-1.45057E+00 1.35887E-13 2.79066E-13
 -1       527 2.30521E+01-1.51688E+00-2.32260E-03-2.54481E+00 3.56160E-16 5.69102E-13
 -1       528 2.28626E+01-6.98046E-01-3.81480E-03-3.47200E+00 2.46221E-14 4.84557E-13
 -1       529 2.21671E+01 8.31021E-01-6.61749E-03-3.70343E+00 2.73663E-13 2.68226E-13
 -1       530 2.11563E+01 2.54823E+00-9.32502E-03-2.79499E+00 1.80914E-13 2.45357E-13
 -1       531 2.02710E+01 3.51980E+00-1.20832E-02-8.52202E-01 5.25926E-13 3.83038E-14
 -1       532 1.99109E+01 3.01851E+00-3.08198E-03 1.25851E+00 1.18861E-14 1.88498E-13
 -1       533 1.98114E+01 1.29094E-01 1.00187E-03-2.09546E-02 1.54693E-13-1.27806E-13
 -1       534 1.97537E+01 5.96356E-02 3.65123E-04-1.19527E-01 1.32528E-13-1.37434E-13
 -1       535 1.97350E+01 1.78259E-02 8.41258E-05-1.67677E-01 7.56951E-14-1.56222E-13
 -1       536 1.97410E+01-7.01359E-03-5.28094E-05-1.84284E-01 8.12740E-14-1.02783E-13
 -1       537 1.97613E+01-2.09978E-02-1.23202E-04-1.81648E-01 5.76850E-14-3.11934E-14
 -1       538 1.97887E+01-2.79220E-02-1.56204E-04-1.67927E-01 9.23115E-14-6.93675E-14
 -1       539 1.98185E+01-3.02693E-02-1.65920E-04-1.48546E-01 1.04689E-13-1.50579E-13
 -1       540 1.98477E+01-2.97100E-02-1.61030E-04-1.27076E-01 6.35593E-14-1.32942E-13
 -1       541 1.98747E+01-2.73726E-02-1.47275E-04-1.05823E-01 4.79473E-14-9.00508E-14
 -1       542 1.98986E+01-2.40034E-02-1.28480E-04-8.62319E-02-3.01640E-15-6.82258E-14
 -1       543 1.99195E+01-2.00691E-02-1.07026E-04-6.91786E-02 1.68477E-14-1.03882E-13
 -1       544 1.99374E+01-1.58269E-02-8.42164E-05-5.51900E-02 5.61172E-14-2.61067E-13
 -1       545 1.99529E+01-1.13741E-02-6.05391E-05-4.46070E-02 9.51876E-14-1.80720E-13
 -1       546 1.99669E+01-6.68438E-03-3.58548E-05-3.77100E-02-3.94964E-14-1.25946E-13
 -1       547 1.99803E+01-1.63354E-03-9.53175E-06-3.48164E-02-1.19847E-14-1.00049E-13
 -1       548 1.99941E+01 3.98243E-03 1.94583E-05-3.63571E-02 9.41193E-14-1.50878E-13
 -1       549 2.00098E+01 1.04338E-02 5.24688E-05-4.29372E-02 8.39453E-14-3.17947E-13
 -1       550 2.00287E+01 1.80459E-02 9.11167E-05-5.53850E-02 9.74444E-14-1.97425E-13
 -1       551 2.00526E+01 2.71879E-02 1.37211E-04-7.47874E-02-1.96284E-13-6.62604E-14
 -1       552 2.00836E+01 3.82558E-02 1.92646E-04-1.02511E-01-2.94095E-13-2.90553E-13
 -1       553 2.01239E+01 5.16447E-02 2.59205E-04-1.40203E-01-2.22281E-13-3.93574E-13
 -1       554 2.01760E+01 6.76984E-02 3.38208E-04-1.89752E-01-3.37287E-14-3.11495E-13
 -1       555 2.02429E+01 8.66190E-02 4.29853E-04-2.53195E-01 2.06921E-14-2.87913E-13
 -1       556 2.03276E+01 1.08305E-01 5.32028E-04-3.32529E-01-4.11697E-14-1.67047E-13
 -1       557 2.04332E+01 1.32064E-01 6.38235E-04-4.29351E-01-8.36296E-14-1.46805E-13
 -1       558 2.05627E+01 1.56120E-01 7.34111E-04-5.44244E-01 6.70828E-14-7.83531E-14
 -1       559 2.07190E+01 1.76785E-01 7.91978E-04-6.75739E-01 6.27525E-15 1.05873E-13
 -1       560 2.09047E+01 1.87139E-01 7.63149E-04-8.18618E-01-9.76506E-15 1.86382E-13
 -1       561 2.11226E+01 1.75087E-01 5.68925E-04-9.61268E-01-3.63485E-14 1.34933E-13
 -1       562 2.13764E+01 1.20894E-01 9.44850E-05-1.08177E+00 1.63375E-13 7.22474E-14
 -1       563 2.16731E+01-4.92287E-03-8.02300E-04-1.14258E+00 2.49410E-13-1.01916E-13
 -1       564 2.20250E+01-2.40620E-01-2.25348E-03-1.08432E+00 2.13004E-13-1.22796E-13
 -1       565 2.24497E+01-6.22553E-01-4.19769E-03-8.21052E-01 1.18459E-13-8.18470E-15
 -1       566 2.29606E+01-1.15265E+00-6.20494E-03-2.43742E-01-9.81834E-14-6.58280E-14
 -1       567 2.35318E+01-1.73031E+00-7.26538E-03 7.47831E-01-3.05868E-13-1.74717E-13
 -1       568 2.40439E+01-2.07414E+00-6.66693E-03 2.16027E+00-1.37751E-13-5.61996E-14
 -1       569 2.42072E+01-1.68711E+00-8.06568E-03 3.72880E+00-1.43957E-13 7.01430E-14
 -1       570 2.37181E+01-1.93450E-01-1.69074E-02 4.74790E+00 1.98283E-14 1.03876E-13
 -1       571 2.25833E+01 2.05986E+00-2.20962E-02 4.29703E+00 3.32429E-13 2.62553E-13
 -1       572 2.13928E+01 3.77728E+00-3.87180E-02 2.11675E+00 6.00034E-13 1.95251E-13
 -1       573 2.08485E+01 3.72301E+00-5.03358E-02-7.81485E-01 4.94242E-13 1.22678E-13
 -1       574 2.07568E+01 1.99920E+00-4.07412E-03-2.85043E+00 2.57771E-14 1.75583E-13
 -1       575 2.54955E+01 2.71406E+00-9.96165E-02-1.97627E+00 2.69784E-14 7.08496E-14
 -1       576 3.01852E+01 2.03165E+00-1.09956E-01 3.27867E-01 3.46577E-13 1.67311E-13
 -1       577 3.17339E+01-1.66420E+00 4.04624E-03-7.87153E+00-1.27280E-13-5.77732E-14
 -1       578 2.49307E+01 3.34095E+00-7.40054E-02 1.50476E+00 4.49016E-14-9.39318E-14
 -1       579 1.99261E+01 2.46499E-01 2.45892E-03 1.57554E-01 1.92898E-13-1.00175E-13
 -1       580 3.01324E+01 1.70840E+00-1.48014E-01-1.19099E+00-3.96523E-14-7.59254E-14
 -1       581 3.32303E+01 5.30175E+00-1.99649E-01 5.06054E+00-5.34989E-14-4.77951E-13
 -1       582 3.37848E+01 6.42529E+00-1.57474E-01 7.00983E-01 3.90438E-13 2.68827E-13
 -1       583 1.96792E+01 3.19865E+00-5.09466E-03-3.12661E-01-1.25179E-14-4.04516E-13
 -1       584 3.38620E+01 9.66605E+00-1.76384E-01 1.49684E+00 3.90091E-13 3.38979E-13
 -1       585 3.27616E+01-4.54991E-01-1.56403E-01 4.26186E+00 1.86781E-13-3.85213E-13
 -1       586 1.49025E+01-7.07445E+00 1.18836E-01-6.84397E+00 8.59035E-15-6.88435E-13
 -1       587 8.27319E+00-5.00132E+00 1.70421E-01-5.51432E+00 3.58290E-13-8.41119E-13
 -1       588 4.69679E+00-2.75587E+00 2.31598E-01-2.16876E-01 5.51131E-13-4.23883E-13
 -1       589 5.61202E+00-4.23592E+00 1.77945E-01 4.30905E+00 2.67002E-13 3.44585E-13
 -1       590 1.23250E+01-6.25465E+00 1.41068E-01 7.13540E+00 2.27235E-13 3.77490E-13
 -1       591 2.04084E+01-7.62814E+00 7.73095E-02 6.49646E+00-5.52614E-14-1.64799E-14
 -1       592 2.85483E+01-6.76180E+00 3.11009E-03 2.19524E+00-9.57776E-14-1.20098E-13
 -1       593 3.30552E+01-2.17967E+00-9.31797E-02-1.68231E+00 7.10248E-14-3.05617E-13
 -1       594 3.46444E+01 3.50963E+00-1.48023E-01-3.92914E+00 1.33962E-13-1.89876E-13
 -1       595 3.42930E+01 8.51121E+00-1.89583E-01-4.09783E+00 4.37608E-13 2.13482E-13
 -1       596 3.24596E+01 1.03217E+01-2.32041E-01-2.27255E+00 3.50747E-13 4.80234E-13
 -1       597 3.26763E+01 3.54695E+00-2.46140E-01-2.34686E+00-6.95416E-14-8.14765E-14
 -1       598 3.28337E+01 1.05140E+00-9.98379E-02 2.89188E+00 3.33011E-13-3.36953E-14
 -1       599 2.05865E+01 1.30529E+00-9.99401E-04 1.54701E+00 3.02374E-13 1.02592E-14
 -1       600 2.27279E+01-7.92750E+00 7.49954E-02-5.27450E+00 4.89886E-14 4.64183E-13
 -1       601 3.33613E+01 9.32184E+00-2.12706E-01 3.46979E+00 3.47944E-13-1.69136E-13
 -1       602 1.99784E+01 2.66317E+00-6.58209E-03-1.25367E+00-1.89400E-13-3.35732E-13
 -1       603 2.72866E+01-7.44258E+00-6.27415E-03-2.08093E+00 8.74648E-15 3.86968E-13
 -1       604 7.93502E+00-2.20522E+00 1.87736E-01-2.77170E+00 4.70724E-13-7.62959E-13
 -1       605 1.97238E+01 2.01184E+00-1.60257E-03 2.45432E+00-4.73892E-14 2.11809E-13
 -1       606 3.11656E+01-3.97264E+00-5.27547E-02 2.77797E+00 2.39732E-13-3.02536E-15
 -1       607 1.99586E+01 2.44992E+00-1.58427E-03 3.93757E-01 1.24391E-13-3.55658E-13
 -1       608 1.99265E+01 2.52491E+00-1.51668E-03 1.35631E-01 8.43759E-14-3.38612E-13
 -1       609 2.01196E+01 2.04644E+00-1.58265E-03 8.49500E-01 2.14055E-13-2.98370E-13
 -1       610 2.02394E+01 1.67566E+00-2.21801E-03 9.90811E-01 2.46006E-13-2.29640E-13
 -1       611 2.83906E+01 6.48147E+00-1.52414E-01 4.50346E+00 1.86948E-13-4.91333E-13
 -1       612 2.02899E+01 1.12606E+00 8.98554E-04-7.61889E-01-2.17742E-13-1.75951E-13
 -1       613 2.03198E+01 1.03706E+00 2.86128E-03 8.30453E-01 2.47880E-13-1.80314E-13
 -1       614 1.99417E+01 2.46686E-02 8.13297E-07-1.70562E-01 5.44810E-14-1.60593E-13
 -1       615 2.02400E+01 6.72757E-01 2.16258E-04-3.92454E-01-1.76681E-13-1.66204E-13
 -1       616 2.01675E+01 3.92142E-01 1.63407E-04-1.38486E-01-1.57372E-13-1.86485E-13
 -1       617 2.01020E+01 2.12512E-01 5.12329E-05 2.33755E-02-1.35404E-13-1.79164E-13
 -1       618 2.00516E+01 9.80915E-02 5.31676E-06 1.18260E-01-1.45136E-13-1.71295E-13
 -1       619 2.00164E+01 2.62030E-02-1.53246E-05 1.66861E-01-9.36196E-14-1.59190E-13
 -1       620 1.99938E+01-1.73895E-02-2.62960E-05 1.84687E-01-3.83664E-14-1.09622E-13
 -1       621 1.99805E+01-4.19894E-02-3.18687E-05 1.83016E-01 2.98854E-15-6.60874E-14
 -1       622 1.99738E+01-5.38929E-02-3.35669E-05 1.69842E-01 8.35512E-14-4.48731E-14
 -1       623 1.99716E+01-5.74385E-02-3.25966E-05 1.50703E-01 1.67810E-14-4.43341E-14
 -1       624 1.99723E+01-5.56215E-02-2.99068E-05 1.29353E-01-4.07807E-14-4.91954E-14
 -1       625 1.99748E+01-5.04774E-02-2.62284E-05 1.08276E-01-5.43674E-14-7.38529E-14
 -1       626 1.99783E+01-4.33355E-02-2.20474E-05 8.90791E-02-6.53506E-14-7.50864E-14
 -1       627 1.99823E+01-3.49974E-02-1.76399E-05 7.27914E-02-1.71745E-13-5.14911E-14
 -1       628 1.99868E+01-2.58650E-02-1.31170E-05 6.00969E-02-1.92629E-13 3.82893E-14
 -1       629 1.99916E+01-1.60361E-02-8.46358E-06 5.15076E-02-8.45371E-14 1.91827E-14
 -1       630 1.99967E+01-5.37641E-03-3.56705E-06 4.74973E-02 1.48901E-14-1.00072E-14
 -1       631 2.00024E+01 6.42517E-03 1.75997E-06 4.86018E-02-3.69397E-14 1.63555E-14
 -1       632 2.00089E+01 1.98085E-02 7.76182E-06 5.54926E-02 8.88931E-14-1.41113E-13
 -1       633 2.00164E+01 3.52960E-02 1.47221E-05 6.90256E-02 1.16366E-13-2.44035E-13
 -1       634 2.00253E+01 5.34384E-02 2.29420E-05 9.02664E-02-1.29715E-14-2.40057E-13
 -1       635 2.00360E+01 7.47411E-02 3.27090E-05 1.20485E-01-1.07608E-13-1.71904E-13
 -1       636 2.00489E+01 9.95579E-02 4.42474E-05 1.61111E-01-9.67138E-15-1.25968E-13
 -1       637 2.00644E+01 1.27930E-01 5.76390E-05 2.13641E-01 4.30761E-14-1.41656E-13
 -1       638 2.00831E+01 1.59345E-01 7.26962E-05 2.79467E-01 5.14977E-14 1.02102E-13
 -1       639 2.01055E+01 1.92382E-01 8.87615E-05 3.59614E-01 5.30086E-14 2.28362E-13
 -1       640 2.01328E+01 2.24187E-01 1.04398E-04 4.54339E-01-8.99277E-14 1.10001E-13
 -1       641 2.01666E+01 2.49743E-01 1.16930E-04 5.62571E-01 4.03030E-14-1.09964E-13
 -1       642 2.02098E+01 2.60861E-01 1.21778E-04 6.81124E-01-6.73372E-14-1.66746E-13
 -1       643 2.02679E+01 2.44926E-01 1.11535E-04 8.03647E-01-1.73249E-14-2.40100E-13
 -1       644 2.03503E+01 1.83513E-01 7.46439E-05 9.19213E-01-9.99985E-14 9.57639E-14
 -1       645 2.04734E+01 5.13956E-02-6.35563E-06 1.01042E+00 5.85198E-14 1.39236E-13
 -1       646 2.06634E+01-1.82833E-01-1.60971E-04 1.05075E+00-2.86268E-14-1.25272E-13
 -1       647 2.09586E+01-5.51878E-01-4.10652E-04 1.00078E+00 7.97537E-14-1.05424E-13
 -1       648 2.14085E+01-1.07530E+00-7.44308E-04 8.02767E-01-7.29648E-14-2.35463E-13
 -1       649 2.20586E+01-1.72664E+00-1.33142E-03 3.76661E-01 1.48100E-13-3.37647E-14
 -1       650 2.29166E+01-2.37653E+00-1.20712E-03-3.73743E-01 1.71683E-13 6.21444E-14
 -1       651 2.38806E+01-2.71395E+00 8.17429E-04-1.50683E+00 2.49200E-13-2.88877E-14
 -1       652 2.46525E+01-2.23142E+00-4.87798E-03-2.93525E+00-1.48397E-14 1.57062E-13
 -1       653 2.47936E+01-4.45463E-01-1.68618E-02-4.17587E+00 6.30845E-14 1.41528E-13
 -1       654 2.41220E+01 2.41006E+00-4.55899E-02-4.29542E+00 2.85647E-13 1.62082E-13
 -1       655 2.30684E+01 5.00414E+00-5.39166E-02-2.75139E+00 3.54335E-14 2.22272E-13
 -1       656 2.22200E+01 5.57070E+00-4.46022E-02-1.39502E-01 2.78782E-13-1.51606E-13
 -1       657 1.99736E+01 8.78822E-02 5.72344E-05-1.20696E-01 1.16631E-13-1.51821E-13
 -1       658 2.00274E+01 1.89415E-01 1.73843E-04-2.22638E-02 1.29664E-13-1.67465E-13
 -1       659 1.99258E+01-1.34950E-02-2.91039E-05-1.88637E-01 3.19459E-14-1.36820E-13
 -1       660 1.99210E+01-3.50561E-02-4.52357E-05-1.86773E-01 9.30177E-14-1.64822E-13
 -1       661 1.99232E+01-4.55996E-02-5.23548E-05-1.73206E-01 9.02750E-14-8.53202E-14
 -1       662 1.99294E+01-4.89182E-02-5.35172E-05-1.53581E-01 6.97535E-14-6.08577E-14
 -1       663 1.99378E+01-4.76134E-02-5.07283E-05-1.31696E-01-1.32418E-15 1.11391E-14
 -1       664 1.99469E+01-4.34527E-02-4.55653E-05-1.10045E-01 1.45923E-14-6.33650E-15
 -1       665 1.99560E+01-3.75959E-02-3.90740E-05-9.02268E-02 3.08888E-14-2.28145E-14
 -1       666 1.99648E+01-3.07508E-02-3.18796E-05-7.32496E-02 6.82430E-14-6.90035E-14
 -1       667 1.99731E+01-2.32830E-02-2.42851E-05-5.97658E-02 2.69194E-14-5.54456E-14
 -1       668 1.99811E+01-1.52958E-02-1.63471E-05-5.02480E-02 1.51391E-14-5.15534E-14
 -1       669 1.99891E+01-6.68868E-03-7.92927E-06-4.51255E-02-2.59131E-14-3.26134E-14
 -1       670 1.99975E+01 2.80063E-03 1.25995E-06-4.48892E-02 6.34703E-14-1.52595E-13
 -1       671 2.00069E+01 1.35647E-02 1.16406E-05-5.01731E-02 1.20015E-13-5.49220E-14
 -1       672 2.00177E+01 2.61015E-02 2.37414E-05-6.18168E-02 3.77365E-14-4.37374E-14
 -1       673 2.00308E+01 4.09902E-02 3.81816E-05-8.09106E-02 9.45381E-15 1.04213E-13
 -1       674 2.00469E+01 5.88628E-02 5.56470E-05-1.08822E-01-1.36957E-13 3.73181E-14
 -1       675 2.00669E+01 8.03609E-02 7.68503E-05-1.47198E-01-1.79109E-13-5.56522E-14
 -1       676 2.00916E+01 1.06066E-01 1.02458E-04-1.97934E-01-1.94333E-13-1.48716E-13
 -1       677 2.01219E+01 1.36378E-01 1.32954E-04-2.63094E-01-7.89683E-15-1.85241E-13
 -1       678 2.01584E+01 1.71315E-01 1.68389E-04-3.44756E-01-9.58832E-15-1.47433E-13
 -1       679 2.02018E+01 2.10163E-01 2.07927E-04-4.44744E-01-3.59792E-14-1.43691E-13
 -1       680 2.02526E+01 2.50896E-01 2.49063E-04-5.64195E-01-7.46363E-14-7.41859E-14
 -1       681 2.03115E+01 2.89222E-01 2.86296E-04-7.02893E-01 1.38248E-14 3.15065E-14
 -1       682 2.03798E+01 3.17060E-01 3.08965E-04-8.58255E-01 4.21388E-14-1.28328E-13
 -1       683 2.04610E+01 3.20241E-01 2.97752E-04-1.02384E+00 5.25638E-15-3.19014E-13
 -1       684 2.05637E+01 2.75340E-01 2.18969E-04-1.18719E+00 1.83381E-13-3.69205E-13
 -1       685 2.07061E+01 1.46019E-01 1.71255E-05-1.32666E+00 3.22514E-13-4.29123E-13
 -1       686 2.09240E+01-1.19347E-01-3.82850E-04-1.40673E+00 2.21195E-13-3.65972E-13
 -1       687 2.12789E+01-5.83857E-01-1.08053E-03-1.37061E+00 7.42290E-14-1.91246E-13
 -1       688 2.18627E+01-1.30056E+00-1.87631E-03-1.12898E+00 3.55209E-14 1.16170E-13
 -1       689 2.27832E+01-2.25130E+00-2.10278E-03-5.42962E-01-2.16247E-13 2.55033E-13
 -1       690 2.40797E+01-3.20428E+00-7.64523E-04 5.57200E-01-1.35425E-13 1.03256E-13
 -1       691 2.55491E+01-3.59916E+00-1.50707E-02 2.28976E+00-1.09952E-13-1.31981E-13
 -1       692 2.66542E+01-2.35910E+00-2.66313E-02 4.27383E+00 2.21025E-14-2.85787E-13
 -1       693 2.67423E+01 1.01692E+00-8.42543E-02 5.47544E+00-3.90070E-14-4.27018E-13
 -1       694 2.99570E+01 2.50163E+00-1.82774E-01 5.42613E+00 4.05370E-14-5.25469E-13
 -1       695 2.35670E+01 5.86973E+00-7.58310E-02 7.64842E-01 1.70322E-13-1.07362E-13
 -1       696 2.01059E+01 3.53243E-01 6.09401E-04 1.47794E-01 1.95656E-13-1.79620E-13
 -1       697 2.87244E+01 8.27004E+00-2.10426E-01 1.69460E+00 5.07858E-13-2.22722E-13
 -1       698 2.02065E+01 6.14078E-01 9.76155E-04 4.19199E-01 2.34646E-13-1.79550E-13
 -1       699 2.86567E+01 8.62453E+00-1.92767E-01-3.24387E+00 2.99566E-13 7.41967E-14
 -1       700 2.72075E+01 5.87125E+00-1.50506E-01-9.27906E-01 2.75356E-13 1.22759E-13
 -1       701 2.74264E+01 8.16990E+00-1.90142E-01-1.99472E-01 2.68757E-13 3.19062E-13
 -1       702 2.00228E+01 2.29535E+00-1.65110E-03 6.37221E-01 1.72220E-13-3.36675E-13
 -1       703 2.00162E+01 2.30622E+00-1.85177E-03-6.27628E-01-1.01231E-13-3.21418E-13
 -1       704 1.38267E+01-4.79652E+00 1.37131E-01-5.78706E+00 1.28387E-13-3.56513E-13
 -1       705 1.16066E+01-3.43446E+00 1.46916E-01 5.43549E+00 2.36165E-14 3.40672E-13
 -1       706 1.77712E+01-5.99247E+00 1.00224E-01 6.29274E+00-5.99590E-14-5.39516E-13
 -1       707 2.45254E+01-7.00188E+00 4.88447E-02 3.82501E+00-2.06564E-13-8.89367E-14
 -1       708 2.98408E+01-4.37080E+00-5.37668E-02-1.51787E+00 3.47210E-14-3.32540E-13
 -1       709 3.09391E+01 1.04555E-01-1.19898E-01-4.23764E+00 1.16289E-13-3.40665E-13
 -1       710 3.00827E+01 5.10440E+00-1.73439E-01-4.91318E+00-1.25677E-13-4.86867E-14
 -1       711 1.96335E+01-6.58280E+00 1.02077E-01-5.49923E+00-1.84384E-13 2.14537E-13
 -1       712 8.52296E+00-1.67189E+00 1.71592E-01 2.58504E+00 7.36702E-14-1.31589E-13
 -1       713 2.01075E+01 2.06717E+00-2.39484E-03-8.43687E-01-1.49669E-13-2.98463E-13
 -1       714 1.99255E+01 2.52661E+00-1.51118E-03-1.26384E-01 3.77784E-15-3.81914E-13
 -1       715 2.96571E+01-6.51936E-01-9.72085E-02 5.02400E+00 7.29278E-14-2.87388E-13
 -1       716 2.51858E+01 6.77019E+00-1.41617E-01 1.04361E+00 6.65946E-13 1.72674E-14
 -1       717 2.71529E+01-5.90966E+00 7.46035E-04 6.46450E-01-1.50668E-13-2.79698E-14
 -1       718 2.02558E+01 1.60405E+00-8.34616E-04-9.93743E-01-2.01634E-13-2.35761E-13
 -1       719 2.39233E+01-6.97997E+00 2.50623E-02-3.39717E+00-2.72976E-14 3.94807E-13
 -1       720 9.24160E+00-8.97971E-01 1.32399E-01 1.70941E-01 3.19509E-13-7.09845E-13
 -1       721 1.99554E+01 2.45566E+00-1.56327E-03-3.83820E-01-4.13015E-14-3.37807E-13
 -1       722 1.17997E+01-2.42643E+00 1.07636E-01-4.07279E+00 2.29681E-13-5.36737E-13
 -1       723 2.02712E+01 1.30165E+00 8.38856E-04 6.29769E-01 2.01940E-13-2.21568E-13
 -1       724 2.00886E+01 2.27894E-02-1.01015E-05-1.61173E-01 4.94380E-14-1.61882E-13
 -1       725 2.02906E+01 7.25861E-01-4.43355E-04-2.90773E-01-1.70569E-13-1.90327E-13
 -1       726 2.02616E+01 4.32960E-01 3.69082E-05-9.23822E-02-1.38420E-13-1.54158E-13
 -1       727 2.02210E+01 2.34115E-01-1.21529E-05 3.67318E-02-1.07295E-13-1.21969E-13
 -1       728 2.01793E+01 1.03469E-01-1.20389E-05 1.13819E-01-8.70887E-14-6.35989E-14
 -1       729 2.01415E+01 2.00820E-02-1.04806E-05 1.53158E-01-3.60500E-14-5.27372E-14
 -1       730 2.01094E+01-3.05702E-02-9.85730E-06 1.66821E-01 3.61244E-14-2.08594E-14
 -1       731 2.00831E+01-5.87362E-02-9.35605E-06 1.64029E-01 6.02421E-14 5.19568E-14
 -1       732 2.00622E+01-7.16800E-02-8.79759E-06 1.51529E-01 3.01138E-14-1.05638E-14
 -1       733 2.00460E+01-7.45413E-02-7.99013E-06 1.34095E-01-2.94183E-14-6.50375E-14
 -1       734 2.00338E+01-7.09085E-02-6.99847E-06 1.15008E-01-3.82205E-14-1.06522E-13
 -1       735 2.00247E+01-6.32151E-02-5.91809E-06 9.64655E-02-9.70966E-14-1.21259E-13
 -1       736 2.00183E+01-5.30244E-02-4.81888E-06 7.99174E-02-1.09208E-13-1.38780E-13
 -1       737 2.00139E+01-4.12395E-02-3.73487E-06 6.63249E-02-1.73412E-13-7.37117E-14
 -1       738 2.00111E+01-2.82610E-02-2.66892E-06 5.63667E-02-1.06309E-13 1.74407E-14
 -1       739 2.00094E+01-1.41061E-02-1.59952E-06 5.05951E-02-2.95123E-14-1.75689E-14
 -1       740 2.00085E+01 1.49974E-03-4.86225E-07 4.95553E-02 4.84330E-14-8.69546E-15
 -1       741 2.00079E+01 1.90479E-02 7.26549E-07 5.38742E-02 4.71469E-15 1.18982E-13
 -1       742 2.00073E+01 3.91798E-02 2.10680E-06 6.43239E-02 1.53181E-14 5.91066E-14
 -1       743 2.00063E+01 6.26165E-02 3.73291E-06 8.18607E-02 1.01436E-13-8.01421E-14
 -1       744 2.00043E+01 9.00713E-02 5.69164E-06 1.07639E-01 2.55829E-14 2.46372E-14
 -1       745 2.00007E+01 1.22131E-01 8.07575E-06 1.42997E-01-9.38718E-14 1.64500E-13
 -1       746 1.99950E+01 1.59086E-01 1.09805E-05 1.89403E-01 5.72936E-14 2.31520E-13
 -1       747 1.99864E+01 2.00675E-01 1.44982E-05 2.48360E-01 1.12693E-13 1.85385E-13
 -1       748 1.99743E+01 2.45727E-01 1.87104E-05 3.21246E-01 9.90465E-14-2.75525E-14
 -1       749 1.99584E+01 2.91639E-01 2.36768E-05 4.09099E-01-8.82306E-14-2.76304E-14
 -1       750 1.99391E+01 3.33647E-01 2.94259E-05 5.12319E-01-1.52353E-13 8.61820E-14
 -1       751 1.99179E+01 3.63837E-01 3.59532E-05 6.30307E-01-1.21894E-13-6.50493E-14
 -1       752 1.98992E+01 3.69856E-01 4.32064E-05 7.61022E-01-1.63512E-13-1.13970E-13
 -1       753 1.98918E+01 3.33335E-01 5.08389E-05 9.00450E-01 1.11002E-13-1.50847E-13
 -1       754 1.99120E+01 2.28227E-01 5.70430E-05 1.04185E+00 5.44197E-14 2.48252E-14
 -1       755 1.99876E+01 1.96335E-02 5.62566E-05 1.17436E+00-8.39069E-14 1.11451E-14
 -1       756 2.01639E+01-3.35486E-01 2.08867E-05 1.28007E+00 2.54694E-15 1.48871E-13
 -1       757 2.05097E+01-8.82640E-01-3.94967E-05 1.32757E+00-1.02862E-14-1.05962E-14
 -1       758 2.11234E+01-1.65330E+00 2.70271E-04 1.25645E+00 2.09415E-13 1.91067E-13
 -1       759 2.21061E+01-2.60680E+00-1.46206E-04 9.51194E-01 2.30502E-13 2.55555E-13
 -1       760 2.35476E+01-3.56172E+00-2.07038E-03 2.04764E-01 2.96870E-13 2.76294E-13
 -1       761 2.52514E+01-3.98786E+00-1.13185E-02-1.10360E+00 1.20062E-13 8.64040E-14
 -1       762 2.67900E+01-2.87100E+00-2.62398E-02-2.94986E+00 5.71626E-14 3.06600E-14
 -1       763 2.62791E+01 4.86650E+00-1.10469E-01-4.42850E+00 2.80897E-13-4.73420E-13
 -1       764 2.58981E+01 7.78852E+00-1.37018E-01-2.21530E+00 1.65694E-13-1.79901E-13
 -1       765 2.01251E+01 1.00918E-01-6.79618E-06-1.17992E-01 7.79310E-14-1.55499E-13
 -1       766 2.01700E+01 2.24038E-01 9.86443E-06-3.33756E-02 1.30960E-13-2.08991E-13
 -1       767 2.00398E+01-5.12443E-02-1.40801E-05-1.73938E-01 3.16733E-14-1.57338E-13
 -1       768 2.00249E+01-6.37488E-02-1.48047E-05-1.60910E-01 2.97204E-14-6.05603E-14
 -1       769 2.00147E+01-6.69500E-02-1.43346E-05-1.42496E-01-1.81435E-14-6.46552E-14
 -1       770 2.00079E+01-6.41695E-02-1.31096E-05-1.22199E-01-2.59965E-14-8.38922E-14
 -1       771 2.00037E+01-5.76642E-02-1.14556E-05-1.02352E-01 5.84918E-14-4.33969E-14
 -1       772 2.00016E+01-4.88947E-02-9.58009E-06-8.44816E-02 4.43280E-14-7.95195E-14
 -1       773 2.00008E+01-3.87200E-02-7.59787E-06-6.95839E-02 2.61567E-14 1.90973E-15
 -1       774 2.00013E+01-2.75396E-02-5.55082E-06-5.83470E-02-8.51776E-16 2.26316E-14
 -1       775 2.00025E+01-1.53993E-02-3.42335E-06-5.13160E-02-1.80157E-14-1.42224E-14
 -1       776 2.00045E+01-2.06902E-03-1.15423E-06-4.90213E-02 1.93203E-14-5.80777E-14
 -1       777 2.00071E+01 1.28991E-02 1.35517E-06-5.20767E-02 5.08991E-14 1.33819E-13
 -1       778 2.00100E+01 3.01249E-02 4.23528E-06-6.12535E-02 4.85259E-14 2.29396E-13
 -1       779 2.00133E+01 5.03597E-02 7.64457E-06-7.75329E-02-4.32532E-14 2.52342E-13
 -1       780 2.00167E+01 7.44440E-02 1.17666E-05-1.02138E-01-2.44595E-15 3.25525E-13
 -1       781 2.00198E+01 1.03250E-01 1.68069E-05-1.36540E-01-6.34634E-15 1.48910E-13
 -1       782 2.00223E+01 1.37599E-01 2.29893E-05-1.82438E-01-5.03039E-14-2.38063E-14
 -1       783 2.00235E+01 1.78128E-01 3.05487E-05-2.41698E-01-1.68047E-13-9.38917E-14
 -1       784 2.00223E+01 2.25074E-01 3.97215E-05-3.16237E-01-1.11984E-13-7.69904E-14
 -1       785 2.00175E+01 2.77931E-01 5.07279E-05-4.07850E-01-1.25951E-13 1.36378E-13
 -1       786 2.00074E+01 3.34893E-01 6.37441E-05-5.17955E-01 1.10410E-13-1.29187E-14
 -1       787 1.99905E+01 3.91965E-01 7.88522E-05-6.47260E-01-6.43146E-14-3.30018E-13
 -1       788 1.99658E+01 4.41584E-01 9.59039E-05-7.95367E-01 4.41539E-14-3.26063E-13
 -1       789 1.99341E+01 4.70518E-01 1.13968E-04-9.60345E-01 1.20308E-13-2.93707E-13
 -1       790 1.99011E+01 4.56829E-01 1.29095E-04-1.13831E+00 1.54340E-13-4.64062E-13
 -1       791 1.98819E+01 3.65828E-01 1.27146E-04-1.32298E+00 2.58510E-13-5.09307E-13
 -1       792 1.99097E+01 1.45515E-01 7.66040E-05-1.50466E+00 1.76152E-13-3.78532E-13
 -1       793 2.00478E+01-2.76529E-01-3.77078E-05-1.66717E+00-1.43528E-13 4.27766E-14
 -1       794 2.04080E+01-9.89549E-01-1.69446E-04-1.77784E+00-2.11547E-13 3.50686E-13
 -1       795 2.11616E+01-2.06932E+00 5.02639E-04-1.75967E+00-1.53086E-13 2.85864E-13
 -1       796 2.25772E+01-3.51702E+00-3.38082E-03-1.40971E+00-1.41976E-16-4.91690E-14
 -1       797 2.48512E+01-4.91256E+00 1.33950E-02-4.49164E-01 6.73180E-14-2.59985E-13
 -1       798 2.02781E+01 1.17238E+00 4.37578E-04-5.65724E-01-1.67552E-13-2.12267E-13
 -1       799 2.02200E+01 4.13719E-01-1.54635E-04 1.10088E-01 1.49332E-13-1.84918E-13
 -1       800 1.63319E+01-3.87122E+00 7.73056E-02 5.22981E+00 1.12566E-14-1.23245E-13
 -1       801 2.00605E+01-2.46673E-02-1.26537E-05-1.76457E-01 7.01375E-14-1.94435E-13
 -1       802 1.78270E+01-4.54177E+00 9.06158E-02-4.89948E+00-2.44769E-14 3.68729E-13
 -1       803 2.78614E+01-5.40213E+00 1.83716E-02 1.18927E+00-3.95630E-14-2.07839E-13
 -1       804 2.01368E+01 1.88944E+00-3.52440E-04 1.99009E-01 8.52132E-14-3.02182E-13
 -1       805 2.02763E+01 9.43931E-01 1.24227E-05 5.51830E-01 2.49596E-13-1.84317E-13
 -1       806 2.83835E+01-2.01847E+00-5.12724E-02-3.68742E+00 5.73500E-14-4.33837E-14
 -1       807 2.13217E+01-5.65343E+00 3.19265E-02 4.41117E+00 1.47186E-13 2.02512E-14
 -1       808 2.78654E+01 1.57406E+00-7.66665E-02-4.86462E+00 9.55069E-14 9.40168E-14
 -1       809 1.20233E+01-1.75483E+00 9.27028E-02 3.73327E+00 6.55179E-14 2.01533E-13
 -1       810 2.02233E+01 1.58988E+00-8.32734E-05-7.18831E-01-1.39065E-13-2.71225E-13
 -1       811 2.01242E+01 1.92845E+00-4.20369E-04 4.09742E-03 2.73034E-14-2.80432E-13
 -1       812 2.76222E+01-3.94203E+00-3.29559E-02 3.04905E+00 2.36005E-14-2.40872E-13
 -1       813 1.13957E+01-7.17648E-01 7.41471E-02 1.89454E+00 2.45337E-13-2.12236E-13
 -1       814 2.12613E+01-5.34868E+00 3.03020E-02-3.71363E+00-1.13277E-13 5.82000E-15
 -1       815 2.02539E+01 6.30975E-01-4.07867E-04 2.96227E-01 1.97216E-13-1.78187E-13
 -1       816 2.76836E+01-4.52693E+00 9.01654E-03-1.47729E+00 7.70608E-14-9.82010E-14
 -1       817 2.02179E+01 1.58274E+00-2.76700E-04 5.33404E-01 1.41912E-13-2.94061E-13
 -1       818 2.01656E+01 1.78502E+00-3.08009E-04-3.74962E-01-5.22534E-14-2.90239E-13
 -1       819 1.11442E+01-7.95938E-01 6.52802E-02-1.72434E+00 2.02551E-13-6.00457E-13
 -1       820 2.01694E+01 1.77598E+00-3.67109E-04 3.81169E-01 1.35415E-13-3.31136E-13
 -1       821 2.44593E+01-5.79118E+00 1.16712E-02 2.15586E+00 1.12093E-13 1.25984E-14
 -1       822 2.01825E+01 1.72250E+00-5.18110E-04-5.50759E-01-1.21970E-13-2.72553E-13
 -1       823 2.03366E+01 7.20948E-01-1.87696E-04-1.89613E-01-1.14147E-13-1.48605E-13
 -1       824 2.03284E+01 4.30698E-01-3.89808E-05-4.59544E-02-8.85023E-14-1.39477E-13
 -1       825 2.03027E+01 2.27202E-01-1.37027E-05 4.82132E-02-2.90433E-14-1.20049E-13
 -1       826 2.02662E+01 9.14544E-02-9.57087E-06 1.03712E-01-4.78281E-14-9.10509E-14
 -1       827 2.02267E+01 4.55886E-03-6.50242E-06 1.31153E-01-2.71510E-14-1.06720E-13
 -1       828 2.01884E+01-4.77178E-02-4.16997E-06 1.39321E-01 4.66061E-14-1.25181E-13
 -1       829 2.01536E+01-7.58880E-02-3.08291E-06 1.35146E-01 3.49947E-15-1.17568E-13
 -1       830 2.01232E+01-8.76360E-02-2.36238E-06 1.23799E-01-3.42560E-14-1.71766E-13
 -1       831 2.00976E+01-8.84866E-02-1.82423E-06 1.08985E-01-7.06571E-14-2.14703E-13
 -1       832 2.00764E+01-8.23080E-02-1.40042E-06 9.32685E-02-3.76369E-14-2.29508E-13
 -1       833 2.00594E+01-7.16975E-02-1.06660E-06 7.83855E-02-9.91561E-14-1.67940E-13
 -1       834 2.00458E+01-5.82783E-02-8.11021E-07 6.54994E-02-3.02565E-14-1.13283E-13
 -1       835 2.00350E+01-4.29282E-02-6.24951E-07 5.54115E-02-5.63279E-14 3.18598E-14
 -1       836 2.00263E+01-2.59551E-02-5.00808E-07 4.87237E-02-9.97398E-14 1.48985E-13
 -1       837 2.00189E+01-7.23253E-03-4.32002E-07 4.59653E-02-2.96638E-14 1.11148E-13
 -1       838 2.00120E+01 1.36938E-02-4.12853E-07 4.76883E-02 8.97578E-14 1.16531E-13
 -1       839 2.00046E+01 3.75149E-02-4.38191E-07 5.45383E-02 4.66308E-14 7.17579E-14
 -1       840 1.99957E+01 6.50717E-02-5.02411E-07 6.73039E-02-9.93502E-15 5.30352E-14
 -1       841 1.99841E+01 9.72585E-02-5.97745E-07 8.69452E-02 1.24494E-13-4.98547E-14
 -1       842 1.99686E+01 1.34900E-01-7.11397E-07 1.14602E-01 4.25661E-14-9.91691E-14
 -1       843 1.99476E+01 1.78581E-01-8.21008E-07 1.51581E-01 1.24116E-13 7.26032E-14
 -1       844 1.99194E+01 2.28411E-01-8.87736E-07 1.99309E-01-3.30165E-14 9.73804E-14
 -1       845 1.98823E+01 2.83682E-01-8.45469E-07 2.59276E-01-3.88937E-14-2.86914E-14
 -1       846 1.98346E+01 3.42403E-01-5.82076E-07 3.32939E-01-3.40304E-14-1.55402E-13
 -1       847 1.97752E+01 4.00650E-01 1.00344E-07 4.21637E-01-8.71896E-15-1.42012E-13
 -1       848 1.97036E+01 4.51707E-01 1.58210E-06 5.26518E-01-6.32159E-14 6.87652E-14
 -1       849 1.96214E+01 4.84947E-01 4.64879E-06 6.48552E-01-1.55117E-13 2.98442E-14
 -1       850 1.95334E+01 4.84419E-01 1.08660E-05 7.88686E-01-1.06358E-13-5.32294E-14
 -1       851 1.94502E+01 4.27151E-01 2.26506E-05 9.48160E-01 2.33912E-13-3.04207E-14
 -1       852 1.93915E+01 2.81248E-01 4.17049E-05 1.12885E+00-6.60298E-14-2.82724E-14
 -1       853 1.93921E+01 4.13220E-03 6.72043E-05 1.33299E+00 6.34687E-14 7.99976E-14
 -1       854 1.95109E+01-4.58258E-01 8.10192E-05 1.56046E+00-2.89307E-14 2.22492E-13
 -1       855 1.98412E+01-1.16636E+00 5.59512E-04 1.79885E+00 6.73855E-14 1.92721E-13
 -1       856 2.05414E+01-2.19339E+00-2.10867E-03 2.00871E+00 2.71768E-13 5.87419E-14
 -1       857 2.18385E+01-3.50571E+00 1.40140E-02 2.06684E+00 3.34823E-13 3.86998E-14
 -1       858 2.02676E+01 2.29444E-01-1.74795E-05-4.60629E-02 7.19214E-14-1.65386E-13
 -1       859 2.00762E+01-8.24863E-02-9.99106E-07-1.20859E-01 1.85563E-14-4.58951E-14
 -1       860 2.00978E+01-8.07280E-02-1.08681E-06-1.37043E-01 2.95413E-14-7.65953E-14
 -1       861 2.01241E+01-6.84406E-02-1.09894E-06-1.49152E-01 3.39756E-15-1.02514E-13
 -1       862 2.00588E+01-7.74593E-02-8.98031E-07-1.03484E-01-6.18241E-14-7.99090E-14
 -1       863 2.00451E+01-6.81724E-02-7.86137E-07-8.68575E-02 1.14863E-14-5.15045E-14
 -1       864 2.00346E+01-5.62231E-02-6.63227E-07-7.22735E-02-3.03615E-14 6.14553E-14
 -1       865 2.00267E+01-4.24987E-02-5.28029E-07-6.06082E-02-8.34469E-15 8.96033E-16
 -1       866 2.00206E+01-2.73416E-02-3.75274E-07-5.25048E-02 6.54605E-14-3.80684E-14
 -1       867 2.00158E+01-1.06724E-02-1.94704E-07-4.85134E-02 5.87808E-15 2.46948E-15
 -1       868 2.00117E+01 7.91627E-03 2.92091E-08-4.91988E-02-7.94084E-14 3.72104E-14
 -1       869 2.00076E+01 2.90873E-02 3.17632E-07-5.52200E-02 2.88192E-14 3.59420E-14
 -1       870 2.00027E+01 5.36983E-02 6.98169E-07-6.73879E-02 3.34683E-15 7.84721E-14
 -1       871 1.99960E+01 8.27425E-02 1.20639E-06-8.66997E-02-9.24593E-14 8.59998E-14
 -1       872 1.99864E+01 1.17279E-01 1.88864E-06-1.14352E-01 2.32918E-14 3.89119E-14
 -1       873 1.99725E+01 1.58341E-01 2.80721E-06-1.51724E-01 8.32982E-14 2.42329E-14
 -1       874 1.99525E+01 2.06796E-01 4.04976E-06-2.00338E-01-1.10234E-13-3.56903E-14
 -1       875 1.99242E+01 2.63142E-01 5.74637E-06-2.61771E-01-1.96628E-13-2.21059E-14
 -1       876 1.98849E+01 3.27193E-01 8.09980E-06-3.37546E-01-1.09364E-13 7.21590E-14
 -1       877 1.98315E+01 3.97602E-01 1.14385E-05-4.28986E-01 1.50466E-13-3.20597E-13
 -1       878 1.97604E+01 4.71136E-01 1.63059E-05-5.37082E-01 2.31168E-13-1.45257E-13
 -1       879 1.96681E+01 5.41612E-01 2.35912E-05-6.62446E-01 1.56035E-14-4.02343E-13
 -1       880 1.95516E+01 5.98315E-01 3.45822E-05-8.05494E-01-3.11496E-14-3.81850E-13
 -1       881 1.94107E+01 6.23723E-01 5.02000E-05-9.67076E-01 1.60352E-13-2.21549E-13
 -1       882 1.92501E+01 5.90314E-01 6.66618E-05-1.14986E+00 1.90476E-13-2.08360E-13
 -1       883 1.90857E+01 4.56268E-01 6.02280E-05-1.36057E+00 1.14400E-13-4.71156E-14
 -1       884 1.89532E+01 1.60164E-01 7.28426E-06-1.61282E+00-2.09113E-13 9.16388E-14
 -1       885 1.89255E+01-3.84425E-01 3.12866E-04-1.92769E+00-3.38858E-13 1.95560E-13
 -1       886 1.91340E+01-1.29289E+00 1.43709E-04-2.33251E+00-1.06283E-13 1.45828E-14
 -1       887 1.98467E+01-2.66521E+00 2.21240E-02-2.78952E+00 3.23409E-14-1.78160E-14
 -1       888 2.02994E+01 4.29782E-01-1.71289E-05 6.29332E-02 1.41409E-13-1.78014E-13
 -1       889 2.01338E+01 1.89463E+00-4.53671E-04-1.91164E-01-2.47053E-14-3.31320E-13
 -1       890 1.56850E+01-1.94877E+00 3.54425E-02 3.75617E+00 1.91994E-13 1.88269E-13
 -1       891 2.01908E+01 1.12186E-02-4.06035E-06-1.42741E-01 8.30561E-14-1.23352E-13
 -1       892 2.01553E+01-4.02768E-02-8.66813E-07-1.53006E-01 4.81819E-14-1.04215E-13
 -1       893 2.02293E+01 9.63585E-02-9.40077E-06-1.10474E-01 4.25840E-14-1.18848E-13
 -1       894 1.94821E+01-3.79560E+00 2.35043E-02 3.89688E+00 2.32152E-13-5.02185E-14
 -1       895 2.02682E+01 1.32457E+00 6.37405E-04-4.61078E-01-1.35189E-13-2.59436E-13
 -1       896 1.56788E+01-2.13806E+00 5.52714E-02-3.75734E+00-4.79564E-15 1.45691E-13
 -1       897 2.03121E+01 7.28552E-01 3.14479E-04 2.29576E-01 1.68920E-13-1.85032E-13
 -1       898 2.02588E+01 1.41335E+00 3.22547E-04-3.32291E-01-8.15395E-14-2.17222E-13
 -1       899 2.02332E+01 1.54041E+00-2.92348E-04-1.98005E-01-1.88513E-14-2.98106E-13
 -1       900 1.44344E+01-8.94999E-01 3.17171E-02 2.78204E+00 1.35088E-13 1.33372E-13
 -1       901 1.19141E+01-2.13077E-01 4.02858E-02 1.06388E-01 1.46667E-13-6.97322E-13
 -1       902 2.03011E+01 1.00479E+00-4.76356E-04 3.65399E-01 1.77461E-13-1.95979E-13
 -1       903 2.02822E+01 1.34100E+00-1.89910E-05 1.96005E-01 6.94078E-14-2.89432E-13
 -1       904 2.02718E+01 1.40941E+00 4.99818E-05 6.89653E-02 2.78385E-14-2.25759E-13
 -1       905 2.03737E+01 6.74253E-01-2.05369E-05-1.03400E-01-8.86398E-14-1.42436E-13
 -1       906 2.03785E+01 3.92496E-01 1.74795E-05-8.69161E-03-6.47198E-14-1.21145E-13
 -1       907 2.03570E+01 1.96502E-01-1.80346E-05 5.11099E-02-3.38255E-14-1.88828E-13
 -1       908 2.03215E+01 6.54495E-02-6.70519E-06 8.57462E-02-1.07236E-14-1.58935E-13
 -1       909 2.02797E+01-1.77911E-02-1.87213E-06 1.01697E-01 1.55725E-14-1.39072E-13
 -1       910 2.02370E+01-6.67365E-02-7.98095E-10 1.04871E-01 4.05189E-14-1.53314E-13
 -1       911 2.01965E+01-9.16789E-02 1.10746E-06 9.99821E-02-2.15051E-14-1.40769E-13
 -1       912 2.01602E+01-1.00272E-01 1.61989E-06 9.05724E-02-7.38963E-14-8.89410E-14
 -1       913 2.01286E+01-9.80421E-02 1.78134E-06 7.91801E-02-6.74112E-14-1.35603E-13
 -1       914 2.01019E+01-8.88314E-02 1.72229E-06 6.75673E-02-2.71951E-14-1.16991E-13
 -1       915 2.00797E+01-7.51696E-02 1.51026E-06 5.69342E-02 1.14371E-14-9.31837E-14
 -1       916 2.00614E+01-5.85713E-02 1.17783E-06 4.81019E-02-3.60508E-15-8.87438E-14
 -1       917 2.00462E+01-3.97706E-02 7.32722E-07 4.16598E-02-3.35173E-14-1.98835E-13
 -1       918 2.00329E+01-1.89043E-02 1.62742E-07 3.80821E-02 9.63493E-15-3.04310E-15
 -1       919 2.00205E+01 4.34518E-03-5.61281E-07 3.78177E-02 8.19254E-14 8.95969E-14
 -1       920 2.00078E+01 3.06331E-02-1.48343E-06 4.13590E-02 2.36477E-14 8.95819E-15
 -1       921 1.99933E+01 6.08484E-02-2.66117E-06 4.92924E-02-5.11554E-14-9.27000E-14
 -1       922 1.99754E+01 9.60094E-02-4.16410E-06 6.23343E-02 1.38836E-14-1.36924E-13
 -1       923 1.99522E+01 1.37141E-01-6.07287E-06 8.13536E-02 1.15898E-13-5.29947E-14
 -1       924 1.99217E+01 1.85116E-01-8.47860E-06 1.07382E-01 1.28935E-13-2.56319E-14
 -1       925 1.98814E+01 2.40440E-01-1.14843E-05 1.41611E-01 6.03749E-14-1.25551E-13
 -1       926 1.98286E+01 3.02956E-01-1.52111E-05 1.85387E-01-7.51263E-14 1.06875E-14
 -1       927 1.97608E+01 3.71439E-01-1.98143E-05 2.40207E-01-8.82826E-14-1.05471E-13
 -1       928 1.96750E+01 4.43062E-01-2.55146E-05 3.07734E-01 4.01842E-14-1.47237E-13
 -1       929 1.95690E+01 5.12703E-01-3.26424E-05 3.89891E-01 1.09062E-13-6.24339E-14
 -1       930 1.94413E+01 5.72074E-01-4.16763E-05 4.89076E-01-1.13848E-13 2.68869E-14
 -1       931 1.92919E+01 6.08666E-01-5.32559E-05 6.08633E-01-1.24634E-13 1.70477E-13
 -1       932 1.91240E+01 6.04479E-01-6.84554E-05 7.53714E-01 1.07755E-13 2.46936E-13
 -1       933 1.89451E+01 5.34468E-01-9.12665E-05 9.32696E-01 1.03681E-13 2.93332E-14
 -1       934 1.87712E+01 3.64509E-01-1.35220E-04 1.15911E+00 3.13562E-14 1.44985E-13
 -1       935 1.86318E+01 4.88474E-02-2.26335E-04 1.45346E+00 1.29740E-13 2.92668E-13
 -1       936 1.85805E+01-4.74991E-01-1.03110E-03 1.84559E+00 9.28063E-14 2.26779E-13
 -1       937 1.87488E+01-1.29525E+00 2.01623E-03 2.36481E+00 4.12447E-14 2.71744E-13
 -1       938 2.00917E+01-8.62480E-02 6.47424E-06-7.93565E-02-6.59473E-14-2.18287E-14
 -1       939 2.01161E+01-9.41325E-02 7.69015E-06-9.29101E-02 1.51161E-14-3.53812E-14
 -1       940 2.01791E+01-8.50694E-02 9.72692E-06-1.16525E-01 4.31950E-15-5.42871E-14
 -1       941 2.00717E+01-7.39284E-02 5.26051E-06-6.67767E-02-7.07224E-14 3.06312E-14
 -1       942 2.00555E+01-5.87344E-02 4.10429E-06-5.61431E-02 1.34076E-14 2.15489E-14
 -1       943 2.00421E+01-4.14578E-02 3.02616E-06-4.81413E-02 8.19507E-14-2.98473E-14
 -1       944 2.00309E+01-2.22978E-02 2.02283E-06-4.33064E-02-1.41646E-14-2.38693E-14
 -1       945 2.00208E+01-9.95718E-04 1.07535E-06-4.21287E-02-6.30462E-14 5.60737E-14
 -1       946 2.00108E+01 2.30612E-02 1.55062E-07-4.51317E-02 1.12961E-14-4.23921E-14
 -1       947 1.99995E+01 5.07545E-02-7.71891E-07-5.29280E-02-3.04579E-14-1.69126E-15
 -1       948 1.99856E+01 8.31573E-02-1.74096E-06-6.62547E-02-5.93934E-14 6.35243E-14
 -1       949 1.99673E+01 1.21452E-01-2.78567E-06-8.59867E-02-3.66504E-14-1.05833E-13
 -1       950 1.99426E+01 1.66831E-01-3.93381E-06-1.13129E-01 5.18912E-14-1.52026E-14
 -1       951 1.99091E+01 2.20357E-01-5.20312E-06-1.48783E-01 1.96727E-14 3.96462E-15
 -1       952 1.98637E+01 2.82768E-01-6.59741E-06-1.94083E-01-1.01741E-13-2.85198E-14
 -1       953 1.98029E+01 3.54204E-01-8.10594E-06-2.50116E-01-6.78491E-14-3.12608E-13
 -1       954 1.97226E+01 4.33805E-01-9.71472E-06-3.17820E-01 8.73258E-14-1.55848E-13
 -1       955 1.96179E+01 5.19163E-01-1.14520E-05-3.97929E-01 5.76094E-14-5.45574E-14
 -1       956 1.94833E+01 6.05554E-01-1.35293E-05-4.91011E-01 1.70168E-13 9.12612E-15
 -1       957 1.93130E+01 6.84906E-01-1.67436E-05-5.97782E-01 6.31286E-14-4.31283E-14
 -1       958 1.91013E+01 7.44432E-01-2.35954E-05-7.19954E-01-7.34452E-14-1.43646E-13
 -1       959 1.88430E+01 7.64805E-01-4.15235E-05-8.62044E-01-3.18436E-14 1.79709E-14
 -1       960 1.85352E+01 7.17618E-01-8.96883E-05-1.03476E+00 1.90464E-14 1.55561E-13
 -1       961 1.81804E+01 5.61697E-01-1.80439E-04-1.26011E+00-1.33422E-13 1.98562E-13
 -1       962 1.77898E+01 2.38807E-01-3.16101E-04-1.57946E+00-2.88968E-13 2.24394E-13
 -1       963 1.73971E+01-3.44040E-01 3.49037E-04-2.07187E+00-1.60240E-13 1.26397E-13
 -1       964 1.70671E+01-1.29773E+00 9.81588E-03-2.83181E+00-2.03596E-14 2.30776E-13
 -1       965 2.02171E+01-5.87501E-02 1.11662E-05-1.21438E-01 1.70571E-14-1.02113E-13
 -1       966 2.03540E+01 6.95558E-01-9.12481E-07 1.36349E-01 1.47348E-13-1.61938E-13
 -1       967 2.03573E+01 4.07400E-01 4.42817E-05 2.12980E-02 9.26846E-14-1.77258E-13
 -1       968 1.93163E+01-3.42001E+00 3.48718E-02-3.43437E+00 1.51589E-13 1.94259E-13
 -1       969 2.02578E+01-8.39252E-03 1.11453E-05-1.16478E-01 8.39684E-14-1.22158E-13
 -1       970 2.01452E+01-9.50233E-02 8.80718E-06-1.06003E-01 5.04040E-15-1.91074E-14
 -1       971 2.03341E+01 2.08883E-01-1.59288E-05-5.27667E-02 2.26392E-14-1.53817E-13
 -1       972 1.82678E+01-2.14294E+00 6.67413E-03 3.16607E+00 1.45995E-13-3.24343E-14
 -1       973 2.02984E+01 7.62592E-02 8.42038E-07-9.59089E-02 5.79611E-14-1.45880E-13
 -1       974 2.02962E+01 1.20631E+00-7.08900E-06 3.01402E-01 9.83366E-14-3.00555E-13
 -1       975 2.03357E+01 9.29219E-01-3.30503E-05 2.12403E-01 1.31485E-13-2.20586E-13
 -1       976 2.02479E+01 1.50061E+00-2.22184E-04-5.66153E-02 1.83190E-16-2.74670E-13
 -1       977 1.42379E+01-4.32110E-01 3.23156E-02-2.06985E+00-1.18863E-13-4.18015E-13
 -1       978 2.03377E+01 1.05616E+00-1.87753E-04-1.67975E-01-5.45491E-14-2.13416E-13
 -1       979 1.69147E+01-1.21996E+00 1.29072E-02 2.83500E+00-2.62241E-14-7.34777E-14
 -1       980 1.38858E+01-1.24808E-01 1.56951E-02 1.54304E+00 1.57006E-13-1.58068E-13
 -1       981 2.03406E+01 1.05212E+00-9.74241E-06 1.47784E-01 3.97770E-14-2.80047E-13
 -1       982 2.03393E+01 1.11899E+00-1.67780E-05 5.89639E-02 9.41081E-15-2.20973E-13
 -1       983 2.04102E+01 3.28983E-01 1.07145E-05 1.03144E-02-6.69420E-14-1.96309E-13
 -1       984 2.03876E+01 1.49139E-01-5.18855E-05 4.18168E-02-4.15909E-14-1.99454E-13
 -1       985 2.03497E+01 3.05502E-02-2.92518E-05 5.90654E-02-2.39805E-15-1.72022E-13
 -1       986 2.03051E+01-4.33123E-02-1.39537E-05 6.59550E-02 5.27238E-14-1.21267E-13
 -1       987 2.02592E+01-8.50105E-02-3.69388E-06 6.58987E-02 7.91196E-15-1.49726E-13
 -1       988 2.02156E+01-1.04273E-01 2.17727E-06 6.16157E-02-1.44126E-16-1.50214E-13
 -1       989 2.01761E+01-1.08349E-01 5.33417E-06 5.51042E-02-5.25809E-14-7.16219E-14
 -1       990 2.01416E+01-1.02429E-01 6.60634E-06 4.77893E-02-1.00430E-13-1.30462E-13
 -1       991 2.01123E+01-9.00626E-02 6.55428E-06 4.06603E-02 8.87753E-15-1.49986E-13
 -1       992 2.00875E+01-7.35133E-02 5.54490E-06 3.43963E-02-8.65273E-15-2.69273E-13
 -1       993 2.00666E+01-5.40484E-02 3.80380E-06 2.94735E-02-4.71192E-14-1.58466E-13
 -1       994 2.00485E+01-3.21674E-02 1.44625E-06 2.62519E-02-5.67188E-15-8.33201E-14
 -1       995 2.00320E+01-7.78203E-03-1.49860E-06 2.50446E-02 6.29440E-14-2.09645E-13
 -1       996 2.00156E+01 1.96397E-02-5.06738E-06 2.61713E-02-2.19214E-14-2.48096E-13
 -1       997 1.99977E+01 5.09531E-02-9.34476E-06 3.00006E-02 9.88095E-15-2.28114E-13
 -1       998 1.99764E+01 8.72247E-02-1.44474E-05 3.69830E-02-8.47643E-16-1.06108E-13
 -1       999 1.99496E+01 1.29612E-01-2.05089E-05 4.76766E-02 1.18735E-13-6.61277E-14
 -1      1000 1.99147E+01 1.79221E-01-2.76663E-05 6.27693E-02 1.59473E-13-1.97770E-13
 -1      1001 1.98691E+01 2.36912E-01-3.60519E-05 8.30988E-02 6.89718E-14-7.46172E-14
 -1      1002 1.98094E+01 3.03055E-01-4.57968E-05 1.09676E-01-1.00768E-13-9.85437E-14
 -1      1003 1.97322E+01 3.77189E-01-5.70649E-05 1.43724E-01 2.32050E-14-9.47187E-14
 -1      1004 1.96337E+01 4.57588E-01-7.01445E-05 1.86742E-01-3.73527E-14 1.46032E-13
 -1      1005 1.95098E+01 5.40717E-01-8.56498E-05 2.40638E-01 2.30686E-14-1.00987E-13
 -1      1006 1.93568E+01 6.20581E-01-1.04922E-04 3.07973E-01 2.59349E-14-1.49052E-13
 -1      1007 1.91710E+01 6.87997E-01-1.30821E-04 3.92417E-01 3.12409E-14-3.90374E-14
 -1      1008 1.89491E+01 7.29818E-01-1.69346E-04 4.99563E-01 4.70508E-15 6.41339E-14
 -1      1009 1.86887E+01 7.28141E-01-2.33390E-04 6.38342E-01-6.89813E-15-4.64319E-14
 -1      1010 1.83877E+01 6.59368E-01-3.54363E-04 8.23461E-01 1.18108E-13 5.85705E-14
 -1      1011 1.80460E+01 4.92326E-01-5.87428E-04 1.07932E+00 1.87149E-13 1.58556E-13
 -1      1012 1.76696E+01 1.84717E-01-5.32325E-04 1.44388E+00 6.12656E-15-7.97807E-14
 -1      1013 1.72667E+01-3.13889E-01-5.28818E-04 1.96616E+00 3.25093E-14-2.33409E-14
 -1      1014 2.00849E+01-7.45446E-02 1.11473E-05-4.46398E-02-4.92324E-14-2.17079E-14
 -1      1015 2.00651E+01-5.62883E-02 8.56987E-06-3.80432E-02 5.61522E-14-1.08440E-14
 -1      1016 2.01087E+01-8.98807E-02 1.32058E-05-5.28458E-02-9.38474E-14-8.13483E-14
 -1      1017 2.00482E+01-3.57043E-02 5.63631E-06-3.35162E-02 5.41513E-15 8.00011E-14
 -1      1018 2.00331E+01-1.27850E-02 2.41205E-06-3.14419E-02-1.10341E-14 6.28806E-14
 -1      1019 2.00185E+01 1.29382E-02-1.10758E-06-3.21915E-02 5.32051E-14-2.59829E-14
 -1      1020 2.00028E+01 4.22850E-02-4.97519E-06-3.61720E-02-3.27023E-14-4.03034E-14
 -1      1021 1.99844E+01 7.63293E-02-9.27273E-06-4.38550E-02-3.40770E-14-8.61217E-14
 -1      1022 1.99612E+01 1.16305E-01-1.40955E-05-5.57897E-02 4.24092E-14-1.54216E-13
 -1      1023 1.99309E+01 1.63498E-01-1.95382E-05-7.25968E-02-1.10656E-13-1.07979E-13
 -1      1024 1.98905E+01 2.19109E-01-2.56842E-05-9.49415E-02-1.35013E-13 7.14338E-14
 -1      1025 1.98369E+01 2.84068E-01-3.26041E-05-1.23485E-01 4.96407E-14 9.82318E-14
 -1      1026 1.97659E+01 3.58787E-01-4.03764E-05-1.58813E-01 1.30896E-13-1.65334E-13
 -1      1027 1.96730E+01 4.42819E-01-4.91591E-05-2.01354E-01-8.25073E-14-8.43159E-14
 -1      1028 1.95528E+01 5.34419E-01-5.93789E-05-2.51308E-01 2.57999E-14-1.66954E-13
 -1      1029 1.93991E+01 6.29994E-01-7.21890E-05-3.08645E-01 1.02093E-13-1.48900E-13
 -1      1030 1.92045E+01 7.23435E-01-9.05595E-05-3.73265E-01 8.48712E-14-4.04411E-14
 -1      1031 1.89604E+01 8.05384E-01-1.21788E-04-4.45524E-01 7.83068E-15-1.34374E-14
 -1      1032 1.86563E+01 8.62481E-01-1.82477E-04-5.27406E-01-1.19135E-14-5.29763E-14
 -1      1033 1.82782E+01 8.76707E-01-3.05930E-04-6.24901E-01-6.06533E-14-1.74943E-13
 -1      1034 1.78057E+01 8.24453E-01-5.95507E-04-7.52858E-01-1.55893E-13-4.35705E-14
 -1      1035 1.72128E+01 6.71385E-01-9.18371E-04-9.42335E-01-2.04905E-13-3.38966E-14
 -1      1036 1.64498E+01 3.80074E-01 1.32614E-03-1.24283E+00-1.48761E-13-2.32126E-13
 -1      1037 1.55019E+01 4.95078E-02 9.85663E-03-1.56574E+00-1.01174E-13-3.76847E-13
 -1      1038 2.02509E+01-7.77052E-02 7.88473E-06-8.42129E-02-1.05137E-14-5.35406E-15
 -1      1039 2.03938E+01 6.21421E-01 3.07693E-04 5.96380E-02 7.13381E-14-1.82334E-13
 -1      1040 2.02086E+01-9.93405E-02 1.24801E-05-7.93342E-02 1.21112E-14-1.07087E-14
 -1      1041 2.02955E+01-3.30024E-02 2.51132E-06-8.32795E-02 3.04465E-14-2.03108E-14
 -1      1042 2.01370E+01-1.00927E-01 1.44525E-05-6.20356E-02-3.29075E-14-4.84753E-14
 -1      1043 2.01703E+01-1.05305E-01 1.44298E-05-7.13059E-02 2.54108E-14-6.90015E-15
 -1      1044 1.40884E+01 2.53889E-01 1.52698E-02-2.98412E-01-5.30882E-14-3.57708E-13
 -1      1045 2.03966E+01 3.55356E-01 1.09879E-04-5.83839E-03 2.79008E-14-1.00583E-13
 -1      1046 2.04096E+01 5.82496E-01 5.60817E-05-3.86044E-02-4.51720E-14-1.87444E-13
 -1      1047 1.59214E+01-4.00327E-01 8.48956E-03 2.16428E+00-9.54900E-15-1.69347E-14
 -1      1048 2.03386E+01 4.53853E-02 7.45734E-05-7.30042E-02 3.50475E-14-7.84594E-14
 -1      1049 2.03752E+01 1.68460E-01-7.77638E-05-4.89694E-02 1.70641E-14-8.53524E-14
 -1      1050 2.03218E+01 1.20353E+00-2.71042E-05-2.97501E-02 2.17856E-14-2.14874E-13
 -1      1051 2.03321E+01 1.14544E+00 5.92107E-04-1.06009E-01-1.88454E-14-2.86544E-13
 -1      1052 2.03978E+01 7.42622E-01 3.70999E-04 5.34651E-02-3.69712E-15-2.22365E-13
 -1      1053 2.00658E+01-4.94355E-02-6.09377E-06-1.96573E-02 3.04226E-14-1.96674E-13
 -1      1054 2.03963E+01 9.56128E-02 2.53737E-04 2.00662E-02 4.48177E-15-1.00133E-13
 -1      1055 2.03545E+01-6.27710E-03 9.41935E-05 2.44928E-02 3.51372E-14-1.21649E-13
 -1      1056 2.03073E+01-6.72209E-02 7.03696E-05 2.57068E-02-6.78935E-15-1.80942E-13
 -1      1057 2.02598E+01-9.94396E-02 5.72807E-05 2.48383E-02-2.10165E-14-1.57980E-13
 -1      1058 2.02153E+01-1.11843E-01 4.46276E-05 2.27290E-02 7.84988E-16-1.70521E-13
 -1      1059 2.01752E+01-1.10954E-01 3.38807E-05 2.00359E-02-6.62276E-14-7.82856E-14
 -1      1060 2.01404E+01-1.01373E-01 2.52428E-05 1.72274E-02-2.99301E-14-3.50867E-14
 -1      1061 2.01107E+01-8.61699E-02 1.85877E-05 1.46289E-02-6.96477E-14-1.26270E-13
 -1      1062 2.00854E+01-6.72091E-02 1.37086E-05 1.24673E-02 3.39893E-14-1.52632E-13
 -1      1063 2.00637E+01-4.54247E-02 1.04004E-05 1.09087E-02-1.87183E-14-1.13749E-13
 -1      1064 2.00443E+01-2.10329E-02 8.49396E-06 1.00901E-02-8.17785E-14-6.34222E-14
 -1      1065 2.00257E+01 6.29783E-03 7.87337E-06 1.01444E-02-2.18104E-14-1.35773E-13
 -1      1066 2.00062E+01 3.73093E-02 8.48540E-06 1.12229E-02-4.59723E-14-1.55313E-13
 -1      1067 1.99840E+01 7.30342E-02 1.03463E-05 1.35139E-02 4.53747E-14-2.28930E-13
 -1      1068 1.99567E+01 1.14679E-01 1.35501E-05 1.72623E-02 1.75458E-14-1.33629E-13
 -1      1069 1.99217E+01 1.63493E-01 1.82815E-05 2.27911E-02 4.53066E-14-1.92656E-13
 -1      1070 1.98762E+01 2.20606E-01 2.48407E-05 3.05276E-02 1.08174E-13-3.22735E-13
 -1      1071 1.98166E+01 2.86819E-01 3.36892E-05 4.10402E-02 9.00834E-15-3.39476E-13
 -1      1072 1.97390E+01 3.62324E-01 4.55353E-05 5.50911E-02-2.39199E-14-2.10948E-13
 -1      1073 1.96391E+01 4.46351E-01 6.14928E-05 7.37161E-02 9.16825E-14-2.29305E-13
 -1      1074 1.95120E+01 5.36735E-01 8.33734E-05 9.83470E-02-4.12503E-14-7.54061E-14
 -1      1075 1.93523E+01 6.29406E-01 1.14196E-04 1.31005E-01-2.13155E-14-2.72837E-14
 -1      1076 1.91541E+01 7.17867E-01 1.58947E-04 1.74608E-01-2.52507E-14-5.70595E-14
 -1      1077 1.89105E+01 7.92715E-01 2.25160E-04 2.33461E-01 1.09507E-14-7.06333E-14
 -1      1078 1.86129E+01 8.41325E-01 3.21112E-04 3.14055E-01-5.24511E-14-1.17377E-14
 -1      1079 1.82495E+01 8.47810E-01 4.44019E-04 4.26335E-01 6.05427E-14 3.43402E-14
 -1      1080 1.78018E+01 7.93236E-01 5.32119E-04 5.85681E-01 7.58226E-14-4.45518E-14
 -1      1081 1.72390E+01 6.53584E-01-1.55304E-04 8.16870E-01-1.66562E-13-1.65665E-13
 -1      1082 1.65439E+01 3.98403E-01 3.00287E-03 1.15222E+00 4.72273E-14-1.81345E-13
 -1      1083 2.00873E+01-7.03417E-02-8.84829E-06-2.26640E-02-1.07561E-14-1.71426E-13
 -1      1084 2.01126E+01-8.83801E-02-1.17473E-05-2.66468E-02-1.39490E-13-1.71572E-13
 -1      1085 2.00289E+01 2.31629E-04-1.70761E-06-1.74781E-02 2.77788E-14-9.40525E-14
 -1      1086 2.00106E+01 2.99114E-02-4.10800E-07-1.87130E-02 2.36804E-14 4.09458E-14
 -1      1087 1.99900E+01 6.40453E-02 1.08552E-08-2.17852E-02-4.49714E-15-1.39871E-14
 -1      1088 1.99650E+01 1.03844E-01-7.34555E-07-2.69372E-02 2.69961E-14-1.10751E-14
 -1      1089 1.99330E+01 1.50619E-01-3.03874E-06-3.44273E-02-5.18626E-14 1.85757E-14
 -1      1090 1.98912E+01 2.05643E-01-7.41957E-06-4.45075E-02-1.43850E-13-1.02938E-13
 -1      1091 1.98361E+01 2.69974E-01-1.45463E-05-5.73834E-02-7.62195E-14-2.24087E-13
 -1      1092 1.97637E+01 3.44223E-01-2.52646E-05-7.31547E-02 1.39586E-13-1.72011E-13
 -1      1093 1.96695E+01 4.28249E-01-4.06279E-05-9.17361E-02 5.67541E-14-1.58043E-13
 -1      1094 1.95480E+01 5.20782E-01-6.19623E-05-1.12766E-01 9.25322E-14-3.58775E-13
 -1      1095 1.93930E+01 6.18963E-01-9.10532E-05-1.35522E-01 5.66970E-14-3.35379E-13
 -1      1096 1.91973E+01 7.17858E-01-1.30731E-04-1.58884E-01 2.16962E-14-2.08486E-13
 -1      1097 1.89520E+01 8.09992E-01-1.86627E-04-1.81413E-01 5.77034E-14-9.38872E-14
 -1      1098 1.86457E+01 8.85032E-01-2.71700E-04-2.01650E-01 8.56261E-14-1.93376E-13
 -1      1099 1.82624E+01 9.29817E-01-4.12936E-04-2.18748E-01-1.18428E-14-1.63908E-13
 -1      1100 1.77776E+01 9.29071E-01-6.22647E-04-2.33486E-01-4.05174E-15-3.38115E-13
 -1      1101 1.71490E+01 8.69099E-01-4.10804E-04-2.49042E-01-1.30845E-13-4.35829E-13
 -1      1102 1.62933E+01 7.35674E-01-7.72025E-04-2.98459E-01-1.34030E-13-3.12538E-13
 -1      1103 1.54164E+01 5.08941E-01 8.54801E-03-3.05972E-01-9.53441E-14-3.51930E-13
 -1      1104 2.04294E+01 4.74953E-01-2.01140E-04-7.48323E-03-7.43759E-14-1.61657E-13
 -1      1105 2.04217E+01 4.34698E-01-3.16811E-04 7.99121E-03 1.87853E-14-1.63905E-13
 -1      1106 2.02618E+01-9.41459E-02-1.95104E-05-4.39451E-02-1.54025E-14-1.42933E-13
 -1      1107 2.03088E+01-5.78751E-02-2.31723E-05-4.46436E-02-2.47064E-14-1.24260E-13
 -1      1108 2.00468E+01-2.59916E-02-3.66024E-06-1.78606E-02-1.69351E-14-1.71732E-13
 -1      1109 2.01424E+01-1.02475E-01-1.45647E-05-3.13008E-02-3.95103E-14-1.79922E-13
 -1      1110 2.01773E+01-1.10587E-01-1.69990E-05-3.61962E-02 1.70291E-14-1.79078E-13
 -1      1111 2.04247E+01 2.48709E-01-7.86709E-05 1.06628E-02-3.45819E-14-1.29425E-13
 -1      1112 2.04065E+01 7.68032E-01 1.49657E-04 6.55965E-03 6.34683E-16-2.40191E-13
 -1      1113 2.02174E+01-1.09433E-01-1.86946E-05-4.07099E-02 1.82462E-14-1.63526E-13
 -1      1114 2.03548E+01 8.61398E-03-1.24066E-04-4.09936E-02-4.44765E-14-1.28842E-13
 -1      1115 2.03980E+01 7.93428E-01-1.28610E-04-2.81420E-02 2.08795E-15-2.01018E-13
 -1      1116 2.04073E+01 2.23427E-01-3.95799E-04-2.58113E-02 2.69990E-14-1.64434E-13
 -1      1117 1.52655E+01 4.36621E-01-2.87314E-03 6.97189E-01 9.13707E-14-3.12676E-13
 -1      1118 2.03880E+01 9.50915E-02-1.65896E-04-3.48111E-02 2.50345E-14-1.69756E-13
 -1      1119 2.04348E+01 3.52840E-01 5.64096E-04 6.37305E-04-2.87672E-14-1.39642E-13
 -1      1120 2.79641E+01 9.08689E+00 2.32531E+00-6.69798E+00-3.88578E-14 1.18408E-12
 -1      1121 2.05488E+01 6.22761E+00 2.09820E-01-3.90341E+00-1.89571E-14 1.38327E-13
 -1      1122 1.94357E+01 5.85334E+00 7.54238E-02-2.88722E+00-1.44190E-14-2.99188E-13
 -1      1123 1.90264E+01 5.72602E+00 6.03259E-02-2.23417E+00-9.33975E-15-5.15313E-13
 -1      1124 1.88394E+01 5.66908E+00 5.75109E-02-1.70077E+00-5.08621E-15-6.10791E-13
 -1      1125 1.87455E+01 5.64031E+00 5.55485E-02-1.23357E+00-3.92048E-15-6.55414E-13
 -1      1126 1.86962E+01 5.62499E+00 5.37639E-02-8.03887E-01-1.62544E-15-6.61250E-13
 -1      1127 1.86719E+01 5.61731E+00 5.24861E-02-3.92597E-01 1.99276E-16-6.59629E-13
 -1      1128 1.86649E+01 5.61511E+00 5.20821E-02 8.48302E-03 4.77049E-16-6.49238E-13
 -1      1129 1.86729E+01 5.61766E+00 5.25973E-02 4.09975E-01 3.23114E-15-6.44624E-13
 -1      1130 1.86983E+01 5.62569E+00 5.39933E-02 8.22599E-01 3.60779E-15-6.28596E-13
 -1      1131 1.87493E+01 5.64167E+00 5.62126E-02 1.25485E+00 5.55545E-15-5.91276E-13
 -1      1132 1.88450E+01 5.67104E+00 5.84403E-02 1.72653E+00 7.91728E-15-5.25733E-13
 -1      1133 1.90320E+01 5.72773E+00 6.04146E-02 2.26756E+00 1.03390E-14-3.98888E-13
 -1      1134 1.94321E+01 5.85042E+00 6.92626E-02 2.92778E+00 1.45994E-14-1.45776E-13
 -1      1135 2.04550E+01 6.18251E+00 1.53366E-01 3.87801E+00 1.84297E-14 3.24341E-13
 -1      1136 2.52186E+01 7.99475E+00 1.43045E+00 5.84615E+00 4.00235E-14 1.30546E-12
 -1      1137 2.88138E+01 3.61623E+00 1.27110E+00-4.21691E+00-1.51767E-13 1.84314E-12
 -1      1138 2.02298E+01-1.77744E-01-6.16327E-01-1.09832E-01-5.05568E-14 1.49653E-12
 -1      1139 1.88364E+01-9.63649E-02-2.36352E-01 6.25322E-02-2.11723E-14 9.80552E-13
 -1      1140 1.85031E+01-4.80990E-02-5.96347E-02 4.05276E-02-1.33248E-14 5.97980E-13
 -1      1141 1.84489E+01-2.46169E-02-1.52143E-02 2.68260E-02-9.67499E-15 3.76862E-13
 -1      1142 1.85316E+01-1.30612E-02-4.98319E-03 1.90967E-02-1.34101E-14 2.27957E-13
 -1      1143 1.86795E+01-6.61704E-03-1.48702E-03 1.41565E-02-9.32414E-18 1.16287E-13
 -1      1144 1.88531E+01-2.84204E-03 5.53349E-04 1.07376E-02-1.24296E-14-3.66703E-14
 -1      1145 1.90299E+01-5.99418E-04 1.88119E-03 8.21137E-03 1.21863E-15-1.02880E-13
 -1      1146 1.91969E+01 7.07116E-04 2.63972E-03 6.26846E-03-1.36150E-14-2.77067E-13
 -1      1147 1.93474E+01 1.42018E-03 2.96454E-03 4.74466E-03 2.66592E-15-3.70062E-13
 -1      1148 1.94782E+01 1.75079E-03 2.99113E-03 3.54152E-03 3.69393E-15-3.34412E-13
 -1      1149 1.95887E+01 1.83596E-03 2.82885E-03 2.59202E-03 9.00517E-15-3.40652E-13
 -1      1150 1.96796E+01 1.76718E-03 2.55690E-03 1.84587E-03-6.02987E-15-2.45250E-13
 -1      1151 1.97528E+01 1.60571E-03 2.22918E-03 1.26293E-03-5.44744E-15-2.76073E-13
 -1      1152 1.98103E+01 1.39151E-03 1.87993E-03 8.10130E-04-2.54619E-14-4.21885E-13
 -1      1153 1.98547E+01 1.14897E-03 1.52843E-03 4.60161E-04-1.61753E-14-5.60163E-13
 -1      1154 1.98882E+01 8.90864E-04 1.18240E-03 1.90801E-04-1.92598E-14-6.20745E-13
 -1      1155 1.99135E+01 6.21107E-04 8.40618E-04-1.53315E-05-2.46556E-14-8.57427E-13
 -1      1156 1.99328E+01 3.36831E-04 4.94805E-04-1.70834E-04 8.55504E-15-8.50991E-13
 -1      1157 1.99487E+01 2.99188E-05 1.31014E-04-2.83387E-04-9.98221E-15-6.84252E-13
 -1      1158 1.99637E+01-3.11759E-04-2.69326E-04-3.55434E-04-1.28160E-14-6.24255E-13
 -1      1159 1.99808E+01-7.03233E-04-7.28527E-04-3.83623E-04 3.73030E-15-5.27499E-13
 -1      1160 2.00033E+01-1.16119E-03-1.27166E-03-3.57980E-04-1.41807E-14-5.54442E-13
 -1      1161 2.00351E+01-1.70236E-03-1.92516E-03-2.60772E-04 3.15230E-14-4.02971E-13
 -1      1162 2.00807E+01-2.34098E-03-2.71446E-03-6.50837E-05-3.39588E-14-3.59874E-13
 -1      1163 2.01460E+01-3.08500E-03-3.65999E-03 2.66817E-04 1.60677E-14-6.23870E-13
 -1      1164 2.02374E+01-3.92993E-03-4.77025E-03 7.85054E-04-1.25954E-14-7.40901E-13
 -1      1165 2.03630E+01-4.84930E-03-6.03016E-03 1.55308E-03 7.47866E-15-7.67086E-13
 -1      1166 2.05314E+01-5.77992E-03-7.38172E-03 2.64667E-03 3.19484E-14-5.66943E-13
 -1      1167 2.07519E+01-6.59999E-03-8.69268E-03 4.14853E-03-2.84407E-14-3.80435E-13
 -1      1168 2.10335E+01-7.09768E-03-9.70740E-03 6.13349E-03-2.38183E-14-7.69232E-13
 -1      1169 2.13827E+01-6.92934E-03-9.97396E-03 8.63583E-03 1.77159E-16-6.53954E-13
 -1      1170 2.18006E+01-5.57172E-03-8.74696E-03 1.15841E-02 9.46254E-15-7.18025E-13
 -1      1171 2.22777E+01-2.28496E-03-4.88492E-03 1.46830E-02-3.17125E-14-9.42989E-13
 -1      1172 2.27860E+01 3.86816E-03 3.18719E-03 1.72219E-02 4.35561E-14-7.92786E-13
 -1      1173 2.32687E+01 1.38519E-02 1.72754E-02 1.78115E-02 3.34693E-14-7.39776E-13
 -1      1174 2.36281E+01 2.81724E-02 3.86569E-02 1.41356E-02 4.47485E-14-4.33341E-13
 -1      1175 2.37175E+01 4.59013E-02 6.63721E-02 2.99795E-03 5.33033E-14-5.25318E-14
 -1      1176 2.33476E+01 6.32033E-02 9.45329E-02-1.87688E-02-2.05582E-14-8.31210E-14
 -1      1177 2.23263E+01 7.20491E-02 1.09992E-01-5.18788E-02-5.72572E-14-6.39169E-13
 -1      1178 2.05476E+01 6.10630E-02 9.38429E-02-9.07571E-02-2.27466E-14-1.03698E-12
 -1      1179 1.81214E+01 2.09714E-02 3.09528E-02-1.20626E-01-1.35976E-14-8.35013E-13
 -1      1180 1.54796E+01-4.50819E-02-7.34836E-02-1.20570E-01-5.24797E-14-3.31471E-13
 -1      1181 1.33413E+01-1.14251E-01-1.83476E-01-7.55254E-02-4.75852E-14-3.90292E-13
 -1      1182 1.24653E+01-1.51480E-01-2.44729E-01 9.87265E-03 7.50962E-14 2.27733E-13
 -1      1183 1.32801E+01-1.32322E-01-2.13804E-01 1.09346E-01 3.29771E-15 5.28536E-13
 -1      1184 1.55883E+01-5.24268E-02-7.72068E-02 1.79596E-01 4.18927E-14 7.32026E-13
 -1      1185 1.84395E+01 5.79451E-02 1.32878E-01 1.73073E-01-3.46606E-14 9.86308E-13
 -1      1186 1.99614E+01 3.11086E-02 1.06104E-01 6.42246E-03 4.62174E-14 4.74308E-13
 -1      1187 2.77934E+01 5.25741E-01 3.76874E-01 1.96662E+00-2.33147E-14 2.11431E-12
 -1      1188 2.00874E+01-6.62550E-02-5.73638E-01 1.29441E-01 1.58762E-14 1.66847E-12
 -1      1189 1.89111E+01-4.06231E-02-1.93237E-01 1.94041E-02 3.02536E-15 1.27785E-12
 -1      1190 1.85321E+01-2.14404E-02-5.05818E-02 1.45340E-03 6.29661E-15 9.62622E-13
 -1      1191 1.84616E+01-1.24314E-02-1.34425E-02-4.08539E-03-4.19153E-15 7.51878E-13
 -1      1192 1.85379E+01-7.42765E-03-4.70289E-03-5.54618E-03 4.70370E-15 5.35551E-13
 -1      1193 1.86827E+01-4.34870E-03-1.97415E-03-5.74294E-03 1.06526E-14 3.81618E-13
 -1      1194 1.88547E+01-2.37237E-03-3.84752E-04-5.47343E-03 7.84876E-15 3.59976E-13
 -1      1195 1.90305E+01-1.09198E-03 7.41161E-04-4.98953E-03 2.59946E-15 2.51955E-13
 -1      1196 1.91970E+01-2.74394E-04 1.46408E-03-4.40630E-03 1.54358E-14 1.32524E-13
 -1      1197 1.93472E+01 2.28377E-04 1.84939E-03-3.79161E-03 2.44031E-14-5.90908E-14
 -1      1198 1.94779E+01 5.15826E-04 1.98660E-03-3.18837E-03-6.94188E-15-1.26653E-13
 -1      1199 1.95883E+01 6.56813E-04 1.95722E-03-2.62272E-03 1.77870E-14-9.83753E-14
 -1      1200 1.96792E+01 6.99372E-04 1.82383E-03-2.10873E-03-2.14109E-14-1.24667E-13
 -1      1201 1.97524E+01 6.76630E-04 1.63059E-03-1.65172E-03 2.14338E-14-2.86660E-13
 -1      1202 1.98100E+01 6.10574E-04 1.40650E-03-1.25070E-03 3.58226E-15-3.41300E-13
 -1      1203 1.98543E+01 5.14595E-04 1.16849E-03-9.00289E-04 3.51429E-15-3.77918E-13
 -1      1204 1.98878E+01 3.95268E-04 9.23838E-04-5.92242E-04-1.61491E-15-2.55830E-13
 -1      1205 1.99130E+01 2.53595E-04 6.71950E-04-3.16584E-04 1.21108E-14-3.44345E-13
 -1      1206 1.99322E+01 8.58486E-05 4.05656E-04-6.25118E-05-3.64721E-15-5.11309E-13
 -1      1207 1.99479E+01-1.15878E-04 1.11989E-04 1.80898E-04 2.40666E-15-2.85164E-13
 -1      1208 1.99627E+01-3.63362E-04-2.27404E-04 4.24084E-04-7.59874E-15-1.88170E-13
 -1      1209 1.99795E+01-6.72076E-04-6.36183E-04 6.76378E-04-2.95035E-14-1.39176E-13
 -1      1210 2.00016E+01-1.06108E-03-1.14346E-03 9.45241E-04 3.53996E-14-6.23262E-13
 -1      1211 2.00329E+01-1.55276E-03-1.78402E-03 1.23517E-03 3.35553E-14-7.92130E-13
 -1      1212 2.00782E+01-2.17227E-03-2.59842E-03 1.54603E-03-2.55200E-15-4.46493E-13
 -1      1213 2.01437E+01-2.94603E-03-3.63239E-03 1.87042E-03 7.88914E-15-1.65664E-13
 -1      1214 2.02365E+01-3.89858E-03-4.93487E-03 2.18938E-03-2.75040E-14 2.03179E-16
 -1      1215 2.03657E+01-5.04601E-03-6.55262E-03 2.46551E-03-4.97291E-14 1.88314E-13
 -1      1216 2.05422E+01-6.38318E-03-8.51811E-03 2.63192E-03 2.40221E-15 1.46170E-13
 -1      1217 2.07787E+01-7.85979E-03-1.08239E-02 2.57473E-03 3.03062E-14-6.82726E-14
 -1      1218 2.10897E+01-9.33724E-03-1.33711E-02 2.10676E-03-1.13002E-14-9.71827E-14
 -1      1219 2.14903E+01-1.05154E-02-1.58716E-02 9.31007E-04-3.98654E-14 1.23982E-13
 -1      1220 2.19940E+01-1.08173E-02-1.76735E-02-1.40154E-03-4.07737E-14 1.21491E-13
 -1      1221 2.26083E+01-9.23181E-03-1.74767E-02-5.51778E-03 3.01144E-14 4.75869E-14
 -1      1222 2.33261E+01-4.15632E-03-1.29446E-02-1.21688E-02-3.24122E-14-9.58955E-14
 -1      1223 2.41109E+01 6.60355E-03-3.66332E-04-2.19523E-02 6.61850E-14-2.04406E-13
 -1      1224 2.48743E+01 2.52865E-02 2.50860E-02-3.45538E-02 3.90861E-14-4.45012E-13
 -1      1225 2.54468E+01 5.24143E-02 6.72992E-02-4.72448E-02-2.33854E-14-2.19793E-13
 -1      1226 2.55535E+01 8.33697E-02 1.23828E-01-5.28744E-02-3.72515E-14-5.12082E-14
 -1      1227 2.48274E+01 1.04407E-01 1.77345E-01-3.91787E-02 1.38587E-14-1.25240E-13
 -1      1228 2.29166E+01 9.36526E-02 1.90834E-01 6.35573E-03 6.05401E-14-1.35253E-13
 -1      1229 1.97283E+01 3.49380E-02 1.21470E-01 8.29664E-02-2.78120E-14 1.51157E-13
 -1      1230 1.57360E+01-5.93808E-02-3.98159E-02 1.62042E-01-3.65049E-14 4.23411E-13
 -1      1231 1.20750E+01-1.41386E-01-2.32023E-01 1.93044E-01 6.91565E-14 2.06168E-13
 -1      1232 1.01256E+01-1.62854E-01-3.46725E-01 1.42055E-01 9.23549E-14-6.76226E-13
 -1      1233 1.07169E+01-1.18290E-01-3.16304E-01 2.01080E-02 4.71307E-14-9.51683E-13
 -1      1234 1.36167E+01-9.90029E-03-1.31227E-01-1.32016E-01 1.48050E-14-7.45237E-13
 -1      1235 1.75417E+01 1.62474E-01 1.87358E-01-2.55413E-01 1.34658E-14-2.88908E-13
 -1      1236 1.98722E+01 5.43820E-02 2.34416E-01-4.49886E-02 3.83166E-14-6.18880E-14
 -1      1237 2.00228E+01-1.67071E-01 2.37448E-01-7.40129E-02-2.11546E-13-6.18854E-14
 -1      1238 2.00848E+01-2.66125E+00 2.20105E-01-2.79761E-01-2.99871E-13-1.03465E-13
 -1      1239 1.99039E+01-6.98615E+00-1.59888E-01-3.58813E-01-7.52287E-13-5.66734E-14
 -1      1240 1.96630E+01-1.03988E+01-6.96525E-01-2.49165E-01-4.18166E-13 1.03108E-13
 -1      1241 1.94271E+01-9.73009E+00-1.19245E+00 2.07465E-01 9.51184E-14 5.53446E-14
 -1      1242 1.93681E+01-2.84269E+00-1.10365E+00 9.19404E-01 1.75193E-13-1.29813E-13
 -1      1243 1.96316E+01 9.26161E+00-8.64723E-02 1.46497E+00-4.41092E-13 8.40491E-14
 -1      1244 2.03804E+01 2.32866E+01 1.63713E+00 1.46136E+00-7.18314E-14 6.04239E-14
 -1      1245 2.13077E+01 3.45698E+01 3.28222E+00 6.60296E-01-5.23914E-13 9.43690E-16
 -1      1246 2.15456E+01 3.54339E+01 3.45236E+00-8.44721E-01-2.56795E-13 1.56930E-13
 -1      1247 2.08780E+01 2.39680E+01 1.79362E+00-1.70450E+00 1.73861E-13-2.85605E-13
 -1      1248 1.98470E+01 8.21101E+00-1.56747E-01-1.46183E+00-9.01057E-13-7.24039E-14
 -1      1249 1.92475E+01-4.81074E+00-1.22355E+00-6.95842E-01-6.36269E-13 1.64285E-13
 -1      1250 1.94158E+01-1.16363E+01-1.13590E+00-9.65651E-02-4.14391E-14-8.63198E-14
 -1      1251 1.97042E+01-1.20564E+01-5.82308E-01 2.49213E-01-7.19452E-13-4.72955E-14
 -1      1252 1.99064E+01-8.93074E+00-1.44134E-01 2.99158E-01-1.52131E-12-1.88162E-13
 -1      1253 2.00636E+01-4.93895E+00 1.17673E-01 2.95840E-01-1.87447E-12 5.36121E-14
 -1      1254 2.01594E+01-1.65047E+00 2.56777E-01 2.10339E-01-1.20462E-12 8.44515E-14
 -1      1255 1.99877E+01-8.67569E-02 1.05627E-01 5.09200E-02-4.96433E-13 2.47155E-14
 -1      1256-2.09055E+00-3.76793E+01-7.67363E+00-3.19610E+00 8.93619E-13 9.39387E-14
 -1      1257-1.70871E+00-1.86710E+01-4.92408E+00-3.71568E+00 1.03295E-12 3.51719E-13
 -1      1258 4.26605E+00 3.97434E+00-1.41102E+00 4.87582E+00 7.68718E-13 5.56000E-13
 -1      1259 1.94259E+01 1.73891E+01 1.54946E+00 1.76998E+01 6.93445E-13 7.43627E-13
 -1      1260 4.24012E+01 1.81784E+01 3.43727E+00 2.63127E+01 2.68896E-13 2.32925E-13
 -1      1261 6.53290E+01 1.13366E+01 4.55295E+00 2.48254E+01-1.64979E-13-1.56763E-13
 -1      1262 7.96676E+01 4.42909E+00 5.01674E+00 1.37578E+01 8.43492E-14-7.99361E-14
 -1      1263 8.08344E+01 2.00403E+00 4.87233E+00-1.82591E+00 7.93879E-14-3.99458E-13
 -1      1264 6.74639E+01 5.04636E+00 3.99204E+00-1.49028E+01 1.30063E-13-5.77316E-14
 -1      1265 4.49626E+01 9.80327E+00 2.50551E+00-1.95524E+01 4.24216E-13-6.96776E-13
 -1      1266 2.03690E+01 1.01426E+01 5.39721E-01-1.37530E+01 1.29186E-12-1.53677E-12
 -1      1267 3.80034E+00 2.42096E+00-1.32267E+00-3.31494E+00 1.83720E-12-1.62270E-12
 -1      1268-2.07563E+00-1.08648E+01-2.82221E+00 4.09421E+00 1.18794E-12-7.15428E-13
 -1      1269-2.23556E+00-2.39520E+01-3.81843E+00 5.36449E+00-4.58300E-13-3.94962E-14
 -1      1270-1.14626E+00-3.05490E+01-4.16657E+00 1.12889E+00-1.06631E-12 3.28695E-14
 -1      1271-1.58706E+00-2.69991E+01-3.94680E+00-4.21296E+00-1.12865E-12-1.87406E-13
 -1      1272-2.29485E+00-1.48322E+01-3.05525E+00-4.76756E+00-1.37224E-13 6.92224E-14
 -1      1273 1.25146E+00-9.20912E-01-1.75502E+00 8.44885E-01 2.39586E-13 1.07914E-13
 -1      1274 1.34437E+01 9.10289E+00-4.81397E-02 1.08095E+01 4.32543E-13 3.63487E-13
 -1      1275 3.45711E+01 1.11305E+01 1.73976E+00 1.86837E+01 3.60267E-13 6.73017E-13
 -1      1276 5.77980E+01 7.13357E+00 3.25596E+00 1.79086E+01 1.14908E-14-5.24025E-14
 -1      1277 7.54746E+01 2.44302E+00 4.27001E+00 7.80171E+00-1.13451E-14-6.03628E-13
 -1      1278 8.05450E+01 2.56712E+00 4.76652E+00-7.85840E+00 2.08722E-14-6.52450E-13
 -1      1279 7.09302E+01 8.59869E+00 4.63047E+00-2.14000E+01 4.61298E-14-1.53988E-13
 -1      1280 5.24890E+01 1.62356E+01 4.07954E+00-2.73910E+01 5.99409E-13-8.99059E-13
 -1      1281 3.05552E+01 1.98834E+01 2.73998E+00-2.34446E+01 9.59677E-13-1.05804E-12
 -1      1282 1.22324E+01 1.44471E+01 6.54925E-01-1.29584E+01 1.29541E-12-9.95204E-13
 -1      1283 1.64466E+00-1.52616E+00-2.26086E+00-1.59298E+00 1.60316E-13-1.51212E-13
 -1      1284-2.37899E+00-2.26220E+01-5.62638E+00 4.95250E+00-2.85993E-13 1.18239E-13
 -1      1285-2.13358E+00-3.80762E+01-7.76697E+00 2.65776E+00-6.09846E-13 1.88002E-13
 -1      1286 2.22683E+01 1.83828E+00-7.25845E-01-2.79032E+00-5.70100E-14 9.53626E-13
 -1      1287 2.03607E+01 4.69034E+00-4.86317E-02-3.30633E+00-1.60830E-13-6.70228E-14
 -1      1288 2.08683E+01 4.81082E+00-1.13313E-01-4.16065E+00-2.03809E-13 1.64035E-13
 -1      1289 1.95327E+01 4.99351E+00-1.96028E-02-2.65386E+00-1.47812E-13-3.94206E-13
 -1      1290 1.98309E+01 5.09046E+00 2.97384E-04-3.04493E+00-1.74534E-13-2.52333E-13
 -1      1291 2.05273E+01 3.95290E+00-2.58749E-02-3.07429E+00-2.75571E-13-5.77316E-14
 -1      1292 1.91843E+01 5.08428E+00-3.65250E-03-2.06959E+00-1.18860E-13-5.56583E-13
 -1      1293 1.93340E+01 5.13962E+00 1.06198E-02-2.36272E+00-1.36707E-13-4.83117E-13
 -1      1294 1.97550E+01 4.36619E+00-2.42614E-02-2.48884E+00-2.33468E-13-3.26801E-13
 -1      1295 1.90086E+01 5.13090E+00 3.27709E-03-1.56416E+00-8.49624E-14-6.32015E-13
 -1      1296 1.90864E+01 5.16087E+00 1.25701E-02-1.81407E+00-1.00336E-13-5.97404E-13
 -1      1297 1.93927E+01 4.55584E+00-1.95285E-02-1.93055E+00-1.79642E-13-4.66401E-13
 -1      1298 1.89150E+01 5.16057E+00 6.59301E-03-1.11650E+00-5.57332E-14-6.59264E-13
 -1      1299 1.89575E+01 5.17692E+00 1.27358E-02-1.33793E+00-6.54338E-14-6.45766E-13
 -1      1300 1.92054E+01 4.66149E+00-1.60502E-02-1.44435E+00-1.26709E-13-5.23817E-13
 -1      1301 1.88631E+01 5.18037E+00 8.18663E-03-6.93405E-01-2.86047E-14-6.67964E-13
 -1      1302 1.88863E+01 5.18928E+00 1.20298E-02-9.03517E-01-3.61499E-14-6.66855E-13
 -1      1303 1.91021E+01 4.72689E+00-1.39425E-02-1.00372E+00-7.68166E-14-5.60319E-13
 -1      1304 1.88390E+01 5.19227E+00 9.27435E-03-2.88979E-01-2.48629E-15-6.63931E-13
 -1      1305 1.88489E+01 5.19612E+00 1.10579E-02-4.90968E-01-9.01883E-15-6.64593E-13
 -1      1306 1.90460E+01 4.76588E+00-1.29104E-02-5.88439E-01-3.46692E-14-5.57668E-13
 -1      1307 1.88352E+01 5.19721E+00 1.02064E-02 1.08151E-01 2.68594E-14-6.55800E-13
 -1      1308 1.88349E+01 5.19708E+00 1.01337E-02-9.13845E-02 1.37135E-14-6.58987E-13
 -1      1309 1.90216E+01 4.78388E+00-1.24753E-02-1.88986E-01 8.71005E-15-5.62106E-13
 -1      1310 1.88506E+01 5.19576E+00 1.11475E-02 5.08328E-01 5.02922E-14-6.48006E-13
 -1      1311 1.88400E+01 5.19163E+00 9.20844E-03 3.05917E-01 4.25258E-14-6.52636E-13
 -1      1312 1.90225E+01 4.78323E+00-1.24943E-02 2.05655E-01 5.55078E-14-5.56898E-13
 -1      1313 1.88895E+01 5.18811E+00 1.20854E-02 9.22374E-01 7.58022E-14-6.31141E-13
 -1      1314 1.88656E+01 5.17904E+00 8.11726E-03 7.11302E-01 6.67630E-14-6.43312E-13
 -1      1315 1.90486E+01 4.76380E+00-1.29800E-02 6.05818E-01 1.01822E-13-5.43992E-13
 -1      1316 1.89618E+01 5.17518E+00 1.28967E-02 1.35543E+00 1.00780E-13-5.87041E-13
 -1      1317 1.89183E+01 5.15838E+00 6.43311E-03 1.13261E+00 8.84653E-14-6.13620E-13
 -1      1318 1.91063E+01 4.72338E+00-1.40017E-02 1.01894E+00 1.37298E-13-5.18991E-13
 -1      1319 1.90949E+01 5.15680E+00 1.28325E-02 1.83998E+00 1.38830E-13-5.08413E-13
 -1      1320 1.90152E+01 5.12637E+00 3.12999E-03 1.58722E+00 1.22963E-13-5.54855E-13
 -1      1321 1.92122E+01 4.65501E+00-1.61446E-02 1.46191E+00 1.82137E-13-4.66630E-13
 -1      1322 1.93442E+01 5.13360E+00 1.01865E-02 2.39707E+00 1.69684E-13-3.67973E-13
 -1      1323 1.91938E+01 5.07641E+00-4.38613E-03 2.09978E+00 1.56257E-13-4.55788E-13
 -1      1324 1.94054E+01 4.54256E+00-1.99813E-02 1.95751E+00 2.42286E-13-3.84262E-13
 -1      1325 1.98563E+01 5.09957E+00 6.07752E-03 3.08327E+00 1.98605E-13-9.58678E-14
 -1      1326 1.95440E+01 4.98452E+00-2.05424E-02 2.69583E+00 1.72924E-13-2.58630E-13
 -1      1327 1.97753E+01 4.34652E+00-2.45550E-02 2.52738E+00 2.78748E-13-2.17472E-13
 -1      1328 2.11044E+01 4.90708E+00 8.34013E-03 4.05351E+00 1.77830E-13 4.11227E-13
 -1      1329 2.03353E+01 4.73394E+00-4.79554E-02 3.41574E+00 1.70253E-13 1.02987E-13
 -1      1330 2.05655E+01 3.91597E+00-2.23987E-02 3.17782E+00 2.95985E-13 8.30724E-14
 -1      1331 2.72037E+01 3.20539E+00 9.28980E-01 4.58206E+00 9.43134E-14 1.37601E-12
 -1      1332 2.20212E+01 3.52224E+00-1.81987E-01 3.88466E+00 9.67004E-14 7.01855E-13
 -1      1333 2.21136E+01 2.56178E+00-3.25319E-02 3.45614E+00 2.88092E-13 5.46174E-13
 -1      1334 2.14282E+01 3.59555E-01-7.63528E-01 1.18362E+00 1.60372E-13 1.31545E-12
 -1      1335 2.20027E+01 1.31341E-01-4.00861E-01-1.28544E+00-1.64202E-13 1.00972E-12
 -1      1336 2.06803E+01 3.06685E-01-1.64802E-01-8.05537E-01-1.55695E-13 8.22148E-13
 -1      1337 2.00828E+01 1.53467E-01-7.35330E-02-4.01920E-01-1.32221E-13 7.38604E-13
 -1      1338 1.96132E+01 9.11896E-02-1.49318E-02-3.29778E-01-1.28161E-13 5.44627E-13
 -1      1339 2.09741E+01 3.69146E-01-1.04235E-01-1.27350E+00-2.75280E-13 4.03465E-13
 -1      1340 1.92560E+01 6.45440E-02 3.02003E-03-1.35117E-01-9.77595E-14 4.74957E-13
 -1      1341 1.91020E+01 4.13077E-02 1.32047E-02-1.17283E-01-9.09221E-14 3.40259E-13
 -1      1342 1.99237E+01 1.33915E-01-3.51674E-02-5.03576E-01-2.22197E-13 2.85950E-13
 -1      1343 1.89419E+01 3.15438E-02 1.32334E-02-2.77067E-02-6.30876E-14 2.69385E-13
 -1      1344 1.89229E+01 1.93861E-02 1.10598E-02-1.83272E-02-5.74658E-14 1.86552E-13
 -1      1345 1.94469E+01 5.55282E-02-8.51708E-03-1.69449E-01-1.51584E-13 1.68855E-13
 -1      1346 1.88670E+01 1.60157E-02 8.77310E-03 2.53222E-02-4.70095E-14 1.50994E-13
 -1      1347 1.89098E+01 9.07903E-03 6.43359E-03 2.99528E-02-4.72029E-14 1.00756E-13
 -1      1348 1.92385E+01 2.44013E-02-3.50951E-03-1.05703E-02-1.06534E-13 7.26945E-14
 -1      1349 1.89101E+01 7.86852E-03 4.66656E-03 5.11338E-02-5.15450E-14 7.46573E-14
 -1      1350 1.89808E+01 3.51371E-03 3.63849E-03 5.30325E-02-5.21143E-14 1.35725E-14
 -1      1351 1.91822E+01 1.02087E-02-2.22286E-03 6.81364E-02-8.54718E-14 1.84093E-14
 -1      1352 1.90106E+01 3.20099E-03 2.43741E-03 6.18526E-02-4.83271E-14-2.67304E-14
 -1      1353 1.90916E+01 3.36290E-04 2.20785E-03 6.21269E-02-3.50660E-14-9.31659E-14
 -1      1354 1.92089E+01 2.80063E-03-1.32590E-03 1.05022E-01-8.32470E-14-5.16254E-14
 -1      1355 1.91354E+01 4.49906E-04 1.32689E-03 6.38225E-02-4.14586E-14-1.02807E-13
 -1      1356 1.92167E+01-1.46789E-03 1.43594E-03 6.31421E-02-5.99894E-14-1.74297E-13
 -1      1357 1.92784E+01-1.28688E-03-5.58218E-04 1.18333E-01-7.76460E-14-1.24019E-13
 -1      1358 1.92655E+01-1.14423E-03 7.40912E-04 6.07468E-02-4.42722E-14-1.84200E-13
 -1      1359 1.93415E+01-2.42334E-03 9.66046E-04 5.95428E-02-4.76562E-14-2.50875E-13
 -1      1360 1.93672E+01-3.50444E-03 4.03000E-06 1.18000E-01-8.97337E-14-1.68191E-13
 -1      1361 1.93898E+01-2.00518E-03 4.02775E-04 5.49332E-02-3.03097E-14-2.37831E-13
 -1      1362 1.94578E+01-2.83922E-03 6.52746E-04 5.34876E-02-2.75485E-15-2.71427E-13
 -1      1363 1.94608E+01-4.58207E-03 3.60396E-04 1.09951E-01-6.51137E-14-1.59677E-13
 -1      1364 1.95026E+01-2.39329E-03 1.96665E-04 4.78584E-02 3.58186E-14-3.06305E-13
 -1      1365 1.95613E+01-2.91290E-03 4.35065E-04 4.63540E-02 1.06872E-14-2.99126E-13
 -1      1366 1.95510E+01-4.94544E-03 5.55732E-04 9.79079E-02 1.11254E-14-2.19497E-13
 -1      1367 1.96010E+01-2.47821E-03 7.01858E-05 4.04662E-02-3.84892E-15-2.63798E-13
 -1      1368 1.96502E+01-2.77545E-03 2.82649E-04 3.90178E-02 1.55684E-14-2.67163E-13
 -1      1369 1.96330E+01-4.86432E-03 6.38484E-04 8.42497E-02 3.69519E-14-2.34608E-13
 -1      1370 1.96843E+01-2.37392E-03-4.50312E-06 3.33455E-02 2.86387E-14-2.52935E-13
 -1      1371 1.97246E+01-2.51496E-03 1.77282E-04 3.20210E-02-1.34584E-14-2.21605E-13
 -1      1372 1.97047E+01-4.51714E-03 6.47085E-04 7.04826E-02 2.79782E-14-2.33288E-13
 -1      1373 1.97530E+01-2.15722E-03-4.43665E-05 2.68461E-02-2.15981E-14-2.06054E-13
 -1      1374 1.97852E+01-2.18954E-03 1.06740E-04 2.56823E-02-2.95688E-14-2.49293E-13
 -1      1375 1.97655E+01-4.02281E-03 6.09057E-04 5.75318E-02-1.98238E-14-1.97211E-13
 -1      1376 1.98083E+01-1.87863E-03-6.05272E-05 2.11599E-02-7.78784E-14-2.53526E-13
 -1      1377 1.98336E+01-1.83561E-03 6.24240E-05 2.01732E-02-8.16109E-14-3.43170E-13
 -1      1378 1.98158E+01-3.45860E-03 5.43138E-04 4.59350E-02-8.54996E-14-1.96609E-13
 -1      1379 1.98521E+01-1.56923E-03-6.04987E-05 1.63796E-02-6.08730E-14-3.70801E-13
 -1      1380 1.98715E+01-1.47337E-03 3.81998E-05 1.55749E-02-3.30757E-14-4.48804E-13
 -1      1381 1.98565E+01-2.87121E-03 4.61421E-04 3.59794E-02-1.10270E-13-1.72742E-13
 -1      1382 1.98863E+01-1.24550E-03-4.94040E-05 1.25425E-02-3.22548E-14-4.37708E-13
 -1      1383 1.99010E+01-1.11081E-03 2.97134E-05 1.19197E-02-1.04176E-13-4.89886E-13
 -1      1384 1.98890E+01-2.28434E-03 3.70982E-04 2.78025E-02-7.09544E-14-2.40296E-13
 -1      1385 1.99128E+01-9.12618E-04-3.07435E-05 9.66476E-03-9.84072E-14-5.10793E-13
 -1      1386 1.99241E+01-7.46579E-04 3.39425E-05 9.22344E-03-3.16994E-14-6.01009E-13
 -1      1387 1.99149E+01-1.70406E-03 2.75085E-04 2.14680E-02-1.38350E-13-2.61207E-13
 -1      1388 1.99337E+01-5.67030E-04-6.93243E-06 7.76624E-03 7.66719E-15-6.00756E-13
 -1      1389 1.99428E+01-3.72127E-04 4.88633E-05 7.51010E-03-3.52307E-14-5.89832E-13
 -1      1390 1.99359E+01-1.12275E-03 1.74072E-04 1.70234E-02-4.85795E-14-3.36352E-13
 -1      1391 1.99514E+01-1.98210E-04 2.02830E-05 6.89129E-03 1.40154E-14-5.89748E-13
 -1      1392 1.99594E+01 2.66971E-05 7.31705E-05 6.83099E-03-8.71891E-15-5.59512E-13
 -1      1393 1.99539E+01-5.21992E-04 6.60263E-05 1.45445E-02-3.66979E-14-3.96371E-13
 -1      1394 1.99680E+01 2.09947E-04 4.94642E-05 7.12426E-03 5.38601E-15-5.20898E-13
 -1      1395 1.99764E+01 4.68343E-04 1.06004E-04 7.28001E-03 5.56810E-14-4.67562E-13
 -1      1396 1.99708E+01 1.25363E-04-5.27068E-05 1.41707E-02 1.82787E-14-4.59025E-13
 -1      1397 1.99863E+01 6.77980E-04 7.91300E-05 8.60193E-03 5.05588E-14-4.17907E-13
 -1      1398 1.99966E+01 9.74349E-04 1.46643E-04 9.00546E-03 3.49601E-15-4.14304E-13
 -1      1399 1.99890E+01 8.53456E-04-1.87099E-04 1.61318E-02 5.32724E-14-2.99759E-13
 -1      1400 2.00090E+01 1.22968E-03 1.07382E-04 1.15225E-02 2.12193E-14-3.91478E-13
 -1      1401 2.00230E+01 1.56791E-03 1.94136E-04 1.22185E-02 7.33812E-14-3.73898E-13
 -1      1402 2.00109E+01 1.70178E-03-3.43027E-04 2.07684E-02 4.28822E-14-3.02526E-13
 -1      1403 2.00396E+01 1.89052E-03 1.31476E-04 1.61503E-02 8.78736E-14-3.08340E-13
 -1      1404 2.00594E+01 2.27182E-03 2.46801E-04 1.71971E-02 5.92203E-14-1.76491E-13
 -1      1405 2.00394E+01 2.71303E-03-5.26791E-04 2.85444E-02 1.15201E-13-1.60557E-13
 -1      1406 2.00820E+01 2.68526E-03 1.47300E-04 2.28149E-02-6.31655E-14-1.81536E-13
 -1      1407 2.01102E+01 3.10523E-03 3.01562E-04 2.42838E-02-1.03541E-13-2.78515E-13
 -1      1408 2.00779E+01 3.92975E-03-7.44455E-04 4.00489E-02-5.28538E-15-9.13228E-14
 -1      1409 2.01411E+01 3.63400E-03 1.48763E-04 3.19001E-02-6.28528E-14-3.49758E-13
 -1      1410 2.01806E+01 4.07840E-03 3.53049E-04 3.38724E-02-4.35575E-14-4.49300E-13
 -1      1411 2.01305E+01 5.38868E-03-1.00086E-03 5.59819E-02-1.51445E-13-3.01958E-14
 -1      1412 2.02223E+01 4.74554E-03 1.27082E-04 4.38172E-02-5.15353E-14-5.23577E-13
 -1      1413 2.02767E+01 5.18418E-03 3.92412E-04 4.63781E-02-6.18234E-14-5.28267E-13
 -1      1414 2.02017E+01 7.11111E-03-1.29807E-03 7.71135E-02-8.42053E-14-2.55579E-13
 -1      1415 2.03321E+01 6.00663E-03 7.00846E-05 5.89530E-02 3.93473E-14-5.30655E-13
 -1      1416 2.04054E+01 6.38436E-03 4.05914E-04 6.21790E-02 7.95590E-14-5.13237E-13
 -1      1417 2.02969E+01 9.08675E-03-1.63303E-03 1.04201E-01 1.99548E-14-3.66709E-13
 -1      1418 2.04774E+01 7.36451E-03-3.81826E-05 7.75759E-02 4.17986E-14-4.52805E-13
 -1      1419 2.05740E+01 7.58830E-03 3.73547E-04 8.15128E-02 8.99458E-14-3.04620E-13
 -1      1420 2.04216E+01 1.12470E-02-1.99381E-03 1.37838E-01 1.05991E-13-2.05976E-13
 -1      1421 2.06656E+01 8.69935E-03-2.16822E-04 9.96775E-02-1.01573E-14-2.42832E-13
 -1      1422 2.07897E+01 8.62029E-03 2.68499E-04 1.04303E-01-1.07076E-13-3.52523E-13
 -1      1423 2.05818E+01 1.34222E-02-2.35395E-03 1.78196E-01 8.48256E-14-2.85405E-13
 -1      1424 2.09035E+01 9.78221E-03-4.84917E-04 1.24716E-01-9.43332E-14-4.02349E-13
 -1      1425 2.10586E+01 9.17184E-03 5.92721E-05 1.29879E-01-2.96920E-15-4.70213E-13
 -1      1426 2.07830E+01 1.52744E-02-2.66373E-03 2.24604E-01-1.62570E-13-1.47494E-13
 -1      1427 2.11959E+01 1.02141E-02-8.52952E-04 1.51216E-01 1.08671E-14-4.62701E-13
 -1      1428 2.13834E+01 8.73726E-03-2.81948E-04 1.56538E-01-7.52991E-14-4.73029E-13
 -1      1429 2.10289E+01 1.61990E-02-2.83723E-03 2.74889E-01-7.41768E-14-2.18518E-13
 -1      1430 2.15430E+01 9.34531E-03-1.30420E-03 1.76177E-01-4.70937E-14-5.12659E-13
 -1      1431 2.17604E+01 6.53860E-03-7.59082E-04 1.80910E-01-6.34655E-14-6.32201E-13
 -1      1432 2.13200E+01 1.51901E-02-2.73373E-03 3.24390E-01-8.38460E-14-3.57491E-13
 -1      1433 2.19372E+01 6.18870E-03-1.76049E-03 1.94269E-01 1.15162E-14-5.57430E-13
 -1      1434 2.21746E+01 1.46892E-03-1.31387E-03 1.97099E-01 5.99240E-14-5.74960E-13
 -1      1435 2.16505E+01 1.06881E-02-2.13405E-03 3.64595E-01-5.50102E-15-3.55440E-13
 -1      1436 2.23570E+01-6.27151E-04-2.03039E-03 1.96890E-01 3.24838E-15-5.09492E-13
 -1      1437 2.25932E+01-7.86866E-03-1.76961E-03 1.95708E-01 5.87763E-14-4.68795E-13
 -1      1438 2.20049E+01 4.82055E-04-7.17519E-04 3.81458E-01 4.62714E-14-9.33377E-14
 -1      1439 2.27607E+01-1.27425E-02-1.75498E-03 1.71396E-01 1.11268E-13-4.67574E-13
 -1      1440 2.29576E+01-2.28594E-02-1.77968E-03 1.63142E-01 9.25466E-14-3.75099E-13
 -1      1441 2.23528E+01-1.81464E-02 1.93953E-03 3.53830E-01 8.79956E-14-2.60343E-13
 -1      1442 2.30777E+01-3.15518E-02-4.07073E-04 1.01373E-01 1.05096E-13-3.46379E-13
 -1      1443 2.31766E+01-4.40387E-02-8.45165E-04 8.21876E-02 1.11234E-13-2.90470E-13
 -1      1444 2.26438E+01-4.76495E-02 6.29234E-03 2.53205E-01 1.31295E-13-1.94196E-13
 -1      1445 2.32044E+01-5.69352E-02 2.54856E-03-3.04586E-02 5.83448E-14-2.59306E-13
 -1      1446 2.31260E+01-6.94299E-02 1.47506E-03-6.42653E-02 7.32400E-14-1.38157E-13
 -1      1447 2.28034E+01-8.82463E-02 1.25909E-02 4.72212E-02 9.32683E-14-1.83838E-13
 -1      1448 2.30068E+01-8.50086E-02 7.17762E-03-2.34337E-01-7.06171E-14-2.56746E-13
 -1      1449 2.26633E+01-9.22027E-02 5.03944E-03-2.83882E-01-2.60510E-13-4.09468E-13
 -1      1450 2.27343E+01-1.34338E-01 2.03694E-02-2.89206E-01-4.23220E-14-3.14388E-13
 -1      1451 2.23451E+01-1.05550E-01 1.22932E-02-4.99085E-01-2.05041E-13-3.56562E-13
 -1      1452 2.16702E+01-9.91152E-02 8.43491E-03-5.58893E-01-1.06533E-13-5.95933E-13
 -1      1453 2.23300E+01-1.70283E-01 2.76213E-02-7.51576E-01-2.67654E-13-2.68885E-13
 -1      1454 2.11272E+01-1.01629E-01 1.49573E-02-7.74598E-01-3.85022E-15-7.05679E-13
 -1      1455 2.01266E+01-7.30604E-02 8.76160E-03-8.28571E-01-1.90273E-14-7.64257E-13
 -1      1456 2.15084E+01-1.69442E-01 3.01393E-02-1.27468E+00-1.76826E-13-2.91640E-13
 -1      1457 1.93928E+01-5.58193E-02 1.13095E-02-9.64206E-01 1.48075E-13-6.43999E-13
 -1      1458 1.81970E+01-3.37786E-03 2.91849E-03-9.86151E-01 1.83573E-13-4.14682E-13
 -1      1459 2.02679E+01-1.03030E-01 2.23005E-02-1.70958E+00 1.54679E-13-3.96433E-13
 -1      1460 1.73946E+01 3.46570E-02-5.02256E-04-9.48474E-01 7.64840E-15-2.15911E-13
 -1      1461 1.62727E+01 9.83505E-02-9.41465E-03-9.12982E-01 4.04416E-14-2.30704E-13
 -1      1462 1.87535E+01 3.72384E-02 5.60422E-04-1.84326E+00 2.58541E-13-1.88474E-13
 -1      1463 1.56040E+01 1.43474E-01-1.71446E-02-6.50359E-01 4.01554E-14-1.53634E-13
 -1      1464 1.48975E+01 1.92041E-01-2.33671E-02-5.51864E-01 7.55142E-14-7.31706E-14
 -1      1465 1.72840E+01 2.16582E-01-3.06416E-02-1.49182E+00 2.00952E-13-1.82382E-13
 -1      1466 1.45742E+01 2.20498E-01-3.06305E-02-1.08728E-01 2.12337E-13 6.05974E-14
 -1      1467 1.45536E+01 2.27306E-01-3.07392E-02 2.62957E-02 2.63789E-13 4.10859E-13
 -1      1468 1.62781E+01 3.59771E-01-5.71551E-02-6.39011E-01 3.15019E-13 3.23682E-13
 -1      1469 1.46862E+01 2.21785E-01-3.33310E-02 5.05506E-01 3.77632E-14 4.42139E-13
 -1      1470 1.54018E+01 1.73911E-01-2.43102E-02 6.27632E-01 1.83638E-14 4.50223E-13
 -1      1471 1.60690E+01 3.91328E-01-6.24172E-02 4.84490E-01 2.69562E-13 2.88582E-13
 -1      1472 1.59305E+01 1.25939E-01-1.92445E-02 9.46142E-01 2.29690E-13 4.93716E-13
 -1      1473 1.71201E+01 2.32904E-02-2.58099E-03 9.98158E-01 1.21438E-13 7.10113E-13
 -1      1474 1.67134E+01 2.61099E-01-4.06234E-02 1.46013E+00 1.57823E-13 4.10998E-13
 -1      1475 1.78248E+01-5.23053E-02 1.84789E-02 9.52351E-01-5.83451E-14 7.49345E-13
 -1      1476 1.89550E+01-1.81302E-01 3.95778E-02 9.16153E-01-1.65971E-13 7.19633E-13
 -1      1477 1.79377E+01-6.81862E-02-1.21178E-03 1.81892E+00 8.75376E-14 3.87895E-13
 -1      1478 1.97769E+01-2.62785E-01 1.27451E-01 2.05619E-01-5.04687E-13 5.42108E-13
 -1      1479 1.94522E+01-6.59980E-01 5.58003E-02 1.01907E+00-5.49387E-13 3.85246E-13
 -1      1480 2.02613E+01 7.54719E-02-1.52082E-01 4.83674E-01 1.26774E-13 1.03104E-12
 -1      1481 2.15313E+01 2.16136E-01-2.29284E-01 7.20654E-01 1.14436E-13 1.23661E-12
 -1      1482 2.17299E+01 8.81715E-01-8.54806E-02 2.06448E+00 2.32245E-13 7.88689E-13
 -1      1483 1.93335E+01 3.23847E-02-2.13284E-02 1.85837E-01 9.38971E-14 7.73600E-13
 -1      1484 1.97539E+01 1.13625E-01-6.26938E-02 2.37850E-01 8.98517E-14 9.29120E-13
 -1      1485 2.03051E+01 1.87665E-01-5.51955E-02 7.85842E-01 1.94879E-13 5.90005E-13
 -1      1486 1.89522E+01 1.51122E-02 5.66684E-03 5.33137E-02 6.40928E-14 5.86392E-13
 -1      1487 1.90905E+01 5.16391E-02 9.81159E-04 7.96373E-02 7.00889E-14 6.98303E-13
 -1      1488 1.95604E+01 7.18443E-02-1.21613E-02 2.98633E-01 1.51113E-13 4.35743E-13
 -1      1489 1.88423E+01 7.12936E-03 6.97438E-03-9.21451E-03 6.54012E-14 4.37820E-13
 -1      1490 1.88566E+01 2.58769E-02 1.10905E-02 5.19872E-03 5.19342E-14 5.23741E-13
 -1      1491 1.92255E+01 3.10492E-02-2.47010E-03 8.30902E-02 1.19348E-13 3.00331E-13
 -1      1492 1.88689E+01 3.21797E-03 4.78016E-03-3.95030E-02 5.01973E-14 2.87780E-13
 -1      1493 1.88248E+01 1.38279E-02 8.52067E-03-3.13676E-02 5.29362E-14 3.77774E-13
 -1      1494 1.91094E+01 1.32795E-02-1.62680E-03-2.19503E-02 1.12745E-13 2.14253E-13
 -1      1495 1.89637E+01 1.05929E-03 3.29164E-03-5.29651E-02 5.43979E-14 2.08323E-13
 -1      1496 1.88929E+01 7.29888E-03 5.36724E-03-4.84757E-02 2.66195E-14 2.52026E-13
 -1      1497 1.91111E+01 4.55431E-03-1.64267E-03-7.34989E-02 6.28774E-14 1.38898E-13
 -1      1498 1.90887E+01-1.91164E-04 2.50946E-03-5.69354E-02 2.46193E-14 1.49479E-13
 -1      1499 1.90082E+01 3.46279E-03 3.43027E-03-5.47048E-02 3.03884E-14 1.89036E-13
 -1      1500 1.91743E+01-1.03470E-04-1.38810E-03-9.61812E-02 5.75397E-14 7.98584E-14
 -1      1501 1.92221E+01-9.00905E-04 2.04518E-03-5.54425E-02 2.56660E-14 6.98426E-14
 -1      1502 1.91416E+01 1.12805E-03 2.32750E-03-5.46328E-02 2.69473E-14 1.03068E-13
 -1      1503 1.92668E+01-2.62708E-03-1.01300E-03-1.02389E-01 5.68954E-14-6.66069E-15
 -1      1504 1.93514E+01-1.26698E-03 1.70160E-03-5.09151E-02 4.35487E-14-3.83452E-14
 -1      1505 1.92761E+01-2.83564E-04 1.64885E-03-5.09854E-02 4.17418E-14 4.64698E-14
 -1      1506 1.93694E+01-3.90328E-03-6.70317E-04-9.91142E-02 6.68777E-14-7.43368E-14
 -1      1507 1.94696E+01-1.41041E-03 1.41249E-03-4.48840E-02 2.61459E-14-9.54948E-14
 -1      1508 1.94024E+01-1.09748E-03 1.18803E-03-4.54748E-02 3.34033E-14-4.35086E-14
 -1      1509 1.94710E+01-4.41347E-03-4.05858E-04-9.06097E-02 6.73642E-14-1.38792E-13
 -1      1510 1.95734E+01-1.41155E-03 1.16015E-03-3.83262E-02 7.24952E-16-7.55138E-14
 -1      1511 1.95155E+01-1.51681E-03 8.55753E-04-3.91961E-02 9.63671E-15-8.57248E-14
 -1      1512 1.95650E+01-4.44893E-03-2.15911E-04-7.95661E-02 9.65059E-15-5.28356E-14
 -1      1513 1.96617E+01-1.32519E-03 9.40195E-04-3.18562E-02 4.06910E-14-1.20190E-13
 -1      1514 1.96131E+01-1.67652E-03 6.10279E-04-3.28442E-02 2.74604E-14-1.06968E-13
 -1      1515 1.96483E+01-4.19786E-03-8.50726E-05-6.76985E-02 5.50571E-14-9.09272E-14
 -1      1516 1.97348E+01-1.18858E-03 7.50769E-04-2.58454E-02 1.16881E-14-1.67282E-13
 -1      1517 1.96951E+01-1.66874E-03 4.28238E-04-2.68463E-02 4.55302E-14-1.42833E-13
 -1      1518 1.97196E+01-3.78523E-03 1.39866E-06-5.60827E-02 7.66318E-14-1.16789E-13
 -1      1519 1.97939E+01-1.02620E-03 5.89880E-04-2.05026E-02 2.68988E-14-2.66852E-13
 -1      1520 1.97622E+01-1.55636E-03 2.94292E-04-2.14496E-02 2.05217E-14-2.17893E-13
 -1      1521 1.97791E+01-3.29343E-03 5.51260E-05-4.53667E-02 5.93919E-14-2.14973E-13
 -1      1522 1.98408E+01-8.53037E-04 4.54893E-04-1.59318E-02-7.47365E-15-2.68048E-13
 -1      1523 1.98159E+01-1.38121E-03 1.97443E-04-1.67840E-02 9.77975E-15-2.42590E-13
 -1      1524 1.98275E+01-2.77469E-03 8.46777E-05-3.59153E-02 5.17446E-15-1.51659E-13
 -1      1525 1.98772E+01-6.76799E-04 3.42559E-04-1.21745E-02-5.09900E-14-2.61757E-13
 -1      1526 1.98581E+01-1.16926E-03 1.29481E-04-1.29074E-02-2.49944E-14-2.83302E-13
 -1      1527 1.98662E+01-2.25894E-03 9.60014E-05-2.79136E-02-1.83326E-14-1.82799E-13
 -1      1528 1.99053E+01-4.99571E-04 2.49167E-04-9.24261E-03 2.05926E-14-2.39008E-13
 -1      1529 1.98908E+01-9.34288E-04 8.41904E-05-9.84022E-03 2.02098E-14-2.26392E-13
 -1      1530 1.98968E+01-1.75949E-03 9.27977E-05-2.14446E-02-5.80048E-18-1.87828E-13
 -1      1531 1.99271E+01-3.19009E-04 1.70692E-04-7.14282E-03 4.48553E-14-3.71765E-13
 -1      1532 1.99161E+01-6.80417E-04 5.68907E-05-7.59191E-03 3.80389E-14-2.74747E-13
 -1      1533 1.99211E+01-1.27699E-03 7.67859E-05-1.65475E-02 6.76260E-14-2.69548E-13
 -1      1534 1.99449E+01-1.29186E-04 1.02915E-04-5.89669E-03-8.70947E-14-3.21572E-13
 -1      1535 1.99361E+01-4.03915E-04 4.41352E-05-6.18142E-03-3.53822E-14-3.93898E-13
 -1      1536 1.99408E+01-8.02394E-04 4.78744E-05-1.32627E-02-2.35593E-14-3.06307E-13
 -1      1537 1.99609E+01 7.88570E-05 4.14860E-05-5.55636E-03-1.37874E-14-2.33738E-13
 -1      1538 1.99532E+01-9.44087E-05 4.34964E-05-5.65387E-03-4.22934E-14-3.10529E-13
 -1      1539 1.99581E+01-3.18989E-04 4.24460E-06-1.16682E-02-4.88559E-14-2.59484E-13
 -1      1540 1.99777E+01 3.16744E-04-1.80797E-05-6.21796E-03-3.64823E-14-2.09087E-13
 -1      1541 1.99696E+01 2.64369E-04 5.33907E-05-6.09432E-03-6.88614E-15-2.29357E-13
 -1      1542 1.99751E+01 1.96210E-04-5.76478E-05-1.19087E-02-5.01020E-14-3.14402E-13
 -1      1543 1.99981E+01 5.98542E-04-8.04467E-05-8.03354E-03 1.34168E-13-3.65043E-13
 -1      1544 1.99882E+01 6.94163E-04 7.29149E-05-7.63970E-03 2.93652E-14-2.21671E-13
 -1      1545 1.99943E+01 7.71576E-04-1.43145E-04-1.42202E-02 5.99427E-15-2.48996E-13
 -1      1546 2.00254E+01 9.40568E-04-1.50564E-04-1.12217E-02 5.33567E-14-6.19203E-13
 -1      1547 2.00119E+01 1.22198E-03 1.01669E-04-1.04895E-02 9.92705E-14-4.65489E-13
 -1      1548 2.00184E+01 1.44027E-03-2.59524E-04-1.89522E-02 1.70011E-13-4.66084E-13
 -1      1549 2.00639E+01 1.36108E-03-2.33817E-04-1.60774E-02-9.24258E-14-4.86119E-13
 -1      1550 2.00445E+01 1.87992E-03 1.39530E-04-1.49152E-02-5.89821E-14-5.53108E-13
 -1      1551 2.00508E+01 2.23970E-03-4.16179E-04-2.65867E-02-1.88049E-14-3.87731E-13
 -1      1552 2.01182E+01 1.87966E-03-3.36229E-04-2.29791E-02-1.35599E-13-1.20362E-13
 -1      1553 2.00904E+01 2.70466E-03 1.86332E-04-2.12679E-02-1.02691E-13-2.74470E-13
 -1      1554 2.00955E+01 3.21068E-03-6.24805E-04-3.77541E-02-2.31008E-13-1.46536E-13
 -1      1555 2.01946E+01 2.51586E-03-4.64711E-04-3.23930E-02-4.63957E-14 5.48354E-14
 -1      1556 2.01549E+01 3.73635E-03 2.41363E-04-2.99823E-02-8.52233E-14-6.30747E-14
 -1      1557 2.01574E+01 4.39578E-03-8.99516E-04-5.32425E-02-1.46876E-13 1.05270E-13
 -1      1558 2.03001E+01 3.28640E-03-6.27300E-04-4.48683E-02 7.83629E-15 5.61912E-14
 -1      1559 2.02447E+01 5.01565E-03 3.02563E-04-4.15733E-02 2.81061E-14 5.62516E-14
 -1      1560 2.02421E+01 5.83588E-03-1.25670E-03-7.39959E-02-1.88391E-14 1.43118E-13
 -1      1561 2.04437E+01 4.19971E-03-8.33224E-04-6.10165E-02-8.13188E-14 9.75077E-14
 -1      1562 2.03676E+01 6.57752E-03 3.65249E-04-5.66189E-02-1.27231E-13-3.55181E-14
 -1      1563 2.03567E+01 7.56309E-03-1.71429E-03-1.01088E-01-7.30199E-14 6.42141E-14
 -1      1564 2.06355E+01 5.24525E-03-1.09225E-03-8.14586E-02 2.70718E-14 1.43638E-13
 -1      1565 2.05329E+01 8.43843E-03 4.20197E-04-7.57144E-02 4.06166E-14 1.66990E-13
 -1      1566 2.05090E+01 9.58676E-03-2.28964E-03-1.35654E-01-1.21290E-14 1.76961E-14
 -1      1567 2.08870E+01 6.37380E-03-1.41199E-03-1.06712E-01 4.41916E-14 5.34026E-14
 -1      1568 2.07515E+01 1.05712E-02 4.51038E-04-9.93753E-02 7.01711E-14 1.26370E-13
 -1      1569 2.07080E+01 1.18665E-02-2.99453E-03-1.78730E-01 8.88547E-14 5.78206E-14
 -1      1570 2.12104E+01 7.46170E-03-1.78996E-03-1.36967E-01-4.63830E-14 4.64741E-14
 -1      1571 2.10348E+01 1.28577E-02 4.31526E-04-1.27844E-01-5.97686E-14-3.20746E-14
 -1      1572 2.09634E+01 1.42616E-02-3.82437E-03-2.30950E-01-1.12440E-14 8.52836E-14
 -1      1573 2.16169E+01 8.24946E-03-2.19370E-03-1.71665E-01-1.12169E-14 1.33945E-13
 -1      1574 2.13945E+01 1.50037E-02 3.24858E-04-1.60728E-01-6.29965E-15 9.87170E-14
 -1      1575 2.12843E+01 1.64389E-02-4.73598E-03-2.91956E-01-3.03798E-14 9.55117E-14
 -1      1576 2.21139E+01 8.24321E-03-2.51649E-03-2.08754E-01 7.08101E-14 2.35853E-14
 -1      1577 2.18400E+01 1.63938E-02 9.08932E-05-1.96358E-01 5.74467E-14 1.03307E-13
 -1      1578 2.16775E+01 1.77153E-02-5.60485E-03-3.59350E-01 4.82778E-14-2.01967E-14
 -1      1579 2.26990E+01 6.57460E-03-2.49050E-03-2.43433E-01-4.74454E-14 2.47181E-14
 -1      1580 2.23742E+01 1.58681E-02-2.86391E-04-2.30703E-01-3.00628E-15 2.79464E-15
 -1      1581 2.21441E+01 1.68051E-02-6.14876E-03-4.26912E-01 5.54138E-14 5.92521E-14
 -1      1582 2.33509E+01 1.84758E-03-1.54544E-03-2.66247E-01 6.00810E-14-3.71959E-14
 -1      1583 2.29867E+01 1.14298E-02-7.31920E-04-2.55716E-01 3.20403E-14 4.25181E-15
 -1      1584 2.26740E+01 1.14733E-02-5.80778E-03-4.81805E-01 9.22673E-14 8.53328E-14
 -1      1585 2.40145E+01-7.90175E-03 1.34849E-03-2.60635E-01 1.08271E-13-2.75835E-13
 -1      1586 2.36423E+01 6.63072E-06-9.57074E-04-2.57132E-01 7.76460E-14-1.72695E-13
 -1      1587 2.32371E+01-1.80551E-03-3.60092E-03-5.00713E-01 1.42259E-13-1.69367E-13
 -1      1588 2.45819E+01-2.47868E-02 7.65665E-03-2.00903E-01-8.12861E-14-2.81518E-13
 -1      1589 2.42649E+01-2.23328E-02-3.15302E-04-2.12455E-01-7.92335E-15-2.94254E-13
 -1      1590 2.37713E+01-2.77734E-02 1.92893E-03-4.45811E-01 2.78666E-14-1.58706E-13
 -1      1591 2.48734E+01-4.95158E-02 1.85861E-02-5.36255E-02-6.64304E-14-8.77215E-14
 -1      1592 2.47188E+01-5.87990E-02 2.18613E-03-9.14234E-02-3.55445E-14-1.91715E-13
 -1      1593 2.41695E+01-7.09029E-02 1.23559E-02-2.63883E-01-9.94066E-14-1.94622E-13
 -1      1594 2.46363E+01-7.80654E-02 3.30727E-02 2.11416E-01 2.94920E-14 8.19952E-14
 -1      1595 2.47963E+01-1.07685E-01 7.31169E-03 1.36034E-01-3.97547E-14-1.88992E-14
 -1      1596 2.42712E+01-1.30774E-01 2.80843E-02 1.03650E-01-9.87457E-14-7.37067E-14
 -1      1597 2.35911E+01-9.72138E-02 4.45629E-02 5.93474E-01 4.59702E-14 2.94625E-14
 -1      1598 2.42343E+01-1.55371E-01 1.40303E-02 4.77751E-01 4.07487E-14 8.30447E-14
 -1      1599 2.38745E+01-1.93231E-01 4.58673E-02 6.87843E-01-5.98133E-15 2.89799E-13
 -1      1600 2.15621E+01-8.42505E-02 3.96789E-02 1.01761E+00-1.79318E-14 1.35392E-13
 -1      1601 2.27913E+01-1.71233E-01 1.74430E-02 8.81692E-01 2.13458E-14 9.59718E-14
 -1      1602 2.27922E+01-2.21230E-01 5.63336E-02 1.42944E+00 6.48023E-14 2.30094E-13
 -1      1603 1.86873E+01-2.03509E-02 5.12670E-03 1.30857E+00-2.03136E-13 3.64972E-13
 -1      1604 2.04102E+01-1.17334E-01 9.33935E-03 1.20459E+00-1.03309E-13 1.76748E-13
 -1      1605 2.09719E+01-1.60235E-01 4.63833E-02 2.11138E+00-1.71634E-13 3.79197E-13
 -1      1606 1.55887E+01 8.31507E-02-5.55759E-02 1.24529E+00 2.30586E-13 3.58713E-13
 -1      1607 1.74186E+01 1.82970E-02-1.52252E-02 1.24099E+00 4.04841E-14 4.24577E-13
 -1      1608 1.86530E+01 2.25704E-02 9.97336E-03 2.37231E+00-4.25424E-14 3.95045E-13
 -1      1609 1.32711E+01 1.72118E-01-1.10451E-01 7.22181E-01 2.98872E-13-1.80328E-13
 -1      1610 1.45992E+01 1.86241E-01-4.74640E-02 8.51361E-01 2.34014E-13 1.26052E-13
 -1      1611 1.64304E+01 2.76614E-01-4.00118E-02 1.89240E+00 4.26135E-13 1.75734E-13
 -1      1612 1.26335E+01 1.89061E-01-1.18288E-01-1.01871E-01 1.15942E-13-5.34385E-13
 -1      1613 1.29286E+01 2.92541E-01-6.47366E-02 1.20101E-01 2.37185E-13-2.74891E-13
 -1      1614 1.50575E+01 4.61243E-01-7.42198E-02 6.92379E-01 4.00471E-13-1.41861E-13
 -1      1615 1.38868E+01 1.26038E-01-7.32168E-02-8.73155E-01-2.64094E-14-5.94497E-13
 -1      1616 1.30341E+01 2.77582E-01-5.25102E-02-6.49778E-01-1.38153E-14-6.23022E-13
 -1      1617 1.50064E+01 4.48529E-01-7.79360E-02-7.66917E-01 1.05183E-13-2.40828E-13
 -1      1618 1.64054E+01 2.28014E-03 1.65119E-02-1.25921E+00-1.65626E-13-2.48163E-13
 -1      1619 1.48004E+01 1.40455E-01-1.20236E-02-1.12284E+00-1.41951E-13-4.62033E-13
 -1      1620 1.61688E+01 2.39630E-01-4.59560E-02-1.85382E+00-2.08750E-13-2.50057E-13
 -1      1621 1.89089E+01-2.15678E-01 1.02580E-01-9.94048E-01 7.43884E-14-1.47118E-13
 -1      1622 1.74000E+01-1.29856E-01 5.11472E-02-1.02487E+00-5.79398E-15-2.08999E-13
 -1      1623 1.79440E+01-1.94588E-01 1.99817E-02-2.04043E+00-2.77764E-14 2.66245E-14
 -1      1624 1.96131E+01-4.47104E-01 1.82782E-01-3.62806E-01-3.30014E-14-2.16493E-14
 -1      1625 1.99053E+01-3.16744E+00 4.84097E-02-1.40846E+00-2.96652E-13-2.73150E-13
 -1      1626 1.97551E+01-1.56186E+00 7.83966E-02-1.25558E+00-8.97893E-14-1.05927E-13
 -1      1627 2.02308E+01-5.66930E+00-3.13909E-02-1.39285E+00-2.31815E-13 1.19366E-13
 -1      1628 2.00324E+01-3.96420E+00 2.73616E-02-1.44263E+00-2.94376E-13-1.30788E-13
 -1      1629 1.98982E+01-2.41812E+00 6.18079E-03-2.57841E+00-1.60497E-13-1.99616E-13
 -1      1630 2.06985E+01-6.64447E+00-1.38147E-01-3.64334E-01-2.25840E-13 1.18530E-13
 -1      1631 2.04199E+01-6.17247E+00-8.34875E-02-6.76061E-01-3.57353E-13 2.76994E-13
 -1      1632 2.06566E+01-3.72264E+00-8.06506E-02-1.82730E+00 6.46011E-14 1.49311E-13
 -1      1633 2.12108E+01-4.42284E+00-2.00149E-01 1.76699E+00-1.31450E-13 2.70339E-14
 -1      1634 2.09176E+01-6.38740E+00-2.46777E-01 1.17797E+00-2.36283E-13 5.67324E-14
 -1      1635 2.15607E+01-4.08196E+00-2.01307E-01 7.83408E-01-1.37125E-13 2.01963E-13
 -1      1636 2.13291E+01 9.68841E-01-1.01030E-01 4.40202E+00-1.61315E-13-2.69201E-13
 -1      1637 2.12007E+01-3.34433E+00-3.40258E-01 3.77874E+00-1.82465E-13 3.20022E-14
 -1      1638 2.24045E+01-2.89033E+00-2.24937E-01 4.89623E+00-2.00444E-13-6.30745E-14
 -1      1639 2.06649E+01 8.24449E+00 1.96712E-01 6.38881E+00-4.55302E-13-1.24414E-13
 -1      1640 2.08820E+01 2.71011E+00-1.90123E-01 6.07859E+00-2.88991E-13-3.37966E-13
 -1      1641 2.23117E+01-1.18397E-01-8.87869E-02 9.11084E+00-2.51493E-13-5.39596E-13
 -1      1642 1.91521E+01 1.59225E+01 6.14463E-01 6.39499E+00-2.24210E-13 2.25819E-13
 -1      1643 1.96886E+01 1.06038E+01 2.40873E-01 6.71886E+00-4.57412E-13 2.68369E-13
 -1      1644 2.06551E+01 3.98542E+00 1.73050E-01 1.15812E+01-3.33067E-13 4.41869E-14
 -1      1645 1.74085E+01 2.14590E+01 9.79968E-01 3.12115E+00-1.28286E-13 5.95635E-14
 -1      1646 1.80498E+01 1.83637E+01 7.85313E-01 4.30737E+00-2.32314E-13 6.76681E-14
 -1      1647 1.78489E+01 8.76610E+00 5.92463E-01 9.61389E+00-2.31815E-13 2.67619E-13
 -1      1648 1.73929E+01 1.96724E+01 8.28685E-01-2.71819E+00-1.58762E-14 1.90847E-13
 -1      1649 1.73501E+01 2.20089E+01 1.09650E+00-1.39639E+00-2.96971E-13 1.59317E-13
 -1      1650 1.48618E+01 1.17566E+01 7.19013E-01 1.78528E+00-8.31314E-14 6.20615E-14
 -1      1651 1.91890E+01 1.22433E+01 3.96820E-01-6.34204E+00-2.70339E-13-3.56354E-13
 -1      1652 1.86037E+01 1.80097E+01 8.37821E-01-6.01744E+00-2.77556E-14-2.22822E-13
 -1      1653 1.59238E+01 1.04006E+01 6.02312E-01-7.46319E+00-2.38740E-13 1.89182E-13
 -1      1654 2.08312E+01 3.11576E+00-4.70532E-02-6.40786E+00-4.10560E-13-2.07251E-13
 -1      1655 2.03301E+01 9.40705E+00 2.82301E-01-6.79242E+00-1.56986E-13-2.24071E-13
 -1      1656 1.98275E+01 5.72822E+00 3.07838E-01-1.17724E+01-5.20573E-14-3.94296E-13
 -1      1657 2.13290E+01-4.06888E+00-2.65538E-01-4.10827E+00-4.94160E-13 2.09471E-13
 -1      1658 2.12645E+01 4.96713E-01-1.04756E-01-4.78537E+00-5.72709E-13 1.23641E-13
 -1      1659 2.18563E+01 4.84408E-01-1.27938E-01-1.02087E+01-2.47219E-13-3.27571E-13
 -1      1660 2.08780E+01-7.81896E+00-2.01840E-01-1.07610E+00-5.13129E-13-9.05526E-14
 -1      1661 2.10612E+01-5.86083E+00-2.32628E-01-1.67472E+00-3.53884E-13 2.06363E-14
 -1      1662 2.23141E+01-3.45301E+00-2.58648E-01-5.27025E+00-6.45019E-13 1.81466E-13
 -1      1663 2.03408E+01-7.54591E+00-4.69901E-02 6.60333E-01-7.76823E-13-1.68428E-13
 -1      1664 2.05671E+01-8.08556E+00-1.11282E-01 4.30611E-01-5.15268E-13 2.15175E-14
 -1      1665 2.13779E+01-5.00352E+00-1.83063E-01-6.65344E-01-6.19052E-13-1.72043E-13
 -1      1666 2.00436E+01-5.53024E+00 2.05232E-02 1.30081E+00-1.17442E-12-1.52912E-13
 -1      1667 2.01925E+01-7.07692E+00-1.18178E-02 1.25613E+00-7.60780E-13-2.59650E-13
 -1      1668 2.05087E+01-4.69393E+00-7.19543E-02 1.70740E+00-6.32917E-13-3.98445E-13
 -1      1669 1.99046E+01-3.15756E+00 2.49189E-02 1.30392E+00-1.15358E-12 8.89666E-14
 -1      1670 1.99832E+01-4.77105E+00 1.74566E-02 1.33563E+00-1.12901E-12 1.46584E-13
 -1      1671 2.00075E+01-3.44629E+00-5.05680E-03 2.42648E+00-5.31068E-13-3.95933E-14
 -1      1672 1.96718E+01-1.22008E+00 1.30707E-02 1.20467E+00-6.07896E-13 1.98714E-13
 -1      1673 1.97459E+01-2.36940E+00 4.47900E-03 1.40933E+00-9.03111E-13 2.03140E-13
 -1      1674 1.97379E+01-1.80515E+00 9.02670E-02 2.38659E+00-3.96475E-13 2.51545E-13
 -1      1675 1.90825E+01-6.20557E-01 6.12698E-02 2.08418E+00-1.87886E-13 1.98685E-13
 -1      1676 1.05364E-01-1.83314E+01-3.26214E+00 1.06897E-01 7.44627E-13 1.56708E-13
 -1      1677-4.75370E-02-2.26391E+01-3.88186E+00 1.23955E+00 2.72449E-13 3.10696E-13
 -1      1678 5.47258E+00-6.49407E+00-1.50171E+00 5.32968E+00 4.84279E-13 1.81133E-13
 -1      1679 3.43823E+00-1.58703E+01-2.87873E+00 3.19658E+00 6.50591E-13 7.85413E-14
 -1      1680 1.42417E+01 4.74139E+00 5.18542E-02 1.10889E+01 5.83755E-13 6.55698E-13
 -1      1681 9.01805E+00-3.54862E+00-1.41995E+00 6.30412E+00 5.42677E-13 4.33875E-13
 -1      1682 2.86815E+01 1.11204E+01 1.24000E+00 1.73153E+01 5.28910E-13 5.27134E-13
 -1      1683 1.93107E+01 7.43350E+00 3.02406E-03 1.24625E+01 5.22471E-13 5.30909E-13
 -1      1684 4.59142E+01 1.13161E+01 1.94340E+00 1.94094E+01 2.01172E-13-1.55431E-15
 -1      1685 3.46044E+01 1.23117E+01 1.08366E+00 1.79188E+01 5.37126E-13 2.24487E-13
 -1      1686 6.01092E+01 8.07813E+00 2.24472E+00 1.56175E+01 5.71071E-14-5.45120E-14
 -1      1687 5.13627E+01 1.09961E+01 1.78910E+00 1.86548E+01-5.55112E-17 3.99680E-14
 -1      1688 6.64858E+01 5.15661E+00 2.17682E+00 6.71336E+00 1.57541E-13-2.16410E-13
 -1      1689 6.28685E+01 7.24214E+00 2.09752E+00 1.28089E+01 1.14686E-13-5.55112E-14
 -1      1690 6.38606E+01 4.49826E+00 1.88868E+00-3.17024E+00 5.50116E-14-2.20934E-13
 -1      1691 6.67590E+01 4.52824E+00 2.16597E+00 3.48252E+00 1.95621E-13-2.45387E-13
 -1      1692 5.24668E+01 5.67175E+00 1.30935E+00-1.02541E+01 1.73042E-13-3.57936E-13
 -1      1693 6.09969E+01 4.23293E+00 1.94496E+00-6.10097E+00 1.27773E-13-2.27596E-13
 -1      1694 3.61518E+01 6.36760E+00 5.05831E-01-1.19899E+01 5.55000E-13-5.17142E-13
 -1      1695 4.72692E+01 5.53233E+00 1.43875E+00-1.19243E+01 4.18054E-13-2.58904E-13
 -1      1696 1.97333E+01 2.14240E+00-4.02720E-01-7.67828E+00 1.13132E-12-8.19789E-13
 -1      1697 3.01930E+01 4.34904E+00 5.82239E-01-1.12300E+01 7.82707E-13-5.16920E-13
 -1      1698 7.05835E+00-3.68801E+00-1.24508E+00-2.94069E+00 1.25522E-12-1.03584E-12
 -1      1699 1.24098E+01 1.37810E+00-3.87098E-01-6.90989E+00 1.23324E-12-1.25611E-12
 -1      1700 1.69724E+00-1.24363E+01-1.73732E+00 5.53630E-01 3.82805E-13-5.93636E-13
 -1      1701 3.54571E+00-6.12684E+00-1.08403E+00-1.46120E+00 1.00275E-12-1.10900E-12
 -1      1702-2.74651E-01-1.89937E+01-1.94141E+00 8.56396E-01-3.80473E-13-3.89355E-13
 -1      1703-1.12591E-01-1.44675E+01-1.57690E+00 1.35903E+00 1.83742E-13-4.83100E-13
 -1      1704-1.02131E+00-2.06396E+01-1.93047E+00-6.45759E-01-6.25541E-13-1.19349E-13
 -1      1705-1.08469E+00-1.98353E+01-1.86704E+00 1.36253E+00-5.47673E-13-8.03801E-14
 -1      1706-7.14030E-01-1.68028E+01-1.73437E+00-1.58387E+00-5.47784E-13 1.32519E-13
 -1      1707-6.67632E-01-2.05920E+01-2.04756E+00-3.08542E-01-7.00273E-13-8.10740E-14
 -1      1708 2.50501E+00-8.45281E+00-1.12467E+00 9.52036E-01-1.64313E-14 9.87543E-14
 -1      1709 1.24337E+00-1.44972E+01-1.71238E+00-3.04569E-01-4.12115E-13 1.30021E-13
 -1      1710 9.07298E+00-7.36069E-02-4.95907E-01 5.40668E+00 1.02363E-13 2.86882E-13
 -1      1711 5.09063E+00-5.87379E+00-1.30666E+00 1.93077E+00-4.55191E-14 1.05360E-13
 -1      1712 2.31596E+01 4.80415E+00 3.49346E-01 1.08781E+01 2.24598E-13 4.32099E-13
 -1      1713 1.46802E+01 1.50823E+00-6.12145E-01 6.82393E+00 2.04281E-13 2.59570E-13
 -1      1714 3.98602E+01 6.34006E+00 1.13636E+00 1.32919E+01 3.59046E-13 2.10498E-13
 -1      1715 2.89797E+01 6.50550E+00 2.24505E-01 1.18279E+01 3.96572E-13 3.58824E-13
 -1      1716 5.53473E+01 4.78538E+00 1.68571E+00 9.31879E+00 7.29833E-14-1.30784E-13
 -1      1717 4.57176E+01 6.33567E+00 9.99222E-01 1.18708E+01 2.14218E-13 2.10942E-14
 -1      1718 6.54260E+01 3.94726E+00 2.09867E+00 8.52153E-01 1.16573E-14-5.34517E-13
 -1      1719 5.99092E+01 4.77182E+00 1.67373E+00 6.96214E+00 1.58887E-13-3.01870E-13
 -1      1720 6.52359E+01 5.80725E+00 2.10055E+00-9.69383E+00 9.14824E-14-5.37487E-13
 -1      1721 6.64382E+01 4.43130E+00 2.07754E+00-2.85270E+00-9.89209E-14-7.21256E-13
 -1      1722 5.52373E+01 9.79782E+00 1.80407E+00-1.67434E+01 2.53672E-13-5.35572E-13
 -1      1723 6.20245E+01 6.98624E+00 2.07045E+00-1.23142E+01 1.28453E-13-4.98712E-13
 -1      1724 4.19804E+01 1.29460E+01 1.48349E+00-1.95774E+01 6.62470E-13-7.32969E-13
 -1      1725 5.14404E+01 1.06641E+01 2.02844E+00-1.89678E+01 5.36404E-13-4.63407E-13
 -1      1726 2.71687E+01 1.10721E+01 6.96324E-01-1.59516E+01 7.30083E-13-7.71383E-13
 -1      1727 3.69217E+01 1.19744E+01 1.58108E+00-1.90544E+01 6.76348E-13-7.50733E-13
 -1      1728 1.45299E+01 4.82493E+00-4.07385E-01-1.03401E+01 4.09228E-13-7.88702E-13
 -1      1729 2.15146E+01 9.86948E+00 7.89005E-01-1.51197E+01 7.19869E-13-7.50067E-13
 -1      1730 7.32596E+00-6.90478E+00-1.76978E+00-5.49114E+00 2.50910E-14-1.79856E-13
 -1      1731 1.09300E+01 1.34774E+00-4.79526E-01-9.28294E+00 1.80744E-13-7.93254E-13
 -1      1732 2.52481E+00-1.74539E+01-3.21490E+00-2.26943E+00-3.35509E-13-1.27263E-13
 -1      1733 3.77308E+00-9.10870E+00-1.98333E+00-3.54172E+00-1.46771E-13 1.60982E-14
 -1      1734 1.05368E+01-7.16291E+00-1.34322E+00-1.08080E+01-1.15019E-13-2.45214E-13
 -1      1735-9.42974E-02-2.30178E+01-3.92684E+00-1.41775E+00 1.82077E-13 4.22440E-13
 -1      1736-1.18808E-01-1.95775E+01-3.51894E+00-1.18411E-01-2.15050E-13 2.87104E-13
 -1      1737 3.55263E+01 5.80272E+00 9.94764E-01 1.28250E+01 4.99600E-13 1.00808E-13
 -1      1738 2.38215E+01-1.34316E-01 7.77238E-02 1.24395E+01 4.40759E-13 4.78950E-13
 -1      1739 1.96000E+01-8.59519E-01 1.39497E-01-1.06863E+00-7.29139E-14-3.38323E-14
 -1      1740 1.92413E+01-9.84986E-01 7.35845E-02-2.13448E+00 1.08708E-13 1.07137E-14
 -1      1741 4.02487E+00-9.82543E+00-1.98549E+00 7.43288E+00 2.79665E-13 7.29417E-14
 -1      1742 1.30791E+01-6.44646E+00-1.07689E+00 1.10499E+01 2.31815E-13 2.69118E-13
 -1      1743-3.61528E-01-1.21148E+01-2.65747E+00-1.08381E-02 1.81619E-13 5.64548E-13
 -1      1744 4.63754E+01 9.39817E+00 1.57739E+00 1.18767E+01 3.47083E-13 1.43219E-13
 -1      1745 5.40497E+01 1.02982E+01 1.84576E+00 8.92177E+00 1.45328E-13-8.19345E-14
 -1      1746 5.65590E+01 9.67228E+00 1.81936E+00 4.23889E+00 1.19293E-13-2.07959E-13
 -1      1747 5.41035E+01 8.11063E+00 1.64578E+00-4.16950E-01 1.23512E-13-2.05835E-13
 -1      1748 4.66213E+01 5.51906E+00 1.20569E+00-4.17291E+00 4.10415E-13-1.56875E-13
 -1      1749 3.52205E+01 8.76768E-01 4.14988E-01-5.44474E+00 7.29139E-13-1.75304E-13
 -1      1750 2.27976E+01-3.10580E+00-2.99645E-03-6.46170E+00 7.49845E-13-4.37428E-13
 -1      1751 1.04926E+01-7.34909E+00-7.35826E-01-5.04556E+00 6.54699E-13-9.76441E-13
 -1      1752 3.05432E+00-1.18062E+01-1.19306E+00-3.06341E+00 1.84408E-13-8.54081E-13
 -1      1753-1.03727E+00-1.41263E+01-1.33499E+00-1.25207E+00-7.28306E-14-5.36182E-13
 -1      1754-1.70521E+00-1.47904E+01-1.41225E+00 7.40985E-01-3.22464E-13-7.52731E-14
 -1      1755 1.64566E+00-1.25433E+01-1.17584E+00 3.01213E+00-3.52274E-13 4.02151E-13
 -1      1756 8.12288E+00-8.51078E+00-8.24437E-01 4.90690E+00-1.67422E-13 1.46605E-13
 -1      1757 1.81050E+01-3.74817E+00-2.51200E-01 6.62328E+00-6.68354E-14 1.69309E-13
 -1      1758 3.00428E+01 7.69522E-01 3.17034E-01 7.15954E+00 2.59126E-13 2.24709E-13
 -1      1759 4.19900E+01 4.68787E+00 9.72460E-01 6.10399E+00 4.38080E-13 5.26246E-14
 -1      1760 5.14381E+01 7.10770E+00 1.44528E+00 2.54134E+00 3.56909E-13-1.07692E-13
 -1      1761 5.66832E+01 8.97521E+00 1.81666E+00-2.25467E+00 4.05787E-14-5.26412E-13
 -1      1762 5.48343E+01 1.02261E+01 1.75559E+00-7.13268E+00 8.38773E-14-5.10036E-13
 -1      1763 4.89119E+01 1.04468E+01 1.63097E+00-1.10939E+01 4.96631E-13-3.64153E-13
 -1      1764 4.03030E+01 8.21441E+00 1.26010E+00-1.28541E+01 6.44040E-13-5.31242E-13
 -1      1765 3.00501E+01 4.04787E+00 6.90305E-01-1.31812E+01 4.73954E-13-5.12035E-13
 -1      1766 1.94913E+01-2.01313E+00-3.16764E-01-1.22759E+01 8.43769E-14-7.85816E-13
 -1      1767 2.28613E+01 1.98490E+00-2.35603E-02-2.72198E+00-2.04458E-13 7.76157E-13
 -1      1768 3.00055E+00-1.13998E+01-2.29874E+00-6.28307E+00-1.18794E-14 5.41234E-14
 -1      1769 1.98259E+01 3.71372E+00-3.54732E-02-2.15191E+00-2.48208E-13-2.78642E-13
 -1      1770 2.00591E+01 3.56275E+00-4.02412E-02-2.44418E+00-2.85365E-13-1.98567E-13
 -1      1771 2.03649E+01 3.18156E+00-4.57886E-02-2.58407E+00-2.90773E-13-9.03166E-14
 -1      1772 2.05853E+01 2.80975E+00-1.42518E-01-2.85243E+00-3.21874E-13 5.54973E-14
 -1      1773 2.04254E+01 2.69289E+00-4.24152E-03-2.22347E+00-3.12260E-13-1.26642E-13
 -1      1774 1.93545E+01 4.18906E+00-2.00389E-02-1.26971E+00-1.36304E-13-4.30713E-13
 -1      1775 1.94287E+01 4.14950E+00-1.68715E-02-1.49408E+00-1.65756E-13-4.15834E-13
 -1      1776 1.92571E+01 4.29504E+00-1.67454E-02-8.58995E-01-8.32986E-14-4.57578E-13
 -1      1777 1.93002E+01 4.27109E+00-1.42239E-02-1.06965E+00-1.08052E-13-4.47010E-13
 -1      1778 1.95263E+01 3.78359E+00-8.93213E-03-1.11868E+00-1.35115E-13-4.21526E-13
 -1      1779 1.92052E+01 4.35546E+00-1.47873E-02-4.66449E-01-2.85279E-14-4.61917E-13
 -1      1780 1.92273E+01 4.34261E+00-1.32963E-02-6.66622E-01-5.37234E-14-4.61887E-13
 -1      1781 1.94282E+01 3.90383E+00-9.14869E-03-7.32638E-01-7.19305E-14-4.40896E-13
 -1      1782 1.91857E+01 4.38105E+00-1.36618E-02-8.35619E-02 2.53618E-14-4.58333E-13
 -1      1783 1.91922E+01 4.37714E+00-1.32083E-02-2.78883E-01 1.14527E-15-4.60156E-13
 -1      1784 1.93777E+01 3.96825E+00-9.14722E-03-3.58037E-01-1.62902E-14-4.42814E-13
 -1      1785 1.91938E+01 4.37576E+00-1.31646E-02 2.97930E-01 8.05316E-14-4.53138E-13
 -1      1786 1.91862E+01 4.38022E+00-1.37472E-02 1.02445E-01 5.81318E-14-4.61551E-13
 -1      1787 1.93628E+01 3.98765E+00-9.14022E-03 1.05511E-02 4.29533E-14-4.45866E-13
 -1      1788 1.92314E+01 4.33856E+00-1.33226E-02 6.86417E-01 1.27309E-13-4.35561E-13
 -1      1789 1.92080E+01 4.35224E+00-1.49137E-02 4.85726E-01 1.10130E-13-4.45418E-13
 -1      1790 1.93804E+01 3.96493E+00-9.18368E-03 3.79332E-01 1.03336E-13-4.34036E-13
 -1      1791 1.93053E+01 4.26513E+00-1.44038E-02 1.08387E+00 1.78994E-13-4.15881E-13
 -1      1792 1.92617E+01 4.28959E+00-1.69712E-02 8.75988E-01 1.54094E-13-4.35039E-13
 -1      1793 1.94335E+01 3.89740E+00-9.18952E-03 7.51249E-01 1.53624E-13-4.23793E-13
 -1      1794 1.94376E+01 4.13789E+00-1.73970E-02 1.51370E+00 2.36578E-13-3.51153E-13
 -1      1795 1.93608E+01 4.18047E+00-2.05028E-02 1.28424E+00 2.01625E-13-3.83003E-13
 -1      1796 1.95337E+01 3.77344E+00-9.23580E-03 1.13480E+00 2.11466E-13-3.88016E-13
 -1      1797 1.96675E+01 3.92128E+00-2.51873E-02 1.97867E+00 2.96448E-13-2.67120E-13
 -1      1798 1.95343E+01 3.99806E+00-2.69067E-02 1.72137E+00 2.62321E-13-3.17781E-13
 -1      1799 1.97078E+01 3.56629E+00-8.69325E-03 1.53434E+00 2.67017E-13-3.11811E-13
 -1      1800 2.00770E+01 3.52287E+00-4.51780E-02 2.47111E+00 3.30663E-13-1.10450E-13
 -1      1801 1.98365E+01 3.68334E+00-3.97272E-02 2.18199E+00 3.04728E-13-2.07227E-13
 -1      1802 2.00050E+01 3.22304E+00-5.26982E-03 1.93358E+00 3.21902E-13-2.08885E-13
 -1      1803 2.09229E+01 2.68180E+00-5.76411E-02 2.85694E+00 3.27928E-13 2.03379E-13
 -1      1804 2.04153E+01 3.09696E+00-5.04298E-02 2.61508E+00 3.21087E-13 1.79787E-14
 -1      1805 2.05189E+01 2.60999E+00 3.18815E-03 2.24359E+00 3.35424E-13-3.93886E-14
 -1      1806 2.17335E+01 1.21294E+00-1.22088E-01 2.32919E+00 2.77937E-13 5.89986E-13
 -1      1807 2.12769E+01 2.26301E+00 1.16112E-04 2.73968E+00 3.00315E-13 3.41852E-13
 -1      1808 2.09397E+01 1.68502E+00-2.29508E-02 2.13934E+00 3.27316E-13 2.07001E-13
 -1      1809 2.09551E+01 7.78661E-01-6.24374E-02 1.52350E+00 2.71012E-13 5.03863E-13
 -1      1810 2.17993E+01 2.45818E+00 9.09020E-02-3.04747E+00-2.77559E-13 3.10529E-13
 -1      1811 2.01047E+01 2.97966E-01-8.90757E-03 6.56331E-01 2.15078E-13 3.53993E-13
 -1      1812 2.06565E+01 4.40418E-01-1.24631E-02 1.03338E+00 2.25486E-13 4.38879E-13
 -1      1813 2.07475E+01 8.45121E-01 2.24311E-03 1.41433E+00 2.75134E-13 2.75190E-13
 -1      1814 4.85268E+00-5.50091E+00-1.09700E+00-6.53237E+00 2.38698E-13 4.10116E-13
 -1      1815 8.11020E+00-4.84376E+00-8.17993E-01-9.84473E+00-3.44169E-14-6.82787E-14
 -1      1816 2.15096E+01 1.74230E+00 7.94313E-02-2.33635E+00-2.96776E-13 1.99452E-13
 -1      1817 2.05238E+01 5.00611E-01 3.23907E-02-9.20900E-01-2.51944E-13 1.62084E-13
 -1      1818 2.00923E+01 3.52156E-01 7.57159E-03-6.29013E-01-2.15796E-13 1.04764E-13
 -1      1819 1.98980E+01 2.57498E-01 2.74109E-02-3.90387E-01-1.86107E-13 9.12430E-14
 -1      1820 1.97074E+01 1.78102E-01 1.04243E-02-2.52519E-01-1.55791E-13 4.03974E-14
 -1      1821 2.02017E+01 4.83573E-01-5.98281E-03-7.21730E-01-2.45308E-13-1.90091E-14
 -1      1822 1.95855E+01 1.32694E-01 1.66518E-02-1.19052E-01-1.40607E-13 2.40606E-14
 -1      1823 1.95077E+01 9.30400E-02 6.96467E-03-4.82777E-02-1.20873E-13-1.75060E-14
 -1      1824 1.98762E+01 2.43849E-01-5.78577E-03-2.94518E-01-1.81806E-13-4.97514E-14
 -1      1825 1.94429E+01 6.83741E-02 8.67397E-03 2.52197E-02-1.00613E-13-4.00548E-14
 -1      1826 1.94287E+01 4.66865E-02 4.10646E-03 6.13751E-02-8.53248E-14-5.22664E-14
 -1      1827 1.96938E+01 1.25195E-01-4.63824E-03-5.78526E-02-1.46096E-13-8.29605E-14
 -1      1828 1.94027E+01 3.23334E-02 4.22724E-03 1.00046E-01-1.10312E-13-8.63595E-14
 -1      1829 1.94227E+01 1.98679E-02 2.42501E-03 1.16775E-01-9.93677E-14-1.27735E-13
 -1      1830 1.96075E+01 6.08682E-02-3.46017E-03 7.16718E-02-1.34550E-13-1.21549E-13
 -1      1831 1.94210E+01 1.11976E-02 1.84503E-03 1.34607E-01-8.90518E-14-1.45425E-13
 -1      1832 1.94582E+01 3.97796E-03 1.43841E-03 1.39949E-01-8.44900E-14-1.78903E-13
 -1      1833 1.95835E+01 2.39149E-02-2.32980E-03 1.37928E-01-1.12643E-13-1.94120E-13
 -1      1834 1.94707E+01-1.25618E-03 5.41535E-04 1.45184E-01-9.24683E-14-1.85655E-13
 -1      1835 1.95149E+01-5.28724E-03 8.20115E-04 1.43834E-01-6.61128E-14-1.70488E-13
 -1      1836 1.95970E+01 2.27035E-03-1.42606E-03 1.65967E-01-9.28147E-14-2.31127E-13
 -1      1837 1.95348E+01-8.32646E-03-1.83213E-04 1.41588E-01-7.10979E-14-1.73201E-13
 -1      1838 1.95801E+01-1.03498E-02 4.17428E-04 1.36470E-01-6.37860E-14-1.86838E-13
 -1      1839 1.96315E+01-1.01287E-02-7.76881E-04 1.70918E-01-8.44847E-14-2.45057E-13
 -1      1840 1.96029E+01-1.19516E-02-5.73618E-04 1.30022E-01-3.55343E-14-1.81662E-13
 -1      1841 1.96456E+01-1.26988E-02 1.55765E-04 1.23013E-01 3.06311E-14-1.98207E-13
 -1      1842 1.96758E+01-1.66992E-02-3.39790E-04 1.62329E-01-5.78160E-14-2.16786E-13
 -1      1843 1.96686E+01-1.33568E-02-7.59360E-04 1.14500E-01 5.75922E-14-2.33224E-13
 -1      1844 1.97071E+01-1.33037E-02-8.03180E-06 1.06808E-01 2.74130E-14-2.31446E-13
 -1      1845 1.97229E+01-1.95341E-02-6.06357E-05 1.46386E-01 6.68454E-15-1.81593E-13
 -1      1846 1.97286E+01-1.33519E-02-8.17098E-04 9.76161E-02 8.79288E-15-2.15520E-13
 -1      1847 1.97619E+01-1.28152E-02-1.02642E-04 9.00073E-02 2.48690E-14-2.40544E-13
 -1      1848 1.97685E+01-1.99904E-02 1.06235E-04 1.27123E-01 1.17780E-14-2.52419E-13
 -1      1849 1.97812E+01-1.24817E-02-7.95749E-04 8.10153E-02 2.81842E-14-2.38258E-13
 -1      1850 1.98092E+01-1.16713E-02-1.48022E-04 7.39584E-02-8.35649E-15-1.73390E-13
 -1      1851 1.98101E+01-1.89733E-02 1.94976E-04 1.07147E-01 2.10964E-14-1.86857E-13
 -1      1852 1.98259E+01-1.11096E-02-7.27521E-04 6.57063E-02-3.26129E-14-1.38089E-13
 -1      1853 1.98489E+01-1.01601E-02-1.57871E-04 5.94723E-02-4.31952E-14-1.00529E-13
 -1      1854 1.98467E+01-1.70869E-02 2.30093E-04 8.80986E-02-8.26016E-15-1.15877E-13
 -1      1855 1.98630E+01-9.46904E-03-6.33586E-04 5.22759E-02-1.08342E-13-6.63263E-14
 -1      1856 1.98816E+01-8.45943E-03-1.41108E-04 4.70111E-02-1.04972E-13-9.61064E-14
 -1      1857 1.98779E+01-1.47230E-02 2.28735E-04 7.09756E-02-4.83028E-14-8.62544E-14
 -1      1858 1.98934E+01-7.69667E-03-5.27454E-04 4.10481E-02-1.02929E-13-1.36111E-13
 -1      1859 1.99083E+01-6.66465E-03-1.02882E-04 3.68273E-02-1.23254E-13-1.70994E-13
 -1      1860 1.99041E+01-1.21177E-02 2.02528E-04 5.63596E-02-1.50006E-13-5.68709E-14
 -1      1861 1.99182E+01-5.85659E-03-4.17200E-04 3.22007E-02-1.46330E-13-2.07309E-13
 -1      1862 1.99302E+01-4.80843E-03-4.53184E-05 2.90683E-02-1.04561E-13-1.96725E-13
 -1      1863 1.99260E+01-9.39080E-03 1.58941E-04 4.45871E-02-1.42987E-13-1.20047E-13
 -1      1864 1.99387E+01-3.95736E-03-3.07034E-04 2.58555E-02-7.47471E-14-2.10225E-13
 -1      1865 1.99487E+01-2.87506E-03 3.19369E-05 2.38565E-02-5.34228E-14-2.54732E-13
 -1      1866 1.99444E+01-6.57306E-03 1.02311E-04 3.58768E-02-9.00199E-14-9.28970E-14
 -1      1867 1.99564E+01-1.96463E-03-1.98449E-04 2.21455E-02-7.94367E-14-2.65757E-13
 -1      1868 1.99655E+01-8.11241E-04 1.31284E-04 2.13495E-02-5.50377E-14-2.86764E-13
 -1      1869 1.99606E+01-3.62701E-03 3.46326E-05 3.04263E-02-7.76853E-14-1.97820E-13
 -1      1870 1.99730E+01 1.89292E-04-9.11007E-05 2.12682E-02 1.44754E-15-2.88622E-13
 -1      1871 1.99822E+01 1.46561E-03 2.56785E-04 2.17884E-02 3.82316E-14-2.76183E-13
 -1      1872 1.99759E+01-4.62024E-04-4.38186E-05 2.84863E-02-3.22376E-14-1.79383E-13
 -1      1873 1.99904E+01 2.59778E-03 1.64921E-05 2.35254E-02 7.60768E-14-2.48614E-13
 -1      1874 2.00009E+01 4.06014E-03 4.13746E-04 2.55323E-02 9.03447E-14-2.51567E-13
 -1      1875 1.99918E+01 3.05361E-03-1.33959E-04 3.04174E-02 1.04982E-13-1.58319E-13
 -1      1876 2.00107E+01 5.37268E-03 1.26341E-04 2.93528E-02 5.78100E-14-1.67979E-13
 -1      1877 2.00238E+01 7.09153E-03 6.08166E-04 3.30842E-02 1.13353E-13-1.42508E-13
 -1      1878 2.00099E+01 7.08182E-03-2.37415E-04 3.67312E-02 1.20999E-13-1.31530E-13
 -1      1879 2.00362E+01 8.63600E-03 2.40411E-04 3.93383E-02 1.03719E-13-1.50829E-13
 -1      1880 2.00536E+01 1.06837E-02 8.45924E-04 4.51032E-02 1.35065E-13-1.33171E-13
 -1      1881 2.00322E+01 1.18027E-02-3.56028E-04 4.81168E-02 1.13658E-13-3.13815E-14
 -1      1882 2.00698E+01 1.25083E-02 3.60008E-04 5.42253E-02 7.01658E-14-1.79249E-13
 -1      1883 2.00933E+01 1.49509E-02 1.13149E-03 6.24000E-02-8.79287E-14-7.79414E-14
 -1      1884 2.00609E+01 1.73981E-02-4.91294E-04 6.54497E-02 9.13954E-14-1.72186E-13
 -1      1885 2.01147E+01 1.70909E-02 4.85055E-04 7.48953E-02-1.47507E-13-4.22687E-14
 -1      1886 2.01464E+01 1.99743E-02 1.46588E-03 8.59075E-02-1.27256E-13-9.70854E-14
 -1      1887 2.00987E+01 2.40270E-02-6.43694E-04 8.97753E-02-4.47006E-14-1.85565E-13
 -1      1888 2.01745E+01 2.24369E-02 6.13202E-04 1.02318E-01-1.45339E-13-1.09572E-13
 -1      1889 2.02170E+01 2.57652E-02 1.84354E-03 1.16610E-01-1.16869E-13-1.81451E-13
 -1      1890 2.01484E+01 3.17858E-02-8.11873E-04 1.22254E-01-1.46221E-13-1.88791E-13
 -1      1891 2.02535E+01 2.85063E-02 7.38723E-04 1.37450E-01-4.51750E-14-1.71813E-13
 -1      1892 2.03095E+01 3.22061E-02 2.24740E-03 1.55413E-01 5.32202E-14-1.27128E-13
 -1      1893 2.02134E+01 4.06451E-02-9.91660E-04 1.64052E-01-7.76877E-14-9.39153E-14
 -1      1894 2.03562E+01 3.50927E-02 8.51214E-04 1.81053E-01 1.20538E-13-2.13859E-13
 -1      1895 2.04285E+01 3.89586E-02 2.64170E-03 2.02908E-01 1.68708E-13-1.36273E-13
 -1      1896 2.02971E+01 5.03490E-02-1.17498E-03 2.16139E-01 6.33140E-14-9.59140E-14
 -1      1897 2.04872E+01 4.17124E-02 9.34220E-04 2.33392E-01 9.15209E-14-1.46679E-13
 -1      1898 2.05786E+01 4.53217E-02 2.96160E-03 2.59003E-01 7.91749E-15-2.02439E-13
 -1      1899 2.04034E+01 6.02592E-02-1.34883E-03 2.78953E-01 8.86167E-14-2.80991E-13
 -1      1900 2.06510E+01 4.74346E-02 9.64173E-04 2.93746E-01-1.12171E-13-1.80368E-13
 -1      1901 2.07636E+01 5.00237E-02 3.09945E-03 3.22315E-01-1.60847E-13-1.55876E-13
 -1      1902 2.05357E+01 6.91183E-02-1.49448E-03 3.51872E-01-7.98699E-15-2.16443E-13
 -1      1903 2.08510E+01 5.06382E-02 9.10451E-04 3.59662E-01-1.21550E-13-1.71058E-13
 -1      1904 2.09855E+01 5.09310E-02 2.88865E-03 3.89275E-01-6.93149E-14-1.52381E-13
 -1      1905 2.06970E+01 7.47062E-02-1.58739E-03 4.32396E-01-9.97397E-14-1.79020E-13
 -1      1906 2.10884E+01 4.86841E-02 7.37954E-04 4.25848E-01-1.27581E-13-8.31037E-14
 -1      1907 2.12431E+01 4.46836E-02 2.08961E-03 4.52821E-01-9.27527E-14-7.13830E-14
 -1      1908 2.08889E+01 7.33759E-02-1.59783E-03 5.14949E-01-1.00771E-13 3.36370E-14
 -1      1909 2.13607E+01 3.75380E-02 4.14017E-04 4.82633E-01-2.25085E-14-1.44340E-13
 -1      1910 2.15296E+01 2.63367E-02 3.89288E-04 5.00660E-01 4.35062E-14-1.05987E-13
 -1      1911 2.11110E+01 5.95064E-02-1.49153E-03 5.89218E-01-8.10156E-14 7.36879E-14
 -1      1912 2.16595E+01 1.14825E-02-7.96017E-05 5.14047E-01 4.98201E-14-1.58237E-13
 -1      1913 2.18305E+01-1.07443E-02-2.56218E-03 5.13261E-01 3.47997E-14-1.14080E-13
 -1      1914 2.13596E+01 2.50549E-02-1.22744E-03 6.38042E-01-7.45026E-15-1.86421E-13
 -1      1915 2.19675E+01-3.67055E-02-7.33216E-04 4.95855E-01 6.14120E-14-8.40343E-14
 -1      1916 2.21195E+01-7.41510E-02-7.03682E-03 4.62201E-01 1.29177E-13-4.85350E-14
 -1      1917 2.16263E+01-4.03003E-02-7.44935E-04 6.35159E-01 4.56290E-14-5.32378E-14
 -1      1918 2.22546E+01-1.14306E-01-1.50982E-03 3.94629E-01 1.09105E-13-3.08512E-14
 -1      1919 2.23559E+01-1.69757E-01-1.29839E-02 3.10488E-01 1.09379E-13-3.87600E-14
 -1      1920 2.18958E+01-1.47349E-01 7.35316E-05 5.43749E-01 1.23943E-13 1.76012E-14
 -1      1921 2.24745E+01-2.24577E-01-2.39173E-03 1.70230E-01 1.93705E-13-6.53791E-14
 -1      1922 2.24826E+01-2.95551E-01-1.96116E-02 1.80123E-02 9.91186E-14-1.57114E-14
 -1      1923 2.21433E+01-3.02024E-01 1.47073E-03 3.17979E-01 1.72419E-13-4.57267E-14
 -1      1924 2.25611E+01-3.58523E-01-3.45822E-03-2.14085E-01-2.32982E-14-9.78323E-14
 -1      1925 2.24276E+01-4.31062E-01-2.48683E-02-4.43084E-01-1.40555E-13-9.78772E-14
 -1      1926 2.23305E+01-4.94457E-01 3.88601E-03-8.83504E-02 2.29781E-14-2.02377E-14
 -1      1927 2.24298E+01-4.82797E-01-4.99174E-03-7.68608E-01-1.24338E-13-9.07998E-15
 -1      1928 2.21131E+01-5.25464E-01-2.53409E-02-1.05882E+00-1.67399E-13 9.49180E-14
 -1      1929 2.23996E+01-6.82263E-01 7.88448E-03-7.00177E-01-5.86640E-14 1.20146E-14
 -1      1930 2.19909E+01-5.30547E-01-7.43043E-03-1.43946E+00-2.48690E-13 1.98260E-13
 -1      1931 2.14782E+01-4.96404E-01-1.73749E-02-1.73315E+00-1.29328E-13 9.21468E-14
 -1      1932 2.22713E+01-7.76486E-01 1.33086E-02-1.48191E+00-2.05927E-13 2.61927E-13
 -1      1933 2.11856E+01-4.11786E-01-1.04801E-02-2.06943E+00-1.51762E-14 1.15525E-13
 -1      1934 2.05199E+01-2.59793E-01 4.55461E-05-2.26027E+00 2.43761E-13 9.06983E-14
 -1      1935 2.18571E+01-6.51901E-01 1.78337E-02-2.28812E+00-6.67869E-17 4.21740E-13
 -1      1936 2.00507E+01-6.44912E-02-1.17578E-02-2.39606E+00 3.40825E-13-9.93858E-14
 -1      1937 1.93466E+01 1.96702E-01 2.14635E-02-2.35698E+00 2.28910E-13 2.76393E-14
 -1      1938 2.11070E+01-2.10273E-01 1.61720E-02-2.83869E+00 1.58067E-13 2.55152E-13
 -1      1939 1.87849E+01 4.59488E-01-6.96823E-03-2.14371E+00 2.60736E-13 3.73764E-14
 -1      1940 1.82114E+01 7.39132E-01 3.58352E-02-1.80048E+00 4.74475E-13 2.83251E-13
 -1      1941 2.00937E+01 5.07201E-01 3.88956E-03-2.78448E+00 3.10801E-13 2.53951E-13
 -1      1942 1.77319E+01 9.54611E-01 5.75956E-03-1.21069E+00 4.18452E-13 2.87421E-13
 -1      1943 1.74528E+01 1.11016E+00 3.40438E-02-6.21120E-01 3.43458E-13 4.31371E-13
 -1      1944 1.90686E+01 1.25069E+00-1.49870E-02-1.90917E+00 4.65943E-13 2.51782E-13
 -1      1945 1.72282E+01 1.15408E+00 2.13024E-02 1.74749E-01 2.22444E-13 4.03657E-13
 -1      1946 1.73277E+01 1.08983E+00 2.04764E-02 8.08041E-01 2.10686E-13 4.11495E-13
 -1      1947 1.83776E+01 1.65124E+00-2.66192E-02-3.62285E-01 2.56078E-13 2.77978E-13
 -1      1948 1.73919E+01 9.01646E-01 2.70091E-02 1.52414E+00 1.65496E-13 3.36340E-13
 -1      1949 1.78320E+01 6.01304E-01 3.30173E-03 1.93648E+00 1.05127E-13 3.57357E-13
 -1      1950 1.82201E+01 1.47582E+00-1.59986E-02 1.31661E+00 1.30234E-13 3.33446E-13
 -1      1951 1.80596E+01 2.52064E-01 2.92238E-02 2.23831E+00 1.14233E-13 2.74145E-13
 -1      1952 1.86439E+01-2.36115E-01-2.08220E-02 2.20057E+00 4.80358E-14 2.50029E-13
 -1      1953 1.90230E+01-5.75502E-01-1.02933E-02 2.62344E+00-1.13751E-13 2.58326E-13
 -1      1954 1.85035E+01 6.08770E-01-1.47895E-02 2.42263E+00 8.06430E-14 2.65343E-13
 -1      1955 1.96226E+01 1.42082E-01 7.88890E-03 2.58643E-01 1.71262E-13 2.41560E-13
 -1      1956 1.98943E+01 2.04136E-01 1.64365E-02 4.31680E-01 1.77837E-13 3.12410E-13
 -1      1957 2.01056E+01 3.50594E-01-1.53567E-03 6.54090E-01 2.22588E-13 1.91443E-13
 -1      1958 1.93808E+01 7.19704E-02 6.95413E-03 5.55808E-02 1.58428E-13 1.53002E-13
 -1      1959 1.94955E+01 1.01853E-01 1.41981E-02 1.44147E-01 1.48165E-13 2.11010E-13
 -1      1960 1.97133E+01 1.65257E-01-1.94587E-03 2.55241E-01 1.88610E-13 1.15175E-13
 -1      1961 1.92910E+01 3.62124E-02 4.43629E-03-4.99807E-02 9.76402E-14 1.11274E-13
 -1      1962 1.93208E+01 5.20260E-02 8.33838E-03-2.71367E-03 1.22795E-13 1.41987E-13
 -1      1963 1.95136E+01 8.07627E-02-2.82576E-03 4.31455E-02 1.56939E-13 5.99997E-14
 -1      1964 1.92900E+01 1.62677E-02 2.86718E-03-1.02576E-01 6.70440E-14 3.76476E-14
 -1      1965 1.92743E+01 2.51352E-02 4.35298E-03-7.78919E-02 8.04185E-14 8.51793E-14
 -1      1966 1.94351E+01 3.75651E-02-2.84232E-03-6.88762E-02 1.03511E-13 4.53674E-15
 -1      1967 1.93379E+01 4.62138E-03 1.99159E-03-1.24751E-01 6.94326E-14-5.93004E-15
 -1      1968 1.92991E+01 9.66324E-03 2.14646E-03-1.13266E-01 6.76221E-14 1.39604E-14
 -1      1969 1.94291E+01 1.37221E-02-2.31274E-03-1.24532E-01 9.07039E-14-6.78716E-14
 -1      1970 1.94100E+01-2.18778E-03 1.44823E-03-1.29010E-01 6.03864E-14-7.28707E-14
 -1      1971 1.93611E+01 5.69288E-04 9.46259E-04-1.25468E-01 6.64772E-14-1.80048E-14
 -1      1972 1.94642E+01 1.15403E-04-1.69256E-03-1.47146E-01 9.21478E-14-8.92296E-14
 -1      1973 1.94912E+01-5.98939E-03 1.06531E-03-1.22877E-01 8.97696E-14-1.11776E-13
 -1      1974 1.94398E+01-4.65162E-03 2.71493E-04-1.24075E-01 7.84277E-14-7.34549E-14
 -1      1975 1.95203E+01-7.52323E-03-1.16942E-03-1.50170E-01 1.02328E-13-9.71763E-14
 -1      1976 1.95720E+01-7.86151E-03 7.78365E-04-1.11093E-01 1.66451E-14-1.09068E-13
 -1      1977 1.95227E+01-7.41562E-03-1.14118E-04-1.14983E-01 5.46717E-14-1.14569E-13
 -1      1978 1.95846E+01-1.14765E-02-7.76050E-04-1.41859E-01 8.33567E-14-8.74749E-14
 -1      1979 1.96473E+01-8.49146E-03 5.60176E-04-9.67085E-02 1.94161E-14-7.06821E-14
 -1      1980 1.96025E+01-8.59691E-03-3.25904E-04-1.01955E-01 1.71938E-14-9.38759E-14
 -1      1981 1.96495E+01-1.30976E-02-4.93445E-04-1.27476E-01 1.57822E-14-6.09693E-14
 -1      1982 1.97141E+01-8.33669E-03 3.95204E-04-8.16799E-02 8.39691E-14-6.67051E-14
 -1      1983 1.96750E+01-8.76755E-03-4.27463E-04-8.74106E-02 5.03033E-14-8.01329E-14
 -1      1984 1.97102E+01-1.32484E-02-2.95536E-04-1.10418E-01 4.52906E-14-1.36304E-13
 -1      1985 1.97715E+01-7.70589E-03 2.72435E-04-6.72305E-02 1.25851E-13-1.24105E-13
 -1      1986 1.97384E+01-8.31190E-03-4.58154E-04-7.28878E-02 1.14584E-13-7.29801E-14
 -1      1987 1.97645E+01-1.24995E-02-1.60480E-04-9.28628E-02 1.35041E-13-9.65762E-14
 -1      1988 1.98195E+01-6.80451E-03 1.83578E-04-5.40923E-02 3.05072E-14-1.73300E-13
 -1      1989 1.97922E+01-7.48803E-03-4.43838E-04-5.93313E-02 4.88629E-14-1.45236E-13
 -1      1990 1.98113E+01-1.12303E-02-7.17580E-05-7.61678E-02 7.96034E-14-7.01566E-14
 -1      1991 1.98587E+01-5.76300E-03 1.22451E-04-4.26749E-02-2.22622E-14-1.28818E-13
 -1      1992 1.98366E+01-6.46411E-03-4.01685E-04-4.72919E-02 4.03470E-15-1.57662E-13
 -1      1993 1.98506E+01-9.68764E-03-1.72636E-05-6.11462E-02 1.15175E-14-1.13673E-13
 -1      1994 1.98903E+01-4.65571E-03 8.46570E-05-3.31900E-02-4.93492E-14-1.46485E-13
 -1      1995 1.98727E+01-5.34191E-03-3.42793E-04-3.70690E-02-5.61568E-15-1.33183E-13
 -1      1996 1.98829E+01-8.02125E-03 1.16770E-05-4.82581E-02-1.33952E-14-1.48613E-13
 -1      1997 1.99156E+01-3.51418E-03 6.73792E-05-2.57439E-02 9.07794E-14-2.05898E-13
 -1      1998 1.99017E+01-4.17303E-03-2.73852E-04-2.88163E-02 1.74993E-14-1.84311E-13
 -1      1999 1.99094E+01-6.30832E-03 2.10614E-05-3.77532E-02 4.25358E-14-1.60895E-13
 -1      2000 1.99363E+01-2.33670E-03 6.92560E-05-2.04092E-02 6.76260E-14-2.34845E-13
 -1      2001 1.99252E+01-2.97049E-03-1.98289E-04-2.26221E-02 8.72958E-14-2.32629E-13
 -1      2002 1.99311E+01-4.57066E-03 1.47594E-05-2.97786E-02 1.24834E-13-1.98423E-13
 -1      2003 1.99541E+01-1.09517E-03 9.03181E-05-1.72798E-02-1.22775E-13-3.05704E-13
 -1      2004 1.99447E+01-1.71694E-03-1.17077E-04-1.85711E-02-3.41622E-14-3.12674E-13
 -1      2005 1.99495E+01-2.78694E-03-5.08345E-06-2.44607E-02 7.64982E-15-2.41963E-13
 -1      2006 1.99707E+01 2.60254E-04 1.31962E-04-1.65151E-02-3.76604E-14-3.78650E-13
 -1      2007 1.99620E+01-3.70574E-04-2.93317E-05-1.67932E-02-4.00196E-14-3.19111E-13
 -1      2008 1.99662E+01-9.01346E-04-3.77460E-05-2.19704E-02-3.12415E-14-3.36337E-13
 -1      2009 1.99883E+01 1.79792E-03 1.96946E-04-1.83769E-02-6.98104E-14-4.25330E-13
 -1      2010 1.99792E+01 1.13097E-03 6.72399E-05-1.75027E-02-5.03638E-14-4.59051E-13
 -1      2011 1.99828E+01 1.17046E-03-8.37005E-05-2.25738E-02-2.76216E-14-3.93202E-13
 -1      2012 2.00094E+01 3.60246E-03 2.89376E-04-2.32595E-02 1.14248E-13-4.78147E-13
 -1      2013 1.99984E+01 2.86784E-03 1.75979E-04-2.10315E-02 3.12225E-14-3.99186E-13
 -1      2014 2.00014E+01 3.53729E-03-1.44425E-04-2.66758E-02 2.53647E-14-4.01338E-13
 -1      2015 2.00365E+01 5.77287E-03 4.14659E-04-3.17168E-02 1.10360E-13-5.18930E-13
 -1      2016 2.00222E+01 4.93587E-03 3.00945E-04-2.78566E-02 1.38053E-13-4.98540E-13
 -1      2017 2.00243E+01 6.32941E-03-2.22235E-04-3.48553E-02 1.45271E-13-5.15346E-13
 -1      2018 2.00732E+01 8.41997E-03 5.79334E-04-4.44836E-02-2.80575E-13-3.46417E-13
 -1      2019 2.00537E+01 7.44437E-03 4.46546E-04-3.86239E-02-1.19183E-13-4.46787E-13
 -1      2020 2.00542E+01 9.69541E-03-3.20102E-04-4.78946E-02-1.05628E-13-4.21757E-13
 -1      2021 2.01233E+01 1.16620E-02 7.90666E-04-6.24904E-02-2.72364E-13 6.15914E-15
 -1      2022 2.00963E+01 1.05125E-02 6.17038E-04-5.41647E-02-3.36416E-13-2.29544E-13
 -1      2023 2.00941E+01 1.37975E-02-4.41448E-04-6.68002E-02-3.74053E-13-1.96317E-13
 -1      2024 2.01914E+01 1.56157E-02 1.05574E-03-8.68651E-02-1.19186E-13 1.16189E-13
 -1      2025 2.01544E+01 1.42625E-02 8.15760E-04-7.55028E-02-1.27321E-13 9.92880E-14
 -1      2026 2.01480E+01 1.88027E-02-5.89867E-04-9.28117E-02-2.09492E-13-3.74687E-14
 -1      2027 2.02833E+01 2.03794E-02 1.37966E-03-1.18911E-01 8.62780E-14 1.77898E-13
 -1      2028 2.02329E+01 1.88062E-02 1.04388E-03-1.03843E-01-7.43546E-15 1.10585E-13
 -1      2029 2.02201E+01 2.48653E-02-7.68776E-04-1.27387E-01-1.85435E-14 7.15838E-14
 -1      2030 2.04054E+01 2.59999E-02 1.76200E-03-1.60043E-01-1.97850E-14-3.25243E-14
 -1      2031 2.03379E+01 2.42196E-02 1.29830E-03-1.40525E-01 4.39677E-14 7.15811E-14
 -1      2032 2.03156E+01 3.20934E-02-9.80965E-04-1.72145E-01 7.09165E-14 1.73612E-14
 -1      2033 2.05650E+01 3.24112E-02 2.19045E-03-2.11635E-01-5.21696E-15-4.88531E-14
 -1      2034 2.04761E+01 3.04940E-02 1.56827E-03-1.86912E-01-3.68273E-14-5.82354E-14
 -1      2035 2.04404E+01 4.04850E-02-1.22808E-03-2.28737E-01 1.30835E-14-8.58317E-14
 -1      2036 2.07700E+01 3.93213E-02 2.62965E-03-2.74729E-01 1.07037E-14 9.80578E-14
 -1      2037 2.06551E+01 3.74465E-02 1.82992E-03-2.44167E-01 9.98919E-15-1.82051E-14
 -1      2038 2.06006E+01 4.98098E-02-1.51006E-03-2.98577E-01 2.46277E-14 2.77719E-14
 -1      2039 2.10282E+01 4.60132E-02 3.00315E-03-3.49478E-01 2.34274E-14 3.94922E-14
 -1      2040 2.08827E+01 4.45592E-02 2.03805E-03-3.12823E-01 4.28379E-14 8.17635E-14
 -1      2041 2.08027E+01 5.93970E-02-1.82446E-03-3.82346E-01 1.60739E-14 1.30226E-13
 -1      2042 2.13462E+01 5.10063E-02 3.16708E-03-4.34148E-01 5.15265E-14-5.56586E-14
 -1      2043 2.11662E+01 5.07016E-02 2.11494E-03-3.92009E-01-1.10346E-14-4.86179E-14
 -1      2044 2.10528E+01 6.77673E-02-2.16533E-03-4.79088E-01 7.21437E-14-6.10310E-14
 -1      2045 2.17271E+01 5.15195E-02 2.87822E-03-5.23408E-01 6.99915E-14 1.44069E-15
 -1      2046 2.15109E+01 5.36767E-02 1.93797E-03-4.78102E-01 4.36467E-14 4.85723E-15
 -1      2047 2.13550E+01 7.20305E-02-2.51984E-03-5.84665E-01 4.82310E-14 6.33196E-15
 -1      2048 2.21672E+01 4.27143E-02 1.77136E-03-6.05581E-01-1.39730E-14 8.47369E-14
 -1      2049 2.19177E+01 4.95410E-02 1.33257E-03-5.62525E-01 4.13723E-14 1.52972E-13
 -1      2050 2.17101E+01 6.69824E-02-2.85840E-03-6.89239E-01-2.49163E-14 1.02074E-13
 -1      2051 2.26503E+01 1.68602E-02-6.15284E-04-6.58592E-01 2.39015E-13 5.73448E-14
 -1      2052 2.23788E+01 3.17504E-02 8.62659E-05-6.28404E-01 1.04511E-13 1.33812E-13
 -1      2053 2.21127E+01 4.39618E-02-3.10812E-03-7.73460E-01 1.01771E-13 1.35183E-13
 -1      2054 2.31410E+01-3.69463E-02-4.68739E-03-6.44963E-01 8.80244E-14 5.72112E-14
 -1      2055 2.28721E+01-9.50433E-03-1.99269E-03-6.46138E-01 1.90308E-13 6.96665E-14
 -1      2056 2.25472E+01-1.00492E-02-3.09439E-03-8.03375E-01 2.14881E-13 2.87791E-13
 -1      2057 2.35754E+01-1.30800E-01-1.03990E-02-5.07891E-01-5.38757E-14-1.05739E-13
 -1      2058 2.33528E+01-8.65993E-02-4.94114E-03-5.69036E-01 5.17134E-14-1.07241E-13
 -1      2059 2.29825E+01-1.11573E-01-2.43278E-03-7.25267E-01 1.50646E-13 2.24722E-13
 -1      2060 2.38532E+01-2.70372E-01-1.65775E-02-1.74368E-01-3.53797E-14-9.67238E-14
 -1      2061 2.37441E+01-2.09764E-01-8.46449E-03-3.32914E-01-1.30144E-13-1.51743E-13
 -1      2062 2.33662E+01-2.74543E-01-3.88106E-04-4.64444E-01-3.02050E-14 7.19043E-14
 -1      2063 2.38373E+01-4.37808E-01-2.03303E-02 4.22324E-01-2.43522E-13 6.42299E-14
 -1      2064 2.39283E+01-3.74097E-01-1.18078E-02 1.31494E-01-1.77547E-13-8.34337E-14
 -1      2065 2.36157E+01-4.93513E-01 4.13023E-03 6.25326E-02-1.93370E-13-8.82489E-14
 -1      2066 2.33693E+01-5.67622E-01-1.75791E-02 1.28600E+00 4.28043E-14 3.01984E-13
 -1      2067 2.37486E+01-5.36991E-01-1.39026E-02 8.59560E-01-9.23220E-14 2.33733E-13
 -1      2068 2.36130E+01-7.14610E-01 1.18369E-02 9.06396E-01-2.29101E-13 1.46314E-13
 -1      2069 2.23189E+01-5.36962E-01-6.85193E-03 2.26430E+00-5.92165E-14 4.37879E-13
 -1      2070 2.30357E+01-5.96074E-01-1.40227E-02 1.77854E+00 2.66419E-14 4.35426E-13
 -1      2071 2.32107E+01-8.05643E-01 2.14752E-02 2.00271E+00-1.69066E-14 3.31793E-13
 -1      2072 2.06866E+01-2.23682E-01 5.52986E-03 2.98099E+00-1.93484E-13 3.24143E-13
 -1      2073 2.16949E+01-4.11999E-01-1.17904E-02 2.62368E+00-1.60504E-13 3.44658E-13
 -1      2074 2.22813E+01-5.86461E-01 2.55640E-02 3.06636E+00-1.15562E-13 5.16592E-13
 -1      2075 1.87392E+01 3.53238E-01 6.46328E-03 2.93403E+00 2.82828E-13 1.94567E-13
 -1      2076 1.98515E+01 7.94393E-02-6.35525E-03 2.94920E+00-4.93650E-14 2.75748E-13
 -1      2077 2.08482E+01 3.75174E-02 1.44879E-02 3.57683E+00 3.68880E-14 2.19831E-13
 -1      2078 1.70538E+01 9.24497E-01-8.73554E-03 1.84405E+00 5.29639E-13 1.31759E-13
 -1      2079 1.79563E+01 7.15012E-01 2.26843E-03 2.35458E+00 4.72164E-13 3.08413E-13
 -1      2080 1.92327E+01 8.86292E-01-1.15922E-02 3.01289E+00 4.27759E-13 3.51099E-13
 -1      2081 1.62758E+01 1.12360E+00-2.07738E-02 3.23067E-02 3.87853E-13-1.01202E-13
 -1      2082 1.66548E+01 1.12251E+00 1.49202E-02 8.71976E-01 4.46247E-13 1.38368E-13
 -1      2083 1.80165E+01 1.50339E+00-2.84235E-02 1.32556E+00 4.26392E-13 3.91237E-13
 -1      2084 1.66121E+01 8.35015E-01-2.31331E-02-1.69927E+00 6.04343E-14-2.76626E-13
 -1      2085 1.63635E+01 1.04051E+00 1.86195E-02-8.99046E-01 1.94046E-13-1.59563E-13
 -1      2086 1.76282E+01 1.51064E+00-2.07273E-02-8.13757E-01 3.16722E-13-9.52502E-14
 -1      2087 1.77279E+01 1.50855E-01-9.02557E-03-2.58425E+00-4.49965E-13-1.84380E-13
 -1      2088 1.70207E+01 5.15075E-01 1.52817E-02-2.19767E+00-2.20173E-13-3.29937E-13
 -1      2089 1.80013E+01 8.59585E-01-7.19302E-03-2.44898E+00-2.05565E-15-2.93151E-13
 -1      2090 1.88969E+01-6.26700E-01 1.35828E-02-2.36289E+00 7.92109E-14-1.47209E-13
 -1      2091 1.80636E+01-1.17886E-01 1.88919E-02-2.58780E+00-2.98990E-13-2.27943E-13
 -1      2092 1.86976E+01-2.81623E-02 1.02397E-02-3.00095E+00-3.19664E-13-3.47476E-13
 -1      2093 1.93338E+01-1.12798E+00 3.35283E-02-2.73297E+00-1.77240E-13-3.15217E-13
 -1      2094 2.42347E+01-2.18077E+00 7.45325E-02 1.57102E+00-1.27983E-13 5.27356E-15
 -1      2095 2.30925E+01-2.46801E+00-7.92231E-02-2.85926E-01-4.38191E-14 1.42775E-13
 -1      2096 2.19324E+01-2.02598E+00 6.62763E-02-1.68587E+00 4.95264E-14 8.99419E-14
 -1      2097 2.09787E+01-1.70841E+00-1.91221E-02-2.55160E+00 5.87030E-14 1.17233E-14
 -1      2098 2.37143E+01-6.19124E-01-1.86902E-02-1.29633E+00-2.56115E-14 5.10147E-14
 -1      2099 2.04023E+01-1.79190E+00 4.13156E-02-2.84712E+00-8.28088E-14 1.67687E-13
 -1      2100 1.97686E+01-1.18782E+00 5.22998E-03-2.84829E+00-2.30434E-13-7.04801E-14
 -1      2101 1.96004E+01-6.18099E-01-1.33491E-02-3.12264E+00-2.79842E-13-2.50828E-13
 -1      2102 2.11292E+01-5.29321E-01-3.27775E-02-2.94258E+00-8.09682E-14 2.30795E-13
 -1      2103 2.57716E+01-1.98113E+00 4.07512E-02 5.95972E+00-1.06448E-13-7.59670E-14
 -1      2104 2.51310E+01-2.87656E+00-1.13928E-01 3.69098E+00-1.32921E-13 1.47243E-13
 -1      2105 2.69196E+01-1.37525E+00 4.05572E-03 2.30653E+00-7.52592E-14 6.33937E-14
 -1      2106 2.51292E+01-1.03126E+00 4.06260E-02 1.04426E+01-1.89626E-13-5.99611E-13
 -1      2107 2.58228E+01-2.54643E+00-4.55748E-02 8.56685E+00-1.78635E-13-3.47139E-13
 -1      2108 2.86051E+01-2.39975E+00 4.73082E-02 7.05959E+00-1.14565E-13-1.54418E-13
 -1      2109 1.36597E+01 3.75447E+00 5.37532E-02-1.02511E+01 9.93094E-14 7.42739E-14
 -1      2110 1.08651E+01 5.14330E+00-1.02180E-01-6.56152E+00 1.00420E-13 2.60347E-13
 -1      2111 2.51102E+01-2.25817E+00 7.30991E-02-1.00597E+01-2.74822E-13-2.29039E-13
 -1      2112 2.34724E+01-8.41772E-02 2.83054E-03-1.21485E+01-1.85060E-13-4.01804E-13
 -1      2113 2.45778E+01-3.52530E+00-1.06132E-01-4.06956E+00-3.80562E-13 1.94719E-13
 -1      2114 2.52119E+01-2.04708E+00 7.16790E-02-6.95657E+00-3.08351E-13 1.27176E-13
 -1      2115 2.26076E+01-2.94263E+00-6.89780E-02 3.02940E-01-4.19664E-13-9.45077E-14
 -1      2116 2.38638E+01-2.56925E+00 9.53600E-02-1.49837E+00-4.04930E-13-5.16115E-14
 -1      2117 2.08549E+01-2.28920E+00-1.50446E-02 2.29173E+00-4.78322E-13-3.35232E-13
 -1      2118 2.16612E+01-2.57399E+00 7.81679E-02 1.53798E+00-3.66932E-13-1.82618E-13
 -1      2119 2.32254E+01-7.60742E-01-2.42643E-02 1.09857E+00-2.42228E-13-1.44586E-13
 -1      2120 1.98656E+01-1.64615E+00-1.23786E-02 2.81472E+00-2.84110E-13 1.39668E-13
 -1      2121 2.03797E+01-2.19486E+00 4.75488E-02 2.66050E+00-2.16042E-13-1.68487E-13
 -1      2122 2.09605E+01-5.21343E-01-1.01281E-02 2.72668E+00-1.30161E-13-8.39849E-14
 -1      2123 1.90350E+01-3.54358E+00-1.19477E-01 1.33265E+01 3.50275E-13 5.35461E-13
 -1      2124 1.41028E+01-4.94301E+00-4.93169E-01 1.19117E+01 1.31783E-13 4.54692E-13
 -1      2125 9.48127E+00-2.64471E+00-5.24428E-01 1.05976E+01 5.31797E-14 1.74527E-13
 -1      2126 6.33342E+00-3.77099E+00-7.91057E-01 6.44515E+00-3.69704E-14 1.00142E-13
 -1      2127 2.85824E+01-4.24508E-01 2.71653E-01 1.25119E+01 4.00679E-13 2.42695E-13
 -1      2128 2.31987E+01-3.33198E+00-2.28457E-01 1.21057E+01 4.29323E-13 3.17524E-13
 -1      2129 1.12667E+01-5.72847E+00-7.26734E-01-1.10260E+01-2.35145E-13-4.46782E-13
 -1      2130 1.44891E+01-3.80679E+00-4.28690E-01-1.30522E+01 7.99361E-15-6.34715E-13
 -1      2131 1.17995E+01-2.15300E+00-3.91123E-01-1.18752E+01 8.83738E-14-1.69254E-13
 -1      2132 4.36689E+01 7.46729E+00 5.09993E-01 7.38610E+00 2.24543E-13 1.28675E-13
 -1      2133 3.93401E+01 5.81938E+00 1.93476E-01 7.87987E+00 4.34569E-13 8.87068E-14
 -1      2134 3.71600E+01 3.70954E+00 4.22077E-01 9.99149E+00 4.71068E-13 4.48530E-14
 -1      2135 3.20011E+01 1.06134E+00 5.69958E-02 1.02024E+01 4.34930E-13 6.50591E-14
 -1      2136 1.95185E+01 4.01581E+00-2.70071E-02-1.70212E+00-1.89534E-13-3.85754E-13
 -1      2137 1.96467E+01 3.94626E+00-2.46224E-02-1.95342E+00-2.23847E-13-3.32886E-13
 -1      2138 1.99719E+01 3.24708E+00-1.38931E-02-1.91755E+00-2.44760E-13-2.77665E-13
 -1      2139 1.96971E+01 3.58525E+00-7.21292E-03-1.52012E+00-1.85927E-13-3.73644E-13
 -1      2140 4.73959E+01 9.39627E+00 4.57595E-01 5.19808E+00 2.08222E-13-2.52076E-13
 -1      2141 4.54252E+01 8.97919E+00 3.93585E-01 6.71126E+00 2.39697E-13-7.98250E-14
 -1      2142 4.81721E+01 9.26074E+00 3.82682E-01 2.88216E+00 1.39888E-14-1.32047E-13
 -1      2143 4.82047E+01 9.76022E+00 4.54882E-01 4.47294E+00 3.19189E-14-2.80054E-13
 -1      2144 4.49329E+01 7.02552E+00 1.93003E-01 8.58274E-01 2.82552E-13-4.14557E-13
 -1      2145 4.73237E+01 8.27694E+00 4.09775E-01 2.25334E+00 2.00118E-13-1.59789E-13
 -1      2146 3.95193E+01 2.92001E+00-4.95816E-04-1.15049E+00 3.01759E-13-1.39999E-13
 -1      2147 4.37149E+01 4.88198E+00 3.28508E-01-1.05654E-01 1.87433E-13-2.06724E-13
 -1      2148 3.20712E+01-2.09973E+00-5.98722E-02-2.83140E+00 6.38906E-13 2.62235E-13
 -1      2149 3.76649E+01 7.58879E-01 3.17460E-01-2.76759E+00 4.76175E-13 9.90319E-14
 -1      2150 3.71155E+01 8.16257E-01 1.38472E-01 1.26370E+00 2.18672E-13 6.72795E-14
 -1      2151 2.04712E+01-6.11800E+00-2.92468E-01-5.54877E+00 6.08957E-13-3.42282E-13
 -1      2152 2.67267E+01-4.69379E+00-1.26195E-01-5.21226E+00 6.25833E-13 2.07612E-13
 -1      2153 1.12106E+01-8.64554E+00-4.68982E-01-5.47892E+00 3.09752E-13-8.17957E-13
 -1      2154 1.59762E+01-6.54086E+00-1.44396E-01-6.52961E+00 5.13922E-13-6.35381E-13
 -1      2155 4.13950E+00-1.00575E+01-4.63087E-01-4.17021E+00 2.39475E-13-9.47187E-13
 -1      2156 7.26187E+00-8.64856E+00-2.88489E-01-5.29334E+00 3.37064E-13-9.30075E-13
 -1      2157 3.40327E-01-9.68232E+00-3.43426E-01-1.48655E+00 8.85819E-14-5.45897E-13
 -1      2158 1.79847E+00-9.38319E+00-3.06654E-01-3.07242E+00 2.34479E-13-8.90954E-13
 -1      2159 3.91859E-01-1.01859E+01-4.29314E-01 2.17767E+00-6.87228E-14 1.35281E-13
 -1      2160-3.78767E-01-9.96584E+00-3.87023E-01 7.05119E-01-2.57017E-14-7.49401E-14
 -1      2161 5.00915E+00-8.60852E+00-2.54068E-01 5.11714E+00-1.03251E-13 4.28213E-13
 -1      2162 2.20965E+00-1.03445E+01-5.06224E-01 3.53068E+00-1.22902E-13 3.42559E-13
 -1      2163 1.32014E+01-6.87948E+00-1.63505E-01 6.62441E+00-7.04992E-14 1.71002E-13
 -1      2164 9.14543E+00-8.77126E+00-3.87368E-01 5.71218E+00-9.39249E-14 1.25421E-13
 -1      2165 2.31796E+01-4.45373E+00 7.79577E-03 6.62472E+00-3.91909E-14 2.77778E-13
 -1      2166 1.74594E+01-6.57311E+00-3.38187E-01 6.05579E+00-1.75526E-13 2.38920E-13
 -1      2167 3.37344E+01-1.84715E-01 2.41986E-01 4.98723E+00 2.70672E-13 2.33147E-14
 -1      2168 2.78334E+01-2.72128E+00-1.72085E-01 4.80083E+00 9.30367E-14 1.54987E-13
 -1      2169 4.14204E+01 3.62991E+00 3.05806E-01 2.33922E+00 3.87024E-13 7.82707E-14
 -1      2170 3.65711E+01 1.86479E+00 2.19584E-02 3.46010E+00 3.60642E-13 1.60427E-13
 -1      2171 4.67323E+01 7.22150E+00 3.94644E-01-8.07242E-01 3.41560E-13-2.03726E-14
 -1      2172 4.31455E+01 5.95769E+00 1.54509E-01 6.16731E-01 5.04707E-13 4.77396E-14
 -1      2173 4.74147E+01 9.48812E+00 3.53898E-01-3.69256E+00 2.74170E-13-4.06987E-13
 -1      2174 4.65258E+01 8.73424E+00 2.65362E-01-1.93481E+00 3.86025E-13-1.18627E-13
 -1      2175 4.55224E+01 9.96254E+00 2.86880E-01-5.83926E+00 2.04836E-13-4.26048E-13
 -1      2176 4.79745E+01 9.78307E+00 4.52108E-01-4.51641E+00 4.28546E-14-5.22360E-13
 -1      2177 4.17114E+01 7.82338E+00 3.38187E-01-8.20184E+00 3.70246E-13-2.15605E-13
 -1      2178 4.42131E+01 8.76468E+00 3.91606E-01-6.74350E+00 2.40419E-13-2.99094E-13
 -1      2179 3.57716E+01 4.20064E+00 1.82341E-01-9.47111E+00 2.89824E-13-1.87739E-13
 -1      2180 4.03091E+01 6.40549E+00 5.43219E-01-9.49967E+00 3.66367E-13-1.25455E-13
 -1      2181 3.86265E+01 5.78408E+00 3.47842E-01-5.39491E+00 9.51739E-14 2.69784E-14
 -1      2182 2.77855E+01-2.55086E-01-2.92173E-03-1.18983E+01-2.22045E-14-5.09592E-13
 -1      2183 3.27287E+01 2.21005E+00 3.53421E-01-1.18469E+01 1.38833E-13-3.68927E-13
 -1      2184 1.99760E+01-3.97845E+00-3.46241E-01-1.25465E+01-5.38458E-14-7.10487E-13
 -1      2185 2.48845E+01-1.15228E+00 2.28041E-01-1.33176E+01 3.10862E-14-5.45064E-13
 -1      2186 2.83907E+01-2.56151E+00 1.32056E-01-1.23929E+01-9.19265E-14-4.16389E-13
 -1      2187 3.71923E+01 2.80577E+00 2.39843E-01 5.95862E+00 4.58997E-13-9.32587E-15
 -1      2188 3.52572E+00-3.95298E+00-1.07301E+00-2.02228E+00 5.82867E-14 5.92304E-13
 -1      2189 7.37438E+00 4.10307E-01-4.83353E-01-4.98700E+00 1.83464E-13 4.12559E-13
 -1      2190 1.02506E+01 6.99794E+00 5.24516E-02-1.49275E+00-7.19425E-14 3.51053E-13
 -1      2191 3.94937E+00-3.34913E+00-9.04066E-01 2.29117E+00 9.03999E-14 4.10338E-13
 -1      2192 2.07379E+01 1.10842E+00-2.07699E-02-1.61515E+00-2.85848E-13 1.31952E-13
 -1      2193 2.06282E+01 1.33010E+00-1.86783E-02-1.67682E+00-3.03795E-13-1.00666E-14
 -1      2194 2.59716E+01-1.77009E+00-5.26788E-02-2.81949E+00-2.02019E-13 7.29278E-14
 -1      2195 2.69388E+01-2.59255E+00-6.13444E-03-8.86339E+00-1.33702E-13-1.03265E-13
 -1      2196 1.53794E+01 2.77294E+00-7.61129E-02-1.22976E+01 1.71696E-13-2.93765E-13
 -1      2197 1.99960E+01 1.62414E+00 6.57131E-04 1.30847E+01-1.36641E-13 4.50723E-13
 -1      2198 2.27943E+01-5.04166E-01 1.34647E-01 1.24077E+01-3.11418E-13 1.41484E-13
 -1      2199 1.23459E+01 6.14836E+00-6.08665E-02 8.37003E+00-1.24262E-13 3.24185E-14
 -1      2200 1.57762E+01 4.22336E+00 2.01455E-01 1.08556E+01-1.74055E-13 3.57880E-13
 -1      2201 1.08086E+01 6.60305E+00-4.61977E-03 3.76934E+00-2.14065E-14-1.73195E-14
 -1      2202 1.92829E+01 4.89176E-01 1.28048E-01-1.31286E+01 3.96072E-14-4.23522E-13
 -1      2203 1.96976E+01-1.03032E+00-1.14012E-02 2.76411E+00-1.32297E-13 1.62904E-13
 -1      2204 2.37126E+01-3.59529E+00-8.05184E-03 1.34187E+01 3.16747E-13 3.72646E-13
 -1      2205 1.94750E+01-3.63594E+00-3.03756E-01-1.37493E+01-3.10862E-14-6.73850E-13
 -1      2206 3.45016E+01 1.20783E+00 2.25892E-01-8.87235E+00-3.23908E-14 8.10463E-15
 -1      2207 8.55608E+00 2.00807E+00-2.66567E-01 5.11556E+00-1.55598E-13 1.13132E-13
 -1      2208 4.11430E+01 9.57306E+00 3.78145E-01-4.00679E+00 2.19658E-13-4.06952E-13
 -1      2209 4.16198E+01 1.11827E+01 3.93392E-01-3.42403E+00 3.05755E-13-2.48818E-13
 -1      2210 4.13708E+01 9.27297E+00 3.43152E-01-2.90219E+00 5.65048E-13 1.20404E-13
 -1      2211 3.99231E+01 4.72202E+00 2.91315E-01-1.14194E+00 4.10644E-13 2.89213E-14
 -1      2212 3.51310E+01-5.92422E-01 1.82917E-01 1.37878E+00 1.84894E-13-3.55271E-14
 -1      2213 2.75714E+01-5.33562E+00 5.28500E-02 4.47787E+00 1.82632E-14 2.32703E-13
 -1      2214 1.82542E+01-7.60698E+00-3.62496E-02 6.77416E+00-3.99680E-15 2.39628E-13
 -1      2215 9.08974E+00-8.07968E+00-1.50542E-01 6.43583E+00 6.96110E-14 3.78059E-13
 -1      2216 2.68220E+00-7.64530E+00-2.10166E-01 3.81186E+00 1.03251E-13 3.02258E-13
 -1      2217 1.19335E+00-7.18481E+00-1.74150E-01-6.01932E-01 3.57353E-13-3.26961E-13
 -1      2218 4.64362E+00-7.84185E+00-2.00050E-01-4.65094E+00 3.55105E-13-9.99145E-13
 -1      2219 1.18255E+01-8.42499E+00-1.61294E-01-6.51510E+00 1.89071E-13-8.48557E-13
 -1      2220 3.03670E+01-4.24789E+00 6.39511E-02-3.12832E+00 6.14342E-13 3.26961E-13
 -1      2221 3.23436E+01-4.26906E+00-1.65283E-01-3.59340E-01 3.71078E-13 3.65152E-13
 -1      2222 2.84524E+01-6.25610E+00 1.36610E-01-3.15305E+00 3.69788E-13 3.43253E-13
 -1      2223 4.03981E+01 6.31689E+00 2.89473E-01 2.92678E+00 1.02141E-13-3.96683E-13
 -1      2224 2.57465E+01-2.84133E+00 1.98634E-02 1.20734E+01-6.65024E-14-2.69146E-13
 -1      2225 3.16856E+01-1.84666E+00 1.66566E-01 1.00928E+01 4.05231E-13 2.94209E-15
 -1      2226 1.39637E+01-1.75295E+00-4.81705E-01 1.22347E+01 1.46827E-13 3.72591E-13
 -1      2227 4.05609E+01 7.85131E+00 3.82520E-01 3.72464E+00 3.01648E-13-2.99760E-15
 -1      2228 4.24161E+01 1.00323E+01 3.96017E-01 3.28572E+00 1.27565E-13-2.45637E-13
 -1      2229 4.28418E+01 1.05076E+01 4.46100E-01 3.37459E+00 1.73139E-13-2.54186E-13
 -1      2230 2.10245E+01-7.58195E+00 3.91704E-02-5.97265E+00 3.87357E-13-3.37813E-13
 -1      2231 2.01500E+01 5.06552E-01 3.73506E-03 6.77015E-01 2.30883E-13 5.82368E-14
 -1      2232 2.04177E+01 7.00064E-01 2.07817E-02 9.68668E-01 2.57079E-13 9.84260E-14
 -1      2233 1.95584E+01 3.51669E+00-1.10820E-02-5.91144E-01-5.67443E-14-4.20246E-13
 -1      2234 1.95941E+01 3.47088E+00-1.04168E-02-7.75373E-01-8.92614E-14-4.21142E-13
 -1      2235 1.96409E+01 3.38290E+00-1.26570E-02-9.39640E-01-1.15565E-13-4.05022E-13
 -1      2236 1.97024E+01 3.30188E+00-1.26126E-02-1.12889E+00-1.49397E-13-3.86496E-13
 -1      2237 1.97854E+01 3.03392E+00 2.71199E-04-7.91801E-01-9.27214E-14-3.81451E-13
 -1      2238 1.95109E+01 3.59919E+00-9.61352E-03 9.93937E-02 5.69301E-14-4.25656E-13
 -1      2239 1.95102E+01 3.60002E+00-9.61596E-03-8.00072E-02 2.41951E-14-4.20683E-13
 -1      2240 1.95372E+01 3.55977E+00-9.71594E-03 4.45267E-01 1.22948E-13-4.12368E-13
 -1      2241 1.95196E+01 3.58235E+00-1.01349E-02 2.64513E-01 8.62095E-14-4.17631E-13
 -1      2242 1.96770E+01 3.22200E+00-8.95639E-04 1.69476E-01 7.53050E-14-3.92505E-13
 -1      2243 1.95994E+01 3.46319E+00-1.06024E-02 7.89088E-01 1.75279E-13-4.11667E-13
 -1      2244 1.95629E+01 3.51022E+00-1.12071E-02 6.07714E-01 1.39372E-13-4.16818E-13
 -1      2245 1.97140E+01 3.15845E+00-4.99417E-04 4.87733E-01 1.23924E-13-4.04600E-13
 -1      2246 1.97106E+01 3.28937E+00-1.29436E-02 1.14232E+00 2.40730E-13-3.51478E-13
 -1      2247 1.96477E+01 3.37273E+00-1.28722E-02 9.53098E-01 2.09075E-13-3.84106E-13
 -1      2248 1.97915E+01 3.02472E+00 2.74534E-04 8.03257E-01 1.97991E-13-3.75850E-13
 -1      2249 1.98905E+01 3.00370E+00-1.81616E-02 1.48924E+00 2.84763E-13-2.81232E-13
 -1      2250 1.97906E+01 3.14502E+00-1.51806E-02 1.29888E+00 2.47401E-13-3.19697E-13
 -1      2251 1.99213E+01 2.79949E+00 1.96210E-03 1.10938E+00 2.44972E-13-3.22603E-13
 -1      2252 2.01698E+01 2.54401E+00-2.83928E-02 1.79356E+00 3.24122E-13-1.90535E-13
 -1      2253 2.00181E+01 2.78342E+00-1.70970E-02 1.61909E+00 2.95179E-13-2.36767E-13
 -1      2254 2.01167E+01 2.44868E+00 5.81731E-03 1.37500E+00 2.69547E-13-2.43378E-13
 -1      2255 2.04027E+01 8.55151E-01 1.29419E-02-9.99817E-01-2.56849E-13-6.36902E-14
 -1      2256 2.01922E+01 6.28296E-01-4.00026E-03-6.89671E-01-2.30219E-13-8.39010E-14
 -1      2257 3.59604E+01 7.94529E+00-1.00833E-01-2.46475E+00 1.35725E-13-1.50990E-13
 -1      2258 3.67972E+01 9.51431E+00-1.25969E-01-2.32580E+00 1.13243E-14-3.11140E-13
 -1      2259 2.06930E+01 1.03347E+00-3.38882E-02 2.74145E+00 2.75318E-14-1.78312E-14
 -1      2260 2.17576E+01 1.05211E+00 2.83164E-03 2.31671E+00-7.46772E-14-1.88460E-14
 -1      2261 1.98732E+01 2.68345E-01 4.73548E-03 2.84365E-01 1.99209E-13-1.93985E-15
 -1      2262 2.00337E+01 3.68104E-01 2.01698E-02 4.41567E-01 2.04052E-13 4.22171E-14
 -1      2263 2.02122E+01 6.34744E-01-2.24775E-03 7.03732E-01 2.47198E-13-4.12431E-14
 -1      2264 2.05489E+01 1.95518E+00-1.36856E-02-1.89738E+00-2.99656E-13-1.10951E-13
 -1      2265 2.04123E+01 1.21426E+00-7.26202E-03-1.28622E+00-2.80239E-13-8.62940E-14
 -1      2266 2.03826E+01 1.38059E+00 7.25658E-03-1.23610E+00-2.63907E-13-1.30200E-13
 -1      2267 2.02907E+01 2.38500E+00-4.82854E-03-1.84147E+00-2.88655E-13-1.89083E-13
 -1      2268 2.01262E+01 4.69239E-01 1.61192E-02-4.74251E-01-2.00677E-13-7.46217E-14
 -1      2269 1.99853E+01 3.44487E-01 3.07458E-05-3.02622E-01-1.70556E-13-9.52963E-14
 -1      2270 2.02459E+01 7.45378E-01-1.73547E-03-6.93237E-01-2.33769E-13-1.14396E-13
 -1      2271 1.99220E+01 2.59576E-01 1.08749E-02-1.65008E-01-1.60891E-13-9.01371E-14
 -1      2272 1.98433E+01 1.88106E-01 6.92424E-04-6.77967E-02-1.45379E-13-1.30087E-13
 -1      2273 2.00814E+01 4.16528E-01-3.69247E-03-3.09297E-01-1.75688E-13-1.35268E-13
 -1      2274 1.97989E+01 1.38619E-01 6.38034E-03 1.42957E-02-1.42643E-13-1.27306E-13
 -1      2275 1.97640E+01 9.62510E-02 7.03637E-04 6.75982E-02-1.35619E-13-1.47008E-13
 -1      2276 1.99609E+01 2.27326E-01-3.65221E-03-7.03135E-02-1.50362E-13-1.64985E-13
 -1      2277 1.97381E+01 6.62933E-02 3.57463E-03 1.13275E-01-1.30300E-13-1.77466E-13
 -1      2278 1.97308E+01 4.06893E-02 6.09144E-04 1.39778E-01-1.17400E-13-1.99035E-13
 -1      2279 1.98852E+01 1.14853E-01-2.92758E-03 7.03898E-02-1.54963E-13-1.59217E-13
 -1      2280 1.97191E+01 2.23625E-02 1.85293E-03 1.61913E-01-1.04714E-13-2.22802E-13
 -1      2281 1.97283E+01 7.02756E-03 4.86081E-04 1.71924E-01-8.77332E-14-2.29594E-13
 -1      2282 1.98455E+01 4.65200E-02-2.11426E-03 1.46420E-01-1.45680E-13-1.76303E-13
 -1      2283 1.97262E+01-3.97735E-03 7.91187E-04 1.79132E-01-6.80985E-14-2.39319E-13
 -1      2284 1.97443E+01-1.27735E-02 3.65011E-04 1.79130E-01-5.99607E-14-2.13143E-13
 -1      2285 1.98313E+01 5.21095E-03-1.42424E-03 1.80700E-01-8.95972E-14-2.12784E-13
 -1      2286 1.97482E+01-1.90163E-02 1.40814E-04 1.77184E-01-6.08384E-14-2.04155E-13
 -1      2287 1.97702E+01-2.35672E-02 2.61020E-04 1.71375E-01-3.18681E-14-1.72790E-13
 -1      2288 1.98335E+01-1.89043E-02-9.01794E-04 1.88656E-01-5.02683E-14-1.98370E-13
 -1      2289 1.97775E+01-2.66762E-02-2.43144E-04 1.64168E-01-2.34865E-14-1.56213E-13
 -1      2290 1.98003E+01-2.84701E-02 1.79705E-04 1.55317E-01 1.18837E-15-1.86643E-13
 -1      2291 1.98455E+01-3.18324E-02-5.29137E-04 1.80708E-01-3.09208E-14-2.03077E-13
 -1      2292 1.98091E+01-2.95300E-02-4.51384E-04 1.45462E-01 1.96818E-14-1.72751E-13
 -1      2293 1.98309E+01-2.95638E-02 1.20872E-04 1.35385E-01 2.13767E-14-1.61637E-13
 -1      2294 1.98625E+01-3.74553E-02-2.74495E-04 1.63901E-01-2.20381E-15-1.32283E-13
 -1      2295 1.98400E+01-2.93124E-02-5.44270E-04 1.24610E-01 2.39446E-14-1.48493E-13
 -1      2296 1.98597E+01-2.82598E-02 8.21504E-05 1.14478E-01 4.96159E-14-1.12965E-13
 -1      2297 1.98814E+01-3.83698E-02-1.08363E-04 1.42956E-01 3.48485E-14-1.18857E-13
 -1      2298 1.98685E+01-2.71986E-02-5.63155E-04 1.03902E-01 2.98813E-14-1.16481E-13
 -1      2299 1.98857E+01-2.55082E-02 6.10777E-05 9.44491E-02-1.15555E-14-1.02065E-13
 -1      2300 1.99002E+01-3.63334E-02-7.02735E-06 1.20985E-01 2.35572E-14-6.42894E-14
 -1      2301 1.98937E+01-2.39685E-02-5.36590E-04 8.47735E-02-4.48769E-14-1.15302E-13
 -1      2302 1.99084E+01-2.19258E-02 5.59824E-05 7.64458E-02-5.89124E-14-1.08535E-13
 -1      2303 1.99178E+01-3.25212E-02 4.75122E-05 9.99878E-02-2.26169E-14-1.07489E-13
 -1      2304 1.99155E+01-2.01141E-02-4.84166E-04 6.80997E-02-1.13522E-13-6.27534E-14
 -1      2305 1.99279E+01-1.78836E-02 6.62672E-05 6.11604E-02-1.62303E-13-5.56438E-14
 -1      2306 1.99337E+01-2.76879E-02 6.84366E-05 8.12200E-02-8.08136E-14-9.91116E-14
 -1      2307 1.99343E+01-1.59115E-02-4.19089E-04 5.44063E-02-1.89499E-13-5.36867E-14
 -1      2308 1.99447E+01-1.35665E-02 9.24457E-05 4.90174E-02-1.57209E-13-5.07695E-14
 -1      2309 1.99478E+01-2.22768E-02 6.50843E-05 6.54569E-02-1.78461E-13-8.03273E-14
 -1      2310 1.99504E+01-1.14742E-02-3.49994E-04 4.40322E-02-1.11279E-13-7.37964E-14
 -1      2311 1.99595E+01-9.01851E-03 1.36091E-04 4.03151E-02-5.46726E-14-4.59857E-14
 -1      2312 1.99604E+01-1.64961E-02 4.38114E-05 5.31972E-02-1.59159E-13-1.13865E-13
 -1      2313 1.99648E+01-6.79081E-03-2.82276E-04 3.72509E-02-1.10794E-13-6.99336E-14
 -1      2314 1.99731E+01-4.17457E-03 1.99750E-04 3.53329E-02-1.10480E-13-1.38909E-13
 -1      2315 1.99719E+01-1.03753E-02 8.71072E-06 4.48141E-02-9.13173E-14-1.46675E-13
 -1      2316 1.99783E+01-1.75394E-03-2.19077E-04 3.43640E-02-6.59682E-14-1.22079E-13
 -1      2317 1.99866E+01 1.11389E-03 2.86812E-04 3.44131E-02 2.40313E-14-1.10905E-13
 -1      2318 1.99829E+01-3.80634E-03-3.77903E-05 4.06717E-02-8.19777E-14-5.26816E-14
 -1      2319 1.99921E+01 3.81721E-03-1.62021E-04 3.57710E-02 6.67563E-14-1.40531E-13
 -1      2320 2.00011E+01 7.05872E-03 4.01301E-04 3.80228E-02 1.12188E-13-1.33193E-13
 -1      2321 1.99942E+01 3.42364E-03-9.44227E-05 4.12118E-02 1.04564E-14-7.03051E-14
 -1      2322 2.00075E+01 1.01574E-02-1.11761E-04 4.20215E-02 1.63265E-13-1.44061E-13
 -1      2323 2.00182E+01 1.39156E-02 5.47534E-04 4.67973E-02 1.44994E-13-1.03982E-13
 -1      2324 2.00067E+01 1.16054E-02-1.60624E-04 4.70192E-02 1.27529E-13-1.13198E-13
 -1      2325 2.00259E+01 1.75350E-02-6.83687E-05 5.38494E-02 1.23870E-13-5.41256E-14
 -1      2326 2.00394E+01 2.19620E-02 7.29558E-04 6.15655E-02 1.14757E-13-4.62089E-14
 -1      2327 2.00214E+01 2.10805E-02-2.36116E-04 5.88647E-02 1.52607E-13-6.92822E-14
 -1      2328 2.00491E+01 2.62269E-02-3.15881E-05 7.21868E-02 5.08372E-14-1.19812E-13
 -1      2329 2.00666E+01 3.14663E-02 9.50246E-04 8.33525E-02 3.79176E-14-1.72808E-13
 -1      2330 2.00396E+01 3.22088E-02-3.20486E-04 7.77269E-02 4.69570E-14-1.02732E-13
 -1      2331 2.00789E+01 3.64817E-02-9.28101E-07 9.81520E-02-3.26950E-14-2.54961E-13
 -1      2332 2.01018E+01 4.26428E-02 1.20990E-03 1.13351E-01-8.68967E-14-2.16712E-13
 -1      2333 2.00626E+01 4.53227E-02-4.12780E-04 1.04785E-01-3.66189E-14-2.69560E-13
 -1      2334 2.01176E+01 4.84637E-02 2.44386E-05 1.33000E-01-9.85447E-14-1.78943E-13
 -1      2335 2.01475E+01 5.55807E-02 1.50411E-03 1.52849E-01-9.48771E-14-1.04350E-13
 -1      2336 2.00920E+01 6.06591E-02-5.11144E-04 1.41376E-01-1.07440E-13-2.50691E-13
 -1      2337 2.01676E+01 6.21657E-02 4.60864E-05 1.78018E-01-4.99514E-14-9.42274E-14
 -1      2338 2.02061E+01 7.01337E-02 1.82062E-03 2.03084E-01 8.39498E-16-2.74025E-14
 -1      2339 2.01296E+01 7.82529E-02-6.12618E-04 1.88890E-01-8.76738E-14-1.24960E-13
 -1      2340 2.02316E+01 7.72733E-02 6.72421E-05 2.34332E-01-2.96123E-14-1.31319E-13
 -1      2341 2.02805E+01 8.57501E-02 2.13480E-03 2.64998E-01 2.03784E-14-1.88723E-13
 -1      2342 2.01770E+01 9.77733E-02-7.13305E-04 2.48596E-01-8.49060E-14-1.62273E-13
 -1      2343 2.03123E+01 9.29577E-02 9.44899E-05 3.02599E-01 5.53306E-14-1.75481E-13
 -1      2344 2.03734E+01 1.01216E-01 2.40337E-03 3.38843E-01 7.23334E-14-2.02157E-13
 -1      2345 2.02365E+01 1.18273E-01-8.09325E-04 3.21334E-01 2.51738E-15-1.34242E-13
 -1      2346 2.04128E+01 1.07566E-01 1.40706E-04 3.82507E-01 3.79887E-14-2.59739E-13
 -1      2347 2.04875E+01 1.14275E-01 2.55614E-03 4.23564E-01-1.54125E-15-1.31411E-13
 -1      2348 2.03102E+01 1.37815E-01-8.99182E-04 4.07055E-01 2.11167E-14-1.20913E-13
 -1      2349 2.05358E+01 1.18171E-01 2.29703E-04 4.72030E-01-5.54598E-14-1.37903E-13
 -1      2350 2.06249E+01 1.21099E-01 2.48593E-03 5.15887E-01-5.51500E-14-4.85747E-14
 -1      2351 2.04003E+01 1.52933E-01-9.88402E-04 5.04113E-01 2.37609E-14 1.88808E-14
 -1      2352 2.06837E+01 1.19965E-01 4.02803E-04 5.66328E-01-5.98717E-14-6.21028E-14
 -1      2353 2.07872E+01 1.15587E-01 2.03816E-03 6.09012E-01-5.04268E-14 5.27798E-15
 -1      2354 2.05093E+01 1.57886E-01-1.09720E-03 6.08254E-01-5.59778E-14-4.10392E-14
 -1      2355 2.08588E+01 1.05498E-01 7.26354E-04 6.56214E-01-9.75096E-14-4.37521E-14
 -1      2356 2.09749E+01 8.85933E-02 1.00384E-03 6.90849E-01-6.70729E-14-2.42772E-14
 -1      2357 2.06404E+01 1.43736E-01-1.27093E-03 7.11197E-01-9.84215E-14-7.00292E-14
 -1      2358 2.10626E+01 6.39550E-02 1.29593E-03 7.26138E-01-5.61933E-14-4.73146E-14
 -1      2359 2.11874E+01 2.73604E-02-8.76064E-04 7.41832E-01-2.58533E-14-1.31599E-13
 -1      2360 2.07976E+01 9.73997E-02-1.58963E-03 7.98765E-01-8.76910E-14-6.22601E-14
 -1      2361 2.12959E+01-1.90737E-02 2.22470E-03 7.51801E-01 2.23298E-14-1.49204E-14
 -1      2362 2.14226E+01-8.40509E-02-3.87831E-03 7.32632E-01 6.50270E-14 1.79501E-14
 -1      2363 2.09869E+01 1.20123E-03-2.16543E-03 8.48583E-01 1.99381E-14 3.45828E-14
 -1      2364 2.15583E+01-1.60182E-01 3.59193E-03 6.97923E-01 6.73133E-14 5.96335E-14
 -1      2365 2.16759E+01-2.61716E-01-8.20236E-03 6.22696E-01 1.62827E-13 4.68178E-14
 -1      2366 2.12171E+01-1.65850E-01-3.09919E-03 8.27630E-01 1.34220E-13 1.29114E-13
 -1      2367 2.18456E+01-3.72923E-01 5.30300E-03 5.17549E-01 1.34851E-13 7.36348E-14
 -1      2368 2.19379E+01-5.13338E-01-1.37503E-02 3.61756E-01 7.56613E-14 2.27209E-14
 -1      2369 2.14990E+01-4.22595E-01-4.34033E-03 6.90479E-01 1.39804E-13 8.00089E-14
 -1      2370 2.21444E+01-6.55448E-01 6.80132E-03 1.56176E-01-1.57860E-16-1.28612E-13
 -1      2371 2.21884E+01-8.20855E-01-1.96614E-02-1.01413E-01-5.00945E-14-7.04108E-14
 -1      2372 2.18422E+01-7.72000E-01-5.39498E-03 3.80457E-01-3.26539E-14-3.69205E-14
 -1      2373 2.24198E+01-9.68245E-01 6.83013E-03-4.33286E-01 2.07850E-14-1.28677E-13
 -1      2374 2.23853E+01-1.11345E+00-2.35089E-02-7.96312E-01-1.93829E-14-7.15308E-14
 -1      2375 2.22421E+01-1.17556E+00-4.92278E-03-1.61183E-01-3.16012E-14-1.35562E-13
 -1      2376 2.25975E+01-1.20528E+00 3.22790E-03-1.25531E+00-4.10479E-14 1.38052E-13
 -1      2377 2.24509E+01-1.24315E+00-2.12266E-02-1.68605E+00-3.10134E-14 2.81710E-13
 -1      2378 2.26560E+01-1.51638E+00-4.56072E-04-9.68666E-01 1.16675E-13 1.69311E-13
 -1      2379 2.25544E+01-1.18274E+00-6.86153E-03-2.21129E+00-1.55804E-14 4.03363E-13
 -1      2380 2.22736E+01-1.00004E+00-8.94465E-03-2.60549E+00 7.44006E-14 4.25404E-13
 -1      2381 2.29718E+01-1.57644E+00 9.30736E-03-1.99432E+00 6.27623E-14 4.47806E-13
 -1      2382 2.21519E+01-6.90472E-01-2.31123E-02-3.03580E+00 6.45495E-14 4.55768E-13
 -1      2383 2.17506E+01-2.19486E-01 1.23621E-02-3.21946E+00 1.07856E-13 2.83508E-13
 -1      2384 2.30020E+01-1.08731E+00 1.88045E-02-3.02578E+00 3.68165E-14 5.39575E-13
 -1      2385 2.13460E+01 3.40995E-01-3.67127E-02-3.30397E+00 2.09380E-13 2.53048E-13
 -1      2386 2.08974E+01 1.00215E+00 3.14685E-02-3.09625E+00 3.32805E-13 2.04582E-13
 -1      2387 2.25704E+01 9.44686E-02 1.91636E-02-3.63615E+00 1.20387E-13 3.73493E-13
 -1      2388 2.03240E+01 1.62391E+00-3.38695E-02-2.63676E+00 2.47403E-13 9.15813E-14
 -1      2389 1.99470E+01 2.17860E+00 3.18234E-02-1.98911E+00 2.52369E-13 7.24919E-14
 -1      2390 2.17009E+01 1.70582E+00 3.37292E-03-3.31251E+00 2.02132E-13 2.35164E-13
 -1      2391 1.94673E+01 2.52762E+00-1.03457E-02-1.04409E+00 4.94398E-13 7.55884E-14
 -1      2392 1.92620E+01 2.63916E+00 7.25949E-03-1.50980E-01 3.55873E-13 1.69685E-13
 -1      2393 2.07254E+01 3.03266E+00-1.76269E-02-1.86262E+00 3.73561E-13 1.15018E-13
 -1      2394 1.90829E+01 2.46515E+00 1.75276E-02 8.85008E-01 4.85063E-14 2.84731E-13
 -1      2395 1.91025E+01 2.09897E+00 1.07109E-02 1.64217E+00-6.70557E-15 2.88736E-13
 -1      2396 2.00761E+01 3.26589E+00-2.68081E-02 2.53802E-01 2.77934E-13 8.80539E-14
 -1      2397 1.96264E+01 7.26909E-02 2.07282E-03-6.73086E-02 1.22929E-13-9.25072E-14
 -1      2398 1.96535E+01 1.04429E-01 6.91111E-03-2.11078E-02 1.31678E-13-4.79229E-14
 -1      2399 1.96032E+01 3.07997E-02 1.33708E-03-1.33067E-01 1.02920E-13-1.31748E-13
 -1      2400 1.95999E+01 4.97387E-02 3.68126E-03-1.10523E-01 1.21163E-13-1.06252E-13
 -1      2401 1.97703E+01 8.99963E-02-3.17017E-03-7.28555E-02 1.50278E-13-1.35788E-13
 -1      2402 1.96155E+01 5.70461E-03 8.68026E-04-1.61535E-01 9.49701E-14-1.27501E-13
 -1      2403 1.95953E+01 1.69863E-02 1.81325E-03-1.53284E-01 7.65612E-14-1.37018E-13
 -1      2404 1.97364E+01 3.59581E-02-2.27891E-03-1.45245E-01 9.60692E-14-1.46163E-13
 -1      2405 1.96479E+01-8.99156E-03 5.43957E-04-1.67169E-01 1.03732E-13-9.35977E-14
 -1      2406 1.96193E+01-2.51053E-03 7.13538E-04-1.67502E-01 1.08179E-13-9.44646E-14
 -1      2407 1.97331E+01 3.74755E-03-1.50649E-03-1.77010E-01 8.84594E-14-1.35759E-13
 -1      2408 1.96898E+01-1.70100E-02 3.15847E-04-1.59274E-01 4.80234E-14-4.67788E-14
 -1      2409 1.96585E+01-1.36225E-02 5.91257E-05-1.64548E-01 9.40876E-14-6.47564E-14
 -1      2410 1.97484E+01-1.49004E-02-9.26957E-04-1.83587E-01 6.86179E-14-7.14783E-14
 -1      2411 1.97346E+01-2.06887E-02 1.58878E-04-1.43953E-01 4.57245E-14-7.37103E-14
 -1      2412 1.97037E+01-1.93040E-02-3.18076E-04-1.51797E-01 5.68034E-14-3.80296E-14
 -1      2413 1.97737E+01-2.48459E-02-5.19689E-04-1.75135E-01 7.16925E-14-3.83624E-14
 -1      2414 1.97780E+01-2.15700E-02 5.59817E-05-1.25219E-01 8.82979E-14-1.59889E-13
 -1      2415 1.97495E+01-2.14636E-02-5.16431E-04-1.34086E-01 5.50496E-14-1.25089E-13
 -1      2416 1.98032E+01-2.91568E-02-2.45783E-04-1.58400E-01 1.13693E-13-1.07970E-13
 -1      2417 1.98178E+01-2.06943E-02-6.04849E-06-1.05680E-01 1.08742E-13-1.08221E-13
 -1      2418 1.97925E+01-2.13776E-02-5.98724E-04-1.14577E-01 8.74227E-14-1.25881E-13
 -1      2419 1.98333E+01-2.98570E-02-7.01670E-05-1.37854E-01 6.97011E-14-1.70965E-13
 -1      2420 1.98527E+01-1.87621E-02-3.70817E-05-8.69855E-02 4.91137E-14-5.24654E-14
 -1      2421 1.98311E+01-1.99088E-02-6.06992E-04-9.52942E-02 1.06749E-13-5.04808E-14
 -1      2422 1.98616E+01-2.83066E-02 3.46105E-05-1.16415E-01 6.42614E-14-8.19668E-14
 -1      2423 1.98826E+01-1.62310E-02-4.39774E-05-7.01441E-02 1.63540E-14-7.88932E-14
 -1      2424 1.98645E+01-1.76316E-02-5.69819E-04-7.74946E-02 2.46458E-14-5.24764E-14
 -1      2425 1.98872E+01-2.54150E-02 8.89187E-05-9.59444E-02 3.27162E-14-1.02913E-13
 -1      2426 1.99077E+01-1.33796E-02-3.09370E-05-5.57486E-02-2.44444E-14-1.13564E-13
 -1      2427 1.98928E+01-1.49112E-02-5.06499E-04-6.19278E-02 1.96569E-14-7.71204E-14
 -1      2428 1.99096E+01-2.17689E-02 1.07393E-04-7.75925E-02 2.02308E-14-8.34358E-14
 -1      2429 1.99288E+01-1.03514E-02 1.20130E-07-4.41457E-02 8.00442E-14-2.34802E-13
 -1      2430 1.99165E+01-1.19565E-02-4.29710E-04-4.90287E-02 2.56495E-14-1.64474E-13
 -1      2431 1.99289E+01-1.77167E-02 1.00218E-04-6.20530E-02 1.12025E-14-1.61602E-13
 -1      2432 1.99467E+01-7.18648E-03 4.92502E-05-3.55636E-02 1.12172E-13-2.08373E-13
 -1      2433 1.99364E+01-8.85783E-03-3.47375E-04-3.90616E-02 1.35774E-13-1.47573E-13
 -1      2434 1.99455E+01-1.34273E-02 7.41513E-05-4.97538E-02 8.53638E-14-2.08746E-13
 -1      2435 1.99625E+01-3.84379E-03 1.18255E-04-3.02105E-02-2.78341E-14-1.55199E-13
 -1      2436 1.99535E+01-5.61383E-03-2.63999E-04-3.22301E-02 4.92419E-14-1.52486E-13
 -1      2437 1.99601E+01-8.93149E-03 3.33351E-05-4.10009E-02 1.69726E-14-1.95902E-13
 -1      2438 1.99776E+01-2.17712E-04 2.10515E-04-2.83515E-02-2.45745E-14-1.72459E-13
 -1      2439 1.99690E+01-2.15085E-03-1.81670E-04-2.87626E-02-4.63327E-14-1.57757E-13
 -1      2440 1.99736E+01-4.15209E-03-2.00604E-05-3.60898E-02-2.17623E-14-1.17346E-13
 -1      2441 1.99935E+01 3.85068E-03 3.30843E-04-3.03697E-02 1.43653E-14-2.85987E-13
 -1      2442 1.99843E+01 1.66336E-03-1.00809E-04-2.89795E-02 4.15511E-14-2.21758E-13
 -1      2443 1.99869E+01 1.07474E-03-8.53081E-05-3.53915E-02 4.24992E-14-1.10426E-13
 -1      2444 2.00119E+01 8.56516E-03 4.85328E-04-3.68156E-02 1.21320E-13-3.85869E-13
 -1      2445 2.00011E+01 6.00981E-03-2.07631E-05-3.33473E-02 7.20599E-15-3.38251E-13
 -1      2446 2.00014E+01 6.98431E-03-1.62662E-04-3.94220E-02 7.29062E-14-2.70807E-13
 -1      2447 2.00348E+01 1.41672E-02 6.81105E-04-4.84482E-02 6.74674E-14-3.20518E-13
 -1      2448 2.00211E+01 1.11107E-02 5.97094E-05-4.25226E-02 1.46735E-13-3.75137E-13
 -1      2449 2.00183E+01 1.38717E-02-2.52918E-04-4.88961E-02 1.20212E-13-2.75425E-13
 -1      2450 2.00644E+01 2.09276E-02 9.25947E-04-6.62644E-02-2.40768E-13-1.61723E-13
 -1      2451 2.00464E+01 1.72218E-02 1.42013E-04-5.73870E-02-8.08265E-14-2.75517E-13
 -1      2452 2.00393E+01 2.20810E-02-3.56951E-04-6.47701E-02-6.95693E-14-1.00533E-13
 -1      2453 2.01037E+01 2.91339E-02 1.22755E-03-9.15177E-02-3.50100E-13-2.20043E-13
 -1      2454 2.00795E+01 2.46231E-02 2.27301E-04-7.90705E-02-3.21898E-13-2.02220E-13
 -1      2455 2.00663E+01 3.19921E-02-4.75194E-04-8.82707E-02-2.60200E-13-1.40517E-13
 -1      2456 2.01556E+01 3.90679E-02 1.59223E-03-1.25716E-01-1.52483E-13-1.68428E-13
 -1      2457 2.01233E+01 3.36016E-02 3.16044E-04-1.08960E-01-2.66854E-13-2.65980E-13
 -1      2458 2.01013E+01 4.39987E-02-6.07021E-04-1.20905E-01-2.46521E-13-3.57174E-13
 -1      2459 2.02240E+01 5.09651E-02 2.02265E-03-1.70589E-01 3.04236E-14-1.33135E-13
 -1      2460 2.01811E+01 4.44221E-02 4.07566E-04-1.48682E-01-8.34158E-14-1.54723E-13
 -1      2461 2.01469E+01 5.84711E-02-7.50059E-04-1.64443E-01-1.46897E-13-3.73726E-13
 -1      2462 2.03129E+01 6.49400E-02 2.51396E-03-2.27989E-01 5.64956E-14-1.99517E-13
 -1      2463 2.02567E+01 5.72726E-02 4.99565E-04-2.00038E-01 9.96675E-14-1.42140E-13
 -1      2464 2.02058E+01 7.56870E-02-8.99511E-04-2.20855E-01 2.68766E-14-2.74242E-13
 -1      2465 2.04268E+01 8.08515E-02 3.04709E-03-2.99708E-01-3.23304E-14-6.80268E-14
 -1      2466 2.03544E+01 7.21656E-02 5.87755E-04-2.64873E-01-2.13130E-14-9.87669E-14
 -1      2467 2.02810E+01 9.57069E-02-1.04776E-03-2.92166E-01-2.84208E-14-2.69240E-13
 -1      2468 2.05704E+01 9.80644E-02 3.57809E-03-3.87106E-01-9.86941E-14 2.94492E-14
 -1      2469 2.04786E+01 8.87611E-02 6.65898E-04-3.44798E-01-1.71443E-14-4.58962E-14
 -1      2470 2.03755E+01 1.18152E-01-1.18484E-03-3.80195E-01-5.74135E-14-1.70469E-13
 -1      2471 2.07483E+01 1.15037E-01 4.02116E-03-4.90464E-01 1.07152E-13 7.71697E-15
 -1      2472 2.06342E+01 1.06056E-01 7.26887E-04-4.40710E-01 1.42073E-14 9.86676E-14
 -1      2473 2.04925E+01 1.41816E-01-1.30102E-03-4.86064E-01-1.41076E-14-7.87025E-14
 -1      2474 2.09642E+01 1.28631E-01 4.22403E-03-6.07860E-01 3.09932E-14 9.01757E-14
 -1      2475 2.08255E+01 1.21855E-01 7.66114E-04-5.51930E-01 6.36754E-14 6.17804E-14
 -1      2476 2.06352E+01 1.64004E-01-1.39332E-03-6.09387E-01 3.27288E-14-2.98330E-14
 -1      2477 2.12206E+01 1.33028E-01 3.93584E-03-7.33323E-01-4.30493E-14 1.44978E-13
 -1      2478 2.10565E+01 1.31907E-01 7.89185E-04-6.74765E-01 5.39936E-14 1.22443E-13
 -1      2479 2.08062E+01 1.79452E-01-1.47897E-03-7.46910E-01-3.13627E-15 1.54141E-13
 -1      2480 2.15174E+01 1.18164E-01 2.77384E-03-8.53913E-01-1.07735E-14 1.29296E-13
 -1      2481 2.13296E+01 1.28596E-01 8.26701E-04-8.00183E-01-1.14715E-13 7.78506E-14
 -1      2482 2.10083E+01 1.78687E-01-1.61819E-03-8.90360E-01-5.89202E-14 1.79375E-13
 -1      2483 2.18510E+01 6.78881E-02 2.09394E-04-9.45486E-01 1.18825E-13 1.72457E-13
 -1      2484 2.16458E+01 9.91839E-02 9.57234E-04-9.10254E-01 1.23088E-13 1.56987E-13
 -1      2485 2.12447E+01 1.45787E-01-1.94495E-03-1.02318E+00 5.30882E-14 1.16863E-13
 -1      2486 2.22133E+01-4.12385E-02-4.38428E-03-9.67257E-01 1.94935E-13 1.53130E-13
 -1      2487 2.20032E+01 2.40780E-02 1.33096E-03-9.73171E-01 1.98815E-13 1.05744E-13
 -1      2488 2.15205E+01 5.60524E-02-2.68891E-03-1.11589E+00 2.24868E-13-5.78856E-14
 -1      2489 2.25899E+01-2.37727E-01-1.15223E-02-8.56559E-01 2.16469E-13 7.64696E-14
 -1      2490 2.23966E+01-1.23269E-01 2.15111E-03-9.37330E-01 1.82701E-13 1.30485E-13
 -1      2491 2.18446E+01-1.24609E-01-4.13560E-03-1.12035E+00 2.16735E-13-9.67481E-14
 -1      2492 2.29569E+01-5.43493E-01-2.10839E-02-5.28160E-01-8.69010E-15 5.80109E-14
 -1      2493 2.28144E+01-3.70651E-01 3.55177E-03-7.26853E-01 1.45029E-13 1.90347E-13
 -1      2494 2.22315E+01-4.33860E-01-6.37909E-03-9.64082E-01 1.93605E-13-5.38788E-14
 -1      2495 2.32732E+01-9.42802E-01-3.11377E-02 1.11984E-01-2.24847E-13 5.65069E-14
 -1      2496 2.32294E+01-7.27620E-01 5.09787E-03-2.45387E-01-8.05311E-14-1.24076E-14
 -1      2497 2.26974E+01-8.91040E-01-8.66369E-03-5.49338E-01 3.24766E-14-7.58698E-14
 -1      2498 2.34625E+01-1.32872E+00-3.69443E-02 1.11881E+00-2.08791E-13 1.08699E-13
 -1      2499 2.35776E+01-1.14215E+00 4.99479E-03 5.95221E-01-3.12155E-13 3.97746E-14
 -1      2500 2.32401E+01-1.44533E+00-8.32567E-03 2.31030E-01-2.82596E-13-9.81671E-14
 -1      2501 2.33976E+01-1.44955E+00-2.98757E-02 2.41364E+00-7.45792E-14 3.37997E-13
 -1      2502 2.37286E+01-1.44274E+00-8.14285E-04 1.80018E+00-1.41797E-13 1.25660E-13
 -1      2503 2.37937E+01-1.90195E+00-1.47604E-03 1.43443E+00-1.95576E-13-1.78464E-13
 -1      2504 2.29052E+01-9.58235E-01-6.83809E-03 3.64092E+00-6.25216E-14 2.56200E-13
 -1      2505 2.34669E+01-1.30712E+00-1.75716E-02 3.15292E+00-9.54905E-14 3.16479E-13
 -1      2506 2.41624E+01-1.86167E+00 1.41192E-02 2.94911E+00-1.43324E-13 1.11318E-13
 -1      2507 2.19019E+01 2.95667E-01 2.01902E-02 4.14479E+00 2.15782E-13 2.31761E-13
 -1      2508 2.26153E+01-4.29511E-01-4.14712E-02 4.09744E+00 3.41849E-14 3.08671E-13
 -1      2509 2.40299E+01-9.10198E-01 1.90460E-02 4.28905E+00-6.19383E-14 7.67242E-14
 -1      2510 2.06058E+01 1.87637E+00 2.21569E-02 3.29121E+00 3.83894E-13 4.87251E-13
 -1      2511 2.12781E+01 1.09324E+00-5.48773E-02 3.89605E+00 2.90528E-13 3.81334E-13
 -1      2512 2.32230E+01 9.69263E-01-1.90147E-03 4.62068E+00 1.41876E-13 1.73288E-13
 -1      2513 1.95910E+01 2.76773E+00-3.41682E-04 1.12494E+00 6.44197E-13 2.09913E-13
 -1      2514 1.99777E+01 2.45982E+00-3.97761E-02 2.20336E+00 5.10023E-13 4.47246E-13
 -1      2515 2.20200E+01 2.92584E+00-2.58224E-02 3.28756E+00 4.81181E-13 3.00414E-13
 -1      2516 1.92491E+01 2.34341E+00-4.83614E-02-1.25520E+00 2.75269E-13-3.41099E-14
 -1      2517 1.93328E+01 2.70828E+00 5.54906E-03-2.53566E-01 5.42229E-13 2.02397E-13
 -1      2518 2.12295E+01 3.70887E+00-2.36926E-02 6.30246E-01 5.64142E-13 5.22347E-14
 -1      2519 1.94749E+01 1.01083E+00-2.50287E-02-2.88099E+00-2.97228E-14-5.67203E-14
 -1      2520 1.92232E+01 1.82082E+00 3.00946E-02-2.31343E+00 6.14092E-14 3.87433E-14
 -1      2521 2.07876E+01 3.01641E+00-1.14035E-02-1.88759E+00 2.65399E-13 6.18776E-14
 -1      2522 1.93552E+01 3.29550E-02 1.94840E-02-3.10337E+00-1.65421E-13-8.68637E-14
 -1      2523 2.57333E+01 7.42825E-01-1.03929E-02-7.36823E-01-1.05818E-15-1.70752E-13
 -1      2524 2.35840E+01 9.88599E-01-9.33894E-02-2.16300E+00 9.10001E-14 1.10745E-13
 -1      2525 2.95018E+01-1.44437E-01-3.14137E-02 2.39223E+00 1.75897E-13 2.84828E-13
 -1      2526 2.76023E+01 2.63398E-01-1.73773E-01 4.02137E-01 1.05103E-13-5.74679E-14
 -1      2527 2.79250E+01 2.46695E+00-1.88714E-02-8.46215E-01 1.85962E-13-3.60822E-15
 -1      2528 2.13050E+01-2.42916E+00-3.44338E-03-1.37359E+01-1.51323E-13-4.70138E-13
 -1      2529 1.94735E+01-5.95920E-02 2.65657E-02 2.93103E+00 4.34913E-14 1.96069E-13
 -1      2530 2.95327E+01-2.29295E+00-6.61209E-02-6.90643E+00-9.80882E-14 1.77081E-14
 -1      2531 2.90025E+01-2.47963E+00 2.84196E-02-9.87187E+00-5.22637E-14-1.33310E-13
 -1      2532 2.31761E+01 1.26819E+00-9.76391E-02 1.83507E+00-1.31666E-13-2.00492E-13
 -1      2533 2.51314E+01 1.16791E+00 1.20410E-02 6.24887E-01-9.59788E-14 7.95197E-15
 -1      2534 2.31107E+01 2.92569E+00-4.63364E-02 2.00922E+00 5.37209E-14 1.15602E-14
 -1      2535 1.97071E+01 1.43471E-01 3.27520E-03 5.88930E-02 1.47041E-13-3.57026E-14
 -1      2536 1.97854E+01 1.98278E-01 1.23812E-02 1.45166E-01 1.89637E-13-8.36007E-15
 -1      2537 1.98510E+01 1.81112E-01-3.85932E-03 6.41473E-02 1.72500E-13-1.17263E-13
 -1      2538 2.71050E+01 1.59082E-01-1.65725E-01-9.35294E-01-1.64688E-13 1.46411E-14
 -1      2539 2.89830E+01-5.36808E-01 3.27537E-04-3.47181E+00-4.84092E-14-7.61891E-14
 -1      2540 2.74896E+01 2.73039E+00-7.87130E-02 2.45918E-01-3.16275E-14-1.78330E-14
 -1      2541 3.15695E+01-1.51376E+00 8.26542E-02-9.34263E+00-2.41723E-13-2.53464E-13
 -1      2542 3.41146E+01 8.49935E-01 2.38414E-02-7.15227E+00-1.59386E-14 1.23013E-13
 -1      2543 3.57718E+01 4.38601E+00-1.59316E-01 3.93268E+00-3.21410E-14-4.44700E-13
 -1      2544 3.66707E+01 6.67436E+00-1.83077E-01 4.04010E+00 7.96030E-14-4.62658E-13
 -1      2545 3.73219E+01 7.85716E+00-7.18425E-02 2.21923E+00 3.92297E-13 4.64906E-14
 -1      2546 3.60820E+01 5.94164E+00-7.25013E-02 2.24275E+00 4.15973E-13 1.33005E-13
 -1      2547 1.95176E+01 3.58537E+00-1.00841E-02-2.45147E-01 2.50808E-15-4.28296E-13
 -1      2548 1.95337E+01 3.56471E+00-9.64458E-03-4.25786E-01-3.00259E-14-4.26013E-13
 -1      2549 1.97100E+01 3.16414E+00-5.66210E-04-4.73104E-01-4.02933E-14-3.99315E-13
 -1      2550 1.96756E+01 3.22410E+00-9.05894E-04-1.51911E-01 6.16967E-15-4.10130E-13
 -1      2551 3.78567E+01 1.00683E+01-1.29421E-01 2.50391E+00 1.44607E-13-4.34167E-14
 -1      2552 3.74879E+01 9.41420E+00-1.19367E-01 2.26370E+00 4.18166E-13 2.81719E-14
 -1      2553 3.37574E+01-1.27053E+00-1.26464E-01 2.29679E+00 1.87350E-13-4.25771E-14
 -1      2554 3.54045E+01 1.30727E+00-1.41055E-01 3.25333E+00 4.55191E-14-3.07809E-13
 -1      2555 1.13544E+01-7.49986E+00 2.65611E-02-6.43040E+00 1.17240E-13-8.70082E-13
 -1      2556 1.54642E+01-7.70022E+00-2.48865E-04-6.88228E+00 1.62481E-13-6.72309E-13
 -1      2557 5.30550E+00-5.61594E+00 1.12926E-01-4.39064E+00 3.71980E-13-8.98503E-13
 -1      2558 7.93173E+00-6.61387E+00 5.21281E-02-5.92397E+00 3.73312E-13-9.41414E-13
 -1      2559 1.14944E+01-6.18849E+00 1.20391E-01-6.23798E+00 2.30982E-13-7.04908E-13
 -1      2560 2.82322E+00-4.76538E+00 1.22666E-01 9.70025E-01 4.69277E-13-8.41549E-14
 -1      2561 3.43526E+00-4.53292E+00 1.34363E-01-1.70345E+00 5.00072E-13-5.88585E-13
 -1      2562 5.21858E+00-5.85138E+00 5.60164E-02 5.03539E+00 1.88488E-13 3.40949E-13
 -1      2563 3.28494E+00-5.50079E+00 7.10284E-02 3.06601E+00 2.18200E-13 3.43003E-13
 -1      2564 1.28823E+01-7.19687E+00 9.91066E-03 7.25576E+00 1.48381E-13 3.95683E-13
 -1      2565 8.69061E+00-6.75613E+00 6.27793E-02 6.29995E+00 1.81660E-13 3.23963E-13
 -1      2566 2.12245E+01-7.51766E+00-6.47916E-02 6.39548E+00-1.10245E-13 2.71481E-13
 -1      2567 1.72434E+01-7.67089E+00 4.64956E-02 6.73739E+00 1.13354E-13 1.39236E-13
 -1      2568 2.99671E+01-5.31703E+00-7.57998E-02 2.53391E+00 7.48290E-14-6.37268E-14
 -1      2569 2.59088E+01-6.84115E+00 2.98315E-02 4.06374E+00-1.23401E-13 1.81188E-13
 -1      2570 3.50242E+01-3.93105E-01-1.06105E-01-7.05813E-01 2.22856E-13-1.94289E-13
 -1      2571 3.24819E+01-2.66362E+00-6.68573E-02 3.86127E-01 1.35170E-13-1.43663E-13
 -1      2572 3.73607E+01 5.14816E+00-1.57437E-01-3.02373E+00 3.26433E-13-5.14588E-14
 -1      2573 3.61364E+01 2.62050E+00-7.86401E-02-2.12766E+00 2.73614E-13-1.02307E-13
 -1      2574 3.70508E+01 9.34148E+00-2.04579E-01-3.54630E+00 5.02154E-13 1.96995E-13
 -1      2575 3.74624E+01 7.82214E+00-8.27795E-02-3.48891E+00 5.20028E-13 1.80855E-13
 -1      2576 3.66520E+01 1.03654E+01-1.52578E-01-2.64407E+00 2.19436E-13 1.97342E-14
 -1      2577 3.61392E+01 1.03731E+01-1.91289E-01-2.93786E+00 4.68403E-13 1.93633E-13
 -1      2578 3.49754E+01 3.39923E+00-5.32939E-02-4.25313E+00 1.04611E-13 3.25295E-14
 -1      2579 3.57835E+01 5.52530E+00-8.19046E-02-3.45056E+00 5.23193E-14-7.31082E-14
 -1      2580 3.55125E+01 3.05611E+00-6.81177E-02 3.63713E+00 3.55577E-13 1.42664E-14
 -1      2581 3.38848E+01 5.75064E-01 2.36841E-03 5.29820E+00 3.47264E-13-1.83631E-13
 -1      2582 2.04921E+01 8.74988E-01-7.30786E-03 1.22596E+00 2.85338E-13 1.09764E-13
 -1      2583 2.08425E+01 1.25695E+00-6.05059E-03 1.72669E+00 2.96482E-13 1.59385E-13
 -1      2584 2.06482E+01 1.71565E+00-1.57934E-02 1.92078E+00 3.22658E-13 5.04666E-14
 -1      2585 2.04505E+01 1.05813E+00-9.39862E-03 1.24059E+00 2.86673E-13-1.62663E-15
 -1      2586 1.97082E+01-8.04770E+00 1.12164E-02-5.92739E+00 1.69920E-13-1.88183E-14
 -1      2587 2.36693E+01-7.66951E+00-7.18402E-02-5.10785E+00 2.19574E-13 3.23463E-13
 -1      2588 3.68039E+01 8.88161E+00-1.74243E-01 3.55050E+00 2.43472E-13-3.64486E-13
 -1      2589 3.76376E+01 9.84489E+00-1.30286E-01 3.14554E+00 1.67699E-13-2.42958E-13
 -1      2590 3.41149E+01 8.23706E+00-4.40556E-02 1.11225E+00 4.91274E-13 3.52385E-13
 -1      2591 1.99122E+01 2.81623E+00 2.43410E-03-1.09797E+00-1.60871E-13-3.56329E-13
 -1      2592 1.97821E+01 3.16066E+00-1.45407E-02-1.28376E+00-1.68685E-13-3.73757E-13
 -1      2593 1.98766E+01 3.03727E+00-1.74709E-02-1.48242E+00-2.05476E-13-3.41978E-13
 -1      2594 3.12514E+01 2.13955E-01 1.42034E-03-4.55496E+00 2.43520E-14-1.51823E-14
 -1      2595 2.04236E+01 2.11585E+00-1.27795E-02 1.87373E+00 3.13805E-13-7.89542E-14
 -1      2596 1.89576E+01-7.55930E+00 1.26728E-01-6.15253E+00-1.27953E-14-1.26815E-13
 -1      2597 3.30639E+01 9.47269E+00-8.43502E-02-1.66247E+00 2.13662E-13 2.81025E-13
 -1      2598 1.99965E+01 3.40418E-01-3.53133E-03 3.03450E-01 2.15576E-13-8.75619E-14
 -1      2599 2.01136E+01 2.62149E+00-1.17055E-02-1.67755E+00-2.44010E-13-2.45151E-13
 -1      2600 2.82304E+01-2.35465E+00-3.09908E-02-1.16534E+01-7.34413E-14-2.70062E-13
 -1      2601 2.05149E+01 6.98392E-01-1.39128E-02-3.11016E+00-8.04148E-14 2.67997E-13
 -1      2602 3.13248E+01-1.80953E+00-2.17809E-02 8.65590E+00 1.58207E-13-1.96065E-13
 -1      2603 3.15887E+01-1.48729E+00-9.83436E-03 6.10472E+00 1.13298E-13-2.07612E-14
 -1      2604 3.33604E+01 2.47719E+00-7.39587E-02 4.71972E+00 2.70062E-14-5.04791E-13
 -1      2605 2.15439E+01 8.96554E-01 3.59849E-03-2.68286E+00 3.17099E-14 1.44391E-13
 -1      2606 3.40277E+01 9.72149E+00-5.13379E-02 2.50038E+00 2.81775E-13 1.13149E-13
 -1      2607 2.87491E+01-3.17384E+00 1.39986E-01 1.06858E+01 2.35145E-13-3.28237E-13
 -1      2608 1.64677E+01-6.33976E-01-3.02104E-02 1.26595E+01 4.66294E-15 3.21743E-13
 -1      2609 2.04374E+01 1.80817E+00 1.25366E-02 1.56141E+00 2.95355E-13-1.13688E-13
 -1      2610 3.36447E+01 7.50914E+00-8.57898E-02 4.34498E+00 1.52156E-13-3.03785E-13
 -1      2611 2.51999E+01-7.51216E+00 1.22317E-01-3.79482E+00 6.76681E-14 3.20976E-13
 -1      2612 2.66031E+01-7.24033E+00 6.31726E-02-3.47792E+00 1.78163E-13 3.53023E-13
 -1      2613 2.84669E+01-6.94033E+00-2.07752E-01-1.56205E+00 1.93345E-13 3.55854E-13
 -1      2614 3.36309E+01 3.72539E+00-9.08052E-02 1.76446E+00 2.98928E-13 1.54099E-13
 -1      2615 3.37343E+01 9.66218E+00-1.06994E-01-3.19225E+00 4.02345E-13 3.99014E-13
 -1      2616 3.48359E+01 6.17772E+00-4.75212E-02-4.05017E+00 2.43028E-13-5.41234E-15
 -1      2617 3.41769E+01 7.67660E-01-1.80275E-02-2.84820E+00 8.11018E-14-2.26152E-13
 -1      2618 3.09167E+01-4.61547E+00-1.45500E-02 2.16340E-01 3.86358E-14-1.71085E-13
 -1      2619 2.48115E+01-7.23269E+00 9.70463E-02 4.47846E+00-1.86018E-13 2.15938E-14
 -1      2620 1.64382E+01-6.99921E+00 1.32509E-01 6.89334E+00 1.47438E-13 1.84269E-13
 -1      2621 8.85637E+00-5.34959E+00 1.43729E-01 5.82868E+00 2.55573E-13 2.33036E-13
 -1      2622 5.47906E+00-4.15666E+00 1.70159E-01-2.98558E+00 4.35096E-13-8.16791E-13
 -1      2623 7.96346E+00-3.62080E+00 1.44861E-01-4.02955E+00 3.42837E-13-8.75300E-13
 -1      2624 6.26995E+00-2.52785E+00 1.73165E-01-1.64644E+00 5.20431E-13-5.77705E-13
 -1      2625 1.91798E+01 9.79566E-01-1.46322E-02 2.56781E+00 8.77623E-14 2.31403E-13
 -1      2626 2.00594E+01 8.10778E-01 2.63362E-03 2.80006E+00-8.05400E-15-1.89493E-14
 -1      2627 2.05698E+01 2.32994E+00-1.15617E-02 2.49840E+00-1.02111E-13 8.41098E-14
 -1      2628 1.90106E+01 1.61707E+00 4.57946E-03 2.25588E+00 4.19708E-14 2.97765E-13
 -1      2629 3.28886E+01-3.25795E+00-7.72899E-02 1.56583E+00 2.90115E-13 1.07747E-13
 -1      2630 3.18290E+01-2.18563E+00-1.19823E-01 3.53578E+00 1.87267E-13-1.52822E-13
 -1      2631 3.11255E+01-4.68130E+00 5.13452E-02 9.45538E-01 3.20535E-13 2.34923E-13
 -1      2632 3.04167E+01-9.22680E-01-1.79542E-01 3.69124E+00 1.70523E-13 1.87239E-13
 -1      2633 1.98124E+01 2.55457E+00 8.31865E-03 1.83710E+00-2.67425E-14 2.91695E-13
 -1      2634 2.64029E+01-2.96780E+00 2.38617E-01-1.30393E+01-3.13638E-14-3.17024E-13
 -1      2635 3.31443E+01 6.30299E+00-6.39609E-02-1.57057E+00-4.70735E-14-5.93137E-14
 -1      2636 2.29609E+01 2.30103E+00-8.22991E-02-2.42846E+00 7.08461E-14 1.81147E-13
 -1      2637 2.40241E+01-3.06442E+00-2.53582E-01 1.31214E+01 2.07889E-13-8.90815E-14
 -1      2638 4.95576E+00-3.63104E+00 1.64021E-01 1.97977E+00 4.05953E-13 4.47420E-14
 -1      2639 1.98436E+01 2.76560E+00-6.29662E-03 5.15826E-01 1.38093E-13-3.85511E-13
 -1      2640 1.98186E+01 2.81537E+00-5.70132E-03 3.65057E-01 1.10459E-13-3.68556E-13
 -1      2641 1.98016E+01 2.85292E+00-5.61221E-03 2.29676E-01 9.77881E-14-3.69277E-13
 -1      2642 1.97930E+01 2.86981E+00-5.43212E-03 7.51668E-02 6.20785E-14-3.67534E-13
 -1      2643 1.99480E+01 2.50165E+00 3.64252E-03 2.64956E-01 1.01426E-13-3.52028E-13
 -1      2644 2.00431E+01 2.32440E+00-1.07217E-02 1.04516E+00 2.40124E-13-2.97822E-13
 -1      2645 1.99787E+01 2.47339E+00-6.31062E-03 9.09650E-01 2.29751E-13-3.28494E-13
 -1      2646 2.02172E+01 1.90844E+00-1.20205E-02 1.22635E+00 2.61344E-13-2.33319E-13
 -1      2647 2.01243E+01 2.14661E+00-4.80340E-03 1.13294E+00 2.52111E-13-2.53421E-13
 -1      2648 2.01890E+01 1.88694E+00 6.43425E-03 9.25571E-01 2.29745E-13-2.60396E-13
 -1      2649 3.08046E+01 6.02024E+00-1.71974E-01 4.82527E+00 4.20775E-14-4.40523E-13
 -1      2650 3.07451E+01 7.65699E+00-2.70193E-01 3.85705E+00 2.84633E-13-2.62589E-13
 -1      2651 2.03121E+01 1.05988E+00 2.51603E-03-8.55602E-01-2.32703E-13-1.43455E-13
 -1      2652 2.02273E+01 8.17340E-01-5.20075E-03-6.11530E-01-2.06283E-13-1.59270E-13
 -1      2653 2.02138E+01 7.27126E-01-3.49027E-03 6.41680E-01 2.44104E-13-1.17444E-13
 -1      2654 2.03557E+01 9.51987E-01 9.14645E-03 9.05564E-01 2.45651E-13-1.02154E-13
 -1      2655 1.98427E+01 6.70141E-03 1.83059E-04-1.78046E-01 5.21983E-14-1.45842E-13
 -1      2656 1.98426E+01 2.60834E-02 1.78498E-03-1.66995E-01 7.34720E-14-1.47665E-13
 -1      2657 2.02167E+01 6.27226E-01 8.21872E-03-4.35936E-01-1.88641E-13-1.53160E-13
 -1      2658 2.01330E+01 4.75455E-01-3.41791E-03-2.77318E-01-1.61053E-13-1.59713E-13
 -1      2659 2.02627E+01 8.91006E-01 7.72699E-05-5.69839E-01-2.07377E-13-1.70050E-13
 -1      2660 2.01069E+01 3.62914E-01 6.61164E-03-1.57445E-01-1.50820E-13-1.74561E-13
 -1      2661 2.00477E+01 2.68156E-01-1.79831E-03-5.96649E-02-1.43212E-13-1.84708E-13
 -1      2662 2.01954E+01 5.29009E-01-1.72598E-03-2.60684E-01-1.73090E-13-1.68565E-13
 -1      2663 2.00217E+01 1.97827E-01 4.51773E-03 1.57258E-02-1.34136E-13-1.65465E-13
 -1      2664 1.99859E+01 1.38211E-01-8.43049E-04 7.23365E-02-1.48515E-13-1.69758E-13
 -1      2665 2.01266E+01 2.99135E-01-2.06861E-03-5.41381E-02-1.38264E-13-1.84882E-13
 -1      2666 1.99649E+01 9.40232E-02 2.89547E-03 1.15700E-01-1.56933E-13-1.53054E-13
 -1      2667 1.99468E+01 5.66893E-02-2.99847E-04 1.45140E-01-1.15910E-13-1.74834E-13
 -1      2668 2.00700E+01 1.52704E-01-1.89487E-03 7.31852E-02-1.44714E-13-1.71908E-13
 -1      2669 1.99318E+01 2.91700E-02 1.73437E-03 1.66593E-01-1.02429E-13-1.74372E-13
 -1      2670 1.99258E+01 6.33383E-03-3.50434E-06 1.78451E-01-9.27486E-14-1.80408E-13
 -1      2671 2.00288E+01 6.02148E-02-1.51524E-03 1.44155E-01-1.20065E-13-1.58035E-13
 -1      2672 1.99159E+01-1.02322E-02 9.30726E-04 1.85461E-01-5.52111E-14-1.62593E-13
 -1      2673 1.99177E+01-2.34555E-02 1.50058E-04 1.86296E-01-2.83198E-14-1.49001E-13
 -1      2674 2.00013E+01 3.02401E-03-1.13261E-03 1.76805E-01-6.27910E-14-1.49327E-13
 -1      2675 1.99117E+01-3.27222E-02 3.93098E-04 1.84247E-01-1.39480E-14-1.47879E-13
 -1      2676 1.99180E+01-3.95470E-02 2.22571E-04 1.78542E-01-5.93621E-15-1.27086E-13
 -1      2677 1.99844E+01-3.06432E-02-8.10400E-04 1.84482E-01-1.57769E-14-7.55229E-14
 -1      2678 1.99149E+01-4.39555E-02 4.83084E-05 1.71227E-01 1.69923E-14-1.03653E-13
 -1      2679 1.99235E+01-4.65623E-02 2.49737E-04 1.62028E-01 7.21547E-14-6.61685E-14
 -1      2680 1.99753E+01-4.85748E-02-5.59597E-04 1.76780E-01 2.81299E-14-7.10048E-14
 -1      2681 1.99223E+01-4.77831E-02-1.60133E-04 1.52062E-01 3.50150E-14-4.73002E-14
 -1      2682 1.99316E+01-4.76696E-02 2.52530E-04 1.41412E-01 7.70259E-15-7.39444E-14
 -1      2683 1.99715E+01-5.60690E-02-3.73558E-04 1.60432E-01 5.86824E-14-3.23471E-14
 -1      2684 1.99317E+01-4.68518E-02-2.74680E-04 1.30557E-01-2.15804E-14-6.82152E-14
 -1      2685 1.99410E+01-4.50406E-02 2.43928E-04 1.19796E-01 3.24812E-15-4.70072E-14
 -1      2686 1.99712E+01-5.67735E-02-2.40869E-04 1.40060E-01-1.63302E-14-6.15782E-14
 -1      2687 1.99419E+01-4.29633E-02-3.26750E-04 1.09210E-01 1.23295E-14-1.12235E-13
 -1      2688 1.99505E+01-4.01339E-02 2.32503E-04 9.91992E-02-3.83280E-14-1.01958E-13
 -1      2689 1.99731E+01-5.31873E-02-1.50149E-04 1.18764E-01-3.77682E-14-6.01959E-14
 -1      2690 1.99519E+01-3.73047E-02-3.39323E-04 8.96236E-02-7.86661E-14-8.25153E-14
 -1      2691 1.99597E+01-3.38830E-02 2.24351E-04 8.09042E-02-8.83813E-14-8.96693E-14
 -1      2692 1.99763E+01-4.69793E-02-9.16674E-05 9.85733E-02-7.27901E-14-7.64226E-14
 -1      2693 1.99614E+01-3.06068E-02-3.29033E-04 7.28093E-02-1.37919E-13-8.88172E-14
 -1      2694 1.99685E+01-2.68279E-02 2.24148E-04 6.57237E-02-1.81933E-13-7.19808E-14
 -1      2695 1.99802E+01-3.92048E-02-5.76474E-05 8.07963E-02-1.14245E-13-7.37125E-14
 -1      2696 1.99703E+01-2.32560E-02-3.07826E-04 5.94184E-02-2.00358E-13-3.23551E-14
 -1      2697 1.99767E+01-1.92103E-02 2.35765E-04 5.42023E-02-1.55503E-13-5.70223E-14
 -1      2698 1.99845E+01-3.04580E-02-4.21079E-05 6.62812E-02-1.83616E-13-7.61561E-15
 -1      2699 1.99787E+01-1.53770E-02-2.84246E-04 4.99179E-02-1.07542E-13-9.21883E-14
 -1      2700 1.99848E+01-1.10445E-02 2.62642E-04 4.67691E-02-6.45960E-14-8.10578E-14
 -1      2701 1.99891E+01-2.09832E-02-4.05448E-05 5.56194E-02-1.50407E-13 5.22816E-14
 -1      2702 1.99869E+01-6.89450E-03-2.64420E-04 4.47231E-02-3.32099E-14-4.54829E-14
 -1      2703 1.99930E+01-2.17056E-03 3.08001E-04 4.38545E-02-1.25728E-14-9.93653E-15
 -1      2704 1.99940E+01-1.07580E-02-4.95885E-05 4.92990E-02-3.11528E-14-2.19635E-15
 -1      2705 1.99954E+01 2.41965E-03-2.52784E-04 4.42987E-02-3.79804E-14 1.07741E-14
 -1      2706 2.00019E+01 7.70333E-03 3.74917E-04 4.59775E-02 3.56271E-14-4.31282E-14
 -1      2707 1.99994E+01 4.43067E-04-6.66782E-05 4.78212E-02-7.83278E-15 8.46872E-15
 -1      2708 2.00046E+01 1.29071E-02-2.52603E-04 4.92335E-02 8.32906E-14-1.13010E-13
 -1      2709 2.00121E+01 1.89639E-02 4.66237E-04 5.38091E-02 1.16842E-13-1.26633E-13
 -1      2710 2.00053E+01 1.29978E-02-8.97627E-05 5.17869E-02 1.65227E-14-4.81080E-14
 -1      2711 2.00152E+01 2.49867E-02-2.66279E-04 6.02925E-02 1.39669E-13-1.40407E-13
 -1      2712 2.00242E+01 3.20546E-02 5.84328E-04 6.82130E-02 1.13672E-13-1.77024E-13
 -1      2713 2.00122E+01 2.73893E-02-1.17034E-04 6.19584E-02 1.26961E-13-2.01797E-13
 -1      2714 2.00279E+01 3.91127E-02-2.95443E-04 7.84457E-02 6.95224E-14-1.90094E-13
 -1      2715 2.00391E+01 4.74290E-02 7.30595E-04 9.02625E-02-6.92304E-15-2.11152E-13
 -1      2716 2.00203E+01 4.41560E-02-1.46704E-04 7.92959E-02 6.05322E-14-2.82203E-13
 -1      2717 2.00436E+01 5.57207E-02-3.40803E-04 1.04871E-01-8.02794E-14-2.77000E-13
 -1      2718 2.00578E+01 6.54851E-02 9.04725E-04 1.21225E-01-1.14554E-13-2.99164E-13
 -1      2719 2.00300E+01 6.38285E-02-1.76860E-04 1.04968E-01-9.06571E-14-2.03323E-13
 -1      2720 2.00631E+01 7.51483E-02-4.01642E-04 1.40919E-01-4.16066E-14-2.75097E-13
 -1      2721 2.00811E+01 8.64671E-02 1.10360E-03 1.62507E-01-6.97627E-14-2.08859E-13
 -1      2722 2.00417E+01 8.68394E-02-2.05467E-04 1.40328E-01-5.77684E-14-1.43447E-13
 -1      2723 2.00876E+01 9.75151E-02-4.74843E-04 1.88035E-01-6.21323E-14-1.52045E-13
 -1      2724 2.01102E+01 1.10318E-01 1.31979E-03 2.15538E-01-2.59926E-14-1.48428E-13
 -1      2725 2.00558E+01 1.13390E-01-2.30673E-04 1.86843E-01 2.40733E-14-1.12262E-13
 -1      2726 2.01181E+01 1.22542E-01-5.53213E-04 2.47602E-01-7.27917E-14-6.29768E-14
 -1      2727 2.01464E+01 1.36454E-01 1.53969E-03 2.81567E-01-5.80986E-14-7.09513E-14
 -1      2728 2.00728E+01 1.43247E-01-2.51681E-04 2.45968E-01 3.86489E-14-4.14497E-14
 -1      2729 2.01560E+01 1.49277E-01-6.22755E-04 3.20696E-01 3.00406E-14 5.06096E-15
 -1      2730 2.01909E+01 1.63432E-01 1.74115E-03 3.61350E-01 7.27503E-14 3.55083E-14
 -1      2731 2.00933E+01 1.75449E-01-2.70624E-04 3.18925E-01 6.75791E-14 1.89741E-13
 -1      2732 2.02029E+01 1.75694E-01-6.58425E-04 4.07694E-01-1.31936E-14 1.63274E-14
 -1      2733 2.02454E+01 1.88459E-01 1.89091E-03 4.54664E-01-2.75213E-14-3.96778E-14
 -1      2734 2.01182E+01 2.07855E-01-2.96171E-04 4.06375E-01-4.19303E-14 1.85041E-13
 -1      2735 2.02607E+01 1.98112E-01-6.17797E-04 5.07708E-01 2.74368E-14-6.19997E-14
 -1      2736 2.03117E+01 2.06704E-01 1.94184E-03 5.59608E-01 9.33577E-15-8.70470E-14
 -1      2737 2.01487E+01 2.36520E-01-3.49835E-04 5.07939E-01-1.92847E-14-5.61238E-15
 -1      2738 2.03321E+01 2.10392E-01-4.32090E-04 6.17760E-01-5.67771E-14-1.24082E-13
 -1      2739 2.03927E+01 2.10375E-01 1.83001E-03 6.71621E-01-5.75305E-14-1.15850E-13
 -1      2740 2.01871E+01 2.54810E-01-4.76166E-04 6.21527E-01-1.39820E-14-1.57032E-13
 -1      2741 2.04213E+01 2.02901E-01 5.37346E-06 7.31645E-01-6.37608E-14-1.00380E-13
 -1      2742 2.04929E+01 1.87579E-01 1.47110E-03 7.82150E-01-9.52946E-14-9.87143E-14
 -1      2743 2.02372E+01 2.52257E-01-7.57608E-04 7.42424E-01-3.92974E-14-2.58805E-13
 -1      2744 2.05352E+01 1.61346E-01 8.51290E-04 8.38394E-01-8.08237E-14 1.88459E-14
 -1      2745 2.06197E+01 1.21207E-01 7.53662E-04 8.76902E-01-3.51264E-14 5.41817E-14
 -1      2746 2.03064E+01 2.13217E-01-1.33283E-03 8.62058E-01-8.16123E-14-9.00646E-14
 -1      2747 2.06848E+01 6.58465E-02 2.31837E-03 9.20249E-01-7.66316E-15 6.84061E-14
 -1      2748 2.07849E+01-1.15720E-02-4.77127E-04 9.33677E-01 7.73179E-14 9.13529E-14
 -1      2749 2.04068E+01 1.15653E-01-2.41184E-03 9.66356E-01 2.56072E-14 1.26247E-13
 -1      2750 2.08871E+01-1.08778E-01 4.65519E-03 9.50104E-01 6.78815E-14 3.77661E-14
 -1      2751 2.10070E+01-2.37706E-01-2.45096E-03 9.19857E-01 7.75311E-14 4.64957E-14
 -1      2752 2.05590E+01-6.90634E-02-4.26970E-03 1.03349E+00 3.85220E-14 2.67618E-14
 -1      2753 2.11670E+01-3.89411E-01 8.07023E-03 8.88481E-01 1.08410E-13-4.84254E-14
 -1      2754 2.13108E+01-5.81619E-01-5.51046E-03 7.89936E-01 1.30460E-13-6.35566E-14
 -1      2755 2.07944E+01-3.73390E-01-7.16845E-03 1.03069E+00-3.10963E-15-1.70118E-13
 -1      2756 2.15546E+01-7.93766E-01 1.24837E-02 6.80560E-01 4.91924E-14-9.95017E-14
 -1      2757 2.17229E+01-1.04808E+00-1.00254E-02 4.84432E-01-1.36809E-13-1.69697E-13
 -1      2758 2.11566E+01-8.23888E-01-1.11023E-02 9.09718E-01 1.82419E-14-1.72819E-13
 -1      2759 2.20735E+01-1.30591E+00 1.68745E-02 2.56658E-01-7.66742E-15-1.44002E-13
 -1      2760 2.22552E+01-1.58858E+00-1.59129E-02-6.46212E-02 1.36168E-13-5.30058E-14
 -1      2761 2.16952E+01-1.41658E+00-1.51924E-02 6.01805E-01 2.43020E-14-1.75089E-13
 -1      2762 2.27123E+01-1.83356E+00 1.89619E-02-4.55866E-01 1.30663E-13 8.24937E-14
 -1      2763 2.28725E+01-2.04843E+00-2.06763E-02-9.11260E-01 1.60598E-13 1.35451E-13
 -1      2764 2.24419E+01-2.07249E+00-1.70783E-02 1.91218E-02 1.88884E-13 4.41693E-14
 -1      2765 2.33738E+01-2.15275E+00 1.38686E-02-1.48679E+00 2.37903E-13 1.51388E-13
 -1      2766 2.34496E+01-2.12599E+00-1.95621E-02-2.03062E+00 1.34703E-13 3.03324E-13
 -1      2767 2.33602E+01-2.56481E+00-1.06530E-02-9.21040E-01 1.89213E-13-2.03613E-15
 -1      2768 2.38275E+01-1.89447E+00-8.36151E-03-2.72532E+00-4.48577E-14 4.56682E-13
 -1      2769 2.37418E+01-1.41349E+00-9.70550E-03-3.20811E+00-3.50804E-14 3.98985E-13
 -1      2770 2.42693E+01-2.47477E+00 6.21118E-03-2.21333E+00 1.37954E-13 1.18698E-14
 -1      2771 2.37689E+01-6.80926E-01-4.64199E-02-3.76781E+00-1.53605E-14 3.41763E-13
 -1      2772 2.34978E+01 3.23561E-01 1.13606E-02-3.92213E+00 1.78519E-13 2.50796E-13
 -1      2773 2.47708E+01-1.34835E+00 3.26306E-03-3.58385E+00-2.61458E-14 1.50682E-13
 -1      2774 2.30682E+01 1.44969E+00-7.72925E-02-3.94899E+00 2.88145E-13 2.64789E-13
 -1      2775 2.26637E+01 2.64207E+00 1.45331E-02-3.53060E+00 2.28505E-13 3.95726E-13
 -1      2776 2.45688E+01 9.55742E-01 1.07892E-03-4.28980E+00 2.07881E-13 1.39881E-13
 -1      2777 2.20424E+01 3.63975E+00-7.01583E-02-2.75019E+00 1.71974E-13 3.12897E-13
 -1      2778 2.16547E+01 4.32032E+00-1.50032E-02-1.79741E+00 2.82857E-13 1.49700E-13
 -1      2779 2.36908E+01 3.75528E+00-2.72102E-02-3.59925E+00 1.68920E-13 1.53398E-13
 -1      2780 2.12158E+01 4.58931E+00-1.64804E-02-5.26392E-01 4.20036E-13-4.66328E-14
 -1      2781 2.09934E+01 4.19396E+00-3.67087E-02 6.08219E-01 2.23764E-13 1.09981E-15
 -1      2782 2.27038E+01 5.31269E+00-5.01254E-02-1.49967E+00 1.39715E-13-1.13616E-14
 -1      2783 1.98563E+01 4.93406E-02 4.34778E-05-1.45170E-01 9.96926E-14-1.36764E-13
 -1      2784 1.98702E+01 8.12708E-02 3.16063E-03-1.16857E-01 1.28810E-13-1.21487E-13
 -1      2785 1.99517E+01 5.40895E-02-1.76357E-03-1.47284E-01 9.45580E-14-1.51723E-13
 -1      2786 1.98932E+01 1.18894E-01-2.58646E-04-7.23445E-02 1.27602E-13-1.41637E-13
 -1      2787 1.99288E+01 1.70542E-01 5.20035E-03-1.68151E-02 1.47977E-13-1.42633E-13
 -1      2788 1.99922E+01 1.35569E-01-2.33379E-03-7.39772E-02 1.20545E-13-1.57302E-13
 -1      2789 1.98445E+01-1.84637E-02 2.32018E-04-1.85508E-01 4.78982E-14-6.30655E-14
 -1      2790 1.98361E+01-7.27553E-03 8.79385E-04-1.85134E-01 5.63994E-14-9.82495E-14
 -1      2791 1.99296E+01 4.11196E-03-1.24941E-03-1.80658E-01 3.87451E-14-1.58162E-13
 -1      2792 1.98554E+01-3.21080E-02 2.35968E-04-1.77539E-01 9.43324E-14-1.03456E-13
 -1      2793 1.98427E+01-2.63206E-02 2.95647E-04-1.83438E-01 7.44228E-14-7.08604E-14
 -1      2794 1.99207E+01-2.52226E-02-8.41669E-04-1.88349E-01 6.44307E-14-1.61808E-13
 -1      2795 1.98712E+01-3.81607E-02 2.20570E-04-1.60951E-01 9.91035E-14-1.03321E-13
 -1      2796 1.98567E+01-3.59128E-02-6.61580E-05-1.70169E-01 1.01385E-13-1.01831E-13
 -1      2797 1.99204E+01-4.08973E-02-5.38724E-04-1.80347E-01 9.71080E-14-1.45806E-13
 -1      2798 1.98888E+01-3.92857E-02 1.99079E-04-1.40335E-01 6.13605E-14-9.40580E-14
 -1      2799 1.98742E+01-3.93118E-02-2.75581E-04-1.50912E-01 9.34074E-14-8.59551E-14
 -1      2800 1.99253E+01-4.75686E-02-3.23751E-04-1.63557E-01 7.98592E-14-5.47264E-14
 -1      2801 1.99063E+01-3.73020E-02 1.78664E-04-1.18731E-01 1.19405E-14-5.39240E-14
 -1      2802 1.98927E+01-3.87407E-02-3.82010E-04-1.29388E-01 3.14724E-14-5.55449E-14
 -1      2803 1.99331E+01-4.84046E-02-1.77612E-04-1.42673E-01 1.75589E-14-5.95604E-14
 -1      2804 1.99228E+01-3.34334E-02 1.63581E-04-9.80993E-02-1.53932E-14-7.75676E-14
 -1      2805 1.99105E+01-3.57111E-02-4.20836E-04-1.08026E-01 1.67286E-14-9.74014E-14
 -1      2806 1.99421E+01-4.55666E-02-8.35293E-05-1.20822E-01 2.89240E-14 1.32755E-14
 -1      2807 1.99378E+01-2.84686E-02 1.56895E-04-7.96708E-02 4.89433E-14-1.08215E-13
 -1      2808 1.99270E+01-3.12232E-02-4.17350E-04-8.83645E-02 6.52150E-15-5.14295E-14
 -1      2809 1.99514E+01-4.05007E-02-2.82001E-05-1.00034E-01 1.08295E-14-1.79101E-14
 -1      2810 1.99511E+01-2.28713E-02 1.61269E-04-6.42094E-02 6.94457E-14-1.86254E-13
 -1      2811 1.99418E+01-2.58991E-02-3.89429E-04-7.13617E-02 6.85226E-14-9.55252E-14
 -1      2812 1.99604E+01-3.41277E-02-1.53546E-06-8.16028E-02 5.37986E-14-2.67745E-14
 -1      2813 1.99631E+01-1.68579E-02 1.79372E-04-5.22096E-02 4.60122E-14-1.29960E-13
 -1      2814 1.99549E+01-2.00759E-02-3.49568E-04-5.76166E-02 5.44266E-14-1.75500E-13
 -1      2815 1.99690E+01-2.69749E-02 3.85004E-06-6.63497E-02 5.27612E-14-8.34765E-14
 -1      2816 1.99742E+01-1.04552E-02 2.14121E-04-4.40471E-02-2.27238E-14-9.84777E-14
 -1      2817 1.99668E+01-1.38735E-02-3.06400E-04-4.75430E-02 4.22978E-14-1.17805E-13
 -1      2818 1.99771E+01-1.92706E-02-6.81213E-06-5.48307E-02 1.56991E-14-4.18575E-14
 -1      2819 1.99850E+01-3.54059E-03 2.68829E-04-4.00953E-02-1.89826E-15-8.70956E-14
 -1      2820 1.99778E+01-7.24267E-03-2.65847E-04-4.15000E-02-5.03946E-14-9.98274E-14
 -1      2821 1.99851E+01-1.10119E-02-2.99294E-05-4.74918E-02-1.33600E-14-7.56420E-14
 -1      2822 1.99963E+01 4.12741E-03 3.47268E-04-4.08159E-02 5.12596E-14-1.30393E-13
 -1      2823 1.99888E+01-9.78220E-07-2.32004E-04-3.98945E-02 1.90635E-14-1.71470E-13
 -1      2824 1.99931E+01-2.01488E-03-6.30819E-05-4.47892E-02 4.75913E-14-8.84057E-14
 -1      2825 2.00089E+01 1.28873E-02 4.53656E-04-4.68296E-02 9.62547E-14-1.50997E-13
 -1      2826 2.00005E+01 8.14174E-03-2.07820E-04-4.32605E-02 1.20771E-13-8.54234E-14
 -1      2827 2.00018E+01 8.04930E-03-1.04592E-04-4.72823E-02 6.08313E-14-1.00545E-13
 -1      2828 2.00240E+01 2.31565E-02 5.92525E-04-5.89713E-02 8.88350E-14-1.32246E-13
 -1      2829 2.00138E+01 1.75635E-02-1.95622E-04-5.23209E-02 9.43667E-14-1.43858E-13
 -1      2830 2.00118E+01 1.96268E-02-1.53104E-04-5.57058E-02 1.09953E-13-3.03393E-14
 -1      2831 2.00428E+01 3.54130E-02 7.68426E-04-7.83302E-02-1.01427E-13-9.57546E-15
 -1      2832 2.00299E+01 2.87123E-02-1.97507E-04-6.80355E-02 1.34641E-14-3.64307E-14
 -1      2833 2.00235E+01 3.32571E-02-2.07150E-04-7.10229E-02-9.46679E-15 1.14218E-15
 -1      2834 2.00666E+01 5.01715E-02 9.85407E-04-1.06273E-01-1.97139E-13-1.81851E-13
 -1      2835 2.00500E+01 4.20866E-02-2.15617E-04-9.16315E-02-1.52989E-13-3.08631E-14
 -1      2836 2.00379E+01 4.95474E-02-2.64681E-04-9.44620E-02-5.76443E-14 1.05433E-13
 -1      2837 2.00970E+01 6.79463E-02 1.24613E-03-1.44442E-01-2.28558E-13-2.53863E-13
 -1      2838 2.00756E+01 5.82054E-02-2.52249E-04-1.24617E-01-2.16787E-13-2.13991E-13
 -1      2839 2.00557E+01 6.91373E-02-3.22570E-04-1.27531E-01-1.68763E-13-1.20615E-14
 -1      2840 2.01358E+01 8.91883E-02 1.55051E-03-1.94726E-01-1.18812E-13-2.22316E-13
 -1      2841 2.01081E+01 7.75612E-02-3.09734E-04-1.68764E-01-2.08559E-13-2.98643E-13
 -1      2842 2.00779E+01 9.26429E-02-3.76139E-04-1.72002E-01-1.86441E-13-1.06268E-13
 -1      2843 2.01847E+01 1.14176E-01 1.89360E-03-2.59164E-01 2.66537E-14-1.61460E-13
 -1      2844 2.01494E+01 1.00538E-01-3.89862E-04-2.26051E-01 5.20890E-14-1.88573E-13
 -1      2845 2.01051E+01 1.20563E-01-4.18875E-04-2.29862E-01-9.12651E-14-1.53688E-13
 -1      2846 2.02455E+01 1.42824E-01 2.26250E-03-3.39775E-01-2.23488E-14-1.58080E-13
 -1      2847 2.02011E+01 1.27267E-01-4.92511E-04-2.98542E-01-4.81950E-14-1.60452E-13
 -1      2848 2.01384E+01 1.53118E-01-4.42710E-04-3.03189E-01-3.08339E-14-1.91520E-13
 -1      2849 2.03202E+01 1.74361E-01 2.63199E-03-4.38248E-01-2.93003E-14-1.64148E-13
 -1      2850 2.02652E+01 1.57383E-01-6.12771E-04-3.88148E-01 1.95739E-15-1.48251E-13
 -1      2851 2.01783E+01 1.89972E-01-4.39623E-04-3.93948E-01-4.91534E-15-1.74201E-13
 -1      2852 2.04105E+01 2.06775E-01 2.95850E-03-5.55411E-01-3.88939E-14-1.10983E-13
 -1      2853 2.03434E+01 1.89601E-01-7.35446E-04-4.96241E-01-7.05341E-14-1.41184E-13
 -1      2854 2.02255E+01 2.29773E-01-4.05974E-04-5.03643E-01-7.17917E-14-1.07733E-13
 -1      2855 2.05180E+01 2.35910E-01 3.17242E-03-6.90386E-01 3.44208E-14 1.38242E-14
 -1      2856 2.04376E+01 2.21014E-01-8.25113E-04-6.23000E-01 6.10764E-14-2.84988E-14
 -1      2857 2.02806E+01 2.69368E-01-3.52039E-04-6.32771E-01-1.65097E-16-2.78775E-17
 -1      2858 2.06447E+01 2.54016E-01 3.16878E-03-8.39244E-01 2.14143E-14-5.04555E-14
 -1      2859 2.05500E+01 2.45947E-01-8.09230E-04-7.66371E-01 2.81940E-14-2.38625E-15
 -1      2860 2.03444E+01 3.02561E-01-3.20552E-04-7.79983E-01 1.36842E-14-4.90622E-14
 -1      2861 2.07937E+01 2.47617E-01 2.79626E-03-9.92961E-01 1.01359E-14-6.96818E-14
 -1      2862 2.06838E+01 2.54196E-01-5.51646E-04-9.20455E-01-2.29559E-14-5.75035E-14
 -1      2863 2.04193E+01 3.18165E-01-4.19279E-04-9.40845E-01 3.58673E-14-2.49098E-13
 -1      2864 2.09714E+01 1.94660E-01 1.84288E-03-1.13442E+00 1.60441E-13-1.43408E-13
 -1      2865 2.08452E+01 2.28522E-01 1.84127E-04-1.07306E+00 9.39619E-14-1.05515E-13
 -1      2866 2.05106E+01 2.97223E-01-8.71886E-04-1.10602E+00 6.01280E-14-3.68800E-13
 -1      2867 2.11906E+01 6.16242E-02 1.31289E-05-1.23423E+00 2.54878E-13-3.33112E-13
 -1      2868 2.10458E+01 1.41653E-01 1.77500E-03-1.20210E+00 2.60048E-13-2.58751E-13
 -1      2869 2.06308E+01 2.09513E-01-2.08352E-03-1.25861E+00 2.91380E-13-3.66531E-13
 -1      2870 2.14756E+01-1.97168E-01-3.12733E-03-1.24532E+00 1.58766E-13-3.09238E-13
 -1      2871 2.13079E+01-4.59511E-02 4.75781E-03-1.27053E+00 2.46630E-13-2.93976E-13
 -1      2872 2.08053E+01 1.04276E-02-4.68905E-03-1.37027E+00 2.86984E-13-4.08972E-13
 -1      2873 2.18663E+01-6.32145E-01-8.16537E-03-1.09683E+00 1.27302E-13-1.27220E-13
 -1      2874 2.16694E+01-3.83876E-01 9.72336E-03-1.21958E+00 1.56848E-13-2.18399E-13
 -1      2875 2.10804E+01-3.58358E-01-9.48461E-03-1.39525E+00 9.63115E-14-3.17947E-13
 -1      2876 2.24137E+01-1.27083E+00-1.58188E-02-6.89889E-01 3.18994E-14-1.01126E-13
 -1      2877 2.21853E+01-9.16399E-01 1.70482E-02-9.61033E-01 1.15236E-13-2.01341E-14
 -1      2878 2.15308E+01-9.56193E-01-1.69300E-02-1.26115E+00 6.13541E-14 2.54308E-14
 -1      2879 2.31551E+01-2.04668E+00-2.51994E-02 9.67294E-02-2.77487E-13-6.06368E-14
 -1      2880 2.29114E+01-1.63796E+00 2.55052E-02-3.72573E-01-1.75661E-13 5.05585E-14
 -1      2881 2.22572E+01-1.80166E+00-2.59415E-02-8.56042E-01-9.55588E-14 2.21885E-13
 -1      2882 2.40508E+01-2.68812E+00-3.15824E-02 1.35343E+00-1.62304E-13-7.92504E-14
 -1      2883 2.38442E+01-2.39657E+00 2.97653E-02 6.76041E-01-2.37255E-13-1.08566E-13
 -1      2884 2.33450E+01-2.76713E+00-3.10107E-02-2.19661E-02-1.67866E-13 2.04863E-13
 -1      2885 2.49050E+01-2.60935E+00-1.86981E-02 3.01031E+00-1.96105E-13-4.11563E-16
 -1      2886 2.48176E+01-2.79448E+00 1.14049E-02 2.22536E+00-1.99642E-13-1.28710E-13
 -1      2887 2.47409E+01-3.43310E+00-2.98001E-02 1.38924E+00-1.65123E-13 1.40217E-14
 -1      2888 2.52215E+01-1.11435E+00-6.83944E-03 4.53072E+00-8.17055E-15-2.05976E-13
 -1      2889 2.53852E+01-2.08998E+00-4.29281E-02 3.98734E+00-3.92516E-14-1.72785E-13
 -1      2890 2.61495E+01-2.98073E+00 7.46072E-03 3.27791E+00-3.21349E-14-1.48033E-13
 -1      2891 2.46303E+01 1.75834E+00-1.92922E-02 4.86161E+00 1.69302E-13-1.94481E-13
 -1      2892 2.51569E+01 1.98774E-01-1.06110E-01 5.05150E+00-3.53849E-14-1.97219E-13
 -1      2893 2.68457E+01-7.32275E-01-2.35054E-02 4.92711E+00 1.49186E-15-3.20091E-13
 -1      2894 2.46969E+01 5.17684E+00-9.28157E-02 3.29489E+00 3.87648E-13-8.94146E-14
 -1      2895 2.52264E+01 3.92193E+00-1.38044E-01 4.38348E+00 2.86937E-13-1.74315E-13
 -1      2896 2.31914E+01 3.71926E+00-3.85071E-02-1.56934E+00 2.53325E-13 2.17895E-13
 -1      2897 3.17518E+01 1.63057E+00-9.76107E-03 1.55619E+00 3.40838E-13 1.04361E-13
 -1      2898 3.14418E+01 1.19160E+00-1.46631E-01 4.90231E+00 1.31034E-13-4.67640E-13
 -1      2899 3.15068E+01 3.75134E+00-2.31632E-01 5.11763E+00-1.12965E-14-4.71692E-13
 -1      2900 2.94149E+01 4.62223E+00-9.29663E-02 5.01736E+00 1.36696E-13-5.24664E-13
 -1      2901 2.14341E+01-2.79049E+00 2.31712E-01 1.41258E+01 2.73115E-14 5.81177E-13
 -1      2902 2.03389E+01 1.50044E+00-1.89815E-03 1.26613E+00 2.73153E-13-1.35885E-13
 -1      2903 2.24643E+01 4.13741E+00-7.77272E-02 1.59520E+00 8.16083E-14 4.48773E-15
 -1      2904 2.42784E+01 4.70052E+00-6.70201E-02 1.06485E+00 1.62426E-13-8.29857E-14
 -1      2905 3.35956E+01 2.32919E+00-1.71752E-02-3.63132E+00 1.33879E-13 8.90399E-14
 -1      2906 1.99624E+01 2.31422E-01-7.78902E-04 6.13615E-02 1.72598E-13-1.51739E-13
 -1      2907 2.00278E+01 3.15288E-01 7.81349E-03 1.59192E-01 1.97902E-13-1.38032E-13
 -1      2908 2.00569E+01 2.66095E-01-2.73282E-03 5.91749E-02 1.62162E-13-1.81489E-13
 -1      2909 3.09129E+01 8.83707E+00-2.22721E-01 2.68676E+00 4.31433E-13-1.58037E-13
 -1      2910 3.11962E+01 8.92818E+00-2.08742E-01 1.46558E+00 4.06231E-13 9.96356E-14
 -1      2911 2.00712E+01 4.15724E-01-1.54050E-03 2.86727E-01 2.14824E-13-1.31960E-13
 -1      2912 2.01723E+01 5.53968E-01 1.04312E-02 4.49486E-01 2.31026E-13-1.30162E-13
 -1      2913 2.02542E+01 8.21785E-01 6.13907E-04 6.16165E-01 2.50302E-13-1.84261E-13
 -1      2914 2.01465E+01 4.77212E-01-2.18670E-03 2.79233E-01 2.15401E-13-1.75489E-13
 -1      2915 3.18078E+01 4.08270E+00-2.13980E-01 5.42751E-01 3.03924E-13 2.81941E-13
 -1      2916 3.04632E+01 9.47182E+00-2.33815E-01-2.68612E+00 3.16025E-13 2.85355E-13
 -1      2917 3.13864E+01 8.60763E+00-1.88164E-01-3.78040E+00 3.93019E-13 1.32741E-13
 -1      2918 3.03949E+01 6.07150E+00-1.53938E-01-2.29918E-01 3.37480E-13 1.73001E-13
 -1      2919 2.87877E+01 3.87760E+00-1.80530E-01-3.41070E-01 2.64871E-13 1.33782E-13
 -1      2920 2.62614E+01 3.91323E+00-2.76846E-01-1.44655E+00 5.85920E-14 1.36349E-13
 -1      2921 2.01800E+01 2.27272E+00 5.31957E-05-1.42229E+00-2.30309E-13-2.46753E-13
 -1      2922 3.01763E+01 8.22096E+00-2.01258E-01-4.74885E-01 2.55351E-13 1.20515E-13
 -1      2923 2.97114E+01 9.13490E+00-2.53868E-01-1.37399E+00 3.27960E-13 3.36519E-13
 -1      2924 1.99225E+01 2.59644E+00-7.87988E-03 7.93848E-01 2.13941E-13-3.36910E-13
 -1      2925 1.98785E+01 2.68863E+00-6.12286E-03 6.44944E-01 1.67471E-13-3.67883E-13
 -1      2926 1.99970E+01 2.38905E+00 4.34113E-03 5.16271E-01 1.48182E-13-3.55687E-13
 -1      2927 2.00788E+01 2.19119E+00 5.60293E-03 7.45032E-01 1.92477E-13-3.17950E-13
 -1      2928 1.98737E+01 2.69682E+00-6.14248E-03-6.34735E-01-8.17076E-14-3.67422E-13
 -1      2929 1.99165E+01 2.60787E+00-7.59290E-03-7.84591E-01-1.14812E-13-3.47515E-13
 -1      2930 1.10896E+01-4.82172E+00 1.59310E-01-5.66834E+00 2.51452E-13-5.54140E-13
 -1      2931 1.41923E+01-5.98154E+00 7.93470E-02-6.35596E+00 8.54039E-14-4.60632E-13
 -1      2932 1.17557E+01-4.86306E+00 8.80403E-02 6.32329E+00 1.37640E-13 3.44530E-13
 -1      2933 8.70036E+00-3.74326E+00 1.66208E-01 4.88662E+00 1.76456E-13 2.15050E-13
 -1      2934 1.87170E+01-6.93042E+00-2.87404E-02 6.46287E+00-3.10862E-14-3.32831E-13
 -1      2935 1.52368E+01-6.01467E+00 1.63571E-01 6.60574E+00 9.45355E-14-3.83860E-14
 -1      2936 2.61549E+01-6.98835E+00-7.47425E-02 3.09288E+00-1.94289E-13-9.15240E-14
 -1      2937 2.27945E+01-7.19306E+00 1.47422E-01 5.05940E+00-2.10817E-13-9.49293E-14
 -1      2938 3.12992E+01-3.49460E+00-1.33503E-01-1.49172E+00 5.71106E-14-3.60489E-13
 -1      2939 2.92481E+01-5.36925E+00 2.91579E-03 2.74307E-01 4.08007E-15-2.72518E-13
 -1      2940 3.25333E+01 1.58488E+00-2.26574E-01-3.97714E+00 1.00503E-13-2.64289E-13
 -1      2941 3.20469E+01-8.21475E-01-6.56229E-02-3.07638E+00 5.04874E-14-4.11615E-13
 -1      2942 3.19508E+01 6.65771E+00-2.52978E-01-4.40276E+00 9.66449E-14 2.36200E-14
 -1      2943 3.23454E+01 4.45482E+00-1.35389E-01-4.53941E+00-3.05034E-14-1.44829E-13
 -1      2944 1.74658E+01-6.75670E+00 1.51763E-01-6.10319E+00-1.27204E-13-2.12358E-13
 -1      2945 2.09030E+01-7.36172E+00 1.08715E-02-5.40200E+00-7.30249E-14 3.20168E-13
 -1      2946 1.68715E+01-5.75747E+00 1.58901E-01-5.72228E+00-5.52614E-14-8.10740E-14
 -1      2947 7.11917E+00-2.87069E+00 1.88681E-01 3.46447E+00 1.85130E-13 1.11966E-13
 -1      2948 6.53281E+00-2.19772E+00 1.78830E-01 1.25604E+00 3.16271E-13-2.61569E-13
 -1      2949 1.00474E+01-2.56725E+00 1.75865E-01 3.99920E+00 6.81191E-14 7.05824E-14
 -1      2950 3.02338E+01 7.64433E+00-2.09054E-01 3.46803E-01 3.88106E-13 2.35464E-13
 -1      2951 1.99719E+01 2.48589E+00-6.47622E-03-9.00493E-01-1.41079E-13-3.36075E-13
 -1      2952 2.00270E+01 2.34296E+00-1.32225E-02-1.04073E+00-1.77110E-13-3.15702E-13
 -1      2953 2.00691E+01 2.20192E+00 3.76050E-03-7.35602E-01-1.21263E-13-3.09815E-13
 -1      2954 1.99312E+01 2.53921E+00 3.41773E-03 4.63068E-03 4.34428E-14-3.53089E-13
 -1      2955 1.97923E+01 2.87065E+00-5.48396E-03-6.18258E-02 1.67686E-14-3.96597E-13
 -1      2956 1.97999E+01 2.85598E+00-5.54164E-03-2.16422E-01-7.45398E-15-3.96890E-13
 -1      2957 2.86956E+01 7.61165E+00-1.26759E-01 3.20144E+00 3.48332E-13-3.95482E-13
 -1      2958 2.81508E+01 7.39424E+00-5.70412E-02 2.51151E-01 4.53415E-13-4.35485E-14
 -1      2959 3.04084E+01-2.10408E+00-5.83701E-02 3.88537E+00 1.35406E-13-1.89918E-13
 -1      2960 3.12641E+01-6.30830E-01-1.38992E-01 4.60956E+00 1.71932E-13-3.45043E-13
 -1      2961 2.98176E+01 1.04965E+00-1.13748E-01 5.31466E+00-5.64826E-15-3.82930E-13
 -1      2962 2.28396E+01 5.14414E+00-1.40118E-01 1.49347E-01 5.38042E-13 9.43299E-14
 -1      2963 2.30768E+01 5.30812E+00-8.30175E-02 1.63940E+00 5.49505E-13 7.42757E-14
 -1      2964 2.95287E+01 6.95125E+00-1.41317E-01-4.10979E+00 8.94007E-14 1.39541E-14
 -1      2965 3.07156E+01 2.66642E+00-9.72115E-02-4.63255E+00 1.15880E-14-1.43427E-13
 -1      2966 2.78914E+01-6.29813E+00 2.33652E-02 1.35200E+00-1.16240E-13-2.14849E-13
 -1      2967 2.58808E+01-6.47273E+00 8.59813E-03 2.30852E+00-1.58512E-13-8.00297E-14
 -1      2968 2.84748E+01-5.13231E+00-6.89421E-03-4.83651E-01-5.95054E-14-1.63751E-13
 -1      2969 2.13574E+01-6.56024E+00 1.21263E-01 5.14821E+00-1.31645E-13-3.02338E-13
 -1      2970 2.01400E+01 2.12910E+00 8.74942E-04-1.13951E+00-1.90111E-13-2.78856E-13
 -1      2971 2.02927E+01 1.68171E+00-1.06498E-02-1.24749E+00-2.42150E-13-1.91537E-13
 -1      2972 2.02880E+01 1.30325E+00-1.29110E-03-9.75005E-01-2.36204E-13-1.69868E-13
 -1      2973 2.01944E+01 1.85383E+00 5.06549E-03-9.26374E-01-1.71594E-13-2.70461E-13
 -1      2974 2.02910E+01 1.58814E+00-1.13466E-03 1.16499E+00 2.64734E-13-2.03947E-13
 -1      2975 2.61855E+01 5.71516E+00-1.66438E-01 7.71395E-01 1.28425E-13 1.12861E-13
 -1      2976 2.90902E+01 5.43284E+00-1.08477E-01-3.96687E-01 4.91274E-15 1.88322E-13
 -1      2977 2.34977E+01-7.35644E+00 1.22573E-01-4.27258E+00 6.40876E-14 4.42123E-13
 -1      2978 2.51573E+01-7.37607E+00-1.42391E-01-2.79651E+00-2.50633E-14 3.55429E-13
 -1      2979 2.18129E+01-6.70527E+00 9.77824E-02-4.54559E+00-3.13083E-14 3.27533E-13
 -1      2980 2.54811E+01 6.77347E+00-1.40510E-01 2.65547E-01 2.07168E-13 1.53391E-13
 -1      2981 1.46992E+01-4.72443E+00 1.63271E-01 5.94079E+00-5.68712E-14 5.31519E-15
 -1      2982 7.27710E+00-1.77838E+00 2.29192E-01-2.33514E-03 4.07410E-13-6.01408E-13
 -1      2983 8.47115E+00-1.57267E+00 1.37878E-01-1.18732E+00 4.60411E-13-6.68909E-13
 -1      2984 8.78851E+00-1.32145E+00 1.20623E-01 1.27806E+00 1.87716E-13-4.58314E-13
 -1      2985 2.08846E+01 3.73269E+00-3.72685E-02 1.22675E+00 8.66841E-14 4.54463E-14
 -1      2986 2.19238E+01 4.20227E+00-1.80950E-02 1.22895E+00 9.60378E-14-5.44426E-14
 -1      2987 1.98156E+01 2.82041E+00-5.70022E-03-3.51429E-01-2.28083E-14-3.63615E-13
 -1      2988 1.98398E+01 2.77212E+00-6.18826E-03-5.05006E-01-6.10286E-14-3.66084E-13
 -1      2989 1.99922E+01 2.39570E+00 3.83368E-03-5.06428E-01-7.77286E-14-3.31977E-13
 -1      2990 1.99459E+01 2.50515E+00 3.59091E-03-2.55389E-01-1.54467E-14-3.65964E-13
 -1      2991 2.02807E+01 1.36684E+00 2.30777E-03 9.18929E-01 2.46408E-13-2.12060E-13
 -1      2992 2.96142E+01-5.80976E+00 2.21590E-02 3.19277E-01 1.29730E-13 3.18551E-13
 -1      2993 2.02788E+01 1.37862E+00 5.62179E-03-8.82970E-01-2.08910E-13-1.91887E-13
 -1      2994 1.02702E+01-3.63974E+00 1.73773E-01-4.72380E+00 2.25986E-13-6.45567E-13
 -1      2995 1.25890E+01-3.71467E+00 4.14526E-02-4.91559E+00 1.60545E-13-4.81337E-13
 -1      2996 9.79642E+00-2.26584E+00 1.36447E-01-3.47167E+00 3.13999E-13-6.19393E-13
 -1      2997 3.06135E+01-2.18386E+00-4.37404E-02-2.92946E+00 6.81295E-14-3.93824E-13
 -1      2998 2.02396E+01 1.47569E+00-7.99234E-03 8.00088E-01 2.26723E-13-2.22657E-13
 -1      2999 2.01997E+01 1.67022E+00-4.75209E-04 7.45290E-01 1.99726E-13-2.51942E-13
 -1      3000 2.00082E+01 2.45364E-03-1.28565E-04-1.75408E-01 1.50437E-14-1.63290E-13
 -1      3001 2.00187E+01 2.81089E-02 1.58687E-03-1.64069E-01 4.50358E-14-1.69358E-13
 -1      3002 2.02721E+01 7.13779E-01 5.10338E-03-3.45688E-01-1.68030E-13-1.81470E-13
 -1      3003 2.02259E+01 5.51462E-01-3.72156E-03-2.14553E-01-1.63433E-13-1.93167E-13
 -1      3004 2.02211E+01 4.23522E-01 4.25342E-03-1.18816E-01-1.51636E-13-1.64608E-13
 -1      3005 2.01814E+01 3.15235E-01-2.32206E-03-3.41122E-02-1.39356E-13-1.66685E-13
 -1      3006 2.02712E+01 5.81194E-01-9.93657E-05-1.87726E-01-1.45986E-13-1.71418E-13
 -1      3007 2.01671E+01 2.31562E-01 3.16092E-03 2.71645E-02-1.30946E-13-1.40562E-13
 -1      3008 2.01367E+01 1.60906E-01-1.31317E-03 7.80313E-02-1.33499E-13-1.51923E-13
 -1      3009 2.02369E+01 3.31719E-01-8.48904E-04-2.53010E-02-1.25753E-13-1.28370E-13
 -1      3010 2.01199E+01 1.06758E-01 2.24064E-03 1.13808E-01-1.19170E-13-1.19472E-13
 -1      3011 2.00986E+01 6.14148E-02-6.37757E-04 1.40854E-01-8.25169E-14-1.11849E-13
 -1      3012 2.01959E+01 1.67185E-01-1.01027E-03 7.71938E-02-9.95469E-14-9.92521E-14
 -1      3013 2.00822E+01 2.72427E-02 1.47156E-03 1.58361E-01-6.75864E-14-1.07184E-13
 -1      3014 2.00684E+01-7.66509E-04-2.07012E-04 1.69380E-01-4.56053E-14-8.57907E-14
 -1      3015 2.01567E+01 6.03882E-02-9.63737E-04 1.34812E-01-6.63439E-14-5.61669E-14
 -1      3016 2.00539E+01-2.13101E-02 8.89806E-04 1.74577E-01-1.55260E-14-4.84845E-14
 -1      3017 2.00457E+01-3.74678E-02 5.52590E-05 1.75310E-01 1.51663E-14-4.06113E-14
 -1      3018 2.01224E+01-6.37577E-03-8.36500E-04 1.60858E-01-8.16347E-16-2.85310E-14
 -1      3019 2.00333E+01-4.87382E-02 4.73682E-04 1.72711E-01 2.35966E-14-1.74727E-14
 -1      3020 2.00292E+01-5.68671E-02 2.05854E-04 1.67263E-01 8.07258E-14 9.89898E-15
 -1      3021 2.00938E+01-4.55476E-02-6.90708E-04 1.65958E-01 4.40096E-14-1.80329E-14
 -1      3022 2.00190E+01-6.19021E-02 1.89467E-04 1.60145E-01 6.60580E-14-7.65256E-15
 -1      3023 2.00176E+01-6.46871E-02 2.84044E-04 1.51388E-01 2.80650E-14-3.77979E-14
 -1      3024 2.00708E+01-6.59003E-02-5.53643E-04 1.58073E-01 4.64905E-14 5.03347E-14
 -1      3025 2.00094E+01-6.56151E-02 4.27060E-06 1.42055E-01-4.35601E-15-5.75908E-14
 -1      3026 2.00097E+01-6.49338E-02 3.16947E-04 1.31949E-01-2.38043E-14-6.03025E-14
 -1      3027 2.00527E+01-7.36384E-02-4.35344E-04 1.42940E-01-3.75130E-15-4.38179E-14
 -1      3028 2.00034E+01-6.32314E-02-1.10017E-04 1.21976E-01-5.74774E-14-4.64141E-14
 -1      3029 2.00047E+01-6.03715E-02 3.23422E-04 1.11831E-01-6.73244E-14-5.47270E-14
 -1      3030 2.00388E+01-7.31231E-02-3.37852E-04 1.24567E-01-3.02639E-14-7.88851E-14
 -1      3031 1.99999E+01-5.70355E-02-1.75997E-04 1.02262E-01-7.67453E-14-5.55877E-14
 -1      3032 2.00019E+01-5.28456E-02 3.16836E-04 9.29361E-02-6.12215E-14-6.62341E-14
 -1      3033 2.00285E+01-6.73605E-02-2.59897E-04 1.05678E-01-5.92283E-14-1.64470E-13
 -1      3034 1.99983E+01-4.85130E-02-2.11221E-04 8.44529E-02-8.19326E-14-1.02558E-13
 -1      3035 2.00007E+01-4.35107E-02 3.06792E-04 7.65023E-02-1.34110E-13-8.90307E-14
 -1      3036 2.00209E+01-5.83438E-02-1.98932E-04 8.80843E-02-1.09897E-13-1.22412E-13
 -1      3037 1.99981E+01-3.85467E-02-2.29107E-04 6.95538E-02-1.79805E-13-7.28794E-14
 -1      3038 2.00007E+01-3.29983E-02 3.00291E-04 6.33522E-02-1.74730E-13-3.58374E-14
 -1      3039 2.00156E+01-4.73015E-02-1.52016E-04 7.29811E-02-1.37117E-13-1.25526E-13
 -1      3040 1.99988E+01-2.75613E-02-2.39883E-04 5.82529E-02-1.64036E-13 1.61637E-14
 -1      3041 2.00017E+01-2.15420E-02 3.02532E-04 5.40805E-02-1.04369E-13 4.84420E-14
 -1      3042 2.00121E+01-3.48810E-02-1.16171E-04 6.11811E-02-1.44168E-13-4.40690E-14
 -1      3043 2.00004E+01-1.56323E-02-2.51424E-04 5.10879E-02-6.72424E-14 2.40182E-14
 -1      3044 2.00034E+01-9.07104E-03 3.17457E-04 4.91998E-02-2.04342E-15-1.52588E-14
 -1      3045 2.00100E+01-2.12871E-02-8.84900E-05 5.32940E-02-7.29956E-14-1.15714E-14
 -1      3046 2.00024E+01-2.56888E-03-2.69904E-04 4.85730E-02 2.11380E-14 7.96951E-15
 -1      3047 2.00059E+01 4.71583E-03 3.48104E-04 4.92499E-02-7.77327E-15 1.34770E-14
 -1      3048 2.00087E+01-6.38746E-03-6.61376E-05 4.98643E-02 1.48500E-14 2.17996E-15
 -1      3049 2.00050E+01 1.20199E-02-3.00284E-04 5.12932E-02-5.14963E-14 6.16968E-14
 -1      3050 2.00089E+01 2.02901E-02 3.96782E-04 5.48786E-02 3.35946E-14 5.64669E-15
 -1      3051 2.00080E+01 1.02044E-02-4.62930E-05 5.14749E-02 2.29441E-14 5.27432E-14
 -1      3052 2.00079E+01 2.86676E-02-3.46590E-04 5.99732E-02 7.40972E-14-2.63609E-14
 -1      3053 2.00124E+01 3.82366E-02 4.65096E-04 6.68985E-02 8.80041E-14-1.02976E-13
 -1      3054 2.00075E+01 2.90587E-02-2.60951E-05 5.88232E-02 8.23425E-16 9.23301E-14
 -1      3055 2.00111E+01 4.79916E-02-4.11997E-04 7.55218E-02 8.33557E-14-1.21396E-13
 -1      3056 2.00164E+01 5.91907E-02 5.53809E-04 8.63181E-02 3.70273E-14-1.49762E-13
 -1      3057 2.00067E+01 5.08601E-02-2.61695E-06 7.27721E-02 5.78388E-14-1.22275E-14
 -1      3058 2.00145E+01 7.06234E-02-4.98662E-04 9.90516E-02-3.39726E-14-5.67839E-14
 -1      3059 2.00208E+01 8.37573E-02 6.62559E-04 1.14346E-01-5.33718E-14 1.71619E-14
 -1      3060 2.00053E+01 7.63300E-02 2.70727E-05 9.43773E-02 7.94857E-14-6.05762E-14
 -1      3061 2.00179E+01 9.71134E-02-6.07246E-04 1.31868E-01-7.19432E-14 1.03997E-13
 -1      3062 2.00256E+01 1.12397E-01 7.89479E-04 1.52363E-01-7.99359E-14 1.10297E-13
 -1      3063 2.00026E+01 1.06123E-01 6.56787E-05 1.24886E-01-1.89736E-14 7.60252E-14
 -1      3064 2.00214E+01 1.27793E-01-7.36026E-04 1.75421E-01-1.29899E-14 7.02742E-14
 -1      3065 2.00306E+01 1.45257E-01 9.30763E-04 2.01844E-01 5.15911E-14 5.31940E-14
 -1      3066 1.99981E+01 1.40681E-01 1.15138E-04 1.65705E-01-4.92641E-14 1.84456E-13
 -1      3067 2.00247E+01 1.62572E-01-8.79442E-04 2.31211E-01 8.90512E-14-3.97363E-15
 -1      3068 2.00356E+01 1.81928E-01 1.08037E-03 2.64230E-01 1.28522E-13 1.60529E-13
 -1      3069 1.99911E+01 1.80021E-01 1.75537E-04 2.18325E-01 8.90461E-14 1.96639E-13
 -1      3070 2.00279E+01 2.00641E-01-1.02585E-03 3.00618E-01 1.09044E-13 3.98479E-14
 -1      3071 2.00409E+01 2.21077E-01 1.23008E-03 3.40718E-01 7.86644E-14 1.06707E-13
 -1      3072 1.99810E+01 2.23429E-01 2.43110E-04 2.84195E-01 9.84960E-14 6.48382E-14
 -1      3073 2.00311E+01 2.40034E-01-1.15419E-03 3.84664E-01-4.56950E-14 1.44683E-13
 -1      3074 2.00465E+01 2.59930E-01 1.37041E-03 4.31953E-01-9.43614E-14 1.00508E-13
 -1      3075 1.99673E+01 2.69011E-01 3.06743E-04 3.64534E-01 2.26812E-14-3.69190E-14
 -1      3076 2.00350E+01 2.77013E-01-1.22899E-03 4.83660E-01-1.59176E-13 6.64135E-14
 -1      3077 2.00537E+01 2.93542E-01 1.49268E-03 5.37603E-01-5.91467E-14-2.30914E-14
 -1      3078 1.99498E+01 3.13067E-01 3.42099E-04 4.60075E-01-1.32270E-13 2.89526E-14
 -1      3079 2.00414E+01 3.05215E-01-1.19309E-03 5.96731E-01-8.59095E-14-9.60447E-14
 -1      3080 2.00648E+01 3.13801E-01 1.59260E-03 6.55798E-01-1.35125E-13-7.62280E-14
 -1      3081 1.99296E+01 3.49221E-01 3.02169E-04 5.70736E-01-1.37324E-13 7.83188E-15
 -1      3082 2.00541E+01 3.14515E-01-9.56908E-04 7.21196E-01-1.41641E-13-8.82998E-14
 -1      3083 2.00846E+01 3.08154E-01 1.67414E-03 7.82398E-01-9.12020E-14-1.64246E-13
 -1      3084 1.99095E+01 3.67264E-01 1.02705E-04 6.95216E-01-1.31392E-13-1.09810E-13
 -1      3085 2.00805E+01 2.89632E-01-3.82628E-04 8.51756E-01 8.39770E-14-1.77268E-13
 -1      3086 2.01227E+01 2.58122E-01 1.74917E-03 9.10037E-01-3.87263E-14-3.00364E-14
 -1      3087 1.98954E+01 3.51703E-01-3.98928E-04 8.30512E-01-1.38580E-14-1.66589E-13
 -1      3088 2.01339E+01 2.08655E-01 7.37914E-04 9.79374E-01-6.55965E-14 9.31124E-14
 -1      3089 2.01955E+01 1.37935E-01 1.82176E-03 1.02681E+00 4.80883E-14 7.70453E-14
 -1      3090 1.98994E+01 2.80104E-01-1.43169E-03 9.71280E-01 6.58662E-14-3.82775E-14
 -1      3091 2.02370E+01 4.20293E-02 2.71233E-03 1.08961E+00-3.26108E-14 9.07611E-14
 -1      3092 2.03306E+01-8.58482E-02 1.82903E-03 1.11430E+00-8.94280E-14-7.63651E-14
 -1      3093 1.99426E+01 1.21628E-01-3.34062E-03 1.10879E+00 2.46244E-14-2.21842E-14
 -1      3094 2.04263E+01-2.46653E-01 5.96815E-03 1.15979E+00-4.38761E-14-2.01505E-14
 -1      3095 2.05700E+01-4.51752E-01 1.52392E-03 1.14412E+00 6.55887E-14 5.00340E-14
 -1      3096 2.00600E+01-1.63232E-01-6.60479E-03 1.22881E+00-7.67993E-14 5.47240E-14
 -1      3097 2.07564E+01-6.95221E-01 1.10866E-02 1.15387E+00 4.37263E-14 1.55503E-14
 -1      3098 2.09724E+01-9.93911E-01 1.58118E-04 1.07200E+00-5.26341E-14-7.95820E-14
 -1      3099 2.03071E+01-6.19448E-01-1.17692E-02 1.30701E+00 1.03082E-14 6.04200E-14
 -1      3100 2.13002E+01-1.32710E+00 1.85767E-02 1.01221E+00 3.82500E-14-2.62420E-15
 -1      3101 2.16073E+01-1.71587E+00-3.64630E-03 8.27149E-01 1.24779E-13 8.59069E-14
 -1      3102 2.07648E+01-1.28628E+00-1.91489E-02 1.29892E+00 1.06698E-13 9.53456E-14
 -1      3103 2.21306E+01-2.11104E+00 2.73946E-02 6.38414E-01 1.65583E-13 1.27251E-13
 -1      3104 2.25263E+01-2.53515E+00-1.16864E-02 3.04340E-01 2.14199E-13 1.42105E-13
 -1      3105 2.15374E+01-2.16084E+00-2.78160E-02 1.11577E+00 2.20229E-13 1.87337E-13
 -1      3106 2.32741E+01-2.88812E+00 3.51927E-02-1.02126E-01 2.01128E-13 1.89842E-13
 -1      3107 2.37174E+01-3.17437E+00-1.47671E-02-6.20907E-01 2.16240E-13 1.46927E-13
 -1      3108 2.27048E+01-3.13672E+00-4.19690E-02 6.08742E-01 2.69054E-13 3.06745E-13
 -1      3109 2.46166E+01-3.30272E+00 2.32642E-02-1.32141E+00 1.84522E-13 1.33504E-13
 -1      3110 2.49975E+01-3.12878E+00-1.69234E-02-2.02734E+00 1.32098E-13 1.41603E-13
 -1      3111 2.43356E+01-3.75114E+00-1.53343E-02-4.43809E-01 1.74794E-13 1.79651E-13
 -1      3112 2.57431E+01-2.58570E+00-1.13720E-02-2.94485E+00 2.63791E-14 5.96133E-14
 -1      3113 2.59026E+01-1.59019E+00-1.13572E-02-3.60941E+00 2.41664E-14 8.07462E-14
 -1      3114 2.60498E+01-3.47557E+00 7.20790E-03-2.03790E+00 1.28263E-13 2.49419E-14
 -1      3115 2.50890E+01 3.45765E+00-1.38571E-01-4.29928E+00 2.95097E-13-1.57286E-13
 -1      3116 2.46514E+01 5.09636E+00-5.12605E-02-3.60882E+00 1.43524E-13-1.18008E-13
 -1      3117 2.43811E+01 6.29847E+00-1.18517E-01-2.46165E+00 2.87409E-14-5.27191E-14
 -1      3118 2.39727E+01 6.58828E+00-1.14473E-01-1.21959E+00 1.72334E-13-9.54666E-14
 -1      3119 2.00344E+01 5.92385E-02-5.13378E-04-1.44911E-01 6.75247E-14-1.54443E-13
 -1      3120 2.00544E+01 1.00909E-01 2.50982E-03-1.16823E-01 9.19261E-14-1.71944E-13
 -1      3121 2.01025E+01 6.02496E-02-1.18410E-03-1.41024E-01 6.66344E-14-1.55993E-13
 -1      3122 2.00728E+01 1.50493E-01-1.14150E-03-7.78043E-02 1.10544E-13-1.88839E-13
 -1      3123 2.01054E+01 2.15938E-01 3.70815E-03-2.44074E-02 1.28572E-13-1.79269E-13
 -1      3124 2.01423E+01 1.60458E-01-1.37141E-03-7.78116E-02 1.02364E-13-2.00208E-13
 -1      3125 2.55802E+01 5.16770E+00-7.81747E-02-7.33630E-01 3.33220E-13 1.57374E-13
 -1      3126 1.99822E+01-4.90279E-02 2.15335E-04-1.73866E-01 5.68593E-14-1.20188E-13
 -1      3127 1.99820E+01-4.14763E-02 4.48433E-04-1.79538E-01 6.47587E-14-1.57660E-13
 -1      3128 1.99777E+01-5.65100E-02 2.73950E-04-1.57467E-01 5.35238E-14-4.74845E-14
 -1      3129 1.99750E+01-5.37890E-02 1.37491E-04-1.66544E-01 6.02903E-14-3.45304E-14
 -1      3130 2.00305E+01-5.81619E-02-5.49797E-04-1.67744E-01 2.14990E-14-1.01639E-13
 -1      3131 1.99767E+01-5.71788E-02 2.95200E-04-1.37266E-01-2.49051E-14-1.52240E-14
 -1      3132 1.99726E+01-5.75845E-02-5.88980E-05-1.47738E-01 2.37124E-14-6.12607E-14
 -1      3133 2.00185E+01-6.58240E-02-4.04507E-04-1.51844E-01 1.59012E-14-7.05291E-14
 -1      3134 1.99778E+01-5.35306E-02 2.95765E-04-1.16257E-01 1.94636E-15 9.23478E-15
 -1      3135 1.99731E+01-5.58946E-02-1.74388E-04-1.26792E-01-9.81440E-15 2.13844E-15
 -1      3136 2.00103E+01-6.58931E-02-2.93580E-04-1.32369E-01-2.65910E-14-8.50784E-14
 -1      3137 1.99802E+01-4.72375E-02 2.87281E-04-9.64030E-02 3.97115E-14-1.67108E-14
 -1      3138 1.99754E+01-5.07865E-02-2.35294E-04-1.06139E-01 5.61413E-14 2.03688E-14
 -1      3139 2.00052E+01-6.11490E-02-2.11632E-04-1.12219E-01 1.89437E-14-4.96778E-14
 -1      3140 1.99835E+01-3.93562E-02 2.78113E-04-7.89699E-02 3.56740E-14-5.02680E-14
 -1      3141 1.99787E+01-4.36131E-02-2.61479E-04-8.73531E-02 3.04948E-14-2.78947E-14
 -1      3142 2.00022E+01-5.34421E-02-1.53188E-04-9.33097E-02 3.86670E-14-7.62356E-14
 -1      3143 1.99873E+01-3.04778E-02 2.74492E-04-6.47810E-02 2.21832E-14-2.44342E-14
 -1      3144 1.99827E+01-3.51900E-02-2.67768E-04-7.14489E-02 3.45694E-14-5.22954E-14
 -1      3145 2.00009E+01-4.39252E-02-1.13333E-04-7.68915E-02 3.46328E-14-6.38934E-14
 -1      3146 1.99915E+01-2.08377E-02 2.81260E-04-5.44158E-02 7.12353E-15-2.90822E-14
 -1      3147 1.99870E+01-2.59246E-02-2.65210E-04-5.91041E-02 2.06737E-14-4.00443E-17
 -1      3148 2.00008E+01-3.32218E-02-8.78760E-05-6.37995E-02 2.35870E-14 4.55614E-14
 -1      3149 1.99962E+01-1.03958E-02 3.02380E-04-4.83609E-02-4.55784E-14-2.29047E-14
 -1      3150 1.99917E+01-1.59105E-02-2.62121E-04-5.08336E-02-7.81968E-15-2.92629E-14
 -1      3151 2.00017E+01-2.15500E-02-7.32638E-05-5.46439E-02-1.31424E-14-1.66998E-14
 -1      3152 2.00014E+01 1.10391E-03 3.41254E-04-4.71264E-02 8.95603E-14-5.22495E-14
 -1      3153 1.99967E+01-4.99676E-03-2.64926E-04-4.71217E-02 1.21063E-14 3.61305E-15
 -1      3154 2.00033E+01-8.81388E-03-6.64031E-05-4.99577E-02-1.47694E-14-4.84400E-14
 -1      3155 2.00075E+01 1.40889E-02 4.00903E-04-5.13359E-02 6.90129E-14 1.53623E-14
 -1      3156 2.00021E+01 7.16032E-03-2.78821E-04-4.85244E-02 7.26259E-14 3.13475E-14
 -1      3157 2.00056E+01 5.32897E-03-6.44286E-05-5.03094E-02 3.55012E-14 8.19414E-14
 -1      3158 2.00145E+01 2.91233E-02 4.83981E-04-6.17940E-02 2.92220E-14 7.57509E-14
 -1      3159 2.00083E+01 2.10582E-02-3.08275E-04-5.57471E-02 1.00992E-13 2.73382E-14
 -1      3160 2.00083E+01 2.14156E-02-6.44380E-05-5.63890E-02 5.97565E-14 1.26051E-13
 -1      3161 2.00228E+01 4.68752E-02 5.92644E-04-7.95348E-02-1.85305E-15 1.71338E-13
 -1      3162 2.00153E+01 3.73151E-02-3.57390E-04-6.97029E-02-5.45632E-14 9.88528E-14
 -1      3163 2.00114E+01 4.01353E-02-6.31953E-05-6.90710E-02-8.59714E-15 2.71997E-13
 -1      3164 2.00327E+01 6.80801E-02 7.28228E-04-1.05851E-01-9.61446E-14 2.08692E-13
 -1      3165 2.00235E+01 5.66364E-02-4.30111E-04-9.15510E-02 3.12259E-14 2.58199E-13
 -1      3166 2.00147E+01 6.22883E-02-5.68054E-05-8.94565E-02-7.52441E-15 2.47183E-13
 -1      3167 2.00444E+01 9.34901E-02 8.90747E-04-1.42296E-01-9.05674E-14 3.00388E-14
 -1      3168 2.00331E+01 7.97725E-02-5.30254E-04-1.22714E-01-8.72295E-14 1.38998E-13
 -1      3169 2.00180E+01 8.87365E-02-4.03806E-05-1.18893E-01-1.29080E-14 2.71978E-13
 -1      3170 2.00581E+01 1.23795E-01 1.07820E-03-1.90662E-01-1.31161E-13-6.64479E-14
 -1      3171 2.00443E+01 1.07457E-01-6.61294E-04-1.64869E-01-6.78314E-14-2.15417E-15
 -1      3172 2.00209E+01 1.20334E-01-7.76610E-06-1.58968E-01-3.39579E-14 3.28815E-14
 -1      3173 2.00739E+01 1.59494E-01 1.28576E-03-2.52902E-01-1.51787E-13-1.42525E-13
 -1      3174 2.00571E+01 1.40304E-01-8.25750E-04-2.19899E-01-1.68057E-13-1.02525E-13
 -1      3175 2.00229E+01 1.57819E-01 4.85249E-05-2.11467E-01-1.03593E-13-8.91285E-14
 -1      3176 2.00916E+01 2.00684E-01 1.50499E-03-3.31001E-01-6.50442E-14-1.30027E-13
 -1      3177 2.00714E+01 1.78650E-01-1.02392E-03-2.89803E-01-1.05779E-13-1.47450E-13
 -1      3178 2.00231E+01 2.01641E-01 1.36846E-04-2.78287E-01-1.41347E-13-1.13877E-13
 -1      3179 2.01109E+01 2.46710E-01 1.72364E-03-4.26751E-01-9.08702E-14-1.12563E-14
 -1      3180 2.00871E+01 2.22277E-01-1.25153E-03-3.76519E-01-2.29890E-14-2.33241E-14
 -1      3181 2.00204E+01 2.51678E-01 2.64810E-04-3.61295E-01-9.93083E-14 1.04268E-14
 -1      3182 2.01312E+01 2.95597E-01 1.92655E-03-5.41412E-01 1.06767E-14-3.16524E-14
 -1      3183 2.01035E+01 2.69969E-01-1.49551E-03-4.81669E-01-7.00175E-15-3.57141E-14
 -1      3184 2.00135E+01 3.06786E-01 4.35406E-04-4.62110E-01-3.59466E-14 1.34369E-13
 -1      3185 2.01520E+01 3.43126E-01 2.09935E-03-6.75221E-01-8.67465E-14-1.41171E-13
 -1      3186 2.01201E+01 3.18789E-01-1.72674E-03-6.06170E-01-3.74630E-14-1.95861E-13
 -1      3187 2.00007E+01 3.64067E-01 6.38914E-04-5.81810E-01 5.68373E-14-2.51597E-13
 -1      3188 2.01735E+01 3.81393E-01 2.23619E-03-8.26699E-01 6.74435E-14-1.82106E-13
 -1      3189 2.01370E+01 3.62923E-01-1.88784E-03-7.49686E-01 6.15664E-15-9.47531E-14
 -1      3190 1.99806E+01 4.17724E-01 8.37421E-04-7.20570E-01-3.82202E-14-3.13240E-13
 -1      3191 2.01981E+01 3.96614E-01 2.35222E-03-9.91723E-01 7.96555E-14-3.13560E-13
 -1      3192 2.01554E+01 3.91891E-01-1.87299E-03-9.09888E-01 8.83628E-14-1.99843E-13
 -1      3193 1.99530E+01 4.57296E-01 9.36989E-04-8.77244E-01 8.90787E-14-3.59742E-13
 -1      3194 2.02333E+01 3.66024E-01 2.49600E-03-1.16228E+00 1.77718E-13-4.68028E-13
 -1      3195 2.01802E+01 3.87922E-01-1.49582E-03-1.08146E+00 9.12261E-14-4.22170E-13
 -1      3196 1.99205E+01 4.65038E-01 7.40463E-04-1.04894E+00 1.46844E-13-3.51844E-13
 -1      3197 2.02966E+01 2.53986E-01 2.74418E-03-1.32473E+00 2.90937E-13-4.07200E-13
 -1      3198 2.02241E+01 3.22424E-01-4.39730E-04-1.25471E+00 2.37792E-13-4.32154E-13
 -1      3199 1.98927E+01 4.12309E-01-1.26716E-04-1.23059E+00 2.05195E-13-4.73957E-13
 -1      3200 2.04231E+01 8.35168E-03 3.13823E-03-1.45701E+00 2.54450E-13-3.02828E-13
 -1      3201 2.03140E+01 1.52041E-01 1.82057E-03-1.41341E+00 2.86816E-13-3.70280E-13
 -1      3202 1.98919E+01 2.55164E-01-2.31766E-03-1.41424E+00 2.16119E-13-5.19898E-13
 -1      3203 2.06765E+01-4.39709E-01 3.41561E-03-1.52351E+00-5.41003E-14-7.59974E-15
 -1      3204 2.05012E+01-1.83751E-01 6.15939E-03-1.53070E+00 6.61494E-14-9.57078E-14
 -1      3205 1.99631E+01-6.96827E-02-6.86370E-03-1.58710E+00 2.83356E-14-1.56697E-13
 -1      3206 2.11589E+01-1.16400E+00 2.65548E-03-1.46415E+00-1.23848E-13 2.27703E-13
 -1      3207 2.08744E+01-7.58297E-01 1.38923E-02-1.56034E+00-4.06763E-14 1.18903E-13
 -1      3208 2.01894E+01-6.44574E-01-1.51580E-02-1.72541E+00-1.83334E-13 2.38452E-13
 -1      3209 2.20079E+01-2.20064E+00-1.69848E-03-1.17377E+00-2.15784E-13 2.73084E-13
 -1      3210 2.15692E+01-1.63265E+00 2.73442E-02-1.41756E+00-1.46919E-13 2.42747E-13
 -1      3211 2.07087E+01-1.55757E+00-2.87979E-02-1.77522E+00-1.92111E-13 3.45108E-13
 -1      3212 2.33667E+01-3.40984E+00-5.16510E-03-4.77310E-01-6.63705E-15 2.99413E-15
 -1      3213 2.27536E+01-2.78123E+00 4.80604E-02-9.45313E-01-7.99098E-14 1.34096E-13
 -1      3214 2.17086E+01-2.85150E+00-5.42557E-02-1.61221E+00-6.74365E-14 1.78321E-13
 -1      3215 2.52372E+01-4.31743E+00-1.72326E-02 8.89284E-01 3.93782E-16-2.12869E-13
 -1      3216 2.45458E+01-3.95155E+00 6.39415E-02 9.94752E-02-4.06407E-14-9.13874E-14
 -1      3217 2.34863E+01-4.29934E+00-7.17025E-02-9.57515E-01-1.78937E-15-1.85813E-13
 -1      3218 2.82293E+01 4.22613E-01-3.32137E-02 5.24344E+00 6.23113E-15-3.38882E-13
 -1      3219 2.80337E+01-1.75707E+00-1.09658E-01 4.58505E+00 3.10030E-14-2.95181E-13
 -1      3220 2.75659E+01 3.63366E+00-1.17257E-01 5.14094E+00 4.73649E-14-4.93439E-13
 -1      3221 2.73636E+01 6.70555E+00-1.66588E-01-3.84192E+00 2.13662E-13-2.54061E-13
 -1      3222 2.81952E+01 5.00841E+00-1.12390E-01-4.71706E+00 1.05790E-13-2.35770E-13
 -1      3223 2.02815E+01 1.15527E+00 1.26872E-03-6.64547E-01-1.95242E-13-2.09861E-13
 -1      3224 2.02537E+01 9.10798E-01-5.16819E-03-4.78050E-01-1.70488E-13-1.94529E-13
 -1      3225 2.02822E+01 9.40505E-01-1.64267E-03-4.22308E-01-1.77741E-13-1.94814E-13
 -1      3226 3.11808E+01 2.27067E+00-3.30660E-01-1.71879E+00-3.40561E-14-1.41387E-13
 -1      3227 2.01242E+01 2.93834E-01-2.01240E-03 4.29627E-02 1.43397E-13-1.85534E-13
 -1      3228 2.01701E+01 3.94883E-01 4.50638E-03 1.33579E-01 1.72577E-13-1.68849E-13
 -1      3229 2.01890E+01 3.16248E-01-1.48767E-03 3.49669E-02 1.47864E-13-2.10530E-13
 -1      3230 1.68223E+01-5.01860E+00 6.48916E-03 5.78348E+00-5.07511E-14-4.25424E-13
 -1      3231 1.40532E+01-3.62464E+00 1.25347E-01 5.31636E+00-1.50852E-14 1.26940E-13
 -1      3232 2.81638E+01 8.55227E+00-1.51361E-01-1.74562E+00 3.39784E-13 1.67210E-13
 -1      3233 1.99916E+01-3.11111E-02 9.40342E-05-1.82002E-01 8.45421E-14-1.85783E-13
 -1      3234 1.99956E+01-1.62777E-02 9.15389E-04-1.81310E-01 5.07758E-14-1.80033E-13
 -1      3235 2.00712E+01-2.17048E-03-9.52198E-04-1.69755E-01 5.61361E-14-1.79141E-13
 -1      3236 1.60778E+01-4.58992E+00 1.91113E-01-5.33628E+00 4.37705E-14-1.96509E-14
 -1      3237 1.85109E+01-5.64560E+00 1.80568E-02-5.18238E+00-1.25039E-13 2.81421E-13
 -1      3238 2.79006E+01-6.19968E+00 1.17620E-01-3.37658E-01-4.90510E-14 1.97717E-13
 -1      3239 2.91305E+01-4.90168E+00-1.31602E-01 1.91584E+00 8.76937E-14-1.08004E-13
 -1      3240 2.00433E+01 2.16121E+00-4.28070E-03 2.92348E-01 1.11662E-13-3.31495E-13
 -1      3241 2.00299E+01 2.20001E+00-3.32981E-03 1.70709E-01 8.11477E-14-3.18025E-13
 -1      3242 2.02900E+01 9.90029E-01-7.76559E-04 6.88928E-01 2.50341E-13-1.94059E-13
 -1      3243 2.02686E+01 1.31169E+00 4.56355E-03 7.72246E-01 2.46256E-13-1.98109E-13
 -1      3244 2.02829E+01 1.13122E+00 5.32664E-03 5.96204E-01 2.28387E-13-1.97824E-13
 -1      3245 2.02324E+01 7.76039E-01-3.85132E-03 4.81736E-01 2.47989E-13-1.94002E-13
 -1      3246 2.94652E+01-1.15983E+00-1.64519E-01-3.84956E+00 1.66214E-13-1.54023E-13
 -1      3247 2.92061E+01-3.04136E+00-1.24384E-02-2.65879E+00 9.58400E-14-2.03337E-13
 -1      3248 2.26814E+01-6.40166E+00-2.68614E-02 4.13088E+00-3.42920E-14-9.67282E-15
 -1      3249 1.97883E+01-5.74456E+00 1.21337E-01 5.27685E+00 3.44863E-14-2.72143E-13
 -1      3250 2.88185E+01 3.19768E+00-1.81562E-01-4.83179E+00-1.27259E-14 9.00807E-14
 -1      3251 2.94599E+01 1.00442E+00-4.76391E-02-4.61597E+00 1.68601E-13 2.68535E-14
 -1      3252 2.82860E+01-2.68361E-01-3.31406E-02-4.33221E+00 1.02210E-13 1.06373E-13
 -1      3253 2.72173E+01 3.22270E+00-6.89045E-02-4.66805E+00 1.84144E-13-1.84686E-13
 -1      3254 1.17270E+01-2.61961E+00 9.06636E-02 4.56896E+00 5.50601E-14 2.82552E-13
 -1      3255 1.02411E+01-1.74841E+00 1.09900E-01 3.15144E+00 6.65926E-14 7.93532E-14
 -1      3256 2.02265E+01 1.58999E+00-6.65125E-03-8.51505E-01-1.67019E-13-2.70543E-13
 -1      3257 2.02559E+01 1.36651E+00 4.61085E-05-7.45111E-01-1.80545E-13-2.26665E-13
 -1      3258 2.01709E+01 1.83088E+00 1.10062E-03-7.86887E-01-1.42280E-13-2.84078E-13
 -1      3259 2.00229E+01 2.21876E+00-3.66115E-03 6.58764E-02 5.99883E-14-2.99168E-13
 -1      3260 2.00225E+01 2.22004E+00-3.50513E-03-5.82796E-02 1.14985E-14-3.22814E-13
 -1      3261 2.01361E+01 1.92233E+00 4.55807E-03 1.01747E-01 5.94117E-14-2.84294E-13
 -1      3262 3.16276E+01 5.18602E+00-1.40653E-01-9.59495E-01-3.96350E-14-1.18155E-13
 -1      3263 2.92825E+01-3.97271E+00-3.87103E-02 2.95822E+00 1.19894E-13-2.08243E-13
 -1      3264 2.86445E+01-2.46507E+00-7.02532E-02 4.08779E+00 9.48616E-14-2.40641E-13
 -1      3265 2.71348E+01-3.01944E+00-2.21460E-03 3.63644E+00 1.46411E-15-2.24435E-13
 -1      3266 2.77298E+01-4.61333E+00 1.59566E-03 2.08924E+00-3.58845E-14-2.29197E-13
 -1      3267 2.74983E+01-2.49878E+00-7.32816E-02-3.27735E+00 2.11636E-15 2.78839E-14
 -1      3268 2.65597E+01-1.07001E+00-6.76435E-03-4.00334E+00 2.43867E-14 1.30798E-14
 -1      3269 2.59540E+01 2.14234E+00-3.53313E-02-4.59544E+00 1.87614E-13-2.25132E-14
 -1      3270 2.61277E+01 3.49427E-01-1.09945E-01-4.43594E+00 1.06224E-13 6.20858E-14
 -1      3271 2.67071E+01-4.38171E+00 4.19129E-02 1.83070E+00 8.61290E-15-2.38412E-13
 -1      3272 2.60462E+01-5.33203E+00-8.79797E-02 3.17708E-01 4.45759E-14-3.10536E-13
 -1      3273 2.64318E+01-3.83466E+00-7.93264E-02 2.62447E+00-4.08397E-15-2.42243E-13
 -1      3274 2.82693E+01 1.57366E+00-1.87963E-01 5.45884E+00 1.81799E-15-5.10508E-13
 -1      3275 1.16600E+01-1.22331E+00 8.14115E-02 2.73934E+00 1.91468E-13 4.27575E-14
 -1      3276 1.01311E+01-1.17759E+00 1.57015E-01 2.22814E+00 1.81095E-13-1.75235E-13
 -1      3277 1.02140E+01-8.60230E-01 6.60487E-02 1.07234E+00 2.38929E-13-4.83280E-13
 -1      3278 2.68125E+01 6.72146E+00-1.50969E-01 2.84521E+00 4.42368E-13-2.39052E-13
 -1      3279 2.00476E+01-3.88713E-02-7.33373E-04-1.75775E-01 6.34236E-14-1.83740E-13
 -1      3280 1.95939E+01-4.97275E+00 6.64349E-02-4.32639E+00-9.51114E-14 2.48208E-13
 -1      3281 2.05914E+01-5.88051E+00 1.17009E-01-4.52637E+00-1.56826E-13 2.04510E-13
 -1      3282 2.22829E+01-6.25151E+00-6.63750E-02-3.58068E+00-8.04565E-14 1.62675E-13
 -1      3283 2.62740E+01-6.29240E+00 5.69774E-02-1.14317E+00-5.46091E-14 1.54807E-13
 -1      3284 2.01762E+01 4.89050E-01-2.16805E-03 2.19617E-01 1.98176E-13-1.82983E-13
 -1      3285 2.02328E+01 6.35455E-01 4.23027E-03 3.61364E-01 2.15100E-13-1.83496E-13
 -1      3286 2.02562E+01 7.77105E-01-4.82513E-03 4.18608E-01 2.24387E-13-1.85743E-13
 -1      3287 2.02284E+01 5.22847E-01-1.99664E-03 1.98184E-01 1.69586E-13-1.64264E-13
 -1      3288 2.29198E+01 5.85152E+00-2.87377E-02 3.41315E-01 1.34892E-13-1.24047E-13
 -1      3289 1.90118E+01-4.80326E+00 1.04654E-01 4.85353E+00 7.30249E-14-8.98170E-14
 -1      3290 2.69053E+01 7.14253E+00-2.82750E-01 1.42760E+00 5.73458E-13-1.47490E-13
 -1      3291 2.64840E+01 6.76791E+00 7.50855E-05-6.68753E-02 5.50227E-13 4.75106E-14
 -1      3292 2.66860E+01 8.15983E+00-1.18111E-01-1.28799E+00 2.27318E-13 1.59839E-13
 -1      3293 2.72897E+01 8.11446E+00-1.82847E-01-2.74981E+00 2.25625E-13-1.05499E-13
 -1      3294 2.81162E+01-3.24463E+00 5.51744E-03-2.59758E+00 7.08374E-14-1.89952E-13
 -1      3295 2.86291E+01-4.56792E+00-7.87604E-02-1.45349E+00 5.49942E-14-2.64476E-13
 -1      3296 2.75135E+01-5.12240E+00 5.44709E-02-4.62246E-01-2.68223E-14 6.92224E-14
 -1      3297 2.71726E+01-3.58432E+00-2.87549E-03-2.24799E+00 7.13522E-14-9.81194E-14
 -1      3298 2.47361E+01 6.96235E+00-9.19434E-02-6.25128E-01 1.67491E-13-7.15331E-14
 -1      3299 1.48378E+01-3.53274E+00 1.24685E-01-4.65644E+00 1.46085E-13-1.44773E-13
 -1      3300 2.01578E+01 1.80167E+00-6.96030E-03 6.84773E-01 1.80647E-13-2.89234E-13
 -1      3301 2.01224E+01 1.93127E+00-2.51803E-03 5.89321E-01 1.47739E-13-3.12030E-13
 -1      3302 2.02501E+01 1.46271E+00 6.24039E-03 5.85419E-01 1.73100E-13-2.58124E-13
 -1      3303 2.00608E+01 2.11228E+00-2.93950E-03-3.83088E-01-4.59763E-14-3.18689E-13
 -1      3304 2.00861E+01 2.03715E+00-4.07644E-03-4.96518E-01-7.99925E-14-2.98583E-13
 -1      3305 1.41573E+01-2.77170E+00 1.22141E-01 4.56171E+00 5.34364E-14 8.46684E-14
 -1      3306 2.02540E+01 1.38210E+00 1.41556E-03-6.46138E-01-1.49610E-13-2.34246E-13
 -1      3307 9.77164E+00-1.44794E+00 1.82792E-01-2.18800E+00 3.34642E-13-6.40168E-13
 -1      3308 1.12128E+01-1.66730E+00 6.57989E-03-2.83968E+00 2.38275E-13-5.87697E-13
 -1      3309 1.01231E+01-8.65895E-01 7.78168E-02-7.97651E-01 2.76912E-13-5.78274E-13
 -1      3310 2.00892E+01 2.02534E+00-5.39495E-03 5.04219E-01 1.54211E-13-3.37227E-13
 -1      3311 2.00637E+01 2.10559E+00-3.07546E-03 3.91017E-01 1.29472E-13-3.44597E-13
 -1      3312 2.01591E+01 1.84791E+00 5.13295E-03 2.90908E-01 1.10675E-13-3.22127E-13
 -1      3313 2.02004E+01 1.69624E+00 5.70890E-03 4.59011E-01 1.34403E-13-3.09567E-13
 -1      3314 2.45981E+01-6.29358E+00 7.48271E-02 2.88639E+00-1.52621E-14-4.57360E-14
 -1      3315 2.29022E+01-5.68535E+00 3.55614E-02 3.32818E+00 1.14783E-13-9.11424E-15
 -1      3316 2.55970E+01-6.00741E+00-8.63765E-02 1.46867E+00-6.42542E-15 7.02077E-14
 -1      3317 2.01003E+01 2.00742E+00-2.87731E-03-5.92531E-01-1.09806E-13-2.87080E-13
 -1      3318 2.01358E+01 1.88771E+00-5.52782E-03-6.91092E-01-1.31787E-13-2.88305E-13
 -1      3319 2.02052E+01 1.66675E+00 3.36589E-03-6.34676E-01-1.32660E-13-2.73165E-13
 -1      3320 2.01794E+01 1.76469E+00 3.97745E-03-4.62982E-01-8.92616E-14-2.69542E-13
 -1      3321 2.03196E+01 7.36327E-01 4.82350E-03-2.40830E-01-1.40414E-13-1.85594E-13
 -1      3322 2.02950E+01 5.71477E-01-3.25287E-03-1.40212E-01-1.19113E-13-1.70847E-13
 -1      3323 2.61694E+01 6.39290E+00-1.10258E-01-3.38213E+00 1.80828E-13-4.86389E-13
 -1      3324 2.47197E+01-5.79014E+00 1.18251E-01-1.80190E+00 2.51309E-14 1.05934E-13
 -1      3325 2.02989E+01 4.39071E-01 2.55312E-03-7.13626E-02-1.14817E-13-1.61979E-13
 -1      3326 2.02738E+01 3.26514E-01-2.15499E-03-4.61834E-03-9.37638E-14-1.38630E-13
 -1      3327 2.03298E+01 5.77365E-01 4.30089E-04-1.14565E-01-1.01338E-13-1.40283E-13
 -1      3328 2.02655E+01 2.36762E-01 2.16759E-03 4.05636E-02-7.01555E-14-1.33153E-13
 -1      3329 2.02408E+01 1.61128E-01-1.29942E-03 8.12180E-02-5.58382E-14-9.48338E-14
 -1      3330 2.03135E+01 3.28249E-01-5.90724E-05 3.11910E-03-7.17301E-14-1.29534E-13
 -1      3331 2.02259E+01 1.02018E-01 1.61939E-03 1.07147E-01-7.96646E-14-7.76130E-14
 -1      3332 2.02042E+01 5.29886E-02-6.66935E-04 1.28775E-01-4.01441E-14-7.15839E-14
 -1      3333 2.02819E+01 1.58338E-01-4.30933E-04 7.73729E-02-3.30303E-14-8.73128E-14
 -1      3334 2.01866E+01 1.55455E-02 1.13543E-03 1.40862E-01-2.75047E-14-7.95389E-14
 -1      3335 2.01686E+01-1.46984E-02-2.35406E-04 1.49381E-01 8.54593E-15-6.75504E-14
 -1      3336 2.02438E+01 4.70061E-02-5.86719E-04 1.18424E-01-3.75975E-14-9.28627E-14
 -1      3337 2.01508E+01-3.69822E-02 7.43298E-04 1.52074E-01 3.61988E-14-9.70659E-14
 -1      3338 2.01365E+01-5.41308E-02 4.24921E-05 1.52076E-01 5.28777E-14-5.44849E-14
 -1      3339 2.02051E+01-2.25145E-02-6.25376E-04 1.35891E-01 1.95364E-15-1.28054E-13
 -1      3340 2.01198E+01-6.59555E-02 4.46720E-04 1.48839E-01 2.23580E-14-2.97066E-14
 -1      3341 2.01087E+01-7.41397E-02 2.09353E-04 1.43719E-01 1.60143E-14-6.09739E-14
 -1      3342 2.01688E+01-6.26323E-02-6.00487E-04 1.37631E-01 3.66075E-14-1.19708E-13
 -1      3343 2.00937E+01-7.88883E-02 2.33088E-04 1.37116E-01-4.22610E-15-7.26407E-14
 -1      3344 2.00854E+01-8.10786E-02 2.99777E-04 1.29296E-01-4.70319E-14-1.12705E-13
 -1      3345 2.01365E+01-8.24738E-02-5.44392E-04 1.29685E-01-1.35827E-14-1.25692E-13
 -1      3346 2.00725E+01-8.11593E-02 8.50005E-05 1.21147E-01-5.67780E-14-1.49948E-13
 -1      3347 2.00663E+01-7.94533E-02 3.39946E-04 1.12307E-01-2.43376E-14-1.53636E-13
 -1      3348 2.01088E+01-8.86574E-02-4.74954E-04 1.16475E-01-6.39974E-14-2.20377E-13
 -1      3349 2.00556E+01-7.65410E-02-1.49091E-05 1.03865E-01-3.19420E-14-1.92289E-13
 -1      3350 2.00512E+01-7.23729E-02 3.49361E-04 9.51403E-02-7.44712E-14-1.99528E-13
 -1      3351 2.00857E+01-8.58867E-02-4.02340E-04 1.01122E-01-4.65888E-14-2.02888E-13
 -1      3352 2.00424E+01-6.75863E-02-8.17596E-05 8.72431E-02-1.31400E-13-1.45290E-13
 -1      3353 2.00394E+01-6.18849E-02 3.42270E-04 7.93907E-02-1.32389E-13-1.35193E-13
 -1      3354 2.00669E+01-7.73974E-02-3.31976E-04 8.57637E-02-4.86263E-14-2.20356E-13
 -1      3355 2.00322E+01-5.59190E-02-1.28018E-04 7.25949E-02-6.55403E-14-1.37262E-13
 -1      3356 2.00303E+01-4.92276E-02 3.28931E-04 6.61226E-02-6.81818E-14-8.40781E-14
 -1      3357 2.00518E+01-6.53000E-02-2.66241E-04 7.18395E-02-9.37968E-14-1.47379E-13
 -1      3358 2.00245E+01-4.24542E-02-1.63777E-04 6.08079E-02-1.35077E-13 6.05081E-15
 -1      3359 2.00235E+01-3.50214E-02 3.16632E-04 5.60765E-02-1.00166E-13 6.06141E-14
 -1      3360 2.00398E+01-5.08437E-02-2.05512E-04 6.03244E-02-1.46141E-14-5.88743E-14
 -1      3361 2.00187E+01-2.75655E-02-1.97225E-04 5.25280E-02-1.01091E-13 8.20724E-14
 -1      3362 2.00183E+01-1.94151E-02 3.10482E-04 4.98294E-02-6.33176E-14 4.03828E-14
 -1      3363 2.00302E+01-3.46191E-02-1.48790E-04 5.19137E-02-9.31280E-14 8.17716E-14
 -1      3364 2.00141E+01-1.12134E-02-2.35118E-04 4.83008E-02-3.38718E-14 1.17003E-14
 -1      3365 2.00141E+01-2.19801E-03 3.13992E-04 4.79177E-02 3.42517E-14-1.85586E-14
 -1      3366 2.00223E+01-1.67135E-02-9.40953E-05 4.71687E-02-7.77209E-14 1.45732E-13
 -1      3367 2.00100E+01 6.95456E-03-2.83163E-04 4.86793E-02 8.98954E-14 1.95667E-14
 -1      3368 2.00103E+01 1.71092E-02 3.29478E-04 5.09292E-02 8.43764E-14 1.00265E-13
 -1      3369 2.00153E+01 3.16723E-03-3.87185E-05 4.66265E-02 5.79982E-14 8.07260E-14
 -1      3370 2.00060E+01 2.75204E-02-3.46260E-04 5.43038E-02 4.61760E-14 6.49109E-14
 -1      3371 2.00063E+01 3.91767E-02 3.58307E-04 5.95707E-02 2.32306E-14 6.16016E-14
 -1      3372 2.00083E+01 2.56000E-02 2.06058E-05 5.08833E-02 5.78970E-14 7.84698E-14
 -1      3373 2.00011E+01 5.12187E-02-4.28605E-04 6.59586E-02-3.38855E-14 8.01084E-14
 -1      3374 2.00013E+01 6.47863E-02 4.01019E-04 7.47116E-02 3.73872E-14-2.95875E-14
 -1      3375 2.00003E+01 5.13557E-02 8.75336E-05 6.06547E-02 1.47222E-14 9.21143E-14
 -1      3376 1.99947E+01 7.88534E-02-5.33588E-04 8.46055E-02 1.43316E-13-5.52888E-14
 -1      3377 1.99945E+01 9.47397E-02 4.57375E-04 9.74057E-02 9.80598E-14-4.22504E-14
 -1      3378 1.99902E+01 8.13072E-02 1.65901E-04 7.68142E-02 7.46540E-14 1.25432E-14
 -1      3379 1.99857E+01 1.11193E-01-6.63481E-04 1.11395E-01 1.45699E-14-5.18717E-14
 -1      3380 1.99850E+01 1.29737E-01 5.26385E-04 1.28888E-01-3.27492E-14-5.12405E-14
 -1      3381 1.99769E+01 1.16319E-01 2.59385E-04 1.00412E-01 7.02522E-14-8.67706E-14
 -1      3382 1.99732E+01 1.48827E-01-8.18855E-04 1.47651E-01 1.12470E-14 5.29003E-14
 -1      3383 1.99716E+01 1.70207E-01 6.06457E-04 1.70540E-01 9.13798E-14 1.37388E-13
 -1      3384 1.99590E+01 1.57102E-01 3.70930E-04 1.32673E-01 8.76722E-14-5.06478E-14
 -1      3385 1.99560E+01 1.91964E-01-9.97668E-04 1.94824E-01 2.91924E-14 1.81415E-13
 -1      3386 1.99531E+01 2.16060E-01 6.95862E-04 2.23823E-01 1.79416E-14 1.85595E-13
 -1      3387 1.99348E+01 2.04006E-01 5.01774E-04 1.74965E-01 4.70298E-14 1.09909E-13
 -1      3388 1.99329E+01 2.40135E-01-1.19397E-03 2.54407E-01 1.13926E-14 9.72992E-14
 -1      3389 1.99284E+01 2.66342E-01 7.93870E-04 2.90168E-01 2.80498E-14-4.20005E-14
 -1      3390 1.99026E+01 2.56735E-01 6.49838E-04 2.28751E-01-5.11688E-14 7.23172E-14
 -1      3391 1.99028E+01 2.91784E-01-1.39613E-03 3.27814E-01-5.04069E-15-8.50752E-14
 -1      3392 1.98966E+01 3.18738E-01 9.03080E-04 3.70825E-01-5.65845E-14-1.40296E-13
 -1      3393 1.98607E+01 3.13935E-01 8.07119E-04 2.95509E-01-1.51964E-14-9.02346E-14
 -1      3394 1.98648E+01 3.43678E-01-1.58441E-03 4.16219E-01-4.14842E-14-1.01827E-13
 -1      3395 1.98570E+01 3.68896E-01 1.03366E-03 4.66672E-01-2.42757E-14-9.49212E-16
 -1      3396 1.98077E+01 3.72637E-01 9.55544E-04 3.76641E-01-2.55543E-14-1.58589E-13
 -1      3397 1.98192E+01 3.90123E-01-1.72752E-03 5.20370E-01-1.24573E-13 8.96591E-14
 -1      3398 1.98106E+01 4.09503E-01 1.21032E-03 5.78011E-01-7.87430E-14 9.32721E-15
 -1      3399 1.97426E+01 4.27493E-01 1.06046E-03 4.73392E-01-3.81233E-14-6.51177E-14
 -1      3400 1.97675E+01 4.21905E-01-1.77702E-03 6.40404E-01-9.99382E-14-2.34790E-14
 -1      3401 1.97604E+01 4.29101E-01 1.48223E-03 7.04364E-01-1.62067E-13-4.56414E-14
 -1      3402 1.96660E+01 4.69779E-01 1.06046E-03 5.86819E-01-1.03667E-13 6.23812E-14
 -1      3403 1.97146E+01 4.24951E-01-1.65710E-03 7.75688E-01-1.09982E-13-1.11831E-13
 -1      3404 1.97134E+01 4.10591E-01 1.93411E-03 8.44300E-01 2.63735E-14-1.15721E-13
 -1      3405 1.95807E+01 4.86112E-01 8.51235E-04 7.17867E-01-1.55900E-13-5.43770E-14
 -1      3406 1.96705E+01 3.78730E-01-1.24405E-03 9.24689E-01 1.50392E-13-5.65424E-14
 -1      3407 1.96833E+01 3.29541E-01 2.69067E-03 9.95247E-01 1.38850E-13-3.37436E-15
 -1      3408 1.94940E+01 4.56867E-01 2.59570E-04 8.67609E-01 8.59214E-14-1.57717E-14
 -1      3409 1.96537E+01 2.54546E-01-3.25545E-04 1.08471E+00-2.44518E-15 2.10460E-14
 -1      3410 1.96947E+01 1.52559E-01 3.89829E-03 1.15299E+00-4.81546E-14-1.73886E-14
 -1      3411 1.94201E+01 3.54333E-01-9.99345E-04 1.03758E+00 8.31352E-14-7.54399E-14
 -1      3412 1.96965E+01 1.42719E-02 1.48150E-03 1.25100E+00-6.82972E-15 3.96657E-14
 -1      3413 1.97882E+01-1.63466E-01 5.62195E-03 1.31009E+00 5.33129E-14 9.42603E-14
 -1      3414 1.93850E+01 1.40816E-01-3.38557E-03 1.22985E+00-2.51443E-14-5.18663E-15
 -1      3415 1.98523E+01-3.89296E-01 4.85268E-03 1.41378E+00-3.13740E-14 1.46608E-13
 -1      3416 2.00284E+01-6.69378E-01 7.68162E-03 1.45125E+00-3.63006E-14 1.18192E-13
 -1      3417 1.94333E+01-2.32698E-01-7.62626E-03 1.44564E+00 5.74356E-14 8.10618E-14
 -1      3418 2.02048E+01-1.00716E+00 1.11908E-02 1.55028E+00 3.26909E-14 4.00969E-14
 -1      3419 2.05136E+01-1.41319E+00 1.05722E-02 1.54102E+00 1.70592E-13 1.01417E-13
 -1      3420 1.96385E+01-8.25680E-01-1.46626E-02 1.67937E+00 1.04818E-14 2.92099E-13
 -1      3421 2.08797E+01-1.88491E+00 2.09480E-02 1.61046E+00 2.88684E-13 9.50370E-14
 -1      3422 2.13757E+01-2.41829E+00 1.06239E-02 1.50140E+00 2.87149E-13 8.42817E-14
 -1      3423 2.01085E+01-1.69545E+00-2.65535E-02 1.90568E+00 1.80253E-13 9.91906E-14
 -1      3424 2.20554E+01-2.97720E+00 4.47116E-02 1.45011E+00 2.14957E-13 1.87351E-13
 -1      3425 2.27639E+01-3.58483E+00 9.33490E-03 1.14777E+00 2.74664E-13 1.12769E-13
 -1      3426 2.10626E+01-2.90744E+00-4.39083E-02 2.04592E+00 3.07723E-13 5.01621E-14
 -1      3427 2.40498E+01-4.56278E+00 1.94924E-02 1.04731E+00 2.32925E-13 4.23862E-14
 -1      3428 2.50274E+01-4.85080E+00 6.59205E-03 4.38832E-01 6.59733E-14 2.07334E-14
 -1      3429 2.63660E+01-4.34710E+00-3.61950E-02-1.23489E+00 5.90309E-14 4.25051E-15
 -1      3430 2.01964E+01 1.60547E-01-1.31711E-03-8.23443E-02 6.69554E-14-1.51305E-13
 -1      3431 2.02233E+01 2.33740E-01 2.58034E-03-3.74492E-02 1.01543E-13-1.72432E-13
 -1      3432 2.00426E+01-7.31217E-02 3.34669E-04-1.21804E-01-1.74969E-14-9.39532E-14
 -1      3433 2.00461E+01-7.43575E-02 5.34882E-05-1.31306E-01-9.77462E-15-8.93384E-14
 -1      3434 2.00569E+01-7.38871E-02 2.96576E-04-1.40085E-01 1.47354E-14-7.77634E-14
 -1      3435 2.00624E+01-7.14213E-02 2.17944E-04-1.48433E-01 3.42067E-14-8.75345E-14
 -1      3436 2.00855E+01-8.21733E-02-4.53384E-04-1.29053E-01 3.42756E-14-9.17534E-14
 -1      3437 2.00753E+01-6.65371E-02 2.09744E-04-1.55387E-01-7.71877E-16-9.30520E-14
 -1      3438 2.00834E+01-5.83711E-02 4.62516E-04-1.60773E-01 1.10462E-15-1.40056E-13
 -1      3439 2.01091E+01-7.52849E-02-5.41149E-04-1.43344E-01 1.42994E-14-5.12949E-14
 -1      3440 2.00318E+01-6.71968E-02 3.43466E-04-1.03158E-01-3.28559E-14-8.32610E-14
 -1      3441 2.00337E+01-7.07648E-02-5.30354E-05-1.12597E-01-4.93838E-14-1.05793E-13
 -1      3442 2.00663E+01-8.04240E-02-3.72180E-04-1.12174E-01-1.81840E-14-3.98268E-14
 -1      3443 2.00238E+01-5.80708E-02 3.37057E-04-8.58795E-02 3.33824E-14-7.19487E-14
 -1      3444 2.00247E+01-6.30772E-02-1.19910E-04-9.44532E-02 3.02841E-14-7.52432E-14
 -1      3445 2.00510E+01-7.31715E-02-3.00351E-04-9.51076E-02-3.82241E-14-8.68052E-14
 -1      3446 2.00182E+01-4.69454E-02 3.25607E-04-7.11162E-02-2.84967E-14 2.81191E-14
 -1      3447 2.00182E+01-5.28584E-02-1.61770E-04-7.82917E-02 2.23142E-15-1.43485E-14
 -1      3448 2.00391E+01-6.24755E-02-2.38280E-04-7.94587E-02 1.38978E-14 2.79297E-14
 -1      3449 2.00144E+01-3.44443E-02 3.16437E-04-5.96503E-02-1.52478E-14 4.64878E-14
 -1      3450 2.00138E+01-4.10087E-02-1.90179E-04-6.50575E-02-5.69752E-15 3.83069E-14
 -1      3451 2.00301E+01-4.95755E-02-1.84992E-04-6.63035E-02-4.93672E-14 1.39083E-14
 -1      3452 2.00120E+01-2.07464E-02 3.14824E-04-5.20754E-02 2.20014E-14-3.27617E-14
 -1      3453 2.00109E+01-2.79204E-02-2.14312E-04-5.54220E-02 1.45739E-14-1.57336E-15
 -1      3454 2.00232E+01-3.50833E-02-1.38665E-04-5.63952E-02 4.15395E-14-9.81731E-15
 -1      3455 2.00106E+01-5.68585E-03 3.24562E-04-4.89311E-02-5.61890E-16-9.47802E-14
 -1      3456 2.00091E+01-1.35934E-02-2.41601E-04-4.99383E-02 2.44545E-14-5.75590E-14
 -1      3457 2.00179E+01-1.91268E-02-9.68608E-05-5.03252E-02 6.22474E-14-3.79007E-14
 -1      3458 2.00098E+01 1.11727E-02 3.48325E-04-5.08055E-02-1.02711E-14 7.71151E-14
 -1      3459 2.00080E+01 2.27768E-03-2.78287E-04-4.91582E-02-3.41379E-14-3.81145E-14
 -1      3460 2.00136E+01-1.45871E-03-5.65988E-05-4.86471E-02-7.11202E-14 4.21593E-14
 -1      3461 2.00092E+01 3.04757E-02 3.87854E-04-5.84118E-02 2.35022E-14 1.40785E-13
 -1      3462 2.00071E+01 2.02380E-02-3.29854E-04-5.37225E-02 3.53058E-14 5.58004E-14
 -1      3463 2.00096E+01 1.84605E-02-1.43305E-05-5.19700E-02 1.17737E-15 2.41612E-14
 -1      3464 2.00084E+01 5.30299E-02 4.43975E-04-7.26432E-02-1.53718E-14 1.55112E-13
 -1      3465 2.00060E+01 4.10181E-02-4.01336E-04-6.44263E-02 3.12110E-14 1.66267E-13
 -1      3466 2.00051E+01 4.13963E-02 3.41611E-05-6.10268E-02 1.03537E-14 5.14855E-14
 -1      3467 2.00068E+01 7.97507E-02 5.16456E-04-9.46057E-02-1.56994E-14 1.56469E-13
 -1      3468 2.00042E+01 6.54846E-02-4.97494E-04-8.22631E-02-4.35454E-14 1.94867E-13
 -1      3469 1.99995E+01 6.82799E-02 9.39125E-05-7.67207E-02-6.03661E-14 1.18971E-13
 -1      3470 2.00036E+01 1.11599E-01 6.03741E-04-1.25628E-01-1.36916E-15 1.21923E-13
 -1      3471 2.00009E+01 9.45839E-02-6.22843E-04-1.08447E-01 2.56281E-15 2.08681E-13
 -1      3472 1.99915E+01 1.00145E-01 1.70953E-04-1.00148E-01-2.00392E-14 2.36753E-14
 -1      3473 1.99979E+01 1.49491E-01 7.02632E-04-1.67241E-01 5.38690E-15 5.05018E-15
 -1      3474 1.99954E+01 1.29268E-01-7.81505E-04-1.44409E-01 5.42070E-14 1.11990E-13
 -1      3475 1.99800E+01 1.38046E-01 2.72446E-04-1.32600E-01 5.55972E-14 6.49898E-14
 -1      3476 1.99884E+01 1.94164E-01 8.08064E-04-2.21128E-01-1.59015E-13-6.89151E-14
 -1      3477 1.99864E+01 1.70385E-01-9.76841E-04-1.91764E-01-6.20444E-14-3.92781E-14
 -1      3478 1.99634E+01 1.82944E-01 4.06704E-04-1.75527E-01 1.32129E-14-4.24882E-14
 -1      3479 1.99735E+01 2.45963E-01 9.13314E-04-2.89026E-01-1.28282E-13-4.40189E-14
 -1      3480 1.99725E+01 2.18510E-01-1.21079E-03-2.52241E-01-1.50711E-13-7.64354E-14
 -1      3481 1.99398E+01 2.35534E-01 5.82870E-04-2.30486E-01-1.78712E-13-6.76686E-14
 -1      3482 1.99513E+01 3.04515E-01 1.01127E-03-3.72578E-01-1.53342E-13 7.45926E-14
 -1      3483 1.99519E+01 2.73684E-01-1.48281E-03-3.27566E-01-1.23974E-13 2.32452E-14
 -1      3484 1.99067E+01 2.95987E-01 8.09935E-04-2.99031E-01-1.47812E-13 7.50756E-14
 -1      3485 1.99193E+01 3.68214E-01 1.09789E-03-4.73142E-01 1.60094E-13-1.34578E-13
 -1      3486 1.99223E+01 3.34999E-01-1.78830E-03-4.19303E-01 3.71255E-15-5.14350E-14
 -1      3487 1.98612E+01 3.63548E-01 1.09444E-03-3.82592E-01 2.10456E-14-1.34507E-13
 -1      3488 1.98749E+01 4.33431E-01 1.17965E-03-5.91564E-01 1.15947E-13-2.41171E-13
 -1      3489 1.98812E+01 3.99962E-01-2.11623E-03-5.28656E-01 2.18893E-13-1.18147E-13
 -1      3490 1.98000E+01 4.35937E-01 1.43587E-03-4.82332E-01 1.79919E-13-2.68790E-13
 -1      3491 1.98159E+01 4.93305E-01 1.28771E-03-7.27967E-01-1.84837E-15-4.02501E-13
 -1      3492 1.98260E+01 4.63512E-01-2.44552E-03-6.56276E-01-1.12167E-14-3.25381E-13
 -1      3493 1.97196E+01 5.08443E-01 1.81792E-03-5.99054E-01 1.21328E-13-2.35649E-13
 -1      3494 1.97415E+01 5.35941E-01 1.50165E-03-8.81650E-01 4.72259E-14-2.78270E-13
 -1      3495 1.97549E+01 5.16534E-01-2.73894E-03-8.02135E-01-8.46911E-16-2.93298E-13
 -1      3496 1.96165E+01 5.72588E-01 2.19279E-03-7.33256E-01-2.98888E-14-4.47644E-13
 -1      3497 1.96547E+01 5.41792E-01 1.98266E-03-1.05124E+00 1.73953E-13-3.25658E-13
 -1      3498 1.96684E+01 5.43676E-01-2.93099E-03-9.65613E-01 1.80156E-13-2.12822E-13
 -1      3499 1.94890E+01 6.14173E-01 2.45309E-03-8.85531E-01 8.09880E-14-2.90119E-13
 -1      3500 1.95662E+01 4.80063E-01 3.00672E-03-1.23520E+00 2.49413E-13-3.53933E-13
 -1      3501 1.95722E+01 5.20254E-01-2.90170E-03-1.14592E+00 1.78442E-13-3.41920E-13
 -1      3502 1.93386E+01 6.10499E-01 2.38089E-03-1.05755E+00 1.74971E-13-2.04146E-13
 -1      3503 1.95016E+01 3.04223E-01 4.98479E-03-1.43257E+00 1.29785E-13-2.65924E-13
 -1      3504 1.94826E+01 4.08187E-01-2.41740E-03-1.34292E+00 1.96854E-13-3.10914E-13
 -1      3505 1.91747E+01 5.26534E-01 1.55839E-03-1.25389E+00 1.47375E-13-1.54904E-13
 -1      3506 1.95123E+01-5.26206E-02 8.42350E-03-1.64288E+00-1.74393E-13-1.77844E-15
 -1      3507 1.94356E+01 1.51384E-01-9.62282E-04-1.55785E+00-4.68418E-14-1.45685E-13
 -1      3508 1.90207E+01 3.10071E-01-7.49580E-04-1.48452E+00-5.88086E-14-2.27271E-14
 -1      3509 1.96938E+01-6.79242E-01 1.40656E-02-1.86159E+00-3.20209E-13 1.95402E-13
 -1      3510 1.95025E+01-3.27790E-01 2.81373E-03-1.79175E+00-2.67716E-13 5.12319E-14
 -1      3511 1.89272E+01-1.14299E-01-5.71420E-03-1.76684E+00-2.57737E-13 1.74008E-13
 -1      3512 2.01999E+01-1.68549E+00 1.81795E-02-2.06543E+00-7.11722E-14 1.27844E-13
 -1      3513 1.98138E+01-1.12715E+00 1.19229E-02-2.03773E+00-1.57381E-13 2.22261E-13
 -1      3514 1.89902E+01-8.46884E-01-1.46955E-02-2.12243E+00-2.28945E-13 1.43284E-13
 -1      3515 2.13197E+01-3.12803E+00 2.73610E-02-2.13102E+00-2.36599E-14-1.44607E-14
 -1      3516 2.06129E+01-2.32250E+00 4.43541E-02-2.22813E+00-4.26945E-14 1.11947E-13
 -1      3517 1.94175E+01-2.04283E+00-2.94801E-02-2.56180E+00-3.29346E-14 2.19846E-14
 -1      3518 2.02341E+01 3.20468E-01-2.16574E-03 1.46002E-02 1.40655E-13-1.82078E-13
 -1      3519 2.02648E+01 4.29841E-01 3.06804E-03 8.85549E-02 1.41207E-13-1.92683E-13
 -1      3520 2.02805E+01 3.28517E-01-3.97766E-04 6.14972E-03 1.14478E-13-1.72843E-13
 -1      3521 2.00288E+01 2.20239E+00-3.30456E-03-1.62572E-01-1.09432E-14-3.56287E-13
 -1      3522 2.00413E+01 2.16634E+00-3.95918E-03-2.84372E-01-3.09731E-14-3.34706E-13
 -1      3523 2.01538E+01 1.85139E+00 3.46209E-03-2.83521E-01-3.47067E-14-3.12100E-13
 -1      3524 1.58415E+01-2.92926E+00 8.48518E-03 4.49158E+00 7.40796E-14 9.41400E-14
 -1      3525 1.39128E+01-1.85403E+00 6.22685E-02 3.75732E+00 7.88536E-14 1.54189E-13
 -1      3526 2.01263E+01-8.60588E-03-2.26750E-04-1.60013E-01 5.95155E-14-1.49360E-13
 -1      3527 2.01425E+01 2.05974E-02 1.27853E-03-1.50520E-01 7.23746E-14-1.40605E-13
 -1      3528 2.00983E+01-4.67926E-02 4.78016E-05-1.63864E-01 4.93398E-14-1.23259E-13
 -1      3529 2.01100E+01-3.00929E-02 8.09875E-04-1.63662E-01 5.94039E-14-1.39295E-13
 -1      3530 2.01374E+01-5.52094E-02-6.28263E-04-1.51536E-01 3.46784E-14-1.24546E-13
 -1      3531 2.01594E+01 5.65140E-02-6.61854E-04-1.36225E-01 5.28748E-14-1.28921E-13
 -1      3532 2.01808E+01 1.03791E-01 1.87605E-03-1.12369E-01 5.25629E-14-1.21933E-13
 -1      3533 2.02070E+01 5.26329E-02-7.34670E-04-1.27736E-01 6.60738E-14-1.23321E-13
 -1      3534 2.33448E+01-5.19805E+00 4.88463E-02-2.12133E+00 1.53280E-14-6.76455E-14
 -1      3535 2.02452E+01-4.77825E+00-1.93496E-02 4.18253E+00 2.07775E-13-2.59862E-14
 -1      3536 1.80515E+01-3.76516E+00 7.98445E-02 4.50330E+00 1.25368E-13-9.63223E-14
 -1      3537 2.02372E+01 1.45526E+00-2.10874E-03-5.84561E-01-1.38003E-13-2.66168E-13
 -1      3538 2.02782E+01 1.26321E+00 5.53085E-03-5.16179E-01-1.50121E-13-2.36058E-13
 -1      3539 2.02235E+01 1.51906E+00-2.01390E-03-5.08677E-01-1.28036E-13-2.70908E-13
 -1      3540 1.40254E+01-2.15096E+00 1.82738E-01-3.90622E+00 1.20317E-13-2.61458E-13
 -1      3541 1.64733E+01-3.42813E+00-1.83231E-02-4.32777E+00 5.12437E-15 2.41078E-13
 -1      3542 2.03044E+01 5.74945E-01-7.71341E-05 1.42775E-01 1.50871E-13-1.95080E-13
 -1      3543 2.02669E+01 5.63049E-01-2.10701E-03 1.70234E-01 1.48346E-13-1.84913E-13
 -1      3544 2.02079E+01 1.59930E+00-1.34853E-03-3.54685E-01-6.86260E-14-2.52649E-13
 -1      3545 2.02128E+01 1.56572E+00-2.90062E-03-4.34502E-01-1.04556E-13-2.42492E-13
 -1      3546 2.02723E+01 1.37915E+00 5.66250E-03-3.97164E-01-1.03837E-13-2.32900E-13
 -1      3547 2.28716E+01-4.64085E+00-3.19364E-02 2.16456E+00 2.22222E-13-5.36376E-14
 -1      3548 2.01949E+01 1.66052E+00-2.62917E-03-2.82728E-01-3.51023E-14-3.00024E-13
 -1      3549 2.02485E+01 1.49092E+00 4.03094E-03-2.66310E-01-4.99459E-14-2.62764E-13
 -1      3550 2.01824E+01 1.71580E+00-1.24014E-03-1.96097E-01-2.05150E-14-3.08870E-13
 -1      3551 2.02452E+01 1.61662E-01-6.65003E-04-7.98867E-02 4.61100E-14-1.50594E-13
 -1      3552 2.21554E+01-4.33164E+00 7.01931E-02-2.46552E+00-5.12908E-14-6.08983E-14
 -1      3553 2.03427E+01-3.94886E+00-9.01179E-03-3.22614E+00-1.42282E-14-6.88026E-14
 -1      3554 1.33498E+01-1.30580E+00 7.64391E-02 3.25187E+00 5.20035E-14 6.83550E-14
 -1      3555 1.28841E+01-8.40418E-01 2.73646E-02 2.39641E+00 1.31244E-13-3.97529E-14
 -1      3556 1.50463E+01-1.40065E+00 4.08006E-02 3.21349E+00 1.91416E-13 1.17614E-13
 -1      3557 2.01703E+01-1.55399E-02-7.02707E-04-1.48620E-01 5.93490E-14-1.07959E-13
 -1      3558 2.02783E+01 1.00965E+00-4.66763E-03-3.78231E-01-1.56733E-13-2.23616E-13
 -1      3559 2.02858E+01 6.86594E-01 1.12376E-03 2.66705E-01 1.70538E-13-1.80303E-13
 -1      3560 2.01338E+01 1.92382E+00 3.93305E-03-9.36021E-02-7.42123E-15-3.18606E-13
 -1      3561 1.15970E+01-4.82601E-01 4.41594E-02 9.71820E-01 2.23552E-13-4.44512E-13
 -1      3562 1.07819E+01-5.31339E-01 1.38556E-01 1.44480E-01 2.31303E-13-6.34826E-13
 -1      3563 1.13445E+01-5.65629E-01-1.47737E-02-7.50612E-01 1.13921E-13-6.09415E-13
 -1      3564 1.76290E+01-2.84199E+00 6.50947E-02 3.90688E+00 2.04304E-13 2.65586E-14
 -1      3565 2.02772E+01 1.14193E+00-4.89043E-03 4.92293E-01 1.85235E-13-2.15607E-13
 -1      3566 2.02649E+01 1.28637E+00-2.06340E-04 4.52740E-01 1.50831E-13-2.53243E-13
 -1      3567 2.03012E+01 1.00735E+00-1.99212E-03-3.19810E-01-1.21943E-13-2.02834E-13
 -1      3568 1.33811E+01-1.47946E+00 6.87704E-02-2.88890E+00 8.74266E-14-3.07462E-13
 -1      3569 2.02209E+01 1.54865E+00-3.79113E-03 2.85210E-01 1.05344E-13-3.16852E-13
 -1      3570 2.02099E+01 1.60696E+00-1.97685E-03 2.00875E-01 7.27347E-14-2.98770E-13
 -1      3571 2.02806E+01 1.38458E+00 3.17373E-03 1.32307E-01 4.99982E-14-2.56380E-13
 -1      3572 2.02015E+01 1.64104E+00-2.87851E-03 1.30401E-01 5.93877E-14-2.60644E-13
 -1      3573 2.01975E+01 1.66197E+00-1.87016E-03 3.97883E-02 2.91331E-14-2.49453E-13
 -1      3574 2.03032E+01 1.05093E+00-2.11655E-03-2.67309E-01-9.00110E-14-1.75767E-13
 -1      3575 2.03531E+01 7.00928E-01-8.63762E-04-1.47338E-01-1.05234E-13-1.31598E-13
 -1      3576 2.03478E+01 5.47495E-01-2.66335E-03-7.45090E-02-8.66537E-14-1.27860E-13
 -1      3577 2.03556E+01 4.16885E-01 1.58291E-03-2.83611E-02-8.07316E-14-1.27398E-13
 -1      3578 2.03393E+01 3.05615E-01-1.76019E-03 1.95069E-02-4.82561E-14-1.31912E-13
 -1      3579 2.03760E+01 5.35036E-01 1.26981E-03-5.32885E-02-8.19970E-14-1.31053E-13
 -1      3580 2.03322E+01 2.15973E-01 1.32299E-03 4.83928E-02-2.38220E-14-1.61261E-13
 -1      3581 2.03113E+01 1.40950E-01-1.05579E-03 7.75163E-02-2.73263E-14-1.54355E-13
 -1      3582 2.03667E+01 2.94172E-01 2.95695E-04 2.23329E-02-5.28687E-14-1.49804E-13
 -1      3583 2.02960E+01 8.16457E-02 1.07547E-03 9.35729E-02-2.12795E-14-1.29156E-13
 -1      3584 2.02744E+01 3.30308E-02-5.26401E-04 1.08744E-01-2.09514E-14-1.24906E-13
 -1      3585 2.03376E+01 1.30378E-01-1.19742E-04 6.93730E-02-2.02151E-14-1.72326E-13
 -1      3586 2.02551E+01-4.29662E-03 8.04687E-04 1.15422E-01-2.76191E-15-1.22197E-13
 -1      3587 2.02347E+01-3.38993E-02-1.54757E-04 1.20900E-01 3.48337E-14-1.18809E-13
 -1      3588 2.02986E+01 2.30521E-02-3.77720E-04 9.43798E-02-8.95562E-15-1.48903E-13
 -1      3589 2.02143E+01-5.56311E-02 5.69886E-04 1.21263E-01 3.89347E-14-1.17225E-13
 -1      3590 2.01960E+01-7.18539E-02 8.76762E-05 1.20437E-01 2.28489E-14-1.30624E-13
 -1      3591 2.02562E+01-4.30765E-02-5.03283E-04 1.03714E-01 2.88122E-14-1.40037E-13
 -1      3592 2.01763E+01-8.27520E-02 3.80553E-04 1.16891E-01-1.73566E-14-1.35192E-13
 -1      3593 2.01607E+01-8.97826E-02 2.33374E-04 1.12317E-01-3.20881E-14-1.56733E-13
 -1      3594 2.02147E+01-7.99921E-02-5.46413E-04 1.02682E-01 6.55457E-15-1.70419E-13
 -1      3595 2.01427E+01-9.33445E-02 2.35792E-04 1.06654E-01-5.04104E-14-1.71787E-13
 -1      3596 2.01297E+01-9.42318E-02 3.10197E-04 1.00179E-01-7.23508E-14-1.78153E-13
 -1      3597 2.01765E+01-9.66921E-02-5.36293E-04 9.54062E-02-5.15756E-14-1.12790E-13
 -1      3598 2.01138E+01-9.29620E-02 1.27707E-04 9.36722E-02-7.52921E-14-1.86123E-13
 -1      3599 2.01033E+01-8.98585E-02 3.40999E-04 8.65860E-02-5.63862E-14-1.64298E-13
 -1      3600 2.01427E+01-9.97862E-02-4.94040E-04 8.49167E-02-6.54658E-14-1.25322E-13
 -1      3601 2.00897E+01-8.54885E-02 4.70469E-05 8.01095E-02-3.84960E-14-1.75547E-13
 -1      3602 2.00813E+01-7.98487E-02 3.43262E-04 7.32947E-02-3.37085E-14-1.38307E-13
 -1      3603 2.01139E+01-9.39714E-02-4.33982E-04 7.33537E-02-4.50181E-14-1.19605E-13
 -1      3604 2.00699E+01-7.35130E-02-1.50142E-05 6.74365E-02-2.96223E-14-1.22373E-13
 -1      3605 2.00634E+01-6.62525E-02 3.29808E-04 6.14913E-02-5.09781E-14-7.60351E-14
 -1      3606 2.00897E+01-8.24408E-02-3.65098E-04 6.21899E-02-9.40832E-15-1.15098E-13
 -1      3607 2.00539E+01-5.86262E-02-6.63627E-05 5.66493E-02-1.23423E-14-8.00109E-14
 -1      3608 2.00487E+01-5.02461E-02 3.09721E-04 5.19894E-02 1.04913E-14-2.82813E-14
 -1      3609 2.00697E+01-6.72197E-02-2.92393E-04 5.24288E-02-2.59873E-15-8.89757E-14
 -1      3610 2.00407E+01-4.16521E-02-1.13911E-04 4.84470E-02-3.30258E-14-1.00417E-13
 -1      3611 2.00367E+01-3.23360E-02 2.89216E-04 4.53856E-02-3.76437E-14-1.06460E-14
 -1      3612 2.00531E+01-4.94330E-02-2.17935E-04 4.47702E-02-4.01315E-14-1.58016E-13
 -1      3613 2.00296E+01-2.28275E-02-1.63756E-04 4.33722E-02-4.97139E-14 5.41039E-14
 -1      3614 2.00263E+01-1.25166E-02 2.72349E-04 4.21810E-02-4.35211E-14 1.11478E-13
 -1      3615 2.00391E+01-2.95147E-02-1.41616E-04 3.97416E-02 1.57925E-14-1.40819E-13
 -1      3616 2.00196E+01-1.94231E-03-2.21373E-04 4.19182E-02 3.83828E-14 1.46019E-13
 -1      3617 2.00166E+01 9.60506E-03 2.61575E-04 4.28746E-02 9.86679E-14 1.34920E-13
 -1      3618 2.00265E+01-7.37114E-03-6.17037E-05 3.78014E-02 1.39148E-14 6.01372E-14
 -1      3619 2.00096E+01 2.15484E-02-2.91772E-04 4.46116E-02 3.13031E-14 1.05663E-13
 -1      3620 2.00064E+01 3.47062E-02 2.58155E-04 4.80330E-02 2.74150E-14 5.60903E-14
 -1      3621 2.00142E+01 1.74883E-02 2.47501E-05 3.94176E-02 6.47399E-14 5.86179E-14
 -1      3622 1.99985E+01 4.84269E-02-3.79569E-04 5.20728E-02-4.11855E-15 2.46032E-14
 -1      3623 1.99946E+01 6.36538E-02 2.62458E-04 5.83403E-02-3.05206E-15-2.44934E-14
 -1      3624 2.00008E+01 4.58409E-02 1.21569E-04 4.51279E-02-2.19902E-14-5.60060E-14
 -1      3625 1.99849E+01 7.96167E-02-4.88950E-04 6.50589E-02 3.23750E-14-3.73406E-14
 -1      3626 1.99798E+01 9.74037E-02 2.74208E-04 7.46311E-02 6.38648E-14-6.01239E-14
 -1      3627 1.99849E+01 7.86463E-02 2.33125E-04 5.55826E-02-1.07958E-14-1.24849E-13
 -1      3628 1.99674E+01 1.16073E-01-6.23505E-04 8.44889E-02 8.24920E-14-7.25745E-14
 -1      3629 1.99604E+01 1.36878E-01 2.92732E-04 9.79055E-02 1.18989E-13-1.15091E-14
 -1      3630 1.99647E+01 1.16933E-01 3.63960E-04 7.15736E-02 4.51326E-14-1.39573E-13
 -1      3631 1.99441E+01 1.58644E-01-7.85929E-04 1.11453E-01 1.39043E-13-3.84929E-14
 -1      3632 1.99344E+01 1.82802E-01 3.17356E-04 1.29327E-01 1.32322E-13 1.96042E-14
 -1      3633 1.99383E+01 1.61655E-01 5.18267E-04 9.40510E-02 1.59218E-13-1.26775E-14
 -1      3634 1.99131E+01 2.07874E-01-9.77593E-04 1.47202E-01 8.78478E-14-4.85029E-14
 -1      3635 1.99000E+01 2.35478E-01 3.48092E-04 1.70202E-01 2.01706E-14-3.10344E-14
 -1      3636 1.99033E+01 2.13509E-01 6.99145E-04 1.24127E-01 8.55803E-14-1.13378E-13
 -1      3637 1.98723E+01 2.63744E-01-1.19806E-03 1.93127E-01-4.46080E-14 2.74465E-14
 -1      3638 1.98549E+01 2.94468E-01 3.86941E-04 2.21944E-01-7.14019E-14 2.71139E-14
 -1      3639 1.98574E+01 2.72673E-01 9.07525E-04 1.63072E-01 1.86718E-14-1.89892E-14
 -1      3640 1.98194E+01 3.25293E-01-1.44461E-03 2.50718E-01-7.60263E-14-7.59947E-14
 -1      3641 1.97969E+01 3.58165E-01 4.40251E-04 2.86033E-01-2.70379E-14-1.28247E-13
 -1      3642 1.97979E+01 3.38456E-01 1.14062E-03 2.12305E-01-1.23507E-13-6.76036E-15
 -1      3643 1.97522E+01 3.90116E-01-1.71201E-03 3.21533E-01-1.13471E-14-1.96191E-13
 -1      3644 1.97241E+01 4.23205E-01 5.22810E-04 3.63976E-01-2.28596E-14-1.47925E-13
 -1      3645 1.97219E+01 4.08831E-01 1.38974E-03 2.73408E-01-2.86980E-15-1.63122E-13
 -1      3646 1.96690E+01 4.53692E-01-1.99265E-03 4.07190E-01 1.38823E-14-1.21221E-13
 -1      3647 1.96351E+01 4.83704E-01 6.64668E-04 4.57327E-01 6.31326E-14 2.52296E-14
 -1      3648 1.96269E+01 4.79811E-01 1.63722E-03 3.48166E-01 6.76633E-14-1.04204E-13
 -1      3649 1.95689E+01 5.08511E-01-2.27693E-03 5.09442E-01-4.59350E-14 7.90946E-14
 -1      3650 1.95301E+01 5.30278E-01 9.21924E-04 5.67811E-01-9.22706E-14 1.06045E-13
 -1      3651 1.95109E+01 5.44666E-01 1.85198E-03 4.38729E-01-5.79243E-15-1.94883E-14
 -1      3652 1.94529E+01 5.42980E-01-2.55285E-03 6.30407E-01-1.37015E-13 6.93452E-14
 -1      3653 1.94117E+01 5.48833E-01 1.39277E-03 6.97643E-01-1.48937E-13 1.16946E-13
 -1      3654 1.93731E+01 5.92955E-01 1.98261E-03 5.47938E-01-1.05894E-13 7.21299E-14
 -1      3655 1.93250E+01 5.40080E-01-2.80089E-03 7.73068E-01 4.30107E-15 1.35327E-13
 -1      3656 1.92871E+01 5.19097E-01 2.23830E-03 8.50145E-01 2.00586E-13 1.46393E-13
 -1      3657 1.92148E+01 6.09351E-01 1.94501E-03 6.79994E-01-8.25886E-15 2.63373E-13
 -1      3658 1.91945E+01 4.75775E-01-2.97397E-03 9.42105E-01 1.86670E-13 1.26207E-15
 -1      3659 1.91703E+01 4.12880E-01 3.69927E-03 1.03065E+00 7.34830E-14 1.94974E-14
 -1      3660 1.90411E+01 5.72212E-01 1.59583E-03 8.41579E-01 8.66447E-14 8.70455E-14
 -1      3661 1.90800E+01 3.17156E-01-2.94153E-03 1.14497E+00-1.12900E-14 7.47859E-14
 -1      3662 1.90876E+01 1.92089E-01 6.10081E-03 1.24739E+00 2.11460E-14 1.55583E-13
 -1      3663 1.88629E+01 4.51734E-01 6.70933E-04 1.04354E+00 1.18004E-13 7.94523E-14
 -1      3664 1.90148E+01 2.05454E-02-2.33403E-03 1.39259E+00 8.64107E-14 1.98660E-13
 -1      3665 1.90846E+01-1.93123E-01 9.83946E-03 1.51115E+00 5.83051E-14 2.62576E-13
 -1      3666 1.87016E+01 2.07478E-01-1.32912E-03 1.30282E+00 7.92902E-14 1.79794E-13
 -1      3667 1.90582E+01-4.70701E-01-3.18105E-04 1.69853E+00 4.57309E-14 2.73822E-13
 -1      3668 1.92358E+01-8.07300E-01 1.41923E-02 1.83156E+00 9.62514E-14 2.87425E-13
 -1      3669 1.85960E+01-2.14596E-01-5.38082E-03 1.64412E+00 1.07511E-13 2.39703E-13
 -1      3670 1.93190E+01-1.22827E+00 6.39592E-03 2.06304E+00 5.09588E-14 2.52086E-13
 -1      3671 1.96941E+01-1.71963E+00 2.43961E-02 2.19026E+00 1.29979E-13 2.06111E-13
 -1      3672 1.86309E+01-8.93883E-01-1.07694E-02 2.10063E+00 3.12114E-14 2.30586E-13
 -1      3673 2.62215E+01-5.27462E+00 2.39952E-02 3.55534E-01 1.02276E-13 1.63480E-13
 -1      3674 2.00691E+01-7.67993E-02 3.53139E-04-8.34086E-02-5.49789E-14-6.76710E-14
 -1      3675 2.00758E+01-8.17844E-02 2.30220E-05-9.11269E-02-5.33571E-14-5.29689E-14
 -1      3676 2.00882E+01-8.55052E-02 3.47647E-04-9.85384E-02-2.88436E-15-4.03450E-14
 -1      3677 2.00968E+01-8.79908E-02 1.12526E-04-1.06483E-01 2.75122E-14-8.66866E-15
 -1      3678 2.01026E+01-9.07059E-02-4.14007E-04-8.61177E-02-1.61352E-14-2.99861E-14
 -1      3679 2.01392E+01-8.31219E-02 2.29146E-04-1.27190E-01 7.66246E-15-7.72233E-14
 -1      3680 2.01529E+01-7.55910E-02 4.12823E-04-1.32137E-01 1.72642E-14-7.83499E-14
 -1      3681 2.00537E+01-6.45941E-02 3.42536E-04-6.97879E-02-4.07604E-14 6.16217E-14
 -1      3682 2.00588E+01-7.11575E-02-4.16828E-05-7.66107E-02-3.85387E-14-2.94293E-15
 -1      3683 2.00806E+01-8.05108E-02-3.47067E-04-7.30021E-02-7.52479E-14-1.36360E-14
 -1      3684 2.00416E+01-5.00914E-02 3.25548E-04-5.86031E-02 9.98175E-15-2.24402E-14
 -1      3685 2.00452E+01-5.77147E-02-9.14441E-05-6.40719E-02 1.51520E-14 6.41061E-14
 -1      3686 2.00627E+01-6.66678E-02-2.79535E-04-6.13620E-02-2.20181E-14 6.77949E-14
 -1      3687 2.00318E+01-3.38416E-02 3.08919E-04-5.05192E-02 7.45479E-14-3.56622E-14
 -1      3688 2.00345E+01-4.23165E-02-1.34587E-04-5.42964E-02 6.43972E-14 1.01974E-14
 -1      3689 2.00481E+01-5.03531E-02-2.12786E-04-5.20197E-02 4.08261E-14 1.55795E-16
 -1      3690 2.00238E+01-1.58927E-02 2.97138E-04-4.60787E-02-1.70184E-14 3.96595E-14
 -1      3691 2.00258E+01-2.52503E-02-1.78201E-04-4.78782E-02 5.60503E-14-3.16280E-14
 -1      3692 2.00361E+01-3.20601E-02-1.46292E-04-4.55807E-02 4.36346E-14-6.79589E-14
 -1      3693 2.00166E+01 4.09637E-03 2.92966E-04-4.58075E-02-9.39327E-14 4.66135E-14
 -1      3694 2.00182E+01-6.36060E-03-2.28480E-04-4.53422E-02-4.76629E-14 7.49886E-14
 -1      3695 2.00256E+01-1.17561E-02-7.80489E-05-4.25538E-02-4.58620E-14 1.81451E-14
 -1      3696 2.00095E+01 2.67684E-02 2.97766E-04-5.02946E-02 2.70578E-14 1.43484E-15
 -1      3697 2.00110E+01 1.48518E-02-2.91008E-04-4.72369E-02-1.54266E-14 8.96454E-16
 -1      3698 2.00157E+01 1.09993E-02-4.82691E-06-4.34431E-02-2.75758E-14-2.67448E-14
 -1      3699 2.00013E+01 5.29947E-02 3.11661E-04-6.02483E-02 7.49961E-16 4.04948E-14
 -1      3700 2.00032E+01 3.91505E-02-3.70976E-04-5.42031E-02 1.60206E-14 2.80593E-14
 -1      3701 2.00053E+01 3.69586E-02 7.76994E-05-4.88147E-02-2.44223E-14-2.42681E-14
 -1      3702 1.99909E+01 8.38071E-02 3.33539E-04-7.65309E-02-9.04746E-14 5.82821E-14
 -1      3703 1.99936E+01 6.74945E-02-4.73298E-04-6.70196E-02-3.84798E-15 8.01496E-14
 -1      3704 1.99929E+01 6.71059E-02 1.74906E-04-5.93426E-02-2.97904E-14 4.85318E-14
 -1      3705 1.99769E+01 1.20322E-01 3.60941E-04-1.00172E-01-5.48079E-15-7.01455E-14
 -1      3706 1.99809E+01 1.00967E-01-6.02622E-04-8.66279E-02-7.77465E-14-1.71860E-14
 -1      3707 1.99771E+01 1.02577E-01 2.93229E-04-7.58324E-02-4.51363E-14 3.78592E-16
 -1      3708 1.99575E+01 1.63641E-01 3.89906E-04-1.32357E-01 7.62795E-14 3.51122E-15
 -1      3709 1.99635E+01 1.40693E-01-7.63234E-04-1.14134E-01 7.08958E-14 1.96972E-14
 -1      3710 1.99560E+01 1.44568E-01 4.40187E-04-9.92254E-02-1.30226E-14-6.98454E-14
 -1      3711 1.99306E+01 2.14717E-01 4.14922E-04-1.74385E-01-3.05854E-14-5.18733E-14
 -1      3712 1.99395E+01 1.87719E-01-9.58877E-04-1.50786E-01 6.77129E-14 5.65284E-15
 -1      3713 1.99274E+01 1.94218E-01 6.24371E-04-1.30576E-01 4.82337E-14 1.20775E-14
 -1      3714 1.98935E+01 2.74151E-01 4.29263E-04-2.27603E-01-1.94714E-13-5.61881E-14
 -1      3715 1.99064E+01 2.42854E-01-1.19254E-03-1.97919E-01-1.23942E-13-2.03471E-14
 -1      3716 1.98886E+01 2.52440E-01 8.55327E-04-1.71007E-01-4.58826E-14-5.24667E-14
 -1      3717 1.98431E+01 3.41900E-01 4.26232E-04-2.93300E-01-8.82513E-14-9.51896E-14
 -1      3718 1.98614E+01 3.06422E-01-1.46636E-03-2.56872E-01-1.61997E-13-1.32737E-13
 -1      3719 1.98364E+01 3.19687E-01 1.14321E-03-2.21632E-01-8.20842E-14-1.90087E-13
 -1      3720 1.97758E+01 4.16843E-01 4.02209E-04-3.72596E-01 1.33332E-13-2.62599E-13
 -1      3721 1.98010E+01 3.77907E-01-1.78190E-03-3.28885E-01 5.56177E-14-6.21615E-14
 -1      3722 1.97669E+01 3.95614E-01 1.49807E-03-2.83468E-01 6.77563E-15-2.62334E-13
 -1      3723 1.96872E+01 4.96163E-01 3.62997E-04-4.66344E-01 1.24179E-13-1.20499E-13
 -1      3724 1.97213E+01 4.55431E-01-2.14135E-03-4.14993E-01 8.43504E-14-1.82358E-13
 -1      3725 1.96757E+01 4.78603E-01 1.92846E-03-3.57353E-01 4.88251E-14-3.10515E-14
 -1      3726 1.95731E+01 5.74443E-01 3.35765E-04-5.75136E-01 1.35060E-13-1.77749E-13
 -1      3727 1.96176E+01 5.34999E-01-2.55041E-03-5.15983E-01 2.20101E-13-3.06595E-14
 -1      3728 1.95576E+01 5.65101E-01 2.43918E-03-4.43935E-01 1.23928E-13-4.45474E-15
 -1      3729 1.94290E+01 6.42409E-01 3.90013E-04-6.99562E-01-2.37051E-14-2.38998E-13
 -1      3730 1.94854E+01 6.09427E-01-3.02400E-03-6.32525E-01 3.40091E-14-2.12601E-13
 -1      3731 1.94071E+01 6.48719E-01 3.02745E-03-5.43834E-01 1.35215E-13-8.81187E-14
 -1      3732 1.92521E+01 6.85165E-01 6.71951E-04-8.40973E-01-1.53975E-14-2.59674E-13
 -1      3733 1.93202E+01 6.66835E-01-3.59533E-03-7.65677E-01-5.89021E-14-3.52851E-13
 -1      3734 1.92184E+01 7.19027E-01 3.67657E-03-6.58215E-01-1.39984E-16-7.13355E-14
 -1      3735 1.90426E+01 6.79758E-01 1.45325E-03-1.00311E+00 9.59343E-14-7.71191E-14
 -1      3736 1.91196E+01 6.88560E-01-4.32538E-03-9.18099E-01 6.36055E-14-1.58446E-13
 -1      3737 1.89858E+01 7.59952E-01 4.34339E-03-7.90085E-01-7.71606E-14-1.06194E-13
 -1      3738 1.88078E+01 5.91786E-01 3.16808E-03-1.19498E+00 8.47186E-14 7.97488E-14
 -1      3739 1.88847E+01 6.46284E-01-5.29909E-03-1.09639E+00 8.53306E-14-3.42837E-14
 -1      3740 1.87053E+01 7.47586E-01 4.92619E-03-9.46860E-01 3.04645E-15 1.20836E-13
 -1      3741 1.85681E+01 3.71111E-01 6.59361E-03-1.43484E+00-1.74565E-13 1.40863E-13
 -1      3742 1.86250E+01 4.98102E-01-6.57868E-03-1.31472E+00-1.55569E-14 1.27478E-13
 -1      3743 1.83760E+01 6.46907E-01 5.18979E-03-1.14466E+00-3.62424E-14 1.57651E-13
 -1      3744 1.83683E+01-5.37978E-02 1.32162E-02-1.75481E+00-2.67185E-13 2.40727E-13
 -1      3745 1.83663E+01 1.83623E-01-7.95461E-03-1.60017E+00-2.09017E-13 2.10123E-13
 -1      3746 1.80042E+01 4.08116E-01 4.89666E-03-1.41455E+00-2.06026E-13 1.86190E-13
 -1      3747 1.82982E+01-7.87248E-01 2.39965E-02-2.20068E+00-1.61453E-13 4.52683E-14
 -1      3748 1.81685E+01-3.86067E-01-8.04956E-03-1.99700E+00-2.16736E-13 2.06273E-13
 -1      3749 1.76129E+01-4.16723E-02 4.82849E-03-1.81544E+00-2.07033E-13 1.53092E-13
 -1      3750 1.84211E+01-2.03579E+00 2.39937E-03-2.85699E+00 1.91756E-14 1.37734E-13
 -1      3751 1.81394E+01-1.30048E+00 3.38529E-03-2.56112E+00-8.26147E-14 9.04415E-14
 -1      3752 1.72799E+01-7.97886E-01 1.81221E-02-2.42326E+00-1.42327E-13 1.60267E-13
 -1      3753 2.01713E+01-6.42946E-02 7.34401E-05-1.35707E-01 2.73912E-14-1.26903E-13
 -1      3754 2.01879E+01-4.76787E-02 6.50118E-04-1.36325E-01 4.43773E-14-1.18911E-13
 -1      3755 2.01960E+01-7.27073E-02-5.52464E-04-1.19296E-01 2.26503E-16-6.94242E-14
 -1      3756 2.03248E+01 5.56551E-01-2.55931E-03 1.00077E-01 1.37117E-13-1.70030E-13
 -1      3757 2.03332E+01 7.14598E-01 4.40054E-04 1.83449E-01 1.58181E-13-1.75947E-13
 -1      3758 2.03113E+01 3.13498E-01-1.89761E-03-1.22035E-02 8.53061E-14-1.79319E-13
 -1      3759 2.03313E+01 4.24888E-01 2.07307E-03 4.35763E-02 1.14186E-13-1.72692E-13
 -1      3760 2.03555E+01 5.51412E-01 8.65871E-04 7.59896E-02 1.21324E-13-1.69863E-13
 -1      3761 2.02715E+01 9.56406E-01 1.87379E-03 4.62249E-01 2.08978E-13-1.94600E-13
 -1      3762 2.02849E+01 8.23383E-01 1.91348E-03 3.36769E-01 1.93872E-13-1.73818E-13
 -1      3763 1.74666E+01-2.89672E+00 4.61591E-03-3.66607E+00 7.32834E-14 1.94927E-13
 -1      3764 1.87792E+01-3.90668E+00 1.21993E-01-4.05082E+00 5.40436E-14 3.16108E-13
 -1      3765 2.02071E+01-2.57239E-02-1.83600E-04-1.35124E-01 7.05641E-14-1.16837E-13
 -1      3766 2.02264E+01 4.10831E-03 9.48632E-04-1.28484E-01 1.02130E-13-1.18887E-13
 -1      3767 2.02352E+01-3.44302E-02-5.32617E-04-1.19489E-01 5.67516E-14-1.22583E-13
 -1      3768 2.01114E+01-8.86631E-02 3.12475E-04-1.13810E-01 1.64363E-14-3.29185E-14
 -1      3769 2.01225E+01-8.72038E-02 2.38280E-04-1.20986E-01 9.92541E-15-5.60304E-14
 -1      3770 2.01291E+01-9.51913E-02-4.76433E-04-9.95139E-02 7.06874E-15-3.56652E-14
 -1      3771 2.02815E+01 1.49100E-01-1.14924E-03-8.17469E-02 3.76531E-14-1.53794E-13
 -1      3772 2.03037E+01 2.24098E-01 1.65583E-03-4.78627E-02 5.27823E-14-1.62652E-13
 -1      3773 2.03442E+01 3.07516E-01 1.17252E-04-1.71352E-02 5.71215E-14-1.66868E-13
 -1      3774 1.87151E+01-3.03798E+00-4.82194E-02 3.54650E+00 1.74271E-13-3.38583E-14
 -1      3775 1.70342E+01-2.02807E+00 3.48802E-02 3.44384E+00 1.62382E-13 6.47416E-14
 -1      3776 2.02449E+01 4.14120E-02-5.79384E-04-1.19640E-01 8.66371E-14-1.35632E-13
 -1      3777 2.02664E+01 9.00473E-02 1.29703E-03-1.01850E-01 6.11415E-14-1.27545E-13
 -1      3778 2.03142E+01 1.41802E-01-2.36423E-04-7.54422E-02 3.61437E-14-1.50908E-13
 -1      3779 2.02758E+01 3.30182E-02-4.58936E-04-1.06990E-01 7.56988E-14-1.37682E-13
 -1      3780 2.02499E+01 1.38355E+00-4.56982E-03 4.13077E-01 1.23694E-13-2.95308E-13
 -1      3781 2.02355E+01 1.48259E+00-1.34770E-03 3.44319E-01 1.10465E-13-3.13265E-13
 -1      3782 2.02932E+01 1.28318E+00 3.27338E-03 2.49696E-01 7.87792E-14-3.01687E-13
 -1      3783 2.03029E+01 1.11514E+00 2.96354E-03 3.35388E-01 1.47966E-13-2.44397E-13
 -1      3784 2.19285E+01-4.84284E+00 4.43626E-02 3.17132E+00 1.43387E-13 2.04715E-14
 -1      3785 2.03045E+01 8.72580E-01 1.12940E-03 2.98139E-01 1.82206E-13-1.70967E-13
 -1      3786 2.03232E+01 8.32323E-01-6.54942E-06 2.21278E-01 1.65608E-13-1.97324E-13
 -1      3787 2.03152E+01 9.68361E-01-1.40171E-03 2.88175E-01 1.59594E-13-2.17475E-13
 -1      3788 2.03156E+01 1.07146E+00 1.10943E-03 2.60528E-01 1.15661E-13-2.65532E-13
 -1      3789 2.03447E+01 8.09062E-01-7.17390E-04 1.74101E-01 1.43500E-13-1.80858E-13
 -1      3790 2.01838E+01 1.70889E+00-2.38108E-03-2.79608E-02 1.25016E-14-2.83722E-13
 -1      3791 2.01881E+01 1.69433E+00-1.96747E-03-1.19776E-01-9.34447E-15-3.14845E-13
 -1      3792 2.02439E+01 1.52882E+00 2.79708E-03-1.27360E-01-8.52955E-15-3.00160E-13
 -1      3793 2.02634E+01 1.46273E+00 2.77267E-03 6.69729E-03 6.25473E-15-2.39623E-13
 -1      3794 1.29334E+01-5.00974E-01 1.34470E-01-1.92261E+00 6.12045E-14-4.62290E-13
 -1      3795 1.47239E+01-1.33183E+00-2.43296E-02-2.88594E+00-9.20700E-14-1.26853E-13
 -1      3796 2.02947E+01 1.22518E+00-3.55492E-03-2.50197E-01-7.48295E-14-2.13092E-13
 -1      3797 2.03421E+01 9.03131E-01 3.04325E-03-1.84556E-01-8.24963E-14-1.57930E-13
 -1      3798 2.03557E+01 8.62981E-01-6.48386E-04-1.37554E-01-6.31558E-14-1.77092E-13
 -1      3799 2.02863E+01 1.29179E+00-1.44128E-03-1.87299E-01-3.72286E-14-2.56594E-13
 -1      3800 2.07576E+01-3.62897E+00 3.87332E-02 2.93423E+00 3.46096E-13 2.58162E-14
 -1      3801 2.01318E+01-2.83612E+00 3.72758E-02 2.70921E+00 3.14689E-13 8.34202E-14
 -1      3802 1.65948E+01-1.61035E+00 1.13900E-01-3.21121E+00 4.23923E-14 2.61331E-13
 -1      3803 1.80391E+01-2.36419E+00-6.19150E-03-3.16205E+00 5.83678E-14 2.00368E-13
 -1      3804 1.95169E+01-2.17624E+00 1.95709E-02 2.59858E+00 1.93485E-13 9.46923E-14
 -1      3805 1.30458E+01-3.22577E-01 3.68640E-02-1.08290E+00 7.68482E-15-4.77250E-13
 -1      3806 1.76015E+01-1.62802E+00 3.20546E-02 2.94722E+00 6.55014E-14-9.37783E-14
 -1      3807 1.63458E+01-1.59044E+00 2.42455E-02 3.28549E+00 1.02981E-13 1.93214E-14
 -1      3808 1.56565E+01-1.10048E+00 2.71377E-03 2.83957E+00 6.02218E-14 2.99656E-14
 -1      3809 2.01603E+01-9.07568E-02-5.26866E-04-1.11428E-01 5.77185E-15-5.39024E-14
 -1      3810 1.41067E+01-5.06876E-01 1.75898E-02 2.13429E+00 1.26669E-13 4.66814E-15
 -1      3811 1.27945E+01-3.95239E-01 7.73979E-02 1.72939E+00 1.58915E-13-1.89113E-13
 -1      3812 1.28073E+01-2.15161E-01-1.41574E-02 9.09379E-01 1.98450E-13-4.65308E-13
 -1      3813 2.01416E+01-4.41179E+00-2.05381E-06-3.56258E+00 3.87225E-14 1.26496E-13
 -1      3814 1.84927E+01-1.74401E+00-1.63512E-02 2.74489E+00 1.34270E-13 8.60685E-14
 -1      3815 2.03143E+01 1.12834E+00-2.15933E-03 2.21773E-01 6.58640E-14-2.96084E-13
 -1      3816 2.03107E+01 1.19937E+00 5.25346E-04 1.73797E-01 5.88391E-14-2.73946E-13
 -1      3817 2.03403E+01 9.96528E-01 1.79504E-03 1.80362E-01 7.97143E-14-2.56570E-13
 -1      3818 2.03068E+01 1.22979E+00-1.83542E-03 1.23691E-01 3.73087E-14-2.43290E-13
 -1      3819 2.03037E+01 1.26658E+00 1.72169E-04 6.57898E-02 1.48366E-14-2.21741E-13
 -1      3820 2.03423E+01 1.09515E+00 2.76372E-03 1.03562E-01 2.70935E-14-2.40152E-13
 -1      3821 1.55576E+01-9.57345E-01-2.98737E-02-2.51784E+00-6.18490E-14-9.59441E-14
 -1      3822 2.03956E+01 3.63709E-01 7.88424E-04-2.94770E-05-6.44972E-14-1.46030E-13
 -1      3823 2.03828E+01 2.60022E-01-1.23657E-03 3.05698E-02-5.67815E-14-1.76541E-13
 -1      3824 2.03737E+01 1.75462E-01 7.21312E-04 4.57208E-02-3.58894E-14-1.84053E-13
 -1      3825 2.03545E+01 1.05529E-01-7.01974E-04 6.39270E-02-1.93148E-14-1.83357E-13
 -1      3826 2.03984E+01 2.39010E-01 4.00478E-04 2.68367E-02-5.87213E-14-1.94841E-13
 -1      3827 2.03370E+01 5.00831E-02 6.28092E-04 7.15668E-02-1.03500E-14-1.76825E-13
 -1      3828 2.03151E+01 5.33788E-03-2.91146E-04 8.06878E-02 2.48254E-15-1.63388E-13
 -1      3829 2.03671E+01 8.92232E-02-1.59126E-04 5.09134E-02-2.16608E-14-1.94543E-13
 -1      3830 2.02938E+01-2.89834E-02 5.28420E-04 8.30411E-02 2.79170E-14-1.44989E-13
 -1      3831 2.02717E+01-5.55309E-02-1.01594E-05 8.58234E-02 4.75229E-14-1.44237E-13
 -1      3832 2.03255E+01-7.14355E-03-3.99474E-04 6.28370E-02 2.01968E-14-1.46201E-13
 -1      3833 2.02493E+01-7.47526E-02 4.18789E-04 8.46829E-02 3.57203E-14-1.51709E-13
 -1      3834 2.02287E+01-8.84670E-02 1.69687E-04 8.33915E-02 8.91478E-15-1.40889E-13
 -1      3835 2.02801E+01-6.49925E-02-5.30247E-04 6.61309E-02 3.42194E-14-1.15709E-13
 -1      3836 2.02071E+01-9.72124E-02 3.20063E-04 8.01947E-02-2.44954E-15-1.29144E-13
 -1      3837 2.01887E+01-1.02142E-01 2.71395E-04 7.65421E-02-4.23996E-14-8.21716E-14
 -1      3838 2.02354E+01-9.54571E-02-5.77431E-04 6.38697E-02 2.00516E-15-1.64902E-13
 -1      3839 2.01690E+01-1.03823E-01 2.34663E-04 7.23342E-02-7.46594E-14-8.44541E-14
 -1      3840 2.01532E+01-1.02911E-01 3.17986E-04 6.75609E-02-6.40559E-14-1.04460E-13
 -1      3841 2.01940E+01-1.07064E-01-5.67758E-04 5.84069E-02-2.80179E-14-9.77088E-14
 -1      3842 2.01358E+01-9.99588E-02 1.61779E-04 6.30761E-02-7.68244E-14-1.14541E-13
 -1      3843 2.01225E+01-9.52592E-02 3.28070E-04 5.80532E-02-5.46163E-14-1.21407E-13
 -1      3844 2.01572E+01-1.06054E-01-5.22473E-04 5.14481E-02-7.14582E-14-7.29854E-14
 -1      3845 2.01076E+01-8.93306E-02 9.87759E-05 5.37932E-02-1.78071E-14-1.43646E-13
 -1      3846 2.00967E+01-8.22035E-02 3.15635E-04 4.91215E-02 1.20059E-14-1.24308E-13
 -1      3847 2.01255E+01-9.68107E-02-4.56271E-04 4.41949E-02-4.72634E-14-1.70237E-13
 -1      3848 2.00840E+01-7.43508E-02 4.20837E-05 4.54250E-02 2.76102E-14-2.03078E-13
 -1      3849 2.00750E+01-6.56147E-02 2.90679E-04 4.15203E-02-9.06526E-15-1.92918E-13
 -1      3850 2.00987E+01-8.22487E-02-3.78488E-04 3.74769E-02 1.14710E-14-2.26245E-13
 -1      3851 2.00643E+01-5.64239E-02-1.22487E-05 3.86214E-02-4.19109E-14-1.77775E-13
 -1      3852 2.00569E+01-4.64802E-02 2.59976E-04 3.57847E-02-5.77769E-14-1.75654E-13
 -1      3853 2.00762E+01-6.41373E-02-2.94255E-04 3.18677E-02-3.26600E-14-2.22824E-13
 -1      3854 2.00475E+01-3.61784E-02-6.83354E-05 3.38598E-02-2.83843E-15-1.33736E-13
 -1      3855 2.00411E+01-2.51086E-02 2.27797E-04 3.23319E-02 6.05350E-14-6.64729E-14
 -1      3856 2.00569E+01-4.33603E-02-2.05480E-04 2.77822E-02-2.82624E-14-9.60089E-14
 -1      3857 2.00324E+01-1.36489E-02-1.30390E-04 3.15371E-02 4.73809E-14-9.64781E-14
 -1      3858 2.00265E+01-1.29090E-03 1.96532E-04 3.15418E-02 5.73831E-14-7.61360E-14
 -1      3859 2.00399E+01-2.01213E-02-1.11613E-04 2.55547E-02 2.19880E-14-2.03672E-13
 -1      3860 2.00179E+01 1.15804E-02-2.02713E-04 3.20418E-02 2.33255E-14-7.56203E-14
 -1      3861 2.00118E+01 2.55700E-02 1.67188E-04 3.38181E-02-6.63059E-16-1.42615E-13
 -1      3862 2.00237E+01 5.89371E-03-1.02488E-05 2.54995E-02 2.02195E-14-1.85942E-13
 -1      3863 2.00024E+01 4.02569E-02-2.89685E-04 3.58087E-02-5.94402E-15-1.03739E-13
 -1      3864 1.99955E+01 5.63481E-02 1.39782E-04 3.96349E-02-5.07546E-14-1.62201E-13
 -1      3865 2.00068E+01 3.53838E-02 1.02415E-04 2.79593E-02-1.17399E-14-2.49887E-13
 -1      3866 1.99843E+01 7.33512E-02-3.95721E-04 4.33611E-02-2.75204E-14-1.02343E-13
 -1      3867 1.99758E+01 9.20856E-02 1.13696E-04 4.95716E-02 5.46918E-15-1.26860E-13
 -1      3868 1.99876E+01 6.93164E-02 2.31186E-04 3.33424E-02 2.91547E-15-1.96085E-13
 -1      3869 1.99617E+01 1.11945E-01-5.25182E-04 5.53416E-02 6.55550E-14-1.09346E-13
 -1      3870 1.99506E+01 1.33873E-01 8.80241E-05 6.43371E-02 1.28868E-13-5.97848E-14
 -1      3871 1.99639E+01 1.08811E-01 3.81509E-04 4.21522E-02 5.33266E-14-9.44777E-14
 -1      3872 1.99324E+01 1.57097E-01-6.82250E-04 7.25338E-02 1.52648E-13-1.07496E-13
 -1      3873 1.99177E+01 1.82696E-01 6.20121E-05 8.47861E-02 1.40104E-13-9.09046E-14
 -1      3874 1.99336E+01 1.55007E-01 5.59045E-04 5.50108E-02 1.48211E-13-1.32216E-13
 -1      3875 1.98939E+01 2.09670E-01-8.70797E-04 9.58771E-02 8.07967E-14-4.44071E-14
 -1      3876 1.98745E+01 2.39239E-01 3.57065E-05 1.11929E-01 7.08769E-14-6.04447E-14
 -1      3877 1.98940E+01 2.08896E-01 7.69181E-04 7.26801E-02 1.16079E-13-1.69789E-13
 -1      3878 1.98435E+01 2.70097E-01-1.09435E-03 1.26478E-01-3.61958E-15-9.03952E-14
 -1      3879 1.98180E+01 3.03606E-01 1.09833E-05 1.46940E-01-5.34692E-14-5.87116E-14
 -1      3880 1.98420E+01 2.71100E-01 1.01641E-03 9.60836E-02-1.70129E-14-6.91001E-14
 -1      3881 1.97781E+01 3.38060E-01-1.35634E-03 1.65625E-01-3.70224E-14-9.16863E-14
 -1      3882 1.97452E+01 3.74961E-01-6.77470E-06 1.91177E-01-4.57815E-14-7.31565E-14
 -1      3883 1.97744E+01 3.41582E-01 1.30364E-03 1.26336E-01-2.52039E-14-1.27701E-13
 -1      3884 1.96943E+01 4.12075E-01-1.66102E-03 2.14817E-01-5.82030E-14 6.16448E-15
 -1      3885 1.96527E+01 4.51042E-01-5.95112E-06 2.46224E-01 3.47371E-14 4.30184E-14
 -1      3886 1.96876E+01 4.19251E-01 1.63146E-03 1.64795E-01-7.43386E-15 3.02732E-14
 -1      3887 1.95889E+01 4.88940E-01-2.01554E-03 2.75843E-01 8.67242E-14-9.96400E-14
 -1      3888 1.95374E+01 5.27557E-01 3.57001E-05 3.14002E-01 1.00720E-13-1.20175E-13
 -1      3889 1.95776E+01 5.01481E-01 1.99770E-03 2.13156E-01-1.49174E-14 6.59324E-14
 -1      3890 1.94587E+01 5.63057E-01-2.43397E-03 3.50944E-01 6.17741E-14-1.78793E-13
 -1      3891 1.93966E+01 5.97433E-01 1.58103E-04 3.97009E-01-6.46923E-14-1.54568E-13
 -1      3892 1.94405E+01 5.83508E-01 2.39741E-03 2.73640E-01 3.22896E-14-1.57186E-13
 -1      3893 1.93010E+01 6.25617E-01-2.94420E-03 4.43153E-01-9.20566E-14-6.98121E-14
 -1      3894 1.92288E+01 6.49952E-01 4.30212E-04 4.98781E-01-4.78906E-14 8.86651E-15
 -1      3895 1.92726E+01 6.57742E-01 2.82393E-03 3.49337E-01 1.60395E-14-1.48390E-14
 -1      3896 1.91145E+01 6.63659E-01-3.59807E-03 5.56938E-01-4.43239E-14 1.48547E-13
 -1      3897 1.90339E+01 6.69756E-01 9.68756E-04 6.24740E-01 1.48537E-14 1.95139E-13
 -1      3898 1.90705E+01 7.13024E-01 3.27077E-03 4.44832E-01 6.29816E-14-6.60973E-15
 -1      3899 1.88993E+01 6.59015E-01-4.48276E-03 6.99341E-01 3.96417E-14 9.42656E-14
 -1      3900 1.88147E+01 6.35727E-01 1.97032E-03 7.83621E-01 3.69794E-14-1.16069E-14
 -1      3901 1.88313E+01 7.33841E-01 3.73270E-03 5.67304E-01-4.33538E-14 8.12165E-15
 -1      3902 1.86585E+01 5.87050E-01-5.72178E-03 8.81885E-01 7.30271E-14 4.25587E-14
 -1      3903 1.85788E+01 5.19515E-01 3.75312E-03 9.89704E-01 7.79034E-14 9.89609E-14
 -1      3904 1.85528E+01 6.99476E-01 4.19532E-03 7.28423E-01 6.49121E-14-2.75448E-14
 -1      3905 1.84001E+01 4.14869E-01-7.42136E-03 1.12341E+00 1.07245E-13 1.65855E-13
 -1      3906 1.83414E+01 2.83182E-01 6.75906E-03 1.26580E+00 1.93634E-13 2.44755E-13
 -1      3907 1.82337E+01 5.82615E-01 4.56510E-03 9.47515E-01 1.66614E-13 1.49477E-13
 -1      3908 1.81423E+01 9.89840E-02-9.31815E-03 1.45290E+00 7.07999E-14 1.41840E-13
 -1      3909 1.81319E+01-1.24548E-01 1.10602E-02 1.64676E+00 3.71833E-14 8.84013E-14
 -1      3910 1.78756E+01 3.45899E-01 4.45926E-03 1.25568E+00 9.84828E-14 8.34716E-15
 -1      3911 1.79162E+01-4.13794E-01-1.01376E-02 1.91332E+00 5.54576E-14 8.93401E-14
 -1      3912 1.79987E+01-7.76883E-01 1.48766E-02 2.18914E+00 3.10814E-14 1.29444E-13
 -1      3913 1.74853E+01-6.41802E-02 2.52182E-03 1.69758E+00 2.17983E-14-4.86685E-14
 -1      3914 2.00708E+01-6.61767E-02 3.19069E-04-5.06657E-02-1.58028E-14 2.26354E-14
 -1      3915 2.00787E+01-7.42779E-02 2.10914E-05-5.54754E-02-3.46967E-14 1.77589E-14
 -1      3916 2.00541E+01-4.83964E-02 2.92057E-04-4.33192E-02 5.67513E-14-7.00366E-15
 -1      3917 2.00605E+01-5.76667E-02-3.32754E-05-4.69328E-02 1.41009E-14 6.27444E-15
 -1      3918 2.00741E+01-6.57783E-02-2.94611E-04-4.12583E-02 6.05706E-15-1.55120E-14
 -1      3919 2.00909E+01-8.14728E-02 3.39814E-04-6.01331E-02-7.98085E-14-4.30488E-14
 -1      3920 2.01007E+01-8.79623E-02 8.16645E-05-6.57869E-02-6.74821E-14-1.45891E-14
 -1      3921 2.00956E+01-8.26722E-02-3.73358E-04-4.86805E-02-7.83355E-14-6.67967E-14
 -1      3922 2.00400E+01-2.85165E-02 2.63901E-04-3.85922E-02-1.93824E-14 1.70495E-14
 -1      3923 2.00453E+01-3.88356E-02-8.68233E-05-4.07349E-02 4.00674E-14-6.01447E-15
 -1      3924 2.00560E+01-4.62620E-02-2.12641E-04-3.56807E-02 4.60330E-14 3.64490E-14
 -1      3925 2.00273E+01-6.39631E-03 2.37530E-04-3.69199E-02-4.72283E-14 6.22185E-14
 -1      3926 2.00320E+01-1.78925E-02-1.44644E-04-3.73446E-02-3.54074E-15 2.96315E-14
 -1      3927 2.00402E+01-2.44139E-02-1.26834E-04-3.23659E-02 6.38419E-15 6.92402E-14
 -1      3928 2.00148E+01 1.85090E-02 2.14122E-04-3.87477E-02 2.58715E-14-2.21189E-14
 -1      3929 2.00195E+01 5.51616E-03-2.11617E-04-3.71970E-02 9.40394E-15 3.53324E-14
 -1      3930 2.00256E+01 7.83330E-06-3.46998E-05-3.16888E-02 1.60369E-14-2.40832E-14
 -1      3931 2.00013E+01 4.70511E-02 1.93385E-04-4.45817E-02-4.93835E-14-1.50468E-14
 -1      3932 2.00065E+01 3.20982E-02-2.92473E-04-4.07617E-02-3.05215E-15-1.20305E-14
 -1      3933 2.00108E+01 2.76528E-02 6.77961E-05-3.40367E-02 6.39542E-15-2.80584E-14
 -1      3934 1.99850E+01 8.03015E-02 1.73672E-04-5.50214E-02-5.82742E-14-5.18056E-14
 -1      3935 1.99915E+01 6.28246E-02-3.91814E-04-4.85860E-02-3.02544E-14-2.41694E-14
 -1      3936 1.99940E+01 5.94744E-02 1.86007E-04-3.98479E-02-3.59407E-14-5.46754E-14
 -1      3937 1.99641E+01 1.19464E-01 1.51981E-04-7.07728E-02 9.96503E-15-1.09569E-13
 -1      3938 1.99727E+01 9.88441E-02-5.14062E-04-6.13184E-02-2.84673E-14-6.60903E-14
 -1      3939 1.99736E+01 9.66349E-02 3.26474E-04-4.96328E-02-8.08741E-15-1.44358E-13
 -1      3940 1.99364E+01 1.65767E-01 1.23884E-04-9.26410E-02-7.31930E-14-2.70693E-14
 -1      3941 1.99481E+01 1.41388E-01-6.63353E-04-7.97129E-02-8.21104E-14-1.16085E-13
 -1      3942 1.99473E+01 1.40404E-01 4.96840E-04-6.39768E-02-2.73593E-14-1.59521E-13
 -1      3943 1.98992E+01 2.20331E-01 8.34701E-05-1.21500E-01-6.66606E-14 6.76128E-14
 -1      3944 1.99153E+01 1.91651E-01-8.43396E-04-1.04611E-01-4.92016E-14-6.03621E-15
 -1      3945 1.99126E+01 1.92035E-01 7.05791E-04-8.35245E-02-1.34568E-13-5.31885E-14
 -1      3946 1.98493E+01 2.83976E-01 2.34736E-05-1.58236E-01-2.23224E-14 3.58078E-14
 -1      3947 1.98712E+01 2.50632E-01-1.05741E-03-1.36902E-01 5.83166E-15 6.87693E-14
 -1      3948 1.98663E+01 2.52607E-01 9.63024E-04-1.08942E-01-2.31988E-14 1.50792E-13
 -1      3949 1.97830E+01 3.56956E-01-6.41215E-05-2.03673E-01 4.66252E-14-2.15434E-13
 -1      3950 1.98126E+01 3.18908E-01-1.30834E-03-1.77453E-01 2.95084E-14-8.42615E-14
 -1      3951 1.98049E+01 3.22805E-01 1.27926E-03-1.40855E-01 6.23624E-14-9.26641E-14
 -1      3952 1.96958E+01 4.38603E-01-1.86527E-04-2.58481E-01-2.83118E-14-1.41634E-13
 -1      3953 1.97351E+01 3.96327E-01-1.59979E-03-2.27031E-01-5.44561E-14-2.27125E-13
 -1      3954 1.97241E+01 4.02627E-01 1.66640E-03-1.79776E-01 2.36060E-14-1.52053E-13
 -1      3955 1.95826E+01 5.26835E-01-3.46893E-04-3.23112E-01 4.59469E-14-1.47748E-13
 -1      3956 1.96341E+01 4.81581E-01-1.93841E-03-2.86218E-01 2.83638E-14-9.69669E-14
 -1      3957 1.96190E+01 4.90997E-01 2.13808E-03-2.26021E-01-4.40880E-14-7.39969E-14
 -1      3958 1.94375E+01 6.17513E-01-5.38272E-04-3.97822E-01 9.07434E-14-4.02043E-14
 -1      3959 1.95040E+01 5.71642E-01-2.33918E-03-3.55381E-01 9.62864E-14-1.70834E-13
 -1      3960 1.94838E+01 5.85267E-01 2.71106E-03-2.79674E-01 8.51199E-14-2.15586E-13
 -1      3961 1.92540E+01 7.03622E-01-7.33339E-04-4.82915E-01 7.61546E-14-2.89335E-14
 -1      3962 1.93383E+01 6.61028E-01-2.83568E-03-4.34778E-01 7.96756E-14-5.46156E-14
 -1      3963 1.93118E+01 6.80616E-01 3.40838E-03-3.40659E-01 1.04004E-13-1.16684E-13
 -1      3964 1.90248E+01 7.74263E-01-8.67620E-04-5.79421E-01-1.36982E-14 1.74094E-14
 -1      3965 1.91297E+01 7.40875E-01-3.49910E-03-5.24984E-01 3.67508E-14 8.28302E-15
 -1      3966 1.90953E+01 7.69355E-01 4.26593E-03-4.09073E-01 4.94161E-14-2.81781E-14
 -1      3967 1.87422E+01 8.13450E-01-8.09850E-04-6.90599E-01-9.87762E-14-8.03979E-15
 -1      3968 1.88699E+01 7.97814E-01-4.47088E-03-6.27916E-01-3.93903E-14-1.45834E-14
 -1      3969 1.88249E+01 8.40197E-01 5.34518E-03-4.86019E-01 1.72900E-14 1.57502E-15
 -1      3970 1.83979E+01 7.98636E-01-2.93758E-04-8.24816E-01-4.69238E-14 2.60372E-14
 -1      3971 1.85491E+01 8.12627E-01-6.01027E-03-7.48959E-01-5.20528E-14-4.39388E-14
 -1      3972 1.84887E+01 8.77576E-01 6.75769E-03-5.75352E-01-4.34989E-14-1.73630E-13
 -1      3973 1.79832E+01 6.98192E-01 1.03960E-03-1.00070E+00-1.42313E-13 1.10114E-13
 -1      3974 1.81555E+01 7.58442E-01-8.52852E-03-9.01056E-01-7.19331E-14 5.17902E-14
 -1      3975 1.80704E+01 8.60984E-01 8.68773E-03-6.87148E-01-1.11475E-13-1.42443E-13
 -1      3976 1.74894E+01 4.67024E-01 3.38534E-03-1.25424E+00-2.84238E-13 1.10159E-13
 -1      3977 1.76761E+01 5.97095E-01-1.25508E-02-1.11048E+00-1.92351E-13 1.26285E-13
 -1      3978 1.75467E+01 7.62239E-01 1.13108E-02-8.44230E-01-2.02942E-13 4.69486E-14
 -1      3979 1.68919E+01 3.89248E-02 4.12885E-03-1.65372E+00-1.41509E-13-1.02013E-15
 -1      3980 1.70922E+01 2.79626E-01-1.80211E-02-1.42107E+00-2.18732E-13 6.03876E-14
 -1      3981 1.68894E+01 5.43661E-01 1.70501E-02-1.08464E+00-1.68867E-13-1.52096E-13
 -1      3982 1.62055E+01-6.16405E-01 2.16412E-03-2.20872E+00-7.12429E-14-1.05516E-13
 -1      3983 1.63853E+01-1.97063E-01-2.72037E-02-1.84373E+00-1.25580E-13-3.68199E-14
 -1      3984 1.60789E+01 2.47988E-01 3.86615E-02-1.38867E+00-1.16860E-13-2.49436E-13
 -1      3985 1.50174E+01-1.14810E-01 7.93358E-02-1.78349E+00-1.40934E-13-5.19907E-13
 -1      3986 2.02158E+01-8.16622E-02 1.43923E-04-1.00800E-01-3.87068E-15-2.75245E-14
 -1      3987 2.02354E+01-6.68780E-02 5.00187E-04-1.02075E-01 1.34934E-15-5.61622E-14
 -1      3988 2.03744E+01 5.10613E-01-1.73664E-03 4.26387E-02 8.12628E-14-1.71277E-13
 -1      3989 2.03746E+01 6.66393E-01 2.14159E-03 9.69546E-02 1.10660E-13-1.78031E-13
 -1      3990 2.01777E+01-9.71370E-02 2.66497E-04-9.31007E-02-1.03840E-15-7.27356E-15
 -1      3991 2.01950E+01-9.13092E-02 3.58540E-04-9.73023E-02 5.41396E-16-2.61396E-14
 -1      3992 2.02277E+01-8.93215E-02-5.68286E-04-8.19528E-02-4.93481E-18-1.36424E-14
 -1      3993 2.02569E+01-4.66179E-02-6.25884E-05-1.02751E-01 2.36054E-14-4.61706E-14
 -1      3994 2.02782E+01-1.87837E-02 6.60880E-04-9.90119E-02 4.95909E-14-5.54518E-14
 -1      3995 2.02711E+01-5.61685E-02-5.27908E-04-8.40633E-02 1.39264E-14-6.65154E-15
 -1      3996 1.78223E+01-1.28017E+00-6.68637E-03 2.59204E+00 5.25034E-14 1.32449E-13
 -1      3997 2.01151E+01-9.32199E-02 3.46356E-04-7.10637E-02-5.65473E-14-3.36084E-14
 -1      3998 2.01273E+01-9.72372E-02 1.54167E-04-7.70660E-02-2.30306E-14-4.08417E-14
 -1      3999 2.01214E+01-9.59617E-02-4.47105E-04-5.74088E-02-6.85843E-14-6.74870E-14
 -1      4000 2.01440E+01-9.94709E-02 3.27190E-04-8.25149E-02 2.51233E-14-2.95503E-14
 -1      4001 2.01587E+01-9.96145E-02 2.44554E-04-8.81429E-02 2.76333E-14 6.54071E-15
 -1      4002 2.01520E+01-1.03769E-01-5.10978E-04-6.66843E-02 1.59593E-15-2.74402E-14
 -1      4003 1.31366E+01 1.10711E-01 8.11047E-02-1.15812E-01 4.92757E-14-5.81438E-13
 -1      4004 1.40239E+01-1.26362E-01-1.79275E-02-1.14083E+00-9.80075E-14-4.20537E-13
 -1      4005 1.46964E+01 1.02875E-01-2.50431E-02-9.69665E-01-1.02993E-13-4.06907E-13
 -1      4006 1.39597E+01 8.49516E-02 2.51160E-02 5.77727E-01 1.13820E-13-2.96239E-13
 -1      4007 2.03652E+01 2.78963E-01-1.17960E-03-2.89557E-02 1.86962E-14-1.36416E-13
 -1      4008 2.03781E+01 3.84860E-01 8.38623E-04 9.07250E-03 5.75175E-14-1.48811E-13
 -1      4009 2.03948E+01 4.87945E-01 5.16686E-04 2.72460E-02 5.50194E-14-1.31512E-13
 -1      4010 2.03948E+01 6.36521E-01 2.89579E-03-7.02910E-02-6.04491E-14-1.79935E-13
 -1      4011 2.03910E+01 4.85641E-01-2.09027E-03-2.47063E-02-4.24446E-14-1.49990E-13
 -1      4012 2.04088E+01 4.58469E-01 7.78469E-04-1.35459E-02-4.82759E-14-1.74048E-13
 -1      4013 2.01875E+01-1.03061E-01-5.56053E-04-7.54012E-02 1.26323E-14-1.89701E-14
 -1      4014 1.52670E+01-6.49179E-01 3.91477E-02 2.46942E+00 6.95620E-14 9.97535E-14
 -1      4015 1.48489E+01-3.09555E-01-1.74568E-02 1.89159E+00 4.36070E-14-1.75866E-14
 -1      4016 1.64251E+01-8.00405E-01 2.10257E-02 2.49327E+00-2.29378E-14-8.47534E-14
 -1      4017 2.03152E+01 5.05009E-03-4.12881E-04-7.86793E-02 2.72950E-14-4.77409E-14
 -1      4018 2.02986E+01 1.69296E-02-3.33575E-04-9.50553E-02 4.69305E-14-7.48007E-14
 -1      4019 2.03200E+01 6.31164E-02 7.28584E-04-8.34377E-02 4.35248E-14-1.04622E-13
 -1      4020 2.03561E+01 1.91677E-01 7.55323E-04-4.98106E-02 2.02699E-14-1.13010E-13
 -1      4021 2.03854E+01 2.60972E-01 2.37263E-04-2.80904E-02 2.08675E-14-8.22924E-14
 -1      4022 2.03372E+01 1.20170E-01-7.04439E-04-7.24233E-02 3.01832E-14-1.20586E-13
 -1      4023 2.03333E+01 1.16913E+00 2.62435E-03 1.49000E-02 1.41446E-14-2.29183E-13
 -1      4024 2.02933E+01 1.30578E+00-1.91948E-03 1.79238E-02 2.09939E-14-2.32151E-13
 -1      4025 2.02834E+01 1.35204E+00-5.91065E-04-4.19759E-02 5.02420E-15-2.32914E-13
 -1      4026 2.02869E+01 1.32177E+00-1.50589E-03-8.40500E-02-6.57504E-15-2.86891E-13
 -1      4027 2.02794E+01 1.33647E+00-2.43871E-03-1.49264E-01-2.39139E-14-2.95064E-13
 -1      4028 2.03421E+01 1.10795E+00 4.38344E-03-1.37377E-01-3.92379E-14-2.48701E-13
 -1      4029 2.03294E+01 1.18760E+00 4.18959E-03-6.88317E-02 5.30373E-15-2.46624E-13
 -1      4030 2.03664E+01 8.88010E-01-2.70594E-03 9.90971E-02 1.72347E-14-2.46037E-13
 -1      4031 2.03702E+01 9.22944E-01-1.16276E-03 5.93590E-02 1.92098E-15-2.10965E-13
 -1      4032 1.70760E+01-7.66412E-01 2.76643E-04 2.38708E+00 4.00973E-15-3.96597E-14
 -1      4033 2.03707E+01 8.09260E-01-2.02139E-03-9.71418E-02-4.90630E-14-2.15749E-13
 -1      4034 2.03690E+01 8.28997E-01-3.15220E-04 1.04786E-01 4.67981E-14-2.46273E-13
 -1      4035 2.03969E+01 6.86485E-01 1.77461E-03 5.65012E-02 3.85299E-14-2.07873E-13
 -1      4036 2.03615E+01 7.71828E-01-1.16455E-03 1.31146E-01 9.43600E-14-2.11013E-13
 -1      4037 2.00572E+01-4.20770E-02 2.56001E-04-2.67253E-02 2.19908E-14-1.31369E-14
 -1      4038 2.00655E+01-5.28320E-02 2.49137E-05-2.85312E-02 5.09159E-14-6.50585E-14
 -1      4039 2.03914E+01 1.23125E-01 1.88787E-04 2.95541E-02-1.74750E-14-1.61919E-13
 -1      4040 2.03728E+01 6.23047E-02 2.66321E-05 4.00545E-02 9.19251E-15-1.47204E-13
 -1      4041 2.03521E+01 1.31508E-02 3.20251E-04 4.07199E-02 1.66990E-14-1.37881E-13
 -1      4042 2.03299E+01-2.48649E-02 2.19201E-04 4.59932E-02 5.21803E-14-1.24191E-13
 -1      4043 2.03717E+01 4.21232E-02-9.52748E-04 2.16950E-02 2.63058E-14-1.10697E-13
 -1      4044 2.03064E+01-5.43570E-02 3.49782E-04 4.49154E-02 3.53532E-14-1.34717E-13
 -1      4045 2.02836E+01-7.58700E-02 3.34972E-04 4.66256E-02-9.21999E-15-1.49659E-13
 -1      4046 2.03270E+01-3.89560E-02-1.15040E-03 2.46594E-02 1.61957E-14-1.62541E-13
 -1      4047 2.02598E+01-9.14264E-02 3.51110E-04 4.45894E-02-2.07992E-14-1.59153E-13
 -1      4048 2.02381E+01-1.01419E-01 3.89504E-04 4.40228E-02-1.12298E-14-1.60764E-13
 -1      4049 2.02796E+01-8.53528E-02-1.22894E-03 2.49346E-02-1.66473E-14-1.53200E-13
 -1      4050 2.02158E+01-1.07388E-01 3.24061E-04 4.15242E-02 1.45262E-14-1.65110E-13
 -1      4051 2.01961E+01-1.09563E-01 3.99517E-04 3.96448E-02-1.76827E-14-9.55134E-14
 -1      4052 2.02338E+01-1.07439E-01-1.20403E-03 2.35201E-02-1.21025E-14-1.72483E-13
 -1      4053 2.01760E+01-1.09112E-01 2.81952E-04 3.70409E-02-6.87986E-14-8.12252E-14
 -1      4054 2.01588E+01-1.06130E-01 3.81136E-04 3.45512E-02-1.02296E-13-9.71407E-14
 -1      4055 2.01919E+01-1.12944E-01-1.11003E-03 2.11765E-02-3.58910E-14-1.22995E-13
 -1      4056 2.01413E+01-1.01489E-01 2.31551E-04 3.20833E-02-8.33732E-14-7.64876E-14
 -1      4057 2.01267E+01-9.51724E-02 3.46166E-04 2.94832E-02-2.07545E-14-8.40185E-14
 -1      4058 2.01549E+01-1.07452E-01-9.75035E-04 1.84688E-02-4.18039E-14-2.98881E-14
 -1      4059 2.01117E+01-8.78274E-02 1.76231E-04 2.73085E-02-1.82633E-14-1.07630E-13
 -1      4060 2.00994E+01-7.93395E-02 3.02739E-04 2.49500E-02-4.33498E-14-1.74369E-13
 -1      4061 2.01231E+01-9.48124E-02-8.18113E-04 1.57959E-02-5.56735E-14-1.08424E-13
 -1      4062 2.00867E+01-7.01936E-02 1.17059E-04 2.31707E-02-5.36152E-15-1.73212E-13
 -1      4063 2.00763E+01-6.01856E-02 2.55989E-04 2.13059E-02 4.92666E-15-8.79573E-14
 -1      4064 2.00961E+01-7.74972E-02-6.50156E-04 1.34358E-02-2.72672E-14-1.64907E-13
 -1      4065 2.00653E+01-4.96925E-02 5.34062E-05 1.99934E-02-3.75758E-14-8.44536E-14
 -1      4066 2.00563E+01-3.84197E-02 2.08699E-04 1.88140E-02-3.72068E-14-4.56953E-14
 -1      4067 2.00731E+01-5.69046E-02-4.75487E-04 1.15871E-02 2.68956E-14-1.16644E-13
 -1      4068 2.00464E+01-2.66875E-02-1.66468E-05 1.80286E-02-8.36135E-14-5.84771E-14
 -1      4069 2.00383E+01-1.41025E-02 1.61883E-04 1.76965E-02-8.62789E-16-1.11959E-13
 -1      4070 2.00531E+01-3.36038E-02-2.93299E-04 1.04027E-02-7.59398E-14-8.86820E-14
 -1      4071 2.00288E+01-9.75778E-04-9.60446E-05 1.75030E-02 3.95635E-15-1.26899E-13
 -1      4072 2.00208E+01 1.31986E-02 1.15245E-04 1.81756E-02-4.43209E-14-1.83658E-13
 -1      4073 2.00346E+01-7.52819E-03-9.87988E-05 1.00196E-02-1.92889E-14-5.68679E-14
 -1      4074 2.00107E+01 2.80717E-02-1.88567E-04 1.86566E-02-2.28106E-15-2.08785E-13
 -1      4075 2.00020E+01 4.42811E-02 6.75551E-05 2.05051E-02 3.39325E-14-1.92154E-13
 -1      4076 2.00161E+01 2.18708E-02 1.15946E-04 1.05815E-02-3.84632E-14-1.78024E-13
 -1      4077 1.99905E+01 6.13902E-02-2.98689E-04 2.17727E-02 7.28031E-14-2.17080E-13
 -1      4078 1.99802E+01 8.01918E-02 1.69804E-05 2.49971E-02 4.36020E-14-1.44573E-13
 -1      4079 1.99959E+01 5.54946E-02 3.61367E-04 1.22600E-02-2.19517E-15-1.85430E-13
 -1      4080 1.99660E+01 1.00107E-01-4.31475E-04 2.72044E-02 1.53895E-14-1.06144E-13
 -1      4081 1.99531E+01 1.22109E-01-3.85974E-05 3.20451E-02 6.00101E-14-1.36068E-13
 -1      4082 1.99719E+01 9.44788E-02 6.49885E-04 1.52738E-02 3.44043E-14-1.99608E-13
 -1      4083 1.99350E+01 1.45415E-01-5.92499E-04 3.53981E-02 9.43248E-14-1.90355E-13
 -1      4084 1.99181E+01 1.71207E-01-1.01200E-04 4.21451E-02 1.25419E-13-2.14172E-13
 -1      4085 1.99417E+01 1.40069E-01 9.95466E-04 1.99092E-02 2.55033E-14-2.12988E-13
 -1      4086 1.98946E+01 1.98421E-01-7.87831E-04 4.69177E-02 1.41681E-13-2.65324E-13
 -1      4087 1.98724E+01 2.28478E-01-1.72243E-04 5.59195E-02 1.27437E-13-2.26544E-13
 -1      4088 1.99025E+01 1.93474E-01 1.41320E-03 2.65439E-02 6.89843E-14-1.96824E-13
 -1      4089 1.98417E+01 2.59943E-01-1.02417E-03 6.24726E-02 5.13530E-14-1.86402E-13
 -1      4090 1.98127E+01 2.94506E-01-2.51823E-04 7.41473E-02-5.76492E-14-1.59595E-13
 -1      4091 1.98513E+01 2.55680E-01 1.91898E-03 3.56784E-02 7.92947E-14-3.57608E-13
 -1      4092 1.97728E+01 3.30247E-01-1.30934E-03 8.29554E-02-9.98710E-14-9.65415E-14
 -1      4093 1.97352E+01 3.69160E-01-3.37674E-04 9.78087E-02-8.91745E-15-8.32326E-14
 -1      4094 1.97844E+01 3.27204E-01 2.52949E-03 4.79807E-02-1.38486E-14-2.74996E-13
 -1      4095 1.96839E+01 4.08697E-01-1.65345E-03 1.09499E-01 3.99943E-14-1.04286E-13
 -1      4096 1.96359E+01 4.51203E-01-4.23694E-04 1.28158E-01 3.36226E-14-7.43823E-14
 -1      4097 1.96977E+01 4.07784E-01 3.26301E-03 6.43515E-02 3.91549E-14-1.86302E-13
 -1      4098 1.95707E+01 4.93315E-01-2.07154E-03 1.43572E-01-7.77110E-14 4.97503E-15
 -1      4099 1.95104E+01 5.37804E-01-4.97824E-04 1.66846E-01-7.41608E-14-5.69651E-14
 -1      4100 1.95866E+01 4.95978E-01 4.14204E-03 8.60245E-02 1.88550E-14-1.97785E-13
 -1      4101 1.94285E+01 5.80241E-01-2.58857E-03 1.87134E-01-5.93638E-15-4.46302E-14
 -1      4102 1.93541E+01 6.23966E-01-5.39018E-04 2.16138E-01 4.21546E-14-4.96451E-14
 -1      4103 1.94462E+01 5.88709E-01 5.19958E-03 1.14723E-01-4.20940E-14-1.01016E-14
 -1      4104 1.92524E+01 6.63131E-01-3.24889E-03 2.42914E-01-1.85030E-14-1.60348E-14
 -1      4105 1.91621E+01 7.01908E-01-5.12883E-04 2.79284E-01-8.34245E-15-1.33381E-14
 -1      4106 1.92710E+01 6.80757E-01 6.49199E-03 1.52906E-01 1.01556E-14 1.09187E-14
 -1      4107 1.90370E+01 7.32513E-01-4.13314E-03 3.14878E-01 5.02778E-14 1.17315E-15
 -1      4108 1.89297E+01 7.60447E-01-3.65607E-04 3.61150E-01 3.78931E-14-5.68903E-14
 -1      4109 1.90547E+01 7.64279E-01 8.12254E-03 2.04167E-01-8.30840E-15-3.58792E-14
 -1      4110 1.87764E+01 7.75190E-01-5.38763E-03 4.09035E-01-3.37527E-14 2.22989E-14
 -1      4111 1.86513E+01 7.84466E-01-1.60948E-05 4.69309E-01-7.23770E-14-2.43606E-14
 -1      4112 1.87903E+01 8.28455E-01 1.02794E-02 2.73868E-01-1.01639E-14-8.45743E-14
 -1      4113 1.84631E+01 7.73756E-01-7.27306E-03 5.34805E-01 1.53777E-14-2.68109E-14
 -1      4114 1.83201E+01 7.54501E-01 6.59207E-04 6.15868E-01 1.17876E-13 1.58120E-14
 -1      4115 1.84683E+01 8.59359E-01 1.32812E-02 3.70165E-01-4.00613E-15-4.69510E-14
 -1      4116 1.80867E+01 7.06265E-01-1.02147E-02 7.07447E-01 1.26851E-13 6.20657E-15
 -1      4117 1.79272E+01 6.46242E-01 1.96586E-03 8.20667E-01 1.18413E-13-8.15475E-15
 -1      4118 1.80748E+01 8.40000E-01 1.75411E-02 5.05618E-01 8.47988E-14 1.37616E-14
 -1      4119 1.76308E+01 5.45650E-01-1.46613E-02 9.53053E-01 2.53432E-15-8.08282E-14
 -1      4120 1.74613E+01 4.28303E-01 5.07607E-03 1.11716E+00-3.94853E-14-1.95317E-13
 -1      4121 1.75853E+01 7.49325E-01 2.26887E-02 6.99626E-01-6.33080E-14-1.29621E-13
 -1      4122 1.70789E+01 2.63593E-01-1.71024E-02 1.31761E+00 2.29920E-14-1.69812E-13
 -1      4123 1.69156E+01 6.53687E-02 1.52170E-02 1.56077E+00 1.71183E-14-1.41784E-13
 -1      4124 1.69471E+01 5.45381E-01 1.96545E-02 9.79830E-01-5.10997E-14-2.38076E-13
 -1      4125 2.00765E+01-6.27550E-02 3.04604E-04-3.05441E-02 3.95196E-14-8.89392E-14
 -1      4126 2.00862E+01-7.22772E-02 8.56837E-05-3.32243E-02-2.73507E-14-8.61266E-14
 -1      4127 2.00749E+01-6.05774E-02-5.79846E-04-2.12084E-02 1.50869E-14-1.63025E-13
 -1      4128 2.00991E+01-8.08498E-02 3.47034E-04-3.58950E-02-1.19120E-13-1.07366E-13
 -1      4129 2.01108E+01-8.88162E-02 1.50479E-04-3.92057E-02-1.09295E-13-1.39792E-13
 -1      4130 2.00978E+01-8.02537E-02-7.60352E-04-2.47513E-02-8.15610E-14-1.46303E-13
 -1      4131 2.00238E+01 6.92359E-03 1.50406E-04-2.48804E-02 2.05506E-14-6.80771E-14
 -1      4132 2.00309E+01-6.51749E-03-1.01958E-04-2.43532E-02 4.54700E-15-2.37500E-14
 -1      4133 2.00068E+01 3.63518E-02 9.34538E-05-2.74374E-02-3.61496E-14 9.53611E-15
 -1      4134 2.00144E+01 2.10321E-02-1.77177E-04-2.54578E-02 7.70442E-15 7.47746E-15
 -1      4135 2.00197E+01 1.49846E-02-5.67727E-07-1.80682E-02 2.74829E-14-1.13926E-14
 -1      4136 1.99872E+01 7.03464E-02 3.10542E-05-3.27539E-02-3.78561E-14-4.20663E-14
 -1      4137 1.99962E+01 5.25989E-02-2.66530E-04-2.91088E-02-2.88363E-14-3.54186E-14
 -1      4138 2.00009E+01 4.71209E-02 2.26961E-04-2.02064E-02 2.44916E-14 1.91852E-14
 -1      4139 1.99629E+01 1.10123E-01-4.06012E-05-4.12191E-02 5.09106E-14-8.93135E-14
 -1      4140 1.99744E+01 8.93183E-02-3.74787E-04-3.56711E-02 6.94944E-16-7.90162E-14
 -1      4141 1.99788E+01 8.43546E-02 4.89255E-04-2.43031E-02 4.16788E-16-4.28281E-14
 -1      4142 1.99316E+01 1.56970E-01-1.26748E-04-5.32645E-02-5.32101E-14-5.08154E-14
 -1      4143 1.99466E+01 1.32457E-01-5.06639E-04-4.55575E-02 1.13709E-14-7.93310E-14
 -1      4144 1.99511E+01 1.27964E-01 7.99793E-04-3.06066E-02-1.15584E-14-1.39411E-14
 -1      4145 1.98904E+01 2.12111E-01-2.34127E-04-6.93399E-02-1.64305E-13-5.05961E-14
 -1      4146 1.99104E+01 1.83290E-01-6.66554E-04-5.92145E-02-1.05766E-13-6.44275E-14
 -1      4147 1.99152E+01 1.79261E-01 1.17353E-03-3.93704E-02-7.53708E-14 1.09074E-14
 -1      4148 1.98358E+01 2.76524E-01-3.71092E-04-8.98681E-02 6.14850E-15-2.32021E-14
 -1      4149 1.98625E+01 2.42946E-01-8.58661E-04-7.70894E-02-1.30696E-13-7.10458E-15
 -1      4150 1.98680E+01 2.39433E-01 1.62663E-03-5.08220E-02-1.54501E-13-1.95195E-13
 -1      4151 1.97638E+01 3.50703E-01-5.47654E-04-1.15180E-01 1.77813E-13-1.59422E-13
 -1      4152 1.97992E+01 3.12196E-01-1.08684E-03-9.95760E-02 1.60594E-13-3.27522E-14
 -1      4153 1.98058E+01 3.09340E-01 2.17641E-03-6.51136E-02 6.46978E-14-1.85347E-13
 -1      4154 1.96699E+01 4.34332E-01-7.75401E-04-1.45434E-01-3.01193E-14-9.05896E-14
 -1      4155 1.97164E+01 3.91175E-01-1.35538E-03-1.26941E-01 1.08302E-13-9.80886E-14
 -1      4156 1.97244E+01 3.89243E-01 2.84186E-03-8.22514E-02 9.30602E-14-1.19418E-13
 -1      4157 1.95486E+01 5.25885E-01-1.06719E-03-1.80534E-01 3.25452E-14-2.35715E-13
 -1      4158 1.96088E+01 4.79019E-01-1.67076E-03-1.59237E-01 8.11803E-15-1.53630E-13
 -1      4159 1.96189E+01 4.78466E-01 3.64527E-03-1.02011E-01 5.25401E-14-2.97955E-13
 -1      4160 1.93937E+01 6.22122E-01-1.43673E-03-2.20087E-01 6.64498E-14-2.18497E-13
 -1      4161 1.94709E+01 5.73413E-01-2.04590E-03-1.96230E-01 4.34823E-14-2.88055E-13
 -1      4162 1.94836E+01 5.74983E-01 4.61652E-03-1.23848E-01 7.30814E-14-3.73022E-13
 -1      4163 1.91978E+01 7.17521E-01-1.89849E-03-2.63461E-01 1.06617E-13-1.15611E-13
 -1      4164 1.92956E+01 6.70042E-01-2.50872E-03-2.37386E-01 1.05809E-13-1.39173E-13
 -1      4165 1.93119E+01 6.74949E-01 5.80211E-03-1.46833E-01 2.35601E-14-2.49186E-13
 -1      4166 1.89522E+01 8.03686E-01-2.46998E-03-3.10084E-01 2.07778E-14-5.42308E-14
 -1      4167 1.90750E+01 7.62003E-01-3.11852E-03-2.82003E-01 7.34541E-14-8.69677E-15
 -1      4168 1.90960E+01 7.72243E-01 7.28262E-03-1.69672E-01 6.92691E-14-1.45125E-13
 -1      4169 1.86458E+01 8.68828E-01-3.18108E-03-3.60170E-01 5.89558E-14-1.28971E-13
 -1      4170 1.87989E+01 8.39223E-01-3.99618E-03-3.29648E-01 2.94888E-14-1.20771E-13
 -1      4171 1.88263E+01 8.58104E-01 9.20375E-03-1.90885E-01 4.56434E-14-2.13249E-13
 -1      4172 1.82633E+01 8.97469E-01-4.09888E-03-4.16210E-01-1.42070E-14-2.14761E-13
 -1      4173 1.84538E+01 8.88024E-01-5.37805E-03-3.81116E-01 4.45877E-14-1.65421E-13
 -1      4174 1.84900E+01 9.21039E-01 1.18274E-02-2.09271E-01 5.51346E-14-1.22616E-13
 -1      4175 1.77814E+01 8.70509E-01-5.35047E-03-4.85855E-01-1.16434E-13-2.71219E-13
 -1      4176 1.80195E+01 8.91043E-01-7.70060E-03-4.40277E-01-6.07594E-14-2.42617E-13
 -1      4177 1.80682E+01 9.47200E-01 1.56071E-02-2.24735E-01-3.09789E-15-2.74228E-13
 -1      4178 1.71655E+01 7.66206E-01-5.88095E-03-5.87510E-01-1.50826E-13-3.11796E-13
 -1      4179 1.74635E+01 8.28423E-01-1.15538E-02-5.18095E-01-1.48701E-13-2.55393E-13
 -1      4180 1.75301E+01 9.21600E-01 2.11854E-02-2.39489E-01-1.14268E-13-4.31164E-13
 -1      4181 1.63486E+01 5.38649E-01-9.68553E-03-7.64771E-01-1.69331E-13-4.16525E-13
 -1      4182 1.67319E+01 6.67553E-01-1.95061E-02-6.46775E-01-1.40620E-13-3.07491E-13
 -1      4183 1.68096E+01 8.29415E-01 2.66018E-02-2.64033E-01-9.73279E-14-3.84659E-13
 -1      4184 1.53789E+01 2.71598E-01-1.10298E-02-9.18538E-01-1.14009E-13-3.86602E-13
 -1      4185 1.58532E+01 4.24221E-01-1.99294E-02-8.00617E-01-1.44227E-13-3.89007E-13
 -1      4186 1.59474E+01 6.32140E-01 2.66816E-02-3.18416E-01-1.44765E-13-3.78674E-13
 -1      4187 1.48521E+01 3.99451E-01 3.88045E-02-2.78527E-01-7.26363E-14-2.93981E-13
 -1      4188 2.04191E+01 5.32175E-01-1.69064E-04-2.31545E-02-6.39579E-14-1.74721E-13
 -1      4189 2.04184E+01 4.01036E-01-1.21708E-03 1.32909E-03-6.77728E-14-1.99846E-13
 -1      4190 2.04074E+01 3.98389E-01 2.06639E-05 7.64553E-04 2.45938E-14-1.21734E-13
 -1      4191 2.04077E+01 5.26838E-01-5.51015E-04 3.21717E-02 4.49249E-14-1.58924E-13
 -1      4192 2.04098E+01 5.86213E-01-1.91145E-04 2.91548E-02 4.67676E-15-2.02052E-13
 -1      4193 1.95729E+01-2.96003E+00 5.32210E-02-3.08047E+00 1.49610E-13 2.94209E-14
 -1      4194 2.02353E+01-9.64188E-02 2.81383E-04-6.22853E-02 1.17030E-15-6.76489E-14
 -1      4195 2.02570E+01-8.47333E-02 5.19768E-04-6.31249E-02-1.90544E-14-7.29697E-14
 -1      4196 2.02797E+01-6.78114E-02 1.26398E-04-6.52015E-02-1.68898E-14-6.00762E-14
 -1      4197 2.03029E+01-4.39370E-02 6.49189E-04-6.29657E-02 5.36279E-15-7.97832E-14
 -1      4198 2.02811E+01-7.78798E-02-1.34354E-03-4.50950E-02-1.38623E-14-1.20829E-13
 -1      4199 2.00401E+01-1.89702E-02 2.04301E-04-2.47430E-02 9.43490E-15-1.89165E-14
 -1      4200 2.00475E+01-3.09507E-02-3.61378E-05-2.54752E-02 2.26462E-14-2.93099E-14
 -1      4201 2.00373E+01-1.31740E-02-2.05011E-04-1.76599E-02 1.15430E-14-1.43960E-13
 -1      4202 2.01258E+01-9.55400E-02 3.77464E-04-4.23991E-02-6.26874E-14-1.27450E-13
 -1      4203 2.01400E+01-1.01217E-01 2.23332E-04-4.60115E-02-1.23573E-14-1.06295E-13
 -1      4204 2.01248E+01-9.65332E-02-9.36312E-04-2.91386E-02-9.41103E-14-2.14194E-13
 -1      4205 1.65802E+01-3.81695E-01-1.33597E-02 2.04215E+00 2.17556E-14-6.56804E-14
 -1      4206 2.01575E+01-1.05139E-01 3.86579E-04-4.95315E-02-1.85540E-15-9.94808E-14
 -1      4207 2.01742E+01-1.07263E-01 3.07771E-04-5.29796E-02 9.20021E-15-7.31318E-14
 -1      4208 2.01567E+01-1.07855E-01-1.10095E-03-3.40099E-02-4.70393E-15-1.72137E-13
 -1      4209 2.04173E+01 2.91050E-01 2.82368E-04 1.03075E-02-5.51258E-14-1.81817E-13
 -1      4210 2.04060E+01 1.98038E-01-4.68469E-04 2.66025E-02-4.73154E-14-1.76874E-13
 -1      4211 2.04262E+01 3.65400E-01 1.25524E-03 2.28021E-03-5.97292E-14-1.63557E-13
 -1      4212 2.04044E+01 7.66659E-01 3.02388E-03 3.16056E-02-7.39446E-15-2.43175E-13
 -1      4213 2.03690E+01 9.36395E-01-2.83773E-03 2.97919E-02 7.31350E-15-2.46857E-13
 -1      4214 2.01941E+01-1.06844E-01 3.60746E-04-5.65305E-02 2.57042E-14-8.43424E-14
 -1      4215 2.02135E+01-1.03469E-01 4.06284E-04-5.91467E-02 2.94075E-14-6.46691E-14
 -1      4216 2.01937E+01-1.11548E-01-1.24015E-03-3.88467E-02 2.68237E-14-1.81124E-13
 -1      4217 2.00552E+01-3.82049E-02-3.95848E-04-1.87732E-02 5.29056E-15-1.99595E-13
 -1      4218 1.62281E+01 2.06071E-02 6.57274E-03 1.64082E+00 2.92825E-14-1.24006E-13
 -1      4219 2.04084E+01 1.70629E-01-4.36163E-04 1.39740E-02-1.81125E-14-1.05553E-13
 -1      4220 2.03622E+01 9.79373E-01-1.65251E-03-1.01983E-02 1.25427E-14-2.20139E-13
 -1      4221 2.03247E+01-1.26333E-02-8.61892E-05-6.30263E-02-1.60980E-14-9.37677E-14
 -1      4222 2.03475E+01 2.86151E-02 6.50182E-04-5.60973E-02-1.27375E-14-9.35312E-14
 -1      4223 2.03276E+01-2.65933E-02-1.27926E-03-4.39899E-02-3.16270E-14-1.40840E-13
 -1      4224 2.04055E+01 6.93062E-01 1.40817E-03-3.53371E-02-2.57025E-14-1.90798E-13
 -1      4225 2.04142E+01 6.35439E-01 7.74295E-04-1.67563E-02-3.42385E-14-1.62194E-13
 -1      4226 2.04024E+01 2.88389E-01-4.45788E-04-1.67015E-02 2.74503E-14-1.17875E-13
 -1      4227 2.04142E+01 3.33045E-01 1.11548E-03-8.40892E-03 2.69439E-14-1.51725E-13
 -1      4228 2.03908E+01 1.96188E-01-6.42703E-04-3.82167E-02 1.37689E-14-1.28309E-13
 -1      4229 2.03555E+01 1.05551E-01-2.62294E-04-6.13789E-02 3.32990E-14-9.77485E-14
 -1      4230 2.04164E+01 5.98487E-01-4.18250E-04 1.21043E-02 4.97339E-15-2.18979E-13
 -1      4231 2.02356E+01-1.03518E-01-1.33092E-03-4.28978E-02-8.26060E-15-1.47745E-13
 -1      4232 1.55726E+01 5.28978E-02 1.97846E-02 1.42232E+00 1.98843E-14-1.45483E-13
 -1      4233 1.46424E+01 1.93508E-01 3.14032E-02 1.09975E+00 1.08086E-13-3.35922E-13
 -1      4234 1.46388E+01 3.16105E-01-1.70755E-02 2.42123E-01 2.84636E-14-3.84185E-13
 -1      4235 1.58905E+01 3.86261E-01-1.31528E-02 9.16543E-01 8.68355E-14-9.38533E-14
 -1      4236 2.03735E+01 8.51394E-01-6.78762E-04-7.39181E-02-3.60876E-14-2.31356E-13
 -1      4237 2.03618E+01 9.60086E-01-2.97919E-03-6.60324E-02-6.23882E-15-2.47968E-13
 -1      4238 2.03365E+01-3.21033E-02 6.45196E-04-9.61862E-03-7.43458E-15-1.38676E-13
 -1      4239 2.03128E+01-6.06105E-02 9.93823E-04-8.46039E-03-1.93588E-14-1.74646E-13
 -1      4240 2.02892E+01-8.04899E-02 7.81498E-04-9.13380E-03-3.77275E-15-1.80079E-13
 -1      4241 2.02653E+01-9.54199E-02 9.26464E-04-8.72783E-03-7.70671E-15-1.66740E-13
 -1      4242 2.02429E+01-1.04116E-01 8.30408E-04-8.23783E-03-6.03937E-15-1.88262E-13
 -1      4243 2.02203E+01-1.09689E-01 8.29889E-04-8.33362E-03-4.53849E-15-1.81757E-13
 -1      4244 2.02001E+01-1.10838E-01 8.06276E-04-7.18438E-03 8.67823E-15-1.85841E-13
 -1      4245 2.01798E+01-1.10129E-01 7.17418E-04-7.56642E-03-3.92679E-15-1.27622E-13
 -1      4246 2.01620E+01-1.06331E-01 7.34532E-04-6.13342E-03-4.04029E-14-1.02254E-13
 -1      4247 2.01443E+01-1.01498E-01 5.99843E-04-6.64086E-03-2.82028E-14-9.02341E-14
 -1      4248 2.01292E+01-9.45201E-02 6.34064E-04-5.19265E-03-7.67160E-14-1.21714E-13
 -1      4249 2.01140E+01-8.69905E-02 4.83385E-04-5.70885E-03-1.00465E-13-1.31919E-13
 -1      4250 2.01011E+01-7.79493E-02 5.16910E-04-4.43572E-03-5.64295E-14-1.97821E-13
 -1      4251 2.00882E+01-6.85762E-02 3.70404E-04-4.87605E-03-3.90411E-15-2.16114E-13
 -1      4252 2.00772E+01-5.80812E-02 3.89379E-04-3.91556E-03 3.44675E-14-2.26988E-13
 -1      4253 2.00661E+01-4.72733E-02 2.60260E-04-4.21644E-03 1.67507E-14-2.35144E-13
 -1      4254 2.00563E+01-3.55445E-02 2.53248E-04-3.67400E-03-5.02141E-14-1.82046E-13
 -1      4255 2.00464E+01-2.33661E-02 1.50032E-04-3.78354E-03-7.69947E-14-1.73807E-13
 -1      4256 2.00372E+01-1.03255E-02 1.06745E-04-3.74793E-03-2.38881E-14-1.30781E-13
 -1      4257 2.00276E+01 3.42284E-03 3.50354E-05-3.61805E-03 3.12253E-14-1.10691E-13
 -1      4258 2.00182E+01 1.80783E-02-5.46835E-05-4.17205E-03 3.24405E-14-6.26596E-14
 -1      4259 2.00081E+01 3.37955E-02-9.07951E-05-3.75147E-03-3.84755E-15-5.17834E-14
 -1      4260 1.99975E+01 5.05330E-02-2.37809E-04-4.97770E-03-3.98843E-14-4.64341E-14
 -1      4261 1.99860E+01 6.87602E-02-2.34618E-04-4.20522E-03 8.87922E-15-1.18630E-13
 -1      4262 1.99731E+01 8.81547E-02-4.51201E-04-6.18680E-03 6.04914E-15-6.82076E-14
 -1      4263 1.99590E+01 1.09519E-01-4.04442E-04-4.98402E-03 9.57862E-15-7.70082E-15
 -1      4264 1.99426E+01 1.32195E-01-7.04913E-04-7.79925E-03-3.27808E-14-3.40879E-14
 -1      4265 1.99246E+01 1.57345E-01-6.08886E-04-6.06162E-03-3.26198E-14-7.31722E-14
 -1      4266 1.99031E+01 1.83905E-01-1.01027E-03-9.77163E-03-5.66807E-14-1.21213E-13
 -1      4267 1.98797E+01 2.13432E-01-8.56944E-04-7.35617E-03-4.73530E-14-2.42084E-13
 -1      4268 1.98514E+01 2.44368E-01-1.37978E-03-1.19840E-02-5.76657E-15-3.00963E-13
 -1      4269 1.98208E+01 2.78700E-01-1.15782E-03-8.69174E-03-1.43500E-14-3.39569E-13
 -1      4270 1.97837E+01 3.14275E-01-1.82741E-03-1.41915E-02 1.45683E-14-3.04732E-13
 -1      4271 1.97440E+01 3.53542E-01-1.52101E-03-9.74138E-03 3.08596E-14-2.70890E-13
 -1      4272 1.96957E+01 3.93635E-01-2.36953E-03-1.59574E-02 5.38101E-14-2.45350E-13
 -1      4273 1.96446E+01 4.37492E-01-1.95706E-03-9.94708E-03 1.20838E-13-2.66094E-13
 -1      4274 1.95824E+01 4.81403E-01-3.02730E-03-1.65652E-02 1.11993E-13-3.29010E-13
 -1      4275 1.95175E+01 5.28821E-01-2.47977E-03-8.41201E-03 7.95899E-14-2.50914E-13
 -1      4276 1.94382E+01 5.75036E-01-3.83192E-03-1.49095E-02 3.91996E-14-1.74984E-13
 -1      4277 1.93567E+01 6.24058E-01-3.11117E-03-3.76163E-03-9.61919E-15-1.85244E-13
 -1      4278 1.92565E+01 6.69987E-01-4.83504E-03-9.36954E-03-8.77216E-14-1.37480E-13
 -1      4279 1.91553E+01 7.17484E-01-3.89143E-03 6.02779E-03-1.34084E-14-1.69556E-13
 -1      4280 1.90297E+01 7.59198E-01-6.12829E-03 2.32532E-03 4.03343E-14-1.08343E-13
 -1      4281 1.89050E+01 8.00669E-01-4.89683E-03 2.38336E-02 3.07003E-14-1.05240E-13
 -1      4282 1.87479E+01 8.32686E-01-7.87678E-03 2.32320E-02 3.87112E-14-1.39644E-13
 -1      4283 1.85950E+01 8.62167E-01-6.26772E-03 5.36278E-02 4.32902E-14-6.40350E-14
 -1      4284 1.83981E+01 8.77360E-01-1.03660E-02 5.73459E-02-4.28902E-14-4.07811E-14
 -1      4285 1.82103E+01 8.87531E-01-8.23046E-03 1.00774E-01 3.45015E-15-6.83617E-14
 -1      4286 1.79606E+01 8.77305E-01-1.39987E-02 1.09894E-01 7.39538E-14-7.63550E-14
 -1      4287 1.77279E+01 8.59880E-01-1.09483E-02 1.72451E-01 5.65242E-14-1.43291E-13
 -1      4288 1.74054E+01 8.15314E-01-1.87264E-02 1.88453E-01-5.02040E-14-1.52362E-13
 -1      4289 1.71144E+01 7.61629E-01-1.32065E-02 2.79474E-01-1.54816E-13-1.42247E-13
 -1      4290 1.66873E+01 6.87173E-01-1.79645E-02 3.09443E-01-1.64792E-13-1.02425E-13
 -1      4291 1.63316E+01 5.91210E-01-2.11083E-03 4.23574E-01-2.45255E-14-1.24479E-13
 -1      4292 2.03595E+01 3.76757E-03 1.01578E-03-7.12985E-03-3.09437E-15-1.26698E-13
 -1      4293 2.03596E+01 9.88673E-01-2.25278E-03-3.09417E-02 1.11335E-14-2.10332E-13
 -1      4294 2.03623E+01 7.20887E-02 1.70418E-04-5.55782E-02 1.66640E-14-1.37919E-13
 -1      4295 2.03820E+01 1.33534E-01 4.33943E-04-4.18740E-02 1.71512E-14-1.46939E-13
 -1      4296 2.03954E+01 1.54898E-01-1.44862E-03-3.05151E-02 3.29179E-14-1.92105E-13
 -1      4297 2.03673E+01 5.14455E-02-1.25046E-03-4.01799E-02-2.61731E-14-1.24888E-13
 -1      4298 2.03806E+01 5.21230E-02 5.53968E-04-8.92523E-03-1.62006E-14-1.04041E-13
 -1      4299 2.04058E+01 7.90486E-01 3.53428E-03-1.11034E-02 3.48757E-15-2.08688E-13
 -1      4300 2.04318E+01 4.16918E-01 6.07782E-04-3.70071E-03-6.16106E-14-1.59426E-13
 -1      4301 2.04293E+01 2.99362E-01-8.45253E-04 5.34624E-03-2.81567E-14-1.34999E-13
 -1      4302 2.04111E+01 1.72239E-01 3.27578E-04-9.80868E-03 1.48915E-14-1.17571E-13
 -1      4303 2.03964E+01 1.00229E-01 9.03842E-04-5.63640E-03 3.85806E-15-1.02795E-13
 -1      4304 2.04169E+01 6.16125E-01-1.46281E-03-3.79876E-03-2.57846E-14-1.82981E-13
 -1      4305 2.04219E+01 5.54121E-01 3.33080E-04 3.64643E-03-2.45388E-14-1.96771E-13
 -1      4306 1.57797E+01 5.94735E-01-9.40358E-04 1.74425E-01-1.80259E-14-1.97526E-13
 -1      4307 2.04214E+01 2.89174E-01 3.77444E-04-1.13952E-02 1.06470E-14-1.39079E-13
 -1      4308 2.04272E+01 3.95162E-01-1.81005E-04 4.52954E-03 2.30214E-15-1.58258E-13
 -1      4309 2.04120E+01 2.19160E-01 2.15714E-04-1.60774E-02 2.20245E-14-1.50327E-13
 -1      4310 1.53329E+01 4.59251E-01-1.96220E-03 2.02661E-01 4.51640E-14-3.16292E-13
 -3
    1PSTEP                         3           1           1          
  100CL  101 1.000000000        4310                     0    1           1
 -4  TOSTRAIN    6    1
 -5  EXX         1    4    1    1
 -5  EYY         1    4    2    2
 -5  EZZ         1    4    3    3
 -5  EXY         1    4    1    2
 -5  EYZ         1    4    2    3
 -5  EZX         1    4    3    1
 -1         1 2.69078E-04-3.64667E-05-8.65945E-05-1.59007E-04 2.01033E-18-3.36484E-18
 -1         2 5.87109E-05-1.72381E-04 2.33403E-05-1.75442E-06 1.12830E-18 1.42455E-18
 -1         3 9.56874E-05-2.80087E-05-2.80530E-05 1.62120E-06-9.26019E-19-8.15107E-19
 -1         4 9.56610E-05-2.81224E-05-2.86805E-05-9.95378E-07 7.17880E-19-3.15411E-19
 -1         5 1.43348E-04-2.14781E-05-4.25293E-05 3.85305E-05-1.79889E-19 1.29617E-17
 -1         6 1.45409E-04 2.57584E-10-4.41883E-05-5.35252E-05-8.34751E-19 1.27885E-17
 -1         7 9.06131E-05-5.11432E-07-3.90696E-05-2.92495E-05-1.18161E-19 2.13979E-18
 -1         8 8.51292E-05 8.63068E-08-3.63405E-05-2.02671E-05-1.58210E-19-1.07963E-18
 -1         9 8.28184E-05 7.59555E-08-3.53521E-05-1.56345E-05-1.12616E-19-2.82509E-18
 -1        10 8.17721E-05 3.96734E-08-3.48819E-05-1.20729E-05-8.56628E-20-3.66795E-18
 -1        11 8.12519E-05 1.93092E-08-3.46527E-05-9.00943E-06-4.95415E-20-4.06225E-18
 -1        12 8.09811E-05 9.17583E-09-3.45374E-05-6.28041E-06-3.09117E-20-4.16028E-18
 -1        13 8.08380E-05 4.65051E-09-3.44792E-05-3.68292E-06-1.11702E-20-4.17495E-18
 -1        14 8.07781E-05 2.81746E-09-3.44553E-05-1.18274E-06-2.36946E-21-4.12759E-18
 -1        15 8.07802E-05 2.80297E-09-3.44561E-05 1.28801E-06 3.89149E-20-4.07401E-18
 -1        16 8.08444E-05 4.58239E-09-3.44815E-05 3.79335E-06 3.04742E-20-4.02221E-18
 -1        17 8.09925E-05 8.45036E-09-3.45412E-05 6.40285E-06 4.89377E-20-3.89603E-18
 -1        18 8.12692E-05 1.81942E-08-3.46577E-05 9.15085E-06 9.10428E-20-3.60300E-18
 -1        19 8.17979E-05 3.81831E-08-3.48903E-05 1.22525E-05 1.28471E-19-3.05519E-18
 -1        20 8.28387E-05 8.14603E-08-3.53646E-05 1.58653E-05 1.35393E-19-2.00303E-18
 -1        21 8.50945E-05 1.69307E-07-3.63790E-05 2.04779E-05 1.88306E-19 1.97365E-21
 -1        22 9.16499E-05-9.99644E-08-3.87412E-05 2.79966E-05 5.27278E-20 3.96143E-18
 -1        23 1.12983E-04-3.81293E-05-3.53996E-05-4.40146E-06-5.39004E-19 9.90467E-18
 -1        24 9.28200E-05-2.77018E-05-2.90038E-05 3.91467E-07-1.70217E-19 7.42311E-18
 -1        25 8.91395E-05-2.68581E-05-2.69354E-05 3.75917E-07-7.49492E-20 4.68446E-18
 -1        26 8.80411E-05-2.64960E-05-2.63995E-05 2.04311E-07-4.79550E-20 2.85011E-18
 -1        27 8.80734E-05-2.64761E-05-2.63932E-05 1.40107E-07-2.31027E-20 1.75949E-18
 -1        28 8.86131E-05-2.66143E-05-2.65646E-05 1.01098E-07-5.39522E-20 1.05987E-18
 -1        29 8.93743E-05-2.68288E-05-2.67991E-05 7.54700E-08-6.48365E-20 2.68437E-19
 -1        30 9.02058E-05-2.70706E-05-2.70512E-05 5.72335E-08 7.37639E-20-3.98119E-19
 -1        31 9.10225E-05-2.73111E-05-2.72975E-05 4.35354E-08-6.92026E-20-1.22061E-18
 -1        32 9.17771E-05-2.75348E-05-2.75249E-05 3.29400E-08-8.00712E-20-2.11187E-18
 -1        33 9.24457E-05-2.77338E-05-2.77265E-05 2.46393E-08 1.39169E-19-2.27572E-18
 -1        34 9.30192E-05-2.79049E-05-2.78995E-05 1.81166E-08-9.58544E-20-2.04989E-18
 -1        35 9.34981E-05-2.80481E-05-2.80441E-05 1.30035E-08 1.90391E-19-1.87843E-18
 -1        36 9.38883E-05-2.81650E-05-2.81621E-05 9.01528E-09-1.20346E-19-1.49080E-18
 -1        37 9.41992E-05-2.82583E-05-2.82561E-05 5.92186E-09-1.21836E-19-1.90982E-18
 -1        38 9.44414E-05-2.83311E-05-2.83295E-05 3.53395E-09-2.32384E-19-3.08808E-18
 -1        39 9.46267E-05-2.83869E-05-2.83857E-05 1.69657E-09 7.25686E-20-3.84203E-18
 -1        40 9.47665E-05-2.84292E-05-2.84282E-05 2.85882E-10-5.15511E-19-4.45771E-18
 -1        41 9.48724E-05-2.84613E-05-2.84605E-05-7.92079E-10 1.65969E-19-5.51374E-18
 -1        42 9.49561E-05-2.84868E-05-2.84861E-05-1.60152E-09-8.84471E-20-4.75903E-18
 -1        43 9.50297E-05-2.85093E-05-2.85087E-05-2.17576E-09-2.82966E-19-4.04268E-18
 -1        44 9.51063E-05-2.85328E-05-2.85323E-05-2.51475E-09 2.02345E-19-3.52185E-18
 -1        45 9.52005E-05-2.85616E-05-2.85612E-05-2.58087E-09-2.23495E-19-3.13141E-18
 -1        46 9.53294E-05-2.86010E-05-2.86008E-05-2.29284E-09 2.48635E-19-3.40601E-18
 -1        47 9.55136E-05-2.86570E-05-2.86571E-05-1.51750E-09 2.19002E-20-1.58997E-18
 -1        48 9.57773E-05-2.87370E-05-2.87375E-05-5.95420E-11-1.87675E-19-3.24141E-18
 -1        49 9.61500E-05-2.88497E-05-2.88510E-05 2.34991E-09 6.29981E-20-4.38613E-18
 -1        50 9.66661E-05-2.90054E-05-2.90079E-05 6.06406E-09-1.80316E-19-4.68425E-18
 -1        51 9.73650E-05-2.92159E-05-2.92201E-05 1.15256E-08 1.09408E-19-4.50936E-18
 -1        52 9.82899E-05-2.94938E-05-2.95003E-05 1.92565E-08 2.50118E-19-1.73957E-18
 -1        53 9.94840E-05-2.98520E-05-2.98615E-05 2.98108E-08-5.18370E-19-3.71847E-18
 -1        54 1.00984E-04-3.03011E-05-3.03141E-05 4.36531E-08 4.22210E-19-4.56072E-18
 -1        55 1.02809E-04-3.08462E-05-3.08626E-05 6.08901E-08-2.38429E-19-3.97385E-18
 -1        56 1.04938E-04-3.14809E-05-3.14995E-05 8.07425E-08-3.19970E-19-5.18351E-18
 -1        57 1.07285E-04-3.21782E-05-3.21954E-05 1.00600E-07 1.51650E-20-5.78906E-18
 -1        58 1.09648E-04-3.28785E-05-3.28863E-05 1.14527E-07 3.99007E-19-4.60602E-18
 -1        59 1.11664E-04-3.34730E-05-3.34577E-05 1.11346E-07 1.86918E-19-3.48946E-18
 -1        60 1.12754E-04-3.37906E-05-3.37330E-05 7.32257E-08 3.37494E-19-1.97491E-18
 -1        61 1.12120E-04-3.35955E-05-3.34767E-05-2.25723E-08 3.90474E-19 2.39032E-19
 -1        62 1.08847E-04-3.26175E-05-3.24336E-05-1.94112E-07-1.04250E-18-2.29238E-18
 -1        63 1.02206E-04-3.06396E-05-3.04234E-05-4.33584E-07 2.13917E-19-5.78201E-18
 -1        64 9.21743E-05-2.76515E-05-2.74873E-05-6.79691E-07-3.75295E-19-6.62007E-18
 -1        65 8.00155E-05-2.40241E-05-2.40289E-05-8.08881E-07-2.40463E-19-2.74015E-18
 -1        66 6.84852E-05-2.05758E-05-2.08332E-05-6.83869E-07-3.90449E-19-2.26243E-18
 -1        67 6.11699E-05-1.83793E-05-1.88625E-05-2.54662E-07 6.29021E-20-1.59331E-18
 -1        68 6.09674E-05-1.83046E-05-1.88604E-05 3.73812E-07 4.41718E-19 3.54806E-18
 -1        69 6.84834E-05-2.05407E-05-2.09271E-05 9.82013E-07 6.19294E-19 3.12206E-18
 -1        70 8.10502E-05-2.43402E-05-2.42592E-05 1.21386E-06-2.98819E-20 6.25523E-18
 -1        71 9.28516E-05-2.81846E-05-2.72534E-05 7.97983E-07-5.59605E-19 5.60588E-18
 -1        72 1.02187E-04-3.05899E-05-3.41528E-05-1.92939E-06 2.27164E-19 1.16788E-17
 -1        73 9.25763E-05-2.75177E-05-2.89121E-05-3.33326E-07 7.26298E-20 8.82207E-18
 -1        74 8.91273E-05-2.67077E-05-2.69786E-05-1.25983E-07 4.52732E-20 6.69728E-18
 -1        75 8.80714E-05-2.64469E-05-2.64434E-05-9.56559E-08-3.33821E-20 5.14211E-18
 -1        76 8.81080E-05-2.64560E-05-2.64199E-05-7.66812E-08 1.79953E-20 3.90624E-18
 -1        77 8.86469E-05-2.66086E-05-2.65817E-05-6.26570E-08-8.68953E-21 2.69564E-18
 -1        78 8.94056E-05-2.68301E-05-2.68115E-05-5.19345E-08 1.66551E-19 2.20656E-18
 -1        79 9.02338E-05-2.70752E-05-2.70607E-05-4.31178E-08 2.63692E-20 1.79695E-18
 -1        80 9.10468E-05-2.73172E-05-2.73049E-05-3.55547E-08 2.65941E-20 1.30092E-18
 -1        81 9.17978E-05-2.75413E-05-2.75306E-05-2.89885E-08 1.21604E-19 2.11331E-19
 -1        82 9.24630E-05-2.77401E-05-2.77309E-05-2.33041E-08 1.44744E-19-8.22869E-19
 -1        83 9.30335E-05-2.79108E-05-2.79028E-05-1.84280E-08-9.22635E-20-4.63887E-19
 -1        84 9.35096E-05-2.80533E-05-2.80466E-05-1.42902E-08 1.45467E-19-7.85314E-19
 -1        85 9.38973E-05-2.81694E-05-2.81638E-05-1.08136E-08-1.58550E-19-1.09717E-18
 -1        86 9.42059E-05-2.82619E-05-2.82573E-05-7.91308E-09 1.58222E-19-2.07085E-18
 -1        87 9.44462E-05-2.83339E-05-2.83302E-05-5.49869E-09-1.20518E-20-2.26872E-18
 -1        88 9.46297E-05-2.83890E-05-2.83860E-05-3.47953E-09-1.25849E-19-1.88992E-18
 -1        89 9.47677E-05-2.84305E-05-2.84281E-05-1.76768E-09-2.40814E-21-1.57017E-18
 -1        90 9.48719E-05-2.84618E-05-2.84600E-05-2.81545E-10 1.80337E-19-3.11145E-18
 -1        91 9.49536E-05-2.84865E-05-2.84852E-05 1.05126E-09-3.90416E-19-2.40913E-18
 -1        92 9.50250E-05-2.85081E-05-2.85072E-05 2.29119E-09 2.02136E-19-1.30233E-18
 -1        93 9.50990E-05-2.85306E-05-2.85301E-05 3.48361E-09-3.59890E-19-7.42396E-19
 -1        94 9.51902E-05-2.85582E-05-2.85583E-05 4.65466E-09 3.89978E-19-2.23937E-18
 -1        95 9.53161E-05-2.85964E-05-2.85971E-05 5.80514E-09 1.22519E-19-4.94322E-18
 -1        96 9.54975E-05-2.86512E-05-2.86528E-05 6.90138E-09 1.61622E-19-3.89917E-18
 -1        97 9.57602E-05-2.87305E-05-2.87333E-05 7.86112E-09-3.06181E-19-1.75352E-18
 -1        98 9.61360E-05-2.88437E-05-2.88482E-05 8.53200E-09 1.14676E-19-3.32301E-19
 -1        99 9.66638E-05-2.90025E-05-2.90092E-05 8.65826E-09-3.45591E-19-3.12294E-20
 -1       100 9.73914E-05-2.92211E-05-2.92309E-05 7.83001E-09-5.29829E-20 1.47187E-18
 -1       101 9.83751E-05-2.95164E-05-2.95303E-05 5.40700E-09 8.81241E-20 6.58468E-19
 -1       102 9.96803E-05-2.99076E-05-2.99269E-05 4.09233E-10-2.27222E-20-8.91271E-19
 -1       103 1.01378E-04-3.04157E-05-3.04419E-05-8.62606E-09-7.89014E-20 2.35783E-19
 -1       104 1.03537E-04-3.10609E-05-3.10955E-05-2.37938E-08-1.22389E-19 1.25706E-18
 -1       105 1.06209E-04-3.18580E-05-3.19015E-05-4.78729E-08-4.83373E-20 1.83085E-19
 -1       106 1.09397E-04-3.28071E-05-3.28570E-05-8.40008E-08-2.94016E-19-2.60972E-19
 -1       107 1.12998E-04-3.38778E-05-3.39249E-05-1.34339E-07 4.97103E-20-4.87408E-19
 -1       108 1.16717E-04-3.49832E-05-3.50056E-05-1.96559E-07 5.56845E-19-2.35824E-18
 -1       109 1.19941E-04-3.59448E-05-3.59009E-05-2.56639E-07-1.11636E-20-2.20014E-18
 -1       110 1.21607E-04-3.64534E-05-3.62818E-05-2.78099E-07-3.53793E-19-7.64328E-19
 -1       111 1.20171E-04-3.60567E-05-3.56979E-05-1.94628E-07 2.89715E-19-1.38205E-19
 -1       112 1.13873E-04-3.42287E-05-3.36863E-05 7.31750E-08 1.69393E-19-6.85488E-19
 -1       113 1.01574E-04-3.06014E-05-3.00271E-05 5.47153E-07 2.50417E-19-5.81276E-19
 -1       114 8.41184E-05-2.53714E-05-2.50874E-05 1.08370E-06-9.04648E-19 2.50446E-18
 -1       115 6.54214E-05-1.96690E-05-2.00061E-05 1.35033E-06 4.04055E-19 2.23378E-18
 -1       116 5.17806E-05-1.54214E-05-1.64074E-05 1.04098E-06 9.88226E-19-1.30117E-18
 -1       117 4.87489E-05-1.44060E-05-1.56341E-05 2.00497E-07 2.42298E-20-6.06245E-18
 -1       118 5.76565E-05-1.70672E-05-1.80019E-05-8.11190E-07 1.74998E-19-5.46940E-18
 -1       119 7.46183E-05-2.22234E-05-2.23724E-05-1.69472E-06-3.94449E-19-2.83269E-18
 -1       120 9.08663E-05-2.76352E-05-2.64384E-05-1.68279E-06 9.52118E-19-5.73018E-19
 -1       121 9.66457E-05-3.39575E-05-2.61234E-05-1.75435E-06-1.25700E-18 8.51930E-20
 -1       122 1.01938E-04-5.12783E-05-2.15012E-05-2.25744E-06-3.62922E-18-1.55180E-18
 -1       123 1.07567E-04-7.00352E-05-1.70541E-05-2.29566E-06-3.91710E-18 1.28638E-18
 -1       124 1.09919E-04-7.68298E-05-1.66600E-05-6.99041E-07-1.35739E-18 3.61432E-19
 -1       125 1.04513E-04-5.80722E-05-2.31556E-05 3.36663E-06 3.82435E-19 6.90067E-19
 -1       126 9.05964E-05-1.33723E-05-3.49598E-05 8.21256E-06-7.85835E-19-6.74834E-19
 -1       127 7.16727E-05 4.58982E-05-4.83926E-05 1.05660E-05-3.20306E-18 1.11659E-18
 -1       128 5.36430E-05 1.03765E-04-6.04804E-05 8.49368E-06-1.35038E-18 1.04688E-19
 -1       129 4.33423E-05 1.36300E-04-6.68123E-05 1.98156E-07-2.93553E-18 7.13043E-19
 -1       130 5.21128E-05 1.10181E-04-6.18939E-05-9.63655E-06 1.52699E-18-1.87724E-19
 -1       131 7.23166E-05 4.73409E-05-4.89378E-05-1.09480E-05-2.40134E-18-8.84514E-19
 -1       132 9.32842E-05-2.03452E-05-3.32356E-05-7.06431E-06-5.52625E-18 3.94810E-19
 -1       133 1.06966E-04-6.70966E-05-2.04550E-05-2.46196E-06-1.23614E-18 6.03352E-19
 -1       134 1.12476E-04-8.57583E-05-1.36072E-05 1.12113E-06-2.25876E-18 6.30034E-19
 -1       135 1.10034E-04-7.84332E-05-1.42686E-05 1.95403E-06-5.97460E-18-8.49127E-19
 -1       136 1.05017E-04-6.15608E-05-1.85698E-05 1.83100E-06-1.15042E-17 1.26476E-19
 -1       137 1.00014E-04-4.45082E-05-2.34024E-05 1.99644E-06-1.05981E-17 1.76320E-19
 -1       138 9.63497E-05-3.22752E-05-2.69618E-05 1.06721E-06-5.92664E-18 1.08380E-18
 -1       139 3.88474E-05-1.24411E-04 1.59625E-05-2.99183E-05 7.48015E-18 9.47089E-19
 -1       140 1.27595E-05-2.28553E-05-5.36198E-06-1.93429E-06 4.92380E-18 2.11504E-18
 -1       141 2.82217E-05 4.66786E-05-3.15631E-05 6.94034E-05 4.53756E-18 4.47233E-18
 -1       142 1.08310E-04 4.69212E-05-5.86389E-05 1.43608E-04 3.89212E-18 4.01155E-18
 -1       143 2.29327E-04-1.13311E-05-8.11145E-05 1.68198E-04-7.65930E-19-5.87417E-19
 -1       144 3.31362E-04-7.81313E-05-9.40395E-05 1.25840E-04 2.14829E-19-2.29546E-19
 -1       145 3.78048E-04-1.14783E-04-9.78520E-05 3.79914E-05 1.16261E-18-2.00834E-18
 -1       146 3.47584E-04-1.02137E-04-9.18129E-05-5.78720E-05 2.92147E-19-1.25784E-18
 -1       147 2.52182E-04-5.02566E-05-7.68476E-05-1.16179E-04 1.36626E-18-2.49409E-18
 -1       148 1.34647E-04 4.81184E-06-5.53190E-05-1.13146E-04 4.28556E-18-6.40823E-18
 -1       149 3.49373E-05 2.26287E-05-2.66721E-05-5.26711E-05 1.06112E-17-1.09487E-17
 -1       150 4.90832E-06-1.16398E-05-4.08866E-06 6.47710E-06 1.06248E-17-7.54240E-18
 -1       151 1.68380E-05-7.37693E-05 1.37997E-05 3.47365E-05 2.33273E-18-1.28050E-18
 -1       152 3.80982E-05-1.24295E-04 2.42536E-05 2.36481E-05-5.89027E-18 3.76260E-19
 -1       153 4.28527E-05-1.33335E-04 2.58399E-05-1.13053E-05-6.92555E-18-1.03087E-18
 -1       154 2.42119E-05-9.17313E-05 1.77783E-05-3.37704E-05-4.40542E-18-1.05667E-19
 -1       155 6.36799E-06-2.83492E-05 1.61574E-06-1.66032E-05 8.00870E-19 1.64748E-19
 -1       156 1.88771E-05 1.91607E-05-1.95356E-05 3.44770E-05 2.44750E-18 1.89608E-18
 -1       157 9.00583E-05 2.12636E-05-4.54031E-05 9.82530E-05 2.46360E-18 3.91117E-18
 -1       158 2.01191E-04-2.42733E-05-6.83356E-05 1.22887E-04 1.24302E-18 1.67035E-18
 -1       159 3.08945E-04-8.21436E-05-8.57842E-05 8.85522E-05-4.98902E-19-1.99984E-18
 -1       160 3.69789E-04-1.14640E-04-9.55964E-05 1.83403E-06-7.75141E-19-5.12698E-18
 -1       161 3.52246E-04-9.52027E-05-9.59103E-05-9.58040E-05 5.04851E-19-2.17349E-18
 -1       162 1.62483E-04 2.64727E-05-7.05270E-05-1.65417E-04 4.55323E-18-6.46921E-18
 -1       163 6.43673E-05 5.78661E-05-4.70824E-05-1.15212E-04 7.27432E-18-6.08508E-18
 -1       164 1.54593E-05 3.21875E-05-2.28015E-05-4.33341E-05 3.58464E-18-5.14869E-18
 -1       165 1.61973E-05-4.58385E-05 5.39192E-07 1.59009E-05 2.45640E-20 1.55367E-18
 -1       166 4.19340E-05-1.32088E-04 1.68287E-05 2.88513E-05-4.17248E-18 4.43369E-19
 -1       167 9.48759E-05-1.23491E-05-3.55714E-05-2.23446E-05-1.93566E-18 4.73438E-19
 -1       168 8.92542E-05-8.45737E-06-3.47890E-05-1.73862E-05-1.67900E-18-1.52117E-18
 -1       169 8.65506E-05-6.50526E-06-3.44169E-05-1.35782E-05-1.35304E-18-2.60641E-18
 -1       170 8.51890E-05-5.51307E-06-3.42308E-05-1.03676E-05-9.99992E-19-3.19597E-18
 -1       171 8.44448E-05-4.94388E-06-3.41407E-05-7.54275E-06-6.52095E-19-3.39731E-18
 -1       172 8.40148E-05-4.59721E-06-3.40977E-05-4.90021E-06-3.63921E-19-3.52129E-18
 -1       173 8.37950E-05-4.41237E-06-3.40792E-05-2.39350E-06-6.53886E-20-3.50217E-18
 -1       174 8.37303E-05-4.35656E-06-3.40743E-05 5.11774E-08 2.23584E-19-3.49569E-18
 -1       175 8.38050E-05-4.42090E-06-3.40800E-05 2.49800E-06 5.12792E-19-3.43926E-18
 -1       176 8.40365E-05-4.61642E-06-3.40992E-05 5.01155E-06 7.77004E-19-3.35429E-18
 -1       177 8.44714E-05-4.97004E-06-3.41416E-05 7.61968E-06 1.01472E-18-3.12194E-18
 -1       178 8.52500E-05-5.57328E-06-3.42321E-05 1.05080E-05 1.39092E-18-2.72297E-18
 -1       179 8.66492E-05-6.60853E-06-3.44194E-05 1.37785E-05 1.72095E-18-2.06222E-18
 -1       180 8.93974E-05-8.60135E-06-3.47939E-05 1.76182E-05 1.93941E-18-7.42477E-19
 -1       181 9.57877E-05-1.36162E-05-3.54278E-05 2.18900E-05 1.90647E-18 1.68324E-18
 -1       182 1.05614E-04-2.61052E-05-3.52655E-05 1.86603E-05 1.48861E-18 4.86615E-18
 -1       183 1.03409E-04-2.73051E-05-3.26136E-05-1.21238E-05-1.66807E-18 2.82374E-18
 -1       184 9.71214E-05-2.82939E-05-2.95328E-05-4.72771E-06-1.55047E-18 2.03652E-18
 -1       185 9.35229E-05-2.76410E-05-2.81871E-05-1.76513E-06-1.10164E-18 1.38469E-18
 -1       186 9.19912E-05-2.74114E-05-2.76416E-05-4.16536E-07-7.31198E-19 6.58472E-19
 -1       187 9.14186E-05-2.73373E-05-2.74451E-05 2.47730E-07-5.47512E-19 2.07558E-19
 -1       188 9.13802E-05-2.73772E-05-2.74213E-05 5.73841E-07-5.46673E-19-8.69284E-20
 -1       189 9.16273E-05-2.74810E-05-2.74873E-05 7.12858E-07-4.65210E-19-5.45489E-19
 -1       190 9.20145E-05-2.76143E-05-2.75983E-05 7.43632E-07-5.81954E-19-9.83337E-19
 -1       191 9.24544E-05-2.77558E-05-2.77274E-05 7.11932E-07-4.33829E-19-9.34601E-19
 -1       192 9.28949E-05-2.78923E-05-2.78584E-05 6.46122E-07-2.80531E-19-9.97171E-19
 -1       193 9.33060E-05-2.80169E-05-2.79815E-05 5.64295E-07 3.62195E-19-1.59205E-18
 -1       194 9.36721E-05-2.81259E-05-2.80919E-05 4.78012E-07 7.25814E-20-1.27180E-18
 -1       195 9.39870E-05-2.82184E-05-2.81873E-05 3.94505E-07 1.34837E-19-1.48607E-18
 -1       196 9.42503E-05-2.82947E-05-2.82674E-05 3.18097E-07-2.48419E-19-1.11312E-18
 -1       197 9.44655E-05-2.83563E-05-2.83332E-05 2.51195E-07-7.36450E-19-9.98172E-19
 -1       198 9.46384E-05-2.84051E-05-2.83862E-05 1.95004E-07-4.87114E-19-1.32992E-18
 -1       199 9.47760E-05-2.84433E-05-2.84287E-05 1.50065E-07-7.77060E-19-1.62728E-18
 -1       200 9.48862E-05-2.84733E-05-2.84630E-05 1.16660E-07-5.74138E-19-1.73915E-18
 -1       201 9.49775E-05-2.84975E-05-2.84915E-05 9.51193E-08-2.85750E-19-2.18905E-18
 -1       202 9.50591E-05-2.85187E-05-2.85173E-05 8.60722E-08 4.17927E-20-2.77686E-18
 -1       203 9.51409E-05-2.85396E-05-2.85432E-05 9.06305E-08 2.55808E-19-2.33212E-18
 -1       204 9.52342E-05-2.85633E-05-2.85728E-05 1.10538E-07 2.54471E-19-1.88596E-18
 -1       205 9.53518E-05-2.85936E-05-2.86099E-05 1.48273E-07 5.81119E-19-1.49042E-18
 -1       206 9.55086E-05-2.86347E-05-2.86592E-05 2.07098E-07 7.96139E-19-6.88513E-19
 -1       207 9.57222E-05-2.86916E-05-2.87260E-05 2.91032E-07-1.00585E-18-1.31536E-19
 -1       208 9.60129E-05-2.87704E-05-2.88165E-05 4.04697E-07-7.01367E-19-7.66591E-19
 -1       209 9.64043E-05-2.88779E-05-2.89378E-05 5.52956E-07-4.41360E-19-2.04544E-18
 -1       210 9.69226E-05-2.90223E-05-2.90977E-05 7.40234E-07 6.41615E-19-1.87521E-18
 -1       211 9.75958E-05-2.92125E-05-2.93044E-05 9.69310E-07 8.74781E-19-1.03939E-18
 -1       212 9.84514E-05-2.94581E-05-2.95657E-05 1.23930E-06-4.96754E-19-1.24806E-18
 -1       213 9.95124E-05-2.97681E-05-2.98877E-05 1.54242E-06-8.28334E-19-1.06172E-18
 -1       214 1.00791E-04-3.01503E-05-3.02724E-05 1.85901E-06-4.76404E-19-1.83210E-18
 -1       215 1.02277E-04-3.06079E-05-3.07146E-05 2.15030E-06-4.16137E-19-2.29224E-18
 -1       216 1.03924E-04-3.11369E-05-3.11965E-05 2.34871E-06 5.92212E-19-1.15122E-18
 -1       217 1.05629E-04-3.17190E-05-3.16814E-05 2.34694E-06 1.19911E-19-1.02533E-18
 -1       218 1.07206E-04-3.23133E-05-3.21071E-05 1.99013E-06 8.57547E-19-1.18780E-18
 -1       219 1.08361E-04-3.28429E-05-3.23802E-05 1.08185E-06 9.95750E-19-1.14169E-18
 -1       220 1.08683E-04-3.31775E-05-3.23785E-05-5.75994E-07 3.14841E-19-1.27541E-18
 -1       221 1.07667E-04-3.31185E-05-3.19685E-05-3.08232E-06-1.51916E-18-2.24718E-18
 -1       222 1.04816E-04-3.24075E-05-3.10464E-05-6.26147E-06-1.58687E-18-1.16833E-18
 -1       223 9.98580E-05-3.07970E-05-2.96014E-05-9.46260E-06-3.67007E-19-2.40288E-18
 -1       224 9.30632E-05-2.82234E-05-2.77802E-05-1.14991E-05 2.30600E-18-1.91607E-18
 -1       225 8.55416E-05-2.50496E-05-2.59082E-05-1.09821E-05 6.94024E-19-9.05683E-19
 -1       226 7.91926E-05-2.21617E-05-2.44226E-05-7.12803E-06 1.67942E-18 6.37240E-19
 -1       227 7.60423E-05-2.06601E-05-2.37193E-05-5.85492E-07 2.35834E-18 2.35089E-18
 -1       228 7.71807E-05-2.12343E-05-2.39665E-05 6.49335E-06 6.41608E-19 2.26647E-18
 -1       229 8.21186E-05-2.38954E-05-2.49447E-05 1.12146E-05 1.33613E-18 2.61466E-18
 -1       230 8.90798E-05-2.80424E-05-2.61282E-05 1.09191E-05-7.64972E-19 2.59452E-18
 -1       231 9.95131E-05-2.85582E-05-3.05908E-05 7.20831E-06 1.37697E-18 4.13773E-18
 -1       232 9.44316E-05-2.77953E-05-2.85291E-05 2.74066E-06 1.07134E-18 2.99333E-18
 -1       233 9.21150E-05-2.74065E-05-2.76872E-05 9.26321E-07 8.06025E-19 2.19311E-18
 -1       234 9.11701E-05-2.72450E-05-2.73695E-05 6.37641E-08 7.80233E-19 1.49673E-18
 -1       235 9.09625E-05-2.72391E-05-2.72965E-05-3.64658E-07 5.45414E-19 1.03851E-18
 -1       236 9.11505E-05-2.73264E-05-2.73465E-05-5.65885E-07 3.52817E-19 6.19749E-19
 -1       237 9.15385E-05-2.74608E-05-2.74583E-05-6.39106E-07 3.11240E-19 2.27286E-19
 -1       238 9.20115E-05-2.76131E-05-2.75974E-05-6.38214E-07 3.16696E-19-3.29595E-19
 -1       239 9.25010E-05-2.77654E-05-2.77428E-05-5.95341E-07 4.80884E-19-7.19587E-19
 -1       240 9.29670E-05-2.79076E-05-2.78822E-05-5.30647E-07 1.91868E-19-6.54360E-19
 -1       241 9.33880E-05-2.80343E-05-2.80087E-05-4.57011E-07 1.01690E-19-3.08180E-19
 -1       242 9.37539E-05-2.81432E-05-2.81191E-05-3.82605E-07 4.21436E-19-5.59815E-19
 -1       243 9.40627E-05-2.82342E-05-2.82125E-05-3.12445E-07 5.10565E-19-1.09656E-18
 -1       244 9.43166E-05-2.83084E-05-2.82895E-05-2.49444E-07 2.24043E-19-1.27761E-18
 -1       245 9.45212E-05-2.83676E-05-2.83518E-05-1.95141E-07-6.12083E-21-9.47310E-19
 -1       246 9.46834E-05-2.84141E-05-2.84014E-05-1.50245E-07-4.24507E-19-1.16834E-18
 -1       247 9.48113E-05-2.84503E-05-2.84406E-05-1.15047E-07 3.86202E-19-1.32718E-18
 -1       248 9.49135E-05-2.84788E-05-2.84721E-05-8.97281E-08 4.10581E-19-1.78767E-18
 -1       249 9.49993E-05-2.85023E-05-2.84987E-05-7.46097E-08-6.40172E-19-1.58411E-18
 -1       250 9.50784E-05-2.85236E-05-2.85234E-05-7.03483E-08-2.79095E-19-2.02294E-18
 -1       251 9.51618E-05-2.85459E-05-2.85495E-05-7.81014E-08-3.26045E-19-1.76810E-18
 -1       252 9.52620E-05-2.85727E-05-2.85808E-05-9.96707E-08 8.38604E-19-2.34973E-18
 -1       253 9.53934E-05-2.86083E-05-2.86217E-05-1.37629E-07 6.99191E-19-3.04859E-18
 -1       254 9.55734E-05-2.86575E-05-2.86775E-05-1.95430E-07-1.21833E-18-2.02968E-18
 -1       255 9.58229E-05-2.87265E-05-2.87547E-05-2.77494E-07-1.21345E-18 4.21865E-19
 -1       256 9.61671E-05-2.88225E-05-2.88608E-05-3.89238E-07-7.04348E-19 7.95648E-19
 -1       257 9.66362E-05-2.89544E-05-2.90051E-05-5.37010E-07 3.40702E-19 1.02988E-18
 -1       258 9.72657E-05-2.91326E-05-2.91983E-05-7.27827E-07-7.99332E-19-2.34173E-19
 -1       259 9.80965E-05-2.93695E-05-2.94527E-05-9.68731E-07 2.97033E-19 3.16148E-19
 -1       260 9.91736E-05-2.96787E-05-2.97818E-05-1.26545E-06 4.69729E-19 8.89164E-19
 -1       261 1.00543E-04-3.00753E-05-3.01989E-05-1.61979E-06-4.26640E-19 3.94405E-19
 -1       262 1.02244E-04-3.05738E-05-3.07153E-05-2.02479E-06 1.15085E-19 3.74811E-19
 -1       263 1.04302E-04-3.11861E-05-3.13360E-05-2.45627E-06 8.63632E-19 2.62143E-19
 -1       264 1.06698E-04-3.19166E-05-3.20525E-05-2.85876E-06-1.74116E-19 3.32252E-19
 -1       265 1.09347E-04-3.27546E-05-3.28313E-05-3.12437E-06 1.13554E-18-2.80649E-19
 -1       266 1.12036E-04-3.36607E-05-3.35986E-05-3.06597E-06 5.25834E-19-1.24089E-18
 -1       267 1.14373E-04-3.45454E-05-3.42213E-05-2.39537E-06-7.60303E-19-1.31008E-18
 -1       268 1.15716E-04-3.52361E-05-3.44959E-05-7.38886E-07-3.22068E-19-7.87914E-19
 -1       269 1.15173E-04-3.54370E-05-3.41640E-05 2.24334E-06-4.38055E-19 8.11514E-19
 -1       270 1.11734E-04-3.47109E-05-3.29838E-05 6.55651E-06 5.04759E-19 1.89256E-18
 -1       271 1.04680E-04-3.25699E-05-3.08704E-05 1.13933E-05-3.91601E-19 1.84694E-18
 -1       272 9.43155E-05-2.88151E-05-2.80578E-05 1.48233E-05-1.58814E-18 2.36707E-18
 -1       273 8.26806E-05-2.40740E-05-2.51560E-05 1.43536E-05 1.96975E-18 2.17596E-18
 -1       274 7.34053E-05-2.00209E-05-2.29695E-05 8.70126E-06 3.00907E-18-3.29800E-19
 -1       275 6.99752E-05-1.85280E-05-2.21440E-05-4.58496E-07 1.74976E-18-1.08945E-18
 -1       276 7.32970E-05-2.00819E-05-2.28580E-05-9.18495E-06-2.72176E-19-2.13197E-18
 -1       277 8.12915E-05-2.39856E-05-2.45122E-05-1.36877E-05-2.10370E-18-3.89768E-19
 -1       278 9.05019E-05-2.92634E-05-2.60401E-05-1.11351E-05 1.01553E-18 5.18940E-20
 -1       279 9.55411E-05-3.60246E-05-2.54160E-05-1.52612E-05-6.15211E-19-1.40078E-18
 -1       280 1.00795E-04-4.35632E-05-2.44631E-05-1.57949E-05 4.72750E-19 1.14522E-19
 -1       281 1.06517E-04-4.88312E-05-2.47569E-05-5.49167E-06-4.54923E-19 1.70751E-18
 -1       282 1.11270E-04-4.81673E-05-2.71527E-05 1.65587E-05-1.34802E-18 3.74071E-19
 -1       283 1.11251E-04-4.00921E-05-3.05767E-05 4.46564E-05-1.47717E-18-1.62351E-18
 -1       284 1.02570E-04-2.40185E-05-3.34883E-05 6.76200E-05-2.26272E-18-2.81996E-18
 -1       285 8.27811E-05 5.98808E-07-3.50967E-05 7.25694E-05-2.00305E-18 2.46021E-18
 -1       286 5.67035E-05 2.67088E-05-3.49845E-05 4.28874E-05-4.23252E-20-1.21126E-19
 -1       287 5.01987E-05 3.27003E-05-3.45490E-05-2.09989E-05-1.03376E-18 2.02737E-18
 -1       288 7.07103E-05 1.39812E-05-3.52701E-05-6.74121E-05-8.68255E-19-1.50782E-18
 -1       289 9.75246E-05-1.59010E-05-3.44956E-05-7.37745E-05-1.58633E-19-2.81474E-18
 -1       290 1.11360E-04-3.95793E-05-3.07280E-05-5.03032E-05-3.08789E-18 3.47006E-19
 -1       291 1.12028E-04-5.24283E-05-2.56871E-05-1.57413E-05-4.02434E-18-4.45486E-20
 -1       292 1.06732E-04-5.30780E-05-2.29806E-05 5.78112E-06-3.57337E-18-9.82611E-19
 -1       293 1.02107E-04-4.83295E-05-2.29896E-05 1.43382E-05-3.36665E-18-2.52841E-18
 -1       294 9.81816E-05-4.11652E-05-2.43736E-05 1.48875E-05-3.30766E-18 1.21959E-18
 -1       295 9.42646E-05-3.37307E-05-2.59180E-05 1.49442E-05-1.61352E-18 1.41289E-18
 -1       296 2.14816E-05-4.65993E-05 4.33723E-06 2.32593E-05 1.56987E-18 1.79952E-18
 -1       297 5.32093E-05-4.52734E-05-7.06791E-06 6.58283E-05 8.47033E-19 5.40195E-19
 -1       298 9.16142E-05-4.11662E-05-2.29597E-05 7.42007E-05 2.59065E-18 3.07134E-18
 -1       299 1.34423E-04-2.85981E-05-4.39877E-05 7.93760E-05 2.56651E-18 1.92742E-18
 -1       300 1.80554E-04-2.32197E-05-6.43596E-05 7.69057E-05 3.06827E-18 1.87194E-19
 -1       301 2.23540E-04-2.80278E-05-7.96081E-05 6.70995E-05 9.78905E-19 4.89373E-19
 -1       302 2.45484E-04-3.49084E-05-8.61272E-05 4.03497E-05 6.31251E-19-1.24027E-18
 -1       303 2.48617E-04-4.06138E-05-8.52588E-05 1.14091E-05 5.72806E-19-5.73441E-19
 -1       304 2.28031E-04-4.26620E-05-7.63246E-05-1.52790E-05 1.37982E-18-2.05617E-18
 -1       305 1.88751E-04-4.28881E-05-6.07287E-05-3.37105E-05 3.36246E-18-8.36657E-19
 -1       306 1.43312E-04-5.25557E-05-3.87332E-05-3.49803E-05 5.05552E-18 4.12082E-19
 -1       307 8.04965E-05-4.40500E-05-1.70003E-05-3.84265E-05 4.87743E-18-4.92211E-18
 -1       308 4.43758E-05-5.23572E-05 6.79447E-07-2.53571E-05 2.19022E-18-6.15838E-18
 -1       309 2.31455E-05-5.99223E-05 1.25604E-05-1.46691E-05 5.84876E-19-5.22122E-18
 -1       310 1.23905E-05-6.10263E-05 1.75688E-05-1.34996E-06-1.49303E-18-1.37368E-18
 -1       311 1.86070E-05-6.32868E-05 1.55262E-05 1.07667E-05-1.94246E-18 1.17589E-18
 -1       312 3.82626E-05-5.36427E-05 4.18382E-06 2.71173E-05-1.54753E-18 1.21703E-18
 -1       313 6.68090E-05-4.41218E-05-1.14172E-05 3.62692E-05-1.03613E-18 1.26293E-18
 -1       314 1.16712E-04-4.28184E-05-3.18659E-05 4.35935E-05 3.85824E-19 1.63943E-18
 -1       315 1.65510E-04-3.78727E-05-5.32894E-05 4.53909E-05 2.85694E-18 7.89011E-19
 -1       316 2.11356E-04-4.11580E-05-7.03945E-05 2.70858E-05 2.31176E-18-1.07573E-19
 -1       317 2.45615E-04-4.35816E-05-8.27638E-05 2.69426E-06 1.34159E-18-1.56087E-18
 -1       318 2.52327E-04-3.94106E-05-8.69916E-05-3.07470E-05-1.37219E-19-3.96135E-18
 -1       319 2.25114E-04-2.62644E-05-8.16992E-05-5.49797E-05 1.42799E-18-3.12280E-18
 -1       320 1.96557E-04-2.04593E-05-7.18361E-05-7.86401E-05 4.16907E-18-2.35179E-18
 -1       321 1.56903E-04-2.39446E-05-5.47590E-05-7.91730E-05 3.34599E-18-3.15414E-18
 -1       322 1.12566E-04-2.80474E-05-3.57000E-05-7.99216E-05 1.19008E-18-3.80868E-18
 -1       323 7.88698E-05-4.28321E-05-1.77500E-05-7.52810E-05 4.27752E-20-4.46206E-18
 -1       324 4.79663E-05-4.88334E-05-4.32884E-06-5.68628E-05-1.73599E-18-1.61407E-18
 -1       325 2.08698E-05-5.02360E-05 5.42787E-06-2.21442E-05 1.38119E-18 3.43811E-18
 -1       326 9.16529E-05-1.43965E-05-3.31732E-05-1.30560E-05-1.80370E-18-1.36995E-18
 -1       327 9.57151E-05-1.91121E-05-3.28930E-05-1.46250E-05-2.04539E-18-2.63546E-19
 -1       328 8.80041E-05-1.03749E-05-3.33230E-05-8.14665E-06-1.00975E-18-2.49529E-18
 -1       329 8.71837E-05-9.45008E-06-3.33624E-05-5.71311E-06-6.63826E-19-2.70045E-18
 -1       330 8.67224E-05-8.92007E-06-3.33887E-05-3.36457E-06-2.72707E-19-2.74539E-18
 -1       331 8.65167E-05-8.68013E-06-3.34020E-05-1.07181E-06 9.73381E-20-2.70586E-18
 -1       332 8.65254E-05-8.68970E-06-3.34017E-05 1.20258E-06 4.56218E-19-2.74735E-18
 -1       333 8.67502E-05-8.95098E-06-3.33876E-05 3.49758E-06 8.08145E-19-2.63334E-18
 -1       334 8.72239E-05-9.49568E-06-3.33608E-05 5.81116E-06 1.15573E-18-2.60414E-18
 -1       335 8.80652E-05-1.04480E-05-3.33199E-05 8.24935E-06 1.49411E-18-2.15991E-18
 -1       336 8.94831E-05-1.20323E-05-3.32598E-05 1.07575E-05 1.88795E-18-1.68448E-18
 -1       337 9.19066E-05-1.47230E-05-3.31598E-05 1.31628E-05 2.10882E-18-1.00579E-18
 -1       338 9.58130E-05-1.94598E-05-3.28306E-05 1.43703E-05 2.14357E-18 5.41115E-19
 -1       339 9.88018E-05-2.44476E-05-3.19542E-05 1.18935E-05 1.87451E-18 2.03091E-18
 -1       340 9.64026E-05-2.68159E-05-2.97934E-05 5.73629E-06 1.56957E-18 1.34062E-18
 -1       341 4.48106E-05-1.68977E-05-1.33878E-05-6.17245E-05 1.66262E-18 1.42513E-18
 -1       342 9.64470E-05-2.60307E-05-3.01347E-05-6.34292E-06-1.67878E-18-1.29280E-20
 -1       343 9.49316E-05-2.70321E-05-2.90744E-05-2.82644E-06-1.25765E-18-2.35411E-19
 -1       344 9.39568E-05-2.74299E-05-2.84969E-05-9.14804E-07-9.72012E-19-3.80521E-19
 -1       345 9.34389E-05-2.76427E-05-2.81917E-05 1.45349E-07-7.67212E-19-6.63583E-19
 -1       346 9.32485E-05-2.77964E-05-2.80481E-05 7.10393E-07-8.07220E-19-1.03347E-18
 -1       347 9.32671E-05-2.79267E-05-2.80021E-05 9.78016E-07-5.87663E-19-1.36408E-18
 -1       348 9.34074E-05-2.80423E-05-2.80136E-05 1.06506E-06-5.11796E-19-1.46214E-18
 -1       349 9.36097E-05-2.81441E-05-2.80571E-05 1.04411E-06-5.18710E-19-1.38123E-18
 -1       350 9.38347E-05-2.82321E-05-2.81161E-05 9.61869E-07-1.40647E-19-1.06159E-18
 -1       351 9.40580E-05-2.83061E-05-2.81802E-05 8.48799E-07 1.80317E-19-1.50869E-18
 -1       352 9.42652E-05-2.83668E-05-2.82430E-05 7.24734E-07 1.27608E-20-1.28438E-18
 -1       353 9.44491E-05-2.84153E-05-2.83009E-05 6.02336E-07 2.21412E-19-1.02852E-18
 -1       354 9.46072E-05-2.84532E-05-2.83524E-05 4.89427E-07-1.04353E-19-5.58953E-19
 -1       355 9.47400E-05-2.84819E-05-2.83969E-05 3.90644E-07-6.43224E-19-3.22487E-19
 -1       356 9.48502E-05-2.85031E-05-2.84349E-05 3.08645E-07-9.85004E-19-5.09783E-19
 -1       357 9.49419E-05-2.85182E-05-2.84676E-05 2.45006E-07-8.08069E-19-7.11991E-19
 -1       358 9.50200E-05-2.85288E-05-2.84964E-05 2.00909E-07-3.98092E-19-6.37032E-19
 -1       359 9.50903E-05-2.85363E-05-2.85232E-05 1.77658E-07-5.12744E-19-1.28765E-18
 -1       360 9.51592E-05-2.85421E-05-2.85501E-05 1.77083E-07 3.48605E-19-1.02961E-18
 -1       361 9.52341E-05-2.85479E-05-2.85796E-05 2.01839E-07 9.01313E-19-1.09025E-18
 -1       362 9.53235E-05-2.85552E-05-2.86146E-05 2.55620E-07 6.98718E-19-2.65489E-19
 -1       363 9.54370E-05-2.85663E-05-2.86582E-05 3.43271E-07 7.07872E-19-3.88385E-19
 -1       364 9.55858E-05-2.85837E-05-2.87143E-05 4.70778E-07 1.10813E-19-1.24838E-18
 -1       365 9.57828E-05-2.86106E-05-2.87869E-05 6.45068E-07-7.34651E-19-1.16430E-18
 -1       366 9.60427E-05-2.86513E-05-2.88805E-05 8.73532E-07-8.84781E-19-6.96766E-19
 -1       367 9.63821E-05-2.87112E-05-2.89999E-05 1.16310E-06-4.76792E-20-9.98312E-20
 -1       368 9.68188E-05-2.87975E-05-2.91497E-05 1.51867E-06 7.84650E-19-1.36559E-18
 -1       369 9.73713E-05-2.89197E-05-2.93338E-05 1.94051E-06 3.49074E-19-1.66980E-18
 -1       370 9.80573E-05-2.90904E-05-2.95545E-05 2.42020E-06-6.34865E-19-1.23592E-18
 -1       371 9.88920E-05-2.93264E-05-2.98111E-05 2.93456E-06-4.99829E-19-5.69461E-19
 -1       372 9.98850E-05-2.96506E-05-3.00983E-05 3.43681E-06-7.73644E-19 6.40241E-19
 -1       373 1.01036E-04-3.00927E-05-3.04037E-05 3.84482E-06-1.20750E-19-6.91573E-20
 -1       374 1.02331E-04-3.06892E-05-3.07055E-05 4.02686E-06 1.79242E-20-9.43136E-19
 -1       375 1.03731E-04-3.14780E-05-3.09713E-05 3.78834E-06 4.88356E-19 6.35939E-20
 -1       376 1.05158E-04-3.24812E-05-3.11583E-05 2.86819E-06 9.85340E-19 3.83572E-20
 -1       377 1.06470E-04-3.36635E-05-3.12201E-05 9.63906E-07 1.06199E-18-2.45694E-19
 -1       378 1.07414E-04-3.48576E-05-3.11185E-05-2.18273E-06-3.69573E-19-1.35103E-19
 -1       379 1.07578E-04-3.56653E-05-3.08438E-05-6.59888E-06-7.73892E-19 7.21305E-19
 -1       380 1.06384E-04-3.54133E-05-3.04349E-05-1.17826E-05-1.02650E-18 2.55202E-18
 -1       381 1.03259E-04-3.33245E-05-2.99788E-05-1.64085E-05 5.21288E-19 2.78183E-18
 -1       382 9.80901E-05-2.90693E-05-2.95722E-05-1.83587E-05 1.45930E-18 9.42984E-19
 -1       383 9.18370E-05-2.35388E-05-2.92493E-05-1.55664E-05 2.72213E-18 1.82595E-18
 -1       384 8.65518E-05-1.89512E-05-2.89430E-05-7.60055E-06 2.50504E-18 1.28792E-18
 -1       385 8.42846E-05-1.76521E-05-2.85237E-05 3.18933E-06 9.16241E-19 2.49336E-18
 -1       386 8.55814E-05-2.05645E-05-2.78400E-05 1.27693E-05 3.76369E-19 1.81287E-18
 -1       387 8.88592E-05-2.61219E-05-2.69044E-05 1.68513E-05 5.31885E-19 1.79445E-18
 -1       388 9.43848E-05-2.73452E-05-2.86931E-05 2.46330E-06 1.22359E-18 8.85222E-19
 -1       389 9.31808E-05-2.74656E-05-2.81418E-05 7.37633E-07 1.14418E-18 4.86520E-19
 -1       390 9.26292E-05-2.75439E-05-2.78838E-05-1.84154E-07 7.04473E-19 2.21173E-19
 -1       391 9.24898E-05-2.76373E-05-2.77898E-05-6.60359E-07 5.84204E-19-2.41782E-19
 -1       392 9.25945E-05-2.77475E-05-2.77900E-05-8.78383E-07 5.13699E-19-5.54196E-19
 -1       393 9.28317E-05-2.78645E-05-2.78427E-05-9.42953E-07 5.86611E-19-5.70443E-19
 -1       394 9.31292E-05-2.79793E-05-2.79217E-05-9.17136E-07 7.19165E-19-5.83573E-19
 -1       395 9.34418E-05-2.80856E-05-2.80104E-05-8.40708E-07 1.69664E-19-3.98048E-19
 -1       396 9.37420E-05-2.81799E-05-2.80988E-05-7.39331E-07 8.01235E-20-6.04700E-19
 -1       397 9.40147E-05-2.82606E-05-2.81812E-05-6.29566E-07 5.73585E-19-6.74438E-19
 -1       398 9.42529E-05-2.83278E-05-2.82544E-05-5.21900E-07 9.38816E-19-5.39959E-19
 -1       399 9.44547E-05-2.83823E-05-2.83175E-05-4.22732E-07 1.31745E-19-4.89261E-19
 -1       400 9.46219E-05-2.84255E-05-2.83705E-05-3.35769E-07-1.02553E-20-6.93511E-19
 -1       401 9.47583E-05-2.84590E-05-2.84145E-05-2.63034E-07-1.02950E-19-8.30560E-19
 -1       402 9.48694E-05-2.84848E-05-2.84509E-05-2.05623E-07 7.30209E-19-1.19124E-18
 -1       403 9.49612E-05-2.85046E-05-2.84817E-05-1.64284E-07 6.54521E-19-1.25306E-18
 -1       404 9.50409E-05-2.85204E-05-2.85089E-05-1.39858E-07-5.43070E-19-1.79280E-18
 -1       405 9.51162E-05-2.85342E-05-2.85351E-05-1.33638E-07-1.99740E-20-2.15377E-18
 -1       406 9.51957E-05-2.85482E-05-2.85630E-05-1.47656E-07-3.70433E-19-2.60076E-18
 -1       407 9.52896E-05-2.85648E-05-2.85959E-05-1.84921E-07 9.55660E-19-3.07716E-18
 -1       408 9.54092E-05-2.85870E-05-2.86374E-05-2.49625E-07 5.69745E-19-3.00730E-18
 -1       409 9.55684E-05-2.86180E-05-2.86921E-05-3.47298E-07-2.01199E-18-1.84077E-18
 -1       410 9.57833E-05-2.86619E-05-2.87650E-05-4.84912E-07-2.29149E-18-8.00043E-19
 -1       411 9.60731E-05-2.87239E-05-2.88622E-05-6.70881E-07-6.59146E-19 4.16184E-19
 -1       412 9.64603E-05-2.88100E-05-2.89908E-05-9.14866E-07 6.00241E-19 6.27104E-19
 -1       413 9.69708E-05-2.89276E-05-2.91586E-05-1.22726E-06 3.44881E-19-3.95508E-19
 -1       414 9.76337E-05-2.90857E-05-2.93743E-05-1.61803E-06 1.67899E-19-2.50395E-19
 -1       415 9.84802E-05-2.92956E-05-2.96466E-05-2.09455E-06-2.51266E-19 7.81544E-19
 -1       416 9.95416E-05-2.95707E-05-2.99832E-05-2.65742E-06 5.66921E-19 2.90506E-19
 -1       417 1.00846E-04-2.99284E-05-3.03889E-05-3.29333E-06 3.50502E-19-3.99845E-19
 -1       418 1.02412E-04-3.03910E-05-3.08625E-05-3.96281E-06-2.22485E-19 2.31643E-19
 -1       419 1.04239E-04-3.09877E-05-3.13917E-05-4.58081E-06 2.17688E-19 1.02433E-18
 -1       420 1.06293E-04-3.17563E-05-3.19470E-05-4.98858E-06 1.17670E-18 1.33070E-18
 -1       421 1.08490E-04-3.27394E-05-3.24736E-05-4.91892E-06 9.52667E-19 2.03335E-18
 -1       422 1.10660E-04-3.39658E-05-3.28865E-05-3.96847E-06 6.82843E-19 8.15059E-19
 -1       423 1.12502E-04-3.53936E-05-3.30733E-05-1.61580E-06-6.45120E-19-3.27147E-19
 -1       424 1.13517E-04-3.67855E-05-3.29177E-05 2.63254E-06-1.96745E-18 1.75953E-19
 -1       425 1.12943E-04-3.75339E-05-3.23495E-05 8.86056E-06-4.87709E-19 1.42141E-18
 -1       426 1.09816E-04-3.65722E-05-3.14120E-05 1.60910E-05-2.95585E-19 3.57322E-18
 -1       427 1.03478E-04-3.28339E-05-3.02880E-05 2.17082E-05-7.90216E-19 2.25687E-18
 -1       428 9.46277E-05-2.64661E-05-2.92230E-05 2.19983E-05 1.59340E-18 1.32498E-18
 -1       429 8.60910E-05-1.99328E-05-2.83722E-05 1.45752E-05 2.93144E-18 2.88885E-18
 -1       430 8.15566E-05-1.69097E-05-2.76968E-05 1.48208E-06 3.10566E-18 1.06675E-18
 -1       431 8.24120E-05-1.88795E-05-2.72169E-05-1.12616E-05 8.33070E-19-1.04256E-18
 -1       432 8.70134E-05-2.45319E-05-2.67542E-05-1.83065E-05-1.66734E-18-2.04092E-18
 -1       433 9.14752E-05-2.98630E-05-2.63668E-05-1.85291E-05-1.52834E-18-2.92838E-18
 -1       434 1.22565E-04-4.08851E-05-3.50916E-05 1.73645E-06-7.04262E-19-8.35307E-19
 -1       435 1.05432E-04-3.30368E-05-3.10755E-05-1.59369E-05 1.03854E-19 3.77538E-19
 -1       436 9.73151E-05-3.16619E-05-2.81420E-05-2.01584E-05-1.08219E-18 1.39226E-18
 -1       437 1.38156E-04-5.09577E-05-3.75087E-05 2.79238E-05-3.65336E-19 1.37738E-18
 -1       438 1.40895E-04-5.56296E-05-3.63841E-05 6.03633E-05-2.95906E-19-3.27246E-18
 -1       439 1.29689E-04-5.09687E-05-3.34915E-05-7.59513E-05-5.88794E-19-1.50872E-18
 -1       440 1.33292E-04-5.09198E-05-3.53863E-05-3.52013E-05-8.96320E-19 7.68629E-19
 -1       441 1.19293E-04-4.00234E-05-3.40490E-05-1.81885E-06-1.55958E-18 6.83450E-20
 -1       442 1.04561E-04-3.35824E-05-3.04272E-05 1.40547E-05-1.64932E-18-1.46917E-18
 -1       443 9.67194E-05-3.11340E-05-2.81102E-05 1.92851E-05 2.55132E-19-2.40205E-19
 -1       444 9.90676E-05-4.49946E-05-2.28686E-05 8.69857E-05 1.21740E-18 4.50473E-18
 -1       445 4.81887E-05-7.51414E-06-1.82159E-05 6.19183E-05-7.01555E-19 6.05205E-19
 -1       446 1.37279E-04-5.62031E-05-3.46724E-05 7.52451E-05 2.69642E-18-2.77086E-19
 -1       447 7.45542E-05-3.41382E-05-1.83233E-05-8.59413E-05 1.81053E-19-3.71922E-18
 -1       448 1.75790E-04-2.96941E-05-6.23990E-05 2.50007E-05 2.40679E-18 7.37342E-19
 -1       449 1.65607E-04-5.05609E-05-4.90319E-05 4.83176E-05 2.50637E-18-6.25004E-19
 -1       450 8.93367E-05-1.18548E-05-3.32804E-05-1.06825E-05-1.35069E-18-2.08378E-18
 -1       451 1.83769E-04-1.44977E-05-7.21325E-05 2.11039E-05 2.02091E-18-1.27404E-18
 -1       452 1.87039E-04-1.01863E-05-7.53738E-05 1.99578E-05-1.48443E-19-1.28512E-18
 -1       453 1.82017E-04-1.80152E-05-7.02077E-05 2.05836E-05 1.52762E-18-2.55698E-18
 -1       454 1.78696E-04-3.87106E-05-6.00862E-05 1.54451E-05 1.45478E-19-1.21856E-18
 -1       455 1.68191E-04-5.94144E-05-4.67423E-05 4.92624E-07 2.29636E-18 2.08232E-18
 -1       456 1.30522E-04-6.97380E-05-2.61665E-05-3.07848E-05 2.55751E-18 1.15864E-18
 -1       457 8.94446E-05-6.22223E-05-1.18766E-05-4.21613E-05 1.61826E-18-3.79326E-18
 -1       458 4.80542E-05-4.97306E-05 3.85919E-07-3.79122E-05 1.79846E-18-6.33867E-18
 -1       459 2.04374E-05-3.44925E-05 6.11754E-06-1.97446E-05 2.41394E-18-5.26823E-18
 -1       460 1.43141E-05-3.46537E-05 8.49190E-06 1.26037E-05 1.49747E-18 1.26218E-18
 -1       461 3.41424E-05-4.28912E-05 3.47852E-06 3.43496E-05 6.13358E-19 2.81416E-18
 -1       462 7.66926E-05-5.73331E-05-8.47184E-06 4.47352E-05 5.36172E-19 1.38647E-18
 -1       463 1.17940E-04-6.63739E-05-2.22438E-05 3.80619E-05-8.30516E-19 2.36486E-18
 -1       464 1.56906E-04-6.13644E-05-4.08879E-05 1.69588E-05 7.27337E-19-1.24408E-19
 -1       465 1.76505E-04-4.56081E-05-5.59655E-05 3.21317E-07 1.97597E-18 1.36372E-19
 -1       466 1.83957E-04-2.43017E-05-6.82279E-05-1.49977E-05 3.31359E-18 6.23946E-19
 -1       467 1.76914E-04-7.39438E-06-7.26928E-05-2.05471E-05 3.43726E-18 1.44260E-20
 -1       468 1.81460E-04-7.89073E-06-7.40948E-05-2.16375E-05 5.95676E-19-3.04042E-18
 -1       469 1.76040E-04-2.03341E-05-6.64138E-05-2.69968E-05 1.12041E-18-8.26916E-19
 -1       470 1.71474E-04-3.68943E-05-5.71287E-05-3.96700E-05 9.74531E-19 1.40353E-18
 -1       471 1.50420E-04-5.12719E-05-4.21561E-05-6.78413E-05-1.36203E-18-2.11165E-18
 -1       472 1.26031E-04-5.36539E-05-3.05774E-05-8.34411E-05-1.92700E-19-3.21809E-18
 -1       473 2.86487E-05 2.72431E-06-1.44158E-05 2.09903E-06-1.65833E-19 2.55380E-18
 -1       474 1.09122E-04-4.38550E-05-2.80017E-05 8.85111E-05-7.25166E-19 2.35303E-18
 -1       475 1.54031E-04-7.15461E-05-3.54698E-05-6.32000E-06 2.27039E-18 2.32241E-18
 -1       476 9.58279E-05-2.51500E-05-3.02763E-05 6.01087E-06 1.60445E-18-1.71190E-19
 -1       477 8.95313E-05-1.33962E-05-3.26483E-05-3.92165E-06-4.27697E-19-2.47542E-18
 -1       478 9.02375E-05-1.43571E-05-3.25407E-05-5.88021E-06-8.05876E-19-2.28091E-18
 -1       479 8.90321E-05-1.27153E-05-3.27250E-05 5.45402E-08 2.21262E-19-2.48409E-18
 -1       480 8.91679E-05-1.28990E-05-3.27047E-05 2.04385E-06 6.52910E-19-2.41214E-18
 -1       481 8.95642E-05-1.34370E-05-3.26451E-05 3.99486E-06 9.57431E-19-2.52385E-18
 -1       482 9.02907E-05-1.44251E-05-3.25349E-05 5.94739E-06 1.48190E-18-2.15298E-18
 -1       483 9.14416E-05-1.60051E-05-3.23530E-05 7.77378E-06 1.60771E-18-1.75217E-18
 -1       484 9.32346E-05-1.84784E-05-3.20585E-05 9.28860E-06 1.78535E-18-1.38209E-18
 -1       485 9.54803E-05-2.44208E-05-3.04437E-05-5.83404E-06-1.57422E-18-7.22316E-19
 -1       486 1.45217E-04-6.33301E-06-5.99733E-05-5.48155E-06 3.26531E-19-4.95726E-19
 -1       487 9.85061E-05-1.84048E-05-3.44473E-05 1.52609E-05 1.55421E-19 5.43259E-19
 -1       488 9.51218E-05-2.65798E-05-2.93572E-05 2.86611E-06 1.38589E-18-4.39034E-19
 -1       489 9.45860E-05-2.06880E-05-3.16906E-05-9.56699E-06-1.74005E-18-9.85665E-19
 -1       490 9.52795E-05-2.62303E-05-2.95857E-05-2.89004E-06-1.20985E-18-7.87740E-19
 -1       491 9.49247E-05-2.71626E-05-2.90371E-05-1.02304E-06-9.48415E-19-9.29019E-19
 -1       492 9.46490E-05-2.76940E-05-2.86934E-05 1.01391E-07-9.22134E-19-9.47462E-19
 -1       493 9.44935E-05-2.80212E-05-2.84876E-05 7.36984E-07-1.00105E-18-1.05954E-18
 -1       494 9.44389E-05-2.82335E-05-2.83736E-05 1.05461E-06-6.66366E-19-1.26179E-18
 -1       495 9.44548E-05-2.83754E-05-2.83199E-05 1.16926E-06-4.21412E-19-1.27685E-18
 -1       496 9.45138E-05-2.84706E-05-2.83045E-05 1.15841E-06-2.34919E-19-1.23737E-18
 -1       497 9.45953E-05-2.85335E-05-2.83126E-05 1.07446E-06-1.77767E-19-1.04154E-18
 -1       498 9.46849E-05-2.85732E-05-2.83339E-05 9.52737E-07 2.68037E-19-6.01246E-19
 -1       499 9.47733E-05-2.85964E-05-2.83619E-05 8.16734E-07 1.52586E-19-6.03334E-19
 -1       500 9.48555E-05-2.86077E-05-2.83922E-05 6.81731E-07 1.49198E-19-5.68789E-19
 -1       501 9.49287E-05-2.86105E-05-2.84224E-05 5.57411E-07-3.15593E-19-6.24537E-19
 -1       502 9.49927E-05-2.86071E-05-2.84512E-05 4.49761E-07-7.47441E-19-5.34713E-19
 -1       503 9.50481E-05-2.85992E-05-2.84782E-05 3.62502E-07-1.23661E-18-3.94655E-19
 -1       504 9.50967E-05-2.85879E-05-2.85039E-05 2.98163E-07-6.47170E-19-8.40558E-19
 -1       505 9.51411E-05-2.85736E-05-2.85290E-05 2.58898E-07-6.62761E-19-5.99126E-19
 -1       506 9.51842E-05-2.85566E-05-2.85547E-05 2.47104E-07-2.59770E-19-1.18153E-19
 -1       507 9.52297E-05-2.85369E-05-2.85826E-05 2.65890E-07 5.21272E-19-6.80391E-19
 -1       508 9.52818E-05-2.85142E-05-2.86145E-05 3.19409E-07 1.02084E-18-6.15297E-19
 -1       509 9.53453E-05-2.84885E-05-2.86527E-05 4.13064E-07 8.20179E-19-3.16070E-19
 -1       510 9.54258E-05-2.84599E-05-2.86993E-05 5.53563E-07-5.68682E-20-1.15257E-18
 -1       511 9.55299E-05-2.84291E-05-2.87570E-05 7.48781E-07-5.02708E-19-1.92404E-18
 -1       512 9.56650E-05-2.83976E-05-2.88283E-05 1.00733E-06-7.83741E-19-1.05879E-18
 -1       513 9.58399E-05-2.83684E-05-2.89156E-05 1.33775E-06-3.74693E-19-6.02737E-19
 -1       514 9.60645E-05-2.83470E-05-2.90209E-05 1.74702E-06-3.61275E-19-1.34367E-18
 -1       515 9.63506E-05-2.83427E-05-2.91452E-05 2.23833E-06 3.38356E-19-4.50258E-19
 -1       516 9.67122E-05-2.83709E-05-2.92879E-05 2.80752E-06 1.40891E-19-6.06627E-19
 -1       517 9.71666E-05-2.84558E-05-2.94462E-05 3.43784E-06-1.78850E-19-1.88256E-19
 -1       518 9.77370E-05-2.86350E-05-2.96140E-05 4.09260E-06-3.34450E-19-1.75866E-19
 -1       519 9.84554E-05-2.89648E-05-2.97809E-05 4.70496E-06-6.44184E-19-5.20023E-19
 -1       520 9.93675E-05-2.95252E-05-2.99324E-05 5.16492E-06-4.27843E-19-6.98084E-20
 -1       521 1.00537E-04-3.04213E-05-3.00511E-05 5.30403E-06 5.97186E-19 5.51153E-19
 -1       522 1.02046E-04-3.17721E-05-3.01208E-05 4.88062E-06 9.40481E-19 7.06551E-19
 -1       523 1.03970E-04-3.36686E-05-3.01358E-05 3.57368E-06 6.86475E-19 6.22691E-19
 -1       524 1.06324E-04-3.60744E-05-3.01168E-05 1.00599E-06-8.06068E-19-9.31339E-19
 -1       525 1.08920E-04-3.86469E-05-3.01289E-05-3.16114E-06 4.10172E-19-3.14670E-19
 -1       526 1.11166E-04-4.05026E-05-3.02943E-05-8.97974E-06 8.41205E-19 1.72755E-18
 -1       527 1.11942E-04-4.01514E-05-3.07756E-05-1.57536E-05 2.20278E-21 3.52301E-18
 -1       528 1.09872E-04-3.59795E-05-3.16818E-05-2.14933E-05 1.52425E-19 2.99964E-18
 -1       529 1.04380E-04-2.77006E-05-3.28859E-05-2.29260E-05 1.69411E-18 1.66045E-18
 -1       530 9.71175E-05-1.80756E-05-3.39081E-05-1.73023E-05 1.11994E-18 1.51888E-18
 -1       531 9.15177E-05-1.21804E-05-3.40444E-05-5.27554E-06 3.25572E-18 2.37115E-19
 -1       532 9.05060E-05-1.40659E-05-3.27710E-05 7.79077E-06 7.35835E-20 1.16689E-18
 -1       533 9.41541E-05-2.76887E-05-2.84816E-05-1.29719E-07 9.57622E-19-7.91178E-19
 -1       534 9.39793E-05-2.79360E-05-2.83030E-05-7.39930E-07 8.20412E-19-8.50783E-19
 -1       535 9.39504E-05-2.81080E-05-2.82179E-05-1.03800E-06 4.68589E-19-9.67091E-19
 -1       536 9.40149E-05-2.82348E-05-2.81917E-05-1.14081E-06 5.03125E-19-6.36273E-19
 -1       537 9.41318E-05-2.83303E-05-2.82011E-05-1.12449E-06 3.57098E-19-1.93102E-19
 -1       538 9.42722E-05-2.84024E-05-2.82305E-05-1.03955E-06 5.71452E-19-4.29418E-19
 -1       539 9.44174E-05-2.84561E-05-2.82697E-05-9.19569E-07 6.48073E-19-9.32153E-19
 -1       540 9.45556E-05-2.84951E-05-2.83122E-05-7.86660E-07 3.93463E-19-8.22973E-19
 -1       541 9.46806E-05-2.85225E-05-2.83540E-05-6.55096E-07 2.96817E-19-5.57457E-19
 -1       542 9.47899E-05-2.85407E-05-2.83930E-05-5.33816E-07-1.86729E-20-4.22350E-19
 -1       543 9.48834E-05-2.85518E-05-2.84282E-05-4.28248E-07 1.04296E-19-6.43077E-19
 -1       544 9.49626E-05-2.85572E-05-2.84597E-05-3.41653E-07 3.47392E-19-1.61613E-18
 -1       545 9.50303E-05-2.85583E-05-2.84882E-05-2.76139E-07 5.89257E-19-1.11874E-18
 -1       546 9.50902E-05-2.85560E-05-2.85148E-05-2.33443E-07-2.44502E-19-7.79666E-19
 -1       547 9.51466E-05-2.85510E-05-2.85410E-05-2.15530E-07-7.41912E-20-6.19353E-19
 -1       548 9.52045E-05-2.85441E-05-2.85686E-05-2.25068E-07 5.82643E-19-9.34005E-19
 -1       549 9.52697E-05-2.85358E-05-2.86000E-05-2.65802E-07 5.19662E-19-1.96824E-18
 -1       550 9.53488E-05-2.85266E-05-2.86378E-05-3.42859E-07 6.03227E-19-1.22216E-18
 -1       551 9.54497E-05-2.85173E-05-2.86848E-05-4.62970E-07-1.21509E-18-4.10184E-19
 -1       552 9.55812E-05-2.85090E-05-2.87446E-05-6.34594E-07-1.82059E-18-1.79866E-18
 -1       553 9.57538E-05-2.85028E-05-2.88209E-05-8.67924E-07-1.37602E-18-2.43641E-18
 -1       554 9.59792E-05-2.85010E-05-2.89180E-05-1.17465E-06-2.08796E-19-1.92830E-18
 -1       555 9.62706E-05-2.85066E-05-2.90402E-05-1.56740E-06 1.28094E-19-1.78232E-18
 -1       556 9.66427E-05-2.85245E-05-2.91916E-05-2.05851E-06-2.54860E-19-1.03410E-18
 -1       557 9.71113E-05-2.85623E-05-2.93759E-05-2.65788E-06-5.17707E-19-9.08793E-19
 -1       558 9.76936E-05-2.86329E-05-2.95948E-05-3.36913E-06 4.15275E-19-4.85043E-19
 -1       559 9.84083E-05-2.87579E-05-2.98474E-05-4.18315E-06 3.88469E-20 6.55405E-19
 -1       560 9.92778E-05-2.89738E-05-3.01276E-05-5.06763E-06-6.04497E-20 1.15379E-18
 -1       561 1.00333E-04-2.93422E-05-3.04225E-05-5.95071E-06-2.25015E-19 8.35299E-19
 -1       562 1.01620E-04-2.99622E-05-3.07100E-05-6.69668E-06 1.01137E-18 4.47245E-19
 -1       563 1.03214E-04-3.09839E-05-3.09584E-05-7.07311E-06 1.54397E-18-6.30911E-19
 -1       564 1.05228E-04-3.26068E-05-3.11312E-05-6.71244E-06 1.31859E-18-7.60169E-19
 -1       565 1.07799E-04-3.50295E-05-3.12016E-05-5.08270E-06 7.33320E-19-5.06685E-20
 -1       566 1.10992E-04-3.82809E-05-3.11838E-05-1.50888E-06-6.07801E-19-4.07506E-19
 -1       567 1.14539E-04-4.18461E-05-3.11797E-05 4.62943E-06-1.89347E-18-1.08158E-18
 -1       568 1.17467E-04-4.42157E-05-3.14171E-05 1.33731E-05-8.52744E-19-3.47904E-19
 -1       569 1.17694E-04-4.26041E-05-3.22100E-05 2.30831E-05-8.91161E-19 4.34216E-19
 -1       570 1.13244E-04-3.47800E-05-3.36871E-05 2.93918E-05 1.22755E-19 6.43042E-19
 -1       571 1.04628E-04-2.24214E-05-3.53097E-05 2.66007E-05 2.05789E-18 1.62533E-18
 -1       572 9.65295E-05-1.25187E-05-3.61416E-05 1.31037E-05 3.71452E-18 1.20869E-18
 -1       573 9.40318E-05-1.19830E-05-3.53418E-05-4.83776E-06 3.05963E-18 7.59398E-19
 -1       574 9.59917E-05-2.01268E-05-3.25280E-05-1.76455E-05 1.59566E-19 1.08695E-18
 -1       575 1.17672E-04-2.33557E-05-4.07737E-05-1.22341E-05 1.66958E-19 4.38657E-19
 -1       576 1.40994E-04-3.32901E-05-4.65477E-05 2.02965E-06 2.14546E-18 1.03576E-18
 -1       577 1.53485E-04-5.32646E-05-4.29374E-05-4.87285E-05-7.87714E-19-3.57554E-19
 -1       578 1.14050E-04-1.96003E-05-4.07404E-05 9.31519E-06 2.77933E-19-5.81435E-19
 -1       579 9.45303E-05-2.72955E-05-2.88062E-05 9.75333E-07 1.19413E-18-6.20129E-19
 -1       580 1.41259E-04-3.46997E-05-4.61917E-05-7.37277E-06-2.45401E-19-4.69892E-19
 -1       581 1.50951E-04-2.19401E-05-5.59965E-05 3.13272E-05-3.31402E-19-2.95853E-18
 -1       582 1.51926E-04-1.74424E-05-5.81928E-05 4.33942E-06 2.41733E-18 1.66426E-18
 -1       583 8.91481E-05-1.28741E-05-3.27068E-05-1.93552E-06-7.74919E-20-2.50415E-18
 -1       584 1.47691E-04-2.09344E-06-6.30228E-05 9.26616E-06 2.41500E-18 2.09847E-18
 -1       585 1.56881E-04-4.87455E-05-4.68971E-05 2.63829E-05 1.15628E-18-2.38461E-18
 -1       586 8.09011E-05-5.51470E-05-1.06171E-05-4.23674E-05 5.29925E-20-4.26179E-18
 -1       587 4.62974E-05-3.58781E-05-3.86258E-06-3.41363E-05 2.21790E-18-5.20724E-18
 -1       588 2.59718E-05-2.01637E-05-1.66990E-06-1.34256E-06 3.41173E-18-2.62432E-18
 -1       589 3.25210E-05-2.84424E-05-1.11850E-06 2.66751E-05 1.65285E-18 2.13325E-18
 -1       590 6.74243E-05-4.75928E-05-8.00022E-06 4.41715E-05 1.40655E-18 2.33691E-18
 -1       591 1.07970E-04-6.55898E-05-1.78894E-05 4.02162E-05-3.41937E-19-1.02074E-19
 -1       592 1.45599E-04-7.29867E-05-3.11087E-05 1.35896E-05-5.92897E-19-7.43430E-19
 -1       593 1.60653E-04-5.74680E-05-4.45517E-05-1.04143E-05 4.39551E-19-1.89169E-18
 -1       594 1.60171E-04-3.25680E-05-5.52106E-05-2.43232E-05 8.29457E-19-1.17531E-18
 -1       595 1.51412E-04-8.18954E-06-6.20516E-05-2.53675E-05 2.70913E-18 1.32158E-18
 -1       596 1.40156E-04 3.11155E-06-6.22211E-05-1.40682E-05 2.17137E-18 2.97291E-18
 -1       597 1.50886E-04-2.94386E-05-5.29196E-05-1.45282E-05-4.30504E-19-5.04408E-19
 -1       598 1.54991E-04-4.17559E-05-4.88827E-05 1.79021E-05 2.06168E-18-2.08264E-19
 -1       599 9.61679E-05-2.31923E-05-3.12788E-05 9.57676E-06 1.87184E-18 6.35142E-20
 -1       600 1.19446E-04-7.03256E-05-2.07864E-05-3.26517E-05 3.03344E-19 2.87352E-18
 -1       601 1.45850E-04-2.96542E-06-6.19888E-05 2.14797E-05 2.15400E-18-1.04697E-18
 -1       602 9.13401E-05-1.58494E-05-3.23764E-05-7.76083E-06-1.17248E-18-2.07833E-18
 -1       603 1.40578E-04-7.44128E-05-2.83785E-05-1.28819E-05 5.41572E-20 2.39557E-18
 -1       604 4.06679E-05-2.21050E-05-7.29146E-06-1.71581E-05 2.91404E-18-4.72316E-18
 -1       605 9.10510E-05-1.85944E-05-3.10585E-05 1.51934E-05-2.93358E-19 1.31119E-18
 -1       606 1.54158E-04-6.33643E-05-3.90984E-05 1.71970E-05 1.48405E-18-1.85288E-20
 -1       607 9.15433E-05-1.68437E-05-3.20197E-05 2.43754E-06 7.70039E-19-2.20169E-18
 -1       608 9.12832E-05-1.64408E-05-3.20806E-05 8.39620E-07 5.22327E-19-2.09617E-18
 -1       609 9.28863E-05-1.89950E-05-3.16733E-05 5.25881E-06 1.32510E-18-1.84705E-18
 -1       610 9.39877E-05-2.09310E-05-3.13179E-05 6.13359E-06 1.52289E-18-1.42158E-18
 -1       611 1.26152E-04-9.47615E-06-5.05430E-05 2.78786E-05 1.15710E-18-3.04156E-18
 -1       612 9.50087E-05-2.36247E-05-3.05900E-05-4.71646E-06-1.34793E-18-1.08922E-18
 -1       613 9.52753E-05-2.40940E-05-3.04962E-05 5.14090E-06 1.53450E-18-1.11623E-18
 -1       614 9.49252E-05-2.83707E-05-2.85234E-05-1.05586E-06 3.37263E-19-9.94145E-19
 -1       615 9.54197E-05-2.57110E-05-2.98744E-05-2.42948E-06-1.09374E-18-1.02888E-18
 -1       616 9.54753E-05-2.69436E-05-2.93702E-05-8.57292E-07-9.74207E-19-1.15443E-18
 -1       617 9.54203E-05-2.77053E-05-2.90205E-05 1.44706E-07-8.38215E-19-1.10911E-18
 -1       618 9.53439E-05-2.81781E-05-2.87853E-05 7.32088E-07-8.98462E-19-1.06040E-18
 -1       619 9.52789E-05-2.84701E-05-2.86324E-05 1.03295E-06-5.79550E-19-9.85465E-19
 -1       620 9.52332E-05-2.86453E-05-2.85378E-05 1.14330E-06-2.37506E-19-6.78615E-19
 -1       621 9.52051E-05-2.87434E-05-2.84837E-05 1.13296E-06 1.85005E-20-4.09112E-19
 -1       622 9.51904E-05-2.87906E-05-2.84572E-05 1.05140E-06 5.17221E-19-2.77786E-19
 -1       623 9.51851E-05-2.88044E-05-2.84490E-05 9.32921E-07 1.03882E-19-2.74449E-19
 -1       624 9.51858E-05-2.87967E-05-2.84526E-05 8.00756E-07-2.52452E-19-3.04543E-19
 -1       625 9.51901E-05-2.87757E-05-2.84634E-05 6.70282E-07-3.36560E-19-4.57185E-19
 -1       626 9.51965E-05-2.87467E-05-2.84786E-05 5.51442E-07-4.04552E-19-4.64821E-19
 -1       627 9.52041E-05-2.87128E-05-2.84963E-05 4.50614E-07-1.06318E-18-3.18754E-19
 -1       628 9.52122E-05-2.86757E-05-2.85157E-05 3.72028E-07-1.19247E-18 2.37029E-19
 -1       629 9.52209E-05-2.86358E-05-2.85365E-05 3.18856E-07-5.23325E-19 1.18750E-19
 -1       630 9.52302E-05-2.85924E-05-2.85591E-05 2.94031E-07 9.21770E-20-6.19493E-20
 -1       631 9.52405E-05-2.85443E-05-2.85841E-05 3.00869E-07-2.28675E-19 1.01248E-19
 -1       632 9.52521E-05-2.84898E-05-2.86124E-05 3.43525E-07 5.50290E-19-8.73555E-19
 -1       633 9.52658E-05-2.84268E-05-2.86452E-05 4.27301E-07 7.20360E-19-1.51069E-18
 -1       634 9.52823E-05-2.83532E-05-2.86838E-05 5.58792E-07-8.03000E-20-1.48607E-18
 -1       635 9.53028E-05-2.82670E-05-2.87295E-05 7.45857E-07-6.66143E-19-1.06417E-18
 -1       636 9.53286E-05-2.81672E-05-2.87833E-05 9.97353E-07-5.98704E-20-7.79802E-19
 -1       637 9.53619E-05-2.80543E-05-2.88459E-05 1.32254E-06 2.66662E-19-8.76918E-19
 -1       638 9.54058E-05-2.79314E-05-2.89174E-05 1.73003E-06 3.18795E-19 6.32057E-19
 -1       639 9.54657E-05-2.78062E-05-2.89966E-05 2.22618E-06 3.28149E-19 1.41367E-18
 -1       640 9.55502E-05-2.76938E-05-2.90810E-05 2.81257E-06-5.56695E-19 6.80961E-19
 -1       641 9.56745E-05-2.76204E-05-2.91657E-05 3.48258E-06 2.49495E-19-6.80732E-19
 -1       642 9.58644E-05-2.76292E-05-2.92433E-05 4.21648E-06-4.16849E-19-1.03224E-18
 -1       643 9.61636E-05-2.77880E-05-2.93035E-05 4.97496E-06-1.07249E-19-1.48634E-18
 -1       644 9.66440E-05-2.81981E-05-2.93337E-05 5.69037E-06-6.19038E-19 5.92824E-19
 -1       645 9.74192E-05-2.90030E-05-2.93212E-05 6.25497E-06 3.62265E-19 8.61936E-19
 -1       646 9.86585E-05-3.03895E-05-2.92587E-05 6.50463E-06-1.77214E-19-7.75494E-19
 -1       647 1.00592E-04-3.25683E-05-2.91544E-05 6.19532E-06 4.93713E-19-6.52626E-19
 -1       648 1.03482E-04-3.57030E-05-2.90509E-05 4.96951E-06-4.51688E-19-1.45763E-18
 -1       649 1.07510E-04-3.97325E-05-2.90521E-05 2.33171E-06 9.16810E-19-2.09022E-19
 -1       650 1.12524E-04-4.40532E-05-2.93488E-05-2.31365E-06 1.06281E-18 3.84703E-19
 -1       651 1.17593E-04-4.70399E-05-3.02342E-05-9.32801E-06 1.54267E-18-1.78827E-19
 -1       652 1.20588E-04-4.58367E-05-3.20533E-05-1.81706E-05-9.18663E-20 9.72288E-19
 -1       653 1.18725E-04-3.75166E-05-3.48633E-05-2.58506E-05 3.90525E-19 8.76138E-19
 -1       654 1.11489E-04-2.29183E-05-3.81200E-05-2.65907E-05 1.76831E-18 1.00339E-18
 -1       655 1.02778E-04-9.04866E-06-4.03604E-05-1.70324E-05 2.19368E-19 1.37598E-18
 -1       656 9.79152E-05-5.15202E-06-3.99134E-05-8.63584E-07 1.72580E-18-9.38521E-19
 -1       657 9.49870E-05-2.81154E-05-2.86591E-05-7.47167E-07 7.22002E-19-9.39845E-19
 -1       658 9.50978E-05-2.77089E-05-2.88804E-05-1.37824E-07 8.02683E-19-1.03669E-18
 -1       659 9.49043E-05-2.85297E-05-2.84463E-05-1.16776E-06 1.97760E-19-8.46983E-19
 -1       660 9.49121E-05-2.86255E-05-2.84087E-05-1.15621E-06 5.75824E-19-1.02033E-18
 -1       661 9.49375E-05-2.86788E-05-2.83968E-05-1.07223E-06 5.58845E-19-5.28173E-19
 -1       662 9.49720E-05-2.87035E-05-2.84010E-05-9.50738E-07 4.31807E-19-3.76738E-19
 -1       663 9.50098E-05-2.87092E-05-2.84147E-05-8.15261E-07-8.19731E-21 6.89562E-20
 -1       664 9.50472E-05-2.87024E-05-2.84337E-05-6.81232E-07 9.03332E-20-3.92260E-20
 -1       665 9.50823E-05-2.86875E-05-2.84550E-05-5.58547E-07 1.91217E-19-1.41233E-19
 -1       666 9.51142E-05-2.86675E-05-2.84773E-05-4.53450E-07 4.22457E-19-4.27164E-19
 -1       667 9.51433E-05-2.86438E-05-2.84998E-05-3.69979E-07 1.66644E-19-3.43235E-19
 -1       668 9.51701E-05-2.86173E-05-2.85227E-05-3.11059E-07 9.37180E-20-3.19140E-19
 -1       669 9.51959E-05-2.85878E-05-2.85464E-05-2.79348E-07-1.60414E-19-2.01892E-19
 -1       670 9.52224E-05-2.85546E-05-2.85719E-05-2.77885E-07 3.92911E-19-9.44637E-19
 -1       671 9.52514E-05-2.85167E-05-2.86006E-05-3.10595E-07 7.42950E-19-3.39993E-19
 -1       672 9.52852E-05-2.84725E-05-2.86339E-05-3.82675E-07 2.33607E-19-2.70755E-19
 -1       673 9.53262E-05-2.84203E-05-2.86738E-05-5.00875E-07 5.85236E-20 6.45131E-19
 -1       674 9.53775E-05-2.83583E-05-2.87223E-05-6.73660E-07-8.47829E-19 2.31017E-19
 -1       675 9.54419E-05-2.82845E-05-2.87815E-05-9.11224E-07-1.10877E-18-3.44514E-19
 -1       676 9.55227E-05-2.81974E-05-2.88533E-05-1.22530E-06-1.20301E-18-9.20622E-19
 -1       677 9.56233E-05-2.80963E-05-2.89397E-05-1.62868E-06-4.88852E-20-1.14673E-18
 -1       678 9.57473E-05-2.79821E-05-2.90416E-05-2.13421E-06-5.93562E-20-9.12678E-19
 -1       679 9.58985E-05-2.78592E-05-2.91589E-05-2.75318E-06-2.22728E-19-8.89518E-19
 -1       680 9.60823E-05-2.77379E-05-2.92896E-05-3.49263E-06-4.62034E-19-4.59246E-19
 -1       681 9.63079E-05-2.76396E-05-2.94283E-05-4.35124E-06 8.55822E-20 1.95040E-19
 -1       682 9.65933E-05-2.76046E-05-2.95655E-05-5.31301E-06 2.60859E-19-7.94410E-19
 -1       683 9.69755E-05-2.77055E-05-2.96861E-05-6.33807E-06 3.25395E-20-1.97485E-18
 -1       684 9.75286E-05-2.80658E-05-2.97690E-05-7.34928E-06 1.13521E-18-2.28555E-18
 -1       685 9.83919E-05-2.88848E-05-2.97887E-05-8.21269E-06 1.99651E-18-2.65648E-18
 -1       686 9.98089E-05-3.04591E-05-2.97227E-05-8.70832E-06 1.36930E-18-2.26554E-18
 -1       687 1.02164E-04-3.31771E-05-2.95694E-05-8.48476E-06 4.59514E-19-1.18391E-18
 -1       688 1.05969E-04-3.74229E-05-2.93834E-05-6.98894E-06 2.19890E-19 7.19149E-19
 -1       689 1.11711E-04-4.32650E-05-2.93414E-05-3.36119E-06-1.33867E-18 1.57878E-18
 -1       690 1.19244E-04-4.96569E-05-2.98257E-05 3.44933E-06-8.38346E-19 6.39198E-19
 -1       691 1.26826E-04-5.36161E-05-3.14289E-05 1.41747E-05-6.80666E-19-8.17021E-19
 -1       692 1.30333E-04-4.92732E-05-3.48341E-05 2.64571E-05 1.36859E-19-1.76917E-18
 -1       693 1.26012E-04-3.32405E-05-4.00573E-05 3.38956E-05-2.41457E-19-2.64351E-18
 -1       694 1.39340E-04-3.06221E-05-4.72398E-05 3.35903E-05 2.50907E-19-3.25284E-18
 -1       695 1.03947E-04-5.60772E-06-4.24136E-05 4.73474E-06 1.05441E-18-6.64583E-19
 -1       696 9.52367E-05-2.70414E-05-2.92244E-05 9.14916E-07 1.21121E-18-1.11193E-18
 -1       697 1.25269E-04-1.35316E-06-5.38513E-05 1.04904E-05 3.14376E-18-1.37876E-18
 -1       698 9.53426E-05-2.59436E-05-2.97390E-05 2.59504E-06 1.45257E-18-1.11150E-18
 -1       699 1.24415E-04 4.06355E-07-5.41769E-05-2.00811E-05 1.85442E-18 4.59343E-19
 -1       700 1.21387E-04-1.06945E-05-4.79720E-05-5.74418E-06 1.70471E-18 7.59894E-19
 -1       701 1.19202E-04-4.68711E-09-5.17573E-05-1.23483E-06 1.66357E-18 1.97515E-18
 -1       702 9.20700E-05-1.76714E-05-3.18909E-05 3.94470E-06 1.06612E-18-2.08418E-18
 -1       703 9.20231E-05-1.76099E-05-3.18979E-05-3.88531E-06-6.26665E-19-1.98973E-18
 -1       704 7.24977E-05-4.27889E-05-1.22473E-05-3.58247E-05 7.94782E-19-2.20700E-18
 -1       705 5.99661E-05-3.31453E-05-1.09749E-05 3.36483E-05 1.46140E-19 2.10890E-18
 -1       706 9.30424E-05-5.40662E-05-1.63496E-05 3.89551E-05-3.71212E-19-3.33988E-18
 -1       707 1.26721E-04-6.84484E-05-2.48011E-05 2.36786E-05-1.27877E-18-5.50552E-19
 -1       708 1.48420E-04-6.33662E-05-3.66418E-05-9.39634E-06 2.14934E-19-2.05862E-18
 -1       709 1.47351E-04-4.35295E-05-4.49190E-05-2.62330E-05 7.19952E-19-2.10887E-18
 -1       710 1.36207E-04-1.84209E-05-5.10932E-05-3.04149E-05-7.78000E-19-3.01411E-19
 -1       711 1.02751E-04-5.95404E-05-1.81578E-05-3.40429E-05-1.14146E-18 1.32807E-18
 -1       712 4.27288E-05-2.03821E-05-8.97014E-06 1.60026E-05 4.56048E-19-8.14581E-19
 -1       713 9.28003E-05-1.88779E-05-3.16895E-05-5.22283E-06-9.26524E-19-1.84763E-18
 -1       714 9.12762E-05-1.64314E-05-3.20817E-05-7.82379E-07 2.33867E-20-2.36423E-18
 -1       715 1.42294E-04-4.53328E-05-4.18988E-05 3.11009E-05 4.51469E-19-1.77906E-18
 -1       716 1.10463E-04-3.53847E-06-4.63258E-05 6.46046E-06 4.12248E-18 1.06892E-19
 -1       717 1.37741E-04-6.69321E-05-3.03439E-05 4.00183E-06-9.32689E-19-1.73159E-19
 -1       718 9.41657E-05-2.12973E-05-3.12323E-05-6.15174E-06-1.24821E-18-1.45948E-18
 -1       719 1.23856E-04-6.74499E-05-2.40854E-05-2.10301E-05-1.69036E-19 2.44404E-18
 -1       720 4.51013E-05-1.76675E-05-1.12890E-05 1.05821E-06 1.97791E-18-4.39425E-18
 -1       721 9.15201E-05-1.68119E-05-3.20233E-05-2.37603E-06-2.55676E-19-2.09118E-18
 -1       722 5.95018E-05-2.85650E-05-1.28779E-05-2.52125E-05 1.42188E-18-3.32270E-18
 -1       723 9.46689E-05-2.27617E-05-3.08144E-05 3.89857E-06 1.25011E-18-1.37161E-18
 -1       724 9.56274E-05-2.85894E-05-2.87306E-05-9.97739E-07 3.06045E-19-1.00213E-18
 -1       725 9.55856E-05-2.55294E-05-3.00256E-05-1.80002E-06-1.05590E-18-1.17822E-18
 -1       726 9.58651E-05-2.68834E-05-2.95634E-05-5.71890E-07-8.56887E-19-9.54315E-19
 -1       727 9.59559E-05-2.77722E-05-2.92216E-05 2.27388E-07-6.64209E-19-7.55049E-19
 -1       728 9.59441E-05-2.83348E-05-2.89754E-05 7.04596E-07-5.39121E-19-3.93707E-19
 -1       729 9.58833E-05-2.86779E-05-2.88023E-05 9.48119E-07-2.23167E-19-3.26469E-19
 -1       730 9.58026E-05-2.88732E-05-2.86841E-05 1.03270E-06 2.23628E-19-1.29130E-19
 -1       731 9.57178E-05-2.89698E-05-2.86063E-05 1.01542E-06 3.72928E-19 3.21637E-19
 -1       732 9.56369E-05-2.90017E-05-2.85580E-05 9.38040E-07 1.86419E-19-6.53947E-20
 -1       733 9.55639E-05-2.89922E-05-2.85308E-05 8.30112E-07-1.82113E-19-4.02613E-19
 -1       734 9.55003E-05-2.89573E-05-2.85184E-05 7.11952E-07-2.36603E-19-6.59421E-19
 -1       735 9.54463E-05-2.89078E-05-2.85165E-05 5.97167E-07-6.01074E-19-7.50653E-19
 -1       736 9.54010E-05-2.88501E-05-2.85219E-05 4.94727E-07-6.76047E-19-8.59112E-19
 -1       737 9.53633E-05-2.87877E-05-2.85324E-05 4.10583E-07-1.07350E-18-4.56310E-19
 -1       738 9.53313E-05-2.87218E-05-2.85469E-05 3.48937E-07-6.58105E-19 1.07966E-19
 -1       739 9.53031E-05-2.86520E-05-2.85647E-05 3.13208E-07-1.82695E-19-1.08760E-19
 -1       740 9.52763E-05-2.85764E-05-2.85857E-05 3.06771E-07 2.99823E-19-5.38291E-20
 -1       741 9.52486E-05-2.84920E-05-2.86100E-05 3.33507E-07 2.91862E-20 7.36557E-19
 -1       742 9.52171E-05-2.83953E-05-2.86379E-05 3.98196E-07 9.48261E-20 3.65898E-19
 -1       743 9.51786E-05-2.82822E-05-2.86699E-05 5.06757E-07 6.27940E-19-4.96118E-19
 -1       744 9.51298E-05-2.81487E-05-2.87062E-05 6.66338E-07 1.58370E-19 1.52516E-19
 -1       745 9.50672E-05-2.79909E-05-2.87469E-05 8.85221E-07-5.81111E-19 1.01833E-18
 -1       746 9.49871E-05-2.78068E-05-2.87915E-05 1.17250E-06 3.54674E-19 1.43322E-18
 -1       747 9.48868E-05-2.75965E-05-2.88386E-05 1.53747E-06 6.97626E-19 1.14762E-18
 -1       748 9.47649E-05-2.73647E-05-2.88857E-05 1.98867E-06 6.13145E-19-1.70563E-19
 -1       749 9.46236E-05-2.71233E-05-2.89286E-05 2.53252E-06-5.46189E-19-1.71045E-19
 -1       750 9.44712E-05-2.68956E-05-2.89609E-05 3.17150E-06-9.43138E-19 5.33508E-19
 -1       751 9.43272E-05-2.67216E-05-2.89737E-05 3.90190E-06-7.54584E-19-4.02686E-19
 -1       752 9.42298E-05-2.66663E-05-2.89556E-05 4.71109E-06-1.01221E-18-7.05529E-19
 -1       753 9.42468E-05-2.68297E-05-2.88929E-05 5.57422E-06 6.87157E-19-9.33813E-19
 -1       754 9.44927E-05-2.73589E-05-2.87714E-05 6.44953E-06 3.36884E-19 1.53680E-19
 -1       755 9.51507E-05-2.84602E-05-2.85814E-05 7.26984E-06-5.19424E-19 6.89933E-20
 -1       756 9.64979E-05-3.04032E-05-2.83262E-05 7.92422E-06 1.57671E-20 9.21581E-19
 -1       757 9.89264E-05-3.35026E-05-2.80389E-05 8.21827E-06-6.36767E-20-6.55956E-20
 -1       758 1.02949E-04-3.80495E-05-2.78131E-05 7.77800E-06 1.29638E-18 1.18279E-18
 -1       759 1.08991E-04-4.39933E-05-2.78569E-05 5.88834E-06 1.42692E-18 1.58200E-18
 -1       760 1.17222E-04-5.05970E-05-2.85611E-05 1.26758E-06 1.83777E-18 1.71039E-18
 -1       761 1.25958E-04-5.50471E-05-3.04304E-05-6.83180E-06 7.43237E-19 5.34881E-19
 -1       762 1.31711E-04-5.19054E-05-3.42950E-05-1.82611E-05 3.53861E-19 1.89807E-19
 -1       763 1.18344E-04-1.42100E-05-4.50198E-05-2.74145E-05 1.73888E-18-2.93073E-18
 -1       764 1.12393E-04 2.86692E-07-4.87761E-05-1.37137E-05 1.02565E-18-1.11369E-18
 -1       765 9.56896E-05-2.82695E-05-2.88943E-05-7.30424E-07 4.82430E-19-9.62616E-19
 -1       766 9.57276E-05-2.77475E-05-2.91343E-05-2.06611E-07 8.10707E-19-1.29375E-18
 -1       767 9.55008E-05-2.88723E-05-2.85551E-05-1.07676E-06 1.96073E-19-9.73996E-19
 -1       768 9.54480E-05-2.89106E-05-2.85161E-05-9.96107E-07 1.83983E-19-3.74897E-19
 -1       769 9.54036E-05-2.89112E-05-2.84968E-05-8.82115E-07-1.12317E-19-4.00247E-19
 -1       770 9.53674E-05-2.88883E-05-2.84911E-05-7.56468E-07-1.60931E-19-5.19333E-19
 -1       771 9.53383E-05-2.88514E-05-2.84945E-05-6.33611E-07 3.62092E-19-2.68647E-19
 -1       772 9.53154E-05-2.88065E-05-2.85039E-05-5.22981E-07 2.74411E-19-4.92263E-19
 -1       773 9.52975E-05-2.87570E-05-2.85174E-05-4.30757E-07 1.61923E-19 1.18221E-20
 -1       774 9.52835E-05-2.87044E-05-2.85339E-05-3.61196E-07-5.27288E-21 1.40101E-19
 -1       775 9.52722E-05-2.86484E-05-2.85531E-05-3.17671E-07-1.11526E-19-8.80434E-20
 -1       776 9.52626E-05-2.85877E-05-2.85749E-05-3.03465E-07 1.19602E-19-3.59529E-19
 -1       777 9.52533E-05-2.85201E-05-2.85999E-05-3.22379E-07 3.15090E-19 8.28405E-19
 -1       778 9.52428E-05-2.84423E-05-2.86288E-05-3.79188E-07 3.00398E-19 1.42007E-18
 -1       779 9.52295E-05-2.83506E-05-2.86623E-05-4.79966E-07-2.67758E-19 1.56212E-18
 -1       780 9.52111E-05-2.82408E-05-2.87015E-05-6.32281E-07-1.51416E-20 2.01516E-18
 -1       781 9.51851E-05-2.81081E-05-2.87472E-05-8.45246E-07-3.92868E-20 9.21822E-19
 -1       782 9.51479E-05-2.79482E-05-2.87998E-05-1.12938E-06-3.11405E-19-1.47373E-19
 -1       783 9.50955E-05-2.77568E-05-2.88593E-05-1.49622E-06-1.04029E-18-5.81234E-19
 -1       784 9.50227E-05-2.75316E-05-2.89246E-05-1.95766E-06-6.93236E-19-4.76607E-19
 -1       785 9.49242E-05-2.72730E-05-2.89932E-05-2.52479E-06-7.79700E-19 8.44248E-19
 -1       786 9.47950E-05-2.69874E-05-2.90602E-05-3.20639E-06 6.83492E-19-7.99729E-20
 -1       787 9.46329E-05-2.66915E-05-2.91175E-05-4.00685E-06-3.98138E-19-2.04297E-18
 -1       788 9.44441E-05-2.64199E-05-2.91529E-05-4.92370E-06 2.73334E-19-2.01848E-18
 -1       789 9.42517E-05-2.62368E-05-2.91488E-05-5.94499E-06 7.44763E-19-1.81819E-18
 -1       790 9.41141E-05-2.62549E-05-2.90821E-05-7.04671E-06 9.55437E-19-2.87276E-18
 -1       791 9.41531E-05-2.66609E-05-2.89248E-05-8.18988E-06 1.60030E-18-3.15286E-18
 -1       792 9.46002E-05-2.77496E-05-2.86500E-05-9.31457E-06 1.09046E-18-2.34329E-18
 -1       793 9.58610E-05-2.99565E-05-2.82449E-05-1.03206E-05-8.88507E-19 2.64808E-19
 -1       794 9.85949E-05-3.38662E-05-2.77415E-05-1.10057E-05-1.30957E-18 2.17091E-18
 -1       795 1.03725E-04-4.00854E-05-2.72722E-05-1.08932E-05-9.47669E-19 1.76964E-18
 -1       796 1.12540E-04-4.89960E-05-2.72449E-05-8.72676E-06-8.73089E-22-3.04387E-19
 -1       797 1.25338E-04-5.89140E-05-2.84199E-05-2.78054E-06 4.16738E-19-1.60944E-18
 -1       798 9.48871E-05-2.33866E-05-3.06415E-05-3.50210E-06-1.03723E-18-1.31403E-18
 -1       799 9.56948E-05-2.69154E-05-2.94774E-05 6.81497E-07 9.24437E-19-1.14473E-18
 -1       800 8.31909E-05-4.18761E-05-1.74329E-05 3.23750E-05 6.97082E-20-7.62925E-19
 -1       801 9.55616E-05-2.87754E-05-2.86227E-05-1.09235E-06 4.34184E-19-1.20364E-18
 -1       802 9.12491E-05-4.72240E-05-1.85473E-05-3.03301E-05-1.51526E-19 2.28263E-18
 -1       803 1.40365E-04-6.55527E-05-3.19972E-05 7.36216E-06-2.44905E-19-1.28662E-18
 -1       804 9.31908E-05-1.97690E-05-3.14677E-05 1.23196E-06 5.27510E-19-1.87065E-18
 -1       805 9.52051E-05-2.44712E-05-3.03145E-05 3.41609E-06 1.54512E-18-1.14101E-18
 -1       806 1.38116E-04-5.00864E-05-3.79085E-05-2.28269E-05 3.55033E-19-2.68523E-19
 -1       807 1.09563E-04-5.74263E-05-2.22313E-05 2.73072E-05 9.11116E-19 1.25401E-19
 -1       808 1.30553E-04-3.22027E-05-4.24215E-05-3.01143E-05 5.91229E-19 5.82018E-19
 -1       809 5.96285E-05-2.56650E-05-1.42279E-05 2.31107E-05 4.05577E-19 1.24765E-18
 -1       810 9.40305E-05-2.13195E-05-3.11622E-05-4.44991E-06-8.60877E-19-1.67901E-18
 -1       811 9.30754E-05-1.95652E-05-3.15058E-05 2.53650E-08 1.69021E-19-1.73600E-18
 -1       812 1.37213E-04-5.81848E-05-3.39858E-05 1.88751E-05 1.46097E-19-1.49112E-18
 -1       813 5.51844E-05-1.98028E-05-1.49012E-05 1.17281E-05 1.51875E-18-1.31387E-18
 -1       814 1.08842E-04-5.58864E-05-2.25880E-05-2.29891E-05-7.01231E-19 3.60254E-20
 -1       815 9.55462E-05-2.59289E-05-2.98375E-05 1.83379E-06 1.22086E-18-1.10306E-18
 -1       816 1.38281E-04-6.11177E-05-3.30380E-05-9.14511E-06 4.77052E-19-6.07892E-19
 -1       817 9.40149E-05-2.13454E-05-3.11450E-05 3.30203E-06 8.78504E-19-1.82038E-18
 -1       818 9.34769E-05-2.03074E-05-3.13594E-05-2.32119E-06-3.23473E-19-1.79672E-18
 -1       819 5.41113E-05-1.98037E-05-1.44723E-05-1.06745E-05 1.25389E-18-3.71711E-18
 -1       820 9.35082E-05-2.03559E-05-3.13523E-05 2.35962E-06 8.38286E-19-2.04989E-18
 -1       821 1.24729E-04-6.25356E-05-2.66132E-05 1.33458E-05 6.93905E-19 7.79866E-20
 -1       822 9.36472E-05-2.06290E-05-3.12953E-05-3.40946E-06-7.55050E-19-1.68723E-18
 -1       823 9.58114E-05-2.56190E-05-3.00831E-05-1.17380E-06-7.06623E-19-9.19935E-19
 -1       824 9.61869E-05-2.69896E-05-2.96561E-05-2.84480E-07-5.47871E-19-8.63426E-19
 -1       825 9.63548E-05-2.79219E-05-2.93284E-05 2.98463E-07-1.79792E-19-7.43162E-19
 -1       826 9.63751E-05-2.85162E-05-2.90824E-05 6.42030E-07-2.96079E-19-5.63649E-19
 -1       827 9.63112E-05-2.88736E-05-2.89019E-05 8.11902E-07-1.68077E-19-6.60650E-19
 -1       828 9.62036E-05-2.90679E-05-2.87725E-05 8.62466E-07 2.88514E-19-7.74931E-19
 -1       829 9.60780E-05-2.91522E-05-2.86825E-05 8.36616E-07 2.16634E-20-7.27804E-19
 -1       830 9.59501E-05-2.91648E-05-2.86223E-05 7.66374E-07-2.12061E-19-1.06331E-18
 -1       831 9.58291E-05-2.91322E-05-2.85844E-05 6.74666E-07-4.37401E-19-1.32911E-18
 -1       832 9.57197E-05-2.90726E-05-2.85631E-05 5.77376E-07-2.32990E-19-1.42077E-18
 -1       833 9.56233E-05-2.89977E-05-2.85538E-05 4.85244E-07-6.13823E-19-1.03963E-18
 -1       834 9.55395E-05-2.89144E-05-2.85536E-05 4.05473E-07-1.87302E-19-7.01274E-19
 -1       835 9.54663E-05-2.88259E-05-2.85602E-05 3.43023E-07-3.48696E-19 1.97227E-19
 -1       836 9.54006E-05-2.87327E-05-2.85720E-05 3.01623E-07-6.17437E-19 9.22289E-19
 -1       837 9.53386E-05-2.86329E-05-2.85882E-05 2.84547E-07-1.83633E-19 6.88057E-19
 -1       838 9.52756E-05-2.85233E-05-2.86081E-05 2.95213E-07 5.55643E-19 7.21383E-19
 -1       839 9.52063E-05-2.83993E-05-2.86316E-05 3.37618E-07 2.88667E-19 4.44215E-19
 -1       840 9.51245E-05-2.82554E-05-2.86582E-05 4.16643E-07-6.15025E-20 3.28313E-19
 -1       841 9.50235E-05-2.80856E-05-2.86877E-05 5.38232E-07 7.70680E-19-3.08624E-19
 -1       842 9.48958E-05-2.78842E-05-2.87193E-05 7.09444E-07 2.63504E-19-6.13904E-19
 -1       843 9.47333E-05-2.76461E-05-2.87516E-05 9.38356E-07 7.68338E-19 4.49448E-19
 -1       844 9.45279E-05-2.73686E-05-2.87826E-05 1.23382E-06-2.04388E-19 6.02831E-19
 -1       845 9.42723E-05-2.70524E-05-2.88085E-05 1.60504E-06-2.40770E-19-1.77613E-19
 -1       846 9.39615E-05-2.67047E-05-2.88244E-05 2.06105E-06-2.10665E-19-9.62010E-19
 -1       847 9.35951E-05-2.63424E-05-2.88226E-05 2.61013E-06-5.39745E-20-8.79122E-19
 -1       848 9.31812E-05-2.59970E-05-2.87932E-05 3.25940E-06-3.91336E-19 4.25689E-19
 -1       849 9.27423E-05-2.57213E-05-2.87233E-05 4.01485E-06-9.60246E-19 1.84750E-19
 -1       850 9.23242E-05-2.55981E-05-2.85969E-05 4.88234E-06-6.58409E-19-3.29515E-19
 -1       851 9.20097E-05-2.57520E-05-2.83961E-05 5.86956E-06 1.44803E-18-1.88318E-19
 -1       852 9.19386E-05-2.63629E-05-2.81037E-05 6.98812E-06-4.08756E-19-1.75020E-19
 -1       853 9.23374E-05-2.76834E-05-2.77086E-05 8.25182E-06 3.92902E-19 4.95223E-19
 -1       854 9.35634E-05-3.00550E-05-2.72176E-05 9.66000E-06-1.79095E-19 1.37733E-18
 -1       855 9.61475E-05-3.38995E-05-2.66757E-05 1.11357E-05 4.17147E-19 1.19304E-18
 -1       856 1.00953E-04-3.97866E-05-2.62215E-05 1.24349E-05 1.68237E-18 3.63639E-19
 -1       857 1.08981E-04-4.79117E-05-2.61229E-05 1.27947E-05 2.07271E-18 2.39566E-19
 -1       858 9.61847E-05-2.78611E-05-2.92816E-05-2.85151E-07 4.45228E-19-1.02382E-18
 -1       859 9.57186E-05-2.90730E-05-2.85624E-05-7.48177E-07 1.14872E-19-2.84113E-19
 -1       860 9.58191E-05-2.90956E-05-2.85958E-05-8.48361E-07 1.82875E-19-4.74161E-19
 -1       861 9.59269E-05-2.90747E-05-2.86510E-05-9.23322E-07 2.10324E-20-6.34613E-19
 -1       862 9.56286E-05-2.90242E-05-2.85447E-05-6.40613E-07-3.82721E-19-4.94675E-19
 -1       863 9.55504E-05-2.89605E-05-2.85385E-05-5.37689E-07 7.11058E-20-3.18838E-19
 -1       864 9.54833E-05-2.88886E-05-2.85406E-05-4.47407E-07-1.87952E-19 3.80437E-19
 -1       865 9.54257E-05-2.88119E-05-2.85488E-05-3.75194E-07-5.16576E-20 5.54688E-21
 -1       866 9.53752E-05-2.87310E-05-2.85618E-05-3.25030E-07 4.05232E-19-2.35661E-19
 -1       867 9.53288E-05-2.86449E-05-2.85788E-05-3.00321E-07 3.63881E-20 1.52872E-20
 -1       868 9.52827E-05-2.85505E-05-2.85995E-05-3.04564E-07-4.91576E-19 2.30350E-19
 -1       869 9.52328E-05-2.84438E-05-2.86239E-05-3.41838E-07 1.78404E-19 2.22498E-19
 -1       870 9.51741E-05-2.83195E-05-2.86519E-05-4.17163E-07 2.07185E-20 4.85780E-19
 -1       871 9.51007E-05-2.81717E-05-2.86839E-05-5.36713E-07-5.72367E-19 5.32380E-19
 -1       872 9.50056E-05-2.79935E-05-2.87195E-05-7.07891E-07 1.44187E-19 2.40883E-19
 -1       873 9.48807E-05-2.77781E-05-2.87583E-05-9.39246E-07 5.15656E-19 1.50013E-19
 -1       874 9.47163E-05-2.75188E-05-2.87989E-05-1.24019E-06-6.82398E-19-2.20940E-19
 -1       875 9.45011E-05-2.72101E-05-2.88390E-05-1.62049E-06-1.21722E-18-1.36846E-19
 -1       876 9.42227E-05-2.68490E-05-2.88744E-05-2.08957E-06-6.77012E-19 4.46698E-19
 -1       877 9.38679E-05-2.64374E-05-2.88987E-05-2.65563E-06 9.31457E-19-1.98465E-18
 -1       878 9.34242E-05-2.59857E-05-2.89022E-05-3.32479E-06 1.43104E-18-8.99209E-19
 -1       879 9.28837E-05-2.55182E-05-2.88709E-05-4.10086E-06 9.65930E-20-2.49069E-18
 -1       880 9.22481E-05-2.50818E-05-2.87854E-05-4.98639E-06-1.92831E-19-2.36384E-18
 -1       881 9.15406E-05-2.47595E-05-2.86203E-05-5.98666E-06 9.92654E-19-1.37149E-18
 -1       882 9.08239E-05-2.46893E-05-2.83432E-05-7.11818E-06 1.17914E-18-1.28985E-18
 -1       883 9.02324E-05-2.50927E-05-2.79168E-05-8.42258E-06 7.08190E-19-2.91668E-19
 -1       884 9.00245E-05-2.63133E-05-2.73048E-05-9.98410E-06-1.29451E-18 5.67288E-19
 -1       885 9.06700E-05-2.88674E-05-2.64857E-05-1.19333E-05-2.09769E-18 1.21061E-18
 -1       886 9.29613E-05-3.34912E-05-2.54867E-05-1.44394E-05-6.57940E-19 9.02723E-20
 -1       887 9.82838E-05-4.10755E-05-2.44396E-05-1.72685E-05 2.00204E-19-1.10301E-19
 -1       888 9.60498E-05-2.69525E-05-2.96132E-05 3.89586E-07 8.75390E-19-1.10199E-18
 -1       889 9.31694E-05-1.97399E-05-3.14714E-05-1.18339E-06-1.52938E-19-2.05103E-18
 -1       890 7.74240E-05-3.17377E-05-1.94545E-05 2.32525E-05 1.18852E-18 1.16550E-18
 -1       891 9.61306E-05-2.87905E-05-2.88600E-05-8.83634E-07 5.14157E-19-7.63610E-19
 -1       892 9.60349E-05-2.89850E-05-2.87357E-05-9.47182E-07 2.98269E-19-6.45140E-19
 -1       893 9.61925E-05-2.84402E-05-2.90367E-05-6.83885E-07 2.63615E-19-7.35724E-19
 -1       894 9.81607E-05-4.59395E-05-2.22974E-05 2.41235E-05 1.43713E-18-3.10888E-19
 -1       895 9.46221E-05-2.26480E-05-3.08438E-05-2.85429E-06-8.36885E-19-1.60603E-18
 -1       896 7.76366E-05-3.26585E-05-1.90808E-05-2.32597E-05-2.96759E-20 9.01878E-19
 -1       897 9.56833E-05-2.55485E-05-3.00566E-05 1.42119E-06 1.04570E-18-1.14544E-18
 -1       898 9.44509E-05-2.22114E-05-3.09587E-05-2.05704E-06-5.04768E-19-1.34471E-18
 -1       899 9.41484E-05-2.15688E-05-3.11065E-05-1.22574E-06-1.16698E-19-1.84542E-18
 -1       900 6.99685E-05-2.49278E-05-1.91910E-05 1.72222E-05 8.36255E-19 8.25612E-19
 -1       901 5.69805E-05-1.80923E-05-1.65239E-05 6.58591E-07 9.07942E-19-4.31674E-18
 -1       902 9.52374E-05-2.42162E-05-3.04393E-05 2.26200E-06 1.09857E-18-1.21321E-18
 -1       903 9.46663E-05-2.25889E-05-3.08904E-05 1.21337E-06 4.29667E-19-1.79172E-18
 -1       904 9.45189E-05-2.22483E-05-3.09729E-05 4.26928E-07 1.72334E-19-1.39755E-18
 -1       905 9.60543E-05-2.58945E-05-3.00685E-05-6.40097E-07-5.48723E-19-8.81748E-19
 -1       906 9.64796E-05-2.72431E-05-2.96727E-05-5.38052E-08-4.00646E-19-7.49948E-19
 -1       907 9.66576E-05-2.81457E-05-2.93623E-05 3.16395E-07-2.09396E-19-1.16893E-18
 -1       908 9.66756E-05-2.87191E-05-2.91243E-05 5.30810E-07-6.63843E-20-9.83884E-19
 -1       909 9.65955E-05-2.90557E-05-2.89456E-05 6.29554E-07 9.64011E-20-8.60921E-19
 -1       910 9.64619E-05-2.92278E-05-2.88146E-05 6.49202E-07 2.50831E-19-9.49089E-19
 -1       911 9.63050E-05-2.92888E-05-2.87212E-05 6.18937E-07-1.33127E-19-8.71425E-19
 -1       912 9.61440E-05-2.92777E-05-2.86570E-05 5.60686E-07-4.57453E-19-5.50587E-19
 -1       913 9.59904E-05-2.92220E-05-2.86150E-05 4.90163E-07-4.17307E-19-8.39444E-19
 -1       914 9.58502E-05-2.91400E-05-2.85901E-05 4.18274E-07-1.68351E-19-7.24229E-19
 -1       915 9.57252E-05-2.90433E-05-2.85779E-05 3.52450E-07 7.08011E-20-5.76852E-19
 -1       916 9.56143E-05-2.89381E-05-2.85755E-05 2.97774E-07-2.23172E-20-5.49366E-19
 -1       917 9.55147E-05-2.88268E-05-2.85806E-05 2.57894E-07-2.07488E-19-1.23088E-18
 -1       918 9.54218E-05-2.87084E-05-2.85914E-05 2.35746E-07 5.96448E-20-1.88383E-20
 -1       919 9.53297E-05-2.85801E-05-2.86070E-05 2.34110E-07 5.07157E-19 5.54648E-19
 -1       920 9.52316E-05-2.84367E-05-2.86264E-05 2.56032E-07 1.46391E-19 5.54555E-20
 -1       921 9.51193E-05-2.82721E-05-2.86488E-05 3.05143E-07-3.16676E-19-5.73857E-19
 -1       922 9.49838E-05-2.80791E-05-2.86735E-05 3.85879E-07 8.59459E-20-8.47626E-19
 -1       923 9.48147E-05-2.78501E-05-2.86991E-05 5.03618E-07 7.17466E-19-3.28062E-19
 -1       924 9.46007E-05-2.75780E-05-2.87240E-05 6.64743E-07 7.98171E-19-1.58674E-19
 -1       925 9.43296E-05-2.72570E-05-2.87455E-05 8.76639E-07 3.73749E-19-7.77219E-19
 -1       926 9.39894E-05-2.68840E-05-2.87595E-05 1.14764E-06-4.65068E-19 6.61606E-20
 -1       927 9.35683E-05-2.64609E-05-2.87604E-05 1.48699E-06-5.46511E-19-6.52915E-19
 -1       928 9.30577E-05-2.59973E-05-2.87403E-05 1.90502E-06 2.48759E-19-9.11467E-19
 -1       929 9.24535E-05-2.55143E-05-2.86883E-05 2.41361E-06 6.75144E-19-3.86496E-19
 -1       930 9.17604E-05-2.50490E-05-2.85907E-05 3.02761E-06-7.04772E-19 1.66443E-19
 -1       931 9.09969E-05-2.46614E-05-2.84297E-05 3.76773E-06-7.71543E-19 1.05533E-18
 -1       932 9.02031E-05-2.44414E-05-2.81838E-05 4.66585E-06 6.67056E-19 1.52865E-18
 -1       933 8.94515E-05-2.45193E-05-2.78284E-05 5.77383E-06 6.41834E-19 1.81587E-19
 -1       934 8.88661E-05-2.50800E-05-2.73373E-05 7.17543E-06 1.94110E-19 8.97525E-19
 -1       935 8.86532E-05-2.63839E-05-2.66877E-05 8.99758E-06 8.03150E-19 1.81176E-18
 -1       936 8.91584E-05-2.88039E-05-2.58699E-05 1.14251E-05 5.74516E-19 1.40387E-18
 -1       937 9.11274E-05-3.29547E-05-2.49240E-05 1.46393E-05 2.55325E-19 1.68222E-18
 -1       938 9.57981E-05-2.91132E-05-2.85792E-05-4.91254E-07-4.08245E-19-1.35130E-19
 -1       939 9.59254E-05-2.91856E-05-2.86028E-05-5.75158E-07 9.35758E-20-2.19027E-19
 -1       940 9.62123E-05-2.92323E-05-2.87056E-05-7.21348E-07 2.67397E-20-3.36063E-19
 -1       941 9.56853E-05-2.90259E-05-2.85683E-05-4.13379E-07-4.37805E-19 1.89622E-19
 -1       942 9.55861E-05-2.89303E-05-2.85667E-05-3.47553E-07 8.29993E-20 1.33398E-19
 -1       943 9.54980E-05-2.88291E-05-2.85724E-05-2.98017E-07 5.07314E-19-1.84769E-19
 -1       944 9.54173E-05-2.87218E-05-2.85838E-05-2.68087E-07-8.76859E-20-1.47762E-19
 -1       945 9.53388E-05-2.86059E-05-2.85998E-05-2.60796E-07-3.90286E-19 3.47123E-19
 -1       946 9.52565E-05-2.84770E-05-2.86198E-05-2.79386E-07 6.99284E-20-2.62427E-19
 -1       947 9.51632E-05-2.83290E-05-2.86432E-05-3.27650E-07-1.88549E-19-1.04697E-20
 -1       948 9.50506E-05-2.81548E-05-2.86696E-05-4.10148E-07-3.67674E-19 3.93245E-19
 -1       949 9.49088E-05-2.79463E-05-2.86982E-05-5.32299E-07-2.26883E-19-6.55154E-19
 -1       950 9.47265E-05-2.76950E-05-2.87278E-05-7.00324E-07 3.21231E-19-9.41113E-20
 -1       951 9.44903E-05-2.73922E-05-2.87563E-05-9.21037E-07 1.21784E-19 2.45429E-20
 -1       952 9.41850E-05-2.70302E-05-2.87807E-05-1.20147E-06-6.29827E-19-1.76551E-19
 -1       953 9.37937E-05-2.66032E-05-2.87959E-05-1.54833E-06-4.20019E-19-1.93519E-18
 -1       954 9.32974E-05-2.61094E-05-2.87949E-05-1.96746E-06 5.40588E-19-9.64771E-19
 -1       955 9.26767E-05-2.55533E-05-2.87672E-05-2.46337E-06 3.56630E-19-3.37737E-19
 -1       956 9.19124E-05-2.49496E-05-2.86984E-05-3.03959E-06 1.05342E-18 5.64948E-20
 -1       957 9.09883E-05-2.43285E-05-2.85685E-05-3.70056E-06 3.90796E-19-2.66985E-19
 -1       958 8.98950E-05-2.37426E-05-2.83511E-05-4.45686E-06-4.54661E-19-8.89235E-19
 -1       959 8.86358E-05-2.32765E-05-2.80113E-05-5.33646E-06-1.97127E-19 1.11249E-19
 -1       960 8.72378E-05-2.30615E-05-2.75044E-05-6.40567E-06 1.17906E-19 9.62999E-19
 -1       961 8.57712E-05-2.32970E-05-2.67753E-05-7.80069E-06-8.25947E-19 1.22920E-18
 -1       962 8.43726E-05-2.42764E-05-2.57566E-05-9.77761E-06-1.78885E-18 1.38910E-18
 -1       963 8.33345E-05-2.64919E-05-2.43599E-05-1.28259E-05-9.91962E-19 7.82454E-19
 -1       964 8.31117E-05-3.05753E-05-2.24809E-05-1.75302E-05-1.26031E-19 1.42862E-18
 -1       965 9.63558E-05-2.91613E-05-2.87976E-05-7.51757E-07 1.05592E-19-6.32131E-19
 -1       966 9.59301E-05-2.57649E-05-3.00708E-05 8.44065E-07 9.12155E-19-1.00247E-18
 -1       967 9.63573E-05-2.71419E-05-2.96636E-05 1.31845E-07 5.73762E-19-1.09731E-18
 -1       968 9.68184E-05-4.39303E-05-2.25430E-05-2.12604E-05 9.38397E-19 1.20255E-18
 -1       969 9.64777E-05-2.89797E-05-2.89277E-05-7.21056E-07 5.19804E-19-7.56217E-19
 -1       970 9.60653E-05-2.92314E-05-2.86431E-05-6.56212E-07 3.12025E-20-1.18284E-19
 -1       971 9.65307E-05-2.80540E-05-2.93472E-05-3.26651E-07 1.40148E-19-9.52200E-19
 -1       972 9.00415E-05-3.63109E-05-2.30038E-05 1.95995E-05 9.03779E-19-2.00778E-19
 -1       973 9.65502E-05-2.86346E-05-2.91067E-05-5.93721E-07 3.58807E-19-9.03068E-19
 -1       974 9.49252E-05-2.32502E-05-3.07179E-05 1.86582E-06 6.08750E-19-1.86058E-18
 -1       975 9.55092E-05-2.46261E-05-3.03786E-05 1.31488E-06 8.13954E-19-1.36553E-18
 -1       976 9.42753E-05-2.17795E-05-3.10704E-05-3.50476E-07 1.13394E-21-1.70034E-18
 -1       977 6.83706E-05-2.24437E-05-1.95686E-05-1.28133E-05-7.35811E-19-2.58772E-18
 -1       978 9.53377E-05-2.40242E-05-3.05636E-05-1.03985E-06-3.37685E-19-1.32115E-18
 -1       979 8.22704E-05-2.99916E-05-2.23595E-05 1.75500E-05-1.62344E-19-4.54868E-19
 -1       980 6.62786E-05-2.04536E-05-1.95838E-05 9.55213E-06 9.71946E-19-9.78508E-19
 -1       981 9.53570E-05-2.40479E-05-3.05611E-05 9.14853E-07 2.46239E-19-1.73363E-18
 -1       982 9.52553E-05-2.37276E-05-3.06548E-05 3.65014E-07 5.82573E-20-1.36793E-18
 -1       983 9.67217E-05-2.75909E-05-2.96274E-05 6.38513E-08-4.14403E-19-1.21525E-18
 -1       984 9.68710E-05-2.84149E-05-2.93385E-05 2.58866E-07-2.57468E-19-1.23472E-18
 -1       985 9.68599E-05-2.89255E-05-2.91148E-05 3.65643E-07-1.48451E-20-1.06490E-18
 -1       986 9.67529E-05-2.92135E-05-2.89455E-05 4.08293E-07 3.26385E-19-7.50698E-19
 -1       987 9.65941E-05-2.93466E-05-2.88204E-05 4.07944E-07 4.89788E-20-9.26878E-19
 -1       988 9.64137E-05-2.93760E-05-2.87305E-05 3.81430E-07-8.92261E-22-9.29894E-19
 -1       989 9.62315E-05-2.93390E-05-2.86682E-05 3.41121E-07-3.25501E-19-4.43374E-19
 -1       990 9.60589E-05-2.92616E-05-2.86274E-05 2.95838E-07-6.21711E-19-8.07621E-19
 -1       991 9.59013E-05-2.91607E-05-2.86031E-05 2.51707E-07 5.49561E-20-9.28484E-19
 -1       992 9.57598E-05-2.90465E-05-2.85914E-05 2.12930E-07-5.35645E-20-1.66693E-18
 -1       993 9.56325E-05-2.89240E-05-2.85894E-05 1.82455E-07-2.91691E-19-9.80980E-19
 -1       994 9.55152E-05-2.87939E-05-2.85948E-05 1.62512E-07-3.51117E-20-5.15791E-19
 -1       995 9.54016E-05-2.86542E-05-2.86060E-05 1.55038E-07 3.89653E-19-1.29780E-18
 -1       996 9.52843E-05-2.85002E-05-2.86218E-05 1.62013E-07-1.35704E-19-1.53583E-18
 -1       997 9.51543E-05-2.83255E-05-2.86410E-05 1.85718E-07 6.11678E-20-1.41214E-18
 -1       998 9.50011E-05-2.81223E-05-2.86624E-05 2.28942E-07-5.24733E-21-6.56860E-19
 -1       999 9.48128E-05-2.78821E-05-2.86846E-05 2.95141E-07 7.35024E-19-4.09362E-19
 -1      1000 9.45761E-05-2.75961E-05-2.87058E-05 3.88572E-07 9.87213E-19-1.22429E-18
 -1      1001 9.42762E-05-2.72562E-05-2.87230E-05 5.14421E-07 4.26968E-19-4.61916E-19
 -1      1002 9.38976E-05-2.68560E-05-2.87323E-05 6.78950E-07-6.23803E-19-6.10032E-19
 -1      1003 9.34241E-05-2.63926E-05-2.87280E-05 8.89722E-07 1.43650E-19-5.86354E-19
 -1      1004 9.28400E-05-2.58690E-05-2.87021E-05 1.15602E-06-2.31231E-19 9.04006E-19
 -1      1005 9.21317E-05-2.52962E-05-2.86441E-05 1.48966E-06 1.42806E-19-6.25160E-19
 -1      1006 9.12890E-05-2.46973E-05-2.85397E-05 1.90650E-06 1.60549E-19-9.22700E-19
 -1      1007 9.03078E-05-2.41108E-05-2.83706E-05 2.42925E-06 1.93397E-19-2.41660E-19
 -1      1008 8.91916E-05-2.35946E-05-2.81136E-05 3.09253E-06 2.91267E-20 3.97020E-19
 -1      1009 8.79537E-05-2.32304E-05-2.77394E-05 3.95164E-06-4.27028E-20-2.87436E-19
 -1      1010 8.66191E-05-2.31278E-05-2.72118E-05 5.09762E-06 7.31145E-19 3.62578E-19
 -1      1011 8.52311E-05-2.34348E-05-2.64862E-05 6.68149E-06 1.15854E-18 9.81539E-19
 -1      1012 8.38777E-05-2.43619E-05-2.55087E-05 8.93833E-06 3.79246E-20-4.93880E-19
 -1      1013 8.26714E-05-2.61606E-05-2.42208E-05 1.21715E-05 2.01248E-19-1.44493E-19
 -1      1014 9.57491E-05-2.90478E-05-2.85862E-05-2.76342E-07-3.04772E-19-1.34382E-19
 -1      1015 9.56286E-05-2.89325E-05-2.85840E-05-2.35505E-07 3.47609E-19-6.71293E-20
 -1      1016 9.58839E-05-2.91547E-05-2.85982E-05-3.27141E-07-5.80960E-19-5.03585E-19
 -1      1017 9.55187E-05-2.88103E-05-2.85893E-05-2.07481E-07 3.35223E-20 4.95245E-19
 -1      1018 9.54140E-05-2.86796E-05-2.86005E-05-1.94640E-07-6.83061E-20 3.89261E-19
 -1      1019 9.53076E-05-2.85362E-05-2.86163E-05-1.99281E-07 3.29365E-19-1.60847E-19
 -1      1020 9.51912E-05-2.83741E-05-2.86359E-05-2.23922E-07-2.02443E-19-2.49497E-19
 -1      1021 9.50549E-05-2.81857E-05-2.86583E-05-2.71483E-07-2.10953E-19-5.33134E-19
 -1      1022 9.48873E-05-2.79622E-05-2.86823E-05-3.45365E-07 2.62533E-19-9.54669E-19
 -1      1023 9.46754E-05-2.76941E-05-2.87063E-05-4.49409E-07-6.85016E-19-6.68439E-19
 -1      1024 9.44038E-05-2.73716E-05-2.87282E-05-5.87733E-07-8.35797E-19 4.42209E-19
 -1      1025 9.40555E-05-2.69856E-05-2.87443E-05-7.64430E-07 3.07300E-19 6.08101E-19
 -1      1026 9.36108E-05-2.65284E-05-2.87497E-05-9.83127E-07 8.10309E-19-1.02349E-18
 -1      1027 9.30485E-05-2.59956E-05-2.87371E-05-1.24648E-06-5.10759E-19-5.21956E-19
 -1      1028 9.23454E-05-2.53877E-05-2.86964E-05-1.55572E-06 1.59714E-19-1.03353E-18
 -1      1029 9.14766E-05-2.47129E-05-2.86133E-05-1.91066E-06 6.32002E-19-9.21763E-19
 -1      1030 9.04164E-05-2.39899E-05-2.84688E-05-2.31069E-06 5.25393E-19-2.50350E-19
 -1      1031 8.91372E-05-2.32510E-05-2.82374E-05-2.75801E-06 4.84756E-20-8.31838E-20
 -1      1032 8.76077E-05-2.25446E-05-2.78849E-05-3.26489E-06-7.37504E-20-3.27949E-19
 -1      1033 8.57870E-05-2.19365E-05-2.73656E-05-3.86843E-06-3.75473E-19-1.08298E-18
 -1      1034 8.36123E-05-2.15099E-05-2.66174E-05-4.66055E-06-9.65051E-19-2.69721E-19
 -1      1035 8.10080E-05-2.13914E-05-2.55532E-05-5.83350E-06-1.26846E-18-2.09837E-19
 -1      1036 7.77873E-05-2.16917E-05-2.40363E-05-7.69370E-06-9.20896E-19-1.43697E-18
 -1      1037 7.37339E-05-2.19239E-05-2.21694E-05-9.69265E-06-6.26316E-19-2.33286E-18
 -1      1038 9.65441E-05-2.93000E-05-2.88189E-05-5.21318E-07-6.50845E-20-3.31443E-20
 -1      1039 9.62250E-05-2.61753E-05-3.00202E-05 3.69188E-07 4.41617E-19-1.12873E-18
 -1      1040 9.63733E-05-2.93425E-05-2.87274E-05-4.91116E-07 7.49741E-20-6.62917E-20
 -1      1041 9.66926E-05-2.91508E-05-2.89465E-05-5.15540E-07 1.88478E-19-1.25734E-19
 -1      1042 9.60346E-05-2.92478E-05-2.86229E-05-3.84030E-07-2.03713E-19-3.00086E-19
 -1      1043 9.61996E-05-2.93162E-05-2.86643E-05-4.41417E-07 1.57305E-19-4.27152E-20
 -1      1044 6.67032E-05-1.89391E-05-2.04163E-05-1.84731E-06-3.28641E-19-2.21438E-18
 -1      1045 9.66191E-05-2.74460E-05-2.96452E-05-3.61424E-08 1.72719E-19-6.22659E-19
 -1      1046 9.63561E-05-2.63828E-05-2.99884E-05-2.38979E-07-2.79636E-19-1.16037E-18
 -1      1047 7.63758E-05-2.46632E-05-2.21325E-05 1.33980E-05-5.91116E-20-1.04835E-19
 -1      1048 9.67857E-05-2.88392E-05-2.91197E-05-4.51930E-07 2.16960E-19-4.85701E-19
 -1      1049 9.67842E-05-2.83051E-05-2.93485E-05-3.03144E-07 1.05635E-19-5.28372E-19
 -1      1050 9.50511E-05-2.33000E-05-3.07506E-05-1.84167E-07 1.34863E-19-1.33017E-18
 -1      1051 9.51825E-05-2.35923E-05-3.06794E-05-6.56248E-07-1.16662E-19-1.77384E-18
 -1      1052 9.60711E-05-2.56040E-05-3.01989E-05 3.30974E-07-2.28870E-20-1.37654E-18
 -1      1053 9.56220E-05-2.89008E-05-2.85948E-05-1.21688E-07 1.88331E-19-1.21751E-18
 -1      1054 9.69884E-05-2.86827E-05-2.92730E-05 1.24220E-07 2.77443E-20-6.19874E-19
 -1      1055 9.69351E-05-2.91079E-05-2.90685E-05 1.51622E-07 2.17516E-19-7.53064E-19
 -1      1056 9.67974E-05-2.93306E-05-2.89141E-05 1.59138E-07-4.20294E-20-1.12011E-18
 -1      1057 9.66174E-05-2.94162E-05-2.88003E-05 1.53761E-07-1.30102E-19-9.77974E-19
 -1      1058 9.64228E-05-2.94116E-05-2.87189E-05 1.40703E-07 4.85943E-21-1.05560E-18
 -1      1059 9.62309E-05-2.93501E-05-2.86631E-05 1.24032E-07-4.09980E-19-4.84625E-19
 -1      1060 9.60514E-05-2.92548E-05-2.86271E-05 1.06646E-07-1.85282E-19-2.17203E-19
 -1      1061 9.58882E-05-2.91399E-05-2.86063E-05 9.05600E-08-4.31153E-19-7.81671E-19
 -1      1062 9.57409E-05-2.90135E-05-2.85974E-05 7.71786E-08 2.10410E-19-9.44864E-19
 -1      1063 9.56064E-05-2.88788E-05-2.85975E-05 6.75303E-08-1.15875E-19-7.04163E-19
 -1      1064 9.54791E-05-2.87349E-05-2.86046E-05 6.24623E-08-5.06248E-19-3.92614E-19
 -1      1065 9.53515E-05-2.85782E-05-2.86171E-05 6.27989E-08-1.35017E-19-8.40497E-19
 -1      1066 9.52145E-05-2.84027E-05-2.86336E-05 6.94752E-08-2.84590E-19-9.61461E-19
 -1      1067 9.50575E-05-2.82008E-05-2.86528E-05 8.36575E-08 2.80891E-19-1.41719E-18
 -1      1068 9.48679E-05-2.79635E-05-2.86733E-05 1.06862E-07 1.08617E-19-8.27225E-19
 -1      1069 9.46318E-05-2.76811E-05-2.86931E-05 1.41088E-07 2.80469E-19-1.19264E-18
 -1      1070 9.43332E-05-2.73440E-05-2.87096E-05 1.88980E-07 6.69650E-19-1.99788E-18
 -1      1071 9.39547E-05-2.69436E-05-2.87189E-05 2.54058E-07 5.57660E-20-2.10152E-18
 -1      1072 9.34775E-05-2.64733E-05-2.87159E-05 3.41040E-07-1.48076E-19-1.30587E-18
 -1      1073 9.28818E-05-2.59305E-05-2.86932E-05 4.56338E-07 5.67559E-19-1.41950E-18
 -1      1074 9.21474E-05-2.53185E-05-2.86406E-05 6.08815E-07-2.55359E-19-4.66799E-19
 -1      1075 9.12546E-05-2.46492E-05-2.85448E-05 8.10984E-07-1.31954E-19-1.68899E-19
 -1      1076 9.01844E-05-2.39448E-05-2.83878E-05 1.08090E-06-1.56314E-19-3.53226E-19
 -1      1077 8.89173E-05-2.32405E-05-2.81464E-05 1.44524E-06 6.77900E-20-4.37254E-19
 -1      1078 8.74307E-05-2.25841E-05-2.77903E-05 1.94415E-06-3.24696E-19-7.26616E-20
 -1      1079 8.56906E-05-2.20342E-05-2.72798E-05 2.63921E-06 3.74789E-19 2.12581E-19
 -1      1080 8.36364E-05-2.16545E-05-2.65618E-05 3.62564E-06 4.69377E-19-2.75796E-19
 -1      1081 8.11571E-05-2.15146E-05-2.55616E-05 5.05681E-06-1.03110E-18-1.02555E-18
 -1      1082 7.82069E-05-2.17412E-05-2.41889E-05 7.13277E-06 2.92357E-19-1.12261E-18
 -1      1083 9.57544E-05-2.90311E-05-2.85957E-05-1.40301E-07-6.65856E-20-1.06121E-18
 -1      1084 9.59004E-05-2.91531E-05-2.86060E-05-1.64956E-07-8.63511E-19-1.06211E-18
 -1      1085 9.53756E-05-2.86117E-05-2.86131E-05-1.08198E-07 1.71964E-19-5.82230E-19
 -1      1086 9.52460E-05-2.84442E-05-2.86294E-05-1.15842E-07 1.46593E-19 2.53474E-19
 -1      1087 9.50992E-05-2.82522E-05-2.86487E-05-1.34860E-07-2.78394E-20-8.65871E-20
 -1      1088 9.49231E-05-2.80269E-05-2.86698E-05-1.66754E-07 1.67119E-19-6.85604E-20
 -1      1089 9.47040E-05-2.77585E-05-2.86909E-05-2.13121E-07-3.21054E-19 1.14993E-19
 -1      1090 9.44262E-05-2.74367E-05-2.87098E-05-2.75523E-07-8.90503E-19-6.37236E-19
 -1      1091 9.40719E-05-2.70517E-05-2.87230E-05-3.55231E-07-4.71835E-19-1.38720E-18
 -1      1092 9.36213E-05-2.65947E-05-2.87258E-05-4.52863E-07 8.64102E-19-1.06483E-18
 -1      1093 9.30524E-05-2.60599E-05-2.87112E-05-5.67890E-07 3.51335E-19-9.78362E-19
 -1      1094 9.23416E-05-2.54456E-05-2.86699E-05-6.98074E-07 5.72818E-19-2.22099E-18
 -1      1095 9.14635E-05-2.47567E-05-2.85889E-05-8.38945E-07 3.50982E-19-2.07615E-18
 -1      1096 9.03903E-05-2.40061E-05-2.84508E-05-9.83568E-07 1.34310E-19-1.29063E-18
 -1      1097 8.90907E-05-2.32169E-05-2.82323E-05-1.12304E-06 3.57211E-19-5.81207E-19
 -1      1098 8.75252E-05-2.24219E-05-2.79024E-05-1.24831E-06 5.30067E-19-1.19709E-18
 -1      1099 8.56363E-05-2.16609E-05-2.74195E-05-1.35416E-06-7.33122E-20-1.01467E-18
 -1      1100 8.33288E-05-2.09715E-05-2.67267E-05-1.44539E-06-2.50818E-20-2.09309E-18
 -1      1101 8.04209E-05-2.03594E-05-2.57421E-05-1.54169E-06-8.09991E-19-2.69799E-18
 -1      1102 7.65375E-05-1.97719E-05-2.43308E-05-1.84761E-06-8.29712E-19-1.93476E-18
 -1      1103 7.26723E-05-1.96122E-05-2.27098E-05-1.89411E-06-5.90226E-19-2.17861E-18
 -1      1104 9.66047E-05-2.69229E-05-2.98643E-05-4.63248E-08-4.60422E-19-1.00074E-18
 -1      1105 9.66257E-05-2.71034E-05-2.97964E-05 4.94694E-08 1.16290E-19-1.01465E-18
 -1      1106 9.66193E-05-2.93937E-05-2.88110E-05-2.72041E-07-9.53489E-20-8.84823E-19
 -1      1107 9.67911E-05-2.92881E-05-2.89299E-05-2.76365E-07-1.52945E-19-7.69227E-19
 -1      1108 9.54980E-05-2.87620E-05-2.86012E-05-1.10566E-07-1.04837E-19-1.06310E-18
 -1      1109 9.60625E-05-2.92628E-05-2.86285E-05-1.93767E-07-2.44588E-19-1.11380E-18
 -1      1110 9.62404E-05-2.93513E-05-2.86668E-05-2.24072E-07 1.05418E-19-1.10858E-18
 -1      1111 9.69052E-05-2.79937E-05-2.95338E-05 6.60077E-08-2.14078E-19-8.01205E-19
 -1      1112 9.60762E-05-2.54950E-05-3.02486E-05 4.06074E-08 3.92888E-21-1.48690E-18
 -1      1113 9.64295E-05-2.94030E-05-2.87257E-05-2.52014E-07 1.12953E-19-1.01230E-18
 -1      1114 9.69157E-05-2.90371E-05-2.90912E-05-2.53770E-07-2.75331E-19-7.97595E-19
 -1      1115 9.59999E-05-2.53615E-05-3.02740E-05-1.74212E-07 1.29256E-20-1.24440E-18
 -1      1116 9.68590E-05-2.80888E-05-2.94743E-05-1.59784E-07 1.67137E-19-1.01792E-18
 -1      1117 7.20733E-05-1.97246E-05-2.24453E-05 4.31593E-06 5.65629E-19-1.93562E-18
 -1      1118 9.69502E-05-2.86727E-05-2.92624E-05-2.15497E-07 1.54976E-19-1.05087E-18
 -1      1119 9.68037E-05-2.75132E-05-2.96940E-05 3.94522E-09-1.78083E-19-8.64448E-19
 -1      1120 1.16859E-04 2.57584E-10-4.18572E-05-4.14637E-05-2.40981E-19 7.32980E-18
 -1      1121 8.86553E-05 7.19304E-11-3.72529E-05-2.41640E-05-1.17314E-19 8.56509E-19
 -1      1122 8.40812E-05 4.14596E-11-3.57680E-05-1.78733E-05-8.91502E-20-1.85212E-18
 -1      1123 8.23357E-05 3.20244E-11-3.50733E-05-1.38306E-05-5.77571E-20-3.19001E-18
 -1      1124 8.15306E-05 2.73252E-11-3.47383E-05-1.05286E-05-3.14726E-20-3.78108E-18
 -1      1125 8.11272E-05 2.46022E-11-3.45723E-05-7.63640E-06-2.42662E-20-4.05733E-18
 -1      1126 8.09169E-05 2.29409E-11-3.44885E-05-4.97644E-06-1.00718E-20-4.09343E-18
 -1      1127 8.08140E-05 2.20436E-11-3.44489E-05-2.43036E-06 1.23415E-21-4.08343E-18
 -1      1128 8.07847E-05 2.17728E-11-3.44378E-05 5.25139E-08 2.95469E-21-4.01909E-18
 -1      1129 8.08183E-05 2.20881E-11-3.44504E-05 2.53794E-06 2.00045E-20-3.99055E-18
 -1      1130 8.09257E-05 2.30400E-11-3.44914E-05 5.09228E-06 2.23339E-20-3.89130E-18
 -1      1131 8.11428E-05 2.47591E-11-3.45766E-05 7.76810E-06 3.43909E-20-3.66029E-18
 -1      1132 8.15532E-05 2.76362E-11-3.47447E-05 1.06880E-05 4.89956E-20-3.25455E-18
 -1      1133 8.23597E-05 3.25004E-11-3.50833E-05 1.40373E-05 6.40039E-20-2.46929E-18
 -1      1134 8.40772E-05 4.19310E-11-3.57881E-05 1.81244E-05 9.03149E-20-9.02394E-19
 -1      1135 8.83533E-05 6.67567E-11-3.73232E-05 2.40067E-05 1.13820E-19 2.00781E-18
 -1      1136 1.06624E-04 1.63940E-10-4.06360E-05 3.61904E-05 2.48181E-19 8.08144E-18
 -1      1137 1.30227E-04-2.57583E-05-4.02757E-05-2.61047E-05-9.39571E-19 1.14100E-17
 -1      1138 9.74669E-05-2.88657E-05-3.15807E-05-6.79910E-07-3.12952E-19 9.26400E-18
 -1      1139 9.01726E-05-2.70304E-05-2.78970E-05 3.87104E-07-1.31078E-19 6.07010E-18
 -1      1140 8.82641E-05-2.65769E-05-2.66483E-05 2.50885E-07-8.24865E-20 3.70169E-18
 -1      1141 8.79088E-05-2.64511E-05-2.63929E-05 1.66065E-07-5.98945E-20 2.33299E-18
 -1      1142 8.82716E-05-2.65288E-05-2.64788E-05 1.18218E-07-8.30158E-20 1.41116E-18
 -1      1143 8.89616E-05-2.67144E-05-2.66826E-05 8.76353E-08-5.74891E-23 7.19846E-19
 -1      1144 8.97799E-05-2.69473E-05-2.69263E-05 6.64706E-08-7.69448E-20-2.27018E-19
 -1      1145 9.06166E-05-2.71911E-05-2.71757E-05 5.08323E-08 7.54389E-21-6.36876E-19
 -1      1146 9.14092E-05-2.74246E-05-2.74126E-05 3.88048E-08-8.42837E-20-1.71518E-18
 -1      1147 9.21243E-05-2.76367E-05-2.76271E-05 2.93717E-08 1.65033E-20-2.29086E-18
 -1      1148 9.27467E-05-2.78220E-05-2.78143E-05 2.19237E-08 2.28670E-20-2.07017E-18
 -1      1149 9.32728E-05-2.79791E-05-2.79730E-05 1.60458E-08 5.57464E-20-2.10880E-18
 -1      1150 9.37064E-05-2.81090E-05-2.81041E-05 1.14268E-08-3.73278E-20-1.51821E-18
 -1      1151 9.40555E-05-2.82138E-05-2.82100E-05 7.81813E-09-3.37223E-20-1.70902E-18
 -1      1152 9.43303E-05-2.82966E-05-2.82935E-05 5.01509E-09-1.57622E-19-2.61167E-18
 -1      1153 9.45423E-05-2.83605E-05-2.83582E-05 2.84861E-09-1.00133E-19-3.46768E-18
 -1      1154 9.47029E-05-2.84092E-05-2.84074E-05 1.18115E-09-1.19227E-19-3.84271E-18
 -1      1155 9.48239E-05-2.84460E-05-2.84447E-05-9.49094E-11-1.52630E-19-5.30788E-18
 -1      1156 9.49168E-05-2.84745E-05-2.84735E-05-1.05755E-09 5.29598E-20-5.26804E-18
 -1      1157 9.49934E-05-2.84981E-05-2.84975E-05-1.75430E-09-6.17946E-20-4.23585E-18
 -1      1158 9.50662E-05-2.85207E-05-2.85204E-05-2.20031E-09-7.93373E-20-3.86444E-18
 -1      1159 9.51489E-05-2.85464E-05-2.85465E-05-2.37481E-09 2.30924E-20-3.26547E-18
 -1      1160 9.52574E-05-2.85799E-05-2.85806E-05-2.21607E-09-8.77856E-20-3.43226E-18
 -1      1161 9.54102E-05-2.86269E-05-2.86283E-05-1.61430E-09 1.95143E-19-2.49459E-18
 -1      1162 9.56298E-05-2.86940E-05-2.86963E-05-4.02899E-10-2.10221E-19-2.22779E-18
 -1      1163 9.59428E-05-2.87894E-05-2.87930E-05 1.65172E-09 9.94668E-20-3.86205E-18
 -1      1164 9.63812E-05-2.89225E-05-2.89277E-05 4.85986E-09-7.79721E-20-4.58653E-18
 -1      1165 9.69821E-05-2.91045E-05-2.91118E-05 9.61428E-09 4.62956E-20-4.74863E-18
 -1      1166 9.77873E-05-2.93475E-05-2.93574E-05 1.63841E-08 1.97775E-19-3.50964E-18
 -1      1167 9.88406E-05-2.96646E-05-2.96776E-05 2.56814E-08-1.76061E-19-2.35507E-18
 -1      1168 1.00184E-04-3.00678E-05-3.00840E-05 3.79692E-08-1.47447E-19-4.76191E-18
 -1      1169 1.01847E-04-3.05655E-05-3.05843E-05 5.34599E-08 1.09726E-21-4.04828E-18
 -1      1170 1.03833E-04-3.11578E-05-3.11774E-05 7.17109E-08 5.85784E-20-4.44494E-18
 -1      1171 1.06094E-04-3.18291E-05-3.18452E-05 9.08949E-08-1.96316E-19-5.83755E-18
 -1      1172 1.08495E-04-3.25375E-05-3.25417E-05 1.06612E-07 2.69633E-19-4.90768E-18
 -1      1173 1.10759E-04-3.31996E-05-3.31785E-05 1.10262E-07 2.07191E-19-4.57956E-18
 -1      1174 1.12419E-04-3.36755E-05-3.36106E-05 8.75061E-08 2.77016E-19-2.68258E-18
 -1      1175 1.12780E-04-3.37584E-05-3.36316E-05 1.85588E-08 3.29976E-19-3.25188E-19
 -1      1176 1.10954E-04-3.31878E-05-3.29938E-05-1.16188E-07-1.27267E-19-5.14546E-19
 -1      1177 1.06056E-04-3.17088E-05-3.14739E-05-3.21154E-07-3.54437E-19-3.95681E-18
 -1      1178 9.76244E-05-2.91970E-05-2.89941E-05-5.61830E-07-1.40816E-19-6.41945E-18
 -1      1179 8.62183E-05-2.58321E-05-2.57703E-05-7.46732E-07-8.41772E-20-5.16891E-18
 -1      1180 7.38816E-05-2.22234E-05-2.23992E-05-7.46384E-07-3.24870E-19-2.05204E-18
 -1      1181 6.39554E-05-1.93410E-05-1.97695E-05-4.67538E-07-2.94582E-19-2.41590E-18
 -1      1182 5.99247E-05-1.81793E-05-1.87566E-05 6.11164E-08 4.64862E-19 1.40981E-18
 -1      1183 6.37330E-05-1.92962E-05-1.98006E-05 6.76901E-07 2.03950E-20 3.27188E-18
 -1      1184 7.44151E-05-2.24083E-05-2.25617E-05 1.11179E-06 2.59341E-19 4.53131E-18
 -1      1185 8.75346E-05-2.62560E-05-2.57922E-05 1.07140E-06-2.14564E-19 6.10573E-18
 -1      1186 9.48581E-05-2.85197E-05-2.80554E-05 3.97581E-08 2.86099E-19 2.93619E-18
 -1      1187 1.31060E-04-3.77398E-05-3.86613E-05 1.21743E-05-1.44419E-19 1.30884E-17
 -1      1188 9.65684E-05-2.81923E-05-3.13332E-05 8.01303E-07 9.83352E-20 1.03284E-17
 -1      1189 9.03867E-05-2.69332E-05-2.78779E-05 1.20121E-07 1.87208E-20 7.91047E-18
 -1      1190 8.83511E-05-2.65043E-05-2.66847E-05 8.99723E-09 3.89768E-20 5.95912E-18
 -1      1191 8.79494E-05-2.64137E-05-2.64200E-05-2.52905E-08-2.59453E-20 4.65450E-18
 -1      1192 8.82932E-05-2.65114E-05-2.64946E-05-3.43335E-08 2.91201E-20 3.31531E-18
 -1      1193 8.89744E-05-2.67075E-05-2.66928E-05-3.55515E-08 6.59445E-20 2.36240E-18
 -1      1194 8.97880E-05-2.69460E-05-2.69337E-05-3.38831E-08 4.85880E-20 2.22841E-18
 -1      1195 9.06219E-05-2.71927E-05-2.71813E-05-3.08876E-08 1.60920E-20 1.55972E-18
 -1      1196 9.14127E-05-2.74277E-05-2.74169E-05-2.72771E-08 9.55549E-20 8.20391E-19
 -1      1197 9.21266E-05-2.76404E-05-2.76304E-05-2.34719E-08 1.51067E-19-3.65799E-19
 -1      1198 9.27481E-05-2.78259E-05-2.78168E-05-1.97375E-08-4.29732E-20-7.84048E-19
 -1      1199 9.32737E-05-2.79829E-05-2.79748E-05-1.62359E-08 1.10110E-19-6.08990E-19
 -1      1200 9.37069E-05-2.81124E-05-2.81055E-05-1.30541E-08-1.32544E-19-7.71750E-19
 -1      1201 9.40556E-05-2.82168E-05-2.82109E-05-1.02249E-08 1.32685E-19-1.77456E-18
 -1      1202 9.43302E-05-2.82990E-05-2.82941E-05-7.74241E-09 2.21761E-20-2.11281E-18
 -1      1203 9.45419E-05-2.83625E-05-2.83585E-05-5.57321E-09 2.17552E-20-2.33949E-18
 -1      1204 9.47022E-05-2.84106E-05-2.84074E-05-3.66626E-09-9.99705E-21-1.58371E-18
 -1      1205 9.48226E-05-2.84469E-05-2.84443E-05-1.95980E-09 7.49715E-20-2.13166E-18
 -1      1206 9.49147E-05-2.84748E-05-2.84728E-05-3.86978E-10-2.25780E-20-3.16525E-18
 -1      1207 9.49902E-05-2.84978E-05-2.84964E-05 1.11984E-09 1.48983E-20-1.76530E-18
 -1      1208 9.50615E-05-2.85196E-05-2.85188E-05 2.62528E-09-4.70398E-20-1.16486E-18
 -1      1209 9.51424E-05-2.85445E-05-2.85442E-05 4.18710E-09-1.82641E-19-8.61564E-19
 -1      1210 9.52487E-05-2.85771E-05-2.85776E-05 5.85149E-09 2.19141E-19-3.85829E-18
 -1      1211 9.53993E-05-2.86232E-05-2.86247E-05 7.64629E-09 2.07724E-19-4.90366E-18
 -1      1212 9.56175E-05-2.86898E-05-2.86925E-05 9.57068E-09-1.57981E-20-2.76401E-18
 -1      1213 9.59316E-05-2.87855E-05-2.87897E-05 1.15788E-08 4.88370E-20-1.02554E-18
 -1      1214 9.63768E-05-2.89208E-05-2.89272E-05 1.35533E-08-1.70263E-19 1.25814E-21
 -1      1215 9.69961E-05-2.91085E-05-2.91178E-05 1.52627E-08-3.07847E-19 1.16575E-18
 -1      1216 9.78412E-05-2.93642E-05-2.93774E-05 1.62929E-08 1.48702E-20 9.04864E-19
 -1      1217 9.89730E-05-2.97059E-05-2.97242E-05 1.59388E-08 1.87610E-19-4.22640E-19
 -1      1218 1.00460E-04-3.01535E-05-3.01785E-05 1.30419E-08-6.99538E-20-6.01612E-19
 -1      1219 1.02372E-04-3.07278E-05-3.07610E-05 5.76338E-09-2.46784E-19 7.67504E-19
 -1      1220 1.04774E-04-3.14462E-05-3.14887E-05-8.67621E-09-2.52409E-19 7.52112E-19
 -1      1221 1.07697E-04-3.23166E-05-3.23676E-05-3.41577E-08 1.86423E-19 2.94609E-19
 -1      1222 1.11101E-04-3.33243E-05-3.33787E-05-7.53309E-08-2.00646E-19-5.93638E-19
 -1      1223 1.14805E-04-3.44121E-05-3.44553E-05-1.35895E-07 4.09717E-19-1.26539E-18
 -1      1224 1.18377E-04-3.54502E-05-3.54514E-05-2.13904E-07 2.41960E-19-2.75482E-18
 -1      1225 1.21004E-04-3.61992E-05-3.61070E-05-2.92468E-07-1.44780E-19-1.36061E-18
 -1      1226 1.21387E-04-3.62849E-05-3.60345E-05-3.27317E-07-2.30591E-19-3.17002E-19
 -1      1227 1.17823E-04-3.52239E-05-3.47724E-05-2.42535E-07 8.58018E-20-7.75406E-19
 -1      1228 1.08720E-04-3.25646E-05-3.19630E-05 3.93450E-08 3.74759E-19-8.37398E-19
 -1      1229 9.37211E-05-2.81905E-05-2.76548E-05 5.13601E-07-1.72173E-19 9.35760E-19
 -1      1230 7.50750E-05-2.27059E-05-2.25848E-05 1.00312E-06-2.25986E-19 2.62072E-18
 -1      1231 5.80333E-05-1.75918E-05-1.81529E-05 1.19503E-06 4.28096E-19 1.27606E-18
 -1      1232 4.89453E-05-1.47454E-05-1.58836E-05 8.79388E-07 5.71708E-19-4.18622E-18
 -1      1233 5.16538E-05-1.54213E-05-1.66471E-05 1.24478E-07 2.91776E-19-5.89154E-18
 -1      1234 6.50430E-05-1.93121E-05-2.00632E-05-8.17245E-07 9.16450E-20-4.61336E-18
 -1      1235 8.30324E-05-2.45536E-05-2.43996E-05-1.58113E-06 8.33600E-20-1.78809E-18
 -1      1236 9.42169E-05-2.84648E-05-2.73503E-05-2.78501E-07 2.37176E-19-3.83071E-19
 -1      1237 9.52462E-05-2.97388E-05-2.72346E-05-4.58175E-07-1.30951E-18-3.83117E-19
 -1      1238 9.91290E-05-4.16796E-05-2.38426E-05-1.73185E-06-1.85606E-18-6.40489E-19
 -1      1239 1.04989E-04-6.14730E-05-1.92152E-05-2.22123E-06-4.65656E-18-3.50844E-19
 -1      1240 1.09484E-04-7.66133E-05-1.65513E-05-1.54245E-06-2.58864E-18 6.38292E-19
 -1      1241 1.08114E-04-7.23833E-05-1.95312E-05 1.28431E-06 5.88688E-19 3.42572E-19
 -1      1242 9.78669E-05-3.96288E-05-2.88633E-05 5.69155E-06 1.08590E-18-8.03649E-19
 -1      1243 8.03763E-05 1.61813E-05-4.16877E-05 9.06889E-06-2.72914E-18 5.20264E-19
 -1      1244 6.14440E-05 7.94350E-05-5.45855E-05 9.04655E-06-4.45539E-19 3.73965E-19
 -1      1245 4.73908E-05 1.29490E-04-6.41954E-05 4.08755E-06-3.24371E-18 5.50571E-21
 -1      1246 4.70463E-05 1.33021E-04-6.49594E-05-5.22923E-06-1.59030E-18 9.71547E-19
 -1      1247 6.26165E-05 8.17453E-05-5.55246E-05-1.05517E-05 1.07827E-18-1.76808E-18
 -1      1248 8.30037E-05 1.09710E-05-4.08293E-05-9.04945E-06-5.57517E-18-4.48160E-19
 -1      1249 1.00275E-04-4.86567E-05-2.64503E-05-4.30759E-06-3.93955E-18 1.01692E-18
 -1      1250 1.10702E-04-8.15249E-05-1.65227E-05-5.97784E-07-2.56651E-19-5.34478E-19
 -1      1251 1.11885E-04-8.47284E-05-1.36984E-05 1.54274E-06-4.45391E-18-2.92782E-19
 -1      1252 1.07756E-04-7.07591E-05-1.63658E-05 1.85193E-06-9.41752E-18-1.16482E-18
 -1      1253 1.02429E-04-5.23492E-05-2.10463E-05 1.83139E-06-1.16035E-17 3.31883E-19
 -1      1254 9.79879E-05-3.70253E-05-2.52185E-05 1.30210E-06-7.45707E-18 5.22791E-19
 -1      1255 9.51527E-05-2.91179E-05-2.79270E-05 3.15219E-07-3.07317E-18 1.53022E-19
 -1      1256 5.48349E-05-1.65477E-04 2.02730E-05-1.97854E-05 5.53282E-18 5.81329E-19
 -1      1257 2.55706E-05-7.94342E-05 5.66589E-06-2.30018E-05 6.39340E-18 2.17857E-18
 -1      1258 1.66526E-05 1.48468E-05-1.84911E-05 3.01837E-05 4.75524E-18 3.44234E-18
 -1      1259 6.54493E-05 5.28404E-05-4.52145E-05 1.09570E-04 4.29107E-18 4.60617E-18
 -1      1260 1.71031E-04 2.10803E-05-7.01744E-05 1.62888E-04 1.66527E-18 1.44334E-18
 -1      1261 2.88391E-04-4.58475E-05-8.78417E-05 1.53681E-04-1.02152E-18-9.67312E-19
 -1      1262 3.65876E-04-9.98867E-05-9.62489E-05 8.51675E-05 5.21984E-19-4.95514E-19
 -1      1263 3.75102E-04-1.12895E-04-9.51390E-05-1.13033E-05 4.91650E-19-2.47249E-18
 -1      1264 3.08345E-04-7.80496E-05-8.45763E-05-9.22553E-05 8.05105E-19-3.57448E-19
 -1      1265 1.96523E-04-2.11293E-05-6.63059E-05-1.21039E-04 2.62496E-18-4.31309E-18
 -1      1266 8.17348E-05 1.84283E-05-4.10178E-05-8.51375E-05 7.99769E-18-9.51218E-18
 -1      1267 1.65279E-05 7.98887E-06-1.51860E-05-2.05210E-05 1.13757E-17-1.00424E-17
 -1      1268 9.66884E-06-4.47400E-05 5.04718E-06 2.53451E-05 7.35563E-18-4.42829E-18
 -1      1269 2.90265E-05-1.05409E-04 1.92278E-05 3.32088E-05-2.83502E-18-2.44157E-19
 -1      1270 4.41352E-05-1.37881E-04 2.54381E-05 6.98839E-06-6.60093E-18 2.03447E-19
 -1      1271 3.66510E-05-1.20661E-04 2.20430E-05-2.60802E-05-6.98633E-18-1.15991E-18
 -1      1272 1.46256E-05-6.29865E-05 9.91838E-06-2.95135E-05-8.52115E-19 4.27752E-19
 -1      1273 9.78210E-06-3.66593E-06-8.82945E-06 5.23024E-06 1.48570E-18 6.67462E-19
 -1      1274 5.10823E-05 2.42105E-05-3.24387E-05 6.69158E-05 2.67662E-18 2.24803E-18
 -1      1275 1.46238E-04 1.12951E-06-5.70034E-05 1.15661E-04 2.22939E-18 4.16571E-18
 -1      1276 2.60386E-04-5.32505E-05-7.72548E-05 1.10863E-04 7.15743E-20-3.25261E-19
 -1      1277 3.49813E-04-1.02287E-04-9.09775E-05 4.82963E-05-7.00390E-20-3.73880E-18
 -1      1278 3.73071E-04-1.09649E-04-9.60338E-05-4.86473E-05 1.29384E-19-4.03865E-18
 -1      1279 3.18864E-04-6.69977E-05-9.15629E-05-1.32476E-04 2.85662E-19-9.52912E-19
 -1      1280 2.20926E-04-3.49980E-06-7.87517E-05-1.69563E-04 3.71085E-18-5.56670E-18
 -1      1281 1.13182E-04 4.71183E-05-5.90076E-05-1.45133E-04 5.94109E-18-6.55095E-18
 -1      1282 3.66751E-05 5.03851E-05-3.49948E-05-8.02186E-05 8.02310E-18-6.16132E-18
 -1      1283 1.32418E-05-6.38715E-06-1.09353E-05-9.86132E-06 9.89334E-19-9.38513E-19
 -1      1284 2.90262E-05-9.62873E-05 8.92335E-06 3.06584E-05-1.76860E-18 7.31836E-19
 -1      1285 5.53303E-05-1.67172E-04 2.04569E-05 1.64528E-05-3.77523E-18 1.16382E-18
 -1      1286 1.04450E-04-2.20212E-05-3.78943E-05-1.72734E-05-3.52789E-19 5.90318E-18
 -1      1287 9.03246E-05-6.68226E-06-3.60187E-05-2.04678E-05-9.95581E-19-4.14940E-19
 -1      1288 9.26620E-05-6.74129E-06-3.72240E-05-2.57564E-05-1.26144E-18 1.01565E-18
 -1      1289 8.59074E-05-4.09727E-06-3.51308E-05-1.64287E-05-9.15007E-19-2.44030E-18
 -1      1290 8.71604E-05-4.09002E-06-3.56005E-05-1.88496E-05-1.08039E-18-1.56203E-18
 -1      1291 9.21388E-05-1.04644E-05-3.50949E-05-1.90313E-05-1.70592E-18-3.57342E-19
 -1      1292 8.40958E-05-3.19007E-06-3.46868E-05-1.28118E-05-7.35780E-19-3.44551E-18
 -1      1293 8.47090E-05-3.16071E-06-3.49117E-05-1.46264E-05-8.46292E-19-2.99069E-18
 -1      1294 8.78685E-05-7.39536E-06-3.45743E-05-1.54071E-05-1.44528E-18-2.02301E-18
 -1      1295 8.31828E-05-2.72702E-06-3.44695E-05-9.68289E-06-5.25968E-19-3.91247E-18
 -1      1296 8.34969E-05-2.70863E-06-3.45791E-05-1.12299E-05-6.21140E-19-3.69821E-18
 -1      1297 8.58656E-05-5.98143E-06-3.43051E-05-1.19510E-05-1.11206E-18-2.88724E-18
 -1      1298 8.26895E-05-2.45663E-06-3.43622E-05-6.91167E-06-3.45017E-19-4.08115E-18
 -1      1299 8.28599E-05-2.44828E-06-3.44171E-05-8.28241E-06-4.05080E-19-3.99761E-18
 -1      1300 8.48178E-05-5.21575E-06-3.41719E-05-8.94122E-06-7.84386E-19-3.24265E-18
 -1      1301 8.24121E-05-2.29058E-06-3.43089E-05-4.29251E-06-1.77076E-19-4.13500E-18
 -1      1302 8.25041E-05-2.28670E-06-3.43363E-05-5.59320E-06-2.23789E-19-4.12813E-18
 -1      1303 8.42297E-05-4.75984E-06-3.41078E-05-6.21353E-06-4.75530E-19-3.46860E-18
 -1      1304 8.22786E-05-2.20094E-06-3.42862E-05-1.78892E-06-1.53901E-20-4.11007E-18
 -1      1305 8.23179E-05-2.19939E-06-3.42974E-05-3.03932E-06-5.58314E-20-4.11417E-18
 -1      1306 8.39051E-05-4.49539E-06-3.40784E-05-3.64272E-06-2.14620E-19-3.45222E-18
 -1      1307 8.22523E-05-2.17340E-06-3.42834E-05 6.69508E-07 1.66273E-19-4.05970E-18
 -1      1308 8.22509E-05-2.17344E-06-3.42831E-05-5.65714E-07 8.48935E-20-4.07944E-18
 -1      1309 8.37628E-05-4.37554E-06-3.40672E-05-1.16991E-06 5.39196E-20-3.47969E-18
 -1      1310 8.23266E-05-2.20373E-06-3.42989E-05 3.14679E-06 3.11331E-19-4.01146E-18
 -1      1311 8.22843E-05-2.20536E-06-3.42870E-05 1.89377E-06 2.63256E-19-4.04014E-18
 -1      1312 8.37678E-05-4.37979E-06-3.40676E-05 1.27310E-06 3.43620E-19-3.44746E-18
 -1      1313 8.25211E-05-2.29694E-06-3.43390E-05 5.70993E-06 4.69240E-19-3.90705E-18
 -1      1314 8.24258E-05-2.30029E-06-3.43108E-05 4.40330E-06 4.13293E-19-3.98239E-18
 -1      1315 8.39206E-05-4.50895E-06-3.40795E-05 3.75030E-06 6.30328E-19-3.36756E-18
 -1      1316 8.28826E-05-2.46293E-06-3.44199E-05 8.39073E-06 6.23873E-19-3.63409E-18
 -1      1317 8.27088E-05-2.47159E-06-3.43646E-05 7.01138E-06 5.47633E-19-3.79859E-18
 -1      1318 8.42548E-05-4.78246E-06-3.41091E-05 6.30774E-06 8.49938E-19-3.21277E-18
 -1      1319 8.35431E-05-2.74064E-06-3.45842E-05 1.13904E-05 8.59408E-19-3.14730E-18
 -1      1320 8.32206E-05-2.75770E-06-3.44730E-05 9.82564E-06 7.61205E-19-3.43481E-18
 -1      1321 8.48598E-05-5.25625E-06-3.41729E-05 9.04994E-06 1.12752E-18-2.88859E-18
 -1      1322 8.47668E-05-3.20336E-06-3.49197E-05 1.48390E-05 1.05043E-18-2.27791E-18
 -1      1323 8.41532E-05-3.24005E-06-3.46926E-05 1.29987E-05 9.67312E-19-2.82153E-18
 -1      1324 8.59458E-05-6.06221E-06-3.43065E-05 1.21179E-05 1.49986E-18-2.37879E-18
 -1      1325 8.72598E-05-4.09110E-06-3.56222E-05 1.90869E-05 1.22942E-18-5.93452E-19
 -1      1326 8.59754E-05-4.15488E-06-3.51386E-05 1.66885E-05 1.07052E-18-1.60105E-18
 -1      1327 8.79939E-05-7.51766E-06-3.45767E-05 1.56457E-05 1.72559E-18-1.34620E-18
 -1      1328 9.34749E-05-6.79395E-06-3.71195E-05 2.50932E-05 1.10061E-18 2.54549E-18
 -1      1329 9.01404E-05-6.43931E-06-3.60415E-05 2.11451E-05 1.05392E-18 6.37498E-19
 -1      1330 9.23689E-05-1.06999E-05-3.50803E-05 1.96722E-05 1.83224E-18 5.14308E-19
 -1      1331 1.23635E-04-2.49258E-05-3.90178E-05 2.83651E-05 5.83817E-19 8.51819E-18
 -1      1332 1.00091E-04-1.44263E-05-3.73572E-05 2.40479E-05 5.98535E-19 4.34486E-18
 -1      1333 1.01690E-04-1.93454E-05-3.54054E-05 2.13951E-05 1.78352E-18 3.38114E-18
 -1      1334 1.02616E-04-2.78087E-05-3.47611E-05 7.32719E-06 9.92776E-19 8.14337E-18
 -1      1335 1.05160E-04-3.02343E-05-3.35289E-05-7.95751E-06-1.01655E-18 6.25047E-18
 -1      1336 9.82748E-05-2.78474E-05-3.07662E-05-4.98666E-06-9.63871E-19 5.08940E-18
 -1      1337 9.55180E-05-2.78538E-05-2.92590E-05-2.48808E-06-8.18525E-19 4.57229E-18
 -1      1338 9.32873E-05-2.75633E-05-2.82202E-05-2.04148E-06-7.93379E-19 3.37151E-18
 -1      1339 9.94982E-05-2.80563E-05-3.09867E-05-7.88358E-06-1.70407E-18 2.49758E-18
 -1      1340 9.15987E-05-2.72055E-05-2.75864E-05-8.36439E-07-6.05185E-19 2.94018E-18
 -1      1341 9.08840E-05-2.71107E-05-2.72847E-05-7.26038E-07-5.62853E-19 2.10636E-18
 -1      1342 9.47337E-05-2.77745E-05-2.88212E-05-3.11737E-06-1.37550E-18 1.77017E-18
 -1      1343 9.01356E-05-2.69286E-05-2.70419E-05-1.71518E-07-3.90542E-19 1.66765E-18
 -1      1344 9.00653E-05-2.69561E-05-2.70077E-05-1.13454E-07-3.55741E-19 1.15486E-18
 -1      1345 9.25371E-05-2.75047E-05-2.79012E-05-1.04897E-06-9.38367E-19 1.04528E-18
 -1      1346 8.98076E-05-2.68892E-05-2.69340E-05 1.56756E-07-2.91010E-19 9.34701E-19
 -1      1347 9.00245E-05-2.69800E-05-2.69963E-05 1.85422E-07-2.92208E-19 6.23707E-19
 -1      1348 9.15821E-05-2.73624E-05-2.75352E-05-6.54353E-08-6.59495E-19 4.49999E-19
 -1      1349 9.00301E-05-2.69836E-05-2.70034E-05 3.16543E-07-3.19088E-19 4.62162E-19
 -1      1350 9.03747E-05-2.71039E-05-2.71032E-05 3.28296E-07-3.22613E-19 8.40085E-20
 -1      1351 9.13324E-05-2.73513E-05-2.74283E-05 4.21797E-07-5.29106E-19 1.13962E-19
 -1      1352 9.05185E-05-2.71462E-05-2.71509E-05 3.82897E-07-2.99168E-19-1.65469E-19
 -1      1353 9.09086E-05-2.72752E-05-2.72636E-05 3.84595E-07-2.17075E-19-5.76750E-19
 -1      1354 9.14686E-05-2.74260E-05-2.74515E-05 6.50135E-07-5.15338E-19-3.19585E-19
 -1      1355 9.11184E-05-2.73360E-05-2.73306E-05 3.95092E-07-2.56648E-19-6.36429E-19
 -1      1356 9.15080E-05-2.74614E-05-2.74434E-05 3.90880E-07-3.71363E-19-1.07897E-18
 -1      1357 9.18047E-05-2.75460E-05-2.75414E-05 7.32539E-07-4.80666E-19-7.67739E-19
 -1      1358 9.17408E-05-2.75286E-05-2.75169E-05 3.76052E-07-2.74066E-19-1.14029E-18
 -1      1359 9.21044E-05-2.76436E-05-2.76226E-05 3.68598E-07-2.95015E-19-1.55303E-18
 -1      1360 9.22296E-05-2.76841E-05-2.76624E-05 7.30476E-07-5.55494E-19-1.04118E-18
 -1      1361 9.23348E-05-2.77099E-05-2.76950E-05 3.40063E-07-1.87632E-19-1.47229E-18
 -1      1362 9.26592E-05-2.78113E-05-2.77897E-05 3.31114E-07-1.70538E-20-1.68026E-18
 -1      1363 9.26765E-05-2.78235E-05-2.77929E-05 6.80647E-07-4.03085E-19-9.88479E-19
 -1      1364 9.28727E-05-2.78725E-05-2.78565E-05 2.96267E-07 2.21734E-19-1.89618E-18
 -1      1365 9.31523E-05-2.79591E-05-2.79384E-05 2.86953E-07 6.61589E-20-1.85173E-18
 -1      1366 9.31060E-05-2.79543E-05-2.79202E-05 6.06096E-07 6.88715E-20-1.35879E-18
 -1      1367 9.33415E-05-2.80133E-05-2.79975E-05 2.50505E-07-2.38263E-20-1.63303E-18
 -1      1368 9.35760E-05-2.80853E-05-2.80664E-05 2.41538E-07 9.63758E-20-1.65387E-18
 -1      1369 9.34965E-05-2.80712E-05-2.80371E-05 5.21546E-07 2.28751E-19-1.45234E-18
 -1      1370 9.37380E-05-2.81317E-05-2.81170E-05 2.06424E-07 1.77287E-19-1.56579E-18
 -1      1371 9.39298E-05-2.81902E-05-2.81735E-05 1.98225E-07-8.33140E-20-1.37184E-18
 -1      1372 9.38376E-05-2.81720E-05-2.81401E-05 4.36321E-07 1.73198E-19-1.44417E-18
 -1      1373 9.40648E-05-2.82287E-05-2.82156E-05 1.66190E-07-1.33703E-19-1.27557E-18
 -1      1374 9.42182E-05-2.82751E-05-2.82609E-05 1.58986E-07-1.83045E-19-1.54324E-18
 -1      1375 9.41264E-05-2.82565E-05-2.82278E-05 3.56149E-07-1.22719E-19-1.22083E-18
 -1      1376 9.43282E-05-2.83065E-05-2.82952E-05 1.30990E-07-4.82104E-19-1.56944E-18
 -1      1377 9.44482E-05-2.83425E-05-2.83308E-05 1.24882E-07-5.05210E-19-2.12439E-18
 -1      1378 9.43650E-05-2.83255E-05-2.83007E-05 2.84359E-07-5.29283E-19-1.21711E-18
 -1      1379 9.45363E-05-2.83676E-05-2.83582E-05 1.01397E-07-3.76833E-19-2.29544E-18
 -1      1380 9.46285E-05-2.83950E-05-2.83856E-05 9.64160E-08-2.04754E-19-2.77831E-18
 -1      1381 9.45581E-05-2.83807E-05-2.83601E-05 2.22729E-07-6.82624E-19-1.06935E-18
 -1      1382 9.46983E-05-2.84148E-05-2.84074E-05 7.76443E-08-1.99673E-19-2.70962E-18
 -1      1383 9.47683E-05-2.84354E-05-2.84283E-05 7.37885E-08-6.44899E-19-3.03263E-18
 -1      1384 9.47122E-05-2.84242E-05-2.84078E-05 1.72111E-07-4.39241E-19-1.48755E-18
 -1      1385 9.48240E-05-2.84511E-05-2.84456E-05 5.98295E-08-6.09187E-19-3.16205E-18
 -1      1386 9.48775E-05-2.84665E-05-2.84617E-05 5.70975E-08-1.96234E-19-3.72053E-18
 -1      1387 9.48348E-05-2.84583E-05-2.84461E-05 1.32897E-07-8.56453E-19-1.61699E-18
 -1      1388 9.49233E-05-2.84794E-05-2.84760E-05 4.80767E-08 4.74635E-20-3.71897E-18
 -1      1389 9.49661E-05-2.84915E-05-2.84889E-05 4.64911E-08-2.18095E-19-3.65134E-18
 -1      1390 9.49341E-05-2.84854E-05-2.84774E-05 1.05383E-07-3.00730E-19-2.08218E-18
 -1      1391 9.50068E-05-2.85029E-05-2.85016E-05 4.26604E-08 8.67623E-20-3.65082E-18
 -1      1392 9.50448E-05-2.85134E-05-2.85132E-05 4.22871E-08-5.39742E-20-3.46365E-18
 -1      1393 9.50190E-05-2.85081E-05-2.85044E-05 9.00375E-08-2.27177E-19-2.45372E-18
 -1      1394 9.50855E-05-2.85248E-05-2.85258E-05 4.41025E-08 3.33419E-20-3.22461E-18
 -1      1395 9.51251E-05-2.85357E-05-2.85380E-05 4.50667E-08 3.44692E-19-2.89443E-18
 -1      1396 9.50990E-05-2.85291E-05-2.85302E-05 8.77235E-08 1.13154E-19-2.84158E-18
 -1      1397 9.51716E-05-2.85487E-05-2.85524E-05 5.32500E-08 3.12983E-19-2.58704E-18
 -1      1398 9.52202E-05-2.85621E-05-2.85672E-05 5.57481E-08 2.16419E-20-2.56474E-18
 -1      1399 9.51846E-05-2.85513E-05-2.85578E-05 9.98636E-08 3.29781E-19-1.85565E-18
 -1      1400 9.52789E-05-2.85785E-05-2.85855E-05 7.13295E-08 1.31357E-19-2.42343E-18
 -1      1401 9.53450E-05-2.85971E-05-2.86056E-05 7.56383E-08 4.54265E-19-2.31461E-18
 -1      1402 9.52879E-05-2.85783E-05-2.85910E-05 1.28566E-07 2.65461E-19-1.87278E-18
 -1      1403 9.54236E-05-2.86191E-05-2.86300E-05 9.99779E-08 5.43979E-19-1.90877E-18
 -1      1404 9.55172E-05-2.86458E-05-2.86583E-05 1.06458E-07 3.66602E-19-1.09256E-18
 -1      1405 9.54225E-05-2.86140E-05-2.86341E-05 1.76704E-07 7.13150E-19-9.93924E-19
 -1      1406 9.56245E-05-2.86760E-05-2.86917E-05 1.41235E-07-3.91024E-19-1.12380E-18
 -1      1407 9.57578E-05-2.87144E-05-2.87318E-05 1.50328E-07-6.40967E-19-1.72414E-18
 -1      1408 9.56047E-05-2.86630E-05-2.86919E-05 2.47922E-07-3.27187E-20-5.65332E-19
 -1      1409 9.59044E-05-2.87559E-05-2.87774E-05 1.97477E-07-3.89089E-19-2.16517E-18
 -1      1410 9.60917E-05-2.88105E-05-2.88336E-05 2.09686E-07-2.69641E-19-2.78138E-18
 -1      1411 9.58533E-05-2.87308E-05-2.87703E-05 3.46554E-07-9.37515E-19-1.86927E-19
 -1      1412 9.62897E-05-2.88666E-05-2.88952E-05 2.71249E-07-3.19028E-19-3.24119E-18
 -1      1413 9.65478E-05-2.89426E-05-2.89723E-05 2.87102E-07-3.82716E-19-3.27023E-18
 -1      1414 9.61904E-05-2.88239E-05-2.88760E-05 4.77369E-07-5.21271E-19-1.58215E-18
 -1      1415 9.68106E-05-2.90173E-05-2.90540E-05 3.64947E-07 2.43578E-19-3.28500E-18
 -1      1416 9.71588E-05-2.91207E-05-2.91577E-05 3.84918E-07 4.92507E-19-3.17718E-18
 -1      1417 9.66410E-05-2.89499E-05-2.90163E-05 6.45054E-07 1.23529E-19-2.27010E-18
 -1      1418 9.75009E-05-2.92183E-05-2.92641E-05 4.80232E-07 2.58752E-19-2.80308E-18
 -1      1419 9.79599E-05-2.93558E-05-2.94005E-05 5.04603E-07 5.56807E-19-1.88574E-18
 -1      1420 9.72324E-05-2.91173E-05-2.91993E-05 8.53284E-07 6.56138E-19-1.27509E-18
 -1      1421 9.83956E-05-2.94806E-05-2.95358E-05 6.17051E-07-6.28790E-20-1.50324E-18
 -1      1422 9.89860E-05-2.96589E-05-2.97106E-05 6.45687E-07-6.62853E-19-2.18228E-18
 -1      1423 9.79930E-05-2.93354E-05-2.94330E-05 1.10312E-06 5.25110E-19-1.76679E-18
 -1      1424 9.95273E-05-2.98149E-05-2.98785E-05 7.72051E-07-5.83968E-19-2.49073E-18
 -1      1425 1.00266E-04-3.00402E-05-3.00966E-05 8.04011E-07-1.83808E-20-2.91084E-18
 -1      1426 9.89488E-05-2.96135E-05-2.97245E-05 1.39041E-06-1.00639E-18-9.13060E-19
 -1      1427 1.00919E-04-3.02300E-05-3.02985E-05 9.36098E-07 6.72729E-20-2.86433E-18
 -1      1428 1.01814E-04-3.05058E-05-3.05616E-05 9.69043E-07-4.66137E-19-2.92829E-18
 -1      1429 1.00119E-04-2.99601E-05-3.00780E-05 1.70169E-06-4.59190E-19-1.35273E-18
 -1      1430 1.02574E-04-3.07294E-05-3.07953E-05 1.09062E-06-2.91533E-19-3.17361E-18
 -1      1431 1.03613E-04-3.10541E-05-3.10993E-05 1.11992E-06-3.92883E-19-3.91363E-18
 -1      1432 1.01506E-04-3.03809E-05-3.04918E-05 2.00813E-06-5.19047E-19-2.21304E-18
 -1      1433 1.04456E-04-3.13068E-05-3.13560E-05 1.20262E-06 7.12906E-20-3.45077E-18
 -1      1434 1.05593E-04-3.16691E-05-3.16864E-05 1.22014E-06 3.70958E-19-3.55927E-18
 -1      1435 1.03085E-04-3.08753E-05-3.09547E-05 2.25702E-06-3.40534E-20-2.20034E-18
 -1      1436 1.06466E-04-3.19387E-05-3.19474E-05 1.21884E-06 2.01096E-20-3.15399E-18
 -1      1437 1.07600E-04-3.23109E-05-3.22731E-05 1.21153E-06 3.63854E-19-2.90205E-18
 -1      1438 1.04786E-04-3.14323E-05-3.14397E-05 2.36140E-06 2.86442E-19-5.77812E-19
 -1      1439 1.08405E-04-3.25734E-05-3.25054E-05 1.06103E-06 6.88803E-19-2.89450E-18
 -1      1440 1.09357E-04-3.29028E-05-3.27723E-05 1.00992E-06 5.72909E-19-2.32205E-18
 -1      1441 1.06465E-04-3.20218E-05-3.18975E-05 2.19038E-06 5.44735E-19-1.61165E-18
 -1      1442 1.09940E-04-3.31179E-05-3.29251E-05 6.27548E-07 6.50591E-19-2.14425E-18
 -1      1443 1.10429E-04-3.33180E-05-3.30506E-05 5.08780E-07 6.88595E-19-1.79815E-18
 -1      1444 1.07887E-04-3.25842E-05-3.22503E-05 1.56746E-06 8.12781E-19-1.20217E-18
 -1      1445 1.10575E-04-3.34239E-05-3.30556E-05-1.88553E-07 3.61174E-19-1.60522E-18
 -1      1446 1.10221E-04-3.33699E-05-3.29310E-05-3.97833E-07 4.53394E-19-8.55252E-19
 -1      1447 1.08696E-04-3.30145E-05-3.23902E-05 2.92322E-07 5.77372E-19-1.13804E-18
 -1      1448 1.09668E-04-3.32820E-05-3.27113E-05-1.45066E-06-4.37162E-19-1.58938E-18
 -1      1449 1.08045E-04-3.28224E-05-3.22204E-05-1.75736E-06-1.61270E-18-2.53477E-18
 -1      1450 1.08421E-04-3.31463E-05-3.21886E-05-1.79032E-06-2.61998E-19-1.94622E-18
 -1      1451 1.06538E-04-3.24418E-05-3.17123E-05-3.08957E-06-1.26929E-18-2.20729E-18
 -1      1452 1.03321E-04-3.14414E-05-3.07756E-05-3.45981E-06-6.59488E-19-3.68915E-18
 -1      1453 1.06537E-04-3.27504E-05-3.15253E-05-4.65262E-06-1.65692E-18-1.66453E-18
 -1      1454 1.00729E-04-3.06870E-05-2.99653E-05-4.79513E-06-2.38427E-20-4.36857E-18
 -1      1455 9.59330E-05-2.91128E-05-2.86062E-05-5.12925E-06-1.17791E-19-4.73116E-18
 -1      1456 1.02620E-04-3.15762E-05-3.03407E-05-7.89090E-06-1.09460E-18-1.80540E-18
 -1      1457 9.24103E-05-2.79860E-05-2.75704E-05-5.96890E-06 9.16652E-19-3.98672E-18
 -1      1458 8.66531E-05-2.60160E-05-2.59770E-05-6.10474E-06 1.13640E-18-2.56704E-18
 -1      1459 9.66290E-05-2.94766E-05-2.87007E-05-1.05831E-05 9.57544E-19-2.45411E-18
 -1      1460 8.27828E-05-2.46837E-05-2.49014E-05-5.87151E-06 4.73478E-20-1.33657E-18
 -1      1461 7.73622E-05-2.27650E-05-2.34321E-05-5.65179E-06 2.50351E-19-1.42815E-18
 -1      1462 8.92483E-05-2.66142E-05-2.68412E-05-1.14107E-05 1.60048E-18-1.16675E-18
 -1      1463 7.41243E-05-2.15837E-05-2.25780E-05-4.02603E-06 2.48591E-19-9.50900E-19
 -1      1464 7.06995E-05-2.03343E-05-2.16678E-05-3.41630E-06 4.67456E-19-4.52951E-19
 -1      1465 8.20392E-05-2.36163E-05-2.51468E-05-9.23505E-06 1.24400E-18-1.12906E-18
 -1      1466 6.91295E-05-1.97265E-05-2.12811E-05-6.73076E-07 1.31446E-18 3.75116E-19
 -1      1467 6.90220E-05-1.96645E-05-2.12619E-05 1.62783E-07 1.63301E-18 2.54338E-18
 -1      1468 7.70826E-05-2.14596E-05-2.40406E-05-3.95578E-06 1.95013E-18 2.00374E-18
 -1      1469 6.96652E-05-1.98766E-05-2.14559E-05 3.12932E-06 2.33794E-19 2.73700E-18
 -1      1470 7.31282E-05-2.11397E-05-2.23668E-05 3.88534E-06 1.13701E-19 2.78700E-18
 -1      1471 7.60490E-05-2.10030E-05-2.38119E-05 2.99922E-06 1.66871E-18 1.78644E-18
 -1      1472 7.57071E-05-2.21307E-05-2.30294E-05 5.85707E-06 1.42189E-18 3.05631E-18
 -1      1473 8.14947E-05-2.43427E-05-2.45029E-05 6.17907E-06 7.51762E-19 4.39589E-18
 -1      1474 7.92727E-05-2.25749E-05-2.44427E-05 9.03890E-06 9.77013E-19 2.54430E-18
 -1      1475 8.49285E-05-2.57395E-05-2.53013E-05 5.89550E-06-3.61185E-19 4.63878E-18
 -1      1476 9.04645E-05-2.79985E-05-2.66311E-05 5.67142E-06-1.02744E-18 4.45497E-18
 -1      1477 8.55168E-05-2.59483E-05-2.55337E-05 1.12600E-05 5.41896E-19 2.40126E-18
 -1      1478 9.43692E-05-2.96862E-05-2.72705E-05 1.27288E-06-3.12423E-18 3.35594E-18
 -1      1479 9.34928E-05-3.10114E-05-2.65804E-05 6.30855E-06-3.40092E-18 2.38485E-18
 -1      1480 9.65919E-05-2.83681E-05-2.97768E-05 2.99417E-06 7.84750E-19 6.38255E-18
 -1      1481 1.02549E-04-2.94023E-05-3.21596E-05 4.46119E-06 7.08384E-19 7.65527E-18
 -1      1482 1.02338E-04-2.67220E-05-3.27094E-05 1.27801E-05 1.43757E-18 4.88240E-18
 -1      1483 9.20484E-05-2.74346E-05-2.77671E-05 1.15042E-06 5.81250E-19 4.78894E-18
 -1      1484 9.39934E-05-2.75892E-05-2.86807E-05 1.47241E-06 5.56209E-19 5.75166E-18
 -1      1485 9.65015E-05-2.80347E-05-2.95382E-05 4.86474E-06 1.20641E-18 3.65240E-18
 -1      1486 9.02189E-05-2.70107E-05-2.70692E-05 3.30037E-07 3.96762E-19 3.63007E-18
 -1      1487 9.08321E-05-2.70277E-05-2.73413E-05 4.92993E-07 4.33893E-19 4.32281E-18
 -1      1488 9.30594E-05-2.75839E-05-2.81039E-05 1.84868E-06 9.35442E-19 2.69746E-18
 -1      1489 8.97050E-05-2.68936E-05-2.68945E-05-5.70422E-08 4.04862E-19 2.71031E-18
 -1      1490 8.97404E-05-2.68306E-05-2.69221E-05 3.21826E-08 3.21494E-19 3.24220E-18
 -1      1491 9.15090E-05-2.73136E-05-2.75211E-05 5.14368E-07 7.38831E-19 1.85918E-18
 -1      1492 8.98407E-05-2.69471E-05-2.69375E-05-2.44542E-07 3.10744E-19 1.78150E-18
 -1      1493 8.96100E-05-2.68389E-05-2.68717E-05-1.94180E-07 3.27699E-19 2.33861E-18
 -1      1494 9.09803E-05-2.72335E-05-2.73258E-05-1.35883E-07 6.97945E-19 1.32633E-18
 -1      1495 9.02972E-05-2.70907E-05-2.70769E-05-3.27879E-07 3.36749E-19 1.28962E-18
 -1      1496 8.99480E-05-2.69627E-05-2.69747E-05-3.00087E-07 1.64789E-19 1.56016E-18
 -1      1497 9.10010E-05-2.72775E-05-2.73159E-05-4.54993E-07 3.89240E-19 8.59848E-19
 -1      1498 9.08954E-05-2.72741E-05-2.72574E-05-3.52457E-07 1.52405E-19 9.25357E-19
 -1      1499 9.05054E-05-2.71430E-05-2.71432E-05-3.38649E-07 1.88118E-19 1.17022E-18
 -1      1500 9.13085E-05-2.73904E-05-2.73984E-05-5.95407E-07 3.56197E-19 4.94363E-19
 -1      1501 9.15324E-05-2.74674E-05-2.74492E-05-3.43215E-07 1.58884E-19 4.32357E-19
 -1      1502 9.11454E-05-2.73430E-05-2.73356E-05-3.38203E-07 1.66817E-19 6.38034E-19
 -1      1503 9.17520E-05-2.75351E-05-2.75251E-05-6.33840E-07 3.52210E-19-4.12350E-20
 -1      1504 9.21490E-05-2.76534E-05-2.76350E-05-3.15189E-07 2.69588E-19-2.37374E-19
 -1      1505 9.17892E-05-2.75410E-05-2.75291E-05-3.15624E-07 2.58402E-19 2.87667E-19
 -1      1506 9.22420E-05-2.76883E-05-2.76682E-05-6.13564E-07 4.14005E-19-4.60181E-19
 -1      1507 9.27125E-05-2.78225E-05-2.78050E-05-2.77854E-07 1.61856E-19-5.91158E-19
 -1      1508 9.23924E-05-2.77247E-05-2.77105E-05-2.81510E-07 2.06783E-19-2.69337E-19
 -1      1509 9.27257E-05-2.78361E-05-2.78113E-05-5.60917E-07 4.17017E-19-8.59189E-19
 -1      1510 9.32071E-05-2.79704E-05-2.79545E-05-2.37257E-07 4.48745E-21-4.67468E-19
 -1      1511 9.29317E-05-2.78877E-05-2.78730E-05-2.42642E-07 5.96563E-20-5.30674E-19
 -1      1512 9.31732E-05-2.79708E-05-2.79446E-05-4.92552E-07 5.97423E-20-3.27078E-19
 -1      1513 9.36277E-05-2.80958E-05-2.80818E-05-1.97205E-07 2.51896E-19-7.44034E-19
 -1      1514 9.33972E-05-2.80276E-05-2.80134E-05-2.03322E-07 1.69993E-19-6.62180E-19
 -1      1515 9.35694E-05-2.80888E-05-2.80634E-05-4.19086E-07 3.40829E-19-5.62882E-19
 -1      1516 9.39759E-05-2.81993E-05-2.81873E-05-1.59995E-07 7.23551E-20-1.03555E-18
 -1      1517 9.37878E-05-2.81444E-05-2.81314E-05-1.66191E-07 2.81854E-19-8.84204E-19
 -1      1518 9.39084E-05-2.81889E-05-2.81655E-05-3.47179E-07 4.74388E-19-7.22979E-19
 -1      1519 9.42575E-05-2.82828E-05-2.82728E-05-1.26921E-07 1.66516E-19-1.65194E-18
 -1      1520 9.41074E-05-2.82395E-05-2.82281E-05-1.32783E-07 1.27039E-19-1.34886E-18
 -1      1521 9.41908E-05-2.82716E-05-2.82509E-05-2.80842E-07 3.67665E-19-1.33078E-18
 -1      1522 9.44804E-05-2.83486E-05-2.83406E-05-9.86255E-08-4.62652E-20-1.65934E-18
 -1      1523 9.43632E-05-2.83153E-05-2.83055E-05-1.03901E-07 6.05413E-20-1.50175E-18
 -1      1524 9.44206E-05-2.83384E-05-2.83207E-05-2.22333E-07 3.20328E-20-9.38842E-19
 -1      1525 9.46537E-05-2.83997E-05-2.83934E-05-7.53662E-08-3.15653E-19-1.62040E-18
 -1      1526 9.45639E-05-2.83745E-05-2.83664E-05-7.99029E-08-1.54727E-19-1.75377E-18
 -1      1527 9.46041E-05-2.83912E-05-2.83766E-05-1.72799E-07-1.13488E-19-1.13161E-18
 -1      1528 9.47873E-05-2.84388E-05-2.84342E-05-5.72161E-08 1.27478E-19-1.47957E-18
 -1      1529 9.47193E-05-2.84200E-05-2.84137E-05-6.09157E-08 1.25109E-19-1.40148E-18
 -1      1530 9.47491E-05-2.84325E-05-2.84211E-05-1.32753E-07-3.55688E-23-1.16275E-18
 -1      1531 9.48911E-05-2.84690E-05-2.84660E-05-4.42174E-08 2.77675E-19-2.30140E-18
 -1      1532 9.48394E-05-2.84549E-05-2.84503E-05-4.69975E-08 2.35479E-19-1.70082E-18
 -1      1533 9.48639E-05-2.84648E-05-2.84565E-05-1.02437E-07 4.18637E-19-1.66863E-18
 -1      1534 9.49756E-05-2.84934E-05-2.84920E-05-3.65033E-08-5.39158E-19-1.99068E-18
 -1      1535 9.49344E-05-2.84822E-05-2.84794E-05-3.82659E-08-2.19033E-19-2.43842E-18
 -1      1536 9.49573E-05-2.84908E-05-2.84855E-05-8.21024E-08-1.45843E-19-1.89618E-18
 -1      1537 9.50516E-05-2.85152E-05-2.85155E-05-3.43965E-08-8.53503E-20-1.44695E-18
 -1      1538 9.50151E-05-2.85050E-05-2.85042E-05-3.50001E-08-2.61816E-19-1.92232E-18
 -1      1539 9.50390E-05-2.85131E-05-2.85111E-05-7.22319E-08-3.02441E-19-1.60633E-18
 -1      1540 9.51313E-05-2.85380E-05-2.85400E-05-3.84921E-08-2.25843E-19-1.29435E-18
 -1      1541 9.50929E-05-2.85268E-05-2.85281E-05-3.77267E-08-4.26284E-20-1.41983E-18
 -1      1542 9.51193E-05-2.85348E-05-2.85364E-05-7.37204E-08-3.10155E-19-1.94630E-18
 -1      1543 9.52281E-05-2.85657E-05-2.85699E-05-4.97314E-08 8.30565E-19-2.25979E-18
 -1      1544 9.51806E-05-2.85513E-05-2.85552E-05-4.72934E-08 1.81785E-19-1.37225E-18
 -1      1545 9.52098E-05-2.85593E-05-2.85650E-05-8.80295E-08 3.71075E-20-1.54140E-18
 -1      1546 9.53582E-05-2.86031E-05-2.86098E-05-6.94680E-08 3.30304E-19-3.83316E-18
 -1      1547 9.52929E-05-2.85828E-05-2.85897E-05-6.49350E-08 6.14531E-19-2.88160E-18
 -1      1548 9.53239E-05-2.85905E-05-2.86010E-05-1.17323E-07 1.05245E-18-2.88528E-18
 -1      1549 9.55406E-05-2.86559E-05-2.86657E-05-9.95267E-08-5.72159E-19-3.00931E-18
 -1      1550 9.54471E-05-2.86262E-05-2.86370E-05-9.23324E-08-3.65127E-19-3.42400E-18
 -1      1551 9.54775E-05-2.86328E-05-2.86492E-05-1.64585E-07-1.16412E-19-2.40024E-18
 -1      1552 9.57989E-05-2.87309E-05-2.87446E-05-1.42252E-07-8.39421E-19-7.45098E-19
 -1      1553 9.56643E-05-2.86879E-05-2.87035E-05-1.31659E-07-6.35706E-19-1.69910E-18
 -1      1554 9.56894E-05-2.86917E-05-2.87155E-05-2.33716E-07-1.43005E-18-9.07126E-19
 -1      1555 9.61616E-05-2.88367E-05-2.88552E-05-2.00528E-07-2.87212E-19 3.39457E-19
 -1      1556 9.59701E-05-2.87753E-05-2.87969E-05-1.85604E-07-5.27572E-19-3.90463E-19
 -1      1557 9.59826E-05-2.87741E-05-2.88068E-05-3.29597E-07-9.09232E-19 6.51670E-19
 -1      1558 9.66634E-05-2.89836E-05-2.90079E-05-2.77756E-07 4.85100E-20 3.47850E-19
 -1      1559 9.63957E-05-2.88975E-05-2.89267E-05-2.57358E-07 1.73989E-19 3.48224E-19
 -1      1560 9.63846E-05-2.88878E-05-2.89317E-05-4.58070E-07-1.16624E-19 8.85967E-19
 -1      1561 9.73460E-05-2.91841E-05-2.92152E-05-3.77721E-07-5.03402E-19 6.03618E-19
 -1      1562 9.69786E-05-2.90658E-05-2.91042E-05-3.50498E-07-7.87620E-19-2.19875E-19
 -1      1563 9.69282E-05-2.90425E-05-2.90999E-05-6.25785E-07-4.52028E-19 3.97516E-19
 -1      1564 9.82581E-05-2.94527E-05-2.94919E-05-5.04268E-07 1.67588E-19 8.89184E-19
 -1      1565 9.77633E-05-2.92932E-05-2.93428E-05-4.68708E-07 2.51435E-19 1.03375E-18
 -1      1566 9.76513E-05-2.92496E-05-2.93231E-05-8.39761E-07-7.50865E-20 1.09548E-19
 -1      1567 9.94546E-05-2.98062E-05-2.98543E-05-6.60598E-07 2.73568E-19 3.30588E-19
 -1      1568 9.88007E-05-2.95952E-05-2.96579E-05-6.15181E-07 4.34391E-19 7.82291E-19
 -1      1569 9.85970E-05-2.95221E-05-2.96141E-05-1.10642E-06 5.50052E-19 3.57937E-19
 -1      1570 1.00994E-04-3.02624E-05-3.03197E-05-8.47890E-07-2.87134E-19 2.87690E-19
 -1      1571 1.00147E-04-2.99891E-05-3.00660E-05-7.91416E-07-3.69996E-19-1.98556E-19
 -1      1572 9.98109E-05-2.98744E-05-2.99863E-05-1.42969E-06-6.96056E-20 5.27946E-19
 -1      1573 1.02929E-04-3.08389E-05-3.09036E-05-1.06269E-06-6.94402E-20 8.29179E-19
 -1      1574 1.01857E-04-3.04926E-05-3.05835E-05-9.94986E-07-3.89999E-20 6.11098E-19
 -1      1575 1.01337E-04-3.03211E-05-3.04522E-05-1.80735E-06-1.88068E-19 5.91264E-19
 -1      1576 1.05296E-04-3.15485E-05-3.16151E-05-1.29229E-06 4.38348E-19 1.46007E-19
 -1      1577 1.03976E-04-3.11220E-05-3.12230E-05-1.21555E-06 3.55623E-19 6.39530E-19
 -1      1578 1.03209E-04-3.08754E-05-3.10198E-05-2.22455E-06 2.98862E-19-1.25027E-19
 -1      1579 1.08085E-04-3.23923E-05-3.24484E-05-1.50696E-06-2.93710E-19 1.53022E-19
 -1      1580 1.06521E-04-3.18871E-05-3.19871E-05-1.42816E-06-1.86099E-20 1.73112E-20
 -1      1581 1.05433E-04-3.15456E-05-3.16877E-05-2.64279E-06 3.43037E-19 3.66802E-19
 -1      1582 1.11194E-04-3.33474E-05-3.33685E-05-1.64819E-06 3.71930E-19-2.30247E-19
 -1      1583 1.09445E-04-3.27826E-05-3.28579E-05-1.58300E-06 1.98345E-19 2.63374E-20
 -1      1584 1.07963E-04-3.23285E-05-3.24355E-05-2.98260E-06 5.71179E-19 5.28244E-19
 -1      1585 1.14364E-04-3.43460E-05-3.42888E-05-1.61345E-06 6.70248E-19-1.70754E-18
 -1      1586 1.12584E-04-3.37733E-05-3.37793E-05-1.59177E-06 4.80666E-19-1.06909E-18
 -1      1587 1.10661E-04-3.31993E-05-3.32104E-05-3.09965E-06 8.80655E-19-1.04846E-18
 -1      1588 1.17081E-04-3.52460E-05-3.50451E-05-1.24369E-06-5.03200E-19-1.74272E-18
 -1      1589 1.15580E-04-3.47701E-05-3.46338E-05-1.31520E-06-4.90485E-20-1.82160E-18
 -1      1590 1.13234E-04-3.40940E-05-3.39101E-05-2.75979E-06 1.72510E-19-9.82479E-19
 -1      1591 1.18489E-04-3.57958E-05-3.53742E-05-3.31967E-07-4.11234E-19-5.43041E-19
 -1      1592 1.17789E-04-3.55956E-05-3.52181E-05-5.65954E-07-2.20043E-19-1.18681E-18
 -1      1593 1.15176E-04-3.48831E-05-3.43677E-05-1.63356E-06-6.15389E-19-1.20482E-18
 -1      1594 1.17380E-04-3.56137E-05-3.49257E-05 1.30877E-06 1.82575E-19 5.07558E-19
 -1      1595 1.18221E-04-3.59465E-05-3.52346E-05 8.42114E-07-2.46090E-19-1.16990E-19
 -1      1596 1.15724E-04-3.53359E-05-3.43525E-05 6.41644E-07-6.11293E-19-4.56279E-19
 -1      1597 1.12414E-04-3.42282E-05-3.33505E-05 3.67389E-06 2.84590E-19 1.82377E-19
 -1      1598 1.15603E-04-3.53804E-05-3.43317E-05 2.95750E-06 2.52257E-19 5.14043E-19
 -1      1599 1.13899E-04-3.50921E-05-3.36120E-05 4.25808E-06-3.70312E-20 1.79399E-18
 -1      1600 1.02740E-04-3.12608E-05-3.04936E-05 6.29952E-06-1.11014E-19 8.38139E-19
 -1      1601 1.08750E-04-3.33994E-05-3.22314E-05 5.45810E-06 1.32164E-19 5.94141E-19
 -1      1602 1.08770E-04-3.36942E-05-3.19760E-05 8.84894E-06 4.01176E-19 1.42437E-18
 -1      1603 8.90090E-05-2.68004E-05-2.66427E-05 8.10068E-06-1.25751E-18 2.25946E-18
 -1      1604 9.73458E-05-2.97295E-05-2.89454E-05 7.45701E-06-6.39530E-19 1.09426E-18
 -1      1605 1.00029E-04-3.07892E-05-2.95101E-05 1.30704E-05-1.06251E-18 2.34745E-18
 -1      1606 7.41926E-05-2.17942E-05-2.26530E-05 7.70896E-06 1.42744E-18 2.22071E-18
 -1      1607 8.29411E-05-2.47748E-05-2.49823E-05 7.68230E-06 2.50616E-19 2.62834E-18
 -1      1608 8.87772E-05-2.65539E-05-2.66318E-05 1.46857E-05-2.63361E-19 2.44554E-18
 -1      1609 6.31076E-05-1.79813E-05-1.97306E-05 4.47064E-06 1.85016E-18-1.11639E-18
 -1      1610 6.93217E-05-1.99013E-05-2.13481E-05 5.27033E-06 1.44866E-18 7.80541E-19
 -1      1611 7.79021E-05-2.20977E-05-2.40577E-05 1.17148E-05 2.63800E-18 1.08786E-18
 -1      1612 6.00585E-05-1.69786E-05-1.88812E-05-6.30632E-07 7.17781E-19-3.30819E-18
 -1      1613 6.12395E-05-1.69839E-05-1.91957E-05 7.43483E-07 1.46831E-18-1.70174E-18
 -1      1614 7.11496E-05-1.92083E-05-2.25231E-05 4.28615E-06 2.47905E-18-8.78175E-19
 -1      1615 6.60522E-05-1.91335E-05-2.03670E-05-5.40524E-06-1.63504E-19-3.68046E-18
 -1      1616 6.17457E-05-1.72233E-05-1.92668E-05-4.02244E-06-8.55239E-20-3.85686E-18
 -1      1617 7.09295E-05-1.91905E-05-2.24496E-05-4.74758E-06 6.51183E-19-1.49088E-18
 -1      1618 7.80941E-05-2.34490E-05-2.33609E-05-7.79510E-06-1.02531E-18-1.53609E-18
 -1      1619 7.02948E-05-2.04575E-05-2.14014E-05-6.95094E-06-8.78744E-19-2.86032E-18
 -1      1620 7.67174E-05-2.18915E-05-2.36594E-05-1.14760E-05-1.29228E-18-1.54795E-18
 -1      1621 9.02040E-05-2.81863E-05-2.62161E-05-6.15363E-06 4.60515E-19-9.10878E-19
 -1      1622 8.29695E-05-2.55485E-05-2.44280E-05-6.34443E-06-3.58401E-20-1.29353E-18
 -1      1623 8.56970E-05-2.65894E-05-2.52611E-05-1.26312E-05-1.71934E-19 1.64748E-19
 -1      1624 9.37734E-05-3.04089E-05-2.65096E-05-2.24594E-06-2.04241E-19-1.34043E-19
 -1      1625 9.92430E-05-4.35884E-05-2.36807E-05-8.71905E-06-1.83637E-18-1.69092E-18
 -1      1626 9.61913E-05-3.57710E-05-2.56171E-05-7.77264E-06-5.55654E-19-6.55723E-19
 -1      1627 1.04481E-04-5.58530E-05-2.09517E-05-8.62240E-06-1.43530E-18 7.38930E-19
 -1      1628 1.01017E-04-4.75340E-05-2.28243E-05-8.93056E-06-1.82218E-18-8.09658E-19
 -1      1629 9.81988E-05-3.99497E-05-2.49421E-05-1.59616E-05-9.93623E-19-1.23574E-18
 -1      1630 1.08254E-04-6.10123E-05-2.07351E-05-2.25540E-06-1.39805E-18 7.33848E-19
 -1      1631 1.06175E-04-5.84448E-05-2.07511E-05-4.18514E-06-2.21203E-18 1.71466E-18
 -1      1632 1.03798E-04-4.71211E-05-2.45755E-05-1.13118E-05 4.00011E-19 9.24219E-19
 -1      1633 1.07608E-04-5.10763E-05-2.49358E-05 1.09385E-05-8.13575E-19 1.67395E-19
 -1      1634 1.09085E-04-5.99460E-05-2.19326E-05 7.29222E-06-1.46272E-18 3.51201E-19
 -1      1635 1.08789E-04-4.99513E-05-2.59282E-05 4.84967E-06-8.48846E-19 1.25033E-18
 -1      1636 1.00327E-04-2.57123E-05-3.23353E-05 2.72506E-05-9.98652E-19-1.66654E-18
 -1      1637 1.06219E-04-4.57260E-05-2.71294E-05 2.33922E-05-1.12931E-18 1.98047E-19
 -1      1638 1.11139E-04-4.54486E-05-2.89485E-05 3.03100E-05-1.24080E-18-3.90482E-19
 -1      1639 8.63454E-05 9.45718E-06-4.03624E-05 3.95498E-05-2.81850E-18-7.70218E-19
 -1      1640 9.58381E-05-1.66546E-05-3.46084E-05 3.76294E-05-1.78851E-18-2.09214E-18
 -1      1641 1.06542E-04-3.23108E-05-3.21275E-05 5.64004E-05-1.55669E-18-3.34037E-18
 -1      1642 6.75761E-05 4.75837E-05-4.71806E-05 3.95880E-05-1.38744E-18 1.39760E-18
 -1      1643 7.82631E-05 2.20235E-05-4.21279E-05 4.15929E-05-2.83163E-18 1.66146E-18
 -1      1644 9.24169E-05-1.07763E-05-3.43767E-05 7.16929E-05-2.06184E-18 2.73380E-19
 -1      1645 5.08418E-05 7.59165E-05-5.08585E-05 1.93214E-05-7.93882E-19 3.68459E-19
 -1      1646 5.85957E-05 6.05391E-05-4.82798E-05 2.66647E-05-1.43741E-18 4.18011E-19
 -1      1647 7.16253E-05 1.53985E-05-3.52002E-05 5.95146E-05-1.43527E-18 1.65680E-18
 -1      1648 5.35363E-05 6.76471E-05-4.90043E-05-1.68269E-05-9.78323E-20 1.18119E-18
 -1      1649 4.96120E-05 7.84519E-05-5.10058E-05-8.64431E-06-1.83833E-18 9.85523E-19
 -1      1650 5.29480E-05 3.37255E-05-3.46024E-05 1.10517E-05-5.14612E-19 3.84553E-19
 -1      1651 7.33190E-05 3.03218E-05-4.30138E-05-3.92603E-05-1.67289E-18-2.20610E-18
 -1      1652 6.16639E-05 5.79867E-05-4.83151E-05-3.72508E-05-1.69830E-19-1.37939E-18
 -1      1653 6.01094E-05 2.59177E-05-3.47381E-05-4.62007E-05-1.47786E-18 1.17060E-18
 -1      1654 9.48122E-05-1.48546E-05-3.44340E-05-3.96677E-05-2.54068E-18-1.28299E-18
 -1      1655 8.29680E-05 1.53492E-05-4.11373E-05-4.20483E-05-9.71547E-19-1.38712E-18
 -1      1656 8.57936E-05-1.48750E-06-3.50423E-05-7.28767E-05-3.22375E-19-2.44136E-18
 -1      1657 1.07759E-04-4.94663E-05-2.59217E-05-2.54321E-05-3.05927E-18 1.29681E-18
 -1      1658 1.00700E-04-2.78629E-05-3.15863E-05-2.96237E-05-3.54483E-18 7.65347E-19
 -1      1659 1.03568E-04-2.87338E-05-3.25245E-05-6.31969E-05-1.53038E-18-2.02774E-18
 -1      1660 1.10877E-04-6.67705E-05-1.96169E-05-6.66157E-06-3.17654E-18-5.60524E-19
 -1      1661 1.08996E-04-5.76638E-05-2.28226E-05-1.03673E-05-2.19085E-18 1.27902E-19
 -1      1662 1.11560E-04-4.79507E-05-2.81761E-05-3.26254E-05-3.99297E-18 1.12338E-18
 -1      1663 1.07708E-04-6.49241E-05-1.85022E-05 4.08778E-06-4.80882E-18-1.04270E-18
 -1      1664 1.09648E-04-6.77252E-05-1.83606E-05 2.66569E-06-3.18971E-18 1.33302E-19
 -1      1665 1.09209E-04-5.41047E-05-2.42637E-05-4.11880E-06-3.83222E-18-1.06504E-18
 -1      1666 1.03317E-04-5.49975E-05-2.06357E-05 8.05262E-06-7.27019E-18-9.46639E-19
 -1      1667 1.06281E-04-6.25291E-05-1.87928E-05 7.77603E-06-4.70950E-18-1.60734E-18
 -1      1668 1.04469E-04-5.15474E-05-2.29352E-05 1.05696E-05-3.91806E-18-2.46656E-18
 -1      1669 9.92591E-05-4.35068E-05-2.38057E-05 8.07190E-06-7.14112E-18 5.50747E-19
 -1      1670 1.01949E-04-5.12916E-05-2.16485E-05 8.26816E-06-6.98897E-18 9.07420E-19
 -1      1671 1.00204E-04-4.49858E-05-2.36829E-05 1.50211E-05-3.28765E-18-2.45084E-19
 -1      1672 9.53998E-05-3.39312E-05-2.62974E-05 7.45747E-06-3.76310E-18 1.23013E-18
 -1      1673 9.74063E-05-3.94976E-05-2.48022E-05 8.72440E-06-5.59052E-18 1.25754E-18
 -1      1674 9.64401E-05-3.69220E-05-2.51884E-05 1.47741E-05-2.45433E-18 1.55716E-18
 -1      1675 9.16679E-05-3.03032E-05-2.60824E-05 1.29020E-05-1.16310E-18 1.22997E-18
 -1      1676 3.13497E-05-8.27828E-05 1.05032E-05 6.61741E-07 4.60955E-18 9.69429E-19
 -1      1677 3.76607E-05-1.02192E-04 1.39244E-05 7.67339E-06 1.68644E-18 1.92319E-18
 -1      1678 3.74825E-05-3.65968E-05-5.69172E-06 3.29933E-05 2.99850E-18 1.12147E-18
 -1      1679 4.31568E-05-7.63720E-05 4.05180E-06 1.97884E-05 4.02679E-18 4.86356E-19
 -1      1680 6.09701E-05 2.15871E-06-2.68718E-05 6.86458E-05 3.61514E-18 4.05729E-18
 -1      1681 5.00411E-05-2.77526E-05-1.45751E-05 3.90255E-05 3.35933E-18 2.68679E-18
 -1      1682 1.18921E-04 1.02094E-05-5.09552E-05 1.07190E-04 3.27124E-18 3.26277E-18
 -1      1683 8.13322E-05 7.80657E-06-3.81916E-05 7.71489E-05 3.23567E-18 3.28649E-18
 -1      1684 1.99697E-04-1.44820E-05-7.25033E-05 1.20153E-04 1.24387E-18-1.10114E-20
 -1      1685 1.45647E-04 7.64407E-06-6.18627E-05 1.10926E-04 3.32376E-18 1.38744E-18
 -1      1686 2.71487E-04-5.06098E-05-8.67213E-05 9.66798E-05 3.53398E-19-3.37119E-19
 -1      1687 2.26320E-04-2.35690E-05-8.05644E-05 1.15482E-04-2.11758E-22 2.48181E-19
 -1      1688 3.06123E-04-7.35341E-05-9.19804E-05 4.15589E-05 9.74935E-19-1.33948E-18
 -1      1689 2.86031E-04-5.83222E-05-9.01698E-05 7.92932E-05 7.09814E-19-3.44319E-19
 -1      1690 2.94974E-04-7.25072E-05-8.86618E-05-1.96253E-05 3.40931E-19-1.36711E-18
 -1      1691 3.08337E-04-7.69012E-05-9.15248E-05 2.15585E-05 1.21041E-18-1.51894E-18
 -1      1692 2.39869E-04-4.98147E-05-7.68200E-05-6.34780E-05 1.07107E-18-2.21414E-18
 -1      1693 2.81636E-04-6.97601E-05-8.39237E-05-3.77679E-05 7.90917E-19-1.40777E-18
 -1      1694 1.62332E-04-2.20461E-05-5.83332E-05-7.42233E-05 3.43641E-18-3.20009E-18
 -1      1695 2.15133E-04-4.32383E-05-6.85795E-05-7.38174E-05 2.58769E-18-1.60174E-18
 -1      1696 9.14829E-05-1.74132E-05-3.31687E-05-4.75322E-05 7.00327E-18-5.07542E-18
 -1      1697 1.36731E-04-2.32549E-05-4.65732E-05-6.95188E-05 4.84588E-18-3.20009E-18
 -1      1698 4.06585E-05-2.58666E-05-1.07438E-05-1.82043E-05 7.77237E-18-6.41119E-18
 -1      1699 5.76785E-05-1.06129E-05-2.15403E-05-4.27755E-05 7.63515E-18-7.77576E-18
 -1      1700 2.83302E-05-5.91634E-05 7.06860E-06 3.42723E-06 2.37000E-18-3.67485E-18
 -1      1701 2.71856E-05-3.26921E-05-1.47469E-06-9.04554E-06 6.20706E-18-6.86520E-18
 -1      1702 2.85994E-05-8.72804E-05 1.82814E-05 5.30150E-06-2.35518E-18-2.41044E-18
 -1      1703 2.23844E-05-6.64792E-05 1.33196E-05 8.41305E-06 1.13841E-18-2.99061E-18
 -1      1704 2.73796E-05-9.40669E-05 2.17514E-05-3.99755E-06-3.87242E-18-7.38613E-19
 -1      1705 2.58381E-05-9.02369E-05 2.09950E-05 8.43471E-06-3.39025E-18-4.97632E-19
 -1      1706 2.30816E-05-7.65157E-05 1.67652E-05-9.80488E-06-3.39067E-18 8.20457E-19
 -1      1707 2.91630E-05-9.41783E-05 2.06206E-05-1.91002E-06-4.33511E-18-5.01655E-19
 -1      1708 2.56107E-05-4.22234E-05 3.14131E-06 5.89356E-06-1.02491E-19 6.11134E-19
 -1      1709 2.90774E-05-6.83643E-05 1.07799E-05-1.88543E-06-2.55211E-18 8.04999E-19
 -1      1710 4.40182E-05-1.26035E-05-1.52177E-05 3.34699E-05 6.33581E-19 1.77453E-18
 -1      1711 3.44989E-05-3.33761E-05-5.10338E-06 1.19524E-05-2.81215E-19 6.51368E-19
 -1      1712 1.02922E-04-1.07073E-05-3.82847E-05 6.73407E-05 1.38913E-18 2.67324E-18
 -1      1713 6.86255E-05-1.29152E-05-2.60413E-05 4.22434E-05 1.26462E-18 1.60682E-18
 -1      1714 1.79130E-04-2.83758E-05-6.05892E-05 8.22832E-05 2.22261E-18 1.30443E-18
 -1      1715 1.28384E-04-1.07417E-05-4.96241E-05 7.32206E-05 2.45470E-18 2.22092E-18
 -1      1716 2.54314E-04-5.86882E-05-7.78766E-05 5.76878E-05 4.52104E-19-8.10611E-19
 -1      1717 2.07224E-04-3.65685E-05-6.96036E-05 7.34856E-05 1.32582E-18 1.29596E-19
 -1      1718 3.02915E-04-7.76674E-05-8.91110E-05 5.27523E-06 7.19978E-20-3.30936E-18
 -1      1719 2.76074E-04-6.52526E-05-8.44313E-05 4.30990E-05 9.83935E-19-1.87025E-18
 -1      1720 2.99350E-04-6.85413E-05-9.14876E-05-6.00094E-05 5.66665E-19-3.32757E-18
 -1      1721 3.07074E-04-7.67782E-05-9.13491E-05-1.76596E-05-6.12405E-19-4.46471E-18
 -1      1722 2.46461E-04-3.48314E-05-8.43165E-05-1.03650E-04 1.57072E-18-3.31698E-18
 -1      1723 2.82417E-04-5.82964E-05-8.87275E-05-7.62305E-05 7.95364E-19-3.08744E-18
 -1      1724 1.79293E-04-4.43568E-07-7.14020E-05-1.21193E-04 4.10091E-18-4.53671E-18
 -1      1725 2.26822E-04-2.56024E-05-7.90615E-05-1.17419E-04 3.32058E-18-2.86975E-18
 -1      1726 1.12563E-04 1.29173E-05-5.13139E-05-9.87481E-05 4.52146E-18-4.77557E-18
 -1      1727 1.56453E-04 2.01683E-06-6.23226E-05-1.17956E-04 4.18519E-18-4.64682E-18
 -1      1728 6.28794E-05 2.80078E-06-2.95898E-05-6.40102E-05 2.53263E-18-4.88399E-18
 -1      1729 8.72239E-05 1.51353E-05-4.10772E-05-9.35984E-05 4.45539E-18-4.63835E-18
 -1      1730 4.72778E-05-4.08173E-05-9.02922E-06-3.39928E-05 1.57548E-19-1.11300E-18
 -1      1731 5.08071E-05-8.51139E-06-1.98230E-05-5.74658E-05 1.11808E-18-4.91110E-18
 -1      1732 4.15497E-05-8.21278E-05 6.01815E-06-1.40488E-05-2.07692E-18-7.87899E-19
 -1      1733 3.38128E-05-4.59315E-05-1.82213E-06-2.19249E-05-9.08019E-19 9.95264E-20
 -1      1734 6.23270E-05-4.72428E-05-1.12162E-05-6.69065E-05-7.13202E-19-1.51794E-18
 -1      1735 3.80434E-05-1.03864E-04 1.43181E-05-8.77655E-06 1.12677E-18 2.61564E-18
 -1      1736 3.24292E-05-8.80294E-05 1.13807E-05-7.33022E-07-1.33069E-18 1.77792E-18
 -1      1737 1.59462E-04-2.45409E-05-5.43045E-05 7.93928E-05 3.09252E-18 6.25110E-19
 -1      1738 1.13517E-04-3.47814E-05-3.34687E-05 7.70065E-05 2.72829E-18 2.96377E-18
 -1      1739 9.43621E-05-3.22923E-05-2.61079E-05-6.61531E-06-4.51257E-19-2.09442E-19
 -1      1740 9.29274E-05-3.22831E-05-2.57301E-05-1.32135E-05 6.72915E-19 6.63333E-20
 -1      1741 3.60388E-05-4.97012E-05-1.16820E-06 4.60130E-05 1.73134E-18 4.51045E-19
 -1      1742 7.30290E-05-4.78434E-05-1.46032E-05 6.84040E-05 1.43487E-18 1.66569E-18
 -1      1743 1.93817E-05-5.33768E-05 5.16876E-06-6.70928E-08 1.12401E-18 3.49570E-18
 -1      1744 2.05156E-04-2.37509E-05-7.21652E-05 7.35227E-05 2.14839E-18 8.85996E-19
 -1      1745 2.40031E-04-3.08114E-05-8.31363E-05 5.52300E-05 8.99549E-19-5.06949E-19
 -1      1746 2.52912E-04-3.73391E-05-8.59525E-05 2.62407E-05 7.39036E-19-1.28733E-18
 -1      1747 2.43698E-04-4.10199E-05-8.10403E-05-2.58112E-06 7.64871E-19-1.27394E-18
 -1      1748 2.12399E-04-4.20430E-05-6.87448E-05-2.58323E-05 2.54068E-18-9.69853E-19
 -1      1749 1.65871E-04-4.67328E-05-4.95914E-05-3.37055E-05 4.51384E-18-1.08420E-18
 -1      1750 1.13001E-04-4.73532E-05-2.81454E-05-4.00010E-05 4.64343E-18-2.70881E-18
 -1      1751 6.15146E-05-4.89339E-05-7.99463E-06-3.12344E-05 4.05221E-18-6.04485E-18
 -1      1752 3.31147E-05-5.88788E-05 6.82141E-06-1.89640E-05 1.14095E-18-5.28718E-18
 -1      1753 1.71481E-05-6.38790E-05 1.53051E-05-7.75093E-06-4.49986E-19-3.31910E-18
 -1      1754 1.50266E-05-6.59771E-05 1.68402E-05 4.58705E-06-1.99624E-18-4.66292E-19
 -1      1755 2.74352E-05-6.04011E-05 9.96880E-06 1.86465E-05-2.18111E-18 2.48964E-18
 -1      1756 5.20164E-05-5.09539E-05-3.37176E-06 3.03760E-05-1.03677E-18 9.07702E-19
 -1      1757 9.19279E-05-4.33539E-05-2.17060E-05 4.10012E-05-4.13352E-19 1.04820E-18
 -1      1758 1.41509E-04-3.97068E-05-4.25079E-05 4.43210E-05 1.60428E-18 1.39083E-18
 -1      1759 1.91866E-04-3.90518E-05-6.20519E-05 3.77866E-05 2.71178E-18 3.24414E-19
 -1      1760 2.32725E-04-4.17016E-05-7.67547E-05 1.57321E-05 2.20906E-18-6.66615E-19
 -1      1761 2.54503E-04-4.08322E-05-8.51470E-05-1.39575E-05 2.50722E-19-3.25854E-18
 -1      1762 2.43999E-04-3.21468E-05-8.45836E-05-4.41547E-05 5.18808E-19-3.15647E-18
 -1      1763 2.15660E-04-2.24574E-05-7.70317E-05-6.86763E-05 3.07473E-18-2.25480E-18
 -1      1764 1.78384E-04-2.02596E-05-6.33100E-05-7.95729E-05 3.98698E-18-3.28649E-18
 -1      1765 1.36327E-04-2.46392E-05-4.54242E-05-8.15981E-05 2.93412E-18-3.17044E-18
 -1      1766 9.61441E-05-3.69785E-05-2.64772E-05-7.59936E-05 5.20925E-19-4.86451E-18
 -1      1767 1.06061E-04-2.31734E-05-3.56067E-05-1.68503E-05-1.26568E-18 4.80479E-18
 -1      1768 3.38577E-05-5.52874E-05 1.05256E-06-3.88952E-05-7.36919E-20 3.35425E-19
 -1      1769 8.91546E-05-1.05877E-05-3.37970E-05-1.33214E-05-1.53652E-18-1.72493E-18
 -1      1770 9.04872E-05-1.16329E-05-3.39371E-05-1.51307E-05-1.76654E-18-1.22923E-18
 -1      1771 9.24958E-05-1.38769E-05-3.38558E-05-1.59966E-05-1.80003E-18-5.59121E-19
 -1      1772 9.42147E-05-1.58241E-05-3.41001E-05-1.76579E-05-1.99259E-18 3.43525E-19
 -1      1773 9.34229E-05-1.63498E-05-3.30463E-05-1.37643E-05-1.93303E-18-7.83982E-19
 -1      1774 8.62083E-05-7.67268E-06-3.37290E-05-7.86011E-06-8.43787E-19-2.66630E-18
 -1      1775 8.66139E-05-7.97168E-06-3.37635E-05-9.24907E-06-1.02611E-18-2.57420E-18
 -1      1776 8.55886E-05-7.03364E-06-3.37256E-05-5.31759E-06-5.15658E-19-2.83262E-18
 -1      1777 8.58243E-05-7.21281E-06-3.37410E-05-6.62163E-06-6.68895E-19-2.76720E-18
 -1      1778 8.75898E-05-9.86479E-06-3.33423E-05-6.92513E-06-8.36426E-19-2.60944E-18
 -1      1779 8.52525E-05-6.67464E-06-3.37285E-05-2.88754E-06-1.76601E-19-2.85946E-18
 -1      1780 8.53739E-05-6.76948E-06-3.37346E-05-4.12671E-06-3.32574E-19-2.85929E-18
 -1      1781 8.69515E-05-9.15187E-06-3.33751E-05-4.53538E-06-4.45285E-19-2.72934E-18
 -1      1782 8.51213E-05-6.52645E-06-3.37318E-05-5.17288E-07 1.57002E-19-2.83731E-18
 -1      1783 8.51570E-05-6.55497E-06-3.37333E-05-1.72642E-06 7.08987E-21-2.84860E-18
 -1      1784 8.66187E-05-8.77286E-06-3.33948E-05-2.21642E-06-1.00844E-19-2.74124E-18
 -1      1785 8.51669E-05-6.56402E-06-3.37335E-05 1.84433E-06 4.98529E-19-2.80515E-18
 -1      1786 8.51250E-05-6.53101E-06-3.37318E-05 6.34186E-07 3.59863E-19-2.85723E-18
 -1      1787 8.65203E-05-8.65928E-06-3.34013E-05 6.53161E-08 2.65901E-19-2.76013E-18
 -1      1788 8.53991E-05-6.79457E-06-3.37348E-05 4.24925E-06 7.88106E-19-2.69632E-18
 -1      1789 8.52705E-05-6.69372E-06-3.37285E-05 3.00687E-06 6.81758E-19-2.75736E-18
 -1      1790 8.66365E-05-8.79252E-06-3.33942E-05 2.34824E-06 6.39698E-19-2.68689E-18
 -1      1791 8.58578E-05-7.24834E-06-3.37407E-05 6.70964E-06 1.10806E-18-2.57450E-18
 -1      1792 8.56188E-05-7.06588E-06-3.37256E-05 5.42278E-06 9.53917E-19-2.69308E-18
 -1      1793 8.69860E-05-9.18998E-06-3.33736E-05 4.65059E-06 9.51008E-19-2.62345E-18
 -1      1794 8.66735E-05-8.03887E-06-3.37621E-05 9.37053E-06 1.46453E-18-2.17380E-18
 -1      1795 8.62514E-05-7.72196E-06-3.37280E-05 7.95004E-06 1.24816E-18-2.37094E-18
 -1      1796 8.76401E-05-9.92329E-06-3.33399E-05 7.02493E-06 1.30907E-18-2.40201E-18
 -1      1797 8.80891E-05-9.38772E-06-3.38183E-05 1.22489E-05 1.83515E-18-1.65357E-18
 -1      1798 8.73474E-05-8.82935E-06-3.37458E-05 1.06561E-05 1.62389E-18-1.96721E-18
 -1      1799 8.87641E-05-1.11592E-05-3.32900E-05 9.49832E-06 1.65296E-18-1.93024E-18
 -1      1800 9.06365E-05-1.18413E-05-3.39292E-05 1.52973E-05 2.04697E-18-6.83714E-19
 -1      1801 8.92544E-05-1.07414E-05-3.37890E-05 1.35076E-05 1.88640E-18-1.28288E-18
 -1      1802 9.06650E-05-1.32232E-05-3.32080E-05 1.19698E-05 1.99273E-18-1.29311E-18
 -1      1803 9.58842E-05-1.70371E-05-3.39955E-05 1.76858E-05 2.03004E-18 1.25901E-18
 -1      1804 9.28633E-05-1.43452E-05-3.38290E-05 1.61886E-05 1.98767E-18 1.11305E-19
 -1      1805 9.39760E-05-1.68888E-05-3.30261E-05 1.38889E-05 2.07644E-18-2.43840E-19
 -1      1806 1.01935E-04-2.50976E-05-3.33620E-05 1.44188E-05 1.72054E-18 3.65241E-18
 -1      1807 9.80856E-05-1.96195E-05-3.36279E-05 1.69599E-05 1.85910E-18 2.11621E-18
 -1      1808 9.73383E-05-2.18571E-05-3.24303E-05 1.32436E-05 2.02625E-18 1.28143E-18
 -1      1809 9.87630E-05-2.61388E-05-3.13455E-05 9.43117E-06 1.67768E-18 3.11912E-18
 -1      1810 1.00165E-04-1.95661E-05-3.42207E-05-1.88653E-05-1.71823E-18 1.92234E-18
 -1      1811 9.53239E-05-2.72895E-05-2.91891E-05 4.06300E-06 1.33144E-18 2.19138E-18
 -1      1812 9.77531E-05-2.73943E-05-3.01979E-05 6.39714E-06 1.39578E-18 2.71687E-18
 -1      1813 9.75871E-05-2.56181E-05-3.08359E-05 8.75536E-06 1.70320E-18 1.70355E-18
 -1      1814 3.25336E-05-3.15600E-05-4.29778E-06-4.04385E-05 1.47807E-18 2.53856E-18
 -1      1815 4.67082E-05-3.34830E-05-8.56155E-06-6.09436E-05-2.12605E-19-4.22246E-19
 -1      1816 9.98243E-05-2.25448E-05-3.28388E-05-1.44631E-05-1.83719E-18 1.23466E-18
 -1      1817 9.69709E-05-2.69821E-05-2.98806E-05-5.70081E-06-1.55968E-18 1.00339E-18
 -1      1818 9.51639E-05-2.70372E-05-2.91704E-05-3.89389E-06-1.33589E-18 6.48536E-19
 -1      1819 9.43454E-05-2.72387E-05-2.86630E-05-2.41668E-06-1.15209E-18 5.64825E-19
 -1      1820 9.35755E-05-2.73202E-05-2.83582E-05-1.56321E-06-9.64420E-19 2.50083E-19
 -1      1821 9.55164E-05-2.65483E-05-2.95789E-05-4.46785E-06-1.51858E-18-1.17675E-19
 -1      1822 9.30512E-05-2.73713E-05-2.80896E-05-7.36990E-07-8.70419E-19 1.48945E-19
 -1      1823 9.27509E-05-2.74350E-05-2.79679E-05-2.98862E-07-7.48261E-19-1.08371E-19
 -1      1824 9.43087E-05-2.72252E-05-2.87705E-05-1.82320E-06-1.12547E-18-3.07989E-19
 -1      1825 9.24753E-05-2.74624E-05-2.78320E-05 1.56122E-07-6.22841E-19-2.47959E-19
 -1      1826 9.24449E-05-2.75388E-05-2.78024E-05 3.79941E-07-5.28201E-19-3.23553E-19
 -1      1827 9.36079E-05-2.75312E-05-2.83350E-05-3.58135E-07-9.04405E-19-5.13562E-19
 -1      1828 9.23417E-05-2.75702E-05-2.77442E-05 6.19334E-07-6.82884E-19-5.34608E-19
 -1      1829 9.24572E-05-2.76556E-05-2.77635E-05 7.22895E-07-6.15135E-19-7.90741E-19
 -1      1830 9.32871E-05-2.77159E-05-2.81142E-05 4.43683E-07-8.32929E-19-7.52445E-19
 -1      1831 9.24625E-05-2.76936E-05-2.77515E-05 8.33284E-07-5.51273E-19-9.00247E-19
 -1      1832 9.26505E-05-2.77806E-05-2.77963E-05 8.66349E-07-5.23033E-19-1.10749E-18
 -1      1833 9.32237E-05-2.78592E-05-2.80216E-05 8.53841E-07-6.97311E-19-1.20170E-18
 -1      1834 9.27186E-05-2.78220E-05-2.78109E-05 8.98760E-07-5.72423E-19-1.14929E-18
 -1      1835 9.29347E-05-2.79048E-05-2.78670E-05 8.90403E-07-4.09270E-19-1.05540E-18
 -1      1836 9.33180E-05-2.79829E-05-2.80058E-05 1.02742E-06-5.74567E-19-1.43078E-18
 -1      1837 9.30350E-05-2.79462E-05-2.78958E-05 8.76495E-07-4.40130E-19-1.07220E-18
 -1      1838 9.32525E-05-2.80214E-05-2.79547E-05 8.44816E-07-3.94866E-19-1.15661E-18
 -1      1839 9.34989E-05-2.80921E-05-2.80342E-05 1.05806E-06-5.23001E-19-1.51702E-18
 -1      1840 9.33648E-05-2.80602E-05-2.79897E-05 8.04900E-07-2.19975E-19-1.12457E-18
 -1      1841 9.35686E-05-2.81259E-05-2.80463E-05 7.61511E-07 1.89621E-19-1.22699E-18
 -1      1842 9.37188E-05-2.81874E-05-2.80861E-05 1.00489E-06-3.57909E-19-1.34201E-18
 -1      1843 9.36804E-05-2.81606E-05-2.80826E-05 7.08813E-07 3.56523E-19-1.44377E-18
 -1      1844 9.38622E-05-2.82163E-05-2.81340E-05 6.61195E-07 1.69700E-19-1.43276E-18
 -1      1845 9.39468E-05-2.82686E-05-2.81480E-05 9.06196E-07 4.13805E-20-1.12415E-18
 -1      1846 9.39662E-05-2.82462E-05-2.81686E-05 6.04290E-07 5.44320E-20-1.33417E-18
 -1      1847 9.41228E-05-2.82922E-05-2.82135E-05 5.57188E-07 1.53951E-19-1.48908E-18
 -1      1848 9.41642E-05-2.83361E-05-2.82117E-05 7.86951E-07 7.29114E-20-1.56260E-18
 -1      1849 9.42152E-05-2.83172E-05-2.82448E-05 5.01523E-07 1.74474E-19-1.47493E-18
 -1      1850 9.43464E-05-2.83542E-05-2.82829E-05 4.57838E-07-5.17308E-20-1.07337E-18
 -1      1851 9.43608E-05-2.83908E-05-2.82722E-05 6.63289E-07 1.30597E-19-1.15673E-18
 -1      1852 9.44259E-05-2.83746E-05-2.83103E-05 4.06753E-07-2.01889E-19-8.54837E-19
 -1      1853 9.45333E-05-2.84037E-05-2.83418E-05 3.68162E-07-2.67399E-19-6.22324E-19
 -1      1854 9.45322E-05-2.84341E-05-2.83269E-05 5.45373E-07-5.11344E-20-7.17335E-19
 -1      1855 9.46002E-05-2.84199E-05-2.83652E-05 3.23613E-07-6.70685E-19-4.10591E-19
 -1      1856 9.46866E-05-2.84424E-05-2.83909E-05 2.91021E-07-6.49826E-19-5.94944E-19
 -1      1857 9.46774E-05-2.84675E-05-2.83749E-05 4.39373E-07-2.99018E-19-5.33956E-19
 -1      1858 9.47422E-05-2.84550E-05-2.84107E-05 2.54107E-07-6.37178E-19-8.42590E-19
 -1      1859 9.48110E-05-2.84720E-05-2.84314E-05 2.27978E-07-7.63003E-19-1.05853E-18
 -1      1860 9.47985E-05-2.84924E-05-2.84162E-05 3.48892E-07-9.28606E-19-3.52058E-19
 -1      1861 9.48574E-05-2.84818E-05-2.84481E-05 1.99338E-07-9.05850E-19-1.28334E-18
 -1      1862 9.49126E-05-2.84945E-05-2.84650E-05 1.79947E-07-6.47285E-19-1.21782E-18
 -1      1863 9.48987E-05-2.85106E-05-2.84515E-05 2.76015E-07-8.85155E-19-7.43147E-19
 -1      1864 9.49521E-05-2.85022E-05-2.84796E-05 1.60058E-07-4.62720E-19-1.30139E-18
 -1      1865 9.49980E-05-2.85119E-05-2.84939E-05 1.47683E-07-3.30712E-19-1.57691E-18
 -1      1866 9.49827E-05-2.85235E-05-2.84822E-05 2.22094E-07-5.57266E-19-5.75077E-19
 -1      1867 9.50336E-05-2.85182E-05-2.85073E-05 1.37091E-07-4.91751E-19-1.64516E-18
 -1      1868 9.50746E-05-2.85261E-05-2.85203E-05 1.32164E-07-3.40710E-19-1.77520E-18
 -1      1869 9.50558E-05-2.85325E-05-2.85099E-05 1.88353E-07-4.80909E-19-1.22460E-18
 -1      1870 9.51096E-05-2.85319E-05-2.85336E-05 1.31660E-07 8.96095E-21-1.78671E-18
 -1      1871 9.51508E-05-2.85394E-05-2.85469E-05 1.34880E-07 2.36672E-19-1.70971E-18
 -1      1872 9.51242E-05-2.85392E-05-2.85366E-05 1.76344E-07-1.99566E-19-1.11047E-18
 -1      1873 9.51889E-05-2.85454E-05-2.85614E-05 1.45633E-07 4.70952E-19-1.53904E-18
 -1      1874 9.52359E-05-2.85539E-05-2.85765E-05 1.58057E-07 5.59277E-19-1.55732E-18
 -1      1875 9.51947E-05-2.85449E-05-2.85647E-05 1.88298E-07 6.49886E-19-9.80069E-19
 -1      1876 9.52812E-05-2.85613E-05-2.85938E-05 1.81708E-07 3.57871E-19-1.03987E-18
 -1      1877 9.53404E-05-2.85725E-05-2.86127E-05 2.04807E-07 7.01709E-19-8.82193E-19
 -1      1878 9.52753E-05-2.85515E-05-2.85968E-05 2.27383E-07 7.49043E-19-8.14232E-19
 -1      1879 9.53980E-05-2.85824E-05-2.86344E-05 2.43523E-07 6.42070E-19-9.33705E-19
 -1      1880 9.54768E-05-2.85983E-05-2.86592E-05 2.79210E-07 8.36119E-19-8.24391E-19
 -1      1881 9.53749E-05-2.85607E-05-2.86359E-05 2.97866E-07 7.03597E-19-1.94266E-19
 -1      1882 9.55522E-05-2.86121E-05-2.86873E-05 3.35680E-07 4.34360E-19-1.10963E-18
 -1      1883 9.56593E-05-2.86351E-05-2.87207E-05 3.86286E-07-5.44321E-19-4.82495E-19
 -1      1884 9.55040E-05-2.85749E-05-2.86856E-05 4.05165E-07 5.65780E-19-1.06591E-18
 -1      1885 9.57590E-05-2.86545E-05-2.87573E-05 4.63638E-07-9.13136E-19-2.61663E-19
 -1      1886 9.59048E-05-2.86876E-05-2.88022E-05 5.31808E-07-7.87776E-19-6.01005E-19
 -1      1887 9.56745E-05-2.85970E-05-2.87498E-05 5.55752E-07-2.76718E-19-1.14873E-18
 -1      1888 9.60362E-05-2.87148E-05-2.88499E-05 6.33398E-07-8.99718E-19-6.78301E-19
 -1      1889 9.62321E-05-2.87614E-05-2.89095E-05 7.21873E-07-7.23473E-19-1.12327E-18
 -1      1890 9.59004E-05-2.86309E-05-2.88327E-05 7.56813E-07-9.05177E-19-1.16871E-18
 -1      1891 9.64034E-05-2.87989E-05-2.89708E-05 8.50882E-07-2.79656E-19-1.06360E-18
 -1      1892 9.66627E-05-2.88634E-05-2.90489E-05 9.62079E-07 3.29458E-19-7.86984E-19
 -1      1893 9.61974E-05-2.86813E-05-2.89390E-05 1.01556E-06-4.80924E-19-5.81381E-19
 -1      1894 9.68828E-05-2.89144E-05-2.91263E-05 1.12081E-06 7.46186E-19-1.32389E-18
 -1      1895 9.72193E-05-2.90019E-05-2.92267E-05 1.25610E-06 1.04438E-18-8.43597E-19
 -1      1896 9.65827E-05-2.87545E-05-2.90734E-05 1.33800E-06 3.91945E-19-5.93753E-19
 -1      1897 9.74973E-05-2.90702E-05-2.93226E-05 1.44480E-06 5.66558E-19-9.08013E-19
 -1      1898 9.79245E-05-2.91865E-05-2.94487E-05 1.60335E-06 4.90138E-20-1.25320E-18
 -1      1899 9.70749E-05-2.88588E-05-2.92402E-05 1.72685E-06 5.48580E-19-1.73947E-18
 -1      1900 9.82691E-05-2.92770E-05-2.95647E-05 1.81843E-06-6.94392E-19-1.11656E-18
 -1      1901 9.87985E-05-2.94285E-05-2.97190E-05 1.99528E-06-9.95717E-19-9.64945E-19
 -1      1902 9.76925E-05-2.90055E-05-2.94426E-05 2.17825E-06-4.94439E-20-1.33989E-18
 -1      1903 9.92168E-05-2.95473E-05-2.98551E-05 2.22648E-06-7.52451E-19-1.05893E-18
 -1      1904 9.98541E-05-2.97409E-05-3.00383E-05 2.40980E-06-4.29093E-19-9.43312E-19
 -1      1905 9.84526E-05-2.92091E-05-2.96814E-05 2.67674E-06-6.17435E-19-1.10822E-18
 -1      1906 1.00350E-04-2.98954E-05-3.01923E-05 2.63620E-06-7.89790E-19-5.14451E-19
 -1      1907 1.01091E-04-3.01374E-05-3.04011E-05 2.80318E-06-5.74182E-19-4.41894E-19
 -1      1908 9.93683E-05-2.94896E-05-2.99537E-05 3.18778E-06-6.23818E-19 2.08229E-19
 -1      1909 1.01663E-04-3.03371E-05-3.05669E-05 2.98773E-06-1.39338E-19-8.93535E-19
 -1      1910 1.02484E-04-3.06318E-05-3.07924E-05 3.09932E-06 2.69324E-19-6.56111E-19
 -1      1911 1.00446E-04-2.98731E-05-3.02507E-05 3.64754E-06-5.01525E-19 4.56163E-19
 -1      1912 1.03124E-04-3.08874E-05-3.09589E-05 3.18220E-06 3.08410E-19-9.79562E-19
 -1      1913 1.03974E-04-3.12339E-05-3.11833E-05 3.17733E-06 2.15427E-19-7.06210E-19
 -1      1914 1.01679E-04-3.03927E-05-3.05554E-05 3.94979E-06-4.61209E-20-1.15404E-18
 -1      1915 1.04661E-04-3.15558E-05-3.13332E-05 3.06958E-06 3.80170E-19-5.20212E-19
 -1      1916 1.05447E-04-3.19423E-05-3.15268E-05 2.86124E-06 7.99672E-19-3.00457E-19
 -1      1917 1.03041E-04-3.10855E-05-3.08407E-05 3.93194E-06 2.82466E-19-3.29567E-19
 -1      1918 1.06140E-04-3.23345E-05-3.16362E-05 2.44294E-06 6.75413E-19-1.90979E-19
 -1      1919 1.06718E-04-3.27268E-05-3.17563E-05 1.92207E-06 6.77104E-19-2.39945E-19
 -1      1920 1.04476E-04-3.19814E-05-3.10688E-05 3.36607E-06 7.67261E-19 1.08959E-19
 -1      1921 1.07346E-04-3.31724E-05-3.17970E-05 1.05381E-06 1.19913E-18-4.04726E-19
 -1      1922 1.07510E-04-3.34974E-05-3.17892E-05 1.11505E-07 6.13603E-19-9.72632E-20
 -1      1923 1.05874E-04-3.30736E-05-3.11949E-05 1.96844E-06 1.06736E-18-2.83068E-19
 -1      1924 1.07951E-04-3.39324E-05-3.17344E-05-1.32529E-06-1.44221E-19-6.05632E-19
 -1      1925 1.07449E-04-3.40565E-05-3.15420E-05-2.74290E-06-8.70101E-19-6.05906E-19
 -1      1926 1.07036E-04-3.42608E-05-3.11758E-05-5.46931E-07 1.42252E-19-1.25281E-19
 -1      1927 1.07506E-04-3.43345E-05-3.13767E-05-4.75805E-06-7.69715E-19-5.62102E-20
 -1      1928 1.06087E-04-3.40561E-05-3.09601E-05-6.55457E-06-1.03629E-18 5.87586E-19
 -1      1929 1.07628E-04-3.52595E-05-3.09872E-05-4.33443E-06-3.63146E-19 7.43753E-20
 -1      1930 1.05487E-04-3.39314E-05-3.06931E-05-8.91095E-06-1.53950E-18 1.22733E-18
 -1      1931 1.03011E-04-3.30221E-05-3.00567E-05-1.07291E-05-8.00598E-19 5.70424E-19
 -1      1932 1.07144E-04-3.55326E-05-3.06434E-05-9.17370E-06-1.27477E-18 1.62145E-18
 -1      1933 1.01487E-04-3.22110E-05-2.97268E-05-1.28108E-05-9.39479E-20 7.15154E-19
 -1      1934 9.80849E-05-3.05513E-05-2.89428E-05-1.39921E-05 1.50900E-18 5.61477E-19
 -1      1935 1.04987E-04-3.43542E-05-3.02083E-05-1.41645E-05-4.13590E-22 2.61077E-18
 -1      1936 9.55886E-05-2.89342E-05-2.86078E-05-1.48328E-05 2.10987E-18-6.15250E-19
 -1      1937 9.18152E-05-2.67321E-05-2.78169E-05-1.45908E-05 1.41707E-18 1.71127E-19
 -1      1938 1.00787E-04-3.11773E-05-2.97755E-05-1.75729E-05 9.78511E-19 1.57950E-18
 -1      1939 8.88056E-05-2.46376E-05-2.75252E-05-1.32706E-05 1.61407E-18 2.31386E-19
 -1      1940 8.56139E-05-2.25478E-05-2.69016E-05-1.11458E-05 2.93722E-18 1.75344E-18
 -1      1941 9.49541E-05-2.62956E-05-2.94113E-05-1.72372E-05 1.92400E-18 1.57208E-18
 -1      1942 8.30655E-05-2.07937E-05-2.66675E-05-7.49474E-06 2.59041E-18 1.77927E-18
 -1      1943 8.14740E-05-1.96947E-05-2.63564E-05-3.84503E-06 2.12620E-18 2.67039E-18
 -1      1944 8.90378E-05-2.12639E-05-2.90990E-05-1.18186E-05 2.88440E-18 1.55865E-18
 -1      1945 8.03598E-05-1.91465E-05-2.61589E-05 1.08178E-06 1.37705E-18 2.49883E-18
 -1      1946 8.09268E-05-1.95934E-05-2.62133E-05 5.00216E-06 1.30425E-18 2.54735E-18
 -1      1947 8.51916E-05-1.83527E-05-2.87394E-05-2.24272E-06 1.58526E-18 1.72082E-18
 -1      1948 8.14918E-05-2.05906E-05-2.60050E-05 9.43515E-06 1.02449E-18 2.08209E-18
 -1      1949 8.40504E-05-2.26156E-05-2.63175E-05 1.19877E-05 6.50799E-19 2.21221E-18
 -1      1950 8.46769E-05-1.89781E-05-2.82132E-05 8.15046E-06 8.06217E-19 2.06418E-18
 -1      1951 8.55960E-05-2.46408E-05-2.60203E-05 1.38562E-05 7.07157E-19 1.69708E-18
 -1      1952 8.91475E-05-2.77288E-05-2.63960E-05 1.36226E-05 2.97365E-19 1.54783E-18
 -1      1953 9.14228E-05-2.99016E-05-2.64026E-05 1.62403E-05-7.04189E-19 1.59916E-18
 -1      1954 8.72634E-05-2.35136E-05-2.73737E-05 1.49972E-05 4.99220E-19 1.64260E-18
 -1      1955 9.32265E-05-2.73669E-05-2.81976E-05 1.60112E-06 1.06021E-18 1.49536E-18
 -1      1956 9.44198E-05-2.74719E-05-2.86338E-05 2.67231E-06 1.10092E-18 1.93396E-18
 -1      1957 9.52423E-05-2.70506E-05-2.92304E-05 4.04913E-06 1.37788E-18 1.18512E-18
 -1      1958 9.21769E-05-2.73541E-05-2.77566E-05 3.44072E-07 9.80748E-19 9.47148E-19
 -1      1959 9.26698E-05-2.73859E-05-2.79286E-05 8.92340E-07 9.17224E-19 1.30625E-18
 -1      1960 9.36397E-05-2.73722E-05-2.84073E-05 1.58006E-06 1.16760E-18 7.12990E-19
 -1      1961 9.18038E-05-2.73925E-05-2.75892E-05-3.09405E-07 6.04441E-19 6.88840E-19
 -1      1962 9.19174E-05-2.73653E-05-2.76357E-05-1.67989E-08 7.60162E-19 8.78969E-19
 -1      1963 9.28105E-05-2.74879E-05-2.80054E-05 2.67091E-07 9.71527E-19 3.71424E-19
 -1      1964 9.18297E-05-2.74837E-05-2.75667E-05-6.34995E-07 4.15033E-19 2.33058E-19
 -1      1965 9.17404E-05-2.74213E-05-2.75499E-05-4.82188E-07 4.97829E-19 5.27306E-19
 -1      1966 9.24984E-05-2.75815E-05-2.78316E-05-4.26377E-07 6.40784E-19 2.80828E-20
 -1      1967 9.20757E-05-2.76064E-05-2.76227E-05-7.72265E-07 4.29821E-19-3.67086E-20
 -1      1968 9.18837E-05-2.75272E-05-2.75737E-05-7.01173E-07 4.18613E-19 8.64222E-20
 -1      1969 9.25033E-05-2.76872E-05-2.77865E-05-7.70910E-07 5.61501E-19-4.20157E-19
 -1      1970 9.24298E-05-2.77411E-05-2.77186E-05-7.98636E-07 3.73821E-19-4.51105E-19
 -1      1971 9.21937E-05-2.76574E-05-2.76551E-05-7.76705E-07 4.11525E-19-1.11458E-19
 -1      1972 9.26890E-05-2.78030E-05-2.78142E-05-9.10905E-07 5.70438E-19-5.52373E-19
 -1      1973 9.28221E-05-2.78746E-05-2.78309E-05-7.60668E-07 5.55717E-19-6.91945E-19
 -1      1974 9.25768E-05-2.77937E-05-2.77632E-05-7.68082E-07 4.85505E-19-4.54721E-19
 -1      1975 9.29661E-05-2.79203E-05-2.78809E-05-9.29623E-07 6.33457E-19-6.01567E-19
 -1      1976 9.32102E-05-2.79986E-05-2.79451E-05-6.87717E-07 1.03041E-19-6.75180E-19
 -1      1977 9.29762E-05-2.79248E-05-2.78796E-05-7.11801E-07 3.38443E-19-7.09235E-19
 -1      1978 9.32776E-05-2.80316E-05-2.79653E-05-8.78176E-07 5.16018E-19-5.41511E-19
 -1      1979 9.35697E-05-2.81088E-05-2.80527E-05-5.98672E-07 1.20195E-19-4.37555E-19
 -1      1980 9.33580E-05-2.80440E-05-2.79928E-05-6.31150E-07 1.06438E-19-5.81137E-19
 -1      1981 9.35883E-05-2.81323E-05-2.80543E-05-7.89138E-07 9.76993E-20-3.77429E-19
 -1      1982 9.38881E-05-2.82033E-05-2.81492E-05-5.05638E-07 5.19809E-19-4.12937E-19
 -1      1983 9.37038E-05-2.81483E-05-2.80967E-05-5.41113E-07 3.11401E-19-4.96061E-19
 -1      1984 9.38775E-05-2.82201E-05-2.81399E-05-6.83543E-07 2.80371E-19-8.43788E-19
 -1      1985 9.41607E-05-2.82821E-05-2.82327E-05-4.16189E-07 7.79079E-19-7.68266E-19
 -1      1986 9.40051E-05-2.82367E-05-2.81881E-05-4.51210E-07 7.09328E-19-4.51781E-19
 -1      1987 9.41346E-05-2.82942E-05-2.82179E-05-5.74865E-07 8.35969E-19-5.97853E-19
 -1      1988 9.43879E-05-2.83462E-05-2.83029E-05-3.34857E-07 1.88854E-19-1.07281E-18
 -1      1989 9.42598E-05-2.83096E-05-2.82660E-05-3.67289E-07 3.02485E-19-8.99079E-19
 -1      1990 9.43555E-05-2.83552E-05-2.82861E-05-4.71515E-07 4.92783E-19-4.34303E-19
 -1      1991 9.45732E-05-2.83972E-05-2.83607E-05-2.64178E-07-1.37814E-19-7.97448E-19
 -1      1992 9.44699E-05-2.83682E-05-2.83307E-05-2.92760E-07 2.49765E-20-9.76004E-19
 -1      1993 9.45403E-05-2.84040E-05-2.83442E-05-3.78524E-07 7.12992E-20-7.03689E-19
 -1      1994 9.47221E-05-2.84370E-05-2.84076E-05-2.05462E-07-3.05495E-19-9.06810E-19
 -1      1995 9.46401E-05-2.84145E-05-2.83836E-05-2.29475E-07-3.47639E-20-8.24465E-19
 -1      1996 9.46922E-05-2.84424E-05-2.83927E-05-2.98741E-07-8.29224E-20-9.19984E-19
 -1      1997 9.48413E-05-2.84677E-05-2.84456E-05-1.59367E-07 5.61967E-19-1.27460E-18
 -1      1998 9.47765E-05-2.84505E-05-2.84264E-05-1.78387E-07 1.08329E-19-1.14097E-18
 -1      1999 9.48156E-05-2.84721E-05-2.84329E-05-2.33710E-07 2.63317E-19-9.96018E-19
 -1      2000 9.49381E-05-2.84917E-05-2.84768E-05-1.26343E-07 4.18637E-19-1.45380E-18
 -1      2001 9.48863E-05-2.84784E-05-2.84612E-05-1.40042E-07 5.40402E-19-1.44008E-18
 -1      2002 9.49166E-05-2.84948E-05-2.84664E-05-1.84343E-07 7.72780E-19-1.22833E-18
 -1      2003 9.50208E-05-2.85111E-05-2.85038E-05-1.06970E-07-7.60035E-19-1.89245E-18
 -1      2004 9.49772E-05-2.85004E-05-2.84905E-05-1.14964E-07-2.11481E-19-1.93560E-18
 -1      2005 9.50017E-05-2.85126E-05-2.84954E-05-1.51424E-07 4.73560E-20-1.49786E-18
 -1      2006 9.50980E-05-2.85285E-05-2.85293E-05-1.02237E-07-2.33136E-19-2.34402E-18
 -1      2007 9.50578E-05-2.85189E-05-2.85168E-05-1.03958E-07-2.47740E-19-1.97545E-18
 -1      2008 9.50783E-05-2.85273E-05-2.85220E-05-1.36007E-07-1.93400E-19-2.08208E-18
 -1      2009 9.51797E-05-2.85465E-05-2.85564E-05-1.13762E-07-4.32160E-19-2.63299E-18
 -1      2010 9.51373E-05-2.85364E-05-2.85430E-05-1.08350E-07-3.11776E-19-2.84174E-18
 -1      2011 9.51546E-05-2.85412E-05-2.85489E-05-1.39742E-07-1.70991E-19-2.43411E-18
 -1      2012 9.52771E-05-2.85681E-05-2.85886E-05-1.43987E-07 7.07252E-19-2.95996E-18
 -1      2013 9.52262E-05-2.85557E-05-2.85724E-05-1.30195E-07 1.93282E-19-2.47115E-18
 -1      2014 9.52400E-05-2.85564E-05-2.85792E-05-1.65136E-07 1.57019E-19-2.48447E-18
 -1      2015 9.54033E-05-2.85967E-05-2.86299E-05-1.96342E-07 6.83182E-19-3.21243E-18
 -1      2016 9.53365E-05-2.85801E-05-2.86088E-05-1.72446E-07 8.54617E-19-3.08620E-18
 -1      2017 9.53452E-05-2.85757E-05-2.86163E-05-2.15771E-07 8.99297E-19-3.19024E-18
 -1      2018 9.55738E-05-2.86367E-05-2.86853E-05-2.75375E-07-1.73689E-18-2.14449E-18
 -1      2019 9.54824E-05-2.86133E-05-2.86566E-05-2.39100E-07-7.37798E-19-2.76582E-18
 -1      2020 9.54826E-05-2.86022E-05-2.86642E-05-2.96490E-07-6.53885E-19-2.61088E-18
 -1      2021 9.58072E-05-2.86931E-05-2.87604E-05-3.86845E-07-1.68606E-18 3.81281E-20
 -1      2022 9.56807E-05-2.86598E-05-2.87211E-05-3.35305E-07-2.08258E-18-1.42099E-18
 -1      2023 9.56673E-05-2.86396E-05-2.87277E-05-4.13525E-07-2.31557E-18-1.21529E-18
 -1      2024 9.61259E-05-2.87721E-05-2.88622E-05-5.37736E-07-7.37816E-19 7.19266E-19
 -1      2025 9.59516E-05-2.87252E-05-2.88084E-05-4.67398E-07-7.88174E-19 6.14640E-19
 -1      2026 9.59167E-05-2.86924E-05-2.88125E-05-5.74549E-07-1.29686E-18-2.31949E-19
 -1      2027 9.65562E-05-2.88811E-05-2.89987E-05-7.36119E-07 5.34101E-19 1.10128E-18
 -1      2028 9.63189E-05-2.88161E-05-2.89261E-05-6.42838E-07-4.60276E-20 6.84575E-19
 -1      2029 9.62518E-05-2.87664E-05-2.89251E-05-7.88584E-07-1.14793E-19 4.43138E-19
 -1      2030 9.71290E-05-2.90293E-05-2.91793E-05-9.90743E-07-1.22478E-19-2.01341E-19
 -1      2031 9.68108E-05-2.89407E-05-2.90826E-05-8.69916E-07 2.72180E-19 4.43121E-19
 -1      2032 9.66967E-05-2.88681E-05-2.90729E-05-1.06566E-06 4.39008E-19 1.07475E-19
 -1      2033 9.78792E-05-2.92274E-05-2.94145E-05-1.31012E-06-3.22956E-20-3.02424E-19
 -1      2034 9.74596E-05-2.91087E-05-2.92877E-05-1.15707E-06-2.27979E-19-3.60505E-19
 -1      2035 9.72789E-05-2.90060E-05-2.92642E-05-1.41599E-06 8.09926E-20-5.31339E-19
 -1      2036 9.88449E-05-2.94880E-05-2.97151E-05-1.70071E-06 6.62613E-20 6.07025E-19
 -1      2037 9.83016E-05-2.93316E-05-2.95521E-05-1.51151E-06 6.18384E-20-1.12698E-19
 -1      2038 9.80289E-05-2.91900E-05-2.95077E-05-1.84834E-06 1.52458E-19 1.71921E-19
 -1      2039 1.00064E-04-2.98255E-05-3.00918E-05-2.16344E-06 1.45026E-19 2.44475E-19
 -1      2040 9.93748E-05-2.96231E-05-2.98863E-05-1.93652E-06 2.65187E-19 5.06156E-19
 -1      2041 9.89783E-05-2.94327E-05-2.98117E-05-2.36691E-06 9.95082E-20 8.06161E-19
 -1      2042 1.01571E-04-3.02563E-05-3.05524E-05-2.68758E-06 3.18976E-19-3.44553E-19
 -1      2043 1.00716E-04-2.99990E-05-3.02997E-05-2.42672E-06-6.83086E-20-3.00970E-19
 -1      2044 1.00158E-04-2.97496E-05-3.01825E-05-2.96578E-06 4.46603E-19-3.77811E-19
 -1      2045 1.03385E-04-3.07975E-05-3.10987E-05-3.24015E-06 4.33282E-19 8.92197E-21
 -1      2046 1.02353E-04-3.04770E-05-3.07973E-05-2.95968E-06 2.70194E-19 3.00697E-20
 -1      2047 1.01591E-04-3.01605E-05-3.06220E-05-3.61935E-06 2.98571E-19 3.91972E-20
 -1      2048 1.05494E-04-3.14665E-05-3.17200E-05-3.74883E-06-8.64999E-20 5.24555E-19
 -1      2049 1.04297E-04-3.10770E-05-3.13754E-05-3.48230E-06 2.56113E-19 9.46975E-19
 -1      2050 1.03290E-04-3.06914E-05-3.11238E-05-4.26672E-06-1.54244E-19 6.31886E-19
 -1      2051 1.07835E-04-3.22764E-05-3.23846E-05-4.07700E-06 1.47962E-18 3.54986E-19
 -1      2052 1.06520E-04-3.18187E-05-3.20147E-05-3.89012E-06 6.46971E-19 8.28355E-19
 -1      2053 1.05240E-04-3.13758E-05-3.16672E-05-4.78808E-06 6.30011E-19 8.36847E-19
 -1      2054 1.10255E-04-3.32279E-05-3.30282E-05-3.99263E-06 5.44914E-19 3.54166E-19
 -1      2055 1.08931E-04-3.27168E-05-3.26703E-05-3.99990E-06 1.17810E-18 4.31266E-19
 -1      2056 1.07386E-04-3.22537E-05-3.22106E-05-4.97328E-06 1.33022E-18 1.78157E-18
 -1      2057 1.12465E-04-3.42871E-05-3.35417E-05-3.14409E-06-3.33513E-19-6.54578E-19
 -1      2058 1.11335E-04-3.37665E-05-3.32610E-05-3.52261E-06 3.20132E-19-6.63875E-19
 -1      2059 1.09604E-04-3.33600E-05-3.26844E-05-4.48975E-06 9.32573E-19 1.39113E-18
 -1      2060 1.13997E-04-3.53399E-05-3.37688E-05-1.07942E-06-2.19024E-19-5.98773E-19
 -1      2061 1.13379E-04-3.49069E-05-3.36607E-05-2.06089E-06-8.05654E-19-9.39366E-19
 -1      2062 1.11660E-04-3.46870E-05-3.29899E-05-2.87513E-06-1.86969E-19 4.45119E-19
 -1      2063 1.14165E-04-3.61090E-05-3.35246E-05 2.61439E-06-1.50751E-18 3.97615E-19
 -1      2064 1.14496E-04-3.59479E-05-3.37051E-05 8.14010E-07-1.09908E-18-5.16495E-19
 -1      2065 1.13155E-04-3.60926E-05-3.30120E-05 3.87106E-07-1.19703E-18-5.46303E-19
 -1      2066 1.12118E-04-3.60625E-05-3.26575E-05 7.96093E-06 2.64962E-19 1.86943E-18
 -1      2067 1.13875E-04-3.64638E-05-3.32256E-05 5.32109E-06-5.71469E-19 1.44691E-18
 -1      2068 1.13447E-04-3.71527E-05-3.26556E-05 5.61102E-06-1.41825E-18 9.05754E-19
 -1      2069 1.07057E-04-3.44313E-05-3.11497E-05 1.40171E-05-3.66567E-19 2.71066E-18
 -1      2070 1.10566E-04-3.57266E-05-3.21234E-05 1.10100E-05 1.64907E-19 2.69550E-18
 -1      2071 1.11647E-04-3.70252E-05-3.19049E-05 1.23977E-05-1.04688E-19 2.05394E-18
 -1      2072 9.88195E-05-3.06254E-05-2.92065E-05 1.84538E-05-1.19776E-18 2.00662E-18
 -1      2073 1.03914E-04-3.29378E-05-3.04603E-05 1.62418E-05-9.93583E-19 2.13357E-18
 -1      2074 1.06903E-04-3.46597E-05-3.08709E-05 1.89822E-05-7.15366E-19 3.19796E-18
 -1      2075 8.87202E-05-2.50974E-05-2.72441E-05 1.81630E-05 1.75082E-18 1.20448E-18
 -1      2076 9.44268E-05-2.79720E-05-2.85031E-05 1.82570E-05-3.05590E-19 1.70704E-18
 -1      2077 9.92028E-05-2.96252E-05-2.97677E-05 2.21423E-05 2.28361E-19 1.36085E-18
 -1      2078 7.99004E-05-1.99477E-05-2.57249E-05 1.14155E-05 3.27876E-18 8.15653E-19
 -1      2079 8.44813E-05-2.22502E-05-2.66624E-05 1.45760E-05 2.92295E-18 1.90921E-18
 -1      2080 9.03348E-05-2.32383E-05-2.87966E-05 1.86512E-05 2.64801E-18 2.17346E-18
 -1      2081 7.59283E-05-1.78710E-05-2.49552E-05 1.99994E-07 2.40102E-18-6.26487E-19
 -1      2082 7.76838E-05-1.84686E-05-2.53252E-05 5.39795E-06 2.76247E-18 8.56579E-19
 -1      2083 8.36856E-05-1.85382E-05-2.80209E-05 8.20587E-06 2.63962E-18 2.42196E-18
 -1      2084 7.79452E-05-1.97222E-05-2.50345E-05-1.05193E-05 3.74097E-19-1.71249E-18
 -1      2085 7.64084E-05-1.84482E-05-2.47742E-05-5.56552E-06 1.20130E-18-9.87746E-19
 -1      2086 8.18154E-05-1.79600E-05-2.74399E-05-5.03754E-06 1.96067E-18-5.89634E-19
 -1      2087 8.42161E-05-2.45944E-05-2.55841E-05-1.59978E-05-2.78550E-18-1.14143E-18
 -1      2088 8.02933E-05-2.18844E-05-2.49783E-05-1.36046E-05-1.36302E-18-2.04249E-18
 -1      2089 8.45027E-05-2.16126E-05-2.69784E-05-1.51603E-05-1.27584E-20-1.81474E-18
 -1      2090 9.08611E-05-2.99993E-05-2.60356E-05-1.46274E-05 4.90366E-19-9.11275E-19
 -1      2091 8.61584E-05-2.63934E-05-2.55467E-05-1.60197E-05-1.85089E-18-1.41108E-18
 -1      2092 8.90620E-05-2.68596E-05-2.66219E-05-1.85773E-05-1.97887E-18-2.15101E-18
 -1      2093 9.36293E-05-3.30390E-05-2.58487E-05-1.69184E-05-1.09717E-18-1.95134E-18
 -1      2094 1.18412E-04-4.51121E-05-3.11508E-05 9.72534E-06-7.92307E-19 3.28225E-20
 -1      2095 1.13603E-04-4.46285E-05-2.98408E-05-1.77002E-06-2.71236E-19 8.83985E-19
 -1      2096 1.07240E-04-4.10742E-05-2.81222E-05-1.04363E-05 3.06613E-19 5.56818E-19
 -1      2097 1.02367E-04-3.80776E-05-2.76201E-05-1.57956E-05 3.63430E-19 7.25801E-20
 -1      2098 1.13836E-04-3.67990E-05-3.30821E-05-8.02491E-06-1.58554E-19 3.15784E-19
 -1      2099 9.96547E-05-3.77380E-05-2.63895E-05-1.76250E-05-5.12667E-19 1.03803E-18
 -1      2100 9.58256E-05-3.39046E-05-2.65191E-05-1.76323E-05-1.42651E-18-4.36301E-19
 -1      2101 9.42371E-05-3.09248E-05-2.71811E-05-1.93306E-05-1.73234E-18-1.55274E-18
 -1      2102 1.01418E-04-3.26583E-05-2.95845E-05-1.82160E-05-5.01235E-19 1.42871E-18
 -1      2103 1.25494E-04-4.63088E-05-3.37923E-05 3.68935E-05-6.59005E-19-4.70315E-19
 -1      2104 1.23943E-04-4.94366E-05-3.23345E-05 2.28489E-05-8.22893E-19 9.11513E-19
 -1      2105 1.30148E-04-4.50113E-05-3.64727E-05 1.42785E-05-4.65974E-19 3.92494E-19
 -1      2106 1.21078E-04-4.08677E-05-3.42322E-05 6.46444E-05-1.17393E-18-3.71191E-18
 -1      2107 1.26668E-04-4.89504E-05-3.34689E-05 5.30329E-05-1.10591E-18-2.14898E-18
 -1      2108 1.39575E-04-5.23593E-05-3.72109E-05 4.37022E-05-7.09192E-19-9.55983E-19
 -1      2109 5.96061E-05-1.71227E-06-2.46215E-05-6.34590E-05 6.14946E-19 4.59939E-19
 -1      2110 4.45368E-05 9.11635E-06-2.33557E-05-4.06189E-05 6.21722E-19 1.61275E-18
 -1      2111 1.22694E-04-4.67293E-05-3.22976E-05-6.22743E-05-1.70116E-18-1.41787E-18
 -1      2112 1.11890E-04-3.39369E-05-3.33983E-05-7.52047E-05-1.14535E-18-2.48731E-18
 -1      2113 1.22225E-04-5.17467E-05-3.05804E-05-2.51925E-05-2.35587E-18 1.20543E-18
 -1      2114 1.22879E-04-4.58674E-05-3.27513E-05-4.30645E-05-1.90884E-18 7.87211E-19
 -1      2115 1.11957E-04-4.62105E-05-2.84212E-05 1.87534E-06-2.59790E-18-5.85035E-19
 -1      2116 1.17171E-04-4.64619E-05-2.99668E-05-9.27564E-06-2.50670E-18-3.19543E-19
 -1      2117 1.02601E-04-4.06722E-05-2.65941E-05 1.41869E-05-2.96102E-18-2.07531E-18
 -1      2118 1.06714E-04-4.33134E-05-2.68953E-05 9.52082E-06-2.27145E-18-1.13047E-18
 -1      2119 1.11718E-04-3.67670E-05-3.22079E-05 6.80067E-06-1.49950E-18-8.95102E-19
 -1      2120 9.69675E-05-3.62006E-05-2.60868E-05 1.74244E-05-1.75884E-18 8.64602E-19
 -1      2121 1.00114E-04-3.96335E-05-2.57519E-05 1.64698E-05-1.33739E-18-1.04300E-18
 -1      2122 1.00571E-04-3.24117E-05-2.92470E-05 1.68794E-05-8.05763E-19-5.19893E-19
 -1      2123 9.58757E-05-4.38963E-05-2.26995E-05 8.24972E-05 2.16840E-18 3.31465E-18
 -1      2124 7.49222E-05-4.29805E-05-1.54339E-05 7.37389E-05 8.14846E-19 2.81469E-18
 -1      2125 4.96763E-05-2.53893E-05-1.22638E-05 6.56040E-05 3.29496E-19 1.08081E-18
 -1      2126 3.66763E-05-2.58747E-05-7.42755E-06 3.98986E-05-2.28699E-19 6.19181E-19
 -1      2127 1.36325E-04-4.32416E-05-3.89320E-05 7.74548E-05 2.47927E-18 1.50306E-18
 -1      2128 1.15556E-04-4.86812E-05-2.94690E-05 7.49397E-05 2.65714E-18 1.96512E-18
 -1      2129 6.28726E-05-4.23355E-05-1.13724E-05-6.82563E-05-1.45605E-18-2.76599E-18
 -1      2130 7.50462E-05-3.82138E-05-1.73018E-05-8.07991E-05 4.91279E-20-3.92960E-18
 -1      2131 5.98228E-05-2.65501E-05-1.56433E-05-7.35134E-05 5.47183E-19-1.04693E-18
 -1      2132 1.96551E-04-2.75542E-05-7.06232E-05 4.57235E-05 1.39030E-18 7.95787E-19
 -1      2133 1.78744E-04-2.87652E-05-6.35923E-05 4.87801E-05 2.69002E-18 5.48877E-19
 -1      2134 1.71050E-04-3.60243E-05-5.63752E-05 6.18521E-05 2.91570E-18 2.77827E-19
 -1      2135 1.50789E-04-4.07433E-05-4.69607E-05 6.31578E-05 2.69187E-18 4.03188E-19
 -1      2136 8.72468E-05-8.72202E-06-3.37490E-05-1.05369E-05-1.17330E-18-2.38798E-18
 -1      2137 8.79532E-05-9.23979E-06-3.38214E-05-1.20926E-05-1.38572E-18-2.06073E-18
 -1      2138 9.04856E-05-1.30492E-05-3.32362E-05-1.18706E-05-1.51518E-18-1.71888E-18
 -1      2139 8.86843E-05-1.10558E-05-3.32949E-05-9.41029E-06-1.15097E-18-2.31305E-18
 -1      2140 2.11618E-04-2.36180E-05-7.89527E-05 3.21786E-05 1.28876E-18-1.56087E-18
 -1      2141 2.02921E-04-2.26974E-05-7.58464E-05 4.15459E-05 1.48400E-18-4.94667E-19
 -1      2142 2.15614E-04-2.52652E-05-8.02246E-05 1.78419E-05 8.76679E-20-8.17281E-19
 -1      2143 2.14953E-04-2.30364E-05-8.06409E-05 2.76896E-05 1.98206E-19-1.73377E-18
 -1      2144 2.03654E-04-3.10107E-05-7.33072E-05 5.31313E-06 1.74912E-18-2.56651E-18
 -1      2145 2.12941E-04-2.87767E-05-7.74782E-05 1.39492E-05 1.23921E-18-9.89758E-19
 -1      2146 1.84016E-04-4.25506E-05-6.06300E-05-7.12208E-06 1.86803E-18-8.66515E-19
 -1      2147 2.00723E-04-3.96716E-05-6.78598E-05-6.54051E-07 1.16001E-18-1.27987E-18
 -1      2148 1.55805E-04-5.57292E-05-4.31015E-05-1.75277E-05 3.95480E-18 1.62419E-18
 -1      2149 1.77819E-04-5.06468E-05-5.33794E-05-1.71327E-05 2.94767E-18 6.13675E-19
 -1      2150 1.75376E-04-4.93330E-05-5.35288E-05 7.82291E-06 1.35372E-18 4.16317E-19
 -1      2151 1.06640E-04-5.79601E-05-2.18973E-05-3.43495E-05 3.76930E-18-2.11928E-18
 -1      2152 1.34156E-04-6.03521E-05-3.20765E-05-3.22663E-05 3.87433E-18 1.28495E-18
 -1      2153 6.64044E-05-5.65144E-05-5.89759E-06-3.39171E-05 1.91768E-18-5.06367E-18
 -1      2154 8.56276E-05-5.37638E-05-1.41667E-05-4.04214E-05 3.18230E-18-3.93320E-18
 -1      2155 3.47413E-05-5.31447E-05 6.24906E-06-2.58156E-05 1.48273E-18-5.86359E-18
 -1      2156 4.73475E-05-5.11456E-05 6.07231E-07-3.27683E-05 2.08709E-18-5.75749E-18
 -1      2157 1.59431E-05-4.61019E-05 1.17103E-05-9.20245E-06 5.48242E-19-3.37966E-18
 -1      2158 2.24068E-05-4.68130E-05 9.37506E-06-1.90198E-05 1.45181E-18-5.51503E-18
 -1      2159 1.70305E-05-4.84506E-05 1.19471E-05 1.34808E-05-4.25211E-19 8.37716E-19
 -1      2160 1.29862E-05-4.63624E-05 1.29351E-05 4.36502E-06-1.59150E-19-4.64174E-19
 -1      2161 3.65139E-05-4.77859E-05 3.93211E-06 3.16775E-05-6.39510E-19 2.65079E-18
 -1      2162 2.60231E-05-5.16928E-05 9.21058E-06 2.18566E-05-7.60636E-19 2.12055E-18
 -1      2163 7.29254E-05-5.13850E-05-9.80996E-06 4.10083E-05-4.35375E-19 1.05869E-18
 -1      2164 5.66334E-05-5.42794E-05-2.37913E-06 3.53611E-05-5.80641E-19 7.76306E-19
 -1      2165 1.16730E-04-5.43330E-05-2.67141E-05 4.10102E-05-2.41404E-19 1.71990E-18
 -1      2166 9.30133E-05-5.57594E-05-1.71623E-05 3.74882E-05-1.08632E-18 1.47913E-18
 -1      2167 1.60558E-04-4.94172E-05-4.67758E-05 3.08733E-05 1.67543E-18 1.44419E-19
 -1      2168 1.36673E-04-5.24746E-05-3.66939E-05 2.97194E-05 5.75982E-19 9.59688E-19
 -1      2169 1.91618E-04-4.23237E-05-6.29014E-05 1.44809E-05 2.39583E-18 4.84503E-19
 -1      2170 1.71453E-04-4.33958E-05-5.48038E-05 2.14197E-05 2.23246E-18 9.91029E-19
 -1      2171 2.11655E-04-3.29361E-05-7.51976E-05-4.99721E-06 2.11419E-18-1.26631E-19
 -1      2172 1.96723E-04-3.34872E-05-6.94116E-05 3.81786E-06 3.12407E-18 2.95614E-19
 -1      2173 2.11724E-04-2.30594E-05-7.96045E-05-2.28587E-05 1.69788E-18-2.51953E-18
 -1      2174 2.08695E-04-2.52529E-05-7.76793E-05-1.19774E-05 2.39033E-18-7.33954E-19
 -1      2175 2.02131E-04-1.80011E-05-7.78981E-05-3.61478E-05 1.26758E-18-2.63766E-18
 -1      2176 2.13828E-04-2.25948E-05-8.03579E-05-2.79587E-05 2.65121E-19-3.23376E-18
 -1      2177 1.86966E-04-2.28167E-05-6.91536E-05-5.07733E-05 2.29197E-18-1.33492E-18
 -1      2178 1.97458E-04-2.19844E-05-7.38178E-05-4.17455E-05 1.48824E-18-1.85161E-18
 -1      2179 1.64079E-04-3.13597E-05-5.62349E-05-5.86307E-05 1.79402E-18-1.16128E-18
 -1      2180 1.82021E-04-2.78580E-05-6.41483E-05-5.88075E-05 2.26798E-18-7.77576E-19
 -1      2181 1.75176E-04-2.81344E-05-6.17873E-05-3.33970E-05 5.89429E-19 1.66865E-19
 -1      2182 1.32681E-04-4.09041E-05-3.93431E-05-7.36561E-05-1.37219E-19-3.15520E-18
 -1      2183 1.52189E-04-3.67362E-05-4.82296E-05-7.33378E-05 8.59315E-19-2.28402E-18
 -1      2184 1.01302E-04-4.69875E-05-2.45024E-05-7.76685E-05-3.33731E-19-4.39822E-18
 -1      2185 1.19818E-04-4.13621E-05-3.28173E-05-8.24423E-05 1.91429E-19-3.37416E-18
 -1      2186 1.38664E-04-5.29444E-05-3.62700E-05-7.67179E-05-5.69206E-19-2.57794E-18
 -1      2187 1.72755E-04-4.01137E-05-5.59980E-05 3.68867E-05 2.84127E-18-5.80218E-20
 -1      2188 2.39691E-05-2.23276E-05-4.49920E-06-1.25189E-05 3.60624E-19 3.66596E-18
 -1      2189 3.52205E-05-7.89048E-06-1.34227E-05-3.08719E-05 1.13545E-18 2.55380E-18
 -1      2190 3.87404E-05 1.86049E-05-2.43910E-05-9.24082E-06-4.45275E-19 2.17349E-18
 -1      2191 2.48825E-05-2.02987E-05-5.16257E-06 1.41835E-05 5.59677E-19 2.54110E-18
 -1      2192 9.71982E-05-2.43177E-05-3.13079E-05-9.99856E-06-1.76953E-18 8.16857E-19
 -1      2193 9.63561E-05-2.31084E-05-3.14580E-05-1.03803E-05-1.88062E-18-6.23363E-20
 -1      2194 1.26278E-04-4.54561E-05-3.48245E-05-1.74540E-05-1.25056E-18 4.51363E-19
 -1      2195 1.31992E-04-5.08207E-05-3.48096E-05-5.48686E-05-8.27604E-19-6.39298E-19
 -1      2196 6.93828E-05-8.65742E-06-2.62944E-05-7.61278E-05 1.06345E-18-1.81858E-18
 -1      2197 9.28979E-05-2.08326E-05-3.08828E-05 8.10007E-05-8.45551E-19 2.79013E-18
 -1      2198 1.09072E-04-3.51564E-05-3.12018E-05 7.68094E-05-1.92806E-18 8.75832E-19
 -1      2199 5.00935E-05 1.17279E-05-2.67102E-05 5.18145E-05-7.69106E-19 2.00323E-19
 -1      2200 6.88038E-05-2.71402E-06-2.76116E-05 6.72016E-05-1.07753E-18 2.21541E-18
 -1      2201 4.20430E-05 1.60089E-05-2.48957E-05 2.33340E-05-1.32508E-19-1.06726E-19
 -1      2202 9.09414E-05-2.54005E-05-2.76360E-05-8.12724E-05 2.44793E-19-2.62178E-18
 -1      2203 9.52864E-05-3.30294E-05-2.67219E-05 1.71111E-05-8.18975E-19 1.00843E-18
 -1      2204 1.18065E-04-5.09841E-05-2.87774E-05 8.30683E-05 1.96173E-18 2.30689E-18
 -1      2205 9.83662E-05-4.47015E-05-2.40737E-05-8.51150E-05-1.91429E-19-4.17158E-18
 -1      2206 1.62245E-04-4.38592E-05-4.99378E-05-5.49241E-05-2.00535E-19 4.99749E-20
 -1      2207 3.82554E-05-2.27992E-06-1.63610E-05 3.16677E-05-9.63076E-19 7.00496E-19
 -1      2208 1.81703E-04-1.37299E-05-7.06508E-05-2.48039E-05 1.35991E-18-2.51908E-18
 -1      2209 1.81652E-04-6.76789E-06-7.35588E-05-2.11963E-05 1.89312E-18-1.54030E-18
 -1      2210 1.83267E-04-1.54344E-05-7.07142E-05-1.79660E-05 3.49782E-18 7.45177E-19
 -1      2211 1.82948E-04-3.49633E-05-6.23915E-05-7.06916E-06 2.54195E-18 1.79571E-19
 -1      2212 1.67875E-04-5.32695E-05-4.84698E-05 8.53529E-06 1.14450E-18-2.20229E-19
 -1      2213 1.38839E-04-6.48709E-05-3.15137E-05 2.77202E-05 1.13291E-19 1.44038E-18
 -1      2214 9.78436E-05-6.22493E-05-1.53829E-05 4.19353E-05-2.37169E-20 1.48363E-18
 -1      2215 5.50420E-05-5.12450E-05-2.15982E-06 3.98409E-05 4.31140E-19 2.34035E-18
 -1      2216 2.39945E-05-3.99377E-05 6.08936E-06 2.35972E-05 6.39298E-19 1.87152E-18
 -1      2217 1.61954E-05-3.56694E-05 7.72993E-06-3.72625E-06 2.21219E-18-2.02399E-18
 -1      2218 3.36009E-05-4.36901E-05 3.61629E-06-2.87916E-05 2.19805E-18-6.18503E-18
 -1      2219 6.85778E-05-5.67821E-05-5.62588E-06-4.03315E-05 1.17187E-18-5.25266E-18
 -1      2220 1.50582E-04-6.37008E-05-3.70084E-05-1.93658E-05 3.80297E-18 2.02441E-18
 -1      2221 1.60352E-04-6.62978E-05-4.08935E-05-2.22449E-06 2.29705E-18 2.26073E-18
 -1      2222 1.44230E-04-7.06323E-05-3.10585E-05-1.95189E-05 2.28911E-18 2.12521E-18
 -1      2223 1.82934E-04-2.80447E-05-6.53572E-05 1.81182E-05 6.32522E-19-2.45555E-18
 -1      2224 1.26633E-04-5.03393E-05-3.26271E-05 7.47399E-05-4.11658E-19-1.66633E-18
 -1      2225 1.53284E-04-5.42966E-05-4.18338E-05 6.24792E-05 2.50976E-18 1.82112E-20
 -1      2226 6.96861E-05-2.76074E-05-1.97377E-05 7.57387E-05 9.08866E-19 2.30689E-18
 -1      2227 1.81384E-04-2.11033E-05-6.73387E-05 2.30573E-05 1.86750E-18-1.90582E-20
 -1      2228 1.87084E-04-1.33873E-05-7.30404E-05 2.03401E-05 7.89011E-19-1.52085E-18
 -1      2229 1.88361E-04-1.18039E-05-7.40891E-05 2.08903E-05 1.07277E-18-1.57358E-18
 -1      2230 1.10892E-04-6.61955E-05-1.90171E-05-3.69736E-05 2.39837E-18-2.09164E-18
 -1      2231 9.52234E-05-2.63789E-05-2.94916E-05 4.19105E-06 1.42928E-18 3.60515E-19
 -1      2232 9.61973E-05-2.58642E-05-3.00693E-05 5.99652E-06 1.59147E-18 6.09305E-19
 -1      2233 8.81273E-05-1.11786E-05-3.30172E-05-3.65947E-06-3.51274E-19-2.60152E-18
 -1      2234 8.83619E-05-1.14487E-05-3.29996E-05-4.79993E-06-5.52571E-19-2.60707E-18
 -1      2235 8.87135E-05-1.19313E-05-3.29514E-05-5.81682E-06-7.15403E-19-2.50730E-18
 -1      2236 8.91221E-05-1.24051E-05-3.29234E-05-6.98834E-06-9.24838E-19-2.39260E-18
 -1      2237 8.98816E-05-1.38180E-05-3.25977E-05-4.90162E-06-5.73991E-19-2.36136E-18
 -1      2238 8.77810E-05-1.07199E-05-3.30602E-05 6.15294E-07 3.52424E-19-2.63501E-18
 -1      2239 8.77766E-05-1.07150E-05-3.30604E-05-4.95283E-07 1.49779E-19-2.60422E-18
 -1      2240 8.79626E-05-1.09451E-05-3.30419E-05 2.75642E-06 7.61110E-19-2.55275E-18
 -1      2241 8.78474E-05-1.08119E-05-3.30511E-05 1.63746E-06 5.33678E-19-2.58532E-18
 -1      2242 8.90983E-05-1.27658E-05-3.27171E-05 1.04914E-06 4.66173E-19-2.42979E-18
 -1      2243 8.83982E-05-1.14926E-05-3.29970E-05 4.88483E-06 1.08506E-18-2.54840E-18
 -1      2244 8.81580E-05-1.12156E-05-3.30149E-05 3.76204E-06 8.62779E-19-2.58030E-18
 -1      2245 8.93649E-05-1.31219E-05-3.26773E-05 3.01930E-06 7.67146E-19-2.50466E-18
 -1      2246 8.91795E-05-1.24759E-05-3.29188E-05 7.07150E-06 1.49024E-18-2.17581E-18
 -1      2247 8.87605E-05-1.19891E-05-3.29476E-05 5.90013E-06 1.29428E-18-2.37780E-18
 -1      2248 8.99237E-05-1.38705E-05-3.25933E-05 4.97255E-06 1.22566E-18-2.32669E-18
 -1      2249 9.04517E-05-1.40858E-05-3.27925E-05 9.21912E-06 1.76282E-18-1.74096E-18
 -1      2250 8.97698E-05-1.32743E-05-3.28375E-05 8.04070E-06 1.53153E-18-1.97907E-18
 -1      2251 9.08611E-05-1.51308E-05-3.24489E-05 6.86757E-06 1.51650E-18-1.99707E-18
 -1      2252 9.24527E-05-1.66591E-05-3.25834E-05 1.11030E-05 2.00647E-18-1.17950E-18
 -1      2253 9.13725E-05-1.53185E-05-3.26551E-05 1.00229E-05 1.82730E-18-1.46570E-18
 -1      2254 9.22872E-05-1.70860E-05-3.22085E-05 8.51193E-06 1.66862E-18-1.50663E-18
 -1      2255 9.59154E-05-2.50930E-05-3.03067E-05-6.18934E-06-1.59002E-18-3.94272E-19
 -1      2256 9.52613E-05-2.58484E-05-2.97626E-05-4.26939E-06-1.42517E-18-5.19386E-19
 -1      2257 1.60034E-04-1.33933E-05-6.32026E-05-1.52580E-05 8.40257E-19-9.34066E-19
 -1      2258 1.61813E-04-7.08122E-06-6.67591E-05-1.43978E-05 7.03037E-20-1.92594E-18
 -1      2259 9.71099E-05-2.45917E-05-3.11991E-05 1.69709E-05 1.70432E-19-1.10379E-19
 -1      2260 1.02101E-04-2.60763E-05-3.25719E-05 1.43416E-05-4.62275E-19-1.16626E-19
 -1      2261 9.42442E-05-2.71192E-05-2.87511E-05 1.76035E-06 1.23319E-18-1.20024E-20
 -1      2262 9.48439E-05-2.68955E-05-2.90494E-05 2.73351E-06 1.26318E-18 2.61349E-19
 -1      2263 9.53452E-05-2.58488E-05-2.97921E-05 4.35644E-06 1.53028E-18-2.55311E-19
 -1      2264 9.50783E-05-2.00256E-05-3.22138E-05-1.17457E-05-1.85502E-18-6.86838E-19
 -1      2265 9.54773E-05-2.33679E-05-3.09297E-05-7.96234E-06-1.73480E-18-5.34198E-19
 -1      2266 9.50771E-05-2.25540E-05-3.10557E-05-7.65205E-06-1.63372E-18-8.05998E-19
 -1      2267 9.32219E-05-1.76226E-05-3.24168E-05-1.13996E-05-1.78691E-18-1.17052E-18
 -1      2268 9.51459E-05-2.65403E-05-2.93454E-05-2.93584E-06-1.24228E-18-4.61946E-19
 -1      2269 9.46758E-05-2.69100E-05-2.90424E-05-1.87337E-06-1.05582E-18-5.89930E-19
 -1      2270 9.53469E-05-2.53709E-05-2.99959E-05-4.29147E-06-1.44714E-18-7.08165E-19
 -1      2271 9.44803E-05-2.72395E-05-2.87790E-05-1.02148E-06-9.95990E-19-5.57993E-19
 -1      2272 9.42221E-05-2.74528E-05-2.86130E-05-4.19694E-07-8.99968E-19-8.05301E-19
 -1      2273 9.50359E-05-2.66990E-05-2.93003E-05-1.91469E-06-1.08760E-18-8.37371E-19
 -1      2274 9.40734E-05-2.76332E-05-2.84518E-05 8.84971E-08-8.83026E-19-7.88085E-19
 -1      2275 9.39756E-05-2.77769E-05-2.83684E-05 4.18465E-07-8.39544E-19-9.10051E-19
 -1      2276 9.47322E-05-2.74278E-05-2.88577E-05-4.35274E-07-9.30815E-19-1.02134E-18
 -1      2277 9.38911E-05-2.78867E-05-2.82750E-05 7.01225E-07-8.06621E-19-1.09860E-18
 -1      2278 9.38974E-05-2.79940E-05-2.82421E-05 8.65292E-07-7.26760E-19-1.23212E-18
 -1      2279 9.45314E-05-2.78563E-05-2.85854E-05 4.35747E-07-9.59295E-19-9.85628E-19
 -1      2280 9.38659E-05-2.80663E-05-2.81933E-05 1.00232E-06-6.48228E-19-1.37925E-18
 -1      2281 9.39335E-05-2.81505E-05-2.81910E-05 1.06429E-06-5.43110E-19-1.42130E-18
 -1      2282 9.44390E-05-2.81262E-05-2.84272E-05 9.06411E-07-9.01829E-19-1.09140E-18
 -1      2283 9.39389E-05-2.82004E-05-2.81709E-05 1.10891E-06-4.21562E-19-1.48150E-18
 -1      2284 9.40380E-05-2.82674E-05-2.81861E-05 1.10890E-06-3.71185E-19-1.31946E-18
 -1      2285 9.44291E-05-2.83035E-05-2.83446E-05 1.11862E-06-5.54649E-19-1.31723E-18
 -1      2286 9.40660E-05-2.83025E-05-2.81839E-05 1.09685E-06-3.76618E-19-1.26382E-18
 -1      2287 9.41770E-05-2.83557E-05-2.82082E-05 1.06089E-06-1.97279E-19-1.06965E-18
 -1      2288 9.44735E-05-2.84223E-05-2.83108E-05 1.16787E-06-3.11185E-19-1.22801E-18
 -1      2289 9.42170E-05-2.83802E-05-2.82166E-05 1.01628E-06-1.45393E-19-9.67035E-19
 -1      2290 9.43275E-05-2.84220E-05-2.82446E-05 9.61486E-07 7.35653E-21-1.15541E-18
 -1      2291 9.45486E-05-2.85015E-05-2.83077E-05 1.11867E-06-1.91414E-19-1.25715E-18
 -1      2292 9.43719E-05-2.84387E-05-2.82587E-05 9.00476E-07 1.21840E-19-1.06941E-18
 -1      2293 9.44748E-05-2.84708E-05-2.82870E-05 8.38096E-07 1.32332E-19-1.00061E-18
 -1      2294 9.46373E-05-2.85530E-05-2.83228E-05 1.01463E-06-1.36428E-20-8.18895E-19
 -1      2295 9.45189E-05-2.84817E-05-2.83036E-05 7.71394E-07 1.48228E-19-9.19242E-19
 -1      2296 9.46103E-05-2.85057E-05-2.83302E-05 7.08672E-07 3.07146E-19-6.99305E-19
 -1      2297 9.47283E-05-2.85846E-05-2.83477E-05 8.84968E-07 2.15729E-19-7.35780E-19
 -1      2298 9.46514E-05-2.85122E-05-2.83474E-05 6.43200E-07 1.84980E-19-7.21074E-19
 -1      2299 9.47301E-05-2.85297E-05-2.83714E-05 5.84685E-07-7.15338E-20-6.31829E-19
 -1      2300 9.48148E-05-2.86019E-05-2.83770E-05 7.48953E-07 1.45830E-19-3.97982E-19
 -1      2301 9.47669E-05-2.85329E-05-2.83879E-05 5.24788E-07-2.77810E-19-7.13774E-19
 -1      2302 9.48331E-05-2.85450E-05-2.84090E-05 4.73236E-07-3.64696E-19-6.71881E-19
 -1      2303 9.48931E-05-2.86089E-05-2.84073E-05 6.18972E-07-1.40009E-19-6.65410E-19
 -1      2304 9.48653E-05-2.85459E-05-2.84243E-05 4.21570E-07-7.02757E-19-3.88473E-19
 -1      2305 9.49203E-05-2.85537E-05-2.84426E-05 3.78612E-07-1.00473E-18-3.44462E-19
 -1      2306 9.49619E-05-2.86087E-05-2.84369E-05 5.02790E-07-5.00275E-19-6.13548E-19
 -1      2307 9.49483E-05-2.85527E-05-2.84568E-05 3.36801E-07-1.17309E-18-3.32346E-19
 -1      2308 9.49941E-05-2.85572E-05-2.84726E-05 3.03441E-07-9.73200E-19-3.14287E-19
 -1      2309 9.50215E-05-2.86031E-05-2.84648E-05 4.05210E-07-1.10476E-18-4.97264E-19
 -1      2310 9.50188E-05-2.85547E-05-2.84858E-05 2.72580E-07-6.88868E-19-4.56835E-19
 -1      2311 9.50579E-05-2.85567E-05-2.85000E-05 2.49570E-07-3.38449E-19-2.84673E-19
 -1      2312 9.50731E-05-2.85935E-05-2.84911E-05 3.29316E-07-9.85271E-19-7.04876E-19
 -1      2313 9.50804E-05-2.85530E-05-2.85127E-05 2.30601E-07-6.85866E-19-4.32922E-19
 -1      2314 9.51156E-05-2.85531E-05-2.85261E-05 2.18727E-07-6.83921E-19-8.59914E-19
 -1      2315 9.51191E-05-2.85807E-05-2.85164E-05 2.77421E-07-5.65297E-19-9.07991E-19
 -1      2316 9.51376E-05-2.85485E-05-2.85390E-05 2.12729E-07-4.08374E-19-7.55729E-19
 -1      2317 9.51721E-05-2.85473E-05-2.85525E-05 2.13033E-07 1.48765E-19-6.86557E-19
 -1      2318 9.51622E-05-2.85651E-05-2.85418E-05 2.51777E-07-5.07481E-19-3.26124E-19
 -1      2319 9.51953E-05-2.85418E-05-2.85664E-05 2.21439E-07 4.13253E-19-8.69955E-19
 -1      2320 9.52329E-05-2.85400E-05-2.85812E-05 2.35379E-07 6.94499E-19-8.24531E-19
 -1      2321 9.52057E-05-2.85467E-05-2.85685E-05 2.55121E-07 6.47303E-20-4.35222E-19
 -1      2322 9.52595E-05-2.85336E-05-2.85972E-05 2.60133E-07 1.01069E-18-8.91806E-19
 -1      2323 9.53043E-05-2.85320E-05-2.86148E-05 2.89698E-07 8.97580E-19-6.43695E-19
 -1      2324 9.52536E-05-2.85255E-05-2.85983E-05 2.91071E-07 7.89468E-19-7.00751E-19
 -1      2325 9.53366E-05-2.85249E-05-2.86338E-05 3.33354E-07 7.66813E-19-3.35063E-19
 -1      2326 9.53935E-05-2.85242E-05-2.86557E-05 3.81120E-07 7.10403E-19-2.86055E-19
 -1      2327 9.53104E-05-2.85013E-05-2.86333E-05 3.64401E-07 9.44710E-19-4.28890E-19
 -1      2328 9.54345E-05-2.85166E-05-2.86792E-05 4.46870E-07 3.14706E-19-7.41691E-19
 -1      2329 9.55089E-05-2.85181E-05-2.87070E-05 5.15991E-07 2.34728E-19-1.06976E-18
 -1      2330 9.53812E-05-2.84742E-05-2.86756E-05 4.81166E-07 2.90686E-19-6.35958E-19
 -1      2331 9.55618E-05-2.85104E-05-2.87363E-05 6.07607E-07-2.02398E-19-1.57833E-18
 -1      2332 9.56604E-05-2.85156E-05-2.87721E-05 7.01699E-07-5.37932E-19-1.34155E-18
 -1      2333 9.54722E-05-2.84445E-05-2.87276E-05 6.48670E-07-2.26688E-19-1.66870E-18
 -1      2334 9.57288E-05-2.85087E-05-2.88086E-05 8.23335E-07-6.10038E-19-1.10774E-18
 -1      2335 9.58588E-05-2.85196E-05-2.88544E-05 9.46210E-07-5.87335E-19-6.45975E-19
 -1      2336 9.55905E-05-2.84133E-05-2.87920E-05 8.75183E-07-6.65102E-19-1.55190E-18
 -1      2337 9.59473E-05-2.85149E-05-2.88994E-05 1.10201E-06-3.09223E-19-5.83313E-19
 -1      2338 9.61169E-05-2.85345E-05-2.89574E-05 1.25719E-06 5.19718E-21-1.69635E-19
 -1      2339 9.57441E-05-2.83830E-05-2.88712E-05 1.16932E-06-5.42742E-19-7.73560E-19
 -1      2340 9.62303E-05-2.85344E-05-2.90123E-05 1.45063E-06-1.83314E-19-8.12927E-19
 -1      2341 9.64484E-05-2.85669E-05-2.90845E-05 1.64046E-06 1.26152E-19-1.16828E-18
 -1      2342 9.59425E-05-2.83577E-05-2.89674E-05 1.53893E-06-5.25609E-19-1.00455E-18
 -1      2343 9.65925E-05-2.85751E-05-2.91500E-05 1.87323E-06 3.42523E-19-1.08631E-18
 -1      2344 9.68684E-05-2.86264E-05-2.92381E-05 2.09760E-06 4.47779E-19-1.25145E-18
 -1      2345 9.61967E-05-2.83450E-05-2.90822E-05 1.98921E-06 1.55841E-20-8.31020E-19
 -1      2346 9.70500E-05-2.86491E-05-2.93141E-05 2.36790E-06 2.35168E-19-1.60791E-18
 -1      2347 9.73926E-05-2.87273E-05-2.94189E-05 2.62206E-06-9.54153E-21-8.13497E-19
 -1      2348 9.65196E-05-2.83570E-05-2.92157E-05 2.51986E-06 1.30722E-19-7.48506E-19
 -1      2349 9.76202E-05-2.87744E-05-2.95045E-05 2.92209E-06-3.43322E-19-8.53688E-19
 -1      2350 9.80372E-05-2.88910E-05-2.96253E-05 3.19358E-06-3.41405E-19-3.00701E-19
 -1      2351 9.69272E-05-2.84136E-05-2.93665E-05 3.12070E-06 1.47091E-19 1.16881E-19
 -1      2352 9.83220E-05-2.89775E-05-2.97176E-05 3.50584E-06-3.70634E-19-3.84446E-19
 -1      2353 9.88184E-05-2.91484E-05-2.98514E-05 3.77007E-06-3.12166E-19 3.26732E-20
 -1      2354 9.74395E-05-2.85457E-05-2.95298E-05 3.76538E-06-3.46530E-19-2.54052E-19
 -1      2355 9.91760E-05-2.92970E-05-2.99456E-05 4.06228E-06-6.03631E-19-2.70846E-19
 -1      2356 9.97525E-05-2.95437E-05-3.00859E-05 4.27669E-06-4.15213E-19-1.50288E-19
 -1      2357 9.80841E-05-2.88000E-05-2.96977E-05 4.40265E-06-6.09276E-19-4.33514E-19
 -1      2358 1.00205E-04-2.97867E-05-3.01746E-05 4.49514E-06-3.47863E-19-2.92899E-19
 -1      2359 1.00855E-04-3.01362E-05-3.03110E-05 4.59230E-06-1.60044E-19-8.14659E-19
 -1      2360 9.88994E-05-2.92448E-05-2.98576E-05 4.94474E-06-5.42849E-19-3.85420E-19
 -1      2361 1.01433E-04-3.05167E-05-3.03849E-05 4.65401E-06 1.38232E-19-9.23644E-20
 -1      2362 1.02138E-04-3.09984E-05-3.05021E-05 4.53534E-06 4.02548E-19 1.11119E-19
 -1      2363 9.99392E-05-2.99725E-05-2.99934E-05 5.25313E-06 1.23427E-19 2.14084E-19
 -1      2364 1.02882E-04-3.15654E-05-3.05516E-05 4.32048E-06 4.16701E-19 3.69160E-19
 -1      2365 1.03604E-04-3.22001E-05-3.06307E-05 3.85478E-06 1.00798E-18 2.89826E-19
 -1      2366 1.01275E-04-3.10954E-05-3.00879E-05 5.12343E-06 8.30888E-19 7.99280E-19
 -1      2367 1.04552E-04-3.29914E-05-3.06500E-05 3.20387E-06 8.34792E-19 4.55836E-19
 -1      2368 1.05219E-04-3.37646E-05-3.06719E-05 2.23944E-06 4.68378E-19 1.40653E-19
 -1      2369 1.02986E-04-3.27191E-05-3.01299E-05 4.27440E-06 8.65453E-19 4.95293E-19
 -1      2370 1.06376E-04-3.47658E-05-3.06662E-05 9.66805E-07-9.77727E-22-7.96170E-19
 -1      2371 1.06860E-04-3.55784E-05-3.06187E-05-6.27797E-07-3.10100E-19-4.35878E-19
 -1      2372 1.05121E-04-3.48716E-05-3.01260E-05 2.35521E-06-2.02143E-19-2.28555E-19
 -1      2373 1.08135E-04-3.66488E-05-3.06126E-05-2.68225E-06 1.28670E-19-7.96574E-19
 -1      2374 1.08221E-04-3.72476E-05-3.05003E-05-4.92955E-06-1.19991E-19-4.42811E-19
 -1      2375 1.07601E-04-3.73652E-05-3.01185E-05-9.97799E-07-1.95630E-19-8.39191E-19
 -1      2376 1.09325E-04-3.80263E-05-3.05450E-05-7.77099E-06-2.54103E-19 8.54605E-19
 -1      2377 1.08715E-04-3.79622E-05-3.03979E-05-1.04375E-05-1.91989E-19 1.74392E-18
 -1      2378 1.10053E-04-3.95860E-05-3.02017E-05-5.99650E-06 7.22273E-19 1.04812E-18
 -1      2379 1.09101E-04-3.78428E-05-3.05636E-05-1.36889E-05-9.64559E-20 2.49701E-18
 -1      2380 1.07506E-04-3.65687E-05-3.04333E-05-1.61292E-05 4.60574E-19 2.63345E-18
 -1      2381 1.11628E-04-4.03370E-05-3.05205E-05-1.23458E-05 3.88525E-19 2.77213E-18
 -1      2382 1.06504E-04-3.49005E-05-3.07692E-05-1.87930E-05 3.99589E-19 2.82142E-18
 -1      2383 1.03870E-04-3.21351E-05-3.06999E-05-1.99300E-05 6.67679E-19 1.75503E-18
 -1      2384 1.11060E-04-3.80646E-05-3.12172E-05-1.87310E-05 2.27911E-19 3.34023E-18
 -1      2385 1.01213E-04-2.88181E-05-3.11563E-05-2.04532E-05 1.29617E-18 1.56647E-18
 -1      2386 9.80350E-05-2.51263E-05-3.11353E-05-1.91673E-05 2.06021E-18 1.26645E-18
 -1      2387 1.07316E-04-3.18209E-05-3.22871E-05-2.25095E-05 7.45260E-19 2.31210E-18
 -1      2388 9.45096E-05-2.12531E-05-3.15155E-05-1.63228E-05 1.53155E-18 5.66926E-19
 -1      2389 9.18278E-05-1.81669E-05-3.14564E-05-1.23135E-05 1.56227E-18 4.48757E-19
 -1      2390 1.00896E-04-2.28831E-05-3.34221E-05-2.05060E-05 1.25131E-18 1.45578E-18
 -1      2391 8.91052E-05-1.57593E-05-3.14705E-05-6.46344E-06 3.06057E-18 4.67926E-19
 -1      2392 8.79434E-05-1.49602E-05-3.12529E-05-9.34641E-07 2.20304E-18 1.05043E-18
 -1      2393 9.43851E-05-1.51413E-05-3.40240E-05-1.15305E-05 2.31253E-18 7.12017E-19
 -1      2394 8.73242E-05-1.55475E-05-3.06995E-05 5.47862E-06 3.00273E-19 1.76262E-18
 -1      2395 8.79506E-05-1.73095E-05-3.02369E-05 1.01658E-05-4.15046E-20 1.78742E-18
 -1      2396 9.09732E-05-1.30900E-05-3.34734E-05 1.57115E-06 1.72055E-18 5.45093E-19
 -1      2397 9.33523E-05-2.76945E-05-2.81317E-05-4.16672E-07 7.60992E-19-5.72663E-19
 -1      2398 9.34292E-05-2.75891E-05-2.81928E-05-1.30667E-07 8.15152E-19-2.96665E-19
 -1      2399 9.33026E-05-2.78598E-05-2.80422E-05-8.23745E-07 6.37127E-19-8.15581E-19
 -1      2400 9.32564E-05-2.77682E-05-2.80533E-05-6.84192E-07 7.50055E-19-6.57749E-19
 -1      2401 9.40204E-05-2.78102E-05-2.83870E-05-4.51010E-07 9.30294E-19-8.40591E-19
 -1      2402 9.33978E-05-2.79962E-05-2.80262E-05-9.99976E-07 5.87910E-19-7.89295E-19
 -1      2403 9.32839E-05-2.79149E-05-2.80089E-05-9.48900E-07 4.73950E-19-8.48206E-19
 -1      2404 9.39345E-05-2.80203E-05-2.82570E-05-8.99133E-07 5.94714E-19-9.04819E-19
 -1      2405 9.35734E-05-2.81120E-05-2.80530E-05-1.03486E-06 6.42148E-19-5.79414E-19
 -1      2406 9.34280E-05-2.80406E-05-2.80207E-05-1.03692E-06 6.69682E-19-5.84781E-19
 -1      2407 9.39639E-05-2.81701E-05-2.82027E-05-1.09578E-06 5.47606E-19-8.40412E-19
 -1      2408 9.37849E-05-2.82098E-05-2.81025E-05-9.85984E-07 2.97288E-19-2.89583E-19
 -1      2409 9.36311E-05-2.81485E-05-2.80638E-05-1.01863E-06 5.82447E-19-4.00873E-19
 -1      2410 9.40627E-05-2.82816E-05-2.81951E-05-1.13649E-06 4.24778E-19-4.42485E-19
 -1      2411 9.40036E-05-2.82910E-05-2.81620E-05-8.91139E-07 2.83057E-19-4.56302E-19
 -1      2412 9.38551E-05-2.82396E-05-2.81221E-05-9.39693E-07 3.51640E-19-2.35421E-19
 -1      2413 9.41967E-05-2.83657E-05-2.82151E-05-1.08417E-06 4.43811E-19-2.37482E-19
 -1      2414 9.42118E-05-2.83571E-05-2.82232E-05-7.75168E-07 5.46606E-19-9.89791E-19
 -1      2415 9.40765E-05-2.83150E-05-2.81853E-05-8.30056E-07 3.40783E-19-7.74360E-19
 -1      2416 9.43430E-05-2.84288E-05-2.82498E-05-9.80574E-07 7.03814E-19-6.68388E-19
 -1      2417 9.43998E-05-2.84096E-05-2.82815E-05-6.54210E-07 6.73162E-19-6.69938E-19
 -1      2418 9.42815E-05-2.83760E-05-2.82473E-05-7.09285E-07 5.41188E-19-7.79263E-19
 -1      2419 9.44868E-05-2.84753E-05-2.82909E-05-8.53381E-07 4.31483E-19-1.05835E-18
 -1      2420 9.45635E-05-2.84503E-05-2.83344E-05-5.38482E-07 3.04037E-19-3.24786E-19
 -1      2421 9.44630E-05-2.84240E-05-2.83046E-05-5.89916E-07 6.60829E-19-3.12500E-19
 -1      2422 9.46196E-05-2.85086E-05-2.83332E-05-7.20663E-07 3.97809E-19-5.07414E-19
 -1      2423 9.47022E-05-2.84809E-05-2.83807E-05-4.34225E-07 1.01240E-19-4.88387E-19
 -1      2424 9.46188E-05-2.84610E-05-2.83554E-05-4.79728E-07 1.52569E-19-3.24854E-19
 -1      2425 9.47373E-05-2.85315E-05-2.83736E-05-5.93941E-07 2.02529E-19-6.37081E-19
 -1      2426 9.48178E-05-2.85033E-05-2.84206E-05-3.45110E-07-1.51322E-19-7.03016E-19
 -1      2427 9.47496E-05-2.84886E-05-2.83994E-05-3.83363E-07 1.21686E-19-4.77412E-19
 -1      2428 9.48388E-05-2.85462E-05-2.84107E-05-4.80334E-07 1.25239E-19-5.16507E-19
 -1      2429 9.49137E-05-2.85190E-05-2.84549E-05-2.73283E-07 4.95512E-19-1.45354E-18
 -1      2430 9.48581E-05-2.85084E-05-2.84371E-05-3.03511E-07 1.58782E-19-1.01817E-18
 -1      2431 9.49249E-05-2.85544E-05-2.84441E-05-3.84138E-07 6.93487E-20-1.00039E-18
 -1      2432 9.49943E-05-2.85295E-05-2.84847E-05-2.20155E-07 6.94398E-19-1.28993E-18
 -1      2433 9.49482E-05-2.85222E-05-2.84695E-05-2.41810E-07 8.40508E-19-9.13549E-19
 -1      2434 9.49978E-05-2.85577E-05-2.84741E-05-3.08000E-07 5.28443E-19-1.29223E-18
 -1      2435 9.50649E-05-2.85363E-05-2.85118E-05-1.87018E-07-1.72306E-19-9.60758E-19
 -1      2436 9.50249E-05-2.85313E-05-2.84982E-05-1.99520E-07 3.04831E-19-9.43960E-19
 -1      2437 9.50610E-05-2.85571E-05-2.85016E-05-2.53815E-07 1.05069E-19-1.21273E-18
 -1      2438 9.51316E-05-2.85408E-05-2.85382E-05-1.75510E-07-1.52128E-19-1.06760E-18
 -1      2439 9.50937E-05-2.85371E-05-2.85249E-05-1.78054E-07-2.86821E-19-9.76591E-19
 -1      2440 9.51183E-05-2.85534E-05-2.85279E-05-2.23413E-07-1.34719E-19-7.26426E-19
 -1      2441 9.52012E-05-2.85443E-05-2.85661E-05-1.88003E-07 8.89279E-20-1.77040E-18
 -1      2442 9.51613E-05-2.85410E-05-2.85519E-05-1.79397E-07 2.57221E-19-1.37279E-18
 -1      2443 9.51744E-05-2.85475E-05-2.85547E-05-2.19090E-07 2.63090E-19-6.83592E-19
 -1      2444 9.52818E-05-2.85483E-05-2.85983E-05-2.27906E-07 7.51029E-19-2.38871E-18
 -1      2445 9.52347E-05-2.85443E-05-2.85817E-05-2.06435E-07 4.46085E-20-2.09393E-18
 -1      2446 9.52348E-05-2.85399E-05-2.85841E-05-2.44041E-07 4.51324E-19-1.67642E-18
 -1      2447 9.53824E-05-2.85546E-05-2.86381E-05-2.99917E-07 4.17655E-19-1.98416E-18
 -1      2448 9.53224E-05-2.85487E-05-2.86171E-05-2.63235E-07 9.08358E-19-2.32228E-18
 -1      2449 9.53057E-05-2.85311E-05-2.86186E-05-3.02690E-07 7.44167E-19-1.70501E-18
 -1      2450 9.55137E-05-2.85651E-05-2.86890E-05-4.10208E-07-1.49047E-18-1.00114E-18
 -1      2451 9.54341E-05-2.85559E-05-2.86616E-05-3.55253E-07-5.00355E-19-1.70558E-18
 -1      2452 9.53941E-05-2.85219E-05-2.86608E-05-4.00958E-07-4.30667E-19-6.22345E-19
 -1      2453 9.56883E-05-2.85825E-05-2.87553E-05-5.66538E-07-2.16729E-18-1.36217E-18
 -1      2454 9.55812E-05-2.85681E-05-2.87191E-05-4.89484E-07-1.99270E-18-1.25184E-18
 -1      2455 9.55086E-05-2.85131E-05-2.87140E-05-5.46438E-07-1.61076E-18-8.69869E-19
 -1      2456 9.59211E-05-2.86100E-05-2.88420E-05-7.78245E-07-9.43940E-19-1.04265E-18
 -1      2457 9.57768E-05-2.85880E-05-2.87941E-05-6.74514E-07-1.65195E-18-1.64654E-18
 -1      2458 9.56586E-05-2.85058E-05-2.87819E-05-7.48460E-07-1.52608E-18-2.21108E-18
 -1      2459 9.62290E-05-2.86516E-05-2.89546E-05-1.05602E-06 1.88336E-19-8.24169E-19
 -1      2460 9.60364E-05-2.86192E-05-2.88917E-05-9.20409E-07-5.16383E-19-9.57812E-19
 -1      2461 9.58554E-05-2.85018E-05-2.88684E-05-1.01798E-06-9.09362E-19-2.31354E-18
 -1      2462 9.66316E-05-2.87127E-05-2.90992E-05-1.41136E-06 3.49735E-19-1.23511E-18
 -1      2463 9.63780E-05-2.86662E-05-2.90176E-05-1.23833E-06 6.16989E-19-8.79912E-19
 -1      2464 9.61114E-05-2.85038E-05-2.89779E-05-1.36720E-06 1.66379E-19-1.69769E-18
 -1      2465 9.71505E-05-2.88005E-05-2.92821E-05-1.85534E-06-2.00140E-19-4.21118E-19
 -1      2466 9.68217E-05-2.87349E-05-2.91780E-05-1.63969E-06-1.31937E-19-6.11414E-19
 -1      2467 9.64408E-05-2.85156E-05-2.91145E-05-1.80865E-06-1.75938E-19-1.66672E-18
 -1      2468 9.78091E-05-2.89244E-05-2.95094E-05-2.39637E-06-6.10963E-19 1.82304E-19
 -1      2469 9.73896E-05-2.88335E-05-2.93788E-05-2.13447E-06-1.06132E-19-2.84119E-19
 -1      2470 9.68590E-05-2.85435E-05-2.92823E-05-2.35359E-06-3.55417E-19-1.05529E-18
 -1      2471 9.86312E-05-2.90983E-05-2.97856E-05-3.03620E-06 6.63323E-19 4.77719E-20
 -1      2472 9.81056E-05-2.89734E-05-2.96255E-05-2.72821E-06 8.79492E-20 6.10800E-19
 -1      2473 9.73828E-05-2.85979E-05-2.94838E-05-3.00897E-06-8.73333E-20-4.87206E-19
 -1      2474 9.96398E-05-2.93424E-05-3.01125E-05-3.76295E-06 1.91862E-19 5.58231E-19
 -1      2475 9.89941E-05-2.91716E-05-2.99212E-05-3.41671E-06 3.94181E-19 3.82450E-19
 -1      2476 9.80303E-05-2.86958E-05-2.97197E-05-3.77240E-06 2.02607E-19-1.84680E-19
 -1      2477 1.00855E-04-2.96873E-05-3.04864E-05-4.53962E-06-2.66497E-19 8.97483E-19
 -1      2478 1.00079E-04-2.94537E-05-3.02654E-05-4.17712E-06 3.34247E-19 7.57979E-19
 -1      2479 9.88227E-05-2.88664E-05-2.99865E-05-4.62373E-06-1.94152E-20 9.54208E-19
 -1      2480 1.02291E-04-3.01804E-05-3.08947E-05-5.28613E-06-6.66931E-20 8.00401E-19
 -1      2481 1.01385E-04-2.98597E-05-3.06507E-05-4.95351E-06-7.10142E-19 4.81932E-19
 -1      2482 9.97865E-05-2.91586E-05-3.02748E-05-5.51175E-06-3.64744E-19 1.11041E-18
 -1      2483 1.03955E-04-3.08928E-05-3.13117E-05-5.85301E-06 7.35586E-19 1.06759E-18
 -1      2484 1.02932E-04-3.04516E-05-3.10597E-05-5.63491E-06 7.61971E-19 9.71823E-19
 -1      2485 1.00960E-04-2.96526E-05-3.05671E-05-6.33394E-06 3.28642E-19 7.23435E-19
 -1      2486 1.05843E-04-3.19234E-05-3.16953E-05-5.98778E-06 1.20674E-18 9.47947E-19
 -1      2487 1.04741E-04-3.13203E-05-3.14612E-05-6.02439E-06 1.23076E-18 6.54603E-19
 -1      2488 1.02402E-04-3.04729E-05-3.08365E-05-6.90791E-06 1.39204E-18-3.58340E-19
 -1      2489 1.07927E-04-3.33868E-05-3.19865E-05-5.30251E-06 1.34005E-18 4.73382E-19
 -1      2490 1.06824E-04-3.25852E-05-3.18088E-05-5.80252E-06 1.13101E-18 8.07760E-19
 -1      2491 1.04206E-04-3.17941E-05-3.10483E-05-6.93551E-06 1.34169E-18-5.98918E-19
 -1      2492 1.10125E-04-3.53535E-05-3.21196E-05-3.26956E-06-5.37899E-20 3.59115E-19
 -1      2493 1.09164E-04-3.43621E-05-3.20456E-05-4.49957E-06 8.97795E-19 1.17834E-18
 -1      2494 1.06493E-04-3.38162E-05-3.11699E-05-5.96813E-06 1.19851E-18-3.33536E-19
 -1      2495 1.12216E-04-3.76925E-05-3.20489E-05 6.93232E-07-1.39191E-18 3.49803E-19
 -1      2496 1.11648E-04-3.66570E-05-3.21212E-05-1.51906E-06-4.98525E-19-7.68087E-20
 -1      2497 1.09368E-04-3.66555E-05-3.11932E-05-3.40066E-06 2.01045E-19-4.69672E-19
 -1      2498 1.13677E-04-3.97923E-05-3.17956E-05 6.92597E-06-1.29251E-18 6.72898E-19
 -1      2499 1.13899E-04-3.91283E-05-3.20269E-05 3.68470E-06-1.93239E-18 2.46225E-19
 -1      2500 1.12744E-04-4.00708E-05-3.11751E-05 1.43018E-06-1.74941E-18-6.07702E-19
 -1      2501 1.13531E-04-4.02851E-05-3.14966E-05 1.49416E-05-4.61673E-19 2.09236E-18
 -1      2502 1.15055E-04-4.07670E-05-3.18408E-05 1.11439E-05-8.77784E-19 7.77894E-19
 -1      2503 1.16023E-04-4.30458E-05-3.12810E-05 8.87983E-06-1.21072E-18-1.10478E-18
 -1      2504 1.10451E-04-3.72750E-05-3.13854E-05 2.25390E-05-3.87038E-19 1.58599E-18
 -1      2505 1.13640E-04-3.97234E-05-3.17405E-05 1.95181E-05-5.91123E-19 1.95916E-18
 -1      2506 1.17699E-04-4.34030E-05-3.17910E-05 1.82564E-05-8.87241E-19 6.89114E-19
 -1      2507 1.03843E-04-2.99093E-05-3.16146E-05 2.56582E-05 1.33580E-18 1.43471E-18
 -1      2508 1.08365E-04-3.42936E-05-3.18914E-05 2.53651E-05 2.11626E-19 1.91081E-18
 -1      2509 1.15701E-04-3.86899E-05-3.29375E-05 2.65513E-05-3.83421E-19 4.74954E-19
 -1      2510 9.54108E-05-2.05335E-05-3.20119E-05 2.03741E-05 2.37646E-18 3.01632E-18
 -1      2511 9.98407E-05-2.51129E-05-3.22203E-05 2.41184E-05 1.79852E-18 2.36064E-18
 -1      2512 1.09204E-04-2.85575E-05-3.45694E-05 2.86042E-05 8.78294E-19 1.07273E-18
 -1      2513 8.93370E-05-1.48070E-05-3.19427E-05 6.96394E-06 3.98791E-18 1.29947E-18
 -1      2514 9.16749E-05-1.67694E-05-3.22431E-05 1.36399E-05 3.15732E-18 2.76869E-18
 -1      2515 1.00714E-04-1.74878E-05-3.57599E-05 2.03516E-05 2.97875E-18 1.85970E-18
 -1      2516 8.83838E-05-1.62705E-05-3.10767E-05-7.77031E-06 1.70407E-18-2.11176E-19
 -1      2517 8.81840E-05-1.47296E-05-3.14608E-05-1.56969E-06 3.35669E-18 1.25294E-18
 -1      2518 9.58283E-05-1.26327E-05-3.57391E-05 3.90153E-06 3.49234E-18 3.23355E-19
 -1      2519 9.13295E-05-2.29721E-05-2.93846E-05-1.78347E-05-1.84011E-19-3.51135E-19
 -1      2520 8.88947E-05-1.88341E-05-2.99195E-05-1.43212E-05 3.80185E-19 2.39853E-19
 -1      2521 9.46955E-05-1.53164E-05-3.40600E-05-1.16851E-05 1.64298E-18 3.83051E-19
 -1      2522 9.20925E-05-2.75211E-05-2.76045E-05-1.92113E-05-1.02403E-18-5.37753E-19
 -1      2523 1.21493E-04-3.32098E-05-3.78726E-05-4.56129E-06-6.61744E-21-1.05699E-18
 -1      2524 1.11026E-04-2.88504E-05-3.55484E-05-1.33900E-05 5.63303E-19 6.85620E-19
 -1      2525 1.40736E-04-4.27883E-05-4.20887E-05 1.48091E-05 1.08882E-18 1.76310E-18
 -1      2526 1.31311E-04-3.79293E-05-4.06356E-05 2.48942E-06 6.50680E-19-3.55648E-19
 -1      2527 1.29479E-04-2.81185E-05-4.35070E-05-5.23847E-06 1.15133E-18-2.23405E-20
 -1      2528 1.04927E-04-4.19982E-05-2.69819E-05-8.50319E-05-9.36395E-19-2.91019E-18
 -1      2529 9.27779E-05-2.81409E-05-2.76076E-05 1.81445E-05 2.69244E-19 1.21376E-18
 -1      2530 1.44002E-04-5.30139E-05-3.92287E-05-4.27541E-05-6.07217E-19 1.09267E-19
 -1      2531 1.41609E-04-5.32805E-05-3.77544E-05-6.11116E-05-3.23143E-19-8.25222E-19
 -1      2532 1.08690E-04-2.69302E-05-3.53853E-05 1.13600E-05-8.15110E-19-1.24117E-18
 -1      2533 1.17988E-04-3.03578E-05-3.75131E-05 3.86835E-06-5.94220E-19 4.92338E-20
 -1      2534 1.05937E-04-1.90172E-05-3.74154E-05 1.24380E-05 3.32672E-19 7.15213E-20
 -1      2535 9.36337E-05-2.74745E-05-2.83424E-05 3.64576E-07 9.10254E-19-2.21017E-19
 -1      2536 9.39153E-05-2.73384E-05-2.84892E-05 8.98645E-07 1.17395E-18-5.17517E-20
 -1      2537 9.42756E-05-2.74907E-05-2.86357E-05 3.97102E-07 1.06786E-18-7.25916E-19
 -1      2538 1.29081E-04-3.77272E-05-3.97379E-05-5.78992E-06-1.01947E-18 9.06325E-20
 -1      2539 1.38781E-04-4.39610E-05-4.06358E-05-2.14922E-05-2.99691E-19-4.71586E-19
 -1      2540 1.27115E-04-2.61566E-05-4.35463E-05 1.52235E-06-1.95876E-19-1.10220E-19
 -1      2541 1.52375E-04-5.24258E-05-4.25432E-05-5.78353E-05-1.49607E-18-1.56871E-18
 -1      2542 1.61202E-04-4.47219E-05-4.98358E-05-4.42760E-05-9.85735E-20 7.61059E-19
 -1      2543 1.64304E-04-2.99892E-05-5.81270E-05 2.43452E-05-1.99053E-19-2.75307E-18
 -1      2544 1.65349E-04-2.03425E-05-6.27933E-05 2.50101E-05 4.92550E-19-2.86382E-18
 -1      2545 1.66601E-04-1.57993E-05-6.48836E-05 1.37381E-05 2.42866E-18 2.86721E-19
 -1      2546 1.63435E-04-2.31487E-05-6.03791E-05 1.38837E-05 2.57498E-18 8.24163E-19
 -1      2547 8.78332E-05-1.07946E-05-3.30522E-05-1.51758E-06 1.55263E-20-2.65137E-18
 -1      2548 8.79388E-05-1.09167E-05-3.30436E-05-2.63582E-06-1.85875E-19-2.63722E-18
 -1      2549 8.93378E-05-1.30890E-05-3.26800E-05-2.92874E-06-2.49435E-19-2.47195E-18
 -1      2550 8.90886E-05-1.27538E-05-3.27181E-05-9.40404E-07 3.81932E-20-2.53890E-18
 -1      2551 1.66072E-04-5.95172E-06-6.90807E-05 1.55004E-05 8.95314E-19-2.68827E-19
 -1      2552 1.65235E-04-8.55402E-06-6.75714E-05 1.40134E-05 2.58896E-18 1.74277E-19
 -1      2553 1.62745E-04-5.40944E-05-4.70121E-05 1.42182E-05 1.15980E-18-2.63427E-19
 -1      2554 1.66927E-04-4.41512E-05-5.31171E-05 2.01397E-05 2.81956E-19-1.90582E-18
 -1      2555 6.47448E-05-5.19722E-05-5.38004E-06-3.98072E-05 7.25907E-19-5.38607E-18
 -1      2556 8.46399E-05-5.87591E-05-1.10927E-05-4.26046E-05 1.00585E-18-4.16200E-18
 -1      2557 3.31257E-05-3.44832E-05 9.81223E-07-2.71802E-05 2.30245E-18-5.56247E-18
 -1      2558 4.71440E-05-4.29001E-05-1.63443E-06-3.66722E-05 2.31071E-18-5.82759E-18
 -1      2559 6.34039E-05-4.60616E-05-7.00656E-06-3.86160E-05 1.43022E-18-4.36391E-18
 -1      2560 2.00763E-05-2.69007E-05 3.35864E-06 6.00492E-06 2.90506E-18-5.21349E-19
 -1      2561 2.26420E-05-2.66848E-05 2.20791E-06-1.05452E-05 3.09575E-18-3.64394E-18
 -1      2562 3.31295E-05-3.53989E-05 1.17075E-06 3.11714E-05 1.16700E-18 2.11038E-18
 -1      2563 2.33994E-05-3.09885E-05 3.50373E-06 1.89801E-05 1.35070E-18 2.12351E-18
 -1      2564 7.16112E-05-5.26882E-05-8.07482E-06 4.49166E-05 9.19031E-19 2.44920E-18
 -1      2565 5.09458E-05-4.46769E-05-2.46459E-06 3.89997E-05 1.12444E-18 2.00556E-18
 -1      2566 1.11901E-04-6.60265E-05-1.98897E-05 3.95910E-05-6.82709E-19 1.68057E-18
 -1      2567 9.30035E-05-6.12279E-05-1.34536E-05 4.17076E-05 7.01767E-19 8.61962E-19
 -1      2568 1.50405E-04-6.80211E-05-3.55753E-05 1.56861E-05 4.63327E-19-3.94717E-19
 -1      2569 1.33106E-04-6.96321E-05-2.70975E-05 2.51565E-05-7.63812E-19 1.12179E-18
 -1      2570 1.67495E-04-5.17549E-05-4.99782E-05-4.36932E-06 1.37950E-18-1.20236E-18
 -1      2571 1.58576E-04-5.89910E-05-4.29159E-05 2.39031E-06 8.36736E-19-8.88538E-19
 -1      2572 1.70778E-04-2.86325E-05-6.14766E-05-1.87183E-05 2.02081E-18-3.18061E-19
 -1      2573 1.68447E-04-3.90325E-05-5.57415E-05-1.31712E-05 1.69407E-18-6.33157E-19
 -1      2574 1.63380E-04-8.15419E-06-6.72489E-05-2.19533E-05 3.10861E-18 1.21952E-18
 -1      2575 1.67336E-04-1.61511E-05-6.50864E-05-2.15980E-05 3.22000E-18 1.11957E-18
 -1      2576 1.59944E-04-2.78285E-06-6.78944E-05-1.63680E-05 1.35779E-18 1.22185E-19
 -1      2577 1.57546E-04-1.95860E-06-6.73570E-05-1.81867E-05 2.89982E-18 1.19871E-18
 -1      2578 1.61770E-04-3.37020E-05-5.50747E-05-2.63289E-05 6.47557E-19 2.01594E-19
 -1      2579 1.62621E-04-2.46913E-05-5.94026E-05-2.13606E-05 3.23990E-19-4.52316E-19
 -1      2580 1.64839E-04-3.60819E-05-5.54224E-05 2.25156E-05 2.20123E-18 8.89385E-20
 -1      2581 1.60531E-04-4.56719E-05-4.92171E-05 3.27984E-05 2.14982E-18-1.13587E-18
 -1      2582 9.63421E-05-2.50974E-05-3.05593E-05 7.58927E-06 1.76635E-18 6.79491E-19
 -1      2583 9.74630E-05-2.37809E-05-3.15995E-05 1.06890E-05 1.83541E-18 9.86661E-19
 -1      2584 9.58965E-05-2.13051E-05-3.20236E-05 1.18905E-05 1.99740E-18 3.12383E-19
 -1      2585 9.58851E-05-2.41629E-05-3.07713E-05 7.67982E-06 1.77465E-18-1.00693E-20
 -1      2586 1.05329E-04-6.64929E-05-1.66044E-05-3.66933E-05 1.05201E-18-1.16520E-19
 -1      2587 1.23770E-04-7.02321E-05-2.31989E-05-3.16200E-05 1.35928E-18 2.00217E-18
 -1      2588 1.62818E-04-1.00348E-05-6.60948E-05 2.19793E-05 1.50687E-18-2.25618E-18
 -1      2589 1.65349E-04-6.70148E-06-6.84526E-05 1.94724E-05 1.03804E-18-1.50401E-18
 -1      2590 1.50748E-04-9.44862E-06-6.07126E-05 6.88534E-06 3.04170E-18 2.18153E-18
 -1      2591 9.07935E-05-1.50389E-05-3.24576E-05-6.79698E-06-9.95868E-19-2.20584E-18
 -1      2592 8.97058E-05-1.31885E-05-3.28445E-05-7.94708E-06-1.04424E-18-2.31373E-18
 -1      2593 9.03367E-05-1.39071E-05-3.28174E-05-9.17688E-06-1.27200E-18-2.11701E-18
 -1      2594 1.48508E-04-4.36280E-05-4.49437E-05-2.81974E-05 1.50772E-19-9.35971E-20
 -1      2595 9.42507E-05-1.90828E-05-3.22600E-05 1.15993E-05 1.94260E-18-4.88778E-19
 -1      2596 1.00892E-04-6.32600E-05-1.56799E-05-3.80871E-05-7.94093E-20-7.84988E-19
 -1      2597 1.44035E-04-2.00556E-06-6.11682E-05-1.02915E-05 1.32264E-18 1.73981E-18
 -1      2598 9.47403E-05-2.69404E-05-2.90696E-05 1.87850E-06 1.33452E-18-5.42048E-19
 -1      2599 9.20507E-05-1.62337E-05-3.25344E-05-1.03848E-05-1.51054E-18-1.51761E-18
 -1      2600 1.37838E-04-5.14974E-05-3.71129E-05-7.21398E-05-4.54010E-19-1.67162E-18
 -1      2601 9.67122E-05-2.59615E-05-3.03710E-05-1.92534E-05-4.97811E-19 1.65902E-18
 -1      2602 1.51782E-04-5.33355E-05-4.22684E-05 5.35841E-05 9.79382E-19-1.21422E-18
 -1      2603 1.52561E-04-5.21951E-05-4.30489E-05 3.77911E-05 7.01343E-19-1.28537E-19
 -1      2604 1.55426E-04-3.57558E-05-5.15487E-05 2.92173E-05 1.67077E-19-3.12513E-18
 -1      2605 1.01304E-04-2.65128E-05-3.20406E-05-1.66082E-05 1.96293E-19 8.93818E-19
 -1      2606 1.48222E-04-2.24481E-06-6.27433E-05 1.54785E-05 1.74404E-18 7.00509E-19
 -1      2607 1.41235E-04-5.63837E-05-3.58695E-05 6.61505E-05 1.45563E-18-2.03246E-18
 -1      2608 7.93662E-05-2.65010E-05-2.27634E-05 7.83681E-05 2.79521E-20 1.99222E-18
 -1      2609 9.47200E-05-2.06039E-05-3.17197E-05 9.66590E-06 1.82839E-18-7.03765E-19
 -1      2610 1.49608E-04-1.21834E-05-5.91997E-05 2.68975E-05 9.41901E-19-1.88041E-18
 -1      2611 1.30557E-04-7.19468E-05-2.46858E-05-2.34917E-05 4.18752E-19 1.98703E-18
 -1      2612 1.36934E-04-7.25724E-05-2.73603E-05-2.15300E-05 1.10347E-18 2.18545E-18
 -1      2613 1.45768E-04-7.34194E-05-3.17416E-05-9.66982E-06 1.19686E-18 2.20292E-18
 -1      2614 1.54955E-04-3.01745E-05-5.37986E-05 1.09228E-05 1.85056E-18 9.54183E-19
 -1      2615 1.46989E-04-2.02861E-06-6.25045E-05-1.97615E-05 2.49070E-18 2.47005E-18
 -1      2616 1.57128E-04-2.02800E-05-5.88172E-05-2.50725E-05 1.50497E-18-3.34578E-20
 -1      2617 1.61676E-04-4.51429E-05-5.00067E-05-1.76317E-05 5.02185E-19-1.39972E-18
 -1      2618 1.53836E-04-6.61243E-05-3.76424E-05 1.33925E-06 2.39181E-19-1.05900E-18
 -1      2619 1.28344E-04-7.00250E-05-2.46505E-05 2.77238E-05-1.15133E-18 1.33619E-19
 -1      2620 8.80869E-05-5.70021E-05-1.28533E-05 4.26730E-05 9.12890E-19 1.14064E-18
 -1      2621 4.96101E-05-3.83315E-05-4.32525E-06 3.60823E-05 1.58183E-18 1.44250E-18
 -1      2622 3.17858E-05-2.78639E-05-1.07885E-06-1.84821E-05 2.69335E-18-5.05636E-18
 -1      2623 4.28869E-05-2.88252E-05-5.51398E-06-2.49448E-05 2.12235E-18-5.41889E-18
 -1      2624 3.32207E-05-2.12418E-05-4.52126E-06-1.01922E-05 3.22174E-18-3.57617E-18
 -1      2625 8.99538E-05-2.27142E-05-2.88687E-05 1.58960E-05 5.43286E-19 1.43249E-18
 -1      2626 9.43589E-05-2.47992E-05-2.98020E-05 1.73337E-05-4.98567E-20-1.17314E-19
 -1      2627 9.46393E-05-1.82739E-05-3.27689E-05 1.54663E-05-6.32112E-19 5.20687E-19
 -1      2628 8.82099E-05-1.94642E-05-2.94463E-05 1.39650E-05 2.59814E-19 1.84331E-18
 -1      2629 1.61377E-04-6.23873E-05-4.26975E-05 9.69325E-06 1.79590E-18 6.67038E-19
 -1      2630 1.54860E-04-5.57066E-05-4.29182E-05 2.18882E-05 1.15922E-18-9.45924E-19
 -1      2631 1.54831E-04-6.68302E-05-3.75329E-05 5.85333E-06 1.98420E-18 1.45446E-18
 -1      2632 1.46416E-04-4.75896E-05-4.29892E-05 2.28505E-05 1.05567E-18 1.15874E-18
 -1      2633 9.06835E-05-1.61507E-05-3.19132E-05 1.13725E-05-1.65542E-19 1.80573E-18
 -1      2634 1.29627E-04-5.21917E-05-3.23425E-05-8.07193E-05-1.93971E-19-1.96215E-18
 -1      2635 1.48917E-04-1.72434E-05-5.66578E-05-9.72258E-06-2.92015E-19-3.66977E-19
 -1      2636 1.06168E-04-2.17264E-05-3.64803E-05-1.50334E-05 4.38525E-19 1.12145E-18
 -1      2637 1.19141E-04-4.85504E-05-3.11500E-05 8.12279E-05 1.28664E-18-5.51630E-19
 -1      2638 2.85517E-05-2.46046E-05-1.11140E-06 1.22557E-05 2.51304E-18 2.76556E-19
 -1      2639 9.05513E-05-1.51695E-05-3.23288E-05 3.19321E-06 8.54858E-19-2.38650E-18
 -1      2640 9.03604E-05-1.48976E-05-3.23614E-05 2.25987E-06 6.83795E-19-2.28154E-18
 -1      2641 9.02256E-05-1.46946E-05-3.23903E-05 1.42180E-06 6.05355E-19-2.28600E-18
 -1      2642 9.01603E-05-1.46021E-05-3.24013E-05 4.65318E-07 3.84296E-19-2.27521E-18
 -1      2643 9.14114E-05-1.65897E-05-3.20535E-05 1.64020E-06 6.27878E-19-2.17922E-18
 -1      2644 9.21382E-05-1.75492E-05-3.20046E-05 6.47002E-06 1.48648E-18-1.84366E-18
 -1      2645 9.16121E-05-1.67539E-05-3.21044E-05 5.63117E-06 1.42227E-18-2.03354E-18
 -1      2646 9.35631E-05-1.97767E-05-3.16653E-05 7.59171E-06 1.61784E-18-1.44435E-18
 -1      2647 9.27703E-05-1.85202E-05-3.18385E-05 7.01344E-06 1.56069E-18-1.56880E-18
 -1      2648 9.34333E-05-1.98652E-05-3.15064E-05 5.72972E-06 1.42223E-18-1.61197E-18
 -1      2649 1.38334E-04-1.50930E-05-5.34258E-05 2.98707E-05 2.60039E-19-2.72702E-18
 -1      2650 1.35853E-04-7.07373E-06-5.61468E-05 2.38770E-05 1.76204E-18-1.62556E-18
 -1      2651 9.52067E-05-2.39739E-05-3.05194E-05-5.29659E-06-1.44054E-18-8.88056E-19
 -1      2652 9.51601E-05-2.49966E-05-3.00885E-05-3.78566E-06-1.27699E-18-9.85957E-19
 -1      2653 9.52225E-05-2.54094E-05-2.99322E-05 3.97231E-06 1.51112E-18-7.27032E-19
 -1      2654 9.55587E-05-2.45593E-05-3.03960E-05 5.60587E-06 1.52070E-18-6.32383E-19
 -1      2655 9.44793E-05-2.83151E-05-2.83555E-05-1.10219E-06 3.23132E-19-9.02833E-19
 -1      2656 9.44489E-05-2.82249E-05-2.83754E-05-1.03378E-06 4.54827E-19-9.14117E-19
 -1      2657 9.53623E-05-2.59060E-05-2.97379E-05-2.69865E-06-1.16777E-18-9.48130E-19
 -1      2658 9.51972E-05-2.64925E-05-2.94570E-05-1.71673E-06-9.96997E-19-9.88699E-19
 -1      2659 9.52160E-05-2.47039E-05-3.02192E-05-3.52757E-06-1.28376E-18-1.05269E-18
 -1      2660 9.52194E-05-2.70055E-05-2.92112E-05-9.74662E-07-9.33649E-19-1.08062E-18
 -1      2661 9.50849E-05-2.73601E-05-2.90313E-05-3.69354E-07-8.86552E-19-1.14343E-18
 -1      2662 9.54155E-05-2.63291E-05-2.96146E-05-1.61376E-06-1.07151E-18-1.04350E-18
 -1      2663 9.50523E-05-2.76668E-05-2.88635E-05 9.73500E-08-8.30365E-19-1.02431E-18
 -1      2664 9.49748E-05-2.78920E-05-2.87528E-05 4.47797E-07-9.19378E-19-1.05088E-18
 -1      2665 9.54166E-05-2.73249E-05-2.91895E-05-3.35141E-07-8.55918E-19-1.14451E-18
 -1      2666 9.49325E-05-2.80777E-05-2.86418E-05 7.16237E-07-9.71487E-19-9.47477E-19
 -1      2667 9.49043E-05-2.82251E-05-2.85779E-05 8.98485E-07-7.17537E-19-1.08231E-18
 -1      2668 9.53561E-05-2.79416E-05-2.88986E-05 4.53051E-07-8.95847E-19-1.06419E-18
 -1      2669 9.48690E-05-2.83375E-05-2.85073E-05 1.03129E-06-6.34084E-19-1.07945E-18
 -1      2670 9.48757E-05-2.84353E-05-2.84745E-05 1.10470E-06-5.74158E-19-1.11681E-18
 -1      2671 9.52914E-05-2.83237E-05-2.87058E-05 8.92388E-07-7.43259E-19-9.78310E-19
 -1      2672 9.48509E-05-2.85013E-05-2.84322E-05 1.14809E-06-3.41783E-19-1.00653E-18
 -1      2673 9.48793E-05-2.85657E-05-2.84196E-05 1.15326E-06-1.75313E-19-9.22387E-19
 -1      2674 9.52414E-05-2.85572E-05-2.85830E-05 1.09451E-06-3.88706E-19-9.24406E-19
 -1      2675 9.48640E-05-2.86017E-05-2.83967E-05 1.14058E-06-8.63445E-20-9.15439E-19
 -1      2676 9.49038E-05-2.86429E-05-2.83967E-05 1.10526E-06-3.67480E-20-7.86724E-19
 -1      2677 9.52089E-05-2.86939E-05-2.85093E-05 1.14203E-06-9.76666E-20-4.67522E-19
 -1      2678 9.48957E-05-2.86593E-05-2.83869E-05 1.05998E-06 1.05191E-19-6.41664E-19
 -1      2679 9.49397E-05-2.86842E-05-2.83944E-05 1.00303E-06 4.46672E-19-4.09614E-19
 -1      2680 9.51908E-05-2.87667E-05-2.84694E-05 1.09436E-06 1.74137E-19-4.39554E-19
 -1      2681 9.49366E-05-2.86878E-05-2.83929E-05 9.41338E-07 2.16760E-19-2.92811E-19
 -1      2682 9.49803E-05-2.87011E-05-2.84045E-05 8.75405E-07 4.76827E-20-4.57751E-19
 -1      2683 9.51832E-05-2.87972E-05-2.84524E-05 9.93153E-07 3.63272E-19-2.00244E-19
 -1      2684 9.49804E-05-2.86966E-05-2.84083E-05 8.08209E-07-1.33593E-19-4.22285E-19
 -1      2685 9.50210E-05-2.87019E-05-2.84216E-05 7.41594E-07 2.01074E-20-2.90997E-19
 -1      2686 9.51825E-05-2.88003E-05-2.84504E-05 8.67039E-07-1.01092E-19-3.81198E-19
 -1      2687 9.50231E-05-2.86925E-05-2.84286E-05 6.76061E-07 7.63258E-20-6.94790E-19
 -1      2688 9.50595E-05-2.86922E-05-2.84423E-05 6.14091E-07-2.37269E-19-6.31169E-19
 -1      2689 9.51862E-05-2.87861E-05-2.84577E-05 7.35203E-07-2.33803E-19-3.72642E-19
 -1      2690 9.50627E-05-2.86798E-05-2.84510E-05 5.54813E-07-4.86981E-19-5.10809E-19
 -1      2691 9.50945E-05-2.86756E-05-2.84644E-05 5.00835E-07-5.47123E-19-5.55095E-19
 -1      2692 9.51923E-05-2.87611E-05-2.84708E-05 6.10215E-07-4.50606E-19-4.73092E-19
 -1      2693 9.50984E-05-2.86615E-05-2.84741E-05 4.50724E-07-8.53783E-19-5.49821E-19
 -1      2694 9.51259E-05-2.86544E-05-2.84870E-05 4.06861E-07-1.12625E-18-4.45595E-19
 -1      2695 9.51997E-05-2.87297E-05-2.84873E-05 5.00168E-07-7.07230E-19-4.56316E-19
 -1      2696 9.51302E-05-2.86393E-05-2.84972E-05 3.67828E-07-1.24031E-18-2.00294E-19
 -1      2697 9.51544E-05-2.86300E-05-2.85096E-05 3.35538E-07-9.62638E-19-3.52995E-19
 -1      2698 9.52077E-05-2.86942E-05-2.85059E-05 4.10312E-07-1.13667E-18-4.71442E-20
 -1      2699 9.51590E-05-2.86138E-05-2.85204E-05 3.09016E-07-6.65735E-19-5.70689E-19
 -1      2700 9.51811E-05-2.86027E-05-2.85327E-05 2.89523E-07-3.99880E-19-5.01786E-19
 -1      2701 9.52161E-05-2.86557E-05-2.85260E-05 3.44311E-07-9.31089E-19 3.23648E-19
 -1      2702 9.51860E-05-2.85852E-05-2.85441E-05 2.76857E-07-2.05585E-19-2.81561E-19
 -1      2703 9.52075E-05-2.85722E-05-2.85569E-05 2.71480E-07-7.78313E-20-6.15119E-20
 -1      2704 9.52250E-05-2.86140E-05-2.85477E-05 3.05184E-07-1.92851E-19-1.35965E-20
 -1      2705 9.52129E-05-2.85529E-05-2.85695E-05 2.74230E-07-2.35117E-19 6.66966E-20
 -1      2706 9.52357E-05-2.85380E-05-2.85834E-05 2.84623E-07 2.20549E-19-2.66984E-19
 -1      2707 9.52345E-05-2.85683E-05-2.85715E-05 2.96036E-07-4.84886E-20 5.24254E-20
 -1      2708 9.52418E-05-2.85161E-05-2.85976E-05 3.04779E-07 5.15608E-19-6.99584E-19
 -1      2709 9.52678E-05-2.84990E-05-2.86135E-05 3.33104E-07 7.23308E-19-7.83918E-19
 -1      2710 9.52451E-05-2.85170E-05-2.85981E-05 3.20586E-07 1.02283E-19-2.97811E-19
 -1      2711 9.52751E-05-2.84737E-05-2.86301E-05 3.73239E-07 8.64615E-19-8.69184E-19
 -1      2712 9.53068E-05-2.84542E-05-2.86490E-05 4.22271E-07 7.03684E-19-1.09586E-18
 -1      2713 9.52574E-05-2.84583E-05-2.86286E-05 3.83552E-07 7.85949E-19-1.24922E-18
 -1      2714 9.53155E-05-2.84246E-05-2.86686E-05 4.85616E-07 4.30377E-19-1.17677E-18
 -1      2715 9.53557E-05-2.84025E-05-2.86916E-05 5.58768E-07-4.28569E-20-1.30713E-18
 -1      2716 9.52720E-05-2.83900E-05-2.86643E-05 4.90880E-07 3.74723E-19-1.74697E-18
 -1      2717 9.53664E-05-2.83678E-05-2.87149E-05 6.49199E-07-4.96968E-19-1.71476E-18
 -1      2718 9.54183E-05-2.83434E-05-2.87432E-05 7.50442E-07-7.09146E-19-1.85197E-18
 -1      2719 9.52901E-05-2.83101E-05-2.87063E-05 6.49802E-07-5.61210E-19-1.25866E-18
 -1      2720 9.54318E-05-2.83032E-05-2.87708E-05 8.72355E-07-2.57565E-19-1.70298E-18
 -1      2721 9.54992E-05-2.82771E-05-2.88056E-05 1.00600E-06-4.31864E-19-1.29294E-18
 -1      2722 9.53128E-05-2.82172E-05-2.87560E-05 8.68695E-07-3.57614E-19-8.88003E-19
 -1      2723 9.55164E-05-2.82315E-05-2.88381E-05 1.16402E-06-3.84628E-19-9.41229E-19
 -1      2724 9.56036E-05-2.82055E-05-2.88802E-05 1.33428E-06-1.60907E-19-9.18839E-19
 -1      2725 9.53421E-05-2.81108E-05-2.88142E-05 1.15665E-06 1.49025E-19-6.94953E-19
 -1      2726 9.56262E-05-2.81558E-05-2.89178E-05 1.53277E-06-4.50615E-19-3.89856E-19
 -1      2727 9.57382E-05-2.81330E-05-2.89682E-05 1.74303E-06-3.59658E-19-4.39223E-19
 -1      2728 9.53804E-05-2.79929E-05-2.88813E-05 1.52266E-06 2.39255E-19-2.56594E-19
 -1      2729 9.57687E-05-2.80826E-05-2.90105E-05 1.98526E-06 1.85965E-19 3.13298E-20
 -1      2730 9.59114E-05-2.80684E-05-2.90694E-05 2.23693E-06 4.50359E-19 2.19813E-19
 -1      2731 9.54322E-05-2.78689E-05-2.89567E-05 1.97430E-06 4.18347E-19 1.17458E-18
 -1      2732 9.59542E-05-2.80237E-05-2.91154E-05 2.52382E-06-8.16749E-20 1.01074E-19
 -1      2733 9.61346E-05-2.80272E-05-2.91822E-05 2.81458E-06-1.70370E-19-2.45625E-19
 -1      2734 9.55044E-05-2.77501E-05-2.90386E-05 2.51565E-06-2.59569E-19 1.14549E-18
 -1      2735 9.61972E-05-2.79995E-05-2.92298E-05 3.14295E-06 1.69846E-19-3.83807E-19
 -1      2736 9.64243E-05-2.80352E-05-2.93028E-05 3.46424E-06 5.77926E-20-5.38862E-19
 -1      2737 9.56088E-05-2.76571E-05-2.91234E-05 3.14438E-06-1.19381E-19-3.47433E-20
 -1      2738 9.65195E-05-2.80433E-05-2.93484E-05 3.82423E-06-3.51478E-19-7.68124E-19
 -1      2739 9.68051E-05-2.81333E-05-2.94243E-05 4.15766E-06-3.56141E-19-7.17168E-19
 -1      2740 9.57655E-05-2.76246E-05-2.92049E-05 3.84755E-06-8.65555E-20-9.72105E-19
 -1      2741 9.69547E-05-2.82072E-05-2.94632E-05 4.52923E-06-3.94709E-19-6.21401E-19
 -1      2742 9.73153E-05-2.83845E-05-2.95366E-05 4.84188E-06-5.89919E-19-6.11088E-19
 -1      2743 9.60085E-05-2.77080E-05-2.92743E-05 4.59596E-06-2.43270E-19-1.60213E-18
 -1      2744 9.75552E-05-2.85690E-05-2.95625E-05 5.19006E-06-5.00337E-19 1.16665E-19
 -1      2745 9.80147E-05-2.88806E-05-2.96262E-05 5.42844E-06-2.17449E-19 3.35411E-19
 -1      2746 9.63942E-05-2.79919E-05-2.93200E-05 5.33655E-06-5.05219E-19-5.57543E-19
 -1      2747 9.84015E-05-2.92394E-05-2.96327E-05 5.69678E-06-4.74387E-20 4.23466E-19
 -1      2748 9.89930E-05-2.97472E-05-2.96785E-05 5.77991E-06 4.78634E-19 5.65518E-19
 -1      2749 9.70134E-05-2.85984E-05-2.93293E-05 5.98220E-06 1.58520E-19 7.81529E-19
 -1      2750 9.96112E-05-3.03634E-05-2.96612E-05 5.88160E-06 4.20218E-19 2.33790E-19
 -1      2751 1.00376E-04-3.11384E-05-2.96821E-05 5.69435E-06 4.79955E-19 2.87830E-19
 -1      2752 9.80046E-05-2.96927E-05-2.92916E-05 6.39779E-06 2.38469E-19 1.65668E-19
 -1      2753 1.01340E-04-3.21045E-05-2.96439E-05 5.50012E-06 6.71110E-19-2.99777E-19
 -1      2754 1.02319E-04-3.32058E-05-2.96394E-05 4.89008E-06 8.07607E-19-3.93446E-19
 -1      2755 9.95645E-05-3.14741E-05-2.92070E-05 6.38046E-06-1.92495E-20-1.05311E-18
 -1      2756 1.03757E-04-3.45900E-05-2.95989E-05 4.21299E-06 3.04524E-19-6.15964E-19
 -1      2757 1.04954E-04-3.60093E-05-2.95832E-05 2.99886E-06-8.46914E-19-1.05050E-18
 -1      2758 1.01939E-04-3.41312E-05-2.90997E-05 5.63159E-06 1.12925E-19-1.06983E-18
 -1      2759 1.06953E-04-3.77763E-05-2.95876E-05 1.58883E-06-4.74659E-20-8.91443E-19
 -1      2760 1.08269E-04-3.93351E-05-2.95995E-05-4.00036E-07 8.42943E-19-3.28128E-19
 -1      2761 1.05356E-04-3.77171E-05-2.90418E-05 3.72546E-06 1.50441E-19-1.08388E-18
 -1      2762 1.10746E-04-4.12045E-05-2.97365E-05-2.82203E-06 8.08865E-19 5.10677E-19
 -1      2763 1.11873E-04-4.23999E-05-2.98472E-05-5.64113E-06 9.94178E-19 8.38500E-19
 -1      2764 1.09851E-04-4.19044E-05-2.91804E-05 1.18373E-07 1.16928E-18 2.73428E-19
 -1      2765 1.14359E-04-4.36622E-05-3.02497E-05-9.20392E-06 1.47274E-18 9.37164E-19
 -1      2766 1.14730E-04-4.35953E-05-3.05555E-05-1.25705E-05 8.33874E-19 1.87772E-18
 -1      2767 1.14918E-04-4.55699E-05-2.97584E-05-5.70168E-06 1.17132E-18-1.26071E-20
 -1      2768 1.16183E-04-4.30487E-05-3.13728E-05-1.68710E-05-2.77692E-19 2.82708E-18
 -1      2769 1.15089E-04-4.06339E-05-3.19438E-05-1.98597E-05-2.17165E-19 2.46991E-18
 -1      2770 1.19094E-04-4.64638E-05-3.11054E-05-1.37016E-05 8.53999E-19 7.34834E-20
 -1      2771 1.14224E-04-3.71317E-05-3.32038E-05-2.33246E-05-9.50761E-20 2.11567E-18
 -1      2772 1.11416E-04-3.20437E-05-3.39764E-05-2.42799E-05 1.10511E-18 1.55256E-18
 -1      2773 1.19878E-04-4.18122E-05-3.34451E-05-2.21858E-05-1.61849E-19 9.32795E-19
 -1      2774 1.07888E-04-2.59408E-05-3.53936E-05-2.44461E-05 1.78375E-18 1.63918E-18
 -1      2775 1.04127E-04-1.98162E-05-3.60819E-05-2.18561E-05 1.41462E-18 2.44973E-18
 -1      2776 1.15627E-04-3.05487E-05-3.64585E-05-2.65559E-05 1.28688E-18 8.65972E-19
 -1      2777 9.98642E-05-1.40567E-05-3.70228E-05-1.70250E-05 1.06456E-18 1.93698E-18
 -1      2778 9.69673E-05-1.03409E-05-3.71787E-05-1.11268E-05 1.75098E-18 9.26711E-19
 -1      2779 1.07488E-04-1.59228E-05-3.93383E-05-2.22811E-05 1.04572E-18 9.49590E-19
 -1      2780 9.44948E-05-8.43085E-06-3.69429E-05-3.25862E-06 2.60023E-18-2.88683E-19
 -1      2781 9.40297E-05-9.96693E-06-3.61568E-05 3.76516E-06 1.38524E-18 6.80604E-21
 -1      2782 1.00595E-04-7.06392E-06-4.02623E-05-9.28365E-06 8.64927E-19-7.03302E-20
 -1      2783 9.44832E-05-2.81312E-05-2.84364E-05-8.98674E-07 6.17145E-19-8.46632E-19
 -1      2784 9.44994E-05-2.80035E-05-2.84871E-05-7.23399E-07 7.97395E-19-7.52060E-19
 -1      2785 9.49332E-05-2.82423E-05-2.85880E-05-9.11759E-07 5.85359E-19-9.39238E-19
 -1      2786 9.45599E-05-2.78523E-05-2.85899E-05-4.47847E-07 7.89917E-19-8.76798E-19
 -1      2787 9.46478E-05-2.76650E-05-2.86885E-05-1.04094E-07 9.16045E-19-8.82965E-19
 -1      2788 9.50108E-05-2.79114E-05-2.87651E-05-4.57954E-07 7.46232E-19-9.73776E-19
 -1      2789 9.45237E-05-2.84375E-05-2.83218E-05-1.14838E-06 2.96513E-19-3.90406E-19
 -1      2790 9.44667E-05-2.83732E-05-2.83227E-05-1.14607E-06 3.49139E-19-6.08211E-19
 -1      2791 9.48989E-05-2.84495E-05-2.84827E-05-1.11836E-06 2.39851E-19-9.79101E-19
 -1      2792 9.45953E-05-2.85182E-05-2.83179E-05-1.09905E-06 5.83963E-19-6.40442E-19
 -1      2793 9.45263E-05-2.84725E-05-2.83077E-05-1.13557E-06 4.60712E-19-4.38659E-19
 -1      2794 9.48977E-05-2.85770E-05-2.84261E-05-1.16597E-06 3.98856E-19-1.00167E-18
 -1      2795 9.46789E-05-2.85694E-05-2.83318E-05-9.96360E-07 6.13498E-19-6.39603E-19
 -1      2796 9.46072E-05-2.85377E-05-2.83158E-05-1.05343E-06 6.27623E-19-6.30382E-19
 -1      2797 9.49183E-05-2.86517E-05-2.84019E-05-1.11643E-06 6.01145E-19-9.02611E-19
 -1      2798 9.47642E-05-2.85999E-05-2.83554E-05-8.68740E-07 3.79851E-19-5.82264E-19
 -1      2799 9.46958E-05-2.85786E-05-2.83369E-05-9.34215E-07 5.78236E-19-5.32103E-19
 -1      2800 9.49510E-05-2.86908E-05-2.83983E-05-1.01250E-06 4.94366E-19-3.38783E-19
 -1      2801 9.48450E-05-2.86155E-05-2.83834E-05-7.35002E-07 7.39176E-20-3.33816E-19
 -1      2802 9.47829E-05-2.86020E-05-2.83646E-05-8.00976E-07 1.94829E-19-3.43849E-19
 -1      2803 9.49889E-05-2.87061E-05-2.84076E-05-8.83214E-07 1.08698E-19-3.68708E-19
 -1      2804 9.49180E-05-2.86206E-05-2.84126E-05-6.07282E-07-9.52912E-20-4.80180E-19
 -1      2805 9.48637E-05-2.86131E-05-2.83946E-05-6.68730E-07 1.03558E-19-6.02961E-19
 -1      2806 9.50277E-05-2.87056E-05-2.84240E-05-7.47944E-07 1.79053E-19 8.21818E-20
 -1      2807 9.49821E-05-2.86183E-05-2.84411E-05-4.93200E-07 3.02982E-19-6.69903E-19
 -1      2808 9.49357E-05-2.86152E-05-2.84245E-05-5.47018E-07 4.03712E-20-3.18373E-19
 -1      2809 9.50646E-05-2.86948E-05-2.84443E-05-6.19259E-07 6.70400E-20-1.10872E-19
 -1      2810 9.50378E-05-2.86107E-05-2.84682E-05-3.97487E-07 4.29902E-19-1.15300E-18
 -1      2811 9.49983E-05-2.86110E-05-2.84531E-05-4.41763E-07 4.24187E-19-5.91346E-19
 -1      2812 9.50984E-05-2.86774E-05-2.84661E-05-5.05160E-07 3.33039E-19-1.65747E-19
 -1      2813 9.50864E-05-2.85993E-05-2.84938E-05-3.23202E-07 2.84838E-19-8.04514E-19
 -1      2814 9.50526E-05-2.86021E-05-2.84800E-05-3.56674E-07 3.36927E-19-1.08643E-18
 -1      2815 9.51289E-05-2.86556E-05-2.84886E-05-4.10736E-07 3.26617E-19-5.16759E-19
 -1      2816 9.51300E-05-2.85847E-05-2.85187E-05-2.72672E-07-1.40671E-19-6.09624E-19
 -1      2817 9.51001E-05-2.85896E-05-2.85056E-05-2.94314E-07 2.61844E-19-7.29270E-19
 -1      2818 9.51567E-05-2.86305E-05-2.85112E-05-3.39428E-07 9.71849E-20-2.59118E-19
 -1      2819 9.51714E-05-2.85673E-05-2.85437E-05-2.48209E-07-1.17511E-20-5.39163E-19
 -1      2820 9.51432E-05-2.85739E-05-2.85307E-05-2.56905E-07-3.11966E-19-6.17979E-19
 -1      2821 9.51827E-05-2.86025E-05-2.85345E-05-2.93997E-07-8.27047E-20-4.68260E-19
 -1      2822 9.52140E-05-2.85470E-05-2.85704E-05-2.52670E-07 3.17321E-19-8.07195E-19
 -1      2823 9.51850E-05-2.85551E-05-2.85565E-05-2.46966E-07 1.18012E-19-1.06148E-18
 -1      2824 9.52084E-05-2.85711E-05-2.85590E-05-2.77267E-07 2.94613E-19-5.47273E-19
 -1      2825 9.52616E-05-2.85235E-05-2.86004E-05-2.89897E-07 5.95862E-19-9.34743E-19
 -1      2826 9.52289E-05-2.85330E-05-2.85847E-05-2.67803E-07 7.47627E-19-5.28811E-19
 -1      2827 9.52355E-05-2.85356E-05-2.85861E-05-2.92700E-07 3.76575E-19-6.22423E-19
 -1      2828 9.53185E-05-2.84963E-05-2.86360E-05-3.65061E-07 5.49931E-19-8.18663E-19
 -1      2829 9.52789E-05-2.85072E-05-2.86171E-05-3.23892E-07 5.84175E-19-8.90548E-19
 -1      2830 9.52663E-05-2.84945E-05-2.86170E-05-3.44845E-07 6.80659E-19-1.87815E-19
 -1      2831 9.53901E-05-2.84650E-05-2.86795E-05-4.84901E-07-6.27883E-19-5.92767E-20
 -1      2832 9.53397E-05-2.84771E-05-2.86561E-05-4.21172E-07 8.33490E-20-2.25524E-19
 -1      2833 9.53029E-05-2.84464E-05-2.86535E-05-4.39666E-07-5.86039E-20 7.07061E-21
 -1      2834 9.54821E-05-2.84290E-05-2.87335E-05-6.57878E-07-1.22039E-18-1.12575E-18
 -1      2835 9.54164E-05-2.84421E-05-2.87040E-05-5.67243E-07-9.47077E-19-1.91057E-19
 -1      2836 9.53483E-05-2.83893E-05-2.86976E-05-5.84765E-07-3.56846E-19 6.52684E-19
 -1      2837 9.56012E-05-2.83882E-05-2.88012E-05-8.94166E-07-1.41488E-18-1.57153E-18
 -1      2838 9.55151E-05-2.84018E-05-2.87637E-05-7.71437E-07-1.34202E-18-1.32470E-18
 -1      2839 9.54053E-05-2.83214E-05-2.87514E-05-7.89475E-07-1.04472E-18-7.46664E-20
 -1      2840 9.57550E-05-2.83429E-05-2.88854E-05-1.20544E-06-7.35500E-19-1.37624E-18
 -1      2841 9.56426E-05-2.83561E-05-2.88382E-05-1.04473E-06-1.29108E-18-1.84874E-18
 -1      2842 9.54771E-05-2.82410E-05-2.88168E-05-1.06478E-06-1.15416E-18-6.57851E-19
 -1      2843 9.59516E-05-2.82942E-05-2.89893E-05-1.60435E-06 1.64999E-19-9.99512E-19
 -1      2844 9.58063E-05-2.83055E-05-2.89303E-05-1.39937E-06 3.22456E-19-1.16736E-18
 -1      2845 9.55671E-05-2.81469E-05-2.88958E-05-1.42296E-06-5.64974E-19-9.51403E-19
 -1      2846 9.62001E-05-2.82453E-05-2.91155E-05-2.10337E-06-1.38350E-19-9.78590E-19
 -1      2847 9.60147E-05-2.82520E-05-2.90429E-05-1.84812E-06-2.98350E-19-9.93272E-19
 -1      2848 9.56789E-05-2.80393E-05-2.89900E-05-1.87689E-06-1.90877E-19-1.18560E-18
 -1      2849 9.65102E-05-2.82024E-05-2.92655E-05-2.71296E-06-1.81383E-19-1.01616E-18
 -1      2850 9.62769E-05-2.81999E-05-2.91780E-05-2.40282E-06 1.21174E-20-9.17742E-19
 -1      2851 9.58164E-05-2.79209E-05-2.90996E-05-2.43873E-06-3.04283E-20-1.07839E-18
 -1      2852 9.68933E-05-2.81775E-05-2.94392E-05-3.43826E-06-2.40772E-19-6.87036E-19
 -1      2853 9.66034E-05-2.81580E-05-2.93363E-05-3.07197E-06-4.36640E-19-8.73993E-19
 -1      2854 9.59842E-05-2.77988E-05-2.92237E-05-3.11779E-06-4.44425E-19-6.66917E-19
 -1      2855 9.73633E-05-2.81926E-05-2.96333E-05-4.27382E-06 2.13081E-19 8.55780E-20
 -1      2856 9.70072E-05-2.81429E-05-2.95162E-05-3.85666E-06 3.78092E-19-1.76421E-19
 -1      2857 9.61898E-05-2.76890E-05-2.93587E-05-3.91715E-06-1.02209E-21-1.72674E-22
 -1      2858 9.79406E-05-2.82873E-05-2.98402E-05-5.19532E-06 1.32565E-19-3.12344E-19
 -1      2859 9.75067E-05-2.81847E-05-2.97123E-05-4.74420E-06 1.74535E-19-1.47720E-20
 -1      2860 9.64463E-05-2.76222E-05-2.94972E-05-4.82846E-06 8.47115E-20-3.03719E-19
 -1      2861 9.86599E-05-2.85302E-05-3.00457E-05-6.14690E-06 6.27458E-20-4.31364E-19
 -1      2862 9.81320E-05-2.83371E-05-2.99141E-05-5.69806E-06-1.42108E-19-3.55974E-19
 -1      2863 9.67806E-05-2.76547E-05-2.96269E-05-5.82428E-06 2.22036E-19-1.54204E-18
 -1      2864 9.95830E-05-2.90348E-05-3.02284E-05-7.02260E-06 9.93207E-19-8.87762E-19
 -1      2865 9.89359E-05-2.86909E-05-3.01044E-05-6.64276E-06 5.81669E-19-6.53191E-19
 -1      2866 9.72461E-05-2.78843E-05-2.97296E-05-6.84677E-06 3.72221E-19-2.28305E-18
 -1      2867 1.00820E-04-2.99788E-05-3.03602E-05-7.64047E-06 1.57782E-18-2.06212E-18
 -1      2868 1.00013E-04-2.93934E-05-3.02593E-05-7.44159E-06 1.60982E-18-1.60179E-18
 -1      2869 9.79458E-05-2.84720E-05-2.97819E-05-7.79138E-06 1.80378E-18-2.26900E-18
 -1      2870 1.02551E-04-3.16139E-05-3.04127E-05-7.70913E-06 9.82834E-19-1.91433E-18
 -1      2871 1.01525E-04-3.06654E-05-3.03515E-05-7.86520E-06 1.52675E-18-1.81985E-18
 -1      2872 9.90647E-05-2.96655E-05-2.97591E-05-8.48260E-06 1.77657E-18-2.53173E-18
 -1      2873 1.05040E-04-3.42361E-05-3.03733E-05-6.78990E-06 7.88058E-19-7.87549E-19
 -1      2874 1.03722E-04-3.27982E-05-3.03616E-05-7.54976E-06 9.70965E-19-1.35199E-18
 -1      2875 1.00908E-04-3.18077E-05-2.96480E-05-8.63725E-06 5.96215E-19-1.96824E-18
 -1      2876 1.08570E-04-3.80486E-05-3.02794E-05-4.27074E-06 1.97471E-19-6.26015E-19
 -1      2877 1.06929E-04-3.60814E-05-3.03030E-05-5.94925E-06 7.13363E-19-1.24638E-19
 -1      2878 1.03918E-04-3.52874E-05-2.94729E-05-7.80710E-06 3.79811E-19 1.57430E-19
 -1      2879 1.13222E-04-4.27888E-05-3.02749E-05 5.98801E-07-1.71778E-18-3.75370E-19
 -1      2880 1.11406E-04-4.05669E-05-3.02692E-05-2.30641E-06-1.08743E-18 3.12984E-19
 -1      2881 1.08597E-04-4.03382E-05-2.93457E-05-5.29931E-06-5.91555E-19 1.37357E-18
 -1      2882 1.18413E-04-4.71138E-05-3.06686E-05 8.37839E-06-1.00474E-18-4.90599E-19
 -1      2883 1.16925E-04-4.55179E-05-3.04977E-05 4.18502E-06-1.46872E-18-6.72074E-19
 -1      2884 1.15164E-04-4.64826E-05-2.95447E-05-1.35980E-07-1.03917E-18 1.26820E-18
 -1      2885 1.22350E-04-4.79774E-05-3.19400E-05 1.86353E-05-1.21398E-18-2.54441E-21
 -1      2886 1.22155E-04-4.87771E-05-3.14073E-05 1.37760E-05-1.23588E-18-7.96780E-19
 -1      2887 1.22761E-04-5.16496E-05-3.05816E-05 8.60007E-06-1.02220E-18 8.68002E-20
 -1      2888 1.21704E-04-4.13274E-05-3.44714E-05 2.80473E-05-5.05573E-20-1.27508E-18
 -1      2889 1.23929E-04-4.61555E-05-3.34833E-05 2.46836E-05-2.42973E-19-1.06963E-18
 -1      2890 1.28769E-04-5.15609E-05-3.30627E-05 2.02918E-05-1.98934E-19-9.16397E-19
 -1      2891 1.14803E-04-2.67855E-05-3.77899E-05 3.00957E-05 1.04799E-18-1.20393E-18
 -1      2892 1.19662E-04-3.48403E-05-3.67276E-05 3.12712E-05-2.19037E-19-1.22089E-18
 -1      2893 1.28916E-04-4.18044E-05-3.74168E-05 3.05012E-05 9.31736E-21-1.98153E-18
 -1      2894 1.10342E-04-1.04971E-05-4.31188E-05 2.03969E-05 2.39964E-18-5.53523E-19
 -1      2895 1.14720E-04-1.71646E-05-4.22978E-05 2.71358E-05 1.77633E-18-1.07911E-18
 -1      2896 1.05177E-04-1.53648E-05-3.86272E-05-9.71496E-06 1.56807E-18 1.34887E-18
 -1      2897 1.48883E-04-3.75811E-05-4.77355E-05 9.63358E-06 2.10996E-18 6.46286E-19
 -1      2898 1.48230E-04-3.90331E-05-4.73174E-05 3.03476E-05 8.11246E-19-2.89484E-18
 -1      2899 1.45004E-04-2.68153E-05-5.14718E-05 3.16805E-05-7.00920E-20-2.92004E-18
 -1      2900 1.33601E-04-1.98779E-05-4.90672E-05 3.10598E-05 8.46186E-19-3.24795E-18
 -1      2901 1.05722E-04-4.42392E-05-2.55303E-05 8.74452E-05 1.68983E-19 3.59792E-18
 -1      2902 9.47113E-05-2.19080E-05-3.12081E-05 7.83792E-06 1.69095E-18-8.41190E-19
 -1      2903 1.01173E-04-1.22789E-05-3.83726E-05 9.87507E-06 5.05255E-19 2.77800E-20
 -1      2904 1.08992E-04-1.22043E-05-4.17176E-05 6.59195E-06 1.00559E-18-5.13725E-19
 -1      2905 1.56676E-04-3.68779E-05-5.14030E-05-2.24796E-05 8.28716E-19 5.51630E-19
 -1      2906 9.47295E-05-2.74146E-05-2.88520E-05 3.79857E-07 1.06846E-18-9.39339E-19
 -1      2907 9.49090E-05-2.71210E-05-2.90244E-05 9.85477E-07 1.22511E-18-8.54486E-19
 -1      2908 9.51326E-05-2.73816E-05-2.90458E-05 3.66321E-07 1.00386E-18-1.12350E-18
 -1      2909 1.34898E-04-1.76179E-06-5.78462E-05 1.66323E-05 2.67048E-18-9.78270E-19
 -1      2910 1.36097E-04-1.75262E-06-5.83145E-05 9.07264E-06 2.51463E-18 6.16852E-19
 -1      2911 9.49856E-05-2.66913E-05-2.92744E-05 1.77498E-06 1.32986E-18-8.16896E-19
 -1      2912 9.52522E-05-2.61945E-05-2.95593E-05 2.78253E-06 1.43016E-18-8.05771E-19
 -1      2913 9.52738E-05-2.50222E-05-3.01056E-05 3.81435E-06 1.54949E-18-1.14066E-18
 -1      2914 9.52573E-05-2.65052E-05-2.94729E-05 1.72858E-06 1.33344E-18-1.08636E-18
 -1      2915 1.45939E-04-2.56927E-05-5.22912E-05 3.35989E-06 1.88126E-18 1.74531E-18
 -1      2916 1.31866E-04 1.91907E-06-5.81634E-05-1.66284E-05 1.95665E-18 1.76651E-18
 -1      2917 1.37431E-04-3.58020E-06-5.80304E-05-2.34025E-05 2.43310E-18 8.21781E-19
 -1      2918 1.36284E-04-1.42894E-05-5.28278E-05-1.42330E-06 2.08878E-18 1.07086E-18
 -1      2919 1.31803E-04-2.24026E-05-4.75243E-05-2.11139E-06 1.63964E-18 8.27975E-19
 -1      2920 1.19859E-04-1.84863E-05-4.44249E-05-8.95482E-06 3.62848E-19 8.44068E-19
 -1      2921 9.28484E-05-1.80061E-05-3.20751E-05-8.80468E-06-1.42572E-18-1.52751E-18
 -1      2922 1.32240E-04-3.67409E-06-5.58116E-05-2.93977E-06 1.58078E-18 7.46130E-19
 -1      2923 1.28796E-04 1.41731E-06-5.67037E-05-8.50568E-06 2.03034E-18 2.08325E-18
 -1      2924 9.11712E-05-1.60855E-05-3.22075E-05 4.91430E-06 1.32439E-18-2.08563E-18
 -1      2925 9.08272E-05-1.55861E-05-3.22679E-05 3.99251E-06 1.03672E-18-2.27737E-18
 -1      2926 9.18046E-05-1.71969E-05-3.19594E-05 3.19596E-06 9.17319E-19-2.20187E-18
 -1      2927 9.24752E-05-1.82578E-05-3.17876E-05 4.61210E-06 1.19152E-18-1.96826E-18
 -1      2928 9.07927E-05-1.55402E-05-3.22728E-05-3.92931E-06-5.05809E-19-2.27452E-18
 -1      2929 9.11257E-05-1.60229E-05-3.22138E-05-4.85699E-06-7.10742E-19-2.15128E-18
 -1      2930 5.94683E-05-3.90305E-05-8.19554E-06-3.50897E-05 1.55663E-18-3.43027E-18
 -1      2931 7.60141E-05-4.88716E-05-1.13518E-05-3.93464E-05 5.28760E-19-2.85175E-18
 -1      2932 6.28009E-05-4.00770E-05-9.42737E-06 3.91442E-05 8.52115E-19 2.13262E-18
 -1      2933 4.65404E-05-3.04916E-05-6.29011E-06 3.02505E-05 1.09220E-18 1.33132E-18
 -1      2934 9.90704E-05-5.96996E-05-1.69749E-05 4.00082E-05-1.92171E-19-2.06030E-18
 -1      2935 8.09147E-05-5.06418E-05-1.23955E-05 4.08927E-05 5.85300E-19-2.37593E-19
 -1      2936 1.34637E-04-7.05352E-05-2.77367E-05 1.91464E-05-1.20273E-18-5.66586E-19
 -1      2937 1.18611E-04-6.70269E-05-2.15858E-05 3.13201E-05-1.30496E-18-5.87656E-19
 -1      2938 1.54227E-04-6.11634E-05-4.03566E-05-9.23447E-06 3.53464E-19-2.23151E-18
 -1      2939 1.46943E-04-6.73551E-05-3.40988E-05 1.69809E-06 2.52522E-20-1.68697E-18
 -1      2940 1.52980E-04-3.86054E-05-4.98192E-05-2.46204E-05 6.22146E-19-1.63604E-18
 -1      2941 1.53872E-04-4.95994E-05-4.49203E-05-1.90443E-05 3.12343E-19-2.54788E-18
 -1      2942 1.42997E-04-1.35792E-05-5.63597E-05-2.72552E-05 5.98005E-19 1.46113E-19
 -1      2943 1.47855E-04-2.48009E-05-5.32165E-05-2.81011E-05-1.88888E-19-8.96584E-19
 -1      2944 9.26061E-05-5.73427E-05-1.45760E-05-3.77816E-05-7.87952E-19-1.31449E-18
 -1      2945 1.10039E-04-6.49328E-05-1.92929E-05-3.34409E-05-4.52104E-19 1.98185E-18
 -1      2946 8.83383E-05-5.17457E-05-1.51205E-05-3.54236E-05-3.42095E-19-5.01973E-19
 -1      2947 3.77323E-05-2.41098E-05-5.17077E-06 2.14467E-05 1.14598E-18 6.93085E-19
 -1      2948 3.39928E-05-2.00534E-05-5.34142E-06 7.77549E-06 1.95792E-18-1.61974E-18
 -1      2949 5.12612E-05-2.68297E-05-9.84851E-06 2.47570E-05 4.21664E-19 4.36857E-19
 -1      2950 1.33349E-04-6.49095E-06-5.51071E-05 2.14688E-06 2.40282E-18 1.45753E-18
 -1      2951 9.15623E-05-1.66845E-05-3.21134E-05-5.57448E-06-8.73345E-19-2.08046E-18
 -1      2952 9.20383E-05-1.74341E-05-3.20200E-05-6.44263E-06-1.09640E-18-1.95435E-18
 -1      2953 9.24163E-05-1.81902E-05-3.17979E-05-4.55373E-06-7.50678E-19-1.91790E-18
 -1      2954 9.12782E-05-1.63866E-05-3.20843E-05 2.86661E-08 2.68932E-19-2.18579E-18
 -1      2955 9.01561E-05-1.45971E-05-3.24018E-05-3.82731E-07 1.03806E-19-2.45513E-18
 -1      2956 9.02130E-05-1.46777E-05-3.23919E-05-1.33976E-06-4.61435E-20-2.45694E-18
 -1      2957 1.25953E-04-4.56663E-06-5.24711E-05 1.98184E-05 2.15633E-18-2.44822E-18
 -1      2958 1.23570E-04-4.92333E-06-5.10503E-05 1.55475E-06 2.80686E-18-2.69621E-19
 -1      2959 1.47891E-04-5.33766E-05-4.07127E-05 2.40523E-05 8.38245E-19-1.17558E-18
 -1      2960 1.49976E-04-4.74683E-05-4.44236E-05 2.85354E-05 1.06430E-18-2.13569E-18
 -1      2961 1.40651E-04-3.74357E-05-4.46377E-05 3.29003E-05-3.49401E-20-2.37042E-18
 -1      2962 1.01611E-04-7.93190E-06-4.06440E-05 9.24531E-07 3.33080E-18 5.83903E-19
 -1      2963 1.02425E-04-7.57153E-06-4.09452E-05 1.01486E-05 3.40153E-18 4.59793E-19
 -1      2964 1.30884E-04-8.88075E-06-5.27871E-05-2.54415E-05 5.53113E-19 8.65032E-20
 -1      2965 1.42594E-04-3.10433E-05-4.81515E-05-2.86777E-05 7.17860E-20-8.87902E-19
 -1      2966 1.41780E-04-6.98694E-05-3.07363E-05 8.36954E-06-7.19660E-19-1.33000E-18
 -1      2967 1.32476E-04-6.78074E-05-2.76849E-05 1.42908E-05-9.81288E-19-4.95435E-19
 -1      2968 1.42936E-04-6.51080E-05-3.33793E-05-2.99403E-06-3.68363E-19-1.01358E-18
 -1      2969 1.10900E-04-6.19230E-05-2.05613E-05 3.18699E-05-8.14846E-19-1.87155E-18
 -1      2970 9.28618E-05-1.86341E-05-3.18088E-05-7.05410E-06-1.17688E-18-1.72624E-18
 -1      2971 9.42448E-05-2.09662E-05-3.14428E-05-7.72254E-06-1.49903E-18-1.18571E-18
 -1      2972 9.47498E-05-2.27751E-05-3.08509E-05-6.03575E-06-1.46221E-18-1.05157E-18
 -1      2973 9.35080E-05-2.00285E-05-3.14733E-05-5.73470E-06-1.06225E-18-1.67428E-18
 -1      2974 9.43569E-05-2.14230E-05-3.12614E-05 7.21183E-06 1.63883E-18-1.26253E-18
 -1      2975 1.16766E-04-9.95505E-06-4.63650E-05 4.77530E-06 7.94940E-19 6.98696E-19
 -1      2976 1.30919E-04-1.55318E-05-4.98352E-05-2.45568E-06 3.02814E-20 1.16573E-18
 -1      2977 1.22228E-04-6.87740E-05-2.24753E-05-2.64493E-05 3.96517E-19 2.73696E-18
 -1      2978 1.30537E-04-7.08597E-05-2.60798E-05-1.73117E-05-1.55272E-19 2.20025E-18
 -1      2979 1.13310E-04-6.32308E-05-2.11166E-05-2.81394E-05-1.93653E-19 2.02759E-18
 -1      2980 1.11863E-04-3.94625E-06-4.67471E-05 1.64386E-06 1.28262E-18 9.49603E-19
 -1      2981 7.65122E-05-4.37294E-05-1.34722E-05 3.67763E-05-3.52048E-19 3.27166E-20
 -1      2982 3.68660E-05-1.91918E-05-6.76391E-06-1.44556E-08 2.52203E-18-3.72313E-18
 -1      2983 4.23885E-05-1.97875E-05-9.19842E-06-7.35005E-06 2.85016E-18-4.14083E-18
 -1      2984 4.35655E-05-1.90199E-05-1.00928E-05 7.91180E-06 1.16207E-18-2.83724E-18
 -1      2985 9.41711E-05-1.20071E-05-3.53450E-05 7.59414E-06 5.36648E-19 2.81334E-19
 -1      2986 9.84218E-05-1.12831E-05-3.74092E-05 7.60776E-06 5.94538E-19-3.37013E-19
 -1      2987 9.03389E-05-1.48693E-05-3.23643E-05-2.17551E-06-1.41194E-19-2.25094E-18
 -1      2988 9.05239E-05-1.51331E-05-3.23322E-05-3.12623E-06-3.77796E-19-2.26623E-18
 -1      2989 9.17733E-05-1.71577E-05-3.19645E-05-3.13503E-06-4.81177E-19-2.05509E-18
 -1      2990 9.13965E-05-1.65700E-05-3.20558E-05-1.58098E-06-9.56221E-20-2.26549E-18
 -1      2991 9.46187E-05-2.24669E-05-3.09140E-05 5.68861E-06 1.52538E-18-1.31275E-18
 -1      2992 1.49288E-04-7.00032E-05-3.39009E-05 1.97648E-06 8.03199E-19 1.97221E-18
 -1      2993 9.45884E-05-2.24129E-05-3.09124E-05-5.46601E-06-1.29325E-18-1.18787E-18
 -1      2994 5.38573E-05-3.22521E-05-8.64467E-06-2.92426E-05 1.39898E-18-3.99630E-18
 -1      2995 6.51951E-05-3.57324E-05-1.24802E-05-3.04298E-05 9.93940E-19-2.97954E-18
 -1      2996 4.96916E-05-2.49795E-05-1.01082E-05-2.14913E-05 1.94378E-18-3.83462E-18
 -1      2997 1.48961E-04-5.40704E-05-4.08221E-05-1.81347E-05 4.21717E-19-2.43797E-18
 -1      2998 9.42822E-05-2.18752E-05-3.10599E-05 4.95293E-06 1.40352E-18-1.37835E-18
 -1      2999 9.38035E-05-2.09025E-05-3.12449E-05 4.61370E-06 1.23640E-18-1.55964E-18
 -1      3000 9.52736E-05-2.85712E-05-2.85872E-05-1.08586E-06 9.31279E-20-1.01084E-18
 -1      3001 9.52848E-05-2.84666E-05-2.86308E-05-1.01566E-06 2.78793E-19-1.04841E-18
 -1      3002 9.55070E-05-2.55685E-05-2.99556E-05-2.13998E-06-1.04018E-18-1.12339E-18
 -1      3003 9.55316E-05-2.62629E-05-2.96997E-05-1.32819E-06-1.01173E-18-1.19580E-18
 -1      3004 9.56798E-05-2.68766E-05-2.94721E-05-7.35526E-07-9.38701E-19-1.01900E-18
 -1      3005 9.56550E-05-2.73262E-05-2.92920E-05-2.11171E-07-8.62678E-19-1.03186E-18
 -1      3006 9.56993E-05-2.61911E-05-2.97896E-05-1.16211E-06-9.03726E-19-1.06116E-18
 -1      3007 9.56983E-05-2.77119E-05-2.91258E-05 1.68161E-07-8.10618E-19-8.70144E-19
 -1      3008 9.56611E-05-2.79986E-05-2.90029E-05 4.83051E-07-8.26422E-19-9.40474E-19
 -1      3009 9.58937E-05-2.73291E-05-2.93878E-05-1.56625E-07-7.78472E-19-7.94670E-19
 -1      3010 9.56531E-05-2.82375E-05-2.88845E-05 7.04528E-07-7.37718E-19-7.39586E-19
 -1      3011 9.56207E-05-2.84189E-05-2.88030E-05 8.71953E-07-5.10819E-19-6.92398E-19
 -1      3012 9.59335E-05-2.80537E-05-2.90949E-05 4.77866E-07-6.16243E-19-6.14418E-19
 -1      3013 9.55886E-05-2.85613E-05-2.87208E-05 9.80327E-07-4.18392E-19-6.63521E-19
 -1      3014 9.55653E-05-2.86725E-05-2.86691E-05 1.04855E-06-2.82319E-19-5.31086E-19
 -1      3015 9.58993E-05-2.85063E-05-2.88861E-05 8.34551E-07-4.10700E-19-3.47700E-19
 -1      3016 9.55237E-05-2.87511E-05-2.86137E-05 1.08072E-06-9.61130E-20-3.00142E-19
 -1      3017 9.55091E-05-2.88152E-05-2.85829E-05 1.08525E-06 9.38867E-20-2.51403E-19
 -1      3018 9.58312E-05-2.87754E-05-2.87411E-05 9.95785E-07-5.05356E-21-1.76621E-19
 -1      3019 9.54658E-05-2.88518E-05-2.85472E-05 1.06916E-06 1.46074E-19-1.08164E-19
 -1      3020 9.54579E-05-2.88842E-05-2.85309E-05 1.03544E-06 4.99731E-19 6.12793E-20
 -1      3021 9.57509E-05-2.89213E-05-2.86437E-05 1.02736E-06 2.72440E-19-1.11632E-19
 -1      3022 9.54169E-05-2.88937E-05-2.85093E-05 9.91375E-07 4.08930E-19-4.73730E-20
 -1      3023 9.54137E-05-2.89049E-05-2.85027E-05 9.37161E-07 1.73736E-19-2.33987E-19
 -1      3024 9.56701E-05-2.89856E-05-2.85810E-05 9.78550E-07 2.87798E-19 3.11596E-19
 -1      3025 9.53768E-05-2.88974E-05-2.84912E-05 8.79389E-07-2.69657E-20-3.56514E-19
 -1      3026 9.53767E-05-2.88950E-05-2.84910E-05 8.16829E-07-1.47360E-19-3.73301E-19
 -1      3027 9.55949E-05-2.89968E-05-2.85436E-05 8.84868E-07-2.32224E-20-2.71254E-19
 -1      3028 9.53447E-05-2.88772E-05-2.84865E-05 7.55087E-07-3.55813E-19-2.87325E-19
 -1      3029 9.53465E-05-2.88662E-05-2.84904E-05 6.92290E-07-4.16770E-19-3.38786E-19
 -1      3030 9.55279E-05-2.89746E-05-2.85240E-05 7.71130E-07-1.87348E-19-4.88337E-19
 -1      3031 9.53194E-05-2.88426E-05-2.84907E-05 6.33049E-07-4.75090E-19-3.44114E-19
 -1      3032 9.53223E-05-2.88263E-05-2.84972E-05 5.75319E-07-3.78990E-19-4.10021E-19
 -1      3033 9.54702E-05-2.89325E-05-2.85171E-05 6.54198E-07-3.66651E-19-1.01815E-18
 -1      3034 9.52996E-05-2.87997E-05-2.85007E-05 5.22804E-07-5.07202E-19-6.34880E-19
 -1      3035 9.53032E-05-2.87801E-05-2.85088E-05 4.73586E-07-8.30204E-19-5.51142E-19
 -1      3036 9.54213E-05-2.88789E-05-2.85189E-05 5.45284E-07-6.80317E-19-7.57790E-19
 -1      3037 9.52843E-05-2.87519E-05-2.85147E-05 4.30571E-07-1.11308E-18-4.51158E-19
 -1      3038 9.52882E-05-2.87300E-05-2.85239E-05 3.92180E-07-1.08166E-18-2.21851E-19
 -1      3039 9.53804E-05-2.88188E-05-2.85269E-05 4.51788E-07-8.48820E-19-7.77067E-19
 -1      3040 9.52723E-05-2.87007E-05-2.85315E-05 3.60613E-07-1.01546E-18 1.00061E-19
 -1      3041 9.52765E-05-2.86769E-05-2.85416E-05 3.34784E-07-6.46091E-19 2.99879E-19
 -1      3042 9.53459E-05-2.87547E-05-2.85395E-05 3.78740E-07-8.92469E-19-2.72808E-19
 -1      3043 9.52625E-05-2.86460E-05-2.85508E-05 3.16259E-07-4.16262E-19 1.48684E-19
 -1      3044 9.52670E-05-2.86200E-05-2.85619E-05 3.04570E-07-1.26497E-20-9.44592E-20
 -1      3045 9.53161E-05-2.86869E-05-2.85557E-05 3.29915E-07-4.51878E-19-7.16325E-20
 -1      3046 9.52538E-05-2.85868E-05-2.85725E-05 3.00690E-07 1.30854E-19 4.93351E-20
 -1      3047 9.52588E-05-2.85578E-05-2.85849E-05 3.04880E-07-4.81203E-20 8.34292E-20
 -1      3048 9.52888E-05-2.86142E-05-2.85751E-05 3.08684E-07 9.19289E-20 1.34950E-20
 -1      3049 9.52451E-05-2.85209E-05-2.85971E-05 3.17529E-07-3.18787E-19 3.81932E-19
 -1      3050 9.52508E-05-2.84880E-05-2.86112E-05 3.39725E-07 2.07966E-19 3.49557E-20
 -1      3051 9.52617E-05-2.85342E-05-2.85977E-05 3.18654E-07 1.42035E-19 3.26506E-19
 -1      3052 9.52352E-05-2.84457E-05-2.86253E-05 3.71263E-07 4.58697E-19-1.63186E-19
 -1      3053 9.52419E-05-2.84077E-05-2.86416E-05 4.14134E-07 5.44787E-19-6.37469E-19
 -1      3054 9.52322E-05-2.84437E-05-2.86237E-05 3.64144E-07 5.09736E-21 5.71567E-19
 -1      3055 9.52229E-05-2.83581E-05-2.86578E-05 4.67516E-07 5.16012E-19-7.51498E-19
 -1      3056 9.52309E-05-2.83138E-05-2.86768E-05 5.34350E-07 2.29217E-19-9.27097E-19
 -1      3057 9.51974E-05-2.83388E-05-2.86537E-05 4.50494E-07 3.58050E-19-7.56942E-20
 -1      3058 9.52068E-05-2.82551E-05-2.86954E-05 6.13176E-07-2.10306E-19-3.51520E-19
 -1      3059 9.52168E-05-2.82033E-05-2.87177E-05 7.07858E-07-3.30397E-19 1.06240E-19
 -1      3060 9.51540E-05-2.82155E-05-2.86878E-05 5.84240E-07 4.92054E-19-3.74996E-19
 -1      3061 9.51857E-05-2.81338E-05-2.87387E-05 8.16325E-07-4.45363E-19 6.43793E-19
 -1      3062 9.51983E-05-2.80739E-05-2.87648E-05 9.43198E-07-4.94841E-19 6.82789E-19
 -1      3063 9.50987E-05-2.80699E-05-2.87264E-05 7.73105E-07-1.17456E-19 4.70632E-19
 -1      3064 9.51585E-05-2.79924E-05-2.87881E-05 1.08594E-06-8.04138E-20 4.35031E-19
 -1      3065 9.51747E-05-2.79247E-05-2.88182E-05 1.24951E-06 3.19373E-19 3.29296E-19
 -1      3066 9.50278E-05-2.78989E-05-2.87691E-05 1.02580E-06-3.04968E-19 1.14187E-18
 -1      3067 9.51249E-05-2.78313E-05-2.88432E-05 1.43130E-06 5.51269E-19-2.45986E-20
 -1      3068 9.51463E-05-2.77576E-05-2.88771E-05 1.63571E-06 7.95613E-19 9.93749E-19
 -1      3069 9.49383E-05-2.77017E-05-2.88150E-05 1.35154E-06 5.51238E-19 1.21729E-18
 -1      3070 9.50857E-05-2.76544E-05-2.89028E-05 1.86097E-06 6.75033E-19 2.46677E-19
 -1      3071 9.51151E-05-2.75788E-05-2.89398E-05 2.10921E-06 4.86970E-19 6.60567E-19
 -1      3072 9.48280E-05-2.74807E-05-2.88623E-05 1.75930E-06 6.09737E-19 4.01379E-19
 -1      3073 9.50447E-05-2.74711E-05-2.89642E-05 2.38125E-06-2.82874E-19 8.95658E-19
 -1      3074 9.50864E-05-2.74021E-05-2.90027E-05 2.67399E-06-5.84142E-19 6.22190E-19
 -1      3075 9.46974E-05-2.72441E-05-2.89075E-05 2.25664E-06 1.40408E-19-2.28546E-19
 -1      3076 9.50106E-05-2.73005E-05-2.90230E-05 2.99408E-06-9.85374E-19 4.11131E-19
 -1      3077 9.50724E-05-2.72525E-05-2.90604E-05 3.32802E-06-3.66146E-19-1.42947E-19
 -1      3078 9.45515E-05-2.70095E-05-2.89454E-05 2.84809E-06-8.18812E-19 1.79230E-19
 -1      3079 9.50009E-05-2.71754E-05-2.90723E-05 3.69405E-06-5.31821E-19-5.94562E-19
 -1      3080 9.50959E-05-2.71719E-05-2.91046E-05 4.05970E-06-8.36488E-19-4.71888E-19
 -1      3081 9.44037E-05-2.68084E-05-2.89684E-05 3.53313E-06-8.50103E-19 4.84829E-20
 -1      3082 9.50479E-05-2.71497E-05-2.91026E-05 4.46455E-06-8.76822E-19-5.46618E-19
 -1      3083 9.51985E-05-2.72273E-05-2.91246E-05 4.84342E-06-5.64584E-19-1.01676E-18
 -1      3084 9.42821E-05-2.66934E-05-2.89663E-05 4.30372E-06-8.13381E-19-6.79778E-19
 -1      3085 9.52083E-05-2.73067E-05-2.91020E-05 5.27277E-06 5.19858E-19-1.09737E-18
 -1      3086 9.54511E-05-2.75201E-05-2.91071E-05 5.63356E-06-2.39735E-19-1.85939E-19
 -1      3087 9.42383E-05-2.67467E-05-2.89264E-05 5.14127E-06-8.57879E-20-1.03126E-18
 -1      3088 9.55765E-05-2.77702E-05-2.90573E-05 6.06279E-06-4.06074E-19 5.76410E-19
 -1      3089 9.59696E-05-2.81966E-05-2.90392E-05 6.35647E-06 2.97689E-19 4.76947E-19
 -1      3090 9.43611E-05-2.70919E-05-2.88347E-05 6.01268E-06 4.07744E-19-2.36956E-19
 -1      3091 9.63027E-05-2.87137E-05-2.89571E-05 6.74521E-06-2.01876E-19 5.61854E-19
 -1      3092 9.69323E-05-2.94551E-05-2.89123E-05 6.89804E-06-5.53601E-19-4.72737E-19
 -1      3093 9.47956E-05-2.79054E-05-2.86790E-05 6.86392E-06 1.52436E-19-1.37331E-19
 -1      3094 9.76121E-05-3.03636E-05-2.87997E-05 7.17967E-06-2.71614E-19-1.24742E-19
 -1      3095 9.85956E-05-3.15391E-05-2.87331E-05 7.08267E-06 4.06026E-19 3.09733E-19
 -1      3096 9.57666E-05-2.94251E-05-2.84555E-05 7.60692E-06-4.75424E-19 3.38768E-19
 -1      3097 9.98175E-05-3.29785E-05-2.86061E-05 7.14300E-06 2.70687E-19 9.62636E-20
 -1      3098 1.01288E-04-3.46938E-05-2.85400E-05 6.63618E-06-3.25831E-19-4.92651E-19
 -1      3099 9.76021E-05-3.19431E-05-2.81812E-05 8.09103E-06 6.38133E-20 3.74026E-19
 -1      3100 1.03299E-04-3.67749E-05-2.84445E-05 6.26606E-06 2.36785E-19-1.62438E-20
 -1      3101 1.05348E-04-3.90332E-05-2.84337E-05 5.12045E-06 7.72444E-19 5.31800E-19
 -1      3102 1.00745E-04-3.57617E-05-2.79176E-05 8.04096E-06 6.60513E-19 5.90235E-19
 -1      3103 1.08361E-04-4.17069E-05-2.84689E-05 3.95209E-06 1.02504E-18 7.87739E-19
 -1      3104 1.10906E-04-4.42359E-05-2.86144E-05 1.88401E-06 1.32599E-18 8.79697E-19
 -1      3105 1.05686E-04-4.10177E-05-2.78133E-05 6.90716E-06 1.36332E-18 1.15970E-18
 -1      3106 1.14905E-04-4.70519E-05-2.89552E-05-6.32209E-07 1.24508E-18 1.17522E-18
 -1      3107 1.17496E-04-4.89769E-05-2.94175E-05-3.84371E-06 1.33863E-18 9.09551E-19
 -1      3108 1.12659E-04-4.73123E-05-2.81543E-05 3.76841E-06 1.66557E-18 1.89890E-18
 -1      3109 1.21907E-04-5.09270E-05-3.03376E-05-8.18015E-06 1.14228E-18 8.26453E-19
 -1      3110 1.23529E-04-5.05855E-05-3.13216E-05-1.25502E-05 8.17752E-19 8.76586E-19
 -1      3111 1.21264E-04-5.26058E-05-2.94793E-05-2.74739E-06 1.08207E-18 1.11213E-18
 -1      3112 1.26296E-04-4.90724E-05-3.31361E-05-1.82300E-05 1.63300E-19 3.69042E-19
 -1      3113 1.25633E-04-4.45598E-05-3.47860E-05-2.23440E-05 1.49620E-19 4.99864E-19
 -1      3114 1.29002E-04-5.37747E-05-3.22146E-05-1.26156E-05 7.94002E-19 1.54385E-19
 -1      3115 1.14730E-04-1.91785E-05-4.14409E-05-2.66146E-05 1.82668E-18-9.73651E-19
 -1      3116 1.10180E-04-1.08747E-05-4.27409E-05-2.23403E-05 8.88643E-19-7.30526E-19
 -1      3117 1.07272E-04-4.66807E-06-4.43923E-05-1.52388E-05 1.77930E-19-3.26353E-19
 -1      3118 1.04907E-04-2.71038E-06-4.42036E-05-7.54983E-06 1.06684E-18-5.91001E-19
 -1      3119 9.53180E-05-2.83378E-05-2.87076E-05-8.97066E-07 4.18010E-19-9.56078E-19
 -1      3120 9.53493E-05-2.81722E-05-2.87813E-05-7.23188E-07 5.69066E-19-1.06442E-18
 -1      3121 9.56419E-05-2.84293E-05-2.88096E-05-8.73004E-07 4.12499E-19-9.65674E-19
 -1      3122 9.53712E-05-2.79571E-05-2.88958E-05-4.81646E-07 6.84318E-19-1.16900E-18
 -1      3123 9.54262E-05-2.76990E-05-2.90128E-05-1.51094E-07 7.95925E-19-1.10976E-18
 -1      3124 9.56885E-05-2.80087E-05-2.90105E-05-4.81691E-07 6.33680E-19-1.23938E-18
 -1      3125 1.14540E-04-1.18233E-05-4.42978E-05-4.54152E-06 2.06295E-18 9.74247E-19
 -1      3126 9.52229E-05-2.87797E-05-2.84749E-05-1.07631E-06 3.51986E-19-7.44022E-19
 -1      3127 9.52109E-05-2.87438E-05-2.84843E-05-1.11143E-06 4.00887E-19-9.75989E-19
 -1      3128 9.52124E-05-2.88091E-05-2.84576E-05-9.74799E-07 3.31338E-19-2.93952E-19
 -1      3129 9.51958E-05-2.87921E-05-2.84583E-05-1.03099E-06 3.73226E-19-2.13760E-19
 -1      3130 9.54673E-05-2.88912E-05-2.85346E-05-1.03841E-06 1.33089E-19-6.29191E-19
 -1      3131 9.52083E-05-2.88108E-05-2.84550E-05-8.49742E-07-1.54175E-19-9.42437E-20
 -1      3132 9.51899E-05-2.88064E-05-2.84503E-05-9.14566E-07 1.46791E-19-3.79233E-19
 -1      3133 9.54207E-05-2.89107E-05-2.85057E-05-9.39989E-07 9.84359E-20-4.36609E-19
 -1      3134 9.52082E-05-2.87950E-05-2.84618E-05-7.19685E-07 1.20489E-20 5.71677E-20
 -1      3135 9.51899E-05-2.87989E-05-2.84539E-05-7.84903E-07-6.07557E-20 1.32380E-20
 -1      3136 9.53819E-05-2.88996E-05-2.84935E-05-8.19429E-07-1.64611E-19-5.26676E-19
 -1      3137 9.52108E-05-2.87685E-05-2.84743E-05-5.96781E-07 2.45833E-19-1.03448E-19
 -1      3138 9.51936E-05-2.87777E-05-2.84648E-05-6.57050E-07 3.47541E-19 1.26092E-19
 -1      3139 9.53503E-05-2.88697E-05-2.84925E-05-6.94691E-07 1.17270E-19-3.07529E-19
 -1      3140 9.52151E-05-2.87356E-05-2.84902E-05-4.88861E-07 2.20839E-19-3.11183E-19
 -1      3141 9.51994E-05-2.87483E-05-2.84800E-05-5.40757E-07 1.88778E-19-1.72682E-19
 -1      3142 9.53251E-05-2.88288E-05-2.84989E-05-5.77632E-07 2.39367E-19-4.71935E-19
 -1      3143 9.52206E-05-2.86988E-05-2.85084E-05-4.01025E-07 1.37324E-19-1.51260E-19
 -1      3144 9.52063E-05-2.87139E-05-2.84977E-05-4.42303E-07 2.14001E-19-3.23733E-19
 -1      3145 9.53051E-05-2.87817E-05-2.85105E-05-4.75995E-07 2.14393E-19-3.95531E-19
 -1      3146 9.52270E-05-2.86589E-05-2.85282E-05-3.36860E-07 4.40980E-20-1.80032E-19
 -1      3147 9.52137E-05-2.86760E-05-2.85171E-05-3.65883E-07 1.27980E-19-2.47902E-22
 -1      3148 9.52894E-05-2.87306E-05-2.85255E-05-3.94949E-07 1.46015E-19 2.82047E-19
 -1      3149 9.52344E-05-2.86159E-05-2.85497E-05-2.99377E-07-2.82152E-19-1.41791E-19
 -1      3150 9.52215E-05-2.86349E-05-2.85381E-05-3.14684E-07-4.84076E-20-1.81151E-19
 -1      3151 9.52770E-05-2.86763E-05-2.85434E-05-3.38272E-07-8.13576E-20-1.03380E-19
 -1      3152 9.52429E-05-2.85687E-05-2.85734E-05-2.91735E-07 5.54421E-19-3.23449E-19
 -1      3153 9.52298E-05-2.85901E-05-2.85608E-05-2.91706E-07 7.49436E-20 2.23665E-20
 -1      3154 9.52666E-05-2.86180E-05-2.85639E-05-3.09262E-07-9.14299E-20-2.99867E-19
 -1      3155 9.52529E-05-2.85156E-05-2.86003E-05-3.17793E-07 4.27223E-19 9.50998E-20
 -1      3156 9.52385E-05-2.85400E-05-2.85860E-05-3.00389E-07 4.49589E-19 1.94056E-19
 -1      3157 9.52570E-05-2.85539E-05-2.85873E-05-3.11439E-07 2.19769E-19 5.07257E-19
 -1      3158 9.52647E-05-2.84541E-05-2.86314E-05-3.82534E-07 1.80898E-19 4.68934E-19
 -1      3159 9.52479E-05-2.84826E-05-2.86148E-05-3.45101E-07 6.25186E-19 1.69237E-19
 -1      3160 9.52471E-05-2.84812E-05-2.86142E-05-3.49075E-07 3.69921E-19 7.80316E-19
 -1      3161 9.52788E-05-2.83816E-05-2.86681E-05-4.92358E-07-1.14713E-20 1.06066E-18
 -1      3162 9.52584E-05-2.84151E-05-2.86484E-05-4.31494E-07-3.37772E-19 6.11946E-19
 -1      3163 9.52351E-05-2.83965E-05-2.86453E-05-4.27583E-07-5.32204E-20 1.68379E-18
 -1      3164 9.52953E-05-2.82949E-05-2.87119E-05-6.55266E-07-5.95181E-19 1.29190E-18
 -1      3165 9.52699E-05-2.83348E-05-2.86880E-05-5.66744E-07 1.93303E-19 1.59837E-18
 -1      3166 9.52192E-05-2.82957E-05-2.86817E-05-5.53778E-07-4.65797E-20 1.53018E-18
 -1      3167 9.53146E-05-2.81909E-05-2.87641E-05-8.80881E-07-5.60656E-19 1.85955E-19
 -1      3168 9.52827E-05-2.82381E-05-2.87353E-05-7.59658E-07-5.39992E-19 8.60464E-19
 -1      3169 9.51970E-05-2.81745E-05-2.87241E-05-7.36005E-07-7.99064E-20 1.68367E-18
 -1      3170 9.53364E-05-2.80665E-05-2.88262E-05-1.18029E-06-8.11949E-19-4.11344E-19
 -1      3171 9.52965E-05-2.81221E-05-2.87914E-05-1.02061E-06-4.19909E-19-1.33353E-20
 -1      3172 9.51657E-05-2.80282E-05-2.87732E-05-9.84087E-07-2.10215E-19 2.03552E-19
 -1      3173 9.53604E-05-2.79194E-05-2.88988E-05-1.56559E-06-9.39634E-19-8.82300E-19
 -1      3174 9.53107E-05-2.79837E-05-2.88574E-05-1.36128E-06-1.04035E-18-6.34680E-19
 -1      3175 9.51214E-05-2.78526E-05-2.88293E-05-1.30908E-06-6.41288E-19-5.51748E-19
 -1      3176 9.53857E-05-2.77489E-05-2.89819E-05-2.04905E-06-4.02654E-19-8.04927E-19
 -1      3177 9.53245E-05-2.78213E-05-2.89336E-05-1.79402E-06-6.54820E-19-9.12785E-19
 -1      3178 9.50597E-05-2.76444E-05-2.88918E-05-1.72273E-06-8.75008E-19-7.04955E-19
 -1      3179 9.54114E-05-2.75576E-05-2.90741E-05-2.64179E-06-5.62530E-19-6.96821E-20
 -1      3180 9.53369E-05-2.76355E-05-2.90193E-05-2.33083E-06-1.42313E-19-1.44387E-19
 -1      3181 9.49755E-05-2.74025E-05-2.89589E-05-2.23659E-06-6.14765E-19 6.45472E-20
 -1      3182 9.54379E-05-2.73540E-05-2.91720E-05-3.35160E-06 6.60940E-20-1.95944E-19
 -1      3183 9.53472E-05-2.74315E-05-2.91120E-05-2.98176E-06-4.33441E-20-2.21087E-19
 -1      3184 9.48636E-05-2.71305E-05-2.90269E-05-2.86068E-06-2.22527E-19 8.31808E-19
 -1      3185 9.54687E-05-2.71576E-05-2.92688E-05-4.17994E-06-5.37002E-19-8.73914E-19
 -1      3186 9.53573E-05-2.72226E-05-2.92067E-05-3.75248E-06-2.31914E-19-1.21247E-18
 -1      3187 9.47205E-05-2.68397E-05-2.90895E-05-3.60168E-06 3.51850E-19-1.55750E-18
 -1      3188 9.55163E-05-2.70063E-05-2.93535E-05-5.11766E-06 4.17507E-19-1.12732E-18
 -1      3189 9.53747E-05-2.70362E-05-2.92946E-05-4.64091E-06 3.81126E-20-5.86567E-19
 -1      3190 9.45479E-05-2.65558E-05-2.91365E-05-4.46067E-06-2.36601E-19-1.93911E-18
 -1      3191 9.56117E-05-2.69692E-05-2.94099E-05-6.13924E-06 4.93106E-19-1.94109E-18
 -1      3192 9.54208E-05-2.69246E-05-2.93621E-05-5.63264E-06 5.47008E-19-1.23712E-18
 -1      3193 9.43596E-05-2.63280E-05-2.91531E-05-5.43056E-06 5.51439E-19-2.22697E-18
 -1      3194 9.58228E-05-2.71654E-05-2.94158E-05-7.19507E-06 1.10016E-18-2.89732E-18
 -1      3195 9.55443E-05-2.69795E-05-2.93902E-05-6.69476E-06 5.64733E-19-2.61343E-18
 -1      3196 9.41943E-05-2.62445E-05-2.91187E-05-6.49345E-06 9.09033E-19-2.17808E-18
 -1      3197 9.62835E-05-2.77895E-05-2.93448E-05-8.20068E-06 1.80104E-18-2.52076E-18
 -1      3198 9.58455E-05-2.73557E-05-2.93543E-05-7.76728E-06 1.47205E-18-2.67524E-18
 -1      3199 9.41385E-05-2.64547E-05-2.90078E-05-7.61793E-06 1.27026E-18-2.93402E-18
 -1      3200 9.72363E-05-2.91405E-05-2.91728E-05-9.01959E-06 1.57517E-18-1.87465E-18
 -1      3201 9.65135E-05-2.82986E-05-2.92285E-05-8.74971E-06 1.77553E-18-2.29221E-18
 -1      3202 9.43620E-05-2.71986E-05-2.87925E-05-8.75480E-06 1.33788E-18-3.21842E-18
 -1      3203 9.90830E-05-3.16366E-05-2.88935E-05-9.43124E-06-3.34908E-19-4.70463E-20
 -1      3204 9.78783E-05-3.01712E-05-2.89955E-05-9.47578E-06 4.09496E-19-5.92477E-19
 -1      3205 9.51718E-05-2.88408E-05-2.84519E-05-9.82493E-06 1.75410E-19-9.70026E-19
 -1      3206 1.02416E-04-3.57737E-05-2.85515E-05-9.06380E-06-7.66681E-19 1.40959E-18
 -1      3207 1.00465E-04-3.34514E-05-2.86712E-05-9.65925E-06-2.51805E-19 7.36063E-19
 -1      3208 9.70825E-05-3.18897E-05-2.79934E-05-1.06811E-05-1.13493E-18 1.47614E-18
 -1      3209 1.07946E-04-4.19167E-05-2.83042E-05-7.26622E-06-1.33580E-18 1.69053E-18
 -1      3210 1.05004E-04-3.86267E-05-2.83505E-05-8.77534E-06-9.09495E-19 1.50272E-18
 -1      3211 1.00879E-04-3.69597E-05-2.74958E-05-1.09894E-05-1.18926E-18 2.13638E-18
 -1      3212 1.16149E-04-4.96110E-05-2.85344E-05-2.95477E-06-4.10877E-20 1.85288E-20
 -1      3213 1.12255E-04-4.58177E-05-2.83031E-05-5.85194E-06-4.94679E-19 8.30125E-19
 -1      3214 1.07525E-04-4.45133E-05-2.71970E-05-9.98035E-06-4.17460E-19 1.10389E-18
 -1      3215 1.26369E-04-5.65877E-05-2.99674E-05 5.50509E-06 2.42198E-21-1.31776E-18
 -1      3216 1.22438E-04-5.39737E-05-2.91159E-05 6.15799E-07-2.51580E-19-5.65739E-19
 -1      3217 1.18084E-04-5.39225E-05-2.77514E-05-5.92748E-06-1.10611E-20-1.15028E-18
 -1      3218 1.33869E-04-3.82677E-05-4.10895E-05 3.24594E-05 3.85400E-20-2.09799E-18
 -1      3219 1.36161E-04-4.82585E-05-3.80603E-05 2.83836E-05 1.91985E-19-1.82731E-18
 -1      3220 1.26243E-04-2.19092E-05-4.51292E-05 3.18249E-05 2.93285E-19-3.05461E-18
 -1      3221 1.20962E-04-6.92169E-06-4.94635E-05-2.37833E-05 1.32232E-18-1.57275E-18
 -1      3222 1.27269E-04-1.62688E-05-4.79689E-05-2.92009E-05 6.54862E-19-1.45954E-18
 -1      3223 9.49264E-05-2.34741E-05-3.06179E-05-4.11386E-06-1.20864E-18-1.29914E-18
 -1      3224 9.51524E-05-2.45893E-05-3.02596E-05-2.95936E-06-1.05540E-18-1.20423E-18
 -1      3225 9.52407E-05-2.44936E-05-3.03260E-05-2.61429E-06-1.10030E-18-1.20599E-18
 -1      3226 1.45709E-04-3.32590E-05-4.93624E-05-1.06401E-05-2.10911E-19-8.75197E-19
 -1      3227 9.54128E-05-2.73468E-05-2.91782E-05 2.65960E-07 8.87695E-19-1.14855E-18
 -1      3228 9.54775E-05-2.69405E-05-2.93571E-05 8.26918E-07 1.06834E-18-1.04526E-18
 -1      3229 9.56885E-05-2.73334E-05-2.93003E-05 2.16462E-07 9.15350E-19-1.30328E-18
 -1      3230 8.72663E-05-4.79392E-05-1.68315E-05 3.58025E-05-3.14196E-19-2.63369E-18
 -1      3231 7.19191E-05-3.75153E-05-1.43011E-05 3.29108E-05-9.33854E-20 7.85835E-19
 -1      3232 1.22112E-04 7.07354E-07-5.31722E-05-1.08062E-05 2.10318E-18 1.03514E-18
 -1      3233 9.52423E-05-2.87077E-05-2.85145E-05-1.12668E-06 5.23356E-19-1.15008E-18
 -1      3234 9.52392E-05-2.86440E-05-2.85376E-05-1.12240E-06 3.14326E-19-1.11449E-18
 -1      3235 9.55816E-05-2.86821E-05-2.86746E-05-1.05086E-06 3.47509E-19-1.10897E-18
 -1      3236 8.28452E-05-4.50981E-05-1.55013E-05-3.30341E-05 2.71051E-19-1.21602E-19
 -1      3237 9.61866E-05-5.33538E-05-1.82931E-05-3.20814E-05-7.74082E-19 1.74214E-18
 -1      3238 1.41549E-04-6.95483E-05-3.04412E-05-2.09026E-06-3.03661E-19 1.22391E-18
 -1      3239 1.45907E-04-6.47683E-05-3.52393E-05 1.18600E-05 5.42869E-19-6.68574E-19
 -1      3240 9.23628E-05-1.83356E-05-3.17411E-05 1.80977E-06 6.91241E-19-2.05211E-18
 -1      3241 9.22424E-05-1.81332E-05-3.17729E-05 1.05677E-06 5.02343E-19-1.96873E-18
 -1      3242 9.52059E-05-2.42702E-05-3.04038E-05 4.26479E-06 1.54973E-18-1.20132E-18
 -1      3243 9.46367E-05-2.27155E-05-3.08072E-05 4.78057E-06 1.52444E-18-1.22639E-18
 -1      3244 9.49618E-05-2.35965E-05-3.05663E-05 3.69079E-06 1.41382E-18-1.22462E-18
 -1      3245 9.52416E-05-2.52025E-05-3.00304E-05 2.98217E-06 1.53517E-18-1.20097E-18
 -1      3246 1.42202E-04-4.73811E-05-4.12196E-05-2.38306E-05 1.02893E-18-9.53547E-19
 -1      3247 1.43439E-04-5.61879E-05-3.74374E-05-1.64591E-05 5.93294E-19-1.25869E-18
 -1      3248 1.17190E-04-6.28477E-05-2.33847E-05 2.55721E-05-2.12394E-19-5.99011E-20
 -1      3249 1.02263E-04-5.57973E-05-1.94846E-05 3.26662E-05 2.13452E-19-1.68467E-18
 -1      3250 1.32922E-04-2.56829E-05-4.66020E-05-2.99111E-05-7.86682E-20 5.57665E-19
 -1      3251 1.38918E-04-3.72345E-05-4.37473E-05-2.85751E-05 1.04386E-18 1.66283E-19
 -1      3252 1.35126E-04-4.16392E-05-4.01831E-05-2.68185E-05 6.32787E-19 6.58462E-19
 -1      3253 1.25101E-04-2.34372E-05-4.38138E-05-2.88974E-05 1.13989E-18-1.14336E-18
 -1      3254 5.94555E-05-2.93567E-05-1.25788E-05 2.82840E-05 3.40825E-19 1.74923E-18
 -1      3255 5.11077E-05-2.31128E-05-1.16090E-05 1.95089E-05 4.12187E-19 4.91279E-19
 -1      3256 9.40548E-05-2.13141E-05-3.11981E-05-5.27122E-06-1.03393E-18-1.67479E-18
 -1      3257 9.45046E-05-2.24299E-05-3.08890E-05-4.61259E-06-1.11766E-18-1.40316E-18
 -1      3258 9.34347E-05-2.00986E-05-3.14258E-05-4.87120E-06-8.80778E-19-1.75858E-18
 -1      3259 9.21827E-05-1.80334E-05-3.17912E-05 4.07806E-07 3.71356E-19-1.85199E-18
 -1      3260 9.21787E-05-1.80269E-05-3.17917E-05-3.60778E-07 7.11810E-20-1.99837E-18
 -1      3261 9.31335E-05-1.96184E-05-3.14903E-05 6.29865E-07 3.67786E-19-1.75992E-18
 -1      3262 1.43400E-04-2.02860E-05-5.32606E-05-5.93973E-06-2.45428E-19-7.31413E-19
 -1      3263 1.45171E-04-6.06945E-05-3.63412E-05 1.83128E-05 7.42186E-19-1.28918E-18
 -1      3264 1.40024E-04-5.25587E-05-3.77337E-05 2.53054E-05 5.87206E-19-1.48967E-18
 -1      3265 1.33530E-04-5.31391E-05-3.44611E-05 2.25113E-05 9.06590E-21-1.38935E-18
 -1      3266 1.38635E-04-6.15845E-05-3.30159E-05 1.29334E-05-2.22138E-19-1.41883E-18
 -1      3267 1.34618E-04-5.10775E-05-3.60625E-05-2.02884E-05 1.30893E-20 1.72662E-19
 -1      3268 1.28013E-04-4.30281E-05-3.64461E-05-2.47826E-05 1.50984E-19 8.09975E-20
 -1      3269 1.20580E-04-2.68250E-05-4.03058E-05-2.84479E-05 1.16144E-18-1.39350E-19
 -1      3270 1.24075E-04-3.55043E-05-3.83480E-05-2.74606E-05 6.57562E-19 3.84321E-19
 -1      3271 1.33377E-04-5.90782E-05-3.16939E-05 1.13329E-05 5.33101E-20-1.47588E-18
 -1      3272 1.31772E-04-6.24738E-05-3.00106E-05 1.96676E-06 2.75954E-19-1.92237E-18
 -1      3273 1.31457E-04-5.59066E-05-3.26594E-05 1.62467E-05-2.52902E-20-1.49960E-18
 -1      3274 1.32636E-04-3.26226E-05-4.35279E-05 3.37928E-05 1.11702E-20-3.16033E-18
 -1      3275 5.71552E-05-2.25988E-05-1.45219E-05 1.69578E-05 1.18528E-18 2.64751E-19
 -1      3276 4.97011E-05-2.03048E-05-1.20430E-05 1.37932E-05 1.12101E-18-1.08473E-18
 -1      3277 4.97726E-05-1.87821E-05-1.30480E-05 6.63829E-06 1.47908E-18-2.99172E-18
 -1      3278 1.18292E-04-6.08090E-06-4.86245E-05 1.76132E-05 2.73835E-18-1.47980E-18
 -1      3279 9.55215E-05-2.88235E-05-2.85874E-05-1.08813E-06 3.92622E-19-1.13744E-18
 -1      3280 1.00313E-04-5.17659E-05-2.05710E-05-2.67824E-05-5.88794E-19 1.53652E-18
 -1      3281 1.06288E-04-5.75858E-05-2.04583E-05-2.80204E-05-9.70859E-19 1.26597E-18
 -1      3282 1.15135E-04-6.15071E-05-2.32181E-05-2.21661E-05-4.98082E-19 1.00702E-18
 -1      3283 1.34022E-04-6.75795E-05-2.82738E-05-7.07676E-06-3.38072E-19 9.58312E-19
 -1      3284 9.53816E-05-2.64912E-05-2.95321E-05 1.35953E-06 1.22680E-18-1.13275E-18
 -1      3285 9.54329E-05-2.58841E-05-2.97917E-05 2.23702E-06 1.33157E-18-1.13593E-18
 -1      3286 9.53549E-05-2.52301E-05-3.00706E-05 2.59139E-06 1.38906E-18-1.14984E-18
 -1      3287 9.55816E-05-2.64051E-05-2.96541E-05 1.22685E-06 1.04982E-18-1.01687E-18
 -1      3288 1.00824E-04-4.83719E-06-4.12388E-05 2.11290E-06 8.35069E-19-7.67915E-19
 -1      3289 9.72448E-05-5.01819E-05-1.97996E-05 3.00456E-05 4.52104E-19-5.55998E-19
 -1      3290 1.18321E-04-4.02014E-06-4.99861E-05 8.83753E-06 3.55023E-18-9.12996E-19
 -1      3291 1.16446E-04-5.60622E-06-4.75023E-05-4.13990E-07 3.40613E-18 2.94026E-19
 -1      3292 1.15588E-04 9.02170E-07-5.03422E-05-7.97325E-06 1.40671E-18 9.89505E-19
 -1      3293 1.18620E-04-8.37749E-08-5.14481E-05-1.70226E-05 1.39655E-18-6.53062E-19
 -1      3294 1.38514E-04-5.56245E-05-3.55046E-05-1.60803E-05 4.38508E-19-1.17584E-18
 -1      3295 1.42967E-04-6.25382E-05-3.47482E-05-8.99777E-06 3.40454E-19-1.63718E-18
 -1      3296 1.38257E-04-6.37752E-05-3.17279E-05-2.86152E-06-1.66032E-19 4.28546E-19
 -1      3297 1.34518E-04-5.58821E-05-3.37113E-05-1.39161E-05 4.41701E-19-6.07402E-19
 -1      3298 1.07976E-04-2.05182E-06-4.57213E-05-3.86984E-06 1.03677E-18-4.42813E-19
 -1      3299 7.55248E-05-3.81975E-05-1.55563E-05-2.88256E-05 9.04366E-19-8.96267E-19
 -1      3300 9.34258E-05-2.02076E-05-3.14039E-05 4.23907E-06 1.11829E-18-1.79049E-18
 -1      3301 9.30655E-05-1.95461E-05-3.15172E-05 3.64818E-06 9.14576E-19-1.93161E-18
 -1      3302 9.43305E-05-2.19723E-05-3.09886E-05 3.62402E-06 1.07157E-18-1.59791E-18
 -1      3303 9.25144E-05-1.85957E-05-3.16899E-05-2.37150E-06-2.84615E-19-1.97284E-18
 -1      3304 9.27438E-05-1.89879E-05-3.16241E-05-3.07368E-06-4.95192E-19-1.84837E-18
 -1      3305 7.12006E-05-3.35977E-05-1.56835E-05 2.82392E-05 3.30872E-19 5.24155E-19
 -1      3306 9.44710E-05-2.23548E-05-3.09019E-05-3.99990E-06-9.26157E-19-1.45009E-18
 -1      3307 4.83390E-05-2.11156E-05-1.10206E-05-1.35448E-05 2.07155E-18-3.96306E-18
 -1      3308 5.57669E-05-2.39673E-05-1.36051E-05-1.75790E-05 1.47504E-18-3.63822E-18
 -1      3309 4.93310E-05-1.86960E-05-1.28540E-05-4.93784E-06 1.71421E-18-3.57972E-18
 -1      3310 9.27771E-05-1.90466E-05-3.16179E-05 3.12135E-06 9.54637E-19-2.08760E-18
 -1      3311 9.25380E-05-1.86315E-05-3.16851E-05 2.42058E-06 8.01491E-19-2.13322E-18
 -1      3312 9.33484E-05-2.00064E-05-3.14141E-05 1.80086E-06 6.85129E-19-1.99412E-18
 -1      3313 9.37611E-05-2.07886E-05-3.12538E-05 2.84150E-06 8.32016E-19-1.91636E-18
 -1      3314 1.26018E-04-6.52165E-05-2.57930E-05 1.78681E-05-9.44706E-20-2.83134E-19
 -1      3315 1.17129E-04-5.98414E-05-2.44262E-05 2.06030E-05 7.10581E-19-5.64336E-20
 -1      3316 1.30596E-04-6.50505E-05-2.83965E-05 9.09177E-06-3.97311E-20 4.34614E-19
 -1      3317 9.28522E-05-1.91515E-05-3.15962E-05-3.66805E-06-6.79754E-19-1.77716E-18
 -1      3318 9.31958E-05-1.97684E-05-3.14884E-05-4.27819E-06-8.15827E-19-1.78475E-18
 -1      3319 9.38294E-05-2.09325E-05-3.12296E-05-3.92895E-06-8.21228E-19-1.69102E-18
 -1      3320 9.35659E-05-2.04302E-05-3.13298E-05-2.86608E-06-5.52572E-19-1.66859E-18
 -1      3321 9.57012E-05-2.55286E-05-3.00569E-05-1.49085E-06-8.69230E-19-1.14891E-18
 -1      3322 9.58312E-05-2.62669E-05-2.98248E-05-8.67979E-07-7.37364E-19-1.05762E-18
 -1      3323 1.15641E-04-6.78488E-06-4.70425E-05-2.09370E-05 1.11935E-18-3.01102E-18
 -1      3324 1.25816E-04-6.30549E-05-2.64791E-05-1.11546E-05 1.55589E-19 6.55762E-19
 -1      3325 9.60306E-05-2.69113E-05-2.96135E-05-4.41768E-07-7.10772E-19-1.00273E-18
 -1      3326 9.60783E-05-2.74046E-05-2.94392E-05-2.85898E-08-5.80443E-19-8.58188E-19
 -1      3327 9.59830E-05-2.62938E-05-2.98653E-05-7.09210E-07-6.27328E-19-8.68416E-19
 -1      3328 9.61611E-05-2.78264E-05-2.92786E-05 2.51108E-07-4.34296E-19-8.24280E-19
 -1      3329 9.61564E-05-2.81463E-05-2.91518E-05 5.02778E-07-3.45665E-19-5.87067E-19
 -1      3330 9.62623E-05-2.74562E-05-2.94885E-05 1.93087E-08-4.44044E-19-8.01880E-19
 -1      3331 9.61656E-05-2.84106E-05-2.90321E-05 6.63294E-07-4.93162E-19-4.80461E-19
 -1      3332 9.61357E-05-2.86099E-05-2.89420E-05 7.97181E-07-2.48511E-19-4.43139E-19
 -1      3333 9.63547E-05-2.82195E-05-2.92023E-05 4.78975E-07-2.04473E-19-5.40508E-19
 -1      3334 9.61028E-05-2.87656E-05-2.88548E-05 8.72005E-07-1.70267E-19-4.92384E-19
 -1      3335 9.60625E-05-2.88820E-05-2.87925E-05 9.24741E-07 5.29034E-20-4.18169E-19
 -1      3336 9.63327E-05-2.86950E-05-2.89897E-05 7.33102E-07-2.32747E-19-5.74865E-19
 -1      3337 9.60080E-05-2.89640E-05-2.87305E-05 9.41409E-07 2.24088E-19-6.00884E-19
 -1      3338 9.59654E-05-2.90243E-05-2.86889E-05 9.41424E-07 3.27338E-19-3.37287E-19
 -1      3339 9.62478E-05-2.89707E-05-2.88352E-05 8.41229E-07 1.20939E-20-7.92717E-19
 -1      3340 9.59020E-05-2.90572E-05-2.86462E-05 9.21386E-07 1.38407E-19-1.83898E-19
 -1      3341 9.58612E-05-2.90800E-05-2.86198E-05 8.89689E-07 9.91361E-20-3.77458E-19
 -1      3342 9.61324E-05-2.91100E-05-2.87260E-05 8.52004E-07 2.26618E-19-7.41049E-19
 -1      3343 9.57969E-05-2.90813E-05-2.85915E-05 8.48811E-07-2.61616E-20-4.49681E-19
 -1      3344 9.57600E-05-2.90799E-05-2.85761E-05 8.00402E-07-2.91150E-19-6.97698E-19
 -1      3345 9.60069E-05-2.91584E-05-2.86513E-05 8.02813E-07-8.40835E-20-7.78095E-19
 -1      3346 9.56992E-05-2.90616E-05-2.85587E-05 7.49959E-07-3.51483E-19-9.28252E-19
 -1      3347 9.56671E-05-2.90450E-05-2.85511E-05 6.95234E-07-1.50661E-19-9.51081E-19
 -1      3348 9.58837E-05-2.91484E-05-2.86025E-05 7.21037E-07-3.96175E-19-1.36424E-18
 -1      3349 9.56121E-05-2.90153E-05-2.85416E-05 6.42973E-07-1.97736E-19-1.19036E-18
 -1      3350 9.55848E-05-2.89897E-05-2.85395E-05 5.88964E-07-4.61012E-19-1.23517E-18
 -1      3351 9.57696E-05-2.91023E-05-2.85731E-05 6.25994E-07-2.88407E-19-1.25598E-18
 -1      3352 9.55365E-05-2.89537E-05-2.85358E-05 5.40076E-07-8.13427E-19-8.99416E-19
 -1      3353 9.55136E-05-2.89229E-05-2.85377E-05 4.91466E-07-8.19549E-19-8.36911E-19
 -1      3354 9.56676E-05-2.90351E-05-2.85580E-05 5.30918E-07-3.01020E-19-1.36411E-18
 -1      3355 9.54716E-05-2.88836E-05-2.85382E-05 4.49397E-07-4.05726E-19-8.49715E-19
 -1      3356 9.54524E-05-2.88497E-05-2.85429E-05 4.09330E-07-4.22078E-19-5.20484E-19
 -1      3357 9.55783E-05-2.89560E-05-2.85534E-05 4.44721E-07-5.80647E-19-9.12347E-19
 -1      3358 9.54158E-05-2.88084E-05-2.85466E-05 3.76430E-07-8.36193E-19 3.74574E-20
 -1      3359 9.53996E-05-2.87722E-05-2.85535E-05 3.47140E-07-6.20076E-19 3.75230E-19
 -1      3360 9.55005E-05-2.88701E-05-2.85566E-05 3.73437E-07-9.04682E-20-3.64460E-19
 -1      3361 9.53667E-05-2.87291E-05-2.85597E-05 3.25173E-07-6.25800E-19 5.08067E-19
 -1      3362 9.53524E-05-2.86904E-05-2.85683E-05 3.08468E-07-3.91966E-19 2.49989E-19
 -1      3363 9.54317E-05-2.87793E-05-2.85659E-05 3.21371E-07-5.76507E-19 5.06205E-19
 -1      3364 9.53214E-05-2.86446E-05-2.85766E-05 2.99005E-07-2.09683E-19 7.24307E-20
 -1      3365 9.53078E-05-2.86025E-05-2.85869E-05 2.96633E-07 2.12035E-19-1.14886E-19
 -1      3366 9.53684E-05-2.86828E-05-2.85799E-05 2.91997E-07-4.81129E-19 9.02152E-19
 -1      3367 9.52764E-05-2.85522E-05-2.85971E-05 3.01348E-07 5.56496E-19 1.21127E-19
 -1      3368 9.52623E-05-2.85052E-05-2.86090E-05 3.15276E-07 5.22330E-19 6.20686E-19
 -1      3369 9.53064E-05-2.85781E-05-2.85980E-05 2.88640E-07 3.59036E-19 4.99733E-19
 -1      3370 9.52277E-05-2.84484E-05-2.86209E-05 3.36167E-07 2.85852E-19 4.01829E-19
 -1      3371 9.52116E-05-2.83944E-05-2.86347E-05 3.68771E-07 1.43808E-19 3.81343E-19
 -1      3372 9.52408E-05-2.84613E-05-2.86197E-05 3.14992E-07 3.58410E-19 4.85765E-19
 -1      3373 9.51708E-05-2.83285E-05-2.86482E-05 4.08315E-07-2.09768E-19 4.95909E-19
 -1      3374 9.51513E-05-2.82654E-05-2.86640E-05 4.62500E-07 2.31445E-19-1.83161E-19
 -1      3375 9.51659E-05-2.83274E-05-2.86448E-05 3.75481E-07 9.11371E-20 5.70231E-19
 -1      3376 9.51008E-05-2.81876E-05-2.86790E-05 5.23748E-07 8.87197E-19-3.42264E-19
 -1      3377 9.50761E-05-2.81131E-05-2.86968E-05 6.02988E-07 6.07037E-19-2.61550E-19
 -1      3378 9.50753E-05-2.81706E-05-2.86729E-05 4.75517E-07 4.62144E-19 7.76483E-20
 -1      3379 9.50122E-05-2.80206E-05-2.87130E-05 6.89588E-07 9.01944E-20-3.21111E-19
 -1      3380 9.49805E-05-2.79329E-05-2.87328E-05 7.97877E-07-2.02733E-19-3.17203E-19
 -1      3381 9.49618E-05-2.79850E-05-2.87034E-05 6.21600E-07 4.34894E-19-5.37152E-19
 -1      3382 9.48992E-05-2.78233E-05-2.87497E-05 9.14031E-07 6.96244E-20 3.27478E-19
 -1      3383 9.48586E-05-2.77212E-05-2.87711E-05 1.05572E-06 5.65685E-19 8.50494E-19
 -1      3384 9.48178E-05-2.77653E-05-2.87355E-05 8.21307E-07 5.42733E-19-3.13534E-19
 -1      3385 9.47560E-05-2.75931E-05-2.87876E-05 1.20605E-06 1.80715E-19 1.12305E-18
 -1      3386 9.47051E-05-2.74766E-05-2.88098E-05 1.38557E-06 1.11067E-19 1.14892E-18
 -1      3387 9.46352E-05-2.75075E-05-2.87673E-05 1.08312E-06 2.91137E-19 6.80387E-19
 -1      3388 9.45774E-05-2.73304E-05-2.88244E-05 1.57490E-06 7.05257E-20 6.02328E-19
 -1      3389 9.45157E-05-2.72020E-05-2.88459E-05 1.79628E-06 1.73641E-19-2.60003E-19
 -1      3390 9.44064E-05-2.72106E-05-2.87959E-05 1.41608E-06-3.16759E-19 4.47678E-19
 -1      3391 9.43603E-05-2.70411E-05-2.88560E-05 2.02933E-06-3.12041E-20-5.26656E-19
 -1      3392 9.42889E-05-2.69071E-05-2.88747E-05 2.29558E-06-3.50285E-19-8.68500E-19
 -1      3393 9.41252E-05-2.68787E-05-2.88171E-05 1.82934E-06-9.40729E-20-5.58595E-19
 -1      3394 9.41058E-05-2.67395E-05-2.88769E-05 2.57660E-06-2.56807E-19-6.30355E-19
 -1      3395 9.40288E-05-2.66120E-05-2.88893E-05 2.88892E-06-1.50278E-19-5.87611E-21
 -1      3396 9.37887E-05-2.65236E-05-2.88245E-05 2.33159E-06-1.58193E-19-9.81742E-19
 -1      3397 9.38221E-05-2.64529E-05-2.88786E-05 3.22134E-06-7.71165E-19 5.55032E-19
 -1      3398 9.37496E-05-2.63526E-05-2.88801E-05 3.57816E-06-4.87457E-19 5.77399E-20
 -1      3399 9.34004E-05-2.61696E-05-2.88094E-05 2.93052E-06-2.36001E-19-4.03109E-19
 -1      3400 9.35309E-05-2.62277E-05-2.88505E-05 3.96440E-06-6.18665E-19-1.45346E-19
 -1      3401 9.34820E-05-2.61879E-05-2.88351E-05 4.36035E-06-1.00327E-18-2.82542E-19
 -1      3402 9.29751E-05-2.58588E-05-2.87604E-05 3.63269E-06-6.41748E-19 3.86169E-19
 -1      3403 9.32746E-05-2.61378E-05-2.87787E-05 4.80188E-06-6.80844E-19-6.92290E-19
 -1      3404 9.32840E-05-2.62096E-05-2.87393E-05 5.22662E-06 1.63265E-19-7.16369E-19
 -1      3405 9.25460E-05-2.56589E-05-2.86629E-05 4.44394E-06-9.65094E-19-3.36619E-19
 -1      3406 9.31299E-05-2.62955E-05-2.86477E-05 5.72427E-06 9.30996E-19-3.50024E-19
 -1      3407 9.32555E-05-2.65536E-05-2.85770E-05 6.16105E-06 8.59549E-19-2.08887E-20
 -1      3408 9.21755E-05-2.56734E-05-2.85000E-05 5.37091E-06 5.31894E-19-9.76345E-20
 -1      3409 9.32258E-05-2.68641E-05-2.84419E-05 6.71490E-06-1.51367E-20 1.30285E-19
 -1      3410 9.35606E-05-2.74143E-05-2.83346E-05 7.13756E-06-2.98099E-19-1.07644E-19
 -1      3411 9.19719E-05-2.60543E-05-2.82539E-05 6.42313E-06 5.14646E-19-4.67009E-19
 -1      3412 9.37702E-05-2.80720E-05-2.81512E-05 7.74429E-06-4.22792E-20 2.45550E-19
 -1      3413 9.44551E-05-2.90553E-05-2.80086E-05 8.11009E-06 3.30033E-19 5.83516E-19
 -1      3414 9.21132E-05-2.70175E-05-2.79101E-05 7.61335E-06-1.55655E-19-3.21083E-20
 -1      3415 9.50839E-05-3.02211E-05-2.77812E-05 8.75195E-06-1.94220E-19 9.07572E-19
 -1      3416 9.63184E-05-3.18104E-05-2.76191E-05 8.98392E-06-2.24717E-19 7.31667E-19
 -1      3417 9.28827E-05-2.88590E-05-2.74657E-05 8.94923E-06 3.55554E-19 5.01811E-19
 -1      3418 9.76362E-05-3.36760E-05-2.73719E-05 9.59694E-06 2.02371E-19 2.48220E-19
 -1      3419 9.96873E-05-3.60497E-05-2.72359E-05 9.53964E-06 1.05605E-18 6.27819E-19
 -1      3420 9.47172E-05-3.19659E-05-2.69453E-05 1.03961E-05 6.48865E-20 1.80823E-18
 -1      3421 1.02090E-04-3.88338E-05-2.70357E-05 9.96952E-06 1.78709E-18 5.88322E-19
 -1      3422 1.05229E-04-4.20675E-05-2.70314E-05 9.29438E-06 1.77759E-18 5.21731E-19
 -1      3423 9.82149E-05-3.67621E-05-2.64308E-05 1.17971E-05 1.11586E-18 6.14033E-19
 -1      3424 1.09215E-04-4.57488E-05-2.70417E-05 8.97685E-06 1.33068E-18 1.15978E-18
 -1      3425 1.13508E-04-4.96038E-05-2.73543E-05 7.10527E-06 1.70031E-18 6.98097E-19
 -1      3426 1.04514E-04-4.38717E-05-2.61450E-05 1.26652E-05 1.90495E-18 3.10517E-19
 -1      3427 1.21013E-04-5.61123E-05-2.77458E-05 6.48336E-06 1.44191E-18 2.62382E-19
 -1      3428 1.26098E-04-5.88619E-05-2.87923E-05 2.71658E-06 4.08402E-19 1.28332E-19
 -1      3429 1.31814E-04-5.83145E-05-3.16279E-05-7.64456E-06 3.65442E-19 2.63010E-20
 -1      3430 9.59459E-05-2.80856E-05-2.90876E-05-5.09751E-07 4.14486E-19-9.36649E-19
 -1      3431 9.59638E-05-2.77811E-05-2.92120E-05-2.31828E-07 6.28601E-19-1.06743E-18
 -1      3432 9.55451E-05-2.89810E-05-2.85263E-05-7.54027E-07-1.08314E-19-5.81615E-19
 -1      3433 9.55636E-05-2.89914E-05-2.85308E-05-8.12849E-07-6.05095E-20-5.53047E-19
 -1      3434 9.56143E-05-2.90050E-05-2.85458E-05-8.67190E-07 9.12190E-20-4.81393E-19
 -1      3435 9.56368E-05-2.90009E-05-2.85575E-05-9.18869E-07 2.11756E-19-5.41880E-19
 -1      3436 9.57631E-05-2.90842E-05-2.85783E-05-7.98897E-07 2.12182E-19-5.67997E-19
 -1      3437 9.56912E-05-2.89961E-05-2.85829E-05-9.61919E-07-4.77823E-21-5.76036E-19
 -1      3438 9.57181E-05-2.89692E-05-2.86050E-05-9.95260E-07 6.83799E-21-8.67010E-19
 -1      3439 9.58659E-05-2.90850E-05-2.86223E-05-8.87370E-07 8.85199E-20-3.17540E-19
 -1      3440 9.54851E-05-2.89373E-05-2.85192E-05-6.38595E-07-2.03394E-19-5.15425E-19
 -1      3441 9.54999E-05-2.89565E-05-2.85188E-05-6.97031E-07-3.05709E-19-6.54909E-19
 -1      3442 9.56690E-05-2.90485E-05-2.85530E-05-6.94412E-07-1.12568E-19-2.46547E-19
 -1      3443 9.54341E-05-2.88825E-05-2.85209E-05-5.31635E-07 2.06653E-19-4.45397E-19
 -1      3444 9.54458E-05-2.89069E-05-2.85171E-05-5.84710E-07 1.87473E-19-4.65791E-19
 -1      3445 9.55860E-05-2.89923E-05-2.85412E-05-5.88761E-07-2.36626E-19-5.37366E-19
 -1      3446 9.53913E-05-2.88214E-05-2.85288E-05-4.40243E-07-1.76408E-19 1.74071E-19
 -1      3447 9.54005E-05-2.88489E-05-2.85227E-05-4.84663E-07 1.38136E-20-8.88242E-20
 -1      3448 9.55141E-05-2.89245E-05-2.85392E-05-4.91887E-07 8.60341E-20 1.72898E-19
 -1      3449 9.53553E-05-2.87564E-05-2.85412E-05-3.69264E-07-9.43909E-20 2.87781E-19
 -1      3450 9.53625E-05-2.87861E-05-2.85334E-05-4.02737E-07-3.52704E-20 2.37138E-19
 -1      3451 9.54524E-05-2.88502E-05-2.85444E-05-4.10450E-07-3.05606E-19 8.60989E-20
 -1      3452 9.53242E-05-2.86878E-05-2.85574E-05-3.22371E-07 1.36199E-19-2.02811E-19
 -1      3453 9.53300E-05-2.87196E-05-2.85481E-05-3.43089E-07 9.02192E-20-9.73981E-21
 -1      3454 9.53988E-05-2.87714E-05-2.85551E-05-3.49113E-07 2.57149E-19-6.07738E-20
 -1      3455 9.52961E-05-2.86141E-05-2.85769E-05-3.02907E-07-3.47837E-21-5.86735E-19
 -1      3456 9.53011E-05-2.86488E-05-2.85661E-05-3.09142E-07 1.51385E-19-3.56318E-19
 -1      3457 9.53508E-05-2.86879E-05-2.85701E-05-3.11537E-07 3.85341E-19-2.34624E-19
 -1      3458 9.52683E-05-2.85327E-05-2.85997E-05-3.14510E-07-6.35830E-20 4.77379E-19
 -1      3459 9.52731E-05-2.85716E-05-2.85874E-05-3.04312E-07-2.11330E-19-2.35947E-19
 -1      3460 9.53049E-05-2.85977E-05-2.85890E-05-3.01149E-07-4.40268E-19 2.60986E-19
 -1      3461 9.52380E-05-2.84401E-05-2.86263E-05-3.61597E-07 1.45490E-19 8.71526E-19
 -1      3462 9.52435E-05-2.84847E-05-2.86121E-05-3.32568E-07 2.18560E-19 3.45431E-19
 -1      3463 9.52573E-05-2.84972E-05-2.86115E-05-3.21719E-07 7.28844E-21 1.49569E-19
 -1      3464 9.52018E-05-2.83316E-05-2.86571E-05-4.49696E-07-9.51589E-20 9.60218E-19
 -1      3465 9.52088E-05-2.83841E-05-2.86406E-05-3.98830E-07 1.93211E-19 1.02927E-18
 -1      3466 9.52034E-05-2.83817E-05-2.86378E-05-3.77785E-07 6.40945E-20 3.18720E-19
 -1      3467 9.51558E-05-2.82021E-05-2.86926E-05-5.85654E-07-9.71868E-20 9.68618E-19
 -1      3468 9.51653E-05-2.82649E-05-2.86734E-05-5.09248E-07-2.69567E-19 1.20632E-18
 -1      3469 9.51379E-05-2.82457E-05-2.86678E-05-4.74938E-07-3.73695E-19 7.36486E-19
 -1      3470 9.50949E-05-2.80460E-05-2.87331E-05-7.77695E-07-8.47573E-21 7.54763E-19
 -1      3471 9.51084E-05-2.81215E-05-2.87109E-05-6.71337E-07 1.58650E-20 1.29184E-18
 -1      3472 9.50543E-05-2.80827E-05-2.87015E-05-6.19967E-07-1.24052E-19 1.46562E-19
 -1      3473 9.50134E-05-2.78575E-05-2.87786E-05-1.03530E-06 3.33475E-20 3.12630E-20
 -1      3474 9.50326E-05-2.79482E-05-2.87532E-05-8.93958E-07 3.35567E-19 6.93273E-19
 -1      3475 9.49453E-05-2.78859E-05-2.87388E-05-8.20855E-07 3.44173E-19 4.02318E-19
 -1      3476 9.49043E-05-2.76314E-05-2.88284E-05-1.36889E-06-9.84381E-19-4.26617E-19
 -1      3477 9.49313E-05-2.77392E-05-2.88000E-05-1.18711E-06-3.84084E-19-2.43150E-19
 -1      3478 9.48020E-05-2.76486E-05-2.87786E-05-1.08660E-06 8.17942E-20-2.63022E-19
 -1      3479 9.47594E-05-2.73637E-05-2.88807E-05-1.78921E-06-7.94126E-19-2.72498E-19
 -1      3480 9.47968E-05-2.74899E-05-2.88501E-05-1.56149E-06-9.32975E-19-4.73172E-19
 -1      3481 9.46141E-05-2.73647E-05-2.88191E-05-1.42682E-06-1.10631E-18-4.18901E-19
 -1      3482 9.45697E-05-2.70532E-05-2.89321E-05-2.30644E-06-9.49258E-19 4.61764E-19
 -1      3483 9.46202E-05-2.71973E-05-2.89008E-05-2.02779E-06-7.67455E-19 1.43899E-19
 -1      3484 9.43698E-05-2.70298E-05-2.88571E-05-1.85114E-06-9.15026E-19 4.64753E-19
 -1      3485 9.43261E-05-2.67043E-05-2.89769E-05-2.92898E-06 9.91061E-19-8.33099E-19
 -1      3486 9.43922E-05-2.68627E-05-2.89475E-05-2.59569E-06 2.29824E-20-3.18407E-19
 -1      3487 9.40563E-05-2.66436E-05-2.88873E-05-2.36843E-06 1.30282E-19-8.32663E-19
 -1      3488 9.40213E-05-2.63304E-05-2.90062E-05-3.66207E-06 7.17769E-19-1.49296E-18
 -1      3489 9.41041E-05-2.64941E-05-2.89832E-05-3.27263E-06 1.35505E-18-7.31386E-19
 -1      3490 9.36611E-05-2.62119E-05-2.89017E-05-2.98587E-06 1.11378E-18-1.66394E-18
 -1      3491 9.36546E-05-2.59611E-05-2.90070E-05-4.50646E-06-1.14423E-20-2.49168E-18
 -1      3492 9.37509E-05-2.61122E-05-2.89967E-05-4.06266E-06-6.94365E-20-2.01427E-18
 -1      3493 9.31737E-05-2.57522E-05-2.88885E-05-3.70843E-06 7.51078E-19-1.45878E-18
 -1      3494 9.32393E-05-2.56522E-05-2.89606E-05-5.45783E-06 2.92351E-19-1.72263E-18
 -1      3495 9.33371E-05-2.57577E-05-2.89723E-05-4.96560E-06-5.24288E-21-1.81566E-18
 -1      3496 9.25908E-05-2.53001E-05-2.88311E-05-4.53920E-06-1.85026E-19-2.77113E-18
 -1      3497 9.28170E-05-2.55010E-05-2.88427E-05-6.50767E-06 1.07685E-18-2.01598E-18
 -1      3498 9.28866E-05-2.55046E-05-2.88884E-05-5.97761E-06 1.11525E-18-1.31747E-18
 -1      3499 9.19236E-05-2.49202E-05-2.87071E-05-5.48186E-06 5.01354E-19-1.79597E-18
 -1      3500 9.24824E-05-2.56700E-05-2.86232E-05-7.64650E-06 1.54398E-18-2.19102E-18
 -1      3501 9.24620E-05-2.54788E-05-2.87173E-05-7.09382E-06 1.10464E-18-2.11665E-18
 -1      3502 9.12131E-05-2.47229E-05-2.84874E-05-6.54676E-06 1.08315E-18-1.26376E-18
 -1      3503 9.24231E-05-2.64179E-05-2.82703E-05-8.86827E-06 8.03430E-19-1.64620E-18
 -1      3504 9.21947E-05-2.58851E-05-2.84269E-05-8.31333E-06 1.21862E-18-1.92471E-18
 -1      3505 9.05536E-05-2.48873E-05-2.81372E-05-7.76215E-06 9.12321E-19-9.58930E-19
 -1      3506 9.29788E-05-2.81373E-05-2.77594E-05-1.01702E-05-1.07957E-18-1.10098E-20
 -1      3507 9.23358E-05-2.70429E-05-2.79860E-05-9.64380E-06-2.89973E-19-9.01858E-19
 -1      3508 9.01331E-05-2.56949E-05-2.76190E-05-9.18987E-06-3.64053E-19-1.40691E-19
 -1      3509 9.47304E-05-3.13886E-05-2.70967E-05-1.15241E-05-1.98224E-18 1.20963E-18
 -1      3510 9.33331E-05-2.94256E-05-2.73790E-05-1.10918E-05-1.65729E-18 3.17151E-19
 -1      3511 9.03009E-05-2.75750E-05-2.69028E-05-1.09376E-05-1.59551E-18 1.07719E-18
 -1      3512 9.85716E-05-3.69091E-05-2.63625E-05-1.27860E-05-4.40588E-19 7.91414E-19
 -1      3513 9.59447E-05-3.36898E-05-2.66385E-05-1.26145E-05-9.74260E-19 1.37590E-18
 -1      3514 9.16604E-05-3.11407E-05-2.59890E-05-1.31389E-05-1.41728E-18 8.86997E-19
 -1      3515 1.05952E-04-4.53912E-05-2.58579E-05-1.31920E-05-1.46437E-19-8.95340E-20
 -1      3516 1.01411E-04-4.05699E-05-2.59180E-05-1.37932E-05-2.64297E-19 6.93002E-19
 -1      3517 9.54248E-05-3.74249E-05-2.49614E-05-1.58588E-05-2.03877E-19 1.36091E-19
 -1      3518 9.58980E-05-2.73767E-05-2.93739E-05 9.03820E-08 8.70720E-19-1.12715E-18
 -1      3519 9.58808E-05-2.69073E-05-2.95492E-05 5.48197E-07 8.74136E-19-1.19280E-18
 -1      3520 9.61049E-05-2.74072E-05-2.94433E-05 3.80697E-08 7.08673E-19-1.06998E-18
 -1      3521 9.22338E-05-1.81203E-05-3.17746E-05-1.00640E-06-6.77439E-20-2.20559E-18
 -1      3522 9.23458E-05-1.83089E-05-3.17441E-05-1.76040E-06-1.91738E-19-2.07199E-18
 -1      3523 9.33207E-05-1.99800E-05-3.14195E-05-1.75513E-06-2.14851E-19-1.93205E-18
 -1      3524 7.96084E-05-3.65917E-05-1.84057E-05 2.78050E-05 4.58536E-19 5.82759E-19
 -1      3525 6.88111E-05-2.87931E-05-1.69303E-05 2.32596E-05 4.88142E-19 9.54447E-19
 -1      3526 9.58523E-05-2.87926E-05-2.87407E-05-9.90557E-07 3.68429E-19-9.24610E-19
 -1      3527 9.58853E-05-2.86787E-05-2.87983E-05-9.31791E-07 4.48033E-19-8.70411E-19
 -1      3528 9.57728E-05-2.89347E-05-2.86447E-05-1.01440E-06 3.05437E-19-7.63033E-19
 -1      3529 9.58035E-05-2.88730E-05-2.86817E-05-1.01315E-06 3.67738E-19-8.62300E-19
 -1      3530 9.59722E-05-2.90297E-05-2.86918E-05-9.38078E-07 2.14676E-19-7.71000E-19
 -1      3531 9.59175E-05-2.85291E-05-2.88831E-05-8.43298E-07 3.27320E-19-7.98081E-19
 -1      3532 9.59483E-05-2.83382E-05-2.89691E-05-6.95619E-07 3.25390E-19-7.54825E-19
 -1      3533 9.61496E-05-2.86154E-05-2.89458E-05-7.90747E-07 4.09028E-19-7.63413E-19
 -1      3534 1.18522E-04-5.81721E-05-2.56913E-05-1.31320E-05 9.48677E-20-4.18759E-19
 -1      3535 1.03259E-04-5.16476E-05-2.21877E-05 2.58918E-05 1.28619E-18-1.60830E-19
 -1      3536 9.12245E-05-4.38313E-05-2.00289E-05 2.78776E-05 7.76134E-19-5.96285E-19
 -1      3537 9.42915E-05-2.19774E-05-3.09992E-05-3.61871E-06-8.54303E-19-1.64771E-18
 -1      3538 9.47503E-05-2.29615E-05-3.07471E-05-3.19540E-06-9.29321E-19-1.46131E-18
 -1      3539 9.41353E-05-2.16543E-05-3.10704E-05-3.14895E-06-7.92602E-19-1.67705E-18
 -1      3540 6.95991E-05-3.05399E-05-1.60932E-05-2.41813E-05 7.44873E-19-1.61863E-18
 -1      3541 8.33677E-05-3.98315E-05-1.87232E-05-2.67910E-05 3.17108E-20 1.49237E-18
 -1      3542 9.58665E-05-2.62684E-05-2.98280E-05 8.83848E-07 9.33966E-19-1.20764E-18
 -1      3543 9.57079E-05-2.62686E-05-2.97672E-05 1.05383E-06 9.18332E-19-1.14470E-18
 -1      3544 9.39453E-05-2.12508E-05-3.11596E-05-2.19567E-06-4.24828E-19-1.56402E-18
 -1      3545 9.40190E-05-2.14155E-05-3.11260E-05-2.68978E-06-6.47254E-19-1.50114E-18
 -1      3546 9.45567E-05-2.24012E-05-3.09037E-05-2.45864E-06-6.42799E-19-1.44176E-18
 -1      3547 1.15588E-04-5.47273E-05-2.61960E-05 1.33996E-05 1.37566E-18-3.32050E-19
 -1      3548 9.37977E-05-2.09388E-05-3.12345E-05-1.75022E-06-2.17300E-19-1.85729E-18
 -1      3549 9.42860E-05-2.18326E-05-3.10372E-05-1.64859E-06-3.09189E-19-1.62663E-18
 -1      3550 9.36571E-05-2.06597E-05-3.12890E-05-1.21394E-06-1.26997E-19-1.91205E-18
 -1      3551 9.61759E-05-2.81510E-05-2.91559E-05-4.94537E-07 2.85443E-19-9.32248E-19
 -1      3552 1.11590E-04-5.23777E-05-2.51283E-05-1.52628E-05-3.17527E-19-3.77019E-19
 -1      3553 1.02524E-04-4.78522E-05-2.34627E-05-1.99714E-05-8.80517E-20-4.25952E-19
 -1      3554 6.53268E-05-2.53985E-05-1.68418E-05 2.01306E-05 3.21939E-19 4.23199E-19
 -1      3555 6.25144E-05-2.24469E-05-1.70750E-05 1.48349E-05 8.12477E-19-2.46116E-19
 -1      3556 7.35916E-05-2.82227E-05-1.92995E-05 1.98930E-05 1.18496E-18 7.28051E-19
 -1      3557 9.60723E-05-2.88877E-05-2.87959E-05-9.20031E-07 3.67398E-19-6.68315E-19
 -1      3558 9.51276E-05-2.41545E-05-3.04336E-05-2.34143E-06-9.70252E-19-1.38429E-18
 -1      3559 9.56166E-05-2.57118E-05-2.99552E-05 1.65103E-06 1.05571E-18-1.11616E-18
 -1      3560 9.31212E-05-1.96071E-05-3.14921E-05-5.79442E-07-4.59410E-20-1.97233E-18
 -1      3561 5.58500E-05-1.89283E-05-1.56674E-05 6.01603E-06 1.38390E-18-2.75185E-18
 -1      3562 5.19035E-05-1.81308E-05-1.39839E-05 8.94398E-07 1.43187E-18-3.92986E-18
 -1      3563 5.48508E-05-1.88789E-05-1.54688E-05-4.64665E-06 7.05214E-19-3.77253E-18
 -1      3564 8.79147E-05-3.88106E-05-2.08144E-05 2.41855E-05 1.26471E-18 1.64377E-19
 -1      3565 9.49339E-05-2.35227E-05-3.06221E-05 3.04753E-06 1.14669E-18-1.33471E-18
 -1      3566 9.46624E-05-2.28240E-05-3.07886E-05 2.80268E-06 9.33715E-19-1.56769E-18
 -1      3567 9.52361E-05-2.42019E-05-3.04503E-05-1.97977E-06-7.54887E-19-1.25564E-18
 -1      3568 6.57347E-05-2.62591E-05-1.66748E-05-1.78836E-05 5.41254E-19-1.90323E-18
 -1      3569 9.40831E-05-2.15071E-05-3.11174E-05 1.76559E-06 6.52131E-19-1.96146E-18
 -1      3570 9.39448E-05-2.12163E-05-3.11764E-05 1.24351E-06 4.50262E-19-1.84953E-18
 -1      3571 9.45919E-05-2.23836E-05-3.09352E-05 8.19042E-07 3.09512E-19-1.58712E-18
 -1      3572 9.38574E-05-2.10407E-05-3.12173E-05 8.07244E-07 3.67638E-19-1.61351E-18
 -1      3573 9.38068E-05-2.09367E-05-3.12367E-05 2.46309E-07 1.80348E-19-1.54423E-18
 -1      3574 9.51837E-05-2.39972E-05-3.05160E-05-1.65477E-06-5.57211E-19-1.08808E-18
 -1      3575 9.59196E-05-2.57369E-05-3.00813E-05-9.12095E-07-6.51447E-19-8.14658E-19
 -1      3576 9.61160E-05-2.64574E-05-2.98631E-05-4.61246E-07-5.36428E-19-7.91516E-19
 -1      3577 9.63337E-05-2.70965E-05-2.96675E-05-1.75568E-07-4.99767E-19-7.88655E-19
 -1      3578 9.64197E-05-2.75983E-05-2.95011E-05 1.20757E-07-2.98728E-19-8.16597E-19
 -1      3579 9.62625E-05-2.65626E-05-2.98669E-05-3.29881E-07-5.07601E-19-8.11278E-19
 -1      3580 9.65094E-05-2.80194E-05-2.93482E-05 2.99575E-07-1.47469E-19-9.98284E-19
 -1      3581 9.65208E-05-2.83435E-05-2.92226E-05 4.79863E-07-1.69162E-19-9.55531E-19
 -1      3582 9.65638E-05-2.76950E-05-2.95142E-05 1.38251E-07-3.27283E-19-9.27360E-19
 -1      3583 9.65296E-05-2.86071E-05-2.91058E-05 5.79261E-07-1.31730E-19-7.99536E-19
 -1      3584 9.64982E-05-2.88054E-05-2.90131E-05 6.73177E-07-1.29699E-19-7.73230E-19
 -1      3585 9.66596E-05-2.84327E-05-2.92405E-05 4.29452E-07-1.25141E-19-1.06678E-18
 -1      3586 9.64578E-05-2.89574E-05-2.89259E-05 7.14516E-07-1.70975E-20-7.56458E-19
 -1      3587 9.64042E-05-2.90679E-05-2.88590E-05 7.48432E-07 2.15637E-19-7.35481E-19
 -1      3588 9.66274E-05-2.88876E-05-2.90327E-05 5.84256E-07-5.54395E-20-9.21779E-19
 -1      3589 9.63370E-05-2.91432E-05-2.87953E-05 7.50674E-07 2.41024E-19-7.25678E-19
 -1      3590 9.62742E-05-2.91938E-05-2.87484E-05 7.45560E-07 1.41445E-19-8.08623E-19
 -1      3591 9.65204E-05-2.91419E-05-2.88783E-05 6.42042E-07 1.78361E-19-8.66898E-19
 -1      3592 9.61953E-05-2.92179E-05-2.87033E-05 7.23608E-07-1.07446E-19-8.36902E-19
 -1      3593 9.61312E-05-2.92289E-05-2.86716E-05 6.95293E-07-1.98641E-19-9.70253E-19
 -1      3594 9.63756E-05-2.92583E-05-2.87665E-05 6.35651E-07 4.05759E-20-1.05498E-18
 -1      3595 9.60504E-05-2.92201E-05-2.86408E-05 6.60240E-07-3.12065E-19-1.06344E-18
 -1      3596 9.59897E-05-2.92058E-05-2.86206E-05 6.20154E-07-4.47886E-19-1.10285E-18
 -1      3597 9.62174E-05-2.92832E-05-2.86880E-05 5.90610E-07-3.19278E-19-6.98222E-19
 -1      3598 9.59127E-05-2.91769E-05-2.86006E-05 5.79875E-07-4.66094E-19-1.15219E-18
 -1      3599 9.58576E-05-2.91473E-05-2.85889E-05 5.36009E-07-3.49057E-19-1.01709E-18
 -1      3600 9.60611E-05-2.92498E-05-2.86351E-05 5.25675E-07-4.05264E-19-7.75805E-19
 -1      3601 9.57873E-05-2.91067E-05-2.85772E-05 4.95916E-07-2.38309E-19-1.08672E-18
 -1      3602 9.57388E-05-2.90683E-05-2.85719E-05 4.53729E-07-2.08672E-19-8.56186E-19
 -1      3603 9.59152E-05-2.91810E-05-2.86019E-05 4.54094E-07-2.78684E-19-7.40412E-19
 -1      3604 9.56762E-05-2.90214E-05-2.85664E-05 4.17464E-07-1.83376E-19-7.57547E-19
 -1      3605 9.56340E-05-2.89779E-05-2.85657E-05 3.80660E-07-3.15579E-19-4.70694E-19
 -1      3606 9.57835E-05-2.90916E-05-2.85835E-05 3.84985E-07-5.82420E-20-7.12514E-19
 -1      3607 9.55784E-05-2.89275E-05-2.85649E-05 3.50686E-07-7.64046E-20-4.95305E-19
 -1      3608 9.55416E-05-2.88808E-05-2.85678E-05 3.21839E-07 6.49463E-20-1.75075E-19
 -1      3609 9.56664E-05-2.89907E-05-2.85763E-05 3.24559E-07-1.60874E-20-5.50802E-19
 -1      3610 9.54916E-05-2.88278E-05-2.85706E-05 2.99910E-07-2.04445E-19-6.21631E-19
 -1      3611 9.54585E-05-2.87782E-05-2.85763E-05 2.80958E-07-2.33032E-19-6.59038E-20
 -1      3612 9.55620E-05-2.88824E-05-2.85777E-05 2.77149E-07-2.48433E-19-9.78196E-19
 -1      3613 9.54120E-05-2.87222E-05-2.85819E-05 2.68495E-07-3.07753E-19 3.34929E-19
 -1      3614 9.53807E-05-2.86690E-05-2.85898E-05 2.61120E-07-2.69416E-19 6.90101E-19
 -1      3615 9.54665E-05-2.87676E-05-2.85858E-05 2.46019E-07 9.77630E-20-8.71734E-19
 -1      3616 9.53346E-05-2.86084E-05-2.85977E-05 2.59494E-07 2.37608E-19 9.03927E-19
 -1      3617 9.53028E-05-2.85497E-05-2.86075E-05 2.65414E-07 6.10801E-19 8.35219E-19
 -1      3618 9.53748E-05-2.86443E-05-2.85990E-05 2.34008E-07 8.61389E-20 3.72278E-19
 -1      3619 9.52537E-05-2.84822E-05-2.86174E-05 2.76167E-07 1.93781E-19 6.54105E-19
 -1      3620 9.52187E-05-2.84157E-05-2.86289E-05 2.97347E-07 1.69712E-19 3.47225E-19
 -1      3621 9.52805E-05-2.85084E-05-2.86165E-05 2.44014E-07 4.00771E-19 3.62873E-19
 -1      3622 9.51625E-05-2.83382E-05-2.86403E-05 3.22355E-07-2.54958E-20 1.52306E-19
 -1      3623 9.51212E-05-2.82610E-05-2.86535E-05 3.61155E-07-1.88937E-20-1.51626E-19
 -1      3624 9.51763E-05-2.83545E-05-2.86375E-05 2.79363E-07-1.36130E-19-3.46704E-19
 -1      3625 9.50534E-05-2.81701E-05-2.86660E-05 4.02745E-07 2.00416E-19-2.31156E-19
 -1      3626 9.50024E-05-2.80792E-05-2.86804E-05 4.62002E-07 3.95353E-19-3.72196E-19
 -1      3627 9.50535E-05-2.81757E-05-2.86611E-05 3.44083E-07-6.68310E-20-7.72875E-19
 -1      3628 9.49178E-05-2.79712E-05-2.86936E-05 5.23026E-07 5.10665E-19-4.49271E-19
 -1      3629 9.48534E-05-2.78634E-05-2.87089E-05 6.06082E-07 7.36596E-19-7.12470E-20
 -1      3630 9.49024E-05-2.79647E-05-2.86863E-05 4.43075E-07 2.79392E-19-8.64024E-19
 -1      3631 9.47462E-05-2.77349E-05-2.87219E-05 6.89944E-07 8.60743E-19-2.38289E-19
 -1      3632 9.46643E-05-2.76077E-05-2.87374E-05 8.00594E-07 8.19137E-19 1.21359E-19
 -1      3633 9.47124E-05-2.77142E-05-2.87117E-05 5.82220E-07 9.85635E-19-7.84797E-20
 -1      3634 9.45286E-05-2.74560E-05-2.87489E-05 9.11250E-07 5.43820E-19-3.00256E-19
 -1      3635 9.44251E-05-2.73078E-05-2.87633E-05 1.05363E-06 1.24866E-19-1.92118E-19
 -1      3636 9.44718E-05-2.74176E-05-2.87350E-05 7.68405E-07 5.29783E-19-7.01864E-19
 -1      3637 9.42547E-05-2.71313E-05-2.87714E-05 1.19555E-06-2.76145E-19 1.69907E-19
 -1      3638 9.41261E-05-2.69625E-05-2.87830E-05 1.37394E-06-4.42012E-19 1.67848E-19
 -1      3639 9.41684E-05-2.70706E-05-2.87530E-05 1.00949E-06 1.15588E-19-1.17552E-19
 -1      3640 9.39153E-05-2.67623E-05-2.87850E-05 1.55206E-06-4.70639E-19-4.70443E-19
 -1      3641 9.37589E-05-2.65764E-05-2.87909E-05 1.77068E-06-1.67378E-19-7.93907E-19
 -1      3642 9.37905E-05-2.66726E-05-2.87608E-05 1.31427E-06-7.64567E-19-4.18498E-20
 -1      3643 9.35033E-05-2.63573E-05-2.87829E-05 1.99044E-06-7.02440E-20-1.21452E-18
 -1      3644 9.33190E-05-2.61628E-05-2.87794E-05 2.25318E-06-1.41512E-19-9.15726E-19
 -1      3645 9.33277E-05-2.62293E-05-2.87515E-05 1.69252E-06-1.77655E-20-1.00981E-18
 -1      3646 9.30167E-05-2.59353E-05-2.87562E-05 2.52070E-06 8.59379E-20-7.50413E-19
 -1      3647 9.28086E-05-2.57478E-05-2.87380E-05 2.83107E-06 3.90821E-19 1.56183E-19
 -1      3648 9.27735E-05-2.57559E-05-2.87160E-05 2.15532E-06 4.18868E-19-6.45071E-19
 -1      3649 9.24622E-05-2.55309E-05-2.86929E-05 3.15369E-06-2.84360E-19 4.89633E-19
 -1      3650 9.22417E-05-2.53763E-05-2.86533E-05 3.51502E-06-5.71199E-19 6.56466E-19
 -1      3651 9.21282E-05-2.52817E-05-2.86420E-05 2.71594E-06-3.58579E-20-1.20642E-19
 -1      3652 9.18608E-05-2.52006E-05-2.85777E-05 3.90252E-06-8.48189E-19 4.29279E-19
 -1      3653 9.16508E-05-2.51196E-05-2.85085E-05 4.31874E-06-9.21992E-19 7.23952E-19
 -1      3654 9.14028E-05-2.48551E-05-2.85135E-05 3.39200E-06-6.55535E-19 4.46519E-19
 -1      3655 9.12560E-05-2.50313E-05-2.83920E-05 4.78566E-06 2.66255E-20 8.37736E-19
 -1      3656 9.10983E-05-2.50842E-05-2.82838E-05 5.26280E-06 1.24172E-18 9.06240E-19
 -1      3657 9.06259E-05-2.45509E-05-2.83110E-05 4.20949E-06-5.11262E-20 1.63041E-18
 -1      3658 9.07271E-05-2.51509E-05-2.81146E-05 5.83208E-06 1.15558E-18 7.81313E-21
 -1      3659 9.06921E-05-2.54253E-05-2.79584E-05 6.38023E-06 4.54895E-19 1.20698E-19
 -1      3660 8.98522E-05-2.44790E-05-2.80114E-05 5.20977E-06 5.36372E-19 5.38853E-19
 -1      3661 9.04083E-05-2.57427E-05-2.77242E-05 7.08793E-06-6.98907E-20 4.62961E-19
 -1      3662 9.06104E-05-2.63621E-05-2.75134E-05 7.72191E-06 1.30903E-19 9.63132E-19
 -1      3663 8.91771E-05-2.47969E-05-2.75892E-05 6.46002E-06 7.30502E-19 4.91848E-19
 -1      3664 9.05207E-05-2.70628E-05-2.72045E-05 8.62081E-06 5.34924E-19 1.22980E-18
 -1      3665 9.11410E-05-2.81974E-05-2.69410E-05 9.35476E-06 3.60936E-19 1.62547E-18
 -1      3666 8.87607E-05-2.57267E-05-2.70193E-05 8.06510E-06 4.90845E-19 1.11301E-18
 -1      3667 9.14264E-05-2.94670E-05-2.65551E-05 1.05147E-05 2.83095E-19 1.69509E-18
 -1      3668 9.27321E-05-3.13443E-05-2.62589E-05 1.13382E-05 5.95842E-19 1.77930E-18
 -1      3669 8.88666E-05-2.75799E-05-2.62848E-05 1.01779E-05 6.65541E-19 1.48388E-18
 -1      3670 9.37410E-05-3.34567E-05-2.58135E-05 1.27712E-05 3.15459E-19 1.56054E-18
 -1      3671 9.62032E-05-3.63580E-05-2.55616E-05 1.35587E-05 8.04633E-19 1.27593E-18
 -1      3672 9.00108E-05-3.08567E-05-2.53898E-05 1.30039E-05 1.93215E-19 1.42744E-18
 -1      3673 1.32365E-04-6.26108E-05-2.98098E-05 2.20093E-06 6.33104E-19 1.01205E-18
 -1      3674 9.56763E-05-2.90363E-05-2.85587E-05-5.16339E-07-3.40346E-19-4.18915E-19
 -1      3675 9.57157E-05-2.90691E-05-2.85627E-05-5.64119E-07-3.30306E-19-3.27902E-19
 -1      3676 9.57795E-05-2.91050E-05-2.85736E-05-6.10000E-07-1.78556E-20-2.49755E-19
 -1      3677 9.58248E-05-2.91289E-05-2.85835E-05-6.59181E-07 1.70314E-19-5.36631E-20
 -1      3678 9.58568E-05-2.91493E-05-2.85904E-05-5.33110E-07-9.98849E-20-1.85628E-19
 -1      3679 9.60194E-05-2.91664E-05-2.86505E-05-7.87367E-07 4.74342E-20-4.78049E-19
 -1      3680 9.60735E-05-2.91504E-05-2.86799E-05-8.17989E-07 1.06874E-19-4.85023E-19
 -1      3681 9.55858E-05-2.89563E-05-2.85543E-05-4.32020E-07-2.52327E-19 3.81468E-19
 -1      3682 9.56197E-05-2.89942E-05-2.85539E-05-4.74257E-07-2.38573E-19-1.82182E-20
 -1      3683 9.57376E-05-2.90695E-05-2.85733E-05-4.51918E-07-4.65821E-19-8.44133E-20
 -1      3684 9.55071E-05-2.88698E-05-2.85577E-05-3.62781E-07 6.17917E-20-1.38916E-19
 -1      3685 9.55361E-05-2.89108E-05-2.85540E-05-3.96635E-07 9.37978E-20 3.96847E-19
 -1      3686 9.56324E-05-2.89781E-05-2.85671E-05-3.79860E-07-1.36303E-19 4.19683E-19
 -1      3687 9.54375E-05-2.87785E-05-2.85671E-05-3.12738E-07 4.61487E-19-2.20766E-19
 -1      3688 9.54630E-05-2.88220E-05-2.85609E-05-3.36120E-07 3.98649E-19 6.31270E-20
 -1      3689 9.55395E-05-2.88797E-05-2.85693E-05-3.22027E-07 2.52733E-19 9.64454E-22
 -1      3690 9.53736E-05-2.86815E-05-2.85813E-05-2.85249E-07-1.05352E-19 2.45511E-19
 -1      3691 9.53970E-05-2.87282E-05-2.85730E-05-2.96389E-07 3.46978E-19-1.95793E-19
 -1      3692 9.54559E-05-2.87754E-05-2.85778E-05-2.82166E-07 2.70119E-19-4.20698E-19
 -1      3693 9.53110E-05-2.85761E-05-2.85996E-05-2.83570E-07-5.81488E-19 2.88559E-19
 -1      3694 9.53343E-05-2.86274E-05-2.85895E-05-2.80690E-07-2.95056E-19 4.64215E-19
 -1      3695 9.53769E-05-2.86639E-05-2.85916E-05-2.63428E-07-2.83908E-19 1.12327E-19
 -1      3696 9.52446E-05-2.84579E-05-2.86218E-05-3.11348E-07 1.67501E-19 8.88236E-21
 -1      3697 9.52698E-05-2.85161E-05-2.86098E-05-2.92419E-07-9.54982E-20 5.54947E-21
 -1      3698 9.52972E-05-2.85415E-05-2.86096E-05-2.68933E-07-1.70707E-19-1.65563E-19
 -1      3699 9.51683E-05-2.83214E-05-2.86475E-05-3.72966E-07 4.64261E-21 2.50682E-19
 -1      3700 9.51979E-05-2.83890E-05-2.86337E-05-3.35543E-07 9.91754E-20 1.73700E-19
 -1      3701 9.52102E-05-2.84031E-05-2.86314E-05-3.02186E-07-1.51185E-19-1.50231E-19
 -1      3702 9.50748E-05-2.81599E-05-2.86766E-05-4.73763E-07-5.60081E-19 3.60794E-19
 -1      3703 9.51119E-05-2.82402E-05-2.86610E-05-4.14883E-07-2.38208E-20 4.96164E-19
 -1      3704 9.51082E-05-2.82420E-05-2.86563E-05-3.67359E-07-1.84417E-19 3.00435E-19
 -1      3705 9.49558E-05-2.79660E-05-2.87086E-05-6.20113E-07-3.39287E-20-4.34234E-19
 -1      3706 9.50038E-05-2.80625E-05-2.86913E-05-5.36268E-07-4.81288E-19-1.06390E-19
 -1      3707 9.49821E-05-2.80507E-05-2.86839E-05-4.69439E-07-2.79415E-19 2.34367E-21
 -1      3708 9.48014E-05-2.77320E-05-2.87426E-05-8.19350E-07 4.72206E-19 2.17361E-20
 -1      3709 9.48645E-05-2.78483E-05-2.87239E-05-7.06547E-07 4.38879E-19 1.21935E-19
 -1      3710 9.48215E-05-2.78208E-05-2.87130E-05-6.14252E-07-8.06163E-20-4.32376E-19
 -1      3711 9.46001E-05-2.74504E-05-2.87770E-05-1.07953E-06-1.89338E-19-3.21121E-19
 -1      3712 9.46831E-05-2.75897E-05-2.87577E-05-9.33440E-07 4.19175E-19 3.49937E-20
 -1      3713 9.46141E-05-2.75438E-05-2.87422E-05-8.08330E-07 2.98589E-19 7.47653E-20
 -1      3714 9.43386E-05-2.71144E-05-2.88088E-05-1.40897E-06-1.20537E-18-3.47831E-19
 -1      3715 9.44472E-05-2.72796E-05-2.87903E-05-1.22521E-06-7.67260E-19-1.25958E-19
 -1      3716 9.43458E-05-2.72114E-05-2.87688E-05-1.05861E-06-2.84035E-19-3.24794E-19
 -1      3717 9.40020E-05-2.67198E-05-2.88337E-05-1.81567E-06-5.46318E-19-5.89269E-19
 -1      3718 9.41425E-05-2.69122E-05-2.88182E-05-1.59016E-06-1.00284E-18-8.21706E-19
 -1      3719 9.40006E-05-2.68170E-05-2.87889E-05-1.37200E-06-5.08140E-19-1.17673E-18
 -1      3720 9.35743E-05-2.62667E-05-2.88447E-05-2.30655E-06 8.25387E-19-1.62561E-18
 -1      3721 9.37533E-05-2.64851E-05-2.88355E-05-2.03595E-06 3.44300E-19-3.84810E-19
 -1      3722 9.35607E-05-2.63567E-05-2.87964E-05-1.75480E-06 4.19443E-20-1.62397E-18
 -1      3723 9.30395E-05-2.57625E-05-2.88317E-05-2.88689E-06 7.68727E-19-7.45943E-19
 -1      3724 9.32632E-05-2.60015E-05-2.88341E-05-2.56900E-06 5.22169E-19-1.12888E-18
 -1      3725 9.30072E-05-2.58318E-05-2.87826E-05-2.21219E-06 3.02251E-19-1.92223E-19
 -1      3726 9.23839E-05-2.52265E-05-2.87805E-05-3.56036E-06 8.36086E-19-1.10035E-18
 -1      3727 9.26565E-05-2.54739E-05-2.88016E-05-3.19418E-06 1.36253E-18-1.89797E-19
 -1      3728 9.23207E-05-2.52520E-05-2.87351E-05-2.74817E-06 7.67173E-19-2.75774E-20
 -1      3729 9.16006E-05-2.46971E-05-2.86715E-05-4.33062E-06-1.46746E-19-1.47951E-18
 -1      3730 9.19211E-05-2.49299E-05-2.87212E-05-3.91563E-06 2.10532E-19-1.31610E-18
 -1      3731 9.14838E-05-2.46397E-05-2.86368E-05-3.36659E-06 8.37044E-19-5.45497E-19
 -1      3732 9.06967E-05-2.42412E-05-2.84785E-05-5.20602E-06-9.53175E-20-1.60751E-18
 -1      3733 9.10537E-05-2.44198E-05-2.85701E-05-4.73990E-06-3.64632E-19-2.18432E-18
 -1      3734 9.04836E-05-2.40361E-05-2.84645E-05-4.07466E-06-8.66472E-22-4.41601E-19
 -1      3735 8.97061E-05-2.39689E-05-2.81679E-05-6.20972E-06 5.93879E-19-4.77405E-19
 -1      3736 9.00682E-05-2.40287E-05-2.83179E-05-5.68347E-06 3.93747E-19-9.80856E-19
 -1      3737 8.93169E-05-2.35100E-05-2.81876E-05-4.89101E-06-4.77661E-19-6.57391E-19
 -1      3738 8.87112E-05-2.40548E-05-2.76987E-05-7.39750E-06 5.24448E-19 4.93683E-19
 -1      3739 8.90112E-05-2.38930E-05-2.79266E-05-6.78718E-06 5.28237E-19-2.12233E-19
 -1      3740 8.79979E-05-2.31690E-05-2.77664E-05-5.86151E-06 1.88585E-20 7.48033E-19
 -1      3741 8.78798E-05-2.47680E-05-2.70246E-05-8.88232E-06-1.08064E-18 8.72006E-19
 -1      3742 8.79884E-05-2.42259E-05-2.73501E-05-8.13871E-06-9.63051E-20 7.89152E-19
 -1      3743 8.65734E-05-2.31784E-05-2.71509E-05-7.08597E-06-2.24359E-19 9.75936E-19
 -1      3744 8.75260E-05-2.65155E-05-2.61006E-05-1.08631E-05-1.65400E-18 1.49021E-18
 -1      3745 8.72074E-05-2.53518E-05-2.65377E-05-9.90584E-06-1.29392E-18 1.30076E-18
 -1      3746 8.51441E-05-2.37838E-05-2.62800E-05-8.75673E-06-1.27540E-18 1.15260E-18
 -1      3747 8.82246E-05-2.99234E-05-2.49014E-05-1.36233E-05-9.99472E-19 2.80231E-19
 -1      3748 8.70795E-05-2.77819E-05-2.54417E-05-1.23624E-05-1.34170E-18 1.27693E-18
 -1      3749 8.39237E-05-2.53667E-05-2.50788E-05-1.12384E-05-1.28164E-18 9.47714E-19
 -1      3750 9.06245E-05-3.60136E-05-2.33962E-05-1.76861E-05 1.18704E-19 8.52664E-19
 -1      3751 8.82313E-05-3.21111E-05-2.40395E-05-1.58546E-05-5.11423E-19 5.59876E-19
 -1      3752 8.33990E-05-2.85109E-05-2.34594E-05-1.50011E-05-8.81073E-19 9.92130E-19
 -1      3753 9.61457E-05-2.91225E-05-2.87240E-05-8.40092E-07 1.69564E-19-7.85591E-19
 -1      3754 9.61998E-05-2.90678E-05-2.87686E-05-8.43916E-07 2.74716E-19-7.36114E-19
 -1      3755 9.62760E-05-2.91968E-05-2.87502E-05-7.38501E-07 1.40211E-21-4.29769E-19
 -1      3756 9.59933E-05-2.63815E-05-2.98427E-05 6.19521E-07 8.48821E-19-1.05257E-18
 -1      3757 9.58035E-05-2.56453E-05-3.00662E-05 1.13564E-06 9.79217E-19-1.08919E-18
 -1      3758 9.62753E-05-2.75206E-05-2.94730E-05-7.55452E-08 5.28086E-19-1.11007E-18
 -1      3759 9.62056E-05-2.70243E-05-2.96418E-05 2.69758E-07 7.06863E-19-1.06905E-18
 -1      3760 9.61421E-05-2.64548E-05-2.98629E-05 4.70412E-07 7.51054E-19-1.05153E-18
 -1      3761 9.51620E-05-2.44077E-05-3.03167E-05 2.86154E-06 1.29367E-18-1.20466E-18
 -1      3762 9.54156E-05-2.50602E-05-3.01455E-05 2.08476E-06 1.20016E-18-1.07602E-18
 -1      3763 8.73056E-05-3.87527E-05-2.07921E-05-2.26947E-05 4.53639E-19 1.20668E-18
 -1      3764 9.48315E-05-4.56050E-05-2.06656E-05-2.50765E-05 3.34565E-19 1.95680E-18
 -1      3765 9.62614E-05-2.89895E-05-2.88314E-05-8.36484E-07 4.36825E-19-7.23279E-19
 -1      3766 9.63090E-05-2.88767E-05-2.88962E-05-7.95374E-07 6.32233E-19-7.35969E-19
 -1      3767 9.64080E-05-2.90706E-05-2.88608E-05-7.39691E-07 3.51320E-19-7.58850E-19
 -1      3768 9.58950E-05-2.91533E-05-2.86025E-05-7.04538E-07 1.01749E-19-2.03781E-19
 -1      3769 9.59456E-05-2.91620E-05-2.86207E-05-7.48964E-07 6.14430E-20-3.46855E-19
 -1      3770 9.59893E-05-2.92084E-05-2.86221E-05-6.16038E-07 4.37589E-20-2.20785E-19
 -1      3771 9.63672E-05-2.82619E-05-2.91920E-05-5.06052E-07 2.33091E-19-9.52057E-19
 -1      3772 9.63619E-05-2.79405E-05-2.93176E-05-2.96293E-07 3.26748E-19-1.00689E-18
 -1      3773 9.64377E-05-2.75990E-05-2.95019E-05-1.06075E-07 3.53609E-19-1.03299E-18
 -1      3774 9.35285E-05-4.11336E-05-2.26255E-05 2.19545E-05 1.07882E-18-2.09601E-19
 -1      3775 8.39628E-05-3.40419E-05-2.12713E-05 2.13190E-05 1.00521E-18 4.00819E-19
 -1      3776 9.63459E-05-2.87233E-05-2.89832E-05-7.40626E-07 5.36325E-19-8.39628E-19
 -1      3777 9.63763E-05-2.85251E-05-2.90745E-05-6.30500E-07 3.78495E-19-7.89567E-19
 -1      3778 9.65323E-05-2.83448E-05-2.92241E-05-4.67023E-07 2.23747E-19-9.34190E-19
 -1      3779 9.65051E-05-2.88076E-05-2.90148E-05-6.62317E-07 4.68612E-19-8.52314E-19
 -1      3780 9.44580E-05-2.23335E-05-3.09267E-05 2.55715E-06 7.65724E-19-1.82810E-18
 -1      3781 9.42433E-05-2.18459E-05-3.10322E-05 2.13150E-06 6.83833E-19-1.93926E-18
 -1      3782 9.47966E-05-2.28846E-05-3.08078E-05 1.54574E-06 4.87681E-19-1.86759E-18
 -1      3783 9.50832E-05-2.36982E-05-3.05831E-05 2.07621E-06 9.15983E-19-1.51293E-18
 -1      3784 1.11277E-04-5.44510E-05-2.41969E-05 1.96320E-05 8.87611E-19 1.26737E-19
 -1      3785 9.54397E-05-2.48528E-05-3.02475E-05 1.84562E-06 1.12794E-18-1.05837E-18
 -1      3786 9.55879E-05-2.50696E-05-3.02221E-05 1.36981E-06 1.02519E-18-1.22153E-18
 -1      3787 9.53579E-05-2.44085E-05-3.04118E-05 1.78394E-06 9.87962E-19-1.34627E-18
 -1      3788 9.52088E-05-2.39217E-05-3.05477E-05 1.61279E-06 7.15999E-19-1.64377E-18
 -1      3789 9.57247E-05-2.52102E-05-3.02231E-05 1.07777E-06 8.88335E-19-1.11960E-18
 -1      3790 9.36757E-05-2.06931E-05-3.12867E-05-1.73091E-07 7.73912E-20-1.75637E-18
 -1      3791 9.37163E-05-2.07691E-05-3.12700E-05-7.41472E-07-5.78468E-20-1.94904E-18
 -1      3792 9.42115E-05-2.16438E-05-3.10906E-05-7.88421E-07-5.28021E-20-1.85813E-18
 -1      3793 9.43987E-05-2.19863E-05-3.10241E-05 4.14594E-08 3.87197E-20-1.48338E-18
 -1      3794 6.21112E-05-2.10540E-05-1.71203E-05-1.19019E-05 3.78902E-19-2.86181E-18
 -1      3795 7.20513E-05-2.73415E-05-1.92474E-05-1.78653E-05-5.69951E-19-7.85332E-19
 -1      3796 9.48960E-05-2.31531E-05-3.07595E-05-1.54884E-06-4.63231E-19-1.31914E-18
 -1      3797 9.55725E-05-2.47638E-05-3.03358E-05-1.14249E-06-5.10691E-19-9.77665E-19
 -1      3798 9.56999E-05-2.49692E-05-3.03155E-05-8.51524E-07-3.90964E-19-1.09628E-18
 -1      3799 9.47581E-05-2.28270E-05-3.08327E-05-1.15947E-06-2.30463E-19-1.58844E-18
 -1      3800 1.03974E-04-4.69898E-05-2.42850E-05 1.81643E-05 2.14249E-18 1.59818E-19
 -1      3801 9.98641E-05-4.23183E-05-2.45306E-05 1.67713E-05 1.94810E-18 5.16411E-19
 -1      3802 8.11606E-05-3.15379E-05-2.08640E-05-1.98789E-05 2.62438E-19 1.61775E-18
 -1      3803 8.92867E-05-3.70193E-05-2.24222E-05-1.95746E-05 3.61324E-19 1.24040E-18
 -1      3804 9.60187E-05-3.82723E-05-2.46792E-05 1.60864E-05 1.19776E-18 5.86187E-19
 -1      3805 6.25310E-05-2.02256E-05-1.80005E-05-6.70364E-06 4.75794E-20-2.95437E-18
 -1      3806 8.60964E-05-3.29432E-05-2.26666E-05 1.82447E-05 4.05484E-19-5.80535E-19
 -1      3807 8.00745E-05-3.09593E-05-2.09636E-05 2.03388E-05 6.37495E-19 1.19604E-19
 -1      3808 7.61232E-05-2.76108E-05-2.07814E-05 1.75783E-05 3.72794E-19 1.85474E-19
 -1      3809 9.61317E-05-2.92318E-05-2.86732E-05-6.89793E-07 3.57305E-20-3.33682E-19
 -1      3810 6.78738E-05-2.25913E-05-1.93446E-05 1.32123E-05 7.84147E-19 2.89050E-20
 -1      3811 6.13804E-05-2.02706E-05-1.73447E-05 1.07058E-05 9.83776E-19-1.17071E-18
 -1      3812 6.13150E-05-1.93006E-05-1.80563E-05 5.62949E-06 1.22851E-18-2.88049E-18
 -1      3813 1.02215E-04-4.97822E-05-2.24712E-05-2.20541E-05 2.39737E-19 7.83082E-19
 -1      3814 9.05751E-05-3.46995E-05-2.40045E-05 1.69921E-05 8.31194E-19 5.32804E-19
 -1      3815 9.51262E-05-2.36444E-05-3.06427E-05 1.37288E-06 4.07729E-19-1.83290E-18
 -1      3816 9.50035E-05-2.33048E-05-3.07262E-05 1.07589E-06 3.64242E-19-1.69586E-18
 -1      3817 9.54326E-05-2.43148E-05-3.04727E-05 1.11653E-06 4.93469E-19-1.58829E-18
 -1      3818 9.49449E-05-2.31510E-05-3.07753E-05 7.65705E-07 2.30958E-19-1.50608E-18
 -1      3819 9.48744E-05-2.29741E-05-3.08138E-05 4.07270E-07 9.18457E-20-1.37268E-18
 -1      3820 9.52996E-05-2.38494E-05-3.06118E-05 6.41095E-07 1.67722E-19-1.48666E-18
 -1      3821 7.54940E-05-2.67412E-05-2.09997E-05-1.55867E-05-3.82866E-19-5.93955E-19
 -1      3822 9.66011E-05-2.74057E-05-2.96524E-05-1.82477E-10-3.99268E-19-9.03998E-19
 -1      3823 9.66912E-05-2.78783E-05-2.94956E-05 1.89242E-07-3.51505E-19-1.09287E-18
 -1      3824 9.67661E-05-2.82708E-05-2.93526E-05 2.83034E-07-2.22173E-19-1.13938E-18
 -1      3825 9.67763E-05-2.85743E-05-2.92319E-05 3.95739E-07-1.19568E-19-1.13506E-18
 -1      3826 9.67931E-05-2.80030E-05-2.94801E-05 1.66132E-07-3.63513E-19-1.20616E-18
 -1      3827 9.67706E-05-2.88153E-05-2.91215E-05 4.43033E-07-6.40715E-20-1.09463E-18
 -1      3828 9.67313E-05-2.89957E-05-2.90306E-05 4.99496E-07 1.53680E-20-1.01145E-18
 -1      3829 9.68591E-05-2.86708E-05-2.92241E-05 3.15178E-07-1.34091E-19-1.20431E-18
 -1      3830 9.66777E-05-2.91299E-05-2.89472E-05 5.14064E-07 1.72820E-19-8.97549E-19
 -1      3831 9.66113E-05-2.92240E-05-2.88803E-05 5.31288E-07 2.94189E-19-8.92893E-19
 -1      3832 9.67987E-05-2.90698E-05-2.90281E-05 3.88991E-07 1.25028E-19-9.05053E-19
 -1      3833 9.65317E-05-2.92842E-05-2.88189E-05 5.24228E-07 2.21126E-19-9.39149E-19
 -1      3834 9.64533E-05-2.93197E-05-2.87710E-05 5.16233E-07 5.51868E-20-8.72172E-19
 -1      3835 9.66654E-05-2.92803E-05-2.88812E-05 4.09381E-07 2.11835E-19-7.16296E-19
 -1      3836 9.63629E-05-2.93307E-05-2.87269E-05 4.96443E-07-1.51639E-20-7.99460E-19
 -1      3837 9.62823E-05-2.93278E-05-2.86938E-05 4.73832E-07-2.62473E-19-5.08681E-19
 -1      3838 9.64961E-05-2.93614E-05-2.87740E-05 3.95384E-07 1.24128E-20-1.02082E-18
 -1      3839 9.61910E-05-2.93076E-05-2.86635E-05 4.47783E-07-4.62177E-19-5.22811E-19
 -1      3840 9.61140E-05-2.92807E-05-2.86417E-05 4.18234E-07-3.96536E-19-6.46657E-19
 -1      3841 9.63155E-05-2.93575E-05-2.86983E-05 3.61567E-07-1.73444E-19-6.04864E-19
 -1      3842 9.60275E-05-2.92417E-05-2.86219E-05 3.90471E-07-4.75580E-19-7.09066E-19
 -1      3843 9.59572E-05-2.92005E-05-2.86088E-05 3.59377E-07-3.38101E-19-7.51567E-19
 -1      3844 9.61389E-05-2.93003E-05-2.86470E-05 3.18488E-07-4.42360E-19-4.51814E-19
 -1      3845 9.58781E-05-2.91507E-05-2.85971E-05 3.33006E-07-1.10234E-19-8.89237E-19
 -1      3846 9.58154E-05-2.91014E-05-2.85906E-05 3.04085E-07 7.43222E-20-7.69523E-19
 -1      3847 9.59748E-05-2.92111E-05-2.86146E-05 2.73588E-07-2.92583E-19-1.05385E-18
 -1      3848 9.57444E-05-2.90456E-05-2.85851E-05 2.81203E-07 1.70920E-19-1.25715E-18
 -1      3849 9.56887E-05-2.89915E-05-2.85835E-05 2.57031E-07-5.61183E-20-1.19426E-18
 -1      3850 9.58262E-05-2.91036E-05-2.85968E-05 2.32000E-07 7.10107E-20-1.40057E-18
 -1      3851 9.56249E-05-2.89320E-05-2.85827E-05 2.39085E-07-2.59448E-19-1.10051E-18
 -1      3852 9.55748E-05-2.88743E-05-2.85850E-05 2.21524E-07-3.57666E-19-1.08738E-18
 -1      3853 9.56928E-05-2.89852E-05-2.85900E-05 1.97276E-07-2.02181E-19-1.37939E-18
 -1      3854 9.55160E-05-2.88114E-05-2.85879E-05 2.09608E-07-1.75712E-20-8.27890E-19
 -1      3855 9.54692E-05-2.87500E-05-2.85931E-05 2.00150E-07 3.74741E-19-4.11499E-19
 -1      3856 9.55714E-05-2.88589E-05-2.85918E-05 1.71985E-07-1.74958E-19-5.94341E-19
 -1      3857 9.54123E-05-2.86826E-05-2.85989E-05 1.95230E-07 2.93311E-19-5.97245E-19
 -1      3858 9.53660E-05-2.86157E-05-2.86065E-05 1.95259E-07 3.55229E-19-4.71318E-19
 -1      3859 9.54569E-05-2.87241E-05-2.86002E-05 1.58196E-07 1.36116E-19-1.26083E-18
 -1      3860 9.53071E-05-2.85416E-05-2.86145E-05 1.98354E-07 1.44396E-19-4.68126E-19
 -1      3861 9.52577E-05-2.84668E-05-2.86241E-05 2.09350E-07-4.10466E-21-8.82855E-19
 -1      3862 9.53425E-05-2.85772E-05-2.86138E-05 1.57854E-07 1.25169E-19-1.15107E-18
 -1      3863 9.51925E-05-2.83828E-05-2.86338E-05 2.21673E-07-3.67963E-20-6.42194E-19
 -1      3864 9.51360E-05-2.82969E-05-2.86449E-05 2.45359E-07-3.14195E-19-1.00410E-18
 -1      3865 9.52200E-05-2.84129E-05-2.86313E-05 1.73081E-07-7.26759E-20-1.54692E-18
 -1      3866 9.50592E-05-2.81992E-05-2.86557E-05 2.68426E-07-1.70364E-19-6.33550E-19
 -1      3867 9.49910E-05-2.80985E-05-2.86678E-05 3.06872E-07 3.38568E-20-7.85323E-19
 -1      3868 9.50796E-05-2.82239E-05-2.86516E-05 2.06405E-07 1.80481E-20-1.21386E-18
 -1      3869 9.48965E-05-2.79829E-05-2.86791E-05 3.42591E-07 4.05817E-19-6.76906E-19
 -1      3870 9.48115E-05-2.78635E-05-2.86917E-05 3.98277E-07 7.97753E-19-3.70097E-19
 -1      3871 9.49104E-05-2.80023E-05-2.86735E-05 2.60942E-07 3.30117E-19-5.84862E-19
 -1      3872 9.46928E-05-2.77258E-05-2.87025E-05 4.49019E-07 9.44965E-19-6.65451E-19
 -1      3873 9.45852E-05-2.75840E-05-2.87146E-05 5.24866E-07 8.67312E-19-5.62743E-19
 -1      3874 9.46997E-05-2.77392E-05-2.86953E-05 3.40543E-07 9.17498E-19-8.18477E-19
 -1      3875 9.44348E-05-2.74203E-05-2.87236E-05 5.93525E-07 5.00170E-19-2.74901E-19
 -1      3876 9.42986E-05-2.72529E-05-2.87337E-05 6.92893E-07 4.38762E-19-3.74181E-19
 -1      3877 9.44336E-05-2.74263E-05-2.87147E-05 4.49924E-07 7.18584E-19-1.05107E-18
 -1      3878 9.41088E-05-2.70602E-05-2.87390E-05 7.82961E-07-2.24070E-20-5.59590E-19
 -1      3879 9.39378E-05-2.68657E-05-2.87451E-05 9.09630E-07-3.31000E-19-3.63453E-19
 -1      3880 9.40971E-05-2.70562E-05-2.87282E-05 5.94803E-07-1.05318E-19-4.27762E-19
 -1      3881 9.37004E-05-2.66427E-05-2.87438E-05 1.02530E-06-2.29186E-19-5.67582E-19
 -1      3882 9.34889E-05-2.64218E-05-2.87431E-05 1.18348E-06-2.83409E-19-4.52874E-19
 -1      3883 9.36742E-05-2.66245E-05-2.87310E-05 7.82080E-07-1.56024E-19-7.90531E-19
 -1      3884 9.31962E-05-2.61701E-05-2.87313E-05 1.32982E-06-3.60304E-19 3.81612E-20
 -1      3885 9.29397E-05-2.59274E-05-2.87196E-05 1.52424E-06 2.15039E-19 2.66305E-19
 -1      3886 9.31492E-05-2.61310E-05-2.87163E-05 1.02016E-06-4.60192E-20 1.87406E-19
 -1      3887 9.25848E-05-2.56530E-05-2.86922E-05 1.70760E-06 5.36864E-19-6.16819E-19
 -1      3888 9.22814E-05-2.53984E-05-2.86640E-05 1.94382E-06 6.23505E-19-7.43939E-19
 -1      3889 9.25074E-05-2.55828E-05-2.86749E-05 1.31953E-06-9.23457E-20 4.08153E-19
 -1      3890 9.18594E-05-2.51134E-05-2.86140E-05 2.17251E-06 3.82411E-19-1.10682E-18
 -1      3891 9.15113E-05-2.48648E-05-2.85622E-05 2.45767E-06-4.00476E-19-9.56848E-19
 -1      3892 9.17370E-05-2.49970E-05-2.85944E-05 1.69396E-06 1.99888E-19-9.73057E-19
 -1      3893 9.10202E-05-2.45896E-05-2.84807E-05 2.74333E-06-5.69875E-19-4.32170E-19
 -1      3894 9.06367E-05-2.43753E-05-2.83962E-05 3.08769E-06-2.96465E-19 5.48880E-20
 -1      3895 9.08308E-05-2.44043E-05-2.84585E-05 2.16256E-06 9.92920E-20-9.18605E-20
 -1      3896 9.00787E-05-2.41411E-05-2.82717E-05 3.44771E-06-2.74386E-19 9.19576E-19
 -1      3897 8.96795E-05-2.40034E-05-2.81435E-05 3.86744E-06 9.19511E-20 1.20800E-18
 -1      3898 8.97887E-05-2.38529E-05-2.82466E-05 2.75372E-06 3.89887E-19-4.09175E-20
 -1      3899 8.90618E-05-2.38545E-05-2.79619E-05 4.32926E-06 2.45401E-19 5.83549E-19
 -1      3900 8.86830E-05-2.38538E-05-2.77770E-05 4.85099E-06 2.28921E-19-7.18521E-20
 -1      3901 8.86191E-05-2.34127E-05-2.79324E-05 3.51188E-06-2.68381E-19 5.02769E-20
 -1      3902 8.80196E-05-2.38514E-05-2.75209E-05 5.45929E-06 4.52072E-19 2.63459E-19
 -1      3903 8.77228E-05-2.40726E-05-2.72654E-05 6.12674E-06 4.82259E-19 6.12616E-19
 -1      3904 8.73413E-05-2.31791E-05-2.74832E-05 4.50929E-06 4.01836E-19-1.70515E-19
 -1      3905 8.70376E-05-2.42997E-05-2.69139E-05 6.95444E-06 6.63899E-19 1.02672E-18
 -1      3906 8.69260E-05-2.48632E-05-2.65744E-05 7.83589E-06 1.19869E-18 1.51515E-18
 -1      3907 8.59885E-05-2.32804E-05-2.68588E-05 5.86557E-06 1.03142E-18 9.25331E-19
 -1      3908 8.62636E-05-2.54328E-05-2.61033E-05 8.99416E-06 4.38284E-19 8.78054E-19
 -1      3909 8.65045E-05-2.65116E-05-2.56721E-05 1.01942E-05 2.30181E-19 5.47247E-19
 -1      3910 8.46212E-05-2.38958E-05-2.60094E-05 7.77323E-06 6.09656E-19 5.16727E-20
 -1      3911 8.59208E-05-2.75505E-05-2.50517E-05 1.18443E-05 3.43310E-19 5.53057E-19
 -1      3912 8.67966E-05-2.94331E-05-2.45317E-05 1.35518E-05 1.92407E-19 8.01322E-19
 -1      3913 8.33513E-05-2.52882E-05-2.48753E-05 1.05088E-05 1.34943E-19-3.01282E-19
 -1      3914 9.56692E-05-2.89881E-05-2.85765E-05-3.13645E-07-9.78270E-20 1.40124E-19
 -1      3915 9.57191E-05-2.90376E-05-2.85777E-05-3.43419E-07-2.14789E-19 1.09936E-19
 -1      3916 9.55645E-05-2.88796E-05-2.85782E-05-2.68167E-07 3.51318E-19-4.33560E-20
 -1      3917 9.56088E-05-2.89325E-05-2.85757E-05-2.90536E-07 8.72915E-20 3.88418E-20
 -1      3918 9.56854E-05-2.89901E-05-2.85847E-05-2.55409E-07 3.74960E-20-9.60264E-20
 -1      3919 9.57867E-05-2.90897E-05-2.85832E-05-3.72253E-07-4.94053E-19-2.66493E-19
 -1      3920 9.58434E-05-2.91343E-05-2.85893E-05-4.07252E-07-4.17747E-19-9.03137E-20
 -1      3921 9.58121E-05-2.91012E-05-2.85917E-05-3.01356E-07-4.84934E-19-4.13504E-19
 -1      3922 9.54688E-05-2.87647E-05-2.85865E-05-2.38904E-07-1.19986E-19 1.05544E-19
 -1      3923 9.55095E-05-2.88210E-05-2.85811E-05-2.52168E-07 2.48036E-19-3.72325E-20
 -1      3924 9.55711E-05-2.88714E-05-2.85863E-05-2.20880E-07 2.84966E-19 2.25636E-19
 -1      3925 9.53768E-05-2.86412E-05-2.86001E-05-2.28552E-07-2.92366E-19 3.85162E-19
 -1      3926 9.54163E-05-2.87022E-05-2.85923E-05-2.31181E-07-2.19189E-20 1.83433E-19
 -1      3927 9.54648E-05-2.87450E-05-2.85946E-05-2.00360E-07 3.95212E-20 4.28630E-19
 -1      3928 9.52820E-05-2.85048E-05-2.86180E-05-2.39867E-07 1.60157E-19-1.36926E-19
 -1      3929 9.53235E-05-2.85727E-05-2.86082E-05-2.30267E-07 5.82148E-20 2.18724E-19
 -1      3930 9.53602E-05-2.86080E-05-2.86082E-05-1.96169E-07 9.92762E-20-1.49087E-19
 -1      3931 9.51766E-05-2.83495E-05-2.86395E-05-2.75982E-07-3.05707E-19-9.31470E-20
 -1      3932 9.52236E-05-2.84275E-05-2.86280E-05-2.52334E-07-1.88943E-20-7.44748E-20
 -1      3933 9.52498E-05-2.84552E-05-2.86260E-05-2.10703E-07 3.95907E-20-1.73695E-19
 -1      3934 9.50516E-05-2.81678E-05-2.86639E-05-3.40609E-07-3.60745E-19-3.20701E-19
 -1      3935 9.51083E-05-2.82595E-05-2.86509E-05-3.00770E-07-1.87289E-19-1.49620E-19
 -1      3936 9.51245E-05-2.82800E-05-2.86470E-05-2.46678E-07-2.22490E-19-3.38467E-19
 -1      3937 9.48962E-05-2.79515E-05-2.86901E-05-4.38117E-07 6.16883E-20-6.78286E-19
 -1      3938 9.49676E-05-2.80610E-05-2.86761E-05-3.79590E-07-1.76226E-19-4.09130E-19
 -1      3939 9.49740E-05-2.80741E-05-2.86702E-05-3.07251E-07-5.00649E-20-8.93642E-19
 -1      3940 9.46981E-05-2.76913E-05-2.87167E-05-5.73492E-07-4.53099E-19-1.67572E-19
 -1      3941 9.47899E-05-2.78231E-05-2.87024E-05-4.93461E-07-5.08303E-19-7.18620E-19
 -1      3942 9.47860E-05-2.78283E-05-2.86944E-05-3.96047E-07-1.69367E-19-9.87513E-19
 -1      3943 9.44430E-05-2.73783E-05-2.87417E-05-7.52141E-07-4.12661E-19 4.18556E-19
 -1      3944 9.45620E-05-2.75365E-05-2.87282E-05-6.47594E-07-3.04581E-19-3.73670E-20
 -1      3945 9.45463E-05-2.75331E-05-2.87175E-05-5.17056E-07-8.33039E-19-3.29262E-19
 -1      3946 9.41147E-05-2.70039E-05-2.87617E-05-9.79557E-07-1.38186E-19 2.21667E-19
 -1      3947 9.42684E-05-2.71925E-05-2.87506E-05-8.47486E-07 3.61006E-20 4.25715E-19
 -1      3948 9.42391E-05-2.71789E-05-2.87367E-05-6.74400E-07-1.43612E-19 9.33473E-19
 -1      3949 9.36949E-05-2.65615E-05-2.87717E-05-1.26083E-06 2.88632E-19-1.33364E-18
 -1      3950 9.38918E-05-2.67832E-05-2.87655E-05-1.09852E-06 1.82671E-19-5.21619E-19
 -1      3951 9.38459E-05-2.67573E-05-2.87477E-05-8.71959E-07 3.86053E-19-5.73635E-19
 -1      3952 9.31633E-05-2.60480E-05-2.87643E-05-1.60012E-06-1.75263E-19-8.76784E-19
 -1      3953 9.34130E-05-2.63035E-05-2.87669E-05-1.40543E-06-3.37109E-19-1.40601E-18
 -1      3954 9.33467E-05-2.62624E-05-2.87445E-05-1.11290E-06 1.46132E-19-9.41279E-19
 -1      3955 9.24984E-05-2.54659E-05-2.87294E-05-2.00022E-06 2.84433E-19-9.14632E-19
 -1      3956 9.28107E-05-2.57528E-05-2.87460E-05-1.77183E-06 1.75586E-19-6.00271E-19
 -1      3957 9.27193E-05-2.56921E-05-2.87184E-05-1.39918E-06-2.72926E-19-4.58076E-19
 -1      3958 9.16782E-05-2.48266E-05-2.86526E-05-2.46271E-06 5.61745E-19-2.48884E-19
 -1      3959 9.20628E-05-2.51374E-05-2.86906E-05-2.19998E-06 5.96059E-19-1.05754E-18
 -1      3960 9.19400E-05-2.50509E-05-2.86572E-05-1.73131E-06 5.26933E-19-1.33458E-18
 -1      3961 9.06815E-05-2.41541E-05-2.85144E-05-2.98947E-06 4.71433E-19-1.79112E-19
 -1      3962 9.11467E-05-2.44743E-05-2.85839E-05-2.69148E-06 4.93230E-19-3.38097E-19
 -1      3963 9.09839E-05-2.43522E-05-2.85444E-05-2.10884E-06 6.43837E-19-7.22330E-19
 -1      3964 8.94895E-05-2.34901E-05-2.82885E-05-3.58689E-06-8.47982E-20 1.07773E-19
 -1      3965 9.00403E-05-2.37951E-05-2.84032E-05-3.24990E-06 2.27506E-19 5.12759E-20
 -1      3966 8.98249E-05-2.36215E-05-2.83578E-05-2.53235E-06 3.05910E-19-1.74436E-19
 -1      3967 8.80876E-05-2.28998E-05-2.79405E-05-4.27513E-06-6.11472E-19-4.97695E-20
 -1      3968 8.87232E-05-2.31515E-05-2.81180E-05-3.88710E-06-2.43845E-19-9.02783E-20
 -1      3969 8.84344E-05-2.28994E-05-2.80675E-05-3.00869E-06 1.07033E-19 9.75081E-21
 -1      3970 8.64685E-05-2.24792E-05-2.74250E-05-5.10600E-06-2.90481E-19 1.61183E-19
 -1      3971 8.71766E-05-2.26204E-05-2.76882E-05-4.63641E-06-3.22231E-19-2.72002E-19
 -1      3972 8.67782E-05-2.22432E-05-2.76340E-05-3.56170E-06-2.69279E-19-1.07485E-18
 -1      3973 8.46354E-05-2.23670E-05-2.66828E-05-6.19480E-06-8.80985E-19 6.81661E-19
 -1      3974 8.53834E-05-2.23126E-05-2.70605E-05-5.57797E-06-4.45302E-19 3.20606E-19
 -1      3975 8.48074E-05-2.17274E-05-2.70035E-05-4.25377E-06-6.90081E-19-8.81788E-19
 -1      3976 8.26107E-05-2.27657E-05-2.56359E-05-7.76433E-06-1.75957E-18 6.81938E-19
 -1      3977 8.33368E-05-2.23903E-05-2.61643E-05-6.87442E-06-1.19074E-18 7.81767E-19
 -1      3978 8.24508E-05-2.14532E-05-2.61018E-05-5.22619E-06-1.25631E-18 2.90635E-19
 -1      3979 8.03761E-05-2.39518E-05-2.41672E-05-1.02373E-05-8.76007E-19-6.31966E-21
 -1      3980 8.10176E-05-2.30601E-05-2.49027E-05-8.79711E-06-1.35406E-18 3.73828E-19
 -1      3981 7.96246E-05-2.15632E-05-2.48232E-05-6.71446E-06-1.04537E-18-9.41550E-19
 -1      3982 7.80464E-05-2.60890E-05-2.22598E-05-1.36730E-05-4.41027E-19-6.53201E-19
 -1      3983 7.83454E-05-2.43070E-05-2.32555E-05-1.14136E-05-7.77404E-19-2.27938E-19
 -1      3984 7.61569E-05-2.18443E-05-2.31401E-05-8.59655E-06-7.23416E-19-1.54413E-18
 -1      3985 7.15620E-05-2.21135E-05-2.09116E-05-1.10407E-05-8.72451E-19-3.21848E-18
 -1      3986 9.63820E-05-2.92687E-05-2.87623E-05-6.24003E-07-2.39614E-20-1.70390E-19
 -1      3987 9.64538E-05-2.92269E-05-2.88098E-05-6.31891E-07 8.35292E-21-3.47671E-19
 -1      3988 9.62939E-05-2.66723E-05-2.98440E-05 2.63954E-07 5.03055E-19-1.06029E-18
 -1      3989 9.60667E-05-2.59363E-05-3.00483E-05 6.00195E-07 6.85037E-19-1.10210E-18
 -1      3990 9.62227E-05-2.92882E-05-2.86853E-05-5.76338E-07-6.42820E-21-4.50268E-20
 -1      3991 9.62964E-05-2.92853E-05-2.87178E-05-6.02348E-07 3.35153E-21-1.61817E-19
 -1      3992 9.64507E-05-2.93212E-05-2.87718E-05-5.07327E-07-3.05281E-23-8.44529E-20
 -1      3993 9.65281E-05-2.91603E-05-2.88721E-05-6.36075E-07 1.46129E-19-2.85818E-19
 -1      3994 9.65889E-05-2.90593E-05-2.89389E-05-6.12931E-07 3.06991E-19-3.43273E-19
 -1      3995 9.66098E-05-2.92254E-05-2.88809E-05-5.20392E-07 8.62110E-20-4.11762E-20
 -1      3996 8.67063E-05-3.15469E-05-2.36634E-05 1.60460E-05 3.25021E-19 8.19918E-19
 -1      3997 9.59189E-05-2.91803E-05-2.86011E-05-4.39918E-07-3.50055E-19-2.08052E-19
 -1      3998 9.59828E-05-2.92165E-05-2.86136E-05-4.77075E-07-1.42570E-19-2.52829E-19
 -1      3999 9.59539E-05-2.92012E-05-2.86099E-05-3.55388E-07-4.24570E-19-4.17777E-19
 -1      4000 9.60655E-05-2.92513E-05-2.86335E-05-5.10807E-07 1.55525E-19-1.82930E-19
 -1      4001 9.61357E-05-2.92728E-05-2.86546E-05-5.45647E-07 1.71063E-19 4.04901E-20
 -1      4002 9.61108E-05-2.92819E-05-2.86427E-05-4.12808E-07 9.87952E-21-1.69868E-19
 -1      4003 6.22814E-05-1.83553E-05-1.85386E-05-7.16933E-07 3.05053E-19-3.59936E-18
 -1      4004 6.69866E-05-2.06102E-05-1.99390E-05-7.06228E-06-6.06707E-19-2.60334E-18
 -1      4005 6.98719E-05-2.04693E-05-2.12611E-05-6.00269E-06-6.37574E-19-2.51894E-18
 -1      4006 6.63175E-05-1.95738E-05-1.99442E-05 3.57641E-06 7.04599E-19-1.83385E-18
 -1      4007 9.65802E-05-2.77630E-05-2.94972E-05-1.79250E-07 1.15738E-19-8.44483E-19
 -1      4008 9.64875E-05-2.72801E-05-2.96574E-05 5.61631E-08 3.56060E-19-9.21211E-19
 -1      4009 9.64202E-05-2.68126E-05-2.98300E-05 1.68666E-07 3.40596E-19-8.14120E-19
 -1      4010 9.62045E-05-2.61085E-05-3.00309E-05-4.35135E-07-3.74209E-19-1.11389E-18
 -1      4011 9.64094E-05-2.68145E-05-2.98338E-05-1.52944E-07-2.62753E-19-9.28508E-19
 -1      4012 9.65286E-05-2.69733E-05-2.98067E-05-8.38555E-08-2.98851E-19-1.07744E-18
 -1      4013 9.62792E-05-2.93293E-05-2.86948E-05-4.66769E-07 7.81998E-20-1.17434E-19
 -1      4014 7.35715E-05-2.49573E-05-2.06962E-05 1.52869E-05 4.30620E-19 6.17504E-19
 -1      4015 7.11760E-05-2.26618E-05-2.08536E-05 1.17098E-05 2.69949E-19-1.08877E-19
 -1      4016 7.93280E-05-2.73059E-05-2.22208E-05 1.54345E-05-1.41997E-19-5.24677E-19
 -1      4017 9.67324E-05-2.89971E-05-2.90309E-05-4.87062E-07 1.68969E-19-2.95539E-19
 -1      4018 9.66365E-05-2.89170E-05-2.90238E-05-5.88437E-07 2.90522E-19-4.63052E-19
 -1      4019 9.66708E-05-2.87291E-05-2.91153E-05-5.16519E-07 2.69440E-19-6.47661E-19
 -1      4020 9.66590E-05-2.81685E-05-2.93504E-05-3.08352E-07 1.25480E-19-6.99588E-19
 -1      4021 9.67004E-05-2.78797E-05-2.94937E-05-1.73893E-07 1.29180E-19-5.09429E-19
 -1      4022 9.66730E-05-2.84798E-05-2.92281E-05-4.48335E-07 1.86848E-19-7.46484E-19
 -1      4023 9.51511E-05-2.34840E-05-3.07052E-05 9.22381E-08 8.75621E-20-1.41875E-18
 -1      4024 9.47722E-05-2.27697E-05-3.08650E-05 1.10957E-07 1.29962E-19-1.43712E-18
 -1      4025 9.46569E-05-2.25371E-05-3.09106E-05-2.59851E-07 3.11021E-20-1.44185E-18
 -1      4026 9.47183E-05-2.26850E-05-3.08767E-05-5.20309E-07-4.07026E-20-1.77599E-18
 -1      4027 9.46626E-05-2.26029E-05-3.08914E-05-9.24016E-07-1.48039E-19-1.82658E-18
 -1      4028 9.52780E-05-2.37904E-05-3.06220E-05-8.50431E-07-2.42902E-19-1.53958E-18
 -1      4029 9.51039E-05-2.33927E-05-3.07186E-05-4.26101E-07 3.28326E-20-1.52672E-18
 -1      4030 9.57179E-05-2.48623E-05-3.03763E-05 6.13459E-07 1.06691E-19-1.52309E-18
 -1      4031 9.56843E-05-2.47037E-05-3.04244E-05 3.67460E-07 1.18917E-20-1.30597E-18
 -1      4032 8.24086E-05-2.80442E-05-2.32980E-05 1.47772E-05 2.48218E-20-2.45517E-19
 -1      4033 9.58504E-05-2.52446E-05-3.02668E-05-6.01354E-07-3.03723E-19-1.33559E-18
 -1      4034 9.58113E-05-2.51505E-05-3.02843E-05 6.48675E-07 2.89702E-19-1.52455E-18
 -1      4035 9.61448E-05-2.58720E-05-3.01106E-05 3.49769E-07 2.38518E-19-1.28683E-18
 -1      4036 9.58586E-05-2.54108E-05-3.01960E-05 8.11855E-07 5.84133E-19-1.30627E-18
 -1      4037 9.55704E-05-2.88539E-05-2.85919E-05-1.65442E-07 1.36134E-19-8.13236E-20
 -1      4038 9.56254E-05-2.89166E-05-2.85894E-05-1.76622E-07 3.15194E-19-4.02743E-19
 -1      4039 9.69257E-05-2.85445E-05-2.93056E-05 1.82954E-07-1.08179E-19-1.00236E-18
 -1      4040 9.69243E-05-2.88073E-05-2.91929E-05 2.47957E-07 5.69060E-20-9.11262E-19
 -1      4041 9.68954E-05-2.90122E-05-2.90917E-05 2.52075E-07 1.03375E-19-8.53546E-19
 -1      4042 9.68445E-05-2.91615E-05-2.90062E-05 2.84720E-07 3.23021E-19-7.68803E-19
 -1      4043 9.69491E-05-2.89004E-05-2.91671E-05 1.34302E-07 1.62846E-19-6.85267E-19
 -1      4044 9.67743E-05-2.92685E-05-2.89298E-05 2.78048E-07 2.18853E-19-8.33963E-19
 -1      4045 9.66963E-05-2.93383E-05-2.88666E-05 2.88635E-07-5.70761E-20-9.26460E-19
 -1      4046 9.68524E-05-2.92224E-05-2.89884E-05 1.52654E-07 1.00259E-19-1.00621E-18
 -1      4047 9.66056E-05-2.93785E-05-2.88104E-05 2.76030E-07-1.28757E-19-9.85235E-19
 -1      4048 9.65162E-05-2.93951E-05-2.87648E-05 2.72522E-07-6.95176E-20-9.95203E-19
 -1      4049 9.66933E-05-2.93756E-05-2.88548E-05 1.54357E-07-1.03055E-19-9.48378E-19
 -1      4050 9.64185E-05-2.93915E-05-2.87247E-05 2.57054E-07 8.99238E-20-1.02211E-18
 -1      4051 9.63277E-05-2.93738E-05-2.86931E-05 2.45420E-07-1.09464E-19-5.91274E-19
 -1      4052 9.65067E-05-2.94153E-05-2.87577E-05 1.45601E-07-7.49201E-20-1.06775E-18
 -1      4053 9.62317E-05-2.93429E-05-2.86657E-05 2.29301E-07-4.25896E-19-5.02823E-19
 -1      4054 9.61454E-05-2.93042E-05-2.86449E-05 2.13888E-07-6.33262E-19-6.01347E-19
 -1      4055 9.63147E-05-2.93818E-05-2.86895E-05 1.31093E-07-2.22182E-19-7.61400E-19
 -1      4056 9.60558E-05-2.92569E-05-2.86272E-05 1.98611E-07-5.16120E-19-4.73495E-19
 -1      4057 9.59768E-05-2.92061E-05-2.86148E-05 1.82515E-07-1.28480E-19-5.20114E-19
 -1      4058 9.61306E-05-2.93030E-05-2.86439E-05 1.14330E-07-2.58786E-19-1.85021E-19
 -1      4059 9.58953E-05-2.91495E-05-2.86047E-05 1.69053E-07-1.13058E-19-6.66281E-19
 -1      4060 9.58243E-05-2.90917E-05-2.85986E-05 1.54452E-07-2.68356E-19-1.07943E-18
 -1      4061 9.59610E-05-2.91976E-05-2.86158E-05 9.77839E-08-3.44645E-19-6.71199E-19
 -1      4062 9.57509E-05-2.90297E-05-2.85944E-05 1.43437E-07-3.31904E-20-1.07227E-18
 -1      4063 9.56870E-05-2.89674E-05-2.85932E-05 1.31894E-07 3.04984E-20-5.44498E-19
 -1      4064 9.58075E-05-2.90769E-05-2.86011E-05 8.31743E-08-1.68797E-19-1.02085E-18
 -1      4065 9.56198E-05-2.89014E-05-2.85934E-05 1.23769E-07-2.32612E-19-5.22808E-19
 -1      4066 9.55610E-05-2.88352E-05-2.85960E-05 1.16468E-07-2.30328E-19-2.82876E-19
 -1      4067 9.56684E-05-2.89462E-05-2.85969E-05 7.17294E-08 1.66497E-19-7.22085E-19
 -1      4068 9.54974E-05-2.87648E-05-2.85997E-05 1.11605E-07-5.17608E-19-3.62001E-19
 -1      4069 9.54405E-05-2.86935E-05-2.86052E-05 1.09550E-07-5.34108E-21-6.93080E-19
 -1      4070 9.55393E-05-2.88069E-05-2.86006E-05 6.43979E-08-4.70103E-19-5.48983E-19
 -1      4071 9.53766E-05-2.86170E-05-2.86116E-05 1.08352E-07 2.44917E-20-7.85565E-19
 -1      4072 9.53180E-05-2.85384E-05-2.86194E-05 1.12515E-07-2.74368E-19-1.13693E-18
 -1      4073 9.54137E-05-2.86566E-05-2.86106E-05 6.20261E-08-1.19407E-19-3.52040E-19
 -1      4074 9.52493E-05-2.84528E-05-2.86277E-05 1.15493E-07-1.41208E-20-1.29248E-18
 -1      4075 9.51844E-05-2.83636E-05-2.86373E-05 1.26936E-07 2.10059E-19-1.18952E-18
 -1      4076 9.52835E-05-2.84905E-05-2.86252E-05 6.55043E-08-2.38106E-19-1.10205E-18
 -1      4077 9.51056E-05-2.82651E-05-2.86470E-05 1.34783E-07 4.50686E-19-1.34383E-18
 -1      4078 9.50292E-05-2.81613E-05-2.86576E-05 1.54744E-07 2.69917E-19-8.94975E-19
 -1      4079 9.51388E-05-2.83018E-05-2.86431E-05 7.58949E-08-1.35891E-20-1.14790E-18
 -1      4080 9.49340E-05-2.80456E-05-2.86680E-05 1.68408E-07 9.52686E-20-6.57079E-19
 -1      4081 9.48402E-05-2.79228E-05-2.86790E-05 1.98375E-07 3.71491E-19-8.42328E-19
 -1      4082 9.49683E-05-2.80823E-05-2.86631E-05 9.45520E-08 2.12979E-19-1.23567E-18
 -1      4083 9.47216E-05-2.77852E-05-2.86891E-05 2.19131E-07 5.83915E-19-1.17839E-18
 -1      4084 9.46037E-05-2.76390E-05-2.86995E-05 2.60898E-07 7.76402E-19-1.32583E-18
 -1      4085 9.47588E-05-2.78225E-05-2.86834E-05 1.23247E-07 1.57878E-19-1.31850E-18
 -1      4086 9.44537E-05-2.74748E-05-2.87080E-05 2.90443E-07 8.77073E-19-1.64248E-18
 -1      4087 9.43044E-05-2.73009E-05-2.87164E-05 3.46168E-07 7.88895E-19-1.40242E-18
 -1      4088 9.44955E-05-2.75129E-05-2.87018E-05 1.64319E-07 4.27045E-19-1.21843E-18
 -1      4089 9.41144E-05-2.71060E-05-2.87215E-05 3.86735E-07 3.17899E-19-1.15392E-18
 -1      4090 9.39258E-05-2.69011E-05-2.87258E-05 4.59007E-07-3.56876E-19-9.87971E-19
 -1      4091 9.41620E-05-2.71442E-05-2.87151E-05 2.20866E-07 4.90872E-19-2.21376E-18
 -1      4092 9.36862E-05-2.66724E-05-2.87249E-05 5.13533E-07-6.18249E-19-5.97638E-19
 -1      4093 9.34503E-05-2.64348E-05-2.87221E-05 6.05483E-07-5.52031E-20-5.15249E-19
 -1      4094 9.37402E-05-2.67089E-05-2.87188E-05 2.97024E-07-8.57298E-20-1.70236E-18
 -1      4095 9.31514E-05-2.61713E-05-2.87116E-05 6.77852E-07 2.47584E-19-6.45577E-19
 -1      4096 9.28604E-05-2.59021E-05-2.86979E-05 7.93357E-07 2.08140E-19-4.60462E-19
 -1      4097 9.32112E-05-2.62024E-05-2.87065E-05 3.98366E-07 2.42388E-19-1.15330E-18
 -1      4098 9.24921E-05-2.56061E-05-2.86728E-05 8.88777E-07-4.81068E-19 3.07980E-20
 -1      4099 9.21391E-05-2.53103E-05-2.86427E-05 1.03286E-06-4.59091E-19-3.52641E-19
 -1      4100 9.25552E-05-2.56250E-05-2.86697E-05 5.32532E-07 1.16721E-19-1.22438E-18
 -1      4101 9.16916E-05-2.49883E-05-2.85963E-05 1.15845E-06-3.67492E-20-2.76282E-19
 -1      4102 9.12716E-05-2.46766E-05-2.85426E-05 1.33800E-06 2.60957E-19-3.07326E-19
 -1      4103 9.17526E-05-2.49844E-05-2.85966E-05 7.10189E-07-2.60582E-19-6.25338E-20
 -1      4104 9.07354E-05-2.43410E-05-2.84662E-05 1.50375E-06-1.14543E-19-9.92629E-20
 -1      4105 9.02463E-05-2.40313E-05-2.83797E-05 1.72890E-06-5.16438E-20-8.25692E-20
 -1      4106 9.07848E-05-2.42975E-05-2.84716E-05 9.46564E-07 6.28670E-20 6.75916E-20
 -1      4107 8.96119E-05-2.37017E-05-2.82619E-05 1.94925E-06 3.11244E-19 7.26223E-21
 -1      4108 8.90556E-05-2.34207E-05-2.81305E-05 2.23569E-06 2.34576E-19-3.52178E-19
 -1      4109 8.96334E-05-2.35932E-05-2.82742E-05 1.26389E-06-5.14324E-20-2.22110E-19
 -1      4110 8.83117E-05-2.31244E-05-2.79565E-05 2.53212E-06-2.08946E-19 1.38041E-19
 -1      4111 8.76950E-05-2.29091E-05-2.77654E-05 2.90525E-06-4.48047E-19-1.50803E-19
 -1      4112 8.82793E-05-2.29129E-05-2.79778E-05 1.69537E-06-6.29187E-20-5.23555E-19
 -1      4113 8.68247E-05-2.26810E-05-2.75159E-05 3.31070E-06 9.51953E-20-1.65972E-19
 -1      4114 8.61600E-05-2.25797E-05-2.72464E-05 3.81252E-06 7.29708E-19 9.78834E-20
 -1      4115 8.66974E-05-2.23100E-05-2.75476E-05 2.29150E-06-2.47964E-20-2.90649E-19
 -1      4116 8.51326E-05-2.24603E-05-2.68957E-05 4.37944E-06 7.85270E-19 3.84211E-20
 -1      4117 8.44414E-05-2.25357E-05-2.65241E-05 5.08032E-06 7.33034E-19-5.04804E-20
 -1      4118 8.48455E-05-2.18462E-05-2.69376E-05 3.13002E-06 5.24945E-19 8.51901E-20
 -1      4119 8.31979E-05-2.25676E-05-2.60362E-05 5.89985E-06 1.56902E-20-5.00365E-19
 -1      4120 8.25300E-05-2.29124E-05-2.55324E-05 6.91575E-06-2.44432E-19-1.20911E-18
 -1      4121 8.26367E-05-2.15861E-05-2.60843E-05 4.33102E-06-3.91907E-19-8.02412E-19
 -1      4122 8.09760E-05-2.31188E-05-2.48564E-05 8.15663E-06 1.42330E-19-1.05122E-18
 -1      4123 8.04353E-05-2.38756E-05-2.41860E-05 9.66192E-06 1.05972E-19-8.77710E-19
 -1      4124 7.98934E-05-2.16412E-05-2.48957E-05 6.06562E-06-3.16327E-19-1.47381E-18
 -1      4125 9.56916E-05-2.89800E-05-2.85896E-05-1.89082E-07 2.44645E-19-5.50576E-19
 -1      4126 9.57519E-05-2.90389E-05-2.85910E-05-2.05674E-07-1.69314E-19-5.33165E-19
 -1      4127 9.56823E-05-2.89661E-05-2.85947E-05-1.31290E-07 9.33953E-20-1.00920E-18
 -1      4128 9.58248E-05-2.90984E-05-2.85958E-05-2.22207E-07-7.37412E-19-6.64645E-19
 -1      4129 9.58923E-05-2.91529E-05-2.86021E-05-2.42702E-07-6.76590E-19-8.65382E-19
 -1      4130 9.58196E-05-2.90922E-05-2.86001E-05-1.53223E-07-5.04901E-19-9.05686E-19
 -1      4131 9.53414E-05-2.85727E-05-2.86146E-05-1.54022E-07 1.27218E-19-4.21430E-19
 -1      4132 9.53949E-05-2.86465E-05-2.86068E-05-1.50758E-07 2.81481E-20-1.47024E-19
 -1      4133 9.52182E-05-2.84081E-05-2.86326E-05-1.69851E-07-2.23783E-19 5.90331E-20
 -1      4134 9.52769E-05-2.84916E-05-2.86229E-05-1.57596E-07 4.76941E-20 4.62890E-20
 -1      4135 9.53106E-05-2.85283E-05-2.86210E-05-1.11851E-07 1.70132E-19-7.05259E-20
 -1      4136 9.50764E-05-2.82181E-05-2.86534E-05-2.02762E-07-2.34348E-19-2.60411E-19
 -1      4137 9.51452E-05-2.83151E-05-2.86424E-05-1.80197E-07-1.78510E-19-2.19258E-19
 -1      4138 9.51746E-05-2.83486E-05-2.86389E-05-1.25087E-07 1.51614E-19 1.18766E-19
 -1      4139 9.49043E-05-2.79940E-05-2.86760E-05-2.55166E-07 3.15161E-19-5.52893E-19
 -1      4140 9.49889E-05-2.81089E-05-2.86642E-05-2.20821E-07 4.30199E-21-4.89148E-19
 -1      4141 9.50157E-05-2.81401E-05-2.86593E-05-1.50448E-07 2.58009E-21-2.65127E-19
 -1      4142 9.46885E-05-2.77261E-05-2.86986E-05-3.29733E-07-3.29396E-19-3.14572E-19
 -1      4143 9.47955E-05-2.78637E-05-2.86868E-05-2.82022E-07 7.03916E-20-4.91096E-19
 -1      4144 9.48212E-05-2.78933E-05-2.86806E-05-1.89470E-07-7.15518E-20-8.63018E-20
 -1      4145 9.44134E-05-2.74044E-05-2.87190E-05-4.29247E-07-1.01713E-18-3.13214E-19
 -1      4146 9.45505E-05-2.75697E-05-2.87084E-05-3.66566E-07-6.54741E-19-3.98837E-19
 -1      4147 9.45766E-05-2.75984E-05-2.87008E-05-2.43721E-07-4.66581E-19 6.75216E-20
 -1      4148 9.40616E-05-2.70195E-05-2.87336E-05-5.56326E-07 3.80621E-20-1.43632E-19
 -1      4149 9.42374E-05-2.72169E-05-2.87261E-05-4.77220E-07-8.09073E-19-4.39808E-20
 -1      4150 9.42652E-05-2.72450E-05-2.87172E-05-3.14613E-07-9.56432E-19-1.20835E-18
 -1      4151 9.36133E-05-2.65633E-05-2.87377E-05-7.13020E-07 1.10075E-18-9.86899E-19
 -1      4152 9.38376E-05-2.67964E-05-2.87358E-05-6.16423E-07 9.94154E-19-2.02752E-19
 -1      4153 9.38684E-05-2.68241E-05-2.87256E-05-4.03084E-07 4.00510E-19-1.14739E-18
 -1      4154 9.30470E-05-2.60306E-05-2.87241E-05-9.00306E-07-1.86453E-19-5.60793E-19
 -1      4155 9.33305E-05-2.63016E-05-2.87315E-05-7.85823E-07 6.70441E-19-6.07215E-19
 -1      4156 9.33658E-05-2.63283E-05-2.87203E-05-5.09175E-07 5.76087E-19-7.39252E-19
 -1      4157 9.23391E-05-2.54209E-05-2.86830E-05-1.11759E-06 2.01470E-19-1.45919E-18
 -1      4158 9.26935E-05-2.57292E-05-2.87049E-05-9.85750E-07 5.02544E-20-9.51041E-19
 -1      4159 9.27347E-05-2.57538E-05-2.86932E-05-6.31497E-07 3.25248E-19-1.84448E-18
 -1      4160 9.14644E-05-2.47408E-05-2.86009E-05-1.36244E-06 4.11356E-19-1.35260E-18
 -1      4161 9.19022E-05-2.50821E-05-2.86444E-05-1.21476E-06 2.69176E-19-1.78320E-18
 -1      4162 9.19510E-05-2.51023E-05-2.86331E-05-7.66677E-07 4.52409E-19-2.30919E-18
 -1      4163 9.03960E-05-2.40060E-05-2.84596E-05-1.63095E-06 6.60011E-19-7.15688E-19
 -1      4164 9.09304E-05-2.43709E-05-2.85344E-05-1.46953E-06 6.55008E-19-8.61549E-19
 -1      4165 9.09888E-05-2.43827E-05-2.85250E-05-9.08968E-07 1.45847E-19-1.54258E-18
 -1      4166 8.91042E-05-2.32440E-05-2.82345E-05-1.91957E-06 1.28625E-19-3.35715E-19
 -1      4167 8.97494E-05-2.36170E-05-2.83535E-05-1.74573E-06 4.54716E-19-5.38373E-20
 -1      4168 8.98198E-05-2.36131E-05-2.83485E-05-1.05035E-06 4.28810E-19-8.98393E-19
 -1      4169 8.75529E-05-2.24950E-05-2.78932E-05-2.22962E-06 3.64964E-19-7.98395E-19
 -1      4170 8.83255E-05-2.28536E-05-2.80735E-05-2.04068E-06 1.82549E-19-7.47632E-19
 -1      4171 8.84101E-05-2.28217E-05-2.80768E-05-1.18167E-06 2.82554E-19-1.32011E-18
 -1      4172 8.56917E-05-2.18109E-05-2.73920E-05-2.57654E-06-8.79479E-20-1.32947E-18
 -1      4173 8.66141E-05-2.21261E-05-2.76567E-05-2.35929E-06 2.76020E-19-1.02403E-18
 -1      4174 8.67149E-05-2.20453E-05-2.76737E-05-1.29548E-06 3.41311E-19-7.59052E-19
 -1      4175 8.34375E-05-2.12491E-05-2.66711E-05-3.00767E-06-7.20780E-19-1.67897E-18
 -1      4176 8.45454E-05-2.14881E-05-2.70518E-05-2.72552E-06-3.76130E-19-1.50191E-18
 -1      4177 8.46637E-05-2.13236E-05-2.70906E-05-1.39122E-06-1.91765E-20-1.69760E-18
 -1      4178 8.06541E-05-2.08651E-05-2.56447E-05-3.63697E-06-9.33685E-19-1.93017E-18
 -1      4179 8.19925E-05-2.09864E-05-2.61863E-05-3.20726E-06-9.20529E-19-1.58100E-18
 -1      4180 8.21299E-05-2.06847E-05-2.62587E-05-1.48255E-06-7.07373E-19-2.66911E-18
 -1      4181 7.70950E-05-2.07764E-05-2.41708E-05-4.73430E-06-1.04824E-18-2.57849E-18
 -1      4182 7.87497E-05-2.06960E-05-2.49492E-05-4.00385E-06-8.70506E-19-1.90352E-18
 -1      4183 7.88228E-05-2.01021E-05-2.50719E-05-1.63449E-06-6.02509E-19-2.38122E-18
 -1      4184 7.28605E-05-2.06608E-05-2.24104E-05-5.68619E-06-7.05770E-19-2.39325E-18
 -1      4185 7.49137E-05-2.05988E-05-2.33483E-05-4.95620E-06-8.92826E-19-2.40813E-18
 -1      4186 7.49990E-05-1.98100E-05-2.35581E-05-1.97115E-06-8.96166E-19-2.34417E-18
 -1      4187 7.00982E-05-1.93706E-05-2.16031E-05-1.72421E-06-4.49657E-19-1.81988E-18
 -1      4188 9.64740E-05-2.66358E-05-2.99313E-05-1.43337E-07-3.95930E-19-1.08161E-18
 -1      4189 9.66594E-05-2.72577E-05-2.97479E-05 8.22772E-09-4.19546E-19-1.23714E-18
 -1      4190 9.66088E-05-2.72563E-05-2.97224E-05 4.73294E-09 1.52247E-19-7.53590E-19
 -1      4191 9.64275E-05-2.66443E-05-2.99090E-05 1.99158E-07 2.78107E-19-9.83815E-19
 -1      4192 9.63523E-05-2.63651E-05-2.99952E-05 1.80482E-07 2.89513E-20-1.25080E-18
 -1      4193 9.73570E-05-4.21327E-05-2.34793E-05-1.90696E-05 9.26158E-19 1.82125E-19
 -1      4194 9.64958E-05-2.93671E-05-2.87684E-05-3.85576E-07 7.24474E-21-4.18779E-19
 -1      4195 9.65822E-05-2.93428E-05-2.88150E-05-3.90773E-07-1.17956E-19-4.51717E-19
 -1      4196 9.66666E-05-2.92941E-05-2.88735E-05-4.03628E-07-1.04556E-19-3.71900E-19
 -1      4197 9.67424E-05-2.92143E-05-2.89383E-05-3.89787E-07 3.31980E-20-4.93896E-19
 -1      4198 9.66896E-05-2.93419E-05-2.88681E-05-2.79160E-07-8.58145E-20-7.47991E-19
 -1      4199 9.54560E-05-2.87194E-05-2.86007E-05-1.53171E-07 5.84065E-20-1.17102E-19
 -1      4200 9.55085E-05-2.87866E-05-2.85952E-05-1.57704E-07 1.40191E-19-1.81442E-19
 -1      4201 9.54346E-05-2.86871E-05-2.86068E-05-1.09323E-07 7.14569E-20-8.91181E-19
 -1      4202 9.59733E-05-2.92067E-05-2.86129E-05-2.62471E-07-3.88065E-19-7.88975E-19
 -1      4203 9.60488E-05-2.92537E-05-2.86257E-05-2.84833E-07-7.64977E-20-6.58016E-19
 -1      4204 9.59717E-05-2.92081E-05-2.86163E-05-1.80382E-07-5.82588E-19-1.32596E-18
 -1      4205 7.95177E-05-2.54845E-05-2.32043E-05 1.26419E-05 1.34678E-19-4.06593E-19
 -1      4206 9.61375E-05-2.92976E-05-2.86443E-05-3.06623E-07-1.14859E-20-6.15833E-19
 -1      4207 9.62204E-05-2.93315E-05-2.86656E-05-3.27969E-07 5.69537E-20-4.52721E-19
 -1      4208 9.61399E-05-2.93073E-05-2.86464E-05-2.10537E-07-2.91194E-20-1.06561E-18
 -1      4209 9.68088E-05-2.77820E-05-2.95819E-05 6.38086E-08-3.41255E-19-1.12553E-18
 -1      4210 9.68890E-05-2.82077E-05-2.94365E-05 1.64682E-07-2.92905E-19-1.09493E-18
 -1      4211 9.67439E-05-2.74421E-05-2.96963E-05 1.41156E-08-3.69753E-19-1.01250E-18
 -1      4212 9.60641E-05-2.55027E-05-3.02299E-05 1.95654E-07-4.57753E-20-1.50537E-18
 -1      4213 9.56618E-05-2.46355E-05-3.04498E-05 1.84426E-07 4.52739E-20-1.52816E-18
 -1      4214 9.63144E-05-2.93580E-05-2.86943E-05-3.49951E-07 1.59121E-19-5.22120E-19
 -1      4215 9.64018E-05-2.93697E-05-2.87266E-05-3.66146E-07 1.82046E-19-4.00333E-19
 -1      4216 9.63216E-05-2.93776E-05-2.86947E-05-2.40480E-07 1.66051E-19-1.12124E-18
 -1      4217 9.55560E-05-2.88316E-05-2.85976E-05-1.16215E-07 3.27511E-20-1.23559E-18
 -1      4218 7.72380E-05-2.30943E-05-2.31812E-05 1.01574E-05 1.81272E-19-7.67655E-19
 -1      4219 9.69395E-05-2.83417E-05-2.94006E-05 8.65054E-08-1.12125E-19-6.53423E-19
 -1      4220 9.55659E-05-2.44227E-05-3.04958E-05-6.31325E-08 7.76454E-20-1.36277E-18
 -1      4221 9.68024E-05-2.90953E-05-2.90176E-05-3.90163E-07-9.96542E-20-5.80467E-19
 -1      4222 9.68511E-05-2.89325E-05-2.91056E-05-3.47269E-07-7.88511E-20-5.79003E-19
 -1      4223 9.68377E-05-2.91642E-05-2.90075E-05-2.72318E-07-1.95786E-19-8.71868E-19
 -1      4224 9.61772E-05-2.58525E-05-3.01342E-05-2.18753E-07-1.59111E-19-1.18113E-18
 -1      4225 9.63018E-05-2.61384E-05-3.00673E-05-1.03729E-07-2.11952E-19-1.00406E-18
 -1      4226 9.67428E-05-2.77723E-05-2.95603E-05-1.03391E-07 1.69930E-19-7.29703E-19
 -1      4227 9.67329E-05-2.75787E-05-2.96335E-05-5.20552E-08 1.66796E-19-9.39247E-19
 -1      4228 9.68195E-05-2.81945E-05-2.94130E-05-2.36579E-07 8.52359E-20-7.94296E-19
 -1      4229 9.67808E-05-2.85764E-05-2.92314E-05-3.79964E-07 2.06137E-19-6.05110E-19
 -1      4230 9.63665E-05-2.63157E-05-3.00232E-05 7.49314E-08 3.07876E-20-1.35559E-18
 -1      4231 9.65096E-05-2.93990E-05-2.87664E-05-2.65558E-07-5.11370E-20-9.14613E-19
 -1      4232 7.40514E-05-2.20229E-05-2.22279E-05 8.80486E-06 1.23091E-19-9.00608E-19
 -1      4233 6.94043E-05-2.00411E-05-2.10446E-05 6.80795E-06 6.69102E-19-2.07952E-18
 -1      4234 6.92813E-05-1.93829E-05-2.14454E-05 1.49885E-06 1.76203E-19-2.37829E-18
 -1      4235 7.51360E-05-2.08426E-05-2.33151E-05 5.67384E-06 5.37552E-19-5.80998E-19
 -1      4236 9.58013E-05-2.50498E-05-3.03245E-05-4.57589E-07-2.23399E-19-1.43220E-18
 -1      4237 9.55935E-05-2.45121E-05-3.04740E-05-4.08772E-07-3.86212E-20-1.53504E-18
 -1      4238 9.68853E-05-2.92059E-05-2.90032E-05-5.95438E-08-4.60236E-20-8.58471E-19
 -1      4239 9.68126E-05-2.93083E-05-2.89269E-05-5.23739E-08-1.19841E-19-1.08114E-18
 -1      4240 9.67291E-05-2.93690E-05-2.88659E-05-5.65426E-08-2.33551E-20-1.11477E-18
 -1      4241 9.66363E-05-2.94061E-05-2.88097E-05-5.40294E-08-4.77082E-20-1.03220E-18
 -1      4242 9.65422E-05-2.94154E-05-2.87657E-05-5.09961E-08-3.73867E-20-1.16543E-18
 -1      4243 9.64428E-05-2.94097E-05-2.87255E-05-5.15890E-08-2.80954E-20-1.12516E-18
 -1      4244 9.63480E-05-2.93862E-05-2.86951E-05-4.44747E-08 5.37224E-20-1.15044E-18
 -1      4245 9.62505E-05-2.93537E-05-2.86675E-05-4.68397E-08-2.43088E-20-7.90040E-19
 -1      4246 9.61605E-05-2.93103E-05-2.86475E-05-3.79688E-08-2.50113E-19-6.33000E-19
 -1      4247 9.60696E-05-2.92618E-05-2.86298E-05-4.11101E-08-1.74589E-19-5.58592E-19
 -1      4248 9.59873E-05-2.92069E-05-2.86179E-05-3.21450E-08-4.74909E-19-7.53467E-19
 -1      4249 9.59046E-05-2.91492E-05-2.86077E-05-3.53405E-08-6.21925E-19-8.16640E-19
 -1      4250 9.58303E-05-2.90878E-05-2.86021E-05-2.74592E-08-3.49326E-19-1.22461E-18
 -1      4251 9.57557E-05-2.90246E-05-2.85978E-05-3.01851E-08-2.41682E-20-1.33785E-18
 -1      4252 9.56882E-05-2.89589E-05-2.85969E-05-2.42392E-08 2.13370E-19-1.40516E-18
 -1      4253 9.56200E-05-2.88913E-05-2.85971E-05-2.61018E-08 1.03695E-19-1.45566E-18
 -1      4254 9.55568E-05-2.88215E-05-2.85999E-05-2.27438E-08-3.10849E-19-1.12695E-18
 -1      4255 9.54920E-05-2.87491E-05-2.86036E-05-2.34219E-08-4.76634E-19-1.07595E-18
 -1      4256 9.54297E-05-2.86739E-05-2.86093E-05-2.32014E-08-1.47879E-19-8.09595E-19
 -1      4257 9.53646E-05-2.85946E-05-2.86156E-05-2.23975E-08 1.93300E-19-6.85229E-19
 -1      4258 9.52988E-05-2.85112E-05-2.86235E-05-2.58270E-08 2.00822E-19-3.87893E-19
 -1      4259 9.52286E-05-2.84220E-05-2.86317E-05-2.32234E-08-2.38182E-20-3.20564E-19
 -1      4260 9.51544E-05-2.83269E-05-2.86412E-05-3.08144E-08-2.46903E-19-2.87449E-19
 -1      4261 9.50736E-05-2.82237E-05-2.86508E-05-2.60323E-08 5.49666E-20-7.34376E-19
 -1      4262 9.49848E-05-2.81126E-05-2.86611E-05-3.82992E-08 3.74471E-20-4.22238E-19
 -1      4263 9.48871E-05-2.79908E-05-2.86713E-05-3.08535E-08 5.92963E-20-4.76717E-20
 -1      4264 9.47768E-05-2.78589E-05-2.86816E-05-4.82811E-08-2.02929E-19-2.11020E-19
 -1      4265 9.46550E-05-2.77135E-05-2.86914E-05-3.75243E-08-2.01932E-19-4.52971E-19
 -1      4266 9.45153E-05-2.75558E-05-2.87005E-05-6.04911E-08-3.50881E-19-7.50365E-19
 -1      4267 9.43614E-05-2.73820E-05-2.87085E-05-4.55382E-08-2.93137E-19-1.49861E-18
 -1      4268 9.41833E-05-2.71935E-05-2.87148E-05-7.41866E-08-3.56977E-20-1.86311E-18
 -1      4269 9.39883E-05-2.69866E-05-2.87191E-05-5.38060E-08-8.88333E-20-2.10209E-18
 -1      4270 9.37618E-05-2.67633E-05-2.87201E-05-8.78520E-08 9.01845E-20-1.88644E-18
 -1      4271 9.35161E-05-2.65200E-05-2.87180E-05-6.03038E-08 1.91036E-19-1.67694E-18
 -1      4272 9.32302E-05-2.62589E-05-2.87104E-05-9.87840E-08 3.33110E-19-1.51884E-18
 -1      4273 9.29236E-05-2.59777E-05-2.86981E-05-6.15772E-08 7.48045E-19-1.64725E-18
 -1      4274 9.25663E-05-2.56782E-05-2.86770E-05-1.02547E-07 6.93289E-19-2.03673E-18
 -1      4275 9.21886E-05-2.53604E-05-2.86494E-05-5.20743E-08 4.92699E-19-1.55328E-18
 -1      4276 9.17469E-05-2.50251E-05-2.86086E-05-9.22968E-08 2.42664E-19-1.08323E-18
 -1      4277 9.12875E-05-2.46762E-05-2.85587E-05-2.32863E-08-5.95471E-20-1.14675E-18
 -1      4278 9.07475E-05-2.43120E-05-2.84895E-05-5.80019E-08-5.43039E-19-8.51068E-19
 -1      4279 9.01961E-05-2.39425E-05-2.84082E-05 3.73149E-08-8.30047E-20-1.04963E-18
 -1      4280 8.95416E-05-2.35612E-05-2.82990E-05 1.43948E-08 2.49688E-19-6.70697E-19
 -1      4281 8.88868E-05-2.31874E-05-2.81742E-05 1.47541E-07 1.90048E-19-6.51482E-19
 -1      4282 8.80975E-05-2.28063E-05-2.80098E-05 1.43817E-07 2.39641E-19-8.64462E-19
 -1      4283 8.73250E-05-2.24498E-05-2.78258E-05 3.31981E-07 2.67988E-19-3.96407E-19
 -1      4284 8.63713E-05-2.20902E-05-2.75857E-05 3.54998E-07-2.65509E-19-2.52454E-19
 -1      4285 8.54594E-05-2.17766E-05-2.73217E-05 6.23842E-07 2.13595E-20-4.23193E-19
 -1      4286 8.42934E-05-2.14604E-05-2.69780E-05 6.80294E-07 4.57811E-19-4.72675E-19
 -1      4287 8.32056E-05-2.12152E-05-2.66061E-05 1.06755E-06 3.49912E-19-8.87039E-19
 -1      4288 8.17451E-05-2.09557E-05-2.61188E-05 1.16661E-06-3.10788E-19-9.43194E-19
 -1      4289 8.04280E-05-2.08035E-05-2.56001E-05 1.73007E-06-9.58388E-19-8.80580E-19
 -1      4290 7.85074E-05-2.05411E-05-2.49062E-05 1.91560E-06-1.02015E-18-6.34064E-19
 -1      4291 7.69281E-05-2.05126E-05-2.41855E-05 2.62212E-06-1.51827E-19-7.70583E-19
 -1      4292 9.69432E-05-2.90685E-05-2.90856E-05-4.41371E-08-1.91554E-20-7.84322E-19
 -1      4293 9.55411E-05-2.43739E-05-3.05082E-05-1.91544E-07 6.89215E-20-1.30206E-18
 -1      4294 9.68600E-05-2.87459E-05-2.91912E-05-3.44056E-07 1.03158E-19-8.53785E-19
 -1      4295 9.68659E-05-2.84819E-05-2.93059E-05-2.59220E-07 1.06174E-19-9.09625E-19
 -1      4296 9.69015E-05-2.83965E-05-2.93644E-05-1.88903E-07 2.03777E-19-1.18922E-18
 -1      4297 9.69154E-05-2.88494E-05-2.91756E-05-2.48733E-07-1.62024E-19-7.73115E-19
 -1      4298 9.69751E-05-2.88677E-05-2.91869E-05-5.52514E-08-1.00289E-19-6.44061E-19
 -1      4299 9.60362E-05-2.53920E-05-3.02636E-05-6.87354E-08 2.15898E-20-1.29188E-18
 -1      4300 9.66978E-05-2.72038E-05-2.97810E-05-2.29091E-08-3.81399E-19-9.86922E-19
 -1      4301 9.68561E-05-2.77580E-05-2.96165E-05 3.30958E-08-1.74303E-19-8.35707E-19
 -1      4302 9.69492E-05-2.83390E-05-2.94032E-05-6.07204E-08 9.21857E-20-7.27818E-19
 -1      4303 9.69812E-05-2.86617E-05-2.92766E-05-3.48920E-08 2.38832E-20-6.36349E-19
 -1      4304 9.63452E-05-2.62310E-05-3.00541E-05-2.35161E-08-1.59619E-19-1.13274E-18
 -1      4305 9.64551E-05-2.65360E-05-2.99642E-05 2.25731E-08-1.51907E-19-1.21811E-18
 -1      4306 7.42930E-05-1.97090E-05-2.33965E-05 1.07977E-06-1.11593E-19-1.22278E-18
 -1      4307 9.68313E-05-2.77970E-05-2.95848E-05-7.05414E-08 6.59100E-20-8.60962E-19
 -1      4308 9.67083E-05-2.72998E-05-2.97472E-05 2.80400E-08 1.42514E-20-9.79695E-19
 -1      4309 9.68864E-05-2.81166E-05-2.94720E-05-9.95270E-08 1.36342E-19-9.30597E-19
 -1      4310 7.23605E-05-1.97144E-05-2.25695E-05 1.25457E-06 2.79587E-19-1.95800E-18
 -3
    1PSTEP                         4           1           1          
  100CL  101 1.000000000        4310                     0    1           1
 -4  ERROR       1    1
 -5  STR(%)      1    1    0    0
 -1         1 1.27149E+01
 -1         2 2.91019E+01
 -1         3 1.03449E+00
 -1         4 6.15859E-01
 -1         5 1.40385E+01
 -1         6 1.31426E+01
 -1         7 1.31426E+01
 -1         8 3.66359E+00
 -1         9 1.82413E+00
 -1        10 1.29175E+00
 -1        11 1.04608E+00
 -1        12 8.99354E-01
 -1        13 8.08832E-01
 -1        14 7.53662E-01
 -1        15 7.55620E-01
 -1        16 8.13095E-01
 -1        17 9.00873E-01
 -1        18 1.05274E+00
 -1        19 1.30798E+00
 -1        20 1.83598E+00
 -1        21 3.50539E+00
 -1        22 8.64066E+00
 -1        23 1.31426E+01
 -1        24 4.31732E+00
 -1        25 3.34020E+00
 -1        26 2.11060E+00
 -1        27 1.36160E+00
 -1        28 1.01366E+00
 -1        29 7.74553E-01
 -1        30 5.94584E-01
 -1        31 4.54062E-01
 -1        32 3.46094E-01
 -1        33 2.66735E-01
 -1        34 2.02712E-01
 -1        35 1.51935E-01
 -1        36 1.12395E-01
 -1        37 8.22579E-02
 -1        38 6.32015E-02
 -1        39 4.88000E-02
 -1        40 3.70492E-02
 -1        41 2.88424E-02
 -1        42 2.58576E-02
 -1        43 3.04982E-02
 -1        44 3.90555E-02
 -1        45 4.98999E-02
 -1        46 6.26606E-02
 -1        47 7.67567E-02
 -1        48 1.01281E-01
 -1        49 1.37463E-01
 -1        50 1.82166E-01
 -1        51 2.35351E-01
 -1        52 2.95763E-01
 -1        53 3.60166E-01
 -1        54 4.22313E-01
 -1        55 5.55366E-01
 -1        56 7.00022E-01
 -1        57 8.92564E-01
 -1        58 1.07733E+00
 -1        59 1.20452E+00
 -1        60 1.28669E+00
 -1        61 1.50676E+00
 -1        62 1.54707E+00
 -1        63 2.33775E+00
 -1        64 3.28784E+00
 -1        65 5.58794E+00
 -1        66 7.19551E+00
 -1        67 7.19551E+00
 -1        68 6.97980E+00
 -1        69 6.84162E+00
 -1        70 4.67778E+00
 -1        71 3.04275E+00
 -1        72 1.40385E+01
 -1        73 3.39449E+00
 -1        74 2.41271E+00
 -1        75 1.66541E+00
 -1        76 1.14421E+00
 -1        77 9.06072E-01
 -1        78 7.31344E-01
 -1        79 5.87752E-01
 -1        80 4.67952E-01
 -1        81 3.68073E-01
 -1        82 2.93345E-01
 -1        83 2.30915E-01
 -1        84 1.79039E-01
 -1        85 1.36867E-01
 -1        86 1.03346E-01
 -1        87 7.73868E-02
 -1        88 5.79656E-02
 -1        89 4.41804E-02
 -1        90 3.52849E-02
 -1        91 3.08692E-02
 -1        92 3.58231E-02
 -1        93 4.59069E-02
 -1        94 6.01523E-02
 -1        95 7.87759E-02
 -1        96 1.01978E-01
 -1        97 1.29821E-01
 -1        98 1.62041E-01
 -1        99 1.97780E-01
 -1       100 2.52809E-01
 -1       101 3.26519E-01
 -1       102 4.11699E-01
 -1       103 5.04807E-01
 -1       104 5.97940E-01
 -1       105 6.76438E-01
 -1       106 7.15936E-01
 -1       107 9.19825E-01
 -1       108 1.22516E+00
 -1       109 1.51139E+00
 -1       110 1.86656E+00
 -1       111 2.48925E+00
 -1       112 2.74735E+00
 -1       113 3.93411E+00
 -1       114 5.26832E+00
 -1       115 8.84325E+00
 -1       116 1.03213E+01
 -1       117 1.09213E+01
 -1       118 1.09213E+01
 -1       119 8.47537E+00
 -1       120 4.16881E+00
 -1       121 2.20616E+00
 -1       122 9.93891E-01
 -1       123 2.66034E+00
 -1       124 4.90279E+00
 -1       125 7.29808E+00
 -1       126 8.65429E+00
 -1       127 8.65429E+00
 -1       128 1.69535E+01
 -1       129 2.00838E+01
 -1       130 2.00838E+01
 -1       131 8.73581E+00
 -1       132 8.73581E+00
 -1       133 8.10580E+00
 -1       134 4.76816E+00
 -1       135 2.24996E+00
 -1       136 8.17301E-01
 -1       137 9.88279E-01
 -1       138 1.87312E+00
 -1       139 2.91019E+01
 -1       140 3.74346E+01
 -1       141 3.74346E+01
 -1       142 1.36763E+01
 -1       143 1.21885E+01
 -1       144 1.23573E+01
 -1       145 1.25556E+01
 -1       146 1.26748E+01
 -1       147 1.26748E+01
 -1       148 1.55118E+01
 -1       149 3.82149E+01
 -1       150 3.82149E+01
 -1       151 2.50616E+01
 -1       152 2.36770E+01
 -1       153 2.29913E+01
 -1       154 2.28296E+01
 -1       155 4.58339E+01
 -1       156 4.58339E+01
 -1       157 1.84472E+01
 -1       158 1.21660E+01
 -1       159 1.21660E+01
 -1       160 1.19520E+01
 -1       161 1.27149E+01
 -1       162 1.19802E+01
 -1       163 1.80320E+01
 -1       164 4.41758E+01
 -1       165 4.41758E+01
 -1       166 2.83471E+01
 -1       167 6.07762E+00
 -1       168 2.29830E+00
 -1       169 1.50855E+00
 -1       170 1.15763E+00
 -1       171 9.73295E-01
 -1       172 8.64115E-01
 -1       173 7.95941E-01
 -1       174 7.55620E-01
 -1       175 7.99325E-01
 -1       176 8.67198E-01
 -1       177 9.81089E-01
 -1       178 1.17268E+00
 -1       179 1.52782E+00
 -1       180 2.26103E+00
 -1       181 3.93099E+00
 -1       182 1.40385E+01
 -1       183 4.31732E+00
 -1       184 3.34020E+00
 -1       185 2.11060E+00
 -1       186 1.44620E+00
 -1       187 1.02458E+00
 -1       188 7.74553E-01
 -1       189 5.94584E-01
 -1       190 4.66767E-01
 -1       191 3.66338E-01
 -1       192 2.87948E-01
 -1       193 2.30746E-01
 -1       194 1.82061E-01
 -1       195 1.41717E-01
 -1       196 1.09084E-01
 -1       197 8.33213E-02
 -1       198 6.35243E-02
 -1       199 4.88054E-02
 -1       200 3.83368E-02
 -1       201 3.13659E-02
 -1       202 2.72110E-02
 -1       203 3.08936E-02
 -1       204 3.90555E-02
 -1       205 4.98999E-02
 -1       206 6.26606E-02
 -1       207 8.19400E-02
 -1       208 1.09288E-01
 -1       209 1.42960E-01
 -1       210 1.82902E-01
 -1       211 2.35351E-01
 -1       212 3.14522E-01
 -1       213 4.10268E-01
 -1       214 5.15463E-01
 -1       215 6.20318E-01
 -1       216 7.34821E-01
 -1       217 8.92564E-01
 -1       218 1.07733E+00
 -1       219 1.20452E+00
 -1       220 1.28669E+00
 -1       221 1.50676E+00
 -1       222 1.54707E+00
 -1       223 2.33775E+00
 -1       224 3.69754E+00
 -1       225 5.58794E+00
 -1       226 7.19551E+00
 -1       227 6.97980E+00
 -1       228 6.84162E+00
 -1       229 4.67778E+00
 -1       230 3.04275E+00
 -1       231 3.39449E+00
 -1       232 2.41271E+00
 -1       233 1.66541E+00
 -1       234 1.14421E+00
 -1       235 9.06072E-01
 -1       236 7.31344E-01
 -1       237 5.87752E-01
 -1       238 4.67952E-01
 -1       239 3.68073E-01
 -1       240 2.93345E-01
 -1       241 2.30915E-01
 -1       242 1.81916E-01
 -1       243 1.41868E-01
 -1       244 1.09304E-01
 -1       245 8.35071E-02
 -1       246 6.37009E-02
 -1       247 4.91340E-02
 -1       248 3.91336E-02
 -1       249 3.31317E-02
 -1       250 3.46515E-02
 -1       251 4.18445E-02
 -1       252 5.23985E-02
 -1       253 6.62861E-02
 -1       254 8.34224E-02
 -1       255 1.03552E-01
 -1       256 1.30470E-01
 -1       257 1.72684E-01
 -1       258 2.24175E-01
 -1       259 2.84951E-01
 -1       260 3.53696E-01
 -1       261 4.28377E-01
 -1       262 5.04807E-01
 -1       263 5.97940E-01
 -1       264 6.76438E-01
 -1       265 8.23628E-01
 -1       266 1.03265E+00
 -1       267 1.22516E+00
 -1       268 1.51139E+00
 -1       269 1.86656E+00
 -1       270 2.48925E+00
 -1       271 2.74735E+00
 -1       272 3.93411E+00
 -1       273 6.04094E+00
 -1       274 8.84325E+00
 -1       275 1.03213E+01
 -1       276 1.09213E+01
 -1       277 8.47537E+00
 -1       278 4.19654E+00
 -1       279 1.50855E+00
 -1       280 2.65308E+00
 -1       281 5.37615E+00
 -1       282 7.32695E+00
 -1       283 8.28593E+00
 -1       284 8.65429E+00
 -1       285 1.39512E+01
 -1       286 2.41603E+01
 -1       287 2.31036E+01
 -1       288 1.52424E+01
 -1       289 1.09358E+01
 -1       290 8.21878E+00
 -1       291 7.55732E+00
 -1       292 5.04763E+00
 -1       293 2.22923E+00
 -1       294 1.05727E+00
 -1       295 1.73176E+00
 -1       296 4.64454E+01
 -1       297 3.60267E+01
 -1       298 3.74346E+01
 -1       299 1.36763E+01
 -1       300 1.18268E+01
 -1       301 1.21885E+01
 -1       302 1.23573E+01
 -1       303 1.25556E+01
 -1       304 1.26748E+01
 -1       305 1.18535E+01
 -1       306 1.58640E+01
 -1       307 3.82149E+01
 -1       308 3.54259E+01
 -1       309 2.36770E+01
 -1       310 2.47103E+01
 -1       311 2.47103E+01
 -1       312 2.62696E+01
 -1       313 4.58339E+01
 -1       314 1.98037E+01
 -1       315 1.08501E+01
 -1       316 1.21660E+01
 -1       317 1.19520E+01
 -1       318 1.18698E+01
 -1       319 1.27149E+01
 -1       320 1.19802E+01
 -1       321 1.06956E+01
 -1       322 1.91078E+01
 -1       323 4.41758E+01
 -1       324 3.85720E+01
 -1       325 4.64454E+01
 -1       326 1.04721E+00
 -1       327 2.48015E+00
 -1       328 7.91672E-01
 -1       329 6.94142E-01
 -1       330 6.31745E-01
 -1       331 5.87515E-01
 -1       332 5.90772E-01
 -1       333 6.34524E-01
 -1       334 7.01326E-01
 -1       335 7.96588E-01
 -1       336 9.32083E-01
 -1       337 1.16046E+00
 -1       338 1.32934E+00
 -1       339 2.20027E+00
 -1       340 1.91365E+00
 -1       341 3.85720E+01
 -1       342 1.72846E+00
 -1       343 1.26654E+00
 -1       344 9.05988E-01
 -1       345 6.54644E-01
 -1       346 5.37593E-01
 -1       347 4.40202E-01
 -1       348 3.54263E-01
 -1       349 2.88413E-01
 -1       350 2.32706E-01
 -1       351 1.84730E-01
 -1       352 1.49213E-01
 -1       353 1.19537E-01
 -1       354 9.46427E-02
 -1       355 7.43372E-02
 -1       356 5.82037E-02
 -1       357 4.57076E-02
 -1       358 3.62594E-02
 -1       359 2.92445E-02
 -1       360 2.64516E-02
 -1       361 2.90412E-02
 -1       362 3.41006E-02
 -1       363 4.47934E-02
 -1       364 6.04964E-02
 -1       365 8.19400E-02
 -1       366 1.15354E-01
 -1       367 1.61834E-01
 -1       368 2.20121E-01
 -1       369 2.90691E-01
 -1       370 3.72461E-01
 -1       371 4.61735E-01
 -1       372 5.50804E-01
 -1       373 6.33710E-01
 -1       374 7.23217E-01
 -1       375 8.27981E-01
 -1       376 8.74884E-01
 -1       377 8.07396E-01
 -1       378 7.75372E-01
 -1       379 7.92757E-01
 -1       380 1.57285E+00
 -1       381 2.61967E+00
 -1       382 3.40698E+00
 -1       383 4.31247E+00
 -1       384 4.34814E+00
 -1       385 3.83479E+00
 -1       386 3.49684E+00
 -1       387 2.31342E+00
 -1       388 1.12999E+00
 -1       389 8.90308E-01
 -1       390 7.02612E-01
 -1       391 5.43569E-01
 -1       392 4.36572E-01
 -1       393 3.69710E-01
 -1       394 3.05513E-01
 -1       395 2.49590E-01
 -1       396 2.03779E-01
 -1       397 1.63554E-01
 -1       398 1.29416E-01
 -1       399 1.01367E-01
 -1       400 7.88176E-02
 -1       401 6.11034E-02
 -1       402 4.77468E-02
 -1       403 3.82756E-02
 -1       404 3.22644E-02
 -1       405 2.93550E-02
 -1       406 3.26560E-02
 -1       407 3.83956E-02
 -1       408 4.61878E-02
 -1       409 6.17152E-02
 -1       410 8.27201E-02
 -1       411 1.09539E-01
 -1       412 1.48577E-01
 -1       413 2.11766E-01
 -1       414 2.93355E-01
 -1       415 3.95661E-01
 -1       416 5.19401E-01
 -1       417 6.61998E-01
 -1       418 8.14962E-01
 -1       419 9.60278E-01
 -1       420 1.09935E+00
 -1       421 1.20280E+00
 -1       422 1.20280E+00
 -1       423 1.17937E+00
 -1       424 1.02956E+00
 -1       425 1.15507E+00
 -1       426 2.26688E+00
 -1       427 3.92661E+00
 -1       428 5.14780E+00
 -1       429 5.44517E+00
 -1       430 5.11464E+00
 -1       431 5.28862E+00
 -1       432 4.87496E+00
 -1       433 2.77559E+00
 -1       434 5.37615E+00
 -1       435 3.77693E+00
 -1       436 2.62503E+00
 -1       437 7.32695E+00
 -1       438 8.47684E+00
 -1       439 1.41000E+01
 -1       440 7.55732E+00
 -1       441 5.51415E+00
 -1       442 3.71558E+00
 -1       443 2.31577E+00
 -1       444 2.11421E+01
 -1       445 3.60267E+01
 -1       446 1.21147E+01
 -1       447 2.11030E+01
 -1       448 1.01513E+01
 -1       449 6.35902E+00
 -1       450 9.18489E-01
 -1       451 1.07965E+01
 -1       452 1.06443E+01
 -1       453 1.08625E+01
 -1       454 9.11530E+00
 -1       455 7.93558E+00
 -1       456 1.33292E+01
 -1       457 2.36034E+01
 -1       458 2.03007E+01
 -1       459 3.08184E+01
 -1       460 3.08184E+01
 -1       461 2.19046E+01
 -1       462 2.62696E+01
 -1       463 1.59579E+01
 -1       464 9.14017E+00
 -1       465 7.60739E+00
 -1       466 1.03038E+01
 -1       467 1.18698E+01
 -1       468 1.13926E+01
 -1       469 1.00146E+01
 -1       470 7.81449E+00
 -1       471 7.38355E+00
 -1       472 1.41000E+01
 -1       473 4.64454E+01
 -1       474 1.89981E+01
 -1       475 7.70640E+00
 -1       476 1.04701E+00
 -1       477 4.86206E-01
 -1       478 5.10947E-01
 -1       479 4.31535E-01
 -1       480 4.57526E-01
 -1       481 4.87183E-01
 -1       482 5.11319E-01
 -1       483 5.11319E-01
 -1       484 6.09745E-01
 -1       485 8.02617E-01
 -1       486 8.92800E+00
 -1       487 4.14255E+00
 -1       488 8.90308E-01
 -1       489 8.73552E-01
 -1       490 7.01699E-01
 -1       491 5.87593E-01
 -1       492 4.75030E-01
 -1       493 3.76139E-01
 -1       494 3.21439E-01
 -1       495 2.71026E-01
 -1       496 2.23257E-01
 -1       497 1.84528E-01
 -1       498 1.50522E-01
 -1       499 1.20874E-01
 -1       500 9.58640E-02
 -1       501 7.72412E-02
 -1       502 6.17285E-02
 -1       503 4.89430E-02
 -1       504 3.85418E-02
 -1       505 3.00669E-02
 -1       506 2.45768E-02
 -1       507 2.25623E-02
 -1       508 2.64499E-02
 -1       509 3.41006E-02
 -1       510 4.88230E-02
 -1       511 7.27254E-02
 -1       512 1.03863E-01
 -1       513 1.43682E-01
 -1       514 1.93446E-01
 -1       515 2.53946E-01
 -1       516 3.25035E-01
 -1       517 4.04959E-01
 -1       518 4.89449E-01
 -1       519 5.72711E-01
 -1       520 6.58738E-01
 -1       521 7.14553E-01
 -1       522 7.68387E-01
 -1       523 8.16878E-01
 -1       524 8.08037E-01
 -1       525 1.09093E+00
 -1       526 1.36819E+00
 -1       527 1.99980E+00
 -1       528 2.74725E+00
 -1       529 3.30134E+00
 -1       530 4.02058E+00
 -1       531 4.44027E+00
 -1       532 2.92495E+00
 -1       533 5.43569E-01
 -1       534 4.36572E-01
 -1       535 3.69710E-01
 -1       536 3.05513E-01
 -1       537 2.49590E-01
 -1       538 2.04577E-01
 -1       539 1.64953E-01
 -1       540 1.31045E-01
 -1       541 1.05961E-01
 -1       542 8.48822E-02
 -1       543 6.74004E-02
 -1       544 5.32582E-02
 -1       545 4.20438E-02
 -1       546 3.32523E-02
 -1       547 2.63168E-02
 -1       548 2.53190E-02
 -1       549 2.61207E-02
 -1       550 3.41173E-02
 -1       551 4.57612E-02
 -1       552 6.63247E-02
 -1       553 9.81043E-02
 -1       554 1.40310E-01
 -1       555 1.95342E-01
 -1       556 2.65627E-01
 -1       557 3.53279E-01
 -1       558 4.59465E-01
 -1       559 5.83354E-01
 -1       560 7.20458E-01
 -1       561 8.60283E-01
 -1       562 9.91276E-01
 -1       563 1.11456E+00
 -1       564 1.20280E+00
 -1       565 1.28475E+00
 -1       566 1.33118E+00
 -1       567 1.61751E+00
 -1       568 2.12162E+00
 -1       569 3.09690E+00
 -1       570 4.32396E+00
 -1       571 6.01501E+00
 -1       572 8.37875E+00
 -1       573 6.49703E+00
 -1       574 4.48337E+00
 -1       575 6.49703E+00
 -1       576 4.91306E+00
 -1       577 5.97167E+00
 -1       578 5.76593E+00
 -1       579 7.02612E-01
 -1       580 6.70865E+00
 -1       581 7.00457E+00
 -1       582 7.80821E+00
 -1       583 4.57364E-01
 -1       584 9.35283E+00
 -1       585 4.31612E+00
 -1       586 1.72946E+01
 -1       587 1.79079E+01
 -1       588 3.08184E+01
 -1       589 2.39338E+01
 -1       590 2.05120E+01
 -1       591 1.22235E+01
 -1       592 9.46331E+00
 -1       593 4.98968E+00
 -1       594 5.70851E+00
 -1       595 7.46651E+00
 -1       596 9.69881E+00
 -1       597 6.70865E+00
 -1       598 5.53293E+00
 -1       599 1.32767E+00
 -1       600 1.11367E+01
 -1       601 9.29918E+00
 -1       602 7.20227E-01
 -1       603 7.04678E+00
 -1       604 1.92699E+01
 -1       605 3.21998E+00
 -1       606 5.70228E+00
 -1       607 3.58481E-01
 -1       608 3.42714E-01
 -1       609 3.62066E-01
 -1       610 3.38248E-01
 -1       611 8.37875E+00
 -1       612 4.07430E-01
 -1       613 5.43655E-01
 -1       614 2.71688E-01
 -1       615 3.96615E-01
 -1       616 3.82817E-01
 -1       617 3.41923E-01
 -1       618 2.92162E-01
 -1       619 2.42327E-01
 -1       620 2.11156E-01
 -1       621 1.78559E-01
 -1       622 1.47506E-01
 -1       623 1.19572E-01
 -1       624 9.61032E-02
 -1       625 7.73452E-02
 -1       626 6.17285E-02
 -1       627 4.89430E-02
 -1       628 3.85418E-02
 -1       629 3.00669E-02
 -1       630 2.34878E-02
 -1       631 1.85004E-02
 -1       632 1.86126E-02
 -1       633 2.40881E-02
 -1       634 3.94025E-02
 -1       635 5.91056E-02
 -1       636 8.44384E-02
 -1       637 1.16716E-01
 -1       638 1.57257E-01
 -1       639 2.07264E-01
 -1       640 2.67636E-01
 -1       641 3.38682E-01
 -1       642 4.21676E-01
 -1       643 5.16040E-01
 -1       644 6.14296E-01
 -1       645 7.04857E-01
 -1       646 8.00508E-01
 -1       647 9.38071E-01
 -1       648 1.11200E+00
 -1       649 1.25974E+00
 -1       650 1.71629E+00
 -1       651 2.33897E+00
 -1       652 2.44979E+00
 -1       653 3.59702E+00
 -1       654 4.03811E+00
 -1       655 4.70361E+00
 -1       656 5.03652E+00
 -1       657 3.26221E-01
 -1       658 3.95074E-01
 -1       659 2.31590E-01
 -1       660 1.94045E-01
 -1       661 1.59924E-01
 -1       662 1.31803E-01
 -1       663 1.06862E-01
 -1       664 8.55244E-02
 -1       665 6.77898E-02
 -1       666 5.38881E-02
 -1       667 4.27901E-02
 -1       668 3.34810E-02
 -1       669 2.63168E-02
 -1       670 2.20405E-02
 -1       671 2.06104E-02
 -1       672 2.56678E-02
 -1       673 3.71089E-02
 -1       674 5.72513E-02
 -1       675 8.37797E-02
 -1       676 1.18457E-01
 -1       677 1.63244E-01
 -1       678 2.20241E-01
 -1       679 2.91564E-01
 -1       680 3.79123E-01
 -1       681 4.84262E-01
 -1       682 6.07208E-01
 -1       683 7.47753E-01
 -1       684 9.07476E-01
 -1       685 1.06555E+00
 -1       686 1.19500E+00
 -1       687 1.40710E+00
 -1       688 1.72871E+00
 -1       689 2.10948E+00
 -1       690 2.69522E+00
 -1       691 3.64100E+00
 -1       692 3.45201E+00
 -1       693 5.37884E+00
 -1       694 3.30003E+00
 -1       695 5.03652E+00
 -1       696 4.62928E-01
 -1       697 7.28241E+00
 -1       698 5.14368E-01
 -1       699 7.14525E+00
 -1       700 7.65759E+00
 -1       701 7.48593E+00
 -1       702 3.62066E-01
 -1       703 3.62005E-01
 -1       704 1.33280E+01
 -1       705 1.61307E+01
 -1       706 1.02166E+01
 -1       707 8.51035E+00
 -1       708 4.36745E+00
 -1       709 2.99743E+00
 -1       710 5.09667E+00
 -1       711 8.94656E+00
 -1       712 1.72653E+01
 -1       713 4.15607E-01
 -1       714 3.42359E-01
 -1       715 3.25408E+00
 -1       716 8.37875E+00
 -1       717 5.07259E+00
 -1       718 4.48195E-01
 -1       719 6.50708E+00
 -1       720 1.26598E+01
 -1       721 3.57727E-01
 -1       722 1.17890E+01
 -1       723 2.40926E-01
 -1       724 2.15808E-01
 -1       725 2.32858E-01
 -1       726 2.54199E-01
 -1       727 2.47462E-01
 -1       728 2.25553E-01
 -1       729 1.97115E-01
 -1       730 1.70588E-01
 -1       731 1.49341E-01
 -1       732 1.27059E-01
 -1       733 1.05667E-01
 -1       734 8.62250E-02
 -1       735 6.92041E-02
 -1       736 5.46804E-02
 -1       737 4.24686E-02
 -1       738 3.22114E-02
 -1       739 2.34342E-02
 -1       740 1.57436E-02
 -1       741 1.07798E-02
 -1       742 1.50279E-02
 -1       743 2.70312E-02
 -1       744 4.31365E-02
 -1       745 6.38449E-02
 -1       746 9.12321E-02
 -1       747 1.26922E-01
 -1       748 1.71493E-01
 -1       749 2.25782E-01
 -1       750 2.89876E-01
 -1       751 3.62504E-01
 -1       752 4.41143E-01
 -1       753 5.49851E-01
 -1       754 6.76686E-01
 -1       755 8.14868E-01
 -1       756 9.87757E-01
 -1       757 1.21005E+00
 -1       758 1.61155E+00
 -1       759 1.96804E+00
 -1       760 2.65448E+00
 -1       761 3.12867E+00
 -1       762 2.88146E+00
 -1       763 4.70361E+00
 -1       764 5.03652E+00
 -1       765 2.52678E-01
 -1       766 2.85357E-01
 -1       767 1.61659E-01
 -1       768 1.35850E-01
 -1       769 1.11792E-01
 -1       770 9.04000E-02
 -1       771 7.20034E-02
 -1       772 5.65544E-02
 -1       773 4.37650E-02
 -1       774 3.34810E-02
 -1       775 2.58749E-02
 -1       776 1.97046E-02
 -1       777 1.39519E-02
 -1       778 1.59709E-02
 -1       779 2.71510E-02
 -1       780 4.30266E-02
 -1       781 6.34171E-02
 -1       782 8.96543E-02
 -1       783 1.23246E-01
 -1       784 1.65887E-01
 -1       785 2.23594E-01
 -1       786 3.00037E-01
 -1       787 3.94415E-01
 -1       788 5.07645E-01
 -1       789 6.38170E-01
 -1       790 7.82990E-01
 -1       791 9.81930E-01
 -1       792 1.21515E+00
 -1       793 1.52164E+00
 -1       794 1.89271E+00
 -1       795 2.42636E+00
 -1       796 3.62144E+00
 -1       797 5.19841E+00
 -1       798 1.96223E-01
 -1       799 3.04817E-01
 -1       800 9.00784E+00
 -1       801 1.87434E-01
 -1       802 1.06107E+01
 -1       803 6.04722E+00
 -1       804 2.88494E-01
 -1       805 2.81782E-01
 -1       806 3.59702E+00
 -1       807 6.61332E+00
 -1       808 4.03811E+00
 -1       809 9.40012E+00
 -1       810 2.05951E-01
 -1       811 2.81408E-01
 -1       812 3.94424E+00
 -1       813 6.93920E+00
 -1       814 5.26467E+00
 -1       815 2.71802E-01
 -1       816 4.31573E+00
 -1       817 2.80139E-01
 -1       818 2.87218E-01
 -1       819 9.69059E+00
 -1       820 2.88494E-01
 -1       821 5.01985E+00
 -1       822 2.38925E-01
 -1       823 1.47665E-01
 -1       824 1.73774E-01
 -1       825 1.81628E-01
 -1       826 1.74341E-01
 -1       827 1.58582E-01
 -1       828 1.38915E-01
 -1       829 1.22407E-01
 -1       830 1.06015E-01
 -1       831 8.94893E-02
 -1       832 7.39408E-02
 -1       833 5.99524E-02
 -1       834 4.77313E-02
 -1       835 3.72247E-02
 -1       836 2.82013E-02
 -1       837 2.03037E-02
 -1       838 1.65512E-02
 -1       839 1.84107E-02
 -1       840 2.62387E-02
 -1       841 4.08517E-02
 -1       842 6.08338E-02
 -1       843 8.68722E-02
 -1       844 1.20154E-01
 -1       845 1.62072E-01
 -1       846 2.13967E-01
 -1       847 2.76980E-01
 -1       848 3.51807E-01
 -1       849 4.38316E-01
 -1       850 5.34870E-01
 -1       851 6.37062E-01
 -1       852 7.87905E-01
 -1       853 9.99498E-01
 -1       854 1.36114E+00
 -1       855 1.80838E+00
 -1       856 3.23132E+00
 -1       857 4.76187E+00
 -1       858 2.08546E-01
 -1       859 9.66139E-02
 -1       860 1.15158E-01
 -1       861 1.33951E-01
 -1       862 7.94239E-02
 -1       863 6.41334E-02
 -1       864 5.08998E-02
 -1       865 3.96173E-02
 -1       866 3.00013E-02
 -1       867 2.16421E-02
 -1       868 1.40358E-02
 -1       869 1.50076E-02
 -1       870 2.18052E-02
 -1       871 3.61527E-02
 -1       872 5.48063E-02
 -1       873 8.01419E-02
 -1       874 1.13907E-01
 -1       875 1.57692E-01
 -1       876 2.13812E-01
 -1       877 2.84861E-01
 -1       878 3.73678E-01
 -1       879 4.83275E-01
 -1       880 6.16657E-01
 -1       881 7.76337E-01
 -1       882 9.63088E-01
 -1       883 1.17313E+00
 -1       884 1.51691E+00
 -1       885 2.06709E+00
 -1       886 3.10409E+00
 -1       887 3.95902E+00
 -1       888 2.07259E-01
 -1       889 2.87218E-01
 -1       890 6.78502E+00
 -1       891 1.74710E-01
 -1       892 1.51100E-01
 -1       893 1.95514E-01
 -1       894 5.28654E+00
 -1       895 1.42262E-01
 -1       896 9.69059E+00
 -1       897 1.80637E-01
 -1       898 1.47665E-01
 -1       899 1.71079E-01
 -1       900 5.99016E+00
 -1       901 7.25360E+00
 -1       902 1.64915E-01
 -1       903 2.16210E-01
 -1       904 2.16210E-01
 -1       905 1.35286E-01
 -1       906 1.22974E-01
 -1       907 1.35458E-01
 -1       908 1.34727E-01
 -1       909 1.25886E-01
 -1       910 1.12632E-01
 -1       911 9.75458E-02
 -1       912 8.50130E-02
 -1       913 7.22137E-02
 -1       914 5.99804E-02
 -1       915 4.88503E-02
 -1       916 3.90469E-02
 -1       917 3.05739E-02
 -1       918 2.32815E-02
 -1       919 2.05472E-02
 -1       920 2.19860E-02
 -1       921 2.55392E-02
 -1       922 3.51727E-02
 -1       923 5.21945E-02
 -1       924 7.43387E-02
 -1       925 1.02884E-01
 -1       926 1.39272E-01
 -1       927 1.85124E-01
 -1       928 2.42261E-01
 -1       929 3.12771E-01
 -1       930 3.99134E-01
 -1       931 5.04430E-01
 -1       932 6.32541E-01
 -1       933 7.87905E-01
 -1       934 9.73623E-01
 -1       935 1.28098E+00
 -1       936 1.89391E+00
 -1       937 2.48316E+00
 -1       938 6.61796E-02
 -1       939 7.98533E-02
 -1       940 1.08335E-01
 -1       941 5.37851E-02
 -1       942 4.28884E-02
 -1       943 3.34688E-02
 -1       944 2.53398E-02
 -1       945 1.87342E-02
 -1       946 1.96403E-02
 -1       947 2.25122E-02
 -1       948 3.22596E-02
 -1       949 4.87853E-02
 -1       950 7.10482E-02
 -1       951 1.00054E-01
 -1       952 1.37516E-01
 -1       953 1.85445E-01
 -1       954 2.46236E-01
 -1       955 3.22824E-01
 -1       956 4.19018E-01
 -1       957 5.40122E-01
 -1       958 6.94119E-01
 -1       959 8.93599E-01
 -1       960 1.15785E+00
 -1       961 1.51691E+00
 -1       962 1.99460E+00
 -1       963 2.95953E+00
 -1       964 5.15817E+00
 -1       965 1.23975E-01
 -1       966 1.12539E-01
 -1       967 1.44294E-01
 -1       968 5.65106E+00
 -1       969 1.39843E-01
 -1       970 9.42476E-02
 -1       971 1.54836E-01
 -1       972 4.46458E+00
 -1       973 1.51464E-01
 -1       974 2.03342E-01
 -1       975 1.03155E-01
 -1       976 2.15596E-01
 -1       977 7.25360E+00
 -1       978 1.71079E-01
 -1       979 3.82960E+00
 -1       980 5.09354E+00
 -1       981 1.06784E-01
 -1       982 1.12369E-01
 -1       983 8.91953E-02
 -1       984 1.01335E-01
 -1       985 1.02770E-01
 -1       986 9.73835E-02
 -1       987 8.80740E-02
 -1       988 7.69201E-02
 -1       989 6.53435E-02
 -1       990 5.45988E-02
 -1       991 4.53652E-02
 -1       992 3.70268E-02
 -1       993 2.97692E-02
 -1       994 2.42552E-02
 -1       995 2.29864E-02
 -1       996 2.37307E-02
 -1       997 2.67150E-02
 -1       998 3.22114E-02
 -1       999 4.20123E-02
 -1      1000 5.72265E-02
 -1      1001 7.93871E-02
 -1      1002 1.08043E-01
 -1      1003 1.44767E-01
 -1      1004 1.91517E-01
 -1      1005 2.50846E-01
 -1      1006 3.26299E-01
 -1      1007 4.23125E-01
 -1      1008 5.49574E-01
 -1      1009 7.19086E-01
 -1      1010 9.53263E-01
 -1      1011 1.28098E+00
 -1      1012 1.74465E+00
 -1      1013 2.25140E+00
 -1      1014 4.22519E-02
 -1      1015 3.38165E-02
 -1      1016 5.18586E-02
 -1      1017 2.65670E-02
 -1      1018 2.22140E-02
 -1      1019 2.22111E-02
 -1      1020 2.42951E-02
 -1      1021 2.87350E-02
 -1      1022 3.92615E-02
 -1      1023 5.66796E-02
 -1      1024 7.93677E-02
 -1      1025 1.08623E-01
 -1      1026 1.45968E-01
 -1      1027 1.93233E-01
 -1      1028 2.52729E-01
 -1      1029 3.27614E-01
 -1      1030 4.22656E-01
 -1      1031 5.45799E-01
 -1      1032 7.11412E-01
 -1      1033 9.47283E-01
 -1      1034 1.30285E+00
 -1      1035 1.84394E+00
 -1      1036 2.54946E+00
 -1      1037 3.74906E+00
 -1      1038 9.88706E-02
 -1      1039 1.06784E-01
 -1      1040 8.60309E-02
 -1      1041 1.09884E-01
 -1      1042 6.24348E-02
 -1      1043 7.35103E-02
 -1      1044 4.84154E+00
 -1      1045 1.03663E-01
 -1      1046 1.37917E-01
 -1      1047 3.72353E+00
 -1      1048 1.16682E-01
 -1      1049 1.16054E-01
 -1      1050 1.40692E-01
 -1      1051 1.71079E-01
 -1      1052 1.10335E-01
 -1      1053 3.28182E-02
 -1      1054 8.29130E-02
 -1      1055 8.65454E-02
 -1      1056 8.35254E-02
 -1      1057 7.67213E-02
 -1      1058 6.78193E-02
 -1      1059 5.82035E-02
 -1      1060 4.88162E-02
 -1      1061 4.02443E-02
 -1      1062 3.28182E-02
 -1      1063 2.73366E-02
 -1      1064 2.42552E-02
 -1      1065 2.37307E-02
 -1      1066 2.67150E-02
 -1      1067 3.22114E-02
 -1      1068 4.20123E-02
 -1      1069 5.56735E-02
 -1      1070 7.38479E-02
 -1      1071 9.86692E-02
 -1      1072 1.31401E-01
 -1      1073 1.73630E-01
 -1      1074 2.28187E-01
 -1      1075 2.99299E-01
 -1      1076 3.93650E-01
 -1      1077 5.22328E-01
 -1      1078 7.04319E-01
 -1      1079 9.72110E-01
 -1      1080 1.37554E+00
 -1      1081 1.95714E+00
 -1      1082 2.11216E+00
 -1      1083 4.02443E-02
 -1      1084 4.88162E-02
 -1      1085 2.22967E-02
 -1      1086 2.42951E-02
 -1      1087 2.87350E-02
 -1      1088 3.68763E-02
 -1      1089 4.90008E-02
 -1      1090 6.54718E-02
 -1      1091 8.71437E-02
 -1      1092 1.15026E-01
 -1      1093 1.50371E-01
 -1      1094 1.95274E-01
 -1      1095 2.51428E-01
 -1      1096 3.21806E-01
 -1      1097 4.11127E-01
 -1      1098 5.27623E-01
 -1      1099 7.04319E-01
 -1      1100 9.72110E-01
 -1      1101 1.37554E+00
 -1      1102 2.11216E+00
 -1      1103 2.41482E+00
 -1      1104 6.70268E-02
 -1      1105 6.55154E-02
 -1      1106 8.35254E-02
 -1      1107 8.65454E-02
 -1      1108 2.66960E-02
 -1      1109 5.82035E-02
 -1      1110 6.78193E-02
 -1      1111 7.07848E-02
 -1      1112 1.40692E-01
 -1      1113 7.67213E-02
 -1      1114 8.82061E-02
 -1      1115 1.40692E-01
 -1      1116 8.27901E-02
 -1      1117 3.43158E+00
 -1      1118 8.29130E-02
 -1      1119 8.27901E-02
 -1      1120 1.31426E+01
 -1      1121 8.40312E+00
 -1      1122 2.74386E+00
 -1      1123 1.55794E+00
 -1      1124 1.16892E+00
 -1      1125 9.72719E-01
 -1      1126 8.54093E-01
 -1      1127 7.81247E-01
 -1      1128 7.54641E-01
 -1      1129 7.84357E-01
 -1      1130 8.56984E-01
 -1      1131 9.76808E-01
 -1      1132 1.18036E+00
 -1      1133 1.57198E+00
 -1      1134 2.67068E+00
 -1      1135 6.07302E+00
 -1      1136 1.13396E+01
 -1      1137 1.31426E+01
 -1      1138 8.72998E+00
 -1      1139 3.82876E+00
 -1      1140 2.72540E+00
 -1      1141 1.73610E+00
 -1      1142 1.18763E+00
 -1      1143 8.94104E-01
 -1      1144 6.84569E-01
 -1      1145 5.24323E-01
 -1      1146 4.00078E-01
 -1      1147 3.06414E-01
 -1      1148 2.34723E-01
 -1      1149 1.77324E-01
 -1      1150 1.32165E-01
 -1      1151 9.73263E-02
 -1      1152 7.27297E-02
 -1      1153 5.60007E-02
 -1      1154 4.29246E-02
 -1      1155 3.29458E-02
 -1      1156 2.73500E-02
 -1      1157 2.81779E-02
 -1      1158 3.47768E-02
 -1      1159 4.44777E-02
 -1      1160 5.62802E-02
 -1      1161 6.97087E-02
 -1      1162 8.90188E-02
 -1      1163 1.19372E-01
 -1      1164 1.59815E-01
 -1      1165 2.08758E-01
 -1      1166 2.65557E-01
 -1      1167 3.27965E-01
 -1      1168 3.91240E-01
 -1      1169 4.88839E-01
 -1      1170 6.27694E-01
 -1      1171 7.96293E-01
 -1      1172 9.84949E-01
 -1      1173 1.14093E+00
 -1      1174 1.24560E+00
 -1      1175 1.39673E+00
 -1      1176 1.52692E+00
 -1      1177 1.94241E+00
 -1      1178 2.81279E+00
 -1      1179 4.43789E+00
 -1      1180 6.39172E+00
 -1      1181 7.19551E+00
 -1      1182 7.08765E+00
 -1      1183 6.91071E+00
 -1      1184 5.75970E+00
 -1      1185 3.86027E+00
 -1      1186 1.82930E+00
 -1      1187 1.40385E+01
 -1      1188 8.71649E+00
 -1      1189 2.90360E+00
 -1      1190 2.03906E+00
 -1      1191 1.40481E+00
 -1      1192 1.02514E+00
 -1      1193 8.18708E-01
 -1      1194 6.59548E-01
 -1      1195 5.27852E-01
 -1      1196 4.18012E-01
 -1      1197 3.30709E-01
 -1      1198 2.62130E-01
 -1      1199 2.04977E-01
 -1      1200 1.57953E-01
 -1      1201 1.20106E-01
 -1      1202 9.03662E-02
 -1      1203 6.76762E-02
 -1      1204 5.10730E-02
 -1      1205 3.97327E-02
 -1      1206 3.30771E-02
 -1      1207 3.33461E-02
 -1      1208 4.08650E-02
 -1      1209 5.30296E-02
 -1      1210 6.94641E-02
 -1      1211 9.03771E-02
 -1      1212 1.15900E-01
 -1      1213 1.45931E-01
 -1      1214 1.79910E-01
 -1      1215 2.25294E-01
 -1      1216 2.89664E-01
 -1      1217 3.69109E-01
 -1      1218 4.58253E-01
 -1      1219 5.51373E-01
 -1      1220 6.37189E-01
 -1      1221 6.96187E-01
 -1      1222 8.17880E-01
 -1      1223 1.07249E+00
 -1      1224 1.36828E+00
 -1      1225 1.68897E+00
 -1      1226 2.17790E+00
 -1      1227 2.61830E+00
 -1      1228 3.34073E+00
 -1      1229 4.60121E+00
 -1      1230 7.05578E+00
 -1      1231 9.58229E+00
 -1      1232 1.06213E+01
 -1      1233 1.09213E+01
 -1      1234 9.69834E+00
 -1      1235 6.32209E+00
 -1      1236 2.60165E+00
 -1      1237 1.62033E+00
 -1      1238 1.60003E+00
 -1      1239 1.82712E+00
 -1      1240 3.78157E+00
 -1      1241 6.10043E+00
 -1      1242 7.97618E+00
 -1      1243 8.65429E+00
 -1      1244 1.28039E+01
 -1      1245 1.85187E+01
 -1      1246 2.00838E+01
 -1      1247 1.44098E+01
 -1      1248 8.73581E+00
 -1      1249 8.42080E+00
 -1      1250 6.43698E+00
 -1      1251 3.50906E+00
 -1      1252 1.53363E+00
 -1      1253 9.02790E-01
 -1      1254 1.43070E+00
 -1      1255 1.24449E+00
 -1      1256 2.91019E+01
 -1      1257 3.32682E+01
 -1      1258 3.74346E+01
 -1      1259 2.55554E+01
 -1      1260 1.29324E+01
 -1      1261 1.22729E+01
 -1      1262 1.24565E+01
 -1      1263 1.26152E+01
 -1      1264 1.26748E+01
 -1      1265 1.40933E+01
 -1      1266 2.68634E+01
 -1      1267 3.82149E+01
 -1      1268 3.16383E+01
 -1      1269 2.43693E+01
 -1      1270 2.33341E+01
 -1      1271 2.29104E+01
 -1      1272 3.43317E+01
 -1      1273 4.58339E+01
 -1      1274 3.21405E+01
 -1      1275 1.53066E+01
 -1      1276 1.21660E+01
 -1      1277 1.20590E+01
 -1      1278 1.23335E+01
 -1      1279 1.27149E+01
 -1      1280 1.23476E+01
 -1      1281 1.50061E+01
 -1      1282 3.11039E+01
 -1      1283 4.41758E+01
 -1      1284 3.62614E+01
 -1      1285 2.87245E+01
 -1      1286 1.31426E+01
 -1      1287 4.87061E+00
 -1      1288 9.61013E+00
 -1      1289 2.06122E+00
 -1      1290 2.98095E+00
 -1      1291 4.18796E+00
 -1      1292 1.40015E+00
 -1      1293 1.66634E+00
 -1      1294 1.90343E+00
 -1      1295 1.10186E+00
 -1      1296 1.22469E+00
 -1      1297 1.33309E+00
 -1      1298 9.36325E-01
 -1      1299 1.00969E+00
 -1      1300 1.06546E+00
 -1      1301 8.36473E-01
 -1      1302 8.81734E-01
 -1      1303 9.18705E-01
 -1      1304 7.74802E-01
 -1      1305 8.02387E-01
 -1      1306 8.30028E-01
 -1      1307 7.55620E-01
 -1      1308 7.54641E-01
 -1      1309 7.75780E-01
 -1      1310 8.06210E-01
 -1      1311 7.77472E-01
 -1      1312 7.77472E-01
 -1      1313 8.84035E-01
 -1      1314 8.40146E-01
 -1      1315 8.33261E-01
 -1      1316 1.01692E+00
 -1      1317 9.40981E-01
 -1      1318 9.24143E-01
 -1      1319 1.24033E+00
 -1      1320 1.11271E+00
 -1      1321 1.07689E+00
 -1      1322 1.68190E+00
 -1      1323 1.41790E+00
 -1      1324 1.35025E+00
 -1      1325 2.88321E+00
 -1      1326 2.04850E+00
 -1      1327 1.89443E+00
 -1      1328 6.28582E+00
 -1      1329 3.71819E+00
 -1      1330 3.09601E+00
 -1      1331 1.40385E+01
 -1      1332 1.13396E+01
 -1      1333 8.98473E+00
 -1      1334 1.40385E+01
 -1      1335 8.72998E+00
 -1      1336 4.31732E+00
 -1      1337 3.82876E+00
 -1      1338 3.34020E+00
 -1      1339 3.82876E+00
 -1      1340 2.72540E+00
 -1      1341 2.11060E+00
 -1      1342 2.72540E+00
 -1      1343 1.77840E+00
 -1      1344 1.40390E+00
 -1      1345 1.77840E+00
 -1      1346 1.19309E+00
 -1      1347 1.01912E+00
 -1      1348 1.23539E+00
 -1      1349 8.94104E-01
 -1      1350 7.74553E-01
 -1      1351 8.99569E-01
 -1      1352 6.84569E-01
 -1      1353 5.94584E-01
 -1      1354 6.84569E-01
 -1      1355 5.30675E-01
 -1      1356 4.60415E-01
 -1      1357 5.30675E-01
 -1      1358 4.10200E-01
 -1      1359 3.56216E-01
 -1      1360 4.16553E-01
 -1      1361 3.17021E-01
 -1      1362 2.77342E-01
 -1      1363 3.27143E-01
 -1      1364 2.48740E-01
 -1      1365 2.16729E-01
 -1      1366 2.59347E-01
 -1      1367 1.92386E-01
 -1      1368 1.66998E-01
 -1      1369 2.06403E-01
 -1      1370 1.46826E-01
 -1      1371 1.27056E-01
 -1      1372 1.61889E-01
 -1      1373 1.10739E-01
 -1      1374 9.56709E-02
 -1      1375 1.25401E-01
 -1      1376 8.27896E-02
 -1      1377 7.32614E-02
 -1      1378 9.62026E-02
 -1      1379 6.33629E-02
 -1      1380 5.61622E-02
 -1      1381 7.34228E-02
 -1      1382 4.88027E-02
 -1      1383 4.29273E-02
 -1      1384 5.61649E-02
 -1      1385 3.76930E-02
 -1      1386 3.35896E-02
 -1      1387 4.35711E-02
 -1      1388 3.01042E-02
 -1      1389 2.86118E-02
 -1      1390 3.48514E-02
 -1      1391 2.65343E-02
 -1      1392 2.88546E-02
 -1      1393 2.92885E-02
 -1      1394 3.06959E-02
 -1      1395 3.49745E-02
 -1      1396 2.90523E-02
 -1      1397 3.90555E-02
 -1      1398 4.44777E-02
 -1      1399 3.49745E-02
 -1      1400 4.98999E-02
 -1      1401 5.62802E-02
 -1      1402 4.44777E-02
 -1      1403 6.26606E-02
 -1      1404 6.97087E-02
 -1      1405 5.62802E-02
 -1      1406 7.93484E-02
 -1      1407 9.16104E-02
 -1      1408 7.23003E-02
 -1      1409 1.05285E-01
 -1      1410 1.23376E-01
 -1      1411 9.56142E-02
 -1      1412 1.40212E-01
 -1      1413 1.62563E-01
 -1      1414 1.26124E-01
 -1      1415 1.82534E-01
 -1      1416 2.09126E-01
 -1      1417 1.62931E-01
 -1      1418 2.35351E-01
 -1      1419 2.65557E-01
 -1      1420 2.09126E-01
 -1      1421 3.05142E-01
 -1      1422 3.37344E-01
 -1      1423 2.74936E-01
 -1      1424 3.85217E-01
 -1      1425 4.16291E-01
 -1      1426 3.62395E-01
 -1      1427 4.68888E-01
 -1      1428 5.35414E-01
 -1      1429 4.62865E-01
 -1      1430 5.87842E-01
 -1      1431 6.60170E-01
 -1      1432 5.67890E-01
 -1      1433 7.17421E-01
 -1      1434 8.13693E-01
 -1      1435 6.77569E-01
 -1      1436 8.92564E-01
 -1      1437 9.84949E-01
 -1      1438 8.13693E-01
 -1      1439 1.07733E+00
 -1      1440 1.14093E+00
 -1      1441 9.84949E-01
 -1      1442 1.20452E+00
 -1      1443 1.24560E+00
 -1      1444 1.14093E+00
 -1      1445 1.28669E+00
 -1      1446 1.39673E+00
 -1      1447 1.24560E+00
 -1      1448 1.50676E+00
 -1      1449 1.52692E+00
 -1      1450 1.39673E+00
 -1      1451 1.54707E+00
 -1      1452 1.94241E+00
 -1      1453 1.52692E+00
 -1      1454 2.33775E+00
 -1      1455 2.81279E+00
 -1      1456 1.94241E+00
 -1      1457 3.49269E+00
 -1      1458 4.64274E+00
 -1      1459 3.01765E+00
 -1      1460 5.58794E+00
 -1      1461 6.39172E+00
 -1      1462 4.64274E+00
 -1      1463 7.19551E+00
 -1      1464 7.19551E+00
 -1      1465 6.39172E+00
 -1      1466 7.08765E+00
 -1      1467 6.97980E+00
 -1      1468 7.08765E+00
 -1      1469 6.91071E+00
 -1      1470 6.84162E+00
 -1      1471 6.91071E+00
 -1      1472 5.75970E+00
 -1      1473 4.67778E+00
 -1      1474 5.75970E+00
 -1      1475 3.86027E+00
 -1      1476 3.04275E+00
 -1      1477 3.86027E+00
 -1      1478 2.45793E+00
 -1      1479 2.45793E+00
 -1      1480 3.39449E+00
 -1      1481 8.71649E+00
 -1      1482 8.71649E+00
 -1      1483 2.41271E+00
 -1      1484 2.90360E+00
 -1      1485 2.90360E+00
 -1      1486 1.66541E+00
 -1      1487 2.03906E+00
 -1      1488 2.03906E+00
 -1      1489 1.14421E+00
 -1      1490 1.40481E+00
 -1      1491 1.40481E+00
 -1      1492 9.06072E-01
 -1      1493 1.02514E+00
 -1      1494 1.02514E+00
 -1      1495 7.31344E-01
 -1      1496 8.18708E-01
 -1      1497 8.18708E-01
 -1      1498 5.87752E-01
 -1      1499 6.59548E-01
 -1      1500 6.59548E-01
 -1      1501 4.67952E-01
 -1      1502 5.27852E-01
 -1      1503 5.27852E-01
 -1      1504 3.68073E-01
 -1      1505 4.18012E-01
 -1      1506 4.18012E-01
 -1      1507 2.93345E-01
 -1      1508 3.30709E-01
 -1      1509 3.30709E-01
 -1      1510 2.30915E-01
 -1      1511 2.62130E-01
 -1      1512 2.62130E-01
 -1      1513 1.80477E-01
 -1      1514 2.06415E-01
 -1      1515 2.06415E-01
 -1      1516 1.39368E-01
 -1      1517 1.60454E-01
 -1      1518 1.61892E-01
 -1      1519 1.06325E-01
 -1      1520 1.23085E-01
 -1      1521 1.25586E-01
 -1      1522 8.04470E-02
 -1      1523 9.34264E-02
 -1      1524 9.64055E-02
 -1      1525 6.08333E-02
 -1      1526 7.05438E-02
 -1      1527 7.36040E-02
 -1      1528 4.66572E-02
 -1      1529 5.35498E-02
 -1      1530 5.64174E-02
 -1      1531 3.72093E-02
 -1      1532 4.16570E-02
 -1      1533 4.41338E-02
 -1      1534 3.20004E-02
 -1      1535 3.42083E-02
 -1      1536 3.61326E-02
 -1      1537 3.52373E-02
 -1      1538 3.27603E-02
 -1      1539 3.38916E-02
 -1      1540 4.38757E-02
 -1      1541 3.88338E-02
 -1      1542 3.82480E-02
 -1      1543 5.62754E-02
 -1      1544 4.91527E-02
 -1      1545 4.71215E-02
 -1      1546 7.25310E-02
 -1      1547 6.32192E-02
 -1      1548 5.93423E-02
 -1      1549 9.27004E-02
 -1      1550 8.10992E-02
 -1      1551 7.48543E-02
 -1      1552 1.16686E-01
 -1      1553 1.02765E-01
 -1      1554 9.34872E-02
 -1      1555 1.46256E-01
 -1      1556 1.30146E-01
 -1      1557 1.17011E-01
 -1      1558 1.85232E-01
 -1      1559 1.67362E-01
 -1      1560 1.51577E-01
 -1      1561 2.38492E-01
 -1      1562 2.10978E-01
 -1      1563 1.98430E-01
 -1      1564 3.05735E-01
 -1      1565 2.68880E-01
 -1      1566 2.54563E-01
 -1      1567 3.82698E-01
 -1      1568 3.40108E-01
 -1      1569 3.19324E-01
 -1      1570 4.66592E-01
 -1      1571 4.20038E-01
 -1      1572 3.91037E-01
 -1      1573 5.51373E-01
 -1      1574 5.04807E-01
 -1      1575 4.66592E-01
 -1      1576 6.37189E-01
 -1      1577 5.97940E-01
 -1      1578 5.51373E-01
 -1      1579 6.96187E-01
 -1      1580 6.76438E-01
 -1      1581 6.37189E-01
 -1      1582 8.71726E-01
 -1      1583 7.69782E-01
 -1      1584 7.50033E-01
 -1      1585 1.12891E+00
 -1      1586 9.76240E-01
 -1      1587 9.28142E-01
 -1      1588 1.36828E+00
 -1      1589 1.22516E+00
 -1      1590 1.12891E+00
 -1      1591 1.68897E+00
 -1      1592 1.51139E+00
 -1      1593 1.36828E+00
 -1      1594 2.17790E+00
 -1      1595 1.86656E+00
 -1      1596 1.68897E+00
 -1      1597 2.61830E+00
 -1      1598 2.48925E+00
 -1      1599 2.17790E+00
 -1      1600 3.34073E+00
 -1      1601 2.74735E+00
 -1      1602 2.61830E+00
 -1      1603 4.60121E+00
 -1      1604 3.93411E+00
 -1      1605 3.34073E+00
 -1      1606 7.44209E+00
 -1      1607 5.65463E+00
 -1      1608 4.98752E+00
 -1      1609 9.58229E+00
 -1      1610 8.84325E+00
 -1      1611 7.44209E+00
 -1      1612 1.06213E+01
 -1      1613 1.03213E+01
 -1      1614 9.58229E+00
 -1      1615 1.09213E+01
 -1      1616 1.09213E+01
 -1      1617 1.06213E+01
 -1      1618 8.47537E+00
 -1      1619 9.69834E+00
 -1      1620 9.69834E+00
 -1      1621 4.18267E+00
 -1      1622 6.33595E+00
 -1      1623 6.33595E+00
 -1      1624 3.18749E+00
 -1      1625 1.25122E+00
 -1      1626 1.85736E+00
 -1      1627 2.65671E+00
 -1      1628 1.82349E+00
 -1      1629 2.08082E+00
 -1      1630 5.13947E+00
 -1      1631 4.01825E+00
 -1      1632 4.01462E+00
 -1      1633 7.31251E+00
 -1      1634 6.11487E+00
 -1      1635 6.35155E+00
 -1      1636 8.47011E+00
 -1      1637 7.79201E+00
 -1      1638 7.80644E+00
 -1      1639 8.65429E+00
 -1      1640 8.65429E+00
 -1      1641 8.47011E+00
 -1      1642 1.54523E+01
 -1      1643 1.13027E+01
 -1      1644 1.13027E+01
 -1      1645 2.21220E+01
 -1      1646 2.05569E+01
 -1      1647 1.90557E+01
 -1      1648 2.15937E+01
 -1      1649 2.15937E+01
 -1      1650 2.36319E+01
 -1      1651 1.19891E+01
 -1      1652 1.76631E+01
 -1      1653 1.91730E+01
 -1      1654 9.83581E+00
 -1      1655 9.83581E+00
 -1      1656 1.30891E+01
 -1      1657 8.16229E+00
 -1      1658 8.47730E+00
 -1      1659 9.57730E+00
 -1      1660 6.16274E+00
 -1      1661 7.83156E+00
 -1      1662 7.88805E+00
 -1      1663 3.64880E+00
 -1      1664 4.90789E+00
 -1      1665 6.30248E+00
 -1      1666 1.52326E+00
 -1      1667 2.23959E+00
 -1      1668 3.63843E+00
 -1      1669 1.02278E+00
 -1      1670 9.37288E-01
 -1      1671 1.64325E+00
 -1      1672 1.80244E+00
 -1      1673 1.36002E+00
 -1      1674 1.39452E+00
 -1      1675 2.38726E+00
 -1      1676 3.77736E+01
 -1      1677 3.77736E+01
 -1      1678 3.67306E+01
 -1      1679 3.25643E+01
 -1      1680 3.74346E+01
 -1      1681 3.74346E+01
 -1      1682 1.36763E+01
 -1      1683 2.55554E+01
 -1      1684 1.20077E+01
 -1      1685 1.27515E+01
 -1      1686 1.22729E+01
 -1      1687 1.21885E+01
 -1      1688 1.24565E+01
 -1      1689 1.23573E+01
 -1      1690 1.26152E+01
 -1      1691 1.25556E+01
 -1      1692 1.26748E+01
 -1      1693 1.26748E+01
 -1      1694 1.36827E+01
 -1      1695 1.22642E+01
 -1      1696 2.70395E+01
 -1      1697 1.56879E+01
 -1      1698 3.82149E+01
 -1      1699 3.82149E+01
 -1      1700 3.02438E+01
 -1      1701 3.68204E+01
 -1      1702 2.36770E+01
 -1      1703 2.43693E+01
 -1      1704 2.38508E+01
 -1      1705 2.41937E+01
 -1      1706 2.37700E+01
 -1      1707 2.38508E+01
 -1      1708 3.60517E+01
 -1      1709 2.45496E+01
 -1      1710 4.58339E+01
 -1      1711 4.58339E+01
 -1      1712 1.91254E+01
 -1      1713 3.28188E+01
 -1      1714 1.15080E+01
 -1      1715 1.46486E+01
 -1      1716 1.21660E+01
 -1      1717 1.21660E+01
 -1      1718 1.19520E+01
 -1      1719 1.20590E+01
 -1      1720 1.22924E+01
 -1      1721 1.19109E+01
 -1      1722 1.27149E+01
 -1      1723 1.27149E+01
 -1      1724 1.19802E+01
 -1      1725 1.23476E+01
 -1      1726 1.43638E+01
 -1      1727 1.13379E+01
 -1      1728 3.16418E+01
 -1      1729 1.85699E+01
 -1      1730 4.41758E+01
 -1      1731 4.41758E+01
 -1      1732 3.34595E+01
 -1      1733 4.13739E+01
 -1      1734 4.13739E+01
 -1      1735 3.77736E+01
 -1      1736 3.73962E+01
 -1      1737 1.27515E+01
 -1      1738 2.55554E+01
 -1      1739 3.20135E+00
 -1      1740 2.85255E+00
 -1      1741 4.12360E+01
 -1      1742 3.67306E+01
 -1      1743 4.64454E+01
 -1      1744 1.20077E+01
 -1      1745 1.22729E+01
 -1      1746 1.24565E+01
 -1      1747 1.26152E+01
 -1      1748 1.22642E+01
 -1      1749 1.38587E+01
 -1      1750 2.70395E+01
 -1      1751 3.68204E+01
 -1      1752 2.95515E+01
 -1      1753 2.41937E+01
 -1      1754 2.47103E+01
 -1      1755 2.54900E+01
 -1      1756 3.60517E+01
 -1      1757 3.28188E+01
 -1      1758 1.53269E+01
 -1      1759 1.15080E+01
 -1      1760 1.20590E+01
 -1      1761 1.19109E+01
 -1      1762 1.22924E+01
 -1      1763 1.23476E+01
 -1      1764 1.13379E+01
 -1      1765 1.49017E+01
 -1      1766 3.16418E+01
 -1      1767 9.61013E+00
 -1      1768 4.25087E+01
 -1      1769 1.27788E+00
 -1      1770 1.67275E+00
 -1      1771 2.38923E+00
 -1      1772 4.27889E+00
 -1      1773 1.76368E+00
 -1      1774 8.82484E-01
 -1      1775 9.74653E-01
 -1      1776 7.79128E-01
 -1      1777 8.33719E-01
 -1      1778 7.42907E-01
 -1      1779 7.13843E-01
 -1      1780 7.47930E-01
 -1      1781 6.62943E-01
 -1      1782 6.71567E-01
 -1      1783 6.91728E-01
 -1      1784 6.09630E-01
 -1      1785 6.95048E-01
 -1      1786 6.73196E-01
 -1      1787 5.89144E-01
 -1      1788 7.50861E-01
 -1      1789 7.16924E-01
 -1      1790 6.12648E-01
 -1      1791 8.41208E-01
 -1      1792 7.84262E-01
 -1      1793 6.67925E-01
 -1      1794 9.84636E-01
 -1      1795 8.88838E-01
 -1      1796 7.48957E-01
 -1      1797 1.22995E+00
 -1      1798 1.05238E+00
 -1      1799 8.64336E-01
 -1      1800 1.71074E+00
 -1      1801 1.34414E+00
 -1      1802 1.04627E+00
 -1      1803 2.63016E+00
 -1      1804 1.79518E+00
 -1      1805 1.24490E+00
 -1      1806 8.11938E+00
 -1      1807 3.06563E+00
 -1      1808 1.76480E+00
 -1      1809 2.79738E+00
 -1      1810 5.19747E+00
 -1      1811 2.16318E+00
 -1      1812 2.65407E+00
 -1      1813 2.05696E+00
 -1      1814 4.25087E+01
 -1      1815 3.85720E+01
 -1      1816 3.39874E+00
 -1      1817 2.53433E+00
 -1      1818 1.91953E+00
 -1      1819 1.68857E+00
 -1      1820 1.35637E+00
 -1      1821 1.49750E+00
 -1      1822 1.17610E+00
 -1      1823 9.65286E-01
 -1      1824 1.08626E+00
 -1      1825 8.39614E-01
 -1      1826 7.14599E-01
 -1      1827 7.80316E-01
 -1      1828 6.56073E-01
 -1      1829 5.66089E-01
 -1      1830 5.96119E-01
 -1      1831 5.17393E-01
 -1      1832 4.53484E-01
 -1      1833 4.88898E-01
 -1      1834 4.10515E-01
 -1      1835 3.60301E-01
 -1      1836 3.97233E-01
 -1      1837 3.27376E-01
 -1      1838 2.88181E-01
 -1      1839 3.21338E-01
 -1      1840 2.60327E-01
 -1      1841 2.31726E-01
 -1      1842 2.60560E-01
 -1      1843 2.07738E-01
 -1      1844 1.83396E-01
 -1      1845 2.08718E-01
 -1      1846 1.65637E-01
 -1      1847 1.45465E-01
 -1      1848 1.66971E-01
 -1      1849 1.30627E-01
 -1      1850 1.14311E-01
 -1      1851 1.34375E-01
 -1      1852 1.01863E-01
 -1      1853 8.89820E-02
 -1      1854 1.07090E-01
 -1      1855 7.88293E-02
 -1      1856 6.89308E-02
 -1      1857 8.44900E-02
 -1      1858 6.08640E-02
 -1      1859 5.35046E-02
 -1      1860 6.62704E-02
 -1      1861 4.72565E-02
 -1      1862 4.20222E-02
 -1      1863 5.19556E-02
 -1      1864 3.72981E-02
 -1      1865 3.38126E-02
 -1      1866 4.09835E-02
 -1      1867 3.03052E-02
 -1      1868 2.82277E-02
 -1      1869 3.27519E-02
 -1      1870 2.68313E-02
 -1      1871 2.86726E-02
 -1      1872 2.78480E-02
 -1      1873 2.99674E-02
 -1      1874 3.40483E-02
 -1      1875 2.77464E-02
 -1      1876 3.65780E-02
 -1      1877 4.20002E-02
 -1      1878 3.15709E-02
 -1      1879 4.73466E-02
 -1      1880 5.37270E-02
 -1      1881 3.94470E-02
 -1      1882 6.15785E-02
 -1      1883 7.12182E-02
 -1      1884 5.26449E-02
 -1      1885 8.19400E-02
 -1      1886 9.56142E-02
 -1      1887 7.12182E-02
 -1      1888 1.12321E-01
 -1      1889 1.29157E-01
 -1      1890 9.86472E-02
 -1      1891 1.52397E-01
 -1      1892 1.72368E-01
 -1      1893 1.38594E-01
 -1      1894 2.01511E-01
 -1      1895 2.27736E-01
 -1      1896 1.90977E-01
 -1      1897 2.63021E-01
 -1      1898 3.02606E-01
 -1      1899 2.55406E-01
 -1      1900 3.43491E-01
 -1      1901 3.91365E-01
 -1      1902 3.31576E-01
 -1      1903 4.36002E-01
 -1      1904 4.88599E-01
 -1      1905 4.17098E-01
 -1      1906 5.33133E-01
 -1      1907 5.85561E-01
 -1      1908 5.06269E-01
 -1      1909 6.27014E-01
 -1      1910 6.84265E-01
 -1      1911 5.92257E-01
 -1      1912 7.29019E-01
 -1      1913 8.07891E-01
 -1      1914 6.78464E-01
 -1      1915 8.60272E-01
 -1      1916 9.52657E-01
 -1      1917 7.75599E-01
 -1      1918 9.76109E-01
 -1      1919 1.03970E+00
 -1      1920 8.51433E-01
 -1      1921 1.00596E+00
 -1      1922 1.04704E+00
 -1      1923 8.41140E-01
 -1      1924 1.03103E+00
 -1      1925 1.14107E+00
 -1      1926 7.91384E-01
 -1      1927 1.14976E+00
 -1      1928 1.16992E+00
 -1      1929 7.84065E-01
 -1      1930 1.55996E+00
 -1      1931 1.95530E+00
 -1      1932 1.18280E+00
 -1      1933 2.47871E+00
 -1      1934 3.15861E+00
 -1      1935 2.09626E+00
 -1      1936 3.55226E+00
 -1      1937 4.49746E+00
 -1      1938 3.01333E+00
 -1      1939 4.95020E+00
 -1      1940 5.75399E+00
 -1      1941 3.85973E+00
 -1      1942 5.77182E+00
 -1      1943 5.66397E+00
 -1      1944 4.33031E+00
 -1      1945 5.40730E+00
 -1      1946 5.33821E+00
 -1      1947 4.09147E+00
 -1      1948 5.16923E+00
 -1      1949 4.08731E+00
 -1      1950 3.66582E+00
 -1      1951 3.49560E+00
 -1      1952 2.67808E+00
 -1      1953 2.02259E+00
 -1      1954 2.90513E+00
 -1      1955 1.39770E+00
 -1      1956 1.77135E+00
 -1      1957 1.52182E+00
 -1      1958 1.01726E+00
 -1      1959 1.27786E+00
 -1      1960 1.01015E+00
 -1      1961 8.04342E-01
 -1      1962 9.23411E-01
 -1      1963 7.96460E-01
 -1      1964 6.37456E-01
 -1      1965 7.24820E-01
 -1      1966 6.23091E-01
 -1      1967 5.12162E-01
 -1      1968 5.83958E-01
 -1      1969 4.90070E-01
 -1      1970 4.18831E-01
 -1      1971 4.78731E-01
 -1      1972 4.03141E-01
 -1      1973 3.36793E-01
 -1      1974 3.86732E-01
 -1      1975 3.37611E-01
 -1      1976 2.71468E-01
 -1      1977 3.08832E-01
 -1      1978 2.77552E-01
 -1      1979 2.17347E-01
 -1      1980 2.48562E-01
 -1      1981 2.26685E-01
 -1      1982 1.72735E-01
 -1      1983 1.97235E-01
 -1      1984 1.83667E-01
 -1      1985 1.35642E-01
 -1      1986 1.55666E-01
 -1      1987 1.46485E-01
 -1      1988 1.05335E-01
 -1      1989 1.21618E-01
 -1      1990 1.15391E-01
 -1      1991 8.11623E-02
 -1      1992 9.40607E-02
 -1      1993 9.00922E-02
 -1      1994 6.24021E-02
 -1      1995 7.23053E-02
 -1      1996 6.99605E-02
 -1      1997 4.84404E-02
 -1      1998 5.57238E-02
 -1      1999 5.44251E-02
 -1      2000 3.87046E-02
 -1      2001 4.37048E-02
 -1      2002 4.30112E-02
 -1      2003 3.26981E-02
 -1      2004 3.56990E-02
 -1      2005 3.52700E-02
 -1      2006 3.20033E-02
 -1      2007 3.12434E-02
 -1      2008 3.08097E-02
 -1      2009 3.72503E-02
 -1      2010 3.36537E-02
 -1      2011 3.10055E-02
 -1      2012 4.53971E-02
 -1      2013 4.01201E-02
 -1      2014 3.55258E-02
 -1      2015 5.62370E-02
 -1      2016 4.92932E-02
 -1      2017 4.22917E-02
 -1      2018 7.25688E-02
 -1      2019 6.40007E-02
 -1      2020 5.39515E-02
 -1      2021 9.31361E-02
 -1      2022 8.30713E-02
 -1      2023 7.22177E-02
 -1      2024 1.20005E-01
 -1      2025 1.06546E-01
 -1      2026 9.61298E-02
 -1      2027 1.60631E-01
 -1      2028 1.39524E-01
 -1      2029 1.29058E-01
 -1      2030 2.17970E-01
 -1      2031 1.92225E-01
 -1      2032 1.80172E-01
 -1      2033 2.89153E-01
 -1      2034 2.58765E-01
 -1      2035 2.52560E-01
 -1      2036 3.74678E-01
 -1      2037 3.40306E-01
 -1      2038 3.44508E-01
 -1      2039 4.73889E-01
 -1      2040 4.36549E-01
 -1      2041 4.57531E-01
 -1      2042 5.83403E-01
 -1      2043 5.45187E-01
 -1      2044 5.90700E-01
 -1      2045 7.06451E-01
 -1      2046 6.59885E-01
 -1      2047 7.38480E-01
 -1      2048 8.18358E-01
 -1      2049 7.79109E-01
 -1      2050 8.87620E-01
 -1      2051 9.61488E-01
 -1      2052 8.87893E-01
 -1      2053 1.02981E+00
 -1      2054 1.11773E+00
 -1      2055 1.01321E+00
 -1      2056 1.15107E+00
 -1      2057 1.21398E+00
 -1      2058 1.11773E+00
 -1      2059 1.20280E+00
 -1      2060 1.34538E+00
 -1      2061 1.20227E+00
 -1      2062 1.19108E+00
 -1      2063 1.44806E+00
 -1      2064 1.27048E+00
 -1      2065 1.10447E+00
 -1      2066 1.82216E+00
 -1      2067 1.51081E+00
 -1      2068 1.09232E+00
 -1      2069 2.50711E+00
 -1      2070 2.37807E+00
 -1      2071 1.71097E+00
 -1      2072 3.93036E+00
 -1      2073 3.33698E+00
 -1      2074 3.09674E+00
 -1      2075 5.59437E+00
 -1      2076 4.54096E+00
 -1      2077 4.53720E+00
 -1      2078 7.14421E+00
 -1      2079 5.74305E+00
 -1      2080 5.29648E+00
 -1      2081 7.71799E+00
 -1      2082 6.97895E+00
 -1      2083 5.27991E+00
 -1      2084 8.10496E+00
 -1      2085 7.80498E+00
 -1      2086 5.20163E+00
 -1      2087 6.67517E+00
 -1      2088 7.89813E+00
 -1      2089 5.08179E+00
 -1      2090 3.48607E+00
 -1      2091 5.62548E+00
 -1      2092 3.82528E+00
 -1      2093 2.14207E+00
 -1      2094 6.35155E+00
 -1      2095 5.37615E+00
 -1      2096 4.57654E+00
 -1      2097 3.21501E+00
 -1      2098 4.57654E+00
 -1      2099 2.63905E+00
 -1      2100 2.06679E+00
 -1      2101 2.70031E+00
 -1      2102 3.20098E+00
 -1      2103 7.80644E+00
 -1      2104 7.32695E+00
 -1      2105 6.35155E+00
 -1      2106 8.56557E+00
 -1      2107 8.38139E+00
 -1      2108 7.90190E+00
 -1      2109 2.69072E+01
 -1      2110 3.08378E+01
 -1      2111 1.11594E+01
 -1      2112 1.25179E+01
 -1      2113 7.55732E+00
 -1      2114 7.88805E+00
 -1      2115 5.28089E+00
 -1      2116 6.53574E+00
 -1      2117 2.97240E+00
 -1      2118 4.38161E+00
 -1      2119 4.61487E+00
 -1      2120 1.68652E+00
 -1      2121 2.27250E+00
 -1      2122 3.01567E+00
 -1      2123 2.92883E+01
 -1      2124 2.85844E+01
 -1      2125 3.60267E+01
 -1      2126 4.12360E+01
 -1      2127 1.28955E+01
 -1      2128 2.47746E+01
 -1      2129 2.98375E+01
 -1      2130 3.26394E+01
 -1      2131 2.98375E+01
 -1      2132 1.11699E+01
 -1      2133 1.09890E+01
 -1      2134 9.09290E+00
 -1      2135 1.00177E+01
 -1      2136 1.03806E+00
 -1      2137 1.21352E+00
 -1      2138 9.82848E-01
 -1      2139 8.55080E-01
 -1      2140 1.15769E+01
 -1      2141 1.14925E+01
 -1      2142 1.16000E+01
 -1      2143 1.15008E+01
 -1      2144 1.17687E+01
 -1      2145 1.17091E+01
 -1      2146 1.04844E+01
 -1      2147 1.08951E+01
 -1      2148 1.18998E+01
 -1      2149 9.89454E+00
 -1      2150 8.52544E+00
 -1      2151 2.57721E+01
 -1      2152 1.45966E+01
 -1      2153 2.95147E+01
 -1      2154 3.09092E+01
 -1      2155 2.19888E+01
 -1      2156 2.78633E+01
 -1      2157 2.77643E+01
 -1      2158 2.72477E+01
 -1      2159 2.77643E+01
 -1      2160 2.77643E+01
 -1      2161 2.40871E+01
 -1      2162 2.33075E+01
 -1      2163 3.60517E+01
 -1      2164 2.62696E+01
 -1      2165 1.78808E+01
 -1      2166 3.08959E+01
 -1      2167 9.99512E+00
 -1      2168 1.44719E+01
 -1      2169 9.88670E+00
 -1      2170 9.22873E+00
 -1      2171 1.11279E+01
 -1      2172 1.12349E+01
 -1      2173 1.18698E+01
 -1      2174 1.19109E+01
 -1      2175 1.20538E+01
 -1      2176 1.16312E+01
 -1      2177 1.09974E+01
 -1      2178 1.13648E+01
 -1      2179 9.25506E+00
 -1      2180 9.89734E+00
 -1      2181 8.91455E+00
 -1      2182 1.32457E+01
 -1      2183 9.03959E+00
 -1      2184 2.91379E+01
 -1      2185 1.66039E+01
 -1      2186 1.07418E+01
 -1      2187 8.25514E+00
 -1      2188 4.64454E+01
 -1      2189 4.25087E+01
 -1      2190 3.47745E+01
 -1      2191 4.64454E+01
 -1      2192 2.91018E+00
 -1      2193 2.10431E+00
 -1      2194 6.53574E+00
 -1      2195 1.08287E+01
 -1      2196 1.81727E+01
 -1      2197 1.64747E+01
 -1      2198 1.38262E+01
 -1      2199 3.00935E+01
 -1      2200 2.49890E+01
 -1      2201 3.53028E+01
 -1      2202 1.60194E+01
 -1      2203 2.02377E+00
 -1      2204 1.66284E+01
 -1      2205 1.76015E+01
 -1      2206 7.59902E+00
 -1      2207 4.12360E+01
 -1      2208 1.07036E+01
 -1      2209 1.16312E+01
 -1      2210 1.10868E+01
 -1      2211 8.95562E+00
 -1      2212 8.37378E+00
 -1      2213 1.25490E+01
 -1      2214 2.11137E+01
 -1      2215 2.40871E+01
 -1      2216 2.63615E+01
 -1      2217 3.08184E+01
 -1      2218 2.55595E+01
 -1      2219 2.19520E+01
 -1      2220 1.17852E+01
 -1      2221 7.82099E+00
 -1      2222 1.05178E+01
 -1      2223 9.98891E+00
 -1      2224 1.37375E+01
 -1      2225 9.23684E+00
 -1      2226 2.85844E+01
 -1      2227 1.04739E+01
 -1      2228 1.07534E+01
 -1      2229 1.07204E+01
 -1      2230 1.84663E+01
 -1      2231 1.08850E+00
 -1      2232 1.48033E+00
 -1      2233 5.58975E-01
 -1      2234 5.90174E-01
 -1      2235 6.02544E-01
 -1      2236 6.51309E-01
 -1      2237 4.98576E-01
 -1      2238 5.11153E-01
 -1      2239 5.09525E-01
 -1      2240 5.46025E-01
 -1      2241 5.24149E-01
 -1      2242 4.44531E-01
 -1      2243 5.94255E-01
 -1      2244 5.60854E-01
 -1      2245 4.72355E-01
 -1      2246 6.53954E-01
 -1      2247 6.06323E-01
 -1      2248 4.99251E-01
 -1      2249 7.21701E-01
 -1      2250 6.53954E-01
 -1      2251 5.11319E-01
 -1      2252 8.85101E-01
 -1      2253 7.70914E-01
 -1      2254 5.60532E-01
 -1      2255 1.26554E+00
 -1      2256 1.03458E+00
 -1      2257 9.47130E+00
 -1      2258 1.01603E+01
 -1      2259 3.22916E+00
 -1      2260 3.92907E+00
 -1      2261 8.90308E-01
 -1      2262 1.01015E+00
 -1      2263 9.68660E-01
 -1      2264 1.67685E+00
 -1      2265 1.30101E+00
 -1      2266 8.38084E-01
 -1      2267 9.60380E-01
 -1      2268 9.84118E-01
 -1      2269 8.03844E-01
 -1      2270 7.52158E-01
 -1      2271 7.46791E-01
 -1      2272 6.21119E-01
 -1      2273 6.44646E-01
 -1      2274 5.64837E-01
 -1      2275 5.06311E-01
 -1      2276 5.31312E-01
 -1      2277 4.56866E-01
 -1      2278 4.08170E-01
 -1      2279 4.25584E-01
 -1      2280 3.80820E-01
 -1      2281 3.37851E-01
 -1      2282 3.48789E-01
 -1      2283 3.12645E-01
 -1      2284 2.79720E-01
 -1      2285 2.96232E-01
 -1      2286 2.55835E-01
 -1      2287 2.27982E-01
 -1      2288 2.47142E-01
 -1      2289 2.08617E-01
 -1      2290 1.84629E-01
 -1      2291 2.03893E-01
 -1      2292 1.67626E-01
 -1      2293 1.49867E-01
 -1      2294 1.67525E-01
 -1      2295 1.35043E-01
 -1      2296 1.20205E-01
 -1      2297 1.35698E-01
 -1      2298 1.07701E-01
 -1      2299 9.52533E-02
 -1      2300 1.08369E-01
 -1      2301 8.59419E-02
 -1      2302 7.57892E-02
 -1      2303 8.65526E-02
 -1      2304 6.80329E-02
 -1      2305 5.99661E-02
 -1      2306 6.94849E-02
 -1      2307 5.35733E-02
 -1      2308 4.73253E-02
 -1      2309 5.53357E-02
 -1      2310 4.21247E-02
 -1      2311 3.74006E-02
 -1      2312 4.37424E-02
 -1      2313 3.31631E-02
 -1      2314 2.96557E-02
 -1      2315 3.43043E-02
 -1      2316 2.69106E-02
 -1      2317 2.55142E-02
 -1      2318 2.73218E-02
 -1      2319 2.45070E-02
 -1      2320 2.58018E-02
 -1      2321 2.35696E-02
 -1      2322 2.77455E-02
 -1      2323 3.02752E-02
 -1      2324 2.45061E-02
 -1      2325 3.41006E-02
 -1      2326 3.94470E-02
 -1      2327 3.02752E-02
 -1      2328 4.68082E-02
 -1      2329 5.46597E-02
 -1      2330 4.14618E-02
 -1      2331 6.66109E-02
 -1      2332 7.73327E-02
 -1      2333 6.07742E-02
 -1      2334 9.29017E-02
 -1      2335 1.09609E-01
 -1      2336 8.82944E-02
 -1      2337 1.29518E-01
 -1      2338 1.52758E-01
 -1      2339 1.23773E-01
 -1      2340 1.77640E-01
 -1      2341 2.06784E-01
 -1      2342 1.68564E-01
 -1      2343 2.37034E-01
 -1      2344 2.72318E-01
 -1      2345 2.23696E-01
 -1      2346 3.07863E-01
 -1      2347 3.48748E-01
 -1      2348 2.89490E-01
 -1      2349 3.88710E-01
 -1      2350 4.33347E-01
 -1      2351 3.64997E-01
 -1      2352 4.75592E-01
 -1      2353 5.20126E-01
 -1      2354 4.47204E-01
 -1      2355 5.61757E-01
 -1      2356 6.03210E-01
 -1      2357 5.31080E-01
 -1      2358 6.46224E-01
 -1      2359 6.90978E-01
 -1      2360 6.15725E-01
 -1      2361 7.18885E-01
 -1      2362 7.71267E-01
 -1      2363 6.86646E-01
 -1      2364 7.98184E-01
 -1      2365 8.21636E-01
 -1      2366 7.41470E-01
 -1      2367 8.45881E-01
 -1      2368 8.12137E-01
 -1      2369 7.92633E-01
 -1      2370 8.07717E-01
 -1      2371 7.91704E-01
 -1      2372 8.12458E-01
 -1      2373 9.33153E-01
 -1      2374 9.41845E-01
 -1      2375 9.49485E-01
 -1      2376 1.08048E+00
 -1      2377 1.47052E+00
 -1      2378 1.22956E+00
 -1      2379 1.78633E+00
 -1      2380 2.30974E+00
 -1      2381 1.68400E+00
 -1      2382 2.68346E+00
 -1      2383 3.07712E+00
 -1      2384 2.37353E+00
 -1      2385 3.35416E+00
 -1      2386 3.80691E+00
 -1      2387 3.02430E+00
 -1      2388 4.16653E+00
 -1      2389 4.18436E+00
 -1      2390 3.66096E+00
 -1      2391 4.39420E+00
 -1      2392 4.13753E+00
 -1      2393 4.23042E+00
 -1      2394 3.37987E+00
 -1      2395 3.21089E+00
 -1      2396 3.68261E+00
 -1      2397 5.43569E-01
 -1      2398 6.23091E-01
 -1      2399 4.36572E-01
 -1      2400 4.90070E-01
 -1      2401 4.90070E-01
 -1      2402 3.69710E-01
 -1      2403 4.03141E-01
 -1      2404 4.03141E-01
 -1      2405 3.05513E-01
 -1      2406 3.37611E-01
 -1      2407 3.37611E-01
 -1      2408 2.49590E-01
 -1      2409 2.77552E-01
 -1      2410 2.77552E-01
 -1      2411 2.04178E-01
 -1      2412 2.27084E-01
 -1      2413 2.27084E-01
 -1      2414 1.64254E-01
 -1      2415 1.84366E-01
 -1      2416 1.84765E-01
 -1      2417 1.30231E-01
 -1      2418 1.47300E-01
 -1      2419 1.47999E-01
 -1      2420 1.03664E-01
 -1      2421 1.17688E-01
 -1      2422 1.18503E-01
 -1      2423 8.18499E-02
 -1      2424 9.31245E-02
 -1      2425 9.54216E-02
 -1      2426 6.42519E-02
 -1      2427 7.31090E-02
 -1      2428 7.61413E-02
 -1      2429 5.05025E-02
 -1      2430 5.71808E-02
 -1      2431 6.03293E-02
 -1      2432 4.01597E-02
 -1      2433 4.48953E-02
 -1      2434 4.76510E-02
 -1      2435 3.27584E-02
 -1      2436 3.57640E-02
 -1      2437 3.76480E-02
 -1      2438 2.78359E-02
 -1      2439 2.92906E-02
 -1      2440 2.97845E-02
 -1      2441 2.89875E-02
 -1      2442 2.73370E-02
 -1      2443 2.58179E-02
 -1      2444 3.22582E-02
 -1      2445 2.93884E-02
 -1      2446 2.57199E-02
 -1      2447 4.01525E-02
 -1      2448 3.62565E-02
 -1      2449 3.01190E-02
 -1      2450 5.37382E-02
 -1      2451 4.59745E-02
 -1      2452 3.99392E-02
 -1      2453 7.45224E-02
 -1      2454 6.40199E-02
 -1      2455 5.60429E-02
 -1      2456 1.03822E-01
 -1      2457 9.04122E-02
 -1      2458 8.22145E-02
 -1      2459 1.44444E-01
 -1      2460 1.24925E-01
 -1      2461 1.19207E-01
 -1      2462 2.03554E-01
 -1      2463 1.71960E-01
 -1      2464 1.67826E-01
 -1      2465 2.79491E-01
 -1      2466 2.38697E-01
 -1      2467 2.30485E-01
 -1      2468 3.74470E-01
 -1      2469 3.23317E-01
 -1      2470 3.09453E-01
 -1      2471 4.89433E-01
 -1      2472 4.27563E-01
 -1      2473 4.06372E-01
 -1      2474 6.22676E-01
 -1      2475 5.51378E-01
 -1      2476 5.21410E-01
 -1      2477 7.67710E-01
 -1      2478 6.91228E-01
 -1      2479 6.51906E-01
 -1      2480 9.10281E-01
 -1      2481 8.37623E-01
 -1      2482 7.90371E-01
 -1      2483 1.04531E+00
 -1      2484 9.75777E-01
 -1      2485 9.25780E-01
 -1      2486 1.15868E+00
 -1      2487 1.10695E+00
 -1      2488 1.05292E+00
 -1      2489 1.20280E+00
 -1      2490 1.20280E+00
 -1      2491 1.15868E+00
 -1      2492 1.23206E+00
 -1      2493 1.24377E+00
 -1      2494 1.24377E+00
 -1      2495 1.18037E+00
 -1      2496 1.25527E+00
 -1      2497 1.30796E+00
 -1      2498 1.38629E+00
 -1      2499 1.32354E+00
 -1      2500 1.47435E+00
 -1      2501 2.19425E+00
 -1      2502 1.63834E+00
 -1      2503 1.86956E+00
 -1      2504 3.51175E+00
 -1      2505 2.68189E+00
 -1      2506 2.60926E+00
 -1      2507 4.73588E+00
 -1      2508 4.12529E+00
 -1      2509 3.71043E+00
 -1      2510 5.73009E+00
 -1      2511 5.58140E+00
 -1      2512 5.16948E+00
 -1      2513 6.74670E+00
 -1      2514 6.91196E+00
 -1      2515 7.19688E+00
 -1      2516 5.89283E+00
 -1      2517 5.80584E+00
 -1      2518 7.43789E+00
 -1      2519 4.67917E+00
 -1      2520 4.88599E+00
 -1      2521 5.49020E+00
 -1      2522 3.75000E+00
 -1      2523 5.93659E+00
 -1      2524 5.13698E+00
 -1      2525 6.12000E+00
 -1      2526 5.14461E+00
 -1      2527 5.70505E+00
 -1      2528 1.76015E+01
 -1      2529 2.31459E+00
 -1      2530 6.76450E+00
 -1      2531 1.00359E+01
 -1      2532 4.74075E+00
 -1      2533 5.64004E+00
 -1      2534 4.95424E+00
 -1      2535 7.02612E-01
 -1      2536 7.96460E-01
 -1      2537 6.23091E-01
 -1      2538 6.11140E+00
 -1      2539 7.13299E+00
 -1      2540 6.23729E+00
 -1      2541 6.67761E+00
 -1      2542 6.89308E+00
 -1      2543 8.05994E+00
 -1      2544 8.93355E+00
 -1      2545 9.30235E+00
 -1      2546 8.97974E+00
 -1      2547 5.22440E-01
 -1      2548 5.44555E-01
 -1      2549 4.71785E-01
 -1      2550 4.44450E-01
 -1      2551 9.99859E+00
 -1      2552 1.00747E+01
 -1      2553 6.12585E+00
 -1      2554 6.71571E+00
 -1      2555 1.87976E+01
 -1      2556 2.04490E+01
 -1      2557 2.43631E+01
 -1      2558 1.91043E+01
 -1      2559 1.76012E+01
 -1      2560 3.08184E+01
 -1      2561 3.08184E+01
 -1      2562 2.29192E+01
 -1      2563 2.73761E+01
 -1      2564 2.33908E+01
 -1      2565 2.12083E+01
 -1      2566 1.40907E+01
 -1      2567 1.92466E+01
 -1      2568 9.30174E+00
 -1      2569 1.27106E+01
 -1      2570 6.29854E+00
 -1      2571 7.06493E+00
 -1      2572 8.00617E+00
 -1      2573 6.65795E+00
 -1      2574 9.66816E+00
 -1      2575 8.88517E+00
 -1      2576 1.05457E+01
 -1      2577 1.07843E+01
 -1      2578 7.26157E+00
 -1      2579 8.36163E+00
 -1      2580 7.84209E+00
 -1      2581 5.94597E+00
 -1      2582 1.62066E+00
 -1      2583 1.76397E+00
 -1      2584 1.32851E+00
 -1      2585 1.18734E+00
 -1      2586 1.73700E+01
 -1      2587 1.22329E+01
 -1      2588 1.00809E+01
 -1      2589 9.97176E+00
 -1      2590 8.58052E+00
 -1      2591 6.15587E-01
 -1      2592 7.55950E-01
 -1      2593 8.19358E-01
 -1      2594 6.34016E+00
 -1      2595 1.24407E+00
 -1      2596 1.42156E+01
 -1      2597 9.31341E+00
 -1      2598 7.96460E-01
 -1      2599 8.96020E-01
 -1      2600 1.07418E+01
 -1      2601 3.55420E+00
 -1      2602 7.41793E+00
 -1      2603 6.84298E+00
 -1      2604 5.66034E+00
 -1      2605 4.13015E+00
 -1      2606 9.32601E+00
 -1      2607 1.02957E+01
 -1      2608 2.75124E+01
 -1      2609 9.68709E-01
 -1      2610 8.15187E+00
 -1      2611 9.09174E+00
 -1      2612 1.01880E+01
 -1      2613 7.37659E+00
 -1      2614 6.67057E+00
 -1      2615 8.58266E+00
 -1      2616 6.58751E+00
 -1      2617 5.34909E+00
 -1      2618 7.22649E+00
 -1      2619 1.08434E+01
 -1      2620 1.63677E+01
 -1      2621 2.22229E+01
 -1      2622 2.50441E+01
 -1      2623 1.85889E+01
 -1      2624 2.50441E+01
 -1      2625 2.76670E+00
 -1      2626 2.76787E+00
 -1      2627 3.68126E+00
 -1      2628 3.35841E+00
 -1      2629 6.81893E+00
 -1      2630 5.00920E+00
 -1      2631 6.70434E+00
 -1      2632 6.42994E+00
 -1      2633 3.07246E+00
 -1      2634 1.41000E+01
 -1      2635 7.81833E+00
 -1      2636 5.49020E+00
 -1      2637 1.55564E+01
 -1      2638 2.73761E+01
 -1      2639 4.22832E-01
 -1      2640 4.08004E-01
 -1      2641 4.00120E-01
 -1      2642 3.87125E-01
 -1      2643 3.50598E-01
 -1      2644 4.36692E-01
 -1      2645 4.36692E-01
 -1      2646 4.73996E-01
 -1      2647 4.24784E-01
 -1      2648 3.50157E-01
 -1      2649 7.69166E+00
 -1      2650 8.83896E+00
 -1      2651 6.05023E-01
 -1      2652 5.54564E-01
 -1      2653 7.16981E-01
 -1      2654 7.95334E-01
 -1      2655 2.88600E-01
 -1      2656 3.20699E-01
 -1      2657 5.49157E-01
 -1      2658 4.92104E-01
 -1      2659 4.02022E-01
 -1      2660 4.85205E-01
 -1      2661 4.28923E-01
 -1      2662 3.89716E-01
 -1      2663 4.08476E-01
 -1      2664 3.59031E-01
 -1      2665 3.62370E-01
 -1      2666 3.34150E-01
 -1      2667 3.06800E-01
 -1      2668 3.17042E-01
 -1      2669 2.81883E-01
 -1      2670 2.56676E-01
 -1      2671 2.67244E-01
 -1      2672 2.41091E-01
 -1      2673 2.17207E-01
 -1      2674 2.26741E-01
 -1      2675 2.00908E-01
 -1      2676 1.81543E-01
 -1      2677 1.94857E-01
 -1      2678 1.66017E-01
 -1      2679 1.49014E-01
 -1      2680 1.63032E-01
 -1      2681 1.35047E-01
 -1      2682 1.20223E-01
 -1      2683 1.33539E-01
 -1      2684 1.08488E-01
 -1      2685 9.59836E-02
 -1      2686 1.07837E-01
 -1      2687 8.66046E-02
 -1      2688 7.72932E-02
 -1      2689 8.67242E-02
 -1      2690 6.94849E-02
 -1      2691 6.17285E-02
 -1      2692 6.95369E-02
 -1      2693 5.53357E-02
 -1      2694 4.89430E-02
 -1      2695 5.53357E-02
 -1      2696 4.37424E-02
 -1      2697 3.85418E-02
 -1      2698 4.37424E-02
 -1      2699 3.43043E-02
 -1      2700 3.00669E-02
 -1      2701 3.43043E-02
 -1      2702 2.67773E-02
 -1      2703 2.40323E-02
 -1      2704 2.67773E-02
 -1      2705 2.15386E-02
 -1      2706 2.05314E-02
 -1      2707 2.09941E-02
 -1      2708 2.05875E-02
 -1      2709 2.25312E-02
 -1      2710 1.85565E-02
 -1      2711 2.52690E-02
 -1      2712 2.90943E-02
 -1      2713 2.13503E-02
 -1      2714 3.67515E-02
 -1      2715 4.41127E-02
 -1      2716 3.17453E-02
 -1      2717 5.39643E-02
 -1      2718 6.59155E-02
 -1      2719 4.92540E-02
 -1      2720 7.85819E-02
 -1      2721 9.41509E-02
 -1      2722 7.17720E-02
 -1      2723 1.10290E-01
 -1      2724 1.30199E-01
 -1      2725 1.00577E-01
 -1      2726 1.50469E-01
 -1      2727 1.75352E-01
 -1      2728 1.36986E-01
 -1      2729 2.00355E-01
 -1      2730 2.30605E-01
 -1      2731 1.82260E-01
 -1      2732 2.60791E-01
 -1      2733 2.96335E-01
 -1      2734 2.37450E-01
 -1      2735 3.31858E-01
 -1      2736 3.71821E-01
 -1      2737 3.03159E-01
 -1      2738 4.13317E-01
 -1      2739 4.55562E-01
 -1      2740 3.80179E-01
 -1      2741 5.02745E-01
 -1      2742 5.44376E-01
 -1      2743 4.68858E-01
 -1      2744 5.93504E-01
 -1      2745 6.36517E-01
 -1      2746 5.65168E-01
 -1      2747 6.81798E-01
 -1      2748 7.09705E-01
 -1      2749 6.59577E-01
 -1      2750 7.57531E-01
 -1      2751 7.84448E-01
 -1      2752 7.52683E-01
 -1      2753 8.53229E-01
 -1      2754 8.77474E-01
 -1      2755 8.69290E-01
 -1      2756 9.64437E-01
 -1      2757 9.60017E-01
 -1      2758 1.02503E+00
 -1      2759 1.03389E+00
 -1      2760 1.17534E+00
 -1      2761 1.18587E+00
 -1      2762 1.40361E+00
 -1      2763 1.54224E+00
 -1      2764 1.48801E+00
 -1      2765 1.85358E+00
 -1      2766 2.16939E+00
 -1      2767 2.02763E+00
 -1      2768 2.22480E+00
 -1      2769 2.59852E+00
 -1      2770 2.39438E+00
 -1      2771 3.17214E+00
 -1      2772 3.44918E+00
 -1      2773 3.02340E+00
 -1      2774 3.66973E+00
 -1      2775 4.02935E+00
 -1      2776 3.81757E+00
 -1      2777 4.36210E+00
 -1      2778 4.57194E+00
 -1      2779 4.37086E+00
 -1      2780 4.73839E+00
 -1      2781 3.98073E+00
 -1      2782 4.87007E+00
 -1      2783 3.47966E-01
 -1      2784 3.81397E-01
 -1      2785 2.98955E-01
 -1      2786 4.15823E-01
 -1      2787 4.69321E-01
 -1      2788 3.60648E-01
 -1      2789 2.40590E-01
 -1      2790 2.68551E-01
 -1      2791 2.51639E-01
 -1      2792 1.99311E-01
 -1      2793 2.21817E-01
 -1      2794 2.12817E-01
 -1      2795 1.62438E-01
 -1      2796 1.82250E-01
 -1      2797 1.76984E-01
 -1      2798 1.31424E-01
 -1      2799 1.48378E-01
 -1      2800 1.45863E-01
 -1      2801 1.06411E-01
 -1      2802 1.18954E-01
 -1      2803 1.19332E-01
 -1      2804 8.52033E-02
 -1      2805 9.57426E-02
 -1      2806 9.61930E-02
 -1      2807 6.75951E-02
 -1      2808 7.63360E-02
 -1      2809 7.66571E-02
 -1      2810 5.35731E-02
 -1      2811 6.06442E-02
 -1      2812 6.08389E-02
 -1      2813 4.24169E-02
 -1      2814 4.80241E-02
 -1      2815 4.83391E-02
 -1      2816 3.33667E-02
 -1      2817 3.77624E-02
 -1      2818 3.81355E-02
 -1      2819 2.63168E-02
 -1      2820 2.97845E-02
 -1      2821 2.98989E-02
 -1      2822 2.36798E-02
 -1      2823 2.41786E-02
 -1      2824 2.41786E-02
 -1      2825 2.33656E-02
 -1      2826 2.29647E-02
 -1      2827 2.13255E-02
 -1      2828 2.98926E-02
 -1      2829 2.58943E-02
 -1      2830 2.31391E-02
 -1      2831 4.14350E-02
 -1      2832 3.56131E-02
 -1      2833 3.13883E-02
 -1      2834 6.17880E-02
 -1      2835 5.15063E-02
 -1      2836 4.71801E-02
 -1      2837 9.09420E-02
 -1      2838 7.50522E-02
 -1      2839 7.05155E-02
 -1      2840 1.29384E-01
 -1      2841 1.08281E-01
 -1      2842 1.01118E-01
 -1      2843 1.79293E-01
 -1      2844 1.51777E-01
 -1      2845 1.40850E-01
 -1      2846 2.42934E-01
 -1      2847 2.07792E-01
 -1      2848 1.91743E-01
 -1      2849 3.22422E-01
 -1      2850 2.78596E-01
 -1      2851 2.55903E-01
 -1      2852 4.19294E-01
 -1      2853 3.66201E-01
 -1      2854 3.35344E-01
 -1      2855 5.33808E-01
 -1      2856 4.71864E-01
 -1      2857 4.31693E-01
 -1      2858 6.63833E-01
 -1      2859 5.95281E-01
 -1      2860 5.45735E-01
 -1      2861 8.04018E-01
 -1      2862 7.34106E-01
 -1      2863 6.77480E-01
 -1      2864 9.49376E-01
 -1      2865 8.83879E-01
 -1      2866 8.27614E-01
 -1      2867 1.09005E+00
 -1      2868 1.02841E+00
 -1      2869 9.86513E-01
 -1      2870 1.19890E+00
 -1      2871 1.15478E+00
 -1      2872 1.13027E+00
 -1      2873 1.34592E+00
 -1      2874 1.30495E+00
 -1      2875 1.30105E+00
 -1      2876 1.52994E+00
 -1      2877 1.50673E+00
 -1      2878 1.56790E+00
 -1      2879 1.86350E+00
 -1      2880 1.72033E+00
 -1      2881 1.91910E+00
 -1      2882 2.40842E+00
 -1      2883 2.15636E+00
 -1      2884 2.40235E+00
 -1      2885 3.36895E+00
 -1      2886 2.88131E+00
 -1      2887 3.16811E+00
 -1      2888 3.88799E+00
 -1      2889 3.27445E+00
 -1      2890 3.54651E+00
 -1      2891 5.69692E+00
 -1      2892 4.85140E+00
 -1      2893 4.41543E+00
 -1      2894 8.37875E+00
 -1      2895 7.19688E+00
 -1      2896 6.49703E+00
 -1      2897 5.22299E+00
 -1      2898 3.80807E+00
 -1      2899 5.15230E+00
 -1      2900 5.83939E+00
 -1      2901 2.00701E+01
 -1      2902 8.28378E-01
 -1      2903 4.58954E+00
 -1      2904 5.40122E+00
 -1      2905 7.26157E+00
 -1      2906 5.03248E-01
 -1      2907 5.82770E-01
 -1      2908 4.29001E-01
 -1      2909 8.29080E+00
 -1      2910 8.31762E+00
 -1      2911 6.08490E-01
 -1      2912 7.02338E-01
 -1      2913 5.29012E-01
 -1      2914 4.88648E-01
 -1      2915 6.36064E+00
 -1      2916 8.42203E+00
 -1      2917 7.30588E+00
 -1      2918 7.73290E+00
 -1      2919 6.28532E+00
 -1      2920 7.07731E+00
 -1      2921 7.96890E-01
 -1      2922 8.20697E+00
 -1      2923 8.59237E+00
 -1      2924 4.36692E-01
 -1      2925 4.24624E-01
 -1      2926 3.60273E-01
 -1      2927 3.62066E-01
 -1      2928 4.24106E-01
 -1      2929 4.36476E-01
 -1      2930 1.56179E+01
 -1      2931 1.53113E+01
 -1      2932 1.83213E+01
 -1      2933 2.00322E+01
 -1      2934 1.12200E+01
 -1      2935 1.53643E+01
 -1      2936 8.98683E+00
 -1      2937 1.03669E+01
 -1      2938 4.67857E+00
 -1      2939 6.91538E+00
 -1      2940 4.35297E+00
 -1      2941 3.99356E+00
 -1      2942 6.28159E+00
 -1      2943 5.40259E+00
 -1      2944 1.31206E+01
 -1      2945 1.00416E+01
 -1      2946 1.11373E+01
 -1      2947 2.05995E+01
 -1      2948 2.40418E+01
 -1      2949 1.66980E+01
 -1      2950 8.50521E+00
 -1      2951 4.63277E-01
 -1      2952 5.67917E-01
 -1      2953 3.88806E-01
 -1      2954 3.42537E-01
 -1      2955 3.86947E-01
 -1      2956 3.99862E-01
 -1      2957 7.83058E+00
 -1      2958 7.47000E+00
 -1      2959 4.47818E+00
 -1      2960 3.78510E+00
 -1      2961 3.27706E+00
 -1      2962 7.43789E+00
 -1      2963 8.37875E+00
 -1      2964 6.12096E+00
 -1      2965 4.04705E+00
 -1      2966 7.26795E+00
 -1      2967 6.79147E+00
 -1      2968 4.72002E+00
 -1      2969 9.36345E+00
 -1      2970 5.84211E-01
 -1      2971 6.60873E-01
 -1      2972 6.25406E-01
 -1      2973 4.31901E-01
 -1      2974 5.76700E-01
 -1      2975 6.62593E+00
 -1      2976 7.09729E+00
 -1      2977 8.82189E+00
 -1      2978 6.77693E+00
 -1      2979 7.72682E+00
 -1      2980 6.26123E+00
 -1      2981 1.31736E+01
 -1      2982 2.17391E+01
 -1      2983 1.59649E+01
 -1      2984 1.49626E+01
 -1      2985 4.12825E+00
 -1      2986 4.58954E+00
 -1      2987 4.07545E-01
 -1      2988 4.21966E-01
 -1      2989 3.59866E-01
 -1      2990 3.50043E-01
 -1      2991 4.40952E-01
 -1      2992 6.37453E+00
 -1      2993 4.27812E-01
 -1      2994 1.48485E+01
 -1      2995 1.25585E+01
 -1      2996 1.55295E+01
 -1      2997 3.68244E+00
 -1      2998 2.89587E-01
 -1      2999 3.01496E-01
 -1      3000 2.23699E-01
 -1      3001 2.43748E-01
 -1      3002 3.14737E-01
 -1      3003 3.07837E-01
 -1      3004 3.18508E-01
 -1      3005 2.98061E-01
 -1      3006 2.43529E-01
 -1      3007 2.94692E-01
 -1      3008 2.69812E-01
 -1      3009 2.50831E-01
 -1      3010 2.58858E-01
 -1      3011 2.33940E-01
 -1      3012 2.36508E-01
 -1      3013 2.19721E-01
 -1      3014 2.04135E-01
 -1      3015 2.11334E-01
 -1      3016 1.90872E-01
 -1      3017 1.74573E-01
 -1      3018 1.83851E-01
 -1      3019 1.63950E-01
 -1      3020 1.48423E-01
 -1      3021 1.59964E-01
 -1      3022 1.37283E-01
 -1      3023 1.23316E-01
 -1      3024 1.38200E-01
 -1      3025 1.12619E-01
 -1      3026 1.00885E-01
 -1      3027 1.16363E-01
 -1      3028 9.11641E-02
 -1      3029 8.17851E-02
 -1      3030 9.59461E-02
 -1      3031 7.32746E-02
 -1      3032 6.54663E-02
 -1      3033 7.77146E-02
 -1      3034 5.82045E-02
 -1      3035 5.18117E-02
 -1      3036 6.19423E-02
 -1      3037 4.57058E-02
 -1      3038 4.05052E-02
 -1      3039 4.85745E-02
 -1      3040 3.53766E-02
 -1      3041 3.11391E-02
 -1      3042 3.73400E-02
 -1      3043 2.67505E-02
 -1      3044 2.34610E-02
 -1      3045 2.78228E-02
 -1      3046 1.96157E-02
 -1      3047 1.71220E-02
 -1      3048 1.95889E-02
 -1      3049 1.46401E-02
 -1      3050 1.46962E-02
 -1      3051 1.32617E-02
 -1      3052 1.68202E-02
 -1      3053 1.95580E-02
 -1      3054 1.29038E-02
 -1      3055 2.55596E-02
 -1      3056 3.32168E-02
 -1      3057 2.10295E-02
 -1      3058 4.12695E-02
 -1      3059 5.11211E-02
 -1      3060 3.50839E-02
 -1      3061 6.14752E-02
 -1      3062 7.41416E-02
 -1      3063 5.34907E-02
 -1      3064 8.78353E-02
 -1      3065 1.03974E-01
 -1      3066 7.75385E-02
 -1      3067 1.21819E-01
 -1      3068 1.42089E-01
 -1      3069 1.09077E-01
 -1      3070 1.64375E-01
 -1      3071 1.89379E-01
 -1      3072 1.49208E-01
 -1      3073 2.16523E-01
 -1      3074 2.46709E-01
 -1      3075 1.98638E-01
 -1      3076 2.78756E-01
 -1      3077 3.14279E-01
 -1      3078 2.57829E-01
 -1      3079 3.50593E-01
 -1      3080 3.92090E-01
 -1      3081 3.26190E-01
 -1      3082 4.31409E-01
 -1      3083 4.78592E-01
 -1      3084 4.01824E-01
 -1      3085 5.32946E-01
 -1      3086 5.82074E-01
 -1      3087 4.95497E-01
 -1      3088 6.45491E-01
 -1      3089 6.90772E-01
 -1      3090 6.13269E-01
 -1      3091 7.59863E-01
 -1      3092 8.07688E-01
 -1      3093 7.45777E-01
 -1      3094 8.94133E-01
 -1      3095 9.62914E-01
 -1      3096 9.01313E-01
 -1      3097 1.07406E+00
 -1      3098 1.16102E+00
 -1      3099 1.09890E+00
 -1      3100 1.36177E+00
 -1      3101 1.43565E+00
 -1      3102 1.41080E+00
 -1      3103 1.61389E+00
 -1      3104 1.84216E+00
 -1      3105 1.78980E+00
 -1      3106 2.18539E+00
 -1      3107 2.49673E+00
 -1      3108 2.31126E+00
 -1      3109 2.73382E+00
 -1      3110 2.78923E+00
 -1      3111 2.89158E+00
 -1      3112 2.66563E+00
 -1      3113 3.23924E+00
 -1      3114 3.00507E+00
 -1      3115 4.37086E+00
 -1      3116 4.70361E+00
 -1      3117 4.87007E+00
 -1      3118 5.03652E+00
 -1      3119 2.62183E-01
 -1      3120 2.89450E-01
 -1      3121 2.34243E-01
 -1      3122 3.05789E-01
 -1      3123 3.40215E-01
 -1      3124 2.69017E-01
 -1      3125 7.43789E+00
 -1      3126 1.60791E-01
 -1      3127 1.77852E-01
 -1      3128 1.33826E-01
 -1      3129 1.47887E-01
 -1      3130 1.48755E-01
 -1      3131 1.09327E-01
 -1      3132 1.21797E-01
 -1      3133 1.23821E-01
 -1      3134 8.79622E-02
 -1      3135 9.86308E-02
 -1      3136 1.01096E-01
 -1      3137 6.98966E-02
 -1      3138 7.87639E-02
 -1      3139 8.12017E-02
 -1      3140 5.52212E-02
 -1      3141 6.21721E-02
 -1      3142 6.42789E-02
 -1      3143 4.32775E-02
 -1      3144 4.88265E-02
 -1      3145 5.01597E-02
 -1      3146 3.34810E-02
 -1      3147 3.81355E-02
 -1      3148 3.86230E-02
 -1      3149 2.60958E-02
 -1      3150 2.96779E-02
 -1      3151 2.96779E-02
 -1      3152 2.08726E-02
 -1      3153 2.30107E-02
 -1      3154 2.27897E-02
 -1      3155 1.72812E-02
 -1      3156 1.79962E-02
 -1      3157 1.68283E-02
 -1      3158 2.08193E-02
 -1      3159 1.82906E-02
 -1      3160 1.49614E-02
 -1      3161 3.21299E-02
 -1      3162 2.64094E-02
 -1      3163 2.15609E-02
 -1      3164 5.01390E-02
 -1      3165 4.00677E-02
 -1      3166 3.50888E-02
 -1      3167 7.35984E-02
 -1      3168 6.03342E-02
 -1      3169 5.32219E-02
 -1      3170 1.04056E-01
 -1      3171 8.67170E-02
 -1      3172 7.65357E-02
 -1      3173 1.43245E-01
 -1      3174 1.20851E-01
 -1      3175 1.06450E-01
 -1      3176 1.93064E-01
 -1      3177 1.64565E-01
 -1      3178 1.44566E-01
 -1      3179 2.57579E-01
 -1      3180 2.21918E-01
 -1      3181 1.94740E-01
 -1      3182 3.39580E-01
 -1      3183 2.95801E-01
 -1      3184 2.61815E-01
 -1      3185 4.39339E-01
 -1      3186 3.86769E-01
 -1      3187 3.47226E-01
 -1      3188 5.57427E-01
 -1      3189 4.95954E-01
 -1      3190 4.51030E-01
 -1      3191 6.92962E-01
 -1      3192 6.22689E-01
 -1      3193 5.72908E-01
 -1      3194 8.45233E-01
 -1      3195 7.65372E-01
 -1      3196 7.10580E-01
 -1      3197 1.02374E+00
 -1      3198 9.44703E-01
 -1      3199 8.82460E-01
 -1      3200 1.20507E+00
 -1      3201 1.14035E+00
 -1      3202 1.09854E+00
 -1      3203 1.46437E+00
 -1      3204 1.35832E+00
 -1      3205 1.36839E+00
 -1      3206 1.81071E+00
 -1      3207 1.64991E+00
 -1      3208 1.70718E+00
 -1      3209 2.26792E+00
 -1      3210 2.07753E+00
 -1      3211 2.15953E+00
 -1      3212 3.15833E+00
 -1      3213 2.86546E+00
 -1      3214 3.02390E+00
 -1      3215 4.41971E+00
 -1      3216 3.94681E+00
 -1      3217 4.40992E+00
 -1      3218 4.31646E+00
 -1      3219 3.35305E+00
 -1      3220 6.87879E+00
 -1      3221 5.92443E+00
 -1      3222 4.90014E+00
 -1      3223 3.01827E-01
 -1      3224 2.96419E-01
 -1      3225 2.14541E-01
 -1      3226 6.70865E+00
 -1      3227 3.49945E-01
 -1      3228 3.83872E-01
 -1      3229 2.95087E-01
 -1      3230 9.61220E+00
 -1      3231 1.25693E+01
 -1      3232 7.31559E+00
 -1      3233 1.90739E-01
 -1      3234 2.09512E-01
 -1      3235 2.01621E-01
 -1      3236 1.19693E+01
 -1      3237 9.77864E+00
 -1      3238 6.54700E+00
 -1      3239 5.87475E+00
 -1      3240 3.23487E-01
 -1      3241 3.15604E-01
 -1      3242 4.12719E-01
 -1      3243 3.10015E-01
 -1      3244 2.61354E-01
 -1      3245 3.98075E-01
 -1      3246 3.29723E+00
 -1      3247 3.98224E+00
 -1      3248 7.56183E+00
 -1      3249 8.41493E+00
 -1      3250 4.56739E+00
 -1      3251 3.51777E+00
 -1      3252 3.81757E+00
 -1      3253 4.37086E+00
 -1      3254 1.27654E+01
 -1      3255 1.33327E+01
 -1      3256 3.27073E-01
 -1      3257 3.06690E-01
 -1      3258 3.10779E-01
 -1      3259 3.12061E-01
 -1      3260 3.11884E-01
 -1      3261 2.84951E-01
 -1      3262 7.81833E+00
 -1      3263 4.82326E+00
 -1      3264 3.59916E+00
 -1      3265 3.69813E+00
 -1      3266 4.99573E+00
 -1      3267 3.23924E+00
 -1      3268 3.59702E+00
 -1      3269 4.03811E+00
 -1      3270 3.81757E+00
 -1      3271 4.84411E+00
 -1      3272 5.62282E+00
 -1      3273 3.79262E+00
 -1      3274 4.33944E+00
 -1      3275 8.16966E+00
 -1      3276 1.21022E+01
 -1      3277 9.79951E+00
 -1      3278 8.37875E+00
 -1      3279 1.74546E-01
 -1      3280 7.93769E+00
 -1      3281 7.10561E+00
 -1      3282 5.88587E+00
 -1      3283 6.27715E+00
 -1      3284 3.67365E-01
 -1      3285 3.93085E-01
 -1      3286 2.76792E-01
 -1      3287 2.88309E-01
 -1      3288 5.03652E+00
 -1      3289 7.81058E+00
 -1      3290 7.83058E+00
 -1      3291 8.01817E+00
 -1      3292 6.26123E+00
 -1      3293 6.09088E+00
 -1      3294 3.95637E+00
 -1      3295 4.34159E+00
 -1      3296 4.69416E+00
 -1      3297 3.59860E+00
 -1      3298 5.03652E+00
 -1      3299 1.11999E+01
 -1      3300 3.21102E-01
 -1      3301 3.21102E-01
 -1      3302 2.60533E-01
 -1      3303 3.22472E-01
 -1      3304 3.24611E-01
 -1      3305 9.20398E+00
 -1      3306 2.01087E-01
 -1      3307 1.44803E+01
 -1      3308 1.07398E+01
 -1      3309 1.11752E+01
 -1      3310 3.25280E-01
 -1      3311 3.23487E-01
 -1      3312 2.88494E-01
 -1      3313 2.84316E-01
 -1      3314 6.76510E+00
 -1      3315 5.81658E+00
 -1      3316 5.04622E+00
 -1      3317 3.00465E-01
 -1      3318 3.27266E-01
 -1      3319 2.22438E-01
 -1      3320 2.63072E-01
 -1      3321 1.90262E-01
 -1      3322 2.00932E-01
 -1      3323 4.87007E+00
 -1      3324 5.85275E+00
 -1      3325 2.13987E-01
 -1      3326 2.10618E-01
 -1      3327 1.60720E-01
 -1      3328 2.14545E-01
 -1      3329 2.03591E-01
 -1      3330 1.77701E-01
 -1      3331 1.99947E-01
 -1      3332 1.85728E-01
 -1      3333 1.77985E-01
 -1      3334 1.77848E-01
 -1      3335 1.64585E-01
 -1      3336 1.66462E-01
 -1      3337 1.54751E-01
 -1      3338 1.44128E-01
 -1      3339 1.48748E-01
 -1      3340 1.35874E-01
 -1      3341 1.24733E-01
 -1      3342 1.30661E-01
 -1      3343 1.16537E-01
 -1      3344 1.05841E-01
 -1      3345 1.14211E-01
 -1      3346 9.75782E-02
 -1      3347 8.78571E-02
 -1      3348 9.77523E-02
 -1      3349 8.00829E-02
 -1      3350 7.15724E-02
 -1      3351 8.17150E-02
 -1      3352 6.45783E-02
 -1      3353 5.73164E-02
 -1      3354 6.69466E-02
 -1      3355 5.12058E-02
 -1      3356 4.51000E-02
 -1      3357 5.38418E-02
 -1      3358 3.98467E-02
 -1      3359 3.47180E-02
 -1      3360 4.24780E-02
 -1      3361 3.02064E-02
 -1      3362 2.58178E-02
 -1      3363 3.27130E-02
 -1      3364 2.18690E-02
 -1      3365 1.80237E-02
 -1      3366 2.42525E-02
 -1      3367 1.61474E-02
 -1      3368 1.36655E-02
 -1      3369 1.84275E-02
 -1      3370 1.45952E-02
 -1      3371 1.67193E-02
 -1      3372 1.74810E-02
 -1      3373 2.06333E-02
 -1      3374 2.66350E-02
 -1      3375 2.23247E-02
 -1      3376 3.39415E-02
 -1      3377 4.19941E-02
 -1      3378 3.35452E-02
 -1      3379 5.19852E-02
 -1      3380 6.23393E-02
 -1      3381 5.08427E-02
 -1      3382 7.53585E-02
 -1      3383 8.90521E-02
 -1      3384 7.38530E-02
 -1      3385 1.05693E-01
 -1      3386 1.23538E-01
 -1      3387 1.03513E-01
 -1      3388 1.44497E-01
 -1      3389 1.66783E-01
 -1      3390 1.41113E-01
 -1      3391 1.92730E-01
 -1      3392 2.19875E-01
 -1      3393 1.88020E-01
 -1      3394 2.51381E-01
 -1      3395 2.83428E-01
 -1      3396 2.45474E-01
 -1      3397 3.20841E-01
 -1      3398 3.57156E-01
 -1      3399 3.14393E-01
 -1      3400 4.00410E-01
 -1      3401 4.39730E-01
 -1      3402 3.95062E-01
 -1      3403 4.88006E-01
 -1      3404 5.42360E-01
 -1      3405 4.86593E-01
 -1      3406 5.93456E-01
 -1      3407 6.56874E-01
 -1      3408 5.85966E-01
 -1      3409 7.32296E-01
 -1      3410 8.01387E-01
 -1      3411 7.12484E-01
 -1      3412 9.07183E-01
 -1      3413 9.93628E-01
 -1      3414 8.93702E-01
 -1      3415 1.17445E+00
 -1      3416 1.28559E+00
 -1      3417 1.18032E+00
 -1      3418 1.50921E+00
 -1      3419 1.70997E+00
 -1      3420 1.58476E+00
 -1      3421 2.42144E+00
 -1      3422 2.59968E+00
 -1      3423 2.51985E+00
 -1      3424 3.36495E+00
 -1      3425 3.70817E+00
 -1      3426 3.99659E+00
 -1      3427 3.83717E+00
 -1      3428 4.07426E+00
 -1      3429 3.72220E+00
 -1      3430 2.30612E-01
 -1      3431 2.46951E-01
 -1      3432 9.35069E-02
 -1      3433 1.04203E-01
 -1      3434 1.13475E-01
 -1      3435 1.25504E-01
 -1      3436 1.05886E-01
 -1      3437 1.34901E-01
 -1      3438 1.47805E-01
 -1      3439 1.24555E-01
 -1      3440 7.57137E-02
 -1      3441 8.49120E-02
 -1      3442 8.80189E-02
 -1      3443 6.03439E-02
 -1      3444 6.80684E-02
 -1      3445 7.17787E-02
 -1      3446 4.73324E-02
 -1      3447 5.37271E-02
 -1      3448 5.75166E-02
 -1      3449 3.65491E-02
 -1      3450 4.16912E-02
 -1      3451 4.52586E-02
 -1      3452 2.79381E-02
 -1      3453 3.17411E-02
 -1      3454 3.48093E-02
 -1      3455 2.06734E-02
 -1      3456 2.37585E-02
 -1      3457 2.58217E-02
 -1      3458 1.39939E-02
 -1      3459 1.68702E-02
 -1      3460 1.78390E-02
 -1      3461 1.54893E-02
 -1      3462 1.44798E-02
 -1      3463 1.45217E-02
 -1      3464 2.44781E-02
 -1      3465 1.88880E-02
 -1      3466 1.84064E-02
 -1      3467 3.95896E-02
 -1      3468 3.16518E-02
 -1      3469 2.89790E-02
 -1      3470 5.91117E-02
 -1      3471 4.89164E-02
 -1      3472 4.54795E-02
 -1      3473 8.48981E-02
 -1      3474 7.17795E-02
 -1      3475 6.74741E-02
 -1      3476 1.18576E-01
 -1      3477 1.01781E-01
 -1      3478 9.70244E-02
 -1      3479 1.61789E-01
 -1      3480 1.40469E-01
 -1      3481 1.35799E-01
 -1      3482 2.18703E-01
 -1      3483 1.89849E-01
 -1      3484 1.85752E-01
 -1      3485 2.92449E-01
 -1      3486 2.54227E-01
 -1      3487 2.49337E-01
 -1      3488 3.84046E-01
 -1      3489 3.36857E-01
 -1      3490 3.29269E-01
 -1      3491 4.95460E-01
 -1      3492 4.38845E-01
 -1      3493 4.28476E-01
 -1      3494 6.27413E-01
 -1      3495 5.62151E-01
 -1      3496 5.49966E-01
 -1      3497 7.79664E-01
 -1      3498 7.07254E-01
 -1      3499 6.96497E-01
 -1      3500 9.72509E-01
 -1      3501 8.73039E-01
 -1      3502 8.69712E-01
 -1      3503 1.19414E+00
 -1      3504 1.07753E+00
 -1      3505 1.06811E+00
 -1      3506 1.51928E+00
 -1      3507 1.36603E+00
 -1      3508 1.34502E+00
 -1      3509 1.97990E+00
 -1      3510 1.79436E+00
 -1      3511 1.79200E+00
 -1      3512 2.76522E+00
 -1      3513 2.49840E+00
 -1      3514 2.58559E+00
 -1      3515 3.79023E+00
 -1      3516 3.19269E+00
 -1      3517 3.53156E+00
 -1      3518 2.46308E-01
 -1      3519 2.56038E-01
 -1      3520 2.07903E-01
 -1      3521 3.14788E-01
 -1      3522 3.22472E-01
 -1      3523 2.87218E-01
 -1      3524 7.89643E+00
 -1      3525 8.09257E+00
 -1      3526 1.81072E-01
 -1      3527 1.95259E-01
 -1      3528 1.56379E-01
 -1      3529 1.69267E-01
 -1      3530 1.42525E-01
 -1      3531 2.05661E-01
 -1      3532 2.24096E-01
 -1      3533 1.85112E-01
 -1      3534 5.23154E+00
 -1      3535 5.94993E+00
 -1      3536 7.14719E+00
 -1      3537 1.74106E-01
 -1      3538 1.69243E-01
 -1      3539 1.90594E-01
 -1      3540 1.07398E+01
 -1      3541 1.01507E+01
 -1      3542 1.93948E-01
 -1      3543 2.42727E-01
 -1      3544 2.17442E-01
 -1      3545 1.93295E-01
 -1      3546 1.44964E-01
 -1      3547 4.89086E+00
 -1      3548 2.29149E-01
 -1      3549 1.59372E-01
 -1      3550 2.29149E-01
 -1      3551 2.02030E-01
 -1      3552 4.44305E+00
 -1      3553 4.61184E+00
 -1      3554 7.69514E+00
 -1      3555 6.46468E+00
 -1      3556 6.38759E+00
 -1      3557 1.62905E-01
 -1      3558 1.87560E-01
 -1      3559 2.26219E-01
 -1      3560 2.84313E-01
 -1      3561 7.09640E+00
 -1      3562 9.95671E+00
 -1      3563 8.47209E+00
 -1      3564 6.03578E+00
 -1      3565 2.02921E-01
 -1      3566 2.22527E-01
 -1      3567 1.44964E-01
 -1      3568 9.69059E+00
 -1      3569 2.52352E-01
 -1      3570 2.52352E-01
 -1      3571 2.16210E-01
 -1      3572 2.52352E-01
 -1      3573 2.48809E-01
 -1      3574 1.47665E-01
 -1      3575 1.41476E-01
 -1      3576 1.54530E-01
 -1      3577 1.48374E-01
 -1      3578 1.52301E-01
 -1      3579 1.29130E-01
 -1      3580 1.58543E-01
 -1      3581 1.54900E-01
 -1      3582 1.29216E-01
 -1      3583 1.54534E-01
 -1      3584 1.46655E-01
 -1      3585 1.35093E-01
 -1      3586 1.42234E-01
 -1      3587 1.32400E-01
 -1      3588 1.30307E-01
 -1      3589 1.25773E-01
 -1      3590 1.17520E-01
 -1      3591 1.19259E-01
 -1      3592 1.09976E-01
 -1      3593 1.01781E-01
 -1      3594 1.05089E-01
 -1      3595 9.55141E-02
 -1      3596 8.72511E-02
 -1      3597 9.12794E-02
 -1      3598 8.08515E-02
 -1      3599 7.30772E-02
 -1      3600 7.86134E-02
 -1      3601 6.69606E-02
 -1      3602 5.99664E-02
 -1      3603 6.60971E-02
 -1      3604 5.44013E-02
 -1      3605 4.82908E-02
 -1      3606 5.44154E-02
 -1      3607 4.33891E-02
 -1      3608 3.81358E-02
 -1      3609 4.39486E-02
 -1      3610 3.38993E-02
 -1      3611 2.93876E-02
 -1      3612 3.48104E-02
 -1      3613 2.57414E-02
 -1      3614 2.17926E-02
 -1      3615 2.69277E-02
 -1      3616 2.04255E-02
 -1      3617 1.85492E-02
 -1      3618 2.19143E-02
 -1      3619 1.92686E-02
 -1      3620 2.01983E-02
 -1      3621 2.12666E-02
 -1      3622 2.19749E-02
 -1      3623 2.58890E-02
 -1      3624 2.37626E-02
 -1      3625 3.07057E-02
 -1      3626 3.80122E-02
 -1      3627 3.03559E-02
 -1      3628 4.65231E-02
 -1      3629 5.65141E-02
 -1      3630 4.36836E-02
 -1      3631 6.75862E-02
 -1      3632 8.06054E-02
 -1      3633 6.32666E-02
 -1      3634 9.48779E-02
 -1      3635 1.11519E-01
 -1      3636 8.86112E-02
 -1      3637 1.29713E-01
 -1      3638 1.50672E-01
 -1      3639 1.21078E-01
 -1      3640 1.73598E-01
 -1      3641 1.99546E-01
 -1      3642 1.62198E-01
 -1      3643 2.28114E-01
 -1      3644 2.59621E-01
 -1      3645 2.13693E-01
 -1      3646 2.94876E-01
 -1      3647 3.32289E-01
 -1      3648 2.77516E-01
 -1      3649 3.75470E-01
 -1      3650 4.18725E-01
 -1      3651 3.55953E-01
 -1      3652 4.71373E-01
 -1      3653 5.19650E-01
 -1      3654 4.51782E-01
 -1      3655 5.83706E-01
 -1      3656 6.34802E-01
 -1      3657 5.68485E-01
 -1      3658 7.12484E-01
 -1      3659 7.87905E-01
 -1      3660 7.10223E-01
 -1      3661 8.80764E-01
 -1      3662 9.86561E-01
 -1      3663 8.80764E-01
 -1      3664 1.14024E+00
 -1      3665 1.32106E+00
 -1      3666 1.12730E+00
 -1      3667 1.62752E+00
 -1      3668 1.85114E+00
 -1      3669 1.58744E+00
 -1      3670 2.14577E+00
 -1      3671 2.85724E+00
 -1      3672 2.18853E+00
 -1      3673 4.66779E+00
 -1      3674 6.51565E-02
 -1      3675 7.28018E-02
 -1      3676 7.96386E-02
 -1      3677 8.82336E-02
 -1      3678 7.30164E-02
 -1      3679 1.11746E-01
 -1      3680 1.21143E-01
 -1      3681 5.23425E-02
 -1      3682 5.89593E-02
 -1      3683 5.99824E-02
 -1      3684 4.12529E-02
 -1      3685 4.68941E-02
 -1      3686 4.83368E-02
 -1      3687 3.17350E-02
 -1      3688 3.65430E-02
 -1      3689 3.81786E-02
 -1      3690 2.34910E-02
 -1      3691 2.76705E-02
 -1      3692 2.94043E-02
 -1      3693 1.63850E-02
 -1      3694 2.01881E-02
 -1      3695 2.20370E-02
 -1      3696 1.73240E-02
 -1      3697 1.68381E-02
 -1      3698 1.91872E-02
 -1      3699 2.21587E-02
 -1      3700 1.87599E-02
 -1      3701 2.10763E-02
 -1      3702 3.42061E-02
 -1      3703 2.70324E-02
 -1      3704 2.73859E-02
 -1      3705 5.17958E-02
 -1      3706 4.24690E-02
 -1      3707 4.05224E-02
 -1      3708 7.55951E-02
 -1      3709 6.29272E-02
 -1      3710 5.99167E-02
 -1      3711 1.06980E-01
 -1      3712 9.00978E-02
 -1      3713 8.55509E-02
 -1      3714 1.47604E-01
 -1      3715 1.25711E-01
 -1      3716 1.18785E-01
 -1      3717 1.99629E-01
 -1      3718 1.71568E-01
 -1      3719 1.61480E-01
 -1      3720 2.65548E-01
 -1      3721 2.30024E-01
 -1      3722 2.15840E-01
 -1      3723 3.48251E-01
 -1      3724 3.03843E-01
 -1      3725 2.84530E-01
 -1      3726 4.51146E-01
 -1      3727 3.96348E-01
 -1      3728 3.70921E-01
 -1      3729 5.78389E-01
 -1      3730 5.11698E-01
 -1      3731 4.79570E-01
 -1      3732 7.35228E-01
 -1      3733 6.55388E-01
 -1      3734 6.17120E-01
 -1      3735 9.28344E-01
 -1      3736 8.34968E-01
 -1      3737 7.93859E-01
 -1      3738 1.16549E+00
 -1      3739 1.06047E+00
 -1      3740 1.02573E+00
 -1      3741 1.51691E+00
 -1      3742 1.34502E+00
 -1      3743 1.33738E+00
 -1      3744 2.03084E+00
 -1      3745 1.75576E+00
 -1      3746 1.75576E+00
 -1      3747 3.03181E+00
 -1      3748 2.51331E+00
 -1      3749 2.47706E+00
 -1      3750 4.55860E+00
 -1      3751 4.13113E+00
 -1      3752 4.05885E+00
 -1      3753 1.28963E-01
 -1      3754 1.37537E-01
 -1      3755 1.16155E-01
 -1      3756 1.59899E-01
 -1      3757 1.46588E-01
 -1      3758 1.76420E-01
 -1      3759 1.75777E-01
 -1      3760 1.28417E-01
 -1      3761 2.56364E-01
 -1      3762 2.18359E-01
 -1      3763 7.67082E+00
 -1      3764 8.13089E+00
 -1      3765 1.45471E-01
 -1      3766 1.57277E-01
 -1      3767 1.31909E-01
 -1      3768 9.54307E-02
 -1      3769 1.04703E-01
 -1      3770 8.70504E-02
 -1      3771 1.75175E-01
 -1      3772 1.81691E-01
 -1      3773 1.49565E-01
 -1      3774 4.87556E+00
 -1      3775 5.62480E+00
 -1      3776 1.63087E-01
 -1      3777 1.73489E-01
 -1      3778 1.53150E-01
 -1      3779 1.45654E-01
 -1      3780 2.41740E-01
 -1      3781 2.45918E-01
 -1      3782 2.09776E-01
 -1      3783 1.84129E-01
 -1      3784 5.15319E+00
 -1      3785 1.72776E-01
 -1      3786 1.41896E-01
 -1      3787 1.34035E-01
 -1      3788 1.53249E-01
 -1      3789 1.07847E-01
 -1      3790 2.48502E-01
 -1      3791 2.51407E-01
 -1      3792 1.93338E-01
 -1      3793 2.15903E-01
 -1      3794 8.47209E+00
 -1      3795 8.47209E+00
 -1      3796 1.59372E-01
 -1      3797 1.59372E-01
 -1      3798 1.53183E-01
 -1      3799 1.71079E-01
 -1      3800 5.02420E+00
 -1      3801 4.61322E+00
 -1      3802 7.42438E+00
 -1      3803 5.40461E+00
 -1      3804 3.84795E+00
 -1      3805 7.25360E+00
 -1      3806 4.14709E+00
 -1      3807 5.30731E+00
 -1      3808 4.90988E+00
 -1      3809 1.01291E-01
 -1      3810 5.54185E+00
 -1      3811 6.01637E+00
 -1      3812 6.17357E+00
 -1      3813 5.45786E+00
 -1      3814 3.47387E+00
 -1      3815 1.55063E-01
 -1      3816 1.61497E-01
 -1      3817 1.04970E-01
 -1      3818 1.64290E-01
 -1      3819 1.64290E-01
 -1      3820 1.09577E-01
 -1      3821 6.20588E+00
 -1      3822 1.06084E-01
 -1      3823 1.12327E-01
 -1      3824 1.18396E-01
 -1      3825 1.18031E-01
 -1      3826 9.52649E-02
 -1      3827 1.18749E-01
 -1      3828 1.14328E-01
 -1      3829 1.02053E-01
 -1      3830 1.11635E-01
 -1      3831 1.05008E-01
 -1      3832 1.00077E-01
 -1      3833 1.00353E-01
 -1      3834 9.28099E-02
 -1      3835 9.27287E-02
 -1      3836 8.72330E-02
 -1      3837 8.09666E-02
 -1      3838 8.24971E-02
 -1      3839 7.51783E-02
 -1      3840 6.87786E-02
 -1      3841 7.11318E-02
 -1      3842 6.34062E-02
 -1      3843 5.72896E-02
 -1      3844 5.99711E-02
 -1      3845 5.26728E-02
 -1      3846 4.71077E-02
 -1      3847 4.99820E-02
 -1      3848 4.29386E-02
 -1      3849 3.80369E-02
 -1      3850 4.11960E-02
 -1      3851 3.44081E-02
 -1      3852 3.01715E-02
 -1      3853 3.33980E-02
 -1      3854 2.74146E-02
 -1      3855 2.37684E-02
 -1      3856 2.70122E-02
 -1      3857 2.31339E-02
 -1      3858 2.17668E-02
 -1      3859 2.36208E-02
 -1      3860 2.21389E-02
 -1      3861 2.28583E-02
 -1      3862 2.33585E-02
 -1      3863 2.43505E-02
 -1      3864 2.61271E-02
 -1      3865 2.52228E-02
 -1      3866 2.88753E-02
 -1      3867 3.36920E-02
 -1      3868 2.94632E-02
 -1      3869 3.85925E-02
 -1      3870 4.71034E-02
 -1      3871 3.71119E-02
 -1      3872 5.47105E-02
 -1      3873 6.57826E-02
 -1      3874 4.96194E-02
 -1      3875 7.68629E-02
 -1      3876 9.11354E-02
 -1      3877 6.83068E-02
 -1      3878 1.05463E-01
 -1      3879 1.23658E-01
 -1      3880 9.37152E-02
 -1      3881 1.42020E-01
 -1      3882 1.64946E-01
 -1      3883 1.26405E-01
 -1      3884 1.88321E-01
 -1      3885 2.16889E-01
 -1      3886 1.68142E-01
 -1      3887 2.46554E-01
 -1      3888 2.81809E-01
 -1      3889 2.21182E-01
 -1      3890 3.19535E-01
 -1      3891 3.62716E-01
 -1      3892 2.88573E-01
 -1      3893 4.11130E-01
 -1      3894 4.63777E-01
 -1      3895 3.74712E-01
 -1      3896 5.27002E-01
 -1      3897 5.91057E-01
 -1      3898 4.86349E-01
 -1      3899 6.75813E-01
 -1      3900 7.53495E-01
 -1      3901 6.34330E-01
 -1      3902 8.70584E-01
 -1      3903 9.63443E-01
 -1      3904 8.36174E-01
 -1      3905 1.12730E+00
 -1      3906 1.28098E+00
 -1      3907 1.11712E+00
 -1      3908 1.51281E+00
 -1      3909 1.81928E+00
 -1      3910 1.51281E+00
 -1      3911 2.07265E+00
 -1      3912 2.36728E+00
 -1      3913 1.99802E+00
 -1      3914 4.25701E-02
 -1      3915 4.80185E-02
 -1      3916 3.36426E-02
 -1      3917 3.83525E-02
 -1      3918 3.80342E-02
 -1      3919 5.28219E-02
 -1      3920 5.90191E-02
 -1      3921 4.70552E-02
 -1      3922 2.59534E-02
 -1      3923 3.00179E-02
 -1      3924 3.01918E-02
 -1      3925 2.04741E-02
 -1      3926 2.37769E-02
 -1      3927 2.43905E-02
 -1      3928 2.09257E-02
 -1      3929 2.04726E-02
 -1      3930 2.22126E-02
 -1      3931 2.34037E-02
 -1      3932 2.19677E-02
 -1      3933 2.32531E-02
 -1      3934 3.04973E-02
 -1      3935 2.56236E-02
 -1      3936 2.65151E-02
 -1      3937 4.40234E-02
 -1      3938 3.57605E-02
 -1      3939 3.39983E-02
 -1      3940 6.38639E-02
 -1      3941 5.27324E-02
 -1      3942 4.79705E-02
 -1      3943 8.97106E-02
 -1      3944 7.52079E-02
 -1      3945 6.80236E-02
 -1      3946 1.23069E-01
 -1      3947 1.04338E-01
 -1      3948 9.39953E-02
 -1      3949 1.65707E-01
 -1      3950 1.41742E-01
 -1      3951 1.27295E-01
 -1      3952 2.19734E-01
 -1      3953 1.89339E-01
 -1      3954 1.69600E-01
 -1      3955 2.87776E-01
 -1      3956 2.49482E-01
 -1      3957 2.22981E-01
 -1      3958 3.73316E-01
 -1      3959 3.25219E-01
 -1      3960 2.90171E-01
 -1      3961 4.81389E-01
 -1      3962 4.20837E-01
 -1      3963 3.75135E-01
 -1      3964 6.19959E-01
 -1      3965 5.42960E-01
 -1      3966 4.84227E-01
 -1      3967 8.02506E-01
 -1      3968 7.02766E-01
 -1      3969 6.28605E-01
 -1      3970 1.05257E+00
 -1      3971 9.20441E-01
 -1      3972 8.29348E-01
 -1      3973 1.40988E+00
 -1      3974 1.23035E+00
 -1      3975 1.12507E+00
 -1      3976 1.91927E+00
 -1      3977 1.68043E+00
 -1      3978 1.57340E+00
 -1      3979 2.75449E+00
 -1      3980 2.27203E+00
 -1      3981 2.19670E+00
 -1      3982 4.45362E+00
 -1      3983 3.35430E+00
 -1      3984 3.14926E+00
 -1      3985 5.50133E+00
 -1      3986 1.03603E-01
 -1      3987 1.11423E-01
 -1      3988 1.25539E-01
 -1      3989 1.09662E-01
 -1      3990 9.01392E-02
 -1      3991 9.71827E-02
 -1      3992 9.24508E-02
 -1      3993 1.16930E-01
 -1      3994 1.24864E-01
 -1      3995 1.04378E-01
 -1      3996 3.15638E+00
 -1      3997 6.43072E-02
 -1      3998 7.11440E-02
 -1      3999 5.71467E-02
 -1      4000 7.66818E-02
 -1      4001 8.38790E-02
 -1      4002 6.79725E-02
 -1      4003 6.04757E+00
 -1      4004 6.04757E+00
 -1      4005 4.29530E+00
 -1      4006 4.96754E+00
 -1      4007 1.29250E-01
 -1      4008 1.23979E-01
 -1      4009 1.05224E-01
 -1      4010 1.36602E-01
 -1      4011 1.30445E-01
 -1      4012 1.13556E-01
 -1      4013 7.97706E-02
 -1      4014 4.85684E+00
 -1      4015 4.40853E+00
 -1      4016 3.77656E+00
 -1      4017 1.13283E-01
 -1      4018 1.28263E-01
 -1      4019 1.34073E-01
 -1      4020 1.35445E-01
 -1      4021 1.09858E-01
 -1      4022 1.33759E-01
 -1      4023 1.26531E-01
 -1      4024 1.78451E-01
 -1      4025 1.78144E-01
 -1      4026 1.93338E-01
 -1      4027 1.71079E-01
 -1      4028 1.71079E-01
 -1      4029 1.55886E-01
 -1      4030 1.08560E-01
 -1      4031 1.11352E-01
 -1      4032 3.04050E+00
 -1      4033 1.54498E-01
 -1      4034 1.06784E-01
 -1      4035 1.08560E-01
 -1      4036 1.04970E-01
 -1      4037 2.96926E-02
 -1      4038 3.33174E-02
 -1      4039 9.21238E-02
 -1      4040 9.28417E-02
 -1      4041 9.46579E-02
 -1      4042 9.19644E-02
 -1      4043 8.47292E-02
 -1      4044 9.04544E-02
 -1      4045 8.57997E-02
 -1      4046 8.50354E-02
 -1      4047 8.23976E-02
 -1      4048 7.68207E-02
 -1      4049 8.01234E-02
 -1      4050 7.23697E-02
 -1      4051 6.65814E-02
 -1      4052 7.22703E-02
 -1      4053 6.17735E-02
 -1      4054 5.64012E-02
 -1      4055 6.30114E-02
 -1      4056 5.17075E-02
 -1      4057 4.70907E-02
 -1      4058 5.35099E-02
 -1      4059 4.28047E-02
 -1      4060 3.86355E-02
 -1      4061 4.45303E-02
 -1      4062 3.49225E-02
 -1      4063 3.12937E-02
 -1      4064 3.65313E-02
 -1      4065 2.85529E-02
 -1      4066 2.57959E-02
 -1      4067 3.00774E-02
 -1      4068 2.42552E-02
 -1      4069 2.36208E-02
 -1      4070 2.57959E-02
 -1      4071 2.33585E-02
 -1      4072 2.37307E-02
 -1      4073 2.39929E-02
 -1      4074 2.52228E-02
 -1      4075 2.67150E-02
 -1      4076 2.52228E-02
 -1      4077 2.94632E-02
 -1      4078 3.22114E-02
 -1      4079 2.94632E-02
 -1      4080 3.71119E-02
 -1      4081 4.20123E-02
 -1      4082 3.71119E-02
 -1      4083 4.88429E-02
 -1      4084 5.64500E-02
 -1      4085 4.88429E-02
 -1      4086 6.55372E-02
 -1      4087 7.66175E-02
 -1      4088 6.47607E-02
 -1      4089 8.90281E-02
 -1      4090 1.03356E-01
 -1      4091 8.62585E-02
 -1      4092 1.19722E-01
 -1      4093 1.38084E-01
 -1      4094 1.15035E-01
 -1      4095 1.59198E-01
 -1      4096 1.82573E-01
 -1      4097 1.52515E-01
 -1      4098 2.09852E-01
 -1      4099 2.39517E-01
 -1      4100 2.00908E-01
 -1      4101 2.75073E-01
 -1      4102 3.12799E-01
 -1      4103 2.63743E-01
 -1      4104 3.59974E-01
 -1      4105 4.08388E-01
 -1      4106 3.46474E-01
 -1      4107 4.72727E-01
 -1      4108 5.35951E-01
 -1      4109 4.57989E-01
 -1      4110 6.26946E-01
 -1      4111 7.11702E-01
 -1      4112 6.13324E-01
 -1      4113 8.45598E-01
 -1      4114 9.62686E-01
 -1      4115 8.38215E-01
 -1      4116 1.16440E+00
 -1      4117 1.32826E+00
 -1      4118 1.17382E+00
 -1      4119 1.61906E+00
 -1      4120 1.85089E+00
 -1      4121 1.66634E+00
 -1      4122 1.92840E+00
 -1      4123 2.18178E+00
 -1      4124 2.03465E+00
 -1      4125 3.70304E-02
 -1      4126 4.12481E-02
 -1      4127 3.65313E-02
 -1      4128 4.55341E-02
 -1      4129 5.03374E-02
 -1      4130 4.45303E-02
 -1      4131 2.22539E-02
 -1      4132 2.22553E-02
 -1      4133 2.42951E-02
 -1      4134 2.32531E-02
 -1      4135 2.32959E-02
 -1      4136 2.87350E-02
 -1      4137 2.65151E-02
 -1      4138 2.65151E-02
 -1      4139 3.80689E-02
 -1      4140 3.28057E-02
 -1      4141 3.28057E-02
 -1      4142 5.28402E-02
 -1      4143 4.41311E-02
 -1      4144 4.29385E-02
 -1      4145 7.24197E-02
 -1      4146 6.10757E-02
 -1      4147 5.72363E-02
 -1      4148 9.78833E-02
 -1      4149 8.32557E-02
 -1      4150 7.63077E-02
 -1      4151 1.30497E-01
 -1      4152 1.11825E-01
 -1      4153 1.01085E-01
 -1      4154 1.71802E-01
 -1      4155 1.48169E-01
 -1      4156 1.32699E-01
 -1      4157 2.24001E-01
 -1      4158 1.94253E-01
 -1      4159 1.72822E-01
 -1      4160 2.89521E-01
 -1      4161 2.52078E-01
 -1      4162 2.23351E-01
 -1      4163 3.72231E-01
 -1      4164 3.24710E-01
 -1      4165 2.86617E-01
 -1      4166 4.78463E-01
 -1      4167 4.16892E-01
 -1      4168 3.66466E-01
 -1      4169 6.19517E-01
 -1      4170 5.36711E-01
 -1      4171 4.69375E-01
 -1      4172 8.25801E-01
 -1      4173 7.07866E-01
 -1      4174 6.15971E-01
 -1      4175 1.13748E+00
 -1      4176 9.59696E-01
 -1      4177 8.38215E-01
 -1      4178 1.60974E+00
 -1      4179 1.33919E+00
 -1      4180 1.17382E+00
 -1      4181 2.33081E+00
 -1      4182 1.97805E+00
 -1      4183 1.74385E+00
 -1      4184 3.08194E+00
 -1      4185 2.48214E+00
 -1      4186 2.26349E+00
 -1      4187 3.62818E+00
 -1      4188 1.02472E-01
 -1      4189 7.81110E-02
 -1      4190 8.45892E-02
 -1      4191 8.61498E-02
 -1      4192 8.79252E-02
 -1      4193 4.80504E+00
 -1      4194 8.47781E-02
 -1      4195 9.11980E-02
 -1      4196 9.27080E-02
 -1      4197 9.82149E-02
 -1      4198 8.50354E-02
 -1      4199 2.44550E-02
 -1      4200 2.66315E-02
 -1      4201 2.44963E-02
 -1      4202 5.50311E-02
 -1      4203 6.03191E-02
 -1      4204 5.35099E-02
 -1      4205 2.98746E+00
 -1      4206 6.51270E-02
 -1      4207 7.06648E-02
 -1      4208 6.30114E-02
 -1      4209 7.99900E-02
 -1      4210 8.60597E-02
 -1      4211 6.89058E-02
 -1      4212 1.25514E-01
 -1      4213 1.26531E-01
 -1      4214 7.51158E-02
 -1      4215 8.13761E-02
 -1      4216 7.22703E-02
 -1      4217 2.97571E-02
 -1      4218 2.91784E+00
 -1      4219 7.68489E-02
 -1      4220 1.40692E-01
 -1      4221 9.90453E-02
 -1      4222 1.02444E-01
 -1      4223 8.73758E-02
 -1      4224 1.39305E-01
 -1      4225 1.03860E-01
 -1      4226 9.32265E-02
 -1      4227 7.41527E-02
 -1      4228 9.94220E-02
 -1      4229 1.16368E-01
 -1      4230 1.03104E-01
 -1      4231 8.01234E-02
 -1      4232 3.57755E+00
 -1      4233 4.26256E+00
 -1      4234 4.13656E+00
 -1      4235 2.77187E+00
 -1      4236 1.54498E-01
 -1      4237 1.55886E-01
 -1      4238 8.65454E-02
 -1      4239 8.50354E-02
 -1      4240 8.35254E-02
 -1      4241 8.01234E-02
 -1      4242 7.67213E-02
 -1      4243 7.22703E-02
 -1      4244 6.78193E-02
 -1      4245 6.30114E-02
 -1      4246 5.82035E-02
 -1      4247 5.35099E-02
 -1      4248 4.88162E-02
 -1      4249 4.45303E-02
 -1      4250 4.02443E-02
 -1      4251 3.65313E-02
 -1      4252 3.28182E-02
 -1      4253 3.00774E-02
 -1      4254 2.70163E-02
 -1      4255 2.54756E-02
 -1      4256 2.32759E-02
 -1      4257 2.30137E-02
 -1      4258 2.40129E-02
 -1      4259 2.55051E-02
 -1      4260 2.77250E-02
 -1      4261 3.04732E-02
 -1      4262 3.45438E-02
 -1      4263 3.94443E-02
 -1      4264 4.55065E-02
 -1      4265 5.23371E-02
 -1      4266 6.05726E-02
 -1      4267 6.96598E-02
 -1      4268 8.04958E-02
 -1      4269 9.29065E-02
 -1      4270 1.06848E-01
 -1      4271 1.23214E-01
 -1      4272 1.40886E-01
 -1      4273 1.62000E-01
 -1      4274 1.84452E-01
 -1      4275 2.11730E-01
 -1      4276 2.39807E-01
 -1      4277 2.75363E-01
 -1      4278 3.10552E-01
 -1      4279 3.57728E-01
 -1      4280 4.02389E-01
 -1      4281 4.66728E-01
 -1      4282 5.24976E-01
 -1      4283 6.15971E-01
 -1      4284 7.04319E-01
 -1      4285 8.38215E-01
 -1      4286 9.72110E-01
 -1      4287 1.17382E+00
 -1      4288 1.37554E+00
 -1      4289 1.66634E+00
 -1      4290 2.03465E+00
 -1      4291 2.11216E+00
 -1      4292 8.73758E-02
 -1      4293 1.40692E-01
 -1      4294 9.97977E-02
 -1      4295 9.94834E-02
 -1      4296 8.28515E-02
 -1      4297 8.55596E-02
 -1      4298 8.55596E-02
 -1      4299 1.40692E-01
 -1      4300 7.49084E-02
 -1      4301 7.67874E-02
 -1      4302 7.68489E-02
 -1      4303 8.29130E-02
 -1      4304 1.03860E-01
 -1      4305 1.11741E-01
 -1      4306 2.77187E+00
 -1      4307 8.27901E-02
 -1      4308 7.41527E-02
 -1      4309 8.28515E-02
 -1      4310 2.92320E+00
 -3
 9999
