    1C
    1UUSER                                                              
    1UDATE              27.october.2022                                 
    1UTIME              00:16:38                                        
    1UHOST                                                              
    1UPGM               CalculiX                                        
    1UVERSION           Version 2.17                             
    1UCOMPILETIME       Thu Jul 23 21:43:50 CEST 2020                    
    1UDIR                                                               
    1UDBN                                                               
    1UMAT    1SOLIDMATERIAL                                             
    2C                          4249                                     1
 -1         1 3.61987E+01 3.58634E+01 0.00000E+00
 -1         2 4.31621E+01 2.88635E+01 0.00000E+00
 -1         3 1.50000E+02 0.00000E+00 0.00000E+00
 -1         4 1.50000E+02 5.00000E+01 0.00000E+00
 -1         5 0.00000E+00 0.00000E+00 0.00000E+00
 -1         6 0.00000E+00 5.00000E+01 0.00000E+00
 -1         7 0.00000E+00 4.70500E+01 0.00000E+00
 -1         8 0.00000E+00 4.41000E+01 0.00000E+00
 -1         9 0.00000E+00 4.11500E+01 0.00000E+00
 -1        10 0.00000E+00 3.82000E+01 0.00000E+00
 -1        11 0.00000E+00 3.52500E+01 0.00000E+00
 -1        12 0.00000E+00 3.23500E+01 0.00000E+00
 -1        13 0.00000E+00 2.94000E+01 0.00000E+00
 -1        14 0.00000E+00 2.64500E+01 0.00000E+00
 -1        15 0.00000E+00 2.35000E+01 0.00000E+00
 -1        16 0.00000E+00 2.05500E+01 0.00000E+00
 -1        17 0.00000E+00 1.76000E+01 0.00000E+00
 -1        18 0.00000E+00 1.47000E+01 0.00000E+00
 -1        19 0.00000E+00 1.17500E+01 0.00000E+00
 -1        20 0.00000E+00 8.80000E+00 0.00000E+00
 -1        21 0.00000E+00 5.85000E+00 0.00000E+00
 -1        22 0.00000E+00 2.90000E+00 0.00000E+00
 -1        23 3.15000E+00 5.00000E+01 0.00000E+00
 -1        24 6.15000E+00 5.00000E+01 0.00000E+00
 -1        25 9.15000E+00 5.00000E+01 0.00000E+00
 -1        26 1.21500E+01 5.00000E+01 0.00000E+00
 -1        27 1.51500E+01 5.00000E+01 0.00000E+00
 -1        28 1.81500E+01 5.00000E+01 0.00000E+00
 -1        29 2.11500E+01 5.00000E+01 0.00000E+00
 -1        30 2.41500E+01 5.00000E+01 0.00000E+00
 -1        31 2.71500E+01 5.00000E+01 0.00000E+00
 -1        32 3.01500E+01 5.00000E+01 0.00000E+00
 -1        33 3.31500E+01 5.00000E+01 0.00000E+00
 -1        34 3.61500E+01 5.00000E+01 0.00000E+00
 -1        35 3.90000E+01 5.00000E+01 0.00000E+00
 -1        36 4.20000E+01 5.00000E+01 0.00000E+00
 -1        37 4.50000E+01 5.00000E+01 0.00000E+00
 -1        38 4.80000E+01 5.00000E+01 0.00000E+00
 -1        39 5.10000E+01 5.00000E+01 0.00000E+00
 -1        40 5.40000E+01 5.00000E+01 0.00000E+00
 -1        41 5.70000E+01 5.00000E+01 0.00000E+00
 -1        42 6.00000E+01 5.00000E+01 0.00000E+00
 -1        43 6.30000E+01 5.00000E+01 0.00000E+00
 -1        44 6.60000E+01 5.00000E+01 0.00000E+00
 -1        45 6.90000E+01 5.00000E+01 0.00000E+00
 -1        46 7.20000E+01 5.00000E+01 0.00000E+00
 -1        47 7.50000E+01 5.00000E+01 0.00000E+00
 -1        48 7.80000E+01 5.00000E+01 0.00000E+00
 -1        49 8.10000E+01 5.00000E+01 0.00000E+00
 -1        50 8.40000E+01 5.00000E+01 0.00000E+00
 -1        51 8.70000E+01 5.00000E+01 0.00000E+00
 -1        52 9.00000E+01 5.00000E+01 0.00000E+00
 -1        53 9.30000E+01 5.00000E+01 0.00000E+00
 -1        54 9.60000E+01 5.00000E+01 0.00000E+00
 -1        55 9.90000E+01 5.00000E+01 0.00000E+00
 -1        56 1.02000E+02 5.00000E+01 0.00000E+00
 -1        57 1.05000E+02 5.00000E+01 0.00000E+00
 -1        58 1.08000E+02 5.00000E+01 0.00000E+00
 -1        59 1.11000E+02 5.00000E+01 0.00000E+00
 -1        60 1.14000E+02 5.00000E+01 0.00000E+00
 -1        61 1.17000E+02 5.00000E+01 0.00000E+00
 -1        62 1.20000E+02 5.00000E+01 0.00000E+00
 -1        63 1.23000E+02 5.00000E+01 0.00000E+00
 -1        64 1.26000E+02 5.00000E+01 0.00000E+00
 -1        65 1.29000E+02 5.00000E+01 0.00000E+00
 -1        66 1.32000E+02 5.00000E+01 0.00000E+00
 -1        67 1.35000E+02 5.00000E+01 0.00000E+00
 -1        68 1.38000E+02 5.00000E+01 0.00000E+00
 -1        69 1.41000E+02 5.00000E+01 0.00000E+00
 -1        70 1.44000E+02 5.00000E+01 0.00000E+00
 -1        71 1.47000E+02 5.00000E+01 0.00000E+00
 -1        72 3.15000E+00 0.00000E+00 0.00000E+00
 -1        73 6.15000E+00 0.00000E+00 0.00000E+00
 -1        74 9.15000E+00 0.00000E+00 0.00000E+00
 -1        75 1.21500E+01 0.00000E+00 0.00000E+00
 -1        76 1.51500E+01 0.00000E+00 0.00000E+00
 -1        77 1.81500E+01 0.00000E+00 0.00000E+00
 -1        78 2.11500E+01 0.00000E+00 0.00000E+00
 -1        79 2.41500E+01 0.00000E+00 0.00000E+00
 -1        80 2.71500E+01 0.00000E+00 0.00000E+00
 -1        81 3.01500E+01 0.00000E+00 0.00000E+00
 -1        82 3.31500E+01 0.00000E+00 0.00000E+00
 -1        83 3.61500E+01 0.00000E+00 0.00000E+00
 -1        84 3.91500E+01 0.00000E+00 0.00000E+00
 -1        85 4.21500E+01 0.00000E+00 0.00000E+00
 -1        86 4.51500E+01 0.00000E+00 0.00000E+00
 -1        87 4.81500E+01 0.00000E+00 0.00000E+00
 -1        88 5.11500E+01 0.00000E+00 0.00000E+00
 -1        89 5.41500E+01 0.00000E+00 0.00000E+00
 -1        90 5.71500E+01 0.00000E+00 0.00000E+00
 -1        91 6.01500E+01 0.00000E+00 0.00000E+00
 -1        92 6.31500E+01 0.00000E+00 0.00000E+00
 -1        93 6.61500E+01 0.00000E+00 0.00000E+00
 -1        94 6.91500E+01 0.00000E+00 0.00000E+00
 -1        95 7.21500E+01 0.00000E+00 0.00000E+00
 -1        96 7.51500E+01 0.00000E+00 0.00000E+00
 -1        97 7.81500E+01 0.00000E+00 0.00000E+00
 -1        98 8.11500E+01 0.00000E+00 0.00000E+00
 -1        99 8.41500E+01 0.00000E+00 0.00000E+00
 -1       100 8.71500E+01 0.00000E+00 0.00000E+00
 -1       101 9.01500E+01 0.00000E+00 0.00000E+00
 -1       102 9.31500E+01 0.00000E+00 0.00000E+00
 -1       103 9.61500E+01 0.00000E+00 0.00000E+00
 -1       104 9.91500E+01 0.00000E+00 0.00000E+00
 -1       105 1.02150E+02 0.00000E+00 0.00000E+00
 -1       106 1.05150E+02 0.00000E+00 0.00000E+00
 -1       107 1.08150E+02 0.00000E+00 0.00000E+00
 -1       108 1.11150E+02 0.00000E+00 0.00000E+00
 -1       109 1.14150E+02 0.00000E+00 0.00000E+00
 -1       110 1.17150E+02 0.00000E+00 0.00000E+00
 -1       111 1.20150E+02 0.00000E+00 0.00000E+00
 -1       112 1.23150E+02 0.00000E+00 0.00000E+00
 -1       113 1.26150E+02 0.00000E+00 0.00000E+00
 -1       114 1.29150E+02 0.00000E+00 0.00000E+00
 -1       115 1.32150E+02 0.00000E+00 0.00000E+00
 -1       116 1.35150E+02 0.00000E+00 0.00000E+00
 -1       117 1.38150E+02 0.00000E+00 0.00000E+00
 -1       118 1.41150E+02 0.00000E+00 0.00000E+00
 -1       119 1.44150E+02 0.00000E+00 0.00000E+00
 -1       120 1.47150E+02 0.00000E+00 0.00000E+00
 -1       121 1.50000E+02 2.95000E+00 0.00000E+00
 -1       122 1.50000E+02 5.90000E+00 0.00000E+00
 -1       123 1.50000E+02 8.85000E+00 0.00000E+00
 -1       124 1.50000E+02 1.18000E+01 0.00000E+00
 -1       125 1.50000E+02 1.47500E+01 0.00000E+00
 -1       126 1.50000E+02 1.76500E+01 0.00000E+00
 -1       127 1.50000E+02 2.06000E+01 0.00000E+00
 -1       128 1.50000E+02 2.35500E+01 0.00000E+00
 -1       129 1.50000E+02 2.65000E+01 0.00000E+00
 -1       130 1.50000E+02 2.94500E+01 0.00000E+00
 -1       131 1.50000E+02 3.24000E+01 0.00000E+00
 -1       132 1.50000E+02 3.53000E+01 0.00000E+00
 -1       133 1.50000E+02 3.82500E+01 0.00000E+00
 -1       134 1.50000E+02 4.12000E+01 0.00000E+00
 -1       135 1.50000E+02 4.41500E+01 0.00000E+00
 -1       136 1.50000E+02 4.71000E+01 0.00000E+00
 -1       137 4.30113E+01 2.74188E+01 0.00000E+00
 -1       138 4.25407E+01 2.59804E+01 0.00000E+00
 -1       139 4.18236E+01 2.47468E+01 0.00000E+00
 -1       140 4.07557E+01 2.35816E+01 0.00000E+00
 -1       141 3.95934E+01 2.27622E+01 0.00000E+00
 -1       142 3.81538E+01 2.21528E+01 0.00000E+00
 -1       143 3.67260E+01 2.18863E+01 0.00000E+00
 -1       144 3.51721E+01 2.19339E+01 0.00000E+00
 -1       145 3.36374E+01 2.23346E+01 0.00000E+00
 -1       146 3.23417E+01 2.29979E+01 0.00000E+00
 -1       147 3.12333E+01 2.38928E+01 0.00000E+00
 -1       148 3.02600E+01 2.50998E+01 0.00000E+00
 -1       149 2.96158E+01 2.63842E+01 0.00000E+00
 -1       150 2.92296E+01 2.78933E+01 0.00000E+00
 -1       151 2.91848E+01 2.94269E+01 0.00000E+00
 -1       152 2.94537E+01 3.08631E+01 0.00000E+00
 -1       153 2.99931E+01 3.21717E+01 0.00000E+00
 -1       154 3.08504E+01 3.34227E+01 0.00000E+00
 -1       155 3.19337E+01 3.44421E+01 0.00000E+00
 -1       156 3.32824E+01 3.52437E+01 0.00000E+00
 -1       157 3.47738E+01 3.57245E+01 0.00000E+00
 -1       158 3.77161E+01 3.56888E+01 0.00000E+00
 -1       159 3.91250E+01 3.52055E+01 0.00000E+00
 -1       160 4.04698E+01 3.43810E+01 0.00000E+00
 -1       161 4.15912E+01 3.32822E+01 0.00000E+00
 -1       162 4.24742E+01 3.18895E+01 0.00000E+00
 -1       163 4.29921E+01 3.03966E+01 0.00000E+00
 -1       164 2.59800E+00 4.55750E+01 0.00000E+00
 -1       165 2.59800E+00 4.26250E+01 0.00000E+00
 -1       166 2.59800E+00 3.96750E+01 0.00000E+00
 -1       167 2.59800E+00 3.67250E+01 0.00000E+00
 -1       168 2.59800E+00 3.38250E+01 0.00000E+00
 -1       169 2.59800E+00 3.08750E+01 0.00000E+00
 -1       170 2.59800E+00 2.79250E+01 0.00000E+00
 -1       171 2.59800E+00 2.49750E+01 0.00000E+00
 -1       172 2.59800E+00 2.20250E+01 0.00000E+00
 -1       173 2.59800E+00 1.90750E+01 0.00000E+00
 -1       174 2.59800E+00 1.61750E+01 0.00000E+00
 -1       175 2.59800E+00 1.32250E+01 0.00000E+00
 -1       176 2.59800E+00 1.02750E+01 0.00000E+00
 -1       177 2.59800E+00 7.32500E+00 0.00000E+00
 -1       178 2.59800E+00 4.37500E+00 0.00000E+00
 -1       179 2.87400E+00 2.18750E+00 0.00000E+00
 -1       180 4.65000E+00 4.74020E+01 0.00000E+00
 -1       181 7.65000E+00 4.74020E+01 0.00000E+00
 -1       182 1.06500E+01 4.74020E+01 0.00000E+00
 -1       183 1.36500E+01 4.74020E+01 0.00000E+00
 -1       184 1.66500E+01 4.74020E+01 0.00000E+00
 -1       185 1.96500E+01 4.74020E+01 0.00000E+00
 -1       186 2.26500E+01 4.74020E+01 0.00000E+00
 -1       187 2.56500E+01 4.74020E+01 0.00000E+00
 -1       188 2.86500E+01 4.74020E+01 0.00000E+00
 -1       189 3.16500E+01 4.74020E+01 0.00000E+00
 -1       190 3.46500E+01 4.74020E+01 0.00000E+00
 -1       191 3.75000E+01 4.74020E+01 0.00000E+00
 -1       192 4.05000E+01 4.74020E+01 0.00000E+00
 -1       193 4.35000E+01 4.74020E+01 0.00000E+00
 -1       194 4.65000E+01 4.74020E+01 0.00000E+00
 -1       195 4.95000E+01 4.74020E+01 0.00000E+00
 -1       196 5.25000E+01 4.74020E+01 0.00000E+00
 -1       197 5.55000E+01 4.74020E+01 0.00000E+00
 -1       198 5.85000E+01 4.74020E+01 0.00000E+00
 -1       199 6.15000E+01 4.74020E+01 0.00000E+00
 -1       200 6.45000E+01 4.74020E+01 0.00000E+00
 -1       201 6.75000E+01 4.74020E+01 0.00000E+00
 -1       202 7.05000E+01 4.74020E+01 0.00000E+00
 -1       203 7.35000E+01 4.74020E+01 0.00000E+00
 -1       204 7.65000E+01 4.74020E+01 0.00000E+00
 -1       205 7.95000E+01 4.74020E+01 0.00000E+00
 -1       206 8.25000E+01 4.74020E+01 0.00000E+00
 -1       207 8.55000E+01 4.74020E+01 0.00000E+00
 -1       208 8.85000E+01 4.74020E+01 0.00000E+00
 -1       209 9.15000E+01 4.74020E+01 0.00000E+00
 -1       210 9.45000E+01 4.74020E+01 0.00000E+00
 -1       211 9.75000E+01 4.74020E+01 0.00000E+00
 -1       212 1.00500E+02 4.74020E+01 0.00000E+00
 -1       213 1.03500E+02 4.74020E+01 0.00000E+00
 -1       214 1.06500E+02 4.74020E+01 0.00000E+00
 -1       215 1.09500E+02 4.74020E+01 0.00000E+00
 -1       216 1.12500E+02 4.74020E+01 0.00000E+00
 -1       217 1.15500E+02 4.74020E+01 0.00000E+00
 -1       218 1.18500E+02 4.74020E+01 0.00000E+00
 -1       219 1.21500E+02 4.74020E+01 0.00000E+00
 -1       220 1.24500E+02 4.74020E+01 0.00000E+00
 -1       221 1.27500E+02 4.74020E+01 0.00000E+00
 -1       222 1.30500E+02 4.74020E+01 0.00000E+00
 -1       223 1.33500E+02 4.74020E+01 0.00000E+00
 -1       224 1.36500E+02 4.74020E+01 0.00000E+00
 -1       225 1.39500E+02 4.74020E+01 0.00000E+00
 -1       226 1.42500E+02 4.74020E+01 0.00000E+00
 -1       227 1.45500E+02 4.74020E+01 0.00000E+00
 -1       228 1.47750E+02 4.72510E+01 0.00000E+00
 -1       229 5.87400E+00 2.18750E+00 0.00000E+00
 -1       230 8.87400E+00 2.18750E+00 0.00000E+00
 -1       231 1.18740E+01 2.18750E+00 0.00000E+00
 -1       232 1.48740E+01 2.18750E+00 0.00000E+00
 -1       233 1.78740E+01 2.18750E+00 0.00000E+00
 -1       234 2.08740E+01 2.18750E+00 0.00000E+00
 -1       235 2.38740E+01 2.18750E+00 0.00000E+00
 -1       236 2.68740E+01 2.18750E+00 0.00000E+00
 -1       237 2.98740E+01 2.18750E+00 0.00000E+00
 -1       238 3.28740E+01 2.18750E+00 0.00000E+00
 -1       239 3.58740E+01 2.18750E+00 0.00000E+00
 -1       240 3.88740E+01 2.18750E+00 0.00000E+00
 -1       241 4.18740E+01 2.18750E+00 0.00000E+00
 -1       242 4.48740E+01 2.18750E+00 0.00000E+00
 -1       243 4.78740E+01 2.18750E+00 0.00000E+00
 -1       244 5.08740E+01 2.18750E+00 0.00000E+00
 -1       245 5.38740E+01 2.18750E+00 0.00000E+00
 -1       246 5.68740E+01 2.18750E+00 0.00000E+00
 -1       247 5.98740E+01 2.18750E+00 0.00000E+00
 -1       248 6.28740E+01 2.18750E+00 0.00000E+00
 -1       249 6.58740E+01 2.18750E+00 0.00000E+00
 -1       250 6.88740E+01 2.18750E+00 0.00000E+00
 -1       251 7.18740E+01 2.18750E+00 0.00000E+00
 -1       252 7.48740E+01 2.18750E+00 0.00000E+00
 -1       253 7.78740E+01 2.18750E+00 0.00000E+00
 -1       254 8.08740E+01 2.18750E+00 0.00000E+00
 -1       255 8.38740E+01 2.18750E+00 0.00000E+00
 -1       256 8.68740E+01 2.18750E+00 0.00000E+00
 -1       257 8.98740E+01 2.18750E+00 0.00000E+00
 -1       258 9.28740E+01 2.18750E+00 0.00000E+00
 -1       259 9.58740E+01 2.18750E+00 0.00000E+00
 -1       260 9.88740E+01 2.18750E+00 0.00000E+00
 -1       261 1.01874E+02 2.18750E+00 0.00000E+00
 -1       262 1.04874E+02 2.18750E+00 0.00000E+00
 -1       263 1.07874E+02 2.18750E+00 0.00000E+00
 -1       264 1.10874E+02 2.18750E+00 0.00000E+00
 -1       265 1.13874E+02 2.18750E+00 0.00000E+00
 -1       266 1.16874E+02 2.18750E+00 0.00000E+00
 -1       267 1.19874E+02 2.18750E+00 0.00000E+00
 -1       268 1.22874E+02 2.18750E+00 0.00000E+00
 -1       269 1.25874E+02 2.18750E+00 0.00000E+00
 -1       270 1.28874E+02 2.18750E+00 0.00000E+00
 -1       271 1.31874E+02 2.18750E+00 0.00000E+00
 -1       272 1.34874E+02 2.18750E+00 0.00000E+00
 -1       273 1.37874E+02 2.18750E+00 0.00000E+00
 -1       274 1.40874E+02 2.18750E+00 0.00000E+00
 -1       275 1.43874E+02 2.18750E+00 0.00000E+00
 -1       276 1.46874E+02 2.18750E+00 0.00000E+00
 -1       277 1.47402E+02 4.42500E+00 0.00000E+00
 -1       278 1.47402E+02 7.37500E+00 0.00000E+00
 -1       279 1.47402E+02 1.03250E+01 0.00000E+00
 -1       280 1.47402E+02 1.32750E+01 0.00000E+00
 -1       281 1.47402E+02 1.61750E+01 0.00000E+00
 -1       282 1.47402E+02 1.91250E+01 0.00000E+00
 -1       283 1.47402E+02 2.20750E+01 0.00000E+00
 -1       284 1.47402E+02 2.50250E+01 0.00000E+00
 -1       285 1.47402E+02 2.79750E+01 0.00000E+00
 -1       286 1.47402E+02 3.09250E+01 0.00000E+00
 -1       287 1.47402E+02 3.38250E+01 0.00000E+00
 -1       288 1.47402E+02 3.67750E+01 0.00000E+00
 -1       289 1.47402E+02 3.97250E+01 0.00000E+00
 -1       290 1.47402E+02 4.26750E+01 0.00000E+00
 -1       291 1.47576E+02 4.49630E+01 0.00000E+00
 -1       292 4.42926E+01 2.80154E+01 0.00000E+00
 -1       293 4.40876E+01 2.62705E+01 0.00000E+00
 -1       294 4.32303E+01 2.47543E+01 0.00000E+00
 -1       295 4.24305E+01 2.31186E+01 0.00000E+00
 -1       296 4.09214E+01 2.21125E+01 0.00000E+00
 -1       297 3.93462E+01 2.13410E+01 0.00000E+00
 -1       298 3.76624E+01 2.08277E+01 0.00000E+00
 -1       299 3.59094E+01 2.06145E+01 0.00000E+00
 -1       300 3.40349E+01 2.07180E+01 0.00000E+00
 -1       301 3.23989E+01 2.15125E+01 0.00000E+00
 -1       302 3.10259E+01 2.25021E+01 0.00000E+00
 -1       303 2.96724E+01 2.36301E+01 0.00000E+00
 -1       304 2.88542E+01 2.51985E+01 0.00000E+00
 -1       305 2.80859E+01 2.67966E+01 0.00000E+00
 -1       306 2.79953E+01 2.86247E+01 0.00000E+00
 -1       307 2.80452E+01 3.03836E+01 0.00000E+00
 -1       308 2.86025E+01 3.19794E+01 0.00000E+00
 -1       309 2.92834E+01 3.35773E+01 0.00000E+00
 -1       310 3.05037E+01 3.48764E+01 0.00000E+00
 -1       311 3.19885E+01 3.58851E+01 0.00000E+00
 -1       312 3.36562E+01 3.66380E+01 0.00000E+00
 -1       313 3.53605E+01 3.70840E+01 0.00000E+00
 -1       314 3.71056E+01 3.70638E+01 0.00000E+00
 -1       315 3.88139E+01 3.65940E+01 0.00000E+00
 -1       316 4.05624E+01 3.60412E+01 0.00000E+00
 -1       317 4.18791E+01 3.46975E+01 0.00000E+00
 -1       318 4.31981E+01 3.33248E+01 0.00000E+00
 -1       319 4.39577E+01 3.15679E+01 0.00000E+00
 -1       320 4.42821E+01 2.97637E+01 0.00000E+00
 -1       321 5.19600E+00 4.11500E+01 0.00000E+00
 -1       322 5.19600E+00 4.41000E+01 0.00000E+00
 -1       323 5.19600E+00 3.52750E+01 0.00000E+00
 -1       324 5.19600E+00 3.23250E+01 0.00000E+00
 -1       325 5.19600E+00 2.93750E+01 0.00000E+00
 -1       326 5.19600E+00 2.64250E+01 0.00000E+00
 -1       327 5.19600E+00 2.34750E+01 0.00000E+00
 -1       328 5.19600E+00 2.05250E+01 0.00000E+00
 -1       329 5.19600E+00 1.76250E+01 0.00000E+00
 -1       330 5.19600E+00 1.46750E+01 0.00000E+00
 -1       331 5.19600E+00 1.17250E+01 0.00000E+00
 -1       332 5.19600E+00 8.77500E+00 0.00000E+00
 -1       333 5.19600E+00 5.82500E+00 0.00000E+00
 -1       334 5.53500E+00 4.00625E+00 0.00000E+00
 -1       335 8.53500E+00 4.00625E+00 0.00000E+00
 -1       336 9.15000E+00 4.48040E+01 0.00000E+00
 -1       337 1.21500E+01 4.48040E+01 0.00000E+00
 -1       338 1.51500E+01 4.48040E+01 0.00000E+00
 -1       339 1.81500E+01 4.48040E+01 0.00000E+00
 -1       340 2.11500E+01 4.48040E+01 0.00000E+00
 -1       341 2.41500E+01 4.48040E+01 0.00000E+00
 -1       342 2.71500E+01 4.48040E+01 0.00000E+00
 -1       343 3.01500E+01 4.48040E+01 0.00000E+00
 -1       344 3.31500E+01 4.48040E+01 0.00000E+00
 -1       345 3.60000E+01 4.48040E+01 0.00000E+00
 -1       346 3.90000E+01 4.48040E+01 0.00000E+00
 -1       347 4.20000E+01 4.48040E+01 0.00000E+00
 -1       348 4.50000E+01 4.48040E+01 0.00000E+00
 -1       349 4.80000E+01 4.48040E+01 0.00000E+00
 -1       350 5.10000E+01 4.48040E+01 0.00000E+00
 -1       351 5.40000E+01 4.48040E+01 0.00000E+00
 -1       352 5.70000E+01 4.48040E+01 0.00000E+00
 -1       353 6.00000E+01 4.48040E+01 0.00000E+00
 -1       354 6.30000E+01 4.48040E+01 0.00000E+00
 -1       355 6.60000E+01 4.48040E+01 0.00000E+00
 -1       356 6.90000E+01 4.48040E+01 0.00000E+00
 -1       357 7.20000E+01 4.48040E+01 0.00000E+00
 -1       358 7.50000E+01 4.48040E+01 0.00000E+00
 -1       359 7.80000E+01 4.48040E+01 0.00000E+00
 -1       360 8.10000E+01 4.48040E+01 0.00000E+00
 -1       361 8.40000E+01 4.48040E+01 0.00000E+00
 -1       362 8.70000E+01 4.48040E+01 0.00000E+00
 -1       363 9.00000E+01 4.48040E+01 0.00000E+00
 -1       364 9.30000E+01 4.48040E+01 0.00000E+00
 -1       365 9.60000E+01 4.48040E+01 0.00000E+00
 -1       366 9.90000E+01 4.48040E+01 0.00000E+00
 -1       367 1.02000E+02 4.48040E+01 0.00000E+00
 -1       368 1.05000E+02 4.48040E+01 0.00000E+00
 -1       369 1.08000E+02 4.48040E+01 0.00000E+00
 -1       370 1.11000E+02 4.48040E+01 0.00000E+00
 -1       371 1.14000E+02 4.48040E+01 0.00000E+00
 -1       372 1.17000E+02 4.48040E+01 0.00000E+00
 -1       373 1.20000E+02 4.48040E+01 0.00000E+00
 -1       374 1.23000E+02 4.48040E+01 0.00000E+00
 -1       375 1.26000E+02 4.48040E+01 0.00000E+00
 -1       376 1.29000E+02 4.48040E+01 0.00000E+00
 -1       377 1.32000E+02 4.48040E+01 0.00000E+00
 -1       378 1.35000E+02 4.48040E+01 0.00000E+00
 -1       379 1.38000E+02 4.48040E+01 0.00000E+00
 -1       380 1.41000E+02 4.48040E+01 0.00000E+00
 -1       381 1.44000E+02 4.48040E+01 0.00000E+00
 -1       382 1.33740E+01 4.78550E+00 0.00000E+00
 -1       383 1.63740E+01 4.78550E+00 0.00000E+00
 -1       384 1.93740E+01 4.78550E+00 0.00000E+00
 -1       385 2.23740E+01 4.78550E+00 0.00000E+00
 -1       386 2.53740E+01 4.78550E+00 0.00000E+00
 -1       387 2.83740E+01 4.78550E+00 0.00000E+00
 -1       388 3.13740E+01 4.78550E+00 0.00000E+00
 -1       389 3.43740E+01 4.78550E+00 0.00000E+00
 -1       390 3.73740E+01 4.78550E+00 0.00000E+00
 -1       391 4.03740E+01 4.78550E+00 0.00000E+00
 -1       392 4.33740E+01 4.78550E+00 0.00000E+00
 -1       393 4.63740E+01 4.78550E+00 0.00000E+00
 -1       394 4.93740E+01 4.78550E+00 0.00000E+00
 -1       395 5.23740E+01 4.78550E+00 0.00000E+00
 -1       396 5.53740E+01 4.78550E+00 0.00000E+00
 -1       397 5.83740E+01 4.78550E+00 0.00000E+00
 -1       398 6.13740E+01 4.78550E+00 0.00000E+00
 -1       399 6.43740E+01 4.78550E+00 0.00000E+00
 -1       400 6.73740E+01 4.78550E+00 0.00000E+00
 -1       401 7.03740E+01 4.78550E+00 0.00000E+00
 -1       402 7.33740E+01 4.78550E+00 0.00000E+00
 -1       403 7.63740E+01 4.78550E+00 0.00000E+00
 -1       404 7.93740E+01 4.78550E+00 0.00000E+00
 -1       405 8.23740E+01 4.78550E+00 0.00000E+00
 -1       406 8.53740E+01 4.78550E+00 0.00000E+00
 -1       407 8.83740E+01 4.78550E+00 0.00000E+00
 -1       408 9.13740E+01 4.78550E+00 0.00000E+00
 -1       409 9.43740E+01 4.78550E+00 0.00000E+00
 -1       410 9.73740E+01 4.78550E+00 0.00000E+00
 -1       411 1.00374E+02 4.78550E+00 0.00000E+00
 -1       412 1.03374E+02 4.78550E+00 0.00000E+00
 -1       413 1.06374E+02 4.78550E+00 0.00000E+00
 -1       414 1.09374E+02 4.78550E+00 0.00000E+00
 -1       415 1.12374E+02 4.78550E+00 0.00000E+00
 -1       416 1.15374E+02 4.78550E+00 0.00000E+00
 -1       417 1.18374E+02 4.78550E+00 0.00000E+00
 -1       418 1.21374E+02 4.78550E+00 0.00000E+00
 -1       419 1.24374E+02 4.78550E+00 0.00000E+00
 -1       420 1.27374E+02 4.78550E+00 0.00000E+00
 -1       421 1.30374E+02 4.78550E+00 0.00000E+00
 -1       422 1.33374E+02 4.78550E+00 0.00000E+00
 -1       423 1.36374E+02 4.78550E+00 0.00000E+00
 -1       424 1.39374E+02 4.78550E+00 0.00000E+00
 -1       425 1.42374E+02 4.78550E+00 0.00000E+00
 -1       426 1.44888E+02 4.60525E+00 0.00000E+00
 -1       427 1.44804E+02 1.18000E+01 0.00000E+00
 -1       428 1.44804E+02 8.85000E+00 0.00000E+00
 -1       429 1.44804E+02 1.47000E+01 0.00000E+00
 -1       430 1.44804E+02 1.76500E+01 0.00000E+00
 -1       431 1.44804E+02 2.06000E+01 0.00000E+00
 -1       432 1.44804E+02 2.35500E+01 0.00000E+00
 -1       433 1.44804E+02 2.65000E+01 0.00000E+00
 -1       434 1.44804E+02 2.94500E+01 0.00000E+00
 -1       435 1.44804E+02 3.23500E+01 0.00000E+00
 -1       436 1.44804E+02 3.53000E+01 0.00000E+00
 -1       437 1.44804E+02 3.82500E+01 0.00000E+00
 -1       438 1.44804E+02 4.12000E+01 0.00000E+00
 -1       439 1.09545E+01 4.39587E+00 0.00000E+00
 -1       440 4.47873E+01 2.48744E+01 0.00000E+00
 -1       441 4.24414E+01 2.14674E+01 0.00000E+00
 -1       442 4.55835E+01 2.88973E+01 0.00000E+00
 -1       443 4.39875E+01 2.32388E+01 0.00000E+00
 -1       444 5.19600E+00 3.82125E+01 0.00000E+00
 -1       445 4.08144E+01 2.03370E+01 0.00000E+00
 -1       446 3.89800E+01 1.95239E+01 0.00000E+00
 -1       447 3.69728E+01 1.91849E+01 0.00000E+00
 -1       448 3.48868E+01 1.91210E+01 0.00000E+00
 -1       449 3.24676E+01 1.95724E+01 0.00000E+00
 -1       450 3.10946E+01 2.05620E+01 0.00000E+00
 -1       451 2.94120E+01 2.19416E+01 0.00000E+00
 -1       452 2.79655E+01 2.37372E+01 0.00000E+00
 -1       453 2.71972E+01 2.53353E+01 0.00000E+00
 -1       454 2.63276E+01 2.76258E+01 0.00000E+00
 -1       455 2.63775E+01 2.93847E+01 0.00000E+00
 -1       456 2.69420E+01 3.16641E+01 0.00000E+00
 -1       457 2.76735E+01 3.33194E+01 0.00000E+00
 -1       458 2.88267E+01 3.52290E+01 0.00000E+00
 -1       459 3.04707E+01 3.65222E+01 0.00000E+00
 -1       460 3.21855E+01 3.76720E+01 0.00000E+00
 -1       461 3.41378E+01 3.82771E+01 0.00000E+00
 -1       462 3.62480E+01 3.83700E+01 0.00000E+00
 -1       463 3.83924E+01 3.84018E+01 0.00000E+00
 -1       464 4.01408E+01 3.78490E+01 0.00000E+00
 -1       465 4.22064E+01 3.63352E+01 0.00000E+00
 -1       466 4.36545E+01 3.50834E+01 0.00000E+00
 -1       467 4.48446E+01 3.29940E+01 0.00000E+00
 -1       468 4.55606E+01 3.09248E+01 0.00000E+00
 -1       469 4.55606E+01 2.69819E+01 0.00000E+00
 -1       470 4.39984E+01 2.15875E+01 0.00000E+00
 -1       471 4.17848E+01 3.81430E+01 0.00000E+00
 -1       472 7.79400E+00 3.08500E+01 0.00000E+00
 -1       473 7.79400E+00 3.38000E+01 0.00000E+00
 -1       474 7.79400E+00 2.49500E+01 0.00000E+00
 -1       475 7.79400E+00 2.20000E+01 0.00000E+00
 -1       476 7.79400E+00 1.91000E+01 0.00000E+00
 -1       477 7.79400E+00 1.61500E+01 0.00000E+00
 -1       478 7.79400E+00 1.32000E+01 0.00000E+00
 -1       479 7.79400E+00 1.02500E+01 0.00000E+00
 -1       480 7.79400E+00 7.30000E+00 0.00000E+00
 -1       481 8.16450E+00 5.65312E+00 0.00000E+00
 -1       482 1.06500E+01 4.22060E+01 0.00000E+00
 -1       483 3.59797E+01 1.75224E+01 0.00000E+00
 -1       484 1.36500E+01 4.22060E+01 0.00000E+00
 -1       485 1.66500E+01 4.22060E+01 0.00000E+00
 -1       486 1.96500E+01 4.22060E+01 0.00000E+00
 -1       487 2.26500E+01 4.22060E+01 0.00000E+00
 -1       488 2.56500E+01 4.22060E+01 0.00000E+00
 -1       489 2.86500E+01 4.22060E+01 0.00000E+00
 -1       490 3.16500E+01 4.22060E+01 0.00000E+00
 -1       491 3.45000E+01 4.22060E+01 0.00000E+00
 -1       492 3.75000E+01 4.22060E+01 0.00000E+00
 -1       493 4.05000E+01 4.22060E+01 0.00000E+00
 -1       494 4.35000E+01 4.22060E+01 0.00000E+00
 -1       495 4.65000E+01 4.22060E+01 0.00000E+00
 -1       496 4.95000E+01 4.22060E+01 0.00000E+00
 -1       497 5.25000E+01 4.22060E+01 0.00000E+00
 -1       498 5.55000E+01 4.22060E+01 0.00000E+00
 -1       499 5.85000E+01 4.22060E+01 0.00000E+00
 -1       500 6.15000E+01 4.22060E+01 0.00000E+00
 -1       501 6.45000E+01 4.22060E+01 0.00000E+00
 -1       502 6.75000E+01 4.22060E+01 0.00000E+00
 -1       503 7.05000E+01 4.22060E+01 0.00000E+00
 -1       504 7.35000E+01 4.22060E+01 0.00000E+00
 -1       505 7.65000E+01 4.22060E+01 0.00000E+00
 -1       506 7.95000E+01 4.22060E+01 0.00000E+00
 -1       507 8.25000E+01 4.22060E+01 0.00000E+00
 -1       508 8.55000E+01 4.22060E+01 0.00000E+00
 -1       509 8.85000E+01 4.22060E+01 0.00000E+00
 -1       510 9.15000E+01 4.22060E+01 0.00000E+00
 -1       511 9.45000E+01 4.22060E+01 0.00000E+00
 -1       512 9.75000E+01 4.22060E+01 0.00000E+00
 -1       513 1.00500E+02 4.22060E+01 0.00000E+00
 -1       514 1.03500E+02 4.22060E+01 0.00000E+00
 -1       515 1.06500E+02 4.22060E+01 0.00000E+00
 -1       516 1.09500E+02 4.22060E+01 0.00000E+00
 -1       517 1.12500E+02 4.22060E+01 0.00000E+00
 -1       518 1.15500E+02 4.22060E+01 0.00000E+00
 -1       519 1.18500E+02 4.22060E+01 0.00000E+00
 -1       520 1.21500E+02 4.22060E+01 0.00000E+00
 -1       521 1.24500E+02 4.22060E+01 0.00000E+00
 -1       522 1.27500E+02 4.22060E+01 0.00000E+00
 -1       523 1.30500E+02 4.22060E+01 0.00000E+00
 -1       524 1.33500E+02 4.22060E+01 0.00000E+00
 -1       525 1.36500E+02 4.22060E+01 0.00000E+00
 -1       526 1.39500E+02 4.22060E+01 0.00000E+00
 -1       527 1.42152E+02 4.17030E+01 0.00000E+00
 -1       528 2.08740E+01 7.38350E+00 0.00000E+00
 -1       529 1.78740E+01 7.38350E+00 0.00000E+00
 -1       530 1.48740E+01 7.38350E+00 0.00000E+00
 -1       531 2.38740E+01 7.38350E+00 0.00000E+00
 -1       532 2.68740E+01 7.38350E+00 0.00000E+00
 -1       533 2.98740E+01 7.38350E+00 0.00000E+00
 -1       534 3.28740E+01 7.38350E+00 0.00000E+00
 -1       535 3.58740E+01 7.38350E+00 0.00000E+00
 -1       536 3.88740E+01 7.38350E+00 0.00000E+00
 -1       537 4.18740E+01 7.38350E+00 0.00000E+00
 -1       538 4.48740E+01 7.38350E+00 0.00000E+00
 -1       539 4.78740E+01 7.38350E+00 0.00000E+00
 -1       540 5.08740E+01 7.38350E+00 0.00000E+00
 -1       541 5.38740E+01 7.38350E+00 0.00000E+00
 -1       542 5.68740E+01 7.38350E+00 0.00000E+00
 -1       543 5.98740E+01 7.38350E+00 0.00000E+00
 -1       544 6.28740E+01 7.38350E+00 0.00000E+00
 -1       545 6.58740E+01 7.38350E+00 0.00000E+00
 -1       546 6.88740E+01 7.38350E+00 0.00000E+00
 -1       547 7.18740E+01 7.38350E+00 0.00000E+00
 -1       548 7.48740E+01 7.38350E+00 0.00000E+00
 -1       549 7.78740E+01 7.38350E+00 0.00000E+00
 -1       550 8.08740E+01 7.38350E+00 0.00000E+00
 -1       551 8.38740E+01 7.38350E+00 0.00000E+00
 -1       552 8.68740E+01 7.38350E+00 0.00000E+00
 -1       553 8.98740E+01 7.38350E+00 0.00000E+00
 -1       554 9.28740E+01 7.38350E+00 0.00000E+00
 -1       555 9.58740E+01 7.38350E+00 0.00000E+00
 -1       556 9.88740E+01 7.38350E+00 0.00000E+00
 -1       557 1.01874E+02 7.38350E+00 0.00000E+00
 -1       558 1.04874E+02 7.38350E+00 0.00000E+00
 -1       559 1.07874E+02 7.38350E+00 0.00000E+00
 -1       560 1.10874E+02 7.38350E+00 0.00000E+00
 -1       561 1.13874E+02 7.38350E+00 0.00000E+00
 -1       562 1.16874E+02 7.38350E+00 0.00000E+00
 -1       563 1.19874E+02 7.38350E+00 0.00000E+00
 -1       564 1.22874E+02 7.38350E+00 0.00000E+00
 -1       565 1.25874E+02 7.38350E+00 0.00000E+00
 -1       566 1.28874E+02 7.38350E+00 0.00000E+00
 -1       567 1.31874E+02 7.38350E+00 0.00000E+00
 -1       568 1.34874E+02 7.38350E+00 0.00000E+00
 -1       569 1.37874E+02 7.38350E+00 0.00000E+00
 -1       570 1.40874E+02 7.38350E+00 0.00000E+00
 -1       571 1.42206E+02 1.61750E+01 0.00000E+00
 -1       572 1.42206E+02 1.32750E+01 0.00000E+00
 -1       573 1.42206E+02 1.03250E+01 0.00000E+00
 -1       574 4.72870E+01 2.79191E+01 0.00000E+00
 -1       575 1.42206E+02 1.91250E+01 0.00000E+00
 -1       576 1.42206E+02 2.20750E+01 0.00000E+00
 -1       577 1.42206E+02 2.50250E+01 0.00000E+00
 -1       578 1.42206E+02 2.79750E+01 0.00000E+00
 -1       579 1.42206E+02 3.08750E+01 0.00000E+00
 -1       580 1.42206E+02 3.38250E+01 0.00000E+00
 -1       581 1.42206E+02 3.67750E+01 0.00000E+00
 -1       582 1.42179E+02 3.92390E+01 0.00000E+00
 -1       583 7.92300E+00 4.16780E+01 0.00000E+00
 -1       584 4.57776E+01 2.33768E+01 0.00000E+00
 -1       585 4.72641E+01 2.99466E+01 0.00000E+00
 -1       586 4.67442E+01 3.24928E+01 0.00000E+00
 -1       587 3.72985E+01 3.98495E+01 0.00000E+00
 -1       588 2.91659E+01 1.99255E+01 0.00000E+00
 -1       589 3.33319E+01 1.74960E+01 0.00000E+00
 -1       590 7.79400E+00 2.79000E+01 0.00000E+00
 -1       591 3.82621E+01 1.76633E+01 0.00000E+00
 -1       592 2.74184E+01 2.18160E+01 0.00000E+00
 -1       593 4.26066E+01 1.94936E+01 0.00000E+00
 -1       594 4.07279E+01 1.80560E+01 0.00000E+00
 -1       595 3.05389E+01 1.89360E+01 0.00000E+00
 -1       596 2.59689E+01 3.30834E+01 0.00000E+00
 -1       597 2.61112E+01 2.38294E+01 0.00000E+00
 -1       598 2.51590E+01 2.58717E+01 0.00000E+00
 -1       599 2.48056E+01 2.85492E+01 0.00000E+00
 -1       600 4.39425E+01 3.68801E+01 0.00000E+00
 -1       601 2.51576E+01 3.08964E+01 0.00000E+00
 -1       602 2.69254E+01 3.50742E+01 0.00000E+00
 -1       603 2.84847E+01 3.73553E+01 0.00000E+00
 -1       604 3.01996E+01 3.85051E+01 0.00000E+00
 -1       605 3.26539E+01 3.96128E+01 0.00000E+00
 -1       606 3.51212E+01 3.99533E+01 0.00000E+00
 -1       607 3.97836E+01 3.97607E+01 0.00000E+00
 -1       608 4.55943E+01 3.48046E+01 0.00000E+00
 -1       609 4.67841E+01 2.53373E+01 0.00000E+00
 -1       610 7.79400E+00 3.67375E+01 0.00000E+00
 -1       611 4.57885E+01 2.17255E+01 0.00000E+00
 -1       612 1.05840E+01 6.04275E+00 0.00000E+00
 -1       613 7.85850E+00 3.92077E+01 0.00000E+00
 -1       614 1.27290E+01 6.71313E+00 0.00000E+00
 -1       615 3.14031E+01 1.68595E+01 0.00000E+00
 -1       616 1.03920E+01 2.05500E+01 0.00000E+00
 -1       617 1.03920E+01 2.35000E+01 0.00000E+00
 -1       618 1.03920E+01 1.46750E+01 0.00000E+00
 -1       619 1.03920E+01 1.17250E+01 0.00000E+00
 -1       620 1.02135E+01 7.68962E+00 0.00000E+00
 -1       621 4.18624E+01 4.02857E+01 0.00000E+00
 -1       622 1.51500E+01 3.96080E+01 0.00000E+00
 -1       623 1.81500E+01 3.96080E+01 0.00000E+00
 -1       624 2.11500E+01 3.96080E+01 0.00000E+00
 -1       625 2.41500E+01 3.96080E+01 0.00000E+00
 -1       626 4.50000E+01 3.99882E+01 0.00000E+00
 -1       627 4.80000E+01 3.99882E+01 0.00000E+00
 -1       628 5.10000E+01 3.99882E+01 0.00000E+00
 -1       629 5.40000E+01 3.99882E+01 0.00000E+00
 -1       630 5.70000E+01 3.99882E+01 0.00000E+00
 -1       631 6.00000E+01 3.99882E+01 0.00000E+00
 -1       632 6.30000E+01 3.99882E+01 0.00000E+00
 -1       633 6.60000E+01 3.99882E+01 0.00000E+00
 -1       634 6.90000E+01 3.99882E+01 0.00000E+00
 -1       635 7.20000E+01 3.99882E+01 0.00000E+00
 -1       636 7.50000E+01 3.99882E+01 0.00000E+00
 -1       637 7.80000E+01 3.99882E+01 0.00000E+00
 -1       638 8.10000E+01 3.99882E+01 0.00000E+00
 -1       639 8.40000E+01 3.99882E+01 0.00000E+00
 -1       640 8.70000E+01 3.99882E+01 0.00000E+00
 -1       641 9.00000E+01 3.99882E+01 0.00000E+00
 -1       642 9.30000E+01 3.99882E+01 0.00000E+00
 -1       643 9.60000E+01 3.99882E+01 0.00000E+00
 -1       644 9.90000E+01 3.99882E+01 0.00000E+00
 -1       645 1.02000E+02 3.99882E+01 0.00000E+00
 -1       646 1.05000E+02 3.99882E+01 0.00000E+00
 -1       647 1.08000E+02 3.99882E+01 0.00000E+00
 -1       648 1.11000E+02 3.99882E+01 0.00000E+00
 -1       649 1.14000E+02 3.99882E+01 0.00000E+00
 -1       650 1.17000E+02 3.99882E+01 0.00000E+00
 -1       651 1.20000E+02 3.99882E+01 0.00000E+00
 -1       652 1.23000E+02 3.99882E+01 0.00000E+00
 -1       653 1.26000E+02 3.99882E+01 0.00000E+00
 -1       654 1.29000E+02 3.99882E+01 0.00000E+00
 -1       655 1.32000E+02 3.99882E+01 0.00000E+00
 -1       656 1.35000E+02 3.99882E+01 0.00000E+00
 -1       657 1.38000E+02 3.99882E+01 0.00000E+00
 -1       658 1.40089E+02 3.96136E+01 0.00000E+00
 -1       659 1.93740E+01 9.98150E+00 0.00000E+00
 -1       660 2.23740E+01 9.98150E+00 0.00000E+00
 -1       661 1.63740E+01 9.98150E+00 0.00000E+00
 -1       662 2.83740E+01 9.98150E+00 0.00000E+00
 -1       663 3.13740E+01 9.98150E+00 0.00000E+00
 -1       664 3.43740E+01 9.98150E+00 0.00000E+00
 -1       665 3.73740E+01 9.98150E+00 0.00000E+00
 -1       666 4.03740E+01 9.98150E+00 0.00000E+00
 -1       667 4.33740E+01 9.98150E+00 0.00000E+00
 -1       668 4.63740E+01 9.98150E+00 0.00000E+00
 -1       669 4.93740E+01 9.98150E+00 0.00000E+00
 -1       670 5.23740E+01 9.98150E+00 0.00000E+00
 -1       671 5.53740E+01 9.98150E+00 0.00000E+00
 -1       672 5.83740E+01 9.98150E+00 0.00000E+00
 -1       673 6.13740E+01 9.98150E+00 0.00000E+00
 -1       674 6.43740E+01 9.98150E+00 0.00000E+00
 -1       675 6.73740E+01 9.98150E+00 0.00000E+00
 -1       676 7.03740E+01 9.98150E+00 0.00000E+00
 -1       677 7.33740E+01 9.98150E+00 0.00000E+00
 -1       678 7.63740E+01 9.98150E+00 0.00000E+00
 -1       679 7.93740E+01 9.98150E+00 0.00000E+00
 -1       680 8.23740E+01 9.98150E+00 0.00000E+00
 -1       681 8.53740E+01 9.98150E+00 0.00000E+00
 -1       682 8.83740E+01 9.98150E+00 0.00000E+00
 -1       683 9.13740E+01 9.98150E+00 0.00000E+00
 -1       684 9.43740E+01 9.98150E+00 0.00000E+00
 -1       685 9.73740E+01 9.98150E+00 0.00000E+00
 -1       686 1.00374E+02 9.98150E+00 0.00000E+00
 -1       687 1.03374E+02 9.98150E+00 0.00000E+00
 -1       688 1.06374E+02 9.98150E+00 0.00000E+00
 -1       689 1.09374E+02 9.98150E+00 0.00000E+00
 -1       690 1.12374E+02 9.98150E+00 0.00000E+00
 -1       691 1.15374E+02 9.98150E+00 0.00000E+00
 -1       692 1.18374E+02 9.98150E+00 0.00000E+00
 -1       693 1.21374E+02 9.98150E+00 0.00000E+00
 -1       694 1.24374E+02 9.98150E+00 0.00000E+00
 -1       695 1.27374E+02 9.98150E+00 0.00000E+00
 -1       696 1.30374E+02 9.98150E+00 0.00000E+00
 -1       697 1.33374E+02 9.98150E+00 0.00000E+00
 -1       698 1.36374E+02 9.98150E+00 0.00000E+00
 -1       699 1.39290E+02 1.01532E+01 0.00000E+00
 -1       700 4.47308E+01 1.95911E+01 0.00000E+00
 -1       701 1.39608E+02 1.47250E+01 0.00000E+00
 -1       702 1.39608E+02 2.06000E+01 0.00000E+00
 -1       703 1.39449E+02 1.24391E+01 0.00000E+00
 -1       704 1.39608E+02 1.76625E+01 0.00000E+00
 -1       705 4.88835E+01 2.62682E+01 0.00000E+00
 -1       706 1.39608E+02 2.65000E+01 0.00000E+00
 -1       707 1.39608E+02 2.94000E+01 0.00000E+00
 -1       708 1.39608E+02 3.23500E+01 0.00000E+00
 -1       709 1.39608E+02 3.53000E+01 0.00000E+00
 -1       710 3.46729E+01 1.57942E+01 0.00000E+00
 -1       711 4.89906E+01 2.89522E+01 0.00000E+00
 -1       712 4.88488E+01 3.15964E+01 0.00000E+00
 -1       713 4.61103E+01 3.69104E+01 0.00000E+00
 -1       714 2.86536E+01 1.77675E+01 0.00000E+00
 -1       715 1.39608E+02 2.35500E+01 0.00000E+00
 -1       716 2.49012E+01 3.48216E+01 0.00000E+00
 -1       717 3.72162E+01 1.60482E+01 0.00000E+00
 -1       718 2.53263E+01 2.18888E+01 0.00000E+00
 -1       719 1.21500E+01 3.96080E+01 0.00000E+00
 -1       720 2.69096E+01 1.95929E+01 0.00000E+00
 -1       721 4.29132E+01 1.71466E+01 0.00000E+00
 -1       722 2.40806E+01 2.41259E+01 0.00000E+00
 -1       723 2.60124E+01 3.73717E+01 0.00000E+00
 -1       724 1.03920E+01 1.76125E+01 0.00000E+00
 -1       725 2.31158E+01 2.69641E+01 0.00000E+00
 -1       726 2.37981E+01 3.26448E+01 0.00000E+00
 -1       727 2.82003E+01 3.96331E+01 0.00000E+00
 -1       728 3.97911E+01 1.60004E+01 0.00000E+00
 -1       729 2.33683E+01 2.99647E+01 0.00000E+00
 -1       730 1.03920E+01 3.23250E+01 0.00000E+00
 -1       731 2.53740E+01 9.98150E+00 0.00000E+00
 -1       732 4.81048E+01 2.34207E+01 0.00000E+00
 -1       733 4.76299E+01 3.43753E+01 0.00000E+00
 -1       734 1.00042E+01 3.94079E+01 0.00000E+00
 -1       735 1.03920E+01 3.52625E+01 0.00000E+00
 -1       736 1.03920E+01 2.64500E+01 0.00000E+00
 -1       737 3.01500E+01 3.96530E+01 0.00000E+00
 -1       738 4.81157E+01 2.17695E+01 0.00000E+00
 -1       739 3.27441E+01 1.51577E+01 0.00000E+00
 -1       740 1.39849E+02 3.74568E+01 0.00000E+00
 -1       741 1.33741E+01 9.98153E+00 0.00000E+00
 -1       742 4.19764E+01 1.50910E+01 0.00000E+00
 -1       743 1.03920E+01 2.93875E+01 0.00000E+00
 -1       744 3.86022E+01 4.15191E+01 0.00000E+00
 -1       745 1.29900E+01 1.32000E+01 0.00000E+00
 -1       746 2.30586E+01 2.20914E+01 0.00000E+00
 -1       747 2.61780E+01 1.71481E+01 0.00000E+00
 -1       748 1.01981E+01 3.73352E+01 0.00000E+00
 -1       749 1.96500E+01 3.70100E+01 0.00000E+00
 -1       750 2.26500E+01 3.70100E+01 0.00000E+00
 -1       751 5.09567E+01 2.41711E+01 0.00000E+00
 -1       752 3.84656E+01 1.39744E+01 0.00000E+00
 -1       753 4.95000E+01 3.74352E+01 0.00000E+00
 -1       754 5.25000E+01 3.74352E+01 0.00000E+00
 -1       755 5.55000E+01 3.74352E+01 0.00000E+00
 -1       756 5.85000E+01 3.74352E+01 0.00000E+00
 -1       757 6.15000E+01 3.74352E+01 0.00000E+00
 -1       758 6.45000E+01 3.74352E+01 0.00000E+00
 -1       759 6.75000E+01 3.74352E+01 0.00000E+00
 -1       760 7.05000E+01 3.74352E+01 0.00000E+00
 -1       761 7.35000E+01 3.74352E+01 0.00000E+00
 -1       762 7.65000E+01 3.74352E+01 0.00000E+00
 -1       763 7.95000E+01 3.74352E+01 0.00000E+00
 -1       764 8.25000E+01 3.74352E+01 0.00000E+00
 -1       765 8.55000E+01 3.74352E+01 0.00000E+00
 -1       766 8.85000E+01 3.74352E+01 0.00000E+00
 -1       767 9.15000E+01 3.74352E+01 0.00000E+00
 -1       768 9.45000E+01 3.74352E+01 0.00000E+00
 -1       769 9.75000E+01 3.74352E+01 0.00000E+00
 -1       770 1.00500E+02 3.74352E+01 0.00000E+00
 -1       771 1.03500E+02 3.74352E+01 0.00000E+00
 -1       772 1.06500E+02 3.74352E+01 0.00000E+00
 -1       773 1.09500E+02 3.74352E+01 0.00000E+00
 -1       774 1.12500E+02 3.74352E+01 0.00000E+00
 -1       775 1.15500E+02 3.74352E+01 0.00000E+00
 -1       776 1.18500E+02 3.74352E+01 0.00000E+00
 -1       777 1.21500E+02 3.74352E+01 0.00000E+00
 -1       778 1.24500E+02 3.74352E+01 0.00000E+00
 -1       779 1.27500E+02 3.74352E+01 0.00000E+00
 -1       780 1.30500E+02 3.74352E+01 0.00000E+00
 -1       781 1.33500E+02 3.74352E+01 0.00000E+00
 -1       782 1.36500E+02 3.74352E+01 0.00000E+00
 -1       783 2.08740E+01 1.25795E+01 0.00000E+00
 -1       784 1.78740E+01 1.25795E+01 0.00000E+00
 -1       785 3.28740E+01 1.25345E+01 0.00000E+00
 -1       786 2.98740E+01 1.25345E+01 0.00000E+00
 -1       787 4.78740E+01 1.25795E+01 0.00000E+00
 -1       788 5.08740E+01 1.25795E+01 0.00000E+00
 -1       789 5.38740E+01 1.25795E+01 0.00000E+00
 -1       790 5.68740E+01 1.25795E+01 0.00000E+00
 -1       791 5.98740E+01 1.25795E+01 0.00000E+00
 -1       792 6.28740E+01 1.25795E+01 0.00000E+00
 -1       793 6.58740E+01 1.25795E+01 0.00000E+00
 -1       794 6.88740E+01 1.25795E+01 0.00000E+00
 -1       795 7.18740E+01 1.25795E+01 0.00000E+00
 -1       796 7.48740E+01 1.25795E+01 0.00000E+00
 -1       797 7.78740E+01 1.25795E+01 0.00000E+00
 -1       798 8.08740E+01 1.25795E+01 0.00000E+00
 -1       799 8.38740E+01 1.25795E+01 0.00000E+00
 -1       800 8.68740E+01 1.25795E+01 0.00000E+00
 -1       801 8.98740E+01 1.25795E+01 0.00000E+00
 -1       802 9.28740E+01 1.25795E+01 0.00000E+00
 -1       803 9.58740E+01 1.25795E+01 0.00000E+00
 -1       804 9.88740E+01 1.25795E+01 0.00000E+00
 -1       805 1.01874E+02 1.25795E+01 0.00000E+00
 -1       806 1.04874E+02 1.25795E+01 0.00000E+00
 -1       807 1.07874E+02 1.25795E+01 0.00000E+00
 -1       808 1.10874E+02 1.25795E+01 0.00000E+00
 -1       809 1.13874E+02 1.25795E+01 0.00000E+00
 -1       810 1.16874E+02 1.25795E+01 0.00000E+00
 -1       811 1.19874E+02 1.25795E+01 0.00000E+00
 -1       812 1.22874E+02 1.25795E+01 0.00000E+00
 -1       813 1.25874E+02 1.25795E+01 0.00000E+00
 -1       814 1.28874E+02 1.25795E+01 0.00000E+00
 -1       815 1.31874E+02 1.25795E+01 0.00000E+00
 -1       816 1.34874E+02 1.25795E+01 0.00000E+00
 -1       817 1.37161E+02 1.25093E+01 0.00000E+00
 -1       818 1.37010E+02 3.38250E+01 0.00000E+00
 -1       819 1.37010E+02 3.08750E+01 0.00000E+00
 -1       820 1.37010E+02 2.79750E+01 0.00000E+00
 -1       821 1.37010E+02 2.50250E+01 0.00000E+00
 -1       822 2.93329E+01 1.52075E+01 0.00000E+00
 -1       823 3.56698E+01 1.32544E+01 0.00000E+00
 -1       824 1.37010E+02 2.20750E+01 0.00000E+00
 -1       825 1.66500E+01 3.70100E+01 0.00000E+00
 -1       826 4.83412E+01 3.65246E+01 0.00000E+00
 -1       827 4.54673E+01 1.71455E+01 0.00000E+00
 -1       828 1.36500E+01 3.70100E+01 0.00000E+00
 -1       829 1.29900E+01 2.20250E+01 0.00000E+00
 -1       830 5.13205E+01 2.75151E+01 0.00000E+00
 -1       831 2.17243E+01 3.16028E+01 0.00000E+00
 -1       832 2.42922E+01 1.94817E+01 0.00000E+00
 -1       833 2.19744E+01 2.49930E+01 0.00000E+00
 -1       834 5.09670E+01 3.03841E+01 0.00000E+00
 -1       835 2.21871E+01 3.43064E+01 0.00000E+00
 -1       836 4.70580E+01 1.96351E+01 0.00000E+00
 -1       837 4.99634E+01 3.37421E+01 0.00000E+00
 -1       838 2.14718E+01 2.86022E+01 0.00000E+00
 -1       839 1.29900E+01 2.49750E+01 0.00000E+00
 -1       840 2.68573E+01 1.45881E+01 0.00000E+00
 -1       841 4.51377E+01 1.32098E+01 0.00000E+00
 -1       842 5.09676E+01 2.25198E+01 0.00000E+00
 -1       843 2.38740E+01 1.25795E+01 0.00000E+00
 -1       844 1.37010E+02 1.91375E+01 0.00000E+00
 -1       845 2.68740E+01 1.25570E+01 0.00000E+00
 -1       846 1.37010E+02 1.62000E+01 0.00000E+00
 -1       847 1.29900E+01 1.61375E+01 0.00000E+00
 -1       848 4.53025E+01 1.51777E+01 0.00000E+00
 -1       849 1.29900E+01 3.37938E+01 0.00000E+00
 -1       850 1.29900E+01 3.08563E+01 0.00000E+00
 -1       851 2.03303E+01 2.66312E+01 0.00000E+00
 -1       852 1.29900E+01 1.90875E+01 0.00000E+00
 -1       853 5.20816E+01 3.25298E+01 0.00000E+00
 -1       854 1.93740E+01 1.51775E+01 0.00000E+00
 -1       855 1.34010E+02 3.38250E+01 0.00000E+00
 -1       856 4.84140E+01 1.70157E+01 0.00000E+00
 -1       857 1.95550E+01 3.02744E+01 0.00000E+00
 -1       858 5.53740E+01 1.51775E+01 0.00000E+00
 -1       859 5.23740E+01 1.51775E+01 0.00000E+00
 -1       860 5.40000E+01 3.48823E+01 0.00000E+00
 -1       861 5.70000E+01 3.48823E+01 0.00000E+00
 -1       862 6.00000E+01 3.48823E+01 0.00000E+00
 -1       863 6.30000E+01 3.48823E+01 0.00000E+00
 -1       864 6.60000E+01 3.48823E+01 0.00000E+00
 -1       865 6.90000E+01 3.48823E+01 0.00000E+00
 -1       866 7.20000E+01 3.48823E+01 0.00000E+00
 -1       867 7.50000E+01 3.48823E+01 0.00000E+00
 -1       868 7.80000E+01 3.48823E+01 0.00000E+00
 -1       869 8.10000E+01 3.48823E+01 0.00000E+00
 -1       870 8.40000E+01 3.48823E+01 0.00000E+00
 -1       871 8.70000E+01 3.48823E+01 0.00000E+00
 -1       872 9.00000E+01 3.48823E+01 0.00000E+00
 -1       873 9.30000E+01 3.48823E+01 0.00000E+00
 -1       874 9.60000E+01 3.48823E+01 0.00000E+00
 -1       875 9.90000E+01 3.48823E+01 0.00000E+00
 -1       876 1.02000E+02 3.48823E+01 0.00000E+00
 -1       877 1.05000E+02 3.48823E+01 0.00000E+00
 -1       878 1.08000E+02 3.48823E+01 0.00000E+00
 -1       879 1.11000E+02 3.48823E+01 0.00000E+00
 -1       880 1.14000E+02 3.48823E+01 0.00000E+00
 -1       881 1.17000E+02 3.48823E+01 0.00000E+00
 -1       882 1.20000E+02 3.48823E+01 0.00000E+00
 -1       883 1.23000E+02 3.48823E+01 0.00000E+00
 -1       884 1.26000E+02 3.48823E+01 0.00000E+00
 -1       885 1.29000E+02 3.48823E+01 0.00000E+00
 -1       886 1.31505E+02 3.43536E+01 0.00000E+00
 -1       887 5.37214E+01 2.55621E+01 0.00000E+00
 -1       888 4.80388E+01 1.45474E+01 0.00000E+00
 -1       889 5.83740E+01 1.51775E+01 0.00000E+00
 -1       890 6.13740E+01 1.51775E+01 0.00000E+00
 -1       891 6.43740E+01 1.51775E+01 0.00000E+00
 -1       892 6.73740E+01 1.51775E+01 0.00000E+00
 -1       893 7.03740E+01 1.51775E+01 0.00000E+00
 -1       894 7.33740E+01 1.51775E+01 0.00000E+00
 -1       895 7.63740E+01 1.51775E+01 0.00000E+00
 -1       896 7.93740E+01 1.51775E+01 0.00000E+00
 -1       897 8.23740E+01 1.51775E+01 0.00000E+00
 -1       898 8.53740E+01 1.51775E+01 0.00000E+00
 -1       899 8.83740E+01 1.51775E+01 0.00000E+00
 -1       900 9.13740E+01 1.51775E+01 0.00000E+00
 -1       901 9.43740E+01 1.51775E+01 0.00000E+00
 -1       902 9.73740E+01 1.51775E+01 0.00000E+00
 -1       903 1.00374E+02 1.51775E+01 0.00000E+00
 -1       904 1.03374E+02 1.51775E+01 0.00000E+00
 -1       905 1.06374E+02 1.51775E+01 0.00000E+00
 -1       906 1.09374E+02 1.51775E+01 0.00000E+00
 -1       907 1.12374E+02 1.51775E+01 0.00000E+00
 -1       908 1.15374E+02 1.51775E+01 0.00000E+00
 -1       909 1.18374E+02 1.51775E+01 0.00000E+00
 -1       910 1.21374E+02 1.51775E+01 0.00000E+00
 -1       911 1.24374E+02 1.51775E+01 0.00000E+00
 -1       912 1.27374E+02 1.51775E+01 0.00000E+00
 -1       913 1.30374E+02 1.51775E+01 0.00000E+00
 -1       914 1.33374E+02 1.51775E+01 0.00000E+00
 -1       915 5.33450E+01 2.92208E+01 0.00000E+00
 -1       916 1.81500E+01 3.44120E+01 0.00000E+00
 -1       917 1.34412E+02 2.94250E+01 0.00000E+00
 -1       918 1.34412E+02 2.64750E+01 0.00000E+00
 -1       919 1.61820E+01 1.56575E+01 0.00000E+00
 -1       920 1.34412E+02 2.35250E+01 0.00000E+00
 -1       921 2.05959E+01 2.28246E+01 0.00000E+00
 -1       922 1.29900E+01 2.79188E+01 0.00000E+00
 -1       923 4.96908E+01 1.97678E+01 0.00000E+00
 -1       924 1.55700E+01 3.41029E+01 0.00000E+00
 -1       925 2.32495E+01 1.67103E+01 0.00000E+00
 -1       926 2.15188E+01 1.97671E+01 0.00000E+00
 -1       927 5.10000E+01 3.52174E+01 0.00000E+00
 -1       928 1.95689E+01 3.26871E+01 0.00000E+00
 -1       929 1.33374E+02 1.81150E+01 0.00000E+00
 -1       930 5.37323E+01 2.39108E+01 0.00000E+00
 -1       931 1.33893E+02 2.08200E+01 0.00000E+00
 -1       932 1.89519E+01 2.44627E+01 0.00000E+00
 -1       933 1.55700E+01 3.11654E+01 0.00000E+00
 -1       934 1.84136E+01 2.83033E+01 0.00000E+00
 -1       935 1.55880E+01 2.05562E+01 0.00000E+00
 -1       936 1.55880E+01 2.35063E+01 0.00000E+00
 -1       937 5.98740E+01 1.77755E+01 0.00000E+00
 -1       938 5.38740E+01 1.77755E+01 0.00000E+00
 -1       939 5.85000E+01 3.22843E+01 0.00000E+00
 -1       940 6.15000E+01 3.22843E+01 0.00000E+00
 -1       941 6.45000E+01 3.22843E+01 0.00000E+00
 -1       942 6.75000E+01 3.22843E+01 0.00000E+00
 -1       943 7.05000E+01 3.22843E+01 0.00000E+00
 -1       944 7.35000E+01 3.22843E+01 0.00000E+00
 -1       945 7.65000E+01 3.22843E+01 0.00000E+00
 -1       946 7.95000E+01 3.22843E+01 0.00000E+00
 -1       947 8.25000E+01 3.22843E+01 0.00000E+00
 -1       948 8.55000E+01 3.22843E+01 0.00000E+00
 -1       949 8.85000E+01 3.22843E+01 0.00000E+00
 -1       950 9.15000E+01 3.22843E+01 0.00000E+00
 -1       951 9.45000E+01 3.22843E+01 0.00000E+00
 -1       952 9.75000E+01 3.22843E+01 0.00000E+00
 -1       953 1.00500E+02 3.22843E+01 0.00000E+00
 -1       954 1.03500E+02 3.22843E+01 0.00000E+00
 -1       955 1.06500E+02 3.22843E+01 0.00000E+00
 -1       956 1.09500E+02 3.22843E+01 0.00000E+00
 -1       957 1.12500E+02 3.22843E+01 0.00000E+00
 -1       958 1.15500E+02 3.22843E+01 0.00000E+00
 -1       959 1.18500E+02 3.22843E+01 0.00000E+00
 -1       960 1.21500E+02 3.22843E+01 0.00000E+00
 -1       961 1.24500E+02 3.22843E+01 0.00000E+00
 -1       962 1.27500E+02 3.22843E+01 0.00000E+00
 -1       963 1.31814E+02 2.79500E+01 0.00000E+00
 -1       964 6.28740E+01 1.77755E+01 0.00000E+00
 -1       965 6.58740E+01 1.77755E+01 0.00000E+00
 -1       966 6.88740E+01 1.77755E+01 0.00000E+00
 -1       967 7.18740E+01 1.77755E+01 0.00000E+00
 -1       968 7.48740E+01 1.77755E+01 0.00000E+00
 -1       969 7.78740E+01 1.77755E+01 0.00000E+00
 -1       970 8.08740E+01 1.77755E+01 0.00000E+00
 -1       971 8.38740E+01 1.77755E+01 0.00000E+00
 -1       972 8.68740E+01 1.77755E+01 0.00000E+00
 -1       973 8.98740E+01 1.77755E+01 0.00000E+00
 -1       974 9.28740E+01 1.77755E+01 0.00000E+00
 -1       975 9.58740E+01 1.77755E+01 0.00000E+00
 -1       976 9.88740E+01 1.77755E+01 0.00000E+00
 -1       977 1.01874E+02 1.77755E+01 0.00000E+00
 -1       978 1.04874E+02 1.77755E+01 0.00000E+00
 -1       979 1.07874E+02 1.77755E+01 0.00000E+00
 -1       980 1.10874E+02 1.77755E+01 0.00000E+00
 -1       981 1.13874E+02 1.77755E+01 0.00000E+00
 -1       982 1.16874E+02 1.77755E+01 0.00000E+00
 -1       983 1.19874E+02 1.77755E+01 0.00000E+00
 -1       984 1.22874E+02 1.77755E+01 0.00000E+00
 -1       985 1.25874E+02 1.77755E+01 0.00000E+00
 -1       986 1.28874E+02 1.77755E+01 0.00000E+00
 -1       987 1.31124E+02 1.79452E+01 0.00000E+00
 -1       988 5.61175E+01 2.76573E+01 0.00000E+00
 -1       989 1.31814E+02 2.50000E+01 0.00000E+00
 -1       990 1.31660E+02 3.11518E+01 0.00000E+00
 -1       991 1.58850E+01 1.81069E+01 0.00000E+00
 -1       992 1.55700E+01 2.82279E+01 0.00000E+00
 -1       993 1.87737E+01 2.06066E+01 0.00000E+00
 -1       994 5.52633E+01 3.15733E+01 0.00000E+00
 -1       995 1.55790E+01 2.58671E+01 0.00000E+00
 -1       996 5.68740E+01 1.77755E+01 0.00000E+00
 -1       997 5.17824E+01 1.87716E+01 0.00000E+00
 -1       998 1.29580E+02 3.17180E+01 0.00000E+00
 -1       999 5.34974E+01 2.09347E+01 0.00000E+00
 -1      1000 1.31295E+02 2.22950E+01 0.00000E+00
 -1      1001 5.66296E+01 2.46540E+01 0.00000E+00
 -1      1002 5.63947E+01 2.16779E+01 0.00000E+00
 -1      1003 5.88088E+01 2.99708E+01 0.00000E+00
 -1      1004 6.30000E+01 2.96863E+01 0.00000E+00
 -1      1005 6.60000E+01 2.96863E+01 0.00000E+00
 -1      1006 6.90000E+01 2.96863E+01 0.00000E+00
 -1      1007 7.20000E+01 2.96863E+01 0.00000E+00
 -1      1008 7.50000E+01 2.96863E+01 0.00000E+00
 -1      1009 7.80000E+01 2.96863E+01 0.00000E+00
 -1      1010 8.10000E+01 2.96863E+01 0.00000E+00
 -1      1011 8.40000E+01 2.96863E+01 0.00000E+00
 -1      1012 8.70000E+01 2.96863E+01 0.00000E+00
 -1      1013 9.00000E+01 2.96863E+01 0.00000E+00
 -1      1014 9.30000E+01 2.96863E+01 0.00000E+00
 -1      1015 9.60000E+01 2.96863E+01 0.00000E+00
 -1      1016 9.90000E+01 2.96863E+01 0.00000E+00
 -1      1017 1.02000E+02 2.96863E+01 0.00000E+00
 -1      1018 1.05000E+02 2.96863E+01 0.00000E+00
 -1      1019 1.08000E+02 2.96863E+01 0.00000E+00
 -1      1020 1.11000E+02 2.96863E+01 0.00000E+00
 -1      1021 1.14000E+02 2.96863E+01 0.00000E+00
 -1      1022 1.17000E+02 2.96863E+01 0.00000E+00
 -1      1023 1.20000E+02 2.96863E+01 0.00000E+00
 -1      1024 1.23000E+02 2.96863E+01 0.00000E+00
 -1      1025 1.26000E+02 2.96863E+01 0.00000E+00
 -1      1026 6.13740E+01 2.03735E+01 0.00000E+00
 -1      1027 7.03740E+01 2.03735E+01 0.00000E+00
 -1      1028 7.33740E+01 2.03735E+01 0.00000E+00
 -1      1029 7.63740E+01 2.03735E+01 0.00000E+00
 -1      1030 7.93740E+01 2.03735E+01 0.00000E+00
 -1      1031 8.23740E+01 2.03735E+01 0.00000E+00
 -1      1032 8.53740E+01 2.03735E+01 0.00000E+00
 -1      1033 8.83740E+01 2.03735E+01 0.00000E+00
 -1      1034 9.13740E+01 2.03735E+01 0.00000E+00
 -1      1035 9.43740E+01 2.03735E+01 0.00000E+00
 -1      1036 9.73740E+01 2.03735E+01 0.00000E+00
 -1      1037 1.00374E+02 2.03735E+01 0.00000E+00
 -1      1038 1.03374E+02 2.03735E+01 0.00000E+00
 -1      1039 1.06374E+02 2.03735E+01 0.00000E+00
 -1      1040 1.09374E+02 2.03735E+01 0.00000E+00
 -1      1041 1.12374E+02 2.03735E+01 0.00000E+00
 -1      1042 1.15374E+02 2.03735E+01 0.00000E+00
 -1      1043 1.18374E+02 2.03735E+01 0.00000E+00
 -1      1044 1.21374E+02 2.03735E+01 0.00000E+00
 -1      1045 1.24374E+02 2.03735E+01 0.00000E+00
 -1      1046 1.27374E+02 2.03735E+01 0.00000E+00
 -1      1047 1.29216E+02 2.64750E+01 0.00000E+00
 -1      1048 5.93209E+01 2.69674E+01 0.00000E+00
 -1      1049 1.31210E+02 2.01201E+01 0.00000E+00
 -1      1050 6.43740E+01 2.03735E+01 0.00000E+00
 -1      1051 5.88844E+01 2.10257E+01 0.00000E+00
 -1      1052 6.73740E+01 2.03735E+01 0.00000E+00
 -1      1053 1.29398E+02 2.90965E+01 0.00000E+00
 -1      1054 1.27699E+02 2.93914E+01 0.00000E+00
 -1      1055 1.28697E+02 2.37700E+01 0.00000E+00
 -1      1056 1.29292E+02 2.02468E+01 0.00000E+00
 -1      1057 5.96688E+01 2.38406E+01 0.00000E+00
 -1      1058 6.75000E+01 2.70883E+01 0.00000E+00
 -1      1059 7.05000E+01 2.70883E+01 0.00000E+00
 -1      1060 7.35000E+01 2.70883E+01 0.00000E+00
 -1      1061 7.65000E+01 2.70883E+01 0.00000E+00
 -1      1062 7.95000E+01 2.70883E+01 0.00000E+00
 -1      1063 8.25000E+01 2.70883E+01 0.00000E+00
 -1      1064 8.55000E+01 2.70883E+01 0.00000E+00
 -1      1065 8.85000E+01 2.70883E+01 0.00000E+00
 -1      1066 9.15000E+01 2.70883E+01 0.00000E+00
 -1      1067 9.45000E+01 2.70883E+01 0.00000E+00
 -1      1068 9.75000E+01 2.70883E+01 0.00000E+00
 -1      1069 1.00500E+02 2.70883E+01 0.00000E+00
 -1      1070 1.03500E+02 2.70883E+01 0.00000E+00
 -1      1071 1.06500E+02 2.70883E+01 0.00000E+00
 -1      1072 1.09500E+02 2.70883E+01 0.00000E+00
 -1      1073 1.12500E+02 2.70883E+01 0.00000E+00
 -1      1074 1.15500E+02 2.70883E+01 0.00000E+00
 -1      1075 1.18500E+02 2.70883E+01 0.00000E+00
 -1      1076 1.21500E+02 2.70883E+01 0.00000E+00
 -1      1077 1.24500E+02 2.70883E+01 0.00000E+00
 -1      1078 6.28740E+01 2.29715E+01 0.00000E+00
 -1      1079 7.18740E+01 2.29715E+01 0.00000E+00
 -1      1080 8.08740E+01 2.29715E+01 0.00000E+00
 -1      1081 8.38740E+01 2.29715E+01 0.00000E+00
 -1      1082 8.68740E+01 2.29715E+01 0.00000E+00
 -1      1083 8.98740E+01 2.29715E+01 0.00000E+00
 -1      1084 9.28740E+01 2.29715E+01 0.00000E+00
 -1      1085 9.58740E+01 2.29715E+01 0.00000E+00
 -1      1086 9.88740E+01 2.29715E+01 0.00000E+00
 -1      1087 1.01874E+02 2.29715E+01 0.00000E+00
 -1      1088 1.04874E+02 2.29715E+01 0.00000E+00
 -1      1089 1.07874E+02 2.29715E+01 0.00000E+00
 -1      1090 1.10874E+02 2.29715E+01 0.00000E+00
 -1      1091 1.13874E+02 2.29715E+01 0.00000E+00
 -1      1092 1.16874E+02 2.29715E+01 0.00000E+00
 -1      1093 1.19874E+02 2.29715E+01 0.00000E+00
 -1      1094 1.22874E+02 2.29715E+01 0.00000E+00
 -1      1095 1.25874E+02 2.29715E+01 0.00000E+00
 -1      1096 7.78740E+01 2.29715E+01 0.00000E+00
 -1      1097 7.48740E+01 2.29715E+01 0.00000E+00
 -1      1098 6.45000E+01 2.70883E+01 0.00000E+00
 -1      1099 6.20844E+01 2.54644E+01 0.00000E+00
 -1      1100 1.26405E+02 2.56120E+01 0.00000E+00
 -1      1101 6.58740E+01 2.29715E+01 0.00000E+00
 -1      1102 6.88740E+01 2.29715E+01 0.00000E+00
 -1      1103 1.23405E+02 2.56120E+01 0.00000E+00
 -1      1104 0.00000E+00 4.85250E+01 0.00000E+00
 -1      1105 0.00000E+00 4.55750E+01 0.00000E+00
 -1      1106 0.00000E+00 4.26250E+01 0.00000E+00
 -1      1107 0.00000E+00 3.96750E+01 0.00000E+00
 -1      1108 0.00000E+00 3.67250E+01 0.00000E+00
 -1      1109 0.00000E+00 3.38000E+01 0.00000E+00
 -1      1110 0.00000E+00 3.08750E+01 0.00000E+00
 -1      1111 0.00000E+00 2.79250E+01 0.00000E+00
 -1      1112 0.00000E+00 2.49750E+01 0.00000E+00
 -1      1113 0.00000E+00 2.20250E+01 0.00000E+00
 -1      1114 0.00000E+00 1.90750E+01 0.00000E+00
 -1      1115 0.00000E+00 1.61500E+01 0.00000E+00
 -1      1116 0.00000E+00 1.32250E+01 0.00000E+00
 -1      1117 0.00000E+00 1.02750E+01 0.00000E+00
 -1      1118 0.00000E+00 7.32500E+00 0.00000E+00
 -1      1119 0.00000E+00 4.37500E+00 0.00000E+00
 -1      1120 0.00000E+00 1.45000E+00 0.00000E+00
 -1      1121 1.57500E+00 5.00000E+01 0.00000E+00
 -1      1122 4.65000E+00 5.00000E+01 0.00000E+00
 -1      1123 7.65000E+00 5.00000E+01 0.00000E+00
 -1      1124 1.06500E+01 5.00000E+01 0.00000E+00
 -1      1125 1.36500E+01 5.00000E+01 0.00000E+00
 -1      1126 1.66500E+01 5.00000E+01 0.00000E+00
 -1      1127 1.96500E+01 5.00000E+01 0.00000E+00
 -1      1128 2.26500E+01 5.00000E+01 0.00000E+00
 -1      1129 2.56500E+01 5.00000E+01 0.00000E+00
 -1      1130 2.86500E+01 5.00000E+01 0.00000E+00
 -1      1131 3.16500E+01 5.00000E+01 0.00000E+00
 -1      1132 3.46500E+01 5.00000E+01 0.00000E+00
 -1      1133 3.75750E+01 5.00000E+01 0.00000E+00
 -1      1134 4.05000E+01 5.00000E+01 0.00000E+00
 -1      1135 4.35000E+01 5.00000E+01 0.00000E+00
 -1      1136 4.65000E+01 5.00000E+01 0.00000E+00
 -1      1137 4.95000E+01 5.00000E+01 0.00000E+00
 -1      1138 5.25000E+01 5.00000E+01 0.00000E+00
 -1      1139 5.55000E+01 5.00000E+01 0.00000E+00
 -1      1140 5.85000E+01 5.00000E+01 0.00000E+00
 -1      1141 6.15000E+01 5.00000E+01 0.00000E+00
 -1      1142 6.45000E+01 5.00000E+01 0.00000E+00
 -1      1143 6.75000E+01 5.00000E+01 0.00000E+00
 -1      1144 7.05000E+01 5.00000E+01 0.00000E+00
 -1      1145 7.35000E+01 5.00000E+01 0.00000E+00
 -1      1146 7.65000E+01 5.00000E+01 0.00000E+00
 -1      1147 7.95000E+01 5.00000E+01 0.00000E+00
 -1      1148 8.25000E+01 5.00000E+01 0.00000E+00
 -1      1149 8.55000E+01 5.00000E+01 0.00000E+00
 -1      1150 8.85000E+01 5.00000E+01 0.00000E+00
 -1      1151 9.15000E+01 5.00000E+01 0.00000E+00
 -1      1152 9.45000E+01 5.00000E+01 0.00000E+00
 -1      1153 9.75000E+01 5.00000E+01 0.00000E+00
 -1      1154 1.00500E+02 5.00000E+01 0.00000E+00
 -1      1155 1.03500E+02 5.00000E+01 0.00000E+00
 -1      1156 1.06500E+02 5.00000E+01 0.00000E+00
 -1      1157 1.09500E+02 5.00000E+01 0.00000E+00
 -1      1158 1.12500E+02 5.00000E+01 0.00000E+00
 -1      1159 1.15500E+02 5.00000E+01 0.00000E+00
 -1      1160 1.18500E+02 5.00000E+01 0.00000E+00
 -1      1161 1.21500E+02 5.00000E+01 0.00000E+00
 -1      1162 1.24500E+02 5.00000E+01 0.00000E+00
 -1      1163 1.27500E+02 5.00000E+01 0.00000E+00
 -1      1164 1.30500E+02 5.00000E+01 0.00000E+00
 -1      1165 1.33500E+02 5.00000E+01 0.00000E+00
 -1      1166 1.36500E+02 5.00000E+01 0.00000E+00
 -1      1167 1.39500E+02 5.00000E+01 0.00000E+00
 -1      1168 1.42500E+02 5.00000E+01 0.00000E+00
 -1      1169 1.45500E+02 5.00000E+01 0.00000E+00
 -1      1170 1.48500E+02 5.00000E+01 0.00000E+00
 -1      1171 1.57500E+00 0.00000E+00 0.00000E+00
 -1      1172 4.65000E+00 0.00000E+00 0.00000E+00
 -1      1173 7.65000E+00 0.00000E+00 0.00000E+00
 -1      1174 1.06500E+01 0.00000E+00 0.00000E+00
 -1      1175 1.36500E+01 0.00000E+00 0.00000E+00
 -1      1176 1.66500E+01 0.00000E+00 0.00000E+00
 -1      1177 1.96500E+01 0.00000E+00 0.00000E+00
 -1      1178 2.26500E+01 0.00000E+00 0.00000E+00
 -1      1179 2.56500E+01 0.00000E+00 0.00000E+00
 -1      1180 2.86500E+01 0.00000E+00 0.00000E+00
 -1      1181 3.16500E+01 0.00000E+00 0.00000E+00
 -1      1182 3.46500E+01 0.00000E+00 0.00000E+00
 -1      1183 3.76500E+01 0.00000E+00 0.00000E+00
 -1      1184 4.06500E+01 0.00000E+00 0.00000E+00
 -1      1185 4.36500E+01 0.00000E+00 0.00000E+00
 -1      1186 4.66500E+01 0.00000E+00 0.00000E+00
 -1      1187 4.96500E+01 0.00000E+00 0.00000E+00
 -1      1188 5.26500E+01 0.00000E+00 0.00000E+00
 -1      1189 5.56500E+01 0.00000E+00 0.00000E+00
 -1      1190 5.86500E+01 0.00000E+00 0.00000E+00
 -1      1191 6.16500E+01 0.00000E+00 0.00000E+00
 -1      1192 6.46500E+01 0.00000E+00 0.00000E+00
 -1      1193 6.76500E+01 0.00000E+00 0.00000E+00
 -1      1194 7.06500E+01 0.00000E+00 0.00000E+00
 -1      1195 7.36500E+01 0.00000E+00 0.00000E+00
 -1      1196 7.66500E+01 0.00000E+00 0.00000E+00
 -1      1197 7.96500E+01 0.00000E+00 0.00000E+00
 -1      1198 8.26500E+01 0.00000E+00 0.00000E+00
 -1      1199 8.56500E+01 0.00000E+00 0.00000E+00
 -1      1200 8.86500E+01 0.00000E+00 0.00000E+00
 -1      1201 9.16500E+01 0.00000E+00 0.00000E+00
 -1      1202 9.46500E+01 0.00000E+00 0.00000E+00
 -1      1203 9.76500E+01 0.00000E+00 0.00000E+00
 -1      1204 1.00650E+02 0.00000E+00 0.00000E+00
 -1      1205 1.03650E+02 0.00000E+00 0.00000E+00
 -1      1206 1.06650E+02 0.00000E+00 0.00000E+00
 -1      1207 1.09650E+02 0.00000E+00 0.00000E+00
 -1      1208 1.12650E+02 0.00000E+00 0.00000E+00
 -1      1209 1.15650E+02 0.00000E+00 0.00000E+00
 -1      1210 1.18650E+02 0.00000E+00 0.00000E+00
 -1      1211 1.21650E+02 0.00000E+00 0.00000E+00
 -1      1212 1.24650E+02 0.00000E+00 0.00000E+00
 -1      1213 1.27650E+02 0.00000E+00 0.00000E+00
 -1      1214 1.30650E+02 0.00000E+00 0.00000E+00
 -1      1215 1.33650E+02 0.00000E+00 0.00000E+00
 -1      1216 1.36650E+02 0.00000E+00 0.00000E+00
 -1      1217 1.39650E+02 0.00000E+00 0.00000E+00
 -1      1218 1.42650E+02 0.00000E+00 0.00000E+00
 -1      1219 1.45650E+02 0.00000E+00 0.00000E+00
 -1      1220 1.48575E+02 0.00000E+00 0.00000E+00
 -1      1221 1.50000E+02 1.47500E+00 0.00000E+00
 -1      1222 1.50000E+02 4.42500E+00 0.00000E+00
 -1      1223 1.50000E+02 7.37500E+00 0.00000E+00
 -1      1224 1.50000E+02 1.03250E+01 0.00000E+00
 -1      1225 1.50000E+02 1.32750E+01 0.00000E+00
 -1      1226 1.50000E+02 1.62000E+01 0.00000E+00
 -1      1227 1.50000E+02 1.91250E+01 0.00000E+00
 -1      1228 1.50000E+02 2.20750E+01 0.00000E+00
 -1      1229 1.50000E+02 2.50250E+01 0.00000E+00
 -1      1230 1.50000E+02 2.79750E+01 0.00000E+00
 -1      1231 1.50000E+02 3.09250E+01 0.00000E+00
 -1      1232 1.50000E+02 3.38500E+01 0.00000E+00
 -1      1233 1.50000E+02 3.67750E+01 0.00000E+00
 -1      1234 1.50000E+02 3.97250E+01 0.00000E+00
 -1      1235 1.50000E+02 4.26750E+01 0.00000E+00
 -1      1236 1.50000E+02 4.56250E+01 0.00000E+00
 -1      1237 1.50000E+02 4.85500E+01 0.00000E+00
 -1      1238 4.31243E+01 2.81372E+01 0.00000E+00
 -1      1239 4.28150E+01 2.66868E+01 0.00000E+00
 -1      1240 4.22137E+01 2.53453E+01 0.00000E+00
 -1      1241 4.13226E+01 2.41340E+01 0.00000E+00
 -1      1242 4.01954E+01 2.31423E+01 0.00000E+00
 -1      1243 3.88906E+01 2.24172E+01 0.00000E+00
 -1      1244 3.74468E+01 2.19824E+01 0.00000E+00
 -1      1245 3.59477E+01 2.18668E+01 0.00000E+00
 -1      1246 3.43933E+01 2.20906E+01 0.00000E+00
 -1      1247 3.29723E+01 2.26325E+01 0.00000E+00
 -1      1248 3.17647E+01 2.34171E+01 0.00000E+00
 -1      1249 3.07131E+01 2.44693E+01 0.00000E+00
 -1      1250 2.99049E+01 2.57255E+01 0.00000E+00
 -1      1251 2.93806E+01 2.71280E+01 0.00000E+00
 -1      1252 2.91651E+01 2.86589E+01 0.00000E+00
 -1      1253 2.92817E+01 3.01521E+01 0.00000E+00
 -1      1254 2.96903E+01 3.15311E+01 0.00000E+00
 -1      1255 3.03878E+01 3.28205E+01 0.00000E+00
 -1      1256 3.13649E+01 3.39613E+01 0.00000E+00
 -1      1257 3.25855E+01 3.48808E+01 0.00000E+00
 -1      1258 3.40146E+01 3.55260E+01 0.00000E+00
 -1      1259 3.54827E+01 3.58305E+01 0.00000E+00
 -1      1260 3.69622E+01 3.58176E+01 0.00000E+00
 -1      1261 3.84334E+01 3.54847E+01 0.00000E+00
 -1      1262 3.98207E+01 3.48313E+01 0.00000E+00
 -1      1263 4.10614E+01 3.38631E+01 0.00000E+00
 -1      1264 4.20739E+01 3.26119E+01 0.00000E+00
 -1      1265 4.27754E+01 3.11577E+01 0.00000E+00
 -1      1266 4.31194E+01 2.96348E+01 0.00000E+00
 -1      1267 1.57500E+00 4.85250E+01 0.00000E+00
 -1      1268 1.29900E+00 4.48375E+01 0.00000E+00
 -1      1269 1.29900E+00 4.63125E+01 0.00000E+00
 -1      1270 1.29900E+00 4.18875E+01 0.00000E+00
 -1      1271 1.29900E+00 4.33625E+01 0.00000E+00
 -1      1272 2.59800E+00 4.41000E+01 0.00000E+00
 -1      1273 1.29900E+00 3.89375E+01 0.00000E+00
 -1      1274 1.29900E+00 4.04125E+01 0.00000E+00
 -1      1275 2.59800E+00 4.11500E+01 0.00000E+00
 -1      1276 1.29900E+00 3.59875E+01 0.00000E+00
 -1      1277 1.29900E+00 3.74625E+01 0.00000E+00
 -1      1278 2.59800E+00 3.82000E+01 0.00000E+00
 -1      1279 1.29900E+00 3.30875E+01 0.00000E+00
 -1      1280 1.29900E+00 3.45375E+01 0.00000E+00
 -1      1281 2.59800E+00 3.52750E+01 0.00000E+00
 -1      1282 1.29900E+00 3.01375E+01 0.00000E+00
 -1      1283 1.29900E+00 3.16125E+01 0.00000E+00
 -1      1284 2.59800E+00 3.23500E+01 0.00000E+00
 -1      1285 1.29900E+00 2.71875E+01 0.00000E+00
 -1      1286 1.29900E+00 2.86625E+01 0.00000E+00
 -1      1287 2.59800E+00 2.94000E+01 0.00000E+00
 -1      1288 1.29900E+00 2.42375E+01 0.00000E+00
 -1      1289 1.29900E+00 2.57125E+01 0.00000E+00
 -1      1290 2.59800E+00 2.64500E+01 0.00000E+00
 -1      1291 1.29900E+00 2.12875E+01 0.00000E+00
 -1      1292 1.29900E+00 2.27625E+01 0.00000E+00
 -1      1293 2.59800E+00 2.35000E+01 0.00000E+00
 -1      1294 1.29900E+00 1.83375E+01 0.00000E+00
 -1      1295 1.29900E+00 1.98125E+01 0.00000E+00
 -1      1296 2.59800E+00 2.05500E+01 0.00000E+00
 -1      1297 1.29900E+00 1.54375E+01 0.00000E+00
 -1      1298 1.29900E+00 1.68875E+01 0.00000E+00
 -1      1299 2.59800E+00 1.76250E+01 0.00000E+00
 -1      1300 1.29900E+00 1.24875E+01 0.00000E+00
 -1      1301 1.29900E+00 1.39625E+01 0.00000E+00
 -1      1302 2.59800E+00 1.47000E+01 0.00000E+00
 -1      1303 1.29900E+00 9.53750E+00 0.00000E+00
 -1      1304 1.29900E+00 1.10125E+01 0.00000E+00
 -1      1305 2.59800E+00 1.17500E+01 0.00000E+00
 -1      1306 1.29900E+00 6.58750E+00 0.00000E+00
 -1      1307 1.29900E+00 8.06250E+00 0.00000E+00
 -1      1308 2.59800E+00 8.80000E+00 0.00000E+00
 -1      1309 1.29900E+00 3.63750E+00 0.00000E+00
 -1      1310 1.29900E+00 5.11250E+00 0.00000E+00
 -1      1311 2.59800E+00 5.85000E+00 0.00000E+00
 -1      1312 1.43700E+00 1.09375E+00 0.00000E+00
 -1      1313 1.43700E+00 2.54375E+00 0.00000E+00
 -1      1314 2.73600E+00 3.28125E+00 0.00000E+00
 -1      1315 3.01200E+00 1.09375E+00 0.00000E+00
 -1      1316 3.90000E+00 4.87010E+01 0.00000E+00
 -1      1317 5.40000E+00 4.87010E+01 0.00000E+00
 -1      1318 6.90000E+00 4.87010E+01 0.00000E+00
 -1      1319 8.40000E+00 4.87010E+01 0.00000E+00
 -1      1320 6.15000E+00 4.74020E+01 0.00000E+00
 -1      1321 9.90000E+00 4.87010E+01 0.00000E+00
 -1      1322 1.14000E+01 4.87010E+01 0.00000E+00
 -1      1323 9.15000E+00 4.74020E+01 0.00000E+00
 -1      1324 1.29000E+01 4.87010E+01 0.00000E+00
 -1      1325 1.44000E+01 4.87010E+01 0.00000E+00
 -1      1326 1.21500E+01 4.74020E+01 0.00000E+00
 -1      1327 1.59000E+01 4.87010E+01 0.00000E+00
 -1      1328 1.74000E+01 4.87010E+01 0.00000E+00
 -1      1329 1.51500E+01 4.74020E+01 0.00000E+00
 -1      1330 1.89000E+01 4.87010E+01 0.00000E+00
 -1      1331 2.04000E+01 4.87010E+01 0.00000E+00
 -1      1332 1.81500E+01 4.74020E+01 0.00000E+00
 -1      1333 2.19000E+01 4.87010E+01 0.00000E+00
 -1      1334 2.34000E+01 4.87010E+01 0.00000E+00
 -1      1335 2.11500E+01 4.74020E+01 0.00000E+00
 -1      1336 2.49000E+01 4.87010E+01 0.00000E+00
 -1      1337 2.64000E+01 4.87010E+01 0.00000E+00
 -1      1338 2.41500E+01 4.74020E+01 0.00000E+00
 -1      1339 2.79000E+01 4.87010E+01 0.00000E+00
 -1      1340 2.94000E+01 4.87010E+01 0.00000E+00
 -1      1341 2.71500E+01 4.74020E+01 0.00000E+00
 -1      1342 3.09000E+01 4.87010E+01 0.00000E+00
 -1      1343 3.24000E+01 4.87010E+01 0.00000E+00
 -1      1344 3.01500E+01 4.74020E+01 0.00000E+00
 -1      1345 3.39000E+01 4.87010E+01 0.00000E+00
 -1      1346 3.54000E+01 4.87010E+01 0.00000E+00
 -1      1347 3.31500E+01 4.74020E+01 0.00000E+00
 -1      1348 3.68250E+01 4.87010E+01 0.00000E+00
 -1      1349 3.82500E+01 4.87010E+01 0.00000E+00
 -1      1350 3.60750E+01 4.74020E+01 0.00000E+00
 -1      1351 3.97500E+01 4.87010E+01 0.00000E+00
 -1      1352 4.12500E+01 4.87010E+01 0.00000E+00
 -1      1353 3.90000E+01 4.74020E+01 0.00000E+00
 -1      1354 4.27500E+01 4.87010E+01 0.00000E+00
 -1      1355 4.42500E+01 4.87010E+01 0.00000E+00
 -1      1356 4.20000E+01 4.74020E+01 0.00000E+00
 -1      1357 4.57500E+01 4.87010E+01 0.00000E+00
 -1      1358 4.72500E+01 4.87010E+01 0.00000E+00
 -1      1359 4.50000E+01 4.74020E+01 0.00000E+00
 -1      1360 4.87500E+01 4.87010E+01 0.00000E+00
 -1      1361 5.02500E+01 4.87010E+01 0.00000E+00
 -1      1362 4.80000E+01 4.74020E+01 0.00000E+00
 -1      1363 5.17500E+01 4.87010E+01 0.00000E+00
 -1      1364 5.32500E+01 4.87010E+01 0.00000E+00
 -1      1365 5.10000E+01 4.74020E+01 0.00000E+00
 -1      1366 5.47500E+01 4.87010E+01 0.00000E+00
 -1      1367 5.62500E+01 4.87010E+01 0.00000E+00
 -1      1368 5.40000E+01 4.74020E+01 0.00000E+00
 -1      1369 5.77500E+01 4.87010E+01 0.00000E+00
 -1      1370 5.92500E+01 4.87010E+01 0.00000E+00
 -1      1371 5.70000E+01 4.74020E+01 0.00000E+00
 -1      1372 6.07500E+01 4.87010E+01 0.00000E+00
 -1      1373 6.22500E+01 4.87010E+01 0.00000E+00
 -1      1374 6.00000E+01 4.74020E+01 0.00000E+00
 -1      1375 6.37500E+01 4.87010E+01 0.00000E+00
 -1      1376 6.52500E+01 4.87010E+01 0.00000E+00
 -1      1377 6.30000E+01 4.74020E+01 0.00000E+00
 -1      1378 6.67500E+01 4.87010E+01 0.00000E+00
 -1      1379 6.82500E+01 4.87010E+01 0.00000E+00
 -1      1380 6.60000E+01 4.74020E+01 0.00000E+00
 -1      1381 6.97500E+01 4.87010E+01 0.00000E+00
 -1      1382 7.12500E+01 4.87010E+01 0.00000E+00
 -1      1383 6.90000E+01 4.74020E+01 0.00000E+00
 -1      1384 7.27500E+01 4.87010E+01 0.00000E+00
 -1      1385 7.42500E+01 4.87010E+01 0.00000E+00
 -1      1386 7.20000E+01 4.74020E+01 0.00000E+00
 -1      1387 7.57500E+01 4.87010E+01 0.00000E+00
 -1      1388 7.72500E+01 4.87010E+01 0.00000E+00
 -1      1389 7.50000E+01 4.74020E+01 0.00000E+00
 -1      1390 7.87500E+01 4.87010E+01 0.00000E+00
 -1      1391 8.02500E+01 4.87010E+01 0.00000E+00
 -1      1392 7.80000E+01 4.74020E+01 0.00000E+00
 -1      1393 8.17500E+01 4.87010E+01 0.00000E+00
 -1      1394 8.32500E+01 4.87010E+01 0.00000E+00
 -1      1395 8.10000E+01 4.74020E+01 0.00000E+00
 -1      1396 8.47500E+01 4.87010E+01 0.00000E+00
 -1      1397 8.62500E+01 4.87010E+01 0.00000E+00
 -1      1398 8.40000E+01 4.74020E+01 0.00000E+00
 -1      1399 8.77500E+01 4.87010E+01 0.00000E+00
 -1      1400 8.92500E+01 4.87010E+01 0.00000E+00
 -1      1401 8.70000E+01 4.74020E+01 0.00000E+00
 -1      1402 9.07500E+01 4.87010E+01 0.00000E+00
 -1      1403 9.22500E+01 4.87010E+01 0.00000E+00
 -1      1404 9.00000E+01 4.74020E+01 0.00000E+00
 -1      1405 9.37500E+01 4.87010E+01 0.00000E+00
 -1      1406 9.52500E+01 4.87010E+01 0.00000E+00
 -1      1407 9.30000E+01 4.74020E+01 0.00000E+00
 -1      1408 9.67500E+01 4.87010E+01 0.00000E+00
 -1      1409 9.82500E+01 4.87010E+01 0.00000E+00
 -1      1410 9.60000E+01 4.74020E+01 0.00000E+00
 -1      1411 9.97500E+01 4.87010E+01 0.00000E+00
 -1      1412 1.01250E+02 4.87010E+01 0.00000E+00
 -1      1413 9.90000E+01 4.74020E+01 0.00000E+00
 -1      1414 1.02750E+02 4.87010E+01 0.00000E+00
 -1      1415 1.04250E+02 4.87010E+01 0.00000E+00
 -1      1416 1.02000E+02 4.74020E+01 0.00000E+00
 -1      1417 1.05750E+02 4.87010E+01 0.00000E+00
 -1      1418 1.07250E+02 4.87010E+01 0.00000E+00
 -1      1419 1.05000E+02 4.74020E+01 0.00000E+00
 -1      1420 1.08750E+02 4.87010E+01 0.00000E+00
 -1      1421 1.10250E+02 4.87010E+01 0.00000E+00
 -1      1422 1.08000E+02 4.74020E+01 0.00000E+00
 -1      1423 1.11750E+02 4.87010E+01 0.00000E+00
 -1      1424 1.13250E+02 4.87010E+01 0.00000E+00
 -1      1425 1.11000E+02 4.74020E+01 0.00000E+00
 -1      1426 1.14750E+02 4.87010E+01 0.00000E+00
 -1      1427 1.16250E+02 4.87010E+01 0.00000E+00
 -1      1428 1.14000E+02 4.74020E+01 0.00000E+00
 -1      1429 1.17750E+02 4.87010E+01 0.00000E+00
 -1      1430 1.19250E+02 4.87010E+01 0.00000E+00
 -1      1431 1.17000E+02 4.74020E+01 0.00000E+00
 -1      1432 1.20750E+02 4.87010E+01 0.00000E+00
 -1      1433 1.22250E+02 4.87010E+01 0.00000E+00
 -1      1434 1.20000E+02 4.74020E+01 0.00000E+00
 -1      1435 1.23750E+02 4.87010E+01 0.00000E+00
 -1      1436 1.25250E+02 4.87010E+01 0.00000E+00
 -1      1437 1.23000E+02 4.74020E+01 0.00000E+00
 -1      1438 1.26750E+02 4.87010E+01 0.00000E+00
 -1      1439 1.28250E+02 4.87010E+01 0.00000E+00
 -1      1440 1.26000E+02 4.74020E+01 0.00000E+00
 -1      1441 1.29750E+02 4.87010E+01 0.00000E+00
 -1      1442 1.31250E+02 4.87010E+01 0.00000E+00
 -1      1443 1.29000E+02 4.74020E+01 0.00000E+00
 -1      1444 1.32750E+02 4.87010E+01 0.00000E+00
 -1      1445 1.34250E+02 4.87010E+01 0.00000E+00
 -1      1446 1.32000E+02 4.74020E+01 0.00000E+00
 -1      1447 1.35750E+02 4.87010E+01 0.00000E+00
 -1      1448 1.37250E+02 4.87010E+01 0.00000E+00
 -1      1449 1.35000E+02 4.74020E+01 0.00000E+00
 -1      1450 1.38750E+02 4.87010E+01 0.00000E+00
 -1      1451 1.40250E+02 4.87010E+01 0.00000E+00
 -1      1452 1.38000E+02 4.74020E+01 0.00000E+00
 -1      1453 1.41750E+02 4.87010E+01 0.00000E+00
 -1      1454 1.43250E+02 4.87010E+01 0.00000E+00
 -1      1455 1.41000E+02 4.74020E+01 0.00000E+00
 -1      1456 1.44750E+02 4.87010E+01 0.00000E+00
 -1      1457 1.46250E+02 4.87010E+01 0.00000E+00
 -1      1458 1.44000E+02 4.74020E+01 0.00000E+00
 -1      1459 1.47375E+02 4.86255E+01 0.00000E+00
 -1      1460 1.48875E+02 4.86255E+01 0.00000E+00
 -1      1461 1.48875E+02 4.71755E+01 0.00000E+00
 -1      1462 1.46625E+02 4.73265E+01 0.00000E+00
 -1      1463 6.01200E+00 1.09375E+00 0.00000E+00
 -1      1464 4.51200E+00 1.09375E+00 0.00000E+00
 -1      1465 4.37400E+00 2.18750E+00 0.00000E+00
 -1      1466 9.01200E+00 1.09375E+00 0.00000E+00
 -1      1467 7.51200E+00 1.09375E+00 0.00000E+00
 -1      1468 7.37400E+00 2.18750E+00 0.00000E+00
 -1      1469 1.20120E+01 1.09375E+00 0.00000E+00
 -1      1470 1.05120E+01 1.09375E+00 0.00000E+00
 -1      1471 1.03740E+01 2.18750E+00 0.00000E+00
 -1      1472 1.50120E+01 1.09375E+00 0.00000E+00
 -1      1473 1.35120E+01 1.09375E+00 0.00000E+00
 -1      1474 1.33740E+01 2.18750E+00 0.00000E+00
 -1      1475 1.80120E+01 1.09375E+00 0.00000E+00
 -1      1476 1.65120E+01 1.09375E+00 0.00000E+00
 -1      1477 1.63740E+01 2.18750E+00 0.00000E+00
 -1      1478 2.10120E+01 1.09375E+00 0.00000E+00
 -1      1479 1.95120E+01 1.09375E+00 0.00000E+00
 -1      1480 1.93740E+01 2.18750E+00 0.00000E+00
 -1      1481 2.40120E+01 1.09375E+00 0.00000E+00
 -1      1482 2.25120E+01 1.09375E+00 0.00000E+00
 -1      1483 2.23740E+01 2.18750E+00 0.00000E+00
 -1      1484 2.70120E+01 1.09375E+00 0.00000E+00
 -1      1485 2.55120E+01 1.09375E+00 0.00000E+00
 -1      1486 2.53740E+01 2.18750E+00 0.00000E+00
 -1      1487 3.00120E+01 1.09375E+00 0.00000E+00
 -1      1488 2.85120E+01 1.09375E+00 0.00000E+00
 -1      1489 2.83740E+01 2.18750E+00 0.00000E+00
 -1      1490 3.30120E+01 1.09375E+00 0.00000E+00
 -1      1491 3.15120E+01 1.09375E+00 0.00000E+00
 -1      1492 3.13740E+01 2.18750E+00 0.00000E+00
 -1      1493 3.60120E+01 1.09375E+00 0.00000E+00
 -1      1494 3.45120E+01 1.09375E+00 0.00000E+00
 -1      1495 3.43740E+01 2.18750E+00 0.00000E+00
 -1      1496 3.90120E+01 1.09375E+00 0.00000E+00
 -1      1497 3.75120E+01 1.09375E+00 0.00000E+00
 -1      1498 3.73740E+01 2.18750E+00 0.00000E+00
 -1      1499 4.20120E+01 1.09375E+00 0.00000E+00
 -1      1500 4.05120E+01 1.09375E+00 0.00000E+00
 -1      1501 4.03740E+01 2.18750E+00 0.00000E+00
 -1      1502 4.50120E+01 1.09375E+00 0.00000E+00
 -1      1503 4.35120E+01 1.09375E+00 0.00000E+00
 -1      1504 4.33740E+01 2.18750E+00 0.00000E+00
 -1      1505 4.80120E+01 1.09375E+00 0.00000E+00
 -1      1506 4.65120E+01 1.09375E+00 0.00000E+00
 -1      1507 4.63740E+01 2.18750E+00 0.00000E+00
 -1      1508 5.10120E+01 1.09375E+00 0.00000E+00
 -1      1509 4.95120E+01 1.09375E+00 0.00000E+00
 -1      1510 4.93740E+01 2.18750E+00 0.00000E+00
 -1      1511 5.40120E+01 1.09375E+00 0.00000E+00
 -1      1512 5.25120E+01 1.09375E+00 0.00000E+00
 -1      1513 5.23740E+01 2.18750E+00 0.00000E+00
 -1      1514 5.70120E+01 1.09375E+00 0.00000E+00
 -1      1515 5.55120E+01 1.09375E+00 0.00000E+00
 -1      1516 5.53740E+01 2.18750E+00 0.00000E+00
 -1      1517 6.00120E+01 1.09375E+00 0.00000E+00
 -1      1518 5.85120E+01 1.09375E+00 0.00000E+00
 -1      1519 5.83740E+01 2.18750E+00 0.00000E+00
 -1      1520 6.30120E+01 1.09375E+00 0.00000E+00
 -1      1521 6.15120E+01 1.09375E+00 0.00000E+00
 -1      1522 6.13740E+01 2.18750E+00 0.00000E+00
 -1      1523 6.60120E+01 1.09375E+00 0.00000E+00
 -1      1524 6.45120E+01 1.09375E+00 0.00000E+00
 -1      1525 6.43740E+01 2.18750E+00 0.00000E+00
 -1      1526 6.90120E+01 1.09375E+00 0.00000E+00
 -1      1527 6.75120E+01 1.09375E+00 0.00000E+00
 -1      1528 6.73740E+01 2.18750E+00 0.00000E+00
 -1      1529 7.20120E+01 1.09375E+00 0.00000E+00
 -1      1530 7.05120E+01 1.09375E+00 0.00000E+00
 -1      1531 7.03740E+01 2.18750E+00 0.00000E+00
 -1      1532 7.50120E+01 1.09375E+00 0.00000E+00
 -1      1533 7.35120E+01 1.09375E+00 0.00000E+00
 -1      1534 7.33740E+01 2.18750E+00 0.00000E+00
 -1      1535 7.80120E+01 1.09375E+00 0.00000E+00
 -1      1536 7.65120E+01 1.09375E+00 0.00000E+00
 -1      1537 7.63740E+01 2.18750E+00 0.00000E+00
 -1      1538 8.10120E+01 1.09375E+00 0.00000E+00
 -1      1539 7.95120E+01 1.09375E+00 0.00000E+00
 -1      1540 7.93740E+01 2.18750E+00 0.00000E+00
 -1      1541 8.40120E+01 1.09375E+00 0.00000E+00
 -1      1542 8.25120E+01 1.09375E+00 0.00000E+00
 -1      1543 8.23740E+01 2.18750E+00 0.00000E+00
 -1      1544 8.70120E+01 1.09375E+00 0.00000E+00
 -1      1545 8.55120E+01 1.09375E+00 0.00000E+00
 -1      1546 8.53740E+01 2.18750E+00 0.00000E+00
 -1      1547 9.00120E+01 1.09375E+00 0.00000E+00
 -1      1548 8.85120E+01 1.09375E+00 0.00000E+00
 -1      1549 8.83740E+01 2.18750E+00 0.00000E+00
 -1      1550 9.30120E+01 1.09375E+00 0.00000E+00
 -1      1551 9.15120E+01 1.09375E+00 0.00000E+00
 -1      1552 9.13740E+01 2.18750E+00 0.00000E+00
 -1      1553 9.60120E+01 1.09375E+00 0.00000E+00
 -1      1554 9.45120E+01 1.09375E+00 0.00000E+00
 -1      1555 9.43740E+01 2.18750E+00 0.00000E+00
 -1      1556 9.90120E+01 1.09375E+00 0.00000E+00
 -1      1557 9.75120E+01 1.09375E+00 0.00000E+00
 -1      1558 9.73740E+01 2.18750E+00 0.00000E+00
 -1      1559 1.02012E+02 1.09375E+00 0.00000E+00
 -1      1560 1.00512E+02 1.09375E+00 0.00000E+00
 -1      1561 1.00374E+02 2.18750E+00 0.00000E+00
 -1      1562 1.05012E+02 1.09375E+00 0.00000E+00
 -1      1563 1.03512E+02 1.09375E+00 0.00000E+00
 -1      1564 1.03374E+02 2.18750E+00 0.00000E+00
 -1      1565 1.08012E+02 1.09375E+00 0.00000E+00
 -1      1566 1.06512E+02 1.09375E+00 0.00000E+00
 -1      1567 1.06374E+02 2.18750E+00 0.00000E+00
 -1      1568 1.11012E+02 1.09375E+00 0.00000E+00
 -1      1569 1.09512E+02 1.09375E+00 0.00000E+00
 -1      1570 1.09374E+02 2.18750E+00 0.00000E+00
 -1      1571 1.14012E+02 1.09375E+00 0.00000E+00
 -1      1572 1.12512E+02 1.09375E+00 0.00000E+00
 -1      1573 1.12374E+02 2.18750E+00 0.00000E+00
 -1      1574 1.17012E+02 1.09375E+00 0.00000E+00
 -1      1575 1.15512E+02 1.09375E+00 0.00000E+00
 -1      1576 1.15374E+02 2.18750E+00 0.00000E+00
 -1      1577 1.20012E+02 1.09375E+00 0.00000E+00
 -1      1578 1.18512E+02 1.09375E+00 0.00000E+00
 -1      1579 1.18374E+02 2.18750E+00 0.00000E+00
 -1      1580 1.23012E+02 1.09375E+00 0.00000E+00
 -1      1581 1.21512E+02 1.09375E+00 0.00000E+00
 -1      1582 1.21374E+02 2.18750E+00 0.00000E+00
 -1      1583 1.26012E+02 1.09375E+00 0.00000E+00
 -1      1584 1.24512E+02 1.09375E+00 0.00000E+00
 -1      1585 1.24374E+02 2.18750E+00 0.00000E+00
 -1      1586 1.29012E+02 1.09375E+00 0.00000E+00
 -1      1587 1.27512E+02 1.09375E+00 0.00000E+00
 -1      1588 1.27374E+02 2.18750E+00 0.00000E+00
 -1      1589 1.32012E+02 1.09375E+00 0.00000E+00
 -1      1590 1.30512E+02 1.09375E+00 0.00000E+00
 -1      1591 1.30374E+02 2.18750E+00 0.00000E+00
 -1      1592 1.35012E+02 1.09375E+00 0.00000E+00
 -1      1593 1.33512E+02 1.09375E+00 0.00000E+00
 -1      1594 1.33374E+02 2.18750E+00 0.00000E+00
 -1      1595 1.38012E+02 1.09375E+00 0.00000E+00
 -1      1596 1.36512E+02 1.09375E+00 0.00000E+00
 -1      1597 1.36374E+02 2.18750E+00 0.00000E+00
 -1      1598 1.41012E+02 1.09375E+00 0.00000E+00
 -1      1599 1.39512E+02 1.09375E+00 0.00000E+00
 -1      1600 1.39374E+02 2.18750E+00 0.00000E+00
 -1      1601 1.44012E+02 1.09375E+00 0.00000E+00
 -1      1602 1.42512E+02 1.09375E+00 0.00000E+00
 -1      1603 1.42374E+02 2.18750E+00 0.00000E+00
 -1      1604 1.47012E+02 1.09375E+00 0.00000E+00
 -1      1605 1.45512E+02 1.09375E+00 0.00000E+00
 -1      1606 1.45374E+02 2.18750E+00 0.00000E+00
 -1      1607 1.48575E+02 1.47500E+00 0.00000E+00
 -1      1608 1.48701E+02 5.16250E+00 0.00000E+00
 -1      1609 1.48701E+02 3.68750E+00 0.00000E+00
 -1      1610 1.48701E+02 8.11250E+00 0.00000E+00
 -1      1611 1.48701E+02 6.63750E+00 0.00000E+00
 -1      1612 1.47402E+02 5.90000E+00 0.00000E+00
 -1      1613 1.48701E+02 1.10625E+01 0.00000E+00
 -1      1614 1.48701E+02 9.58750E+00 0.00000E+00
 -1      1615 1.47402E+02 8.85000E+00 0.00000E+00
 -1      1616 1.48701E+02 1.40125E+01 0.00000E+00
 -1      1617 1.48701E+02 1.25375E+01 0.00000E+00
 -1      1618 1.47402E+02 1.18000E+01 0.00000E+00
 -1      1619 1.48701E+02 1.69125E+01 0.00000E+00
 -1      1620 1.48701E+02 1.54625E+01 0.00000E+00
 -1      1621 1.47402E+02 1.47250E+01 0.00000E+00
 -1      1622 1.48701E+02 1.98625E+01 0.00000E+00
 -1      1623 1.48701E+02 1.83875E+01 0.00000E+00
 -1      1624 1.47402E+02 1.76500E+01 0.00000E+00
 -1      1625 1.48701E+02 2.28125E+01 0.00000E+00
 -1      1626 1.48701E+02 2.13375E+01 0.00000E+00
 -1      1627 1.47402E+02 2.06000E+01 0.00000E+00
 -1      1628 1.48701E+02 2.57625E+01 0.00000E+00
 -1      1629 1.48701E+02 2.42875E+01 0.00000E+00
 -1      1630 1.47402E+02 2.35500E+01 0.00000E+00
 -1      1631 1.48701E+02 2.87125E+01 0.00000E+00
 -1      1632 1.48701E+02 2.72375E+01 0.00000E+00
 -1      1633 1.47402E+02 2.65000E+01 0.00000E+00
 -1      1634 1.48701E+02 3.16625E+01 0.00000E+00
 -1      1635 1.48701E+02 3.01875E+01 0.00000E+00
 -1      1636 1.47402E+02 2.94500E+01 0.00000E+00
 -1      1637 1.48701E+02 3.45625E+01 0.00000E+00
 -1      1638 1.48701E+02 3.31125E+01 0.00000E+00
 -1      1639 1.47402E+02 3.23750E+01 0.00000E+00
 -1      1640 1.48701E+02 3.75125E+01 0.00000E+00
 -1      1641 1.48701E+02 3.60375E+01 0.00000E+00
 -1      1642 1.47402E+02 3.53000E+01 0.00000E+00
 -1      1643 1.48701E+02 4.04625E+01 0.00000E+00
 -1      1644 1.48701E+02 3.89875E+01 0.00000E+00
 -1      1645 1.47402E+02 3.82500E+01 0.00000E+00
 -1      1646 1.48701E+02 4.34125E+01 0.00000E+00
 -1      1647 1.48701E+02 4.19375E+01 0.00000E+00
 -1      1648 1.47402E+02 4.12000E+01 0.00000E+00
 -1      1649 1.48788E+02 4.60315E+01 0.00000E+00
 -1      1650 1.48788E+02 4.45565E+01 0.00000E+00
 -1      1651 1.47489E+02 4.38190E+01 0.00000E+00
 -1      1652 1.47663E+02 4.61070E+01 0.00000E+00
 -1      1653 4.36520E+01 2.77171E+01 0.00000E+00
 -1      1654 4.37273E+01 2.84394E+01 0.00000E+00
 -1      1655 4.33142E+01 2.61254E+01 0.00000E+00
 -1      1656 4.35495E+01 2.68446E+01 0.00000E+00
 -1      1657 4.25270E+01 2.47505E+01 0.00000E+00
 -1      1658 4.28855E+01 2.53673E+01 0.00000E+00
 -1      1659 4.15931E+01 2.33501E+01 0.00000E+00
 -1      1660 4.21271E+01 2.39327E+01 0.00000E+00
 -1      1661 4.02574E+01 2.24373E+01 0.00000E+00
 -1      1662 4.08385E+01 2.28470E+01 0.00000E+00
 -1      1663 3.87500E+01 2.17469E+01 0.00000E+00
 -1      1664 3.94698E+01 2.20516E+01 0.00000E+00
 -1      1665 3.71942E+01 2.13570E+01 0.00000E+00
 -1      1666 3.79081E+01 2.14903E+01 0.00000E+00
 -1      1667 3.55407E+01 2.12742E+01 0.00000E+00
 -1      1668 3.63177E+01 2.12504E+01 0.00000E+00
 -1      1669 3.38361E+01 2.15263E+01 0.00000E+00
 -1      1670 3.46035E+01 2.13259E+01 0.00000E+00
 -1      1671 3.23703E+01 2.22552E+01 0.00000E+00
 -1      1672 3.30181E+01 2.19236E+01 0.00000E+00
 -1      1673 3.11296E+01 2.31975E+01 0.00000E+00
 -1      1674 3.16838E+01 2.27500E+01 0.00000E+00
 -1      1675 2.99662E+01 2.43650E+01 0.00000E+00
 -1      1676 3.04529E+01 2.37615E+01 0.00000E+00
 -1      1677 2.92350E+01 2.57914E+01 0.00000E+00
 -1      1678 2.95571E+01 2.51492E+01 0.00000E+00
 -1      1679 2.86577E+01 2.73449E+01 0.00000E+00
 -1      1680 2.88508E+01 2.65904E+01 0.00000E+00
 -1      1681 2.85900E+01 2.90258E+01 0.00000E+00
 -1      1682 2.86125E+01 2.82590E+01 0.00000E+00
 -1      1683 2.87495E+01 3.06234E+01 0.00000E+00
 -1      1684 2.86150E+01 2.99053E+01 0.00000E+00
 -1      1685 2.92978E+01 3.20756E+01 0.00000E+00
 -1      1686 2.90281E+01 3.14213E+01 0.00000E+00
 -1      1687 3.00669E+01 3.35000E+01 0.00000E+00
 -1      1688 2.96383E+01 3.28745E+01 0.00000E+00
 -1      1689 3.12187E+01 3.46592E+01 0.00000E+00
 -1      1690 3.06771E+01 3.41495E+01 0.00000E+00
 -1      1691 3.26354E+01 3.55644E+01 0.00000E+00
 -1      1692 3.19611E+01 3.51636E+01 0.00000E+00
 -1      1693 3.42150E+01 3.61813E+01 0.00000E+00
 -1      1694 3.34693E+01 3.59409E+01 0.00000E+00
 -1      1695 3.57796E+01 3.64737E+01 0.00000E+00
 -1      1696 3.50672E+01 3.64042E+01 0.00000E+00
 -1      1697 3.74109E+01 3.63763E+01 0.00000E+00
 -1      1698 3.66522E+01 3.64636E+01 0.00000E+00
 -1      1699 3.89695E+01 3.58997E+01 0.00000E+00
 -1      1700 3.82650E+01 3.61414E+01 0.00000E+00
 -1      1701 4.05161E+01 3.52111E+01 0.00000E+00
 -1      1702 3.98437E+01 3.56234E+01 0.00000E+00
 -1      1703 4.17351E+01 3.39899E+01 0.00000E+00
 -1      1704 4.11744E+01 3.45393E+01 0.00000E+00
 -1      1705 4.28362E+01 3.26072E+01 0.00000E+00
 -1      1706 4.23947E+01 3.33035E+01 0.00000E+00
 -1      1707 4.34749E+01 3.09823E+01 0.00000E+00
 -1      1708 4.32160E+01 3.17287E+01 0.00000E+00
 -1      1709 4.37221E+01 2.93136E+01 0.00000E+00
 -1      1710 4.36371E+01 3.00801E+01 0.00000E+00
 -1      1711 4.28304E+01 2.39364E+01 0.00000E+00
 -1      1712 4.42873E+01 2.88895E+01 0.00000E+00
 -1      1713 1.48437E+02 2.56875E+00 0.00000E+00
 -1      1714 1.47138E+02 3.30625E+00 0.00000E+00
 -1      1715 4.41901E+01 2.71429E+01 0.00000E+00
 -1      1716 4.36590E+01 2.55124E+01 0.00000E+00
 -1      1717 4.16760E+01 2.26156E+01 0.00000E+00
 -1      1718 4.01338E+01 2.17268E+01 0.00000E+00
 -1      1719 3.85043E+01 2.10844E+01 0.00000E+00
 -1      1720 3.67859E+01 2.07211E+01 0.00000E+00
 -1      1721 3.49721E+01 2.06662E+01 0.00000E+00
 -1      1722 3.32169E+01 2.11152E+01 0.00000E+00
 -1      1723 3.17124E+01 2.20073E+01 0.00000E+00
 -1      1724 3.03492E+01 2.30661E+01 0.00000E+00
 -1      1725 2.92633E+01 2.44143E+01 0.00000E+00
 -1      1726 2.84700E+01 2.59976E+01 0.00000E+00
 -1      1727 2.80406E+01 2.77106E+01 0.00000E+00
 -1      1728 2.80203E+01 2.95041E+01 0.00000E+00
 -1      1729 2.83239E+01 3.11815E+01 0.00000E+00
 -1      1730 2.89430E+01 3.27784E+01 0.00000E+00
 -1      1731 2.98936E+01 3.42268E+01 0.00000E+00
 -1      1732 3.12461E+01 3.53807E+01 0.00000E+00
 -1      1733 3.28223E+01 3.62616E+01 0.00000E+00
 -1      1734 3.45083E+01 3.68610E+01 0.00000E+00
 -1      1735 3.62330E+01 3.70739E+01 0.00000E+00
 -1      1736 3.79598E+01 3.68289E+01 0.00000E+00
 -1      1737 3.96882E+01 3.63176E+01 0.00000E+00
 -1      1738 4.12208E+01 3.53694E+01 0.00000E+00
 -1      1739 4.25386E+01 3.40112E+01 0.00000E+00
 -1      1740 4.35779E+01 3.24464E+01 0.00000E+00
 -1      1741 4.41199E+01 3.06658E+01 0.00000E+00
 -1      1742 2.87400E+00 4.77875E+01 0.00000E+00
 -1      1743 3.89700E+00 4.04125E+01 0.00000E+00
 -1      1744 3.89700E+00 4.18875E+01 0.00000E+00
 -1      1745 3.89700E+00 4.33625E+01 0.00000E+00
 -1      1746 3.89700E+00 4.48375E+01 0.00000E+00
 -1      1747 5.19600E+00 4.26250E+01 0.00000E+00
 -1      1748 3.89700E+00 3.45500E+01 0.00000E+00
 -1      1749 3.89700E+00 3.60000E+01 0.00000E+00
 -1      1750 3.89700E+00 3.16000E+01 0.00000E+00
 -1      1751 3.89700E+00 3.30750E+01 0.00000E+00
 -1      1752 5.19600E+00 3.38000E+01 0.00000E+00
 -1      1753 3.89700E+00 2.86500E+01 0.00000E+00
 -1      1754 3.89700E+00 3.01250E+01 0.00000E+00
 -1      1755 5.19600E+00 3.08500E+01 0.00000E+00
 -1      1756 3.89700E+00 2.57000E+01 0.00000E+00
 -1      1757 3.89700E+00 2.71750E+01 0.00000E+00
 -1      1758 5.19600E+00 2.79000E+01 0.00000E+00
 -1      1759 3.89700E+00 2.27500E+01 0.00000E+00
 -1      1760 3.89700E+00 2.42250E+01 0.00000E+00
 -1      1761 5.19600E+00 2.49500E+01 0.00000E+00
 -1      1762 3.89700E+00 1.98000E+01 0.00000E+00
 -1      1763 3.89700E+00 2.12750E+01 0.00000E+00
 -1      1764 5.19600E+00 2.20000E+01 0.00000E+00
 -1      1765 3.89700E+00 1.69000E+01 0.00000E+00
 -1      1766 3.89700E+00 1.83500E+01 0.00000E+00
 -1      1767 5.19600E+00 1.90750E+01 0.00000E+00
 -1      1768 3.89700E+00 1.39500E+01 0.00000E+00
 -1      1769 3.89700E+00 1.54250E+01 0.00000E+00
 -1      1770 5.19600E+00 1.61500E+01 0.00000E+00
 -1      1771 3.89700E+00 1.10000E+01 0.00000E+00
 -1      1772 3.89700E+00 1.24750E+01 0.00000E+00
 -1      1773 5.19600E+00 1.32000E+01 0.00000E+00
 -1      1774 3.89700E+00 8.05000E+00 0.00000E+00
 -1      1775 3.89700E+00 9.52500E+00 0.00000E+00
 -1      1776 5.19600E+00 1.02500E+01 0.00000E+00
 -1      1777 3.89700E+00 5.10000E+00 0.00000E+00
 -1      1778 3.89700E+00 6.57500E+00 0.00000E+00
 -1      1779 5.19600E+00 7.30000E+00 0.00000E+00
 -1      1780 4.20450E+00 3.09687E+00 0.00000E+00
 -1      1781 4.06650E+00 4.19063E+00 0.00000E+00
 -1      1782 5.36550E+00 4.91563E+00 0.00000E+00
 -1      1783 5.70450E+00 3.09687E+00 0.00000E+00
 -1      1784 3.62400E+00 4.64885E+01 0.00000E+00
 -1      1785 8.70450E+00 3.09687E+00 0.00000E+00
 -1      1786 7.20450E+00 3.09687E+00 0.00000E+00
 -1      1787 7.03500E+00 4.00625E+00 0.00000E+00
 -1      1788 4.92300E+00 4.57510E+01 0.00000E+00
 -1      1789 8.40000E+00 4.61030E+01 0.00000E+00
 -1      1790 9.90000E+00 4.61030E+01 0.00000E+00
 -1      1791 1.14000E+01 4.61030E+01 0.00000E+00
 -1      1792 1.29000E+01 4.61030E+01 0.00000E+00
 -1      1793 1.06500E+01 4.48040E+01 0.00000E+00
 -1      1794 1.44000E+01 4.61030E+01 0.00000E+00
 -1      1795 1.59000E+01 4.61030E+01 0.00000E+00
 -1      1796 1.36500E+01 4.48040E+01 0.00000E+00
 -1      1797 1.74000E+01 4.61030E+01 0.00000E+00
 -1      1798 1.89000E+01 4.61030E+01 0.00000E+00
 -1      1799 1.66500E+01 4.48040E+01 0.00000E+00
 -1      1800 2.04000E+01 4.61030E+01 0.00000E+00
 -1      1801 2.19000E+01 4.61030E+01 0.00000E+00
 -1      1802 1.96500E+01 4.48040E+01 0.00000E+00
 -1      1803 2.34000E+01 4.61030E+01 0.00000E+00
 -1      1804 2.49000E+01 4.61030E+01 0.00000E+00
 -1      1805 2.26500E+01 4.48040E+01 0.00000E+00
 -1      1806 2.64000E+01 4.61030E+01 0.00000E+00
 -1      1807 2.79000E+01 4.61030E+01 0.00000E+00
 -1      1808 2.56500E+01 4.48040E+01 0.00000E+00
 -1      1809 2.94000E+01 4.61030E+01 0.00000E+00
 -1      1810 3.09000E+01 4.61030E+01 0.00000E+00
 -1      1811 2.86500E+01 4.48040E+01 0.00000E+00
 -1      1812 3.24000E+01 4.61030E+01 0.00000E+00
 -1      1813 3.39000E+01 4.61030E+01 0.00000E+00
 -1      1814 3.16500E+01 4.48040E+01 0.00000E+00
 -1      1815 3.53250E+01 4.61030E+01 0.00000E+00
 -1      1816 3.67500E+01 4.61030E+01 0.00000E+00
 -1      1817 3.45750E+01 4.48040E+01 0.00000E+00
 -1      1818 3.82500E+01 4.61030E+01 0.00000E+00
 -1      1819 3.97500E+01 4.61030E+01 0.00000E+00
 -1      1820 3.75000E+01 4.48040E+01 0.00000E+00
 -1      1821 4.12500E+01 4.61030E+01 0.00000E+00
 -1      1822 4.27500E+01 4.61030E+01 0.00000E+00
 -1      1823 4.05000E+01 4.48040E+01 0.00000E+00
 -1      1824 4.42500E+01 4.61030E+01 0.00000E+00
 -1      1825 4.57500E+01 4.61030E+01 0.00000E+00
 -1      1826 4.35000E+01 4.48040E+01 0.00000E+00
 -1      1827 4.72500E+01 4.61030E+01 0.00000E+00
 -1      1828 4.87500E+01 4.61030E+01 0.00000E+00
 -1      1829 4.65000E+01 4.48040E+01 0.00000E+00
 -1      1830 5.02500E+01 4.61030E+01 0.00000E+00
 -1      1831 5.17500E+01 4.61030E+01 0.00000E+00
 -1      1832 4.95000E+01 4.48040E+01 0.00000E+00
 -1      1833 5.32500E+01 4.61030E+01 0.00000E+00
 -1      1834 5.47500E+01 4.61030E+01 0.00000E+00
 -1      1835 5.25000E+01 4.48040E+01 0.00000E+00
 -1      1836 5.62500E+01 4.61030E+01 0.00000E+00
 -1      1837 5.77500E+01 4.61030E+01 0.00000E+00
 -1      1838 5.55000E+01 4.48040E+01 0.00000E+00
 -1      1839 5.92500E+01 4.61030E+01 0.00000E+00
 -1      1840 6.07500E+01 4.61030E+01 0.00000E+00
 -1      1841 5.85000E+01 4.48040E+01 0.00000E+00
 -1      1842 6.22500E+01 4.61030E+01 0.00000E+00
 -1      1843 6.37500E+01 4.61030E+01 0.00000E+00
 -1      1844 6.15000E+01 4.48040E+01 0.00000E+00
 -1      1845 6.52500E+01 4.61030E+01 0.00000E+00
 -1      1846 6.67500E+01 4.61030E+01 0.00000E+00
 -1      1847 6.45000E+01 4.48040E+01 0.00000E+00
 -1      1848 6.82500E+01 4.61030E+01 0.00000E+00
 -1      1849 6.97500E+01 4.61030E+01 0.00000E+00
 -1      1850 6.75000E+01 4.48040E+01 0.00000E+00
 -1      1851 7.12500E+01 4.61030E+01 0.00000E+00
 -1      1852 7.27500E+01 4.61030E+01 0.00000E+00
 -1      1853 7.05000E+01 4.48040E+01 0.00000E+00
 -1      1854 7.42500E+01 4.61030E+01 0.00000E+00
 -1      1855 7.57500E+01 4.61030E+01 0.00000E+00
 -1      1856 7.35000E+01 4.48040E+01 0.00000E+00
 -1      1857 7.72500E+01 4.61030E+01 0.00000E+00
 -1      1858 7.87500E+01 4.61030E+01 0.00000E+00
 -1      1859 7.65000E+01 4.48040E+01 0.00000E+00
 -1      1860 8.02500E+01 4.61030E+01 0.00000E+00
 -1      1861 8.17500E+01 4.61030E+01 0.00000E+00
 -1      1862 7.95000E+01 4.48040E+01 0.00000E+00
 -1      1863 8.32500E+01 4.61030E+01 0.00000E+00
 -1      1864 8.47500E+01 4.61030E+01 0.00000E+00
 -1      1865 8.25000E+01 4.48040E+01 0.00000E+00
 -1      1866 8.62500E+01 4.61030E+01 0.00000E+00
 -1      1867 8.77500E+01 4.61030E+01 0.00000E+00
 -1      1868 8.55000E+01 4.48040E+01 0.00000E+00
 -1      1869 8.92500E+01 4.61030E+01 0.00000E+00
 -1      1870 9.07500E+01 4.61030E+01 0.00000E+00
 -1      1871 8.85000E+01 4.48040E+01 0.00000E+00
 -1      1872 9.22500E+01 4.61030E+01 0.00000E+00
 -1      1873 9.37500E+01 4.61030E+01 0.00000E+00
 -1      1874 9.15000E+01 4.48040E+01 0.00000E+00
 -1      1875 9.52500E+01 4.61030E+01 0.00000E+00
 -1      1876 9.67500E+01 4.61030E+01 0.00000E+00
 -1      1877 9.45000E+01 4.48040E+01 0.00000E+00
 -1      1878 9.82500E+01 4.61030E+01 0.00000E+00
 -1      1879 9.97500E+01 4.61030E+01 0.00000E+00
 -1      1880 9.75000E+01 4.48040E+01 0.00000E+00
 -1      1881 1.01250E+02 4.61030E+01 0.00000E+00
 -1      1882 1.02750E+02 4.61030E+01 0.00000E+00
 -1      1883 1.00500E+02 4.48040E+01 0.00000E+00
 -1      1884 1.04250E+02 4.61030E+01 0.00000E+00
 -1      1885 1.05750E+02 4.61030E+01 0.00000E+00
 -1      1886 1.03500E+02 4.48040E+01 0.00000E+00
 -1      1887 1.07250E+02 4.61030E+01 0.00000E+00
 -1      1888 1.08750E+02 4.61030E+01 0.00000E+00
 -1      1889 1.06500E+02 4.48040E+01 0.00000E+00
 -1      1890 1.10250E+02 4.61030E+01 0.00000E+00
 -1      1891 1.11750E+02 4.61030E+01 0.00000E+00
 -1      1892 1.09500E+02 4.48040E+01 0.00000E+00
 -1      1893 1.13250E+02 4.61030E+01 0.00000E+00
 -1      1894 1.14750E+02 4.61030E+01 0.00000E+00
 -1      1895 1.12500E+02 4.48040E+01 0.00000E+00
 -1      1896 1.16250E+02 4.61030E+01 0.00000E+00
 -1      1897 1.17750E+02 4.61030E+01 0.00000E+00
 -1      1898 1.15500E+02 4.48040E+01 0.00000E+00
 -1      1899 1.19250E+02 4.61030E+01 0.00000E+00
 -1      1900 1.20750E+02 4.61030E+01 0.00000E+00
 -1      1901 1.18500E+02 4.48040E+01 0.00000E+00
 -1      1902 1.22250E+02 4.61030E+01 0.00000E+00
 -1      1903 1.23750E+02 4.61030E+01 0.00000E+00
 -1      1904 1.21500E+02 4.48040E+01 0.00000E+00
 -1      1905 1.25250E+02 4.61030E+01 0.00000E+00
 -1      1906 1.26750E+02 4.61030E+01 0.00000E+00
 -1      1907 1.24500E+02 4.48040E+01 0.00000E+00
 -1      1908 1.28250E+02 4.61030E+01 0.00000E+00
 -1      1909 1.29750E+02 4.61030E+01 0.00000E+00
 -1      1910 1.27500E+02 4.48040E+01 0.00000E+00
 -1      1911 1.31250E+02 4.61030E+01 0.00000E+00
 -1      1912 1.32750E+02 4.61030E+01 0.00000E+00
 -1      1913 1.30500E+02 4.48040E+01 0.00000E+00
 -1      1914 1.34250E+02 4.61030E+01 0.00000E+00
 -1      1915 1.35750E+02 4.61030E+01 0.00000E+00
 -1      1916 1.33500E+02 4.48040E+01 0.00000E+00
 -1      1917 1.37250E+02 4.61030E+01 0.00000E+00
 -1      1918 1.38750E+02 4.61030E+01 0.00000E+00
 -1      1919 1.36500E+02 4.48040E+01 0.00000E+00
 -1      1920 1.40250E+02 4.61030E+01 0.00000E+00
 -1      1921 1.41750E+02 4.61030E+01 0.00000E+00
 -1      1922 1.39500E+02 4.48040E+01 0.00000E+00
 -1      1923 1.43250E+02 4.61030E+01 0.00000E+00
 -1      1924 1.44750E+02 4.61030E+01 0.00000E+00
 -1      1925 1.42500E+02 4.48040E+01 0.00000E+00
 -1      1926 1.46538E+02 4.61825E+01 0.00000E+00
 -1      1927 1.41240E+01 3.48650E+00 0.00000E+00
 -1      1928 1.26240E+01 3.48650E+00 0.00000E+00
 -1      1929 1.71240E+01 3.48650E+00 0.00000E+00
 -1      1930 1.56240E+01 3.48650E+00 0.00000E+00
 -1      1931 1.48740E+01 4.78550E+00 0.00000E+00
 -1      1932 2.01240E+01 3.48650E+00 0.00000E+00
 -1      1933 1.86240E+01 3.48650E+00 0.00000E+00
 -1      1934 1.78740E+01 4.78550E+00 0.00000E+00
 -1      1935 2.31240E+01 3.48650E+00 0.00000E+00
 -1      1936 2.16240E+01 3.48650E+00 0.00000E+00
 -1      1937 2.08740E+01 4.78550E+00 0.00000E+00
 -1      1938 2.61240E+01 3.48650E+00 0.00000E+00
 -1      1939 2.46240E+01 3.48650E+00 0.00000E+00
 -1      1940 2.38740E+01 4.78550E+00 0.00000E+00
 -1      1941 2.91240E+01 3.48650E+00 0.00000E+00
 -1      1942 2.76240E+01 3.48650E+00 0.00000E+00
 -1      1943 2.68740E+01 4.78550E+00 0.00000E+00
 -1      1944 3.21240E+01 3.48650E+00 0.00000E+00
 -1      1945 3.06240E+01 3.48650E+00 0.00000E+00
 -1      1946 2.98740E+01 4.78550E+00 0.00000E+00
 -1      1947 3.51240E+01 3.48650E+00 0.00000E+00
 -1      1948 3.36240E+01 3.48650E+00 0.00000E+00
 -1      1949 3.28740E+01 4.78550E+00 0.00000E+00
 -1      1950 3.81240E+01 3.48650E+00 0.00000E+00
 -1      1951 3.66240E+01 3.48650E+00 0.00000E+00
 -1      1952 3.58740E+01 4.78550E+00 0.00000E+00
 -1      1953 4.11240E+01 3.48650E+00 0.00000E+00
 -1      1954 3.96240E+01 3.48650E+00 0.00000E+00
 -1      1955 3.88740E+01 4.78550E+00 0.00000E+00
 -1      1956 4.41240E+01 3.48650E+00 0.00000E+00
 -1      1957 4.26240E+01 3.48650E+00 0.00000E+00
 -1      1958 4.18740E+01 4.78550E+00 0.00000E+00
 -1      1959 4.71240E+01 3.48650E+00 0.00000E+00
 -1      1960 4.56240E+01 3.48650E+00 0.00000E+00
 -1      1961 4.48740E+01 4.78550E+00 0.00000E+00
 -1      1962 5.01240E+01 3.48650E+00 0.00000E+00
 -1      1963 4.86240E+01 3.48650E+00 0.00000E+00
 -1      1964 4.78740E+01 4.78550E+00 0.00000E+00
 -1      1965 5.31240E+01 3.48650E+00 0.00000E+00
 -1      1966 5.16240E+01 3.48650E+00 0.00000E+00
 -1      1967 5.08740E+01 4.78550E+00 0.00000E+00
 -1      1968 5.61240E+01 3.48650E+00 0.00000E+00
 -1      1969 5.46240E+01 3.48650E+00 0.00000E+00
 -1      1970 5.38740E+01 4.78550E+00 0.00000E+00
 -1      1971 5.91240E+01 3.48650E+00 0.00000E+00
 -1      1972 5.76240E+01 3.48650E+00 0.00000E+00
 -1      1973 5.68740E+01 4.78550E+00 0.00000E+00
 -1      1974 6.21240E+01 3.48650E+00 0.00000E+00
 -1      1975 6.06240E+01 3.48650E+00 0.00000E+00
 -1      1976 5.98740E+01 4.78550E+00 0.00000E+00
 -1      1977 6.51240E+01 3.48650E+00 0.00000E+00
 -1      1978 6.36240E+01 3.48650E+00 0.00000E+00
 -1      1979 6.28740E+01 4.78550E+00 0.00000E+00
 -1      1980 6.81240E+01 3.48650E+00 0.00000E+00
 -1      1981 6.66240E+01 3.48650E+00 0.00000E+00
 -1      1982 6.58740E+01 4.78550E+00 0.00000E+00
 -1      1983 7.11240E+01 3.48650E+00 0.00000E+00
 -1      1984 6.96240E+01 3.48650E+00 0.00000E+00
 -1      1985 6.88740E+01 4.78550E+00 0.00000E+00
 -1      1986 7.41240E+01 3.48650E+00 0.00000E+00
 -1      1987 7.26240E+01 3.48650E+00 0.00000E+00
 -1      1988 7.18740E+01 4.78550E+00 0.00000E+00
 -1      1989 7.71240E+01 3.48650E+00 0.00000E+00
 -1      1990 7.56240E+01 3.48650E+00 0.00000E+00
 -1      1991 7.48740E+01 4.78550E+00 0.00000E+00
 -1      1992 8.01240E+01 3.48650E+00 0.00000E+00
 -1      1993 7.86240E+01 3.48650E+00 0.00000E+00
 -1      1994 7.78740E+01 4.78550E+00 0.00000E+00
 -1      1995 8.31240E+01 3.48650E+00 0.00000E+00
 -1      1996 8.16240E+01 3.48650E+00 0.00000E+00
 -1      1997 8.08740E+01 4.78550E+00 0.00000E+00
 -1      1998 8.61240E+01 3.48650E+00 0.00000E+00
 -1      1999 8.46240E+01 3.48650E+00 0.00000E+00
 -1      2000 8.38740E+01 4.78550E+00 0.00000E+00
 -1      2001 8.91240E+01 3.48650E+00 0.00000E+00
 -1      2002 8.76240E+01 3.48650E+00 0.00000E+00
 -1      2003 8.68740E+01 4.78550E+00 0.00000E+00
 -1      2004 9.21240E+01 3.48650E+00 0.00000E+00
 -1      2005 9.06240E+01 3.48650E+00 0.00000E+00
 -1      2006 8.98740E+01 4.78550E+00 0.00000E+00
 -1      2007 9.51240E+01 3.48650E+00 0.00000E+00
 -1      2008 9.36240E+01 3.48650E+00 0.00000E+00
 -1      2009 9.28740E+01 4.78550E+00 0.00000E+00
 -1      2010 9.81240E+01 3.48650E+00 0.00000E+00
 -1      2011 9.66240E+01 3.48650E+00 0.00000E+00
 -1      2012 9.58740E+01 4.78550E+00 0.00000E+00
 -1      2013 1.01124E+02 3.48650E+00 0.00000E+00
 -1      2014 9.96240E+01 3.48650E+00 0.00000E+00
 -1      2015 9.88740E+01 4.78550E+00 0.00000E+00
 -1      2016 1.04124E+02 3.48650E+00 0.00000E+00
 -1      2017 1.02624E+02 3.48650E+00 0.00000E+00
 -1      2018 1.01874E+02 4.78550E+00 0.00000E+00
 -1      2019 1.07124E+02 3.48650E+00 0.00000E+00
 -1      2020 1.05624E+02 3.48650E+00 0.00000E+00
 -1      2021 1.04874E+02 4.78550E+00 0.00000E+00
 -1      2022 1.10124E+02 3.48650E+00 0.00000E+00
 -1      2023 1.08624E+02 3.48650E+00 0.00000E+00
 -1      2024 1.07874E+02 4.78550E+00 0.00000E+00
 -1      2025 1.13124E+02 3.48650E+00 0.00000E+00
 -1      2026 1.11624E+02 3.48650E+00 0.00000E+00
 -1      2027 1.10874E+02 4.78550E+00 0.00000E+00
 -1      2028 1.16124E+02 3.48650E+00 0.00000E+00
 -1      2029 1.14624E+02 3.48650E+00 0.00000E+00
 -1      2030 1.13874E+02 4.78550E+00 0.00000E+00
 -1      2031 1.19124E+02 3.48650E+00 0.00000E+00
 -1      2032 1.17624E+02 3.48650E+00 0.00000E+00
 -1      2033 1.16874E+02 4.78550E+00 0.00000E+00
 -1      2034 1.22124E+02 3.48650E+00 0.00000E+00
 -1      2035 1.20624E+02 3.48650E+00 0.00000E+00
 -1      2036 1.19874E+02 4.78550E+00 0.00000E+00
 -1      2037 1.25124E+02 3.48650E+00 0.00000E+00
 -1      2038 1.23624E+02 3.48650E+00 0.00000E+00
 -1      2039 1.22874E+02 4.78550E+00 0.00000E+00
 -1      2040 1.28124E+02 3.48650E+00 0.00000E+00
 -1      2041 1.26624E+02 3.48650E+00 0.00000E+00
 -1      2042 1.25874E+02 4.78550E+00 0.00000E+00
 -1      2043 1.31124E+02 3.48650E+00 0.00000E+00
 -1      2044 1.29624E+02 3.48650E+00 0.00000E+00
 -1      2045 1.28874E+02 4.78550E+00 0.00000E+00
 -1      2046 1.34124E+02 3.48650E+00 0.00000E+00
 -1      2047 1.32624E+02 3.48650E+00 0.00000E+00
 -1      2048 1.31874E+02 4.78550E+00 0.00000E+00
 -1      2049 1.37124E+02 3.48650E+00 0.00000E+00
 -1      2050 1.35624E+02 3.48650E+00 0.00000E+00
 -1      2051 1.34874E+02 4.78550E+00 0.00000E+00
 -1      2052 1.40124E+02 3.48650E+00 0.00000E+00
 -1      2053 1.38624E+02 3.48650E+00 0.00000E+00
 -1      2054 1.37874E+02 4.78550E+00 0.00000E+00
 -1      2055 1.43124E+02 3.48650E+00 0.00000E+00
 -1      2056 1.41624E+02 3.48650E+00 0.00000E+00
 -1      2057 1.40874E+02 4.78550E+00 0.00000E+00
 -1      2058 1.45881E+02 3.39637E+00 0.00000E+00
 -1      2059 1.44381E+02 3.39637E+00 0.00000E+00
 -1      2060 1.43631E+02 4.69537E+00 0.00000E+00
 -1      2061 1.46145E+02 4.51512E+00 0.00000E+00
 -1      2062 1.46103E+02 1.25375E+01 0.00000E+00
 -1      2063 1.46103E+02 1.10625E+01 0.00000E+00
 -1      2064 1.46103E+02 9.58750E+00 0.00000E+00
 -1      2065 1.46103E+02 8.11250E+00 0.00000E+00
 -1      2066 1.44804E+02 1.03250E+01 0.00000E+00
 -1      2067 1.46145E+02 5.99013E+00 0.00000E+00
 -1      2068 1.46103E+02 1.54375E+01 0.00000E+00
 -1      2069 1.46103E+02 1.39875E+01 0.00000E+00
 -1      2070 1.44804E+02 1.32500E+01 0.00000E+00
 -1      2071 1.46103E+02 1.83875E+01 0.00000E+00
 -1      2072 1.46103E+02 1.69125E+01 0.00000E+00
 -1      2073 1.44804E+02 1.61750E+01 0.00000E+00
 -1      2074 1.46103E+02 2.13375E+01 0.00000E+00
 -1      2075 1.46103E+02 1.98625E+01 0.00000E+00
 -1      2076 1.44804E+02 1.91250E+01 0.00000E+00
 -1      2077 1.46103E+02 2.42875E+01 0.00000E+00
 -1      2078 1.46103E+02 2.28125E+01 0.00000E+00
 -1      2079 1.44804E+02 2.20750E+01 0.00000E+00
 -1      2080 1.46103E+02 2.72375E+01 0.00000E+00
 -1      2081 1.46103E+02 2.57625E+01 0.00000E+00
 -1      2082 1.44804E+02 2.50250E+01 0.00000E+00
 -1      2083 1.46103E+02 3.01875E+01 0.00000E+00
 -1      2084 1.46103E+02 2.87125E+01 0.00000E+00
 -1      2085 1.44804E+02 2.79750E+01 0.00000E+00
 -1      2086 1.46103E+02 3.30875E+01 0.00000E+00
 -1      2087 1.46103E+02 3.16375E+01 0.00000E+00
 -1      2088 1.44804E+02 3.09000E+01 0.00000E+00
 -1      2089 1.46103E+02 3.60375E+01 0.00000E+00
 -1      2090 1.46103E+02 3.45625E+01 0.00000E+00
 -1      2091 1.44804E+02 3.38250E+01 0.00000E+00
 -1      2092 1.46103E+02 3.89875E+01 0.00000E+00
 -1      2093 1.46103E+02 3.75125E+01 0.00000E+00
 -1      2094 1.44804E+02 3.67750E+01 0.00000E+00
 -1      2095 1.46103E+02 4.19375E+01 0.00000E+00
 -1      2096 1.46103E+02 4.04625E+01 0.00000E+00
 -1      2097 1.44804E+02 3.97250E+01 0.00000E+00
 -1      2098 1.14143E+01 3.29169E+00 0.00000E+00
 -1      2099 9.91425E+00 3.29169E+00 0.00000E+00
 -1      2100 9.74475E+00 4.20106E+00 0.00000E+00
 -1      2101 1.21643E+01 4.59069E+00 0.00000E+00
 -1      2102 4.40088E+01 2.48143E+01 0.00000E+00
 -1      2103 4.44374E+01 2.55724E+01 0.00000E+00
 -1      2104 4.16814E+01 2.17899E+01 0.00000E+00
 -1      2105 4.24360E+01 2.22930E+01 0.00000E+00
 -1      2106 4.49380E+01 2.84563E+01 0.00000E+00
 -1      2107 4.49328E+01 2.93305E+01 0.00000E+00
 -1      2108 4.32090E+01 2.31787E+01 0.00000E+00
 -1      2109 4.36089E+01 2.39965E+01 0.00000E+00
 -1      2110 4.43874E+01 2.40566E+01 0.00000E+00
 -1      2111 3.89700E+00 3.74688E+01 0.00000E+00
 -1      2112 3.89700E+00 3.89437E+01 0.00000E+00
 -1      2113 5.19600E+00 3.96813E+01 0.00000E+00
 -1      2114 5.19600E+00 3.67438E+01 0.00000E+00
 -1      2115 4.00803E+01 2.08390E+01 0.00000E+00
 -1      2116 4.08679E+01 2.12247E+01 0.00000E+00
 -1      2117 3.83212E+01 2.01758E+01 0.00000E+00
 -1      2118 3.91631E+01 2.04325E+01 0.00000E+00
 -1      2119 3.64411E+01 1.98997E+01 0.00000E+00
 -1      2120 3.73176E+01 2.00063E+01 0.00000E+00
 -1      2121 3.44608E+01 1.99195E+01 0.00000E+00
 -1      2122 3.53981E+01 1.98678E+01 0.00000E+00
 -1      2123 3.24333E+01 2.05425E+01 0.00000E+00
 -1      2124 3.32513E+01 2.01452E+01 0.00000E+00
 -1      2125 3.10603E+01 2.15320E+01 0.00000E+00
 -1      2126 3.17468E+01 2.10373E+01 0.00000E+00
 -1      2127 3.17811E+01 2.00672E+01 0.00000E+00
 -1      2128 2.95422E+01 2.27859E+01 0.00000E+00
 -1      2129 3.02190E+01 2.22219E+01 0.00000E+00
 -1      2130 2.84098E+01 2.44679E+01 0.00000E+00
 -1      2131 2.88190E+01 2.36837E+01 0.00000E+00
 -1      2132 2.76416E+01 2.60660E+01 0.00000E+00
 -1      2133 2.80257E+01 2.52669E+01 0.00000E+00
 -1      2134 2.75814E+01 2.45363E+01 0.00000E+00
 -1      2135 2.71614E+01 2.81252E+01 0.00000E+00
 -1      2136 2.72067E+01 2.72112E+01 0.00000E+00
 -1      2137 2.72114E+01 2.98842E+01 0.00000E+00
 -1      2138 2.71864E+01 2.90047E+01 0.00000E+00
 -1      2139 2.63525E+01 2.85053E+01 0.00000E+00
 -1      2140 2.77722E+01 3.18218E+01 0.00000E+00
 -1      2141 2.74936E+01 3.10239E+01 0.00000E+00
 -1      2142 2.84785E+01 3.34483E+01 0.00000E+00
 -1      2143 2.81380E+01 3.26494E+01 0.00000E+00
 -1      2144 2.96652E+01 3.50527E+01 0.00000E+00
 -1      2145 2.90551E+01 3.44031E+01 0.00000E+00
 -1      2146 3.12296E+01 3.62036E+01 0.00000E+00
 -1      2147 3.04872E+01 3.56993E+01 0.00000E+00
 -1      2148 3.29208E+01 3.71550E+01 0.00000E+00
 -1      2149 3.20870E+01 3.67786E+01 0.00000E+00
 -1      2150 3.47491E+01 3.76805E+01 0.00000E+00
 -1      2151 3.38970E+01 3.74576E+01 0.00000E+00
 -1      2152 3.66768E+01 3.77169E+01 0.00000E+00
 -1      2153 3.58043E+01 3.77270E+01 0.00000E+00
 -1      2154 3.86032E+01 3.74979E+01 0.00000E+00
 -1      2155 3.77490E+01 3.77328E+01 0.00000E+00
 -1      2156 4.03516E+01 3.69451E+01 0.00000E+00
 -1      2157 3.94774E+01 3.72215E+01 0.00000E+00
 -1      2158 3.92666E+01 3.81254E+01 0.00000E+00
 -1      2159 4.20427E+01 3.55164E+01 0.00000E+00
 -1      2160 4.13844E+01 3.61882E+01 0.00000E+00
 -1      2161 4.34263E+01 3.42041E+01 0.00000E+00
 -1      2162 4.27668E+01 3.48905E+01 0.00000E+00
 -1      2163 4.44012E+01 3.22809E+01 0.00000E+00
 -1      2164 4.40214E+01 3.31594E+01 0.00000E+00
 -1      2165 4.49213E+01 3.03442E+01 0.00000E+00
 -1      2166 4.47592E+01 3.12463E+01 0.00000E+00
 -1      2167 4.48241E+01 2.66262E+01 0.00000E+00
 -1      2168 4.49266E+01 2.74986E+01 0.00000E+00
 -1      2169 1.45788E+02 4.48835E+01 0.00000E+00
 -1      2170 4.32145E+01 2.23531E+01 0.00000E+00
 -1      2171 4.39930E+01 2.24131E+01 0.00000E+00
 -1      2172 4.32199E+01 2.15274E+01 0.00000E+00
 -1      2173 6.42300E+00 4.57510E+01 0.00000E+00
 -1      2174 3.59298E+01 1.91530E+01 0.00000E+00
 -1      2175 4.16279E+01 2.09022E+01 0.00000E+00
 -1      2176 7.17300E+00 4.44520E+01 0.00000E+00
 -1      2177 1.44846E+02 6.72762E+00 0.00000E+00
 -1      2178 4.55721E+01 2.79396E+01 0.00000E+00
 -1      2179 1.45701E+02 4.37395E+01 0.00000E+00
 -1      2180 4.51739E+01 2.59282E+01 0.00000E+00
 -1      2181 4.55720E+01 2.99110E+01 0.00000E+00
 -1      2182 4.52026E+01 3.19594E+01 0.00000E+00
 -1      2183 4.42495E+01 3.40387E+01 0.00000E+00
 -1      2184 4.11736E+01 3.70921E+01 0.00000E+00
 -1      2185 4.09628E+01 3.79960E+01 0.00000E+00
 -1      2186 4.19956E+01 3.72391E+01 0.00000E+00
 -1      2187 3.73202E+01 3.83859E+01 0.00000E+00
 -1      2188 3.51929E+01 3.83235E+01 0.00000E+00
 -1      2189 3.31617E+01 3.79746E+01 0.00000E+00
 -1      2190 3.13281E+01 3.70971E+01 0.00000E+00
 -1      2191 2.96487E+01 3.58756E+01 0.00000E+00
 -1      2192 2.82501E+01 3.42742E+01 0.00000E+00
 -1      2193 2.66597E+01 3.05244E+01 0.00000E+00
 -1      2194 2.67624E+01 2.64805E+01 0.00000E+00
 -1      2195 3.02533E+01 2.12518E+01 0.00000E+00
 -1      2196 3.36772E+01 1.93467E+01 0.00000E+00
 -1      2197 3.98972E+01 1.99304E+01 0.00000E+00
 -1      2198 3.79764E+01 1.93544E+01 0.00000E+00
 -1      2199 2.86888E+01 2.28394E+01 0.00000E+00
 -1      2200 2.73077E+01 3.24917E+01 0.00000E+00
 -1      2201 4.29304E+01 3.57093E+01 0.00000E+00
 -1      2202 1.44402E+02 4.30020E+01 0.00000E+00
 -1      2203 6.49500E+00 3.01125E+01 0.00000E+00
 -1      2204 6.49500E+00 3.15875E+01 0.00000E+00
 -1      2205 6.49500E+00 3.30625E+01 0.00000E+00
 -1      2206 6.49500E+00 3.45375E+01 0.00000E+00
 -1      2207 7.79400E+00 3.23250E+01 0.00000E+00
 -1      2208 6.49500E+00 2.42125E+01 0.00000E+00
 -1      2209 6.49500E+00 2.56875E+01 0.00000E+00
 -1      2210 6.49500E+00 2.12625E+01 0.00000E+00
 -1      2211 6.49500E+00 2.27375E+01 0.00000E+00
 -1      2212 7.79400E+00 2.34750E+01 0.00000E+00
 -1      2213 6.49500E+00 1.83625E+01 0.00000E+00
 -1      2214 6.49500E+00 1.98125E+01 0.00000E+00
 -1      2215 7.79400E+00 2.05500E+01 0.00000E+00
 -1      2216 6.49500E+00 1.54125E+01 0.00000E+00
 -1      2217 6.49500E+00 1.68875E+01 0.00000E+00
 -1      2218 7.79400E+00 1.76250E+01 0.00000E+00
 -1      2219 6.49500E+00 1.24625E+01 0.00000E+00
 -1      2220 6.49500E+00 1.39375E+01 0.00000E+00
 -1      2221 7.79400E+00 1.46750E+01 0.00000E+00
 -1      2222 6.49500E+00 9.51250E+00 0.00000E+00
 -1      2223 6.49500E+00 1.09875E+01 0.00000E+00
 -1      2224 7.79400E+00 1.17250E+01 0.00000E+00
 -1      2225 6.49500E+00 6.56250E+00 0.00000E+00
 -1      2226 6.49500E+00 8.03750E+00 0.00000E+00
 -1      2227 7.79400E+00 8.77500E+00 0.00000E+00
 -1      2228 6.84975E+00 4.82969E+00 0.00000E+00
 -1      2229 6.68025E+00 5.73906E+00 0.00000E+00
 -1      2230 7.97925E+00 6.47656E+00 0.00000E+00
 -1      2231 8.34975E+00 4.82969E+00 0.00000E+00
 -1      2232 9.90000E+00 4.35050E+01 0.00000E+00
 -1      2233 1.14000E+01 4.35050E+01 0.00000E+00
 -1      2234 3.54333E+01 1.83217E+01 0.00000E+00
 -1      2235 3.64762E+01 1.83537E+01 0.00000E+00
 -1      2236 1.29000E+01 4.35050E+01 0.00000E+00
 -1      2237 1.44000E+01 4.35050E+01 0.00000E+00
 -1      2238 1.21500E+01 4.22060E+01 0.00000E+00
 -1      2239 1.59000E+01 4.35050E+01 0.00000E+00
 -1      2240 1.74000E+01 4.35050E+01 0.00000E+00
 -1      2241 1.51500E+01 4.22060E+01 0.00000E+00
 -1      2242 1.89000E+01 4.35050E+01 0.00000E+00
 -1      2243 2.04000E+01 4.35050E+01 0.00000E+00
 -1      2244 1.81500E+01 4.22060E+01 0.00000E+00
 -1      2245 2.19000E+01 4.35050E+01 0.00000E+00
 -1      2246 2.34000E+01 4.35050E+01 0.00000E+00
 -1      2247 2.11500E+01 4.22060E+01 0.00000E+00
 -1      2248 2.49000E+01 4.35050E+01 0.00000E+00
 -1      2249 2.64000E+01 4.35050E+01 0.00000E+00
 -1      2250 2.41500E+01 4.22060E+01 0.00000E+00
 -1      2251 2.79000E+01 4.35050E+01 0.00000E+00
 -1      2252 2.94000E+01 4.35050E+01 0.00000E+00
 -1      2253 2.71500E+01 4.22060E+01 0.00000E+00
 -1      2254 3.09000E+01 4.35050E+01 0.00000E+00
 -1      2255 3.24000E+01 4.35050E+01 0.00000E+00
 -1      2256 3.01500E+01 4.22060E+01 0.00000E+00
 -1      2257 3.38250E+01 4.35050E+01 0.00000E+00
 -1      2258 3.52500E+01 4.35050E+01 0.00000E+00
 -1      2259 3.30750E+01 4.22060E+01 0.00000E+00
 -1      2260 3.67500E+01 4.35050E+01 0.00000E+00
 -1      2261 3.82500E+01 4.35050E+01 0.00000E+00
 -1      2262 3.60000E+01 4.22060E+01 0.00000E+00
 -1      2263 3.97500E+01 4.35050E+01 0.00000E+00
 -1      2264 4.12500E+01 4.35050E+01 0.00000E+00
 -1      2265 3.90000E+01 4.22060E+01 0.00000E+00
 -1      2266 4.27500E+01 4.35050E+01 0.00000E+00
 -1      2267 4.42500E+01 4.35050E+01 0.00000E+00
 -1      2268 4.20000E+01 4.22060E+01 0.00000E+00
 -1      2269 4.57500E+01 4.35050E+01 0.00000E+00
 -1      2270 4.72500E+01 4.35050E+01 0.00000E+00
 -1      2271 4.50000E+01 4.22060E+01 0.00000E+00
 -1      2272 4.87500E+01 4.35050E+01 0.00000E+00
 -1      2273 5.02500E+01 4.35050E+01 0.00000E+00
 -1      2274 4.80000E+01 4.22060E+01 0.00000E+00
 -1      2275 5.17500E+01 4.35050E+01 0.00000E+00
 -1      2276 5.32500E+01 4.35050E+01 0.00000E+00
 -1      2277 5.10000E+01 4.22060E+01 0.00000E+00
 -1      2278 5.47500E+01 4.35050E+01 0.00000E+00
 -1      2279 5.62500E+01 4.35050E+01 0.00000E+00
 -1      2280 5.40000E+01 4.22060E+01 0.00000E+00
 -1      2281 5.77500E+01 4.35050E+01 0.00000E+00
 -1      2282 5.92500E+01 4.35050E+01 0.00000E+00
 -1      2283 5.70000E+01 4.22060E+01 0.00000E+00
 -1      2284 6.07500E+01 4.35050E+01 0.00000E+00
 -1      2285 6.22500E+01 4.35050E+01 0.00000E+00
 -1      2286 6.00000E+01 4.22060E+01 0.00000E+00
 -1      2287 6.37500E+01 4.35050E+01 0.00000E+00
 -1      2288 6.52500E+01 4.35050E+01 0.00000E+00
 -1      2289 6.30000E+01 4.22060E+01 0.00000E+00
 -1      2290 6.67500E+01 4.35050E+01 0.00000E+00
 -1      2291 6.82500E+01 4.35050E+01 0.00000E+00
 -1      2292 6.60000E+01 4.22060E+01 0.00000E+00
 -1      2293 6.97500E+01 4.35050E+01 0.00000E+00
 -1      2294 7.12500E+01 4.35050E+01 0.00000E+00
 -1      2295 6.90000E+01 4.22060E+01 0.00000E+00
 -1      2296 7.27500E+01 4.35050E+01 0.00000E+00
 -1      2297 7.42500E+01 4.35050E+01 0.00000E+00
 -1      2298 7.20000E+01 4.22060E+01 0.00000E+00
 -1      2299 7.57500E+01 4.35050E+01 0.00000E+00
 -1      2300 7.72500E+01 4.35050E+01 0.00000E+00
 -1      2301 7.50000E+01 4.22060E+01 0.00000E+00
 -1      2302 7.87500E+01 4.35050E+01 0.00000E+00
 -1      2303 8.02500E+01 4.35050E+01 0.00000E+00
 -1      2304 7.80000E+01 4.22060E+01 0.00000E+00
 -1      2305 8.17500E+01 4.35050E+01 0.00000E+00
 -1      2306 8.32500E+01 4.35050E+01 0.00000E+00
 -1      2307 8.10000E+01 4.22060E+01 0.00000E+00
 -1      2308 8.47500E+01 4.35050E+01 0.00000E+00
 -1      2309 8.62500E+01 4.35050E+01 0.00000E+00
 -1      2310 8.40000E+01 4.22060E+01 0.00000E+00
 -1      2311 8.77500E+01 4.35050E+01 0.00000E+00
 -1      2312 8.92500E+01 4.35050E+01 0.00000E+00
 -1      2313 8.70000E+01 4.22060E+01 0.00000E+00
 -1      2314 9.07500E+01 4.35050E+01 0.00000E+00
 -1      2315 9.22500E+01 4.35050E+01 0.00000E+00
 -1      2316 9.00000E+01 4.22060E+01 0.00000E+00
 -1      2317 9.37500E+01 4.35050E+01 0.00000E+00
 -1      2318 9.52500E+01 4.35050E+01 0.00000E+00
 -1      2319 9.30000E+01 4.22060E+01 0.00000E+00
 -1      2320 9.67500E+01 4.35050E+01 0.00000E+00
 -1      2321 9.82500E+01 4.35050E+01 0.00000E+00
 -1      2322 9.60000E+01 4.22060E+01 0.00000E+00
 -1      2323 9.97500E+01 4.35050E+01 0.00000E+00
 -1      2324 1.01250E+02 4.35050E+01 0.00000E+00
 -1      2325 9.90000E+01 4.22060E+01 0.00000E+00
 -1      2326 1.02750E+02 4.35050E+01 0.00000E+00
 -1      2327 1.04250E+02 4.35050E+01 0.00000E+00
 -1      2328 1.02000E+02 4.22060E+01 0.00000E+00
 -1      2329 1.05750E+02 4.35050E+01 0.00000E+00
 -1      2330 1.07250E+02 4.35050E+01 0.00000E+00
 -1      2331 1.05000E+02 4.22060E+01 0.00000E+00
 -1      2332 1.08750E+02 4.35050E+01 0.00000E+00
 -1      2333 1.10250E+02 4.35050E+01 0.00000E+00
 -1      2334 1.08000E+02 4.22060E+01 0.00000E+00
 -1      2335 1.11750E+02 4.35050E+01 0.00000E+00
 -1      2336 1.13250E+02 4.35050E+01 0.00000E+00
 -1      2337 1.11000E+02 4.22060E+01 0.00000E+00
 -1      2338 1.14750E+02 4.35050E+01 0.00000E+00
 -1      2339 1.16250E+02 4.35050E+01 0.00000E+00
 -1      2340 1.14000E+02 4.22060E+01 0.00000E+00
 -1      2341 1.17750E+02 4.35050E+01 0.00000E+00
 -1      2342 1.19250E+02 4.35050E+01 0.00000E+00
 -1      2343 1.17000E+02 4.22060E+01 0.00000E+00
 -1      2344 1.20750E+02 4.35050E+01 0.00000E+00
 -1      2345 1.22250E+02 4.35050E+01 0.00000E+00
 -1      2346 1.20000E+02 4.22060E+01 0.00000E+00
 -1      2347 1.23750E+02 4.35050E+01 0.00000E+00
 -1      2348 1.25250E+02 4.35050E+01 0.00000E+00
 -1      2349 1.23000E+02 4.22060E+01 0.00000E+00
 -1      2350 1.26750E+02 4.35050E+01 0.00000E+00
 -1      2351 1.28250E+02 4.35050E+01 0.00000E+00
 -1      2352 1.26000E+02 4.22060E+01 0.00000E+00
 -1      2353 1.29750E+02 4.35050E+01 0.00000E+00
 -1      2354 1.31250E+02 4.35050E+01 0.00000E+00
 -1      2355 1.29000E+02 4.22060E+01 0.00000E+00
 -1      2356 1.32750E+02 4.35050E+01 0.00000E+00
 -1      2357 1.34250E+02 4.35050E+01 0.00000E+00
 -1      2358 1.32000E+02 4.22060E+01 0.00000E+00
 -1      2359 1.35750E+02 4.35050E+01 0.00000E+00
 -1      2360 1.37250E+02 4.35050E+01 0.00000E+00
 -1      2361 1.35000E+02 4.22060E+01 0.00000E+00
 -1      2362 1.38750E+02 4.35050E+01 0.00000E+00
 -1      2363 1.40250E+02 4.35050E+01 0.00000E+00
 -1      2364 1.38000E+02 4.22060E+01 0.00000E+00
 -1      2365 1.41576E+02 4.32535E+01 0.00000E+00
 -1      2366 1.43076E+02 4.32535E+01 0.00000E+00
 -1      2367 1.43478E+02 4.14515E+01 0.00000E+00
 -1      2368 1.40826E+02 4.19545E+01 0.00000E+00
 -1      2369 2.16240E+01 6.08450E+00 0.00000E+00
 -1      2370 2.01240E+01 6.08450E+00 0.00000E+00
 -1      2371 1.86240E+01 6.08450E+00 0.00000E+00
 -1      2372 1.71240E+01 6.08450E+00 0.00000E+00
 -1      2373 1.93740E+01 7.38350E+00 0.00000E+00
 -1      2374 1.56240E+01 6.08450E+00 0.00000E+00
 -1      2375 1.41240E+01 6.08450E+00 0.00000E+00
 -1      2376 1.63740E+01 7.38350E+00 0.00000E+00
 -1      2377 2.46240E+01 6.08450E+00 0.00000E+00
 -1      2378 2.31240E+01 6.08450E+00 0.00000E+00
 -1      2379 2.23740E+01 7.38350E+00 0.00000E+00
 -1      2380 2.76240E+01 6.08450E+00 0.00000E+00
 -1      2381 2.61240E+01 6.08450E+00 0.00000E+00
 -1      2382 2.53740E+01 7.38350E+00 0.00000E+00
 -1      2383 3.06240E+01 6.08450E+00 0.00000E+00
 -1      2384 2.91240E+01 6.08450E+00 0.00000E+00
 -1      2385 2.83740E+01 7.38350E+00 0.00000E+00
 -1      2386 3.36240E+01 6.08450E+00 0.00000E+00
 -1      2387 3.21240E+01 6.08450E+00 0.00000E+00
 -1      2388 3.13740E+01 7.38350E+00 0.00000E+00
 -1      2389 3.66240E+01 6.08450E+00 0.00000E+00
 -1      2390 3.51240E+01 6.08450E+00 0.00000E+00
 -1      2391 3.43740E+01 7.38350E+00 0.00000E+00
 -1      2392 3.96240E+01 6.08450E+00 0.00000E+00
 -1      2393 3.81240E+01 6.08450E+00 0.00000E+00
 -1      2394 3.73740E+01 7.38350E+00 0.00000E+00
 -1      2395 4.26240E+01 6.08450E+00 0.00000E+00
 -1      2396 4.11240E+01 6.08450E+00 0.00000E+00
 -1      2397 4.03740E+01 7.38350E+00 0.00000E+00
 -1      2398 4.56240E+01 6.08450E+00 0.00000E+00
 -1      2399 4.41240E+01 6.08450E+00 0.00000E+00
 -1      2400 4.33740E+01 7.38350E+00 0.00000E+00
 -1      2401 4.86240E+01 6.08450E+00 0.00000E+00
 -1      2402 4.71240E+01 6.08450E+00 0.00000E+00
 -1      2403 4.63740E+01 7.38350E+00 0.00000E+00
 -1      2404 5.16240E+01 6.08450E+00 0.00000E+00
 -1      2405 5.01240E+01 6.08450E+00 0.00000E+00
 -1      2406 4.93740E+01 7.38350E+00 0.00000E+00
 -1      2407 5.46240E+01 6.08450E+00 0.00000E+00
 -1      2408 5.31240E+01 6.08450E+00 0.00000E+00
 -1      2409 5.23740E+01 7.38350E+00 0.00000E+00
 -1      2410 5.76240E+01 6.08450E+00 0.00000E+00
 -1      2411 5.61240E+01 6.08450E+00 0.00000E+00
 -1      2412 5.53740E+01 7.38350E+00 0.00000E+00
 -1      2413 6.06240E+01 6.08450E+00 0.00000E+00
 -1      2414 5.91240E+01 6.08450E+00 0.00000E+00
 -1      2415 5.83740E+01 7.38350E+00 0.00000E+00
 -1      2416 6.36240E+01 6.08450E+00 0.00000E+00
 -1      2417 6.21240E+01 6.08450E+00 0.00000E+00
 -1      2418 6.13740E+01 7.38350E+00 0.00000E+00
 -1      2419 6.66240E+01 6.08450E+00 0.00000E+00
 -1      2420 6.51240E+01 6.08450E+00 0.00000E+00
 -1      2421 6.43740E+01 7.38350E+00 0.00000E+00
 -1      2422 6.96240E+01 6.08450E+00 0.00000E+00
 -1      2423 6.81240E+01 6.08450E+00 0.00000E+00
 -1      2424 6.73740E+01 7.38350E+00 0.00000E+00
 -1      2425 7.26240E+01 6.08450E+00 0.00000E+00
 -1      2426 7.11240E+01 6.08450E+00 0.00000E+00
 -1      2427 7.03740E+01 7.38350E+00 0.00000E+00
 -1      2428 7.56240E+01 6.08450E+00 0.00000E+00
 -1      2429 7.41240E+01 6.08450E+00 0.00000E+00
 -1      2430 7.33740E+01 7.38350E+00 0.00000E+00
 -1      2431 7.86240E+01 6.08450E+00 0.00000E+00
 -1      2432 7.71240E+01 6.08450E+00 0.00000E+00
 -1      2433 7.63740E+01 7.38350E+00 0.00000E+00
 -1      2434 8.16240E+01 6.08450E+00 0.00000E+00
 -1      2435 8.01240E+01 6.08450E+00 0.00000E+00
 -1      2436 7.93740E+01 7.38350E+00 0.00000E+00
 -1      2437 8.46240E+01 6.08450E+00 0.00000E+00
 -1      2438 8.31240E+01 6.08450E+00 0.00000E+00
 -1      2439 8.23740E+01 7.38350E+00 0.00000E+00
 -1      2440 8.76240E+01 6.08450E+00 0.00000E+00
 -1      2441 8.61240E+01 6.08450E+00 0.00000E+00
 -1      2442 8.53740E+01 7.38350E+00 0.00000E+00
 -1      2443 9.06240E+01 6.08450E+00 0.00000E+00
 -1      2444 8.91240E+01 6.08450E+00 0.00000E+00
 -1      2445 8.83740E+01 7.38350E+00 0.00000E+00
 -1      2446 9.36240E+01 6.08450E+00 0.00000E+00
 -1      2447 9.21240E+01 6.08450E+00 0.00000E+00
 -1      2448 9.13740E+01 7.38350E+00 0.00000E+00
 -1      2449 9.66240E+01 6.08450E+00 0.00000E+00
 -1      2450 9.51240E+01 6.08450E+00 0.00000E+00
 -1      2451 9.43740E+01 7.38350E+00 0.00000E+00
 -1      2452 9.96240E+01 6.08450E+00 0.00000E+00
 -1      2453 9.81240E+01 6.08450E+00 0.00000E+00
 -1      2454 9.73740E+01 7.38350E+00 0.00000E+00
 -1      2455 1.02624E+02 6.08450E+00 0.00000E+00
 -1      2456 1.01124E+02 6.08450E+00 0.00000E+00
 -1      2457 1.00374E+02 7.38350E+00 0.00000E+00
 -1      2458 1.05624E+02 6.08450E+00 0.00000E+00
 -1      2459 1.04124E+02 6.08450E+00 0.00000E+00
 -1      2460 1.03374E+02 7.38350E+00 0.00000E+00
 -1      2461 1.08624E+02 6.08450E+00 0.00000E+00
 -1      2462 1.07124E+02 6.08450E+00 0.00000E+00
 -1      2463 1.06374E+02 7.38350E+00 0.00000E+00
 -1      2464 1.11624E+02 6.08450E+00 0.00000E+00
 -1      2465 1.10124E+02 6.08450E+00 0.00000E+00
 -1      2466 1.09374E+02 7.38350E+00 0.00000E+00
 -1      2467 1.14624E+02 6.08450E+00 0.00000E+00
 -1      2468 1.13124E+02 6.08450E+00 0.00000E+00
 -1      2469 1.12374E+02 7.38350E+00 0.00000E+00
 -1      2470 1.17624E+02 6.08450E+00 0.00000E+00
 -1      2471 1.16124E+02 6.08450E+00 0.00000E+00
 -1      2472 1.15374E+02 7.38350E+00 0.00000E+00
 -1      2473 1.20624E+02 6.08450E+00 0.00000E+00
 -1      2474 1.19124E+02 6.08450E+00 0.00000E+00
 -1      2475 1.18374E+02 7.38350E+00 0.00000E+00
 -1      2476 1.23624E+02 6.08450E+00 0.00000E+00
 -1      2477 1.22124E+02 6.08450E+00 0.00000E+00
 -1      2478 1.21374E+02 7.38350E+00 0.00000E+00
 -1      2479 1.26624E+02 6.08450E+00 0.00000E+00
 -1      2480 1.25124E+02 6.08450E+00 0.00000E+00
 -1      2481 1.24374E+02 7.38350E+00 0.00000E+00
 -1      2482 1.29624E+02 6.08450E+00 0.00000E+00
 -1      2483 1.28124E+02 6.08450E+00 0.00000E+00
 -1      2484 1.27374E+02 7.38350E+00 0.00000E+00
 -1      2485 1.32624E+02 6.08450E+00 0.00000E+00
 -1      2486 1.31124E+02 6.08450E+00 0.00000E+00
 -1      2487 1.30374E+02 7.38350E+00 0.00000E+00
 -1      2488 1.35624E+02 6.08450E+00 0.00000E+00
 -1      2489 1.34124E+02 6.08450E+00 0.00000E+00
 -1      2490 1.33374E+02 7.38350E+00 0.00000E+00
 -1      2491 1.38624E+02 6.08450E+00 0.00000E+00
 -1      2492 1.37124E+02 6.08450E+00 0.00000E+00
 -1      2493 1.36374E+02 7.38350E+00 0.00000E+00
 -1      2494 1.41624E+02 6.08450E+00 0.00000E+00
 -1      2495 1.40124E+02 6.08450E+00 0.00000E+00
 -1      2496 1.39374E+02 7.38350E+00 0.00000E+00
 -1      2497 1.43589E+02 6.81775E+00 0.00000E+00
 -1      2498 1.43505E+02 1.69125E+01 0.00000E+00
 -1      2499 1.43505E+02 1.54375E+01 0.00000E+00
 -1      2500 1.43505E+02 1.39875E+01 0.00000E+00
 -1      2501 1.43505E+02 1.25375E+01 0.00000E+00
 -1      2502 1.42206E+02 1.47250E+01 0.00000E+00
 -1      2503 1.43505E+02 1.10625E+01 0.00000E+00
 -1      2504 1.43505E+02 9.58750E+00 0.00000E+00
 -1      2505 1.42206E+02 1.18000E+01 0.00000E+00
 -1      2506 4.64238E+01 2.74505E+01 0.00000E+00
 -1      2507 4.64353E+01 2.84082E+01 0.00000E+00
 -1      2508 1.43505E+02 1.98625E+01 0.00000E+00
 -1      2509 1.43505E+02 1.83875E+01 0.00000E+00
 -1      2510 1.42206E+02 1.76500E+01 0.00000E+00
 -1      2511 1.43505E+02 2.28125E+01 0.00000E+00
 -1      2512 1.43505E+02 2.13375E+01 0.00000E+00
 -1      2513 1.42206E+02 2.06000E+01 0.00000E+00
 -1      2514 1.43505E+02 2.57625E+01 0.00000E+00
 -1      2515 1.43505E+02 2.42875E+01 0.00000E+00
 -1      2516 1.42206E+02 2.35500E+01 0.00000E+00
 -1      2517 1.43505E+02 2.87125E+01 0.00000E+00
 -1      2518 1.43505E+02 2.72375E+01 0.00000E+00
 -1      2519 1.42206E+02 2.65000E+01 0.00000E+00
 -1      2520 1.43505E+02 3.16125E+01 0.00000E+00
 -1      2521 1.43505E+02 3.01625E+01 0.00000E+00
 -1      2522 1.42206E+02 2.94250E+01 0.00000E+00
 -1      2523 1.43505E+02 3.45625E+01 0.00000E+00
 -1      2524 1.43505E+02 3.30875E+01 0.00000E+00
 -1      2525 1.42206E+02 3.23500E+01 0.00000E+00
 -1      2526 1.43505E+02 3.75125E+01 0.00000E+00
 -1      2527 1.43505E+02 3.60375E+01 0.00000E+00
 -1      2528 1.42206E+02 3.53000E+01 0.00000E+00
 -1      2529 1.43492E+02 4.02195E+01 0.00000E+00
 -1      2530 1.43492E+02 3.87445E+01 0.00000E+00
 -1      2531 1.42193E+02 3.80070E+01 0.00000E+00
 -1      2532 1.42165E+02 4.04710E+01 0.00000E+00
 -1      2533 6.55950E+00 4.28890E+01 0.00000E+00
 -1      2534 8.53650E+00 4.32410E+01 0.00000E+00
 -1      2535 9.28650E+00 4.19420E+01 0.00000E+00
 -1      2536 6.55950E+00 4.14140E+01 0.00000E+00
 -1      2537 4.48826E+01 2.33078E+01 0.00000E+00
 -1      2538 4.52825E+01 2.41256E+01 0.00000E+00
 -1      2539 4.64238E+01 2.94219E+01 0.00000E+00
 -1      2540 4.64124E+01 3.04357E+01 0.00000E+00
 -1      2541 4.72756E+01 2.89329E+01 0.00000E+00
 -1      2542 4.61524E+01 3.17088E+01 0.00000E+00
 -1      2543 4.57944E+01 3.27434E+01 0.00000E+00
 -1      2544 3.78454E+01 3.91256E+01 0.00000E+00
 -1      2545 3.67733E+01 3.91097E+01 0.00000E+00
 -1      2546 2.92889E+01 2.09336E+01 0.00000E+00
 -1      2547 3.01303E+01 2.02438E+01 0.00000E+00
 -1      2548 3.28998E+01 1.85342E+01 0.00000E+00
 -1      2549 3.41093E+01 1.83085E+01 0.00000E+00
 -1      2550 6.49500E+00 2.71625E+01 0.00000E+00
 -1      2551 6.49500E+00 2.86375E+01 0.00000E+00
 -1      2552 7.79400E+00 2.93750E+01 0.00000E+00
 -1      2553 7.79400E+00 2.64250E+01 0.00000E+00
 -1      2554 3.76174E+01 1.84241E+01 0.00000E+00
 -1      2555 3.86210E+01 1.85936E+01 0.00000E+00
 -1      2556 2.76920E+01 2.27766E+01 0.00000E+00
 -1      2557 2.84152E+01 2.18788E+01 0.00000E+00
 -1      2558 4.17105E+01 1.99153E+01 0.00000E+00
 -1      2559 4.25240E+01 2.04805E+01 0.00000E+00
 -1      2560 3.98540E+01 1.87900E+01 0.00000E+00
 -1      2561 4.07712E+01 1.91965E+01 0.00000E+00
 -1      2562 3.08168E+01 1.97490E+01 0.00000E+00
 -1      2563 3.15033E+01 1.92542E+01 0.00000E+00
 -1      2564 2.98524E+01 1.94308E+01 0.00000E+00
 -1      2565 2.68212E+01 3.32014E+01 0.00000E+00
 -1      2566 2.64554E+01 3.23738E+01 0.00000E+00
 -1      2567 2.66542E+01 2.45824E+01 0.00000E+00
 -1      2568 2.70383E+01 2.37833E+01 0.00000E+00
 -1      2569 2.57433E+01 2.67488E+01 0.00000E+00
 -1      2570 2.61781E+01 2.56035E+01 0.00000E+00
 -1      2571 2.55916E+01 2.89669E+01 0.00000E+00
 -1      2572 2.55666E+01 2.80875E+01 0.00000E+00
 -1      2573 4.37985E+01 3.59817E+01 0.00000E+00
 -1      2574 4.30744E+01 3.66076E+01 0.00000E+00
 -1      2575 2.60498E+01 3.12803E+01 0.00000E+00
 -1      2576 2.57675E+01 3.01406E+01 0.00000E+00
 -1      2577 2.78761E+01 3.51516E+01 0.00000E+00
 -1      2578 2.72994E+01 3.41968E+01 0.00000E+00
 -1      2579 2.94777E+01 3.69387E+01 0.00000E+00
 -1      2580 2.86557E+01 3.62922E+01 0.00000E+00
 -1      2581 3.11925E+01 3.80886E+01 0.00000E+00
 -1      2582 3.03351E+01 3.75137E+01 0.00000E+00
 -1      2583 2.93421E+01 3.79302E+01 0.00000E+00
 -1      2584 3.33958E+01 3.89449E+01 0.00000E+00
 -1      2585 3.24197E+01 3.86424E+01 0.00000E+00
 -1      2586 3.56846E+01 3.91616E+01 0.00000E+00
 -1      2587 3.46295E+01 3.91152E+01 0.00000E+00
 -1      2588 3.99622E+01 3.88049E+01 0.00000E+00
 -1      2589 3.90880E+01 3.90813E+01 0.00000E+00
 -1      2590 4.52194E+01 3.38993E+01 0.00000E+00
 -1      2591 4.46244E+01 3.49440E+01 0.00000E+00
 -1      2592 4.57857E+01 2.51059E+01 0.00000E+00
 -1      2593 4.61723E+01 2.61596E+01 0.00000E+00
 -1      2594 1.42839E+02 8.11675E+00 0.00000E+00
 -1      2595 4.33025E+01 2.05406E+01 0.00000E+00
 -1      2596 7.79400E+00 3.52687E+01 0.00000E+00
 -1      2597 6.49500E+00 3.60062E+01 0.00000E+00
 -1      2598 6.49500E+00 3.74750E+01 0.00000E+00
 -1      2599 4.48880E+01 2.24822E+01 0.00000E+00
 -1      2600 4.57831E+01 2.25512E+01 0.00000E+00
 -1      2601 4.48935E+01 2.16565E+01 0.00000E+00
 -1      2602 9.55950E+00 5.02450E+00 0.00000E+00
 -1      2603 9.37425E+00 5.84794E+00 0.00000E+00
 -1      2604 1.07692E+01 5.21931E+00 0.00000E+00
 -1      2605 3.46558E+01 1.75092E+01 0.00000E+00
 -1      2606 6.52725E+00 3.87101E+01 0.00000E+00
 -1      2607 6.52725E+00 4.01789E+01 0.00000E+00
 -1      2608 7.89075E+00 4.04429E+01 0.00000E+00
 -1      2609 7.82625E+00 3.79726E+01 0.00000E+00
 -1      2610 3.71209E+01 1.75928E+01 0.00000E+00
 -1      2611 4.61693E+01 3.36487E+01 0.00000E+00
 -1      2612 4.70356E+01 2.66282E+01 0.00000E+00
 -1      2613 4.62808E+01 2.43571E+01 0.00000E+00
 -1      2614 3.85410E+01 3.98051E+01 0.00000E+00
 -1      2615 3.94950E+01 1.78596E+01 0.00000E+00
 -1      2616 1.30515E+01 5.74931E+00 0.00000E+00
 -1      2617 1.18418E+01 5.55450E+00 0.00000E+00
 -1      2618 1.16565E+01 6.37794E+00 0.00000E+00
 -1      2619 1.38015E+01 7.04831E+00 0.00000E+00
 -1      2620 4.07842E+01 3.89519E+01 0.00000E+00
 -1      2621 3.62098E+01 3.99014E+01 0.00000E+00
 -1      2622 1.41540E+02 8.85425E+00 0.00000E+00
 -1      2623 3.14267E+01 3.90590E+01 0.00000E+00
 -1      2624 4.70042E+01 3.12197E+01 0.00000E+00
 -1      2625 4.28636E+01 3.75115E+01 0.00000E+00
 -1      2626 2.77050E+01 3.62147E+01 0.00000E+00
 -1      2627 2.55632E+01 3.19899E+01 0.00000E+00
 -1      2628 4.47684E+01 3.58424E+01 0.00000E+00
 -1      2629 2.49816E+01 2.97228E+01 0.00000E+00
 -1      2630 2.49823E+01 2.72105E+01 0.00000E+00
 -1      2631 2.56351E+01 2.48506E+01 0.00000E+00
 -1      2632 4.16672E+01 1.87748E+01 0.00000E+00
 -1      2633 3.19354E+01 1.82160E+01 0.00000E+00
 -1      2634 3.23675E+01 1.71778E+01 0.00000E+00
 -1      2635 3.09710E+01 1.78978E+01 0.00000E+00
 -1      2636 2.67648E+01 2.28227E+01 0.00000E+00
 -1      2637 2.82921E+01 2.08708E+01 0.00000E+00
 -1      2638 2.64471E+01 3.40788E+01 0.00000E+00
 -1      2639 3.38875E+01 3.97830E+01 0.00000E+00
 -1      2640 9.09300E+00 1.98250E+01 0.00000E+00
 -1      2641 9.09300E+00 2.12750E+01 0.00000E+00
 -1      2642 9.09300E+00 2.27500E+01 0.00000E+00
 -1      2643 9.09300E+00 2.42250E+01 0.00000E+00
 -1      2644 1.03920E+01 2.20250E+01 0.00000E+00
 -1      2645 9.09300E+00 1.39375E+01 0.00000E+00
 -1      2646 9.09300E+00 1.54125E+01 0.00000E+00
 -1      2647 9.09300E+00 1.09875E+01 0.00000E+00
 -1      2648 9.09300E+00 1.24625E+01 0.00000E+00
 -1      2649 1.03920E+01 1.32000E+01 0.00000E+00
 -1      2650 9.18900E+00 6.67137E+00 0.00000E+00
 -1      2651 9.00375E+00 7.49481E+00 0.00000E+00
 -1      2652 1.03988E+01 6.86619E+00 0.00000E+00
 -1      2653 4.18236E+01 3.92144E+01 0.00000E+00
 -1      2654 4.08230E+01 4.00232E+01 0.00000E+00
 -1      2655 1.44000E+01 4.09070E+01 0.00000E+00
 -1      2656 1.59000E+01 4.09070E+01 0.00000E+00
 -1      2657 1.74000E+01 4.09070E+01 0.00000E+00
 -1      2658 1.89000E+01 4.09070E+01 0.00000E+00
 -1      2659 1.66500E+01 3.96080E+01 0.00000E+00
 -1      2660 2.04000E+01 4.09070E+01 0.00000E+00
 -1      2661 2.19000E+01 4.09070E+01 0.00000E+00
 -1      2662 1.96500E+01 3.96080E+01 0.00000E+00
 -1      2663 2.34000E+01 4.09070E+01 0.00000E+00
 -1      2664 2.49000E+01 4.09070E+01 0.00000E+00
 -1      2665 2.26500E+01 3.96080E+01 0.00000E+00
 -1      2666 4.11812E+01 4.12459E+01 0.00000E+00
 -1      2667 4.26812E+01 4.12459E+01 0.00000E+00
 -1      2668 4.42500E+01 4.10971E+01 0.00000E+00
 -1      2669 4.57500E+01 4.10971E+01 0.00000E+00
 -1      2670 4.72500E+01 4.10971E+01 0.00000E+00
 -1      2671 4.87500E+01 4.10971E+01 0.00000E+00
 -1      2672 4.65000E+01 3.99882E+01 0.00000E+00
 -1      2673 5.02500E+01 4.10971E+01 0.00000E+00
 -1      2674 5.17500E+01 4.10971E+01 0.00000E+00
 -1      2675 4.95000E+01 3.99882E+01 0.00000E+00
 -1      2676 5.32500E+01 4.10971E+01 0.00000E+00
 -1      2677 5.47500E+01 4.10971E+01 0.00000E+00
 -1      2678 5.25000E+01 3.99882E+01 0.00000E+00
 -1      2679 5.62500E+01 4.10971E+01 0.00000E+00
 -1      2680 5.77500E+01 4.10971E+01 0.00000E+00
 -1      2681 5.55000E+01 3.99882E+01 0.00000E+00
 -1      2682 5.92500E+01 4.10971E+01 0.00000E+00
 -1      2683 6.07500E+01 4.10971E+01 0.00000E+00
 -1      2684 5.85000E+01 3.99882E+01 0.00000E+00
 -1      2685 6.22500E+01 4.10971E+01 0.00000E+00
 -1      2686 6.37500E+01 4.10971E+01 0.00000E+00
 -1      2687 6.15000E+01 3.99882E+01 0.00000E+00
 -1      2688 6.52500E+01 4.10971E+01 0.00000E+00
 -1      2689 6.67500E+01 4.10971E+01 0.00000E+00
 -1      2690 6.45000E+01 3.99882E+01 0.00000E+00
 -1      2691 6.82500E+01 4.10971E+01 0.00000E+00
 -1      2692 6.97500E+01 4.10971E+01 0.00000E+00
 -1      2693 6.75000E+01 3.99882E+01 0.00000E+00
 -1      2694 7.12500E+01 4.10971E+01 0.00000E+00
 -1      2695 7.27500E+01 4.10971E+01 0.00000E+00
 -1      2696 7.05000E+01 3.99882E+01 0.00000E+00
 -1      2697 7.42500E+01 4.10971E+01 0.00000E+00
 -1      2698 7.57500E+01 4.10971E+01 0.00000E+00
 -1      2699 7.35000E+01 3.99882E+01 0.00000E+00
 -1      2700 7.72500E+01 4.10971E+01 0.00000E+00
 -1      2701 7.87500E+01 4.10971E+01 0.00000E+00
 -1      2702 7.65000E+01 3.99882E+01 0.00000E+00
 -1      2703 8.02500E+01 4.10971E+01 0.00000E+00
 -1      2704 8.17500E+01 4.10971E+01 0.00000E+00
 -1      2705 7.95000E+01 3.99882E+01 0.00000E+00
 -1      2706 8.32500E+01 4.10971E+01 0.00000E+00
 -1      2707 8.47500E+01 4.10971E+01 0.00000E+00
 -1      2708 8.25000E+01 3.99882E+01 0.00000E+00
 -1      2709 8.62500E+01 4.10971E+01 0.00000E+00
 -1      2710 8.77500E+01 4.10971E+01 0.00000E+00
 -1      2711 8.55000E+01 3.99882E+01 0.00000E+00
 -1      2712 8.92500E+01 4.10971E+01 0.00000E+00
 -1      2713 9.07500E+01 4.10971E+01 0.00000E+00
 -1      2714 8.85000E+01 3.99882E+01 0.00000E+00
 -1      2715 9.22500E+01 4.10971E+01 0.00000E+00
 -1      2716 9.37500E+01 4.10971E+01 0.00000E+00
 -1      2717 9.15000E+01 3.99882E+01 0.00000E+00
 -1      2718 9.52500E+01 4.10971E+01 0.00000E+00
 -1      2719 9.67500E+01 4.10971E+01 0.00000E+00
 -1      2720 9.45000E+01 3.99882E+01 0.00000E+00
 -1      2721 9.82500E+01 4.10971E+01 0.00000E+00
 -1      2722 9.97500E+01 4.10971E+01 0.00000E+00
 -1      2723 9.75000E+01 3.99882E+01 0.00000E+00
 -1      2724 1.01250E+02 4.10971E+01 0.00000E+00
 -1      2725 1.02750E+02 4.10971E+01 0.00000E+00
 -1      2726 1.00500E+02 3.99882E+01 0.00000E+00
 -1      2727 1.04250E+02 4.10971E+01 0.00000E+00
 -1      2728 1.05750E+02 4.10971E+01 0.00000E+00
 -1      2729 1.03500E+02 3.99882E+01 0.00000E+00
 -1      2730 1.07250E+02 4.10971E+01 0.00000E+00
 -1      2731 1.08750E+02 4.10971E+01 0.00000E+00
 -1      2732 1.06500E+02 3.99882E+01 0.00000E+00
 -1      2733 1.10250E+02 4.10971E+01 0.00000E+00
 -1      2734 1.11750E+02 4.10971E+01 0.00000E+00
 -1      2735 1.09500E+02 3.99882E+01 0.00000E+00
 -1      2736 1.13250E+02 4.10971E+01 0.00000E+00
 -1      2737 1.14750E+02 4.10971E+01 0.00000E+00
 -1      2738 1.12500E+02 3.99882E+01 0.00000E+00
 -1      2739 1.16250E+02 4.10971E+01 0.00000E+00
 -1      2740 1.17750E+02 4.10971E+01 0.00000E+00
 -1      2741 1.15500E+02 3.99882E+01 0.00000E+00
 -1      2742 1.19250E+02 4.10971E+01 0.00000E+00
 -1      2743 1.20750E+02 4.10971E+01 0.00000E+00
 -1      2744 1.18500E+02 3.99882E+01 0.00000E+00
 -1      2745 1.22250E+02 4.10971E+01 0.00000E+00
 -1      2746 1.23750E+02 4.10971E+01 0.00000E+00
 -1      2747 1.21500E+02 3.99882E+01 0.00000E+00
 -1      2748 1.25250E+02 4.10971E+01 0.00000E+00
 -1      2749 1.26750E+02 4.10971E+01 0.00000E+00
 -1      2750 1.24500E+02 3.99882E+01 0.00000E+00
 -1      2751 1.28250E+02 4.10971E+01 0.00000E+00
 -1      2752 1.29750E+02 4.10971E+01 0.00000E+00
 -1      2753 1.27500E+02 3.99882E+01 0.00000E+00
 -1      2754 1.31250E+02 4.10971E+01 0.00000E+00
 -1      2755 1.32750E+02 4.10971E+01 0.00000E+00
 -1      2756 1.30500E+02 3.99882E+01 0.00000E+00
 -1      2757 1.34250E+02 4.10971E+01 0.00000E+00
 -1      2758 1.35750E+02 4.10971E+01 0.00000E+00
 -1      2759 1.33500E+02 3.99882E+01 0.00000E+00
 -1      2760 1.37250E+02 4.10971E+01 0.00000E+00
 -1      2761 1.38750E+02 4.10971E+01 0.00000E+00
 -1      2762 1.36500E+02 3.99882E+01 0.00000E+00
 -1      2763 1.39795E+02 4.09098E+01 0.00000E+00
 -1      2764 1.41121E+02 4.06583E+01 0.00000E+00
 -1      2765 1.41134E+02 3.94263E+01 0.00000E+00
 -1      2766 1.39045E+02 3.98009E+01 0.00000E+00
 -1      2767 2.01240E+01 8.68250E+00 0.00000E+00
 -1      2768 1.86240E+01 8.68250E+00 0.00000E+00
 -1      2769 2.31240E+01 8.68250E+00 0.00000E+00
 -1      2770 2.16240E+01 8.68250E+00 0.00000E+00
 -1      2771 2.08740E+01 9.98150E+00 0.00000E+00
 -1      2772 1.71240E+01 8.68250E+00 0.00000E+00
 -1      2773 1.56240E+01 8.68250E+00 0.00000E+00
 -1      2774 1.78740E+01 9.98150E+00 0.00000E+00
 -1      2775 2.91240E+01 8.68250E+00 0.00000E+00
 -1      2776 2.76240E+01 8.68250E+00 0.00000E+00
 -1      2777 3.21240E+01 8.68250E+00 0.00000E+00
 -1      2778 3.06240E+01 8.68250E+00 0.00000E+00
 -1      2779 2.98740E+01 9.98150E+00 0.00000E+00
 -1      2780 3.51240E+01 8.68250E+00 0.00000E+00
 -1      2781 3.36240E+01 8.68250E+00 0.00000E+00
 -1      2782 3.28740E+01 9.98150E+00 0.00000E+00
 -1      2783 3.81240E+01 8.68250E+00 0.00000E+00
 -1      2784 3.66240E+01 8.68250E+00 0.00000E+00
 -1      2785 3.58740E+01 9.98150E+00 0.00000E+00
 -1      2786 4.11240E+01 8.68250E+00 0.00000E+00
 -1      2787 3.96240E+01 8.68250E+00 0.00000E+00
 -1      2788 3.88740E+01 9.98150E+00 0.00000E+00
 -1      2789 4.41240E+01 8.68250E+00 0.00000E+00
 -1      2790 4.26240E+01 8.68250E+00 0.00000E+00
 -1      2791 4.18740E+01 9.98150E+00 0.00000E+00
 -1      2792 4.71240E+01 8.68250E+00 0.00000E+00
 -1      2793 4.56240E+01 8.68250E+00 0.00000E+00
 -1      2794 4.48740E+01 9.98150E+00 0.00000E+00
 -1      2795 5.01240E+01 8.68250E+00 0.00000E+00
 -1      2796 4.86240E+01 8.68250E+00 0.00000E+00
 -1      2797 4.78740E+01 9.98150E+00 0.00000E+00
 -1      2798 5.31240E+01 8.68250E+00 0.00000E+00
 -1      2799 5.16240E+01 8.68250E+00 0.00000E+00
 -1      2800 5.08740E+01 9.98150E+00 0.00000E+00
 -1      2801 5.61240E+01 8.68250E+00 0.00000E+00
 -1      2802 5.46240E+01 8.68250E+00 0.00000E+00
 -1      2803 5.38740E+01 9.98150E+00 0.00000E+00
 -1      2804 5.91240E+01 8.68250E+00 0.00000E+00
 -1      2805 5.76240E+01 8.68250E+00 0.00000E+00
 -1      2806 5.68740E+01 9.98150E+00 0.00000E+00
 -1      2807 6.21240E+01 8.68250E+00 0.00000E+00
 -1      2808 6.06240E+01 8.68250E+00 0.00000E+00
 -1      2809 5.98740E+01 9.98150E+00 0.00000E+00
 -1      2810 6.51240E+01 8.68250E+00 0.00000E+00
 -1      2811 6.36240E+01 8.68250E+00 0.00000E+00
 -1      2812 6.28740E+01 9.98150E+00 0.00000E+00
 -1      2813 6.81240E+01 8.68250E+00 0.00000E+00
 -1      2814 6.66240E+01 8.68250E+00 0.00000E+00
 -1      2815 6.58740E+01 9.98150E+00 0.00000E+00
 -1      2816 7.11240E+01 8.68250E+00 0.00000E+00
 -1      2817 6.96240E+01 8.68250E+00 0.00000E+00
 -1      2818 6.88740E+01 9.98150E+00 0.00000E+00
 -1      2819 7.41240E+01 8.68250E+00 0.00000E+00
 -1      2820 7.26240E+01 8.68250E+00 0.00000E+00
 -1      2821 7.18740E+01 9.98150E+00 0.00000E+00
 -1      2822 7.71240E+01 8.68250E+00 0.00000E+00
 -1      2823 7.56240E+01 8.68250E+00 0.00000E+00
 -1      2824 7.48740E+01 9.98150E+00 0.00000E+00
 -1      2825 8.01240E+01 8.68250E+00 0.00000E+00
 -1      2826 7.86240E+01 8.68250E+00 0.00000E+00
 -1      2827 7.78740E+01 9.98150E+00 0.00000E+00
 -1      2828 8.31240E+01 8.68250E+00 0.00000E+00
 -1      2829 8.16240E+01 8.68250E+00 0.00000E+00
 -1      2830 8.08740E+01 9.98150E+00 0.00000E+00
 -1      2831 8.61240E+01 8.68250E+00 0.00000E+00
 -1      2832 8.46240E+01 8.68250E+00 0.00000E+00
 -1      2833 8.38740E+01 9.98150E+00 0.00000E+00
 -1      2834 8.91240E+01 8.68250E+00 0.00000E+00
 -1      2835 8.76240E+01 8.68250E+00 0.00000E+00
 -1      2836 8.68740E+01 9.98150E+00 0.00000E+00
 -1      2837 9.21240E+01 8.68250E+00 0.00000E+00
 -1      2838 9.06240E+01 8.68250E+00 0.00000E+00
 -1      2839 8.98740E+01 9.98150E+00 0.00000E+00
 -1      2840 9.51240E+01 8.68250E+00 0.00000E+00
 -1      2841 9.36240E+01 8.68250E+00 0.00000E+00
 -1      2842 9.28740E+01 9.98150E+00 0.00000E+00
 -1      2843 9.81240E+01 8.68250E+00 0.00000E+00
 -1      2844 9.66240E+01 8.68250E+00 0.00000E+00
 -1      2845 9.58740E+01 9.98150E+00 0.00000E+00
 -1      2846 1.01124E+02 8.68250E+00 0.00000E+00
 -1      2847 9.96240E+01 8.68250E+00 0.00000E+00
 -1      2848 9.88740E+01 9.98150E+00 0.00000E+00
 -1      2849 1.04124E+02 8.68250E+00 0.00000E+00
 -1      2850 1.02624E+02 8.68250E+00 0.00000E+00
 -1      2851 1.01874E+02 9.98150E+00 0.00000E+00
 -1      2852 1.07124E+02 8.68250E+00 0.00000E+00
 -1      2853 1.05624E+02 8.68250E+00 0.00000E+00
 -1      2854 1.04874E+02 9.98150E+00 0.00000E+00
 -1      2855 1.10124E+02 8.68250E+00 0.00000E+00
 -1      2856 1.08624E+02 8.68250E+00 0.00000E+00
 -1      2857 1.07874E+02 9.98150E+00 0.00000E+00
 -1      2858 1.13124E+02 8.68250E+00 0.00000E+00
 -1      2859 1.11624E+02 8.68250E+00 0.00000E+00
 -1      2860 1.10874E+02 9.98150E+00 0.00000E+00
 -1      2861 1.16124E+02 8.68250E+00 0.00000E+00
 -1      2862 1.14624E+02 8.68250E+00 0.00000E+00
 -1      2863 1.13874E+02 9.98150E+00 0.00000E+00
 -1      2864 1.19124E+02 8.68250E+00 0.00000E+00
 -1      2865 1.17624E+02 8.68250E+00 0.00000E+00
 -1      2866 1.16874E+02 9.98150E+00 0.00000E+00
 -1      2867 1.22124E+02 8.68250E+00 0.00000E+00
 -1      2868 1.20624E+02 8.68250E+00 0.00000E+00
 -1      2869 1.19874E+02 9.98150E+00 0.00000E+00
 -1      2870 1.25124E+02 8.68250E+00 0.00000E+00
 -1      2871 1.23624E+02 8.68250E+00 0.00000E+00
 -1      2872 1.22874E+02 9.98150E+00 0.00000E+00
 -1      2873 1.28124E+02 8.68250E+00 0.00000E+00
 -1      2874 1.26624E+02 8.68250E+00 0.00000E+00
 -1      2875 1.25874E+02 9.98150E+00 0.00000E+00
 -1      2876 1.31124E+02 8.68250E+00 0.00000E+00
 -1      2877 1.29624E+02 8.68250E+00 0.00000E+00
 -1      2878 1.28874E+02 9.98150E+00 0.00000E+00
 -1      2879 1.34124E+02 8.68250E+00 0.00000E+00
 -1      2880 1.32624E+02 8.68250E+00 0.00000E+00
 -1      2881 1.31874E+02 9.98150E+00 0.00000E+00
 -1      2882 1.37124E+02 8.68250E+00 0.00000E+00
 -1      2883 1.35624E+02 8.68250E+00 0.00000E+00
 -1      2884 1.34874E+02 9.98150E+00 0.00000E+00
 -1      2885 1.40082E+02 8.76838E+00 0.00000E+00
 -1      2886 1.38582E+02 8.76838E+00 0.00000E+00
 -1      2887 1.37832E+02 1.00674E+01 0.00000E+00
 -1      2888 1.40748E+02 1.02391E+01 0.00000E+00
 -1      2889 4.36687E+01 1.95424E+01 0.00000E+00
 -1      2890 4.43646E+01 2.05893E+01 0.00000E+00
 -1      2891 1.40907E+02 1.54500E+01 0.00000E+00
 -1      2892 1.40907E+02 1.40000E+01 0.00000E+00
 -1      2893 1.40907E+02 2.13375E+01 0.00000E+00
 -1      2894 1.40907E+02 1.98625E+01 0.00000E+00
 -1      2895 1.40827E+02 1.28571E+01 0.00000E+00
 -1      2896 1.40827E+02 1.13821E+01 0.00000E+00
 -1      2897 1.39370E+02 1.12962E+01 0.00000E+00
 -1      2898 1.39529E+02 1.35821E+01 0.00000E+00
 -1      2899 1.40907E+02 1.83937E+01 0.00000E+00
 -1      2900 1.40907E+02 1.69188E+01 0.00000E+00
 -1      2901 1.39608E+02 1.61938E+01 0.00000E+00
 -1      2902 1.39608E+02 1.91313E+01 0.00000E+00
 -1      2903 4.78338E+01 2.58028E+01 0.00000E+00
 -1      2904 4.80853E+01 2.70937E+01 0.00000E+00
 -1      2905 1.40907E+02 2.72375E+01 0.00000E+00
 -1      2906 1.40907E+02 2.57625E+01 0.00000E+00
 -1      2907 1.40907E+02 3.01375E+01 0.00000E+00
 -1      2908 1.40907E+02 2.86875E+01 0.00000E+00
 -1      2909 1.39608E+02 2.79500E+01 0.00000E+00
 -1      2910 1.40907E+02 3.30875E+01 0.00000E+00
 -1      2911 1.40907E+02 3.16125E+01 0.00000E+00
 -1      2912 1.39608E+02 3.08750E+01 0.00000E+00
 -1      2913 1.40907E+02 3.60375E+01 0.00000E+00
 -1      2914 1.40907E+02 3.45625E+01 0.00000E+00
 -1      2915 1.39608E+02 3.38250E+01 0.00000E+00
 -1      2916 3.40024E+01 1.66451E+01 0.00000E+00
 -1      2917 3.53263E+01 1.66583E+01 0.00000E+00
 -1      2918 4.81388E+01 2.84357E+01 0.00000E+00
 -1      2919 4.81274E+01 2.94494E+01 0.00000E+00
 -1      2920 4.44712E+01 3.84341E+01 0.00000E+00
 -1      2921 4.33924E+01 3.90656E+01 0.00000E+00
 -1      2922 4.80565E+01 3.07715E+01 0.00000E+00
 -1      2923 4.77965E+01 3.20446E+01 0.00000E+00
 -1      2924 4.58523E+01 3.58575E+01 0.00000E+00
 -1      2925 4.50264E+01 3.68952E+01 0.00000E+00
 -1      2926 2.89097E+01 1.88465E+01 0.00000E+00
 -1      2927 2.95962E+01 1.83517E+01 0.00000E+00
 -1      2928 1.40907E+02 2.42875E+01 0.00000E+00
 -1      2929 1.40907E+02 2.28125E+01 0.00000E+00
 -1      2930 1.39608E+02 2.50250E+01 0.00000E+00
 -1      2931 2.59133E+01 3.49479E+01 0.00000E+00
 -1      2932 2.54351E+01 3.39525E+01 0.00000E+00
 -1      2933 3.65980E+01 1.67853E+01 0.00000E+00
 -1      2934 3.77391E+01 1.68558E+01 0.00000E+00
 -1      2935 2.57187E+01 2.28591E+01 0.00000E+00
 -1      2936 2.63723E+01 2.18524E+01 0.00000E+00
 -1      2937 1.14000E+01 4.09070E+01 0.00000E+00
 -1      2938 1.29000E+01 4.09070E+01 0.00000E+00
 -1      2939 1.36500E+01 3.96080E+01 0.00000E+00
 -1      2940 2.71640E+01 2.07045E+01 0.00000E+00
 -1      2941 2.80377E+01 1.97592E+01 0.00000E+00
 -1      2942 4.18206E+01 1.76013E+01 0.00000E+00
 -1      2943 4.27599E+01 1.83201E+01 0.00000E+00
 -1      2944 2.46198E+01 2.49988E+01 0.00000E+00
 -1      2945 2.50959E+01 2.39777E+01 0.00000E+00
 -1      2946 2.72486E+01 3.73635E+01 0.00000E+00
 -1      2947 2.64689E+01 3.62230E+01 0.00000E+00
 -1      2948 9.09300E+00 1.68813E+01 0.00000E+00
 -1      2949 9.09300E+00 1.83563E+01 0.00000E+00
 -1      2950 1.03920E+01 1.90812E+01 0.00000E+00
 -1      2951 1.03920E+01 1.61437E+01 0.00000E+00
 -1      2952 2.39607E+01 2.77566E+01 0.00000E+00
 -1      2953 2.41374E+01 2.64179E+01 0.00000E+00
 -1      2954 2.48835E+01 3.28641E+01 0.00000E+00
 -1      2955 2.44778E+01 3.17706E+01 0.00000E+00
 -1      2956 2.91999E+01 3.90691E+01 0.00000E+00
 -1      2957 2.83425E+01 3.84942E+01 0.00000E+00
 -1      2958 3.90266E+01 1.68318E+01 0.00000E+00
 -1      2959 4.02595E+01 1.70282E+01 0.00000E+00
 -1      2960 2.42629E+01 3.04306E+01 0.00000E+00
 -1      2961 2.40870E+01 2.92569E+01 0.00000E+00
 -1      2962 9.09300E+00 3.15875E+01 0.00000E+00
 -1      2963 9.09300E+00 3.30625E+01 0.00000E+00
 -1      2964 2.61240E+01 8.68250E+00 0.00000E+00
 -1      2965 2.46240E+01 8.68250E+00 0.00000E+00
 -1      2966 2.38740E+01 9.98150E+00 0.00000E+00
 -1      2967 2.68740E+01 9.98150E+00 0.00000E+00
 -1      2968 4.69412E+01 2.33988E+01 0.00000E+00
 -1      2969 4.74444E+01 2.43790E+01 0.00000E+00
 -1      2970 4.71870E+01 3.34341E+01 0.00000E+00
 -1      2971 4.66121E+01 3.45900E+01 0.00000E+00
 -1      2972 8.96362E+00 4.05429E+01 0.00000E+00
 -1      2973 1.03271E+01 4.08069E+01 0.00000E+00
 -1      2974 1.10771E+01 3.95079E+01 0.00000E+00
 -1      2975 8.93137E+00 3.93078E+01 0.00000E+00
 -1      2976 9.09300E+00 3.45313E+01 0.00000E+00
 -1      2977 9.09300E+00 3.60000E+01 0.00000E+00
 -1      2978 1.03920E+01 3.37938E+01 0.00000E+00
 -1      2979 4.52597E+01 2.06583E+01 0.00000E+00
 -1      2980 1.03920E+01 2.49750E+01 0.00000E+00
 -1      2981 9.09300E+00 2.57000E+01 0.00000E+00
 -1      2982 9.09300E+00 2.71750E+01 0.00000E+00
 -1      2983 9.00375E+00 8.96981E+00 0.00000E+00
 -1      2984 2.47034E+01 2.30073E+01 0.00000E+00
 -1      2985 2.35832E+01 3.13047E+01 0.00000E+00
 -1      2986 4.34312E+01 4.01369E+01 0.00000E+00
 -1      2987 4.01418E+01 4.09834E+01 0.00000E+00
 -1      2988 2.61752E+01 3.96206E+01 0.00000E+00
 -1      2989 2.69252E+01 4.09196E+01 0.00000E+00
 -1      2990 2.84252E+01 4.09196E+01 0.00000E+00
 -1      2991 2.94000E+01 4.09295E+01 0.00000E+00
 -1      2992 3.09000E+01 4.09295E+01 0.00000E+00
 -1      2993 3.21520E+01 4.09094E+01 0.00000E+00
 -1      2994 3.35770E+01 4.09094E+01 0.00000E+00
 -1      2995 3.48106E+01 4.10796E+01 0.00000E+00
 -1      2996 3.63106E+01 4.10796E+01 0.00000E+00
 -1      2997 4.84942E+01 2.48445E+01 0.00000E+00
 -1      2998 4.69467E+01 2.25731E+01 0.00000E+00
 -1      2999 4.81103E+01 2.25951E+01 0.00000E+00
 -1      3000 4.69521E+01 2.17475E+01 0.00000E+00
 -1      3001 4.38220E+01 1.83689E+01 0.00000E+00
 -1      3002 4.89370E+01 2.76102E+01 0.00000E+00
 -1      3003 2.71064E+01 3.85024E+01 0.00000E+00
 -1      3004 2.35982E+01 2.55450E+01 0.00000E+00
 -1      3005 2.43497E+01 3.37332E+01 0.00000E+00
 -1      3006 3.59446E+01 1.59212E+01 0.00000E+00
 -1      3007 3.30380E+01 1.63269E+01 0.00000E+00
 -1      3008 3.37085E+01 1.54759E+01 0.00000E+00
 -1      3009 3.20736E+01 1.60086E+01 0.00000E+00
 -1      3010 1.41014E+02 3.83479E+01 0.00000E+00
 -1      3011 1.41027E+02 3.71159E+01 0.00000E+00
 -1      3012 1.39728E+02 3.63784E+01 0.00000E+00
 -1      3013 1.39969E+02 3.85352E+01 0.00000E+00
 -1      3014 3.85037E+01 1.60243E+01 0.00000E+00
 -1      3015 1.48740E+01 9.98151E+00 0.00000E+00
 -1      3016 1.41240E+01 8.68251E+00 0.00000E+00
 -1      3017 4.13522E+01 1.65735E+01 0.00000E+00
 -1      3018 4.24448E+01 1.61188E+01 0.00000E+00
 -1      3019 4.08838E+01 1.55457E+01 0.00000E+00
 -1      3020 4.89197E+01 3.02743E+01 0.00000E+00
 -1      3021 1.30515E+01 8.34733E+00 0.00000E+00
 -1      3022 2.77816E+01 1.86802E+01 0.00000E+00
 -1      3023 4.68701E+01 3.56428E+01 0.00000E+00
 -1      3024 4.82393E+01 3.29858E+01 0.00000E+00
 -1      3025 4.55552E+01 3.84493E+01 0.00000E+00
 -1      3026 3.00284E+01 1.73135E+01 0.00000E+00
 -1      3027 1.39608E+02 2.20750E+01 0.00000E+00
 -1      3028 3.73992E+01 4.10277E+01 0.00000E+00
 -1      3029 1.03027E+01 9.70731E+00 0.00000E+00
 -1      3030 9.09300E+00 2.86437E+01 0.00000E+00
 -1      3031 9.09300E+00 3.01187E+01 0.00000E+00
 -1      3032 1.03920E+01 3.08563E+01 0.00000E+00
 -1      3033 1.03920E+01 2.79188E+01 0.00000E+00
 -1      3034 3.91929E+01 4.06399E+01 0.00000E+00
 -1      3035 3.79504E+01 4.06843E+01 0.00000E+00
 -1      3036 2.54568E+01 3.60967E+01 0.00000E+00
 -1      3037 2.61179E+01 2.07408E+01 0.00000E+00
 -1      3038 1.16910E+01 1.24625E+01 0.00000E+00
 -1      3039 1.16910E+01 1.39375E+01 0.00000E+00
 -1      3040 1.14712E+01 7.20138E+00 0.00000E+00
 -1      3041 2.35696E+01 2.31087E+01 0.00000E+00
 -1      3042 2.41924E+01 2.19901E+01 0.00000E+00
 -1      3043 2.65438E+01 1.83705E+01 0.00000E+00
 -1      3044 2.74158E+01 1.74578E+01 0.00000E+00
 -1      3045 8.99606E+00 3.70363E+01 0.00000E+00
 -1      3046 9.02831E+00 3.82715E+01 0.00000E+00
 -1      3047 1.01012E+01 3.83715E+01 0.00000E+00
 -1      3048 1.02951E+01 3.62988E+01 0.00000E+00
 -1      3049 3.01748E+01 3.90791E+01 0.00000E+00
 -1      3050 2.91752E+01 3.96431E+01 0.00000E+00
 -1      3051 3.14020E+01 3.96329E+01 0.00000E+00
 -1      3052 1.17938E+01 8.83558E+00 0.00000E+00
 -1      3053 2.50812E+01 3.84899E+01 0.00000E+00
 -1      3054 1.89000E+01 3.83090E+01 0.00000E+00
 -1      3055 2.04000E+01 3.83090E+01 0.00000E+00
 -1      3056 2.19000E+01 3.83090E+01 0.00000E+00
 -1      3057 2.34000E+01 3.83090E+01 0.00000E+00
 -1      3058 2.11500E+01 3.70100E+01 0.00000E+00
 -1      3059 1.18830E+01 1.08533E+01 0.00000E+00
 -1      3060 4.95308E+01 2.37959E+01 0.00000E+00
 -1      3061 4.99201E+01 2.52196E+01 0.00000E+00
 -1      3062 3.78409E+01 1.50113E+01 0.00000E+00
 -1      3063 3.91284E+01 1.49874E+01 0.00000E+00
 -1      3064 4.87500E+01 3.87117E+01 0.00000E+00
 -1      3065 5.02500E+01 3.87117E+01 0.00000E+00
 -1      3066 5.17500E+01 3.87117E+01 0.00000E+00
 -1      3067 5.32500E+01 3.87117E+01 0.00000E+00
 -1      3068 5.10000E+01 3.74352E+01 0.00000E+00
 -1      3069 5.47500E+01 3.87117E+01 0.00000E+00
 -1      3070 5.62500E+01 3.87117E+01 0.00000E+00
 -1      3071 5.40000E+01 3.74352E+01 0.00000E+00
 -1      3072 5.77500E+01 3.87117E+01 0.00000E+00
 -1      3073 5.92500E+01 3.87117E+01 0.00000E+00
 -1      3074 5.70000E+01 3.74352E+01 0.00000E+00
 -1      3075 6.07500E+01 3.87117E+01 0.00000E+00
 -1      3076 6.22500E+01 3.87117E+01 0.00000E+00
 -1      3077 6.00000E+01 3.74352E+01 0.00000E+00
 -1      3078 6.37500E+01 3.87117E+01 0.00000E+00
 -1      3079 6.52500E+01 3.87117E+01 0.00000E+00
 -1      3080 6.30000E+01 3.74352E+01 0.00000E+00
 -1      3081 6.67500E+01 3.87117E+01 0.00000E+00
 -1      3082 6.82500E+01 3.87117E+01 0.00000E+00
 -1      3083 6.60000E+01 3.74352E+01 0.00000E+00
 -1      3084 6.97500E+01 3.87117E+01 0.00000E+00
 -1      3085 7.12500E+01 3.87117E+01 0.00000E+00
 -1      3086 6.90000E+01 3.74352E+01 0.00000E+00
 -1      3087 7.27500E+01 3.87117E+01 0.00000E+00
 -1      3088 7.42500E+01 3.87117E+01 0.00000E+00
 -1      3089 7.20000E+01 3.74352E+01 0.00000E+00
 -1      3090 7.57500E+01 3.87117E+01 0.00000E+00
 -1      3091 7.72500E+01 3.87117E+01 0.00000E+00
 -1      3092 7.50000E+01 3.74352E+01 0.00000E+00
 -1      3093 7.87500E+01 3.87117E+01 0.00000E+00
 -1      3094 8.02500E+01 3.87117E+01 0.00000E+00
 -1      3095 7.80000E+01 3.74352E+01 0.00000E+00
 -1      3096 8.17500E+01 3.87117E+01 0.00000E+00
 -1      3097 8.32500E+01 3.87117E+01 0.00000E+00
 -1      3098 8.10000E+01 3.74352E+01 0.00000E+00
 -1      3099 8.47500E+01 3.87117E+01 0.00000E+00
 -1      3100 8.62500E+01 3.87117E+01 0.00000E+00
 -1      3101 8.40000E+01 3.74352E+01 0.00000E+00
 -1      3102 8.77500E+01 3.87117E+01 0.00000E+00
 -1      3103 8.92500E+01 3.87117E+01 0.00000E+00
 -1      3104 8.70000E+01 3.74352E+01 0.00000E+00
 -1      3105 9.07500E+01 3.87117E+01 0.00000E+00
 -1      3106 9.22500E+01 3.87117E+01 0.00000E+00
 -1      3107 9.00000E+01 3.74352E+01 0.00000E+00
 -1      3108 9.37500E+01 3.87117E+01 0.00000E+00
 -1      3109 9.52500E+01 3.87117E+01 0.00000E+00
 -1      3110 9.30000E+01 3.74352E+01 0.00000E+00
 -1      3111 9.67500E+01 3.87117E+01 0.00000E+00
 -1      3112 9.82500E+01 3.87117E+01 0.00000E+00
 -1      3113 9.60000E+01 3.74352E+01 0.00000E+00
 -1      3114 9.97500E+01 3.87117E+01 0.00000E+00
 -1      3115 1.01250E+02 3.87117E+01 0.00000E+00
 -1      3116 9.90000E+01 3.74352E+01 0.00000E+00
 -1      3117 1.02750E+02 3.87117E+01 0.00000E+00
 -1      3118 1.04250E+02 3.87117E+01 0.00000E+00
 -1      3119 1.02000E+02 3.74352E+01 0.00000E+00
 -1      3120 1.05750E+02 3.87117E+01 0.00000E+00
 -1      3121 1.07250E+02 3.87117E+01 0.00000E+00
 -1      3122 1.05000E+02 3.74352E+01 0.00000E+00
 -1      3123 1.08750E+02 3.87117E+01 0.00000E+00
 -1      3124 1.10250E+02 3.87117E+01 0.00000E+00
 -1      3125 1.08000E+02 3.74352E+01 0.00000E+00
 -1      3126 1.11750E+02 3.87117E+01 0.00000E+00
 -1      3127 1.13250E+02 3.87117E+01 0.00000E+00
 -1      3128 1.11000E+02 3.74352E+01 0.00000E+00
 -1      3129 1.14750E+02 3.87117E+01 0.00000E+00
 -1      3130 1.16250E+02 3.87117E+01 0.00000E+00
 -1      3131 1.14000E+02 3.74352E+01 0.00000E+00
 -1      3132 1.17750E+02 3.87117E+01 0.00000E+00
 -1      3133 1.19250E+02 3.87117E+01 0.00000E+00
 -1      3134 1.17000E+02 3.74352E+01 0.00000E+00
 -1      3135 1.20750E+02 3.87117E+01 0.00000E+00
 -1      3136 1.22250E+02 3.87117E+01 0.00000E+00
 -1      3137 1.20000E+02 3.74352E+01 0.00000E+00
 -1      3138 1.23750E+02 3.87117E+01 0.00000E+00
 -1      3139 1.25250E+02 3.87117E+01 0.00000E+00
 -1      3140 1.23000E+02 3.74352E+01 0.00000E+00
 -1      3141 1.26750E+02 3.87117E+01 0.00000E+00
 -1      3142 1.28250E+02 3.87117E+01 0.00000E+00
 -1      3143 1.26000E+02 3.74352E+01 0.00000E+00
 -1      3144 1.29750E+02 3.87117E+01 0.00000E+00
 -1      3145 1.31250E+02 3.87117E+01 0.00000E+00
 -1      3146 1.29000E+02 3.74352E+01 0.00000E+00
 -1      3147 1.32750E+02 3.87117E+01 0.00000E+00
 -1      3148 1.34250E+02 3.87117E+01 0.00000E+00
 -1      3149 1.32000E+02 3.74352E+01 0.00000E+00
 -1      3150 1.35750E+02 3.87117E+01 0.00000E+00
 -1      3151 1.37250E+02 3.87117E+01 0.00000E+00
 -1      3152 1.35000E+02 3.74352E+01 0.00000E+00
 -1      3153 2.16240E+01 1.12805E+01 0.00000E+00
 -1      3154 2.01240E+01 1.12805E+01 0.00000E+00
 -1      3155 1.86240E+01 1.12805E+01 0.00000E+00
 -1      3156 1.71240E+01 1.12805E+01 0.00000E+00
 -1      3157 1.93740E+01 1.25795E+01 0.00000E+00
 -1      3158 3.36240E+01 1.12580E+01 0.00000E+00
 -1      3159 3.21240E+01 1.12580E+01 0.00000E+00
 -1      3160 3.06240E+01 1.12580E+01 0.00000E+00
 -1      3161 2.91240E+01 1.12580E+01 0.00000E+00
 -1      3162 3.13740E+01 1.25345E+01 0.00000E+00
 -1      3163 3.94198E+01 1.19780E+01 0.00000E+00
 -1      3164 3.79198E+01 1.19780E+01 0.00000E+00
 -1      3165 4.26752E+01 1.25363E+01 0.00000E+00
 -1      3166 4.11752E+01 1.25363E+01 0.00000E+00
 -1      3167 4.86240E+01 1.12805E+01 0.00000E+00
 -1      3168 4.71240E+01 1.12805E+01 0.00000E+00
 -1      3169 5.16240E+01 1.12805E+01 0.00000E+00
 -1      3170 5.01240E+01 1.12805E+01 0.00000E+00
 -1      3171 4.93740E+01 1.25795E+01 0.00000E+00
 -1      3172 5.46240E+01 1.12805E+01 0.00000E+00
 -1      3173 5.31240E+01 1.12805E+01 0.00000E+00
 -1      3174 5.23740E+01 1.25795E+01 0.00000E+00
 -1      3175 5.76240E+01 1.12805E+01 0.00000E+00
 -1      3176 5.61240E+01 1.12805E+01 0.00000E+00
 -1      3177 5.53740E+01 1.25795E+01 0.00000E+00
 -1      3178 6.06240E+01 1.12805E+01 0.00000E+00
 -1      3179 5.91240E+01 1.12805E+01 0.00000E+00
 -1      3180 5.83740E+01 1.25795E+01 0.00000E+00
 -1      3181 6.36240E+01 1.12805E+01 0.00000E+00
 -1      3182 6.21240E+01 1.12805E+01 0.00000E+00
 -1      3183 6.13740E+01 1.25795E+01 0.00000E+00
 -1      3184 6.66240E+01 1.12805E+01 0.00000E+00
 -1      3185 6.51240E+01 1.12805E+01 0.00000E+00
 -1      3186 6.43740E+01 1.25795E+01 0.00000E+00
 -1      3187 6.96240E+01 1.12805E+01 0.00000E+00
 -1      3188 6.81240E+01 1.12805E+01 0.00000E+00
 -1      3189 6.73740E+01 1.25795E+01 0.00000E+00
 -1      3190 7.26240E+01 1.12805E+01 0.00000E+00
 -1      3191 7.11240E+01 1.12805E+01 0.00000E+00
 -1      3192 7.03740E+01 1.25795E+01 0.00000E+00
 -1      3193 7.56240E+01 1.12805E+01 0.00000E+00
 -1      3194 7.41240E+01 1.12805E+01 0.00000E+00
 -1      3195 7.33740E+01 1.25795E+01 0.00000E+00
 -1      3196 7.86240E+01 1.12805E+01 0.00000E+00
 -1      3197 7.71240E+01 1.12805E+01 0.00000E+00
 -1      3198 7.63740E+01 1.25795E+01 0.00000E+00
 -1      3199 8.16240E+01 1.12805E+01 0.00000E+00
 -1      3200 8.01240E+01 1.12805E+01 0.00000E+00
 -1      3201 7.93740E+01 1.25795E+01 0.00000E+00
 -1      3202 8.46240E+01 1.12805E+01 0.00000E+00
 -1      3203 8.31240E+01 1.12805E+01 0.00000E+00
 -1      3204 8.23740E+01 1.25795E+01 0.00000E+00
 -1      3205 8.76240E+01 1.12805E+01 0.00000E+00
 -1      3206 8.61240E+01 1.12805E+01 0.00000E+00
 -1      3207 8.53740E+01 1.25795E+01 0.00000E+00
 -1      3208 9.06240E+01 1.12805E+01 0.00000E+00
 -1      3209 8.91240E+01 1.12805E+01 0.00000E+00
 -1      3210 8.83740E+01 1.25795E+01 0.00000E+00
 -1      3211 9.36240E+01 1.12805E+01 0.00000E+00
 -1      3212 9.21240E+01 1.12805E+01 0.00000E+00
 -1      3213 9.13740E+01 1.25795E+01 0.00000E+00
 -1      3214 9.66240E+01 1.12805E+01 0.00000E+00
 -1      3215 9.51240E+01 1.12805E+01 0.00000E+00
 -1      3216 9.43740E+01 1.25795E+01 0.00000E+00
 -1      3217 9.96240E+01 1.12805E+01 0.00000E+00
 -1      3218 9.81240E+01 1.12805E+01 0.00000E+00
 -1      3219 9.73740E+01 1.25795E+01 0.00000E+00
 -1      3220 1.02624E+02 1.12805E+01 0.00000E+00
 -1      3221 1.01124E+02 1.12805E+01 0.00000E+00
 -1      3222 1.00374E+02 1.25795E+01 0.00000E+00
 -1      3223 1.05624E+02 1.12805E+01 0.00000E+00
 -1      3224 1.04124E+02 1.12805E+01 0.00000E+00
 -1      3225 1.03374E+02 1.25795E+01 0.00000E+00
 -1      3226 1.08624E+02 1.12805E+01 0.00000E+00
 -1      3227 1.07124E+02 1.12805E+01 0.00000E+00
 -1      3228 1.06374E+02 1.25795E+01 0.00000E+00
 -1      3229 1.11624E+02 1.12805E+01 0.00000E+00
 -1      3230 1.10124E+02 1.12805E+01 0.00000E+00
 -1      3231 1.09374E+02 1.25795E+01 0.00000E+00
 -1      3232 1.14624E+02 1.12805E+01 0.00000E+00
 -1      3233 1.13124E+02 1.12805E+01 0.00000E+00
 -1      3234 1.12374E+02 1.25795E+01 0.00000E+00
 -1      3235 1.17624E+02 1.12805E+01 0.00000E+00
 -1      3236 1.16124E+02 1.12805E+01 0.00000E+00
 -1      3237 1.15374E+02 1.25795E+01 0.00000E+00
 -1      3238 1.20624E+02 1.12805E+01 0.00000E+00
 -1      3239 1.19124E+02 1.12805E+01 0.00000E+00
 -1      3240 1.18374E+02 1.25795E+01 0.00000E+00
 -1      3241 1.23624E+02 1.12805E+01 0.00000E+00
 -1      3242 1.22124E+02 1.12805E+01 0.00000E+00
 -1      3243 1.21374E+02 1.25795E+01 0.00000E+00
 -1      3244 1.26624E+02 1.12805E+01 0.00000E+00
 -1      3245 1.25124E+02 1.12805E+01 0.00000E+00
 -1      3246 1.24374E+02 1.25795E+01 0.00000E+00
 -1      3247 1.29624E+02 1.12805E+01 0.00000E+00
 -1      3248 1.28124E+02 1.12805E+01 0.00000E+00
 -1      3249 1.27374E+02 1.25795E+01 0.00000E+00
 -1      3250 1.32624E+02 1.12805E+01 0.00000E+00
 -1      3251 1.31124E+02 1.12805E+01 0.00000E+00
 -1      3252 1.30374E+02 1.25795E+01 0.00000E+00
 -1      3253 1.35624E+02 1.12805E+01 0.00000E+00
 -1      3254 1.34124E+02 1.12805E+01 0.00000E+00
 -1      3255 1.33374E+02 1.25795E+01 0.00000E+00
 -1      3256 1.38226E+02 1.13313E+01 0.00000E+00
 -1      3257 1.36768E+02 1.12454E+01 0.00000E+00
 -1      3258 1.36018E+02 1.25444E+01 0.00000E+00
 -1      3259 1.38305E+02 1.24742E+01 0.00000E+00
 -1      3260 1.38309E+02 3.45625E+01 0.00000E+00
 -1      3261 1.38309E+02 3.30875E+01 0.00000E+00
 -1      3262 1.38309E+02 3.16125E+01 0.00000E+00
 -1      3263 1.38309E+02 3.01375E+01 0.00000E+00
 -1      3264 1.37010E+02 3.23500E+01 0.00000E+00
 -1      3265 1.38309E+02 2.86875E+01 0.00000E+00
 -1      3266 1.38309E+02 2.72375E+01 0.00000E+00
 -1      3267 1.37010E+02 2.94250E+01 0.00000E+00
 -1      3268 1.38309E+02 2.57625E+01 0.00000E+00
 -1      3269 1.38309E+02 2.42875E+01 0.00000E+00
 -1      3270 1.37010E+02 2.65000E+01 0.00000E+00
 -1      3271 2.43312E+01 3.71909E+01 0.00000E+00
 -1      3272 2.89933E+01 1.64875E+01 0.00000E+00
 -1      3273 3.03680E+01 1.60335E+01 0.00000E+00
 -1      3274 3.65219E+01 1.16180E+01 0.00000E+00
 -1      3275 3.50219E+01 1.16180E+01 0.00000E+00
 -1      3276 3.42719E+01 1.28945E+01 0.00000E+00
 -1      3277 3.70677E+01 1.36144E+01 0.00000E+00
 -1      3278 4.70552E+01 3.84493E+01 0.00000E+00
 -1      3279 1.38309E+02 2.28125E+01 0.00000E+00
 -1      3280 1.38309E+02 2.13375E+01 0.00000E+00
 -1      3281 1.37010E+02 2.35500E+01 0.00000E+00
 -1      3282 1.59000E+01 3.83090E+01 0.00000E+00
 -1      3283 1.74000E+01 3.83090E+01 0.00000E+00
 -1      3284 1.81500E+01 3.70100E+01 0.00000E+00
 -1      3285 4.79855E+01 3.54499E+01 0.00000E+00
 -1      3286 4.72258E+01 3.67175E+01 0.00000E+00
 -1      3287 2.37756E+01 3.59158E+01 0.00000E+00
 -1      3288 4.41903E+01 1.71461E+01 0.00000E+00
 -1      3289 4.50991E+01 1.83683E+01 0.00000E+00
 -1      3290 1.29000E+01 3.83090E+01 0.00000E+00
 -1      3291 1.44000E+01 3.83090E+01 0.00000E+00
 -1      3292 1.51500E+01 3.70100E+01 0.00000E+00
 -1      3293 1.16910E+01 2.12875E+01 0.00000E+00
 -1      3294 1.16910E+01 2.27625E+01 0.00000E+00
 -1      3295 5.01020E+01 2.68917E+01 0.00000E+00
 -1      3296 5.01556E+01 2.82337E+01 0.00000E+00
 -1      3297 2.27612E+01 3.21238E+01 0.00000E+00
 -1      3298 2.25463E+01 3.07838E+01 0.00000E+00
 -1      3299 2.48092E+01 2.06852E+01 0.00000E+00
 -1      3300 2.56009E+01 1.95373E+01 0.00000E+00
 -1      3301 3.51713E+01 1.45243E+01 0.00000E+00
 -1      3302 3.64430E+01 1.46513E+01 0.00000E+00
 -1      3303 3.80511E+01 4.18626E+01 0.00000E+00
 -1      3304 2.25451E+01 2.59786E+01 0.00000E+00
 -1      3305 2.30275E+01 2.45594E+01 0.00000E+00
 -1      3306 4.99788E+01 2.96682E+01 0.00000E+00
 -1      3307 4.99079E+01 3.09902E+01 0.00000E+00
 -1      3308 2.32421E+01 2.84644E+01 0.00000E+00
 -1      3309 2.35442E+01 3.45640E+01 0.00000E+00
 -1      3310 2.29926E+01 3.34756E+01 0.00000E+00
 -1      3311 2.19557E+01 3.29546E+01 0.00000E+00
 -1      3312 2.24186E+01 3.56582E+01 0.00000E+00
 -1      3313 4.58944E+01 1.96131E+01 0.00000E+00
 -1      3314 4.64233E+01 2.06803E+01 0.00000E+00
 -1      3315 4.75869E+01 2.07023E+01 0.00000E+00
 -1      3316 4.94061E+01 3.26692E+01 0.00000E+00
 -1      3317 4.87966E+01 3.40587E+01 0.00000E+00
 -1      3318 1.31820E+01 1.15908E+01 0.00000E+00
 -1      3319 2.24201E+01 2.92835E+01 0.00000E+00
 -1      3320 2.22938E+01 2.77832E+01 0.00000E+00
 -1      3321 2.15980E+01 3.01025E+01 0.00000E+00
 -1      3322 1.16910E+01 2.42375E+01 0.00000E+00
 -1      3323 1.16910E+01 2.57125E+01 0.00000E+00
 -1      3324 1.29900E+01 2.35000E+01 0.00000E+00
 -1      3325 2.25165E+01 2.35422E+01 0.00000E+00
 -1      3326 2.65177E+01 1.58681E+01 0.00000E+00
 -1      3327 2.77555E+01 1.61778E+01 0.00000E+00
 -1      3328 2.80951E+01 1.48978E+01 0.00000E+00
 -1      3329 4.42559E+01 1.15957E+01 0.00000E+00
 -1      3330 4.35571E+01 1.41504E+01 0.00000E+00
 -1      3331 4.62627E+01 1.83903E+01 0.00000E+00
 -1      3332 1.46820E+01 1.15907E+01 0.00000E+00
 -1      3333 3.10385E+01 1.51826E+01 0.00000E+00
 -1      3334 4.95362E+01 2.29703E+01 0.00000E+00
 -1      3335 5.09622E+01 2.33454E+01 0.00000E+00
 -1      3336 4.95417E+01 2.21446E+01 0.00000E+00
 -1      3337 4.02210E+01 1.45327E+01 0.00000E+00
 -1      3338 3.95511E+01 4.18626E+01 0.00000E+00
 -1      3339 4.81706E+01 3.82564E+01 0.00000E+00
 -1      3340 4.91523E+01 3.51334E+01 0.00000E+00
 -1      3341 2.31240E+01 1.12805E+01 0.00000E+00
 -1      3342 2.23740E+01 1.25795E+01 0.00000E+00
 -1      3343 2.46240E+01 1.12805E+01 0.00000E+00
 -1      3344 1.38924E+02 3.87225E+01 0.00000E+00
 -1      3345 1.54320E+01 1.28897E+01 0.00000E+00
 -1      3346 4.65059E+01 1.28947E+01 0.00000E+00
 -1      3347 4.57559E+01 1.15957E+01 0.00000E+00
 -1      3348 1.38054E+02 3.63676E+01 0.00000E+00
 -1      3349 1.36755E+02 3.56301E+01 0.00000E+00
 -1      3350 1.38309E+02 1.98687E+01 0.00000E+00
 -1      3351 1.38309E+02 1.84000E+01 0.00000E+00
 -1      3352 1.37010E+02 2.06063E+01 0.00000E+00
 -1      3353 1.38174E+02 3.74460E+01 0.00000E+00
 -1      3354 2.76240E+01 1.12692E+01 0.00000E+00
 -1      3355 2.61240E+01 1.12692E+01 0.00000E+00
 -1      3356 2.53740E+01 1.25682E+01 0.00000E+00
 -1      3357 2.83740E+01 1.25457E+01 0.00000E+00
 -1      3358 1.38309E+02 1.69312E+01 0.00000E+00
 -1      3359 1.38309E+02 1.54625E+01 0.00000E+00
 -1      3360 1.37010E+02 1.76688E+01 0.00000E+00
 -1      3361 1.16910E+01 1.54063E+01 0.00000E+00
 -1      3362 1.16910E+01 1.68750E+01 0.00000E+00
 -1      3363 1.29900E+01 1.46687E+01 0.00000E+00
 -1      3364 4.36395E+01 1.51343E+01 0.00000E+00
 -1      3365 4.41079E+01 1.61621E+01 0.00000E+00
 -1      3366 4.53849E+01 1.61616E+01 0.00000E+00
 -1      3367 4.52201E+01 1.41937E+01 0.00000E+00
 -1      3368 1.16910E+01 3.30594E+01 0.00000E+00
 -1      3369 1.16910E+01 3.45281E+01 0.00000E+00
 -1      3370 3.42070E+01 1.42061E+01 0.00000E+00
 -1      3371 1.38385E+02 1.36172E+01 0.00000E+00
 -1      3372 5.11438E+01 2.89496E+01 0.00000E+00
 -1      3373 1.37086E+02 1.43547E+01 0.00000E+00
 -1      3374 5.11386E+01 2.58431E+01 0.00000E+00
 -1      3375 2.36754E+01 2.07866E+01 0.00000E+00
 -1      3376 1.16910E+01 3.15906E+01 0.00000E+00
 -1      3377 1.29900E+01 3.23250E+01 0.00000E+00
 -1      3378 1.16910E+01 3.01219E+01 0.00000E+00
 -1      3379 2.52351E+01 1.83149E+01 0.00000E+00
 -1      3380 2.09011E+01 2.76167E+01 0.00000E+00
 -1      3381 2.17231E+01 2.67976E+01 0.00000E+00
 -1      3382 2.11524E+01 2.58121E+01 0.00000E+00
 -1      3383 1.16910E+01 1.98188E+01 0.00000E+00
 -1      3384 1.29900E+01 2.05562E+01 0.00000E+00
 -1      3385 1.16910E+01 1.83500E+01 0.00000E+00
 -1      3386 5.15243E+01 3.14569E+01 0.00000E+00
 -1      3387 5.04652E+01 3.20631E+01 0.00000E+00
 -1      3388 5.10225E+01 3.31360E+01 0.00000E+00
 -1      3389 1.11741E+01 3.84716E+01 0.00000E+00
 -1      3390 1.19241E+01 3.71726E+01 0.00000E+00
 -1      3391 2.01240E+01 1.38785E+01 0.00000E+00
 -1      3392 1.86240E+01 1.38785E+01 0.00000E+00
 -1      3393 1.35255E+02 3.56301E+01 0.00000E+00
 -1      3394 1.35510E+02 3.38250E+01 0.00000E+00
 -1      3395 1.33755E+02 3.56301E+01 0.00000E+00
 -1      3396 1.20210E+01 3.61362E+01 0.00000E+00
 -1      3397 4.69406E+01 1.70806E+01 0.00000E+00
 -1      3398 4.77360E+01 1.83254E+01 0.00000E+00
 -1      3399 2.09186E+01 3.56582E+01 0.00000E+00
 -1      3400 2.06396E+01 3.09386E+01 0.00000E+00
 -1      3401 2.05134E+01 2.94383E+01 0.00000E+00
 -1      3402 5.61240E+01 1.38785E+01 0.00000E+00
 -1      3403 5.46240E+01 1.38785E+01 0.00000E+00
 -1      3404 5.31240E+01 1.38785E+01 0.00000E+00
 -1      3405 5.16240E+01 1.38785E+01 0.00000E+00
 -1      3406 5.38740E+01 1.51775E+01 0.00000E+00
 -1      3407 5.32500E+01 3.61587E+01 0.00000E+00
 -1      3408 5.47500E+01 3.61587E+01 0.00000E+00
 -1      3409 5.62500E+01 3.61587E+01 0.00000E+00
 -1      3410 5.77500E+01 3.61587E+01 0.00000E+00
 -1      3411 5.55000E+01 3.48823E+01 0.00000E+00
 -1      3412 5.92500E+01 3.61587E+01 0.00000E+00
 -1      3413 6.07500E+01 3.61587E+01 0.00000E+00
 -1      3414 5.85000E+01 3.48823E+01 0.00000E+00
 -1      3415 6.22500E+01 3.61587E+01 0.00000E+00
 -1      3416 6.37500E+01 3.61587E+01 0.00000E+00
 -1      3417 6.15000E+01 3.48823E+01 0.00000E+00
 -1      3418 6.52500E+01 3.61587E+01 0.00000E+00
 -1      3419 6.67500E+01 3.61587E+01 0.00000E+00
 -1      3420 6.45000E+01 3.48823E+01 0.00000E+00
 -1      3421 6.82500E+01 3.61587E+01 0.00000E+00
 -1      3422 6.97500E+01 3.61587E+01 0.00000E+00
 -1      3423 6.75000E+01 3.48823E+01 0.00000E+00
 -1      3424 7.12500E+01 3.61587E+01 0.00000E+00
 -1      3425 7.27500E+01 3.61587E+01 0.00000E+00
 -1      3426 7.05000E+01 3.48823E+01 0.00000E+00
 -1      3427 7.42500E+01 3.61587E+01 0.00000E+00
 -1      3428 7.57500E+01 3.61587E+01 0.00000E+00
 -1      3429 7.35000E+01 3.48823E+01 0.00000E+00
 -1      3430 7.72500E+01 3.61587E+01 0.00000E+00
 -1      3431 7.87500E+01 3.61587E+01 0.00000E+00
 -1      3432 7.65000E+01 3.48823E+01 0.00000E+00
 -1      3433 8.02500E+01 3.61587E+01 0.00000E+00
 -1      3434 8.17500E+01 3.61587E+01 0.00000E+00
 -1      3435 7.95000E+01 3.48823E+01 0.00000E+00
 -1      3436 8.32500E+01 3.61587E+01 0.00000E+00
 -1      3437 8.47500E+01 3.61587E+01 0.00000E+00
 -1      3438 8.25000E+01 3.48823E+01 0.00000E+00
 -1      3439 8.62500E+01 3.61587E+01 0.00000E+00
 -1      3440 8.77500E+01 3.61587E+01 0.00000E+00
 -1      3441 8.55000E+01 3.48823E+01 0.00000E+00
 -1      3442 8.92500E+01 3.61587E+01 0.00000E+00
 -1      3443 9.07500E+01 3.61587E+01 0.00000E+00
 -1      3444 8.85000E+01 3.48823E+01 0.00000E+00
 -1      3445 9.22500E+01 3.61587E+01 0.00000E+00
 -1      3446 9.37500E+01 3.61587E+01 0.00000E+00
 -1      3447 9.15000E+01 3.48823E+01 0.00000E+00
 -1      3448 9.52500E+01 3.61587E+01 0.00000E+00
 -1      3449 9.67500E+01 3.61587E+01 0.00000E+00
 -1      3450 9.45000E+01 3.48823E+01 0.00000E+00
 -1      3451 9.82500E+01 3.61587E+01 0.00000E+00
 -1      3452 9.97500E+01 3.61587E+01 0.00000E+00
 -1      3453 9.75000E+01 3.48823E+01 0.00000E+00
 -1      3454 1.01250E+02 3.61587E+01 0.00000E+00
 -1      3455 1.02750E+02 3.61587E+01 0.00000E+00
 -1      3456 1.00500E+02 3.48823E+01 0.00000E+00
 -1      3457 1.04250E+02 3.61587E+01 0.00000E+00
 -1      3458 1.05750E+02 3.61587E+01 0.00000E+00
 -1      3459 1.03500E+02 3.48823E+01 0.00000E+00
 -1      3460 1.07250E+02 3.61587E+01 0.00000E+00
 -1      3461 1.08750E+02 3.61587E+01 0.00000E+00
 -1      3462 1.06500E+02 3.48823E+01 0.00000E+00
 -1      3463 1.10250E+02 3.61587E+01 0.00000E+00
 -1      3464 1.11750E+02 3.61587E+01 0.00000E+00
 -1      3465 1.09500E+02 3.48823E+01 0.00000E+00
 -1      3466 1.13250E+02 3.61587E+01 0.00000E+00
 -1      3467 1.14750E+02 3.61587E+01 0.00000E+00
 -1      3468 1.12500E+02 3.48823E+01 0.00000E+00
 -1      3469 1.16250E+02 3.61587E+01 0.00000E+00
 -1      3470 1.17750E+02 3.61587E+01 0.00000E+00
 -1      3471 1.15500E+02 3.48823E+01 0.00000E+00
 -1      3472 1.19250E+02 3.61587E+01 0.00000E+00
 -1      3473 1.20750E+02 3.61587E+01 0.00000E+00
 -1      3474 1.18500E+02 3.48823E+01 0.00000E+00
 -1      3475 1.22250E+02 3.61587E+01 0.00000E+00
 -1      3476 1.23750E+02 3.61587E+01 0.00000E+00
 -1      3477 1.21500E+02 3.48823E+01 0.00000E+00
 -1      3478 1.25250E+02 3.61587E+01 0.00000E+00
 -1      3479 1.26750E+02 3.61587E+01 0.00000E+00
 -1      3480 1.24500E+02 3.48823E+01 0.00000E+00
 -1      3481 1.28250E+02 3.61587E+01 0.00000E+00
 -1      3482 1.29750E+02 3.61587E+01 0.00000E+00
 -1      3483 1.27500E+02 3.48823E+01 0.00000E+00
 -1      3484 1.31003E+02 3.58944E+01 0.00000E+00
 -1      3485 1.32503E+02 3.58944E+01 0.00000E+00
 -1      3486 1.32758E+02 3.40893E+01 0.00000E+00
 -1      3487 1.30253E+02 3.46179E+01 0.00000E+00
 -1      3488 1.33200E+01 3.54019E+01 0.00000E+00
 -1      3489 5.23390E+01 2.48666E+01 0.00000E+00
 -1      3490 5.25210E+01 2.65386E+01 0.00000E+00
 -1      3491 4.79564E+01 1.35634E+01 0.00000E+00
 -1      3492 4.65883E+01 1.38786E+01 0.00000E+00
 -1      3493 4.66707E+01 1.48625E+01 0.00000E+00
 -1      3494 4.94564E+01 1.35634E+01 0.00000E+00
 -1      3495 5.91240E+01 1.38785E+01 0.00000E+00
 -1      3496 5.76240E+01 1.38785E+01 0.00000E+00
 -1      3497 5.68740E+01 1.51775E+01 0.00000E+00
 -1      3498 6.21240E+01 1.38785E+01 0.00000E+00
 -1      3499 6.06240E+01 1.38785E+01 0.00000E+00
 -1      3500 5.98740E+01 1.51775E+01 0.00000E+00
 -1      3501 6.51240E+01 1.38785E+01 0.00000E+00
 -1      3502 6.36240E+01 1.38785E+01 0.00000E+00
 -1      3503 6.28740E+01 1.51775E+01 0.00000E+00
 -1      3504 6.81240E+01 1.38785E+01 0.00000E+00
 -1      3505 6.66240E+01 1.38785E+01 0.00000E+00
 -1      3506 6.58740E+01 1.51775E+01 0.00000E+00
 -1      3507 7.11240E+01 1.38785E+01 0.00000E+00
 -1      3508 6.96240E+01 1.38785E+01 0.00000E+00
 -1      3509 6.88740E+01 1.51775E+01 0.00000E+00
 -1      3510 7.41240E+01 1.38785E+01 0.00000E+00
 -1      3511 7.26240E+01 1.38785E+01 0.00000E+00
 -1      3512 7.18740E+01 1.51775E+01 0.00000E+00
 -1      3513 7.71240E+01 1.38785E+01 0.00000E+00
 -1      3514 7.56240E+01 1.38785E+01 0.00000E+00
 -1      3515 7.48740E+01 1.51775E+01 0.00000E+00
 -1      3516 8.01240E+01 1.38785E+01 0.00000E+00
 -1      3517 7.86240E+01 1.38785E+01 0.00000E+00
 -1      3518 7.78740E+01 1.51775E+01 0.00000E+00
 -1      3519 8.31240E+01 1.38785E+01 0.00000E+00
 -1      3520 8.16240E+01 1.38785E+01 0.00000E+00
 -1      3521 8.08740E+01 1.51775E+01 0.00000E+00
 -1      3522 8.61240E+01 1.38785E+01 0.00000E+00
 -1      3523 8.46240E+01 1.38785E+01 0.00000E+00
 -1      3524 8.38740E+01 1.51775E+01 0.00000E+00
 -1      3525 8.91240E+01 1.38785E+01 0.00000E+00
 -1      3526 8.76240E+01 1.38785E+01 0.00000E+00
 -1      3527 8.68740E+01 1.51775E+01 0.00000E+00
 -1      3528 9.21240E+01 1.38785E+01 0.00000E+00
 -1      3529 9.06240E+01 1.38785E+01 0.00000E+00
 -1      3530 8.98740E+01 1.51775E+01 0.00000E+00
 -1      3531 9.51240E+01 1.38785E+01 0.00000E+00
 -1      3532 9.36240E+01 1.38785E+01 0.00000E+00
 -1      3533 9.28740E+01 1.51775E+01 0.00000E+00
 -1      3534 9.81240E+01 1.38785E+01 0.00000E+00
 -1      3535 9.66240E+01 1.38785E+01 0.00000E+00
 -1      3536 9.58740E+01 1.51775E+01 0.00000E+00
 -1      3537 1.01124E+02 1.38785E+01 0.00000E+00
 -1      3538 9.96240E+01 1.38785E+01 0.00000E+00
 -1      3539 9.88740E+01 1.51775E+01 0.00000E+00
 -1      3540 1.04124E+02 1.38785E+01 0.00000E+00
 -1      3541 1.02624E+02 1.38785E+01 0.00000E+00
 -1      3542 1.01874E+02 1.51775E+01 0.00000E+00
 -1      3543 1.07124E+02 1.38785E+01 0.00000E+00
 -1      3544 1.05624E+02 1.38785E+01 0.00000E+00
 -1      3545 1.04874E+02 1.51775E+01 0.00000E+00
 -1      3546 1.10124E+02 1.38785E+01 0.00000E+00
 -1      3547 1.08624E+02 1.38785E+01 0.00000E+00
 -1      3548 1.07874E+02 1.51775E+01 0.00000E+00
 -1      3549 1.13124E+02 1.38785E+01 0.00000E+00
 -1      3550 1.11624E+02 1.38785E+01 0.00000E+00
 -1      3551 1.10874E+02 1.51775E+01 0.00000E+00
 -1      3552 1.16124E+02 1.38785E+01 0.00000E+00
 -1      3553 1.14624E+02 1.38785E+01 0.00000E+00
 -1      3554 1.13874E+02 1.51775E+01 0.00000E+00
 -1      3555 1.19124E+02 1.38785E+01 0.00000E+00
 -1      3556 1.17624E+02 1.38785E+01 0.00000E+00
 -1      3557 1.16874E+02 1.51775E+01 0.00000E+00
 -1      3558 1.22124E+02 1.38785E+01 0.00000E+00
 -1      3559 1.20624E+02 1.38785E+01 0.00000E+00
 -1      3560 1.19874E+02 1.51775E+01 0.00000E+00
 -1      3561 1.25124E+02 1.38785E+01 0.00000E+00
 -1      3562 1.23624E+02 1.38785E+01 0.00000E+00
 -1      3563 1.22874E+02 1.51775E+01 0.00000E+00
 -1      3564 1.28124E+02 1.38785E+01 0.00000E+00
 -1      3565 1.26624E+02 1.38785E+01 0.00000E+00
 -1      3566 1.25874E+02 1.51775E+01 0.00000E+00
 -1      3567 1.31124E+02 1.38785E+01 0.00000E+00
 -1      3568 1.29624E+02 1.38785E+01 0.00000E+00
 -1      3569 1.28874E+02 1.51775E+01 0.00000E+00
 -1      3570 1.34124E+02 1.38785E+01 0.00000E+00
 -1      3571 1.32624E+02 1.38785E+01 0.00000E+00
 -1      3572 1.31874E+02 1.51775E+01 0.00000E+00
 -1      3573 1.35942E+02 1.43897E+01 0.00000E+00
 -1      3574 5.23328E+01 2.83680E+01 0.00000E+00
 -1      3575 5.21560E+01 2.98025E+01 0.00000E+00
 -1      3576 1.35510E+02 3.23500E+01 0.00000E+00
 -1      3577 1.74000E+01 3.57110E+01 0.00000E+00
 -1      3578 1.89000E+01 3.57110E+01 0.00000E+00
 -1      3579 1.35711E+02 3.01500E+01 0.00000E+00
 -1      3580 1.35711E+02 2.87000E+01 0.00000E+00
 -1      3581 1.35711E+02 2.72250E+01 0.00000E+00
 -1      3582 1.35711E+02 2.57500E+01 0.00000E+00
 -1      3583 1.34412E+02 2.79500E+01 0.00000E+00
 -1      3584 1.70280E+01 1.41185E+01 0.00000E+00
 -1      3585 1.45860E+01 1.44288E+01 0.00000E+00
 -1      3586 1.45860E+01 1.58975E+01 0.00000E+00
 -1      3587 1.77780E+01 1.54175E+01 0.00000E+00
 -1      3588 2.96035E+01 1.38710E+01 0.00000E+00
 -1      3589 3.13091E+01 1.38461E+01 0.00000E+00
 -1      3590 1.35711E+02 2.42750E+01 0.00000E+00
 -1      3591 1.35711E+02 2.28000E+01 0.00000E+00
 -1      3592 1.34412E+02 2.50000E+01 0.00000E+00
 -1      3593 2.12851E+01 2.39088E+01 0.00000E+00
 -1      3594 2.18272E+01 2.24580E+01 0.00000E+00
 -1      3595 1.16910E+01 2.71844E+01 0.00000E+00
 -1      3596 1.16910E+01 2.86531E+01 0.00000E+00
 -1      3597 1.29900E+01 2.93875E+01 0.00000E+00
 -1      3598 4.83744E+01 1.97014E+01 0.00000E+00
 -1      3599 4.89032E+01 2.07686E+01 0.00000E+00
 -1      3600 5.03292E+01 2.11438E+01 0.00000E+00
 -1      3601 4.90524E+01 1.83917E+01 0.00000E+00
 -1      3602 1.46100E+01 3.55564E+01 0.00000E+00
 -1      3603 1.61100E+01 3.55564E+01 0.00000E+00
 -1      3604 1.68600E+01 3.42574E+01 0.00000E+00
 -1      3605 1.42800E+01 3.39483E+01 0.00000E+00
 -1      3606 2.37708E+01 1.80960E+01 0.00000E+00
 -1      3607 2.47137E+01 1.69292E+01 0.00000E+00
 -1      3608 2.22887E+01 2.09293E+01 0.00000E+00
 -1      3609 2.29055E+01 1.96244E+01 0.00000E+00
 -1      3610 1.35192E+02 1.56888E+01 0.00000E+00
 -1      3611 2.81035E+01 1.38823E+01 0.00000E+00
 -1      3612 2.01686E+01 3.43592E+01 0.00000E+00
 -1      3613 2.50534E+01 1.56492E+01 0.00000E+00
 -1      3614 4.67531E+01 1.58465E+01 0.00000E+00
 -1      3615 4.82264E+01 1.57815E+01 0.00000E+00
 -1      3616 5.02064E+01 1.48624E+01 0.00000E+00
 -1      3617 3.28091E+01 1.38461E+01 0.00000E+00
 -1      3618 5.02500E+01 3.63263E+01 0.00000E+00
 -1      3619 5.17500E+01 3.63263E+01 0.00000E+00
 -1      3620 2.06466E+01 3.21450E+01 0.00000E+00
 -1      3621 1.95620E+01 3.14808E+01 0.00000E+00
 -1      3622 5.25000E+01 3.50498E+01 0.00000E+00
 -1      3623 1.35192E+02 1.86262E+01 0.00000E+00
 -1      3624 1.35192E+02 1.71575E+01 0.00000E+00
 -1      3625 1.33374E+02 1.66462E+01 0.00000E+00
 -1      3626 1.29900E+01 2.64469E+01 0.00000E+00
 -1      3627 5.23445E+01 2.40409E+01 0.00000E+00
 -1      3628 5.37268E+01 2.47364E+01 0.00000E+00
 -1      3629 5.23499E+01 2.32153E+01 0.00000E+00
 -1      3630 1.35452E+02 2.14475E+01 0.00000E+00
 -1      3631 1.35452E+02 1.99788E+01 0.00000E+00
 -1      3632 1.33633E+02 1.94675E+01 0.00000E+00
 -1      3633 1.34152E+02 2.21725E+01 0.00000E+00
 -1      3634 1.34211E+02 3.16250E+01 0.00000E+00
 -1      3635 5.35332E+01 2.73915E+01 0.00000E+00
 -1      3636 1.29900E+01 1.76125E+01 0.00000E+00
 -1      3637 2.23841E+01 1.82387E+01 0.00000E+00
 -1      3638 2.10573E+01 2.12959E+01 0.00000E+00
 -1      3639 4.89206E+01 3.69799E+01 0.00000E+00
 -1      3640 2.04631E+01 2.47279E+01 0.00000E+00
 -1      3641 1.97739E+01 2.36437E+01 0.00000E+00
 -1      3642 1.96411E+01 2.55469E+01 0.00000E+00
 -1      3643 1.42800E+01 3.10108E+01 0.00000E+00
 -1      3644 1.42800E+01 3.24796E+01 0.00000E+00
 -1      3645 1.55700E+01 3.26341E+01 0.00000E+00
 -1      3646 5.04817E+01 3.44798E+01 0.00000E+00
 -1      3647 4.96706E+01 3.58710E+01 0.00000E+00
 -1      3648 5.15408E+01 3.38736E+01 0.00000E+00
 -1      3649 1.99427E+01 2.84528E+01 0.00000E+00
 -1      3650 1.93719E+01 2.74672E+01 0.00000E+00
 -1      3651 1.89843E+01 2.92889E+01 0.00000E+00
 -1      3652 5.27133E+01 3.08753E+01 0.00000E+00
 -1      3653 1.42890E+01 1.98219E+01 0.00000E+00
 -1      3654 1.42890E+01 2.12906E+01 0.00000E+00
 -1      3655 1.42890E+01 2.27656E+01 0.00000E+00
 -1      3656 1.42890E+01 2.42406E+01 0.00000E+00
 -1      3657 1.55880E+01 2.20313E+01 0.00000E+00
 -1      3658 2.20617E+01 1.46449E+01 0.00000E+00
 -1      3659 2.13117E+01 1.59439E+01 0.00000E+00
 -1      3660 2.35617E+01 1.46449E+01 0.00000E+00
 -1      3661 6.06240E+01 1.64765E+01 0.00000E+00
 -1      3662 5.91240E+01 1.64765E+01 0.00000E+00
 -1      3663 5.03940E+01 1.60966E+01 0.00000E+00
 -1      3664 2.08780E+01 3.34968E+01 0.00000E+00
 -1      3665 1.75695E+01 3.19262E+01 0.00000E+00
 -1      3666 1.75625E+01 3.07199E+01 0.00000E+00
 -1      3667 5.46240E+01 1.64765E+01 0.00000E+00
 -1      3668 5.31240E+01 1.64765E+01 0.00000E+00
 -1      3669 5.77500E+01 3.35833E+01 0.00000E+00
 -1      3670 5.92500E+01 3.35833E+01 0.00000E+00
 -1      3671 6.07500E+01 3.35833E+01 0.00000E+00
 -1      3672 6.22500E+01 3.35833E+01 0.00000E+00
 -1      3673 6.00000E+01 3.22843E+01 0.00000E+00
 -1      3674 6.37500E+01 3.35833E+01 0.00000E+00
 -1      3675 6.52500E+01 3.35833E+01 0.00000E+00
 -1      3676 6.30000E+01 3.22843E+01 0.00000E+00
 -1      3677 6.67500E+01 3.35833E+01 0.00000E+00
 -1      3678 6.82500E+01 3.35833E+01 0.00000E+00
 -1      3679 6.60000E+01 3.22843E+01 0.00000E+00
 -1      3680 6.97500E+01 3.35833E+01 0.00000E+00
 -1      3681 7.12500E+01 3.35833E+01 0.00000E+00
 -1      3682 6.90000E+01 3.22843E+01 0.00000E+00
 -1      3683 7.27500E+01 3.35833E+01 0.00000E+00
 -1      3684 7.42500E+01 3.35833E+01 0.00000E+00
 -1      3685 7.20000E+01 3.22843E+01 0.00000E+00
 -1      3686 7.57500E+01 3.35833E+01 0.00000E+00
 -1      3687 7.72500E+01 3.35833E+01 0.00000E+00
 -1      3688 7.50000E+01 3.22843E+01 0.00000E+00
 -1      3689 7.87500E+01 3.35833E+01 0.00000E+00
 -1      3690 8.02500E+01 3.35833E+01 0.00000E+00
 -1      3691 7.80000E+01 3.22843E+01 0.00000E+00
 -1      3692 8.17500E+01 3.35833E+01 0.00000E+00
 -1      3693 8.32500E+01 3.35833E+01 0.00000E+00
 -1      3694 8.10000E+01 3.22843E+01 0.00000E+00
 -1      3695 8.47500E+01 3.35833E+01 0.00000E+00
 -1      3696 8.62500E+01 3.35833E+01 0.00000E+00
 -1      3697 8.40000E+01 3.22843E+01 0.00000E+00
 -1      3698 8.77500E+01 3.35833E+01 0.00000E+00
 -1      3699 8.92500E+01 3.35833E+01 0.00000E+00
 -1      3700 8.70000E+01 3.22843E+01 0.00000E+00
 -1      3701 9.07500E+01 3.35833E+01 0.00000E+00
 -1      3702 9.22500E+01 3.35833E+01 0.00000E+00
 -1      3703 9.00000E+01 3.22843E+01 0.00000E+00
 -1      3704 9.37500E+01 3.35833E+01 0.00000E+00
 -1      3705 9.52500E+01 3.35833E+01 0.00000E+00
 -1      3706 9.30000E+01 3.22843E+01 0.00000E+00
 -1      3707 9.67500E+01 3.35833E+01 0.00000E+00
 -1      3708 9.82500E+01 3.35833E+01 0.00000E+00
 -1      3709 9.60000E+01 3.22843E+01 0.00000E+00
 -1      3710 9.97500E+01 3.35833E+01 0.00000E+00
 -1      3711 1.01250E+02 3.35833E+01 0.00000E+00
 -1      3712 9.90000E+01 3.22843E+01 0.00000E+00
 -1      3713 1.02750E+02 3.35833E+01 0.00000E+00
 -1      3714 1.04250E+02 3.35833E+01 0.00000E+00
 -1      3715 1.02000E+02 3.22843E+01 0.00000E+00
 -1      3716 1.05750E+02 3.35833E+01 0.00000E+00
 -1      3717 1.07250E+02 3.35833E+01 0.00000E+00
 -1      3718 1.05000E+02 3.22843E+01 0.00000E+00
 -1      3719 1.08750E+02 3.35833E+01 0.00000E+00
 -1      3720 1.10250E+02 3.35833E+01 0.00000E+00
 -1      3721 1.08000E+02 3.22843E+01 0.00000E+00
 -1      3722 1.11750E+02 3.35833E+01 0.00000E+00
 -1      3723 1.13250E+02 3.35833E+01 0.00000E+00
 -1      3724 1.11000E+02 3.22843E+01 0.00000E+00
 -1      3725 1.14750E+02 3.35833E+01 0.00000E+00
 -1      3726 1.16250E+02 3.35833E+01 0.00000E+00
 -1      3727 1.14000E+02 3.22843E+01 0.00000E+00
 -1      3728 1.17750E+02 3.35833E+01 0.00000E+00
 -1      3729 1.19250E+02 3.35833E+01 0.00000E+00
 -1      3730 1.17000E+02 3.22843E+01 0.00000E+00
 -1      3731 1.20750E+02 3.35833E+01 0.00000E+00
 -1      3732 1.22250E+02 3.35833E+01 0.00000E+00
 -1      3733 1.20000E+02 3.22843E+01 0.00000E+00
 -1      3734 1.23750E+02 3.35833E+01 0.00000E+00
 -1      3735 1.25250E+02 3.35833E+01 0.00000E+00
 -1      3736 1.23000E+02 3.22843E+01 0.00000E+00
 -1      3737 1.26750E+02 3.35833E+01 0.00000E+00
 -1      3738 1.28250E+02 3.35833E+01 0.00000E+00
 -1      3739 1.26000E+02 3.22843E+01 0.00000E+00
 -1      3740 1.33113E+02 2.86875E+01 0.00000E+00
 -1      3741 1.33113E+02 2.72125E+01 0.00000E+00
 -1      3742 6.36240E+01 1.64765E+01 0.00000E+00
 -1      3743 6.21240E+01 1.64765E+01 0.00000E+00
 -1      3744 6.13740E+01 1.77755E+01 0.00000E+00
 -1      3745 6.66240E+01 1.64765E+01 0.00000E+00
 -1      3746 6.51240E+01 1.64765E+01 0.00000E+00
 -1      3747 6.43740E+01 1.77755E+01 0.00000E+00
 -1      3748 6.96240E+01 1.64765E+01 0.00000E+00
 -1      3749 6.81240E+01 1.64765E+01 0.00000E+00
 -1      3750 6.73740E+01 1.77755E+01 0.00000E+00
 -1      3751 7.26240E+01 1.64765E+01 0.00000E+00
 -1      3752 7.11240E+01 1.64765E+01 0.00000E+00
 -1      3753 7.03740E+01 1.77755E+01 0.00000E+00
 -1      3754 7.56240E+01 1.64765E+01 0.00000E+00
 -1      3755 7.41240E+01 1.64765E+01 0.00000E+00
 -1      3756 7.33740E+01 1.77755E+01 0.00000E+00
 -1      3757 7.86240E+01 1.64765E+01 0.00000E+00
 -1      3758 7.71240E+01 1.64765E+01 0.00000E+00
 -1      3759 7.63740E+01 1.77755E+01 0.00000E+00
 -1      3760 8.16240E+01 1.64765E+01 0.00000E+00
 -1      3761 8.01240E+01 1.64765E+01 0.00000E+00
 -1      3762 7.93740E+01 1.77755E+01 0.00000E+00
 -1      3763 8.46240E+01 1.64765E+01 0.00000E+00
 -1      3764 8.31240E+01 1.64765E+01 0.00000E+00
 -1      3765 8.23740E+01 1.77755E+01 0.00000E+00
 -1      3766 8.76240E+01 1.64765E+01 0.00000E+00
 -1      3767 8.61240E+01 1.64765E+01 0.00000E+00
 -1      3768 8.53740E+01 1.77755E+01 0.00000E+00
 -1      3769 9.06240E+01 1.64765E+01 0.00000E+00
 -1      3770 8.91240E+01 1.64765E+01 0.00000E+00
 -1      3771 8.83740E+01 1.77755E+01 0.00000E+00
 -1      3772 9.36240E+01 1.64765E+01 0.00000E+00
 -1      3773 9.21240E+01 1.64765E+01 0.00000E+00
 -1      3774 9.13740E+01 1.77755E+01 0.00000E+00
 -1      3775 9.66240E+01 1.64765E+01 0.00000E+00
 -1      3776 9.51240E+01 1.64765E+01 0.00000E+00
 -1      3777 9.43740E+01 1.77755E+01 0.00000E+00
 -1      3778 9.96240E+01 1.64765E+01 0.00000E+00
 -1      3779 9.81240E+01 1.64765E+01 0.00000E+00
 -1      3780 9.73740E+01 1.77755E+01 0.00000E+00
 -1      3781 1.02624E+02 1.64765E+01 0.00000E+00
 -1      3782 1.01124E+02 1.64765E+01 0.00000E+00
 -1      3783 1.00374E+02 1.77755E+01 0.00000E+00
 -1      3784 1.05624E+02 1.64765E+01 0.00000E+00
 -1      3785 1.04124E+02 1.64765E+01 0.00000E+00
 -1      3786 1.03374E+02 1.77755E+01 0.00000E+00
 -1      3787 1.08624E+02 1.64765E+01 0.00000E+00
 -1      3788 1.07124E+02 1.64765E+01 0.00000E+00
 -1      3789 1.06374E+02 1.77755E+01 0.00000E+00
 -1      3790 1.11624E+02 1.64765E+01 0.00000E+00
 -1      3791 1.10124E+02 1.64765E+01 0.00000E+00
 -1      3792 1.09374E+02 1.77755E+01 0.00000E+00
 -1      3793 1.14624E+02 1.64765E+01 0.00000E+00
 -1      3794 1.13124E+02 1.64765E+01 0.00000E+00
 -1      3795 1.12374E+02 1.77755E+01 0.00000E+00
 -1      3796 1.17624E+02 1.64765E+01 0.00000E+00
 -1      3797 1.16124E+02 1.64765E+01 0.00000E+00
 -1      3798 1.15374E+02 1.77755E+01 0.00000E+00
 -1      3799 1.20624E+02 1.64765E+01 0.00000E+00
 -1      3800 1.19124E+02 1.64765E+01 0.00000E+00
 -1      3801 1.18374E+02 1.77755E+01 0.00000E+00
 -1      3802 1.23624E+02 1.64765E+01 0.00000E+00
 -1      3803 1.22124E+02 1.64765E+01 0.00000E+00
 -1      3804 1.21374E+02 1.77755E+01 0.00000E+00
 -1      3805 1.26624E+02 1.64765E+01 0.00000E+00
 -1      3806 1.25124E+02 1.64765E+01 0.00000E+00
 -1      3807 1.24374E+02 1.77755E+01 0.00000E+00
 -1      3808 1.29624E+02 1.64765E+01 0.00000E+00
 -1      3809 1.28124E+02 1.64765E+01 0.00000E+00
 -1      3810 1.27374E+02 1.77755E+01 0.00000E+00
 -1      3811 1.32249E+02 1.65614E+01 0.00000E+00
 -1      3812 1.30749E+02 1.65614E+01 0.00000E+00
 -1      3813 1.29999E+02 1.78604E+01 0.00000E+00
 -1      3814 1.32249E+02 1.80301E+01 0.00000E+00
 -1      3815 2.68657E+01 1.35726E+01 0.00000E+00
 -1      3816 5.49195E+01 2.66097E+01 0.00000E+00
 -1      3817 5.47312E+01 2.84391E+01 0.00000E+00
 -1      3818 1.33113E+02 2.57375E+01 0.00000E+00
 -1      3819 1.33113E+02 2.42625E+01 0.00000E+00
 -1      3820 1.31814E+02 2.64750E+01 0.00000E+00
 -1      3821 1.32835E+02 3.24884E+01 0.00000E+00
 -1      3822 1.33036E+02 3.02884E+01 0.00000E+00
 -1      3823 1.31737E+02 2.95509E+01 0.00000E+00
 -1      3824 1.31582E+02 3.27527E+01 0.00000E+00
 -1      3825 5.30408E+01 3.37060E+01 0.00000E+00
 -1      3826 1.44375E+01 1.71222E+01 0.00000E+00
 -1      3827 1.44375E+01 1.85972E+01 0.00000E+00
 -1      3828 1.57365E+01 1.93316E+01 0.00000E+00
 -1      3829 1.60335E+01 1.68822E+01 0.00000E+00
 -1      3830 1.42800E+01 2.80733E+01 0.00000E+00
 -1      3831 1.42800E+01 2.95421E+01 0.00000E+00
 -1      3832 1.55700E+01 2.96966E+01 0.00000E+00
 -1      3833 1.68600E+01 3.27887E+01 0.00000E+00
 -1      3834 1.96848E+01 2.17156E+01 0.00000E+00
 -1      3835 2.01462E+01 2.01869E+01 0.00000E+00
 -1      3836 2.04464E+01 1.74723E+01 0.00000E+00
 -1      3837 2.53657E+01 1.35838E+01 0.00000E+00
 -1      3838 5.43041E+01 3.03971E+01 0.00000E+00
 -1      3839 5.36725E+01 3.20515E+01 0.00000E+00
 -1      3840 5.46317E+01 3.32278E+01 0.00000E+00
 -1      3841 5.61317E+01 3.32278E+01 0.00000E+00
 -1      3842 1.42845E+01 2.54210E+01 0.00000E+00
 -1      3843 1.42845E+01 2.68929E+01 0.00000E+00
 -1      3844 1.55745E+01 2.70475E+01 0.00000E+00
 -1      3845 1.55835E+01 2.46867E+01 0.00000E+00
 -1      3846 5.76240E+01 1.64765E+01 0.00000E+00
 -1      3847 5.61240E+01 1.64765E+01 0.00000E+00
 -1      3848 5.83740E+01 1.77755E+01 0.00000E+00
 -1      3849 5.20782E+01 1.69746E+01 0.00000E+00
 -1      3850 5.00982E+01 1.78937E+01 0.00000E+00
 -1      3851 5.07366E+01 1.92697E+01 0.00000E+00
 -1      3852 5.28282E+01 1.82736E+01 0.00000E+00
 -1      3853 5.68817E+01 3.19288E+01 0.00000E+00
 -1      3854 5.53740E+01 1.77755E+01 0.00000E+00
 -1      3855 5.56904E+01 2.96153E+01 0.00000E+00
 -1      3856 1.86827E+01 2.63830E+01 0.00000E+00
 -1      3857 1.88595E+01 3.35495E+01 0.00000E+00
 -1      3858 1.29290E+02 3.33002E+01 0.00000E+00
 -1      3859 1.30542E+02 3.30358E+01 0.00000E+00
 -1      3860 1.30620E+02 3.14349E+01 0.00000E+00
 -1      3861 1.28540E+02 3.20012E+01 0.00000E+00
 -1      3862 5.22325E+01 2.17273E+01 0.00000E+00
 -1      3863 5.36148E+01 2.24228E+01 0.00000E+00
 -1      3864 1.32854E+02 2.29100E+01 0.00000E+00
 -1      3865 1.32594E+02 2.15575E+01 0.00000E+00
 -1      3866 1.31555E+02 2.36475E+01 0.00000E+00
 -1      3867 5.51755E+01 2.51080E+01 0.00000E+00
 -1      3868 5.63736E+01 2.61557E+01 0.00000E+00
 -1      3869 5.15941E+01 2.03512E+01 0.00000E+00
 -1      3870 5.51810E+01 2.42824E+01 0.00000E+00
 -1      3871 1.73294E+01 1.93567E+01 0.00000E+00
 -1      3872 1.71809E+01 2.05814E+01 0.00000E+00
 -1      3873 1.88628E+01 2.25347E+01 0.00000E+00
 -1      3874 1.87019E+01 1.89370E+01 0.00000E+00
 -1      3875 1.76295E+01 1.66422E+01 0.00000E+00
 -1      3876 1.71809E+01 2.20564E+01 0.00000E+00
 -1      3877 1.69918E+01 2.97344E+01 0.00000E+00
 -1      3878 5.50635E+01 2.27944E+01 0.00000E+00
 -1      3879 5.65122E+01 2.31659E+01 0.00000E+00
 -1      3880 5.49461E+01 2.13063E+01 0.00000E+00
 -1      3881 5.70360E+01 3.07720E+01 0.00000E+00
 -1      3882 5.86544E+01 3.11275E+01 0.00000E+00
 -1      3883 6.01544E+01 3.11275E+01 0.00000E+00
 -1      3884 5.74631E+01 2.88141E+01 0.00000E+00
 -1      3885 5.66344E+01 1.97267E+01 0.00000E+00
 -1      3886 5.51344E+01 1.97267E+01 0.00000E+00
 -1      3887 6.22500E+01 3.09853E+01 0.00000E+00
 -1      3888 6.37500E+01 3.09853E+01 0.00000E+00
 -1      3889 6.52500E+01 3.09853E+01 0.00000E+00
 -1      3890 6.67500E+01 3.09853E+01 0.00000E+00
 -1      3891 6.45000E+01 2.96863E+01 0.00000E+00
 -1      3892 6.82500E+01 3.09853E+01 0.00000E+00
 -1      3893 6.97500E+01 3.09853E+01 0.00000E+00
 -1      3894 6.75000E+01 2.96863E+01 0.00000E+00
 -1      3895 7.12500E+01 3.09853E+01 0.00000E+00
 -1      3896 7.27500E+01 3.09853E+01 0.00000E+00
 -1      3897 7.05000E+01 2.96863E+01 0.00000E+00
 -1      3898 7.42500E+01 3.09853E+01 0.00000E+00
 -1      3899 7.57500E+01 3.09853E+01 0.00000E+00
 -1      3900 7.35000E+01 2.96863E+01 0.00000E+00
 -1      3901 7.72500E+01 3.09853E+01 0.00000E+00
 -1      3902 7.87500E+01 3.09853E+01 0.00000E+00
 -1      3903 7.65000E+01 2.96863E+01 0.00000E+00
 -1      3904 8.02500E+01 3.09853E+01 0.00000E+00
 -1      3905 8.17500E+01 3.09853E+01 0.00000E+00
 -1      3906 7.95000E+01 2.96863E+01 0.00000E+00
 -1      3907 8.32500E+01 3.09853E+01 0.00000E+00
 -1      3908 8.47500E+01 3.09853E+01 0.00000E+00
 -1      3909 8.25000E+01 2.96863E+01 0.00000E+00
 -1      3910 8.62500E+01 3.09853E+01 0.00000E+00
 -1      3911 8.77500E+01 3.09853E+01 0.00000E+00
 -1      3912 8.55000E+01 2.96863E+01 0.00000E+00
 -1      3913 8.92500E+01 3.09853E+01 0.00000E+00
 -1      3914 9.07500E+01 3.09853E+01 0.00000E+00
 -1      3915 8.85000E+01 2.96863E+01 0.00000E+00
 -1      3916 9.22500E+01 3.09853E+01 0.00000E+00
 -1      3917 9.37500E+01 3.09853E+01 0.00000E+00
 -1      3918 9.15000E+01 2.96863E+01 0.00000E+00
 -1      3919 9.52500E+01 3.09853E+01 0.00000E+00
 -1      3920 9.67500E+01 3.09853E+01 0.00000E+00
 -1      3921 9.45000E+01 2.96863E+01 0.00000E+00
 -1      3922 9.82500E+01 3.09853E+01 0.00000E+00
 -1      3923 9.97500E+01 3.09853E+01 0.00000E+00
 -1      3924 9.75000E+01 2.96863E+01 0.00000E+00
 -1      3925 1.01250E+02 3.09853E+01 0.00000E+00
 -1      3926 1.02750E+02 3.09853E+01 0.00000E+00
 -1      3927 1.00500E+02 2.96863E+01 0.00000E+00
 -1      3928 1.04250E+02 3.09853E+01 0.00000E+00
 -1      3929 1.05750E+02 3.09853E+01 0.00000E+00
 -1      3930 1.03500E+02 2.96863E+01 0.00000E+00
 -1      3931 1.07250E+02 3.09853E+01 0.00000E+00
 -1      3932 1.08750E+02 3.09853E+01 0.00000E+00
 -1      3933 1.06500E+02 2.96863E+01 0.00000E+00
 -1      3934 1.10250E+02 3.09853E+01 0.00000E+00
 -1      3935 1.11750E+02 3.09853E+01 0.00000E+00
 -1      3936 1.09500E+02 2.96863E+01 0.00000E+00
 -1      3937 1.13250E+02 3.09853E+01 0.00000E+00
 -1      3938 1.14750E+02 3.09853E+01 0.00000E+00
 -1      3939 1.12500E+02 2.96863E+01 0.00000E+00
 -1      3940 1.16250E+02 3.09853E+01 0.00000E+00
 -1      3941 1.17750E+02 3.09853E+01 0.00000E+00
 -1      3942 1.15500E+02 2.96863E+01 0.00000E+00
 -1      3943 1.19250E+02 3.09853E+01 0.00000E+00
 -1      3944 1.20750E+02 3.09853E+01 0.00000E+00
 -1      3945 1.18500E+02 2.96863E+01 0.00000E+00
 -1      3946 1.22250E+02 3.09853E+01 0.00000E+00
 -1      3947 1.23750E+02 3.09853E+01 0.00000E+00
 -1      3948 1.21500E+02 2.96863E+01 0.00000E+00
 -1      3949 1.25250E+02 3.09853E+01 0.00000E+00
 -1      3950 1.26750E+02 3.09853E+01 0.00000E+00
 -1      3951 1.24500E+02 2.96863E+01 0.00000E+00
 -1      3952 6.21240E+01 1.90745E+01 0.00000E+00
 -1      3953 6.06240E+01 1.90745E+01 0.00000E+00
 -1      3954 7.11240E+01 1.90745E+01 0.00000E+00
 -1      3955 6.96240E+01 1.90745E+01 0.00000E+00
 -1      3956 7.41240E+01 1.90745E+01 0.00000E+00
 -1      3957 7.26240E+01 1.90745E+01 0.00000E+00
 -1      3958 7.18740E+01 2.03735E+01 0.00000E+00
 -1      3959 7.71240E+01 1.90745E+01 0.00000E+00
 -1      3960 7.56240E+01 1.90745E+01 0.00000E+00
 -1      3961 7.48740E+01 2.03735E+01 0.00000E+00
 -1      3962 8.01240E+01 1.90745E+01 0.00000E+00
 -1      3963 7.86240E+01 1.90745E+01 0.00000E+00
 -1      3964 7.78740E+01 2.03735E+01 0.00000E+00
 -1      3965 8.31240E+01 1.90745E+01 0.00000E+00
 -1      3966 8.16240E+01 1.90745E+01 0.00000E+00
 -1      3967 8.08740E+01 2.03735E+01 0.00000E+00
 -1      3968 8.61240E+01 1.90745E+01 0.00000E+00
 -1      3969 8.46240E+01 1.90745E+01 0.00000E+00
 -1      3970 8.38740E+01 2.03735E+01 0.00000E+00
 -1      3971 8.91240E+01 1.90745E+01 0.00000E+00
 -1      3972 8.76240E+01 1.90745E+01 0.00000E+00
 -1      3973 8.68740E+01 2.03735E+01 0.00000E+00
 -1      3974 9.21240E+01 1.90745E+01 0.00000E+00
 -1      3975 9.06240E+01 1.90745E+01 0.00000E+00
 -1      3976 8.98740E+01 2.03735E+01 0.00000E+00
 -1      3977 9.51240E+01 1.90745E+01 0.00000E+00
 -1      3978 9.36240E+01 1.90745E+01 0.00000E+00
 -1      3979 9.28740E+01 2.03735E+01 0.00000E+00
 -1      3980 9.81240E+01 1.90745E+01 0.00000E+00
 -1      3981 9.66240E+01 1.90745E+01 0.00000E+00
 -1      3982 9.58740E+01 2.03735E+01 0.00000E+00
 -1      3983 1.01124E+02 1.90745E+01 0.00000E+00
 -1      3984 9.96240E+01 1.90745E+01 0.00000E+00
 -1      3985 9.88740E+01 2.03735E+01 0.00000E+00
 -1      3986 1.04124E+02 1.90745E+01 0.00000E+00
 -1      3987 1.02624E+02 1.90745E+01 0.00000E+00
 -1      3988 1.01874E+02 2.03735E+01 0.00000E+00
 -1      3989 1.07124E+02 1.90745E+01 0.00000E+00
 -1      3990 1.05624E+02 1.90745E+01 0.00000E+00
 -1      3991 1.04874E+02 2.03735E+01 0.00000E+00
 -1      3992 1.10124E+02 1.90745E+01 0.00000E+00
 -1      3993 1.08624E+02 1.90745E+01 0.00000E+00
 -1      3994 1.07874E+02 2.03735E+01 0.00000E+00
 -1      3995 1.13124E+02 1.90745E+01 0.00000E+00
 -1      3996 1.11624E+02 1.90745E+01 0.00000E+00
 -1      3997 1.10874E+02 2.03735E+01 0.00000E+00
 -1      3998 1.16124E+02 1.90745E+01 0.00000E+00
 -1      3999 1.14624E+02 1.90745E+01 0.00000E+00
 -1      4000 1.13874E+02 2.03735E+01 0.00000E+00
 -1      4001 1.19124E+02 1.90745E+01 0.00000E+00
 -1      4002 1.17624E+02 1.90745E+01 0.00000E+00
 -1      4003 1.16874E+02 2.03735E+01 0.00000E+00
 -1      4004 1.22124E+02 1.90745E+01 0.00000E+00
 -1      4005 1.20624E+02 1.90745E+01 0.00000E+00
 -1      4006 1.19874E+02 2.03735E+01 0.00000E+00
 -1      4007 1.25124E+02 1.90745E+01 0.00000E+00
 -1      4008 1.23624E+02 1.90745E+01 0.00000E+00
 -1      4009 1.22874E+02 2.03735E+01 0.00000E+00
 -1      4010 1.28124E+02 1.90745E+01 0.00000E+00
 -1      4011 1.26624E+02 1.90745E+01 0.00000E+00
 -1      4012 1.25874E+02 2.03735E+01 0.00000E+00
 -1      4013 1.30515E+02 2.72125E+01 0.00000E+00
 -1      4014 1.30515E+02 2.57375E+01 0.00000E+00
 -1      4015 5.79752E+01 2.58107E+01 0.00000E+00
 -1      4016 5.77192E+01 2.73124E+01 0.00000E+00
 -1      4017 5.90648E+01 2.84691E+01 0.00000E+00
 -1      4018 1.69918E+01 2.82656E+01 0.00000E+00
 -1      4019 1.32551E+02 2.04701E+01 0.00000E+00
 -1      4020 1.32292E+02 1.91176E+01 0.00000E+00
 -1      4021 1.31167E+02 1.90327E+01 0.00000E+00
 -1      4022 1.31252E+02 2.12076E+01 0.00000E+00
 -1      4023 6.51240E+01 1.90745E+01 0.00000E+00
 -1      4024 6.36240E+01 1.90745E+01 0.00000E+00
 -1      4025 6.28740E+01 2.03735E+01 0.00000E+00
 -1      4026 1.72699E+01 2.39845E+01 0.00000E+00
 -1      4027 5.93792E+01 1.94006E+01 0.00000E+00
 -1      4028 5.78792E+01 1.94006E+01 0.00000E+00
 -1      4029 5.76395E+01 2.13518E+01 0.00000E+00
 -1      4030 6.01292E+01 2.06996E+01 0.00000E+00
 -1      4031 6.81240E+01 1.90745E+01 0.00000E+00
 -1      4032 6.66240E+01 1.90745E+01 0.00000E+00
 -1      4033 6.58740E+01 2.03735E+01 0.00000E+00
 -1      4034 6.88740E+01 2.03735E+01 0.00000E+00
 -1      4035 1.69963E+01 2.70852E+01 0.00000E+00
 -1      4036 1.72654E+01 2.51649E+01 0.00000E+00
 -1      4037 6.09044E+01 2.98285E+01 0.00000E+00
 -1      4038 1.30529E+02 3.01242E+01 0.00000E+00
 -1      4039 1.30606E+02 2.85233E+01 0.00000E+00
 -1      4040 1.29307E+02 2.77858E+01 0.00000E+00
 -1      4041 1.29489E+02 3.04073E+01 0.00000E+00
 -1      4042 1.27599E+02 3.08378E+01 0.00000E+00
 -1      4043 1.28639E+02 3.05547E+01 0.00000E+00
 -1      4044 1.28548E+02 2.92440E+01 0.00000E+00
 -1      4045 1.26849E+02 2.95388E+01 0.00000E+00
 -1      4046 1.30255E+02 2.43850E+01 0.00000E+00
 -1      4047 1.29996E+02 2.30325E+01 0.00000E+00
 -1      4048 1.28956E+02 2.51225E+01 0.00000E+00
 -1      4049 1.30208E+02 1.90960E+01 0.00000E+00
 -1      4050 1.29083E+02 1.90112E+01 0.00000E+00
 -1      4051 1.28333E+02 2.03102E+01 0.00000E+00
 -1      4052 1.30251E+02 2.01835E+01 0.00000E+00
 -1      4053 5.26399E+01 1.98532E+01 0.00000E+00
 -1      4054 5.36857E+01 1.93551E+01 0.00000E+00
 -1      4055 5.81492E+01 2.42473E+01 0.00000E+00
 -1      4056 5.94948E+01 2.54040E+01 0.00000E+00
 -1      4057 5.80318E+01 2.27592E+01 0.00000E+00
 -1      4058 6.67500E+01 2.83873E+01 0.00000E+00
 -1      4059 6.82500E+01 2.83873E+01 0.00000E+00
 -1      4060 6.97500E+01 2.83873E+01 0.00000E+00
 -1      4061 7.12500E+01 2.83873E+01 0.00000E+00
 -1      4062 6.90000E+01 2.70883E+01 0.00000E+00
 -1      4063 7.27500E+01 2.83873E+01 0.00000E+00
 -1      4064 7.42500E+01 2.83873E+01 0.00000E+00
 -1      4065 7.20000E+01 2.70883E+01 0.00000E+00
 -1      4066 7.57500E+01 2.83873E+01 0.00000E+00
 -1      4067 7.72500E+01 2.83873E+01 0.00000E+00
 -1      4068 7.50000E+01 2.70883E+01 0.00000E+00
 -1      4069 7.87500E+01 2.83873E+01 0.00000E+00
 -1      4070 8.02500E+01 2.83873E+01 0.00000E+00
 -1      4071 7.80000E+01 2.70883E+01 0.00000E+00
 -1      4072 8.17500E+01 2.83873E+01 0.00000E+00
 -1      4073 8.32500E+01 2.83873E+01 0.00000E+00
 -1      4074 8.10000E+01 2.70883E+01 0.00000E+00
 -1      4075 8.47500E+01 2.83873E+01 0.00000E+00
 -1      4076 8.62500E+01 2.83873E+01 0.00000E+00
 -1      4077 8.40000E+01 2.70883E+01 0.00000E+00
 -1      4078 8.77500E+01 2.83873E+01 0.00000E+00
 -1      4079 8.92500E+01 2.83873E+01 0.00000E+00
 -1      4080 8.70000E+01 2.70883E+01 0.00000E+00
 -1      4081 9.07500E+01 2.83873E+01 0.00000E+00
 -1      4082 9.22500E+01 2.83873E+01 0.00000E+00
 -1      4083 9.00000E+01 2.70883E+01 0.00000E+00
 -1      4084 9.37500E+01 2.83873E+01 0.00000E+00
 -1      4085 9.52500E+01 2.83873E+01 0.00000E+00
 -1      4086 9.30000E+01 2.70883E+01 0.00000E+00
 -1      4087 9.67500E+01 2.83873E+01 0.00000E+00
 -1      4088 9.82500E+01 2.83873E+01 0.00000E+00
 -1      4089 9.60000E+01 2.70883E+01 0.00000E+00
 -1      4090 9.97500E+01 2.83873E+01 0.00000E+00
 -1      4091 1.01250E+02 2.83873E+01 0.00000E+00
 -1      4092 9.90000E+01 2.70883E+01 0.00000E+00
 -1      4093 1.02750E+02 2.83873E+01 0.00000E+00
 -1      4094 1.04250E+02 2.83873E+01 0.00000E+00
 -1      4095 1.02000E+02 2.70883E+01 0.00000E+00
 -1      4096 1.05750E+02 2.83873E+01 0.00000E+00
 -1      4097 1.07250E+02 2.83873E+01 0.00000E+00
 -1      4098 1.05000E+02 2.70883E+01 0.00000E+00
 -1      4099 1.08750E+02 2.83873E+01 0.00000E+00
 -1      4100 1.10250E+02 2.83873E+01 0.00000E+00
 -1      4101 1.08000E+02 2.70883E+01 0.00000E+00
 -1      4102 1.11750E+02 2.83873E+01 0.00000E+00
 -1      4103 1.13250E+02 2.83873E+01 0.00000E+00
 -1      4104 1.11000E+02 2.70883E+01 0.00000E+00
 -1      4105 1.14750E+02 2.83873E+01 0.00000E+00
 -1      4106 1.16250E+02 2.83873E+01 0.00000E+00
 -1      4107 1.14000E+02 2.70883E+01 0.00000E+00
 -1      4108 1.17750E+02 2.83873E+01 0.00000E+00
 -1      4109 1.19250E+02 2.83873E+01 0.00000E+00
 -1      4110 1.17000E+02 2.70883E+01 0.00000E+00
 -1      4111 1.20750E+02 2.83873E+01 0.00000E+00
 -1      4112 1.22250E+02 2.83873E+01 0.00000E+00
 -1      4113 1.20000E+02 2.70883E+01 0.00000E+00
 -1      4114 1.23750E+02 2.83873E+01 0.00000E+00
 -1      4115 1.25250E+02 2.83873E+01 0.00000E+00
 -1      4116 1.23000E+02 2.70883E+01 0.00000E+00
 -1      4117 6.36240E+01 2.16725E+01 0.00000E+00
 -1      4118 6.21240E+01 2.16725E+01 0.00000E+00
 -1      4119 7.26240E+01 2.16725E+01 0.00000E+00
 -1      4120 7.11240E+01 2.16725E+01 0.00000E+00
 -1      4121 8.16240E+01 2.16725E+01 0.00000E+00
 -1      4122 8.01240E+01 2.16725E+01 0.00000E+00
 -1      4123 8.46240E+01 2.16725E+01 0.00000E+00
 -1      4124 8.31240E+01 2.16725E+01 0.00000E+00
 -1      4125 8.23740E+01 2.29715E+01 0.00000E+00
 -1      4126 8.76240E+01 2.16725E+01 0.00000E+00
 -1      4127 8.61240E+01 2.16725E+01 0.00000E+00
 -1      4128 8.53740E+01 2.29715E+01 0.00000E+00
 -1      4129 9.06240E+01 2.16725E+01 0.00000E+00
 -1      4130 8.91240E+01 2.16725E+01 0.00000E+00
 -1      4131 8.83740E+01 2.29715E+01 0.00000E+00
 -1      4132 9.36240E+01 2.16725E+01 0.00000E+00
 -1      4133 9.21240E+01 2.16725E+01 0.00000E+00
 -1      4134 9.13740E+01 2.29715E+01 0.00000E+00
 -1      4135 9.66240E+01 2.16725E+01 0.00000E+00
 -1      4136 9.51240E+01 2.16725E+01 0.00000E+00
 -1      4137 9.43740E+01 2.29715E+01 0.00000E+00
 -1      4138 9.96240E+01 2.16725E+01 0.00000E+00
 -1      4139 9.81240E+01 2.16725E+01 0.00000E+00
 -1      4140 9.73740E+01 2.29715E+01 0.00000E+00
 -1      4141 1.02624E+02 2.16725E+01 0.00000E+00
 -1      4142 1.01124E+02 2.16725E+01 0.00000E+00
 -1      4143 1.00374E+02 2.29715E+01 0.00000E+00
 -1      4144 1.05624E+02 2.16725E+01 0.00000E+00
 -1      4145 1.04124E+02 2.16725E+01 0.00000E+00
 -1      4146 1.03374E+02 2.29715E+01 0.00000E+00
 -1      4147 1.08624E+02 2.16725E+01 0.00000E+00
 -1      4148 1.07124E+02 2.16725E+01 0.00000E+00
 -1      4149 1.06374E+02 2.29715E+01 0.00000E+00
 -1      4150 1.11624E+02 2.16725E+01 0.00000E+00
 -1      4151 1.10124E+02 2.16725E+01 0.00000E+00
 -1      4152 1.09374E+02 2.29715E+01 0.00000E+00
 -1      4153 1.14624E+02 2.16725E+01 0.00000E+00
 -1      4154 1.13124E+02 2.16725E+01 0.00000E+00
 -1      4155 1.12374E+02 2.29715E+01 0.00000E+00
 -1      4156 1.17624E+02 2.16725E+01 0.00000E+00
 -1      4157 1.16124E+02 2.16725E+01 0.00000E+00
 -1      4158 1.15374E+02 2.29715E+01 0.00000E+00
 -1      4159 1.20624E+02 2.16725E+01 0.00000E+00
 -1      4160 1.19124E+02 2.16725E+01 0.00000E+00
 -1      4161 1.18374E+02 2.29715E+01 0.00000E+00
 -1      4162 1.23624E+02 2.16725E+01 0.00000E+00
 -1      4163 1.22124E+02 2.16725E+01 0.00000E+00
 -1      4164 1.21374E+02 2.29715E+01 0.00000E+00
 -1      4165 1.26624E+02 2.16725E+01 0.00000E+00
 -1      4166 1.25124E+02 2.16725E+01 0.00000E+00
 -1      4167 1.24374E+02 2.29715E+01 0.00000E+00
 -1      4168 6.11604E+01 2.83268E+01 0.00000E+00
 -1      4169 7.86240E+01 2.16725E+01 0.00000E+00
 -1      4170 7.71240E+01 2.16725E+01 0.00000E+00
 -1      4171 7.93740E+01 2.29715E+01 0.00000E+00
 -1      4172 7.56240E+01 2.16725E+01 0.00000E+00
 -1      4173 7.41240E+01 2.16725E+01 0.00000E+00
 -1      4174 7.33740E+01 2.29715E+01 0.00000E+00
 -1      4175 7.63740E+01 2.29715E+01 0.00000E+00
 -1      4176 6.37500E+01 2.83873E+01 0.00000E+00
 -1      4177 6.52500E+01 2.83873E+01 0.00000E+00
 -1      4178 6.60000E+01 2.70883E+01 0.00000E+00
 -1      4179 5.92766E+01 2.24331E+01 0.00000E+00
 -1      4180 6.07026E+01 2.62159E+01 0.00000E+00
 -1      4181 6.25422E+01 2.75753E+01 0.00000E+00
 -1      4182 6.32922E+01 2.62763E+01 0.00000E+00
 -1      4183 6.08766E+01 2.46525E+01 0.00000E+00
 -1      4184 1.27811E+02 2.60435E+01 0.00000E+00
 -1      4185 1.27551E+02 2.46910E+01 0.00000E+00
 -1      4186 6.66240E+01 2.16725E+01 0.00000E+00
 -1      4187 6.51240E+01 2.16725E+01 0.00000E+00
 -1      4188 6.43740E+01 2.29715E+01 0.00000E+00
 -1      4189 1.25453E+02 2.63502E+01 0.00000E+00
 -1      4190 1.26203E+02 2.76492E+01 0.00000E+00
 -1      4191 7.03740E+01 2.29715E+01 0.00000E+00
 -1      4192 6.96240E+01 2.16725E+01 0.00000E+00
 -1      4193 6.81240E+01 2.16725E+01 0.00000E+00
 -1      4194 1.28994E+02 2.20084E+01 0.00000E+00
 -1      4195 1.28036E+02 2.20718E+01 0.00000E+00
 -1      4196 6.05214E+01 2.21070E+01 0.00000E+00
 -1      4197 1.27285E+02 2.33708E+01 0.00000E+00
 -1      4198 1.30293E+02 2.12709E+01 0.00000E+00
 -1      4199 6.12714E+01 2.34060E+01 0.00000E+00
 -1      4200 6.24792E+01 2.42180E+01 0.00000E+00
 -1      4201 1.23953E+02 2.63502E+01 0.00000E+00
 -1      4202 1.24905E+02 2.56120E+01 0.00000E+00
 -1      4203 1.22453E+02 2.63502E+01 0.00000E+00
 -1      4204 1.28457E+02 2.79332E+01 0.00000E+00
 -1      4205 7.11870E+01 2.50299E+01 0.00000E+00
 -1      4206 7.26870E+01 2.50299E+01 0.00000E+00
 -1      4207 7.41870E+01 2.50299E+01 0.00000E+00
 -1      4208 7.56870E+01 2.50299E+01 0.00000E+00
 -1      4209 7.71870E+01 2.50299E+01 0.00000E+00
 -1      4210 7.86870E+01 2.50299E+01 0.00000E+00
 -1      4211 8.01870E+01 2.50299E+01 0.00000E+00
 -1      4212 8.16870E+01 2.50299E+01 0.00000E+00
 -1      4213 8.31870E+01 2.50299E+01 0.00000E+00
 -1      4214 8.46870E+01 2.50299E+01 0.00000E+00
 -1      4215 8.61870E+01 2.50299E+01 0.00000E+00
 -1      4216 8.76870E+01 2.50299E+01 0.00000E+00
 -1      4217 8.91870E+01 2.50299E+01 0.00000E+00
 -1      4218 9.06870E+01 2.50299E+01 0.00000E+00
 -1      4219 9.21870E+01 2.50299E+01 0.00000E+00
 -1      4220 9.36870E+01 2.50299E+01 0.00000E+00
 -1      4221 9.51870E+01 2.50299E+01 0.00000E+00
 -1      4222 9.66870E+01 2.50299E+01 0.00000E+00
 -1      4223 9.81870E+01 2.50299E+01 0.00000E+00
 -1      4224 9.96870E+01 2.50299E+01 0.00000E+00
 -1      4225 1.01187E+02 2.50299E+01 0.00000E+00
 -1      4226 1.02687E+02 2.50299E+01 0.00000E+00
 -1      4227 1.04187E+02 2.50299E+01 0.00000E+00
 -1      4228 1.05687E+02 2.50299E+01 0.00000E+00
 -1      4229 1.07187E+02 2.50299E+01 0.00000E+00
 -1      4230 1.08687E+02 2.50299E+01 0.00000E+00
 -1      4231 1.10187E+02 2.50299E+01 0.00000E+00
 -1      4232 1.11687E+02 2.50299E+01 0.00000E+00
 -1      4233 1.13187E+02 2.50299E+01 0.00000E+00
 -1      4234 1.14687E+02 2.50299E+01 0.00000E+00
 -1      4235 1.16187E+02 2.50299E+01 0.00000E+00
 -1      4236 1.17687E+02 2.50299E+01 0.00000E+00
 -1      4237 1.19187E+02 2.50299E+01 0.00000E+00
 -1      4238 1.20687E+02 2.50299E+01 0.00000E+00
 -1      4239 6.96870E+01 2.50299E+01 0.00000E+00
 -1      4240 1.27052E+02 2.75017E+01 0.00000E+00
 -1      4241 6.51870E+01 2.50299E+01 0.00000E+00
 -1      4242 6.66870E+01 2.50299E+01 0.00000E+00
 -1      4243 6.81870E+01 2.50299E+01 0.00000E+00
 -1      4244 1.24640E+02 2.42918E+01 0.00000E+00
 -1      4245 1.23140E+02 2.42918E+01 0.00000E+00
 -1      4246 1.26140E+02 2.42918E+01 0.00000E+00
 -1      4247 6.73740E+01 2.29715E+01 0.00000E+00
 -1      4248 1.22187E+02 2.50299E+01 0.00000E+00
 -1      4249 6.39792E+01 2.42180E+01 0.00000E+00
 -3
    3C                          2043                                     1
 -1       164    8    0    1
 -2         6         7        23      1104      1267      1121
 -1       165    8    0    1
 -2         7         8       164      1105      1268      1269
 -1       166    8    0    1
 -2         8         9       165      1106      1270      1271
 -1       167    8    0    1
 -2         8       165       164      1271      1272      1268
 -1       168    8    0    1
 -2         9        10       166      1107      1273      1274
 -1       169    8    0    1
 -2         9       166       165      1274      1275      1270
 -1       170    8    0    1
 -2        10        11       167      1108      1276      1277
 -1       171    8    0    1
 -2        10       167       166      1277      1278      1273
 -1       172    8    0    1
 -2        11        12       168      1109      1279      1280
 -1       173    8    0    1
 -2        11       168       167      1280      1281      1276
 -1       174    8    0    1
 -2        12        13       169      1110      1282      1283
 -1       175    8    0    1
 -2        12       169       168      1283      1284      1279
 -1       176    8    0    1
 -2        13        14       170      1111      1285      1286
 -1       177    8    0    1
 -2        13       170       169      1286      1287      1282
 -1       178    8    0    1
 -2        14        15       171      1112      1288      1289
 -1       179    8    0    1
 -2        14       171       170      1289      1290      1285
 -1       180    8    0    1
 -2        15        16       172      1113      1291      1292
 -1       181    8    0    1
 -2        15       172       171      1292      1293      1288
 -1       182    8    0    1
 -2        16        17       173      1114      1294      1295
 -1       183    8    0    1
 -2        16       173       172      1295      1296      1291
 -1       184    8    0    1
 -2        17        18       174      1115      1297      1298
 -1       185    8    0    1
 -2        17       174       173      1298      1299      1294
 -1       186    8    0    1
 -2        18        19       175      1116      1300      1301
 -1       187    8    0    1
 -2        18       175       174      1301      1302      1297
 -1       188    8    0    1
 -2        19        20       176      1117      1303      1304
 -1       189    8    0    1
 -2        19       176       175      1304      1305      1300
 -1       190    8    0    1
 -2        20        21       177      1118      1306      1307
 -1       191    8    0    1
 -2        20       177       176      1307      1308      1303
 -1       192    8    0    1
 -2        21        22       178      1119      1309      1310
 -1       193    8    0    1
 -2        21       178       177      1310      1311      1306
 -1       194    8    0    1
 -2        22         5       179      1120      1312      1313
 -1       195    8    0    1
 -2       178        22       179      1309      1313      1314
 -1       196    8    0    1
 -2         5        72       179      1171      1315      1312
 -1       197    8    0    1
 -2        24        23       180      1122      1316      1317
 -1       198    8    0    1
 -2        25        24       181      1123      1318      1319
 -1       199    8    0    1
 -2        24       180       181      1317      1320      1318
 -1       200    8    0    1
 -2        26        25       182      1124      1321      1322
 -1       201    8    0    1
 -2        25       181       182      1319      1323      1321
 -1       202    8    0    1
 -2        27        26       183      1125      1324      1325
 -1       203    8    0    1
 -2        26       182       183      1322      1326      1324
 -1       204    8    0    1
 -2        28        27       184      1126      1327      1328
 -1       205    8    0    1
 -2        27       183       184      1325      1329      1327
 -1       206    8    0    1
 -2        29        28       185      1127      1330      1331
 -1       207    8    0    1
 -2        28       184       185      1328      1332      1330
 -1       208    8    0    1
 -2        30        29       186      1128      1333      1334
 -1       209    8    0    1
 -2        29       185       186      1331      1335      1333
 -1       210    8    0    1
 -2        31        30       187      1129      1336      1337
 -1       211    8    0    1
 -2        30       186       187      1334      1338      1336
 -1       212    8    0    1
 -2        32        31       188      1130      1339      1340
 -1       213    8    0    1
 -2        31       187       188      1337      1341      1339
 -1       214    8    0    1
 -2        33        32       189      1131      1342      1343
 -1       215    8    0    1
 -2        32       188       189      1340      1344      1342
 -1       216    8    0    1
 -2        34        33       190      1132      1345      1346
 -1       217    8    0    1
 -2        33       189       190      1343      1347      1345
 -1       218    8    0    1
 -2        35        34       191      1133      1348      1349
 -1       219    8    0    1
 -2        34       190       191      1346      1350      1348
 -1       220    8    0    1
 -2        36        35       192      1134      1351      1352
 -1       221    8    0    1
 -2        35       191       192      1349      1353      1351
 -1       222    8    0    1
 -2        37        36       193      1135      1354      1355
 -1       223    8    0    1
 -2        36       192       193      1352      1356      1354
 -1       224    8    0    1
 -2        38        37       194      1136      1357      1358
 -1       225    8    0    1
 -2        37       193       194      1355      1359      1357
 -1       226    8    0    1
 -2        39        38       195      1137      1360      1361
 -1       227    8    0    1
 -2        38       194       195      1358      1362      1360
 -1       228    8    0    1
 -2        40        39       196      1138      1363      1364
 -1       229    8    0    1
 -2        39       195       196      1361      1365      1363
 -1       230    8    0    1
 -2        41        40       197      1139      1366      1367
 -1       231    8    0    1
 -2        40       196       197      1364      1368      1366
 -1       232    8    0    1
 -2        42        41       198      1140      1369      1370
 -1       233    8    0    1
 -2        41       197       198      1367      1371      1369
 -1       234    8    0    1
 -2        43        42       199      1141      1372      1373
 -1       235    8    0    1
 -2        42       198       199      1370      1374      1372
 -1       236    8    0    1
 -2        44        43       200      1142      1375      1376
 -1       237    8    0    1
 -2        43       199       200      1373      1377      1375
 -1       238    8    0    1
 -2        45        44       201      1143      1378      1379
 -1       239    8    0    1
 -2        44       200       201      1376      1380      1378
 -1       240    8    0    1
 -2        46        45       202      1144      1381      1382
 -1       241    8    0    1
 -2        45       201       202      1379      1383      1381
 -1       242    8    0    1
 -2        47        46       203      1145      1384      1385
 -1       243    8    0    1
 -2        46       202       203      1382      1386      1384
 -1       244    8    0    1
 -2        48        47       204      1146      1387      1388
 -1       245    8    0    1
 -2        47       203       204      1385      1389      1387
 -1       246    8    0    1
 -2        49        48       205      1147      1390      1391
 -1       247    8    0    1
 -2        48       204       205      1388      1392      1390
 -1       248    8    0    1
 -2        50        49       206      1148      1393      1394
 -1       249    8    0    1
 -2        49       205       206      1391      1395      1393
 -1       250    8    0    1
 -2        51        50       207      1149      1396      1397
 -1       251    8    0    1
 -2        50       206       207      1394      1398      1396
 -1       252    8    0    1
 -2        52        51       208      1150      1399      1400
 -1       253    8    0    1
 -2        51       207       208      1397      1401      1399
 -1       254    8    0    1
 -2        53        52       209      1151      1402      1403
 -1       255    8    0    1
 -2        52       208       209      1400      1404      1402
 -1       256    8    0    1
 -2        54        53       210      1152      1405      1406
 -1       257    8    0    1
 -2        53       209       210      1403      1407      1405
 -1       258    8    0    1
 -2        55        54       211      1153      1408      1409
 -1       259    8    0    1
 -2        54       210       211      1406      1410      1408
 -1       260    8    0    1
 -2        56        55       212      1154      1411      1412
 -1       261    8    0    1
 -2        55       211       212      1409      1413      1411
 -1       262    8    0    1
 -2        57        56       213      1155      1414      1415
 -1       263    8    0    1
 -2        56       212       213      1412      1416      1414
 -1       264    8    0    1
 -2        58        57       214      1156      1417      1418
 -1       265    8    0    1
 -2        57       213       214      1415      1419      1417
 -1       266    8    0    1
 -2        59        58       215      1157      1420      1421
 -1       267    8    0    1
 -2        58       214       215      1418      1422      1420
 -1       268    8    0    1
 -2        60        59       216      1158      1423      1424
 -1       269    8    0    1
 -2        59       215       216      1421      1425      1423
 -1       270    8    0    1
 -2        61        60       217      1159      1426      1427
 -1       271    8    0    1
 -2        60       216       217      1424      1428      1426
 -1       272    8    0    1
 -2        62        61       218      1160      1429      1430
 -1       273    8    0    1
 -2        61       217       218      1427      1431      1429
 -1       274    8    0    1
 -2        63        62       219      1161      1432      1433
 -1       275    8    0    1
 -2        62       218       219      1430      1434      1432
 -1       276    8    0    1
 -2        64        63       220      1162      1435      1436
 -1       277    8    0    1
 -2        63       219       220      1433      1437      1435
 -1       278    8    0    1
 -2        65        64       221      1163      1438      1439
 -1       279    8    0    1
 -2        64       220       221      1436      1440      1438
 -1       280    8    0    1
 -2        66        65       222      1164      1441      1442
 -1       281    8    0    1
 -2        65       221       222      1439      1443      1441
 -1       282    8    0    1
 -2        67        66       223      1165      1444      1445
 -1       283    8    0    1
 -2        66       222       223      1442      1446      1444
 -1       284    8    0    1
 -2        68        67       224      1166      1447      1448
 -1       285    8    0    1
 -2        67       223       224      1445      1449      1447
 -1       286    8    0    1
 -2        69        68       225      1167      1450      1451
 -1       287    8    0    1
 -2        68       224       225      1448      1452      1450
 -1       288    8    0    1
 -2        70        69       226      1168      1453      1454
 -1       289    8    0    1
 -2        69       225       226      1451      1455      1453
 -1       290    8    0    1
 -2        71        70       227      1169      1456      1457
 -1       291    8    0    1
 -2        70       226       227      1454      1458      1456
 -1       292    8    0    1
 -2         4        71       228      1170      1459      1460
 -1       293    8    0    1
 -2       136         4       228      1237      1460      1461
 -1       294    8    0    1
 -2        71       227       228      1457      1462      1459
 -1       295    8    0    1
 -2        72        73       229      1172      1463      1464
 -1       296    8    0    1
 -2        72       229       179      1464      1465      1315
 -1       297    8    0    1
 -2        73        74       230      1173      1466      1467
 -1       298    8    0    1
 -2        73       230       229      1467      1468      1463
 -1       299    8    0    1
 -2        74        75       231      1174      1469      1470
 -1       300    8    0    1
 -2        74       231       230      1470      1471      1466
 -1       301    8    0    1
 -2        75        76       232      1175      1472      1473
 -1       302    8    0    1
 -2        75       232       231      1473      1474      1469
 -1       303    8    0    1
 -2        76        77       233      1176      1475      1476
 -1       304    8    0    1
 -2        76       233       232      1476      1477      1472
 -1       305    8    0    1
 -2        77        78       234      1177      1478      1479
 -1       306    8    0    1
 -2        77       234       233      1479      1480      1475
 -1       307    8    0    1
 -2        78        79       235      1178      1481      1482
 -1       308    8    0    1
 -2        78       235       234      1482      1483      1478
 -1       309    8    0    1
 -2        79        80       236      1179      1484      1485
 -1       310    8    0    1
 -2        79       236       235      1485      1486      1481
 -1       311    8    0    1
 -2        80        81       237      1180      1487      1488
 -1       312    8    0    1
 -2        80       237       236      1488      1489      1484
 -1       313    8    0    1
 -2        81        82       238      1181      1490      1491
 -1       314    8    0    1
 -2        81       238       237      1491      1492      1487
 -1       315    8    0    1
 -2        82        83       239      1182      1493      1494
 -1       316    8    0    1
 -2        82       239       238      1494      1495      1490
 -1       317    8    0    1
 -2        83        84       240      1183      1496      1497
 -1       318    8    0    1
 -2        83       240       239      1497      1498      1493
 -1       319    8    0    1
 -2        84        85       241      1184      1499      1500
 -1       320    8    0    1
 -2        84       241       240      1500      1501      1496
 -1       321    8    0    1
 -2        85        86       242      1185      1502      1503
 -1       322    8    0    1
 -2        85       242       241      1503      1504      1499
 -1       323    8    0    1
 -2        86        87       243      1186      1505      1506
 -1       324    8    0    1
 -2        86       243       242      1506      1507      1502
 -1       325    8    0    1
 -2        87        88       244      1187      1508      1509
 -1       326    8    0    1
 -2        87       244       243      1509      1510      1505
 -1       327    8    0    1
 -2        88        89       245      1188      1511      1512
 -1       328    8    0    1
 -2        88       245       244      1512      1513      1508
 -1       329    8    0    1
 -2        89        90       246      1189      1514      1515
 -1       330    8    0    1
 -2        89       246       245      1515      1516      1511
 -1       331    8    0    1
 -2        90        91       247      1190      1517      1518
 -1       332    8    0    1
 -2        90       247       246      1518      1519      1514
 -1       333    8    0    1
 -2        91        92       248      1191      1520      1521
 -1       334    8    0    1
 -2        91       248       247      1521      1522      1517
 -1       335    8    0    1
 -2        92        93       249      1192      1523      1524
 -1       336    8    0    1
 -2        92       249       248      1524      1525      1520
 -1       337    8    0    1
 -2        93        94       250      1193      1526      1527
 -1       338    8    0    1
 -2        93       250       249      1527      1528      1523
 -1       339    8    0    1
 -2        94        95       251      1194      1529      1530
 -1       340    8    0    1
 -2        94       251       250      1530      1531      1526
 -1       341    8    0    1
 -2        95        96       252      1195      1532      1533
 -1       342    8    0    1
 -2        95       252       251      1533      1534      1529
 -1       343    8    0    1
 -2        96        97       253      1196      1535      1536
 -1       344    8    0    1
 -2        96       253       252      1536      1537      1532
 -1       345    8    0    1
 -2        97        98       254      1197      1538      1539
 -1       346    8    0    1
 -2        97       254       253      1539      1540      1535
 -1       347    8    0    1
 -2        98        99       255      1198      1541      1542
 -1       348    8    0    1
 -2        98       255       254      1542      1543      1538
 -1       349    8    0    1
 -2        99       100       256      1199      1544      1545
 -1       350    8    0    1
 -2        99       256       255      1545      1546      1541
 -1       351    8    0    1
 -2       100       101       257      1200      1547      1548
 -1       352    8    0    1
 -2       100       257       256      1548      1549      1544
 -1       353    8    0    1
 -2       101       102       258      1201      1550      1551
 -1       354    8    0    1
 -2       101       258       257      1551      1552      1547
 -1       355    8    0    1
 -2       102       103       259      1202      1553      1554
 -1       356    8    0    1
 -2       102       259       258      1554      1555      1550
 -1       357    8    0    1
 -2       103       104       260      1203      1556      1557
 -1       358    8    0    1
 -2       103       260       259      1557      1558      1553
 -1       359    8    0    1
 -2       104       105       261      1204      1559      1560
 -1       360    8    0    1
 -2       104       261       260      1560      1561      1556
 -1       361    8    0    1
 -2       105       106       262      1205      1562      1563
 -1       362    8    0    1
 -2       105       262       261      1563      1564      1559
 -1       363    8    0    1
 -2       106       107       263      1206      1565      1566
 -1       364    8    0    1
 -2       106       263       262      1566      1567      1562
 -1       365    8    0    1
 -2       107       108       264      1207      1568      1569
 -1       366    8    0    1
 -2       107       264       263      1569      1570      1565
 -1       367    8    0    1
 -2       108       109       265      1208      1571      1572
 -1       368    8    0    1
 -2       108       265       264      1572      1573      1568
 -1       369    8    0    1
 -2       109       110       266      1209      1574      1575
 -1       370    8    0    1
 -2       109       266       265      1575      1576      1571
 -1       371    8    0    1
 -2       110       111       267      1210      1577      1578
 -1       372    8    0    1
 -2       110       267       266      1578      1579      1574
 -1       373    8    0    1
 -2       111       112       268      1211      1580      1581
 -1       374    8    0    1
 -2       111       268       267      1581      1582      1577
 -1       375    8    0    1
 -2       112       113       269      1212      1583      1584
 -1       376    8    0    1
 -2       112       269       268      1584      1585      1580
 -1       377    8    0    1
 -2       113       114       270      1213      1586      1587
 -1       378    8    0    1
 -2       113       270       269      1587      1588      1583
 -1       379    8    0    1
 -2       114       115       271      1214      1589      1590
 -1       380    8    0    1
 -2       114       271       270      1590      1591      1586
 -1       381    8    0    1
 -2       115       116       272      1215      1592      1593
 -1       382    8    0    1
 -2       115       272       271      1593      1594      1589
 -1       383    8    0    1
 -2       116       117       273      1216      1595      1596
 -1       384    8    0    1
 -2       116       273       272      1596      1597      1592
 -1       385    8    0    1
 -2       117       118       274      1217      1598      1599
 -1       386    8    0    1
 -2       117       274       273      1599      1600      1595
 -1       387    8    0    1
 -2       118       119       275      1218      1601      1602
 -1       388    8    0    1
 -2       118       275       274      1602      1603      1598
 -1       389    8    0    1
 -2       119       120       276      1219      1604      1605
 -1       390    8    0    1
 -2       119       276       275      1605      1606      1601
 -1       391    8    0    1
 -2       120         3       121      1220      1221      1607
 -1       392    8    0    1
 -2       121       122       277      1222      1608      1609
 -1       393    8    0    1
 -2       122       123       278      1223      1610      1611
 -1       394    8    0    1
 -2       122       278       277      1611      1612      1608
 -1       395    8    0    1
 -2       123       124       279      1224      1613      1614
 -1       396    8    0    1
 -2       123       279       278      1614      1615      1610
 -1       397    8    0    1
 -2       124       125       280      1225      1616      1617
 -1       398    8    0    1
 -2       124       280       279      1617      1618      1613
 -1       399    8    0    1
 -2       125       126       281      1226      1619      1620
 -1       400    8    0    1
 -2       125       281       280      1620      1621      1616
 -1       401    8    0    1
 -2       126       127       282      1227      1622      1623
 -1       402    8    0    1
 -2       126       282       281      1623      1624      1619
 -1       403    8    0    1
 -2       127       128       283      1228      1625      1626
 -1       404    8    0    1
 -2       127       283       282      1626      1627      1622
 -1       405    8    0    1
 -2       128       129       284      1229      1628      1629
 -1       406    8    0    1
 -2       128       284       283      1629      1630      1625
 -1       407    8    0    1
 -2       129       130       285      1230      1631      1632
 -1       408    8    0    1
 -2       129       285       284      1632      1633      1628
 -1       409    8    0    1
 -2       130       131       286      1231      1634      1635
 -1       410    8    0    1
 -2       130       286       285      1635      1636      1631
 -1       411    8    0    1
 -2       131       132       287      1232      1637      1638
 -1       412    8    0    1
 -2       131       287       286      1638      1639      1634
 -1       413    8    0    1
 -2       132       133       288      1233      1640      1641
 -1       414    8    0    1
 -2       132       288       287      1641      1642      1637
 -1       415    8    0    1
 -2       133       134       289      1234      1643      1644
 -1       416    8    0    1
 -2       133       289       288      1644      1645      1640
 -1       417    8    0    1
 -2       134       135       290      1235      1646      1647
 -1       418    8    0    1
 -2       134       290       289      1647      1648      1643
 -1       419    8    0    1
 -2       135       136       291      1236      1649      1650
 -1       420    8    0    1
 -2       290       135       291      1646      1650      1651
 -1       421    8    0    1
 -2       136       228       291      1461      1652      1649
 -1       422    8    0    1
 -2         2       137       292      1238      1653      1654
 -1       423    8    0    1
 -2       137       138       293      1239      1655      1656
 -1       424    8    0    1
 -2       138       139       294      1240      1657      1658
 -1       425    8    0    1
 -2       139       140       295      1241      1659      1660
 -1       426    8    0    1
 -2       140       141       296      1242      1661      1662
 -1       427    8    0    1
 -2       141       142       297      1243      1663      1664
 -1       428    8    0    1
 -2       142       143       298      1244      1665      1666
 -1       429    8    0    1
 -2       143       144       299      1245      1667      1668
 -1       430    8    0    1
 -2       144       145       300      1246      1669      1670
 -1       431    8    0    1
 -2       145       146       301      1247      1671      1672
 -1       432    8    0    1
 -2       146       147       302      1248      1673      1674
 -1       433    8    0    1
 -2       147       148       303      1249      1675      1676
 -1       434    8    0    1
 -2       148       149       304      1250      1677      1678
 -1       435    8    0    1
 -2       149       150       305      1251      1679      1680
 -1       436    8    0    1
 -2       150       151       306      1252      1681      1682
 -1       437    8    0    1
 -2       151       152       307      1253      1683      1684
 -1       438    8    0    1
 -2       152       153       308      1254      1685      1686
 -1       439    8    0    1
 -2       153       154       309      1255      1687      1688
 -1       440    8    0    1
 -2       154       155       310      1256      1689      1690
 -1       441    8    0    1
 -2       155       156       311      1257      1691      1692
 -1       442    8    0    1
 -2       156       157       312      1258      1693      1694
 -1       443    8    0    1
 -2       157         1       313      1259      1695      1696
 -1       444    8    0    1
 -2         1       158       314      1260      1697      1698
 -1       445    8    0    1
 -2       158       159       315      1261      1699      1700
 -1       446    8    0    1
 -2       159       160       316      1262      1701      1702
 -1       447    8    0    1
 -2       160       161       317      1263      1703      1704
 -1       448    8    0    1
 -2       161       162       318      1264      1705      1706
 -1       449    8    0    1
 -2       162       163       319      1265      1707      1708
 -1       450    8    0    1
 -2       163         2       320      1266      1709      1710
 -1       451    8    0    1
 -2       294       139       295      1657      1660      1711
 -1       452    8    0    1
 -2         2       292       320      1654      1712      1709
 -1       453    8    0    1
 -2       120       121       276      1607      1713      1604
 -1       454    8    0    1
 -2       121       277       276      1609      1714      1713
 -1       455    8    0    1
 -2       292       137       293      1653      1656      1715
 -1       456    8    0    1
 -2       293       138       294      1655      1658      1716
 -1       457    8    0    1
 -2       140       296       295      1662      1717      1659
 -1       458    8    0    1
 -2       141       297       296      1664      1718      1661
 -1       459    8    0    1
 -2       142       298       297      1666      1719      1663
 -1       460    8    0    1
 -2       143       299       298      1668      1720      1665
 -1       461    8    0    1
 -2       144       300       299      1670      1721      1667
 -1       462    8    0    1
 -2       145       301       300      1672      1722      1669
 -1       463    8    0    1
 -2       146       302       301      1674      1723      1671
 -1       464    8    0    1
 -2       147       303       302      1676      1724      1673
 -1       465    8    0    1
 -2       148       304       303      1678      1725      1675
 -1       466    8    0    1
 -2       149       305       304      1680      1726      1677
 -1       467    8    0    1
 -2       150       306       305      1682      1727      1679
 -1       468    8    0    1
 -2       151       307       306      1684      1728      1681
 -1       469    8    0    1
 -2       152       308       307      1686      1729      1683
 -1       470    8    0    1
 -2       153       309       308      1688      1730      1685
 -1       471    8    0    1
 -2       154       310       309      1690      1731      1687
 -1       472    8    0    1
 -2       155       311       310      1692      1732      1689
 -1       473    8    0    1
 -2       156       312       311      1694      1733      1691
 -1       474    8    0    1
 -2       157       313       312      1696      1734      1693
 -1       475    8    0    1
 -2         1       314       313      1698      1735      1695
 -1       476    8    0    1
 -2       158       315       314      1700      1736      1697
 -1       477    8    0    1
 -2       159       316       315      1702      1737      1699
 -1       478    8    0    1
 -2       160       317       316      1704      1738      1701
 -1       479    8    0    1
 -2       161       318       317      1706      1739      1703
 -1       480    8    0    1
 -2       162       319       318      1708      1740      1705
 -1       481    8    0    1
 -2       163       320       319      1710      1741      1707
 -1       482    8    0    1
 -2        23         7       164      1267      1269      1742
 -1       483    8    0    1
 -2       165       166       321      1275      1743      1744
 -1       484    8    0    1
 -2       164       165       322      1272      1745      1746
 -1       485    8    0    1
 -2       165       321       322      1744      1747      1745
 -1       486    8    0    1
 -2       167       168       323      1281      1748      1749
 -1       487    8    0    1
 -2       168       169       324      1284      1750      1751
 -1       488    8    0    1
 -2       168       324       323      1751      1752      1748
 -1       489    8    0    1
 -2       169       170       325      1287      1753      1754
 -1       490    8    0    1
 -2       169       325       324      1754      1755      1750
 -1       491    8    0    1
 -2       170       171       326      1290      1756      1757
 -1       492    8    0    1
 -2       170       326       325      1757      1758      1753
 -1       493    8    0    1
 -2       171       172       327      1293      1759      1760
 -1       494    8    0    1
 -2       171       327       326      1760      1761      1756
 -1       495    8    0    1
 -2       172       173       328      1296      1762      1763
 -1       496    8    0    1
 -2       172       328       327      1763      1764      1759
 -1       497    8    0    1
 -2       173       174       329      1299      1765      1766
 -1       498    8    0    1
 -2       173       329       328      1766      1767      1762
 -1       499    8    0    1
 -2       174       175       330      1302      1768      1769
 -1       500    8    0    1
 -2       174       330       329      1769      1770      1765
 -1       501    8    0    1
 -2       175       176       331      1305      1771      1772
 -1       502    8    0    1
 -2       175       331       330      1772      1773      1768
 -1       503    8    0    1
 -2       176       177       332      1308      1774      1775
 -1       504    8    0    1
 -2       176       332       331      1775      1776      1771
 -1       505    8    0    1
 -2       177       178       333      1311      1777      1778
 -1       506    8    0    1
 -2       177       333       332      1778      1779      1774
 -1       507    8    0    1
 -2       178       179       334      1314      1780      1781
 -1       508    8    0    1
 -2       333       178       334      1777      1781      1782
 -1       509    8    0    1
 -2       179       229       334      1465      1783      1780
 -1       510    8    0    1
 -2       180        23       164      1316      1742      1784
 -1       511    8    0    1
 -2       229       230       335      1468      1785      1786
 -1       512    8    0    1
 -2       229       335       334      1786      1787      1783
 -1       513    8    0    1
 -2       180       164       322      1784      1746      1788
 -1       514    8    0    1
 -2       182       181       336      1323      1789      1790
 -1       515    8    0    1
 -2       183       182       337      1326      1791      1792
 -1       516    8    0    1
 -2       182       336       337      1790      1793      1791
 -1       517    8    0    1
 -2       184       183       338      1329      1794      1795
 -1       518    8    0    1
 -2       183       337       338      1792      1796      1794
 -1       519    8    0    1
 -2       185       184       339      1332      1797      1798
 -1       520    8    0    1
 -2       184       338       339      1795      1799      1797
 -1       521    8    0    1
 -2       186       185       340      1335      1800      1801
 -1       522    8    0    1
 -2       185       339       340      1798      1802      1800
 -1       523    8    0    1
 -2       187       186       341      1338      1803      1804
 -1       524    8    0    1
 -2       186       340       341      1801      1805      1803
 -1       525    8    0    1
 -2       188       187       342      1341      1806      1807
 -1       526    8    0    1
 -2       187       341       342      1804      1808      1806
 -1       527    8    0    1
 -2       189       188       343      1344      1809      1810
 -1       528    8    0    1
 -2       188       342       343      1807      1811      1809
 -1       529    8    0    1
 -2       190       189       344      1347      1812      1813
 -1       530    8    0    1
 -2       189       343       344      1810      1814      1812
 -1       531    8    0    1
 -2       191       190       345      1350      1815      1816
 -1       532    8    0    1
 -2       190       344       345      1813      1817      1815
 -1       533    8    0    1
 -2       192       191       346      1353      1818      1819
 -1       534    8    0    1
 -2       191       345       346      1816      1820      1818
 -1       535    8    0    1
 -2       193       192       347      1356      1821      1822
 -1       536    8    0    1
 -2       192       346       347      1819      1823      1821
 -1       537    8    0    1
 -2       194       193       348      1359      1824      1825
 -1       538    8    0    1
 -2       193       347       348      1822      1826      1824
 -1       539    8    0    1
 -2       195       194       349      1362      1827      1828
 -1       540    8    0    1
 -2       194       348       349      1825      1829      1827
 -1       541    8    0    1
 -2       196       195       350      1365      1830      1831
 -1       542    8    0    1
 -2       195       349       350      1828      1832      1830
 -1       543    8    0    1
 -2       197       196       351      1368      1833      1834
 -1       544    8    0    1
 -2       196       350       351      1831      1835      1833
 -1       545    8    0    1
 -2       198       197       352      1371      1836      1837
 -1       546    8    0    1
 -2       197       351       352      1834      1838      1836
 -1       547    8    0    1
 -2       199       198       353      1374      1839      1840
 -1       548    8    0    1
 -2       198       352       353      1837      1841      1839
 -1       549    8    0    1
 -2       200       199       354      1377      1842      1843
 -1       550    8    0    1
 -2       199       353       354      1840      1844      1842
 -1       551    8    0    1
 -2       201       200       355      1380      1845      1846
 -1       552    8    0    1
 -2       200       354       355      1843      1847      1845
 -1       553    8    0    1
 -2       202       201       356      1383      1848      1849
 -1       554    8    0    1
 -2       201       355       356      1846      1850      1848
 -1       555    8    0    1
 -2       203       202       357      1386      1851      1852
 -1       556    8    0    1
 -2       202       356       357      1849      1853      1851
 -1       557    8    0    1
 -2       204       203       358      1389      1854      1855
 -1       558    8    0    1
 -2       203       357       358      1852      1856      1854
 -1       559    8    0    1
 -2       205       204       359      1392      1857      1858
 -1       560    8    0    1
 -2       204       358       359      1855      1859      1857
 -1       561    8    0    1
 -2       206       205       360      1395      1860      1861
 -1       562    8    0    1
 -2       205       359       360      1858      1862      1860
 -1       563    8    0    1
 -2       207       206       361      1398      1863      1864
 -1       564    8    0    1
 -2       206       360       361      1861      1865      1863
 -1       565    8    0    1
 -2       208       207       362      1401      1866      1867
 -1       566    8    0    1
 -2       207       361       362      1864      1868      1866
 -1       567    8    0    1
 -2       209       208       363      1404      1869      1870
 -1       568    8    0    1
 -2       208       362       363      1867      1871      1869
 -1       569    8    0    1
 -2       210       209       364      1407      1872      1873
 -1       570    8    0    1
 -2       209       363       364      1870      1874      1872
 -1       571    8    0    1
 -2       211       210       365      1410      1875      1876
 -1       572    8    0    1
 -2       210       364       365      1873      1877      1875
 -1       573    8    0    1
 -2       212       211       366      1413      1878      1879
 -1       574    8    0    1
 -2       211       365       366      1876      1880      1878
 -1       575    8    0    1
 -2       213       212       367      1416      1881      1882
 -1       576    8    0    1
 -2       212       366       367      1879      1883      1881
 -1       577    8    0    1
 -2       214       213       368      1419      1884      1885
 -1       578    8    0    1
 -2       213       367       368      1882      1886      1884
 -1       579    8    0    1
 -2       215       214       369      1422      1887      1888
 -1       580    8    0    1
 -2       214       368       369      1885      1889      1887
 -1       581    8    0    1
 -2       216       215       370      1425      1890      1891
 -1       582    8    0    1
 -2       215       369       370      1888      1892      1890
 -1       583    8    0    1
 -2       217       216       371      1428      1893      1894
 -1       584    8    0    1
 -2       216       370       371      1891      1895      1893
 -1       585    8    0    1
 -2       218       217       372      1431      1896      1897
 -1       586    8    0    1
 -2       217       371       372      1894      1898      1896
 -1       587    8    0    1
 -2       219       218       373      1434      1899      1900
 -1       588    8    0    1
 -2       218       372       373      1897      1901      1899
 -1       589    8    0    1
 -2       220       219       374      1437      1902      1903
 -1       590    8    0    1
 -2       219       373       374      1900      1904      1902
 -1       591    8    0    1
 -2       221       220       375      1440      1905      1906
 -1       592    8    0    1
 -2       220       374       375      1903      1907      1905
 -1       593    8    0    1
 -2       222       221       376      1443      1908      1909
 -1       594    8    0    1
 -2       221       375       376      1906      1910      1908
 -1       595    8    0    1
 -2       223       222       377      1446      1911      1912
 -1       596    8    0    1
 -2       222       376       377      1909      1913      1911
 -1       597    8    0    1
 -2       224       223       378      1449      1914      1915
 -1       598    8    0    1
 -2       223       377       378      1912      1916      1914
 -1       599    8    0    1
 -2       225       224       379      1452      1917      1918
 -1       600    8    0    1
 -2       224       378       379      1915      1919      1917
 -1       601    8    0    1
 -2       226       225       380      1455      1920      1921
 -1       602    8    0    1
 -2       225       379       380      1918      1922      1920
 -1       603    8    0    1
 -2       227       226       381      1458      1923      1924
 -1       604    8    0    1
 -2       226       380       381      1921      1925      1923
 -1       605    8    0    1
 -2       228       227       291      1462      1926      1652
 -1       606    8    0    1
 -2       231       232       382      1474      1927      1928
 -1       607    8    0    1
 -2       232       233       383      1477      1929      1930
 -1       608    8    0    1
 -2       232       383       382      1930      1931      1927
 -1       609    8    0    1
 -2       233       234       384      1480      1932      1933
 -1       610    8    0    1
 -2       233       384       383      1933      1934      1929
 -1       611    8    0    1
 -2       234       235       385      1483      1935      1936
 -1       612    8    0    1
 -2       234       385       384      1936      1937      1932
 -1       613    8    0    1
 -2       235       236       386      1486      1938      1939
 -1       614    8    0    1
 -2       235       386       385      1939      1940      1935
 -1       615    8    0    1
 -2       236       237       387      1489      1941      1942
 -1       616    8    0    1
 -2       236       387       386      1942      1943      1938
 -1       617    8    0    1
 -2       237       238       388      1492      1944      1945
 -1       618    8    0    1
 -2       237       388       387      1945      1946      1941
 -1       619    8    0    1
 -2       238       239       389      1495      1947      1948
 -1       620    8    0    1
 -2       238       389       388      1948      1949      1944
 -1       621    8    0    1
 -2       239       240       390      1498      1950      1951
 -1       622    8    0    1
 -2       239       390       389      1951      1952      1947
 -1       623    8    0    1
 -2       240       241       391      1501      1953      1954
 -1       624    8    0    1
 -2       240       391       390      1954      1955      1950
 -1       625    8    0    1
 -2       241       242       392      1504      1956      1957
 -1       626    8    0    1
 -2       241       392       391      1957      1958      1953
 -1       627    8    0    1
 -2       242       243       393      1507      1959      1960
 -1       628    8    0    1
 -2       242       393       392      1960      1961      1956
 -1       629    8    0    1
 -2       243       244       394      1510      1962      1963
 -1       630    8    0    1
 -2       243       394       393      1963      1964      1959
 -1       631    8    0    1
 -2       244       245       395      1513      1965      1966
 -1       632    8    0    1
 -2       244       395       394      1966      1967      1962
 -1       633    8    0    1
 -2       245       246       396      1516      1968      1969
 -1       634    8    0    1
 -2       245       396       395      1969      1970      1965
 -1       635    8    0    1
 -2       246       247       397      1519      1971      1972
 -1       636    8    0    1
 -2       246       397       396      1972      1973      1968
 -1       637    8    0    1
 -2       247       248       398      1522      1974      1975
 -1       638    8    0    1
 -2       247       398       397      1975      1976      1971
 -1       639    8    0    1
 -2       248       249       399      1525      1977      1978
 -1       640    8    0    1
 -2       248       399       398      1978      1979      1974
 -1       641    8    0    1
 -2       249       250       400      1528      1980      1981
 -1       642    8    0    1
 -2       249       400       399      1981      1982      1977
 -1       643    8    0    1
 -2       250       251       401      1531      1983      1984
 -1       644    8    0    1
 -2       250       401       400      1984      1985      1980
 -1       645    8    0    1
 -2       251       252       402      1534      1986      1987
 -1       646    8    0    1
 -2       251       402       401      1987      1988      1983
 -1       647    8    0    1
 -2       252       253       403      1537      1989      1990
 -1       648    8    0    1
 -2       252       403       402      1990      1991      1986
 -1       649    8    0    1
 -2       253       254       404      1540      1992      1993
 -1       650    8    0    1
 -2       253       404       403      1993      1994      1989
 -1       651    8    0    1
 -2       254       255       405      1543      1995      1996
 -1       652    8    0    1
 -2       254       405       404      1996      1997      1992
 -1       653    8    0    1
 -2       255       256       406      1546      1998      1999
 -1       654    8    0    1
 -2       255       406       405      1999      2000      1995
 -1       655    8    0    1
 -2       256       257       407      1549      2001      2002
 -1       656    8    0    1
 -2       256       407       406      2002      2003      1998
 -1       657    8    0    1
 -2       257       258       408      1552      2004      2005
 -1       658    8    0    1
 -2       257       408       407      2005      2006      2001
 -1       659    8    0    1
 -2       258       259       409      1555      2007      2008
 -1       660    8    0    1
 -2       258       409       408      2008      2009      2004
 -1       661    8    0    1
 -2       259       260       410      1558      2010      2011
 -1       662    8    0    1
 -2       259       410       409      2011      2012      2007
 -1       663    8    0    1
 -2       260       261       411      1561      2013      2014
 -1       664    8    0    1
 -2       260       411       410      2014      2015      2010
 -1       665    8    0    1
 -2       261       262       412      1564      2016      2017
 -1       666    8    0    1
 -2       261       412       411      2017      2018      2013
 -1       667    8    0    1
 -2       262       263       413      1567      2019      2020
 -1       668    8    0    1
 -2       262       413       412      2020      2021      2016
 -1       669    8    0    1
 -2       263       264       414      1570      2022      2023
 -1       670    8    0    1
 -2       263       414       413      2023      2024      2019
 -1       671    8    0    1
 -2       264       265       415      1573      2025      2026
 -1       672    8    0    1
 -2       264       415       414      2026      2027      2022
 -1       673    8    0    1
 -2       265       266       416      1576      2028      2029
 -1       674    8    0    1
 -2       265       416       415      2029      2030      2025
 -1       675    8    0    1
 -2       266       267       417      1579      2031      2032
 -1       676    8    0    1
 -2       266       417       416      2032      2033      2028
 -1       677    8    0    1
 -2       267       268       418      1582      2034      2035
 -1       678    8    0    1
 -2       267       418       417      2035      2036      2031
 -1       679    8    0    1
 -2       268       269       419      1585      2037      2038
 -1       680    8    0    1
 -2       268       419       418      2038      2039      2034
 -1       681    8    0    1
 -2       269       270       420      1588      2040      2041
 -1       682    8    0    1
 -2       269       420       419      2041      2042      2037
 -1       683    8    0    1
 -2       270       271       421      1591      2043      2044
 -1       684    8    0    1
 -2       270       421       420      2044      2045      2040
 -1       685    8    0    1
 -2       271       272       422      1594      2046      2047
 -1       686    8    0    1
 -2       271       422       421      2047      2048      2043
 -1       687    8    0    1
 -2       272       273       423      1597      2049      2050
 -1       688    8    0    1
 -2       272       423       422      2050      2051      2046
 -1       689    8    0    1
 -2       273       274       424      1600      2052      2053
 -1       690    8    0    1
 -2       273       424       423      2053      2054      2049
 -1       691    8    0    1
 -2       274       275       425      1603      2055      2056
 -1       692    8    0    1
 -2       274       425       424      2056      2057      2052
 -1       693    8    0    1
 -2       275       276       426      1606      2058      2059
 -1       694    8    0    1
 -2       425       275       426      2055      2059      2060
 -1       695    8    0    1
 -2       276       277       426      1714      2061      2058
 -1       696    8    0    1
 -2       279       280       427      1618      2062      2063
 -1       697    8    0    1
 -2       278       279       428      1615      2064      2065
 -1       698    8    0    1
 -2       279       427       428      2063      2066      2064
 -1       699    8    0    1
 -2       277       278       426      1612      2067      2061
 -1       700    8    0    1
 -2       280       281       429      1621      2068      2069
 -1       701    8    0    1
 -2       280       429       427      2069      2070      2062
 -1       702    8    0    1
 -2       281       282       430      1624      2071      2072
 -1       703    8    0    1
 -2       281       430       429      2072      2073      2068
 -1       704    8    0    1
 -2       282       283       431      1627      2074      2075
 -1       705    8    0    1
 -2       282       431       430      2075      2076      2071
 -1       706    8    0    1
 -2       283       284       432      1630      2077      2078
 -1       707    8    0    1
 -2       283       432       431      2078      2079      2074
 -1       708    8    0    1
 -2       284       285       433      1633      2080      2081
 -1       709    8    0    1
 -2       284       433       432      2081      2082      2077
 -1       710    8    0    1
 -2       285       286       434      1636      2083      2084
 -1       711    8    0    1
 -2       285       434       433      2084      2085      2080
 -1       712    8    0    1
 -2       286       287       435      1639      2086      2087
 -1       713    8    0    1
 -2       286       435       434      2087      2088      2083
 -1       714    8    0    1
 -2       287       288       436      1642      2089      2090
 -1       715    8    0    1
 -2       287       436       435      2090      2091      2086
 -1       716    8    0    1
 -2       288       289       437      1645      2092      2093
 -1       717    8    0    1
 -2       288       437       436      2093      2094      2089
 -1       718    8    0    1
 -2       289       290       438      1648      2095      2096
 -1       719    8    0    1
 -2       289       438       437      2096      2097      2092
 -1       720    8    0    1
 -2       230       231       439      1471      2098      2099
 -1       721    8    0    1
 -2       335       230       439      1785      2099      2100
 -1       722    8    0    1
 -2       231       382       439      1928      2101      2098
 -1       723    8    0    1
 -2       293       294       440      1716      2102      2103
 -1       724    8    0    1
 -2       295       296       441      1717      2104      2105
 -1       725    8    0    1
 -2       320       292       442      1712      2106      2107
 -1       726    8    0    1
 -2       294       295       443      1711      2108      2109
 -1       727    8    0    1
 -2       294       443       440      2109      2110      2102
 -1       728    8    0    1
 -2       166       167       444      1278      2111      2112
 -1       729    8    0    1
 -2       321       166       444      1743      2112      2113
 -1       730    8    0    1
 -2       167       323       444      1749      2114      2111
 -1       731    8    0    1
 -2       296       297       445      1718      2115      2116
 -1       732    8    0    1
 -2       297       298       446      1719      2117      2118
 -1       733    8    0    1
 -2       298       299       447      1720      2119      2120
 -1       734    8    0    1
 -2       299       300       448      1721      2121      2122
 -1       735    8    0    1
 -2       300       301       449      1722      2123      2124
 -1       736    8    0    1
 -2       301       302       450      1723      2125      2126
 -1       737    8    0    1
 -2       301       450       449      2126      2127      2123
 -1       738    8    0    1
 -2       302       303       451      1724      2128      2129
 -1       739    8    0    1
 -2       303       304       452      1725      2130      2131
 -1       740    8    0    1
 -2       304       305       453      1726      2132      2133
 -1       741    8    0    1
 -2       304       453       452      2133      2134      2130
 -1       742    8    0    1
 -2       305       306       454      1727      2135      2136
 -1       743    8    0    1
 -2       306       307       455      1728      2137      2138
 -1       744    8    0    1
 -2       306       455       454      2138      2139      2135
 -1       745    8    0    1
 -2       307       308       456      1729      2140      2141
 -1       746    8    0    1
 -2       308       309       457      1730      2142      2143
 -1       747    8    0    1
 -2       309       310       458      1731      2144      2145
 -1       748    8    0    1
 -2       310       311       459      1732      2146      2147
 -1       749    8    0    1
 -2       311       312       460      1733      2148      2149
 -1       750    8    0    1
 -2       312       313       461      1734      2150      2151
 -1       751    8    0    1
 -2       313       314       462      1735      2152      2153
 -1       752    8    0    1
 -2       314       315       463      1736      2154      2155
 -1       753    8    0    1
 -2       315       316       464      1737      2156      2157
 -1       754    8    0    1
 -2       315       464       463      2157      2158      2154
 -1       755    8    0    1
 -2       316       317       465      1738      2159      2160
 -1       756    8    0    1
 -2       317       318       466      1739      2161      2162
 -1       757    8    0    1
 -2       318       319       467      1740      2163      2164
 -1       758    8    0    1
 -2       319       320       468      1741      2165      2166
 -1       759    8    0    1
 -2       292       293       469      1715      2167      2168
 -1       760    8    0    1
 -2       291       227       381      1926      1924      2169
 -1       761    8    0    1
 -2       443       295       470      2108      2170      2171
 -1       762    8    0    1
 -2       295       441       470      2105      2172      2170
 -1       763    8    0    1
 -2       180       322       181      1788      2173      1320
 -1       764    8    0    1
 -2       447       299       448      2119      2122      2174
 -1       765    8    0    1
 -2       296       445       441      2116      2175      2104
 -1       766    8    0    1
 -2       336       181       322      1789      2173      2176
 -1       767    8    0    1
 -2       426       278       428      2067      2065      2177
 -1       768    8    0    1
 -2       442       292       469      2106      2168      2178
 -1       769    8    0    1
 -2       290       291       381      1651      2169      2179
 -1       770    8    0    1
 -2       293       440       469      2103      2180      2167
 -1       771    8    0    1
 -2       320       442       468      2107      2181      2165
 -1       772    8    0    1
 -2       467       319       468      2163      2166      2182
 -1       773    8    0    1
 -2       466       318       467      2161      2164      2183
 -1       774    8    0    1
 -2       464       316       471      2156      2184      2185
 -1       775    8    0    1
 -2       316       465       471      2160      2186      2184
 -1       776    8    0    1
 -2       462       314       463      2152      2155      2187
 -1       777    8    0    1
 -2       461       313       462      2150      2153      2188
 -1       778    8    0    1
 -2       460       312       461      2148      2151      2189
 -1       779    8    0    1
 -2       459       311       460      2146      2149      2190
 -1       780    8    0    1
 -2       458       310       459      2144      2147      2191
 -1       781    8    0    1
 -2       457       309       458      2142      2145      2192
 -1       782    8    0    1
 -2       455       307       456      2137      2141      2193
 -1       783    8    0    1
 -2       453       305       454      2132      2136      2194
 -1       784    8    0    1
 -2       450       302       451      2125      2129      2195
 -1       785    8    0    1
 -2       448       300       449      2121      2124      2196
 -1       786    8    0    1
 -2       445       297       446      2115      2118      2197
 -1       787    8    0    1
 -2       446       298       447      2117      2120      2198
 -1       788    8    0    1
 -2       451       303       452      2128      2131      2199
 -1       789    8    0    1
 -2       456       308       457      2140      2143      2200
 -1       790    8    0    1
 -2       465       317       466      2159      2162      2201
 -1       791    8    0    1
 -2       290       381       438      2179      2202      2095
 -1       792    8    0    1
 -2       324       325       472      1755      2203      2204
 -1       793    8    0    1
 -2       323       324       473      1752      2205      2206
 -1       794    8    0    1
 -2       324       472       473      2204      2207      2205
 -1       795    8    0    1
 -2       326       327       474      1761      2208      2209
 -1       796    8    0    1
 -2       327       328       475      1764      2210      2211
 -1       797    8    0    1
 -2       327       475       474      2211      2212      2208
 -1       798    8    0    1
 -2       328       329       476      1767      2213      2214
 -1       799    8    0    1
 -2       328       476       475      2214      2215      2210
 -1       800    8    0    1
 -2       329       330       477      1770      2216      2217
 -1       801    8    0    1
 -2       329       477       476      2217      2218      2213
 -1       802    8    0    1
 -2       330       331       478      1773      2219      2220
 -1       803    8    0    1
 -2       330       478       477      2220      2221      2216
 -1       804    8    0    1
 -2       331       332       479      1776      2222      2223
 -1       805    8    0    1
 -2       331       479       478      2223      2224      2219
 -1       806    8    0    1
 -2       332       333       480      1779      2225      2226
 -1       807    8    0    1
 -2       332       480       479      2226      2227      2222
 -1       808    8    0    1
 -2       333       334       481      1782      2228      2229
 -1       809    8    0    1
 -2       480       333       481      2225      2229      2230
 -1       810    8    0    1
 -2       334       335       481      1787      2231      2228
 -1       811    8    0    1
 -2       337       336       482      1793      2232      2233
 -1       812    8    0    1
 -2       447       448       483      2174      2234      2235
 -1       813    8    0    1
 -2       338       337       484      1796      2236      2237
 -1       814    8    0    1
 -2       337       482       484      2233      2238      2236
 -1       815    8    0    1
 -2       339       338       485      1799      2239      2240
 -1       816    8    0    1
 -2       338       484       485      2237      2241      2239
 -1       817    8    0    1
 -2       340       339       486      1802      2242      2243
 -1       818    8    0    1
 -2       339       485       486      2240      2244      2242
 -1       819    8    0    1
 -2       341       340       487      1805      2245      2246
 -1       820    8    0    1
 -2       340       486       487      2243      2247      2245
 -1       821    8    0    1
 -2       342       341       488      1808      2248      2249
 -1       822    8    0    1
 -2       341       487       488      2246      2250      2248
 -1       823    8    0    1
 -2       343       342       489      1811      2251      2252
 -1       824    8    0    1
 -2       342       488       489      2249      2253      2251
 -1       825    8    0    1
 -2       344       343       490      1814      2254      2255
 -1       826    8    0    1
 -2       343       489       490      2252      2256      2254
 -1       827    8    0    1
 -2       345       344       491      1817      2257      2258
 -1       828    8    0    1
 -2       344       490       491      2255      2259      2257
 -1       829    8    0    1
 -2       346       345       492      1820      2260      2261
 -1       830    8    0    1
 -2       345       491       492      2258      2262      2260
 -1       831    8    0    1
 -2       347       346       493      1823      2263      2264
 -1       832    8    0    1
 -2       346       492       493      2261      2265      2263
 -1       833    8    0    1
 -2       348       347       494      1826      2266      2267
 -1       834    8    0    1
 -2       347       493       494      2264      2268      2266
 -1       835    8    0    1
 -2       349       348       495      1829      2269      2270
 -1       836    8    0    1
 -2       348       494       495      2267      2271      2269
 -1       837    8    0    1
 -2       350       349       496      1832      2272      2273
 -1       838    8    0    1
 -2       349       495       496      2270      2274      2272
 -1       839    8    0    1
 -2       351       350       497      1835      2275      2276
 -1       840    8    0    1
 -2       350       496       497      2273      2277      2275
 -1       841    8    0    1
 -2       352       351       498      1838      2278      2279
 -1       842    8    0    1
 -2       351       497       498      2276      2280      2278
 -1       843    8    0    1
 -2       353       352       499      1841      2281      2282
 -1       844    8    0    1
 -2       352       498       499      2279      2283      2281
 -1       845    8    0    1
 -2       354       353       500      1844      2284      2285
 -1       846    8    0    1
 -2       353       499       500      2282      2286      2284
 -1       847    8    0    1
 -2       355       354       501      1847      2287      2288
 -1       848    8    0    1
 -2       354       500       501      2285      2289      2287
 -1       849    8    0    1
 -2       356       355       502      1850      2290      2291
 -1       850    8    0    1
 -2       355       501       502      2288      2292      2290
 -1       851    8    0    1
 -2       357       356       503      1853      2293      2294
 -1       852    8    0    1
 -2       356       502       503      2291      2295      2293
 -1       853    8    0    1
 -2       358       357       504      1856      2296      2297
 -1       854    8    0    1
 -2       357       503       504      2294      2298      2296
 -1       855    8    0    1
 -2       359       358       505      1859      2299      2300
 -1       856    8    0    1
 -2       358       504       505      2297      2301      2299
 -1       857    8    0    1
 -2       360       359       506      1862      2302      2303
 -1       858    8    0    1
 -2       359       505       506      2300      2304      2302
 -1       859    8    0    1
 -2       361       360       507      1865      2305      2306
 -1       860    8    0    1
 -2       360       506       507      2303      2307      2305
 -1       861    8    0    1
 -2       362       361       508      1868      2308      2309
 -1       862    8    0    1
 -2       361       507       508      2306      2310      2308
 -1       863    8    0    1
 -2       363       362       509      1871      2311      2312
 -1       864    8    0    1
 -2       362       508       509      2309      2313      2311
 -1       865    8    0    1
 -2       364       363       510      1874      2314      2315
 -1       866    8    0    1
 -2       363       509       510      2312      2316      2314
 -1       867    8    0    1
 -2       365       364       511      1877      2317      2318
 -1       868    8    0    1
 -2       364       510       511      2315      2319      2317
 -1       869    8    0    1
 -2       366       365       512      1880      2320      2321
 -1       870    8    0    1
 -2       365       511       512      2318      2322      2320
 -1       871    8    0    1
 -2       367       366       513      1883      2323      2324
 -1       872    8    0    1
 -2       366       512       513      2321      2325      2323
 -1       873    8    0    1
 -2       368       367       514      1886      2326      2327
 -1       874    8    0    1
 -2       367       513       514      2324      2328      2326
 -1       875    8    0    1
 -2       369       368       515      1889      2329      2330
 -1       876    8    0    1
 -2       368       514       515      2327      2331      2329
 -1       877    8    0    1
 -2       370       369       516      1892      2332      2333
 -1       878    8    0    1
 -2       369       515       516      2330      2334      2332
 -1       879    8    0    1
 -2       371       370       517      1895      2335      2336
 -1       880    8    0    1
 -2       370       516       517      2333      2337      2335
 -1       881    8    0    1
 -2       372       371       518      1898      2338      2339
 -1       882    8    0    1
 -2       371       517       518      2336      2340      2338
 -1       883    8    0    1
 -2       373       372       519      1901      2341      2342
 -1       884    8    0    1
 -2       372       518       519      2339      2343      2341
 -1       885    8    0    1
 -2       374       373       520      1904      2344      2345
 -1       886    8    0    1
 -2       373       519       520      2342      2346      2344
 -1       887    8    0    1
 -2       375       374       521      1907      2347      2348
 -1       888    8    0    1
 -2       374       520       521      2345      2349      2347
 -1       889    8    0    1
 -2       376       375       522      1910      2350      2351
 -1       890    8    0    1
 -2       375       521       522      2348      2352      2350
 -1       891    8    0    1
 -2       377       376       523      1913      2353      2354
 -1       892    8    0    1
 -2       376       522       523      2351      2355      2353
 -1       893    8    0    1
 -2       378       377       524      1916      2356      2357
 -1       894    8    0    1
 -2       377       523       524      2354      2358      2356
 -1       895    8    0    1
 -2       379       378       525      1919      2359      2360
 -1       896    8    0    1
 -2       378       524       525      2357      2361      2359
 -1       897    8    0    1
 -2       380       379       526      1922      2362      2363
 -1       898    8    0    1
 -2       379       525       526      2360      2364      2362
 -1       899    8    0    1
 -2       381       380       527      1925      2365      2366
 -1       900    8    0    1
 -2       438       381       527      2202      2366      2367
 -1       901    8    0    1
 -2       380       526       527      2363      2368      2365
 -1       902    8    0    1
 -2       384       385       528      1937      2369      2370
 -1       903    8    0    1
 -2       383       384       529      1934      2371      2372
 -1       904    8    0    1
 -2       384       528       529      2370      2373      2371
 -1       905    8    0    1
 -2       382       383       530      1931      2374      2375
 -1       906    8    0    1
 -2       383       529       530      2372      2376      2374
 -1       907    8    0    1
 -2       385       386       531      1940      2377      2378
 -1       908    8    0    1
 -2       385       531       528      2378      2379      2369
 -1       909    8    0    1
 -2       386       387       532      1943      2380      2381
 -1       910    8    0    1
 -2       386       532       531      2381      2382      2377
 -1       911    8    0    1
 -2       387       388       533      1946      2383      2384
 -1       912    8    0    1
 -2       387       533       532      2384      2385      2380
 -1       913    8    0    1
 -2       388       389       534      1949      2386      2387
 -1       914    8    0    1
 -2       388       534       533      2387      2388      2383
 -1       915    8    0    1
 -2       389       390       535      1952      2389      2390
 -1       916    8    0    1
 -2       389       535       534      2390      2391      2386
 -1       917    8    0    1
 -2       390       391       536      1955      2392      2393
 -1       918    8    0    1
 -2       390       536       535      2393      2394      2389
 -1       919    8    0    1
 -2       391       392       537      1958      2395      2396
 -1       920    8    0    1
 -2       391       537       536      2396      2397      2392
 -1       921    8    0    1
 -2       392       393       538      1961      2398      2399
 -1       922    8    0    1
 -2       392       538       537      2399      2400      2395
 -1       923    8    0    1
 -2       393       394       539      1964      2401      2402
 -1       924    8    0    1
 -2       393       539       538      2402      2403      2398
 -1       925    8    0    1
 -2       394       395       540      1967      2404      2405
 -1       926    8    0    1
 -2       394       540       539      2405      2406      2401
 -1       927    8    0    1
 -2       395       396       541      1970      2407      2408
 -1       928    8    0    1
 -2       395       541       540      2408      2409      2404
 -1       929    8    0    1
 -2       396       397       542      1973      2410      2411
 -1       930    8    0    1
 -2       396       542       541      2411      2412      2407
 -1       931    8    0    1
 -2       397       398       543      1976      2413      2414
 -1       932    8    0    1
 -2       397       543       542      2414      2415      2410
 -1       933    8    0    1
 -2       398       399       544      1979      2416      2417
 -1       934    8    0    1
 -2       398       544       543      2417      2418      2413
 -1       935    8    0    1
 -2       399       400       545      1982      2419      2420
 -1       936    8    0    1
 -2       399       545       544      2420      2421      2416
 -1       937    8    0    1
 -2       400       401       546      1985      2422      2423
 -1       938    8    0    1
 -2       400       546       545      2423      2424      2419
 -1       939    8    0    1
 -2       401       402       547      1988      2425      2426
 -1       940    8    0    1
 -2       401       547       546      2426      2427      2422
 -1       941    8    0    1
 -2       402       403       548      1991      2428      2429
 -1       942    8    0    1
 -2       402       548       547      2429      2430      2425
 -1       943    8    0    1
 -2       403       404       549      1994      2431      2432
 -1       944    8    0    1
 -2       403       549       548      2432      2433      2428
 -1       945    8    0    1
 -2       404       405       550      1997      2434      2435
 -1       946    8    0    1
 -2       404       550       549      2435      2436      2431
 -1       947    8    0    1
 -2       405       406       551      2000      2437      2438
 -1       948    8    0    1
 -2       405       551       550      2438      2439      2434
 -1       949    8    0    1
 -2       406       407       552      2003      2440      2441
 -1       950    8    0    1
 -2       406       552       551      2441      2442      2437
 -1       951    8    0    1
 -2       407       408       553      2006      2443      2444
 -1       952    8    0    1
 -2       407       553       552      2444      2445      2440
 -1       953    8    0    1
 -2       408       409       554      2009      2446      2447
 -1       954    8    0    1
 -2       408       554       553      2447      2448      2443
 -1       955    8    0    1
 -2       409       410       555      2012      2449      2450
 -1       956    8    0    1
 -2       409       555       554      2450      2451      2446
 -1       957    8    0    1
 -2       410       411       556      2015      2452      2453
 -1       958    8    0    1
 -2       410       556       555      2453      2454      2449
 -1       959    8    0    1
 -2       411       412       557      2018      2455      2456
 -1       960    8    0    1
 -2       411       557       556      2456      2457      2452
 -1       961    8    0    1
 -2       412       413       558      2021      2458      2459
 -1       962    8    0    1
 -2       412       558       557      2459      2460      2455
 -1       963    8    0    1
 -2       413       414       559      2024      2461      2462
 -1       964    8    0    1
 -2       413       559       558      2462      2463      2458
 -1       965    8    0    1
 -2       414       415       560      2027      2464      2465
 -1       966    8    0    1
 -2       414       560       559      2465      2466      2461
 -1       967    8    0    1
 -2       415       416       561      2030      2467      2468
 -1       968    8    0    1
 -2       415       561       560      2468      2469      2464
 -1       969    8    0    1
 -2       416       417       562      2033      2470      2471
 -1       970    8    0    1
 -2       416       562       561      2471      2472      2467
 -1       971    8    0    1
 -2       417       418       563      2036      2473      2474
 -1       972    8    0    1
 -2       417       563       562      2474      2475      2470
 -1       973    8    0    1
 -2       418       419       564      2039      2476      2477
 -1       974    8    0    1
 -2       418       564       563      2477      2478      2473
 -1       975    8    0    1
 -2       419       420       565      2042      2479      2480
 -1       976    8    0    1
 -2       419       565       564      2480      2481      2476
 -1       977    8    0    1
 -2       420       421       566      2045      2482      2483
 -1       978    8    0    1
 -2       420       566       565      2483      2484      2479
 -1       979    8    0    1
 -2       421       422       567      2048      2485      2486
 -1       980    8    0    1
 -2       421       567       566      2486      2487      2482
 -1       981    8    0    1
 -2       422       423       568      2051      2488      2489
 -1       982    8    0    1
 -2       422       568       567      2489      2490      2485
 -1       983    8    0    1
 -2       423       424       569      2054      2491      2492
 -1       984    8    0    1
 -2       423       569       568      2492      2493      2488
 -1       985    8    0    1
 -2       424       425       570      2057      2494      2495
 -1       986    8    0    1
 -2       424       570       569      2495      2496      2491
 -1       987    8    0    1
 -2       425       426       428      2060      2177      2497
 -1       988    8    0    1
 -2       429       430       571      2073      2498      2499
 -1       989    8    0    1
 -2       427       429       572      2070      2500      2501
 -1       990    8    0    1
 -2       429       571       572      2499      2502      2500
 -1       991    8    0    1
 -2       428       427       573      2066      2503      2504
 -1       992    8    0    1
 -2       427       572       573      2501      2505      2503
 -1       993    8    0    1
 -2       442       469       574      2178      2506      2507
 -1       994    8    0    1
 -2       430       431       575      2076      2508      2509
 -1       995    8    0    1
 -2       430       575       571      2509      2510      2498
 -1       996    8    0    1
 -2       431       432       576      2079      2511      2512
 -1       997    8    0    1
 -2       431       576       575      2512      2513      2508
 -1       998    8    0    1
 -2       432       433       577      2082      2514      2515
 -1       999    8    0    1
 -2       432       577       576      2515      2516      2511
 -1      1000    8    0    1
 -2       433       434       578      2085      2517      2518
 -1      1001    8    0    1
 -2       433       578       577      2518      2519      2514
 -1      1002    8    0    1
 -2       434       435       579      2088      2520      2521
 -1      1003    8    0    1
 -2       434       579       578      2521      2522      2517
 -1      1004    8    0    1
 -2       435       436       580      2091      2523      2524
 -1      1005    8    0    1
 -2       435       580       579      2524      2525      2520
 -1      1006    8    0    1
 -2       436       437       581      2094      2526      2527
 -1      1007    8    0    1
 -2       436       581       580      2527      2528      2523
 -1      1008    8    0    1
 -2       437       438       582      2097      2529      2530
 -1      1009    8    0    1
 -2       581       437       582      2526      2530      2531
 -1      1010    8    0    1
 -2       438       527       582      2367      2532      2529
 -1      1011    8    0    1
 -2       336       322       583      2176      2533      2534
 -1      1012    8    0    1
 -2       482       336       583      2232      2534      2535
 -1      1013    8    0    1
 -2       322       321       583      1747      2536      2533
 -1      1014    8    0    1
 -2       440       443       584      2110      2537      2538
 -1      1015    8    0    1
 -2       468       442       585      2181      2539      2540
 -1      1016    8    0    1
 -2       442       574       585      2507      2541      2539
 -1      1017    8    0    1
 -2       467       468       586      2182      2542      2543
 -1      1018    8    0    1
 -2       462       463       587      2187      2544      2545
 -1      1019    8    0    1
 -2       450       451       588      2195      2546      2547
 -1      1020    8    0    1
 -2       448       449       589      2196      2548      2549
 -1      1021    8    0    1
 -2       325       326       590      1758      2550      2551
 -1      1022    8    0    1
 -2       472       325       590      2203      2551      2552
 -1      1023    8    0    1
 -2       326       474       590      2209      2553      2550
 -1      1024    8    0    1
 -2       446       447       591      2198      2554      2555
 -1      1025    8    0    1
 -2       451       452       592      2199      2556      2557
 -1      1026    8    0    1
 -2       441       445       593      2175      2558      2559
 -1      1027    8    0    1
 -2       445       446       594      2197      2560      2561
 -1      1028    8    0    1
 -2       449       450       595      2127      2562      2563
 -1      1029    8    0    1
 -2       450       588       595      2547      2564      2562
 -1      1030    8    0    1
 -2       456       457       596      2200      2565      2566
 -1      1031    8    0    1
 -2       452       453       597      2134      2567      2568
 -1      1032    8    0    1
 -2       453       454       598      2194      2569      2570
 -1      1033    8    0    1
 -2       454       455       599      2139      2571      2572
 -1      1034    8    0    1
 -2       465       466       600      2201      2573      2574
 -1      1035    8    0    1
 -2       455       456       601      2193      2575      2576
 -1      1036    8    0    1
 -2       457       458       602      2192      2577      2578
 -1      1037    8    0    1
 -2       458       459       603      2191      2579      2580
 -1      1038    8    0    1
 -2       459       460       604      2190      2581      2582
 -1      1039    8    0    1
 -2       459       604       603      2582      2583      2579
 -1      1040    8    0    1
 -2       460       461       605      2189      2584      2585
 -1      1041    8    0    1
 -2       461       462       606      2188      2586      2587
 -1      1042    8    0    1
 -2       463       464       607      2158      2588      2589
 -1      1043    8    0    1
 -2       466       467       608      2183      2590      2591
 -1      1044    8    0    1
 -2       469       440       609      2180      2592      2593
 -1      1045    8    0    1
 -2       425       428       570      2497      2594      2494
 -1      1046    8    0    1
 -2       470       441       593      2172      2559      2595
 -1      1047    8    0    1
 -2       323       473       610      2206      2596      2597
 -1      1048    8    0    1
 -2       323       610       444      2597      2598      2114
 -1      1049    8    0    1
 -2       584       443       611      2537      2599      2600
 -1      1050    8    0    1
 -2       443       470       611      2171      2601      2599
 -1      1051    8    0    1
 -2       481       335       612      2231      2602      2603
 -1      1052    8    0    1
 -2       335       439       612      2100      2604      2602
 -1      1053    8    0    1
 -2       483       448       589      2234      2549      2605
 -1      1054    8    0    1
 -2       321       444       613      2113      2606      2607
 -1      1055    8    0    1
 -2       583       321       613      2536      2607      2608
 -1      1056    8    0    1
 -2       444       610       613      2598      2609      2606
 -1      1057    8    0    1
 -2       447       483       591      2235      2610      2554
 -1      1058    8    0    1
 -2       467       586       608      2543      2611      2590
 -1      1059    8    0    1
 -2       574       469       609      2506      2593      2612
 -1      1060    8    0    1
 -2       609       440       584      2592      2538      2613
 -1      1061    8    0    1
 -2       587       463       607      2544      2589      2614
 -1      1062    8    0    1
 -2       446       591       594      2555      2615      2560
 -1      1063    8    0    1
 -2       439       382       614      2101      2616      2617
 -1      1064    8    0    1
 -2       612       439       614      2604      2617      2618
 -1      1065    8    0    1
 -2       382       530       614      2375      2619      2616
 -1      1066    8    0    1
 -2       607       464       471      2588      2185      2620
 -1      1067    8    0    1
 -2       606       462       587      2586      2545      2621
 -1      1068    8    0    1
 -2       428       573       570      2504      2622      2594
 -1      1069    8    0    1
 -2       604       460       605      2581      2585      2623
 -1      1070    8    0    1
 -2       468       585       586      2540      2624      2542
 -1      1071    8    0    1
 -2       471       465       600      2186      2574      2625
 -1      1072    8    0    1
 -2       602       458       603      2577      2580      2626
 -1      1073    8    0    1
 -2       456       596       601      2566      2627      2575
 -1      1074    8    0    1
 -2       600       466       608      2573      2591      2628
 -1      1075    8    0    1
 -2       599       455       601      2571      2576      2629
 -1      1076    8    0    1
 -2       598       454       599      2569      2572      2630
 -1      1077    8    0    1
 -2       597       453       598      2567      2570      2631
 -1      1078    8    0    1
 -2       593       445       594      2558      2561      2632
 -1      1079    8    0    1
 -2       589       449       615      2548      2633      2634
 -1      1080    8    0    1
 -2       449       595       615      2563      2635      2633
 -1      1081    8    0    1
 -2       592       452       597      2556      2568      2636
 -1      1082    8    0    1
 -2       588       451       592      2546      2557      2637
 -1      1083    8    0    1
 -2       596       457       602      2565      2578      2638
 -1      1084    8    0    1
 -2       605       461       606      2584      2587      2639
 -1      1085    8    0    1
 -2       475       476       616      2215      2640      2641
 -1      1086    8    0    1
 -2       474       475       617      2212      2642      2643
 -1      1087    8    0    1
 -2       475       616       617      2641      2644      2642
 -1      1088    8    0    1
 -2       477       478       618      2221      2645      2646
 -1      1089    8    0    1
 -2       478       479       619      2224      2647      2648
 -1      1090    8    0    1
 -2       478       619       618      2648      2649      2645
 -1      1091    8    0    1
 -2       480       481       620      2230      2650      2651
 -1      1092    8    0    1
 -2       481       612       620      2603      2652      2650
 -1      1093    8    0    1
 -2       607       471       621      2620      2653      2654
 -1      1094    8    0    1
 -2       485       484       622      2241      2655      2656
 -1      1095    8    0    1
 -2       486       485       623      2244      2657      2658
 -1      1096    8    0    1
 -2       485       622       623      2656      2659      2657
 -1      1097    8    0    1
 -2       487       486       624      2247      2660      2661
 -1      1098    8    0    1
 -2       486       623       624      2658      2662      2660
 -1      1099    8    0    1
 -2       488       487       625      2250      2663      2664
 -1      1100    8    0    1
 -2       487       624       625      2661      2665      2663
 -1      1101    8    0    1
 -2       494       493       621      2268      2666      2667
 -1      1102    8    0    1
 -2       495       494       626      2271      2668      2669
 -1      1103    8    0    1
 -2       496       495       627      2274      2670      2671
 -1      1104    8    0    1
 -2       495       626       627      2669      2672      2670
 -1      1105    8    0    1
 -2       497       496       628      2277      2673      2674
 -1      1106    8    0    1
 -2       496       627       628      2671      2675      2673
 -1      1107    8    0    1
 -2       498       497       629      2280      2676      2677
 -1      1108    8    0    1
 -2       497       628       629      2674      2678      2676
 -1      1109    8    0    1
 -2       499       498       630      2283      2679      2680
 -1      1110    8    0    1
 -2       498       629       630      2677      2681      2679
 -1      1111    8    0    1
 -2       500       499       631      2286      2682      2683
 -1      1112    8    0    1
 -2       499       630       631      2680      2684      2682
 -1      1113    8    0    1
 -2       501       500       632      2289      2685      2686
 -1      1114    8    0    1
 -2       500       631       632      2683      2687      2685
 -1      1115    8    0    1
 -2       502       501       633      2292      2688      2689
 -1      1116    8    0    1
 -2       501       632       633      2686      2690      2688
 -1      1117    8    0    1
 -2       503       502       634      2295      2691      2692
 -1      1118    8    0    1
 -2       502       633       634      2689      2693      2691
 -1      1119    8    0    1
 -2       504       503       635      2298      2694      2695
 -1      1120    8    0    1
 -2       503       634       635      2692      2696      2694
 -1      1121    8    0    1
 -2       505       504       636      2301      2697      2698
 -1      1122    8    0    1
 -2       504       635       636      2695      2699      2697
 -1      1123    8    0    1
 -2       506       505       637      2304      2700      2701
 -1      1124    8    0    1
 -2       505       636       637      2698      2702      2700
 -1      1125    8    0    1
 -2       507       506       638      2307      2703      2704
 -1      1126    8    0    1
 -2       506       637       638      2701      2705      2703
 -1      1127    8    0    1
 -2       508       507       639      2310      2706      2707
 -1      1128    8    0    1
 -2       507       638       639      2704      2708      2706
 -1      1129    8    0    1
 -2       509       508       640      2313      2709      2710
 -1      1130    8    0    1
 -2       508       639       640      2707      2711      2709
 -1      1131    8    0    1
 -2       510       509       641      2316      2712      2713
 -1      1132    8    0    1
 -2       509       640       641      2710      2714      2712
 -1      1133    8    0    1
 -2       511       510       642      2319      2715      2716
 -1      1134    8    0    1
 -2       510       641       642      2713      2717      2715
 -1      1135    8    0    1
 -2       512       511       643      2322      2718      2719
 -1      1136    8    0    1
 -2       511       642       643      2716      2720      2718
 -1      1137    8    0    1
 -2       513       512       644      2325      2721      2722
 -1      1138    8    0    1
 -2       512       643       644      2719      2723      2721
 -1      1139    8    0    1
 -2       514       513       645      2328      2724      2725
 -1      1140    8    0    1
 -2       513       644       645      2722      2726      2724
 -1      1141    8    0    1
 -2       515       514       646      2331      2727      2728
 -1      1142    8    0    1
 -2       514       645       646      2725      2729      2727
 -1      1143    8    0    1
 -2       516       515       647      2334      2730      2731
 -1      1144    8    0    1
 -2       515       646       647      2728      2732      2730
 -1      1145    8    0    1
 -2       517       516       648      2337      2733      2734
 -1      1146    8    0    1
 -2       516       647       648      2731      2735      2733
 -1      1147    8    0    1
 -2       518       517       649      2340      2736      2737
 -1      1148    8    0    1
 -2       517       648       649      2734      2738      2736
 -1      1149    8    0    1
 -2       519       518       650      2343      2739      2740
 -1      1150    8    0    1
 -2       518       649       650      2737      2741      2739
 -1      1151    8    0    1
 -2       520       519       651      2346      2742      2743
 -1      1152    8    0    1
 -2       519       650       651      2740      2744      2742
 -1      1153    8    0    1
 -2       521       520       652      2349      2745      2746
 -1      1154    8    0    1
 -2       520       651       652      2743      2747      2745
 -1      1155    8    0    1
 -2       522       521       653      2352      2748      2749
 -1      1156    8    0    1
 -2       521       652       653      2746      2750      2748
 -1      1157    8    0    1
 -2       523       522       654      2355      2751      2752
 -1      1158    8    0    1
 -2       522       653       654      2749      2753      2751
 -1      1159    8    0    1
 -2       524       523       655      2358      2754      2755
 -1      1160    8    0    1
 -2       523       654       655      2752      2756      2754
 -1      1161    8    0    1
 -2       525       524       656      2361      2757      2758
 -1      1162    8    0    1
 -2       524       655       656      2755      2759      2757
 -1      1163    8    0    1
 -2       526       525       657      2364      2760      2761
 -1      1164    8    0    1
 -2       525       656       657      2758      2762      2760
 -1      1165    8    0    1
 -2       527       526       658      2368      2763      2764
 -1      1166    8    0    1
 -2       582       527       658      2532      2764      2765
 -1      1167    8    0    1
 -2       526       657       658      2761      2766      2763
 -1      1168    8    0    1
 -2       529       528       659      2373      2767      2768
 -1      1169    8    0    1
 -2       528       531       660      2379      2769      2770
 -1      1170    8    0    1
 -2       528       660       659      2770      2771      2767
 -1      1171    8    0    1
 -2       530       529       661      2376      2772      2773
 -1      1172    8    0    1
 -2       529       659       661      2768      2774      2772
 -1      1173    8    0    1
 -2       532       533       662      2385      2775      2776
 -1      1174    8    0    1
 -2       533       534       663      2388      2777      2778
 -1      1175    8    0    1
 -2       533       663       662      2778      2779      2775
 -1      1176    8    0    1
 -2       534       535       664      2391      2780      2781
 -1      1177    8    0    1
 -2       534       664       663      2781      2782      2777
 -1      1178    8    0    1
 -2       535       536       665      2394      2783      2784
 -1      1179    8    0    1
 -2       535       665       664      2784      2785      2780
 -1      1180    8    0    1
 -2       536       537       666      2397      2786      2787
 -1      1181    8    0    1
 -2       536       666       665      2787      2788      2783
 -1      1182    8    0    1
 -2       537       538       667      2400      2789      2790
 -1      1183    8    0    1
 -2       537       667       666      2790      2791      2786
 -1      1184    8    0    1
 -2       538       539       668      2403      2792      2793
 -1      1185    8    0    1
 -2       538       668       667      2793      2794      2789
 -1      1186    8    0    1
 -2       539       540       669      2406      2795      2796
 -1      1187    8    0    1
 -2       539       669       668      2796      2797      2792
 -1      1188    8    0    1
 -2       540       541       670      2409      2798      2799
 -1      1189    8    0    1
 -2       540       670       669      2799      2800      2795
 -1      1190    8    0    1
 -2       541       542       671      2412      2801      2802
 -1      1191    8    0    1
 -2       541       671       670      2802      2803      2798
 -1      1192    8    0    1
 -2       542       543       672      2415      2804      2805
 -1      1193    8    0    1
 -2       542       672       671      2805      2806      2801
 -1      1194    8    0    1
 -2       543       544       673      2418      2807      2808
 -1      1195    8    0    1
 -2       543       673       672      2808      2809      2804
 -1      1196    8    0    1
 -2       544       545       674      2421      2810      2811
 -1      1197    8    0    1
 -2       544       674       673      2811      2812      2807
 -1      1198    8    0    1
 -2       545       546       675      2424      2813      2814
 -1      1199    8    0    1
 -2       545       675       674      2814      2815      2810
 -1      1200    8    0    1
 -2       546       547       676      2427      2816      2817
 -1      1201    8    0    1
 -2       546       676       675      2817      2818      2813
 -1      1202    8    0    1
 -2       547       548       677      2430      2819      2820
 -1      1203    8    0    1
 -2       547       677       676      2820      2821      2816
 -1      1204    8    0    1
 -2       548       549       678      2433      2822      2823
 -1      1205    8    0    1
 -2       548       678       677      2823      2824      2819
 -1      1206    8    0    1
 -2       549       550       679      2436      2825      2826
 -1      1207    8    0    1
 -2       549       679       678      2826      2827      2822
 -1      1208    8    0    1
 -2       550       551       680      2439      2828      2829
 -1      1209    8    0    1
 -2       550       680       679      2829      2830      2825
 -1      1210    8    0    1
 -2       551       552       681      2442      2831      2832
 -1      1211    8    0    1
 -2       551       681       680      2832      2833      2828
 -1      1212    8    0    1
 -2       552       553       682      2445      2834      2835
 -1      1213    8    0    1
 -2       552       682       681      2835      2836      2831
 -1      1214    8    0    1
 -2       553       554       683      2448      2837      2838
 -1      1215    8    0    1
 -2       553       683       682      2838      2839      2834
 -1      1216    8    0    1
 -2       554       555       684      2451      2840      2841
 -1      1217    8    0    1
 -2       554       684       683      2841      2842      2837
 -1      1218    8    0    1
 -2       555       556       685      2454      2843      2844
 -1      1219    8    0    1
 -2       555       685       684      2844      2845      2840
 -1      1220    8    0    1
 -2       556       557       686      2457      2846      2847
 -1      1221    8    0    1
 -2       556       686       685      2847      2848      2843
 -1      1222    8    0    1
 -2       557       558       687      2460      2849      2850
 -1      1223    8    0    1
 -2       557       687       686      2850      2851      2846
 -1      1224    8    0    1
 -2       558       559       688      2463      2852      2853
 -1      1225    8    0    1
 -2       558       688       687      2853      2854      2849
 -1      1226    8    0    1
 -2       559       560       689      2466      2855      2856
 -1      1227    8    0    1
 -2       559       689       688      2856      2857      2852
 -1      1228    8    0    1
 -2       560       561       690      2469      2858      2859
 -1      1229    8    0    1
 -2       560       690       689      2859      2860      2855
 -1      1230    8    0    1
 -2       561       562       691      2472      2861      2862
 -1      1231    8    0    1
 -2       561       691       690      2862      2863      2858
 -1      1232    8    0    1
 -2       562       563       692      2475      2864      2865
 -1      1233    8    0    1
 -2       562       692       691      2865      2866      2861
 -1      1234    8    0    1
 -2       563       564       693      2478      2867      2868
 -1      1235    8    0    1
 -2       563       693       692      2868      2869      2864
 -1      1236    8    0    1
 -2       564       565       694      2481      2870      2871
 -1      1237    8    0    1
 -2       564       694       693      2871      2872      2867
 -1      1238    8    0    1
 -2       565       566       695      2484      2873      2874
 -1      1239    8    0    1
 -2       565       695       694      2874      2875      2870
 -1      1240    8    0    1
 -2       566       567       696      2487      2876      2877
 -1      1241    8    0    1
 -2       566       696       695      2877      2878      2873
 -1      1242    8    0    1
 -2       567       568       697      2490      2879      2880
 -1      1243    8    0    1
 -2       567       697       696      2880      2881      2876
 -1      1244    8    0    1
 -2       568       569       698      2493      2882      2883
 -1      1245    8    0    1
 -2       568       698       697      2883      2884      2879
 -1      1246    8    0    1
 -2       569       570       699      2496      2885      2886
 -1      1247    8    0    1
 -2       698       569       699      2882      2886      2887
 -1      1248    8    0    1
 -2       570       573       699      2622      2888      2885
 -1      1249    8    0    1
 -2       470       593       700      2595      2889      2890
 -1      1250    8    0    1
 -2       572       571       701      2502      2891      2892
 -1      1251    8    0    1
 -2       575       576       702      2513      2893      2894
 -1      1252    8    0    1
 -2       573       572       703      2505      2895      2896
 -1      1253    8    0    1
 -2       699       573       703      2888      2896      2897
 -1      1254    8    0    1
 -2       572       701       703      2892      2898      2895
 -1      1255    8    0    1
 -2       571       575       704      2510      2899      2900
 -1      1256    8    0    1
 -2       701       571       704      2891      2900      2901
 -1      1257    8    0    1
 -2       575       702       704      2894      2902      2899
 -1      1258    8    0    1
 -2       574       609       705      2612      2903      2904
 -1      1259    8    0    1
 -2       577       578       706      2519      2905      2906
 -1      1260    8    0    1
 -2       578       579       707      2522      2907      2908
 -1      1261    8    0    1
 -2       578       707       706      2908      2909      2905
 -1      1262    8    0    1
 -2       579       580       708      2525      2910      2911
 -1      1263    8    0    1
 -2       579       708       707      2911      2912      2907
 -1      1264    8    0    1
 -2       580       581       709      2528      2913      2914
 -1      1265    8    0    1
 -2       580       709       708      2914      2915      2910
 -1      1266    8    0    1
 -2       483       589       710      2605      2916      2917
 -1      1267    8    0    1
 -2       585       574       711      2541      2918      2919
 -1      1268    8    0    1
 -2       471       600       626      2625      2920      2921
 -1      1269    8    0    1
 -2       586       585       712      2624      2922      2923
 -1      1270    8    0    1
 -2       600       608       713      2628      2924      2925
 -1      1271    8    0    1
 -2       595       588       714      2564      2926      2927
 -1      1272    8    0    1
 -2       576       577       715      2516      2928      2929
 -1      1273    8    0    1
 -2       577       706       715      2906      2930      2928
 -1      1274    8    0    1
 -2       596       602       716      2638      2931      2932
 -1      1275    8    0    1
 -2       591       483       717      2610      2933      2934
 -1      1276    8    0    1
 -2       592       597       718      2636      2935      2936
 -1      1277    8    0    1
 -2       484       482       719      2238      2937      2938
 -1      1278    8    0    1
 -2       484       719       622      2938      2939      2655
 -1      1279    8    0    1
 -2       588       592       720      2637      2940      2941
 -1      1280    8    0    1
 -2       593       594       721      2632      2942      2943
 -1      1281    8    0    1
 -2       597       598       722      2631      2944      2945
 -1      1282    8    0    1
 -2       602       603       723      2626      2946      2947
 -1      1283    8    0    1
 -2       476       477       724      2218      2948      2949
 -1      1284    8    0    1
 -2       616       476       724      2640      2949      2950
 -1      1285    8    0    1
 -2       477       618       724      2646      2951      2948
 -1      1286    8    0    1
 -2       598       599       725      2630      2952      2953
 -1      1287    8    0    1
 -2       601       596       726      2627      2954      2955
 -1      1288    8    0    1
 -2       603       604       727      2583      2956      2957
 -1      1289    8    0    1
 -2       594       591       728      2615      2958      2959
 -1      1290    8    0    1
 -2       599       601       729      2629      2960      2961
 -1      1291    8    0    1
 -2       473       472       730      2207      2962      2963
 -1      1292    8    0    1
 -2       531       532       731      2382      2964      2965
 -1      1293    8    0    1
 -2       660       531       731      2769      2965      2966
 -1      1294    8    0    1
 -2       532       662       731      2776      2967      2964
 -1      1295    8    0    1
 -2       609       584       732      2613      2968      2969
 -1      1296    8    0    1
 -2       608       586       733      2611      2970      2971
 -1      1297    8    0    1
 -2       482       583       734      2535      2972      2973
 -1      1298    8    0    1
 -2       719       482       734      2937      2973      2974
 -1      1299    8    0    1
 -2       583       613       734      2608      2975      2972
 -1      1300    8    0    1
 -2       610       473       735      2596      2976      2977
 -1      1301    8    0    1
 -2       473       730       735      2963      2978      2976
 -1      1302    8    0    1
 -2       611       470       700      2601      2890      2979
 -1      1303    8    0    1
 -2       474       617       736      2643      2980      2981
 -1      1304    8    0    1
 -2       474       736       590      2981      2982      2553
 -1      1305    8    0    1
 -2       480       620       479      2651      2983      2227
 -1      1306    8    0    1
 -2       718       597       722      2935      2945      2984
 -1      1307    8    0    1
 -2       729       601       726      2960      2955      2985
 -1      1308    8    0    1
 -2       494       621       626      2667      2986      2668
 -1      1309    8    0    1
 -2       607       621       493      2654      2666      2987
 -1      1310    8    0    1
 -2       488       625       727      2664      2988      2989
 -1      1311    8    0    1
 -2       488       727       489      2989      2990      2253
 -1      1312    8    0    1
 -2       490       489       737      2256      2991      2992
 -1      1313    8    0    1
 -2       491       490       605      2259      2993      2994
 -1      1314    8    0    1
 -2       492       491       606      2262      2995      2996
 -1      1315    8    0    1
 -2       609       732       705      2969      2997      2903
 -1      1316    8    0    1
 -2       732       584       738      2968      2998      2999
 -1      1317    8    0    1
 -2       584       611       738      2600      3000      2998
 -1      1318    8    0    1
 -2       700       593       721      2889      2943      3001
 -1      1319    8    0    1
 -2       574       705       711      2904      3002      2918
 -1      1320    8    0    1
 -2       723       603       727      2946      2957      3003
 -1      1321    8    0    1
 -2       722       598       725      2944      2953      3004
 -1      1322    8    0    1
 -2       596       716       726      2932      3005      2954
 -1      1323    8    0    1
 -2       483       710       717      2917      3006      2933
 -1      1324    8    0    1
 -2       710       589       739      2916      3007      3008
 -1      1325    8    0    1
 -2       589       615       739      2634      3009      3007
 -1      1326    8    0    1
 -2       581       582       740      2531      3010      3011
 -1      1327    8    0    1
 -2       709       581       740      2913      3011      3012
 -1      1328    8    0    1
 -2       582       658       740      2765      3013      3010
 -1      1329    8    0    1
 -2       728       591       717      2958      2934      3014
 -1      1330    8    0    1
 -2       530       661       741      2773      3015      3016
 -1      1331    8    0    1
 -2       721       594       742      2942      3017      3018
 -1      1332    8    0    1
 -2       594       728       742      2959      3019      3017
 -1      1333    8    0    1
 -2       585       711       712      2919      3020      2922
 -1      1334    8    0    1
 -2       614       530       741      2619      3016      3021
 -1      1335    8    0    1
 -2       471       626       621      2921      2986      2653
 -1      1336    8    0    1
 -2       714       588       720      2926      2941      3022
 -1      1337    8    0    1
 -2       713       608       733      2924      2971      3023
 -1      1338    8    0    1
 -2       586       712       733      2923      3024      2970
 -1      1339    8    0    1
 -2       600       713       626      2925      3025      2920
 -1      1340    8    0    1
 -2       595       714       615      2927      3026      2635
 -1      1341    8    0    1
 -2       702       576       715      2893      2929      3027
 -1      1342    8    0    1
 -2       606       491       605      2995      2994      2639
 -1      1343    8    0    1
 -2       492       606       587      2996      2621      3028
 -1      1344    8    0    1
 -2       479       620       619      2983      3029      2647
 -1      1345    8    0    1
 -2       472       590       743      2552      3030      3031
 -1      1346    8    0    1
 -2       730       472       743      2962      3031      3032
 -1      1347    8    0    1
 -2       590       736       743      2982      3033      3030
 -1      1348    8    0    1
 -2       587       607       744      2614      3034      3035
 -1      1349    8    0    1
 -2       716       602       723      2931      2947      3036
 -1      1350    8    0    1
 -2       592       718       720      2936      3037      2940
 -1      1351    8    0    1
 -2       618       619       745      2649      3038      3039
 -1      1352    8    0    1
 -2       620       612       614      2652      2618      3040
 -1      1353    8    0    1
 -2       718       722       746      2984      3041      3042
 -1      1354    8    0    1
 -2       714       720       747      3022      3043      3044
 -1      1355    8    0    1
 -2       613       610       748      2609      3045      3046
 -1      1356    8    0    1
 -2       734       613       748      2975      3046      3047
 -1      1357    8    0    1
 -2       610       735       748      2977      3048      3045
 -1      1358    8    0    1
 -2       727       604       737      2956      3049      3050
 -1      1359    8    0    1
 -2       605       490       737      2993      2992      3051
 -1      1360    8    0    1
 -2       620       614       741      3040      3021      3052
 -1      1361    8    0    1
 -2       727       625       723      2988      3053      3003
 -1      1362    8    0    1
 -2       489       727       737      2990      3050      2991
 -1      1363    8    0    1
 -2       624       623       749      2662      3054      3055
 -1      1364    8    0    1
 -2       625       624       750      2665      3056      3057
 -1      1365    8    0    1
 -2       624       749       750      3055      3058      3056
 -1      1366    8    0    1
 -2       620       741       619      3052      3059      3029
 -1      1367    8    0    1
 -2       705       732       751      2997      3060      3061
 -1      1368    8    0    1
 -2       728       717       752      3014      3062      3063
 -1      1369    8    0    1
 -2       628       627       753      2675      3064      3065
 -1      1370    8    0    1
 -2       629       628       754      2678      3066      3067
 -1      1371    8    0    1
 -2       628       753       754      3065      3068      3066
 -1      1372    8    0    1
 -2       630       629       755      2681      3069      3070
 -1      1373    8    0    1
 -2       629       754       755      3067      3071      3069
 -1      1374    8    0    1
 -2       631       630       756      2684      3072      3073
 -1      1375    8    0    1
 -2       630       755       756      3070      3074      3072
 -1      1376    8    0    1
 -2       632       631       757      2687      3075      3076
 -1      1377    8    0    1
 -2       631       756       757      3073      3077      3075
 -1      1378    8    0    1
 -2       633       632       758      2690      3078      3079
 -1      1379    8    0    1
 -2       632       757       758      3076      3080      3078
 -1      1380    8    0    1
 -2       634       633       759      2693      3081      3082
 -1      1381    8    0    1
 -2       633       758       759      3079      3083      3081
 -1      1382    8    0    1
 -2       635       634       760      2696      3084      3085
 -1      1383    8    0    1
 -2       634       759       760      3082      3086      3084
 -1      1384    8    0    1
 -2       636       635       761      2699      3087      3088
 -1      1385    8    0    1
 -2       635       760       761      3085      3089      3087
 -1      1386    8    0    1
 -2       637       636       762      2702      3090      3091
 -1      1387    8    0    1
 -2       636       761       762      3088      3092      3090
 -1      1388    8    0    1
 -2       638       637       763      2705      3093      3094
 -1      1389    8    0    1
 -2       637       762       763      3091      3095      3093
 -1      1390    8    0    1
 -2       639       638       764      2708      3096      3097
 -1      1391    8    0    1
 -2       638       763       764      3094      3098      3096
 -1      1392    8    0    1
 -2       640       639       765      2711      3099      3100
 -1      1393    8    0    1
 -2       639       764       765      3097      3101      3099
 -1      1394    8    0    1
 -2       641       640       766      2714      3102      3103
 -1      1395    8    0    1
 -2       640       765       766      3100      3104      3102
 -1      1396    8    0    1
 -2       642       641       767      2717      3105      3106
 -1      1397    8    0    1
 -2       641       766       767      3103      3107      3105
 -1      1398    8    0    1
 -2       643       642       768      2720      3108      3109
 -1      1399    8    0    1
 -2       642       767       768      3106      3110      3108
 -1      1400    8    0    1
 -2       644       643       769      2723      3111      3112
 -1      1401    8    0    1
 -2       643       768       769      3109      3113      3111
 -1      1402    8    0    1
 -2       645       644       770      2726      3114      3115
 -1      1403    8    0    1
 -2       644       769       770      3112      3116      3114
 -1      1404    8    0    1
 -2       646       645       771      2729      3117      3118
 -1      1405    8    0    1
 -2       645       770       771      3115      3119      3117
 -1      1406    8    0    1
 -2       647       646       772      2732      3120      3121
 -1      1407    8    0    1
 -2       646       771       772      3118      3122      3120
 -1      1408    8    0    1
 -2       648       647       773      2735      3123      3124
 -1      1409    8    0    1
 -2       647       772       773      3121      3125      3123
 -1      1410    8    0    1
 -2       649       648       774      2738      3126      3127
 -1      1411    8    0    1
 -2       648       773       774      3124      3128      3126
 -1      1412    8    0    1
 -2       650       649       775      2741      3129      3130
 -1      1413    8    0    1
 -2       649       774       775      3127      3131      3129
 -1      1414    8    0    1
 -2       651       650       776      2744      3132      3133
 -1      1415    8    0    1
 -2       650       775       776      3130      3134      3132
 -1      1416    8    0    1
 -2       652       651       777      2747      3135      3136
 -1      1417    8    0    1
 -2       651       776       777      3133      3137      3135
 -1      1418    8    0    1
 -2       653       652       778      2750      3138      3139
 -1      1419    8    0    1
 -2       652       777       778      3136      3140      3138
 -1      1420    8    0    1
 -2       654       653       779      2753      3141      3142
 -1      1421    8    0    1
 -2       653       778       779      3139      3143      3141
 -1      1422    8    0    1
 -2       655       654       780      2756      3144      3145
 -1      1423    8    0    1
 -2       654       779       780      3142      3146      3144
 -1      1424    8    0    1
 -2       656       655       781      2759      3147      3148
 -1      1425    8    0    1
 -2       655       780       781      3145      3149      3147
 -1      1426    8    0    1
 -2       657       656       782      2762      3150      3151
 -1      1427    8    0    1
 -2       656       781       782      3148      3152      3150
 -1      1428    8    0    1
 -2       659       660       783      2771      3153      3154
 -1      1429    8    0    1
 -2       661       659       784      2774      3155      3156
 -1      1430    8    0    1
 -2       659       783       784      3154      3157      3155
 -1      1431    8    0    1
 -2       663       664       785      2782      3158      3159
 -1      1432    8    0    1
 -2       662       663       786      2779      3160      3161
 -1      1433    8    0    1
 -2       663       785       786      3159      3162      3160
 -1      1434    8    0    1
 -2       665       666       752      2788      3163      3164
 -1      1435    8    0    1
 -2       666       667       742      2791      3165      3166
 -1      1436    8    0    1
 -2       668       669       787      2797      3167      3168
 -1      1437    8    0    1
 -2       669       670       788      2800      3169      3170
 -1      1438    8    0    1
 -2       669       788       787      3170      3171      3167
 -1      1439    8    0    1
 -2       670       671       789      2803      3172      3173
 -1      1440    8    0    1
 -2       670       789       788      3173      3174      3169
 -1      1441    8    0    1
 -2       671       672       790      2806      3175      3176
 -1      1442    8    0    1
 -2       671       790       789      3176      3177      3172
 -1      1443    8    0    1
 -2       672       673       791      2809      3178      3179
 -1      1444    8    0    1
 -2       672       791       790      3179      3180      3175
 -1      1445    8    0    1
 -2       673       674       792      2812      3181      3182
 -1      1446    8    0    1
 -2       673       792       791      3182      3183      3178
 -1      1447    8    0    1
 -2       674       675       793      2815      3184      3185
 -1      1448    8    0    1
 -2       674       793       792      3185      3186      3181
 -1      1449    8    0    1
 -2       675       676       794      2818      3187      3188
 -1      1450    8    0    1
 -2       675       794       793      3188      3189      3184
 -1      1451    8    0    1
 -2       676       677       795      2821      3190      3191
 -1      1452    8    0    1
 -2       676       795       794      3191      3192      3187
 -1      1453    8    0    1
 -2       677       678       796      2824      3193      3194
 -1      1454    8    0    1
 -2       677       796       795      3194      3195      3190
 -1      1455    8    0    1
 -2       678       679       797      2827      3196      3197
 -1      1456    8    0    1
 -2       678       797       796      3197      3198      3193
 -1      1457    8    0    1
 -2       679       680       798      2830      3199      3200
 -1      1458    8    0    1
 -2       679       798       797      3200      3201      3196
 -1      1459    8    0    1
 -2       680       681       799      2833      3202      3203
 -1      1460    8    0    1
 -2       680       799       798      3203      3204      3199
 -1      1461    8    0    1
 -2       681       682       800      2836      3205      3206
 -1      1462    8    0    1
 -2       681       800       799      3206      3207      3202
 -1      1463    8    0    1
 -2       682       683       801      2839      3208      3209
 -1      1464    8    0    1
 -2       682       801       800      3209      3210      3205
 -1      1465    8    0    1
 -2       683       684       802      2842      3211      3212
 -1      1466    8    0    1
 -2       683       802       801      3212      3213      3208
 -1      1467    8    0    1
 -2       684       685       803      2845      3214      3215
 -1      1468    8    0    1
 -2       684       803       802      3215      3216      3211
 -1      1469    8    0    1
 -2       685       686       804      2848      3217      3218
 -1      1470    8    0    1
 -2       685       804       803      3218      3219      3214
 -1      1471    8    0    1
 -2       686       687       805      2851      3220      3221
 -1      1472    8    0    1
 -2       686       805       804      3221      3222      3217
 -1      1473    8    0    1
 -2       687       688       806      2854      3223      3224
 -1      1474    8    0    1
 -2       687       806       805      3224      3225      3220
 -1      1475    8    0    1
 -2       688       689       807      2857      3226      3227
 -1      1476    8    0    1
 -2       688       807       806      3227      3228      3223
 -1      1477    8    0    1
 -2       689       690       808      2860      3229      3230
 -1      1478    8    0    1
 -2       689       808       807      3230      3231      3226
 -1      1479    8    0    1
 -2       690       691       809      2863      3232      3233
 -1      1480    8    0    1
 -2       690       809       808      3233      3234      3229
 -1      1481    8    0    1
 -2       691       692       810      2866      3235      3236
 -1      1482    8    0    1
 -2       691       810       809      3236      3237      3232
 -1      1483    8    0    1
 -2       692       693       811      2869      3238      3239
 -1      1484    8    0    1
 -2       692       811       810      3239      3240      3235
 -1      1485    8    0    1
 -2       693       694       812      2872      3241      3242
 -1      1486    8    0    1
 -2       693       812       811      3242      3243      3238
 -1      1487    8    0    1
 -2       694       695       813      2875      3244      3245
 -1      1488    8    0    1
 -2       694       813       812      3245      3246      3241
 -1      1489    8    0    1
 -2       695       696       814      2878      3247      3248
 -1      1490    8    0    1
 -2       695       814       813      3248      3249      3244
 -1      1491    8    0    1
 -2       696       697       815      2881      3250      3251
 -1      1492    8    0    1
 -2       696       815       814      3251      3252      3247
 -1      1493    8    0    1
 -2       697       698       816      2884      3253      3254
 -1      1494    8    0    1
 -2       697       816       815      3254      3255      3250
 -1      1495    8    0    1
 -2       698       699       817      2887      3256      3257
 -1      1496    8    0    1
 -2       816       698       817      3253      3257      3258
 -1      1497    8    0    1
 -2       699       703       817      2897      3259      3256
 -1      1498    8    0    1
 -2       708       709       818      2915      3260      3261
 -1      1499    8    0    1
 -2       707       708       819      2912      3262      3263
 -1      1500    8    0    1
 -2       708       818       819      3261      3264      3262
 -1      1501    8    0    1
 -2       706       707       820      2909      3265      3266
 -1      1502    8    0    1
 -2       707       819       820      3263      3267      3265
 -1      1503    8    0    1
 -2       715       706       821      2930      3268      3269
 -1      1504    8    0    1
 -2       706       820       821      3266      3270      3268
 -1      1505    8    0    1
 -2       723       625       750      3053      3057      3271
 -1      1506    8    0    1
 -2       615       714       822      3026      3272      3273
 -1      1507    8    0    1
 -2       664       665       823      2785      3274      3275
 -1      1508    8    0    1
 -2       785       664       823      3158      3275      3276
 -1      1509    8    0    1
 -2       665       752       823      3164      3277      3274
 -1      1510    8    0    1
 -2       627       626       713      2672      3025      3278
 -1      1511    8    0    1
 -2       702       715       824      3027      3279      3280
 -1      1512    8    0    1
 -2       715       821       824      3269      3281      3279
 -1      1513    8    0    1
 -2       623       622       825      2659      3282      3283
 -1      1514    8    0    1
 -2       623       825       749      3283      3284      3054
 -1      1515    8    0    1
 -2       713       733       826      3023      3285      3286
 -1      1516    8    0    1
 -2       716       723       750      3036      3271      3287
 -1      1517    8    0    1
 -2       700       721       827      3001      3288      3289
 -1      1518    8    0    1
 -2       622       719       828      2939      3290      3291
 -1      1519    8    0    1
 -2       622       828       825      3291      3292      3282
 -1      1520    8    0    1
 -2       617       616       829      2644      3293      3294
 -1      1521    8    0    1
 -2       711       705       830      3002      3295      3296
 -1      1522    8    0    1
 -2       729       726       831      2985      3297      3298
 -1      1523    8    0    1
 -2       720       718       832      3037      3299      3300
 -1      1524    8    0    1
 -2       717       710       823      3006      3301      3302
 -1      1525    8    0    1
 -2       492       587       744      3028      3035      3303
 -1      1526    8    0    1
 -2       722       725       833      3004      3304      3305
 -1      1527    8    0    1
 -2       712       711       834      3020      3306      3307
 -1      1528    8    0    1
 -2       725       599       729      2952      2961      3308
 -1      1529    8    0    1
 -2       726       716       835      3005      3309      3310
 -1      1530    8    0    1
 -2       831       726       835      3297      3310      3311
 -1      1531    8    0    1
 -2       716       750       835      3287      3312      3309
 -1      1532    8    0    1
 -2       611       700       836      2979      3313      3314
 -1      1533    8    0    1
 -2       611       836       738      3314      3315      3000
 -1      1534    8    0    1
 -2       733       712       837      3024      3316      3317
 -1      1535    8    0    1
 -2       604       605       737      2623      3051      3049
 -1      1536    8    0    1
 -2       619       741       745      3059      3318      3038
 -1      1537    8    0    1
 -2       725       729       838      3308      3319      3320
 -1      1538    8    0    1
 -2       729       831       838      3298      3321      3319
 -1      1539    8    0    1
 -2       736       617       839      2980      3322      3323
 -1      1540    8    0    1
 -2       617       829       839      3294      3324      3322
 -1      1541    8    0    1
 -2       746       722       833      3041      3305      3325
 -1      1542    8    0    1
 -2       714       747       840      3044      3326      3327
 -1      1543    8    0    1
 -2       714       840       822      3327      3328      3272
 -1      1544    8    0    1
 -2       742       667       841      3165      3329      3330
 -1      1545    8    0    1
 -2       836       700       827      3313      3289      3331
 -1      1546    8    0    1
 -2       745       741       661      3318      3015      3332
 -1      1547    8    0    1
 -2       615       822       739      3273      3333      3009
 -1      1548    8    0    1
 -2       752       717       823      3062      3302      3277
 -1      1549    8    0    1
 -2       751       732       842      3060      3334      3335
 -1      1550    8    0    1
 -2       732       738       842      2999      3336      3334
 -1      1551    8    0    1
 -2       728       752       742      3063      3337      3019
 -1      1552    8    0    1
 -2       493       492       744      2265      3303      3338
 -1      1553    8    0    1
 -2       627       713       826      3278      3286      3339
 -1      1554    8    0    1
 -2       733       837       826      3317      3340      3285
 -1      1555    8    0    1
 -2       783       660       843      3153      3341      3342
 -1      1556    8    0    1
 -2       660       731       843      2966      3343      3341
 -1      1557    8    0    1
 -2       658       657       740      2766      3344      3013
 -1      1558    8    0    1
 -2       661       784       745      3156      3345      3332
 -1      1559    8    0    1
 -2       752       666       742      3163      3166      3337
 -1      1560    8    0    1
 -2       668       787       841      3168      3346      3347
 -1      1561    8    0    1
 -2       667       668       841      2794      3347      3329
 -1      1562    8    0    1
 -2       818       709       782      3260      3348      3349
 -1      1563    8    0    1
 -2       704       702       844      2902      3350      3351
 -1      1564    8    0    1
 -2       702       824       844      3280      3352      3350
 -1      1565    8    0    1
 -2       782       709       740      3348      3012      3353
 -1      1566    8    0    1
 -2       731       662       845      2967      3354      3355
 -1      1567    8    0    1
 -2       843       731       845      3343      3355      3356
 -1      1568    8    0    1
 -2       662       786       845      3161      3357      3354
 -1      1569    8    0    1
 -2       701       704       846      2901      3358      3359
 -1      1570    8    0    1
 -2       704       844       846      3351      3360      3358
 -1      1571    8    0    1
 -2       724       618       847      2951      3361      3362
 -1      1572    8    0    1
 -2       618       745       847      3039      3363      3361
 -1      1573    8    0    1
 -2       493       744       607      3338      3034      2987
 -1      1574    8    0    1
 -2       721       742       848      3018      3364      3365
 -1      1575    8    0    1
 -2       827       721       848      3288      3365      3366
 -1      1576    8    0    1
 -2       742       841       848      3330      3367      3364
 -1      1577    8    0    1
 -2       735       730       849      2978      3368      3369
 -1      1578    8    0    1
 -2       710       739       823      3008      3370      3301
 -1      1579    8    0    1
 -2       703       701       817      2898      3371      3259
 -1      1580    8    0    1
 -2       834       711       830      3306      3296      3372
 -1      1581    8    0    1
 -2       817       701       846      3371      3359      3373
 -1      1582    8    0    1
 -2       830       705       751      3295      3061      3374
 -1      1583    8    0    1
 -2       832       718       746      3299      3042      3375
 -1      1584    8    0    1
 -2       849       730       850      3368      3376      3377
 -1      1585    8    0    1
 -2       730       743       850      3032      3378      3376
 -1      1586    8    0    1
 -2       747       720       832      3043      3300      3379
 -1      1587    8    0    1
 -2       725       838       851      3320      3380      3381
 -1      1588    8    0    1
 -2       725       851       833      3381      3382      3304
 -1      1589    8    0    1
 -2       829       616       852      3293      3383      3384
 -1      1590    8    0    1
 -2       616       724       852      2950      3385      3383
 -1      1591    8    0    1
 -2       712       834       853      3307      3386      3387
 -1      1592    8    0    1
 -2       712       853       837      3387      3388      3316
 -1      1593    8    0    1
 -2       740       657       782      3344      3151      3353
 -1      1594    8    0    1
 -2       719       734       748      2974      3047      3389
 -1      1595    8    0    1
 -2       719       748       828      3389      3390      3290
 -1      1596    8    0    1
 -2       784       783       854      3157      3391      3392
 -1      1597    8    0    1
 -2       818       782       855      3349      3393      3394
 -1      1598    8    0    1
 -2       782       781       855      3152      3395      3393
 -1      1599    8    0    1
 -2       828       748       735      3390      3048      3396
 -1      1600    8    0    1
 -2       836       827       856      3331      3397      3398
 -1      1601    8    0    1
 -2       750       749       835      3058      3399      3312
 -1      1602    8    0    1
 -2       838       831       857      3321      3400      3401
 -1      1603    8    0    1
 -2       789       790       858      3177      3402      3403
 -1      1604    8    0    1
 -2       788       789       859      3174      3404      3405
 -1      1605    8    0    1
 -2       789       858       859      3403      3406      3404
 -1      1606    8    0    1
 -2       755       754       860      3071      3407      3408
 -1      1607    8    0    1
 -2       756       755       861      3074      3409      3410
 -1      1608    8    0    1
 -2       755       860       861      3408      3411      3409
 -1      1609    8    0    1
 -2       757       756       862      3077      3412      3413
 -1      1610    8    0    1
 -2       756       861       862      3410      3414      3412
 -1      1611    8    0    1
 -2       758       757       863      3080      3415      3416
 -1      1612    8    0    1
 -2       757       862       863      3413      3417      3415
 -1      1613    8    0    1
 -2       759       758       864      3083      3418      3419
 -1      1614    8    0    1
 -2       758       863       864      3416      3420      3418
 -1      1615    8    0    1
 -2       760       759       865      3086      3421      3422
 -1      1616    8    0    1
 -2       759       864       865      3419      3423      3421
 -1      1617    8    0    1
 -2       761       760       866      3089      3424      3425
 -1      1618    8    0    1
 -2       760       865       866      3422      3426      3424
 -1      1619    8    0    1
 -2       762       761       867      3092      3427      3428
 -1      1620    8    0    1
 -2       761       866       867      3425      3429      3427
 -1      1621    8    0    1
 -2       763       762       868      3095      3430      3431
 -1      1622    8    0    1
 -2       762       867       868      3428      3432      3430
 -1      1623    8    0    1
 -2       764       763       869      3098      3433      3434
 -1      1624    8    0    1
 -2       763       868       869      3431      3435      3433
 -1      1625    8    0    1
 -2       765       764       870      3101      3436      3437
 -1      1626    8    0    1
 -2       764       869       870      3434      3438      3436
 -1      1627    8    0    1
 -2       766       765       871      3104      3439      3440
 -1      1628    8    0    1
 -2       765       870       871      3437      3441      3439
 -1      1629    8    0    1
 -2       767       766       872      3107      3442      3443
 -1      1630    8    0    1
 -2       766       871       872      3440      3444      3442
 -1      1631    8    0    1
 -2       768       767       873      3110      3445      3446
 -1      1632    8    0    1
 -2       767       872       873      3443      3447      3445
 -1      1633    8    0    1
 -2       769       768       874      3113      3448      3449
 -1      1634    8    0    1
 -2       768       873       874      3446      3450      3448
 -1      1635    8    0    1
 -2       770       769       875      3116      3451      3452
 -1      1636    8    0    1
 -2       769       874       875      3449      3453      3451
 -1      1637    8    0    1
 -2       771       770       876      3119      3454      3455
 -1      1638    8    0    1
 -2       770       875       876      3452      3456      3454
 -1      1639    8    0    1
 -2       772       771       877      3122      3457      3458
 -1      1640    8    0    1
 -2       771       876       877      3455      3459      3457
 -1      1641    8    0    1
 -2       773       772       878      3125      3460      3461
 -1      1642    8    0    1
 -2       772       877       878      3458      3462      3460
 -1      1643    8    0    1
 -2       774       773       879      3128      3463      3464
 -1      1644    8    0    1
 -2       773       878       879      3461      3465      3463
 -1      1645    8    0    1
 -2       775       774       880      3131      3466      3467
 -1      1646    8    0    1
 -2       774       879       880      3464      3468      3466
 -1      1647    8    0    1
 -2       776       775       881      3134      3469      3470
 -1      1648    8    0    1
 -2       775       880       881      3467      3471      3469
 -1      1649    8    0    1
 -2       777       776       882      3137      3472      3473
 -1      1650    8    0    1
 -2       776       881       882      3470      3474      3472
 -1      1651    8    0    1
 -2       778       777       883      3140      3475      3476
 -1      1652    8    0    1
 -2       777       882       883      3473      3477      3475
 -1      1653    8    0    1
 -2       779       778       884      3143      3478      3479
 -1      1654    8    0    1
 -2       778       883       884      3476      3480      3478
 -1      1655    8    0    1
 -2       780       779       885      3146      3481      3482
 -1      1656    8    0    1
 -2       779       884       885      3479      3483      3481
 -1      1657    8    0    1
 -2       781       780       886      3149      3484      3485
 -1      1658    8    0    1
 -2       855       781       886      3395      3485      3486
 -1      1659    8    0    1
 -2       780       885       886      3482      3487      3484
 -1      1660    8    0    1
 -2       828       735       849      3396      3369      3488
 -1      1661    8    0    1
 -2       830       751       887      3374      3489      3490
 -1      1662    8    0    1
 -2       841       787       888      3346      3491      3492
 -1      1663    8    0    1
 -2       841       888       848      3492      3493      3367
 -1      1664    8    0    1
 -2       787       788       888      3171      3494      3491
 -1      1665    8    0    1
 -2       790       791       889      3180      3495      3496
 -1      1666    8    0    1
 -2       790       889       858      3496      3497      3402
 -1      1667    8    0    1
 -2       791       792       890      3183      3498      3499
 -1      1668    8    0    1
 -2       791       890       889      3499      3500      3495
 -1      1669    8    0    1
 -2       792       793       891      3186      3501      3502
 -1      1670    8    0    1
 -2       792       891       890      3502      3503      3498
 -1      1671    8    0    1
 -2       793       794       892      3189      3504      3505
 -1      1672    8    0    1
 -2       793       892       891      3505      3506      3501
 -1      1673    8    0    1
 -2       794       795       893      3192      3507      3508
 -1      1674    8    0    1
 -2       794       893       892      3508      3509      3504
 -1      1675    8    0    1
 -2       795       796       894      3195      3510      3511
 -1      1676    8    0    1
 -2       795       894       893      3511      3512      3507
 -1      1677    8    0    1
 -2       796       797       895      3198      3513      3514
 -1      1678    8    0    1
 -2       796       895       894      3514      3515      3510
 -1      1679    8    0    1
 -2       797       798       896      3201      3516      3517
 -1      1680    8    0    1
 -2       797       896       895      3517      3518      3513
 -1      1681    8    0    1
 -2       798       799       897      3204      3519      3520
 -1      1682    8    0    1
 -2       798       897       896      3520      3521      3516
 -1      1683    8    0    1
 -2       799       800       898      3207      3522      3523
 -1      1684    8    0    1
 -2       799       898       897      3523      3524      3519
 -1      1685    8    0    1
 -2       800       801       899      3210      3525      3526
 -1      1686    8    0    1
 -2       800       899       898      3526      3527      3522
 -1      1687    8    0    1
 -2       801       802       900      3213      3528      3529
 -1      1688    8    0    1
 -2       801       900       899      3529      3530      3525
 -1      1689    8    0    1
 -2       802       803       901      3216      3531      3532
 -1      1690    8    0    1
 -2       802       901       900      3532      3533      3528
 -1      1691    8    0    1
 -2       803       804       902      3219      3534      3535
 -1      1692    8    0    1
 -2       803       902       901      3535      3536      3531
 -1      1693    8    0    1
 -2       804       805       903      3222      3537      3538
 -1      1694    8    0    1
 -2       804       903       902      3538      3539      3534
 -1      1695    8    0    1
 -2       805       806       904      3225      3540      3541
 -1      1696    8    0    1
 -2       805       904       903      3541      3542      3537
 -1      1697    8    0    1
 -2       806       807       905      3228      3543      3544
 -1      1698    8    0    1
 -2       806       905       904      3544      3545      3540
 -1      1699    8    0    1
 -2       807       808       906      3231      3546      3547
 -1      1700    8    0    1
 -2       807       906       905      3547      3548      3543
 -1      1701    8    0    1
 -2       808       809       907      3234      3549      3550
 -1      1702    8    0    1
 -2       808       907       906      3550      3551      3546
 -1      1703    8    0    1
 -2       809       810       908      3237      3552      3553
 -1      1704    8    0    1
 -2       809       908       907      3553      3554      3549
 -1      1705    8    0    1
 -2       810       811       909      3240      3555      3556
 -1      1706    8    0    1
 -2       810       909       908      3556      3557      3552
 -1      1707    8    0    1
 -2       811       812       910      3243      3558      3559
 -1      1708    8    0    1
 -2       811       910       909      3559      3560      3555
 -1      1709    8    0    1
 -2       812       813       911      3246      3561      3562
 -1      1710    8    0    1
 -2       812       911       910      3562      3563      3558
 -1      1711    8    0    1
 -2       813       814       912      3249      3564      3565
 -1      1712    8    0    1
 -2       813       912       911      3565      3566      3561
 -1      1713    8    0    1
 -2       814       815       913      3252      3567      3568
 -1      1714    8    0    1
 -2       814       913       912      3568      3569      3564
 -1      1715    8    0    1
 -2       815       816       914      3255      3570      3571
 -1      1716    8    0    1
 -2       815       914       913      3571      3572      3567
 -1      1717    8    0    1
 -2       816       817       846      3258      3373      3573
 -1      1718    8    0    1
 -2       834       830       915      3372      3574      3575
 -1      1719    8    0    1
 -2       819       818       855      3264      3394      3576
 -1      1720    8    0    1
 -2       749       825       916      3284      3577      3578
 -1      1721    8    0    1
 -2       820       819       917      3267      3579      3580
 -1      1722    8    0    1
 -2       821       820       918      3270      3581      3582
 -1      1723    8    0    1
 -2       820       917       918      3580      3583      3581
 -1      1724    8    0    1
 -2       745       784       919      3345      3584      3585
 -1      1725    8    0    1
 -2       847       745       919      3363      3585      3586
 -1      1726    8    0    1
 -2       784       854       919      3392      3587      3584
 -1      1727    8    0    1
 -2       739       822       786      3333      3588      3589
 -1      1728    8    0    1
 -2       824       821       920      3281      3590      3591
 -1      1729    8    0    1
 -2       821       918       920      3582      3592      3590
 -1      1730    8    0    1
 -2       746       833       921      3325      3593      3594
 -1      1731    8    0    1
 -2       743       736       922      3033      3595      3596
 -1      1732    8    0    1
 -2       743       922       850      3596      3597      3378
 -1      1733    8    0    1
 -2       738       836       923      3315      3598      3599
 -1      1734    8    0    1
 -2       842       738       923      3336      3599      3600
 -1      1735    8    0    1
 -2       836       856       923      3398      3601      3598
 -1      1736    8    0    1
 -2       825       828       924      3292      3602      3603
 -1      1737    8    0    1
 -2       916       825       924      3577      3603      3604
 -1      1738    8    0    1
 -2       828       849       924      3488      3605      3602
 -1      1739    8    0    1
 -2       747       832       925      3379      3606      3607
 -1      1740    8    0    1
 -2       832       746       926      3375      3608      3609
 -1      1741    8    0    1
 -2       816       846       914      3573      3610      3570
 -1      1742    8    0    1
 -2       786       822       845      3588      3611      3357
 -1      1743    8    0    1
 -2       749       916       835      3578      3612      3399
 -1      1744    8    0    1
 -2       840       747       925      3326      3607      3613
 -1      1745    8    0    1
 -2       856       827       888      3397      3614      3615
 -1      1746    8    0    1
 -2       888       788       859      3494      3405      3616
 -1      1747    8    0    1
 -2       786       785       739      3162      3617      3589
 -1      1748    8    0    1
 -2       754       753       927      3068      3618      3619
 -1      1749    8    0    1
 -2       857       831       928      3400      3620      3621
 -1      1750    8    0    1
 -2       739       785       823      3617      3276      3370
 -1      1751    8    0    1
 -2       860       754       927      3407      3619      3622
 -1      1752    8    0    1
 -2       846       844       929      3360      3623      3624
 -1      1753    8    0    1
 -2       846       929       914      3624      3625      3610
 -1      1754    8    0    1
 -2       922       736       839      3595      3323      3626
 -1      1755    8    0    1
 -2       887       751       930      3489      3627      3628
 -1      1756    8    0    1
 -2       751       842       930      3335      3629      3627
 -1      1757    8    0    1
 -2       844       824       931      3352      3630      3631
 -1      1758    8    0    1
 -2       929       844       931      3623      3631      3632
 -1      1759    8    0    1
 -2       824       920       931      3591      3633      3630
 -1      1760    8    0    1
 -2       917       819       855      3579      3576      3634
 -1      1761    8    0    1
 -2       915       830       887      3574      3490      3635
 -1      1762    8    0    1
 -2       724       847       852      3362      3636      3385
 -1      1763    8    0    1
 -2       925       832       926      3606      3609      3637
 -1      1764    8    0    1
 -2       746       921       926      3594      3638      3608
 -1      1765    8    0    1
 -2       753       627       826      3064      3339      3639
 -1      1766    8    0    1
 -2       921       833       932      3593      3640      3641
 -1      1767    8    0    1
 -2       833       851       932      3382      3642      3640
 -1      1768    8    0    1
 -2       849       850       933      3377      3643      3644
 -1      1769    8    0    1
 -2       849       933       924      3644      3645      3605
 -1      1770    8    0    1
 -2       826       837       927      3340      3646      3647
 -1      1771    8    0    1
 -2       927       837       853      3646      3388      3648
 -1      1772    8    0    1
 -2       753       826       927      3639      3647      3618
 -1      1773    8    0    1
 -2       851       838       934      3380      3649      3650
 -1      1774    8    0    1
 -2       838       857       934      3401      3651      3649
 -1      1775    8    0    1
 -2       853       834       915      3386      3575      3652
 -1      1776    8    0    1
 -2       829       852       935      3384      3653      3654
 -1      1777    8    0    1
 -2       839       829       936      3324      3655      3656
 -1      1778    8    0    1
 -2       829       935       936      3654      3657      3655
 -1      1779    8    0    1
 -2       854       783       925      3391      3658      3659
 -1      1780    8    0    1
 -2       925       783       843      3658      3342      3660
 -1      1781    8    0    1
 -2       888       827       848      3614      3366      3493
 -1      1782    8    0    1
 -2       889       890       937      3500      3661      3662
 -1      1783    8    0    1
 -2       888       859       856      3616      3663      3615
 -1      1784    8    0    1
 -2       928       831       835      3620      3311      3664
 -1      1785    8    0    1
 -2       857       928       933      3621      3665      3666
 -1      1786    8    0    1
 -2       859       858       938      3406      3667      3668
 -1      1787    8    0    1
 -2       862       861       939      3414      3669      3670
 -1      1788    8    0    1
 -2       863       862       940      3417      3671      3672
 -1      1789    8    0    1
 -2       862       939       940      3670      3673      3671
 -1      1790    8    0    1
 -2       864       863       941      3420      3674      3675
 -1      1791    8    0    1
 -2       863       940       941      3672      3676      3674
 -1      1792    8    0    1
 -2       865       864       942      3423      3677      3678
 -1      1793    8    0    1
 -2       864       941       942      3675      3679      3677
 -1      1794    8    0    1
 -2       866       865       943      3426      3680      3681
 -1      1795    8    0    1
 -2       865       942       943      3678      3682      3680
 -1      1796    8    0    1
 -2       867       866       944      3429      3683      3684
 -1      1797    8    0    1
 -2       866       943       944      3681      3685      3683
 -1      1798    8    0    1
 -2       868       867       945      3432      3686      3687
 -1      1799    8    0    1
 -2       867       944       945      3684      3688      3686
 -1      1800    8    0    1
 -2       869       868       946      3435      3689      3690
 -1      1801    8    0    1
 -2       868       945       946      3687      3691      3689
 -1      1802    8    0    1
 -2       870       869       947      3438      3692      3693
 -1      1803    8    0    1
 -2       869       946       947      3690      3694      3692
 -1      1804    8    0    1
 -2       871       870       948      3441      3695      3696
 -1      1805    8    0    1
 -2       870       947       948      3693      3697      3695
 -1      1806    8    0    1
 -2       872       871       949      3444      3698      3699
 -1      1807    8    0    1
 -2       871       948       949      3696      3700      3698
 -1      1808    8    0    1
 -2       873       872       950      3447      3701      3702
 -1      1809    8    0    1
 -2       872       949       950      3699      3703      3701
 -1      1810    8    0    1
 -2       874       873       951      3450      3704      3705
 -1      1811    8    0    1
 -2       873       950       951      3702      3706      3704
 -1      1812    8    0    1
 -2       875       874       952      3453      3707      3708
 -1      1813    8    0    1
 -2       874       951       952      3705      3709      3707
 -1      1814    8    0    1
 -2       876       875       953      3456      3710      3711
 -1      1815    8    0    1
 -2       875       952       953      3708      3712      3710
 -1      1816    8    0    1
 -2       877       876       954      3459      3713      3714
 -1      1817    8    0    1
 -2       876       953       954      3711      3715      3713
 -1      1818    8    0    1
 -2       878       877       955      3462      3716      3717
 -1      1819    8    0    1
 -2       877       954       955      3714      3718      3716
 -1      1820    8    0    1
 -2       879       878       956      3465      3719      3720
 -1      1821    8    0    1
 -2       878       955       956      3717      3721      3719
 -1      1822    8    0    1
 -2       880       879       957      3468      3722      3723
 -1      1823    8    0    1
 -2       879       956       957      3720      3724      3722
 -1      1824    8    0    1
 -2       881       880       958      3471      3725      3726
 -1      1825    8    0    1
 -2       880       957       958      3723      3727      3725
 -1      1826    8    0    1
 -2       882       881       959      3474      3728      3729
 -1      1827    8    0    1
 -2       881       958       959      3726      3730      3728
 -1      1828    8    0    1
 -2       883       882       960      3477      3731      3732
 -1      1829    8    0    1
 -2       882       959       960      3729      3733      3731
 -1      1830    8    0    1
 -2       884       883       961      3480      3734      3735
 -1      1831    8    0    1
 -2       883       960       961      3732      3736      3734
 -1      1832    8    0    1
 -2       885       884       962      3483      3737      3738
 -1      1833    8    0    1
 -2       884       961       962      3735      3739      3737
 -1      1834    8    0    1
 -2       918       917       963      3583      3740      3741
 -1      1835    8    0    1
 -2       890       891       964      3503      3742      3743
 -1      1836    8    0    1
 -2       890       964       937      3743      3744      3661
 -1      1837    8    0    1
 -2       891       892       965      3506      3745      3746
 -1      1838    8    0    1
 -2       891       965       964      3746      3747      3742
 -1      1839    8    0    1
 -2       892       893       966      3509      3748      3749
 -1      1840    8    0    1
 -2       892       966       965      3749      3750      3745
 -1      1841    8    0    1
 -2       893       894       967      3512      3751      3752
 -1      1842    8    0    1
 -2       893       967       966      3752      3753      3748
 -1      1843    8    0    1
 -2       894       895       968      3515      3754      3755
 -1      1844    8    0    1
 -2       894       968       967      3755      3756      3751
 -1      1845    8    0    1
 -2       895       896       969      3518      3757      3758
 -1      1846    8    0    1
 -2       895       969       968      3758      3759      3754
 -1      1847    8    0    1
 -2       896       897       970      3521      3760      3761
 -1      1848    8    0    1
 -2       896       970       969      3761      3762      3757
 -1      1849    8    0    1
 -2       897       898       971      3524      3763      3764
 -1      1850    8    0    1
 -2       897       971       970      3764      3765      3760
 -1      1851    8    0    1
 -2       898       899       972      3527      3766      3767
 -1      1852    8    0    1
 -2       898       972       971      3767      3768      3763
 -1      1853    8    0    1
 -2       899       900       973      3530      3769      3770
 -1      1854    8    0    1
 -2       899       973       972      3770      3771      3766
 -1      1855    8    0    1
 -2       900       901       974      3533      3772      3773
 -1      1856    8    0    1
 -2       900       974       973      3773      3774      3769
 -1      1857    8    0    1
 -2       901       902       975      3536      3775      3776
 -1      1858    8    0    1
 -2       901       975       974      3776      3777      3772
 -1      1859    8    0    1
 -2       902       903       976      3539      3778      3779
 -1      1860    8    0    1
 -2       902       976       975      3779      3780      3775
 -1      1861    8    0    1
 -2       903       904       977      3542      3781      3782
 -1      1862    8    0    1
 -2       903       977       976      3782      3783      3778
 -1      1863    8    0    1
 -2       904       905       978      3545      3784      3785
 -1      1864    8    0    1
 -2       904       978       977      3785      3786      3781
 -1      1865    8    0    1
 -2       905       906       979      3548      3787      3788
 -1      1866    8    0    1
 -2       905       979       978      3788      3789      3784
 -1      1867    8    0    1
 -2       906       907       980      3551      3790      3791
 -1      1868    8    0    1
 -2       906       980       979      3791      3792      3787
 -1      1869    8    0    1
 -2       907       908       981      3554      3793      3794
 -1      1870    8    0    1
 -2       907       981       980      3794      3795      3790
 -1      1871    8    0    1
 -2       908       909       982      3557      3796      3797
 -1      1872    8    0    1
 -2       908       982       981      3797      3798      3793
 -1      1873    8    0    1
 -2       909       910       983      3560      3799      3800
 -1      1874    8    0    1
 -2       909       983       982      3800      3801      3796
 -1      1875    8    0    1
 -2       910       911       984      3563      3802      3803
 -1      1876    8    0    1
 -2       910       984       983      3803      3804      3799
 -1      1877    8    0    1
 -2       911       912       985      3566      3805      3806
 -1      1878    8    0    1
 -2       911       985       984      3806      3807      3802
 -1      1879    8    0    1
 -2       912       913       986      3569      3808      3809
 -1      1880    8    0    1
 -2       912       986       985      3809      3810      3805
 -1      1881    8    0    1
 -2       913       914       987      3572      3811      3812
 -1      1882    8    0    1
 -2       986       913       987      3808      3812      3813
 -1      1883    8    0    1
 -2       914       929       987      3625      3814      3811
 -1      1884    8    0    1
 -2       845       822       840      3611      3328      3815
 -1      1885    8    0    1
 -2       915       887       988      3635      3816      3817
 -1      1886    8    0    1
 -2       920       918       989      3592      3818      3819
 -1      1887    8    0    1
 -2       918       963       989      3741      3820      3818
 -1      1888    8    0    1
 -2       917       855       990      3634      3821      3822
 -1      1889    8    0    1
 -2       963       917       990      3740      3822      3823
 -1      1890    8    0    1
 -2       855       886       990      3486      3824      3821
 -1      1891    8    0    1
 -2       860       927       853      3622      3648      3825
 -1      1892    8    0    1
 -2       852       847       991      3636      3826      3827
 -1      1893    8    0    1
 -2       935       852       991      3653      3827      3828
 -1      1894    8    0    1
 -2       847       919       991      3586      3829      3826
 -1      1895    8    0    1
 -2       850       922       992      3597      3830      3831
 -1      1896    8    0    1
 -2       850       992       933      3831      3832      3643
 -1      1897    8    0    1
 -2       916       924       933      3604      3645      3833
 -1      1898    8    0    1
 -2       926       921       993      3638      3834      3835
 -1      1899    8    0    1
 -2       925       926       854      3637      3836      3659
 -1      1900    8    0    1
 -2       843       845       840      3356      3815      3837
 -1      1901    8    0    1
 -2       843       840       925      3837      3613      3660
 -1      1902    8    0    1
 -2       853       915       994      3652      3838      3839
 -1      1903    8    0    1
 -2       853       994       860      3839      3840      3825
 -1      1904    8    0    1
 -2       861       860       994      3411      3840      3841
 -1      1905    8    0    1
 -2       922       839       995      3626      3842      3843
 -1      1906    8    0    1
 -2       992       922       995      3830      3843      3844
 -1      1907    8    0    1
 -2       839       936       995      3656      3845      3842
 -1      1908    8    0    1
 -2       858       889       996      3497      3846      3847
 -1      1909    8    0    1
 -2       889       937       996      3662      3848      3846
 -1      1910    8    0    1
 -2       856       859       997      3663      3849      3850
 -1      1911    8    0    1
 -2       923       856       997      3601      3850      3851
 -1      1912    8    0    1
 -2       859       938       997      3668      3852      3849
 -1      1913    8    0    1
 -2       939       861       994      3669      3841      3853
 -1      1914    8    0    1
 -2       938       858       996      3667      3847      3854
 -1      1915    8    0    1
 -2       994       915       988      3838      3817      3855
 -1      1916    8    0    1
 -2       851       934       932      3650      3856      3642
 -1      1917    8    0    1
 -2       928       835       916      3664      3612      3857
 -1      1918    8    0    1
 -2       886       885       998      3487      3858      3859
 -1      1919    8    0    1
 -2       990       886       998      3824      3859      3860
 -1      1920    8    0    1
 -2       885       962       998      3738      3861      3858
 -1      1921    8    0    1
 -2       930       842       999      3629      3862      3863
 -1      1922    8    0    1
 -2       931       920      1000      3633      3864      3865
 -1      1923    8    0    1
 -2       920       989      1000      3819      3866      3864
 -1      1924    8    0    1
 -2       988       887      1001      3816      3867      3868
 -1      1925    8    0    1
 -2       999       842       923      3862      3600      3869
 -1      1926    8    0    1
 -2       928       916       933      3857      3833      3665
 -1      1927    8    0    1
 -2      1001       887       930      3867      3628      3870
 -1      1928    8    0    1
 -2       935       991       993      3828      3871      3872
 -1      1929    8    0    1
 -2       993       921       932      3834      3641      3873
 -1      1930    8    0    1
 -2       854       926       991      3836      3874      3875
 -1      1931    8    0    1
 -2       936       935       993      3657      3872      3876
 -1      1932    8    0    1
 -2       934       857       933      3651      3666      3877
 -1      1933    8    0    1
 -2      1001       930      1002      3870      3878      3879
 -1      1934    8    0    1
 -2       930       999      1002      3863      3880      3878
 -1      1935    8    0    1
 -2       939       994      1003      3853      3881      3882
 -1      1936    8    0    1
 -2       940       939      1003      3673      3882      3883
 -1      1937    8    0    1
 -2       994       988      1003      3855      3884      3881
 -1      1938    8    0    1
 -2       938       996      1002      3854      3885      3886
 -1      1939    8    0    1
 -2       941       940      1004      3676      3887      3888
 -1      1940    8    0    1
 -2       942       941      1005      3679      3889      3890
 -1      1941    8    0    1
 -2       941      1004      1005      3888      3891      3889
 -1      1942    8    0    1
 -2       943       942      1006      3682      3892      3893
 -1      1943    8    0    1
 -2       942      1005      1006      3890      3894      3892
 -1      1944    8    0    1
 -2       944       943      1007      3685      3895      3896
 -1      1945    8    0    1
 -2       943      1006      1007      3893      3897      3895
 -1      1946    8    0    1
 -2       945       944      1008      3688      3898      3899
 -1      1947    8    0    1
 -2       944      1007      1008      3896      3900      3898
 -1      1948    8    0    1
 -2       946       945      1009      3691      3901      3902
 -1      1949    8    0    1
 -2       945      1008      1009      3899      3903      3901
 -1      1950    8    0    1
 -2       947       946      1010      3694      3904      3905
 -1      1951    8    0    1
 -2       946      1009      1010      3902      3906      3904
 -1      1952    8    0    1
 -2       948       947      1011      3697      3907      3908
 -1      1953    8    0    1
 -2       947      1010      1011      3905      3909      3907
 -1      1954    8    0    1
 -2       949       948      1012      3700      3910      3911
 -1      1955    8    0    1
 -2       948      1011      1012      3908      3912      3910
 -1      1956    8    0    1
 -2       950       949      1013      3703      3913      3914
 -1      1957    8    0    1
 -2       949      1012      1013      3911      3915      3913
 -1      1958    8    0    1
 -2       951       950      1014      3706      3916      3917
 -1      1959    8    0    1
 -2       950      1013      1014      3914      3918      3916
 -1      1960    8    0    1
 -2       952       951      1015      3709      3919      3920
 -1      1961    8    0    1
 -2       951      1014      1015      3917      3921      3919
 -1      1962    8    0    1
 -2       953       952      1016      3712      3922      3923
 -1      1963    8    0    1
 -2       952      1015      1016      3920      3924      3922
 -1      1964    8    0    1
 -2       954       953      1017      3715      3925      3926
 -1      1965    8    0    1
 -2       953      1016      1017      3923      3927      3925
 -1      1966    8    0    1
 -2       955       954      1018      3718      3928      3929
 -1      1967    8    0    1
 -2       954      1017      1018      3926      3930      3928
 -1      1968    8    0    1
 -2       956       955      1019      3721      3931      3932
 -1      1969    8    0    1
 -2       955      1018      1019      3929      3933      3931
 -1      1970    8    0    1
 -2       957       956      1020      3724      3934      3935
 -1      1971    8    0    1
 -2       956      1019      1020      3932      3936      3934
 -1      1972    8    0    1
 -2       958       957      1021      3727      3937      3938
 -1      1973    8    0    1
 -2       957      1020      1021      3935      3939      3937
 -1      1974    8    0    1
 -2       959       958      1022      3730      3940      3941
 -1      1975    8    0    1
 -2       958      1021      1022      3938      3942      3940
 -1      1976    8    0    1
 -2       960       959      1023      3733      3943      3944
 -1      1977    8    0    1
 -2       959      1022      1023      3941      3945      3943
 -1      1978    8    0    1
 -2       961       960      1024      3736      3946      3947
 -1      1979    8    0    1
 -2       960      1023      1024      3944      3948      3946
 -1      1980    8    0    1
 -2       962       961      1025      3739      3949      3950
 -1      1981    8    0    1
 -2       961      1024      1025      3947      3951      3949
 -1      1982    8    0    1
 -2       937       964      1026      3744      3952      3953
 -1      1983    8    0    1
 -2       966       967      1027      3753      3954      3955
 -1      1984    8    0    1
 -2       967       968      1028      3756      3956      3957
 -1      1985    8    0    1
 -2       967      1028      1027      3957      3958      3954
 -1      1986    8    0    1
 -2       968       969      1029      3759      3959      3960
 -1      1987    8    0    1
 -2       968      1029      1028      3960      3961      3956
 -1      1988    8    0    1
 -2       969       970      1030      3762      3962      3963
 -1      1989    8    0    1
 -2       969      1030      1029      3963      3964      3959
 -1      1990    8    0    1
 -2       970       971      1031      3765      3965      3966
 -1      1991    8    0    1
 -2       970      1031      1030      3966      3967      3962
 -1      1992    8    0    1
 -2       971       972      1032      3768      3968      3969
 -1      1993    8    0    1
 -2       971      1032      1031      3969      3970      3965
 -1      1994    8    0    1
 -2       972       973      1033      3771      3971      3972
 -1      1995    8    0    1
 -2       972      1033      1032      3972      3973      3968
 -1      1996    8    0    1
 -2       973       974      1034      3774      3974      3975
 -1      1997    8    0    1
 -2       973      1034      1033      3975      3976      3971
 -1      1998    8    0    1
 -2       974       975      1035      3777      3977      3978
 -1      1999    8    0    1
 -2       974      1035      1034      3978      3979      3974
 -1      2000    8    0    1
 -2       975       976      1036      3780      3980      3981
 -1      2001    8    0    1
 -2       975      1036      1035      3981      3982      3977
 -1      2002    8    0    1
 -2       976       977      1037      3783      3983      3984
 -1      2003    8    0    1
 -2       976      1037      1036      3984      3985      3980
 -1      2004    8    0    1
 -2       977       978      1038      3786      3986      3987
 -1      2005    8    0    1
 -2       977      1038      1037      3987      3988      3983
 -1      2006    8    0    1
 -2       978       979      1039      3789      3989      3990
 -1      2007    8    0    1
 -2       978      1039      1038      3990      3991      3986
 -1      2008    8    0    1
 -2       979       980      1040      3792      3992      3993
 -1      2009    8    0    1
 -2       979      1040      1039      3993      3994      3989
 -1      2010    8    0    1
 -2       980       981      1041      3795      3995      3996
 -1      2011    8    0    1
 -2       980      1041      1040      3996      3997      3992
 -1      2012    8    0    1
 -2       981       982      1042      3798      3998      3999
 -1      2013    8    0    1
 -2       981      1042      1041      3999      4000      3995
 -1      2014    8    0    1
 -2       982       983      1043      3801      4001      4002
 -1      2015    8    0    1
 -2       982      1043      1042      4002      4003      3998
 -1      2016    8    0    1
 -2       983       984      1044      3804      4004      4005
 -1      2017    8    0    1
 -2       983      1044      1043      4005      4006      4001
 -1      2018    8    0    1
 -2       984       985      1045      3807      4007      4008
 -1      2019    8    0    1
 -2       984      1045      1044      4008      4009      4004
 -1      2020    8    0    1
 -2       985       986      1046      3810      4010      4011
 -1      2021    8    0    1
 -2       985      1046      1045      4011      4012      4007
 -1      2022    8    0    1
 -2       989       963      1047      3820      4013      4014
 -1      2023    8    0    1
 -2       988      1001      1048      3868      4015      4016
 -1      2024    8    0    1
 -2       988      1048      1003      4016      4017      3884
 -1      2025    8    0    1
 -2       933       992       934      3832      4018      3877
 -1      2026    8    0    1
 -2       919       854       991      3587      3875      3829
 -1      2027    8    0    1
 -2       929       931      1049      3632      4019      4020
 -1      2028    8    0    1
 -2       987       929      1049      3814      4020      4021
 -1      2029    8    0    1
 -2       931      1000      1049      3865      4022      4019
 -1      2030    8    0    1
 -2       964       965      1050      3747      4023      4024
 -1      2031    8    0    1
 -2       964      1050      1026      4024      4025      3952
 -1      2032    8    0    1
 -2       993       932       936      3873      4026      3876
 -1      2033    8    0    1
 -2       996       937      1051      3848      4027      4028
 -1      2034    8    0    1
 -2      1002       996      1051      3885      4028      4029
 -1      2035    8    0    1
 -2       937      1026      1051      3953      4030      4027
 -1      2036    8    0    1
 -2       965       966      1052      3750      4031      4032
 -1      2037    8    0    1
 -2      1050       965      1052      4023      4032      4033
 -1      2038    8    0    1
 -2       966      1027      1052      3955      4034      4031
 -1      2039    8    0    1
 -2       934       992       995      4018      3844      4035
 -1      2040    8    0    1
 -2       936       932       995      4026      4036      3845
 -1      2041    8    0    1
 -2      1004       940      1003      3887      3883      4037
 -1      2042    8    0    1
 -2       963       990      1053      3823      4038      4039
 -1      2043    8    0    1
 -2      1047       963      1053      4013      4039      4040
 -1      2044    8    0    1
 -2       990       998      1053      3860      4041      4038
 -1      2045    8    0    1
 -2       998       962      1054      3861      4042      4043
 -1      2046    8    0    1
 -2      1053       998      1054      4041      4043      4044
 -1      2047    8    0    1
 -2       962      1025      1054      3950      4045      4042
 -1      2048    8    0    1
 -2      1000       989      1055      3866      4046      4047
 -1      2049    8    0    1
 -2       989      1047      1055      4014      4048      4046
 -1      2050    8    0    1
 -2       934       995       932      4035      4036      3856
 -1      2051    8    0    1
 -2       986       987      1056      3813      4049      4050
 -1      2052    8    0    1
 -2      1046       986      1056      4010      4050      4051
 -1      2053    8    0    1
 -2       987      1049      1056      4021      4052      4049
 -1      2054    8    0    1
 -2       999       923       997      3869      3851      4053
 -1      2055    8    0    1
 -2       999       997       938      4053      3852      4054
 -1      2056    8    0    1
 -2      1048      1001      1057      4015      4055      4056
 -1      2057    8    0    1
 -2      1002       999       938      3880      4054      3886
 -1      2058    8    0    1
 -2      1001      1002      1057      3879      4057      4055
 -1      2059    8    0    1
 -2      1006      1005      1058      3894      4058      4059
 -1      2060    8    0    1
 -2      1007      1006      1059      3897      4060      4061
 -1      2061    8    0    1
 -2      1006      1058      1059      4059      4062      4060
 -1      2062    8    0    1
 -2      1008      1007      1060      3900      4063      4064
 -1      2063    8    0    1
 -2      1007      1059      1060      4061      4065      4063
 -1      2064    8    0    1
 -2      1009      1008      1061      3903      4066      4067
 -1      2065    8    0    1
 -2      1008      1060      1061      4064      4068      4066
 -1      2066    8    0    1
 -2      1010      1009      1062      3906      4069      4070
 -1      2067    8    0    1
 -2      1009      1061      1062      4067      4071      4069
 -1      2068    8    0    1
 -2      1011      1010      1063      3909      4072      4073
 -1      2069    8    0    1
 -2      1010      1062      1063      4070      4074      4072
 -1      2070    8    0    1
 -2      1012      1011      1064      3912      4075      4076
 -1      2071    8    0    1
 -2      1011      1063      1064      4073      4077      4075
 -1      2072    8    0    1
 -2      1013      1012      1065      3915      4078      4079
 -1      2073    8    0    1
 -2      1012      1064      1065      4076      4080      4078
 -1      2074    8    0    1
 -2      1014      1013      1066      3918      4081      4082
 -1      2075    8    0    1
 -2      1013      1065      1066      4079      4083      4081
 -1      2076    8    0    1
 -2      1015      1014      1067      3921      4084      4085
 -1      2077    8    0    1
 -2      1014      1066      1067      4082      4086      4084
 -1      2078    8    0    1
 -2      1016      1015      1068      3924      4087      4088
 -1      2079    8    0    1
 -2      1015      1067      1068      4085      4089      4087
 -1      2080    8    0    1
 -2      1017      1016      1069      3927      4090      4091
 -1      2081    8    0    1
 -2      1016      1068      1069      4088      4092      4090
 -1      2082    8    0    1
 -2      1018      1017      1070      3930      4093      4094
 -1      2083    8    0    1
 -2      1017      1069      1070      4091      4095      4093
 -1      2084    8    0    1
 -2      1019      1018      1071      3933      4096      4097
 -1      2085    8    0    1
 -2      1018      1070      1071      4094      4098      4096
 -1      2086    8    0    1
 -2      1020      1019      1072      3936      4099      4100
 -1      2087    8    0    1
 -2      1019      1071      1072      4097      4101      4099
 -1      2088    8    0    1
 -2      1021      1020      1073      3939      4102      4103
 -1      2089    8    0    1
 -2      1020      1072      1073      4100      4104      4102
 -1      2090    8    0    1
 -2      1022      1021      1074      3942      4105      4106
 -1      2091    8    0    1
 -2      1021      1073      1074      4103      4107      4105
 -1      2092    8    0    1
 -2      1023      1022      1075      3945      4108      4109
 -1      2093    8    0    1
 -2      1022      1074      1075      4106      4110      4108
 -1      2094    8    0    1
 -2      1024      1023      1076      3948      4111      4112
 -1      2095    8    0    1
 -2      1023      1075      1076      4109      4113      4111
 -1      2096    8    0    1
 -2      1025      1024      1077      3951      4114      4115
 -1      2097    8    0    1
 -2      1024      1076      1077      4112      4116      4114
 -1      2098    8    0    1
 -2      1026      1050      1078      4025      4117      4118
 -1      2099    8    0    1
 -2      1027      1028      1079      3958      4119      4120
 -1      2100    8    0    1
 -2      1030      1031      1080      3967      4121      4122
 -1      2101    8    0    1
 -2      1031      1032      1081      3970      4123      4124
 -1      2102    8    0    1
 -2      1031      1081      1080      4124      4125      4121
 -1      2103    8    0    1
 -2      1032      1033      1082      3973      4126      4127
 -1      2104    8    0    1
 -2      1032      1082      1081      4127      4128      4123
 -1      2105    8    0    1
 -2      1033      1034      1083      3976      4129      4130
 -1      2106    8    0    1
 -2      1033      1083      1082      4130      4131      4126
 -1      2107    8    0    1
 -2      1034      1035      1084      3979      4132      4133
 -1      2108    8    0    1
 -2      1034      1084      1083      4133      4134      4129
 -1      2109    8    0    1
 -2      1035      1036      1085      3982      4135      4136
 -1      2110    8    0    1
 -2      1035      1085      1084      4136      4137      4132
 -1      2111    8    0    1
 -2      1036      1037      1086      3985      4138      4139
 -1      2112    8    0    1
 -2      1036      1086      1085      4139      4140      4135
 -1      2113    8    0    1
 -2      1037      1038      1087      3988      4141      4142
 -1      2114    8    0    1
 -2      1037      1087      1086      4142      4143      4138
 -1      2115    8    0    1
 -2      1038      1039      1088      3991      4144      4145
 -1      2116    8    0    1
 -2      1038      1088      1087      4145      4146      4141
 -1      2117    8    0    1
 -2      1039      1040      1089      3994      4147      4148
 -1      2118    8    0    1
 -2      1039      1089      1088      4148      4149      4144
 -1      2119    8    0    1
 -2      1040      1041      1090      3997      4150      4151
 -1      2120    8    0    1
 -2      1040      1090      1089      4151      4152      4147
 -1      2121    8    0    1
 -2      1041      1042      1091      4000      4153      4154
 -1      2122    8    0    1
 -2      1041      1091      1090      4154      4155      4150
 -1      2123    8    0    1
 -2      1042      1043      1092      4003      4156      4157
 -1      2124    8    0    1
 -2      1042      1092      1091      4157      4158      4153
 -1      2125    8    0    1
 -2      1043      1044      1093      4006      4159      4160
 -1      2126    8    0    1
 -2      1043      1093      1092      4160      4161      4156
 -1      2127    8    0    1
 -2      1044      1045      1094      4009      4162      4163
 -1      2128    8    0    1
 -2      1044      1094      1093      4163      4164      4159
 -1      2129    8    0    1
 -2      1045      1046      1095      4012      4165      4166
 -1      2130    8    0    1
 -2      1045      1095      1094      4166      4167      4162
 -1      2131    8    0    1
 -2      1003      1048      1004      4017      4168      4037
 -1      2132    8    0    1
 -2      1029      1030      1096      3964      4169      4170
 -1      2133    8    0    1
 -2      1030      1080      1096      4122      4171      4169
 -1      2134    8    0    1
 -2      1028      1029      1097      3961      4172      4173
 -1      2135    8    0    1
 -2      1079      1028      1097      4119      4173      4174
 -1      2136    8    0    1
 -2      1029      1096      1097      4170      4175      4172
 -1      2137    8    0    1
 -2       991       926       993      3874      3835      3871
 -1      2138    8    0    1
 -2      1005      1004      1098      3891      4176      4177
 -1      2139    8    0    1
 -2      1005      1098      1058      4177      4178      4058
 -1      2140    8    0    1
 -2      1057      1002      1051      4057      4029      4179
 -1      2141    8    0    1
 -2      1004      1048      1099      4168      4180      4181
 -1      2142    8    0    1
 -2      1098      1004      1099      4176      4181      4182
 -1      2143    8    0    1
 -2      1048      1057      1099      4056      4183      4180
 -1      2144    8    0    1
 -2      1055      1047      1100      4048      4184      4185
 -1      2145    8    0    1
 -2      1050      1052      1101      4033      4186      4187
 -1      2146    8    0    1
 -2      1050      1101      1078      4187      4188      4117
 -1      2147    8    0    1
 -2      1025      1077      1100      4115      4189      4190
 -1      2148    8    0    1
 -2      1027      1079      1102      4120      4191      4192
 -1      2149    8    0    1
 -2      1027      1102      1052      4192      4193      4034
 -1      2150    8    0    1
 -2      1046      1056      1055      4051      4194      4195
 -1      2151    8    0    1
 -2      1051      1026      1057      4030      4196      4179
 -1      2152    8    0    1
 -2      1046      1055      1095      4195      4197      4165
 -1      2153    8    0    1
 -2      1049      1000      1056      4022      4198      4052
 -1      2154    8    0    1
 -2      1099      1057      1078      4183      4199      4200
 -1      2155    8    0    1
 -2      1057      1026      1078      4196      4118      4199
 -1      2156    8    0    1
 -2      1056      1000      1055      4198      4047      4194
 -1      2157    8    0    1
 -2      1100      1077      1103      4189      4201      4202
 -1      2158    8    0    1
 -2      1077      1076      1103      4116      4203      4201
 -1      2159    8    0    1
 -2      1047      1053      1054      4040      4044      4204
 -1      2160    8    0    1
 -2      1060      1059      1079      4065      4205      4206
 -1      2161    8    0    1
 -2      1061      1060      1097      4068      4207      4208
 -1      2162    8    0    1
 -2      1062      1061      1096      4071      4209      4210
 -1      2163    8    0    1
 -2      1063      1062      1080      4074      4211      4212
 -1      2164    8    0    1
 -2      1064      1063      1081      4077      4213      4214
 -1      2165    8    0    1
 -2      1065      1064      1082      4080      4215      4216
 -1      2166    8    0    1
 -2      1066      1065      1083      4083      4217      4218
 -1      2167    8    0    1
 -2      1067      1066      1084      4086      4219      4220
 -1      2168    8    0    1
 -2      1068      1067      1085      4089      4221      4222
 -1      2169    8    0    1
 -2      1069      1068      1086      4092      4223      4224
 -1      2170    8    0    1
 -2      1070      1069      1087      4095      4225      4226
 -1      2171    8    0    1
 -2      1071      1070      1088      4098      4227      4228
 -1      2172    8    0    1
 -2      1072      1071      1089      4101      4229      4230
 -1      2173    8    0    1
 -2      1073      1072      1090      4104      4231      4232
 -1      2174    8    0    1
 -2      1074      1073      1091      4107      4233      4234
 -1      2175    8    0    1
 -2      1075      1074      1092      4110      4235      4236
 -1      2176    8    0    1
 -2      1076      1075      1093      4113      4237      4238
 -1      2177    8    0    1
 -2      1079      1059      1102      4205      4239      4191
 -1      2178    8    0    1
 -2      1062      1096      1080      4210      4171      4211
 -1      2179    8    0    1
 -2      1063      1080      1081      4212      4125      4213
 -1      2180    8    0    1
 -2      1064      1081      1082      4214      4128      4215
 -1      2181    8    0    1
 -2      1065      1082      1083      4216      4131      4217
 -1      2182    8    0    1
 -2      1066      1083      1084      4218      4134      4219
 -1      2183    8    0    1
 -2      1067      1084      1085      4220      4137      4221
 -1      2184    8    0    1
 -2      1068      1085      1086      4222      4140      4223
 -1      2185    8    0    1
 -2      1069      1086      1087      4224      4143      4225
 -1      2186    8    0    1
 -2      1070      1087      1088      4226      4146      4227
 -1      2187    8    0    1
 -2      1071      1088      1089      4228      4149      4229
 -1      2188    8    0    1
 -2      1072      1089      1090      4230      4152      4231
 -1      2189    8    0    1
 -2      1073      1090      1091      4232      4155      4233
 -1      2190    8    0    1
 -2      1074      1091      1092      4234      4158      4235
 -1      2191    8    0    1
 -2      1075      1092      1093      4236      4161      4237
 -1      2192    8    0    1
 -2      1047      1054      1100      4204      4240      4184
 -1      2193    8    0    1
 -2      1058      1098      1101      4178      4241      4242
 -1      2194    8    0    1
 -2      1059      1058      1102      4062      4243      4239
 -1      2195    8    0    1
 -2      1094      1095      1103      4167      4244      4245
 -1      2196    8    0    1
 -2      1096      1061      1097      4209      4208      4175
 -1      2197    8    0    1
 -2      1060      1079      1097      4206      4174      4207
 -1      2198    8    0    1
 -2      1095      1055      1100      4197      4185      4246
 -1      2199    8    0    1
 -2      1095      1100      1103      4246      4202      4244
 -1      2200    8    0    1
 -2      1052      1102      1101      4193      4247      4186
 -1      2201    8    0    1
 -2      1076      1093      1094      4238      4164      4248
 -1      2202    8    0    1
 -2      1025      1100      1054      4190      4240      4045
 -1      2203    8    0    1
 -2      1102      1058      1101      4243      4242      4247
 -1      2204    8    0    1
 -2      1098      1099      1101      4182      4249      4241
 -1      2205    8    0    1
 -2      1099      1078      1101      4200      4188      4249
 -1      2206    8    0    1
 -2      1076      1094      1103      4248      4245      4203
 -3
    1PSTEP                         1           1           1          
  100CL  101 1.000000000        4249                     0    1           1
 -4  DISP        4    1
 -5  D1          1    2    1    0
 -5  D2          1    2    2    0
 -5  D3          1    2    3    0
 -5  ALL         1    2    0    0    1ALL
 -1         1 3.99984E-03-1.20327E-03-9.71738E-15
 -1         2 6.13533E-03-3.57380E-04-1.34455E-14
 -1         3 1.47612E-02-1.37209E-03-1.23458E-13
 -1         4 1.56812E-02-2.80149E-03-1.33872E-13
 -1         5 0.00000E+00 0.00000E+00 0.00000E+00
 -1         6 0.00000E+00 0.00000E+00 0.00000E+00
 -1         7 0.00000E+00 0.00000E+00 0.00000E+00
 -1         8 0.00000E+00 0.00000E+00 0.00000E+00
 -1         9 0.00000E+00 0.00000E+00 0.00000E+00
 -1        10 0.00000E+00 0.00000E+00 0.00000E+00
 -1        11 0.00000E+00 0.00000E+00 0.00000E+00
 -1        12 0.00000E+00 0.00000E+00 0.00000E+00
 -1        13 0.00000E+00 0.00000E+00 0.00000E+00
 -1        14 0.00000E+00 0.00000E+00 0.00000E+00
 -1        15 0.00000E+00 0.00000E+00 0.00000E+00
 -1        16 0.00000E+00 0.00000E+00 0.00000E+00
 -1        17 0.00000E+00 0.00000E+00 0.00000E+00
 -1        18 0.00000E+00 0.00000E+00 0.00000E+00
 -1        19 0.00000E+00 0.00000E+00 0.00000E+00
 -1        20 0.00000E+00 0.00000E+00 0.00000E+00
 -1        21 0.00000E+00 0.00000E+00 0.00000E+00
 -1        22 0.00000E+00 0.00000E+00 0.00000E+00
 -1        23 4.38533E-04-2.45909E-04 1.04490E-17
 -1        24 7.74235E-04-3.67663E-04-1.47729E-16
 -1        25 1.10423E-03-4.57330E-04-4.65912E-16
 -1        26 1.44317E-03-5.35185E-04-9.36737E-16
 -1        27 1.79564E-03-6.16053E-04-1.55586E-15
 -1        28 2.16230E-03-7.12074E-04-2.32239E-15
 -1        29 2.53888E-03-8.33493E-04-3.23457E-15
 -1        30 2.91477E-03-9.85596E-04-4.29424E-15
 -1        31 3.27341E-03-1.16287E-03-5.50147E-15
 -1        32 3.59763E-03-1.34322E-03-6.85989E-15
 -1        33 3.88045E-03-1.48921E-03-8.36658E-15
 -1        34 4.13468E-03-1.56274E-03-1.00203E-14
 -1        35 4.37691E-03-1.55059E-03-1.17314E-14
 -1        36 4.66148E-03-1.46719E-03-1.36776E-14
 -1        37 4.98966E-03-1.34970E-03-1.57582E-14
 -1        38 5.35505E-03-1.23719E-03-1.79750E-14
 -1        39 5.74044E-03-1.15395E-03-2.03209E-14
 -1        40 6.12866E-03-1.10778E-03-2.27848E-14
 -1        41 6.50817E-03-1.09580E-03-2.53597E-14
 -1        42 6.87347E-03-1.11076E-03-2.80340E-14
 -1        43 7.22335E-03-1.14496E-03-3.07965E-14
 -1        44 7.55896E-03-1.19191E-03-3.36426E-14
 -1        45 7.88243E-03-1.24679E-03-3.65745E-14
 -1        46 8.19606E-03-1.30623E-03-3.95778E-14
 -1        47 8.50198E-03-1.36798E-03-4.26547E-14
 -1        48 8.80202E-03-1.43059E-03-4.58079E-14
 -1        49 9.09764E-03-1.49321E-03-4.90391E-14
 -1        50 9.39000E-03-1.55533E-03-5.23370E-14
 -1        51 9.68001E-03-1.61669E-03-5.56849E-14
 -1        52 9.96833E-03-1.67720E-03-5.90922E-14
 -1        53 1.02555E-02-1.73686E-03-6.25604E-14
 -1        54 1.05419E-02-1.79573E-03-6.60779E-14
 -1        55 1.08277E-02-1.85388E-03-6.96465E-14
 -1        56 1.11133E-02-1.91142E-03-7.32517E-14
 -1        57 1.13986E-02-1.96844E-03-7.68915E-14
 -1        58 1.16839E-02-2.02503E-03-8.05589E-14
 -1        59 1.19692E-02-2.08127E-03-8.42393E-14
 -1        60 1.22544E-02-2.13724E-03-8.79259E-14
 -1        61 1.25398E-02-2.19299E-03-9.16386E-14
 -1        62 1.28251E-02-2.24858E-03-9.53814E-14
 -1        63 1.31105E-02-2.30404E-03-9.91564E-14
 -1        64 1.33960E-02-2.35942E-03-1.02948E-13
 -1        65 1.36815E-02-2.41473E-03-1.06744E-13
 -1        66 1.39671E-02-2.47000E-03-1.10579E-13
 -1        67 1.42527E-02-2.52525E-03-1.14431E-13
 -1        68 1.45384E-02-2.58048E-03-1.18287E-13
 -1        69 1.48241E-02-2.63572E-03-1.22158E-13
 -1        70 1.51098E-02-2.69096E-03-1.26056E-13
 -1        71 1.53955E-02-2.74622E-03-1.29978E-13
 -1        72 4.35769E-04 2.54774E-04 9.62094E-17
 -1        73 7.57366E-04 3.87091E-04 8.75798E-17
 -1        74 1.06861E-03 4.81527E-04-3.06287E-17
 -1        75 1.37948E-03 5.59787E-04-2.63895E-16
 -1        76 1.69211E-03 6.32314E-04-6.16836E-16
 -1        77 2.00509E-03 7.05170E-04-1.09438E-15
 -1        78 2.31465E-03 7.80817E-04-1.70079E-15
 -1        79 2.61565E-03 8.57699E-04-2.43752E-15
 -1        80 2.90303E-03 9.29782E-04-3.30728E-15
 -1        81 3.17395E-03 9.87111E-04-4.31483E-15
 -1        82 3.42982E-03 1.01811E-03-5.46526E-15
 -1        83 3.67696E-03 1.01339E-03-6.75463E-15
 -1        84 3.92509E-03 9.69543E-04-8.18265E-15
 -1        85 4.18397E-03 8.90785E-04-9.74970E-15
 -1        86 4.46001E-03 7.87393E-04-1.14544E-14
 -1        87 4.75467E-03 6.72058E-04-1.32975E-14
 -1        88 5.06507E-03 5.56163E-04-1.52726E-14
 -1        89 5.38595E-03 4.47570E-04-1.73715E-14
 -1        90 5.71164E-03 3.50217E-04-1.95881E-14
 -1        91 6.03747E-03 2.64907E-04-2.19214E-14
 -1        92 6.36024E-03 1.90488E-04-2.43714E-14
 -1        93 6.67817E-03 1.24892E-04-2.69329E-14
 -1        94 6.99061E-03 6.58563E-05-2.95988E-14
 -1        95 7.29765E-03 1.13204E-05-3.23602E-14
 -1        96 7.59980E-03-4.04022E-05-3.52022E-14
 -1        97 7.89777E-03-9.05912E-05-3.81277E-14
 -1        98 8.19234E-03-1.40157E-04-4.11420E-14
 -1        99 8.48421E-03-1.89708E-04-4.42436E-14
 -1       100 8.77403E-03-2.39618E-04-4.74277E-14
 -1       101 9.06231E-03-2.90092E-04-5.06879E-14
 -1       102 9.34950E-03-3.41216E-04-5.40166E-14
 -1       103 9.63592E-03-3.93000E-04-5.74025E-14
 -1       104 9.92183E-03-4.45405E-04-6.08334E-14
 -1       105 1.02074E-02-4.98368E-04-6.43167E-14
 -1       106 1.04928E-02-5.51812E-04-6.78332E-14
 -1       107 1.07781E-02-6.05662E-04-7.13922E-14
 -1       108 1.10634E-02-6.59843E-04-7.49924E-14
 -1       109 1.13487E-02-7.14290E-04-7.86323E-14
 -1       110 1.16340E-02-7.68946E-04-8.22943E-14
 -1       111 1.19194E-02-8.23763E-04-8.59687E-14
 -1       112 1.22048E-02-8.78701E-04-8.96640E-14
 -1       113 1.24903E-02-9.33727E-04-9.33857E-14
 -1       114 1.27758E-02-9.88815E-04-9.71309E-14
 -1       115 1.30614E-02-1.04394E-03-1.00900E-13
 -1       116 1.33470E-02-1.09910E-03-1.04690E-13
 -1       117 1.36327E-02-1.15426E-03-1.08478E-13
 -1       118 1.39183E-02-1.20942E-03-1.12271E-13
 -1       119 1.42040E-02-1.26458E-03-1.16079E-13
 -1       120 1.44898E-02-1.31972E-03-1.19873E-13
 -1       121 1.48154E-02-1.45638E-03-1.24069E-13
 -1       122 1.48696E-02-1.54066E-03-1.24697E-13
 -1       123 1.49238E-02-1.62496E-03-1.25351E-13
 -1       124 1.49780E-02-1.70928E-03-1.25998E-13
 -1       125 1.50321E-02-1.79362E-03-1.26619E-13
 -1       126 1.50854E-02-1.87655E-03-1.27253E-13
 -1       127 1.51396E-02-1.96092E-03-1.27899E-13
 -1       128 1.51939E-02-2.04531E-03-1.28532E-13
 -1       129 1.52482E-02-2.12970E-03-1.29176E-13
 -1       130 1.53025E-02-2.21408E-03-1.29792E-13
 -1       131 1.53568E-02-2.29846E-03-1.30420E-13
 -1       132 1.54103E-02-2.38139E-03-1.31042E-13
 -1       133 1.54646E-02-2.46573E-03-1.31646E-13
 -1       134 1.55190E-02-2.55004E-03-1.32211E-13
 -1       135 1.55734E-02-2.63434E-03-1.32765E-13
 -1       136 1.56277E-02-2.71863E-03-1.33315E-13
 -1       137 6.06625E-03-1.86293E-04-1.32453E-14
 -1       138 5.89832E-03-1.49871E-05-1.28435E-14
 -1       139 5.65705E-03 1.36829E-04-1.23102E-14
 -1       140 5.30814E-03 2.84465E-04-1.15860E-14
 -1       141 4.93382E-03 3.93679E-04-1.08531E-14
 -1       142 4.47409E-03 4.80724E-04-1.00042E-14
 -1       143 4.02118E-03 5.25852E-04-9.21477E-15
 -1       144 3.53092E-03 5.33060E-04-8.41199E-15
 -1       145 3.05163E-03 4.95840E-04-7.66761E-15
 -1       146 2.64759E-03 4.25739E-04-7.07803E-15
 -1       147 2.30432E-03 3.27540E-04-6.60611E-15
 -1       148 2.00594E-03 1.93797E-04-6.22073E-15
 -1       149 1.81104E-03 4.94602E-05-5.99180E-15
 -1       150 1.69769E-03-1.20556E-04-5.88523E-15
 -1       151 1.69141E-03-2.99510E-04-5.92815E-15
 -1       152 1.78367E-03-4.72347E-04-6.10635E-15
 -1       153 1.96167E-03-6.38989E-04-6.40531E-15
 -1       154 2.24277E-03-8.07650E-04-6.85892E-15
 -1       155 2.59780E-03-9.56357E-04-7.42639E-15
 -1       156 3.04140E-03-1.08382E-03-8.13843E-15
 -1       157 3.53280E-03-1.16919E-03-8.93776E-15
 -1       158 4.49327E-03-1.19015E-03-1.05659E-14
 -1       159 4.94603E-03-1.13084E-03-1.13660E-14
 -1       160 5.36671E-03-1.02487E-03-1.21305E-14
 -1       161 5.70911E-03-8.86503E-04-1.27567E-14
 -1       162 5.96688E-03-7.16525E-04-1.32201E-14
 -1       163 6.10614E-03-5.38528E-04-1.34463E-14
 -1       164 2.63961E-04-9.97372E-05-4.61938E-17
 -1       165 2.40326E-04-6.28219E-05-6.29989E-17
 -1       166 2.23914E-04-3.96488E-05-7.09034E-17
 -1       167 2.10471E-04-2.51650E-05-7.41425E-17
 -1       168 2.00079E-04-1.69918E-05-7.47727E-17
 -1       169 1.92945E-04-1.28284E-05-7.36885E-17
 -1       170 1.89715E-04-1.07471E-05-7.13642E-17
 -1       171 1.90368E-04-8.62628E-06-6.85114E-17
 -1       172 1.94367E-04-4.62758E-06-6.46049E-17
 -1       173 2.00831E-04 2.54447E-06-5.95972E-17
 -1       174 2.08705E-04 1.33778E-05-5.30683E-17
 -1       175 2.17649E-04 2.85899E-05-4.41372E-17
 -1       176 2.27521E-04 4.85131E-05-3.18247E-17
 -1       177 2.39457E-04 7.46487E-05-1.39049E-17
 -1       178 2.58124E-04 1.11901E-04 1.33221E-17
 -1       179 3.20603E-04 1.73918E-04 4.41609E-17
 -1       180 5.20022E-04-2.27199E-04-1.20756E-16
 -1       181 8.61582E-04-3.29149E-04-3.80511E-16
 -1       182 1.19799E-03-4.09013E-04-7.86494E-16
 -1       183 1.53799E-03-4.84096E-04-1.33702E-15
 -1       184 1.88528E-03-5.67983E-04-2.02901E-15
 -1       185 2.24053E-03-6.73034E-04-2.86220E-15
 -1       186 2.60110E-03-8.08964E-04-3.83826E-15
 -1       187 2.96069E-03-9.78041E-04-4.95778E-15
 -1       188 3.31027E-03-1.16766E-03-6.22367E-15
 -1       189 3.64196E-03-1.34536E-03-7.63918E-15
 -1       190 3.95545E-03-1.46591E-03-9.20375E-15
 -1       191 4.24619E-03-1.49583E-03-1.08291E-14
 -1       192 4.56050E-03-1.43773E-03-1.26859E-14
 -1       193 4.89425E-03-1.32211E-03-1.46855E-14
 -1       194 5.24740E-03-1.19544E-03-1.68202E-14
 -1       195 5.61197E-03-1.09235E-03-1.90844E-14
 -1       196 5.97841E-03-1.02784E-03-2.14690E-14
 -1       197 6.33947E-03-1.00204E-03-2.39687E-14
 -1       198 6.69114E-03-1.00796E-03-2.65713E-14
 -1       199 7.03200E-03-1.03697E-03-2.92696E-14
 -1       200 7.36226E-03-1.08146E-03-3.20537E-14
 -1       201 7.68302E-03-1.13560E-03-3.49209E-14
 -1       202 7.99569E-03-1.19532E-03-3.78683E-14
 -1       203 8.30174E-03-1.25789E-03-4.08898E-14
 -1       204 8.60251E-03-1.32156E-03-4.39868E-14
 -1       205 8.89916E-03-1.38528E-03-4.71611E-14
 -1       206 9.19266E-03-1.44846E-03-5.04099E-14
 -1       207 9.48377E-03-1.51078E-03-5.37190E-14
 -1       208 9.77313E-03-1.57213E-03-5.70865E-14
 -1       209 1.00612E-02-1.63250E-03-6.05095E-14
 -1       210 1.03483E-02-1.69195E-03-6.39820E-14
 -1       211 1.06348E-02-1.75058E-03-6.75076E-14
 -1       212 1.09209E-02-1.80850E-03-7.10793E-14
 -1       213 1.12067E-02-1.86581E-03-7.46858E-14
 -1       214 1.14923E-02-1.92263E-03-7.83226E-14
 -1       215 1.17778E-02-1.97905E-03-8.19829E-14
 -1       216 1.20633E-02-2.03515E-03-8.56628E-14
 -1       217 1.23488E-02-2.09099E-03-8.93592E-14
 -1       218 1.26343E-02-2.14665E-03-9.30811E-14
 -1       219 1.29197E-02-2.20216E-03-9.68273E-14
 -1       220 1.32053E-02-2.25757E-03-1.00597E-13
 -1       221 1.34908E-02-2.31290E-03-1.04381E-13
 -1       222 1.37764E-02-2.36817E-03-1.08187E-13
 -1       223 1.40620E-02-2.42342E-03-1.12019E-13
 -1       224 1.43477E-02-2.47865E-03-1.15864E-13
 -1       225 1.46334E-02-2.53388E-03-1.19726E-13
 -1       226 1.49190E-02-2.58911E-03-1.23613E-13
 -1       227 1.52047E-02-2.64436E-03-1.27520E-13
 -1       228 1.54162E-02-2.68149E-03-1.30422E-13
 -1       229 6.56532E-04 3.07526E-04 7.66734E-18
 -1       230 9.79485E-04 4.05014E-04-1.31565E-16
 -1       231 1.29625E-03 4.84292E-04-3.82401E-16
 -1       232 1.61098E-03 5.56925E-04-7.51189E-16
 -1       233 1.92435E-03 6.29838E-04-1.24244E-15
 -1       234 2.23492E-03 7.06250E-04-1.85936E-15
 -1       235 2.53992E-03 7.85222E-04-2.60519E-15
 -1       236 2.83638E-03 8.61012E-04-3.48376E-15
 -1       237 3.12246E-03 9.23384E-04-4.49856E-15
 -1       238 3.39885E-03 9.59819E-04-5.65326E-15
 -1       239 3.66932E-03 9.59603E-04-6.94834E-15
 -1       240 3.93991E-03 9.18217E-04-8.38270E-15
 -1       241 4.21686E-03 8.39519E-04-9.95677E-15
 -1       242 4.50445E-03 7.34285E-04-1.16687E-14
 -1       243 4.80381E-03 6.16156E-04-1.35148E-14
 -1       244 5.11327E-03 4.97440E-04-1.54917E-14
 -1       245 5.42949E-03 3.86596E-04-1.75917E-14
 -1       246 5.74877E-03 2.87794E-04-1.98110E-14
 -1       247 6.06795E-03 2.01809E-04-2.21440E-14
 -1       248 6.38474E-03 1.27326E-04-2.45928E-14
 -1       249 6.69783E-03 6.20855E-05-2.71517E-14
 -1       250 7.00664E-03 3.64645E-06-2.98130E-14
 -1       251 7.31117E-03-5.01872E-05-3.25684E-14
 -1       252 7.61173E-03-1.01196E-04-3.54104E-14
 -1       253 7.90884E-03-1.50716E-04-3.83381E-14
 -1       254 8.20304E-03-1.99691E-04-4.13509E-14
 -1       255 8.49489E-03-2.48740E-04-4.44493E-14
 -1       256 8.78491E-03-2.98237E-04-4.76269E-14
 -1       257 9.07351E-03-3.48381E-04-5.08796E-14
 -1       258 9.36107E-03-3.99248E-04-5.41998E-14
 -1       259 9.64787E-03-4.50836E-04-5.75791E-14
 -1       260 9.93414E-03-5.03095E-04-6.10084E-14
 -1       261 1.02200E-02-5.55952E-04-6.44866E-14
 -1       262 1.05057E-02-6.09322E-04-6.80027E-14
 -1       263 1.07913E-02-6.63121E-04-7.15572E-14
 -1       264 1.10768E-02-7.17269E-04-7.51461E-14
 -1       265 1.13622E-02-7.71697E-04-7.87739E-14
 -1       266 1.16477E-02-8.26342E-04-8.24310E-14
 -1       267 1.19331E-02-8.81155E-04-8.61025E-14
 -1       268 1.22186E-02-9.36092E-04-8.97976E-14
 -1       269 1.25041E-02-9.91121E-04-9.35155E-14
 -1       270 1.27897E-02-1.04621E-03-9.72601E-14
 -1       271 1.30753E-02-1.10135E-03-1.01024E-13
 -1       272 1.33609E-02-1.15651E-03-1.04807E-13
 -1       273 1.36466E-02-1.21168E-03-1.08593E-13
 -1       274 1.39323E-02-1.26684E-03-1.12386E-13
 -1       275 1.42180E-02-1.32200E-03-1.16187E-13
 -1       276 1.45037E-02-1.37715E-03-1.19979E-13
 -1       277 1.45951E-02-1.45078E-03-1.21113E-13
 -1       278 1.46493E-02-1.53508E-03-1.21746E-13
 -1       279 1.47034E-02-1.61939E-03-1.22382E-13
 -1       280 1.47576E-02-1.70371E-03-1.23018E-13
 -1       281 1.48109E-02-1.78662E-03-1.23641E-13
 -1       282 1.48651E-02-1.87097E-03-1.24271E-13
 -1       283 1.49193E-02-1.95534E-03-1.24897E-13
 -1       284 1.49736E-02-2.03970E-03-1.25521E-13
 -1       285 1.50279E-02-2.12407E-03-1.26141E-13
 -1       286 1.50822E-02-2.20843E-03-1.26751E-13
 -1       287 1.51356E-02-2.29135E-03-1.27346E-13
 -1       288 1.51900E-02-2.37569E-03-1.27939E-13
 -1       289 1.52444E-02-2.46001E-03-1.28519E-13
 -1       290 1.52988E-02-2.54432E-03-1.29090E-13
 -1       291 1.53575E-02-2.61291E-03-1.29758E-13
 -1       292 6.13246E-03-3.26341E-04-1.41903E-14
 -1       293 5.97078E-03-2.29270E-04-1.39236E-14
 -1       294 5.70365E-03-8.33025E-05-1.32384E-14
 -1       295 5.32613E-03 6.49499E-05-1.26087E-14
 -1       296 4.94887E-03 2.68565E-04-1.16019E-14
 -1       297 4.55821E-03 4.42146E-04-1.06231E-14
 -1       298 4.16321E-03 5.64362E-04-9.65100E-15
 -1       299 3.77936E-03 6.12301E-04-8.71569E-15
 -1       300 3.39078E-03 5.71720E-04-7.79576E-15
 -1       301 2.99497E-03 4.49651E-04-7.07157E-15
 -1       302 2.61909E-03 3.02525E-04-6.50864E-15
 -1       303 2.26779E-03 1.33474E-04-5.99313E-15
 -1       304 1.95274E-03 9.55222E-07-5.71651E-15
 -1       305 1.74065E-03-1.20240E-04-5.48196E-15
 -1       306 1.65489E-03-2.12412E-04-5.50346E-15
 -1       307 1.71499E-03-3.05100E-04-5.59286E-15
 -1       308 1.90172E-03-4.23730E-04-5.87360E-15
 -1       309 2.20635E-03-5.63381E-04-6.22728E-15
 -1       310 2.57974E-03-7.62137E-04-6.81164E-15
 -1       311 2.98928E-03-9.74805E-04-7.54380E-15
 -1       312 3.42017E-03-1.15801E-03-8.40231E-15
 -1       313 3.82373E-03-1.26678E-03-9.31962E-15
 -1       314 4.20671E-03-1.27809E-03-1.02906E-14
 -1       315 4.60287E-03-1.19237E-03-1.12686E-14
 -1       316 4.98884E-03-1.03447E-03-1.23152E-14
 -1       317 5.41013E-03-8.54116E-04-1.30701E-14
 -1       318 5.76456E-03-6.65778E-04-1.38500E-14
 -1       319 6.03449E-03-5.27618E-04-1.42342E-14
 -1       320 6.15752E-03-4.22146E-04-1.43164E-14
 -1       321 4.75494E-04-1.08594E-04-2.36309E-16
 -1       322 5.16881E-04-1.61408E-04-2.11314E-16
 -1       323 4.14305E-04-4.93826E-05-2.52626E-16
 -1       324 3.94097E-04-3.52676E-05-2.51806E-16
 -1       325 3.82560E-04-2.68349E-05-2.47307E-16
 -1       326 3.80230E-04-2.01947E-05-2.39947E-16
 -1       327 3.86350E-04-1.16541E-05-2.30041E-16
 -1       328 3.99054E-04 1.67026E-06-2.17071E-16
 -1       329 4.15744E-04 2.11435E-05-2.00828E-16
 -1       330 4.35151E-04 4.82507E-05-1.79849E-16
 -1       331 4.56291E-04 8.32652E-05-1.52659E-16
 -1       332 4.80382E-04 1.27502E-04-1.16149E-16
 -1       333 5.12102E-04 1.84616E-04-6.59432E-17
 -1       334 5.76875E-04 2.41693E-04-3.63004E-17
 -1       335 8.98821E-04 3.39134E-04-1.89498E-16
 -1       336 9.55151E-04-2.89352E-04-6.32025E-16
 -1       337 1.28187E-03-3.61553E-04-1.11865E-15
 -1       338 1.61267E-03-4.35337E-04-1.74246E-15
 -1       339 1.95086E-03-5.23206E-04-2.50241E-15
 -1       340 2.29903E-03-6.37284E-04-3.39854E-15
 -1       341 2.65790E-03-7.86724E-04-4.43292E-15
 -1       342 3.02401E-03-9.71333E-04-5.60840E-15
 -1       343 3.38835E-03-1.17134E-03-6.92954E-15
 -1       344 3.74078E-03-1.34154E-03-8.40053E-15
 -1       345 4.06384E-03-1.42471E-03-9.93902E-15
 -1       346 4.40386E-03-1.40302E-03-1.17095E-14
 -1       347 4.75678E-03-1.29476E-03-1.36275E-14
 -1       348 5.12262E-03-1.15635E-03-1.56835E-14
 -1       349 5.49115E-03-1.03530E-03-1.78698E-14
 -1       350 5.85277E-03-9.53893E-04-2.01793E-14
 -1       351 6.20317E-03-9.14748E-04-2.26045E-14
 -1       352 6.54203E-03-9.11123E-04-2.51359E-14
 -1       353 6.87069E-03-9.33873E-04-2.77645E-14
 -1       354 7.19077E-03-9.74652E-04-3.04859E-14
 -1       355 7.50374E-03-1.02693E-03-3.32914E-14
 -1       356 7.81086E-03-1.08602E-03-3.61794E-14
 -1       357 8.11317E-03-1.14872E-03-3.91448E-14
 -1       358 8.41158E-03-1.21297E-03-4.21854E-14
 -1       359 8.70686E-03-1.27749E-03-4.53028E-14
 -1       360 8.99966E-03-1.34153E-03-4.84998E-14
 -1       361 9.29053E-03-1.40470E-03-5.17663E-14
 -1       362 9.57991E-03-1.46683E-03-5.50923E-14
 -1       363 9.86816E-03-1.52789E-03-5.84727E-14
 -1       364 1.01556E-02-1.58794E-03-6.19058E-14
 -1       365 1.04424E-02-1.64706E-03-6.53887E-14
 -1       366 1.07288E-02-1.70539E-03-6.89224E-14
 -1       367 1.10148E-02-1.76303E-03-7.24952E-14
 -1       368 1.13007E-02-1.82010E-03-7.61047E-14
 -1       369 1.15864E-02-1.87672E-03-7.97417E-14
 -1       370 1.18721E-02-1.93297E-03-8.34026E-14
 -1       371 1.21577E-02-1.98893E-03-8.70852E-14
 -1       372 1.24432E-02-2.04467E-03-9.07884E-14
 -1       373 1.27288E-02-2.10024E-03-9.45164E-14
 -1       374 1.30144E-02-2.15569E-03-9.82634E-14
 -1       375 1.33000E-02-2.21104E-03-1.02027E-13
 -1       376 1.35857E-02-2.26634E-03-1.05811E-13
 -1       377 1.38713E-02-2.32159E-03-1.09618E-13
 -1       378 1.41570E-02-2.37682E-03-1.13448E-13
 -1       379 1.44426E-02-2.43204E-03-1.17297E-13
 -1       380 1.47283E-02-2.48727E-03-1.21169E-13
 -1       381 1.50140E-02-2.54250E-03-1.25065E-13
 -1       382 1.39313E-03 4.38837E-04-7.14435E-16
 -1       383 1.70912E-03 5.09986E-04-1.17420E-15
 -1       384 2.02481E-03 5.84178E-04-1.75536E-15
 -1       385 2.33918E-03 6.63169E-04-2.46174E-15
 -1       386 2.65010E-03 7.44094E-04-3.29736E-15
 -1       387 2.95500E-03 8.18682E-04-4.26702E-15
 -1       388 3.25233E-03 8.74073E-04-5.37284E-15
 -1       389 3.54302E-03 8.96290E-04-6.61899E-15
 -1       390 3.83093E-03 8.75727E-04-8.00583E-15
 -1       391 4.12142E-03 8.11831E-04-9.53485E-15
 -1       392 4.41876E-03 7.13655E-04-1.12020E-14
 -1       393 4.72434E-03 5.95781E-04-1.30035E-14
 -1       394 5.03676E-03 4.72911E-04-1.49344E-14
 -1       395 5.35311E-03 3.55959E-04-1.69905E-14
 -1       396 5.67039E-03 2.50886E-04-1.91677E-14
 -1       397 5.98630E-03 1.59482E-04-2.14596E-14
 -1       398 6.29938E-03 8.08445E-05-2.38650E-14
 -1       399 6.60892E-03 1.27439E-05-2.63789E-14
 -1       400 6.91471E-03-4.74261E-05-2.89968E-14
 -1       401 7.21690E-03-1.02104E-04-3.17121E-14
 -1       402 7.51580E-03-1.53317E-04-3.45192E-14
 -1       403 7.81183E-03-2.02618E-04-3.74121E-14
 -1       404 8.10545E-03-2.51120E-04-4.03908E-14
 -1       405 8.39708E-03-2.99569E-04-4.34553E-14
 -1       406 8.68711E-03-3.48429E-04-4.65983E-14
 -1       407 8.97589E-03-3.97953E-04-4.98164E-14
 -1       408 9.26372E-03-4.48253E-04-5.31056E-14
 -1       409 9.55083E-03-4.99343E-04-5.64574E-14
 -1       410 9.83741E-03-5.51179E-04-5.98617E-14
 -1       411 1.01236E-02-6.03686E-04-6.33180E-14
 -1       412 1.04096E-02-6.56772E-04-6.68165E-14
 -1       413 1.06953E-02-7.10347E-04-7.03491E-14
 -1       414 1.09810E-02-7.64321E-04-7.39188E-14
 -1       415 1.12666E-02-8.18616E-04-7.75241E-14
 -1       416 1.15522E-02-8.73163E-04-8.11625E-14
 -1       417 1.18378E-02-9.27905E-04-8.48236E-14
 -1       418 1.21234E-02-9.82792E-04-8.85065E-14
 -1       419 1.24089E-02-1.03779E-03-9.22135E-14
 -1       420 1.26945E-02-1.09286E-03-9.59481E-14
 -1       421 1.29802E-02-1.14798E-03-9.97043E-14
 -1       422 1.32658E-02-1.20314E-03-1.03475E-13
 -1       423 1.35515E-02-1.25831E-03-1.07253E-13
 -1       424 1.38372E-02-1.31348E-03-1.11040E-13
 -1       425 1.41228E-02-1.36865E-03-1.14836E-13
 -1       426 1.43590E-02-1.40972E-03-1.17979E-13
 -1       427 1.44831E-02-1.61379E-03-1.19408E-13
 -1       428 1.44289E-02-1.52948E-03-1.18775E-13
 -1       429 1.45363E-02-1.69669E-03-1.20029E-13
 -1       430 1.45905E-02-1.78102E-03-1.20650E-13
 -1       431 1.46447E-02-1.86537E-03-1.21267E-13
 -1       432 1.46990E-02-1.94972E-03-1.21880E-13
 -1       433 1.47533E-02-2.03408E-03-1.22493E-13
 -1       434 1.48076E-02-2.11843E-03-1.23098E-13
 -1       435 1.48610E-02-2.20134E-03-1.23682E-13
 -1       436 1.49154E-02-2.28568E-03-1.24262E-13
 -1       437 1.49698E-02-2.37001E-03-1.24840E-13
 -1       438 1.50241E-02-2.45432E-03-1.25414E-13
 -1       439 1.14667E-03 3.92153E-04-4.11136E-16
 -1       440 5.80952E-03-2.21860E-04-1.43035E-14
 -1       441 5.03697E-03 1.36640E-04-1.24991E-14
 -1       442 6.17894E-03-3.87342E-04-1.51762E-14
 -1       443 5.49600E-03-9.13442E-05-1.36359E-14
 -1       444 4.41741E-04-7.26702E-05-2.48299E-16
 -1       445 4.65285E-03 3.44479E-04-1.14154E-14
 -1       446 4.28992E-03 5.23429E-04-1.02937E-14
 -1       447 3.95185E-03 6.29868E-04-9.18133E-15
 -1       448 3.61840E-03 6.36889E-04-8.12464E-15
 -1       449 3.21884E-03 5.17351E-04-7.02643E-15
 -1       450 2.92242E-03 3.81370E-04-6.47991E-15
 -1       451 2.51748E-03 1.83120E-04-5.85458E-15
 -1       452 2.11076E-03-7.79713E-07-5.37100E-15
 -1       453 1.85757E-03-1.00385E-04-5.14493E-15
 -1       454 1.65390E-03-1.82560E-04-4.91710E-15
 -1       455 1.64175E-03-2.21407E-04-4.98907E-15
 -1       456 1.80474E-03-2.99193E-04-5.26539E-15
 -1       457 2.05374E-03-4.03570E-04-5.59825E-15
 -1       458 2.46201E-03-5.92666E-04-6.12944E-15
 -1       459 2.87888E-03-8.30063E-04-6.88393E-15
 -1       460 3.29358E-03-1.06278E-03-7.72705E-15
 -1       461 3.66650E-03-1.24179E-03-8.72947E-15
 -1       462 4.02709E-03-1.31820E-03-9.87045E-15
 -1       463 4.38565E-03-1.27207E-03-1.11154E-14
 -1       464 4.70126E-03-1.14227E-03-1.21601E-14
 -1       465 5.17966E-03-8.94983E-04-1.34030E-14
 -1       466 5.53061E-03-7.11493E-04-1.42973E-14
 -1       467 5.91053E-03-5.40604E-04-1.49751E-14
 -1       468 6.12975E-03-4.45091E-04-1.53217E-14
 -1       469 6.08378E-03-3.32797E-04-1.50084E-14
 -1       470 5.25128E-03-2.94541E-06-1.35101E-14
 -1       471 4.93111E-03-1.02632E-03-1.32326E-14
 -1       472 5.82399E-04-5.13330E-05-5.25537E-16
 -1       473 6.08932E-04-6.94246E-05-5.30808E-16
 -1       474 5.75801E-04-2.48280E-05-4.97723E-16
 -1       475 5.93038E-04-6.16879E-06-4.75839E-16
 -1       476 6.18554E-04 2.02657E-05-4.48667E-16
 -1       477 6.49316E-04 5.67296E-05-4.14450E-16
 -1       478 6.82471E-04 1.03087E-04-3.71515E-16
 -1       479 7.17951E-04 1.59482E-04-3.16980E-16
 -1       480 7.58978E-04 2.27066E-04-2.46385E-16
 -1       481 8.25578E-04 2.80687E-04-2.23928E-16
 -1       482 1.04067E-03-2.52691E-04-9.04306E-16
 -1       483 3.78388E-03 6.63241E-04-8.56703E-15
 -1       484 1.35119E-03-3.17233E-04-1.46393E-15
 -1       485 1.66832E-03-3.88288E-04-2.15499E-15
 -1       486 1.99675E-03-4.77173E-04-2.97692E-15
 -1       487 2.34257E-03-5.96540E-04-3.93028E-15
 -1       488 2.71012E-03-7.57551E-04-5.01631E-15
 -1       489 3.09684E-03-9.61977E-04-6.24191E-15
 -1       490 3.48792E-03-1.18007E-03-7.61521E-15
 -1       491 3.84832E-03-1.33509E-03-9.06298E-15
 -1       492 4.21882E-03-1.37132E-03-1.07436E-14
 -1       493 4.59786E-03-1.27386E-03-1.25812E-14
 -1       494 4.98926E-03-1.11599E-03-1.45613E-14
 -1       495 5.37696E-03-9.73002E-04-1.66746E-14
 -1       496 5.74609E-03-8.76531E-04-1.89103E-14
 -1       497 6.09273E-03-8.27952E-04-2.12615E-14
 -1       498 6.42084E-03-8.17891E-04-2.37228E-14
 -1       499 6.73603E-03-8.35861E-04-2.62844E-14
 -1       500 7.04285E-03-8.73098E-04-2.89386E-14
 -1       501 7.34428E-03-9.22929E-04-3.16824E-14
 -1       502 7.64206E-03-9.80510E-04-3.45111E-14
 -1       503 7.93721E-03-1.04246E-03-3.74174E-14
 -1       504 8.23035E-03-1.10651E-03-4.04009E-14
 -1       505 8.52187E-03-1.17120E-03-4.34627E-14
 -1       506 8.81207E-03-1.23563E-03-4.66047E-14
 -1       507 9.10121E-03-1.29929E-03-4.98225E-14
 -1       508 9.38949E-03-1.36195E-03-5.31075E-14
 -1       509 9.67707E-03-1.42352E-03-5.64465E-14
 -1       510 9.96413E-03-1.48404E-03-5.98417E-14
 -1       511 1.02508E-02-1.54358E-03-6.32852E-14
 -1       512 1.05371E-02-1.60226E-03-6.67796E-14
 -1       513 1.08232E-02-1.66020E-03-7.03191E-14
 -1       514 1.11092E-02-1.71752E-03-7.38978E-14
 -1       515 1.13950E-02-1.77434E-03-7.75112E-14
 -1       516 1.16808E-02-1.83074E-03-8.11505E-14
 -1       517 1.19665E-02-1.88682E-03-8.48153E-14
 -1       518 1.22522E-02-1.94264E-03-8.85032E-14
 -1       519 1.25378E-02-1.99828E-03-9.22150E-14
 -1       520 1.28235E-02-2.05377E-03-9.59447E-14
 -1       521 1.31092E-02-2.10916E-03-9.96913E-14
 -1       522 1.33948E-02-2.16448E-03-1.03450E-13
 -1       523 1.36805E-02-2.21975E-03-1.07230E-13
 -1       524 1.39662E-02-2.27498E-03-1.11037E-13
 -1       525 1.42519E-02-2.33020E-03-1.14871E-13
 -1       526 1.45376E-02-2.38542E-03-1.18730E-13
 -1       527 1.47809E-02-2.41987E-03-1.22063E-13
 -1       528 2.13377E-03 5.34754E-04-2.29864E-15
 -1       529 1.81270E-03 4.59748E-04-1.63014E-15
 -1       530 1.49489E-03 3.90721E-04-1.08195E-15
 -1       531 2.45662E-03 6.16438E-04-3.09228E-15
 -1       532 2.77808E-03 7.00098E-04-4.01617E-15
 -1       533 3.09414E-03 7.74247E-04-5.07434E-15
 -1       534 3.40238E-03 8.22035E-04-6.26947E-15
 -1       535 3.70447E-03 8.27068E-04-7.60769E-15
 -1       536 4.00603E-03 7.81711E-04-9.08919E-15
 -1       537 4.31311E-03 6.91945E-04-1.07138E-14
 -1       538 4.62817E-03 5.74096E-04-1.24737E-14
 -1       539 4.94937E-03 4.46580E-04-1.43625E-14
 -1       540 5.27249E-03 3.23596E-04-1.63769E-14
 -1       541 5.59369E-03 2.12899E-04-1.85134E-14
 -1       542 5.91065E-03 1.16935E-04-2.07655E-14
 -1       543 6.22256E-03 3.48870E-05-2.31287E-14
 -1       544 6.52956E-03-3.55976E-05-2.56000E-14
 -1       545 6.83223E-03-9.72981E-05-2.81782E-14
 -1       546 7.13127E-03-1.52830E-04-3.08529E-14
 -1       547 7.42735E-03-2.04384E-04-3.36229E-14
 -1       548 7.72104E-03-2.53661E-04-3.64818E-14
 -1       549 8.01283E-03-3.01895E-04-3.94245E-14
 -1       550 8.30311E-03-3.49933E-04-4.24536E-14
 -1       551 8.59221E-03-3.98313E-04-4.55685E-14
 -1       552 8.88038E-03-4.47343E-04-4.87529E-14
 -1       553 9.16786E-03-4.97168E-04-5.20104E-14
 -1       554 9.45479E-03-5.47824E-04-5.53341E-14
 -1       555 9.74133E-03-5.99280E-04-5.87134E-14
 -1       556 1.00276E-02-6.51461E-04-6.21451E-14
 -1       557 1.03136E-02-7.04278E-04-6.56254E-14
 -1       558 1.05995E-02-7.57633E-04-6.91387E-14
 -1       559 1.08853E-02-8.11432E-04-7.26904E-14
 -1       560 1.11710E-02-8.65590E-04-7.62766E-14
 -1       561 1.14567E-02-9.20033E-04-7.98946E-14
 -1       562 1.17423E-02-9.74696E-04-8.35439E-14
 -1       563 1.20280E-02-1.02953E-03-8.72148E-14
 -1       564 1.23136E-02-1.08448E-03-9.09138E-14
 -1       565 1.25993E-02-1.13952E-03-9.46368E-14
 -1       566 1.28850E-02-1.19463E-03-9.83856E-14
 -1       567 1.31706E-02-1.24978E-03-1.02145E-13
 -1       568 1.34563E-02-1.30495E-03-1.05918E-13
 -1       569 1.37420E-02-1.36013E-03-1.09700E-13
 -1       570 1.40277E-02-1.41530E-03-1.13489E-13
 -1       571 1.43160E-02-1.69107E-03-1.17041E-13
 -1       572 1.42627E-02-1.60818E-03-1.16427E-13
 -1       573 1.42086E-02-1.52386E-03-1.15799E-13
 -1       574 6.18393E-03-3.87929E-04-1.63178E-14
 -1       575 1.43702E-02-1.77541E-03-1.17652E-13
 -1       576 1.44244E-02-1.85975E-03-1.18257E-13
 -1       577 1.44787E-02-1.94410E-03-1.18862E-13
 -1       578 1.45330E-02-2.02844E-03-1.19456E-13
 -1       579 1.45864E-02-2.11135E-03-1.20032E-13
 -1       580 1.46407E-02-2.19569E-03-1.20604E-13
 -1       581 1.46951E-02-2.28002E-03-1.21176E-13
 -1       582 1.47380E-02-2.34995E-03-1.21620E-13
 -1       583 7.51234E-04-1.80565E-04-5.16870E-16
 -1       584 5.67666E-03-2.06565E-04-1.48586E-14
 -1       585 6.20895E-03-4.19859E-04-1.64703E-14
 -1       586 6.06578E-03-4.79372E-04-1.62947E-14
 -1       587 4.19019E-03-1.33528E-03-1.05369E-14
 -1       588 2.71085E-03 2.74621E-04-5.68662E-15
 -1       589 3.42915E-03 6.13544E-04-7.30429E-15
 -1       590 5.71394E-04-3.82959E-05-5.14413E-16
 -1       591 4.09373E-03 6.01185E-04-9.76650E-15
 -1       592 2.29816E-03 7.23142E-05-5.11663E-15
 -1       593 4.82363E-03 2.23698E-04-1.24451E-14
 -1       594 4.45038E-03 4.36415E-04-1.11899E-14
 -1       595 2.97806E-03 4.13050E-04-6.18240E-15
 -1       596 1.91232E-03-3.09363E-04-4.97396E-15
 -1       597 1.95175E-03-6.86288E-05-4.73324E-15
 -1       598 1.71381E-03-1.45255E-04-4.48170E-15
 -1       599 1.60148E-03-1.89945E-04-4.44547E-15
 -1       600 5.34899E-03-7.98696E-04-1.46115E-14
 -1       601 1.68042E-03-2.28899E-04-4.62909E-15
 -1       602 2.23742E-03-4.43292E-04-5.38472E-15
 -1       603 2.71127E-03-6.87848E-04-6.07060E-15
 -1       604 3.07268E-03-9.07013E-04-6.84212E-15
 -1       605 3.51512E-03-1.17096E-03-8.03369E-15
 -1       606 3.88246E-03-1.31951E-03-9.32114E-15
 -1       607 4.54836E-03-1.23377E-03-1.20327E-14
 -1       608 5.76073E-03-5.99281E-04-1.56364E-14
 -1       609 5.97577E-03-3.19272E-04-1.57344E-14
 -1       610 6.48742E-04-9.74511E-05-5.28837E-16
 -1       611 5.47386E-03-1.21487E-04-1.47166E-14
 -1       612 1.07220E-03 3.32932E-04-4.48789E-16
 -1       613 6.96407E-04-1.32885E-04-5.27715E-16
 -1       614 1.28340E-03 3.63468E-04-7.31305E-16
 -1       615 3.18779E-03 5.41728E-04-6.42754E-15
 -1       616 8.15527E-04 9.64892E-06-7.97492E-16
 -1       617 7.81316E-04-2.28333E-05-8.35927E-16
 -1       618 9.04330E-04 1.09291E-04-6.91911E-16
 -1       619 9.51576E-04 1.75430E-04-6.20421E-16
 -1       620 1.00187E-03 2.76619E-04-4.74552E-16
 -1       621 4.82527E-03-1.12420E-03-1.33888E-14
 -1       622 1.40274E-03-2.75240E-04-1.82255E-15
 -1       623 1.70225E-03-3.40191E-04-2.57433E-15
 -1       624 2.01748E-03-4.24674E-04-3.45133E-15
 -1       625 2.35962E-03-5.44557E-04-4.45323E-15
 -1       626 5.26953E-03-9.24534E-04-1.55103E-14
 -1       627 5.65124E-03-8.08710E-04-1.76800E-14
 -1       628 5.99722E-03-7.52138E-04-1.99614E-14
 -1       629 6.31630E-03-7.38384E-04-2.23537E-14
 -1       630 6.61870E-03-7.53469E-04-2.48516E-14
 -1       631 6.91216E-03-7.87858E-04-2.74415E-14
 -1       632 7.20138E-03-8.35051E-04-3.01231E-14
 -1       633 7.48883E-03-8.90467E-04-3.28939E-14
 -1       634 7.77565E-03-9.50838E-04-3.57465E-14
 -1       635 8.06232E-03-1.01387E-03-3.86742E-14
 -1       636 8.34896E-03-1.07800E-03-4.16823E-14
 -1       637 8.63556E-03-1.14222E-03-4.47702E-14
 -1       638 8.92211E-03-1.20591E-03-4.79362E-14
 -1       639 9.20855E-03-1.26874E-03-5.11790E-14
 -1       640 9.49489E-03-1.33057E-03-5.44817E-14
 -1       641 9.78110E-03-1.39137E-03-5.78354E-14
 -1       642 1.00672E-02-1.45119E-03-6.12471E-14
 -1       643 1.03532E-02-1.51014E-03-6.47046E-14
 -1       644 1.06392E-02-1.56831E-03-6.82105E-14
 -1       645 1.09250E-02-1.62583E-03-7.17592E-14
 -1       646 1.12108E-02-1.68281E-03-7.53461E-14
 -1       647 1.14966E-02-1.73935E-03-7.89662E-14
 -1       648 1.17824E-02-1.79554E-03-8.26143E-14
 -1       649 1.20681E-02-1.85145E-03-8.62853E-14
 -1       650 1.23538E-02-1.90716E-03-8.99841E-14
 -1       651 1.26396E-02-1.96270E-03-9.37007E-14
 -1       652 1.29253E-02-2.01813E-03-9.74305E-14
 -1       653 1.32110E-02-2.07347E-03-1.01175E-13
 -1       654 1.34967E-02-2.12875E-03-1.04934E-13
 -1       655 1.37824E-02-2.18400E-03-1.08717E-13
 -1       656 1.40681E-02-2.23922E-03-1.12527E-13
 -1       657 1.43538E-02-2.29444E-03-1.16368E-13
 -1       658 1.45459E-02-2.32219E-03-1.18987E-13
 -1       659 1.91948E-03 4.03582E-04-2.11840E-15
 -1       660 2.24902E-03 4.79439E-04-2.87203E-15
 -1       661 1.59796E-03 3.37846E-04-1.48551E-15
 -1       662 2.91909E-03 6.55700E-04-4.75950E-15
 -1       663 3.24723E-03 7.32239E-04-5.90405E-15
 -1       664 3.56540E-03 7.71002E-04-7.19022E-15
 -1       665 3.87811E-03 7.51927E-04-8.62258E-15
 -1       666 4.19486E-03 6.73361E-04-1.02006E-14
 -1       667 4.52018E-03 5.53851E-04-1.19199E-14
 -1       668 4.85392E-03 4.18214E-04-1.37703E-14
 -1       669 5.18879E-03 2.87106E-04-1.57469E-14
 -1       670 5.51857E-03 1.70608E-04-1.78455E-14
 -1       671 5.84017E-03 7.11915E-05-2.00598E-14
 -1       672 6.15316E-03-1.27563E-05-2.23838E-14
 -1       673 6.45867E-03-8.42734E-05-2.48157E-14
 -1       674 6.75834E-03-1.46545E-04-2.73522E-14
 -1       675 7.05374E-03-2.02382E-04-2.99909E-14
 -1       676 7.34612E-03-2.54056E-04-3.27231E-14
 -1       677 7.63644E-03-3.03310E-04-3.55457E-14
 -1       678 7.92534E-03-3.51409E-04-3.84544E-14
 -1       679 8.21327E-03-3.99229E-04-4.14489E-14
 -1       680 8.50054E-03-4.47336E-04-4.45276E-14
 -1       681 8.78735E-03-4.96067E-04-4.76861E-14
 -1       682 9.07383E-03-5.45589E-04-5.09153E-14
 -1       683 9.36009E-03-5.95954E-04-5.42113E-14
 -1       684 9.64618E-03-6.47141E-04-5.75657E-14
 -1       685 9.93216E-03-6.99084E-04-6.09721E-14
 -1       686 1.02180E-02-7.51693E-04-6.44296E-14
 -1       687 1.05039E-02-8.04873E-04-6.79258E-14
 -1       688 1.07897E-02-8.58528E-04-7.14591E-14
 -1       689 1.10754E-02-9.12569E-04-7.50267E-14
 -1       690 1.13612E-02-9.66918E-04-7.86266E-14
 -1       691 1.16469E-02-1.02151E-03-8.22615E-14
 -1       692 1.19326E-02-1.07628E-03-8.59250E-14
 -1       693 1.22183E-02-1.13120E-03-8.96121E-14
 -1       694 1.25040E-02-1.18621E-03-9.33238E-14
 -1       695 1.27897E-02-1.24129E-03-9.70617E-14
 -1       696 1.30754E-02-1.29643E-03-1.00814E-13
 -1       697 1.33611E-02-1.35159E-03-1.04583E-13
 -1       698 1.36468E-02-1.40677E-03-1.08360E-13
 -1       699 1.39277E-02-1.46532E-03-1.12077E-13
 -1       700 5.11913E-03 6.16077E-05-1.38121E-14
 -1       701 1.40419E-02-1.60183E-03-1.13441E-13
 -1       702 1.41498E-02-1.76978E-03-1.14657E-13
 -1       703 1.39848E-02-1.53357E-03-1.12761E-13
 -1       704 1.40959E-02-1.68581E-03-1.14055E-13
 -1       705 6.15623E-03-3.78757E-04-1.73278E-14
 -1       706 1.42583E-02-1.93846E-03-1.15837E-13
 -1       707 1.43117E-02-2.02137E-03-1.16403E-13
 -1       708 1.43661E-02-2.10571E-03-1.16973E-13
 -1       709 1.44205E-02-2.19004E-03-1.17536E-13
 -1       710 3.61525E-03 6.74001E-04-7.81515E-15
 -1       711 6.26412E-03-4.20098E-04-1.76494E-14
 -1       712 6.22240E-03-4.58427E-04-1.77676E-14
 -1       713 5.61530E-03-6.98204E-04-1.61377E-14
 -1       714 2.78488E-03 3.57467E-04-5.39013E-15
 -1       715 1.42041E-02-1.85412E-03-1.15251E-13
 -1       716 2.01842E-03-3.41534E-04-4.64688E-15
 -1       717 3.92508E-03 6.58214E-04-9.09324E-15
 -1       718 2.06807E-03 4.62406E-06-4.40507E-15
 -1       719 1.11160E-03-2.18944E-04-1.19657E-15
 -1       720 2.44114E-03 1.76436E-04-4.84737E-15
 -1       721 4.69502E-03 3.13709E-04-1.24260E-14
 -1       722 1.77677E-03-9.80647E-05-4.08214E-15
 -1       723 2.39736E-03-5.19741E-04-5.10274E-15
 -1       724 8.58322E-04 5.37105E-05-7.50027E-16
 -1       725 1.57064E-03-1.55138E-04-3.86739E-15
 -1       726 1.74016E-03-2.41208E-04-4.22529E-15
 -1       727 2.88224E-03-7.98082E-04-6.01201E-15
 -1       728 4.24174E-03 5.53520E-04-1.04806E-14
 -1       729 1.57559E-03-1.90059E-04-4.02377E-15
 -1       730 7.93503E-04-8.49994E-05-9.01704E-16
 -1       731 2.58410E-03 5.65750E-04-3.75026E-15
 -1       732 5.87340E-03-2.83508E-04-1.64918E-14
 -1       733 5.97765E-03-5.40134E-04-1.70770E-14
 -1       734 9.01527E-04-1.75764E-04-8.29106E-16
 -1       735 8.42430E-04-1.15264E-04-9.05817E-16
 -1       736 7.62912E-04-4.57500E-05-8.66274E-16
 -1       737 3.15683E-03-9.60434E-04-6.85560E-15
 -1       738 5.71710E-03-2.13462E-04-1.63330E-14
 -1       739 3.38534E-03 6.40753E-04-6.89326E-15
 -1       740 1.44832E-02-2.25612E-03-1.18259E-13
 -1       741 1.28424E-03 2.77683E-04-9.69558E-16
 -1       742 4.48516E-03 4.54724E-04-1.16611E-14
 -1       743 7.66256E-04-6.41088E-05-8.88321E-16
 -1       744 4.35893E-03-1.33225E-03-1.13779E-14
 -1       745 1.18109E-03 1.78696E-04-1.02762E-15
 -1       746 1.83750E-03-2.97363E-05-3.69685E-15
 -1       747 2.49413E-03 2.79873E-04-4.47604E-15
 -1       748 8.70016E-04-1.41987E-04-8.70428E-16
 -1       749 1.70793E-03-2.90154E-04-2.99751E-15
 -1       750 1.99780E-03-3.64340E-04-3.92061E-15
 -1       751 6.14572E-03-3.53989E-04-1.86453E-14
 -1       752 4.04136E-03 6.51186E-04-9.57760E-15
 -1       753 5.95154E-03-6.55628E-04-1.86650E-14
 -1       754 6.24941E-03-6.46040E-04-2.09867E-14
 -1       755 6.52930E-03-6.63899E-04-2.34159E-14
 -1       756 6.80219E-03-6.98510E-04-2.59421E-14
 -1       757 7.07374E-03-7.44198E-04-2.85577E-14
 -1       758 7.34655E-03-7.97400E-04-3.12666E-14
 -1       759 7.62156E-03-8.55529E-04-3.40606E-14
 -1       760 7.89889E-03-9.16639E-04-3.69322E-14
 -1       761 8.17827E-03-9.79287E-04-3.98821E-14
 -1       762 8.45934E-03-1.04245E-03-4.29166E-14
 -1       763 8.74172E-03-1.10544E-03-4.60301E-14
 -1       764 9.02509E-03-1.16785E-03-4.92209E-14
 -1       765 9.30919E-03-1.22945E-03-5.24815E-14
 -1       766 9.59382E-03-1.29016E-03-5.57965E-14
 -1       767 9.87882E-03-1.34998E-03-5.91650E-14
 -1       768 1.01641E-02-1.40896E-03-6.25883E-14
 -1       769 1.04495E-02-1.46721E-03-6.60627E-14
 -1       770 1.07351E-02-1.52481E-03-6.95808E-14
 -1       771 1.10207E-02-1.58187E-03-7.31376E-14
 -1       772 1.13064E-02-1.63849E-03-7.67341E-14
 -1       773 1.15921E-02-1.69474E-03-8.03587E-14
 -1       774 1.18779E-02-1.75071E-03-8.40164E-14
 -1       775 1.21636E-02-1.80646E-03-8.76975E-14
 -1       776 1.24494E-02-1.86205E-03-9.14040E-14
 -1       777 1.27351E-02-1.91750E-03-9.51234E-14
 -1       778 1.30209E-02-1.97287E-03-9.88526E-14
 -1       779 1.33066E-02-2.02817E-03-1.02592E-13
 -1       780 1.35924E-02-2.08342E-03-1.06355E-13
 -1       781 1.38781E-02-2.13865E-03-1.10140E-13
 -1       782 1.41638E-02-2.19387E-03-1.13952E-13
 -1       783 2.02401E-03 3.39227E-04-2.63850E-15
 -1       784 1.69721E-03 2.76900E-04-1.92338E-15
 -1       785 3.40982E-03 6.99786E-04-6.75261E-15
 -1       786 3.06806E-03 6.18127E-04-5.52126E-15
 -1       787 5.10689E-03 2.45761E-04-1.50966E-14
 -1       788 5.44887E-03 1.21498E-04-1.71608E-14
 -1       789 5.77735E-03 1.95779E-05-1.93388E-14
 -1       790 6.09245E-03-6.42919E-05-2.16285E-14
 -1       791 6.39661E-03-1.34787E-04-2.40232E-14
 -1       792 6.69289E-03-1.95994E-04-2.65223E-14
 -1       793 6.98393E-03-2.51038E-04-2.91218E-14
 -1       794 7.27174E-03-3.02222E-04-3.18175E-14
 -1       795 7.55773E-03-3.51208E-04-3.46043E-14
 -1       796 7.84280E-03-3.99172E-04-3.74799E-14
 -1       797 8.12750E-03-4.46918E-04-4.04391E-14
 -1       798 8.41214E-03-4.94971E-04-4.34835E-14
 -1       799 8.69689E-03-5.43642E-04-4.66100E-14
 -1       800 8.98180E-03-5.93092E-04-4.98098E-14
 -1       801 9.26688E-03-6.43374E-04-5.30819E-14
 -1       802 9.55214E-03-6.94469E-04-5.64135E-14
 -1       803 9.83754E-03-7.46318E-04-5.97959E-14
 -1       804 1.01230E-02-7.98835E-04-6.32298E-14
 -1       805 1.04086E-02-8.51928E-04-6.67102E-14
 -1       806 1.06943E-02-9.05504E-04-7.02261E-14
 -1       807 1.09800E-02-9.59476E-04-7.37762E-14
 -1       808 1.12657E-02-1.01377E-03-7.73611E-14
 -1       809 1.15514E-02-1.06831E-03-8.09798E-14
 -1       810 1.18372E-02-1.12304E-03-8.46334E-14
 -1       811 1.21229E-02-1.17792E-03-8.83119E-14
 -1       812 1.24087E-02-1.23291E-03-9.20122E-14
 -1       813 1.26944E-02-1.28797E-03-9.57362E-14
 -1       814 1.29802E-02-1.34309E-03-9.94832E-14
 -1       815 1.32659E-02-1.39825E-03-1.03243E-13
 -1       816 1.35516E-02-1.45343E-03-1.07022E-13
 -1       817 1.37682E-02-1.49350E-03-1.09888E-13
 -1       818 1.41458E-02-2.10006E-03-1.13926E-13
 -1       819 1.40915E-02-2.01573E-03-1.13369E-13
 -1       820 1.40380E-02-1.93283E-03-1.12813E-13
 -1       821 1.39837E-02-1.84849E-03-1.12240E-13
 -1       822 2.96284E-03 5.03072E-04-5.49860E-15
 -1       823 3.72118E-03 7.12136E-04-8.09568E-15
 -1       824 1.39295E-02-1.76415E-03-1.11659E-13
 -1       825 1.43405E-03-2.35103E-04-2.19210E-15
 -1       826 5.88764E-03-6.27461E-04-1.77416E-14
 -1       827 5.02781E-03 1.51258E-04-1.40492E-14
 -1       828 1.16681E-03-1.88234E-04-1.50707E-15
 -1       829 1.00356E-03-1.17932E-05-1.24676E-15
 -1       830 6.33510E-03-4.23941E-04-1.92601E-14
 -1       831 1.56014E-03-1.92114E-04-3.55098E-15
 -1       832 2.13682E-03 1.03216E-04-3.97342E-15
 -1       833 1.58595E-03-1.12808E-04-3.46839E-15
 -1       834 6.35313E-03-4.58284E-04-1.92564E-14
 -1       835 1.75226E-03-2.56835E-04-3.73914E-15
 -1       836 5.40947E-03-6.56616E-05-1.53752E-14
 -1       837 6.19436E-03-5.16609E-04-1.87677E-14
 -1       838 1.47539E-03-1.56504E-04-3.41441E-15
 -1       839 9.62642E-04-4.80364E-05-1.29496E-15
 -1       840 2.67061E-03 4.28521E-04-4.56039E-15
 -1       841 4.80739E-03 3.51588E-04-1.33959E-14
 -1       842 6.03414E-03-3.04528E-04-1.84734E-14
 -1       843 2.36477E-03 4.17096E-04-3.47351E-15
 -1       844 1.38755E-02-1.68018E-03-1.11074E-13
 -1       845 2.71630E-03 5.14259E-04-4.43152E-15
 -1       846 1.38215E-02-1.59620E-03-1.10469E-13
 -1       847 1.12104E-03 1.03247E-04-1.11451E-15
 -1       848 4.90351E-03 2.56787E-04-1.37279E-14
 -1       849 1.02108E-03-1.27816E-04-1.37228E-15
 -1       850 9.68197E-04-9.70522E-05-1.35814E-15
 -1       851 1.43575E-03-1.24589E-04-3.04227E-15
 -1       852 1.05969E-03 3.86028E-05-1.18717E-15
 -1       853 6.38226E-03-5.06016E-04-2.02977E-14
 -1       854 1.78525E-03 2.06839E-04-2.39522E-15
 -1       855 1.38601E-02-2.04485E-03-1.10116E-13
 -1       856 5.38097E-03 1.42566E-05-1.60152E-14
 -1       857 1.39547E-03-1.53135E-04-2.90152E-15
 -1       858 6.04443E-03-1.21366E-04-2.08579E-14
 -1       859 5.72854E-03-4.00258E-05-1.86032E-14
 -1       860 6.46344E-03-5.79881E-04-2.20006E-14
 -1       861 6.70778E-03-6.16222E-04-2.44605E-14
 -1       862 6.95750E-03-6.60923E-04-2.70140E-14
 -1       863 7.21328E-03-7.11649E-04-2.96598E-14
 -1       864 7.47492E-03-7.66842E-04-3.23919E-14
 -1       865 7.74172E-03-8.25143E-04-3.52081E-14
 -1       866 8.01285E-03-8.85377E-04-3.81010E-14
 -1       867 8.28749E-03-9.46599E-04-4.10782E-14
 -1       868 8.56492E-03-1.00811E-03-4.41391E-14
 -1       869 8.84452E-03-1.06942E-03-4.72804E-14
 -1       870 9.12578E-03-1.13024E-03-5.04938E-14
 -1       871 9.40831E-03-1.19040E-03-5.37689E-14
 -1       872 9.69178E-03-1.24985E-03-5.70968E-14
 -1       873 9.97595E-03-1.30860E-03-6.04803E-14
 -1       874 1.02606E-02-1.36669E-03-6.39218E-14
 -1       875 1.05457E-02-1.42420E-03-6.74104E-14
 -1       876 1.08310E-02-1.48122E-03-7.09391E-14
 -1       877 1.11165E-02-1.53782E-03-7.45079E-14
 -1       878 1.14021E-02-1.59407E-03-7.81091E-14
 -1       879 1.16878E-02-1.65005E-03-8.17469E-14
 -1       880 1.19735E-02-1.70582E-03-8.54121E-14
 -1       881 1.22593E-02-1.76141E-03-8.91073E-14
 -1       882 1.25450E-02-1.81688E-03-9.28178E-14
 -1       883 1.28308E-02-1.87226E-03-9.65379E-14
 -1       884 1.31166E-02-1.92758E-03-1.00266E-13
 -1       885 1.34024E-02-1.98284E-03-1.04006E-13
 -1       886 1.36312E-02-2.01385E-03-1.07051E-13
 -1       887 6.40839E-03-4.14818E-04-2.09009E-14
 -1       888 5.20655E-03 1.50053E-04-1.54588E-14
 -1       889 6.34554E-03-1.88253E-04-2.32196E-14
 -1       890 6.63671E-03-2.46262E-04-2.56831E-14
 -1       891 6.92189E-03-2.99018E-04-2.82472E-14
 -1       892 7.20386E-03-3.48805E-04-3.09070E-14
 -1       893 7.48445E-03-3.97077E-04-3.36592E-14
 -1       894 7.76477E-03-4.44784E-04-3.64997E-14
 -1       895 8.04544E-03-4.92543E-04-3.94267E-14
 -1       896 8.32676E-03-5.40745E-04-4.24387E-14
 -1       897 8.60884E-03-5.89617E-04-4.55304E-14
 -1       898 8.89166E-03-6.39267E-04-4.87016E-14
 -1       899 9.17516E-03-6.89724E-04-5.19452E-14
 -1       900 9.45923E-03-7.40960E-04-5.52531E-14
 -1       901 9.74376E-03-7.92912E-04-5.86184E-14
 -1       902 1.00287E-02-8.45501E-04-6.20279E-14
 -1       903 1.03138E-02-8.98638E-04-6.54870E-14
 -1       904 1.05992E-02-9.52238E-04-6.89882E-14
 -1       905 1.08848E-02-1.00622E-03-7.25232E-14
 -1       906 1.11704E-02-1.06051E-03-7.60925E-14
 -1       907 1.14561E-02-1.11504E-03-7.96981E-14
 -1       908 1.17418E-02-1.16976E-03-8.33397E-14
 -1       909 1.20276E-02-1.22463E-03-8.70129E-14
 -1       910 1.23134E-02-1.27960E-03-9.07034E-14
 -1       911 1.25991E-02-1.33466E-03-9.44115E-14
 -1       912 1.28849E-02-1.38977E-03-9.81460E-14
 -1       913 1.31707E-02-1.44492E-03-1.01900E-13
 -1       914 1.34564E-02-1.50009E-03-1.05673E-13
 -1       915 6.48209E-03-4.68314E-04-2.09864E-14
 -1       916 1.44523E-03-1.98923E-04-2.56952E-15
 -1       917 1.38173E-02-1.92647E-03-1.09800E-13
 -1       918 1.37629E-02-1.84214E-03-1.09234E-13
 -1       919 1.44131E-03 1.47681E-04-1.69518E-15
 -1       920 1.37087E-02-1.75781E-03-1.08661E-13
 -1       921 1.58840E-03-5.37078E-05-3.01001E-15
 -1       922 9.48520E-04-7.37276E-05-1.33210E-15
 -1       923 5.71086E-03-1.65194E-04-1.72343E-14
 -1       924 1.23205E-03-1.61848E-04-1.92734E-15
 -1       925 2.16044E-03 2.14647E-04-3.52253E-15
 -1       926 1.82602E-03 5.15376E-05-3.15842E-15
 -1       927 6.20536E-03-5.66654E-04-1.96653E-14
 -1       928 1.47414E-03-1.84961E-04-2.93974E-15
 -1       929 1.35104E-02-1.58406E-03-1.06273E-13
 -1       930 6.33435E-03-3.79567E-04-2.07246E-14
 -1       931 1.36095E-02-1.67093E-03-1.07474E-13
 -1       932 1.40262E-03-8.03078E-05-2.61789E-15
 -1       933 1.15666E-03-1.24342E-04-1.90714E-15
 -1       934 1.30849E-03-1.23772E-04-2.56243E-15
 -1       935 1.25036E-03 1.17956E-05-1.72435E-15
 -1       936 1.17913E-03-4.32650E-05-1.79437E-15
 -1       937 6.59144E-03-2.97279E-04-2.48322E-14
 -1       938 6.01603E-03-1.84691E-04-2.00731E-14
 -1       939 6.84577E-03-5.85862E-04-2.54828E-14
 -1       940 7.08314E-03-6.32996E-04-2.80651E-14
 -1       941 7.33087E-03-6.84306E-04-3.07355E-14
 -1       942 7.58691E-03-7.38850E-04-3.34942E-14
 -1       943 7.84958E-03-7.95733E-04-3.63331E-14
 -1       944 8.11755E-03-8.54122E-04-3.92525E-14
 -1       945 8.38973E-03-9.13324E-04-4.22576E-14
 -1       946 8.66523E-03-9.72809E-04-4.53461E-14
 -1       947 8.94333E-03-1.03221E-03-4.85121E-14
 -1       948 9.22344E-03-1.09130E-03-5.17432E-14
 -1       949 9.50509E-03-1.14994E-03-5.50321E-14
 -1       950 9.78792E-03-1.20809E-03-5.83800E-14
 -1       951 1.00716E-02-1.26575E-03-6.17838E-14
 -1       952 1.03560E-02-1.32295E-03-6.52409E-14
 -1       953 1.06408E-02-1.37974E-03-6.87393E-14
 -1       954 1.09260E-02-1.43619E-03-7.22815E-14
 -1       955 1.12114E-02-1.49234E-03-7.58601E-14
 -1       956 1.14970E-02-1.54825E-03-7.94718E-14
 -1       957 1.17826E-02-1.60398E-03-8.31197E-14
 -1       958 1.20684E-02-1.65955E-03-8.68006E-14
 -1       959 1.23541E-02-1.71501E-03-9.04980E-14
 -1       960 1.26399E-02-1.77039E-03-9.42112E-14
 -1       961 1.29257E-02-1.82570E-03-9.79330E-14
 -1       962 1.32115E-02-1.88097E-03-1.01661E-13
 -1       963 1.35426E-02-1.83650E-03-1.06243E-13
 -1       964 6.86794E-03-3.46105E-04-2.73631E-14
 -1       965 7.14212E-03-3.93519E-04-2.99901E-14
 -1       966 7.41593E-03-4.40574E-04-3.27077E-14
 -1       967 7.69050E-03-4.87860E-04-3.55151E-14
 -1       968 7.96639E-03-5.35696E-04-3.84088E-14
 -1       969 8.24381E-03-5.84249E-04-4.13891E-14
 -1       970 8.52276E-03-6.33594E-04-4.44521E-14
 -1       971 8.80311E-03-6.83747E-04-4.75913E-14
 -1       972 9.08469E-03-7.34676E-04-5.08054E-14
 -1       973 9.36731E-03-7.86325E-04-5.40876E-14
 -1       974 9.65076E-03-8.38623E-04-5.74305E-14
 -1       975 9.93487E-03-8.91488E-04-6.08245E-14
 -1       976 1.02195E-02-9.44839E-04-6.42598E-14
 -1       977 1.05045E-02-9.98599E-04-6.77430E-14
 -1       978 1.07898E-02-1.05269E-03-7.12647E-14
 -1       979 1.10752E-02-1.10706E-03-7.48214E-14
 -1       980 1.13609E-02-1.16165E-03-7.84147E-14
 -1       981 1.16466E-02-1.21640E-03-8.20450E-14
 -1       982 1.19323E-02-1.27129E-03-8.57075E-14
 -1       983 1.22181E-02-1.32627E-03-8.93947E-14
 -1       984 1.25039E-02-1.38133E-03-9.30960E-14
 -1       985 1.27897E-02-1.43644E-03-9.68103E-14
 -1       986 1.30755E-02-1.49159E-03-1.00550E-13
 -1       987 1.32929E-02-1.53782E-03-1.03406E-13
 -1       988 6.63436E-03-4.76796E-04-2.30322E-14
 -1       989 1.34883E-02-1.75217E-03-1.05676E-13
 -1       990 1.35869E-02-1.92518E-03-1.06653E-13
 -1       991 1.34511E-03 7.34044E-05-1.71626E-15
 -1       992 1.12720E-03-9.72672E-05-1.87306E-15
 -1       993 1.52781E-03 1.13695E-05-2.46001E-15
 -1       994 6.61015E-03-5.27434E-04-2.27377E-14
 -1       995 1.13940E-03-7.43852E-05-1.83799E-15
 -1       996 6.30932E-03-2.44916E-04-2.24019E-14
 -1       997 5.86030E-03-1.76018E-04-1.86352E-14
 -1       998 1.33992E-02-1.90308E-03-1.04149E-13
 -1       999 6.15324E-03-2.90878E-04-2.01891E-14
 -1      1000 1.33891E-02-1.66530E-03-1.04493E-13
 -1      1001 6.58357E-03-4.28599E-04-2.31044E-14
 -1      1002 6.44314E-03-3.55158E-04-2.25452E-14
 -1      1003 6.86024E-03-5.49754E-04-2.55058E-14
 -1      1004 7.18292E-03-6.08560E-04-2.90943E-14
 -1      1005 7.42985E-03-6.58540E-04-3.17938E-14
 -1      1006 7.68526E-03-7.11328E-04-3.45784E-14
 -1      1007 7.94737E-03-7.66181E-04-3.74415E-14
 -1      1008 8.21480E-03-8.22405E-04-4.03915E-14
 -1      1009 8.48648E-03-8.79438E-04-4.34285E-14
 -1      1010 8.76154E-03-9.36855E-04-4.65420E-14
 -1      1011 9.03926E-03-9.94357E-04-4.97301E-14
 -1      1012 9.31906E-03-1.05176E-03-5.29822E-14
 -1      1013 9.60047E-03-1.10894E-03-5.62896E-14
 -1      1014 9.88312E-03-1.16585E-03-5.96579E-14
 -1      1015 1.01667E-02-1.22249E-03-6.30819E-14
 -1      1016 1.04510E-02-1.27887E-03-6.65521E-14
 -1      1017 1.07358E-02-1.33500E-03-7.00635E-14
 -1      1018 1.10209E-02-1.39092E-03-7.36147E-14
 -1      1019 1.13063E-02-1.44668E-03-7.71997E-14
 -1      1020 1.15919E-02-1.50229E-03-8.08244E-14
 -1      1021 1.18776E-02-1.55779E-03-8.44869E-14
 -1      1022 1.21633E-02-1.61320E-03-8.81756E-14
 -1      1023 1.24491E-02-1.66854E-03-9.18796E-14
 -1      1024 1.27349E-02-1.72384E-03-9.55950E-14
 -1      1025 1.30207E-02-1.77910E-03-9.93153E-14
 -1      1026 6.82203E-03-3.91316E-04-2.64676E-14
 -1      1027 7.61887E-03-5.27959E-04-3.45212E-14
 -1      1028 7.88933E-03-5.75990E-04-3.73837E-14
 -1      1029 8.16241E-03-6.25129E-04-4.03332E-14
 -1      1030 8.43792E-03-6.75249E-04-4.33647E-14
 -1      1031 8.71558E-03-7.26229E-04-4.64757E-14
 -1      1032 8.99507E-03-7.77954E-04-4.96600E-14
 -1      1033 9.27608E-03-8.30322E-04-5.29154E-14
 -1      1034 9.55832E-03-8.83237E-04-5.62322E-14
 -1      1035 9.84154E-03-9.36615E-04-5.96067E-14
 -1      1036 1.01255E-02-9.90379E-04-6.30291E-14
 -1      1037 1.04101E-02-1.04446E-03-6.64936E-14
 -1      1038 1.06950E-02-1.09880E-03-6.99987E-14
 -1      1039 1.09803E-02-1.15336E-03-7.35443E-14
 -1      1040 1.12658E-02-1.20807E-03-7.71240E-14
 -1      1041 1.15514E-02-1.26292E-03-8.07431E-14
 -1      1042 1.18371E-02-1.31787E-03-8.43956E-14
 -1      1043 1.21229E-02-1.37290E-03-8.80759E-14
 -1      1044 1.24086E-02-1.42798E-03-9.17745E-14
 -1      1045 1.26945E-02-1.48310E-03-9.54784E-14
 -1      1046 1.29803E-02-1.53826E-03-9.92029E-14
 -1      1047 1.32679E-02-1.74653E-03-1.02707E-13
 -1      1048 6.85151E-03-5.05271E-04-2.55981E-14
 -1      1049 1.33410E-02-1.60156E-03-1.03955E-13
 -1      1050 7.08574E-03-4.35651E-04-2.90616E-14
 -1      1051 6.62898E-03-3.72197E-04-2.44772E-14
 -1      1052 7.35109E-03-4.81154E-04-3.17465E-14
 -1      1053 1.33335E-02-1.82480E-03-1.03435E-13
 -1      1054 1.31771E-02-1.80196E-03-1.01372E-13
 -1      1055 1.31687E-02-1.65966E-03-1.01532E-13
 -1      1056 1.31606E-02-1.56990E-03-1.01572E-13
 -1      1057 6.79415E-03-4.48898E-04-2.55019E-14
 -1      1058 7.51541E-03-6.31097E-04-3.28365E-14
 -1      1059 7.77363E-03-6.82072E-04-3.56457E-14
 -1      1060 8.03768E-03-7.34937E-04-3.85394E-14
 -1      1061 8.30647E-03-7.89103E-04-4.15208E-14
 -1      1062 8.57909E-03-8.44110E-04-4.45881E-14
 -1      1063 8.85481E-03-8.99617E-04-4.77274E-14
 -1      1064 9.13299E-03-9.55386E-04-5.09381E-14
 -1      1065 9.41313E-03-1.01126E-03-5.42089E-14
 -1      1066 9.69480E-03-1.06713E-03-5.75416E-14
 -1      1067 9.97763E-03-1.12295E-03-6.09313E-14
 -1      1068 1.02613E-02-1.17869E-03-6.43731E-14
 -1      1069 1.05457E-02-1.23434E-03-6.78573E-14
 -1      1070 1.08306E-02-1.28990E-03-7.13810E-14
 -1      1071 1.11158E-02-1.34539E-03-7.49371E-14
 -1      1072 1.14012E-02-1.40080E-03-7.85350E-14
 -1      1073 1.16868E-02-1.45616E-03-8.21750E-14
 -1      1074 1.19726E-02-1.51148E-03-8.58491E-14
 -1      1075 1.22583E-02-1.56676E-03-8.95432E-14
 -1      1076 1.25441E-02-1.62202E-03-9.32522E-14
 -1      1077 1.28299E-02-1.67725E-03-9.69615E-14
 -1      1078 7.03275E-03-4.73891E-04-2.81225E-14
 -1      1079 7.81272E-03-6.13094E-04-3.63503E-14
 -1      1080 8.62825E-03-7.66510E-04-4.53528E-14
 -1      1081 8.90566E-03-8.19372E-04-4.85094E-14
 -1      1082 9.18507E-03-8.72777E-04-5.17362E-14
 -1      1083 9.46611E-03-9.26600E-04-5.50285E-14
 -1      1084 9.74843E-03-9.80744E-04-5.83805E-14
 -1      1085 1.00317E-02-1.03514E-03-6.17848E-14
 -1      1086 1.03158E-02-1.08972E-03-6.52356E-14
 -1      1087 1.06004E-02-1.14446E-03-6.87256E-14
 -1      1088 1.08854E-02-1.19932E-03-7.22536E-14
 -1      1089 1.11708E-02-1.25426E-03-7.58219E-14
 -1      1090 1.14563E-02-1.30927E-03-7.94289E-14
 -1      1091 1.17419E-02-1.36434E-03-8.30704E-14
 -1      1092 1.20277E-02-1.41945E-03-8.67483E-14
 -1      1093 1.23135E-02-1.47458E-03-9.04432E-14
 -1      1094 1.25993E-02-1.52974E-03-9.41480E-14
 -1      1095 1.28851E-02-1.58491E-03-9.78609E-14
 -1      1096 8.35330E-03-7.14356E-04-4.22708E-14
 -1      1097 8.08129E-03-6.63125E-04-3.92676E-14
 -1      1098 7.26461E-03-5.82693E-04-3.01078E-14
 -1      1099 7.03345E-03-5.14774E-04-2.77708E-14
 -1      1100 1.29843E-02-1.67013E-03-9.90407E-14
 -1      1101 7.28802E-03-5.18043E-04-3.07767E-14
 -1      1102 7.54813E-03-5.64607E-04-3.35209E-14
 -1      1103 1.26984E-02-1.61493E-03-9.53234E-14
 -1      1104 0.00000E+00 0.00000E+00 0.00000E+00
 -1      1105 0.00000E+00 0.00000E+00 0.00000E+00
 -1      1106 0.00000E+00 0.00000E+00 0.00000E+00
 -1      1107 0.00000E+00 0.00000E+00 0.00000E+00
 -1      1108 0.00000E+00 0.00000E+00 0.00000E+00
 -1      1109 0.00000E+00 0.00000E+00 0.00000E+00
 -1      1110 0.00000E+00 0.00000E+00 0.00000E+00
 -1      1111 0.00000E+00 0.00000E+00 0.00000E+00
 -1      1112 0.00000E+00 0.00000E+00 0.00000E+00
 -1      1113 0.00000E+00 0.00000E+00 0.00000E+00
 -1      1114 0.00000E+00 0.00000E+00 0.00000E+00
 -1      1115 0.00000E+00 0.00000E+00 0.00000E+00
 -1      1116 0.00000E+00 0.00000E+00 0.00000E+00
 -1      1117 0.00000E+00 0.00000E+00 0.00000E+00
 -1      1118 0.00000E+00 0.00000E+00 0.00000E+00
 -1      1119 0.00000E+00 0.00000E+00 0.00000E+00
 -1      1120 0.00000E+00 0.00000E+00 0.00000E+00
 -1      1121 2.23345E-04-1.42958E-04 2.42590E-18
 -1      1122 6.00702E-04-3.10573E-04-9.11950E-17
 -1      1123 9.35256E-04-4.16253E-04-3.25586E-16
 -1      1124 1.27207E-03-4.96374E-04-7.20791E-16
 -1      1125 1.61889E-03-5.71777E-04-1.26644E-15
 -1      1126 1.97871E-03-6.56786E-04-1.95990E-15
 -1      1127 2.35027E-03-7.63595E-04-2.79940E-15
 -1      1128 2.72662E-03-9.01396E-04-3.78528E-15
 -1      1129 3.09454E-03-1.07156E-03-4.91958E-15
 -1      1130 3.43694E-03-1.26041E-03-6.20221E-15
 -1      1131 3.74085E-03-1.43530E-03-7.63450E-15
 -1      1132 4.00846E-03-1.55315E-03-9.21339E-15
 -1      1133 4.25530E-03-1.58275E-03-1.08971E-14
 -1      1134 4.51754E-03-1.52782E-03-1.27252E-14
 -1      1135 4.82422E-03-1.41527E-03-1.47388E-14
 -1      1136 5.17191E-03-1.28959E-03-1.68857E-14
 -1      1137 5.54787E-03-1.18544E-03-1.91683E-14
 -1      1138 5.93464E-03-1.11883E-03-2.15718E-14
 -1      1139 6.31811E-03-1.09067E-03-2.40883E-14
 -1      1140 6.69010E-03-1.09432E-03-2.67105E-14
 -1      1141 7.04743E-03-1.12124E-03-2.94273E-14
 -1      1142 7.39009E-03-1.16386E-03-3.22314E-14
 -1      1143 7.71967E-03-1.21637E-03-3.51201E-14
 -1      1144 8.03833E-03-1.27469E-03-3.80863E-14
 -1      1145 8.34825E-03-1.33608E-03-4.11267E-14
 -1      1146 8.65137E-03-1.39879E-03-4.42424E-14
 -1      1147 8.94933E-03-1.46175E-03-4.74360E-14
 -1      1148 9.24344E-03-1.52432E-03-5.06980E-14
 -1      1149 9.53471E-03-1.58618E-03-5.40186E-14
 -1      1150 9.82395E-03-1.64717E-03-5.73948E-14
 -1      1151 1.01117E-02-1.70728E-03-6.08327E-14
 -1      1152 1.03986E-02-1.76654E-03-6.43244E-14
 -1      1153 1.06847E-02-1.82503E-03-6.78669E-14
 -1      1154 1.09704E-02-1.88285E-03-7.14554E-14
 -1      1155 1.12559E-02-1.94010E-03-7.50771E-14
 -1      1156 1.15412E-02-1.99687E-03-7.87324E-14
 -1      1157 1.18265E-02-2.05326E-03-8.24064E-14
 -1      1158 1.21118E-02-2.10935E-03-8.60877E-14
 -1      1159 1.23971E-02-2.16519E-03-8.97838E-14
 -1      1160 1.26824E-02-2.22084E-03-9.35133E-14
 -1      1161 1.29678E-02-2.27635E-03-9.72728E-14
 -1      1162 1.32533E-02-2.33176E-03-1.01056E-13
 -1      1163 1.35388E-02-2.38710E-03-1.04844E-13
 -1      1164 1.38243E-02-2.44238E-03-1.08662E-13
 -1      1165 1.41099E-02-2.49763E-03-1.12508E-13
 -1      1166 1.43956E-02-2.55287E-03-1.16362E-13
 -1      1167 1.46812E-02-2.60810E-03-1.20224E-13
 -1      1168 1.49669E-02-2.66334E-03-1.24107E-13
 -1      1169 1.52526E-02-2.71858E-03-1.28013E-13
 -1      1170 1.55383E-02-2.77385E-03-1.31924E-13
 -1      1171 2.38644E-04 1.58946E-04 4.81115E-17
 -1      1172 5.91702E-04 3.28397E-04 8.02852E-17
 -1      1173 9.08993E-04 4.39950E-04 1.53279E-17
 -1      1174 1.22179E-03 5.23989E-04-1.62861E-16
 -1      1175 1.53456E-03 5.97235E-04-4.57574E-16
 -1      1176 1.84780E-03 6.68754E-04-8.72945E-16
 -1      1177 2.15925E-03 7.43104E-04-1.41545E-15
 -1      1178 2.46465E-03 8.20883E-04-2.08785E-15
 -1      1179 2.75900E-03 8.98195E-04-2.89218E-15
 -1      1180 3.03835E-03 9.66506E-04-3.83051E-15
 -1      1181 3.30190E-03 1.01405E-03-4.90982E-15
 -1      1182 3.55347E-03 1.02918E-03-6.13038E-15
 -1      1183 3.80111E-03 1.00469E-03-7.48949E-15
 -1      1184 4.05466E-03 9.40971E-04-8.98636E-15
 -1      1185 4.32223E-03 8.46053E-04-1.06209E-14
 -1      1186 4.60769E-03 7.32578E-04-1.23951E-14
 -1      1187 4.91028E-03 6.13547E-04-1.43040E-14
 -1      1188 5.22586E-03 4.99063E-04-1.63403E-14
 -1      1189 5.54899E-03 3.95031E-04-1.84975E-14
 -1      1190 5.87455E-03 3.03548E-04-2.07713E-14
 -1      1191 6.19867E-03 2.24093E-04-2.31635E-14
 -1      1192 6.51888E-03 1.54757E-04-2.56682E-14
 -1      1193 6.83398E-03 9.31693E-05-2.82797E-14
 -1      1194 7.14369E-03 3.70494E-05-3.09908E-14
 -1      1195 7.44829E-03-1.55287E-05-3.37939E-14
 -1      1196 7.74839E-03-6.60602E-05-3.66766E-14
 -1      1197 8.04471E-03-1.15630E-04-3.96464E-14
 -1      1198 8.33799E-03-1.64980E-04-4.27040E-14
 -1      1199 8.62888E-03-2.14577E-04-4.58454E-14
 -1      1200 8.91798E-03-2.64693E-04-4.90682E-14
 -1      1201 9.20576E-03-3.15456E-04-5.23618E-14
 -1      1202 9.49260E-03-3.66901E-04-5.57195E-14
 -1      1203 9.77879E-03-4.19004E-04-5.91258E-14
 -1      1204 1.00646E-02-4.71706E-04-6.25825E-14
 -1      1205 1.03501E-02-5.24932E-04-6.60803E-14
 -1      1206 1.06354E-02-5.78603E-04-6.96129E-14
 -1      1207 1.09207E-02-6.32641E-04-7.31949E-14
 -1      1208 1.12060E-02-6.86977E-04-7.68193E-14
 -1      1209 1.14914E-02-7.41547E-04-8.04691E-14
 -1      1210 1.17767E-02-7.96300E-04-8.41374E-14
 -1      1211 1.20621E-02-8.51191E-04-8.78192E-14
 -1      1212 1.23476E-02-9.06184E-04-9.15276E-14
 -1      1213 1.26331E-02-9.61250E-04-9.52622E-14
 -1      1214 1.29186E-02-1.01637E-03-9.90210E-14
 -1      1215 1.32042E-02-1.07151E-03-1.02796E-13
 -1      1216 1.34898E-02-1.12668E-03-1.06586E-13
 -1      1217 1.37755E-02-1.18184E-03-1.10376E-13
 -1      1218 1.40612E-02-1.23700E-03-1.14176E-13
 -1      1219 1.43469E-02-1.29215E-03-1.17978E-13
 -1      1220 1.46255E-02-1.34591E-03-1.21666E-13
 -1      1221 1.47883E-02-1.41424E-03-1.23765E-13
 -1      1222 1.48425E-02-1.49852E-03-1.24379E-13
 -1      1223 1.48967E-02-1.58281E-03-1.25024E-13
 -1      1224 1.49509E-02-1.66712E-03-1.25681E-13
 -1      1225 1.50051E-02-1.75145E-03-1.26312E-13
 -1      1226 1.50588E-02-1.83509E-03-1.26928E-13
 -1      1227 1.51125E-02-1.91874E-03-1.27575E-13
 -1      1228 1.51668E-02-2.00312E-03-1.28213E-13
 -1      1229 1.52210E-02-2.08750E-03-1.28856E-13
 -1      1230 1.52753E-02-2.17189E-03-1.29487E-13
 -1      1231 1.53296E-02-2.25627E-03-1.30101E-13
 -1      1232 1.53835E-02-2.33992E-03-1.30730E-13
 -1      1233 1.54374E-02-2.42356E-03-1.31349E-13
 -1      1234 1.54918E-02-2.50788E-03-1.31932E-13
 -1      1235 1.55462E-02-2.59219E-03-1.32490E-13
 -1      1236 1.56006E-02-2.67648E-03-1.33041E-13
 -1      1237 1.56545E-02-2.76006E-03-1.33585E-13
 -1      1238 6.15171E-03-2.85137E-04-1.33775E-14
 -1      1239 6.01688E-03-1.34239E-04-1.30829E-14
 -1      1240 5.78570E-03 2.01683E-05-1.26181E-14
 -1      1241 5.46577E-03 1.79382E-04-1.20007E-14
 -1      1242 5.08603E-03 3.30172E-04-1.12771E-14
 -1      1243 4.66953E-03 4.56257E-04-1.04927E-14
 -1      1244 4.22743E-03 5.42977E-04-9.67211E-15
 -1      1245 3.77943E-03 5.75353E-04-8.86848E-15
 -1      1246 3.31648E-03 5.48185E-04-8.08438E-15
 -1      1247 2.88534E-03 4.70671E-04-7.40632E-15
 -1      1248 2.50611E-03 3.60810E-04-6.86365E-15
 -1      1249 2.16355E-03 2.25638E-04-6.41966E-15
 -1      1250 1.89082E-03 8.18105E-05-6.10525E-15
 -1      1251 1.71142E-03-6.31790E-05-5.92933E-15
 -1      1252 1.63946E-03-2.13558E-04-5.89672E-15
 -1      1253 1.68905E-03-3.63853E-04-6.01330E-15
 -1      1254 1.84405E-03-5.16604E-04-6.26119E-15
 -1      1255 2.09987E-03-6.82232E-04-6.64749E-15
 -1      1256 2.44363E-03-8.55836E-04-7.17242E-15
 -1      1257 2.85491E-03-1.02174E-03-7.82485E-15
 -1      1258 3.31735E-03-1.15760E-03-8.59146E-15
 -1      1259 3.77766E-03-1.23366E-03-9.38651E-15
 -1      1260 4.23378E-03-1.24376E-03-1.01995E-14
 -1      1261 4.68767E-03-1.18880E-03-1.10209E-14
 -1      1262 5.12181E-03-1.07703E-03-1.18030E-14
 -1      1263 5.51847E-03-9.28240E-04-1.24926E-14
 -1      1264 5.84695E-03-7.60705E-04-1.30321E-14
 -1      1265 6.07302E-03-5.92972E-04-1.33667E-14
 -1      1266 6.17373E-03-4.35090E-04-1.34765E-14
 -1      1267 1.81815E-04-1.01115E-04-1.87025E-17
 -1      1268 1.23151E-04-4.12697E-05-3.94379E-17
 -1      1269 1.29671E-04-5.44776E-05-3.34341E-17
 -1      1270 1.14551E-04-2.43030E-05-4.88162E-17
 -1      1271 1.18706E-04-3.15760E-05-4.61735E-17
 -1      1272 2.46520E-04-7.57052E-05-1.08989E-16
 -1      1273 1.07915E-04-1.40202E-05-5.31395E-17
 -1      1274 1.11293E-04-1.85321E-05-5.19739E-17
 -1      1275 2.29098E-04-4.62421E-05-1.24846E-16
 -1      1276 1.02312E-04-8.11122E-06-5.49555E-17
 -1      1277 1.05088E-04-1.07204E-05-5.46438E-17
 -1      1278 2.15001E-04-2.79508E-05-1.32395E-16
 -1      1279 9.80328E-05-5.38440E-06-5.53350E-17
 -1      1280 1.00067E-04-6.62743E-06-5.53485E-17
 -1      1281 2.03464E-04-1.74627E-05-1.35186E-16
 -1      1282 9.52396E-05-4.63548E-06-5.46709E-17
 -1      1283 9.64631E-05-5.07663E-06-5.50639E-17
 -1      1284 1.94873E-04-1.23856E-05-1.35159E-16
 -1      1285 9.41948E-05-4.74045E-06-5.30581E-17
 -1      1286 9.45112E-05-4.92474E-06-5.35189E-17
 -1      1287 1.89798E-04-1.05713E-05-1.32733E-16
 -1      1288 9.48461E-05-4.52190E-06-5.11472E-17
 -1      1289 9.43161E-05-4.98909E-06-5.18113E-17
 -1      1290 1.88581E-04-9.79697E-06-1.28885E-16
 -1      1291 9.69171E-05-3.00743E-06-4.84096E-17
 -1      1292 9.57043E-05-4.17950E-06-4.92363E-17
 -1      1293 1.90949E-04-7.90525E-06-1.23626E-16
 -1      1294 1.00004E-04 4.36022E-07-4.49402E-17
 -1      1295 9.83186E-05-1.69713E-06-4.61057E-17
 -1      1296 1.96170E-04-3.20829E-06-1.16674E-16
 -1      1297 1.03643E-04 5.98773E-06-4.04407E-17
 -1      1298 1.01705E-04 2.85044E-06-4.19451E-17
 -1      1299 2.03244E-04 5.23512E-06-1.07851E-16
 -1      1300 1.07707E-04 1.39526E-05-3.42743E-17
 -1      1301 1.05541E-04 9.63322E-06-3.64156E-17
 -1      1302 2.11405E-04 1.79115E-05-9.63720E-17
 -1      1303 1.12145E-04 2.44971E-05-2.61022E-17
 -1      1304 1.09706E-04 1.88730E-05-2.92328E-17
 -1      1305 2.20322E-04 3.52723E-05-8.12881E-17
 -1      1306 1.17497E-04 3.85921E-05-1.43792E-17
 -1      1307 1.14344E-04 3.10336E-05-1.93530E-17
 -1      1308 2.30208E-04 5.80580E-05-6.12032E-17
 -1      1309 1.26163E-04 5.98859E-05 2.62919E-18
 -1      1310 1.20637E-04 4.79778E-05-5.40746E-18
 -1      1311 2.42976E-04 8.90801E-05-3.37458E-17
 -1      1312 1.67975E-04 1.06263E-04 2.78504E-17
 -1      1313 1.46478E-04 7.97038E-05 1.31188E-17
 -1      1314 2.77434E-04 1.37115E-04-1.69407E-18
 -1      1315 3.59189E-04 2.10778E-04 4.14301E-17
 -1      1316 4.64542E-04-2.34702E-04-9.58706E-17
 -1      1317 6.39321E-04-2.98520E-04-1.77064E-16
 -1      1318 8.10815E-04-3.50391E-04-3.01286E-16
 -1      1319 9.81043E-04-3.94096E-04-4.64621E-16
 -1      1320 6.86348E-04-2.81713E-04-2.73558E-16
 -1      1321 1.15104E-03-4.33527E-04-6.64453E-16
 -1      1322 1.32180E-03-4.70382E-04-9.01379E-16
 -1      1323 1.02774E-03-3.70342E-04-6.05608E-16
 -1      1324 1.49418E-03-5.07291E-04-1.17491E-15
 -1      1325 1.66859E-03-5.45480E-04-1.48545E-15
 -1      1326 1.36757E-03-4.44298E-04-1.08354E-15
 -1      1327 1.84536E-03-5.87086E-04-1.83175E-15
 -1      1328 2.02438E-03-6.33275E-04-2.21424E-15
 -1      1329 1.71171E-03-5.20178E-04-1.70477E-15
 -1      1330 2.20546E-03-6.85942E-04-2.63250E-15
 -1      1331 2.38791E-03-7.46024E-04-3.08647E-15
 -1      1332 2.06278E-03-6.11797E-04-2.46763E-15
 -1      1333 2.57100E-03-8.14834E-04-3.57690E-15
 -1      1334 2.75342E-03-8.92424E-04-4.10436E-15
 -1      1335 2.42028E-03-7.31396E-04-3.37245E-15
 -1      1336 2.93396E-03-9.78588E-04-4.66779E-15
 -1      1337 3.11097E-03-1.07162E-03-5.26815E-15
 -1      1338 2.78023E-03-8.86676E-04-4.42039E-15
 -1      1339 3.28314E-03-1.16864E-03-5.90538E-15
 -1      1340 3.44912E-03-1.26539E-03-6.57981E-15
 -1      1341 3.13534E-03-1.07390E-03-5.61301E-15
 -1      1342 3.60835E-03-1.35628E-03-7.29115E-15
 -1      1343 3.76095E-03-1.43548E-03-8.04055E-15
 -1      1344 3.47686E-03-1.26971E-03-6.95295E-15
 -1      1345 3.90775E-03-1.49693E-03-8.82677E-15
 -1      1346 4.05106E-03-1.53625E-03-9.64878E-15
 -1      1347 3.79966E-03-1.43065E-03-8.44233E-15
 -1      1348 4.18586E-03-1.55061E-03-1.04659E-14
 -1      1349 4.32229E-03-1.54244E-03-1.13173E-14
 -1      1350 4.10095E-03-1.50960E-03-1.00383E-14
 -1      1351 4.46960E-03-1.51227E-03-1.22492E-14
 -1      1352 4.62303E-03-1.46420E-03-1.32178E-14
 -1      1353 4.40261E-03-1.49177E-03-1.17775E-14
 -1      1354 4.78349E-03-1.40430E-03-1.42205E-14
 -1      1355 4.95119E-03-1.33862E-03-1.52568E-14
 -1      1356 4.72677E-03-1.39289E-03-1.37063E-14
 -1      1357 5.12556E-03-1.27299E-03-1.63275E-14
 -1      1358 5.30528E-03-1.21192E-03-1.74308E-14
 -1      1359 5.07105E-03-1.25903E-03-1.57724E-14
 -1      1360 5.48902E-03-1.15857E-03-1.85668E-14
 -1      1361 5.67505E-03-1.11496E-03-1.97348E-14
 -1      1362 5.43040E-03-1.13553E-03-1.79718E-14
 -1      1363 5.86206E-03-1.08164E-03-2.09316E-14
 -1      1364 6.04866E-03-1.05876E-03-2.21564E-14
 -1      1365 5.79568E-03-1.04815E-03-2.02962E-14
 -1      1366 6.23393E-03-1.04539E-03-2.34097E-14
 -1      1367 6.41706E-03-1.04080E-03-2.46890E-14
 -1      1368 6.15880E-03-1.00304E-03-2.27370E-14
 -1      1369 6.59759E-03-1.04362E-03-2.59947E-14
 -1      1370 6.77516E-03-1.05290E-03-2.73252E-14
 -1      1371 6.51456E-03-9.94957E-04-2.52861E-14
 -1      1372 6.94965E-03-1.06739E-03-2.86783E-14
 -1      1373 7.12104E-03-1.08622E-03-3.00524E-14
 -1      1374 6.86044E-03-1.01479E-03-2.79339E-14
 -1      1375 7.28942E-03-1.10846E-03-3.14494E-14
 -1      1376 7.45492E-03-1.13341E-03-3.28690E-14
 -1      1377 7.19586E-03-1.05374E-03-3.06744E-14
 -1      1378 7.61774E-03-1.16046E-03-3.43077E-14
 -1      1379 7.77808E-03-1.18907E-03-3.57654E-14
 -1      1380 7.52140E-03-1.10484E-03-3.34994E-14
 -1      1381 7.93617E-03-1.21888E-03-3.72441E-14
 -1      1382 8.09222E-03-1.24948E-03-3.87415E-14
 -1      1383 7.83825E-03-1.16311E-03-3.64075E-14
 -1      1384 8.24645E-03-1.28069E-03-4.02566E-14
 -1      1385 8.39906E-03-1.31221E-03-4.17898E-14
 -1      1386 8.14778E-03-1.22520E-03-3.93913E-14
 -1      1387 8.55024E-03-1.34396E-03-4.33445E-14
 -1      1388 8.70016E-03-1.37574E-03-4.49180E-14
 -1      1389 8.45136E-03-1.28897E-03-4.24504E-14
 -1      1390 8.84899E-03-1.40752E-03-4.65076E-14
 -1      1391 8.99685E-03-1.43916E-03-4.81176E-14
 -1      1392 8.75024E-03-1.35309E-03-4.55852E-14
 -1      1393 9.14389E-03-1.47066E-03-4.97443E-14
 -1      1394 9.29021E-03-1.50195E-03-5.13872E-14
 -1      1395 9.04545E-03-1.41681E-03-4.87954E-14
 -1      1396 9.43592E-03-1.53304E-03-5.30435E-14
 -1      1397 9.58110E-03-1.56388E-03-5.47148E-14
 -1      1398 9.33786E-03-1.47972E-03-5.20720E-14
 -1      1399 9.72583E-03-1.59449E-03-5.64020E-14
 -1      1400 9.87018E-03-1.62484E-03-5.81019E-14
 -1      1401 9.62819E-03-1.54164E-03-5.54098E-14
 -1      1402 1.00142E-02-1.65498E-03-5.98159E-14
 -1      1403 1.01580E-02-1.68487E-03-6.15446E-14
 -1      1404 9.91697E-03-1.60254E-03-5.88042E-14
 -1      1405 1.03015E-02-1.71455E-03-6.32865E-14
 -1      1406 1.04449E-02-1.74402E-03-6.50403E-14
 -1      1407 1.02046E-02-1.66246E-03-6.22515E-14
 -1      1408 1.05881E-02-1.77330E-03-6.68070E-14
 -1      1409 1.07311E-02-1.80240E-03-6.85868E-14
 -1      1410 1.04915E-02-1.72149E-03-6.57516E-14
 -1      1411 1.08741E-02-1.83133E-03-7.03766E-14
 -1      1412 1.10170E-02-1.86011E-03-7.21740E-14
 -1      1413 1.07778E-02-1.77974E-03-6.93004E-14
 -1      1414 1.11598E-02-1.88875E-03-7.39813E-14
 -1      1415 1.13026E-02-1.91725E-03-7.57957E-14
 -1      1416 1.10638E-02-1.83733E-03-7.28885E-14
 -1      1417 1.14454E-02-1.94565E-03-7.76172E-14
 -1      1418 1.15881E-02-1.97394E-03-7.94470E-14
 -1      1419 1.13495E-02-1.89437E-03-7.65090E-14
 -1      1420 1.17308E-02-2.00213E-03-8.12798E-14
 -1      1421 1.18735E-02-2.03025E-03-8.31162E-14
 -1      1422 1.16351E-02-1.95097E-03-8.01570E-14
 -1      1423 1.20162E-02-2.05829E-03-8.49578E-14
 -1      1424 1.21589E-02-2.08626E-03-8.68004E-14
 -1      1425 1.19206E-02-2.00720E-03-8.38278E-14
 -1      1426 1.23016E-02-2.11418E-03-8.86498E-14
 -1      1427 1.24443E-02-2.14205E-03-9.05044E-14
 -1      1428 1.22060E-02-2.06315E-03-8.75146E-14
 -1      1429 1.25870E-02-2.16987E-03-9.23674E-14
 -1      1430 1.27297E-02-2.19766E-03-9.42382E-14
 -1      1431 1.24915E-02-2.11889E-03-9.12236E-14
 -1      1432 1.28724E-02-2.22541E-03-9.61154E-14
 -1      1433 1.30152E-02-2.25313E-03-9.79966E-14
 -1      1434 1.27770E-02-2.17445E-03-9.49590E-14
 -1      1435 1.31579E-02-2.28083E-03-9.98841E-14
 -1      1436 1.33007E-02-2.30852E-03-1.01776E-13
 -1      1437 1.30625E-02-2.22990E-03-9.87171E-14
 -1      1438 1.34434E-02-2.33618E-03-1.03668E-13
 -1      1439 1.35862E-02-2.36383E-03-1.05566E-13
 -1      1440 1.33481E-02-2.28526E-03-1.02493E-13
 -1      1441 1.37290E-02-2.39147E-03-1.07473E-13
 -1      1442 1.38718E-02-2.41910E-03-1.09388E-13
 -1      1443 1.36336E-02-2.34055E-03-1.06287E-13
 -1      1444 1.40146E-02-2.44672E-03-1.11307E-13
 -1      1445 1.41574E-02-2.47434E-03-1.13228E-13
 -1      1446 1.39192E-02-2.39581E-03-1.10107E-13
 -1      1447 1.43002E-02-2.50195E-03-1.15151E-13
 -1      1448 1.44430E-02-2.52957E-03-1.17081E-13
 -1      1449 1.42049E-02-2.45104E-03-1.13945E-13
 -1      1450 1.45859E-02-2.55718E-03-1.19014E-13
 -1      1451 1.47287E-02-2.58480E-03-1.20948E-13
 -1      1452 1.44905E-02-2.50627E-03-1.17798E-13
 -1      1453 1.48716E-02-2.61241E-03-1.22892E-13
 -1      1454 1.50144E-02-2.64003E-03-1.24838E-13
 -1      1455 1.47762E-02-2.56149E-03-1.21674E-13
 -1      1456 1.51573E-02-2.66766E-03-1.26792E-13
 -1      1457 1.53001E-02-2.69529E-03-1.28745E-13
 -1      1458 1.50619E-02-2.61673E-03-1.25568E-13
 -1      1459 1.54059E-02-2.71385E-03-1.30195E-13
 -1      1460 1.55487E-02-2.74149E-03-1.32144E-13
 -1      1461 1.55220E-02-2.70006E-03-1.31868E-13
 -1      1462 1.53105E-02-2.66292E-03-1.28972E-13
 -1      1463 6.98082E-04 3.49949E-04 1.84043E-17
 -1      1464 5.31707E-04 2.87028E-04 4.30157E-17
 -1      1465 4.82502E-04 2.46338E-04 1.10995E-17
 -1      1466 1.02039E-03 4.45995E-04-1.13868E-16
 -1      1467 8.60489E-04 4.01191E-04-3.37865E-17
 -1      1468 8.14048E-04 3.61631E-04-7.66124E-17
 -1      1469 1.33645E-03 5.23498E-04-3.58031E-16
 -1      1470 1.17873E-03 4.86155E-04-2.21421E-16
 -1      1471 1.13583E-03 4.47816E-04-2.73639E-16
 -1      1472 1.65059E-03 5.95096E-04-7.20601E-16
 -1      1473 1.49360E-03 5.59623E-04-5.24198E-16
 -1      1474 1.45259E-03 5.21729E-04-5.84710E-16
 -1      1475 1.96320E-03 6.67719E-04-1.20533E-15
 -1      1476 1.80712E-03 6.31133E-04-9.47173E-16
 -1      1477 1.76696E-03 5.93337E-04-1.01518E-15
 -1      1478 2.27223E-03 7.44373E-04-1.81799E-15
 -1      1479 2.11834E-03 7.05647E-04-1.49555E-15
 -1      1480 2.07892E-03 6.67984E-04-1.56948E-15
 -1      1481 2.57426E-03 8.23814E-04-2.56066E-15
 -1      1482 2.42437E-03 7.84126E-04-2.17308E-15
 -1      1483 2.38664E-03 7.47015E-04-2.25156E-15
 -1      1484 2.86581E-03 8.99931E-04-3.43580E-15
 -1      1485 2.72155E-03 8.62924E-04-2.98108E-15
 -1      1486 2.68740E-03 8.27071E-04-3.06431E-15
 -1      1487 3.14493E-03 9.62117E-04-4.44803E-15
 -1      1488 3.00697E-03 9.33527E-04-3.92450E-15
 -1      1489 2.97883E-03 8.99714E-04-4.01121E-15
 -1      1490 3.41274E-03 9.97626E-04-5.60004E-15
 -1      1491 3.28006E-03 9.83855E-04-5.00643E-15
 -1      1492 3.26032E-03 9.52619E-04-5.09633E-15
 -1      1493 3.67390E-03 9.95784E-04-6.89237E-15
 -1      1494 3.54374E-03 1.00165E-03-6.22869E-15
 -1      1495 3.53402E-03 9.72973E-04-6.32078E-15
 -1      1496 3.93556E-03 9.52368E-04-8.32430E-15
 -1      1497 3.80416E-03 9.79028E-04-7.59077E-15
 -1      1498 3.80481E-03 9.52262E-04-7.68560E-15
 -1      1499 4.20500E-03 8.71617E-04-9.89316E-15
 -1      1500 4.06888E-03 9.15968E-04-9.09156E-15
 -1      1501 4.07885E-03 8.90042E-04-9.18966E-15
 -1      1502 4.48718E-03 7.64664E-04-1.16009E-14
 -1      1503 4.34429E-03 8.20532E-04-1.07297E-14
 -1      1504 4.36137E-03 7.94366E-04-1.08321E-14
 -1      1505 4.78350E-03 6.45346E-04-1.34444E-14
 -1      1506 4.63360E-03 7.05746E-04-1.25058E-14
 -1      1507 4.65500E-03 6.78587E-04-1.26107E-14
 -1      1508 5.09208E-03 5.26012E-04-1.54192E-14
 -1      1509 4.93646E-03 5.85129E-04-1.44164E-14
 -1      1510 4.95939E-03 5.56676E-04-1.45221E-14
 -1      1511 5.40908E-03 4.15029E-04-1.75172E-14
 -1      1512 5.24980E-03 4.69210E-04-1.64528E-14
 -1      1513 5.27204E-03 4.39538E-04-1.65607E-14
 -1      1514 5.73020E-03 3.16401E-04-1.97340E-14
 -1      1515 5.56939E-03 3.64129E-04-1.86112E-14
 -1      1516 5.58949E-03 3.33531E-04-1.87196E-14
 -1      1517 6.05170E-03 2.30734E-04-2.20667E-14
 -1      1518 5.89111E-03 2.72041E-04-2.08857E-14
 -1      1519 5.90840E-03 2.40876E-04-2.09952E-14
 -1      1520 6.37087E-03 1.56582E-04-2.45157E-14
 -1      1521 6.21172E-03 1.92370E-04-2.32767E-14
 -1      1522 6.22612E-03 1.60969E-04-2.33867E-14
 -1      1523 6.68612E-03 9.16056E-05-2.70728E-14
 -1      1524 6.52906E-03 1.23107E-04-2.57808E-14
 -1      1525 6.54087E-03 9.17256E-05-2.58885E-14
 -1      1526 6.99673E-03 3.33350E-05-2.97322E-14
 -1      1527 6.84203E-03 6.17741E-05-2.83909E-14
 -1      1528 6.85173E-03 3.05842E-05-2.84978E-14
 -1      1529 7.30265E-03-2.04263E-05-3.24888E-14
 -1      1530 7.15026E-03 6.00408E-06-3.10987E-14
 -1      1531 7.15837E-03-2.48970E-05-3.12035E-14
 -1      1532 7.60423E-03-7.14417E-05-3.53310E-14
 -1      1533 7.45395E-03-4.61932E-05-3.38996E-14
 -1      1534 7.46094E-03-7.67653E-05-3.40019E-14
 -1      1535 7.90202E-03-1.21026E-04-3.82568E-14
 -1      1536 7.75356E-03-9.63545E-05-3.67834E-14
 -1      1537 7.75983E-03-1.26597E-04-3.68860E-14
 -1      1538 8.19665E-03-1.70100E-04-4.12714E-14
 -1      1539 8.04969E-03-1.45589E-04-3.97532E-14
 -1      1540 8.05555E-03-1.75526E-04-3.98559E-14
 -1      1541 8.48874E-03-2.19265E-04-4.43697E-14
 -1      1542 8.34297E-03-1.94649E-04-4.28108E-14
 -1      1543 8.34864E-03-2.24316E-04-4.29119E-14
 -1      1544 8.77885E-03-2.68882E-04-4.75482E-14
 -1      1545 8.63401E-03-2.44005E-04-4.59489E-14
 -1      1546 8.63964E-03-2.73444E-04-4.60495E-14
 -1      1547 9.06745E-03-3.19140E-04-5.08048E-14
 -1      1548 8.92331E-03-2.93927E-04-4.91668E-14
 -1      1549 8.92901E-03-3.23178E-04-4.92635E-14
 -1      1550 9.35495E-03-3.70111E-04-5.41263E-14
 -1      1551 9.21132E-03-3.44538E-04-5.24571E-14
 -1      1552 9.21714E-03-3.73639E-04-5.25492E-14
 -1      1553 9.64167E-03-4.21790E-04-5.75061E-14
 -1      1554 9.49839E-03-3.95866E-04-5.58097E-14
 -1      1555 9.50436E-03-4.24851E-04-5.58991E-14
 -1      1556 9.92783E-03-4.74126E-04-6.09358E-14
 -1      1557 9.78480E-03-4.47881E-04-5.92152E-14
 -1      1558 9.79092E-03-4.76778E-04-5.93017E-14
 -1      1559 1.02136E-02-5.27046E-04-6.44143E-14
 -1      1560 1.00708E-02-5.00519E-04-6.26682E-14
 -1      1561 1.00770E-02-5.29350E-04-6.27544E-14
 -1      1562 1.04992E-02-5.80467E-04-6.79274E-14
 -1      1563 1.03564E-02-5.53700E-04-6.61665E-14
 -1      1564 1.03629E-02-5.82483E-04-6.62497E-14
 -1      1565 1.07847E-02-6.34306E-04-7.14788E-14
 -1      1566 1.06420E-02-6.07339E-04-6.96993E-14
 -1      1567 1.06485E-02-6.36090E-04-6.97818E-14
 -1      1568 1.10701E-02-6.88485E-04-7.50822E-14
 -1      1569 1.09274E-02-6.61358E-04-7.32740E-14
 -1      1570 1.09340E-02-6.90085E-04-7.33548E-14
 -1      1571 1.13555E-02-7.42936E-04-7.87113E-14
 -1      1572 1.12128E-02-7.15681E-04-7.68928E-14
 -1      1573 1.12195E-02-7.44393E-04-7.69653E-14
 -1      1574 1.16408E-02-7.97599E-04-8.23677E-14
 -1      1575 1.14981E-02-7.70244E-04-8.05374E-14
 -1      1576 1.15049E-02-7.98948E-04-8.06060E-14
 -1      1577 1.19263E-02-8.52424E-04-8.60428E-14
 -1      1578 1.17836E-02-8.24994E-04-8.42043E-14
 -1      1579 1.17904E-02-8.53693E-04-8.42700E-14
 -1      1580 1.22117E-02-9.07370E-04-8.97382E-14
 -1      1581 1.20690E-02-8.79884E-04-8.78892E-14
 -1      1582 1.20759E-02-9.08581E-04-8.79547E-14
 -1      1583 1.24972E-02-9.62405E-04-9.34578E-14
 -1      1584 1.23545E-02-9.34878E-04-9.15944E-14
 -1      1585 1.23614E-02-9.63575E-04-9.16616E-14
 -1      1586 1.27828E-02-1.01750E-03-9.72046E-14
 -1      1587 1.26400E-02-9.89946E-04-9.53274E-14
 -1      1588 1.26469E-02-1.01864E-03-9.53928E-14
 -1      1589 1.30684E-02-1.07264E-03-1.00967E-13
 -1      1590 1.29256E-02-1.04506E-03-9.90841E-14
 -1      1591 1.29325E-02-1.07377E-03-9.91481E-14
 -1      1592 1.33540E-02-1.12780E-03-1.04750E-13
 -1      1593 1.32112E-02-1.10022E-03-1.02858E-13
 -1      1594 1.32181E-02-1.12892E-03-1.02918E-13
 -1      1595 1.36396E-02-1.18297E-03-1.08539E-13
 -1      1596 1.34968E-02-1.15538E-03-1.06643E-13
 -1      1597 1.35038E-02-1.18409E-03-1.06702E-13
 -1      1598 1.39253E-02-1.23814E-03-1.12330E-13
 -1      1599 1.37825E-02-1.21055E-03-1.10434E-13
 -1      1600 1.37894E-02-1.23926E-03-1.10491E-13
 -1      1601 1.42110E-02-1.29329E-03-1.16132E-13
 -1      1602 1.40682E-02-1.26572E-03-1.14230E-13
 -1      1603 1.40751E-02-1.29443E-03-1.14286E-13
 -1      1604 1.44967E-02-1.34844E-03-1.19922E-13
 -1      1605 1.43539E-02-1.32087E-03-1.18029E-13
 -1      1606 1.43608E-02-1.34958E-03-1.18082E-13
 -1      1607 1.46526E-02-1.38805E-03-1.21971E-13
 -1      1608 1.47323E-02-1.49573E-03-1.22904E-13
 -1      1609 1.47052E-02-1.45358E-03-1.22591E-13
 -1      1610 1.47865E-02-1.58003E-03-1.23545E-13
 -1      1611 1.47594E-02-1.53788E-03-1.23222E-13
 -1      1612 1.46222E-02-1.49293E-03-1.21424E-13
 -1      1613 1.48407E-02-1.66434E-03-1.24191E-13
 -1      1614 1.48136E-02-1.62218E-03-1.23869E-13
 -1      1615 1.46763E-02-1.57724E-03-1.22061E-13
 -1      1616 1.48949E-02-1.74867E-03-1.24817E-13
 -1      1617 1.48678E-02-1.70650E-03-1.24509E-13
 -1      1618 1.47305E-02-1.66155E-03-1.22699E-13
 -1      1619 1.49481E-02-1.83159E-03-1.25439E-13
 -1      1620 1.49215E-02-1.79013E-03-1.25126E-13
 -1      1621 1.47842E-02-1.74517E-03-1.23324E-13
 -1      1622 1.50024E-02-1.91595E-03-1.26080E-13
 -1      1623 1.49752E-02-1.87377E-03-1.25761E-13
 -1      1624 1.48380E-02-1.82880E-03-1.23950E-13
 -1      1625 1.50566E-02-2.00032E-03-1.26711E-13
 -1      1626 1.50295E-02-1.95813E-03-1.26396E-13
 -1      1627 1.48922E-02-1.91316E-03-1.24580E-13
 -1      1628 1.51109E-02-2.08470E-03-1.27346E-13
 -1      1629 1.50837E-02-2.04251E-03-1.27028E-13
 -1      1630 1.49464E-02-1.99752E-03-1.25207E-13
 -1      1631 1.51652E-02-2.16907E-03-1.27964E-13
 -1      1632 1.51380E-02-2.12688E-03-1.27659E-13
 -1      1633 1.50007E-02-2.08188E-03-1.25830E-13
 -1      1634 1.52195E-02-2.25344E-03-1.28580E-13
 -1      1635 1.51923E-02-2.21125E-03-1.28270E-13
 -1      1636 1.50550E-02-2.16625E-03-1.26443E-13
 -1      1637 1.52729E-02-2.33636E-03-1.29185E-13
 -1      1638 1.52462E-02-2.29490E-03-1.28885E-13
 -1      1639 1.51089E-02-2.24989E-03-1.27046E-13
 -1      1640 1.53273E-02-2.42070E-03-1.29792E-13
 -1      1641 1.53001E-02-2.37853E-03-1.29492E-13
 -1      1642 1.51628E-02-2.33352E-03-1.27645E-13
 -1      1643 1.53817E-02-2.50502E-03-1.30367E-13
 -1      1644 1.53545E-02-2.46286E-03-1.30084E-13
 -1      1645 1.52172E-02-2.41785E-03-1.28236E-13
 -1      1646 1.54361E-02-2.58933E-03-1.30932E-13
 -1      1647 1.54089E-02-2.54718E-03-1.30647E-13
 -1      1648 1.52716E-02-2.50217E-03-1.28809E-13
 -1      1649 1.54926E-02-2.66577E-03-1.31538E-13
 -1      1650 1.54655E-02-2.62362E-03-1.31263E-13
 -1      1651 1.53281E-02-2.57861E-03-1.29425E-13
 -1      1652 1.53869E-02-2.64720E-03-1.30089E-13
 -1      1653 6.13956E-03-2.93564E-04-1.37282E-14
 -1      1654 6.18235E-03-3.39826E-04-1.38275E-14
 -1      1655 5.94751E-03-1.83310E-04-1.33989E-14
 -1      1656 6.05228E-03-2.39758E-04-1.36031E-14
 -1      1657 5.66395E-03-3.11516E-05-1.27986E-14
 -1      1658 5.80515E-03-1.00141E-04-1.30660E-14
 -1      1659 5.26920E-03 1.33443E-04-1.21323E-14
 -1      1660 5.45449E-03 4.39716E-05-1.24981E-14
 -1      1661 4.88970E-03 3.26474E-04-1.12755E-14
 -1      1662 5.06681E-03 2.45670E-04-1.16428E-14
 -1      1663 4.48226E-03 4.91891E-04-1.03729E-14
 -1      1664 4.67751E-03 4.19583E-04-1.07969E-14
 -1      1665 4.08795E-03 5.94815E-04-9.49563E-15
 -1      1666 4.26468E-03 5.56562E-04-9.89085E-15
 -1      1667 3.69103E-03 6.21085E-04-8.62412E-15
 -1      1668 3.87516E-03 6.20685E-04-9.02484E-15
 -1      1669 3.28946E-03 5.57434E-04-7.78774E-15
 -1      1670 3.47490E-03 5.99493E-04-8.15540E-15
 -1      1671 2.89079E-03 4.28604E-04-7.12196E-15
 -1      1672 3.06637E-03 4.92392E-04-7.41329E-15
 -1      1673 2.51387E-03 2.77026E-04-6.59420E-15
 -1      1674 2.68288E-03 3.49439E-04-6.82668E-15
 -1      1675 2.15927E-03 1.07367E-04-6.13328E-15
 -1      1676 2.32455E-03 1.82727E-04-6.32200E-15
 -1      1677 1.86668E-03-2.18136E-05-5.87094E-15
 -1      1678 1.98561E-03 3.70118E-05-5.98311E-15
 -1      1679 1.67761E-03-1.41547E-04-5.69580E-15
 -1      1680 1.75255E-03-9.22512E-05-5.74780E-15
 -1      1681 1.62375E-03-2.40047E-04-5.72591E-15
 -1      1682 1.62978E-03-1.93861E-04-5.70496E-15
 -1      1683 1.71520E-03-3.41214E-04-5.86330E-15
 -1      1684 1.65629E-03-2.93135E-04-5.77578E-15
 -1      1685 1.92469E-03-4.69742E-04-6.15998E-15
 -1      1686 1.81455E-03-4.08540E-04-6.01291E-15
 -1      1687 2.25270E-03-6.26598E-04-6.57317E-15
 -1      1688 2.09040E-03-5.44034E-04-6.35099E-15
 -1      1689 2.63809E-03-8.29235E-04-7.16010E-15
 -1      1690 2.45419E-03-7.35903E-04-6.88029E-15
 -1      1691 3.06274E-03-1.03908E-03-7.89272E-15
 -1      1692 2.85927E-03-9.44343E-04-7.53972E-15
 -1      1693 3.49963E-03-1.20682E-03-8.72832E-15
 -1      1694 3.29902E-03-1.13683E-03-8.33109E-15
 -1      1695 3.89986E-03-1.29081E-03-9.57771E-15
 -1      1696 3.72390E-03-1.26438E-03-9.18967E-15
 -1      1697 4.29921E-03-1.27800E-03-1.04831E-14
 -1      1698 4.11283E-03-1.29650E-03-1.00601E-14
 -1      1699 4.70513E-03-1.17500E-03-1.13647E-14
 -1      1700 4.52014E-03-1.23132E-03-1.09632E-14
 -1      1701 5.10586E-03-1.00282E-03-1.22652E-14
 -1      1702 4.91399E-03-1.08866E-03-1.18778E-14
 -1      1703 5.52288E-03-8.20827E-04-1.29425E-14
 -1      1704 5.34294E-03-9.08012E-04-1.26291E-14
 -1      1705 5.86717E-03-6.36544E-04-1.35534E-14
 -1      1706 5.71354E-03-7.14664E-04-1.33191E-14
 -1      1707 6.10599E-03-5.02004E-04-1.38478E-14
 -1      1708 6.01429E-03-5.60429E-04-1.37348E-14
 -1      1709 6.19570E-03-3.94190E-04-1.38860E-14
 -1      1710 6.17298E-03-4.42569E-04-1.38851E-14
 -1      1711 5.50522E-03-5.14477E-05-1.29523E-14
 -1      1712 6.19917E-03-3.74152E-04-1.42608E-14
 -1      1713 1.46595E-02-1.41677E-03-1.22025E-13
 -1      1714 1.45494E-02-1.41397E-03-1.20541E-13
 -1      1715 6.09536E-03-3.02793E-04-1.40708E-14
 -1      1716 5.85709E-03-2.00701E-04-1.35993E-14
 -1      1717 5.10698E-03 1.41773E-04-1.21412E-14
 -1      1718 4.71385E-03 3.58253E-04-1.11596E-14
 -1      1719 4.32826E-03 5.32578E-04-1.01913E-14
 -1      1720 3.95948E-03 6.32996E-04-9.23746E-15
 -1      1721 3.59877E-03 6.34345E-04-8.30474E-15
 -1      1722 3.23303E-03 5.31157E-04-7.47837E-15
 -1      1723 2.84830E-03 3.68872E-04-6.82703E-15
 -1      1724 2.46840E-03 1.85774E-04-6.27653E-15
 -1      1725 2.10958E-03 2.27318E-05-5.87358E-15
 -1      1726 1.81734E-03-1.01154E-04-5.61093E-15
 -1      1727 1.64687E-03-1.82978E-04-5.50262E-15
 -1      1728 1.63124E-03-2.50126E-04-5.55942E-15
 -1      1729 1.76984E-03-3.28956E-04-5.74902E-15
 -1      1730 2.04048E-03-4.47851E-04-6.07544E-15
 -1      1731 2.40828E-03-6.21684E-04-6.55191E-15
 -1      1732 2.81985E-03-8.51334E-04-7.21902E-15
 -1      1733 3.24471E-03-1.08119E-03-8.02212E-15
 -1      1734 3.64938E-03-1.25266E-03-8.91325E-15
 -1      1735 4.01355E-03-1.32198E-03-9.85551E-15
 -1      1736 4.37536E-03-1.27384E-03-1.08250E-14
 -1      1737 4.75829E-03-1.12639E-03-1.18287E-14
 -1      1738 5.16167E-03-9.23510E-04-1.27251E-14
 -1      1739 5.57753E-03-7.16750E-04-1.34809E-14
 -1      1740 5.92146E-03-5.51996E-04-1.40553E-14
 -1      1741 6.14260E-03-4.48044E-04-1.42821E-14
 -1      1742 3.15927E-04-1.53670E-04-7.94449E-17
 -1      1743 3.43061E-04-6.74257E-05-1.95170E-16
 -1      1744 3.55752E-04-8.44862E-05-1.87472E-16
 -1      1745 3.70042E-04-1.05861E-04-1.77362E-16
 -1      1746 3.86826E-04-1.31884E-04-1.61871E-16
 -1      1747 4.90919E-04-1.29807E-04-2.72568E-16
 -1      1748 3.03132E-04-2.84044E-05-2.06513E-16
 -1      1749 3.11331E-04-3.45035E-05-2.05687E-16
 -1      1750 2.90463E-04-2.07787E-05-2.05443E-16
 -1      1751 2.96061E-04-2.38831E-05-2.06419E-16
 -1      1752 4.00774E-04-3.88213E-05-3.03414E-16
 -1      1753 2.83921E-04-1.70674E-05-2.01106E-16
 -1      1754 2.86392E-04-1.86289E-05-2.03694E-16
 -1      1755 3.84934E-04-2.89676E-05-3.00514E-16
 -1      1756 2.83696E-04-1.40407E-05-1.95007E-16
 -1      1757 2.83055E-04-1.56594E-05-1.98395E-16
 -1      1758 3.78114E-04-2.30140E-05-2.93968E-16
 -1      1759 2.89079E-04-8.78093E-06-1.86266E-16
 -1      1760 2.85783E-04-1.18407E-05-1.91023E-16
 -1      1761 3.80241E-04-1.69063E-05-2.84156E-16
 -1      1762 2.98687E-04 8.70514E-07-1.75221E-16
 -1      1763 2.93480E-04-4.59110E-06-1.81224E-16
 -1      1764 3.89935E-04-7.13948E-06-2.70996E-16
 -1      1765 3.10733E-04 1.58377E-05-1.61126E-16
 -1      1766 3.04491E-04 7.65051E-06-1.68797E-16
 -1      1767 4.04847E-04 8.54085E-06-2.54245E-16
 -1      1768 3.24457E-04 3.71996E-05-1.42871E-16
 -1      1769 3.17463E-04 2.57581E-05-1.52900E-16
 -1      1770 4.22864E-04 3.14358E-05-2.33225E-16
 -1      1771 3.39325E-04 6.53092E-05-1.19303E-16
 -1      1772 3.31719E-04 5.04214E-05-1.32286E-16
 -1      1773 4.42750E-04 6.24036E-05-2.06486E-16
 -1      1774 3.56453E-04 1.01842E-04-8.74680E-17
 -1      1775 3.47463E-04 8.24594E-05-1.05086E-16
 -1      1776 4.64371E-04 1.02087E-04-1.71724E-16
 -1      1777 3.80397E-04 1.51519E-04-4.39373E-17
 -1      1778 3.67090E-04 1.24765E-04-6.78982E-17
 -1      1779 4.90119E-04 1.52883E-04-1.25402E-16
 -1      1780 4.42628E-04 2.12062E-04-9.58164E-18
 -1      1781 4.09745E-04 1.78314E-04-3.06152E-17
 -1      1782 5.36987E-04 2.11586E-04-8.20063E-17
 -1      1783 6.08084E-04 2.74645E-04-4.36120E-17
 -1      1784 3.78395E-04-1.56921E-04-1.25795E-16
 -1      1785 9.34725E-04 3.73466E-04-1.93002E-16
 -1      1786 7.72069E-04 3.27399E-04-1.04937E-16
 -1      1787 7.33307E-04 2.94051E-04-1.29400E-16
 -1      1788 5.09845E-04-1.89338E-04-2.12517E-16
 -1      1789 9.05736E-04-3.08476E-04-5.45245E-16
 -1      1790 1.07357E-03-3.46815E-04-7.50973E-16
 -1      1791 1.24088E-03-3.83111E-04-9.91679E-16
 -1      1792 1.40903E-03-4.18616E-04-1.26773E-15
 -1      1793 1.11666E-03-3.23986E-04-8.99996E-16
 -1      1794 1.57819E-03-4.55706E-04-1.57858E-15
 -1      1795 1.74872E-03-4.95534E-04-1.92470E-15
 -1      1796 1.44614E-03-3.93936E-04-1.45427E-15
 -1      1797 1.92130E-03-5.40174E-04-2.30534E-15
 -1      1798 2.09537E-03-5.90959E-04-2.72066E-15
 -1      1799 1.78078E-03-4.71748E-04-2.14539E-15
 -1      1800 2.27206E-03-6.49478E-04-3.17097E-15
 -1      1801 2.44975E-03-7.16965E-04-3.65625E-15
 -1      1802 2.12399E-03-5.70535E-04-2.97345E-15
 -1      1803 2.62994E-03-7.93949E-04-4.17685E-15
 -1      1804 2.80980E-03-8.80476E-04-4.73325E-15
 -1      1805 2.47817E-03-7.02419E-04-3.93827E-15
 -1      1806 2.99072E-03-9.75032E-04-5.32534E-15
 -1      1807 3.16942E-03-1.07520E-03-5.95392E-15
 -1      1808 2.84257E-03-8.73861E-04-5.04295E-15
 -1      1809 3.34648E-03-1.17652E-03-6.61957E-15
 -1      1810 3.51961E-03-1.27287E-03-7.32181E-15
 -1      1811 3.21070E-03-1.07651E-03-6.29053E-15
 -1      1812 3.68789E-03-1.35801E-03-8.06251E-15
 -1      1813 3.85339E-03-1.42405E-03-8.84000E-15
 -1      1814 3.57049E-03-1.27622E-03-7.68653E-15
 -1      1815 4.00586E-03-1.46460E-03-9.61395E-15
 -1      1816 4.15974E-03-1.48017E-03-1.04224E-14
 -1      1817 3.90523E-03-1.41290E-03-9.19250E-15
 -1      1818 4.32031E-03-1.46965E-03-1.13103E-14
 -1      1819 4.48606E-03-1.43482E-03-1.22354E-14
 -1      1820 4.23128E-03-1.44511E-03-1.08451E-14
 -1      1821 4.65474E-03-1.38064E-03-1.31961E-14
 -1      1822 4.82860E-03-1.31505E-03-1.41920E-14
 -1      1823 4.57452E-03-1.36877E-03-1.26895E-14
 -1      1824 5.00657E-03-1.24450E-03-1.52225E-14
 -1      1825 5.18662E-03-1.17543E-03-1.62865E-14
 -1      1826 4.93506E-03-1.23034E-03-1.46760E-14
 -1      1827 5.36919E-03-1.11253E-03-1.73820E-14
 -1      1828 5.55086E-03-1.05858E-03-1.85092E-14
 -1      1829 5.30507E-03-1.08954E-03-1.67971E-14
 -1      1830 5.73294E-03-1.01551E-03-1.96673E-14
 -1      1831 5.91253E-03-9.83384E-04-2.08549E-14
 -1      1832 5.67203E-03-9.83140E-04-1.90440E-14
 -1      1833 6.09099E-03-9.62112E-04-2.20704E-14
 -1      1834 6.26655E-03-9.50636E-04-2.33128E-14
 -1      1835 6.02853E-03-9.22065E-04-2.14089E-14
 -1      1836 6.44017E-03-9.47882E-04-2.45829E-14
 -1      1837 6.61103E-03-9.52645E-04-2.58767E-14
 -1      1838 6.37287E-03-9.02127E-04-2.38857E-14
 -1      1839 6.77962E-03-9.63635E-04-2.71959E-14
 -1      1840 6.94576E-03-9.79850E-04-2.85384E-14
 -1      1841 6.70616E-03-9.13909E-04-2.64641E-14
 -1      1842 7.10964E-03-1.00017E-03-2.99038E-14
 -1      1843 7.27140E-03-1.02385E-03-3.12906E-14
 -1      1844 7.03017E-03-9.47889E-04-2.91390E-14
 -1      1845 7.43108E-03-1.05005E-03-3.26980E-14
 -1      1846 7.58898E-03-1.07825E-03-3.41259E-14
 -1      1847 7.34651E-03-9.96303E-04-3.19011E-14
 -1      1848 7.74505E-03-1.10790E-03-3.55742E-14
 -1      1849 7.89964E-03-1.13861E-03-3.70426E-14
 -1      1850 7.65650E-03-1.05346E-03-3.47473E-14
 -1      1851 8.05270E-03-1.17005E-03-3.85289E-14
 -1      1852 8.20455E-03-1.20196E-03-4.00343E-14
 -1      1853 7.96126E-03-1.11544E-03-3.76720E-14
 -1      1854 8.35515E-03-1.23415E-03-4.15611E-14
 -1      1855 8.50478E-03-1.26644E-03-4.31063E-14
 -1      1856 8.26171E-03-1.17969E-03-4.06753E-14
 -1      1857 8.65342E-03-1.29874E-03-4.46692E-14
 -1      1858 8.80128E-03-1.33093E-03-4.62506E-14
 -1      1859 8.55866E-03-1.24460E-03-4.37560E-14
 -1      1860 8.94837E-03-1.36296E-03-4.78509E-14
 -1      1861 9.09486E-03-1.39478E-03-4.94698E-14
 -1      1862 8.85280E-03-1.30923E-03-4.69116E-14
 -1      1863 9.24076E-03-1.42636E-03-5.11058E-14
 -1      1864 9.38619E-03-1.45768E-03-5.27557E-14
 -1      1865 9.14473E-03-1.37306E-03-5.01413E-14
 -1      1866 9.53118E-03-1.48874E-03-5.44203E-14
 -1      1867 9.67582E-03-1.51951E-03-5.61012E-14
 -1      1868 9.43493E-03-1.43585E-03-5.34361E-14
 -1      1869 9.82013E-03-1.55003E-03-5.77965E-14
 -1      1870 9.96419E-03-1.58028E-03-5.95021E-14
 -1      1871 9.72381E-03-1.49752E-03-5.67884E-14
 -1      1872 1.01080E-02-1.61029E-03-6.12213E-14
 -1      1873 1.02516E-02-1.64006E-03-6.29536E-14
 -1      1874 1.00117E-02-1.55810E-03-6.01957E-14
 -1      1875 1.03951E-02-1.66961E-03-6.46999E-14
 -1      1876 1.05384E-02-1.69894E-03-6.64583E-14
 -1      1877 1.02989E-02-1.61769E-03-6.36524E-14
 -1      1878 1.06816E-02-1.72809E-03-6.82293E-14
 -1      1879 1.08247E-02-1.75706E-03-7.00096E-14
 -1      1880 1.05855E-02-1.67641E-03-6.71614E-14
 -1      1881 1.09677E-02-1.78587E-03-7.17995E-14
 -1      1882 1.11107E-02-1.81453E-03-7.35987E-14
 -1      1883 1.08717E-02-1.73437E-03-7.07144E-14
 -1      1884 1.12536E-02-1.84306E-03-7.54054E-14
 -1      1885 1.13965E-02-1.87146E-03-7.72193E-14
 -1      1886 1.11577E-02-1.79171E-03-7.43051E-14
 -1      1887 1.15393E-02-1.89976E-03-7.90405E-14
 -1      1888 1.16821E-02-1.92797E-03-8.08674E-14
 -1      1889 1.14435E-02-1.84854E-03-7.79270E-14
 -1      1890 1.18249E-02-1.95609E-03-8.26984E-14
 -1      1891 1.19677E-02-1.98413E-03-8.45368E-14
 -1      1892 1.17292E-02-1.90495E-03-8.15744E-14
 -1      1893 1.21105E-02-2.01210E-03-8.63802E-14
 -1      1894 1.22532E-02-2.04002E-03-8.82275E-14
 -1      1895 1.20148E-02-1.96103E-03-8.52457E-14
 -1      1896 1.23960E-02-2.06788E-03-9.00818E-14
 -1      1897 1.25388E-02-2.09570E-03-9.19418E-14
 -1      1898 1.23004E-02-2.01687E-03-8.89408E-14
 -1      1899 1.26815E-02-2.12349E-03-9.38067E-14
 -1      1900 1.28243E-02-2.15123E-03-9.56777E-14
 -1      1901 1.25860E-02-2.07251E-03-9.26568E-14
 -1      1902 1.29671E-02-2.17896E-03-9.75533E-14
 -1      1903 1.31099E-02-2.20665E-03-9.94334E-14
 -1      1904 1.28716E-02-2.12800E-03-9.63937E-14
 -1      1905 1.32527E-02-2.23433E-03-1.01321E-13
 -1      1906 1.33954E-02-2.26199E-03-1.03209E-13
 -1      1907 1.31572E-02-2.18339E-03-1.00151E-13
 -1      1908 1.35382E-02-2.28963E-03-1.05103E-13
 -1      1909 1.36811E-02-2.31727E-03-1.07005E-13
 -1      1910 1.34428E-02-2.23871E-03-1.03925E-13
 -1      1911 1.38239E-02-2.34489E-03-1.08910E-13
 -1      1912 1.39667E-02-2.37251E-03-1.10823E-13
 -1      1913 1.37285E-02-2.29398E-03-1.07719E-13
 -1      1914 1.41095E-02-2.40013E-03-1.12741E-13
 -1      1915 1.42523E-02-2.42774E-03-1.14661E-13
 -1      1916 1.40141E-02-2.34921E-03-1.11537E-13
 -1      1917 1.43952E-02-2.45535E-03-1.16588E-13
 -1      1918 1.45380E-02-2.48296E-03-1.18520E-13
 -1      1919 1.42998E-02-2.40444E-03-1.15378E-13
 -1      1920 1.46808E-02-2.51057E-03-1.20456E-13
 -1      1921 1.48237E-02-2.53819E-03-1.22399E-13
 -1      1922 1.45855E-02-2.45966E-03-1.19239E-13
 -1      1923 1.49665E-02-2.56581E-03-1.24345E-13
 -1      1924 1.51094E-02-2.59343E-03-1.26297E-13
 -1      1925 1.48712E-02-2.51488E-03-1.23122E-13
 -1      1926 1.52811E-02-2.62863E-03-1.28640E-13
 -1      1927 1.50063E-03 4.98173E-04-7.70014E-16
 -1      1928 1.34247E-03 4.62552E-04-5.77080E-16
 -1      1929 1.81567E-03 5.70131E-04-1.24598E-15
 -1      1930 1.65845E-03 5.33929E-04-9.92845E-16
 -1      1931 1.54997E-03 4.74418E-04-9.63571E-16
 -1      1932 2.12875E-03 6.46154E-04-1.84537E-15
 -1      1933 1.97266E-03 6.07538E-04-1.52996E-15
 -1      1934 1.86618E-03 5.46652E-04-1.48460E-15
 -1      1935 2.43840E-03 7.26739E-04-2.57264E-15
 -1      1936 2.28428E-03 6.86033E-04-2.19276E-15
 -1      1937 2.18154E-03 6.23919E-04-2.12868E-15
 -1      1938 2.74232E-03 8.07384E-04-3.43002E-15
 -1      1939 2.59133E-03 7.67523E-04-2.98484E-15
 -1      1940 2.49460E-03 7.05899E-04-2.90009E-15
 -1      1941 3.03848E-03 8.78300E-04-4.42307E-15
 -1      1942 2.89147E-03 8.44805E-04-3.90927E-15
 -1      1943 2.80296E-03 7.86910E-04-3.80272E-15
 -1      1944 3.32643E-03 9.26073E-04-5.55334E-15
 -1      1945 3.18332E-03 9.05924E-04-4.97085E-15
 -1      1946 3.10437E-03 8.55728E-04-4.84027E-15
 -1      1947 3.60835E-03 9.37721E-04-6.82383E-15
 -1      1948 3.46769E-03 9.37031E-04-6.17101E-15
 -1      1949 3.39827E-03 8.97742E-04-6.01622E-15
 -1      1950 3.88887E-03 9.05988E-04-8.23518E-15
 -1      1951 3.74819E-03 9.27391E-04-7.51165E-15
 -1      1952 3.68708E-03 8.99891E-04-7.33272E-15
 -1      1953 4.17345E-03 8.32786E-04-9.78566E-15
 -1      1954 4.03015E-03 8.74111E-04-8.99319E-15
 -1      1955 3.97576E-03 8.56466E-04-8.79049E-15
 -1      1956 4.46602E-03 7.28577E-04-1.14741E-14
 -1      1957 4.31849E-03 7.83727E-04-1.06132E-14
 -1      1958 4.26946E-03 7.72143E-04-1.03886E-14
 -1      1959 4.76783E-03 6.08050E-04-1.32964E-14
 -1      1960 4.61582E-03 6.69462E-04-1.23690E-14
 -1      1961 4.57108E-03 6.59908E-04-1.21224E-14
 -1      1962 5.07753E-03 4.85157E-04-1.52501E-14
 -1      1963 4.92194E-03 5.46202E-04-1.42574E-14
 -1      1964 4.88043E-03 5.35619E-04-1.39889E-14
 -1      1965 5.39237E-03 3.69813E-04-1.73262E-14
 -1      1966 5.23462E-03 4.26133E-04-1.62729E-14
 -1      1967 5.19510E-03 4.12847E-04-1.59816E-14
 -1      1968 5.70933E-03 2.67091E-04-1.95237E-14
 -1      1969 5.55087E-03 3.16722E-04-1.84104E-14
 -1      1970 5.51201E-03 3.00208E-04-1.80982E-14
 -1      1971 6.02586E-03 1.78154E-04-2.18357E-14
 -1      1972 5.86786E-03 2.20921E-04-2.06651E-14
 -1      1973 5.82854E-03 2.01376E-04-2.03328E-14
 -1      1974 6.34018E-03 1.01723E-04-2.42612E-14
 -1      1975 6.18343E-03 1.38489E-04-2.30345E-14
 -1      1976 6.14288E-03 1.16464E-04-2.26808E-14
 -1      1977 6.65121E-03 3.53886E-05-2.67952E-14
 -1      1978 6.49617E-03 6.74389E-05-2.55147E-14
 -1      1979 6.45402E-03 4.35908E-05-2.51388E-14
 -1      1980 6.95850E-03-2.35002E-05-2.94316E-14
 -1      1981 6.80534E-03 5.15471E-06-2.81019E-14
 -1      1982 6.76155E-03-1.98962E-05-2.77043E-14
 -1      1983 7.26201E-03-7.73433E-05-3.21656E-14
 -1      1984 7.11071E-03-5.09316E-05-3.07870E-14
 -1      1985 7.06546E-03-7.66680E-05-3.03693E-14
 -1      1986 7.56199E-03-1.28090E-04-3.49892E-14
 -1      1987 7.41241E-03-1.03008E-04-3.35656E-14
 -1      1988 7.36597E-03-1.29036E-04-3.31296E-14
 -1      1989 7.85885E-03-1.77203E-04-3.78987E-14
 -1      1990 7.71077E-03-1.52780E-04-3.64334E-14
 -1      1991 7.66344E-03-1.78823E-04-3.59794E-14
 -1      1992 8.15304E-03-2.25713E-04-4.08950E-14
 -1      1993 8.00624E-03-2.01484E-04-3.93857E-14
 -1      1994 7.95830E-03-2.27364E-04-3.89140E-14
 -1      1995 8.44504E-03-2.74296E-04-4.39748E-14
 -1      1996 8.29928E-03-2.49964E-04-4.24249E-14
 -1      1997 8.25096E-03-2.75578E-04-4.19357E-14
 -1      1998 8.73529E-03-3.23361E-04-4.71331E-14
 -1      1999 8.59035E-03-2.98749E-04-4.55444E-14
 -1      2000 8.54184E-03-3.24054E-04-4.50389E-14
 -1      2001 9.02417E-03-3.73123E-04-5.03667E-14
 -1      2002 8.87987E-03-3.48145E-04-4.87409E-14
 -1      2003 8.83129E-03-3.73131E-04-4.82185E-14
 -1      2004 9.31201E-03-4.23664E-04-5.36705E-14
 -1      2005 9.16820E-03-3.98292E-04-5.20105E-14
 -1      2006 9.11964E-03-4.22977E-04-5.14712E-14
 -1      2007 9.59908E-03-4.74982E-04-5.70323E-14
 -1      2008 9.45562E-03-4.49226E-04-5.53442E-14
 -1      2009 9.40714E-03-4.73639E-04-5.47906E-14
 -1      2010 9.88560E-03-5.27024E-04-6.04492E-14
 -1      2011 9.74239E-03-5.00915E-04-5.87343E-14
 -1      2012 9.69402E-03-5.25092E-04-5.81672E-14
 -1      2013 1.01717E-02-5.79710E-04-6.39136E-14
 -1      2014 1.00287E-02-5.53290E-04-6.21757E-14
 -1      2015 9.98044E-03-5.77268E-04-6.15960E-14
 -1      2016 1.04576E-02-6.32947E-04-6.74171E-14
 -1      2017 1.03147E-02-6.06264E-04-6.56605E-14
 -1      2018 1.02665E-02-6.30079E-04-6.50715E-14
 -1      2019 1.07433E-02-6.86646E-04-7.09600E-14
 -1      2020 1.06004E-02-6.59743E-04-6.91849E-14
 -1      2021 1.05524E-02-6.83427E-04-6.85854E-14
 -1      2022 1.10289E-02-7.40720E-04-7.45417E-14
 -1      2023 1.08861E-02-7.13640E-04-7.27442E-14
 -1      2024 1.08382E-02-7.37221E-04-7.21377E-14
 -1      2025 1.13144E-02-7.95094E-04-7.81560E-14
 -1      2026 1.11717E-02-7.67874E-04-7.63453E-14
 -1      2027 1.11238E-02-7.91375E-04-7.57245E-14
 -1      2028 1.15999E-02-8.49703E-04-8.18010E-14
 -1      2029 1.14572E-02-8.22372E-04-7.99759E-14
 -1      2030 1.14094E-02-8.45814E-04-7.93461E-14
 -1      2031 1.18855E-02-9.04490E-04-8.54698E-14
 -1      2032 1.17427E-02-8.77077E-04-8.36327E-14
 -1      2033 1.16950E-02-9.00474E-04-8.29961E-14
 -1      2034 1.21710E-02-9.59412E-04-8.91593E-14
 -1      2035 1.20282E-02-9.31936E-04-8.73108E-14
 -1      2036 1.19806E-02-9.55302E-04-8.66686E-14
 -1      2037 1.24566E-02-1.01443E-03-9.28721E-14
 -1      2038 1.23138E-02-9.86911E-04-9.10141E-14
 -1      2039 1.22661E-02-1.01025E-03-9.03643E-14
 -1      2040 1.27421E-02-1.06952E-03-9.66108E-14
 -1      2041 1.25994E-02-1.04197E-03-9.47372E-14
 -1      2042 1.25517E-02-1.06530E-03-9.40845E-14
 -1      2043 1.30278E-02-1.12465E-03-1.00367E-13
 -1      2044 1.28849E-02-1.09708E-03-9.84874E-14
 -1      2045 1.28374E-02-1.12040E-03-9.78273E-14
 -1      2046 1.33134E-02-1.17981E-03-1.04143E-13
 -1      2047 1.31706E-02-1.15223E-03-1.02254E-13
 -1      2048 1.31230E-02-1.17555E-03-1.01590E-13
 -1      2049 1.35990E-02-1.23499E-03-1.07924E-13
 -1      2050 1.34562E-02-1.20740E-03-1.06032E-13
 -1      2051 1.34086E-02-1.23072E-03-1.05365E-13
 -1      2052 1.38847E-02-1.29016E-03-1.11715E-13
 -1      2053 1.37419E-02-1.26258E-03-1.09820E-13
 -1      2054 1.36943E-02-1.28589E-03-1.09148E-13
 -1      2055 1.41704E-02-1.34533E-03-1.15510E-13
 -1      2056 1.40276E-02-1.31775E-03-1.13613E-13
 -1      2057 1.39800E-02-1.34107E-03-1.12939E-13
 -1      2058 1.44313E-02-1.39344E-03-1.18975E-13
 -1      2059 1.42885E-02-1.36587E-03-1.17079E-13
 -1      2060 1.42409E-02-1.38919E-03-1.16406E-13
 -1      2061 1.44770E-02-1.43026E-03-1.19544E-13
 -1      2062 1.46203E-02-1.65876E-03-1.21213E-13
 -1      2063 1.45933E-02-1.61660E-03-1.20897E-13
 -1      2064 1.45662E-02-1.57444E-03-1.20580E-13
 -1      2065 1.45391E-02-1.53228E-03-1.20262E-13
 -1      2066 1.44560E-02-1.57163E-03-1.19093E-13
 -1      2067 1.45041E-02-1.47240E-03-1.19857E-13
 -1      2068 1.46736E-02-1.74166E-03-1.21829E-13
 -1      2069 1.46470E-02-1.70021E-03-1.21521E-13
 -1      2070 1.45097E-02-1.65524E-03-1.19718E-13
 -1      2071 1.47278E-02-1.82600E-03-1.22457E-13
 -1      2072 1.47007E-02-1.78383E-03-1.22143E-13
 -1      2073 1.45634E-02-1.73886E-03-1.20337E-13
 -1      2074 1.47820E-02-1.91035E-03-1.23081E-13
 -1      2075 1.47549E-02-1.86818E-03-1.22770E-13
 -1      2076 1.46176E-02-1.82320E-03-1.20959E-13
 -1      2077 1.48363E-02-1.99471E-03-1.23699E-13
 -1      2078 1.48091E-02-1.95253E-03-1.23389E-13
 -1      2079 1.46719E-02-1.90755E-03-1.21575E-13
 -1      2080 1.48906E-02-2.07907E-03-1.24315E-13
 -1      2081 1.48634E-02-2.03689E-03-1.24008E-13
 -1      2082 1.47261E-02-1.99190E-03-1.22188E-13
 -1      2083 1.49449E-02-2.16342E-03-1.24921E-13
 -1      2084 1.49177E-02-2.12125E-03-1.24620E-13
 -1      2085 1.47804E-02-2.07625E-03-1.22796E-13
 -1      2086 1.49983E-02-2.24634E-03-1.25511E-13
 -1      2087 1.49716E-02-2.20488E-03-1.25218E-13
 -1      2088 1.48343E-02-2.15988E-03-1.23392E-13
 -1      2089 1.50527E-02-2.33068E-03-1.26103E-13
 -1      2090 1.50255E-02-2.28851E-03-1.25807E-13
 -1      2091 1.48882E-02-2.24351E-03-1.23976E-13
 -1      2092 1.51071E-02-2.41500E-03-1.26682E-13
 -1      2093 1.50799E-02-2.37284E-03-1.26393E-13
 -1      2094 1.49426E-02-2.32784E-03-1.24556E-13
 -1      2095 1.51615E-02-2.49932E-03-1.27255E-13
 -1      2096 1.51343E-02-2.45716E-03-1.26972E-13
 -1      2097 1.49970E-02-2.41216E-03-1.25133E-13
 -1      2098 1.21912E-03 4.39112E-04-4.32285E-16
 -1      2099 1.05940E-03 4.00791E-04-2.93060E-16
 -1      2100 1.02000E-03 3.67716E-04-3.22076E-16
 -1      2101 1.26816E-03 4.16495E-04-5.85605E-16
 -1      2102 5.75545E-03-2.05954E-04-1.37924E-14
 -1      2103 5.90248E-03-2.65218E-04-1.41374E-14
 -1      2104 4.94878E-03 1.78973E-04-1.20910E-14
 -1      2105 5.13873E-03 6.74375E-05-1.25945E-14
 -1      2106 6.19529E-03-3.71792E-04-1.46941E-14
 -1      2107 6.20784E-03-3.90450E-04-1.47558E-14
 -1      2108 5.38865E-03-5.75400E-05-1.31524E-14
 -1      2109 5.58122E-03-1.36022E-04-1.34691E-14
 -1      2110 5.65477E-03-1.98226E-04-1.39961E-14
 -1      2111 3.20855E-04-4.28628E-05-2.03830E-16
 -1      2112 3.31425E-04-5.36406E-05-2.00320E-16
 -1      2113 4.54645E-04-8.55475E-05-2.92152E-16
 -1      2114 4.24502E-04-5.64948E-05-3.01300E-16
 -1      2115 4.56255E-03 3.99274E-04-1.10699E-14
 -1      2116 4.73958E-03 2.95436E-04-1.15587E-14
 -1      2117 4.20414E-03 5.75875E-04-1.00284E-14
 -1      2118 4.36532E-03 4.99853E-04-1.05154E-14
 -1      2119 3.87504E-03 6.63311E-04-9.00546E-15
 -1      2120 4.02360E-03 6.35056E-04-9.47398E-15
 -1      2121 3.54485E-03 6.36682E-04-8.01437E-15
 -1      2122 3.69854E-03 6.65389E-04-8.47293E-15
 -1      2123 3.16948E-03 4.90747E-04-7.09884E-15
 -1      2124 3.33377E-03 5.67105E-04-7.45443E-15
 -1      2125 2.83289E-03 3.22773E-04-6.53790E-15
 -1      2126 3.00533E-03 4.12587E-04-6.81632E-15
 -1      2127 3.11111E-03 4.55797E-04-6.79432E-15
 -1      2128 2.43045E-03 1.17279E-04-5.95680E-15
 -1      2129 2.60961E-03 2.10014E-04-6.21146E-15
 -1      2130 2.04058E-03-4.88372E-05-5.56699E-15
 -1      2131 2.20578E-03 1.52304E-05-5.70229E-15
 -1      2132 1.77846E-03-1.44662E-04-5.33143E-15
 -1      2133 1.89826E-03-1.02858E-04-5.44688E-15
 -1      2134 1.97356E-03-9.21028E-05-5.27948E-15
 -1      2135 1.61767E-03-2.03296E-04-5.22546E-15
 -1      2136 1.66494E-03-1.86553E-04-5.21420E-15
 -1      2137 1.63954E-03-2.37530E-04-5.30558E-15
 -1      2138 1.60998E-03-2.22135E-04-5.26289E-15
 -1      2139 1.60354E-03-2.06281E-04-4.97217E-15
 -1      2140 1.83493E-03-3.12371E-04-5.58892E-15
 -1      2141 1.73086E-03-2.75903E-04-5.45096E-15
 -1      2142 2.13514E-03-4.29196E-04-5.93901E-15
 -1      2143 1.97299E-03-3.67657E-04-5.76531E-15
 -1      2144 2.55491E-03-6.33871E-04-6.50622E-15
 -1      2145 2.36094E-03-5.30789E-04-6.21798E-15
 -1      2146 2.98017E-03-8.87844E-04-7.25850E-15
 -1      2147 2.78133E-03-7.66233E-04-6.89530E-15
 -1      2148 3.39414E-03-1.12867E-03-8.11498E-15
 -1      2149 3.20636E-03-1.01739E-03-7.68930E-15
 -1      2150 3.75578E-03-1.29437E-03-9.07792E-15
 -1      2151 3.59382E-03-1.22821E-03-8.62236E-15
 -1      2152 4.09486E-03-1.34116E-03-1.01355E-14
 -1      2153 3.94407E-03-1.33607E-03-9.65051E-15
 -1      2154 4.43950E-03-1.25878E-03-1.12406E-14
 -1      2155 4.28240E-03-1.31399E-03-1.07504E-14
 -1      2156 4.78377E-03-1.08757E-03-1.22808E-14
 -1      2157 4.61157E-03-1.18322E-03-1.17548E-14
 -1      2158 4.51069E-03-1.23074E-03-1.16756E-14
 -1      2159 5.24307E-03-8.39556E-04-1.32719E-14
 -1      2160 5.04307E-03-9.46756E-04-1.28911E-14
 -1      2161 5.62482E-03-6.40284E-04-1.41000E-14
 -1      2162 5.43714E-03-7.35443E-04-1.37072E-14
 -1      2163 5.98432E-03-4.92544E-04-1.46198E-14
 -1      2164 5.83709E-03-5.48354E-04-1.44272E-14
 -1      2165 6.17804E-03-4.17156E-04-1.48287E-14
 -1      2166 6.10831E-03-4.43415E-04-1.47879E-14
 -1      2167 6.05320E-03-3.21143E-04-1.44805E-14
 -1      2168 6.14113E-03-3.46591E-04-1.46149E-14
 -1      2169 1.51858E-02-2.57770E-03-1.27414E-13
 -1      2170 5.24448E-03-1.29268E-05-1.30963E-14
 -1      2171 5.34820E-03-8.09470E-05-1.36081E-14
 -1      2172 5.11708E-03 3.80061E-05-1.30375E-14
 -1      2173 6.76927E-04-2.40121E-04-3.36618E-16
 -1      2174 3.78636E-03 6.76359E-04-8.69668E-15
 -1      2175 4.80749E-03 2.30176E-04-1.19946E-14
 -1      2176 7.30016E-04-2.25763E-04-4.37218E-16
 -1      2177 1.43939E-02-1.46960E-03-1.18376E-13
 -1      2178 6.17695E-03-3.71968E-04-1.51075E-14
 -1      2179 1.51564E-02-2.54341E-03-1.27080E-13
 -1      2180 5.98068E-03-3.13656E-04-1.46747E-14
 -1      2181 6.20224E-03-4.04027E-04-1.52628E-14
 -1      2182 6.05384E-03-4.55873E-04-1.51644E-14
 -1      2183 5.72583E-03-5.80706E-04-1.46577E-14
 -1      2184 4.89609E-03-1.01645E-03-1.28128E-14
 -1      2185 4.78320E-03-1.08436E-03-1.27301E-14
 -1      2186 5.00785E-03-9.47059E-04-1.33562E-14
 -1      2187 4.19548E-03-1.34039E-03-1.05329E-14
 -1      2188 3.85768E-03-1.32634E-03-9.34322E-15
 -1      2189 3.51319E-03-1.17911E-03-8.27057E-15
 -1      2190 3.12729E-03-9.45010E-04-7.34597E-15
 -1      2191 2.69640E-03-6.81693E-04-6.54121E-15
 -1      2192 2.25844E-03-4.53991E-04-5.89347E-15
 -1      2193 1.67249E-03-2.37092E-04-5.14595E-15
 -1      2194 1.71128E-03-1.74047E-04-5.04920E-15
 -1      2195 2.75442E-03 2.65209E-04-6.20013E-15
 -1      2196 3.44387E-03 6.11159E-04-7.61221E-15
 -1      2197 4.43394E-03 4.49506E-04-1.08970E-14
 -1      2198 4.09960E-03 6.12781E-04-9.78232E-15
 -1      2199 2.32572E-03 5.20154E-05-5.63798E-15
 -1      2200 1.90635E-03-3.11320E-04-5.45585E-15
 -1      2201 5.33066E-03-7.70514E-04-1.38781E-14
 -1      2202 1.50191E-02-2.49841E-03-1.25247E-13
 -1      2203 4.78622E-04-3.66266E-05-4.23083E-16
 -1      2204 4.86124E-04-4.18278E-05-4.26430E-16
 -1      2205 4.96696E-04-4.85064E-05-4.28544E-16
 -1      2206 5.09949E-04-5.72169E-05-4.29073E-16
 -1      2207 5.90565E-04-5.73412E-05-5.76999E-16
 -1      2208 4.78820E-04-1.82110E-05-3.98390E-16
 -1      2209 4.74516E-04-2.36231E-05-4.06440E-16
 -1      2210 4.94183E-04-2.91515E-06-3.79308E-16
 -1      2211 4.85571E-04-1.14106E-05-3.89513E-16
 -1      2212 5.80131E-04-1.75050E-05-5.33238E-16
 -1      2213 5.15353E-04 1.97474E-05-3.55591E-16
 -1      2214 5.04266E-04 7.40232E-06-3.68222E-16
 -1      2215 6.02249E-04 4.12391E-06-5.07176E-16
 -1      2216 5.40222E-04 5.16378E-05-3.25694E-16
 -1      2217 5.27559E-04 3.45871E-05-3.41619E-16
 -1      2218 6.30883E-04 3.51264E-05-4.74691E-16
 -1      2219 5.66939E-04 9.28397E-05-2.87666E-16
 -1      2220 5.53431E-04 7.10920E-05-3.07859E-16
 -1      2221 6.62947E-04 7.65529E-05-4.34142E-16
 -1      2222 5.96140E-04 1.44158E-04-2.39012E-16
 -1      2223 5.81152E-04 1.17188E-04-2.65223E-16
 -1      2224 6.96808E-04 1.28226E-04-3.83198E-16
 -1      2225 6.31694E-04 2.07947E-04-1.75221E-16
 -1      2226 6.12889E-04 1.74337E-04-2.09644E-16
 -1      2227 7.34018E-04 1.90735E-04-3.18606E-16
 -1      2228 6.96920E-04 2.64271E-04-1.46340E-16
 -1      2229 6.63558E-04 2.34234E-04-1.64040E-16
 -1      2230 7.87627E-04 2.52953E-04-2.69153E-16
 -1      2231 8.57515E-04 3.10045E-04-2.39731E-16
 -1      2232 9.97316E-04-2.68443E-04-8.08530E-16
 -1      2233 1.15708E-03-3.02172E-04-1.05292E-15
 -1      2234 3.71738E-03 6.82404E-04-8.39696E-15
 -1      2235 3.85606E-03 6.79297E-04-8.92458E-15
 -1      2236 1.31745E-03-3.35607E-04-1.33084E-15
 -1      2237 1.47913E-03-3.69925E-04-1.64277E-15
 -1      2238 1.19345E-03-2.81275E-04-1.20974E-15
 -1      2239 1.64249E-03-4.06834E-04-1.98822E-15
 -1      2240 1.80792E-03-4.47873E-04-2.36736E-15
 -1      2241 1.50749E-03-3.46458E-04-1.83405E-15
 -1      2242 1.97650E-03-4.94512E-04-2.77958E-15
 -1      2243 2.14802E-03-5.48784E-04-3.22565E-15
 -1      2244 1.83029E-03-4.23535E-04-2.58997E-15
 -1      2245 2.32422E-03-6.11562E-04-3.70472E-15
 -1      2246 2.50379E-03-6.85109E-04-4.21824E-15
 -1      2247 2.16805E-03-5.25219E-04-3.47662E-15
 -1      2248 2.68883E-03-7.69301E-04-4.76625E-15
 -1      2249 2.87603E-03-8.64391E-04-5.34943E-15
 -1      2250 2.52736E-03-6.65630E-04-4.49590E-15
 -1      2251 3.06703E-03-9.67769E-04-5.96832E-15
 -1      2252 3.25684E-03-1.07628E-03-6.62313E-15
 -1      2253 2.91002E-03-8.53665E-04-5.65199E-15
 -1      2254 3.44517E-03-1.18479E-03-7.31602E-15
 -1      2255 3.62906E-03-1.28125E-03-8.04665E-15
 -1      2256 3.30449E-03-1.07960E-03-6.95135E-15
 -1      2257 3.79736E-03-1.35630E-03-8.77664E-15
 -1      2258 3.96425E-03-1.40401E-03-9.54097E-15
 -1      2259 3.67920E-03-1.28640E-03-8.36448E-15
 -1      2260 4.13425E-03-1.42158E-03-1.03842E-14
 -1      2261 4.30955E-03-1.40563E-03-1.12669E-14
 -1      2262 4.03428E-03-1.39437E-03-9.92606E-15
 -1      2263 4.48662E-03-1.35882E-03-1.21851E-14
 -1      2264 4.67043E-03-1.29323E-03-1.31409E-14
 -1      2265 4.39780E-03-1.35294E-03-1.16841E-14
 -1      2266 4.85870E-03-1.21527E-03-1.41330E-14
 -1      2267 5.04896E-03-1.13707E-03-1.51586E-14
 -1      2268 4.78117E-03-1.20393E-03-1.35921E-14
 -1      2269 5.24062E-03-1.06390E-03-1.62156E-14
 -1      2270 5.42869E-03-1.00009E-03-1.73054E-14
 -1      2271 5.17607E-03-1.03787E-03-1.56382E-14
 -1      2272 5.61465E-03-9.48463E-04-1.84251E-14
 -1      2273 5.79506E-03-9.08581E-04-1.95750E-14
 -1      2274 5.55994E-03-9.11707E-04-1.78114E-14
 -1      2275 5.97196E-03-8.81117E-04-2.07539E-14
 -1      2276 6.14386E-03-8.63980E-04-2.19604E-14
 -1      2277 5.92037E-03-8.38661E-04-2.01031E-14
 -1      2278 6.31245E-03-8.56766E-04-2.31932E-14
 -1      2279 6.47734E-03-8.57509E-04-2.44535E-14
 -1      2280 6.25821E-03-8.11200E-04-2.25073E-14
 -1      2281 6.63958E-03-8.65333E-04-2.57377E-14
 -1      2282 6.79930E-03-8.78821E-04-2.70464E-14
 -1      2283 6.57943E-03-8.17570E-04-2.50167E-14
 -1      2284 6.95700E-03-8.97018E-04-2.83789E-14
 -1      2285 7.11296E-03-9.18989E-04-2.97332E-14
 -1      2286 6.88986E-03-8.47454E-04-2.76243E-14
 -1      2287 7.26736E-03-9.43908E-04-3.11091E-14
 -1      2288 7.42052E-03-9.71177E-04-3.25064E-14
 -1      2289 7.19353E-03-8.92915E-04-3.03220E-14
 -1      2290 7.57244E-03-1.00017E-03-3.39256E-14
 -1      2291 7.72343E-03-1.03050E-03-3.53641E-14
 -1      2292 7.49285E-03-9.48153E-04-3.31078E-14
 -1      2293 7.87340E-03-1.06173E-03-3.68217E-14
 -1      2294 8.02264E-03-1.09363E-03-3.82976E-14
 -1      2295 7.78918E-03-1.00908E-03-3.59753E-14
 -1      2296 8.17106E-03-1.12590E-03-3.97947E-14
 -1      2297 8.31888E-03-1.15840E-03-4.13121E-14
 -1      2298 8.08329E-03-1.07294E-03-3.89193E-14
 -1      2299 8.46603E-03-1.19095E-03-4.28476E-14
 -1      2300 8.61270E-03-1.22346E-03-4.44022E-14
 -1      2301 8.37564E-03-1.13792E-03-4.19434E-14
 -1      2302 8.75883E-03-1.25584E-03-4.59767E-14
 -1      2303 8.90456E-03-1.28803E-03-4.75690E-14
 -1      2304 8.66655E-03-1.20290E-03-4.50443E-14
 -1      2305 9.04987E-03-1.31998E-03-4.91794E-14
 -1      2306 9.19486E-03-1.35168E-03-5.08094E-14
 -1      2307 8.95628E-03-1.26722E-03-4.82221E-14
 -1      2308 9.33952E-03-1.38310E-03-5.24512E-14
 -1      2309 9.48394E-03-1.41423E-03-5.41094E-14
 -1      2310 9.24505E-03-1.33057E-03-5.14702E-14
 -1      2311 9.62809E-03-1.44508E-03-5.57837E-14
 -1      2312 9.77205E-03-1.47565E-03-5.74718E-14
 -1      2313 9.53304E-03-1.39279E-03-5.47815E-14
 -1      2314 9.91582E-03-1.50595E-03-5.91713E-14
 -1      2315 1.00594E-02-1.53600E-03-6.08830E-14
 -1      2316 9.82041E-03-1.45390E-03-5.81480E-14
 -1      2317 1.02029E-02-1.56580E-03-6.26099E-14
 -1      2318 1.03463E-02-1.59537E-03-6.43483E-14
 -1      2319 1.01073E-02-1.51396E-03-6.15694E-14
 -1      2320 1.04895E-02-1.62473E-03-6.60978E-14
 -1      2321 1.06327E-02-1.65389E-03-6.78599E-14
 -1      2322 1.03938E-02-1.57308E-03-6.50374E-14
 -1      2323 1.07758E-02-1.68287E-03-6.96340E-14
 -1      2324 1.09189E-02-1.71169E-03-7.14160E-14
 -1      2325 1.06801E-02-1.63138E-03-6.85549E-14
 -1      2326 1.10619E-02-1.74036E-03-7.32071E-14
 -1      2327 1.12048E-02-1.76889E-03-7.50082E-14
 -1      2328 1.09661E-02-1.68900E-03-7.21131E-14
 -1      2329 1.13478E-02-1.79730E-03-7.68156E-14
 -1      2330 1.14906E-02-1.82559E-03-7.86308E-14
 -1      2331 1.12520E-02-1.74605E-03-7.57062E-14
 -1      2332 1.16335E-02-1.85380E-03-8.04526E-14
 -1      2333 1.17764E-02-1.88191E-03-8.22795E-14
 -1      2334 1.15378E-02-1.80264E-03-7.93314E-14
 -1      2335 1.19192E-02-1.90995E-03-8.41147E-14
 -1      2336 1.20621E-02-1.93792E-03-8.59550E-14
 -1      2337 1.18236E-02-1.85886E-03-8.29849E-14
 -1      2338 1.22049E-02-1.96584E-03-8.77995E-14
 -1      2339 1.23477E-02-1.99370E-03-8.96515E-14
 -1      2340 1.21093E-02-1.91480E-03-8.66611E-14
 -1      2341 1.24905E-02-2.02152E-03-9.15093E-14
 -1      2342 1.26333E-02-2.04929E-03-9.33710E-14
 -1      2343 1.23950E-02-1.97052E-03-9.03619E-14
 -1      2344 1.27761E-02-2.07704E-03-9.52368E-14
 -1      2345 1.29190E-02-2.10476E-03-9.71075E-14
 -1      2346 1.26807E-02-2.02607E-03-9.40832E-14
 -1      2347 1.30618E-02-2.13245E-03-9.89842E-14
 -1      2348 1.32046E-02-2.16012E-03-1.00865E-13
 -1      2349 1.29663E-02-2.08150E-03-9.78205E-14
 -1      2350 1.33474E-02-2.18778E-03-1.02748E-13
 -1      2351 1.34902E-02-2.21542E-03-1.04636E-13
 -1      2352 1.32520E-02-2.13685E-03-1.01576E-13
 -1      2353 1.36331E-02-2.24306E-03-1.06531E-13
 -1      2354 1.37759E-02-2.27068E-03-1.08431E-13
 -1      2355 1.35377E-02-2.19213E-03-1.05347E-13
 -1      2356 1.39187E-02-2.29830E-03-1.10337E-13
 -1      2357 1.40616E-02-2.32591E-03-1.12251E-13
 -1      2358 1.38233E-02-2.24738E-03-1.09142E-13
 -1      2359 1.42044E-02-2.35352E-03-1.14168E-13
 -1      2360 1.43473E-02-2.38113E-03-1.16092E-13
 -1      2361 1.41090E-02-2.30260E-03-1.12961E-13
 -1      2362 1.44901E-02-2.40874E-03-1.18021E-13
 -1      2363 1.46329E-02-2.43635E-03-1.19958E-13
 -1      2364 1.43947E-02-2.35781E-03-1.16806E-13
 -1      2365 1.47546E-02-2.45357E-03-1.21625E-13
 -1      2366 1.48974E-02-2.48118E-03-1.23569E-13
 -1      2367 1.49025E-02-2.43709E-03-1.23744E-13
 -1      2368 1.46592E-02-2.40264E-03-1.20402E-13
 -1      2369 2.23713E-03 6.00424E-04-2.41917E-15
 -1      2370 2.07794E-03 5.60414E-04-2.05931E-15
 -1      2371 1.91850E-03 5.22023E-04-1.73073E-15
 -1      2372 1.75955E-03 4.85288E-04-1.43321E-15
 -1      2373 1.97266E-03 4.96347E-04-1.98511E-15
 -1      2374 1.60069E-03 4.49773E-04-1.16575E-15
 -1      2375 1.44226E-03 4.15105E-04-9.28158E-16
 -1      2376 1.65248E-03 4.24295E-04-1.37642E-15
 -1      2377 2.55484E-03 6.83921E-04-3.23449E-15
 -1      2378 2.39641E-03 6.41825E-04-2.81063E-15
 -1      2379 2.29556E-03 5.75919E-04-2.71660E-15
 -1      2380 2.86866E-03 7.65653E-04-4.18188E-15
 -1      2381 2.71253E-03 7.25720E-04-3.69155E-15
 -1      2382 2.61884E-03 6.61305E-04-3.57582E-15
 -1      2383 3.17560E-03 8.32709E-04-5.26349E-15
 -1      2384 3.02306E-03 8.02071E-04-4.70548E-15
 -1      2385 2.93849E-03 7.44279E-04-4.56644E-15
 -1      2386 3.47492E-03 8.68858E-04-6.48457E-15
 -1      2387 3.32593E-03 8.55707E-04-5.85649E-15
 -1      2388 3.25065E-03 8.09696E-04-5.69216E-15
 -1      2389 3.76953E-03 8.60711E-04-7.84811E-15
 -1      2390 3.62217E-03 8.70868E-04-7.14926E-15
 -1      2391 3.55459E-03 8.39193E-04-6.95964E-15
 -1      2392 4.06528E-03 8.04419E-04-9.35333E-15
 -1      2393 3.91660E-03 8.38286E-04-8.58291E-15
 -1      2394 3.85448E-03 8.19165E-04-8.37005E-15
 -1      2395 4.36737E-03 7.08254E-04-1.09977E-14
 -1      2396 4.21517E-03 7.60393E-04-1.01579E-14
 -1      2397 4.15732E-03 7.48675E-04-9.92197E-15
 -1      2398 4.67755E-03 5.88056E-04-1.27760E-14
 -1      2399 4.52148E-03 6.49989E-04-1.18701E-14
 -1      2400 4.46808E-03 6.40278E-04-1.16124E-14
 -1      2401 4.99401E-03 4.60834E-04-1.46860E-14
 -1      2402 4.83530E-03 5.24380E-04-1.37153E-14
 -1      2403 4.78687E-03 5.12911E-04-1.34366E-14
 -1      2404 5.31316E-03 3.39336E-04-1.67196E-14
 -1      2405 5.15361E-03 3.98825E-04-1.56876E-14
 -1      2406 5.11001E-03 3.84182E-04-1.53885E-14
 -1      2407 5.63174E-03 2.30448E-04-1.88753E-14
 -1      2408 5.47283E-03 2.83116E-04-1.77824E-14
 -1      2409 5.43292E-03 2.65329E-04-1.74642E-14
 -1      2410 5.94756E-03 1.36235E-04-2.11464E-14
 -1      2411 5.79019E-03 1.81529E-04-1.99964E-14
 -1      2412 5.75239E-03 1.61174E-04-1.96577E-14
 -1      2413 6.25961E-03 5.57495E-05-2.35288E-14
 -1      2414 6.10416E-03 9.44125E-05-2.23235E-14
 -1      2415 6.06692E-03 7.21341E-05-2.19644E-14
 -1      2416 6.56761E-03-1.34261E-05-2.60199E-14
 -1      2417 6.41415E-03 1.99185E-05-2.47614E-14
 -1      2418 6.37629E-03-3.72218E-06-2.43812E-14
 -1      2419 6.87175E-03-7.40963E-05-2.86148E-14
 -1      2420 6.72016E-03-4.46605E-05-2.73054E-14
 -1      2421 6.68098E-03-6.92148E-05-2.69051E-14
 -1      2422 7.17241E-03-1.28875E-04-3.13094E-14
 -1      2423 7.02249E-03-1.02083E-04-2.99497E-14
 -1      2424 6.98170E-03-1.27197E-04-2.95301E-14
 -1      2425 7.47003E-03-1.79931E-04-3.40968E-14
 -1      2426 7.32156E-03-1.54760E-04-3.26923E-14
 -1      2427 7.27915E-03-1.80159E-04-3.22533E-14
 -1      2428 7.76508E-03-2.28925E-04-3.69710E-14
 -1      2429 7.61784E-03-2.04606E-04-3.55225E-14
 -1      2430 7.57397E-03-2.30085E-04-3.50664E-14
 -1      2431 8.05799E-03-2.77046E-04-3.99328E-14
 -1      2432 7.91177E-03-2.53039E-04-3.84419E-14
 -1      2433 7.86669E-03-2.78452E-04-3.79676E-14
 -1      2434 8.34915E-03-3.25094E-04-4.29782E-14
 -1      2435 8.20376E-03-3.01042E-04-4.14444E-14
 -1      2436 8.15772E-03-3.26297E-04-4.09532E-14
 -1      2437 8.63891E-03-3.73566E-04-4.61041E-14
 -1      2438 8.49418E-03-3.49255E-04-4.45312E-14
 -1      2439 8.44743E-03-3.74297E-04-4.40221E-14
 -1      2440 8.92756E-03-4.22738E-04-4.93052E-14
 -1      2441 8.78335E-03-3.98053E-04-4.76958E-14
 -1      2442 8.73609E-03-4.22860E-04-4.71717E-14
 -1      2443 9.21535E-03-4.72728E-04-5.25762E-14
 -1      2444 9.07154E-03-4.47626E-04-5.09317E-14
 -1      2445 9.02395E-03-4.72197E-04-5.03929E-14
 -1      2446 9.50248E-03-5.23556E-04-5.59102E-14
 -1      2447 9.35898E-03-4.98037E-04-5.42359E-14
 -1      2448 9.31118E-03-5.22386E-04-5.36812E-14
 -1      2449 9.78913E-03-5.75175E-04-5.93022E-14
 -1      2450 9.64586E-03-5.49269E-04-5.75995E-14
 -1      2451 9.59794E-03-5.73417E-04-5.70314E-14
 -1      2452 1.00754E-02-6.27506E-04-6.27438E-14
 -1      2453 9.93232E-03-6.01255E-04-6.10168E-14
 -1      2454 9.88436E-03-6.25229E-04-6.04362E-14
 -1      2455 1.03615E-02-6.80454E-04-6.62272E-14
 -1      2456 1.02185E-02-6.53907E-04-6.44804E-14
 -1      2457 1.01705E-02-6.77734E-04-6.38891E-14
 -1      2458 1.06473E-02-7.33921E-04-6.97515E-14
 -1      2459 1.05044E-02-7.07127E-04-6.79846E-14
 -1      2460 1.04565E-02-7.30831E-04-6.73839E-14
 -1      2461 1.09331E-02-7.87814E-04-7.33119E-14
 -1      2462 1.07902E-02-7.60818E-04-7.15270E-14
 -1      2463 1.07423E-02-7.84423E-04-7.09158E-14
 -1      2464 1.12188E-02-8.42048E-04-7.69082E-14
 -1      2465 1.10760E-02-8.14892E-04-7.51062E-14
 -1      2466 1.10281E-02-8.38419E-04-7.44867E-14
 -1      2467 1.15044E-02-8.96551E-04-8.05347E-14
 -1      2468 1.13616E-02-8.69269E-04-7.87176E-14
 -1      2469 1.13138E-02-8.92735E-04-7.80885E-14
 -1      2470 1.17901E-02-9.51261E-04-8.41886E-14
 -1      2471 1.16472E-02-9.23883E-04-8.23582E-14
 -1      2472 1.15995E-02-9.47302E-04-8.17222E-14
 -1      2473 1.20757E-02-1.00613E-03-8.78692E-14
 -1      2474 1.19329E-02-9.78677E-04-8.60272E-14
 -1      2475 1.18852E-02-1.00206E-03-8.53839E-14
 -1      2476 1.23613E-02-1.06111E-03-9.15721E-14
 -1      2477 1.22185E-02-1.03361E-03-8.97158E-14
 -1      2478 1.21708E-02-1.05696E-03-8.90704E-14
 -1      2479 1.26469E-02-1.11617E-03-9.52989E-14
 -1      2480 1.25041E-02-1.08863E-03-9.34324E-14
 -1      2481 1.24565E-02-1.11197E-03-9.27786E-14
 -1      2482 1.29326E-02-1.17129E-03-9.90449E-14
 -1      2483 1.27898E-02-1.14373E-03-9.71702E-14
 -1      2484 1.27421E-02-1.16706E-03-9.65129E-14
 -1      2485 1.32182E-02-1.22645E-03-1.02814E-13
 -1      2486 1.30754E-02-1.19887E-03-1.00928E-13
 -1      2487 1.30278E-02-1.22219E-03-1.00265E-13
 -1      2488 1.35039E-02-1.28162E-03-1.06587E-13
 -1      2489 1.33611E-02-1.25403E-03-1.04699E-13
 -1      2490 1.33135E-02-1.27735E-03-1.04033E-13
 -1      2491 1.37896E-02-1.33680E-03-1.10373E-13
 -1      2492 1.36467E-02-1.30921E-03-1.08478E-13
 -1      2493 1.35992E-02-1.33253E-03-1.07810E-13
 -1      2494 1.40753E-02-1.39198E-03-1.14163E-13
 -1      2495 1.39324E-02-1.36439E-03-1.12268E-13
 -1      2496 1.38849E-02-1.38771E-03-1.11596E-13
 -1      2497 1.42759E-02-1.44906E-03-1.16807E-13
 -1      2498 1.44533E-02-1.73605E-03-1.18843E-13
 -1      2499 1.44262E-02-1.69388E-03-1.18532E-13
 -1      2500 1.43995E-02-1.65243E-03-1.18226E-13
 -1      2501 1.43729E-02-1.61099E-03-1.17920E-13
 -1      2502 1.42894E-02-1.64962E-03-1.16736E-13
 -1      2503 1.43458E-02-1.56883E-03-1.17606E-13
 -1      2504 1.43187E-02-1.52667E-03-1.17290E-13
 -1      2505 1.42356E-02-1.56602E-03-1.16116E-13
 -1      2506 6.16330E-03-3.81080E-04-1.56779E-14
 -1      2507 6.21084E-03-3.89969E-04-1.57627E-14
 -1      2508 1.45075E-02-1.82039E-03-1.19461E-13
 -1      2509 1.44803E-02-1.77822E-03-1.19152E-13
 -1      2510 1.43431E-02-1.73324E-03-1.17350E-13
 -1      2511 1.45617E-02-1.90474E-03-1.20070E-13
 -1      2512 1.45346E-02-1.86256E-03-1.19767E-13
 -1      2513 1.43973E-02-1.81758E-03-1.17961E-13
 -1      2514 1.46160E-02-1.98908E-03-1.20677E-13
 -1      2515 1.45888E-02-1.94691E-03-1.20373E-13
 -1      2516 1.44515E-02-1.90192E-03-1.18566E-13
 -1      2517 1.46703E-02-2.07343E-03-1.21275E-13
 -1      2518 1.46431E-02-2.03126E-03-1.20976E-13
 -1      2519 1.45058E-02-1.98627E-03-1.19162E-13
 -1      2520 1.47237E-02-2.15635E-03-1.21855E-13
 -1      2521 1.46970E-02-2.11489E-03-1.21567E-13
 -1      2522 1.45597E-02-2.06990E-03-1.19746E-13
 -1      2523 1.47781E-02-2.24068E-03-1.22436E-13
 -1      2524 1.47509E-02-2.19851E-03-1.22147E-13
 -1      2525 1.46135E-02-2.15352E-03-1.20323E-13
 -1      2526 1.48324E-02-2.32501E-03-1.23014E-13
 -1      2527 1.48052E-02-2.28285E-03-1.22726E-13
 -1      2528 1.46679E-02-2.23785E-03-1.20900E-13
 -1      2529 1.48811E-02-2.40213E-03-1.23522E-13
 -1      2530 1.48539E-02-2.35997E-03-1.23234E-13
 -1      2531 1.47166E-02-2.31498E-03-1.21408E-13
 -1      2532 1.47594E-02-2.38491E-03-1.21848E-13
 -1      2533 6.33273E-04-1.70984E-04-3.94663E-16
 -1      2534 8.46623E-04-2.29257E-04-6.20177E-16
 -1      2535 8.91722E-04-2.13721E-04-7.41499E-16
 -1      2536 6.07998E-04-1.41239E-04-4.09666E-16
 -1      2537 5.57959E-03-1.90505E-04-1.42733E-14
 -1      2538 5.73826E-03-2.51777E-04-1.46103E-14
 -1      2539 6.22411E-03-4.01429E-04-1.58381E-14
 -1      2540 6.19971E-03-4.10809E-04-1.59118E-14
 -1      2541 6.23621E-03-4.03469E-04-1.64154E-14
 -1      2542 6.11683E-03-4.36619E-04-1.58251E-14
 -1      2543 6.00192E-03-4.69137E-04-1.56504E-14
 -1      2544 4.26126E-03-1.33638E-03-1.08727E-14
 -1      2545 4.10914E-03-1.36241E-03-1.02534E-14
 -1      2546 2.65629E-03 2.06274E-04-5.80948E-15
 -1      2547 2.84906E-03 3.13116E-04-6.11612E-15
 -1      2548 3.36371E-03 5.86305E-04-7.21358E-15
 -1      2549 3.53563E-03 6.51394E-04-7.75790E-15
 -1      2550 4.72860E-04-2.81328E-05-4.13000E-16
 -1      2551 4.74192E-04-3.22658E-05-4.18583E-16
 -1      2552 5.71681E-04-4.35253E-05-5.68203E-16
 -1      2553 5.68678E-04-3.20777E-05-5.53621E-16
 -1      2554 4.01481E-03 6.45054E-04-9.52572E-15
 -1      2555 4.15742E-03 5.86879E-04-1.00810E-14
 -1      2556 2.22508E-03-4.94506E-07-5.27441E-15
 -1      2557 2.42856E-03 9.18029E-05-5.51132E-15
 -1      2558 4.70424E-03 2.75618E-04-1.19705E-14
 -1      2559 4.88511E-03 1.64010E-04-1.25149E-14
 -1      2560 4.34312E-03 4.92893E-04-1.07878E-14
 -1      2561 4.50253E-03 3.95857E-04-1.13516E-14
 -1      2562 2.99319E-03 3.92183E-04-6.37519E-15
 -1      2563 3.12746E-03 4.69419E-04-6.64052E-15
 -1      2564 2.87447E-03 3.37130E-04-5.97145E-15
 -1      2565 1.97523E-03-3.14770E-04-5.31146E-15
 -1      2566 1.84502E-03-2.73013E-04-5.14783E-15
 -1      2567 1.90228E-03-1.19786E-04-4.96390E-15
 -1      2568 2.03237E-03-7.68888E-05-5.07410E-15
 -1      2569 1.65792E-03-1.81816E-04-4.72133E-15
 -1      2570 1.76753E-03-1.59384E-04-4.83228E-15
 -1      2571 1.59139E-03-2.02087E-04-4.73707E-15
 -1      2572 1.59709E-03-1.98088E-04-4.70222E-15
 -1      2573 5.40942E-03-7.23070E-04-1.44858E-14
 -1      2574 5.23417E-03-8.18099E-04-1.40353E-14
 -1      2575 1.71648E-03-2.34360E-04-4.96747E-15
 -1      2576 1.62955E-03-2.15496E-04-4.83283E-15
 -1      2577 2.36134E-03-4.76364E-04-5.78732E-15
 -1      2578 2.15540E-03-3.84655E-04-5.52711E-15
 -1      2579 2.82785E-03-7.33113E-04-6.51530E-15
 -1      2580 2.62293E-03-6.10429E-04-6.14434E-15
 -1      2581 3.21562E-03-9.83679E-04-7.32520E-15
 -1      2582 3.02492E-03-8.56999E-04-6.91191E-15
 -1      2583 2.91886E-03-7.84448E-04-6.49232E-15
 -1      2584 3.61180E-03-1.22964E-03-8.42824E-15
 -1      2585 3.44890E-03-1.13146E-03-7.93013E-15
 -1      2586 3.95136E-03-1.35503E-03-9.64718E-15
 -1      2587 3.80093E-03-1.31351E-03-9.07540E-15
 -1      2588 4.58269E-03-1.20134E-03-1.21402E-14
 -1      2589 4.44397E-03-1.27384E-03-1.16147E-14
 -1      2590 5.83007E-03-5.31579E-04-1.53282E-14
 -1      2591 5.63714E-03-6.12011E-04-1.49870E-14
 -1      2592 5.90527E-03-3.11351E-04-1.50374E-14
 -1      2593 6.04831E-03-3.51040E-04-1.53935E-14
 -1      2594 1.42283E-02-1.47239E-03-1.16133E-13
 -1      2595 5.00397E-03 9.32557E-05-1.30103E-14
 -1      2596 6.24097E-04-7.90828E-05-5.78706E-16
 -1      2597 5.25802E-04-6.85009E-05-4.27826E-16
 -1      2598 5.43699E-04-8.28119E-05-4.24614E-16
 -1      2599 5.45978E-03-1.44810E-04-1.42098E-14
 -1      2600 5.56597E-03-1.93103E-04-1.48211E-14
 -1      2601 5.34852E-03-9.33614E-05-1.41428E-14
 -1      2602 9.82206E-04 3.37616E-04-3.42025E-16
 -1      2603 9.45814E-04 3.08110E-04-3.59006E-16
 -1      2604 1.10655E-03 3.62691E-04-4.64310E-16
 -1      2605 3.61632E-03 6.75268E-04-7.96745E-15
 -1      2606 5.63421E-04-9.81400E-05-4.23638E-16
 -1      2607 5.84957E-04-1.19358E-04-4.15575E-16
 -1      2608 7.19668E-04-1.52070E-04-5.69572E-16
 -1      2609 6.68378E-04-1.10600E-04-5.76267E-16
 -1      2610 3.93089E-03 6.68452E-04-9.20455E-15
 -1      2611 5.93290E-03-5.01271E-04-1.59887E-14
 -1      2612 6.12039E-03-3.75498E-04-1.60477E-14
 -1      2613 5.84273E-03-2.97213E-04-1.53207E-14
 -1      2614 4.35221E-03-1.31939E-03-1.13168E-14
 -1      2615 4.24936E-03 5.43443E-04-1.05113E-14
 -1      2616 1.33627E-03 4.00951E-04-7.58901E-16
 -1      2617 1.21273E-03 3.78563E-04-5.97572E-16
 -1      2618 1.17571E-03 3.48718E-04-6.15122E-16
 -1      2619 1.38756E-03 3.76954E-04-9.32536E-16
 -1      2620 4.70085E-03-1.14386E-03-1.26662E-14
 -1      2621 4.03463E-03-1.36878E-03-9.96691E-15
 -1      2622 1.41181E-02-1.46958E-03-1.14647E-13
 -1      2623 3.32598E-03-1.05295E-03-7.46869E-15
 -1      2624 6.17866E-03-4.26768E-04-1.64052E-14
 -1      2625 5.11383E-03-8.95448E-04-1.39480E-14
 -1      2626 2.48728E-03-5.33324E-04-5.75965E-15
 -1      2627 1.76285E-03-2.40254E-04-4.82714E-15
 -1      2628 5.54785E-03-6.63091E-04-1.51488E-14
 -1      2629 1.59673E-03-2.00853E-04-4.56202E-15
 -1      2630 1.61238E-03-1.83504E-04-4.48907E-15
 -1      2631 1.80962E-03-1.38648E-04-4.63354E-15
 -1      2632 4.60284E-03 3.35099E-04-1.18510E-14
 -1      2633 3.24041E-03 5.37268E-04-6.77321E-15
 -1      2634 3.32588E-03 5.92528E-04-6.90202E-15
 -1      2635 3.11795E-03 4.85648E-04-6.34937E-15
 -1      2636 2.12323E-03-3.39713E-05-4.95301E-15
 -1      2637 2.52557E-03 1.48952E-04-5.43185E-15
 -1      2638 2.06406E-03-3.39439E-04-5.20910E-15
 -1      2639 3.71651E-03-1.28137E-03-8.71132E-15
 -1      2640 7.14995E-04 1.41399E-05-6.53137E-16
 -1      2641 6.98934E-04-1.55781E-06-6.71297E-16
 -1      2642 6.84694E-04-1.49004E-05-6.87411E-16
 -1      2643 6.73570E-04-2.58671E-05-7.02102E-16
 -1      2644 7.93420E-04-9.82360E-06-8.60450E-16
 -1      2645 7.91357E-04 1.05737E-04-5.57619E-16
 -1      2646 7.71483E-04 7.87242E-05-5.85754E-16
 -1      2647 8.32388E-04 1.67695E-04-4.92323E-16
 -1      2648 8.11732E-04 1.35440E-04-5.26990E-16
 -1      2649 9.25285E-04 1.39267E-04-6.96044E-16
 -1      2650 9.10750E-04 2.79690E-04-3.73074E-16
 -1      2651 8.77076E-04 2.52247E-04-3.84539E-16
 -1      2652 1.03389E-03 3.04170E-04-4.96673E-16
 -1      2653 4.84086E-03-1.07597E-03-1.33509E-14
 -1      2654 4.66626E-03-1.18805E-03-1.27419E-14
 -1      2655 1.37741E-03-2.91355E-04-1.68274E-15
 -1      2656 1.53092E-03-3.23294E-04-2.02763E-15
 -1      2657 1.68697E-03-3.58186E-04-2.40430E-15
 -1      2658 1.84653E-03-3.98135E-04-2.81300E-15
 -1      2659 1.54892E-03-2.99897E-04-2.22316E-15
 -1      2660 2.01098E-03-4.43858E-04-3.25366E-15
 -1      2661 2.18097E-03-4.98716E-04-3.72655E-15
 -1      2662 1.85629E-03-3.70901E-04-3.03621E-15
 -1      2663 2.35893E-03-5.62928E-04-4.23203E-15
 -1      2664 2.54382E-03-6.41374E-04-4.77029E-15
 -1      2665 2.18655E-03-4.68506E-04-3.97505E-15
 -1      2666 4.68749E-03-1.21208E-03-1.30213E-14
 -1      2667 4.89049E-03-1.11988E-03-1.40092E-14
 -1      2668 5.10988E-03-1.01892E-03-1.50706E-14
 -1      2669 5.30998E-03-9.41857E-04-1.61245E-14
 -1      2670 5.50567E-03-8.80828E-04-1.72102E-14
 -1      2671 5.69133E-03-8.33989E-04-1.83245E-14
 -1      2672 5.45562E-03-8.48250E-04-1.66133E-14
 -1      2673 5.87009E-03-8.02152E-04-1.94683E-14
 -1      2674 6.04090E-03-7.81588E-04-2.06396E-14
 -1      2675 5.82525E-03-7.63432E-04-1.88387E-14
 -1      2676 6.20599E-03-7.72072E-04-2.18381E-14
 -1      2677 6.36589E-03-7.70599E-04-2.30626E-14
 -1      2678 6.15930E-03-7.31786E-04-2.11739E-14
 -1      2679 6.52201E-03-7.76629E-04-2.43127E-14
 -1      2680 6.67516E-03-7.88270E-04-2.55889E-14
 -1      2681 6.46971E-03-7.35771E-04-2.36165E-14
 -1      2682 6.82608E-03-8.04861E-04-2.68891E-14
 -1      2683 6.97544E-03-8.25267E-04-2.82112E-14
 -1      2684 6.76685E-03-7.63125E-04-2.61593E-14
 -1      2685 7.12354E-03-8.48833E-04-2.95560E-14
 -1      2686 7.27084E-03-8.74888E-04-3.09228E-14
 -1      2687 7.05747E-03-8.05938E-04-2.87952E-14
 -1      2688 7.41742E-03-9.02870E-04-3.23112E-14
 -1      2689 7.56358E-03-9.32365E-04-3.37212E-14
 -1      2690 7.34529E-03-8.58802E-04-3.15206E-14
 -1      2691 7.70928E-03-9.62942E-04-3.51506E-14
 -1      2692 7.85475E-03-9.94342E-04-3.65984E-14
 -1      2693 7.63211E-03-9.17891E-04-3.43305E-14
 -1      2694 7.99988E-03-1.02626E-03-3.80680E-14
 -1      2695 8.14486E-03-1.05853E-03-3.95563E-14
 -1      2696 7.91869E-03-9.80489E-04-3.72208E-14
 -1      2697 8.28958E-03-1.09096E-03-4.10636E-14
 -1      2698 8.43416E-03-1.12344E-03-4.25914E-14
 -1      2699 8.20528E-03-1.04473E-03-4.01896E-14
 -1      2700 8.57853E-03-1.15586E-03-4.41388E-14
 -1      2701 8.72279E-03-1.18814E-03-4.57057E-14
 -1      2702 8.49189E-03-1.10937E-03-4.32375E-14
 -1      2703 8.86686E-03-1.22023E-03-4.72927E-14
 -1      2704 9.01082E-03-1.25210E-03-4.88969E-14
 -1      2705 8.77849E-03-1.17366E-03-4.63659E-14
 -1      2706 9.15464E-03-1.28370E-03-5.05177E-14
 -1      2707 9.29836E-03-1.31504E-03-5.21539E-14
 -1      2708 9.06502E-03-1.23714E-03-4.95683E-14
 -1      2709 9.44195E-03-1.34610E-03-5.38049E-14
 -1      2710 9.58546E-03-1.37687E-03-5.54735E-14
 -1      2711 9.35146E-03-1.29962E-03-5.28363E-14
 -1      2712 9.72888E-03-1.40738E-03-5.71555E-14
 -1      2713 9.87222E-03-1.43762E-03-5.88490E-14
 -1      2714 9.63777E-03-1.36102E-03-5.61629E-14
 -1      2715 1.00155E-02-1.46762E-03-6.05542E-14
 -1      2716 1.01587E-02-1.49737E-03-6.22749E-14
 -1      2717 9.92398E-03-1.42138E-03-5.95451E-14
 -1      2718 1.03018E-02-1.52690E-03-6.40082E-14
 -1      2719 1.04449E-02-1.55622E-03-6.57508E-14
 -1      2720 1.02101E-02-1.48078E-03-6.29779E-14
 -1      2721 1.05880E-02-1.58534E-03-6.75073E-14
 -1      2722 1.07310E-02-1.61429E-03-6.92747E-14
 -1      2723 1.04961E-02-1.53935E-03-6.64636E-14
 -1      2724 1.08740E-02-1.64308E-03-7.10509E-14
 -1      2725 1.10170E-02-1.67172E-03-7.28358E-14
 -1      2726 1.07820E-02-1.59719E-03-6.99905E-14
 -1      2727 1.11599E-02-1.70023E-03-7.46301E-14
 -1      2728 1.13028E-02-1.72862E-03-7.64333E-14
 -1      2729 1.10679E-02-1.65443E-03-7.35564E-14
 -1      2730 1.14457E-02-1.75691E-03-7.82448E-14
 -1      2731 1.15886E-02-1.78509E-03-8.00633E-14
 -1      2732 1.13537E-02-1.71118E-03-7.71598E-14
 -1      2733 1.17315E-02-1.81319E-03-8.18873E-14
 -1      2734 1.18744E-02-1.84122E-03-8.37188E-14
 -1      2735 1.16395E-02-1.76753E-03-8.07925E-14
 -1      2736 1.20173E-02-1.86918E-03-8.55568E-14
 -1      2737 1.21601E-02-1.89709E-03-8.74005E-14
 -1      2738 1.19252E-02-1.82356E-03-8.44522E-14
 -1      2739 1.23030E-02-1.92494E-03-8.92469E-14
 -1      2740 1.24458E-02-1.95275E-03-9.11033E-14
 -1      2741 1.22110E-02-1.87936E-03-8.81364E-14
 -1      2742 1.25887E-02-1.98052E-03-9.29626E-14
 -1      2743 1.27315E-02-2.00826E-03-9.48246E-14
 -1      2744 1.24967E-02-1.93497E-03-9.18414E-14
 -1      2745 1.28744E-02-2.03598E-03-9.66921E-14
 -1      2746 1.30172E-02-2.06367E-03-9.85644E-14
 -1      2747 1.27824E-02-1.99045E-03-9.55670E-14
 -1      2748 1.31601E-02-2.09134E-03-1.00440E-13
 -1      2749 1.33029E-02-2.11899E-03-1.02317E-13
 -1      2750 1.30681E-02-2.04582E-03-9.93057E-14
 -1      2751 1.34457E-02-2.14663E-03-1.04201E-13
 -1      2752 1.35886E-02-2.17426E-03-1.06090E-13
 -1      2753 1.33538E-02-2.10113E-03-1.03059E-13
 -1      2754 1.37314E-02-2.20188E-03-1.07987E-13
 -1      2755 1.38743E-02-2.22950E-03-1.09888E-13
 -1      2756 1.36395E-02-2.15639E-03-1.06834E-13
 -1      2757 1.40171E-02-2.25711E-03-1.11796E-13
 -1      2758 1.41600E-02-2.28472E-03-1.13709E-13
 -1      2759 1.39252E-02-2.21162E-03-1.10633E-13
 -1      2760 1.43028E-02-2.31232E-03-1.15630E-13
 -1      2761 1.44457E-02-2.33993E-03-1.17558E-13
 -1      2762 1.42109E-02-2.26683E-03-1.14458E-13
 -1      2763 1.45417E-02-2.35381E-03-1.18868E-13
 -1      2764 1.46634E-02-2.37103E-03-1.20534E-13
 -1      2765 1.46419E-02-2.33607E-03-1.20312E-13
 -1      2766 1.44498E-02-2.30831E-03-1.17689E-13
 -1      2767 2.02797E-03 4.68837E-04-2.24683E-15
 -1      2768 1.86581E-03 4.31946E-04-1.90588E-15
 -1      2769 2.35606E-03 5.49735E-04-3.02147E-15
 -1      2770 2.19170E-03 5.08123E-04-2.61874E-15
 -1      2771 2.08424E-03 4.39688E-04-2.51666E-15
 -1      2772 1.70482E-03 3.97265E-04-1.59547E-15
 -1      2773 1.54550E-03 3.64195E-04-1.31464E-15
 -1      2774 1.75741E-03 3.68539E-04-1.82290E-15
 -1      2775 3.01210E-03 7.23101E-04-4.95671E-15
 -1      2776 2.84993E-03 6.81875E-04-4.42364E-15
 -1      2777 3.32950E-03 7.87584E-04-6.12730E-15
 -1      2778 3.17198E-03 7.59521E-04-5.52463E-15
 -1      2779 3.08821E-03 7.03372E-04-5.35342E-15
 -1      2780 3.63755E-03 8.09954E-04-7.44153E-15
 -1      2781 3.48413E-03 8.05451E-04-6.76637E-15
 -1      2782 3.41032E-03 7.66968E-04-6.56898E-15
 -1      2783 3.94242E-03 7.75951E-04-8.89851E-15
 -1      2784 3.78937E-03 8.00116E-04-8.15194E-15
 -1      2785 3.72239E-03 7.79746E-04-7.92906E-15
 -1      2786 4.25257E-03 6.89110E-04-1.04977E-14
 -1      2787 4.09601E-03 7.38123E-04-9.68030E-15
 -1      2788 4.03315E-03 7.28767E-04-9.43309E-15
 -1      2789 4.57253E-03 5.67780E-04-1.22347E-14
 -1      2790 4.41128E-03 6.31222E-04-1.13495E-14
 -1      2791 4.35232E-03 6.23922E-04-1.10805E-14
 -1      2792 4.90010E-03 4.33990E-04-1.41041E-14
 -1      2793 4.73582E-03 5.00966E-04-1.31533E-14
 -1      2794 4.68276E-03 4.89778E-04-1.28644E-14
 -1      2795 5.22928E-03 3.05414E-04-1.60984E-14
 -1      2796 5.06502E-03 3.68320E-04-1.50852E-14
 -1      2797 5.01880E-03 3.51811E-04-1.47778E-14
 -1      2798 5.55488E-03 1.90776E-04-1.82149E-14
 -1      2799 5.39290E-03 2.46124E-04-1.71422E-14
 -1      2800 5.35271E-03 2.25620E-04-1.68153E-14
 -1      2801 5.87419E-03 9.24406E-05-2.04459E-14
 -1      2802 5.71553E-03 1.39636E-04-1.93162E-14
 -1      2803 5.67945E-03 1.16791E-04-1.89710E-14
 -1      2804 6.18659E-03 9.16434E-06-2.27882E-14
 -1      2805 6.03131E-03 4.91195E-05-2.16035E-14
 -1      2806 5.99720E-03 2.51430E-05-2.12396E-14
 -1      2807 6.49279E-03-6.18586E-05-2.52388E-14
 -1      2808 6.34045E-03-2.76611E-05-2.39997E-14
 -1      2809 6.30651E-03-5.21030E-05-2.36166E-14
 -1      2810 6.79394E-03-1.23699E-04-2.77940E-14
 -1      2811 6.64395E-03-9.37327E-05-2.65040E-14
 -1      2812 6.60897E-03-1.18357E-04-2.61003E-14
 -1      2813 7.09119E-03-1.79143E-04-3.04485E-14
 -1      2814 6.94299E-03-1.52064E-04-2.91090E-14
 -1      2815 6.90632E-03-1.76761E-04-2.86872E-14
 -1      2816 7.38550E-03-2.30481E-04-3.31991E-14
 -1      2817 7.23866E-03-2.05206E-04-3.18119E-14
 -1      2818 7.20004E-03-2.29928E-04-3.13705E-14
 -1      2819 7.67761E-03-2.79473E-04-3.60385E-14
 -1      2820 7.53178E-03-2.55184E-04-3.46090E-14
 -1      2821 7.49126E-03-2.79895E-04-3.41485E-14
 -1      2822 7.96809E-03-3.27392E-04-3.89653E-14
 -1      2823 7.82302E-03-3.03507E-04-3.74905E-14
 -1      2824 7.78077E-03-3.28171E-04-3.70149E-14
 -1      2825 8.25734E-03-3.75111E-04-4.19749E-14
 -1      2826 8.11284E-03-3.51238E-04-4.04597E-14
 -1      2827 8.06914E-03-3.75823E-04-3.99645E-14
 -1      2828 8.54567E-03-4.23186E-04-4.50696E-14
 -1      2829 8.40160E-03-3.99081E-04-4.35127E-14
 -1      2830 8.35672E-03-4.23560E-04-4.30014E-14
 -1      2831 8.83329E-03-4.71935E-04-4.82395E-14
 -1      2832 8.68955E-03-4.47464E-04-4.66441E-14
 -1      2833 8.64376E-03-4.71819E-04-4.61178E-14
 -1      2834 9.12039E-03-5.21511E-04-5.14829E-14
 -1      2835 8.97689E-03-4.96615E-04-4.98539E-14
 -1      2836 8.93041E-03-5.20838E-04-4.93100E-14
 -1      2837 9.40709E-03-5.71953E-04-5.47860E-14
 -1      2838 9.26378E-03-5.46624E-04-5.31261E-14
 -1      2839 9.21680E-03-5.70714E-04-5.25715E-14
 -1      2840 9.69349E-03-6.23227E-04-5.81522E-14
 -1      2841 9.55032E-03-5.97489E-04-5.64627E-14
 -1      2842 9.50300E-03-6.21453E-04-5.58939E-14
 -1      2843 9.97967E-03-6.75259E-04-6.15719E-14
 -1      2844 9.83660E-03-6.49153E-04-5.98565E-14
 -1      2845 9.78906E-03-6.73000E-04-5.92752E-14
 -1      2846 1.02657E-02-7.27954E-04-6.50349E-14
 -1      2847 1.01227E-02-7.01529E-04-6.32979E-14
 -1      2848 1.00750E-02-7.25273E-04-6.27059E-14
 -1      2849 1.05516E-02-7.81213E-04-6.85393E-14
 -1      2850 1.04086E-02-7.54518E-04-6.67820E-14
 -1      2851 1.03609E-02-7.78173E-04-6.61806E-14
 -1      2852 1.08374E-02-8.34937E-04-7.20814E-14
 -1      2853 1.06945E-02-8.08021E-04-7.03063E-14
 -1      2854 1.06467E-02-8.31600E-04-6.96950E-14
 -1      2855 1.11232E-02-8.89037E-04-7.56597E-14
 -1      2856 1.09803E-02-8.61944E-04-7.38664E-14
 -1      2857 1.09325E-02-8.85461E-04-7.32463E-14
 -1      2858 1.14089E-02-9.43437E-04-7.92684E-14
 -1      2859 1.12660E-02-9.16203E-04-7.74606E-14
 -1      2860 1.12183E-02-9.39669E-04-7.68313E-14
 -1      2861 1.16946E-02-9.98068E-04-8.29084E-14
 -1      2862 1.15517E-02-9.70726E-04-8.10849E-14
 -1      2863 1.15040E-02-9.94151E-04-8.04483E-14
 -1      2864 1.19803E-02-1.05287E-03-8.65786E-14
 -1      2865 1.18374E-02-1.02545E-03-8.47392E-14
 -1      2866 1.17897E-02-1.04885E-03-8.40965E-14
 -1      2867 1.22660E-02-1.10781E-03-9.02701E-14
 -1      2868 1.21231E-02-1.08033E-03-8.84223E-14
 -1      2869 1.20754E-02-1.10370E-03-8.77730E-14
 -1      2870 1.25517E-02-1.16285E-03-9.39882E-14
 -1      2871 1.24088E-02-1.13532E-03-9.21267E-14
 -1      2872 1.23611E-02-1.15867E-03-9.14730E-14
 -1      2873 1.28373E-02-1.21795E-03-9.77240E-14
 -1      2874 1.26945E-02-1.19039E-03-9.58532E-14
 -1      2875 1.26469E-02-1.21373E-03-9.51944E-14
 -1      2876 1.31230E-02-1.27309E-03-1.01485E-13
 -1      2877 1.29802E-02-1.24552E-03-9.96031E-14
 -1      2878 1.29326E-02-1.26885E-03-9.89392E-14
 -1      2879 1.34087E-02-1.32826E-03-1.05251E-13
 -1      2880 1.32659E-02-1.30067E-03-1.03366E-13
 -1      2881 1.32183E-02-1.32400E-03-1.02699E-13
 -1      2882 1.36944E-02-1.38344E-03-1.09032E-13
 -1      2883 1.35516E-02-1.35585E-03-1.07141E-13
 -1      2884 1.35040E-02-1.37918E-03-1.06472E-13
 -1      2885 1.39777E-02-1.44031E-03-1.12784E-13
 -1      2886 1.38349E-02-1.41272E-03-1.10890E-13
 -1      2887 1.37873E-02-1.43604E-03-1.10218E-13
 -1      2888 1.40681E-02-1.49459E-03-1.13939E-13
 -1      2889 4.95017E-03 1.26604E-04-1.31591E-14
 -1      2890 5.15317E-03 7.73999E-06-1.36997E-14
 -1      2891 1.41789E-02-1.64645E-03-1.15241E-13
 -1      2892 1.41523E-02-1.60501E-03-1.14936E-13
 -1      2893 1.42871E-02-1.81477E-03-1.16457E-13
 -1      2894 1.42600E-02-1.77260E-03-1.16156E-13
 -1      2895 1.41238E-02-1.57087E-03-1.14594E-13
 -1      2896 1.40967E-02-1.52872E-03-1.14283E-13
 -1      2897 1.39562E-02-1.49944E-03-1.12420E-13
 -1      2898 1.40134E-02-1.56770E-03-1.13104E-13
 -1      2899 1.42330E-02-1.73061E-03-1.15856E-13
 -1      2900 1.42059E-02-1.68844E-03-1.15547E-13
 -1      2901 1.40689E-02-1.64382E-03-1.13752E-13
 -1      2902 1.41228E-02-1.72779E-03-1.14358E-13
 -1      2903 6.08612E-03-3.72081E-04-1.65493E-14
 -1      2904 6.19076E-03-3.94303E-04-1.68459E-14
 -1      2905 1.43956E-02-1.98345E-03-1.17645E-13
 -1      2906 1.43685E-02-1.94128E-03-1.17352E-13
 -1      2907 1.44491E-02-2.06636E-03-1.18218E-13
 -1      2908 1.44223E-02-2.02491E-03-1.17934E-13
 -1      2909 1.42850E-02-1.97992E-03-1.16126E-13
 -1      2910 1.45034E-02-2.15070E-03-1.18795E-13
 -1      2911 1.44762E-02-2.10853E-03-1.18506E-13
 -1      2912 1.43389E-02-2.06354E-03-1.16698E-13
 -1      2913 1.45578E-02-2.23503E-03-1.19365E-13
 -1      2914 1.45306E-02-2.19286E-03-1.19078E-13
 -1      2915 1.43933E-02-2.14788E-03-1.17265E-13
 -1      2916 3.54093E-03 6.68293E-04-7.60405E-15
 -1      2917 3.70018E-03 6.93086E-04-8.23495E-15
 -1      2918 6.24874E-03-4.09019E-04-1.70016E-14
 -1      2919 6.26123E-03-4.14111E-04-1.70807E-14
 -1      2920 5.27187E-03-8.46371E-04-1.50969E-14
 -1      2921 5.07634E-03-9.56338E-04-1.43903E-14
 -1      2922 6.23698E-03-4.27165E-04-1.71382E-14
 -1      2923 6.16521E-03-4.44426E-04-1.70484E-14
 -1      2924 5.67298E-03-6.20657E-04-1.59153E-14
 -1      2925 5.47024E-03-7.18859E-04-1.53966E-14
 -1      2926 2.78002E-03 3.07759E-04-5.57882E-15
 -1      2927 2.90550E-03 3.78915E-04-5.82046E-15
 -1      2928 1.43414E-02-1.89911E-03-1.17057E-13
 -1      2929 1.43142E-02-1.85694E-03-1.16760E-13
 -1      2930 1.42312E-02-1.89629E-03-1.15548E-13
 -1      2931 2.12601E-03-3.59184E-04-5.04376E-15
 -1      2932 1.96406E-03-2.97662E-04-4.84385E-15
 -1      2933 3.85587E-03 6.86685E-04-8.87742E-15
 -1      2934 3.99411E-03 6.54576E-04-9.47544E-15
 -1      2935 2.01631E-03-5.93288E-05-4.59995E-15
 -1      2936 2.18890E-03 7.77352E-06-4.78610E-15
 -1      2937 1.07564E-03-2.32012E-04-1.09134E-15
 -1      2938 1.22593E-03-2.61325E-04-1.37077E-15
 -1      2939 1.25384E-03-2.41996E-04-1.53583E-15
 -1      2940 2.39501E-03 1.02885E-04-5.01800E-15
 -1      2941 2.59415E-03 2.04735E-04-5.29466E-15
 -1      2942 4.55162E-03 3.76463E-04-1.18438E-14
 -1      2943 4.72435E-03 2.66086E-04-1.24795E-14
 -1      2944 1.73410E-03-1.43131E-04-4.30873E-15
 -1      2945 1.85537E-03-1.12685E-04-4.43117E-15
 -1      2946 2.56555E-03-5.76328E-04-5.61554E-15
 -1      2947 2.33711E-03-4.55400E-04-5.28393E-15
 -1      2948 7.51911E-04 5.44177E-05-6.10379E-16
 -1      2949 7.32998E-04 3.28561E-05-6.32917E-16
 -1      2950 8.33262E-04 2.79207E-05-8.16255E-16
 -1      2951 8.78513E-04 7.78834E-05-7.62113E-16
 -1      2952 1.56169E-03-1.78329E-04-4.17947E-15
 -1      2953 1.61841E-03-1.68650E-04-4.19780E-15
 -1      2954 1.81102E-03-2.46911E-04-4.62322E-15
 -1      2955 1.69279E-03-2.17272E-04-4.45664E-15
 -1      2956 3.00070E-03-8.41975E-04-6.46556E-15
 -1      2957 2.82743E-03-7.30527E-04-6.08700E-15
 -1      2958 4.15438E-03 5.94395E-04-1.01697E-14
 -1      2959 4.31721E-03 5.11034E-04-1.08780E-14
 -1      2960 1.60319E-03-1.96490E-04-4.34964E-15
 -1      2961 1.56127E-03-1.89114E-04-4.26081E-15
 -1      2962 6.82508E-04-6.50983E-05-7.48018E-16
 -1      2963 6.98770E-04-7.53109E-05-7.51677E-16
 -1      2964 2.68594E-03 6.37728E-04-3.92308E-15
 -1      2965 2.52125E-03 5.93279E-04-3.45589E-15
 -1      2966 2.41841E-03 5.22437E-04-3.33305E-15
 -1      2967 2.75549E-03 6.14385E-04-4.27657E-15
 -1      2968 5.77846E-03-2.76579E-04-1.56972E-14
 -1      2969 5.92840E-03-3.25828E-04-1.61403E-14
 -1      2970 6.02842E-03-4.83339E-04-1.67078E-14
 -1      2971 5.87417E-03-5.35586E-04-1.63748E-14
 -1      2972 8.25672E-04-1.75674E-04-7.10613E-16
 -1      2973 9.66316E-04-2.08629E-04-9.12654E-16
 -1      2974 1.00307E-03-1.93622E-04-1.04876E-15
 -1      2975 7.95193E-04-1.51031E-04-7.15899E-16
 -1      2976 7.19484E-04-8.80109E-05-7.53290E-16
 -1      2977 7.43804E-04-1.03971E-04-7.52003E-16
 -1      2978 8.11528E-04-9.58691E-05-9.50046E-16
 -1      2979 5.27809E-03-5.18599E-05-1.42971E-14
 -1      2980 7.65753E-04-3.61791E-05-8.95646E-16
 -1      2981 6.66008E-04-3.48684E-05-7.14774E-16
 -1      2982 6.62855E-04-4.25640E-05-7.25860E-16
 -1      2983 8.53544E-04 2.14036E-04-4.29466E-16
 -1      2984 1.91082E-03-7.48573E-05-4.27361E-15
 -1      2985 1.62306E-03-1.99442E-04-4.15497E-15
 -1      2986 5.03219E-03-1.01587E-03-1.44668E-14
 -1      2987 4.55116E-03-1.26626E-03-1.23492E-14
 -1      2988 2.62255E-03-6.46641E-04-5.24204E-15
 -1      2989 2.81017E-03-7.69379E-04-5.55183E-15
 -1      2990 3.01202E-03-8.79981E-04-6.17124E-15
 -1      2991 3.14739E-03-9.59975E-04-6.59423E-15
 -1      2992 3.35300E-03-1.08474E-03-7.27520E-15
 -1      2993 3.52283E-03-1.18764E-03-7.87296E-15
 -1      2994 3.71189E-03-1.28501E-03-8.58741E-15
 -1      2995 3.87232E-03-1.35132E-03-9.24239E-15
 -1      2996 4.06219E-03-1.38263E-03-1.00669E-14
 -1      2997 6.04047E-03-3.54846E-04-1.69368E-14
 -1      2998 5.68482E-03-2.38408E-04-1.56230E-14
 -1      2999 5.79647E-03-2.68944E-04-1.64417E-14
 -1      3000 5.59303E-03-1.94709E-04-1.55490E-14
 -1      3001 4.87690E-03 1.83318E-04-1.31493E-14
 -1      3002 6.24573E-03-4.07753E-04-1.75161E-14
 -1      3003 2.65489E-03-6.39941E-04-5.58605E-15
 -1      3004 1.64093E-03-1.48309E-04-4.00485E-15
 -1      3005 1.85950E-03-2.64247E-04-4.46622E-15
 -1      3006 3.77024E-03 6.97769E-04-8.48522E-15
 -1      3007 3.42438E-03 6.41741E-04-7.14550E-15
 -1      3008 3.50863E-03 6.77303E-04-7.39040E-15
 -1      3009 3.30756E-03 6.07590E-04-6.70266E-15
 -1      3010 1.46106E-02-2.30303E-03-1.19948E-13
 -1      3011 1.45892E-02-2.26807E-03-1.19730E-13
 -1      3012 1.44518E-02-2.22308E-03-1.17910E-13
 -1      3013 1.45145E-02-2.28915E-03-1.18637E-13
 -1      3014 4.07276E-03 6.32199E-04-9.81802E-15
 -1      3015 1.43887E-03 3.05929E-04-1.24876E-15
 -1      3016 1.38734E-03 3.32091E-04-1.06374E-15
 -1      3017 4.44223E-03 4.50421E-04-1.14733E-14
 -1      3018 4.56704E-03 3.91368E-04-1.20820E-14
 -1      3019 4.35042E-03 5.14292E-04-1.11059E-14
 -1      3020 6.27904E-03-4.30030E-04-1.77347E-14
 -1      3021 1.28201E-03 3.19790E-04-8.86742E-16
 -1      3022 2.63356E-03 2.56624E-04-5.15240E-15
 -1      3023 5.80261E-03-5.86458E-04-1.66331E-14
 -1      3024 6.12989E-03-4.71430E-04-1.74469E-14
 -1      3025 5.41970E-03-7.94791E-04-1.58580E-14
 -1      3026 3.00845E-03 4.54941E-04-5.93541E-15
 -1      3027 1.41769E-02-1.81195E-03-1.14956E-13
 -1      3028 4.19601E-03-1.37762E-03-1.06890E-14
 -1      3029 9.73168E-04 2.23205E-04-5.87123E-16
 -1      3030 6.64414E-04-4.95481E-05-7.34886E-16
 -1      3031 6.70957E-04-5.68474E-05-7.42285E-16
 -1      3032 7.72682E-04-7.21570E-05-9.40735E-16
 -1      3033 7.57381E-04-5.47806E-05-9.22412E-16
 -1      3034 4.42843E-03-1.30631E-03-1.17464E-14
 -1      3035 4.26688E-03-1.35867E-03-1.10001E-14
 -1      3036 2.20817E-03-4.02638E-04-4.90854E-15
 -1      3037 2.26239E-03 6.58734E-05-4.65804E-15
 -1      3038 1.06456E-03 1.76691E-04-8.48388E-16
 -1      3039 1.03786E-03 1.39811E-04-8.90902E-16
 -1      3040 1.13960E-03 3.19453E-04-6.29813E-16
 -1      3041 1.80526E-03-8.24087E-05-3.91983E-15
 -1      3042 1.94953E-03-3.51896E-05-4.07585E-15
 -1      3043 2.48888E-03 2.18467E-04-4.70003E-15
 -1      3044 2.65198E-03 3.08522E-04-4.96036E-15
 -1      3045 7.54729E-04-1.15956E-04-7.35902E-16
 -1      3046 7.82074E-04-1.34984E-04-7.35401E-16
 -1      3047 8.82147E-04-1.54603E-04-8.95714E-16
 -1      3048 8.51933E-04-1.24484E-04-9.33986E-16
 -1      3049 3.14383E-03-9.32101E-04-6.89452E-15
 -1      3050 3.03811E-03-8.73008E-04-6.46907E-15
 -1      3051 3.35777E-03-1.07626E-03-7.47618E-15
 -1      3052 1.14156E-03 2.78432E-04-7.36471E-16
 -1      3053 2.39252E-03-5.17134E-04-4.81624E-15
 -1      3054 1.70635E-03-3.07023E-04-2.82464E-15
 -1      3055 1.85678E-03-3.42544E-04-3.25953E-15
 -1      3056 2.01328E-03-3.83561E-04-3.72430E-15
 -1      3057 2.17821E-03-4.35357E-04-4.22043E-15
 -1      3058 1.84737E-03-3.11907E-04-3.48187E-15
 -1      3059 1.11318E-03 2.23035E-04-8.23099E-16
 -1      3060 6.02203E-03-3.39012E-04-1.75843E-14
 -1      3061 6.15808E-03-3.79588E-04-1.80135E-14
 -1      3062 3.97870E-03 6.71869E-04-9.38126E-15
 -1      3063 4.12599E-03 6.20702E-04-1.00688E-14
 -1      3064 5.79960E-03-7.14265E-04-1.82041E-14
 -1      3065 5.96768E-03-6.92649E-04-1.93417E-14
 -1      3066 6.12705E-03-6.84102E-04-2.05067E-14
 -1      3067 6.27997E-03-6.83201E-04-2.16970E-14
 -1      3068 6.10496E-03-6.34278E-04-1.98425E-14
 -1      3069 6.42784E-03-6.89871E-04-2.29142E-14
 -1      3070 6.57265E-03-7.01467E-04-2.41563E-14
 -1      3071 6.39322E-03-6.43808E-04-2.22163E-14
 -1      3072 6.71501E-03-7.17761E-04-2.54224E-14
 -1      3073 6.85623E-03-7.37416E-04-2.67134E-14
 -1      3074 6.66844E-03-6.73428E-04-2.46920E-14
 -1      3075 6.99653E-03-7.60048E-04-2.80273E-14
 -1      3076 7.13663E-03-7.85023E-04-2.93630E-14
 -1      3077 6.93961E-03-7.15774E-04-2.72634E-14
 -1      3078 7.27654E-03-8.11901E-04-3.07203E-14
 -1      3079 7.41668E-03-8.40324E-04-3.20997E-14
 -1      3080 7.21102E-03-7.66750E-04-2.99257E-14
 -1      3081 7.55693E-03-8.69895E-04-3.35005E-14
 -1      3082 7.69755E-03-9.00406E-04-3.49210E-14
 -1      3083 7.48440E-03-8.23559E-04-3.26752E-14
 -1      3084 7.83837E-03-9.31537E-04-3.63610E-14
 -1      3085 7.97956E-03-9.63161E-04-3.78224E-14
 -1      3086 7.76024E-03-8.84044E-04-3.55077E-14
 -1      3087 8.12095E-03-9.95041E-04-3.93042E-14
 -1      3088 8.26263E-03-1.02710E-03-4.08035E-14
 -1      3089 8.03841E-03-9.46575E-04-3.84204E-14
 -1      3090 8.40449E-03-1.05917E-03-4.23212E-14
 -1      3091 8.54657E-03-1.09122E-03-4.38620E-14
 -1      3092 8.31855E-03-1.00996E-03-4.14119E-14
 -1      3093 8.68878E-03-1.12313E-03-4.54229E-14
 -1      3094 8.83115E-03-1.15489E-03-4.70030E-14
 -1      3095 8.60024E-03-1.07339E-03-4.44839E-14
 -1      3096 8.97361E-03-1.18644E-03-4.86008E-14
 -1      3097 9.11618E-03-1.21776E-03-5.02152E-14
 -1      3098 8.88312E-03-1.13634E-03-4.76363E-14
 -1      3099 9.25881E-03-1.24883E-03-5.18457E-14
 -1      3100 9.40152E-03-1.27965E-03-5.34908E-14
 -1      3101 9.16688E-03-1.19851E-03-5.08584E-14
 -1      3102 9.54425E-03-1.31022E-03-5.51529E-14
 -1      3103 9.68704E-03-1.34054E-03-5.68281E-14
 -1      3104 9.45128E-03-1.25977E-03-5.41459E-14
 -1      3105 9.82984E-03-1.37061E-03-5.85167E-14
 -1      3106 9.97268E-03-1.40045E-03-6.02156E-14
 -1      3107 9.73612E-03-1.32010E-03-5.74877E-14
 -1      3108 1.01155E-02-1.43007E-03-6.19289E-14
 -1      3109 1.02584E-02-1.45948E-03-6.36575E-14
 -1      3110 1.00213E-02-1.37955E-03-6.08843E-14
 -1      3111 1.04013E-02-1.48870E-03-6.53957E-14
 -1      3112 1.05441E-02-1.51773E-03-6.71467E-14
 -1      3113 1.03067E-02-1.43818E-03-6.43312E-14
 -1      3114 1.06870E-02-1.54660E-03-6.89082E-14
 -1      3115 1.08299E-02-1.57532E-03-7.06788E-14
 -1      3116 1.05922E-02-1.49611E-03-6.78272E-14
 -1      3117 1.09728E-02-1.60390E-03-7.24595E-14
 -1      3118 1.11157E-02-1.63236E-03-7.42496E-14
 -1      3119 1.08778E-02-1.55343E-03-7.13645E-14
 -1      3120 1.12586E-02-1.66070E-03-7.60496E-14
 -1      3121 1.14014E-02-1.68894E-03-7.78570E-14
 -1      3122 1.11635E-02-1.61026E-03-7.49419E-14
 -1      3123 1.15443E-02-1.71710E-03-7.96704E-14
 -1      3124 1.16872E-02-1.74517E-03-8.14920E-14
 -1      3125 1.14492E-02-1.66669E-03-7.85507E-14
 -1      3126 1.18301E-02-1.77317E-03-8.33209E-14
 -1      3127 1.19730E-02-1.80111E-03-8.51559E-14
 -1      3128 1.17350E-02-1.72279E-03-8.21908E-14
 -1      3129 1.21158E-02-1.82900E-03-8.69991E-14
 -1      3130 1.22587E-02-1.85684E-03-8.88450E-14
 -1      3131 1.20207E-02-1.77864E-03-8.58583E-14
 -1      3132 1.24016E-02-1.88463E-03-9.06975E-14
 -1      3133 1.25445E-02-1.91240E-03-9.25547E-14
 -1      3134 1.23065E-02-1.83430E-03-8.95536E-14
 -1      3135 1.26873E-02-1.94013E-03-9.44125E-14
 -1      3136 1.28302E-02-1.96783E-03-9.62764E-14
 -1      3137 1.25923E-02-1.88981E-03-9.32625E-14
 -1      3138 1.29731E-02-1.99552E-03-9.81463E-14
 -1      3139 1.31159E-02-2.02318E-03-1.00016E-13
 -1      3140 1.28780E-02-1.94521E-03-9.69877E-14
 -1      3141 1.32588E-02-2.05083E-03-1.01890E-13
 -1      3142 1.34017E-02-2.07847E-03-1.03769E-13
 -1      3143 1.31638E-02-2.00054E-03-1.00725E-13
 -1      3144 1.35445E-02-2.10610E-03-1.05653E-13
 -1      3145 1.36874E-02-2.13372E-03-1.07544E-13
 -1      3146 1.34495E-02-2.05581E-03-1.04479E-13
 -1      3147 1.38302E-02-2.16133E-03-1.09441E-13
 -1      3148 1.39731E-02-2.18894E-03-1.11344E-13
 -1      3149 1.37352E-02-2.11105E-03-1.08254E-13
 -1      3150 1.41160E-02-2.21655E-03-1.13257E-13
 -1      3151 1.42588E-02-2.24416E-03-1.15174E-13
 -1      3152 1.40210E-02-2.16627E-03-1.12058E-13
 -1      3153 2.14012E-03 4.08135E-04-2.79381E-15
 -1      3154 1.97336E-03 3.71091E-04-2.41099E-15
 -1      3155 1.80911E-03 3.37545E-04-2.05876E-15
 -1      3156 1.64790E-03 3.06806E-04-1.73611E-15
 -1      3157 1.85947E-03 3.04279E-04-2.30282E-15
 -1      3158 3.49384E-03 7.49238E-04-7.01407E-15
 -1      3159 3.33197E-03 7.24225E-04-6.36536E-15
 -1      3160 3.16733E-03 6.86044E-04-5.75347E-15
 -1      3161 2.99874E-03 6.41138E-04-5.17700E-15
 -1      3162 3.24687E-03 6.72506E-04-6.15947E-15
 -1      3163 4.11376E-03 6.69820E-04-9.93856E-15
 -1      3164 3.95163E-03 7.14277E-04-9.14576E-15
 -1      3165 4.48956E-03 5.08451E-04-1.18451E-14
 -1      3166 4.31693E-03 5.81912E-04-1.09724E-14
 -1      3167 5.14342E-03 2.66176E-04-1.54586E-14
 -1      3168 4.97217E-03 3.33935E-04-1.44641E-14
 -1      3169 5.48056E-03 1.44988E-04-1.75381E-14
 -1      3170 5.31348E-03 2.03187E-04-1.64833E-14
 -1      3171 5.27532E-03 1.79087E-04-1.61471E-14
 -1      3172 5.80655E-03 4.36469E-05-1.97327E-14
 -1      3173 5.64519E-03 9.20220E-05-1.86218E-14
 -1      3174 5.61282E-03 6.53462E-05-1.82679E-14
 -1      3175 6.12118E-03-4.04828E-05-2.20385E-14
 -1      3176 5.96528E-03-2.19538E-07-2.08719E-14
 -1      3177 5.93563E-03-2.72158E-05-2.05009E-14
 -1      3178 6.42636E-03-1.11496E-04-2.44507E-14
 -1      3179 6.27484E-03-7.73184E-05-2.32317E-14
 -1      3180 6.24553E-03-1.03556E-04-2.28429E-14
 -1      3181 6.72453E-03-1.73111E-04-2.69670E-14
 -1      3182 6.57619E-03-1.43239E-04-2.56957E-14
 -1      3183 6.54565E-03-1.68557E-04-2.52897E-14
 -1      3184 7.01785E-03-2.28345E-04-2.95843E-14
 -1      3185 6.87168E-03-2.01349E-04-2.82641E-14
 -1      3186 6.83907E-03-2.25936E-04-2.78383E-14
 -1      3187 7.30803E-03-2.79528E-04-3.22965E-14
 -1      3188 7.16324E-03-2.54317E-04-3.09285E-14
 -1      3189 7.12825E-03-2.78426E-04-3.04852E-14
 -1      3190 7.59625E-03-3.28394E-04-3.51009E-14
 -1      3191 7.45232E-03-3.04163E-04-3.36868E-14
 -1      3192 7.41494E-03-3.28003E-04-3.32254E-14
 -1      3193 7.88331E-03-3.76186E-04-3.79915E-14
 -1      3194 7.73988E-03-3.52366E-04-3.65357E-14
 -1      3195 7.70032E-03-3.76077E-04-3.60551E-14
 -1      3196 8.16971E-03-4.23756E-04-4.09694E-14
 -1      3197 8.02656E-03-3.99961E-04-3.94706E-14
 -1      3198 7.98509E-03-4.23623E-04-3.89736E-14
 -1      3199 8.45575E-03-4.71656E-04-4.40288E-14
 -1      3200 8.31275E-03-4.47643E-04-4.24885E-14
 -1      3201 8.26970E-03-4.71292E-04-4.19758E-14
 -1      3202 8.74162E-03-5.20211E-04-4.71675E-14
 -1      3203 8.59869E-03-4.95841E-04-4.55897E-14
 -1      3204 8.55436E-03-5.19488E-04-4.50586E-14
 -1      3205 9.02740E-03-5.69582E-04-5.03834E-14
 -1      3206 8.88451E-03-5.44791E-04-4.87652E-14
 -1      3207 8.83918E-03-5.68433E-04-4.82216E-14
 -1      3208 9.31315E-03-6.19818E-04-5.36614E-14
 -1      3209 9.17027E-03-5.94593E-04-5.20150E-14
 -1      3210 9.12418E-03-6.18223E-04-5.14546E-14
 -1      3211 9.59889E-03-6.70895E-04-5.70028E-14
 -1      3212 9.45601E-03-6.45255E-04-5.53252E-14
 -1      3213 9.40937E-03-6.68865E-04-5.47549E-14
 -1      3214 9.88463E-03-7.22745E-04-6.03974E-14
 -1      3215 9.74176E-03-6.96729E-04-5.86928E-14
 -1      3216 9.69471E-03-7.20311E-04-5.81108E-14
 -1      3217 1.01704E-02-7.75278E-04-6.38399E-14
 -1      3218 1.00275E-02-7.48932E-04-6.21133E-14
 -1      3219 9.98018E-03-7.72484E-04-6.15186E-14
 -1      3220 1.04561E-02-8.28394E-04-6.73248E-14
 -1      3221 1.03133E-02-8.01769E-04-6.55772E-14
 -1      3222 1.02658E-02-8.25289E-04-6.49740E-14
 -1      3223 1.07419E-02-8.81998E-04-7.08510E-14
 -1      3224 1.05990E-02-8.55141E-04-6.90830E-14
 -1      3225 1.05514E-02-8.78629E-04-6.84711E-14
 -1      3226 1.10276E-02-9.35998E-04-7.44090E-14
 -1      3227 1.08848E-02-9.08953E-04-7.26255E-14
 -1      3228 1.08371E-02-9.32411E-04-7.20049E-14
 -1      3229 1.13134E-02-9.90315E-04-7.80036E-14
 -1      3230 1.11705E-02-9.63121E-04-7.62029E-14
 -1      3231 1.11228E-02-9.86552E-04-7.55733E-14
 -1      3232 1.15991E-02-1.04488E-03-8.16286E-14
 -1      3233 1.14563E-02-1.01757E-03-7.98115E-14
 -1      3234 1.14085E-02-1.04098E-03-7.91745E-14
 -1      3235 1.18849E-02-1.09964E-03-8.52878E-14
 -1      3236 1.17420E-02-1.07224E-03-8.34551E-14
 -1      3237 1.16943E-02-1.09562E-03-8.28114E-14
 -1      3238 1.21706E-02-1.15454E-03-8.89687E-14
 -1      3239 1.20277E-02-1.12707E-03-8.71243E-14
 -1      3240 1.19800E-02-1.15044E-03-8.64780E-14
 -1      3241 1.24563E-02-1.20954E-03-9.26757E-14
 -1      3242 1.23135E-02-1.18203E-03-9.08190E-14
 -1      3243 1.22658E-02-1.20538E-03-9.01663E-14
 -1      3244 1.27421E-02-1.26462E-03-9.64008E-14
 -1      3245 1.25992E-02-1.23707E-03-9.45360E-14
 -1      3246 1.25516E-02-1.26042E-03-9.38763E-14
 -1      3247 1.30278E-02-1.31975E-03-1.00153E-13
 -1      3248 1.28849E-02-1.29218E-03-9.82731E-14
 -1      3249 1.28373E-02-1.31552E-03-9.76105E-14
 -1      3250 1.33135E-02-1.37491E-03-1.03915E-13
 -1      3251 1.31707E-02-1.34733E-03-1.02033E-13
 -1      3252 1.31230E-02-1.37066E-03-1.01363E-13
 -1      3253 1.35992E-02-1.43009E-03-1.07691E-13
 -1      3254 1.34564E-02-1.40250E-03-1.05802E-13
 -1      3255 1.34088E-02-1.42583E-03-1.05132E-13
 -1      3256 1.38480E-02-1.47941E-03-1.10982E-13
 -1      3257 1.37075E-02-1.45013E-03-1.09125E-13
 -1      3258 1.36599E-02-1.47346E-03-1.08452E-13
 -1      3259 1.38765E-02-1.51353E-03-1.11324E-13
 -1      3260 1.42832E-02-2.14505E-03-1.15739E-13
 -1      3261 1.42560E-02-2.10289E-03-1.15459E-13
 -1      3262 1.42288E-02-2.06072E-03-1.15175E-13
 -1      3263 1.42016E-02-2.01856E-03-1.14892E-13
 -1      3264 1.41186E-02-2.05790E-03-1.13659E-13
 -1      3265 1.41749E-02-1.97710E-03-1.14612E-13
 -1      3266 1.41482E-02-1.93565E-03-1.14328E-13
 -1      3267 1.40647E-02-1.97428E-03-1.13101E-13
 -1      3268 1.41210E-02-1.89348E-03-1.14040E-13
 -1      3269 1.40939E-02-1.85131E-03-1.13751E-13
 -1      3270 1.40109E-02-1.89066E-03-1.12534E-13
 -1      3271 2.19243E-03-4.14526E-04-4.52943E-15
 -1      3272 2.89901E-03 4.34612E-04-5.48708E-15
 -1      3273 3.09075E-03 5.25770E-04-5.99665E-15
 -1      3274 3.80198E-03 7.45025E-04-8.40532E-15
 -1      3275 3.64312E-03 7.52698E-04-7.68491E-15
 -1      3276 3.56831E-03 7.26568E-04-7.44841E-15
 -1      3277 3.87631E-03 7.06840E-04-8.86120E-15
 -1      3278 5.61105E-03-7.38085E-04-1.69363E-14
 -1      3279 1.40668E-02-1.80914E-03-1.13456E-13
 -1      3280 1.40396E-02-1.76697E-03-1.13158E-13
 -1      3281 1.39566E-02-1.80632E-03-1.11955E-13
 -1      3282 1.41781E-03-2.49175E-04-2.04655E-15
 -1      3283 1.56071E-03-2.76815E-04-2.42025E-15
 -1      3284 1.56578E-03-2.53229E-04-2.61889E-15
 -1      3285 5.92932E-03-5.61416E-04-1.74352E-14
 -1      3286 5.75101E-03-6.36333E-04-1.69601E-14
 -1      3287 2.01647E-03-3.33654E-04-4.31681E-15
 -1      3288 4.84722E-03 2.25467E-04-1.32641E-14
 -1      3289 5.04837E-03 9.70956E-05-1.39705E-14
 -1      3290 1.13789E-03-1.98992E-04-1.39237E-15
 -1      3291 1.27733E-03-2.23639E-04-1.70399E-15
 -1      3292 1.29605E-03-2.05832E-04-1.87521E-15
 -1      3293 9.07171E-04-2.16290E-06-1.05094E-15
 -1      3294 8.85954E-04-2.06765E-05-1.07449E-15
 -1      3295 6.26429E-03-4.10538E-04-1.83108E-14
 -1      3296 6.31595E-03-4.23889E-04-1.84758E-14
 -1      3297 1.63104E-03-2.00927E-04-3.91346E-15
 -1      3298 1.55017E-03-1.82967E-04-3.81727E-15
 -1      3299 2.11583E-03 3.65043E-05-4.22268E-15
 -1      3300 2.29490E-03 1.19712E-04-4.43432E-15
 -1      3301 3.67540E-03 7.11533E-04-8.00255E-15
 -1      3302 3.81635E-03 7.05523E-04-8.63505E-15
 -1      3303 4.27877E-03-1.37512E-03-1.11011E-14
 -1      3304 1.56228E-03-1.45223E-04-3.69666E-15
 -1      3305 1.66634E-03-1.23825E-04-3.80064E-15
 -1      3306 6.32619E-03-4.35700E-04-1.84737E-14
 -1      3307 6.30746E-03-4.47188E-04-1.85339E-14
 -1      3308 1.53133E-03-1.74850E-04-3.97557E-15
 -1      3309 1.87418E-03-2.74788E-04-4.21541E-15
 -1      3310 1.73957E-03-2.32612E-04-4.01418E-15
 -1      3311 1.63479E-03-2.08155E-04-3.67943E-15
 -1      3312 1.86699E-03-2.91489E-04-3.86627E-15
 -1      3313 5.25401E-03-2.22166E-05-1.46201E-14
 -1      3314 5.42241E-03-1.13706E-04-1.50825E-14
 -1      3315 5.55863E-03-1.59562E-04-1.58833E-14
 -1      3316 6.22066E-03-4.71649E-04-1.82912E-14
 -1      3317 6.09769E-03-5.04896E-04-1.79391E-14
 -1      3318 1.23084E-03 2.25248E-04-1.03941E-15
 -1      3319 1.50456E-03-1.70362E-04-3.74429E-15
 -1      3320 1.49957E-03-1.61767E-04-3.66951E-15
 -1      3321 1.48603E-03-1.68217E-04-3.51649E-15
 -1      3322 8.68617E-04-3.59262E-05-1.09532E-15
 -1      3323 8.56655E-04-4.85797E-05-1.11394E-15
 -1      3324 9.75844E-04-3.36736E-05-1.31302E-15
 -1      3325 1.69349E-03-9.23597E-05-3.61592E-15
 -1      3326 2.59865E-03 3.52159E-04-4.55944E-15
 -1      3327 2.74791E-03 3.89649E-04-5.01162E-15
 -1      3328 2.82647E-03 4.65036E-04-5.05760E-15
 -1      3329 4.65038E-03 4.60891E-04-1.26891E-14
 -1      3330 4.63791E-03 4.02510E-04-1.25570E-14
 -1      3331 5.20246E-03 3.07147E-05-1.47412E-14
 -1      3332 1.38456E-03 2.51117E-04-1.28704E-15
 -1      3333 3.18844E-03 5.85957E-04-6.21452E-15
 -1      3334 5.95417E-03-3.11283E-04-1.75027E-14
 -1      3335 6.09739E-03-3.41564E-04-1.85886E-14
 -1      3336 5.88404E-03-2.78979E-04-1.74193E-14
 -1      3337 4.24725E-03 5.76962E-04-1.06328E-14
 -1      3338 4.46725E-03-1.32230E-03-1.20121E-14
 -1      3339 5.75748E-03-7.00500E-04-1.77458E-14
 -1      3340 6.05659E-03-5.45437E-04-1.82818E-14
 -1      3341 2.31011E-03 4.48758E-04-3.20688E-15
 -1      3342 2.19553E-03 3.74392E-04-3.07782E-15
 -1      3343 2.48154E-03 4.93346E-04-3.65082E-15
 -1      3344 1.44185E-02-2.27528E-03-1.17326E-13
 -1      3345 1.43316E-03 2.22590E-04-1.47723E-15
 -1      3346 4.95173E-03 2.96093E-04-1.42714E-14
 -1      3347 4.82329E-03 3.86778E-04-1.36258E-14
 -1      3348 1.42922E-02-2.19196E-03-1.15756E-13
 -1      3349 1.41548E-02-2.14697E-03-1.13955E-13
 -1      3350 1.40127E-02-1.72498E-03-1.12861E-13
 -1      3351 1.39857E-02-1.68299E-03-1.12563E-13
 -1      3352 1.39025E-02-1.72216E-03-1.11367E-13
 -1      3353 1.43235E-02-2.22499E-03-1.16117E-13
 -1      3354 2.82710E-03 5.91322E-04-4.63572E-15
 -1      3355 2.65470E-03 5.41770E-04-4.12685E-15
 -1      3356 2.54509E-03 4.64129E-04-3.97515E-15
 -1      3357 2.89982E-03 5.70422E-04-4.99905E-15
 -1      3358 1.39587E-02-1.64100E-03-1.12261E-13
 -1      3359 1.39317E-02-1.59902E-03-1.11955E-13
 -1      3360 1.38485E-02-1.63819E-03-1.10770E-13
 -1      3361 1.01102E-03 1.05382E-04-9.28999E-16
 -1      3362 9.84162E-04 7.37905E-05-9.64113E-16
 -1      3363 1.14926E-03 1.37418E-04-1.11120E-15
 -1      3364 4.68255E-03 3.56918E-04-1.27127E-14
 -1      3365 4.78409E-03 2.80243E-04-1.31127E-14
 -1      3366 4.94980E-03 2.01650E-04-1.39265E-14
 -1      3367 4.84310E-03 3.05336E-04-1.36014E-14
 -1      3368 9.00256E-04-1.02400E-04-1.16899E-15
 -1      3369 9.29373E-04-1.18791E-04-1.17191E-15
 -1      3370 3.56649E-03 7.04832E-04-7.52473E-15
 -1      3371 1.39051E-02-1.54766E-03-1.11665E-13
 -1      3372 6.37242E-03-4.40268E-04-1.92885E-14
 -1      3373 1.37949E-02-1.54485E-03-1.10178E-13
 -1      3374 6.26673E-03-4.01391E-04-1.89829E-14
 -1      3375 1.98606E-03 1.65304E-05-3.86917E-15
 -1      3376 8.77113E-04-8.93112E-05-1.16323E-15
 -1      3377 9.85483E-04-1.08433E-04-1.40885E-15
 -1      3378 8.61071E-04-7.82868E-05-1.15449E-15
 -1      3379 2.32542E-03 1.77658E-04-4.25824E-15
 -1      3380 1.43700E-03-1.43988E-04-3.25925E-15
 -1      3381 1.49233E-03-1.46839E-04-3.47566E-15
 -1      3382 1.49237E-03-1.28820E-04-3.28573E-15
 -1      3383 9.31413E-04 1.97476E-05-1.02494E-15
 -1      3384 1.02680E-03 8.80048E-06-1.25846E-15
 -1      3385 9.57208E-04 4.50249E-05-9.95880E-16
 -1      3386 6.38266E-03-4.73540E-04-1.98037E-14
 -1      3387 6.30769E-03-4.69720E-04-1.90430E-14
 -1      3388 6.30311E-03-4.97219E-04-1.95541E-14
 -1      3389 9.83431E-04-1.74125E-04-1.07244E-15
 -1      3390 1.01524E-03-1.61517E-04-1.21164E-15
 -1      3391 1.90697E-03 2.68085E-04-2.55475E-15
 -1      3392 1.74351E-03 2.40050E-04-2.19174E-15
 -1      3393 1.40120E-02-2.11937E-03-1.12044E-13
 -1      3394 1.40030E-02-2.07246E-03-1.12028E-13
 -1      3395 1.38691E-02-2.09176E-03-1.10137E-13
 -1      3396 9.95728E-04-1.45458E-04-1.23180E-15
 -1      3397 5.19866E-03 6.99199E-05-1.50537E-14
 -1      3398 5.37944E-03-3.55452E-05-1.57327E-14
 -1      3399 1.73358E-03-2.61718E-04-3.40031E-15
 -1      3400 1.46131E-03-1.65576E-04-3.25233E-15
 -1      3401 1.41994E-03-1.53283E-04-3.18802E-15
 -1      3402 6.06611E-03-9.53820E-05-2.12754E-14
 -1      3403 5.90961E-03-5.60738E-05-2.01265E-14
 -1      3404 5.74906E-03-1.28281E-05-1.90049E-14
 -1      3405 5.58433E-03 3.61825E-05-1.79105E-14
 -1      3406 5.88754E-03-8.70645E-05-1.97487E-14
 -1      3407 6.36662E-03-5.99263E-04-2.15240E-14
 -1      3408 6.49752E-03-6.13380E-04-2.27318E-14
 -1      3409 6.62670E-03-6.31044E-04-2.39662E-14
 -1      3410 6.75633E-03-6.51196E-04-2.52228E-14
 -1      3411 6.58973E-03-5.90354E-04-2.32448E-14
 -1      3412 6.88598E-03-6.73546E-04-2.65043E-14
 -1      3413 7.01662E-03-6.97800E-04-2.78092E-14
 -1      3414 6.83528E-03-6.33334E-04-2.57506E-14
 -1      3415 7.14795E-03-7.23610E-04-2.91359E-14
 -1      3416 7.28045E-03-7.50822E-04-3.04836E-14
 -1      3417 7.08697E-03-6.82471E-04-2.83494E-14
 -1      3418 7.41386E-03-7.79072E-04-3.18540E-14
 -1      3419 7.54838E-03-8.08299E-04-3.32454E-14
 -1      3420 7.34495E-03-7.36455E-04-3.10376E-14
 -1      3421 7.68378E-03-8.38175E-04-3.46561E-14
 -1      3422 7.82015E-03-8.68660E-04-3.60871E-14
 -1      3423 7.60869E-03-7.93965E-04-3.38100E-14
 -1      3424 7.95729E-03-8.99487E-04-3.75402E-14
 -1      3425 8.09523E-03-9.30630E-04-3.90133E-14
 -1      3426 7.87735E-03-8.53821E-04-3.66651E-14
 -1      3427 8.23379E-03-9.61889E-04-4.05076E-14
 -1      3428 8.37300E-03-9.93247E-04-4.20181E-14
 -1      3429 8.15006E-03-9.15001E-04-3.96028E-14
 -1      3430 8.51269E-03-1.02456E-03-4.35491E-14
 -1      3431 8.65288E-03-1.05583E-03-4.51044E-14
 -1      3432 8.42601E-03-9.76706E-04-4.26220E-14
 -1      3433 8.79344E-03-1.08696E-03-4.66769E-14
 -1      3434 8.93438E-03-1.11795E-03-4.82678E-14
 -1      3435 8.70448E-03-1.03836E-03-4.57207E-14
 -1      3436 9.07560E-03-1.14875E-03-4.98765E-14
 -1      3437 9.21710E-03-1.17936E-03-5.14994E-14
 -1      3438 8.98491E-03-1.09961E-03-4.88962E-14
 -1      3439 9.35881E-03-1.20976E-03-5.31390E-14
 -1      3440 9.50072E-03-1.23995E-03-5.47944E-14
 -1      3441 9.26682E-03-1.16022E-03-5.21377E-14
 -1      3442 9.64279E-03-1.26992E-03-5.64630E-14
 -1      3443 9.78501E-03-1.29969E-03-5.81440E-14
 -1      3444 9.54984E-03-1.22010E-03-5.54389E-14
 -1      3445 9.92734E-03-1.32926E-03-5.98396E-14
 -1      3446 1.00698E-02-1.35864E-03-6.15477E-14
 -1      3447 9.83368E-03-1.27925E-03-5.87972E-14
 -1      3448 1.02123E-02-1.38784E-03-6.32706E-14
 -1      3449 1.03549E-02-1.41687E-03-6.50041E-14
 -1      3450 1.01181E-02-1.33770E-03-6.22102E-14
 -1      3451 1.04975E-02-1.44574E-03-6.67475E-14
 -1      3452 1.06402E-02-1.47446E-03-6.85044E-14
 -1      3453 1.04030E-02-1.39552E-03-6.56731E-14
 -1      3454 1.07830E-02-1.50306E-03-7.02716E-14
 -1      3455 1.09257E-02-1.53153E-03-7.20482E-14
 -1      3456 1.06882E-02-1.45278E-03-6.91798E-14
 -1      3457 1.10685E-02-1.55989E-03-7.38325E-14
 -1      3458 1.12114E-02-1.58815E-03-7.56274E-14
 -1      3459 1.09736E-02-1.50959E-03-7.27278E-14
 -1      3460 1.13542E-02-1.61632E-03-7.74318E-14
 -1      3461 1.14970E-02-1.64441E-03-7.92412E-14
 -1      3462 1.12592E-02-1.56601E-03-7.63117E-14
 -1      3463 1.16399E-02-1.67244E-03-8.10586E-14
 -1      3464 1.17828E-02-1.70040E-03-8.28861E-14
 -1      3465 1.15449E-02-1.62212E-03-7.99299E-14
 -1      3466 1.19257E-02-1.72830E-03-8.47195E-14
 -1      3467 1.20685E-02-1.75616E-03-8.65601E-14
 -1      3468 1.18306E-02-1.67798E-03-8.35812E-14
 -1      3469 1.22114E-02-1.78397E-03-8.84080E-14
 -1      3470 1.23543E-02-1.81175E-03-9.02591E-14
 -1      3471 1.21164E-02-1.73365E-03-8.72606E-14
 -1      3472 1.24972E-02-1.83949E-03-9.21126E-14
 -1      3473 1.26401E-02-1.86721E-03-9.39682E-14
 -1      3474 1.24021E-02-1.78918E-03-9.09615E-14
 -1      3475 1.27830E-02-1.89490E-03-9.58306E-14
 -1      3476 1.29258E-02-1.92258E-03-9.76981E-14
 -1      3477 1.26879E-02-1.84460E-03-9.46750E-14
 -1      3478 1.30687E-02-1.95024E-03-9.95628E-14
 -1      3479 1.32116E-02-1.97788E-03-1.01431E-13
 -1      3480 1.29737E-02-1.89994E-03-9.84022E-14
 -1      3481 1.33545E-02-2.00552E-03-1.03308E-13
 -1      3482 1.34974E-02-2.03314E-03-1.05187E-13
 -1      3483 1.32595E-02-1.95522E-03-1.02139E-13
 -1      3484 1.36118E-02-2.04865E-03-1.06713E-13
 -1      3485 1.37547E-02-2.07626E-03-1.08604E-13
 -1      3486 1.37456E-02-2.02936E-03-1.08592E-13
 -1      3487 1.35168E-02-1.99836E-03-1.05537E-13
 -1      3488 1.08487E-03-1.51001E-04-1.48299E-15
 -1      3489 6.29080E-03-3.94113E-04-1.97883E-14
 -1      3490 6.38071E-03-4.24413E-04-2.01041E-14
 -1      3491 5.14880E-03 1.96634E-04-1.53136E-14
 -1      3492 4.99802E-03 2.48223E-04-1.44467E-14
 -1      3493 5.04859E-03 1.97721E-04-1.46187E-14
 -1      3494 5.32407E-03 1.31740E-04-1.63365E-14
 -1      3495 6.36966E-03-1.63822E-04-2.36524E-14
 -1      3496 6.21932E-03-1.30885E-04-2.24503E-14
 -1      3497 6.19649E-03-1.59630E-04-2.20554E-14
 -1      3498 6.66389E-03-2.23169E-04-2.61324E-14
 -1      3499 6.51770E-03-1.94326E-04-2.48802E-14
 -1      3500 6.49252E-03-2.20745E-04-2.44670E-14
 -1      3501 6.95226E-03-2.76801E-04-2.87133E-14
 -1      3502 6.80862E-03-2.50503E-04-2.74104E-14
 -1      3503 6.78039E-03-2.75162E-04-2.69807E-14
 -1      3504 7.23727E-03-3.27016E-04-3.13893E-14
 -1      3505 7.09504E-03-3.02210E-04-3.00400E-14
 -1      3506 7.06363E-03-3.25725E-04-2.95925E-14
 -1      3507 7.52060E-03-3.75386E-04-3.41576E-14
 -1      3508 7.37905E-03-3.51352E-04-3.27616E-14
 -1      3509 7.34462E-03-3.74226E-04-3.22977E-14
 -1      3510 7.80332E-03-4.22982E-04-3.70133E-14
 -1      3511 7.66198E-03-3.99231E-04-3.55743E-14
 -1      3512 7.62484E-03-4.21819E-04-3.50927E-14
 -1      3513 8.08603E-03-4.70522E-04-3.99597E-14
 -1      3514 7.94464E-03-4.46729E-04-3.84768E-14
 -1      3515 7.90517E-03-4.69255E-04-3.79779E-14
 -1      3516 8.36904E-03-5.18466E-04-4.29842E-14
 -1      3517 8.22748E-03-4.94427E-04-4.14613E-14
 -1      3518 8.18605E-03-5.17015E-04-4.09468E-14
 -1      3519 8.65249E-03-5.67085E-04-4.60918E-14
 -1      3520 8.51070E-03-5.42684E-04-4.45282E-14
 -1      3521 8.46768E-03-5.65392E-04-4.39979E-14
 -1      3522 8.93640E-03-6.16511E-04-4.92774E-14
 -1      3523 8.79438E-03-5.91695E-04-4.76758E-14
 -1      3524 8.75010E-03-6.14541E-04-4.71292E-14
 -1      3525 9.22074E-03-6.66782E-04-5.25300E-14
 -1      3526 9.07851E-03-6.41543E-04-5.08955E-14
 -1      3527 9.03325E-03-6.64519E-04-5.03349E-14
 -1      3528 9.50544E-03-7.17871E-04-5.58484E-14
 -1      3529 9.36304E-03-6.92229E-04-5.41820E-14
 -1      3530 9.31704E-03-7.15316E-04-5.36082E-14
 -1      3531 9.79045E-03-7.69715E-04-5.92184E-14
 -1      3532 9.64791E-03-7.43705E-04-5.75260E-14
 -1      3533 9.60135E-03-7.66881E-04-5.69412E-14
 -1      3534 1.00757E-02-8.22227E-04-6.26403E-14
 -1      3535 9.93304E-03-7.95894E-04-6.09238E-14
 -1      3536 9.88609E-03-8.19137E-04-6.03278E-14
 -1      3537 1.03611E-02-8.75313E-04-6.61075E-14
 -1      3538 1.02184E-02-8.48704E-04-6.43688E-14
 -1      3539 1.01711E-02-8.71996E-04-6.37617E-14
 -1      3540 1.06467E-02-9.28881E-04-6.96147E-14
 -1      3541 1.05039E-02-9.02042E-04-6.78559E-14
 -1      3542 1.04564E-02-9.25366E-04-6.72414E-14
 -1      3543 1.09323E-02-9.82844E-04-7.31575E-14
 -1      3544 1.07895E-02-9.55818E-04-7.13824E-14
 -1      3545 1.07419E-02-9.79162E-04-7.07578E-14
 -1      3546 1.12180E-02-1.03713E-03-7.67372E-14
 -1      3547 1.10751E-02-1.00995E-03-7.49426E-14
 -1      3548 1.10275E-02-1.03330E-03-7.43120E-14
 -1      3549 1.15037E-02-1.09166E-03-8.03484E-14
 -1      3550 1.13609E-02-1.06436E-03-7.85390E-14
 -1      3551 1.13132E-02-1.08772E-03-7.79006E-14
 -1      3552 1.17895E-02-1.14638E-03-8.39959E-14
 -1      3553 1.16466E-02-1.11900E-03-8.21673E-14
 -1      3554 1.15989E-02-1.14236E-03-8.15248E-14
 -1      3555 1.20752E-02-1.20126E-03-8.76685E-14
 -1      3556 1.19324E-02-1.17380E-03-8.58289E-14
 -1      3557 1.18847E-02-1.19716E-03-8.51796E-14
 -1      3558 1.23610E-02-1.25624E-03-9.13638E-14
 -1      3559 1.22181E-02-1.22874E-03-8.95127E-14
 -1      3560 1.21705E-02-1.25209E-03-8.88608E-14
 -1      3561 1.26468E-02-1.31130E-03-9.50779E-14
 -1      3562 1.25039E-02-1.28376E-03-9.32193E-14
 -1      3563 1.24562E-02-1.30711E-03-9.25606E-14
 -1      3564 1.29325E-02-1.36642E-03-9.88172E-14
 -1      3565 1.27897E-02-1.33886E-03-9.69450E-14
 -1      3566 1.27420E-02-1.36220E-03-9.62809E-14
 -1      3567 1.32183E-02-1.42158E-03-1.02576E-13
 -1      3568 1.30754E-02-1.39400E-03-1.00694E-13
 -1      3569 1.30278E-02-1.41733E-03-1.00022E-13
 -1      3570 1.35040E-02-1.47675E-03-1.06346E-13
 -1      3571 1.33612E-02-1.44916E-03-1.04459E-13
 -1      3572 1.33136E-02-1.47250E-03-1.03784E-13
 -1      3573 1.36866E-02-1.52481E-03-1.08743E-13
 -1      3574 6.42380E-03-4.46757E-04-2.01426E-14
 -1      3575 6.43069E-03-4.59543E-04-2.01428E-14
 -1      3576 1.39758E-02-2.03030E-03-1.11751E-13
 -1      3577 1.43631E-03-2.09759E-04-2.41881E-15
 -1      3578 1.56369E-03-2.31165E-04-2.81829E-15
 -1      3579 1.39544E-02-1.97111E-03-1.11589E-13
 -1      3580 1.39276E-02-1.92965E-03-1.11311E-13
 -1      3581 1.39005E-02-1.88748E-03-1.11027E-13
 -1      3582 1.38733E-02-1.84532E-03-1.10740E-13
 -1      3583 1.37901E-02-1.88431E-03-1.09523E-13
 -1      3584 1.56797E-03 2.06282E-04-1.84817E-15
 -1      3585 1.31143E-03 1.63100E-04-1.37869E-15
 -1      3586 1.27678E-03 1.21291E-04-1.42789E-15
 -1      3587 1.60984E-03 1.71122E-04-2.06714E-15
 -1      3588 3.03109E-03 5.68458E-04-5.55388E-15
 -1      3589 3.23412E-03 6.36004E-04-6.23308E-15
 -1      3590 1.38462E-02-1.80315E-03-1.10451E-13
 -1      3591 1.38191E-02-1.76098E-03-1.10160E-13
 -1      3592 1.37358E-02-1.79997E-03-1.08950E-13
 -1      3593 1.58145E-03-9.45673E-05-3.26961E-15
 -1      3594 1.70358E-03-5.74658E-05-3.37869E-15
 -1      3595 8.50876E-04-5.90961E-05-1.12990E-15
 -1      3596 8.52211E-04-6.87881E-05-1.14329E-15
 -1      3597 9.48069E-04-8.42151E-05-1.38817E-15
 -1      3598 5.55883E-03-1.33330E-04-1.63270E-14
 -1      3599 5.70596E-03-2.04000E-04-1.68145E-14
 -1      3600 5.87791E-03-2.52128E-04-1.78816E-14
 -1      3601 5.53906E-03-8.83517E-05-1.66548E-14
 -1      3602 1.19678E-03-1.69911E-04-1.75507E-15
 -1      3603 1.32216E-03-1.89377E-04-2.09912E-15
 -1      3604 1.33175E-03-1.74410E-04-2.27663E-15
 -1      3605 1.12087E-03-1.40590E-04-1.67994E-15
 -1      3606 2.16076E-03 1.50691E-04-3.78342E-15
 -1      3607 2.33180E-03 2.36299E-04-4.02173E-15
 -1      3608 1.83643E-03-1.00482E-06-3.45824E-15
 -1      3609 1.97915E-03 6.16444E-05-3.58910E-15
 -1      3610 1.36390E-02-1.54814E-03-1.08067E-13
 -1      3611 2.84864E-03 5.08260E-04-4.99447E-15
 -1      3612 1.59175E-03-2.15277E-04-3.16565E-15
 -1      3613 2.42298E-03 3.12149E-04-4.06158E-15
 -1      3614 5.10548E-03 1.43867E-04-1.47880E-14
 -1      3615 5.28306E-03 7.76272E-05-1.57729E-14
 -1      3616 5.46878E-03 4.30585E-05-1.70326E-14
 -1      3617 3.40800E-03 6.82733E-04-6.86948E-15
 -1      3618 6.08786E-03-5.91563E-04-1.91940E-14
 -1      3619 6.22688E-03-5.94578E-04-2.03524E-14
 -1      3620 1.50847E-03-1.80126E-04-3.27451E-15
 -1      3621 1.41734E-03-1.61975E-04-2.95686E-15
 -1      3622 6.34178E-03-5.60192E-04-2.08480E-14
 -1      3623 1.36929E-02-1.63211E-03-1.08669E-13
 -1      3624 1.36659E-02-1.59013E-03-1.08370E-13
 -1      3625 1.34834E-02-1.54207E-03-1.05972E-13
 -1      3626 9.46106E-04-6.25358E-05-1.35607E-15
 -1      3627 6.24551E-03-3.75345E-04-1.97026E-14
 -1      3628 6.38066E-03-4.03423E-04-2.08420E-14
 -1      3629 6.19611E-03-3.53644E-04-1.96147E-14
 -1      3630 1.37695E-02-1.71754E-03-1.09565E-13
 -1      3631 1.37425E-02-1.67555E-03-1.09270E-13
 -1      3632 1.35599E-02-1.62749E-03-1.06874E-13
 -1      3633 1.36591E-02-1.71436E-03-1.08068E-13
 -1      3634 1.38387E-02-1.98567E-03-1.09967E-13
 -1      3635 6.46834E-03-4.45607E-04-2.09763E-14
 -1      3636 1.08759E-03 6.65346E-05-1.19146E-15
 -1      3637 1.99494E-03 1.19309E-04-3.37653E-15
 -1      3638 1.69978E-03-1.67410E-05-3.12121E-15
 -1      3639 5.91745E-03-6.25030E-04-1.82293E-14
 -1      3640 1.48821E-03-1.04778E-04-3.06322E-15
 -1      3641 1.48333E-03-7.71909E-05-2.84653E-15
 -1      3642 1.40782E-03-1.08876E-04-2.86156E-15
 -1      3643 1.05662E-03-1.08242E-04-1.66238E-15
 -1      3644 1.08413E-03-1.22816E-04-1.67267E-15
 -1      3645 1.18246E-03-1.37255E-04-1.95880E-15
 -1      3646 6.20467E-03-5.27454E-04-1.92415E-14
 -1      3647 6.05797E-03-5.73266E-04-1.87226E-14
 -1      3648 6.31139E-03-5.20653E-04-2.00115E-14
 -1      3649 1.38295E-03-1.40410E-04-3.00882E-15
 -1      3650 1.35660E-03-1.27268E-04-2.83344E-15
 -1      3651 1.33606E-03-1.36722E-04-2.76502E-15
 -1      3652 6.45826E-03-4.79731E-04-2.06732E-14
 -1      3653 1.15330E-03 2.32953E-05-1.48208E-15
 -1      3654 1.11943E-03-5.17474E-06-1.51676E-15
 -1      3655 1.08826E-03-2.94261E-05-1.54775E-15
 -1      3656 1.06261E-03-4.93525E-05-1.57574E-15
 -1      3657 1.20764E-03-2.18084E-05-1.79908E-15
 -1      3658 2.10229E-03 2.76184E-04-3.10865E-15
 -1      3659 1.97331E-03 2.03606E-04-2.96878E-15
 -1      3660 2.27680E-03 3.14948E-04-3.54191E-15
 -1      3661 6.61341E-03-2.74241E-04-2.52880E-14
 -1      3662 6.47062E-03-2.47545E-04-2.40522E-14
 -1      3663 5.55217E-03-2.21147E-05-1.73252E-14
 -1      3664 1.59487E-03-2.05525E-04-3.36267E-15
 -1      3665 1.30304E-03-1.47488E-04-2.43485E-15
 -1      3666 1.27233E-03-1.35578E-04-2.41860E-15
 -1      3667 6.02716E-03-1.56954E-04-2.04987E-14
 -1      3668 5.87149E-03-1.20048E-04-1.93660E-14
 -1      3669 6.78637E-03-5.95330E-04-2.49990E-14
 -1      3670 6.90552E-03-6.18787E-04-2.62705E-14
 -1      3671 7.02687E-03-6.43140E-04-2.75654E-14
 -1      3672 7.15078E-03-6.68838E-04-2.88835E-14
 -1      3673 6.96690E-03-6.06137E-04-2.67859E-14
 -1      3674 7.27665E-03-6.95353E-04-3.02233E-14
 -1      3675 7.40454E-03-7.22859E-04-3.15842E-14
 -1      3676 7.20839E-03-6.56269E-04-2.94126E-14
 -1      3677 7.53409E-03-7.50996E-04-3.29662E-14
 -1      3678 7.66528E-03-7.79855E-04-3.43688E-14
 -1      3679 7.45965E-03-7.09791E-04-3.21259E-14
 -1      3680 7.79784E-03-8.09132E-04-3.57919E-14
 -1      3681 7.93171E-03-8.38872E-04-3.72368E-14
 -1      3682 7.71859E-03-7.65966E-04-3.49248E-14
 -1      3683 8.06668E-03-8.68838E-04-3.87018E-14
 -1      3684 8.20271E-03-8.99053E-04-4.01881E-14
 -1      3685 7.98365E-03-8.23974E-04-3.78045E-14
 -1      3686 8.33960E-03-9.29339E-04-4.16943E-14
 -1      3687 8.47731E-03-9.59713E-04-4.32194E-14
 -1      3688 8.25356E-03-8.83062E-04-4.07684E-14
 -1      3689 8.61571E-03-9.90048E-04-4.47652E-14
 -1      3690 8.75475E-03-1.02036E-03-4.63319E-14
 -1      3691 8.52731E-03-9.42630E-04-4.38147E-14
 -1      3692 8.89431E-03-1.05056E-03-4.79166E-14
 -1      3693 9.03437E-03-1.08066E-03-4.95182E-14
 -1      3694 8.80407E-03-1.00224E-03-4.69390E-14
 -1      3695 9.17483E-03-1.11062E-03-5.11359E-14
 -1      3696 9.31567E-03-1.14044E-03-5.27673E-14
 -1      3697 9.08316E-03-1.06160E-03-5.01363E-14
 -1      3698 9.45681E-03-1.17010E-03-5.44171E-14
 -1      3699 9.59823E-03-1.19960E-03-5.60797E-14
 -1      3700 9.36405E-03-1.12055E-03-5.33975E-14
 -1      3701 9.73988E-03-1.22895E-03-5.77555E-14
 -1      3702 9.88175E-03-1.25814E-03-5.94452E-14
 -1      3703 9.64631E-03-1.17900E-03-5.67163E-14
 -1      3704 1.00238E-02-1.28718E-03-6.11492E-14
 -1      3705 1.01660E-02-1.31608E-03-6.28678E-14
 -1      3706 9.92960E-03-1.23694E-03-6.00926E-14
 -1      3707 1.03083E-02-1.34485E-03-6.45960E-14
 -1      3708 1.04507E-02-1.37349E-03-6.63350E-14
 -1      3709 1.02137E-02-1.29439E-03-6.35210E-14
 -1      3710 1.05932E-02-1.40201E-03-6.80874E-14
 -1      3711 1.07358E-02-1.43043E-03-6.98505E-14
 -1      3712 1.04983E-02-1.35140E-03-6.69980E-14
 -1      3713 1.08784E-02-1.45875E-03-7.16219E-14
 -1      3714 1.10211E-02-1.48697E-03-7.34021E-14
 -1      3715 1.07833E-02-1.40802E-03-7.05172E-14
 -1      3716 1.11639E-02-1.51512E-03-7.51909E-14
 -1      3717 1.13067E-02-1.54319E-03-7.69905E-14
 -1      3718 1.10686E-02-1.46431E-03-7.40746E-14
 -1      3719 1.14495E-02-1.57120E-03-7.88013E-14
 -1      3720 1.15923E-02-1.59915E-03-8.06160E-14
 -1      3721 1.13541E-02-1.52034E-03-7.76697E-14
 -1      3722 1.17352E-02-1.62705E-03-8.24390E-14
 -1      3723 1.18780E-02-1.65490E-03-8.42717E-14
 -1      3724 1.16397E-02-1.57615E-03-8.12993E-14
 -1      3725 1.20209E-02-1.68271E-03-8.61108E-14
 -1      3726 1.21638E-02-1.71049E-03-8.79568E-14
 -1      3727 1.19255E-02-1.63180E-03-8.49606E-14
 -1      3728 1.23067E-02-1.73824E-03-8.98056E-14
 -1      3729 1.24496E-02-1.76596E-03-9.16561E-14
 -1      3730 1.22112E-02-1.68731E-03-8.86483E-14
 -1      3731 1.25925E-02-1.79365E-03-9.35148E-14
 -1      3732 1.27354E-02-1.82133E-03-9.53759E-14
 -1      3733 1.24970E-02-1.74272E-03-9.23529E-14
 -1      3734 1.28783E-02-1.84900E-03-9.72367E-14
 -1      3735 1.30212E-02-1.87665E-03-9.90999E-14
 -1      3736 1.27828E-02-1.79806E-03-9.60710E-14
 -1      3737 1.31640E-02-1.90428E-03-1.00966E-13
 -1      3738 1.33069E-02-1.93191E-03-1.02838E-13
 -1      3739 1.30686E-02-1.85335E-03-9.97955E-14
 -1      3740 1.36799E-02-1.88149E-03-1.08025E-13
 -1      3741 1.36528E-02-1.83932E-03-1.07743E-13
 -1      3742 6.89468E-03-3.24572E-04-2.78337E-14
 -1      3743 6.75456E-03-2.99726E-04-2.65476E-14
 -1      3744 6.73124E-03-3.24277E-04-2.61131E-14
 -1      3745 7.17291E-03-3.72793E-04-3.04762E-14
 -1      3746 7.03399E-03-3.48833E-04-2.91431E-14
 -1      3747 7.00615E-03-3.71570E-04-2.86915E-14
 -1      3748 7.45013E-03-4.20151E-04-3.32087E-14
 -1      3749 7.31153E-03-3.96521E-04-3.18314E-14
 -1      3750 7.27976E-03-4.18238E-04-3.13630E-14
 -1      3751 7.72755E-03-4.67390E-04-3.60325E-14
 -1      3752 7.58875E-03-4.43754E-04-3.46103E-14
 -1      3753 7.55364E-03-4.65021E-04-3.41245E-14
 -1      3754 8.00578E-03-5.14971E-04-3.89438E-14
 -1      3755 7.86652E-03-4.91123E-04-3.74761E-14
 -1      3756 7.82864E-03-5.12309E-04-3.69757E-14
 -1      3757 8.28511E-03-5.63166E-04-4.19381E-14
 -1      3758 8.14529E-03-5.38986E-04-4.04310E-14
 -1      3759 8.10514E-03-5.60309E-04-3.99111E-14
 -1      3760 8.56560E-03-6.12122E-04-4.50128E-14
 -1      3761 8.42521E-03-5.87549E-04-4.34648E-14
 -1      3762 8.38322E-03-6.09121E-04-4.29322E-14
 -1      3763 8.84719E-03-6.61898E-04-4.81685E-14
 -1      3764 8.70626E-03-6.36911E-04-4.65816E-14
 -1      3765 8.66281E-03-6.58773E-04-4.60316E-14
 -1      3766 9.12973E-03-7.12489E-04-5.13942E-14
 -1      3767 8.98834E-03-6.87097E-04-4.97723E-14
 -1      3768 8.94375E-03-7.09247E-04-4.92088E-14
 -1      3769 9.41309E-03-7.63851E-04-5.46862E-14
 -1      3770 9.27131E-03-7.38081E-04-5.30335E-14
 -1      3771 9.22584E-03-7.60493E-04-5.24563E-14
 -1      3772 9.69710E-03-8.15913E-04-5.80356E-14
 -1      3773 9.55502E-03-7.89802E-04-5.63545E-14
 -1      3774 9.50888E-03-8.12440E-04-5.57648E-14
 -1      3775 9.98162E-03-8.68593E-04-6.14359E-14
 -1      3776 9.83930E-03-8.42183E-04-5.97290E-14
 -1      3777 9.79268E-03-8.65007E-04-5.91306E-14
 -1      3778 1.02665E-02-9.21802E-04-6.48838E-14
 -1      3779 1.01240E-02-8.95137E-04-6.31552E-14
 -1      3780 1.00771E-02-9.18109E-04-6.25448E-14
 -1      3781 1.05518E-02-9.75456E-04-6.83740E-14
 -1      3782 1.04091E-02-9.48579E-04-6.66243E-14
 -1      3783 1.03619E-02-9.71664E-04-6.60057E-14
 -1      3784 1.08372E-02-1.02948E-03-7.19029E-14
 -1      3785 1.06944E-02-1.00242E-03-7.01327E-14
 -1      3786 1.06470E-02-1.02559E-03-6.95076E-14
 -1      3787 1.11228E-02-1.08379E-03-7.54668E-14
 -1      3788 1.09800E-02-1.05660E-03-7.36805E-14
 -1      3789 1.09324E-02-1.07983E-03-7.30477E-14
 -1      3790 1.14084E-02-1.13834E-03-7.90682E-14
 -1      3791 1.12656E-02-1.11104E-03-7.72633E-14
 -1      3792 1.12180E-02-1.13431E-03-7.66241E-14
 -1      3793 1.16942E-02-1.19308E-03-8.27010E-14
 -1      3794 1.15513E-02-1.16569E-03-8.08793E-14
 -1      3795 1.15037E-02-1.18899E-03-8.02338E-14
 -1      3796 1.19799E-02-1.24795E-03-8.63656E-14
 -1      3797 1.18370E-02-1.22050E-03-8.45306E-14
 -1      3798 1.17894E-02-1.24382E-03-8.38784E-14
 -1      3799 1.22657E-02-1.30293E-03-9.00526E-14
 -1      3800 1.21228E-02-1.27543E-03-8.82061E-14
 -1      3801 1.20752E-02-1.29876E-03-8.75519E-14
 -1      3802 1.25515E-02-1.35799E-03-9.37564E-14
 -1      3803 1.24086E-02-1.33045E-03-9.19029E-14
 -1      3804 1.23610E-02-1.35378E-03-9.12440E-14
 -1      3805 1.28373E-02-1.41310E-03-9.74837E-14
 -1      3806 1.26944E-02-1.38554E-03-9.56185E-14
 -1      3807 1.26468E-02-1.40887E-03-9.49534E-14
 -1      3808 1.31231E-02-1.46825E-03-1.01230E-13
 -1      3809 1.29802E-02-1.44067E-03-9.93529E-14
 -1      3810 1.29326E-02-1.46400E-03-9.86846E-14
 -1      3811 1.33747E-02-1.51895E-03-1.04541E-13
 -1      3812 1.32318E-02-1.49136E-03-1.02657E-13
 -1      3813 1.31842E-02-1.51470E-03-1.01982E-13
 -1      3814 1.34016E-02-1.56093E-03-1.04840E-13
 -1      3815 2.70326E-03 4.73118E-04-4.53729E-15
 -1      3816 6.53378E-03-4.48744E-04-2.19845E-14
 -1      3817 6.56611E-03-4.72486E-04-2.20287E-14
 -1      3818 1.36256E-02-1.79716E-03-1.07457E-13
 -1      3819 1.35985E-02-1.75499E-03-1.07169E-13
 -1      3820 1.35154E-02-1.79434E-03-1.05967E-13
 -1      3821 1.37235E-02-1.98502E-03-1.08392E-13
 -1      3822 1.37021E-02-1.92583E-03-1.08232E-13
 -1      3823 1.35647E-02-1.88084E-03-1.06459E-13
 -1      3824 1.36090E-02-1.96952E-03-1.06864E-13
 -1      3825 6.42761E-03-5.33254E-04-2.11711E-14
 -1      3826 1.23250E-03 8.71741E-05-1.43764E-15
 -1      3827 1.19628E-03 5.08878E-05-1.47930E-15
 -1      3828 1.29391E-03 3.70281E-05-1.75994E-15
 -1      3829 1.39155E-03 1.05870E-04-1.74521E-15
 -1      3830 1.03211E-03-8.50779E-05-1.63193E-15
 -1      3831 1.03888E-03-9.64851E-05-1.64883E-15
 -1      3832 1.12785E-03-1.08883E-04-1.93092E-15
 -1      3833 1.28045E-03-1.51872E-04-2.26620E-15
 -1      3834 1.55765E-03-2.90640E-05-2.76469E-15
 -1      3835 1.67007E-03 1.98555E-05-2.83457E-15
 -1      3836 1.81860E-03 1.25378E-04-2.80642E-15
 -1      3837 2.52248E-03 4.19457E-04-4.03857E-15
 -1      3838 6.55727E-03-4.93865E-04-2.18820E-14
 -1      3839 6.50586E-03-5.09509E-04-2.15313E-14
 -1      3840 6.55359E-03-5.43914E-04-2.24001E-14
 -1      3841 6.66542E-03-5.64991E-04-2.36212E-14
 -1      3842 1.04651E-03-6.22526E-05-1.59487E-15
 -1      3843 1.03497E-03-7.58718E-05-1.61701E-15
 -1      3844 1.12226E-03-8.73171E-05-1.89525E-15
 -1      3845 1.15020E-03-6.29073E-05-1.85545E-15
 -1      3846 6.32587E-03-2.19653E-04-2.28409E-14
 -1      3847 6.17819E-03-1.89424E-04-2.16564E-14
 -1      3848 6.45232E-03-2.74906E-04-2.36335E-14
 -1      3849 5.78672E-03-1.13772E-04-1.86575E-14
 -1      3850 5.62386E-03-9.75053E-05-1.73382E-14
 -1      3851 5.78336E-03-1.80596E-04-1.79627E-14
 -1      3852 5.93754E-03-1.87098E-04-1.93813E-14
 -1      3853 6.73066E-03-5.52268E-04-2.41199E-14
 -1      3854 6.16494E-03-2.20708E-04-2.12543E-14
 -1      3855 6.64224E-03-5.00398E-04-2.29176E-14
 -1      3856 1.33048E-03-1.09213E-04-2.62908E-15
 -1      3857 1.45246E-03-1.84371E-04-2.78994E-15
 -1      3858 1.34008E-02-1.94297E-03-1.04089E-13
 -1      3859 1.35152E-02-1.95847E-03-1.05609E-13
 -1      3860 1.34930E-02-1.91414E-03-1.05409E-13
 -1      3861 1.33054E-02-1.89203E-03-1.02908E-13
 -1      3862 6.09288E-03-3.06655E-04-1.93563E-14
 -1      3863 6.25171E-03-3.45351E-04-2.04896E-14
 -1      3864 1.35489E-02-1.71155E-03-1.06578E-13
 -1      3865 1.34993E-02-1.66811E-03-1.05985E-13
 -1      3866 1.34387E-02-1.70873E-03-1.05090E-13
 -1      3867 6.49951E-03-4.24933E-04-2.20198E-14
 -1      3868 6.62010E-03-4.56119E-04-2.30979E-14
 -1      3869 5.94221E-03-2.45175E-04-1.87195E-14
 -1      3870 6.46590E-03-4.08487E-04-2.19290E-14
 -1      3871 1.43814E-03 3.92282E-05-2.10991E-15
 -1      3872 1.38434E-03 6.12347E-06-2.11363E-15
 -1      3873 1.45592E-03-4.62724E-05-2.57771E-15
 -1      3874 1.58341E-03 5.67544E-05-2.42096E-15
 -1      3875 1.55703E-03 1.27241E-04-2.08262E-15
 -1      3876 1.33663E-03-2.85265E-05-2.15514E-15
 -1      3877 1.22070E-03-1.22281E-04-2.26451E-15
 -1      3878 6.38902E-03-3.72595E-04-2.16596E-14
 -1      3879 6.52110E-03-3.97846E-04-2.28553E-14
 -1      3880 6.30412E-03-3.30302E-04-2.13845E-14
 -1      3881 6.74142E-03-5.35586E-04-2.41337E-14
 -1      3882 6.86068E-03-5.65088E-04-2.55216E-14
 -1      3883 6.97487E-03-5.88173E-04-2.67981E-14
 -1      3884 6.75461E-03-5.11800E-04-2.42829E-14
 -1      3885 6.37730E-03-3.06599E-04-2.25086E-14
 -1      3886 6.23981E-03-2.83122E-04-2.13293E-14
 -1      3887 7.13877E-03-6.19117E-04-2.86059E-14
 -1      3888 7.26033E-03-6.44353E-04-2.99375E-14
 -1      3889 7.38435E-03-6.70244E-04-3.12888E-14
 -1      3890 7.51064E-03-6.96991E-04-3.26624E-14
 -1      3891 7.30755E-03-6.32258E-04-3.04562E-14
 -1      3892 7.63887E-03-7.24245E-04-3.40589E-14
 -1      3893 7.76887E-03-7.52131E-04-3.54746E-14
 -1      3894 7.55821E-03-6.83906E-04-3.31964E-14
 -1      3895 7.90041E-03-7.80365E-04-3.69108E-14
 -1      3896 8.03335E-03-8.09013E-04-3.83685E-14
 -1      3897 7.81661E-03-7.37969E-04-3.60211E-14
 -1      3898 8.16750E-03-8.37862E-04-3.98468E-14
 -1      3899 8.30277E-03-8.66951E-04-4.13468E-14
 -1      3900 8.08116E-03-7.93715E-04-3.89283E-14
 -1      3901 8.43900E-03-8.96123E-04-4.28669E-14
 -1      3902 8.57611E-03-9.25402E-04-4.44063E-14
 -1      3903 8.35057E-03-8.50515E-04-4.19214E-14
 -1      3904 8.71397E-03-9.54679E-04-4.59657E-14
 -1      3905 8.85252E-03-9.83973E-04-4.75444E-14
 -1      3906 8.62386E-03-9.07875E-04-4.49962E-14
 -1      3907 8.99165E-03-1.01321E-03-4.91387E-14
 -1      3908 9.13133E-03-1.04240E-03-5.07498E-14
 -1      3909 8.90021E-03-9.65437E-04-4.81448E-14
 -1      3910 9.27146E-03-1.07150E-03-5.23785E-14
 -1      3911 9.41200E-03-1.10053E-03-5.40226E-14
 -1      3912 9.17896E-03-1.02296E-03-5.13632E-14
 -1      3913 9.55289E-03-1.12945E-03-5.56795E-14
 -1      3914 9.69409E-03-1.15828E-03-5.73501E-14
 -1      3915 9.45957E-03-1.08030E-03-5.46445E-14
 -1      3916 9.83556E-03-1.18700E-03-5.90372E-14
 -1      3917 9.97726E-03-1.21563E-03-6.07377E-14
 -1      3918 9.74162E-03-1.13739E-03-5.79834E-14
 -1      3919 1.01192E-02-1.24416E-03-6.24492E-14
 -1      3920 1.02612E-02-1.27260E-03-6.41726E-14
 -1      3921 1.00248E-02-1.19419E-03-6.13794E-14
 -1      3922 1.04035E-02-1.30095E-03-6.59101E-14
 -1      3923 1.05458E-02-1.32922E-03-6.76580E-14
 -1      3924 1.03087E-02-1.25070E-03-6.48256E-14
 -1      3925 1.06882E-02-1.35742E-03-6.94153E-14
 -1      3926 1.08308E-02-1.38554E-03-7.11820E-14
 -1      3927 1.05933E-02-1.30696E-03-6.83150E-14
 -1      3928 1.09734E-02-1.41360E-03-7.29581E-14
 -1      3929 1.11161E-02-1.44160E-03-7.47434E-14
 -1      3930 1.08782E-02-1.36299E-03-7.18440E-14
 -1      3931 1.12588E-02-1.46955E-03-7.65402E-14
 -1      3932 1.14016E-02-1.49745E-03-7.83463E-14
 -1      3933 1.11635E-02-1.41883E-03-7.54126E-14
 -1      3934 1.15444E-02-1.52530E-03-8.01601E-14
 -1      3935 1.16872E-02-1.55312E-03-8.19807E-14
 -1      3936 1.14490E-02-1.47451E-03-7.90187E-14
 -1      3937 1.18301E-02-1.58091E-03-8.38078E-14
 -1      3938 1.19729E-02-1.60867E-03-8.56471E-14
 -1      3939 1.17347E-02-1.53006E-03-8.26585E-14
 -1      3940 1.21158E-02-1.63640E-03-8.74904E-14
 -1      3941 1.22587E-02-1.66411E-03-8.93358E-14
 -1      3942 1.20204E-02-1.58551E-03-8.63303E-14
 -1      3943 1.24016E-02-1.69180E-03-9.11898E-14
 -1      3944 1.25445E-02-1.71947E-03-9.30468E-14
 -1      3945 1.23062E-02-1.64089E-03-9.00253E-14
 -1      3946 1.26874E-02-1.74713E-03-9.49032E-14
 -1      3947 1.28303E-02-1.77477E-03-9.67619E-14
 -1      3948 1.25920E-02-1.69620E-03-9.37349E-14
 -1      3949 1.29732E-02-1.80241E-03-9.86244E-14
 -1      3950 1.31161E-02-1.83004E-03-1.00488E-13
 -1      3951 1.28778E-02-1.75148E-03-9.74510E-14
 -1      3952 6.84552E-03-3.71058E-04-2.69437E-14
 -1      3953 6.71055E-03-3.48367E-04-2.56754E-14
 -1      3954 7.65508E-03-5.08991E-04-3.50442E-14
 -1      3955 7.51930E-03-4.85506E-04-3.36371E-14
 -1      3956 7.92811E-03-5.56699E-04-3.79216E-14
 -1      3957 7.79132E-03-5.32733E-04-3.64724E-14
 -1      3958 7.75443E-03-5.52364E-04-3.59665E-14
 -1      3959 8.20324E-03-6.05366E-04-4.08852E-14
 -1      3960 8.06541E-03-5.80923E-04-3.93920E-14
 -1      3961 8.02599E-03-6.00797E-04-3.88715E-14
 -1      3962 8.48038E-03-6.54953E-04-4.39291E-14
 -1      3963 8.34156E-03-6.30056E-04-4.23977E-14
 -1      3964 8.30015E-03-6.50325E-04-4.18606E-14
 -1      3965 8.75932E-03-7.05401E-04-4.70550E-14
 -1      3966 8.61963E-03-6.80081E-04-4.54827E-14
 -1      3967 8.57665E-03-7.00807E-04-4.49313E-14
 -1      3968 9.03981E-03-7.56631E-04-5.02532E-14
 -1      3969 8.89938E-03-7.30929E-04-4.86451E-14
 -1      3970 8.85518E-03-7.52115E-04-4.80795E-14
 -1      3971 9.32160E-03-8.08562E-04-5.35194E-14
 -1      3972 9.18056E-03-7.82519E-04-5.18771E-14
 -1      3973 9.13541E-03-8.04132E-04-5.12981E-14
 -1      3974 9.60444E-03-8.61106E-04-5.68440E-14
 -1      3975 9.46290E-03-8.34766E-04-5.51746E-14
 -1      3976 9.41704E-03-8.56756E-04-5.45819E-14
 -1      3977 9.88810E-03-9.14179E-04-6.02246E-14
 -1      3978 9.74618E-03-8.87584E-04-5.85291E-14
 -1      3979 9.69978E-03-9.09893E-04-5.79243E-14
 -1      3980 1.01724E-02-9.67698E-04-6.36553E-14
 -1      3981 1.00302E-02-9.40889E-04-6.19328E-14
 -1      3982 9.98339E-03-9.63460E-04-6.13208E-14
 -1      3983 1.04572E-02-1.02159E-03-6.71280E-14
 -1      3984 1.03147E-02-9.94603E-04-6.53870E-14
 -1      3985 1.02677E-02-1.01738E-03-6.47642E-14
 -1      3986 1.07423E-02-1.07579E-03-7.06418E-14
 -1      3987 1.05997E-02-1.04866E-03-6.88795E-14
 -1      3988 1.05524E-02-1.07160E-03-6.82506E-14
 -1      3989 1.10277E-02-1.13023E-03-7.41915E-14
 -1      3990 1.08850E-02-1.10298E-03-7.24123E-14
 -1      3991 1.08376E-02-1.12605E-03-7.17754E-14
 -1      3992 1.13132E-02-1.18487E-03-7.77817E-14
 -1      3993 1.11705E-02-1.15753E-03-7.59813E-14
 -1      3994 1.11229E-02-1.18069E-03-7.53369E-14
 -1      3995 1.15989E-02-1.23967E-03-8.14002E-14
 -1      3996 1.14561E-02-1.21225E-03-7.95871E-14
 -1      3997 1.14085E-02-1.23547E-03-7.89367E-14
 -1      3998 1.18847E-02-1.29458E-03-8.50588E-14
 -1      3999 1.17418E-02-1.26711E-03-8.32264E-14
 -1      4000 1.16942E-02-1.29038E-03-8.25708E-14
 -1      4001 1.21704E-02-1.34958E-03-8.87380E-14
 -1      4002 1.20275E-02-1.32207E-03-8.68968E-14
 -1      4003 1.19799E-02-1.34537E-03-8.62376E-14
 -1      4004 1.24562E-02-1.40465E-03-9.24342E-14
 -1      4005 1.23133E-02-1.37711E-03-9.05834E-14
 -1      4006 1.22657E-02-1.40043E-03-8.99231E-14
 -1      4007 1.27420E-02-1.45977E-03-9.61494E-14
 -1      4008 1.25991E-02-1.43221E-03-9.42903E-14
 -1      4009 1.25515E-02-1.45553E-03-9.36257E-14
 -1      4010 1.30278E-02-1.51492E-03-9.98835E-14
 -1      4011 1.28849E-02-1.48734E-03-9.80142E-14
 -1      4012 1.28373E-02-1.51067E-03-9.73433E-14
 -1      4013 1.34053E-02-1.79151E-03-1.04479E-13
 -1      4014 1.33781E-02-1.74935E-03-1.04193E-13
 -1      4015 6.72651E-03-4.68750E-04-2.43654E-14
 -1      4016 6.74594E-03-4.91201E-04-2.43286E-14
 -1      4017 6.86509E-03-5.27437E-04-2.55803E-14
 -1      4018 1.21083E-03-1.10194E-04-2.24269E-15
 -1      4019 1.34752E-02-1.63624E-03-1.05714E-13
 -1      4020 1.34257E-02-1.59280E-03-1.05115E-13
 -1      4021 1.33169E-02-1.56968E-03-1.03685E-13
 -1      4022 1.33650E-02-1.63342E-03-1.04229E-13
 -1      4023 7.11451E-03-4.16357E-04-2.95533E-14
 -1      4024 6.97998E-03-3.93648E-04-2.82365E-14
 -1      4025 6.95545E-03-4.15070E-04-2.77797E-14
 -1      4026 1.28719E-03-6.54041E-05-2.22448E-15
 -1      4027 6.61111E-03-3.38543E-04-2.46879E-14
 -1      4028 6.47558E-03-3.15772E-04-2.34624E-14
 -1      4029 6.53810E-03-3.66979E-04-2.35333E-14
 -1      4030 6.72705E-03-3.84045E-04-2.54927E-14
 -1      4031 7.38403E-03-4.62241E-04-3.22525E-14
 -1      4032 7.24909E-03-4.39203E-04-3.08912E-14
 -1      4033 7.21944E-03-4.59390E-04-3.04177E-14
 -1      4034 7.48560E-03-5.05179E-04-3.31477E-14
 -1      4035 1.21539E-03-9.99812E-05-2.22351E-15
 -1      4036 1.26024E-03-8.24646E-05-2.25019E-15
 -1      4037 7.02225E-03-5.77142E-04-2.73025E-14
 -1      4038 1.34602E-02-1.87499E-03-1.05050E-13
 -1      4039 1.34381E-02-1.83066E-03-1.04844E-13
 -1      4040 1.33007E-02-1.78567E-03-1.03077E-13
 -1      4041 1.33664E-02-1.86395E-03-1.03801E-13
 -1      4042 1.31943E-02-1.84147E-03-1.01519E-13
 -1      4043 1.32882E-02-1.85252E-03-1.02767E-13
 -1      4044 1.32553E-02-1.81338E-03-1.02406E-13
 -1      4045 1.30989E-02-1.79053E-03-1.00343E-13
 -1      4046 1.33285E-02-1.70591E-03-1.03605E-13
 -1      4047 1.32789E-02-1.66248E-03-1.03015E-13
 -1      4048 1.32183E-02-1.70309E-03-1.02126E-13
 -1      4049 1.32268E-02-1.55386E-03-1.02498E-13
 -1      4050 1.31180E-02-1.53074E-03-1.01072E-13
 -1      4051 1.30704E-02-1.55408E-03-1.00396E-13
 -1      4052 1.32508E-02-1.58573E-03-1.02770E-13
 -1      4053 6.01202E-03-2.45539E-04-1.94394E-14
 -1      4054 6.08410E-03-2.45913E-04-2.01668E-14
 -1      4055 6.69097E-03-4.40633E-04-2.43189E-14
 -1      4056 6.83060E-03-4.79639E-04-2.55802E-14
 -1      4057 6.62735E-03-4.06779E-04-2.40358E-14
 -1      4058 7.47574E-03-6.44666E-04-3.23375E-14
 -1      4059 7.60277E-03-6.70397E-04-3.37265E-14
 -1      4060 7.73163E-03-6.96593E-04-3.51349E-14
 -1      4061 7.86212E-03-7.23378E-04-3.65642E-14
 -1      4062 7.64507E-03-6.56145E-04-3.42523E-14
 -1      4063 7.99406E-03-7.50497E-04-3.80148E-14
 -1      4064 8.12730E-03-7.78012E-04-3.94869E-14
 -1      4065 7.90591E-03-7.08144E-04-3.71044E-14
 -1      4066 8.26169E-03-8.05736E-04-4.09811E-14
 -1      4067 8.39714E-03-8.33707E-04-4.24960E-14
 -1      4068 8.17213E-03-7.61743E-04-4.00431E-14
 -1      4069 8.53350E-03-8.61792E-04-4.40295E-14
 -1      4070 8.67070E-03-8.90015E-04-4.55835E-14
 -1      4071 8.44271E-03-8.16405E-04-4.30665E-14
 -1      4072 8.80864E-03-9.18280E-04-4.71555E-14
 -1      4073 8.94723E-03-9.46608E-04-4.87432E-14
 -1      4074 8.71681E-03-8.71725E-04-4.61668E-14
 -1      4075 9.08641E-03-9.74933E-04-5.03501E-14
 -1      4076 9.22611E-03-1.00327E-03-5.19742E-14
 -1      4077 8.99372E-03-9.27413E-04-4.93408E-14
 -1      4078 9.36626E-03-1.03158E-03-5.36126E-14
 -1      4079 9.50681E-03-1.05986E-03-5.52657E-14
 -1      4080 9.27288E-03-9.83269E-04-5.25820E-14
 -1      4081 9.64771E-03-1.08811E-03-5.69321E-14
 -1      4082 9.78892E-03-1.11631E-03-5.86149E-14
 -1      4083 9.55378E-03-1.03917E-03-5.58835E-14
 -1      4084 9.93039E-03-1.14447E-03-6.03123E-14
 -1      4085 1.00721E-02-1.17259E-03-6.20204E-14
 -1      4086 9.83604E-03-1.09503E-03-5.92451E-14
 -1      4087 1.02140E-02-1.20066E-03-6.37400E-14
 -1      4088 1.03561E-02-1.22868E-03-6.54734E-14
 -1      4089 1.01193E-02-1.15082E-03-6.26590E-14
 -1      4090 1.04983E-02-1.25666E-03-6.72162E-14
 -1      4091 1.06407E-02-1.28460E-03-6.89693E-14
 -1      4092 1.04034E-02-1.20652E-03-6.61197E-14
 -1      4093 1.07831E-02-1.31250E-03-7.07335E-14
 -1      4094 1.09257E-02-1.34036E-03-7.25036E-14
 -1      4095 1.06881E-02-1.26213E-03-6.96228E-14
 -1      4096 1.10683E-02-1.36820E-03-7.42864E-14
 -1      4097 1.12110E-02-1.39600E-03-7.60789E-14
 -1      4098 1.09731E-02-1.31766E-03-7.31641E-14
 -1      4099 1.13537E-02-1.42377E-03-7.78801E-14
 -1      4100 1.14965E-02-1.45152E-03-7.96922E-14
 -1      4101 1.12584E-02-1.37311E-03-7.67432E-14
 -1      4102 1.16393E-02-1.47925E-03-8.15089E-14
 -1      4103 1.17822E-02-1.50696E-03-8.33347E-14
 -1      4104 1.15440E-02-1.42849E-03-8.03588E-14
 -1      4105 1.19250E-02-1.53465E-03-8.51706E-14
 -1      4106 1.20679E-02-1.56233E-03-8.70126E-14
 -1      4107 1.18297E-02-1.48383E-03-8.40112E-14
 -1      4108 1.22108E-02-1.59000E-03-8.88592E-14
 -1      4109 1.23537E-02-1.61765E-03-9.07122E-14
 -1      4110 1.21154E-02-1.53913E-03-8.76941E-14
 -1      4111 1.24966E-02-1.64529E-03-9.25649E-14
 -1      4112 1.26395E-02-1.67293E-03-9.44187E-14
 -1      4113 1.24012E-02-1.59439E-03-9.13929E-14
 -1      4114 1.27824E-02-1.70055E-03-9.62784E-14
 -1      4115 1.29253E-02-1.72818E-03-9.81391E-14
 -1      4116 1.26870E-02-1.64964E-03-9.51029E-14
 -1      4117 7.06093E-03-4.56638E-04-2.86196E-14
 -1      4118 6.93222E-03-4.35359E-04-2.73191E-14
 -1      4119 7.85176E-03-5.95321E-04-3.68924E-14
 -1      4120 7.71768E-03-5.71124E-04-3.54587E-14
 -1      4121 8.67210E-03-7.46755E-04-4.59355E-14
 -1      4122 8.53371E-03-7.20927E-04-4.43771E-14
 -1      4123 8.95045E-03-7.98968E-04-4.91055E-14
 -1      4124 8.81102E-03-7.72784E-04-4.75117E-14
 -1      4125 8.76682E-03-7.92912E-04-4.69412E-14
 -1      4126 9.23059E-03-8.51788E-04-5.23433E-14
 -1      4127 9.09031E-03-8.25314E-04-5.07167E-14
 -1      4128 9.04520E-03-8.46044E-04-5.01334E-14
 -1      4129 9.51219E-03-9.05102E-04-5.56449E-14
 -1      4130 9.37123E-03-8.78393E-04-5.39865E-14
 -1      4131 9.32542E-03-8.99658E-04-5.33897E-14
 -1      4132 9.79493E-03-9.58819E-04-5.90048E-14
 -1      4133 9.65343E-03-9.31918E-04-5.73188E-14
 -1      4134 9.60710E-03-9.53643E-04-5.67100E-14
 -1      4135 1.00786E-02-1.01286E-03-6.24176E-14
 -1      4136 9.93664E-03-9.85806E-04-6.07055E-14
 -1      4137 9.88993E-03-1.00791E-03-6.00870E-14
 -1      4138 1.03629E-02-1.06717E-03-6.58751E-14
 -1      4139 1.02206E-02-1.03999E-03-6.41404E-14
 -1      4140 1.01736E-02-1.06241E-03-6.35152E-14
 -1      4141 1.06476E-02-1.12169E-03-6.93703E-14
 -1      4142 1.05052E-02-1.09441E-03-6.76171E-14
 -1      4143 1.04580E-02-1.11707E-03-6.69834E-14
 -1      4144 1.09328E-02-1.17637E-03-7.29071E-14
 -1      4145 1.07902E-02-1.14901E-03-7.11346E-14
 -1      4146 1.07428E-02-1.17187E-03-7.04913E-14
 -1      4147 1.12182E-02-1.23119E-03-7.64835E-14
 -1      4148 1.10755E-02-1.20377E-03-7.46907E-14
 -1      4149 1.10280E-02-1.22677E-03-7.40416E-14
 -1      4150 1.15038E-02-1.28611E-03-8.00948E-14
 -1      4151 1.13610E-02-1.25864E-03-7.82851E-14
 -1      4152 1.13135E-02-1.28175E-03-7.76296E-14
 -1      4153 1.17895E-02-1.34112E-03-8.37413E-14
 -1      4154 1.16466E-02-1.31361E-03-8.19131E-14
 -1      4155 1.15991E-02-1.33680E-03-8.12542E-14
 -1      4156 1.20752E-02-1.39618E-03-8.74149E-14
 -1      4157 1.19323E-02-1.36864E-03-8.55753E-14
 -1      4158 1.18848E-02-1.39188E-03-8.49105E-14
 -1      4159 1.23610E-02-1.45128E-03-9.11076E-14
 -1      4160 1.22181E-02-1.42372E-03-8.92609E-14
 -1      4161 1.21705E-02-1.44701E-03-8.85940E-14
 -1      4162 1.26468E-02-1.50642E-03-9.48157E-14
 -1      4163 1.25039E-02-1.47885E-03-9.29592E-14
 -1      4164 1.24564E-02-1.50215E-03-9.22948E-14
 -1      4165 1.29327E-02-1.56158E-03-9.85362E-14
 -1      4166 1.27897E-02-1.53400E-03-9.66725E-14
 -1      4167 1.27422E-02-1.55732E-03-9.60021E-14
 -1      4168 7.02193E-03-5.55022E-04-2.73507E-14
 -1      4169 8.39593E-03-6.95289E-04-4.28405E-14
 -1      4170 8.25879E-03-6.69896E-04-4.13233E-14
 -1      4171 8.49070E-03-7.40412E-04-4.38226E-14
 -1      4172 8.12236E-03-6.44740E-04-3.98253E-14
 -1      4173 7.98665E-03-6.19884E-04-3.83483E-14
 -1      4174 7.94720E-03-6.38148E-04-3.78228E-14
 -1      4175 8.21733E-03-6.88739E-04-4.07823E-14
 -1      4176 7.22807E-03-5.95452E-04-2.96283E-14
 -1      4177 7.35074E-03-6.19742E-04-3.09717E-14
 -1      4178 7.39095E-03-6.06404E-04-3.14842E-14
 -1      4179 6.71786E-03-4.14812E-04-2.50182E-14
 -1      4180 6.94497E-03-5.10696E-04-2.67033E-14
 -1      4181 7.11744E-03-5.61967E-04-2.84617E-14
 -1      4182 7.15218E-03-5.48601E-04-2.89561E-14
 -1      4183 6.91862E-03-4.83196E-04-2.66542E-14
 -1      4184 1.31261E-02-1.70833E-03-1.00874E-13
 -1      4185 1.30765E-02-1.66490E-03-1.00287E-13
 -1      4186 7.32089E-03-5.00958E-04-3.12873E-14
 -1      4187 7.19040E-03-4.78562E-04-2.99425E-14
 -1      4188 7.16175E-03-4.96665E-04-2.94637E-14
 -1      4189 1.29071E-02-1.67370E-03-9.80004E-14
 -1      4190 1.30025E-02-1.72462E-03-9.91808E-14
 -1      4191 7.68087E-03-5.88969E-04-3.49497E-14
 -1      4192 7.58452E-03-5.47290E-04-3.40470E-14
 -1      4193 7.45220E-03-5.23901E-04-3.26559E-14
 -1      4194 1.31647E-02-1.61478E-03-1.01564E-13
 -1      4195 1.30745E-02-1.59895E-03-1.00376E-13
 -1      4196 6.81059E-03-4.23424E-04-2.60153E-14
 -1      4197 1.30269E-02-1.62228E-03-9.96978E-14
 -1      4198 1.32749E-02-1.61760E-03-1.03042E-13
 -1      4199 6.91463E-03-4.62535E-04-2.68265E-14
 -1      4200 7.03687E-03-4.96008E-04-2.79750E-14
 -1      4201 1.27642E-02-1.64609E-03-9.61416E-14
 -1      4202 1.28413E-02-1.64253E-03-9.71790E-14
 -1      4203 1.26213E-02-1.61848E-03-9.42852E-14
 -1      4204 1.32225E-02-1.77425E-03-1.02044E-13
 -1      4205 7.79588E-03-6.48473E-04-3.60272E-14
 -1      4206 7.92808E-03-6.73940E-04-3.74702E-14
 -1      4207 8.06147E-03-6.99719E-04-3.89324E-14
 -1      4208 8.19591E-03-7.25888E-04-4.04188E-14
 -1      4209 8.33132E-03-7.52275E-04-4.19252E-14
 -1      4210 8.46760E-03-7.78939E-04-4.34505E-14
 -1      4211 8.60468E-03-8.05749E-04-4.49957E-14
 -1      4212 8.74248E-03-8.32752E-04-4.65596E-14
 -1      4213 8.88092E-03-8.59851E-04-4.81428E-14
 -1      4214 9.01994E-03-8.87081E-04-4.97426E-14
 -1      4215 9.15948E-03-9.14371E-04-5.13592E-14
 -1      4216 9.29949E-03-9.41748E-04-5.29918E-14
 -1      4217 9.43990E-03-9.69162E-04-5.46374E-14
 -1      4218 9.58067E-03-9.96633E-04-5.63014E-14
 -1      4219 9.72177E-03-1.02413E-03-5.79791E-14
 -1      4220 9.86314E-03-1.05165E-03-5.96711E-14
 -1      4221 1.00048E-02-1.07919E-03-6.13761E-14
 -1      4222 1.01466E-02-1.10676E-03-6.30914E-14
 -1      4223 1.02886E-02-1.13432E-03-6.48197E-14
 -1      4224 1.04308E-02-1.16191E-03-6.65574E-14
 -1      4225 1.05731E-02-1.18949E-03-6.83040E-14
 -1      4226 1.07155E-02-1.21708E-03-7.00615E-14
 -1      4227 1.08580E-02-1.24468E-03-7.18287E-14
 -1      4228 1.10006E-02-1.27228E-03-7.36057E-14
 -1      4229 1.11432E-02-1.29988E-03-7.53928E-14
 -1      4230 1.12859E-02-1.32748E-03-7.71893E-14
 -1      4231 1.14287E-02-1.35508E-03-7.89957E-14
 -1      4232 1.15715E-02-1.38268E-03-8.08086E-14
 -1      4233 1.17143E-02-1.41028E-03-8.26327E-14
 -1      4234 1.18572E-02-1.43788E-03-8.44648E-14
 -1      4235 1.20001E-02-1.46548E-03-8.63035E-14
 -1      4236 1.21430E-02-1.49308E-03-8.81484E-14
 -1      4237 1.22859E-02-1.52068E-03-8.99979E-14
 -1      4238 1.24288E-02-1.54829E-03-9.18480E-14
 -1      4239 7.66491E-03-6.23543E-04-3.46074E-14
 -1      4240 1.30807E-02-1.73604E-03-1.00209E-13
 -1      4241 7.28090E-03-5.52075E-04-3.04743E-14
 -1      4242 7.40729E-03-5.75282E-04-3.18295E-14
 -1      4243 7.53537E-03-5.99043E-04-3.32078E-14
 -1      4244 1.27917E-02-1.59993E-03-9.65923E-14
 -1      4245 1.26488E-02-1.57233E-03-9.47360E-14
 -1      4246 1.29347E-02-1.62752E-03-9.84530E-14
 -1      4247 7.41887E-03-5.41621E-04-3.21630E-14
 -1      4248 1.25717E-02-1.57589E-03-9.37013E-14
 -1      4249 7.16106E-03-5.17456E-04-2.92887E-14
 -3
    1PSTEP                         2           1           1          
  100CL  101 1.000000000        4249                     0    1           1
 -4  STRESS      6    1
 -5  SXX         1    4    1    1
 -5  SYY         1    4    2    2
 -5  SZZ         1    4    3    3
 -5  SXY         1    4    1    2
 -5  SYZ         1    4    2    3
 -5  SZX         1    4    3    1
 -1         1 6.87361E+01 9.48365E-01 3.87789E+00-3.90573E-01-5.31693E-14 1.35721E-13
 -1         2-6.48038E-01-2.48773E+01-3.39159E+00 5.92494E-02 8.01706E-13-1.89501E-14
 -1         3 1.99998E+01 5.04761E-05-1.05740E-04 5.00246E-05-1.35422E-13-1.46185E-13
 -1         4 1.99999E+01 7.37913E-05-9.46194E-05-7.65852E-05 3.91044E-13-4.31145E-13
 -1         5 3.40556E+01 6.41529E+00 2.68126E+00 6.25648E+00-5.15629E-14 3.49168E-12
 -1         6 3.68647E+01 1.25310E+01 4.90523E+00-8.52320E+00-2.14717E-13 2.34274E-12
 -1         7 2.29854E+01 6.68836E+00 2.10752E-02-4.09617E+00-2.96985E-14 4.81525E-14
 -1         8 2.12766E+01 6.39790E+00 1.14260E-01-2.22993E+00-2.77764E-14-5.66186E-13
 -1         9 1.99765E+01 6.01714E+00 6.68887E-02-1.30570E+00-2.02477E-14-8.62007E-13
 -1        10 1.88854E+01 5.68831E+00 3.36233E-02-7.51377E-01-9.61731E-15-9.87376E-13
 -1        11 1.79755E+01 5.41454E+00 5.47023E-03-4.45487E-01-2.27943E-15-1.01623E-12
 -1        12 1.73030E+01 5.21160E+00-1.49075E-02-3.17347E-01 2.26902E-15-1.01623E-12
 -1        13 1.68934E+01 5.08820E+00-2.47407E-02-2.94009E-01 4.48079E-15-9.67888E-13
 -1        14 1.67812E+01 5.05407E+00-2.26842E-02-3.03649E-01 1.17687E-14-9.19654E-13
 -1        15 1.69480E+01 5.10376E+00-1.02370E-02-2.75348E-01 1.71616E-14-8.55061E-13
 -1        16 1.73418E+01 5.22177E+00 8.79235E-03-1.53758E-01 2.29435E-14-7.77511E-13
 -1        17 1.78947E+01 5.38763E+00 2.98106E-02 9.46140E-02 2.60937E-14-6.64738E-13
 -1        18 1.85320E+01 5.58034E+00 4.88513E-02 4.74668E-01 2.92162E-14-5.10427E-13
 -1        19 1.92413E+01 5.79583E+00 6.45324E-02 1.00626E+00 3.96801E-14-2.87040E-13
 -1        20 2.00252E+01 6.03588E+00 7.63866E-02 1.70286E+00 4.64212E-14 4.82479E-14
 -1        21 2.09985E+01 6.33718E+00 9.24705E-02 2.64316E+00 4.38330E-14 6.08914E-13
 -1        22 2.27714E+01 6.81249E+00 1.98554E-01 4.16447E+00 2.66454E-15 1.58290E-12
 -1        23 2.55503E+01-1.52786E+00-1.01170E+00-5.12978E-01-1.52552E-13 1.64087E-12
 -1        24 2.30469E+01-1.01709E-01-2.99321E-01 1.03672E-01-4.20514E-14 1.02582E-12
 -1        25 2.33821E+01-5.62290E-02-6.50726E-02 8.83055E-02-1.20229E-14 5.09544E-13
 -1        26 2.41913E+01-1.86837E-02-5.04635E-03 6.57121E-02 3.84946E-15 1.72660E-13
 -1        27 2.51878E+01 1.28694E-03 1.83100E-02 5.90105E-02 2.13385E-15-1.09985E-13
 -1        28 2.60800E+01 2.25047E-02 5.25357E-02 4.39848E-02-6.05700E-15-2.55934E-13
 -1        29 2.64704E+01 4.27070E-02 9.85508E-02 4.92908E-03-9.12118E-15-4.49564E-13
 -1        30 2.58947E+01 5.16544E-02 1.29834E-01-6.84821E-02 1.17874E-15-6.03094E-13
 -1        31 2.40557E+01 3.55283E-02 1.01510E-01-1.61766E-01 8.08078E-15-6.78381E-13
 -1        32 2.12371E+01-9.56965E-03-1.57080E-02-2.16559E-01-1.73995E-14-8.23307E-13
 -1        33 1.85543E+01-6.38641E-02-1.73432E-01-1.61677E-01 3.73516E-14-7.87599E-13
 -1        34 1.74903E+01-8.29859E-02-2.45270E-01 9.76739E-03-2.60555E-14-9.83158E-13
 -1        35 1.86265E+01-6.67250E-02-1.80091E-01 1.59338E-01-4.32336E-14-1.37002E-12
 -1        36 2.14271E+01-1.09960E-02-2.29364E-02 2.22978E-01 8.25505E-14-1.35177E-12
 -1        37 2.44268E+01 3.56803E-02 9.82582E-02 1.72331E-01-4.72222E-14-1.29798E-12
 -1        38 2.64652E+01 5.41686E-02 1.30658E-01 8.04304E-02-3.54868E-14-1.57766E-12
 -1        39 2.72143E+01 4.75501E-02 1.00807E-01 7.14005E-03 3.64743E-14-1.45294E-12
 -1        40 2.69410E+01 3.00645E-02 5.41546E-02-3.04348E-02-8.56518E-14-1.27180E-12
 -1        41 2.60883E+01 1.30348E-02 1.72817E-02-4.09184E-02 2.76405E-14-1.30001E-12
 -1        42 2.50238E+01 1.08896E-03-3.90000E-03-3.75659E-02-6.42227E-14-1.34107E-12
 -1        43 2.39735E+01-5.57608E-03-1.29900E-02-2.95303E-02-2.42843E-14-1.43264E-12
 -1        44 2.30465E+01-8.40377E-03-1.51065E-02-2.13256E-02 7.54076E-14-1.42595E-12
 -1        45 2.22788E+01-8.93190E-03-1.39868E-02-1.45788E-02-1.67669E-14-1.42289E-12
 -1        46 2.16682E+01-8.28500E-03-1.17362E-02-9.55115E-03 4.29904E-14-1.32302E-12
 -1        47 2.11958E+01-7.15447E-03-9.35441E-03-6.00186E-03 1.25415E-14-1.27981E-12
 -1        48 2.08379E+01-5.91685E-03-7.23612E-03-3.57970E-03-7.15952E-14-1.48479E-12
 -1        49 2.05717E+01-4.75442E-03-5.48942E-03-1.96821E-03 1.00526E-13-1.31462E-12
 -1        50 2.03770E+01-3.74084E-03-4.10359E-03-9.21956E-04-4.58203E-14-1.11907E-12
 -1        51 2.02371E+01-2.89395E-03-3.02774E-03-2.62798E-04-4.41414E-15-1.05776E-12
 -1        52 2.01387E+01-2.20540E-03-2.20406E-03 1.34600E-04-3.00278E-14-1.38139E-12
 -1        53 2.00711E+01-1.65637E-03-1.58006E-03 3.57171E-04-6.10398E-14-1.46234E-12
 -1        54 2.00262E+01-1.22527E-03-1.11195E-03 4.64869E-04-1.87301E-14-1.51077E-12
 -1        55 1.99977E+01-8.91335E-04-7.64449E-04 4.98934E-04-4.29404E-14-1.40601E-12
 -1        56 1.99808E+01-6.36031E-04-5.09652E-04 4.87636E-04-3.87965E-16-1.50813E-12
 -1        57 1.99719E+01-4.43481E-04-3.25610E-04 4.50229E-04 3.83722E-14-1.53342E-12
 -1        58 1.99683E+01-3.00398E-04-1.95145E-04 3.99655E-04-1.19638E-13-1.24390E-12
 -1        59 1.99683E+01-1.95842E-04-1.04852E-04 3.44432E-04-7.48278E-14-7.33095E-13
 -1        60 1.99703E+01-1.20915E-04-4.43143E-05 2.89973E-04-2.53804E-14-3.95747E-13
 -1        61 1.99736E+01-6.84547E-05-5.47978E-06 2.39532E-04-1.66090E-14-7.23976E-13
 -1        62 1.99773E+01-3.27457E-05 1.78411E-05 1.94877E-04-9.46162E-14-7.32779E-13
 -1        63 1.99812E+01-9.25785E-06 3.03857E-05 1.56776E-04 8.47478E-14-6.81484E-13
 -1        64 1.99849E+01 5.58936E-06 3.57910E-05 1.25330E-04 7.26988E-14-5.82332E-13
 -1        65 1.99883E+01 1.46356E-05 3.69168E-05 1.00190E-04-1.31390E-13-7.27315E-13
 -1        66 1.99914E+01 2.01629E-05 3.62036E-05 8.06512E-05-1.11481E-13-1.19584E-12
 -1        67 1.99940E+01 2.40328E-05 3.61201E-05 6.55590E-05 3.90163E-14-8.93229E-13
 -1        68 1.99963E+01 2.76952E-05 3.95693E-05 5.28765E-05-6.82797E-15-4.59008E-13
 -1        69 1.99981E+01 3.17434E-05 4.90724E-05 3.85401E-05-1.01210E-13-3.95803E-13
 -1        70 1.99993E+01 3.66442E-05 5.98578E-05 1.55640E-05-3.54553E-14-6.08669E-13
 -1        71 1.99999E+01 1.23975E-05 1.85803E-05-4.90032E-05-3.68794E-14-1.23350E-12
 -1        72 2.29337E+01-4.21494E-01-1.02326E+00-3.86428E-01 2.86889E-14 3.37584E-12
 -1        73 2.19248E+01-6.15202E-02-2.76667E-01-7.81743E-02 2.11311E-14 2.80334E-12
 -1        74 2.17528E+01-1.37689E-02-4.59219E-02-3.82868E-02 3.80701E-15 2.41090E-12
 -1        75 2.18481E+01-5.17960E-04 1.10233E-02-3.14126E-02 6.12469E-15 2.22851E-12
 -1        76 2.19409E+01 7.19509E-03 2.73765E-02-2.48671E-02-9.71337E-16 2.06762E-12
 -1        77 2.18426E+01 1.11381E-02 3.60767E-02-1.45031E-02 1.23267E-14 1.92168E-12
 -1        78 2.14204E+01 1.05099E-02 3.91503E-02 2.57998E-03 3.97013E-15 1.72817E-12
 -1        79 2.06212E+01 4.43348E-03 3.07998E-02 2.57557E-02-3.81661E-15 1.62770E-12
 -1        80 1.95236E+01-6.16023E-03 7.35105E-03 4.87591E-02-1.80660E-14 1.54952E-12
 -1        81 1.83643E+01-1.74897E-02-2.68526E-02 6.07118E-02 3.64764E-14 1.47457E-12
 -1        82 1.74890E+01-2.41907E-02-5.81576E-02 5.21200E-02 2.33019E-14 1.21857E-12
 -1        83 1.72142E+01-2.26448E-02-7.03979E-02 2.29753E-02-1.28415E-14 1.13314E-12
 -1        84 1.76662E+01-1.37254E-02-5.65505E-02-1.47410E-02 9.19317E-15 1.09729E-12
 -1        85 1.87095E+01-1.83446E-03-2.46817E-02-4.46322E-02 4.18377E-15 1.05243E-12
 -1        86 2.00229E+01 8.24630E-03 9.19726E-03-5.69088E-02 1.55357E-14 8.21322E-13
 -1        87 2.12598E+01 1.37613E-02 3.18402E-02-5.20487E-02-3.88364E-14 6.76705E-13
 -1        88 2.21811E+01 1.46304E-02 3.92183E-02-3.73051E-02-9.08746E-15 7.86019E-13
 -1        89 2.26998E+01 1.23320E-02 3.49163E-02-2.06308E-02 3.56009E-15 5.86298E-13
 -1        90 2.28494E+01 8.65344E-03 2.50445E-02-6.95616E-03-2.43639E-14 5.97353E-13
 -1        91 2.27244E+01 4.94589E-03 1.45612E-02 2.09765E-03 2.95214E-14 4.31082E-13
 -1        92 2.24309E+01 1.92702E-03 6.10285E-03 6.94045E-03 3.94061E-14 4.26151E-13
 -1        93 2.20585E+01-1.89169E-04 3.79447E-04 8.74559E-03-8.39954E-14 4.76408E-13
 -1        94 2.16714E+01-1.47408E-03-2.92009E-03 8.69490E-03 4.19160E-14 4.38013E-13
 -1        95 2.13090E+01-2.11414E-03-4.44658E-03 7.68923E-03-3.92686E-14 2.83276E-13
 -1        96 2.09919E+01-2.30971E-03-4.83511E-03 6.31630E-03 1.55078E-14 3.86419E-13
 -1        97 2.07277E+01-2.22983E-03-4.57613E-03 4.91506E-03 4.32630E-14 6.84934E-14
 -1        98 2.05158E+01-2.00002E-03-4.00274E-03 3.65568E-03-1.34641E-13 1.08293E-13
 -1        99 2.03513E+01-1.70545E-03-3.32115E-03 2.60528E-03-2.86921E-14 2.48670E-14
 -1       100 2.02274E+01-1.39954E-03-2.64831E-03 1.77354E-03 4.61453E-14-1.45607E-13
 -1       101 2.01369E+01-1.11288E-03-2.04335E-03 1.14155E-03-1.31499E-14-5.38994E-13
 -1       102 2.00728E+01-8.60675E-04-1.53020E-03 6.78706E-04-1.33669E-14-4.18719E-13
 -1       103 2.00291E+01-6.48423E-04-1.11266E-03 3.51989E-04-8.01459E-15-8.29490E-14
 -1       104 2.00007E+01-4.75827E-04-7.83945E-04 1.30664E-04 5.06608E-14-5.74509E-15
 -1       105 1.99834E+01-3.39465E-04-5.32480E-04-1.17388E-05-2.99066E-14 1.95059E-13
 -1       106 1.99740E+01-2.34485E-04-3.45249E-04-9.68831E-05-9.60529E-14 3.33769E-13
 -1       107 1.99700E+01-1.55648E-04-2.09644E-04-1.41852E-04 1.70630E-13-1.87836E-13
 -1       108 1.99696E+01-9.79267E-05-1.14378E-04-1.59711E-04 4.55651E-14-5.10187E-13
 -1       109 1.99714E+01-5.68053E-05-4.98379E-05-1.60185E-04-6.59112E-14-3.07859E-13
 -1       110 1.99743E+01-2.84056E-05-8.12342E-06-1.50329E-04 1.43267E-14-6.49938E-14
 -1       111 1.99779E+01-9.49687E-06 1.70894E-05-1.35128E-04-1.58725E-14 1.96386E-13
 -1       112 1.99816E+01 2.55545E-06 3.07669E-05-1.18013E-04 2.38783E-14 9.98576E-15
 -1       113 1.99853E+01 9.87409E-06 3.67782E-05-1.01272E-04 9.87431E-14-4.30779E-13
 -1       114 1.99886E+01 1.41643E-05 3.81838E-05-8.63740E-05-1.74070E-13-3.55325E-13
 -1       115 1.99916E+01 1.68070E-05 3.75991E-05-7.41817E-05 9.10107E-14-8.76061E-14
 -1       116 1.99942E+01 1.89001E-05 3.76800E-05-6.49908E-05 1.05863E-14-4.68911E-13
 -1       117 1.99965E+01 2.12507E-05 4.15974E-05-5.82400E-05-3.18343E-14-4.25470E-13
 -1       118 1.99982E+01 2.35905E-05 5.20866E-05-5.15875E-05 1.10927E-13-5.47999E-13
 -1       119 1.99994E+01 2.26856E-05 6.03937E-05-3.49095E-05-1.03875E-13-9.28013E-13
 -1       120 1.99999E+01-2.13682E-05 6.83624E-06 1.62232E-05 6.25920E-14-2.71608E-13
 -1       121 1.99998E+01 3.97581E-05 8.14656E-06 3.18911E-05 2.38106E-14 7.41560E-14
 -1       122 1.99998E+01-4.43066E-04 5.49559E-05-1.90880E-05-7.08987E-13-3.97373E-13
 -1       123 1.99998E+01-1.57573E-03 3.40831E-05-4.93624E-05-9.72488E-13 3.58891E-13
 -1       124 1.99998E+01-3.03102E-03 5.32793E-06-5.53504E-05 4.63721E-15 3.53665E-14
 -1       125 1.99998E+01-4.52639E-03-1.61163E-05-5.10285E-05 6.62801E-13-2.83501E-13
 -1       126 1.99998E+01-5.82211E-03-3.12600E-05-4.07440E-05-9.56067E-13 6.16229E-14
 -1       127 1.99998E+01-6.79339E-03-4.07804E-05-2.58812E-05-5.52236E-13 1.69179E-13
 -1       128 1.99998E+01-7.30559E-03-4.54752E-05-8.79983E-06-8.57755E-13-3.19093E-14
 -1       129 1.99998E+01-7.30315E-03-4.54875E-05 8.97608E-06-2.75826E-13 3.96485E-13
 -1       130 1.99998E+01-6.78593E-03-4.08246E-05 2.60363E-05-1.76245E-13-2.60143E-13
 -1       131 1.99998E+01-5.80976E-03-3.10334E-05 4.13570E-05-1.38137E-12-1.23528E-13
 -1       132 1.99998E+01-4.50954E-03-1.60748E-05 5.14266E-05-1.36385E-12 2.78377E-13
 -1       133 1.99998E+01-3.00960E-03 5.79253E-06 5.55581E-05-3.31686E-13 4.32415E-13
 -1       134 1.99998E+01-1.55578E-03 3.45952E-05 4.95307E-05 7.62406E-13-1.22002E-13
 -1       135 1.99998E+01-4.26983E-04 5.33627E-05 1.18551E-05 9.74852E-13 1.15924E-13
 -1       136 1.99998E+01 9.92893E-05 2.08476E-05-5.64613E-05 1.39872E-12 2.03804E-13
 -1       137-1.37333E+00-1.96825E+01-3.04680E+00-3.75422E+00 1.94272E-12 4.60607E-13
 -1       138-1.33839E+00-8.07617E+00-2.21709E+00-2.69136E+00 2.69512E-12 1.31015E-12
 -1       139 3.24288E+00 3.67032E+00-1.00354E+00 3.73329E+00 2.85522E-12 2.08489E-12
 -1       140 1.63673E+01 1.06688E+01 4.69036E-01 1.30945E+01 2.23743E-12 2.51432E-12
 -1       141 3.44021E+01 1.03166E+01 1.80024E+00 1.84208E+01 1.26166E-12 2.19824E-12
 -1       142 5.43652E+01 5.15495E+00 2.92999E+00 1.55689E+01 2.88741E-13 5.88141E-13
 -1       143 6.53706E+01 1.16953E+00 3.47151E+00 4.95730E+00-8.08451E-14-9.16378E-13
 -1       144 6.31181E+01 2.15902E+00 3.37787E+00-8.76097E+00 4.26662E-13-2.40327E-12
 -1       145 4.79145E+01 7.09555E+00 2.57256E+00-1.73634E+01 1.47106E-12-3.72913E-12
 -1       146 2.82872E+01 1.10903E+01 1.36554E+00-1.73596E+01 2.50233E-12-3.84409E-12
 -1       147 1.14766E+01 9.58285E+00-8.67470E-03-1.04812E+01 3.16064E-12-3.18090E-12
 -1       148 1.05563E+00 6.17845E-01-1.41334E+00-1.33104E+00 2.99893E-12-1.97364E-12
 -1       149-1.62895E+00-1.17625E+01-2.52557E+00 3.56727E+00 2.05586E-12-8.03912E-13
 -1       150-1.07451E+00-2.21088E+01-3.23481E+00 2.84846E+00 3.84359E-13-1.14961E-13
 -1       151-8.35529E-01-2.40796E+01-3.38690E+00-1.82602E+00-1.50921E-12-1.58571E-13
 -1       152-1.77848E+00-1.70257E+01-2.99011E+00-4.41819E+00-3.01487E-12-9.52141E-13
 -1       153-1.08874E+00-5.19961E+00-2.11065E+00-1.89759E+00-3.90438E-12-2.14309E-12
 -1       154 6.03211E+00 6.00240E+00-7.91038E-01 6.24592E+00-3.77570E-12-3.19678E-12
 -1       155 2.13306E+01 1.10343E+01 7.68508E-01 1.52141E+01-2.82246E-12-3.68305E-12
 -1       156 4.34433E+01 8.68585E+00 2.38869E+00 1.87506E+01-1.44473E-12-3.00671E-12
 -1       157 6.24494E+01 3.18605E+00 3.53538E+00 1.20739E+01-3.68580E-13-1.41920E-12
 -1       158 6.06545E+01 3.63145E+00 3.41133E+00-1.30888E+01-3.69864E-13 1.43641E-12
 -1       159 4.15662E+01 8.84411E+00 2.21878E+00-1.85078E+01-9.54459E-13 2.10909E-12
 -1       160 1.99228E+01 1.06104E+01 6.38054E-01-1.43048E+01-1.90553E-12 2.37826E-12
 -1       161 4.35088E+00 4.62988E+00-1.01801E+00-4.78909E+00-2.38709E-12 1.90120E-12
 -1       162-1.73948E+00-8.29171E+00-2.36508E+00 3.11313E+00-2.10243E-12 1.09085E-12
 -1       163-1.53898E+00-2.04239E+01-3.17992E+00 4.21040E+00-8.15320E-13 2.44447E-13
 -1       164 2.31983E+01 3.70768E+00-4.65996E-02-2.65040E+00-3.94337E-13-2.24338E-13
 -1       165 2.13582E+01 4.33665E+00-4.05930E-02-1.69194E+00-2.97947E-13-5.91190E-13
 -1       166 1.98977E+01 4.66241E+00-2.90502E-02-1.04704E+00-1.92111E-13-7.71352E-13
 -1       167 1.86849E+01 4.83173E+00-2.09434E-02-6.41339E-01-1.06230E-13-8.50239E-13
 -1       168 1.77444E+01 4.92381E+00-1.57386E-02-4.29515E-01-2.03010E-14-8.63271E-13
 -1       169 1.70989E+01 4.96123E+00-1.27882E-02-3.47973E-01 4.01797E-14-8.45364E-13
 -1       170 1.68098E+01 4.94713E+00-1.14356E-02-3.33052E-01 1.15976E-13-8.07488E-13
 -1       171 1.68754E+01 4.88978E+00-1.14377E-02-3.10881E-01 1.73647E-13-7.54210E-13
 -1       172 1.72452E+01 4.80650E+00-1.26130E-02-2.17618E-01 2.31718E-13-6.90796E-13
 -1       173 1.78368E+01 4.71788E+00-1.49232E-02-1.11836E-02 2.82411E-13-6.09646E-13
 -1       174 1.85513E+01 4.63847E+00-1.85770E-02 3.19059E-01 3.38961E-13-4.76360E-13
 -1       175 1.93561E+01 4.56084E+00-2.42004E-02 7.85741E-01 4.03999E-13-2.94060E-13
 -1       176 2.02357E+01 4.44975E+00-3.34443E-02 1.38451E+00 4.55648E-13-5.12385E-14
 -1       177 2.12825E+01 4.20711E+00-4.65053E-02 2.12905E+00 4.67057E-13 3.38167E-13
 -1       178 2.28397E+01 3.47784E+00-5.65468E-02 2.98023E+00 3.94122E-13 9.62855E-13
 -1       179 2.43423E+01 1.08097E+00-3.39920E-01 2.61338E+00 2.46058E-13 1.73915E-12
 -1       180 2.47245E+01 8.06781E-01 3.08737E-03-1.21225E+00-3.59244E-13 3.07629E-13
 -1       181 2.37905E+01 1.82727E-01-7.62373E-03-3.12427E-03-2.90724E-13 1.85874E-13
 -1       182 2.36962E+01 1.07069E-01 1.28722E-02 4.83752E-01-1.96773E-13 5.30487E-14
 -1       183 2.40528E+01 2.32763E-02 6.26841E-03 6.80612E-01-1.54956E-13-4.59121E-14
 -1       184 2.45658E+01-7.68661E-02-5.90213E-04 6.39594E-01-8.25373E-14-9.76753E-14
 -1       185 2.50124E+01-2.09185E-01-3.67983E-03 3.12301E-01-8.12367E-14-1.09954E-13
 -1       186 2.51587E+01-3.41045E-01-2.34678E-03-3.34914E-01-6.44398E-14-5.24274E-14
 -1       187 2.47938E+01-3.74467E-01-7.45181E-05-1.18701E+00-5.87178E-14-7.59028E-14
 -1       188 2.38578E+01-1.77442E-01-8.65978E-04-1.85846E+00-7.67017E-14-1.03343E-13
 -1       189 2.26226E+01 2.54270E-01-9.08286E-03-1.78795E+00-6.90142E-14-2.17772E-13
 -1       190 2.17320E+01 6.45577E-01-1.89265E-02-7.12165E-01-2.35246E-13-4.91082E-13
 -1       191 2.17598E+01 6.56471E-01-1.95762E-02 7.75863E-01-2.41834E-13-6.95236E-13
 -1       192 2.27239E+01 2.74637E-01-9.31871E-03 1.88079E+00-6.49576E-14-7.73197E-13
 -1       193 2.40559E+01-1.66102E-01-1.52416E-03 1.98845E+00-5.08070E-14-9.62329E-13
 -1       194 2.50943E+01-3.77085E-01-8.04832E-04 1.32348E+00-3.67189E-14-8.65570E-13
 -1       195 2.55375E+01-3.55535E-01-3.91693E-03 4.44964E-01 3.90139E-14-6.88802E-13
 -1       196 2.54182E+01-2.30462E-01-6.00255E-03-2.53637E-01 8.46948E-14-7.07759E-13
 -1       197 2.49178E+01-1.05549E-01-5.50649E-03-6.54885E-01-4.53630E-16-5.49014E-13
 -1       198 2.42266E+01-2.00684E-02-3.48430E-03-8.05762E-01-4.58366E-14-5.77346E-13
 -1       199 2.34880E+01 2.59140E-02-1.28963E-03-7.98370E-01-5.58748E-14-5.49282E-13
 -1       200 2.27899E+01 4.47087E-02 3.53898E-04-7.11311E-01-3.54317E-14-5.36955E-13
 -1       201 2.21762E+01 4.81589E-02 1.29887E-03-5.95643E-01-2.46613E-15-5.03651E-13
 -1       202 2.16617E+01 4.42924E-02 1.68837E-03-4.79260E-01-2.66328E-14-6.02439E-13
 -1       203 2.12445E+01 3.76952E-02 1.72484E-03-3.75000E-01-3.93339E-14-6.60598E-13
 -1       204 2.09146E+01 3.06826E-02 1.57557E-03-2.87229E-01-1.12221E-13-7.43073E-13
 -1       205 2.06589E+01 2.42744E-02 1.35045E-03-2.16077E-01 2.99763E-14-6.79912E-13
 -1       206 2.04643E+01 1.88225E-02 1.11170E-03-1.59838E-01-6.77399E-15-9.45089E-13
 -1       207 2.03185E+01 1.43644E-02 8.90034E-04-1.16214E-01 1.80005E-14-9.98671E-13
 -1       208 2.02111E+01 1.08073E-02 6.97813E-04-8.28963E-02-9.39512E-14-9.63227E-13
 -1       209 2.01335E+01 8.01714E-03 5.37757E-04-5.78108E-02 1.99689E-14-9.32560E-13
 -1       210 2.00786E+01 5.85760E-03 4.08007E-04-3.91947E-02-3.54899E-14-8.69277E-13
 -1       211 2.00408E+01 4.20618E-03 3.04863E-04-2.55943E-02 3.42486E-14-8.46912E-13
 -1       212 2.00155E+01 2.95849E-03 2.24159E-04-1.58344E-02-1.08687E-13-8.41704E-13
 -1       213 1.99993E+01 2.02807E-03 1.61903E-04-8.97812E-03-6.86930E-14-7.44216E-13
 -1       214 1.99897E+01 1.34449E-03 1.14539E-04-4.28743E-03 6.00149E-14-7.91276E-13
 -1       215 1.99846E+01 8.50968E-04 7.90188E-05-1.18698E-03 2.20347E-13-7.72263E-13
 -1       216 1.99826E+01 5.02116E-04 5.27943E-05 7.66681E-04 1.18719E-13-5.60143E-13
 -1       217 1.99825E+01 2.61952E-04 3.37670E-05 1.91113E-03-1.61801E-13-4.91754E-13
 -1       218 1.99837E+01 1.02154E-04 2.02298E-05 2.49974E-03 3.26057E-14-5.10923E-13
 -1       219 1.99856E+01 5.68795E-07 1.08048E-05 2.71943E-03 5.24991E-14-1.58533E-13
 -1       220 1.99877E+01-6.00658E-05 4.38566E-06 2.70489E-03-5.80905E-14-1.05772E-13
 -1       221 1.99899E+01-9.32501E-05 9.00294E-08 2.54993E-03-1.65661E-13-5.60811E-13
 -1       222 1.99921E+01-1.09741E-04-2.77524E-06 2.31605E-03-2.05550E-13-5.33420E-13
 -1       223 1.99941E+01-1.18552E-04-4.70730E-06 2.03861E-03 7.95082E-14-4.65249E-13
 -1       224 1.99958E+01-1.27917E-04-5.91772E-06 1.73081E-03 1.36744E-13-4.80334E-13
 -1       225 1.99973E+01-1.45649E-04-6.17941E-06 1.38643E-03 2.86911E-15-5.46481E-13
 -1       226 1.99984E+01-1.77413E-04-5.07934E-06 9.85091E-04-7.65081E-14-3.37840E-13
 -1       227 1.99992E+01-2.16888E-04-4.94517E-06 5.20070E-04-2.07389E-13-1.88506E-13
 -1       228 1.99996E+01-1.91625E-04 3.81588E-06 1.76742E-04 1.48904E-13-1.42042E-14
 -1       229 2.31725E+01 2.44168E-01-4.76761E-02 8.11383E-01 2.88769E-13 1.54257E-12
 -1       230 2.23891E+01 9.78252E-02 1.09087E-02 1.81543E-01 1.88635E-13 1.33164E-12
 -1       231 2.21096E+01 1.40711E-02 1.25622E-02-3.89833E-03 1.02763E-13 1.14624E-12
 -1       232 2.19901E+01-3.51837E-02 6.76773E-03 8.96234E-03 9.26398E-14 1.03823E-12
 -1       233 2.18417E+01-6.51946E-02 3.66429E-03 1.45402E-01 6.96179E-14 9.67451E-13
 -1       234 2.15456E+01-8.01986E-02 2.60306E-03 3.56953E-01 8.59024E-14 9.02644E-13
 -1       235 2.10475E+01-6.92335E-02 2.05349E-03 5.78363E-01 6.61823E-14 8.22164E-13
 -1       236 2.03791E+01-2.42730E-02 9.00699E-04 7.17652E-01 6.03719E-14 7.55378E-13
 -1       237 1.96700E+01 4.78853E-02-9.20301E-04 6.81479E-01 5.83210E-14 7.09165E-13
 -1       238 1.91202E+01 1.19814E-01-2.50202E-03 4.27727E-01 1.49713E-13 7.03460E-13
 -1       239 1.89219E+01 1.54916E-01-2.57278E-03 1.09207E-02 9.63812E-14 5.81335E-13
 -1       240 1.91621E+01 1.32789E-01-7.37171E-04-4.27072E-01 7.02398E-14 3.97812E-13
 -1       241 1.97719E+01 6.65820E-02 1.62094E-03-7.31789E-01 3.64899E-14 3.27616E-13
 -1       242 2.05653E+01-8.86334E-03 2.95847E-03-8.21485E-01 7.23706E-14 3.65779E-13
 -1       243 2.13314E+01-6.31075E-02 2.56551E-03-7.13013E-01 2.95432E-14 4.06228E-13
 -1       244 2.19156E+01-8.44862E-02 1.10638E-03-4.87786E-01 3.16531E-14 2.34638E-13
 -1       245 2.22518E+01-7.90324E-02-4.17771E-04-2.36287E-01 6.82267E-14 2.49054E-13
 -1       246 2.23487E+01-5.95938E-02-1.40671E-03-2.10798E-02 6.73023E-14 1.47482E-13
 -1       247 2.22574E+01-3.71335E-02-1.71426E-03 1.30875E-01-1.89041E-15 1.59575E-13
 -1       248 2.20423E+01-1.78788E-02-1.50209E-03 2.18765E-01-2.48398E-14 2.10354E-13
 -1       249 2.17624E+01-4.01343E-03-1.04641E-03 2.54972E-01-1.79150E-13 3.28938E-13
 -1       250 2.14630E+01 4.63670E-03-5.60047E-04 2.55412E-01 1.37469E-13 3.70021E-13
 -1       251 2.11748E+01 9.19605E-03-1.56874E-04 2.34391E-01 9.99342E-14 1.95795E-13
 -1       252 2.09155E+01 1.09356E-02 1.25689E-04 2.02754E-01 6.74677E-15-2.90255E-14
 -1       253 2.06934E+01 1.09279E-02 2.94092E-04 1.67822E-01 1.18753E-13 7.21420E-15
 -1       254 2.05103E+01 9.95941E-03 3.73041E-04 1.34046E-01-4.76611E-14-1.36475E-15
 -1       255 2.03641E+01 8.55561E-03 3.90193E-04 1.03802E-01 1.34335E-13-7.00535E-14
 -1       256 2.02507E+01 7.04125E-03 3.69248E-04 7.80890E-02 3.24099E-14-1.79584E-13
 -1       257 2.01650E+01 5.60051E-03 3.27937E-04 5.70656E-02 9.12261E-14-2.23467E-14
 -1       258 2.01021E+01 4.32527E-03 2.78351E-04 4.04159E-02-1.13246E-13 1.20125E-13
 -1       259 2.00571E+01 3.25013E-03 2.28085E-04 2.75955E-02-3.64753E-14 2.65357E-13
 -1       260 2.00261E+01 2.37630E-03 1.81475E-04 1.79826E-02 2.45142E-14 1.05495E-13
 -1       261 2.00056E+01 1.68720E-03 1.40652E-04 1.09657E-02-1.02038E-13 2.52600E-13
 -1       262 1.99928E+01 1.15815E-03 1.06337E-04 5.99028E-03 8.32157E-14 1.67497E-13
 -1       263 1.99856E+01 7.62273E-04 7.84094E-05 2.57901E-03 2.86954E-13 9.17606E-15
 -1       264 1.99821E+01 4.73725E-04 5.62913E-05 3.36391E-04-1.53843E-13 1.17951E-13
 -1       265 1.99813E+01 2.69369E-04 3.91959E-05-1.05548E-03-7.90841E-14 4.58635E-14
 -1       266 1.99820E+01 1.29423E-04 2.62799E-05-1.84544E-03-2.21033E-14-7.81706E-14
 -1       267 1.99837E+01 3.75129E-05 1.67316E-05-2.22344E-03-1.13807E-13-1.90602E-13
 -1       268 1.99859E+01-1.96054E-05 9.81665E-06-2.33067E-03 1.47744E-13-4.94791E-14
 -1       269 1.99882E+01-5.25036E-05 4.89700E-06-2.26883E-03 1.60158E-13-1.73452E-14
 -1       270 1.99906E+01-6.96231E-05 1.44327E-06-2.10784E-03-1.47297E-13 6.12948E-14
 -1       271 1.99928E+01-7.78800E-05-9.37597E-07-1.89197E-03 4.34430E-14-1.07389E-13
 -1       272 1.99948E+01-8.33395E-05-2.39135E-06-1.64408E-03 1.32443E-13-1.74015E-13
 -1       273 1.99965E+01-9.18295E-05-2.61513E-06-1.36833E-03-6.93851E-14-1.12470E-13
 -1       274 1.99979E+01-1.08275E-04-8.57580E-07-1.05257E-03 4.28067E-14-1.89382E-13
 -1       275 1.99989E+01-1.41214E-04 5.65751E-07-6.71171E-04 9.22986E-14-7.38669E-15
 -1       276 1.99995E+01-1.54631E-04-4.86870E-06-2.41558E-04-1.63675E-13-5.07411E-14
 -1       277 1.99996E+01-5.41268E-04-4.05579E-06-5.08519E-04-3.07883E-13-4.38108E-13
 -1       278 1.99997E+01-1.27915E-03-1.51553E-06-9.03155E-04-1.05277E-13 4.32010E-14
 -1       279 1.99998E+01-2.23565E-03-1.04458E-06-1.12290E-03-1.06604E-13 3.64046E-13
 -1       280 1.99998E+01-3.26649E-03 6.15217E-07-1.15002E-03-2.48328E-13 3.09818E-13
 -1       281 1.99999E+01-4.22277E-03 2.74558E-06-1.01346E-03-1.28797E-13-8.71126E-13
 -1       282 1.99999E+01-5.01420E-03 4.54909E-06-7.47209E-04 5.31647E-14 5.19420E-14
 -1       283 2.00000E+01-5.52715E-03 5.78424E-06-3.94351E-04 2.77233E-14 5.69809E-14
 -1       284 2.00000E+01-5.70378E-03 6.20646E-06 1.80200E-06 6.94939E-14 2.13304E-13
 -1       285 2.00000E+01-5.52426E-03 5.79365E-06 3.97999E-04-3.71353E-13-1.39533E-13
 -1       286 1.99999E+01-5.00823E-03 4.55963E-06 7.51051E-04-4.69380E-13-5.67312E-13
 -1       287 1.99999E+01-4.22997E-03 2.64863E-06 1.01390E-03-2.69990E-13 6.02330E-14
 -1       288 1.99998E+01-3.25562E-03 6.53596E-07 1.15289E-03 5.90664E-14 5.29881E-13
 -1       289 1.99997E+01-2.22238E-03-1.14256E-06 1.12349E-03-5.32464E-14 6.09433E-13
 -1       290 1.99997E+01-1.27552E-03-1.67918E-06 8.99407E-04 3.74327E-14 2.65632E-13
 -1       291 1.99996E+01-6.57878E-04 9.08409E-08 5.56991E-04 3.88908E-14-7.94923E-14
 -1       292-8.35800E-01-1.09313E+01-9.91183E-01 1.35502E+00 5.05665E-13 6.20767E-13
 -1       293 3.11482E+00-8.00387E+00-6.76414E-01 4.03669E+00 7.45487E-13 8.16930E-13
 -1       294 9.24757E+00-4.70596E+00-4.84584E-01 5.69499E+00 9.95259E-13 8.57481E-13
 -1       295 2.02530E+01-2.13040E+00-5.21409E-02 7.05536E+00 8.24674E-13 6.30523E-13
 -1       296 2.91257E+01 2.36500E+00 2.96068E-01 7.37821E+00 1.00661E-12 6.33049E-13
 -1       297 3.86391E+01 5.17028E+00 7.34701E-01 6.57522E+00 1.00757E-12 3.04007E-13
 -1       298 4.52447E+01 6.39503E+00 9.77213E-01 3.45774E+00 8.11559E-13-2.54186E-13
 -1       299 4.62587E+01 6.91620E+00 9.47778E-01-5.40781E-01 7.32692E-13-9.00821E-13
 -1       300 4.17011E+01 6.22818E+00 6.65167E-01-3.47446E+00 1.00897E-12-1.07303E-12
 -1       301 3.55219E+01 4.16667E+00 5.23840E-01-6.66851E+00 1.06313E-12-1.46283E-12
 -1       302 2.58932E+01 1.87479E+00 2.04701E-01-7.89675E+00 1.19857E-12-1.55173E-12
 -1       303 1.64380E+01-2.30715E+00-1.88036E-01-7.03785E+00 9.88543E-13-1.32555E-12
 -1       304 7.03239E+00-5.74996E+00-5.92223E-01-5.08828E+00 8.80712E-13-1.19563E-12
 -1       305 1.57738E+00-8.50426E+00-7.38593E-01-3.35277E+00 2.99982E-13-1.02449E-12
 -1       306-1.25405E+00-1.09036E+01-9.98946E-01-5.87314E-01-2.82250E-13-8.82683E-13
 -1       307-3.71970E-02-9.80559E+00-9.00116E-01 1.81960E+00-8.53401E-13-9.89181E-13
 -1       308 4.28092E+00-7.69446E+00-7.76849E-01 3.82557E+00-1.36915E-12-1.27296E-12
 -1       309 1.28014E+01-4.37620E+00-3.78826E-01 6.24386E+00-1.45914E-12-1.32953E-12
 -1       310 2.25412E+01-5.45090E-01-2.54017E-02 7.17334E+00-1.59331E-12-1.43541E-12
 -1       311 3.34323E+01 3.21989E+00 4.86492E-01 7.33238E+00-1.48269E-12-1.34415E-12
 -1       312 4.30829E+01 5.57320E+00 9.36169E-01 5.26416E+00-1.17058E-12-1.00583E-12
 -1       313 4.71098E+01 6.80549E+00 1.03567E+00 1.65200E+00-9.06858E-13-5.56263E-13
 -1       314 4.68868E+01 6.73974E+00 1.03502E+00-1.78077E+00-6.66411E-13-8.86374E-14
 -1       315 4.20949E+01 5.25148E+00 8.51226E-01-5.16465E+00-5.42434E-13 2.94431E-13
 -1       316 3.27344E+01 1.71674E+00 3.20442E-01-5.67295E+00-5.52114E-13 2.46525E-13
 -1       317 2.08627E+01-6.67635E-01-7.12355E-02-7.15813E+00-7.76657E-13 7.21506E-13
 -1       318 1.09599E+01-5.18383E+00-4.54709E-01-5.77283E+00-5.14477E-13 6.56017E-13
 -1       319 2.81058E+00-8.63917E+00-7.94565E-01-3.31466E+00-2.70811E-13 8.21197E-13
 -1       320-1.00609E+00-1.12020E+01-1.03442E+00-7.24736E-01 1.02654E-13 6.90503E-13
 -1       321 2.10469E+01 3.18373E+00-2.18409E-02-8.41698E-01-2.76700E-13-5.06376E-13
 -1       322 2.27249E+01 2.23063E+00-1.57861E-02-1.20478E+00-3.64882E-13-2.85345E-13
 -1       323 1.83357E+01 4.22018E+00-1.09012E-02-3.23107E-01-6.79630E-14-6.79803E-13
 -1       324 1.74098E+01 4.49100E+00-7.01989E-03-2.75429E-01 1.02826E-14-6.96146E-13
 -1       325 1.68851E+01 4.60597E+00-5.06938E-03-3.28525E-01 9.03771E-14-6.57802E-13
 -1       326 1.67942E+01 4.56754E+00-4.79137E-03-4.00408E-01 1.76043E-13-6.24554E-13
 -1       327 1.70998E+01 4.40263E+00-5.94093E-03-4.05316E-01 2.41300E-13-5.74884E-13
 -1       328 1.77068E+01 4.15906E+00-8.14734E-03-2.83102E-01 2.96979E-13-5.09522E-13
 -1       329 1.84843E+01 3.88827E+00-1.12372E-02-1.99156E-02 3.63884E-13-4.09952E-13
 -1       330 1.93645E+01 3.60176E+00-1.51554E-02 3.76239E-01 4.34404E-13-2.54554E-13
 -1       331 2.02913E+01 3.27690E+00-2.02383E-02 8.60228E-01 4.88217E-13-7.97418E-14
 -1       332 2.12904E+01 2.81524E+00-2.52551E-02 1.35976E+00 5.13048E-13 1.86317E-13
 -1       333 2.24033E+01 1.99781E+00-3.10803E-02 1.67782E+00 4.62552E-13 5.91553E-13
 -1       334 2.30287E+01 1.10157E+00-2.41987E-02 1.39510E+00 3.92297E-13 9.77648E-13
 -1       335 2.25283E+01 3.92543E-01 6.87756E-03 5.01526E-01 2.76536E-13 8.12187E-13
 -1       336 2.30701E+01 7.21537E-01 1.29476E-02 2.02897E-01-2.78767E-13-1.64968E-13
 -1       337 2.31019E+01 3.29338E-01 5.43314E-03 8.24039E-01-2.18619E-13-1.49765E-13
 -1       338 2.33848E+01-1.67137E-02-4.09354E-04 1.07462E+00-1.25148E-13-1.00889E-13
 -1       339 2.38682E+01-4.42699E-01-5.79334E-03 9.45265E-01-2.46829E-14-5.81269E-14
 -1       340 2.44818E+01-9.37022E-01-9.49804E-03 3.59632E-01-1.50455E-14 3.46738E-14
 -1       341 2.50869E+01-1.29880E+00-8.44260E-03-6.93742E-01-1.30039E-14 1.16007E-13
 -1       342 2.54112E+01-1.10636E+00-1.30969E-02-1.95551E+00-9.95727E-14 1.02093E-13
 -1       343 2.51943E+01-8.72354E-03-2.55353E-02-2.68838E+00-1.93218E-13 2.83582E-14
 -1       344 2.45636E+01 1.61884E+00-3.93283E-02-1.99990E+00-3.92044E-13-2.06488E-13
 -1       345 2.42076E+01 2.44416E+00-5.08842E-02-1.29411E-02-4.60656E-13-4.00184E-13
 -1       346 2.45839E+01 1.68028E+00-4.06798E-02 2.12346E+00-2.83660E-13-6.83038E-13
 -1       347 2.52717E+01 4.91492E-02-2.46234E-02 2.87454E+00-5.78886E-14-7.36463E-13
 -1       348 2.55521E+01-1.10304E+00-1.31120E-02 2.15657E+00 1.80717E-14-6.58677E-13
 -1       349 2.52567E+01-1.34705E+00-1.06496E-02 8.58064E-01 1.26872E-13-5.45909E-13
 -1       350 2.46336E+01-1.02347E+00-1.00612E-02-2.84809E-01 8.53350E-14-4.51884E-13
 -1       351 2.39334E+01-5.65771E-01-7.58666E-03-1.00150E+00 1.04864E-13-3.81080E-13
 -1       352 2.32748E+01-1.98815E-01-4.24685E-03-1.32170E+00 1.06120E-13-2.76645E-13
 -1       353 2.26907E+01 2.75321E-02-1.40511E-03-1.37025E+00-3.07790E-14-1.64162E-13
 -1       354 2.21829E+01 1.39693E-01 4.51227E-04-1.26643E+00-1.01086E-13-1.36042E-13
 -1       355 2.17468E+01 1.78979E-01 1.39799E-03-1.09475E+00 4.92801E-14-7.88224E-14
 -1       356 2.13773E+01 1.78613E-01 1.73085E-03-9.06193E-01-5.85578E-16-7.16118E-14
 -1       357 2.10693E+01 1.59939E-01 1.71106E-03-7.27640E-01-1.43203E-13-1.49785E-13
 -1       358 2.08171E+01 1.34993E-01 1.52366E-03-5.70972E-01-1.33448E-13-1.89245E-13
 -1       359 2.06140E+01 1.09854E-01 1.27890E-03-4.39653E-01-7.01183E-14-2.33645E-13
 -1       360 2.04532E+01 8.72042E-02 1.03418E-03-3.32875E-01-9.69991E-14-3.15083E-13
 -1       361 2.03279E+01 6.79457E-02 8.15090E-04-2.47945E-01 2.92731E-14-3.56027E-13
 -1       362 2.02319E+01 5.21243E-02 6.30054E-04-1.81569E-01 1.15190E-13-2.88165E-13
 -1       363 2.01596E+01 3.94182E-02 4.79158E-04-1.30479E-01-2.79385E-14-2.04393E-14
 -1       364 2.01060E+01 2.93829E-02 3.58932E-04-9.17213E-02 2.07366E-14-5.34356E-14
 -1       365 2.00671E+01 2.15657E-02 2.64775E-04-6.27489E-02-9.86400E-16-1.77564E-13
 -1       366 2.00395E+01 1.55534E-02 1.92080E-04-4.14325E-02-3.00280E-14-3.18323E-13
 -1       367 2.00204E+01 1.09880E-02 1.36693E-04-2.60264E-02-1.44284E-13-1.50168E-13
 -1       368 2.00076E+01 7.56860E-03 9.50573E-05-1.51220E-02 9.84201E-14-1.62571E-13
 -1       369 1.99994E+01 5.04651E-03 6.42105E-05-7.59758E-03 1.17026E-13-1.32682E-13
 -1       370 1.99946E+01 3.21894E-03 4.17308E-05-2.57110E-03 1.24995E-13-4.75271E-13
 -1       371 1.99921E+01 1.92225E-03 2.56608E-05 6.42431E-04 8.13372E-14-6.45829E-13
 -1       372 1.99911E+01 1.02558E-03 1.44341E-05 2.56771E-03 2.23802E-16-5.19349E-13
 -1       373 1.99912E+01 4.25193E-04 6.80558E-06 3.60046E-03 1.81628E-13-3.28060E-13
 -1       374 1.99918E+01 3.93605E-05 1.78903E-06 4.03363E-03 7.21277E-14-3.87613E-13
 -1       375 1.99928E+01-1.96142E-04-1.39474E-06 4.07867E-03-1.24953E-13-1.85622E-13
 -1       376 1.99940E+01-3.32014E-04-3.34969E-06 3.88265E-03-1.22967E-13 2.08488E-13
 -1       377 1.99952E+01-4.08988E-04-4.55410E-06 3.54160E-03-2.40894E-15 1.25545E-13
 -1       378 1.99963E+01-4.61019E-04-5.39335E-06 3.11077E-03 7.20016E-15 8.51125E-14
 -1       379 1.99973E+01-5.16923E-04-6.25671E-06 2.61331E-03-4.41399E-14 4.65062E-14
 -1       380 1.99982E+01-5.97657E-04-7.62806E-06 2.05181E-03 8.47427E-15-4.59589E-14
 -1       381 1.99990E+01-7.03743E-04-8.09201E-06 1.42010E-03-2.01094E-13 1.96906E-14
 -1       382 2.21389E+01-2.15847E-03 3.21591E-03 9.59775E-02 1.72447E-13 5.08984E-13
 -1       383 2.20602E+01-1.95468E-01-5.48076E-04 1.68233E-01 1.18283E-13 4.91536E-13
 -1       384 2.19787E+01-3.14142E-01-2.41835E-03 4.31646E-01 1.41620E-13 4.73093E-13
 -1       385 2.18161E+01-3.34263E-01-2.21741E-03 7.93007E-01 1.02370E-13 4.73659E-13
 -1       386 2.15219E+01-2.12489E-01-5.40715E-04 1.11402E+00 6.70312E-14 4.49147E-13
 -1       387 2.11084E+01 5.65447E-02 1.87198E-03 1.22109E+00 6.93667E-14 4.50105E-13
 -1       388 2.06763E+01 3.94065E-01 4.32710E-03 9.75096E-01 1.46905E-13 4.00525E-13
 -1       389 2.03892E+01 6.45467E-01 5.53083E-03 3.74352E-01 2.30979E-13 3.16667E-13
 -1       390 2.03861E+01 6.69894E-01 5.30468E-03-3.96011E-01 2.11102E-13 1.38675E-13
 -1       391 2.06802E+01 4.50830E-01 4.07849E-03-1.04608E+00 9.72130E-14 8.35096E-15
 -1       392 2.11442E+01 1.13897E-01 2.06537E-03-1.35798E+00-3.95861E-14 2.13308E-14
 -1       393 2.16051E+01-1.86464E-01-8.14075E-04-1.29351E+00 1.60668E-14 6.61670E-14
 -1       394 2.19342E+01-3.53936E-01-3.09194E-03-9.64172E-01 1.10776E-13 4.61458E-14
 -1       395 2.20860E+01-3.82951E-01-4.06285E-03-5.33320E-01 5.88210E-14 1.81641E-14
 -1       396 2.20773E+01-3.21219E-01-3.99340E-03-1.30606E-01 1.05008E-13 3.17833E-14
 -1       397 2.19508E+01-2.23168E-01-3.25031E-03 1.76273E-01-4.10312E-14 1.26911E-13
 -1       398 2.17517E+01-1.26651E-01-2.17841E-03 3.71197E-01-2.32969E-14 2.08854E-13
 -1       399 2.15175E+01-4.98901E-02-1.14532E-03 4.67897E-01-1.02362E-13 2.11500E-13
 -1       400 2.12755E+01 2.79863E-03-3.33011E-04 4.91483E-01 9.91583E-14 3.12182E-14
 -1       401 2.10441E+01 3.42221E-02 2.18269E-04 4.67425E-01 1.02182E-13 1.51441E-13
 -1       402 2.08341E+01 4.96243E-02 5.38556E-04 4.16646E-01 4.10070E-14 2.00152E-13
 -1       403 2.06512E+01 5.42265E-02 6.83547E-04 3.54303E-01 7.45222E-14 7.23656E-14
 -1       404 2.04969E+01 5.22574E-02 7.10424E-04 2.90333E-01 1.09095E-13 1.96094E-14
 -1       405 2.03703E+01 4.67718E-02 6.66357E-04 2.30604E-01 3.42670E-14-6.26138E-14
 -1       406 2.02691E+01 3.98025E-02 5.85795E-04 1.78104E-01 2.24496E-14 5.19735E-14
 -1       407 2.01900E+01 3.26043E-02 4.91679E-04 1.33920E-01-1.46820E-14 1.46789E-13
 -1       408 2.01296E+01 2.58849E-02 3.98024E-04 9.79857E-02-1.33095E-13 2.71422E-13
 -1       409 2.00845E+01 1.99908E-02 3.12531E-04 6.95927E-02-6.61356E-14 1.81810E-13
 -1       410 2.00516E+01 1.50419E-02 2.38729E-04 4.77362E-02 3.16732E-14 1.89459E-13
 -1       411 2.00284E+01 1.10252E-02 1.77559E-04 3.13279E-02-1.04517E-13 3.16453E-13
 -1       412 2.00125E+01 7.85682E-03 1.28478E-04 1.93203E-02 4.56453E-15 3.67759E-13
 -1       413 2.00020E+01 5.42102E-03 9.01830E-05 1.07732E-02 2.25227E-13 4.00105E-13
 -1       414 1.99956E+01 3.59423E-03 6.10637E-05 4.88053E-03-5.93441E-15 3.98683E-13
 -1       415 1.99920E+01 2.25856E-03 3.94763E-05 9.75639E-04-2.51716E-14 1.96139E-13
 -1       416 1.99904E+01 1.30858E-03 2.38902E-05-1.47739E-03 3.78086E-14 1.18672E-13
 -1       417 1.99901E+01 6.54013E-04 1.29577E-05-2.89829E-03 1.73094E-13-4.26642E-14
 -1       418 1.99906E+01 2.19892E-04 5.53489E-06-3.60769E-03-6.57484E-14-3.20336E-13
 -1       419 1.99916E+01-5.48050E-05 6.73251E-07-3.84394E-03 1.13925E-13-1.04310E-13
 -1       420 1.99929E+01-2.19198E-04-2.40294E-06-3.77826E-03-1.91545E-13-6.54697E-14
 -1       421 1.99942E+01-3.12923E-04-4.32299E-06-3.52766E-03 4.01129E-14-1.39286E-13
 -1       422 1.99954E+01-3.68642E-04-5.60243E-06-3.16533E-03-9.83259E-17-5.39329E-14
 -1       423 1.99966E+01-4.14261E-04-6.55069E-06-2.72874E-03-1.92689E-15 8.37797E-14
 -1       424 1.99977E+01-4.72640E-04-7.58595E-06-2.22828E-03-8.57013E-14 4.00011E-14
 -1       425 1.99985E+01-5.53056E-04-8.72476E-06-1.66343E-03 5.47794E-14-1.32069E-13
 -1       426 1.99991E+01-5.86686E-04-6.59107E-06-1.09281E-03 2.01179E-14-2.50224E-13
 -1       427 1.99998E+01-2.44253E-03-9.02139E-07-1.96048E-03-2.16541E-13 9.14169E-14
 -1       428 1.99995E+01-1.63210E-03-3.86662E-06-1.82232E-03 1.97249E-13 3.33873E-13
 -1       429 2.00000E+01-3.19579E-03 1.86693E-06-1.84317E-03-1.74333E-13-3.38415E-13
 -1       430 2.00002E+01-3.85147E-03 3.86028E-06-1.49140E-03 1.35109E-13 9.29341E-14
 -1       431 2.00004E+01-4.32860E-03 5.37645E-06-9.65025E-04 2.83868E-13 3.50100E-14
 -1       432 2.00004E+01-4.57946E-03 6.15328E-06-3.31919E-04-1.72562E-13-1.11925E-13
 -1       433 2.00004E+01-4.57915E-03 6.16073E-06 3.37067E-04-3.87593E-13-1.43095E-13
 -1       434 2.00004E+01-4.32737E-03 5.40484E-06 9.70492E-04-3.70708E-13-6.89243E-13
 -1       435 2.00002E+01-3.85895E-03 3.85935E-06 1.48963E-03-9.88352E-14-1.00172E-13
 -1       436 2.00000E+01-3.20372E-03 1.92513E-06 1.84405E-03-1.50631E-13 1.02789E-12
 -1       437 1.99998E+01-2.43631E-03-5.14292E-07 1.96294E-03-1.22465E-13 3.89944E-13
 -1       438 1.99995E+01-1.63145E-03-3.31806E-06 1.80333E-03-2.45679E-13 1.45867E-13
 -1       439 2.22735E+01 1.80792E-01 8.14904E-03 2.07317E-01 2.33444E-13 6.47651E-13
 -1       440 1.05462E+01-5.53724E+00-5.36688E-02 7.07796E+00 1.32533E-13 4.36401E-13
 -1       441 2.71222E+01-2.71050E+00-1.09430E-02 4.20688E+00 3.57867E-13-1.66950E-13
 -1       442 7.81573E-01-4.95855E+00-1.18630E-01 3.46568E-01 1.16861E-13 7.00912E-13
 -1       443 1.84707E+01-5.22235E+00-1.20061E-02 6.94015E+00 7.11653E-14 2.76959E-13
 -1       444 1.95770E+01 3.79562E+00-1.64454E-02-5.17894E-01-1.71734E-13-6.27783E-13
 -1       445 3.21356E+01 1.00721E+00 1.08849E-02 1.54416E+00 6.79078E-13-3.53634E-13
 -1       446 3.43896E+01 5.28151E+00-1.01022E-03-1.28401E-01 9.34738E-13-3.59768E-13
 -1       447 3.54362E+01 7.96991E+00 1.14240E-02-1.89476E-01 9.83019E-13-2.17406E-13
 -1       448 3.49039E+01 7.61725E+00-6.28186E-03 3.02801E-01 8.65447E-13-2.17194E-13
 -1       449 3.30627E+01 3.40626E+00-5.23972E-02 1.57002E-01 6.41730E-13-8.06438E-14
 -1       450 3.13453E+01-3.73318E-02 1.37422E-02-2.21078E+00 4.16012E-13-3.80473E-13
 -1       451 2.51475E+01-3.68247E+00 7.81322E-03-5.28403E+00 2.13732E-13-5.39957E-13
 -1       452 1.59894E+01-5.29192E+00-3.55227E-02-7.28196E+00-2.30788E-14-7.67235E-13
 -1       453 8.76190E+00-4.96433E+00-1.66075E-02-6.80561E+00-6.36435E-14-9.56998E-13
 -1       454 2.78399E+00-3.36329E+00 3.32721E-02-3.21334E+00-1.41442E-13-1.11625E-12
 -1       455 1.73266E+00-3.48490E+00 1.68738E-02 8.61199E-01-9.77066E-14-1.08399E-12
 -1       456 5.82629E+00-4.83098E+00-3.81048E-02 5.34276E+00-1.62079E-13-1.00038E-12
 -1       457 1.25578E+01-5.68631E+00-6.57414E-02 6.89470E+00-2.94265E-13-8.69978E-13
 -1       458 2.24125E+01-5.25239E+00-1.82930E-02 5.86441E+00-4.88110E-13-4.78104E-13
 -1       459 2.98485E+01-2.31969E+00 1.00923E-02 3.24895E+00-8.35478E-13-3.51191E-13
 -1       460 3.43780E+01 2.06327E+00 2.89918E-02 3.69702E-01-1.05711E-12-2.80193E-13
 -1       461 3.64350E+01 6.30547E+00 7.19364E-02-4.62792E-01-1.12885E-12-3.70828E-13
 -1       462 3.75881E+01 7.95495E+00 1.27182E-01 1.56415E-01-9.00030E-13-4.39676E-13
 -1       463 3.55309E+01 5.83141E+00 8.01996E-04 9.26187E-01-5.50282E-13-4.20802E-13
 -1       464 3.37720E+01 2.00716E+00-2.83779E-02 2.29026E-01-2.71873E-13-3.74492E-13
 -1       465 2.81616E+01-3.20186E+00-4.09197E-02-3.59954E+00-2.33175E-13-1.98799E-13
 -1       466 2.13753E+01-5.58862E+00 2.51074E-03-5.96041E+00 4.94882E-14 3.65749E-14
 -1       467 1.08162E+01-5.82042E+00-5.73041E-02-6.67750E+00 2.78944E-13 4.94889E-13
 -1       468 3.54450E+00-4.85873E+00-6.01752E-02-4.02875E+00 1.96884E-13 7.43544E-13
 -1       469 3.37985E+00-4.82350E+00-7.82804E-02 4.44445E+00 1.08039E-13 8.18665E-13
 -1       470 2.44271E+01-5.14724E+00-2.97722E-03 4.83790E+00-9.11771E-15-2.48995E-13
 -1       471 3.10693E+01-2.00990E+00-4.89045E-02 4.17695E-01-1.75758E-13-4.96797E-13
 -1       472 1.69722E+01 4.07884E+00-2.10904E-03-1.57341E-01 5.83011E-14-6.11285E-13
 -1       473 1.78011E+01 3.76842E+00-3.28523E-03 2.47976E-02-2.08415E-14-6.22964E-13
 -1       474 1.68475E+01 3.98626E+00-2.04875E-03-6.02647E-01 1.72300E-13-5.41734E-13
 -1       475 1.74569E+01 3.65702E+00-2.79377E-03-6.39084E-01 2.40091E-13-5.09627E-13
 -1       476 1.83046E+01 3.25388E+00-3.89326E-03-4.81522E-01 2.91811E-13-4.23277E-13
 -1       477 1.92665E+01 2.82935E+00-5.25199E-03-1.52394E-01 3.73896E-13-2.86507E-13
 -1       478 2.02291E+01 2.40380E+00-6.80532E-03 2.67385E-01 4.10868E-13-1.52272E-13
 -1       479 2.11589E+01 1.93199E+00-6.69144E-03 6.68192E-01 4.32844E-13 5.43450E-14
 -1       480 2.20000E+01 1.33490E+00-5.41906E-03 8.89741E-01 4.14093E-13 3.32303E-13
 -1       481 2.23686E+01 8.28694E-01 1.94839E-03 7.52794E-01 3.68422E-13 5.49732E-13
 -1       482 2.19257E+01 1.10164E+00 2.33155E-03 6.20971E-01-1.99437E-13-2.98062E-13
 -1       483 2.98889E+01 7.46285E+00-1.73825E-01 1.11028E-01 8.66363E-13-5.86662E-14
 -1       484 2.20823E+01 4.67230E-01 4.45679E-04 1.22418E+00-1.27908E-13-2.12838E-13
 -1       485 2.24732E+01-2.33701E-01-1.84373E-03 1.51527E+00-9.90295E-15-1.33758E-13
 -1       486 2.32228E+01-1.11583E+00-4.06913E-03 1.40447E+00 2.67250E-14-4.52441E-14
 -1       487 2.43977E+01-2.06853E+00-6.11479E-03 7.36431E-01 8.18049E-14 2.28532E-14
 -1       488 2.58433E+01-2.60997E+00-1.16527E-02-5.64462E-01-4.27349E-14 1.51026E-13
 -1       489 2.70328E+01-1.62308E+00-4.97908E-02-2.20938E+00-1.88452E-13 1.31504E-13
 -1       490 2.74053E+01 1.23848E+00-9.62506E-02-2.94559E+00-4.30614E-13-2.26555E-15
 -1       491 2.70497E+01 4.17764E+00-1.55498E-01-1.51142E+00-6.69617E-13-1.99649E-13
 -1       492 2.70398E+01 4.37332E+00-1.32920E-01 1.45265E+00-6.06522E-13-5.44493E-13
 -1       493 2.73916E+01 1.35115E+00-1.06808E-01 3.14247E+00-2.40703E-13-6.28154E-13
 -1       494 2.71071E+01-1.61401E+00-4.81172E-02 2.43506E+00 7.31654E-14-6.52542E-13
 -1       495 2.59248E+01-2.65255E+00-1.11724E-02 7.66785E-01 2.23969E-13-3.47568E-13
 -1       496 2.44207E+01-2.23252E+00-4.36518E-03-6.60813E-01 2.22367E-13-2.47623E-13
 -1       497 2.31612E+01-1.35302E+00-3.40651E-03-1.47923E+00 9.46663E-14-1.96449E-13
 -1       498 2.22788E+01-5.74694E-01-2.27376E-03-1.80606E+00 1.51821E-13-2.25871E-13
 -1       499 2.17028E+01-5.81849E-02-9.56693E-04-1.82771E+00 1.37019E-13-2.52739E-13
 -1       500 2.13232E+01 2.22710E-01 5.08682E-05-1.68617E+00-6.84631E-14-2.39797E-13
 -1       501 2.10564E+01 3.42194E-01 5.66318E-04-1.47157E+00-6.31366E-14-3.76514E-13
 -1       502 2.08531E+01 3.66984E-01 7.67509E-04-1.23690E+00 7.26413E-14-3.48479E-13
 -1       503 2.06883E+01 3.43237E-01 7.80431E-04-1.01125E+00-9.53221E-14-2.47507E-13
 -1       504 2.05505E+01 2.98911E-01 7.03105E-04-8.08895E-01-8.89015E-14-2.03821E-13
 -1       505 2.04343E+01 2.49323E-01 5.93626E-04-6.35213E-01-1.46171E-13-7.72046E-14
 -1       506 2.03373E+01 2.02052E-01 4.81782E-04-4.90631E-01-1.09808E-13-7.12204E-14
 -1       507 2.02573E+01 1.60325E-01 3.80779E-04-3.73010E-01-6.01524E-14-1.18469E-13
 -1       508 2.01926E+01 1.25075E-01 2.95091E-04-2.79087E-01-2.43937E-14-2.00969E-13
 -1       509 2.01413E+01 9.61270E-02 2.25009E-04-2.05290E-01 1.29331E-13-5.54246E-13
 -1       510 2.01012E+01 7.28270E-02 1.69041E-04-1.48167E-01 5.93557E-14-4.64600E-13
 -1       511 2.00705E+01 5.43679E-02 1.25110E-04-1.04597E-01-9.45007E-14-5.34011E-13
 -1       512 2.00475E+01 3.99450E-02 9.11115E-05-7.18641E-02-1.01449E-13-3.44176E-13
 -1       513 2.00306E+01 2.88234E-02 6.51392E-05-4.76707E-02-5.12943E-14-3.09277E-13
 -1       514 2.00184E+01 2.03619E-02 4.55559E-05-3.01116E-02-1.02559E-13-2.51652E-13
 -1       515 2.00099E+01 1.40163E-02 3.09966E-05-1.76330E-02-1.26926E-14-4.79526E-13
 -1       516 2.00042E+01 9.33296E-03 2.03433E-05-8.98665E-03 1.14947E-13-5.24722E-13
 -1       517 2.00005E+01 5.93928E-03 1.26915E-05-3.18387E-03-7.39927E-14-5.43454E-13
 -1       518 1.99982E+01 3.53249E-03 7.31649E-06 5.47541E-04 5.08242E-14-5.94964E-13
 -1       519 1.99970E+01 1.86931E-03 3.64164E-06 2.80154E-03 2.82651E-13-5.96660E-13
 -1       520 1.99965E+01 7.55903E-04 1.20952E-06 4.02740E-03 8.57360E-14-5.78518E-13
 -1       521 1.99964E+01 3.88706E-05-3.46490E-07 4.55807E-03 3.27288E-14-4.97561E-13
 -1       522 1.99967E+01-4.02965E-04-1.30827E-06 4.63380E-03 4.50587E-14-4.64596E-13
 -1       523 1.99971E+01-6.65714E-04-1.83593E-06 4.42123E-03 9.73783E-14-1.64576E-13
 -1       524 1.99976E+01-8.26343E-04-2.08820E-06 4.02917E-03 2.67601E-15 2.41870E-13
 -1       525 1.99981E+01-9.47987E-04-2.42627E-06 3.52136E-03 7.40797E-14 3.44678E-13
 -1       526 1.99986E+01-1.08196E-03-3.49181E-06 2.92896E-03-2.26268E-13 2.18195E-13
 -1       527 1.99991E+01-1.34097E-03-3.59141E-06 2.41277E-03-1.63287E-13 3.15184E-13
 -1       528 2.23730E+01-6.95314E-01-1.20476E-03 6.33049E-01 1.00808E-13 2.44888E-13
 -1       529 2.22347E+01-5.04682E-01-1.24901E-03 2.54961E-01 1.29256E-13 1.97009E-13
 -1       530 2.21014E+01-1.58175E-01-1.23059E-03 1.06145E-01 1.43897E-13 2.21501E-13
 -1       531 2.24252E+01-6.35076E-01-7.93659E-04 1.11015E+00 8.57357E-14 2.98856E-13
 -1       532 2.23001E+01-2.38030E-01-2.86404E-04 1.48236E+00 8.56612E-14 2.93326E-13
 -1       533 2.19916E+01 4.43770E-01 1.30415E-04 1.48974E+00 1.44983E-13 2.97025E-13
 -1       534 2.16361E+01 1.14611E+00 9.47382E-04 9.63812E-01 2.35581E-13 1.88934E-13
 -1       535 2.14585E+01 1.48838E+00 8.52408E-04 4.80550E-03 3.09542E-13 1.33008E-13
 -1       536 2.15873E+01 1.25237E+00-6.78792E-04-9.95951E-01 2.36319E-13 9.42724E-14
 -1       537 2.19428E+01 5.73297E-01 1.85028E-04-1.60901E+00 1.07813E-13 7.66245E-14
 -1       538 2.22737E+01-1.54819E-01-9.34118E-04-1.67856E+00 3.42166E-15-1.32073E-13
 -1       539 2.24212E+01-6.49327E-01-1.76866E-03-1.30912E+00 9.51137E-14-2.05231E-13
 -1       540 2.23513E+01-8.22081E-01-1.83039E-03-7.50243E-01 6.77595E-14-1.30025E-13
 -1       541 2.21315E+01-7.52090E-01-1.85918E-03-2.05217E-01 5.80260E-15-8.50279E-14
 -1       542 2.18445E+01-5.62581E-01-1.81387E-03 2.19692E-01-5.72243E-14 4.41629E-14
 -1       543 2.15498E+01-3.50178E-01-1.33529E-03 4.96798E-01-5.76354E-14 2.14473E-14
 -1       544 2.12777E+01-1.68094E-01-7.78615E-04 6.41901E-01-3.73784E-14-5.35255E-14
 -1       545 2.10394E+01-3.48789E-02-3.26618E-04 6.86853E-01 1.21002E-14-9.41939E-15
 -1       546 2.08360E+01 5.05604E-02-1.00397E-05 6.64543E-01-1.31289E-13 1.11927E-13
 -1       547 2.06649E+01 9.75503E-02 1.85091E-04 6.02513E-01 6.22995E-14 2.59132E-13
 -1       548 2.05224E+01 1.17090E-01 2.84776E-04 5.21272E-01 1.33459E-13 2.53891E-13
 -1       549 2.04050E+01 1.18853E-01 3.18288E-04 4.34789E-01 1.40103E-13 1.95716E-13
 -1       550 2.03093E+01 1.10253E-01 3.10413E-04 3.51771E-01 1.68218E-13 2.61884E-13
 -1       551 2.02323E+01 9.64866E-02 2.79775E-04 2.77052E-01 1.14185E-13 2.10077E-13
 -1       552 2.01712E+01 8.09422E-02 2.39064E-04 2.12798E-01-7.44363E-14 9.39632E-14
 -1       553 2.01234E+01 6.56672E-02 1.96258E-04 1.59455E-01-1.87132E-13 2.62287E-13
 -1       554 2.00867E+01 5.17800E-02 1.55942E-04 1.16442E-01-3.48091E-14 3.41967E-13
 -1       555 2.00590E+01 3.97887E-02 1.20407E-04 8.26408E-02 1.21647E-13 2.01059E-13
 -1       556 2.00384E+01 2.98218E-02 9.04988E-05 5.67057E-02-1.18684E-13 2.06087E-13
 -1       557 2.00235E+01 2.17881E-02 6.62026E-05 3.72690E-02-1.42864E-14 1.61631E-13
 -1       558 2.00130E+01 1.54824E-02 4.70407E-05 2.30530E-02 7.71411E-14 1.63666E-13
 -1       559 2.00058E+01 1.06530E-02 3.23242E-05 1.29292E-02 2.04442E-13 1.27141E-13
 -1       560 2.00011E+01 7.04209E-03 2.13063E-05 5.93907E-03 1.14153E-13 5.92288E-15
 -1       561 1.99982E+01 4.40868E-03 1.32698E-05 1.29426E-03 1.31678E-13-8.92993E-14
 -1       562 1.99966E+01 2.53977E-03 7.57073E-06-1.63669E-03 1.11584E-13-2.37593E-13
 -1       563 1.99959E+01 1.25408E-03 3.65569E-06-3.34724E-03-2.17513E-14 8.56121E-14
 -1       564 1.99957E+01 4.01425E-04 1.06153E-06-4.21353E-03-5.69985E-14 1.68174E-13
 -1       565 1.99960E+01-1.40436E-04-5.92857E-07-4.51449E-03-6.85851E-14 1.79432E-13
 -1       566 1.99964E+01-4.70143E-04-1.61298E-06-4.44978E-03-7.82711E-14 3.96287E-14
 -1       567 1.99970E+01-6.67378E-04-2.24255E-06-4.15515E-03 8.51808E-14-1.35568E-13
 -1       568 1.99976E+01-7.97207E-04-2.75903E-06-3.71609E-03-7.53710E-14-1.21661E-13
 -1       569 1.99981E+01-9.13089E-04-3.42625E-06-3.17844E-03-5.24506E-14-2.15116E-14
 -1       570 1.99987E+01-1.05190E-03-3.19531E-06-2.56067E-03-1.02026E-13 5.72574E-14
 -1       571 2.00005E+01-3.04523E-03 1.22776E-06-2.20639E-03 3.74293E-13-8.85211E-14
 -1       572 2.00000E+01-2.47863E-03 5.43159E-07-2.54270E-03-8.91840E-14 1.35495E-13
 -1       573 1.99995E+01-1.80987E-03-1.56783E-06-2.57243E-03-1.26546E-13-2.97842E-13
 -1       574 4.91396E+00-1.53351E+00 1.73252E-01 2.41274E+00 1.77948E-14 5.79786E-13
 -1       575 2.00008E+01-3.49218E-03 2.07166E-06-1.61594E-03 2.61548E-13 8.79685E-14
 -1       576 2.00010E+01-3.77408E-03 2.64928E-06-8.50927E-04-1.37373E-13-5.62855E-13
 -1       577 2.00011E+01-3.87112E-03 2.83935E-06 2.19434E-06-1.20125E-13-2.71721E-14
 -1       578 2.00010E+01-3.77592E-03 2.63651E-06 8.55951E-04-1.01837E-13-1.27997E-13
 -1       579 2.00008E+01-3.50120E-03 2.14282E-06 1.61012E-03 1.72776E-13-3.84902E-13
 -1       580 2.00005E+01-3.05680E-03 1.29560E-06 2.20570E-03 1.75355E-13-3.07224E-14
 -1       581 2.00000E+01-2.47723E-03 8.13434E-07 2.54719E-03-3.58663E-13 8.02907E-13
 -1       582 1.99996E+01-1.92506E-03-1.02521E-06 2.59778E-03-2.32541E-13 3.17070E-13
 -1       583 2.15757E+01 1.94653E+00-4.66217E-03-1.04019E-01-2.54211E-13-4.06349E-13
 -1       584 1.67864E+01-5.08411E+00 9.89869E-02 7.00182E+00-3.08038E-13 9.47784E-14
 -1       585 4.89745E+00-1.55369E+00 1.78274E-01-1.84915E+00 2.37629E-13 6.97012E-13
 -1       586 1.00304E+01-3.42483E+00 1.42377E-01-5.92839E+00 3.00607E-13 4.28393E-13
 -1       587 3.15205E+01 6.44675E+00-1.71873E-01 1.23137E+00-7.37105E-13-4.71283E-13
 -1       588 2.81467E+01-3.31552E+00-3.05804E-02-1.80482E+00-8.29710E-14-4.39510E-14
 -1       589 2.93788E+01 4.96744E+00-1.90388E-01 1.74601E+00 6.05904E-13 6.86465E-14
 -1       590 1.66522E+01 4.14828E+00-1.72672E-03-4.07433E-01 1.23574E-13-5.92918E-13
 -1       591 2.99447E+01 6.06400E+00-1.69357E-01-1.50149E+00 8.79935E-13-1.79905E-13
 -1       592 2.25334E+01-5.25551E+00 3.34224E-02-5.55371E+00-2.95743E-13-3.60085E-13
 -1       593 2.89952E+01-2.37056E+00-6.12757E-02 7.54090E-01 2.51373E-13-5.43038E-13
 -1       594 2.96296E+01 1.71149E+00-1.42460E-01-1.74062E+00 5.33164E-13-4.14821E-13
 -1       595 2.96412E+01-5.38115E-01-1.07014E-01 3.58302E-01 2.02335E-13 1.65208E-13
 -1       596 1.20938E+01-3.88720E+00 1.18747E-01 6.49622E+00 2.10235E-13-7.40345E-13
 -1       597 1.50851E+01-4.32539E+00 1.02688E-01-7.11233E+00-3.09634E-13-6.38538E-13
 -1       598 8.79027E+00-2.13496E+00 1.65578E-01-5.74119E+00-2.49363E-13-9.30089E-13
 -1       599 4.92629E+00-6.85827E-01 1.77223E-01-1.05072E+00-3.18105E-14-1.00821E-12
 -1       600 2.63803E+01-5.45968E+00-2.22930E-03-3.15605E+00 2.21559E-13-4.61665E-13
 -1       601 6.33688E+00-1.63613E+00 1.62346E-01 3.67826E+00 1.61662E-13-9.08759E-13
 -1       602 1.97110E+01-5.54139E+00 5.33959E-02 6.18278E+00 1.57999E-13-3.12769E-13
 -1       603 2.74406E+01-4.90639E+00 6.35666E-03 2.47444E+00-1.58432E-13 6.78763E-14
 -1       604 3.03655E+01-2.17220E+00-1.03164E-01-4.90042E-01-4.98902E-13 1.61024E-13
 -1       605 3.12915E+01 3.13049E+00-1.40475E-01-2.32380E+00-8.17887E-13-4.91066E-14
 -1       606 3.12188E+01 6.65133E+00-1.53240E-01-8.85294E-01-9.78259E-13-3.66925E-13
 -1       607 3.09454E+01 2.70920E+00-1.57525E-01 2.60475E+00-2.90545E-13-4.99739E-13
 -1       608 1.83326E+01-5.60939E+00 6.68142E-02-6.33878E+00 4.05828E-13 1.13902E-13
 -1       609 1.00103E+01-3.32778E+00 1.41038E-01 6.44757E+00-2.64636E-13 3.02876E-13
 -1       610 1.90313E+01 3.25074E+00-5.40784E-03 6.09330E-02-9.63659E-14-5.80384E-13
 -1       611 2.16146E+01-5.35520E+00 4.12403E-02 5.47702E+00-2.49606E-13-6.21601E-14
 -1       612 2.21843E+01 4.14500E-01 3.33728E-03 3.40629E-01 2.88328E-13 4.31792E-13
 -1       613 2.02661E+01 2.66331E+00-5.44157E-03-2.59567E-03-1.74880E-13-5.23535E-13
 -1       614 2.20932E+01 1.37036E-01 1.61533E-03 1.61565E-01 2.26455E-13 3.24994E-13
 -1       615 2.82005E+01 1.68970E+00-9.85315E-02 2.11075E+00 2.73441E-13 2.31089E-13
 -1       616 1.79889E+01 2.68546E+00-1.48206E-03-1.00626E+00 2.04012E-13-4.29416E-13
 -1       617 1.70176E+01 3.20138E+00-8.21199E-04-9.92871E-01 1.57997E-13-4.77245E-13
 -1       618 2.01294E+01 1.67138E+00-1.61181E-03-3.37595E-01 3.12483E-13-1.80813E-13
 -1       619 2.10408E+01 1.23859E+00-1.79104E-03 8.29748E-02 3.39589E-13-3.62272E-14
 -1       620 2.19682E+01 7.14722E-01 2.71887E-03 4.23546E-01 3.29709E-13 2.45574E-13
 -1       621 2.91193E+01-7.93158E-01-1.02795E-01 2.45779E+00-3.44898E-14-5.19390E-13
 -1       622 2.07728E+01 5.09752E-01 2.72926E-04 1.71991E+00-2.89943E-16-2.76188E-13
 -1       623 2.12635E+01-5.59015E-01 4.63196E-04 2.18501E+00 7.05756E-14-2.10864E-13
 -1       624 2.23451E+01-1.95339E+00 3.01173E-03 2.34121E+00 1.21809E-13-1.18253E-13
 -1       625 2.42780E+01-3.46816E+00 1.84364E-02 1.87563E+00 1.48570E-13-3.05271E-14
 -1       626 2.71461E+01-3.89104E+00-1.77853E-02 2.22023E-01 3.45772E-13-5.01003E-13
 -1       627 2.46032E+01-3.57657E+00 4.83078E-03-1.47050E+00 2.91405E-13-3.95845E-13
 -1       628 2.25261E+01-2.25705E+00 2.35997E-03-2.21188E+00 2.40412E-13-3.03108E-13
 -1       629 2.13353E+01-1.04781E+00 1.57272E-04-2.35564E+00 1.52736E-13-6.40707E-14
 -1       630 2.07116E+01-2.16411E-01-3.56308E-04-2.22284E+00 1.15858E-13-1.87493E-13
 -1       631 2.04212E+01 2.58209E-01 7.77336E-05-1.98269E+00-8.43558E-15-3.27451E-13
 -1       632 2.02989E+01 4.80566E-01 2.79791E-04-1.71077E+00-1.23417E-13-3.15666E-13
 -1       633 2.02496E+01 5.48678E-01 3.79833E-04-1.44076E+00-4.39005E-14-2.61398E-13
 -1       634 2.02256E+01 5.32490E-01 3.84758E-04-1.18921E+00-2.26691E-14-3.32507E-13
 -1       635 2.02063E+01 4.76379E-01 3.43471E-04-9.64256E-01-1.62391E-14-2.24260E-13
 -1       636 2.01852E+01 4.06034E-01 2.87848E-04-7.69138E-01-1.26171E-13-2.16674E-13
 -1       637 2.01615E+01 3.35146E-01 2.32708E-04-6.04022E-01-1.99270E-14-1.22343E-13
 -1       638 2.01367E+01 2.70278E-01 1.83767E-04-4.67180E-01-1.45312E-13-3.44369E-14
 -1       639 2.01124E+01 2.14005E-01 1.42571E-04-3.55817E-01-1.25568E-13-8.80252E-14
 -1       640 2.00901E+01 1.66803E-01 1.08966E-04-2.66671E-01 4.08086E-14-1.90441E-13
 -1       641 2.00704E+01 1.28128E-01 8.21268E-05-1.96405E-01-3.68692E-14-2.44888E-13
 -1       642 2.00538E+01 9.70049E-02 6.10277E-05-1.41847E-01-1.90468E-13-3.74488E-13
 -1       643 2.00401E+01 7.23359E-02 4.46598E-05-1.00123E-01-9.17377E-15-4.19037E-13
 -1       644 2.00292E+01 5.30525E-02 3.21182E-05-6.87138E-02 8.11075E-14-3.72017E-13
 -1       645 2.00207E+01 3.81827E-02 2.26278E-05-4.54687E-02-7.88232E-14-1.89209E-13
 -1       646 2.00142E+01 2.68765E-02 1.55423E-05-2.85878E-02-7.55551E-14-2.22242E-13
 -1       647 2.00093E+01 1.84089E-02 1.03317E-05-1.65927E-02 5.14004E-14-1.45468E-13
 -1       648 2.00058E+01 1.21727E-02 6.56646E-06-8.28884E-03 2.47132E-14-2.85438E-13
 -1       649 2.00033E+01 7.66715E-03 3.90210E-06-2.72615E-03-8.02820E-14-1.88818E-13
 -1       650 2.00016E+01 4.48403E-03 2.06375E-06 8.39400E-04 6.09772E-15-4.78798E-13
 -1       651 2.00004E+01 2.29448E-03 8.31461E-07 2.98086E-03 2.26603E-13-7.55165E-13
 -1       652 1.99997E+01 8.35942E-04 2.65651E-08 4.13155E-03 1.40691E-13-7.21130E-13
 -1       653 1.99993E+01-9.98531E-05-5.17753E-07 4.61205E-03-1.29977E-13-5.44179E-13
 -1       654 1.99991E+01-6.78119E-04-8.50243E-07 4.65303E-03 3.34003E-13-5.93892E-13
 -1       655 1.99991E+01-1.02947E-03-7.75086E-07 4.41297E-03 2.84184E-13-4.72778E-13
 -1       656 1.99991E+01-1.25726E-03-7.72405E-07 3.99532E-03 2.03237E-13-6.94776E-14
 -1       657 1.99992E+01-1.44865E-03-1.04210E-06 3.45852E-03-5.93188E-14 8.23694E-14
 -1       658 1.99994E+01-1.66832E-03-7.49389E-07 3.04789E-03-1.01131E-13 2.92716E-13
 -1       659 2.25423E+01-9.62745E-01-1.21162E-03 1.68368E-01 8.13968E-14 7.78808E-14
 -1       660 2.29956E+01-1.17940E+00 1.18331E-04 6.74421E-01 4.20825E-14 6.43601E-14
 -1       661 2.21202E+01-4.73412E-01 1.40829E-03-8.61326E-02 1.30370E-13 4.74185E-14
 -1       662 2.32920E+01-1.73506E-02-4.91787E-03 1.76669E+00 1.23568E-13 2.30673E-13
 -1       663 2.29695E+01 1.28188E+00-9.40782E-03 1.62486E+00 2.30301E-13 2.01956E-13
 -1       664 2.26045E+01 2.33468E+00-6.43262E-03 6.98005E-01 3.12648E-13 1.44293E-13
 -1       665 2.25216E+01 2.43552E+00-1.39144E-02-6.60554E-01 3.34043E-13 9.77543E-14
 -1       666 2.27990E+01 1.54068E+00-1.39737E-02-1.70937E+00 2.64086E-13-7.34625E-14
 -1       667 2.32260E+01 1.70647E-01 5.12119E-03-1.98813E+00 1.63036E-13-2.21607E-13
 -1       668 2.32596E+01-8.80010E-01-2.50966E-03-1.54853E+00 1.37738E-13-2.67086E-13
 -1       669 2.29459E+01-1.33669E+00-8.57704E-04-8.26142E-01-3.33418E-14-2.83202E-13
 -1       670 2.24462E+01-1.31665E+00 1.84333E-04-1.37706E-01 1.21087E-14-1.33149E-13
 -1       671 2.19063E+01-1.03341E+00-7.93904E-04 3.74521E-01 2.79687E-14-1.73506E-13
 -1       672 2.14315E+01-6.78073E-01-7.02854E-04 6.90569E-01-8.97882E-14-1.61094E-13
 -1       673 2.10558E+01-3.57704E-01-3.82617E-04 8.44267E-01-7.14976E-14-7.15585E-14
 -1       674 2.07758E+01-1.13886E-01-1.62604E-04 8.81956E-01-2.86094E-14 1.34722E-14
 -1       675 2.05732E+01 4.95144E-02-2.91401E-05 8.44808E-01-1.20216E-13-2.77605E-14
 -1       676 2.04278E+01 1.45359E-01 5.28051E-05 7.64545E-01-1.18201E-13-1.96493E-13
 -1       677 2.03227E+01 1.91112E-01 9.48751E-05 6.63766E-01 1.69548E-14-1.57648E-14
 -1       678 2.02455E+01 2.03057E-01 1.10651E-04 5.57637E-01 1.78000E-13 1.05565E-13
 -1       679 2.01876E+01 1.94203E-01 1.09965E-04 4.55675E-01 1.58202E-13 7.99889E-14
 -1       680 2.01434E+01 1.74025E-01 1.00238E-04 3.63302E-01 1.80562E-13 6.91112E-14
 -1       681 2.01093E+01 1.48952E-01 8.63486E-05 2.83085E-01 1.30869E-13-9.14176E-15
 -1       682 2.00826E+01 1.23062E-01 7.13529E-05 2.15699E-01-4.69312E-14-1.04655E-13
 -1       683 2.00618E+01 9.87340E-02 5.70219E-05 1.60638E-01-1.54342E-13-1.87542E-13
 -1       684 2.00457E+01 7.71903E-02 4.42668E-05 1.16734E-01-5.45952E-14-1.37228E-13
 -1       685 2.00331E+01 5.89019E-02 3.34506E-05 8.25061E-02-3.95067E-15 5.05911E-14
 -1       686 2.00235E+01 4.38805E-02 2.46088E-05 5.63982E-02 6.27588E-17-7.67907E-14
 -1       687 2.00163E+01 3.18790E-02 1.75959E-05 3.69186E-02-3.68117E-14-1.78820E-15
 -1       688 2.00109E+01 2.25243E-02 1.21807E-05 2.27203E-02 7.49947E-14-5.65107E-15
 -1       689 2.00069E+01 1.54014E-02 8.10461E-06 1.26370E-02 3.41265E-13 1.07562E-13
 -1       690 2.00041E+01 1.01034E-02 5.11468E-06 5.69145E-03 1.46598E-13-2.89318E-14
 -1       691 2.00021E+01 6.25861E-03 2.98180E-06 1.08669E-03 1.47081E-13-1.28616E-13
 -1       692 2.00008E+01 3.54314E-03 1.50772E-06-1.81141E-03-1.66699E-13 2.07510E-14
 -1       693 1.99999E+01 1.68362E-03 5.25671E-07-3.49585E-03-2.24809E-15 1.35741E-13
 -1       694 1.99994E+01 4.54745E-04-1.06951E-07-4.34078E-03 8.28855E-14 1.90419E-13
 -1       695 1.99991E+01-3.26431E-04-5.07852E-07-4.62235E-03 4.15722E-14 4.98953E-14
 -1       696 1.99990E+01-8.07428E-04-7.50543E-07-4.53734E-03 8.16747E-14 1.80171E-13
 -1       697 1.99990E+01-1.10691E-03-6.64885E-07-4.21817E-03-8.16772E-14 4.57069E-13
 -1       698 1.99991E+01-1.32021E-03-8.43244E-07-3.75143E-03 3.55060E-14 2.86821E-13
 -1       699 1.99993E+01-1.55369E-03-1.51693E-06-3.20614E-03-4.98649E-14 1.82810E-13
 -1       700 2.61922E+01-4.51202E+00-1.20006E-02 2.27424E+00 2.80505E-15-5.37039E-13
 -1       701 2.00006E+01-2.43124E-03 2.25927E-07-2.86871E-03 3.32223E-13 2.08290E-13
 -1       702 2.00017E+01-3.15234E-03 9.40138E-07-1.47227E-03 1.53481E-13-5.05642E-13
 -1       703 2.00000E+01-2.00896E-03-7.24708E-07-3.14709E-03 2.44558E-13 1.41866E-13
 -1       704 2.00013E+01-2.85975E-03 4.02540E-07-2.29132E-03 2.79216E-13-1.57691E-13
 -1       705 9.75501E+00-9.41448E-01 1.38005E-01 4.28211E+00-2.35627E-13 3.32449E-13
 -1       706 2.00019E+01-3.30707E-03 1.01663E-06 5.07998E-04 2.94618E-13-1.31135E-13
 -1       707 2.00017E+01-3.16368E-03 7.07272E-07 1.46066E-03 2.40652E-13-2.83384E-13
 -1       708 2.00013E+01-2.87283E-03 9.20111E-07 2.28850E-03 2.00688E-13-3.23255E-13
 -1       709 2.00006E+01-2.44895E-03-5.80032E-07 2.87557E-03 2.43168E-13 3.81210E-13
 -1       710 2.68165E+01 5.61850E+00-1.43863E-01 1.09668E+00 6.93619E-13 1.24758E-13
 -1       711 7.49079E+00-1.71522E-03 1.54477E-01 2.37549E-01 5.98922E-14 4.11844E-13
 -1       712 9.89748E+00-8.98851E-01 1.55313E-01-3.76237E+00 3.34125E-13 5.79849E-13
 -1       713 2.33564E+01-5.31399E+00 4.48916E-02-4.00811E+00 4.93505E-13-4.81703E-13
 -1       714 2.75475E+01-2.41375E+00-5.38201E-02 3.44607E-01-6.69304E-14 1.88266E-13
 -1       715 2.00019E+01-3.30432E-03 1.07887E-06-5.06770E-04 1.79936E-13-3.08534E-13
 -1       716 1.74708E+01-3.79066E+00 8.21571E-02 5.78514E+00 3.31395E-13-3.95531E-13
 -1       717 2.71123E+01 6.03828E+00-1.47830E-01-9.04956E-01 7.79238E-13-7.28185E-14
 -1       718 2.00536E+01-4.38021E+00 5.74642E-02-5.69378E+00-3.46920E-13-3.29205E-13
 -1       719 2.05997E+01 1.35229E+00-4.57893E-04 1.07125E+00-9.38726E-14-3.69685E-13
 -1       720 2.54150E+01-4.47669E+00 3.36625E-03-2.76056E+00-2.67298E-13-4.99947E-14
 -1       721 2.75866E+01-1.34741E+00-7.41395E-02-1.23316E+00 2.16639E-13-4.22603E-13
 -1       722 1.40499E+01-2.30622E+00 1.10847E-01-6.06807E+00-3.05287E-13-6.67931E-13
 -1       723 2.39819E+01-4.95398E+00 2.76333E-02 3.58413E+00 1.79683E-13-3.36159E-14
 -1       724 1.90885E+01 2.15032E+00-1.21846E-03-7.50388E-01 2.56948E-13-3.01030E-13
 -1       725 9.15057E+00 2.34775E-01 1.48988E-01-3.25800E+00-9.14668E-14-8.45629E-13
 -1       726 1.18897E+01-1.35464E+00 1.35914E-01 4.89933E+00 2.91902E-13-6.93209E-13
 -1       727 2.79359E+01-3.58537E+00-3.26801E-02-3.08223E-01-1.60529E-13 2.33855E-13
 -1       728 2.70555E+01 3.49988E+00-1.14729E-01-2.20992E+00 5.78558E-13-2.96839E-13
 -1       729 7.89084E+00 3.98448E-01 1.49697E-01 1.42697E+00 1.38068E-13-8.19497E-13
 -1       730 1.70670E+01 3.39727E+00-7.76475E-04 2.64472E-01 4.37620E-14-5.64925E-13
 -1       731 2.32987E+01-9.06247E-01-1.91451E-03 1.31714E+00 3.78885E-14 1.59924E-13
 -1       732 1.57326E+01-3.29321E+00 1.10222E-01 6.13407E+00-2.50706E-13 1.31617E-13
 -1       733 1.59347E+01-3.70136E+00 1.00108E-01-5.89015E+00 3.70586E-13 9.82166E-14
 -1       734 2.04431E+01 1.97762E+00-2.08231E-04 5.41031E-01-1.50740E-13-4.52418E-13
 -1       735 1.82713E+01 2.87158E+00 6.21510E-04 5.67285E-01-1.79309E-14-5.30352E-13
 -1       736 1.64182E+01 3.56590E+00-1.30326E-03-6.92420E-01 1.02767E-13-5.20581E-13
 -1       737 2.95467E+01-1.36898E+00-8.38311E-02-1.74004E+00-4.45602E-13 2.50473E-13
 -1       738 1.93257E+01-4.05026E+00 5.02379E-02 5.29941E+00-3.08482E-13-1.68303E-14
 -1       739 2.62801E+01 3.43887E+00-8.83385E-02 2.03526E+00 4.06186E-13 2.58770E-13
 -1       740 2.00000E+01-2.08153E-03-5.24047E-07 3.06863E-03-1.33226E-14 4.94063E-13
 -1       741 2.17558E+01 1.93889E-01-2.97171E-04-4.75746E-02 2.28935E-13 7.66430E-14
 -1       742 2.61481E+01 6.07201E-01-6.67203E-02-2.30589E+00 3.02877E-13-3.86198E-13
 -1       743 1.64107E+01 3.64827E+00-1.25939E-03-2.10429E-01 8.24862E-14-5.56442E-13
 -1       744 2.80621E+01 4.00180E+00-1.32630E-01 2.22012E+00-4.98039E-13-5.33913E-13
 -1       745 2.10107E+01 5.57510E-01 1.11339E-03-4.73178E-01 2.40137E-13-9.32703E-14
 -1       746 1.81871E+01-2.62807E+00 5.02585E-02-5.14828E+00-2.95750E-13-3.81820E-13
 -1       747 2.54887E+01-3.26890E+00-1.32576E-02-7.74670E-01-1.43012E-13 6.59731E-14
 -1       748 1.93372E+01 2.43857E+00 1.19559E-04 6.04950E-01-8.24048E-14-4.72372E-13
 -1       749 1.93831E+01-7.80754E-01 7.11145E-03 3.08959E+00 1.60273E-13-2.65534E-13
 -1       750 2.05123E+01-2.67670E+00 4.11272E-02 3.86836E+00 2.32407E-13-1.96009E-13
 -1       751 1.45295E+01-1.08705E+00 6.46290E-02 4.40500E+00-3.56640E-13 2.52815E-13
 -1       752 2.50052E+01 3.93149E+00-7.58216E-02-1.53310E+00 5.53974E-13-2.32363E-13
 -1       753 2.10094E+01-3.14299E+00 4.45160E-02-3.65638E+00 3.77420E-13-2.78471E-13
 -1       754 1.96277E+01-1.44513E+00 9.66145E-03-3.23568E+00 2.80855E-13-1.57220E-13
 -1       755 1.91553E+01-3.04529E-01 1.29755E-03-2.69131E+00 6.30296E-14-1.91674E-13
 -1       756 1.90981E+01 3.45755E-01 4.88479E-04-2.22058E+00-4.45057E-14-2.91774E-13
 -1       757 1.92165E+01 6.59671E-01 4.88935E-05-1.83818E+00 4.61801E-15-2.93961E-13
 -1       758 1.93869E+01 7.69025E-01 8.53006E-05-1.52335E+00-2.09991E-14-1.49864E-13
 -1       759 1.95527E+01 7.61673E-01 1.13988E-04-1.25747E+00 1.77032E-14-7.34096E-14
 -1       760 1.96913E+01 6.95046E-01 1.05038E-04-1.02941E+00 1.23278E-15-5.28437E-14
 -1       761 1.97978E+01 6.03688E-01 8.44801E-05-8.33215E-01-1.19343E-13-2.34211E-14
 -1       762 1.98751E+01 5.07178E-01 6.49373E-05-6.65649E-01-9.45779E-14 5.44953E-14
 -1       763 1.99287E+01 4.15819E-01 4.94595E-05-5.24328E-01-3.77858E-14-2.93982E-13
 -1       764 1.99643E+01 3.34385E-01 3.75347E-05-4.06914E-01-6.86977E-14-1.53912E-13
 -1       765 1.99869E+01 2.64501E-01 2.83455E-05-3.10890E-01-9.80367E-14 6.62594E-14
 -1       766 2.00005E+01 2.06097E-01 2.12482E-05-2.33593E-01 3.22333E-14-5.35015E-14
 -1       767 2.00080E+01 1.58265E-01 1.57695E-05-1.72347E-01-1.77776E-13 8.15038E-14
 -1       768 2.00116E+01 1.19744E-01 1.15555E-05-1.24579E-01-2.03589E-13 2.37187E-15
 -1       769 2.00128E+01 8.91815E-02 8.33492E-06-8.79197E-02 7.35853E-15-3.65946E-14
 -1       770 2.00125E+01 6.52771E-02 5.89566E-06-6.02529E-02 4.38014E-14-5.66966E-14
 -1       771 2.00114E+01 4.68441E-02 4.06933E-06-3.97449E-02-5.75381E-14-1.78625E-13
 -1       772 2.00099E+01 3.28391E-02 2.72109E-06-2.48418E-02-5.34836E-14-1.22645E-13
 -1       773 2.00084E+01 2.23665E-02 1.74265E-06-1.42548E-02-1.16119E-13-1.79454E-13
 -1       774 2.00069E+01 1.46722E-02 1.04708E-06-6.93489E-03 1.09255E-13-3.40152E-13
 -1       775 2.00055E+01 9.13121E-03 5.64360E-07-2.04329E-03-7.05434E-14-1.10168E-13
 -1       776 2.00043E+01 5.23269E-03 2.36202E-07 1.07877E-03-1.52849E-14-7.38249E-14
 -1       777 2.00033E+01 2.56392E-03 7.43399E-09 2.93949E-03 7.99365E-14-2.57874E-13
 -1       778 2.00024E+01 7.94720E-04-1.86628E-07 3.92310E-03 3.27663E-13-5.66071E-13
 -1       779 2.00017E+01-3.37085E-04-3.03382E-07 4.31316E-03 9.39514E-14-1.03968E-13
 -1       780 2.00011E+01-1.03722E-03-3.50537E-07 4.31592E-03 3.17507E-13-2.20956E-13
 -1       781 2.00007E+01-1.48356E-03-1.36318E-06 4.07676E-03 3.87634E-13-1.89637E-13
 -1       782 2.00003E+01-1.79028E-03-2.18749E-07 3.66752E-03 3.52787E-13-4.81824E-14
 -1       783 2.29826E+01-1.57203E+00-1.71793E-03-1.56015E-01 3.92921E-14-2.02275E-14
 -1       784 2.21537E+01-9.28655E-01 1.18342E-03-5.14392E-01 9.14546E-14-4.88940E-14
 -1       785 2.41592E+01 2.70343E+00-3.62587E-02 1.63465E+00 3.15226E-13 2.12339E-13
 -1       786 2.45007E+01 5.92390E-01-1.92610E-02 2.02888E+00 1.35805E-13 2.21521E-13
 -1       787 2.37964E+01-1.89370E+00 7.46186E-04-7.15537E-01 2.15693E-14-1.23186E-13
 -1       788 2.29314E+01-2.01225E+00 1.37447E-03 1.60349E-01-2.10730E-14-1.64701E-13
 -1       789 2.20550E+01-1.61081E+00 2.46337E-04 7.33650E-01-3.85537E-15-1.43637E-13
 -1       790 2.13300E+01-1.07970E+00-6.19373E-04 1.03493E+00-6.34967E-14-7.71028E-14
 -1       791 2.08093E+01-5.92839E-01-1.62716E-04 1.13634E+00-1.63443E-13 3.55056E-15
 -1       792 2.04642E+01-2.17518E-01-7.37184E-06 1.11692E+00-1.38979E-13 3.13939E-14
 -1       793 2.02504E+01 3.89380E-02 1.49972E-05 1.03060E+00-8.85317E-14 7.51442E-14
 -1       794 2.01262E+01 1.94446E-01 3.30167E-05 9.11929E-01 7.46137E-15 2.52868E-14
 -1       795 2.00589E+01 2.73907E-01 3.83214E-05 7.82053E-01-1.26070E-13 7.72639E-14
 -1       796 2.00257E+01 3.00818E-01 3.82827E-05 6.53707E-01 3.11788E-14 3.46815E-14
 -1       797 2.00115E+01 2.94289E-01 3.45914E-05 5.34310E-01 1.64048E-13 1.38494E-13
 -1       798 2.00071E+01 2.68565E-01 2.96831E-05 4.27807E-01 1.55750E-13 1.11342E-13
 -1       799 2.00072E+01 2.33587E-01 2.45722E-05 3.35843E-01 2.94317E-13 1.47698E-13
 -1       800 2.00087E+01 1.95879E-01 1.97532E-05 2.58546E-01 7.06764E-14 1.49121E-13
 -1       801 2.00103E+01 1.59432E-01 1.54731E-05 1.95092E-01-6.96611E-14 1.47831E-13
 -1       802 2.00113E+01 1.26450E-01 1.18303E-05 1.44108E-01-9.48469E-14 1.14161E-13
 -1       803 2.00116E+01 9.79376E-02 8.83133E-06 1.03962E-01-1.75116E-13 3.10671E-13
 -1       804 2.00113E+01 7.41331E-02 6.42976E-06 7.29694E-02 1.05942E-13 1.84168E-13
 -1       805 2.00105E+01 5.48199E-02 4.55330E-06 4.95130E-02-8.26518E-14-2.59433E-14
 -1       806 2.00094E+01 3.95374E-02 3.12082E-06 3.21259E-02 7.20126E-14-9.27951E-14
 -1       807 2.00082E+01 2.77204E-02 2.05247E-06 1.95257E-02 1.82094E-13-3.05796E-13
 -1       808 2.00069E+01 1.87861E-02 1.27521E-06 1.06262E-02 2.25310E-13-3.48032E-13
 -1       809 2.00057E+01 1.21846E-02 7.25345E-07 4.53051E-03 1.58263E-13-2.92271E-13
 -1       810 2.00046E+01 7.42511E-03 3.49456E-07 5.15648E-04-6.85479E-14-1.28991E-13
 -1       811 2.00036E+01 4.08574E-03 1.02845E-07-1.98896E-03-2.42937E-13-2.05687E-14
 -1       812 2.00027E+01 1.81404E-03-5.36697E-08-3.42374E-03-2.52410E-13 1.87454E-13
 -1       813 2.00020E+01 3.21274E-04-1.80280E-07-4.12083E-03-1.03958E-15 4.52659E-13
 -1       814 2.00014E+01-6.26173E-04-3.02110E-07-4.32400E-03 1.05577E-13 2.85767E-13
 -1       815 2.00009E+01-1.21515E-03-5.03186E-07-4.20595E-03-5.92390E-15 1.79934E-13
 -1       816 2.00005E+01-1.59847E-03-1.18050E-06-3.88243E-03-4.18444E-14 2.31390E-13
 -1       817 2.00002E+01-1.80900E-03-1.07652E-06-3.54871E-03 8.43390E-14 4.07948E-13
 -1       818 2.00015E+01-2.32845E-03-1.02666E-06 2.96861E-03 5.91439E-13 5.22768E-14
 -1       819 2.00023E+01-2.62363E-03-3.27677E-07 2.12239E-03 4.26795E-13-3.46059E-13
 -1       820 2.00028E+01-2.78921E-03 4.59092E-07 1.11770E-03 3.59235E-13-1.52770E-13
 -1       821 2.00029E+01-2.84094E-03 4.59290E-07-2.87595E-06 5.03885E-13-4.47610E-14
 -1       822 2.62083E+01-4.27500E-01-6.78584E-02 1.81638E+00 5.35292E-14 2.52462E-13
 -1       823 2.42418E+01 4.31832E+00-8.00867E-02 2.51875E-01 4.97432E-13 1.22659E-14
 -1       824 2.00027E+01-2.78100E-03 2.77190E-07-1.12185E-03 3.94959E-13-4.15509E-13
 -1       825 1.90383E+01 5.86363E-01 3.91436E-03 2.26784E+00 8.58214E-14-3.30868E-13
 -1       826 2.03034E+01-3.84795E+00 4.02093E-02-4.47661E+00 4.48735E-13-3.04748E-13
 -1       827 2.59101E+01-3.32152E+00-8.08756E-03 3.09165E-01-5.88440E-14-3.89178E-13
 -1       828 1.90543E+01 1.57425E+00 9.74396E-04 1.46115E+00 1.48444E-14-3.91525E-13
 -1       829 1.74325E+01 2.17337E+00-1.05293E-03-1.56192E+00 1.12760E-13-4.12191E-13
 -1       830 1.10494E+01 5.77272E-01 7.31757E-02 1.84094E+00-1.67688E-13 1.28782E-13
 -1       831 1.17037E+01 6.00407E-01 8.34849E-02 2.79912E+00 1.88490E-13-7.07070E-13
 -1       832 2.27763E+01-3.83403E+00 1.89541E-02-3.43781E+00-2.60855E-13-1.82535E-13
 -1       833 1.31330E+01-2.73869E-01 6.91864E-02-4.39066E+00-1.79279E-13-6.46264E-13
 -1       834 1.07764E+01 5.18636E-01 7.28542E-02-1.46426E+00 6.76917E-14 3.39458E-13
 -1       835 1.58813E+01-1.18974E+00 6.88279E-02 4.42059E+00 2.56524E-13-4.61563E-13
 -1       836 2.34208E+01-4.60594E+00 1.23016E-02 3.38076E+00-2.20940E-13-4.18855E-13
 -1       837 1.45621E+01-1.50720E+00 6.69865E-02-4.51465E+00 4.35488E-13 8.39537E-14
 -1       838 1.02487E+01 1.35351E+00 8.86474E-02-6.41209E-01 7.96808E-14-7.42385E-13
 -1       839 1.62904E+01 2.79854E+00 1.63909E-03-1.26392E+00 8.26935E-14-4.65367E-13
 -1       840 2.53842E+01-1.87600E+00 6.33248E-03 9.80208E-01-1.78854E-14 2.13265E-13
 -1       841 2.46350E+01-1.28677E+00-3.01166E-03-1.51933E+00 8.85954E-14-2.40795E-13
 -1       842 1.69746E+01-2.00880E+00 3.22492E-02 4.50105E+00-2.94886E-13-2.76524E-14
 -1       843 2.38097E+01-1.79113E+00-1.17801E-02 5.25770E-01-8.89658E-15 7.26173E-14
 -1       844 2.00023E+01-2.60927E-03 1.92101E-07-2.14032E-03 1.23582E-13-3.55462E-13
 -1       845 2.44293E+01-1.09904E+00 8.32772E-04 1.42620E+00-1.55919E-15 1.46899E-13
 -1       846 2.00016E+01-2.31839E-03 1.25984E-06-2.97043E-03-2.19710E-13 1.20235E-13
 -1       847 2.00343E+01 9.63243E-01 9.15763E-05-9.74806E-01 1.89294E-13-2.04346E-13
 -1       848 2.54157E+01-2.21613E+00-2.06737E-02-8.91133E-01 1.01269E-14-3.22605E-13
 -1       849 1.72473E+01 2.54886E+00-1.96355E-03 9.77597E-01 6.50013E-14-5.07451E-13
 -1       850 1.60896E+01 3.05450E+00 6.76458E-04 3.08176E-01 8.07840E-14-5.41881E-13
 -1       851 1.23582E+01 1.26363E+00 3.53718E-02-2.42079E+00-3.75672E-14-6.44299E-13
 -1       852 1.87874E+01 1.51182E+00-3.66249E-04-1.42394E+00 1.41364E-13-3.41048E-13
 -1       853 1.37818E+01 1.03385E-01 4.18800E-02-2.90706E+00 2.42439E-13 2.54365E-13
 -1       854 2.21015E+01-1.50283E+00-7.04566E-03-1.25549E+00 1.46667E-14-4.02566E-14
 -1       855 2.00024E+01-1.90948E-03 5.54575E-07 3.27691E-03 4.83612E-13 4.99823E-14
 -1       856 2.37512E+01-3.54810E+00-8.37231E-04 1.60208E+00-8.70034E-14-2.90082E-13
 -1       857 1.26141E+01 1.73442E+00 4.06364E-02 8.86692E-01 1.38842E-13-6.66566E-13
 -1       858 2.11100E+01-1.50459E+00-6.54462E-04 1.59988E+00-1.21318E-13-5.43213E-14
 -1       859 2.21432E+01-2.29484E+00 2.46157E-03 1.41382E+00 2.94033E-14-1.11867E-13
 -1       860 1.68968E+01-1.51108E-01 1.17476E-02-3.01313E+00 2.47900E-13-1.45499E-13
 -1       861 1.74046E+01 5.41432E-01 3.04484E-03-2.26216E+00-3.83475E-14-1.07257E-13
 -1       862 1.79232E+01 8.77248E-01-4.81655E-04-1.75657E+00-9.29767E-14-1.00903E-13
 -1       863 1.83934E+01 9.95719E-01-1.42123E-04-1.41611E+00 5.78268E-15-2.22145E-13
 -1       864 1.87855E+01 9.87273E-01-1.17642E-05-1.16287E+00-5.04884E-14-3.18232E-13
 -1       865 1.90998E+01 9.10959E-01 2.19696E-05-9.60206E-01-9.22283E-16-2.92057E-13
 -1       866 1.93446E+01 8.03095E-01 2.11066E-05-7.89755E-01 1.56995E-14-3.64141E-13
 -1       867 1.95312E+01 6.85575E-01 1.25021E-05-6.43302E-01 1.18692E-14-3.39046E-14
 -1       868 1.96709E+01 5.71091E-01 6.97322E-06-5.17281E-01-2.10985E-13-1.04649E-14
 -1       869 1.97737E+01 4.66359E-01 3.99188E-06-4.09854E-01 1.00492E-14-7.76248E-14
 -1       870 1.98482E+01 3.74363E-01 2.37454E-06-3.19613E-01 1.31990E-13 3.45210E-14
 -1       871 1.99014E+01 2.95861E-01 1.45365E-06-2.45073E-01-1.03721E-13-3.00333E-14
 -1       872 1.99388E+01 2.30359E-01 9.04594E-07-1.84570E-01-1.06972E-13-1.88915E-13
 -1       873 1.99646E+01 1.76709E-01 5.63605E-07-1.36315E-01-2.57860E-13-3.29430E-13
 -1       874 1.99820E+01 1.33480E-01 3.43603E-07-9.84969E-02-9.26363E-14-7.42332E-14
 -1       875 1.99933E+01 9.91742E-02 1.97302E-07-6.93775E-02 3.03877E-14-7.58682E-14
 -1       876 2.00004E+01 7.23505E-02 9.86177E-08-4.73608E-02-7.54790E-14-1.48560E-13
 -1       877 2.00046E+01 5.16886E-02 3.25542E-08-3.10323E-02-4.07427E-14 5.46624E-14
 -1       878 2.00067E+01 3.60199E-02-1.01548E-08-1.91752E-02-5.17555E-14 6.62616E-14
 -1       879 2.00075E+01 2.43359E-02-3.57408E-08-1.07694E-02-1.48007E-13 1.01162E-13
 -1       880 2.00074E+01 1.57834E-02-4.90330E-08-4.97825E-03 1.14573E-13-2.81837E-13
 -1       881 2.00069E+01 9.65349E-03-5.63531E-08-1.13003E-03-3.74509E-14-2.88841E-13
 -1       882 2.00060E+01 5.36540E-03-6.76048E-08 1.30427E-03-1.09040E-13-2.25228E-13
 -1       883 2.00051E+01 2.44923E-03-1.05879E-07 2.73301E-03 1.63088E-13-8.92142E-14
 -1       884 2.00041E+01 5.28680E-04-3.44309E-08 3.46395E-03 3.39599E-13-1.77871E-14
 -1       885 2.00032E+01-6.89741E-04 1.02778E-06 3.72572E-03 2.55449E-13 1.69874E-13
 -1       886 2.00028E+01-1.38223E-03-9.87136E-08 3.56522E-03 4.67534E-13 1.29161E-13
 -1       887 1.42516E+01 3.96472E-01 2.98225E-02 2.51059E+00-2.13594E-13 1.58882E-13
 -1       888 2.41185E+01-2.70111E+00-8.97941E-03 4.00015E-02-2.48159E-14-1.32248E-13
 -1       889 2.04401E+01-8.24454E-01 2.09825E-04 1.56466E+00-1.75481E-13-6.34180E-14
 -1       890 2.00430E+01-3.07911E-01 1.97828E-04 1.41859E+00-1.34685E-13-1.35229E-13
 -1       891 1.98350E+01 4.36673E-02 4.41286E-05 1.23540E+00-1.16161E-13-6.20685E-14
 -1       892 1.97471E+01 2.58311E-01 3.49682E-05 1.04937E+00-1.57138E-13 7.68261E-15
 -1       893 1.97296E+01 3.70937E-01 2.22348E-05 8.75043E-01-7.54654E-14 1.04591E-13
 -1       894 1.97498E+01 4.12607E-01 1.77198E-05 7.18220E-01-3.80223E-14-1.27998E-13
 -1       895 1.97873E+01 4.08317E-01 1.21964E-05 5.80796E-01 3.56328E-14-1.15996E-13
 -1       896 1.98298E+01 3.76812E-01 8.08144E-06 4.62766E-01 3.17653E-14 1.55067E-13
 -1       897 1.98704E+01 3.31392E-01 5.32574E-06 3.63179E-01 7.34459E-14 1.66775E-13
 -1       898 1.99059E+01 2.81007E-01 3.48658E-06 2.80561E-01 1.48922E-13 2.87667E-13
 -1       899 1.99350E+01 2.31319E-01 2.24424E-06 2.13142E-01-1.36216E-13 4.03532E-13
 -1       900 1.99578E+01 1.85612E-01 1.40306E-06 1.59022E-01-1.13254E-14 4.07642E-13
 -1       901 1.99749E+01 1.45523E-01 8.38279E-07 1.16283E-01-1.95955E-13 2.66833E-13
 -1       902 1.99873E+01 1.11602E-01 4.65039E-07 8.30908E-02 3.38622E-14 1.30766E-13
 -1       903 1.99957E+01 8.37254E-02 2.23815E-07 5.77520E-02 1.69102E-13 1.84482E-13
 -1       904 2.00012E+01 6.13841E-02 7.27041E-08 3.87573E-02 2.16592E-13-1.01746E-13
 -1       905 2.00045E+01 4.38830E-02-1.76169E-08 2.47963E-02 8.51370E-14-1.91513E-13
 -1       906 2.00062E+01 3.04689E-02-6.74767E-08 1.47595E-02 2.99155E-13-1.68141E-13
 -1       907 2.00068E+01 2.04088E-02-9.07485E-08 7.72745E-03 6.79323E-14-5.82383E-14
 -1       908 2.00067E+01 1.30336E-02-9.66580E-08 2.95365E-03-1.63616E-13-2.83472E-14
 -1       909 2.00062E+01 7.75846E-03-9.05562E-08-1.56245E-04-2.80166E-13 1.60624E-13
 -1       910 2.00054E+01 4.08797E-03-7.79878E-08-2.06643E-03-2.89683E-13 1.52636E-13
 -1       911 2.00045E+01 1.61209E-03-7.08749E-08-3.13216E-03-2.47620E-13 4.72679E-15
 -1       912 2.00037E+01-2.81423E-06-1.50058E-08-3.61870E-03 8.78158E-14 4.66391E-14
 -1       913 2.00028E+01-1.02253E-03 6.56729E-07-3.72112E-03 1.24136E-13-6.83897E-14
 -1       914 2.00020E+01-1.67823E-03 1.02550E-06-3.57948E-03-8.35794E-15 8.80201E-14
 -1       915 1.26268E+01 1.08680E+00 3.48665E-02-6.04631E-02-2.52378E-14 3.34142E-14
 -1       916 1.66119E+01 8.72122E-01 1.08719E-02 2.57435E+00 1.60273E-13-4.30507E-13
 -1       917 2.00035E+01-2.22716E-03-6.33104E-07 1.76637E-03 1.23238E-13-7.59063E-14
 -1       918 2.00039E+01-2.29186E-03 5.73534E-08 5.88964E-04 1.07240E-13-2.43478E-13
 -1       919 2.08756E+01-3.09245E-01-6.29152E-03-1.30604E+00 1.00145E-13-1.35258E-13
 -1       920 2.00039E+01-2.28486E-03-4.19720E-07-6.24266E-04 4.41712E-13-1.33729E-13
 -1       921 1.65698E+01-6.73728E-01 2.20247E-02-4.11170E+00-1.60268E-13-4.34756E-13
 -1       922 1.57629E+01 3.13751E+00 1.27996E-03-5.52053E-01 8.26326E-14-5.53512E-13
 -1       923 2.09972E+01-3.48097E+00 1.39259E-02 3.77425E+00-2.75437E-13-2.53990E-13
 -1       924 1.69575E+01 1.78243E+00 6.40216E-03 1.68314E+00 1.08551E-13-4.71370E-13
 -1       925 2.36545E+01-2.95395E+00 4.69750E-03-1.49010E+00-1.55114E-13 1.03008E-14
 -1       926 2.05333E+01-2.29494E+00 8.67629E-03-3.52029E+00-1.87734E-13-2.56346E-13
 -1       927 1.71244E+01-1.59267E+00 4.74937E-02-4.10476E+00 3.36947E-13-1.79188E-13
 -1       928 1.44148E+01 1.02588E+00 3.76062E-02 2.51825E+00 1.84546E-13-5.56665E-13
 -1       929 2.00032E+01-1.86553E-03-1.61149E-06-2.71810E-03-1.19762E-13 1.13899E-13
 -1       930 1.56773E+01-2.80773E-01 2.01193E-02 3.15114E+00-2.13254E-13 1.71424E-13
 -1       931 2.00037E+01-2.09396E-03-2.64162E-07-1.71286E-03 2.63677E-13-3.66995E-14
 -1       932 1.50347E+01 8.90998E-01 2.57087E-02-3.11749E+00-4.70986E-14-5.12815E-13
 -1       933 1.52963E+01 2.52712E+00 6.39806E-03 7.57547E-01 9.72052E-14-5.54963E-13
 -1       934 1.31702E+01 2.12650E+00 2.60447E-02-7.21643E-01 5.48679E-14-5.90322E-13
 -1       935 1.82684E+01 8.56157E-01-2.72452E-03-2.19816E+00 3.26046E-14-3.65184E-13
 -1       936 1.64818E+01 1.72917E+00 6.30190E-03-2.11713E+00 2.74301E-14-4.30732E-13
 -1       937 1.94058E+01-3.28317E-01-4.62323E-04 1.78416E+00-1.34104E-13-4.80068E-14
 -1       938 2.05468E+01-1.90558E+00 2.46336E-03 2.48348E+00-2.13254E-14 5.97844E-14
 -1       939 1.65051E+01 1.12130E+00 5.86884E-03-1.30285E+00-1.45979E-13-4.43796E-14
 -1       940 1.73378E+01 1.20565E+00 3.85046E-05-1.03990E+00-2.07013E-13-1.27648E-13
 -1       941 1.79850E+01 1.18125E+00-1.24964E-04-8.60589E-01-2.97787E-14-1.98233E-13
 -1       942 1.84851E+01 1.09628E+00-4.45559E-05-7.27972E-01-5.37923E-14-2.42533E-14
 -1       943 1.88690E+01 9.79280E-01-2.48111E-05-6.17748E-01 3.48193E-14-3.97648E-14
 -1       944 1.91637E+01 8.49276E-01-2.67479E-05-5.19871E-01 5.66017E-14-2.23949E-13
 -1       945 1.93886E+01 7.19144E-01-2.44894E-05-4.31399E-01-4.11716E-14-2.29161E-13
 -1       946 1.95590E+01 5.96777E-01-2.01620E-05-3.51957E-01-1.35627E-13-1.55208E-13
 -1       947 1.96871E+01 4.86484E-01-1.59026E-05-2.81938E-01 6.32913E-15-2.08335E-13
 -1       948 1.97823E+01 3.90144E-01-1.23291E-05-2.21614E-01-6.48224E-14-3.18179E-13
 -1       949 1.98524E+01 3.08057E-01-9.43800E-06-1.70841E-01-8.76089E-14-2.35526E-13
 -1       950 1.99031E+01 2.39554E-01-7.12068E-06-1.29062E-01-1.67204E-13 6.65325E-14
 -1       951 1.99394E+01 1.83420E-01-5.28151E-06-9.54152E-02 4.49712E-14 1.99756E-13
 -1       952 1.99648E+01 1.38184E-01-3.84203E-06-6.88718E-02-3.42924E-14 3.82051E-13
 -1       953 1.99821E+01 1.02303E-01-2.73363E-06-4.83514E-02-1.24744E-13 2.29014E-13
 -1       954 1.99935E+01 7.42832E-02-1.89490E-06-3.28069E-02 3.08603E-14 3.08363E-13
 -1       955 2.00007E+01 5.27466E-02-1.27171E-06-2.12779E-02 1.13962E-13 2.04532E-13
 -1       956 2.00049E+01 3.64645E-02-8.17379E-07-1.29205E-02-7.85091E-14 2.06988E-13
 -1       957 2.00071E+01 2.43719E-02-4.92613E-07-7.01645E-03-1.66250E-13 2.95044E-13
 -1       958 2.00079E+01 1.55653E-02-2.64787E-07-2.97197E-03 5.58397E-14 4.02070E-13
 -1       959 2.00078E+01 9.29226E-03-1.05013E-07-3.07901E-04-5.77713E-15 2.30770E-13
 -1       960 2.00072E+01 4.93696E-03-4.84621E-08 1.35432E-03 1.67090E-13 4.04276E-13
 -1       961 2.00062E+01 1.99856E-03 1.47689E-07 2.30663E-03 1.95132E-13 3.40161E-13
 -1       962 2.00052E+01 9.14482E-05 1.62601E-06 2.76428E-03 2.06131E-13 6.94680E-14
 -1       963 2.00048E+01-1.56048E-03-6.38860E-07 1.21622E-03 1.60383E-13-2.33306E-13
 -1       964 1.92702E+01 1.02484E-01 5.14496E-06 1.44873E+00-2.22620E-13-3.90581E-14
 -1       965 1.92643E+01 3.59282E-01-2.37023E-05 1.16666E+00-7.84033E-14 2.32159E-14
 -1       966 1.93262E+01 4.93490E-01-4.60416E-05 9.33268E-01-8.21574E-14-1.63404E-13
 -1       967 1.94195E+01 5.42413E-01-1.95761E-05 7.42374E-01 6.25845E-14-1.67815E-13
 -1       968 1.95214E+01 5.35901E-01-1.36425E-05 5.86862E-01-3.14775E-14-2.09177E-13
 -1       969 1.96193E+01 4.96073E-01-1.17927E-05 4.60373E-01-2.34655E-13-3.05778E-14
 -1       970 1.97067E+01 4.38714E-01-1.02124E-05 3.57803E-01-8.02328E-15 1.51065E-13
 -1       971 1.97809E+01 3.74647E-01-8.59459E-06 2.75066E-01 8.33197E-14 2.58324E-13
 -1       972 1.98415E+01 3.10900E-01-7.05671E-06 2.08821E-01-6.73085E-14 2.38128E-13
 -1       973 1.98893E+01 2.51692E-01-5.67313E-06 1.56273E-01-6.25767E-14 2.62982E-13
 -1       974 1.99261E+01 1.99246E-01-4.46877E-06 1.15040E-01 2.66949E-14 2.14141E-13
 -1       975 1.99534E+01 1.54425E-01-3.44680E-06 8.30777E-02 1.19280E-13-5.85054E-14
 -1       976 1.99732E+01 1.17216E-01-2.60001E-06 5.86357E-02-3.42820E-14-2.81563E-13
 -1       977 1.99870E+01 8.70854E-02-1.91459E-06 4.02215E-02 2.44907E-13-1.13904E-13
 -1       978 1.99962E+01 6.32275E-02-1.37252E-06 2.65774E-02 6.43130E-14 6.27537E-14
 -1       979 2.00020E+01 4.47317E-02-9.53635E-07 1.66563E-02 2.54118E-13 7.44514E-14
 -1       980 2.00054E+01 3.06882E-02-6.37399E-07 9.59845E-03-2.96712E-16 1.26000E-13
 -1       981 2.00071E+01 2.02507E-02-4.03669E-07 4.70785E-03 5.02109E-14 2.72947E-13
 -1       982 2.00076E+01 1.26677E-02-2.32501E-07 1.42971E-03-2.31101E-13 5.15723E-14
 -1       983 2.00073E+01 7.29490E-03-1.07555E-07-6.71222E-04-1.76563E-13 3.14499E-14
 -1       984 2.00066E+01 3.59410E-03-4.91192E-09-1.93102E-03-3.34455E-13-2.36620E-14
 -1       985 2.00057E+01 1.12292E-03 2.13069E-07-2.60387E-03-7.77900E-14 1.44465E-13
 -1       986 2.00046E+01-4.68066E-04 1.19096E-06-2.87600E-03 2.02829E-13 1.22633E-13
 -1       987 2.00039E+01-1.27607E-03 8.54786E-08-2.84652E-03-1.31037E-13 3.28663E-13
 -1       988 1.46653E+01 1.13945E+00 9.84795E-03 7.83253E-01-1.08213E-13-1.16212E-13
 -1       989 2.00050E+01-1.56262E-03-4.96639E-07-2.86032E-05 2.60050E-13-4.75840E-13
 -1       990 2.00041E+01-1.49628E-03 9.10428E-07 2.48683E-03 3.36306E-13 2.95734E-14
 -1       991 1.97411E+01 1.82853E-01 3.56042E-03-1.87520E+00 5.96064E-14-2.80162E-13
 -1       992 1.48513E+01 2.65170E+00 1.04993E-02-5.60012E-01 7.94855E-14-5.57828E-13
 -1       993 1.86974E+01-4.85516E-01 3.12055E-02-3.12306E+00-7.08227E-14-3.38821E-13
 -1       994 1.47728E+01 1.00112E+00 6.61645E-03-1.48864E+00 1.44591E-14 1.50382E-13
 -1       995 1.53097E+01 2.34681E+00 6.82293E-04-1.53114E+00 5.33136E-14-5.17350E-13
 -1       996 1.97699E+01-9.87866E-01-1.83900E-03 2.16354E+00-9.83786E-14-2.23475E-14
 -1       997 2.07935E+01-2.61766E+00 2.39996E-02 3.00818E+00-1.75404E-13-1.34749E-13
 -1       998 2.00047E+01-8.01618E-04 6.59704E-08 2.67931E-03 3.40341E-13-8.12292E-14
 -1       999 1.83350E+01-1.43632E+00 4.72421E-03 3.40838E+00-1.15317E-13-1.96106E-14
 -1      1000 2.00050E+01-1.36113E-03 1.34233E-06-1.16384E-03 2.28749E-13 1.79486E-13
 -1      1001 1.60117E+01 5.43372E-01 4.49925E-03 1.97770E+00-1.48085E-13 1.16238E-13
 -1      1002 1.76859E+01-3.36617E-01 8.08262E-04 2.60770E+00-1.89038E-13 2.00165E-13
 -1      1003 1.59872E+01 1.29698E+00-1.04116E-03-4.43082E-01-2.14120E-13-4.42951E-14
 -1      1004 1.72760E+01 1.29469E+00 6.41023E-04-3.26822E-01-1.79575E-13 1.39857E-13
 -1      1005 1.79471E+01 1.20370E+00 1.82574E-04-3.20986E-01-5.73748E-14-1.40022E-14
 -1      1006 1.84445E+01 1.09600E+00-6.18958E-05-3.12290E-01 3.92959E-14-8.71907E-14
 -1      1007 1.88282E+01 9.69056E-01-7.37293E-05-2.91958E-01-6.76887E-14-6.63674E-14
 -1      1008 1.91239E+01 8.36455E-01-7.65794E-05-2.63106E-01 4.73595E-15-8.19068E-14
 -1      1009 1.93518E+01 7.06895E-01-6.57169E-05-2.29049E-01-1.53035E-13-1.09289E-13
 -1      1010 1.95268E+01 5.86114E-01-5.36177E-05-1.93266E-01 6.72093E-14 2.00314E-14
 -1      1011 1.96602E+01 4.77494E-01-4.32729E-05-1.58514E-01-7.66176E-14 1.88062E-14
 -1      1012 1.97608E+01 3.82593E-01-3.47476E-05-1.26646E-01-5.29031E-14-6.17830E-14
 -1      1013 1.98358E+01 3.01658E-01-2.76857E-05-9.86951E-02 1.74429E-13-8.76894E-15
 -1      1014 1.98909E+01 2.34069E-01-2.18186E-05-7.50484E-02-7.63757E-14 2.32845E-13
 -1      1015 1.99308E+01 1.78682E-01-1.69702E-05-5.56471E-02 1.15592E-14 1.22361E-13
 -1      1016 1.99590E+01 1.34081E-01-1.30075E-05-4.01541E-02-1.22185E-13 2.73428E-13
 -1      1017 1.99784E+01 9.87623E-02-9.81269E-06-2.80867E-02 7.88748E-14 5.80061E-13
 -1      1018 1.99915E+01 7.12531E-02-7.27501E-06-1.89100E-02-8.75933E-14 5.95106E-13
 -1      1019 1.99998E+01 5.01830E-02-5.28994E-06-1.20978E-02 1.56498E-14 3.72289E-13
 -1      1020 2.00047E+01 3.43251E-02-3.76070E-06-7.16822E-03-5.68169E-14 5.39195E-13
 -1      1021 2.00073E+01 2.26129E-02-2.59927E-06-3.70100E-03 1.01902E-13 3.77718E-13
 -1      1022 2.00084E+01 1.41406E-02-1.76334E-06-1.34325E-03-1.08812E-13 1.99311E-13
 -1      1023 2.00084E+01 8.15288E-03-8.78583E-07 1.91360E-04 1.14237E-13 3.24253E-13
 -1      1024 2.00077E+01 4.04357E-03 5.05106E-07 1.13015E-03 1.80094E-13 4.67928E-13
 -1      1025 2.00067E+01 1.31145E-03-7.18967E-07 1.64150E-03 5.70052E-14 5.55390E-13
 -1      1026 1.84957E+01 2.50511E-01-1.21251E-03 1.62894E+00-1.01843E-13 1.53194E-13
 -1      1027 1.90379E+01 6.94868E-01-1.01411E-04 7.09226E-01-6.80637E-14-1.05165E-13
 -1      1028 1.92221E+01 6.76942E-01-5.59804E-05 5.40482E-01 6.38828E-14-8.09541E-14
 -1      1029 1.93860E+01 6.23611E-01-4.37772E-05 4.11570E-01-2.15625E-13-8.16498E-14
 -1      1030 1.95263E+01 5.51545E-01-3.82705E-05 3.12490E-01-1.74329E-13-3.58769E-13
 -1      1031 1.96430E+01 4.72396E-01-3.36625E-05 2.36055E-01-1.75455E-13-2.26110E-13
 -1      1032 1.97375E+01 3.93908E-01-2.91214E-05 1.77022E-01 3.08637E-14 1.33702E-13
 -1      1033 1.98122E+01 3.20857E-01-2.46788E-05 1.31493E-01 1.11249E-13 2.31194E-14
 -1      1034 1.98699E+01 2.55839E-01-2.04777E-05 9.65130E-02-2.51129E-14-1.51936E-13
 -1      1035 1.99134E+01 1.99926E-01-1.66422E-05 6.97992E-02 2.03625E-13-1.99581E-13
 -1      1036 1.99455E+01 1.53174E-01-1.32526E-05 4.95646E-02 1.37275E-13-2.99349E-13
 -1      1037 1.99685E+01 1.15018E-01-1.03437E-05 3.43941E-02-1.29861E-14-3.26509E-13
 -1      1038 1.99844E+01 8.45474E-02-7.91216E-06 2.31607E-02 1.14926E-13-3.94918E-14
 -1      1039 1.99951E+01 6.07062E-02-5.92791E-06 1.49656E-02 1.03220E-13-7.84949E-14
 -1      1040 2.00018E+01 4.24204E-02-4.34430E-06 9.09268E-03 1.20729E-13 1.30538E-13
 -1      1041 2.00057E+01 2.86762E-02-3.10666E-06 4.97460E-03-1.51423E-13 5.87781E-14
 -1      1042 2.00076E+01 1.85629E-02-2.16007E-06 2.16483E-03-3.98677E-14 3.00348E-14
 -1      1043 2.00082E+01 1.12913E-02-1.42646E-06 3.15356E-04-2.61435E-13 2.90170E-13
 -1      1044 2.00080E+01 6.19611E-03-9.39428E-07-8.40897E-04-2.47168E-13 4.38289E-13
 -1      1045 2.00072E+01 2.72954E-03-1.86033E-07-1.50949E-03-2.43420E-13 8.43960E-14
 -1      1046 2.00062E+01 4.48203E-04-1.40586E-06-1.83597E-03-4.14869E-14 5.21765E-14
 -1      1047 2.00061E+01-4.81217E-04 2.16111E-06 5.69793E-04 5.64432E-14-6.21127E-13
 -1      1048 1.61978E+01 1.16711E+00 1.82746E-03 6.82498E-01-5.92101E-14 3.83290E-15
 -1      1049 2.00046E+01-1.30189E-03 1.18324E-06-2.04088E-03-2.91227E-14 3.15413E-13
 -1      1050 1.86480E+01 5.20340E-01-8.72527E-04 1.22813E+00-1.56979E-13-5.70354E-15
 -1      1051 1.81710E+01 1.84063E-03 5.16842E-03 2.03554E+00-1.74386E-13 2.51277E-13
 -1      1052 1.88406E+01 6.54176E-01-3.22131E-04 9.31925E-01-5.35021E-15-2.30721E-14
 -1      1053 2.00056E+01-6.23660E-04-4.85742E-07 1.66266E-03 1.68156E-13 2.12783E-13
 -1      1054 2.00062E+01 2.24247E-04-2.98678E-06 1.68757E-03 2.30252E-14 3.83279E-13
 -1      1055 2.00063E+01-2.07017E-04-2.96461E-07-5.52680E-04 7.74084E-15-5.31157E-14
 -1      1056 2.00054E+01-5.58765E-04-2.07021E-06-1.97476E-03 3.13815E-14 1.82346E-13
 -1      1057 1.70965E+01 6.82507E-01-6.35927E-04 1.52357E+00-6.17415E-14-3.70437E-14
 -1      1058 1.81449E+01 1.11635E+00 3.09955E-04 1.19597E-01-7.01902E-14 2.55671E-13
 -1      1059 1.85773E+01 1.01715E+00-2.60008E-05 3.22318E-02-9.08759E-14 1.15306E-13
 -1      1060 1.89153E+01 9.02029E-01-5.37529E-05-1.83047E-02 2.48482E-14-4.58408E-14
 -1      1061 1.91809E+01 7.80409E-01-3.84690E-05-4.45541E-02 7.60950E-14 7.41647E-14
 -1      1062 1.93890E+01 6.60477E-01-1.96834E-05-5.50122E-02-2.62905E-15 2.53867E-13
 -1      1063 1.95512E+01 5.47911E-01-6.36810E-06-5.57662E-02-2.32228E-14 4.42213E-14
 -1      1064 1.96762E+01 4.46186E-01 1.48621E-06-5.10802E-02-2.69727E-14-4.04022E-14
 -1      1065 1.97714E+01 3.57026E-01 5.51931E-06-4.38197E-02-7.02653E-14-9.19003E-14
 -1      1066 1.98430E+01 2.80859E-01 7.16705E-06-3.58050E-02 2.93337E-13-1.50871E-13
 -1      1067 1.98959E+01 2.17229E-01 7.42165E-06-2.81062E-02 1.02538E-14 2.66306E-13
 -1      1068 1.99343E+01 1.65128E-01 6.92247E-06-2.12805E-02 9.71910E-14 4.57192E-13
 -1      1069 1.99616E+01 1.23253E-01 6.06758E-06-1.55521E-02 8.92384E-14 4.66828E-13
 -1      1070 1.99804E+01 9.01899E-02 5.09600E-06-1.09429E-02 2.17595E-14 3.94315E-13
 -1      1071 1.99929E+01 6.45372E-02 4.14356E-06-7.36332E-03 9.99767E-14 4.82306E-13
 -1      1072 2.00008E+01 4.49841E-02 3.28079E-06-4.67144E-03 4.26794E-14 6.35717E-13
 -1      1073 2.00055E+01 3.03544E-02 2.53946E-06-2.71014E-03-2.06232E-13 5.84492E-13
 -1      1074 2.00079E+01 1.96254E-02 1.93768E-06-1.32833E-03-2.24210E-13 2.86279E-13
 -1      1075 2.00087E+01 1.19303E-02 1.69934E-06-3.92480E-04-1.46132E-14 9.51457E-14
 -1      1076 2.00086E+01 6.54222E-03 2.46918E-06 2.17495E-04 1.83977E-13 9.19051E-14
 -1      1077 2.00078E+01 2.86558E-03 1.86341E-06 5.91557E-04 2.59518E-14-3.54720E-13
 -1      1078 1.79068E+01 7.51583E-01 2.08886E-04 1.16164E+00-4.28721E-14 5.68283E-14
 -1      1079 1.88990E+01 8.29426E-01 6.84147E-05 4.27587E-01-2.21458E-14 2.09054E-13
 -1      1080 1.95017E+01 5.69963E-01 1.88688E-05 1.58976E-01-2.89274E-13-1.26877E-13
 -1      1081 1.96313E+01 4.76224E-01 1.21196E-05 1.14171E-01-2.32806E-13-2.60746E-13
 -1      1082 1.97332E+01 3.89366E-01 8.58990E-06 8.17415E-02-3.55685E-14-1.33291E-13
 -1      1083 1.98119E+01 3.12051E-01 6.77391E-06 5.82180E-02 1.29909E-13 1.06177E-13
 -1      1084 1.98716E+01 2.45379E-01 5.79168E-06 4.11353E-02 2.10332E-13-2.13891E-13
 -1      1085 1.99159E+01 1.89387E-01 5.16716E-06 2.87343E-02 1.58773E-13-2.10335E-13
 -1      1086 1.99481E+01 1.43435E-01 4.66482E-06 1.97524E-02-4.02561E-14-9.38820E-14
 -1      1087 1.99709E+01 1.06500E-01 4.18432E-06 1.32773E-02-2.05976E-14-7.49259E-14
 -1      1088 1.99865E+01 7.73879E-02 3.69599E-06 8.64427E-03 1.03932E-13-1.92662E-13
 -1      1089 1.99967E+01 5.48749E-02 3.20272E-06 5.36540E-03 1.50330E-13-3.24383E-13
 -1      1090 2.00031E+01 3.77957E-02 2.71894E-06 3.07976E-03 7.98684E-14-2.37429E-13
 -1      1091 2.00066E+01 2.50951E-02 2.26101E-06 1.51900E-03-1.07666E-13-5.20856E-14
 -1      1092 2.00083E+01 1.58518E-02 1.85837E-06 4.83061E-04-3.50929E-13 1.97454E-13
 -1      1093 2.00087E+01 9.28088E-03 8.13911E-07-1.78946E-04-2.73238E-13 6.37488E-16
 -1      1094 2.00082E+01 4.73815E-03 2.30624E-06-5.67699E-04-1.33351E-13-7.10096E-15
 -1      1095 2.00073E+01 1.66314E-03-9.51257E-08-7.84810E-04-3.03084E-13 1.53391E-13
 -1      1096 1.93397E+01 6.65770E-01 3.10748E-05 2.21051E-01-6.57555E-14-2.49190E-15
 -1      1097 1.91404E+01 7.55999E-01 5.04371E-05 3.07322E-01 7.03779E-14 1.30945E-13
 -1      1098 1.75897E+01 1.17302E+00-2.49548E-03 2.53680E-01-1.73762E-13 2.20573E-13
 -1      1099 1.72275E+01 1.04901E+00-8.20951E-05 7.95332E-01-9.25996E-14 6.81150E-15
 -1      1100 2.00073E+01 1.29247E-03-7.90201E-08 1.69568E-04-9.40862E-14-5.00986E-13
 -1      1101 1.82787E+01 8.56827E-01-8.98773E-04 8.33529E-01-2.95631E-14-7.13974E-15
 -1      1102 1.86105E+01 8.70321E-01-3.28554E-05 5.95813E-01-1.09831E-13 3.62765E-14
 -1      1103 2.00082E+01 4.14402E-03-2.71039E-06 9.77220E-05-1.82901E-13 4.60376E-14
 -1      1104 2.96831E+01 9.60891E+00 2.34635E+00-6.37740E+00-6.44484E-14 1.16757E-12
 -1      1105 2.24095E+01 6.81765E+00 3.15972E-01-3.03957E+00-2.90323E-14-1.86948E-13
 -1      1106 2.06680E+01 6.23817E+00 1.25850E-01-1.74073E+00-1.65978E-14-6.97139E-13
 -1      1107 1.94435E+01 5.85175E+00 6.22625E-02-1.01337E+00-9.43690E-15-9.08289E-13
 -1      1108 1.84332E+01 5.53665E+00 2.22781E-02-5.87113E-01-4.37150E-15-9.85167E-13
 -1      1109 1.76377E+01 5.28917E+00-7.10691E-03-3.73670E-01-2.91434E-16-1.00266E-12
 -1      1110 1.70950E+01 5.12116E+00-2.44121E-02-3.01947E-01 9.92262E-16-9.78305E-13
 -1      1111 1.68330E+01 5.04112E+00-2.92997E-02-2.99218E-01 3.95517E-15-9.26034E-13
 -1      1112 1.68598E+01 5.05145E+00-2.16615E-02-2.93458E-01 6.10276E-15-8.72907E-13
 -1      1113 1.71403E+01 5.14079E+00-4.36148E-03-2.20917E-01 8.65974E-15-7.99932E-13
 -1      1114 1.76147E+01 5.28988E+00 1.82131E-02-3.71326E-02 9.65894E-15-7.07119E-13
 -1      1115 1.82132E+01 5.47653E+00 4.18787E-02 2.77350E-01 1.24623E-14-5.74207E-13
 -1      1116 1.88905E+01 5.68618E+00 6.33760E-02 7.33003E-01 1.61537E-14-3.82052E-13
 -1      1117 1.96459E+01 5.91901E+00 8.41497E-02 1.34595E+00 2.07057E-14-1.03180E-13
 -1      1118 2.05478E+01 6.19894E+00 1.15294E-01 2.15853E+00 2.32453E-14 3.41656E-13
 -1      1119 2.19315E+01 6.64739E+00 2.26414E-01 3.35599E+00 2.07057E-14 1.10507E-12
 -1      1120 2.67204E+01 8.46125E+00 1.48367E+00 5.66311E+00 2.73670E-14 2.48607E-12
 -1      1121 3.05468E+01 3.52867E+00 1.07301E+00-4.02248E+00-2.41002E-13 1.99574E-12
 -1      1122 2.32770E+01-2.00459E-01-6.48731E-01-1.02298E-02-8.87901E-14 1.45239E-12
 -1      1123 2.30295E+01-1.01442E-01-2.30294E-01 9.59462E-02-3.20369E-14 7.38257E-13
 -1      1124 2.37089E+01-4.98695E-02-5.82866E-02 7.10588E-02-9.93346E-15 3.45973E-13
 -1      1125 2.46723E+01-1.55860E-02-1.11047E-03 6.11336E-02-1.06100E-14 3.03507E-14
 -1      1126 2.56826E+01 1.93897E-02 4.75285E-02 5.01916E-02-4.98646E-15-2.03303E-13
 -1      1127 2.64034E+01 6.04593E-02 1.11848E-01 2.29598E-02-5.67168E-15-3.36401E-13
 -1      1128 2.63822E+01 9.86990E-02 1.73478E-01-3.31713E-02-1.53410E-14-5.55569E-13
 -1      1129 2.51814E+01 1.06461E-01 1.79807E-01-1.16447E-01 5.89893E-15-6.46927E-13
 -1      1130 2.27305E+01 4.98274E-02 7.26874E-02-1.91093E-01-2.73262E-15-7.81181E-13
 -1      1131 1.97431E+01-7.16368E-02-1.38445E-01-1.91463E-01 1.73308E-14-8.43020E-13
 -1      1132 1.76625E+01-1.77798E-01-3.19832E-01-7.95815E-02-3.90313E-16-8.32126E-13
 -1      1133 1.77102E+01-1.90764E-01-3.25897E-01 8.92589E-02-1.18065E-14-1.20411E-12
 -1      1134 1.98609E+01-7.68539E-02-1.48972E-01 1.95096E-01 2.45142E-14-1.47327E-12
 -1      1135 2.30050E+01 4.74471E-02 6.57670E-02 1.99754E-01-4.99817E-15-1.24920E-12
 -1      1136 2.56542E+01 1.08778E-01 1.79675E-01 1.27768E-01-3.56087E-14-1.46363E-12
 -1      1137 2.70488E+01 1.05092E-01 1.78375E-01 4.51955E-02 1.36436E-15-1.58160E-12
 -1      1138 2.72208E+01 7.06025E-02 1.19101E-01-1.02503E-02-1.54295E-14-1.34743E-12
 -1      1139 2.65849E+01 3.41358E-02 5.55320E-02-3.46852E-02-1.45804E-14-1.32306E-12
 -1      1140 2.55731E+01 7.71281E-03 1.10143E-02-3.88361E-02-1.60120E-14-1.37279E-12
 -1      1141 2.44854E+01-7.51252E-03-1.28629E-02-3.36319E-02-3.85379E-14-1.40200E-12
 -1      1142 2.34834E+01-1.44230E-02-2.23260E-02-2.58016E-02 2.69229E-14-1.43624E-12
 -1      1143 2.26328E+01-1.62740E-02-2.37802E-02-1.84394E-02-4.21885E-15-1.50106E-12
 -1      1144 2.19454E+01-1.54812E-02-2.15693E-02-1.25531E-02 2.43080E-14-1.35277E-12
 -1      1145 2.14077E+01-1.35438E-02-1.81079E-02-8.20914E-03 5.39057E-14-1.29214E-12
 -1      1146 2.09969E+01-1.12860E-02-1.45571E-02-5.14809E-03-2.52643E-14-1.39035E-12
 -1      1147 2.06889E+01-9.11354E-03-1.13907E-02-3.05596E-03 3.20233E-14-1.46523E-12
 -1      1148 2.04619E+01-7.19691E-03-8.74660E-03-1.66067E-03 2.12406E-15-1.23764E-12
 -1      1149 2.02975E+01-5.58501E-03-6.61644E-03-7.53207E-04-7.44581E-15-9.96987E-13
 -1      1150 2.01807E+01-4.26911E-03-4.93730E-03-1.81598E-04-1.57618E-14-1.23363E-12
 -1      1151 2.00995E+01-3.21666E-03-3.63337E-03 1.61735E-04-3.70005E-14-1.44693E-12
 -1      1152 2.00447E+01-2.38810E-03-2.63290E-03 3.52016E-04-2.24665E-14-1.49550E-12
 -1      1153 2.00091E+01-1.74458E-03-1.87377E-03 4.41540E-04 6.08018E-15-1.50876E-12
 -1      1154 1.99872E+01-1.25118E-03-1.30441E-03 4.66528E-04-9.94013E-15-1.46819E-12
 -1      1155 1.99749E+01-8.77844E-04-8.82898E-04 4.51944E-04 3.96466E-14-1.57891E-12
 -1      1156 1.99691E+01-5.99370E-04-5.75558E-04 4.14841E-04-1.94922E-14-1.46954E-12
 -1      1157 1.99677E+01-3.94974E-04-3.55531E-04 3.66692E-04-4.54893E-14-1.04540E-12
 -1      1158 1.99689E+01-2.47732E-04-2.01543E-04 3.15035E-04-5.77022E-14-4.25600E-13
 -1      1159 1.99718E+01-1.44001E-04-9.68512E-05 2.64640E-04 6.78605E-15-5.34808E-13
 -1      1160 1.99754E+01-7.28891E-05-2.83639E-05 2.18345E-04-2.84821E-14-7.36166E-13
 -1      1161 1.99792E+01-2.57653E-05 1.40939E-05 1.77661E-04-2.75867E-14-6.45584E-13
 -1      1162 1.99831E+01 4.17492E-06 3.84118E-05 1.43196E-04 6.33472E-14-7.47487E-13
 -1      1163 1.99866E+01 2.22967E-05 5.07495E-05 1.14950E-04 1.05505E-14-4.49592E-13
 -1      1164 1.99899E+01 3.28657E-05 5.60713E-05 9.24754E-05-6.66094E-14-1.14478E-12
 -1      1165 1.99928E+01 3.93510E-05 5.87228E-05 7.48919E-05-1.35227E-14-9.54558E-13
 -1      1166 1.99953E+01 4.46418E-05 6.29936E-05 6.06420E-05 2.68240E-14-7.14187E-13
 -1      1167 1.99973E+01 5.09661E-05 7.29383E-05 4.67845E-05-4.62766E-14-3.09174E-13
 -1      1168 1.99988E+01 5.88803E-05 8.78764E-05 2.74737E-05 4.40697E-14-4.35780E-13
 -1      1169 1.99997E+01 5.82705E-05 8.10133E-05-1.06075E-05-6.04857E-14-9.19703E-13
 -1      1170 1.99999E+01 5.20819E-05-2.58930E-05-6.14790E-05 1.72047E-13-9.71022E-13
 -1      1171 2.92251E+01 5.36609E-01 2.52286E-01 1.95951E+00-4.63310E-14 3.56665E-12
 -1      1172 2.23409E+01-6.53288E-02-5.80946E-01 9.87338E-02 1.56056E-14 3.13254E-12
 -1      1173 2.17466E+01-3.31766E-02-1.73823E-01-1.25308E-03 1.55631E-14 2.60704E-12
 -1      1174 2.17623E+01-7.45347E-03-2.46544E-02-1.73099E-02-1.22385E-15 2.33864E-12
 -1      1175 2.18967E+01 9.42404E-03 2.17401E-02-2.25799E-02 8.05161E-15 2.16836E-12
 -1      1176 2.19262E+01 2.23559E-02 4.32770E-02-2.16872E-02-6.20402E-15 2.00964E-12
 -1      1177 2.16908E+01 2.86965E-02 5.57242E-02-1.41106E-02 1.99363E-14 1.84620E-12
 -1      1178 2.10901E+01 2.48315E-02 5.46529E-02 1.75239E-03-1.14136E-14 1.72076E-12
 -1      1179 2.01279E+01 8.76167E-03 3.29547E-02 2.41163E-02-1.08852E-14 1.58348E-12
 -1      1180 1.89597E+01-1.60517E-02-8.94584E-03 4.59246E-02 2.10373E-14 1.54481E-12
 -1      1181 1.78875E+01-3.97814E-02-5.78895E-02 5.65857E-02 1.38578E-14 1.36125E-12
 -1      1182 1.72652E+01-5.07785E-02-9.18595E-02 4.82108E-02 4.43309E-15 1.16018E-12
 -1      1183 1.73362E+01-4.36549E-02-9.35340E-02 2.21836E-02-4.85029E-15 1.12063E-12
 -1      1184 1.81012E+01-2.34568E-02-6.33051E-02-1.05037E-02-1.28677E-14 1.13096E-12
 -1      1185 1.93188E+01-7.38024E-04-1.80929E-02-3.64193E-02 3.02143E-14 9.82353E-13
 -1      1186 2.06353E+01 1.57618E-02 2.16488E-02-4.78935E-02-1.98084E-15 7.58428E-13
 -1      1187 2.17435E+01 2.29541E-02 4.38332E-02-4.52882E-02-1.94549E-14 7.65756E-13
 -1      1188 2.24763E+01 2.25186E-02 4.78859E-02-3.41533E-02 1.13364E-15 6.63965E-13
 -1      1189 2.28105E+01 1.78562E-02 4.00619E-02-2.06688E-02-1.24371E-14 6.17744E-13
 -1      1190 2.28159E+01 1.19207E-02 2.75814E-02-8.91939E-03 2.57671E-14 5.57414E-13
 -1      1191 2.25976E+01 6.49560E-03 1.54754E-02-5.45776E-04 1.38011E-14 4.42191E-13
 -1      1192 2.22564E+01 2.32371E-03 6.07647E-03 4.45169E-03 1.86576E-14 4.59520E-13
 -1      1193 2.18702E+01-4.95431E-04-1.79367E-04 6.81171E-03-3.09050E-14 5.32883E-13
 -1      1194 2.14910E+01-2.16537E-03-3.76967E-03 7.40953E-03 2.63101E-14 2.92341E-13
 -1      1195 2.11485E+01-2.97980E-03-5.43463E-03 6.98166E-03-3.27054E-14 3.79259E-13
 -1      1196 2.08564E+01-3.21650E-03-5.85896E-03 6.05311E-03 4.57856E-14 2.76845E-13
 -1      1197 2.06177E+01-3.09789E-03-5.56565E-03 4.95762E-03-4.31505E-14 5.39378E-14
 -1      1198 2.04295E+01-2.78544E-03-4.91264E-03 3.88614E-03-8.31015E-14 1.18859E-13
 -1      1199 2.02856E+01-2.38814E-03-4.12597E-03 2.93411E-03-1.86705E-15-6.76564E-14
 -1      1200 2.01789E+01-1.97469E-03-3.33781E-03 2.13822E-03 3.41224E-14-3.77733E-13
 -1      1201 2.01021E+01-1.58498E-03-2.61813E-03 1.50168E-03 3.25961E-14-4.79415E-13
 -1      1202 2.00487E+01-1.23948E-03-1.99792E-03 1.01055E-03-3.91394E-14-2.81620E-13
 -1      1203 2.00131E+01-9.46088E-04-1.48499E-03 6.43603E-04 1.47413E-14 5.84628E-14
 -1      1204 1.99906E+01-7.05139E-04-1.07428E-03 3.77937E-04 4.01723E-14-6.61128E-14
 -1      1205 1.99776E+01-5.12704E-04-7.54398E-04 1.91996E-04-8.53782E-14 3.75451E-13
 -1      1206 1.99712E+01-3.62796E-04-5.11527E-04 6.69193E-05 3.17240E-14 1.77169E-13
 -1      1207 1.99692E+01-2.48746E-04-3.31725E-04-1.30023E-05 1.02909E-13-5.60758E-13
 -1      1208 1.99701E+01-1.64010E-04-2.02128E-04-6.03970E-05 5.77973E-16-3.50366E-13
 -1      1209 1.99726E+01-1.02609E-04-1.11502E-04-8.51290E-05 1.90390E-14-1.29229E-13
 -1      1210 1.99759E+01-5.93180E-05-5.03987E-05-9.47196E-05-5.37762E-14-1.31355E-14
 -1      1211 1.99797E+01-2.96971E-05-1.10686E-05-9.47856E-05-1.72304E-14 2.11408E-13
 -1      1212 1.99834E+01-1.00347E-05 1.27515E-05-8.94483E-05 5.07069E-14-1.77348E-13
 -1      1213 1.99869E+01 2.77593E-06 2.61406E-05-8.16908E-05-9.37975E-16-4.57673E-13
 -1      1214 1.99901E+01 1.13908E-05 3.33796E-05-7.36490E-05-5.33598E-14-2.00410E-13
 -1      1215 1.99929E+01 1.81948E-05 3.84724E-05-6.67945E-05 2.32392E-14-2.46981E-13
 -1      1216 1.99954E+01 2.53784E-05 4.56969E-05-6.18952E-05-5.31903E-16-4.81235E-13
 -1      1217 1.99974E+01 3.46994E-05 5.93635E-05-5.85659E-05 2.10685E-14-3.48245E-13
 -1      1218 1.99989E+01 4.52889E-05 7.81334E-05-5.20496E-05 7.44491E-14-8.77052E-13
 -1      1219 1.99998E+01 4.11218E-05 7.03763E-05-2.71436E-05 1.50752E-14-6.27377E-13
 -1      1220 1.99999E+01-2.39370E-05-5.51330E-05 2.50753E-05-2.68427E-14-1.61907E-13
 -1      1221 1.99998E+01 7.10664E-05-5.22997E-05 2.29756E-05-7.52849E-14-3.29561E-14
 -1      1222 1.99998E+01-7.23098E-05 7.09915E-05 1.08944E-05-2.21579E-13-7.62237E-14
 -1      1223 1.99998E+01-9.24495E-04 7.07599E-05-3.48425E-05-1.06267E-12-9.80696E-14
 -1      1224 1.99998E+01-2.27099E-03 2.88002E-05-5.19105E-05-5.12675E-13 8.64240E-14
 -1      1225 1.99998E+01-3.79403E-03-1.05988E-05-5.31165E-05 6.90705E-13-8.41257E-14
 -1      1226 1.99998E+01-5.22680E-03-4.06854E-05-4.54217E-05-3.49875E-13-1.67559E-13
 -1      1227 1.99998E+01-6.38744E-03-6.12443E-05-3.33359E-05-8.02275E-13-1.97923E-14
 -1      1228 1.99997E+01-7.14589E-03-7.36652E-05-1.73439E-05-5.47599E-13-2.49262E-14
 -1      1229 1.99997E+01-7.40629E-03-7.77602E-05 9.00758E-08-8.53433E-13 1.76387E-13
 -1      1230 1.99997E+01-7.14095E-03-7.36840E-05 1.75442E-05 8.08946E-14 1.01886E-13
 -1      1231 1.99998E+01-6.37750E-03-6.11665E-05 3.35352E-05-9.14591E-13-2.45985E-13
 -1      1232 1.99998E+01-5.21125E-03-4.03511E-05 4.63771E-05-1.50266E-12 9.49345E-14
 -1      1233 1.99998E+01-3.77424E-03-1.02121E-05 5.34623E-05-9.03003E-13 2.63637E-13
 -1      1234 1.99998E+01-2.24927E-03 2.93816E-05 5.16305E-05 3.87185E-13 2.10434E-13
 -1      1235 1.99998E+01-9.09207E-04 6.90256E-05 3.21100E-05 7.60039E-13-3.50674E-14
 -1      1236 1.99998E+01-5.57122E-05 6.96566E-05-2.85339E-05 1.27643E-12 7.71329E-14
 -1      1237 1.99998E+01 8.77442E-05-3.32525E-05-5.73849E-05 9.93943E-13-1.25651E-13
 -1      1238-1.00821E+00-2.39952E+01-3.68363E+00-2.16383E+00 1.50008E-12 2.76567E-13
 -1      1239-1.71638E+00-1.48946E+01-2.99747E+00-3.83281E+00 2.39786E-12 8.90399E-13
 -1      1240 4.08732E-01-2.39921E+00-1.80340E+00-8.77638E-02 2.86660E-12 1.79845E-12
 -1      1241 9.37526E+00 7.77351E+00-2.07323E-01 8.38418E+00 2.60991E-12 2.39808E-12
 -1      1242 2.55176E+01 1.13023E+01 1.39491E+00 1.63018E+01 1.81799E-12 2.49067E-12
 -1      1243 4.55653E+01 8.24955E+00 2.82486E+00 1.79120E+01 8.02303E-13 1.55076E-12
 -1      1244 6.19772E+01 3.37833E+00 3.85150E+00 1.08119E+01 5.98410E-14-2.02061E-13
 -1      1245 6.69100E+01 1.68252E+00 4.16088E+00-2.01793E+00 1.33768E-13-1.69254E-12
 -1      1246 5.74853E+01 5.12486E+00 3.65444E+00-1.38225E+01 9.51822E-13-3.19211E-12
 -1      1247 3.90850E+01 9.88596E+00 2.47824E+00-1.82256E+01 2.07467E-12-3.98992E-12
 -1      1248 1.98701E+01 1.11122E+01 8.92076E-01-1.43566E+01 2.91855E-12-3.62887E-12
 -1      1249 5.72752E+00 5.48741E+00-7.42114E-01-5.69857E+00 3.18612E-12-2.69118E-12
 -1      1250-7.82613E-01-6.09512E+00-2.24584E+00 1.81303E+00 2.59526E-12-1.42464E-12
 -1      1251-1.62518E+00-1.81966E+01-3.28668E+00 3.78229E+00 1.28331E-12-4.87832E-13
 -1      1252-8.27165E-01-2.50469E+01-3.79588E+00 6.12414E-01-5.74957E-13-1.21812E-13
 -1      1253-1.48442E+00-2.20493E+01-3.64180E+00-3.56279E+00-2.33980E-12-5.85282E-13
 -1      1254-1.83326E+00-1.20626E+01-2.91485E+00-3.89546E+00-3.57026E-12-1.58817E-12
 -1      1255 1.84432E+00 4.15775E-01-1.60297E+00 1.68995E+00-3.97904E-12-2.77889E-12
 -1      1256 1.32372E+01 9.13542E+00 3.95688E-02 1.08080E+01-3.40172E-12-3.58114E-12
 -1      1257 3.28008E+01 1.06210E+01 1.90157E+00 1.77589E+01-2.17804E-12-3.51741E-12
 -1      1258 5.47827E+01 6.27124E+00 3.55227E+00 1.63331E+01-8.70859E-13-2.27707E-12
 -1      1259 6.80902E+01 2.33755E+00 4.48262E+00 6.14432E+00-1.74291E-13-6.05516E-13
 -1      1260 6.72519E+01 2.44907E+00 4.38852E+00-7.14044E+00-1.71932E-13 8.64475E-13
 -1      1261 5.28174E+01 6.67549E+00 3.40739E+00-1.67869E+01-6.77791E-13 1.84430E-12
 -1      1262 3.11610E+01 1.05787E+01 1.77673E+00-1.70523E+01-1.46472E-12 2.35412E-12
 -1      1263 1.16751E+01 8.33841E+00-1.08806E-01-9.68506E+00-2.21867E-12 2.29283E-12
 -1      1264 6.42356E-01-1.98034E+00-1.89864E+00-2.15747E-01-2.37277E-12 1.60361E-12
 -1      1265-1.93019E+00-1.55295E+01-3.15345E+00 4.40726E+00-1.52678E-12 6.78013E-13
 -1      1266-1.03420E+00-2.44110E+01-3.73342E+00 2.42057E+00-1.06581E-14 1.41054E-13
 -1      1267 2.45541E+01 1.96438E+00-7.16369E-01-2.38032E+00-9.37306E-14 8.22342E-13
 -1      1268 2.22118E+01 4.88843E+00-3.47880E-02-2.33847E+00-1.93900E-13-4.28518E-13
 -1      1269 2.30315E+01 5.05127E+00-5.77684E-02-3.33300E+00-2.67425E-13-1.61482E-13
 -1      1270 2.06093E+01 5.15966E+00-2.17076E-02-1.49412E+00-1.59428E-13-7.89490E-13
 -1      1271 2.13331E+01 5.37236E+00 3.55570E-02-1.95818E+00-1.90792E-13-6.43222E-13
 -1      1272 2.23080E+01 4.05752E+00-1.04519E-02-2.04685E+00-3.19317E-13-3.75616E-13
 -1      1273 1.93538E+01 5.16792E+00-1.87864E-02-8.98134E-01-9.95176E-14-9.44654E-13
 -1      1274 1.99667E+01 5.35733E+00 2.79781E-02-1.17844E+00-1.27162E-13-8.79692E-13
 -1      1275 2.06354E+01 4.53555E+00-1.72136E-02-1.35202E+00-2.36748E-13-6.72629E-13
 -1      1276 1.83057E+01 5.12342E+00-2.01475E-02-5.40600E-01-5.04388E-14-9.97973E-13
 -1      1277 1.88119E+01 5.27892E+00 1.62951E-02-7.00898E-01-7.07767E-14-9.80729E-13
 -1      1278 1.92930E+01 4.75428E+00-1.79854E-02-8.33953E-01-1.41782E-13-8.04030E-13
 -1      1279 1.75104E+01 5.07555E+00-2.07371E-02-3.68884E-01-3.19883E-15-1.00232E-12
 -1      1280 1.78822E+01 5.18967E+00 4.68390E-03-4.43785E-01-1.75832E-14-1.00140E-12
 -1      1281 1.82129E+01 4.87249E+00-1.62332E-02-5.28058E-01-6.01255E-14-8.50276E-13
 -1      1282 1.69937E+01 5.03809E+00-1.83980E-02-3.14682E-01 2.93619E-14-9.69556E-13
 -1      1283 1.72160E+01 5.10606E+00-5.85844E-03-3.39098E-01 1.90542E-14-9.94075E-13
 -1      1284 1.74176E+01 4.93164E+00-1.42347E-02-3.84195E-01 9.47506E-15-8.52315E-13
 -1      1285 1.68027E+01 5.01748E+00-1.22754E-02-3.11009E-01 7.67704E-14-9.21527E-13
 -1      1286 1.68579E+01 5.03450E+00-1.35055E-02-3.19496E-01 5.82971E-14-9.46431E-13
 -1      1287 1.69493E+01 4.94043E+00-1.32500E-02-3.39365E-01 6.87419E-14-8.19280E-13
 -1      1288 1.69259E+01 5.01428E+00-3.69154E-03-2.85626E-01 1.07879E-13-8.61918E-13
 -1      1289 1.68255E+01 4.98391E+00-1.68776E-02-3.12230E-01 9.43659E-14-8.98710E-13
 -1      1290 1.68371E+01 4.90366E+00-1.32334E-02-3.24045E-01 1.40315E-13-7.77526E-13
 -1      1291 1.73112E+01 5.02974E+00 5.43249E-03-1.79044E-01 1.43597E-13-7.87395E-13
 -1      1292 1.70862E+01 4.96131E+00-1.57844E-02-2.50297E-01 1.28817E-13-8.31861E-13
 -1      1293 1.70549E+01 4.83394E+00-1.39990E-02-2.68732E-01 1.90358E-13-7.16205E-13
 -1      1294 1.78832E+01 5.06487E+00 1.31802E-02 4.65673E-02 1.71391E-13-6.89310E-13
 -1      1295 1.75736E+01 4.97051E+00-1.14259E-02-8.53029E-02 1.61100E-13-7.49685E-13
 -1      1296 1.75365E+01 4.75045E+00-1.51859E-02-1.20161E-01 2.45946E-13-6.43128E-13
 -1      1297 1.85577E+01 5.11850E+00 1.88518E-02 3.99925E-01 2.05502E-13-5.44910E-13
 -1      1298 1.82042E+01 5.00903E+00-6.09161E-03 2.05153E-01 1.93755E-13-6.27840E-13
 -1      1299 1.81921E+01 4.67110E+00-1.64101E-02 1.48252E-01 2.94029E-13-5.38382E-13
 -1      1300 1.93139E+01 5.18690E+00 2.24752E-02 8.97301E-01 2.49217E-13-3.37740E-13
 -1      1301 1.89217E+01 5.06393E+00-2.57757E-03 6.28856E-01 2.27200E-13-4.55677E-13
 -1      1302 1.89539E+01 4.59920E+00-1.83149E-02 5.46541E-01 3.49590E-13-3.77035E-13
 -1      1303 2.01468E+01 5.25497E+00 2.39075E-02 1.54371E+00 2.83676E-13-4.01172E-14
 -1      1304 1.97096E+01 5.11500E+00-3.86969E-03 1.19396E+00 2.62332E-13-2.15550E-13
 -1      1305 1.98002E+01 4.51587E+00-2.06535E-02 1.07878E+00 4.07936E-13-1.66787E-13
 -1      1306 2.11583E+01 5.29201E+00 2.62420E-02 2.38567E+00 2.90198E-13 4.34902E-13
 -1      1307 2.06082E+01 5.11348E+00-1.40545E-02 1.91147E+00 2.70312E-13 1.53988E-13
 -1      1308 2.07674E+01 4.36224E+00-2.20670E-02 1.74679E+00 4.36786E-13 1.57187E-13
 -1      1309 2.27463E+01 5.09399E+00 2.96281E-02 3.58839E+00 2.19991E-13 1.22707E-12
 -1      1310 2.18399E+01 4.90658E+00-3.51270E-02 2.81576E+00 2.25028E-13 7.53141E-13
 -1      1311 2.20586E+01 3.95895E+00-1.37617E-02 2.54018E+00 4.11005E-13 6.60971E-13
 -1      1312 2.88450E+01 3.27902E+00 8.99818E-01 4.39780E+00 7.24837E-14 2.55368E-12
 -1      1313 2.37408E+01 3.64822E+00-1.75642E-01 3.52736E+00 8.95672E-14 1.65720E-12
 -1      1314 2.39398E+01 2.57804E+00-1.79645E-02 2.97002E+00 3.38840E-13 1.37304E-12
 -1      1315 2.33476E+01 3.30810E-01-7.76887E-01 9.22469E-01 1.56646E-13 2.53131E-12
 -1      1316 2.47361E+01 9.88820E-02-3.99044E-01-8.32735E-01-2.36075E-13 9.49019E-13
 -1      1317 2.39124E+01 2.80369E-01-1.47914E-01-4.10906E-01-2.07070E-13 6.65204E-13
 -1      1318 2.36029E+01 1.53351E-01-6.84488E-02-4.81084E-03-1.65500E-13 5.77573E-13
 -1      1319 2.36281E+01 9.02573E-02-9.58421E-03 6.17029E-02-1.46529E-13 3.47472E-13
 -1      1320 2.40060E+01 3.39732E-01-1.03573E-01-5.15340E-01-3.53696E-13 2.51722E-13
 -1      1321 2.36223E+01 6.95472E-02 2.79072E-03 2.60532E-01-1.09667E-13 2.80762E-13
 -1      1322 2.39570E+01 3.98607E-02 1.27059E-02 2.81635E-01-9.42493E-14 1.18627E-13
 -1      1323 2.35975E+01 1.29249E-01-3.82541E-02 2.60438E-01-2.47826E-13 1.28748E-13
 -1      1324 2.41574E+01 2.68876E-02 1.03600E-02 3.61306E-01-7.67535E-14 6.20684E-14
 -1      1325 2.46021E+01-1.01174E-03 9.22473E-03 3.67175E-01-7.74823E-14-6.29219E-14
 -1      1326 2.38203E+01 4.50021E-02-1.02553E-02 5.92738E-01-1.78393E-13-1.05471E-15
 -1      1327 2.48783E+01-1.87738E-02 8.83355E-03 3.46804E-01-3.41246E-14-1.01114E-13
 -1      1328 2.52722E+01-5.04845E-02 8.33846E-03 3.28631E-01-4.04217E-14-1.72799E-13
 -1      1329 2.43013E+01-3.07284E-02-1.93807E-04 6.72251E-01-1.27354E-13-7.46625E-14
 -1      1330 2.55074E+01-7.89860E-02 1.41289E-02 1.87583E-01-5.02419E-14-1.83544E-13
 -1      1331 2.56602E+01-1.10560E-01 1.45302E-02 1.34403E-01-5.46941E-14-2.76433E-13
 -1      1332 2.48275E+01-1.28258E-01 1.23290E-02 4.91686E-01-8.31141E-14-9.90909E-14
 -1      1333 2.57297E+01-1.45141E-01 2.64220E-02-1.40880E-01-3.01842E-14-2.63213E-13
 -1      1334 2.54369E+01-1.59211E-01 2.35135E-02-2.32025E-01-3.32876E-14-3.22124E-13
 -1      1335 2.51686E+01-2.38783E-01 2.94768E-02 4.25836E-03-7.10491E-14-9.30983E-14
 -1      1336 2.52269E+01-1.79383E-01 3.51198E-02-5.90923E-01-2.28151E-14-3.42296E-13
 -1      1337 2.43773E+01-1.47616E-01 2.38813E-02-6.96158E-01-2.79464E-14-3.79058E-13
 -1      1338 2.50854E+01-3.02681E-01 4.38782E-02-7.57426E-01-6.94445E-14-6.53982E-14
 -1      1339 2.38541E+01-1.19737E-01 2.43424E-02-9.74233E-01-3.75351E-14-3.81792E-13
 -1      1340 2.25981E+01-2.75401E-02 2.15387E-03-1.02878E+00-6.11724E-14-4.58827E-13
 -1      1341 2.44119E+01-2.24254E-01 3.75241E-02-1.54833E+00-6.17926E-14-9.41122E-14
 -1      1342 2.19124E+01 5.64899E-02-1.43638E-02-9.92505E-01-4.54220E-14-4.97241E-13
 -1      1343 2.07443E+01 1.72122E-01-3.96033E-02-9.25934E-01-2.06848E-14-5.13242E-13
 -1      1344 2.32353E+01 4.62395E-02-4.29016E-03-1.87968E+00-7.38984E-14-1.66540E-13
 -1      1345 2.02478E+01 2.51660E-01-6.04895E-02-4.73181E-01-8.79019E-14-6.09748E-13
 -1      1346 1.97941E+01 3.12522E-01-6.85216E-02-2.91691E-01-1.34927E-13-7.23827E-13
 -1      1347 2.20475E+01 3.86891E-01-6.75233E-02-1.30254E+00-1.39892E-13-3.61450E-13
 -1      1348 1.98130E+01 3.11729E-01-7.04956E-02 3.33648E-01-1.46081E-13-8.33956E-13
 -1      1349 2.03034E+01 2.63066E-01-6.02406E-02 5.04062E-01-1.41512E-13-1.00077E-12
 -1      1350 2.15642E+01 5.41259E-01-1.01868E-01 3.12099E-02-2.48010E-13-6.17835E-13
 -1      1351 2.08322E+01 1.78279E-01-4.31198E-02 9.70372E-01-6.78277E-14-1.03909E-12
 -1      1352 2.20610E+01 6.48911E-02-1.67414E-02 1.04373E+00 1.54633E-14-1.07155E-12
 -1      1353 2.21085E+01 4.00683E-01-6.92938E-02 1.37834E+00-1.31468E-13-7.62425E-13
 -1      1354 2.27978E+01-2.09900E-02-3.88311E-04 1.09536E+00 1.51858E-14-1.13363E-12
 -1      1355 2.41379E+01-1.16914E-01 2.25163E-02 1.04394E+00-6.18290E-14-1.12829E-12
 -1      1356 2.33822E+01 5.99807E-02-6.21138E-03 1.99288E+00-5.39100E-14-9.08457E-13
 -1      1357 2.47160E+01-1.46981E-01 2.21043E-02 7.69086E-01-4.95159E-14-1.11053E-12
 -1      1358 2.56572E+01-1.83127E-01 3.39941E-02 6.63220E-01-4.84144E-14-1.19309E-12
 -1      1359 2.46630E+01-2.19066E-01 3.74847E-02 1.68342E+00-4.77916E-14-9.55177E-13
 -1      1360 2.59112E+01-1.64536E-01 2.18022E-02 2.93856E-01-1.14839E-15-1.11281E-12
 -1      1361 2.62825E+01-1.54225E-01 2.46270E-02 1.98941E-01 5.17347E-14-1.07381E-12
 -1      1362 2.54325E+01-3.08371E-01 4.53530E-02 8.82316E-01-9.24955E-15-7.81689E-13
 -1      1363 2.62315E+01-1.19717E-01 1.17214E-02-9.72773E-02 5.14346E-14-1.06350E-12
 -1      1364 2.61290E+01-9.16316E-02 1.04209E-02-1.55585E-01-1.64972E-15-9.80865E-13
 -1      1365 2.55742E+01-2.51345E-01 3.23914E-02 8.11144E-02 6.48682E-14-7.05411E-13
 -1      1366 2.58727E+01-6.32721E-02 2.74151E-03-3.26757E-01-5.00494E-14-8.64147E-13
 -1      1367 2.54874E+01-3.63876E-02 6.01136E-04-3.51354E-01 2.47528E-14-8.98059E-13
 -1      1368 2.52268E+01-1.45963E-01 1.58685E-02-4.68915E-01 4.67994E-14-6.39939E-13
 -1      1369 2.51296E+01-2.00866E-02-1.70045E-03-4.16386E-01-9.47224E-15-8.86360E-13
 -1      1370 2.46310E+01-1.01051E-03-3.60943E-03-4.19254E-01-5.91740E-14-9.37188E-13
 -1      1371 2.45965E+01-5.59791E-02 3.66716E-03-7.40557E-01-1.65059E-14-5.68603E-13
 -1      1372 2.42486E+01 5.48032E-03-2.60968E-03-4.17005E-01-6.77170E-14-9.26474E-13
 -1      1373 2.37465E+01 1.68535E-02-4.23635E-03-4.08882E-01-2.86041E-14-9.48380E-13
 -1      1374 2.38576E+01 3.93451E-04-3.14959E-03-8.07856E-01-5.90145E-14-6.27156E-13
 -1      1375 2.33862E+01 1.74830E-02-1.88292E-03-3.72743E-01-3.41125E-14-9.84044E-13
 -1      1376 2.29368E+01 2.33296E-02-3.35334E-03-3.60542E-01 3.51860E-14-9.66737E-13
 -1      1377 2.31257E+01 2.81031E-02-6.05643E-03-7.57529E-01-4.53951E-14-5.34507E-13
 -1      1378 2.26212E+01 2.11862E-02-8.12795E-04-3.12223E-01-4.06793E-15-9.49241E-13
 -1      1379 2.22452E+01 2.36391E-02-2.17530E-03-2.99633E-01-4.10897E-14-9.80629E-13
 -1      1380 2.24638E+01 3.75706E-02-6.72743E-03-6.54355E-01-7.94980E-15-5.06281E-13
 -1      1381 2.19817E+01 2.05738E-02 3.90279E-05-2.50975E-01-2.01904E-14-9.53957E-13
 -1      1382 2.16803E+01 2.11525E-02-1.19268E-03-2.39649E-01-1.07943E-15-9.68836E-13
 -1      1383 2.18985E+01 3.74038E-02-6.32096E-03-5.37405E-01-2.33221E-14-5.59469E-13
 -1      1384 2.14673E+01 1.80938E-02 5.52828E-04-1.96086E-01 7.26546E-15-9.78268E-13
 -1      1385 2.12327E+01 1.77365E-02-5.13319E-04-1.86574E-01-2.20570E-14-1.00473E-12
 -1      1386 2.14340E+01 3.30302E-02-5.49352E-03-4.26680E-01-2.33520E-14-6.45708E-13
 -1      1387 2.10648E+01 1.50682E-02 7.87336E-04-1.49941E-01-5.61990E-14-1.05756E-12
 -1      1388 2.08861E+01 1.43067E-02-9.55943E-05-1.42264E-01-1.19707E-13-1.09272E-12
 -1      1389 2.10629E+01 2.73876E-02-4.57268E-03-3.30534E-01-5.33176E-14-7.68225E-13
 -1      1390 2.07565E+01 1.21322E-02 8.39504E-04-1.12606E-01-2.58708E-14-1.06100E-12
 -1      1391 2.06229E+01 1.12487E-02 1.35876E-04-1.06567E-01 8.45133E-14-1.02406E-12
 -1      1392 2.07728E+01 2.18715E-02-3.70430E-03-2.51076E-01-5.09657E-14-6.79131E-13
 -1      1393 2.05245E+01 9.54567E-03 7.90528E-04-8.31575E-02 4.43194E-14-1.11544E-12
 -1      1394 2.04264E+01 8.68029E-03 2.47494E-04-7.84939E-02-4.43287E-14-1.04577E-12
 -1      1395 2.05503E+01 1.70388E-02-2.94354E-03-1.87439E-01 3.43933E-14-8.60875E-13
 -1      1396 2.03529E+01 7.38034E-03 6.94972E-04-6.03592E-02-5.02111E-14-1.01691E-12
 -1      1397 2.02821E+01 6.59600E-03 2.87126E-04-5.68109E-02-3.47205E-14-1.03477E-12
 -1      1398 2.03824E+01 1.30345E-02-2.30318E-03-1.37584E-01-1.08763E-14-9.28803E-13
 -1      1399 2.02282E+01 5.62204E-03 5.85112E-04-4.29788E-02-5.20312E-14-1.04815E-12
 -1      1400 2.01781E+01 4.94154E-03 2.86162E-04-4.03158E-02-6.91693E-14-1.17195E-12
 -1      1401 2.02578E+01 9.82149E-03-1.77747E-03-9.91901E-02-3.01543E-14-1.02570E-12
 -1      1402 2.01392E+01 4.22295E-03 4.78129E-04-2.99151E-02 3.27971E-14-1.15393E-12
 -1      1403 2.01046E+01 3.64896E-03 2.64090E-04-2.79442E-02-7.22057E-15-1.17412E-12
 -1      1404 2.01669E+01 7.29618E-03-1.35350E-03-7.00578E-02-3.10058E-14-9.28680E-13
 -1      1405 2.00773E+01 3.12647E-03 3.82043E-04-2.02361E-02-8.10936E-14-1.13473E-12
 -1      1406 2.00541E+01 2.65218E-03 2.32562E-04-1.87994E-02-6.90565E-14-1.17890E-12
 -1      1407 2.01020E+01 5.34076E-03-1.01645E-03-4.82669E-02-5.63709E-15-8.90682E-13
 -1      1408 2.00353E+01 2.27816E-03 2.99731E-04-1.31759E-02-9.10966E-15-1.12291E-12
 -1      1409 2.00204E+01 1.89273E-03 1.98300E-04-1.21470E-02-2.57967E-14-1.14879E-12
 -1      1410 2.00566E+01 3.84532E-03-7.51891E-04-3.22088E-02-1.99248E-14-8.44448E-13
 -1      1411 2.00079E+01 1.62985E-03 2.31377E-04-8.11767E-03-8.44977E-14-1.04899E-12
 -1      1412 1.99989E+01 1.32122E-03 1.65016E-04-7.39628E-03-5.78232E-14-1.14721E-12
 -1      1413 2.00259E+01 2.71505E-03-5.46806E-04-2.05699E-02-4.27213E-14-8.56444E-13
 -1      1414 1.99910E+01 1.14065E-03 1.75873E-04-4.57064E-03-7.54425E-14-1.06430E-12
 -1      1415 1.99861E+01 8.96966E-04 1.34611E-04-4.07813E-03-2.96298E-14-1.08332E-12
 -1      1416 2.00058E+01 1.87134E-03-3.89850E-04-1.22953E-02-9.90467E-14-8.58377E-13
 -1      1417 1.99814E+01 7.76605E-04 1.31599E-04-2.14908E-03 3.33816E-14-1.13427E-12
 -1      1418 1.99793E+01 5.86887E-04 1.07914E-04-1.82439E-03-4.95529E-14-1.01515E-12
 -1      1419 1.99934E+01 1.25027E-03-2.71374E-04-6.54868E-03-1.67439E-15-7.66724E-13
 -1      1420 1.99769E+01 5.09989E-04 9.68144E-05-5.52842E-04 5.96013E-14-9.45470E-13
 -1      1421 1.99766E+01 3.64398E-04 8.51280E-05-3.49002E-04 7.00663E-14-8.17635E-13
 -1      1422 1.99864E+01 8.00507E-04-1.83301E-04-2.67441E-03 1.65427E-13-7.77863E-13
 -1      1423 1.99757E+01 3.18352E-04 6.98623E-05 4.49074E-04 4.12766E-14-6.33733E-13
 -1      1424 1.99765E+01 2.08306E-04 6.61047E-05 5.67754E-04 4.63986E-14-5.23479E-13
 -1      1425 1.99831E+01 4.81203E-04-1.18960E-04-1.64032E-04 1.69209E-13-7.07407E-13
 -1      1426 1.99766E+01 1.83703E-04 4.92530E-05 1.03231E-03-9.14737E-14-4.95491E-13
 -1      1427 1.99781E+01 1.01847E-04 5.05054E-05 1.09260E-03-1.27530E-13-6.13679E-13
 -1      1428 1.99822E+01 2.60053E-04-7.29022E-05 1.37212E-03-1.88318E-14-5.50503E-13
 -1      1429 1.99788E+01 9.17351E-05 3.36931E-05 1.32855E-03 4.95916E-15-6.92374E-13
 -1      1430 1.99805E+01 3.18587E-05 3.79024E-05 1.35023E-03 2.73506E-14-7.01956E-13
 -1      1431 1.99829E+01 1.11697E-04-4.07269E-05 2.22883E-03-1.14776E-13-5.47087E-13
 -1      1432 1.99815E+01 3.11575E-05 2.20857E-05 1.43486E-03-2.47592E-14-4.50066E-13
 -1      1433 1.99833E+01-1.19264E-05 2.78389E-05 1.43220E-03 5.66537E-14-4.35092E-13
 -1      1434 1.99845E+01 1.63526E-05-1.89140E-05 2.62564E-03 1.13282E-13-3.56335E-13
 -1      1435 1.99845E+01-6.90179E-06 1.35187E-05 1.42115E-03 7.43075E-15-3.80904E-13
 -1      1436 1.99863E+01-3.74968E-05 1.98687E-05 1.40418E-03-2.20996E-14-4.09011E-13
 -1      1437 1.99866E+01-4.13452E-05-4.67223E-06 2.72286E-03-2.74398E-14-1.30419E-13
 -1      1438 1.99874E+01-2.94192E-05 7.25494E-06 1.33611E-03-4.18007E-15-6.04032E-13
 -1      1439 1.99891E+01-5.10951E-05 1.35922E-05 1.31153E-03-1.89519E-13-7.16021E-13
 -1      1440 1.99888E+01-7.33395E-05 4.20279E-06 2.63436E-03-8.02548E-14-2.96943E-13
 -1      1441 1.99902E+01-4.19531E-05 2.73970E-06 1.21171E-03-1.83080E-13-6.98718E-13
 -1      1442 1.99917E+01-5.77004E-05 8.71759E-06 1.18358E-03-1.80159E-13-9.22370E-13
 -1      1443 1.99910E+01-8.90309E-05 9.46130E-06 2.43749E-03-2.18937E-13-5.89924E-13
 -1      1444 1.99927E+01-4.91058E-05-3.33878E-07 1.06643E-03 1.66173E-14-7.69034E-13
 -1      1445 1.99940E+01-6.14791E-05 5.19377E-06 1.03659E-03 5.81856E-14-6.83625E-13
 -1      1446 1.99931E+01-9.61301E-05 1.25276E-05 2.18047E-03-2.54538E-14-4.99756E-13
 -1      1447 1.99949E+01-5.49742E-05-1.85237E-06 9.07261E-04 5.64785E-14-6.99426E-13
 -1      1448 1.99960E+01-6.61460E-05 3.42165E-06 8.75458E-04 4.25127E-14-6.05738E-13
 -1      1449 1.99950E+01-1.01487E-04 1.46513E-05 1.88748E-03 4.39722E-14-3.77194E-13
 -1      1450 1.99968E+01-6.34403E-05-1.04810E-06 7.30906E-04-2.65838E-14-4.93190E-13
 -1      1451 1.99976E+01-7.48715E-05 4.19399E-06 6.94667E-04-1.18565E-13-5.44350E-13
 -1      1452 1.99966E+01-1.11727E-04 1.70197E-05 1.56191E-03 1.10910E-13-5.15794E-13
 -1      1453 1.99982E+01-7.75751E-05 3.08809E-06 5.25886E-04-6.11117E-14-3.52090E-13
 -1      1454 1.99988E+01-8.83726E-05 6.17768E-06 4.80517E-04-1.41843E-14-5.21928E-13
 -1      1455 1.99979E+01-1.32455E-04 2.04626E-05 1.19030E-03-4.89584E-14-3.96717E-13
 -1      1456 1.99992E+01-9.19709E-05 8.76964E-06 2.84130E-04-1.66366E-13-4.76467E-13
 -1      1457 1.99995E+01-1.07965E-04-8.02087E-06 2.22739E-04-1.01481E-13-6.29197E-13
 -1      1458 1.99989E+01-1.62968E-04 2.29297E-05 7.55601E-04-1.53594E-13-4.58839E-13
 -1      1459 1.99997E+01-8.98610E-05 3.14482E-08 6.78447E-05 6.59500E-14-6.71663E-13
 -1      1460 1.99997E+01-6.63174E-05-5.13583E-05 4.46836E-05 3.07437E-13-2.79845E-13
 -1      1461 1.99997E+01-7.76832E-05 8.62209E-06 6.66139E-05 7.57588E-13 1.06893E-13
 -1      1462 1.99995E+01-1.91112E-04 1.37823E-05 3.45042E-04-3.30934E-14-3.76857E-15
 -1      1463 2.26610E+01 6.25678E-02-1.41119E-01 2.94361E-01 1.67297E-13 2.15385E-12
 -1      1464 2.36327E+01 2.12422E-01-2.31034E-01 5.15295E-01 1.50796E-13 2.39878E-12
 -1      1465 2.37482E+01 8.35384E-01-9.68694E-02 1.69006E+00 2.71311E-13 1.70025E-12
 -1      1466 2.21119E+01 2.15066E-02-1.22555E-02 4.85620E-02 1.02699E-13 1.85487E-12
 -1      1467 2.23126E+01 1.00108E-01-5.62279E-02 9.10266E-02 1.06654E-13 2.02164E-12
 -1      1468 2.26608E+01 1.51650E-01-5.48890E-02 4.79534E-01 2.37865E-13 1.45739E-12
 -1      1469 2.19871E+01 2.80728E-04 1.28420E-02-2.36376E-02 5.20213E-14 1.67484E-12
 -1      1470 2.19889E+01 3.04575E-02 5.65263E-03-1.00998E-02 4.75288E-14 1.76046E-12
 -1      1471 2.21936E+01 3.26496E-02-1.11862E-02 8.61017E-02 1.42400E-13 1.25799E-12
 -1      1472 2.19570E+01-1.39418E-02 1.51384E-02-3.41185E-03 5.11114E-14 1.54342E-12
 -1      1473 2.19411E+01-5.71120E-03 1.42274E-02-9.81481E-03 5.10941E-14 1.61312E-12
 -1      1474 2.20288E+01-2.18473E-02 1.93978E-04-2.38098E-03 9.80665E-14 1.10101E-12
 -1      1475 2.18228E+01-2.45666E-02 1.51589E-02 7.56559E-02 4.48884E-14 1.42073E-12
 -1      1476 2.18887E+01-2.96105E-02 1.15944E-02 5.27371E-02 2.75526E-14 1.49253E-12
 -1      1477 2.19228E+01-4.69788E-02 7.29110E-03 7.16394E-02 7.36659E-14 1.01840E-12
 -1      1478 2.14583E+01-2.89828E-02 1.48590E-02 1.92446E-01 5.05867E-14 1.30861E-12
 -1      1479 2.16705E+01-4.50227E-02 9.08928E-03 1.57126E-01 5.71175E-14 1.39467E-12
 -1      1480 2.17219E+01-6.05671E-02 1.33620E-02 2.46074E-01 9.17070E-14 9.52270E-13
 -1      1481 2.08125E+01-2.30845E-02 1.13137E-02 3.12579E-01 3.34992E-14 1.22213E-12
 -1      1482 2.11936E+01-4.70324E-02 6.83290E-03 2.73896E-01 3.06760E-14 1.25331E-12
 -1      1483 2.13346E+01-5.73153E-02 1.66949E-02 4.65284E-01 7.25106E-14 8.74534E-13
 -1      1484 1.99420E+01-4.48553E-03 2.25309E-03 3.86210E-01 2.39663E-14 1.12851E-12
 -1      1485 2.04528E+01-3.00106E-02 2.94743E-03 3.58955E-01 2.94075E-14 1.16425E-12
 -1      1486 2.07457E+01-3.03836E-02 1.44121E-02 6.50769E-01 6.59793E-14 8.12260E-13
 -1      1487 1.90266E+01 2.32729E-02-1.12546E-02 3.63067E-01 5.79372E-14 1.07975E-12
 -1      1488 1.95578E+01 5.58921E-03-3.21293E-03 3.63156E-01 1.73446E-14 1.10156E-12
 -1      1489 2.00347E+01 1.87677E-02 4.91439E-03 7.07977E-01 4.65470E-14 7.32431E-13
 -1      1490 1.83317E+01 4.90553E-02-2.38867E-02 2.21913E-01 9.72868E-14 9.66116E-13
 -1      1491 1.87280E+01 4.83409E-02-1.00162E-02 2.56975E-01 8.76374E-14 1.07698E-12
 -1      1492 1.93722E+01 7.50896E-02-9.47026E-03 5.65760E-01 1.02027E-13 7.25055E-13
 -1      1493 1.81040E+01 5.92155E-02-2.85692E-02-5.08621E-03 3.93557E-14 8.26805E-13
 -1      1494 1.82250E+01 7.89450E-02-1.39797E-02 5.64538E-02 6.51666E-14 8.73740E-13
 -1      1495 1.89677E+01 1.13531E-01-2.24188E-02 2.27874E-01 1.30800E-13 6.55782E-13
 -1      1496 1.84470E+01 4.73618E-02-2.17822E-02-2.39246E-01 3.92394E-14 7.15088E-13
 -1      1497 1.82372E+01 8.19506E-02-1.22132E-02-1.73676E-01 2.79577E-14 7.49791E-13
 -1      1498 1.89751E+01 1.13968E-01-2.69964E-02-2.06277E-01 7.11497E-14 4.92111E-13
 -1      1499 1.92619E+01 2.00369E-02-7.14257E-03-3.97712E-01 2.03032E-14 6.67841E-13
 -1      1500 1.87812E+01 5.72363E-02-5.21190E-03-3.51471E-01 2.06953E-14 7.05477E-13
 -1      1501 1.94091E+01 7.56317E-02-2.12596E-02-5.84035E-01 3.97338E-14 3.83964E-13
 -1      1502 2.03011E+01-8.84162E-03 7.83109E-03-4.39068E-01 5.08361E-14 5.46153E-13
 -1      1503 1.96931E+01 1.91256E-02 3.27863E-03-4.23448E-01 5.16786E-14 6.58106E-13
 -1      1504 2.01357E+01 1.74605E-02-9.59098E-03-7.83828E-01 6.21955E-14 3.72622E-13
 -1      1505 2.12912E+01-2.81754E-02 1.69719E-02-3.75496E-01-3.54447E-15 5.24185E-13
 -1      1506 2.07134E+01-1.51411E-02 9.28516E-03-3.87290E-01 2.33151E-14 5.90583E-13
 -1      1507 2.09441E+01-3.47590E-02 1.82513E-03-7.73193E-01 5.09653E-14 4.08755E-13
 -1      1508 2.20377E+01-3.44984E-02 1.87692E-02-2.52480E-01-6.35646E-15 5.18221E-13
 -1      1509 2.16016E+01-3.52018E-02 1.09912E-02-2.79910E-01-3.02675E-14 4.39589E-13
 -1      1510 2.16410E+01-6.45284E-02 8.93429E-03-6.03288E-01 1.96718E-14 3.07480E-13
 -1      1511 2.24635E+01-3.08788E-02 1.53843E-02-1.18571E-01 4.37905E-14 4.12165E-13
 -1      1512 2.22130E+01-4.01715E-02 9.17341E-03-1.49446E-01 4.02152E-14 5.03170E-13
 -1      1513 2.21122E+01-6.95864E-02 1.12459E-02-3.62208E-01 6.31075E-14 2.64451E-13
 -1      1514 2.25881E+01-2.24884E-02 9.97010E-03-6.14595E-03-3.67328E-16 3.28140E-13
 -1      1515 2.25110E+01-3.48818E-02 5.76442E-03-3.25191E-02 2.54818E-14 3.54923E-13
 -1      1516 2.23301E+01-5.78812E-02 1.02027E-02-1.27360E-01 7.67979E-14 2.18405E-13
 -1      1517 2.24827E+01-1.34452E-02 4.87309E-03 7.17526E-02 3.70858E-14 2.58042E-13
 -1      1518 2.25371E+01-2.51214E-02 2.44080E-03 5.30917E-02 3.45860E-15 3.48412E-13
 -1      1519 2.23282E+01-3.94930E-02 7.59880E-03 5.66315E-02 2.66046E-14 1.40249E-13
 -1      1520 2.22313E+01-5.95099E-03 1.16226E-03 1.15713E-01 6.78689E-15 3.00194E-13
 -1      1521 2.23683E+01-1.50656E-02 6.50221E-05 1.04743E-01-6.53861E-15 3.08428E-13
 -1      1522 2.21677E+01-2.16477E-02 4.76825E-03 1.76348E-01-8.92342E-15 2.01107E-13
 -1      1523 2.19076E+01-6.85984E-04-1.05675E-03 1.32861E-01-1.25903E-13 4.11711E-13
 -1      1524 2.20848E+01-6.82810E-03-1.22519E-03 1.28032E-01-5.09209E-14 3.61026E-13
 -1      1525 2.19128E+01-7.79814E-03 2.38286E-03 2.37973E-01-9.28535E-14 2.54954E-13
 -1      1526 2.15662E+01 2.51482E-03-2.10859E-03 1.31801E-01 9.27819E-14 4.34286E-13
 -1      1527 2.17525E+01-1.01250E-03-1.67878E-03 1.31213E-01 6.53901E-15 4.46769E-13
 -1      1528 2.16171E+01 1.36398E-03 6.45794E-04 2.55884E-01-4.10201E-14 4.06418E-13
 -1      1529 2.12421E+01 4.13309E-03-2.40014E-03 1.20050E-01 3.38355E-14 2.38056E-13
 -1      1530 2.14180E+01 2.58648E-03-1.62568E-03 1.22029E-01 5.80384E-14 3.28950E-13
 -1      1531 2.13189E+01 6.52959E-03-4.78573E-04 2.45276E-01 1.10954E-13 3.03932E-13
 -1      1532 2.09547E+01 4.67829E-03-2.26775E-03 1.03192E-01 4.05319E-14 1.67842E-13
 -1      1533 2.11096E+01 4.47488E-03-1.33438E-03 1.06480E-01-8.60401E-15 1.49268E-13
 -1      1534 2.10424E+01 8.80645E-03-1.11673E-03 2.18736E-01 5.35126E-14 6.37938E-14
 -1      1535 2.07119E+01 4.56954E-03-1.94104E-03 8.49310E-02 8.12289E-14 4.89400E-14
 -1      1536 2.08418E+01 5.18362E-03-9.77349E-04 8.86809E-02 6.58863E-14 1.72454E-13
 -1      1537 2.08002E+01 9.23260E-03-1.40777E-03 1.85326E-01 7.87818E-14-2.12714E-14
 -1      1538 2.05145E+01 4.10985E-03-1.55759E-03 6.74758E-02-7.83466E-14 3.52426E-14
 -1      1539 2.06192E+01 5.15396E-03-6.45737E-04 7.11676E-02 6.88468E-15 2.48738E-14
 -1      1540 2.05970E+01 8.60630E-03-1.47066E-03 1.50906E-01 4.02050E-14 3.11079E-14
 -1      1541 2.03591E+01 3.49965E-03-1.19044E-03 5.19746E-02 7.12813E-14 1.50504E-14
 -1      1542 2.04408E+01 4.71093E-03-3.76740E-04 5.53244E-02-6.11230E-15 3.67692E-14
 -1      1543 2.04324E+01 7.47418E-03-1.39587E-03 1.18867E-01 6.50738E-15-5.53329E-14
 -1      1544 2.02404E+01 2.86157E-03-8.72470E-04 3.88840E-02 3.43952E-14-1.67686E-13
 -1      1545 2.03022E+01 4.07488E-03-1.77362E-04 4.17643E-02-2.07269E-14-1.14013E-13
 -1      1546 2.03030E+01 6.17891E-03-1.24739E-03 9.08818E-02 7.36008E-14-1.38996E-13
 -1      1547 2.01521E+01 2.26409E-03-6.13769E-04 2.82427E-02 1.75530E-14-2.93439E-13
 -1      1548 2.01975E+01 3.38500E-03-4.03566E-05 3.06231E-02 8.32319E-14-1.73820E-13
 -1      1549 2.02040E+01 4.91705E-03-1.06791E-03 6.75182E-02 9.91482E-14-1.31197E-13
 -1      1550 2.00884E+01 1.74041E-03-4.12609E-04 1.98605E-02-4.07737E-14-1.64485E-13
 -1      1551 2.01208E+01 2.72254E-03 4.65754E-05 2.17662E-02-4.06424E-14-2.28487E-13
 -1      1552 2.01303E+01 3.78864E-03-8.84307E-04 4.86908E-02-4.64962E-14 6.29849E-14
 -1      1553 2.00438E+01 1.30192E-03-2.61922E-04 1.34400E-02-3.05830E-14 4.01140E-14
 -1      1554 2.00661E+01 2.12980E-03 9.61191E-05 1.49242E-02-4.78639E-14-8.22370E-14
 -1      1555 2.00769E+01 2.83379E-03-7.12239E-04 3.39663E-02-5.94464E-14 2.07563E-13
 -1      1556 2.00140E+01 9.47411E-04-1.52884E-04 8.65195E-03 1.78736E-14 3.60246E-14
 -1      1557 2.00286E+01 1.62420E-03 1.19335E-04 9.77891E-03 1.61939E-14 1.89255E-14
 -1      1558 2.00395E+01 2.05778E-03-5.59759E-04 2.27595E-02 3.57678E-16 1.57369E-13
 -1      1559 1.99950E+01 6.69092E-04-7.67662E-05 5.17756E-03-5.76538E-14 1.97678E-13
 -1      1560 2.00040E+01 1.20819E-03 1.25047E-04 6.01210E-03-2.25280E-14 1.20363E-13
 -1      1561 2.00142E+01 1.44732E-03-4.29979E-04 1.44531E-02-6.01467E-14 1.72609E-13
 -1      1562 1.99838E+01 4.56290E-04-2.57918E-05 2.73081E-03 2.52015E-14 2.43160E-13
 -1      1563 1.99888E+01 8.75838E-04 1.19889E-04 3.33280E-03 1.38963E-14 2.85245E-13
 -1      1564 1.99980E+01 9.80636E-04-3.22966E-04 8.46380E-03-3.48791E-14 2.54639E-13
 -1      1565 1.99781E+01 2.97693E-04 6.55521E-06 1.06734E-03 2.50692E-13-4.44669E-14
 -1      1566 1.99803E+01 6.17127E-04 1.08620E-04 1.48910E-03 9.62671E-14 1.48787E-13
 -1      1567 1.99883E+01 6.33443E-04-2.37055E-04 4.27574E-03 1.76966E-13 3.62548E-14
 -1      1568 1.99760E+01 1.82580E-04 2.55091E-05-1.40537E-05-3.15506E-14-2.66537E-13
 -1      1569 1.99765E+01 4.20597E-04 9.45069E-05 2.71384E-04 3.32605E-14-1.23453E-13
 -1      1570 1.99832E+01 3.82260E-04-1.69721E-04 1.45273E-03 9.62459E-14 4.72231E-14
 -1      1571 1.99764E+01 1.01434E-04 3.51385E-05-6.74205E-04-3.64635E-14-1.61293E-13
 -1      1572 1.99758E+01 2.74908E-04 7.96820E-05-4.89357E-04 2.50115E-15-1.22706E-13
 -1      1573 1.99812E+01 2.06055E-04-1.18134E-04-3.61709E-04-1.37753E-13 1.25252E-13
 -1      1574 1.99783E+01 4.61658E-05 3.85193E-05-1.03837E-03 1.25050E-14-1.09548E-14
 -1      1575 1.99769E+01 1.69675E-04 6.54522E-05-9.25807E-04-7.66024E-14-1.80547E-13
 -1      1576 1.99813E+01 8.69031E-05-7.95043E-05-1.45069E-03-7.10527E-14-9.65096E-14
 -1      1577 1.99809E+01 1.01085E-05 3.79177E-05-1.20170E-03-3.71197E-14-9.67013E-16
 -1      1578 1.99792E+01 9.58358E-05 5.25412E-05-1.13953E-03-3.60533E-14-1.33156E-13
 -1      1579 1.99826E+01 1.00456E-05-5.12611E-05-2.03341E-03-4.48831E-14-1.11005E-13
 -1      1580 1.99838E+01-1.21096E-05 3.49644E-05-1.23455E-03 1.25694E-13-2.02906E-14
 -1      1581 1.99820E+01 4.57342E-05 4.12771E-05-1.20626E-03 8.92271E-14 2.82240E-14
 -1      1582 1.99847E+01-3.63638E-05-3.11446E-05-2.27527E-03 6.97565E-15-1.51008E-13
 -1      1583 1.99868E+01-2.47595E-05 3.08126E-05-1.18728E-03 1.20014E-13-2.36149E-13
 -1      1584 1.99850E+01 1.30260E-05 3.17317E-05-1.18082E-03 1.07809E-13-3.10037E-14
 -1      1585 1.99870E+01-6.16762E-05-1.72223E-05-2.29761E-03 1.86490E-13 5.71944E-14
 -1      1586 1.99896E+01-3.12314E-05 2.62884E-05-1.09424E-03-1.42024E-13-1.83125E-13
 -1      1587 1.99880E+01-7.51894E-06 2.38282E-05-1.10118E-03-5.74587E-15-1.86871E-13
 -1      1588 1.99894E+01-7.32365E-05-7.86435E-06-2.18618E-03-1.00381E-14 1.82808E-14
 -1      1589 1.99922E+01-3.42691E-05 2.20712E-05-9.76831E-04 9.66388E-14-1.38849E-13
 -1      1590 1.99907E+01-2.02916E-05 1.74404E-05-9.91768E-04-6.69617E-14-1.47202E-13
 -1      1591 1.99917E+01-7.69064E-05-1.67722E-06-1.99810E-03-6.64175E-14 4.09364E-14
 -1      1592 1.99945E+01-3.62106E-05 1.89628E-05-8.45600E-04 7.15952E-14-2.99444E-13
 -1      1593 1.99932E+01-2.91878E-05 1.25427E-05-8.65840E-04 1.18420E-13-1.12787E-13
 -1      1594 1.99938E+01-7.76439E-05 2.62013E-06-1.76704E-03 6.83831E-14-2.03515E-13
 -1      1595 1.99965E+01-3.91485E-05 1.81882E-05-7.01367E-04-5.46626E-14-2.92842E-13
 -1      1596 1.99954E+01-3.79665E-05 9.43548E-06-7.26879E-04-3.36243E-14-3.16482E-13
 -1      1597 1.99956E+01-7.99947E-05 6.41507E-06-1.50674E-03-6.12320E-16-1.43512E-13
 -1      1598 1.99980E+01-4.48674E-05 2.09354E-05-5.36172E-04 9.97778E-14-3.47946E-13
 -1      1599 1.99972E+01-5.02582E-05 8.88112E-06-5.69615E-04 3.20788E-14-3.14765E-13
 -1      1600 1.99972E+01-8.83755E-05 1.12671E-05-1.21328E-03 6.35097E-16-1.35648E-13
 -1      1601 1.99991E+01-5.36005E-05 2.30197E-05-3.34553E-04-4.37374E-14-5.26556E-13
 -1      1602 1.99985E+01-6.91760E-05 1.04236E-05-3.82548E-04 1.66705E-13-3.22631E-13
 -1      1603 1.99984E+01-1.06871E-04 1.70070E-05-8.68957E-04 1.48187E-13-1.21985E-13
 -1      1604 1.99997E+01-6.25074E-05-1.85116E-06-1.04572E-04-6.78102E-14-1.52430E-13
 -1      1605 1.99994E+01-8.53609E-05 6.97107E-06-1.62797E-04-1.37711E-13-4.71170E-13
 -1      1606 1.99993E+01-1.32654E-04 1.70207E-05-4.60932E-04-9.85693E-14-1.50524E-13
 -1      1607 1.99998E+01-3.06488E-05-1.17483E-05 4.63204E-06 1.15180E-14-8.71803E-14
 -1      1608 1.99997E+01-5.36127E-04 1.25853E-05-2.76165E-04-4.72077E-13-4.24358E-13
 -1      1609 1.99997E+01-2.69405E-04-4.73225E-06-2.16986E-04-7.20658E-14-1.42738E-13
 -1      1610 1.99997E+01-1.45092E-03 6.96113E-06-4.82492E-04-5.03131E-13 2.85645E-13
 -1      1611 1.99997E+01-9.15133E-04 7.97601E-06-4.42317E-04-4.20814E-13-2.80473E-13
 -1      1612 1.99997E+01-8.62426E-04 1.68283E-05-7.08223E-04-3.47033E-13-4.41358E-13
 -1      1613 1.99998E+01-2.62817E-03 1.23362E-06-5.87636E-04-1.23727E-13 1.35000E-13
 -1      1614 1.99998E+01-1.94304E-03 5.29540E-06-5.75293E-04-4.83513E-13 4.23376E-13
 -1      1615 1.99997E+01-1.72622E-03 1.19405E-05-1.02546E-03-5.99667E-14 3.83244E-13
 -1      1616 1.99998E+01-3.87042E-03-1.61969E-06-5.92430E-04 2.70639E-13 2.96704E-14
 -1      1617 1.99998E+01-3.16295E-03 1.35644E-06-5.99611E-04-6.97686E-14 2.86617E-13
 -1      1618 1.99998E+01-2.74811E-03 8.26411E-07-1.14626E-03-1.57506E-13 3.53201E-13
 -1      1619 1.99998E+01-4.98133E-03-2.37917E-06-5.14241E-04-4.39029E-13-3.56134E-13
 -1      1620 1.99998E+01-4.36614E-03-1.66788E-07-5.35677E-04 1.96946E-13-6.36450E-13
 -1      1621 1.99998E+01-3.77074E-03-8.57165E-06-1.08906E-03-2.17983E-13-4.41373E-13
 -1      1622 1.99999E+01-5.85465E-03-2.29194E-06-3.70754E-04-2.92770E-13 8.57199E-14
 -1      1623 1.99999E+01-5.39238E-03-8.98070E-07-4.03251E-04-4.09643E-13 1.00806E-13
 -1      1624 1.99999E+01-4.66813E-03-1.54070E-05-8.86069E-04-1.51721E-14-3.04832E-13
 -1      1625 1.99999E+01-6.36483E-03-1.84212E-06-1.84774E-04-3.24314E-13-5.34163E-14
 -1      1626 1.99999E+01-6.12074E-03-1.13735E-06-2.23559E-04-3.01493E-13 1.36644E-13
 -1      1627 1.99999E+01-5.33658E-03-2.01038E-05-5.74192E-04-3.81819E-14 6.06492E-14
 -1      1628 1.99999E+01-6.45524E-03-1.42329E-06 2.13832E-05-1.42259E-13 3.27475E-13
 -1      1629 1.99999E+01-6.45644E-03-1.43338E-06-1.94987E-05-3.90131E-13 1.32252E-13
 -1      1630 1.99999E+01-5.68976E-03-2.24278E-05-1.97412E-04 6.87745E-14 3.54215E-14
 -1      1631 1.99999E+01-6.11557E-03-1.10028E-06 2.25465E-04-2.54343E-13-2.16739E-13
 -1      1632 1.99999E+01-6.36214E-03-1.86283E-06 1.86683E-04-3.07015E-13 1.98962E-13
 -1      1633 1.99999E+01-5.68834E-03-2.24312E-05 2.01054E-04-2.03348E-13 1.45233E-13
 -1      1634 1.99999E+01-5.38324E-03-7.73311E-07 4.05148E-04-8.56657E-13-3.44447E-13
 -1      1635 1.99999E+01-5.84800E-03-2.41725E-06 3.72748E-04-3.64868E-13-4.33224E-13
 -1      1636 1.99999E+01-5.33229E-03-2.00636E-05 5.77963E-04-3.75357E-13-4.78184E-13
 -1      1637 1.99998E+01-4.36243E-03-2.72661E-07 5.36263E-04-7.55161E-13 2.48660E-13
 -1      1638 1.99998E+01-4.97935E-03-2.50397E-06 5.14933E-04-7.06846E-13-1.48960E-13
 -1      1639 1.99999E+01-4.66795E-03-1.55363E-05 8.87971E-04-4.21140E-13-3.17692E-13
 -1      1640 1.99998E+01-3.14702E-03 1.44578E-06 6.00948E-04-1.71142E-13 3.24572E-13
 -1      1641 1.99998E+01-3.85663E-03-1.63757E-06 5.94006E-04-6.19570E-13 3.98249E-13
 -1      1642 1.99998E+01-3.76882E-03-8.42134E-06 1.09119E-03-1.82350E-13 5.52829E-13
 -1      1643 1.99998E+01-1.92685E-03 5.04576E-06 5.75024E-04 3.23131E-13 2.99470E-13
 -1      1644 1.99998E+01-2.61117E-03 1.36015E-06 5.88032E-04-2.11126E-13 6.68858E-13
 -1      1645 1.99998E+01-2.73594E-03 9.23771E-07 1.14802E-03-2.00083E-15 5.25155E-13
 -1      1646 1.99997E+01-9.02385E-04 7.34984E-06 4.37697E-04 4.94563E-13 2.56871E-13
 -1      1647 1.99997E+01-1.43326E-03 8.10926E-06 4.81083E-04 3.31637E-13 8.05989E-15
 -1      1648 1.99997E+01-1.71050E-03 1.27028E-05 1.02435E-03 1.00220E-14 2.33186E-13
 -1      1649 1.99997E+01-3.01487E-04-3.37658E-07 2.30661E-04 6.43403E-13 1.52675E-13
 -1      1650 1.99997E+01-5.88504E-04 1.59402E-05 2.90861E-04 4.97178E-13 1.90853E-14
 -1      1651 1.99997E+01-9.30851E-04 2.04077E-05 7.27032E-04 5.81072E-14 5.98743E-14
 -1      1652 1.99996E+01-4.00617E-04 6.91013E-06 3.64277E-04 9.11397E-14 1.34180E-13
 -1      1653-6.21117E-01-1.47895E+01-1.70233E+00-8.98773E-01 1.19671E-12 5.02792E-13
 -1      1654-6.21496E-01-1.71393E+01-1.93165E+00 4.22075E-01 6.69076E-13 2.99649E-13
 -1      1655 1.58821E+00-7.89778E+00-1.15258E+00 8.48823E-01 1.66545E-12 9.70196E-13
 -1      1656 7.87529E-01-1.29319E+01-1.64461E+00 2.29962E-01 1.30296E-12 6.68403E-13
 -1      1657 6.52923E+00-4.43405E-01-5.91065E-01 4.47110E+00 1.92335E-12 1.41187E-12
 -1      1658 3.66811E+00-5.81346E+00-1.29556E+00 1.71225E+00 1.80189E-12 1.11622E-12
 -1      1659 1.82815E+01 4.09904E+00 2.24325E-01 9.53292E+00 1.52556E-12 1.50613E-12
 -1      1660 1.18269E+01 7.40240E-01-5.78154E-01 5.95647E+00 1.73961E-12 1.34492E-12
 -1      1661 3.11894E+01 6.58653E+00 9.96769E-01 1.25240E+01 1.16807E-12 1.34381E-12
 -1      1662 2.26410E+01 6.03852E+00 1.56686E-01 1.04916E+01 1.55731E-12 1.51457E-12
 -1      1663 4.55077E+01 5.36307E+00 1.62073E+00 1.11202E+01 6.95735E-13 4.58300E-13
 -1      1664 3.62982E+01 6.94365E+00 9.16203E-01 1.24760E+01 1.09646E-12 1.19083E-12
 -1      1665 5.41911E+01 3.60013E+00 1.84732E+00 4.54390E+00 3.49193E-13-5.63383E-13
 -1      1666 4.92788E+01 4.98526E+00 1.53436E+00 9.10548E+00 5.18738E-13 1.32006E-13
 -1      1667 5.37521E+01 3.91511E+00 1.68054E+00-4.13684E+00 5.47618E-13-1.56702E-12
 -1      1668 5.48835E+01 3.65845E+00 1.80591E+00 1.72347E+00 3.30985E-13-9.32698E-13
 -1      1669 4.43565E+01 5.71152E+00 1.15609E+00-9.96651E+00 1.16969E-12-2.28595E-12
 -1      1670 5.10593E+01 4.16203E+00 1.62941E+00-6.28197E+00 7.75907E-13-1.72617E-12
 -1      1671 3.16539E+01 6.88151E+00 6.03099E-01-1.20245E+01 1.69464E-12-2.63412E-12
 -1      1672 4.05628E+01 5.76653E+00 1.28610E+00-1.18410E+01 1.32816E-12-2.55163E-12
 -1      1673 1.84854E+01 5.41347E+00-9.98893E-02-9.50031E+00 2.11853E-12-2.35501E-12
 -1      1674 2.65788E+01 6.66125E+00 7.34863E-01-1.22552E+01 1.88405E-12-2.60880E-12
 -1      1675 8.71411E+00-7.27222E-01-8.32774E-01-4.66814E+00 1.92557E-12-1.66989E-12
 -1      1676 1.41890E+01 3.54147E+00 4.11213E-03-8.35105E+00 2.05869E-12-2.14695E-12
 -1      1677 2.44758E+00-8.05742E+00-1.45793E+00-9.04953E-01 1.44285E-12-1.00697E-12
 -1      1678 4.51797E+00-2.43663E+00-7.79341E-01-3.07484E+00 1.92513E-12-1.51607E-12
 -1      1679 2.09933E-01-1.43737E+01-1.74393E+00-1.52835E-01 3.53273E-13-5.97800E-13
 -1      1680 6.75650E-01-9.88303E+00-1.31001E+00-1.28052E-01 1.13765E-12-8.72621E-13
 -1      1681-7.76508E-01-1.68623E+01-1.91311E+00-8.64146E-01-8.63240E-13-4.79006E-13
 -1      1682-7.65672E-01-1.59428E+01-1.80986E+00 7.87570E-01 2.90878E-14-4.68597E-13
 -1      1683-2.86612E-01-1.29899E+01-1.60933E+00-1.00579E+00-1.88760E-12-9.26884E-13
 -1      1684-3.58596E-01-1.60567E+01-1.86887E+00-2.24967E-01-1.18322E-12-5.91527E-13
 -1      1685 2.18444E+00-6.25928E+00-1.17304E+00 9.72381E-01-2.61102E-12-1.61704E-12
 -1      1686 1.06097E+00-1.15654E+01-1.72743E+00-2.47138E-01-2.16227E-12-1.12736E-12
 -1      1687 9.87893E+00 7.30944E-01-4.07971E-01 5.96238E+00-2.60569E-12-2.16627E-12
 -1      1688 5.77697E+00-4.38638E+00-1.19806E+00 2.63411E+00-2.60525E-12-1.75626E-12
 -1      1689 2.18071E+01 5.36488E+00 4.26493E-01 1.07201E+01-2.24298E-12-2.49045E-12
 -1      1690 1.42400E+01 2.60908E+00-5.15044E-01 7.13122E+00-2.58893E-12-2.31415E-12
 -1      1691 3.75780E+01 6.24195E+00 1.31304E+00 1.28306E+01-1.51534E-12-2.17493E-12
 -1      1692 2.72626E+01 6.51444E+00 3.57844E-01 1.14929E+01-2.06002E-12-2.50733E-12
 -1      1693 5.15558E+01 4.39766E+00 1.89986E+00 8.83259E+00-7.84553E-13-1.26466E-12
 -1      1694 4.29954E+01 6.23671E+00 1.26969E+00 1.17773E+01-1.23079E-12-1.94333E-12
 -1      1695 5.66667E+01 3.55118E+00 1.98964E+00 1.05187E+00-4.79228E-13-2.55865E-13
 -1      1696 5.39428E+01 4.34058E+00 1.82147E+00 6.28818E+00-6.40432E-13-9.28035E-13
 -1      1697 5.30482E+01 4.46574E+00 1.76386E+00-6.87068E+00-4.86111E-13 6.15841E-13
 -1      1698 5.66147E+01 3.54670E+00 2.01087E+00-1.47966E+00-3.77198E-13 3.93019E-14
 -1      1699 4.14332E+01 6.24950E+00 1.13500E+00-1.17311E+01-6.92363E-13 1.16795E-12
 -1      1700 5.01910E+01 4.59828E+00 1.84661E+00-9.28866E+00-4.90649E-13 8.58313E-13
 -1      1701 2.64535E+01 5.45178E+00 2.28293E-01-1.02597E+01-1.17262E-12 1.28475E-12
 -1      1702 3.62322E+01 5.42830E+00 1.09687E+00-1.16791E+01-7.94476E-13 1.15241E-12
 -1      1703 1.23076E+01 2.03011E+00-6.70941E-01-6.36425E+00-1.53588E-12 1.33715E-12
 -1      1704 2.00575E+01 5.15452E+00 2.87675E-01-1.03105E+01-1.35736E-12 1.48503E-12
 -1      1705 4.47171E+00-6.14434E+00-1.32478E+00-1.73784E+00-1.22624E-12 8.78408E-13
 -1      1706 8.23064E+00-3.17127E-01-5.12238E-01-5.02975E+00-1.43907E-12 1.18339E-12
 -1      1707 4.74792E-01-1.36701E+01-1.80258E+00 4.65849E-01-5.37792E-13 5.04236E-13
 -1      1708 1.23833E+00-8.28654E+00-1.27489E+00-2.19504E-01-1.13543E-12 8.60395E-13
 -1      1709-6.69027E-01-1.73171E+01-1.94903E+00-4.95846E-02 4.07147E-13 3.06005E-13
 -1      1710-7.71812E-01-1.53203E+01-1.79170E+00 1.39497E+00-3.42559E-13 4.62019E-13
 -1      1711 1.47903E+01-3.18255E+00-2.11910E-01 6.67947E+00 9.58456E-13 7.92977E-13
 -1      1712-1.39374E+00-1.20026E+01-1.38422E+00 3.22448E-01 3.40880E-13 6.71407E-13
 -1      1713 1.99997E+01-9.21327E-05 6.30657E-06-9.75651E-05-9.44759E-14 2.47010E-14
 -1      1714 1.99996E+01-3.36189E-04 1.50508E-06-3.64822E-04-1.53249E-13-1.43127E-13
 -1      1715 6.80951E-01-1.01020E+01-1.13386E+00 2.66015E+00 6.93112E-13 7.93754E-13
 -1      1716 5.84373E+00-6.98013E+00-8.18378E-01 4.68879E+00 8.74634E-13 8.46594E-13
 -1      1717 2.46375E+01 1.66708E-01 1.52853E-01 7.09227E+00 9.69558E-13 7.20091E-13
 -1      1718 3.45080E+01 4.22430E+00 8.19298E-01 7.12574E+00 1.04128E-12 5.47340E-13
 -1      1719 4.31590E+01 6.44576E+00 1.37413E+00 5.20955E+00 9.24927E-13 6.59472E-14
 -1      1720 4.72441E+01 7.35649E+00 1.56683E+00 1.49025E+00 7.31304E-13-6.43208E-13
 -1      1721 4.52867E+01 7.31688E+00 1.37415E+00-2.12045E+00 8.86735E-13-1.04133E-12
 -1      1722 3.98419E+01 5.82151E+00 1.10612E+00-5.25148E+00 1.08777E-12-1.32372E-12
 -1      1723 3.14284E+01 3.48482E+00 6.91698E-01-7.49522E+00 1.12810E-12-1.59062E-12
 -1      1724 2.12049E+01-1.76061E-01 5.92713E-02-7.38625E+00 1.15552E-12-1.49780E-12
 -1      1725 1.15902E+01-4.13651E+00-4.67747E-01-6.15988E+00 9.85878E-13-1.35381E-12
 -1      1726 3.91587E+00-7.88894E+00-9.60916E-01-4.05154E+00 5.92970E-13-1.11317E-12
 -1      1727-3.72384E-01-1.05255E+01-1.23174E+00-1.94762E+00 3.95795E-14-9.98090E-13
 -1      1728-1.17152E+00-1.13257E+01-1.34947E+00 6.22755E-01-6.16868E-13-9.50851E-13
 -1      1729 1.68171E+00-9.57338E+00-1.17593E+00 2.68909E+00-1.14153E-12-1.17695E-12
 -1      1730 8.24245E+00-6.31917E+00-7.41514E-01 5.06124E+00-1.48626E-12-1.37212E-12
 -1      1731 1.76207E+01-2.60019E+00-2.37144E-01 6.64543E+00-1.57629E-12-1.44457E-12
 -1      1732 2.82697E+01 1.57241E+00 3.84748E-01 7.32451E+00-1.58695E-12-1.46860E-12
 -1      1733 3.92313E+01 4.95148E+00 1.12834E+00 6.48396E+00-1.34198E-12-1.20559E-12
 -1      1734 4.64774E+01 6.91084E+00 1.56283E+00 3.57221E+00-1.04727E-12-8.03413E-13
 -1      1735 4.84678E+01 7.48622E+00 1.63999E+00-8.18731E-02-7.97307E-13-3.21770E-13
 -1      1736 4.58995E+01 6.69666E+00 1.51609E+00-3.60911E+00-6.10012E-13 1.48159E-13
 -1      1737 3.78601E+01 3.94641E+00 8.49122E-01-5.47757E+00-5.61898E-13 3.20854E-13
 -1      1738 2.74630E+01 9.67021E-01 4.00807E-01-6.87477E+00-7.04103E-13 5.30465E-13
 -1      1739 1.57444E+01-3.17358E+00-3.46662E-01-6.31636E+00-7.16871E-13 7.76934E-13
 -1      1740 6.54087E+00-7.36283E+00-8.34381E-01-4.52452E+00-4.01679E-13 8.11157E-13
 -1      1741 4.04425E-01-1.06684E+01-1.24160E+00-1.94741E+00-1.12299E-13 7.78377E-13
 -1      1742 2.52782E+01 1.97360E+00-2.53350E-02-2.11996E+00-2.82854E-13 6.38045E-13
 -1      1743 2.04492E+01 3.89109E+00-4.30963E-02-9.60267E-01-2.28848E-13-5.79932E-13
 -1      1744 2.12080E+01 3.72233E+00-3.20281E-02-1.25693E+00-2.94726E-13-4.97179E-13
 -1      1745 2.20101E+01 3.24127E+00-5.16291E-02-1.46524E+00-3.17468E-13-3.64667E-13
 -1      1746 2.26988E+01 2.83762E+00-1.23190E-01-1.80362E+00-3.77046E-13-1.99799E-13
 -1      1747 2.18829E+01 2.79979E+00 9.33537E-04-1.01386E+00-3.16861E-13-3.89185E-13
 -1      1748 1.80212E+01 4.56326E+00-2.32622E-02-3.80653E-01-4.21520E-14-7.08747E-13
 -1      1749 1.85310E+01 4.53229E+00-6.15148E-03-4.88628E-01-8.95135E-14-7.04006E-13
 -1      1750 1.72446E+01 4.72346E+00-1.55538E-02-3.13080E-01 2.47701E-14-7.06657E-13
 -1      1751 1.75924E+01 4.71487E+00-4.40422E-03-3.57913E-01-5.88071E-15-7.17813E-13
 -1      1752 1.78750E+01 4.36256E+00-3.46803E-03-2.93135E-01-2.93424E-14-6.89567E-13
 -1      1753 1.68485E+01 4.78007E+00-8.71115E-03-3.29095E-01 1.01507E-13-6.73643E-13
 -1      1754 1.69984E+01 4.78907E+00-6.26886E-03-3.41948E-01 6.36370E-14-6.90907E-13
 -1      1755 1.71496E+01 4.55184E+00-1.10434E-03-2.99159E-01 4.79265E-14-6.81884E-13
 -1      1756 1.68457E+01 4.73769E+00-3.44027E-03-3.50969E-01 1.77065E-13-6.29134E-13
 -1      1757 1.67985E+01 4.75957E+00-9.84111E-03-3.68339E-01 1.47578E-13-6.61774E-13
 -1      1758 1.68409E+01 4.58723E+00-9.80578E-04-3.65800E-01 1.28737E-13-6.42519E-13
 -1      1759 1.71899E+01 4.61715E+00-7.17750E-04-3.04631E-01 2.39222E-13-5.75492E-13
 -1      1760 1.69763E+01 4.64580E+00-1.35690E-02-3.58119E-01 2.09563E-13-6.07006E-13
 -1      1761 1.69463E+01 4.48201E+00-3.35890E-03-4.07733E-01 2.03245E-13-6.03225E-13
 -1      1762 1.77909E+01 4.45139E+00-1.23056E-03-1.39688E-01 2.93940E-13-5.00936E-13
 -1      1763 1.74605E+01 4.48083E+00-1.66663E-02-2.49417E-01 2.67437E-13-5.46783E-13
 -1      1764 1.74006E+01 4.27488E+00-7.14242E-03-3.50880E-01 2.60375E-13-5.45021E-13
 -1      1765 1.85352E+01 4.27363E+00-4.74907E-03 1.56033E-01 3.54489E-13-3.88030E-13
 -1      1766 1.81446E+01 4.29972E+00-1.94839E-02-1.34120E-02 3.22768E-13-4.57691E-13
 -1      1767 1.80930E+01 4.01789E+00-1.05607E-02-1.57732E-01 3.22906E-13-4.60306E-13
 -1      1768 1.93736E+01 4.08497E+00-1.13326E-02 5.85123E-01 4.24486E-13-2.25053E-13
 -1      1769 1.89424E+01 4.11489E+00-2.33128E-02 3.50666E-01 3.83407E-13-3.16447E-13
 -1      1770 1.89227E+01 3.74441E+00-1.30008E-02 1.73000E-01 3.89014E-13-3.33010E-13
 -1      1771 2.02695E+01 3.85285E+00-2.28739E-02 1.12195E+00 4.77073E-13-2.76099E-14
 -1      1772 1.98089E+01 3.90794E+00-2.99957E-02 8.28089E-01 4.44960E-13-1.45030E-13
 -1      1773 1.98305E+01 3.45173E+00-1.31756E-02 6.15072E-01 4.53059E-13-1.65494E-13
 -1      1774 2.12738E+01 3.46432E+00-4.36950E-02 1.73392E+00 4.94074E-13 2.89081E-13
 -1      1775 2.07498E+01 3.60649E+00-4.13222E-02 1.38181E+00 4.77653E-13 1.01977E-13
 -1      1776 2.08006E+01 3.08491E+00-9.47400E-03 1.10955E+00 4.91760E-13 5.65346E-14
 -1      1777 2.25925E+01 2.62165E+00-6.14920E-02 2.26132E+00 4.33088E-13 7.96876E-13
 -1      1778 2.18657E+01 3.04819E+00-5.21485E-02 1.94437E+00 4.59508E-13 4.95076E-13
 -1      1779 2.18808E+01 2.49076E+00-1.50286E-03 1.54095E+00 4.83517E-13 3.91531E-13
 -1      1780 2.36504E+01 1.15646E+00-1.25605E-01 1.87147E+00 3.34656E-13 1.38367E-12
 -1      1781 2.30818E+01 2.23096E+00 1.97371E-03 2.20822E+00 3.86953E-13 1.01261E-12
 -1      1782 2.27505E+01 1.59583E+00-1.24610E-02 1.56682E+00 4.31686E-13 7.93372E-13
 -1      1783 2.30360E+01 7.20094E-01-5.66228E-02 1.08019E+00 3.46501E-13 1.27092E-12
 -1      1784 2.42174E+01 2.42108E+00 8.04871E-02-2.18592E+00-3.57180E-13 1.15602E-13
 -1      1785 2.24487E+01 2.28684E-01-4.94178E-03 3.19234E-01 2.33790E-13 1.07941E-12
 -1      1786 2.28285E+01 3.72041E-01-1.50243E-02 6.47310E-01 2.73406E-13 1.17755E-12
 -1      1787 2.27814E+01 7.55083E-01 3.23187E-03 9.37219E-01 3.31461E-13 8.96979E-13
 -1      1788 2.38612E+01 1.73289E+00 7.68671E-02-1.36832E+00-3.63869E-13 6.77236E-15
 -1      1789 2.35087E+01 5.22474E-01 3.38623E-02 6.62969E-02-2.68487E-13 1.21487E-14
 -1      1790 2.34174E+01 3.75770E-01 1.25486E-02 3.67234E-01-2.25145E-13-6.43773E-14
 -1      1791 2.34451E+01 2.65964E-01 2.70202E-02 6.32059E-01-2.03993E-13-5.18422E-14
 -1      1792 2.35931E+01 1.47919E-01 6.48162E-03 7.60160E-01-1.74086E-13-1.13173E-13
 -1      1793 2.30261E+01 4.97625E-01-1.24800E-02 5.33157E-01-2.58371E-13-1.52119E-13
 -1      1794 2.37457E+01 4.56939E-02 1.65785E-02 8.64574E-01-1.43717E-13-8.17488E-14
 -1      1795 2.39713E+01-8.55789E-02-7.76582E-03 8.55643E-01-1.06915E-13-1.09300E-13
 -1      1796 2.32000E+01 1.40530E-01-1.25624E-02 9.64814E-01-1.75575E-13-1.31815E-13
 -1      1797 2.42299E+01-2.14062E-01 1.05754E-02 7.86126E-01-5.26142E-14-7.65638E-14
 -1      1798 2.44175E+01-3.78674E-01-2.29350E-02 6.17788E-01-3.26388E-14-7.62975E-14
 -1      1799 2.35989E+01-2.39539E-01-1.27841E-02 1.02917E+00-8.68815E-14-7.93341E-14
 -1      1800 2.47470E+01-5.28861E-01 7.85416E-03 3.36771E-01-3.88465E-14-3.05485E-14
 -1      1801 2.47836E+01-6.91852E-01-3.29926E-02-7.54367E-03-4.07938E-14-1.14284E-14
 -1      1802 2.41623E+01-6.94460E-01-1.12134E-02 6.76469E-01-2.14074E-14-1.71313E-14
 -1      1803 2.51057E+01-8.00546E-01 3.81066E-03-5.03218E-01-4.64455E-14 3.90169E-14
 -1      1804 2.49036E+01-8.50126E-01-2.92756E-02-9.64551E-01-4.30333E-14 3.90347E-14
 -1      1805 2.47908E+01-1.11598E+00-3.72306E-03-1.44788E-01-2.39227E-14 7.90265E-14
 -1      1806 2.50669E+01-7.86534E-01-1.27037E-02-1.54422E+00-7.24030E-14 5.05906E-14
 -1      1807 2.46270E+01-5.66331E-01-8.55142E-03-1.92094E+00-7.67537E-14 1.29480E-14
 -1      1808 2.52853E+01-1.18306E+00 1.01525E-02-1.32655E+00-6.94314E-14 1.14188E-13
 -1      1809 2.44862E+01-2.18502E-01-3.69973E-02-2.24022E+00-1.27391E-13-2.76255E-14
 -1      1810 2.39470E+01 2.82013E-01 1.43633E-02-2.22327E+00-1.35343E-13-8.06664E-14
 -1      1811 2.53552E+01-5.34679E-01 4.44387E-03-2.37385E+00-1.31194E-13 6.02235E-14
 -1      1812 2.35784E+01 7.94711E-01-4.79271E-02-1.88921E+00-2.30187E-13-2.24373E-13
 -1      1813 2.32114E+01 1.25869E+00 1.10386E-02-1.30937E+00-3.23790E-13-3.31353E-13
 -1      1814 2.49037E+01 8.21815E-01-2.38566E-02-2.44097E+00-3.06009E-13-9.90570E-14
 -1      1815 2.30093E+01 1.51109E+00-2.74919E-02-3.92929E-01-3.67886E-13-4.57901E-13
 -1      1816 2.30268E+01 1.52505E+00-2.48376E-02 4.18495E-01-3.44655E-13-5.63270E-13
 -1      1817 2.43674E+01 2.02083E+00-6.18270E-02-1.06069E+00-4.36172E-13-2.94227E-13
 -1      1818 2.32327E+01 1.28660E+00 6.73541E-03 1.40107E+00-2.65600E-13-6.69057E-13
 -1      1819 2.36431E+01 8.38121E-01-4.64542E-02 1.99679E+00-1.44551E-13-7.27647E-13
 -1      1820 2.43688E+01 2.04413E+00-6.82954E-02 1.10199E+00-3.75290E-13-5.35987E-13
 -1      1821 2.40373E+01 3.22630E-01 1.47548E-02 2.36064E+00-1.00163E-13-7.20791E-13
 -1      1822 2.46222E+01-1.89803E-01-3.79769E-02 2.39700E+00-7.28358E-14-7.83864E-13
 -1      1823 2.49523E+01 8.73987E-01-2.68374E-02 2.59474E+00-1.55907E-13-7.50111E-13
 -1      1824 2.47958E+01-5.54356E-01-8.63290E-03 2.08700E+00-1.77571E-14-7.44155E-13
 -1      1825 2.52834E+01-7.91879E-01-1.46442E-02 1.71139E+00 2.55039E-14-7.26160E-13
 -1      1826 2.54704E+01-4.98629E-01 8.24799E-03 2.57149E+00-2.80193E-14-7.00201E-13
 -1      1827 2.51370E+01-8.71958E-01-3.12058E-02 1.11629E+00 2.63106E-14-6.61499E-13
 -1      1828 2.53738E+01-8.38413E-01 3.66925E-05 6.36904E-01 8.34229E-14-6.16471E-13
 -1      1829 2.54480E+01-1.20495E+00 1.06056E-02 1.51147E+00 6.59681E-14-6.26512E-13
 -1      1830 2.50434E+01-7.40833E-01-3.61756E-02 1.02608E-01 5.96745E-14-5.65607E-13
 -1      1831 2.50160E+01-5.89309E-01 3.44137E-03-2.74262E-01 9.65721E-14-5.72506E-13
 -1      1832 2.49639E+01-1.17857E+00-5.10739E-04 2.66504E-01 1.29728E-13-5.24403E-13
 -1      1833 2.46446E+01-4.49628E-01-2.76861E-02-6.12389E-01 8.37455E-14-5.41887E-13
 -1      1834 2.44235E+01-2.99742E-01 2.32353E-03-8.28441E-01 6.78624E-14-4.78107E-13
 -1      1835 2.42871E+01-7.93080E-01-6.77389E-03-6.65142E-01 8.84709E-14-4.11970E-13
 -1      1836 2.40791E+01-1.87604E-01-1.53246E-02-9.80658E-01 4.47958E-14-4.15473E-13
 -1      1837 2.37532E+01-8.42387E-02 1.02521E-03-1.06160E+00 4.83268E-14-4.09036E-13
 -1      1838 2.36008E+01-3.83359E-01-7.57525E-03-1.17767E+00 1.10191E-13-3.57103E-13
 -1      1839 2.34533E+01-1.48677E-02-4.84067E-03-1.08627E+00-4.16292E-14-3.63839E-13
 -1      1840 2.30945E+01 4.15342E-02 6.31315E-04-1.08092E+00-4.23833E-14-3.55493E-13
 -1      1841 2.29758E+01-8.85663E-02-6.23405E-03-1.35554E+00 4.61031E-14-2.05567E-13
 -1      1842 2.28380E+01 7.63243E-02 2.02963E-03-1.03448E+00-7.93219E-14-3.56678E-13
 -1      1843 2.24930E+01 9.97282E-02 8.48029E-04-9.84889E-01-6.04373E-14-3.25764E-13
 -1      1844 2.24272E+01 7.92958E-02-4.79997E-03-1.32308E+00-7.96848E-14-1.89982E-13
 -1      1845 2.22753E+01 1.12512E-01 5.63451E-03-9.07124E-01-5.29199E-15-2.94900E-13
 -1      1846 2.19686E+01 1.16768E-01 1.21035E-03-8.41110E-01 5.18320E-14-2.70318E-13
 -1      1847 2.19534E+01 1.54190E-01-3.83804E-03-1.18232E+00-9.30603E-15-1.11753E-13
 -1      1848 2.17856E+01 1.17567E-01 6.96013E-03-7.55747E-01-1.34693E-14-3.20899E-13
 -1      1849 2.15264E+01 1.12367E-01 1.47675E-03-6.88856E-01-4.95558E-14-3.09664E-13
 -1      1850 2.15498E+01 1.73398E-01-3.25742E-03-1.00054E+00 1.83642E-14-1.24523E-13
 -1      1851 2.13746E+01 1.07576E-01 6.94108E-03-6.08240E-01-7.30475E-14-3.99325E-13
 -1      1852 2.11633E+01 9.86610E-02 1.58077E-03-5.47851E-01-8.71454E-14-3.55673E-13
 -1      1853 2.12112E+01 1.64064E-01-2.86890E-03-8.16193E-01-7.63382E-14-1.14790E-13
 -1      1854 2.10392E+01 9.18705E-02 6.25052E-03-4.77335E-01-7.47740E-14-4.71552E-13
 -1      1855 2.08714E+01 8.22602E-02 1.54619E-03-4.26111E-01-8.50743E-14-4.53072E-13
 -1      1856 2.09320E+01 1.42717E-01-2.54865E-03-6.48285E-01-1.33099E-13-1.90429E-13
 -1      1857 2.07717E+01 7.52871E-02 5.30609E-03-3.67186E-01-7.64827E-14-4.50921E-13
 -1      1858 2.06411E+01 6.63822E-02 1.42120E-03-3.25365E-01 7.08635E-16-4.74163E-13
 -1      1859 2.07055E+01 1.18272E-01-2.24181E-03-5.04253E-01-1.10180E-13-2.10140E-13
 -1      1860 2.05623E+01 6.00367E-02 4.33655E-03-2.77588E-01-3.91566E-14-5.09602E-13
 -1      1861 2.04626E+01 5.23655E-02 1.24965E-03-2.44315E-01-3.82817E-14-6.78512E-13
 -1      1862 2.05250E+01 9.50123E-02-1.93632E-03-3.85287E-01-4.87347E-14-3.02350E-13
 -1      1863 2.04012E+01 4.69325E-02 3.45130E-03-2.06414E-01-8.53321E-15-6.47767E-13
 -1      1864 2.03263E+01 4.05920E-02 1.06306E-03-1.80445E-01 4.67992E-14-6.35078E-13
 -1      1865 2.03834E+01 7.46681E-02-1.63850E-03-2.89564E-01-3.03835E-14-3.80055E-13
 -1      1866 2.02793E+01 3.61025E-02 2.69188E-03-1.50895E-01 7.62522E-14-6.64180E-13
 -1      1867 2.02240E+01 3.09975E-02 8.81196E-04-1.30945E-01 4.98527E-15-6.46268E-13
 -1      1868 2.02741E+01 5.76809E-02-1.35882E-03-2.14050E-01 6.15172E-14-3.29289E-13
 -1      1869 2.01886E+01 2.73723E-02 2.06458E-03-1.08253E-01-4.42964E-14-5.12262E-13
 -1      1870 2.01485E+01 2.33372E-02 7.14969E-04-9.31473E-02-2.01179E-14-4.79137E-13
 -1      1871 2.01911E+01 4.38983E-02-1.10567E-03-1.55448E-01 6.03418E-14-1.63217E-13
 -1      1872 2.01222E+01 2.04590E-02 1.55936E-03-7.59700E-02-4.15060E-15-4.94579E-13
 -1      1873 2.00938E+01 1.73156E-02 5.69383E-04-6.46965E-02 4.88015E-14-4.59285E-13
 -1      1874 2.01291E+01 3.29343E-02-8.83788E-04-1.10638E-01-2.09277E-14-3.07940E-14
 -1      1875 2.00748E+01 1.50617E-02 1.16000E-03-5.18844E-02-6.21129E-15-5.73008E-13
 -1      1876 2.00550E+01 1.26445E-02 4.45770E-04-4.35994E-02 4.12690E-14-5.58466E-13
 -1      1877 2.00837E+01 2.43443E-02-6.94540E-04-7.68703E-02 6.00458E-16-1.15538E-13
 -1      1878 2.00415E+01 1.09017E-02 8.49060E-04-3.41945E-02 1.42577E-14-6.25195E-13
 -1      1879 2.00283E+01 9.06618E-03 3.43340E-04-2.82107E-02-5.69531E-14-5.83037E-13
 -1      1880 2.00511E+01 1.77021E-02-5.36835E-04-5.18065E-02-8.32394E-15-3.01812E-13
 -1      1881 2.00190E+01 7.73554E-03 6.10262E-04-2.14303E-02-1.56329E-13-5.65992E-13
 -1      1882 2.00104E+01 6.36029E-03 2.60178E-04-1.71957E-02-8.20200E-14-5.04789E-13
 -1      1883 2.00283E+01 1.26307E-02-4.08061E-04-3.35108E-02-9.17433E-14-2.49771E-13
 -1      1884 2.00042E+01 5.35788E-03 4.29312E-04-1.24102E-02 2.62462E-14-4.65412E-13
 -1      1885 1.99991E+01 4.34269E-03 1.93877E-04-9.48707E-03 7.09869E-14-4.55178E-13
 -1      1886 2.00128E+01 8.80911E-03-3.04827E-04-2.04083E-02-7.15842E-15-1.71424E-13
 -1      1887 1.99951E+01 3.59871E-03 2.94113E-04-6.19626E-03 1.04883E-13-4.75819E-13
 -1      1888 1.99923E+01 2.86206E-03 1.41914E-04-4.24171E-03 1.62890E-13-3.90688E-13
 -1      1889 2.00026E+01 5.97041E-03-2.23477E-04-1.12358E-02 1.40697E-13-1.77966E-13
 -1      1890 1.99900E+01 2.31921E-03 1.94648E-04-2.05305E-03 1.50682E-13-6.45106E-13
 -1      1891 1.99888E+01 1.79549E-03 1.01861E-04-8.01337E-04 1.06778E-13-5.23541E-13
 -1      1892 1.99964E+01 3.89610E-03-1.60430E-04-4.99322E-03 8.21641E-14-2.35994E-13
 -1      1893 1.99876E+01 1.40723E-03 1.22751E-04 5.89327E-04 6.81280E-14-5.99308E-13
 -1      1894 1.99874E+01 1.04412E-03 7.14986E-05 1.34150E-03-2.77692E-14-5.22257E-13
 -1      1895 1.99929E+01 2.40925E-03-1.12375E-04-8.98611E-04 1.34883E-13-6.42844E-13
 -1      1896 1.99870E+01 7.73002E-04 7.18481E-05 2.16671E-03-6.94570E-14-4.14172E-13
 -1      1897 1.99875E+01 5.29126E-04 4.88627E-05 2.57268E-03-2.99651E-14-3.50013E-13
 -1      1898 1.99913E+01 1.36796E-03-7.63692E-05 1.65142E-03 2.83738E-14-6.08684E-13
 -1      1899 1.99875E+01 3.45296E-04 3.67004E-05 3.00750E-03 1.15914E-13-3.22716E-13
 -1      1900 1.99884E+01 1.88188E-04 3.22480E-05 3.18098E-03 1.94276E-13-2.12656E-13
 -1      1901 1.99909E+01 6.59397E-04-4.98737E-05 3.11591E-03 6.50815E-14-4.50536E-13
 -1      1902 1.99887E+01 6.79722E-05 1.31773E-05 3.35471E-03 6.64097E-14-2.24483E-13
 -1      1903 1.99898E+01-2.77335E-05 2.01878E-05 3.37812E-03 3.44267E-14-2.46901E-13
 -1      1904 1.99914E+01 1.94515E-04-3.07478E-05 3.83821E-03 1.57882E-13-3.55347E-13
 -1      1905 1.99903E+01-1.03046E-04-1.94318E-06 3.38389E-03-1.41717E-13-1.50617E-13
 -1      1906 1.99914E+01-1.57182E-04 1.14240E-05 3.31506E-03-1.85997E-13-2.77449E-13
 -1      1907 1.99923E+01-9.66740E-05-1.72245E-05 4.06972E-03-4.25485E-14-3.14956E-13
 -1      1908 1.99920E+01-2.02457E-04-1.11340E-05 3.21742E-03-1.44720E-13-1.10938E-13
 -1      1909 1.99930E+01-2.30711E-04 4.88179E-06 3.09475E-03-1.47947E-13-7.82402E-14
 -1      1910 1.99934E+01-2.69229E-04-7.86549E-06 3.98907E-03-1.04979E-13-3.98936E-16
 -1      1911 1.99936E+01-2.57978E-04-1.62498E-05 2.93560E-03-4.69434E-14-1.63140E-13
 -1      1912 1.99946E+01-2.73149E-04-3.45591E-07 2.78182E-03 6.97878E-14-1.56785E-13
 -1      1913 1.99946E+01-3.66930E-04-1.51897E-06 3.71732E-03-7.93331E-14 1.40000E-13
 -1      1914 1.99952E+01-2.92559E-04-1.85962E-05 2.58489E-03 3.48595E-14-2.05797E-13
 -1      1915 1.99960E+01-3.05537E-04-4.91195E-06 2.40970E-03 9.62054E-14-1.32730E-13
 -1      1916 1.99958E+01-4.25664E-04 2.65950E-06 3.32977E-03 3.38917E-14 8.08074E-14
 -1      1917 1.99965E+01-3.26088E-04-1.89756E-05 2.18415E-03 4.94723E-14-1.99687E-13
 -1      1918 1.99973E+01-3.45962E-04-9.08681E-06 1.98633E-03 1.34327E-14-2.56306E-13
 -1      1919 1.99968E+01-4.75615E-04 5.26727E-06 2.86519E-03-5.70056E-14 1.33136E-13
 -1      1920 1.99977E+01-3.74888E-04-1.76083E-05 1.73021E-03 2.62176E-14-2.41568E-13
 -1      1921 1.99983E+01-4.05864E-04-1.19675E-05 1.50144E-03-4.52707E-14-1.40310E-13
 -1      1922 1.99978E+01-5.39808E-04 7.46506E-06 2.33565E-03 3.21106E-15-3.51069E-14
 -1      1923 1.99987E+01-4.40452E-04-1.45348E-05 1.20935E-03-1.47254E-13-8.40561E-14
 -1      1924 1.99991E+01-4.70689E-04-9.63187E-06 9.52492E-04-1.43968E-13-4.69592E-14
 -1      1925 1.99986E+01-6.28501E-04 9.03288E-06 1.73521E-03-9.31740E-14-4.61409E-14
 -1      1926 1.99994E+01-4.50068E-04-9.49731E-06 5.57788E-04-5.59450E-14 3.49387E-14
 -1      1927 2.20628E+01-4.19263E-02 3.72908E-04 4.95149E-02 1.31355E-13 7.67829E-13
 -1      1928 2.21366E+01 2.84072E-02 1.36600E-02 5.40128E-02 1.40070E-13 8.26884E-13
 -1      1929 2.19380E+01-1.46358E-01-6.08144E-03 1.64471E-01 8.68906E-14 7.31299E-13
 -1      1930 2.20267E+01-9.60726E-02 8.49071E-03 9.19023E-02 1.01245E-13 7.61108E-13
 -1      1931 2.20899E+01-1.08374E-01-2.23243E-03 1.20319E-01 1.43367E-13 5.00795E-13
 -1      1932 2.17474E+01-2.06110E-01-8.51674E-03 4.07033E-01 1.17584E-13 6.73037E-13
 -1      1933 2.19013E+01-1.80415E-01 2.39295E-03 2.88073E-01 1.11525E-13 7.24369E-13
 -1      1934 2.20239E+01-2.50788E-01 1.62335E-03 2.92972E-01 1.29114E-13 4.96750E-13
 -1      1935 2.14241E+01-1.97453E-01-6.00055E-03 6.98509E-01 8.19379E-14 6.32842E-13
 -1      1936 2.16673E+01-2.10950E-01-1.35095E-03 5.71915E-01 8.69270E-14 6.65466E-13
 -1      1937 2.19139E+01-3.14773E-01 5.60520E-03 6.10540E-01 1.25506E-13 4.78506E-13
 -1      1938 2.09581E+01-9.68654E-02 7.76048E-04 9.22284E-01 7.28263E-14 5.99557E-13
 -1      1939 2.12738E+01-1.59523E-01-3.21856E-03 8.41722E-01 6.82223E-14 6.35115E-13
 -1      1940 2.16883E+01-2.61910E-01 7.95553E-03 9.59431E-01 8.75706E-14 4.67050E-13
 -1      1941 2.04156E+01 8.68098E-02 8.96047E-03 9.45726E-01 5.98271E-14 5.76078E-13
 -1      1942 2.07438E+01-1.41905E-02-2.88690E-03 9.65913E-01 5.41163E-14 5.97580E-13
 -1      1943 2.13248E+01-7.07094E-02 6.02870E-03 1.18219E+00 7.20502E-14 4.57840E-13
 -1      1944 1.99376E+01 2.90525E-01 1.42106E-02 6.82986E-01 1.48257E-13 5.34956E-13
 -1      1945 2.01902E+01 1.90536E-01 6.85096E-04 8.29020E-01 1.12278E-13 5.62131E-13
 -1      1946 2.08805E+01 2.21294E-01-1.08255E-03 1.11748E+00 1.07265E-13 4.41108E-13
 -1      1947 1.96943E+01 4.15574E-01 1.33967E-02 1.67634E-01 1.65090E-13 4.62454E-13
 -1      1948 1.97886E+01 3.68000E-01 6.97287E-03 4.07741E-01 1.77346E-13 5.12883E-13
 -1      1949 2.04967E+01 5.01734E-01-1.04981E-02 6.89694E-01 1.87812E-13 3.72663E-13
 -1      1950 1.97978E+01 3.90819E-01 7.83730E-03-4.32911E-01 1.50494E-13 2.62007E-13
 -1      1951 1.96953E+01 4.23570E-01 1.31069E-02-1.81801E-01 1.58106E-13 3.63269E-13
 -1      1952 2.03393E+01 6.32028E-01-1.59093E-02-9.29750E-03 2.18843E-13 2.33560E-13
 -1      1953 2.02283E+01 2.30212E-01 1.71632E-03-8.99392E-01 5.48780E-14 1.61826E-13
 -1      1954 1.99552E+01 3.24003E-01 1.49420E-02-7.26924E-01 9.25917E-14 2.17160E-13
 -1      1955 2.04934E+01 5.39279E-01-1.28306E-02-7.34291E-01 1.69019E-13 6.57653E-14
 -1      1956 2.08390E+01 2.11866E-02-2.04895E-03-1.08914E+00 5.10204E-15 2.14628E-13
 -1      1957 2.04725E+01 1.26873E-01 1.02838E-02-1.04040E+00 2.17027E-14 1.78126E-13
 -1      1958 2.08966E+01 2.75839E-01-3.12354E-03-1.22147E+00 2.58240E-14 1.60939E-15
 -1      1959 2.14431E+01-1.46543E-01-3.41758E-03-9.95467E-01 3.10750E-14 2.30785E-13
 -1      1960 2.10776E+01-7.13427E-02 1.47938E-03-1.05905E+00 5.10132E-14 2.83089E-13
 -1      1961 2.13839E+01-2.99673E-02 5.26852E-03-1.34238E+00-1.99354E-14 7.57055E-14
 -1      1962 2.18989E+01-2.27703E-01-3.30903E-03-7.15704E-01 6.37138E-14 1.19239E-13
 -1      1963 2.16093E+01-1.98803E-01-7.05253E-03-8.44072E-01 6.18307E-14 2.18508E-13
 -1      1964 2.17941E+01-2.57243E-01 8.83152E-03-1.13745E+00 7.10148E-14 2.92761E-14
 -1      1965 2.21475E+01-2.29178E-01-2.73298E-03-3.75171E-01 6.75788E-14 1.29268E-13
 -1      1966 2.19712E+01-2.37938E-01-1.19557E-02-5.17309E-01 9.49813E-14 1.70740E-13
 -1      1967 2.20387E+01-3.54638E-01 8.37096E-03-7.49758E-01 6.45677E-14 5.52679E-14
 -1      1968 2.21982E+01-1.83297E-01-2.20184E-03-6.82971E-02 1.04515E-13 1.13004E-13
 -1      1969 2.21371E+01-2.11825E-01-1.27825E-02-1.89632E-01 8.63207E-14 1.25720E-13
 -1      1970 2.21071E+01-3.40615E-01 6.08429E-03-3.28401E-01 9.53313E-14 1.53191E-14
 -1      1971 2.20957E+01-1.21803E-01-1.70953E-03 1.58675E-01-5.24750E-14 1.62467E-13
 -1      1972 2.21289E+01-1.54754E-01-1.07917E-02 7.29000E-02 2.83410E-14 1.79470E-13
 -1      1973 2.20330E+01-2.64173E-01 3.53594E-03 2.80351E-02 3.99706E-14 1.01430E-13
 -1      1974 2.18938E+01-6.49379E-02-1.16085E-03 2.97851E-01-1.97355E-14 2.19491E-13
 -1      1975 2.19914E+01-9.34322E-02-7.53481E-03 2.48051E-01-4.42394E-14 2.32890E-13
 -1      1976 2.18632E+01-1.70194E-01 1.53495E-03 2.78705E-01-5.38213E-14 1.51417E-13
 -1      1977 2.16404E+01-2.14522E-02-5.98934E-04 3.62523E-01-1.85892E-13 2.43160E-13
 -1      1978 2.17736E+01-4.22163E-02-4.21763E-03 3.41870E-01-9.02999E-14 2.20498E-13
 -1      1979 2.16404E+01-8.62794E-02 1.83880E-04 4.23454E-01-3.85766E-14 2.39180E-13
 -1      1980 2.13720E+01 7.40951E-03-9.24748E-05 3.73260E-01 1.02132E-13 1.62099E-13
 -1      1981 2.15178E+01-5.70780E-03-1.49820E-03 3.72935E-01-3.81307E-14 1.31414E-13
 -1      1982 2.13975E+01-2.35599E-02-6.64827E-04 4.82372E-01-6.13702E-15 1.00924E-13
 -1      1983 2.11134E+01 2.39498E-02 3.08110E-04 3.49903E-01 1.12786E-13 1.59871E-13
 -1      1984 2.12557E+01 1.69606E-02 4.18982E-04 3.61918E-01 1.17929E-13 1.79540E-13
 -1      1985 2.11575E+01 1.71733E-02-1.15796E-03 4.81070E-01 8.17025E-14 9.46562E-14
 -1      1986 2.08791E+01 3.14873E-02 5.82749E-04 3.08247E-01-9.57459E-15 3.91744E-14
 -1      1987 2.10085E+01 2.88143E-02 1.58664E-03 3.26482E-01 8.76911E-14 1.08838E-13
 -1      1988 2.09348E+01 3.98283E-02-1.40405E-03 4.42849E-01 9.23067E-14 1.76085E-13
 -1      1989 2.06765E+01 3.31103E-02 7.37813E-04 2.59434E-01 1.14928E-13 2.22303E-14
 -1      1990 2.07882E+01 3.31714E-02 2.16429E-03 2.79706E-01 2.73098E-14-8.10002E-15
 -1      1991 2.07373E+01 4.94985E-02-1.48068E-03 3.85743E-01 5.61759E-14 1.38889E-13
 -1      1992 2.05074E+01 3.12351E-02 7.95272E-04 2.10569E-01 1.35237E-14-3.74122E-14
 -1      1993 2.06001E+01 3.28364E-02 2.32971E-03 2.30296E-01 1.04091E-13-1.30304E-14
 -1      1994 2.05684E+01 5.07778E-02-1.44387E-03 3.22248E-01 1.03482E-13 9.40326E-14
 -1      1995 2.03706E+01 2.75673E-02 7.82034E-04 1.65701E-01 4.09367E-14-7.02193E-14
 -1      1996 2.04449E+01 2.98889E-02 2.23675E-03 1.83478E-01-1.94108E-14-3.65537E-14
 -1      1997 2.04281E+01 4.71993E-02-1.33539E-03 2.60213E-01 8.66578E-14-2.22550E-14
 -1      1998 2.02627E+01 2.32197E-02 7.23348E-04 1.26773E-01 4.37297E-14-2.40704E-14
 -1      1999 2.03206E+01 2.57413E-02 2.00200E-03 1.41980E-01 9.47994E-14 4.38340E-14
 -1      2000 2.03147E+01 4.12236E-02-1.18671E-03 2.04015E-01 7.21244E-15-9.37579E-15
 -1      2001 2.01797E+01 1.88651E-02 6.39734E-04 9.43697E-02 4.02171E-14 7.26909E-14
 -1      2002 2.02237E+01 2.12829E-02 1.70595E-03 1.06881E-01 2.15458E-14 3.12851E-14
 -1      2003 2.02252E+01 3.44355E-02-1.02104E-03 1.55654E-01 1.89412E-14 8.74795E-14
 -1      2004 2.01176E+01 1.48723E-02 5.46292E-04 6.82762E-02-1.76711E-13 2.28814E-13
 -1      2005 2.01500E+01 1.70292E-02 1.39978E-03 7.82488E-02-4.48103E-14 1.81315E-13
 -1      2006 2.01562E+01 2.77773E-02-8.54686E-04 1.15614E-01-8.37724E-14 1.81158E-13
 -1      2007 2.00721E+01 1.14120E-02 4.53208E-04 4.78527E-02-6.12915E-14 3.00059E-13
 -1      2008 2.00954E+01 1.32444E-02 1.11311E-03 5.55841E-02-9.95008E-14 2.07111E-13
 -1      2009 2.01041E+01 2.17525E-02-6.98268E-04 8.34877E-02-9.78443E-14 2.12904E-13
 -1      2010 2.00399E+01 8.53301E-03 3.66721E-04 3.22789E-02 3.75075E-14 1.90938E-13
 -1      2011 2.00560E+01 1.00334E-02 8.60856E-04 3.81190E-02 1.96026E-14 2.24808E-13
 -1      2012 2.00657E+01 1.65816E-02-5.57939E-04 5.84084E-02-1.93782E-14 1.35659E-13
 -1      2013 2.00177E+01 6.21359E-03 2.90151E-04 2.07023E-02-1.38636E-13 2.74668E-13
 -1      2014 2.00285E+01 7.40558E-03 6.48441E-04 2.50009E-02-4.19169E-14 2.21593E-13
 -1      2015 2.00382E+01 1.23130E-02-4.36535E-04 3.93219E-02-5.38919E-14 2.55565E-13
 -1      2016 2.00032E+01 4.39587E-03 2.24799E-04 1.23224E-02 1.61194E-14 2.99411E-13
 -1      2017 2.00100E+01 5.31788E-03 4.75602E-04 1.54005E-02-3.35958E-14 2.46952E-13
 -1      2018 2.00190E+01 8.89788E-03-3.34584E-04 2.51565E-02-4.26356E-14 2.69004E-13
 -1      2019 1.99942E+01 3.00692E-03 1.70652E-04 6.43250E-03 2.23063E-13 2.38568E-13
 -1      2020 1.99981E+01 3.70230E-03 3.38960E-04 8.56876E-03 1.43901E-13 2.45450E-13
 -1      2021 2.00062E+01 6.23882E-03-2.51133E-04 1.49164E-02 9.22048E-14 4.50558E-13
 -1      2022 1.99891E+01 1.97158E-03 1.26919E-04 2.43465E-03-9.14035E-14 2.91872E-13
 -1      2023 1.99910E+01 2.48279E-03 2.33697E-04 3.86186E-03 1.53948E-13 2.50106E-13
 -1      2024 1.99981E+01 4.22017E-03-1.84375E-04 7.72792E-03 1.52406E-13 3.95718E-13
 -1      2025 1.99868E+01 1.21944E-03 9.23950E-05-1.60427E-04-5.54010E-14 1.32957E-13
 -1      2026 1.99874E+01 1.58508E-03 1.54591E-04 7.46245E-04-9.87085E-14 2.14206E-13
 -1      2027 1.99933E+01 2.72568E-03-1.32101E-04 2.85476E-03-3.24671E-14 2.56841E-13
 -1      2028 1.99863E+01 6.88361E-04 6.57126E-05-1.74209E-03 1.14429E-14 3.89329E-14
 -1      2029 1.99860E+01 9.41788E-04 9.66180E-05-1.20737E-03-5.23951E-14 1.19267E-13
 -1      2030 1.99909E+01 1.64821E-03-9.20047E-05-3.03863E-04-1.50474E-14 1.66060E-13
 -1      2031 1.99869E+01 3.25561E-04 4.54901E-05-2.61244E-03-4.22635E-14-1.33780E-13
 -1      2032 1.99862E+01 4.94652E-04 5.52581E-05-2.33545E-03 5.89084E-14-7.13036E-14
 -1      2033 1.99900E+01 8.94083E-04-6.18758E-05-2.22507E-03 1.21075E-13 1.00800E-13
 -1      2034 1.99883E+01 8.74515E-05 3.04175E-05-3.00000E-03 2.16103E-14-1.81423E-13
 -1      2035 1.99872E+01 1.94934E-04 2.66288E-05-2.89519E-03-1.25225E-13-3.23978E-13
 -1      2036 1.99902E+01 3.84386E-04-3.97083E-05-3.27833E-03 4.16672E-14-1.91285E-13
 -1      2037 1.99899E+01-6.13237E-05 1.92926E-05-3.07271E-03 1.71713E-13-1.65311E-14
 -1      2038 1.99888E+01 2.79517E-06 7.50269E-06-3.07796E-03 1.28396E-13-5.91894E-14
 -1      2039 1.99910E+01 5.42875E-05-2.37515E-05-3.74243E-03 1.13611E-14-2.09525E-13
 -1      2040 1.99917E+01-1.49237E-04 1.10318E-05-2.94939E-03-1.92714E-13-5.78662E-14
 -1      2041 1.99905E+01-1.13896E-04-4.73145E-06-3.02155E-03-1.67659E-14-1.26548E-13
 -1      2042 1.99922E+01-1.48632E-04-1.25239E-05-3.82157E-03-1.64839E-15-8.20257E-14
 -1      2043 1.99934E+01-1.99394E-04 4.67644E-06-2.70919E-03 6.36855E-14-1.52356E-13
 -1      2044 1.99923E+01-1.81025E-04-1.21290E-05-2.82048E-03-5.06674E-14-3.65761E-14
 -1      2045 1.99935E+01-2.66579E-04-4.80514E-06-3.65938E-03-1.12026E-13-9.57850E-14
 -1      2046 1.99951E+01-2.31126E-04-5.59129E-07-2.39888E-03 5.07124E-14-9.59882E-14
 -1      2047 1.99941E+01-2.19812E-04-1.62364E-05-2.53427E-03-7.15103E-15-1.48903E-13
 -1      2048 1.99948E+01-3.33934E-04 3.72692E-07-3.35056E-03 2.10367E-14-1.62059E-13
 -1      2049 1.99965E+01-2.61047E-04-4.99299E-06-2.03822E-03-5.89056E-14 1.83772E-14
 -1      2050 1.99957E+01-2.48352E-04-1.80339E-05-2.19367E-03 6.99248E-14-3.26891E-14
 -1      2051 1.99961E+01-3.79686E-04 3.74180E-06-2.95021E-03-8.78733E-16 8.62281E-14
 -1      2052 1.99977E+01-3.02820E-04-8.60294E-06-1.62531E-03-8.33505E-15-6.03180E-14
 -1      2053 1.99970E+01-2.82370E-04-1.78812E-05-1.80615E-03-1.87222E-14-3.87645E-14
 -1      2054 1.99972E+01-4.27786E-04 5.98197E-06-2.48168E-03-7.46176E-14 4.03876E-14
 -1      2055 1.99987E+01-3.65652E-04-9.92769E-06-1.14410E-03 1.28294E-14 3.83714E-14
 -1      2056 1.99982E+01-3.33045E-04-1.44608E-05-1.36193E-03-1.09497E-14-9.14647E-14
 -1      2057 1.99981E+01-4.94618E-04 9.50392E-06-1.95059E-03 4.40514E-14-4.71034E-14
 -1      2058 1.99993E+01-3.82138E-04-1.04393E-05-6.39457E-04-1.01313E-13-1.50843E-13
 -1      2059 1.99990E+01-3.63537E-04-1.01106E-05-8.73127E-04 3.25924E-14-2.11561E-14
 -1      2060 1.99988E+01-5.52224E-04 2.68824E-06-1.37482E-03-1.32110E-14-2.08942E-13
 -1      2061 1.99994E+01-5.60544E-04-4.41112E-06-7.90962E-04-1.43545E-13-3.63490E-13
 -1      2062 1.99998E+01-2.84334E-03 5.16823E-06-1.54945E-03-2.19487E-13 2.33426E-13
 -1      2063 1.99997E+01-2.34884E-03-6.55322E-06-1.53668E-03-1.53881E-13 2.11818E-13
 -1      2064 1.99996E+01-1.93681E-03 1.91562E-06-1.46166E-03 6.74834E-14 3.39222E-13
 -1      2065 1.99995E+01-1.47116E-03-1.05565E-05-1.34897E-03 7.31128E-14 3.36435E-13
 -1      2066 1.99996E+01-2.03551E-03 8.08224E-07-1.89557E-03-4.41036E-14 1.40853E-13
 -1      2067 1.99994E+01-9.33820E-04-2.95689E-06-1.01710E-03-6.11670E-14-2.08487E-13
 -1      2068 2.00000E+01-3.68972E-03 9.45899E-06-1.41791E-03-2.37438E-13-6.14608E-13
 -1      2069 1.99999E+01-3.22857E-03 1.05393E-06-1.49805E-03-2.91941E-13 6.66200E-15
 -1      2070 1.99999E+01-2.83154E-03-4.39458E-06-1.91327E-03-1.82676E-13-1.22973E-14
 -1      2071 2.00001E+01-4.40612E-03 1.32264E-05-1.10496E-03 1.38482E-13 3.40275E-14
 -1      2072 2.00000E+01-4.02425E-03 7.38714E-06-1.26037E-03-3.88944E-14-2.97971E-13
 -1      2073 2.00001E+01-3.55211E-03-8.20493E-06-1.67701E-03 5.59564E-15-2.36108E-13
 -1      2074 2.00002E+01-4.89709E-03 1.57192E-05-6.63037E-04 2.00247E-13 1.15717E-13
 -1      2075 2.00001E+01-4.64894E-03 1.23919E-05-8.68816E-04 1.76071E-13 7.93493E-14
 -1      2076 2.00003E+01-4.13123E-03-1.13951E-05-1.23482E-03 1.58826E-13 2.48744E-14
 -1      2077 2.00002E+01-5.11011E-03 1.65648E-05-1.47883E-04-7.21241E-14-2.51079E-14
 -1      2078 2.00002E+01-5.02461E-03 1.54738E-05-3.78977E-04 1.02720E-14-8.74913E-14
 -1      2079 2.00004E+01-4.50344E-03-1.33181E-05-6.51787E-04 1.65722E-13-1.19077E-13
 -1      2080 2.00002E+01-5.02297E-03 1.55455E-05 3.83403E-04-3.42447E-13-1.42500E-13
 -1      2081 2.00002E+01-5.11000E-03 1.65199E-05 1.52273E-04-1.68581E-13 3.28684E-14
 -1      2082 2.00004E+01-4.63155E-03-1.39815E-05 2.57869E-06-3.50977E-13-9.15428E-14
 -1      2083 2.00001E+01-4.64530E-03 1.25866E-05 8.73364E-04-4.17547E-13-5.96394E-13
 -1      2084 2.00002E+01-4.89519E-03 1.56012E-05 6.67634E-04-3.82341E-13-4.13279E-13
 -1      2085 2.00004E+01-4.50286E-03-1.32953E-05 6.57140E-04-4.28069E-13-4.23085E-13
 -1      2086 2.00000E+01-4.03109E-03 7.47297E-06 1.25942E-03-2.41334E-13 7.88001E-14
 -1      2087 2.00001E+01-4.40708E-03 1.31602E-05 1.10623E-03-3.88053E-13-1.74615E-13
 -1      2088 2.00003E+01-4.13400E-03-1.15086E-05 1.23645E-03-2.28954E-13-3.78815E-13
 -1      2089 1.99999E+01-3.22789E-03 9.87880E-07 1.50001E-03 8.75112E-15 9.31178E-13
 -1      2090 2.00000E+01-3.69718E-03 9.53565E-06 1.41840E-03-2.19385E-13 5.27705E-13
 -1      2091 2.00001E+01-3.56006E-03-8.30345E-06 1.67662E-03-9.67829E-14 3.09651E-13
 -1      2092 1.99997E+01-2.33839E-03-6.15076E-06 1.53874E-03-6.97756E-15 5.17062E-13
 -1      2093 1.99998E+01-2.83575E-03 5.15673E-06 1.55268E-03 2.86306E-14 4.47016E-13
 -1      2094 1.99999E+01-2.83321E-03-4.14544E-06 1.91526E-03-1.68396E-13 7.85424E-13
 -1      2095 1.99995E+01-1.47225E-03-1.34340E-05 1.34472E-03-1.27805E-13 2.00828E-13
 -1      2096 1.99996E+01-1.93018E-03 5.85734E-07 1.46107E-03-1.52646E-13 2.92737E-13
 -1      2097 1.99996E+01-2.03384E-03-1.87004E-06 1.89346E-03-1.88880E-13 2.93803E-13
 -1      2098 2.22006E+01 7.55178E-02 7.25459E-03 9.08066E-02 1.76046E-13 8.98984E-13
 -1      2099 2.23488E+01 1.66855E-01 1.42879E-02 2.06618E-01 2.01702E-13 9.91554E-13
 -1      2100 2.23726E+01 2.94880E-01 4.22527E-04 3.53660E-01 2.50931E-13 7.44958E-13
 -1      2101 2.21844E+01 8.41805E-02-1.19148E-03 1.45457E-01 2.10300E-13 5.84739E-13
 -1      2102 1.01218E+01-5.18526E+00-1.97051E-01 6.48545E+00 5.58997E-13 5.89348E-13
 -1      2103 6.75425E+00-6.56909E+00-3.70761E-01 5.44527E+00 4.25382E-13 6.29830E-13
 -1      2104 2.81422E+01-1.17856E-01 2.23982E-01 5.85606E+00 7.08489E-13 2.37144E-13
 -1      2105 2.37197E+01-2.35941E+00-5.45423E-02 5.71622E+00 5.98299E-13 2.48745E-13
 -1      2106 7.69374E-02-7.69683E+00-4.57765E-01 1.07410E+00 3.16247E-13 6.31772E-13
 -1      2107 3.77059E-03-7.79758E+00-4.71198E-01-4.18955E-01 1.15699E-13 6.95943E-13
 -1      2108 1.90123E+01-3.75602E+00-1.09746E-01 6.87984E+00 4.42368E-13 3.99625E-13
 -1      2109 1.39191E+01-5.04175E+00-3.15186E-01 6.31689E+00 5.12812E-13 5.88585E-13
 -1      2110 1.45734E+01-5.44329E+00-2.95671E-02 7.06309E+00 1.43552E-13 4.06234E-13
 -1      2111 1.91058E+01 4.29844E+00-3.20793E-02-5.87135E-01-1.37428E-13-6.80817E-13
 -1      2112 1.97568E+01 4.22487E+00-1.39246E-02-7.85750E-01-1.84505E-13-6.39776E-13
 -1      2113 2.03236E+01 3.52614E+00-5.74426E-03-6.74964E-01-2.23762E-13-5.72662E-13
 -1      2114 1.89587E+01 4.02378E+00-6.73049E-03-4.13196E-01-1.19008E-13-6.59792E-13
 -1      2115 3.49226E+01 3.08745E+00 2.98713E-01 4.01315E+00 8.48654E-13 7.99361E-15
 -1      2116 3.05753E+01 1.33099E+00-2.26068E-02 4.32895E+00 7.97251E-13 1.39999E-13
 -1      2117 3.90877E+01 5.81320E+00 3.14017E-01 1.78138E+00 9.11937E-13-2.83218E-13
 -1      2118 3.62343E+01 4.76494E+00 1.20865E-01 2.79391E+00 9.23039E-13-6.06182E-14
 -1      2119 4.01703E+01 7.24873E+00 2.46067E-01-6.17033E-02 8.46656E-13-5.69756E-13
 -1      2120 3.97989E+01 6.97231E+00 2.80763E-01 1.21876E+00 8.94007E-13-2.82580E-13
 -1      2121 3.78455E+01 6.66545E+00 1.11263E-01-1.26941E+00 8.85236E-13-6.40599E-13
 -1      2122 4.00492E+01 7.21714E+00 3.39880E-01-4.14809E-01 8.21232E-13-5.71002E-13
 -1      2123 3.41563E+01 3.37834E+00 4.49928E-02-2.92838E+00 8.06438E-13-7.27807E-13
 -1      2124 3.67564E+01 4.78107E+00 1.61382E-01-1.80686E+00 8.22231E-13-5.86142E-13
 -1      2125 2.87632E+01 5.65271E-01-3.88427E-02-4.91371E+00 7.44987E-13-9.35252E-13
 -1      2126 3.30804E+01 2.00530E+00 1.93056E-01-4.36808E+00 7.46569E-13-8.55038E-13
 -1      2127 3.27215E+01 2.01267E+00 2.09445E-01-1.11637E+00 5.44023E-13-2.38642E-13
 -1      2128 2.07223E+01-3.05138E+00-1.83119E-01-6.11581E+00 5.64548E-13-9.18265E-13
 -1      2129 2.54978E+01-9.79222E-01 1.30069E-01-6.53954E+00 7.30138E-13-1.00542E-12
 -1      2130 1.15600E+01-5.46730E+00-3.46702E-01-6.22706E+00 3.94129E-13-9.86461E-13
 -1      2131 1.62008E+01-3.75016E+00-4.98197E-02-7.20272E+00 5.01599E-13-1.00747E-12
 -1      2132 5.11395E+00-6.40724E+00-3.41017E-01-5.01711E+00 1.13631E-13-9.64173E-13
 -1      2133 8.20378E+00-5.32309E+00-1.91338E-01-6.12436E+00 4.13003E-13-1.02963E-12
 -1      2134 1.23556E+01-5.29105E+00-7.91690E-02-7.06471E+00-1.79301E-14-8.90663E-13
 -1      2135 8.67016E-01-6.65230E+00-3.66189E-01-1.75026E+00-2.04725E-13-1.00819E-12
 -1      2136 2.30773E+00-5.62263E+00-2.10867E-01-3.51741E+00 7.70495E-14-1.04650E-12
 -1      2137 9.26900E-01-6.28753E+00-3.05222E-01 1.57549E+00-4.65100E-13-9.88765E-13
 -1      2138 3.93429E-01-6.72593E+00-3.51913E-01-7.61764E-02-1.84085E-13-9.83547E-13
 -1      2139 2.12731E+00-3.74933E+00-1.17413E-01-1.18742E+00-1.17545E-13-1.14353E-12
 -1      2140 5.35872E+00-6.14817E+00-2.78050E-01 4.80593E+00-7.47957E-13-1.10364E-12
 -1      2141 2.87341E+00-6.94336E+00-4.05777E-01 3.50824E+00-4.83447E-13-9.82603E-13
 -1      2142 1.27143E+01-4.94070E+00-1.45110E-01 6.63054E+00-8.92175E-13-1.04578E-12
 -1      2143 8.41756E+00-6.54320E+00-4.32725E-01 5.35528E+00-7.93587E-13-1.06906E-12
 -1      2144 2.25351E+01-2.92513E+00 4.43187E-02 6.53628E+00-1.05810E-12-9.12326E-13
 -1      2145 1.76109E+01-4.80785E+00-2.57726E-01 6.03529E+00-9.20319E-13-9.02056E-13
 -1      2146 3.13965E+01 4.58681E-01 2.37063E-01 5.24618E+00-1.19318E-12-7.90812E-13
 -1      2147 2.60905E+01-1.59942E+00-1.47189E-01 5.15029E+00-1.16790E-12-8.82294E-13
 -1      2148 3.80952E+01 3.77125E+00 3.48380E-01 2.85519E+00-1.14696E-12-6.30829E-13
 -1      2149 3.38612E+01 2.19072E+00 6.06126E-02 3.53525E+00-1.20907E-12-7.77600E-13
 -1      2150 4.11682E+01 6.46246E+00 3.85842E-01 8.55904E-01-1.00309E-12-4.87416E-13
 -1      2151 3.94131E+01 5.58855E+00 2.93448E-01 1.95591E+00-1.15397E-12-6.63636E-13
 -1      2152 4.17331E+01 7.14289E+00 3.87535E-01-5.05876E-01-7.75602E-13-2.80498E-13
 -1      2153 4.18974E+01 7.21978E+00 4.15901E-01 5.68774E-01-8.96450E-13-4.81781E-13
 -1      2154 3.85532E+01 5.14367E+00 2.18338E-01-1.65363E+00-5.11258E-13-6.73905E-14
 -1      2155 4.05307E+01 6.23584E+00 3.50204E-01-6.37680E-01-5.96301E-13-2.37532E-13
 -1      2156 3.33147E+01 1.68469E+00 5.69739E-02-2.63313E+00-3.99507E-13-1.00586E-13
 -1      2157 3.76799E+01 3.65930E+00 4.14408E-01-2.51047E+00-4.33625E-13-7.32747E-14
 -1      2158 3.52309E+01 4.14907E+00 2.13798E-01 6.20945E-01-3.82833E-13-3.67817E-13
 -1      2159 2.47180E+01-2.24667E+00-1.50153E-01-5.24147E+00-4.61742E-13 2.18825E-13
 -1      2160 2.99537E+01-7.43296E-01 5.76913E-02-4.53518E+00-3.96849E-13-2.59792E-14
 -1      2161 1.62100E+01-5.32258E+00-2.69988E-01-5.88954E+00-2.38642E-13 3.39145E-13
 -1      2162 2.12506E+01-3.32432E+00 1.07108E-02-6.52823E+00-3.55826E-13 3.11917E-13
 -1      2163 6.78403E+00-7.01571E+00-4.27151E-01-4.91999E+00-5.60663E-15 6.59126E-13
 -1      2164 1.09788E+01-5.42526E+00-1.76376E-01-6.33570E+00-1.41887E-13 5.06789E-13
 -1      2165 1.27962E+00-7.67978E+00-4.83970E-01-2.22022E+00 1.59706E-13 7.23532E-13
 -1      2166 3.37951E+00-6.58208E+00-3.06735E-01-3.89224E+00-4.40759E-14 7.62168E-13
 -1      2167 3.38129E+00-6.24783E+00-2.75009E-01 4.39086E+00 4.55969E-13 7.91034E-13
 -1      2168 1.32565E+00-7.61344E+00-4.88575E-01 2.74174E+00 2.95458E-13 7.15927E-13
 -1      2169 1.99993E+01-6.90784E-04-2.92591E-06 9.85012E-04-7.94092E-14-1.74001E-13
 -1      2170 2.26623E+01-3.77188E+00 2.81378E-02 5.86238E+00 3.41505E-13 1.37224E-13
 -1      2171 2.18008E+01-4.90846E+00 1.51726E-01 6.00671E+00 2.17604E-14-2.54380E-14
 -1      2172 2.54225E+01-4.31892E+00-1.97339E-01 4.51531E+00 1.31617E-13-1.88849E-13
 -1      2173 2.33782E+01 1.10745E+00-1.64856E-02-6.30405E-01-3.23411E-13-6.09044E-14
 -1      2174 3.58561E+01 8.22488E+00 2.90357E-01 5.52680E-02 9.29090E-13-2.44072E-13
 -1      2175 3.00607E+01-8.04321E-01 1.30621E-01 2.93393E+00 5.26107E-13-2.20046E-13
 -1      2176 2.28740E+01 1.35979E+00-2.54271E-02-4.78007E-01-3.26359E-13-2.08751E-13
 -1      2177 1.99993E+01-1.09684E-03-1.66252E-06-1.47865E-03 8.96993E-14 9.02177E-14
 -1      2178 1.86362E+00-5.19404E+00-2.22858E-01 2.43881E+00 1.55098E-13 7.48623E-13
 -1      2179 1.99993E+01-9.96579E-04-4.45508E-06 1.17586E-03-1.65254E-13 1.81645E-13
 -1      2180 6.78176E+00-5.48688E+00-1.47150E-01 5.80850E+00 1.39833E-13 6.77569E-13
 -1      2181 1.89429E+00-5.23251E+00-2.23384E-01-1.87072E+00 1.49061E-13 7.65332E-13
 -1      2182 7.03007E+00-5.59879E+00-1.32468E-01-5.39814E+00 2.01561E-13 6.58945E-13
 -1      2183 1.61374E+01-5.88108E+00-4.96491E-02-6.48111E+00 1.57374E-13 3.07879E-13
 -1      2184 3.18775E+01-3.92243E-01 9.16538E-02-2.19810E+00-3.10807E-13-2.07168E-13
 -1      2185 3.20968E+01-2.70865E-01-2.00725E-01 3.66443E-01-2.27124E-13-4.15834E-13
 -1      2186 3.00467E+01-2.30513E+00 1.24169E-01-1.55987E+00-2.01929E-13-3.91298E-13
 -1      2187 3.72179E+01 7.30368E+00 3.30698E-01 5.37802E-01-7.58948E-13-4.39648E-13
 -1      2188 3.77041E+01 7.56136E+00 3.78611E-01-1.52123E-01-1.00042E-12-4.12115E-13
 -1      2189 3.60361E+01 4.53395E+00 3.11577E-01-6.31357E-02-1.13404E-12-3.36453E-13
 -1      2190 3.26681E+01 4.13653E-02 1.96719E-01 1.88668E+00-9.60051E-13-3.45168E-13
 -1      2191 2.63367E+01-3.83509E+00 5.51764E-02 4.50718E+00-6.94500E-13-4.50417E-13
 -1      2192 1.75446E+01-5.59883E+00-4.32123E-02 6.53560E+00-4.08396E-13-7.24421E-13
 -1      2193 3.41831E+00-4.52915E+00-1.44386E-01 3.13811E+00-1.42469E-13-1.05876E-12
 -1      2194 5.47520E+00-4.55404E+00-1.05165E-01-5.04623E+00-1.22513E-13-1.06004E-12
 -1      2195 2.86261E+01-1.77029E+00 1.18934E-01-3.75156E+00 3.48249E-13-5.20972E-13
 -1      2196 3.46201E+01 5.78224E+00 1.70249E-01 2.37376E-01 7.63667E-13-2.00590E-13
 -1      2197 3.38825E+01 3.45349E+00 2.51501E-01 7.14269E-01 8.18290E-13-3.64375E-13
 -1      2198 3.56335E+01 7.06278E+00 3.09109E-01-1.42509E-01 9.68281E-13-2.47802E-13
 -1      2199 2.06962E+01-4.60199E+00 1.29187E-02-6.39049E+00 9.67559E-14-7.01827E-13
 -1      2200 9.09492E+00-5.48957E+00-1.32202E-01 6.11621E+00-2.45137E-13-9.85323E-13
 -1      2201 2.50346E+01-4.43931E+00 5.13888E-02-4.68461E+00-1.04416E-13-1.24345E-14
 -1      2202 1.99992E+01-1.14810E-03-2.26507E-06 1.63238E-03-2.21888E-13 6.22655E-14
 -1      2203 1.69222E+01 4.33525E+00-9.47430E-03-2.46526E-01 7.93051E-14-6.37234E-13
 -1      2204 1.72005E+01 4.28406E+00-3.16532E-03-2.15891E-01 3.30610E-14-6.62996E-13
 -1      2205 1.75881E+01 4.11667E+00-1.56394E-02-1.30952E-01 1.47679E-15-6.61788E-13
 -1      2206 1.80847E+01 3.99440E+00-2.57507E-03-1.50108E-01-4.58431E-14-6.52686E-13
 -1      2207 1.73936E+01 3.93918E+00 6.81835E-03-6.03986E-02 1.86838E-14-6.19568E-13
 -1      2208 1.69918E+01 4.20144E+00 1.88576E-03-5.00639E-01 2.11920E-13-5.62113E-13
 -1      2209 1.68067E+01 4.26911E+00-1.11213E-02-4.97992E-01 1.70043E-13-5.86573E-13
 -1      2210 1.76040E+01 3.91843E+00 3.31796E-03-4.55553E-01 2.74999E-13-5.12721E-13
 -1      2211 1.72584E+01 4.02154E+00-1.35719E-02-5.19377E-01 2.36448E-13-5.45467E-13
 -1      2212 1.71539E+01 3.82446E+00 1.50016E-03-6.29913E-01 2.02070E-13-5.29360E-13
 -1      2213 1.84137E+01 3.58020E+00 9.61553E-04-2.45435E-01 3.35777E-13-4.18324E-13
 -1      2214 1.79869E+01 3.69931E+00-1.43118E-02-3.80427E-01 2.93525E-13-4.72902E-13
 -1      2215 1.78791E+01 3.45230E+00-3.24378E-03-5.69128E-01 2.59943E-13-4.69679E-13
 -1      2216 1.93265E+01 3.21811E+00-4.87704E-03 1.14203E-01 4.08135E-13-2.75211E-13
 -1      2217 1.88610E+01 3.35258E+00-1.46606E-02-8.50811E-02 3.64238E-13-3.57082E-13
 -1      2218 1.87822E+01 3.03831E+00-5.97420E-03-3.23341E-01 3.29588E-13-3.57661E-13
 -1      2219 2.02577E+01 2.82956E+00-1.45993E-02 5.60110E-01 4.56999E-13-1.14826E-13
 -1      2220 1.97900E+01 2.99443E+00-1.56850E-02 3.24385E-01 4.19345E-13-2.05378E-13
 -1      2221 1.97479E+01 2.62163E+00-5.10626E-03 5.56002E-02 3.83126E-13-2.17033E-13
 -1      2222 2.11945E+01 2.34215E+00-2.85669E-02 9.94517E-01 4.77478E-13 1.15890E-13
 -1      2223 2.07229E+01 2.59008E+00-1.80138E-02 7.69948E-01 4.59022E-13-1.71044E-14
 -1      2224 2.06960E+01 2.19047E+00-7.73629E-04 4.72963E-01 4.24286E-13-4.05839E-14
 -1      2225 2.21673E+01 1.64074E+00-2.76630E-02 1.24990E+00 4.34118E-13 4.51776E-13
 -1      2226 2.16819E+01 2.05392E+00-1.13130E-02 1.14541E+00 4.56427E-13 2.60295E-13
 -1      2227 2.16208E+01 1.67218E+00 1.23871E-02 7.95688E-01 4.19059E-13 1.96726E-13
 -1      2228 2.26776E+01 9.48509E-01-1.85521E-02 1.06072E+00 3.71134E-13 7.46476E-13
 -1      2229 2.24116E+01 1.40225E+00-8.15306E-04 1.20448E+00 4.07388E-13 5.72473E-13
 -1      2230 2.21817E+01 1.09058E+00-1.97783E-03 8.20942E-01 4.01703E-13 4.45756E-13
 -1      2231 2.24382E+01 6.06910E-01-4.13779E-03 6.26403E-01 3.24673E-13 6.81072E-13
 -1      2232 2.25157E+01 9.52690E-01 1.78271E-02 3.89869E-01-2.33761E-13-2.33273E-13
 -1      2233 2.25211E+01 6.80410E-01-1.95667E-03 7.31575E-01-2.07806E-13-2.22539E-13
 -1      2234 3.21766E+01 7.51583E+00-1.46572E-01 3.35650E-01 8.53650E-13-1.16573E-13
 -1      2235 3.25036E+01 7.63697E+00-1.27731E-01-1.81434E-01 9.33476E-13-1.28099E-13
 -1      2236 2.26265E+01 4.46346E-01 2.12132E-02 1.00537E+00-1.75897E-13-1.65168E-13
 -1      2237 2.27446E+01 1.89496E-01-3.79586E-03 1.15546E+00-1.16767E-13-1.55167E-13
 -1      2238 2.19687E+01 7.67096E-01-1.12108E-02 9.37077E-01-1.74890E-13-2.53102E-13
 -1      2239 2.29683E+01-6.97357E-02 2.15953E-02 1.27547E+00-6.46716E-14-9.09555E-14
 -1      2240 2.31792E+01-3.85605E-01-1.22221E-02 1.23583E+00-2.18788E-14-8.19737E-14
 -1      2241 2.22266E+01 9.86386E-02-1.89478E-02 1.38498E+00-7.46982E-14-1.78084E-13
 -1      2242 2.35907E+01-7.10056E-01 2.50829E-02 1.15124E+00 5.73066E-15-3.78820E-14
 -1      2243 2.38546E+01-1.08755E+00-2.41452E-02 8.88550E-01 1.51094E-14-5.47305E-15
 -1      2244 2.27771E+01-7.00807E-01-2.80449E-02 1.48098E+00 9.45479E-15-9.02717E-14
 -1      2245 2.44829E+01-1.42808E+00 2.64379E-02 5.23995E-01 4.06468E-14 2.77018E-14
 -1      2246 2.47365E+01-1.73483E+00-3.07760E-02 2.59249E-02 4.55877E-14 6.64297E-14
 -1      2247 2.37210E+01-1.63121E+00-3.55990E-02 1.10308E+00 4.60313E-14-2.57642E-14
 -1      2248 2.54866E+01-1.90265E+00 1.10563E-02-6.40552E-01-2.74052E-14 1.23330E-13
 -1      2249 2.56395E+01-1.82656E+00-2.45266E-02-1.27115E+00-1.00135E-13 1.16008E-13
 -1      2250 2.50378E+01-2.35801E+00-3.28325E-02 1.19172E-01 2.45576E-14 1.06439E-13
 -1      2251 2.61910E+01-1.44210E+00-4.58384E-02-2.05509E+00-1.33097E-13 1.04229E-13
 -1      2252 2.61326E+01-6.69566E-01-2.19287E-02-2.45528E+00-1.79204E-13 5.45579E-14
 -1      2253 2.64612E+01-2.13305E+00-1.01466E-02-1.41306E+00-1.17481E-13 1.69160E-13
 -1      2254 2.62097E+01 4.05736E-01-1.08448E-01-2.75817E+00-3.17173E-13-2.97054E-14
 -1      2255 2.59831E+01 1.66156E+00-2.33461E-02-2.46020E+00-4.18998E-13-1.15321E-13
 -1      2256 2.73092E+01-2.16465E-01-4.75236E-02-2.66511E+00-3.06040E-13 4.35901E-14
 -1      2257 2.57287E+01 2.70099E+00-1.34441E-01-1.69683E+00-5.08135E-13-2.08463E-13
 -1      2258 2.56323E+01 3.38211E+00-7.11446E-02-7.44523E-01-5.48117E-13-2.91069E-13
 -1      2259 2.73377E+01 2.83480E+00-7.51971E-02-2.36224E+00-5.54418E-13-8.98101E-14
 -1      2260 2.55618E+01 3.44918E+00-9.39513E-02 7.20157E-01-5.17100E-13-4.79405E-13
 -1      2261 2.57612E+01 2.84675E+00-1.18194E-01 1.77488E+00-4.27172E-13-5.95826E-13
 -1      2262 2.71655E+01 4.47605E+00-9.53215E-02-9.59786E-02-6.52589E-13-3.88198E-13
 -1      2263 2.59809E+01 1.76012E+00-2.96903E-02 2.61015E+00-2.74114E-13-6.73399E-13
 -1      2264 2.62474E+01 5.07162E-01-1.08138E-01 2.94732E+00-1.01585E-13-7.33585E-13
 -1      2265 2.73332E+01 2.92114E+00-1.00062E-01 2.38826E+00-4.33487E-13-5.50837E-13
 -1      2266 2.62082E+01-6.20441E-01-1.73597E-02 2.67270E+00 1.70211E-14-7.42395E-13
 -1      2267 2.62870E+01-1.43799E+00-4.79772E-02 2.26782E+00 3.68932E-14-6.75677E-13
 -1      2268 2.73402E+01-1.67007E-01-5.17695E-02 2.87606E+00-4.78367E-14-6.94778E-13
 -1      2269 2.57393E+01-1.85284E+00-2.69849E-02 1.47565E+00 1.02457E-13-5.57855E-13
 -1      2270 2.56012E+01-1.97151E+00 5.60556E-03 8.21905E-01 1.83963E-13-4.86238E-13
 -1      2271 2.65299E+01-2.12954E+00-1.06054E-02 1.61078E+00 1.31884E-13-4.92498E-13
 -1      2272 2.48386E+01-1.84174E+00-3.20588E-02 9.97919E-02 1.82142E-13-3.89558E-13
 -1      2273 2.45652E+01-1.56555E+00 2.15394E-02-4.50238E-01 1.44215E-13-3.63076E-13
 -1      2274 2.51165E+01-2.47312E+00-2.12313E-02 1.91517E-02 2.25413E-13-2.71420E-13
 -1      2275 2.39011E+01-1.24683E+00-2.39851E-02-8.84136E-01 8.45348E-14-3.15074E-13
 -1      2276 2.35837E+01-9.04066E-01 1.86962E-02-1.22196E+00 1.23590E-13-2.83691E-13
 -1      2277 2.37246E+01-1.81840E+00-2.51472E-02-1.09818E+00 1.52309E-13-2.53845E-13
 -1      2278 2.31102E+01-6.12575E-01-1.33586E-02-1.40581E+00 9.91464E-14-3.27967E-13
 -1      2279 2.28018E+01-3.49396E-01 1.16698E-02-1.55283E+00 1.11461E-13-2.82650E-13
 -1      2280 2.26706E+01-9.80144E-01-2.03860E-02-1.66021E+00 1.16044E-13-1.91302E-13
 -1      2281 2.24922E+01-1.53020E-01-4.77105E-03-1.57634E+00 1.17518E-13-3.09739E-13
 -1      2282 2.22114E+01 6.04739E-03 5.98145E-03-1.59322E+00 7.45020E-14-2.56481E-13
 -1      2283 2.19613E+01-3.25074E-01-1.29067E-02-1.82652E+00 1.53379E-13-2.41998E-13
 -1      2284 2.20102E+01 1.13851E-01 8.14125E-04-1.53007E+00-5.06743E-14-2.38251E-13
 -1      2285 2.17613E+01 1.91623E-01 2.55927E-03-1.47341E+00-8.51039E-14-1.60574E-13
 -1      2286 2.14972E+01 7.77826E-02-7.02218E-03-1.76168E+00 2.20401E-14-2.49769E-13
 -1      2287 2.16234E+01 2.38086E-01 3.89799E-03-1.37138E+00-8.76788E-14-1.84277E-13
 -1      2288 2.14065E+01 2.64433E-01 8.06387E-04-1.28156E+00 3.76011E-14-1.89865E-13
 -1      2289 2.11811E+01 2.79704E-01-3.58260E-03-1.58074E+00-9.57761E-14-3.04191E-13
 -1      2290 2.13043E+01 2.74875E-01 5.25408E-03-1.16865E+00 5.22395E-14-2.01583E-13
 -1      2291 2.11186E+01 2.73095E-01 6.56463E-05-1.07044E+00 5.72118E-14-1.82391E-13
 -1      2292 2.09491E+01 3.52423E-01-1.91985E-03-1.35448E+00 3.94311E-14-4.09193E-13
 -1      2293 2.10376E+01 2.65132E-01 5.53724E-03-9.61757E-01-2.71793E-14-9.74007E-14
 -1      2294 2.08816E+01 2.50194E-01-1.63475E-04-8.68512E-01-1.45036E-13-1.74918E-13
 -1      2295 2.07661E+01 3.53073E-01-1.24340E-03-1.12347E+00-1.61497E-14-2.88333E-13
 -1      2296 2.08148E+01 2.34456E-01 5.21722E-03-7.71262E-01-1.18322E-13-1.84002E-13
 -1      2297 2.06862E+01 2.14919E-01-1.70369E-04-6.89062E-01-9.97888E-14-1.66300E-13
 -1      2298 2.06150E+01 3.19067E-01-1.02210E-03-9.09093E-01-1.03108E-13-2.13818E-13
 -1      2299 2.06304E+01 1.97180E-01 4.60943E-03-6.05872E-01-1.47811E-13-7.63938E-14
 -1      2300 2.05264E+01 1.77461E-01-1.03449E-04-5.36613E-01-1.21715E-13-4.44983E-14
 -1      2301 2.04882E+01 2.72178E-01-9.61983E-04-7.20964E-01-9.38312E-14-2.15566E-13
 -1      2302 2.04800E+01 1.60547E-01 3.90603E-03-4.67607E-01-7.42378E-14-1.20549E-13
 -1      2303 2.03972E+01 1.42662E-01-2.92058E-05-4.11000E-01-8.51053E-14-1.29273E-13
 -1      2304 2.03818E+01 2.23883E-01-9.29719E-04-5.61867E-01-1.21798E-13-6.42863E-14
 -1      2305 2.03591E+01 1.27757E-01 3.21403E-03-3.55055E-01-1.07684E-13-1.79534E-13
 -1      2306 2.02944E+01 1.12429E-01 2.81971E-05-3.09808E-01-2.79225E-15-1.88579E-13
 -1      2307 2.02936E+01 1.79569E-01-8.78900E-04-4.30869E-01-8.81507E-14-9.47863E-14
 -1      2308 2.02635E+01 9.98651E-02 2.58634E-03-2.65278E-01-8.18833E-15-2.54973E-13
 -1      2309 2.02138E+01 8.71729E-02 6.41463E-05-2.29750E-01 1.03962E-13-2.83869E-13
 -1      2310 2.02217E+01 1.41293E-01-8.02631E-04-3.25227E-01-7.05006E-14-1.29016E-13
 -1      2311 2.01893E+01 7.68771E-02 2.04380E-03-1.94867E-01 1.43261E-13-4.17232E-13
 -1      2312 2.01517E+01 6.66076E-02 8.17323E-05-1.67399E-01 3.05771E-14-2.49368E-13
 -1      2313 2.01642E+01 1.09411E-01-7.08415E-04-2.41499E-01 9.03986E-14-4.12659E-13
 -1      2314 2.01326E+01 5.83368E-02 1.58961E-03-1.40474E-01-8.45000E-15-2.19851E-13
 -1      2315 2.01046E+01 5.01700E-02 8.61111E-05-1.19547E-01 6.48036E-14-2.36100E-13
 -1      2316 2.01189E+01 8.34942E-02-6.06599E-04-1.76162E-01 6.63026E-14-5.18506E-13
 -1      2317 2.00900E+01 4.36288E-02 1.21806E-03-9.90644E-02-3.17945E-14-2.37528E-13
 -1      2318 2.00696E+01 3.72270E-02 8.21396E-05-8.33542E-02-3.25578E-14-2.06380E-13
 -1      2319 2.00839E+01 6.28024E-02-5.05903E-04-1.25925E-01-3.23121E-14-5.25268E-13
 -1      2320 2.00587E+01 3.21236E-02 9.19554E-04-6.80076E-02-5.62684E-14-2.20735E-13
 -1      2321 2.00441E+01 2.71711E-02 7.36018E-05-5.63976E-02-4.02837E-14-2.92568E-13
 -1      2322 2.00575E+01 4.65254E-02-4.12266E-04-8.78670E-02-1.00801E-13-4.36819E-13
 -1      2323 2.00361E+01 2.32408E-02 6.83414E-04-4.50859E-02-2.73284E-14-3.17389E-13
 -1      2324 2.00259E+01 1.94595E-02 6.31371E-05-3.66551E-02-6.46014E-14-1.82892E-13
 -1      2325 2.00378E+01 3.38921E-02-3.29035E-04-5.94824E-02-4.24606E-14-3.37927E-13
 -1      2326 2.00202E+01 1.64727E-02 4.99236E-04-2.84696E-02-9.33480E-14-1.26918E-13
 -1      2327 2.00134E+01 1.36253E-02 5.24281E-05-2.24703E-02-3.55883E-15-1.71316E-13
 -1      2328 2.00235E+01 2.42155E-02-2.57575E-04-3.86708E-02-7.36104E-14-2.64974E-13
 -1      2329 2.00094E+01 1.13877E-02 3.57560E-04-1.66726E-02 5.60220E-14-3.12960E-13
 -1      2330 2.00049E+01 9.27598E-03 4.24454E-05-1.25064E-02 8.94457E-14-3.10246E-13
 -1      2331 2.00134E+01 1.69051E-02-1.97913E-04-2.37044E-02-5.85340E-14-3.70997E-13
 -1      2332 2.00023E+01 7.62632E-03 2.50120E-04-8.50530E-03 8.43308E-14-3.52328E-13
 -1      2333 1.99996E+01 6.08709E-03 3.36684E-05-5.69956E-03 7.76481E-14-4.00041E-13
 -1      2334 2.00065E+01 1.14648E-02-1.49259E-04-1.31839E-02 8.14733E-14-5.38548E-13
 -1      2335 1.99979E+01 4.89302E-03 1.69874E-04-3.02797E-03 1.31615E-14-5.22862E-13
 -1      2336 1.99964E+01 3.79362E-03 2.62570E-05-1.21422E-03 1.91664E-14-5.83561E-13
 -1      2337 2.00019E+01 7.48421E-03-1.10394E-04-5.99244E-03-2.26753E-14-4.65807E-13
 -1      2338 1.99954E+01 2.94785E-03 1.10943E-04 4.91705E-04 2.18807E-14-6.10967E-13
 -1      2339 1.99948E+01 2.18152E-03 2.01736E-05 1.59681E-03-1.97390E-14-6.47062E-13
 -1      2340 1.99990E+01 4.62847E-03-7.99252E-05-1.25103E-03 2.63559E-14-6.13230E-13
 -1      2341 1.99942E+01 1.59793E-03 6.84934E-05 2.61627E-03 1.54576E-13-7.08929E-13
 -1      2342 1.99941E+01 1.07955E-03 1.52637E-05 3.22726E-03 2.13276E-13-5.05410E-13
 -1      2343 1.99974E+01 2.62709E-03-5.64595E-05 1.72203E-03 1.30262E-13-5.99907E-13
 -1      2344 1.99939E+01 6.89623E-04 3.86116E-05 3.77093E-03 1.35143E-13-4.69770E-13
 -1      2345 1.99942E+01 3.51823E-04 1.13050E-05 4.04725E-03 4.98056E-14-4.72141E-13
 -1      2346 1.99966E+01 1.26376E-03-3.86968E-05 3.44720E-03 2.22545E-13-5.79633E-13
 -1      2347 1.99942E+01 1.01334E-04 1.81705E-05 4.27086E-03 6.77336E-14-4.62235E-13
 -1      2348 1.99947E+01-1.08967E-04 8.03568E-06 4.32815E-03 4.28121E-14-3.26444E-13
 -1      2349 1.99964E+01 3.66757E-04-2.54860E-05 4.31464E-03 2.90750E-14-5.34861E-13
 -1      2350 1.99948E+01-2.62862E-04 4.71833E-06 4.34371E-03 1.30758E-14-3.05459E-13
 -1      2351 1.99953E+01-3.87574E-04 5.18908E-06 4.26289E-03-3.26082E-14-1.54288E-13
 -1      2352 1.99965E+01-1.99604E-04-1.58503E-05 4.61015E-03 4.53800E-14-4.04081E-13
 -1      2353 1.99956E+01-4.78943E-04-3.60256E-06 4.14778E-03-3.03571E-14-6.70854E-14
 -1      2354 1.99961E+01-5.51461E-04 2.54421E-06 3.98226E-03-3.80805E-14-1.24257E-14
 -1      2355 1.99969E+01-5.42699E-04-8.95826E-06 4.53655E-03 9.62419E-14-3.88877E-13
 -1      2356 1.99964E+01-6.07791E-04-8.19832E-06 3.78654E-03-1.86838E-14 1.22680E-13
 -1      2357 1.99969E+01-6.55360E-04-1.34159E-07 3.56798E-03-2.74661E-14 1.26235E-13
 -1      2358 1.99973E+01-7.47950E-04-4.10443E-06 4.23098E-03 5.92356E-14 1.05878E-13
 -1      2359 1.99972E+01-6.99646E-04-1.02285E-05 3.32013E-03 1.16829E-14 1.64549E-13
 -1      2360 1.99977E+01-7.44379E-04-3.26108E-06 3.06314E-03 4.55278E-14 2.33613E-13
 -1      2361 1.99978E+01-8.84880E-04-1.02334E-06 3.77937E-03 1.76247E-14 2.32050E-13
 -1      2362 1.99979E+01-7.96132E-04-1.16674E-05 2.77405E-03-3.82524E-14 1.74615E-13
 -1      2363 1.99984E+01-8.50950E-04-8.03003E-06 2.48137E-03-5.26268E-14 1.54556E-13
 -1      2364 1.99983E+01-1.00675E-03 1.66044E-06 3.22848E-03-6.62121E-14 3.36831E-13
 -1      2365 1.99986E+01-9.68831E-04-1.27894E-05 2.24314E-03-1.07018E-13 1.01047E-13
 -1      2366 1.99990E+01-1.03613E-03-1.17061E-05 1.90972E-03-1.20359E-13 1.62666E-13
 -1      2367 1.99993E+01-1.46954E-03 8.64295E-06 2.10933E-03-1.53166E-13 2.42555E-13
 -1      2368 1.99988E+01-1.19633E-03 7.84083E-06 2.66966E-03-2.57026E-13 2.56381E-13
 -1      2369 2.20866E+01-5.21274E-01-9.44115E-03 7.16965E-01 1.08279E-13 3.75343E-13
 -1      2370 2.21799E+01-4.92915E-01 4.55136E-03 5.33048E-01 1.19699E-13 3.66191E-13
 -1      2371 2.20993E+01-4.29656E-01-1.14593E-02 3.46611E-01 1.26799E-13 3.45240E-13
 -1      2372 2.21614E+01-3.22559E-01 1.09814E-02 2.18232E-01 1.19932E-13 3.57115E-13
 -1      2373 2.22980E+01-6.02269E-01-1.55595E-03 4.36305E-01 1.22693E-13 2.15072E-13
 -1      2374 2.20786E+01-2.01031E-01-8.53966E-03 1.35511E-01 1.34849E-13 3.44641E-13
 -1      2375 2.21326E+01-5.26191E-02 1.10277E-02 1.12238E-01 1.56058E-13 3.65519E-13
 -1      2376 2.21477E+01-3.39679E-01-7.16744E-03 1.64960E-01 1.36053E-13 2.01695E-13
 -1      2377 2.19713E+01-4.06645E-01-1.91298E-03 1.11473E+00 7.36919E-14 3.57819E-13
 -1      2378 2.21138E+01-4.94480E-01-2.61219E-03 9.45800E-01 9.80461E-14 3.91934E-13
 -1      2379 2.24070E+01-6.60627E-01 4.68064E-03 8.70435E-01 9.54618E-14 2.85978E-13
 -1      2380 2.17139E+01-4.73566E-02 9.47071E-03 1.34900E+00 8.86774E-14 3.60375E-13
 -1      2381 2.18952E+01-2.61078E-01-9.96456E-03 1.28727E+00 7.11709E-14 3.69209E-13
 -1      2382 2.23805E+01-4.26595E-01 9.10750E-03 1.30735E+00 8.61489E-14 2.89018E-13
 -1      2383 2.13561E+01 4.75032E-01 1.89570E-02 1.22180E+00 1.31960E-13 3.38520E-13
 -1      2384 2.15329E+01 1.97024E-01-1.33476E-02 1.34469E+00 1.06016E-13 3.72021E-13
 -1      2385 2.21614E+01 1.12633E-01 7.63648E-03 1.50990E+00 1.22842E-13 3.05021E-13
 -1      2386 2.10376E+01 9.35389E-01 1.88748E-02 6.53563E-01 2.43711E-13 2.47424E-13
 -1      2387 2.11494E+01 7.24200E-01-7.98935E-03 9.66938E-01 1.98689E-13 3.10361E-13
 -1      2388 2.18123E+01 7.94545E-01-1.59586E-03 1.25445E+00 1.81882E-13 2.55237E-13
 -1      2389 2.09363E+01 1.07657E+00 7.56842E-03-2.06720E-01 2.51627E-13 1.52187E-13
 -1      2390 2.09343E+01 1.05585E+00 4.49682E-03 1.99366E-01 2.91864E-13 2.24819E-13
 -1      2391 2.15267E+01 1.30545E+00-1.12799E-02 4.99334E-01 2.80970E-13 1.47312E-13
 -1      2392 2.11300E+01 8.06658E-01-7.35347E-03-1.02076E+00 1.85588E-13 6.47980E-14
 -1      2393 2.10124E+01 9.92165E-01 1.60988E-02-6.80010E-01 2.35528E-13 1.16474E-13
 -1      2394 2.15043E+01 1.35552E+00-1.28167E-02-5.04226E-01 2.69747E-13 1.02970E-13
 -1      2395 2.15235E+01 2.89810E-01-1.38584E-02-1.47339E+00 2.24874E-14 4.38213E-14
 -1      2396 2.13342E+01 5.69376E-01 1.91093E-02-1.31647E+00 1.01377E-13 6.17470E-14
 -1      2397 2.17633E+01 9.10268E-01-3.31815E-03-1.33337E+00 1.59457E-13 9.91748E-14
 -1      2398 2.19193E+01-2.13546E-01-1.26547E-02-1.47252E+00-2.91233E-14-5.50102E-14
 -1      2399 2.17196E+01 2.92844E-02 1.08223E-02-1.51513E+00-3.36153E-14-4.71055E-14
 -1      2400 2.21225E+01 2.22052E-01 7.16984E-03-1.66985E+00 4.88569E-14-4.58458E-14
 -1      2401 2.21630E+01-5.21181E-01-7.08930E-03-1.12682E+00 1.16394E-13-6.96901E-14
 -1      2402 2.20099E+01-3.93010E-01-1.36214E-03-1.30460E+00 5.73036E-14-9.63272E-14
 -1      2403 2.23724E+01-3.89958E-01 1.02359E-02-1.50826E+00 5.66614E-14-1.78201E-13
 -1      2404 2.22115E+01-6.02148E-01-1.36387E-03-6.36823E-01 2.43581E-14-9.99991E-14
 -1      2405 2.21311E+01-5.87107E-01-9.98116E-03-8.63101E-01 1.01776E-13-4.23529E-14
 -1      2406 2.24057E+01-7.27360E-01 7.61330E-03-1.03237E+00 8.21521E-14-1.75707E-13
 -1      2407 2.21031E+01-5.25235E-01 1.98332E-03-1.66584E-01 5.66235E-14-5.84332E-14
 -1      2408 2.20951E+01-5.80852E-01-1.30966E-02-3.75416E-01 4.60673E-14-1.09004E-13
 -1      2409 2.22516E+01-7.82899E-01 3.34107E-03-4.73368E-01 4.33811E-14-1.29845E-13
 -1      2410 2.18995E+01-3.78080E-01 3.05229E-03 1.97377E-01-4.68150E-14 5.52374E-14
 -1      2411 2.19490E+01-4.59942E-01-1.22188E-02 3.94084E-02 2.32340E-14 6.84977E-15
 -1      2412 2.19909E+01-6.56652E-01-3.52340E-04 1.41013E-02-2.46541E-14-1.33440E-14
 -1      2413 2.16538E+01-2.24806E-01 2.97581E-03 4.32578E-01-4.37614E-14 7.66402E-14
 -1      2414 2.17417E+01-3.03420E-01-9.23642E-03 3.32834E-01-5.10863E-14 5.59522E-14
 -1      2415 2.16958E+01-4.57229E-01-2.15219E-03 3.64875E-01-7.03240E-14 8.25858E-14
 -1      2416 2.14009E+01-9.84106E-02 2.42684E-03 5.53235E-01-4.09337E-14 1.04570E-13
 -1      2417 2.15095E+01-1.60203E-01-5.77292E-03 5.04281E-01 1.97216E-16 1.14361E-13
 -1      2418 2.14106E+01-2.60630E-01-2.57276E-03 5.74615E-01-2.49445E-14-4.95995E-14
 -1      2419 2.11605E+01-8.71357E-03 1.80253E-03 5.87498E-01 2.35471E-14 5.41760E-14
 -1      2420 2.12761E+01-5.08431E-02-2.76408E-03 5.76357E-01-1.43317E-14 7.88301E-14
 -1      2421 2.11546E+01-1.03234E-01-2.40130E-03 6.68069E-01-9.81086E-15-8.19963E-14
 -1      2422 2.09428E+01 4.69606E-02 1.28185E-03 5.64398E-01-2.11006E-14 1.80288E-13
 -1      2423 2.10556E+01 2.19979E-02-5.28142E-04 5.77975E-01-1.16637E-14 1.07452E-13
 -1      2424 2.09335E+01 5.99541E-03-2.07500E-03 6.78006E-01-8.38206E-14 6.08864E-14
 -1      2425 2.07520E+01 7.61008E-02 9.03964E-04 5.08117E-01 3.69926E-14 3.05137E-13
 -1      2426 2.08559E+01 6.40417E-02 9.38010E-04 5.35622E-01 6.38806E-14 2.23623E-13
 -1      2427 2.07462E+01 7.21851E-02-1.76529E-03 6.34770E-01-2.49034E-14 1.83807E-13
 -1      2428 2.05890E+01 8.67701E-02 6.47682E-04 4.36466E-01 7.16091E-14 1.78322E-13
 -1      2429 2.06806E+01 8.34262E-02 1.76886E-03 4.70037E-01 8.30879E-14 2.60763E-13
 -1      2430 2.05894E+01 1.05480E-01-1.51535E-03 5.62387E-01 1.15060E-13 2.63479E-13
 -1      2431 2.04529E+01 8.57850E-02 4.78573E-04 3.61392E-01 1.18330E-13 1.99419E-13
 -1      2432 2.05308E+01 8.77636E-02 2.13253E-03 3.95834E-01 7.68777E-14 1.70453E-13
 -1      2433 2.04596E+01 1.16214E-01-1.31696E-03 4.78041E-01 1.16692E-13 1.98335E-13
 -1      2434 2.03415E+01 7.82355E-02 3.66239E-04 2.90176E-01 1.30741E-13 1.03414E-13
 -1      2435 2.04059E+01 8.30720E-02 2.18356E-03 3.22391E-01 1.67884E-13 1.21915E-13
 -1      2436 2.03533E+01 1.12925E-01-1.15108E-03 3.93007E-01 1.57442E-13 2.52091E-13
 -1      2437 2.02521E+01 6.76144E-02 2.88975E-04 2.26720E-01-7.67257E-15 5.48835E-14
 -1      2438 2.03040E+01 7.36555E-02 2.04520E-03 2.55111E-01 3.81278E-14 2.46255E-14
 -1      2439 2.02673E+01 1.01905E-01-1.00312E-03 3.13996E-01 1.47862E-13 2.80619E-13
 -1      2440 2.01818E+01 5.61503E-02 2.32904E-04 1.72647E-01-2.58214E-14 9.28964E-14
 -1      2441 2.02226E+01 6.23663E-02 1.80724E-03 1.96613E-01-1.36174E-14 6.10048E-14
 -1      2442 2.01987E+01 8.74330E-02-8.65645E-04 2.44459E-01 3.64862E-14 1.46688E-13
 -1      2443 2.01275E+01 4.51558E-02 1.89815E-04 1.28141E-01-1.40529E-13 2.22731E-13
 -1      2444 2.01588E+01 5.09592E-02 1.53045E-03 1.47698E-01-7.87218E-14 2.28051E-13
 -1      2445 2.01446E+01 7.22113E-02-7.36570E-04 1.85668E-01-1.44011E-13 1.83993E-13
 -1      2446 2.00864E+01 3.53194E-02 1.55111E-04 9.25557E-02-3.50534E-14 2.49133E-13
 -1      2447 2.01099E+01 4.04193E-02 1.25307E-03 1.08064E-01-4.50676E-14 3.10720E-13
 -1      2448 2.01028E+01 5.78121E-02-6.16614E-04 1.37529E-01-1.30088E-13 2.75500E-13
 -1      2449 2.00559E+01 2.69267E-02 1.26315E-04 6.48272E-02 6.61348E-14 1.46905E-13
 -1      2450 2.00732E+01 3.12199E-02 9.97017E-04 7.68122E-02 5.10874E-14 1.93175E-13
 -1      2451 2.00710E+01 4.50406E-02-5.07369E-04 9.91767E-02 6.76024E-14 2.79148E-13
 -1      2452 2.00339E+01 2.00185E-02 1.02101E-04 4.37396E-02-8.42193E-14 2.33660E-13
 -1      2453 2.00462E+01 2.35137E-02 7.73059E-04 5.27763E-02-2.14657E-14 2.39187E-13
 -1      2454 2.00472E+01 3.42106E-02-4.10213E-04 6.93675E-02-1.45124E-14 2.13557E-13
 -1      2455 2.00184E+01 1.44974E-02 8.17157E-05 2.80862E-02-3.51397E-14 2.38521E-13
 -1      2456 2.00269E+01 1.72638E-02 5.84782E-04 3.47318E-02-1.76729E-14 2.65063E-13
 -1      2457 2.00298E+01 2.53388E-02-3.25857E-04 4.67386E-02-4.07231E-14 1.21093E-13
 -1      2458 2.00078E+01 1.01980E-02 6.46714E-05 1.67597E-02 1.60867E-13 2.90954E-13
 -1      2459 2.00134E+01 1.23327E-02 4.31425E-04 2.15176E-02 7.65507E-14 2.54962E-13
 -1      2460 2.00174E+01 1.82769E-02-2.54277E-04 2.99639E-02 1.93570E-15 1.78906E-13
 -1      2461 2.00009E+01 6.93065E-03 5.05813E-05 8.79457E-03 9.59023E-14 3.03369E-13
 -1      2462 2.00045E+01 8.53817E-03 3.09834E-04 1.20984E-02 2.31250E-13 2.64862E-13
 -1      2463 2.00087E+01 1.27976E-02-1.94833E-04 1.78385E-02 1.42851E-13 1.47960E-13
 -1      2464 1.99967E+01 4.50726E-03 3.90902E-05 3.38021E-03 7.97574E-15 9.22586E-14
 -1      2465 1.99988E+01 5.68808E-03 2.15758E-04 5.59019E-03 1.29918E-14 2.06864E-13
 -1      2466 2.00030E+01 8.64822E-03-1.46459E-04 9.31870E-03 1.70159E-13 4.92388E-14
 -1      2467 1.99944E+01 2.75535E-03 2.98475E-05-1.43734E-04 6.08396E-14-1.52557E-13
 -1      2468 1.99954E+01 3.59980E-03 1.44662E-04 1.26321E-03 5.67711E-14-4.24897E-15
 -1      2469 1.99993E+01 5.58167E-03-1.07841E-04 3.53134E-03 1.20897E-13 2.13877E-15
 -1      2470 1.99934E+01 1.52447E-03 2.25004E-05-2.30121E-03 1.48081E-13-1.17624E-13
 -1      2471 1.99937E+01 2.11025E-03 9.21967E-05-1.46860E-03 4.76885E-14-1.20777E-13
 -1      2472 1.99972E+01 3.37337E-03-7.75748E-05-2.32738E-04 1.00537E-13-2.15072E-13
 -1      2473 1.99933E+01 6.87787E-04 1.66933E-05-3.49782E-03-2.05990E-14-2.57649E-14
 -1      2474 1.99931E+01 1.07971E-03 5.44593E-05-3.06410E-03 1.43136E-13-3.57831E-14
 -1      2475 1.99961E+01 1.82847E-03-5.42773E-05-2.53513E-03 9.24544E-14-9.35919E-14
 -1      2476 1.99937E+01 1.40939E-04 1.20684E-05-4.03957E-03-3.05241E-14-4.49483E-14
 -1      2477 1.99933E+01 3.91912E-04 2.80964E-05-3.87372E-03-1.00104E-13-4.38954E-14
 -1      2478 1.99957E+01 7.83337E-04-3.66604E-05-3.80976E-03-6.57955E-14 2.54653E-13
 -1      2479 1.99944E+01-2.00673E-04 8.26562E-06-4.15051E-03-1.32505E-13 6.97136E-14
 -1      2480 1.99938E+01-4.79981E-05 1.03287E-05-4.15787E-03 2.84305E-14-2.41162E-14
 -1      2481 1.99958E+01 1.03579E-04-2.35804E-05-4.38333E-03-2.23466E-14 1.09156E-13
 -1      2482 1.99953E+01-4.05300E-04 4.93521E-06-3.98814E-03-9.40158E-14-2.41453E-14
 -1      2483 1.99947E+01-3.16615E-04-1.07620E-06-4.10349E-03-1.78761E-13 2.78690E-14
 -1      2484 1.99961E+01-3.19699E-04-1.40621E-05-4.49443E-03-8.15601E-14 9.78440E-14
 -1      2485 1.99962E+01-5.28347E-04 1.76681E-06-3.65629E-03-1.11475E-14-6.33162E-14
 -1      2486 1.99956E+01-4.75822E-04-7.85600E-06-3.83816E-03 2.62059E-14-9.78641E-14
 -1      2487 1.99967E+01-5.74406E-04-7.30409E-06-4.31018E-03 1.24784E-14-1.08132E-13
 -1      2488 1.99971E+01-6.15763E-04-1.49139E-06-3.21605E-03-2.01484E-14-9.33589E-15
 -1      2489 1.99965E+01-5.76307E-04-1.13706E-05-3.44203E-03-7.67908E-15-2.82942E-14
 -1      2490 1.99973E+01-7.31735E-04-2.68830E-06-3.94060E-03-2.80712E-14-6.87092E-14
 -1      2491 1.99979E+01-7.05122E-04-5.32830E-06-2.69487E-03-1.68672E-13-5.62872E-14
 -1      2492 1.99974E+01-6.60695E-04-1.27234E-05-2.95677E-03-1.49873E-14-1.37931E-14
 -1      2493 1.99979E+01-8.49907E-04 3.61997E-07-3.45067E-03-2.24312E-14-5.25993E-14
 -1      2494 1.99986E+01-8.16096E-04-1.27449E-05-2.10234E-03 6.06399E-14-8.84584E-14
 -1      2495 1.99982E+01-7.57989E-04-1.40400E-05-2.39211E-03-8.53590E-14 4.96210E-14
 -1      2496 1.99984E+01-9.73353E-04 3.07058E-06-2.86900E-03-1.21702E-13-2.71729E-14
 -1      2497 1.99990E+01-1.07217E-03-6.76066E-06-1.77500E-03 1.64711E-13 8.04897E-14
 -1      2498 2.00004E+01-3.42739E-03 1.30986E-05-1.83787E-03 2.73975E-13 5.06534E-14
 -1      2499 2.00002E+01-3.11957E-03-9.63723E-07-2.02501E-03 1.00284E-13-2.41140E-13
 -1      2500 2.00001E+01-2.82043E-03 1.12403E-05-2.18382E-03-1.28240E-13-3.08989E-14
 -1      2501 1.99999E+01-2.46619E-03-6.61680E-06-2.24827E-03-1.65737E-13 9.71494E-14
 -1      2502 2.00003E+01-2.77884E-03-5.70401E-06-2.38668E-03 5.50107E-14 1.12175E-13
 -1      2503 1.99997E+01-2.11743E-03 7.73794E-06-2.25791E-03-2.19644E-13-1.59863E-13
 -1      2504 1.99994E+01-1.74002E-03-1.40935E-05-2.17671E-03-3.01482E-14-7.70383E-14
 -1      2505 1.99998E+01-2.15587E-03-4.57586E-06-2.57276E-03-8.05584E-14-1.19704E-13
 -1      2506 4.06173E+00-3.07230E+00 4.73742E-02 3.50046E+00 8.27116E-14 7.16982E-13
 -1      2507 2.96048E+00-3.08537E+00 6.44657E-02 1.29698E+00 6.64052E-14 6.13731E-13
 -1      2508 2.00006E+01-3.88817E-03 1.36899E-05-1.27858E-03 2.22124E-13 6.55148E-14
 -1      2509 2.00005E+01-3.66374E-03 3.91172E-06-1.55823E-03 1.99681E-13 1.77684E-13
 -1      2510 2.00007E+01-3.29259E-03-8.33771E-06-1.92127E-03 3.60467E-13 4.26280E-14
 -1      2511 2.00008E+01-4.15517E-03 1.31524E-05-5.79814E-04-1.28752E-13-2.88448E-13
 -1      2512 2.00007E+01-4.03690E-03 8.30843E-06-9.15816E-04 4.27740E-14-2.99435E-13
 -1      2513 2.00009E+01-3.66262E-03-9.69991E-06-1.23934E-03 3.18095E-14-3.05566E-13
 -1      2514 2.00008E+01-4.20607E-03 1.14391E-05 1.79921E-04-2.49711E-13-8.51737E-14
 -1      2515 2.00008E+01-4.20632E-03 1.13419E-05-1.75106E-04-2.53487E-13 2.26837E-14
 -1      2516 2.00011E+01-3.85506E-03-1.04584E-05-4.26375E-04-1.49960E-13-2.14576E-13
 -1      2517 2.00007E+01-4.03702E-03 8.54707E-06 9.21029E-04-2.63114E-13-4.44023E-13
 -1      2518 2.00008E+01-4.15606E-03 1.30151E-05 5.84918E-04-3.00696E-13-1.82991E-13
 -1      2519 2.00011E+01-3.85617E-03-1.04753E-05 4.31092E-04-5.62014E-14-1.92474E-13
 -1      2520 2.00005E+01-3.67173E-03 4.15096E-06 1.55437E-03 8.46035E-14-3.47080E-13
 -1      2521 2.00006E+01-3.89214E-03 1.36385E-05 1.27860E-03-4.87780E-14-5.82444E-13
 -1      2522 2.00009E+01-3.66783E-03-9.84851E-06 1.23876E-03 5.32866E-14-2.36147E-13
 -1      2523 2.00002E+01-3.12915E-03-1.05539E-06 2.02534E-03-2.17796E-14 4.82415E-13
 -1      2524 2.00004E+01-3.43677E-03 1.31723E-05 1.83647E-03 1.16569E-13-1.38751E-13
 -1      2525 2.00007E+01-3.30325E-03-8.30389E-06 1.91778E-03 1.96291E-13-1.53520E-13
 -1      2526 1.99999E+01-2.45974E-03-4.24327E-06 2.24973E-03-2.79748E-13 5.79760E-13
 -1      2527 2.00001E+01-2.82299E-03 1.11898E-05 2.18790E-03-3.22642E-13 1.02970E-12
 -1      2528 2.00003E+01-2.78515E-03-5.76727E-06 2.39122E-03-1.52866E-13 4.37648E-13
 -1      2529 1.99995E+01-1.78848E-03-7.58647E-06 2.19237E-03-2.23865E-13 2.08845E-13
 -1      2530 1.99997E+01-2.16865E-03 8.01643E-06 2.27545E-03-2.04349E-13 3.53106E-13
 -1      2531 1.99998E+01-2.21137E-03-6.51459E-06 2.58263E-03-2.52328E-13 5.54207E-13
 -1      2532 1.99993E+01-1.64035E-03-9.25664E-06 2.51236E-03-1.76223E-13 3.13059E-13
 -1      2533 2.21446E+01 2.07470E+00-6.57296E-03-6.24926E-01-2.98549E-13-3.52482E-13
 -1      2534 2.23154E+01 1.32747E+00-2.73450E-03 5.06865E-02-2.72291E-13-2.94876E-13
 -1      2535 2.17315E+01 1.52449E+00-5.42360E-03 2.62491E-01-2.29587E-13-3.45152E-13
 -1      2536 2.13120E+01 2.54261E+00-1.66125E-02-4.92709E-01-2.55179E-13-4.44235E-13
 -1      2537 1.73881E+01-5.28136E+00-2.57132E-02 6.95626E+00-9.81437E-14 1.72692E-13
 -1      2538 1.37846E+01-5.24684E+00 3.02921E-02 6.95638E+00-1.36224E-13 2.53103E-13
 -1      2539 2.92318E+00-3.11032E+00 6.04004E-02-6.70121E-01 1.66651E-13 6.97553E-13
 -1      2540 4.13721E+00-3.12216E+00 5.55156E-02-2.99622E+00 2.13496E-13 6.97387E-13
 -1      2541 4.91105E+00-1.62931E+00 1.67460E-01 2.88184E-01 1.03414E-13 6.09179E-13
 -1      2542 6.91179E+00-4.00291E+00 7.33241E-02-4.91671E+00 2.65510E-13 5.43676E-13
 -1      2543 1.02600E+01-4.67781E+00-9.93062E-03-6.39922E+00 3.10640E-13 4.75314E-13
 -1      2544 3.34461E+01 6.19614E+00-1.16405E-01 1.13039E+00-6.65690E-13-4.54636E-13
 -1      2545 3.43777E+01 7.15595E+00-6.22630E-02 4.92978E-01-8.09797E-13-4.26853E-13
 -1      2546 2.68280E+01-3.43976E+00 3.77574E-03-3.37095E+00 6.35880E-14-2.97123E-13
 -1      2547 2.93867E+01-1.80042E+00-8.78901E-02-2.06470E+00 1.76782E-13-2.29788E-13
 -1      2548 3.12285E+01 4.24524E+00-1.32953E-01 1.03643E+00 6.39655E-13-5.27356E-16
 -1      2549 3.19803E+01 6.20594E+00-1.33737E-01 9.03475E-01 7.47402E-13-6.12982E-14
 -1      2550 1.67305E+01 4.35812E+00-2.94196E-03-4.04178E-01 1.52387E-13-6.10104E-13
 -1      2551 1.67659E+01 4.37226E+00-7.01400E-03-3.65364E-01 1.05649E-13-6.26686E-13
 -1      2552 1.68200E+01 4.12860E+00 8.21919E-03-2.81837E-01 9.29987E-14-6.01448E-13
 -1      2553 1.67556E+01 4.07767E+00 6.13111E-03-5.10415E-01 1.39882E-13-5.70107E-13
 -1      2554 3.24298E+01 6.90260E+00-1.52281E-01-7.10591E-01 9.20264E-13-1.52184E-13
 -1      2555 3.20178E+01 5.66603E+00-1.32266E-01-9.48321E-01 8.82350E-13-2.46303E-13
 -1      2556 1.94367E+01-5.13598E+00 3.99597E-02-6.34527E+00-1.72279E-13-5.50456E-13
 -1      2557 2.35321E+01-4.64758E+00-6.92534E-02-5.49822E+00-3.28904E-14-4.31544E-13
 -1      2558 3.02003E+01-8.51407E-01-1.21321E-01 1.20693E+00 4.66086E-13-4.52693E-13
 -1      2559 2.82707E+01-2.53119E+00-6.19315E-03 2.31321E+00 2.75606E-13-3.76060E-13
 -1      2560 3.16603E+01 3.32720E+00-1.67324E-01-8.33397E-01 7.40713E-13-4.20830E-13
 -1      2561 3.08743E+01 1.36580E+00-9.54926E-02-3.01854E-01 6.29330E-13-4.66127E-13
 -1      2562 3.04498E+01-3.42697E-01-6.26199E-02-7.67974E-01 2.92606E-13-9.69780E-14
 -1      2563 3.10626E+01 1.36824E+00-1.29721E-01 2.61118E-01 4.34722E-13 7.99638E-14
 -1      2564 2.90894E+01-1.86602E+00 3.34953E-03-7.25244E-01 5.42543E-14 3.10307E-14
 -1      2565 1.22245E+01-4.82571E+00-5.59790E-03 6.77102E+00-4.66849E-14-8.02830E-13
 -1      2566 9.04677E+00-4.25304E+00 5.21664E-02 5.83266E+00 3.78308E-14-8.64142E-13
 -1      2567 1.20572E+01-4.52002E+00 6.13093E-02-6.87057E+00-2.04975E-13-7.81292E-13
 -1      2568 1.53827E+01-4.85611E+00-7.54679E-03-7.28406E+00-1.49492E-13-6.71255E-13
 -1      2569 5.83445E+00-2.66571E+00 1.12814E-01-4.46966E+00-2.05475E-13-9.94260E-13
 -1      2570 8.71886E+00-3.59662E+00 5.54995E-02-6.34923E+00-1.64924E-13-9.45966E-13
 -1      2571 3.46680E+00-2.04061E+00 1.07162E-01-2.15160E-02-7.67095E-14-1.03856E-12
 -1      2572 3.85483E+00-1.99708E+00 8.52002E-02-2.17420E+00-6.58362E-14-1.04627E-12
 -1      2573 2.40619E+01-5.33559E+00 6.23121E-02-4.43393E+00 1.26538E-13-1.95316E-13
 -1      2574 2.71082E+01-4.44594E+00-6.76877E-02-3.56262E+00-2.02061E-14-2.87714E-13
 -1      2575 6.03422E+00-3.24596E+00 5.19749E-02 4.58070E+00-1.69031E-14-9.38083E-13
 -1      2576 4.00707E+00-2.50385E+00 8.28927E-02 2.23550E+00 4.42424E-14-9.75109E-13
 -1      2577 2.07368E+01-5.55287E+00-8.10298E-02 6.10762E+00-1.70641E-13-3.83478E-13
 -1      2578 1.63241E+01-5.46193E+00 4.77808E-02 6.46535E+00-3.84137E-14-5.84297E-13
 -1      2579 2.83664E+01-3.82381E+00-7.05040E-02 2.89940E+00-4.91995E-13-1.23068E-13
 -1      2580 2.51788E+01-4.96640E+00 3.64103E-02 4.02187E+00-3.03674E-13-1.59650E-13
 -1      2581 3.20360E+01-2.32533E-01-1.32144E-01 5.69552E-03-7.79932E-13-5.20695E-14
 -1      2582 3.01655E+01-2.21413E+00-5.61668E-02 1.16067E+00-6.23362E-13-8.08797E-14
 -1      2583 2.90779E+01-3.48902E+00 1.68552E-02 9.09394E-01-3.27870E-13 9.90319E-14
 -1      2584 3.35032E+01 4.52074E+00-1.42081E-01-1.21702E+00-9.84768E-13-1.96010E-13
 -1      2585 3.27727E+01 2.59978E+00-8.81565E-02-1.15509E+00-9.24150E-13-1.06914E-13
 -1      2586 3.41237E+01 7.14503E+00-1.09733E-01-1.81423E-01-9.32365E-13-3.91923E-13
 -1      2587 3.36945E+01 6.43251E+00-9.66883E-02-8.45794E-01-1.04350E-12-3.46778E-13
 -1      2588 3.24981E+01 2.36355E+00-7.35384E-02 1.61270E+00-2.49967E-13-3.98626E-13
 -1      2589 3.29907E+01 4.06442E+00-1.55429E-01 1.60765E+00-4.29157E-13-4.59022E-13
 -1      2590 1.48129E+01-5.55961E+00 6.40530E-02-6.43878E+00 3.70093E-13 2.97970E-13
 -1      2591 1.95107E+01-5.75689E+00-7.16611E-02-6.23852E+00 2.17715E-13 6.03302E-14
 -1      2592 1.01685E+01-4.48952E+00 1.68346E-02 6.84399E+00-6.37268E-14 3.38535E-13
 -1      2593 6.79934E+00-3.90390E+00 7.21212E-02 5.43061E+00-1.12854E-13 5.90084E-13
 -1      2594 1.99991E+01-1.32879E-03 6.89453E-06-2.20235E-03 3.38494E-14 1.27370E-13
 -1      2595 2.69838E+01-3.72104E+00 1.49681E-02 2.91933E+00 1.35780E-13-3.64236E-13
 -1      2596 1.84179E+01 3.52680E+00 3.07323E-03 5.10731E-02-5.98562E-14-6.09459E-13
 -1      2597 1.86629E+01 3.71938E+00-1.97673E-02-1.37805E-01-7.67132E-14-6.32942E-13
 -1      2598 1.93159E+01 3.51563E+00-8.19538E-03-2.28791E-01-1.34865E-13-6.05644E-13
 -1      2599 2.03495E+01-5.28000E+00 8.58226E-02 6.20519E+00-1.09301E-13 7.44543E-14
 -1      2600 1.93822E+01-5.10816E+00 1.36682E-01 6.31998E+00-2.55018E-13 3.85456E-14
 -1      2601 2.25592E+01-5.44045E+00-1.36718E-01 5.12050E+00-9.37306E-14-1.85220E-13
 -1      2602 2.23631E+01 4.25629E-01 8.10649E-03 4.31958E-01 2.75851E-13 6.18732E-13
 -1      2603 2.22694E+01 6.40458E-01 6.16443E-03 5.45830E-01 3.20545E-13 4.93896E-13
 -1      2604 2.22342E+01 2.87637E-01 2.90473E-03 2.72793E-01 2.62396E-13 5.44933E-13
 -1      2605 2.99028E+01 6.38997E+00-1.01630E-01 9.84031E-01 7.24115E-13-2.13718E-15
 -1      2606 1.99120E+01 3.20467E+00-2.08333E-02-2.70871E-01-1.66289E-13-5.76074E-13
 -1      2607 2.06551E+01 2.90261E+00-1.57345E-02-4.13965E-01-2.21113E-13-5.24294E-13
 -1      2608 2.09342E+01 2.33735E+00 6.19636E-03-5.56870E-02-2.17892E-13-4.63944E-13
 -1      2609 1.96616E+01 2.97913E+00 4.61710E-03 3.19947E-02-1.37900E-13-5.51813E-13
 -1      2610 3.01827E+01 6.94119E+00-7.60636E-02-7.10964E-01 8.83321E-13-1.17267E-13
 -1      2611 1.42541E+01-4.56832E+00 1.43753E-01-6.23657E+00 3.56992E-13 3.19217E-13
 -1      2612 7.32179E+00-2.48907E+00 1.55301E-01 4.53218E+00-1.17795E-13 5.35377E-13
 -1      2613 1.34841E+01-4.32842E+00 1.39014E-01 6.78495E+00-2.83579E-13 1.81244E-13
 -1      2614 3.14264E+01 4.75377E+00-9.56641E-02 2.01242E+00-5.26634E-13-5.27023E-13
 -1      2615 3.00305E+01 4.00145E+00-7.97402E-02-1.68015E+00 7.03909E-13-2.68702E-13
 -1      2616 2.21235E+01 5.81101E-02 1.22423E-03 1.26714E-01 1.90595E-13 4.11160E-13
 -1      2617 2.21868E+01 1.82890E-01 1.01694E-02 1.92578E-01 2.17426E-13 4.73558E-13
 -1      2618 2.21214E+01 2.70929E-01-2.95887E-03 2.43554E-01 2.59701E-13 3.82382E-13
 -1      2619 2.20767E+01-2.50056E-02-9.85778E-03 1.29702E-01 1.88084E-13 2.90673E-13
 -1      2620 3.13104E+01 5.49652E-01-4.91621E-02 1.46909E+00-2.47496E-13-4.27935E-13
 -1      2621 3.16614E+01 6.86448E+00-1.27064E-02 1.22761E-01-8.53095E-13-3.85940E-13
 -1      2622 1.99991E+01-1.41773E-03-1.16605E-06-2.58224E-03-1.26269E-13-5.56513E-14
 -1      2623 3.11546E+01 5.29927E-01-5.59812E-02-1.43767E+00-6.97054E-13 7.46347E-14
 -1      2624 7.34660E+00-2.52710E+00 1.66996E-01-3.96430E+00 2.78444E-13 5.82312E-13
 -1      2625 2.88300E+01-3.89028E+00-2.79424E-02-1.30792E+00 3.16691E-14-4.59466E-13
 -1      2626 2.38586E+01-5.36412E+00 5.81650E-02 4.47023E+00-1.62925E-14-1.47826E-13
 -1      2627 9.17271E+00-2.83342E+00 1.46998E-01 5.14691E+00 1.69920E-13-8.64225E-13
 -1      2628 2.25446E+01-5.62270E+00 7.43471E-02-4.88322E+00 3.12417E-13-1.39555E-13
 -1      2629 5.55540E+00-1.17368E+00 1.81073E-01 1.30181E+00 8.00124E-14-9.72777E-13
 -1      2630 6.74771E+00-1.42866E+00 1.84603E-01-3.46394E+00-1.47798E-13-9.86045E-13
 -1      2631 1.19851E+01-3.30965E+00 1.49085E-01-6.45920E+00-2.83468E-13-8.13211E-13
 -1      2632 2.96326E+01-2.46577E-01-1.93953E-02-5.12914E-01 4.33271E-13-5.01377E-13
 -1      2633 3.04135E+01 2.37586E+00-1.17412E-01 1.22523E+00 4.45949E-13 9.45632E-14
 -1      2634 2.87037E+01 3.32368E+00-1.44177E-01 1.98027E+00 4.29823E-13 1.28161E-13
 -1      2635 2.90821E+01 7.63506E-01-3.30838E-02 1.27654E+00 2.44332E-13 2.00645E-13
 -1      2636 1.89172E+01-4.85621E+00 9.97027E-02-6.42188E+00-2.96485E-13-5.21734E-13
 -1      2637 2.56383E+01-4.36729E+00 5.09573E-02-3.71889E+00-1.69073E-13-2.20352E-13
 -1      2638 1.59674E+01-4.74283E+00 1.16370E-01 6.42165E+00 1.77774E-13-5.39263E-13
 -1      2639 3.16213E+01 5.13790E+00-1.08790E-02-1.73468E+00-9.05970E-13-2.59626E-13
 -1      2640 1.81741E+01 2.98212E+00 7.72541E-03-7.36912E-01 2.46289E-13-4.27504E-13
 -1      2641 1.76939E+01 3.15924E+00-1.40869E-02-8.18590E-01 2.21218E-13-4.72098E-13
 -1      2642 1.72664E+01 3.43945E+00 7.66049E-03-8.10971E-01 2.03883E-13-4.96207E-13
 -1      2643 1.69042E+01 3.57792E+00-1.49570E-02-7.91420E-01 1.65395E-13-5.09468E-13
 -1      2644 1.75024E+01 2.94352E+00 7.23923E-04-1.01360E+00 1.80876E-13-4.60790E-13
 -1      2645 2.01765E+01 2.03443E+00-4.97345E-03-3.61326E-02 3.64671E-13-1.73684E-13
 -1      2646 1.96913E+01 2.24685E+00-6.05320E-03-2.45035E-01 3.43038E-13-2.29211E-13
 -1      2647 2.10719E+01 1.56428E+00-1.68468E-02 3.69454E-01 3.87843E-13 3.27342E-15
 -1      2648 2.06440E+01 1.81970E+00-1.01198E-03 1.73618E-01 3.78446E-13-1.00132E-13
 -1      2649 2.05829E+01 1.46276E+00-1.14344E-03-1.27556E-01 3.32112E-13-1.09959E-13
 -1      2650 2.21620E+01 7.82938E-01 1.83715E-03 5.90812E-01 3.41159E-13 3.96335E-13
 -1      2651 2.19599E+01 1.01497E+00-9.35673E-03 6.44403E-01 3.74752E-13 2.86852E-13
 -1      2652 2.20721E+01 5.64864E-01 2.05502E-03 3.78879E-01 3.05936E-13 3.47439E-13
 -1      2653 3.00642E+01-1.21658E+00-4.72117E-02 1.46393E+00-1.13312E-13-5.03597E-13
 -1      2654 2.99192E+01 9.11171E-01-1.64681E-01 2.50322E+00-1.74222E-13-4.76189E-13
 -1      2655 2.14620E+01 5.26436E-01 1.67055E-02 1.45563E+00-5.57804E-14-2.47326E-13
 -1      2656 2.16457E+01 1.12268E-01 1.64525E-03 1.62806E+00 3.15785E-15-2.28587E-13
 -1      2657 2.19252E+01-3.39654E-01 2.65965E-02 1.82297E+00 3.87789E-14-1.82317E-13
 -1      2658 2.22801E+01-8.76633E-01-4.88541E-05 1.81423E+00 5.02684E-14-1.50020E-13
 -1      2659 2.09476E+01-4.76490E-02-2.48791E-02 1.96204E+00 2.95225E-14-2.34395E-13
 -1      2660 2.28703E+01-1.44545E+00 4.30214E-02 1.82645E+00 7.83703E-14-8.77735E-14
 -1      2661 2.34175E+01-2.07988E+00-9.73865E-03 1.57081E+00 1.01480E-13-5.31884E-14
 -1      2662 2.16751E+01-1.30093E+00-4.33997E-02 2.28071E+00 9.24478E-14-1.71656E-13
 -1      2663 2.44503E+01-2.63831E+00 5.69619E-02 1.22999E+00 1.22167E-13 1.86942E-14
 -1      2664 2.50800E+01-3.09550E+00-1.78876E-02 6.88703E-01 6.41952E-14 5.56465E-14
 -1      2665 2.31288E+01-2.78299E+00-5.81258E-02 2.14901E+00 1.27523E-13-7.01435E-14
 -1      2666 2.83180E+01 4.51596E-01-6.68816E-02 2.74635E+00-1.39694E-13-5.69732E-13
 -1      2667 2.80930E+01-1.39850E+00-1.08285E-01 2.40613E+00 4.10366E-14-5.91478E-13
 -1      2668 2.71499E+01-2.62841E+00-2.22761E-02 1.31287E+00 1.83521E-13-5.45206E-13
 -1      2669 2.65435E+01-3.19276E+00 1.05781E-02 5.05560E-01 2.89331E-13-3.94171E-13
 -1      2670 2.52125E+01-3.15488E+00-2.67654E-02-4.01145E-01 2.84887E-13-3.16119E-13
 -1      2671 2.45219E+01-2.77749E+00 4.75089E-02-1.02488E+00 2.79827E-13-2.87026E-13
 -1      2672 2.56204E+01-3.79063E+00-7.89370E-02-6.55331E-01 3.23226E-13-4.35520E-13
 -1      2673 2.34855E+01-2.30414E+00-1.48574E-02-1.46763E+00 2.43232E-13-2.96026E-13
 -1      2674 2.29045E+01-1.72464E+00 3.67574E-02-1.80919E+00 1.64743E-13-2.65460E-13
 -1      2675 2.33494E+01-2.94990E+00-4.60830E-02-1.88179E+00 2.57692E-13-3.40158E-13
 -1      2676 2.22620E+01-1.23549E+00-5.03817E-03-1.93557E+00 1.04251E-13-1.27633E-13
 -1      2677 2.18444E+01-7.63138E-01 2.02548E-02-2.05917E+00 1.77965E-13-1.31260E-13
 -1      2678 2.18273E+01-1.69191E+00-3.58646E-02-2.29960E+00 1.87740E-13-1.74994E-13
 -1      2679 2.15069E+01-4.12666E-01 5.65895E-04-2.02146E+00 1.74218E-13-1.69529E-13
 -1      2680 2.12258E+01-1.12752E-01 8.80637E-03-2.01367E+00 1.27974E-13-1.86874E-13
 -1      2681 2.09677E+01-6.49786E-01-2.09737E-02-2.29498E+00 1.58216E-13-9.39374E-14
 -1      2682 2.10699E+01 9.25467E-02 3.00560E-03-1.90634E+00 3.84300E-14-2.56028E-13
 -1      2683 2.08795E+01 2.51289E-01 2.65191E-03-1.82846E+00-5.24017E-14-2.58021E-13
 -1      2684 2.05419E+01 1.45493E-02-9.93458E-03-2.10479E+00 3.70523E-14-2.94024E-13
 -1      2685 2.08164E+01 3.49411E-01 3.91372E-03-1.69726E+00-1.10914E-13-2.87557E-13
 -1      2686 2.06790E+01 4.14777E-01-4.41625E-04-1.58797E+00-1.22879E-13-3.65308E-13
 -1      2687 2.03520E+01 3.67985E-01-3.59294E-03-1.84724E+00-7.37337E-14-3.30393E-13
 -1      2688 2.06569E+01 4.46267E-01 4.16310E-03-1.45450E+00-4.74752E-14-3.30394E-13
 -1      2689 2.05500E+01 4.57377E-01-1.76041E-03-1.33687E+00 3.59812E-14-3.41396E-13
 -1      2690 2.02734E+01 5.15164E-01-5.67530E-04-1.57552E+00-8.04519E-14-2.70615E-13
 -1      2691 2.05428E+01 4.52371E-01 4.10364E-03-1.21170E+00 4.04526E-14-3.54759E-13
 -1      2692 2.04548E+01 4.35586E-01-2.15892E-03-1.09882E+00-3.24926E-14-3.21938E-13
 -1      2693 2.02391E+01 5.41573E-01 5.97808E-04-1.31428E+00-3.93081E-14-3.50914E-13
 -1      2694 2.04505E+01 4.13392E-01 3.84856E-03-9.86944E-01-3.31211E-14-2.89003E-13
 -1      2695 2.03762E+01 3.84673E-01-2.10460E-03-8.85411E-01-7.34429E-14-1.87766E-13
 -1      2696 2.02177E+01 5.05253E-01 8.28729E-04-1.07579E+00-1.42889E-14-2.77462E-13
 -1      2697 2.03709E+01 3.56415E-01 3.47616E-03-7.88705E-01-1.17725E-13-2.49188E-13
 -1      2698 2.03078E+01 3.24616E-01-1.85540E-03-7.01159E-01-1.27496E-13-2.26409E-13
 -1      2699 2.01969E+01 4.41682E-01 6.78642E-04-8.65659E-01-1.11885E-13-2.32069E-13
 -1      2700 2.03007E+01 2.96144E-01 3.04427E-03-6.19678E-01-9.35088E-14-1.50086E-13
 -1      2701 2.02478E+01 2.65749E-01-1.54689E-03-5.46433E-01-8.90679E-14-1.19244E-13
 -1      2702 2.01737E+01 3.70742E-01 4.27229E-04-6.85543E-01-4.85988E-14-1.81849E-13
 -1      2703 2.02395E+01 2.39802E-01 2.59754E-03-4.79204E-01-1.55651E-13-6.82374E-14
 -1      2704 2.01958E+01 2.12792E-01-1.24540E-03-4.19321E-01-1.06574E-13-1.00307E-13
 -1      2705 2.01488E+01 3.02624E-01 1.94815E-04-5.34629E-01-6.97855E-14-4.49630E-14
 -1      2706 2.01871E+01 1.90405E-01 2.16771E-03-3.64840E-01-8.33635E-14-1.42460E-13
 -1      2707 2.01517E+01 1.67407E-01-9.79172E-04-3.16797E-01-7.64832E-14-1.28986E-13
 -1      2708 2.01239E+01 2.41902E-01 2.08881E-05-4.10626E-01-1.31391E-13-8.40686E-14
 -1      2709 2.01433E+01 1.48733E-01 1.77446E-03-2.73354E-01-1.92789E-14-2.33659E-13
 -1      2710 2.01150E+01 1.29696E-01-7.56572E-04-2.35438E-01 8.98493E-14-3.96404E-13
 -1      2711 2.01004E+01 1.90087E-01-9.16806E-05-3.10486E-01-8.72143E-14-1.57049E-13
 -1      2712 2.01075E+01 1.14478E-01 1.42774E-03-2.01320E-01 4.96219E-14-4.08331E-13
 -1      2713 2.00854E+01 9.90367E-02-5.76438E-04-1.71848E-01 8.49849E-15-3.93419E-13
 -1      2714 2.00793E+01 1.47123E-01-1.53838E-04-2.30896E-01 2.28814E-14-1.83731E-13
 -1      2715 2.00788E+01 8.68520E-02 1.13061E-03-1.45445E-01-6.61751E-14-5.15120E-13
 -1      2716 2.00618E+01 7.45309E-02-4.33721E-04-1.22875E-01-1.37672E-13-5.26123E-13
 -1      2717 2.00612E+01 1.12234E-01-1.79567E-04-1.68593E-01-1.35987E-13-3.83136E-13
 -1      2718 2.00564E+01 6.49182E-02 8.81754E-04-1.02748E-01 4.55297E-15-5.53792E-13
 -1      2719 2.00436E+01 5.52264E-02-3.22308E-04-8.57244E-02-5.70338E-16-4.10809E-13
 -1      2720 2.00461E+01 8.43673E-02-1.81414E-04-1.20551E-01-8.39212E-14-3.39185E-13
 -1      2721 2.00392E+01 4.77452E-02 6.77290E-04-7.06218E-02-2.77962E-14-4.18811E-13
 -1      2722 2.00297E+01 4.02244E-02-2.36325E-04-5.79878E-02-2.13663E-15-3.54502E-13
 -1      2723 2.00340E+01 6.24300E-02-1.69108E-04-8.40702E-02-2.60470E-15-4.41514E-13
 -1      2724 2.00263E+01 3.44795E-02 5.12131E-04-4.68474E-02-9.36674E-14-2.64116E-13
 -1      2725 2.00194E+01 2.87226E-02-1.70629E-04-3.76380E-02-9.41718E-14-3.07205E-13
 -1      2726 2.00243E+01 4.53949E-02-1.49555E-04-5.68166E-02 1.51526E-14-2.47581E-13
 -1      2727 2.00168E+01 2.43722E-02 3.80794E-04-2.95762E-02-1.25812E-13-3.24892E-13
 -1      2728 2.00120E+01 2.00288E-02-1.20926E-04-2.29995E-02-7.11120E-14-4.33102E-13
 -1      2729 2.00169E+01 3.23469E-02-1.27319E-04-3.68148E-02-8.21912E-14-1.82641E-13
 -1      2730 2.00100E+01 1.67840E-02 2.77913E-04-1.72940E-02 1.59238E-14-3.31614E-13
 -1      2731 2.00067E+01 1.35586E-02-8.37219E-05-1.27109E-02 1.07780E-13-3.72727E-13
 -1      2732 2.00114E+01 2.24962E-02-1.05212E-04-2.24269E-02 9.46058E-15-2.30056E-13
 -1      2733 2.00053E+01 1.11792E-02 1.98525E-04-8.78004E-03 7.40044E-14-4.59849E-13
 -1      2734 2.00031E+01 8.82627E-03-5.62159E-05-5.68202E-03-5.96715E-15-4.19781E-13
 -1      2735 2.00072E+01 1.51758E-02-8.48152E-05-1.23178E-02 1.06011E-14-2.45618E-13
 -1      2736 2.00021E+01 7.11544E-03 1.38214E-04-3.06485E-03-6.37137E-14-3.95766E-13
 -1      2737 2.00007E+01 5.43407E-03-3.61850E-05-1.05324E-03 3.87322E-16-3.84682E-13
 -1      2738 2.00043E+01 9.83140E-03-6.68861E-05-5.41654E-03 2.31298E-14-2.18887E-13
 -1      2739 2.00000E+01 4.23214E-03 9.31581E-05 6.10139E-04 5.64439E-14-5.11153E-13
 -1      2740 1.99993E+01 3.05965E-03-2.18825E-05 1.84312E-03 8.37025E-14-5.19702E-13
 -1      2741 2.00023E+01 6.00877E-03-5.16656E-05-8.77404E-04-4.44821E-14-3.36405E-13
 -1      2742 1.99988E+01 2.23859E-03 6.01286E-05 2.82910E-03 2.26885E-13-6.47611E-13
 -1      2743 1.99985E+01 1.44457E-03-1.19516E-05 3.51710E-03 1.57235E-13-7.07795E-13
 -1      2744 2.00009E+01 3.33988E-03-3.90899E-05 1.95694E-03 8.03902E-14-6.65473E-13
 -1      2745 1.99982E+01 9.02546E-04 3.64512E-05 4.03408E-03 9.00954E-14-5.73293E-13
 -1      2746 1.99981E+01 3.83280E-04-5.35394E-06 4.35090E-03 7.53415E-15-6.02406E-13
 -1      2747 2.00000E+01 1.52961E-03-2.89352E-05 3.58861E-03 2.26769E-13-7.47398E-13
 -1      2748 1.99979E+01 3.97297E-05 1.99457E-05 4.55259E-03-5.52464E-14-5.33951E-13
 -1      2749 1.99980E+01-2.86966E-04-1.30633E-06 4.62422E-03-2.98119E-14-4.90990E-13
 -1      2750 1.99995E+01 3.43153E-04-2.09166E-05 4.39363E-03-1.20188E-14-6.42329E-13
 -1      2751 1.99979E+01-4.95802E-04 8.90655E-06 4.62071E-03 2.21242E-13-4.63999E-13
 -1      2752 1.99981E+01-6.95171E-04 8.39843E-07 4.53513E-03 2.62254E-13-3.69642E-13
 -1      2753 1.99992E+01-4.05535E-04-1.47312E-05 4.64689E-03 1.26018E-13-5.57155E-13
 -1      2754 1.99981E+01-8.19983E-04 2.11608E-06 4.40164E-03 2.07419E-13-2.64793E-13
 -1      2755 1.99983E+01-9.43764E-04 1.72596E-06 4.21684E-03 1.42433E-13-8.47136E-14
 -1      2756 1.99991E+01-8.64170E-04-9.94618E-06 4.54213E-03 2.78568E-13-5.66043E-13
 -1      2757 1.99983E+01-1.02495E-03-1.49201E-06 4.00200E-03 1.01520E-13 2.88009E-14
 -1      2758 1.99986E+01-1.11556E-03 1.02901E-06 3.75334E-03 1.44812E-13 1.16734E-13
 -1      2759 1.99991E+01-1.14933E-03-6.22659E-06 4.20963E-03 1.91335E-13-2.91595E-13
 -1      2760 1.99986E+01-1.18710E-03-3.44758E-06 3.48305E-03 3.00725E-14 1.63365E-13
 -1      2761 1.99989E+01-1.27479E-03-1.98356E-06 3.18891E-03-1.34364E-13 8.80375E-14
 -1      2762 1.99991E+01-1.35735E-03-4.18997E-06 3.73344E-03 8.69925E-14-3.28337E-14
 -1      2763 1.99990E+01-1.37670E-03-7.71458E-06 2.99539E-03-2.14950E-13 2.19906E-13
 -1      2764 1.99992E+01-1.50980E-03-4.18559E-06 2.72346E-03-1.38107E-13 2.63913E-13
 -1      2765 1.99995E+01-1.78599E-03 8.12585E-06 2.81664E-03-1.81886E-13 2.82587E-13
 -1      2766 1.99993E+01-1.55561E-03-4.47443E-07 3.25219E-03-6.20850E-14 3.15649E-13
 -1      2767 2.24521E+01-8.51032E-01-1.26246E-02 3.99963E-01 8.59918E-14 1.51906E-13
 -1      2768 2.24095E+01-7.02234E-01 1.39764E-02 2.21413E-01 1.10220E-13 1.41925E-13
 -1      2769 2.27032E+01-9.09340E-01-8.71118E-03 8.95519E-01 5.39603E-14 2.08575E-13
 -1      2770 2.26906E+01-9.20840E-01 7.57408E-03 6.57482E-01 5.08621E-14 1.66595E-13
 -1      2771 2.27519E+01-1.07929E+00-4.08739E-03 4.09746E-01 6.65131E-14 5.94104E-14
 -1      2772 2.21687E+01-5.05394E-01-9.78067E-03 8.37748E-02 1.32838E-13 1.09023E-13
 -1      2773 2.21380E+01-2.69243E-01 2.02051E-02 2.96328E-02 1.37915E-13 1.25722E-13
 -1      2774 2.22929E+01-7.24342E-01-1.05762E-02 2.40483E-02 1.06936E-13 6.72519E-14
 -1      2775 2.26542E+01 2.83725E-01 1.36901E-02 1.62617E+00 1.40973E-13 2.72249E-13
 -1      2776 2.27660E+01-1.84391E-01-2.11476E-02 1.60525E+00 1.00579E-13 2.65186E-13
 -1      2777 2.23261E+01 1.28794E+00 1.93528E-02 1.28445E+00 2.17317E-13 2.00351E-13
 -1      2778 2.24485E+01 7.82139E-01-2.90504E-02 1.53790E+00 1.78337E-13 2.55184E-13
 -1      2779 2.31637E+01 6.46669E-01 4.95772E-03 1.73477E+00 1.69891E-13 2.33838E-13
 -1      2780 2.20492E+01 1.94114E+00 9.09466E-03 3.44605E-01 3.05362E-13 1.24149E-13
 -1      2781 2.21054E+01 1.68524E+00-1.88890E-02 8.27861E-01 2.71177E-13 1.50630E-13
 -1      2782 2.28028E+01 1.82080E+00-7.73176E-03 1.19857E+00 2.64814E-13 1.86028E-13
 -1      2783 2.20571E+01 1.79474E+00-2.05492E-02-8.13261E-01 2.79214E-13 1.04712E-13
 -1      2784 2.20168E+01 1.97047E+00-5.12089E-04-3.14622E-01 3.11209E-13 1.13637E-13
 -1      2785 2.25845E+01 2.39514E+00-1.14899E-02 2.72765E-02 3.23475E-13 1.13426E-13
 -1      2786 2.23473E+01 9.44421E-01-4.12224E-02-1.61862E+00 1.79386E-13 1.34948E-14
 -1      2787 2.22575E+01 1.44875E+00 1.84323E-02-1.32932E+00 2.32725E-13 1.84349E-14
 -1      2788 2.27493E+01 1.97427E+00 6.20623E-03-1.22284E+00 2.87117E-13 1.97524E-14
 -1      2789 2.27075E+01-5.43619E-02-2.37468E-02-1.80403E+00 8.03669E-14-1.23714E-13
 -1      2790 2.25913E+01 4.61447E-01 1.93639E-02-1.78637E+00 1.26292E-13-4.65746E-14
 -1      2791 2.30469E+01 9.15157E-01 1.59547E-02-1.90993E+00 2.10099E-13-1.62032E-13
 -1      2792 2.28183E+01-7.91164E-01-1.04691E-02-1.41408E+00 8.46162E-14-1.90179E-13
 -1      2793 2.27574E+01-4.74822E-01 2.00523E-04-1.61228E+00 9.18198E-14-1.67253E-13
 -1      2794 2.32668E+01-3.39653E-01 8.30334E-03-1.79120E+00 1.69616E-13-2.57993E-13
 -1      2795 2.26456E+01-1.07747E+00 1.41526E-03-7.86079E-01-1.97325E-15-1.43510E-13
 -1      2796 2.26744E+01-9.87869E-01-8.90286E-03-1.06998E+00 2.66436E-14-1.84768E-13
 -1      2797 2.31167E+01-1.11061E+00 5.35999E-03-1.18838E+00 5.78476E-14-2.68327E-13
 -1      2798 2.22967E+01-1.01542E+00 8.20969E-03-1.76060E-01-8.08782E-15-5.38449E-14
 -1      2799 2.23900E+01-1.08313E+00-1.13499E-02-4.46533E-01 3.40576E-14-7.54369E-14
 -1      2800 2.26936E+01-1.32753E+00 2.03922E-03-4.76299E-01-2.51268E-14-2.32621E-13
 -1      2801 2.18876E+01-7.75253E-01 9.17944E-03 2.90814E-01-4.91360E-14-7.47397E-14
 -1      2802 2.20130E+01-9.12976E-01-1.07170E-02 8.38956E-02-5.37287E-15-9.79868E-14
 -1      2803 2.21601E+01-1.18307E+00-5.24944E-03 1.28025E-01 4.42519E-14-1.45582E-13
 -1      2804 2.15023E+01-4.94177E-01 7.87613E-03 5.87891E-01-6.44206E-14-4.22547E-14
 -1      2805 2.16351E+01-6.38944E-01-7.89734E-03 4.55181E-01-7.40454E-14-4.78054E-14
 -1      2806 2.16498E+01-8.64284E-01-7.65534E-03 5.40906E-01-6.49963E-14-1.70371E-13
 -1      2807 2.11760E+01-2.47920E-01 5.81419E-03 7.38605E-01-5.51338E-14-7.51780E-14
 -1      2808 2.13019E+01-3.68082E-01-4.74929E-03 6.70833E-01-2.34874E-14-4.61762E-14
 -1      2809 2.12269E+01-5.24805E-01-6.99342E-03 7.73544E-01-5.18023E-14-1.13941E-13
 -1      2810 2.09142E+01-6.42847E-02 3.79915E-03 7.81224E-01 1.91888E-14-1.35727E-14
 -1      2811 2.10271E+01-1.50410E-01-2.22009E-03 7.62326E-01-3.01484E-15-5.28280E-15
 -1      2812 2.09031E+01-2.40833E-01-5.39875E-03 8.67191E-01-4.41547E-14-2.28111E-14
 -1      2813 2.07090E+01 5.61733E-02 2.20167E-03 7.52503E-01-1.62314E-13 3.93241E-15
 -1      2814 2.08074E+01 1.86773E-03-4.42995E-04 7.66329E-01-5.70142E-14-1.24242E-14
 -1      2815 2.06656E+01-3.56616E-02-3.84113E-03 8.65858E-01-8.04130E-14-3.54682E-14
 -1      2816 2.05492E+01 1.24696E-01 1.08551E-03 6.82053E-01-1.41434E-14 6.43509E-14
 -1      2817 2.06335E+01 9.54938E-02 7.05327E-04 7.15166E-01-1.35031E-13-8.53680E-15
 -1      2818 2.04944E+01 9.50618E-02-2.62292E-03 8.05989E-01-1.49961E-13-1.52732E-13
 -1      2819 2.04244E+01 1.55383E-01 3.73841E-04 5.91498E-01 8.43551E-14 1.74249E-13
 -1      2820 2.04957E+01 1.43933E-01 1.37453E-03 6.33884E-01 6.68006E-14 1.29813E-13
 -1      2821 2.03710E+01 1.66562E-01-1.77665E-03 7.14672E-01-2.24591E-14-1.09345E-13
 -1      2822 2.03264E+01 1.61007E-01-3.92029E-05 4.95480E-01 1.77099E-13 1.15863E-13
 -1      2823 2.03860E+01 1.60991E-01 1.69761E-03 5.40289E-01 1.68231E-13 2.08037E-13
 -1      2824 2.02810E+01 1.95840E-01-1.22858E-03 6.10701E-01 1.04164E-13 7.80954E-14
 -1      2825 2.02492E+01 1.51574E-01-2.50368E-04 4.03176E-01 1.21401E-13 1.18193E-13
 -1      2826 2.02984E+01 1.58192E-01 1.78322E-03 4.46109E-01 1.59554E-13 1.24360E-13
 -1      2827 2.02141E+01 1.97647E-01-8.86589E-04 5.06345E-01 1.40128E-13 9.75226E-14
 -1      2828 2.01884E+01 1.34256E-01-3.34315E-04 3.19754E-01 1.90099E-13 1.29898E-13
 -1      2829 2.02284E+01 1.44143E-01 1.71593E-03 3.58409E-01 1.50461E-13 1.24735E-13
 -1      2830 2.01635E+01 1.83299E-01-6.74023E-04 4.09014E-01 1.67038E-13 6.79042E-14
 -1      2831 2.01406E+01 1.13832E-01-3.43891E-04 2.47606E-01 1.70518E-16 7.72837E-14
 -1      2832 2.01727E+01 1.24789E-01 1.55916E-03 2.80896E-01 1.64972E-13 1.64855E-13
 -1      2833 2.01246E+01 1.60794E-01-5.37280E-04 3.22656E-01 1.64348E-13 5.12047E-14
 -1      2834 2.01033E+01 9.32728E-02-3.14161E-04 1.87306E-01-1.64164E-13 1.12636E-13
 -1      2835 2.01286E+01 1.03967E-01 1.35844E-03 2.15003E-01-1.07396E-13 4.12766E-14
 -1      2836 2.00945E+01 1.35409E-01-4.42861E-04 2.48855E-01 4.31835E-14-9.34486E-14
 -1      2837 2.00745E+01 7.42652E-02-2.67128E-04 1.38321E-01-1.13991E-13 7.49368E-14
 -1      2838 2.00941E+01 8.39660E-02 1.14487E-03 1.60711E-01-1.54302E-13 6.97200E-14
 -1      2839 2.00710E+01 1.10383E-01-3.71558E-04 1.87670E-01-1.22205E-13-8.66481E-14
 -1      2840 2.00525E+01 5.76325E-02-2.15797E-04 9.95099E-02-3.70490E-15 8.54470E-14
 -1      2841 2.00674E+01 6.60081E-02 9.38311E-04 1.17158E-01-3.25482E-14 6.95611E-14
 -1      2842 2.00527E+01 8.75235E-02-3.13228E-04 1.38245E-01-7.15034E-14-2.54867E-13
 -1      2843 2.00359E+01 4.36485E-02-1.67259E-04 6.94636E-02-8.85414E-14 2.15272E-13
 -1      2844 2.00471E+01 5.06176E-02 7.50280E-04 8.30489E-02 3.45603E-14 1.60301E-13
 -1      2845 2.00385E+01 6.76775E-02-2.62979E-04 9.92443E-02-7.37167E-14-3.81171E-14
 -1      2846 2.00237E+01 3.22583E-02-1.24888E-04 4.67206E-02-1.51014E-14 7.76363E-15
 -1      2847 2.00318E+01 3.78858E-02 5.86385E-04 5.69400E-02-8.10276E-14 2.34636E-14
 -1      2848 2.00275E+01 5.10863E-02-2.18700E-04 6.91416E-02 1.80703E-14-1.09440E-14
 -1      2849 2.00148E+01 2.32277E-02-8.98313E-05 2.98973E-02 2.07322E-14 1.12253E-13
 -1      2850 2.00206E+01 2.76551E-02 4.48269E-04 3.74039E-02 2.29821E-14 7.56403E-14
 -1      2851 2.00193E+01 3.76315E-02-1.79594E-04 4.64083E-02-3.43405E-14 1.36799E-14
 -1      2852 2.00084E+01 1.62409E-02-6.19884E-05 1.77564E-02 1.62872E-13 1.25262E-13
 -1      2853 2.00125E+01 1.96413E-02 3.35084E-04 2.31295E-02 7.67306E-14 1.40349E-13
 -1      2854 2.00130E+01 2.70029E-02-1.45376E-04 2.96226E-02 1.80180E-14-3.80732E-14
 -1      2855 2.00041E+01 1.09611E-02-4.06278E-05 9.23614E-03 2.27928E-13 1.58778E-14
 -1      2856 2.00068E+01 1.35120E-02 2.44568E-04 1.29696E-02 2.71198E-13 1.11034E-13
 -1      2857 2.00085E+01 1.88065E-02-1.15874E-04 1.75270E-02 2.27539E-13 6.23907E-14
 -1      2858 2.00012E+01 7.06545E-03-2.47659E-05 3.45415E-03 1.29334E-13-1.14661E-14
 -1      2859 2.00029E+01 8.93297E-03 1.73785E-04 5.95554E-03 1.51686E-13-7.64514E-15
 -1      2860 2.00052E+01 1.26315E-02-9.08628E-05 9.04997E-03 2.18992E-13 9.61372E-14
 -1      2861 1.99994E+01 4.26346E-03-1.33850E-05-3.03247E-04 1.93890E-13-1.85484E-13
 -1      2862 2.00004E+01 5.59507E-03 1.19617E-04 1.29375E-03 1.85317E-13-1.74807E-14
 -1      2863 2.00028E+01 8.08922E-03-7.00250E-05 3.30484E-03 1.43426E-13-9.04882E-14
 -1      2864 1.99984E+01 2.30474E-03-5.55144E-06-2.59937E-03-1.17947E-13 5.35140E-14
 -1      2865 1.99988E+01 3.22623E-03 7.90619E-05-1.64982E-03 1.51277E-14-1.43533E-13
 -1      2866 2.00012E+01 4.83262E-03-5.29572E-05-4.22971E-04-2.17537E-14-1.35963E-13
 -1      2867 1.99979E+01 9.79699E-04-4.71245E-07-3.86836E-03-3.65453E-14 1.95753E-13
 -1      2868 1.99980E+01 1.59551E-03 4.94090E-05-3.36969E-03-8.14431E-14 1.24296E-13
 -1      2869 2.00002E+01 2.56379E-03-3.92083E-05-2.69611E-03-9.39431E-14 1.40812E-13
 -1      2870 1.99977E+01 1.16537E-04 2.49174E-06-4.43637E-03-2.26357E-14 2.02159E-13
 -1      2871 1.99976E+01 5.11802E-04 2.83134E-05-4.24217E-03 4.59883E-14 1.38256E-13
 -1      2872 1.99996E+01 1.03418E-03-2.83187E-05-3.94724E-03 8.80447E-14 1.22004E-13
 -1      2873 1.99978E+01-4.23836E-04 3.82791E-06-4.54098E-03 5.71994E-14-7.21149E-16
 -1      2874 1.99976E+01-1.80424E-04 1.38248E-05-4.54589E-03-1.11684E-14 1.42587E-13
 -1      2875 1.99992E+01 4.03707E-05-1.98588E-05-4.50065E-03 2.28313E-14 8.58871E-14
 -1      2876 1.99980E+01-7.53623E-04 3.89734E-06-4.34820E-03 1.38888E-13-5.78816E-14
 -1      2877 1.99978E+01-6.06750E-04 4.38410E-06-4.47994E-03 5.50791E-14 1.35314E-13
 -1      2878 1.99990E+01-5.82238E-04-1.34475E-05-4.59208E-03 5.93205E-14 1.20498E-13
 -1      2879 1.99983E+01-9.62675E-04 3.21796E-06-3.96675E-03-1.09412E-13 9.15967E-14
 -1      2880 1.99980E+01-8.68394E-04-1.21598E-06-4.17930E-03 5.79906E-14 1.94254E-13
 -1      2881 1.99990E+01-9.66300E-04-8.69242E-06-4.38581E-03-8.23710E-15 3.73712E-13
 -1      2882 1.99986E+01-1.12524E-03 1.28417E-06-3.46071E-03 3.74462E-14 1.01851E-13
 -1      2883 1.99983E+01-1.04887E-03-4.88940E-06-3.72976E-03-2.24422E-14 6.52095E-14
 -1      2884 1.99991E+01-1.21633E-03-4.88957E-06-3.98939E-03-3.12777E-14 3.60928E-13
 -1      2885 1.99990E+01-1.31800E-03-3.27216E-06-2.88059E-03-1.54188E-13 1.17178E-13
 -1      2886 1.99987E+01-1.22677E-03-6.83277E-06-3.19444E-03-4.98541E-14 1.30157E-13
 -1      2887 1.99992E+01-1.43531E-03-4.13617E-07-3.48093E-03-1.84314E-14 2.85594E-13
 -1      2888 1.99994E+01-1.66975E-03 5.55323E-06-2.89168E-03-8.33367E-14-6.71637E-14
 -1      2889 2.72774E+01-3.63234E+00-1.50671E-01 1.57135E+00 1.24848E-13-4.94410E-13
 -1      2890 2.55243E+01-4.64374E+00 8.59613E-02 3.45187E+00 1.13937E-14-3.84526E-13
 -1      2891 2.00006E+01-2.71851E-03 1.22658E-05-2.53069E-03 3.26589E-13 6.85842E-14
 -1      2892 2.00003E+01-2.46018E-03-4.11340E-06-2.69845E-03 1.63324E-13 1.67342E-13
 -1      2893 2.00014E+01-3.44711E-03 1.01815E-05-1.15334E-03 1.83677E-14-4.99138E-13
 -1      2894 2.00013E+01-3.31822E-03 1.05500E-06-1.54616E-03 2.40903E-13-2.84774E-13
 -1      2895 2.00001E+01-2.23027E-03 1.01617E-05-2.84128E-03 1.31877E-13 1.09208E-13
 -1      2896 1.99997E+01-1.92033E-03-3.21317E-06-2.85838E-03 8.41272E-14-1.03968E-13
 -1      2897 1.99996E+01-1.78183E-03-5.36044E-06-3.17614E-03 1.19516E-13 9.69233E-14
 -1      2898 2.00003E+01-2.22772E-03-1.30142E-06-3.01597E-03 3.07478E-13 1.71086E-13
 -1      2899 2.00011E+01-3.15721E-03 1.19698E-05-1.94445E-03 2.55817E-13-6.38639E-14
 -1      2900 2.00009E+01-2.95433E-03-3.43454E-06-2.24896E-03 3.88320E-13-1.48282E-13
 -1      2901 2.00009E+01-2.65816E-03-6.63784E-06-2.59795E-03 3.02430E-13 1.25414E-13
 -1      2902 2.00015E+01-3.02075E-03-6.54616E-06-1.88989E-03 1.83429E-13-4.20374E-13
 -1      2903 9.65537E+00-2.21018E+00 6.03747E-02 5.38260E+00-2.52756E-13 3.27571E-13
 -1      2904 7.41863E+00-1.18306E+00 1.73514E-01 3.33776E+00-1.11106E-13 4.44395E-13
 -1      2905 2.00015E+01-3.53257E-03 4.87219E-06 6.86678E-04 6.67949E-14-1.24621E-13
 -1      2906 2.00015E+01-3.57624E-03 7.63218E-06 2.48469E-04 7.16655E-14-6.24048E-14
 -1      2907 2.00013E+01-3.32798E-03 1.16015E-06 1.53743E-03 1.81618E-13-3.92105E-13
 -1      2908 2.00014E+01-3.45347E-03 9.99846E-06 1.15018E-03 7.35748E-14-1.39368E-13
 -1      2909 2.00018E+01-3.25198E-03-7.35639E-06 9.88338E-04 2.56497E-13-1.94131E-13
 -1      2910 2.00009E+01-2.96673E-03-3.16604E-06 2.24688E-03 2.02939E-13-2.16953E-13
 -1      2911 2.00011E+01-3.16851E-03 1.21467E-05 1.93974E-03 1.86570E-13-2.51732E-13
 -1      2912 2.00015E+01-3.03372E-03-6.66466E-06 1.88306E-03 2.40939E-13-2.99373E-13
 -1      2913 2.00003E+01-2.46801E-03-4.36892E-06 2.70794E-03-1.01072E-13 6.08040E-13
 -1      2914 2.00006E+01-2.73129E-03 1.24352E-05 2.53332E-03 1.50645E-13 6.55893E-14
 -1      2915 2.00010E+01-2.67109E-03-4.87765E-06 2.59898E-03 2.22681E-13-8.32766E-14
 -1      2916 2.80960E+01 5.35827E+00-1.64430E-01 1.43810E+00 6.45151E-13 7.79099E-14
 -1      2917 2.83253E+01 6.48190E+00-1.62740E-01 5.49440E-01 7.79404E-13 9.86017E-15
 -1      2918 6.15629E+00-8.04562E-01 1.21130E-01 1.34540E+00 6.07153E-14 4.84918E-13
 -1      2919 6.17886E+00-7.97953E-01 1.34990E-01-8.34810E-01 1.33053E-13 5.34295E-13
 -1      2920 2.70368E+01-4.47300E+00 7.59070E-02-1.22624E+00 2.88179E-13-5.32213E-13
 -1      2921 2.86372E+01-3.25697E+00-1.25655E-01 1.94838E-01 1.07053E-13-5.29660E-13
 -1      2922 7.44262E+00-1.17224E+00 1.76411E-01-2.79994E+00 2.92898E-13 6.03878E-13
 -1      2923 9.71745E+00-2.20090E+00 7.80185E-02-4.87457E+00 2.97207E-13 4.94826E-13
 -1      2924 2.11185E+01-5.28735E+00 1.53902E-01-5.06014E+00 4.39399E-13-1.87979E-13
 -1      2925 2.44910E+01-5.55538E+00-1.04662E-01-3.64558E+00 3.33483E-13-5.04694E-13
 -1      2926 2.79161E+01-2.69975E+00 1.13242E-02-6.30836E-01-8.33916E-14 8.54872E-14
 -1      2927 2.84398E+01-1.63511E+00-1.49384E-01 2.49078E-01 6.57321E-14 1.68379E-13
 -1      2928 2.00015E+01-3.57474E-03 7.81359E-06-2.45556E-04 2.41285E-14-1.48290E-13
 -1      2929 2.00015E+01-3.53041E-03 4.65130E-06-6.83418E-04 6.29667E-14-4.27996E-13
 -1      2930 2.00019E+01-3.32330E-03-7.35778E-06 6.32240E-07 2.07796E-13-9.30646E-14
 -1      2931 1.82599E+01-4.80621E+00-4.73798E-02 6.05002E+00 2.30732E-13-3.43434E-13
 -1      2932 1.49499E+01-3.72550E+00 1.47475E-01 6.05926E+00 2.91434E-13-5.42261E-13
 -1      2933 2.84347E+01 6.70390E+00-1.81528E-01-3.33378E-01 8.38413E-13-5.84810E-14
 -1      2934 2.85419E+01 6.10612E+00-1.40971E-01-1.24329E+00 8.62033E-13-1.61662E-13
 -1      2935 1.77471E+01-4.22594E+00 1.34762E-01-6.31840E+00-3.27086E-13-4.67987E-13
 -1      2936 2.09592E+01-4.97655E+00-7.00548E-02-5.70772E+00-3.20174E-13-3.51889E-13
 -1      2937 2.12821E+01 1.25002E+00 9.70061E-03 8.38494E-01-1.43618E-13-3.33756E-13
 -1      2938 2.13511E+01 8.89942E-01-3.50335E-04 1.15295E+00-1.06212E-13-3.01711E-13
 -1      2939 2.06548E+01 9.22271E-01-1.09593E-02 1.40285E+00-5.75532E-14-3.20235E-13
 -1      2940 2.42334E+01-4.69050E+00 1.02206E-01-4.02294E+00-3.03757E-13-1.86864E-13
 -1      2941 2.64726E+01-4.08035E+00-1.20178E-01-2.36158E+00-1.75991E-13-2.46192E-14
 -1      2942 2.83702E+01 1.10186E-01-1.58830E-01-1.44714E+00 3.72077E-13-4.12476E-13
 -1      2943 2.84554E+01-1.72150E+00 9.38895E-04-4.07470E-01 2.41640E-13-5.15865E-13
 -1      2944 1.15522E+01-2.16988E+00 1.54713E-01-5.84331E+00-2.85799E-13-7.98916E-13
 -1      2945 1.43660E+01-3.40105E+00 2.69036E-02-6.62556E+00-2.93265E-13-6.65579E-13
 -1      2946 2.53500E+01-5.16471E+00-1.17727E-01 3.12767E+00 2.41474E-15-5.52336E-15
 -1      2947 2.22228E+01-5.04915E+00 1.51084E-01 4.73977E+00 1.72834E-13-1.53565E-13
 -1      2948 1.91926E+01 2.49733E+00 3.23097E-03-4.46615E-01 3.23394E-13-2.95007E-13
 -1      2949 1.86756E+01 2.69537E+00-1.02595E-02-6.15043E-01 2.74219E-13-3.64159E-13
 -1      2950 1.85334E+01 2.41024E+00-4.47605E-03-8.89272E-01 2.25366E-13-3.65786E-13
 -1      2951 1.96052E+01 1.90526E+00-4.72198E-03-5.47861E-01 2.82225E-13-2.40570E-13
 -1      2952 7.10775E+00-1.73131E-01 1.79434E-01-2.16502E+00-7.54397E-14-9.21624E-13
 -1      2953 8.77201E+00-9.79241E-01 9.55949E-02-4.50147E+00-1.60497E-13-8.76438E-13
 -1      2954 1.18428E+01-2.68015E+00 6.85153E-02 5.72904E+00 2.44610E-13-7.03104E-13
 -1      2955 9.21601E+00-1.43341E+00 1.60813E-01 4.29159E+00 2.34826E-13-7.93504E-13
 -1      2956 2.89542E+01-2.97784E+00-1.16042E-01-2.88640E-01-3.09394E-13 1.94816E-13
 -1      2957 2.78905E+01-4.00694E+00 7.01240E-02 8.98613E-01-1.51395E-13 1.52475E-13
 -1      2958 2.84419E+01 4.60428E+00-1.74844E-01-1.78852E+00 7.35273E-13-2.42723E-13
 -1      2959 2.83525E+01 2.71237E+00-1.09012E-01-1.95219E+00 5.33462E-13-3.27072E-13
 -1      2960 7.10547E+00-6.40514E-01 1.29121E-01 2.56590E+00 1.44620E-13-8.53345E-13
 -1      2961 6.31018E+00-1.82162E-01 1.09660E-01 1.84590E-01 6.53169E-14-9.03055E-13
 -1      2962 1.70027E+01 3.72228E+00-1.23673E-02 4.58451E-02 5.37334E-14-5.85598E-13
 -1      2963 1.74511E+01 3.58182E+00 8.57706E-04 1.46251E-01 4.65575E-15-5.90336E-13
 -1      2964 2.27990E+01-5.38730E-01 9.00032E-04 1.40220E+00 6.78433E-14 2.43827E-13
 -1      2965 2.28501E+01-7.88050E-01-5.79825E-03 1.20464E+00 6.40687E-14 2.46302E-13
 -1      2966 2.31559E+01-1.03803E+00 6.94257E-03 9.95458E-01 4.74987E-14 1.13923E-13
 -1      2967 2.33243E+01-4.48567E-01 1.12373E-02 1.56020E+00 8.40833E-14 1.94924E-13
 -1      2968 1.61031E+01-4.27438E+00 4.89398E-02 6.57931E+00-2.61249E-13 1.20695E-13
 -1      2969 1.30841E+01-3.25732E+00 1.57639E-01 6.24482E+00-2.53547E-13 1.64646E-13
 -1      2970 1.31622E+01-3.47810E+00 1.63156E-01-5.83242E+00 2.90434E-13 2.38518E-13
 -1      2971 1.68005E+01-4.80413E+00-4.25715E-02-6.18720E+00 3.80668E-13 1.12910E-13
 -1      2972 2.10117E+01 1.97077E+00-1.12582E-03 2.23479E-01-1.96935E-13-4.34632E-13
 -1      2973 2.11881E+01 1.53977E+00 1.23131E-03 5.80058E-01-1.78441E-13-3.80957E-13
 -1      2974 2.05114E+01 1.66673E+00-2.24164E-03 8.06454E-01-1.27486E-13-4.05409E-13
 -1      2975 2.03467E+01 2.31618E+00-6.48763E-03 2.63881E-01-1.57405E-13-4.79566E-13
 -1      2976 1.80139E+01 3.30109E+00-1.39723E-02 2.89504E-01-2.07354E-14-5.71319E-13
 -1      2977 1.86677E+01 3.05955E+00 3.88062E-04 3.13083E-01-6.14376E-14-5.60117E-13
 -1      2978 1.76778E+01 3.14906E+00 9.24953E-03 4.29281E-01 5.50655E-15-5.43084E-13
 -1      2979 2.40800E+01-4.93780E+00 5.56532E-02 3.98119E+00-9.24816E-14-3.25420E-13
 -1      2980 1.67243E+01 3.39609E+00 7.82925E-03-8.55679E-01 1.27038E-13-4.87868E-13
 -1      2981 1.66528E+01 3.77845E+00 2.48480E-03-6.47878E-01 1.40435E-13-5.24733E-13
 -1      2982 1.65196E+01 3.84249E+00-1.16432E-02-5.42866E-01 1.09031E-13-5.61938E-13
 -1      2983 2.16037E+01 1.31748E+00 4.81339E-03 5.61360E-01 3.81881E-13 1.51072E-13
 -1      2984 1.71563E+01-3.35150E+00 1.29133E-01-5.93461E+00-3.13555E-13-5.02667E-13
 -1      2985 9.88841E+00-4.29152E-01 1.86823E-01 3.24892E+00 2.11532E-13-7.76518E-13
 -1      2986 2.81742E+01-2.54261E+00-4.74613E-02 1.40985E+00 1.71307E-13-5.37695E-13
 -1      2987 2.91006E+01 1.90642E+00-1.31339E-01 2.86649E+00-2.73975E-13-5.50684E-13
 -1      2988 2.59347E+01-3.73079E+00-4.57348E-02 8.63148E-01-4.04277E-15 1.04191E-13
 -1      2989 2.68718E+01-3.10357E+00 4.51204E-03-4.46036E-01-9.49622E-14 1.87052E-13
 -1      2990 2.74461E+01-2.46493E+00-4.87178E-02-1.25916E+00-2.06314E-13 1.95309E-13
 -1      2991 2.82465E+01-1.65800E+00-1.03209E-01-1.95781E+00-3.06762E-13 1.66749E-13
 -1      2992 2.85071E+01 7.23539E-02-9.38808E-02-2.36209E+00-4.42063E-13 1.47875E-13
 -1      2993 2.91867E+01 1.96435E+00-1.75287E-01-2.60603E+00-5.99604E-13-2.01505E-14
 -1      2994 2.90766E+01 3.92687E+00-1.46422E-01-1.96481E+00-7.43461E-13-1.53044E-13
 -1      2995 2.89348E+01 5.20517E+00-2.39768E-01-1.11849E+00-8.22259E-13-3.08982E-13
 -1      2996 2.89015E+01 5.62480E+00-1.77446E-01 2.87139E-01-7.94698E-13-4.72676E-13
 -1      2997 1.27925E+01-2.16102E+00 1.59607E-01 5.34898E+00-2.50577E-13 2.15411E-13
 -1      2998 1.82600E+01-4.49424E+00 1.14773E-01 6.07177E+00-2.80415E-13 5.81722E-14
 -1      2999 1.75703E+01-3.67098E+00 7.97346E-02 5.75184E+00-2.57266E-13 7.01245E-14
 -1      3000 2.01680E+01-4.79539E+00-4.62224E-02 5.36733E+00-2.94445E-13-2.08514E-15
 -1      3001 2.71328E+01-2.94383E+00-2.88050E-02 4.61799E-01 1.02235E-13-4.85750E-13
 -1      3002 8.61224E+00-4.10158E-01 1.94037E-01 2.31310E+00-5.55667E-14 4.19775E-13
 -1      3003 2.61426E+01-4.48208E+00-2.81180E-02 1.69600E+00 6.33521E-15 6.36158E-14
 -1      3004 1.14866E+01-1.02106E+00 1.49779E-01-4.77525E+00-2.13524E-13-7.69718E-13
 -1      3005 1.47086E+01-2.58810E+00 1.40513E-01 5.39782E+00 3.18606E-13-5.50643E-13
 -1      3006 2.70750E+01 5.87602E+00-1.25281E-01 1.15489E-01 7.41324E-13 3.73790E-14
 -1      3007 2.78210E+01 3.98754E+00-1.62811E-01 1.86985E+00 4.92287E-13 1.73604E-13
 -1      3008 2.65477E+01 4.61695E+00-9.57113E-02 1.58693E+00 5.52738E-13 2.04226E-13
 -1      3009 2.72712E+01 2.75558E+00-4.73462E-02 2.03263E+00 3.58866E-13 2.48121E-13
 -1      3010 1.99998E+01-2.00795E-03-1.78548E-06 2.82706E-03-1.46374E-13 4.55820E-13
 -1      3011 2.00001E+01-2.26769E-03 1.01158E-05 2.79920E-03-1.50111E-13 6.40483E-13
 -1      3012 2.00003E+01-2.27738E-03-3.29464E-06 2.98309E-03 1.19505E-13 5.65673E-13
 -1      3013 1.99997E+01-1.88435E-03-3.64477E-06 3.05885E-03-4.84787E-14 3.15957E-13
 -1      3014 2.72334E+01 4.78539E+00-1.04672E-01-1.65695E+00 6.77625E-13-1.84776E-13
 -1      3015 2.19069E+01-1.83345E-01-1.77611E-02-8.22130E-02 1.89314E-13 6.62174E-14
 -1      3016 2.19454E+01-3.78012E-03-3.29370E-03 2.61011E-02 1.85329E-13 1.52100E-13
 -1      3017 2.78070E+01 1.02832E+00-1.11296E-01-1.99808E+00 3.90028E-13-3.34247E-13
 -1      3018 2.69211E+01-2.30993E-01-2.02490E-02-1.72074E+00 2.68223E-13-3.43142E-13
 -1      3019 2.65059E+01 1.94133E+00-1.44211E-01-2.26322E+00 4.48377E-13-3.33927E-13
 -1      3020 8.62501E+00-3.91229E-01 1.90944E-01-1.79333E+00 1.51646E-13 4.42146E-13
 -1      3021 2.19314E+01 1.83806E-01 4.65493E-03 7.33523E-02 2.39643E-13 1.96419E-13
 -1      3022 2.66300E+01-3.47522E+00-4.52938E-03-1.23783E+00-1.53516E-13 5.11188E-14
 -1      3023 1.97686E+01-4.55389E+00 1.19072E-01-5.06634E+00 4.91496E-13-1.50983E-13
 -1      3024 1.28208E+01-2.28677E+00 1.60758E-01-4.94987E+00 3.41407E-13 3.46070E-13
 -1      3025 2.55848E+01-4.61488E+00 2.81048E-02-1.89849E+00 3.83180E-13-5.03826E-13
 -1      3026 2.80197E+01-4.49443E-01-8.06618E-02 1.30323E+00 8.74439E-14 2.27096E-13
 -1      3027 2.00018E+01-3.24514E-03-7.04289E-06-9.93767E-04 1.48769E-13-3.62886E-13
 -1      3028 2.90494E+01 5.19595E+00-2.30475E-01 1.41721E+00-6.77375E-13-5.21611E-13
 -1      3029 2.15233E+01 9.97646E-01 5.00495E-03 2.77282E-01 3.33101E-13 1.06213E-13
 -1      3030 1.65331E+01 3.89042E+00-5.41625E-03-3.14427E-01 1.08467E-13-5.70878E-13
 -1      3031 1.66949E+01 3.85496E+00-5.01921E-03-1.78753E-01 6.77009E-14-5.78475E-13
 -1      3032 1.67509E+01 3.54469E+00 1.26692E-02 3.20887E-02 6.22760E-14-5.62701E-13
 -1      3033 1.64246E+01 3.62823E+00 1.18253E-02-4.56767E-01 9.13176E-14-5.53810E-13
 -1      3034 2.94549E+01 3.46352E+00-1.46773E-01 2.41905E+00-4.03927E-13-5.52780E-13
 -1      3035 2.96490E+01 5.08976E+00-1.95501E-01 1.77990E+00-6.18977E-13-5.26128E-13
 -1      3036 2.09157E+01-4.43687E+00 8.04859E-02 4.80673E+00 2.34479E-13-2.07962E-13
 -1      3037 2.29359E+01-4.51383E+00 6.30671E-02-4.29205E+00-3.20674E-13-2.24862E-13
 -1      3038 2.10004E+01 8.91537E-01-1.00680E-02-1.95758E-01 2.97885E-13-6.39006E-14
 -1      3039 2.05692E+01 1.12136E+00 1.18929E-03-3.96496E-01 2.70673E-13-1.29139E-13
 -1      3040 2.20437E+01 4.24636E-01 9.47709E-03 2.83299E-01 2.84566E-13 2.98076E-13
 -1      3041 1.62914E+01-2.39248E+00 1.26063E-01-5.54449E+00-2.96541E-13-5.02313E-13
 -1      3042 1.88408E+01-3.61006E+00-4.62915E-02-5.45861E+00-3.04354E-13-3.49970E-13
 -1      3043 2.56148E+01-3.71642E+00 6.65392E-02-1.64429E+00-2.02574E-13 2.48065E-14
 -1      3044 2.63322E+01-2.88500E+00-7.17978E-02-2.53796E-01-1.15540E-13 1.13964E-13
 -1      3045 1.91730E+01 2.82885E+00-1.13600E-02 3.28924E-01-8.10348E-14-5.17720E-13
 -1      3046 1.98027E+01 2.54761E+00-4.45740E-03 3.04516E-01-1.28666E-13-4.99528E-13
 -1      3047 1.98921E+01 2.21838E+00 4.55440E-03 5.72692E-01-1.19148E-13-4.64540E-13
 -1      3048 1.88062E+01 2.66267E+00 3.64758E-03 5.92921E-01-4.92883E-14-5.08926E-13
 -1      3049 2.99700E+01-1.72281E+00-7.57752E-02-1.06892E+00-4.87853E-13 1.97120E-13
 -1      3050 2.87158E+01-2.51251E+00-5.02429E-02-1.05316E+00-2.82222E-13 2.32245E-13
 -1      3051 3.04711E+01 8.16269E-01-9.61592E-02-2.05950E+00-6.53810E-13 1.20653E-13
 -1      3052 2.18191E+01 4.53719E-01-1.03256E-02 1.75951E-01 2.84210E-13 1.49281E-13
 -1      3053 2.42878E+01-4.06542E+00 1.06971E-01 2.63300E+00 1.75929E-13-2.63210E-14
 -1      3054 2.03918E+01-6.21055E-01 3.20800E-02 2.60857E+00 1.17549E-13-2.20837E-13
 -1      3055 2.09287E+01-1.38234E+00 2.81110E-02 2.76258E+00 1.43420E-13-2.13114E-13
 -1      3056 2.15517E+01-2.20751E+00 7.15579E-02 3.02628E+00 1.63595E-13-1.37348E-13
 -1      3057 2.24388E+01-3.17234E+00 1.56063E-02 2.95553E+00 1.71127E-13-1.37656E-13
 -1      3058 1.97504E+01-1.80179E+00-5.52363E-02 3.48049E+00 1.84798E-13-2.24234E-13
 -1      3059 2.14304E+01 7.26667E-01 1.26710E-02 2.53073E-02 2.73704E-13 3.07428E-14
 -1      3060 1.49384E+01-2.24207E+00 3.17795E-02 5.25449E+00-3.12507E-13 1.97474E-13
 -1      3061 1.23465E+01-9.77702E-01 1.33138E-01 4.36014E+00-3.06050E-13 2.91198E-13
 -1      3062 2.59592E+01 4.85493E+00-1.55969E-01-1.17072E+00 6.35145E-13-1.51027E-13
 -1      3063 2.61511E+01 3.85883E+00-4.17500E-02-1.96109E+00 5.77496E-13-2.74024E-13
 -1      3064 2.28741E+01-3.45394E+00 8.78929E-03-2.60893E+00 3.04472E-13-3.29625E-13
 -1      3065 2.18820E+01-2.63768E+00 5.74149E-02-2.86189E+00 2.94949E-13-2.80526E-13
 -1      3066 2.11471E+01-1.87923E+00 2.13654E-02-2.75799E+00 2.58699E-13-1.91098E-13
 -1      3067 2.05565E+01-1.20927E+00 2.78202E-02-2.76388E+00 2.20631E-13-1.21421E-13
 -1      3068 2.01493E+01-2.35897E+00-3.24488E-02-3.47905E+00 3.31502E-13-2.04507E-13
 -1      3069 2.02893E+01-6.76462E-01 1.84956E-02-2.54054E+00 9.85136E-14-1.17375E-13
 -1      3070 1.99645E+01-2.50732E-01 7.50970E-03-2.44653E+00 7.99528E-14-1.83260E-13
 -1      3071 1.93154E+01-9.01082E-01-2.45668E-02-2.96034E+00 1.64845E-13-1.72236E-13
 -1      3072 1.99257E+01 6.95251E-02 1.22405E-02-2.22850E+00-1.33938E-14-2.32469E-13
 -1      3073 1.97701E+01 3.01017E-01-4.45598E-05-2.09978E+00-1.28836E-14-2.85627E-13
 -1      3074 1.91002E+01 1.73544E-02-9.38093E-03-2.45128E+00-1.47007E-14-2.32931E-13
 -1      3075 1.98265E+01 4.63444E-01 7.60426E-03-1.91247E+00-1.80130E-14-2.90243E-13
 -1      3076 1.97585E+01 5.66065E-01-2.98616E-03-1.77632E+00-8.38919E-14-2.84116E-13
 -1      3077 1.91551E+01 5.04235E-01-1.86931E-03-2.02587E+00 3.72413E-15-3.02245E-13
 -1      3078 1.98445E+01 6.28279E-01 4.82479E-03-1.61719E+00-5.93434E-14-2.34689E-13
 -1      3079 1.98153E+01 6.53869E-01-3.77545E-03-1.48496E+00-3.52792E-14-2.07399E-13
 -1      3080 1.93088E+01 7.18327E-01 1.64103E-03-1.67859E+00-1.48842E-14-2.21691E-13
 -1      3081 1.99005E+01 6.58222E-01 3.37512E-03-1.34868E+00-6.49443E-15-1.41846E-13
 -1      3082 1.98853E+01 6.42030E-01-3.73059E-03-1.22621E+00 4.73078E-16-1.83757E-13
 -1      3083 1.94794E+01 7.69600E-01 2.91243E-03-1.38884E+00-9.95917E-15-1.13960E-13
 -1      3084 1.99574E+01 6.16749E-01 2.62729E-03-1.10895E+00-1.64003E-14-9.41420E-14
 -1      3085 1.99452E+01 5.80921E-01-3.35348E-03-9.99258E-01-1.05199E-15-4.49539E-14
 -1      3086 1.96309E+01 7.32025E-01 2.96497E-03-1.14218E+00 1.32463E-14-8.82103E-14
 -1      3087 2.00015E+01 5.43073E-01 2.22709E-03-8.98649E-01-5.24308E-14-7.83548E-14
 -1      3088 1.99885E+01 5.00480E-01-2.86504E-03-8.03072E-01-1.25079E-13-2.74998E-14
 -1      3089 1.97517E+01 6.52213E-01 2.51703E-03-9.30187E-01-6.92174E-14-4.37480E-14
 -1      3090 2.00301E+01 4.59657E-01 1.96778E-03-7.17573E-01-7.63033E-14-3.93650E-14
 -1      3091 2.00160E+01 4.17267E-01-2.36822E-03-6.36247E-01-3.70222E-14-2.53589E-14
 -1      3092 1.98418E+01 5.57492E-01 1.94139E-03-7.48383E-01-8.93928E-14 5.60619E-14
 -1      3093 2.00455E+01 3.78435E-01 1.75125E-03-5.64549E-01-1.33691E-14-1.71859E-13
 -1      3094 2.00310E+01 3.39668E-01-1.91167E-03-4.96770E-01-5.58130E-14-1.55201E-13
 -1      3095 1.99056E+01 4.62902E-01 1.40316E-03-5.94011E-01-7.07535E-14-1.08090E-13
 -1      3096 2.00512E+01 3.05083E-01 1.54167E-03-4.37532E-01-1.24591E-13-4.90560E-14
 -1      3097 2.00372E+01 2.71322E-01-1.51551E-03-3.82077E-01-9.93195E-14-5.61820E-14
 -1      3098 1.99489E+01 3.76004E-01 9.62032E-04-4.64727E-01-6.15564E-14-2.20632E-13
 -1      3099 2.00506E+01 2.41730E-01 1.33264E-03-3.33879E-01-1.79396E-13 2.79018E-14
 -1      3100 2.00377E+01 2.13254E-01-1.18394E-03-2.89267E-01-6.17153E-14-2.82096E-17
 -1      3101 1.99771E+01 2.99983E-01 6.27079E-04-3.58104E-01-6.44039E-14-1.13271E-13
 -1      3102 2.00463E+01 1.88615E-01 1.12886E-03-2.50650E-01 7.91119E-14-8.31302E-14
 -1      3103 2.00350E+01 1.65143E-01-9.13132E-04-2.15323E-01 2.03048E-14-1.03421E-13
 -1      3104 1.99945E+01 2.35591E-01 3.85967E-04-2.71547E-01-3.87994E-14 3.24489E-14
 -1      3105 2.00402E+01 1.45042E-01 9.37290E-04-1.84854E-01-1.32490E-13-9.27454E-14
 -1      3106 2.00306E+01 1.26043E-01-6.95801E-04-1.57307E-01-2.16376E-13-5.87937E-14
 -1      3107 2.00046E+01 1.82310E-01 2.19730E-04-2.02379E-01-8.74635E-14-3.45445E-14
 -1      3108 2.00336E+01 1.09913E-01 7.63494E-04-1.33636E-01-1.99673E-13-1.01653E-13
 -1      3109 2.00257E+01 9.47703E-02-5.23749E-04-1.12482E-01-1.30862E-13-1.38175E-13
 -1      3110 2.00099E+01 1.39032E-01 1.09610E-04-1.47970E-01-1.76791E-13 9.54720E-14
 -1      3111 2.00272E+01 8.20167E-02 6.10702E-04-9.43827E-02-6.40469E-14-2.16871E-13
 -1      3112 2.00209E+01 7.01192E-02-3.89105E-04-7.83942E-02 6.60439E-14-1.44726E-13
 -1      3113 2.00121E+01 1.04431E-01 3.97330E-05-1.05846E-01-1.27132E-13-6.79804E-14
 -1      3114 2.00215E+01 6.01749E-02 4.79963E-04-6.47839E-02 1.42859E-13-1.18743E-13
 -1      3115 2.00165E+01 5.09567E-02-2.84849E-04-5.29024E-02 1.03992E-14-8.64115E-15
 -1      3116 2.00124E+01 7.71667E-02-2.28292E-06-7.37618E-02 7.55916E-14-8.53120E-14
 -1      3117 2.00165E+01 4.33106E-02 3.70691E-04-4.28510E-02-6.59023E-14-1.14239E-13
 -1      3118 2.00128E+01 3.62700E-02-2.04979E-04-3.41846E-02-3.48001E-14-9.11501E-14
 -1      3119 2.00117E+01 5.59851E-02-2.56074E-05-4.97423E-02-4.41194E-14-8.06472E-14
 -1      3120 2.00125E+01 3.04766E-02 2.81246E-04-2.69091E-02-1.46722E-14-1.12459E-13
 -1      3121 2.00096E+01 2.51803E-02-1.44481E-04-2.07209E-02 3.28098E-14-7.43104E-14
 -1      3122 2.00104E+01 3.97643E-02-3.67894E-05-3.20938E-02-6.48109E-14-1.56577E-13
 -1      3123 2.00092E+01 2.08598E-02 2.09408E-04-1.55754E-02-4.34654E-14-9.44291E-14
 -1      3124 2.00071E+01 1.69419E-02-9.92317E-05-1.12668E-02-8.99994E-14-1.71557E-13
 -1      3125 2.00089E+01 2.75301E-02-4.03745E-05-1.93958E-02-4.64108E-14-7.09387E-14
 -1      3126 2.00066E+01 1.37764E-02 1.52737E-04-7.72801E-03 5.15269E-14-2.02216E-13
 -1      3127 2.00051E+01 1.09323E-02-6.58810E-05-4.82075E-03 4.59434E-14-1.99363E-13
 -1      3128 2.00074E+01 1.84546E-02-3.94408E-05-1.04803E-02-4.48741E-14-3.00164E-13
 -1      3129 2.00046E+01 8.65945E-03 1.08807E-04-2.47198E-03-1.09284E-13-1.52487E-13
 -1      3130 2.00036E+01 6.63945E-03-4.17291E-05-5.90113E-04-2.29833E-14-2.31934E-13
 -1      3131 2.00060E+01 1.18461E-02-3.60233E-05-4.40460E-03 2.19129E-14-2.40274E-13
 -1      3132 2.00031E+01 5.04576E-03 7.53587E-05 8.94885E-04 1.92611E-14-2.10982E-13
 -1      3133 2.00024E+01 3.64748E-03-2.46272E-05 2.04201E-03 1.01538E-13-2.98626E-13
 -1      3134 2.00048E+01 7.13571E-03-3.14337E-05-4.21246E-04-1.63073E-14-1.46843E-13
 -1      3135 2.00020E+01 2.56097E-03 5.03783E-05 2.91404E-03 1.61438E-13-4.45656E-13
 -1      3136 2.00015E+01 1.62216E-03-1.28867E-05 3.54700E-03 1.45694E-13-5.70479E-13
 -1      3137 2.00037E+01 3.86082E-03-2.65069E-05 2.05219E-03 3.51150E-14-7.21647E-14
 -1      3138 2.00011E+01 9.05552E-04 3.21198E-05 3.99506E-03 2.73819E-13-6.81717E-13
 -1      3139 2.00009E+01 2.97108E-04-5.21930E-06 4.27771E-03 6.43647E-14-4.71451E-13
 -1      3140 2.00027E+01 1.64968E-03-2.17495E-05 3.46092E-03 2.08636E-13-4.96260E-13
 -1      3141 2.00006E+01-1.58559E-04 1.90641E-05 4.44083E-03-7.59169E-14-2.62710E-13
 -1      3142 2.00004E+01-5.38437E-04-2.33967E-07 4.49141E-03 2.11500E-13-3.22598E-13
 -1      3143 2.00020E+01 2.06024E-04-1.74198E-05 4.13809E-03 1.71551E-13-3.49556E-13
 -1      3144 2.00002E+01-8.21167E-04 9.54078E-06 4.47052E-03 3.48628E-13-4.66026E-13
 -1      3145 2.00001E+01-1.05297E-03 3.25264E-06 4.37072E-03 3.66809E-13-3.66264E-13
 -1      3146 2.00014E+01-7.02846E-04-1.34279E-05 4.32643E-03 2.15824E-13-2.07098E-13
 -1      3147 1.99999E+01-1.23240E-03 3.44073E-06 4.23166E-03 3.33696E-13-3.88020E-13
 -1      3148 1.99999E+01-1.38069E-03 4.52571E-06 4.03506E-03 2.71858E-13-1.48790E-13
 -1      3149 2.00009E+01-1.27413E-03-1.09298E-05 4.20559E-03 3.73258E-13-1.62830E-13
 -1      3150 1.99997E+01-1.50202E-03 1.85567E-06 3.81881E-03 2.25035E-13-3.96777E-14
 -1      3151 1.99998E+01-1.62632E-03 1.45830E-06 3.56444E-03 1.73693E-14 5.15067E-14
 -1      3152 2.00005E+01-1.64880E-03-7.54332E-06 3.88052E-03 3.71816E-13-1.71972E-13
 -1      3153 2.29787E+01-1.39605E+00-1.19321E-02 2.41758E-01 5.52418E-14 8.79928E-15
 -1      3154 2.27765E+01-1.21580E+00 1.92698E-02 1.04075E-02 6.09135E-14 2.08908E-14
 -1      3155 2.23464E+01-9.85112E-01-1.60740E-02-1.73154E-01 8.62970E-14 5.27714E-15
 -1      3156 2.21773E+01-6.58152E-01 2.43740E-02-2.91500E-01 1.05747E-13 7.65924E-15
 -1      3157 2.24976E+01-1.27631E+00-2.32858E-02-3.46278E-01 6.42728E-14-5.63445E-14
 -1      3158 2.33659E+01 2.62443E+00 2.66622E-03 1.14839E+00 3.13121E-13 1.72944E-13
 -1      3159 2.35141E+01 1.88829E+00-5.40739E-02 1.60200E+00 2.72962E-13 1.97008E-13
 -1      3160 2.37534E+01 1.05434E+00 6.61712E-03 1.81760E+00 1.99129E-13 2.05266E-13
 -1      3161 2.38579E+01 2.03690E-01-4.34633E-02 1.87168E+00 1.20477E-13 2.20783E-13
 -1      3162 2.43761E+01 1.59555E+00-2.87373E-02 1.85613E+00 2.25342E-13 2.45796E-13
 -1      3163 2.37503E+01 2.59209E+00-8.65052E-02-1.59946E+00 4.04482E-13-1.61421E-13
 -1      3164 2.36600E+01 3.21894E+00-3.58618E-02-1.07683E+00 4.53092E-13-6.69610E-14
 -1      3165 2.45418E+01 3.61498E-01-4.14526E-02-2.10510E+00 2.20974E-13-3.33565E-13
 -1      3166 2.43980E+01 1.35841E+00-1.49886E-02-2.04275E+00 3.17732E-13-2.69443E-13
 -1      3167 2.33793E+01-1.61185E+00 4.11790E-03-7.72940E-01 1.30690E-15-2.45955E-13
 -1      3168 2.35349E+01-1.40400E+00-1.31604E-02-1.12679E+00 9.13581E-14-2.24773E-13
 -1      3169 2.27107E+01-1.63458E+00 1.35651E-02-2.76182E-03-2.96009E-14-2.14839E-13
 -1      3170 2.29491E+01-1.69022E+00-9.27266E-03-3.42186E-01-2.29742E-14-2.45356E-13
 -1      3171 2.33729E+01-1.95125E+00 1.12296E-02-2.83675E-01 1.44544E-14-1.28497E-13
 -1      3172 2.20044E+01-1.28755E+00 1.59419E-02 5.40545E-01 3.69273E-14-1.57999E-13
 -1      3173 2.22519E+01-1.48725E+00-8.79918E-03 3.01446E-01 1.36484E-14-1.64367E-13
 -1      3174 2.24554E+01-1.81882E+00-1.02651E-02 4.58969E-01-2.42996E-14-1.98386E-13
 -1      3175 2.14027E+01-8.51752E-01 1.26385E-02 8.51352E-01-1.06888E-13-1.33534E-13
 -1      3176 2.16232E+01-1.07722E+00-6.02245E-03 7.09670E-01-1.72065E-14-1.27590E-13
 -1      3177 2.16491E+01-1.36359E+00-1.55659E-02 8.96137E-01-2.83842E-14-1.21999E-13
 -1      3178 2.09488E+01-4.56712E-01 8.82334E-03 9.82293E-01-1.35522E-13-3.87937E-14
 -1      3179 2.11266E+01-6.49072E-01-2.30358E-03 9.17568E-01-1.05599E-13-7.75596E-14
 -1      3180 2.10354E+01-8.49904E-01-1.31254E-02 1.09229E+00-1.06557E-13-3.26877E-14
 -1      3181 2.06307E+01-1.54180E-01 5.43145E-03 9.94306E-01-1.10372E-13 8.09682E-15
 -1      3182 2.07655E+01-2.95636E-01-9.11970E-05 9.83501E-01-1.19651E-13 3.40307E-15
 -1      3183 2.06129E+01-4.14328E-01-9.36074E-03 1.13041E+00-1.48747E-13 3.68839E-14
 -1      3184 2.04183E+01 5.06752E-02 2.88979E-03 9.34668E-01-8.49646E-14 6.20702E-14
 -1      3185 2.05174E+01-4.15995E-02 1.00348E-03 9.58186E-01-8.20454E-14 6.28021E-14
 -1      3186 2.03421E+01-9.49604E-02-6.15979E-03 1.07571E+00-1.10213E-13 2.15826E-14
 -1      3187 2.02805E+01 1.72937E-01 1.19197E-03 8.36567E-01-6.77311E-14-1.33497E-13
 -1      3188 2.03530E+01 1.20425E-01 1.49533E-03 8.79598E-01-3.61629E-14 6.01920E-14
 -1      3189 2.01794E+01 1.13433E-01-3.78027E-03 9.72101E-01-4.05696E-14 6.09039E-14
 -1      3190 2.01925E+01 2.33356E-01 1.40427E-04 7.22076E-01-4.65913E-14-4.26528E-14
 -1      3191 2.02458E+01 2.09728E-01 1.67944E-03 7.74137E-01-8.38614E-14-6.81824E-14
 -1      3192 2.00877E+01 2.32411E-01-2.17703E-03 8.47154E-01-5.92690E-14 2.76276E-14
 -1      3193 2.01361E+01 2.51462E-01-4.52537E-04 6.05316E-01 1.02710E-13 3.45777E-14
 -1      3194 2.01762E+01 2.47084E-01 1.70114E-03 6.59375E-01 3.94932E-14-1.18713E-14
 -1      3195 2.00398E+01 2.86477E-01-1.17043E-03 7.17639E-01-3.36044E-14 5.88247E-14
 -1      3196 2.00995E+01 2.43041E-01-7.40262E-04 4.94891E-01 1.66430E-13 8.80215E-14
 -1      3197 2.01301E+01 2.50377E-01 1.63083E-03 5.46520E-01 1.62705E-13 1.15653E-13
 -1      3198 2.00174E+01 2.97145E-01-5.79353E-04 5.93538E-01 8.64675E-14 9.95507E-14
 -1      3199 2.00750E+01 2.19756E-01-8.35128E-04 3.95574E-01 1.71779E-13 8.96424E-14
 -1      3200 2.00988E+01 2.33362E-01 1.50567E-03 4.42247E-01 2.06201E-13 1.01228E-13
 -1      3201 2.00088E+01 2.81254E-01-2.56171E-04 4.80475E-01 1.73449E-13 1.18506E-13
 -1      3202 2.00578E+01 1.89650E-01-8.16085E-04 3.09530E-01 2.09323E-13-8.67867E-15
 -1      3203 2.00766E+01 2.05841E-01 1.34885E-03 3.50053E-01 2.44753E-13 9.08627E-14
 -1      3204 2.00069E+01 2.51002E-01-9.49027E-05 3.81207E-01 2.26323E-13 1.04944E-13
 -1      3205 2.00453E+01 1.57923E-01-7.36204E-04 2.37196E-01 5.43678E-14-3.69021E-14
 -1      3206 2.00602E+01 1.74366E-01 1.17703E-03 2.71270E-01 1.28209E-13 7.24302E-15
 -1      3207 2.00078E+01 2.14689E-01-2.55738E-05 2.96593E-01 1.68728E-13 1.42366E-13
 -1      3208 2.00357E+01 1.27690E-01-6.29698E-04 1.77929E-01-1.47628E-13-3.81159E-14
 -1      3209 2.00475E+01 1.43025E-01 1.00295E-03 2.05817E-01-3.90203E-14 1.34190E-14
 -1      3210 2.00094E+01 1.77610E-01-4.51947E-06 2.26265E-01-1.36415E-14 1.50031E-13
 -1      3211 2.00282E+01 1.00620E-01-5.17532E-04 1.30468E-01-7.06139E-14-2.28094E-14
 -1      3212 2.00375E+01 1.14153E-01 8.36058E-04 1.52754E-01-1.00667E-13-1.50818E-13
 -1      3213 2.00107E+01 1.42884E-01-5.92677E-06 1.69110E-01-4.44953E-14 8.08409E-14
 -1      3214 2.00222E+01 7.74187E-02-4.11659E-04 9.32648E-02-6.08659E-14 9.42699E-14
 -1      3215 2.00294E+01 8.88935E-02 6.82730E-04 1.10684E-01-7.92902E-14 7.34550E-14
 -1      3216 2.00113E+01 1.12124E-01-1.54617E-05 1.23616E-01-1.59871E-13 2.67677E-13
 -1      3217 2.00173E+01 5.81950E-02-3.18101E-04 6.47000E-02 5.15293E-14 2.22657E-14
 -1      3218 2.00229E+01 6.76206E-02 5.46668E-04 7.80272E-02 5.14021E-14 9.82344E-14
 -1      3219 2.00113E+01 8.59578E-02-2.58255E-05 8.81164E-02-2.78813E-14 2.72213E-13
 -1      3220 2.00133E+01 4.27070E-02-2.39139E-04 4.32211E-02-1.00343E-13 2.49625E-14
 -1      3221 2.00176E+01 5.02446E-02 4.29410E-04 5.31994E-02-3.46451E-14 2.93735E-14
 -1      3222 2.00107E+01 6.43959E-02-3.38185E-05 6.09568E-02 1.05993E-14 7.67918E-14
 -1      3223 2.00101E+01 3.05339E-02-1.74818E-04 2.74207E-02 5.26942E-14-1.13403E-13
 -1      3224 2.00133E+01 3.64182E-02 3.30895E-04 3.47234E-02-5.45483E-15-6.81064E-14
 -1      3225 2.00097E+01 4.70996E-02-3.84850E-05 4.05929E-02-1.49475E-14-6.54430E-14
 -1      3226 2.00075E+01 2.11849E-02-1.23958E-04 1.60741E-02 2.58738E-13-1.31821E-13
 -1      3227 2.00099E+01 2.56746E-02 2.49984E-04 2.12857E-02 7.69029E-14-2.05978E-13
 -1      3228 2.00086E+01 3.35549E-02-3.99887E-05 2.56491E-02 1.35119E-13-1.69630E-13
 -1      3229 2.00055E+01 1.41667E-02-8.48078E-05 8.14890E-03 1.67069E-13-1.84963E-13
 -1      3230 2.00072E+01 1.75147E-02 1.84906E-04 1.17607E-02 2.90595E-13-1.27549E-13
 -1      3231 2.00074E+01 2.31865E-02-3.89634E-05 1.49408E-02 2.13223E-13-3.44403E-13
 -1      3232 2.00039E+01 9.02096E-03-5.54461E-05 2.79767E-03 1.71191E-13-1.94276E-13
 -1      3233 2.00051E+01 1.14583E-02 1.33591E-04 5.21146E-03 2.19106E-13-1.87416E-13
 -1      3234 2.00061E+01 1.54271E-02-3.61594E-05 7.47704E-03 1.86202E-13-2.98698E-13
 -1      3235 2.00027E+01 5.34314E-03-3.40205E-05-6.58679E-04-1.34139E-13-6.71564E-14
 -1      3236 2.00035E+01 7.07143E-03 9.39111E-05 8.77895E-04 1.49216E-14-1.48191E-13
 -1      3237 2.00050E+01 9.75537E-03-3.22697E-05 2.44878E-03 6.73222E-14-2.10346E-13
 -1      3238 2.00018E+01 2.78864E-03-1.88701E-05-2.75232E-03-8.07275E-14 8.24165E-14
 -1      3239 2.00023E+01 3.97808E-03 6.38441E-05-1.84278E-03-1.64065E-13 3.05776E-14
 -1      3240 2.00039E+01 5.71445E-03-2.78606E-05-7.89896E-04-2.03720E-13-1.09103E-13
 -1      3241 2.00011E+01 1.07125E-03-8.58153E-06-3.89082E-03-6.17929E-14 3.15630E-13
 -1      3242 2.00014E+01 1.86233E-03 4.15634E-05-3.41781E-03-8.08062E-14 1.37714E-13
 -1      3243 2.00030E+01 2.91681E-03-2.33643E-05-2.74353E-03-2.25039E-13 8.86048E-15
 -1      3244 2.00006E+01-4.24725E-05-1.99559E-06-4.37855E-03-6.13314E-15 3.32130E-13
 -1      3245 2.00007E+01 4.64345E-04 2.54750E-05-4.20084E-03 3.72124E-14 3.75298E-13
 -1      3246 2.00023E+01 1.04162E-03-1.90956E-05-3.79752E-03-1.27400E-13 3.70956E-13
 -1      3247 2.00002E+01-7.41000E-04 1.84346E-06-4.43596E-03 5.96178E-14 2.14651E-13
 -1      3248 2.00003E+01-4.26580E-04 1.42462E-05-4.45238E-03 2.46020E-14 1.86784E-13
 -1      3249 2.00016E+01-1.72309E-04-1.52810E-05-4.23905E-03 5.65100E-14 3.77590E-13
 -1      3250 2.00000E+01-1.17569E-03 3.94551E-06-4.21592E-03-5.05659E-14 2.84192E-13
 -1      3251 2.00000E+01-9.80163E-04 6.82818E-06-4.35754E-03 4.48827E-14 1.52000E-13
 -1      3252 2.00011E+01-9.35718E-04-1.20821E-05-4.27543E-03 3.98793E-14 2.80180E-13
 -1      3253 1.99998E+01-1.46584E-03 5.53995E-06-3.82020E-03-2.63106E-15 3.03379E-13
 -1      3254 1.99998E+01-1.33326E-03 2.50698E-06-4.04162E-03-7.63188E-14 2.60135E-13
 -1      3255 2.00006E+01-1.41567E-03-9.32119E-06-4.05177E-03-3.30107E-14 1.02928E-13
 -1      3256 1.99997E+01-1.68744E-03 4.86321E-07-3.37307E-03 1.83808E-14 2.96052E-13
 -1      3257 1.99997E+01-1.55784E-03-2.14028E-06-3.64192E-03 1.66954E-14 3.82970E-13
 -1      3258 2.00003E+01-1.71646E-03-9.76790E-06-3.71696E-03 3.59471E-15 3.86638E-13
 -1      3259 2.00001E+01-1.90924E-03-4.34762E-06-3.34115E-03 1.73336E-13 3.13320E-13
 -1      3260 2.00011E+01-2.39443E-03-6.36698E-06 2.91683E-03 4.62249E-13 1.84961E-13
 -1      3261 2.00014E+01-2.58934E-03 1.20607E-05 2.62192E-03 3.88748E-13-1.78709E-13
 -1      3262 2.00018E+01-2.75695E-03-5.58771E-06 2.20069E-03 3.25481E-13-3.85565E-13
 -1      3263 2.00020E+01-2.87936E-03 8.77144E-06 1.78593E-03 4.15274E-13-2.57509E-13
 -1      3264 2.00020E+01-2.48507E-03 1.50143E-06 2.55631E-03 4.86818E-13-2.38346E-13
 -1      3265 2.00022E+01-2.97698E-03-7.28836E-07 1.28900E-03 2.80202E-13-2.04030E-13
 -1      3266 2.00023E+01-3.03978E-03 6.04363E-06 8.08927E-04 4.21771E-13-2.49845E-13
 -1      3267 2.00025E+01-2.70660E-03-4.01952E-06 1.62993E-03 3.52161E-13-1.44634E-13
 -1      3268 2.00024E+01-3.06972E-03 3.15377E-06 2.54503E-04 4.07968E-13-9.82013E-14
 -1      3269 2.00024E+01-3.06858E-03 2.97961E-06-2.56465E-04 3.70902E-13-1.28248E-13
 -1      3270 2.00028E+01-2.81844E-03-3.46254E-06 5.59163E-04 4.05317E-13-1.43214E-13
 -1      3271 2.18698E+01-3.86064E+00-4.22730E-02 3.78075E+00 2.09523E-13-1.06682E-13
 -1      3272 2.69572E+01-1.20779E+00-1.14777E-02 1.12535E+00 9.52016E-15 2.37310E-13
 -1      3273 2.71069E+01 4.58893E-01-1.44844E-01 1.87934E+00 1.66464E-13 2.45880E-13
 -1      3274 2.33327E+01 3.34674E+00-4.68457E-02-2.17269E-01 4.09145E-13 5.39888E-14
 -1      3275 2.34019E+01 3.22271E+00-4.90802E-02 4.58035E-01 3.85088E-13 8.69738E-14
 -1      3276 2.42421E+01 3.59499E+00-4.30491E-02 9.97883E-01 4.03996E-13 1.07216E-13
 -1      3277 2.46757E+01 4.17375E+00-6.48776E-02-6.25164E-01 5.30576E-13-8.79158E-14
 -1      3278 2.42689E+01-4.33293E+00 9.52011E-02-2.55277E+00 3.83197E-13-4.91555E-13
 -1      3279 2.00023E+01-3.03349E-03 5.99092E-06-8.10234E-04 1.89212E-13-4.21863E-13
 -1      3280 2.00022E+01-2.96542E-03-1.40895E-07-1.29561E-03 2.68742E-13-5.00961E-13
 -1      3281 2.00028E+01-2.81288E-03-2.97704E-06-5.64775E-04 4.16335E-13-2.14495E-13
 -1      3282 1.99361E+01 5.64031E-01 1.02516E-02 1.97663E+00 3.84800E-14-2.94513E-13
 -1      3283 2.01909E+01 9.05424E-03 1.77768E-02 2.24170E+00 8.11855E-14-2.84526E-13
 -1      3284 1.91283E+01-1.26520E-01-2.21287E-02 2.68032E+00 1.22626E-13-3.05682E-13
 -1      3285 1.83913E+01-3.68796E+00 1.43909E-01-5.10313E+00 4.42112E-13-1.02654E-13
 -1      3286 2.15539E+01-4.68995E+00-4.97212E-02-4.27979E+00 4.89553E-13-3.77538E-13
 -1      3287 1.92724E+01-3.09818E+00 1.43761E-01 4.73614E+00 2.96964E-13-2.98539E-13
 -1      3288 2.66507E+01-2.48172E+00-9.62799E-02-4.49926E-01 6.57460E-14-3.65444E-13
 -1      3289 2.62204E+01-3.78387E+00 5.31100E-02 1.18759E+00-3.38527E-14-4.93827E-13
 -1      3290 1.98427E+01 1.46898E+00 3.28216E-03 1.26382E+00-3.73820E-14-3.79821E-13
 -1      3291 1.99318E+01 1.03909E+00 9.01717E-03 1.59444E+00 5.91050E-15-3.47044E-13
 -1      3292 1.90227E+01 1.07121E+00-8.82718E-03 1.86046E+00 4.47500E-14-3.55511E-13
 -1      3293 1.77547E+01 2.44855E+00 1.44393E-02-1.27455E+00 1.65262E-13-4.22401E-13
 -1      3294 1.71788E+01 2.66777E+00-1.93021E-02-1.27002E+00 1.32147E-13-4.50972E-13
 -1      3295 1.02211E+01-2.42678E-01 2.44377E-02 3.02463E+00-1.91198E-13 2.15578E-13
 -1      3296 9.34562E+00 3.11348E-01 1.14168E-01 1.05183E+00-6.44246E-14 2.60875E-13
 -1      3297 1.16250E+01-4.52461E-01 3.86666E-02 3.85000E+00 2.31107E-13-6.98844E-13
 -1      3298 9.85908E+00 4.96517E-01 1.12497E-01 2.13551E+00 1.74250E-13-7.49817E-13
 -1      3299 2.16495E+01-3.95218E+00 1.17181E-01-4.46596E+00-3.09842E-13-2.66584E-13
 -1      3300 2.37876E+01-4.31770E+00-9.48025E-02-3.17554E+00-2.47250E-13-1.18996E-13
 -1      3301 2.54476E+01 4.89806E+00-1.45276E-01 6.93603E-01 5.95773E-13 7.04350E-14
 -1      3302 2.55971E+01 5.20908E+00-1.01925E-01-3.37010E-01 6.35131E-13-4.51861E-14
 -1      3303 2.77579E+01 4.26873E+00-4.17342E-02 1.85814E+00-5.48034E-13-5.16379E-13
 -1      3304 1.12066E+01-3.05365E-02 1.09317E-01-3.85199E+00-1.34941E-13-7.43600E-13
 -1      3305 1.33888E+01-1.32356E+00 3.84667E-02-5.24430E+00-2.39801E-13-6.54324E-13
 -1      3306 9.13359E+00 2.31082E-01 8.92983E-02-6.47616E-01 5.48355E-14 3.64028E-13
 -1      3307 1.02498E+01-1.76661E-01 8.16247E-02-2.53270E+00 1.98529E-13 4.41341E-13
 -1      3308 8.38698E+00 4.06383E-01 1.82396E-01-9.52336E-01 2.73670E-14-8.47378E-13
 -1      3309 1.63945E+01-2.52464E+00 4.47156E-03 5.10618E+00 2.92752E-13-4.23730E-13
 -1      3310 1.40464E+01-1.21555E+00 1.44553E-01 4.60331E+00 2.76168E-13-5.64368E-13
 -1      3311 1.37878E+01-3.19765E-01 8.75482E-02 3.71227E+00 2.08285E-13-5.99576E-13
 -1      3312 1.83505E+01-1.98207E+00 7.84491E-02 4.22431E+00 2.55712E-13-3.36203E-13
 -1      3313 2.44989E+01-4.69335E+00-9.37805E-02 2.89020E+00-8.47863E-14-4.95704E-13
 -1      3314 2.26877E+01-4.82637E+00 9.85200E-02 4.34236E+00-2.51500E-13-2.11465E-13
 -1      3315 2.14884E+01-4.37686E+00 5.48988E-02 4.42660E+00-2.86000E-13-1.65763E-13
 -1      3316 1.23606E+01-1.18927E+00 1.27850E-01-4.17219E+00 4.00513E-13 3.80015E-13
 -1      3317 1.50299E+01-2.65260E+00 1.65331E-02-5.23025E+00 4.04066E-13 1.03320E-13
 -1      3318 2.14289E+01 3.92995E-01 1.50701E-02-2.43901E-01 2.40950E-13 7.44218E-15
 -1      3319 9.04377E+00 9.02572E-01 1.15160E-01 3.42449E-01 9.81906E-14-7.80084E-13
 -1      3320 9.56933E+00 7.60924E-01 7.39711E-02-1.87646E+00-4.36456E-15-7.88022E-13
 -1      3321 1.09029E+01 1.06884E+00 1.28216E-01 1.09791E+00 1.37522E-13-7.32817E-13
 -1      3322 1.66998E+01 3.01041E+00 1.30745E-02-1.12312E+00 1.18275E-13-4.61415E-13
 -1      3323 1.63154E+01 3.15582E+00-1.94352E-02-9.69883E-01 8.90838E-14-4.84214E-13
 -1      3324 1.68587E+01 2.48599E+00 2.36253E-03-1.43512E+00 9.36779E-14-4.41482E-13
 -1      3325 1.56334E+01-1.43162E+00 8.91161E-02-4.89224E+00-2.48732E-13-5.22256E-13
 -1      3326 2.55441E+01-2.47378E+00 4.16582E-02 1.58604E-01-6.50712E-14 1.40965E-13
 -1      3327 2.63856E+01-2.15885E+00-4.04201E-02 6.91247E-01-4.09516E-14 1.95590E-13
 -1      3328 2.57182E+01-1.13945E+00-3.73721E-02 1.38388E+00 1.74097E-14 2.49831E-13
 -1      3329 2.39204E+01-5.24242E-01-5.82366E-03-1.74448E+00 1.50885E-13-3.02751E-13
 -1      3330 2.53390E+01-4.58648E-01-3.74993E-02-1.87308E+00 1.67711E-13-3.46379E-13
 -1      3331 2.48360E+01-4.04647E+00 5.78494E-03 1.86064E+00-1.04895E-13-4.76716E-13
 -1      3332 2.15867E+01-1.45273E-02-5.99219E-03-3.05185E-01 1.85614E-13-1.35098E-14
 -1      3333 2.63588E+01 1.42764E+00-7.38255E-02 2.04233E+00 2.14675E-13 2.31745E-13
 -1      3334 1.65017E+01-2.58502E+00 1.11046E-01 5.18075E+00-3.06213E-13 7.90548E-14
 -1      3335 1.57101E+01-1.58128E+00 2.24116E-02 4.46903E+00-3.26822E-13 1.16487E-13
 -1      3336 1.79266E+01-3.08101E+00-1.71195E-02 4.91954E+00-3.05322E-13-3.90382E-14
 -1      3337 2.57338E+01 2.45974E+00-3.47194E-02-2.07903E+00 4.50570E-13-3.47375E-13
 -1      3338 2.77003E+01 2.55733E+00-1.60607E-01 2.72338E+00-3.79335E-13-5.32532E-13
 -1      3339 2.27597E+01-3.78001E+00 4.00076E-02-2.99309E+00 3.40575E-13-3.96044E-13
 -1      3340 1.74877E+01-2.69931E+00 9.79896E-02-4.59754E+00 4.40405E-13-1.24060E-13
 -1      3341 2.34197E+01-1.46187E+00 6.83339E-03 6.02365E-01 2.01748E-14 5.57670E-14
 -1      3342 2.33728E+01-1.65654E+00-6.10876E-03 1.88707E-01 2.00499E-14 3.27542E-14
 -1      3343 2.35746E+01-1.34372E+00-8.03428E-03 9.23927E-01 1.04210E-14 9.51166E-14
 -1      3344 1.99996E+01-1.75233E-03 6.80296E-07 3.26080E-03-5.97314E-14 2.58982E-13
 -1      3345 2.15257E+01-2.13935E-01-1.19125E-02-5.34800E-01 1.66759E-13-6.16198E-14
 -1      3346 2.41964E+01-1.65015E+00-1.70329E-02-1.10185E+00 4.16364E-14-1.42256E-13
 -1      3347 2.39337E+01-1.08005E+00-7.24640E-03-1.54093E+00 1.17581E-13-2.71430E-13
 -1      3348 2.00005E+01-2.10388E-03 5.96589E-06 3.25978E-03 4.02987E-13 1.80667E-13
 -1      3349 2.00010E+01-2.06055E-03-1.70522E-07 3.33010E-03 5.25642E-13 8.11251E-14
 -1      3350 2.00020E+01-2.86643E-03 8.46138E-06-1.79948E-03 1.36319E-13-4.39157E-13
 -1      3351 2.00018E+01-2.73497E-03-3.85478E-06-2.21029E-03 1.38205E-13-2.87686E-13
 -1      3352 2.00025E+01-2.69486E-03-2.05028E-06-1.63709E-03 3.55584E-13-3.32777E-13
 -1      3353 2.00002E+01-1.93227E-03-6.91181E-06 3.36269E-03 1.73450E-13 2.23203E-13
 -1      3354 2.38754E+01-4.92760E-01 3.20948E-03 1.60408E+00 7.15365E-14 1.83881E-13
 -1      3355 2.38394E+01-1.02698E+00-1.65517E-02 1.37086E+00-1.66777E-16 1.26704E-13
 -1      3356 2.41476E+01-1.47766E+00 2.55322E-03 9.83281E-01-9.78254E-15 9.46183E-14
 -1      3357 2.45313E+01-2.72748E-01 2.93898E-03 1.76672E+00 6.36461E-14 1.99760E-13
 -1      3358 2.00014E+01-2.57274E-03 1.22140E-05-2.61763E-03 9.81447E-14-2.72179E-14
 -1      3359 2.00010E+01-2.38778E-03-1.07685E-05-2.91693E-03 7.09834E-14 2.00673E-13
 -1      3360 2.00019E+01-2.46241E-03-1.40330E-06-2.56144E-03-6.29164E-14-1.79969E-13
 -1      3361 2.00880E+01 1.32327E+00 3.06103E-03-6.54469E-01 2.55095E-13-1.97955E-13
 -1      3362 1.95468E+01 1.55174E+00-4.48152E-03-8.63519E-01 2.18115E-13-2.47849E-13
 -1      3363 2.05156E+01 7.54320E-01-6.84000E-03-7.16420E-01 2.16807E-13-1.51923E-13
 -1      3364 2.59144E+01-9.63769E-01-4.28932E-02-1.61507E+00 1.24858E-13-3.61981E-13
 -1      3365 2.64550E+01-1.91318E+00-6.01152E-02-1.01309E+00 9.80964E-14-3.57159E-13
 -1      3366 2.55989E+01-2.65157E+00-3.11117E-03-2.58485E-01-2.04819E-14-3.32413E-13
 -1      3367 2.50939E+01-1.66101E+00 2.72179E-02-1.24194E+00 6.37199E-14-2.63722E-13
 -1      3368 1.71245E+01 2.96281E+00-1.35190E-02 6.06737E-01 5.73840E-14-5.28538E-13
 -1      3369 1.77852E+01 2.71158E+00 5.28844E-03 7.66891E-01 2.05138E-14-5.16262E-13
 -1      3370 2.52787E+01 4.07407E+00-7.91146E-02 1.13005E+00 4.67196E-13 1.34394E-13
 -1      3371 2.00005E+01-2.10404E-03 1.00986E-05-3.20482E-03 2.46395E-13 2.46332E-13
 -1      3372 1.09634E+01 6.19113E-01 1.32735E-01 2.07572E-01-3.11808E-14 2.78881E-13
 -1      3373 2.00009E+01-2.06794E-03 2.09238E-06-3.28235E-03-7.08156E-14 2.38103E-13
 -1      3374 1.28276E+01-2.35247E-01 1.11288E-01 3.22882E+00-2.67800E-13 1.94962E-13
 -1      3375 2.06181E+01-3.26990E+00 6.03730E-02-4.35380E+00-2.78860E-13-3.03348E-13
 -1      3376 1.66015E+01 3.20917E+00-1.56737E-03 2.80176E-01 6.27596E-14-5.50145E-13
 -1      3377 1.66826E+01 2.81978E+00 1.22657E-02 6.41528E-01 7.46501E-14-5.22217E-13
 -1      3378 1.62466E+01 3.34600E+00-4.76643E-03 3.75671E-02 8.35602E-14-5.45368E-13
 -1      3379 2.42935E+01-3.67470E+00 1.02258E-02-2.12149E+00-2.04885E-13-5.08482E-14
 -1      3380 1.13083E+01 1.30072E+00 5.44635E-02-1.64924E+00 2.79742E-14-6.86465E-13
 -1      3381 1.10133E+01 7.63322E-01 1.19032E-01-2.79912E+00-6.75050E-14-7.30839E-13
 -1      3382 1.27174E+01 5.28936E-01 5.67332E-02-3.28710E+00-1.17011E-13-6.44783E-13
 -1      3383 1.83514E+01 2.08611E+00-1.35705E-02-1.21297E+00 1.74786E-13-3.82118E-13
 -1      3384 1.81028E+01 1.82845E+00-5.40369E-03-1.51136E+00 1.29124E-13-3.82040E-13
 -1      3385 1.89681E+01 1.84639E+00 1.10300E-02-1.07886E+00 1.99684E-13-3.18852E-13
 -1      3386 1.22446E+01 2.67998E-01 2.54213E-02-2.25658E+00 1.01127E-13 2.62644E-13
 -1      3387 1.21317E+01-4.16037E-01 1.03058E-01-3.25924E+00 2.73039E-13 4.01471E-13
 -1      3388 1.40538E+01-7.13698E-01 7.02713E-03-3.64784E+00 3.52247E-13 1.43413E-13
 -1      3389 1.99619E+01 1.89670E+00 6.35926E-04 8.32419E-01-8.76042E-14-4.26186E-13
 -1      3390 1.92053E+01 2.00979E+00 1.94730E-03 1.02210E+00-3.96766E-14-4.27538E-13
 -1      3391 2.26110E+01-1.55706E+00 8.56260E-03-7.19724E-01 1.78629E-14-3.75305E-14
 -1      3392 2.21963E+01-1.12552E+00 4.05671E-02-8.50240E-01 4.84840E-14-4.48413E-14
 -1      3393 2.00013E+01-1.87268E-03 2.78514E-06 3.49823E-03 4.26111E-13 4.45220E-14
 -1      3394 2.00019E+01-2.12623E-03-6.99625E-06 3.12218E-03 5.09218E-13 8.46464E-14
 -1      3395 2.00015E+01-1.67806E-03 2.67996E-06 3.67990E-03 4.67495E-13 9.91555E-15
 -1      3396 1.86257E+01 2.22177E+00-6.71182E-03 1.00168E+00 1.78893E-15-4.58147E-13
 -1      3397 2.47192E+01-3.49770E+00-3.55500E-02 9.73281E-01-6.01021E-14-3.63529E-13
 -1      3398 2.37359E+01-3.95413E+00 6.11538E-02 2.38866E+00-1.62466E-13-4.17657E-13
 -1      3399 1.78038E+01-9.47485E-01 5.71862E-02 3.70171E+00 2.08997E-13-3.49295E-13
 -1      3400 1.20475E+01 1.15227E+00 2.78346E-02 1.80350E+00 1.61364E-13-6.76514E-13
 -1      3401 1.13992E+01 1.53391E+00 5.06549E-02 1.79793E-01 1.13871E-13-7.03632E-13
 -1      3402 2.12550E+01-1.25823E+00 1.71451E-02 1.29919E+00-7.33671E-14-7.42603E-14
 -1      3403 2.16017E+01-1.58065E+00-1.81435E-03 1.17947E+00-6.03903E-14-9.79785E-14
 -1      3404 2.21343E+01-1.90122E+00 2.01507E-02 1.04475E+00-3.19007E-14-1.33075E-13
 -1      3405 2.25474E+01-2.18061E+00-5.82020E-03 7.94222E-01-9.96599E-15-1.21695E-13
 -1      3406 2.15410E+01-1.91117E+00-2.62930E-02 1.51700E+00-5.94767E-14-1.17652E-13
 -1      3407 1.83006E+01-7.72403E-01 4.02942E-02-3.15213E+00 2.48900E-13-1.91163E-13
 -1      3408 1.80395E+01-2.43083E-01-1.53621E-03-2.84567E+00 1.77778E-13-2.02829E-13
 -1      3409 1.83050E+01 1.45698E-01 2.38238E-02-2.47296E+00-7.47086E-15-1.87522E-13
 -1      3410 1.82484E+01 4.20865E-01-9.22170E-03-2.24012E+00-5.35561E-14-2.40314E-13
 -1      3411 1.71557E+01 2.03448E-01 7.08782E-03-2.61848E+00 1.03499E-13-1.37544E-13
 -1      3412 1.85163E+01 6.27778E-01 1.12702E-02-1.98637E+00-5.62603E-14-2.56823E-13
 -1      3413 1.85607E+01 7.51655E-01-9.73003E-03-1.80333E+00-9.67217E-16-2.52350E-13
 -1      3414 1.76917E+01 7.22629E-01 9.67669E-03-2.00040E+00-8.78267E-14-1.01173E-13
 -1      3415 1.88031E+01 8.36125E-01 5.46605E-03-1.62366E+00 5.67772E-14-2.84780E-13
 -1      3416 1.88794E+01 8.70506E-01-7.94501E-03-1.47530E+00 1.36388E-14-1.73290E-13
 -1      3417 1.81845E+01 9.46800E-01 7.54190E-03-1.58189E+00-1.74573E-14-1.74078E-13
 -1      3418 1.90820E+01 8.82429E-01 2.73146E-03-1.33934E+00-2.66444E-14-2.27928E-13
 -1      3419 1.91595E+01 8.65796E-01-6.31632E-03-1.21486E+00-7.64503E-15-1.91758E-13
 -1      3420 1.86122E+01 1.00062E+00 7.22941E-03-1.28695E+00-4.71710E-14-2.88127E-13
 -1      3421 1.93219E+01 8.38745E-01 1.49885E-03-1.10561E+00-2.09712E-14-2.16724E-13
 -1      3422 1.93875E+01 7.96345E-01-5.04947E-03-9.98549E-01-1.61852E-15-2.38666E-13
 -1      3423 1.89612E+01 9.56385E-01 6.14685E-03-1.06007E+00-4.12872E-14-2.84655E-13
 -1      3424 1.95144E+01 7.50899E-01 1.02498E-03-9.07092E-01 6.03359E-17-2.76347E-13
 -1      3425 1.95648E+01 6.98004E-01-4.07470E-03-8.14379E-01-8.13804E-14-2.40523E-13
 -1      3426 1.92367E+01 8.62664E-01 4.95737E-03-8.73972E-01-7.42814E-15-3.14976E-13
 -1      3427 1.96620E+01 6.46391E-01 8.83400E-04-7.36485E-01-6.02052E-14-6.19213E-14
 -1      3428 1.96982E+01 5.91869E-01-3.29692E-03-6.56664E-01-5.88909E-14 3.61571E-14
 -1      3429 1.94490E+01 7.48603E-01 3.86225E-03-7.15695E-01 4.57507E-14-1.52179E-13
 -1      3430 1.97714E+01 5.40964E-01 8.56345E-04-5.90292E-01-1.75744E-13-2.39329E-14
 -1      3431 1.97960E+01 4.89634E-01-2.65842E-03-5.22432E-01-1.53341E-13-2.03214E-13
 -1      3432 1.96092E+01 6.31488E-01 2.92963E-03-5.79530E-01-9.63289E-14 6.51513E-15
 -1      3433 1.98503E+01 4.42963E-01 8.45313E-04-4.66377E-01-1.43302E-14-2.33114E-13
 -1      3434 1.98661E+01 3.97134E-01-2.12916E-03-4.09578E-01-2.32971E-15-1.87584E-13
 -1      3435 1.97282E+01 5.21010E-01 2.17530E-03-4.62851E-01-1.17191E-13-4.47945E-14
 -1      3436 1.99059E+01 3.56215E-01 8.13578E-04-3.62879E-01 2.59124E-14-9.21795E-14
 -1      3437 1.99154E+01 3.16709E-01-1.69054E-03-3.16117E-01 7.41690E-14-1.58657E-14
 -1      3438 1.98151E+01 4.21984E-01 1.58596E-03-3.64065E-01 3.15787E-14-3.70132E-14
 -1      3439 1.99442E+01 2.81914E-01 7.55091E-04-2.77819E-01-8.63041E-14 1.03700E-14
 -1      3440 1.99494E+01 2.48716E-01-1.32901E-03-2.39953E-01-7.64720E-14-6.64294E-14
 -1      3441 1.98777E+01 3.36243E-01 1.13705E-03-2.81734E-01 5.85958E-14 3.00595E-14
 -1      3442 1.99699E+01 2.19797E-01 6.76285E-04-2.09062E-01-4.26370E-14-1.72985E-13
 -1      3443 1.99723E+01 1.92457E-01-1.03347E-03-1.78898E-01-1.04256E-13-7.27592E-14
 -1      3444 1.99221E+01 2.63883E-01 8.01791E-04-2.14281E-01-1.32568E-13-9.76051E-14
 -1      3445 1.99866E+01 1.68862E-01 5.86728E-04-1.54395E-01-2.39833E-13-1.14585E-13
 -1      3446 1.99873E+01 1.46728E-01-7.94206E-04-1.30754E-01-2.78096E-13-1.88799E-13
 -1      3447 1.99531E+01 2.04048E-01 5.55436E-04-1.59976E-01-1.66179E-13-2.00166E-13
 -1      3448 1.99972E+01 1.27784E-01 4.95029E-04-1.11646E-01-1.38067E-13-9.54451E-14
 -1      3449 1.99968E+01 1.10138E-01-6.02523E-04-9.34185E-02-4.31858E-14-1.61554E-14
 -1      3450 1.99742E+01 1.55426E-01 3.76943E-04-1.17012E-01-1.86461E-13-2.96200E-13
 -1      3451 2.00034E+01 9.51528E-02 4.07489E-04-7.87735E-02 4.72968E-14-9.76268E-14
 -1      3452 2.00025E+01 8.12902E-02-4.50646E-04-6.49560E-02 3.21181E-14-1.94668E-13
 -1      3453 1.99882E+01 1.16532E-01 2.49322E-04-8.36124E-02-1.84471E-14-1.76830E-14
 -1      3454 2.00068E+01 6.96075E-02 3.28035E-04-5.39329E-02-6.21330E-14-2.43428E-13
 -1      3455 2.00056E+01 5.88751E-02-3.31700E-04-4.36440E-02-4.98133E-14-2.40782E-13
 -1      3456 1.99972E+01 8.58806E-02 1.59317E-04-5.81065E-02-6.50390E-14-1.90427E-13
 -1      3457 2.00082E+01 4.98999E-02 2.58647E-04-3.55063E-02-6.58723E-14-1.61052E-13
 -1      3458 2.00070E+01 4.17153E-02-2.39685E-04-2.79934E-02-1.04172E-13-1.29942E-13
 -1      3459 2.00026E+01 6.20798E-02 9.68199E-05-3.89881E-02-3.29331E-14-1.04853E-14
 -1      3460 2.00085E+01 3.49258E-02 1.99889E-04-2.21131E-02-1.02736E-13-1.06797E-13
 -1      3461 2.00074E+01 2.87837E-02-1.69442E-04-1.67473E-02-5.78734E-14-1.21244E-13
 -1      3462 2.00057E+01 4.38770E-02 5.42415E-05-2.49414E-02-8.06388E-14 6.94054E-14
 -1      3463 2.00081E+01 2.37327E-02 1.51402E-04-1.26017E-02-1.68502E-13-9.47861E-14
 -1      3464 2.00071E+01 1.92042E-02-1.16598E-04-8.86815E-03-4.34553E-14-1.93996E-13
 -1      3465 2.00071E+01 3.01773E-02 2.59460E-05-1.48482E-02-7.19240E-14 1.39337E-13
 -1      3466 2.00073E+01 1.55157E-02 1.12285E-04-6.03112E-03 1.03177E-13-3.16790E-13
 -1      3467 2.00064E+01 1.22424E-02-7.74952E-05-3.51621E-03 2.74707E-14-1.99922E-13
 -1      3468 2.00074E+01 2.00456E-02 7.78035E-06-7.78066E-03-2.47174E-14-6.70314E-14
 -1      3469 2.00063E+01 9.60537E-03 8.13760E-05-1.64723E-03-2.19922E-14-2.01388E-13
 -1      3470 2.00056E+01 7.29283E-03-4.91069E-05-2.45593E-05 8.86495E-15-2.19704E-13
 -1      3471 2.00071E+01 1.26975E-02-3.29654E-06-2.98561E-03 3.59982E-14-3.98431E-13
 -1      3472 2.00053E+01 5.45334E-03 5.74366E-05 1.14338E-03-3.09203E-14-2.05191E-13
 -1      3473 2.00046E+01 3.86265E-03-2.89866E-05 2.12664E-03 1.67615E-14-2.26896E-13
 -1      3474 2.00064E+01 7.48601E-03-9.49288E-06 1.36428E-04-4.48028E-14-2.15286E-13
 -1      3475 2.00043E+01 2.61578E-03 3.92767E-05 2.79876E-03 7.66288E-14-3.11801E-13
 -1      3476 2.00038E+01 1.55510E-03-1.51852E-05 3.33450E-03 2.16018E-13-3.41635E-13
 -1      3477 2.00055E+01 3.88405E-03-1.24755E-05 2.05329E-03 2.32708E-14-2.15351E-13
 -1      3478 2.00033E+01 7.37042E-04 2.57624E-05 3.66502E-03 3.18120E-13-2.85482E-13
 -1      3479 2.00029E+01 5.44276E-05-5.77815E-06 3.89531E-03 2.33647E-13-1.30531E-13
 -1      3480 2.00046E+01 1.46769E-03-1.32722E-05 3.12243E-03 2.34933E-13 1.39633E-14
 -1      3481 2.00025E+01-4.69436E-04 1.47732E-05 3.99809E-03 1.88724E-13-8.32322E-14
 -1      3482 2.00022E+01-8.84659E-04 2.83107E-06 4.01995E-03 1.97435E-13-3.62123E-14
 -1      3483 2.00036E+01-9.89656E-05-1.18935E-05 3.61122E-03 3.22284E-13-8.55614E-14
 -1      3484 2.00020E+01-1.18140E-03 6.04287E-06 3.92956E-03 4.10414E-13-3.11761E-14
 -1      3485 2.00017E+01-1.44551E-03 5.34420E-06 3.82575E-03 4.78595E-13 4.46335E-14
 -1      3486 2.00026E+01-1.65767E-03-4.51334E-06 3.42874E-03 5.23770E-13 3.89465E-14
 -1      3487 2.00030E+01-1.05058E-03-9.77271E-06 3.65564E-03 3.69979E-13 2.41101E-13
 -1      3488 1.81577E+01 2.07135E+00 9.35098E-03 1.23086E+00 3.07815E-14-4.64793E-13
 -1      3489 1.42468E+01-3.88634E-01 1.07110E-03 3.41546E+00-2.85383E-13 1.97415E-13
 -1      3490 1.27902E+01 5.33329E-01 8.99986E-02 2.21351E+00-2.27651E-13 1.31582E-13
 -1      3491 2.39791E+01-2.24662E+00 7.52559E-03-3.48862E-01 2.29990E-14-1.11998E-13
 -1      3492 2.44595E+01-2.02879E+00-2.23529E-03-7.57841E-01 2.31677E-14-1.34863E-13
 -1      3493 2.47033E+01-2.49802E+00-4.14653E-02-4.05246E-01-2.34830E-14-1.80848E-13
 -1      3494 2.35043E+01-2.34161E+00 2.69347E-03 1.36329E-01 3.23027E-15-1.30891E-13
 -1      3495 2.06484E+01-6.88259E-01 1.09645E-02 1.33830E+00-2.01366E-13-3.95217E-14
 -1      3496 2.09018E+01-9.63832E-01 1.79994E-03 1.30880E+00-1.13100E-13-4.94454E-14
 -1      3497 2.07211E+01-1.18493E+00-1.96695E-02 1.58849E+00-1.21975E-13-5.28060E-14
 -1      3498 2.02681E+01-2.51961E-01 6.04858E-03 1.26073E+00-1.33996E-13-2.60253E-14
 -1      3499 2.04392E+01-4.54394E-01 3.73128E-03 1.28348E+00-1.46357E-13-4.74613E-14
 -1      3500 2.02058E+01-5.78370E-01-1.31303E-02 1.49361E+00-1.72817E-13-1.28828E-13
 -1      3501 2.00507E+01 4.60399E-02 2.70668E-03 1.12935E+00-1.09544E-13-1.87862E-14
 -1      3502 2.01586E+01-8.73101E-02 3.75663E-03 1.17992E+00-1.25487E-13-2.95929E-14
 -1      3503 1.99179E+01-1.39451E-01-8.25603E-03 1.32748E+00-1.16761E-13-9.92859E-14
 -1      3504 1.99404E+01 2.27693E-01 7.11429E-04 9.78991E-01-6.37583E-14 4.41776E-15
 -1      3505 2.00045E+01 1.49863E-01 3.22911E-03 1.04213E+00-1.08817E-13-8.28005E-15
 -1      3506 1.97800E+01 1.47220E-01-4.65950E-03 1.14203E+00-1.34942E-13-4.80801E-14
 -1      3507 1.98954E+01 3.21817E-01-4.25244E-04 8.28037E-01-1.33458E-13 1.10315E-13
 -1      3508 1.99315E+01 2.84580E-01 2.63489E-03 8.94628E-01-4.74433E-14 6.71401E-14
 -1      3509 1.97333E+01 3.12987E-01-2.34519E-03 9.61541E-01-1.05123E-13 1.17533E-13
 -1      3510 1.98875E+01 3.55090E-01-1.01229E-03 6.86070E-01 1.28985E-14-3.77099E-14
 -1      3511 1.99066E+01 3.45398E-01 2.13144E-03 7.50709E-01-6.30374E-14 6.66143E-14
 -1      3512 1.97382E+01 3.91386E-01-9.32036E-04 7.95843E-01-4.59380E-14 3.83151E-14
 -1      3513 1.98985E+01 3.49209E-01-1.26098E-03 5.57952E-01 8.91696E-14 3.06888E-14
 -1      3514 1.99079E+01 3.56769E-01 1.73754E-03 6.17534E-01 3.82123E-14-3.58965E-14
 -1      3515 1.97689E+01 4.10714E-01-1.33961E-04 6.48697E-01-4.26765E-15-2.15610E-13
 -1      3516 1.99173E+01 3.20457E-01-1.30448E-03 4.45789E-01 7.84429E-14 1.33877E-13
 -1      3517 1.99216E+01 3.37709E-01 1.43478E-03 4.98694E-01 1.31953E-13 1.19599E-13
 -1      3518 1.98097E+01 3.93096E-01 2.73024E-04 5.20994E-01 4.51934E-14 2.49307E-14
 -1      3519 1.99376E+01 2.80320E-01-1.23001E-03 3.50013E-01 2.07124E-13 2.21692E-13
 -1      3520 1.99395E+01 3.02026E-01 1.19693E-03 3.95609E-01 1.06343E-13 1.68582E-13
 -1      3521 1.98515E+01 3.54706E-01 4.43855E-04 4.12236E-01 2.41904E-14 1.78556E-13
 -1      3522 1.99562E+01 2.36453E-01-1.09431E-03 2.70003E-01 1.12464E-13 2.52395E-13
 -1      3523 1.99571E+01 2.59184E-01 1.00245E-03 3.08316E-01 2.33672E-13 3.13768E-13
 -1      3524 1.98895E+01 3.06767E-01 4.79333E-04 3.21200E-01 1.20070E-13 1.70380E-13
 -1      3525 1.99717E+01 1.93623E-01-9.33792E-04 2.04493E-01-1.14630E-13 3.29157E-13
 -1      3526 1.99724E+01 2.15293E-01 8.37691E-04 2.35970E-01-4.49076E-14 3.19304E-13
 -1      3527 1.99216E+01 2.56645E-01 4.43491E-04 2.46258E-01 1.07784E-14 2.92084E-13
 -1      3528 1.99838E+01 1.54537E-01-7.71014E-04 1.51865E-01-5.69626E-14 2.82062E-13
 -1      3529 1.99845E+01 1.74006E-01 6.95104E-04 1.77194E-01 1.65941E-14 2.76406E-13
 -1      3530 1.99474E+01 2.08847E-01 3.75701E-04 1.85568E-01-3.28995E-14 3.78204E-13
 -1      3531 1.99927E+01 1.20490E-01-6.19103E-04 1.10352E-01-2.35137E-13 3.80766E-13
 -1      3532 1.99936E+01 1.37257E-01 5.70864E-04 1.30338E-01-1.62049E-13 3.20265E-13
 -1      3533 1.99671E+01 1.65852E-01 2.99037E-04 1.37217E-01-1.34936E-13 3.42321E-13
 -1      3534 1.99988E+01 9.18625E-02-4.84807E-04 7.81992E-02 1.11441E-13 1.86052E-13
 -1      3535 1.99998E+01 1.05835E-01 4.63025E-04 9.36683E-02-6.84142E-14 3.03558E-13
 -1      3536 1.99816E+01 1.28763E-01 2.26046E-04 9.93247E-02-9.11785E-14 1.64940E-13
 -1      3537 2.00028E+01 6.84753E-02-3.70708E-04 5.37524E-02 5.87250E-14 2.08819E-14
 -1      3538 2.00038E+01 7.98048E-02 3.70387E-04 6.54952E-02 1.56203E-13 1.66137E-13
 -1      3539 1.99918E+01 9.77959E-02 1.62705E-04 7.01260E-02 1.01160E-13 1.76277E-13
 -1      3540 2.00051E+01 4.98410E-02-2.76787E-04 3.55230E-02 1.19903E-13-1.49876E-13
 -1      3541 2.00062E+01 5.88082E-02 2.91901E-04 4.42583E-02 6.59236E-14-8.35114E-14
 -1      3542 1.99987E+01 7.26345E-02 1.11065E-04 4.80182E-02 1.83390E-13 6.90568E-14
 -1      3543 2.00062E+01 3.53298E-02-2.01531E-04 2.22134E-02 1.83875E-13-1.94901E-13
 -1      3544 2.00072E+01 4.22695E-02 2.26425E-04 2.85703E-02 1.14974E-13-1.41626E-13
 -1      3545 2.00029E+01 5.26749E-02 7.09774E-05 3.15909E-02 1.57224E-13-2.39700E-13
 -1      3546 2.00065E+01 2.42755E-02-1.42680E-04 1.27240E-02 3.18845E-13-2.70607E-13
 -1      3547 2.00074E+01 2.95296E-02 1.72678E-04 1.72368E-02 2.94209E-13-2.42419E-13
 -1      3548 2.00054E+01 3.71905E-02 4.11882E-05 1.96343E-02 1.59349E-13-1.41381E-13
 -1      3549 2.00062E+01 1.60399E-02-9.77142E-05 6.14516E-03 5.47074E-14-2.42690E-13
 -1      3550 2.00070E+01 1.99296E-02 1.29275E-04 9.25612E-03 1.64206E-13-2.14037E-13
 -1      3551 2.00065E+01 2.54358E-02 2.00027E-05 1.11346E-02 2.06298E-13-7.71834E-14
 -1      3552 2.00056E+01 1.00466E-02-6.41573E-05 1.74077E-03-7.86237E-14-7.80807E-14
 -1      3553 2.00063E+01 1.28579E-02 9.48053E-05 3.80736E-03-1.76561E-14-2.00017E-13
 -1      3554 2.00067E+01 1.67076E-02 5.66596E-06 5.25956E-03-3.66938E-14-8.99364E-14
 -1      3555 2.00049E+01 5.79561E-03-3.97374E-05-1.07284E-03-3.06764E-13 9.27099E-14
 -1      3556 2.00055E+01 7.77429E-03 6.78985E-05 2.32303E-04-1.93274E-13 2.83718E-14
 -1      3557 2.00064E+01 1.03769E-02-3.43488E-06 1.33970E-03-2.53470E-13 5.09489E-14
 -1      3558 2.00041E+01 2.86633E-03-2.24795E-05-2.74900E-03-2.70789E-13 1.00778E-13
 -1      3559 2.00046E+01 4.21780E-03 4.72815E-05-1.98618E-03-2.27011E-13 8.97744E-14
 -1      3560 2.00057E+01 5.90206E-03-8.68403E-06-1.15335E-03-2.38344E-13 1.67168E-13
 -1      3561 2.00033E+01 9.12170E-04-1.07624E-05-3.63217E-03-1.02357E-13 1.30006E-13
 -1      3562 2.00037E+01 1.80474E-03 3.18164E-05-3.24585E-03-2.34518E-13 9.93302E-14
 -1      3563 2.00049E+01 2.82915E-03-1.12447E-05-2.62845E-03-2.78744E-13 1.30705E-13
 -1      3564 2.00025E+01-3.47542E-04-3.00713E-06-3.97746E-03 1.65415E-13 2.10660E-13
 -1      3565 2.00029E+01 2.21773E-04 2.04674E-05-3.84551E-03 1.41930E-14 2.51326E-13
 -1      3566 2.00040E+01 7.85426E-04-1.20030E-05-3.39524E-03-1.75103E-13-3.35788E-14
 -1      3567 2.00018E+01-1.13995E-03 1.09311E-06-3.96931E-03 4.58942E-14 2.15703E-13
 -1      3568 2.00021E+01-7.84466E-04 1.20356E-05-4.00466E-03 1.47304E-13 2.05819E-13
 -1      3569 2.00032E+01-5.29669E-04-1.17618E-05-3.68191E-03 1.70837E-13-1.49957E-14
 -1      3570 2.00013E+01-1.64550E-03 3.80073E-06-3.72784E-03-1.49095E-14 1.66785E-13
 -1      3571 2.00015E+01-1.41810E-03 6.01046E-06-3.87347E-03 4.97063E-15 1.61732E-13
 -1      3572 2.00024E+01-1.36804E-03-1.03909E-05-3.65979E-03 7.09104E-14-1.74183E-14
 -1      3573 2.00011E+01-1.93351E-03 5.85598E-06-3.42892E-03-1.65679E-13 1.93174E-13
 -1      3574 1.16924E+01 7.40208E-01-2.07137E-02 8.50119E-01-9.74750E-14 7.08600E-14
 -1      3575 1.17884E+01 8.43083E-01 8.53467E-02-7.43697E-01 3.39243E-14 2.20282E-13
 -1      3576 2.00024E+01-2.24964E-03 7.74856E-06 2.68696E-03 4.23142E-13-1.63216E-13
 -1      3577 1.78396E+01 7.03956E-01-1.66712E-03 2.43233E+00 1.26723E-13-3.64674E-13
 -1      3578 1.80576E+01 4.95871E-02 3.50066E-02 2.85661E+00 1.56178E-13-3.54663E-13
 -1      3579 2.00029E+01-2.43783E-03-8.36727E-06 1.94442E-03 2.55809E-13-1.77760E-13
 -1      3580 2.00032E+01-2.50453E-03 7.38680E-06 1.43820E-03 2.13261E-13-6.73532E-14
 -1      3581 2.00033E+01-2.54483E-03-8.64291E-07 8.50673E-04 2.04847E-13-2.14564E-13
 -1      3582 2.00034E+01-2.56729E-03 1.56674E-06 2.93998E-04 2.59475E-13-2.38784E-13
 -1      3583 2.00037E+01-2.24844E-03 7.28763E-07 1.17707E-03 7.69185E-14-1.17572E-13
 -1      3584 2.15286E+01-6.74447E-01-1.54568E-02-9.37325E-01 1.00724E-13-8.28015E-14
 -1      3585 2.09729E+01 1.77004E-01 1.93655E-02-8.68705E-01 1.61441E-13-1.27601E-13
 -1      3586 2.04383E+01 3.62555E-01 3.36567E-03-1.12288E+00 1.39518E-13-1.68852E-13
 -1      3587 2.14122E+01-9.47353E-01-2.84381E-02-1.32137E+00 6.90080E-14-8.63966E-14
 -1      3588 2.53873E+01 2.11543E-01-4.80953E-03 1.95325E+00 1.08125E-13 2.37969E-13
 -1      3589 2.52970E+01 1.84095E+00-7.81143E-02 2.02904E+00 2.61468E-13 2.25079E-13
 -1      3590 2.00034E+01-2.56262E-03 1.62387E-06-3.14299E-04 4.80762E-13-8.38280E-14
 -1      3591 2.00033E+01-2.53926E-03-1.37194E-06-8.68436E-04 4.46710E-13-2.76501E-13
 -1      3592 2.00039E+01-2.27401E-03 1.31888E-06-1.91971E-05 2.61879E-13-1.95290E-13
 -1      3593 1.49325E+01-4.50228E-01 6.04697E-02-4.26838E+00-1.77205E-13-5.22998E-13
 -1      3594 1.71632E+01-1.70951E+00-3.01645E-02-4.64714E+00-2.28106E-13-4.12947E-13
 -1      3595 1.61144E+01 3.35260E+00 3.77685E-03-6.25970E-01 9.93157E-14-5.35096E-13
 -1      3596 1.60724E+01 3.36764E+00-1.38664E-02-3.82355E-01 8.15511E-14-5.61582E-13
 -1      3597 1.58989E+01 3.11708E+00 5.25018E-03-1.32314E-01 7.34424E-14-5.63470E-13
 -1      3598 2.20037E+01-4.10064E+00-4.94051E-02 3.60661E+00-2.68324E-13-3.26834E-13
 -1      3599 2.03386E+01-3.63215E+00 1.03416E-01 4.46846E+00-3.13388E-13-1.60807E-13
 -1      3600 1.90122E+01-2.84254E+00 1.10169E-02 4.23838E+00-2.71942E-13-1.48073E-13
 -1      3601 2.24590E+01-3.63844E+00-2.14265E-02 2.70969E+00-1.85064E-13-2.94197E-13
 -1      3602 1.80113E+01 1.67149E+00-3.07333E-03 1.57942E+00 6.73814E-14-4.32168E-13
 -1      3603 1.80144E+01 1.21851E+00 2.50220E-02 1.97199E+00 1.03725E-13-4.01223E-13
 -1      3604 1.67900E+01 1.34680E+00 1.67569E-02 2.10463E+00 1.34539E-13-4.40451E-13
 -1      3605 1.70960E+01 2.13774E+00-1.13392E-02 1.33894E+00 8.55188E-14-4.90242E-13
 -1      3606 2.33923E+01-3.22278E+00 9.83485E-02-2.39038E+00-2.07702E-13-8.10393E-14
 -1      3607 2.43725E+01-3.30096E+00-9.44896E-02-1.23235E+00-1.46581E-13 1.48371E-14
 -1      3608 1.95605E+01-2.35167E+00 9.87888E-02-4.27084E+00-2.42856E-13-3.23637E-13
 -1      3609 2.13539E+01-3.17758E+00-8.68413E-02-3.52933E+00-2.25818E-13-2.21118E-13
 -1      3610 2.00018E+01-2.00655E-03-2.75280E-06-3.27895E-03-1.67311E-13 1.44581E-13
 -1      3611 2.52687E+01-8.66871E-01-4.67597E-02 1.55476E+00 2.38906E-14 2.15034E-13
 -1      3612 1.62415E+01-1.49093E-01 2.11273E-02 3.43905E+00 1.94067E-13-4.50372E-13
 -1      3613 2.46418E+01-2.55796E+00 3.79312E-03-2.69954E-01-1.05605E-13 9.78870E-14
 -1      3614 2.49739E+01-3.00656E+00-1.64376E-03 1.63772E-01-6.07656E-14-2.54831E-13
 -1      3615 2.38804E+01-3.06942E+00-1.30679E-02 8.22400E-01-3.85755E-14-2.42249E-13
 -1      3616 2.31178E+01-2.53279E+00 3.17894E-03 7.66469E-01-1.09012E-14-1.59365E-13
 -1      3617 2.51654E+01 3.09438E+00-6.14843E-02 1.81683E+00 3.57117E-13 2.31318E-13
 -1      3618 1.90049E+01-2.39954E+00 3.99783E-02-3.96597E+00 3.85546E-13-2.44919E-13
 -1      3619 1.84384E+01-1.47459E+00 4.03438E-02-3.61223E+00 3.11977E-13-2.10314E-13
 -1      3620 1.32133E+01 8.53760E-01 9.88216E-02 2.64278E+00 1.92164E-13-6.40883E-13
 -1      3621 1.35671E+01 1.36310E+00 5.47034E-02 1.78223E+00 1.63114E-13-6.24074E-13
 -1      3622 1.69445E+01-9.03927E-01-8.26844E-03-3.54525E+00 2.63874E-13-1.72376E-13
 -1      3623 2.00028E+01-2.24314E-03 2.76497E-06-2.43228E-03-9.47609E-15-2.00929E-13
 -1      3624 2.00023E+01-2.11324E-03-2.58107E-06-2.83989E-03-1.45770E-13 4.06387E-14
 -1      3625 2.00026E+01-1.75033E-03 2.75205E-06-3.15372E-03-3.90186E-14 1.33978E-13
 -1      3626 1.60155E+01 2.98577E+00 9.01794E-03-9.22757E-01 8.46958E-14-5.07494E-13
 -1      3627 1.52148E+01-6.26343E-01 8.24718E-02 3.67855E+00-2.64368E-13 2.07882E-13
 -1      3628 1.49654E+01 1.45278E-02 1.20524E-02 2.84854E+00-1.72726E-13 1.95864E-13
 -1      3629 1.61787E+01-1.12317E+00 8.86938E-05 3.79527E+00-2.48706E-13 4.84404E-14
 -1      3630 2.00032E+01-2.43914E-03 2.86036E-06-1.41966E-03 3.96980E-13-2.29315E-13
 -1      3631 2.00030E+01-2.36533E-03-1.49193E-06-1.92362E-03 2.39527E-13-1.62240E-13
 -1      3632 2.00035E+01-1.95908E-03 3.13423E-06-2.21608E-03 2.96981E-14 1.31489E-13
 -1      3633 2.00038E+01-2.17182E-03 2.61041E-06-1.16994E-03 3.66751E-13-1.94247E-13
 -1      3634 2.00030E+01-2.05735E-03 1.69073E-06 2.53386E-03 3.46044E-13-6.82123E-14
 -1      3635 1.34378E+01 7.84684E-01 6.24970E-02 1.30062E+00-1.75325E-13 1.92728E-14
 -1      3636 1.94094E+01 1.21738E+00-7.68794E-03-1.20888E+00 1.58319E-13-2.68466E-13
 -1      3637 2.22501E+01-2.64316E+00 4.79660E-02-2.54779E+00-1.77282E-13-1.46862E-13
 -1      3638 1.86428E+01-1.50348E+00 4.46091E-02-3.92281E+00-1.60445E-13-3.66877E-13
 -1      3639 2.07200E+01-3.43823E+00 6.76287E-02-4.02625E+00 4.14418E-13-3.08302E-13
 -1      3640 1.42501E+01 3.15775E-01 6.68407E-02-3.72666E+00-1.06887E-13-5.72833E-13
 -1      3641 1.57112E+01 7.31826E-02-1.18695E-02-3.60231E+00-1.11148E-13-4.64092E-13
 -1      3642 1.37003E+01 1.07401E+00 3.45140E-02-2.79561E+00-3.96211E-14-5.96287E-13
 -1      3643 1.57583E+01 2.77576E+00 1.63018E-02 5.38777E-01 9.28975E-14-5.36610E-13
 -1      3644 1.62845E+01 2.52702E+00-8.34973E-04 8.85557E-01 8.65526E-14-5.18813E-13
 -1      3645 1.60448E+01 2.14364E+00-6.62591E-03 1.24075E+00 9.58617E-14-5.18717E-13
 -1      3646 1.60004E+01-1.49586E+00 1.12931E-01-4.30311E+00 3.77247E-13-4.84057E-14
 -1      3647 1.84462E+01-2.76519E+00-1.11136E-02-4.32986E+00 4.12545E-13-2.32793E-13
 -1      3648 1.54909E+01-7.08446E-01 8.58713E-02-3.55098E+00 3.16082E-13 6.76958E-14
 -1      3649 1.19405E+01 1.75835E+00 9.31081E-02-6.49447E-01 6.28373E-14-6.52943E-13
 -1      3650 1.26635E+01 1.66490E+00 3.48422E-03-1.54637E+00 1.21088E-14-6.16854E-13
 -1      3651 1.28748E+01 1.95151E+00 3.22591E-02 4.86464E-02 1.00251E-13-6.30142E-13
 -1      3652 1.31272E+01 6.68888E-01 7.03038E-02-1.49220E+00 1.16407E-13 2.45855E-13
 -1      3653 1.85821E+01 1.21562E+00 1.93683E-02-1.79492E+00 8.84739E-14-3.58627E-13
 -1      3654 1.77855E+01 1.50735E+00-2.04520E-02-1.87985E+00 6.78340E-14-3.84948E-13
 -1      3655 1.70416E+01 1.98081E+00 2.89742E-02-1.81690E+00 6.97771E-14-4.14757E-13
 -1      3656 1.63378E+01 2.23434E+00-1.97528E-02-1.67482E+00 5.82018E-14-4.52377E-13
 -1      3657 1.73131E+01 1.27281E+00-1.46682E-02-2.18744E+00 2.41135E-14-4.00988E-13
 -1      3658 2.33008E+01-2.19615E+00 4.10621E-05-7.32387E-01-5.96467E-14 3.17064E-14
 -1      3659 2.26749E+01-2.26348E+00-5.91967E-02-1.40314E+00-6.64122E-14-1.91201E-14
 -1      3660 2.38342E+01-2.31342E+00 1.25946E-02-4.01859E-01-7.82729E-14 8.00208E-14
 -1      3661 1.97413E+01-3.14241E-01 3.65707E-03 1.59302E+00-1.47215E-13-9.46224E-14
 -1      3662 1.99502E+01-5.70416E-01 1.12600E-02 1.67970E+00-1.31181E-13-2.57535E-14
 -1      3663 2.28758E+01-2.93278E+00-6.51066E-03 1.54417E+00-1.81704E-14-1.73496E-13
 -1      3664 1.50078E+01-6.54011E-02 4.14043E-02 3.43632E+00 2.15536E-13-5.17732E-13
 -1      3665 1.48242E+01 1.77847E+00 3.10615E-03 1.56956E+00 1.39845E-13-5.55580E-13
 -1      3666 1.41472E+01 2.17846E+00 6.25608E-02 8.14572E-01 1.18120E-13-6.03328E-13
 -1      3667 2.08706E+01-1.66936E+00 1.60921E-02 1.99694E+00-9.78319E-14 4.57013E-14
 -1      3668 2.14066E+01-2.08656E+00 1.51122E-02 1.92793E+00 2.57381E-14 1.80732E-14
 -1      3669 1.69060E+01 8.56570E-01 4.81089E-03-1.78093E+00-7.44186E-14-3.73089E-14
 -1      3670 1.71638E+01 9.77068E-01-1.73228E-02-1.54227E+00-1.28595E-13-2.93843E-14
 -1      3671 1.76077E+01 1.04712E+00 6.79632E-05-1.39208E+00-1.09115E-13-6.07057E-14
 -1      3672 1.78390E+01 1.08220E+00-1.27261E-02-1.23896E+00-8.28153E-14-1.25449E-13
 -1      3673 1.69578E+01 1.16600E+00 1.10746E-02-1.17341E+00-1.63451E-13-8.44914E-14
 -1      3674 1.81760E+01 1.09159E+00-1.03446E-04-1.13104E+00-6.51531E-14-2.20198E-13
 -1      3675 1.83682E+01 1.07220E+00-8.93601E-03-1.01982E+00-6.77778E-14-2.59070E-13
 -1      3676 1.77006E+01 1.20971E+00 1.40742E-02-9.46867E-01-1.19166E-13-1.95206E-13
 -1      3677 1.86244E+01 1.04223E+00-9.17071E-04-9.39735E-01-6.47575E-14-2.11591E-13
 -1      3678 1.87797E+01 9.95703E-01-6.40113E-03-8.50159E-01-1.36367E-14-1.82548E-13
 -1      3679 1.82659E+01 1.15018E+00 1.01935E-02-7.93039E-01-3.67657E-14-1.10647E-13
 -1      3680 1.89760E+01 9.44714E-01-9.92395E-04-7.84612E-01 3.76819E-14-2.28243E-13
 -1      3681 1.90972E+01 8.85467E-01-4.82386E-03-7.08294E-01 1.80070E-14-2.58375E-13
 -1      3682 1.86998E+01 1.04628E+00 7.65224E-03-6.72335E-01-2.95152E-14-1.56618E-15
 -1      3683 1.92478E+01 8.25846E-01-7.76078E-04-6.51543E-01 8.25970E-14-3.00371E-13
 -1      3684 1.93401E+01 7.62956E-01-3.76948E-03-5.85012E-01 6.38254E-14-2.12859E-13
 -1      3685 1.90333E+01 9.20717E-01 5.82032E-03-5.68445E-01 5.77675E-14-9.56131E-14
 -1      3686 1.94553E+01 7.02374E-01-4.86099E-04-5.34981E-01-3.68178E-14-2.06024E-13
 -1      3687 1.95241E+01 6.41438E-01-3.00283E-03-4.76926E-01-1.15065E-13-1.20726E-13
 -1      3688 1.92888E+01 7.89047E-01 4.42137E-03-4.75298E-01 5.63322E-15-2.37782E-13
 -1      3689 1.96117E+01 5.84328E-01-2.15431E-04-4.32954E-01-1.80362E-13-1.03642E-14
 -1      3690 1.96621E+01 5.28456E-01-2.41132E-03-3.82855E-01-1.01885E-13-4.16048E-14
 -1      3691 1.94832E+01 6.61577E-01 3.34953E-03-3.91313E-01-7.79742E-14-2.14206E-13
 -1      3692 1.97282E+01 4.77107E-01-6.88785E-06-3.44764E-01-2.04715E-14-7.12674E-14
 -1      3693 1.97644E+01 4.27773E-01-1.93629E-03-3.02239E-01 6.36259E-14-8.77459E-14
 -1      3694 1.96300E+01 5.44315E-01 2.52474E-03-3.16555E-01-8.28193E-14-2.05202E-13
 -1      3695 1.98139E+01 3.83112E-01 1.32194E-04-2.69871E-01 2.22022E-14-9.84935E-14
 -1      3696 1.98394E+01 3.40759E-01-1.54637E-03-2.34436E-01-8.25691E-14-2.09465E-13
 -1      3697 1.97398E+01 4.40290E-01 1.88961E-03-2.51374E-01-1.36303E-14-2.28292E-13
 -1      3698 1.98760E+01 3.02885E-01 2.11227E-04-2.07492E-01-1.11645E-13-1.76431E-13
 -1      3699 1.98938E+01 2.67331E-01-1.22395E-03-1.78515E-01-1.50246E-13-2.14083E-13
 -1      3700 1.98210E+01 3.50539E-01 1.40206E-03-1.95838E-01-7.60780E-14-3.04324E-13
 -1      3701 1.99205E+01 2.35869E-01 2.44916E-04-1.56543E-01-1.40447E-13-9.70251E-14
 -1      3702 1.99325E+01 2.06585E-01-9.57907E-04-1.33282E-01-1.45844E-13-1.41960E-13
 -1      3703 1.98804E+01 2.74841E-01 1.02981E-03-1.49592E-01-1.27404E-13-9.15222E-14
 -1      3704 1.99518E+01 1.80911E-01 2.47671E-04-1.15722E-01-8.23142E-14-8.58847E-14
 -1      3705 1.99597E+01 1.57197E-01-7.40077E-04-9.73852E-02-5.37163E-14 6.26187E-14
 -1      3706 1.99231E+01 2.12221E-01 7.47485E-04-1.11919E-01-6.39612E-14 1.13029E-13
 -1      3707 1.99733E+01 1.36583E-01 2.31392E-04-8.36248E-02-7.44462E-14 2.03191E-13
 -1      3708 1.99783E+01 1.17680E-01-5.63651E-04-6.94302E-02-6.01862E-15 2.28091E-13
 -1      3709 1.99534E+01 1.61312E-01 5.34987E-04-8.18684E-02 2.70039E-14 3.21547E-13
 -1      3710 1.99877E+01 1.01382E-01 2.04960E-04-5.88572E-02-8.94276E-14 1.04128E-13
 -1      3711 1.99907E+01 8.65444E-02-4.22546E-04-4.80692E-02-1.13916E-13 1.19176E-13
 -1      3712 1.99743E+01 1.20590E-01 3.76414E-04-5.83816E-02-1.10112E-13 2.44293E-13
 -1      3713 1.99970E+01 7.38528E-02 1.74510E-04-4.01070E-02-3.68620E-14 1.90859E-13
 -1      3714 1.99987E+01 6.23838E-02-3.11218E-04-3.20644E-02 5.84869E-15 2.52834E-13
 -1      3715 1.99884E+01 8.85215E-02 2.59252E-04-4.03916E-02-1.71556E-14 2.67087E-13
 -1      3716 2.00027E+01 5.26529E-02 1.43968E-04-2.61941E-02 2.23067E-14 1.64509E-13
 -1      3717 2.00035E+01 4.39282E-02-2.24644E-04-2.03216E-02 2.36298E-14 2.07454E-13
 -1      3718 1.99975E+01 6.36591E-02 1.73693E-04-2.68928E-02 4.91505E-14 2.03223E-13
 -1      3719 2.00059E+01 3.65881E-02 1.15629E-04-1.60932E-02-1.07237E-14 1.69950E-13
 -1      3720 2.00060E+01 3.00629E-02-1.58347E-04-1.19043E-02-6.48925E-14 2.27493E-13
 -1      3721 2.00030E+01 4.46908E-02 1.12088E-04-1.69824E-02 5.53321E-14 1.79564E-13
 -1      3722 2.00074E+01 2.46231E-02 9.06553E-05-8.93876E-03-2.02278E-13 1.94373E-13
 -1      3723 2.00072E+01 1.98329E-02-1.08415E-04-6.03165E-03-4.67495E-14 5.31815E-14
 -1      3724 2.00061E+01 3.04631E-02 6.84969E-05-9.87913E-03-1.58502E-13 2.94049E-13
 -1      3725 2.00077E+01 1.58797E-02 6.94674E-05-4.01801E-03 1.18499E-13-3.95681E-14
 -1      3726 2.00073E+01 1.24359E-02-7.15062E-05-2.06825E-03-1.53128E-15-5.44300E-14
 -1      3727 2.00075E+01 1.99868E-02 3.83192E-05-4.92728E-03-2.76745E-14 3.09421E-13
 -1      3728 2.00074E+01 9.62629E-03 5.20184E-05-7.57120E-04-5.46046E-14-3.36329E-14
 -1      3729 2.00069E+01 7.20944E-03-4.47465E-05 4.92067E-04-8.98224E-14-8.06450E-15
 -1      3730 2.00078E+01 1.24300E-02 1.80126E-05-1.59081E-03-4.41480E-16 3.41273E-13
 -1      3731 2.00067E+01 5.26338E-03 3.79968E-05 1.29667E-03 1.00537E-14 1.25091E-13
 -1      3732 2.00061E+01 3.61353E-03-2.59256E-05 2.04462E-03 2.17791E-13 2.29576E-13
 -1      3733 2.00074E+01 7.10619E-03 4.98673E-06 5.58298E-04 6.46532E-14 2.68884E-13
 -1      3734 2.00057E+01 2.30450E-03 2.70321E-05 2.49280E-03 2.46220E-13 2.43877E-13
 -1      3735 2.00052E+01 1.21373E-03-1.26737E-05 2.89019E-03 2.70379E-13 3.20447E-13
 -1      3736 2.00067E+01 3.45372E-03-3.31659E-06 1.85546E-03 2.10115E-13 3.11043E-13
 -1      3737 2.00047E+01 3.56985E-04 1.72384E-05 3.09479E-03 2.59249E-13 1.64091E-13
 -1      3738 2.00042E+01-3.25019E-04-1.25693E-06 3.24790E-03 2.21475E-13 1.79830E-13
 -1      3739 2.00057E+01 1.02532E-03-7.39085E-06 2.55408E-03 1.28705E-13 2.70750E-13
 -1      3740 2.00041E+01-1.90645E-03-5.22113E-06 1.47951E-03 9.69018E-14-1.17643E-13
 -1      3741 2.00044E+01-1.93501E-03 1.59810E-07 9.07684E-04 1.90898E-13-1.84633E-13
 -1      3742 1.95602E+01 7.26757E-02 8.30595E-04 1.33883E+00-1.69439E-13-2.71808E-14
 -1      3743 1.96709E+01-9.63105E-02 7.94156E-03 1.43883E+00-1.81229E-13-5.00786E-14
 -1      3744 1.93169E+01-1.16759E-01-8.01049E-03 1.61426E+00-2.07049E-13-5.09104E-14
 -1      3745 1.95081E+01 3.06289E-01-9.00365E-04 1.10704E+00-1.65975E-13 1.43980E-14
 -1      3746 1.95578E+01 2.07370E-01 5.59284E-03 1.20380E+00-1.19574E-13-2.79708E-14
 -1      3747 1.92579E+01 2.27915E-01-4.26104E-03 1.30539E+00-1.25219E-13-1.70245E-14
 -1      3748 1.95276E+01 4.28772E-01-1.70996E-03 9.04425E-01-6.00515E-14-4.88578E-14
 -1      3749 1.95412E+01 3.80776E-01 3.95397E-03 9.92623E-01-1.32844E-13-8.45427E-14
 -1      3750 1.92925E+01 4.25718E-01-1.74280E-03 1.04801E+00-7.94912E-14-7.46667E-14
 -1      3751 1.95830E+01 4.73880E-01-1.98419E-03 7.31147E-01-1.32228E-14-1.40929E-13
 -1      3752 1.95768E+01 4.60600E-01 2.78372E-03 8.09125E-01 9.25539E-15-1.13155E-13
 -1      3753 1.93738E+01 5.18632E-01-1.78834E-04 8.36178E-01-9.53704E-15-1.87931E-13
 -1      3754 1.96521E+01 4.68632E-01-1.99298E-03 5.84894E-01 1.46441E-14-1.96771E-13
 -1      3755 1.96366E+01 4.77398E-01 1.96667E-03 6.52504E-01-2.70095E-14-2.55088E-13
 -1      3756 1.94732E+01 5.40395E-01 6.33397E-04 6.63289E-01 3.70495E-14-1.65722E-13
 -1      3757 1.97222E+01 4.33263E-01-1.86197E-03 4.62650E-01-8.22442E-14 1.50076E-13
 -1      3758 1.97036E+01 4.54759E-01 1.41727E-03 5.20351E-01-6.92579E-14-3.80598E-14
 -1      3759 1.95737E+01 5.17412E-01 9.97097E-04 5.22532E-01-1.59998E-13-1.71015E-13
 -1      3760 1.97864E+01 3.82231E-01-1.66164E-03 3.61484E-01 3.55139E-14 1.94059E-13
 -1      3761 1.97682E+01 4.09900E-01 1.05069E-03 4.09998E-01 3.64939E-15 2.28695E-13
 -1      3762 1.96664E+01 4.68789E-01 1.10186E-03 4.08190E-01-1.25625E-13 8.16150E-14
 -1      3763 1.98415E+01 3.25381E-01-1.43365E-03 2.78673E-01 8.65794E-14 2.88834E-13
 -1      3764 1.98255E+01 3.54826E-01 8.02031E-04 3.18858E-01 8.46212E-14 1.80800E-13
 -1      3765 1.97468E+01 4.07934E-01 1.06128E-03 3.15688E-01 5.72768E-14 1.67086E-13
 -1      3766 1.98866E+01 2.69032E-01-1.20343E-03 2.11694E-01-1.14534E-13 3.59167E-13
 -1      3767 1.98736E+01 2.97490E-01 6.27759E-04 2.44480E-01 2.50358E-14 3.32947E-13
 -1      3768 1.98138E+01 3.43836E-01 9.45936E-04 2.41322E-01 5.35387E-15 2.32956E-13
 -1      3769 1.99223E+01 2.16921E-01-9.86346E-04 1.58218E-01-4.06674E-14 3.91693E-13
 -1      3770 1.99121E+01 2.42812E-01 5.00320E-04 1.84558E-01-8.40826E-14 3.68163E-13
 -1      3771 1.98675E+01 2.82158E-01 7.99740E-04 1.82031E-01-5.71723E-14 2.26563E-13
 -1      3772 1.99495E+01 1.70969E-01-7.90999E-04 1.16104E-01-9.14784E-14 2.58587E-13
 -1      3773 1.99419E+01 1.93532E-01 4.02956E-04 1.36938E-01-1.85897E-14 3.54044E-13
 -1      3774 1.99094E+01 2.26144E-01 6.49176E-04 1.35231E-01-2.45017E-14 2.02296E-13
 -1      3775 1.99695E+01 1.31876E-01-6.21386E-04 8.34187E-02 2.16999E-14-1.25253E-14
 -1      3776 1.99642E+01 1.50896E-01 3.25735E-04 9.96350E-02-1.86784E-14 1.93064E-14
 -1      3777 1.99410E+01 1.77347E-01 5.09132E-04 9.87114E-02 7.49818E-14 1.18905E-13
 -1      3778 1.99839E+01 9.95721E-02-4.78365E-04 5.84394E-02 9.94103E-14-2.99968E-14
 -1      3779 1.99803E+01 1.15170E-01 2.62842E-04 7.08530E-02 1.30575E-14-7.50802E-14
 -1      3780 1.99642E+01 1.36195E-01 3.86919E-04 7.05764E-02 2.65276E-14-1.76085E-13
 -1      3781 1.99937E+01 7.35371E-02-3.60767E-04 3.96643E-02 2.59340E-13-2.26643E-14
 -1      3782 1.99914E+01 8.60252E-02 2.10843E-04 4.90010E-02 2.21682E-13 7.08389E-14
 -1      3783 1.99807E+01 1.02415E-01 2.85062E-04 4.92052E-02 9.03625E-14-1.78942E-13
 -1      3784 2.00000E+01 5.30232E-02-2.66240E-04 2.58073E-02 7.09380E-14-1.30720E-14
 -1      3785 1.99988E+01 6.28032E-02 1.67618E-04 3.26969E-02 1.86357E-13 5.49381E-14
 -1      3786 1.99920E+01 7.53357E-02 2.03232E-04 3.32238E-02 1.64882E-13-6.97529E-14
 -1      3787 2.00039E+01 3.72020E-02-1.91846E-04 1.57873E-02 2.34499E-13-2.61408E-14
 -1      3788 2.00034E+01 4.47006E-02 1.31751E-04 2.07641E-02 1.61662E-13-2.07414E-14
 -1      3789 1.99994E+01 5.40947E-02 1.39554E-04 2.14808E-02 1.58375E-13 8.17900E-14
 -1      3790 2.00060E+01 2.52563E-02-1.34488E-04 8.71236E-03 3.50006E-14 9.89430E-14
 -1      3791 2.00059E+01 3.08847E-02 1.02185E-04 1.22197E-02 1.26062E-13-1.78257E-14
 -1      3792 2.00039E+01 3.77784E-02 9.14573E-05 1.30236E-02 1.18478E-13 6.13772E-14
 -1      3793 2.00068E+01 1.64325E-02-9.11757E-05 3.85887E-03-8.86351E-14 1.26055E-13
 -1      3794 2.00070E+01 2.05641E-02 7.80562E-05 6.25778E-03 6.89228E-14 1.11267E-13
 -1      3795 2.00063E+01 2.55051E-02 5.61992E-05 7.07524E-03 3.64041E-14 1.90928E-13
 -1      3796 2.00068E+01 1.00665E-02-5.91814E-05 6.50283E-04-2.54091E-13 9.33410E-14
 -1      3797 2.00072E+01 1.30270E-02 5.86059E-05 2.22893E-03-2.11310E-13 2.69934E-14
 -1      3798 2.00073E+01 1.64726E-02 3.11717E-05 3.01138E-03-1.02163E-13 1.76715E-13
 -1      3799 2.00063E+01 5.59209E-03-3.61001E-05-1.36478E-03-2.30045E-13 8.25288E-14
 -1      3800 2.00068E+01 7.65685E-03 4.31487E-05-3.80664E-04-1.86741E-13 6.38384E-14
 -1      3801 2.00074E+01 9.98054E-03 1.40656E-05 3.37783E-04-2.21897E-13 1.73801E-14
 -1      3802 2.00056E+01 2.53818E-03-1.99391E-05-2.53338E-03-3.06394E-13 5.26172E-14
 -1      3803 2.00061E+01 3.93516E-03 3.10745E-05-1.97036E-03-3.45912E-13 5.78340E-14
 -1      3804 2.00069E+01 5.43539E-03 2.93100E-06-1.33034E-03-2.53426E-13-2.80502E-14
 -1      3805 2.00047E+01 5.20055E-04-8.77408E-06-3.11640E-03-1.03743E-14 5.37352E-14
 -1      3806 2.00051E+01 1.43434E-03 2.18798E-05-2.84452E-03-2.06549E-13 3.04479E-14
 -1      3807 2.00061E+01 2.34511E-03-3.90018E-06-2.28780E-03-2.23678E-13 8.91189E-14
 -1      3808 2.00037E+01-7.65992E-04 1.18383E-07-3.30099E-03 1.46439E-13-1.03569E-13
 -1      3809 2.00042E+01-1.94155E-04 1.46232E-05-3.23011E-03 1.58896E-13-3.35256E-14
 -1      3810 2.00051E+01 3.09131E-04-8.05477E-06-2.75451E-03 5.52964E-14 1.36343E-13
 -1      3811 2.00030E+01-1.49506E-03 1.78674E-06-3.21956E-03-3.63366E-14 7.99935E-14
 -1      3812 2.00034E+01-1.11718E-03 9.61910E-06-3.27109E-03 4.91759E-14 4.00511E-14
 -1      3813 2.00042E+01-8.89854E-04-1.29247E-05-2.87274E-03 8.49166E-14 3.81232E-13
 -1      3814 2.00035E+01-1.58563E-03-8.65498E-06-2.78984E-03-1.20470E-13 1.92987E-13
 -1      3815 2.48271E+01-1.37296E+00 1.60129E-02 1.16168E+00 1.96197E-15 1.90009E-13
 -1      3816 1.43210E+01 7.09167E-01-3.14927E-02 1.62349E+00-1.36831E-13 2.28151E-14
 -1      3817 1.37567E+01 1.14477E+00 5.23102E-02 3.88415E-01-1.07439E-13-8.66390E-14
 -1      3818 2.00045E+01-1.93618E-03-2.37638E-06 2.74338E-04 1.83067E-13-3.29296E-13
 -1      3819 2.00045E+01-1.93979E-03-4.63704E-06-3.20613E-04 3.69751E-13-3.07899E-13
 -1      3820 2.00049E+01-1.53038E-03 6.54795E-06 5.95063E-04 1.68445E-13-2.94378E-13
 -1      3821 2.00032E+01-1.72009E-03-2.49223E-06 2.87615E-03 4.05019E-13 1.08461E-14
 -1      3822 2.00038E+01-1.86210E-03 4.00190E-06 2.13695E-03 2.52488E-13 2.60280E-14
 -1      3823 2.00045E+01-1.50226E-03 4.99908E-06 1.85710E-03 2.19416E-13-3.79175E-14
 -1      3824 2.00035E+01-1.41379E-03 1.24361E-06 3.01749E-03 3.59138E-13 4.87221E-14
 -1      3825 1.53395E+01-4.59835E-02 1.01618E-02-2.96218E+00 2.83905E-13 9.08145E-14
 -1      3826 1.99224E+01 5.88095E-01 1.29470E-02-1.39842E+00 1.24653E-13-2.27800E-13
 -1      3827 1.92295E+01 8.41720E-01-8.07684E-03-1.63471E+00 9.41430E-14-2.96125E-13
 -1      3828 1.90360E+01 4.94179E-01-2.44827E-03-2.03271E+00 3.92013E-14-3.27679E-13
 -1      3829 2.03512E+01-6.27927E-02 1.27634E-02-1.58802E+00 8.57673E-14-1.98029E-13
 -1      3830 1.53646E+01 2.89672E+00 1.90826E-02-5.41162E-01 8.28146E-14-5.55660E-13
 -1      3831 1.53927E+01 2.83803E+00-1.96735E-02-9.44872E-02 7.98821E-14-5.54890E-13
 -1      3832 1.50117E+01 2.58691E+00 1.09342E-03 1.01483E-01 8.49793E-14-5.58217E-13
 -1      3833 1.58538E+01 1.74875E+00 1.75002E-02 1.63238E+00 1.39140E-13-5.17648E-13
 -1      3834 1.78464E+01-5.24893E-01 8.99982E-02-3.61568E+00-1.07925E-13-3.96721E-13
 -1      3835 1.95035E+01-1.44353E+00-1.51237E-02-3.32144E+00-1.34045E-13-2.95691E-13
 -1      3836 2.14509E+01-1.84387E+00 2.04779E-02-2.28711E+00-8.93851E-14-1.26667E-13
 -1      3837 2.45043E+01-1.92000E+00-3.77258E-02 6.91117E-01-2.27956E-14 1.43660E-13
 -1      3838 1.35851E+01 9.79524E-01-3.33965E-02-8.09466E-01 2.77894E-14 1.27794E-13
 -1      3839 1.42691E+01 5.73009E-01 2.59261E-02-2.17859E+00 1.50794E-13 2.46662E-13
 -1      3840 1.58421E+01 4.70037E-01 4.04920E-02-2.28188E+00 1.47077E-13 3.90777E-14
 -1      3841 1.60795E+01 7.16090E-01-1.61227E-02-1.94548E+00 3.28106E-14 3.75472E-14
 -1      3842 1.58655E+01 2.59204E+00 2.24785E-02-1.38129E+00 7.57528E-14-4.88680E-13
 -1      3843 1.54788E+01 2.73133E+00-1.68382E-02-1.00144E+00 7.08691E-14-5.29290E-13
 -1      3844 1.50865E+01 2.50573E+00 1.12003E-02-1.05245E+00 6.36474E-14-5.45484E-13
 -1      3845 1.59134E+01 2.01405E+00 1.55916E-03-1.86589E+00 4.48205E-14-4.68996E-13
 -1      3846 2.01359E+01-8.91047E-01 7.96090E-03 1.84254E+00-1.27609E-13-1.33615E-14
 -1      3847 2.04850E+01-1.24957E+00 1.11742E-02 1.88315E+00-1.25673E-13 3.52600E-14
 -1      3848 1.95498E+01-6.55881E-01-1.10596E-02 1.97016E+00-9.07952E-14-2.52112E-14
 -1      3849 2.14900E+01-2.45292E+00 2.31852E-03 2.18783E+00-2.47814E-14-7.06848E-14
 -1      3850 2.22681E+01-3.12367E+00 1.87662E-02 2.36003E+00-1.45647E-13-1.73507E-13
 -1      3851 2.09292E+01-2.96236E+00 5.65359E-02 3.37513E+00-2.18654E-13-2.11643E-13
 -1      3852 2.06492E+01-2.31943E+00-1.85976E-02 2.72482E+00-8.77913E-14-3.76170E-14
 -1      3853 1.57126E+01 1.04839E+00 6.46634E-03-1.37449E+00-8.41850E-14 2.39010E-14
 -1      3854 2.00941E+01-1.45207E+00-1.58218E-02 2.32740E+00-7.00256E-14 3.62839E-14
 -1      3855 1.46639E+01 1.13733E+00 3.15650E-02-3.19368E-01-9.99001E-14 4.44696E-15
 -1      3856 1.39179E+01 1.57527E+00 3.12311E-02-1.97983E+00 8.22432E-15-5.77215E-13
 -1      3857 1.54451E+01 9.34561E-01-4.43246E-03 2.52655E+00 1.65925E-13-4.88384E-13
 -1      3858 2.00040E+01-7.09107E-04 7.07541E-06 3.19324E-03 2.35332E-13 2.13663E-13
 -1      3859 2.00037E+01-1.10207E-03 1.53656E-06 3.11849E-03 2.29276E-13 1.30594E-13
 -1      3860 2.00044E+01-1.16671E-03-6.91098E-06 2.59166E-03 3.52526E-13-1.37400E-13
 -1      3861 2.00049E+01-3.73338E-04-1.12165E-05 2.73511E-03 3.35879E-13-4.34341E-14
 -1      3862 1.78020E+01-1.60399E+00 8.08614E-02 3.91971E+00-2.11001E-13-5.02159E-14
 -1      3863 1.70538E+01-9.13439E-01 8.62268E-03 3.33471E+00-1.87573E-13 2.42662E-14
 -1      3864 2.00045E+01-1.83629E-03-1.41341E-06-9.04028E-04 3.57529E-13 1.33721E-14
 -1      3865 2.00044E+01-1.75116E-03-5.23900E-06-1.43478E-03 2.71325E-13-3.72835E-14
 -1      3866 2.00050E+01-1.43030E-03 7.90180E-06-5.96769E-04 2.42135E-13-1.82365E-13
 -1      3867 1.52736E+01 4.96480E-01 5.18248E-02 2.18595E+00-1.56659E-13 1.72536E-13
 -1      3868 1.53036E+01 8.22443E-01-2.44369E-03 1.42544E+00-7.29525E-14 1.56255E-14
 -1      3869 1.94882E+01-2.42469E+00-4.01230E-03 3.60443E+00-1.95552E-13-9.17114E-14
 -1      3870 1.57786E+01 9.59149E-02-2.36106E-02 2.54588E+00-2.09729E-13 1.80683E-13
 -1      3871 1.91914E+01-1.15250E-01 5.12772E-03-2.43255E+00-1.15307E-14-3.09035E-13
 -1      3872 1.84745E+01 2.22292E-01 2.48681E-02-2.64114E+00-1.26917E-14-3.44665E-13
 -1      3873 1.68815E+01 1.17275E-01 8.90434E-03-3.22685E+00-5.90014E-14-4.33943E-13
 -1      3874 2.00326E+01-1.01904E+00-1.46505E-02-2.66894E+00-5.79833E-14-2.73562E-13
 -1      3875 2.09590E+01-7.00695E-01 8.25500E-03-1.61707E+00 3.87074E-14-1.72110E-13
 -1      3876 1.74402E+01 6.05059E-01-6.96341E-03-2.66852E+00-2.31516E-14-3.92786E-13
 -1      3877 1.42080E+01 2.27654E+00-1.15871E-02 1.35247E-01 7.79914E-14-5.65955E-13
 -1      3878 1.67935E+01-2.60463E-01 3.85039E-02 2.84029E+00-2.25099E-13 1.56521E-13
 -1      3879 1.68501E+01 8.69318E-02-6.26402E-05 2.31498E+00-2.17999E-13 1.41392E-13
 -1      3880 1.79587E+01-9.24966E-01-2.58632E-02 2.99584E+00-1.03350E-13 7.37179E-14
 -1      3881 1.54022E+01 1.19093E+00 1.54349E-02-9.03424E-01-1.38122E-13 2.24430E-14
 -1      3882 1.62638E+01 1.20668E+00 8.95338E-03-8.79116E-01-1.71732E-13-3.28288E-14
 -1      3883 1.66547E+01 1.23955E+00-1.01780E-02-7.65376E-01-2.30316E-13-8.54098E-14
 -1      3884 1.52653E+01 1.19031E+00-2.11385E-02 1.39756E-01-1.70432E-13-1.02618E-13
 -1      3885 1.87590E+01-7.07228E-01-6.14790E-03 2.42464E+00-1.33686E-13 6.81772E-14
 -1      3886 1.90882E+01-1.13265E+00 9.35974E-03 2.64790E+00-6.40395E-14 8.82144E-14
 -1      3887 1.73041E+01 1.24338E+00-1.10787E-03-6.61815E-01-2.48105E-13-1.45201E-14
 -1      3888 1.76113E+01 1.21666E+00-1.07217E-02-6.01538E-01-8.57435E-14-3.70377E-14
 -1      3889 1.79465E+01 1.18826E+00-4.87892E-03-5.81735E-01-2.22687E-14-6.08667E-14
 -1      3890 1.81986E+01 1.14306E+00-6.77652E-03-5.32531E-01-4.07980E-14-4.19493E-14
 -1      3891 1.76607E+01 1.25753E+00 1.47497E-02-3.20886E-01-1.13995E-13 7.68595E-14
 -1      3892 1.84513E+01 1.09150E+00-3.86264E-03-5.13519E-01-1.64497E-14-2.04663E-14
 -1      3893 1.86448E+01 1.03262E+00-4.88860E-03-4.70706E-01 1.83992E-14 3.25550E-14
 -1      3894 1.82254E+01 1.16109E+00 1.01677E-02-3.17788E-01-1.34129E-14-1.21621E-13
 -1      3895 1.88387E+01 9.70576E-01-2.88430E-03-4.49878E-01-4.21700E-14 2.51608E-14
 -1      3896 1.89870E+01 9.05457E-01-3.72325E-03-4.10138E-01-5.92316E-14-6.86731E-14
 -1      3897 1.86586E+01 1.04078E+00 7.54173E-03-3.02588E-01-9.71445E-15-4.51169E-14
 -1      3898 1.91365E+01 8.40271E-01-2.11313E-03-3.87806E-01 1.59302E-14-1.15697E-13
 -1      3899 1.92495E+01 7.74813E-01-2.94318E-03-3.50432E-01-2.70761E-15-8.62718E-14
 -1      3900 1.89925E+01 9.08953E-01 5.66026E-03-2.77870E-01-1.56938E-14-1.70426E-14
 -1      3901 1.93649E+01 7.11342E-01-1.47623E-03-3.27522E-01-8.99610E-14-1.81396E-13
 -1      3902 1.94503E+01 6.49287E-01-2.37924E-03-2.92923E-01-9.88050E-14-1.71068E-13
 -1      3903 1.92502E+01 7.76383E-01 4.30486E-03-2.46234E-01-9.67619E-14-1.39249E-13
 -1      3904 1.95391E+01 5.90507E-01-9.85223E-04-2.70651E-01-7.01195E-14-1.15200E-13
 -1      3905 1.96030E+01 5.34075E-01-1.94052E-03-2.39451E-01 5.45435E-16-1.16243E-13
 -1      3906 1.94486E+01 6.50084E-01 3.29512E-03-2.11165E-01-4.09686E-14-2.84495E-15
 -1      3907 1.96709E+01 4.81592E-01-6.24528E-04-2.18824E-01-4.81805E-14-1.09116E-13
 -1      3908 1.97182E+01 4.31881E-01-1.58084E-03-1.91473E-01-7.50183E-14-1.58536E-13
 -1      3909 1.96005E+01 5.34516E-01 2.52176E-03-1.75794E-01 3.59648E-14 4.18355E-14
 -1      3910 1.97697E+01 3.86335E-01-3.70249E-04-1.73144E-01-4.36150E-14-2.62541E-13
 -1      3911 1.98042E+01 3.43658E-01-1.27794E-03-1.49812E-01-4.49571E-14-1.18291E-13
 -1      3912 1.97157E+01 4.32084E-01 1.92104E-03-1.42422E-01-9.70028E-14-7.91856E-14
 -1      3913 1.98428E+01 3.05048E-01-1.98046E-04-1.34088E-01 8.98427E-14-9.06645E-14
 -1      3914 1.98677E+01 2.69199E-01-1.02113E-03-1.14681E-01 3.01608E-15 8.22701E-14
 -1      3915 1.98022E+01 3.43647E-01 1.45228E-03-1.12484E-01 6.72262E-14-2.39407E-14
 -1      3916 1.98962E+01 2.37121E-01-8.64058E-05-1.01597E-01-1.21819E-13 2.14434E-13
 -1      3917 1.99138E+01 2.07580E-01-8.04600E-04-8.58272E-02 1.94531E-14 2.66280E-13
 -1      3918 1.98662E+01 2.68985E-01 1.08695E-03-8.66808E-02 4.28226E-14 4.35290E-14
 -1      3919 1.99345E+01 1.81408E-01-1.77647E-05-7.52318E-02 6.51829E-14 1.96489E-13
 -1      3920 1.99468E+01 1.57488E-01-6.24222E-04-6.26948E-02 2.33704E-14 2.49027E-13
 -1      3921 1.99129E+01 2.07190E-01 8.03620E-04-6.51678E-02-1.72145E-14 2.31850E-13
 -1      3922 1.99615E+01 1.36490E-01 2.14413E-05-5.43257E-02-9.77721E-14 2.64525E-13
 -1      3923 1.99698E+01 1.17441E-01-4.76220E-04-4.45655E-02-1.07375E-13 2.58924E-13
 -1      3924 1.99463E+01 1.56962E-01 5.85532E-04-4.77403E-02-9.16072E-14 1.37664E-13
 -1      3925 1.99801E+01 1.00864E-01 4.12407E-05-3.81094E-02-5.97400E-14 4.01356E-13
 -1      3926 1.99855E+01 8.59382E-02-3.56767E-04-3.06665E-02 5.17219E-14 4.52305E-13
 -1      3927 1.99697E+01 1.16827E-01 4.19242E-04-3.39835E-02-1.56416E-14 4.29921E-13
 -1      3928 1.99924E+01 7.30601E-02 4.87802E-05-2.58011E-02-4.79051E-14 4.16151E-13
 -1      3929 1.99957E+01 6.15537E-02-2.61985E-04-2.02442E-02-9.92492E-15 3.78663E-13
 -1      3930 1.99856E+01 8.52833E-02 2.93874E-04-2.33853E-02 2.17563E-14 6.20708E-13
 -1      3931 2.00002E+01 5.17120E-02 4.89866E-05-1.66649E-02 4.84366E-14 2.56466E-13
 -1      3932 2.00021E+01 4.29903E-02-1.88079E-04-1.26082E-02-6.25582E-14 1.62324E-13
 -1      3933 1.99961E+01 6.08987E-02 2.00595E-04-1.54131E-02-6.12631E-14 5.08872E-13
 -1      3934 2.00048E+01 3.55978E-02 4.51488E-05-1.00430E-02-1.43404E-13 3.35313E-13
 -1      3935 2.00058E+01 2.91048E-02-1.31478E-04-7.15446E-03-1.02333E-13 3.73201E-13
 -1      3936 2.00025E+01 4.23665E-02 1.32258E-04-9.56200E-03 1.35612E-14 3.86353E-13
 -1      3937 2.00072E+01 2.36548E-02 3.93905E-05-5.36999E-03-3.18545E-14 3.53526E-13
 -1      3938 2.00075E+01 1.89154E-02-8.89349E-05-3.37257E-03 4.90724E-14 4.04034E-13
 -1      3939 2.00062E+01 2.85337E-02 8.31032E-05-5.38034E-03 3.49644E-15 4.65457E-13
 -1      3940 2.00082E+01 1.49800E-02 3.30335E-05-2.17551E-03-8.53986E-14 3.90859E-13
 -1      3941 2.00080E+01 1.15959E-02-5.77054E-05-8.43781E-04-7.18286E-14 3.10482E-13
 -1      3942 2.00079E+01 1.84090E-02 4.85158E-05-2.48167E-03-8.02002E-15 1.98131E-13
 -1      3943 2.00081E+01 8.81988E-03 2.68079E-05-7.90077E-05 6.20624E-14 2.99680E-13
 -1      3944 2.00077E+01 6.46497E-03-3.48656E-05 7.65611E-04 1.29911E-13 4.27941E-13
 -1      3945 2.00084E+01 1.11576E-02 2.48524E-05-5.46114E-04-7.97544E-15 2.04126E-13
 -1      3946 2.00075E+01 4.56094E-03 2.11043E-05 1.22138E-03 1.85229E-13 4.39579E-13
 -1      3947 2.00070E+01 2.96825E-03-1.85848E-05 1.71992E-03 1.55617E-13 4.22490E-13
 -1      3948 2.00080E+01 6.09803E-03 1.11807E-05 6.79566E-04 1.39021E-13 3.66647E-13
 -1      3949 2.00065E+01 1.69426E-03 1.53531E-05 1.96110E-03 6.22380E-14 4.05978E-13
 -1      3950 2.00060E+01 6.70090E-04-4.46250E-06 2.20776E-03 9.47866E-14 2.88883E-13
 -1      3951 2.00072E+01 2.65824E-03 9.55475E-09 1.40424E-03 1.44432E-13 5.83068E-13
 -1      3952 1.88838E+01 1.67697E-01-4.31609E-03 1.53177E+00-1.90542E-13-8.49050E-15
 -1      3953 1.89595E+01-2.48713E-02 8.43477E-03 1.70676E+00-1.43567E-13 3.20179E-14
 -1      3954 1.92244E+01 6.11928E-01-3.58028E-03 7.27827E-01-1.27309E-14-9.87122E-14
 -1      3955 1.91836E+01 6.00084E-01 3.27084E-03 8.21083E-01-9.36791E-14-9.55008E-14
 -1      3956 1.93676E+01 6.00926E-01-3.06771E-03 5.65636E-01 1.25080E-14-7.64669E-14
 -1      3957 1.93209E+01 6.13810E-01 2.07146E-03 6.40822E-01 6.75830E-14-7.37147E-14
 -1      3958 1.91372E+01 6.88937E-01 2.15282E-03 6.22818E-01 2.19332E-14-1.03709E-13
 -1      3959 1.94988E+01 5.55360E-01-2.59509E-03 4.37751E-01-2.81461E-13-1.08667E-13
 -1      3960 1.94531E+01 5.82708E-01 1.30321E-03 4.98447E-01-1.59872E-13-1.00283E-13
 -1      3961 1.93108E+01 6.53090E-01 2.18067E-03 4.74523E-01-6.46537E-14-5.83143E-14
 -1      3962 1.96132E+01 4.91478E-01-2.16967E-03 3.36689E-01-7.99225E-14-1.37818E-13
 -1      3963 1.95719E+01 5.25974E-01 8.20801E-04 3.85655E-01-1.80528E-13-1.96152E-13
 -1      3964 1.94622E+01 5.90063E-01 2.03183E-03 3.60905E-01-1.99623E-13-2.42818E-13
 -1      3965 1.97091E+01 4.20556E-01-1.79196E-03 2.56854E-01-5.82338E-14 5.93505E-15
 -1      3966 1.96739E+01 4.57191E-01 5.23416E-04 2.96226E-01-8.81784E-14-8.24469E-14
 -1      3967 1.95898E+01 5.14088E-01 1.80026E-03 2.73418E-01-1.75792E-13-3.36860E-13
 -1      3968 1.97872E+01 3.50008E-01-1.46086E-03 1.93977E-01 2.26894E-15 1.38024E-13
 -1      3969 1.97583E+01 3.85550E-01 3.42608E-04 2.25452E-01 7.32110E-14 1.58911E-13
 -1      3970 1.96945E+01 4.34904E-01 1.53693E-03 2.05882E-01-9.06800E-14-5.28931E-14
 -1      3971 1.98489E+01 2.84353E-01-1.17459E-03 1.44722E-01 1.79570E-15 9.31495E-14
 -1      3972 1.98261E+01 3.16891E-01 2.33595E-04 1.69684E-01 2.69598E-15 9.71753E-14
 -1      3973 1.97783E+01 3.58793E-01 1.27259E-03 1.53749E-01 9.22834E-14 1.15572E-13
 -1      3974 1.98965E+01 2.26015E-01-9.30746E-04 1.06429E-01 2.97396E-14-7.81076E-14
 -1      3975 1.98791E+01 2.54586E-01 1.67768E-04 1.26032E-01-1.87431E-14 3.59639E-14
 -1      3976 1.98438E+01 2.89456E-01 1.02572E-03 1.13606E-01 4.28026E-14-3.22302E-14
 -1      3977 1.99323E+01 1.75974E-01-7.26331E-04 7.69346E-02 1.90377E-13-5.69275E-14
 -1      3978 1.99193E+01 2.00256E-01 1.27270E-04 9.21567E-02 1.33937E-13 8.79882E-15
 -1      3979 1.98938E+01 2.28732E-01 8.06410E-04 8.28460E-02 5.44622E-14-1.98239E-13
 -1      3980 1.99585E+01 1.34262E-01-5.57753E-04 5.44688E-02-8.08274E-16-2.84826E-13
 -1      3981 1.99492E+01 1.54349E-01 1.01246E-04 6.61391E-02 1.28972E-13-1.81213E-13
 -1      3982 1.99310E+01 1.77186E-01 6.18939E-04 5.94400E-02 2.18163E-13-3.21391E-13
 -1      3983 1.99771E+01 1.00336E-01-4.21015E-04 3.75750E-02 8.29155E-14-2.36232E-13
 -1      3984 1.99706E+01 1.16566E-01 8.33087E-05 4.63961E-02-5.51047E-14-3.53422E-13
 -1      3985 1.99581E+01 1.34560E-01 4.63688E-04 4.17913E-02 5.19659E-14-3.16935E-13
 -1      3986 1.99899E+01 7.33465E-02-3.11932E-04 2.50575E-02 4.71504E-14-7.16518E-14
 -1      3987 1.99856E+01 8.61805E-02 6.98441E-05 3.16201E-02 1.52718E-13-1.49121E-13
 -1      3988 1.99773E+01 1.00111E-01 3.38626E-04 2.86322E-02 3.69282E-14-1.31501E-13
 -1      3989 1.99982E+01 5.23167E-02-2.26359E-04 1.59395E-02 1.45831E-13 3.85106E-15
 -1      3990 1.99956E+01 6.22599E-02 5.89096E-05 2.07349E-02 4.51943E-14-1.20640E-13
 -1      3991 1.99903E+01 7.28512E-02 2.40396E-04 1.89519E-02 1.31896E-13-1.29534E-13
 -1      3992 2.00034E+01 3.62606E-02-1.60372E-04 9.42960E-03 5.89734E-14 1.34334E-13
 -1      3993 2.00019E+01 4.38094E-02 4.95286E-05 1.28618E-02 1.68058E-13 7.52952E-14
 -1      3994 1.99988E+01 5.17102E-02 1.65087E-04 1.19449E-02 8.81468E-14 2.53634E-14
 -1      3995 2.00062E+01 2.42533E-02-1.10389E-04 4.89306E-03-8.53647E-14 1.90140E-13
 -1      3996 2.00056E+01 2.98657E-02 4.12544E-05 7.28932E-03-1.17921E-13 1.41593E-13
 -1      3997 2.00040E+01 3.56388E-02 1.08738E-04 6.97060E-03 6.40096E-15 1.39678E-13
 -1      3998 2.00075E+01 1.54687E-02-7.32561E-05 1.82644E-03-1.45476E-13 7.20100E-14
 -1      3999 2.00074E+01 1.95491E-02 3.39119E-05 3.44846E-03 9.99618E-15 1.94884E-13
 -1      4000 2.00068E+01 2.36701E-02 6.76437E-05 3.52325E-03-8.65596E-14 1.87026E-14
 -1      4001 2.00077E+01 9.19377E-03-4.62718E-05-1.64169E-04-1.94324E-13 1.86300E-13
 -1      4002 2.00079E+01 1.20882E-02 2.74558E-05 8.89540E-04-1.99291E-13 1.66738E-13
 -1      4003 2.00080E+01 1.49505E-02 3.85098E-05 1.20642E-03-1.44889E-13 1.73165E-13
 -1      4004 2.00073E+01 4.83032E-03-2.71469E-05-1.38220E-03-2.88886E-13 2.49287E-13
 -1      4005 2.00077E+01 6.82712E-03 2.18678E-05-7.37381E-04-2.52121E-13 2.70259E-13
 -1      4006 2.00081E+01 8.74892E-03 1.85095E-05-2.86691E-04-2.79336E-13 3.56899E-13
 -1      4007 2.00064E+01 1.88604E-03-1.35575E-05-2.05892E-03-1.74001E-13 1.29345E-13
 -1      4008 2.00069E+01 3.22194E-03 1.72765E-05-1.70155E-03-2.98302E-13 7.51997E-14
 -1      4009 2.00076E+01 4.45630E-03 5.30341E-06-1.19199E-03-2.20731E-13 2.78333E-13
 -1      4010 2.00054E+01-2.90401E-05-2.92211E-06-2.36127E-03 1.17171E-13 8.83342E-14
 -1      4011 2.00059E+01 8.25630E-04 1.33532E-05-2.20673E-03-1.12532E-14 7.31078E-14
 -1      4012 2.00067E+01 1.57560E-03-2.64992E-06-1.68625E-03-1.44219E-13 3.73655E-14
 -1      4013 2.00054E+01-1.05250E-03-5.93906E-06 8.84234E-04 8.88884E-14-4.06136E-13
 -1      4014 2.00055E+01-1.05245E-03-6.20016E-06 2.81007E-04 1.99271E-13-4.58582E-13
 -1      4015 1.60146E+01 8.42337E-01-2.11792E-02 1.31028E+00-7.85886E-14 8.44420E-15
 -1      4016 1.55444E+01 1.18034E+00 3.46414E-02 7.10658E-01-6.24190E-14-5.90605E-14
 -1      4017 1.60839E+01 1.23531E+00 3.94903E-03 1.53242E-01-1.26482E-13-5.23756E-15
 -1      4018 1.40774E+01 2.37370E+00 1.88016E-02-6.49783E-01 6.89440E-14-5.63635E-13
 -1      4019 2.00042E+01-1.71514E-03-2.12145E-06-1.88589E-03 9.34714E-14 1.84916E-13
 -1      4020 2.00039E+01-1.60270E-03 1.73244E-07-2.37328E-03-6.67521E-14 2.88859E-13
 -1      4021 2.00043E+01-1.26499E-03 8.32523E-06-2.42954E-03-1.05539E-13 3.51554E-13
 -1      4022 2.00048E+01-1.30855E-03 6.72749E-06-1.61045E-03 8.28291E-14 1.98699E-13
 -1      4023 1.89549E+01 4.30985E-01-4.30184E-03 1.19843E+00-9.98780E-14 1.12408E-14
 -1      4024 1.89673E+01 3.22926E-01 7.29890E-03 1.34063E+00-1.96875E-13-7.15103E-14
 -1      4025 1.85739E+01 3.90622E-01 2.16172E-04 1.42222E+00-1.45936E-13 2.47537E-14
 -1      4026 1.58660E+01 1.35583E+00 4.46874E-02-2.56548E+00-6.78255E-15-4.53556E-13
 -1      4027 1.87848E+01-1.80716E-01-5.89497E-03 1.91449E+00-1.53943E-13 1.06462E-13
 -1      4028 1.89645E+01-4.65607E-01 1.37295E-02 2.12393E+00-1.32602E-13 6.72470E-14
 -1      4029 1.79434E+01-1.49297E-01 9.03823E-03 2.29478E+00-2.10206E-13 2.37109E-13
 -1      4030 1.83461E+01 1.13446E-01-9.95823E-04 1.82730E+00-1.24307E-13 2.38699E-13
 -1      4031 1.90798E+01 5.65831E-01-4.07957E-03 9.34507E-01-2.63758E-14-6.63515E-14
 -1      4032 1.90566E+01 5.15021E-01 5.01394E-03 1.05029E+00 8.64093E-15 2.53399E-14
 -1      4033 1.87486E+01 5.89072E-01 8.39000E-05 1.07663E+00-6.30019E-14 1.32459E-14
 -1      4034 1.89460E+01 6.77584E-01 1.71919E-03 8.17763E-01-5.24817E-14-6.29835E-14
 -1      4035 1.42632E+01 2.24155E+00 1.64717E-02-1.21549E+00 5.15895E-14-5.63593E-13
 -1      4036 1.50872E+01 1.64570E+00-7.10821E-04-2.26014E+00 6.00171E-15-5.01739E-13
 -1      4037 1.67038E+01 1.31289E+00 1.55927E-02-3.93511E-01-2.11457E-13 8.19375E-14
 -1      4038 2.00048E+01-1.08167E-03 1.32789E-07 2.06513E-03 2.72221E-13 5.68186E-14
 -1      4039 2.00052E+01-1.11321E-03-3.10166E-06 1.44990E-03 1.78064E-13-1.31738E-13
 -1      4040 2.00058E+01-5.29448E-04 7.09847E-06 1.12446E-03 4.99902E-14-1.93098E-13
 -1      4041 2.00051E+01-6.87944E-04 6.41438E-06 2.15661E-03 3.38040E-13 2.05584E-14
 -1      4042 2.00057E+01 2.05101E-04 1.22801E-05 2.20635E-03 1.17044E-13 1.65993E-13
 -1      4043 2.00054E+01-2.98444E-04 2.86043E-06 2.17504E-03 2.42707E-13 9.94258E-14
 -1      4044 2.00058E+01-2.12081E-04-1.19547E-05 1.67789E-03 1.06066E-13 3.62421E-13
 -1      4045 2.00064E+01 7.59425E-04-1.24846E-05 1.67789E-03-1.45757E-14 5.20742E-13
 -1      4046 2.00056E+01-9.09788E-04-3.58901E-06-3.02213E-04 1.68506E-13-2.99321E-13
 -1      4047 2.00056E+01-8.11872E-04-9.20709E-06-8.47722E-04 1.02401E-13 8.23898E-14
 -1      4048 2.00062E+01-3.02332E-04 1.28785E-05 1.93075E-05 7.46320E-14-3.47762E-13
 -1      4049 2.00047E+01-9.26876E-04 2.42326E-06-2.40472E-03-2.98721E-14 3.35650E-13
 -1      4050 2.00050E+01-4.76274E-04 1.19549E-05-2.40425E-03 1.35698E-13 1.52911E-13
 -1      4051 2.00057E+01-5.76767E-05-1.14450E-05-1.90979E-03-6.65848E-14 8.80790E-14
 -1      4052 2.00050E+01-9.50119E-04-1.09144E-05-2.00578E-03 5.36575E-14 2.90129E-13
 -1      4053 1.95130E+01-2.06518E+00 3.69454E-04 3.24728E+00-1.50757E-13-8.80676E-14
 -1      4054 1.94914E+01-1.67924E+00 9.31740E-03 2.94197E+00-4.43650E-14-3.55098E-15
 -1      4055 1.66381E+01 6.64057E-01 3.74310E-02 1.73341E+00-1.10981E-13 3.09117E-14
 -1      4056 1.66305E+01 9.06897E-01-4.22376E-03 1.13148E+00-8.28161E-14-6.65354E-14
 -1      4057 1.73066E+01 2.02340E-01-9.30440E-03 2.02641E+00-1.46217E-13 1.40912E-13
 -1      4058 1.80307E+01 1.14722E+00-7.85563E-03-9.41078E-02-4.23376E-14 6.85444E-14
 -1      4059 1.82878E+01 1.10215E+00-3.52160E-03-1.06221E-01-4.91469E-16 4.61364E-14
 -1      4060 1.84999E+01 1.04619E+00-6.27744E-03-1.33737E-01-1.50556E-14-1.95223E-14
 -1      4061 1.86980E+01 9.89662E-01-2.91427E-03-1.36247E-01-5.31140E-14-3.68050E-14
 -1      4062 1.83994E+01 1.08044E+00 1.30822E-02 7.19631E-02-6.19494E-14 2.06672E-13
 -1      4063 1.88641E+01 9.27852E-01-4.51298E-03-1.50252E-01 1.06677E-14-1.30542E-13
 -1      4064 1.90160E+01 8.66209E-01-2.42368E-03-1.45282E-01 2.01443E-14-1.23302E-13
 -1      4065 1.87754E+01 9.70832E-01 1.01580E-02 4.39685E-03-3.47068E-14 4.80303E-14
 -1      4066 1.91470E+01 8.02844E-01-3.23337E-03-1.50051E-01 5.63677E-15-1.14857E-13
 -1      4067 1.92635E+01 7.40907E-01-2.05540E-03-1.40151E-01-6.66926E-14-1.53081E-14
 -1      4068 1.90703E+01 8.49971E-01 7.89805E-03-3.31569E-02 4.53507E-14-6.54067E-14
 -1      4069 1.93666E+01 6.79697E-01-2.29768E-03-1.39118E-01-6.61733E-14 9.32883E-14
 -1      4070 1.94556E+01 6.20802E-01-1.75134E-03-1.26608E-01 9.09826E-14 1.23415E-13
 -1      4071 1.93021E+01 7.27252E-01 6.18588E-03-5.09121E-02 2.43857E-14 1.86877E-13
 -1      4072 1.95363E+01 5.64222E-01-1.61525E-03-1.22291E-01 5.73645E-14 6.88638E-14
 -1      4073 1.96037E+01 5.10469E-01-1.48259E-03-1.08960E-01-1.81585E-14 6.84149E-14
 -1      4074 1.94833E+01 6.09479E-01 4.85029E-03-5.60958E-02 2.06443E-15 1.57935E-13
 -1      4075 1.96662E+01 4.59932E-01-1.12101E-03-1.03115E-01-4.94946E-14-7.36618E-15
 -1      4076 1.97169E+01 4.12432E-01-1.23827E-03-9.01984E-02-4.29696E-14 2.63640E-14
 -1      4077 1.96238E+01 5.01125E-01 3.78659E-03-5.38385E-02-3.07497E-14-7.21779E-14
 -1      4078 1.97648E+01 3.68539E-01-7.66434E-04-8.39796E-02-4.77685E-14 1.82555E-15
 -1      4079 1.98023E+01 3.27668E-01-1.01657E-03-7.22283E-02 4.40763E-14 3.26123E-14
 -1      4080 1.97315E+01 4.04721E-01 2.93191E-03-4.76708E-02-3.09643E-14-4.64981E-14
 -1      4081 1.98385E+01 2.90438E-01-5.14848E-04-6.63306E-02 2.28462E-13-9.25612E-14
 -1      4082 1.98659E+01 2.56067E-01-8.18856E-04-5.61238E-02 1.18123E-13 3.51176E-14
 -1      4083 1.98130E+01 3.21293E-01 2.24512E-03-3.99088E-02 1.02450E-13-1.88732E-13
 -1      4084 1.98928E+01 2.25140E-01-3.38473E-04-5.09155E-02-6.91022E-14 2.48909E-13
 -1      4085 1.99125E+01 1.96817E-01-6.46651E-04-4.23690E-02-2.14178E-14 2.73371E-13
 -1      4086 1.98738E+01 2.50792E-01 1.69638E-03-3.19768E-02 1.69833E-13 5.90737E-14
 -1      4087 1.99321E+01 1.71607E-01-2.16433E-04-3.79980E-02 5.71029E-15 2.44726E-13
 -1      4088 1.99460E+01 1.48699E-01-5.00353E-04-3.10576E-02 1.16734E-15 3.99164E-13
 -1      4089 1.99183E+01 1.92456E-01 1.26205E-03-2.46725E-02 1.29511E-14 3.38723E-13
 -1      4090 1.99600E+01 1.28508E-01-1.33210E-04-2.75341E-02 1.30177E-14 4.17239E-13
 -1      4091 1.99695E+01 1.10304E-01-3.79056E-04-2.20480E-02 1.56943E-13 5.51710E-13
 -1      4092 1.99502E+01 1.45105E-01 9.22307E-04-1.83749E-02 1.07971E-13 4.86589E-13
 -1      4093 1.99792E+01 9.44061E-02-7.74150E-05-1.93040E-02 1.08200E-13 4.80437E-13
 -1      4094 1.99855E+01 8.01864E-02-2.80801E-04-1.50742E-02 2.41747E-14 5.44981E-13
 -1      4095 1.99725E+01 1.07360E-01 6.60142E-04-1.31988E-02 8.15978E-14 3.99878E-13
 -1      4096 1.99921E+01 6.78796E-02-4.07925E-05-1.30040E-02-8.83986E-15 4.84313E-13
 -1      4097 1.99961E+01 5.69627E-02-2.02968E-04-9.82072E-03 5.46214E-14 5.11113E-13
 -1      4098 1.99877E+01 7.77963E-02 4.60878E-04-9.10499E-03 3.90588E-14 4.22716E-13
 -1      4099 2.00002E+01 4.75993E-02-1.74208E-05-8.30720E-03 7.68876E-14 5.95946E-13
 -1      4100 2.00026E+01 3.93669E-02-1.42644E-04-5.96995E-03 1.53470E-14 6.84999E-13
 -1      4101 1.99975E+01 5.50419E-02 3.11947E-04-5.97384E-03 1.31342E-13 5.90288E-13
 -1      4102 2.00051E+01 3.23717E-02-3.09323E-06-4.89965E-03-1.19844E-13 6.45638E-13
 -1      4103 2.00063E+01 2.62813E-02-9.69055E-05-3.22868E-03 2.09102E-14 5.50409E-13
 -1      4104 2.00036E+01 3.78417E-02 2.02718E-04-3.65358E-03-1.36817E-13 5.89029E-13
 -1      4105 2.00076E+01 2.11578E-02 5.15274E-06-2.50022E-03-1.34631E-14 3.19058E-13
 -1      4106 2.00080E+01 1.67455E-02-6.30226E-05-1.34143E-03-1.05098E-13 2.31449E-13
 -1      4107 2.00069E+01 2.50862E-02 1.24336E-04-1.98870E-03-1.89964E-13 4.42661E-13
 -1      4108 2.00085E+01 1.30747E-02 9.38564E-06-8.68710E-04 4.03313E-16 1.00377E-13
 -1      4109 2.00085E+01 9.95318E-03-3.78461E-05-9.49495E-05 7.12523E-14 1.51239E-13
 -1      4110 2.00084E+01 1.58221E-02 6.95431E-05-8.35823E-04-1.18005E-13 1.11485E-13
 -1      4111 2.00085E+01 7.37510E-03 7.77115E-06 1.94299E-04 2.03557E-13 1.48215E-13
 -1      4112 2.00081E+01 5.24072E-03-1.62452E-05 6.74352E-04 2.46302E-13 2.07250E-13
 -1      4113 2.00087E+01 9.24948E-03 3.19203E-05-6.79497E-05 9.19925E-14 7.90317E-14
 -1      4114 2.00078E+01 3.48369E-03 6.16947E-06 8.45583E-04 9.30430E-14 2.00214E-14
 -1      4115 2.00073E+01 2.07119E-03-6.08943E-06 1.10476E-03 5.18455E-14 1.56420E-14
 -1      4116 2.00082E+01 4.66629E-03 1.03245E-05 4.16046E-04 1.40181E-13-5.27403E-14
 -1      4117 1.82561E+01 6.21972E-01-1.02951E-02 1.19460E+00-9.94590E-14 3.71833E-14
 -1      4118 1.81818E+01 5.17468E-01 2.09314E-03 1.39725E+00-5.64929E-14 1.39661E-13
 -1      4119 1.90559E+01 7.42961E-01-5.16101E-03 4.86614E-01 1.06272E-14 2.95589E-14
 -1      4120 1.89712E+01 7.65563E-01 1.96799E-03 5.64401E-01-2.90658E-14 1.06908E-14
 -1      4121 1.95698E+01 5.16551E-01-2.40080E-03 1.99186E-01-2.30000E-13-2.00454E-13
 -1      4122 1.95139E+01 5.61262E-01 1.49692E-04 2.33773E-01-2.33851E-13-2.49281E-13
 -1      4123 1.96823E+01 4.31493E-01-1.86302E-03 1.46952E-01-1.11769E-13-5.74018E-14
 -1      4124 1.96368E+01 4.74508E-01-2.99939E-05 1.73598E-01-1.89378E-13-1.91056E-13
 -1      4125 1.95769E+01 5.27541E-01 3.90803E-03 1.35755E-01-2.80756E-13-2.14100E-13
 -1      4126 1.97711E+01 3.52358E-01-1.43869E-03 1.07689E-01 9.22029E-14 6.71815E-15
 -1      4127 1.97349E+01 3.91675E-01-1.13848E-04 1.28227E-01 3.23302E-14 4.75815E-14
 -1      4128 1.96904E+01 4.36246E-01 3.09401E-03 9.73934E-02-1.03839E-13-2.54981E-13
 -1      4129 1.98396E+01 2.81832E-01-1.10286E-03 7.81923E-02 3.85595E-14 4.52551E-14
 -1      4130 1.98116E+01 3.16421E-01-1.40759E-04 9.39900E-02 1.62937E-13 1.11846E-13
 -1      4131 1.97788E+01 3.53351E-01 2.41880E-03 6.95924E-02 4.66105E-14 3.23792E-14
 -1      4132 1.98915E+01 2.21042E-01-8.37404E-04 5.60894E-02 1.71300E-13-1.70976E-13
 -1      4133 1.98704E+01 2.50556E-01-1.36259E-04 6.81883E-02 5.69246E-14-1.40220E-13
 -1      4134 1.98465E+01 2.80707E-01 1.86347E-03 4.94098E-02 1.50742E-13-4.83325E-14
 -1      4135 1.99300E+01 1.70064E-01-6.28533E-04 3.96057E-02 1.48541E-13-2.25218E-13
 -1      4136 1.99144E+01 1.94610E-01-1.16583E-04 4.88107E-02 2.02658E-13-2.71895E-13
 -1      4137 1.98973E+01 2.18858E-01 1.41231E-03 3.47503E-02 2.14200E-13-2.63298E-13
 -1      4138 1.99577E+01 1.28316E-01-4.65366E-04 2.73985E-02-3.16058E-14-1.45886E-13
 -1      4139 1.99465E+01 1.48275E-01-9.15861E-05 3.43407E-02 3.59773E-14-1.41399E-13
 -1      4140 1.99346E+01 1.67481E-01 1.05104E-03 2.41152E-02 4.86491E-14-1.88381E-13
 -1      4141 1.99772E+01 9.48518E-02-3.39079E-04 1.84434E-02 4.18648E-14-2.97029E-14
 -1      4142 1.99695E+01 1.10749E-01-6.68460E-05 2.36220E-02-5.79292E-15-1.10481E-13
 -1      4143 1.99613E+01 1.25726E-01 7.66314E-04 1.64253E-02-3.62089E-14-1.13349E-14
 -1      4144 1.99905E+01 6.85586E-02-2.42413E-04 1.19535E-02 1.64019E-13-1.05866E-13
 -1      4145 1.99853E+01 8.09743E-02-4.51686E-05 1.57657E-02 1.75859E-13-1.16997E-13
 -1      4146 1.99799E+01 9.24659E-02 5.45675E-04 1.08979E-02 4.81629E-14-2.04848E-13
 -1      4147 1.99990E+01 4.82989E-02-1.69362E-04 7.32203E-03 9.18830E-14-6.49223E-14
 -1      4148 1.99958E+01 5.78099E-02-2.76441E-05 1.00840E-02 1.13117E-13-1.05935E-13
 -1      4149 1.99924E+01 6.64780E-02 3.77745E-04 6.96049E-03 1.34524E-13-2.27812E-13
 -1      4150 2.00042E+01 3.29923E-02-1.14962E-04 4.08063E-03-3.42989E-14-1.09050E-13
 -1      4151 2.00024E+01 4.01356E-02-1.43679E-05 6.04342E-03 1.03315E-13-1.91721E-14
 -1      4152 2.00004E+01 4.65541E-02 2.52387E-04 4.19124E-03 1.19794E-13-3.52629E-13
 -1      4153 2.00070E+01 2.16635E-02-7.51308E-05 1.86815E-03-3.62317E-14-1.20114E-13
 -1      4154 2.00061E+01 2.69174E-02-4.91536E-06 3.23006E-03-9.80632E-15-6.20894E-14
 -1      4155 2.00052E+01 3.15734E-02 1.60792E-04 2.27723E-03 1.59214E-14-7.51335E-14
 -1      4156 2.00082E+01 1.34632E-02-4.64368E-05 4.07429E-04-3.49885E-13 2.29746E-13
 -1      4157 2.00079E+01 1.72403E-02 1.37183E-06 1.32382E-03-1.98022E-13 1.16346E-13
 -1      4158 2.00076E+01 2.05388E-02 9.54755E-05 9.85410E-04-2.45161E-13 1.57401E-14
 -1      4159 2.00083E+01 7.66987E-03-2.71602E-05-5.13328E-04-2.77933E-13 2.17574E-13
 -1      4160 2.00084E+01 1.03184E-02 5.13960E-06 7.80007E-05-3.28062E-13 1.34836E-13
 -1      4161 2.00085E+01 1.25911E-02 5.00255E-05 1.41607E-04-3.35727E-13 7.87242E-14
 -1      4162 2.00077E+01 3.69373E-03-1.51613E-05-1.05007E-03-1.49122E-13 9.89164E-14
 -1      4163 2.00081E+01 5.49821E-03 8.64898E-06-6.90270E-04-1.75926E-13 1.66046E-13
 -1      4164 2.00085E+01 6.99731E-03 1.71765E-05-3.82017E-04-2.06896E-13-1.04422E-13
 -1      4165 2.00067E+01 1.04249E-03-6.00160E-06-1.31696E-03-1.82806E-13 9.50531E-14
 -1      4166 2.00073E+01 2.23170E-03 1.08692E-05-1.13165E-03-2.56862E-13 8.25529E-14
 -1      4167 2.00077E+01 3.16181E-03-1.55901E-06-6.94202E-04-1.86602E-13 1.16769E-13
 -1      4168 1.67044E+01 1.22585E+00-1.29051E-02 1.45951E-01-1.13139E-13 1.30015E-13
 -1      4169 1.94298E+01 6.02656E-01-3.08793E-03 2.68770E-01-1.55444E-13-2.10928E-13
 -1      4170 1.93632E+01 6.45742E-01 4.82902E-04 3.13803E-01-1.13357E-13-8.36471E-14
 -1      4171 1.94338E+01 6.23536E-01 4.88660E-03 1.88826E-01-1.81583E-13-6.88859E-14
 -1      4172 1.92593E+01 6.81994E-01-3.97881E-03 3.61761E-01-7.93288E-14 1.83869E-14
 -1      4173 1.91826E+01 7.18428E-01 1.05191E-03 4.20719E-01 2.09248E-14-8.62996E-15
 -1      4174 1.90402E+01 8.01740E-01 7.50003E-03 3.64972E-01 1.12620E-14 2.11031E-13
 -1      4175 1.92565E+01 7.18056E-01 6.06775E-03 2.62468E-01 2.90126E-14 1.60600E-14
 -1      4176 1.74128E+01 1.22779E+00-4.54777E-03-2.58156E-02-1.88747E-13 1.14273E-13
 -1      4177 1.77548E+01 1.18776E+00-4.98927E-03-5.23497E-02-1.35912E-13 1.08587E-13
 -1      4178 1.79055E+01 1.16735E+00 1.40276E-02 1.83248E-01-1.16707E-13 2.40122E-13
 -1      4179 1.75788E+01 3.33984E-01-1.07593E-02 1.79459E+00-1.17658E-13 1.40088E-13
 -1      4180 1.67458E+01 1.11913E+00 1.13927E-02 7.37106E-01-8.60844E-14 3.90810E-14
 -1      4181 1.72055E+01 1.19089E+00 2.82381E-03 2.39340E-01-1.25563E-13 7.00650E-14
 -1      4182 1.74018E+01 1.10891E+00-2.85326E-03 5.22396E-01-1.25998E-13 9.37317E-14
 -1      4183 1.71298E+01 8.41761E-01-1.68107E-02 1.15200E+00-8.23840E-14-5.59819E-14
 -1      4184 2.00066E+01 3.75888E-04-6.69785E-06 3.61721E-04-4.54391E-14-6.08474E-13
 -1      4185 2.00068E+01 4.96913E-04-7.95343E-06-1.77712E-04-6.17556E-14-1.19060E-13
 -1      4186 1.85487E+01 7.41553E-01-8.24325E-03 8.85093E-01-6.32581E-14-5.11148E-14
 -1      4187 1.84637E+01 6.97255E-01 3.75388E-03 1.02880E+00-6.83913E-14 2.55787E-14
 -1      4188 1.81014E+01 7.95163E-01-3.70072E-03 9.92803E-01-3.52861E-14 1.50695E-14
 -1      4189 2.00075E+01 2.05650E-03-1.24710E-05 3.87673E-04-3.20619E-15-5.27048E-13
 -1      4190 2.00071E+01 1.37621E-03 9.73659E-06 8.86487E-04 5.50902E-15-1.62700E-13
 -1      4191 1.87802E+01 8.61182E-01 9.15697E-03 5.08044E-01-6.82915E-14 1.31973E-13
 -1      4192 1.88186E+01 7.69239E-01-6.77597E-03 6.55277E-01-7.37112E-14-4.87458E-14
 -1      4193 1.87308E+01 7.67853E-01 3.27476E-03 7.59038E-01-7.11799E-14-2.19657E-14
 -1      4194 2.00059E+01-3.52562E-04 3.72986E-06-1.27536E-03-2.06586E-14 9.72713E-15
 -1      4195 2.00063E+01 1.65183E-04 1.03702E-05-1.18444E-03-5.72515E-14 1.36576E-14
 -1      4196 1.78034E+01 4.48389E-01-7.00532E-03 1.59839E+00-6.61952E-14 1.00230E-13
 -1      4197 2.00068E+01 7.14806E-04-7.74171E-06-6.90514E-04-1.73383E-13 5.80099E-14
 -1      4198 2.00052E+01-9.62838E-04 1.57528E-06-1.57168E-03 1.19851E-13 2.96846E-13
 -1      4199 1.75591E+01 7.20906E-01 1.17732E-02 1.32826E+00-3.67204E-14-1.39992E-15
 -1      4200 1.75804E+01 8.93735E-01 1.04208E-03 9.91122E-01-8.00078E-14 1.71638E-14
 -1      4201 2.00080E+01 3.52157E-03 8.34537E-06 3.42654E-04-2.30031E-14-1.00759E-13
 -1      4202 2.00077E+01 2.67426E-03-3.14787E-06 1.18295E-04-1.18607E-13-1.27180E-13
 -1      4203 2.00084E+01 5.36771E-03 3.43692E-07 1.67889E-04-5.52403E-14 2.47666E-14
 -1      4204 2.00062E+01-1.21966E-04 1.51912E-06 1.12433E-03 5.45534E-14-1.87067E-13
 -1      4205 1.87096E+01 9.13090E-01-8.82225E-03 2.39350E-01-6.17330E-14 1.43286E-13
 -1      4206 1.88825E+01 8.67922E-01-4.03024E-03 2.04132E-01 1.42450E-14 1.59990E-13
 -1      4207 1.90056E+01 8.21843E-01-6.70898E-03 1.51269E-01 6.30171E-14 1.21932E-13
 -1      4208 1.91416E+01 7.69410E-01-3.43555E-03 1.30395E-01 1.26830E-13 1.27861E-13
 -1      4209 1.92430E+01 7.18087E-01-5.09793E-03 9.31464E-02 2.20819E-14 1.19310E-13
 -1      4210 1.93496E+01 6.63700E-01-2.89079E-03 8.18199E-02-7.74096E-14 1.75338E-13
 -1      4211 1.94320E+01 6.11772E-01-3.87845E-03 5.55438E-02-1.75682E-13 1.12428E-13
 -1      4212 1.95150E+01 5.59125E-01-2.40383E-03 5.03720E-02-1.60734E-13-2.41333E-15
 -1      4213 1.95810E+01 5.09729E-01-2.94677E-03 3.17924E-02-1.58719E-13-1.09121E-13
 -1      4214 1.96450E+01 4.61172E-01-1.97035E-03 3.03883E-02-1.38366E-13-1.55964E-13
 -1      4215 1.96969E+01 4.16221E-01-2.22912E-03 1.72075E-02-6.74406E-14-1.36828E-13
 -1      4216 1.97457E+01 3.73052E-01-1.58836E-03 1.79384E-02-9.06865E-14-1.55803E-13
 -1      4217 1.97858E+01 3.33529E-01-1.67419E-03 8.55124E-03-2.97674E-16-8.33175E-14
 -1      4218 1.98225E+01 2.96270E-01-1.25732E-03 1.03430E-02 1.81038E-13-1.19259E-13
 -1      4219 1.98529E+01 2.62484E-01-1.24522E-03 3.63104E-03 2.24083E-13-1.84050E-13
 -1      4220 1.98801E+01 2.31121E-01-9.76197E-04 5.81199E-03 1.58914E-13-5.27244E-14
 -1      4221 1.99027E+01 2.02925E-01-9.14926E-04 9.96236E-04 8.92757E-14 3.40134E-14
 -1      4222 1.99225E+01 1.77097E-01-7.42580E-04 3.17355E-03 1.22444E-13 1.42493E-13
 -1      4223 1.99389E+01 1.54065E-01-6.62302E-04-2.89288E-04 3.47834E-14 1.59364E-13
 -1      4224 1.99529E+01 1.33216E-01-5.52629E-04 1.67736E-03-7.62736E-16 1.37646E-13
 -1      4225 1.99646E+01 1.14767E-01-4.70827E-04-8.13319E-04-1.41212E-14 1.55591E-13
 -1      4226 1.99743E+01 9.82498E-02-4.01485E-04 8.53659E-04 6.26587E-15 1.14615E-13
 -1      4227 1.99823E+01 8.37467E-02-3.27316E-04-9.33730E-04-1.65258E-14 1.08321E-13
 -1      4228 1.99888E+01 7.08972E-02-2.83781E-04 4.15192E-04 8.40028E-14 1.42483E-13
 -1      4229 1.99941E+01 5.97036E-02-2.21183E-04-8.60591E-04 1.75019E-13 8.25203E-14
 -1      4230 1.99982E+01 4.98886E-02-1.94100E-04 1.90736E-04 1.61046E-13 6.65134E-14
 -1      4231 2.00015E+01 4.14094E-02-1.43933E-04-7.11601E-04 6.16996E-14 1.71517E-13
 -1      4232 2.00040E+01 3.40531E-02-1.27312E-04 8.10120E-05-5.38262E-14 1.76187E-13
 -1      4233 2.00058E+01 2.77548E-02-8.87649E-05-5.48512E-04-2.24744E-13 3.32437E-13
 -1      4234 2.00071E+01 2.23519E-02-7.87753E-05 3.02316E-05-2.61054E-13 1.78319E-13
 -1      4235 2.00080E+01 1.77720E-02-5.02344E-05-4.00418E-04-2.98346E-13 2.39137E-13
 -1      4236 2.00085E+01 1.38915E-02-4.43796E-05 8.18339E-06-2.15965E-13 1.47187E-13
 -1      4237 2.00087E+01 1.06384E-02-2.42030E-05-2.79395E-04-1.34712E-13 1.41287E-13
 -1      4238 2.00086E+01 7.93140E-03-1.76859E-05-3.65846E-06-4.30197E-14 7.00584E-14
 -1      4239 1.85626E+01 9.47607E-01-4.51095E-03 3.14230E-01-1.13831E-13 1.09194E-13
 -1      4240 2.00068E+01 7.78501E-04 3.64557E-06 9.27538E-04-1.48781E-14-2.38854E-13
 -1      4241 1.79208E+01 1.00881E+00-5.16431E-03 5.67701E-01-6.61307E-14 1.63980E-13
 -1      4242 1.81731E+01 9.91946E-01-4.01809E-03 4.76254E-01-8.54121E-14 1.59324E-13
 -1      4243 1.83431E+01 9.78851E-01-1.11142E-02 3.71441E-01-1.19632E-13 1.72223E-13
 -1      4244 2.00078E+01 2.85549E-03-1.25192E-05-3.23229E-04-2.44328E-13 1.64355E-13
 -1      4245 2.00082E+01 4.47859E-03 6.50099E-07-2.18359E-04-1.73185E-13 4.44743E-14
 -1      4246 2.00073E+01 1.53098E-03 1.56363E-05-2.94534E-04-2.06954E-13 5.82256E-15
 -1      4247 1.84701E+01 8.77006E-01 1.01029E-02 7.07296E-01-9.15953E-14-1.08004E-14
 -1      4248 2.00084E+01 5.68990E-03-8.69212E-06-1.64975E-04-6.82581E-14 4.67880E-14
 -1      4249 1.77960E+01 9.52332E-01 4.32936E-03 8.13532E-01-4.51006E-14 1.51459E-14
 -3
    1PSTEP                         3           1           1          
  100CL  101 1.000000000        4249                     0    1           1
 -4  TOSTRAIN    6    1
 -5  EXX         1    4    1    1
 -5  EYY         1    4    2    2
 -5  EZZ         1    4    3    3
 -5  EXY         1    4    1    2
 -5  EYZ         1    4    2    3
 -5  EZX         1    4    3    1
 -1         1 3.20420E-04-9.92183E-05-8.10831E-05-2.41784E-06-3.28887E-19 8.40191E-19
 -1         2 3.72982E-05-1.12692E-04 2.03143E-05 3.66782E-07 4.96330E-18-1.17129E-19
 -1         3 9.52374E-05-2.85708E-05-2.85718E-05 3.09676E-10-8.38324E-19-9.04955E-19
 -1         4 9.52374E-05-2.85707E-05-2.85718E-05-4.74099E-10 2.42075E-18-2.66899E-18
 -1         5 1.49174E-04-2.19322E-05-4.50476E-05 3.87306E-05-3.19173E-19 2.16150E-17
 -1         6 1.50637E-04 2.83681E-10-4.72071E-05-5.27626E-05-1.32899E-18 1.45029E-17
 -1         7 9.98694E-05-1.01707E-06-4.22907E-05-2.53573E-05-1.83489E-19 2.98050E-19
 -1         8 9.20141E-05-9.21884E-08-3.89909E-05-1.38043E-05-1.71895E-19-3.50495E-18
 -1         9 8.64347E-05 1.96599E-08-3.68152E-05-8.08293E-06-1.25361E-19-5.33622E-18
 -1        10 8.17562E-05 6.00494E-08-3.49451E-05-4.65138E-06-5.96099E-20-6.11232E-18
 -1        11 7.78547E-05 9.64380E-08-3.33883E-05-2.75778E-06-1.41349E-20-6.29096E-18
 -1        12 7.49712E-05 1.19931E-07-3.22346E-05-1.96453E-06 1.40819E-20-6.29096E-18
 -1        13 7.32114E-05 1.31426E-07-3.15201E-05-1.82006E-06 2.77403E-20-5.99169E-18
 -1        14 7.27227E-05 1.26295E-07-3.13013E-05-1.87973E-06 7.28498E-20-5.69310E-18
 -1        15 7.34283E-05 1.06802E-07-3.15513E-05-1.70454E-06 1.06236E-19-5.29324E-18
 -1        16 7.51079E-05 7.89796E-08-3.21919E-05-9.51837E-07 1.41984E-19-4.81317E-18
 -1        17 7.74737E-05 4.89015E-08-3.31185E-05 5.85706E-07 1.61439E-19-4.11505E-18
 -1        18 8.02057E-05 2.90471E-08-3.42135E-05 2.93842E-06 1.80947E-19-3.15979E-18
 -1        19 8.32535E-05 1.93590E-08-3.54601E-05 6.22922E-06 2.45719E-19-1.77693E-18
 -1        20 8.66261E-05 2.58103E-08-3.68663E-05 1.05415E-05 2.87329E-19 2.98672E-19
 -1        21 9.08078E-05 4.70693E-08-3.86107E-05 1.63624E-05 2.71368E-19 3.76948E-18
 -1        22 9.84195E-05-3.73801E-07-4.13172E-05 2.57801E-05 1.67289E-20 9.79893E-18
 -1        23 1.25296E-04-4.23307E-05-3.91354E-05-3.17558E-06-9.44415E-19 1.01574E-17
 -1        24 1.10320E-04-3.29809E-05-3.42042E-05 6.41779E-07-2.60314E-19 6.35034E-18
 -1        25 1.11516E-04-3.35777E-05-3.36325E-05 5.46653E-07-7.44214E-20 3.15435E-18
 -1        26 1.15231E-04-3.46408E-05-3.45564E-05 4.06789E-07 2.38294E-20 1.06877E-18
 -1        27 1.19914E-04-3.60026E-05-3.58972E-05 3.65303E-07 1.32090E-20-6.80935E-19
 -1        28 1.24083E-04-3.72251E-05-3.70392E-05 2.72287E-07-3.74928E-20-1.58431E-18
 -1        29 1.25848E-04-3.77523E-05-3.74066E-05 3.05133E-08-5.64683E-20-2.78301E-18
 -1        30 1.23049E-04-3.69319E-05-3.64479E-05-4.23937E-07 7.28250E-21-3.73340E-18
 -1        31 1.14355E-04-3.43411E-05-3.39327E-05-1.00141E-06 5.00312E-20-4.19959E-18
 -1        32 1.01165E-04-3.03618E-05-3.03998E-05-1.34060E-06-1.07714E-19-5.09670E-18
 -1        33 8.86927E-05-2.65625E-05-2.72407E-05-1.00086E-06 2.31247E-19-4.87550E-18
 -1        34 8.37562E-05-2.50310E-05-2.60356E-05 6.04648E-08-1.61267E-19-6.08620E-18
 -1        35 8.90504E-05-2.66698E-05-2.73716E-05 9.86377E-07-2.67633E-19-8.48113E-18
 -1        36 1.02082E-04-3.06297E-05-3.07036E-05 1.38034E-06 5.11025E-19-8.36858E-18
 -1        37 1.16127E-04-3.48659E-05-3.44785E-05 1.06681E-06-2.92329E-19-8.03511E-18
 -1        38 1.25761E-04-3.77362E-05-3.72627E-05 4.97902E-07-2.19663E-19-9.76640E-18
 -1        39 1.29380E-04-3.87952E-05-3.84655E-05 4.42003E-08 2.25791E-19-8.99440E-18
 -1        40 1.28170E-04-3.84213E-05-3.82722E-05-1.88406E-07-5.30216E-19-7.87303E-18
 -1        41 1.24187E-04-3.72317E-05-3.72054E-05-2.53304E-07 1.71107E-19-8.04767E-18
 -1        42 1.19165E-04-3.57376E-05-3.57684E-05-2.32551E-07-3.97568E-19-8.30184E-18
 -1        43 1.14186E-04-3.42558E-05-3.43017E-05-1.82807E-07-1.50331E-19-8.86871E-18
 -1        44 1.09779E-04-3.29420E-05-3.29835E-05-1.32015E-07 4.66808E-19-8.82727E-18
 -1        45 1.06122E-04-3.18495E-05-3.18808E-05-9.02495E-08-1.03795E-19-8.80833E-18
 -1        46 1.03210E-04-3.09773E-05-3.09986E-05-5.91262E-08 2.66132E-19-8.19010E-18
 -1        47 1.00956E-04-3.03004E-05-3.03140E-05-3.71543E-08 7.76379E-20-7.92262E-18
 -1        48 9.92471E-05-2.97863E-05-2.97945E-05-2.21600E-08-4.43207E-19-9.19157E-18
 -1        49 9.79752E-05-2.94030E-05-2.94075E-05-1.21841E-08 6.22304E-19-8.13814E-18
 -1        50 9.70446E-05-2.91220E-05-2.91242E-05-5.70735E-09-2.83650E-19-6.92758E-18
 -1        51 9.63758E-05-2.89197E-05-2.89205E-05-1.62685E-09-2.73255E-20-6.54804E-18
 -1        52 9.59049E-05-2.87769E-05-2.87769E-05 8.33236E-10-1.85886E-19-8.55146E-18
 -1        53 9.55815E-05-2.86787E-05-2.86782E-05 2.21106E-09-3.77865E-19-9.05258E-18
 -1        54 9.53664E-05-2.86132E-05-2.86125E-05 2.87776E-09-1.15948E-19-9.35238E-18
 -1        55 9.52295E-05-2.85713E-05-2.85705E-05 3.08864E-09-2.65822E-19-8.70389E-18
 -1        56 9.51481E-05-2.85463E-05-2.85455E-05 3.01870E-09-2.40154E-21-9.33604E-18
 -1        57 9.51052E-05-2.85329E-05-2.85321E-05 2.78713E-09 2.37542E-19-9.49260E-18
 -1        58 9.50880E-05-2.85273E-05-2.85267E-05 2.47406E-09-7.40614E-19-7.70034E-18
 -1        59 9.50875E-05-2.85269E-05-2.85263E-05 2.13220E-09-4.63220E-19-4.53821E-18
 -1        60 9.50971E-05-2.85296E-05-2.85291E-05 1.79507E-09-1.57117E-19-2.44986E-18
 -1        61 9.51123E-05-2.85340E-05-2.85336E-05 1.48282E-09-1.02818E-19-4.48176E-18
 -1        62 9.51301E-05-2.85392E-05-2.85389E-05 1.20638E-09-5.85719E-19-4.53625E-18
 -1        63 9.51484E-05-2.85446E-05-2.85444E-05 9.70519E-10 5.24629E-19-4.21871E-18
 -1        64 9.51660E-05-2.85499E-05-2.85497E-05 7.75852E-10 4.50040E-19-3.60491E-18
 -1        65 9.51823E-05-2.85547E-05-2.85546E-05 6.20225E-10-8.13366E-19-4.50242E-18
 -1        66 9.51969E-05-2.85591E-05-2.85590E-05 4.99269E-10-6.90123E-19-7.40279E-18
 -1        67 9.52097E-05-2.85629E-05-2.85628E-05 4.05842E-10 2.41530E-19-5.52951E-18
 -1        68 9.52204E-05-2.85661E-05-2.85660E-05 3.27331E-10-4.22684E-20-2.84148E-18
 -1        69 9.52289E-05-2.85686E-05-2.85685E-05 2.38582E-10-6.26538E-19-2.45021E-18
 -1        70 9.52348E-05-2.85704E-05-2.85702E-05 9.63484E-11-2.19485E-19-3.76795E-18
 -1        71 9.52375E-05-2.85712E-05-2.85712E-05-3.03353E-10-2.28301E-19-7.63594E-18
 -1        72 1.11272E-04-3.33078E-05-3.70330E-05-2.39218E-06 1.77559E-19 2.08980E-17
 -1        73 1.04887E-04-3.12188E-05-3.25507E-05-4.83936E-07 1.30827E-19 1.73541E-17
 -1        74 1.03670E-04-3.10754E-05-3.12744E-05-2.37014E-07 2.35664E-20 1.49247E-17
 -1        75 1.04024E-04-3.12298E-05-3.11584E-05-1.94459E-07 3.79151E-20 1.37955E-17
 -1        76 1.04431E-04-3.13489E-05-3.12240E-05-1.53939E-07-6.00781E-21 1.27996E-17
 -1        77 1.03945E-04-3.12023E-05-3.10479E-05-8.97810E-08 7.63091E-20 1.18961E-17
 -1        78 1.01931E-04-3.06065E-05-3.04292E-05 1.59713E-08 2.45747E-20 1.06981E-17
 -1        79 9.81458E-05-2.94817E-05-2.93185E-05 1.59440E-07-2.36272E-20 1.00763E-17
 -1        80 9.29678E-05-2.79307E-05-2.78470E-05 3.01842E-07-1.11838E-19 9.59211E-18
 -1        81 8.75126E-05-2.62797E-05-2.63377E-05 3.75835E-07 2.25804E-19 9.12835E-18
 -1        82 8.33986E-05-2.50164E-05-2.52267E-05 3.22648E-07 1.44251E-19 7.54351E-18
 -1        83 8.21051E-05-2.45989E-05-2.48945E-05 1.42228E-07-7.94937E-20 7.01469E-18
 -1        84 8.42252E-05-2.52220E-05-2.54871E-05-9.12541E-08 5.69067E-20 6.79269E-18
 -1        85 8.91308E-05-2.67013E-05-2.68428E-05-2.76295E-07 2.59003E-20 6.51501E-18
 -1        86 9.53221E-05-2.85780E-05-2.85721E-05-3.52293E-07 9.61716E-20 5.08442E-18
 -1        87 1.01172E-04-3.03511E-05-3.02392E-05-3.22206E-07-2.40418E-19 4.18909E-18
 -1        88 1.05548E-04-3.16737E-05-3.15215E-05-2.30936E-07-5.62499E-20 4.86587E-18
 -1        89 1.08027E-04-3.24195E-05-3.22797E-05-1.27715E-07 2.20394E-20 3.62947E-18
 -1        90 1.08758E-04-3.26365E-05-3.25351E-05-4.30619E-08-1.50826E-19 3.69790E-18
 -1        91 1.08183E-04-3.24606E-05-3.24011E-05 1.29855E-08 1.82751E-19 2.66861E-18
 -1        92 1.06802E-04-3.20436E-05-3.20178E-05 4.29647E-08 2.43942E-19 2.63804E-18
 -1        93 1.05040E-04-3.15136E-05-3.15101E-05 5.41393E-08-5.19972E-19 2.94920E-18
 -1        94 1.03203E-04-3.09619E-05-3.09709E-05 5.38256E-08 2.59480E-19 2.71152E-18
 -1        95 1.01481E-04-3.04451E-05-3.04595E-05 4.76000E-08-2.43091E-19 1.75361E-18
 -1        96 9.99716E-05-2.99925E-05-3.00082E-05 3.91009E-08 9.60000E-20 2.39212E-18
 -1        97 9.87129E-05-2.96150E-05-2.96296E-05 3.04266E-08 2.67819E-19 4.24013E-19
 -1        98 9.77027E-05-2.93120E-05-2.93244E-05 2.26304E-08-8.33489E-19 6.70384E-19
 -1        99 9.69181E-05-2.90767E-05-2.90867E-05 1.61279E-08-1.77618E-19 1.53941E-19
 -1       100 9.63269E-05-2.88992E-05-2.89069E-05 1.09791E-08 2.85661E-19-9.01378E-19
 -1       101 9.58945E-05-2.87694E-05-2.87751E-05 7.06675E-09-8.14038E-20-3.33663E-18
 -1       102 9.55882E-05-2.86773E-05-2.86815E-05 4.20151E-09-8.27471E-20-2.59207E-18
 -1       103 9.53791E-05-2.86145E-05-2.86174E-05 2.17898E-09-4.96138E-20-5.13494E-19
 -1       104 9.52430E-05-2.85735E-05-2.85754E-05 8.08871E-10 3.13614E-19-3.55650E-20
 -1       105 9.51602E-05-2.85485E-05-2.85497E-05-7.26691E-11-1.85136E-19 1.20751E-18
 -1       106 9.51151E-05-2.85349E-05-2.85356E-05-5.99752E-10-5.94613E-19 2.06619E-18
 -1       107 9.50959E-05-2.85291E-05-2.85294E-05-8.78131E-10 1.05628E-18-1.16280E-18
 -1       108 9.50936E-05-2.85283E-05-2.85284E-05-9.88685E-10 2.82070E-19-3.15830E-18
 -1       109 9.51018E-05-2.85307E-05-2.85307E-05-9.91620E-10-4.08022E-19-1.90579E-18
 -1       110 9.51160E-05-2.85349E-05-2.85348E-05-9.30606E-10 8.86890E-20-4.02343E-19
 -1       111 9.51329E-05-2.85400E-05-2.85398E-05-8.36507E-10-9.82586E-20 1.21572E-18
 -1       112 9.51506E-05-2.85452E-05-2.85451E-05-7.30555E-10 1.47818E-19 6.18166E-20
 -1       113 9.51678E-05-2.85504E-05-2.85502E-05-6.26921E-10 6.11267E-19-2.66673E-18
 -1       114 9.51838E-05-2.85551E-05-2.85550E-05-5.34696E-10-1.07758E-18-2.19963E-18
 -1       115 9.51981E-05-2.85594E-05-2.85593E-05-4.59220E-10 5.63399E-19-5.42323E-19
 -1       116 9.52106E-05-2.85632E-05-2.85631E-05-4.02324E-10 6.55341E-20-2.90278E-18
 -1       117 9.52211E-05-2.85663E-05-2.85662E-05-3.60533E-10-1.97070E-19-2.63386E-18
 -1       118 9.52295E-05-2.85688E-05-2.85687E-05-3.19351E-10 6.86694E-19-3.39237E-18
 -1       119 9.52352E-05-2.85706E-05-2.85703E-05-2.16107E-10-6.43035E-19-5.74485E-18
 -1       120 9.52375E-05-2.85714E-05-2.85712E-05 1.00430E-10 3.87474E-19-1.68138E-18
 -1       121 9.52371E-05-2.85710E-05-2.85712E-05 1.97421E-10 1.47399E-19 4.59061E-19
 -1       122 9.52378E-05-2.85734E-05-2.85703E-05-1.18164E-10-4.38897E-18-2.45993E-18
 -1       123 9.52394E-05-2.85787E-05-2.85688E-05-3.05577E-10-6.02017E-18 2.22170E-18
 -1       124 9.52415E-05-2.85856E-05-2.85668E-05-3.42645E-10 2.87066E-20 2.18935E-19
 -1       125 9.52436E-05-2.85927E-05-2.85647E-05-3.15891E-10 4.10305E-18-1.75500E-18
 -1       126 9.52454E-05-2.85988E-05-2.85629E-05-2.52225E-10-5.91851E-18 3.81475E-19
 -1       127 9.52468E-05-2.86034E-05-2.85616E-05-1.60217E-10-3.41860E-18 1.04730E-18
 -1       128 9.52475E-05-2.86058E-05-2.85609E-05-5.44751E-11-5.30991E-18-1.97533E-19
 -1       129 9.52475E-05-2.86058E-05-2.85609E-05 5.55662E-11-1.70749E-18 2.45443E-18
 -1       130 9.52468E-05-2.86034E-05-2.85616E-05 1.61177E-10-1.09104E-18-1.61041E-18
 -1       131 9.52454E-05-2.85987E-05-2.85630E-05 2.56020E-10-8.55134E-18-7.64700E-19
 -1       132 9.52436E-05-2.85926E-05-2.85648E-05 3.18355E-10-8.44285E-18 1.72329E-18
 -1       133 9.52414E-05-2.85855E-05-2.85668E-05 3.43931E-10-2.05329E-18 2.67686E-18
 -1       134 9.52394E-05-2.85786E-05-2.85688E-05 3.06618E-10 4.71966E-18-7.55250E-19
 -1       135 9.52378E-05-2.85733E-05-2.85703E-05 7.33884E-11 6.03480E-18 7.17625E-19
 -1       136 9.52370E-05-2.85707E-05-2.85712E-05-3.49522E-10 8.65875E-18 1.26164E-18
 -1       137 2.59308E-05-8.74119E-05 1.55712E-05-2.32404E-05 1.20270E-17 2.85143E-18
 -1       138 8.33135E-06-3.33787E-05 2.89181E-06-1.66608E-05 1.66853E-17 8.11119E-18
 -1       139 1.16326E-05 1.42786E-05-1.46548E-05 2.31109E-05 1.76729E-17 1.29067E-17
 -1       140 6.20284E-05 2.67517E-05-3.63895E-05 8.10611E-05 1.38503E-17 1.55647E-17
 -1       141 1.46510E-04-2.59105E-06-5.53112E-05 1.14034E-04 7.80986E-18 1.36084E-17
 -1       142 2.47332E-04-5.73029E-05-7.10765E-05 9.63788E-05 1.78740E-18 3.64139E-18
 -1       143 3.04659E-04-9.27768E-05-7.85264E-05 3.06880E-05-5.00451E-19-5.67269E-18
 -1       144 2.92653E-04-8.47132E-05-7.71680E-05-5.42345E-05 2.64122E-18-1.48786E-17
 -1       145 2.14353E-04-3.83361E-05-6.63356E-05-1.07488E-04 9.10666E-18-2.30850E-17
 -1       146 1.16907E-04 1.04500E-05-4.97510E-05-1.07464E-04 1.54908E-17-2.37991E-17
 -1       147 4.09732E-05 2.92498E-05-3.01263E-05-6.48838E-05 1.95648E-17-1.96906E-17
 -1       148 6.16323E-06 3.45313E-06-9.12087E-06-8.23974E-06 1.85632E-17-1.22176E-17
 -1       149 1.26546E-05-5.00769E-05 7.10416E-06 2.20831E-05 1.27267E-17-4.97664E-18
 -1       150 3.10885E-05-9.91240E-05 1.77152E-05 1.76333E-05 2.37953E-18-7.11666E-19
 -1       151 3.52592E-05-1.08633E-04 1.94650E-05-1.13039E-05-9.34288E-18-9.81460E-19
 -1       152 2.01251E-05-7.42626E-05 1.26245E-05-2.73507E-05-1.86642E-17-5.89397E-18
 -1       153 5.25878E-06-2.01895E-05-1.06737E-06-1.17470E-05-2.41692E-17-1.32664E-17
 -1       154 2.12795E-05 2.10956E-05-2.09590E-05 3.86653E-05-2.33747E-17-1.97880E-17
 -1       155 8.47130E-05 2.09743E-05-4.25760E-05 9.41826E-05-1.74739E-17-2.27992E-17
 -1       156 1.91052E-04-2.41131E-05-6.30955E-05 1.16075E-04-8.94340E-18-1.86123E-17
 -1       157 2.87776E-04-7.90923E-05-7.69298E-05 7.47432E-05-2.28172E-18-8.78479E-18
 -1       158 2.78770E-04-7.42300E-05-7.55926E-05-8.10261E-05-2.28969E-18 8.89215E-18
 -1       159 1.82130E-04-2.04351E-05-6.14491E-05-1.14572E-04-5.90954E-18 1.30570E-17
 -1       160 7.88013E-05 2.11531E-05-4.05805E-05-8.85533E-05-1.17971E-17 1.47202E-17
 -1       161 1.55587E-05 1.72858E-05-1.76773E-05-2.96467E-05-1.47778E-17 1.17704E-17
 -1       162 6.94075E-06-3.36207E-05 3.06798E-06 1.92717E-05-1.30138E-17 6.75233E-18
 -1       163 2.63913E-05-9.05154E-05 1.62330E-05 2.60644E-05-5.04747E-18 1.51317E-18
 -1       164 1.05238E-04-1.54183E-05-3.86591E-05-1.64073E-05-2.44120E-18-1.38884E-18
 -1       165 9.55684E-05-9.80296E-06-3.69002E-05-1.04739E-05-1.84443E-18-3.65976E-18
 -1       166 8.81320E-05-6.18186E-06-3.52242E-05-6.48167E-06-1.18926E-18-4.77504E-18
 -1       167 8.21031E-05-3.65453E-06-3.36949E-05-3.97019E-06-6.57635E-19-5.26338E-18
 -1       168 7.74856E-05-1.87993E-06-3.24581E-05-2.65890E-06-1.25672E-19-5.34407E-18
 -1       169 7.43542E-05-7.83832E-07-3.15754E-05-2.15412E-06 2.48741E-19-5.23321E-18
 -1       170 7.29956E-05-4.39875E-07-3.11358E-05-2.06175E-06 7.17945E-19-4.99875E-18
 -1       171 7.33901E-05-8.06740E-07-3.11476E-05-1.92450E-06 1.07495E-18-4.66892E-18
 -1       172 7.52718E-05-1.72994E-06-3.15625E-05-1.34716E-06 1.43446E-18-4.27637E-18
 -1       173 7.82185E-05-2.99371E-06-3.22920E-05-6.92320E-08 1.74825E-18-3.77400E-18
 -1       174 8.17397E-05-4.38738E-06-3.32167E-05 1.97513E-06 2.09834E-18-2.94888E-18
 -1       175 8.56909E-05-5.89869E-06-3.42823E-05 4.86411E-06 2.50093E-18-1.82038E-18
 -1       176 9.00517E-05-7.67113E-06-3.54242E-05 8.57079E-06 2.82067E-18-3.17214E-19
 -1       177 9.54016E-05-1.03033E-05-3.66352E-05 1.31799E-05 2.89131E-18 2.09344E-18
 -1       178 1.03873E-04-1.59862E-05-3.78658E-05 1.84491E-05 2.43979E-18 5.96046E-18
 -1       179 1.14857E-04-2.91416E-05-3.79376E-05 1.61780E-05 1.52320E-18 1.07660E-17
 -1       180 1.16579E-04-3.14833E-05-3.64585E-05-7.50440E-06-2.22396E-18 1.90442E-18
 -1       181 1.13038E-04-3.31054E-05-3.42837E-05-1.93407E-08-1.79969E-18 1.15067E-18
 -1       182 1.12668E-04-3.33602E-05-3.39434E-05 2.99465E-06-1.21813E-18 3.28384E-19
 -1       183 1.14495E-04-3.42593E-05-3.43646E-05 4.21331E-06-9.59257E-19-2.84223E-19
 -1       184 1.17090E-04-3.54591E-05-3.49870E-05 3.95939E-06-5.10951E-19-6.04676E-19
 -1       185 1.19411E-04-3.67229E-05-3.54507E-05 1.93329E-06-5.02893E-19-6.80674E-19
 -1       186 1.20294E-04-3.75617E-05-3.54650E-05-2.07328E-06-3.98913E-19-3.24548E-19
 -1       187 1.18601E-04-3.72028E-05-3.48852E-05-7.34818E-06-3.63490E-19-4.69862E-19
 -1       188 1.13863E-04-3.49263E-05-3.38332E-05-1.15047E-05-4.74823E-19-6.39728E-19
 -1       189 1.07376E-04-3.10942E-05-3.27244E-05-1.10682E-05-4.27229E-19-1.34808E-18
 -1       190 1.02591E-04-2.79445E-05-3.20581E-05-4.40864E-06-1.45629E-18-3.04005E-18
 -1       191 1.02708E-04-2.79314E-05-3.21164E-05 4.80296E-06-1.49709E-18-4.30384E-18
 -1       192 1.07830E-04-3.11416E-05-3.28994E-05 1.16430E-05-4.02116E-19-4.78648E-18
 -1       193 1.14791E-04-3.51544E-05-3.41356E-05 1.23094E-05-3.14526E-19-5.95727E-18
 -1       194 1.20036E-04-3.76434E-05-3.53141E-05 8.19294E-06-2.27309E-19-5.35828E-18
 -1       195 1.22121E-04-3.81695E-05-3.59929E-05 2.75454E-06 2.41510E-19-4.26402E-18
 -1       196 1.21377E-04-3.74006E-05-3.60111E-05-1.57014E-06 5.24307E-19-4.38136E-18
 -1       197 1.18815E-04-3.60916E-05-3.54723E-05-4.05405E-06-2.81572E-21-3.39865E-18
 -1       198 1.15399E-04-3.47001E-05-3.45974E-05-4.98805E-06-2.83751E-19-3.57406E-18
 -1       199 1.11813E-04-3.34291E-05-3.35975E-05-4.94229E-06-3.45891E-19-3.40031E-18
 -1       200 1.08459E-04-3.23446E-05-3.26192E-05-4.40336E-06-2.19338E-19-3.32400E-18
 -1       201 1.05530E-04-3.14529E-05-3.17429E-05-3.68732E-06-1.52673E-20-3.11784E-18
 -1       202 1.03085E-04-3.07368E-05-3.10006E-05-2.96685E-06-1.64871E-19-3.72938E-18
 -1       203 1.01108E-04-3.01723E-05-3.03950E-05-2.32143E-06-2.43495E-19-4.08942E-18
 -1       204 9.95474E-05-2.97342E-05-2.99144E-05-1.77808E-06-6.94699E-19-4.59998E-18
 -1       205 9.83393E-05-2.93991E-05-2.95410E-05-1.33762E-06 1.85569E-19-4.20898E-18
 -1       206 9.74204E-05-2.91466E-05-2.92562E-05-9.89475E-07-4.19335E-20-5.85055E-18
 -1       207 9.67328E-05-2.89593E-05-2.90427E-05-7.19422E-07 1.11430E-19-6.18225E-18
 -1       208 9.62270E-05-2.88226E-05-2.88852E-05-5.13167E-07-5.81603E-19-5.96284E-18
 -1       209 9.58618E-05-2.87248E-05-2.87711E-05-3.57877E-07 1.23618E-19-5.77299E-18
 -1       210 9.56036E-05-2.86564E-05-2.86902E-05-2.42634E-07-2.19700E-19-5.38124E-18
 -1       211 9.54257E-05-2.86101E-05-2.86342E-05-1.58441E-07 2.12015E-19-5.24279E-18
 -1       212 9.53072E-05-2.85798E-05-2.85967E-05-9.80223E-08-6.72822E-19-5.21055E-18
 -1       213 9.52318E-05-2.85610E-05-2.85726E-05-5.55789E-08-4.25243E-19-4.60705E-18
 -1       214 9.51870E-05-2.85505E-05-2.85581E-05-2.65413E-08 3.71521E-19-4.89838E-18
 -1       215 9.51635E-05-2.85455E-05-2.85503E-05-7.34795E-09 1.36405E-18-4.78067E-18
 -1       216 9.51544E-05-2.85442E-05-2.85470E-05 4.74612E-09 7.34924E-19-3.46755E-18
 -1       217 9.51545E-05-2.85453E-05-2.85467E-05 1.18308E-08-1.00162E-18-3.04419E-18
 -1       218 9.51604E-05-2.85477E-05-2.85482E-05 1.54746E-08 2.01845E-19-3.16286E-18
 -1       219 9.51693E-05-2.85508E-05-2.85507E-05 1.68346E-08 3.24995E-19-9.81394E-19
 -1       220 9.51797E-05-2.85542E-05-2.85538E-05 1.67446E-08-3.59608E-19-6.54779E-19
 -1       221 9.51903E-05-2.85575E-05-2.85569E-05 1.57853E-08-1.02552E-18-3.47169E-18
 -1       222 9.52006E-05-2.85607E-05-2.85600E-05 1.43374E-08-1.27245E-18-3.30212E-18
 -1       223 9.52100E-05-2.85635E-05-2.85628E-05 1.26199E-08 4.92194E-19-2.88011E-18
 -1       224 9.52183E-05-2.85660E-05-2.85653E-05 1.07146E-08 8.46510E-19-2.97350E-18
 -1       225 9.52253E-05-2.85682E-05-2.85674E-05 8.58268E-09 1.77612E-20-3.38298E-18
 -1       226 9.52308E-05-2.85700E-05-2.85689E-05 6.09819E-09-4.73622E-19-2.09139E-18
 -1       227 9.52348E-05-2.85714E-05-2.85700E-05 3.21948E-09-1.28384E-18-1.16694E-18
 -1       228 9.52366E-05-2.85718E-05-2.85706E-05 1.09412E-09 9.21788E-19-8.79308E-20
 -1       229 1.10065E-04-3.18728E-05-3.36794E-05 5.02285E-06 1.78772E-18 9.54918E-18
 -1       230 1.06460E-04-3.15342E-05-3.20723E-05 1.12384E-06 1.16773E-18 8.24351E-18
 -1       231 1.05246E-04-3.15361E-05-3.15455E-05-2.41325E-08 6.36160E-19 7.09579E-18
 -1       232 1.04755E-04-3.15916E-05-3.13319E-05 5.54811E-08 5.73487E-19 6.42712E-18
 -1       233 1.04096E-04-3.15181E-05-3.10919E-05 9.00108E-07 4.30968E-19 5.98898E-18
 -1       234 1.02709E-04-3.11650E-05-3.06525E-05 2.20971E-06 5.31776E-19 5.58780E-18
 -1       235 1.00322E-04-3.04004E-05-2.99591E-05 3.58034E-06 4.09699E-19 5.08960E-18
 -1       236 9.70768E-05-2.92299E-05-2.90741E-05 4.44261E-06 3.73731E-19 4.67615E-18
 -1       237 9.35997E-05-2.78707E-05-2.81728E-05 4.21868E-06 3.61035E-19 4.39006E-18
 -1       238 9.08811E-05-2.67405E-05-2.74977E-05 2.64783E-06 9.26790E-19 4.35475E-18
 -1       239 8.98865E-05-2.62899E-05-2.72648E-05 6.76041E-08 5.96649E-19 3.59874E-18
 -1       240 9.10592E-05-2.67410E-05-2.75676E-05-2.64378E-06 4.34799E-19 2.46264E-18
 -1       241 9.40546E-05-2.79309E-05-2.83330E-05-4.53012E-06 2.25883E-19 2.02807E-18
 -1       242 9.79385E-05-2.94255E-05-2.93523E-05-5.08538E-06 4.48008E-19 2.26434E-18
 -1       243 1.01664E-04-3.07776E-05-3.03710E-05-4.41389E-06 1.82883E-19 2.51475E-18
 -1       244 1.04479E-04-3.17119E-05-3.11820E-05-3.01963E-06 1.95944E-19 1.45253E-18
 -1       245 1.06075E-04-3.21641E-05-3.16774E-05-1.46273E-06 4.22355E-19 1.54177E-18
 -1       246 1.06510E-04-3.22085E-05-3.18483E-05-1.30494E-07 4.16638E-19 9.12985E-19
 -1       247 1.06043E-04-3.19707E-05-3.17514E-05 8.10181E-07-1.17005E-20 9.87852E-19
 -1       248 1.04991E-04-3.15720E-05-3.14706E-05 1.35426E-06-1.53771E-19 1.30219E-18
 -1       249 1.03638E-04-3.11067E-05-3.10884E-05 1.57840E-06-1.10902E-18 2.03628E-18
 -1       250 1.02199E-04-3.06386E-05-3.06707E-05 1.58112E-06 8.50998E-19 2.29061E-18
 -1       251 1.00819E-04-3.02057E-05-3.02636E-05 1.45099E-06 6.18641E-19 1.21206E-18
 -1       252 9.95818E-05-2.98274E-05-2.98943E-05 1.25514E-06 4.17660E-20-1.79683E-19
 -1       253 9.85240E-05-2.95104E-05-2.95762E-05 1.03890E-06 7.35138E-19 4.46589E-20
 -1       254 9.76534E-05-2.92536E-05-2.93129E-05 8.29811E-07-2.95046E-19-8.44862E-21
 -1       255 9.69593E-05-2.90514E-05-2.91020E-05 6.42581E-07 8.31600E-19-4.33664E-19
 -1       256 9.64214E-05-2.88966E-05-2.89379E-05 4.83408E-07 2.00633E-19-1.11171E-18
 -1       257 9.60155E-05-2.87810E-05-2.88136E-05 3.53263E-07 5.64732E-19-1.38337E-19
 -1       258 9.57176E-05-2.86970E-05-2.87221E-05 2.50194E-07-7.01047E-19 7.43628E-19
 -1       259 9.55051E-05-2.86379E-05-2.86566E-05 1.70830E-07-2.25799E-19 1.64269E-18
 -1       260 9.53588E-05-2.85977E-05-2.86113E-05 1.11321E-07 1.51755E-19 6.53064E-19
 -1       261 9.52622E-05-2.85716E-05-2.85812E-05 6.78830E-08-6.31663E-19 1.56372E-18
 -1       262 9.52021E-05-2.85558E-05-2.85623E-05 3.70827E-08 5.15144E-19 1.03689E-18
 -1       263 9.51682E-05-2.85473E-05-2.85515E-05 1.59653E-08 1.77638E-18 5.68041E-20
 -1       264 9.51523E-05-2.85437E-05-2.85463E-05 2.08242E-09-9.52362E-19 7.30176E-19
 -1       265 9.51484E-05-2.85434E-05-2.85449E-05-6.53394E-09-4.89568E-19 2.83917E-19
 -1       266 9.51522E-05-2.85451E-05-2.85458E-05-1.14242E-08-1.36830E-19-4.83913E-19
 -1       267 9.51604E-05-2.85480E-05-2.85481E-05-1.37641E-08-7.04521E-19-1.17992E-18
 -1       268 9.51709E-05-2.85514E-05-2.85512E-05-1.44280E-08 9.14605E-19-3.06299E-19
 -1       269 9.51822E-05-2.85549E-05-2.85545E-05-1.40451E-08 9.91454E-19-1.07375E-19
 -1       270 9.51934E-05-2.85583E-05-2.85579E-05-1.30486E-08-9.11837E-19 3.79444E-19
 -1       271 9.52039E-05-2.85615E-05-2.85610E-05-1.17122E-08 2.68933E-19-6.64788E-19
 -1       272 9.52133E-05-2.85643E-05-2.85638E-05-1.01776E-08 8.19887E-19-1.07724E-18
 -1       273 9.52214E-05-2.85668E-05-2.85663E-05-8.47059E-09-4.29527E-19-6.96246E-19
 -1       274 9.52280E-05-2.85689E-05-2.85682E-05-6.51592E-09 2.64994E-19-1.17237E-18
 -1       275 9.52330E-05-2.85705E-05-2.85696E-05-4.15487E-09 5.71372E-19-4.57271E-20
 -1       276 9.52361E-05-2.85715E-05-2.85706E-05-1.49536E-09-1.01323E-18-3.14111E-19
 -1       277 9.52369E-05-2.85734E-05-2.85701E-05-3.14797E-09-1.90594E-18-2.71210E-18
 -1       278 9.52383E-05-2.85770E-05-2.85691E-05-5.59096E-09-6.51717E-19 2.67435E-19
 -1       279 9.52401E-05-2.85817E-05-2.85679E-05-6.95130E-09-6.59931E-19 2.25362E-18
 -1       280 9.52419E-05-2.85867E-05-2.85665E-05-7.11918E-09-1.53727E-18 1.91792E-18
 -1       281 9.52436E-05-2.85914E-05-2.85652E-05-6.27381E-09-7.97315E-19-5.39268E-18
 -1       282 9.52449E-05-2.85952E-05-2.85641E-05-4.62558E-09 3.29115E-19 3.21545E-19
 -1       283 9.52458E-05-2.85977E-05-2.85634E-05-2.44122E-09 1.71621E-19 3.52739E-19
 -1       284 9.52461E-05-2.85985E-05-2.85632E-05 1.11552E-11 4.30200E-19 1.32045E-18
 -1       285 9.52458E-05-2.85977E-05-2.85634E-05 2.46380E-09-2.29885E-18-8.63776E-19
 -1       286 9.52449E-05-2.85952E-05-2.85641E-05 4.64936E-09-2.90569E-18-3.51193E-18
 -1       287 9.52436E-05-2.85914E-05-2.85652E-05 6.27652E-09-1.67137E-18 3.72871E-19
 -1       288 9.52419E-05-2.85867E-05-2.85665E-05 7.13692E-09 3.65649E-19 3.28022E-18
 -1       289 9.52401E-05-2.85816E-05-2.85679E-05 6.95493E-09-3.29621E-19 3.77268E-18
 -1       290 9.52383E-05-2.85770E-05-2.85691E-05 5.56776E-09 2.31727E-19 1.64439E-18
 -1       291 9.52373E-05-2.85740E-05-2.85700E-05 3.44804E-09 2.40753E-19-4.92095E-19
 -1       292 1.30522E-05-4.94441E-05 1.20903E-05 8.38823E-06 3.13053E-18 3.84320E-18
 -1       293 2.72329E-05-4.15971E-05 3.76334E-06 2.49891E-05 4.61548E-18 5.05710E-18
 -1       294 5.14511E-05-3.49279E-05-8.79556E-06 3.52547E-05 6.16089E-18 5.30836E-18
 -1       295 9.95607E-05-3.90031E-05-2.61377E-05 4.36760E-05 5.10591E-18 3.90302E-18
 -1       296 1.34892E-04-3.07692E-05-4.35768E-05 4.56746E-05 6.23162E-18 3.91986E-18
 -1       297 1.75560E-04-3.16279E-05-5.90863E-05 4.07037E-05 6.23732E-18 1.88062E-18
 -1       298 2.04919E-04-3.55787E-05-6.91176E-05 2.14050E-05 5.02375E-18-1.57368E-18
 -1       299 2.09045E-04-3.45036E-05-7.14509E-05-3.34769E-06 4.53586E-18-5.57657E-18
 -1       300 1.88729E-04-3.08653E-05-6.53030E-05-2.15086E-05 6.24602E-18-6.64233E-18
 -1       301 1.62451E-04-3.16526E-05-5.42035E-05-4.12813E-05 6.58118E-18-9.05499E-18
 -1       302 1.20330E-04-2.83551E-05-3.86937E-05-4.88846E-05 7.41959E-18-9.60557E-18
 -1       303 8.18408E-05-3.42007E-05-2.10824E-05-4.35677E-05 6.11897E-18-8.20574E-18
 -1       304 4.25478E-05-3.65810E-05-4.65214E-06-3.14989E-05 5.45214E-18-7.40153E-18
 -1       305 2.07154E-05-4.16947E-05 6.37843E-06-2.07552E-05 1.85691E-18-6.34205E-18
 -1       306 1.10319E-05-4.87032E-05 1.26112E-05-3.63575E-06-1.74724E-18-5.46432E-18
 -1       307 1.51167E-05-4.53542E-05 9.77485E-06 1.12642E-05-5.28263E-18-6.12341E-18
 -1       308 3.24872E-05-4.16461E-05 1.17719E-06 2.36821E-05-8.47584E-18-7.88020E-18
 -1       309 6.77519E-05-3.85856E-05-1.38399E-05 3.86525E-05-9.03297E-18-8.23104E-18
 -1       310 1.08154E-04-3.47611E-05-3.15440E-05 4.44064E-05-9.86264E-18-8.88559E-18
 -1       311 1.53907E-04-3.31227E-05-5.00437E-05 4.53909E-05-9.17834E-18-8.32040E-18
 -1       312 1.95858E-04-3.63453E-05-6.50508E-05 3.25876E-05-7.24647E-18-6.22675E-18
 -1       313 2.13131E-04-3.63722E-05-7.20901E-05 1.02266E-05-5.61392E-18-3.44345E-18
 -1       314 2.12164E-04-3.63658E-05-7.16807E-05-1.10238E-05-4.12484E-18-5.48454E-19
 -1       315 1.91734E-04-3.63445E-05-6.35842E-05-3.19717E-05-3.35817E-18 1.82324E-18
 -1       316 1.52968E-04-3.90463E-05-4.76901E-05-3.51183E-05-3.41820E-18 1.52551E-18
 -1       317 1.00402E-04-3.28814E-05-2.91894E-05-4.43122E-05-4.80776E-18 4.46662E-18
 -1       318 6.02449E-05-3.96923E-05-1.04168E-05-3.57366E-05-3.18484E-18 4.06099E-18
 -1       319 2.68605E-05-4.40189E-05 4.54291E-06-2.05193E-05-1.67585E-18 5.08368E-18
 -1       320 1.26897E-05-5.04279E-05 1.25144E-05-4.48646E-06 6.35486E-19 4.27455E-18
 -1       321 9.57062E-05-1.48751E-05-3.47191E-05-5.21051E-06-1.71290E-18-3.13470E-18
 -1       322 1.05050E-04-2.18196E-05-3.57259E-05-7.45815E-06-2.25880E-18-1.76640E-18
 -1       323 8.12995E-05-6.08218E-06-3.22746E-05-2.00018E-06-4.20725E-19-4.20830E-18
 -1       324 7.64983E-05-3.47544E-06-3.13203E-05-1.70503E-06 6.36557E-20-4.30947E-18
 -1       325 7.38328E-05-2.18122E-06-3.07257E-05-2.03372E-06 5.59476E-19-4.07211E-18
 -1       326 7.34539E-05-2.23460E-06-3.05395E-05-2.47872E-06 1.08979E-18-3.86629E-18
 -1       327 7.51465E-05-3.45487E-06-3.07460E-05-2.50910E-06 1.49376E-18-3.55881E-18
 -1       328 7.83882E-05-5.47876E-06-3.12757E-05-1.75253E-06 1.83845E-18-3.15418E-18
 -1       329 8.24817E-05-7.87447E-06-3.20143E-05-1.23287E-07 2.25261E-18-2.53780E-18
 -1       330 8.70881E-05-1.04907E-05-3.28811E-05 2.32910E-06 2.68916E-18-1.57581E-18
 -1       331 9.19729E-05-1.33544E-05-3.37652E-05 5.32522E-06 3.02230E-18-4.93655E-19
 -1       332 9.73970E-05-1.69728E-05-3.45568E-05 8.41757E-06 3.17601E-18 1.15338E-18
 -1       333 1.03873E-04-2.24470E-05-3.50068E-05 1.03865E-05 2.86341E-18 3.66202E-18
 -1       334 1.08122E-04-2.76181E-05-3.45871E-05 8.63631E-06 2.42851E-18 6.05210E-18
 -1       335 1.06707E-04-3.03238E-05-3.27112E-05 3.10468E-06 1.71189E-18 5.02783E-18
 -1       336 1.08809E-04-2.95399E-05-3.39264E-05 1.25603E-06-1.72570E-18-1.02123E-18
 -1       337 1.09531E-04-3.14422E-05-3.34473E-05 5.10119E-06-1.35336E-18-9.27122E-19
 -1       338 1.11381E-04-3.34859E-05-3.33849E-05 6.65241E-06-7.74729E-19-6.24548E-19
 -1       339 1.14299E-04-3.61973E-05-3.34926E-05 5.85164E-06-1.52802E-19-3.59832E-19
 -1       340 1.17932E-04-3.94225E-05-3.36807E-05 2.22629E-06-9.31356E-20 2.14646E-19
 -1       341 1.21329E-04-4.20112E-05-3.40232E-05-4.29459E-06-8.04946E-20 7.18139E-19
 -1       342 1.22605E-04-4.15513E-05-3.47835E-05-1.21055E-05-6.16400E-19 6.32011E-19
 -1       343 1.20022E-04-3.59969E-05-3.61010E-05-1.66423E-05-1.19611E-18 1.75553E-19
 -1       344 1.14713E-04-2.73260E-05-3.75908E-05-1.23803E-05-2.42695E-18-1.27826E-18
 -1       345 1.11856E-04-2.28708E-05-3.83163E-05-8.01116E-08-2.85167E-18-2.47733E-18
 -1       346 1.14724E-04-2.70604E-05-3.77140E-05 1.31452E-05-1.75597E-18-4.22832E-18
 -1       347 1.20306E-04-3.58331E-05-3.62898E-05 1.77948E-05-3.58364E-19-4.55906E-18
 -1       348 1.23271E-04-4.17369E-05-3.49897E-05 1.33502E-05 1.11868E-19-4.07752E-18
 -1       349 1.22209E-04-4.24803E-05-3.42073E-05 5.31183E-06 7.85391E-19-3.37943E-18
 -1       350 1.18779E-04-4.00502E-05-3.37767E-05-1.76311E-06 5.28262E-19-2.79738E-18
 -1       351 1.14788E-04-3.68738E-05-3.34184E-05-6.19974E-06 6.49153E-19-2.35907E-18
 -1       352 1.11122E-04-3.41903E-05-3.29859E-05-8.18194E-06 6.56932E-19-1.71257E-18
 -1       353 1.08014E-04-3.22822E-05-3.24613E-05-8.48249E-06-1.90536E-19-1.01624E-18
 -1       354 1.05433E-04-3.10253E-05-3.18873E-05-7.83978E-06-6.25772E-19-8.42165E-19
 -1       355 1.03298E-04-3.02165E-05-3.13158E-05-6.77702E-06 3.05068E-19-4.87948E-19
 -1       356 1.01539E-04-2.96909E-05-3.07859E-05-5.60977E-06-3.62305E-21-4.43312E-19
 -1       357 1.00099E-04-2.93399E-05-3.03194E-05-4.50444E-06-8.86492E-19-9.27240E-19
 -1       358 9.89338E-05-2.90980E-05-2.99243E-05-3.53459E-06-8.26107E-19-1.17152E-18
 -1       359 9.80030E-05-2.89272E-05-2.95994E-05-2.72166E-06-4.34065E-19-1.44638E-18
 -1       360 9.72700E-05-2.88050E-05-2.93385E-05-2.06065E-06-6.00471E-19-1.95051E-18
 -1       361 9.67014E-05-2.87175E-05-2.91331E-05-1.53490E-06 1.81214E-19-2.20398E-18
 -1       362 9.62672E-05-2.86555E-05-2.89742E-05-1.12400E-06 7.13083E-19-1.78388E-18
 -1       363 9.59411E-05-2.86124E-05-2.88535E-05-8.07729E-07-1.72953E-19-1.26529E-19
 -1       364 9.57005E-05-2.85835E-05-2.87632E-05-5.67798E-07 1.28369E-19-3.30792E-19
 -1       365 9.55265E-05-2.85650E-05-2.86968E-05-3.88446E-07-6.10630E-21-1.09921E-18
 -1       366 9.54036E-05-2.85540E-05-2.86491E-05-2.56487E-07-1.85888E-19-1.97057E-18
 -1       367 9.53191E-05-2.85484E-05-2.86156E-05-1.61116E-07-8.93188E-19-9.29614E-19
 -1       368 9.52633E-05-2.85464E-05-2.85926E-05-9.36121E-08 6.09267E-19-1.00639E-18
 -1       369 9.52281E-05-2.85467E-05-2.85775E-05-4.70326E-08 7.24445E-19-8.21366E-19
 -1       370 9.52077E-05-2.85484E-05-2.85681E-05-1.59163E-08 7.73780E-19-2.94215E-18
 -1       371 9.51976E-05-2.85510E-05-2.85627E-05 3.97695E-09 5.03516E-19-3.99799E-18
 -1       372 9.51943E-05-2.85539E-05-2.85601E-05 1.58953E-08 1.38543E-21-3.21502E-18
 -1       373 9.51954E-05-2.85568E-05-2.85594E-05 2.22886E-08 1.12437E-18-2.03085E-18
 -1       374 9.51991E-05-2.85596E-05-2.85598E-05 2.49701E-08 4.46505E-19-2.39951E-18
 -1       375 9.52042E-05-2.85621E-05-2.85609E-05 2.52489E-08-7.73516E-19-1.14909E-18
 -1       376 9.52100E-05-2.85644E-05-2.85624E-05 2.40355E-08-7.61226E-19 1.29064E-18
 -1       377 9.52157E-05-2.85665E-05-2.85640E-05 2.19242E-08-1.49125E-20 7.77183E-19
 -1       378 9.52212E-05-2.85683E-05-2.85655E-05 1.92571E-08 4.45724E-20 5.26887E-19
 -1       379 9.52261E-05-2.85701E-05-2.85669E-05 1.61776E-08-2.73247E-19 2.87896E-19
 -1       380 9.52305E-05-2.85717E-05-2.85681E-05 1.27017E-08 5.24598E-20-2.84507E-19
 -1       381 9.52342E-05-2.85733E-05-2.85690E-05 8.79109E-09-1.24487E-18 1.21894E-19
 -1       382 1.05422E-04-3.16419E-05-3.16086E-05 5.94147E-07 1.06753E-18 3.15085E-18
 -1       383 1.05329E-04-3.24446E-05-3.12380E-05 1.04144E-06 7.32231E-19 3.04284E-18
 -1       384 1.05113E-04-3.28906E-05-3.09608E-05 2.67209E-06 8.76698E-19 2.92867E-18
 -1       385 1.04367E-04-3.27544E-05-3.06989E-05 4.90909E-06 6.33725E-19 2.93218E-18
 -1       386 1.02789E-04-3.17566E-05-3.04445E-05 6.89629E-06 4.14954E-19 2.78044E-18
 -1       387 1.00433E-04-2.98883E-05-3.02267E-05 7.55910E-06 4.29413E-19 2.78636E-18
 -1       388 9.78895E-05-2.76673E-05-3.00799E-05 6.03631E-06 9.09411E-19 2.47944E-18
 -1       389 9.61617E-05-2.60617E-05-3.00233E-05 2.31742E-06 1.42987E-18 1.96032E-18
 -1       390 9.61120E-05-2.59406E-05-3.00547E-05-2.45150E-06 1.30682E-18 8.58462E-19
 -1       391 9.78274E-05-2.74022E-05-3.01678E-05-6.47572E-06 6.01797E-19 5.16980E-20
 -1       392 1.00521E-04-2.96666E-05-3.03589E-05-8.40651E-06-2.45057E-19 1.32049E-19
 -1       393 1.03149E-04-3.17512E-05-3.06019E-05-8.00746E-06 9.94619E-20 4.09605E-19
 -1       394 1.04958E-04-3.30155E-05-3.08436E-05-5.96869E-06 6.85757E-19 2.85666E-19
 -1       395 1.05724E-04-3.33692E-05-3.10237E-05-3.30150E-06 3.64130E-19 1.12445E-19
 -1       396 1.05595E-04-3.30629E-05-3.10991E-05-8.08511E-07 6.50050E-19 1.96754E-19
 -1       397 1.04851E-04-3.24163E-05-3.10549E-05 1.09122E-06-2.54003E-19 7.85640E-19
 -1       398 1.03764E-04-3.16738E-05-3.09033E-05 2.29789E-06-1.44217E-19 1.29291E-18
 -1       399 1.02537E-04-3.09752E-05-3.06735E-05 2.89651E-06-6.33671E-19 1.30929E-18
 -1       400 1.01309E-04-3.03798E-05-3.03992E-05 3.04251E-06 6.13837E-19 1.93255E-19
 -1       401 1.00161E-04-2.99003E-05-3.01108E-05 2.89358E-06 6.32553E-19 9.37491E-19
 -1       402 9.91385E-05-2.95275E-05-2.98314E-05 2.57924E-06 2.53853E-19 1.23904E-18
 -1       403 9.82605E-05-2.92444E-05-2.95759E-05 2.19330E-06 4.61327E-19 4.47978E-19
 -1       404 9.75285E-05-2.90334E-05-2.93525E-05 1.79730E-06 6.75350E-19 1.21392E-19
 -1       405 9.69337E-05-2.88787E-05-2.91641E-05 1.42755E-06 2.12129E-19-3.87609E-19
 -1       406 9.64617E-05-2.87671E-05-2.90099E-05 1.10255E-06 1.38974E-19 3.21740E-19
 -1       407 9.60954E-05-2.86883E-05-2.88871E-05 8.29030E-07-9.08887E-20 9.08691E-19
 -1       408 9.58174E-05-2.86338E-05-2.87916E-05 6.06578E-07-8.23919E-19 1.68023E-18
 -1       409 9.56113E-05-2.85973E-05-2.87192E-05 4.30812E-07-4.09411E-19 1.12549E-18
 -1       410 9.54621E-05-2.85739E-05-2.86655E-05 2.95510E-07 1.96072E-19 1.17284E-18
 -1       411 9.53573E-05-2.85597E-05-2.86269E-05 1.93934E-07-6.47012E-19 1.95899E-18
 -1       412 9.52861E-05-2.85520E-05-2.85999E-05 1.19602E-07 2.82566E-20 2.27660E-18
 -1       413 9.52399E-05-2.85487E-05-2.85817E-05 6.66911E-08 1.39426E-18 2.47684E-18
 -1       414 9.52120E-05-2.85481E-05-2.85700E-05 3.02128E-08-3.67369E-20 2.46804E-18
 -1       415 9.51969E-05-2.85494E-05-2.85631E-05 6.03967E-09-1.55825E-19 1.21419E-18
 -1       416 9.51906E-05-2.85515E-05-2.85595E-05-9.14572E-09 2.34053E-19 7.34638E-19
 -1       417 9.51901E-05-2.85542E-05-2.85582E-05-1.79418E-08 1.07153E-18-2.64112E-19
 -1       418 9.51931E-05-2.85570E-05-2.85583E-05-2.23333E-08-4.07014E-19-1.98303E-18
 -1       419 9.51983E-05-2.85597E-05-2.85594E-05-2.37958E-08 7.05251E-19-6.45729E-19
 -1       420 9.52044E-05-2.85623E-05-2.85609E-05-2.33892E-08-1.18575E-18-4.05288E-19
 -1       421 9.52108E-05-2.85646E-05-2.85627E-05-2.18379E-08 2.48318E-19-8.62246E-19
 -1       422 9.52169E-05-2.85667E-05-2.85644E-05-1.95949E-08-6.08684E-22-3.33870E-19
 -1       423 9.52226E-05-2.85686E-05-2.85660E-05-1.68922E-08-1.19284E-20 5.18636E-19
 -1       424 9.52276E-05-2.85703E-05-2.85674E-05-1.37941E-08-5.30532E-19 2.47626E-19
 -1       425 9.52319E-05-2.85719E-05-2.85686E-05-1.02974E-08 3.39110E-19-8.17570E-19
 -1       426 9.52348E-05-2.85730E-05-2.85694E-05-6.76504E-09 1.24540E-19-1.54901E-18
 -1       427 9.52405E-05-2.85827E-05-2.85676E-05-1.21363E-08-1.34049E-18 5.65914E-19
 -1       428 9.52380E-05-2.85785E-05-2.85684E-05-1.12810E-08 1.22107E-18 2.06684E-18
 -1       429 9.52428E-05-2.85867E-05-2.85669E-05-1.14101E-08-1.07921E-18-2.09495E-18
 -1       430 9.52447E-05-2.85901E-05-2.85662E-05-9.23250E-09 8.36386E-19 5.75306E-19
 -1       431 9.52460E-05-2.85926E-05-2.85657E-05-5.97397E-09 1.75728E-18 2.16728E-19
 -1       432 9.52467E-05-2.85939E-05-2.85655E-05-2.05474E-09-1.06824E-18-6.92872E-19
 -1       433 9.52467E-05-2.85939E-05-2.85655E-05 2.08661E-09-2.39939E-18-8.85829E-19
 -1       434 9.52460E-05-2.85926E-05-2.85657E-05 6.00781E-09-2.29486E-18-4.26674E-18
 -1       435 9.52447E-05-2.85901E-05-2.85662E-05 9.22151E-09-6.11837E-19-6.20112E-19
 -1       436 9.52428E-05-2.85867E-05-2.85669E-05 1.14156E-08-9.32476E-19 6.36314E-18
 -1       437 9.52405E-05-2.85827E-05-2.85676E-05 1.21516E-08-7.58118E-19 2.41394E-18
 -1       438 9.52379E-05-2.85784E-05-2.85683E-05 1.11635E-08-1.52087E-18 9.02986E-19
 -1       439 1.05795E-04-3.09701E-05-3.20388E-05 1.28339E-06 1.44513E-18 4.00927E-18
 -1       440 5.82071E-05-4.13572E-05-7.41124E-06 4.38159E-05 8.19716E-19 2.70151E-18
 -1       441 1.33041E-04-5.16375E-05-3.49260E-05 2.60426E-05 2.21568E-18-1.03338E-18
 -1       442 1.09749E-05-2.45592E-05 5.40220E-06 2.14542E-06 7.23396E-19 4.33903E-18
 -1       443 9.54331E-05-5.12378E-05-1.89833E-05 4.29628E-05 4.41092E-19 1.71455E-18
 -1       444 8.78249E-05-9.86922E-06-3.34677E-05-3.20601E-06-1.06311E-18-3.88628E-18
 -1       445 1.51572E-04-4.11274E-05-4.72951E-05 9.55906E-06 4.20381E-18-2.18926E-18
 -1       446 1.56216E-04-2.39765E-05-5.66778E-05-7.94865E-07 5.78640E-18-2.22717E-18
 -1       447 1.57342E-04-1.26875E-05-6.19543E-05-1.17295E-06 6.08508E-18-1.34572E-18
 -1       448 1.55336E-04-1.35811E-05-6.07744E-05 1.87448E-06 5.35738E-18-1.34461E-18
 -1       449 1.52650E-04-3.09374E-05-5.23481E-05 9.71916E-07 3.97274E-18-4.99432E-19
 -1       450 1.49297E-04-4.49763E-05-4.46602E-05-1.36858E-05 2.57529E-18-2.35528E-18
 -1       451 1.25000E-04-5.34718E-05-3.06272E-05-3.27107E-05 1.32338E-18-3.34250E-18
 -1       452 8.37506E-05-4.79908E-05-1.54513E-05-4.50788E-05-1.42407E-19-4.74954E-18
 -1       453 4.88390E-05-3.61330E-05-5.50418E-06-4.21300E-05-3.93870E-19-5.92436E-18
 -1       454 1.80143E-05-2.00403E-05 9.86008E-07-1.98921E-05-8.75567E-19-6.90988E-18
 -1       455 1.32051E-05-1.90941E-05 2.58354E-06 5.33124E-06-6.04887E-19-6.71072E-18
 -1       456 3.47001E-05-3.12735E-05-1.60334E-06 3.30742E-05-1.00310E-18-6.19287E-18
 -1       457 6.80162E-05-4.49235E-05-1.01295E-05 4.26815E-05-1.82144E-18-5.38557E-18
 -1       458 1.14256E-04-5.70032E-05-2.46016E-05 3.63035E-05-3.02115E-18-2.95969E-18
 -1       459 1.45435E-04-5.37013E-05-3.92789E-05 2.01126E-05-5.17182E-18-2.17380E-18
 -1       460 1.60716E-04-3.93278E-05-5.19210E-05 2.28863E-06-6.54434E-18-1.73409E-18
 -1       461 1.64390E-04-2.21267E-05-6.07153E-05-2.86491E-06-6.98845E-18-2.29578E-18
 -1       462 1.67445E-04-1.59982E-05-6.44558E-05 9.68281E-07-5.57157E-18-2.72180E-18
 -1       463 1.60863E-04-2.29910E-05-5.90852E-05 5.73354E-06-3.40666E-18-2.60505E-18
 -1       464 1.57992E-04-3.86473E-05-5.12483E-05 1.41778E-06-1.68321E-18-2.31822E-18
 -1       465 1.38735E-04-5.54193E-05-3.58516E-05-2.22828E-05-1.44345E-18-1.23084E-18
 -1       466 1.09767E-04-5.71521E-05-2.25404E-05-3.68978E-05 3.06626E-19 2.26422E-19
 -1       467 5.99024E-05-4.30861E-05-7.40969E-06-4.13369E-05 1.72668E-18 3.06367E-18
 -1       468 2.39056E-05-2.81144E-05 1.59093E-06-2.49399E-05 1.21872E-18 4.60278E-18
 -1       469 2.30971E-05-2.76856E-05 1.68959E-06 2.75133E-05 6.68891E-19 5.06801E-18
 -1       470 1.23677E-04-5.94022E-05-2.75568E-05 2.99489E-05-5.63277E-20-1.54147E-18
 -1       471 1.50890E-04-5.38859E-05-4.17463E-05 2.58573E-06-1.08808E-18-3.07526E-18
 -1       472 7.49959E-05-4.81988E-06-3.00829E-05-9.74016E-07 3.60911E-19-3.78414E-18
 -1       473 7.93883E-05-7.48056E-06-3.08292E-05 1.53509E-07-1.29018E-19-3.85644E-18
 -1       474 7.45346E-05-5.08275E-06-2.97723E-05-3.73067E-06 1.06662E-18-3.35359E-18
 -1       475 7.79078E-05-7.52006E-06-3.01761E-05-3.95623E-06 1.48628E-18-3.15484E-18
 -1       476 8.25220E-05-1.06493E-05-3.08164E-05-2.98085E-06 1.80645E-18-2.62029E-18
 -1       477 8.77109E-05-1.40430E-05-3.15906E-05-9.43389E-07 2.31459E-18-1.77362E-18
 -1       478 9.29046E-05-1.74423E-05-3.23651E-05 1.65524E-06 2.54347E-18-9.42634E-19
 -1       479 9.80062E-05-2.10175E-05-3.30189E-05 4.13643E-06 2.67951E-18 3.36429E-19
 -1       480 1.02862E-04-2.50641E-05-3.33613E-05 5.50792E-06 2.56343E-18 2.05712E-18
 -1       481 1.05331E-04-2.80118E-05-3.31297E-05 4.66015E-06 2.28071E-18 3.40310E-18
 -1       482 1.02831E-04-2.60799E-05-3.28852E-05 3.84410E-06-1.23461E-18-1.84515E-18
 -1       483 1.31915E-04-6.91267E-06-5.41874E-05 6.87317E-07 5.36341E-18-3.63172E-19
 -1       484 1.04486E-04-2.93219E-05-3.22115E-05 7.57827E-06-7.91811E-19-1.31757E-18
 -1       485 1.07352E-04-3.32148E-05-3.17795E-05 9.38022E-06-6.13029E-20-8.28026E-19
 -1       486 1.12185E-04-3.84831E-05-3.16008E-05 8.69431E-06 1.65439E-19-2.80083E-19
 -1       487 1.19143E-04-4.46953E-05-3.19279E-05 4.55886E-06 5.06404E-19 1.41468E-19
 -1       488 1.26808E-04-4.93308E-05-3.32459E-05-3.49429E-06-2.64532E-19 9.34916E-19
 -1       489 1.31117E-04-4.62761E-05-3.65366E-05-1.36771E-05-1.16663E-18 8.14058E-19
 -1       490 1.28870E-04-3.31155E-05-4.13781E-05-1.82346E-05-2.66564E-18-1.40290E-20
 -1       491 1.23062E-04-1.85268E-05-4.53510E-05-9.35640E-06-4.14511E-18-1.23594E-18
 -1       492 1.22703E-04-1.76131E-05-4.55089E-05 8.99259E-06-3.75474E-18-3.37071E-18
 -1       493 1.28659E-04-3.25443E-05-4.15697E-05 1.94534E-05-1.49012E-18-3.88868E-18
 -1       494 1.31456E-04-4.63415E-05-3.66479E-05 1.50742E-05 4.52931E-19-4.03951E-18
 -1       495 1.27257E-04-4.96507E-05-3.32993E-05 4.74676E-06 1.38647E-18-2.15160E-18
 -1       496 1.19484E-04-4.55115E-05-3.17182E-05-4.09075E-06 1.37656E-18-1.53290E-18
 -1       497 1.12229E-04-3.95255E-05-3.11708E-05-9.15716E-06 5.86035E-19-1.21611E-18
 -1       498 1.06914E-04-3.45603E-05-3.10167E-05-1.11803E-05 9.39841E-19-1.39825E-18
 -1       499 1.03431E-04-3.12797E-05-3.09255E-05-1.13144E-05 8.48213E-19-1.56457E-18
 -1       500 1.01221E-04-2.94013E-05-3.07797E-05-1.04382E-05-4.23819E-19-1.48446E-18
 -1       501 9.97790E-05-2.84519E-05-3.05667E-05-9.10973E-06-3.90846E-19-2.33080E-18
 -1       502 9.87753E-05-2.80437E-05-3.03108E-05-7.65698E-06 4.49684E-19-2.15725E-18
 -1       503 9.80244E-05-2.79214E-05-3.00414E-05-6.26015E-06-5.90089E-19-1.53219E-18
 -1       504 9.74313E-05-2.79354E-05-2.97815E-05-5.00745E-06-5.50342E-19-1.26175E-18
 -1       505 9.69492E-05-2.80055E-05-2.95452E-05-3.93227E-06-9.04868E-19-4.77933E-19
 -1       506 9.65547E-05-2.80918E-05-2.93396E-05-3.03724E-06-6.79761E-19-4.40888E-19
 -1       507 9.62339E-05-2.81761E-05-2.91663E-05-2.30911E-06-3.72372E-19-7.33381E-19
 -1       508 9.59763E-05-2.82515E-05-2.90239E-05-1.72768E-06-1.51008E-19-1.24409E-18
 -1       509 9.57731E-05-2.83158E-05-2.89095E-05-1.27084E-06 8.00620E-19-3.43105E-18
 -1       510 9.56156E-05-2.83694E-05-2.88192E-05-9.17226E-07 3.67440E-19-2.87609E-18
 -1       511 9.54960E-05-2.84134E-05-2.87492E-05-6.47505E-07-5.85004E-19-3.30578E-18
 -1       512 9.54070E-05-2.84492E-05-2.86959E-05-4.44873E-07-6.28016E-19-2.13061E-18
 -1       513 9.53423E-05-2.84779E-05-2.86559E-05-2.95104E-07-3.17536E-19-1.91457E-18
 -1       514 9.52966E-05-2.85008E-05-2.86266E-05-1.86405E-07-6.34889E-19-1.55784E-18
 -1       515 9.52652E-05-2.85189E-05-2.86055E-05-1.09156E-07-7.85733E-20-2.96849E-18
 -1       516 9.52445E-05-2.85330E-05-2.85906E-05-5.56317E-08 7.11578E-19-3.24828E-18
 -1       517 9.52317E-05-2.85438E-05-2.85805E-05-1.97096E-08-4.58050E-19-3.36424E-18
 -1       518 9.52245E-05-2.85521E-05-2.85739E-05 3.38954E-09 3.14626E-19-3.68311E-18
 -1       519 9.52211E-05-2.85582E-05-2.85698E-05 1.73429E-08 1.74975E-18-3.69361E-18
 -1       520 9.52203E-05-2.85628E-05-2.85675E-05 2.49315E-08 5.30747E-19-3.58130E-18
 -1       521 9.52211E-05-2.85662E-05-2.85664E-05 2.82166E-08 2.02607E-19-3.08014E-18
 -1       522 9.52229E-05-2.85686E-05-2.85661E-05 2.86854E-08 2.78935E-19-2.87607E-18
 -1       523 9.52252E-05-2.85704E-05-2.85663E-05 2.73695E-08 6.02818E-19-1.01880E-18
 -1       524 9.52277E-05-2.85719E-05-2.85668E-05 2.49425E-08 1.65658E-20 1.49729E-18
 -1       525 9.52303E-05-2.85732E-05-2.85673E-05 2.17989E-08 4.58588E-19 2.13372E-18
 -1       526 9.52328E-05-2.85745E-05-2.85678E-05 1.81316E-08-1.40071E-18 1.35073E-18
 -1       527 9.52356E-05-2.85765E-05-2.85682E-05 1.49362E-08-1.01083E-18 1.95114E-18
 -1       528 1.07533E-04-3.52707E-05-3.09738E-05 3.91887E-06 6.24050E-19 1.51598E-18
 -1       529 1.06602E-04-3.41653E-05-3.10488E-05 1.57833E-06 8.00160E-19 1.21958E-18
 -1       530 1.05473E-04-3.23249E-05-3.13534E-05 6.57089E-07 8.90793E-19 1.37119E-18
 -1       531 1.07695E-04-3.50590E-05-3.11325E-05 6.87233E-06 5.30747E-19 1.85006E-18
 -1       532 1.06531E-04-3.29903E-05-3.15186E-05 9.17652E-06 5.30284E-19 1.81583E-18
 -1       533 1.04088E-04-2.93036E-05-3.20499E-05 9.22220E-06 8.97517E-19 1.83873E-18
 -1       534 1.01391E-04-2.54524E-05-3.25416E-05 5.96645E-06 1.45836E-18 1.16959E-18
 -1       535 1.00056E-04-2.35687E-05-3.27772E-05 2.97483E-08 1.91622E-18 8.23382E-19
 -1       536 1.01009E-04-2.48744E-05-3.26313E-05-6.16541E-06 1.46293E-18 5.83590E-19
 -1       537 1.03670E-04-2.86171E-05-3.21649E-05-9.96051E-06 6.67409E-19 4.74341E-19
 -1       538 1.06288E-04-3.25555E-05-3.16029E-05-1.03911E-05 2.11808E-20-8.17593E-19
 -1       539 1.07698E-04-3.51198E-05-3.11111E-05-8.10409E-06 5.88800E-19-1.27048E-18
 -1       540 1.07612E-04-3.58425E-05-3.07647E-05-4.64436E-06 4.19464E-19-8.04915E-19
 -1       541 1.06465E-04-3.51952E-05-3.05509E-05-1.27039E-06 3.59216E-20-5.26363E-19
 -1       542 1.04828E-04-3.38829E-05-3.04114E-05 1.36000E-06-3.54246E-19 2.73389E-19
 -1       543 1.03120E-04-3.24510E-05-3.02915E-05 3.07542E-06-3.56790E-19 1.32769E-19
 -1       544 1.01564E-04-3.11961E-05-3.01603E-05 3.97367E-06-2.31390E-19-3.31348E-19
 -1       545 1.00238E-04-3.02219E-05-3.00080E-05 4.25195E-06 7.49061E-20-5.83105E-20
 -1       546 9.91468E-05-2.95249E-05-2.98380E-05 4.11384E-06-8.12740E-19 6.92879E-19
 -1       547 9.82647E-05-2.90570E-05-2.96598E-05 3.72984E-06 3.85664E-19 1.60415E-18
 -1       548 9.75583E-05-2.87606E-05-2.94837E-05 3.22692E-06 8.26177E-19 1.57171E-18
 -1       549 9.69966E-05-2.85845E-05-2.93183E-05 2.69155E-06 8.67303E-19 1.21158E-18
 -1       550 9.65531E-05-2.84888E-05-2.91694E-05 2.17763E-06 1.04135E-18 1.62118E-18
 -1       551 9.62061E-05-2.84442E-05-2.90398E-05 1.71509E-06 7.06861E-19 1.30048E-18
 -1       552 9.59373E-05-2.84309E-05-2.89305E-05 1.31732E-06-4.60796E-19 5.81677E-19
 -1       553 9.57317E-05-2.84353E-05-2.88406E-05 9.87100E-07-1.15843E-18 1.62368E-18
 -1       554 9.55767E-05-2.84489E-05-2.87685E-05 7.20835E-07-2.15485E-19 2.11694E-18
 -1       555 9.54618E-05-2.84664E-05-2.87119E-05 5.11586E-07 7.53050E-19 1.24465E-18
 -1       556 9.53783E-05-2.84844E-05-2.86685E-05 3.51035E-07-7.34711E-19 1.27578E-18
 -1       557 9.53189E-05-2.85014E-05-2.86359E-05 2.30713E-07-8.84396E-20 1.00057E-18
 -1       558 9.52779E-05-2.85164E-05-2.86119E-05 1.42709E-07 4.77540E-19 1.01317E-18
 -1       559 9.52507E-05-2.85291E-05-2.85948E-05 8.00378E-08 1.26559E-18 7.87066E-19
 -1       560 9.52334E-05-2.85396E-05-2.85830E-05 3.67656E-08 7.06661E-19 3.66655E-20
 -1       561 9.52234E-05-2.85479E-05-2.85751E-05 8.01210E-09 8.15150E-19-5.52805E-19
 -1       562 9.52183E-05-2.85545E-05-2.85702E-05-1.01319E-08 6.90760E-19-1.47082E-18
 -1       563 9.52167E-05-2.85596E-05-2.85673E-05-2.07210E-08-1.34651E-19 5.29979E-19
 -1       564 9.52172E-05-2.85634E-05-2.85659E-05-2.60838E-08-3.52848E-19 1.04108E-18
 -1       565 9.52191E-05-2.85663E-05-2.85655E-05-2.79469E-08-4.24574E-19 1.11077E-18
 -1       566 9.52217E-05-2.85685E-05-2.85656E-05-2.75462E-08-4.84536E-19 2.45321E-19
 -1       567 9.52246E-05-2.85703E-05-2.85662E-05-2.57224E-08 5.27310E-19-8.39233E-19
 -1       568 9.52276E-05-2.85717E-05-2.85668E-05-2.30044E-08-4.66582E-19-7.53139E-19
 -1       569 9.52305E-05-2.85731E-05-2.85675E-05-1.96761E-08-3.24694E-19-1.33167E-19
 -1       570 9.52334E-05-2.85746E-05-2.85681E-05-1.58518E-08-6.31592E-19 3.54451E-19
 -1       571 9.52448E-05-2.85866E-05-2.85678E-05-1.36586E-08 2.31705E-18-5.47987E-19
 -1       572 9.52418E-05-2.85833E-05-2.85679E-05-1.57405E-08-5.52092E-19 8.38776E-19
 -1       573 9.52382E-05-2.85793E-05-2.85681E-05-1.59245E-08-7.83379E-19-1.84378E-18
 -1       574 2.53430E-05-1.45699E-05-4.00421E-06 1.49360E-05 1.10180E-19 3.58909E-18
 -1       575 9.52471E-05-2.85893E-05-2.85676E-05-1.00034E-08 1.61910E-18 5.44567E-19
 -1       576 9.52485E-05-2.85909E-05-2.85675E-05-5.26764E-09-8.50403E-19-3.48434E-18
 -1       577 9.52489E-05-2.85915E-05-2.85675E-05 1.35840E-11-7.43632E-19-1.68208E-19
 -1       578 9.52485E-05-2.85909E-05-2.85675E-05 5.29874E-09-6.30418E-19-7.92362E-19
 -1       579 9.52471E-05-2.85893E-05-2.85676E-05 9.96744E-09 1.06956E-18-2.38272E-18
 -1       580 9.52449E-05-2.85867E-05-2.85678E-05 1.36543E-08 1.08553E-18-1.90186E-19
 -1       581 9.52418E-05-2.85833E-05-2.85679E-05 1.57683E-08-2.22029E-18 4.97038E-18
 -1       582 9.52388E-05-2.85800E-05-2.85681E-05 1.60815E-08-1.43954E-18 1.96281E-18
 -1       583 9.99671E-05-2.15465E-05-3.36253E-05-6.43927E-07-1.57369E-18-2.51549E-18
 -1       584 8.70569E-05-4.83320E-05-1.62462E-05 4.33446E-05-1.90694E-18 5.86676E-19
 -1       585 2.52861E-05-1.46495E-05-3.92788E-06-1.14471E-05 1.47103E-18 4.31500E-18
 -1       586 5.24532E-05-3.08413E-05-8.75861E-06-3.66995E-05 1.86083E-18 2.65180E-18
 -1       587 1.41134E-04-1.40849E-05-5.50574E-05 7.62276E-06-4.56307E-18-2.91742E-18
 -1       588 1.38812E-04-5.59541E-05-3.56188E-05-1.11727E-05-5.13633E-19-2.72109E-19
 -1       589 1.33075E-04-1.80432E-05-4.99726E-05 1.08086E-05 3.75082E-18 4.25078E-19
 -1       590 7.33724E-05-4.03261E-06-2.97231E-05-2.52220E-06 7.64981E-19-3.67044E-18
 -1       591 1.34173E-04-1.36600E-05-5.22474E-05-9.29494E-06 5.44732E-18-1.11369E-18
 -1       592 1.14762E-04-5.72646E-05-2.45236E-05-3.43801E-05-1.83076E-18-2.22913E-18
 -1       593 1.41547E-04-5.26226E-05-3.83270E-05 4.66818E-06 1.55607E-18-3.36156E-18
 -1       594 1.38852E-04-3.39745E-05-4.54513E-05-1.07752E-05 3.30060E-18-2.56789E-18
 -1       595 1.42070E-04-4.47541E-05-4.20854E-05 2.21806E-06 1.25255E-18 1.02269E-18
 -1       596 6.29732E-05-3.59571E-05-1.11583E-05 4.02147E-05 1.30141E-18-4.58314E-18
 -1       597 7.78661E-05-4.22939E-05-1.48820E-05-4.40287E-05-1.91678E-18-3.95292E-18
 -1       598 4.46718E-05-2.29605E-05-8.71912E-06-3.55407E-05-1.54361E-18-5.75765E-18
 -1       599 2.41851E-05-1.05566E-05-5.21388E-06-6.50448E-06-1.96902E-19-6.24115E-18
 -1       600 1.33423E-04-6.36815E-05-2.98973E-05-1.95374E-05 1.37145E-18-2.85789E-18
 -1       601 3.22810E-05-1.70757E-05-5.94227E-06 2.27702E-05 1.00072E-18-5.62568E-18
 -1       602 1.01702E-04-5.46224E-05-1.99880E-05 3.82743E-05 9.78588E-19-1.93624E-18
 -1       603 1.37670E-04-6.25737E-05-3.21614E-05 1.53180E-05-9.80838E-19 4.20314E-19
 -1       604 1.47848E-04-5.35757E-05-4.07673E-05-3.03359E-06-3.08845E-18 9.96905E-19
 -1       605 1.44736E-04-2.95943E-05-4.98431E-05-1.43854E-05-5.06303E-18-3.03767E-19
 -1       606 1.39378E-04-1.27064E-05-5.48299E-05-5.48039E-06-6.05607E-18-2.27141E-18
 -1       607 1.43714E-04-3.10817E-05-4.88281E-05 1.61246E-05-1.79889E-18-3.09358E-18
 -1       608 9.52160E-05-5.29962E-05-1.78578E-05-3.92401E-05 2.51235E-18 7.05076E-19
 -1       609 5.22205E-05-3.03485E-05-8.87481E-06 3.99136E-05-1.63811E-18 1.87485E-18
 -1       610 8.59888E-05-1.17000E-05-3.18572E-05 3.77204E-07-5.96551E-19-3.59285E-18
 -1       611 1.10518E-04-5.64378E-05-2.30313E-05 3.39054E-05-1.54501E-18-3.84820E-19
 -1       612 1.05043E-04-2.97228E-05-3.22681E-05 2.10866E-06 1.78488E-18 2.67300E-18
 -1       613 9.27083E-05-1.62614E-05-3.27822E-05-1.60684E-08-1.08259E-18-3.24093E-18
 -1       614 1.05007E-04-3.09114E-05-3.17497E-05 1.00016E-06 1.40186E-18 2.01186E-18
 -1       615 1.32015E-04-3.20994E-05-4.31694E-05 1.30666E-05 1.69274E-18 1.43061E-18
 -1       616 8.18270E-05-1.29084E-05-2.95418E-05-6.22920E-06 1.26293E-18-2.65829E-18
 -1       617 7.64639E-05-9.06499E-06-2.88881E-05-6.14634E-06 9.78079E-19-2.95437E-18
 -1       618 9.34691E-05-2.07951E-05-3.11517E-05-2.08988E-06 1.93442E-18-1.11932E-18
 -1       619 9.84275E-05-2.41577E-05-3.18362E-05 5.13654E-07 2.10222E-18-2.24264E-19
 -1       620 1.03585E-04-2.79835E-05-3.23912E-05 2.62195E-06 2.04106E-18 1.52022E-18
 -1       621 1.39943E-04-4.52291E-05-4.09555E-05 1.52149E-05-2.13691E-19-3.21515E-18
 -1       622 9.81894E-05-2.72484E-05-3.04023E-05 1.06470E-05-1.79457E-21-1.70974E-18
 -1       623 1.02053E-04-3.30391E-05-2.95756E-05 1.35262E-05 4.36893E-19-1.30536E-18
 -1       624 1.09191E-04-4.12277E-05-2.91166E-05 1.44932E-05 7.54058E-19-7.32042E-19
 -1       625 1.20538E-04-5.12243E-05-2.96406E-05 1.16110E-05 9.19737E-19-1.88992E-19
 -1       626 1.34851E-04-5.72835E-05-3.33062E-05 1.37443E-06 2.14051E-18-3.10147E-18
 -1       627 1.22260E-04-5.21856E-05-3.00150E-05-9.10310E-06 1.80394E-18-2.45047E-18
 -1       628 1.10488E-04-4.29313E-05-2.89445E-05-1.36926E-05 1.48825E-18-1.87638E-18
 -1       629 1.03093E-04-3.54688E-05-2.89814E-05-1.45825E-05 9.45510E-19-3.96629E-19
 -1       630 9.89362E-05-3.06180E-05-2.92805E-05-1.37605E-05 7.17215E-19-1.16067E-18
 -1       631 9.68749E-05-2.79437E-05-2.95417E-05-1.22738E-05-5.22204E-20-2.02708E-18
 -1       632 9.59746E-05-2.67104E-05-2.96836E-05-1.05905E-05-7.64013E-19-1.95412E-18
 -1       633 9.56421E-05-2.63157E-05-2.97100E-05-8.91899E-06-2.71765E-19-1.61818E-18
 -1       634 9.55509E-05-2.63585E-05-2.96525E-05-7.36176E-06-1.40333E-19-2.05838E-18
 -1       635 9.55396E-05-2.65982E-05-2.95451E-05-5.96921E-06-1.00527E-19-1.38827E-18
 -1       636 9.55396E-05-2.69029E-05-2.94147E-05-4.76133E-06-7.81057E-19-1.34132E-18
 -1       637 9.55280E-05-2.72065E-05-2.92798E-05-3.73919E-06-1.23357E-19-7.57360E-19
 -1       638 9.55025E-05-2.74799E-05-2.91519E-05-2.89207E-06-8.99553E-19-2.13181E-19
 -1       639 9.54675E-05-2.77132E-05-2.90371E-05-2.20268E-06-7.77325E-19-5.44918E-19
 -1       640 9.54286E-05-2.79060E-05-2.89379E-05-1.65082E-06 2.52625E-19-1.17892E-18
 -1       641 9.53904E-05-2.80621E-05-2.88547E-05-1.21584E-06-2.28238E-19-1.51597E-18
 -1       642 9.53557E-05-2.81865E-05-2.87866E-05-8.78098E-07-1.17909E-18-2.31826E-18
 -1       643 9.53259E-05-2.82844E-05-2.87319E-05-6.19807E-07-5.67900E-20-2.59404E-18
 -1       644 9.53014E-05-2.83606E-05-2.86888E-05-4.25371E-07 5.02094E-19-2.30296E-18
 -1       645 9.52820E-05-2.84192E-05-2.86554E-05-2.81473E-07-4.87953E-19-1.17129E-18
 -1       646 9.52672E-05-2.84637E-05-2.86300E-05-1.76972E-07-4.67722E-19-1.37578E-18
 -1       647 9.52562E-05-2.84971E-05-2.86110E-05-1.02716E-07 3.18193E-19-9.00518E-19
 -1       648 9.52483E-05-2.85218E-05-2.85971E-05-5.13118E-08 1.52987E-19-1.76700E-18
 -1       649 9.52429E-05-2.85396E-05-2.85871E-05-1.68762E-08-4.96984E-19-1.16888E-18
 -1       650 9.52392E-05-2.85523E-05-2.85801E-05 5.19629E-09 3.77478E-20-2.96399E-18
 -1       651 9.52369E-05-2.85611E-05-2.85753E-05 1.84529E-08 1.40278E-18-4.67483E-18
 -1       652 9.52356E-05-2.85671E-05-2.85722E-05 2.55762E-08 8.70944E-19-4.46414E-18
 -1       653 9.52350E-05-2.85709E-05-2.85703E-05 2.85508E-08-8.04616E-19-3.36873E-18
 -1       654 9.52349E-05-2.85734E-05-2.85692E-05 2.88045E-08 2.06764E-18-3.67647E-18
 -1       655 9.52351E-05-2.85750E-05-2.85686E-05 2.73184E-08 1.75923E-18-2.92672E-18
 -1       656 9.52356E-05-2.85761E-05-2.85684E-05 2.47329E-08 1.25814E-18-4.30099E-19
 -1       657 9.52364E-05-2.85772E-05-2.85682E-05 2.14099E-08-3.67212E-19 5.09906E-19
 -1       658 9.52377E-05-2.85785E-05-2.85682E-05 1.88679E-08-6.26049E-19 1.81205E-18
 -1       659 1.08721E-04-3.67860E-05-3.08337E-05 1.04228E-06 5.03884E-19 4.82121E-19
 -1       660 1.11187E-04-3.84672E-05-3.11654E-05 4.17499E-06 2.60511E-19 3.98419E-19
 -1       661 1.06009E-04-3.38566E-05-3.09173E-05-5.33202E-07 8.07053E-19 2.93544E-19
 -1       662 1.10946E-04-3.33499E-05-3.32729E-05 1.09366E-05 7.64943E-19 1.42797E-18
 -1       663 1.07561E-04-2.66960E-05-3.46896E-05 1.00586E-05 1.42568E-18 1.25021E-18
 -1       664 1.04315E-04-2.11655E-05-3.56581E-05 4.32099E-06 1.93544E-18 8.93252E-19
 -1       665 1.03786E-04-2.05562E-05-3.57193E-05-4.08914E-06 2.06789E-18 6.05149E-19
 -1       666 1.06386E-04-2.52135E-05-3.48376E-05-1.05818E-05 1.63481E-18-4.54774E-19
 -1       667 1.10349E-04-3.23746E-05-3.33993E-05-1.23075E-05 1.00927E-18-1.37185E-18
 -1       668 1.12021E-04-3.74149E-05-3.19827E-05-9.58616E-06 8.52665E-19-1.65339E-18
 -1       669 1.11177E-04-3.91438E-05-3.08744E-05-5.11422E-06-2.06401E-19-1.75316E-18
 -1       670 1.08768E-04-3.83361E-05-3.01843E-05-8.52465E-07 7.49570E-20-8.24252E-19
 -1       671 1.05793E-04-3.62145E-05-2.98222E-05 2.31846E-06 1.73140E-19-1.07408E-18
 -1       672 1.03024E-04-3.38443E-05-2.96510E-05 4.27495E-06-5.55832E-19-9.97249E-19
 -1       673 1.00777E-04-3.17825E-05-2.95705E-05 5.22642E-06-4.42604E-19-4.42981E-19
 -1       674 9.90952E-05-3.02218E-05-2.95178E-05 5.45973E-06-1.77106E-19 8.33996E-20
 -1       675 9.78969E-05-2.91545E-05-2.94612E-05 5.22976E-06-7.44194E-19-1.71851E-19
 -1       676 9.70676E-05-2.84905E-05-2.93900E-05 4.73289E-06-7.31722E-19-1.21639E-18
 -1       677 9.65016E-05-2.81225E-05-2.93050E-05 4.10903E-06 1.04959E-19-9.75917E-20
 -1       678 9.61167E-05-2.79553E-05-2.92116E-05 3.45204E-06 1.10190E-18 6.53497E-19
 -1       679 9.58537E-05-2.79148E-05-2.91163E-05 2.82084E-06 9.79347E-19 4.95169E-19
 -1       680 9.56723E-05-2.79478E-05-2.90244E-05 2.24901E-06 1.11777E-18 4.27831E-19
 -1       681 9.55455E-05-2.80183E-05-2.89399E-05 1.75243E-06 8.10144E-19-5.65919E-20
 -1       682 9.54557E-05-2.81036E-05-2.88649E-05 1.33528E-06-2.90526E-19-6.47862E-19
 -1       683 9.53915E-05-2.81897E-05-2.88006E-05 9.94428E-07-9.55451E-19-1.16097E-18
 -1       684 9.53452E-05-2.82691E-05-2.87467E-05 7.22638E-07-3.37970E-19-8.49509E-19
 -1       685 9.53116E-05-2.83383E-05-2.87027E-05 5.10752E-07-2.44565E-20 3.13183E-19
 -1       686 9.52874E-05-2.83961E-05-2.86676E-05 3.49132E-07 3.88523E-22-4.75371E-19
 -1       687 9.52700E-05-2.84429E-05-2.86401E-05 2.28544E-07-2.27882E-19-1.10698E-20
 -1       688 9.52576E-05-2.84797E-05-2.86191E-05 1.40650E-07 4.64253E-19-3.49828E-20
 -1       689 9.52489E-05-2.85080E-05-2.86032E-05 7.82292E-08 2.11259E-18 6.65861E-19
 -1       690 9.52430E-05-2.85291E-05-2.85916E-05 3.52328E-08 9.07512E-19-1.79101E-19
 -1       691 9.52391E-05-2.85446E-05-2.85833E-05 6.72711E-09 9.10503E-19-7.96194E-19
 -1       692 9.52367E-05-2.85557E-05-2.85776E-05-1.12135E-08-1.03194E-18 1.28459E-19
 -1       693 9.52353E-05-2.85633E-05-2.85737E-05-2.16410E-08-1.39168E-20 8.40302E-19
 -1       694 9.52346E-05-2.85684E-05-2.85712E-05-2.68715E-08 5.13101E-19 1.17878E-18
 -1       695 9.52345E-05-2.85718E-05-2.85697E-05-2.86146E-08 2.57352E-19 3.08876E-19
 -1       696 9.52347E-05-2.85739E-05-2.85689E-05-2.80883E-08 5.05605E-19 1.11534E-18
 -1       697 9.52351E-05-2.85753E-05-2.85685E-05-2.61125E-08-5.05621E-19 2.82948E-18
 -1       698 9.52358E-05-2.85765E-05-2.85683E-05-2.32231E-08 2.19799E-19 1.77556E-18
 -1       699 9.52370E-05-2.85778E-05-2.85682E-05-1.98475E-08-3.08687E-19 1.13168E-18
 -1       700 1.31188E-04-5.88861E-05-3.10288E-05 1.40786E-05 1.73642E-20-3.32458E-18
 -1       701 9.52446E-05-2.85839E-05-2.85689E-05-1.77587E-08 2.05662E-18 1.28942E-18
 -1       702 9.52507E-05-2.85889E-05-2.85693E-05-9.11408E-09 9.50123E-19-3.13016E-18
 -1       703 9.52410E-05-2.85810E-05-2.85686E-05-1.94820E-08 1.51393E-18 8.78219E-19
 -1       704 9.52482E-05-2.85869E-05-2.85692E-05-1.41844E-08 1.72848E-18-9.76185E-19
 -1       705 4.76002E-05-1.86160E-05-1.19336E-05 2.65083E-05-1.45868E-18 2.05818E-18
 -1       706 9.52520E-05-2.85899E-05-2.85694E-05 3.14475E-09 1.82382E-18-8.11787E-19
 -1       707 9.52507E-05-2.85889E-05-2.85693E-05 9.04221E-09 1.48975E-18-1.75428E-18
 -1       708 9.52483E-05-2.85869E-05-2.85691E-05 1.41669E-08 1.24235E-18-2.00110E-18
 -1       709 9.52446E-05-2.85840E-05-2.85688E-05 1.78011E-08 1.50533E-18 2.35987E-18
 -1       710 1.19876E-04-1.13489E-05-4.70207E-05 6.78897E-06 4.29387E-18 7.72362E-19
 -1       711 3.54522E-05-1.09300E-05-9.96307E-06 1.47054E-06 3.70770E-19 2.54941E-18
 -1       712 4.81930E-05-1.86414E-05-1.21156E-05-2.32909E-05 2.06843E-18 3.58957E-18
 -1       713 1.18748E-04-5.87352E-05-2.55611E-05-2.48121E-05 3.05496E-18-2.98197E-18
 -1       714 1.34704E-04-5.07707E-05-3.61616E-05 2.13328E-06-4.14335E-19 1.16544E-18
 -1       715 9.52520E-05-2.85899E-05-2.85694E-05-3.13715E-09 1.11389E-18-1.90997E-18
 -1       716 8.84922E-05-4.31264E-05-1.91519E-05 3.58127E-05 2.05154E-18-2.44853E-18
 -1       717 1.20691E-04-9.76701E-06-4.80620E-05-5.60211E-06 4.82385E-18-4.50813E-19
 -1       718 1.01668E-04-4.95882E-05-2.21168E-05-3.52472E-05-2.14755E-18-2.03796E-18
 -1       719 9.61628E-05-2.29880E-05-3.13622E-05 6.63155E-06-5.81117E-19-2.28852E-18
 -1       720 1.27414E-04-5.76295E-05-2.98958E-05-1.70892E-05-1.65472E-18-3.09498E-19
 -1       721 1.33396E-04-4.57198E-05-3.78376E-05-7.63383E-06 1.34111E-18-2.61609E-18
 -1       722 7.00406E-05-3.12117E-05-1.62489E-05-3.75642E-05-1.88994E-18-4.13487E-18
 -1       723 1.21237E-04-5.78897E-05-2.70511E-05 2.21875E-05 1.11221E-18-2.08105E-19
 -1       724 8.78272E-05-1.70278E-05-3.03469E-05-4.64526E-06 1.59063E-18-1.86352E-18
 -1       725 4.30259E-05-1.21671E-05-1.26982E-05-2.01686E-05-5.66215E-19-5.23485E-18
 -1       726 5.83588E-05-2.36302E-05-1.44029E-05 3.03292E-05 1.80701E-18-4.29131E-18
 -1       727 1.38197E-04-5.69349E-05-3.49420E-05-1.90805E-06-9.93752E-19 1.44765E-18
 -1       728 1.24000E-04-2.18207E-05-4.41969E-05-1.36804E-05 3.58163E-18-1.83756E-18
 -1       729 3.67924E-05-9.58911E-06-1.11290E-05 8.83362E-06 8.54696E-19-5.07283E-18
 -1       730 7.64192E-05-8.20282E-06-2.92383E-05 1.63721E-06 2.70908E-19-3.49716E-18
 -1       731 1.12244E-04-3.75967E-05-3.19984E-05 8.15375E-06 2.34547E-19 9.90004E-19
 -1       732 7.94640E-05-3.83145E-05-1.72456E-05 3.79728E-05-1.55192E-18 8.14713E-19
 -1       733 8.10243E-05-4.05324E-05-1.69995E-05-3.64628E-05 2.29403E-18 6.08037E-19
 -1       734 9.45234E-05-1.97870E-05-3.20306E-05 3.34924E-06-9.33155E-19-2.80068E-18
 -1       735 8.29033E-05-1.24286E-05-3.02012E-05 3.51176E-06-1.11000E-19-3.28313E-18
 -1       736 7.30898E-05-6.47229E-06-2.85550E-05-4.28641E-06 6.36175E-19-3.22264E-18
 -1       737 1.42774E-04-4.86087E-05-4.06531E-05-1.07717E-05-2.75857E-18 1.55065E-18
 -1       738 9.77414E-05-4.69668E-05-2.15828E-05 3.28059E-05-1.90965E-18-1.04192E-19
 -1       739 1.20357E-04-2.10412E-05-4.28763E-05 1.25992E-05 2.51447E-18 1.60191E-18
 -1       740 9.52412E-05-2.85814E-05-2.85685E-05 1.89963E-08-8.24730E-20 3.05848E-18
 -1       741 1.03323E-04-3.01561E-05-3.13582E-05-2.94510E-07 1.41722E-18 4.74456E-19
 -1       742 1.23743E-04-3.43677E-05-3.85396E-05-1.42746E-05 1.87497E-18-2.39078E-18
 -1       743 7.29361E-05-6.06934E-06-2.86617E-05-1.30266E-06 5.10629E-19-3.44464E-18
 -1       744 1.28102E-04-2.08431E-05-4.64371E-05 1.37436E-05-3.08320E-18-3.30519E-18
 -1       745 9.92531E-05-2.73621E-05-3.08065E-05-2.92920E-06 1.48656E-18-5.77387E-19
 -1       746 9.02879E-05-3.85680E-05-2.19879E-05-3.18703E-05-1.83086E-18-2.36367E-18
 -1       747 1.26064E-04-5.19597E-05-3.18058E-05-4.79558E-06-8.85318E-19 4.08420E-19
 -1       748 8.85980E-05-1.60125E-05-3.11076E-05 3.74493E-06-5.10123E-19-2.92421E-18
 -1       749 9.34057E-05-3.14182E-05-2.65409E-05 1.91260E-05 9.92172E-19-1.64378E-18
 -1       750 1.01443E-04-4.21082E-05-2.52835E-05 2.39470E-05 1.43870E-18-1.21339E-18
 -1       751 7.06488E-05-2.60252E-05-1.88958E-05 2.72691E-05-2.20779E-18 1.56504E-18
 -1       752 1.13564E-04-1.68920E-05-4.16991E-05-9.49061E-06 3.42942E-18-1.43844E-18
 -1       753 1.04471E-04-4.50436E-05-2.53114E-05-2.26347E-05 2.33639E-18-1.72388E-18
 -1       754 9.55157E-05-3.49349E-05-2.59290E-05-2.00304E-05 1.73862E-18-9.73264E-19
 -1       755 9.16490E-05-2.88167E-05-2.69235E-05-1.66605E-05 3.90183E-19-1.18655E-18
 -1       756 9.04486E-05-2.56372E-05-2.77746E-05-1.37464E-05-2.75512E-19-1.80622E-18
 -1       757 9.05648E-05-2.43110E-05-2.83943E-05-1.13792E-05 2.85875E-20-1.81976E-18
 -1       758 9.12201E-05-2.40337E-05-2.87938E-05-9.43027E-06-1.29994E-19-9.27728E-19
 -1       759 9.20198E-05-2.43056E-05-2.90200E-05-7.78434E-06 1.09591E-19-4.54441E-19
 -1       760 9.27748E-05-2.48208E-05-2.91228E-05-6.37251E-06 7.63146E-21-3.27128E-19
 -1       761 9.34126E-05-2.54080E-05-2.91446E-05-5.15800E-06-7.38788E-19-1.44988E-19
 -1       762 9.39187E-05-2.59780E-05-2.91172E-05-4.12069E-06-5.85482E-19 3.37352E-19
 -1       763 9.43045E-05-2.64896E-05-2.90634E-05-3.24584E-06-2.33912E-19-1.81989E-18
 -1       764 9.45904E-05-2.69282E-05-2.89980E-05-2.51899E-06-4.25272E-19-9.52787E-19
 -1       765 9.47979E-05-2.72933E-05-2.89305E-05-1.92455E-06-6.06894E-19 4.10177E-19
 -1       766 9.49461E-05-2.75908E-05-2.88665E-05-1.44605E-06 1.99539E-19-3.31200E-19
 -1       767 9.50502E-05-2.78293E-05-2.88089E-05-1.06691E-06-1.10052E-18 5.04548E-19
 -1       768 9.51224E-05-2.80178E-05-2.87590E-05-7.71206E-07-1.26031E-18 1.46830E-20
 -1       769 9.51715E-05-2.81650E-05-2.87170E-05-5.44265E-07 4.55528E-20-2.26538E-19
 -1       770 9.52042E-05-2.82784E-05-2.86825E-05-3.72994E-07 2.71152E-19-3.50979E-19
 -1       771 9.52253E-05-2.83646E-05-2.86546E-05-2.46040E-07-3.56188E-19-1.10578E-18
 -1       772 9.52384E-05-2.84292E-05-2.86325E-05-1.53783E-07-3.31089E-19-7.59233E-19
 -1       773 9.52460E-05-2.84769E-05-2.86153E-05-8.82442E-08-7.18835E-19-1.11091E-18
 -1       774 9.52498E-05-2.85114E-05-2.86022E-05-4.29303E-08 6.76338E-19-2.10570E-18
 -1       775 9.52512E-05-2.85358E-05-2.85923E-05-1.26489E-08-4.36697E-19-6.81993E-19
 -1       776 9.52510E-05-2.85526E-05-2.85850E-05 6.67808E-09-9.46208E-20-4.57011E-19
 -1       777 9.52499E-05-2.85639E-05-2.85797E-05 1.81969E-08 4.94845E-19-1.59636E-18
 -1       778 9.52484E-05-2.85711E-05-2.85760E-05 2.42859E-08 2.02839E-18-3.50425E-18
 -1       779 9.52466E-05-2.85754E-05-2.85734E-05 2.67005E-08 5.81604E-19-6.43614E-19
 -1       780 9.52449E-05-2.85780E-05-2.85715E-05 2.67176E-08 1.96552E-18-1.36783E-18
 -1       781 9.52434E-05-2.85794E-05-2.85703E-05 2.52371E-08 2.39964E-18-1.17394E-18
 -1       782 9.52422E-05-2.85804E-05-2.85693E-05 2.27037E-08 2.18392E-18-2.98272E-19
 -1       783 1.11689E-04-4.03157E-05-3.05947E-05-9.65806E-07 2.43235E-19-1.25217E-19
 -1       784 1.06819E-04-3.60721E-05-3.03159E-05-3.18433E-06 5.66144E-19-3.02679E-19
 -1       785 1.11233E-04-2.15878E-05-3.85478E-05 1.01193E-05 1.95137E-18 1.31451E-18
 -1       786 1.15851E-04-3.21526E-05-3.59390E-05 1.25597E-05 8.40693E-19 1.37133E-18
 -1       787 1.16020E-04-4.30135E-05-3.12860E-05-4.42951E-06 1.33533E-19-7.62583E-19
 -1       788 1.12070E-04-4.23433E-05-2.98780E-05 9.92635E-07-1.30450E-19-1.01958E-18
 -1       789 1.07325E-04-3.91781E-05-2.92049E-05 4.54164E-06-2.38650E-20-8.89178E-19
 -1       790 1.03115E-04-3.56119E-05-2.89319E-05 6.40669E-06-3.93075E-19-4.77302E-19
 -1       791 9.99391E-05-3.25504E-05-2.88815E-05 7.03448E-06-1.01179E-18 2.19811E-20
 -1       792 9.77591E-05-3.02703E-05-2.89238E-05 6.91427E-06-8.60344E-19 1.94343E-19
 -1       793 9.63749E-05-2.87438E-05-2.89847E-05 6.37993E-06-5.48054E-19 4.65178E-19
 -1       794 9.55613E-05-2.78259E-05-2.90294E-05 5.64527E-06 4.61893E-20 1.56537E-19
 -1       795 9.51274E-05-2.73514E-05-2.90467E-05 4.84128E-06-7.80434E-19 4.78300E-19
 -1       796 9.49306E-05-2.71757E-05-2.90377E-05 4.04676E-06 1.93012E-19 2.14695E-19
 -1       797 9.48724E-05-2.71865E-05-2.90081E-05 3.30763E-06 1.01554E-18 8.57346E-19
 -1       798 9.48883E-05-2.73028E-05-2.89651E-05 2.64833E-06 9.64166E-19 6.89261E-19
 -1       799 9.49385E-05-2.74694E-05-2.89153E-05 2.07903E-06 1.82196E-18 9.14322E-19
 -1       800 9.49998E-05-2.76512E-05-2.88636E-05 1.60052E-06 4.37520E-19 9.23132E-19
 -1       801 9.50594E-05-2.78270E-05-2.88138E-05 1.20771E-06-4.31236E-19 9.15144E-19
 -1       802 9.51113E-05-2.79855E-05-2.87682E-05 8.92094E-07-5.87147E-19 7.06712E-19
 -1       803 9.51535E-05-2.81217E-05-2.87279E-05 6.43577E-07-1.08405E-18 1.92320E-18
 -1       804 9.51860E-05-2.82346E-05-2.86934E-05 4.51715E-07 6.55831E-19 1.14009E-18
 -1       805 9.52098E-05-2.83254E-05-2.86647E-05 3.06509E-07-5.11654E-19-1.60602E-19
 -1       806 9.52264E-05-2.83966E-05-2.86413E-05 1.98874E-07 4.45792E-19-5.74446E-19
 -1       807 9.52374E-05-2.84511E-05-2.86227E-05 1.20873E-07 1.12725E-18-1.89302E-18
 -1       808 9.52441E-05-2.84918E-05-2.86081E-05 6.57810E-08 1.39478E-18-2.15449E-18
 -1       809 9.52477E-05-2.85215E-05-2.85969E-05 2.80460E-08 9.79723E-19-1.80930E-18
 -1       810 9.52492E-05-2.85426E-05-2.85885E-05 3.19211E-09-4.24344E-19-7.98514E-19
 -1       811 9.52492E-05-2.85571E-05-2.85823E-05-1.23126E-08-1.50390E-18-1.27330E-19
 -1       812 9.52483E-05-2.85666E-05-2.85779E-05-2.11946E-08-1.56254E-18 1.16043E-18
 -1       813 9.52470E-05-2.85727E-05-2.85747E-05-2.55099E-08-6.43551E-21 2.80218E-18
 -1       814 9.52455E-05-2.85764E-05-2.85725E-05-2.67676E-08 6.53571E-19 1.76903E-18
 -1       815 9.52440E-05-2.85785E-05-2.85709E-05-2.60368E-08-3.66717E-20 1.11387E-18
 -1       816 9.52427E-05-2.85797E-05-2.85698E-05-2.40341E-08-2.59037E-19 1.43242E-18
 -1       817 9.52417E-05-2.85804E-05-2.85692E-05-2.19682E-08 5.22098E-19 2.52540E-18
 -1       818 9.52488E-05-2.85847E-05-2.85703E-05 1.83771E-08 3.66129E-18 3.23618E-19
 -1       819 9.52529E-05-2.85872E-05-2.85710E-05 1.31386E-08 2.64206E-18-2.14227E-18
 -1       820 9.52552E-05-2.85886E-05-2.85714E-05 6.91907E-09 2.22384E-18-9.45717E-19
 -1       821 9.52560E-05-2.85891E-05-2.85715E-05-1.78035E-11 3.11929E-18-2.77092E-19
 -1       822 1.25509E-04-3.93792E-05-3.71529E-05 1.12442E-05 3.31388E-19 1.56284E-18
 -1       823 1.09382E-04-1.39533E-05-4.11815E-05 1.55923E-06 3.07934E-18 7.59302E-20
 -1       824 9.52551E-05-2.85886E-05-2.85714E-05-6.94476E-09 2.44498E-18-2.57220E-18
 -1       825 8.98155E-05-2.44110E-05-2.80166E-05 1.40390E-05 5.31273E-19-2.04823E-18
 -1       826 1.02122E-04-4.73859E-05-2.33163E-05-2.77123E-05 2.77785E-18-1.88658E-18
 -1       827 1.28138E-04-5.28196E-05-3.23079E-05 1.91388E-06-3.64270E-19-2.40919E-18
 -1       828 8.84845E-05-1.97254E-05-2.94647E-05 9.04518E-06 9.18935E-20-2.42373E-18
 -1       829 7.99086E-05-1.45527E-05-2.80134E-05-9.66900E-06 6.98043E-19-2.55166E-18
 -1       830 5.16868E-05-1.31404E-05-1.62610E-05 1.13963E-05-1.03808E-18 7.97204E-19
 -1       831 5.47550E-05-1.39798E-05-1.71798E-05 1.73279E-05 1.16685E-18-4.37712E-18
 -1       832 1.13909E-04-5.08220E-05-2.69702E-05-2.12817E-05-1.61481E-18-1.12998E-18
 -1       833 6.28303E-05-2.01644E-05-1.80407E-05-2.71803E-05-1.10983E-18-4.00064E-18
 -1       834 5.04710E-05-1.30292E-05-1.57888E-05-9.06449E-06 4.19044E-19 2.10149E-18
 -1       835 7.72267E-05-2.84513E-05-2.06602E-05 2.73656E-05 1.58803E-18-2.85728E-18
 -1       836 1.18090E-04-5.54090E-05-2.68198E-05 2.09285E-05-1.36777E-18-2.59290E-18
 -1       837 7.14009E-05-2.80759E-05-1.83309E-05-2.79478E-05 2.69591E-18 5.19655E-19
 -1       838 4.67432E-05-8.32238E-06-1.61525E-05-3.96939E-06 4.93256E-19-4.59566E-18
 -1       839 7.35732E-05-9.94797E-06-2.72621E-05-7.82426E-06 5.11911E-19-2.88085E-18
 -1       840 1.23548E-04-4.52055E-05-3.35529E-05 6.06796E-06-1.10720E-19 1.32020E-18
 -1       841 1.19152E-04-4.13160E-05-3.33689E-05-9.40539E-06 5.48444E-19-1.49063E-18
 -1       842 8.36551E-05-3.38612E-05-2.12262E-05 2.78637E-05-1.82551E-18-1.71200E-19
 -1       843 1.15955E-04-4.25262E-05-3.15111E-05 3.25477E-06-5.50859E-20 4.49533E-19
 -1       844 9.52527E-05-2.85871E-05-2.85710E-05-1.32496E-08 7.65032E-19-2.20048E-18
 -1       845 1.17899E-04-4.01337E-05-3.33250E-05 8.82885E-06-9.64937E-21 9.09371E-19
 -1       846 9.52488E-05-2.85847E-05-2.85703E-05-1.83884E-08-1.36011E-18 7.44314E-19
 -1       847 9.40252E-05-2.40337E-05-2.99960E-05-6.03451E-06 1.17182E-18-1.26500E-18
 -1       848 1.24222E-04-4.68315E-05-3.32406E-05-5.51654E-06 6.26937E-20-1.99707E-18
 -1       849 7.84917E-05-1.24988E-05-2.82896E-05 6.05179E-06 4.02389E-19-3.14136E-18
 -1       850 7.22527E-05-8.44091E-06-2.73455E-05 1.90775E-06 5.00090E-19-3.35450E-18
 -1       851 5.69930E-05-1.16878E-05-1.92914E-05-1.49858E-05-2.32573E-19-3.98857E-18
 -1       852 8.73046E-05-1.96395E-05-2.90006E-05-8.81484E-06 8.75114E-19-2.11125E-18
 -1       853 6.54200E-05-1.92558E-05-1.96365E-05-1.79961E-05 1.50082E-18 1.57463E-18
 -1       854 1.07402E-04-3.87198E-05-2.94602E-05-7.77207E-06 9.07996E-20-2.49213E-19
 -1       855 9.52520E-05-2.85839E-05-2.85721E-05 2.02856E-08 2.99379E-18 3.09414E-19
 -1       856 1.18171E-04-5.08248E-05-2.88656E-05 9.91767E-06-5.38596E-19-1.79574E-18
 -1       857 5.75311E-05-9.81898E-06-2.03043E-05 5.48905E-06 8.59501E-19-4.12637E-18
 -1       858 1.02674E-04-3.73210E-05-2.80109E-05 9.90403E-06-7.51019E-19-3.36271E-19
 -1       859 1.08718E-04-4.25644E-05-2.83430E-05 8.75223E-06 1.82020E-19-6.92511E-19
 -1       860 8.06599E-05-2.48746E-05-2.38664E-05-1.86527E-05 1.53461E-18-9.00704E-19
 -1       861 8.21010E-05-2.22898E-05-2.56226E-05-1.40038E-05-2.37389E-19-6.63970E-19
 -1       862 8.40962E-05-2.14266E-05-2.68601E-05-1.08740E-05-5.75569E-19-6.24636E-19
 -1       863 8.61652E-05-2.15345E-05-2.76994E-05-8.76638E-06 3.57981E-20-1.37518E-18
 -1       864 8.80443E-05-2.21351E-05-2.82469E-05-7.19872E-06-3.12547E-19-1.97001E-18
 -1       865 8.96499E-05-2.29475E-05-2.85867E-05-5.94413E-06-5.70917E-21-1.80797E-18
 -1       866 9.09699E-05-2.38109E-05-2.87823E-05-4.88896E-06 9.71872E-20-2.25421E-18
 -1       867 9.20265E-05-2.46371E-05-2.88811E-05-3.98235E-06 7.34756E-20-2.09886E-19
 -1       868 9.28550E-05-2.53818E-05-2.89171E-05-3.20221E-06-1.30610E-18-6.47828E-20
 -1       869 9.34941E-05-2.60273E-05-2.89143E-05-2.53719E-06 6.22096E-20-4.80534E-19
 -1       870 9.39804E-05-2.65719E-05-2.88894E-05-1.97855E-06 8.17082E-19 2.13701E-19
 -1       871 9.43461E-05-2.70218E-05-2.88533E-05-1.51712E-06-6.42080E-19-1.85920E-19
 -1       872 9.46178E-05-2.73871E-05-2.88131E-05-1.14258E-06-6.62207E-19-1.16947E-18
 -1       873 9.48173E-05-2.76794E-05-2.87733E-05-8.43855E-07-1.59627E-18-2.03933E-18
 -1       874 9.49617E-05-2.79101E-05-2.87364E-05-6.09742E-07-5.73463E-19-4.59539E-19
 -1       875 9.50647E-05-2.80897E-05-2.87036E-05-4.29480E-07 1.88114E-19-4.69660E-19
 -1       876 9.51368E-05-2.82275E-05-2.86754E-05-2.93186E-07-4.67251E-19-9.19657E-19
 -1       877 9.51859E-05-2.83318E-05-2.86518E-05-1.92105E-07-2.52217E-19 3.38386E-19
 -1       878 9.52184E-05-2.84094E-05-2.86324E-05-1.18704E-07-3.20391E-19 4.10191E-19
 -1       879 9.52389E-05-2.84662E-05-2.86169E-05-6.66677E-08-9.16234E-19 6.26239E-19
 -1       880 9.52509E-05-2.85069E-05-2.86046E-05-3.08178E-08 7.09260E-19-1.74471E-18
 -1       881 9.52570E-05-2.85353E-05-2.85950E-05-6.99545E-09-2.31839E-19-1.78807E-18
 -1       882 9.52592E-05-2.85545E-05-2.85877E-05 8.07406E-09-6.75008E-19-1.39427E-18
 -1       883 9.52589E-05-2.85670E-05-2.85822E-05 1.69187E-08 1.00960E-18-5.52278E-19
 -1       884 9.52570E-05-2.85748E-05-2.85781E-05 2.14435E-08 2.10228E-18-1.10110E-19
 -1       885 9.52545E-05-2.85793E-05-2.85750E-05 2.30640E-08 1.58135E-18 1.05160E-18
 -1       886 9.52534E-05-2.85820E-05-2.85735E-05 2.20704E-08 2.89426E-18 7.99570E-19
 -1       887 6.72558E-05-1.85141E-05-2.07838E-05 1.55418E-05-1.32224E-18 9.83571E-19
 -1       888 1.18722E-04-4.73046E-05-3.06390E-05 2.47629E-07-1.53620E-19-8.18680E-19
 -1       889 9.85115E-05-3.31265E-05-2.80214E-05 9.68599E-06-1.08631E-18-3.92588E-19
 -1       890 9.58826E-05-3.00994E-05-2.81921E-05 8.78173E-06-8.33768E-19-8.37135E-19
 -1       891 9.43900E-05-2.81279E-05-2.83979E-05 7.64772E-06-7.19089E-19-3.84234E-19
 -1       892 9.36649E-05-2.69802E-05-2.85790E-05 6.49611E-06-9.72761E-19 4.75592E-20
 -1       893 9.34204E-05-2.64188E-05-2.87149E-05 5.41693E-06-4.67167E-19 6.47470E-19
 -1       894 9.34574E-05-2.62493E-05-2.88034E-05 4.44612E-06-2.35376E-19-7.92371E-19
 -1       895 9.36421E-05-2.63233E-05-2.88509E-05 3.59541E-06 2.20584E-19-7.18073E-19
 -1       896 9.38893E-05-2.65340E-05-2.88666E-05 2.86474E-06 1.96642E-19 9.59940E-19
 -1       897 9.41476E-05-2.68083E-05-2.88597E-05 2.24825E-06 4.54665E-19 1.03242E-18
 -1       898 9.43885E-05-2.70989E-05-2.88384E-05 1.73680E-06 9.21899E-19 1.78080E-18
 -1       899 9.45982E-05-2.73771E-05-2.88091E-05 1.31945E-06-8.43239E-19 2.49806E-18
 -1       900 9.47721E-05-2.76273E-05-2.87763E-05 9.84422E-07-7.01098E-20 2.52350E-18
 -1       901 9.49109E-05-2.78427E-05-2.87435E-05 7.19849E-07-1.21306E-18 1.65182E-18
 -1       902 9.50180E-05-2.80218E-05-2.87126E-05 5.14371E-07 2.09623E-19 8.09503E-19
 -1       903 9.50981E-05-2.81666E-05-2.86849E-05 3.57512E-07 1.04682E-18 1.14203E-18
 -1       904 9.51562E-05-2.82809E-05-2.86609E-05 2.39926E-07 1.34081E-18-6.29855E-19
 -1       905 9.51968E-05-2.83689E-05-2.86406E-05 1.53501E-07 5.27038E-19-1.18556E-18
 -1       906 9.52241E-05-2.84352E-05-2.86238E-05 9.13684E-08 1.85191E-18-1.04088E-18
 -1       907 9.52414E-05-2.84840E-05-2.86103E-05 4.78366E-08 4.20533E-19-3.60523E-19
 -1       908 9.52515E-05-2.85190E-05-2.85997E-05 1.82845E-08-1.01286E-18-1.75483E-19
 -1       909 9.52565E-05-2.85433E-05-2.85914E-05-9.67233E-10-1.73436E-18 9.94341E-19
 -1       910 9.52581E-05-2.85597E-05-2.85850E-05-1.27922E-08-1.79328E-18 9.44887E-19
 -1       911 9.52574E-05-2.85702E-05-2.85802E-05-1.93896E-08-1.53289E-18 2.92611E-20
 -1       912 9.52555E-05-2.85767E-05-2.85766E-05-2.24015E-08 5.43622E-19 2.88718E-19
 -1       913 9.52529E-05-2.85803E-05-2.85740E-05-2.30355E-08 7.68462E-19-4.23365E-19
 -1       914 9.52502E-05-2.85823E-05-2.85719E-05-2.21587E-08-5.17396E-20 5.44886E-19
 -1       915 5.85253E-05-1.29129E-05-1.94248E-05-3.74295E-07-1.56238E-19 2.06868E-19
 -1       916 7.78428E-05-1.95938E-05-2.49254E-05 1.59364E-05 9.92170E-19-2.66504E-18
 -1       917 9.52581E-05-2.85871E-05-2.85733E-05 1.09347E-08 7.62904E-19-4.69896E-19
 -1       918 9.52599E-05-2.85879E-05-2.85737E-05 3.64597E-09 6.63865E-19-1.50724E-18
 -1       919 9.98585E-05-3.12859E-05-2.94105E-05-8.08503E-06 6.19940E-19-8.37310E-19
 -1       920 9.52599E-05-2.85879E-05-2.85737E-05-3.86450E-09 2.73441E-18-8.27843E-19
 -1       921 7.98350E-05-2.69109E-05-2.26038E-05-2.54534E-05-9.92130E-19-2.69133E-18
 -1       922 7.05776E-05-7.57977E-06-2.69945E-05-3.41747E-06 5.11538E-19-3.42650E-18
 -1       923 1.04939E-04-4.65919E-05-2.49568E-05 2.33644E-05-1.70509E-18-1.57232E-18
 -1       924 7.81944E-05-1.57463E-05-2.67408E-05 1.04194E-05 6.71987E-19-2.91800E-18
 -1       925 1.16853E-04-4.78652E-05-2.95498E-05-9.22442E-06-9.60228E-19 6.37640E-20
 -1       926 1.01044E-04-4.02739E-05-2.60135E-05-2.17923E-05-1.16215E-18-1.58691E-18
 -1       927 8.37519E-05-3.21154E-05-2.19620E-05-2.54104E-05 2.08586E-18-1.10924E-18
 -1       928 6.71224E-05-1.57611E-05-2.18790E-05 1.55892E-05 1.14243E-18-3.44603E-18
 -1       929 9.52560E-05-2.85849E-05-2.85733E-05-1.68263E-08-7.41384E-19 7.05088E-19
 -1       930 7.50260E-05-2.37618E-05-2.18992E-05 1.95070E-05-1.32014E-18 1.06119E-18
 -1       931 9.52588E-05-2.85867E-05-2.85738E-05-1.06034E-08 1.63229E-18-2.27187E-19
 -1       932 7.02842E-05-1.72720E-05-2.26286E-05-1.92987E-05-2.91561E-19-3.17457E-18
 -1       933 6.92204E-05-9.82714E-06-2.54316E-05 4.68958E-06 6.01745E-19-3.43549E-18
 -1       934 5.96403E-05-8.72561E-06-2.17284E-05-4.46731E-06 3.39657E-19-3.65438E-18
 -1       935 8.57731E-05-2.20169E-05-2.73338E-05-1.36077E-05 2.01842E-19-2.26066E-18
 -1       936 7.60054E-05-1.53202E-05-2.59856E-05-1.31061E-05 1.69801E-19-2.66643E-18
 -1       937 9.28783E-05-2.92853E-05-2.72558E-05 1.10448E-05-8.30171E-19-2.97187E-19
 -1       938 1.00561E-04-3.84303E-05-2.66186E-05 1.53739E-05-1.32012E-19 3.70092E-19
 -1       939 7.69853E-05-1.82475E-05-2.51526E-05-8.06525E-06-9.03681E-19-2.74731E-19
 -1       940 8.08384E-05-1.90271E-05-2.64904E-05-6.43747E-06-1.28151E-18-7.90203E-19
 -1       941 8.39557E-05-2.00677E-05-2.73810E-05-5.32746E-06-1.84344E-19-1.22716E-18
 -1       942 8.64582E-05-2.11868E-05-2.79736E-05-4.50649E-06-3.33000E-19-1.50140E-19
 -1       943 8.84536E-05-2.22925E-05-2.83549E-05-3.82415E-06 2.15548E-19-2.46163E-19
 -1       944 9.00423E-05-2.33325E-05-2.85900E-05-3.21825E-06 3.50392E-19-1.38635E-18
 -1       945 9.12992E-05-2.42734E-05-2.87254E-05-2.67057E-06-2.54872E-19-1.41861E-18
 -1       946 9.22857E-05-2.50996E-05-2.87941E-05-2.17878E-06-8.39597E-19-9.60814E-19
 -1       947 9.30530E-05-2.58078E-05-2.88194E-05-1.74533E-06 3.91805E-20-1.28969E-18
 -1       948 9.36442E-05-2.64026E-05-2.88179E-05-1.37190E-06-4.01282E-19-1.96968E-18
 -1       949 9.40950E-05-2.68936E-05-2.88006E-05-1.05759E-06-5.42341E-19-1.45802E-18
 -1       950 9.44347E-05-2.72923E-05-2.87753E-05-7.98956E-07-1.03507E-18 4.11868E-19
 -1       951 9.46875E-05-2.76114E-05-2.87469E-05-5.90666E-07 2.78393E-19 1.23659E-18
 -1       952 9.48729E-05-2.78631E-05-2.87185E-05-4.26349E-07-2.12286E-19 2.36508E-18
 -1       953 9.50066E-05-2.80587E-05-2.86920E-05-2.99318E-07-7.72223E-19 1.41770E-18
 -1       954 9.51011E-05-2.82084E-05-2.86683E-05-2.03090E-07 1.91040E-19 1.90892E-18
 -1       955 9.51662E-05-2.83213E-05-2.86478E-05-1.31721E-07 7.05481E-19 1.26615E-18
 -1       956 9.52095E-05-2.84048E-05-2.86306E-05-7.99838E-08-4.86009E-19 1.28135E-18
 -1       957 9.52371E-05-2.84655E-05-2.86164E-05-4.34352E-08-1.02917E-18 1.82646E-18
 -1       958 9.52534E-05-2.85086E-05-2.86049E-05-1.83979E-08 3.45675E-19 2.48901E-18
 -1       959 9.52619E-05-2.85383E-05-2.85958E-05-1.90606E-09-3.57632E-20 1.42858E-18
 -1       960 9.52651E-05-2.85581E-05-2.85887E-05 8.38390E-09 1.03437E-18 2.50266E-18
 -1       961 9.52649E-05-2.85708E-05-2.85832E-05 1.42791E-08 1.20796E-18 2.10576E-18
 -1       962 9.52626E-05-2.85784E-05-2.85789E-05 1.71122E-08 1.27605E-18 4.30040E-19
 -1       963 9.52632E-05-2.85857E-05-2.85761E-05 7.52896E-09 9.92845E-19-1.44427E-18
 -1       964 9.16165E-05-2.70409E-05-2.76753E-05 8.96835E-06-1.37812E-18-2.41788E-19
 -1       965 9.12216E-05-2.58095E-05-2.80338E-05 7.22217E-06-4.85354E-19 1.43717E-19
 -1       966 9.13247E-05-2.52589E-05-2.83141E-05 5.77737E-06-5.08593E-19-1.01155E-18
 -1       967 9.16989E-05-2.51592E-05-2.85171E-05 4.59565E-06 3.87428E-19-1.03885E-18
 -1       968 9.21934E-05-2.53358E-05-2.86533E-05 3.63296E-06-1.94861E-19-1.29491E-18
 -1       969 9.27165E-05-2.56653E-05-2.87363E-05 2.84993E-06-1.45263E-18-1.89291E-19
 -1       970 9.32146E-05-2.60633E-05-2.87792E-05 2.21497E-06-4.96680E-20 9.35166E-19
 -1       971 9.36595E-05-2.64744E-05-2.87936E-05 1.70279E-06 5.15788E-19 1.59915E-18
 -1       972 9.40390E-05-2.68645E-05-2.87891E-05 1.29270E-06-4.16672E-19 1.47413E-18
 -1       973 9.43516E-05-2.72148E-05-2.87729E-05 9.67405E-07-3.87380E-19 1.62798E-18
 -1       974 9.46014E-05-2.75170E-05-2.87505E-05 7.12150E-07 1.65254E-19 1.32563E-18
 -1       975 9.47957E-05-2.77695E-05-2.87255E-05 5.14291E-07 7.38403E-19-3.62176E-19
 -1       976 9.49429E-05-2.79749E-05-2.87006E-05 3.62983E-07-2.12222E-19-1.74301E-18
 -1       977 9.50516E-05-2.81381E-05-2.86772E-05 2.48990E-07 1.51609E-18-7.05121E-19
 -1       978 9.51297E-05-2.82649E-05-2.86563E-05 1.64527E-07 3.98128E-19 3.88475E-19
 -1       979 9.51839E-05-2.83613E-05-2.86382E-05 1.03111E-07 1.57311E-18 4.60889E-19
 -1       980 9.52200E-05-2.84330E-05-2.86230E-05 5.94190E-08-1.83679E-21 7.80001E-19
 -1       981 9.52428E-05-2.84851E-05-2.86105E-05 2.91438E-08 3.10830E-19 1.68967E-18
 -1       982 9.52560E-05-2.85219E-05-2.86003E-05 8.85059E-09-1.43062E-18 3.19257E-19
 -1       983 9.52625E-05-2.85471E-05-2.85923E-05-4.15518E-09-1.09301E-18 1.94690E-19
 -1       984 9.52644E-05-2.85637E-05-2.85860E-05-1.19539E-08-2.07043E-18-1.46479E-19
 -1       985 9.52635E-05-2.85742E-05-2.85811E-05-1.61192E-08-4.81557E-19 8.94305E-19
 -1       986 9.52608E-05-2.85803E-05-2.85774E-05-1.78038E-08 1.25561E-18 7.59154E-19
 -1       987 9.52585E-05-2.85831E-05-2.85752E-05-1.76213E-08-8.11178E-19 2.03458E-18
 -1       988 6.81927E-05-1.55385E-05-2.25313E-05 4.84871E-06-6.69897E-19-7.19406E-19
 -1       989 9.52643E-05-2.85861E-05-2.85764E-05-1.77067E-10 1.60983E-18-2.94567E-18
 -1       990 9.52598E-05-2.85844E-05-2.85752E-05 1.53947E-08 2.08190E-18 1.83073E-19
 -1       991 9.37391E-05-2.73360E-05-2.84459E-05-1.16084E-05 3.68997E-19-1.73434E-18
 -1       992 6.69174E-05-8.60404E-06-2.49543E-05-3.46674E-06 4.92054E-19-3.45321E-18
 -1       993 8.96842E-05-2.90671E-05-2.58684E-05-1.93332E-05-4.38426E-19-2.09746E-18
 -1       994 6.89072E-05-1.63463E-05-2.25027E-05-9.21538E-06 8.95100E-20 9.30939E-19
 -1       995 6.95497E-05-1.06967E-05-2.52203E-05-9.47851E-06 3.30041E-19-3.20263E-18
 -1       996 9.55561E-05-3.29442E-05-2.68402E-05 1.33933E-05-6.09007E-19-1.38343E-19
 -1       997 1.02722E-04-4.22044E-05-2.58512E-05 1.86220E-05-1.08583E-18-8.34155E-19
 -1       998 9.52615E-05-2.85819E-05-2.85769E-05 1.65862E-08 2.10687E-18-5.02848E-19
 -1       999 8.93547E-05-3.30392E-05-2.41185E-05 2.10995E-05-7.13872E-19-1.21390E-19
 -1      1000 9.52640E-05-2.85851E-05-2.85767E-05-7.20471E-09 1.41606E-18 1.11111E-18
 -1      1001 7.54636E-05-2.02928E-05-2.36287E-05 1.22429E-05-9.16721E-19 7.19567E-19
 -1      1002 8.46981E-05-2.68696E-05-2.47808E-05 1.61429E-05-1.17023E-18 1.23912E-18
 -1      1003 7.42782E-05-1.66613E-05-2.46966E-05-2.74289E-06-1.32550E-18-2.74204E-19
 -1      1004 8.04164E-05-1.85158E-05-2.65266E-05-2.02318E-06-1.11165E-18 8.65781E-19
 -1      1005 8.37425E-05-1.99070E-05-2.73574E-05-1.98706E-06-3.55177E-19-8.66800E-20
 -1      1006 8.62653E-05-2.11301E-05-2.79153E-05-1.93322E-06 2.43260E-19-5.39751E-19
 -1      1007 8.82737E-05-2.22827E-05-2.82821E-05-1.80736E-06-4.19025E-19-4.10846E-19
 -1      1008 8.98713E-05-2.33366E-05-2.85151E-05-1.62875E-06 2.93182E-20-5.07042E-19
 -1      1009 9.11419E-05-2.42792E-05-2.86557E-05-1.41792E-06-9.47361E-19-6.76548E-19
 -1      1010 9.21477E-05-2.51044E-05-2.87330E-05-1.19641E-06 4.16057E-19 1.24004E-19
 -1      1011 9.29379E-05-2.58121E-05-2.87683E-05-9.81274E-07-4.74299E-19 1.16419E-19
 -1      1012 9.35525E-05-2.64078E-05-2.87764E-05-7.84001E-07-3.27495E-19-3.82466E-19
 -1      1013 9.40253E-05-2.69003E-05-2.87679E-05-6.10970E-07 1.07980E-18-5.42839E-20
 -1      1014 9.43843E-05-2.73010E-05-2.87501E-05-4.64585E-07-4.72802E-19 1.44142E-18
 -1      1015 9.46531E-05-2.76216E-05-2.87278E-05-3.44482E-07 7.15568E-20 7.57473E-19
 -1      1016 9.48512E-05-2.78743E-05-2.87044E-05-2.48573E-07-7.56383E-19 1.69265E-18
 -1      1017 9.49943E-05-2.80703E-05-2.86818E-05-1.73870E-07 4.88273E-19 3.59086E-18
 -1      1018 9.50956E-05-2.82199E-05-2.86610E-05-1.17062E-07-5.42244E-19 3.68399E-18
 -1      1019 9.51653E-05-2.83321E-05-2.86428E-05-7.48914E-08 9.68795E-20 2.30465E-18
 -1      1020 9.52115E-05-2.84147E-05-2.86272E-05-4.43747E-08-3.51724E-19 3.33787E-18
 -1      1021 9.52407E-05-2.84742E-05-2.86142E-05-2.29110E-08 6.30822E-19 2.33826E-18
 -1      1022 9.52577E-05-2.85160E-05-2.86036E-05-8.31536E-09-6.73599E-19 1.23383E-18
 -1      1023 9.52663E-05-2.85446E-05-2.85950E-05 1.18461E-09 7.07181E-19 2.00728E-18
 -1      1024 9.52691E-05-2.85632E-05-2.85882E-05 6.99620E-09 1.11487E-18 2.89670E-18
 -1      1025 9.52683E-05-2.85748E-05-2.85829E-05 1.01616E-08 3.52889E-19 3.43813E-18
 -1      1026 8.77188E-05-2.52278E-05-2.67861E-05 1.00839E-05-6.30453E-19 9.48342E-19
 -1      1027 8.96640E-05-2.38879E-05-2.81901E-05 4.39045E-06-4.21347E-19-6.51024E-19
 -1      1028 9.05671E-05-2.42366E-05-2.84275E-05 3.34584E-06 3.95464E-19-5.01144E-19
 -1      1029 9.14233E-05-2.47246E-05-2.85853E-05 2.54781E-06-1.33482E-18-5.05451E-19
 -1      1030 9.21945E-05-2.52683E-05-2.86828E-05 1.93446E-06-1.07918E-18-2.22095E-18
 -1      1031 9.28632E-05-2.58119E-05-2.87364E-05 1.46129E-06-1.08615E-18-1.39973E-18
 -1      1032 9.34254E-05-2.63206E-05-2.87593E-05 1.09585E-06 1.91061E-19 8.27678E-19
 -1      1033 9.38855E-05-2.67752E-05-2.87616E-05 8.14007E-07 6.88687E-19 1.43120E-19
 -1      1034 9.42531E-05-2.71673E-05-2.87512E-05 5.97461E-07-1.55461E-19-9.40557E-19
 -1      1035 9.45404E-05-2.74957E-05-2.87335E-05 4.32090E-07 1.26053E-18-1.23550E-18
 -1      1036 9.47598E-05-2.77642E-05-2.87125E-05 3.06829E-07 8.49798E-19-1.85311E-18
 -1      1037 9.49237E-05-2.79787E-05-2.86908E-05 2.12916E-07-8.03900E-20-2.02124E-18
 -1      1038 9.50432E-05-2.81466E-05-2.86700E-05 1.43376E-07 7.11447E-19-2.44473E-19
 -1      1039 9.51279E-05-2.82753E-05-2.86511E-05 9.26441E-08 6.38982E-19-4.85921E-19
 -1      1040 9.51860E-05-2.83720E-05-2.86346E-05 5.62880E-08 7.47367E-19 8.08090E-19
 -1      1041 9.52243E-05-2.84430E-05-2.86205E-05 3.07952E-08-9.37384E-19 3.63864E-19
 -1      1042 9.52479E-05-2.84939E-05-2.86089E-05 1.34013E-08-2.46800E-19 1.85930E-19
 -1      1043 9.52612E-05-2.85294E-05-2.85993E-05 1.95221E-09-1.61841E-18 1.79629E-18
 -1      1044 9.52673E-05-2.85533E-05-2.85917E-05-5.20555E-09-1.53009E-18 2.71322E-18
 -1      1045 9.52686E-05-2.85687E-05-2.85856E-05-9.34444E-09-1.50688E-18 5.22452E-19
 -1      1046 9.52668E-05-2.85781E-05-2.85809E-05-1.13655E-08-2.56824E-19 3.22997E-19
 -1      1047 9.52677E-05-2.85824E-05-2.85794E-05 3.52729E-09 3.49410E-19-3.84507E-18
 -1      1048 7.54624E-05-1.75847E-05-2.47983E-05 4.22499E-06-3.66538E-19 2.37264E-20
 -1      1049 9.52618E-05-2.85842E-05-2.85761E-05-1.26340E-08-1.80283E-19 1.95256E-18
 -1      1050 8.80577E-05-2.41609E-05-2.73874E-05 7.60271E-06-9.71774E-19-3.53068E-20
 -1      1051 8.65184E-05-2.59571E-05-2.59365E-05 1.26010E-05-1.07953E-18 1.55552E-18
 -1      1052 8.87829E-05-2.37995E-05-2.78512E-05 5.76906E-06-3.31201E-20-1.42827E-19
 -1      1053 9.52655E-05-2.85823E-05-2.85785E-05 1.02926E-08 1.04096E-18 1.31723E-18
 -1      1054 9.52672E-05-2.85792E-05-2.85806E-05 1.04469E-08 1.42537E-19 2.37268E-18
 -1      1055 9.52684E-05-2.85814E-05-2.85801E-05-3.42135E-09 4.79195E-20-3.28811E-19
 -1      1056 9.52645E-05-2.85818E-05-2.85783E-05-1.22247E-08 1.94267E-19 1.12881E-18
 -1      1057 8.04378E-05-2.11726E-05-2.54016E-05 9.43162E-06-3.82210E-19-2.29319E-19
 -1      1058 8.48092E-05-2.06058E-05-2.75147E-05 7.40361E-07-4.34510E-19 1.58272E-18
 -1      1059 8.70103E-05-2.16954E-05-2.79922E-05 1.99530E-07-5.62565E-19 7.13798E-19
 -1      1060 8.87842E-05-2.27264E-05-2.83107E-05-1.13315E-07 1.53822E-19-2.83776E-19
 -1      1061 9.02226E-05-2.36849E-05-2.85163E-05-2.75811E-07 4.71064E-19 4.59115E-19
 -1      1062 9.13853E-05-2.45535E-05-2.86423E-05-3.40551E-07-1.62748E-20 1.57156E-18
 -1      1063 9.23180E-05-2.53211E-05-2.87130E-05-3.45219E-07-1.43761E-19 2.73751E-19
 -1      1064 9.30587E-05-2.59841E-05-2.87462E-05-3.16211E-07-1.66974E-19-2.50109E-19
 -1      1065 9.36397E-05-2.65448E-05-2.87549E-05-2.71265E-07-4.34976E-19-5.68906E-19
 -1      1066 9.40894E-05-2.70098E-05-2.87484E-05-2.21650E-07 1.81589E-18-9.33962E-19
 -1      1067 9.44322E-05-2.73884E-05-2.87331E-05-1.73991E-07 6.34762E-20 1.64856E-18
 -1      1068 9.46894E-05-2.76913E-05-2.87135E-05-1.31737E-07 6.01659E-19 2.83023E-18
 -1      1069 9.48789E-05-2.79296E-05-2.86926E-05-9.62749E-08 5.52428E-19 2.88989E-18
 -1      1070 9.50157E-05-2.81139E-05-2.86722E-05-6.77419E-08 1.34702E-19 2.44100E-18
 -1      1071 9.51120E-05-2.82539E-05-2.86534E-05-4.55825E-08 6.18903E-19 2.98571E-18
 -1      1072 9.51777E-05-2.83584E-05-2.86369E-05-2.89185E-08 2.64206E-19 3.93539E-18
 -1      1073 9.52209E-05-2.84347E-05-2.86226E-05-1.67771E-08-1.27668E-18 3.61829E-18
 -1      1074 9.52476E-05-2.84892E-05-2.86107E-05-8.22298E-09-1.38797E-18 1.77221E-18
 -1      1075 9.52626E-05-2.85271E-05-2.86009E-05-2.42964E-09-9.04624E-20 5.88997E-19
 -1      1076 9.52696E-05-2.85525E-05-2.85930E-05 1.34640E-09 1.13890E-18 5.68936E-19
 -1      1077 9.52712E-05-2.85689E-05-2.85867E-05 3.66202E-09 1.60654E-19-2.19589E-18
 -1      1078 8.41966E-05-2.20025E-05-2.66539E-05 7.19113E-06-2.65399E-19 3.51794E-19
 -1      1079 8.88100E-05-2.30490E-05-2.81831E-05 2.64697E-06-1.37093E-19 1.29414E-18
 -1      1080 9.20511E-05-2.51455E-05-2.86738E-05 9.84136E-07-1.79074E-18-7.85432E-19
 -1      1081 9.28021E-05-2.57770E-05-2.87250E-05 7.06774E-07-1.44118E-18-1.61414E-18
 -1      1082 9.34115E-05-2.63362E-05-2.87465E-05 5.06019E-07-2.20186E-19-8.25133E-19
 -1      1083 9.38968E-05-2.68168E-05-2.87485E-05 3.60397E-07 8.04197E-19 6.57284E-19
 -1      1084 9.42761E-05-2.72195E-05-2.87385E-05 2.54647E-07 1.30205E-18-1.32409E-18
 -1      1085 9.45671E-05-2.75495E-05-2.87218E-05 1.77879E-07 9.82880E-19-1.30208E-18
 -1      1086 9.47860E-05-2.78143E-05-2.87022E-05 1.22277E-07-2.49204E-19-5.81174E-19
 -1      1087 9.49472E-05-2.80227E-05-2.86819E-05 8.21926E-08-1.27509E-19-4.63827E-19
 -1      1088 9.50630E-05-2.81836E-05-2.86626E-05 5.35121E-08 6.43391E-19-1.19267E-18
 -1      1089 9.51440E-05-2.83054E-05-2.86451E-05 3.32144E-08 9.30613E-19-2.00809E-18
 -1      1090 9.51987E-05-2.83958E-05-2.86298E-05 1.90652E-08 4.94423E-19-1.46980E-18
 -1      1091 9.52338E-05-2.84614E-05-2.86167E-05 9.40333E-09-6.66502E-19-3.22435E-19
 -1      1092 9.52549E-05-2.85078E-05-2.86059E-05 2.99038E-09-2.17242E-18 1.22233E-18
 -1      1093 9.52661E-05-2.85396E-05-2.85971E-05-1.10776E-09-1.69147E-18 3.94635E-21
 -1      1094 9.52705E-05-2.85606E-05-2.85899E-05-3.51433E-09-8.25508E-19-4.39583E-20
 -1      1095 9.52705E-05-2.85739E-05-2.85842E-05-4.85835E-09-1.87624E-18 9.49561E-19
 -1      1096 9.11427E-05-2.44579E-05-2.85791E-05 1.36841E-06-4.07057E-19-1.54255E-20
 -1      1097 9.00647E-05-2.37435E-05-2.84232E-05 1.90247E-06 4.35673E-19 8.10612E-19
 -1      1098 8.20883E-05-1.95388E-05-2.68158E-05 1.57040E-06-1.07567E-18 1.36545E-18
 -1      1099 8.05374E-05-1.96154E-05-2.61097E-05 4.92348E-06-5.73238E-19 4.21653E-20
 -1      1100 9.52708E-05-2.85756E-05-2.85836E-05 1.04971E-09-5.82438E-19-3.10134E-18
 -1      1101 8.58187E-05-2.20310E-05-2.73408E-05 5.15994E-06-1.83009E-19-4.41971E-20
 -1      1102 8.73781E-05-2.24420E-05-2.78299E-05 3.68837E-06-6.79903E-19 2.24568E-19
 -1      1103 9.52713E-05-2.85634E-05-2.85891E-05 6.04945E-10-1.13225E-18 2.84995E-19
 -1      1104 1.24269E-04 2.83681E-10-4.49584E-05-3.94791E-05-3.98953E-19 7.22794E-18
 -1      1105 9.65209E-05 8.95453E-11-4.02484E-05-1.88164E-05-1.79995E-19-1.15742E-18
 -1      1106 8.93277E-05 4.93082E-11-3.78381E-05-1.07760E-05-1.02597E-19-4.31559E-18
 -1      1107 8.41397E-05 3.05893E-11-3.58396E-05-6.27326E-06-5.87629E-20-5.62276E-18
 -1      1108 7.98358E-05 1.76895E-11-3.41365E-05-3.63451E-06-2.71051E-20-6.09865E-18
 -1      1109 7.64431E-05 8.57265E-12-3.27865E-05-2.31320E-06-1.69407E-21-6.20697E-18
 -1      1110 7.41235E-05 2.99087E-12-3.18536E-05-1.86920E-06 6.14099E-21-6.05617E-18
 -1      1111 7.29976E-05 1.24939E-12-3.13883E-05-1.85230E-06 2.44448E-20-5.73259E-18
 -1      1112 7.30995E-05 3.16735E-12-3.14050E-05-1.81665E-06 3.77856E-20-5.40371E-18
 -1      1113 7.42828E-05 7.94625E-12-3.18509E-05-1.36758E-06 5.34690E-20-4.95196E-18
 -1      1114 7.62966E-05 1.44620E-11-3.26341E-05-2.29868E-07 5.97688E-20-4.37742E-18
 -1      1115 7.88462E-05 2.16365E-11-3.36431E-05 1.71693E-06 7.70800E-20-3.55463E-18
 -1      1116 8.17412E-05 2.92838E-11-3.48078E-05 4.53764E-06 1.00162E-19-2.36510E-18
 -1      1117 8.49757E-05 3.81299E-11-3.61205E-05 8.33208E-06 1.28008E-19-6.38742E-19
 -1      1118 8.88263E-05 5.12440E-11-3.76606E-05 1.33623E-05 1.43890E-19 2.11499E-18
 -1      1119 9.46160E-05 8.07327E-11-3.97488E-05 2.07751E-05 1.28325E-19 6.84096E-18
 -1      1120 1.13033E-04 1.83166E-10-4.31944E-05 3.50573E-05 1.69618E-19 1.53897E-17
 -1      1121 1.38887E-04-2.83679E-05-4.35696E-05-2.49011E-05-1.49184E-18 1.23548E-17
 -1      1122 1.12056E-04-3.32807E-05-3.60557E-05-6.33275E-08-5.49830E-19 8.99104E-18
 -1      1123 1.10138E-04-3.30534E-05-3.38511E-05 5.93953E-07-1.98298E-19 4.57017E-18
 -1      1124 1.13054E-04-3.40241E-05-3.40762E-05 4.39888E-07-6.14959E-20 2.14183E-18
 -1      1125 1.17511E-04-3.53188E-05-3.52292E-05 3.78446E-07-6.56798E-20 1.87830E-19
 -1      1126 1.22202E-04-3.66650E-05-3.64908E-05 3.10710E-07-3.08687E-20-1.25853E-18
 -1      1127 1.25484E-04-3.75910E-05-3.72729E-05 1.42132E-07-3.51122E-20-2.08246E-18
 -1      1128 1.25240E-04-3.74666E-05-3.70037E-05-2.05346E-07-9.49736E-20-3.43927E-18
 -1      1129 1.19502E-04-3.57233E-05-3.52693E-05-7.20864E-07 3.65151E-20-4.00488E-18
 -1      1130 1.08066E-04-3.23387E-05-3.21972E-05-1.18296E-06-1.69175E-20-4.83592E-18
 -1      1131 9.43147E-05-2.83477E-05-2.87613E-05-1.18525E-06 1.07282E-19-5.21846E-18
 -1      1132 8.48178E-05-2.56218E-05-2.65011E-05-4.92647E-07-2.42198E-21-5.15128E-18
 -1      1133 8.50723E-05-2.57431E-05-2.65796E-05 5.52555E-07-7.30831E-20-7.45405E-18
 -1      1134 9.48985E-05-2.85259E-05-2.89724E-05 1.20774E-06 1.51751E-19-9.12043E-18
 -1      1135 1.09386E-04-3.27324E-05-3.26189E-05 1.23657E-06-3.09366E-20-7.73341E-18
 -1      1136 1.21751E-04-3.63876E-05-3.59487E-05 7.90945E-07-2.20434E-19-9.06050E-18
 -1      1137 1.28399E-04-3.83956E-05-3.79419E-05 2.79782E-07 8.46371E-21-9.79085E-18
 -1      1138 1.29352E-04-3.87209E-05-3.84206E-05-6.34542E-08-9.55096E-20-8.34124E-18
 -1      1139 1.26467E-04-3.78952E-05-3.77627E-05-2.14718E-07-9.02553E-20-8.19041E-18
 -1      1140 1.21750E-04-3.65120E-05-3.64916E-05-2.40414E-07-9.91219E-20-8.49826E-18
 -1      1141 1.16626E-04-3.49966E-05-3.50297E-05-2.08198E-07-2.38567E-19-8.67907E-18
 -1      1142 1.11878E-04-3.35846E-05-3.36335E-05-1.59724E-07 1.66665E-19-8.89099E-18
 -1      1143 1.07833E-04-3.23761E-05-3.24226E-05-1.14149E-07-2.61157E-20-9.29224E-18
 -1      1144 1.04555E-04-3.13935E-05-3.14312E-05-7.77098E-08 1.50479E-19-8.37427E-18
 -1      1145 1.01987E-04-3.06211E-05-3.06493E-05-5.08185E-08 3.33702E-19-7.99897E-18
 -1      1146 1.00022E-04-3.00285E-05-3.00487E-05-3.18691E-08-1.56398E-19-8.60690E-18
 -1      1147 9.85478E-05-2.95827E-05-2.95968E-05-1.89178E-08 1.98242E-19-9.07045E-18
 -1      1148 9.74604E-05-2.92531E-05-2.92627E-05-1.02803E-08 1.31497E-20-7.66156E-18
 -1      1149 9.66723E-05-2.90136E-05-2.90200E-05-4.66271E-09-4.60934E-20-6.17183E-18
 -1      1150 9.61117E-05-2.88428E-05-2.88470E-05-1.12418E-09-9.75730E-20-7.63674E-18
 -1      1151 9.57219E-05-2.87237E-05-2.87263E-05 1.00122E-09-2.29050E-19-8.95720E-18
 -1      1152 9.54583E-05-2.86429E-05-2.86445E-05 2.17915E-09-1.39078E-19-9.25785E-18
 -1      1153 9.52866E-05-2.85901E-05-2.85909E-05 2.73334E-09 3.76391E-20-9.33995E-18
 -1      1154 9.51808E-05-2.85572E-05-2.85576E-05 2.88803E-09-6.15341E-20-9.08878E-18
 -1      1155 9.51211E-05-2.85385E-05-2.85385E-05 2.79775E-09 2.45431E-19-9.77420E-18
 -1      1156 9.50929E-05-2.85294E-05-2.85292E-05 2.56806E-09-1.20666E-19-9.09713E-18
 -1      1157 9.50854E-05-2.85267E-05-2.85264E-05 2.27000E-09-2.81600E-19-6.47154E-18
 -1      1158 9.50909E-05-2.85280E-05-2.85277E-05 1.95022E-09-3.57204E-19-2.63467E-18
 -1      1159 9.51039E-05-2.85316E-05-2.85313E-05 1.63825E-09 4.20089E-20-3.31072E-18
 -1      1160 9.51209E-05-2.85365E-05-2.85362E-05 1.35166E-09-1.76318E-19-4.55722E-18
 -1      1161 9.51392E-05-2.85419E-05-2.85416E-05 1.09980E-09-1.70775E-19-3.99647E-18
 -1      1162 9.51573E-05-2.85473E-05-2.85470E-05 8.86451E-10 3.92149E-19-4.62730E-18
 -1      1163 9.51744E-05-2.85523E-05-2.85521E-05 7.11594E-10 6.53125E-20-2.78319E-18
 -1      1164 9.51899E-05-2.85569E-05-2.85568E-05 5.72466E-10-4.12344E-19-7.08672E-18
 -1      1165 9.52036E-05-2.85610E-05-2.85609E-05 4.63616E-10-8.37120E-20-5.90917E-18
 -1      1166 9.52153E-05-2.85645E-05-2.85644E-05 3.75403E-10 1.66054E-19-4.42116E-18
 -1      1167 9.52250E-05-2.85674E-05-2.85673E-05 2.89618E-10-2.86474E-19-1.91394E-18
 -1      1168 9.52323E-05-2.85696E-05-2.85694E-05 1.70075E-10 2.72813E-19-2.69768E-18
 -1      1169 9.52366E-05-2.85709E-05-2.85708E-05-6.56653E-11-3.74435E-19-5.69340E-18
 -1      1170 9.52375E-05-2.85710E-05-2.85715E-05-3.80584E-10 1.06505E-18-6.01109E-18
 -1      1171 1.38040E-04-3.95553E-05-4.13154E-05 1.21303E-05-2.86694E-19 2.20788E-17
 -1      1172 1.07308E-04-3.13967E-05-3.45886E-05 6.11209E-07 9.66412E-20 1.93921E-17
 -1      1173 1.03851E-04-3.09762E-05-3.18469E-05-7.75718E-09 9.63368E-20 1.61389E-17
 -1      1174 1.03676E-04-3.10893E-05-3.11958E-05-1.07157E-07-7.57367E-21 1.44773E-17
 -1      1175 1.04225E-04-3.12671E-05-3.11909E-05-1.39781E-07 4.98434E-20 1.34231E-17
 -1      1176 1.04317E-04-3.12785E-05-3.11490E-05-1.34254E-07-3.83977E-20 1.24406E-17
 -1      1177 1.03169E-04-3.09298E-05-3.07625E-05-8.73511E-08 1.23415E-19 1.14288E-17
 -1      1178 1.00315E-04-3.00885E-05-2.99039E-05 1.08481E-08-7.06578E-20 1.06523E-17
 -1      1179 9.57878E-05-2.87596E-05-2.86098E-05 1.49291E-07-6.73838E-20 9.80239E-18
 -1      1180 9.03200E-05-2.71489E-05-2.71049E-05 2.84295E-07 1.30231E-19 9.56300E-18
 -1      1181 8.53180E-05-2.56603E-05-2.57724E-05 3.50292E-07 8.57852E-20 8.42687E-18
 -1      1182 8.24192E-05-2.47752E-05-2.50295E-05 2.98448E-07 2.74459E-20 7.18207E-18
 -1      1183 8.27493E-05-2.48403E-05-2.51490E-05 1.37327E-07-3.00167E-20 6.93725E-18
 -1      1184 8.63202E-05-2.58801E-05-2.61268E-05-6.50230E-08-7.96542E-20 7.00115E-18
 -1      1185 9.20213E-05-2.75760E-05-2.76834E-05-2.25453E-07 1.87041E-19 6.08133E-18
 -1      1186 9.82098E-05-2.94348E-05-2.93984E-05-2.96484E-07-1.22663E-20 4.69500E-18
 -1      1187 1.03445E-04-3.10154E-05-3.08861E-05-2.80355E-07-1.20434E-19 4.74042E-18
 -1      1188 1.06929E-04-3.20701E-05-3.19131E-05-2.11425E-07 7.02111E-21 4.11028E-18
 -1      1189 1.08538E-04-3.25586E-05-3.24211E-05-1.27950E-07-7.69923E-20 3.82413E-18
 -1      1190 1.08591E-04-3.25768E-05-3.24798E-05-5.52153E-08 1.59512E-19 3.45067E-18
 -1      1191 1.07576E-04-3.22735E-05-3.22179E-05-3.37861E-09 8.54353E-20 2.73737E-18
 -1      1192 1.05971E-04-3.17925E-05-3.17693E-05 2.75581E-08 1.15500E-19 2.84463E-18
 -1      1193 1.04145E-04-3.12452E-05-3.12433E-05 4.21677E-08-1.91316E-19 3.29881E-18
 -1      1194 1.02346E-04-3.07063E-05-3.07162E-05 4.58685E-08 1.62872E-19 1.80973E-18
 -1      1195 1.00719E-04-3.02185E-05-3.02337E-05 4.32198E-08-2.02463E-19 2.34779E-18
 -1      1196 9.93290E-05-2.98017E-05-2.98181E-05 3.74716E-08 2.83435E-19 1.71380E-18
 -1      1197 9.81919E-05-2.94607E-05-2.94759E-05 3.06900E-08-2.67122E-19 3.33903E-19
 -1      1198 9.72943E-05-2.91912E-05-2.92044E-05 2.40570E-08-5.14439E-19 7.35794E-19
 -1      1199 9.66076E-05-2.89850E-05-2.89957E-05 1.81636E-08-1.15580E-20-4.18823E-19
 -1      1200 9.60975E-05-2.88316E-05-2.88401E-05 1.32366E-08 2.11234E-19-2.33835E-18
 -1      1201 9.57302E-05-2.87211E-05-2.87275E-05 9.29612E-09 2.01786E-19-2.96781E-18
 -1      1202 9.54746E-05-2.86440E-05-2.86487E-05 6.25581E-09-2.42292E-19-1.74336E-18
 -1      1203 9.53038E-05-2.85925E-05-2.85958E-05 3.98421E-09 9.12555E-20 3.61912E-19
 -1      1204 9.51960E-05-2.85599E-05-2.85621E-05 2.33961E-09 2.48685E-19-4.09269E-19
 -1      1205 9.51334E-05-2.85408E-05-2.85423E-05 1.18854E-09-5.28532E-19 2.32422E-18
 -1      1206 9.51023E-05-2.85313E-05-2.85322E-05 4.14262E-10 1.96386E-19 1.09676E-18
 -1      1207 9.50924E-05-2.85282E-05-2.85287E-05-8.04905E-11 6.37058E-19-3.47136E-18
 -1      1208 9.50961E-05-2.85292E-05-2.85294E-05-3.73886E-10 3.57793E-21-2.16893E-18
 -1      1209 9.51078E-05-2.85326E-05-2.85326E-05-5.26989E-10 1.17860E-19-7.99990E-19
 -1      1210 9.51237E-05-2.85373E-05-2.85372E-05-5.86359E-10-3.32900E-19-8.13145E-20
 -1      1211 9.51413E-05-2.85425E-05-2.85424E-05-5.86768E-10-1.06664E-19 1.30872E-18
 -1      1212 9.51589E-05-2.85477E-05-2.85476E-05-5.53728E-10 3.13900E-19-1.09787E-18
 -1      1213 9.51756E-05-2.85527E-05-2.85526E-05-5.05705E-10-5.80651E-21-2.83321E-18
 -1      1214 9.51909E-05-2.85573E-05-2.85571E-05-4.55922E-10-3.30322E-19-1.24063E-18
 -1      1215 9.52043E-05-2.85613E-05-2.85612E-05-4.13490E-10 1.43862E-19-1.52893E-18
 -1      1216 9.52159E-05-2.85648E-05-2.85646E-05-3.83161E-10-3.29273E-21-2.97907E-18
 -1      1217 9.52255E-05-2.85676E-05-2.85674E-05-3.62551E-10 1.30424E-19-2.15580E-18
 -1      1218 9.52326E-05-2.85697E-05-2.85695E-05-3.22212E-10 4.60875E-19-5.42937E-18
 -1      1219 9.52367E-05-2.85710E-05-2.85708E-05-1.68032E-10 9.33230E-20-3.88376E-18
 -1      1220 9.52376E-05-2.85713E-05-2.85715E-05 1.55228E-10-1.66169E-19-1.00228E-18
 -1      1221 9.52370E-05-2.85707E-05-2.85715E-05 1.42230E-10-4.66049E-19-2.04014E-19
 -1      1222 9.52374E-05-2.85717E-05-2.85708E-05 6.74413E-11-1.37168E-18-4.71861E-19
 -1      1223 9.52386E-05-2.85757E-05-2.85695E-05-2.15692E-10-6.57841E-18-6.07097E-19
 -1      1224 9.52404E-05-2.85820E-05-2.85678E-05-3.21351E-10-3.17370E-18 5.35006E-19
 -1      1225 9.52425E-05-2.85892E-05-2.85658E-05-3.28817E-10 4.27579E-18-5.20778E-19
 -1      1226 9.52445E-05-2.85959E-05-2.85638E-05-2.81182E-10-2.16589E-18-1.03727E-18
 -1      1227 9.52461E-05-2.86014E-05-2.85622E-05-2.06365E-10-4.96647E-18-1.22524E-19
 -1      1228 9.52472E-05-2.86050E-05-2.85612E-05-1.07367E-10-3.38990E-18-1.54305E-19
 -1      1229 9.52476E-05-2.86062E-05-2.85608E-05 5.57612E-13-5.28316E-18 1.09192E-18
 -1      1230 9.52472E-05-2.86050E-05-2.85612E-05 1.08607E-10 5.00776E-19 6.30726E-19
 -1      1231 9.52461E-05-2.86014E-05-2.85623E-05 2.07599E-10-5.66175E-18-1.52276E-18
 -1      1232 9.52445E-05-2.85959E-05-2.85638E-05 2.87096E-10-9.30219E-18 5.87690E-19
 -1      1233 9.52425E-05-2.85891E-05-2.85658E-05 3.30957E-10-5.59002E-18 1.63204E-18
 -1      1234 9.52404E-05-2.85819E-05-2.85678E-05 3.19617E-10 2.39686E-18 1.30269E-18
 -1      1235 9.52385E-05-2.85756E-05-2.85696E-05 1.98776E-10 4.70500E-18-2.17084E-19
 -1      1236 9.52373E-05-2.85716E-05-2.85708E-05-1.76638E-10 7.90169E-18 4.77489E-19
 -1      1237 9.52373E-05-2.85707E-05-2.85715E-05-3.55240E-10 6.15298E-18-7.77840E-19
 -1      1238 3.47402E-05-1.07560E-04 1.81781E-05-1.33951E-05 9.28687E-18 1.71214E-18
 -1      1239 1.73868E-05-6.41924E-05 9.45626E-06-2.37269E-05 1.48443E-17 5.51207E-18
 -1      1240 7.95008E-06-9.43245E-06-5.74407E-06-5.43300E-07 1.77470E-17 1.11334E-17
 -1      1241 3.38353E-05 2.39197E-05-2.54855E-05 5.19021E-05 1.61546E-17 1.48451E-17
 -1      1242 1.03374E-04 1.53741E-05-4.59575E-05 1.00916E-04 1.12537E-17 1.54194E-17
 -1      1243 2.01157E-04-2.98452E-05-6.34266E-05 1.10884E-04 4.96658E-18 9.60197E-18
 -1      1244 2.84801E-04-7.79537E-05-7.50245E-05 6.69306E-05 3.70577E-19-1.25022E-18
 -1      1245 3.10272E-04-9.35179E-05-7.81757E-05-1.24919E-05 8.28081E-19-1.04779E-17
 -1      1246 2.61198E-04-6.29385E-05-7.20410E-05-8.55680E-05 5.89196E-18-1.97613E-17
 -1      1247 1.68456E-04-1.23001E-05-5.81574E-05-1.12825E-04 1.28436E-17-2.47012E-17
 -1      1248 7.74704E-05 2.32551E-05-4.00124E-05-8.88742E-05 1.80655E-17-2.24633E-17
 -1      1249 2.04949E-05 1.90085E-05-1.95552E-05-3.52769E-05 1.97240E-17-1.66594E-17
 -1      1250 8.18893E-06-2.46980E-05-8.69158E-07 1.12235E-05 1.60614E-17-8.81846E-18
 -1      1251 2.29514E-05-7.96334E-05 1.26659E-05 2.34142E-05 7.94517E-18-3.02031E-18
 -1      1252 3.72652E-05-1.12667E-04 1.88874E-05 3.79113E-06-3.55923E-18-7.53859E-19
 -1      1253 2.96329E-05-9.76733E-05 1.62776E-05-2.20554E-05-1.44847E-17-3.62318E-18
 -1      1254 1.26666E-05-5.06580E-05 5.97101E-06-2.41148E-05-2.21025E-17-9.83066E-18
 -1      1255 1.04785E-05 1.63510E-06-1.08619E-05 1.04616E-05-2.46300E-17-1.72024E-17
 -1      1256 4.99272E-05 2.45352E-05-3.17725E-05 6.69064E-05-2.10589E-17-2.21685E-17
 -1      1257 1.38305E-04 1.00127E-06-5.29760E-05 1.09936E-04-1.34839E-17-2.17755E-17
 -1      1258 2.46836E-04-5.34726E-05-7.03044E-05 1.01110E-04-5.39052E-18-1.40963E-17
 -1      1259 3.14496E-04-9.25442E-05-7.92652E-05 3.80363E-05-1.07896E-18-3.74812E-18
 -1      1260 3.10479E-04-9.06811E-05-7.86751E-05-4.42027E-05-1.06440E-18 5.35155E-18
 -1      1261 2.37108E-04-4.85332E-05-6.87642E-05-1.03919E-04-4.19620E-18 1.14172E-17
 -1      1262 1.30735E-04 3.32091E-06-5.11675E-05-1.05562E-04-9.06749E-18 1.45707E-17
 -1      1263 4.38389E-05 2.31835E-05-2.91088E-05-5.99551E-05-1.37355E-17 1.41963E-17
 -1      1264 8.60024E-06-7.63549E-06-7.12976E-06-1.33558E-06-1.46909E-17 9.92723E-18
 -1      1265 1.74985E-05-6.66875E-05 9.92595E-06 2.72830E-05-9.45119E-18 4.19662E-18
 -1      1266 3.52815E-05-1.09432E-04 1.85721E-05 1.49845E-05-6.64921E-20 8.73185E-19
 -1      1267 1.15142E-04-2.46998E-05-4.12949E-05-1.47353E-05-5.80218E-19 5.09046E-18
 -1      1268 9.88366E-05-8.40316E-06-3.88802E-05-1.44763E-05-1.20035E-18-2.65280E-18
 -1      1269 1.02540E-04-8.76593E-06-4.03933E-05-2.06328E-05-1.65553E-18-9.99817E-19
 -1      1270 9.07997E-05-4.84106E-06-3.69162E-05-9.24929E-06-9.86793E-19-4.88733E-18
 -1      1271 9.38604E-05-4.94393E-06-3.79813E-05-1.21221E-05-1.18098E-18-3.98185E-18
 -1      1272 1.00447E-04-1.25321E-05-3.77148E-05-1.26710E-05-1.97674E-18-2.32526E-18
 -1      1273 8.48052E-05-3.01234E-06-3.51205E-05-5.55988E-06-6.16111E-19-5.84781E-18
 -1      1274 8.73861E-05-3.05272E-06-3.60439E-05-7.29507E-06-7.87211E-19-5.44568E-18
 -1      1275 9.18091E-05-7.85670E-06-3.60405E-05-8.36964E-06-1.46555E-18-4.16393E-18
 -1      1276 7.98797E-05-1.72500E-06-3.35662E-05-3.34657E-06-3.12290E-19-6.17793E-18
 -1      1277 8.20158E-05-1.75969E-06-3.43378E-05-4.33889E-06-4.38181E-19-6.07119E-18
 -1      1278 8.51052E-05-4.89628E-06-3.44389E-05-5.16257E-06-8.77685E-19-4.97732E-18
 -1      1279 7.61619E-05-8.15977E-07-3.23644E-05-2.28357E-06-1.96935E-20-6.20487E-18
 -1      1280 7.77326E-05-8.39920E-07-3.29374E-05-2.74724E-06-1.08791E-19-6.19914E-18
 -1      1281 7.97906E-05-2.79292E-06-3.30564E-05-3.26893E-06-3.72245E-19-5.26365E-18
 -1      1282 7.37514E-05-2.59543E-07-3.15616E-05-1.94803E-06 1.81821E-19-6.00202E-18
 -1      1283 7.46947E-05-2.71279E-07-3.19165E-05-2.09918E-06 1.17923E-19-6.15379E-18
 -1      1284 7.59161E-05-1.37794E-06-3.19953E-05-2.37835E-06 5.86504E-20-5.27623E-18
 -1      1285 7.28628E-05-9.36035E-08-3.12302E-05-1.92529E-06 4.75245E-19-5.70469E-18
 -1      1286 7.31027E-05-8.95720E-08-3.13391E-05-1.97783E-06 3.60889E-19-5.85887E-18
 -1      1287 7.36721E-05-6.68474E-07-3.13341E-05-2.10083E-06 4.25548E-19-5.07174E-18
 -1      1288 7.34418E-05-2.97134E-07-3.13608E-05-1.76816E-06 6.67846E-19-5.33569E-18
 -1      1289 7.30258E-05-2.79440E-07-3.12367E-05-1.93285E-06 5.84162E-19-5.56345E-18
 -1      1290 7.31902E-05-6.83287E-07-3.11212E-05-2.00599E-06 8.68614E-19-4.81326E-18
 -1      1291 7.52410E-05-7.86853E-07-3.18897E-05-1.10837E-06 8.88908E-19-4.87436E-18
 -1      1292 7.42980E-05-7.61068E-07-3.15717E-05-1.54946E-06 7.97455E-19-5.14962E-18
 -1      1293 7.43283E-05-1.32543E-06-3.13365E-05-1.66358E-06 1.17841E-18-4.43366E-18
 -1      1294 7.79036E-05-1.44779E-06-3.27202E-05 2.88274E-07 1.06101E-18-4.26715E-18
 -1      1295 7.65993E-05-1.41970E-06-3.22602E-05-5.28066E-07 9.97275E-19-4.64091E-18
 -1      1296 7.67423E-05-2.40920E-06-3.19108E-05-7.43857E-07 1.52252E-18-3.98127E-18
 -1      1297 8.10309E-05-2.16411E-06-3.37334E-05 2.47573E-06 1.27208E-18-3.37327E-18
 -1      1298 7.95397E-05-2.14480E-06-3.31908E-05 1.26999E-06 1.19945E-18-3.88664E-18
 -1      1299 7.99796E-05-3.72199E-06-3.27399E-05 9.17748E-07 1.82015E-18-3.33281E-18
 -1      1300 8.45289E-05-2.92386E-06-3.48941E-05 5.55472E-06 1.54287E-18-2.09081E-18
 -1      1301 8.28727E-05-2.91333E-06-3.42774E-05 3.89292E-06 1.40660E-18-2.82090E-18
 -1      1302 8.37126E-05-5.14993E-06-3.37345E-05 3.38335E-06 2.16412E-18-2.33400E-18
 -1      1303 8.83958E-05-3.79163E-06-3.61744E-05 9.55629E-06 1.75601E-18-2.48339E-19
 -1      1304 8.65538E-05-3.79396E-06-3.54822E-05 7.39120E-06 1.62408E-18-1.33437E-18
 -1      1305 8.78648E-05-6.75229E-06-3.48355E-05 6.67814E-06 2.52531E-18-1.03253E-18
 -1      1306 9.31563E-05-5.06358E-06-3.76612E-05 1.47685E-05 1.79656E-18 2.69229E-18
 -1      1307 9.08492E-05-5.07024E-06-3.68121E-05 1.18329E-05 1.67342E-18 9.53283E-19
 -1      1308 9.26924E-05-8.86370E-06-3.60046E-05 1.08135E-05 2.70391E-18 9.73082E-19
 -1      1309 1.00996E-04-8.27992E-06-3.96307E-05 2.22138E-05 1.36192E-18 7.59598E-18
 -1      1310 9.70402E-05-7.78497E-06-3.83765E-05 1.74309E-05 1.39305E-18 4.66233E-18
 -1      1311 9.94050E-05-1.26405E-05-3.72335E-05 1.57249E-05 2.54433E-18 4.09175E-18
 -1      1312 1.31387E-04-2.68782E-05-4.16066E-05 2.72245E-05 4.48822E-19 1.58082E-17
 -1      1313 1.08090E-04-1.62920E-05-3.99635E-05 2.18360E-05 5.54807E-19 1.02587E-17
 -1      1314 1.10342E-04-2.18977E-05-3.79682E-05 1.83858E-05 2.09754E-18 8.49976E-18
 -1      1315 1.11817E-04-3.06687E-05-3.75258E-05 5.71052E-06 9.69747E-19 1.56697E-17
 -1      1316 1.18220E-04-3.42964E-05-3.73788E-05-5.15503E-06-1.46156E-18 5.87491E-18
 -1      1317 1.13679E-04-3.26142E-05-3.52655E-05-2.54370E-06-1.28183E-18 4.11790E-18
 -1      1318 1.12273E-04-3.28903E-05-3.42634E-05-2.97814E-08-1.02451E-18 3.57546E-18
 -1      1319 1.12400E-04-3.33110E-05-3.39291E-05 3.81970E-07-9.07066E-19 2.15104E-18
 -1      1320 1.13977E-04-3.25285E-05-3.52728E-05-3.19020E-06-2.18953E-18 1.55828E-18
 -1      1321 1.12384E-04-3.34189E-05-3.38322E-05 1.61282E-06-6.78877E-19 1.73811E-18
 -1      1322 1.14006E-04-3.40527E-05-3.42208E-05 1.74346E-06-5.83460E-19 7.34378E-19
 -1      1323 1.12239E-04-3.30406E-05-3.40775E-05 1.61224E-06-1.53416E-18 7.97005E-19
 -1      1324 1.14982E-04-3.43974E-05-3.44997E-05 2.23666E-06-4.75142E-19 3.84182E-19
 -1      1325 1.17141E-04-3.51639E-05-3.51005E-05 2.27299E-06-4.79651E-19-3.89609E-19
 -1      1326 1.13380E-04-3.38000E-05-3.41421E-05 3.66933E-06-1.10435E-18-6.56451E-21
 -1      1327 1.18482E-04-3.56425E-05-3.54716E-05 2.14688E-06-2.11249E-19-6.25984E-19
 -1      1328 1.20404E-04-3.63554E-05-3.59913E-05 2.03438E-06-2.50229E-19-1.06970E-18
 -1      1329 1.15765E-04-3.48622E-05-3.46732E-05 4.16155E-06-7.88383E-19-4.62215E-19
 -1      1330 1.21556E-04-3.68354E-05-3.62590E-05 1.16123E-06-3.11020E-19-1.13622E-18
 -1      1331 1.22328E-04-3.72046E-05-3.64303E-05 8.32019E-07-3.38582E-19-1.71124E-18
 -1      1332 1.18392E-04-3.60962E-05-3.52259E-05 3.04377E-06-5.14520E-19-6.13437E-19
 -1      1333 1.22692E-04-3.74856E-05-3.64235E-05-8.72113E-07-1.86850E-19-1.62940E-18
 -1      1334 1.21322E-04-3.71302E-05-3.59990E-05-1.43634E-06-2.06067E-19-1.99405E-18
 -1      1335 1.20150E-04-3.71343E-05-3.54737E-05 2.63613E-08-4.39822E-19-5.76330E-19
 -1      1336 1.20334E-04-3.69428E-05-3.56149E-05-3.65809E-06-1.41243E-19-2.11901E-18
 -1      1337 1.16259E-04-3.55618E-05-3.45001E-05-4.30955E-06-1.72993E-19-2.34665E-18
 -1      1338 1.19824E-04-3.73403E-05-3.51949E-05-4.68883E-06-4.29896E-19-4.04855E-19
 -1      1339 1.13727E-04-3.46822E-05-3.37903E-05-6.03097E-06-2.32358E-19-2.36354E-18
 -1      1340 1.07646E-04-3.24172E-05-3.22334E-05-6.36865E-06-3.78690E-19-2.84052E-18
 -1      1341 1.16514E-04-3.59956E-05-3.43751E-05-9.58492E-06-3.82521E-19-5.82547E-19
 -1      1342 1.04284E-04-3.10138E-05-3.14525E-05-6.14408E-06-2.81175E-19-3.07801E-18
 -1      1343 9.85930E-05-2.87585E-05-3.00692E-05-5.73197E-06-1.28021E-19-3.17711E-18
 -1      1344 1.10584E-04-3.29670E-05-3.32798E-05-1.16361E-05-4.57471E-19-1.03094E-18
 -1      1345 9.61451E-05-2.76407E-05-2.95730E-05-2.92921E-06-5.44139E-19-3.77454E-18
 -1      1346 9.39089E-05-2.66912E-05-2.90500E-05-1.80570E-06-8.35227E-19-4.48084E-18
 -1      1347 1.04532E-04-2.95576E-05-3.23707E-05-8.06336E-06-8.65985E-19-2.23757E-18
 -1      1348 9.40031E-05-2.67192E-05-2.90853E-05 2.06544E-06-9.04287E-19-5.16257E-18
 -1      1349 9.63933E-05-2.76662E-05-2.96676E-05 3.12039E-06-8.76070E-19-6.19525E-18
 -1      1350 1.02059E-04-2.80830E-05-3.20643E-05 1.93204E-07-1.53530E-18-3.82468E-18
 -1      1351 9.90080E-05-2.88498E-05-3.02203E-05 6.00707E-06-4.19890E-19-6.43242E-18
 -1      1352 1.04984E-04-3.11828E-05-3.16881E-05 6.46118E-06 9.57147E-20-6.63364E-18
 -1      1353 1.04805E-04-2.95766E-05-3.24860E-05 8.53257E-06-8.13840E-19-4.71976E-18
 -1      1354 1.08591E-04-3.26676E-05-3.25401E-05 6.78080E-06 9.40041E-20-7.01788E-18
 -1      1355 1.15077E-04-3.50717E-05-3.42085E-05 6.46251E-06-3.82753E-19-6.98463E-18
 -1      1356 1.11267E-04-3.31086E-05-3.35184E-05 1.23369E-05-3.33744E-19-5.62374E-18
 -1      1357 1.17874E-04-3.60401E-05-3.49934E-05 4.76101E-06-3.06520E-19-6.87473E-18
 -1      1358 1.22390E-04-3.75737E-05-3.62296E-05 4.10565E-06-2.99704E-19-7.38570E-18
 -1      1359 1.17702E-04-3.63296E-05-3.47415E-05 1.04212E-05-2.95846E-19-5.91298E-18
 -1      1360 1.23591E-04-3.78307E-05-3.66771E-05 1.81911E-06-7.10714E-21-6.88887E-18
 -1      1361 1.25340E-04-3.83160E-05-3.72089E-05 1.23154E-06 3.20258E-19-6.64738E-18
 -1      1362 1.21483E-04-3.78654E-05-3.56757E-05 5.46196E-06-5.72541E-20-4.83901E-18
 -1      1363 1.25066E-04-3.80604E-05-3.72467E-05-6.02193E-07 3.18405E-19-6.58356E-18
 -1      1364 1.24540E-04-3.77784E-05-3.71466E-05-9.63146E-07-1.02041E-20-6.07202E-18
 -1      1365 1.22095E-04-3.77777E-05-3.60212E-05 5.02137E-07 4.01586E-19-4.36684E-18
 -1      1366 1.23290E-04-3.72662E-05-3.68575E-05-2.02278E-06-3.09822E-19-5.34946E-18
 -1      1367 1.21420E-04-3.65848E-05-3.63558E-05-2.17505E-06 1.53234E-19-5.55945E-18
 -1      1368 1.20313E-04-3.67560E-05-3.57542E-05-2.90280E-06 2.89712E-19-3.96152E-18
 -1      1369 1.19696E-04-3.59926E-05-3.58788E-05-2.57763E-06-5.86372E-20-5.48703E-18
 -1      1370 1.17297E-04-3.51867E-05-3.52028E-05-2.59538E-06-3.66317E-19-5.80165E-18
 -1      1371 1.17201E-04-3.54097E-05-3.50405E-05-4.58440E-06-1.02180E-19-3.51992E-18
 -1      1372 1.15465E-04-3.46110E-05-3.46611E-05-2.58146E-06-4.19200E-19-5.73529E-18
 -1      1373 1.13061E-04-3.38373E-05-3.39678E-05-2.53117E-06-1.77072E-19-5.87092E-18
 -1      1374 1.13612E-04-3.40760E-05-3.40979E-05-5.00102E-06-3.65330E-19-3.88240E-18
 -1      1375 1.11340E-04-3.33229E-05-3.34428E-05-2.30746E-06-2.11171E-19-6.09172E-18
 -1      1376 1.09194E-04-3.26510E-05-3.28162E-05-2.23193E-06 2.17820E-19-5.98455E-18
 -1      1377 1.10091E-04-3.28942E-05-3.31057E-05-4.68946E-06-2.81016E-19-3.30885E-18
 -1      1378 1.07691E-04-3.22140E-05-3.23502E-05-1.93281E-06-2.51810E-20-5.87622E-18
 -1      1379 1.05899E-04-3.16632E-05-3.18231E-05-1.85487E-06-2.54363E-19-6.07057E-18
 -1      1380 1.06927E-04-3.19027E-05-3.21769E-05-4.05077E-06-4.92073E-20-3.13411E-18
 -1      1381 1.04645E-04-3.13045E-05-3.14316E-05-1.55365E-06-1.24989E-19-5.90545E-18
 -1      1382 1.03211E-04-3.08694E-05-3.10077E-05-1.48354E-06-6.68362E-21-5.99756E-18
 -1      1383 1.04234E-04-3.10965E-05-3.13672E-05-3.32680E-06-1.44376E-19-3.46338E-18
 -1      1384 1.02199E-04-3.05822E-05-3.06908E-05-1.21386E-06 4.49788E-20-6.05595E-18
 -1      1385 1.01083E-04-3.02472E-05-3.03601E-05-1.15498E-06-1.36541E-19-6.21974E-18
 -1      1386 1.02027E-04-3.04549E-05-3.06934E-05-2.64135E-06-1.44558E-19-3.99724E-18
 -1      1387 1.00286E-04-3.00220E-05-3.01104E-05-9.28205E-07-3.47896E-19-6.54679E-18
 -1      1388 9.94375E-05-2.97691E-05-2.98582E-05-8.80682E-07-7.41040E-19-6.76446E-18
 -1      1389 1.00267E-04-2.99529E-05-3.01507E-05-2.04617E-06-3.30058E-19-4.75568E-18
 -1      1390 9.88220E-05-2.95956E-05-2.96655E-05-6.97085E-07-1.60152E-19-6.56806E-18
 -1      1391 9.81882E-05-2.94080E-05-2.94768E-05-6.59703E-07 5.23178E-19-6.33942E-18
 -1      1392 9.88923E-05-2.95660E-05-2.97244E-05-1.55428E-06-3.15503E-19-4.20415E-18
 -1      1393 9.77211E-05-2.92764E-05-2.93306E-05-5.14784E-07 2.74359E-19-6.90508E-18
 -1      1394 9.72558E-05-2.91396E-05-2.91918E-05-4.85914E-07-2.74416E-19-6.47379E-18
 -1      1395 9.78383E-05-2.92722E-05-2.93959E-05-1.16034E-06 2.12911E-19-5.32922E-18
 -1      1396 9.69072E-05-2.90415E-05-2.90829E-05-3.73652E-07-3.10830E-19-6.29516E-18
 -1      1397 9.65716E-05-2.89434E-05-2.89825E-05-3.51687E-07-2.14936E-19-6.40572E-18
 -1      1398 9.70436E-05-2.90523E-05-2.91473E-05-8.51714E-07-6.73284E-20-5.74973E-18
 -1      1399 9.63159E-05-2.88715E-05-2.89027E-05-2.66059E-07-3.22098E-19-6.48854E-18
 -1      1400 9.60786E-05-2.88027E-05-2.88315E-05-2.49574E-07-4.28191E-19-7.25491E-18
 -1      1401 9.64541E-05-2.88904E-05-2.89622E-05-6.14034E-07-1.86670E-19-6.34960E-18
 -1      1402 9.58945E-05-2.87509E-05-2.87741E-05-1.85189E-07 2.03030E-19-7.14339E-18
 -1      1403 9.57307E-05-2.87039E-05-2.87249E-05-1.72988E-07-4.46988E-20-7.26835E-18
 -1      1404 9.60246E-05-2.87732E-05-2.88268E-05-4.33691E-07-1.91941E-19-5.74897E-18
 -1      1405 9.56009E-05-2.86674E-05-2.86844E-05-1.25271E-07-5.02008E-19-7.02450E-18
 -1      1406 9.54914E-05-2.86364E-05-2.86513E-05-1.16377E-07-4.27493E-19-7.29796E-18
 -1      1407 9.57176E-05-2.86903E-05-2.87296E-05-2.98795E-07-3.48963E-20-5.51375E-18
 -1      1408 9.54023E-05-2.86114E-05-2.86236E-05-8.15654E-08-5.63932E-20-6.95133E-18
 -1      1409 9.53320E-05-2.85918E-05-2.86023E-05-7.51960E-08-1.59693E-19-7.11154E-18
 -1      1410 9.55034E-05-2.86330E-05-2.86614E-05-1.99388E-07-1.23344E-19-5.22753E-18
 -1      1411 9.52730E-05-2.85753E-05-2.85839E-05-5.02523E-08-5.23081E-19-6.49374E-18
 -1      1412 9.52306E-05-2.85638E-05-2.85709E-05-4.57865E-08-3.57953E-19-7.10177E-18
 -1      1413 9.53582E-05-2.85947E-05-2.86149E-05-1.27337E-07-2.64465E-19-5.30180E-18
 -1      1414 9.51933E-05-2.85534E-05-2.85593E-05-2.82944E-08-4.67025E-19-6.58853E-18
 -1      1415 9.51703E-05-2.85475E-05-2.85522E-05-2.52456E-08-1.83423E-19-6.70625E-18
 -1      1416 9.52635E-05-2.85702E-05-2.85842E-05-7.61136E-08-6.13146E-19-5.31376E-18
 -1      1417 9.51484E-05-2.85414E-05-2.85454E-05-1.33038E-08 2.06648E-19-7.02164E-18
 -1      1418 9.51386E-05-2.85392E-05-2.85422E-05-1.12938E-08-3.06756E-19-6.28427E-18
 -1      1419 9.52052E-05-2.85556E-05-2.85651E-05-4.05395E-08-1.03654E-20-4.74638E-18
 -1      1420 9.51274E-05-2.85362E-05-2.85387E-05-3.42235E-09 3.68961E-19-5.85291E-18
 -1      1421 9.51261E-05-2.85364E-05-2.85381E-05-2.16049E-09 4.33744E-19-5.06155E-18
 -1      1422 9.51724E-05-2.85479E-05-2.85540E-05-1.65558E-08 1.02407E-18-4.81535E-18
 -1      1423 9.51220E-05-2.85354E-05-2.85369E-05 2.77998E-09 2.55522E-19-3.92311E-18
 -1      1424 9.51260E-05-2.85370E-05-2.85379E-05 3.51467E-09 2.87229E-19-3.24059E-18
 -1      1425 9.51570E-05-2.85448E-05-2.85485E-05-1.01544E-09 1.04749E-18-4.37919E-18
 -1      1426 9.51265E-05-2.85373E-05-2.85381E-05 6.39049E-09-5.66266E-19-3.06733E-18
 -1      1427 9.51335E-05-2.85397E-05-2.85400E-05 6.76373E-09-7.89468E-19-3.79897E-18
 -1      1428 9.51532E-05-2.85447E-05-2.85468E-05 8.49408E-09-1.16578E-19-3.40788E-18
 -1      1429 9.51368E-05-2.85407E-05-2.85411E-05 8.22439E-09 3.06996E-20-4.28612E-18
 -1      1430 9.51451E-05-2.85435E-05-2.85434E-05 8.35854E-09 1.69313E-19-4.34544E-18
 -1      1431 9.51567E-05-2.85465E-05-2.85474E-05 1.37975E-08-7.10518E-19-3.38673E-18
 -1      1432 9.51499E-05-2.85449E-05-2.85449E-05 8.88249E-09-1.53271E-19-2.78612E-18
 -1      1433 9.51587E-05-2.85477E-05-2.85475E-05 8.86599E-09 3.50713E-19-2.69343E-18
 -1      1434 9.51644E-05-2.85492E-05-2.85494E-05 1.62540E-08 7.01268E-19-2.20589E-18
 -1      1435 9.51641E-05-2.85493E-05-2.85492E-05 8.79761E-09 4.59999E-20-2.35798E-18
 -1      1436 9.51726E-05-2.85520E-05-2.85516E-05 8.69253E-09-1.36807E-19-2.53197E-18
 -1      1437 9.51743E-05-2.85525E-05-2.85522E-05 1.68558E-08-1.69865E-19-8.07353E-19
 -1      1438 9.51782E-05-2.85536E-05-2.85534E-05 8.27116E-09-2.58766E-20-3.73924E-18
 -1      1439 9.51861E-05-2.85561E-05-2.85557E-05 8.11899E-09-1.17321E-18-4.43251E-18
 -1      1440 9.51850E-05-2.85558E-05-2.85553E-05 1.63079E-08-4.96816E-19-1.83822E-18
 -1      1441 9.51914E-05-2.85576E-05-2.85573E-05 7.50106E-09-1.13335E-18-4.32540E-18
 -1      1442 9.51985E-05-2.85598E-05-2.85594E-05 7.32694E-09-1.11527E-18-5.70991E-18
 -1      1443 9.51956E-05-2.85591E-05-2.85585E-05 1.50892E-08-1.35532E-18-3.65191E-18
 -1      1444 9.52034E-05-2.85612E-05-2.85609E-05 6.60170E-09 1.02869E-19-4.76068E-18
 -1      1445 9.52096E-05-2.85632E-05-2.85628E-05 6.41698E-09 3.60196E-19-4.23197E-18
 -1      1446 9.52055E-05-2.85621E-05-2.85614E-05 1.34981E-08-1.57571E-19-3.09373E-18
 -1      1447 9.52139E-05-2.85644E-05-2.85641E-05 5.61638E-09 3.49629E-19-4.32978E-18
 -1      1448 9.52191E-05-2.85660E-05-2.85656E-05 5.41950E-09 2.63174E-19-3.74981E-18
 -1      1449 9.52144E-05-2.85648E-05-2.85641E-05 1.16844E-08 2.72209E-19-2.33501E-18
 -1      1450 9.52227E-05-2.85671E-05-2.85667E-05 4.52466E-09-1.64567E-19-3.05308E-18
 -1      1451 9.52269E-05-2.85684E-05-2.85679E-05 4.30032E-09-7.33976E-19-3.36978E-18
 -1      1452 9.52221E-05-2.85671E-05-2.85663E-05 9.66899E-09 6.86585E-19-3.19301E-18
 -1      1453 9.52297E-05-2.85692E-05-2.85687E-05 3.25548E-09-3.78310E-19-2.17960E-18
 -1      1454 9.52326E-05-2.85702E-05-2.85696E-05 2.97463E-09-8.78076E-20-3.23099E-18
 -1      1455 9.52283E-05-2.85691E-05-2.85682E-05 7.36853E-09-3.03076E-19-2.45587E-18
 -1      1456 9.52345E-05-2.85708E-05-2.85702E-05 1.75890E-09-1.02988E-18-2.94956E-18
 -1      1457 9.52359E-05-2.85712E-05-2.85706E-05 1.37886E-09-6.28213E-19-3.89503E-18
 -1      1458 9.52331E-05-2.85707E-05-2.85695E-05 4.67753E-09-9.50822E-19-2.84043E-18
 -1      1459 9.52368E-05-2.85714E-05-2.85709E-05 4.19991E-10 4.08262E-19-4.15791E-18
 -1      1460 9.52370E-05-2.85713E-05-2.85712E-05 2.76613E-10 1.90318E-18-1.73238E-18
 -1      1461 9.52370E-05-2.85714E-05-2.85709E-05 4.12371E-10 4.68983E-18 6.61721E-19
 -1      1462 9.52358E-05-2.85716E-05-2.85703E-05 2.13597E-09-2.04864E-19-2.33292E-20
 -1      1463 1.08022E-04-3.18733E-05-3.31342E-05 1.82223E-06 1.03568E-18 1.33333E-17
 -1      1464 1.12563E-04-3.24194E-05-3.51646E-05 3.18992E-06 9.33483E-19 1.48493E-17
 -1      1465 1.12032E-04-2.98096E-05-3.55807E-05 1.04622E-05 1.67951E-18 1.05253E-17
 -1      1466 1.05281E-04-3.14685E-05-3.16775E-05 3.00622E-07 6.35751E-19 1.14825E-17
 -1      1467 1.06188E-04-3.13181E-05-3.22859E-05 5.63498E-07 6.60249E-19 1.25150E-17
 -1      1468 1.07770E-04-3.15720E-05-3.28505E-05 2.96855E-06 1.47257E-18 9.02197E-18
 -1      1469 1.04682E-04-3.14271E-05-3.13494E-05-1.46328E-07 3.22041E-19 1.03681E-17
 -1      1470 1.04658E-04-3.12758E-05-3.14293E-05-6.25226E-08 2.94231E-19 1.08981E-17
 -1      1471 1.05653E-04-3.15336E-05-3.18050E-05 5.33010E-07 8.81543E-19 7.78753E-18
 -1      1472 1.04555E-04-3.14551E-05-3.12751E-05-2.11210E-08 3.16405E-19 9.55449E-18
 -1      1473 1.04469E-04-3.13920E-05-3.12685E-05-6.07583E-08 3.16299E-19 9.98599E-18
 -1      1474 1.04930E-04-3.15740E-05-3.14376E-05-1.47394E-08 6.07084E-19 6.81578E-18
 -1      1475 1.03932E-04-3.13141E-05-3.10682E-05 4.68346E-07 2.77880E-19 8.79501E-18
 -1      1476 1.04257E-04-3.14271E-05-3.11720E-05 3.26468E-07 1.70568E-19 9.23950E-18
 -1      1477 1.04451E-04-3.15525E-05-3.12165E-05 4.43482E-07 4.56028E-19 6.30440E-18
 -1      1478 1.02203E-04-3.08140E-05-3.05426E-05 1.19133E-06 3.13161E-19 8.10089E-18
 -1      1479 1.03244E-04-3.11852E-05-3.08502E-05 9.72682E-07 3.53583E-19 8.63369E-18
 -1      1480 1.03505E-04-3.13388E-05-3.08812E-05 1.52331E-06 5.67711E-19 5.89500E-18
 -1      1481 9.91242E-05-2.98583E-05-2.96454E-05 1.93501E-06 2.07377E-19 7.56557E-18
 -1      1482 1.00979E-04-3.05103E-05-3.01769E-05 1.69554E-06 1.89898E-19 7.75856E-18
 -1      1483 1.01651E-04-3.07747E-05-3.03166E-05 2.88033E-06 4.48875E-19 5.41378E-18
 -1      1484 9.49649E-05-2.85131E-05-2.84714E-05 2.39083E-06 1.48363E-19 6.98590E-18
 -1      1485 9.74329E-05-2.93654E-05-2.91614E-05 2.22210E-06 1.82046E-19 7.20724E-18
 -1      1486 9.88118E-05-2.98020E-05-2.95247E-05 4.02857E-06 4.08449E-19 5.02827E-18
 -1      1487 9.05855E-05-2.70539E-05-2.72676E-05 2.24756E-06 3.58654E-19 6.68418E-18
 -1      1488 9.31289E-05-2.79085E-05-2.79630E-05 2.24811E-06 1.07368E-19 6.81914E-18
 -1      1489 9.53693E-05-2.85386E-05-2.86244E-05 4.38272E-06 2.88150E-19 4.53410E-18
 -1      1490 8.72580E-05-2.59205E-05-2.63720E-05 1.37375E-06 6.02250E-19 5.98071E-18
 -1      1491 8.91261E-05-2.65098E-05-2.68710E-05 1.59080E-06 5.42511E-19 6.66697E-18
 -1      1492 9.21546E-05-2.73034E-05-2.78269E-05 3.50233E-06 6.31589E-19 4.48843E-18
 -1      1493 8.61657E-05-2.55400E-05-2.60835E-05-3.14861E-08 2.43628E-19 5.11832E-18
 -1      1494 8.66930E-05-2.56398E-05-2.62151E-05 3.49476E-07 4.03406E-19 5.40887E-18
 -1      1495 9.01921E-05-2.65240E-05-2.73656E-05 1.41065E-06 8.09711E-19 4.05960E-18
 -1      1496 8.78065E-05-2.60963E-05-2.65243E-05-1.48105E-06 2.42920E-19 4.42673E-18
 -1      1497 8.67441E-05-2.56454E-05-2.62283E-05-1.07514E-06 1.73059E-19 4.64157E-18
 -1      1498 9.02332E-05-2.65260E-05-2.73986E-05-1.27695E-06 4.40444E-19 3.04641E-18
 -1      1499 9.17048E-05-2.74113E-05-2.75796E-05-2.46203E-06 1.25685E-19 4.13424E-18
 -1      1500 8.93600E-05-2.65503E-05-2.69369E-05-2.17577E-06 1.28110E-19 4.36720E-18
 -1      1501 9.23466E-05-2.73368E-05-2.79366E-05-3.61545E-06 2.45951E-19 2.37691E-18
 -1      1502 9.66732E-05-2.90548E-05-2.89516E-05-2.71804E-06 3.14699E-19 3.38101E-18
 -1      1503 9.37447E-05-2.80466E-05-2.81447E-05-2.62135E-06 3.19915E-19 4.07394E-18
 -1      1504 9.58731E-05-2.86684E-05-2.88359E-05-4.85227E-06 3.85018E-19 2.30671E-18
 -1      1505 1.01403E-04-3.05744E-05-3.02949E-05-2.32450E-06-2.19418E-20 3.24493E-18
 -1      1506 9.86434E-05-2.96759E-05-2.95247E-05-2.39751E-06 1.44333E-19 3.65603E-18
 -1      1507 9.97807E-05-3.00882E-05-2.98617E-05-4.78643E-06 3.15503E-19 2.53039E-18
 -1      1508 1.04964E-04-3.16735E-05-3.13438E-05-1.56297E-06-3.93440E-20 3.20808E-18
 -1      1509 1.02899E-04-3.10428E-05-3.07568E-05-1.73277E-06-1.87373E-19 2.72125E-18
 -1      1510 1.03132E-04-3.12358E-05-3.07810E-05-3.73464E-06 1.21774E-19 1.90346E-18
 -1      1511 1.06991E-04-3.22598E-05-3.19734E-05-7.34008E-07 2.71090E-19 2.55151E-18
 -1      1512 1.05820E-04-3.19372E-05-3.16317E-05-9.25144E-07 2.48955E-19 3.11490E-18
 -1      1513 1.05380E-04-3.19364E-05-3.14360E-05-2.24224E-06 3.90654E-19 1.63708E-18
 -1      1514 1.07580E-04-3.23900E-05-3.21891E-05-3.80463E-08-2.27640E-21 2.03134E-18
 -1      1515 1.07237E-04-3.23329E-05-3.20813E-05-2.01309E-07 1.57743E-19 2.19713E-18
 -1      1516 1.06402E-04-3.21904E-05-3.17689E-05-7.88419E-07 4.75424E-19 1.35203E-18
 -1      1517 1.07073E-04-3.21891E-05-3.20757E-05 4.44183E-07 2.29579E-19 1.59740E-18
 -1      1518 1.07352E-04-3.23190E-05-3.21484E-05 3.28663E-07 2.14107E-20 2.15684E-18
 -1      1519 1.06370E-04-3.20963E-05-3.18048E-05 3.50576E-07 1.64702E-19 8.68212E-19
 -1      1520 1.05870E-04-3.17889E-05-3.17449E-05 7.16319E-07 4.20133E-20 1.85833E-18
 -1      1521 1.06537E-04-3.20266E-05-3.19329E-05 6.48408E-07-4.04773E-20 1.90932E-18
 -1      1522 1.05584E-04-3.17780E-05-3.16144E-05 1.09168E-06-5.52424E-20 1.24495E-18
 -1      1523 1.04324E-04-3.12983E-05-3.13006E-05 8.22470E-07-7.79400E-19 2.54868E-18
 -1      1524 1.05177E-04-3.15804E-05-3.15457E-05 7.92582E-07-3.15225E-19 2.23492E-18
 -1      1525 1.04354E-04-3.13445E-05-3.12815E-05 1.47317E-06-5.74808E-19 1.57829E-18
 -1      1526 1.02696E-04-3.07939E-05-3.08225E-05 8.15911E-07 5.74365E-19 2.68846E-18
 -1      1527 1.03587E-04-3.10774E-05-3.10815E-05 8.12273E-07 4.04797E-20 2.76571E-18
 -1      1528 1.02936E-04-3.08760E-05-3.08804E-05 1.58404E-06-2.53933E-19 2.51592E-18
 -1      1529 1.01151E-04-3.03228E-05-3.03632E-05 7.43166E-07 2.09458E-19 1.47368E-18
 -1      1530 1.01989E-04-3.05825E-05-3.06085E-05 7.55416E-07 3.59285E-19 2.03636E-18
 -1      1531 1.01510E-04-3.04238E-05-3.04672E-05 1.51838E-06 6.86856E-19 1.88149E-18
 -1      1532 9.97808E-05-2.99098E-05-2.99528E-05 6.38807E-07 2.50912E-19 1.03902E-18
 -1      1533 1.00517E-04-3.01334E-05-3.01693E-05 6.59163E-07-5.32638E-20 9.24024E-19
 -1      1534 1.00191E-04-3.00170E-05-3.00784E-05 1.35408E-06 3.31269E-19 3.94914E-19
 -1      1535 9.86243E-05-2.95639E-05-2.96042E-05 5.25763E-07 5.02846E-19 3.02960E-19
 -1      1536 9.92404E-05-2.97479E-05-2.97860E-05 5.48977E-07 4.07868E-19 1.06757E-18
 -1      1537 9.90373E-05-2.96686E-05-2.97344E-05 1.14726E-06 4.87697E-19-1.31681E-19
 -1      1538 9.76845E-05-2.92846E-05-2.93197E-05 4.17707E-07-4.85004E-19 2.18169E-19
 -1      1539 9.81803E-05-2.94306E-05-2.94665E-05 4.40561E-07 4.26205E-20 1.53981E-19
 -1      1540 9.80708E-05-2.93812E-05-2.94436E-05 9.34181E-07 2.48888E-19 1.92573E-19
 -1      1541 9.69450E-05-2.90661E-05-2.90951E-05 3.21747E-07 4.41266E-19 9.31687E-20
 -1      1542 9.73311E-05-2.91782E-05-2.92097E-05 3.42484E-07-3.78369E-20 2.27619E-19
 -1      1543 9.72884E-05-2.91516E-05-2.92065E-05 7.35845E-07 4.02837E-20-3.42537E-19
 -1      1544 9.63798E-05-2.88999E-05-2.89230E-05 2.40710E-07 2.12923E-19-1.03806E-18
 -1      1545 9.66716E-05-2.89835E-05-2.90098E-05 2.58541E-07-1.28309E-19-7.05793E-19
 -1      1546 9.66738E-05-2.89730E-05-2.90190E-05 5.62602E-07 4.55624E-19-8.60448E-19
 -1      1547 9.59599E-05-2.87770E-05-2.87948E-05 1.74836E-07 1.08661E-19-1.81653E-18
 -1      1548 9.61740E-05-2.88375E-05-2.88587E-05 1.89572E-07 5.15245E-19-1.07603E-18
 -1      1549 9.62039E-05-2.88379E-05-2.88749E-05 4.17970E-07 6.13775E-19-8.12170E-19
 -1      1550 9.56569E-05-2.86888E-05-2.87021E-05 1.22946E-07-2.52408E-19-1.01824E-18
 -1      1551 9.58092E-05-2.87310E-05-2.87476E-05 1.34743E-07-2.51595E-19-1.41444E-18
 -1      1552 9.58543E-05-2.87382E-05-2.87671E-05 3.01419E-07-2.87835E-19 3.89906E-19
 -1      1553 9.54454E-05-2.86275E-05-2.86372E-05 8.32001E-08-1.89323E-19 2.48325E-19
 -1      1554 9.55498E-05-2.86559E-05-2.86685E-05 9.23882E-08-2.96300E-19-5.09086E-19
 -1      1555 9.56013E-05-2.86668E-05-2.86887E-05 2.10267E-07-3.68001E-19 1.28491E-18
 -1      1556 9.53035E-05-2.85867E-05-2.85935E-05 5.35597E-08 1.10646E-19 2.23009E-19
 -1      1557 9.53719E-05-2.86047E-05-2.86141E-05 6.05361E-08 1.00248E-19 1.17158E-19
 -1      1558 9.54240E-05-2.86172E-05-2.86334E-05 1.40892E-07 2.21395E-21 9.74188E-19
 -1      1559 9.52132E-05-2.85609E-05-2.85655E-05 3.20516E-08-3.56904E-19 1.22372E-18
 -1      1560 9.52552E-05-2.85716E-05-2.85783E-05 3.72177E-08-1.39459E-19 7.45103E-19
 -1      1561 9.53043E-05-2.85842E-05-2.85958E-05 8.94716E-08-3.72336E-19 1.06853E-18
 -1      1562 9.51601E-05-2.85460E-05-2.85490E-05 1.69050E-08 1.56009E-19 1.50528E-18
 -1      1563 9.51834E-05-2.85514E-05-2.85561E-05 2.06316E-08 8.60249E-20 1.76580E-18
 -1      1564 9.52275E-05-2.85634E-05-2.85715E-05 5.23949E-08-2.15918E-19 1.57633E-18
 -1      1565 9.51331E-05-2.85387E-05-2.85405E-05 6.60733E-09 1.55190E-18-2.75271E-19
 -1      1566 9.51435E-05-2.85406E-05-2.85437E-05 9.21821E-09 5.95939E-19 9.21061E-19
 -1      1567 9.51817E-05-2.85513E-05-2.85567E-05 2.64689E-08 1.09550E-18 2.24434E-19
 -1      1568 9.51238E-05-2.85364E-05-2.85374E-05-8.69992E-11-1.95313E-19-1.64999E-18
 -1      1569 9.51255E-05-2.85360E-05-2.85380E-05 1.68000E-09 2.05898E-19-7.64230E-19
 -1      1570 9.51577E-05-2.85453E-05-2.85488E-05 8.99307E-09 5.95808E-19 2.92333E-19
 -1      1571 9.51257E-05-2.85373E-05-2.85377E-05-4.17365E-09-2.25726E-19-9.98478E-19
 -1      1572 9.51222E-05-2.85356E-05-2.85368E-05-3.02936E-09 1.54833E-20-7.59610E-19
 -1      1573 9.51486E-05-2.85435E-05-2.85455E-05-2.23915E-09-8.52757E-19 7.75372E-19
 -1      1574 9.51345E-05-2.85402E-05-2.85403E-05-6.42803E-09 7.74119E-20-6.78155E-20
 -1      1575 9.51279E-05-2.85378E-05-2.85384E-05-5.73118E-09-4.74205E-19-1.11767E-18
 -1      1576 9.51491E-05-2.85442E-05-2.85452E-05-8.98049E-09-4.39850E-19-5.97440E-19
 -1      1577 9.51469E-05-2.85441E-05-2.85439E-05-7.43910E-09-2.29789E-19-5.98651E-21
 -1      1578 9.51389E-05-2.85413E-05-2.85416E-05-7.05420E-09-2.23187E-19-8.24301E-19
 -1      1579 9.51555E-05-2.85465E-05-2.85469E-05-1.25878E-08-2.77848E-19-6.87172E-19
 -1      1580 9.51609E-05-2.85484E-05-2.85481E-05-7.64246E-09 7.78105E-19-1.25609E-19
 -1      1581 9.51524E-05-2.85456E-05-2.85456E-05-7.46735E-09 5.52359E-19 1.74720E-19
 -1      1582 9.51651E-05-2.85496E-05-2.85496E-05-1.40850E-08 4.31826E-20-9.34811E-19
 -1      1583 9.51751E-05-2.85527E-05-2.85523E-05-7.34984E-09 7.42945E-19-1.46188E-18
 -1      1584 9.51668E-05-2.85500E-05-2.85499E-05-7.30985E-09 6.67388E-19-1.91928E-19
 -1      1585 9.51762E-05-2.85531E-05-2.85528E-05-1.42233E-08 1.15446E-18 3.54061E-19
 -1      1586 9.51886E-05-2.85568E-05-2.85564E-05-6.77386E-09-8.79196E-19-1.13363E-18
 -1      1587 9.51809E-05-2.85543E-05-2.85542E-05-6.81680E-09-3.55697E-20-1.15682E-18
 -1      1588 9.51876E-05-2.85566E-05-2.85562E-05-1.35335E-08-6.21408E-20 1.13167E-19
 -1      1589 9.52010E-05-2.85605E-05-2.85601E-05-6.04705E-09 5.98240E-19-8.59538E-19
 -1      1590 9.51940E-05-2.85583E-05-2.85581E-05-6.13952E-09-4.14525E-19-9.11247E-19
 -1      1591 9.51986E-05-2.85599E-05-2.85594E-05-1.23692E-08-4.11156E-19 2.53416E-19
 -1      1592 9.52119E-05-2.85638E-05-2.85634E-05-5.23467E-09 4.43208E-19-1.85370E-18
 -1      1593 9.52059E-05-2.85619E-05-2.85616E-05-5.35996E-09 7.33079E-19-6.98204E-19
 -1      1594 9.52086E-05-2.85629E-05-2.85624E-05-1.09388E-08 4.23324E-19-1.25985E-18
 -1      1595 9.52212E-05-2.85666E-05-2.85662E-05-4.34179E-09-3.38388E-19-1.81283E-18
 -1      1596 9.52161E-05-2.85650E-05-2.85647E-05-4.49972E-09-2.08150E-19-1.95917E-18
 -1      1597 9.52174E-05-2.85656E-05-2.85651E-05-9.32744E-09-3.79055E-21-8.88406E-19
 -1      1598 9.52287E-05-2.85688E-05-2.85684E-05-3.31916E-09 6.17672E-19-2.15395E-18
 -1      1599 9.52246E-05-2.85676E-05-2.85673E-05-3.52619E-09 1.98583E-19-1.94854E-18
 -1      1600 9.52249E-05-2.85679E-05-2.85672E-05-7.51081E-09 3.93155E-21-8.39728E-19
 -1      1601 9.52339E-05-2.85704E-05-2.85700E-05-2.07104E-09-2.70755E-19-3.25963E-18
 -1      1602 9.52312E-05-2.85697E-05-2.85692E-05-2.36816E-09 1.03198E-18-1.99724E-18
 -1      1603 9.52307E-05-2.85697E-05-2.85689E-05-5.37926E-09 9.17351E-19-7.55146E-19
 -1      1604 9.52366E-05-2.85712E-05-2.85709E-05-6.47350E-10-4.19778E-19-9.43613E-19
 -1      1605 9.52355E-05-2.85710E-05-2.85705E-05-1.00779E-09-8.52498E-19-2.91677E-18
 -1      1606 9.52347E-05-2.85710E-05-2.85701E-05-2.85339E-09-6.10191E-19-9.31815E-19
 -1      1607 9.52372E-05-2.85713E-05-2.85711E-05 2.86745E-11 7.13017E-20-5.39687E-19
 -1      1608 9.52375E-05-2.85736E-05-2.85702E-05-1.70959E-09-2.92238E-18-2.62698E-18
 -1      1609 9.52371E-05-2.85723E-05-2.85706E-05-1.34325E-09-4.46122E-19-8.83618E-19
 -1      1610 9.52389E-05-2.85780E-05-2.85690E-05-2.98685E-09-3.11462E-18 1.76828E-18
 -1      1611 9.52381E-05-2.85754E-05-2.85697E-05-2.73815E-09-2.60504E-18-1.73626E-18
 -1      1612 9.52377E-05-2.85751E-05-2.85696E-05-4.38424E-09-2.14830E-18-2.73222E-18
 -1      1613 9.52408E-05-2.85836E-05-2.85674E-05-3.63775E-09-7.65930E-19 8.35712E-19
 -1      1614 9.52397E-05-2.85804E-05-2.85683E-05-3.56134E-09-2.99317E-18 2.62090E-18
 -1      1615 9.52392E-05-2.85793E-05-2.85685E-05-6.34806E-09-3.71222E-19 2.37246E-18
 -1      1616 9.52428E-05-2.85896E-05-2.85657E-05-3.66743E-09 1.67538E-18 1.83674E-19
 -1      1617 9.52417E-05-2.85862E-05-2.85666E-05-3.71188E-09-4.31901E-19 1.77430E-18
 -1      1618 9.52410E-05-2.85842E-05-2.85672E-05-7.09587E-09-9.75035E-19 2.18648E-18
 -1      1619 9.52445E-05-2.85949E-05-2.85641E-05-3.18339E-09-2.71780E-18-2.20464E-18
 -1      1620 9.52435E-05-2.85920E-05-2.85650E-05-3.31609E-09 1.21919E-18-3.93993E-18
 -1      1621 9.52428E-05-2.85891E-05-2.85659E-05-6.74181E-09-1.34942E-18-2.73231E-18
 -1      1622 9.52458E-05-2.85991E-05-2.85629E-05-2.29514E-09-1.81238E-18 5.30647E-19
 -1      1623 9.52451E-05-2.85969E-05-2.85635E-05-2.49632E-09-2.53589E-18 6.24038E-19
 -1      1624 9.52442E-05-2.85935E-05-2.85647E-05-5.48519E-09-9.39222E-20-1.88706E-18
 -1      1625 9.52466E-05-2.86016E-05-2.85622E-05-1.14384E-09-2.00766E-18-3.30672E-19
 -1      1626 9.52462E-05-2.86004E-05-2.85625E-05-1.38394E-09-1.86639E-18 8.45892E-19
 -1      1627 9.52453E-05-2.85967E-05-2.85638E-05-3.55452E-09-2.36364E-19 3.75447E-19
 -1      1628 9.52467E-05-2.86020E-05-2.85620E-05 1.32372E-10-8.80653E-19 2.02723E-18
 -1      1629 9.52467E-05-2.86020E-05-2.85620E-05-1.20706E-10-2.41510E-18 8.18703E-19
 -1      1630 9.52459E-05-2.85984E-05-2.85633E-05-1.22208E-09 4.25747E-19 2.19276E-19
 -1      1631 9.52462E-05-2.86004E-05-2.85625E-05 1.39573E-09-1.57450E-18-1.34172E-18
 -1      1632 9.52466E-05-2.86015E-05-2.85622E-05 1.15565E-09-1.90057E-18 1.23167E-18
 -1      1633 9.52459E-05-2.85984E-05-2.85633E-05 1.24462E-09-1.25882E-18 8.99061E-19
 -1      1634 9.52451E-05-2.85969E-05-2.85635E-05 2.50806E-09-5.30312E-18-2.13229E-18
 -1      1635 9.52458E-05-2.85991E-05-2.85629E-05 2.30749E-09-2.25871E-18-2.68187E-18
 -1      1636 9.52453E-05-2.85967E-05-2.85638E-05 3.57787E-09-2.32364E-18-2.96019E-18
 -1      1637 9.52435E-05-2.85920E-05-2.85650E-05 3.31972E-09-4.67480E-18 1.53932E-18
 -1      1638 9.52445E-05-2.85949E-05-2.85641E-05 3.18768E-09-4.37571E-18-9.22135E-19
 -1      1639 9.52442E-05-2.85935E-05-2.85647E-05 5.49696E-09-2.60706E-18-1.96666E-18
 -1      1640 9.52416E-05-2.85861E-05-2.85666E-05 3.72015E-09-1.05945E-18 2.00926E-18
 -1      1641 9.52428E-05-2.85895E-05-2.85657E-05 3.67718E-09-3.83543E-18 2.46535E-18
 -1      1642 9.52427E-05-2.85891E-05-2.85659E-05 6.75501E-09-1.12883E-18 3.42228E-18
 -1      1643 9.52397E-05-2.85803E-05-2.85683E-05 3.55967E-09 2.00034E-18 1.85386E-18
 -1      1644 9.52408E-05-2.85836E-05-2.85674E-05 3.64020E-09-1.30697E-18 4.14055E-18
 -1      1645 9.52410E-05-2.85842E-05-2.85672E-05 7.10679E-09-1.23861E-20 3.25096E-18
 -1      1646 9.52380E-05-2.85753E-05-2.85697E-05 2.70955E-09 3.06158E-18 1.59015E-18
 -1      1647 9.52389E-05-2.85779E-05-2.85690E-05 2.97813E-09 2.05299E-18 4.98946E-20
 -1      1648 9.52392E-05-2.85792E-05-2.85685E-05 6.34124E-09 6.20411E-20 1.44353E-18
 -1      1649 9.52371E-05-2.85725E-05-2.85706E-05 1.42790E-09 3.98297E-18 9.45133E-19
 -1      1650 9.52376E-05-2.85739E-05-2.85701E-05 1.80057E-09 3.07777E-18 1.18147E-19
 -1      1651 9.52379E-05-2.85754E-05-2.85695E-05 4.50067E-09 3.59711E-19 3.70650E-19
 -1      1652 9.52369E-05-2.85728E-05-2.85703E-05 2.25505E-09 5.64198E-19 8.30637E-19
 -1      1653 2.06020E-05-6.71070E-05 1.39088E-05-5.56383E-06 7.40942E-18 3.11274E-18
 -1      1654 2.42847E-05-7.79682E-05 1.61742E-05 2.61284E-06 4.14241E-18 1.85500E-18
 -1      1655 2.04920E-05-3.82308E-05 3.52519E-06 5.25462E-06 1.03109E-17 6.00610E-18
 -1      1656 2.45737E-05-6.03559E-05 9.51757E-06 1.42357E-06 8.06629E-18 4.13776E-18
 -1      1657 3.25694E-05-1.05946E-05-1.15086E-05 2.76782E-05 1.19059E-17 8.74138E-18
 -1      1658 2.76229E-05-3.10725E-05-3.10456E-06 1.05997E-05 1.11537E-17 6.91052E-18
 -1      1659 8.08785E-05-6.91767E-06-3.09040E-05 5.90133E-05 9.44357E-18 9.32414E-18
 -1      1660 5.60870E-05-1.25447E-05-2.07062E-05 3.68734E-05 1.07683E-17 8.32549E-18
 -1      1661 1.37688E-04-1.46158E-05-4.92191E-05 7.75293E-05 7.23070E-18 8.31956E-18
 -1      1662 9.89641E-05-3.81331E-06-4.02246E-05 6.49483E-05 9.63923E-18 9.37581E-18
 -1      1663 2.06727E-04-4.17879E-05-6.49548E-05 6.88391E-05 4.30684E-18 2.83756E-18
 -1      1664 1.61620E-04-2.00984E-05-5.74112E-05 7.72325E-05 6.78812E-18 7.37173E-18
 -1      1665 2.50271E-04-6.29114E-05-7.37621E-05 2.81289E-05 2.16205E-18-3.48723E-18
 -1      1666 2.25347E-04-4.88509E-05-7.02136E-05 5.63673E-05 3.21137E-18 8.17387E-19
 -1      1667 2.47968E-04-6.05460E-05-7.43791E-05-2.56090E-05 3.38983E-18-9.70064E-18
 -1      1668 2.53544E-04-6.35636E-05-7.50317E-05 1.06691E-05 2.04876E-18-5.77380E-18
 -1      1669 2.01410E-04-3.78203E-05-6.60205E-05-6.16975E-05 7.24076E-18-1.41505E-17
 -1      1670 2.34866E-04-5.54503E-05-7.11285E-05-3.88884E-05 4.80331E-18-1.06853E-17
 -1      1671 1.40040E-04-1.33122E-05-5.21786E-05-7.44375E-05 1.04897E-17-1.63071E-17
 -1      1672 1.83081E-04-3.23245E-05-6.00605E-05-7.33015E-05 8.22173E-18-1.57946E-17
 -1      1673 8.04350E-05-4.86594E-07-3.46169E-05-5.88115E-05 1.31138E-17-1.45791E-17
 -1      1674 1.16000E-04-7.29932E-06-4.39865E-05-7.58658E-05 1.16636E-17-1.61504E-17
 -1      1675 4.37243E-05-1.47220E-05-1.53754E-05-2.88980E-05 1.19203E-17-1.03372E-17
 -1      1676 6.25013E-05-3.41168E-06-2.53096E-05-5.16970E-05 1.27436E-17-1.32916E-17
 -1      1677 2.52485E-05-3.97824E-05 1.07152E-06-5.60209E-06 8.93196E-18-6.23353E-18
 -1      1678 2.61084E-05-1.69439E-05-6.68449E-06-1.90347E-05 1.19161E-17-9.38513E-18
 -1      1679 2.40249E-05-6.62550E-05 1.19296E-05-9.46124E-07 2.18662E-18-3.70048E-18
 -1      1680 1.92074E-05-4.61558E-05 6.91527E-06-7.92703E-07 7.04223E-18-5.40211E-18
 -1      1681 2.31244E-05-7.64545E-05 1.60883E-05-5.34947E-06-5.34398E-18-2.96525E-18
 -1      1682 2.17149E-05-7.22388E-05 1.52509E-05 4.87543E-06 1.79783E-19-2.90109E-18
 -1      1683 1.94913E-05-5.91483E-05 1.13030E-05-6.22632E-06-1.16857E-17-5.73759E-18
 -1      1684 2.39004E-05-7.32785E-05 1.45511E-05-1.39265E-06-7.32493E-18-3.66151E-18
 -1      1685 2.10197E-05-3.12509E-05 2.35291E-07 6.01950E-06-1.61622E-17-1.00098E-17
 -1      1686 2.40420E-05-5.41211E-05 6.78041E-06-1.52990E-06-1.33865E-17-6.97881E-18
 -1      1687 4.65811E-05-1.00493E-05-1.70997E-05 3.69100E-05-1.61326E-17-1.34102E-17
 -1      1688 3.54871E-05-2.74288E-05-7.69159E-06 1.63064E-05-1.61258E-17-1.08729E-17
 -1      1689 9.55701E-05-6.21527E-06-3.67862E-05 6.63626E-05-1.38854E-17-1.54168E-17
 -1      1690 6.48179E-05-7.18285E-06-2.65227E-05 4.41456E-05-1.60267E-17-1.43242E-17
 -1      1691 1.68150E-04-2.58350E-05-5.63474E-05 7.94273E-05-9.38047E-18-1.34644E-17
 -1      1692 1.20004E-04-8.43668E-06-4.65489E-05 7.11468E-05-1.27529E-17-1.55210E-17
 -1      1693 2.36508E-04-5.54240E-05-7.08866E-05 5.46780E-05-4.85689E-18-7.82828E-18
 -1      1694 1.94017E-04-3.35373E-05-6.42855E-05 7.29071E-05-7.61906E-18-1.20321E-17
 -1      1695 2.61926E-04-6.68843E-05-7.65510E-05 6.51161E-06-2.96631E-18-1.58416E-18
 -1      1696 2.48068E-04-5.89938E-05-7.45883E-05 3.89268E-05-3.96454E-18-5.74415E-18
 -1      1697 2.43711E-04-5.70375E-05-7.37634E-05-4.25328E-05-3.00930E-18 3.81292E-18
 -1      1698 2.61655E-04-6.68618E-05-7.63694E-05-9.15980E-06-2.33506E-18 2.43310E-19
 -1      1699 1.86752E-04-3.10522E-05-6.27133E-05-7.26212E-05-4.28662E-18 7.23027E-18
 -1      1700 2.29798E-04-5.24428E-05-6.94769E-05-5.75012E-05-3.03735E-18 5.31344E-18
 -1      1701 1.17854E-04-1.21559E-05-4.44918E-05-6.35126E-05-7.25907E-18 7.95364E-18
 -1      1702 1.63213E-04-2.74782E-05-5.42918E-05-7.22995E-05-4.91830E-18 7.13456E-18
 -1      1703 5.66658E-05-6.95655E-06-2.36774E-05-3.93977E-05-9.50879E-18 8.27805E-18
 -1      1704 8.77371E-05-4.51914E-06-3.46472E-05-6.38272E-05-8.40172E-18 9.19370E-18
 -1      1705 3.19640E-05-3.37544E-05-3.91900E-06-1.07581E-05-7.59026E-18 5.43795E-18
 -1      1706 4.03783E-05-1.25364E-05-1.37442E-05-3.11365E-05-8.90909E-18 7.32683E-18
 -1      1707 2.43647E-05-6.31988E-05 1.02667E-05 2.88383E-06-3.32884E-18 3.12148E-18
 -1      1708 1.95560E-05-3.94075E-05 3.99794E-06-1.35883E-06-7.02783E-18 5.32614E-18
 -1      1709 2.43372E-05-7.87222E-05 1.64133E-05-3.06952E-07 2.52024E-18 1.89439E-18
 -1      1710 2.07704E-05-6.92917E-05 1.44568E-05 8.63552E-06-2.12097E-18 2.86001E-18
 -1      1711 7.52793E-05-3.59813E-05-1.75916E-05 4.13491E-05 5.93347E-18 4.90940E-18
 -1      1712 1.24871E-05-5.31866E-05 1.25461E-05 1.99611E-06 2.11017E-18 4.15639E-18
 -1      1713 9.52368E-05-2.85714E-05-2.85708E-05-6.03975E-10-5.84851E-19 1.52911E-19
 -1      1714 9.52365E-05-2.85724E-05-2.85703E-05-2.25842E-09-9.48687E-19-8.86025E-19
 -1      1715 1.92938E-05-4.74576E-05 8.05925E-06 1.64676E-05 4.29065E-18 4.91321E-18
 -1      1716 3.89680E-05-4.04178E-05-2.27361E-06 2.90258E-05 5.41254E-18 5.24070E-18
 -1      1717 1.16865E-04-3.46209E-05-3.47067E-05 4.39045E-05 6.00292E-18 4.45709E-18
 -1      1718 1.57119E-04-3.03518E-05-5.14305E-05 4.41117E-05 6.44592E-18 3.38898E-18
 -1      1719 1.94348E-04-3.29247E-05-6.43205E-05 3.22496E-05 5.72552E-18 4.07423E-19
 -1      1720 2.12224E-04-3.46990E-05-7.05397E-05 9.22536E-06 4.52654E-18-3.98169E-18
 -1      1721 2.03235E-04-3.18160E-05-6.86044E-05-1.31266E-05 5.48962E-18-6.44698E-18
 -1      1722 1.79827E-04-3.07758E-05-5.99663E-05-3.25092E-05 6.73359E-18-8.19462E-18
 -1      1723 1.43692E-04-2.92914E-05-4.65822E-05-4.63990E-05 6.98336E-18-9.84761E-18
 -1      1724 1.01143E-04-3.12158E-05-2.97589E-05-4.57244E-05 7.15150E-18-9.27289E-18
 -1      1725 6.17689E-05-3.55869E-05-1.28755E-05-3.81326E-05 6.10287E-18-8.38097E-18
 -1      1726 3.12896E-05-4.17877E-05 1.10003E-06-2.50810E-05 3.67104E-18-6.89088E-18
 -1      1727 1.50228E-05-4.78300E-05 9.70302E-06-1.20567E-05 2.45216E-19-6.17826E-18
 -1      1728 1.25288E-05-5.03306E-05 1.14272E-05 3.85515E-06-3.81885E-18-5.88646E-18
 -1      1729 2.33643E-05-4.63101E-05 5.67414E-06 1.66467E-05-7.06680E-18-7.28597E-18
 -1      1730 4.93364E-05-4.08069E-05-6.27856E-06 3.13315E-05-9.20132E-18-8.49436E-18
 -1      1731 8.79616E-05-3.72156E-05-2.25872E-05 4.11384E-05-9.75782E-18-8.94297E-18
 -1      1732 1.31822E-04-3.34472E-05-4.07994E-05 4.53422E-05-9.82304E-18-9.09036E-18
 -1      1733 1.78130E-04-3.40781E-05-5.77451E-05 4.01388E-05-8.30754E-18-7.46405E-18
 -1      1734 2.09216E-04-3.57201E-05-6.88268E-05 2.21137E-05-6.48319E-18-4.97378E-18
 -1      1735 2.17762E-04-3.59339E-05-7.21249E-05-5.06833E-07-4.93524E-18-1.99217E-18
 -1      1736 2.06837E-04-3.58477E-05-6.79179E-05-2.23421E-05-3.77628E-18 9.17337E-19
 -1      1737 1.73435E-04-3.65064E-05-5.56801E-05-3.39087E-05-3.47876E-18 1.98629E-18
 -1      1738 1.28822E-04-3.52005E-05-3.87057E-05-4.25581E-05-4.35883E-18 3.28479E-18
 -1      1739 8.00020E-05-3.71090E-05-1.96090E-05-3.91013E-05-4.43845E-18 4.80945E-18
 -1      1740 4.28573E-05-4.32132E-05-2.79901E-06-2.80090E-05-2.48689E-18 5.02148E-18
 -1      1741 1.89402E-05-4.96061E-05 8.75051E-06-1.20554E-05-6.94567E-19 4.81877E-18
 -1      1742 1.17589E-04-2.66774E-05-3.90517E-05-1.31235E-05-1.75098E-18 3.94971E-18
 -1      1743 9.18802E-05-1.06226E-05-3.49771E-05-5.94451E-06-1.41665E-18-3.59007E-18
 -1      1744 9.57185E-05-1.25260E-05-3.57672E-05-7.78102E-06-1.82451E-18-3.07780E-18
 -1      1745 1.00253E-04-1.59347E-05-3.63193E-05-9.07054E-06-1.96528E-18-2.25742E-18
 -1      1746 1.04212E-04-1.87384E-05-3.70672E-05-1.11653E-05-2.33408E-18-1.23677E-18
 -1      1747 1.00203E-04-1.79302E-05-3.52565E-05-6.27626E-06-1.96152E-18-2.40923E-18
 -1      1748 7.93293E-05-3.98146E-06-3.23742E-05-2.35643E-06-2.60932E-19-4.38749E-18
 -1      1749 8.17769E-05-4.88171E-06-3.29768E-05-3.02484E-06-5.54132E-19-4.35814E-18
 -1      1750 7.53917E-05-2.12032E-06-3.14570E-05-1.93812E-06 1.53339E-19-4.37454E-18
 -1      1751 7.70441E-05-2.67394E-06-3.18885E-05-2.21565E-06-3.63959E-20-4.44359E-18
 -1      1752 7.88920E-05-4.75671E-06-3.17845E-05-1.81464E-06-1.81649E-19-4.26874E-18
 -1      1753 7.34146E-05-1.29456E-06-3.09394E-05-2.03726E-06 6.28375E-19-4.17017E-18
 -1      1754 7.41122E-05-1.46938E-06-3.11548E-05-2.11682E-06 3.93950E-19-4.27705E-18
 -1      1755 7.51636E-05-2.82238E-06-3.10073E-05-1.85194E-06 2.96687E-19-4.22119E-18
 -1      1756 7.34542E-05-1.49989E-06-3.08497E-05-2.17266E-06 1.09612E-18-3.89464E-18
 -1      1757 7.32075E-05-1.31918E-06-3.08441E-05-2.28019E-06 9.13581E-19-4.09670E-18
 -1      1758 7.36429E-05-2.21306E-06-3.06162E-05-2.26448E-06 7.96946E-19-3.97750E-18
 -1      1759 7.52616E-05-2.56949E-06-3.11563E-05-1.88581E-06 1.48090E-18-3.56258E-18
 -1      1760 7.42220E-05-2.10961E-06-3.09533E-05-2.21693E-06 1.29730E-18-3.75765E-18
 -1      1761 7.42987E-05-2.86130E-06-3.06279E-05-2.52406E-06 1.25818E-18-3.73424E-18
 -1      1762 7.83614E-05-4.21676E-06-3.17806E-05-8.64733E-07 1.81963E-18-3.10103E-18
 -1      1763 7.67678E-05-3.58247E-06-3.14241E-05-1.54401E-06 1.65557E-18-3.38483E-18
 -1      1764 7.67631E-05-4.49117E-06-3.09989E-05-2.17211E-06 1.61185E-18-3.37393E-18
 -1      1765 8.21643E-05-6.12142E-06-3.26066E-05 9.65917E-07 2.19444E-18-2.40208E-18
 -1      1766 8.02884E-05-5.41820E-06-3.21562E-05-8.30268E-08 1.99807E-18-2.83333E-18
 -1      1767 8.04325E-05-6.69929E-06-3.16373E-05-9.76437E-07 1.99894E-18-2.84951E-18
 -1      1768 8.64358E-05-8.20815E-06-3.35662E-05 3.62219E-06 2.62777E-18-1.39316E-18
 -1      1769 8.43566E-05-7.43251E-06-3.30499E-05 2.17079E-06 2.37347E-18-1.95896E-18
 -1      1770 8.47773E-05-9.18326E-06-3.24434E-05 1.07095E-06 2.40818E-18-2.06149E-18
 -1      1771 9.10499E-05-1.05768E-05-3.45694E-05 6.94540E-06 2.95333E-18-1.70942E-19
 -1      1772 8.87882E-05-9.64634E-06-3.40241E-05 5.12627E-06 2.75452E-18-8.97802E-19
 -1      1773 8.95185E-05-1.18736E-05-3.33230E-05 3.80759E-06 2.80465E-18-1.02449E-18
 -1      1774 9.64170E-05-1.38319E-05-3.55482E-05 1.07338E-05 3.05857E-18 1.78952E-18
 -1      1775 9.37154E-05-1.24098E-05-3.49915E-05 8.55408E-06 2.95689E-18 6.31304E-19
 -1      1776 9.46570E-05-1.50115E-05-3.41673E-05 6.86866E-06 3.04423E-18 3.49983E-19
 -1      1777 1.03926E-04-1.97032E-05-3.63131E-05 1.39987E-05 2.68102E-18 4.93296E-18
 -1      1778 9.98422E-05-1.66470E-05-3.58396E-05 1.20366E-05 2.84458E-18 3.06472E-18
 -1      1779 1.00638E-04-1.93954E-05-3.48237E-05 9.53920E-06 2.99320E-18 2.42376E-18
 -1      1780 1.11148E-04-2.80998E-05-3.60364E-05 1.15853E-05 2.07158E-18 8.56562E-18
 -1      1781 1.06723E-04-2.23532E-05-3.61517E-05 1.36699E-05 2.39541E-18 6.26847E-18
 -1      1782 1.06074E-04-2.48837E-05-3.48398E-05 9.69933E-06 2.67238E-18 4.91141E-18
 -1      1783 1.08747E-04-2.93987E-05-3.42069E-05 6.68691E-06 2.14501E-18 7.86761E-18
 -1      1784 1.11747E-04-2.31823E-05-3.76717E-05-1.35319E-05-2.21121E-18 7.15637E-19
 -1      1785 1.06579E-04-3.09736E-05-3.24198E-05 1.97621E-06 1.44726E-18 6.68204E-18
 -1      1786 1.08197E-04-3.08191E-05-3.32152E-05 4.00716E-06 1.69264E-18 7.28956E-18
 -1      1787 1.07400E-04-2.89539E-05-3.36082E-05 5.80183E-06 2.05188E-18 5.55272E-18
 -1      1788 1.11039E-04-2.59454E-05-3.61970E-05-8.47053E-06-2.25258E-18 4.20340E-20
 -1      1789 1.11151E-04-3.11442E-05-3.41689E-05 4.10409E-07-1.66206E-18 7.52139E-20
 -1      1790 1.10957E-04-3.16820E-05-3.39305E-05 2.27335E-06-1.39377E-18-3.98542E-19
 -1      1791 1.11225E-04-3.22651E-05-3.37443E-05 3.91275E-06-1.26281E-18-3.20946E-19
 -1      1792 1.12128E-04-3.30093E-05-3.38849E-05 4.70575E-06-1.07768E-18-7.00609E-19
 -1      1793 1.08955E-04-3.05069E-05-3.36647E-05 3.30050E-06-1.59942E-18-9.41695E-19
 -1      1794 1.12986E-04-3.37285E-05-3.39088E-05 5.35213E-06-8.89682E-19-5.06049E-19
 -1      1795 1.14282E-04-3.46411E-05-3.41594E-05 5.29684E-06-6.61852E-19-6.76614E-19
 -1      1796 1.10293E-04-3.24557E-05-3.34034E-05 5.97266E-06-1.08689E-18-8.16004E-19
 -1      1797 1.15671E-04-3.56486E-05-3.42579E-05 4.86650E-06-3.25711E-19-4.73974E-19
 -1      1798 1.16847E-04-3.66525E-05-3.44503E-05 3.82440E-06-2.02050E-19-4.72314E-19
 -1      1799 1.12736E-04-3.48352E-05-3.34315E-05 6.37105E-06-5.37839E-19-4.91120E-19
 -1      1800 1.18587E-04-3.78824E-05-3.45599E-05 2.08478E-06-2.40465E-19-1.89107E-19
 -1      1801 1.19052E-04-3.86525E-05-3.45738E-05-4.66989E-08-2.52535E-19-7.07479E-20
 -1      1802 1.16066E-04-3.78084E-05-3.35788E-05 4.18766E-06-1.32524E-19-1.06051E-19
 -1      1803 1.20689E-04-3.96829E-05-3.47036E-05-3.11516E-06-2.87515E-19 2.41534E-19
 -1      1804 1.19845E-04-3.95830E-05-3.45016E-05-5.97103E-06-2.66405E-19 2.41636E-19
 -1      1805 1.19651E-04-4.07244E-05-3.38390E-05-8.96306E-07-1.48098E-19 4.89211E-19
 -1      1806 1.20508E-04-3.95372E-05-3.47468E-05-9.55946E-06-4.48200E-19 3.13190E-19
 -1      1807 1.18093E-04-3.78660E-05-3.44131E-05-1.18915E-05-4.75149E-19 8.01637E-20
 -1      1808 1.22082E-04-4.17699E-05-3.43834E-05-8.21200E-06-4.29816E-19 7.06882E-19
 -1      1809 1.16966E-04-3.59679E-05-3.48443E-05-1.38680E-05-7.88601E-19-1.71021E-19
 -1      1810 1.13610E-04-3.28876E-05-3.45445E-05-1.37631E-05-8.37821E-19-4.99352E-19
 -1      1811 1.21497E-04-3.87742E-05-3.54367E-05-1.46953E-05-8.12152E-19 3.72817E-19
 -1      1812 1.11211E-04-2.98306E-05-3.50469E-05-1.16951E-05-1.42497E-18-1.38896E-18
 -1      1813 1.08716E-04-2.71811E-05-3.49046E-05-8.10561E-06-2.00440E-18-2.05124E-18
 -1      1814 1.17449E-04-3.16293E-05-3.68644E-05-1.51107E-05-1.89436E-18-6.13206E-19
 -1      1815 1.07449E-04-2.56355E-05-3.51600E-05-2.43242E-06-2.27746E-18-2.83462E-18
 -1      1816 1.07508E-04-2.55979E-05-3.51924E-05 2.59068E-06-2.13357E-18-3.48690E-18
 -1      1817 1.13237E-04-2.50992E-05-3.79919E-05-6.56621E-06-2.70013E-18-1.82140E-18
 -1      1818 1.08784E-04-2.70726E-05-3.49955E-05 8.67332E-06-1.64420E-18-4.14178E-18
 -1      1819 1.11455E-04-2.97185E-05-3.51944E-05 1.23611E-05-8.94837E-19-4.50448E-18
 -1      1820 1.13219E-04-2.49811E-05-3.80580E-05 6.82184E-06-2.32320E-18-3.31801E-18
 -1      1821 1.13981E-04-3.28237E-05-3.47296E-05 1.46135E-05-6.20028E-19-4.46204E-18
 -1      1822 1.17574E-04-3.60242E-05-3.50843E-05 1.48385E-05-4.50886E-19-4.85248E-18
 -1      1823 1.17610E-04-3.14459E-05-3.70224E-05 1.60627E-05-9.65168E-19-4.64354E-18
 -1      1824 1.18880E-04-3.80501E-05-3.46718E-05 1.29195E-05-1.09929E-19-4.60665E-18
 -1      1825 1.21549E-04-3.98691E-05-3.50577E-05 1.05943E-05 1.57872E-19-4.49526E-18
 -1      1826 1.21988E-04-3.87725E-05-3.56346E-05 1.59188E-05-1.73470E-19-4.33457E-18
 -1      1827 1.20990E-04-4.00176E-05-3.48130E-05 6.91039E-06 1.62882E-19-4.09498E-18
 -1      1828 1.22025E-04-4.02408E-05-3.50504E-05 3.94274E-06 5.16425E-19-3.81625E-18
 -1      1829 1.22887E-04-4.21073E-05-3.45824E-05 9.35670E-06 4.08369E-19-3.87841E-18
 -1      1830 1.20364E-04-3.92524E-05-3.48902E-05 6.35195E-07 3.69412E-19-3.50138E-18
 -1      1831 1.19961E-04-3.85483E-05-3.48788E-05-1.69781E-06 5.97833E-19-3.54409E-18
 -1      1832 1.20560E-04-4.12742E-05-3.39815E-05 1.64979E-06 8.03060E-19-3.24630E-18
 -1      1833 1.18037E-04-3.73081E-05-3.46961E-05-3.79098E-06 5.18424E-19-3.35454E-18
 -1      1834 1.16727E-04-3.63214E-05-3.44515E-05-5.12844E-06 4.20089E-19-2.95971E-18
 -1      1835 1.16796E-04-3.84628E-05-3.35951E-05-4.11754E-06 5.47680E-19-2.55029E-18
 -1      1836 1.14952E-04-3.52702E-05-3.42037E-05-6.07074E-06 2.77304E-19-2.57197E-18
 -1      1837 1.13229E-04-3.43357E-05-3.38078E-05-6.57179E-06 2.99161E-19-2.53213E-18
 -1      1838 1.12943E-04-3.55301E-05-3.32039E-05-7.29032E-06 6.82126E-19-2.21063E-18
 -1      1839 1.11710E-04-3.35685E-05-3.35065E-05-6.72455E-06-2.57705E-19-2.25234E-18
 -1      1840 1.09913E-04-3.27952E-05-3.30484E-05-6.69138E-06-2.62373E-19-2.20068E-18
 -1      1841 1.09544E-04-3.32353E-05-3.27257E-05-8.39146E-06 2.85400E-19-1.27256E-18
 -1      1842 1.08640E-04-3.22651E-05-3.27251E-05-6.40394E-06-4.91039E-19-2.20801E-18
 -1      1843 1.06966E-04-3.16591E-05-3.22713E-05-6.09693E-06-3.74135E-19-2.01663E-18
 -1      1844 1.06690E-04-3.16544E-05-3.21750E-05-8.19050E-06-4.93287E-19-1.17608E-18
 -1      1845 1.05904E-04-3.12941E-05-3.19557E-05-5.61553E-06-3.27580E-20-1.82557E-18
 -1      1846 1.04444E-04-3.08294E-05-3.15447E-05-5.20687E-06 3.20865E-19-1.67339E-18
 -1      1847 1.04325E-04-3.06223E-05-3.16006E-05-7.31910E-06-5.76082E-20-6.91806E-19
 -1      1848 1.03563E-04-3.05723E-05-3.12571E-05-4.67843E-06-8.33848E-20-1.98652E-18
 -1      1849 1.02344E-04-3.02190E-05-3.09055E-05-4.26435E-06-3.06778E-19-1.91697E-18
 -1      1850 1.02375E-04-2.99551E-05-3.10487E-05-6.19383E-06 1.13683E-19-7.70859E-19
 -1      1851 1.01620E-04-3.00328E-05-3.06558E-05-3.76530E-06-4.52200E-19-2.47201E-18
 -1      1852 1.00634E-04-2.97657E-05-3.03666E-05-3.39146E-06-5.39471E-19-2.20178E-18
 -1      1853 1.00776E-04-2.95164E-05-3.05498E-05-5.05263E-06-4.72568E-19-7.10608E-19
 -1      1854 1.00047E-04-2.96275E-05-3.01575E-05-2.95493E-06-4.62885E-19-2.91913E-18
 -1      1855 9.92678E-05-2.94267E-05-2.99264E-05-2.63783E-06-5.26651E-19-2.80473E-18
 -1      1856 9.94759E-05-2.92196E-05-3.01188E-05-4.01319E-06-8.23946E-19-1.17884E-18
 -1      1857 9.87976E-05-2.93229E-05-2.97561E-05-2.27305E-06-4.73467E-19-2.79142E-18
 -1      1858 9.81942E-05-2.91732E-05-2.95754E-05-2.01417E-06 4.38737E-21-2.93529E-18
 -1      1859 9.84321E-05-2.90129E-05-2.97590E-05-3.12156E-06-6.82064E-19-1.30087E-18
 -1      1860 9.78235E-05-2.90950E-05-2.94398E-05-1.71840E-06-2.42397E-19-3.15468E-18
 -1      1861 9.73641E-05-2.89846E-05-2.93011E-05-1.51243E-06-2.36981E-19-4.20031E-18
 -1      1862 9.76051E-05-2.88662E-05-2.94664E-05-2.38511E-06-3.01691E-19-1.87169E-18
 -1      1863 9.70764E-05-2.89260E-05-2.91951E-05-1.27780E-06-5.28238E-20-4.00999E-18
 -1      1864 9.67323E-05-2.88458E-05-2.90905E-05-1.11704E-06 2.89708E-19-3.93143E-18
 -1      1865 9.69594E-05-2.87612E-05-2.92336E-05-1.79254E-06-1.88088E-19-2.35272E-18
 -1      1866 9.65125E-05-2.88023E-05-2.90091E-05-9.34111E-07 4.72037E-19-4.11159E-18
 -1      1867 9.62591E-05-2.87451E-05-2.89315E-05-8.10615E-07 3.08621E-20-4.00071E-18
 -1      1868 9.64628E-05-2.86864E-05-2.90518E-05-1.32507E-06 3.80821E-19-2.03846E-18
 -1      1869 9.60939E-05-2.87134E-05-2.88701E-05-6.70135E-07-2.74215E-19-3.17115E-18
 -1      1870 9.59108E-05-2.86734E-05-2.88135E-05-5.76626E-07-1.24539E-19-2.96609E-18
 -1      1871 9.60868E-05-2.86338E-05-2.89124E-05-9.62294E-07 3.73544E-19-1.01039E-18
 -1      1872 9.57888E-05-2.86509E-05-2.87679E-05-4.70290E-07-2.56939E-20-3.06168E-18
 -1      1873 9.56592E-05-2.86238E-05-2.87274E-05-4.00502E-07 3.02105E-19-2.84319E-18
 -1      1874 9.58071E-05-2.85978E-05-2.88071E-05-6.84903E-07-1.29552E-19-1.90630E-19
 -1      1875 9.55709E-05-2.86082E-05-2.86942E-05-3.21189E-07-3.84509E-20-3.54719E-18
 -1      1876 9.54815E-05-2.85905E-05-2.86660E-05-2.69901E-07 2.55475E-19-3.45717E-18
 -1      1877 9.56029E-05-2.85741E-05-2.87291E-05-4.75864E-07 3.71714E-21-7.15235E-19
 -1      1878 9.54190E-05-2.85800E-05-2.86423E-05-2.11680E-07 8.82618E-20-3.87025E-18
 -1      1879 9.53593E-05-2.85692E-05-2.86232E-05-1.74638E-07-3.52567E-19-3.60928E-18
 -1      1880 9.54569E-05-2.85594E-05-2.86723E-05-3.20707E-07-5.15290E-20-1.86836E-18
 -1      1881 9.53164E-05-2.85625E-05-2.86066E-05-1.32664E-07-9.67750E-19-3.50376E-18
 -1      1882 9.52783E-05-2.85564E-05-2.85942E-05-1.06449E-07-5.07743E-19-3.12488E-18
 -1      1883 9.53552E-05-2.85511E-05-2.86318E-05-2.07448E-07-5.67935E-19-1.54620E-18
 -1      1884 9.52499E-05-2.85525E-05-2.85831E-05-7.68250E-08 1.62476E-19-2.88112E-18
 -1      1885 9.52272E-05-2.85497E-05-2.85754E-05-5.87295E-08 4.39443E-19-2.81777E-18
 -1      1886 9.52867E-05-2.85473E-05-2.86037E-05-1.26337E-07-4.43141E-20-1.06120E-18
 -1      1887 9.52092E-05-2.85477E-05-2.85682E-05-3.83578E-08 6.49277E-19-2.94555E-18
 -1      1888 9.51973E-05-2.85470E-05-2.85639E-05-2.62582E-08 1.00837E-18-2.41854E-18
 -1      1889 9.52424E-05-2.85464E-05-2.85848E-05-6.95551E-08 8.70980E-19-1.10170E-18
 -1      1890 9.51868E-05-2.85464E-05-2.85595E-05-1.27094E-08 9.32791E-19-3.99351E-18
 -1      1891 9.51820E-05-2.85470E-05-2.85575E-05-4.96066E-09 6.61006E-19-3.24097E-18
 -1      1892 9.52156E-05-2.85475E-05-2.85726E-05-3.09104E-08 5.08635E-19-1.46091E-18
 -1      1893 9.51768E-05-2.85472E-05-2.85551E-05 3.64821E-09 4.21745E-19-3.71000E-18
 -1      1894 9.51767E-05-2.85486E-05-2.85546E-05 8.30450E-09-1.71904E-19-3.23302E-18
 -1      1895 9.52011E-05-2.85497E-05-2.85653E-05-5.56283E-09 8.34990E-19-3.97951E-18
 -1      1896 9.51749E-05-2.85493E-05-2.85536E-05 1.34130E-08-4.29972E-19-2.56392E-18
 -1      1897 9.51777E-05-2.85511E-05-2.85541E-05 1.59261E-08-1.85498E-19-2.16674E-18
 -1      1898 9.51948E-05-2.85524E-05-2.85613E-05 1.02231E-08 1.75647E-19-3.76804E-18
 -1      1899 9.51782E-05-2.85520E-05-2.85539E-05 1.86179E-08 7.17564E-19-1.99776E-18
 -1      1900 9.51825E-05-2.85540E-05-2.85550E-05 1.96918E-08 1.20266E-18-1.31644E-18
 -1      1901 9.51941E-05-2.85553E-05-2.85597E-05 1.92890E-08 4.02886E-19-2.78903E-18
 -1      1902 9.51844E-05-2.85550E-05-2.85554E-05 2.07672E-08 4.11108E-19-1.38965E-18
 -1      1903 9.51895E-05-2.85570E-05-2.85567E-05 2.09122E-08 2.13117E-19-1.52844E-18
 -1      1904 9.51968E-05-2.85581E-05-2.85595E-05 2.37603E-08 9.77368E-19-2.19977E-18
 -1      1905 9.51920E-05-2.85580E-05-2.85574E-05 2.09479E-08-8.77293E-19-9.32390E-19
 -1      1906 9.51973E-05-2.85599E-05-2.85588E-05 2.05218E-08-1.15141E-18-1.71754E-18
 -1      1907 9.52014E-05-2.85608E-05-2.85603E-05 2.51935E-08-2.63395E-19-1.94973E-18
 -1      1908 9.52002E-05-2.85609E-05-2.85597E-05 1.99174E-08-8.95888E-19-6.86758E-19
 -1      1909 9.52053E-05-2.85626E-05-2.85611E-05 1.91580E-08-9.15862E-19-4.84344E-19
 -1      1910 9.52070E-05-2.85633E-05-2.85616E-05 2.46942E-08-6.49869E-19-2.46961E-21
 -1      1911 9.52081E-05-2.85635E-05-2.85620E-05 1.81728E-08-2.90602E-19-1.00992E-18
 -1      1912 9.52128E-05-2.85650E-05-2.85633E-05 1.72208E-08 4.32020E-19-9.70572E-19
 -1      1913 9.52128E-05-2.85654E-05-2.85632E-05 2.30120E-08-4.91110E-19 8.66670E-19
 -1      1914 9.52155E-05-2.85659E-05-2.85642E-05 1.60017E-08 2.15797E-19-1.27398E-18
 -1      1915 9.52197E-05-2.85672E-05-2.85654E-05 1.49172E-08 5.95557E-19-8.21662E-19
 -1      1916 9.52185E-05-2.85674E-05-2.85648E-05 2.06129E-08 2.09806E-19 5.00236E-19
 -1      1917 9.52222E-05-2.85680E-05-2.85661E-05 1.35209E-08 3.06257E-19-1.23616E-18
 -1      1918 9.52256E-05-2.85692E-05-2.85671E-05 1.22963E-08 8.31548E-20-1.58666E-18
 -1      1919 9.52238E-05-2.85692E-05-2.85662E-05 1.77369E-08-3.52892E-19 8.24177E-19
 -1      1920 9.52278E-05-2.85699E-05-2.85677E-05 1.07108E-08 1.62299E-19-1.49542E-18
 -1      1921 9.52306E-05-2.85709E-05-2.85685E-05 9.29460E-09-2.80247E-19-8.68587E-19
 -1      1922 9.52284E-05-2.85709E-05-2.85675E-05 1.44588E-08 1.98780E-20-2.17328E-19
 -1      1923 9.52324E-05-2.85716E-05-2.85690E-05 7.48642E-09-9.11574E-19-5.20347E-19
 -1      1924 9.52344E-05-2.85724E-05-2.85695E-05 5.89638E-09-8.91232E-19-2.90700E-19
 -1      1925 9.52324E-05-2.85725E-05-2.85685E-05 1.07418E-08-5.76791E-19-2.85634E-19
 -1      1926 9.52360E-05-2.85727E-05-2.85700E-05 3.45297E-09-3.46326E-19 2.16287E-19
 -1      1927 1.05120E-04-3.17184E-05-3.14565E-05 3.06521E-07 8.13152E-19 4.75323E-18
 -1      1928 1.05352E-04-3.15080E-05-3.15993E-05 3.34365E-07 8.67102E-19 5.11879E-18
 -1      1929 1.04684E-04-3.20283E-05-3.11599E-05 1.01815E-06 5.37892E-19 4.52709E-18
 -1      1930 1.05014E-04-3.19363E-05-3.12890E-05 5.68919E-07 6.26756E-19 4.71163E-18
 -1      1931 1.05348E-04-3.20698E-05-3.14128E-05 7.44834E-07 8.87509E-19 3.10016E-18
 -1      1932 1.03865E-04-3.20370E-05-3.08138E-05 2.51973E-06 7.27906E-19 4.16643E-18
 -1      1933 1.04546E-04-3.21501E-05-3.10185E-05 1.78331E-06 6.90391E-19 4.48419E-18
 -1      1934 1.05232E-04-3.26593E-05-3.10968E-05 1.81364E-06 7.99277E-19 3.07512E-18
 -1      1935 1.02310E-04-3.15375E-05-3.03523E-05 4.32410E-06 5.07240E-19 3.91760E-18
 -1      1936 1.03481E-04-3.19558E-05-3.06583E-05 3.54043E-06 5.38111E-19 4.11955E-18
 -1      1937 1.04794E-04-3.28125E-05-3.08292E-05 3.77953E-06 7.76944E-19 2.96218E-18
 -1      1938 9.99377E-05-3.04025E-05-2.97981E-05 5.70937E-06 4.50828E-19 3.71154E-18
 -1      1939 1.01536E-04-3.11462E-05-3.01786E-05 5.21066E-06 4.22329E-19 3.93167E-18
 -1      1940 1.03641E-04-3.22419E-05-3.05713E-05 5.93933E-06 5.42099E-19 2.89126E-18
 -1      1941 9.70801E-05-2.87645E-05-2.92464E-05 5.85449E-06 3.70359E-19 3.56619E-18
 -1      1942 9.88045E-05-2.96975E-05-2.96275E-05 5.97946E-06 3.35007E-19 3.69931E-18
 -1      1943 1.01639E-04-3.08093E-05-3.03343E-05 7.31835E-06 4.46025E-19 2.83425E-18
 -1      1944 9.45056E-05-2.71191E-05-2.88297E-05 4.22801E-06 9.17787E-19 3.31163E-18
 -1      1945 9.58708E-05-2.79369E-05-2.91121E-05 5.13203E-06 6.95060E-19 3.47984E-18
 -1      1946 9.91166E-05-2.87740E-05-3.01506E-05 6.91772E-06 6.64021E-19 2.73067E-18
 -1      1947 9.31694E-05-2.61749E-05-2.86645E-05 1.03774E-06 1.02198E-18 2.86281E-18
 -1      1948 9.36957E-05-2.65270E-05-2.87619E-05 2.52411E-06 1.09786E-18 3.17500E-18
 -1      1949 9.69015E-05-2.68768E-05-3.00477E-05 4.26953E-06 1.16265E-18 2.30696E-18
 -1      1950 9.37059E-05-2.64328E-05-2.88036E-05-2.67993E-06 9.31624E-19 1.62196E-18
 -1      1951 9.31634E-05-2.61379E-05-2.86789E-05-1.12543E-06 9.78740E-19 2.24881E-18
 -1      1952 9.59735E-05-2.60237E-05-3.00347E-05-5.75560E-08 1.35474E-18 1.44585E-18
 -1      1953 9.59941E-05-2.78038E-05-2.92183E-05-5.56767E-06 3.39713E-19 1.00178E-18
 -1      1954 9.45403E-05-2.69858E-05-2.88991E-05-4.50000E-06 5.73177E-19 1.34432E-18
 -1      1955 9.68356E-05-2.66900E-05-3.01078E-05-4.54561E-06 1.04630E-18 4.07120E-19
 -1      1956 9.92061E-05-2.96662E-05-2.98101E-05-6.74227E-06 3.15842E-20 1.32865E-18
 -1      1957 9.72924E-05-2.86570E-05-2.93788E-05-6.44055E-06 1.34351E-19 1.10269E-18
 -1      1958 9.91179E-05-2.85343E-05-3.02612E-05-7.56146E-06 1.59868E-19 9.96256E-21
 -1      1959 1.02324E-04-3.13260E-05-3.04400E-05-6.16242E-06 1.92372E-19 1.42867E-18
 -1      1960 1.00469E-04-3.04527E-05-3.00019E-05-6.55601E-06 3.15798E-19 1.75244E-18
 -1      1961 1.01863E-04-3.06986E-05-3.04805E-05-8.30998E-06-1.23410E-19 4.68657E-19
 -1      1962 1.04611E-04-3.23637E-05-3.09746E-05-4.43055E-06 3.94420E-19 7.38146E-19
 -1      1963 1.03195E-04-3.18070E-05-3.06200E-05-5.22520E-06 3.82760E-19 1.35268E-18
 -1      1964 1.04136E-04-3.23721E-05-3.07249E-05-7.04137E-06 4.39617E-19 1.81234E-19
 -1      1965 1.05796E-04-3.27267E-05-3.13249E-05-2.32249E-06 4.18345E-19 8.00232E-19
 -1      1966 1.04982E-04-3.25034E-05-3.11045E-05-3.20239E-06 5.87980E-19 1.05696E-18
 -1      1967 1.05441E-04-3.31846E-05-3.09374E-05-4.64136E-06 3.99710E-19 3.42135E-19
 -1      1968 1.05971E-04-3.25814E-05-3.14603E-05-4.22792E-07 6.46998E-19 6.99546E-19
 -1      1969 1.05736E-04-3.26148E-05-3.13827E-05-1.17391E-06 5.34372E-19 7.78267E-19
 -1      1970 1.05750E-04-3.32122E-05-3.10659E-05-2.03296E-06 5.90147E-19 9.48323E-20
 -1      1971 1.05394E-04-3.21429E-05-3.13994E-05 9.82277E-07-3.24840E-19 1.00575E-18
 -1      1972 1.05612E-04-3.23342E-05-3.14430E-05 4.51286E-07 1.75448E-19 1.11100E-18
 -1      1973 1.05291E-04-3.27387E-05-3.10814E-05 1.73551E-07 2.47439E-19 6.27901E-19
 -1      1974 1.04351E-04-3.15845E-05-3.11896E-05 1.84384E-06-1.22173E-19 1.35875E-18
 -1      1975 1.04865E-04-3.18505E-05-3.13187E-05 1.53556E-06-2.73858E-19 1.44170E-18
 -1      1976 1.04351E-04-3.20457E-05-3.09826E-05 1.72532E-06-3.33178E-19 9.37340E-19
 -1      1977 1.03081E-04-3.10162E-05-3.08871E-05 2.24419E-06-1.15076E-18 1.50528E-18
 -1      1978 1.03750E-04-3.13002E-05-3.10649E-05 2.11634E-06-5.59000E-19 1.36498E-18
 -1      1979 1.03172E-04-3.13260E-05-3.07907E-05 2.62138E-06-2.38806E-19 1.48064E-18
 -1      1980 1.01761E-04-3.04960E-05-3.05425E-05 2.31066E-06 6.32247E-19 1.00347E-18
 -1      1981 1.02476E-04-3.07647E-05-3.07387E-05 2.30865E-06-2.36047E-19 8.13512E-19
 -1      1982 1.01928E-04-3.06792E-05-3.05374E-05 2.98612E-06-3.79924E-20 6.24765E-19
 -1      1983 1.00505E-04-3.00483E-05-3.01947E-05 2.16606E-06 6.98199E-19 9.89678E-19
 -1      1984 1.01193E-04-3.02852E-05-3.03876E-05 2.24044E-06 7.30038E-19 1.11144E-18
 -1      1985 1.00727E-04-3.01416E-05-3.02551E-05 2.97805E-06 5.05777E-19 5.85966E-19
 -1      1986 9.93787E-05-2.96782E-05-2.98696E-05 1.90819E-06-5.92716E-20 2.42508E-19
 -1      1987 9.99972E-05-2.98772E-05-3.00458E-05 2.02108E-06 5.42849E-19 6.73758E-19
 -1      1988 9.96344E-05-2.97151E-05-2.99704E-05 2.74145E-06 5.71423E-19 1.09005E-18
 -1      1989 9.84113E-05-2.93813E-05-2.95817E-05 1.60602E-06 7.11460E-19 1.37616E-19
 -1      1990 9.89410E-05-2.95426E-05-2.97345E-05 1.73151E-06 1.69061E-19-5.01437E-20
 -1      1991 9.86803E-05-2.93869E-05-2.97024E-05 2.38793E-06 3.47756E-19 8.59789E-19
 -1      1992 9.76087E-05-2.91487E-05-2.93372E-05 1.30352E-06 8.37173E-20-2.31599E-19
 -1      1993 9.80454E-05-2.92757E-05-2.94645E-05 1.42564E-06 6.44375E-19-8.06642E-20
 -1      1994 9.78741E-05-2.91395E-05-2.94628E-05 1.99487E-06 6.40605E-19 5.82106E-19
 -1      1995 9.69621E-05-2.89706E-05-2.91364E-05 1.02577E-06 2.53418E-19-4.34691E-19
 -1      1996 9.73109E-05-2.90679E-05-2.92391E-05 1.13581E-06-1.20162E-19-2.26285E-19
 -1      1997 9.72113E-05-2.89564E-05-2.92568E-05 1.61084E-06 5.36453E-19-1.37769E-19
 -1      1998 9.64547E-05-2.88371E-05-2.89764E-05 7.84785E-07 2.70708E-19-1.49007E-19
 -1      1999 9.67253E-05-2.89098E-05-2.90567E-05 8.78922E-07 5.86852E-19 2.71353E-19
 -1      2000 9.66797E-05-2.88231E-05-2.90856E-05 1.26295E-06 4.46479E-20-5.80407E-20
 -1      2001 9.60661E-05-2.87393E-05-2.88521E-05 5.84193E-07 2.48963E-19 4.49992E-19
 -1      2002 9.62706E-05-2.87921E-05-2.89133E-05 6.61645E-07 1.33379E-19 1.93670E-19
 -1      2003 9.62629E-05-2.87277E-05-2.89472E-05 9.63574E-07 1.17255E-19 5.41540E-19
 -1      2004 9.57759E-05-2.86693E-05-2.87580E-05 4.22662E-07-1.09392E-18 1.41647E-18
 -1      2005 9.59263E-05-2.87067E-05-2.88034E-05 4.84397E-07-2.77398E-19 1.12243E-18
 -1      2006 9.59432E-05-2.86610E-05-2.88383E-05 7.15704E-07-5.18591E-19 1.12146E-18
 -1      2007 9.55646E-05-2.86208E-05-2.86886E-05 2.96231E-07-3.79424E-19 1.85751E-18
 -1      2008 9.56720E-05-2.86463E-05-2.87214E-05 3.44092E-07-6.15957E-19 1.28212E-18
 -1      2009 9.57035E-05-2.86155E-05-2.87545E-05 5.16829E-07-6.05703E-19 1.31798E-18
 -1      2010 9.54152E-05-2.85883E-05-2.86388E-05 1.99822E-07 2.32189E-19 1.18199E-18
 -1      2011 9.54894E-05-2.86049E-05-2.86617E-05 2.35975E-07 1.21349E-19 1.39167E-18
 -1      2012 9.55280E-05-2.85855E-05-2.86916E-05 3.61576E-07-1.19961E-19 8.39795E-19
 -1      2013 9.53132E-05-2.85676E-05-2.86042E-05 1.28157E-07-8.58224E-19 1.70032E-18
 -1      2014 9.53623E-05-2.85778E-05-2.86196E-05 1.54768E-07-2.59485E-19 1.37177E-18
 -1      2015 9.54029E-05-2.85667E-05-2.86456E-05 2.43421E-07-3.33617E-19 1.58207E-18
 -1      2016 9.52466E-05-2.85553E-05-2.85812E-05 7.62816E-08 9.97867E-20 1.85350E-18
 -1      2017 9.52772E-05-2.85610E-05-2.85910E-05 9.53365E-08-2.07974E-19 1.52875E-18
 -1      2018 9.53165E-05-2.85558E-05-2.86129E-05 1.55731E-07-2.63935E-19 1.66526E-18
 -1      2019 9.52057E-05-2.85490E-05-2.85666E-05 3.98203E-08 1.38087E-18 1.47685E-18
 -1      2020 9.52232E-05-2.85515E-05-2.85724E-05 5.30447E-08 8.90814E-19 1.51945E-18
 -1      2021 9.52592E-05-2.85503E-05-2.85904E-05 9.23398E-08 5.70791E-19 2.78917E-18
 -1      2022 9.51832E-05-2.85467E-05-2.85581E-05 1.50716E-08-5.65831E-19 1.80683E-18
 -1      2023 9.51915E-05-2.85471E-05-2.85611E-05 2.39068E-08 9.53012E-19 1.54827E-18
 -1      2024 9.52232E-05-2.85483E-05-2.85756E-05 4.78395E-08 9.43463E-19 2.44969E-18
 -1      2025 9.51733E-05-2.85469E-05-2.85539E-05-9.93120E-10-3.42958E-19 8.23068E-19
 -1      2026 9.51755E-05-2.85461E-05-2.85549E-05 4.61961E-09-6.11053E-19 1.32604E-18
 -1      2027 9.52025E-05-2.85487E-05-2.85664E-05 1.76723E-08-2.00987E-19 1.58997E-18
 -1      2028 9.51717E-05-2.85487E-05-2.85525E-05-1.07843E-08 7.08373E-20 2.41013E-19
 -1      2029 9.51700E-05-2.85471E-05-2.85523E-05-7.47417E-09-3.24350E-19 7.38319E-19
 -1      2030 9.51924E-05-2.85504E-05-2.85612E-05-1.88106E-09-9.31504E-20 1.02799E-18
 -1      2031 9.51754E-05-2.85513E-05-2.85530E-05-1.61723E-08-2.61631E-19-8.28163E-19
 -1      2032 9.51714E-05-2.85494E-05-2.85521E-05-1.44575E-08 3.64671E-19-4.41403E-19
 -1      2033 9.51894E-05-2.85528E-05-2.85588E-05-1.37743E-08 7.49514E-19 6.24002E-19
 -1      2034 9.51820E-05-2.85543E-05-2.85546E-05-1.85714E-08 1.33778E-19-1.12309E-18
 -1      2035 9.51769E-05-2.85523E-05-2.85533E-05-1.79226E-08-7.75200E-19-2.00558E-18
 -1      2036 9.51910E-05-2.85556E-05-2.85582E-05-2.02944E-08 2.57940E-19-1.18414E-18
 -1      2037 9.51902E-05-2.85574E-05-2.85569E-05-1.90215E-08 1.06299E-18-1.02335E-19
 -1      2038 9.51846E-05-2.85554E-05-2.85553E-05-1.90541E-08 7.94834E-19-3.66411E-19
 -1      2039 9.51954E-05-2.85583E-05-2.85588E-05-2.31674E-08 7.03306E-20-1.29706E-18
 -1      2040 9.51988E-05-2.85603E-05-2.85593E-05-1.82581E-08-1.19299E-18-3.58219E-19
 -1      2041 9.51932E-05-2.85584E-05-2.85578E-05-1.87049E-08-1.03789E-19-7.83392E-19
 -1      2042 9.52012E-05-2.85610E-05-2.85601E-05-2.36573E-08-1.02043E-20-5.07778E-19
 -1      2043 9.52072E-05-2.85630E-05-2.85618E-05-1.67712E-08 3.94244E-19-9.43157E-19
 -1      2044 9.52019E-05-2.85613E-05-2.85603E-05-1.74601E-08-3.13655E-19-2.26423E-19
 -1      2045 9.52075E-05-2.85634E-05-2.85618E-05-2.26533E-08-6.93496E-19-5.92955E-19
 -1      2046 9.52149E-05-2.85655E-05-2.85641E-05-1.48502E-08 3.13934E-19-5.94213E-19
 -1      2047 9.52102E-05-2.85640E-05-2.85627E-05-1.56883E-08-4.42683E-20-9.21783E-19
 -1      2048 9.52139E-05-2.85656E-05-2.85635E-05-2.07416E-08 1.30227E-19-1.00322E-18
 -1      2049 9.52218E-05-2.85677E-05-2.85661E-05-1.26175E-08-3.64653E-19 1.13764E-19
 -1      2050 9.52178E-05-2.85664E-05-2.85650E-05-1.35799E-08 4.32868E-19-2.02361E-19
 -1      2051 9.52199E-05-2.85676E-05-2.85652E-05-1.82632E-08-5.43978E-21 5.33793E-19
 -1      2052 9.52277E-05-2.85696E-05-2.85678E-05-1.00614E-08-5.15979E-20-3.73397E-19
 -1      2053 9.52243E-05-2.85685E-05-2.85669E-05-1.11809E-08-1.15899E-19-2.39971E-19
 -1      2054 9.52252E-05-2.85694E-05-2.85668E-05-1.53628E-08-4.61919E-19 2.50018E-19
 -1      2055 9.52323E-05-2.85713E-05-2.85691E-05-7.08251E-09 7.94198E-20 2.37537E-19
 -1      2056 9.52298E-05-2.85704E-05-2.85684E-05-8.43098E-09-6.77840E-20-5.66210E-19
 -1      2057 9.52299E-05-2.85711E-05-2.85680E-05-1.20751E-08 2.72699E-19-2.91593E-19
 -1      2058 9.52354E-05-2.85723E-05-2.85699E-05-3.95855E-09-6.27175E-19-9.33787E-19
 -1      2059 9.52337E-05-2.85717E-05-2.85695E-05-5.40507E-09 2.01762E-19-1.30966E-19
 -1      2060 9.52334E-05-2.85724E-05-2.85690E-05-8.51076E-09-8.17825E-20-1.29345E-18
 -1      2061 9.52358E-05-2.85732E-05-2.85697E-05-4.89643E-09-8.88613E-19-2.25018E-18
 -1      2062 9.52413E-05-2.85847E-05-2.85671E-05-9.59184E-09-1.35873E-18 1.44502E-18
 -1      2063 9.52402E-05-2.85822E-05-2.85677E-05-9.51279E-09-9.52597E-19 1.31126E-18
 -1      2064 9.52391E-05-2.85801E-05-2.85681E-05-9.04836E-09 4.17754E-19 2.09995E-18
 -1      2065 9.52380E-05-2.85777E-05-2.85687E-05-8.35077E-09 4.52603E-19 2.08270E-18
 -1      2066 9.52392E-05-2.85806E-05-2.85680E-05-1.17345E-08-2.73022E-19 8.71944E-19
 -1      2067 9.52366E-05-2.85750E-05-2.85693E-05-6.29631E-09-3.78653E-19-1.29064E-18
 -1      2068 9.52433E-05-2.85890E-05-2.85661E-05-8.77753E-09-1.46986E-18-3.80472E-18
 -1      2069 9.52423E-05-2.85867E-05-2.85667E-05-9.27366E-09-1.80725E-18 4.12409E-20
 -1      2070 9.52416E-05-2.85848E-05-2.85673E-05-1.18441E-08-1.13085E-18-7.61259E-20
 -1      2071 9.52448E-05-2.85926E-05-2.85652E-05-6.84023E-09 8.57271E-19 2.10647E-19
 -1      2072 9.52440E-05-2.85907E-05-2.85657E-05-7.80228E-09-2.40775E-19-1.84458E-18
 -1      2073 9.52437E-05-2.85885E-05-2.85666E-05-1.03815E-08 3.46397E-20-1.46162E-18
 -1      2074 9.52459E-05-2.85950E-05-2.85646E-05-4.10452E-09 1.23963E-18 7.16346E-19
 -1      2075 9.52454E-05-2.85938E-05-2.85649E-05-5.37839E-09 1.08996E-18 4.91210E-19
 -1      2076 9.52453E-05-2.85915E-05-2.85660E-05-7.64413E-09 9.83211E-19 1.53984E-19
 -1      2077 9.52464E-05-2.85961E-05-2.85643E-05-9.15469E-10-4.46482E-19-1.55430E-19
 -1      2078 9.52462E-05-2.85957E-05-2.85645E-05-2.34605E-09 6.35889E-20-5.41613E-19
 -1      2079 9.52463E-05-2.85934E-05-2.85656E-05-4.03487E-09 1.02590E-18-7.37146E-19
 -1      2080 9.52462E-05-2.85957E-05-2.85645E-05 2.37345E-09-2.11991E-18-8.82140E-19
 -1      2081 9.52464E-05-2.85961E-05-2.85643E-05 9.42645E-10-1.04359E-18 2.03471E-19
 -1      2082 9.52467E-05-2.85940E-05-2.85655E-05 1.59633E-11-2.17272E-18-5.66693E-19
 -1      2083 9.52454E-05-2.85938E-05-2.85649E-05 5.40654E-09-2.58482E-18-3.69196E-18
 -1      2084 9.52459E-05-2.85950E-05-2.85646E-05 4.13297E-09-2.36687E-18-2.55840E-18
 -1      2085 9.52463E-05-2.85934E-05-2.85656E-05 4.06801E-09-2.64995E-18-2.61910E-18
 -1      2086 9.52441E-05-2.85907E-05-2.85657E-05 7.79643E-09-1.49397E-18 4.87810E-19
 -1      2087 9.52448E-05-2.85926E-05-2.85652E-05 6.84812E-09-2.40224E-18-1.08095E-18
 -1      2088 9.52453E-05-2.85915E-05-2.85660E-05 7.65419E-09-1.41734E-18-2.34505E-18
 -1      2089 9.52423E-05-2.85867E-05-2.85667E-05 9.28580E-09 5.41736E-20 5.76443E-18
 -1      2090 9.52433E-05-2.85890E-05-2.85661E-05 8.78058E-09-1.35810E-18 3.26674E-18
 -1      2091 9.52437E-05-2.85885E-05-2.85665E-05 1.03791E-08-5.99132E-19 1.91689E-18
 -1      2092 9.52401E-05-2.85822E-05-2.85677E-05 9.52555E-09-4.31944E-20 3.20086E-18
 -1      2093 9.52413E-05-2.85847E-05-2.85671E-05 9.61182E-09 1.77237E-19 2.76724E-18
 -1      2094 9.52416E-05-2.85848E-05-2.85672E-05 1.18564E-08-1.04245E-18 4.86215E-18
 -1      2095 9.52380E-05-2.85778E-05-2.85687E-05 8.32443E-09-7.91174E-19 1.24322E-18
 -1      2096 9.52391E-05-2.85801E-05-2.85681E-05 9.04473E-09-9.44948E-19 1.81218E-18
 -1      2097 9.52392E-05-2.85806E-05-2.85680E-05 1.17214E-08-1.16925E-18 1.81878E-18
 -1      2098 1.05599E-04-3.13659E-05-3.17885E-05 5.62136E-07 1.08981E-18 5.56514E-18
 -1      2099 1.06164E-04-3.11528E-05-3.20972E-05 1.27906E-06 1.24863E-18 6.13818E-18
 -1      2100 1.06114E-04-3.05573E-05-3.23801E-05 2.18932E-06 1.55337E-18 4.61163E-18
 -1      2101 1.05521E-04-3.12894E-05-3.18179E-05 9.00451E-07 1.30186E-18 3.61982E-18
 -1      2102 5.58881E-05-3.88699E-05-7.99053E-06 4.01480E-05 3.46013E-18 3.64841E-18
 -1      2103 4.20772E-05-4.04006E-05-2.03004E-06 3.37088E-05 2.63343E-18 3.89889E-18
 -1      2104 1.33859E-04-4.10843E-05-3.89682E-05 3.62518E-05 4.38594E-18 1.46833E-18
 -1      2105 1.16399E-04-4.50426E-05-3.07744E-05 3.53861E-05 3.70450E-18 1.53991E-18
 -1      2106 1.20158E-05-3.61075E-05 8.70573E-06 6.64919E-06 1.95760E-18 3.91117E-18
 -1      2107 1.18305E-05-3.64636E-05 8.89021E-06-2.59353E-06 7.16378E-19 4.30843E-18
 -1      2108 9.60571E-05-4.48894E-05-2.23172E-05 4.25895E-05 2.73846E-18 2.47397E-18
 -1      2109 7.39343E-05-4.34425E-05-1.41829E-05 3.91046E-05 3.17553E-18 3.64372E-18
 -1      2110 7.72157E-05-4.66974E-05-1.31839E-05 4.37239E-05 8.88114E-19 2.51471E-18
 -1      2111 8.48853E-05-6.77942E-06-3.35874E-05-3.63465E-06-8.50745E-19-4.21456E-18
 -1      2112 8.80645E-05-8.08572E-06-3.43259E-05-4.86417E-06-1.14216E-18-3.96053E-18
 -1      2113 9.17497E-05-1.22343E-05-3.40983E-05-4.17835E-06-1.38518E-18-3.54504E-18
 -1      2114 8.45410E-05-7.91341E-06-3.28642E-05-2.55788E-06-7.36714E-19-4.08443E-18
 -1      2115 1.61461E-04-3.56139E-05-5.28776E-05 2.48433E-05 5.25355E-18 4.78574E-20
 -1      2116 1.43727E-04-3.73086E-05-4.56880E-05 2.67982E-05 4.93524E-18 8.67362E-19
 -1      2117 1.77379E-04-2.86063E-05-6.26489E-05 1.10276E-05 5.64484E-18-1.75336E-18
 -1      2118 1.65564E-04-2.92457E-05-5.79947E-05 1.72956E-05 5.71408E-18-3.76506E-19
 -1      2119 1.80580E-04-2.32199E-05-6.65697E-05-3.81973E-07 5.24059E-18-3.52707E-18
 -1      2120 1.79157E-04-2.40552E-05-6.54790E-05 7.54472E-06 5.53409E-18-1.74912E-18
 -1      2121 1.70536E-04-2.24838E-05-6.30573E-05-7.85827E-06 5.48030E-18-3.96538E-18
 -1      2122 1.79915E-04-2.33313E-05-6.59048E-05-2.56786E-06 5.08432E-18-3.53488E-18
 -1      2123 1.57759E-04-3.27717E-05-5.34067E-05-1.81281E-05 4.99231E-18-4.50579E-18
 -1      2124 1.67970E-04-2.99728E-05-5.85708E-05-1.11853E-05 5.09003E-18-3.62827E-18
 -1      2125 1.36215E-04-3.83430E-05-4.20827E-05-3.04182E-05 4.61167E-18-5.78947E-18
 -1      2126 1.54385E-04-3.79845E-05-4.92031E-05-2.70405E-05 4.62168E-18-5.29311E-18
 -1      2127 1.52642E-04-3.74601E-05-4.86229E-05-6.91087E-06 3.36786E-18-1.47723E-18
 -1      2128 1.03298E-04-4.38720E-05-2.61161E-05-3.78598E-05 3.49443E-18-5.68444E-18
 -1      2129 1.22631E-04-4.12741E-05-3.44071E-05-4.04829E-05 4.51977E-18-6.22400E-18
 -1      2130 6.33535E-05-4.20538E-05-1.03549E-05-3.85485E-05 2.44030E-18-6.10658E-18
 -1      2131 8.25753E-05-4.09308E-05-1.80239E-05-4.45883E-05 3.10565E-18-6.23670E-18
 -1      2132 3.39925E-05-3.73292E-05 2.23674E-07-3.10583E-05 7.03461E-19-5.96883E-18
 -1      2133 4.69434E-05-3.67944E-05-5.02640E-06-3.79127E-05 2.55804E-18-6.37387E-18
 -1      2134 6.65079E-05-4.27332E-05-1.04692E-05-4.37339E-05-1.11385E-19-5.51376E-18
 -1      2135 1.41551E-05-3.23931E-05 6.52094E-06-1.08349E-05-1.26727E-18-6.24136E-18
 -1      2136 1.93227E-05-2.97699E-05 3.73144E-06-2.17744E-05 4.77303E-19-6.47811E-18
 -1      2137 1.38320E-05-3.08287E-05 6.20461E-06 9.75303E-06-2.87906E-18-6.12193E-18
 -1      2138 1.19847E-05-3.20875E-05 7.37065E-06-4.71568E-07-1.13950E-18-6.08890E-18
 -1      2139 1.56540E-05-2.07252E-05 1.75807E-06-7.35068E-06-7.27813E-19-7.07950E-18
 -1      2140 3.46980E-05-3.65351E-05-1.96260E-07 2.97510E-05-4.63073E-18-6.83174E-18
 -1      2141 2.41817E-05-3.65888E-05 3.88193E-06 2.17176E-05-2.99299E-18-6.08233E-18
 -1      2142 6.78098E-05-4.14832E-05-1.17962E-05 4.10462E-05-5.52393E-18-6.47387E-18
 -1      2143 5.00492E-05-4.25650E-05-4.73825E-06 3.31517E-05-4.91237E-18-6.61803E-18
 -1      2144 1.11426E-04-4.61856E-05-2.78032E-05 4.04627E-05-6.54926E-18-5.64802E-18
 -1      2145 9.10979E-05-4.76847E-05-1.95173E-05 3.73613E-05-5.69714E-18-5.58491E-18
 -1      2146 1.48513E-04-4.30066E-05-4.43785E-05 3.24764E-05-7.38613E-18-4.89458E-18
 -1      2147 1.26736E-04-4.46781E-05-3.56881E-05 3.18827E-05-7.23027E-18-5.46252E-18
 -1      2148 1.75521E-04-3.69611E-05-5.81503E-05 1.76750E-05-7.10025E-18-3.90482E-18
 -1      2149 1.58028E-04-3.80278E-05-5.12141E-05 2.18849E-05-7.48470E-18-4.81284E-18
 -1      2150 1.86256E-04-2.85893E-05-6.62065E-05 5.29845E-06-6.21002E-18-3.01713E-18
 -1      2151 1.79279E-04-3.01116E-05-6.28908E-05 1.21080E-05-7.14388E-18-4.10811E-18
 -1      2152 1.87971E-04-2.61585E-05-6.79774E-05-3.13161E-06-4.80056E-18-1.73631E-18
 -1      2153 1.88603E-04-2.60677E-05-6.81869E-05 3.52098E-06-5.54976E-18-2.98240E-18
 -1      2154 1.75927E-04-3.08943E-05-6.13844E-05-1.02368E-05-3.16515E-18-4.15893E-19
 -1      2155 1.83595E-04-2.87068E-05-6.51417E-05-3.94754E-06-3.69095E-18-1.47024E-18
 -1      2156 1.56153E-04-3.96515E-05-4.97278E-05-1.63003E-05-2.47339E-18-6.23416E-19
 -1      2157 1.73609E-04-3.69953E-05-5.70827E-05-1.55410E-05-2.68457E-18-4.53163E-19
 -1      2158 1.61534E-04-3.08778E-05-5.52390E-05 3.84395E-06-2.37042E-18-2.27725E-18
 -1      2159 1.21129E-04-4.57954E-05-3.28170E-05-3.24472E-05-2.85831E-18 1.35441E-18
 -1      2160 1.43616E-04-4.64128E-05-4.14544E-05-2.80749E-05-2.45682E-18-1.60089E-19
 -1      2161 8.51798E-05-4.81170E-05-1.68391E-05-3.64591E-05-1.47680E-18 2.09916E-18
 -1      2162 1.05927E-04-4.62034E-05-2.55580E-05-4.04128E-05-2.20313E-18 1.93039E-18
 -1      2163 4.29376E-05-4.24894E-05-1.70309E-06-3.04571E-05-3.38813E-20 4.08069E-18
 -1      2164 6.02821E-05-4.12665E-05-8.77345E-06-3.92210E-05-8.78373E-19 3.13725E-18
 -1      2165 1.77559E-05-3.77070E-05 6.83846E-06-1.37442E-05 9.88699E-19 4.47826E-18
 -1      2166 2.59341E-05-3.57329E-05 3.11445E-06-2.40948E-05-2.72745E-19 4.71882E-18
 -1      2167 2.54197E-05-3.41891E-05 2.78549E-06 2.71815E-05 2.82316E-18 4.89649E-18
 -1      2168 1.78869E-05-3.74503E-05 6.65600E-06 1.69727E-05 1.82896E-18 4.43168E-18
 -1      2169 9.52358E-05-2.85737E-05-2.85695E-05 6.09769E-09-4.91581E-19-1.07715E-18
 -1      2170 1.13264E-04-5.03762E-05-2.68523E-05 3.62909E-05 2.11419E-18 8.48727E-19
 -1      2171 1.10609E-04-5.47344E-05-2.34094E-05 3.71844E-05 1.34678E-19-1.57442E-19
 -1      2172 1.27511E-04-5.66022E-05-3.10877E-05 2.79519E-05 8.14634E-19-1.16869E-18
 -1      2173 1.09766E-04-2.81003E-05-3.50579E-05-3.90251E-06-2.00207E-18-3.77022E-19
 -1      2174 1.58578E-04-1.24716E-05-6.15901E-05 3.42135E-07 5.75178E-18-1.51097E-18
 -1      2175 1.44109E-04-4.69606E-05-4.11729E-05 1.81624E-05 3.25705E-18-1.36245E-18
 -1      2176 1.07018E-04-2.61657E-05-3.47408E-05-2.95909E-06-2.02031E-18-1.29227E-18
 -1      2177 9.52363E-05-2.85757E-05-2.85689E-05-9.15357E-09 5.55281E-19 5.58490E-19
 -1      2178 1.66128E-05-2.70775E-05 3.69651E-06 1.50974E-05 9.60112E-19 4.63412E-18
 -1      2179 9.52364E-05-2.85752E-05-2.85691E-05 7.27916E-09-1.02300E-18 1.12447E-18
 -1      2180 4.03427E-05-3.56060E-05-2.55055E-06 3.59573E-05 8.65244E-19 4.19430E-18
 -1      2181 1.68146E-05-2.73037E-05 3.70515E-06-1.15806E-05 9.22737E-19 4.73746E-18
 -1      2182 4.16640E-05-3.65146E-05-2.67548E-06-3.34171E-05 1.24768E-18 4.07973E-18
 -1      2183 8.53171E-05-5.09876E-05-1.48883E-05-4.01212E-05 9.74088E-19 1.90582E-18
 -1      2184 1.52227E-04-4.75380E-05-4.45425E-05-1.36073E-05-1.92414E-18-1.28283E-18
 -1      2185 1.53516E-04-4.68557E-05-4.64215E-05 2.26845E-06-1.40618E-18-2.57413E-18
 -1      2186 1.46195E-04-5.40780E-05-3.90395E-05-9.65634E-06-1.25011E-18-2.42294E-18
 -1      2187 1.66322E-04-1.88614E-05-6.20275E-05 3.32925E-06-4.69849E-18-2.72152E-18
 -1      2188 1.68200E-04-1.83974E-05-6.28620E-05-9.41713E-07-6.19308E-18-2.55116E-18
 -1      2189 1.64678E-04-3.03350E-05-5.64736E-05-3.90840E-07-7.02063E-18-2.08285E-18
 -1      2190 1.55222E-04-4.67527E-05-4.57910E-05 1.16795E-05-5.94302E-18-2.13579E-18
 -1      2191 1.30813E-04-5.59651E-05-3.18825E-05 2.79016E-05-4.29912E-18-2.78886E-18
 -1      2192 9.16059E-05-5.16631E-05-1.72712E-05 4.04585E-05-2.52839E-18-4.48467E-18
 -1      2193 2.29541E-05-2.62444E-05 8.99362E-07 1.94264E-05-8.82397E-19-6.55434E-18
 -1      2194 3.27284E-05-2.93574E-05-1.81672E-06-3.12386E-05-7.58094E-19-6.56154E-18
 -1      2195 1.38674E-04-4.94943E-05-3.77991E-05-2.32239E-05 2.15580E-18-3.22508E-18
 -1      2196 1.56354E-04-2.21660E-05-5.69069E-05 1.46947E-06 4.72814E-18-1.24196E-18
 -1      2197 1.56052E-04-3.23176E-05-5.21395E-05 4.42167E-06 5.06568E-18-2.25565E-18
 -1      2198 1.59152E-04-1.77142E-05-5.95227E-05-8.82199E-07 5.99403E-18-1.53376E-18
 -1      2199 1.05109E-04-5.14988E-05-2.29303E-05-3.95602E-05 5.98852E-19-4.34422E-18
 -1      2200 5.13403E-05-3.89447E-05-5.78004E-06 3.78623E-05-1.51704E-18-6.09948E-18
 -1      2201 1.25481E-04-5.69767E-05-2.91771E-05-2.90000E-05-6.46074E-19-7.66565E-20
 -1      2202 9.52360E-05-2.85758E-05-2.85687E-05 1.01052E-08-1.37359E-18 3.85453E-19
 -1      2203 7.44022E-05-3.51700E-06-3.04129E-05-1.52611E-06 4.90936E-19-3.94479E-18
 -1      2204 7.57914E-05-4.16729E-06-3.07072E-05-1.33647E-06 2.04663E-19-4.10426E-18
 -1      2205 7.78943E-05-5.50035E-06-3.10813E-05-8.10654E-07 9.14117E-21-4.09678E-18
 -1      2206 8.04149E-05-6.81062E-06-3.15538E-05-9.29237E-07-2.83791E-19-4.04043E-18
 -1      2207 7.71895E-05-6.09975E-06-3.04429E-05-3.73896E-07 1.15661E-19-3.83542E-18
 -1      2208 7.49088E-05-4.26989E-06-3.02671E-05-3.09920E-06 1.31189E-18-3.47974E-18
 -1      2209 7.39489E-05-3.66453E-06-3.01612E-05-3.08281E-06 1.05265E-18-3.63116E-18
 -1      2210 7.82261E-05-6.49414E-06-3.07305E-05-2.82009E-06 1.70237E-18-3.17399E-18
 -1      2211 7.64572E-05-5.48526E-06-3.04646E-05-3.21519E-06 1.46373E-18-3.37670E-18
 -1      2212 7.62195E-05-6.29598E-06-2.99619E-05-3.89946E-06 1.25091E-18-3.27699E-18
 -1      2213 8.25683E-05-9.25808E-06-3.14153E-05-1.51936E-06 2.07862E-18-2.58963E-18
 -1      2214 8.03874E-05-8.05928E-06-3.10484E-05-2.35503E-06 1.81706E-18-2.92749E-18
 -1      2215 8.02113E-05-9.09738E-06-3.04889E-05-3.52317E-06 1.60917E-18-2.90753E-18
 -1      2216 8.74407E-05-1.22780E-05-3.22298E-05 7.06972E-07 2.52655E-18-1.70369E-18
 -1      2217 8.50459E-05-1.09587E-05-3.18035E-05-5.26693E-07 2.25481E-18-2.21052E-18
 -1      2218 8.51072E-05-1.23550E-05-3.12006E-05-2.00163E-06 2.04030E-18-2.21409E-18
 -1      2219 9.24439E-05-1.54447E-05-3.30513E-05 3.46735E-06 2.82904E-18-7.10833E-19
 -1      2220 8.99829E-05-1.39899E-05-3.26239E-05 2.00810E-06 2.59594E-18-1.27140E-18
 -1      2221 9.02995E-05-1.57200E-05-3.19807E-05 3.44192E-07 2.37173E-18-1.34354E-18
 -1      2222 9.76211E-05-1.90839E-05-3.37598E-05 6.15653E-06 2.95581E-18 7.17410E-19
 -1      2223 9.50060E-05-1.72446E-05-3.33900E-05 4.76635E-06 2.84156E-18-1.05892E-19
 -1      2224 9.54244E-05-1.91338E-05-3.26987E-05 2.92787E-06 2.62654E-18-2.51245E-19
 -1      2225 1.03254E-04-2.38150E-05-3.41432E-05 7.73749E-06 2.68738E-18 2.79672E-18
 -1      2226 1.00329E-04-2.11774E-05-3.39622E-05 7.09064E-06 2.82550E-18 1.61135E-18
 -1      2227 1.00550E-04-2.29418E-05-3.32167E-05 4.92569E-06 2.59417E-18 1.21785E-18
 -1      2228 1.06660E-04-2.78534E-05-3.38400E-05 6.56636E-06 2.29747E-18 4.62104E-18
 -1      2229 1.04720E-04-2.53380E-05-3.40237E-05 7.45628E-06 2.52192E-18 3.54389E-18
 -1      2230 1.04072E-04-2.64920E-05-3.32555E-05 5.08202E-06 2.48673E-18 2.75944E-18
 -1      2231 1.05987E-04-2.91586E-05-3.29413E-05 3.87773E-06 2.00986E-18 4.21615E-18
 -1      2232 1.05831E-04-2.76542E-05-3.34414E-05 2.41348E-06-1.44709E-18-1.44407E-18
 -1      2233 1.06274E-04-2.89302E-05-3.31544E-05 4.52880E-06-1.28642E-18-1.37762E-18
 -1      2234 1.42694E-04-9.96749E-06-5.74014E-05 2.07784E-06 5.28464E-18-7.21725E-19
 -1      2235 1.44051E-04-9.88469E-06-5.79519E-05-1.12316E-06 5.77888E-18-7.92929E-19
 -1      2236 1.07077E-04-3.02285E-05-3.28602E-05 6.22375E-06-1.08888E-18-1.02247E-18
 -1      2237 1.08042E-04-3.15845E-05-3.27811E-05 7.15283E-06-7.22842E-19-9.60559E-19
 -1      2238 1.03533E-04-2.77150E-05-3.25331E-05 5.80095E-06-1.08266E-18-1.56682E-18
 -1      2239 1.09442E-04-3.31748E-05-3.26094E-05 7.89580E-06-4.00348E-19-5.63057E-19
 -1      2240 1.10945E-04-3.49319E-05-3.26205E-05 7.65041E-06-1.35436E-19-5.07454E-19
 -1      2241 1.05727E-04-3.12555E-05-3.19834E-05 8.57371E-06-4.62418E-19-1.10243E-18
 -1      2242 1.13315E-04-3.71181E-05-3.25672E-05 7.12674E-06 3.54761E-20-2.34506E-19
 -1      2243 1.15181E-04-3.92223E-05-3.26393E-05 5.50055E-06 9.35310E-20-3.38797E-20
 -1      2244 1.09504E-04-3.58359E-05-3.16712E-05 9.16795E-06 5.85321E-20-5.58826E-19
 -1      2245 1.18588E-04-4.18138E-05-3.28096E-05 3.24378E-06 2.51627E-19 1.71484E-19
 -1      2246 1.20315E-04-4.35551E-05-3.30061E-05 1.60488E-07 2.82208E-19 4.11233E-19
 -1      2247 1.15338E-04-4.16039E-05-3.17264E-05 6.82858E-06 2.84951E-19-1.59492E-19
 -1      2248 1.24067E-04-4.54854E-05-3.36387E-05-3.96532E-06-1.69645E-19 7.63474E-19
 -1      2249 1.24737E-04-4.52907E-05-3.41353E-05-7.86899E-06-6.19896E-19 7.18145E-19
 -1      2250 1.22643E-04-4.69499E-05-3.25560E-05 7.37733E-07 1.52016E-19 6.58907E-19
 -1      2251 1.26845E-04-4.42174E-05-3.55739E-05-1.27220E-05-8.23925E-19 6.45214E-19
 -1      2252 1.25429E-04-4.04893E-05-3.64801E-05-1.51993E-05-1.10937E-18 3.37715E-19
 -1      2253 1.29067E-04-4.79446E-05-3.48028E-05-8.74750E-06-7.27251E-19 1.04714E-18
 -1      2254 1.24383E-04-3.53554E-05-3.85385E-05-1.70744E-05-1.96353E-18-1.83925E-19
 -1      2255 1.21389E-04-2.91731E-05-3.96035E-05-1.52298E-05-2.59361E-18-7.13877E-19
 -1      2256 1.30421E-04-3.99761E-05-3.89302E-05-1.64983E-05-1.89460E-18 2.69886E-19
 -1      2257 1.18851E-04-2.37015E-05-4.12541E-05-1.05042E-05-3.14556E-18-1.29048E-18
 -1      2258 1.17328E-04-2.04106E-05-4.17879E-05-4.60895E-06-3.39300E-18-1.80185E-18
 -1      2259 1.26237E-04-2.54474E-05-4.34616E-05-1.46234E-05-3.43197E-18-5.56024E-19
 -1      2260 1.16930E-04-1.99580E-05-4.18917E-05 4.45812E-06-3.20104E-18-2.96774E-18
 -1      2261 1.18775E-04-2.30770E-05-4.14314E-05 1.09874E-05-2.64438E-18-3.68845E-18
 -1      2262 1.23101E-04-1.73571E-05-4.56561E-05-5.94153E-07-4.03992E-18-2.40315E-18
 -1      2263 1.21246E-04-2.86916E-05-3.97714E-05 1.61581E-05-1.69682E-18-4.16869E-18
 -1      2264 1.24417E-04-3.49267E-05-3.87357E-05 1.82453E-05-6.28895E-19-4.54126E-18
 -1      2265 1.26128E-04-2.49943E-05-4.36969E-05 1.47845E-05-2.68361E-18-3.40994E-18
 -1      2266 1.25712E-04-4.03700E-05-3.66366E-05 1.65453E-05 1.05350E-19-4.59577E-18
 -1      2267 1.27299E-04-4.43318E-05-3.57270E-05 1.40389E-05 2.28394E-19-4.18275E-18
 -1      2268 1.30504E-04-3.97788E-05-3.90654E-05 1.78042E-05-2.96197E-19-4.30097E-18
 -1      2269 1.25254E-04-4.55550E-05-3.42520E-05 9.13500E-06 6.34256E-19-3.45339E-18
 -1      2270 1.24719E-04-4.59693E-05-3.37300E-05 5.08798E-06 1.13881E-18-3.01004E-18
 -1      2271 1.29390E-04-4.80254E-05-3.49082E-05 9.97151E-06 8.16407E-19-3.04882E-18
 -1      2272 1.20956E-04-4.42080E-05-3.30053E-05 6.17759E-07 1.12753E-18-2.41154E-18
 -1      2273 1.19183E-04-4.25789E-05-3.27541E-05-2.78719E-06 8.92756E-19-2.24762E-18
 -1      2274 1.23166E-04-4.76271E-05-3.24487E-05 1.18558E-07 1.39542E-18-1.68022E-18
 -1      2275 1.15630E-04-4.00474E-05-3.24774E-05-5.47322E-06 5.23308E-19-1.95047E-18
 -1      2276 1.13568E-04-3.80228E-05-3.23105E-05-7.56454E-06 7.65084E-19-1.75619E-18
 -1      2277 1.15608E-04-4.25154E-05-3.14143E-05-6.79828E-06 9.42877E-19-1.57142E-18
 -1      2278 1.10943E-04-3.59125E-05-3.22030E-05-8.70260E-06 6.13758E-19-2.03027E-18
 -1      2279 1.09062E-04-3.42545E-05-3.20193E-05-9.61273E-06 6.89996E-19-1.74974E-18
 -1      2280 1.09385E-04-3.70248E-05-3.10835E-05-1.02775E-05 7.18365E-19-1.18425E-18
 -1      2281 1.07331E-04-3.28536E-05-3.19359E-05-9.75827E-06 7.27492E-19-1.91743E-18
 -1      2282 1.05752E-04-3.17104E-05-3.17108E-05-9.86281E-06 4.61203E-19-1.58774E-18
 -1      2283 1.05061E-04-3.29029E-05-3.09704E-05-1.13070E-05 9.49490E-19-1.49808E-18
 -1      2284 1.04647E-04-3.09022E-05-3.16020E-05-9.47186E-06-3.13698E-19-1.47489E-18
 -1      2285 1.03348E-04-3.01787E-05-3.13491E-05-9.12108E-06-5.26833E-19-9.94031E-19
 -1      2286 1.02266E-04-3.03298E-05-3.08548E-05-1.09056E-05 1.36440E-19-1.54619E-18
 -1      2287 1.02623E-04-2.97624E-05-3.12121E-05-8.48951E-06-5.42773E-19-1.14076E-18
 -1      2288 1.01557E-04-2.93226E-05-3.09546E-05-7.93346E-06 2.32768E-19-1.17535E-18
 -1      2289 1.00468E-04-2.89217E-05-3.06754E-05-9.78552E-06-5.92900E-19-1.88308E-18
 -1      2290 1.01049E-04-2.91333E-05-3.08024E-05-7.23452E-06 3.23385E-19-1.24790E-18
 -1      2291 1.00174E-04-2.88690E-05-3.05592E-05-6.62654E-06 3.54170E-19-1.12909E-18
 -1      2292 9.92569E-05-2.82463E-05-3.04399E-05-8.38487E-06 2.44097E-19-2.53310E-18
 -1      2293 9.97925E-05-2.87991E-05-3.04061E-05-5.95374E-06-1.68253E-19-6.02957E-19
 -1      2294 9.90789E-05-2.86392E-05-3.01890E-05-5.37650E-06-8.97840E-19-1.08282E-18
 -1      2295 9.83835E-05-2.79828E-05-3.01762E-05-6.95483E-06-9.99739E-20-1.78492E-18
 -1      2296 9.87758E-05-2.86265E-05-3.00456E-05-4.77448E-06-7.32468E-19-1.13906E-18
 -1      2297 9.81990E-05-2.85281E-05-2.98596E-05-4.26562E-06-6.17740E-19-1.02948E-18
 -1      2298 9.77125E-05-2.79292E-05-2.99107E-05-5.62772E-06-6.38289E-19-1.32364E-18
 -1      2299 9.79519E-05-2.85397E-05-2.97318E-05-3.75064E-06-9.15019E-19-4.72915E-19
 -1      2300 9.74912E-05-2.84782E-05-2.95774E-05-3.32189E-06-7.53473E-19-2.75466E-19
 -1      2301 9.71753E-05-2.79713E-05-2.96622E-05-4.46311E-06-5.80860E-19-1.33445E-18
 -1      2302 9.72887E-05-2.84982E-05-2.94678E-05-2.89471E-06-4.59568E-19-7.46255E-19
 -1      2303 9.69258E-05-2.84595E-05-2.93428E-05-2.54428E-06-5.26842E-19-8.00258E-19
 -1      2304 9.67376E-05-2.80494E-05-2.94411E-05-3.47822E-06-7.53985E-19-3.97963E-19
 -1      2305 9.67609E-05-2.84806E-05-2.92516E-05-2.19796E-06-6.66617E-19-1.11140E-18
 -1      2306 9.64792E-05-2.84566E-05-2.91524E-05-1.91786E-06-1.72848E-20-1.16740E-18
 -1      2307 9.63811E-05-2.81346E-05-2.92516E-05-2.66728E-06-5.45694E-19-5.86772E-19
 -1      2308 9.63467E-05-2.84761E-05-2.90783E-05-1.64220E-06-5.06896E-20-1.57840E-18
 -1      2309 9.61315E-05-2.84618E-05-2.90011E-05-1.42226E-06 6.43577E-19-1.75729E-18
 -1      2310 9.60933E-05-2.82142E-05-2.90939E-05-2.01331E-06-4.36432E-19-7.98669E-19
 -1      2311 9.60268E-05-2.84787E-05-2.89420E-05-1.20632E-06 8.86852E-19-2.58287E-18
 -1      2312 9.58650E-05-2.84710E-05-2.88829E-05-1.03628E-06 1.89287E-19-1.54370E-18
 -1      2313 9.58645E-05-2.82839E-05-2.89656E-05-1.49499E-06 5.59611E-19-2.55455E-18
 -1      2314 9.57839E-05-2.84853E-05-2.88366E-05-8.69599E-07-5.23099E-20-1.36098E-18
 -1      2315 9.56644E-05-2.84821E-05-2.87921E-05-7.40051E-07 4.01165E-19-1.46157E-18
 -1      2316 9.56858E-05-2.83428E-05-2.88634E-05-1.09053E-06 4.10445E-19-3.20980E-18
 -1      2317 9.56028E-05-2.84940E-05-2.87566E-05-6.13256E-07-1.96823E-19-1.47041E-18
 -1      2318 9.55163E-05-2.84937E-05-2.87237E-05-5.16002E-07-2.01548E-19-1.27759E-18
 -1      2319 9.55487E-05-2.83915E-05-2.87834E-05-7.79536E-07-2.00028E-19-3.25166E-18
 -1      2320 9.54704E-05-2.85036E-05-2.86968E-05-4.20999E-07-3.48328E-19-1.36645E-18
 -1      2321 9.54092E-05-2.85052E-05-2.86729E-05-3.49128E-07-2.49375E-19-1.81114E-18
 -1      2322 9.54458E-05-2.84314E-05-2.87219E-05-5.43939E-07-6.24007E-19-2.70412E-18
 -1      2323 9.53758E-05-2.85133E-05-2.86529E-05-2.79103E-07-1.69176E-19-1.96479E-18
 -1      2324 9.53337E-05-2.85159E-05-2.86360E-05-2.26913E-07-3.99913E-19-1.13219E-18
 -1      2325 9.53702E-05-2.84636E-05-2.86754E-05-3.68224E-07-2.62851E-19-2.09193E-18
 -1      2326 9.53100E-05-2.85226E-05-2.86214E-05-1.76241E-07-5.77869E-19-7.85682E-19
 -1      2327 9.52822E-05-2.85257E-05-2.86097E-05-1.39102E-07-2.20308E-20-1.06053E-18
 -1      2328 9.53160E-05-2.84894E-05-2.86409E-05-2.39391E-07-4.55683E-19-1.64031E-18
 -1      2329 9.52659E-05-2.85311E-05-2.85994E-05-1.03211E-07 3.46803E-19-1.93737E-18
 -1      2330 9.52483E-05-2.85344E-05-2.85915E-05-7.74205E-08 5.53712E-19-1.92057E-18
 -1      2331 9.52782E-05-2.85098E-05-2.86157E-05-1.46742E-07-3.62353E-19-2.29665E-18
 -1      2332 9.52376E-05-2.85387E-05-2.85844E-05-5.26519E-08 5.22048E-19-2.18108E-18
 -1      2333 9.52273E-05-2.85419E-05-2.85794E-05-3.52830E-08 4.80679E-19-2.47645E-18
 -1      2334 9.52529E-05-2.85259E-05-2.85978E-05-8.16148E-08 5.04358E-19-3.33387E-18
 -1      2335 9.52206E-05-2.85453E-05-2.85745E-05-1.87445E-08 8.14762E-20-3.23677E-18
 -1      2336 9.52155E-05-2.85483E-05-2.85716E-05-7.51661E-09 1.18649E-19-3.61252E-18
 -1      2337 9.52367E-05-2.85384E-05-2.85854E-05-3.70960E-08-1.40371E-19-2.88357E-18
 -1      2338 9.52117E-05-2.85509E-05-2.85685E-05 3.04389E-09 1.35452E-19-3.78218E-18
 -1      2339 9.52100E-05-2.85536E-05-2.85670E-05 9.88500E-09-1.22194E-19-4.00562E-18
 -1      2340 9.52271E-05-2.85479E-05-2.85771E-05-7.74448E-09 1.63155E-19-3.79618E-18
 -1      2341 9.52081E-05-2.85556E-05-2.85651E-05 1.61959E-08 9.56896E-19-4.38861E-18
 -1      2342 9.52086E-05-2.85579E-05-2.85645E-05 1.99783E-08 1.32028E-18-3.12873E-18
 -1      2343 9.52221E-05-2.85551E-05-2.85717E-05 1.06602E-08 8.06384E-19-3.71371E-18
 -1      2344 9.52081E-05-2.85595E-05-2.85635E-05 2.33438E-08 8.36598E-19-2.90810E-18
 -1      2345 9.52099E-05-2.85615E-05-2.85636E-05 2.50544E-08 3.08320E-19-2.92278E-18
 -1      2346 9.52202E-05-2.85605E-05-2.85686E-05 2.13398E-08 1.37766E-18-3.58821E-18
 -1      2347 9.52103E-05-2.85627E-05-2.85632E-05 2.64387E-08 4.19303E-19-2.86145E-18
 -1      2348 9.52128E-05-2.85643E-05-2.85636E-05 2.67933E-08 2.65027E-19-2.02084E-18
 -1      2349 9.52204E-05-2.85645E-05-2.85669E-05 2.67097E-08 1.79988E-19-3.31104E-18
 -1      2350 9.52137E-05-2.85652E-05-2.85636E-05 2.68897E-08 8.09454E-20-1.89094E-18
 -1      2351 9.52165E-05-2.85666E-05-2.85642E-05 2.63893E-08-2.01860E-19-9.55118E-19
 -1      2352 9.52218E-05-2.85674E-05-2.85662E-05 2.85390E-08 2.80924E-19-2.50145E-18
 -1      2353 9.52176E-05-2.85674E-05-2.85644E-05 2.56767E-08-1.87925E-19-4.15290E-19
 -1      2354 9.52205E-05-2.85685E-05-2.85651E-05 2.46521E-08-2.35736E-19-7.69207E-20
 -1      2355 9.52239E-05-2.85695E-05-2.85662E-05 2.80834E-08 5.95783E-19-2.40734E-18
 -1      2356 9.52217E-05-2.85691E-05-2.85654E-05 2.34405E-08-1.15662E-19 7.59451E-19
 -1      2357 9.52244E-05-2.85702E-05-2.85661E-05 2.20875E-08-1.70028E-19 7.81458E-19
 -1      2358 9.52264E-05-2.85712E-05-2.85665E-05 2.61918E-08 3.66697E-19 6.55433E-19
 -1      2359 9.52257E-05-2.85707E-05-2.85665E-05 2.05532E-08 7.23229E-20 1.01863E-18
 -1      2360 9.52282E-05-2.85717E-05-2.85671E-05 1.89623E-08 2.81839E-19 1.44617E-18
 -1      2361 9.52290E-05-2.85725E-05-2.85671E-05 2.33961E-08 1.09105E-19 1.43650E-18
 -1      2362 9.52294E-05-2.85723E-05-2.85674E-05 1.71727E-08-2.36801E-19 1.08095E-18
 -1      2363 9.52316E-05-2.85731E-05-2.85679E-05 1.53609E-08-3.25785E-19 9.56774E-19
 -1      2364 9.52316E-05-2.85738E-05-2.85676E-05 1.99859E-08-4.09885E-19 2.08514E-18
 -1      2365 9.52330E-05-2.85741E-05-2.85681E-05 1.38861E-08-6.62490E-19 6.25528E-19
 -1      2366 9.52348E-05-2.85749E-05-2.85686E-05 1.18221E-08-7.45078E-19 1.00698E-18
 -1      2367 9.52368E-05-2.85774E-05-2.85683E-05 1.30578E-08-9.48173E-19 1.50153E-18
 -1      2368 9.52343E-05-2.85755E-05-2.85680E-05 1.65264E-08-1.59112E-18 1.58712E-18
 -1      2369 1.05932E-04-3.40210E-05-3.08526E-05 4.43835E-06 6.70298E-19 2.32355E-18
 -1      2370 1.06316E-04-3.40392E-05-3.09597E-05 3.29982E-06 7.40992E-19 2.26690E-18
 -1      2371 1.05865E-04-3.36000E-05-3.10112E-05 2.14568E-06 7.84948E-19 2.13720E-18
 -1      2372 1.05976E-04-3.32108E-05-3.11461E-05 1.35096E-06 7.42441E-19 2.21071E-18
 -1      2373 1.07044E-04-3.47200E-05-3.10013E-05 2.70094E-06 7.59528E-19 1.33140E-18
 -1      2374 1.05436E-04-3.24859E-05-3.12943E-05 8.38879E-07 8.34778E-19 2.13349E-18
 -1      2375 1.05453E-04-3.18843E-05-3.14903E-05 6.94809E-07 9.66076E-19 2.26273E-18
 -1      2376 1.05961E-04-3.32468E-05-3.11884E-05 1.02118E-06 8.42232E-19 1.24859E-18
 -1      2377 1.05209E-04-3.33213E-05-3.08158E-05 6.90069E-06 4.56187E-19 2.21507E-18
 -1      2378 1.06014E-04-3.39420E-05-3.08971E-05 5.85495E-06 6.06957E-19 2.42626E-18
 -1      2379 1.07637E-04-3.51626E-05-3.10440E-05 5.38841E-06 5.90954E-19 1.77034E-18
 -1      2380 1.03454E-04-3.12589E-05-3.09072E-05 8.35094E-06 5.48956E-19 2.23089E-18
 -1      2381 1.04650E-04-3.25079E-05-3.09534E-05 7.96881E-06 4.40585E-19 2.28558E-18
 -1      2382 1.07170E-04-3.40166E-05-3.13194E-05 8.09314E-06 5.33302E-19 1.78916E-18
 -1      2383 1.00990E-04-2.82738E-05-3.10971E-05 7.56350E-06 8.16900E-19 2.09560E-18
 -1      2384 1.02275E-04-2.98041E-05-3.11064E-05 8.32425E-06 6.56291E-19 2.30298E-18
 -1      2385 1.05359E-04-3.11337E-05-3.17837E-05 9.34703E-06 7.60452E-19 1.88823E-18
 -1      2386 9.88158E-05-2.56264E-05-3.13001E-05 4.04587E-06 1.50869E-18 1.53167E-18
 -1      2387 9.96881E-05-2.67534E-05-3.12860E-05 5.98581E-06 1.22998E-18 1.92129E-18
 -1      2388 1.02735E-04-2.73745E-05-3.23030E-05 7.76566E-06 1.12594E-18 1.58004E-18
 -1      2389 9.81481E-05-2.47933E-05-3.14110E-05-1.27969E-06 1.55769E-18 9.42112E-19
 -1      2390 9.81724E-05-2.48847E-05-3.13931E-05 1.23417E-06 1.80677E-18 1.39174E-18
 -1      2391 1.00659E-04-2.45199E-05-3.26711E-05 3.09112E-06 1.73934E-18 9.11933E-19
 -1      2392 9.94771E-05-2.63339E-05-3.13731E-05-6.31898E-06 1.14887E-18 4.01133E-19
 -1      2393 9.86185E-05-2.53161E-05-3.13584E-05-4.20958E-06 1.45803E-18 7.21033E-19
 -1      2394 1.00483E-04-2.42472E-05-3.27178E-05-3.12140E-06 1.66986E-18 6.37432E-19
 -1      2395 1.02098E-04-2.93479E-05-3.12278E-05-9.12098E-06 1.39207E-19 2.71271E-19
 -1      2396 1.00751E-04-2.77934E-05-3.11998E-05-8.14956E-06 6.27572E-19 3.82247E-19
 -1      2397 1.02339E-04-2.67510E-05-3.24066E-05-8.25421E-06 9.87108E-19 6.13939E-19
 -1      2398 1.04701E-04-3.23121E-05-3.10685E-05-9.11558E-06-1.80286E-19-3.40540E-19
 -1      2399 1.03369E-04-3.09040E-05-3.10183E-05-9.37936E-06-2.08095E-19-2.91608E-19
 -1      2400 1.05018E-04-3.05565E-05-3.18867E-05-1.03371E-05 3.02446E-19-2.83807E-19
 -1      2401 1.06293E-04-3.41330E-05-3.09506E-05-6.97555E-06 7.20534E-19-4.31415E-19
 -1      2402 1.05372E-04-3.33122E-05-3.08877E-05-8.07612E-06 3.54738E-19-5.96313E-19
 -1      2403 1.07078E-04-3.38321E-05-3.13547E-05-9.33687E-06 3.50763E-19-1.10315E-18
 -1      2404 1.06631E-04-3.45962E-05-3.08770E-05-3.94224E-06 1.50788E-19-6.19042E-19
 -1      2405 1.06239E-04-3.43974E-05-3.08247E-05-5.34300E-06 6.30042E-19-2.62185E-19
 -1      2406 1.07722E-04-3.54826E-05-3.09328E-05-6.39085E-06 5.08560E-19-1.08771E-18
 -1      2407 1.06000E-04-3.40798E-05-3.08161E-05-1.03123E-06 3.50526E-19-3.61729E-19
 -1      2408 1.06063E-04-3.43117E-05-3.07970E-05-2.32400E-06 2.85179E-19-6.74789E-19
 -1      2409 1.07074E-04-3.55209E-05-3.06537E-05-2.93037E-06 2.68550E-19-8.03805E-19
 -1      2410 1.04819E-04-3.30898E-05-3.07304E-05 1.22186E-06-2.89806E-19 3.41945E-19
 -1      2411 1.05194E-04-3.35285E-05-3.07569E-05 2.43957E-07 1.43829E-19 4.24031E-20
 -1      2412 1.05657E-04-3.45419E-05-3.04791E-05 8.72935E-08-1.52621E-19-8.26056E-20
 -1      2413 1.03430E-04-3.20088E-05-3.05987E-05 2.67786E-06-2.70905E-19 4.74440E-19
 -1      2414 1.03978E-04-3.24912E-05-3.06700E-05 2.06040E-06-3.16249E-19 3.46370E-19
 -1      2415 1.03970E-04-3.31683E-05-3.03511E-05 2.25875E-06-4.35340E-19 5.11246E-19
 -1      2416 1.02046E-04-3.10448E-05-3.04206E-05 3.42479E-06-2.53399E-19 6.47336E-19
 -1      2417 1.02663E-04-3.14825E-05-3.05265E-05 3.12174E-06 1.22009E-21 7.07948E-19
 -1      2418 1.02331E-04-3.18239E-05-3.02264E-05 3.55714E-06-1.54418E-19-3.07044E-19
 -1      2419 1.00774E-04-3.02734E-05-3.02083E-05 3.63689E-06 1.45768E-19 3.35375E-19
 -1      2420 1.01391E-04-3.06326E-05-3.03350E-05 3.56793E-06-8.87201E-20 4.87996E-19
 -1      2421 1.00887E-04-3.07090E-05-3.00848E-05 4.13567E-06-6.07345E-20-5.07596E-19
 -1      2422 9.96587E-05-2.96965E-05-2.99793E-05 3.49390E-06-1.30622E-19 1.11607E-18
 -1      2423 1.00234E-04-2.99740E-05-3.01134E-05 3.57794E-06-7.22037E-20 6.65177E-19
 -1      2424 9.96776E-05-2.98735E-05-2.99234E-05 4.19718E-06-5.18889E-19 3.76916E-19
 -1      2425 9.87089E-05-2.92846E-05-2.97501E-05 3.14548E-06 2.29002E-19 1.88895E-18
 -1      2426 9.92208E-05-2.94905E-05-2.98811E-05 3.31575E-06 3.95452E-19 1.38433E-18
 -1      2427 9.86906E-05-2.92911E-05-2.97489E-05 3.92953E-06-1.54164E-19 1.13785E-18
 -1      2428 9.79179E-05-2.90006E-05-2.95337E-05 2.70193E-06 4.43294E-19 1.10390E-18
 -1      2429 9.83571E-05-2.91489E-05-2.96544E-05 2.90975E-06 5.14355E-19 1.61425E-18
 -1      2430 9.78963E-05-2.89090E-05-2.95714E-05 3.48144E-06 7.12277E-19 1.63106E-18
 -1      2431 9.72713E-05-2.88105E-05-2.93386E-05 2.23719E-06 7.32521E-19 1.23450E-18
 -1      2432 9.76374E-05-2.89149E-05-2.94450E-05 2.45040E-06 4.75909E-19 1.05519E-18
 -1      2433 9.72627E-05-2.86728E-05-2.94003E-05 2.95930E-06 7.22377E-19 1.22779E-18
 -1      2434 9.67518E-05-2.86872E-05-2.91693E-05 1.79633E-06 8.09351E-19 6.40181E-19
 -1      2435 9.70492E-05-2.87588E-05-2.92596E-05 1.99575E-06 1.03928E-18 7.54711E-19
 -1      2436 9.67610E-05-2.85368E-05-2.92430E-05 2.43290E-06 9.74639E-19 1.56057E-18
 -1      2437 9.63416E-05-2.86100E-05-2.90268E-05 1.40351E-06-4.74967E-20 3.39755E-19
 -1      2438 9.65776E-05-2.86579E-05-2.91012E-05 1.57926E-06 2.36029E-19 1.52444E-19
 -1      2439 9.63669E-05-2.84666E-05-2.91037E-05 1.94378E-06 9.15336E-19 1.73717E-18
 -1      2440 9.60231E-05-2.85640E-05-2.89102E-05 1.06877E-06-1.59847E-19 5.75073E-19
 -1      2441 9.62063E-05-2.85950E-05-2.89699E-05 1.21713E-06-8.42978E-20 3.77649E-19
 -1      2442 9.60604E-05-2.84376E-05-2.89842E-05 1.51332E-06 2.25867E-19 9.08066E-19
 -1      2443 9.57803E-05-2.85388E-05-2.88171E-05 7.93254E-07-8.69939E-19 1.37881E-18
 -1      2444 9.59194E-05-2.85578E-05-2.88638E-05 9.14320E-07-4.87325E-19 1.41175E-18
 -1      2445 9.58247E-05-2.84331E-05-2.88847E-05 1.14937E-06-8.91496E-19 1.13900E-18
 -1      2446 9.55987E-05-2.85268E-05-2.87445E-05 5.72964E-07-2.16998E-19 1.54225E-18
 -1      2447 9.57019E-05-2.85378E-05-2.87802E-05 6.68968E-07-2.78990E-19 1.92350E-18
 -1      2448 9.56459E-05-2.84421E-05-2.88038E-05 8.51370E-07-8.05306E-19 1.70548E-18
 -1      2449 9.54657E-05-2.85233E-05-2.86892E-05 4.01311E-07 4.09406E-19 9.09414E-19
 -1      2450 9.55405E-05-2.85287E-05-2.87158E-05 4.75504E-07 3.16255E-19 1.19585E-18
 -1      2451 9.55124E-05-2.84576E-05-2.87396E-05 6.13951E-07 4.18491E-19 1.72806E-18
 -1      2452 9.53707E-05-2.85247E-05-2.86480E-05 2.70769E-07-5.21358E-19 1.44647E-18
 -1      2453 9.54233E-05-2.85265E-05-2.86673E-05 3.26710E-07-1.32883E-19 1.48068E-18
 -1      2454 9.54145E-05-2.84753E-05-2.86897E-05 4.29418E-07-8.98384E-20 1.32202E-18
 -1      2455 9.53048E-05-2.85288E-05-2.86180E-05 1.73867E-07-2.17531E-19 1.47656E-18
 -1      2456 9.53405E-05-2.85284E-05-2.86317E-05 2.15006E-07-1.09403E-19 1.64087E-18
 -1      2457 9.53442E-05-2.84929E-05-2.86517E-05 2.89334E-07-2.52095E-19 7.49621E-19
 -1      2458 9.52607E-05-2.85341E-05-2.85969E-05 1.03750E-07 9.95844E-19 1.80114E-18
 -1      2459 9.52839E-05-2.85325E-05-2.86062E-05 1.33204E-07 4.73885E-19 1.57834E-18
 -1      2460 9.52950E-05-2.85088E-05-2.86235E-05 1.85491E-07 1.19829E-20 1.10751E-18
 -1      2461 9.52326E-05-2.85398E-05-2.85824E-05 5.44426E-08 5.93681E-19 1.87800E-18
 -1      2462 9.52467E-05-2.85376E-05-2.85885E-05 7.48948E-08 1.43155E-18 1.63962E-18
 -1      2463 9.52617E-05-2.85227E-05-2.86031E-05 1.10429E-07 8.84314E-19 9.15942E-19
 -1      2464 9.52161E-05-2.85454E-05-2.85730E-05 2.09251E-08 4.93737E-20 5.71125E-19
 -1      2465 9.52237E-05-2.85429E-05-2.85767E-05 3.46059E-08 8.04256E-20 1.28059E-18
 -1      2466 9.52401E-05-2.85343E-05-2.85887E-05 5.76872E-08 1.05336E-18 3.04812E-19
 -1      2467 9.52076E-05-2.85504E-05-2.85673E-05-8.89780E-10 3.76626E-19-9.44398E-19
 -1      2468 9.52109E-05-2.85479E-05-2.85693E-05 7.81984E-09 3.51440E-19-2.63031E-20
 -1      2469 9.52270E-05-2.85437E-05-2.85789E-05 2.18607E-08 7.48411E-19 1.32400E-20
 -1      2470 9.52046E-05-2.85548E-05-2.85641E-05-1.42456E-08 9.16693E-19-7.28147E-19
 -1      2471 9.52050E-05-2.85525E-05-2.85650E-05-9.09136E-09 2.95215E-19-7.47669E-19
 -1      2472 9.52198E-05-2.85512E-05-2.85726E-05-1.44076E-09 6.22372E-19-1.33140E-18
 -1      2473 9.52052E-05-2.85586E-05-2.85628E-05-2.16531E-08-1.27518E-19-1.59497E-19
 -1      2474 9.52037E-05-2.85565E-05-2.85629E-05-1.89682E-08 8.86082E-19-2.21514E-19
 -1      2475 9.52168E-05-2.85570E-05-2.85687E-05-1.56937E-08 5.72337E-19-5.79379E-19
 -1      2476 9.52079E-05-2.85618E-05-2.85626E-05-2.50069E-08-1.88959E-19-2.78252E-19
 -1      2477 9.52054E-05-2.85600E-05-2.85622E-05-2.39802E-08-6.19691E-19-2.71734E-19
 -1      2478 9.52165E-05-2.85615E-05-2.85666E-05-2.35842E-08-4.07305E-19 1.57642E-18
 -1      2479 9.52118E-05-2.85644E-05-2.85631E-05-2.56936E-08-8.20271E-19 4.31560E-19
 -1      2480 9.52088E-05-2.85629E-05-2.85625E-05-2.57392E-08 1.75998E-19-1.49291E-19
 -1      2481 9.52179E-05-2.85649E-05-2.85657E-05-2.71349E-08-1.38336E-19 6.75725E-19
 -1      2482 9.52163E-05-2.85666E-05-2.85641E-05-2.46885E-08-5.82002E-19-1.49471E-19
 -1      2483 9.52131E-05-2.85653E-05-2.85633E-05-2.54025E-08-1.10662E-18 1.72522E-19
 -1      2484 9.52202E-05-2.85674E-05-2.85655E-05-2.78227E-08-5.04896E-19 6.05701E-19
 -1      2485 9.52208E-05-2.85685E-05-2.85652E-05-2.26342E-08-6.90086E-20-3.91958E-19
 -1      2486 9.52177E-05-2.85674E-05-2.85645E-05-2.37600E-08 1.62227E-19-6.05825E-19
 -1      2487 9.52231E-05-2.85694E-05-2.85659E-05-2.66821E-08 7.72471E-20-6.69386E-19
 -1      2488 9.52251E-05-2.85702E-05-2.85664E-05-1.99089E-08-1.24728E-19-5.77936E-20
 -1      2489 9.52222E-05-2.85691E-05-2.85657E-05-2.13078E-08-4.75372E-20-1.75154E-19
 -1      2490 9.52261E-05-2.85710E-05-2.85665E-05-2.43942E-08-1.73774E-19-4.25343E-19
 -1      2491 9.52290E-05-2.85718E-05-2.85674E-05-1.66825E-08-1.04416E-18-3.48444E-19
 -1      2492 9.52265E-05-2.85708E-05-2.85668E-05-1.83038E-08-9.27785E-20-8.53860E-20
 -1      2493 9.52291E-05-2.85724E-05-2.85671E-05-2.13613E-08-1.38860E-19-3.25615E-19
 -1      2494 9.52326E-05-2.85733E-05-2.85683E-05-1.30145E-08 3.75390E-19-5.47599E-19
 -1      2495 9.52304E-05-2.85724E-05-2.85678E-05-1.48083E-08-5.28413E-19 3.07177E-19
 -1      2496 9.52320E-05-2.85738E-05-2.85678E-05-1.77605E-08-7.53394E-19-1.68213E-19
 -1      2497 9.52350E-05-2.85751E-05-2.85685E-05-1.09881E-08 1.01964E-18 4.98270E-19
 -1      2498 9.52448E-05-2.85883E-05-2.85670E-05-1.13773E-08 1.69604E-18 3.13569E-19
 -1      2499 9.52437E-05-2.85866E-05-2.85673E-05-1.25358E-08 6.20804E-19-1.49277E-18
 -1      2500 9.52424E-05-2.85850E-05-2.85674E-05-1.35189E-08-7.93865E-19-1.91279E-19
 -1      2501 9.52410E-05-2.85830E-05-2.85678E-05-1.39179E-08-1.02599E-18 6.01401E-19
 -1      2502 9.52433E-05-2.85850E-05-2.85679E-05-1.47747E-08 3.40542E-19 6.94415E-19
 -1      2503 9.52395E-05-2.85810E-05-2.85679E-05-1.39775E-08-1.35970E-18-9.89625E-19
 -1      2504 9.52380E-05-2.85789E-05-2.85682E-05-1.34749E-08-1.86632E-19-4.76904E-19
 -1      2505 9.52400E-05-2.85813E-05-2.85680E-05-1.59266E-08-4.98695E-19-7.41023E-19
 -1      2506 2.36629E-05-2.05002E-05-1.18787E-06 2.16695E-05 5.12243E-19 4.43845E-18
 -1      2507 1.84131E-05-1.90136E-05 4.85402E-07 8.02892E-06 4.11076E-19 3.79894E-18
 -1      2508 9.52466E-05-2.85909E-05-2.85667E-05-7.91502E-09 1.37505E-18 4.05568E-19
 -1      2509 9.52458E-05-2.85896E-05-2.85669E-05-9.64616E-09 1.23612E-18 1.09995E-18
 -1      2510 9.52459E-05-2.85880E-05-2.85677E-05-1.18936E-08 2.23146E-18 2.63888E-19
 -1      2511 9.52476E-05-2.85923E-05-2.85665E-05-3.58933E-09-7.97035E-19-1.78563E-18
 -1      2512 9.52472E-05-2.85917E-05-2.85666E-05-5.66934E-09 2.64792E-19-1.85365E-18
 -1      2513 9.52478E-05-2.85902E-05-2.85676E-05-7.67213E-09 1.96916E-19-1.89160E-18
 -1      2514 9.52478E-05-2.85926E-05-2.85665E-05 1.11379E-09-1.54583E-18-5.27266E-19
 -1      2515 9.52478E-05-2.85926E-05-2.85665E-05-1.08399E-09-1.56920E-18 1.40423E-19
 -1      2516 9.52487E-05-2.85913E-05-2.85675E-05-2.63947E-09-9.28327E-19-1.32833E-18
 -1      2517 9.52472E-05-2.85917E-05-2.85666E-05 5.70161E-09-1.62880E-18-2.74871E-18
 -1      2518 9.52476E-05-2.85923E-05-2.85665E-05 3.62092E-09-1.86145E-18-1.13280E-18
 -1      2519 9.52487E-05-2.85913E-05-2.85675E-05 2.66867E-09-3.47914E-19-1.19151E-18
 -1      2520 9.52458E-05-2.85897E-05-2.85669E-05 9.62226E-09 5.23736E-19-2.14859E-18
 -1      2521 9.52466E-05-2.85909E-05-2.85667E-05 7.91516E-09-3.01959E-19-3.60561E-18
 -1      2522 9.52478E-05-2.85902E-05-2.85676E-05 7.66852E-09 3.29869E-19-1.46187E-18
 -1      2523 9.52437E-05-2.85867E-05-2.85673E-05 1.25378E-08-1.34826E-19 2.98638E-18
 -1      2524 9.52449E-05-2.85884E-05-2.85670E-05 1.13686E-08 7.21620E-19-8.58934E-19
 -1      2525 9.52460E-05-2.85881E-05-2.85677E-05 1.18720E-08 1.21514E-18-9.50362E-19
 -1      2526 9.52410E-05-2.85830E-05-2.85678E-05 1.39269E-08-1.73177E-18 3.58899E-18
 -1      2527 9.52424E-05-2.85850E-05-2.85674E-05 1.35442E-08-1.99731E-18 6.37436E-18
 -1      2528 9.52434E-05-2.85851E-05-2.85679E-05 1.48028E-08-9.46316E-19 2.70925E-18
 -1      2529 9.52382E-05-2.85792E-05-2.85682E-05 1.35718E-08-1.38583E-18 1.29285E-18
 -1      2530 9.52397E-05-2.85813E-05-2.85679E-05 1.40861E-08-1.26502E-18 2.18589E-18
 -1      2531 9.52403E-05-2.85817E-05-2.85680E-05 1.59877E-08-1.56203E-18 3.43081E-18
 -1      2532 9.52371E-05-2.85782E-05-2.85681E-05 1.55527E-08-1.09091E-18 1.93799E-18
 -1      2533 1.02496E-04-2.17462E-05-3.46302E-05-3.86859E-06-1.84817E-18-2.18202E-18
 -1      2534 1.04372E-04-2.55540E-05-3.37886E-05 3.13774E-07-1.68562E-18-1.82542E-18
 -1      2535 1.01313E-04-2.37779E-05-3.32487E-05 1.62494E-06-1.42125E-18-2.13666E-18
 -1      2536 9.78773E-05-1.83144E-05-3.41572E-05-3.05011E-06-1.57968E-18-2.75001E-18
 -1      2537 9.03819E-05-4.99527E-05-1.74178E-05 4.30626E-05-6.07746E-19 1.06903E-18
 -1      2538 7.30931E-05-4.47205E-05-1.20525E-05 4.30633E-05-8.43645E-19 1.56680E-18
 -1      2539 1.82769E-05-1.90733E-05 5.54970E-07-4.14837E-06 1.03163E-18 4.31817E-18
 -1      2540 2.40819E-05-2.08570E-05-1.18571E-06-1.85480E-05 1.32179E-18 4.31648E-18
 -1      2541 2.54743E-05-1.50136E-05-3.89077E-06 1.78400E-06 6.40198E-19 3.77099E-18
 -1      2542 3.85270E-05-2.90402E-05-3.80638E-06-3.04368E-05 1.64367E-18 3.36547E-18
 -1      2543 5.55539E-05-3.69182E-05-8.02183E-06-3.96142E-05 1.92319E-18 2.94238E-18
 -1      2544 1.50582E-04-1.81084E-05-5.71861E-05 6.99762E-06-4.12082E-18-2.81448E-18
 -1      2545 1.53569E-04-1.49461E-05-5.96302E-05 3.05177E-06-5.01274E-18-2.64237E-18
 -1      2546 1.32661E-04-5.47110E-05-3.33938E-05-2.08678E-05 3.93447E-19-1.83933E-18
 -1      2547 1.42634E-04-5.04289E-05-3.98275E-05-1.27815E-05 1.09431E-18-1.42259E-18
 -1      2548 1.42832E-04-2.42067E-05-5.13098E-05 6.41599E-06 3.95967E-18-3.38813E-21
 -1      2549 1.43613E-04-1.59430E-05-5.51887E-05 5.59294E-06 4.62649E-18-3.79577E-19
 -1      2550 7.34475E-05-3.14360E-06-3.01406E-05-2.50205E-06 9.43346E-19-3.77683E-18
 -1      2551 7.36016E-05-3.12098E-06-3.02308E-05-2.26178E-06 6.54019E-19-3.87948E-18
 -1      2552 7.41854E-05-4.38029E-06-2.98874E-05-1.74471E-06 5.75707E-19-3.72325E-18
 -1      2553 7.39546E-05-4.52786E-06-2.97326E-05-3.15971E-06 8.65933E-19-3.52924E-18
 -1      2554 1.44784E-04-1.32412E-05-5.69143E-05-4.39890E-06 5.69672E-18-9.42112E-19
 -1      2555 1.44560E-04-1.85696E-05-5.44638E-05-5.87056E-06 5.46252E-18-1.52508E-18
 -1      2556 9.98358E-05-5.22809E-05-2.02393E-05-3.92802E-05-1.06599E-18-3.40761E-18
 -1      2557 1.18796E-04-5.56497E-05-2.73077E-05-3.40366E-05-2.03500E-19-2.67154E-18
 -1      2558 1.45201E-04-4.70243E-05-4.25047E-05 7.47148E-06 2.88533E-18-2.80241E-18
 -1      2559 1.38247E-04-5.24312E-05-3.68003E-05 1.43199E-05 1.70619E-18-2.32828E-18
 -1      2560 1.46249E-04-2.91461E-05-5.07789E-05-5.15913E-06 4.58562E-18-2.60526E-18
 -1      2561 1.45206E-04-3.74659E-05-4.65121E-05-1.86862E-06 3.89582E-18-2.88584E-18
 -1      2562 1.45578E-04-4.50421E-05-4.33083E-05-4.75413E-06 1.81138E-18-6.00546E-19
 -1      2563 1.46148E-04-3.76745E-05-4.69476E-05 1.61644E-06 2.69134E-18 4.94879E-19
 -1      2564 1.41182E-04-5.04469E-05-3.88746E-05-4.48960E-06 3.35868E-19 1.91853E-19
 -1      2565 6.51138E-05-4.04352E-05-1.05964E-05 4.19158E-05-2.89262E-19-4.96997E-18
 -1      2566 4.90811E-05-3.32511E-05-6.59977E-06 3.61070E-05 2.34416E-19-5.34944E-18
 -1      2567 6.37848E-05-3.88360E-05-1.04754E-05-4.25321E-05-1.26928E-18-4.83666E-18
 -1      2568 8.01990E-05-4.50888E-05-1.50739E-05-4.50918E-05-9.25595E-19-4.15538E-18
 -1      2569 3.14301E-05-2.11899E-05-3.98957E-06-2.76693E-05-1.27193E-18-6.15496E-18
 -1      2570 4.65771E-05-2.96616E-05-7.05320E-06-3.93047E-05-1.02110E-18-5.85596E-18
 -1      2571 1.92706E-05-1.48228E-05-1.52713E-06-1.33195E-07-4.74868E-19-6.42898E-18
 -1      2572 2.10876E-05-1.51385E-05-2.24821E-06-1.34593E-05-4.07476E-19-6.47641E-18
 -1      2573 1.22114E-04-5.98707E-05-2.64551E-05-2.74481E-05 7.83505E-19-1.20893E-18
 -1      2574 1.35535E-04-5.98004E-05-3.26969E-05-2.20543E-05-1.24937E-19-1.78131E-18
 -1      2575 3.32972E-05-2.41515E-05-3.73573E-06 2.83567E-05-1.05032E-19-5.80705E-18
 -1      2576 2.25398E-05-1.77659E-05-1.75273E-06 1.38388E-05 2.73856E-19-6.03553E-18
 -1      2577 1.06795E-04-5.59505E-05-2.20772E-05 3.78091E-05-1.05583E-18-2.37381E-18
 -1      2578 8.54682E-05-4.93976E-05-1.52898E-05 4.00236E-05-2.38016E-19-3.61710E-18
 -1      2579 1.40642E-04-5.86314E-05-3.53966E-05 1.79487E-05-3.04561E-18-7.62118E-19
 -1      2580 1.26942E-04-5.96712E-05-2.87015E-05 2.48973E-05-1.87999E-18-9.88487E-19
 -1      2581 1.53073E-04-4.66842E-05-4.60627E-05 3.52580E-08-4.82819E-18-3.21873E-19
 -1      2582 1.46889E-04-5.35569E-05-4.01980E-05 7.18507E-06-3.85887E-18-5.00596E-19
 -1      2583 1.43426E-04-5.81783E-05-3.64753E-05 5.62958E-06-2.02965E-18 6.13040E-19
 -1      2584 1.53284E-04-2.61314E-05-5.49965E-05-7.53395E-06-6.09652E-18-1.21337E-18
 -1      2585 1.52472E-04-3.43123E-05-5.09519E-05-7.15055E-06-5.72107E-18-6.61321E-19
 -1      2586 1.52444E-04-1.45675E-05-5.94779E-05-1.12310E-06-5.77168E-18-2.42614E-18
 -1      2587 1.51399E-04-1.73658E-05-5.77847E-05-5.23587E-06-6.46074E-18-2.14702E-18
 -1      2588 1.51481E-04-3.50658E-05-5.01525E-05 9.98339E-06-1.54753E-18-2.46720E-18
 -1      2589 1.51514E-04-2.75531E-05-5.36760E-05 9.95214E-06-2.65693E-18-2.84137E-18
 -1      2590 7.83884E-05-4.77271E-05-1.29140E-05-3.98591E-05 2.29101E-18 1.84447E-18
 -1      2591 1.01235E-04-5.51838E-05-1.99896E-05-3.86194E-05 1.34763E-18 3.73436E-19
 -1      2592 5.48111E-05-3.59292E-05-8.03270E-06 4.23675E-05-3.94717E-19 2.09535E-18
 -1      2593 3.78518E-05-2.84064E-05-3.79291E-06 3.36180E-05-6.98590E-19 3.65262E-18
 -1      2594 9.52359E-05-2.85765E-05-2.85683E-05-1.36336E-08 2.09544E-19 7.88480E-19
 -1      2595 1.33789E-04-5.62890E-05-3.31613E-05 1.80720E-05 8.40574E-19-2.25480E-18
 -1      2596 8.26616E-05-9.52141E-06-3.13349E-05 3.16167E-07-3.70536E-19-3.77284E-18
 -1      2597 8.35857E-05-8.92170E-06-3.20688E-05-8.53078E-07-4.74893E-19-3.91821E-18
 -1      2598 8.69701E-05-1.08414E-05-3.26556E-05-1.41633E-06-8.34882E-19-3.74923E-18
 -1      2599 1.04323E-04-5.43362E-05-2.11192E-05 3.84131E-05-6.76779E-19 4.60945E-19
 -1      2600 9.93981E-05-5.22086E-05-1.97406E-05 3.91237E-05-1.57866E-18 2.38652E-19
 -1      2601 1.15392E-04-5.79390E-05-2.51063E-05 3.16983E-05-5.80112E-19-1.14667E-18
 -1      2602 1.05871E-04-2.99321E-05-3.25168E-05 2.67403E-06 1.70765E-18 3.83025E-18
 -1      2603 1.05121E-04-2.87724E-05-3.26989E-05 3.37895E-06 1.98432E-18 3.05746E-18
 -1      2604 1.05462E-04-3.03976E-05-3.21602E-05 1.68872E-06 1.62436E-18 3.37339E-18
 -1      2605 1.33411E-04-1.21447E-05-5.23307E-05 6.09162E-06 4.48250E-18-1.32349E-20
 -1      2606 9.02709E-05-1.31556E-05-3.31231E-05-1.67682E-06-1.02941E-18-3.56617E-18
 -1      2607 9.42337E-05-1.56629E-05-3.37288E-05-2.56264E-06-1.36879E-18-3.24563E-18
 -1      2608 9.63385E-05-1.87845E-05-3.32155E-05-3.44729E-07-1.34886E-18-2.87203E-18
 -1      2609 8.93640E-05-1.39082E-05-3.23219E-05 1.98062E-07-8.53669E-19-3.41599E-18
 -1      2610 1.33920E-04-9.95626E-06-5.33964E-05-4.40121E-06 5.46844E-18-7.25854E-19
 -1      2611 7.41973E-05-4.23222E-05-1.31522E-05-3.86073E-05 2.20991E-18 1.97623E-18
 -1      2612 3.81996E-05-2.25343E-05-6.16437E-06 2.80564E-05-7.29189E-19 3.31402E-18
 -1      2613 7.01950E-05-4.00731E-05-1.24176E-05 4.20021E-05-1.75548E-18 1.12190E-18
 -1      2614 1.42995E-04-2.21213E-05-5.21416E-05 1.24578E-05-3.26023E-18-3.26224E-18
 -1      2615 1.37400E-04-2.37323E-05-4.89968E-05-1.04010E-05 4.35756E-18-1.66315E-18
 -1      2616 1.05265E-04-3.13300E-05-3.16821E-05 7.84419E-07 1.17988E-18 2.54527E-18
 -1      2617 1.05375E-04-3.08390E-05-3.19082E-05 1.19215E-06 1.34598E-18 2.93155E-18
 -1      2618 1.04957E-04-3.03077E-05-3.20031E-05 1.50772E-06 1.60767E-18 2.36713E-18
 -1      2619 1.05177E-04-3.16432E-05-3.15494E-05 8.02915E-07 1.16433E-18 1.79940E-18
 -1      2620 1.48382E-04-4.20415E-05-4.57484E-05 9.09437E-06-1.53249E-18-2.64910E-18
 -1      2621 1.40980E-04-1.25244E-05-5.50975E-05 7.59950E-07-5.28146E-18-2.38916E-18
 -1      2622 9.52358E-05-2.85769E-05-2.85681E-05-1.59853E-08-7.81666E-19-3.44508E-19
 -1      2623 1.47678E-04-4.19031E-05-4.55301E-05-8.89987E-06-4.31510E-18 4.62056E-19
 -1      2624 3.83554E-05-2.27675E-05-6.08978E-06-2.45409E-05 1.72371E-18 3.60497E-18
 -1      2625 1.42883E-04-5.96710E-05-3.57613E-05-8.09663E-06 1.95982E-19-2.84434E-18
 -1      2626 1.21192E-04-5.97102E-05-2.61437E-05 2.76729E-05-1.00585E-19-9.14954E-19
 -1      2627 4.75173E-05-2.68063E-05-8.35615E-06 3.18618E-05 1.05191E-18-5.35007E-18
 -1      2628 1.15281E-04-5.90875E-05-2.38201E-05-3.02294E-05 1.93399E-18-8.63709E-19
 -1      2629 2.78723E-05-1.37839E-05-5.39734E-06 8.05883E-06 4.95303E-19-6.02198E-18
 -1      2630 3.39092E-05-1.67065E-05-6.71958E-06-2.14435E-05-9.15007E-19-6.10393E-18
 -1      2631 6.15869E-05-3.30947E-05-1.16835E-05-3.99855E-05-1.75463E-18-5.03423E-18
 -1      2632 1.41488E-04-4.34788E-05-4.20724E-05-3.17518E-06 2.68213E-18-3.10395E-18
 -1      2633 1.41600E-04-3.19665E-05-4.74010E-05 7.58473E-06 2.76059E-18 5.85512E-19
 -1      2634 1.32142E-04-2.49723E-05-4.64400E-05 1.22588E-05 2.66085E-18 7.93352E-19
 -1      2635 1.37443E-04-3.78629E-05-4.27941E-05 7.90239E-06 1.51238E-18 1.24217E-18
 -1      2636 9.68767E-05-5.02917E-05-1.96123E-05-3.97545E-05-1.83552E-18-3.22986E-18
 -1      2637 1.28253E-04-5.74955E-05-3.01444E-05-2.30217E-05-1.04662E-18-1.36415E-18
 -1      2638 8.26443E-05-4.55617E-05-1.54809E-05 3.97531E-05 1.10030E-18-3.33837E-18
 -1      2639 1.43253E-04-2.06916E-05-5.25649E-05-1.07385E-05-5.60821E-18-1.60703E-18
 -1      2640 8.22721E-05-1.17734E-05-3.01864E-05-4.56184E-06 1.52465E-18-2.64645E-18
 -1      2641 7.97635E-05-1.02128E-05-2.98573E-05-5.06746E-06 1.36945E-18-2.92251E-18
 -1      2642 7.72965E-05-8.29888E-06-2.95433E-05-5.02030E-06 1.26213E-18-3.07176E-18
 -1      2643 7.54061E-05-7.08974E-06-2.93313E-05-4.89926E-06 1.02388E-18-3.15385E-18
 -1      2644 7.91386E-05-1.09877E-05-2.92050E-05-6.27467E-06 1.11971E-18-2.85250E-18
 -1      2645 9.31793E-05-1.91287E-05-3.17536E-05-2.23678E-07 2.25749E-18-1.07519E-18
 -1      2646 9.05671E-05-1.74225E-05-3.13691E-05-1.51689E-06 2.12357E-18-1.41892E-18
 -1      2647 9.81317E-05-2.26297E-05-3.24176E-05 2.28710E-06 2.40094E-18 2.02643E-20
 -1      2648 9.57068E-05-2.08248E-05-3.20958E-05 1.07478E-06 2.34276E-18-6.19863E-19
 -1      2649 9.59259E-05-2.24370E-05-3.14993E-05-7.89631E-07 2.05593E-18-6.80700E-19
 -1      2650 1.04412E-04-2.79344E-05-3.27698E-05 3.65741E-06 2.11194E-18 2.45350E-18
 -1      2651 1.03135E-04-2.65248E-05-3.28659E-05 3.98916E-06 2.31990E-18 1.77575E-18
 -1      2652 1.04295E-04-2.88446E-05-3.23287E-05 2.34544E-06 1.89388E-18 2.15081E-18
 -1      2653 1.44968E-04-4.86746E-05-4.14357E-05 9.06239E-06-7.01502E-19-3.11740E-18
 -1      2654 1.41406E-04-3.81676E-05-4.48276E-05 1.54961E-05-1.07870E-18-2.94778E-18
 -1      2655 1.01424E-04-2.81770E-05-3.13325E-05 9.01102E-06-3.45307E-19-1.53106E-18
 -1      2656 1.02912E-04-3.03901E-05-3.10750E-05 1.00785E-05 1.95496E-20-1.41506E-18
 -1      2657 1.04853E-04-3.29771E-05-3.07098E-05 1.12851E-05 2.40060E-19-1.12863E-18
 -1      2658 1.07348E-04-3.60030E-05-3.05765E-05 1.12309E-05 3.11182E-19-9.28702E-19
 -1      2659 9.98539E-05-3.01165E-05-2.99755E-05 1.21460E-05 1.82761E-19-1.45102E-18
 -1      2660 1.10910E-04-3.96165E-05-3.04021E-05 1.13066E-05 4.85150E-19-5.43363E-19
 -1      2661 1.14497E-04-4.33438E-05-3.05287E-05 9.72403E-06 6.28207E-19-3.29271E-19
 -1      2662 1.05135E-04-3.70974E-05-2.93126E-05 1.41187E-05 5.72293E-19-1.06264E-18
 -1      2663 1.20117E-04-4.75737E-05-3.08887E-05 7.61425E-06 7.56265E-19 1.15713E-19
 -1      2664 1.23876E-04-5.05435E-05-3.14916E-05 4.26340E-06 3.97391E-19 3.44469E-19
 -1      2665 1.14196E-04-4.62104E-05-2.93422E-05 1.33034E-05 7.89448E-19-4.34223E-19
 -1      2666 1.34298E-04-3.82083E-05-4.14180E-05 1.70012E-05-8.65032E-19-3.52694E-18
 -1      2667 1.35929E-04-4.66377E-05-3.86506E-05 1.48951E-05 2.54030E-19-3.66146E-18
 -1      2668 1.33072E-04-5.12701E-05-3.51368E-05 8.12728E-06 1.13608E-18-3.37510E-18
 -1      2669 1.30944E-04-5.31380E-05-3.33078E-05 3.12966E-06 1.79110E-18-2.44010E-18
 -1      2670 1.24605E-04-5.10028E-05-3.16383E-05-2.48328E-06 1.76358E-18-1.95693E-18
 -1      2671 1.20671E-04-4.83253E-05-3.08372E-05-6.34449E-06 1.73227E-18-1.77683E-18
 -1      2672 1.27530E-04-5.45384E-05-3.15613E-05-4.05681E-06 2.00093E-18-2.69607E-18
 -1      2673 1.15149E-04-4.45017E-05-3.03299E-05-9.08534E-06 1.50573E-18-1.83255E-18
 -1      2674 1.11480E-04-4.09858E-05-3.00819E-05-1.11997E-05 1.01984E-18-1.64332E-18
 -1      2675 1.15468E-04-4.73376E-05-2.93616E-05-1.16492E-05 1.59521E-18-2.10574E-18
 -1      2676 1.07782E-04-3.76790E-05-3.00619E-05-1.19821E-05 6.45360E-19-7.90106E-19
 -1      2677 1.05082E-04-3.48692E-05-3.00196E-05-1.27472E-05 1.10169E-18-8.12559E-19
 -1      2678 1.06408E-04-3.91874E-05-2.89356E-05-1.42356E-05 1.16219E-18-1.08329E-18
 -1      2679 1.03002E-04-3.26900E-05-3.01319E-05-1.25138E-05 1.07850E-18-1.04946E-18
 -1      2680 1.01224E-04-3.08721E-05-3.01196E-05-1.24656E-05 7.92216E-19-1.15684E-18
 -1      2681 1.00804E-04-3.30181E-05-2.91255E-05-1.42070E-05 9.79437E-19-5.81516E-19
 -1      2682 1.00196E-04-2.96634E-05-3.02178E-05-1.18012E-05 2.37900E-19-1.58494E-18
 -1      2683 9.90633E-05-2.86350E-05-3.01742E-05-1.13190E-05-3.24392E-19-1.59727E-18
 -1      2684 9.78119E-05-2.92621E-05-2.94136E-05-1.30296E-05 2.29372E-19-1.82015E-18
 -1      2685 9.86207E-05-2.80794E-05-3.02182E-05-1.05069E-05-6.86609E-19-1.78011E-18
 -1      2686 9.78794E-05-2.75656E-05-3.01360E-05-9.83027E-06-7.60680E-19-2.26143E-18
 -1      2687 9.63938E-05-2.73169E-05-2.96171E-05-1.14353E-05-4.56447E-19-2.04529E-18
 -1      2688 9.77230E-05-2.73908E-05-3.01276E-05-9.00402E-06-2.93894E-19-2.04530E-18
 -1      2689 9.72064E-05-2.71767E-05-3.00190E-05-8.27587E-06 2.22741E-19-2.11341E-18
 -1      2690 9.58048E-05-2.65080E-05-2.97006E-05-9.75319E-06-4.98036E-19-1.67523E-18
 -1      2691 9.71706E-05-2.71985E-05-2.99735E-05-7.50100E-06 2.50421E-19-2.19613E-18
 -1      2692 9.67844E-05-2.71438E-05-2.98536E-05-6.80220E-06-2.01145E-19-1.99295E-18
 -1      2693 9.56021E-05-2.63349E-05-2.96838E-05-8.13603E-06-2.43336E-19-2.17233E-18
 -1      2694 9.67875E-05-2.72520E-05-2.97873E-05-6.10965E-06-2.05035E-19-1.78906E-18
 -1      2695 9.64829E-05-2.72740E-05-2.96684E-05-5.48111E-06-4.54646E-19-1.16236E-18
 -1      2696 9.55516E-05-2.64776E-05-2.96002E-05-6.65966E-06-8.84547E-20-1.71762E-18
 -1      2697 9.64900E-05-2.74090E-05-2.95939E-05-4.88246E-06-7.28778E-19-1.54259E-18
 -1      2698 9.62429E-05-2.74627E-05-2.94838E-05-4.34051E-06-7.89260E-19-1.40158E-18
 -1      2699 9.55436E-05-2.67504E-05-2.94804E-05-5.35884E-06-6.92620E-19-1.43662E-18
 -1      2700 9.62428E-05-2.75952E-05-2.94096E-05-3.83610E-06-5.78865E-19-9.29102E-19
 -1      2701 9.60408E-05-2.76578E-05-2.93125E-05-3.38268E-06-5.51373E-19-7.38175E-19
 -1      2702 9.55349E-05-2.70547E-05-2.93472E-05-4.24384E-06-3.00849E-19-1.12573E-18
 -1      2703 9.60324E-05-2.77754E-05-2.92438E-05-2.96650E-06-9.63553E-19-4.22422E-19
 -1      2704 9.58684E-05-2.78361E-05-2.91611E-05-2.59580E-06-6.59747E-19-6.20947E-19
 -1      2705 9.55142E-05-2.73432E-05-2.92154E-05-3.30961E-06-4.32005E-19-2.78343E-19
 -1      2706 9.58541E-05-2.79352E-05-2.91004E-05-2.25853E-06-5.16060E-19-8.81894E-19
 -1      2707 9.57225E-05-2.79895E-05-2.90319E-05-1.96112E-06-4.73467E-19-7.98486E-19
 -1      2708 9.54824E-05-2.75965E-05-2.90939E-05-2.54197E-06-8.13375E-19-5.20425E-19
 -1      2709 9.57055E-05-2.80704E-05-2.89802E-05-1.69219E-06-1.19346E-19-1.44646E-18
 -1      2710 9.56017E-05-2.81171E-05-2.89247E-05-1.45748E-06 5.56210E-19-2.45393E-18
 -1      2711 9.54447E-05-2.78095E-05-2.89868E-05-1.92206E-06-5.39898E-19-9.72209E-19
 -1      2712 9.55843E-05-2.81819E-05-2.88817E-05-1.24626E-06 3.07183E-19-2.52777E-18
 -1      2713 9.55039E-05-2.82209E-05-2.88376E-05-1.06382E-06 5.26098E-20-2.43545E-18
 -1      2714 9.54059E-05-2.79840E-05-2.88957E-05-1.42936E-06 1.41647E-19-1.13738E-18
 -1      2715 9.54877E-05-2.82721E-05-2.88027E-05-9.00376E-07-4.09656E-19-3.18884E-18
 -1      2716 9.54267E-05-2.83042E-05-2.87683E-05-7.60654E-07-8.52256E-19-3.25695E-18
 -1      2717 9.53695E-05-2.81242E-05-2.88201E-05-1.04367E-06-8.41826E-19-2.37179E-18
 -1      2718 9.54126E-05-2.83441E-05-2.87405E-05-6.36061E-07 2.81851E-20-3.42824E-18
 -1      2719 9.53673E-05-2.83703E-05-2.87141E-05-5.30675E-07-3.53067E-21-2.54310E-18
 -1      2720 9.53376E-05-2.82353E-05-2.87587E-05-7.46265E-07-5.19512E-19-2.09972E-18
 -1      2721 9.53556E-05-2.84010E-05-2.86924E-05-4.37183E-07-1.72072E-19-2.59264E-18
 -1      2722 9.53226E-05-2.84220E-05-2.86725E-05-3.58972E-07-1.32268E-20-2.19454E-18
 -1      2723 9.53108E-05-2.83224E-05-2.87099E-05-5.20435E-07-1.61243E-20-2.73318E-18
 -1      2724 9.53133E-05-2.84455E-05-2.86558E-05-2.90008E-07-5.79846E-19-1.63500E-18
 -1      2725 9.52899E-05-2.84622E-05-2.86411E-05-2.32997E-07-5.82968E-19-1.90175E-18
 -1      2726 9.52894E-05-2.83898E-05-2.86718E-05-3.51722E-07 9.38020E-20-1.53264E-18
 -1      2727 9.52827E-05-2.84799E-05-2.86284E-05-1.83091E-07-7.78833E-19-2.01124E-18
 -1      2728 9.52667E-05-2.84930E-05-2.86177E-05-1.42378E-07-4.40217E-19-2.68111E-18
 -1      2729 9.52727E-05-2.84414E-05-2.86424E-05-2.27901E-07-5.08803E-19-1.13063E-18
 -1      2730 9.52613E-05-2.85062E-05-2.86084E-05-1.07058E-07 9.85759E-20-2.05285E-18
 -1      2731 9.52508E-05-2.85163E-05-2.86008E-05-7.86865E-08 6.67209E-19-2.30736E-18
 -1      2732 9.52602E-05-2.84804E-05-2.86203E-05-1.38833E-07 5.85655E-20-1.42415E-18
 -1      2733 9.52469E-05-2.85260E-05-2.85940E-05-5.43526E-08 4.58122E-19-2.84669E-18
 -1      2734 9.52404E-05-2.85338E-05-2.85887E-05-3.51744E-08-3.69395E-20-2.59865E-18
 -1      2735 9.52511E-05-2.85094E-05-2.86039E-05-7.62528E-08 6.56261E-20-1.52050E-18
 -1      2736 9.52376E-05-2.85407E-05-2.85839E-05-1.89729E-08-3.94418E-19-2.44998E-18
 -1      2737 9.52339E-05-2.85466E-05-2.85804E-05-6.52006E-09 2.39771E-21-2.38136E-18
 -1      2738 9.52446E-05-2.85307E-05-2.85919E-05-3.35309E-08 1.43185E-19-1.35501E-18
 -1      2739 9.52321E-05-2.85515E-05-2.85771E-05 3.77705E-09 3.49415E-19-3.16428E-18
 -1      2740 9.52303E-05-2.85558E-05-2.85749E-05 1.14098E-08 5.18159E-19-3.21720E-18
 -1      2741 9.52403E-05-2.85460E-05-2.85835E-05-5.43155E-09-2.75365E-19-2.08251E-18
 -1      2742 9.52292E-05-2.85592E-05-2.85726E-05 1.75135E-08 1.40453E-18-4.00902E-18
 -1      2743 9.52287E-05-2.85623E-05-2.85714E-05 2.17725E-08 9.73359E-19-4.38159E-18
 -1      2744 9.52375E-05-2.85567E-05-2.85776E-05 1.21144E-08 4.97654E-19-4.11959E-18
 -1      2745 9.52281E-05-2.85646E-05-2.85699E-05 2.49729E-08 5.57733E-19-3.54896E-18
 -1      2746 9.52285E-05-2.85669E-05-2.85693E-05 2.69342E-08 4.66400E-20-3.72918E-18
 -1      2747 9.52359E-05-2.85641E-05-2.85737E-05 2.22152E-08 1.40381E-18-4.62675E-18
 -1      2748 9.52281E-05-2.85683E-05-2.85684E-05 2.81827E-08-3.42002E-19-3.30541E-18
 -1      2749 9.52290E-05-2.85699E-05-2.85682E-05 2.86261E-08-1.84550E-19-3.03946E-18
 -1      2750 9.52351E-05-2.85690E-05-2.85712E-05 2.71987E-08-7.44020E-20-3.97632E-18
 -1      2751 9.52289E-05-2.85708E-05-2.85677E-05 2.86044E-08 1.36960E-18-2.87237E-18
 -1      2752 9.52301E-05-2.85720E-05-2.85677E-05 2.80746E-08 1.62348E-18-2.28826E-18
 -1      2753 9.52348E-05-2.85722E-05-2.85697E-05 2.87665E-08 7.80114E-19-3.44905E-18
 -1      2754 9.52302E-05-2.85726E-05-2.85675E-05 2.72483E-08 1.28402E-18-1.63919E-18
 -1      2755 9.52315E-05-2.85735E-05-2.85677E-05 2.61043E-08 8.81727E-19-5.24417E-19
 -1      2756 9.52349E-05-2.85742E-05-2.85689E-05 2.81180E-08 1.72447E-18-3.50408E-18
 -1      2757 9.52317E-05-2.85739E-05-2.85676E-05 2.47743E-08 6.28455E-19 1.78291E-19
 -1      2758 9.52330E-05-2.85747E-05-2.85678E-05 2.32350E-08 8.96455E-19 7.22642E-19
 -1      2759 9.52353E-05-2.85756E-05-2.85685E-05 2.60596E-08 1.18445E-18-1.80511E-18
 -1      2760 9.52333E-05-2.85751E-05-2.85678E-05 2.15617E-08 1.86163E-19 1.01131E-18
 -1      2761 9.52346E-05-2.85759E-05-2.85680E-05 1.97409E-08-8.31780E-19 5.44994E-19
 -1      2762 9.52360E-05-2.85767E-05-2.85683E-05 2.31118E-08 5.38525E-19-2.03256E-19
 -1      2763 9.52352E-05-2.85765E-05-2.85680E-05 1.85429E-08-1.33064E-18 1.36132E-18
 -1      2764 9.52366E-05-2.85775E-05-2.85682E-05 1.68595E-08-8.54946E-19 1.63375E-18
 -1      2765 9.52383E-05-2.85792E-05-2.85681E-05 1.74364E-08-1.12596E-18 1.74935E-18
 -1      2766 9.52371E-05-2.85779E-05-2.85682E-05 2.01326E-08-3.84335E-19 1.95402E-18
 -1      2767 1.08149E-04-3.61090E-05-3.09188E-05 2.47596E-06 5.32329E-19 9.40369E-19
 -1      2768 1.07695E-04-3.53775E-05-3.09438E-05 1.37065E-06 6.82317E-19 8.78583E-19
 -1      2769 1.09422E-04-3.67509E-05-3.11756E-05 5.54369E-06 3.34042E-19 1.29118E-18
 -1      2770 1.09355E-04-3.68109E-05-3.10635E-05 4.07013E-06 3.14865E-19 1.03130E-18
 -1      2771 1.09890E-04-3.76364E-05-3.09804E-05 2.53652E-06 4.11747E-19 3.67779E-19
 -1      2772 1.06301E-04-3.40622E-05-3.09941E-05 5.18606E-07 8.22332E-19 6.74906E-19
 -1      2773 1.05775E-04-3.29367E-05-3.11449E-05 1.83441E-07 8.53758E-19 7.78281E-19
 -1      2774 1.07207E-04-3.52812E-05-3.08626E-05 1.48870E-07 6.61983E-19 4.16321E-19
 -1      2775 1.07452E-04-3.10316E-05-3.27032E-05 1.00668E-05 8.72692E-19 1.68535E-18
 -1      2776 1.08703E-04-3.33706E-05-3.23601E-05 9.93725E-06 6.22630E-19 1.64163E-18
 -1      2777 1.04447E-04-2.57890E-05-3.36422E-05 7.95137E-06 1.34530E-18 1.24026E-18
 -1      2778 1.05822E-04-2.83033E-05-3.33249E-05 9.52035E-06 1.10399E-18 1.57971E-18
 -1      2779 1.09373E-04-3.00188E-05-3.39913E-05 1.07390E-05 1.05171E-18 1.44757E-18
 -1      2780 1.02210E-04-2.22683E-05-3.42286E-05 2.13327E-06 1.89034E-18 7.68540E-19
 -1      2781 1.02883E-04-2.35271E-05-3.40765E-05 5.12485E-06 1.67871E-18 9.32474E-19
 -1      2782 1.05995E-04-2.38939E-05-3.52134E-05 7.41973E-06 1.63932E-18 1.15160E-18
 -1      2783 1.02499E-04-2.29343E-05-3.41718E-05-5.03447E-06 1.72847E-18 6.48212E-19
 -1      2784 1.02027E-04-2.20686E-05-3.42699E-05-1.94766E-06 1.92653E-18 7.03467E-19
 -1      2785 1.04140E-04-2.08418E-05-3.57399E-05 1.68854E-07 2.00246E-18 7.02170E-19
 -1      2786 1.05125E-04-2.73686E-05-3.34702E-05-1.00200E-05 1.11048E-18 8.35386E-20
 -1      2787 1.03892E-04-2.49240E-05-3.37783E-05-8.22915E-06 1.44066E-18 1.14119E-19
 -1      2788 1.05501E-04-2.31065E-05-3.52898E-05-7.56998E-06 1.77737E-18 1.22271E-19
 -1      2789 1.08242E-04-3.26642E-05-3.24747E-05-1.11678E-05 4.97507E-19-7.65850E-19
 -1      2790 1.06891E-04-3.01036E-05-3.28403E-05-1.10585E-05 7.81801E-19-2.88323E-19
 -1      2791 1.08417E-04-2.85890E-05-3.41555E-05-1.18233E-05 1.30060E-18-1.00305E-18
 -1      2792 1.09804E-04-3.63501E-05-3.15172E-05-8.75384E-06 5.23814E-19-1.17730E-18
 -1      2793 1.09047E-04-3.47719E-05-3.18313E-05-9.98077E-06 5.68409E-19-1.03538E-18
 -1      2794 1.11268E-04-3.48675E-05-3.27135E-05-1.10884E-05 1.05000E-18-1.59711E-18
 -1      2795 1.09373E-04-3.74837E-05-3.08049E-05-4.86621E-06-1.22158E-20-8.88394E-19
 -1      2796 1.09397E-04-3.70834E-05-3.10231E-05-6.62366E-06 1.64936E-19-1.14380E-18
 -1      2797 1.11658E-04-3.83201E-05-3.14117E-05-7.35663E-06 3.58104E-19-1.66107E-18
 -1      2798 1.07614E-04-3.66995E-05-3.03628E-05-1.08989E-06-5.00676E-20-3.33326E-19
 -1      2799 1.08182E-04-3.71272E-05-3.04924E-05-2.76425E-06 2.10832E-19-4.66991E-19
 -1      2800 1.09959E-04-3.87440E-05-3.05133E-05-2.94852E-06-1.55546E-19-1.44003E-18
 -1      2801 1.05321E-04-3.49728E-05-3.01168E-05 1.80027E-06-3.04175E-19-4.62675E-19
 -1      2802 1.06143E-04-3.57794E-05-3.01940E-05 5.19353E-07-3.32609E-20-6.06585E-19
 -1      2803 1.07222E-04-3.72834E-05-2.99922E-05 7.92535E-07 2.73939E-19-9.01222E-19
 -1      2804 1.03087E-04-3.30820E-05-2.99741E-05 3.63933E-06-3.98794E-19-2.61576E-19
 -1      2805 1.03948E-04-3.39386E-05-3.00321E-05 2.81779E-06-4.58376E-19-2.95940E-19
 -1      2806 1.04340E-04-3.50330E-05-2.97300E-05 3.34847E-06-4.02357E-19-1.05468E-18
 -1      2807 1.01184E-04-3.14403E-05-2.98696E-05 4.57232E-06-3.41305E-19-4.65387E-19
 -1      2808 1.01970E-04-3.21773E-05-2.99281E-05 4.15278E-06-1.45398E-19-2.85851E-19
 -1      2809 1.01840E-04-3.28132E-05-2.96077E-05 4.78861E-06-3.20681E-19-7.05351E-19
 -1      2810 9.96777E-05-3.01889E-05-2.97675E-05 4.83615E-06 1.18788E-19-8.40211E-20
 -1      2811 1.00347E-04-3.07518E-05-2.98345E-05 4.71916E-06-1.86637E-20-3.27025E-20
 -1      2812 9.98903E-05-3.10007E-05-2.95432E-05 5.36833E-06-2.73339E-19-1.41212E-19
 -1      2813 9.85309E-05-2.93199E-05-2.96540E-05 4.65835E-06-1.00480E-18 2.43436E-20
 -1      2814 9.90810E-05-2.97154E-05-2.97297E-05 4.74394E-06-3.52945E-19-7.69118E-20
 -1      2815 9.84639E-05-2.96866E-05-2.94896E-05 5.36007E-06-4.97795E-19-2.19565E-19
 -1      2816 9.76735E-05-2.87637E-05-2.95289E-05 4.22223E-06-8.75542E-20 3.98363E-19
 -1      2817 9.81174E-05-2.90227E-05-2.96095E-05 4.42722E-06-8.35909E-19-5.28469E-20
 -1      2818 9.74603E-05-2.88213E-05-2.94260E-05 4.98946E-06-9.28329E-19-9.45487E-19
 -1      2819 9.70364E-05-2.84383E-05-2.93979E-05 3.66165E-06 5.22198E-19 1.07869E-18
 -1      2820 9.73911E-05-2.85962E-05-2.94787E-05 3.92404E-06 4.13528E-19 8.03607E-19
 -1      2821 9.67694E-05-2.83057E-05-2.93478E-05 4.42416E-06-1.39033E-19-6.76896E-19
 -1      2822 9.65624E-05-2.82709E-05-2.92679E-05 3.06726E-06 1.09633E-18 7.17244E-19
 -1      2823 9.68439E-05-2.83587E-05-2.93448E-05 3.34465E-06 1.04143E-18 1.28785E-18
 -1      2824 9.62981E-05-2.80385E-05-2.92584E-05 3.78053E-06 6.44823E-19 4.83448E-19
 -1      2825 9.62087E-05-2.82053E-05-2.91452E-05 2.49585E-06 7.51531E-19 7.31671E-19
 -1      2826 9.64306E-05-2.82470E-05-2.92152E-05 2.76163E-06 9.87713E-19 7.69851E-19
 -1      2827 9.59766E-05-2.79349E-05-2.91639E-05 3.13452E-06 8.67461E-19 6.03711E-19
 -1      2828 9.59439E-05-2.82008E-05-2.90340E-05 1.97943E-06 1.17681E-18 8.04131E-19
 -1      2829 9.61174E-05-2.82138E-05-2.90955E-05 2.21872E-06 9.31428E-19 7.72166E-19
 -1      2830 9.57558E-05-2.79312E-05-2.90701E-05 2.53199E-06 1.03405E-18 4.20359E-19
 -1      2831 9.57456E-05-2.82298E-05-2.89366E-05 1.53280E-06 1.05548E-21 4.78423E-19
 -1      2832 9.58799E-05-2.82261E-05-2.89890E-05 1.73888E-06 1.02126E-18 1.02053E-18
 -1      2833 9.56027E-05-2.79830E-05-2.89818E-05 1.99739E-06 1.01739E-18 3.16982E-19
 -1      2834 9.55974E-05-2.82745E-05-2.88538E-05 1.15951E-06-1.01626E-18 6.97269E-19
 -1      2835 9.57001E-05-2.82620E-05-2.88972E-05 1.33097E-06-6.64832E-19 2.55522E-19
 -1      2836 9.54952E-05-2.80610E-05-2.89020E-05 1.54053E-06 2.67326E-19-5.78492E-19
 -1      2837 9.54873E-05-2.83239E-05-2.87853E-05 8.56272E-07-7.05657E-19 4.63895E-19
 -1      2838 9.55647E-05-2.83077E-05-2.88204E-05 9.94880E-07-9.55200E-19 4.31600E-19
 -1      2839 9.54189E-05-2.81466E-05-2.88323E-05 1.16176E-06-7.56508E-19-5.36393E-19
 -1      2840 9.54062E-05-2.83717E-05-2.87298E-05 6.16014E-07-2.29352E-20 5.28958E-19
 -1      2841 9.54636E-05-2.83548E-05-2.87576E-05 7.25261E-07-2.01489E-19 4.30616E-19
 -1      2842 9.53642E-05-2.82294E-05-2.87732E-05 8.55802E-07-4.42640E-19-1.57775E-18
 -1      2843 9.53472E-05-2.84147E-05-2.86859E-05 4.30013E-07-5.48113E-19 1.33263E-18
 -1      2844 9.53889E-05-2.83987E-05-2.87074E-05 5.14112E-07 2.13945E-19 9.92338E-19
 -1      2845 9.53249E-05-2.83037E-05-2.87243E-05 6.14369E-07-4.56341E-19-2.35963E-19
 -1      2846 9.53049E-05-2.84515E-05-2.86519E-05 2.89223E-07-9.34848E-20 4.80606E-20
 -1      2847 9.53346E-05-2.84373E-05-2.86682E-05 3.52486E-07-5.01599E-19 1.45251E-19
 -1      2848 9.52966E-05-2.83672E-05-2.86848E-05 4.28020E-07 1.11863E-19-6.77489E-20
 -1      2849 9.52754E-05-2.84818E-05-2.86261E-05 1.85079E-07 1.28342E-19 6.94899E-19
 -1      2850 9.52959E-05-2.84698E-05-2.86382E-05 2.31548E-07 1.42270E-19 4.68250E-19
 -1      2851 9.52763E-05-2.84195E-05-2.86535E-05 2.87289E-07-2.12584E-19 8.46853E-20
 -1      2852 9.52552E-05-2.85061E-05-2.86070E-05 1.09921E-07 1.00826E-18 7.75434E-19
 -1      2853 9.52689E-05-2.84962E-05-2.86157E-05 1.43183E-07 4.74999E-19 8.68829E-19
 -1      2854 9.52618E-05-2.84613E-05-2.86293E-05 1.83378E-07 1.11540E-19-2.35691E-19
 -1      2855 9.52420E-05-2.85250E-05-2.85931E-05 5.71761E-08 1.41098E-18 9.82914E-20
 -1      2856 9.52507E-05-2.85171E-05-2.85992E-05 8.02878E-08 1.67885E-18 6.87354E-19
 -1      2857 9.52517E-05-2.84938E-05-2.86109E-05 1.08501E-07 1.40858E-18 3.86228E-19
 -1      2858 9.52338E-05-2.85395E-05-2.85834E-05 2.13828E-08 8.00640E-19-7.09809E-20
 -1      2859 9.52389E-05-2.85333E-05-2.85875E-05 3.68676E-08 9.39006E-19-4.73271E-20
 -1      2860 9.52448E-05-2.85185E-05-2.85973E-05 5.60236E-08 1.35566E-18 5.95135E-19
 -1      2861 9.52292E-05-2.85503E-05-2.85767E-05-1.87724E-09 1.20027E-18-1.14823E-18
 -1      2862 9.52317E-05-2.85455E-05-2.85794E-05 8.00896E-09 1.14720E-18-1.08214E-19
 -1      2863 9.52401E-05-2.85369E-05-2.85874E-05 2.04586E-08 8.87876E-19-5.60165E-19
 -1      2864 9.52270E-05-2.85581E-05-2.85724E-05-1.60913E-08-7.30148E-19 3.31277E-19
 -1      2865 9.52279E-05-2.85545E-05-2.85740E-05-1.02132E-08 9.36475E-20-8.88539E-19
 -1      2866 9.52372E-05-2.85501E-05-2.85804E-05-2.61839E-09-1.34666E-19-8.41677E-19
 -1      2867 9.52265E-05-2.85637E-05-2.85698E-05-2.39470E-08-2.26233E-19 1.21181E-18
 -1      2868 9.52262E-05-2.85611E-05-2.85706E-05-2.08600E-08-5.04172E-19 7.69449E-19
 -1      2869 9.52355E-05-2.85595E-05-2.85756E-05-1.66902E-08-5.81552E-19 8.71694E-19
 -1      2870 9.52270E-05-2.85676E-05-2.85683E-05-2.74632E-08-1.40125E-19 1.25146E-18
 -1      2871 9.52261E-05-2.85657E-05-2.85687E-05-2.62611E-08 2.84690E-19 8.55870E-19
 -1      2872 9.52346E-05-2.85658E-05-2.85724E-05-2.44353E-08 5.45039E-19 7.55260E-19
 -1      2873 9.52282E-05-2.85703E-05-2.85676E-05-2.81108E-08 3.54091E-19-4.46426E-21
 -1      2874 9.52269E-05-2.85689E-05-2.85677E-05-2.81412E-08-6.91375E-20 8.82685E-19
 -1      2875 9.52343E-05-2.85701E-05-2.85705E-05-2.78611E-08 1.41337E-19 5.31682E-19
 -1      2876 9.52297E-05-2.85722E-05-2.85675E-05-2.69174E-08 8.59781E-19-3.58314E-19
 -1      2877 9.52283E-05-2.85711E-05-2.85673E-05-2.77329E-08 3.40966E-19 8.37657E-19
 -1      2878 9.52344E-05-2.85728E-05-2.85693E-05-2.84272E-08 3.67222E-19 7.45941E-19
 -1      2879 9.52314E-05-2.85736E-05-2.85676E-05-2.45561E-08-6.77310E-19 5.67027E-19
 -1      2880 9.52299E-05-2.85727E-05-2.85674E-05-2.58719E-08 3.58989E-19 1.20253E-18
 -1      2881 9.52348E-05-2.85746E-05-2.85687E-05-2.71502E-08-5.09916E-20 2.31345E-18
 -1      2882 9.52332E-05-2.85748E-05-2.85679E-05-2.14234E-08 2.31810E-19 6.30508E-19
 -1      2883 9.52317E-05-2.85741E-05-2.85676E-05-2.30890E-08-1.38928E-19 4.03678E-19
 -1      2884 9.52354E-05-2.85759E-05-2.85684E-05-2.46962E-08-1.93624E-19 2.23431E-18
 -1      2885 9.52352E-05-2.85763E-05-2.85681E-05-1.78322E-08-9.54495E-19 7.25389E-19
 -1      2886 9.52338E-05-2.85754E-05-2.85679E-05-1.97751E-08-3.08620E-19 8.05736E-19
 -1      2887 9.52364E-05-2.85771E-05-2.85683E-05-2.15486E-08-1.14099E-19 1.76796E-18
 -1      2888 9.52377E-05-2.85785E-05-2.85682E-05-1.79009E-08-5.15894E-19-4.15775E-19
 -1      2889 1.35297E-04-5.60494E-05-3.44962E-05 9.72741E-06 7.72865E-19-3.06075E-18
 -1      2890 1.28055E-04-5.86991E-05-2.94201E-05 2.13687E-05 7.07273E-20-2.38037E-18
 -1      2891 9.52448E-05-2.85852E-05-2.85683E-05-1.56662E-08 2.02174E-18 4.24569E-19
 -1      2892 9.52431E-05-2.85836E-05-2.85684E-05-1.67047E-08 1.01106E-18 1.03592E-18
 -1      2893 9.52496E-05-2.85898E-05-2.85684E-05-7.13975E-09 1.13705E-19-3.08990E-18
 -1      2894 9.52488E-05-2.85890E-05-2.85685E-05-9.57150E-09 1.49131E-18-1.76289E-18
 -1      2895 9.52415E-05-2.85821E-05-2.85683E-05-1.75889E-08 8.16380E-19 6.76049E-19
 -1      2896 9.52395E-05-2.85802E-05-2.85683E-05-1.76947E-08 5.20787E-19-6.43610E-19
 -1      2897 9.52389E-05-2.85794E-05-2.85684E-05-1.96618E-08 7.39858E-19 6.00001E-19
 -1      2898 9.52429E-05-2.85825E-05-2.85687E-05-1.86703E-08 1.90343E-18 1.05910E-18
 -1      2899 9.52477E-05-2.85880E-05-2.85684E-05-1.20371E-08 1.58363E-18-3.95348E-19
 -1      2900 9.52464E-05-2.85867E-05-2.85684E-05-1.39221E-08 2.40389E-18-9.17939E-19
 -1      2901 9.52464E-05-2.85854E-05-2.85690E-05-1.60825E-08 1.87218E-18 7.76373E-19
 -1      2902 9.52495E-05-2.85879E-05-2.85693E-05-1.16993E-08 1.13551E-18-2.60232E-18
 -1      2903 4.90491E-05-2.44043E-05-1.03485E-05 3.33209E-05-1.56479E-18 2.02801E-18
 -1      2904 3.67690E-05-1.64795E-05-8.08170E-06 2.06623E-05-6.87791E-19 2.75095E-18
 -1      2905 9.52502E-05-2.85904E-05-2.85685E-05 4.25086E-09 4.13492E-19-7.71462E-19
 -1      2906 9.52505E-05-2.85906E-05-2.85685E-05 1.53814E-09 4.43644E-19-3.86315E-19
 -1      2907 9.52489E-05-2.85891E-05-2.85685E-05 9.51742E-09 1.12430E-18-2.42732E-18
 -1      2908 9.52497E-05-2.85899E-05-2.85684E-05 7.12014E-09 4.55463E-19-8.62757E-19
 -1      2909 9.52514E-05-2.85895E-05-2.85694E-05 6.11828E-09 1.58784E-18-1.20176E-18
 -1      2910 9.52465E-05-2.85868E-05-2.85684E-05 1.39093E-08 1.25629E-18-1.34304E-18
 -1      2911 9.52478E-05-2.85881E-05-2.85684E-05 1.20079E-08 1.15496E-18-1.55834E-18
 -1      2912 9.52495E-05-2.85880E-05-2.85692E-05 1.16570E-08 1.49152E-18-1.85326E-18
 -1      2913 9.52431E-05-2.85836E-05-2.85684E-05 1.67635E-08-6.25682E-19 3.76406E-18
 -1      2914 9.52449E-05-2.85853E-05-2.85683E-05 1.56825E-08 9.32566E-19 4.06029E-19
 -1      2915 9.52465E-05-2.85855E-05-2.85690E-05 1.60890E-08 1.37850E-18-5.15522E-19
 -1      2916 1.26371E-04-1.43866E-05-4.85748E-05 8.90253E-06 3.99397E-18 4.82438E-19
 -1      2917 1.25855E-04-9.36611E-06-5.04996E-05 3.40130E-06 4.82512E-18 6.10261E-20
 -1      2918 3.02920E-05-1.27990E-05-7.06852E-06 8.32865E-06 3.75897E-19 3.00167E-18
 -1      2919 3.03702E-05-1.28196E-05-7.04420E-06-5.16787E-06 8.23660E-19 3.30745E-18
 -1      2920 1.35028E-04-6.00324E-05-3.18725E-05-7.59103E-06 1.78401E-18-3.29464E-18
 -1      2921 1.41200E-04-5.62402E-05-3.68559E-05 1.20614E-06 6.62724E-19-3.27876E-18
 -1      2922 3.68636E-05-1.64664E-05-8.11763E-06-1.73329E-05 1.81318E-18 3.73817E-18
 -1      2923 4.93062E-05-2.44740E-05-1.03664E-05-3.01759E-05 1.83976E-18 3.06329E-18
 -1      2924 1.07898E-04-5.55669E-05-2.18830E-05-3.13247E-05 2.72003E-18-1.16373E-18
 -1      2925 1.24710E-04-6.12918E-05-2.75493E-05-2.25678E-05 2.06454E-18-3.12433E-18
 -1      2926 1.36774E-04-5.27523E-05-3.59694E-05-3.90517E-06-5.16267E-19 5.29184E-19
 -1      2927 1.37977E-04-4.82012E-05-3.90038E-05 1.54191E-06 4.06893E-19 1.04227E-18
 -1      2928 9.52505E-05-2.85906E-05-2.85685E-05-1.52011E-09 1.49367E-19-9.17985E-19
 -1      2929 9.52502E-05-2.85904E-05-2.85685E-05-4.23068E-09 3.89794E-19-2.64950E-18
 -1      2930 9.52520E-05-2.85900E-05-2.85694E-05 3.91387E-12 1.28636E-18-5.76114E-19
 -1      2931 9.38855E-05-4.89046E-05-1.94452E-05 3.74525E-05 1.42831E-18-2.12595E-18
 -1      2932 7.63012E-05-3.93081E-05-1.53325E-05 3.75097E-05 1.80407E-18-3.35690E-18
 -1      2933 1.26086E-04-8.43837E-06-5.10625E-05-2.06377E-06 5.19019E-18-3.62034E-19
 -1      2934 1.27392E-04-1.14960E-05-5.01685E-05-7.69653E-06 5.33652E-18-1.00077E-18
 -1      2935 9.03544E-05-4.56690E-05-1.86742E-05-3.91139E-05-2.02483E-18-2.89717E-18
 -1      2936 1.07015E-04-5.35396E-05-2.31660E-05-3.53335E-05-1.98216E-18-2.17837E-18
 -1      2937 9.95438E-05-2.44644E-05-3.21426E-05 5.19068E-06-8.89067E-19-2.06611E-18
 -1      2938 1.00401E-04-2.62632E-05-3.17745E-05 7.13729E-06-6.57504E-19-1.86774E-18
 -1      2939 9.70544E-05-2.50995E-05-3.08766E-05 8.68432E-06-3.56283E-19-1.98241E-18
 -1      2940 1.21952E-04-5.71009E-05-2.74318E-05-2.49039E-05-1.88041E-18-1.15673E-18
 -1      2941 1.32061E-04-5.70765E-05-3.25612E-05-1.46193E-05-1.08947E-18-1.52360E-19
 -1      2942 1.35166E-04-3.97773E-05-4.14427E-05-8.95847E-06 2.30340E-18-2.55349E-18
 -1      2943 1.37960E-04-4.88496E-05-3.81869E-05-2.52243E-06 1.49589E-18-3.19353E-18
 -1      2944 5.78893E-05-2.70570E-05-1.26666E-05-3.61729E-05-1.76935E-18-4.94583E-18
 -1      2945 7.32296E-05-3.67567E-05-1.55361E-05-4.10154E-05-1.81540E-18-4.12050E-18
 -1      2946 1.28260E-04-6.06399E-05-2.93967E-05 1.93617E-05 1.47701E-20-3.40931E-20
 -1      2947 1.12820E-04-5.60063E-05-2.38144E-05 2.93414E-05 1.06991E-18-9.50636E-19
 -1      2948 8.78211E-05-1.55306E-05-3.09702E-05-2.76476E-06 2.00196E-18-1.82623E-18
 -1      2949 8.50958E-05-1.38297E-05-3.05789E-05-3.80741E-06 1.69754E-18-2.25431E-18
 -1      2950 8.48174E-05-1.49925E-05-2.99408E-05-5.50501E-06 1.39512E-18-2.26439E-18
 -1      2951 9.06433E-05-1.89281E-05-3.07518E-05-3.39152E-06 1.74711E-18-1.48924E-18
 -1      2952 3.38374E-05-1.12347E-05-9.05215E-06-1.34025E-05-4.67033E-19-5.70540E-18
 -1      2953 4.30338E-05-1.73311E-05-1.06773E-05-2.78662E-05-9.93570E-19-5.42567E-18
 -1      2954 6.01251E-05-2.97787E-05-1.27632E-05 3.54655E-05 1.51428E-18-4.35227E-18
 -1      2955 4.57037E-05-2.02212E-05-1.03522E-05 2.65670E-05 1.45361E-18-4.91216E-18
 -1      2956 1.42297E-04-5.53776E-05-3.76617E-05-1.78682E-06-1.91528E-18 1.20596E-18
 -1      2957 1.38436E-04-5.90245E-05-3.37855E-05 5.56285E-06-9.37182E-19 9.43912E-19
 -1      2958 1.29110E-04-1.84564E-05-4.80414E-05-1.10718E-05 4.55217E-18-1.50253E-18
 -1      2959 1.31293E-04-2.74319E-05-4.48975E-05-1.20850E-05 3.30237E-18-2.02462E-18
 -1      2960 3.45661E-05-1.33852E-05-8.62079E-06 1.58842E-05 8.95102E-19-5.28252E-18
 -1      2961 3.01520E-05-1.00386E-05-8.23212E-06 1.14270E-06 4.04364E-19-5.59063E-18
 -1      2962 7.56655E-05-6.54680E-06-2.96661E-05 2.83803E-07 3.32636E-19-3.62513E-18
 -1      2963 7.79824E-05-7.87511E-06-3.00430E-05 9.05364E-07 2.88210E-20-3.65446E-18
 -1      2964 1.09335E-04-3.51367E-05-3.17962E-05 8.68027E-06 4.19983E-19 1.50941E-18
 -1      2965 1.09944E-04-3.63873E-05-3.15448E-05 7.45728E-06 3.96617E-19 1.52473E-18
 -1      2966 1.11739E-04-3.80327E-05-3.15638E-05 6.16236E-06 2.94040E-19 7.05238E-19
 -1      2967 1.11693E-04-3.54725E-05-3.26261E-05 9.65840E-06 5.20518E-19 1.20667E-18
 -1      2968 8.27176E-05-4.34285E-05-1.66651E-05 4.07291E-05-1.61720E-18 7.46977E-19
 -1      2969 6.67335E-05-3.44279E-05-1.32876E-05 3.86584E-05-1.56945E-18 1.01909E-18
 -1      2970 6.74130E-05-3.55986E-05-1.30576E-05-3.61054E-05 1.79762E-18 1.47648E-18
 -1      2971 8.69264E-05-4.68168E-05-1.73404E-05-3.83017E-05 2.35645E-18 6.99014E-19
 -1      2972 9.72418E-05-2.06305E-05-3.28374E-05 1.38344E-06-1.21912E-18-2.69058E-18
 -1      2973 9.86944E-05-2.29383E-05-3.24626E-05 3.59083E-06-1.10463E-18-2.35830E-18
 -1      2974 9.52954E-05-2.13620E-05-3.16937E-05 4.99233E-06-7.89200E-19-2.50968E-18
 -1      2975 9.35897E-05-1.80281E-05-3.24065E-05 1.63355E-06-9.74411E-19-2.96874E-18
 -1      2976 8.10848E-05-9.99476E-06-3.05166E-05 1.79217E-06-1.28361E-19-3.53674E-18
 -1      2977 8.45223E-05-1.20994E-05-3.10370E-05 1.93813E-06-3.80328E-19-3.46739E-18
 -1      2978 7.96681E-05-1.02717E-05-2.97086E-05 2.65746E-06 3.40881E-20-3.36195E-18
 -1      2979 1.21641E-04-5.79929E-05-2.70810E-05 2.46455E-05-5.72594E-19-2.01456E-18
 -1      2980 7.47766E-05-7.73113E-06-2.87061E-05-5.29706E-06 7.86423E-19-3.02013E-18
 -1      2981 7.38979E-05-5.80067E-06-2.91757E-05-4.01067E-06 8.69361E-19-3.24835E-18
 -1      2982 7.31923E-05-5.28527E-06-2.91442E-05-3.36060E-06 6.74952E-19-3.47866E-18
 -1      2983 1.00986E-04-2.45956E-05-3.27216E-05 3.47508E-06 2.36403E-18 9.35210E-19
 -1      2984 8.63003E-05-4.06531E-05-1.91063E-05-3.67380E-05-1.94098E-18-3.11179E-18
 -1      2985 4.74338E-05-1.64368E-05-1.26236E-05 2.01124E-05 1.30941E-18-4.80670E-18
 -1      2986 1.37863E-04-5.22887E-05-3.68425E-05 8.72763E-06 1.06047E-18-3.32852E-18
 -1      2987 1.36038E-04-3.23064E-05-4.49211E-05 1.77449E-05-1.69629E-18-3.40910E-18
 -1      2988 1.28894E-04-5.47499E-05-3.19377E-05 5.34330E-06-2.50536E-20 6.44983E-19
 -1      2989 1.32388E-04-5.31736E-05-3.39331E-05-2.76118E-06-5.87854E-19 1.15795E-18
 -1      2990 1.34287E-04-5.08769E-05-3.59194E-05-7.79480E-06-1.27717E-18 1.20901E-18
 -1      2991 1.37023E-04-4.80999E-05-3.84750E-05-1.21198E-05-1.89894E-18 1.03232E-18
 -1      2992 1.35779E-04-4.02458E-05-4.12749E-05-1.46225E-05-2.73655E-18 9.15325E-19
 -1      2993 1.36429E-04-3.20909E-05-4.53363E-05-1.61326E-05-3.71170E-18-1.24620E-19
 -1      2994 1.33060E-04-2.26295E-05-4.78451E-05-1.21631E-05-4.60235E-18-9.47512E-19
 -1      2995 1.30691E-04-1.62064E-05-4.99132E-05-6.92401E-06-5.09024E-18-1.91279E-18
 -1      2996 1.29844E-04-1.42496E-05-5.01682E-05 1.77753E-06-4.91957E-18-2.92614E-18
 -1      2997 6.37759E-05-2.87936E-05-1.44278E-05 3.31127E-05-1.55113E-18 1.33355E-18
 -1      2998 9.32087E-05-4.76508E-05-1.91188E-05 3.75872E-05-1.73578E-18 3.60095E-19
 -1      2999 8.87985E-05-4.26952E-05-1.94765E-05 3.56066E-05-1.59263E-18 4.34051E-19
 -1      3000 1.02955E-04-5.15805E-05-2.21809E-05 3.32263E-05-1.82276E-18-1.28378E-20
 -1      3001 1.33450E-04-5.27382E-05-3.46928E-05 2.85876E-06 6.32912E-19-3.00713E-18
 -1      3002 4.13194E-05-1.45335E-05-1.07933E-05 1.43192E-05-3.43975E-19 2.59859E-18
 -1      3003 1.30932E-04-5.86496E-05-3.10775E-05 1.04991E-05 3.91223E-20 3.93844E-19
 -1      3004 5.59425E-05-2.14855E-05-1.42375E-05-2.95611E-05-1.32190E-18-4.76498E-18
 -1      3005 7.35377E-05-3.35374E-05-1.66459E-05 3.34151E-05 1.97232E-18-3.40878E-18
 -1      3006 1.20713E-04-1.05186E-05-4.76695E-05 7.14930E-07 4.58912E-18 2.31379E-19
 -1      3007 1.27017E-04-2.05235E-05-4.62161E-05 1.15753E-05 3.04752E-18 1.07478E-18
 -1      3008 1.19959E-04-1.58031E-05-4.49768E-05 9.82388E-06 3.42180E-18 1.26430E-18
 -1      3009 1.25994E-04-2.57694E-05-4.31208E-05 1.25829E-05 2.22166E-18 1.53609E-18
 -1      3010 9.52399E-05-2.85807E-05-2.85683E-05 1.75008E-08-9.06125E-19 2.82174E-18
 -1      3011 9.52416E-05-2.85823E-05-2.85682E-05 1.73284E-08-9.29256E-19 3.96490E-18
 -1      3012 9.52430E-05-2.85828E-05-2.85687E-05 1.84668E-08 7.39792E-19 3.50178E-18
 -1      3013 9.52395E-05-2.85800E-05-2.85684E-05 1.89358E-08-3.00106E-19 1.95592E-18
 -1      3014 1.22996E-04-1.59678E-05-4.62396E-05-1.02573E-05 4.19472E-18-1.14381E-18
 -1      3015 1.04606E-04-3.21433E-05-3.11183E-05-5.08938E-07 1.17194E-18 4.09917E-19
 -1      3016 1.04512E-04-3.13639E-05-3.13608E-05 1.61578E-07 1.14727E-18 9.41572E-19
 -1      3017 1.31104E-04-3.46685E-05-4.17233E-05-1.23690E-05 2.41452E-18-2.06920E-18
 -1      3018 1.28555E-04-3.95298E-05-3.82251E-05-1.06522E-05 1.66050E-18-2.12425E-18
 -1      3019 1.23651E-04-2.84152E-05-4.13257E-05-1.40104E-05 2.77562E-18-2.06713E-18
 -1      3020 4.13576E-05-1.44572E-05-1.08533E-05-1.11015E-05 9.38777E-19 2.73698E-18
 -1      3021 1.04166E-04-3.04619E-05-3.15710E-05 4.54086E-07 1.48350E-18 1.21593E-18
 -1      3022 1.31780E-04-5.45850E-05-3.30998E-05-7.66278E-06-9.50344E-19 3.16473E-19
 -1      3023 1.00471E-04-5.00961E-05-2.11682E-05-3.13630E-05 3.04254E-18-9.34648E-19
 -1      3024 6.40884E-05-2.94344E-05-1.42831E-05-3.06420E-05 2.11345E-18 2.14225E-18
 -1      3025 1.28385E-04-5.85654E-05-2.98232E-05-1.17525E-05 2.37206E-18-3.11893E-18
 -1      3026 1.34184E-04-4.20531E-05-3.97702E-05 8.06764E-06 5.41307E-19 1.40576E-18
 -1      3027 9.52513E-05-2.85894E-05-2.85694E-05-6.15189E-09 9.20952E-19-2.24644E-18
 -1      3028 1.31237E-04-1.64272E-05-5.00194E-05 8.77321E-06-4.19345E-18-3.22915E-18
 -1      3029 1.01060E-04-2.60040E-05-3.21489E-05 1.71651E-06 2.06205E-18 6.57509E-19
 -1      3030 7.31790E-05-5.08517E-06-2.92022E-05-1.94645E-06 6.71460E-19-3.53401E-18
 -1      3031 7.39996E-05-5.48572E-06-2.93809E-05-1.10657E-06 4.19102E-19-3.58104E-18
 -1      3032 7.46845E-05-7.06854E-06-2.89334E-05 1.98645E-07 3.85518E-19-3.48339E-18
 -1      3033 7.30125E-05-6.20339E-06-2.85906E-05-2.82760E-06 5.65299E-19-3.42835E-18
 -1      3034 1.35523E-04-2.53759E-05-4.77253E-05 1.49751E-05-2.50065E-18-3.42201E-18
 -1      3035 1.34194E-04-1.78395E-05-5.05577E-05 1.10185E-05-3.83155E-18-3.25695E-18
 -1      3036 1.05822E-04-5.11225E-05-2.31579E-05 2.97559E-05 1.45150E-18-1.28738E-18
 -1      3037 1.15577E-04-5.43501E-05-2.60169E-05-2.65698E-05-1.98513E-18-1.39199E-18
 -1      3038 9.87425E-05-2.57407E-05-3.13221E-05-1.21184E-06 1.84405E-18-3.95574E-19
 -1      3039 9.63448E-05-2.40464E-05-3.09808E-05-2.45450E-06 1.67560E-18-7.99431E-19
 -1      3040 1.04350E-04-2.94825E-05-3.20525E-05 1.75376E-06 1.76160E-18 1.84523E-18
 -1      3041 8.08156E-05-3.48462E-05-1.92552E-05-3.43230E-05-1.83573E-18-3.10951E-18
 -1      3042 9.49416E-05-4.40401E-05-2.19787E-05-3.37914E-05-1.88412E-18-2.16655E-18
 -1      3043 1.27190E-04-5.43849E-05-3.09666E-05-1.01789E-05-1.25402E-18 1.53604E-19
 -1      3044 1.29615E-04-5.12530E-05-3.38379E-05-1.57112E-06-7.15266E-19 7.05473E-19
 -1      3045 8.72748E-05-1.39030E-05-3.14853E-05 2.03620E-06-5.01643E-19-3.20494E-18
 -1      3046 9.06654E-05-1.61517E-05-3.19502E-05 1.88510E-06-7.96502E-19-3.09231E-18
 -1      3047 9.15486E-05-1.78601E-05-3.15647E-05 3.54523E-06-7.37581E-19-2.87572E-18
 -1      3048 8.57441E-05-1.41918E-05-3.06524E-05 3.67046E-06-3.05117E-19-3.15049E-18
 -1      3049 1.45284E-04-5.09099E-05-4.07140E-05-6.61712E-06-3.02015E-18 1.22036E-18
 -1      3050 1.40403E-04-5.29152E-05-3.76726E-05-6.51958E-06-1.74706E-18 1.43773E-18
 -1      3051 1.44072E-04-3.95058E-05-4.51542E-05-1.27493E-05-4.04744E-18 7.47083E-19
 -1      3052 1.03267E-04-2.89949E-05-3.18675E-05 1.08922E-06 1.75940E-18 9.24121E-19
 -1      3053 1.21311E-04-5.42088E-05-2.83797E-05 1.62995E-05 1.08906E-18-1.62974E-19
 -1      3054 9.79452E-05-3.21344E-05-2.80911E-05 1.61483E-05 7.27682E-19-1.36709E-18
 -1      3055 1.01595E-04-3.65208E-05-2.77895E-05 1.71017E-05 8.87836E-19-1.31928E-18
 -1      3056 1.05678E-04-4.14023E-05-2.72938E-05 1.87341E-05 1.01273E-18-8.50256E-19
 -1      3057 1.11361E-04-4.71842E-05-2.74492E-05 1.82962E-05 1.05932E-18-8.52145E-19
 -1      3058 9.67024E-05-3.67159E-05-2.59039E-05 2.15459E-05 1.14401E-18-1.38813E-18
 -1      3059 1.00994E-04-2.71727E-05-3.15927E-05 1.56664E-07 1.69436E-18 1.90313E-19
 -1      3060 7.42929E-05-3.20625E-05-1.79863E-05 3.25278E-05-1.93454E-18 1.22237E-18
 -1      3061 5.99996E-05-2.24838E-05-1.56072E-05 2.69913E-05-1.89460E-18 1.80264E-18
 -1      3062 1.16902E-04-1.37430E-05-4.47629E-05-7.24734E-06 3.93172E-18-9.34939E-19
 -1      3063 1.19076E-04-1.89238E-05-4.30702E-05-1.21401E-05 3.57490E-18-1.69634E-18
 -1      3064 1.13846E-04-4.91371E-05-2.77012E-05-1.61505E-05 1.88486E-18-2.04057E-18
 -1      3065 1.07886E-04-4.39024E-05-2.72184E-05-1.77165E-05 1.82586E-18-1.73660E-18
 -1      3066 1.03355E-04-3.91894E-05-2.74238E-05-1.70733E-05 1.60146E-18-1.18299E-18
 -1      3067 9.95758E-05-3.51646E-05-2.75064E-05-1.71097E-05 1.36582E-18-7.51652E-19
 -1      3068 9.93654E-05-3.99715E-05-2.55693E-05-2.15370E-05 2.05214E-18-1.26599E-18
 -1      3069 9.75559E-05-3.22324E-05-2.79303E-05-1.57271E-05 6.09846E-19-7.26607E-19
 -1      3070 9.54164E-05-2.97254E-05-2.81267E-05-1.51452E-05 4.94947E-19-1.13447E-18
 -1      3071 9.33005E-05-3.18492E-05-2.64232E-05-1.83259E-05 1.02047E-18-1.06623E-18
 -1      3072 9.47673E-05-2.81516E-05-2.85063E-05-1.37955E-05-8.29166E-20-1.43910E-18
 -1      3073 9.37132E-05-2.68095E-05-2.86732E-05-1.29987E-05-7.97559E-20-1.76817E-18
 -1      3074 9.09420E-05-2.71900E-05-2.73555E-05-1.51746E-05-9.10043E-20-1.44195E-18
 -1      3075 9.37392E-05-2.61276E-05-2.89495E-05-1.18391E-05-1.11510E-19-1.79674E-18
 -1      3076 9.32837E-05-2.55266E-05-2.90493E-05-1.09962E-05-5.19331E-19-1.75881E-18
 -1      3077 9.04970E-05-2.49606E-05-2.80936E-05-1.25411E-05 2.30539E-20-1.87104E-18
 -1      3078 9.35930E-05-2.53643E-05-2.92238E-05-1.00112E-05-3.67363E-19-1.45284E-18
 -1      3079 9.34301E-05-2.51886E-05-2.92597E-05-9.19264E-06-2.18396E-19-1.28390E-18
 -1      3080 9.09180E-05-2.41657E-05-2.86023E-05-1.03913E-05-9.21402E-20-1.37237E-18
 -1      3081 9.38189E-05-2.52997E-05-2.93535E-05-8.34900E-06-4.02035E-20-8.78096E-19
 -1      3082 9.37798E-05-2.53449E-05-2.93424E-05-7.59084E-06 2.92884E-21-1.13754E-18
 -1      3083 9.16554E-05-2.41671E-05-2.89132E-05-8.59758E-06-6.16521E-20-7.05469E-19
 -1      3084 9.41504E-05-2.55774E-05-2.93791E-05-6.86493E-06-1.01525E-19-5.82783E-19
 -1      3085 9.41519E-05-2.57220E-05-2.93389E-05-6.18588E-06-6.51229E-21-2.78287E-19
 -1      3086 9.24305E-05-2.45626E-05-2.90758E-05-7.07064E-06 8.20007E-20-5.46064E-19
 -1      3087 9.44661E-05-2.59906E-05-2.93387E-05-5.56306E-06-3.24571E-19-4.85054E-19
 -1      3088 9.44725E-05-2.61677E-05-2.92836E-05-4.97140E-06-7.74301E-19-1.70237E-19
 -1      3089 9.31205E-05-2.51146E-05-2.91365E-05-5.75830E-06-4.28489E-19-2.70821E-19
 -1      3090 9.47220E-05-2.64284E-05-2.92617E-05-4.44212E-06-4.72354E-19-2.43688E-19
 -1      3091 9.47217E-05-2.66040E-05-2.92017E-05-3.93867E-06-2.29185E-19-1.56984E-19
 -1      3092 9.36855E-05-2.56934E-05-2.91326E-05-4.63285E-06-5.53384E-19 3.47050E-19
 -1      3093 9.49118E-05-2.68369E-05-2.91688E-05-3.49483E-06-8.27612E-20-1.06389E-18
 -1      3094 9.49033E-05-2.69956E-05-2.91101E-05-3.07524E-06-3.45509E-19-9.60771E-19
 -1      3095 9.41252E-05-2.62343E-05-2.90912E-05-3.67721E-06-4.37998E-19-6.69131E-19
 -1      3096 9.50440E-05-2.71940E-05-2.90731E-05-2.70853E-06-7.71276E-19-3.03680E-19
 -1      3097 9.50298E-05-2.73304E-05-2.90194E-05-2.36524E-06-6.14835E-19-3.47793E-19
 -1      3098 9.44562E-05-2.67093E-05-2.90310E-05-2.87688E-06-3.81063E-19-1.36581E-18
 -1      3099 9.51317E-05-2.74945E-05-2.89827E-05-2.06687E-06-1.11055E-18 1.72725E-19
 -1      3100 9.51147E-05-2.76081E-05-2.89356E-05-1.79070E-06-3.82047E-19-1.74639E-22
 -1      3101 9.46994E-05-2.71111E-05-2.89642E-05-2.21684E-06-3.98691E-19-7.01203E-19
 -1      3102 9.51873E-05-2.77410E-05-2.89016E-05-1.55164E-06 4.89740E-19-5.14616E-19
 -1      3103 9.51699E-05-2.78337E-05-2.88616E-05-1.33295E-06 1.25696E-19-6.40225E-19
 -1      3104 9.48748E-05-2.74423E-05-2.88983E-05-1.68100E-06-2.40187E-19 2.00874E-19
 -1      3105 9.52208E-05-2.79395E-05-2.88315E-05-1.14434E-06-8.20177E-19-5.74138E-19
 -1      3106 9.52047E-05-2.80139E-05-2.87985E-05-9.73805E-07-1.33947E-18-3.63961E-19
 -1      3107 9.49993E-05-2.77102E-05-2.88374E-05-1.25282E-06-5.41441E-19-2.13847E-19
 -1      3108 9.52398E-05-2.80971E-05-2.87728E-05-8.27271E-07-1.23607E-18-6.29280E-19
 -1      3109 9.52258E-05-2.81561E-05-2.87460E-05-6.96318E-07-8.10099E-19-8.55367E-19
 -1      3110 9.50865E-05-2.79237E-05-2.87837E-05-9.16006E-07-1.09442E-18 5.91017E-19
 -1      3111 9.52495E-05-2.82206E-05-2.87245E-05-5.84274E-07-3.96481E-19-1.34253E-18
 -1      3112 9.52379E-05-2.82668E-05-2.87033E-05-4.85297E-07 4.08843E-19-8.95922E-19
 -1      3113 9.51465E-05-2.80915E-05-2.87377E-05-6.55237E-07-7.87005E-19-4.20831E-19
 -1      3114 9.52537E-05-2.83162E-05-2.86858E-05-4.01043E-07 8.84363E-19-7.35074E-19
 -1      3115 9.52444E-05-2.83520E-05-2.86692E-05-3.27491E-07 6.43760E-20-5.34928E-20
 -1      3116 9.51871E-05-2.82217E-05-2.86995E-05-4.56621E-07 4.67948E-19-5.28122E-19
 -1      3117 9.52545E-05-2.83894E-05-2.86552E-05-2.65268E-07-4.07967E-19-7.07192E-19
 -1      3118 9.52473E-05-2.84166E-05-2.86424E-05-2.11619E-07-2.15429E-19-5.64263E-19
 -1      3119 9.52139E-05-2.83215E-05-2.86683E-05-3.07929E-07-2.73120E-19-4.99244E-19
 -1      3120 9.52535E-05-2.84445E-05-2.86314E-05-1.66580E-07-9.08281E-20-6.96173E-19
 -1      3121 9.52482E-05-2.84651E-05-2.86218E-05-1.28272E-07 2.03109E-19-4.60017E-19
 -1      3122 9.52310E-05-2.83969E-05-2.86433E-05-1.98676E-07-4.01210E-19-9.69288E-19
 -1      3123 9.52517E-05-2.84855E-05-2.86133E-05-9.64191E-08-2.69071E-19-5.84561E-19
 -1      3124 9.52478E-05-2.85007E-05-2.86062E-05-6.97468E-08-5.57139E-19-1.06202E-18
 -1      3125 9.52414E-05-2.84531E-05-2.86237E-05-1.20069E-07-2.87305E-19-4.39144E-19
 -1      3126 9.52496E-05-2.85155E-05-2.85998E-05-4.78401E-08 3.18976E-19-1.25181E-18
 -1      3127 9.52469E-05-2.85266E-05-2.85946E-05-2.98428E-08 2.84411E-19-1.23415E-18
 -1      3128 9.52472E-05-2.84941E-05-2.86086E-05-6.48778E-08-2.77792E-19-1.85816E-18
 -1      3129 9.52474E-05-2.85369E-05-2.85898E-05-1.53027E-08-6.76518E-19-9.43966E-19
 -1      3130 9.52456E-05-2.85448E-05-2.85862E-05-3.65308E-09-1.42278E-19-1.43578E-18
 -1      3131 9.52499E-05-2.85236E-05-2.85971E-05-2.72666E-08 1.35651E-19-1.48741E-18
 -1      3132 9.52454E-05-2.85519E-05-2.85827E-05 5.53977E-09 1.19236E-19-1.30608E-18
 -1      3133 9.52443E-05-2.85574E-05-2.85802E-05 1.26410E-08 6.28569E-19-1.84864E-18
 -1      3134 9.52506E-05-2.85442E-05-2.85886E-05-2.60771E-09-1.00950E-19-9.09028E-19
 -1      3135 9.52437E-05-2.85621E-05-2.85776E-05 1.80393E-08 9.99376E-19-2.75882E-18
 -1      3136 9.52430E-05-2.85658E-05-2.85760E-05 2.19576E-08 9.01917E-19-3.53154E-18
 -1      3137 9.52501E-05-2.85582E-05-2.85823E-05 1.27040E-08 2.17379E-19-4.46734E-19
 -1      3138 9.52422E-05-2.85688E-05-2.85742E-05 2.47313E-08 1.69507E-18-4.22015E-18
 -1      3139 9.52418E-05-2.85713E-05-2.85731E-05 2.64811E-08 3.98448E-19-2.91851E-18
 -1      3140 9.52488E-05-2.85675E-05-2.85778E-05 2.14248E-08 1.29156E-18-3.07209E-18
 -1      3141 9.52410E-05-2.85730E-05-2.85719E-05 2.74908E-08-4.69962E-19-1.62630E-18
 -1      3142 9.52409E-05-2.85746E-05-2.85713E-05 2.78040E-08 1.30929E-18-1.99704E-18
 -1      3143 9.52473E-05-2.85733E-05-2.85746E-05 2.56167E-08 1.06198E-18-2.16392E-18
 -1      3144 9.52400E-05-2.85756E-05-2.85704E-05 2.76746E-08 2.15817E-18-2.88492E-18
 -1      3145 9.52401E-05-2.85766E-05-2.85701E-05 2.70568E-08 2.27072E-18-2.26735E-18
 -1      3146 9.52456E-05-2.85767E-05-2.85724E-05 2.67827E-08 1.33605E-18-1.28203E-18
 -1      3147 9.52393E-05-2.85771E-05-2.85695E-05 2.61960E-08 2.06574E-18-2.40203E-18
 -1      3148 9.52396E-05-2.85779E-05-2.85693E-05 2.49789E-08 1.68293E-18-9.21081E-19
 -1      3149 9.52440E-05-2.85787E-05-2.85709E-05 2.60346E-08 2.31064E-18-1.00799E-18
 -1      3150 9.52389E-05-2.85782E-05-2.85689E-05 2.36403E-08 1.39307E-18-2.45624E-19
 -1      3151 9.52393E-05-2.85788E-05-2.85688E-05 2.20656E-08 1.07524E-19 3.18851E-19
 -1      3152 9.52427E-05-2.85799E-05-2.85698E-05 2.40223E-08 2.30172E-18-1.06459E-18
 -1      3153 1.11434E-04-3.94575E-05-3.08892E-05 1.49660E-06 3.41974E-19 5.44698E-20
 -1      3154 1.10169E-04-3.83549E-05-3.07092E-05 6.44271E-08 3.77082E-19 1.29326E-19
 -1      3155 1.07842E-04-3.65914E-05-3.05926E-05-1.07190E-06 5.34221E-19 3.26720E-20
 -1      3156 1.06511E-04-3.48507E-05-3.06255E-05-1.80452E-06 6.54627E-19 4.74181E-20
 -1      3157 1.08988E-04-3.81839E-05-3.04270E-05-2.14363E-06 3.97877E-19-3.48801E-19
 -1      3158 1.07513E-04-2.08864E-05-3.71164E-05 7.10907E-06 1.93838E-18 1.07062E-18
 -1      3159 1.09352E-04-2.45225E-05-3.65466E-05 9.91715E-06 1.68976E-18 1.21958E-18
 -1      3160 1.11596E-04-2.89222E-05-3.54081E-05 1.12518E-05 1.23271E-18 1.27070E-18
 -1      3161 1.13380E-04-3.30506E-05-3.45806E-05 1.15866E-05 7.45793E-19 1.36675E-18
 -1      3162 1.13838E-04-2.71841E-05-3.72392E-05 1.14903E-05 1.39498E-18 1.52163E-18
 -1      3163 1.09517E-04-2.14622E-05-3.80440E-05-9.90141E-06 2.50394E-18-9.99261E-19
 -1      3164 1.08119E-04-1.84204E-05-3.85692E-05-6.66610E-06 2.80487E-18-4.14515E-19
 -1      3165 1.16408E-04-3.32790E-05-3.57735E-05-1.30316E-05 1.36794E-18-2.06494E-18
 -1      3166 1.14262E-04-2.83642E-05-3.68662E-05-1.26456E-05 1.96692E-18-1.66801E-18
 -1      3167 1.13627E-04-4.10804E-05-3.10768E-05-4.78486E-06 8.09148E-21-1.52258E-18
 -1      3168 1.14096E-04-4.02882E-05-3.16783E-05-6.97536E-06 5.65550E-19-1.39146E-18
 -1      3169 1.10462E-04-4.02469E-05-3.00441E-05-1.70970E-08-1.83250E-19-1.32995E-18
 -1      3170 1.11709E-04-4.08198E-05-3.04139E-05-2.11829E-06-1.42216E-19-1.51887E-18
 -1      3171 1.14071E-04-4.26975E-05-3.05488E-05-1.75608E-06 8.94877E-20-7.95450E-19
 -1      3172 1.06599E-04-3.75887E-05-2.95195E-05 3.34623E-06 2.28596E-19-9.78088E-19
 -1      3173 1.08098E-04-3.88579E-05-2.97056E-05 1.86610E-06 8.44899E-20-1.01751E-18
 -1      3174 1.09544E-04-4.07256E-05-2.95298E-05 2.84124E-06-1.50428E-19-1.22810E-18
 -1      3175 1.03116E-04-3.46493E-05-2.92983E-05 5.27027E-06-6.61685E-19-8.26638E-19
 -1      3176 1.04515E-04-3.60113E-05-2.93801E-05 4.39320E-06-1.06516E-19-7.89843E-19
 -1      3177 1.05061E-04-3.73984E-05-2.90535E-05 5.54751E-06-1.75713E-19-7.55227E-19
 -1      3178 1.00396E-04-3.21143E-05-2.92324E-05 6.08086E-06-8.38944E-19-2.40151E-19
 -1      3179 1.01533E-04-3.32684E-05-2.92646E-05 5.68018E-06-6.53705E-19-4.80131E-19
 -1      3180 1.01402E-04-3.40790E-05-2.88990E-05 6.76178E-06-6.59636E-19-2.02352E-19
 -1      3181 9.84540E-05-3.02144E-05-2.92263E-05 6.15523E-06-6.83257E-19 5.01229E-20
 -1      3182 9.93059E-05-3.10727E-05-2.92431E-05 6.08834E-06-7.40697E-19 2.10662E-20
 -1      3183 9.87617E-05-3.14065E-05-2.88996E-05 6.99779E-06-9.20815E-19 2.28328E-19
 -1      3184 9.71534E-05-2.89318E-05-2.92276E-05 5.78604E-06-5.25972E-19 3.84244E-19
 -1      3185 9.77601E-05-2.95102E-05-2.92464E-05 5.93163E-06-5.07900E-19 3.88775E-19
 -1      3186 9.70115E-05-2.95035E-05-2.89538E-05 6.65918E-06-6.82269E-19 1.33606E-19
 -1      3187 9.63252E-05-2.81504E-05-2.92136E-05 5.17875E-06-4.19288E-19-8.26411E-19
 -1      3188 9.67447E-05-2.85044E-05-2.92406E-05 5.44513E-06-2.23866E-19 3.72617E-19
 -1      3189 9.59356E-05-2.82821E-05-2.90077E-05 6.01777E-06-2.51146E-19 3.77024E-19
 -1      3190 9.58211E-05-2.77354E-05-2.91791E-05 4.46999E-06-2.88422E-19-2.64041E-19
 -1      3191 9.61068E-05-2.79263E-05-2.92142E-05 4.79228E-06-5.19142E-19-4.22081E-19
 -1      3192 9.53266E-05-2.75868E-05-2.90390E-05 5.24428E-06-3.66904E-19 1.71028E-19
 -1      3193 9.55278E-05-2.75678E-05-2.91273E-05 3.74720E-06 6.35823E-19 2.14052E-19
 -1      3194 9.57216E-05-2.76489E-05-2.91680E-05 4.08185E-06 2.44482E-19-7.34888E-20
 -1      3195 9.50201E-05-2.72624E-05-2.90431E-05 4.44253E-06-2.08027E-19 3.64153E-19
 -1      3196 9.53658E-05-2.75552E-05-2.90643E-05 3.06361E-06 1.03028E-18 5.44895E-19
 -1      3197 9.54978E-05-2.75674E-05-2.91073E-05 3.38322E-06 1.00722E-18 7.15947E-19
 -1      3198 9.48974E-05-2.71805E-05-2.90236E-05 3.67428E-06 5.35275E-19 6.16266E-19
 -1      3199 9.52823E-05-2.76309E-05-2.89964E-05 2.44879E-06 1.06339E-18 5.54929E-19
 -1      3200 9.53732E-05-2.76035E-05-2.90388E-05 2.73772E-06 1.27648E-18 6.26651E-19
 -1      3201 9.48786E-05-2.72443E-05-2.89870E-05 2.97437E-06 1.07373E-18 7.33607E-19
 -1      3202 9.52437E-05-2.77498E-05-2.89289E-05 1.91614E-06 1.29581E-18-5.37251E-20
 -1      3203 9.53069E-05-2.77026E-05-2.89685E-05 2.16699E-06 1.51514E-18 5.62484E-19
 -1      3204 9.49127E-05-2.73860E-05-2.89404E-05 2.35985E-06 1.40105E-18 6.49653E-19
 -1      3205 9.52292E-05-2.78831E-05-2.88652E-05 1.46836E-06 3.36562E-19-2.28442E-19
 -1      3206 9.52739E-05-2.78288E-05-2.89009E-05 1.67929E-06 7.93674E-19 4.48377E-20
 -1      3207 9.49687E-05-2.75602E-05-2.88894E-05 1.83605E-06 1.04451E-18 8.81312E-19
 -1      3208 9.52268E-05-2.80135E-05-2.88079E-05 1.10146E-06-9.13886E-19-2.35956E-19
 -1      3209 9.52586E-05-2.79597E-05-2.88389E-05 1.27410E-06-2.41554E-19 8.30700E-20
 -1      3210 9.50291E-05-2.77391E-05-2.88386E-05 1.40069E-06-8.44471E-20 9.28763E-19
 -1      3211 9.52295E-05-2.81319E-05-2.87579E-05 8.07658E-07-4.37134E-19-1.41201E-19
 -1      3212 9.52524E-05-2.80826E-05-2.87841E-05 9.45620E-07-6.23176E-19-9.33633E-19
 -1      3213 9.50847E-05-2.79062E-05-2.87908E-05 1.04687E-06-2.75447E-19 5.00443E-19
 -1      3214 9.52337E-05-2.82339E-05-2.87157E-05 5.77353E-07-3.76789E-19 5.83576E-19
 -1      3215 9.52503E-05-2.81911E-05-2.87372E-05 6.85188E-07-4.90844E-19 4.54721E-19
 -1      3216 9.51317E-05-2.80536E-05-2.87478E-05 7.65239E-07-9.89678E-19 1.65705E-18
 -1      3217 9.52377E-05-2.83185E-05-2.86808E-05 4.00524E-07 3.18991E-19 1.37835E-19
 -1      3218 9.52496E-05-2.82829E-05-2.86981E-05 4.83026E-07 3.18203E-19 6.08118E-19
 -1      3219 9.51689E-05-2.81781E-05-2.87104E-05 5.45483E-07-1.72599E-19 1.68513E-18
 -1      3220 9.52407E-05-2.83867E-05-2.86526E-05 2.67559E-07-6.21174E-19 1.54530E-19
 -1      3221 9.52494E-05-2.83579E-05-2.86663E-05 3.29330E-07-2.14470E-19 1.81836E-19
 -1      3222 9.51970E-05-2.82800E-05-2.86789E-05 3.77352E-07 6.56148E-20 4.75378E-19
 -1      3223 9.52427E-05-2.84402E-05-2.86303E-05 1.69747E-07 3.26202E-19-7.02020E-19
 -1      3224 9.52489E-05-2.84175E-05-2.86409E-05 2.14954E-07-3.37680E-20-4.21611E-19
 -1      3225 9.52173E-05-2.83610E-05-2.86528E-05 2.51290E-07-9.25323E-20-4.05123E-19
 -1      3226 9.52438E-05-2.84811E-05-2.86130E-05 9.95065E-08 1.60171E-18-8.16033E-19
 -1      3227 9.52481E-05-2.84636E-05-2.86210E-05 1.31768E-07 4.76066E-19-1.27510E-18
 -1      3228 9.52311E-05-2.84239E-05-2.86318E-05 1.58780E-07 8.36451E-19-1.05009E-18
 -1      3229 9.52441E-05-2.85117E-05-2.85999E-05 5.04455E-08 1.03423E-18-1.14501E-18
 -1      3230 9.52470E-05-2.84985E-05-2.86058E-05 7.28040E-08 1.79892E-18-7.89589E-19
 -1      3231 9.52401E-05-2.84715E-05-2.86152E-05 9.24905E-08 1.31995E-18-2.13202E-18
 -1      3232 9.52438E-05-2.85340E-05-2.85901E-05 1.73189E-08 1.05975E-18-1.20266E-18
 -1      3233 9.52458E-05-2.85243E-05-2.85944E-05 3.22614E-08 1.35637E-18-1.16020E-18
 -1      3234 9.52453E-05-2.85067E-05-2.86024E-05 4.62865E-08 1.15268E-18-1.84908E-18
 -1      3235 9.52432E-05-2.85498E-05-2.85830E-05-4.07753E-09-8.30382E-19-4.15730E-19
 -1      3236 9.52445E-05-2.85429E-05-2.85861E-05 5.43459E-09 9.23720E-20-9.17372E-19
 -1      3237 9.52479E-05-2.85320E-05-2.85926E-05 1.51591E-08 4.16756E-19-1.30214E-18
 -1      3238 9.52425E-05-2.85606E-05-2.85780E-05-1.70382E-08-4.99741E-19 5.10197E-19
 -1      3239 9.52432E-05-2.85558E-05-2.85801E-05-1.14077E-08-1.01564E-18 1.89290E-19
 -1      3240 9.52488E-05-2.85498E-05-2.85854E-05-4.88983E-09-1.26113E-18-6.75403E-19
 -1      3241 9.52417E-05-2.85678E-05-2.85745E-05-2.40860E-08-3.82528E-19 1.95390E-18
 -1      3242 9.52420E-05-2.85646E-05-2.85759E-05-2.11578E-08-5.00229E-19 8.52516E-19
 -1      3243 9.52484E-05-2.85618E-05-2.85800E-05-1.69838E-08-1.39310E-18 5.48506E-20
 -1      3244 9.52409E-05-2.85724E-05-2.85722E-05-2.71053E-08-3.79671E-20 2.05605E-18
 -1      3245 9.52410E-05-2.85703E-05-2.85730E-05-2.60052E-08 2.30362E-19 2.32328E-18
 -1      3246 9.52474E-05-2.85697E-05-2.85762E-05-2.35085E-08-7.88668E-19 2.29639E-18
 -1      3247 9.52402E-05-2.85753E-05-2.85707E-05-2.74607E-08 3.69063E-19 1.32879E-18
 -1      3248 9.52401E-05-2.85739E-05-2.85712E-05-2.75623E-08 1.52298E-19 1.15628E-18
 -1      3249 9.52460E-05-2.85745E-05-2.85736E-05-2.62417E-08 3.49824E-19 2.33746E-18
 -1      3250 9.52396E-05-2.85770E-05-2.85697E-05-2.60986E-08-3.13027E-19 1.75928E-18
 -1      3251 9.52394E-05-2.85761E-05-2.85700E-05-2.69752E-08 2.77846E-19 9.40954E-19
 -1      3252 9.52446E-05-2.85774E-05-2.85717E-05-2.64670E-08 2.46872E-19 1.73445E-18
 -1      3253 9.52393E-05-2.85781E-05-2.85690E-05-2.36488E-08-1.62875E-20 1.87806E-18
 -1      3254 9.52390E-05-2.85775E-05-2.85692E-05-2.50195E-08-4.72450E-19 1.61036E-18
 -1      3255 9.52432E-05-2.85791E-05-2.85704E-05-2.50824E-08-2.04352E-19 6.37175E-19
 -1      3256 9.52393E-05-2.85791E-05-2.85686E-05-2.08809E-08 1.13786E-19 1.83270E-18
 -1      3257 9.52387E-05-2.85784E-05-2.85687E-05-2.25452E-08 1.03352E-19 2.37077E-18
 -1      3258 9.52422E-05-2.85801E-05-2.85695E-05-2.30098E-08 2.22530E-20 2.39347E-18
 -1      3259 9.52413E-05-2.85807E-05-2.85689E-05-2.06833E-08 1.07303E-18 1.93960E-18
 -1      3260 9.52466E-05-2.85843E-05-2.85696E-05 1.80566E-08 2.86154E-18 1.14500E-18
 -1      3261 9.52487E-05-2.85858E-05-2.85697E-05 1.62309E-08 2.40653E-18-1.10629E-18
 -1      3262 9.52504E-05-2.85871E-05-2.85700E-05 1.36233E-08 2.01488E-18-2.38683E-18
 -1      3263 9.52518E-05-2.85880E-05-2.85702E-05 1.10558E-08 2.57075E-18-1.59410E-18
 -1      3264 9.52510E-05-2.85861E-05-2.85707E-05 1.58248E-08 3.01364E-18-1.47548E-18
 -1      3265 9.52529E-05-2.85888E-05-2.85703E-05 7.97952E-09 1.73458E-18-1.26304E-18
 -1      3266 9.52536E-05-2.85893E-05-2.85704E-05 5.00765E-09 2.61096E-18-1.54666E-18
 -1      3267 9.52540E-05-2.85879E-05-2.85712E-05 1.00900E-08 2.18004E-18-8.95356E-19
 -1      3268 9.52540E-05-2.85895E-05-2.85705E-05 1.57550E-09 2.52552E-18-6.07913E-19
 -1      3269 9.52539E-05-2.85895E-05-2.85705E-05-1.58764E-09 2.29606E-18-7.93917E-19
 -1      3270 9.52556E-05-2.85889E-05-2.85715E-05 3.46149E-09 2.50911E-18-8.86565E-19
 -1      3271 1.09717E-04-4.95662E-05-2.59287E-05 2.34047E-05 1.29699E-18-6.60395E-19
 -1      3272 1.30109E-04-4.42453E-05-3.68395E-05 6.96645E-06 5.89482E-20 1.46897E-18
 -1      3273 1.28632E-04-3.63321E-05-4.00695E-05 1.16340E-05 1.03055E-18 1.52212E-18
 -1      3274 1.06394E-04-1.73286E-05-3.83366E-05-1.34500E-06 2.53281E-18 3.34217E-19
 -1      3275 1.06904E-04-1.80149E-05-3.82688E-05 2.83545E-06 2.38389E-18 5.38428E-19
 -1      3276 1.10364E-04-1.74511E-05-3.99723E-05 6.17737E-06 2.50102E-18 6.63756E-19
 -1      3277 1.11633E-04-1.52833E-05-4.15224E-05-3.87006E-06 3.28453E-18-5.44245E-19
 -1      3278 1.21620E-04-5.54388E-05-2.80266E-05-1.58029E-05 2.37214E-18-3.04294E-18
 -1      3279 9.52536E-05-2.85892E-05-2.85704E-05-5.01573E-09 1.17131E-18-2.61153E-18
 -1      3280 9.52529E-05-2.85887E-05-2.85704E-05-8.02047E-09 1.66364E-18-3.10119E-18
 -1      3281 9.52556E-05-2.85889E-05-2.85715E-05-3.49623E-09 2.57731E-18-1.32783E-18
 -1      3282 9.41133E-05-2.58089E-05-2.92371E-05 1.22363E-05 2.38210E-19-1.82318E-18
 -1      3283 9.61088E-05-2.88264E-05-2.87724E-05 1.38772E-05 5.02575E-19-1.76135E-18
 -1      3284 9.12995E-05-2.78970E-05-2.72508E-05 1.65924E-05 7.59110E-19-1.89231E-18
 -1      3285 9.26408E-05-4.40407E-05-2.03196E-05-3.15908E-05 2.73687E-18-6.35434E-19
 -1      3286 1.09409E-04-5.30534E-05-2.43282E-05-2.64939E-05 3.03053E-18-2.33718E-18
 -1      3287 9.59940E-05-4.24906E-05-2.24215E-05 2.93190E-05 1.83838E-18-1.84809E-18
 -1      3288 1.30591E-04-4.97526E-05-3.49856E-05-2.78525E-06 4.07013E-19-2.26227E-18
 -1      3289 1.30189E-04-5.55521E-05-3.17993E-05 7.35175E-06-2.09565E-19-3.05710E-18
 -1      3290 9.23858E-05-2.13562E-05-3.04296E-05 7.82367E-06-2.31413E-19-2.35128E-18
 -1      3291 9.34159E-05-2.35388E-05-2.99154E-05 9.87032E-06 3.65891E-20-2.14837E-18
 -1      3292 8.90667E-05-2.20617E-05-2.87476E-05 1.15171E-05 2.77024E-19-2.20078E-18
 -1      3293 8.10276E-05-1.37247E-05-2.87930E-05-7.89007E-06 1.02305E-18-2.61487E-18
 -1      3294 7.80202E-05-1.18099E-05-2.84441E-05-7.86203E-06 8.18058E-19-2.79173E-18
 -1      3295 4.89838E-05-1.57921E-05-1.41385E-05 1.87239E-05-1.18365E-18 1.33461E-18
 -1      3296 4.38951E-05-1.20314E-05-1.32520E-05 6.51135E-06-3.98827E-19 1.61476E-18
 -1      3297 5.59483E-05-1.88170E-05-1.57766E-05 2.38333E-05 1.43064E-18-4.32622E-18
 -1      3298 4.60780E-05-1.18808E-05-1.42580E-05 1.32198E-05 1.07871E-18-4.64174E-18
 -1      3299 1.08571E-04-4.99151E-05-2.47239E-05-2.76464E-05-1.91805E-18-1.65029E-18
 -1      3300 1.19578E-04-5.44073E-05-2.82655E-05-1.96581E-05-1.53064E-18-7.36621E-19
 -1      3301 1.14390E-04-1.28221E-05-4.40428E-05 4.29373E-06 3.68819E-18 4.36037E-19
 -1      3302 1.14595E-04-1.16165E-05-4.44942E-05-2.08626E-06 3.93172E-18-2.79733E-19
 -1      3303 1.26142E-04-1.92673E-05-4.59511E-05 1.15028E-05-3.39237E-18-3.19660E-18
 -1      3304 5.32523E-05-1.63110E-05-1.54453E-05-2.38456E-05-8.35360E-19-4.60320E-18
 -1      3305 6.55920E-05-2.54845E-05-1.70529E-05-3.24647E-05-1.48453E-18-4.05051E-18
 -1      3306 4.30356E-05-1.20752E-05-1.29529E-05-4.00905E-06 3.39448E-19 2.25332E-18
 -1      3307 4.89445E-05-1.56005E-05-1.40016E-05-1.56786E-05 1.22904E-18 2.73210E-18
 -1      3308 3.90969E-05-1.03068E-05-1.16934E-05-5.89542E-06 1.69420E-19-5.24546E-18
 -1      3309 8.16692E-05-3.54492E-05-1.97927E-05 3.16097E-05 1.81223E-18-2.62316E-18
 -1      3310 6.84175E-05-2.60611E-05-1.76414E-05 2.84967E-05 1.70966E-18-3.49380E-18
 -1      3311 6.59878E-05-2.13446E-05-1.88231E-05 2.29807E-05 1.28940E-18-3.71170E-18
 -1      3312 9.01028E-05-3.57655E-05-2.30099E-05 2.61505E-05 1.58300E-18-2.08125E-18
 -1      3313 1.23500E-04-5.72138E-05-2.87403E-05 1.78917E-05-5.24949E-19-3.06863E-18
 -1      3314 1.14791E-04-5.55345E-05-2.50471E-05 2.68813E-05-1.55701E-18-1.30906E-18
 -1      3315 1.08500E-04-5.16183E-05-2.41836E-05 2.74028E-05-1.77051E-18-1.02614E-18
 -1      3316 6.03765E-05-2.35039E-05-1.53503E-05-2.58278E-05 2.47937E-18 2.35242E-18
 -1      3317 7.53368E-05-3.41263E-05-1.76031E-05-3.23778E-05 2.50134E-18 6.39722E-19
 -1      3318 1.01460E-04-2.87629E-05-3.11024E-05-1.50986E-06 1.49160E-18 4.60707E-20
 -1      3319 4.16117E-05-8.78622E-06-1.36607E-05 2.11992E-06 6.07852E-19-4.82915E-18
 -1      3320 4.43756E-05-1.01527E-05-1.44053E-05-1.16162E-05-2.70058E-20-4.87817E-18
 -1      3321 5.02083E-05-1.06690E-05-1.64919E-05 6.79656E-06 8.51308E-19-4.53644E-18
 -1      3322 7.52036E-05-9.54025E-06-2.80952E-05-6.95263E-06 7.32175E-19-2.85638E-18
 -1      3323 7.32118E-05-8.25221E-06-2.79086E-05-6.00404E-06 5.51470E-19-2.99751E-18
 -1      3324 7.67246E-05-1.22491E-05-2.76240E-05-8.88409E-06 5.79908E-19-2.73299E-18
 -1      3325 7.63627E-05-2.92780E-05-1.98639E-05-3.02853E-05-1.53975E-18-3.23307E-18
 -1      3326 1.25113E-04-4.83310E-05-3.27593E-05 9.81835E-07-4.02830E-19 8.72656E-19
 -1      3327 1.28787E-04-4.79162E-05-3.48021E-05 4.27915E-06-2.53528E-19 1.21078E-18
 -1      3328 1.24149E-04-4.21128E-05-3.52904E-05 8.56686E-06 1.07785E-19 1.54656E-18
 -1      3329 1.14664E-04-3.66601E-05-3.34509E-05-1.07992E-05 9.34052E-19-1.87415E-18
 -1      3330 1.21371E-04-3.83291E-05-3.57220E-05-1.15953E-05 1.03820E-18-2.14425E-18
 -1      3331 1.24039E-04-5.47572E-05-2.96718E-05 1.15183E-05-6.49357E-19-2.95109E-18
 -1      3332 1.02823E-04-3.08987E-05-3.08459E-05-1.88924E-06 1.14904E-18-8.36321E-20
 -1      3333 1.23584E-04-3.07518E-05-4.00465E-05 1.26430E-05 1.32892E-18 1.43466E-18
 -1      3334 8.21137E-05-3.60421E-05-1.93521E-05 3.20713E-05-1.89555E-18 4.89400E-19
 -1      3335 7.70368E-05-3.00049E-05-2.00773E-05 2.76654E-05-2.02319E-18 7.21090E-19
 -1      3336 8.97907E-05-4.02565E-05-2.12895E-05 3.04543E-05-1.89010E-18-2.41722E-19
 -1      3337 1.19078E-04-2.50000E-05-4.04419E-05-1.28702E-05 2.78923E-18-2.15040E-18
 -1      3338 1.28482E-04-2.71646E-05-4.39900E-05 1.68590E-05-2.34829E-18-3.29671E-18
 -1      3339 1.13722E-04-5.05711E-05-2.69234E-05-1.85286E-05 2.10827E-18-2.45174E-18
 -1      3340 8.69908E-05-3.79762E-05-2.06596E-05-2.84610E-05 2.72631E-18-7.67994E-19
 -1      3341 1.13601E-04-4.04278E-05-3.13359E-05 3.72893E-06 1.24891E-19 3.45222E-19
 -1      3342 1.13674E-04-4.12693E-05-3.10524E-05 1.16819E-06 1.24110E-19 2.02765E-19
 -1      3343 1.14191E-04-4.00652E-05-3.17967E-05 5.71955E-06 6.45102E-20 5.88817E-19
 -1      3344 9.52389E-05-2.85793E-05-2.85684E-05 2.01859E-08-3.69766E-19 1.60322E-18
 -1      3345 1.02826E-04-3.17527E-05-3.05020E-05-3.31067E-06 1.03231E-18-3.81456E-19
 -1      3346 1.17603E-04-4.23998E-05-3.22900E-05-6.82100E-06 2.57753E-19-8.80643E-19
 -1      3347 1.15523E-04-3.93237E-05-3.26825E-05-9.53907E-06 7.27879E-19-1.68029E-18
 -1      3348 9.52436E-05-2.85822E-05-2.85692E-05 2.01796E-08 2.49468E-18 1.11842E-18
 -1      3349 9.52456E-05-2.85826E-05-2.85698E-05 2.06149E-08 3.25398E-18 5.02203E-19
 -1      3350 9.52518E-05-2.85880E-05-2.85702E-05-1.11396E-08 8.43877E-19-2.71859E-18
 -1      3351 9.52504E-05-2.85870E-05-2.85700E-05-1.36828E-08 8.55556E-19-1.78091E-18
 -1      3352 9.52539E-05-2.85879E-05-2.85712E-05-1.01344E-08 2.20124E-18-2.06005E-18
 -1      3353 9.52416E-05-2.85808E-05-2.85689E-05 2.08166E-08 1.07374E-18 1.38173E-18
 -1      3354 1.14392E-04-3.64588E-05-3.33885E-05 9.93001E-06 4.42849E-19 1.13831E-18
 -1      3355 1.15012E-04-3.89230E-05-3.26680E-05 8.48630E-06-1.03087E-21 7.84349E-19
 -1      3356 1.17096E-04-4.15367E-05-3.23735E-05 6.08698E-06-6.05695E-20 5.85730E-19
 -1      3357 1.17201E-04-3.63478E-05-3.46411E-05 1.09369E-05 3.94003E-19 1.23660E-18
 -1      3358 9.52486E-05-2.85858E-05-2.85698E-05-1.62044E-08 6.07562E-19-1.68492E-19
 -1      3359 9.52465E-05-2.85843E-05-2.85696E-05-1.80572E-08 4.39421E-19 1.24226E-18
 -1      3360 9.52507E-05-2.85859E-05-2.85706E-05-1.58565E-08-3.89482E-19-1.11409E-18
 -1      3361 9.37623E-05-2.24002E-05-3.05729E-05-4.05148E-06 1.57916E-18-1.22544E-18
 -1      3362 9.08696E-05-2.05283E-05-3.01621E-05-5.34559E-06 1.35024E-18-1.53430E-18
 -1      3363 9.66254E-05-2.57062E-05-3.04181E-05-4.43498E-06 1.34214E-18-9.40474E-19
 -1      3364 1.24840E-04-4.15487E-05-3.58480E-05-9.99803E-06 7.72977E-19-2.24085E-18
 -1      3365 1.28795E-04-4.68174E-05-3.53461E-05-6.27151E-06 6.07271E-19-2.21097E-18
 -1      3366 1.25692E-04-4.91919E-05-3.27967E-05-1.60014E-06-1.26764E-19-2.05777E-18
 -1      3367 1.21829E-04-4.37969E-05-3.33460E-05-7.68821E-06 3.94492E-19-1.63255E-18
 -1      3368 7.73321E-05-1.03357E-05-2.87606E-05 3.75599E-06 3.55236E-19-3.27190E-18
 -1      3369 8.08100E-05-1.25026E-05-2.92559E-05 4.74742E-06 1.26989E-19-3.19590E-18
 -1      3370 1.14667E-04-1.65990E-05-4.23092E-05 6.99557E-06 2.89214E-18 8.31958E-19
 -1      3371 9.52434E-05-2.85821E-05-2.85691E-05-1.98394E-08 1.52530E-18 1.52491E-18
 -1      3372 5.11325E-05-1.29034E-05-1.59144E-05 1.28497E-06-1.93024E-19 1.72641E-18
 -1      3373 9.52454E-05-2.85826E-05-2.85698E-05-2.03193E-08-4.38383E-19 1.47397E-18
 -1      3374 6.12607E-05-1.96043E-05-1.74591E-05 1.99880E-05-1.65786E-18 1.20692E-18
 -1      3375 1.02766E-04-4.51116E-05-2.44956E-05-2.69521E-05-1.72631E-18-1.87787E-18
 -1      3376 7.44726E-05-8.43249E-06-2.83085E-05 1.73442E-06 3.88513E-19-3.40566E-18
 -1      3377 7.53951E-05-1.04223E-05-2.78021E-05 3.97136E-06 4.62120E-19-3.23278E-18
 -1      3378 7.25916E-05-7.26931E-06-2.80121E-05 2.32558E-07 5.17277E-19-3.37609E-18
 -1      3379 1.20918E-04-5.22181E-05-2.94067E-05-1.31330E-05-1.26833E-18-3.14759E-19
 -1      3380 5.19131E-05-1.00386E-05-1.77535E-05-1.02096E-05 1.73152E-19-4.24956E-18
 -1      3381 5.11836E-05-1.22684E-05-1.62569E-05-1.73279E-05-4.17892E-19-4.52437E-18
 -1      3382 5.97221E-05-1.57300E-05-1.86531E-05-2.03487E-05-7.24347E-19-3.99154E-18
 -1      3383 8.44267E-05-1.62630E-05-2.92610E-05-7.50885E-06 1.08201E-18-2.36549E-18
 -1      3384 8.35997E-05-1.71466E-05-2.84990E-05-9.35607E-06 7.99341E-19-2.36502E-18
 -1      3385 8.76710E-05-1.83208E-05-2.96825E-05-6.67869E-06 1.23614E-18-1.97385E-18
 -1      3386 5.78884E-05-1.62524E-05-1.77541E-05-1.39693E-05 6.26037E-19 1.62588E-18
 -1      3387 5.82173E-05-1.94594E-05-1.62460E-05-2.01763E-05 1.69023E-18 2.48535E-18
 -1      3388 6.79325E-05-2.34855E-05-1.90239E-05-2.25819E-05 2.18059E-18 8.87796E-19
 -1      3389 9.23463E-05-1.94860E-05-3.12236E-05 5.15307E-06-5.42313E-19-2.63829E-18
 -1      3390 8.85801E-05-1.78685E-05-3.02981E-05 6.32729E-06-2.45616E-19-2.64666E-18
 -1      3391 1.09884E-04-3.97282E-05-3.00363E-05-4.45543E-06 1.10581E-19-2.32331E-19
 -1      3392 1.07247E-04-3.71266E-05-2.99079E-05-5.26339E-06 3.00138E-19-2.77592E-19
 -1      3393 9.52470E-05-2.85822E-05-2.85706E-05 2.16557E-08 2.63783E-18 2.75612E-19
 -1      3394 9.52503E-05-2.85843E-05-2.85712E-05 1.93278E-08 3.15230E-18 5.24002E-19
 -1      3395 9.52477E-05-2.85816E-05-2.85712E-05 2.27804E-08 2.89401E-18 6.13820E-20
 -1      3396 8.55295E-05-1.60187E-05-2.98141E-05 6.20086E-06 1.10759E-20-2.83615E-18
 -1      3397 1.22758E-04-5.19180E-05-3.04857E-05 6.02507E-06-3.72066E-19-2.25042E-18
 -1      3398 1.18590E-04-5.28250E-05-2.79685E-05 1.47869E-05-1.00575E-18-2.58550E-18
 -1      3399 8.60520E-05-3.00276E-05-2.38082E-05 2.29154E-05 1.29382E-18-2.16232E-18
 -1      3400 5.56832E-05-1.17635E-05-1.87243E-05 1.11645E-05 9.98917E-19-4.18800E-18
 -1      3401 5.20181E-05-9.05255E-06-1.82346E-05 1.11300E-06 7.04917E-19-4.35581E-18
 -1      3402 1.02987E-04-3.63803E-05-2.84852E-05 8.04263E-06-4.54177E-19-4.59704E-19
 -1      3403 1.05126E-04-3.83839E-05-2.86102E-05 7.30149E-06-3.73845E-19-6.06530E-19
 -1      3404 1.08089E-04-4.07026E-05-2.88084E-05 6.46749E-06-1.97479E-19-8.23796E-19
 -1      3405 1.10492E-04-4.25862E-05-2.91232E-05 4.91661E-06-6.16977E-20-7.53347E-19
 -1      3406 1.05344E-04-3.98361E-05-2.81679E-05 9.39095E-06-3.68188E-19-7.28318E-19
 -1      3407 8.81917E-05-2.98794E-05-2.48484E-05-1.95132E-05 1.54080E-18-1.18339E-18
 -1      3408 8.62520E-05-2.69261E-05-2.54308E-05-1.76161E-05 1.10053E-18-1.25561E-18
 -1      3409 8.69244E-05-2.54902E-05-2.62447E-05-1.53088E-05-4.62460E-20-1.16085E-18
 -1      3410 8.63090E-05-2.40518E-05-2.67143E-05-1.38674E-05-3.31537E-19-1.48766E-18
 -1      3411 8.13929E-05-2.35494E-05-2.47650E-05-1.62096E-05 6.40703E-19-8.51463E-19
 -1      3412 8.72597E-05-2.34785E-05-2.72949E-05-1.22966E-05-3.48278E-19-1.58986E-18
 -1      3413 8.73242E-05-2.29220E-05-2.76353E-05-1.11635E-05-5.98775E-21-1.56217E-18
 -1      3414 8.32001E-05-2.18466E-05-2.62601E-05-1.23834E-05-5.43688E-19-6.26308E-19
 -1      3415 8.83363E-05-2.28878E-05-2.80300E-05-1.00513E-05 3.51478E-19-1.76292E-18
 -1      3416 8.86697E-05-2.28140E-05-2.82520E-05-9.13280E-06 8.44305E-20-1.07275E-18
 -1      3417 8.52296E-05-2.14801E-05-2.72945E-05-9.79267E-06-1.08068E-19-1.07762E-18
 -1      3418 8.96024E-05-2.30619E-05-2.85077E-05-8.29115E-06-1.64941E-19-1.41098E-18
 -1      3419 9.00078E-05-2.32388E-05-2.86376E-05-7.52054E-06-4.73265E-20-1.18708E-18
 -1      3420 8.71897E-05-2.18343E-05-2.79839E-05-7.96681E-06-2.92010E-19-1.78364E-18
 -1      3421 9.08088E-05-2.36109E-05-2.87938E-05-6.84423E-06-1.29822E-19-1.34162E-18
 -1      3422 9.11912E-05-2.38972E-05-2.88582E-05-6.18149E-06-1.00192E-20-1.47746E-18
 -1      3423 8.89165E-05-2.25420E-05-2.84245E-05-6.56232E-06-2.55587E-19-1.76215E-18
 -1      3424 9.18515E-05-2.43035E-05-2.89455E-05-5.61533E-06 3.73472E-22-1.71072E-18
 -1      3425 9.21745E-05-2.46201E-05-2.89663E-05-5.04139E-06-5.03784E-19-1.48895E-18
 -1      3426 9.03641E-05-2.33802E-05-2.86898E-05-5.41030E-06-4.59836E-20-1.94985E-18
 -1      3427 9.27037E-05-2.50117E-05-2.90077E-05-4.55920E-06-3.72699E-19-3.83322E-19
 -1      3428 9.29601E-05-2.53172E-05-2.90015E-05-4.06506E-06-3.64563E-19 2.23830E-19
 -1      3429 9.15392E-05-2.42250E-05-2.88353E-05-4.43049E-06 2.83219E-19-9.42063E-19
 -1      3430 9.33753E-05-2.56700E-05-2.90135E-05-3.65419E-06-1.08794E-18-1.48157E-19
 -1      3431 9.35708E-05-2.59446E-05-2.89921E-05-3.23410E-06-9.49252E-19-1.25799E-18
 -1      3432 9.24710E-05-2.50103E-05-2.89014E-05-3.58757E-06-5.96322E-19 4.03315E-20
 -1      3433 9.38911E-05-2.62494E-05-2.89863E-05-2.88710E-06-8.87105E-20-1.44308E-18
 -1      3434 9.40361E-05-2.64860E-05-2.89576E-05-2.53548E-06-1.44220E-20-1.16124E-18
 -1      3435 9.31964E-05-2.57053E-05-2.89171E-05-2.86527E-06-7.25466E-19-2.77299E-19
 -1      3436 9.42798E-05-2.67419E-05-2.89420E-05-2.24639E-06 1.60410E-19-5.70635E-19
 -1      3437 9.43852E-05-2.69400E-05-2.89111E-05-1.95691E-06 4.59141E-19-9.82164E-20
 -1      3438 9.37527E-05-2.63002E-05-2.89026E-05-2.25374E-06 1.95487E-19-2.29130E-19
 -1      3439 9.45683E-05-2.71503E-05-2.88908E-05-1.71983E-06-5.34264E-19 6.41953E-20
 -1      3440 9.46436E-05-2.73128E-05-2.88607E-05-1.48543E-06-4.73398E-19-4.11229E-19
 -1      3441 9.41739E-05-2.67972E-05-2.88717E-05-1.74407E-06 3.62736E-19 1.86083E-19
 -1      3442 9.47796E-05-2.74827E-05-2.88391E-05-1.29419E-06-2.63943E-19-1.07086E-18
 -1      3443 9.48326E-05-2.76139E-05-2.88117E-05-1.10746E-06-6.45391E-19-4.50414E-19
 -1      3444 9.44892E-05-2.72047E-05-2.88333E-05-1.32650E-06-8.20661E-19-6.04222E-19
 -1      3445 9.49324E-05-2.77491E-05-2.87908E-05-9.55778E-07-1.48468E-18-7.09335E-19
 -1      3446 9.49691E-05-2.78534E-05-2.87667E-05-8.09429E-07-1.72154E-18-1.16876E-18
 -1      3447 9.47223E-05-2.75335E-05-2.87932E-05-9.90327E-07-1.02873E-18-1.23912E-18
 -1      3448 9.50413E-05-2.79596E-05-2.87476E-05-6.91140E-07-8.54698E-19-5.90851E-19
 -1      3449 9.50663E-05-2.80415E-05-2.87270E-05-5.78305E-07-2.67341E-19-1.00010E-19
 -1      3450 9.48925E-05-2.77949E-05-2.87548E-05-7.24362E-07-1.15428E-18-1.83362E-18
 -1      3451 9.51178E-05-2.81238E-05-2.87103E-05-4.87645E-07 2.92790E-19-6.04357E-19
 -1      3452 9.51344E-05-2.81872E-05-2.86932E-05-4.02108E-07 1.98826E-19-1.20508E-18
 -1      3453 9.50150E-05-2.80000E-05-2.87198E-05-5.17600E-07-1.14196E-19-1.09466E-19
 -1      3454 9.51704E-05-2.82501E-05-2.86790E-05-3.33870E-07-3.84633E-19-1.50694E-18
 -1      3455 9.51812E-05-2.82986E-05-2.86651E-05-2.70177E-07-3.08368E-19-1.49056E-18
 -1      3456 9.51017E-05-2.81587E-05-2.86893E-05-3.59707E-07-4.02622E-19-1.17883E-18
 -1      3457 9.52057E-05-2.83460E-05-2.86533E-05-2.19801E-07-4.07781E-19-9.96990E-19
 -1      3458 9.52124E-05-2.83825E-05-2.86422E-05-1.73292E-07-6.44877E-19-8.04406E-19
 -1      3459 9.51618E-05-2.82797E-05-2.86634E-05-2.41355E-07-2.03871E-19-6.49087E-20
 -1      3460 9.52286E-05-2.84176E-05-2.86326E-05-1.36890E-07-6.35985E-19-6.61124E-19
 -1      3461 9.52324E-05-2.84447E-05-2.86239E-05-1.03674E-07-3.58264E-19-7.50557E-19
 -1      3462 9.52023E-05-2.83707E-05-2.86419E-05-1.54399E-07-4.99193E-19 4.29652E-19
 -1      3463 9.52426E-05-2.84702E-05-2.86162E-05-7.80104E-08-1.04311E-18-5.86771E-19
 -1      3464 9.52446E-05-2.84899E-05-2.86095E-05-5.48981E-08-2.69009E-19-1.20093E-18
 -1      3465 9.52285E-05-2.84378E-05-2.86245E-05-9.19172E-08-4.45244E-19 8.62562E-19
 -1      3466 9.52505E-05-2.85081E-05-2.86035E-05-3.73355E-08 6.38714E-19-1.96108E-18
 -1      3467 9.52512E-05-2.85222E-05-2.85984E-05-2.17670E-08 1.70057E-19-1.23761E-18
 -1      3468 9.52446E-05-2.84865E-05-2.86106E-05-4.81660E-08-1.53012E-19-4.14956E-19
 -1      3469 9.52543E-05-2.85348E-05-2.85938E-05-1.01971E-08-1.36142E-19-1.24669E-18
 -1      3470 9.52542E-05-2.85446E-05-2.85900E-05-1.52034E-10 5.48783E-20-1.36007E-18
 -1      3471 9.52537E-05-2.85211E-05-2.85997E-05-1.84824E-08 2.22846E-19-2.46648E-18
 -1      3472 9.52553E-05-2.85531E-05-2.85865E-05 7.07809E-09-1.91412E-19-1.27023E-18
 -1      3473 9.52547E-05-2.85596E-05-2.85837E-05 1.31649E-08 1.03762E-19-1.40459E-18
 -1      3474 9.52578E-05-2.85449E-05-2.85913E-05 8.44552E-10-2.77351E-19-1.33272E-18
 -1      3475 9.52545E-05-2.85651E-05-2.85811E-05 1.73257E-08 4.74368E-19-1.93019E-18
 -1      3476 9.52538E-05-2.85694E-05-2.85791E-05 2.06422E-08 1.33725E-18-2.11489E-18
 -1      3477 9.52588E-05-2.85608E-05-2.85849E-05 1.27108E-08 1.44057E-19-1.33313E-18
 -1      3478 9.52528E-05-2.85727E-05-2.85771E-05 2.26882E-08 1.96932E-18-1.76727E-18
 -1      3479 9.52519E-05-2.85753E-05-2.85757E-05 2.41138E-08 1.44639E-18-8.08047E-19
 -1      3480 9.52577E-05-2.85709E-05-2.85801E-05 1.93293E-08 1.45435E-18 8.64395E-20
 -1      3481 9.52506E-05-2.85772E-05-2.85743E-05 2.47501E-08 1.16829E-18-5.15247E-19
 -1      3482 9.52498E-05-2.85788E-05-2.85733E-05 2.48854E-08 1.22221E-18-2.24171E-19
 -1      3483 9.52555E-05-2.85771E-05-2.85765E-05 2.23552E-08 1.99509E-18-5.29666E-19
 -1      3484 9.52492E-05-2.85799E-05-2.85725E-05 2.43259E-08 2.54066E-18-1.92995E-19
 -1      3485 9.52484E-05-2.85808E-05-2.85718E-05 2.36832E-08 2.96273E-18 2.76303E-19
 -1      3486 9.52527E-05-2.85830E-05-2.85727E-05 2.12255E-08 3.24238E-18 2.41097E-19
 -1      3487 9.52539E-05-2.85807E-05-2.85742E-05 2.26302E-08 2.29035E-18 1.49253E-18
 -1      3488 8.34928E-05-1.60894E-05-2.88541E-05 7.61961E-06 1.90552E-19-2.87729E-18
 -1      3489 6.83955E-05-2.22047E-05-1.97923E-05 2.11433E-05-1.76665E-18 1.22206E-18
 -1      3490 6.00154E-05-1.58607E-05-1.86051E-05 1.37027E-05-1.40926E-18 8.14581E-19
 -1      3491 1.17385E-04-4.49648E-05-3.10105E-05-2.15962E-06 1.42374E-19-6.93321E-19
 -1      3492 1.19375E-04-4.45999E-05-3.20545E-05-4.69140E-06 1.43427E-19-8.34870E-19
 -1      3493 1.21263E-04-4.71265E-05-3.19193E-05-2.50867E-06-1.45365E-19-1.11954E-18
 -1      3494 1.15266E-04-4.47319E-05-3.02196E-05 8.43941E-07 1.99979E-20-8.10278E-19
 -1      3495 9.92933E-05-3.27908E-05-2.84623E-05 8.28468E-06-1.24655E-18-2.44656E-19
 -1      3496 1.00907E-04-3.44519E-05-2.84742E-05 8.10212E-06-7.00140E-19-3.06088E-19
 -1      3497 1.00393E-04-3.52160E-05-2.80025E-05 9.83349E-06-7.55085E-19-3.26895E-19
 -1      3498 9.68663E-05-3.01629E-05-2.85657E-05 7.80454E-06-8.29501E-19-1.61109E-19
 -1      3499 9.79735E-05-3.13680E-05-2.85320E-05 7.94535E-06-9.06023E-19-2.93807E-19
 -1      3500 9.70629E-05-3.16008E-05-2.81017E-05 9.24616E-06-1.06982E-18-7.97506E-19
 -1      3501 9.54100E-05-2.84285E-05-2.86968E-05 6.99123E-06-6.78128E-19-1.16295E-19
 -1      3502 9.61127E-05-2.92191E-05-2.86554E-05 7.30429E-06-7.76825E-19-1.83194E-19
 -1      3503 9.50584E-05-2.91065E-05-2.82943E-05 8.21776E-06-7.22808E-19-6.14627E-19
 -1      3504 9.46280E-05-2.74030E-05-2.88082E-05 6.06042E-06-3.94694E-19 2.73480E-20
 -1      3505 9.50410E-05-2.78689E-05-2.87766E-05 6.45127E-06-6.73627E-19-5.12574E-20
 -1      3506 9.39868E-05-2.75494E-05-2.84896E-05 7.06974E-06-8.35354E-19-2.97639E-19
 -1      3507 9.42810E-05-2.68890E-05-2.88838E-05 5.12594E-06-8.26171E-19 6.82900E-19
 -1      3508 9.45014E-05-2.71221E-05-2.88675E-05 5.53817E-06-2.93697E-19 4.15629E-19
 -1      3509 9.35245E-05-2.66967E-05-2.86488E-05 5.95240E-06-6.50762E-19 7.27587E-19
 -1      3510 9.41967E-05-2.67184E-05-2.89228E-05 4.24710E-06 7.98477E-20-2.33442E-19
 -1      3511 9.42968E-05-2.67963E-05-2.89212E-05 4.64725E-06-3.90231E-19 4.12374E-19
 -1      3512 9.34336E-05-2.63323E-05-2.87610E-05 4.92665E-06-2.84378E-19 2.37189E-19
 -1      3513 9.42576E-05-2.67617E-05-2.89313E-05 3.45399E-06 5.52002E-19 1.89979E-19
 -1      3514 9.42873E-05-2.67434E-05-2.89412E-05 3.82283E-06 2.36552E-19-2.22216E-19
 -1      3515 9.35512E-05-2.62853E-05-2.88287E-05 4.01574E-06-2.64187E-20-1.33473E-18
 -1      3516 9.43881E-05-2.69254E-05-2.89172E-05 2.75965E-06 4.85599E-19 8.28760E-19
 -1      3517 9.43802E-05-2.68533E-05-2.89350E-05 3.08715E-06 8.16851E-19 7.40378E-19
 -1      3518 9.37701E-05-2.64281E-05-2.88599E-05 3.22520E-06 2.79769E-19 1.54333E-19
 -1      3519 9.45421E-05-2.71456E-05-2.88886E-05 2.16674E-06 1.28220E-18 1.37238E-18
 -1      3520 9.45167E-05-2.70485E-05-2.89107E-05 2.44901E-06 6.58312E-19 1.04360E-18
 -1      3521 9.40238E-05-2.66709E-05-2.88639E-05 2.55194E-06 1.49750E-19 1.10535E-18
 -1      3522 9.46932E-05-2.73813E-05-2.88518E-05 1.67145E-06 6.96203E-19 1.56244E-18
 -1      3523 9.46622E-05-2.72774E-05-2.88757E-05 1.90862E-06 1.44654E-18 1.94237E-18
 -1      3524 9.42731E-05-2.69535E-05-2.88496E-05 1.98838E-06 7.43293E-19 1.05473E-18
 -1      3525 9.48281E-05-2.76077E-05-2.88121E-05 1.26591E-06-7.09613E-19 2.03764E-18
 -1      3526 9.47979E-05-2.75080E-05-2.88356E-05 1.46077E-06-2.77999E-19 1.97664E-18
 -1      3527 9.44977E-05-2.72380E-05-2.88240E-05 1.52445E-06 6.67235E-20 1.80814E-18
 -1      3528 9.49412E-05-2.78113E-05-2.87727E-05 9.40114E-07-3.52626E-19 1.74610E-18
 -1      3529 9.49149E-05-2.77217E-05-2.87946E-05 1.09692E-06 1.02726E-19 1.71108E-18
 -1      3530 9.46885E-05-2.75023E-05-2.87928E-05 1.14875E-06-2.03663E-19 2.34126E-18
 -1      3531 9.50320E-05-2.79863E-05-2.87360E-05 6.83134E-07-1.45561E-18 2.35712E-18
 -1      3532 9.50105E-05-2.79094E-05-2.87556E-05 8.06857E-07-1.00316E-18 1.98260E-18
 -1      3533 9.48440E-05-2.77351E-05-2.87599E-05 8.49436E-07-8.35315E-19 2.11913E-18
 -1      3534 9.51019E-05-2.81316E-05-2.87033E-05 4.84090E-07 6.89874E-19 1.15175E-18
 -1      3535 9.50854E-05-2.80679E-05-2.87202E-05 5.79851E-07-4.23517E-19 1.87917E-18
 -1      3536 9.49661E-05-2.79323E-05-2.87280E-05 6.14867E-07-5.64438E-19 1.02106E-18
 -1      3537 9.51540E-05-2.82488E-05-2.86750E-05 3.32753E-07 3.63536E-19 1.29269E-19
 -1      3538 9.51419E-05-2.81974E-05-2.86892E-05 4.05447E-07 9.66973E-19 1.02847E-18
 -1      3539 9.50591E-05-2.80943E-05-2.86987E-05 4.34113E-07 6.26230E-19 1.09124E-18
 -1      3540 9.51915E-05-2.83409E-05-2.86512E-05 2.19904E-07 7.42259E-19-9.27804E-19
 -1      3541 9.51830E-05-2.83006E-05-2.86628E-05 2.73980E-07 4.08099E-19-5.16975E-19
 -1      3542 9.51278E-05-2.82238E-05-2.86727E-05 2.97255E-07 1.13527E-18 4.27495E-19
 -1      3543 9.52173E-05-2.84117E-05-2.86317E-05 1.37511E-07 1.13827E-18-1.20653E-18
 -1      3544 9.52117E-05-2.83808E-05-2.86410E-05 1.76864E-07 7.11744E-19-8.76730E-19
 -1      3545 9.51768E-05-2.83249E-05-2.86506E-05 1.95562E-07 9.73292E-19-1.48386E-18
 -1      3546 9.52343E-05-2.84648E-05-2.86160E-05 7.87673E-08 1.97381E-18-1.67519E-18
 -1      3547 9.52309E-05-2.84416E-05-2.86234E-05 1.06704E-07 1.82129E-18-1.50069E-18
 -1      3548 9.52105E-05-2.84021E-05-2.86320E-05 1.21546E-07 9.86444E-19-8.75217E-19
 -1      3549 9.52448E-05-2.85038E-05-2.86037E-05 3.80414E-08 3.38665E-19-1.50237E-18
 -1      3550 9.52429E-05-2.84868E-05-2.86093E-05 5.72998E-08 1.01651E-18-1.32499E-18
 -1      3551 9.52327E-05-2.84596E-05-2.86170E-05 6.89285E-08 1.27708E-18-4.77802E-19
 -1      3552 9.52506E-05-2.85315E-05-2.85941E-05 1.07762E-08-4.86718E-19-4.83357E-19
 -1      3553 9.52498E-05-2.85194E-05-2.85984E-05 2.35694E-08-1.09300E-19-1.23820E-18
 -1      3554 9.52463E-05-2.85015E-05-2.86049E-05 3.25592E-08-2.27152E-19-5.56749E-19
 -1      3555 9.52530E-05-2.85507E-05-2.85868E-05-6.64140E-09-1.89902E-18 5.73919E-19
 -1      3556 9.52530E-05-2.85423E-05-2.85900E-05 1.43806E-09-1.19646E-18 1.75635E-19
 -1      3557 9.52538E-05-2.85312E-05-2.85954E-05 8.29336E-09-1.56910E-18 3.15398E-19
 -1      3558 9.52534E-05-2.85635E-05-2.85814E-05-1.70176E-08-1.67632E-18 6.23867E-19
 -1      3559 9.52538E-05-2.85579E-05-2.85838E-05-1.22954E-08-1.40531E-18 5.55747E-19
 -1      3560 9.52571E-05-2.85515E-05-2.85881E-05-7.13977E-09-1.47546E-18 1.03485E-18
 -1      3561 9.52523E-05-2.85717E-05-2.85774E-05-2.24849E-08-6.33639E-19 8.04797E-19
 -1      3562 9.52530E-05-2.85681E-05-2.85791E-05-2.00933E-08-1.45178E-18 6.14901E-19
 -1      3563 9.52575E-05-2.85650E-05-2.85826E-05-1.62713E-08-1.72556E-18 8.09124E-19
 -1      3564 9.52506E-05-2.85767E-05-2.85745E-05-2.46224E-08 1.02400E-18 1.30408E-18
 -1      3565 9.52514E-05-2.85745E-05-2.85757E-05-2.38055E-08 8.78611E-20 1.55583E-18
 -1      3566 9.52563E-05-2.85735E-05-2.85784E-05-2.10182E-08-1.08397E-18-2.07869E-19
 -1      3567 9.52485E-05-2.85795E-05-2.85724E-05-2.45719E-08 2.84107E-19 1.33530E-18
 -1      3568 9.52493E-05-2.85782E-05-2.85733E-05-2.47908E-08 9.11881E-19 1.27412E-18
 -1      3569 9.52540E-05-2.85785E-05-2.85753E-05-2.27928E-08 1.05756E-18-9.28308E-20
 -1      3570 9.52465E-05-2.85811E-05-2.85709E-05-2.30771E-08-9.22971E-20 1.03248E-18
 -1      3571 9.52471E-05-2.85803E-05-2.85715E-05-2.39786E-08 3.07706E-20 1.00120E-18
 -1      3572 9.52514E-05-2.85813E-05-2.85729E-05-2.26559E-08 4.38969E-19-1.07827E-19
 -1      3573 9.52460E-05-2.85822E-05-2.85702E-05-2.12267E-08-1.02563E-18 1.19584E-18
 -1      3574 5.46504E-05-1.31491E-05-1.78595E-05 5.26264E-06-6.03415E-19 4.38710E-19
 -1      3575 5.48091E-05-1.29479E-05-1.76386E-05-4.60384E-06 2.10015E-19 1.36372E-18
 -1      3576 9.52527E-05-2.85856E-05-2.85716E-05 1.66336E-08 2.61945E-18-1.01038E-18
 -1      3577 8.39474E-05-2.21307E-05-2.64988E-05 1.50573E-05 7.84477E-19-2.25750E-18
 -1      3578 8.58675E-05-2.56104E-05-2.57007E-05 1.76838E-05 9.66820E-19-2.19553E-18
 -1      3579 9.52554E-05-2.85872E-05-2.85721E-05 1.20369E-08 1.58358E-18-1.10042E-18
 -1      3580 9.52567E-05-2.85879E-05-2.85723E-05 8.90311E-09 1.32018E-18-4.16949E-19
 -1      3581 9.52575E-05-2.85883E-05-2.85725E-05 5.26607E-09 1.26810E-18-1.32825E-18
 -1      3582 9.52579E-05-2.85885E-05-2.85726E-05 1.81999E-09 1.60627E-18-1.47819E-18
 -1      3583 9.52590E-05-2.85874E-05-2.85735E-05 7.28661E-09 4.76162E-19-7.27824E-19
 -1      3584 1.03503E-04-3.39447E-05-2.98652E-05-5.80249E-06 6.23522E-19-5.12587E-19
 -1      3585 9.95905E-05-2.91461E-05-3.01220E-05-5.37770E-06 9.99399E-19-7.89906E-19
 -1      3586 9.68025E-05-2.74759E-05-2.96995E-05-6.95114E-06 8.63682E-19-1.04527E-18
 -1      3587 1.03357E-04-3.50595E-05-2.93710E-05-8.17993E-06 4.27186E-19-5.34838E-19
 -1      3588 1.20597E-04-3.52534E-05-3.65927E-05 1.20916E-05 6.69341E-19 1.47314E-18
 -1      3589 1.17944E-04-2.72605E-05-3.91405E-05 1.25607E-05 1.61860E-18 1.39334E-18
 -1      3590 9.52579E-05-2.85885E-05-2.85726E-05-1.94566E-09 2.97614E-18-5.18935E-19
 -1      3591 9.52575E-05-2.85882E-05-2.85725E-05-5.37603E-09 2.76535E-18-1.71167E-18
 -1      3592 9.52599E-05-2.85878E-05-2.85737E-05-1.18839E-10 1.62116E-18-1.20894E-18
 -1      3593 7.16639E-05-2.35625E-05-2.04010E-05-2.64233E-05-1.09697E-18-3.23762E-18
 -1      3594 8.42146E-05-3.26162E-05-2.22203E-05-2.87680E-05-1.41208E-18-2.55637E-18
 -1      3595 7.19403E-05-7.06117E-06-2.77920E-05-3.87505E-06 6.14810E-19-3.31250E-18
 -1      3596 7.17442E-05-6.90439E-06-2.78375E-05-2.36696E-06 5.04840E-19-3.47646E-18
 -1      3597 7.12485E-05-7.87694E-06-2.71407E-05-8.19087E-07 4.54644E-19-3.48815E-18
 -1      3598 1.10708E-04-5.08901E-05-2.58111E-05 2.23267E-05-1.66106E-18-2.02327E-18
 -1      3599 1.01892E-04-4.64988E-05-2.33739E-05 2.76619E-05-1.94005E-18-9.95475E-19
 -1      3600 9.45791E-05-4.07119E-05-2.30470E-05 2.62376E-05-1.68348E-18-9.16635E-19
 -1      3601 1.12176E-04-4.93795E-05-2.69885E-05 1.67743E-05-1.14564E-18-1.82123E-18
 -1      3602 8.33848E-05-1.77666E-05-2.81329E-05 9.77737E-06 4.17124E-19-2.67532E-18
 -1      3603 8.40062E-05-1.99681E-05-2.73564E-05 1.22076E-05 6.42111E-19-2.48376E-18
 -1      3604 7.80046E-05-1.75964E-05-2.58300E-05 1.30286E-05 8.32862E-19-2.72660E-18
 -1      3605 7.83719E-05-1.42270E-05-2.75308E-05 8.28869E-06 5.29406E-19-3.03483E-18
 -1      3606 1.15855E-04-4.89047E-05-2.83453E-05-1.47976E-05-1.28578E-18-5.01675E-19
 -1      3607 1.20910E-04-5.04018E-05-3.05522E-05-7.62882E-06-9.07411E-19 9.18501E-20
 -1      3608 9.63634E-05-3.92831E-05-2.41136E-05-2.64385E-05-1.50336E-18-2.00346E-18
 -1      3609 1.06349E-04-4.55129E-05-2.63797E-05-2.18482E-05-1.39791E-18-1.36884E-18
 -1      3610 9.52495E-05-2.85835E-05-2.85711E-05-2.02983E-08-1.03573E-18 8.95028E-19
 -1      3611 1.21632E-04-4.01593E-05-3.50824E-05 9.62471E-06 1.47900E-19 1.33115E-18
 -1      3612 7.75233E-05-2.39423E-05-2.28885E-05 2.12894E-05 1.20138E-18-2.78801E-18
 -1      3613 1.20991E-04-4.73888E-05-3.15303E-05-1.67115E-06-6.53751E-19 6.05946E-19
 -1      3614 1.23221E-04-4.99916E-05-3.13897E-05 1.01383E-06-3.76165E-19-1.57751E-18
 -1      3615 1.18120E-04-4.87125E-05-2.97922E-05 5.09105E-06-2.38799E-19-1.49964E-18
 -1      3616 1.13698E-04-4.50909E-05-2.93920E-05 4.74481E-06-6.74847E-20-9.86545E-19
 -1      3617 1.15503E-04-2.11276E-05-4.06639E-05 1.12471E-05 2.21065E-18 1.43196E-18
 -1      3618 9.38703E-05-3.86333E-05-2.35316E-05-2.45513E-05 2.38667E-18-1.51619E-18
 -1      3619 8.98510E-05-3.34201E-05-2.40419E-05-2.23615E-05 1.93126E-18-1.30196E-18
 -1      3620 6.15594E-05-1.49517E-05-1.96252E-05 1.63601E-05 1.18962E-18-3.96734E-18
 -1      3621 6.25800E-05-1.29688E-05-2.10684E-05 1.10328E-05 1.00976E-18-3.86334E-18
 -1      3622 8.19913E-05-2.84990E-05-2.29545E-05-2.19468E-05 1.63350E-18-1.06710E-18
 -1      3623 9.52544E-05-2.85860E-05-2.85721E-05-1.50569E-08-5.86615E-20-1.24385E-18
 -1      3624 9.52523E-05-2.85848E-05-2.85718E-05-1.75803E-08-9.02386E-19 2.51573E-19
 -1      3625 9.52530E-05-2.85835E-05-2.85726E-05-1.95230E-08-2.41544E-19 8.29385E-19
 -1      3626 7.19861E-05-8.67425E-06-2.71017E-05-5.71231E-06 5.24307E-19-3.14163E-18
 -1      3627 7.32283E-05-2.48358E-05-2.04479E-05 2.27719E-05-1.63657E-18 1.28688E-18
 -1      3628 7.12259E-05-2.13272E-05-2.13425E-05 1.76338E-05-1.06926E-18 1.21250E-18
 -1      3629 7.86459E-05-2.84610E-05-2.15075E-05 2.34945E-05-1.53962E-18 2.99850E-19
 -1      3630 9.52570E-05-2.85877E-05-2.85726E-05-8.78838E-09 2.45750E-18-1.41957E-18
 -1      3631 9.52557E-05-2.85870E-05-2.85723E-05-1.19081E-08 1.48279E-18-1.00434E-18
 -1      3632 9.52574E-05-2.85857E-05-2.85736E-05-1.37186E-08 1.83845E-19 8.13981E-19
 -1      3633 9.52594E-05-2.85872E-05-2.85738E-05-7.24248E-09 2.27036E-18-1.20248E-18
 -1      3634 9.52552E-05-2.85855E-05-2.85727E-05 1.56858E-08 2.14218E-18-4.22267E-19
 -1      3635 6.27793E-05-1.55496E-05-2.00202E-05 8.05148E-06-1.08536E-18 1.19326E-19
 -1      3636 9.06976E-05-2.19197E-05-2.95034E-05-7.48353E-06 9.80066E-19-1.66193E-18
 -1      3637 1.09660E-04-4.44409E-05-2.77815E-05-1.57721E-05-1.09745E-18-9.09144E-19
 -1      3638 9.08593E-05-3.38557E-05-2.42723E-05-2.42841E-05-9.93278E-19-2.27113E-18
 -1      3639 1.03482E-04-4.60691E-05-2.43662E-05-2.49244E-05 2.56542E-18-1.90856E-18
 -1      3640 6.73109E-05-1.89490E-05-2.04901E-05-2.30698E-05-6.61665E-19-3.54610E-18
 -1      3641 7.47278E-05-2.20792E-05-2.26057E-05-2.23000E-05-6.88062E-19-2.87295E-18
 -1      3642 6.36557E-05-1.45068E-05-2.09417E-05-1.73061E-05-2.45269E-19-3.69132E-18
 -1      3643 7.10509E-05-9.31728E-06-2.63996E-05 3.33529E-06 5.75077E-19-3.32187E-18
 -1      3644 7.39365E-05-1.12290E-05-2.68776E-05 5.48202E-06 5.35802E-19-3.21170E-18
 -1      3645 7.33510E-05-1.27039E-05-2.60151E-05 7.68081E-06 5.93439E-19-3.21111E-18
 -1      3646 7.81682E-05-3.01423E-05-2.01831E-05-2.66383E-05 2.33531E-18-2.99638E-19
 -1      3647 9.18050E-05-3.95033E-05-2.24543E-05-2.68039E-05 2.55380E-18-1.44107E-18
 -1      3648 7.46557E-05-2.56261E-05-2.07089E-05-2.19823E-05 1.95671E-18 4.19070E-19
 -1      3649 5.42146E-05-8.81778E-06-1.91264E-05-4.02039E-06 3.88993E-19-4.04201E-18
 -1      3650 5.79189E-05-1.01676E-05-2.04525E-05-9.57276E-06 7.49541E-20-3.81866E-18
 -1      3651 5.84747E-05-9.14579E-06-2.10269E-05 3.01144E-07 6.20610E-19-3.90088E-18
 -1      3652 6.14547E-05-1.56685E-05-1.93740E-05-9.23741E-06 7.20617E-19 1.52196E-18
 -1      3653 8.67220E-05-2.07849E-05-2.81903E-05-1.11114E-05 5.47696E-19-2.22008E-18
 -1      3654 8.25685E-05-1.82007E-05-2.76586E-05-1.16372E-05 4.19935E-19-2.38302E-18
 -1      3655 7.82794E-05-1.49541E-05-2.70369E-05-1.12475E-05 4.31960E-19-2.56755E-18
 -1      3656 7.46352E-05-1.26718E-05-2.66257E-05-1.03679E-05 3.60295E-19-2.80043E-18
 -1      3657 8.06459E-05-1.86510E-05-2.66211E-05-1.35413E-05 1.49280E-19-2.48231E-18
 -1      3658 1.14093E-04-4.37447E-05-3.01492E-05-4.53383E-06-3.69243E-19 1.96277E-19
 -1      3659 1.11294E-04-4.30866E-05-2.94410E-05-8.68610E-06-4.11109E-19-1.18373E-19
 -1      3660 1.16783E-04-4.50831E-05-3.06840E-05-2.48770E-06-4.84559E-19 4.95362E-19
 -1      3661 9.44498E-05-2.97034E-05-2.77355E-05 9.86156E-06-9.11329E-19-5.85758E-19
 -1      3662 9.58000E-05-3.12327E-05-2.76318E-05 1.03981E-05-8.12075E-19-1.59425E-19
 -1      3663 1.13131E-04-4.66360E-05-2.85210E-05 9.55913E-06-1.12483E-19-1.07403E-18
 -1      3664 7.15002E-05-2.18104E-05-2.11492E-05 2.12724E-05 1.33429E-18-3.20499E-18
 -1      3665 6.80463E-05-1.27130E-05-2.37033E-05 9.71630E-06 8.65701E-19-3.43930E-18
 -1      3666 6.41662E-05-9.92607E-06-2.30245E-05 5.04259E-06 7.31218E-19-3.73490E-18
 -1      3667 1.01746E-04-3.77875E-05-2.73537E-05 1.23620E-05-6.05625E-19 2.82919E-19
 -1      3668 1.04895E-04-4.05385E-05-2.75281E-05 1.19348E-05 1.59335E-19 1.11884E-19
 -1      3669 7.92744E-05-2.00794E-05-2.53522E-05-1.10248E-05-4.60685E-19-2.30963E-19
 -1      3670 8.03613E-05-1.98422E-05-2.59980E-05-9.54741E-06-7.96067E-19-1.81900E-19
 -1      3671 8.23501E-05-2.01676E-05-2.66494E-05-8.61764E-06-6.75477E-19-3.75796E-19
 -1      3672 8.34197E-05-2.03127E-05-2.70909E-05-7.66973E-06-5.12665E-19-7.76591E-19
 -1      3673 7.90699E-05-1.86889E-05-2.58384E-05-7.26395E-06-1.01184E-18-5.23036E-19
 -1      3674 8.49932E-05-2.07675E-05-2.75256E-05-7.00166E-06-4.03328E-19-1.36314E-18
 -1      3675 8.59485E-05-2.11217E-05-2.78145E-05-6.31317E-06-4.19577E-19-1.60376E-18
 -1      3676 8.25404E-05-1.95462E-05-2.69477E-05-5.86156E-06-7.37694E-19-1.20842E-18
 -1      3677 8.72001E-05-2.16420E-05-2.80996E-05-5.81741E-06-4.00880E-19-1.30985E-18
 -1      3678 8.80137E-05-2.20775E-05-2.82810E-05-5.26289E-06-8.44175E-20-1.13006E-18
 -1      3679 8.53228E-05-2.06317E-05-2.76887E-05-4.90929E-06-2.27597E-19-6.84959E-19
 -1      3680 8.90136E-05-2.26085E-05-2.84629E-05-4.85712E-06 2.33269E-19-1.41293E-18
 -1      3681 8.96811E-05-2.30583E-05-2.85697E-05-4.38468E-06 1.11472E-19-1.59947E-18
 -1      3682 8.75409E-05-2.17426E-05-2.81722E-05-4.16208E-06-1.82713E-19-9.69621E-21
 -1      3683 9.04777E-05-2.35632E-05-2.86804E-05-4.03336E-06 5.11315E-19-1.85944E-18
 -1      3684 9.10114E-05-2.39903E-05-2.87367E-05-3.62150E-06 3.95109E-19-1.31770E-18
 -1      3685 8.93111E-05-2.28144E-05-2.84780E-05-3.51895E-06 3.57608E-19-5.91890E-19
 -1      3686 9.16417E-05-2.44480E-05-2.87990E-05-3.31179E-06-2.27920E-19-1.27539E-18
 -1      3687 9.20600E-05-2.48329E-05-2.88223E-05-2.95240E-06-7.12309E-19-7.47353E-19
 -1      3688 9.07177E-05-2.38043E-05-2.86615E-05-2.94232E-06 3.48723E-20-1.47199E-18
 -1      3689 9.25548E-05-2.52339E-05-2.88525E-05-2.68019E-06-1.11652E-18-6.41592E-20
 -1      3690 9.28774E-05-2.55688E-05-2.88551E-05-2.37006E-06-6.30715E-19-2.57553E-19
 -1      3691 9.18272E-05-2.46875E-05-2.87623E-05-2.42242E-06-4.82697E-19-1.32604E-18
 -1      3692 9.32622E-05-2.59112E-05-2.88648E-05-2.13425E-06-1.26729E-19-4.41179E-19
 -1      3693 9.35078E-05-2.61951E-05-2.88552E-05-1.87101E-06 3.93875E-19-5.43189E-19
 -1      3694 9.26949E-05-2.54545E-05-2.88084E-05-1.95962E-06-5.12690E-19-1.27030E-18
 -1      3695 9.38042E-05-2.64814E-05-2.88522E-05-1.67063E-06 1.37442E-19-6.09721E-19
 -1      3696 9.39889E-05-2.67172E-05-2.88362E-05-1.45127E-06-5.11142E-19-1.29669E-18
 -1      3697 9.33673E-05-2.61058E-05-2.88197E-05-1.55612E-06-8.43779E-20-1.41324E-18
 -1      3698 9.42148E-05-2.69523E-05-2.88260E-05-1.28448E-06-6.91134E-19-1.09219E-18
 -1      3699 9.43520E-05-2.71449E-05-2.88074E-05-1.10509E-06-9.30096E-19-1.32527E-18
 -1      3700 9.38831E-05-2.66485E-05-2.88099E-05-1.21233E-06-4.70959E-19-1.88391E-18
 -1      3701 9.45222E-05-2.73350E-05-2.87937E-05-9.69077E-07-8.69432E-19-6.00632E-19
 -1      3702 9.46230E-05-2.74899E-05-2.87747E-05-8.25078E-07-9.02842E-19-8.78802E-19
 -1      3703 9.42744E-05-2.70933E-05-2.87883E-05-9.26044E-07-7.88692E-19-5.66566E-19
 -1      3704 9.47496E-05-2.76414E-05-2.87598E-05-7.16372E-07-5.09564E-19-5.31667E-19
 -1      3705 9.48227E-05-2.77642E-05-2.87419E-05-6.02861E-07-3.32530E-19 3.87640E-19
 -1      3706 9.45678E-05-2.74521E-05-2.87612E-05-6.92830E-07-3.95950E-19 6.99706E-19
 -1      3707 9.49155E-05-2.78832E-05-2.87273E-05-5.17677E-07-4.60858E-19 1.25785E-18
 -1      3708 9.49676E-05-2.79793E-05-2.87113E-05-4.29806E-07-3.72582E-20 1.41199E-18
 -1      3709 9.47848E-05-2.77374E-05-2.87327E-05-5.06804E-07 1.67167E-19 1.99053E-18
 -1      3710 9.50345E-05-2.80714E-05-2.86977E-05-3.64354E-07-5.53600E-19 6.44599E-19
 -1      3711 9.50710E-05-2.81455E-05-2.86838E-05-2.97571E-07-7.05191E-19 7.37756E-19
 -1      3712 9.49429E-05-2.79610E-05-2.87052E-05-3.61410E-07-6.81647E-19 1.51229E-18
 -1      3713 9.51182E-05-2.82158E-05-2.86719E-05-2.48281E-07-2.28194E-19 1.18151E-18
 -1      3714 9.51431E-05-2.82720E-05-2.86601E-05-1.98494E-07 3.62062E-20 1.56516E-18
 -1      3715 9.50559E-05-2.81336E-05-2.86800E-05-2.50043E-07-1.06201E-19 1.65339E-18
 -1      3716 9.51757E-05-2.83248E-05-2.86499E-05-1.62154E-07 1.38089E-19 1.01839E-18
 -1      3717 9.51921E-05-2.83669E-05-2.86402E-05-1.25800E-07 1.46280E-19 1.28424E-18
 -1      3718 9.51349E-05-2.82649E-05-2.86579E-05-1.66479E-07 3.04265E-19 1.25805E-18
 -1      3719 9.52138E-05-2.84058E-05-2.86316E-05-9.96245E-08-6.63849E-20 1.05207E-18
 -1      3720 9.52242E-05-2.84367E-05-2.86238E-05-7.36930E-08-4.01716E-19 1.40829E-18
 -1      3721 9.51886E-05-2.83631E-05-2.86391E-05-1.05129E-07 3.42532E-19 1.11158E-18
 -1      3722 9.52379E-05-2.84649E-05-2.86167E-05-5.53352E-08-1.25220E-18 1.20326E-18
 -1      3723 9.52440E-05-2.84871E-05-2.86105E-05-3.73388E-08-2.89402E-19 3.29219E-19
 -1      3724 9.52237E-05-2.84352E-05-2.86234E-05-6.11565E-08-9.81203E-19 1.82030E-18
 -1      3725 9.52522E-05-2.85070E-05-2.86048E-05-2.48734E-08 7.33567E-19-2.44946E-19
 -1      3726 9.52553E-05-2.85226E-05-2.86000E-05-1.28034E-08-9.47933E-21-3.36948E-19
 -1      3727 9.52454E-05-2.84871E-05-2.86106E-05-3.05022E-08-1.71319E-19 1.91546E-18
 -1      3728 9.52595E-05-2.85362E-05-2.85955E-05-4.68693E-09-3.38029E-19-2.08204E-19
 -1      3729 9.52607E-05-2.85469E-05-2.85918E-05 3.04613E-09-5.56044E-19-4.99231E-20
 -1      3730 9.52576E-05-2.85235E-05-2.86003E-05-9.84785E-09-2.73298E-21 2.11264E-18
 -1      3731 9.52622E-05-2.85559E-05-2.85883E-05 8.02702E-09 6.22374E-20 7.74372E-19
 -1      3732 9.52621E-05-2.85629E-05-2.85855E-05 1.26572E-08 1.34823E-18 1.42118E-18
 -1      3733 9.52634E-05-2.85482E-05-2.85922E-05 3.45613E-09 4.00234E-19 1.66452E-18
 -1      3734 9.52620E-05-2.85687E-05-2.85828E-05 1.54316E-08 1.52422E-18 1.50971E-18
 -1      3735 9.52611E-05-2.85730E-05-2.85806E-05 1.78917E-08 1.67377E-18 1.98372E-18
 -1      3736 9.52648E-05-2.85645E-05-2.85859E-05 1.14862E-08 1.30071E-18 1.92551E-18
 -1      3737 9.52599E-05-2.85765E-05-2.85786E-05 1.91582E-08 1.60488E-18 1.01580E-18
 -1      3738 9.52586E-05-2.85790E-05-2.85770E-05 2.01060E-08 1.37103E-18 1.11323E-18
 -1      3739 9.52636E-05-2.85746E-05-2.85810E-05 1.58110E-08 7.96746E-19 1.67607E-18
 -1      3740 9.52606E-05-2.85864E-05-2.85747E-05 9.15890E-09 5.99869E-19-7.28265E-19
 -1      3741 9.52616E-05-2.85869E-05-2.85749E-05 5.61900E-09 1.18175E-18-1.14297E-18
 -1      3742 9.30390E-05-2.75983E-05-2.80431E-05 8.28799E-06-1.04891E-18-1.68263E-19
 -1      3743 9.37973E-05-2.85713E-05-2.79259E-05 8.90705E-06-1.12190E-18-3.10010E-19
 -1      3744 9.21634E-05-2.81401E-05-2.74669E-05 9.99301E-06-1.28173E-18-3.15161E-19
 -1      3745 9.24594E-05-2.64089E-05-2.83105E-05 6.85309E-06-1.02747E-18 8.91306E-20
 -1      3746 9.28280E-05-2.69602E-05-2.82093E-05 7.45211E-06-7.40218E-19-1.73152E-19
 -1      3747 9.13849E-05-2.64199E-05-2.78572E-05 8.08098E-06-7.75167E-19-1.05389E-19
 -1      3748 9.23783E-05-2.58523E-05-2.85172E-05 5.59882E-06-3.71747E-19-3.02453E-19
 -1      3749 9.25035E-05-2.61084E-05-2.84411E-05 6.14481E-06-8.22365E-19-5.23359E-19
 -1      3750 9.12632E-05-2.55309E-05-2.81771E-05 6.48766E-06-4.92088E-19-4.62223E-19
 -1      3751 9.25781E-05-2.57163E-05-2.86621E-05 4.52615E-06-8.18553E-20-8.72416E-19
 -1      3752 9.25608E-05-2.57775E-05-2.86116E-05 5.00887E-06 5.72955E-20-7.00484E-19
 -1      3753 9.15156E-05-2.52069E-05-2.84186E-05 5.17634E-06-5.90389E-20-1.16338E-18
 -1      3754 9.29149E-05-2.58400E-05-2.87534E-05 3.62077E-06 9.06543E-20-1.21811E-18
 -1      3755 9.28228E-05-2.57818E-05-2.87249E-05 4.03931E-06-1.67202E-19-1.57911E-18
 -1      3756 9.19565E-05-2.52464E-05-2.85878E-05 4.10607E-06 2.29354E-19-1.02590E-18
 -1      3757 9.32990E-05-2.61088E-05-2.88024E-05 2.86403E-06-5.09131E-19 9.29043E-19
 -1      3758 9.31751E-05-2.59845E-05-2.87909E-05 3.22122E-06-4.28739E-19-2.35609E-19
 -1      3759 9.24675E-05-2.55000E-05-2.86968E-05 3.23472E-06-9.90465E-19-1.05866E-18
 -1      3760 9.36771E-05-2.64437E-05-2.88202E-05 2.23776E-06 2.19848E-19 1.20132E-18
 -1      3761 9.35474E-05-2.62899E-05-2.88209E-05 2.53808E-06 2.25914E-20 1.41573E-18
 -1      3762 9.29781E-05-2.58641E-05-2.87593E-05 2.52689E-06-7.77678E-19 5.05236E-19
 -1      3763 9.40204E-05-2.67935E-05-2.88166E-05 1.72512E-06 5.35968E-19 1.78802E-18
 -1      3764 9.38993E-05-2.66337E-05-2.88253E-05 1.97388E-06 5.23846E-19 1.11924E-18
 -1      3765 9.34483E-05-2.62688E-05-2.87875E-05 1.95426E-06 3.54571E-19 1.03434E-18
 -1      3766 9.43156E-05-2.71266E-05-2.87995E-05 1.31049E-06-7.09022E-19 2.22341E-18
 -1      3767 9.42101E-05-2.69751E-05-2.88128E-05 1.51345E-06 1.54983E-19 2.06110E-18
 -1      3768 9.38588E-05-2.66695E-05-2.87921E-05 1.49390E-06 3.31431E-20 1.44211E-18
 -1      3769 9.45595E-05-2.74260E-05-2.87750E-05 9.79443E-07-2.51751E-19 2.42476E-18
 -1      3770 9.44719E-05-2.72903E-05-2.87903E-05 1.14250E-06-5.20511E-19 2.27911E-18
 -1      3771 9.42031E-05-2.70397E-05-2.87815E-05 1.12686E-06-3.53924E-19 1.40253E-18
 -1      3772 9.47543E-05-2.76840E-05-2.87472E-05 7.18741E-07-5.66295E-19 1.60078E-18
 -1      3773 9.46844E-05-2.75674E-05-2.87630E-05 8.47714E-07-1.15079E-19 2.19170E-18
 -1      3774 9.44826E-05-2.73660E-05-2.87619E-05 8.37144E-07-1.51677E-19 1.25231E-18
 -1      3775 9.49055E-05-2.78990E-05-2.87193E-05 5.16401E-07 1.34333E-19-7.75376E-20
 -1      3776 9.48516E-05-2.78022E-05-2.87343E-05 6.16788E-07-1.15628E-19 1.19516E-19
 -1      3777 9.47031E-05-2.76434E-05-2.87381E-05 6.11070E-07 4.64173E-19 7.36081E-19
 -1      3778 9.50196E-05-2.80735E-05-2.86929E-05 3.61768E-07 6.15397E-19-1.85694E-19
 -1      3779 9.49792E-05-2.79952E-05-2.87065E-05 4.38614E-07 8.08319E-20-4.64782E-19
 -1      3780 9.48726E-05-2.78723E-05-2.87130E-05 4.36902E-07 1.64218E-19-1.09005E-18
 -1      3781 9.51034E-05-2.82117E-05-2.86691E-05 2.45541E-07 1.60544E-18-1.40303E-19
 -1      3782 9.50741E-05-2.81498E-05-2.86811E-05 3.03339E-07 1.37232E-18 4.38527E-19
 -1      3783 9.49996E-05-2.80566E-05-2.86888E-05 3.04604E-07 5.59387E-19-1.10774E-18
 -1      3784 9.51629E-05-2.83186E-05-2.86485E-05 1.59759E-07 4.39140E-19-8.09220E-20
 -1      3785 9.51424E-05-2.82709E-05-2.86586E-05 2.02409E-07 1.15364E-18 3.40093E-19
 -1      3786 9.50922E-05-2.82016E-05-2.86667E-05 2.05671E-07 1.02070E-18-4.31803E-19
 -1      3787 9.52038E-05-2.83996E-05-2.86311E-05 9.77310E-08 1.45166E-18-1.61824E-19
 -1      3788 9.51901E-05-2.83636E-05-2.86395E-05 1.28540E-07 1.00077E-18-1.28399E-19
 -1      3789 9.51577E-05-2.83132E-05-2.86472E-05 1.32976E-07 9.80415E-19 5.06319E-19
 -1      3790 9.52307E-05-2.84595E-05-2.86167E-05 5.39336E-08 2.16671E-19 6.12504E-19
 -1      3791 9.52219E-05-2.84329E-05-2.86235E-05 7.56460E-08 7.80382E-19-1.10350E-19
 -1      3792 9.52025E-05-2.83972E-05-2.86305E-05 8.06220E-08 7.33434E-19 3.79954E-19
 -1      3793 9.52472E-05-2.85028E-05-2.86051E-05 2.38882E-08-5.48693E-19 7.80343E-19
 -1      3794 9.52421E-05-2.84837E-05-2.86105E-05 3.87387E-08 4.26665E-19 6.88796E-19
 -1      3795 9.52317E-05-2.84591E-05-2.86166E-05 4.37991E-08 2.25359E-19 1.18194E-18
 -1      3796 9.52563E-05-2.85332E-05-2.85958E-05 4.02556E-09-1.57295E-18 5.77825E-19
 -1      3797 9.52538E-05-2.85198E-05-2.86001E-05 1.37981E-08-1.30811E-18 1.67102E-19
 -1      3798 9.52495E-05-2.85035E-05-2.86053E-05 1.86419E-08-6.32436E-19 1.09395E-18
 -1      3799 9.52604E-05-2.85538E-05-2.85886E-05-8.44862E-09-1.42409E-18 5.10893E-19
 -1      3800 9.52596E-05-2.85448E-05-2.85919E-05-2.35649E-09-1.15602E-18 3.95190E-19
 -1      3801 9.52592E-05-2.85345E-05-2.85962E-05 2.09104E-09-1.37365E-18 1.07591E-19
 -1      3802 9.52610E-05-2.85673E-05-2.85831E-05-1.56828E-08-1.89672E-18 3.25726E-19
 -1      3803 9.52613E-05-2.85614E-05-2.85856E-05-1.21975E-08-2.14136E-18 3.58020E-19
 -1      3804 9.52633E-05-2.85554E-05-2.85891E-05-8.23542E-09-1.56883E-18-1.73644E-19
 -1      3805 9.52596E-05-2.85756E-05-2.85789E-05-1.92920E-08-6.42219E-20 3.32646E-19
 -1      3806 9.52605E-05-2.85720E-05-2.85807E-05-1.76089E-08-1.27863E-18 1.88487E-19
 -1      3807 9.52638E-05-2.85690E-05-2.85835E-05-1.41626E-08-1.38467E-18 5.51688E-19
 -1      3808 9.52569E-05-2.85804E-05-2.85757E-05-2.04347E-08 9.06527E-19-6.41141E-19
 -1      3809 9.52582E-05-2.85783E-05-2.85770E-05-1.99959E-08 9.83640E-19-2.07539E-19
 -1      3810 9.52620E-05-2.85772E-05-2.85792E-05-1.70517E-08 3.42311E-19 8.44027E-19
 -1      3811 9.52544E-05-2.85828E-05-2.85735E-05-1.99306E-08-2.24941E-19 4.95198E-19
 -1      3812 9.52558E-05-2.85816E-05-2.85746E-05-2.02496E-08 3.04422E-19 2.47935E-19
 -1      3813 9.52595E-05-2.85817E-05-2.85763E-05-1.77836E-08 5.25674E-19 2.36001E-18
 -1      3814 9.52572E-05-2.85840E-05-2.85742E-05-1.72704E-08-7.45766E-19 1.19468E-18
 -1      3815 1.20163E-04-4.20281E-05-3.34296E-05 7.19133E-06 1.21562E-20 1.17624E-18
 -1      3816 6.72269E-05-1.70365E-05-2.16216E-05 1.00502E-05-8.47056E-19 1.41256E-19
 -1      3817 6.37980E-05-1.42759E-05-2.10387E-05 2.40448E-06-6.65106E-19-5.36344E-19
 -1      3818 9.52621E-05-2.85870E-05-2.85750E-05 1.69828E-09 1.13327E-18-2.03850E-18
 -1      3819 9.52621E-05-2.85870E-05-2.85750E-05-1.98475E-09 2.28894E-18-1.90604E-18
 -1      3820 9.52638E-05-2.85858E-05-2.85763E-05 3.68372E-09 1.04275E-18-1.82234E-18
 -1      3821 9.52559E-05-2.85842E-05-2.85736E-05 1.78047E-08 2.50726E-18 6.71426E-20
 -1      3822 9.52590E-05-2.85858E-05-2.85742E-05 1.32288E-08 1.56302E-18 1.61126E-19
 -1      3823 9.52615E-05-2.85850E-05-2.85757E-05 1.14964E-08 1.35829E-18-2.34728E-19
 -1      3824 9.52566E-05-2.85831E-05-2.85743E-05 1.86797E-08 2.22323E-18 3.01613E-19
 -1      3825 7.30963E-05-2.21470E-05-2.17995E-05-1.83373E-05 1.75751E-18 5.62192E-19
 -1      3826 9.40101E-05-2.56787E-05-2.92391E-05-8.65690E-06 7.71661E-19-1.41019E-18
 -1      3827 9.03782E-05-2.34510E-05-2.87116E-05-1.01197E-05 5.82798E-19-1.83314E-18
 -1      3828 8.99451E-05-2.48375E-05-2.79119E-05-1.25835E-05 2.42675E-19-2.02849E-18
 -1      3829 9.69818E-05-2.93904E-05-2.89226E-05-9.83058E-06 5.30947E-19-1.22588E-18
 -1      3830 6.89994E-05-8.18281E-06-2.59967E-05-3.35005E-06 5.12665E-19-3.43979E-18
 -1      3831 6.92722E-05-8.44701E-06-2.61375E-05-5.84921E-07 4.94508E-19-3.43503E-18
 -1      3832 6.77874E-05-9.12830E-06-2.51357E-05 6.28227E-07 5.26060E-19-3.45562E-18
 -1      3833 7.29712E-05-1.43459E-05-2.50632E-05 1.01052E-05 8.61346E-19-3.20450E-18
 -1      3834 8.56040E-05-2.81229E-05-2.43164E-05-2.23828E-05-6.68125E-19-2.45587E-18
 -1      3835 9.49578E-05-3.47146E-05-2.58720E-05-2.05613E-05-8.29808E-19-1.83048E-18
 -1      3836 1.04752E-04-3.94537E-05-2.79125E-05-1.41583E-05-5.53324E-19-7.84141E-19
 -1      3837 1.19484E-04-4.40950E-05-3.24429E-05 4.27834E-06-1.41130E-19 8.89305E-19
 -1      3838 6.33393E-05-1.46952E-05-2.09656E-05-5.01098E-06 1.72030E-19 7.91129E-19
 -1      3839 6.70926E-05-1.76929E-05-2.10796E-05-1.34865E-05 9.33483E-19 1.52698E-18
 -1      3840 7.47093E-05-2.04512E-05-2.31103E-05-1.41259E-05 9.10484E-19 2.41907E-19
 -1      3841 7.55689E-05-1.95377E-05-2.40704E-05-1.20434E-05 2.03116E-19 2.32434E-19
 -1      3842 7.18152E-05-1.03541E-05-2.62609E-05-8.55087E-06 4.68947E-19-3.02516E-18
 -1      3843 6.98306E-05-9.08214E-06-2.60946E-05-6.19939E-06 4.38720E-19-3.27656E-18
 -1      3844 6.82450E-05-9.63615E-06-2.50785E-05-6.51520E-06 3.94009E-19-3.37681E-18
 -1      3845 7.28985E-05-1.31449E-05-2.56032E-05-1.15507E-05 2.77463E-19-2.90330E-18
 -1      3846 9.71468E-05-3.30200E-05-2.74548E-05 1.14062E-05-7.89961E-19-8.27139E-20
 -1      3847 9.93169E-05-3.52306E-05-2.74260E-05 1.16576E-05-7.77972E-19 2.18273E-19
 -1      3848 9.40470E-05-3.10357E-05-2.70440E-05 1.21963E-05-5.62068E-19-1.56066E-19
 -1      3849 1.05834E-04-4.23839E-05-2.71848E-05 1.35437E-05-1.53419E-19-4.37574E-19
 -1      3850 1.10474E-04-4.67130E-05-2.72599E-05 1.46097E-05-9.01617E-19-1.07409E-18
 -1      3851 1.03814E-04-4.40860E-05-2.53977E-05 2.08937E-05-1.35357E-18-1.31017E-18
 -1      3852 1.01670E-04-4.05173E-05-2.62740E-05 1.68679E-05-5.43469E-19-2.32868E-19
 -1      3853 7.33147E-05-1.74634E-05-2.39134E-05-8.50878E-06-5.21147E-19 1.47953E-19
 -1      3854 9.77830E-05-3.55978E-05-2.67068E-05 1.44077E-05-4.33492E-19 2.24608E-19
 -1      3855 6.81580E-05-1.55776E-05-2.24228E-05-1.97704E-06-6.18432E-19 2.75286E-20
 -1      3856 6.39808E-05-1.24260E-05-2.19844E-05-1.22561E-05 5.09080E-20-3.57322E-18
 -1      3857 7.22193E-05-1.76078E-05-2.34206E-05 1.56405E-05 1.02715E-18-3.02333E-18
 -1      3858 9.52580E-05-2.85805E-05-2.85760E-05 1.97677E-08 1.45682E-18 1.32267E-18
 -1      3859 9.52575E-05-2.85820E-05-2.85752E-05 1.93050E-08 1.41933E-18 8.08439E-19
 -1      3860 9.52606E-05-2.85832E-05-2.85760E-05 1.60436E-08 2.18230E-18-8.50569E-19
 -1      3861 9.52619E-05-2.85802E-05-2.85779E-05 1.69316E-08 2.07925E-18-2.68878E-19
 -1      3862 8.69472E-05-3.31849E-05-2.27549E-05 2.42649E-05-1.30621E-18-3.10854E-19
 -1      3863 8.25012E-05-2.87246E-05-2.30166E-05 2.06435E-05-1.16117E-18 1.50226E-19
 -1      3864 9.52619E-05-2.85865E-05-2.85752E-05-5.59636E-09 2.21327E-18 8.27795E-20
 -1      3865 9.52614E-05-2.85860E-05-2.85752E-05-8.88199E-09 1.67963E-18-2.30802E-19
 -1      3866 9.52641E-05-2.85855E-05-2.85766E-05-3.69428E-09 1.49893E-18-1.12892E-18
 -1      3867 7.19480E-05-1.95292E-05-2.22818E-05 1.35321E-05-9.69801E-19 1.06808E-18
 -1      3868 7.17027E-05-1.79423E-05-2.30488E-05 8.82417E-06-4.51614E-19 9.67338E-20
 -1      3869 9.62706E-05-3.93807E-05-2.43956E-05 2.23131E-05-1.21057E-18-5.67724E-19
 -1      3870 7.50328E-05-2.20504E-05-2.27903E-05 1.57602E-05-1.29833E-18 1.11851E-18
 -1      3871 9.15451E-05-2.79725E-05-2.72273E-05-1.50586E-05-7.13824E-20-1.91307E-18
 -1      3872 8.76206E-05-2.53691E-05-2.65913E-05-1.63499E-05-7.85689E-20-2.13365E-18
 -1      3873 8.02080E-05-2.35708E-05-2.42416E-05-1.99758E-05-3.65250E-19-2.68631E-18
 -1      3874 9.68698E-05-3.34496E-05-2.72319E-05-1.65220E-05-3.58937E-19-1.69348E-18
 -1      3875 1.00794E-04-3.32899E-05-2.89012E-05-1.00104E-05 2.39623E-19-1.06544E-18
 -1      3876 8.21944E-05-2.20235E-05-2.58122E-05-1.65194E-05-1.43327E-19-2.43153E-18
 -1      3877 6.44216E-05-9.43997E-06-2.36046E-05 8.37245E-07 4.82796E-19-3.50353E-18
 -1      3878 8.02861E-05-2.52860E-05-2.34353E-05 1.75827E-05-1.39347E-18 9.68941E-19
 -1      3879 8.01145E-05-2.36575E-05-2.41961E-05 1.43308E-05-1.34952E-18 8.75286E-19
 -1      3880 8.68761E-05-3.00230E-05-2.44571E-05 1.85457E-05-6.39787E-19 4.56359E-19
 -1      3881 7.16206E-05-1.63541E-05-2.36310E-05-5.59263E-06-8.55041E-19 1.38930E-19
 -1      3882 7.57101E-05-1.75007E-05-2.49152E-05-5.44215E-06-1.06310E-18-2.03223E-19
 -1      3883 7.75518E-05-1.78753E-05-2.56117E-05-4.73804E-06-1.42576E-18-5.28728E-19
 -1      3884 7.10218E-05-1.61093E-05-2.36087E-05 8.65156E-07-1.05505E-18-6.35248E-19
 -1      3885 9.03476E-05-3.01575E-05-2.58175E-05 1.50097E-05-8.27581E-19 4.22046E-19
 -1      3886 9.25009E-05-3.26758E-05-2.56062E-05 1.63917E-05-3.96438E-19 5.46086E-19
 -1      3887 8.06257E-05-1.87977E-05-2.65016E-05-4.09695E-06-1.53589E-18-8.98872E-20
 -1      3888 8.21406E-05-1.93501E-05-2.69481E-05-3.72381E-06-5.30793E-19-2.29281E-19
 -1      3889 8.37692E-05-1.99726E-05-2.73587E-05-3.60122E-06-1.37854E-19-3.76794E-19
 -1      3890 8.50366E-05-2.05451E-05-2.76632E-05-3.29662E-06-2.52559E-19-2.59686E-19
 -1      3891 8.22811E-05-1.92624E-05-2.69558E-05-1.98644E-06-7.05684E-19 4.75797E-19
 -1      3892 8.63094E-05-2.11558E-05-2.79366E-05-3.17892E-06-1.01832E-19-1.26696E-19
 -1      3893 8.73167E-05-2.17113E-05-2.81339E-05-2.91389E-06 1.13899E-19 2.01531E-19
 -1      3894 8.51143E-05-2.05218E-05-2.76466E-05-1.96726E-06-8.30324E-20-7.52891E-19
 -1      3895 8.83255E-05-2.22865E-05-2.83127E-05-2.78496E-06-2.61052E-19 1.55757E-19
 -1      3896 8.91262E-05-2.28073E-05-2.84356E-05-2.53895E-06-3.66672E-19-4.25118E-19
 -1      3897 8.73528E-05-2.17098E-05-2.81060E-05-1.87316E-06-6.01371E-20-2.79295E-19
 -1      3898 8.99287E-05-2.33335E-05-2.85483E-05-2.40070E-06 9.86161E-20-7.16221E-19
 -1      3899 9.05616E-05-2.38055E-05-2.86202E-05-2.16934E-06-1.67612E-20-5.34064E-19
 -1      3900 8.91340E-05-2.28119E-05-2.84037E-05-1.72015E-06-9.71515E-20-1.05501E-19
 -1      3901 9.11997E-05-2.42747E-05-2.86874E-05-2.02752E-06-5.56901E-19-1.12293E-18
 -1      3902 9.16961E-05-2.46908E-05-2.87250E-05-1.81334E-06-6.11650E-19-1.05899E-18
 -1      3903 9.05525E-05-2.38094E-05-2.85889E-05-1.52431E-06-5.99002E-19-8.62016E-19
 -1      3904 9.22012E-05-2.50997E-05-2.87613E-05-1.67546E-06-4.34073E-19-7.13143E-19
 -1      3905 9.25873E-05-2.54583E-05-2.87764E-05-1.48231E-06 3.37665E-21-7.19597E-19
 -1      3906 9.16792E-05-2.46928E-05-2.86968E-05-1.30721E-06-2.53615E-19-1.76116E-20
 -1      3907 9.29839E-05-2.58071E-05-2.87923E-05-1.35462E-06-2.98260E-19-6.75477E-19
 -1      3908 9.32814E-05-2.61100E-05-2.87933E-05-1.18531E-06-4.64399E-19-9.81416E-19
 -1      3909 9.25685E-05-2.54590E-05-2.87523E-05-1.08825E-06 2.22639E-19 2.58981E-19
 -1      3910 9.35899E-05-2.64022E-05-2.87960E-05-1.07184E-06-2.69998E-19-1.62525E-18
 -1      3911 9.38167E-05-2.66534E-05-2.87888E-05-9.27409E-07-2.78306E-19-7.32276E-19
 -1      3912 9.32644E-05-2.61105E-05-2.87734E-05-8.81660E-07-6.00493E-19-4.90196E-19
 -1      3913 9.40539E-05-2.68939E-05-2.87836E-05-8.30067E-07 5.56169E-19-5.61257E-19
 -1      3914 9.42249E-05-2.70990E-05-2.87718E-05-7.09930E-07 1.86710E-20 5.09291E-19
 -1      3915 9.38030E-05-2.66545E-05-2.87728E-05-6.96331E-07 4.16162E-19-1.48204E-19
 -1      3916 9.44050E-05-2.72938E-05-2.87622E-05-6.28933E-07-7.54118E-19 1.32745E-18
 -1      3917 9.45323E-05-2.74587E-05-2.87487E-05-5.31312E-07 1.20424E-19 1.64840E-18
 -1      3918 9.42151E-05-2.71010E-05-2.87594E-05-5.36595E-07 2.65092E-19 2.69465E-19
 -1      3919 9.46671E-05-2.76140E-05-2.87371E-05-4.65721E-07 4.03513E-19 1.21636E-18
 -1      3920 9.47605E-05-2.77445E-05-2.87233E-05-3.88111E-07 1.44674E-19 1.54160E-18
 -1      3921 9.45261E-05-2.74615E-05-2.87391E-05-4.03420E-07-1.06566E-19 1.43526E-18
 -1      3922 9.48598E-05-2.78665E-05-2.87113E-05-3.36302E-07-6.05256E-19 1.63754E-18
 -1      3923 9.49271E-05-2.79683E-05-2.86983E-05-2.75882E-07-6.64702E-19 1.60286E-18
 -1      3924 9.47574E-05-2.77481E-05-2.87162E-05-2.95535E-07-5.67092E-19 8.52206E-19
 -1      3925 9.49990E-05-2.80627E-05-2.86868E-05-2.35915E-07-3.69819E-19 2.48458E-18
 -1      3926 9.50466E-05-2.81409E-05-2.86751E-05-1.89840E-07 3.20183E-19 2.79999E-18
 -1      3927 9.49264E-05-2.79724E-05-2.86931E-05-2.10374E-07-9.68293E-20 2.66141E-18
 -1      3928 9.50974E-05-2.82127E-05-2.86647E-05-1.59721E-07-2.96556E-19 2.57617E-18
 -1      3929 9.51302E-05-2.82718E-05-2.86545E-05-1.25321E-07-6.14400E-20 2.34410E-18
 -1      3930 9.50474E-05-2.81452E-05-2.86713E-05-1.44766E-07 1.34682E-19 3.84248E-18
 -1      3931 9.51651E-05-2.83255E-05-2.86454E-05-1.03164E-07 2.99845E-19 1.58765E-18
 -1      3932 9.51870E-05-2.83695E-05-2.86367E-05-7.80508E-08-3.87265E-19 1.00487E-18
 -1      3933 9.51320E-05-2.82761E-05-2.86518E-05-9.54147E-08-3.79248E-19 3.15016E-18
 -1      3934 9.52102E-05-2.84089E-05-2.86290E-05-6.21707E-08-8.87736E-19 2.07575E-18
 -1      3935 9.52241E-05-2.84409E-05-2.86218E-05-4.42895E-08-6.33487E-19 2.31029E-18
 -1      3936 9.51894E-05-2.83735E-05-2.86349E-05-5.91933E-08 8.39504E-20 2.39171E-18
 -1      3937 9.52387E-05-2.84692E-05-2.86154E-05-3.32428E-08-1.97195E-19 2.18849E-18
 -1      3938 9.52470E-05-2.84920E-05-2.86096E-05-2.08778E-08 3.03782E-19 2.50116E-18
 -1      3939 9.52266E-05-2.84445E-05-2.86206E-05-3.33068E-08 2.16446E-20 2.88140E-18
 -1      3940 9.52555E-05-2.85118E-05-2.86043E-05-1.34675E-08-5.28658E-19 2.41961E-18
 -1      3941 9.52598E-05-2.85276E-05-2.85997E-05-5.22341E-09-4.44653E-19 1.92203E-18
 -1      3942 9.52495E-05-2.84952E-05-2.86088E-05-1.53627E-08-4.96478E-20 1.22652E-18
 -1      3943 9.52641E-05-2.85411E-05-2.85955E-05-4.89095E-10 3.84196E-19 1.85516E-18
 -1      3944 9.52657E-05-2.85516E-05-2.85919E-05 4.73950E-09 8.04208E-19 2.64916E-18
 -1      3945 9.52621E-05-2.85303E-05-2.85992E-05-3.38070E-09-4.93718E-20 1.26364E-18
 -1      3946 9.52672E-05-2.85604E-05-2.85885E-05 7.56094E-09 1.14666E-18 2.72120E-18
 -1      3947 9.52671E-05-2.85672E-05-2.85857E-05 1.06471E-08 9.63344E-19 2.61541E-18
 -1      3948 9.52676E-05-2.85539E-05-2.85916E-05 4.20683E-09 8.60603E-19 2.26972E-18
 -1      3949 9.52667E-05-2.85727E-05-2.85831E-05 1.21402E-08 3.85283E-19 2.51320E-18
 -1      3950 9.52655E-05-2.85768E-05-2.85809E-05 1.36671E-08 5.86774E-19 1.78832E-18
 -1      3951 9.52686E-05-2.85691E-05-2.85855E-05 8.69290E-09 8.94104E-19 3.60947E-18
 -1      3952 8.96896E-05-2.61722E-05-2.72370E-05 9.48236E-06-1.17955E-18-5.25607E-20
 -1      3953 9.03070E-05-2.72156E-05-2.70094E-05 1.05656E-05-8.88749E-19 1.98204E-19
 -1      3954 9.06756E-05-2.45444E-05-2.83546E-05 4.50560E-06-7.88106E-20-6.11075E-19
 -1      3955 9.04886E-05-2.45523E-05-2.82469E-05 5.08290E-06-5.79918E-19-5.91195E-19
 -1      3956 9.13724E-05-2.48020E-05-2.85410E-05 3.50156E-06 7.74305E-20-4.73366E-19
 -1      3957 9.11246E-05-2.46814E-05-2.84683E-05 3.96699E-06 4.18371E-19-4.56329E-19
 -1      3958 9.01421E-05-2.40612E-05-2.83128E-05 3.85554E-06 1.35777E-19-6.42009E-19
 -1      3959 9.20617E-05-2.52071E-05-2.86611E-05 2.70989E-06-1.74238E-18-6.72701E-19
 -1      3960 9.17993E-05-2.50172E-05-2.86163E-05 3.08563E-06-9.89687E-19-6.20798E-19
 -1      3961 9.10203E-05-2.44801E-05-2.85095E-05 2.93752E-06-4.00237E-19-3.60993E-19
 -1      3962 9.26969E-05-2.56753E-05-2.87312E-05 2.08427E-06-4.94758E-19-8.53158E-19
 -1      3963 9.24470E-05-2.54564E-05-2.87073E-05 2.38739E-06-1.11755E-18-1.21427E-18
 -1      3964 9.18312E-05-2.49962E-05-2.86364E-05 2.23417E-06-1.23576E-18-1.50316E-18
 -1      3965 9.32547E-05-2.61507E-05-2.87652E-05 1.59005E-06-3.60495E-19 3.67407E-20
 -1      3966 9.30314E-05-2.59292E-05-2.87562E-05 1.83378E-06-5.45866E-19-5.10386E-19
 -1      3967 9.25479E-05-2.55400E-05-2.87113E-05 1.69259E-06-1.08824E-18-2.08532E-18
 -1      3968 9.37267E-05-2.65986E-05-2.87743E-05 1.20081E-06 1.40458E-20 8.54434E-19
 -1      3969 9.35360E-05-2.63907E-05-2.87753E-05 1.39565E-06 4.53211E-19 9.83737E-19
 -1      3970 9.31600E-05-2.60663E-05-2.87490E-05 1.27451E-06-5.61353E-19-3.27433E-19
 -1      3971 9.41141E-05-2.69999E-05-2.87674E-05 8.95901E-07 1.11162E-20 5.76640E-19
 -1      3972 9.39570E-05-2.68144E-05-2.87746E-05 1.05043E-06 1.66894E-20 6.01562E-19
 -1      3973 9.36681E-05-2.65480E-05-2.87612E-05 9.51778E-07 5.71278E-19 7.15448E-19
 -1      3974 9.44238E-05-2.73460E-05-2.87509E-05 6.58845E-07 1.84102E-19-4.83523E-19
 -1      3975 9.42983E-05-2.71866E-05-2.87616E-05 7.80200E-07-1.16028E-19 2.22633E-19
 -1      3976 9.40792E-05-2.69714E-05-2.87569E-05 7.03277E-07 2.64969E-19-1.99520E-19
 -1      3977 9.46654E-05-2.76357E-05-2.87296E-05 4.76262E-07 1.17852E-18-3.52408E-19
 -1      3978 9.45677E-05-2.75028E-05-2.87417E-05 5.70494E-07 8.29131E-19 5.44689E-20
 -1      3979 9.44043E-05-2.73316E-05-2.87426E-05 5.12856E-07 3.37147E-19-1.22719E-18
 -1      3980 9.48495E-05-2.78720E-05-2.87066E-05 3.37188E-07-5.00356E-21-1.76321E-18
 -1      3981 9.47754E-05-2.77640E-05-2.87188E-05 4.09432E-07 7.98396E-19-1.12180E-18
 -1      3982 9.46557E-05-2.76301E-05-2.87231E-05 3.67962E-07 1.35053E-18-1.98956E-18
 -1      3983 9.49863E-05-2.80603E-05-2.86841E-05 2.32607E-07 5.13287E-19-1.46239E-18
 -1      3984 9.49316E-05-2.79745E-05-2.86956E-05 2.87214E-07-3.41124E-19-2.18785E-18
 -1      3985 9.48458E-05-2.78715E-05-2.87016E-05 2.58708E-07 3.21694E-19-1.96198E-18
 -1      3986 9.50855E-05-2.82072E-05-2.86632E-05 1.55118E-07 2.91884E-19-4.43558E-19
 -1      3987 9.50462E-05-2.81405E-05-2.86736E-05 1.95743E-07 9.45400E-19-9.23129E-19
 -1      3988 9.49863E-05-2.80627E-05-2.86803E-05 1.77247E-07 2.28603E-19-8.14056E-19
 -1      3989 9.51553E-05-2.83195E-05-2.86447E-05 9.86728E-08 9.02763E-19 2.38399E-20
 -1      3990 9.51280E-05-2.82687E-05-2.86538E-05 1.28359E-07 2.79774E-19-7.46821E-19
 -1      3991 9.50875E-05-2.82110E-05-2.86605E-05 1.17322E-07 8.16502E-19-8.01877E-19
 -1      3992 9.52027E-05-2.84034E-05-2.86288E-05 5.83737E-08 3.65073E-19 8.31594E-19
 -1      3993 9.51844E-05-2.83656E-05-2.86365E-05 7.96205E-08 1.04036E-18 4.66113E-19
 -1      3994 9.51582E-05-2.83237E-05-2.86428E-05 7.39444E-08 5.45670E-19 1.57012E-19
 -1      3995 9.52334E-05-2.84647E-05-2.86155E-05 3.02903E-08-5.28448E-19 1.17706E-18
 -1      3996 9.52218E-05-2.84372E-05-2.86218E-05 4.51244E-08-7.29988E-19 8.76530E-19
 -1      3997 9.52059E-05-2.84075E-05-2.86275E-05 4.31513E-08 3.96250E-20 8.64673E-19
 -1      3998 9.52519E-05-2.85084E-05-2.86046E-05 1.13065E-08-9.00564E-19 4.45776E-19
 -1      3999 9.52452E-05-2.84889E-05-2.86097E-05 2.13476E-08 6.18811E-20 1.20643E-18
 -1      4000 9.52365E-05-2.84685E-05-2.86146E-05 2.18106E-08-5.35845E-19 1.15778E-19
 -1      4001 9.52618E-05-2.85386E-05-2.85958E-05-1.01629E-09-1.20296E-18 1.15329E-18
 -1      4002 9.52585E-05-2.85252E-05-2.85999E-05 5.50668E-09-1.23371E-18 1.03218E-18
 -1      4003 9.52547E-05-2.85117E-05-2.86040E-05 7.46829E-09-8.96931E-19 1.07197E-18
 -1      4004 9.52659E-05-2.85588E-05-2.85888E-05-8.55646E-09-1.78834E-18 1.54320E-18
 -1      4005 9.52649E-05-2.85499E-05-2.85920E-05-4.56474E-09-1.56075E-18 1.67303E-18
 -1      4006 9.52642E-05-2.85414E-05-2.85954E-05-1.77475E-09-1.72922E-18 2.20937E-18
 -1      4007 9.52661E-05-2.85716E-05-2.85834E-05-1.27457E-08-1.07715E-18 8.00709E-19
 -1      4008 9.52665E-05-2.85660E-05-2.85859E-05-1.05334E-08-1.84663E-18 4.65522E-19
 -1      4009 9.52678E-05-2.85610E-05-2.85886E-05-7.37897E-09-1.36643E-18 1.72301E-18
 -1      4010 9.52639E-05-2.85793E-05-2.85791E-05-1.46174E-08 7.25345E-19 5.46831E-19
 -1      4011 9.52652E-05-2.85760E-05-2.85810E-05-1.36607E-08-6.96630E-20 4.52572E-19
 -1      4012 9.52676E-05-2.85734E-05-2.85832E-05-1.04387E-08-8.92783E-19 2.31310E-19
 -1      4013 9.52655E-05-2.85842E-05-2.85777E-05 5.47383E-09 5.50261E-19-2.51417E-18
 -1      4014 9.52660E-05-2.85844E-05-2.85779E-05 1.73957E-09 1.23358E-18-2.83884E-18
 -1      4015 7.50871E-05-1.88367E-05-2.41822E-05 8.11125E-06-4.86500E-19 5.22762E-20
 -1      4016 7.22850E-05-1.66350E-05-2.37275E-05 4.39931E-06-3.86403E-19-3.65613E-19
 -1      4017 7.48196E-05-1.71002E-05-2.47229E-05 9.48640E-07-7.82983E-19-3.24205E-20
 -1      4018 6.36176E-05-8.83416E-06-2.34121E-05-4.02247E-06 4.26795E-19-3.48917E-18
 -1      4019 9.52604E-05-2.85855E-05-2.85749E-05-1.16745E-08 5.78633E-19 1.14472E-18
 -1      4020 9.52590E-05-2.85846E-05-2.85747E-05-1.46918E-08-4.13227E-19 1.78817E-18
 -1      4021 9.52602E-05-2.85836E-05-2.85757E-05-1.50400E-08-6.53336E-19 2.17629E-18
 -1      4022 9.52629E-05-2.85846E-05-2.85764E-05-9.96943E-09 5.12752E-19 1.23004E-18
 -1      4023 8.96517E-05-2.50199E-05-2.77146E-05 7.41883E-06-6.18292E-19 6.95856E-20
 -1      4024 8.98487E-05-2.55688E-05-2.75227E-05 8.29915E-06-1.21875E-18-4.42682E-19
 -1      4025 8.78887E-05-2.46743E-05-2.70911E-05 8.80425E-06-9.03410E-19 1.53237E-19
 -1      4026 7.35515E-05-1.62732E-05-2.43898E-05-1.58815E-05-4.19951E-20-2.80772E-18
 -1      4027 8.97180E-05-2.76876E-05-2.66053E-05 1.18516E-05-9.52978E-19 6.59050E-19
 -1      4028 9.09525E-05-2.93289E-05-2.63616E-05 1.31481E-05-8.20867E-19 4.16292E-19
 -1      4029 8.56453E-05-2.63573E-05-2.53771E-05 1.42058E-05-1.30127E-18 1.46782E-18
 -1      4030 8.72016E-05-2.56670E-05-2.63755E-05 1.13119E-05-7.69520E-19 1.47766E-18
 -1      4031 9.00536E-05-2.45566E-05-2.80846E-05 5.78504E-06-1.63279E-19-4.10747E-19
 -1      4032 9.00027E-05-2.47784E-05-2.79355E-05 6.50176E-06 5.34915E-20 1.56865E-19
 -1      4033 8.84374E-05-2.39787E-05-2.76248E-05 6.66485E-06-3.90011E-19 8.19982E-20
 -1      4034 8.92486E-05-2.38416E-05-2.80255E-05 5.06234E-06-3.24887E-19-3.89898E-19
 -1      4035 6.46941E-05-9.72541E-06-2.34997E-05-7.52449E-06 3.19360E-19-3.48890E-18
 -1      4036 6.94939E-05-1.37155E-05-2.39076E-05-1.39913E-05 3.71570E-20-3.10600E-18
 -1      4037 7.76439E-05-1.76329E-05-2.56638E-05-2.43602E-06-1.30902E-18 5.07232E-19
 -1      4038 9.52627E-05-2.85835E-05-2.85768E-05 1.27842E-08 1.68518E-18 3.51734E-19
 -1      4039 9.52644E-05-2.85841E-05-2.85773E-05 8.97556E-09 1.10230E-18-8.15523E-19
 -1      4040 9.52667E-05-2.85823E-05-2.85790E-05 6.96093E-09 3.09463E-19-1.19537E-18
 -1      4041 9.52635E-05-2.85820E-05-2.85777E-05 1.33504E-08 2.09263E-18 1.27266E-19
 -1      4042 9.52649E-05-2.85786E-05-2.85798E-05 1.36584E-08 7.24557E-19 1.02758E-18
 -1      4043 9.52644E-05-2.85806E-05-2.85787E-05 1.34645E-08 1.50247E-18 6.15493E-19
 -1      4044 9.52662E-05-2.85808E-05-2.85795E-05 1.03869E-08 6.56599E-19 2.24356E-18
 -1      4045 9.52677E-05-2.85770E-05-2.85818E-05 1.03870E-08-9.02302E-20 3.22364E-18
 -1      4046 9.52663E-05-2.85838E-05-2.85782E-05-1.87084E-09 1.04313E-18-1.85294E-18
 -1      4047 9.52662E-05-2.85834E-05-2.85784E-05-5.24780E-09 6.33913E-19 5.10032E-19
 -1      4048 9.52680E-05-2.85817E-05-2.85798E-05 1.19523E-10 4.62008E-19-2.15281E-18
 -1      4049 9.52616E-05-2.85825E-05-2.85767E-05-1.48864E-08-1.84923E-19 2.07784E-18
 -1      4050 9.52627E-05-2.85809E-05-2.85779E-05-1.48834E-08 8.40037E-19 9.46590E-19
 -1      4051 9.52655E-05-2.85799E-05-2.85796E-05-1.18225E-08-4.12192E-19 5.45251E-19
 -1      4052 9.52631E-05-2.85830E-05-2.85772E-05-1.24167E-08 3.32166E-19 1.79604E-18
 -1      4053 9.58689E-05-3.77105E-05-2.49237E-05 2.01022E-05-9.33258E-19-5.45172E-19
 -1      4054 9.52017E-05-3.58545E-05-2.54015E-05 1.82122E-05-2.74640E-19-2.19798E-20
 -1      4055 7.82271E-05-2.06601E-05-2.45392E-05 1.07306E-05-6.87026E-19 1.91362E-19
 -1      4056 7.79033E-05-1.94333E-05-2.50735E-05 7.00440E-06-5.12672E-19-4.11883E-19
 -1      4057 8.21367E-05-2.37469E-05-2.50571E-05 1.25445E-05-9.05154E-19 8.72310E-19
 -1      4058 8.42330E-05-2.02840E-05-2.74345E-05-5.82572E-07-2.62089E-19 4.24323E-19
 -1      4059 8.55153E-05-2.08721E-05-2.77167E-05-6.57560E-07-3.04237E-21 2.85606E-19
 -1      4060 8.66092E-05-2.14376E-05-2.79529E-05-8.27893E-07-9.32013E-20-1.20852E-19
 -1      4061 8.76284E-05-2.19946E-05-2.81391E-05-8.43432E-07-3.28801E-19-2.27840E-19
 -1      4062 8.60542E-05-2.11587E-05-2.77661E-05 4.45486E-07-3.83495E-19 1.27940E-18
 -1      4063 8.85100E-05-2.25239E-05-2.82957E-05-9.30129E-07 6.60376E-20-8.08119E-19
 -1      4064 8.93184E-05-2.30374E-05-2.84147E-05-8.99367E-07 1.24703E-19-7.63296E-19
 -1      4065 8.80052E-05-2.22135E-05-2.81605E-05 2.72186E-08-2.14851E-19 2.97331E-19
 -1      4066 9.00338E-05-2.35251E-05-2.85151E-05-9.28885E-07 3.48940E-20-7.11018E-19
 -1      4067 9.06753E-05-2.39882E-05-2.85875E-05-8.67602E-07-4.12859E-19-9.47646E-20
 -1      4068 8.95856E-05-2.32071E-05-2.84200E-05-2.05257E-07 2.80742E-19-4.04898E-19
 -1      4069 9.12542E-05-2.44266E-05-2.86485E-05-8.61209E-07-4.09644E-19 5.77499E-19
 -1      4070 9.17612E-05-2.48350E-05-2.86889E-05-7.83763E-07 5.63226E-19 7.64000E-19
 -1      4071 9.08670E-05-2.41202E-05-2.85839E-05-3.15170E-07 1.50960E-19 1.15686E-18
 -1      4072 9.22261E-05-2.52199E-05-2.87227E-05-7.57037E-07 3.55113E-19 4.26300E-19
 -1      4073 9.26239E-05-2.55724E-05-2.87416E-05-6.74513E-07-1.12410E-19 4.23521E-19
 -1      4074 9.19001E-05-2.49380E-05-2.86809E-05-3.47260E-07 1.27795E-20 9.77690E-19
 -1      4075 9.29934E-05-2.59029E-05-2.87570E-05-6.38333E-07-3.06395E-19-4.56002E-20
 -1      4076 9.33025E-05-2.62013E-05-2.87621E-05-5.58371E-07-2.66002E-19 1.63206E-19
 -1      4077 9.27254E-05-2.56531E-05-2.87319E-05-3.33286E-07-1.90356E-19-4.46816E-19
 -1      4078 9.35925E-05-2.64793E-05-2.87655E-05-5.19874E-07-2.95710E-19 1.13010E-20
 -1      4079 9.38301E-05-2.67273E-05-2.87620E-05-4.47127E-07 2.72854E-19 2.01886E-19
 -1      4080 9.33772E-05-2.62648E-05-2.87521E-05-2.95105E-07-1.91684E-19-2.87846E-19
 -1      4081 9.40547E-05-2.69569E-05-2.87580E-05-4.10618E-07 1.41429E-18-5.72998E-19
 -1      4082 9.42351E-05-2.71594E-05-2.87496E-05-3.47433E-07 7.31236E-19 2.17394E-19
 -1      4083 9.38855E-05-2.67776E-05-2.87526E-05-2.47055E-07 6.34216E-19-1.16834E-18
 -1      4084 9.44064E-05-2.73457E-05-2.87415E-05-3.15191E-07-4.27775E-19 1.54087E-18
 -1      4085 9.45413E-05-2.75083E-05-2.87307E-05-2.62284E-07-1.32586E-19 1.69230E-18
 -1      4086 9.42763E-05-2.71993E-05-2.87413E-05-1.97951E-07 1.05135E-18 3.65694E-19
 -1      4087 9.46699E-05-2.76569E-05-2.87206E-05-2.35225E-07 3.53495E-20 1.51497E-18
 -1      4088 9.47693E-05-2.77855E-05-2.87091E-05-1.92261E-07 7.22644E-21 2.47102E-18
 -1      4089 9.45721E-05-2.75400E-05-2.87236E-05-1.52734E-07 8.01733E-20 2.09686E-18
 -1      4090 9.48641E-05-2.79021E-05-2.86985E-05-1.70449E-07 8.05861E-20 2.58291E-18
 -1      4091 9.49359E-05-2.80021E-05-2.86873E-05-1.36487E-07 9.71551E-19 3.41535E-18
 -1      4092 9.47922E-05-2.78106E-05-2.87031E-05-1.13749E-07 6.68394E-19 3.01222E-18
 -1      4093 9.50044E-05-2.80921E-05-2.86770E-05-1.19501E-07 6.69809E-19 2.97413E-18
 -1      4094 9.50551E-05-2.81685E-05-2.86667E-05-9.33162E-08 1.49653E-19 3.37369E-18
 -1      4095 9.49529E-05-2.80219E-05-2.86824E-05-8.17071E-08 5.05129E-19 2.47544E-18
 -1      4096 9.51033E-05-2.82368E-05-2.86572E-05-8.05010E-08-5.47230E-20 2.99813E-18
 -1      4097 9.51383E-05-2.82943E-05-2.86481E-05-6.07950E-08 3.38133E-19 3.16403E-18
 -1      4098 9.50676E-05-2.81840E-05-2.86628E-05-5.63642E-08 2.41792E-19 2.61682E-18
 -1      4099 9.51712E-05-2.83451E-05-2.86398E-05-5.14255E-08 4.75971E-19 3.68919E-18
 -1      4100 9.51944E-05-2.83875E-05-2.86320E-05-3.69568E-08 9.50052E-20 4.24047E-18
 -1      4101 9.51473E-05-2.83062E-05-2.86451E-05-3.69809E-08 8.13072E-19 3.65416E-18
 -1      4102 9.52160E-05-2.84245E-05-2.86249E-05-3.03312E-08-7.41894E-19 3.99681E-18
 -1      4103 9.52306E-05-2.84551E-05-2.86184E-05-1.99870E-08 1.29444E-19 3.40729E-18
 -1      4104 9.52008E-05-2.83966E-05-2.86296E-05-2.26174E-08-8.46963E-19 3.64637E-18
 -1      4105 9.52440E-05-2.84815E-05-2.86125E-05-1.54776E-08-8.33429E-20 1.97512E-18
 -1      4106 9.52526E-05-2.85031E-05-2.86071E-05-8.30412E-09-6.50604E-19 1.43278E-18
 -1      4107 9.52350E-05-2.84620E-05-2.86166E-05-1.23110E-08-1.17597E-18 2.74029E-18
 -1      4108 9.52601E-05-2.85214E-05-2.86023E-05-5.37773E-09 2.49670E-21 6.21380E-19
 -1      4109 9.52644E-05-2.85361E-05-2.85980E-05-5.87783E-10 4.41086E-19 9.36239E-19
 -1      4110 9.52555E-05-2.85082E-05-2.86057E-05-5.17415E-09-7.30509E-19 6.90148E-19
 -1      4111 9.52679E-05-2.85484E-05-2.85940E-05 1.20281E-09 1.26011E-18 9.17521E-19
 -1      4112 9.52694E-05-2.85581E-05-2.85906E-05 4.17456E-09 1.52473E-18 1.28298E-18
 -1      4113 9.52662E-05-2.85398E-05-2.85969E-05-4.20641E-10 5.69477E-19 4.89244E-19
 -1      4114 9.52702E-05-2.85660E-05-2.85875E-05 5.23456E-09 5.75980E-19 1.23942E-19
 -1      4115 9.52699E-05-2.85720E-05-2.85848E-05 6.83897E-09 3.20948E-19 9.68314E-20
 -1      4116 9.52704E-05-2.85609E-05-2.85897E-05 2.57552E-09 8.67785E-19-3.26487E-19
 -1      4117 8.60601E-05-2.31037E-05-2.70177E-05 7.39517E-06-6.15699E-19 2.30184E-19
 -1      4118 8.58377E-05-2.35128E-05-2.67033E-05 8.64965E-06-3.49718E-19 8.64566E-19
 -1      4119 8.96883E-05-2.36774E-05-2.83086E-05 3.01237E-06 6.57875E-20 1.82983E-19
 -1      4120 8.92426E-05-2.34590E-05-2.81860E-05 3.49391E-06-1.79931E-19 6.61811E-20
 -1      4121 9.24549E-05-2.54936E-05-2.87062E-05 1.23306E-06-1.42381E-18-1.24090E-18
 -1      4122 9.21214E-05-2.52046E-05-2.86781E-05 1.44716E-06-1.44765E-18-1.54317E-18
 -1      4123 9.31117E-05-2.60602E-05-2.87429E-05 9.09706E-07-6.91902E-19-3.55344E-19
 -1      4124 9.28308E-05-2.57930E-05-2.87306E-05 1.07465E-06-1.17234E-18-1.18272E-18
 -1      4125 9.24641E-05-2.54605E-05-2.87020E-05 8.40390E-07-1.73802E-18-1.32538E-18
 -1      4126 9.36467E-05-2.65644E-05-2.87546E-05 6.66649E-07 5.70780E-19 4.15887E-20
 -1      4127 9.34165E-05-2.63275E-05-2.87528E-05 7.93784E-07 2.00139E-19 2.94552E-19
 -1      4128 9.31361E-05-2.60562E-05-2.87376E-05 6.02911E-07-6.42812E-19-1.57845E-18
 -1      4129 9.40734E-05-2.69987E-05-2.87502E-05 4.84047E-07 2.38702E-19 2.80151E-19
 -1      4130 9.38893E-05-2.67954E-05-2.87550E-05 5.81843E-07 1.00866E-18 6.92381E-19
 -1      4131 9.36767E-05-2.65763E-05-2.87487E-05 4.30810E-07 2.88541E-19 2.00443E-19
 -1      4132 9.44070E-05-2.73627E-05-2.87362E-05 3.47220E-07 1.06043E-18-1.05843E-18
 -1      4133 9.42630E-05-2.71929E-05-2.87448E-05 4.22118E-07 3.52390E-19-8.68026E-19
 -1      4134 9.41036E-05-2.70181E-05-2.87443E-05 3.05870E-07 9.33165E-19-2.99201E-19
 -1      4135 9.46625E-05-2.76606E-05-2.87173E-05 2.45178E-07 9.19540E-19-1.39421E-18
 -1      4136 9.45524E-05-2.75222E-05-2.87277E-05 3.02162E-07 1.25455E-18-1.68316E-18
 -1      4137 9.44344E-05-2.73845E-05-2.87306E-05 2.15121E-07 1.32600E-18-1.62994E-18
 -1      4138 9.48541E-05-2.78993E-05-2.86966E-05 1.69610E-07-1.95655E-19-9.03101E-19
 -1      4139 9.47719E-05-2.77889E-05-2.87073E-05 2.12585E-07 2.22717E-19-8.75324E-19
 -1      4140 9.46859E-05-2.76820E-05-2.87122E-05 1.49284E-07 3.01161E-19-1.16617E-18
 -1      4141 9.49946E-05-2.80867E-05-2.86760E-05 1.14173E-07 2.59163E-19-1.83875E-19
 -1      4142 9.49346E-05-2.80003E-05-2.86864E-05 1.46231E-07-3.58609E-20-6.83931E-19
 -1      4143 9.48732E-05-2.79186E-05-2.86921E-05 1.01680E-07-2.24150E-19-7.01685E-20
 -1      4144 9.50951E-05-2.82310E-05-2.86569E-05 7.39976E-08 1.01536E-18-6.55362E-19
 -1      4145 9.50525E-05-2.81648E-05-2.86663E-05 9.75972E-08 1.08865E-18-7.24270E-19
 -1      4146 9.50097E-05-2.81032E-05-2.86723E-05 6.74631E-08 2.98151E-19-1.26811E-18
 -1      4147 9.51648E-05-2.83398E-05-2.86399E-05 4.53268E-08 5.68799E-19-4.01900E-19
 -1      4148 9.51355E-05-2.82901E-05-2.86481E-05 6.24248E-08 7.00249E-19-6.55785E-19
 -1      4149 9.51066E-05-2.82446E-05-2.86538E-05 4.30887E-08 8.32770E-19-1.41026E-18
 -1      4150 9.52113E-05-2.84202E-05-2.86252E-05 2.52610E-08-2.12326E-19-6.75071E-19
 -1      4151 9.51920E-05-2.83837E-05-2.86322E-05 3.74117E-08 6.39569E-19-1.18684E-19
 -1      4152 9.51733E-05-2.83507E-05-2.86373E-05 2.59458E-08 7.41582E-19-2.18294E-18
 -1      4153 9.52408E-05-2.84782E-05-2.86128E-05 1.15647E-08-2.24292E-19-7.43566E-19
 -1      4154 9.52288E-05-2.84520E-05-2.86187E-05 1.99956E-08-6.07058E-20-3.84363E-19
 -1      4155 9.52174E-05-2.84287E-05-2.86232E-05 1.40972E-08 9.85608E-20-4.65112E-19
 -1      4156 9.52580E-05-2.85190E-05-2.86026E-05 2.52218E-09-2.16595E-18 1.42224E-18
 -1      4157 9.52513E-05-2.85007E-05-2.86074E-05 8.19508E-09-1.22585E-18 7.20239E-19
 -1      4158 9.52450E-05-2.84847E-05-2.86112E-05 6.10016E-09-1.51766E-18 9.74388E-20
 -1      4159 9.52667E-05-2.85467E-05-2.85944E-05-3.17775E-09-1.72054E-18 1.34689E-18
 -1      4160 9.52636E-05-2.85344E-05-2.85982E-05 4.82862E-10-2.03086E-18 8.34696E-19
 -1      4161 9.52608E-05-2.85238E-05-2.86014E-05 8.76615E-10-2.07831E-18 4.87340E-19
 -1      4162 9.52695E-05-2.85648E-05-2.85878E-05-6.50045E-09-9.23138E-19 6.12339E-19
 -1      4163 9.52689E-05-2.85569E-05-2.85908E-05-4.27310E-09-1.08907E-18 1.02791E-18
 -1      4164 9.52683E-05-2.85502E-05-2.85934E-05-2.36487E-09-1.28079E-18-6.46425E-19
 -1      4165 9.52687E-05-2.85761E-05-2.85826E-05-8.15263E-09-1.13166E-18 5.88424E-19
 -1      4166 9.52696E-05-2.85712E-05-2.85850E-05-7.00543E-09-1.59010E-18 5.11042E-19
 -1      4167 9.52704E-05-2.85674E-05-2.85870E-05-4.29744E-09-1.15515E-18 7.22854E-19
 -1      4168 7.78120E-05-1.80076E-05-2.56761E-05 9.03504E-07-7.00386E-19 8.04854E-19
 -1      4169 9.16665E-05-2.48827E-05-2.86325E-05 1.66382E-06-9.62273E-19-1.30575E-18
 -1      4170 9.12827E-05-2.45875E-05-2.85820E-05 1.94259E-06-7.01734E-19-5.17815E-19
 -1      4171 9.16443E-05-2.48004E-05-2.86301E-05 1.16892E-06-1.12408E-18-4.26436E-19
 -1      4172 9.07424E-05-2.42600E-05-2.85065E-05 2.23947E-06-4.91083E-19 1.13823E-19
 -1      4173 9.03178E-05-2.39841E-05-2.84250E-05 2.60445E-06 1.29534E-19-5.34235E-20
 -1      4174 8.95116E-05-2.33932E-05-2.83099E-05 2.25935E-06 6.97177E-20 1.30638E-18
 -1      4175 9.06632E-05-2.40986E-05-2.85062E-05 1.62480E-06 1.79602E-19 9.94188E-20
 -1      4176 8.11705E-05-1.90223E-05-2.66510E-05-1.59811E-07-1.16843E-18 7.07405E-19
 -1      4177 8.28570E-05-1.97009E-05-2.70846E-05-3.24069E-07-8.41363E-19 6.72200E-19
 -1      4178 8.35764E-05-2.00404E-05-2.71801E-05 1.13439E-06-7.22474E-19 1.48647E-18
 -1      4179 8.32468E-05-2.35068E-05-2.56409E-05 1.11094E-05-7.28356E-19 8.67208E-19
 -1      4180 7.81269E-05-1.86097E-05-2.54671E-05 4.56304E-06-5.32903E-19 2.41930E-19
 -1      4181 8.02255E-05-1.89124E-05-2.62671E-05 1.48163E-06-7.77295E-19 4.33735E-19
 -1      4182 8.12856E-05-1.95751E-05-2.64574E-05 3.23388E-06-7.79989E-19 5.80244E-19
 -1      4183 8.03919E-05-2.04387E-05-2.57537E-05 7.13143E-06-5.09997E-19-3.46556E-19
 -1      4184 9.52692E-05-2.85791E-05-2.85815E-05 2.23923E-09-2.81290E-19-3.76674E-18
 -1      4185 9.52696E-05-2.85787E-05-2.85818E-05-1.10012E-09-3.82297E-19-7.37040E-19
 -1      4186 8.72796E-05-2.29552E-05-2.75968E-05 5.47915E-06-3.91597E-19-3.16425E-19
 -1      4187 8.69208E-05-2.30618E-05-2.73549E-05 6.36877E-06-4.23375E-19 1.58345E-19
 -1      4188 8.50664E-05-2.20673E-05-2.70127E-05 6.14592E-06-2.18436E-19 9.32878E-20
 -1      4189 9.52709E-05-2.85723E-05-2.85851E-05 2.39988E-09-1.98478E-20-3.26268E-18
 -1      4190 9.52697E-05-2.85750E-05-2.85834E-05 5.48777E-09 3.41035E-20-1.00719E-18
 -1      4191 8.81860E-05-2.27410E-05-2.80154E-05 3.14503E-06-4.22756E-19 8.16972E-19
 -1      4192 8.85232E-05-2.32110E-05-2.80149E-05 4.05647E-06-4.56308E-19-3.01760E-19
 -1      4193 8.80925E-05-2.31065E-05-2.78396E-05 4.69881E-06-4.40638E-19-1.35979E-19
 -1      4194 9.52666E-05-2.85815E-05-2.85793E-05-7.89508E-09-1.27887E-19 6.02156E-20
 -1      4195 9.52678E-05-2.85796E-05-2.85806E-05-7.33225E-09-3.54414E-19 8.45471E-20
 -1      4196 8.41477E-05-2.32883E-05-2.61074E-05 9.89480E-06-4.09779E-19 6.20467E-19
 -1      4197 9.52693E-05-2.85777E-05-2.85822E-05-4.27461E-09-1.07332E-18 3.59109E-19
 -1      4198 9.52644E-05-2.85835E-05-2.85775E-05-9.72943E-09 7.41935E-19 1.83762E-18
 -1      4199 8.25681E-05-2.16684E-05-2.60582E-05 8.22255E-06-2.27316E-19-8.66554E-21
 -1      4200 8.24380E-05-2.08605E-05-2.63867E-05 6.13552E-06-4.95287E-19 1.06249E-19
 -1      4201 9.52711E-05-2.85661E-05-2.85878E-05 2.12119E-09-1.42400E-19-6.23747E-19
 -1      4202 9.52710E-05-2.85697E-05-2.85863E-05 7.32300E-10-7.34234E-19-7.87306E-19
 -1      4203 9.52703E-05-2.85578E-05-2.85910E-05 1.03931E-09-3.41964E-19 1.53317E-19
 -1      4204 9.52676E-05-2.85808E-05-2.85801E-05 6.96013E-09 3.37712E-19-1.15804E-18
 -1      4205 8.78016E-05-2.23674E-05-2.80744E-05 1.48169E-06-3.82156E-19 8.87011E-19
 -1      4206 8.86825E-05-2.28363E-05-2.82341E-05 1.26368E-06 8.81837E-20 9.90416E-19
 -1      4207 8.93383E-05-2.32277E-05-2.83568E-05 9.36428E-07 3.90106E-19 7.54816E-19
 -1      4208 9.00560E-05-2.36763E-05-2.84606E-05 8.07210E-07 7.85140E-19 7.91519E-19
 -1      4209 9.06148E-05-2.40633E-05-2.85401E-05 5.76620E-07 1.36698E-19 7.38586E-19
 -1      4210 9.11970E-05-2.44777E-05-2.86042E-05 5.06504E-07-4.79202E-19 1.08543E-18
 -1      4211 9.16650E-05-2.48413E-05-2.86525E-05 3.43843E-07-1.08755E-18 6.95981E-19
 -1      4212 9.21335E-05-2.52127E-05-2.86888E-05 3.11827E-07-9.95022E-19-1.49401E-20
 -1      4213 9.25187E-05-2.55413E-05-2.87150E-05 1.96810E-07-9.82547E-19-6.75509E-19
 -1      4214 9.28917E-05-2.58654E-05-2.87325E-05 1.88118E-07-8.56549E-19-9.65492E-19
 -1      4215 9.32032E-05-2.61532E-05-2.87436E-05 1.06523E-07-4.17490E-19-8.47030E-19
 -1      4216 9.34965E-05-2.64294E-05-2.87486E-05 1.11047E-07-5.61393E-19-9.64494E-19
 -1      4217 9.37440E-05-2.66748E-05-2.87499E-05 5.29362E-08-1.84249E-21-5.15775E-19
 -1      4218 9.39714E-05-2.69053E-05-2.87471E-05 6.40283E-08 1.12071E-18-7.38272E-19
 -1      4219 9.41646E-05-2.71096E-05-2.87422E-05 2.24779E-08 1.38718E-18-1.13936E-18
 -1      4220 9.43384E-05-2.72982E-05-2.87350E-05 3.59790E-08 9.83755E-19-3.26389E-19
 -1      4221 9.44863E-05-2.74649E-05-2.87267E-05 6.16718E-09 5.52659E-19 2.10559E-19
 -1      4222 9.46169E-05-2.76163E-05-2.87172E-05 1.96458E-08 7.57987E-19 8.82102E-19
 -1      4223 9.47281E-05-2.77496E-05-2.87074E-05-1.79083E-09 2.15326E-19 9.86537E-19
 -1      4224 9.48245E-05-2.78691E-05-2.86972E-05 1.03837E-08-4.72157E-21 8.52097E-19
 -1      4225 9.49063E-05-2.79737E-05-2.86871E-05-5.03483E-09-8.74171E-20 9.63183E-19
 -1      4226 9.49760E-05-2.80663E-05-2.86770E-05 5.28455E-09 3.87887E-20 7.09518E-19
 -1      4227 9.50348E-05-2.81469E-05-2.86674E-05-5.78023E-09-1.02303E-19 6.70559E-19
 -1      4228 9.50840E-05-2.82174E-05-2.86581E-05 2.57024E-09 5.20017E-19 8.82036E-19
 -1      4229 9.51250E-05-2.82784E-05-2.86493E-05-5.32747E-09 1.08345E-18 5.10840E-19
 -1      4230 9.51587E-05-2.83311E-05-2.86411E-05 1.18074E-09 9.96954E-19 4.11750E-19
 -1      4231 9.51864E-05-2.83762E-05-2.86334E-05-4.40515E-09 3.81950E-19 1.06177E-18
 -1      4232 9.52085E-05-2.84148E-05-2.86263E-05 5.01503E-10-3.33210E-19 1.09068E-18
 -1      4233 9.52264E-05-2.84475E-05-2.86198E-05-3.39555E-09-1.39127E-18 2.05794E-18
 -1      4234 9.52401E-05-2.84750E-05-2.86139E-05 1.87148E-10-1.61605E-18 1.10388E-18
 -1      4235 9.52508E-05-2.84981E-05-2.86085E-05-2.47878E-09-1.84690E-18 1.48037E-18
 -1      4236 9.52586E-05-2.85173E-05-2.86036E-05 5.06591E-11-1.33693E-18 9.11155E-19
 -1      4237 9.52643E-05-2.85331E-05-2.85991E-05-1.72959E-09-8.33931E-19 8.74632E-19
 -1      4238 9.52679E-05-2.85460E-05-2.85952E-05-2.26476E-11-2.66312E-19 4.33695E-19
 -1      4239 8.70459E-05-2.19991E-05-2.78932E-05 1.94523E-06-7.04664E-19 6.75962E-19
 -1      4240 9.52692E-05-2.85774E-05-2.85822E-05 5.74190E-09-9.21028E-20-1.47862E-18
 -1      4241 8.39032E-05-2.07899E-05-2.70669E-05 3.51434E-06-4.09380E-19 1.01512E-18
 -1      4242 8.51273E-05-2.12323E-05-2.73978E-05 2.94824E-06-5.28742E-19 9.86291E-19
 -1      4243 8.59656E-05-2.15273E-05-2.76557E-05 2.29939E-06-7.40577E-19 1.06614E-18
 -1      4244 9.52710E-05-2.85689E-05-2.85867E-05-2.00094E-09-1.51250E-18 1.01743E-18
 -1      4245 9.52709E-05-2.85619E-05-2.85896E-05-1.35175E-09-1.07210E-18 2.75317E-19
 -1      4246 9.52706E-05-2.85746E-05-2.85840E-05-1.82331E-09-1.28114E-18 3.60444E-20
 -1      4247 8.66854E-05-2.22240E-05-2.75906E-05 4.37850E-06-5.67018E-19-6.68602E-20
 -1      4248 9.52701E-05-2.85563E-05-2.85916E-05-1.02128E-09-4.22550E-19 2.89640E-19
 -1      4249 8.33762E-05-2.08941E-05-2.67627E-05 5.03615E-06-2.79194E-19 9.37593E-20
 -3
    1PSTEP                         4           1           1          
  100CL  101 1.000000000        4249                     0    1           1
 -4  ERROR       1    1
 -5  STR(%)      1    1    0    0
 -1         1 1.24450E+01
 -1         2 2.38328E+01
 -1         3 2.32405E-04
 -1         4 4.24310E-04
 -1         5 1.29906E+01
 -1         6 1.17016E+01
 -1         7 1.17016E+01
 -1         8 3.84057E+00
 -1         9 2.56161E+00
 -1        10 2.04806E+00
 -1        11 1.69758E+00
 -1        12 1.31548E+00
 -1        13 8.98412E-01
 -1        14 5.41867E-01
 -1        15 8.80797E-01
 -1        16 1.12307E+00
 -1        17 1.28266E+00
 -1        18 1.49946E+00
 -1        19 1.77379E+00
 -1        20 2.27863E+00
 -1        21 3.62058E+00
 -1        22 8.13080E+00
 -1        23 1.17016E+01
 -1        24 3.11148E+00
 -1        25 1.82166E+00
 -1        26 1.04894E+00
 -1        27 1.52449E+00
 -1        28 1.78125E+00
 -1        29 1.82439E+00
 -1        30 1.82439E+00
 -1        31 2.58992E+00
 -1        32 5.01368E+00
 -1        33 6.21786E+00
 -1        34 6.22944E+00
 -1        35 6.22944E+00
 -1        36 5.06876E+00
 -1        37 2.71777E+00
 -1        38 2.12583E+00
 -1        39 2.12583E+00
 -1        40 2.10468E+00
 -1        41 2.05048E+00
 -1        42 1.74305E+00
 -1        43 1.37381E+00
 -1        44 1.08908E+00
 -1        45 8.24730E-01
 -1        46 6.72227E-01
 -1        47 5.43007E-01
 -1        48 4.26155E-01
 -1        49 3.26597E-01
 -1        50 2.45073E-01
 -1        51 1.80206E-01
 -1        52 1.29743E-01
 -1        53 1.04020E-01
 -1        54 8.45445E-02
 -1        55 6.74978E-02
 -1        56 5.29875E-02
 -1        57 4.09113E-02
 -1        58 3.10530E-02
 -1        59 2.31425E-02
 -1        60 1.88383E-02
 -1        61 1.53574E-02
 -1        62 1.22758E-02
 -1        63 9.61998E-03
 -1        64 7.37447E-03
 -1        65 5.65370E-03
 -1        66 4.20782E-03
 -1        67 3.11422E-03
 -1        68 2.69137E-03
 -1        69 2.21329E-03
 -1        70 1.61888E-03
 -1        71 1.30215E-03
 -1        72 1.29906E+01
 -1        73 2.76673E+00
 -1        74 1.53486E+00
 -1        75 7.35336E-01
 -1        76 2.26378E-01
 -1        77 5.44993E-01
 -1        78 8.84219E-01
 -1        79 1.18279E+00
 -1        80 1.52210E+00
 -1        81 2.25564E+00
 -1        82 2.62803E+00
 -1        83 2.95313E+00
 -1        84 2.95313E+00
 -1        85 2.93360E+00
 -1        86 2.31406E+00
 -1        87 1.48527E+00
 -1        88 9.98328E-01
 -1        89 7.01160E-01
 -1        90 7.59531E-01
 -1        91 8.01150E-01
 -1        92 8.01150E-01
 -1        93 7.46818E-01
 -1        94 6.42764E-01
 -1        95 5.38295E-01
 -1        96 4.36031E-01
 -1        97 3.37633E-01
 -1        98 2.52312E-01
 -1        99 2.01827E-01
 -1       100 1.56290E-01
 -1       101 1.17369E-01
 -1       102 8.54484E-02
 -1       103 6.01466E-02
 -1       104 4.29846E-02
 -1       105 3.62529E-02
 -1       106 2.97899E-02
 -1       107 2.39262E-02
 -1       108 1.88155E-02
 -1       109 1.60466E-02
 -1       110 1.39646E-02
 -1       111 1.18130E-02
 -1       112 9.75354E-03
 -1       113 7.87223E-03
 -1       114 6.28310E-03
 -1       115 4.95604E-03
 -1       116 3.76288E-03
 -1       117 2.68628E-03
 -1       118 2.16797E-03
 -1       119 1.56629E-03
 -1       120 8.94929E-04
 -1       121 4.15946E-04
 -1       122 4.15946E-04
 -1       123 3.16268E-04
 -1       124 1.27360E-04
 -1       125 1.92083E-04
 -1       126 2.81828E-04
 -1       127 3.33469E-04
 -1       128 3.47950E-04
 -1       129 3.47950E-04
 -1       130 3.33561E-04
 -1       131 2.79603E-04
 -1       132 1.92827E-04
 -1       133 1.29783E-04
 -1       134 3.17798E-04
 -1       135 3.32499E-04
 -1       136 3.32499E-04
 -1       137 2.47300E+01
 -1       138 4.79819E+01
 -1       139 4.79819E+01
 -1       140 2.04088E+01
 -1       141 1.17879E+01
 -1       142 1.18972E+01
 -1       143 1.18972E+01
 -1       144 1.30759E+01
 -1       145 1.30759E+01
 -1       146 1.20952E+01
 -1       147 2.71504E+01
 -1       148 2.94911E+01
 -1       149 2.91458E+01
 -1       150 2.56421E+01
 -1       151 2.51645E+01
 -1       152 2.51645E+01
 -1       153 4.30257E+01
 -1       154 4.30257E+01
 -1       155 1.63169E+01
 -1       156 1.22227E+01
 -1       157 1.24066E+01
 -1       158 1.24450E+01
 -1       159 1.22112E+01
 -1       160 1.92893E+01
 -1       161 4.68687E+01
 -1       162 4.68687E+01
 -1       163 2.49822E+01
 -1       164 5.96303E+00
 -1       165 2.88568E+00
 -1       166 2.14626E+00
 -1       167 1.76614E+00
 -1       168 1.48060E+00
 -1       169 1.11063E+00
 -1       170 6.05002E-01
 -1       171 7.37167E-01
 -1       172 1.01757E+00
 -1       173 1.15136E+00
 -1       174 1.35601E+00
 -1       175 1.63449E+00
 -1       176 2.00968E+00
 -1       177 2.67527E+00
 -1       178 3.92841E+00
 -1       179 1.29906E+01
 -1       180 3.11148E+00
 -1       181 1.82166E+00
 -1       182 1.03823E+00
 -1       183 1.15779E+00
 -1       184 1.52449E+00
 -1       185 1.78125E+00
 -1       186 1.82439E+00
 -1       187 1.70572E+00
 -1       188 2.94190E+00
 -1       189 5.01368E+00
 -1       190 6.21786E+00
 -1       191 6.22944E+00
 -1       192 5.06876E+00
 -1       193 2.93179E+00
 -1       194 1.84445E+00
 -1       195 2.12583E+00
 -1       196 2.10468E+00
 -1       197 2.05048E+00
 -1       198 1.74305E+00
 -1       199 1.44695E+00
 -1       200 1.25381E+00
 -1       201 1.03951E+00
 -1       202 8.20646E-01
 -1       203 6.23286E-01
 -1       204 4.58027E-01
 -1       205 3.27919E-01
 -1       206 2.53470E-01
 -1       207 1.92171E-01
 -1       208 1.43021E-01
 -1       209 1.04432E-01
 -1       210 8.45445E-02
 -1       211 6.74978E-02
 -1       212 5.29875E-02
 -1       213 4.09113E-02
 -1       214 3.10530E-02
 -1       215 2.41487E-02
 -1       216 1.88383E-02
 -1       217 1.53574E-02
 -1       218 1.22758E-02
 -1       219 9.69005E-03
 -1       220 7.71015E-03
 -1       221 6.00611E-03
 -1       222 4.73620E-03
 -1       223 3.60013E-03
 -1       224 2.69137E-03
 -1       225 2.21329E-03
 -1       226 1.61888E-03
 -1       227 1.30215E-03
 -1       228 5.35265E-04
 -1       229 2.76673E+00
 -1       230 1.53486E+00
 -1       231 7.35336E-01
 -1       232 2.75987E-01
 -1       233 4.56653E-01
 -1       234 8.00500E-01
 -1       235 1.21457E+00
 -1       236 1.70502E+00
 -1       237 2.08888E+00
 -1       238 2.25564E+00
 -1       239 2.62803E+00
 -1       240 2.95313E+00
 -1       241 2.93360E+00
 -1       242 2.31406E+00
 -1       243 1.48527E+00
 -1       244 9.98328E-01
 -1       245 6.39100E-01
 -1       246 7.01160E-01
 -1       247 7.59531E-01
 -1       248 8.01150E-01
 -1       249 7.46818E-01
 -1       250 6.42764E-01
 -1       251 5.38295E-01
 -1       252 4.45744E-01
 -1       253 3.56506E-01
 -1       254 2.73618E-01
 -1       255 2.01827E-01
 -1       256 1.56290E-01
 -1       257 1.17369E-01
 -1       258 8.54484E-02
 -1       259 6.13735E-02
 -1       260 4.47171E-02
 -1       261 3.77408E-02
 -1       262 3.10551E-02
 -1       263 2.49816E-02
 -1       264 1.96728E-02
 -1       265 1.60466E-02
 -1       266 1.39646E-02
 -1       267 1.18130E-02
 -1       268 9.75354E-03
 -1       269 7.87223E-03
 -1       270 6.28310E-03
 -1       271 4.95604E-03
 -1       272 3.76288E-03
 -1       273 2.78091E-03
 -1       274 2.16797E-03
 -1       275 1.56629E-03
 -1       276 9.05155E-04
 -1       277 7.64052E-04
 -1       278 7.64052E-04
 -1       279 4.30306E-04
 -1       280 3.10813E-04
 -1       281 4.90080E-04
 -1       282 6.00531E-04
 -1       283 6.43885E-04
 -1       284 6.43914E-04
 -1       285 6.43914E-04
 -1       286 5.98837E-04
 -1       287 4.92485E-04
 -1       288 3.16239E-04
 -1       289 4.32019E-04
 -1       290 9.51041E-04
 -1       291 9.51041E-04
 -1       292 2.84553E+01
 -1       293 2.81959E+01
 -1       294 4.79819E+01
 -1       295 2.34017E+01
 -1       296 1.06061E+01
 -1       297 1.17879E+01
 -1       298 1.18972E+01
 -1       299 1.18545E+01
 -1       300 1.30759E+01
 -1       301 1.18850E+01
 -1       302 1.20952E+01
 -1       303 2.94911E+01
 -1       304 3.33426E+01
 -1       305 3.33426E+01
 -1       306 3.22358E+01
 -1       307 3.22358E+01
 -1       308 3.78464E+01
 -1       309 4.30257E+01
 -1       310 1.65555E+01
 -1       311 1.11251E+01
 -1       312 1.22227E+01
 -1       313 1.24066E+01
 -1       314 1.24450E+01
 -1       315 1.22112E+01
 -1       316 1.11956E+01
 -1       317 1.95688E+01
 -1       318 4.68687E+01
 -1       319 2.89119E+01
 -1       320 2.84553E+01
 -1       321 1.96263E+00
 -1       322 2.85059E+00
 -1       323 1.65041E+00
 -1       324 1.38551E+00
 -1       325 8.94206E-01
 -1       326 6.31756E-01
 -1       327 9.92252E-01
 -1       328 1.13204E+00
 -1       329 1.18598E+00
 -1       330 1.26631E+00
 -1       331 1.39263E+00
 -1       332 1.62061E+00
 -1       333 1.72351E+00
 -1       334 1.77311E+00
 -1       335 1.34942E+00
 -1       336 1.64847E+00
 -1       337 1.41356E+00
 -1       338 1.50894E+00
 -1       339 1.59583E+00
 -1       340 1.56128E+00
 -1       341 1.84704E+00
 -1       342 2.02377E+00
 -1       343 2.66758E+00
 -1       344 3.56012E+00
 -1       345 4.34628E+00
 -1       346 3.50751E+00
 -1       347 2.66722E+00
 -1       348 1.96864E+00
 -1       349 1.85496E+00
 -1       350 1.68468E+00
 -1       351 1.71481E+00
 -1       352 1.61913E+00
 -1       353 1.45947E+00
 -1       354 1.32608E+00
 -1       355 1.14755E+00
 -1       356 9.43555E-01
 -1       357 7.46457E-01
 -1       358 5.72668E-01
 -1       359 4.27988E-01
 -1       360 3.12214E-01
 -1       361 2.22265E-01
 -1       362 1.54030E-01
 -1       363 1.04432E-01
 -1       364 7.46760E-02
 -1       365 5.41140E-02
 -1       366 4.15102E-02
 -1       367 3.41979E-02
 -1       368 2.76207E-02
 -1       369 2.18963E-02
 -1       370 1.70407E-02
 -1       371 1.33299E-02
 -1       372 1.11171E-02
 -1       373 9.24356E-03
 -1       374 7.49262E-03
 -1       375 6.00611E-03
 -1       376 4.75796E-03
 -1       377 3.64283E-03
 -1       378 2.80910E-03
 -1       379 2.07100E-03
 -1       380 1.53461E-03
 -1       381 1.10949E-03
 -1       382 2.75987E-01
 -1       383 2.88654E-01
 -1       384 5.54306E-01
 -1       385 9.40003E-01
 -1       386 1.36091E+00
 -1       387 1.70502E+00
 -1       388 2.08888E+00
 -1       389 2.15155E+00
 -1       390 2.15216E+00
 -1       391 2.10638E+00
 -1       392 1.71808E+00
 -1       393 1.28634E+00
 -1       394 8.01344E-01
 -1       395 4.76533E-01
 -1       396 5.07356E-01
 -1       397 5.76928E-01
 -1       398 6.28466E-01
 -1       399 5.97933E-01
 -1       400 5.22484E-01
 -1       401 4.58777E-01
 -1       402 4.04267E-01
 -1       403 3.38095E-01
 -1       404 2.70678E-01
 -1       405 2.08391E-01
 -1       406 1.54498E-01
 -1       407 1.13556E-01
 -1       408 8.47178E-02
 -1       409 6.13735E-02
 -1       410 4.51210E-02
 -1       411 3.77408E-02
 -1       412 3.10551E-02
 -1       413 2.49816E-02
 -1       414 1.96728E-02
 -1       415 1.51683E-02
 -1       416 1.23394E-02
 -1       417 1.04078E-02
 -1       418 8.54620E-03
 -1       419 6.83491E-03
 -1       420 5.46299E-03
 -1       421 4.25446E-03
 -1       422 3.29203E-03
 -1       423 2.48180E-03
 -1       424 1.83327E-03
 -1       425 1.40382E-03
 -1       426 1.19011E-03
 -1       427 5.18273E-04
 -1       428 1.32861E-03
 -1       429 6.51479E-04
 -1       430 8.10498E-04
 -1       431 8.79046E-04
 -1       432 8.79046E-04
 -1       433 8.77686E-04
 -1       434 8.77686E-04
 -1       435 8.14062E-04
 -1       436 6.59138E-04
 -1       437 5.05818E-04
 -1       438 7.57143E-04
 -1       439 5.70466E-01
 -1       440 2.81959E+01
 -1       441 9.19443E+00
 -1       442 3.26606E+01
 -1       443 1.68423E+01
 -1       444 1.82678E+00
 -1       445 7.44786E+00
 -1       446 1.04353E+01
 -1       447 1.08104E+01
 -1       448 1.09506E+01
 -1       449 9.04707E+00
 -1       450 6.68199E+00
 -1       451 1.11470E+01
 -1       452 1.96691E+01
 -1       453 3.33426E+01
 -1       454 3.99920E+01
 -1       455 3.99920E+01
 -1       456 2.88697E+01
 -1       457 2.50833E+01
 -1       458 1.43217E+01
 -1       459 8.34086E+00
 -1       460 8.70409E+00
 -1       461 1.02441E+01
 -1       462 1.00695E+01
 -1       463 1.05353E+01
 -1       464 7.81385E+00
 -1       465 8.39259E+00
 -1       466 1.61420E+01
 -1       467 2.89119E+01
 -1       468 3.26606E+01
 -1       469 3.09436E+01
 -1       470 9.18031E+00
 -1       471 5.17692E+00
 -1       472 1.31223E+00
 -1       473 1.67427E+00
 -1       474 1.05660E+00
 -1       475 1.23941E+00
 -1       476 1.23941E+00
 -1       477 1.22549E+00
 -1       478 1.15288E+00
 -1       479 1.23285E+00
 -1       480 1.08430E+00
 -1       481 1.08774E+00
 -1       482 1.65835E+00
 -1       483 8.04024E+00
 -1       484 1.71843E+00
 -1       485 1.99486E+00
 -1       486 2.36536E+00
 -1       487 2.70443E+00
 -1       488 4.16181E+00
 -1       489 2.76601E+00
 -1       490 3.56012E+00
 -1       491 5.83309E+00
 -1       492 6.42857E+00
 -1       493 3.50751E+00
 -1       494 2.48449E+00
 -1       495 3.23881E+00
 -1       496 2.43903E+00
 -1       497 2.09548E+00
 -1       498 1.71660E+00
 -1       499 1.59169E+00
 -1       500 1.40690E+00
 -1       501 1.18826E+00
 -1       502 9.62546E-01
 -1       503 7.58500E-01
 -1       504 5.88348E-01
 -1       505 4.47131E-01
 -1       506 3.33193E-01
 -1       507 2.43354E-01
 -1       508 1.74711E-01
 -1       509 1.24408E-01
 -1       510 8.64586E-02
 -1       511 5.82979E-02
 -1       512 3.87894E-02
 -1       513 2.71338E-02
 -1       514 1.98855E-02
 -1       515 1.74273E-02
 -1       516 1.48158E-02
 -1       517 1.22740E-02
 -1       518 9.92946E-03
 -1       519 7.94738E-03
 -1       520 6.80202E-03
 -1       521 5.68275E-03
 -1       522 4.59083E-03
 -1       523 3.66485E-03
 -1       524 2.83634E-03
 -1       525 2.09839E-03
 -1       526 1.49525E-03
 -1       527 1.15058E-03
 -1       528 7.85788E-01
 -1       529 6.43748E-01
 -1       530 5.73698E-01
 -1       531 1.10356E+00
 -1       532 1.39586E+00
 -1       533 1.52354E+00
 -1       534 1.72656E+00
 -1       535 1.58671E+00
 -1       536 1.86195E+00
 -1       537 1.50644E+00
 -1       538 1.33385E+00
 -1       539 1.06606E+00
 -1       540 7.58006E-01
 -1       541 6.93802E-01
 -1       542 5.73760E-01
 -1       543 5.79216E-01
 -1       544 5.71573E-01
 -1       545 5.26875E-01
 -1       546 4.83981E-01
 -1       547 4.30767E-01
 -1       548 3.70827E-01
 -1       549 3.06361E-01
 -1       550 2.44318E-01
 -1       551 1.88682E-01
 -1       552 1.41263E-01
 -1       553 1.02424E-01
 -1       554 7.16665E-02
 -1       555 4.80361E-02
 -1       556 3.23870E-02
 -1       557 2.25331E-02
 -1       558 1.89022E-02
 -1       559 1.63036E-02
 -1       560 1.36670E-02
 -1       561 1.11685E-02
 -1       562 8.90600E-03
 -1       563 7.50607E-03
 -1       564 6.37974E-03
 -1       565 5.24172E-03
 -1       566 4.19116E-03
 -1       567 3.31055E-03
 -1       568 2.50416E-03
 -1       569 1.85158E-03
 -1       570 1.37586E-03
 -1       571 1.01924E-03
 -1       572 8.10349E-04
 -1       573 9.79608E-04
 -1       574 3.09436E+01
 -1       575 1.10813E-03
 -1       576 1.10813E-03
 -1       577 1.10268E-03
 -1       578 1.11010E-03
 -1       579 1.11010E-03
 -1       580 1.02490E-03
 -1       581 7.94323E-04
 -1       582 6.82589E-04
 -1       583 1.67503E+00
 -1       584 1.25591E+01
 -1       585 3.26606E+01
 -1       586 2.18824E+01
 -1       587 7.80618E+00
 -1       588 6.72329E+00
 -1       589 6.66646E+00
 -1       590 1.00594E+00
 -1       591 7.41291E+00
 -1       592 9.79681E+00
 -1       593 5.86456E+00
 -1       594 5.48222E+00
 -1       595 3.82865E+00
 -1       596 1.76710E+01
 -1       597 1.38686E+01
 -1       598 2.35160E+01
 -1       599 3.99920E+01
 -1       600 9.57637E+00
 -1       601 2.88697E+01
 -1       602 1.21945E+01
 -1       603 9.16211E+00
 -1       604 4.00304E+00
 -1       605 6.10599E+00
 -1       606 8.17419E+00
 -1       607 5.43680E+00
 -1       608 1.36465E+01
 -1       609 2.14133E+01
 -1       610 1.67427E+00
 -1       611 8.32045E+00
 -1       612 6.43304E-01
 -1       613 1.71210E+00
 -1       614 6.13923E-01
 -1       615 4.81239E+00
 -1       616 1.52520E+00
 -1       617 1.52520E+00
 -1       618 1.27376E+00
 -1       619 1.23285E+00
 -1       620 1.23285E+00
 -1       621 3.19553E+00
 -1       622 2.26851E+00
 -1       623 2.68046E+00
 -1       624 3.63002E+00
 -1       625 5.02655E+00
 -1       626 5.70458E+00
 -1       627 5.44494E+00
 -1       628 3.44044E+00
 -1       629 2.52624E+00
 -1       630 2.10883E+00
 -1       631 1.70461E+00
 -1       632 1.35286E+00
 -1       633 1.06944E+00
 -1       634 8.33279E-01
 -1       635 6.47221E-01
 -1       636 4.98269E-01
 -1       637 3.79476E-01
 -1       638 2.85405E-01
 -1       639 2.11608E-01
 -1       640 1.54349E-01
 -1       641 1.10463E-01
 -1       642 7.72763E-02
 -1       643 5.25489E-02
 -1       644 3.44276E-02
 -1       645 2.13982E-02
 -1       646 1.32295E-02
 -1       647 9.52513E-03
 -1       648 8.77083E-03
 -1       649 7.73147E-03
 -1       650 6.58272E-03
 -1       651 5.57760E-03
 -1       652 4.88770E-03
 -1       653 4.11610E-03
 -1       654 3.33799E-03
 -1       655 2.60089E-03
 -1       656 1.95970E-03
 -1       657 1.44504E-03
 -1       658 1.06601E-03
 -1       659 1.07000E+00
 -1       660 1.21210E+00
 -1       661 1.50990E+00
 -1       662 1.47873E+00
 -1       663 1.97753E+00
 -1       664 2.23786E+00
 -1       665 3.61313E+00
 -1       666 4.15996E+00
 -1       667 2.85576E+00
 -1       668 1.60130E+00
 -1       669 1.16405E+00
 -1       670 1.11757E+00
 -1       671 8.80373E-01
 -1       672 7.79114E-01
 -1       673 7.10305E-01
 -1       674 6.16407E-01
 -1       675 5.28013E-01
 -1       676 4.69597E-01
 -1       677 4.01263E-01
 -1       678 3.31835E-01
 -1       679 2.66783E-01
 -1       680 2.09058E-01
 -1       681 1.59861E-01
 -1       682 1.19266E-01
 -1       683 8.66818E-02
 -1       684 6.11710E-02
 -1       685 4.16679E-02
 -1       686 2.71105E-02
 -1       687 1.65178E-02
 -1       688 1.09507E-02
 -1       689 9.98008E-03
 -1       690 9.15955E-03
 -1       691 8.05093E-03
 -1       692 6.83004E-03
 -1       693 5.61117E-03
 -1       694 4.76246E-03
 -1       695 3.95118E-03
 -1       696 3.15800E-03
 -1       697 2.45934E-03
 -1       698 1.85307E-03
 -1       699 1.40856E-03
 -1       700 6.24685E+00
 -1       701 1.29439E-03
 -1       702 1.33654E-03
 -1       703 1.09774E-03
 -1       704 1.32580E-03
 -1       705 1.66398E+01
 -1       706 1.33956E-03
 -1       707 1.33956E-03
 -1       708 1.32568E-03
 -1       709 1.22717E-03
 -1       710 4.81852E+00
 -1       711 1.45872E+01
 -1       712 1.71828E+01
 -1       713 9.22286E+00
 -1       714 3.54275E+00
 -1       715 1.33654E-03
 -1       716 9.97408E+00
 -1       717 5.03143E+00
 -1       718 8.29213E+00
 -1       719 1.92583E+00
 -1       720 6.63996E+00
 -1       721 3.56936E+00
 -1       722 1.14792E+01
 -1       723 8.37675E+00
 -1       724 1.43643E+00
 -1       725 1.61885E+01
 -1       726 1.45720E+01
 -1       727 5.39180E+00
 -1       728 3.64515E+00
 -1       729 1.52404E+01
 -1       730 1.84535E+00
 -1       731 1.38015E+00
 -1       732 1.14807E+01
 -1       733 1.17558E+01
 -1       734 1.65835E+00
 -1       735 2.13074E+00
 -1       736 1.27646E+00
 -1       737 3.15412E+00
 -1       738 6.16566E+00
 -1       739 3.77373E+00
 -1       740 1.23031E-03
 -1       741 1.02798E+00
 -1       742 4.15996E+00
 -1       743 1.61490E+00
 -1       744 4.55984E+00
 -1       745 1.50990E+00
 -1       746 7.63361E+00
 -1       747 3.95620E+00
 -1       748 1.72287E+00
 -1       749 4.47593E+00
 -1       750 6.72961E+00
 -1       751 9.18429E+00
 -1       752 4.15996E+00
 -1       753 5.41682E+00
 -1       754 4.08301E+00
 -1       755 3.13986E+00
 -1       756 2.17539E+00
 -1       757 1.62403E+00
 -1       758 1.26248E+00
 -1       759 9.95769E-01
 -1       760 7.71151E-01
 -1       761 5.87549E-01
 -1       762 4.41048E-01
 -1       763 3.26166E-01
 -1       764 2.37382E-01
 -1       765 1.69681E-01
 -1       766 1.19651E-01
 -1       767 8.38245E-02
 -1       768 5.72130E-02
 -1       769 3.94518E-02
 -1       770 2.63224E-02
 -1       771 1.67744E-02
 -1       772 9.98175E-03
 -1       773 6.07764E-03
 -1       774 6.18471E-03
 -1       775 6.06836E-03
 -1       776 5.57760E-03
 -1       777 4.88770E-03
 -1       778 4.11610E-03
 -1       779 3.55557E-03
 -1       780 2.96515E-03
 -1       781 2.71142E-03
 -1       782 2.46033E-03
 -1       783 1.40749E+00
 -1       784 1.71224E+00
 -1       785 2.57091E+00
 -1       786 2.00842E+00
 -1       787 1.60130E+00
 -1       788 2.19900E+00
 -1       789 1.27138E+00
 -1       790 1.12414E+00
 -1       791 9.43916E-01
 -1       792 7.59150E-01
 -1       793 6.38470E-01
 -1       794 5.36351E-01
 -1       795 4.43986E-01
 -1       796 3.57297E-01
 -1       797 2.80881E-01
 -1       798 2.16211E-01
 -1       799 1.64867E-01
 -1       800 1.23863E-01
 -1       801 9.13487E-02
 -1       802 6.59692E-02
 -1       803 4.64766E-02
 -1       804 3.17601E-02
 -1       805 2.08562E-02
 -1       806 1.29471E-02
 -1       807 7.35204E-03
 -1       808 5.65404E-03
 -1       809 5.94926E-03
 -1       810 5.72255E-03
 -1       811 5.18640E-03
 -1       812 4.49016E-03
 -1       813 3.80603E-03
 -1       814 3.27545E-03
 -1       815 2.69127E-03
 -1       816 2.10278E-03
 -1       817 1.79783E-03
 -1       818 2.36368E-03
 -1       819 1.63986E-03
 -1       820 1.63986E-03
 -1       821 1.47844E-03
 -1       822 2.18865E+00
 -1       823 4.48597E+00
 -1       824 1.83157E-03
 -1       825 3.37222E+00
 -1       826 7.71398E+00
 -1       827 3.90840E+00
 -1       828 2.78115E+00
 -1       829 2.05948E+00
 -1       830 1.04939E+01
 -1       831 1.04236E+01
 -1       832 5.82992E+00
 -1       833 1.01755E+01
 -1       834 1.04939E+01
 -1       835 7.79965E+00
 -1       836 5.48364E+00
 -1       837 1.04481E+01
 -1       838 1.04236E+01
 -1       839 2.05948E+00
 -1       840 2.69100E+00
 -1       841 2.85576E+00
 -1       842 5.44429E+00
 -1       843 1.90145E+00
 -1       844 2.09805E-03
 -1       845 2.14705E+00
 -1       846 2.09805E-03
 -1       847 1.52679E+00
 -1       848 2.63444E+00
 -1       849 2.91587E+00
 -1       850 2.91587E+00
 -1       851 6.53905E+00
 -1       852 1.90070E+00
 -1       853 6.86594E+00
 -1       854 2.85512E+00
 -1       855 2.58699E-03
 -1       856 3.64770E+00
 -1       857 6.38198E+00
 -1       858 1.57715E+00
 -1       859 3.14899E+00
 -1       860 4.94914E+00
 -1       861 3.82983E+00
 -1       862 2.20914E+00
 -1       863 1.62403E+00
 -1       864 1.22333E+00
 -1       865 9.23838E-01
 -1       866 6.98916E-01
 -1       867 5.27648E-01
 -1       868 3.96069E-01
 -1       869 2.94713E-01
 -1       870 2.16784E-01
 -1       871 1.57178E-01
 -1       872 1.11952E-01
 -1       873 7.79938E-02
 -1       874 5.38545E-02
 -1       875 3.63200E-02
 -1       876 2.36576E-02
 -1       877 1.45947E-02
 -1       878 8.24156E-03
 -1       879 3.91533E-03
 -1       880 3.74842E-03
 -1       881 4.17800E-03
 -1       882 4.13979E-03
 -1       883 3.81784E-03
 -1       884 3.33918E-03
 -1       885 2.88021E-03
 -1       886 2.71142E-03
 -1       887 7.14151E+00
 -1       888 2.65352E+00
 -1       889 1.25803E+00
 -1       890 1.03245E+00
 -1       891 8.20954E-01
 -1       892 6.35029E-01
 -1       893 4.99267E-01
 -1       894 4.04268E-01
 -1       895 3.30398E-01
 -1       896 2.66594E-01
 -1       897 2.09440E-01
 -1       898 1.60468E-01
 -1       899 1.19909E-01
 -1       900 8.72568E-02
 -1       901 6.16294E-02
 -1       902 4.27422E-02
 -1       903 2.88116E-02
 -1       904 1.84898E-02
 -1       905 1.10338E-02
 -1       906 5.90689E-03
 -1       907 3.08299E-03
 -1       908 3.81497E-03
 -1       909 4.07457E-03
 -1       910 3.94125E-03
 -1       911 3.57269E-03
 -1       912 3.07892E-03
 -1       913 2.68551E-03
 -1       914 2.43775E-03
 -1       915 7.14151E+00
 -1       916 3.97746E+00
 -1       917 2.24055E-03
 -1       918 1.71629E-03
 -1       919 2.30957E+00
 -1       920 1.67311E-03
 -1       921 6.36608E+00
 -1       922 1.87761E+00
 -1       923 5.44429E+00
 -1       924 3.17631E+00
 -1       925 4.14188E+00
 -1       926 5.29396E+00
 -1       927 6.08144E+00
 -1       928 5.77311E+00
 -1       929 2.29681E-03
 -1       930 4.19553E+00
 -1       931 1.83157E-03
 -1       932 5.66920E+00
 -1       933 4.86671E+00
 -1       934 6.38198E+00
 -1       935 3.51269E+00
 -1       936 3.78130E+00
 -1       937 1.90316E+00
 -1       938 3.44796E+00
 -1       939 3.55984E+00
 -1       940 2.14081E+00
 -1       941 1.39021E+00
 -1       942 1.00775E+00
 -1       943 7.49750E-01
 -1       944 5.65467E-01
 -1       945 4.28318E-01
 -1       946 3.23821E-01
 -1       947 2.43200E-01
 -1       948 1.80754E-01
 -1       949 1.32501E-01
 -1       950 9.54730E-02
 -1       951 6.73450E-02
 -1       952 4.62506E-02
 -1       953 3.15584E-02
 -1       954 2.08499E-02
 -1       955 1.30908E-02
 -1       956 7.60326E-03
 -1       957 4.00546E-03
 -1       958 2.25816E-03
 -1       959 2.92880E-03
 -1       960 3.12003E-03
 -1       961 3.00513E-03
 -1       962 2.70335E-03
 -1       963 1.91335E-03
 -1       964 1.08278E+00
 -1       965 7.89121E-01
 -1       966 6.17132E-01
 -1       967 4.99267E-01
 -1       968 4.04268E-01
 -1       969 3.21204E-01
 -1       970 2.50787E-01
 -1       971 1.92449E-01
 -1       972 1.45044E-01
 -1       973 1.07199E-01
 -1       974 7.75052E-02
 -1       975 5.46111E-02
 -1       976 3.72799E-02
 -1       977 2.52635E-02
 -1       978 1.64266E-02
 -1       979 1.00389E-02
 -1       980 5.53983E-03
 -1       981 3.13671E-03
 -1       982 2.50184E-03
 -1       983 2.95755E-03
 -1       984 3.01866E-03
 -1       985 2.83166E-03
 -1       986 2.50726E-03
 -1       987 2.43775E-03
 -1       988 4.43319E+00
 -1       989 1.70546E-03
 -1       990 2.35256E-03
 -1       991 2.85512E+00
 -1       992 3.87196E+00
 -1       993 5.66920E+00
 -1       994 4.94914E+00
 -1       995 3.87196E+00
 -1       996 3.10588E+00
 -1       997 3.75074E+00
 -1       998 2.43569E-03
 -1       999 4.19553E+00
 -1      1000 1.68796E-03
 -1      1001 3.22582E+00
 -1      1002 3.44796E+00
 -1      1003 2.79027E+00
 -1      1004 1.96634E+00
 -1      1005 9.44033E-01
 -1      1006 6.97149E-01
 -1      1007 5.18873E-01
 -1      1008 3.91821E-01
 -1      1009 3.02751E-01
 -1      1010 2.33053E-01
 -1      1011 1.77688E-01
 -1      1012 1.33725E-01
 -1      1013 9.90491E-02
 -1      1014 7.19894E-02
 -1      1015 5.11525E-02
 -1      1016 3.53526E-02
 -1      1017 2.40721E-02
 -1      1018 1.60988E-02
 -1      1019 1.06797E-02
 -1      1020 6.78875E-03
 -1      1021 4.00546E-03
 -1      1022 2.06083E-03
 -1      1023 2.08215E-03
 -1      1024 2.33355E-03
 -1      1025 2.32294E-03
 -1      1026 1.84072E+00
 -1      1027 6.17132E-01
 -1      1028 4.76839E-01
 -1      1029 3.66953E-01
 -1      1030 2.80509E-01
 -1      1031 2.12593E-01
 -1      1032 1.59404E-01
 -1      1033 1.17973E-01
 -1      1034 8.59452E-02
 -1      1035 6.14271E-02
 -1      1036 4.28793E-02
 -1      1037 2.90438E-02
 -1      1038 1.95466E-02
 -1      1039 1.33282E-02
 -1      1040 8.82030E-03
 -1      1041 5.50952E-03
 -1      1042 3.13671E-03
 -1      1043 1.74539E-03
 -1      1044 2.20605E-03
 -1      1045 2.32373E-03
 -1      1046 2.23096E-03
 -1      1047 1.70546E-03
 -1      1048 2.65990E+00
 -1      1049 1.83693E-03
 -1      1050 1.00075E+00
 -1      1051 2.32262E+00
 -1      1052 7.89121E-01
 -1      1053 1.94142E-03
 -1      1054 2.08273E-03
 -1      1055 1.70546E-03
 -1      1056 2.03070E-03
 -1      1057 1.99752E+00
 -1      1058 8.39314E-01
 -1      1059 5.93763E-01
 -1      1060 4.49902E-01
 -1      1061 3.45781E-01
 -1      1062 2.65407E-01
 -1      1063 2.02646E-01
 -1      1064 1.53433E-01
 -1      1065 1.15474E-01
 -1      1066 8.59971E-02
 -1      1067 6.29913E-02
 -1      1068 4.52343E-02
 -1      1069 3.17077E-02
 -1      1070 2.20174E-02
 -1      1071 1.51015E-02
 -1      1072 9.96362E-03
 -1      1073 6.21905E-03
 -1      1074 3.54920E-03
 -1      1075 1.69458E-03
 -1      1076 1.51747E-03
 -1      1077 1.74540E-03
 -1      1078 1.65784E+00
 -1      1079 5.93763E-01
 -1      1080 2.19020E-01
 -1      1081 1.67765E-01
 -1      1082 1.29421E-01
 -1      1083 9.82033E-02
 -1      1084 7.31806E-02
 -1      1085 5.34425E-02
 -1      1086 3.81281E-02
 -1      1087 2.64491E-02
 -1      1088 1.84364E-02
 -1      1089 1.24450E-02
 -1      1090 8.02167E-03
 -1      1091 4.82490E-03
 -1      1092 2.57031E-03
 -1      1093 1.31246E-03
 -1      1094 1.67303E-03
 -1      1095 1.78357E-03
 -1      1096 3.03163E-01
 -1      1097 4.22303E-01
 -1      1098 1.55295E+00
 -1      1099 1.65227E+00
 -1      1100 1.75289E-03
 -1      1101 1.55295E+00
 -1      1102 8.39314E-01
 -1      1103 1.60013E-03
 -1      1104 1.17016E+01
 -1      1105 7.77107E+00
 -1      1106 3.20109E+00
 -1      1107 2.30484E+00
 -1      1108 1.87282E+00
 -1      1109 1.50653E+00
 -1      1110 1.10695E+00
 -1      1111 7.20140E-01
 -1      1112 7.11332E-01
 -1      1113 1.00193E+00
 -1      1114 1.20287E+00
 -1      1115 1.39106E+00
 -1      1116 1.63663E+00
 -1      1117 2.02621E+00
 -1      1118 2.94960E+00
 -1      1119 5.87569E+00
 -1      1120 1.05607E+01
 -1      1121 1.17016E+01
 -1      1122 7.40652E+00
 -1      1123 2.46657E+00
 -1      1124 1.43530E+00
 -1      1125 1.28672E+00
 -1      1126 1.65287E+00
 -1      1127 1.80282E+00
 -1      1128 1.82439E+00
 -1      1129 2.20716E+00
 -1      1130 3.80180E+00
 -1      1131 5.61577E+00
 -1      1132 6.22365E+00
 -1      1133 6.22944E+00
 -1      1134 5.64910E+00
 -1      1135 3.89326E+00
 -1      1136 2.42180E+00
 -1      1137 2.12583E+00
 -1      1138 2.11525E+00
 -1      1139 2.07758E+00
 -1      1140 1.89676E+00
 -1      1141 1.55843E+00
 -1      1142 1.23145E+00
 -1      1143 9.56907E-01
 -1      1144 7.48478E-01
 -1      1145 6.07617E-01
 -1      1146 4.84581E-01
 -1      1147 3.76376E-01
 -1      1148 2.85835E-01
 -1      1149 2.12639E-01
 -1      1150 1.54974E-01
 -1      1151 1.16881E-01
 -1      1152 9.42822E-02
 -1      1153 7.60211E-02
 -1      1154 6.02426E-02
 -1      1155 4.69494E-02
 -1      1156 3.59822E-02
 -1      1157 2.70978E-02
 -1      1158 2.09904E-02
 -1      1159 1.70978E-02
 -1      1160 1.38166E-02
 -1      1161 1.09479E-02
 -1      1162 8.49722E-03
 -1      1163 6.51408E-03
 -1      1164 4.93076E-03
 -1      1165 3.66102E-03
 -1      1166 2.90279E-03
 -1      1167 2.45233E-03
 -1      1168 1.91609E-03
 -1      1169 1.46052E-03
 -1      1170 8.63232E-04
 -1      1171 1.29906E+01
 -1      1172 7.87868E+00
 -1      1173 2.15080E+00
 -1      1174 1.13510E+00
 -1      1175 4.80857E-01
 -1      1176 3.85685E-01
 -1      1177 7.14606E-01
 -1      1178 1.03350E+00
 -1      1179 1.35244E+00
 -1      1180 1.88887E+00
 -1      1181 2.44183E+00
 -1      1182 2.79058E+00
 -1      1183 2.95313E+00
 -1      1184 2.94336E+00
 -1      1185 2.62383E+00
 -1      1186 1.89966E+00
 -1      1187 1.24180E+00
 -1      1188 8.49744E-01
 -1      1189 7.30345E-01
 -1      1190 7.80340E-01
 -1      1191 8.01150E-01
 -1      1192 7.73984E-01
 -1      1193 6.94791E-01
 -1      1194 5.90530E-01
 -1      1195 4.87163E-01
 -1      1196 3.86832E-01
 -1      1197 2.94972E-01
 -1      1198 2.27070E-01
 -1      1199 1.79059E-01
 -1      1200 1.36829E-01
 -1      1201 1.01409E-01
 -1      1202 7.27975E-02
 -1      1203 5.15656E-02
 -1      1204 3.96187E-02
 -1      1205 3.30214E-02
 -1      1206 2.68581E-02
 -1      1207 2.13708E-02
 -1      1208 1.74310E-02
 -1      1209 1.50056E-02
 -1      1210 1.28888E-02
 -1      1211 1.07833E-02
 -1      1212 8.81289E-03
 -1      1213 7.07767E-03
 -1      1214 5.61957E-03
 -1      1215 4.35946E-03
 -1      1216 3.22458E-03
 -1      1217 2.42712E-03
 -1      1218 1.86713E-03
 -1      1219 1.23061E-03
 -1      1220 5.63667E-04
 -1      1221 3.24175E-04
 -1      1222 4.15946E-04
 -1      1223 3.66107E-04
 -1      1224 2.21814E-04
 -1      1225 1.59722E-04
 -1      1226 2.36956E-04
 -1      1227 3.07649E-04
 -1      1228 3.40710E-04
 -1      1229 3.47950E-04
 -1      1230 3.40756E-04
 -1      1231 3.06582E-04
 -1      1232 2.36215E-04
 -1      1233 1.61305E-04
 -1      1234 2.23791E-04
 -1      1235 3.25149E-04
 -1      1236 3.32499E-04
 -1      1237 3.78405E-04
 -1      1238 2.42814E+01
 -1      1239 3.63559E+01
 -1      1240 4.79819E+01
 -1      1241 3.41953E+01
 -1      1242 1.60984E+01
 -1      1243 1.18426E+01
 -1      1244 1.18972E+01
 -1      1245 1.24866E+01
 -1      1246 1.30759E+01
 -1      1247 1.25856E+01
 -1      1248 1.96228E+01
 -1      1249 2.83208E+01
 -1      1250 2.93184E+01
 -1      1251 2.73939E+01
 -1      1252 2.54033E+01
 -1      1253 2.51645E+01
 -1      1254 3.40951E+01
 -1      1255 4.30257E+01
 -1      1256 2.96713E+01
 -1      1257 1.42698E+01
 -1      1258 1.23147E+01
 -1      1259 1.24258E+01
 -1      1260 1.24450E+01
 -1      1261 1.23281E+01
 -1      1262 1.57503E+01
 -1      1263 3.30790E+01
 -1      1264 4.68687E+01
 -1      1265 3.59255E+01
 -1      1266 2.44075E+01
 -1      1267 1.17016E+01
 -1      1268 4.90180E+00
 -1      1269 8.83230E+00
 -1      1270 2.72365E+00
 -1      1271 3.36313E+00
 -1      1272 4.42436E+00
 -1      1273 2.09716E+00
 -1      1274 2.35394E+00
 -1      1275 2.51597E+00
 -1      1276 1.73186E+00
 -1      1277 1.90710E+00
 -1      1278 1.95620E+00
 -1      1279 1.39804E+00
 -1      1280 1.58909E+00
 -1      1281 1.62337E+00
 -1      1282 1.00452E+00
 -1      1283 1.21306E+00
 -1      1284 1.29562E+00
 -1      1285 5.73435E-01
 -1      1286 7.51707E-01
 -1      1287 8.57817E-01
 -1      1288 8.08982E-01
 -1      1289 6.39517E-01
 -1      1290 6.71084E-01
 -1      1291 1.07032E+00
 -1      1292 9.49182E-01
 -1      1293 8.77367E-01
 -1      1294 1.21701E+00
 -1      1295 1.13721E+00
 -1      1296 1.08446E+00
 -1      1297 1.42774E+00
 -1      1298 1.31934E+00
 -1      1299 1.25368E+00
 -1      1300 1.70414E+00
 -1      1301 1.56698E+00
 -1      1302 1.49525E+00
 -1      1303 2.14416E+00
 -1      1304 1.89173E+00
 -1      1305 1.82209E+00
 -1      1306 3.14792E+00
 -1      1307 2.47695E+00
 -1      1308 2.34247E+00
 -1      1309 6.02961E+00
 -1      1310 3.77449E+00
 -1      1311 3.30184E+00
 -1      1312 1.29906E+01
 -1      1313 1.05607E+01
 -1      1314 8.45951E+00
 -1      1315 1.29906E+01
 -1      1316 7.40652E+00
 -1      1317 3.11148E+00
 -1      1318 2.46657E+00
 -1      1319 1.82166E+00
 -1      1320 2.46657E+00
 -1      1321 1.42994E+00
 -1      1322 1.04359E+00
 -1      1323 1.42994E+00
 -1      1324 1.10337E+00
 -1      1325 1.34114E+00
 -1      1326 1.09801E+00
 -1      1327 1.52449E+00
 -1      1328 1.65287E+00
 -1      1329 1.34114E+00
 -1      1330 1.78125E+00
 -1      1331 1.80282E+00
 -1      1332 1.65287E+00
 -1      1333 1.82439E+00
 -1      1334 1.82439E+00
 -1      1335 1.80282E+00
 -1      1336 1.76506E+00
 -1      1337 2.14782E+00
 -1      1338 1.76506E+00
 -1      1339 2.76591E+00
 -1      1340 3.97779E+00
 -1      1341 2.32381E+00
 -1      1342 5.01368E+00
 -1      1343 5.61577E+00
 -1      1344 3.97779E+00
 -1      1345 6.21786E+00
 -1      1346 6.22365E+00
 -1      1347 5.61577E+00
 -1      1348 6.22944E+00
 -1      1349 6.22944E+00
 -1      1350 6.22365E+00
 -1      1351 5.64910E+00
 -1      1352 5.06876E+00
 -1      1353 5.64910E+00
 -1      1354 4.00027E+00
 -1      1355 2.82478E+00
 -1      1356 4.00027E+00
 -1      1357 2.28111E+00
 -1      1358 1.98514E+00
 -1      1359 2.38812E+00
 -1      1360 2.12583E+00
 -1      1361 2.12583E+00
 -1      1362 1.98514E+00
 -1      1363 2.11525E+00
 -1      1364 2.10468E+00
 -1      1365 2.11525E+00
 -1      1366 2.07758E+00
 -1      1367 2.05048E+00
 -1      1368 2.07758E+00
 -1      1369 1.89676E+00
 -1      1370 1.74305E+00
 -1      1371 1.89676E+00
 -1      1372 1.59500E+00
 -1      1373 1.41038E+00
 -1      1374 1.59500E+00
 -1      1375 1.31381E+00
 -1      1376 1.17145E+00
 -1      1377 1.35038E+00
 -1      1378 1.06430E+00
 -1      1379 9.32120E-01
 -1      1380 1.14666E+00
 -1      1381 8.22688E-01
 -1      1382 7.46436E-01
 -1      1383 9.30078E-01
 -1      1384 6.47756E-01
 -1      1385 5.83146E-01
 -1      1386 7.21966E-01
 -1      1387 5.00517E-01
 -1      1388 4.42091E-01
 -1      1389 5.40656E-01
 -1      1390 3.77037E-01
 -1      1391 3.27258E-01
 -1      1392 3.92973E-01
 -1      1393 2.90034E-01
 -1      1394 2.49272E-01
 -1      1395 2.90695E-01
 -1      1396 2.18622E-01
 -1      1397 1.86189E-01
 -1      1398 2.22821E-01
 -1      1399 1.61614E-01
 -1      1400 1.36382E-01
 -1      1401 1.67596E-01
 -1      1402 1.17088E-01
 -1      1403 1.04226E-01
 -1      1404 1.23727E-01
 -1      1405 9.42822E-02
 -1      1406 8.45445E-02
 -1      1407 9.44884E-02
 -1      1408 7.60211E-02
 -1      1409 6.74978E-02
 -1      1410 7.60211E-02
 -1      1411 6.02426E-02
 -1      1412 5.29875E-02
 -1      1413 6.02426E-02
 -1      1414 4.69494E-02
 -1      1415 4.09113E-02
 -1      1416 4.69494E-02
 -1      1417 3.59822E-02
 -1      1418 3.10530E-02
 -1      1419 3.59822E-02
 -1      1420 2.76008E-02
 -1      1421 2.36456E-02
 -1      1422 2.76008E-02
 -1      1423 2.09904E-02
 -1      1424 1.88383E-02
 -1      1425 2.14935E-02
 -1      1426 1.70978E-02
 -1      1427 1.53574E-02
 -1      1428 1.70978E-02
 -1      1429 1.38166E-02
 -1      1430 1.22758E-02
 -1      1431 1.38166E-02
 -1      1432 1.09829E-02
 -1      1433 9.65502E-03
 -1      1434 1.09829E-02
 -1      1435 8.66507E-03
 -1      1436 7.54231E-03
 -1      1437 8.70010E-03
 -1      1438 6.69029E-03
 -1      1439 5.82990E-03
 -1      1440 6.85813E-03
 -1      1441 5.19495E-03
 -1      1442 4.47201E-03
 -1      1443 5.37115E-03
 -1      1444 3.90397E-03
 -1      1445 3.35717E-03
 -1      1446 4.16816E-03
 -1      1447 2.90279E-03
 -1      1448 2.69137E-03
 -1      1449 3.14575E-03
 -1      1450 2.45233E-03
 -1      1451 2.21329E-03
 -1      1452 2.45233E-03
 -1      1453 1.91609E-03
 -1      1454 1.61888E-03
 -1      1455 1.91609E-03
 -1      1456 1.46052E-03
 -1      1457 1.30215E-03
 -1      1458 1.46052E-03
 -1      1459 9.18709E-04
 -1      1460 4.79788E-04
 -1      1461 4.33882E-04
 -1      1462 9.18709E-04
 -1      1463 2.76673E+00
 -1      1464 7.87868E+00
 -1      1465 7.87868E+00
 -1      1466 1.53486E+00
 -1      1467 2.15080E+00
 -1      1468 2.15080E+00
 -1      1469 7.35336E-01
 -1      1470 1.13510E+00
 -1      1471 1.13510E+00
 -1      1472 2.51182E-01
 -1      1473 5.05661E-01
 -1      1474 5.05661E-01
 -1      1475 5.00823E-01
 -1      1476 3.41515E-01
 -1      1477 3.66320E-01
 -1      1478 8.42359E-01
 -1      1479 6.72746E-01
 -1      1480 6.28576E-01
 -1      1481 1.19868E+00
 -1      1482 1.04939E+00
 -1      1483 1.00754E+00
 -1      1484 1.61356E+00
 -1      1485 1.44390E+00
 -1      1486 1.45980E+00
 -1      1487 2.17226E+00
 -1      1488 1.80549E+00
 -1      1489 1.89695E+00
 -1      1490 2.44183E+00
 -1      1491 2.25564E+00
 -1      1492 2.17226E+00
 -1      1493 2.79058E+00
 -1      1494 2.62803E+00
 -1      1495 2.44183E+00
 -1      1496 2.95313E+00
 -1      1497 2.95313E+00
 -1      1498 2.79058E+00
 -1      1499 2.93360E+00
 -1      1500 2.94336E+00
 -1      1501 2.94336E+00
 -1      1502 2.31406E+00
 -1      1503 2.62383E+00
 -1      1504 2.62383E+00
 -1      1505 1.48527E+00
 -1      1506 1.89966E+00
 -1      1507 1.89966E+00
 -1      1508 9.98328E-01
 -1      1509 1.24180E+00
 -1      1510 1.24180E+00
 -1      1511 6.70130E-01
 -1      1512 8.18714E-01
 -1      1513 8.18714E-01
 -1      1514 7.30345E-01
 -1      1515 7.01160E-01
 -1      1516 6.70130E-01
 -1      1517 7.80340E-01
 -1      1518 7.59531E-01
 -1      1519 7.30345E-01
 -1      1520 8.01150E-01
 -1      1521 8.01150E-01
 -1      1522 7.80340E-01
 -1      1523 7.46818E-01
 -1      1524 7.73984E-01
 -1      1525 7.73984E-01
 -1      1526 6.42764E-01
 -1      1527 6.94791E-01
 -1      1528 6.94791E-01
 -1      1529 5.38295E-01
 -1      1530 5.90530E-01
 -1      1531 5.90530E-01
 -1      1532 4.40888E-01
 -1      1533 4.92020E-01
 -1      1534 4.92020E-01
 -1      1535 3.47070E-01
 -1      1536 3.96269E-01
 -1      1537 4.01125E-01
 -1      1538 2.62965E-01
 -1      1539 3.05626E-01
 -1      1540 3.15062E-01
 -1      1541 2.01827E-01
 -1      1542 2.27070E-01
 -1      1543 2.37723E-01
 -1      1544 1.56290E-01
 -1      1545 1.79059E-01
 -1      1546 1.79059E-01
 -1      1547 1.17369E-01
 -1      1548 1.36829E-01
 -1      1549 1.36829E-01
 -1      1550 8.54484E-02
 -1      1551 1.01409E-01
 -1      1552 1.01409E-01
 -1      1553 6.07600E-02
 -1      1554 7.34109E-02
 -1      1555 7.34109E-02
 -1      1556 4.38508E-02
 -1      1557 5.24318E-02
 -1      1558 5.30453E-02
 -1      1559 3.69968E-02
 -1      1560 4.03627E-02
 -1      1561 4.12290E-02
 -1      1562 3.04225E-02
 -1      1563 3.36540E-02
 -1      1564 3.43979E-02
 -1      1565 2.44539E-02
 -1      1566 2.73857E-02
 -1      1567 2.80183E-02
 -1      1568 1.92442E-02
 -1      1569 2.17995E-02
 -1      1570 2.23272E-02
 -1      1571 1.60466E-02
 -1      1572 1.74310E-02
 -1      1573 1.78597E-02
 -1      1574 1.39646E-02
 -1      1575 1.50056E-02
 -1      1576 1.50056E-02
 -1      1577 1.18130E-02
 -1      1578 1.28888E-02
 -1      1579 1.28888E-02
 -1      1580 9.75354E-03
 -1      1581 1.07833E-02
 -1      1582 1.07833E-02
 -1      1583 7.87223E-03
 -1      1584 8.81289E-03
 -1      1585 8.81289E-03
 -1      1586 6.28310E-03
 -1      1587 7.07767E-03
 -1      1588 7.07767E-03
 -1      1589 4.95604E-03
 -1      1590 5.61957E-03
 -1      1591 5.61957E-03
 -1      1592 3.76288E-03
 -1      1593 4.35946E-03
 -1      1594 4.35946E-03
 -1      1595 2.73360E-03
 -1      1596 3.27190E-03
 -1      1597 3.27190E-03
 -1      1598 2.16797E-03
 -1      1599 2.42712E-03
 -1      1600 2.47444E-03
 -1      1601 1.56629E-03
 -1      1602 1.86713E-03
 -1      1603 1.86713E-03
 -1      1604 9.00042E-04
 -1      1605 1.23572E-03
 -1      1606 1.23572E-03
 -1      1607 6.55437E-04
 -1      1608 5.89999E-04
 -1      1609 5.89999E-04
 -1      1610 5.40160E-04
 -1      1611 5.89999E-04
 -1      1612 7.64052E-04
 -1      1613 2.78833E-04
 -1      1614 3.73287E-04
 -1      1615 5.97179E-04
 -1      1616 2.51448E-04
 -1      1617 2.19087E-04
 -1      1618 3.70560E-04
 -1      1619 3.85954E-04
 -1      1620 3.41081E-04
 -1      1621 4.00447E-04
 -1      1622 4.67000E-04
 -1      1623 4.41180E-04
 -1      1624 5.45306E-04
 -1      1625 4.95918E-04
 -1      1626 4.88677E-04
 -1      1627 6.22208E-04
 -1      1628 4.95932E-04
 -1      1629 4.95932E-04
 -1      1630 6.43899E-04
 -1      1631 4.88738E-04
 -1      1632 4.95932E-04
 -1      1633 6.43914E-04
 -1      1634 4.39220E-04
 -1      1635 4.66199E-04
 -1      1636 6.21376E-04
 -1      1637 3.42656E-04
 -1      1638 3.86044E-04
 -1      1639 5.45661E-04
 -1      1640 2.23011E-04
 -1      1641 2.54533E-04
 -1      1642 4.04362E-04
 -1      1643 3.74909E-04
 -1      1644 2.80901E-04
 -1      1645 3.74129E-04
 -1      1646 6.41770E-04
 -1      1647 6.34419E-04
 -1      1648 6.91530E-04
 -1      1649 6.41770E-04
 -1      1650 6.41770E-04
 -1      1651 9.51041E-04
 -1      1652 7.43153E-04
 -1      1653 2.65926E+01
 -1      1654 2.61441E+01
 -1      1655 3.80889E+01
 -1      1656 2.64629E+01
 -1      1657 4.79819E+01
 -1      1658 4.79819E+01
 -1      1659 2.19052E+01
 -1      1660 3.56918E+01
 -1      1661 1.11970E+01
 -1      1662 1.55074E+01
 -1      1663 1.18426E+01
 -1      1664 1.17879E+01
 -1      1665 1.18972E+01
 -1      1666 1.18972E+01
 -1      1667 1.24652E+01
 -1      1668 1.18759E+01
 -1      1669 1.30759E+01
 -1      1670 1.30759E+01
 -1      1671 1.19901E+01
 -1      1672 1.24805E+01
 -1      1673 1.96228E+01
 -1      1674 1.20952E+01
 -1      1675 2.94911E+01
 -1      1676 2.83208E+01
 -1      1677 3.12442E+01
 -1      1678 3.14169E+01
 -1      1679 2.94924E+01
 -1      1680 3.12442E+01
 -1      1681 2.87002E+01
 -1      1682 2.89389E+01
 -1      1683 2.87002E+01
 -1      1684 2.87002E+01
 -1      1685 4.04361E+01
 -1      1686 3.15055E+01
 -1      1687 4.30257E+01
 -1      1688 4.30257E+01
 -1      1689 1.64362E+01
 -1      1690 2.97906E+01
 -1      1691 1.16739E+01
 -1      1692 1.37210E+01
 -1      1693 1.23147E+01
 -1      1694 1.22227E+01
 -1      1695 1.24258E+01
 -1      1696 1.24066E+01
 -1      1697 1.24450E+01
 -1      1698 1.24450E+01
 -1      1699 1.22112E+01
 -1      1700 1.23281E+01
 -1      1701 1.52424E+01
 -1      1702 1.17034E+01
 -1      1703 3.32188E+01
 -1      1704 1.94291E+01
 -1      1705 4.68687E+01
 -1      1706 4.68687E+01
 -1      1707 2.69471E+01
 -1      1708 3.78903E+01
 -1      1709 2.61441E+01
 -1      1710 2.67188E+01
 -1      1711 3.56918E+01
 -1      1712 2.84553E+01
 -1      1713 6.60550E-04
 -1      1714 8.34603E-04
 -1      1715 2.83256E+01
 -1      1716 3.80889E+01
 -1      1717 1.70039E+01
 -1      1718 1.11970E+01
 -1      1719 1.18426E+01
 -1      1720 1.18759E+01
 -1      1721 1.24652E+01
 -1      1722 1.24805E+01
 -1      1723 1.19901E+01
 -1      1724 2.07932E+01
 -1      1725 3.14169E+01
 -1      1726 3.33426E+01
 -1      1727 3.27892E+01
 -1      1728 3.22358E+01
 -1      1729 3.50411E+01
 -1      1730 4.04361E+01
 -1      1731 2.97906E+01
 -1      1732 1.38403E+01
 -1      1733 1.16739E+01
 -1      1734 1.23147E+01
 -1      1735 1.24258E+01
 -1      1736 1.23281E+01
 -1      1737 1.17034E+01
 -1      1738 1.53822E+01
 -1      1739 3.32188E+01
 -1      1740 3.78903E+01
 -1      1741 2.86836E+01
 -1      1742 8.83230E+00
 -1      1743 2.05444E+00
 -1      1744 2.42416E+00
 -1      1745 2.86814E+00
 -1      1746 4.40681E+00
 -1      1747 2.40661E+00
 -1      1748 1.56551E+00
 -1      1749 1.70828E+00
 -1      1750 1.24807E+00
 -1      1751 1.43306E+00
 -1      1752 1.51796E+00
 -1      1753 7.49604E-01
 -1      1754 1.00242E+00
 -1      1755 1.13986E+00
 -1      1756 6.84461E-01
 -1      1757 6.18379E-01
 -1      1758 7.62981E-01
 -1      1759 1.00491E+00
 -1      1760 8.64709E-01
 -1      1761 8.12004E-01
 -1      1762 1.14170E+00
 -1      1763 1.07480E+00
 -1      1764 1.06214E+00
 -1      1765 1.27100E+00
 -1      1766 1.16867E+00
 -1      1767 1.15901E+00
 -1      1768 1.45040E+00
 -1      1769 1.31116E+00
 -1      1770 1.22615E+00
 -1      1771 1.70115E+00
 -1      1772 1.51356E+00
 -1      1773 1.32947E+00
 -1      1774 2.14794E+00
 -1      1775 1.81515E+00
 -1      1776 1.50662E+00
 -1      1777 2.82596E+00
 -1      1778 2.19939E+00
 -1      1779 1.67206E+00
 -1      1780 7.38187E+00
 -1      1781 2.85076E+00
 -1      1782 1.74831E+00
 -1      1783 2.26992E+00
 -1      1784 4.53725E+00
 -1      1785 1.44214E+00
 -1      1786 2.05808E+00
 -1      1787 1.56127E+00
 -1      1788 2.98103E+00
 -1      1789 1.73506E+00
 -1      1790 1.34335E+00
 -1      1791 1.22590E+00
 -1      1792 1.28568E+00
 -1      1793 1.53102E+00
 -1      1794 1.33336E+00
 -1      1795 1.51671E+00
 -1      1796 1.46125E+00
 -1      1797 1.56016E+00
 -1      1798 1.68854E+00
 -1      1799 1.55238E+00
 -1      1800 1.67127E+00
 -1      1801 1.69284E+00
 -1      1802 1.57856E+00
 -1      1803 1.83572E+00
 -1      1804 1.77638E+00
 -1      1805 1.70416E+00
 -1      1806 1.86475E+00
 -1      1807 2.48283E+00
 -1      1808 1.93540E+00
 -1      1809 2.80474E+00
 -1      1810 3.84063E+00
 -1      1811 2.34567E+00
 -1      1812 4.28690E+00
 -1      1813 4.88899E+00
 -1      1814 3.11385E+00
 -1      1815 5.28207E+00
 -1      1816 5.28786E+00
 -1      1817 3.95320E+00
 -1      1818 4.86848E+00
 -1      1819 4.28814E+00
 -1      1820 3.92690E+00
 -1      1821 3.86799E+00
 -1      1822 2.79950E+00
 -1      1823 3.08737E+00
 -1      1824 2.45021E+00
 -1      1825 1.90655E+00
 -1      1826 2.31793E+00
 -1      1827 1.84970E+00
 -1      1828 1.99040E+00
 -1      1829 1.91180E+00
 -1      1830 1.90526E+00
 -1      1831 1.89468E+00
 -1      1832 1.76982E+00
 -1      1833 1.90974E+00
 -1      1834 1.88264E+00
 -1      1835 1.69975E+00
 -1      1836 1.83480E+00
 -1      1837 1.68109E+00
 -1      1838 1.66697E+00
 -1      1839 1.60126E+00
 -1      1840 1.45321E+00
 -1      1841 1.53930E+00
 -1      1842 1.38651E+00
 -1      1843 1.28994E+00
 -1      1844 1.39278E+00
 -1      1845 1.20068E+00
 -1      1846 1.09353E+00
 -1      1847 1.23681E+00
 -1      1848 9.91532E-01
 -1      1849 8.82100E-01
 -1      1850 1.04555E+00
 -1      1851 7.83552E-01
 -1      1852 6.84871E-01
 -1      1853 8.45006E-01
 -1      1854 5.97977E-01
 -1      1855 5.15348E-01
 -1      1856 6.59563E-01
 -1      1857 4.43007E-01
 -1      1858 3.77954E-01
 -1      1859 5.00328E-01
 -1      1860 3.20067E-01
 -1      1861 2.82842E-01
 -1      1862 3.70101E-01
 -1      1863 2.37868E-01
 -1      1864 2.07218E-01
 -1      1865 2.67239E-01
 -1      1866 1.73101E-01
 -1      1867 1.48526E-01
 -1      1868 1.88148E-01
 -1      1869 1.23727E-01
 -1      1870 1.04432E-01
 -1      1871 1.29231E-01
 -1      1872 8.95541E-02
 -1      1873 7.96102E-02
 -1      1874 8.95541E-02
 -1      1875 6.93293E-02
 -1      1876 6.08059E-02
 -1      1877 6.43950E-02
 -1      1878 5.45040E-02
 -1      1879 4.72488E-02
 -1      1880 4.78121E-02
 -1      1881 4.35927E-02
 -1      1882 3.75546E-02
 -1      1883 3.78540E-02
 -1      1884 3.42660E-02
 -1      1885 2.93368E-02
 -1      1886 3.09093E-02
 -1      1887 2.64746E-02
 -1      1888 2.30225E-02
 -1      1889 2.47585E-02
 -1      1890 2.05947E-02
 -1      1891 1.79395E-02
 -1      1892 1.94685E-02
 -1      1893 1.60841E-02
 -1      1894 1.43436E-02
 -1      1895 1.51853E-02
 -1      1896 1.32373E-02
 -1      1897 1.16965E-02
 -1      1898 1.22235E-02
 -1      1899 1.07597E-02
 -1      1900 9.46681E-03
 -1      1901 1.01803E-02
 -1      1902 8.59133E-03
 -1      1903 7.60139E-03
 -1      1904 8.36809E-03
 -1      1905 6.85813E-03
 -1      1906 6.00611E-03
 -1      1907 6.74936E-03
 -1      1908 5.38203E-03
 -1      1909 4.74708E-03
 -1      1910 5.38203E-03
 -1      1911 4.18952E-03
 -1      1912 3.62148E-03
 -1      1913 4.20040E-03
 -1      1914 3.20461E-03
 -1      1915 2.75023E-03
 -1      1916 3.22596E-03
 -1      1917 2.38119E-03
 -1      1918 2.14215E-03
 -1      1919 2.44005E-03
 -1      1920 1.87395E-03
 -1      1921 1.57674E-03
 -1      1922 1.80281E-03
 -1      1923 1.36419E-03
 -1      1924 1.20582E-03
 -1      1925 1.32205E-03
 -1      1926 1.12660E-03
 -1      1927 2.75987E-01
 -1      1928 5.05661E-01
 -1      1929 3.72653E-01
 -1      1930 2.82320E-01
 -1      1931 2.82320E-01
 -1      1932 6.77403E-01
 -1      1933 5.05479E-01
 -1      1934 4.21480E-01
 -1      1935 1.07729E+00
 -1      1936 8.70251E-01
 -1      1937 7.47154E-01
 -1      1938 1.53297E+00
 -1      1939 1.28774E+00
 -1      1940 1.15046E+00
 -1      1941 1.89695E+00
 -1      1942 1.70502E+00
 -1      1943 1.53297E+00
 -1      1944 2.17226E+00
 -1      1945 2.08888E+00
 -1      1946 1.89695E+00
 -1      1947 2.38979E+00
 -1      1948 2.20359E+00
 -1      1949 2.12021E+00
 -1      1950 2.55264E+00
 -1      1951 2.39009E+00
 -1      1952 2.15185E+00
 -1      1953 2.51999E+00
 -1      1954 2.52975E+00
 -1      1955 2.12927E+00
 -1      1956 2.01607E+00
 -1      1957 2.32584E+00
 -1      1958 1.91223E+00
 -1      1959 1.38580E+00
 -1      1960 1.80020E+00
 -1      1961 1.50221E+00
 -1      1962 8.99836E-01
 -1      1963 1.14331E+00
 -1      1964 1.04384E+00
 -1      1965 5.57816E-01
 -1      1966 7.37431E-01
 -1      1967 6.38939E-01
 -1      1968 6.04258E-01
 -1      1969 5.73228E-01
 -1      1970 4.91944E-01
 -1      1971 6.68229E-01
 -1      1972 6.39044E-01
 -1      1973 5.42142E-01
 -1      1974 7.14808E-01
 -1      1975 6.93998E-01
 -1      1976 6.02697E-01
 -1      1977 6.72375E-01
 -1      1978 6.99542E-01
 -1      1979 6.13199E-01
 -1      1980 5.82624E-01
 -1      1981 6.34651E-01
 -1      1982 5.60208E-01
 -1      1983 4.98536E-01
 -1      1984 5.50771E-01
 -1      1985 4.90631E-01
 -1      1986 4.25006E-01
 -1      1987 4.71281E-01
 -1      1988 4.31522E-01
 -1      1989 3.47301E-01
 -1      1990 3.91920E-01
 -1      1991 3.71181E-01
 -1      1992 2.72148E-01
 -1      1993 3.13592E-01
 -1      1994 3.04387E-01
 -1      1995 2.05109E-01
 -1      1996 2.41005E-01
 -1      1997 2.39534E-01
 -1      1998 1.55394E-01
 -1      1999 1.78163E-01
 -1      2000 1.81444E-01
 -1      2001 1.15462E-01
 -1      2002 1.34923E-01
 -1      2003 1.34027E-01
 -1      2004 8.50831E-02
 -1      2005 1.01043E-01
 -1      2006 9.91367E-02
 -1      2007 6.13735E-02
 -1      2008 7.34109E-02
 -1      2009 7.30457E-02
 -1      2010 4.49191E-02
 -1      2011 5.32473E-02
 -1      2012 5.32473E-02
 -1      2013 3.77408E-02
 -1      2014 4.12290E-02
 -1      2015 4.14309E-02
 -1      2016 3.10551E-02
 -1      2017 3.43979E-02
 -1      2018 3.43979E-02
 -1      2019 2.49816E-02
 -1      2020 2.80183E-02
 -1      2021 2.80183E-02
 -1      2022 1.96728E-02
 -1      2023 2.23272E-02
 -1      2024 2.23272E-02
 -1      2025 1.56075E-02
 -1      2026 1.74206E-02
 -1      2027 1.74206E-02
 -1      2028 1.31520E-02
 -1      2029 1.41930E-02
 -1      2030 1.37539E-02
 -1      2031 1.11104E-02
 -1      2032 1.21862E-02
 -1      2033 1.13736E-02
 -1      2034 9.14987E-03
 -1      2035 1.01796E-02
 -1      2036 9.47702E-03
 -1      2037 7.35357E-03
 -1      2038 8.29422E-03
 -1      2039 7.69055E-03
 -1      2040 5.87305E-03
 -1      2041 6.66761E-03
 -1      2042 6.14895E-03
 -1      2043 4.60525E-03
 -1      2044 5.26878E-03
 -1      2045 4.85872E-03
 -1      2046 3.52745E-03
 -1      2047 4.12403E-03
 -1      2048 3.77324E-03
 -1      2049 2.63136E-03
 -1      2050 3.12234E-03
 -1      2051 2.88691E-03
 -1      2052 2.00062E-03
 -1      2053 2.30709E-03
 -1      2054 2.15753E-03
 -1      2055 1.48506E-03
 -1      2056 1.78590E-03
 -1      2057 1.61855E-03
 -1      2058 1.04763E-03
 -1      2059 1.37820E-03
 -1      2060 1.29697E-03
 -1      2061 9.77080E-04
 -1      2062 4.14543E-04
 -1      2063 4.74290E-04
 -1      2064 8.79457E-04
 -1      2065 1.04633E-03
 -1      2066 9.23441E-04
 -1      2067 9.77080E-04
 -1      2068 5.70780E-04
 -1      2069 4.81146E-04
 -1      2070 5.84876E-04
 -1      2071 7.05515E-04
 -1      2072 6.50289E-04
 -1      2073 7.30989E-04
 -1      2074 7.61465E-04
 -1      2075 7.39789E-04
 -1      2076 8.44772E-04
 -1      2077 7.61480E-04
 -1      2078 7.61465E-04
 -1      2079 8.79046E-04
 -1      2080 7.60800E-04
 -1      2081 7.60800E-04
 -1      2082 8.78366E-04
 -1      2083 7.38261E-04
 -1      2084 7.60800E-04
 -1      2085 8.77686E-04
 -1      2086 6.53273E-04
 -1      2087 7.06450E-04
 -1      2088 8.45874E-04
 -1      2089 4.87689E-04
 -1      2090 5.75811E-04
 -1      2091 7.36600E-04
 -1      2092 4.68919E-04
 -1      2093 4.11029E-04
 -1      2094 5.82478E-04
 -1      2095 8.54092E-04
 -1      2096 5.94581E-04
 -1      2097 6.31480E-04
 -1      2098 6.52901E-01
 -1      2099 1.05266E+00
 -1      2100 9.59945E-01
 -1      2101 4.23226E-01
 -1      2102 3.80889E+01
 -1      2103 2.81959E+01
 -1      2104 9.90026E+00
 -1      2105 1.62980E+01
 -1      2106 3.05580E+01
 -1      2107 3.05580E+01
 -1      2108 2.01220E+01
 -1      2109 3.24121E+01
 -1      2110 2.25191E+01
 -1      2111 1.79646E+00
 -1      2112 1.98652E+00
 -1      2113 1.89470E+00
 -1      2114 1.73859E+00
 -1      2115 9.61790E+00
 -1      2116 9.02697E+00
 -1      2117 1.11663E+01
 -1      2118 1.11116E+01
 -1      2119 1.13324E+01
 -1      2120 1.13538E+01
 -1      2121 1.20133E+01
 -1      2122 1.14025E+01
 -1      2123 1.04660E+01
 -1      2124 1.10615E+01
 -1      2125 9.38860E+00
 -1      2126 9.28350E+00
 -1      2127 7.86453E+00
 -1      2128 2.03191E+01
 -1      2129 1.16211E+01
 -1      2130 2.65059E+01
 -1      2131 2.45801E+01
 -1      2132 3.33426E+01
 -1      2133 3.33426E+01
 -1      2134 2.65059E+01
 -1      2135 3.61139E+01
 -1      2136 3.66673E+01
 -1      2137 3.61139E+01
 -1      2138 3.61139E+01
 -1      2139 3.99920E+01
 -1      2140 3.33581E+01
 -1      2141 3.05528E+01
 -1      2142 3.40545E+01
 -1      2143 3.14648E+01
 -1      2144 1.54386E+01
 -1      2145 2.86737E+01
 -1      2146 9.73300E+00
 -1      2147 1.24482E+01
 -1      2148 1.04634E+01
 -1      2149 9.91462E+00
 -1      2150 1.13253E+01
 -1      2151 1.12334E+01
 -1      2152 1.12573E+01
 -1      2153 1.12381E+01
 -1      2154 1.13733E+01
 -1      2155 1.14902E+01
 -1      2156 9.50473E+00
 -1      2157 1.00125E+01
 -1      2158 9.17460E+00
 -1      2159 1.39807E+01
 -1      2160 9.79410E+00
 -1      2161 3.15054E+01
 -1      2162 1.78554E+01
 -1      2163 2.89119E+01
 -1      2164 3.78903E+01
 -1      2165 3.05580E+01
 -1      2166 3.07862E+01
 -1      2167 2.95697E+01
 -1      2168 2.96994E+01
 -1      2169 1.03027E-03
 -1      2170 1.62910E+01
 -1      2171 1.30113E+01
 -1      2172 9.18737E+00
 -1      2173 2.33612E+00
 -1      2174 1.08805E+01
 -1      2175 8.32114E+00
 -1      2176 2.24953E+00
 -1      2177 1.25936E-03
 -1      2178 3.18021E+01
 -1      2179 1.03027E-03
 -1      2180 2.95697E+01
 -1      2181 3.26606E+01
 -1      2182 3.07862E+01
 -1      2183 2.25269E+01
 -1      2184 8.18627E+00
 -1      2185 6.49539E+00
 -1      2186 6.78476E+00
 -1      2187 1.03024E+01
 -1      2188 1.01568E+01
 -1      2189 9.47408E+00
 -1      2190 8.52247E+00
 -1      2191 1.13313E+01
 -1      2192 1.97025E+01
 -1      2193 3.44309E+01
 -1      2194 3.66673E+01
 -1      2195 8.91451E+00
 -1      2196 9.99883E+00
 -1      2197 8.94160E+00
 -1      2198 1.06229E+01
 -1      2199 1.54081E+01
 -1      2200 2.69765E+01
 -1      2201 1.22673E+01
 -1      2202 9.33318E-04
 -1      2203 1.10322E+00
 -1      2204 1.34887E+00
 -1      2205 1.52989E+00
 -1      2206 1.66234E+00
 -1      2207 1.49325E+00
 -1      2208 1.02443E+00
 -1      2209 8.44177E-01
 -1      2210 1.18572E+00
 -1      2211 1.11583E+00
 -1      2212 1.14801E+00
 -1      2213 1.21270E+00
 -1      2214 1.18572E+00
 -1      2215 1.23941E+00
 -1      2216 1.24590E+00
 -1      2217 1.20574E+00
 -1      2218 1.23245E+00
 -1      2219 1.27275E+00
 -1      2220 1.20959E+00
 -1      2221 1.18919E+00
 -1      2222 1.42673E+00
 -1      2223 1.31274E+00
 -1      2224 1.19286E+00
 -1      2225 1.40390E+00
 -1      2226 1.35246E+00
 -1      2227 1.15858E+00
 -1      2228 1.43042E+00
 -1      2229 1.40562E+00
 -1      2230 1.08602E+00
 -1      2231 1.21858E+00
 -1      2232 1.65341E+00
 -1      2233 1.53596E+00
 -1      2234 9.49542E+00
 -1      2235 9.42532E+00
 -1      2236 1.56600E+00
 -1      2237 1.61368E+00
 -1      2238 1.68839E+00
 -1      2239 1.75190E+00
 -1      2240 1.79535E+00
 -1      2241 1.85665E+00
 -1      2242 1.98060E+00
 -1      2243 1.96332E+00
 -1      2244 2.18011E+00
 -1      2245 2.13286E+00
 -1      2246 2.27574E+00
 -1      2247 2.53489E+00
 -1      2248 3.00442E+00
 -1      2249 3.09279E+00
 -1      2250 3.43312E+00
 -1      2251 2.39489E+00
 -1      2252 2.71679E+00
 -1      2253 3.46391E+00
 -1      2254 3.11385E+00
 -1      2255 3.56012E+00
 -1      2256 3.16306E+00
 -1      2257 4.69661E+00
 -1      2258 5.08969E+00
 -1      2259 4.69661E+00
 -1      2260 5.38743E+00
 -1      2261 4.96804E+00
 -1      2262 6.13083E+00
 -1      2263 3.50751E+00
 -1      2264 3.08737E+00
 -1      2265 4.96804E+00
 -1      2266 2.57585E+00
 -1      2267 2.22656E+00
 -1      2268 2.99600E+00
 -1      2269 2.60373E+00
 -1      2270 2.54689E+00
 -1      2271 2.86165E+00
 -1      2272 2.14699E+00
 -1      2273 2.06186E+00
 -1      2274 2.83892E+00
 -1      2275 1.89008E+00
 -1      2276 1.90514E+00
 -1      2277 2.26725E+00
 -1      2278 1.71571E+00
 -1      2279 1.66787E+00
 -1      2280 1.90604E+00
 -1      2281 1.60541E+00
 -1      2282 1.52558E+00
 -1      2283 1.65415E+00
 -1      2284 1.43319E+00
 -1      2285 1.36649E+00
 -1      2286 1.49930E+00
 -1      2287 1.25717E+00
 -1      2288 1.16790E+00
 -1      2289 1.29758E+00
 -1      2290 1.05505E+00
 -1      2291 9.53051E-01
 -1      2292 1.07540E+00
 -1      2293 8.51027E-01
 -1      2294 7.52478E-01
 -1      2295 8.60523E-01
 -1      2296 6.67403E-01
 -1      2297 5.80508E-01
 -1      2298 6.73424E-01
 -1      2299 5.09900E-01
 -1      2300 4.37560E-01
 -1      2301 5.17740E-01
 -1      2302 3.80590E-01
 -1      2303 3.22704E-01
 -1      2304 3.90162E-01
 -1      2305 2.77784E-01
 -1      2306 2.32810E-01
 -1      2307 2.88274E-01
 -1      2308 1.98488E-01
 -1      2309 1.64371E-01
 -1      2310 2.09033E-01
 -1      2311 1.39219E-01
 -1      2312 1.14420E-01
 -1      2313 1.49560E-01
 -1      2314 9.54454E-02
 -1      2315 8.05673E-02
 -1      2316 1.05434E-01
 -1      2317 6.64869E-02
 -1      2318 5.62060E-02
 -1      2319 7.23782E-02
 -1      2320 4.64517E-02
 -1      2321 4.01498E-02
 -1      2322 4.85436E-02
 -1      2323 3.43220E-02
 -1      2324 3.06659E-02
 -1      2325 3.29616E-02
 -1      2326 2.70417E-02
 -1      2327 2.37531E-02
 -1      2328 2.35097E-02
 -1      2329 2.25240E-02
 -1      2330 1.96618E-02
 -1      2331 1.86564E-02
 -1      2332 1.83560E-02
 -1      2333 1.59282E-02
 -1      2334 1.61215E-02
 -1      2335 1.46573E-02
 -1      2336 1.28019E-02
 -1      2337 1.35449E-02
 -1      2338 1.16297E-02
 -1      2339 1.05233E-02
 -1      2340 1.11017E-02
 -1      2341 9.53226E-03
 -1      2342 8.59547E-03
 -1      2343 8.93842E-03
 -1      2344 8.02279E-03
 -1      2345 7.14732E-03
 -1      2346 7.37470E-03
 -1      2347 6.58769E-03
 -1      2348 5.84443E-03
 -1      2349 6.24239E-03
 -1      2350 5.29847E-03
 -1      2351 4.67439E-03
 -1      2352 5.13679E-03
 -1      2353 4.21140E-03
 -1      2354 3.65384E-03
 -1      2355 4.12784E-03
 -1      2356 3.23959E-03
 -1      2357 2.82272E-03
 -1      2358 3.25059E-03
 -1      2359 2.45374E-03
 -1      2360 2.08470E-03
 -1      2361 2.46737E-03
 -1      2362 1.78313E-03
 -1      2363 1.51493E-03
 -1      2364 1.79682E-03
 -1      2365 1.34259E-03
 -1      2366 1.13004E-03
 -1      2367 9.53860E-04
 -1      2368 1.32292E-03
 -1      2369 8.62896E-01
 -1      2370 6.70047E-01
 -1      2371 5.99027E-01
 -1      2372 4.66201E-01
 -1      2373 7.14768E-01
 -1      2374 4.31176E-01
 -1      2375 4.24843E-01
 -1      2376 6.08723E-01
 -1      2377 1.23224E+00
 -1      2378 1.02178E+00
 -1      2379 9.44675E-01
 -1      2380 1.55044E+00
 -1      2381 1.37839E+00
 -1      2382 1.24971E+00
 -1      2383 1.80621E+00
 -1      2384 1.61428E+00
 -1      2385 1.45970E+00
 -1      2386 1.93905E+00
 -1      2387 1.90772E+00
 -1      2388 1.62505E+00
 -1      2389 1.86944E+00
 -1      2390 1.86913E+00
 -1      2391 1.65663E+00
 -1      2392 1.98416E+00
 -1      2393 2.00705E+00
 -1      2394 1.72433E+00
 -1      2395 1.61226E+00
 -1      2396 1.80641E+00
 -1      2397 1.68420E+00
 -1      2398 1.31009E+00
 -1      2399 1.52596E+00
 -1      2400 1.42015E+00
 -1      2401 9.33702E-01
 -1      2402 1.17620E+00
 -1      2403 1.19995E+00
 -1      2404 6.17269E-01
 -1      2405 7.79675E-01
 -1      2406 9.12033E-01
 -1      2407 6.00579E-01
 -1      2408 5.85167E-01
 -1      2409 7.25904E-01
 -1      2410 5.75344E-01
 -1      2411 5.40558E-01
 -1      2412 6.33781E-01
 -1      2413 6.03841E-01
 -1      2414 5.78072E-01
 -1      2415 5.76488E-01
 -1      2416 5.84753E-01
 -1      2417 6.00019E-01
 -1      2418 5.75394E-01
 -1      2419 5.24680E-01
 -1      2420 5.62404E-01
 -1      2421 5.49224E-01
 -1      2422 4.71379E-01
 -1      2423 5.03233E-01
 -1      2424 5.05428E-01
 -1      2425 4.17517E-01
 -1      2426 4.44772E-01
 -1      2427 4.57374E-01
 -1      2428 3.54461E-01
 -1      2429 3.87547E-01
 -1      2430 4.00797E-01
 -1      2431 2.88519E-01
 -1      2432 3.22228E-01
 -1      2433 3.38594E-01
 -1      2434 2.26354E-01
 -1      2435 2.57498E-01
 -1      2436 2.75340E-01
 -1      2437 1.71590E-01
 -1      2438 1.98537E-01
 -1      2439 2.16500E-01
 -1      2440 1.27409E-01
 -1      2441 1.47880E-01
 -1      2442 1.64973E-01
 -1      2443 9.35711E-02
 -1      2444 1.07990E-01
 -1      2445 1.21844E-01
 -1      2446 6.65200E-02
 -1      2447 7.81922E-02
 -1      2448 8.70455E-02
 -1      2449 4.65786E-02
 -1      2450 5.47048E-02
 -1      2451 5.98513E-02
 -1      2452 3.50639E-02
 -1      2453 3.87540E-02
 -1      2454 4.02116E-02
 -1      2455 2.67941E-02
 -1      2456 3.01369E-02
 -1      2457 2.74601E-02
 -1      2458 2.19419E-02
 -1      2459 2.49786E-02
 -1      2460 2.07176E-02
 -1      2461 1.79882E-02
 -1      2462 2.06426E-02
 -1      2463 1.76029E-02
 -1      2464 1.44176E-02
 -1      2465 1.66699E-02
 -1      2466 1.49853E-02
 -1      2467 1.17540E-02
 -1      2468 1.31684E-02
 -1      2469 1.24177E-02
 -1      2470 9.65691E-03
 -1      2471 1.06227E-02
 -1      2472 1.00372E-02
 -1      2473 8.02614E-03
 -1      2474 8.95695E-03
 -1      2475 8.20603E-03
 -1      2476 6.60732E-03
 -1      2477 7.46297E-03
 -1      2478 6.94290E-03
 -1      2479 5.35236E-03
 -1      2480 6.03831E-03
 -1      2481 5.81073E-03
 -1      2482 4.22281E-03
 -1      2483 4.82707E-03
 -1      2484 4.71644E-03
 -1      2485 3.30129E-03
 -1      2486 3.78250E-03
 -1      2487 3.75085E-03
 -1      2488 2.49298E-03
 -1      2489 2.89809E-03
 -1      2490 2.90736E-03
 -1      2491 1.84242E-03
 -1      2492 2.16669E-03
 -1      2493 2.17787E-03
 -1      2494 1.38984E-03
 -1      2495 1.60456E-03
 -1      2496 1.61372E-03
 -1      2497 1.36622E-03
 -1      2498 9.14870E-04
 -1      2499 8.35360E-04
 -1      2500 7.30914E-04
 -1      2501 6.64311E-04
 -1      2502 9.14796E-04
 -1      2503 7.48941E-04
 -1      2504 1.15411E-03
 -1      2505 8.94979E-04
 -1      2506 3.09436E+01
 -1      2507 3.18021E+01
 -1      2508 9.93590E-04
 -1      2509 9.59316E-04
 -1      2510 1.06369E-03
 -1      2511 9.93590E-04
 -1      2512 9.93590E-04
 -1      2513 1.10813E-03
 -1      2514 9.90181E-04
 -1      2515 9.90861E-04
 -1      2516 1.10540E-03
 -1      2517 9.93895E-04
 -1      2518 9.93895E-04
 -1      2519 1.10639E-03
 -1      2520 9.62083E-04
 -1      2521 9.93895E-04
 -1      2522 1.11010E-03
 -1      2523 8.42020E-04
 -1      2524 9.19482E-04
 -1      2525 1.06750E-03
 -1      2526 6.50071E-04
 -1      2527 7.26730E-04
 -1      2528 9.09612E-04
 -1      2529 7.19866E-04
 -1      2530 5.94204E-04
 -1      2531 7.38456E-04
 -1      2532 9.16583E-04
 -1      2533 2.26281E+00
 -1      2534 1.66175E+00
 -1      2535 1.66669E+00
 -1      2536 1.81883E+00
 -1      2537 1.47007E+01
 -1      2538 2.03775E+01
 -1      2539 3.26606E+01
 -1      2540 3.26606E+01
 -1      2541 3.18021E+01
 -1      2542 2.72715E+01
 -1      2543 2.53972E+01
 -1      2544 9.17076E+00
 -1      2545 8.93786E+00
 -1      2546 8.93516E+00
 -1      2547 6.70264E+00
 -1      2548 7.85677E+00
 -1      2549 8.80853E+00
 -1      2550 8.18846E-01
 -1      2551 9.50071E-01
 -1      2552 1.15908E+00
 -1      2553 1.03127E+00
 -1      2554 9.11165E+00
 -1      2555 8.92413E+00
 -1      2556 1.47330E+01
 -1      2557 1.04719E+01
 -1      2558 6.65621E+00
 -1      2559 7.52949E+00
 -1      2560 7.95878E+00
 -1      2561 6.46504E+00
 -1      2562 5.25532E+00
 -1      2563 6.43786E+00
 -1      2564 5.27597E+00
 -1      2565 2.13771E+01
 -1      2566 2.32704E+01
 -1      2567 2.36056E+01
 -1      2568 1.67689E+01
 -1      2569 3.17540E+01
 -1      2570 2.84293E+01
 -1      2571 3.99920E+01
 -1      2572 3.99920E+01
 -1      2573 1.28592E+01
 -1      2574 8.98448E+00
 -1      2575 2.88697E+01
 -1      2576 3.44309E+01
 -1      2577 1.32581E+01
 -1      2578 1.86389E+01
 -1      2579 8.75148E+00
 -1      2580 1.17419E+01
 -1      2581 6.35356E+00
 -1      2582 6.17195E+00
 -1      2583 6.58257E+00
 -1      2584 8.17503E+00
 -1      2585 7.40504E+00
 -1      2586 9.12186E+00
 -1      2587 9.20913E+00
 -1      2588 6.62533E+00
 -1      2589 7.98607E+00
 -1      2590 2.12792E+01
 -1      2591 1.48943E+01
 -1      2592 2.48046E+01
 -1      2593 2.61784E+01
 -1      2594 1.35223E-03
 -1      2595 7.52243E+00
 -1      2596 1.67427E+00
 -1      2597 1.66234E+00
 -1      2598 1.75053E+00
 -1      2599 1.25814E+01
 -1      2600 1.04398E+01
 -1      2601 8.75038E+00
 -1      2602 9.96364E-01
 -1      2603 8.65520E-01
 -1      2604 6.06885E-01
 -1      2605 7.35335E+00
 -1      2606 1.76944E+00
 -1      2607 1.83736E+00
 -1      2608 1.69356E+00
 -1      2609 1.69319E+00
 -1      2610 7.72658E+00
 -1      2611 1.77645E+01
 -1      2612 2.61784E+01
 -1      2613 1.69862E+01
 -1      2614 6.62149E+00
 -1      2615 6.44757E+00
 -1      2616 4.44955E-01
 -1      2617 5.92194E-01
 -1      2618 6.28613E-01
 -1      2619 5.93811E-01
 -1      2620 5.30686E+00
 -1      2621 7.99019E+00
 -1      2622 1.17773E-03
 -1      2623 5.05451E+00
 -1      2624 2.72715E+01
 -1      2625 7.37665E+00
 -1      2626 1.06783E+01
 -1      2627 2.32704E+01
 -1      2628 1.16114E+01
 -1      2629 3.44309E+01
 -1      2630 3.17540E+01
 -1      2631 1.86923E+01
 -1      2632 5.67339E+00
 -1      2633 6.92973E+00
 -1      2634 5.73943E+00
 -1      2635 4.32052E+00
 -1      2636 1.18327E+01
 -1      2637 8.26005E+00
 -1      2638 1.49328E+01
 -1      2639 7.14009E+00
 -1      2640 1.38230E+00
 -1      2641 1.38230E+00
 -1      2642 1.38230E+00
 -1      2643 1.29090E+00
 -1      2644 1.52520E+00
 -1      2645 1.21332E+00
 -1      2646 1.24963E+00
 -1      2647 1.23285E+00
 -1      2648 1.19286E+00
 -1      2649 1.25330E+00
 -1      2650 1.16029E+00
 -1      2651 1.15858E+00
 -1      2652 9.38076E-01
 -1      2653 4.18623E+00
 -1      2654 4.31617E+00
 -1      2655 1.99347E+00
 -1      2656 2.13169E+00
 -1      2657 2.33766E+00
 -1      2658 2.52291E+00
 -1      2659 2.47448E+00
 -1      2660 2.99769E+00
 -1      2661 3.16723E+00
 -1      2662 3.15524E+00
 -1      2663 3.86549E+00
 -1      2664 4.59418E+00
 -1      2665 4.32829E+00
 -1      2666 3.35152E+00
 -1      2667 2.84001E+00
 -1      2668 4.09453E+00
 -1      2669 4.47170E+00
 -1      2670 4.34188E+00
 -1      2671 3.94198E+00
 -1      2672 5.57476E+00
 -1      2673 2.93973E+00
 -1      2674 2.76796E+00
 -1      2675 4.44269E+00
 -1      2676 2.31086E+00
 -1      2677 2.12142E+00
 -1      2678 2.98334E+00
 -1      2679 1.91272E+00
 -1      2680 1.85026E+00
 -1      2681 2.31754E+00
 -1      2682 1.64815E+00
 -1      2683 1.55576E+00
 -1      2684 1.90672E+00
 -1      2685 1.37988E+00
 -1      2686 1.27056E+00
 -1      2687 1.52874E+00
 -1      2688 1.12885E+00
 -1      2689 1.01599E+00
 -1      2690 1.21115E+00
 -1      2691 8.97913E-01
 -1      2692 7.95889E-01
 -1      2693 9.51360E-01
 -1      2694 7.02860E-01
 -1      2695 6.17785E-01
 -1      2696 7.40250E-01
 -1      2697 5.43308E-01
 -1      2698 4.72700E-01
 -1      2699 5.72745E-01
 -1      2700 4.13304E-01
 -1      2701 3.56335E-01
 -1      2702 4.38872E-01
 -1      2703 3.09299E-01
 -1      2704 2.64380E-01
 -1      2705 3.32441E-01
 -1      2706 2.27481E-01
 -1      2707 1.93160E-01
 -1      2708 2.48507E-01
 -1      2709 1.64530E-01
 -1      2710 1.39379E-01
 -1      2711 1.82979E-01
 -1      2712 1.17436E-01
 -1      2713 9.84608E-02
 -1      2714 1.32406E-01
 -1      2715 8.18674E-02
 -1      2716 6.77871E-02
 -1      2717 9.38696E-02
 -1      2718 5.54234E-02
 -1      2719 4.56692E-02
 -1      2720 6.49126E-02
 -1      2721 3.66085E-02
 -1      2722 3.07807E-02
 -1      2723 4.34883E-02
 -1      2724 2.42660E-02
 -1      2725 2.06418E-02
 -1      2726 2.79129E-02
 -1      2727 1.65575E-02
 -1      2728 1.53284E-02
 -1      2729 1.73138E-02
 -1      2730 1.34762E-02
 -1      2731 1.21705E-02
 -1      2732 1.13773E-02
 -1      2733 1.17933E-02
 -1      2734 1.05224E-02
 -1      2735 9.14798E-03
 -1      2736 1.00027E-02
 -1      2737 8.83046E-03
 -1      2738 8.25115E-03
 -1      2739 8.25609E-03
 -1      2740 7.26505E-03
 -1      2741 7.15709E-03
 -1      2742 6.76249E-03
 -1      2743 6.18981E-03
 -1      2744 6.08016E-03
 -1      2745 5.84486E-03
 -1      2746 5.28522E-03
 -1      2747 5.23265E-03
 -1      2748 4.89942E-03
 -1      2749 4.35346E-03
 -1      2750 4.50190E-03
 -1      2751 3.96441E-03
 -1      2752 3.50142E-03
 -1      2753 3.72704E-03
 -1      2754 3.13287E-03
 -1      2755 2.71862E-03
 -1      2756 2.96944E-03
 -1      2757 2.39802E-03
 -1      2758 2.02904E-03
 -1      2759 2.28030E-03
 -1      2760 1.77172E-03
 -1      2761 1.47015E-03
 -1      2762 1.70237E-03
 -1      2763 1.28063E-03
 -1      2764 1.10830E-03
 -1      2765 8.74301E-04
 -1      2766 1.25553E-03
 -1      2767 9.27895E-01
 -1      2768 8.56875E-01
 -1      2769 1.15783E+00
 -1      2770 9.98942E-01
 -1      2771 1.14105E+00
 -1      2772 1.07682E+00
 -1      2773 1.04180E+00
 -1      2774 1.28995E+00
 -1      2775 1.50114E+00
 -1      2776 1.43730E+00
 -1      2777 1.85204E+00
 -1      2778 1.75054E+00
 -1      2779 1.72813E+00
 -1      2780 1.91229E+00
 -1      2781 1.98221E+00
 -1      2782 2.10770E+00
 -1      2783 2.73754E+00
 -1      2784 2.59992E+00
 -1      2785 2.92549E+00
 -1      2786 2.83320E+00
 -1      2787 3.01095E+00
 -1      2788 3.88654E+00
 -1      2789 2.09481E+00
 -1      2790 2.18110E+00
 -1      2791 3.50786E+00
 -1      2792 1.33368E+00
 -1      2793 1.46757E+00
 -1      2794 2.22853E+00
 -1      2795 9.61026E-01
 -1      2796 1.11505E+00
 -1      2797 1.38267E+00
 -1      2798 9.05685E-01
 -1      2799 9.37787E-01
 -1      2800 1.14081E+00
 -1      2801 7.27066E-01
 -1      2802 7.87087E-01
 -1      2803 9.98970E-01
 -1      2804 6.79165E-01
 -1      2805 6.76437E-01
 -1      2806 8.29743E-01
 -1      2807 6.40939E-01
 -1      2808 6.44760E-01
 -1      2809 7.44709E-01
 -1      2810 5.71641E-01
 -1      2811 5.93990E-01
 -1      2812 6.63356E-01
 -1      2813 5.05997E-01
 -1      2814 5.27444E-01
 -1      2815 5.72210E-01
 -1      2816 4.50182E-01
 -1      2817 4.76789E-01
 -1      2818 4.98805E-01
 -1      2819 3.86045E-01
 -1      2820 4.16015E-01
 -1      2821 4.35430E-01
 -1      2822 3.19098E-01
 -1      2823 3.51331E-01
 -1      2824 3.66549E-01
 -1      2825 2.55550E-01
 -1      2826 2.86572E-01
 -1      2827 2.99309E-01
 -1      2828 1.98870E-01
 -1      2829 2.26688E-01
 -1      2830 2.37920E-01
 -1      2831 1.50562E-01
 -1      2832 1.74272E-01
 -1      2833 1.84459E-01
 -1      2834 1.10845E-01
 -1      2835 1.30264E-01
 -1      2836 1.39563E-01
 -1      2837 7.91741E-02
 -1      2838 9.45531E-02
 -1      2839 1.02974E-01
 -1      2840 5.46036E-02
 -1      2841 6.64188E-02
 -1      2842 7.39264E-02
 -1      2843 3.70275E-02
 -1      2844 4.48520E-02
 -1      2845 5.14195E-02
 -1      2846 2.48218E-02
 -1      2847 2.97488E-02
 -1      2848 3.43892E-02
 -1      2849 1.77100E-02
 -1      2850 1.95255E-02
 -1      2851 2.18142E-02
 -1      2852 1.36271E-02
 -1      2853 1.49264E-02
 -1      2854 1.37343E-02
 -1      2855 1.18235E-02
 -1      2856 1.31418E-02
 -1      2857 1.04654E-02
 -1      2858 1.01640E-02
 -1      2859 1.14133E-02
 -1      2860 9.56981E-03
 -1      2861 8.47846E-03
 -1      2862 9.60971E-03
 -1      2863 8.60524E-03
 -1      2864 7.16805E-03
 -1      2865 7.86802E-03
 -1      2866 7.44048E-03
 -1      2867 5.99545E-03
 -1      2868 6.55862E-03
 -1      2869 6.22060E-03
 -1      2870 5.00209E-03
 -1      2871 5.57110E-03
 -1      2872 5.18681E-03
 -1      2873 4.07117E-03
 -1      2874 4.59645E-03
 -1      2875 4.35682E-03
 -1      2876 3.23427E-03
 -1      2877 3.67458E-03
 -1      2878 3.55459E-03
 -1      2879 2.48175E-03
 -1      2880 2.88495E-03
 -1      2881 2.80867E-03
 -1      2882 1.85233E-03
 -1      2883 2.17861E-03
 -1      2884 2.15621E-03
 -1      2885 1.39221E-03
 -1      2886 1.63007E-03
 -1      2887 1.63081E-03
 -1      2888 1.19408E-03
 -1      2889 6.05571E+00
 -1      2890 7.71358E+00
 -1      2891 1.15682E-03
 -1      2892 1.05237E-03
 -1      2893 1.22233E-03
 -1      2894 1.22233E-03
 -1      2895 9.54044E-04
 -1      2896 1.03867E-03
 -1      2897 1.25315E-03
 -1      2898 1.19607E-03
 -1      2899 1.21697E-03
 -1      2900 1.17252E-03
 -1      2901 1.31010E-03
 -1      2902 1.33117E-03
 -1      2903 1.90266E+01
 -1      2904 2.37917E+01
 -1      2905 1.22483E-03
 -1      2906 1.22112E-03
 -1      2907 1.22483E-03
 -1      2908 1.22483E-03
 -1      2909 1.33956E-03
 -1      2910 1.17529E-03
 -1      2911 1.21789E-03
 -1      2912 1.33262E-03
 -1      2913 1.01075E-03
 -1      2914 1.12603E-03
 -1      2915 1.27643E-03
 -1      2916 5.74249E+00
 -1      2917 6.42938E+00
 -1      2918 2.27654E+01
 -1      2919 2.36239E+01
 -1      2920 7.64047E+00
 -1      2921 5.44075E+00
 -1      2922 2.49217E+01
 -1      2923 1.95326E+01
 -1      2924 1.14347E+01
 -1      2925 9.39961E+00
 -1      2926 5.13302E+00
 -1      2927 3.68570E+00
 -1      2928 1.21961E-03
 -1      2929 1.22233E-03
 -1      2930 1.33805E-03
 -1      2931 1.10843E+01
 -1      2932 1.38226E+01
 -1      2933 6.53584E+00
 -1      2934 6.22217E+00
 -1      2935 1.10804E+01
 -1      2936 9.04447E+00
 -1      2937 1.79209E+00
 -1      2938 1.82213E+00
 -1      2939 2.09717E+00
 -1      2940 8.21838E+00
 -1      2941 6.68162E+00
 -1      2942 4.52579E+00
 -1      2943 4.71696E+00
 -1      2944 1.74976E+01
 -1      2945 1.26739E+01
 -1      2946 8.76943E+00
 -1      2947 1.02856E+01
 -1      2948 1.33096E+00
 -1      2949 1.33792E+00
 -1      2950 1.48081E+00
 -1      2951 1.35510E+00
 -1      2952 2.80903E+01
 -1      2953 1.98523E+01
 -1      2954 1.61215E+01
 -1      2955 2.17209E+01
 -1      2956 4.69742E+00
 -1      2957 7.27695E+00
 -1      2958 5.52903E+00
 -1      2959 4.56368E+00
 -1      2960 2.20551E+01
 -1      2961 2.76162E+01
 -1      2962 1.57879E+00
 -1      2963 1.75981E+00
 -1      2964 1.38801E+00
 -1      2965 1.24186E+00
 -1      2966 1.29612E+00
 -1      2967 1.42944E+00
 -1      2968 1.20199E+01
 -1      2969 1.64470E+01
 -1      2970 1.68191E+01
 -1      2971 1.27012E+01
 -1      2972 1.66669E+00
 -1      2973 1.65835E+00
 -1      2974 1.79209E+00
 -1      2975 1.68522E+00
 -1      2976 1.90251E+00
 -1      2977 1.90251E+00
 -1      2978 1.98805E+00
 -1      2979 7.28365E+00
 -1      2980 1.40083E+00
 -1      2981 1.16653E+00
 -1      2982 1.14120E+00
 -1      2983 1.23285E+00
 -1      2984 9.88568E+00
 -1      2985 1.49062E+01
 -1      2986 4.45005E+00
 -1      2987 4.47216E+00
 -1      2988 5.20917E+00
 -1      2989 4.77680E+00
 -1      2990 4.07890E+00
 -1      2991 2.96006E+00
 -1      2992 3.35712E+00
 -1      2993 4.83306E+00
 -1      2994 5.96954E+00
 -1      2995 7.00364E+00
 -1      2996 7.30138E+00
 -1      2997 1.40603E+01
 -1      2998 9.36236E+00
 -1      2999 8.82319E+00
 -1      3000 7.24306E+00
 -1      3001 4.90811E+00
 -1      3002 1.56135E+01
 -1      3003 6.88427E+00
 -1      3004 1.38339E+01
 -1      3005 1.22731E+01
 -1      3006 4.92498E+00
 -1      3007 5.22010E+00
 -1      3008 4.29613E+00
 -1      3009 4.29306E+00
 -1      3010 9.56447E-04
 -1      3011 1.01231E-03
 -1      3012 1.22874E-03
 -1      3013 1.14816E-03
 -1      3014 4.33829E+00
 -1      3015 1.26894E+00
 -1      3016 8.00839E-01
 -1      3017 4.82109E+00
 -1      3018 3.86466E+00
 -1      3019 3.90255E+00
 -1      3020 1.58850E+01
 -1      3021 8.20951E-01
 -1      3022 5.09136E+00
 -1      3023 1.04893E+01
 -1      3024 1.44693E+01
 -1      3025 7.46372E+00
 -1      3026 4.17757E+00
 -1      3027 1.33654E-03
 -1      3028 7.11738E+00
 -1      3029 1.23285E+00
 -1      3030 1.31042E+00
 -1      3031 1.46356E+00
 -1      3032 1.73013E+00
 -1      3033 1.44568E+00
 -1      3034 4.99832E+00
 -1      3035 6.18301E+00
 -1      3036 9.17541E+00
 -1      3037 7.46605E+00
 -1      3038 1.37137E+00
 -1      3039 1.39183E+00
 -1      3040 9.23385E-01
 -1      3041 9.55642E+00
 -1      3042 7.96287E+00
 -1      3043 5.29808E+00
 -1      3044 3.74948E+00
 -1      3045 1.69857E+00
 -1      3046 1.71749E+00
 -1      3047 1.69061E+00
 -1      3048 1.92681E+00
 -1      3049 3.57858E+00
 -1      3050 4.27296E+00
 -1      3051 4.63005E+00
 -1      3052 1.13041E+00
 -1      3053 6.70165E+00
 -1      3054 3.57819E+00
 -1      3055 4.05298E+00
 -1      3056 5.17982E+00
 -1      3057 5.87808E+00
 -1      3058 5.60277E+00
 -1      3059 1.13041E+00
 -1      3060 1.03325E+01
 -1      3061 1.29121E+01
 -1      3062 4.59570E+00
 -1      3063 3.90255E+00
 -1      3064 5.43088E+00
 -1      3065 4.42863E+00
 -1      3066 3.76173E+00
 -1      3067 3.30463E+00
 -1      3068 4.74992E+00
 -1      3069 2.83305E+00
 -1      3070 2.62435E+00
 -1      3071 3.61144E+00
 -1      3072 2.14211E+00
 -1      3073 1.94000E+00
 -1      3074 2.65763E+00
 -1      3075 1.66432E+00
 -1      3076 1.48844E+00
 -1      3077 1.89971E+00
 -1      3078 1.30767E+00
 -1      3079 1.16596E+00
 -1      3080 1.44325E+00
 -1      3081 1.03260E+00
 -1      3082 9.14524E-01
 -1      3083 1.12912E+00
 -1      3084 8.02215E-01
 -1      3085 7.09186E-01
 -1      3086 8.83460E-01
 -1      3087 6.17385E-01
 -1      3088 5.42909E-01
 -1      3089 6.79350E-01
 -1      3090 4.69658E-01
 -1      3091 4.10262E-01
 -1      3092 5.14298E-01
 -1      3093 3.52821E-01
 -1      3094 3.05786E-01
 -1      3095 3.83607E-01
 -1      3096 2.61394E-01
 -1      3097 2.24495E-01
 -1      3098 2.81774E-01
 -1      3099 1.90645E-01
 -1      3100 1.62015E-01
 -1      3101 2.03532E-01
 -1      3102 1.37000E-01
 -1      3103 1.15057E-01
 -1      3104 1.44666E-01
 -1      3105 9.71438E-02
 -1      3106 8.05504E-02
 -1      3107 1.01738E-01
 -1      3108 6.72446E-02
 -1      3109 5.48810E-02
 -1      3110 7.05188E-02
 -1      3111 4.60004E-02
 -1      3112 3.69397E-02
 -1      3113 4.83324E-02
 -1      3114 3.03750E-02
 -1      3115 2.38603E-02
 -1      3116 3.28871E-02
 -1      3117 1.90863E-02
 -1      3118 1.50019E-02
 -1      3119 2.15484E-02
 -1      3120 1.16056E-02
 -1      3121 9.75344E-03
 -1      3122 1.33781E-02
 -1      3123 7.80139E-03
 -1      3124 7.42424E-03
 -1      3125 8.02969E-03
 -1      3126 7.47777E-03
 -1      3127 6.95809E-03
 -1      3128 6.13117E-03
 -1      3129 6.89992E-03
 -1      3130 6.32554E-03
 -1      3131 6.12654E-03
 -1      3132 6.08016E-03
 -1      3133 5.57760E-03
 -1      3134 5.82298E-03
 -1      3135 5.23265E-03
 -1      3136 4.88770E-03
 -1      3137 5.23265E-03
 -1      3138 4.50190E-03
 -1      3139 4.11610E-03
 -1      3140 4.50190E-03
 -1      3141 3.83583E-03
 -1      3142 3.44678E-03
 -1      3143 3.83583E-03
 -1      3144 3.15157E-03
 -1      3145 2.78302E-03
 -1      3146 3.26036E-03
 -1      3147 2.65616E-03
 -1      3148 2.33556E-03
 -1      3149 2.83828E-03
 -1      3150 2.21002E-03
 -1      3151 1.95269E-03
 -1      3152 2.58587E-03
 -1      3153 1.30979E+00
 -1      3154 1.23874E+00
 -1      3155 1.39112E+00
 -1      3156 1.61107E+00
 -1      3157 1.55986E+00
 -1      3158 2.40439E+00
 -1      3159 2.27422E+00
 -1      3160 1.99298E+00
 -1      3161 1.74358E+00
 -1      3162 2.28967E+00
 -1      3163 4.15996E+00
 -1      3164 3.88654E+00
 -1      3165 3.50786E+00
 -1      3166 4.15996E+00
 -1      3167 1.38267E+00
 -1      3168 1.60130E+00
 -1      3169 1.65828E+00
 -1      3170 1.68152E+00
 -1      3171 1.90015E+00
 -1      3172 1.07587E+00
 -1      3173 1.19447E+00
 -1      3174 1.73519E+00
 -1      3175 9.51628E-01
 -1      3176 1.00226E+00
 -1      3177 1.19776E+00
 -1      3178 8.27110E-01
 -1      3179 8.61515E-01
 -1      3180 1.03403E+00
 -1      3181 6.87779E-01
 -1      3182 7.34728E-01
 -1      3183 8.51533E-01
 -1      3184 5.83242E-01
 -1      3185 6.27438E-01
 -1      3186 6.98810E-01
 -1      3187 5.02974E-01
 -1      3188 5.32182E-01
 -1      3189 5.87411E-01
 -1      3190 4.22625E-01
 -1      3191 4.56791E-01
 -1      3192 4.90169E-01
 -1      3193 3.44566E-01
 -1      3194 3.79280E-01
 -1      3195 4.00642E-01
 -1      3196 2.73832E-01
 -1      3197 3.06358E-01
 -1      3198 3.19089E-01
 -1      3199 2.12634E-01
 -1      3200 2.41497E-01
 -1      3201 2.48546E-01
 -1      3202 1.62364E-01
 -1      3203 1.86962E-01
 -1      3204 1.90539E-01
 -1      3205 1.21564E-01
 -1      3206 1.41862E-01
 -1      3207 1.44365E-01
 -1      3208 8.90152E-02
 -1      3209 1.05307E-01
 -1      3210 1.07606E-01
 -1      3211 6.35701E-02
 -1      3212 7.63255E-02
 -1      3213 7.86590E-02
 -1      3214 4.40723E-02
 -1      3215 5.38238E-02
 -1      3216 5.62229E-02
 -1      3217 2.94353E-02
 -1      3218 3.67140E-02
 -1      3219 3.91183E-02
 -1      3220 1.86870E-02
 -1      3221 2.39834E-02
 -1      3222 2.63082E-02
 -1      3223 1.19489E-02
 -1      3224 1.47325E-02
 -1      3225 1.69017E-02
 -1      3226 8.66606E-03
 -1      3227 9.15137E-03
 -1      3228 1.01496E-02
 -1      3229 7.40679E-03
 -1      3230 7.81706E-03
 -1      3231 6.50304E-03
 -1      3232 7.00010E-03
 -1      3233 7.55440E-03
 -1      3234 5.80165E-03
 -1      3235 6.27630E-03
 -1      3236 6.88674E-03
 -1      3237 5.83591E-03
 -1      3238 5.39878E-03
 -1      3239 6.00822E-03
 -1      3240 5.45448E-03
 -1      3241 4.62631E-03
 -1      3242 5.05066E-03
 -1      3243 4.83828E-03
 -1      3244 3.87861E-03
 -1      3245 4.28425E-03
 -1      3246 4.14810E-03
 -1      3247 3.21673E-03
 -1      3248 3.61332E-03
 -1      3249 3.54074E-03
 -1      3250 2.57531E-03
 -1      3251 2.92464E-03
 -1      3252 2.98336E-03
 -1      3253 1.97792E-03
 -1      3254 2.28106E-03
 -1      3255 2.39702E-03
 -1      3256 1.60319E-03
 -1      3257 1.82545E-03
 -1      3258 1.95030E-03
 -1      3259 1.44778E-03
 -1      3260 1.79542E-03
 -1      3261 1.84468E-03
 -1      3262 1.48277E-03
 -1      3263 1.48971E-03
 -1      3264 2.00177E-03
 -1      3265 1.48971E-03
 -1      3266 1.48971E-03
 -1      3267 1.63986E-03
 -1      3268 1.40900E-03
 -1      3269 1.40749E-03
 -1      3270 1.55915E-03
 -1      3271 7.55318E+00
 -1      3272 2.86570E+00
 -1      3273 3.50052E+00
 -1      3274 4.04955E+00
 -1      3275 3.36192E+00
 -1      3276 3.52844E+00
 -1      3277 4.32297E+00
 -1      3278 7.33390E+00
 -1      3279 1.58406E-03
 -1      3280 1.58406E-03
 -1      3281 1.65500E-03
 -1      3282 2.82037E+00
 -1      3283 3.02634E+00
 -1      3284 3.92408E+00
 -1      3285 9.73491E+00
 -1      3286 8.46842E+00
 -1      3287 8.35185E+00
 -1      3288 3.73888E+00
 -1      3289 5.07763E+00
 -1      3290 2.35349E+00
 -1      3291 2.52483E+00
 -1      3292 3.07669E+00
 -1      3293 1.79234E+00
 -1      3294 1.79234E+00
 -1      3295 1.35669E+01
 -1      3296 1.25406E+01
 -1      3297 1.24978E+01
 -1      3298 1.28320E+01
 -1      3299 7.06103E+00
 -1      3300 6.23494E+00
 -1      3301 4.65225E+00
 -1      3302 4.75870E+00
 -1      3303 5.49421E+00
 -1      3304 1.31820E+01
 -1      3305 1.08274E+01
 -1      3306 1.25406E+01
 -1      3307 1.38384E+01
 -1      3308 1.57145E+01
 -1      3309 8.88686E+00
 -1      3310 1.11858E+01
 -1      3311 9.11163E+00
 -1      3312 7.26463E+00
 -1      3313 5.86525E+00
 -1      3314 6.90205E+00
 -1      3315 5.82465E+00
 -1      3316 1.38154E+01
 -1      3317 1.11020E+01
 -1      3318 1.26894E+00
 -1      3319 1.28320E+01
 -1      3320 1.33061E+01
 -1      3321 1.04236E+01
 -1      3322 1.79234E+00
 -1      3323 1.66797E+00
 -1      3324 2.05948E+00
 -1      3325 8.90454E+00
 -1      3326 3.32360E+00
 -1      3327 3.11688E+00
 -1      3328 2.43983E+00
 -1      3329 2.85576E+00
 -1      3330 3.50786E+00
 -1      3331 4.69602E+00
 -1      3332 1.50990E+00
 -1      3333 2.98119E+00
 -1      3334 8.46250E+00
 -1      3335 7.31429E+00
 -1      3336 5.80497E+00
 -1      3337 4.15996E+00
 -1      3338 4.03368E+00
 -1      3339 6.57946E+00
 -1      3340 9.08102E+00
 -1      3341 1.55677E+00
 -1      3342 1.65447E+00
 -1      3343 1.64080E+00
 -1      3344 1.33767E-03
 -1      3345 1.61107E+00
 -1      3346 2.22853E+00
 -1      3347 2.22853E+00
 -1      3348 1.84375E-03
 -1      3349 2.41200E-03
 -1      3350 1.71729E-03
 -1      3351 1.71192E-03
 -1      3352 1.96481E-03
 -1      3353 1.84532E-03
 -1      3354 1.81289E+00
 -1      3355 1.76360E+00
 -1      3356 2.02425E+00
 -1      3357 2.07773E+00
 -1      3358 1.71192E-03
 -1      3359 1.69622E-03
 -1      3360 2.09805E-03
 -1      3361 1.40027E+00
 -1      3362 1.48161E+00
 -1      3363 1.51834E+00
 -1      3364 3.39720E+00
 -1      3365 3.10190E+00
 -1      3366 3.27142E+00
 -1      3367 2.74510E+00
 -1      3368 2.38061E+00
 -1      3369 2.52330E+00
 -1      3370 4.12985E+00
 -1      3371 1.54611E-03
 -1      3372 1.04939E+01
 -1      3373 1.94794E-03
 -1      3374 9.83911E+00
 -1      3375 6.73176E+00
 -1      3376 2.38061E+00
 -1      3377 2.91587E+00
 -1      3378 2.26538E+00
 -1      3379 4.89306E+00
 -1      3380 8.48133E+00
 -1      3381 1.13638E+01
 -1      3382 8.35726E+00
 -1      3383 1.71295E+00
 -1      3384 1.98009E+00
 -1      3385 1.66857E+00
 -1      3386 8.67993E+00
 -1      3387 1.20244E+01
 -1      3388 8.65700E+00
 -1      3389 1.82435E+00
 -1      3390 2.25201E+00
 -1      3391 2.13130E+00
 -1      3392 2.28368E+00
 -1      3393 2.52366E-03
 -1      3394 2.47533E-03
 -1      3395 2.64920E-03
 -1      3396 2.45595E+00
 -1      3397 3.77805E+00
 -1      3398 4.56567E+00
 -1      3399 6.13779E+00
 -1      3400 8.40280E+00
 -1      3401 8.40280E+00
 -1      3402 1.35065E+00
 -1      3403 1.42426E+00
 -1      3404 2.21018E+00
 -1      3405 2.67399E+00
 -1      3406 2.36307E+00
 -1      3407 4.51608E+00
 -1      3408 4.04450E+00
 -1      3409 3.48485E+00
 -1      3410 3.00261E+00
 -1      3411 4.38949E+00
 -1      3412 2.19227E+00
 -1      3413 1.91659E+00
 -1      3414 3.01949E+00
 -1      3415 1.62403E+00
 -1      3416 1.44325E+00
 -1      3417 1.91659E+00
 -1      3418 1.24290E+00
 -1      3419 1.10955E+00
 -1      3420 1.42368E+00
 -1      3421 9.59803E-01
 -1      3422 8.47495E-01
 -1      3423 1.07358E+00
 -1      3424 7.35034E-01
 -1      3425 6.43233E-01
 -1      3426 8.11377E-01
 -1      3427 5.57599E-01
 -1      3428 4.84348E-01
 -1      3429 6.13282E-01
 -1      3430 4.18558E-01
 -1      3431 3.61117E-01
 -1      3432 4.61859E-01
 -1      3433 3.10440E-01
 -1      3434 2.66048E-01
 -1      3435 3.45391E-01
 -1      3436 2.27083E-01
 -1      3437 1.93233E-01
 -1      3438 2.55749E-01
 -1      3439 1.63430E-01
 -1      3440 1.38415E-01
 -1      3441 1.86981E-01
 -1      3442 1.15802E-01
 -1      3443 9.78885E-02
 -1      3444 1.34565E-01
 -1      3445 8.09091E-02
 -1      3446 6.76034E-02
 -1      3447 9.49731E-02
 -1      3448 5.55337E-02
 -1      3449 4.66532E-02
 -1      3450 6.59241E-02
 -1      3451 3.78859E-02
 -1      3452 3.13212E-02
 -1      3453 4.50872E-02
 -1      3454 2.49900E-02
 -1      3455 2.02160E-02
 -1      3456 2.99888E-02
 -1      3457 1.56846E-02
 -1      3458 1.22882E-02
 -1      3459 1.91262E-02
 -1      3460 9.11165E-03
 -1      3461 7.15960E-03
 -1      3462 1.14182E-02
 -1      3463 4.99648E-03
 -1      3464 5.05002E-03
 -1      3465 6.07844E-03
 -1      3466 4.96656E-03
 -1      3467 4.90839E-03
 -1      3468 3.83187E-03
 -1      3469 5.12318E-03
 -1      3470 4.87780E-03
 -1      3471 3.96321E-03
 -1      3472 4.85870E-03
 -1      3473 4.51374E-03
 -1      3474 4.15890E-03
 -1      3475 4.35277E-03
 -1      3476 3.96697E-03
 -1      3477 3.97882E-03
 -1      3478 3.72764E-03
 -1      3479 3.44738E-03
 -1      3480 3.57851E-03
 -1      3481 3.21789E-03
 -1      3482 2.92268E-03
 -1      3483 3.10970E-03
 -1      3484 2.83828E-03
 -1      3485 2.71142E-03
 -1      3486 2.64920E-03
 -1      3487 2.79581E-03
 -1      3488 2.84851E+00
 -1      3489 8.16290E+00
 -1      3490 8.81772E+00
 -1      3491 2.12741E+00
 -1      3492 2.75464E+00
 -1      3493 2.64398E+00
 -1      3494 2.42626E+00
 -1      3495 1.10098E+00
 -1      3496 1.19109E+00
 -1      3497 1.41759E+00
 -1      3498 8.95799E-01
 -1      3499 9.88182E-01
 -1      3500 1.14524E+00
 -1      3501 7.29712E-01
 -1      3502 7.90052E-01
 -1      3503 9.26701E-01
 -1      3504 5.85690E-01
 -1      3505 6.36750E-01
 -1      3506 7.27992E-01
 -1      3507 4.71627E-01
 -1      3508 5.17809E-01
 -1      3509 5.67148E-01
 -1      3510 3.80783E-01
 -1      3511 4.24127E-01
 -1      3512 4.51768E-01
 -1      3513 3.05640E-01
 -1      3514 3.43848E-01
 -1      3515 3.67333E-01
 -1      3516 2.41402E-01
 -1      3517 2.73738E-01
 -1      3518 2.98496E-01
 -1      3519 1.87153E-01
 -1      3520 2.12825E-01
 -1      3521 2.38017E-01
 -1      3522 1.42165E-01
 -1      3523 1.62667E-01
 -1      3524 1.84954E-01
 -1      3525 1.05629E-01
 -1      3526 1.21886E-01
 -1      3527 1.40189E-01
 -1      3528 7.66130E-02
 -1      3529 8.93028E-02
 -1      3530 1.03583E-01
 -1      3531 5.40530E-02
 -1      3532 6.37993E-02
 -1      3533 7.44431E-02
 -1      3534 3.72511E-02
 -1      3535 4.46094E-02
 -1      3536 5.21858E-02
 -1      3537 2.48339E-02
 -1      3538 3.02859E-02
 -1      3539 3.57769E-02
 -1      3540 1.57185E-02
 -1      3541 1.96730E-02
 -1      3542 2.36507E-02
 -1      3543 9.19292E-03
 -1      3544 1.19905E-02
 -1      3545 1.47618E-02
 -1      3546 5.78046E-03
 -1      3547 6.62946E-03
 -1      3548 8.47034E-03
 -1      3549 4.51613E-03
 -1      3550 4.36851E-03
 -1      3551 4.49494E-03
 -1      3552 4.76876E-03
 -1      3553 4.88212E-03
 -1      3554 3.44898E-03
 -1      3555 4.63049E-03
 -1      3556 4.89856E-03
 -1      3557 3.94477E-03
 -1      3558 4.21571E-03
 -1      3559 4.56383E-03
 -1      3560 4.00791E-03
 -1      3561 3.68936E-03
 -1      3562 4.03143E-03
 -1      3563 3.75697E-03
 -1      3564 3.17718E-03
 -1      3565 3.44248E-03
 -1      3566 3.32580E-03
 -1      3567 2.68839E-03
 -1      3568 2.98048E-03
 -1      3569 2.88221E-03
 -1      3570 2.27026E-03
 -1      3571 2.56451E-03
 -1      3572 2.56163E-03
 -1      3573 2.10041E-03
 -1      3574 8.81772E+00
 -1      3575 8.81772E+00
 -1      3576 2.11342E-03
 -1      3577 3.67484E+00
 -1      3578 4.22670E+00
 -1      3579 1.94021E-03
 -1      3580 1.94021E-03
 -1      3581 1.67808E-03
 -1      3582 1.59736E-03
 -1      3583 1.97842E-03
 -1      3584 2.01091E+00
 -1      3585 1.90973E+00
 -1      3586 1.91818E+00
 -1      3587 2.58235E+00
 -1      3588 2.09854E+00
 -1      3589 2.89108E+00
 -1      3590 1.57577E-03
 -1      3591 1.75234E-03
 -1      3592 1.69470E-03
 -1      3593 8.27078E+00
 -1      3594 6.99984E+00
 -1      3595 1.57704E+00
 -1      3596 1.74626E+00
 -1      3597 2.39674E+00
 -1      3598 5.46396E+00
 -1      3599 5.80497E+00
 -1      3600 5.44429E+00
 -1      3601 4.54599E+00
 -1      3602 2.97873E+00
 -1      3603 3.27427E+00
 -1      3604 3.57689E+00
 -1      3605 3.04609E+00
 -1      3606 4.98590E+00
 -1      3607 4.04904E+00
 -1      3608 6.46378E+00
 -1      3609 5.56194E+00
 -1      3610 2.26790E-03
 -1      3611 2.16785E+00
 -1      3612 5.88856E+00
 -1      3613 3.41644E+00
 -1      3614 3.28096E+00
 -1      3615 3.15061E+00
 -1      3616 2.90125E+00
 -1      3617 3.17232E+00
 -1      3618 5.74913E+00
 -1      3619 5.08223E+00
 -1      3620 8.09836E+00
 -1      3621 6.07754E+00
 -1      3622 5.51529E+00
 -1      3623 2.19743E-03
 -1      3624 2.19743E-03
 -1      3625 2.36728E-03
 -1      3626 1.96855E+00
 -1      3627 6.68991E+00
 -1      3628 5.66852E+00
 -1      3629 4.81991E+00
 -1      3630 1.83157E-03
 -1      3631 1.96481E-03
 -1      3632 2.06419E-03
 -1      3633 1.75234E-03
 -1      3634 2.41377E-03
 -1      3635 7.14151E+00
 -1      3636 1.71375E+00
 -1      3637 4.71792E+00
 -1      3638 5.83002E+00
 -1      3639 6.56540E+00
 -1      3640 7.92234E+00
 -1      3641 6.01764E+00
 -1      3642 6.10412E+00
 -1      3643 3.89129E+00
 -1      3644 3.89129E+00
 -1      3645 4.02151E+00
 -1      3646 8.26475E+00
 -1      3647 6.89771E+00
 -1      3648 6.47369E+00
 -1      3649 8.40280E+00
 -1      3650 6.46051E+00
 -1      3651 6.38198E+00
 -1      3652 7.00372E+00
 -1      3653 2.70670E+00
 -1      3654 2.78609E+00
 -1      3655 2.92039E+00
 -1      3656 2.92039E+00
 -1      3657 3.64700E+00
 -1      3658 2.77468E+00
 -1      3659 3.49850E+00
 -1      3660 3.02167E+00
 -1      3661 1.46780E+00
 -1      3662 1.58060E+00
 -1      3663 3.39834E+00
 -1      3664 6.78638E+00
 -1      3665 5.31991E+00
 -1      3666 5.62434E+00
 -1      3667 2.51255E+00
 -1      3668 3.29847E+00
 -1      3669 3.69484E+00
 -1      3670 2.88449E+00
 -1      3671 2.17498E+00
 -1      3672 1.88242E+00
 -1      3673 2.85033E+00
 -1      3674 1.50712E+00
 -1      3675 1.30677E+00
 -1      3676 1.76551E+00
 -1      3677 1.11554E+00
 -1      3678 9.65796E-01
 -1      3679 1.19898E+00
 -1      3680 8.36794E-01
 -1      3681 7.24333E-01
 -1      3682 8.78753E-01
 -1      3683 6.32191E-01
 -1      3684 5.46557E-01
 -1      3685 6.57608E-01
 -1      3686 4.77983E-01
 -1      3687 4.12193E-01
 -1      3688 4.96892E-01
 -1      3689 3.59945E-01
 -1      3690 3.09267E-01
 -1      3691 3.76069E-01
 -1      3692 2.68957E-01
 -1      3693 2.29992E-01
 -1      3694 2.83510E-01
 -1      3695 1.98769E-01
 -1      3696 1.68966E-01
 -1      3697 2.11977E-01
 -1      3698 1.44840E-01
 -1      3699 1.22227E-01
 -1      3700 1.56628E-01
 -1      3701 1.03713E-01
 -1      3702 8.67334E-02
 -1      3703 1.13987E-01
 -1      3704 7.26694E-02
 -1      3705 6.05997E-02
 -1      3706 8.14090E-02
 -1      3707 5.00525E-02
 -1      3708 4.12853E-02
 -1      3709 5.67978E-02
 -1      3710 3.39392E-02
 -1      3711 2.76080E-02
 -1      3712 3.89045E-02
 -1      3713 2.22538E-02
 -1      3714 1.77223E-02
 -1      3715 2.62041E-02
 -1      3716 1.38428E-02
 -1      3717 1.06662E-02
 -1      3718 1.69703E-02
 -1      3719 7.92241E-03
 -1      3720 5.75929E-03
 -1      3721 1.03470E-02
 -1      3722 3.96039E-03
 -1      3723 3.87694E-03
 -1      3724 5.80436E-03
 -1      3725 3.00329E-03
 -1      3726 3.21808E-03
 -1      3727 3.13181E-03
 -1      3728 3.55340E-03
 -1      3729 3.53430E-03
 -1      3730 2.59348E-03
 -1      3731 3.62991E-03
 -1      3732 3.46894E-03
 -1      3733 3.02442E-03
 -1      3734 3.41149E-03
 -1      3735 3.17216E-03
 -1      3736 3.06258E-03
 -1      3737 3.02126E-03
 -1      3738 2.79178E-03
 -1      3739 2.85424E-03
 -1      3740 2.07695E-03
 -1      3741 1.81482E-03
 -1      3742 9.51865E-01
 -1      3743 1.05761E+00
 -1      3744 1.49297E+00
 -1      3745 7.12075E-01
 -1      3746 8.05038E-01
 -1      3747 9.35948E-01
 -1      3748 5.58199E-01
 -1      3749 6.26081E-01
 -1      3750 7.03126E-01
 -1      3751 4.51768E-01
 -1      3752 4.99267E-01
 -1      3753 5.58199E-01
 -1      3754 3.67333E-01
 -1      3755 4.04268E-01
 -1      3756 4.51768E-01
 -1      3757 2.93899E-01
 -1      3758 3.25801E-01
 -1      3759 3.62736E-01
 -1      3760 2.30113E-01
 -1      3761 2.58691E-01
 -1      3762 2.85996E-01
 -1      3763 1.76459E-01
 -1      3764 2.00945E-01
 -1      3765 2.21618E-01
 -1      3766 1.32476E-01
 -1      3767 1.52756E-01
 -1      3768 1.68747E-01
 -1      3769 9.72279E-02
 -1      3770 1.13554E-01
 -1      3771 1.26121E-01
 -1      3772 6.95673E-02
 -1      3773 8.23810E-02
 -1      3774 9.23521E-02
 -1      3775 4.86766E-02
 -1      3776 5.81202E-02
 -1      3777 6.60581E-02
 -1      3778 3.30458E-02
 -1      3779 4.00111E-02
 -1      3780 4.59455E-02
 -1      3781 2.18767E-02
 -1      3782 2.70376E-02
 -1      3783 3.12717E-02
 -1      3784 1.37302E-02
 -1      3785 1.74582E-02
 -1      3786 2.08451E-02
 -1      3787 7.97289E-03
 -1      3788 1.05363E-02
 -1      3789 1.32328E-02
 -1      3790 4.31141E-03
 -1      3791 5.72336E-03
 -1      3792 7.78936E-03
 -1      3793 3.47584E-03
 -1      3794 3.10985E-03
 -1      3795 4.33827E-03
 -1      3796 3.28820E-03
 -1      3797 3.15840E-03
 -1      3798 2.81928E-03
 -1      3799 3.44940E-03
 -1      3800 3.51606E-03
 -1      3801 2.72970E-03
 -1      3802 3.29568E-03
 -1      3803 3.47996E-03
 -1      3804 2.98811E-03
 -1      3805 2.95529E-03
 -1      3806 3.20217E-03
 -1      3807 2.92516E-03
 -1      3808 2.59638E-03
 -1      3809 2.79309E-03
 -1      3810 2.66946E-03
 -1      3811 2.43775E-03
 -1      3812 2.56163E-03
 -1      3813 2.47250E-03
 -1      3814 2.36728E-03
 -1      3815 2.41902E+00
 -1      3816 5.78735E+00
 -1      3817 5.78735E+00
 -1      3818 1.71088E-03
 -1      3819 1.68928E-03
 -1      3820 1.80941E-03
 -1      3821 2.46977E-03
 -1      3822 2.29655E-03
 -1      3823 2.13295E-03
 -1      3824 2.53199E-03
 -1      3825 5.90754E+00
 -1      3826 2.19095E+00
 -1      3827 2.37791E+00
 -1      3828 3.18391E+00
 -1      3829 2.58235E+00
 -1      3830 2.87479E+00
 -1      3831 3.39391E+00
 -1      3832 4.36933E+00
 -1      3833 4.42208E+00
 -1      3834 6.01764E+00
 -1      3835 5.48158E+00
 -1      3836 4.07454E+00
 -1      3837 2.29623E+00
 -1      3838 6.04532E+00
 -1      3839 5.90754E+00
 -1      3840 4.94914E+00
 -1      3841 4.38949E+00
 -1      3842 2.96572E+00
 -1      3843 2.87479E+00
 -1      3844 3.87196E+00
 -1      3845 3.82663E+00
 -1      3846 2.18196E+00
 -1      3847 2.34151E+00
 -1      3848 2.50452E+00
 -1      3849 3.44986E+00
 -1      3850 3.69922E+00
 -1      3851 4.59751E+00
 -1      3852 3.59935E+00
 -1      3853 4.25449E+00
 -1      3854 3.27692E+00
 -1      3855 4.69117E+00
 -1      3856 6.02559E+00
 -1      3857 4.87528E+00
 -1      3858 2.65795E-03
 -1      3859 2.57355E-03
 -1      3860 2.39412E-03
 -1      3861 2.56952E-03
 -1      3862 4.81991E+00
 -1      3863 4.19553E+00
 -1      3864 1.68053E-03
 -1      3865 1.75977E-03
 -1      3866 1.69671E-03
 -1      3867 5.18366E+00
 -1      3868 3.82950E+00
 -1      3869 4.81991E+00
 -1      3870 3.71068E+00
 -1      3871 4.26216E+00
 -1      3872 4.59095E+00
 -1      3873 5.66920E+00
 -1      3874 4.07454E+00
 -1      3875 2.85512E+00
 -1      3876 4.72525E+00
 -1      3877 5.62434E+00
 -1      3878 3.82175E+00
 -1      3879 3.33689E+00
 -1      3880 3.82175E+00
 -1      3881 3.86970E+00
 -1      3882 3.17506E+00
 -1      3883 2.46554E+00
 -1      3884 3.61173E+00
 -1      3885 3.27692E+00
 -1      3886 3.44796E+00
 -1      3887 2.05358E+00
 -1      3888 1.67827E+00
 -1      3889 1.16712E+00
 -1      3890 9.75894E-01
 -1      3891 1.45519E+00
 -1      3892 8.52452E-01
 -1      3893 7.23449E-01
 -1      3894 8.20591E-01
 -1      3895 6.34312E-01
 -1      3896 5.42170E-01
 -1      3897 6.08011E-01
 -1      3898 4.78644E-01
 -1      3899 4.10069E-01
 -1      3900 4.55347E-01
 -1      3901 3.65534E-01
 -1      3902 3.13286E-01
 -1      3903 3.47286E-01
 -1      3904 2.78437E-01
 -1      3905 2.38126E-01
 -1      3906 2.67902E-01
 -1      3907 2.10444E-01
 -1      3908 1.79221E-01
 -1      3909 2.05370E-01
 -1      3910 1.57239E-01
 -1      3911 1.33113E-01
 -1      3912 1.55706E-01
 -1      3913 1.15775E-01
 -1      3914 9.72610E-02
 -1      3915 1.16387E-01
 -1      3916 8.37312E-02
 -1      3917 6.96672E-02
 -1      3918 8.55192E-02
 -1      3919 5.92487E-02
 -1      3920 4.87016E-02
 -1      3921 6.15709E-02
 -1      3922 4.08016E-02
 -1      3923 3.34555E-02
 -1      3924 4.32525E-02
 -1      3925 2.78152E-02
 -1      3926 2.24610E-02
 -1      3927 2.97124E-02
 -1      3928 1.84744E-02
 -1      3929 1.45948E-02
 -1      3930 2.00855E-02
 -1      3931 1.18853E-02
 -1      3932 9.14149E-03
 -1      3933 1.33893E-02
 -1      3934 7.19600E-03
 -1      3935 5.39711E-03
 -1      3936 8.73424E-03
 -1      3937 4.00546E-03
 -1      3938 3.13181E-03
 -1      3939 5.39711E-03
 -1      3940 2.15949E-03
 -1      3941 2.49481E-03
 -1      3942 3.03314E-03
 -1      3943 2.50548E-03
 -1      3944 2.60109E-03
 -1      3945 2.07149E-03
 -1      3946 2.72679E-03
 -1      3947 2.66934E-03
 -1      3948 2.20785E-03
 -1      3949 2.66404E-03
 -1      3950 2.51314E-03
 -1      3951 2.32825E-03
 -1      3952 1.46175E+00
 -1      3953 1.87194E+00
 -1      3954 5.58199E-01
 -1      3955 6.17132E-01
 -1      3956 4.40554E-01
 -1      3957 4.88053E-01
 -1      3958 5.46986E-01
 -1      3959 3.44079E-01
 -1      3960 3.85611E-01
 -1      3961 4.21896E-01
 -1      3962 2.65648E-01
 -1      3963 3.00856E-01
 -1      3964 3.23731E-01
 -1      3965 2.02521E-01
 -1      3966 2.31690E-01
 -1      3967 2.46551E-01
 -1      3968 1.52224E-01
 -1      3969 1.75927E-01
 -1      3970 1.85999E-01
 -1      3971 1.12586E-01
 -1      3972 1.31508E-01
 -1      3973 1.38689E-01
 -1      3974 8.17252E-02
 -1      3975 9.65721E-02
 -1      3976 1.01959E-01
 -1      3977 5.80191E-02
 -1      3978 6.94661E-02
 -1      3979 7.36861E-02
 -1      3980 4.00796E-02
 -1      3981 4.87452E-02
 -1      3982 5.21532E-02
 -1      3983 2.71537E-02
 -1      3984 3.31619E-02
 -1      3985 3.59616E-02
 -1      3986 1.79866E-02
 -1      3987 2.24051E-02
 -1      3988 2.42952E-02
 -1      3989 1.16836E-02
 -1      3990 1.48774E-02
 -1      3991 1.64374E-02
 -1      3992 7.18007E-03
 -1      3993 9.42960E-03
 -1      3994 1.10743E-02
 -1      3995 4.32312E-03
 -1      3996 5.52467E-03
 -1      3997 7.16491E-03
 -1      3998 2.81928E-03
 -1      3999 3.13671E-03
 -1      4000 4.32312E-03
 -1      4001 2.35147E-03
 -1      4002 2.12362E-03
 -1      4003 2.44105E-03
 -1      4004 2.61236E-03
 -1      4005 2.58180E-03
 -1      4006 1.97572E-03
 -1      4007 2.57769E-03
 -1      4008 2.67119E-03
 -1      4009 2.26489E-03
 -1      4010 2.36911E-03
 -1      4011 2.53131E-03
 -1      4012 2.27734E-03
 -1      4013 1.80941E-03
 -1      4014 1.70546E-03
 -1      4015 2.94286E+00
 -1      4016 3.54655E+00
 -1      4017 2.72508E+00
 -1      4018 5.12697E+00
 -1      4019 1.83425E-03
 -1      4020 2.06687E-03
 -1      4021 2.13734E-03
 -1      4022 1.76245E-03
 -1      4023 8.94935E-01
 -1      4024 1.04176E+00
 -1      4025 1.42074E+00
 -1      4026 4.72525E+00
 -1      4027 2.11289E+00
 -1      4028 2.71425E+00
 -1      4029 2.88529E+00
 -1      4030 2.08167E+00
 -1      4031 7.03126E-01
 -1      4032 7.89121E-01
 -1      4033 8.94935E-01
 -1      4034 7.03126E-01
 -1      4035 5.12697E+00
 -1      4036 4.77058E+00
 -1      4037 2.37830E+00
 -1      4038 2.14699E-03
 -1      4039 1.92738E-03
 -1      4040 1.82344E-03
 -1      4041 2.18855E-03
 -1      4042 2.39304E-03
 -1      4043 2.25921E-03
 -1      4044 2.01207E-03
 -1      4045 2.20284E-03
 -1      4046 1.70546E-03
 -1      4047 1.69671E-03
 -1      4048 1.70546E-03
 -1      4049 2.23422E-03
 -1      4050 2.26898E-03
 -1      4051 2.13083E-03
 -1      4052 1.93382E-03
 -1      4053 3.97314E+00
 -1      4054 3.82175E+00
 -1      4055 2.61167E+00
 -1      4056 2.32871E+00
 -1      4057 2.72274E+00
 -1      4058 8.91674E-01
 -1      4059 7.68232E-01
 -1      4060 6.45456E-01
 -1      4061 5.56318E-01
 -1      4062 7.16539E-01
 -1      4063 4.84388E-01
 -1      4064 4.20861E-01
 -1      4065 5.21832E-01
 -1      4066 3.68801E-01
 -1      4067 3.24266E-01
 -1      4068 3.97841E-01
 -1      4069 2.84079E-01
 -1      4070 2.49230E-01
 -1      4071 3.05594E-01
 -1      4072 2.17849E-01
 -1      4073 1.90167E-01
 -1      4074 2.34026E-01
 -1      4075 1.65560E-01
 -1      4076 1.43579E-01
 -1      4077 1.78039E-01
 -1      4078 1.24599E-01
 -1      4079 1.07261E-01
 -1      4080 1.34453E-01
 -1      4081 9.25231E-02
 -1      4082 7.89933E-02
 -1      4083 1.00735E-01
 -1      4084 6.74903E-02
 -1      4085 5.70719E-02
 -1      4086 7.44942E-02
 -1      4087 4.81934E-02
 -1      4088 4.02934E-02
 -1      4089 5.41128E-02
 -1      4090 3.35301E-02
 -1      4091 2.78899E-02
 -1      4092 3.84710E-02
 -1      4093 2.30447E-02
 -1      4094 1.90581E-02
 -1      4095 2.68625E-02
 -1      4096 1.56001E-02
 -1      4097 1.28906E-02
 -1      4098 1.85594E-02
 -1      4099 1.03217E-02
 -1      4100 8.37619E-03
 -1      4101 1.25325E-02
 -1      4102 6.50390E-03
 -1      4103 5.11226E-03
 -1      4104 8.09134E-03
 -1      4105 3.77733E-03
 -1      4106 2.80501E-03
 -1      4107 4.88412E-03
 -1      4108 1.87770E-03
 -1      4109 1.88836E-03
 -1      4110 2.62189E-03
 -1      4111 1.79981E-03
 -1      4112 1.92551E-03
 -1      4113 1.60602E-03
 -1      4114 2.03947E-03
 -1      4115 2.03417E-03
 -1      4116 1.63143E-03
 -1      4117 1.32929E+00
 -1      4118 1.74928E+00
 -1      4119 5.35301E-01
 -1      4120 6.05447E-01
 -1      4121 2.15806E-01
 -1      4122 2.49764E-01
 -1      4123 1.63585E-01
 -1      4124 1.90179E-01
 -1      4125 1.93392E-01
 -1      4126 1.23697E-01
 -1      4127 1.44413E-01
 -1      4128 1.48593E-01
 -1      4129 9.20742E-02
 -1      4130 1.08088E-01
 -1      4131 1.13812E-01
 -1      4132 6.73038E-02
 -1      4133 7.95629E-02
 -1      4134 8.56919E-02
 -1      4135 4.81609E-02
 -1      4136 5.74348E-02
 -1      4137 6.33116E-02
 -1      4138 3.35860E-02
 -1      4139 4.05037E-02
 -1      4140 4.57853E-02
 -1      4141 2.29978E-02
 -1      4142 2.77464E-02
 -1      4143 3.22886E-02
 -1      4144 1.58823E-02
 -1      4145 1.89915E-02
 -1      4146 2.24427E-02
 -1      4147 1.06327E-02
 -1      4148 1.28866E-02
 -1      4149 1.54407E-02
 -1      4150 6.76559E-03
 -1      4151 8.42099E-03
 -1      4152 1.02334E-02
 -1      4153 3.98081E-03
 -1      4154 5.16721E-03
 -1      4155 6.42328E-03
 -1      4156 2.15785E-03
 -1      4157 2.85351E-03
 -1      4158 3.69760E-03
 -1      4159 1.75925E-03
 -1      4160 1.52892E-03
 -1      4161 1.94138E-03
 -1      4162 1.99838E-03
 -1      4163 1.93954E-03
 -1      4164 1.49274E-03
 -1      4165 2.00726E-03
 -1      4166 2.05365E-03
 -1      4167 1.72830E-03
 -1      4168 2.31312E+00
 -1      4169 2.91836E-01
 -1      4170 3.35058E-01
 -1      4171 2.61091E-01
 -1      4172 3.94628E-01
 -1      4173 4.49571E-01
 -1      4174 5.08033E-01
 -1      4175 3.62733E-01
 -1      4176 1.75965E+00
 -1      4177 1.24849E+00
 -1      4178 1.19613E+00
 -1      4179 2.16007E+00
 -1      4180 2.15608E+00
 -1      4181 1.80930E+00
 -1      4182 1.60261E+00
 -1      4183 1.82489E+00
 -1      4184 1.72918E-03
 -1      4185 1.72918E-03
 -1      4186 1.17103E+00
 -1      4187 1.27685E+00
 -1      4188 1.60539E+00
 -1      4189 1.74914E-03
 -1      4190 2.03791E-03
 -1      4191 7.16539E-01
 -1      4192 7.28223E-01
 -1      4193 8.14218E-01
 -1      4194 1.86808E-03
 -1      4195 1.96821E-03
 -1      4196 1.91912E+00
 -1      4197 1.74451E-03
 -1      4198 1.85933E-03
 -1      4199 1.82768E+00
 -1      4200 1.65505E+00
 -1      4201 1.67276E-03
 -1      4202 1.67651E-03
 -1      4203 1.55880E-03
 -1      4204 1.89410E-03
 -1      4205 5.93763E-01
 -1      4206 5.21832E-01
 -1      4207 4.36102E-01
 -1      4208 3.84042E-01
 -1      4209 3.24472E-01
 -1      4210 2.84285E-01
 -1      4211 2.42213E-01
 -1      4212 2.10833E-01
 -1      4213 1.85205E-01
 -1      4214 1.60599E-01
 -1      4215 1.41427E-01
 -1      4216 1.22447E-01
 -1      4217 1.06839E-01
 -1      4218 9.21002E-02
 -1      4219 7.95889E-02
 -1      4220 6.80859E-02
 -1      4221 5.82169E-02
 -1      4222 4.93384E-02
 -1      4223 4.16812E-02
 -1      4224 3.49179E-02
 -1      4225 2.90784E-02
 -1      4226 2.42332E-02
 -1      4227 2.02269E-02
 -1      4228 1.67689E-02
 -1      4229 1.37732E-02
 -1      4230 1.12043E-02
 -1      4231 8.99264E-03
 -1      4232 7.12036E-03
 -1      4233 5.52198E-03
 -1      4234 4.18705E-03
 -1      4235 3.05975E-03
 -1      4236 2.13244E-03
 -1      4237 1.50352E-03
 -1      4238 1.41496E-03
 -1      4239 7.16539E-01
 -1      4240 1.91781E-03
 -1      4241 1.55295E+00
 -1      4242 1.19613E+00
 -1      4243 8.39314E-01
 -1      4244 1.69185E-03
 -1      4245 1.63658E-03
 -1      4246 1.76823E-03
 -1      4247 1.19613E+00
 -1      4248 1.59525E-03
 -1      4249 1.60261E+00
 -3
 9999
