    1C
    1UUSER                                                              
    1UDATE              27.october.2022                                 
    1UTIME              00:24:46                                        
    1UHOST                                                              
    1UPGM               CalculiX                                        
    1UVERSION           Version 2.17                             
    1UCOMPILETIME       Thu Jul 23 21:43:50 CEST 2020                    
    1UDIR                                                               
    1UDBN                                                               
    1UMAT    1SOLIDMATERIAL                                             
    2C                          4435                                     1
 -1         1 1.90286E+01 4.09090E+01 0.00000E+00
 -1         2 3.12566E+01 3.62541E+01 0.00000E+00
 -1         3 1.50000E+02 0.00000E+00 0.00000E+00
 -1         4 1.50000E+02 5.00000E+01 0.00000E+00
 -1         5 0.00000E+00 0.00000E+00 0.00000E+00
 -1         6 0.00000E+00 5.00000E+01 0.00000E+00
 -1         7 0.00000E+00 4.70500E+01 0.00000E+00
 -1         8 0.00000E+00 4.41000E+01 0.00000E+00
 -1         9 0.00000E+00 4.11500E+01 0.00000E+00
 -1        10 0.00000E+00 3.82000E+01 0.00000E+00
 -1        11 0.00000E+00 3.52500E+01 0.00000E+00
 -1        12 0.00000E+00 3.23500E+01 0.00000E+00
 -1        13 0.00000E+00 2.94000E+01 0.00000E+00
 -1        14 0.00000E+00 2.64500E+01 0.00000E+00
 -1        15 0.00000E+00 2.35000E+01 0.00000E+00
 -1        16 0.00000E+00 2.05500E+01 0.00000E+00
 -1        17 0.00000E+00 1.76000E+01 0.00000E+00
 -1        18 0.00000E+00 1.47000E+01 0.00000E+00
 -1        19 0.00000E+00 1.17500E+01 0.00000E+00
 -1        20 0.00000E+00 8.80000E+00 0.00000E+00
 -1        21 0.00000E+00 5.85000E+00 0.00000E+00
 -1        22 0.00000E+00 2.90000E+00 0.00000E+00
 -1        23 3.00000E+00 5.00000E+01 0.00000E+00
 -1        24 6.00000E+00 5.00000E+01 0.00000E+00
 -1        25 9.00000E+00 5.00000E+01 0.00000E+00
 -1        26 1.20000E+01 5.00000E+01 0.00000E+00
 -1        27 1.50000E+01 5.00000E+01 0.00000E+00
 -1        28 1.80000E+01 5.00000E+01 0.00000E+00
 -1        29 2.07000E+01 5.00000E+01 0.00000E+00
 -1        30 2.31000E+01 5.00000E+01 0.00000E+00
 -1        31 2.56500E+01 5.00000E+01 0.00000E+00
 -1        32 2.80500E+01 5.00000E+01 0.00000E+00
 -1        33 3.06000E+01 5.00000E+01 0.00000E+00
 -1        34 3.34500E+01 5.00000E+01 0.00000E+00
 -1        35 3.64500E+01 5.00000E+01 0.00000E+00
 -1        36 3.94500E+01 5.00000E+01 0.00000E+00
 -1        37 4.24500E+01 5.00000E+01 0.00000E+00
 -1        38 4.54500E+01 5.00000E+01 0.00000E+00
 -1        39 4.83000E+01 5.00000E+01 0.00000E+00
 -1        40 5.13000E+01 5.00000E+01 0.00000E+00
 -1        41 5.43000E+01 5.00000E+01 0.00000E+00
 -1        42 5.73000E+01 5.00000E+01 0.00000E+00
 -1        43 6.03000E+01 5.00000E+01 0.00000E+00
 -1        44 6.33000E+01 5.00000E+01 0.00000E+00
 -1        45 6.63000E+01 5.00000E+01 0.00000E+00
 -1        46 6.93000E+01 5.00000E+01 0.00000E+00
 -1        47 7.23000E+01 5.00000E+01 0.00000E+00
 -1        48 7.53000E+01 5.00000E+01 0.00000E+00
 -1        49 7.83000E+01 5.00000E+01 0.00000E+00
 -1        50 8.13000E+01 5.00000E+01 0.00000E+00
 -1        51 8.43000E+01 5.00000E+01 0.00000E+00
 -1        52 8.73000E+01 5.00000E+01 0.00000E+00
 -1        53 9.03000E+01 5.00000E+01 0.00000E+00
 -1        54 9.33000E+01 5.00000E+01 0.00000E+00
 -1        55 9.63000E+01 5.00000E+01 0.00000E+00
 -1        56 9.91500E+01 5.00000E+01 0.00000E+00
 -1        57 1.02150E+02 5.00000E+01 0.00000E+00
 -1        58 1.05150E+02 5.00000E+01 0.00000E+00
 -1        59 1.08150E+02 5.00000E+01 0.00000E+00
 -1        60 1.11150E+02 5.00000E+01 0.00000E+00
 -1        61 1.14150E+02 5.00000E+01 0.00000E+00
 -1        62 1.17150E+02 5.00000E+01 0.00000E+00
 -1        63 1.20150E+02 5.00000E+01 0.00000E+00
 -1        64 1.23150E+02 5.00000E+01 0.00000E+00
 -1        65 1.26150E+02 5.00000E+01 0.00000E+00
 -1        66 1.29150E+02 5.00000E+01 0.00000E+00
 -1        67 1.32150E+02 5.00000E+01 0.00000E+00
 -1        68 1.35150E+02 5.00000E+01 0.00000E+00
 -1        69 1.38150E+02 5.00000E+01 0.00000E+00
 -1        70 1.41150E+02 5.00000E+01 0.00000E+00
 -1        71 1.44150E+02 5.00000E+01 0.00000E+00
 -1        72 1.47150E+02 5.00000E+01 0.00000E+00
 -1        73 3.15000E+00 0.00000E+00 0.00000E+00
 -1        74 6.15000E+00 0.00000E+00 0.00000E+00
 -1        75 9.15000E+00 0.00000E+00 0.00000E+00
 -1        76 1.21500E+01 0.00000E+00 0.00000E+00
 -1        77 1.51500E+01 0.00000E+00 0.00000E+00
 -1        78 1.81500E+01 0.00000E+00 0.00000E+00
 -1        79 2.11500E+01 0.00000E+00 0.00000E+00
 -1        80 2.41500E+01 0.00000E+00 0.00000E+00
 -1        81 2.71500E+01 0.00000E+00 0.00000E+00
 -1        82 3.01500E+01 0.00000E+00 0.00000E+00
 -1        83 3.31500E+01 0.00000E+00 0.00000E+00
 -1        84 3.61500E+01 0.00000E+00 0.00000E+00
 -1        85 3.91500E+01 0.00000E+00 0.00000E+00
 -1        86 4.21500E+01 0.00000E+00 0.00000E+00
 -1        87 4.51500E+01 0.00000E+00 0.00000E+00
 -1        88 4.81500E+01 0.00000E+00 0.00000E+00
 -1        89 5.11500E+01 0.00000E+00 0.00000E+00
 -1        90 5.41500E+01 0.00000E+00 0.00000E+00
 -1        91 5.71500E+01 0.00000E+00 0.00000E+00
 -1        92 6.01500E+01 0.00000E+00 0.00000E+00
 -1        93 6.31500E+01 0.00000E+00 0.00000E+00
 -1        94 6.61500E+01 0.00000E+00 0.00000E+00
 -1        95 6.91500E+01 0.00000E+00 0.00000E+00
 -1        96 7.21500E+01 0.00000E+00 0.00000E+00
 -1        97 7.51500E+01 0.00000E+00 0.00000E+00
 -1        98 7.81500E+01 0.00000E+00 0.00000E+00
 -1        99 8.11500E+01 0.00000E+00 0.00000E+00
 -1       100 8.41500E+01 0.00000E+00 0.00000E+00
 -1       101 8.71500E+01 0.00000E+00 0.00000E+00
 -1       102 9.01500E+01 0.00000E+00 0.00000E+00
 -1       103 9.31500E+01 0.00000E+00 0.00000E+00
 -1       104 9.61500E+01 0.00000E+00 0.00000E+00
 -1       105 9.91500E+01 0.00000E+00 0.00000E+00
 -1       106 1.02150E+02 0.00000E+00 0.00000E+00
 -1       107 1.05150E+02 0.00000E+00 0.00000E+00
 -1       108 1.08150E+02 0.00000E+00 0.00000E+00
 -1       109 1.11150E+02 0.00000E+00 0.00000E+00
 -1       110 1.14150E+02 0.00000E+00 0.00000E+00
 -1       111 1.17150E+02 0.00000E+00 0.00000E+00
 -1       112 1.20150E+02 0.00000E+00 0.00000E+00
 -1       113 1.23150E+02 0.00000E+00 0.00000E+00
 -1       114 1.26150E+02 0.00000E+00 0.00000E+00
 -1       115 1.29150E+02 0.00000E+00 0.00000E+00
 -1       116 1.32150E+02 0.00000E+00 0.00000E+00
 -1       117 1.35150E+02 0.00000E+00 0.00000E+00
 -1       118 1.38150E+02 0.00000E+00 0.00000E+00
 -1       119 1.41150E+02 0.00000E+00 0.00000E+00
 -1       120 1.44150E+02 0.00000E+00 0.00000E+00
 -1       121 1.47150E+02 0.00000E+00 0.00000E+00
 -1       122 1.50000E+02 2.95000E+00 0.00000E+00
 -1       123 1.50000E+02 5.90000E+00 0.00000E+00
 -1       124 1.50000E+02 8.85000E+00 0.00000E+00
 -1       125 1.50000E+02 1.18000E+01 0.00000E+00
 -1       126 1.50000E+02 1.47500E+01 0.00000E+00
 -1       127 1.50000E+02 1.76500E+01 0.00000E+00
 -1       128 1.50000E+02 2.06000E+01 0.00000E+00
 -1       129 1.50000E+02 2.35500E+01 0.00000E+00
 -1       130 1.50000E+02 2.65000E+01 0.00000E+00
 -1       131 1.50000E+02 2.94500E+01 0.00000E+00
 -1       132 1.50000E+02 3.24000E+01 0.00000E+00
 -1       133 1.50000E+02 3.53000E+01 0.00000E+00
 -1       134 1.50000E+02 3.82500E+01 0.00000E+00
 -1       135 1.50000E+02 4.12000E+01 0.00000E+00
 -1       136 1.50000E+02 4.41500E+01 0.00000E+00
 -1       137 1.50000E+02 4.71000E+01 0.00000E+00
 -1       138 3.10846E+01 3.47117E+01 0.00000E+00
 -1       139 3.05925E+01 3.32781E+01 0.00000E+00
 -1       140 2.97917E+01 3.19689E+01 0.00000E+00
 -1       141 2.87526E+01 3.08888E+01 0.00000E+00
 -1       142 2.75652E+01 3.00853E+01 0.00000E+00
 -1       143 2.60769E+01 2.94949E+01 0.00000E+00
 -1       144 2.46415E+01 2.92647E+01 0.00000E+00
 -1       145 2.31085E+01 2.93489E+01 0.00000E+00
 -1       146 2.17058E+01 2.97354E+01 0.00000E+00
 -1       147 2.04077E+01 3.04072E+01 0.00000E+00
 -1       148 1.92500E+01 3.13619E+01 0.00000E+00
 -1       149 1.83195E+01 3.25458E+01 0.00000E+00
 -1       150 1.76909E+01 3.38268E+01 0.00000E+00
 -1       151 1.73152E+01 3.53506E+01 0.00000E+00
 -1       152 1.72746E+01 3.67548E+01 0.00000E+00
 -1       153 1.75731E+01 3.83351E+01 0.00000E+00
 -1       154 1.81511E+01 3.96779E+01 0.00000E+00
 -1       155 2.00681E+01 4.18627E+01 0.00000E+00
 -1       156 2.13232E+01 4.26098E+01 0.00000E+00
 -1       157 2.26178E+01 4.30595E+01 0.00000E+00
 -1       158 2.40916E+01 4.32521E+01 0.00000E+00
 -1       159 2.54650E+01 4.31490E+01 0.00000E+00
 -1       160 2.68051E+01 4.27737E+01 0.00000E+00
 -1       161 2.80546E+01 4.21341E+01 0.00000E+00
 -1       162 2.91451E+01 4.12643E+01 0.00000E+00
 -1       163 3.00875E+01 4.01272E+01 0.00000E+00
 -1       164 3.07298E+01 3.89184E+01 0.00000E+00
 -1       165 3.11206E+01 3.76274E+01 0.00000E+00
 -1       166 2.59800E+00 4.55750E+01 0.00000E+00
 -1       167 2.59800E+00 4.26250E+01 0.00000E+00
 -1       168 2.59800E+00 3.96750E+01 0.00000E+00
 -1       169 2.59800E+00 3.67250E+01 0.00000E+00
 -1       170 2.59800E+00 3.38250E+01 0.00000E+00
 -1       171 2.59800E+00 3.08750E+01 0.00000E+00
 -1       172 2.59800E+00 2.79250E+01 0.00000E+00
 -1       173 2.59800E+00 2.49750E+01 0.00000E+00
 -1       174 2.59800E+00 2.20250E+01 0.00000E+00
 -1       175 2.59800E+00 1.90750E+01 0.00000E+00
 -1       176 2.59800E+00 1.61750E+01 0.00000E+00
 -1       177 2.59800E+00 1.32250E+01 0.00000E+00
 -1       178 2.59800E+00 1.02750E+01 0.00000E+00
 -1       179 2.59800E+00 7.32500E+00 0.00000E+00
 -1       180 2.59800E+00 4.37500E+00 0.00000E+00
 -1       181 2.87400E+00 2.18750E+00 0.00000E+00
 -1       182 4.50000E+00 4.74020E+01 0.00000E+00
 -1       183 7.50000E+00 4.74020E+01 0.00000E+00
 -1       184 1.05000E+01 4.74020E+01 0.00000E+00
 -1       185 1.35000E+01 4.74020E+01 0.00000E+00
 -1       186 1.65000E+01 4.74020E+01 0.00000E+00
 -1       187 1.92000E+01 4.74020E+01 0.00000E+00
 -1       188 2.43750E+01 4.77822E+01 0.00000E+00
 -1       189 2.67750E+01 4.77822E+01 0.00000E+00
 -1       190 2.93250E+01 4.77822E+01 0.00000E+00
 -1       191 3.21750E+01 4.77822E+01 0.00000E+00
 -1       192 3.51750E+01 4.77822E+01 0.00000E+00
 -1       193 3.81750E+01 4.77822E+01 0.00000E+00
 -1       194 4.11750E+01 4.77822E+01 0.00000E+00
 -1       195 4.41750E+01 4.77822E+01 0.00000E+00
 -1       196 4.70250E+01 4.77822E+01 0.00000E+00
 -1       197 5.00250E+01 4.77822E+01 0.00000E+00
 -1       198 5.30250E+01 4.77822E+01 0.00000E+00
 -1       199 5.60250E+01 4.77822E+01 0.00000E+00
 -1       200 5.90250E+01 4.77822E+01 0.00000E+00
 -1       201 6.20250E+01 4.77822E+01 0.00000E+00
 -1       202 6.50250E+01 4.77822E+01 0.00000E+00
 -1       203 6.80250E+01 4.77822E+01 0.00000E+00
 -1       204 7.10250E+01 4.77822E+01 0.00000E+00
 -1       205 7.40250E+01 4.77822E+01 0.00000E+00
 -1       206 7.70250E+01 4.77822E+01 0.00000E+00
 -1       207 8.00250E+01 4.77822E+01 0.00000E+00
 -1       208 8.30250E+01 4.77822E+01 0.00000E+00
 -1       209 8.60250E+01 4.77822E+01 0.00000E+00
 -1       210 8.90250E+01 4.77822E+01 0.00000E+00
 -1       211 9.20250E+01 4.77822E+01 0.00000E+00
 -1       212 9.50250E+01 4.77822E+01 0.00000E+00
 -1       213 9.78750E+01 4.77822E+01 0.00000E+00
 -1       214 1.00875E+02 4.77822E+01 0.00000E+00
 -1       215 1.03875E+02 4.77822E+01 0.00000E+00
 -1       216 1.06875E+02 4.77822E+01 0.00000E+00
 -1       217 1.09875E+02 4.77822E+01 0.00000E+00
 -1       218 1.12875E+02 4.77822E+01 0.00000E+00
 -1       219 1.15875E+02 4.77822E+01 0.00000E+00
 -1       220 1.18875E+02 4.77822E+01 0.00000E+00
 -1       221 1.21875E+02 4.77822E+01 0.00000E+00
 -1       222 1.24875E+02 4.77822E+01 0.00000E+00
 -1       223 1.27875E+02 4.77822E+01 0.00000E+00
 -1       224 1.30875E+02 4.77822E+01 0.00000E+00
 -1       225 1.33875E+02 4.77822E+01 0.00000E+00
 -1       226 1.36875E+02 4.77822E+01 0.00000E+00
 -1       227 1.39875E+02 4.77822E+01 0.00000E+00
 -1       228 1.42875E+02 4.77822E+01 0.00000E+00
 -1       229 1.45875E+02 4.77822E+01 0.00000E+00
 -1       230 1.47938E+02 4.74411E+01 0.00000E+00
 -1       231 5.87400E+00 2.18750E+00 0.00000E+00
 -1       232 8.87400E+00 2.18750E+00 0.00000E+00
 -1       233 1.18740E+01 2.18750E+00 0.00000E+00
 -1       234 1.48740E+01 2.18750E+00 0.00000E+00
 -1       235 1.78740E+01 2.18750E+00 0.00000E+00
 -1       236 2.08740E+01 2.18750E+00 0.00000E+00
 -1       237 2.38740E+01 2.18750E+00 0.00000E+00
 -1       238 2.68740E+01 2.18750E+00 0.00000E+00
 -1       239 2.98740E+01 2.18750E+00 0.00000E+00
 -1       240 3.28740E+01 2.18750E+00 0.00000E+00
 -1       241 3.58740E+01 2.18750E+00 0.00000E+00
 -1       242 3.88740E+01 2.18750E+00 0.00000E+00
 -1       243 4.18740E+01 2.18750E+00 0.00000E+00
 -1       244 4.48740E+01 2.18750E+00 0.00000E+00
 -1       245 4.78740E+01 2.18750E+00 0.00000E+00
 -1       246 5.08740E+01 2.18750E+00 0.00000E+00
 -1       247 5.38740E+01 2.18750E+00 0.00000E+00
 -1       248 5.68740E+01 2.18750E+00 0.00000E+00
 -1       249 5.98740E+01 2.18750E+00 0.00000E+00
 -1       250 6.28740E+01 2.18750E+00 0.00000E+00
 -1       251 6.58740E+01 2.18750E+00 0.00000E+00
 -1       252 6.88740E+01 2.18750E+00 0.00000E+00
 -1       253 7.18740E+01 2.18750E+00 0.00000E+00
 -1       254 7.48740E+01 2.18750E+00 0.00000E+00
 -1       255 7.78740E+01 2.18750E+00 0.00000E+00
 -1       256 8.08740E+01 2.18750E+00 0.00000E+00
 -1       257 8.38740E+01 2.18750E+00 0.00000E+00
 -1       258 8.68740E+01 2.18750E+00 0.00000E+00
 -1       259 8.98740E+01 2.18750E+00 0.00000E+00
 -1       260 9.28740E+01 2.18750E+00 0.00000E+00
 -1       261 9.58740E+01 2.18750E+00 0.00000E+00
 -1       262 9.88740E+01 2.18750E+00 0.00000E+00
 -1       263 1.01874E+02 2.18750E+00 0.00000E+00
 -1       264 1.04874E+02 2.18750E+00 0.00000E+00
 -1       265 1.07874E+02 2.18750E+00 0.00000E+00
 -1       266 1.10874E+02 2.18750E+00 0.00000E+00
 -1       267 1.13874E+02 2.18750E+00 0.00000E+00
 -1       268 1.16874E+02 2.18750E+00 0.00000E+00
 -1       269 1.19874E+02 2.18750E+00 0.00000E+00
 -1       270 1.22874E+02 2.18750E+00 0.00000E+00
 -1       271 1.25874E+02 2.18750E+00 0.00000E+00
 -1       272 1.28874E+02 2.18750E+00 0.00000E+00
 -1       273 1.31874E+02 2.18750E+00 0.00000E+00
 -1       274 1.34874E+02 2.18750E+00 0.00000E+00
 -1       275 1.37874E+02 2.18750E+00 0.00000E+00
 -1       276 1.40874E+02 2.18750E+00 0.00000E+00
 -1       277 1.43874E+02 2.18750E+00 0.00000E+00
 -1       278 1.46874E+02 2.18750E+00 0.00000E+00
 -1       279 1.47402E+02 4.42500E+00 0.00000E+00
 -1       280 1.47402E+02 7.37500E+00 0.00000E+00
 -1       281 1.47402E+02 1.03250E+01 0.00000E+00
 -1       282 1.47402E+02 1.32750E+01 0.00000E+00
 -1       283 1.47402E+02 1.61750E+01 0.00000E+00
 -1       284 1.47402E+02 1.91250E+01 0.00000E+00
 -1       285 1.47402E+02 2.20750E+01 0.00000E+00
 -1       286 1.47402E+02 2.50250E+01 0.00000E+00
 -1       287 1.47402E+02 2.79750E+01 0.00000E+00
 -1       288 1.47402E+02 3.09250E+01 0.00000E+00
 -1       289 1.47402E+02 3.38250E+01 0.00000E+00
 -1       290 1.47402E+02 3.67750E+01 0.00000E+00
 -1       291 1.47402E+02 3.97250E+01 0.00000E+00
 -1       292 1.47402E+02 4.26750E+01 0.00000E+00
 -1       293 1.47670E+02 4.50580E+01 0.00000E+00
 -1       294 3.25421E+01 3.53299E+01 0.00000E+00
 -1       295 3.19853E+01 3.36013E+01 0.00000E+00
 -1       296 3.12264E+01 3.19909E+01 0.00000E+00
 -1       297 3.01459E+01 3.05883E+01 0.00000E+00
 -1       298 2.88853E+01 2.94136E+01 0.00000E+00
 -1       299 2.73608E+01 2.84295E+01 0.00000E+00
 -1       300 2.55512E+01 2.81827E+01 0.00000E+00
 -1       301 2.37993E+01 2.79289E+01 0.00000E+00
 -1       302 2.20851E+01 2.83733E+01 0.00000E+00
 -1       303 2.04995E+01 2.89945E+01 0.00000E+00
 -1       304 1.90042E+01 2.98845E+01 0.00000E+00
 -1       305 1.75680E+01 3.09976E+01 0.00000E+00
 -1       306 1.69168E+01 3.26522E+01 0.00000E+00
 -1       307 1.60005E+01 3.42182E+01 0.00000E+00
 -1       308 1.60830E+01 3.60176E+01 0.00000E+00
 -1       309 1.61502E+01 3.77856E+01 0.00000E+00
 -1       310 1.67485E+01 3.94859E+01 0.00000E+00
 -1       311 1.74662E+01 4.10945E+01 0.00000E+00
 -1       312 1.87287E+01 4.22792E+01 0.00000E+00
 -1       313 1.99898E+01 4.34220E+01 0.00000E+00
 -1       314 2.15726E+01 4.39799E+01 0.00000E+00
 -1       315 2.31868E+01 4.44411E+01 0.00000E+00
 -1       316 2.48691E+01 4.44096E+01 0.00000E+00
 -1       317 2.64620E+01 4.41288E+01 0.00000E+00
 -1       318 2.79823E+01 4.35332E+01 0.00000E+00
 -1       319 2.94081E+01 4.27125E+01 0.00000E+00
 -1       320 3.06143E+01 4.15228E+01 0.00000E+00
 -1       321 3.14793E+01 4.00917E+01 0.00000E+00
 -1       322 3.20856E+01 3.86242E+01 0.00000E+00
 -1       323 3.23951E+01 3.70603E+01 0.00000E+00
 -1       324 2.19750E+01 4.77822E+01 0.00000E+00
 -1       325 5.19600E+00 4.11500E+01 0.00000E+00
 -1       326 5.19600E+00 4.41000E+01 0.00000E+00
 -1       327 5.19600E+00 3.52750E+01 0.00000E+00
 -1       328 5.19600E+00 3.23250E+01 0.00000E+00
 -1       329 5.19600E+00 2.93750E+01 0.00000E+00
 -1       330 5.19600E+00 2.64250E+01 0.00000E+00
 -1       331 5.19600E+00 2.34750E+01 0.00000E+00
 -1       332 5.19600E+00 2.05250E+01 0.00000E+00
 -1       333 5.19600E+00 1.76250E+01 0.00000E+00
 -1       334 5.19600E+00 1.46750E+01 0.00000E+00
 -1       335 5.19600E+00 1.17250E+01 0.00000E+00
 -1       336 5.19600E+00 8.77500E+00 0.00000E+00
 -1       337 5.19600E+00 5.82500E+00 0.00000E+00
 -1       338 5.53500E+00 4.00625E+00 0.00000E+00
 -1       339 8.53500E+00 4.00625E+00 0.00000E+00
 -1       340 2.08658E+01 4.55608E+01 0.00000E+00
 -1       341 9.00000E+00 4.48040E+01 0.00000E+00
 -1       342 1.20000E+01 4.48040E+01 0.00000E+00
 -1       343 1.50000E+01 4.48040E+01 0.00000E+00
 -1       344 1.79329E+01 4.51824E+01 0.00000E+00
 -1       345 3.17129E+01 3.04985E+01 0.00000E+00
 -1       346 2.80500E+01 4.58995E+01 0.00000E+00
 -1       347 3.09000E+01 4.58995E+01 0.00000E+00
 -1       348 3.39000E+01 4.58995E+01 0.00000E+00
 -1       349 3.69000E+01 4.58995E+01 0.00000E+00
 -1       350 3.99000E+01 4.58995E+01 0.00000E+00
 -1       351 4.29000E+01 4.58995E+01 0.00000E+00
 -1       352 4.57500E+01 4.58995E+01 0.00000E+00
 -1       353 4.87500E+01 4.58995E+01 0.00000E+00
 -1       354 5.17500E+01 4.58995E+01 0.00000E+00
 -1       355 5.47500E+01 4.58995E+01 0.00000E+00
 -1       356 5.77500E+01 4.58995E+01 0.00000E+00
 -1       357 6.07500E+01 4.58995E+01 0.00000E+00
 -1       358 6.37500E+01 4.58995E+01 0.00000E+00
 -1       359 6.67500E+01 4.58995E+01 0.00000E+00
 -1       360 6.97500E+01 4.58995E+01 0.00000E+00
 -1       361 7.27500E+01 4.58995E+01 0.00000E+00
 -1       362 7.57500E+01 4.58995E+01 0.00000E+00
 -1       363 7.87500E+01 4.58995E+01 0.00000E+00
 -1       364 8.17500E+01 4.58995E+01 0.00000E+00
 -1       365 8.47500E+01 4.58995E+01 0.00000E+00
 -1       366 8.77500E+01 4.58995E+01 0.00000E+00
 -1       367 9.07500E+01 4.58995E+01 0.00000E+00
 -1       368 9.37500E+01 4.58995E+01 0.00000E+00
 -1       369 9.66000E+01 4.58995E+01 0.00000E+00
 -1       370 9.96000E+01 4.58995E+01 0.00000E+00
 -1       371 1.02600E+02 4.58995E+01 0.00000E+00
 -1       372 1.05600E+02 4.58995E+01 0.00000E+00
 -1       373 1.08600E+02 4.58995E+01 0.00000E+00
 -1       374 1.11600E+02 4.58995E+01 0.00000E+00
 -1       375 1.14600E+02 4.58995E+01 0.00000E+00
 -1       376 1.17600E+02 4.58995E+01 0.00000E+00
 -1       377 1.20600E+02 4.58995E+01 0.00000E+00
 -1       378 1.23600E+02 4.58995E+01 0.00000E+00
 -1       379 1.26600E+02 4.58995E+01 0.00000E+00
 -1       380 1.29600E+02 4.58995E+01 0.00000E+00
 -1       381 1.32600E+02 4.58995E+01 0.00000E+00
 -1       382 1.35600E+02 4.58995E+01 0.00000E+00
 -1       383 1.38600E+02 4.58995E+01 0.00000E+00
 -1       384 1.41600E+02 4.58995E+01 0.00000E+00
 -1       385 1.44600E+02 4.58995E+01 0.00000E+00
 -1       386 1.33740E+01 4.78550E+00 0.00000E+00
 -1       387 1.63740E+01 4.78550E+00 0.00000E+00
 -1       388 1.93740E+01 4.78550E+00 0.00000E+00
 -1       389 2.23740E+01 4.78550E+00 0.00000E+00
 -1       390 2.53740E+01 4.78550E+00 0.00000E+00
 -1       391 2.83740E+01 4.78550E+00 0.00000E+00
 -1       392 3.13740E+01 4.78550E+00 0.00000E+00
 -1       393 3.43740E+01 4.78550E+00 0.00000E+00
 -1       394 3.73740E+01 4.78550E+00 0.00000E+00
 -1       395 4.03740E+01 4.78550E+00 0.00000E+00
 -1       396 4.33740E+01 4.78550E+00 0.00000E+00
 -1       397 4.63740E+01 4.78550E+00 0.00000E+00
 -1       398 4.93740E+01 4.78550E+00 0.00000E+00
 -1       399 5.23740E+01 4.78550E+00 0.00000E+00
 -1       400 5.53740E+01 4.78550E+00 0.00000E+00
 -1       401 5.83740E+01 4.78550E+00 0.00000E+00
 -1       402 6.13740E+01 4.78550E+00 0.00000E+00
 -1       403 6.43740E+01 4.78550E+00 0.00000E+00
 -1       404 6.73740E+01 4.78550E+00 0.00000E+00
 -1       405 7.03740E+01 4.78550E+00 0.00000E+00
 -1       406 7.33740E+01 4.78550E+00 0.00000E+00
 -1       407 7.63740E+01 4.78550E+00 0.00000E+00
 -1       408 7.93740E+01 4.78550E+00 0.00000E+00
 -1       409 8.23740E+01 4.78550E+00 0.00000E+00
 -1       410 8.53740E+01 4.78550E+00 0.00000E+00
 -1       411 8.83740E+01 4.78550E+00 0.00000E+00
 -1       412 9.13740E+01 4.78550E+00 0.00000E+00
 -1       413 9.43740E+01 4.78550E+00 0.00000E+00
 -1       414 9.73740E+01 4.78550E+00 0.00000E+00
 -1       415 1.00374E+02 4.78550E+00 0.00000E+00
 -1       416 1.03374E+02 4.78550E+00 0.00000E+00
 -1       417 1.06374E+02 4.78550E+00 0.00000E+00
 -1       418 1.09374E+02 4.78550E+00 0.00000E+00
 -1       419 1.12374E+02 4.78550E+00 0.00000E+00
 -1       420 1.15374E+02 4.78550E+00 0.00000E+00
 -1       421 1.18374E+02 4.78550E+00 0.00000E+00
 -1       422 1.21374E+02 4.78550E+00 0.00000E+00
 -1       423 1.24374E+02 4.78550E+00 0.00000E+00
 -1       424 1.27374E+02 4.78550E+00 0.00000E+00
 -1       425 1.30374E+02 4.78550E+00 0.00000E+00
 -1       426 1.33374E+02 4.78550E+00 0.00000E+00
 -1       427 1.36374E+02 4.78550E+00 0.00000E+00
 -1       428 1.39374E+02 4.78550E+00 0.00000E+00
 -1       429 1.42374E+02 4.78550E+00 0.00000E+00
 -1       430 1.44888E+02 4.60525E+00 0.00000E+00
 -1       431 1.44804E+02 1.18000E+01 0.00000E+00
 -1       432 1.44804E+02 8.85000E+00 0.00000E+00
 -1       433 1.44804E+02 1.47000E+01 0.00000E+00
 -1       434 1.44804E+02 1.76500E+01 0.00000E+00
 -1       435 1.44804E+02 2.06000E+01 0.00000E+00
 -1       436 1.44804E+02 2.35500E+01 0.00000E+00
 -1       437 1.44804E+02 2.65000E+01 0.00000E+00
 -1       438 1.44804E+02 2.94500E+01 0.00000E+00
 -1       439 1.44804E+02 3.23500E+01 0.00000E+00
 -1       440 1.44804E+02 3.53000E+01 0.00000E+00
 -1       441 1.44804E+02 3.82500E+01 0.00000E+00
 -1       442 1.44804E+02 4.12000E+01 0.00000E+00
 -1       443 1.09545E+01 4.39587E+00 0.00000E+00
 -1       444 3.27783E+01 3.22436E+01 0.00000E+00
 -1       445 3.03993E+01 2.90527E+01 0.00000E+00
 -1       446 3.38436E+01 3.63119E+01 0.00000E+00
 -1       447 5.19600E+00 3.82125E+01 0.00000E+00
 -1       448 2.55750E+01 4.60671E+01 0.00000E+00
 -1       449 2.89169E+01 2.76917E+01 0.00000E+00
 -1       450 2.66652E+01 2.67728E+01 0.00000E+00
 -1       451 2.49133E+01 2.65189E+01 0.00000E+00
 -1       452 2.26169E+01 2.68964E+01 0.00000E+00
 -1       453 2.07583E+01 2.73210E+01 0.00000E+00
 -1       454 1.90033E+01 2.81817E+01 0.00000E+00
 -1       455 1.73381E+01 2.92179E+01 0.00000E+00
 -1       456 1.59583E+01 3.13196E+01 0.00000E+00
 -1       457 1.50420E+01 3.28855E+01 0.00000E+00
 -1       458 1.44958E+01 3.51887E+01 0.00000E+00
 -1       459 1.45630E+01 3.69567E+01 0.00000E+00
 -1       460 1.50686E+01 3.91216E+01 0.00000E+00
 -1       461 1.58471E+01 4.08524E+01 0.00000E+00
 -1       462 1.69812E+01 4.28764E+01 0.00000E+00
 -1       463 3.11568E+01 4.32791E+01 0.00000E+00
 -1       464 3.22278E+01 4.15210E+01 0.00000E+00
 -1       465 3.30578E+01 3.98849E+01 0.00000E+00
 -1       466 3.37584E+01 3.81427E+01 0.00000E+00
 -1       467 3.35772E+01 3.40426E+01 0.00000E+00
 -1       468 1.44702E+02 4.35498E+01 0.00000E+00
 -1       469 3.01541E+01 4.43060E+01 0.00000E+00
 -1       470 2.37809E+01 4.61116E+01 0.00000E+00
 -1       471 1.57284E+01 2.95398E+01 0.00000E+00
 -1       472 7.58138E+00 3.08500E+01 0.00000E+00
 -1       473 7.58138E+00 3.38000E+01 0.00000E+00
 -1       474 7.79400E+00 2.49500E+01 0.00000E+00
 -1       475 7.79400E+00 2.20000E+01 0.00000E+00
 -1       476 7.79400E+00 1.91000E+01 0.00000E+00
 -1       477 7.79400E+00 1.61500E+01 0.00000E+00
 -1       478 7.79400E+00 1.32000E+01 0.00000E+00
 -1       479 7.79400E+00 1.02500E+01 0.00000E+00
 -1       480 7.79400E+00 7.30000E+00 0.00000E+00
 -1       481 8.16450E+00 5.65312E+00 0.00000E+00
 -1       482 3.36380E+01 3.05210E+01 0.00000E+00
 -1       483 1.05000E+01 4.24186E+01 0.00000E+00
 -1       484 3.22635E+01 2.86786E+01 0.00000E+00
 -1       485 1.35000E+01 4.24186E+01 0.00000E+00
 -1       486 2.83758E+01 2.57994E+01 0.00000E+00
 -1       487 7.84800E+00 4.17843E+01 0.00000E+00
 -1       488 3.31541E+01 4.43060E+01 0.00000E+00
 -1       489 3.61541E+01 4.43060E+01 0.00000E+00
 -1       490 3.91541E+01 4.43060E+01 0.00000E+00
 -1       491 4.21541E+01 4.43060E+01 0.00000E+00
 -1       492 4.50041E+01 4.43060E+01 0.00000E+00
 -1       493 4.80041E+01 4.43060E+01 0.00000E+00
 -1       494 5.10041E+01 4.43060E+01 0.00000E+00
 -1       495 5.40041E+01 4.43060E+01 0.00000E+00
 -1       496 5.70041E+01 4.43060E+01 0.00000E+00
 -1       497 6.00041E+01 4.43060E+01 0.00000E+00
 -1       498 6.30041E+01 4.43060E+01 0.00000E+00
 -1       499 6.60041E+01 4.43060E+01 0.00000E+00
 -1       500 6.90041E+01 4.43060E+01 0.00000E+00
 -1       501 7.20041E+01 4.43060E+01 0.00000E+00
 -1       502 7.50041E+01 4.43060E+01 0.00000E+00
 -1       503 7.80041E+01 4.43060E+01 0.00000E+00
 -1       504 8.10041E+01 4.43060E+01 0.00000E+00
 -1       505 8.40041E+01 4.43060E+01 0.00000E+00
 -1       506 8.70041E+01 4.43060E+01 0.00000E+00
 -1       507 9.00041E+01 4.43060E+01 0.00000E+00
 -1       508 9.30041E+01 4.43060E+01 0.00000E+00
 -1       509 9.58541E+01 4.43060E+01 0.00000E+00
 -1       510 9.88541E+01 4.43060E+01 0.00000E+00
 -1       511 1.01854E+02 4.43060E+01 0.00000E+00
 -1       512 1.04854E+02 4.43060E+01 0.00000E+00
 -1       513 1.07854E+02 4.43060E+01 0.00000E+00
 -1       514 1.10854E+02 4.43060E+01 0.00000E+00
 -1       515 1.13854E+02 4.43060E+01 0.00000E+00
 -1       516 1.16854E+02 4.43060E+01 0.00000E+00
 -1       517 1.19854E+02 4.43060E+01 0.00000E+00
 -1       518 1.22854E+02 4.43060E+01 0.00000E+00
 -1       519 1.25854E+02 4.43060E+01 0.00000E+00
 -1       520 1.28854E+02 4.43060E+01 0.00000E+00
 -1       521 1.31854E+02 4.43060E+01 0.00000E+00
 -1       522 1.34854E+02 4.43060E+01 0.00000E+00
 -1       523 1.37854E+02 4.43060E+01 0.00000E+00
 -1       524 1.40854E+02 4.43060E+01 0.00000E+00
 -1       525 1.42778E+02 4.39279E+01 0.00000E+00
 -1       526 2.08740E+01 7.38350E+00 0.00000E+00
 -1       527 1.78740E+01 7.38350E+00 0.00000E+00
 -1       528 1.48740E+01 7.38350E+00 0.00000E+00
 -1       529 2.38740E+01 7.38350E+00 0.00000E+00
 -1       530 2.68740E+01 7.38350E+00 0.00000E+00
 -1       531 2.98740E+01 7.38350E+00 0.00000E+00
 -1       532 3.28740E+01 7.38350E+00 0.00000E+00
 -1       533 3.58740E+01 7.38350E+00 0.00000E+00
 -1       534 3.88740E+01 7.38350E+00 0.00000E+00
 -1       535 4.18740E+01 7.38350E+00 0.00000E+00
 -1       536 4.48740E+01 7.38350E+00 0.00000E+00
 -1       537 4.78740E+01 7.38350E+00 0.00000E+00
 -1       538 5.08740E+01 7.38350E+00 0.00000E+00
 -1       539 5.38740E+01 7.38350E+00 0.00000E+00
 -1       540 5.68740E+01 7.38350E+00 0.00000E+00
 -1       541 5.98740E+01 7.38350E+00 0.00000E+00
 -1       542 6.28740E+01 7.38350E+00 0.00000E+00
 -1       543 6.58740E+01 7.38350E+00 0.00000E+00
 -1       544 6.88740E+01 7.38350E+00 0.00000E+00
 -1       545 7.18740E+01 7.38350E+00 0.00000E+00
 -1       546 7.48740E+01 7.38350E+00 0.00000E+00
 -1       547 7.78740E+01 7.38350E+00 0.00000E+00
 -1       548 8.08740E+01 7.38350E+00 0.00000E+00
 -1       549 8.38740E+01 7.38350E+00 0.00000E+00
 -1       550 8.68740E+01 7.38350E+00 0.00000E+00
 -1       551 8.98740E+01 7.38350E+00 0.00000E+00
 -1       552 9.28740E+01 7.38350E+00 0.00000E+00
 -1       553 9.58740E+01 7.38350E+00 0.00000E+00
 -1       554 9.88740E+01 7.38350E+00 0.00000E+00
 -1       555 1.01874E+02 7.38350E+00 0.00000E+00
 -1       556 1.04874E+02 7.38350E+00 0.00000E+00
 -1       557 1.07874E+02 7.38350E+00 0.00000E+00
 -1       558 1.10874E+02 7.38350E+00 0.00000E+00
 -1       559 1.13874E+02 7.38350E+00 0.00000E+00
 -1       560 1.16874E+02 7.38350E+00 0.00000E+00
 -1       561 1.19874E+02 7.38350E+00 0.00000E+00
 -1       562 1.22874E+02 7.38350E+00 0.00000E+00
 -1       563 1.25874E+02 7.38350E+00 0.00000E+00
 -1       564 1.28874E+02 7.38350E+00 0.00000E+00
 -1       565 1.31874E+02 7.38350E+00 0.00000E+00
 -1       566 1.34874E+02 7.38350E+00 0.00000E+00
 -1       567 1.37874E+02 7.38350E+00 0.00000E+00
 -1       568 1.40874E+02 7.38350E+00 0.00000E+00
 -1       569 1.42206E+02 1.61750E+01 0.00000E+00
 -1       570 1.42206E+02 1.32750E+01 0.00000E+00
 -1       571 1.42206E+02 1.03250E+01 0.00000E+00
 -1       572 3.54138E+01 3.49773E+01 0.00000E+00
 -1       573 1.42206E+02 1.91250E+01 0.00000E+00
 -1       574 1.42206E+02 2.20750E+01 0.00000E+00
 -1       575 1.42206E+02 2.50250E+01 0.00000E+00
 -1       576 1.42206E+02 2.79750E+01 0.00000E+00
 -1       577 1.42206E+02 3.08750E+01 0.00000E+00
 -1       578 1.42206E+02 3.38250E+01 0.00000E+00
 -1       579 1.42206E+02 3.67750E+01 0.00000E+00
 -1       580 1.42206E+02 3.97250E+01 0.00000E+00
 -1       581 3.08180E+01 2.71088E+01 0.00000E+00
 -1       582 3.48439E+01 3.95912E+01 0.00000E+00
 -1       583 7.79400E+00 2.79000E+01 0.00000E+00
 -1       584 3.51795E+01 3.72914E+01 0.00000E+00
 -1       585 2.13243E+01 2.55184E+01 0.00000E+00
 -1       586 2.60351E+01 2.49485E+01 0.00000E+00
 -1       587 1.40465E+01 4.06218E+01 0.00000E+00
 -1       588 2.36206E+01 2.51409E+01 0.00000E+00
 -1       589 1.91625E+01 2.62867E+01 0.00000E+00
 -1       590 1.72645E+01 2.72436E+01 0.00000E+00
 -1       591 1.40922E+01 3.12787E+01 0.00000E+00
 -1       592 1.32632E+01 3.36801E+01 0.00000E+00
 -1       593 1.30667E+01 3.61283E+01 0.00000E+00
 -1       594 1.33088E+01 3.83911E+01 0.00000E+00
 -1       595 3.39482E+01 4.13651E+01 0.00000E+00
 -1       596 3.45921E+01 3.25150E+01 0.00000E+00
 -1       597 7.58138E+00 3.67375E+01 0.00000E+00
 -1       598 1.05840E+01 6.04275E+00 0.00000E+00
 -1       599 1.27290E+01 6.71313E+00 0.00000E+00
 -1       600 7.71469E+00 3.92609E+01 0.00000E+00
 -1       601 1.56548E+01 2.75655E+01 0.00000E+00
 -1       602 3.32277E+01 4.29843E+01 0.00000E+00
 -1       603 1.42492E+02 4.18264E+01 0.00000E+00
 -1       604 1.49910E+01 4.26618E+01 0.00000E+00
 -1       605 1.03920E+01 2.05500E+01 0.00000E+00
 -1       606 1.03920E+01 2.35000E+01 0.00000E+00
 -1       607 1.03920E+01 1.46750E+01 0.00000E+00
 -1       608 1.03920E+01 1.17250E+01 0.00000E+00
 -1       609 1.02135E+01 7.68962E+00 0.00000E+00
 -1       610 1.39608E+02 2.35500E+01 0.00000E+00
 -1       611 1.39608E+02 1.47250E+01 0.00000E+00
 -1       612 3.76541E+01 4.17531E+01 0.00000E+00
 -1       613 4.06541E+01 4.17531E+01 0.00000E+00
 -1       614 4.35041E+01 4.17531E+01 0.00000E+00
 -1       615 4.65041E+01 4.17531E+01 0.00000E+00
 -1       616 4.95041E+01 4.17531E+01 0.00000E+00
 -1       617 5.25041E+01 4.17531E+01 0.00000E+00
 -1       618 5.55041E+01 4.17531E+01 0.00000E+00
 -1       619 5.85041E+01 4.17531E+01 0.00000E+00
 -1       620 6.15041E+01 4.17531E+01 0.00000E+00
 -1       621 6.45041E+01 4.17531E+01 0.00000E+00
 -1       622 6.75041E+01 4.17531E+01 0.00000E+00
 -1       623 7.05041E+01 4.17531E+01 0.00000E+00
 -1       624 7.35041E+01 4.17531E+01 0.00000E+00
 -1       625 7.65041E+01 4.17531E+01 0.00000E+00
 -1       626 7.95041E+01 4.17531E+01 0.00000E+00
 -1       627 8.25041E+01 4.17531E+01 0.00000E+00
 -1       628 8.55041E+01 4.17531E+01 0.00000E+00
 -1       629 8.85041E+01 4.17531E+01 0.00000E+00
 -1       630 9.15041E+01 4.17531E+01 0.00000E+00
 -1       631 9.43541E+01 4.17531E+01 0.00000E+00
 -1       632 9.73541E+01 4.17531E+01 0.00000E+00
 -1       633 1.00354E+02 4.17531E+01 0.00000E+00
 -1       634 1.03354E+02 4.17531E+01 0.00000E+00
 -1       635 1.06354E+02 4.17531E+01 0.00000E+00
 -1       636 1.09354E+02 4.17531E+01 0.00000E+00
 -1       637 1.12354E+02 4.17531E+01 0.00000E+00
 -1       638 1.15354E+02 4.17531E+01 0.00000E+00
 -1       639 1.18354E+02 4.17531E+01 0.00000E+00
 -1       640 1.21354E+02 4.17531E+01 0.00000E+00
 -1       641 1.24354E+02 4.17531E+01 0.00000E+00
 -1       642 1.27354E+02 4.17531E+01 0.00000E+00
 -1       643 1.30354E+02 4.17531E+01 0.00000E+00
 -1       644 1.33354E+02 4.17531E+01 0.00000E+00
 -1       645 1.36354E+02 4.17531E+01 0.00000E+00
 -1       646 1.39354E+02 4.17531E+01 0.00000E+00
 -1       647 1.93740E+01 9.98150E+00 0.00000E+00
 -1       648 2.23740E+01 9.98150E+00 0.00000E+00
 -1       649 1.63740E+01 9.98150E+00 0.00000E+00
 -1       650 2.83740E+01 9.98150E+00 0.00000E+00
 -1       651 3.13740E+01 9.98150E+00 0.00000E+00
 -1       652 3.43740E+01 9.98150E+00 0.00000E+00
 -1       653 3.73740E+01 9.98150E+00 0.00000E+00
 -1       654 4.03740E+01 9.98150E+00 0.00000E+00
 -1       655 4.33740E+01 9.98150E+00 0.00000E+00
 -1       656 4.63740E+01 9.98150E+00 0.00000E+00
 -1       657 4.93740E+01 9.98150E+00 0.00000E+00
 -1       658 5.23740E+01 9.98150E+00 0.00000E+00
 -1       659 5.53740E+01 9.98150E+00 0.00000E+00
 -1       660 5.83740E+01 9.98150E+00 0.00000E+00
 -1       661 6.13740E+01 9.98150E+00 0.00000E+00
 -1       662 6.43740E+01 9.98150E+00 0.00000E+00
 -1       663 6.73740E+01 9.98150E+00 0.00000E+00
 -1       664 7.03740E+01 9.98150E+00 0.00000E+00
 -1       665 7.33740E+01 9.98150E+00 0.00000E+00
 -1       666 7.63740E+01 9.98150E+00 0.00000E+00
 -1       667 7.93740E+01 9.98150E+00 0.00000E+00
 -1       668 8.23740E+01 9.98150E+00 0.00000E+00
 -1       669 8.53740E+01 9.98150E+00 0.00000E+00
 -1       670 8.83740E+01 9.98150E+00 0.00000E+00
 -1       671 9.13740E+01 9.98150E+00 0.00000E+00
 -1       672 9.43740E+01 9.98150E+00 0.00000E+00
 -1       673 9.73740E+01 9.98150E+00 0.00000E+00
 -1       674 1.00374E+02 9.98150E+00 0.00000E+00
 -1       675 1.03374E+02 9.98150E+00 0.00000E+00
 -1       676 1.06374E+02 9.98150E+00 0.00000E+00
 -1       677 1.09374E+02 9.98150E+00 0.00000E+00
 -1       678 1.12374E+02 9.98150E+00 0.00000E+00
 -1       679 1.15374E+02 9.98150E+00 0.00000E+00
 -1       680 1.18374E+02 9.98150E+00 0.00000E+00
 -1       681 1.21374E+02 9.98150E+00 0.00000E+00
 -1       682 1.24374E+02 9.98150E+00 0.00000E+00
 -1       683 1.27374E+02 9.98150E+00 0.00000E+00
 -1       684 1.30374E+02 9.98150E+00 0.00000E+00
 -1       685 1.33374E+02 9.98150E+00 0.00000E+00
 -1       686 1.36374E+02 9.98150E+00 0.00000E+00
 -1       687 1.39290E+02 1.01532E+01 0.00000E+00
 -1       688 3.57775E+01 4.11756E+01 0.00000E+00
 -1       689 1.39608E+02 2.06000E+01 0.00000E+00
 -1       690 1.03667E+01 3.98952E+01 0.00000E+00
 -1       691 1.39449E+02 1.24391E+01 0.00000E+00
 -1       692 1.39608E+02 1.76625E+01 0.00000E+00
 -1       693 2.53740E+01 9.98150E+00 0.00000E+00
 -1       694 1.39608E+02 2.65000E+01 0.00000E+00
 -1       695 1.39608E+02 2.94000E+01 0.00000E+00
 -1       696 1.39608E+02 3.23500E+01 0.00000E+00
 -1       697 1.39608E+02 3.53000E+01 0.00000E+00
 -1       698 1.39608E+02 3.82500E+01 0.00000E+00
 -1       699 2.77915E+01 2.37621E+01 0.00000E+00
 -1       700 1.00669E+01 2.95465E+01 0.00000E+00
 -1       701 3.29257E+01 2.66184E+01 0.00000E+00
 -1       702 1.03920E+01 1.76125E+01 0.00000E+00
 -1       703 1.37223E+01 2.92913E+01 0.00000E+00
 -1       704 1.00669E+01 3.24965E+01 0.00000E+00
 -1       705 3.43002E+01 2.84608E+01 0.00000E+00
 -1       706 3.69478E+01 3.30971E+01 0.00000E+00
 -1       707 1.13158E+01 3.74600E+01 0.00000E+00
 -1       708 3.67088E+01 3.86890E+01 0.00000E+00
 -1       709 2.46916E+01 2.33350E+01 0.00000E+00
 -1       710 1.95007E+01 2.38128E+01 0.00000E+00
 -1       711 1.14553E+01 3.47670E+01 0.00000E+00
 -1       712 3.56622E+01 3.07777E+01 0.00000E+00
 -1       713 1.27623E+01 4.01878E+01 0.00000E+00
 -1       714 2.21399E+01 2.33065E+01 0.00000E+00
 -1       715 1.76026E+01 2.47697E+01 0.00000E+00
 -1       716 1.03920E+01 2.64500E+01 0.00000E+00
 -1       717 1.18981E+01 3.18650E+01 0.00000E+00
 -1       718 3.04865E+01 2.47949E+01 0.00000E+00
 -1       719 3.71698E+01 3.63240E+01 0.00000E+00
 -1       720 1.33741E+01 9.98153E+00 0.00000E+00
 -1       721 2.64479E+01 2.21486E+01 0.00000E+00
 -1       722 1.59930E+01 2.50916E+01 0.00000E+00
 -1       723 3.53080E+01 4.29402E+01 0.00000E+00
 -1       724 1.29900E+01 2.20250E+01 0.00000E+00
 -1       725 1.29900E+01 1.32000E+01 0.00000E+00
 -1       726 1.34345E+01 2.70242E+01 0.00000E+00
 -1       727 1.37010E+02 2.79500E+01 0.00000E+00
 -1       728 1.48741E+01 1.25795E+01 0.00000E+00
 -1       729 2.34405E+01 2.11031E+01 0.00000E+00
 -1       730 3.89370E+01 3.45814E+01 0.00000E+00
 -1       731 1.25523E+01 2.99149E+01 0.00000E+00
 -1       732 1.37010E+02 2.50000E+01 0.00000E+00
 -1       733 4.20791E+01 3.91551E+01 0.00000E+00
 -1       734 4.50791E+01 3.91551E+01 0.00000E+00
 -1       735 4.80791E+01 3.91551E+01 0.00000E+00
 -1       736 5.10791E+01 3.91551E+01 0.00000E+00
 -1       737 5.40791E+01 3.91551E+01 0.00000E+00
 -1       738 5.70791E+01 3.91551E+01 0.00000E+00
 -1       739 6.00791E+01 3.91551E+01 0.00000E+00
 -1       740 6.30791E+01 3.91551E+01 0.00000E+00
 -1       741 6.60791E+01 3.91551E+01 0.00000E+00
 -1       742 6.90791E+01 3.91551E+01 0.00000E+00
 -1       743 7.20791E+01 3.91551E+01 0.00000E+00
 -1       744 7.50791E+01 3.91551E+01 0.00000E+00
 -1       745 7.80791E+01 3.91551E+01 0.00000E+00
 -1       746 8.10791E+01 3.91551E+01 0.00000E+00
 -1       747 8.40791E+01 3.91551E+01 0.00000E+00
 -1       748 8.70791E+01 3.91551E+01 0.00000E+00
 -1       749 9.00791E+01 3.91551E+01 0.00000E+00
 -1       750 9.29291E+01 3.91551E+01 0.00000E+00
 -1       751 9.59291E+01 3.91551E+01 0.00000E+00
 -1       752 9.89291E+01 3.91551E+01 0.00000E+00
 -1       753 1.01929E+02 3.91551E+01 0.00000E+00
 -1       754 1.04929E+02 3.91551E+01 0.00000E+00
 -1       755 1.07929E+02 3.91551E+01 0.00000E+00
 -1       756 1.10929E+02 3.91551E+01 0.00000E+00
 -1       757 1.13929E+02 3.91551E+01 0.00000E+00
 -1       758 1.16929E+02 3.91551E+01 0.00000E+00
 -1       759 1.19929E+02 3.91551E+01 0.00000E+00
 -1       760 1.22929E+02 3.91551E+01 0.00000E+00
 -1       761 1.25929E+02 3.91551E+01 0.00000E+00
 -1       762 1.28929E+02 3.91551E+01 0.00000E+00
 -1       763 1.31929E+02 3.91551E+01 0.00000E+00
 -1       764 1.34929E+02 3.91551E+01 0.00000E+00
 -1       765 1.37269E+02 3.87025E+01 0.00000E+00
 -1       766 2.08740E+01 1.25795E+01 0.00000E+00
 -1       767 1.78740E+01 1.25795E+01 0.00000E+00
 -1       768 3.28740E+01 1.25795E+01 0.00000E+00
 -1       769 2.98740E+01 1.25795E+01 0.00000E+00
 -1       770 3.88740E+01 1.25795E+01 0.00000E+00
 -1       771 4.18740E+01 1.25795E+01 0.00000E+00
 -1       772 4.48740E+01 1.25795E+01 0.00000E+00
 -1       773 4.78740E+01 1.25795E+01 0.00000E+00
 -1       774 5.08740E+01 1.25795E+01 0.00000E+00
 -1       775 5.38740E+01 1.25795E+01 0.00000E+00
 -1       776 5.68740E+01 1.25795E+01 0.00000E+00
 -1       777 5.98740E+01 1.25795E+01 0.00000E+00
 -1       778 6.28740E+01 1.25795E+01 0.00000E+00
 -1       779 6.58740E+01 1.25795E+01 0.00000E+00
 -1       780 6.88740E+01 1.25795E+01 0.00000E+00
 -1       781 7.18740E+01 1.25795E+01 0.00000E+00
 -1       782 7.48740E+01 1.25795E+01 0.00000E+00
 -1       783 7.78740E+01 1.25795E+01 0.00000E+00
 -1       784 8.08740E+01 1.25795E+01 0.00000E+00
 -1       785 8.38740E+01 1.25795E+01 0.00000E+00
 -1       786 8.68740E+01 1.25795E+01 0.00000E+00
 -1       787 8.98740E+01 1.25795E+01 0.00000E+00
 -1       788 9.28740E+01 1.25795E+01 0.00000E+00
 -1       789 9.58740E+01 1.25795E+01 0.00000E+00
 -1       790 9.88740E+01 1.25795E+01 0.00000E+00
 -1       791 1.01874E+02 1.25795E+01 0.00000E+00
 -1       792 1.04874E+02 1.25795E+01 0.00000E+00
 -1       793 1.07874E+02 1.25795E+01 0.00000E+00
 -1       794 1.10874E+02 1.25795E+01 0.00000E+00
 -1       795 1.13874E+02 1.25795E+01 0.00000E+00
 -1       796 1.16874E+02 1.25795E+01 0.00000E+00
 -1       797 1.19874E+02 1.25795E+01 0.00000E+00
 -1       798 1.22874E+02 1.25795E+01 0.00000E+00
 -1       799 1.25874E+02 1.25795E+01 0.00000E+00
 -1       800 1.28874E+02 1.25795E+01 0.00000E+00
 -1       801 1.31874E+02 1.25795E+01 0.00000E+00
 -1       802 1.34874E+02 1.25795E+01 0.00000E+00
 -1       803 1.37161E+02 1.25093E+01 0.00000E+00
 -1       804 1.37010E+02 2.20500E+01 0.00000E+00
 -1       805 1.37010E+02 3.38250E+01 0.00000E+00
 -1       806 1.37139E+02 3.62638E+01 0.00000E+00
 -1       807 2.98127E+01 2.25204E+01 0.00000E+00
 -1       808 3.51219E+01 2.64138E+01 0.00000E+00
 -1       809 3.58740E+01 1.25795E+01 0.00000E+00
 -1       810 1.37010E+02 3.08875E+01 0.00000E+00
 -1       811 3.86227E+01 3.78346E+01 0.00000E+00
 -1       812 3.66042E+01 2.86651E+01 0.00000E+00
 -1       813 1.75532E+01 2.23109E+01 0.00000E+00
 -1       814 3.81384E+01 3.97938E+01 0.00000E+00
 -1       815 3.29337E+01 2.40645E+01 0.00000E+00
 -1       816 2.04656E+01 2.17107E+01 0.00000E+00
 -1       817 3.80982E+01 3.09435E+01 0.00000E+00
 -1       818 1.29900E+01 1.61375E+01 0.00000E+00
 -1       819 2.68740E+01 1.25795E+01 0.00000E+00
 -1       820 4.03900E+01 3.60920E+01 0.00000E+00
 -1       821 1.37010E+02 1.61938E+01 0.00000E+00
 -1       822 1.59435E+01 2.26328E+01 0.00000E+00
 -1       823 1.29900E+01 1.90875E+01 0.00000E+00
 -1       824 1.37010E+02 1.91219E+01 0.00000E+00
 -1       825 2.38740E+01 1.25795E+01 0.00000E+00
 -1       826 2.84691E+01 2.09070E+01 0.00000E+00
 -1       827 4.00874E+01 3.24277E+01 0.00000E+00
 -1       828 1.31925E+01 2.42958E+01 0.00000E+00
 -1       829 4.65791E+01 3.65571E+01 0.00000E+00
 -1       830 4.95791E+01 3.65571E+01 0.00000E+00
 -1       831 5.25791E+01 3.65571E+01 0.00000E+00
 -1       832 5.55791E+01 3.65571E+01 0.00000E+00
 -1       833 5.85791E+01 3.65571E+01 0.00000E+00
 -1       834 6.15791E+01 3.65571E+01 0.00000E+00
 -1       835 6.45791E+01 3.65571E+01 0.00000E+00
 -1       836 6.75791E+01 3.65571E+01 0.00000E+00
 -1       837 7.05791E+01 3.65571E+01 0.00000E+00
 -1       838 7.35791E+01 3.65571E+01 0.00000E+00
 -1       839 7.65791E+01 3.65571E+01 0.00000E+00
 -1       840 7.95791E+01 3.65571E+01 0.00000E+00
 -1       841 8.25791E+01 3.65571E+01 0.00000E+00
 -1       842 8.55791E+01 3.65571E+01 0.00000E+00
 -1       843 8.85791E+01 3.65571E+01 0.00000E+00
 -1       844 9.14291E+01 3.65571E+01 0.00000E+00
 -1       845 9.44291E+01 3.65571E+01 0.00000E+00
 -1       846 9.74291E+01 3.65571E+01 0.00000E+00
 -1       847 1.00429E+02 3.65571E+01 0.00000E+00
 -1       848 1.03429E+02 3.65571E+01 0.00000E+00
 -1       849 1.06429E+02 3.65571E+01 0.00000E+00
 -1       850 1.09429E+02 3.65571E+01 0.00000E+00
 -1       851 1.12429E+02 3.65571E+01 0.00000E+00
 -1       852 1.15429E+02 3.65571E+01 0.00000E+00
 -1       853 1.18429E+02 3.65571E+01 0.00000E+00
 -1       854 1.21429E+02 3.65571E+01 0.00000E+00
 -1       855 1.24429E+02 3.65571E+01 0.00000E+00
 -1       856 1.27429E+02 3.65571E+01 0.00000E+00
 -1       857 1.30429E+02 3.65571E+01 0.00000E+00
 -1       858 1.33429E+02 3.65571E+01 0.00000E+00
 -1       859 1.35284E+02 3.64104E+01 0.00000E+00
 -1       860 1.48741E+01 1.55170E+01 0.00000E+00
 -1       861 3.13740E+01 1.51775E+01 0.00000E+00
 -1       862 2.56725E+01 1.95310E+01 0.00000E+00
 -1       863 4.33740E+01 1.51775E+01 0.00000E+00
 -1       864 4.03740E+01 1.51775E+01 0.00000E+00
 -1       865 4.93740E+01 1.51775E+01 0.00000E+00
 -1       866 5.23740E+01 1.51775E+01 0.00000E+00
 -1       867 5.53740E+01 1.51775E+01 0.00000E+00
 -1       868 5.83740E+01 1.51775E+01 0.00000E+00
 -1       869 6.13740E+01 1.51775E+01 0.00000E+00
 -1       870 6.43740E+01 1.51775E+01 0.00000E+00
 -1       871 6.73740E+01 1.51775E+01 0.00000E+00
 -1       872 7.03740E+01 1.51775E+01 0.00000E+00
 -1       873 7.33740E+01 1.51775E+01 0.00000E+00
 -1       874 7.63740E+01 1.51775E+01 0.00000E+00
 -1       875 7.93740E+01 1.51775E+01 0.00000E+00
 -1       876 8.23740E+01 1.51775E+01 0.00000E+00
 -1       877 8.53740E+01 1.51775E+01 0.00000E+00
 -1       878 8.83740E+01 1.51775E+01 0.00000E+00
 -1       879 9.13740E+01 1.51775E+01 0.00000E+00
 -1       880 9.43740E+01 1.51775E+01 0.00000E+00
 -1       881 9.73740E+01 1.51775E+01 0.00000E+00
 -1       882 1.00374E+02 1.51775E+01 0.00000E+00
 -1       883 1.03374E+02 1.51775E+01 0.00000E+00
 -1       884 1.06374E+02 1.51775E+01 0.00000E+00
 -1       885 1.09374E+02 1.51775E+01 0.00000E+00
 -1       886 1.12374E+02 1.51775E+01 0.00000E+00
 -1       887 1.15374E+02 1.51775E+01 0.00000E+00
 -1       888 1.18374E+02 1.51775E+01 0.00000E+00
 -1       889 1.21374E+02 1.51775E+01 0.00000E+00
 -1       890 1.24374E+02 1.51775E+01 0.00000E+00
 -1       891 1.27374E+02 1.51775E+01 0.00000E+00
 -1       892 1.30374E+02 1.51775E+01 0.00000E+00
 -1       893 1.33374E+02 1.51775E+01 0.00000E+00
 -1       894 1.34412E+02 2.35250E+01 0.00000E+00
 -1       895 3.56507E+01 2.37275E+01 0.00000E+00
 -1       896 4.63740E+01 1.51775E+01 0.00000E+00
 -1       897 4.35791E+01 3.65571E+01 0.00000E+00
 -1       898 1.34412E+02 2.64750E+01 0.00000E+00
 -1       899 3.23567E+01 2.13046E+01 0.00000E+00
 -1       900 3.90657E+01 2.86800E+01 0.00000E+00
 -1       901 2.15428E+01 1.93981E+01 0.00000E+00
 -1       902 3.75755E+01 2.64120E+01 0.00000E+00
 -1       903 1.85618E+01 1.98386E+01 0.00000E+00
 -1       904 1.33374E+02 1.81056E+01 0.00000E+00
 -1       905 2.83740E+01 1.51775E+01 0.00000E+00
 -1       906 4.15404E+01 3.39383E+01 0.00000E+00
 -1       907 1.69521E+01 2.01605E+01 0.00000E+00
 -1       908 1.33893E+02 2.08153E+01 0.00000E+00
 -1       909 1.34412E+02 2.94125E+01 0.00000E+00
 -1       910 2.37748E+01 1.78260E+01 0.00000E+00
 -1       911 1.93740E+01 1.51775E+01 0.00000E+00
 -1       912 3.43740E+01 1.51775E+01 0.00000E+00
 -1       913 1.71240E+01 1.53473E+01 0.00000E+00
 -1       914 3.50736E+01 2.09677E+01 0.00000E+00
 -1       915 3.10131E+01 1.96912E+01 0.00000E+00
 -1       916 1.35155E+02 3.39716E+01 0.00000E+00
 -1       917 3.73740E+01 1.51775E+01 0.00000E+00
 -1       918 1.49710E+01 1.96240E+01 0.00000E+00
 -1       919 2.23740E+01 1.51775E+01 0.00000E+00
 -1       920 4.10549E+01 3.01643E+01 0.00000E+00
 -1       921 1.34783E+02 3.16921E+01 0.00000E+00
 -1       922 2.53740E+01 1.51775E+01 0.00000E+00
 -1       923 1.50570E+01 1.72174E+01 0.00000E+00
 -1       924 5.10791E+01 3.39591E+01 0.00000E+00
 -1       925 5.40791E+01 3.39591E+01 0.00000E+00
 -1       926 5.70791E+01 3.39591E+01 0.00000E+00
 -1       927 6.00791E+01 3.39591E+01 0.00000E+00
 -1       928 6.30791E+01 3.39591E+01 0.00000E+00
 -1       929 6.60791E+01 3.39591E+01 0.00000E+00
 -1       930 6.90791E+01 3.39591E+01 0.00000E+00
 -1       931 7.20791E+01 3.39591E+01 0.00000E+00
 -1       932 7.50791E+01 3.39591E+01 0.00000E+00
 -1       933 7.80791E+01 3.39591E+01 0.00000E+00
 -1       934 8.10791E+01 3.39591E+01 0.00000E+00
 -1       935 8.40791E+01 3.39591E+01 0.00000E+00
 -1       936 8.70791E+01 3.39591E+01 0.00000E+00
 -1       937 8.99291E+01 3.39591E+01 0.00000E+00
 -1       938 9.29291E+01 3.39591E+01 0.00000E+00
 -1       939 9.59291E+01 3.39591E+01 0.00000E+00
 -1       940 9.89291E+01 3.39591E+01 0.00000E+00
 -1       941 1.01929E+02 3.39591E+01 0.00000E+00
 -1       942 1.04929E+02 3.39591E+01 0.00000E+00
 -1       943 1.07929E+02 3.39591E+01 0.00000E+00
 -1       944 1.10929E+02 3.39591E+01 0.00000E+00
 -1       945 1.13929E+02 3.39591E+01 0.00000E+00
 -1       946 1.16929E+02 3.39591E+01 0.00000E+00
 -1       947 1.19929E+02 3.39591E+01 0.00000E+00
 -1       948 1.22929E+02 3.39591E+01 0.00000E+00
 -1       949 1.25929E+02 3.39591E+01 0.00000E+00
 -1       950 1.28929E+02 3.39591E+01 0.00000E+00
 -1       951 1.31929E+02 3.39591E+01 0.00000E+00
 -1       952 4.50791E+01 3.39591E+01 0.00000E+00
 -1       953 5.38740E+01 1.77755E+01 0.00000E+00
 -1       954 5.08740E+01 1.77755E+01 0.00000E+00
 -1       955 5.98740E+01 1.77755E+01 0.00000E+00
 -1       956 6.28740E+01 1.77755E+01 0.00000E+00
 -1       957 6.58740E+01 1.77755E+01 0.00000E+00
 -1       958 6.88740E+01 1.77755E+01 0.00000E+00
 -1       959 7.18740E+01 1.77755E+01 0.00000E+00
 -1       960 7.48740E+01 1.77755E+01 0.00000E+00
 -1       961 7.78740E+01 1.77755E+01 0.00000E+00
 -1       962 8.08740E+01 1.77755E+01 0.00000E+00
 -1       963 8.38740E+01 1.77755E+01 0.00000E+00
 -1       964 8.68740E+01 1.77755E+01 0.00000E+00
 -1       965 8.98740E+01 1.77755E+01 0.00000E+00
 -1       966 9.28740E+01 1.77755E+01 0.00000E+00
 -1       967 9.58740E+01 1.77755E+01 0.00000E+00
 -1       968 9.88740E+01 1.77755E+01 0.00000E+00
 -1       969 1.01874E+02 1.77755E+01 0.00000E+00
 -1       970 1.04874E+02 1.77755E+01 0.00000E+00
 -1       971 1.07874E+02 1.77755E+01 0.00000E+00
 -1       972 1.10874E+02 1.77755E+01 0.00000E+00
 -1       973 1.13874E+02 1.77755E+01 0.00000E+00
 -1       974 1.16874E+02 1.77755E+01 0.00000E+00
 -1       975 1.19874E+02 1.77755E+01 0.00000E+00
 -1       976 1.22874E+02 1.77755E+01 0.00000E+00
 -1       977 1.25874E+02 1.77755E+01 0.00000E+00
 -1       978 1.28874E+02 1.77755E+01 0.00000E+00
 -1       979 1.31124E+02 1.79406E+01 0.00000E+00
 -1       980 4.03142E+01 2.62361E+01 0.00000E+00
 -1       981 5.68740E+01 1.77755E+01 0.00000E+00
 -1       982 4.18740E+01 1.77755E+01 0.00000E+00
 -1       983 2.80499E+01 1.82290E+01 0.00000E+00
 -1       984 1.31814E+02 2.50000E+01 0.00000E+00
 -1       985 3.85517E+01 2.36798E+01 0.00000E+00
 -1       986 4.80791E+01 3.39591E+01 0.00000E+00
 -1       987 1.96791E+01 1.70928E+01 0.00000E+00
 -1       988 2.98740E+01 1.77755E+01 0.00000E+00
 -1       989 4.25079E+01 3.16748E+01 0.00000E+00
 -1       990 3.88740E+01 1.77755E+01 0.00000E+00
 -1       991 1.31295E+02 2.22903E+01 0.00000E+00
 -1       992 1.73070E+01 1.70476E+01 0.00000E+00
 -1       993 3.37301E+01 1.93542E+01 0.00000E+00
 -1       994 4.78740E+01 1.77755E+01 0.00000E+00
 -1       995 4.23034E+01 2.77204E+01 0.00000E+00
 -1       996 3.79746E+01 2.09199E+01 0.00000E+00
 -1       997 4.48740E+01 1.77755E+01 0.00000E+00
 -1       998 1.31814E+02 2.79375E+01 0.00000E+00
 -1       999 6.73740E+01 2.03735E+01 0.00000E+00
 -1      1000 1.31210E+02 2.01154E+01 0.00000E+00
 -1      1001 3.28739E+01 1.77755E+01 0.00000E+00
 -1      1002 5.25791E+01 3.13611E+01 0.00000E+00
 -1      1003 5.55791E+01 3.13611E+01 0.00000E+00
 -1      1004 5.85791E+01 3.13611E+01 0.00000E+00
 -1      1005 6.15791E+01 3.13611E+01 0.00000E+00
 -1      1006 6.45791E+01 3.13611E+01 0.00000E+00
 -1      1007 6.75791E+01 3.13611E+01 0.00000E+00
 -1      1008 7.05791E+01 3.13611E+01 0.00000E+00
 -1      1009 7.35791E+01 3.13611E+01 0.00000E+00
 -1      1010 7.65791E+01 3.13611E+01 0.00000E+00
 -1      1011 7.95791E+01 3.13611E+01 0.00000E+00
 -1      1012 8.25791E+01 3.13611E+01 0.00000E+00
 -1      1013 8.55791E+01 3.13611E+01 0.00000E+00
 -1      1014 8.84291E+01 3.13611E+01 0.00000E+00
 -1      1015 9.14291E+01 3.13611E+01 0.00000E+00
 -1      1016 9.44291E+01 3.13611E+01 0.00000E+00
 -1      1017 9.74291E+01 3.13611E+01 0.00000E+00
 -1      1018 1.00429E+02 3.13611E+01 0.00000E+00
 -1      1019 1.03429E+02 3.13611E+01 0.00000E+00
 -1      1020 1.06429E+02 3.13611E+01 0.00000E+00
 -1      1021 1.09429E+02 3.13611E+01 0.00000E+00
 -1      1022 1.12429E+02 3.13611E+01 0.00000E+00
 -1      1023 1.15429E+02 3.13611E+01 0.00000E+00
 -1      1024 1.18429E+02 3.13611E+01 0.00000E+00
 -1      1025 1.21429E+02 3.13611E+01 0.00000E+00
 -1      1026 1.24429E+02 3.13611E+01 0.00000E+00
 -1      1027 1.27429E+02 3.13611E+01 0.00000E+00
 -1      1028 1.30429E+02 3.13611E+01 0.00000E+00
 -1      1029 6.43740E+01 2.03735E+01 0.00000E+00
 -1      1030 6.13740E+01 2.03735E+01 0.00000E+00
 -1      1031 7.03740E+01 2.03735E+01 0.00000E+00
 -1      1032 7.33740E+01 2.03735E+01 0.00000E+00
 -1      1033 7.63740E+01 2.03735E+01 0.00000E+00
 -1      1034 7.93740E+01 2.03735E+01 0.00000E+00
 -1      1035 8.23740E+01 2.03735E+01 0.00000E+00
 -1      1036 8.53740E+01 2.03735E+01 0.00000E+00
 -1      1037 8.83740E+01 2.03735E+01 0.00000E+00
 -1      1038 9.13740E+01 2.03735E+01 0.00000E+00
 -1      1039 9.43740E+01 2.03735E+01 0.00000E+00
 -1      1040 9.73740E+01 2.03735E+01 0.00000E+00
 -1      1041 1.00374E+02 2.03735E+01 0.00000E+00
 -1      1042 1.03374E+02 2.03735E+01 0.00000E+00
 -1      1043 1.06374E+02 2.03735E+01 0.00000E+00
 -1      1044 1.09374E+02 2.03735E+01 0.00000E+00
 -1      1045 1.12374E+02 2.03735E+01 0.00000E+00
 -1      1046 1.15374E+02 2.03735E+01 0.00000E+00
 -1      1047 1.18374E+02 2.03735E+01 0.00000E+00
 -1      1048 1.21374E+02 2.03735E+01 0.00000E+00
 -1      1049 1.24374E+02 2.03735E+01 0.00000E+00
 -1      1050 1.27374E+02 2.03735E+01 0.00000E+00
 -1      1051 4.65791E+01 3.13611E+01 0.00000E+00
 -1      1052 5.53740E+01 2.03735E+01 0.00000E+00
 -1      1053 5.83740E+01 2.03735E+01 0.00000E+00
 -1      1054 2.63178E+01 1.69041E+01 0.00000E+00
 -1      1055 4.15347E+01 2.35088E+01 0.00000E+00
 -1      1056 3.58740E+01 1.77755E+01 0.00000E+00
 -1      1057 4.95791E+01 3.13611E+01 0.00000E+00
 -1      1058 5.23740E+01 2.03735E+01 0.00000E+00
 -1      1059 4.33740E+01 2.03735E+01 0.00000E+00
 -1      1060 1.29003E+02 2.41339E+01 0.00000E+00
 -1      1061 4.93740E+01 2.03735E+01 0.00000E+00
 -1      1062 1.29003E+02 2.70714E+01 0.00000E+00
 -1      1063 1.29292E+02 2.02445E+01 0.00000E+00
 -1      1064 4.35240E+01 2.49931E+01 0.00000E+00
 -1      1065 4.63740E+01 2.03735E+01 0.00000E+00
 -1      1066 4.37564E+01 2.92310E+01 0.00000E+00
 -1      1067 5.10791E+01 2.87631E+01 0.00000E+00
 -1      1068 4.03740E+01 2.03735E+01 0.00000E+00
 -1      1069 5.68740E+01 2.29715E+01 0.00000E+00
 -1      1070 5.40791E+01 2.87631E+01 0.00000E+00
 -1      1071 5.70791E+01 2.87631E+01 0.00000E+00
 -1      1072 6.00791E+01 2.87631E+01 0.00000E+00
 -1      1073 6.30791E+01 2.87631E+01 0.00000E+00
 -1      1074 6.60791E+01 2.87631E+01 0.00000E+00
 -1      1075 6.90791E+01 2.87631E+01 0.00000E+00
 -1      1076 7.20791E+01 2.87631E+01 0.00000E+00
 -1      1077 7.50791E+01 2.87631E+01 0.00000E+00
 -1      1078 7.80791E+01 2.87631E+01 0.00000E+00
 -1      1079 8.10791E+01 2.87631E+01 0.00000E+00
 -1      1080 8.40791E+01 2.87631E+01 0.00000E+00
 -1      1081 8.69291E+01 2.87631E+01 0.00000E+00
 -1      1082 8.99291E+01 2.87631E+01 0.00000E+00
 -1      1083 9.29291E+01 2.87631E+01 0.00000E+00
 -1      1084 9.59291E+01 2.87631E+01 0.00000E+00
 -1      1085 9.89291E+01 2.87631E+01 0.00000E+00
 -1      1086 1.01929E+02 2.87631E+01 0.00000E+00
 -1      1087 1.04929E+02 2.87631E+01 0.00000E+00
 -1      1088 1.07929E+02 2.87631E+01 0.00000E+00
 -1      1089 1.10929E+02 2.87631E+01 0.00000E+00
 -1      1090 1.13929E+02 2.87631E+01 0.00000E+00
 -1      1091 1.16929E+02 2.87631E+01 0.00000E+00
 -1      1092 1.19929E+02 2.87631E+01 0.00000E+00
 -1      1093 1.22929E+02 2.87631E+01 0.00000E+00
 -1      1094 1.25929E+02 2.87631E+01 0.00000E+00
 -1      1095 5.98740E+01 2.29715E+01 0.00000E+00
 -1      1096 7.18740E+01 2.29715E+01 0.00000E+00
 -1      1097 6.58740E+01 2.29715E+01 0.00000E+00
 -1      1098 4.80791E+01 2.87631E+01 0.00000E+00
 -1      1099 6.28740E+01 2.29715E+01 0.00000E+00
 -1      1100 7.48740E+01 2.29715E+01 0.00000E+00
 -1      1101 7.78740E+01 2.29715E+01 0.00000E+00
 -1      1102 8.08740E+01 2.29715E+01 0.00000E+00
 -1      1103 8.38740E+01 2.29715E+01 0.00000E+00
 -1      1104 8.68740E+01 2.29715E+01 0.00000E+00
 -1      1105 8.98740E+01 2.29715E+01 0.00000E+00
 -1      1106 9.28740E+01 2.29715E+01 0.00000E+00
 -1      1107 9.58740E+01 2.29715E+01 0.00000E+00
 -1      1108 9.88740E+01 2.29715E+01 0.00000E+00
 -1      1109 1.01874E+02 2.29715E+01 0.00000E+00
 -1      1110 1.04874E+02 2.29715E+01 0.00000E+00
 -1      1111 1.07874E+02 2.29715E+01 0.00000E+00
 -1      1112 1.10874E+02 2.29715E+01 0.00000E+00
 -1      1113 1.13874E+02 2.29715E+01 0.00000E+00
 -1      1114 1.16874E+02 2.29715E+01 0.00000E+00
 -1      1115 1.19874E+02 2.29715E+01 0.00000E+00
 -1      1116 1.22874E+02 2.29715E+01 0.00000E+00
 -1      1117 1.25874E+02 2.29715E+01 0.00000E+00
 -1      1118 6.88740E+01 2.29715E+01 0.00000E+00
 -1      1119 4.48740E+01 2.29715E+01 0.00000E+00
 -1      1120 5.38740E+01 2.29715E+01 0.00000E+00
 -1      1121 4.49769E+01 2.65037E+01 0.00000E+00
 -1      1122 1.25902E+02 2.58673E+01 0.00000E+00
 -1      1123 4.78740E+01 2.29715E+01 0.00000E+00
 -1      1124 5.08740E+01 2.29715E+01 0.00000E+00
 -1      1125 5.55791E+01 2.61651E+01 0.00000E+00
 -1      1126 5.85791E+01 2.61651E+01 0.00000E+00
 -1      1127 6.15791E+01 2.61651E+01 0.00000E+00
 -1      1128 6.45791E+01 2.61651E+01 0.00000E+00
 -1      1129 6.75791E+01 2.61651E+01 0.00000E+00
 -1      1130 7.05791E+01 2.61651E+01 0.00000E+00
 -1      1131 7.35791E+01 2.61651E+01 0.00000E+00
 -1      1132 7.65791E+01 2.61651E+01 0.00000E+00
 -1      1133 7.95791E+01 2.61651E+01 0.00000E+00
 -1      1134 8.25791E+01 2.61651E+01 0.00000E+00
 -1      1135 8.54291E+01 2.61651E+01 0.00000E+00
 -1      1136 8.84291E+01 2.61651E+01 0.00000E+00
 -1      1137 9.14291E+01 2.61651E+01 0.00000E+00
 -1      1138 9.44291E+01 2.61651E+01 0.00000E+00
 -1      1139 9.74291E+01 2.61651E+01 0.00000E+00
 -1      1140 1.00429E+02 2.61651E+01 0.00000E+00
 -1      1141 1.03429E+02 2.61651E+01 0.00000E+00
 -1      1142 1.06429E+02 2.61651E+01 0.00000E+00
 -1      1143 1.09429E+02 2.61651E+01 0.00000E+00
 -1      1144 1.12429E+02 2.61651E+01 0.00000E+00
 -1      1145 1.15429E+02 2.61651E+01 0.00000E+00
 -1      1146 1.18429E+02 2.61651E+01 0.00000E+00
 -1      1147 1.21429E+02 2.61651E+01 0.00000E+00
 -1      1148 4.95791E+01 2.61651E+01 0.00000E+00
 -1      1149 4.64255E+01 2.47376E+01 0.00000E+00
 -1      1150 5.25791E+01 2.61651E+01 0.00000E+00
 -1      1151 0.00000E+00 4.85250E+01 0.00000E+00
 -1      1152 0.00000E+00 4.55750E+01 0.00000E+00
 -1      1153 0.00000E+00 4.26250E+01 0.00000E+00
 -1      1154 0.00000E+00 3.96750E+01 0.00000E+00
 -1      1155 0.00000E+00 3.67250E+01 0.00000E+00
 -1      1156 0.00000E+00 3.38000E+01 0.00000E+00
 -1      1157 0.00000E+00 3.08750E+01 0.00000E+00
 -1      1158 0.00000E+00 2.79250E+01 0.00000E+00
 -1      1159 0.00000E+00 2.49750E+01 0.00000E+00
 -1      1160 0.00000E+00 2.20250E+01 0.00000E+00
 -1      1161 0.00000E+00 1.90750E+01 0.00000E+00
 -1      1162 0.00000E+00 1.61500E+01 0.00000E+00
 -1      1163 0.00000E+00 1.32250E+01 0.00000E+00
 -1      1164 0.00000E+00 1.02750E+01 0.00000E+00
 -1      1165 0.00000E+00 7.32500E+00 0.00000E+00
 -1      1166 0.00000E+00 4.37500E+00 0.00000E+00
 -1      1167 0.00000E+00 1.45000E+00 0.00000E+00
 -1      1168 1.50000E+00 5.00000E+01 0.00000E+00
 -1      1169 4.50000E+00 5.00000E+01 0.00000E+00
 -1      1170 7.50000E+00 5.00000E+01 0.00000E+00
 -1      1171 1.05000E+01 5.00000E+01 0.00000E+00
 -1      1172 1.35000E+01 5.00000E+01 0.00000E+00
 -1      1173 1.65000E+01 5.00000E+01 0.00000E+00
 -1      1174 1.93500E+01 5.00000E+01 0.00000E+00
 -1      1175 2.19000E+01 5.00000E+01 0.00000E+00
 -1      1176 2.43750E+01 5.00000E+01 0.00000E+00
 -1      1177 2.68500E+01 5.00000E+01 0.00000E+00
 -1      1178 2.93250E+01 5.00000E+01 0.00000E+00
 -1      1179 3.20250E+01 5.00000E+01 0.00000E+00
 -1      1180 3.49500E+01 5.00000E+01 0.00000E+00
 -1      1181 3.79500E+01 5.00000E+01 0.00000E+00
 -1      1182 4.09500E+01 5.00000E+01 0.00000E+00
 -1      1183 4.39500E+01 5.00000E+01 0.00000E+00
 -1      1184 4.68750E+01 5.00000E+01 0.00000E+00
 -1      1185 4.98000E+01 5.00000E+01 0.00000E+00
 -1      1186 5.28000E+01 5.00000E+01 0.00000E+00
 -1      1187 5.58000E+01 5.00000E+01 0.00000E+00
 -1      1188 5.88000E+01 5.00000E+01 0.00000E+00
 -1      1189 6.18000E+01 5.00000E+01 0.00000E+00
 -1      1190 6.48000E+01 5.00000E+01 0.00000E+00
 -1      1191 6.78000E+01 5.00000E+01 0.00000E+00
 -1      1192 7.08000E+01 5.00000E+01 0.00000E+00
 -1      1193 7.38000E+01 5.00000E+01 0.00000E+00
 -1      1194 7.68000E+01 5.00000E+01 0.00000E+00
 -1      1195 7.98000E+01 5.00000E+01 0.00000E+00
 -1      1196 8.28000E+01 5.00000E+01 0.00000E+00
 -1      1197 8.58000E+01 5.00000E+01 0.00000E+00
 -1      1198 8.88000E+01 5.00000E+01 0.00000E+00
 -1      1199 9.18000E+01 5.00000E+01 0.00000E+00
 -1      1200 9.48000E+01 5.00000E+01 0.00000E+00
 -1      1201 9.77250E+01 5.00000E+01 0.00000E+00
 -1      1202 1.00650E+02 5.00000E+01 0.00000E+00
 -1      1203 1.03650E+02 5.00000E+01 0.00000E+00
 -1      1204 1.06650E+02 5.00000E+01 0.00000E+00
 -1      1205 1.09650E+02 5.00000E+01 0.00000E+00
 -1      1206 1.12650E+02 5.00000E+01 0.00000E+00
 -1      1207 1.15650E+02 5.00000E+01 0.00000E+00
 -1      1208 1.18650E+02 5.00000E+01 0.00000E+00
 -1      1209 1.21650E+02 5.00000E+01 0.00000E+00
 -1      1210 1.24650E+02 5.00000E+01 0.00000E+00
 -1      1211 1.27650E+02 5.00000E+01 0.00000E+00
 -1      1212 1.30650E+02 5.00000E+01 0.00000E+00
 -1      1213 1.33650E+02 5.00000E+01 0.00000E+00
 -1      1214 1.36650E+02 5.00000E+01 0.00000E+00
 -1      1215 1.39650E+02 5.00000E+01 0.00000E+00
 -1      1216 1.42650E+02 5.00000E+01 0.00000E+00
 -1      1217 1.45650E+02 5.00000E+01 0.00000E+00
 -1      1218 1.48575E+02 5.00000E+01 0.00000E+00
 -1      1219 1.57500E+00 0.00000E+00 0.00000E+00
 -1      1220 4.65000E+00 0.00000E+00 0.00000E+00
 -1      1221 7.65000E+00 0.00000E+00 0.00000E+00
 -1      1222 1.06500E+01 0.00000E+00 0.00000E+00
 -1      1223 1.36500E+01 0.00000E+00 0.00000E+00
 -1      1224 1.66500E+01 0.00000E+00 0.00000E+00
 -1      1225 1.96500E+01 0.00000E+00 0.00000E+00
 -1      1226 2.26500E+01 0.00000E+00 0.00000E+00
 -1      1227 2.56500E+01 0.00000E+00 0.00000E+00
 -1      1228 2.86500E+01 0.00000E+00 0.00000E+00
 -1      1229 3.16500E+01 0.00000E+00 0.00000E+00
 -1      1230 3.46500E+01 0.00000E+00 0.00000E+00
 -1      1231 3.76500E+01 0.00000E+00 0.00000E+00
 -1      1232 4.06500E+01 0.00000E+00 0.00000E+00
 -1      1233 4.36500E+01 0.00000E+00 0.00000E+00
 -1      1234 4.66500E+01 0.00000E+00 0.00000E+00
 -1      1235 4.96500E+01 0.00000E+00 0.00000E+00
 -1      1236 5.26500E+01 0.00000E+00 0.00000E+00
 -1      1237 5.56500E+01 0.00000E+00 0.00000E+00
 -1      1238 5.86500E+01 0.00000E+00 0.00000E+00
 -1      1239 6.16500E+01 0.00000E+00 0.00000E+00
 -1      1240 6.46500E+01 0.00000E+00 0.00000E+00
 -1      1241 6.76500E+01 0.00000E+00 0.00000E+00
 -1      1242 7.06500E+01 0.00000E+00 0.00000E+00
 -1      1243 7.36500E+01 0.00000E+00 0.00000E+00
 -1      1244 7.66500E+01 0.00000E+00 0.00000E+00
 -1      1245 7.96500E+01 0.00000E+00 0.00000E+00
 -1      1246 8.26500E+01 0.00000E+00 0.00000E+00
 -1      1247 8.56500E+01 0.00000E+00 0.00000E+00
 -1      1248 8.86500E+01 0.00000E+00 0.00000E+00
 -1      1249 9.16500E+01 0.00000E+00 0.00000E+00
 -1      1250 9.46500E+01 0.00000E+00 0.00000E+00
 -1      1251 9.76500E+01 0.00000E+00 0.00000E+00
 -1      1252 1.00650E+02 0.00000E+00 0.00000E+00
 -1      1253 1.03650E+02 0.00000E+00 0.00000E+00
 -1      1254 1.06650E+02 0.00000E+00 0.00000E+00
 -1      1255 1.09650E+02 0.00000E+00 0.00000E+00
 -1      1256 1.12650E+02 0.00000E+00 0.00000E+00
 -1      1257 1.15650E+02 0.00000E+00 0.00000E+00
 -1      1258 1.18650E+02 0.00000E+00 0.00000E+00
 -1      1259 1.21650E+02 0.00000E+00 0.00000E+00
 -1      1260 1.24650E+02 0.00000E+00 0.00000E+00
 -1      1261 1.27650E+02 0.00000E+00 0.00000E+00
 -1      1262 1.30650E+02 0.00000E+00 0.00000E+00
 -1      1263 1.33650E+02 0.00000E+00 0.00000E+00
 -1      1264 1.36650E+02 0.00000E+00 0.00000E+00
 -1      1265 1.39650E+02 0.00000E+00 0.00000E+00
 -1      1266 1.42650E+02 0.00000E+00 0.00000E+00
 -1      1267 1.45650E+02 0.00000E+00 0.00000E+00
 -1      1268 1.48575E+02 0.00000E+00 0.00000E+00
 -1      1269 1.50000E+02 1.47500E+00 0.00000E+00
 -1      1270 1.50000E+02 4.42500E+00 0.00000E+00
 -1      1271 1.50000E+02 7.37500E+00 0.00000E+00
 -1      1272 1.50000E+02 1.03250E+01 0.00000E+00
 -1      1273 1.50000E+02 1.32750E+01 0.00000E+00
 -1      1274 1.50000E+02 1.62000E+01 0.00000E+00
 -1      1275 1.50000E+02 1.91250E+01 0.00000E+00
 -1      1276 1.50000E+02 2.20750E+01 0.00000E+00
 -1      1277 1.50000E+02 2.50250E+01 0.00000E+00
 -1      1278 1.50000E+02 2.79750E+01 0.00000E+00
 -1      1279 1.50000E+02 3.09250E+01 0.00000E+00
 -1      1280 1.50000E+02 3.38500E+01 0.00000E+00
 -1      1281 1.50000E+02 3.67750E+01 0.00000E+00
 -1      1282 1.50000E+02 3.97250E+01 0.00000E+00
 -1      1283 1.50000E+02 4.26750E+01 0.00000E+00
 -1      1284 1.50000E+02 4.56250E+01 0.00000E+00
 -1      1285 1.50000E+02 4.85500E+01 0.00000E+00
 -1      1286 3.12135E+01 3.54781E+01 0.00000E+00
 -1      1287 3.08775E+01 3.39816E+01 0.00000E+00
 -1      1288 3.02281E+01 3.26015E+01 0.00000E+00
 -1      1289 2.93011E+01 3.14010E+01 0.00000E+00
 -1      1290 2.81795E+01 3.04566E+01 0.00000E+00
 -1      1291 2.68380E+01 2.97474E+01 0.00000E+00
 -1      1292 2.53652E+01 2.93424E+01 0.00000E+00
 -1      1293 2.38727E+01 2.92646E+01 0.00000E+00
 -1      1294 2.23971E+01 2.95056E+01 0.00000E+00
 -1      1295 2.10392E+01 3.00373E+01 0.00000E+00
 -1      1296 1.98032E+01 3.08534E+01 0.00000E+00
 -1      1297 1.87528E+01 3.19288E+01 0.00000E+00
 -1      1298 1.79725E+01 3.31703E+01 0.00000E+00
 -1      1299 1.74602E+01 3.45781E+01 0.00000E+00
 -1      1300 1.72595E+01 3.60517E+01 0.00000E+00
 -1      1301 1.73783E+01 3.75536E+01 0.00000E+00
 -1      1302 1.78270E+01 3.90217E+01 0.00000E+00
 -1      1303 1.85565E+01 4.03172E+01 0.00000E+00
 -1      1304 1.95243E+01 4.14121E+01 0.00000E+00
 -1      1305 2.06761E+01 4.22690E+01 0.00000E+00
 -1      1306 2.19595E+01 4.28664E+01 0.00000E+00
 -1      1307 2.33496E+01 4.31951E+01 0.00000E+00
 -1      1308 2.47808E+01 4.32344E+01 0.00000E+00
 -1      1309 2.61444E+01 4.29947E+01 0.00000E+00
 -1      1310 2.74459E+01 4.24853E+01 0.00000E+00
 -1      1311 2.86216E+01 4.17265E+01 0.00000E+00
 -1      1312 2.96464E+01 4.07207E+01 0.00000E+00
 -1      1313 3.04382E+01 3.95385E+01 0.00000E+00
 -1      1314 3.09563E+01 3.82823E+01 0.00000E+00
 -1      1315 3.12225E+01 3.69441E+01 0.00000E+00
 -1      1316 1.50000E+00 4.85250E+01 0.00000E+00
 -1      1317 1.29900E+00 4.48375E+01 0.00000E+00
 -1      1318 1.29900E+00 4.63125E+01 0.00000E+00
 -1      1319 1.29900E+00 4.18875E+01 0.00000E+00
 -1      1320 1.29900E+00 4.33625E+01 0.00000E+00
 -1      1321 2.59800E+00 4.41000E+01 0.00000E+00
 -1      1322 1.29900E+00 3.89375E+01 0.00000E+00
 -1      1323 1.29900E+00 4.04125E+01 0.00000E+00
 -1      1324 2.59800E+00 4.11500E+01 0.00000E+00
 -1      1325 1.29900E+00 3.59875E+01 0.00000E+00
 -1      1326 1.29900E+00 3.74625E+01 0.00000E+00
 -1      1327 2.59800E+00 3.82000E+01 0.00000E+00
 -1      1328 1.29900E+00 3.30875E+01 0.00000E+00
 -1      1329 1.29900E+00 3.45375E+01 0.00000E+00
 -1      1330 2.59800E+00 3.52750E+01 0.00000E+00
 -1      1331 1.29900E+00 3.01375E+01 0.00000E+00
 -1      1332 1.29900E+00 3.16125E+01 0.00000E+00
 -1      1333 2.59800E+00 3.23500E+01 0.00000E+00
 -1      1334 1.29900E+00 2.71875E+01 0.00000E+00
 -1      1335 1.29900E+00 2.86625E+01 0.00000E+00
 -1      1336 2.59800E+00 2.94000E+01 0.00000E+00
 -1      1337 1.29900E+00 2.42375E+01 0.00000E+00
 -1      1338 1.29900E+00 2.57125E+01 0.00000E+00
 -1      1339 2.59800E+00 2.64500E+01 0.00000E+00
 -1      1340 1.29900E+00 2.12875E+01 0.00000E+00
 -1      1341 1.29900E+00 2.27625E+01 0.00000E+00
 -1      1342 2.59800E+00 2.35000E+01 0.00000E+00
 -1      1343 1.29900E+00 1.83375E+01 0.00000E+00
 -1      1344 1.29900E+00 1.98125E+01 0.00000E+00
 -1      1345 2.59800E+00 2.05500E+01 0.00000E+00
 -1      1346 1.29900E+00 1.54375E+01 0.00000E+00
 -1      1347 1.29900E+00 1.68875E+01 0.00000E+00
 -1      1348 2.59800E+00 1.76250E+01 0.00000E+00
 -1      1349 1.29900E+00 1.24875E+01 0.00000E+00
 -1      1350 1.29900E+00 1.39625E+01 0.00000E+00
 -1      1351 2.59800E+00 1.47000E+01 0.00000E+00
 -1      1352 1.29900E+00 9.53750E+00 0.00000E+00
 -1      1353 1.29900E+00 1.10125E+01 0.00000E+00
 -1      1354 2.59800E+00 1.17500E+01 0.00000E+00
 -1      1355 1.29900E+00 6.58750E+00 0.00000E+00
 -1      1356 1.29900E+00 8.06250E+00 0.00000E+00
 -1      1357 2.59800E+00 8.80000E+00 0.00000E+00
 -1      1358 1.29900E+00 3.63750E+00 0.00000E+00
 -1      1359 1.29900E+00 5.11250E+00 0.00000E+00
 -1      1360 2.59800E+00 5.85000E+00 0.00000E+00
 -1      1361 1.43700E+00 1.09375E+00 0.00000E+00
 -1      1362 1.43700E+00 2.54375E+00 0.00000E+00
 -1      1363 2.73600E+00 3.28125E+00 0.00000E+00
 -1      1364 3.01200E+00 1.09375E+00 0.00000E+00
 -1      1365 3.75000E+00 4.87010E+01 0.00000E+00
 -1      1366 5.25000E+00 4.87010E+01 0.00000E+00
 -1      1367 6.75000E+00 4.87010E+01 0.00000E+00
 -1      1368 8.25000E+00 4.87010E+01 0.00000E+00
 -1      1369 6.00000E+00 4.74020E+01 0.00000E+00
 -1      1370 9.75000E+00 4.87010E+01 0.00000E+00
 -1      1371 1.12500E+01 4.87010E+01 0.00000E+00
 -1      1372 9.00000E+00 4.74020E+01 0.00000E+00
 -1      1373 1.27500E+01 4.87010E+01 0.00000E+00
 -1      1374 1.42500E+01 4.87010E+01 0.00000E+00
 -1      1375 1.20000E+01 4.74020E+01 0.00000E+00
 -1      1376 1.57500E+01 4.87010E+01 0.00000E+00
 -1      1377 1.72500E+01 4.87010E+01 0.00000E+00
 -1      1378 1.50000E+01 4.74020E+01 0.00000E+00
 -1      1379 1.86000E+01 4.87010E+01 0.00000E+00
 -1      1380 1.99500E+01 4.87010E+01 0.00000E+00
 -1      1381 1.78500E+01 4.74020E+01 0.00000E+00
 -1      1382 2.37375E+01 4.88911E+01 0.00000E+00
 -1      1383 2.50125E+01 4.88911E+01 0.00000E+00
 -1      1384 2.62125E+01 4.88911E+01 0.00000E+00
 -1      1385 2.74125E+01 4.88911E+01 0.00000E+00
 -1      1386 2.55750E+01 4.77822E+01 0.00000E+00
 -1      1387 2.86875E+01 4.88911E+01 0.00000E+00
 -1      1388 2.99625E+01 4.88911E+01 0.00000E+00
 -1      1389 2.80500E+01 4.77822E+01 0.00000E+00
 -1      1390 3.13875E+01 4.88911E+01 0.00000E+00
 -1      1391 3.28125E+01 4.88911E+01 0.00000E+00
 -1      1392 3.07500E+01 4.77822E+01 0.00000E+00
 -1      1393 3.43125E+01 4.88911E+01 0.00000E+00
 -1      1394 3.58125E+01 4.88911E+01 0.00000E+00
 -1      1395 3.36750E+01 4.77822E+01 0.00000E+00
 -1      1396 3.73125E+01 4.88911E+01 0.00000E+00
 -1      1397 3.88125E+01 4.88911E+01 0.00000E+00
 -1      1398 3.66750E+01 4.77822E+01 0.00000E+00
 -1      1399 4.03125E+01 4.88911E+01 0.00000E+00
 -1      1400 4.18125E+01 4.88911E+01 0.00000E+00
 -1      1401 3.96750E+01 4.77822E+01 0.00000E+00
 -1      1402 4.33125E+01 4.88911E+01 0.00000E+00
 -1      1403 4.48125E+01 4.88911E+01 0.00000E+00
 -1      1404 4.26750E+01 4.77822E+01 0.00000E+00
 -1      1405 4.62375E+01 4.88911E+01 0.00000E+00
 -1      1406 4.76625E+01 4.88911E+01 0.00000E+00
 -1      1407 4.56000E+01 4.77822E+01 0.00000E+00
 -1      1408 4.91625E+01 4.88911E+01 0.00000E+00
 -1      1409 5.06625E+01 4.88911E+01 0.00000E+00
 -1      1410 4.85250E+01 4.77822E+01 0.00000E+00
 -1      1411 5.21625E+01 4.88911E+01 0.00000E+00
 -1      1412 5.36625E+01 4.88911E+01 0.00000E+00
 -1      1413 5.15250E+01 4.77822E+01 0.00000E+00
 -1      1414 5.51625E+01 4.88911E+01 0.00000E+00
 -1      1415 5.66625E+01 4.88911E+01 0.00000E+00
 -1      1416 5.45250E+01 4.77822E+01 0.00000E+00
 -1      1417 5.81625E+01 4.88911E+01 0.00000E+00
 -1      1418 5.96625E+01 4.88911E+01 0.00000E+00
 -1      1419 5.75250E+01 4.77822E+01 0.00000E+00
 -1      1420 6.11625E+01 4.88911E+01 0.00000E+00
 -1      1421 6.26625E+01 4.88911E+01 0.00000E+00
 -1      1422 6.05250E+01 4.77822E+01 0.00000E+00
 -1      1423 6.41625E+01 4.88911E+01 0.00000E+00
 -1      1424 6.56625E+01 4.88911E+01 0.00000E+00
 -1      1425 6.35250E+01 4.77822E+01 0.00000E+00
 -1      1426 6.71625E+01 4.88911E+01 0.00000E+00
 -1      1427 6.86625E+01 4.88911E+01 0.00000E+00
 -1      1428 6.65250E+01 4.77822E+01 0.00000E+00
 -1      1429 7.01625E+01 4.88911E+01 0.00000E+00
 -1      1430 7.16625E+01 4.88911E+01 0.00000E+00
 -1      1431 6.95250E+01 4.77822E+01 0.00000E+00
 -1      1432 7.31625E+01 4.88911E+01 0.00000E+00
 -1      1433 7.46625E+01 4.88911E+01 0.00000E+00
 -1      1434 7.25250E+01 4.77822E+01 0.00000E+00
 -1      1435 7.61625E+01 4.88911E+01 0.00000E+00
 -1      1436 7.76625E+01 4.88911E+01 0.00000E+00
 -1      1437 7.55250E+01 4.77822E+01 0.00000E+00
 -1      1438 7.91625E+01 4.88911E+01 0.00000E+00
 -1      1439 8.06625E+01 4.88911E+01 0.00000E+00
 -1      1440 7.85250E+01 4.77822E+01 0.00000E+00
 -1      1441 8.21625E+01 4.88911E+01 0.00000E+00
 -1      1442 8.36625E+01 4.88911E+01 0.00000E+00
 -1      1443 8.15250E+01 4.77822E+01 0.00000E+00
 -1      1444 8.51625E+01 4.88911E+01 0.00000E+00
 -1      1445 8.66625E+01 4.88911E+01 0.00000E+00
 -1      1446 8.45250E+01 4.77822E+01 0.00000E+00
 -1      1447 8.81625E+01 4.88911E+01 0.00000E+00
 -1      1448 8.96625E+01 4.88911E+01 0.00000E+00
 -1      1449 8.75250E+01 4.77822E+01 0.00000E+00
 -1      1450 9.11625E+01 4.88911E+01 0.00000E+00
 -1      1451 9.26625E+01 4.88911E+01 0.00000E+00
 -1      1452 9.05250E+01 4.77822E+01 0.00000E+00
 -1      1453 9.41625E+01 4.88911E+01 0.00000E+00
 -1      1454 9.56625E+01 4.88911E+01 0.00000E+00
 -1      1455 9.35250E+01 4.77822E+01 0.00000E+00
 -1      1456 9.70875E+01 4.88911E+01 0.00000E+00
 -1      1457 9.85125E+01 4.88911E+01 0.00000E+00
 -1      1458 9.64500E+01 4.77822E+01 0.00000E+00
 -1      1459 1.00012E+02 4.88911E+01 0.00000E+00
 -1      1460 1.01512E+02 4.88911E+01 0.00000E+00
 -1      1461 9.93750E+01 4.77822E+01 0.00000E+00
 -1      1462 1.03012E+02 4.88911E+01 0.00000E+00
 -1      1463 1.04512E+02 4.88911E+01 0.00000E+00
 -1      1464 1.02375E+02 4.77822E+01 0.00000E+00
 -1      1465 1.06012E+02 4.88911E+01 0.00000E+00
 -1      1466 1.07512E+02 4.88911E+01 0.00000E+00
 -1      1467 1.05375E+02 4.77822E+01 0.00000E+00
 -1      1468 1.09012E+02 4.88911E+01 0.00000E+00
 -1      1469 1.10512E+02 4.88911E+01 0.00000E+00
 -1      1470 1.08375E+02 4.77822E+01 0.00000E+00
 -1      1471 1.12012E+02 4.88911E+01 0.00000E+00
 -1      1472 1.13512E+02 4.88911E+01 0.00000E+00
 -1      1473 1.11375E+02 4.77822E+01 0.00000E+00
 -1      1474 1.15012E+02 4.88911E+01 0.00000E+00
 -1      1475 1.16512E+02 4.88911E+01 0.00000E+00
 -1      1476 1.14375E+02 4.77822E+01 0.00000E+00
 -1      1477 1.18012E+02 4.88911E+01 0.00000E+00
 -1      1478 1.19512E+02 4.88911E+01 0.00000E+00
 -1      1479 1.17375E+02 4.77822E+01 0.00000E+00
 -1      1480 1.21012E+02 4.88911E+01 0.00000E+00
 -1      1481 1.22512E+02 4.88911E+01 0.00000E+00
 -1      1482 1.20375E+02 4.77822E+01 0.00000E+00
 -1      1483 1.24012E+02 4.88911E+01 0.00000E+00
 -1      1484 1.25512E+02 4.88911E+01 0.00000E+00
 -1      1485 1.23375E+02 4.77822E+01 0.00000E+00
 -1      1486 1.27012E+02 4.88911E+01 0.00000E+00
 -1      1487 1.28512E+02 4.88911E+01 0.00000E+00
 -1      1488 1.26375E+02 4.77822E+01 0.00000E+00
 -1      1489 1.30012E+02 4.88911E+01 0.00000E+00
 -1      1490 1.31512E+02 4.88911E+01 0.00000E+00
 -1      1491 1.29375E+02 4.77822E+01 0.00000E+00
 -1      1492 1.33012E+02 4.88911E+01 0.00000E+00
 -1      1493 1.34512E+02 4.88911E+01 0.00000E+00
 -1      1494 1.32375E+02 4.77822E+01 0.00000E+00
 -1      1495 1.36012E+02 4.88911E+01 0.00000E+00
 -1      1496 1.37512E+02 4.88911E+01 0.00000E+00
 -1      1497 1.35375E+02 4.77822E+01 0.00000E+00
 -1      1498 1.39012E+02 4.88911E+01 0.00000E+00
 -1      1499 1.40512E+02 4.88911E+01 0.00000E+00
 -1      1500 1.38375E+02 4.77822E+01 0.00000E+00
 -1      1501 1.42012E+02 4.88911E+01 0.00000E+00
 -1      1502 1.43512E+02 4.88911E+01 0.00000E+00
 -1      1503 1.41375E+02 4.77822E+01 0.00000E+00
 -1      1504 1.45012E+02 4.88911E+01 0.00000E+00
 -1      1505 1.46512E+02 4.88911E+01 0.00000E+00
 -1      1506 1.44375E+02 4.77822E+01 0.00000E+00
 -1      1507 1.47544E+02 4.87205E+01 0.00000E+00
 -1      1508 1.48969E+02 4.87205E+01 0.00000E+00
 -1      1509 1.48969E+02 4.72705E+01 0.00000E+00
 -1      1510 1.46906E+02 4.76116E+01 0.00000E+00
 -1      1511 6.01200E+00 1.09375E+00 0.00000E+00
 -1      1512 4.51200E+00 1.09375E+00 0.00000E+00
 -1      1513 4.37400E+00 2.18750E+00 0.00000E+00
 -1      1514 9.01200E+00 1.09375E+00 0.00000E+00
 -1      1515 7.51200E+00 1.09375E+00 0.00000E+00
 -1      1516 7.37400E+00 2.18750E+00 0.00000E+00
 -1      1517 1.20120E+01 1.09375E+00 0.00000E+00
 -1      1518 1.05120E+01 1.09375E+00 0.00000E+00
 -1      1519 1.03740E+01 2.18750E+00 0.00000E+00
 -1      1520 1.50120E+01 1.09375E+00 0.00000E+00
 -1      1521 1.35120E+01 1.09375E+00 0.00000E+00
 -1      1522 1.33740E+01 2.18750E+00 0.00000E+00
 -1      1523 1.80120E+01 1.09375E+00 0.00000E+00
 -1      1524 1.65120E+01 1.09375E+00 0.00000E+00
 -1      1525 1.63740E+01 2.18750E+00 0.00000E+00
 -1      1526 2.10120E+01 1.09375E+00 0.00000E+00
 -1      1527 1.95120E+01 1.09375E+00 0.00000E+00
 -1      1528 1.93740E+01 2.18750E+00 0.00000E+00
 -1      1529 2.40120E+01 1.09375E+00 0.00000E+00
 -1      1530 2.25120E+01 1.09375E+00 0.00000E+00
 -1      1531 2.23740E+01 2.18750E+00 0.00000E+00
 -1      1532 2.70120E+01 1.09375E+00 0.00000E+00
 -1      1533 2.55120E+01 1.09375E+00 0.00000E+00
 -1      1534 2.53740E+01 2.18750E+00 0.00000E+00
 -1      1535 3.00120E+01 1.09375E+00 0.00000E+00
 -1      1536 2.85120E+01 1.09375E+00 0.00000E+00
 -1      1537 2.83740E+01 2.18750E+00 0.00000E+00
 -1      1538 3.30120E+01 1.09375E+00 0.00000E+00
 -1      1539 3.15120E+01 1.09375E+00 0.00000E+00
 -1      1540 3.13740E+01 2.18750E+00 0.00000E+00
 -1      1541 3.60120E+01 1.09375E+00 0.00000E+00
 -1      1542 3.45120E+01 1.09375E+00 0.00000E+00
 -1      1543 3.43740E+01 2.18750E+00 0.00000E+00
 -1      1544 3.90120E+01 1.09375E+00 0.00000E+00
 -1      1545 3.75120E+01 1.09375E+00 0.00000E+00
 -1      1546 3.73740E+01 2.18750E+00 0.00000E+00
 -1      1547 4.20120E+01 1.09375E+00 0.00000E+00
 -1      1548 4.05120E+01 1.09375E+00 0.00000E+00
 -1      1549 4.03740E+01 2.18750E+00 0.00000E+00
 -1      1550 4.50120E+01 1.09375E+00 0.00000E+00
 -1      1551 4.35120E+01 1.09375E+00 0.00000E+00
 -1      1552 4.33740E+01 2.18750E+00 0.00000E+00
 -1      1553 4.80120E+01 1.09375E+00 0.00000E+00
 -1      1554 4.65120E+01 1.09375E+00 0.00000E+00
 -1      1555 4.63740E+01 2.18750E+00 0.00000E+00
 -1      1556 5.10120E+01 1.09375E+00 0.00000E+00
 -1      1557 4.95120E+01 1.09375E+00 0.00000E+00
 -1      1558 4.93740E+01 2.18750E+00 0.00000E+00
 -1      1559 5.40120E+01 1.09375E+00 0.00000E+00
 -1      1560 5.25120E+01 1.09375E+00 0.00000E+00
 -1      1561 5.23740E+01 2.18750E+00 0.00000E+00
 -1      1562 5.70120E+01 1.09375E+00 0.00000E+00
 -1      1563 5.55120E+01 1.09375E+00 0.00000E+00
 -1      1564 5.53740E+01 2.18750E+00 0.00000E+00
 -1      1565 6.00120E+01 1.09375E+00 0.00000E+00
 -1      1566 5.85120E+01 1.09375E+00 0.00000E+00
 -1      1567 5.83740E+01 2.18750E+00 0.00000E+00
 -1      1568 6.30120E+01 1.09375E+00 0.00000E+00
 -1      1569 6.15120E+01 1.09375E+00 0.00000E+00
 -1      1570 6.13740E+01 2.18750E+00 0.00000E+00
 -1      1571 6.60120E+01 1.09375E+00 0.00000E+00
 -1      1572 6.45120E+01 1.09375E+00 0.00000E+00
 -1      1573 6.43740E+01 2.18750E+00 0.00000E+00
 -1      1574 6.90120E+01 1.09375E+00 0.00000E+00
 -1      1575 6.75120E+01 1.09375E+00 0.00000E+00
 -1      1576 6.73740E+01 2.18750E+00 0.00000E+00
 -1      1577 7.20120E+01 1.09375E+00 0.00000E+00
 -1      1578 7.05120E+01 1.09375E+00 0.00000E+00
 -1      1579 7.03740E+01 2.18750E+00 0.00000E+00
 -1      1580 7.50120E+01 1.09375E+00 0.00000E+00
 -1      1581 7.35120E+01 1.09375E+00 0.00000E+00
 -1      1582 7.33740E+01 2.18750E+00 0.00000E+00
 -1      1583 7.80120E+01 1.09375E+00 0.00000E+00
 -1      1584 7.65120E+01 1.09375E+00 0.00000E+00
 -1      1585 7.63740E+01 2.18750E+00 0.00000E+00
 -1      1586 8.10120E+01 1.09375E+00 0.00000E+00
 -1      1587 7.95120E+01 1.09375E+00 0.00000E+00
 -1      1588 7.93740E+01 2.18750E+00 0.00000E+00
 -1      1589 8.40120E+01 1.09375E+00 0.00000E+00
 -1      1590 8.25120E+01 1.09375E+00 0.00000E+00
 -1      1591 8.23740E+01 2.18750E+00 0.00000E+00
 -1      1592 8.70120E+01 1.09375E+00 0.00000E+00
 -1      1593 8.55120E+01 1.09375E+00 0.00000E+00
 -1      1594 8.53740E+01 2.18750E+00 0.00000E+00
 -1      1595 9.00120E+01 1.09375E+00 0.00000E+00
 -1      1596 8.85120E+01 1.09375E+00 0.00000E+00
 -1      1597 8.83740E+01 2.18750E+00 0.00000E+00
 -1      1598 9.30120E+01 1.09375E+00 0.00000E+00
 -1      1599 9.15120E+01 1.09375E+00 0.00000E+00
 -1      1600 9.13740E+01 2.18750E+00 0.00000E+00
 -1      1601 9.60120E+01 1.09375E+00 0.00000E+00
 -1      1602 9.45120E+01 1.09375E+00 0.00000E+00
 -1      1603 9.43740E+01 2.18750E+00 0.00000E+00
 -1      1604 9.90120E+01 1.09375E+00 0.00000E+00
 -1      1605 9.75120E+01 1.09375E+00 0.00000E+00
 -1      1606 9.73740E+01 2.18750E+00 0.00000E+00
 -1      1607 1.02012E+02 1.09375E+00 0.00000E+00
 -1      1608 1.00512E+02 1.09375E+00 0.00000E+00
 -1      1609 1.00374E+02 2.18750E+00 0.00000E+00
 -1      1610 1.05012E+02 1.09375E+00 0.00000E+00
 -1      1611 1.03512E+02 1.09375E+00 0.00000E+00
 -1      1612 1.03374E+02 2.18750E+00 0.00000E+00
 -1      1613 1.08012E+02 1.09375E+00 0.00000E+00
 -1      1614 1.06512E+02 1.09375E+00 0.00000E+00
 -1      1615 1.06374E+02 2.18750E+00 0.00000E+00
 -1      1616 1.11012E+02 1.09375E+00 0.00000E+00
 -1      1617 1.09512E+02 1.09375E+00 0.00000E+00
 -1      1618 1.09374E+02 2.18750E+00 0.00000E+00
 -1      1619 1.14012E+02 1.09375E+00 0.00000E+00
 -1      1620 1.12512E+02 1.09375E+00 0.00000E+00
 -1      1621 1.12374E+02 2.18750E+00 0.00000E+00
 -1      1622 1.17012E+02 1.09375E+00 0.00000E+00
 -1      1623 1.15512E+02 1.09375E+00 0.00000E+00
 -1      1624 1.15374E+02 2.18750E+00 0.00000E+00
 -1      1625 1.20012E+02 1.09375E+00 0.00000E+00
 -1      1626 1.18512E+02 1.09375E+00 0.00000E+00
 -1      1627 1.18374E+02 2.18750E+00 0.00000E+00
 -1      1628 1.23012E+02 1.09375E+00 0.00000E+00
 -1      1629 1.21512E+02 1.09375E+00 0.00000E+00
 -1      1630 1.21374E+02 2.18750E+00 0.00000E+00
 -1      1631 1.26012E+02 1.09375E+00 0.00000E+00
 -1      1632 1.24512E+02 1.09375E+00 0.00000E+00
 -1      1633 1.24374E+02 2.18750E+00 0.00000E+00
 -1      1634 1.29012E+02 1.09375E+00 0.00000E+00
 -1      1635 1.27512E+02 1.09375E+00 0.00000E+00
 -1      1636 1.27374E+02 2.18750E+00 0.00000E+00
 -1      1637 1.32012E+02 1.09375E+00 0.00000E+00
 -1      1638 1.30512E+02 1.09375E+00 0.00000E+00
 -1      1639 1.30374E+02 2.18750E+00 0.00000E+00
 -1      1640 1.35012E+02 1.09375E+00 0.00000E+00
 -1      1641 1.33512E+02 1.09375E+00 0.00000E+00
 -1      1642 1.33374E+02 2.18750E+00 0.00000E+00
 -1      1643 1.38012E+02 1.09375E+00 0.00000E+00
 -1      1644 1.36512E+02 1.09375E+00 0.00000E+00
 -1      1645 1.36374E+02 2.18750E+00 0.00000E+00
 -1      1646 1.41012E+02 1.09375E+00 0.00000E+00
 -1      1647 1.39512E+02 1.09375E+00 0.00000E+00
 -1      1648 1.39374E+02 2.18750E+00 0.00000E+00
 -1      1649 1.44012E+02 1.09375E+00 0.00000E+00
 -1      1650 1.42512E+02 1.09375E+00 0.00000E+00
 -1      1651 1.42374E+02 2.18750E+00 0.00000E+00
 -1      1652 1.47012E+02 1.09375E+00 0.00000E+00
 -1      1653 1.45512E+02 1.09375E+00 0.00000E+00
 -1      1654 1.45374E+02 2.18750E+00 0.00000E+00
 -1      1655 1.48575E+02 1.47500E+00 0.00000E+00
 -1      1656 1.48701E+02 5.16250E+00 0.00000E+00
 -1      1657 1.48701E+02 3.68750E+00 0.00000E+00
 -1      1658 1.48701E+02 8.11250E+00 0.00000E+00
 -1      1659 1.48701E+02 6.63750E+00 0.00000E+00
 -1      1660 1.47402E+02 5.90000E+00 0.00000E+00
 -1      1661 1.48701E+02 1.10625E+01 0.00000E+00
 -1      1662 1.48701E+02 9.58750E+00 0.00000E+00
 -1      1663 1.47402E+02 8.85000E+00 0.00000E+00
 -1      1664 1.48701E+02 1.40125E+01 0.00000E+00
 -1      1665 1.48701E+02 1.25375E+01 0.00000E+00
 -1      1666 1.47402E+02 1.18000E+01 0.00000E+00
 -1      1667 1.48701E+02 1.69125E+01 0.00000E+00
 -1      1668 1.48701E+02 1.54625E+01 0.00000E+00
 -1      1669 1.47402E+02 1.47250E+01 0.00000E+00
 -1      1670 1.48701E+02 1.98625E+01 0.00000E+00
 -1      1671 1.48701E+02 1.83875E+01 0.00000E+00
 -1      1672 1.47402E+02 1.76500E+01 0.00000E+00
 -1      1673 1.48701E+02 2.28125E+01 0.00000E+00
 -1      1674 1.48701E+02 2.13375E+01 0.00000E+00
 -1      1675 1.47402E+02 2.06000E+01 0.00000E+00
 -1      1676 1.48701E+02 2.57625E+01 0.00000E+00
 -1      1677 1.48701E+02 2.42875E+01 0.00000E+00
 -1      1678 1.47402E+02 2.35500E+01 0.00000E+00
 -1      1679 1.48701E+02 2.87125E+01 0.00000E+00
 -1      1680 1.48701E+02 2.72375E+01 0.00000E+00
 -1      1681 1.47402E+02 2.65000E+01 0.00000E+00
 -1      1682 1.48701E+02 3.16625E+01 0.00000E+00
 -1      1683 1.48701E+02 3.01875E+01 0.00000E+00
 -1      1684 1.47402E+02 2.94500E+01 0.00000E+00
 -1      1685 1.48701E+02 3.45625E+01 0.00000E+00
 -1      1686 1.48701E+02 3.31125E+01 0.00000E+00
 -1      1687 1.47402E+02 3.23750E+01 0.00000E+00
 -1      1688 1.48701E+02 3.75125E+01 0.00000E+00
 -1      1689 1.48701E+02 3.60375E+01 0.00000E+00
 -1      1690 1.47402E+02 3.53000E+01 0.00000E+00
 -1      1691 1.48701E+02 4.04625E+01 0.00000E+00
 -1      1692 1.48701E+02 3.89875E+01 0.00000E+00
 -1      1693 1.47402E+02 3.82500E+01 0.00000E+00
 -1      1694 1.48701E+02 4.34125E+01 0.00000E+00
 -1      1695 1.48701E+02 4.19375E+01 0.00000E+00
 -1      1696 1.47402E+02 4.12000E+01 0.00000E+00
 -1      1697 1.48835E+02 4.60790E+01 0.00000E+00
 -1      1698 1.48835E+02 4.46040E+01 0.00000E+00
 -1      1699 1.47536E+02 4.38665E+01 0.00000E+00
 -1      1700 1.47804E+02 4.62496E+01 0.00000E+00
 -1      1701 3.18133E+01 3.50208E+01 0.00000E+00
 -1      1702 3.18993E+01 3.57920E+01 0.00000E+00
 -1      1703 3.12889E+01 3.34397E+01 0.00000E+00
 -1      1704 3.15349E+01 3.41565E+01 0.00000E+00
 -1      1705 3.05090E+01 3.19799E+01 0.00000E+00
 -1      1706 3.09094E+01 3.26345E+01 0.00000E+00
 -1      1707 2.94492E+01 3.07386E+01 0.00000E+00
 -1      1708 2.99688E+01 3.12786E+01 0.00000E+00
 -1      1709 2.82252E+01 2.97494E+01 0.00000E+00
 -1      1710 2.88190E+01 3.01512E+01 0.00000E+00
 -1      1711 2.67189E+01 2.89622E+01 0.00000E+00
 -1      1712 2.74630E+01 2.92574E+01 0.00000E+00
 -1      1713 2.50964E+01 2.87237E+01 0.00000E+00
 -1      1714 2.58141E+01 2.88388E+01 0.00000E+00
 -1      1715 2.34539E+01 2.86389E+01 0.00000E+00
 -1      1716 2.42204E+01 2.85968E+01 0.00000E+00
 -1      1717 2.18955E+01 2.90543E+01 0.00000E+00
 -1      1718 2.25968E+01 2.88611E+01 0.00000E+00
 -1      1719 2.04536E+01 2.97009E+01 0.00000E+00
 -1      1720 2.11027E+01 2.93650E+01 0.00000E+00
 -1      1721 1.91271E+01 3.06232E+01 0.00000E+00
 -1      1722 1.97060E+01 3.01458E+01 0.00000E+00
 -1      1723 1.79438E+01 3.17717E+01 0.00000E+00
 -1      1724 1.84090E+01 3.11798E+01 0.00000E+00
 -1      1725 1.73039E+01 3.32395E+01 0.00000E+00
 -1      1726 1.76182E+01 3.25990E+01 0.00000E+00
 -1      1727 1.66578E+01 3.47844E+01 0.00000E+00
 -1      1728 1.68457E+01 3.40225E+01 0.00000E+00
 -1      1729 1.66788E+01 3.63862E+01 0.00000E+00
 -1      1730 1.66991E+01 3.56841E+01 0.00000E+00
 -1      1731 1.68616E+01 3.80603E+01 0.00000E+00
 -1      1732 1.67124E+01 3.72702E+01 0.00000E+00
 -1      1733 1.74498E+01 3.95819E+01 0.00000E+00
 -1      1734 1.71608E+01 3.89105E+01 0.00000E+00
 -1      1735 1.82474E+01 4.10017E+01 0.00000E+00
 -1      1736 1.78086E+01 4.03862E+01 0.00000E+00
 -1      1737 1.93984E+01 4.20709E+01 0.00000E+00
 -1      1738 1.88787E+01 4.15941E+01 0.00000E+00
 -1      1739 2.06565E+01 4.30159E+01 0.00000E+00
 -1      1740 2.00289E+01 4.26423E+01 0.00000E+00
 -1      1741 2.20952E+01 4.35197E+01 0.00000E+00
 -1      1742 2.14479E+01 4.32948E+01 0.00000E+00
 -1      1743 2.36392E+01 4.38466E+01 0.00000E+00
 -1      1744 2.29023E+01 4.37503E+01 0.00000E+00
 -1      1745 2.51670E+01 4.37793E+01 0.00000E+00
 -1      1746 2.44803E+01 4.38308E+01 0.00000E+00
 -1      1747 2.66336E+01 4.34512E+01 0.00000E+00
 -1      1748 2.59635E+01 4.36389E+01 0.00000E+00
 -1      1749 2.80184E+01 4.28336E+01 0.00000E+00
 -1      1750 2.73937E+01 4.31534E+01 0.00000E+00
 -1      1751 2.92766E+01 4.19884E+01 0.00000E+00
 -1      1752 2.87314E+01 4.24233E+01 0.00000E+00
 -1      1753 3.03509E+01 4.08250E+01 0.00000E+00
 -1      1754 2.98797E+01 4.13936E+01 0.00000E+00
 -1      1755 3.11045E+01 3.95050E+01 0.00000E+00
 -1      1756 3.07834E+01 4.01094E+01 0.00000E+00
 -1      1757 3.16031E+01 3.81258E+01 0.00000E+00
 -1      1758 3.14077E+01 3.87713E+01 0.00000E+00
 -1      1759 3.18259E+01 3.66572E+01 0.00000E+00
 -1      1760 3.17578E+01 3.73438E+01 0.00000E+00
 -1      1761 2.25375E+01 4.88911E+01 0.00000E+00
 -1      1762 2.31750E+01 4.77822E+01 0.00000E+00
 -1      1763 2.13375E+01 4.88911E+01 0.00000E+00
 -1      1764 3.06861E+01 3.12896E+01 0.00000E+00
 -1      1765 3.24686E+01 3.61951E+01 0.00000E+00
 -1      1766 1.48437E+02 2.56875E+00 0.00000E+00
 -1      1767 1.47138E+02 3.30625E+00 0.00000E+00
 -1      1768 3.22637E+01 3.44656E+01 0.00000E+00
 -1      1769 3.16058E+01 3.27961E+01 0.00000E+00
 -1      1770 2.95156E+01 3.00009E+01 0.00000E+00
 -1      1771 2.81231E+01 2.89215E+01 0.00000E+00
 -1      1772 2.64560E+01 2.83061E+01 0.00000E+00
 -1      1773 2.46753E+01 2.80558E+01 0.00000E+00
 -1      1774 2.29422E+01 2.81511E+01 0.00000E+00
 -1      1775 2.12923E+01 2.86839E+01 0.00000E+00
 -1      1776 1.97519E+01 2.94395E+01 0.00000E+00
 -1      1777 1.82861E+01 3.04411E+01 0.00000E+00
 -1      1778 1.72424E+01 3.18249E+01 0.00000E+00
 -1      1779 1.64587E+01 3.34352E+01 0.00000E+00
 -1      1780 1.60417E+01 3.51179E+01 0.00000E+00
 -1      1781 1.61166E+01 3.69016E+01 0.00000E+00
 -1      1782 1.64493E+01 3.86357E+01 0.00000E+00
 -1      1783 1.71073E+01 4.02902E+01 0.00000E+00
 -1      1784 1.80974E+01 4.16868E+01 0.00000E+00
 -1      1785 1.93592E+01 4.28506E+01 0.00000E+00
 -1      1786 2.07812E+01 4.37010E+01 0.00000E+00
 -1      1787 2.23797E+01 4.42105E+01 0.00000E+00
 -1      1788 2.40279E+01 4.44253E+01 0.00000E+00
 -1      1789 2.56655E+01 4.42692E+01 0.00000E+00
 -1      1790 2.72221E+01 4.38310E+01 0.00000E+00
 -1      1791 2.86952E+01 4.31228E+01 0.00000E+00
 -1      1792 3.00112E+01 4.21177E+01 0.00000E+00
 -1      1793 3.10468E+01 4.08073E+01 0.00000E+00
 -1      1794 3.17824E+01 3.93579E+01 0.00000E+00
 -1      1795 3.22403E+01 3.78422E+01 0.00000E+00
 -1      1796 2.79900E+00 4.77875E+01 0.00000E+00
 -1      1797 2.05875E+01 4.75921E+01 0.00000E+00
 -1      1798 3.89700E+00 4.04125E+01 0.00000E+00
 -1      1799 3.89700E+00 4.18875E+01 0.00000E+00
 -1      1800 3.89700E+00 4.33625E+01 0.00000E+00
 -1      1801 3.89700E+00 4.48375E+01 0.00000E+00
 -1      1802 5.19600E+00 4.26250E+01 0.00000E+00
 -1      1803 3.89700E+00 3.45500E+01 0.00000E+00
 -1      1804 3.89700E+00 3.60000E+01 0.00000E+00
 -1      1805 3.89700E+00 3.16000E+01 0.00000E+00
 -1      1806 3.89700E+00 3.30750E+01 0.00000E+00
 -1      1807 5.19600E+00 3.38000E+01 0.00000E+00
 -1      1808 3.89700E+00 2.86500E+01 0.00000E+00
 -1      1809 3.89700E+00 3.01250E+01 0.00000E+00
 -1      1810 5.19600E+00 3.08500E+01 0.00000E+00
 -1      1811 3.89700E+00 2.57000E+01 0.00000E+00
 -1      1812 3.89700E+00 2.71750E+01 0.00000E+00
 -1      1813 5.19600E+00 2.79000E+01 0.00000E+00
 -1      1814 3.89700E+00 2.27500E+01 0.00000E+00
 -1      1815 3.89700E+00 2.42250E+01 0.00000E+00
 -1      1816 5.19600E+00 2.49500E+01 0.00000E+00
 -1      1817 3.89700E+00 1.98000E+01 0.00000E+00
 -1      1818 3.89700E+00 2.12750E+01 0.00000E+00
 -1      1819 5.19600E+00 2.20000E+01 0.00000E+00
 -1      1820 3.89700E+00 1.69000E+01 0.00000E+00
 -1      1821 3.89700E+00 1.83500E+01 0.00000E+00
 -1      1822 5.19600E+00 1.90750E+01 0.00000E+00
 -1      1823 3.89700E+00 1.39500E+01 0.00000E+00
 -1      1824 3.89700E+00 1.54250E+01 0.00000E+00
 -1      1825 5.19600E+00 1.61500E+01 0.00000E+00
 -1      1826 3.89700E+00 1.10000E+01 0.00000E+00
 -1      1827 3.89700E+00 1.24750E+01 0.00000E+00
 -1      1828 5.19600E+00 1.32000E+01 0.00000E+00
 -1      1829 3.89700E+00 8.05000E+00 0.00000E+00
 -1      1830 3.89700E+00 9.52500E+00 0.00000E+00
 -1      1831 5.19600E+00 1.02500E+01 0.00000E+00
 -1      1832 3.89700E+00 5.10000E+00 0.00000E+00
 -1      1833 3.89700E+00 6.57500E+00 0.00000E+00
 -1      1834 5.19600E+00 7.30000E+00 0.00000E+00
 -1      1835 4.20450E+00 3.09687E+00 0.00000E+00
 -1      1836 4.06650E+00 4.19063E+00 0.00000E+00
 -1      1837 5.36550E+00 4.91563E+00 0.00000E+00
 -1      1838 5.70450E+00 3.09687E+00 0.00000E+00
 -1      1839 3.54900E+00 4.64885E+01 0.00000E+00
 -1      1840 8.70450E+00 3.09687E+00 0.00000E+00
 -1      1841 7.20450E+00 3.09687E+00 0.00000E+00
 -1      1842 7.03500E+00 4.00625E+00 0.00000E+00
 -1      1843 2.00329E+01 4.64814E+01 0.00000E+00
 -1      1844 2.14204E+01 4.66715E+01 0.00000E+00
 -1      1845 8.25000E+00 4.61030E+01 0.00000E+00
 -1      1846 9.75000E+00 4.61030E+01 0.00000E+00
 -1      1847 1.12500E+01 4.61030E+01 0.00000E+00
 -1      1848 1.27500E+01 4.61030E+01 0.00000E+00
 -1      1849 1.05000E+01 4.48040E+01 0.00000E+00
 -1      1850 1.42500E+01 4.61030E+01 0.00000E+00
 -1      1851 1.57500E+01 4.61030E+01 0.00000E+00
 -1      1852 1.35000E+01 4.48040E+01 0.00000E+00
 -1      1853 1.72164E+01 4.62922E+01 0.00000E+00
 -1      1854 1.85664E+01 4.62922E+01 0.00000E+00
 -1      1855 1.93993E+01 4.53716E+01 0.00000E+00
 -1      1856 1.64664E+01 4.49932E+01 0.00000E+00
 -1      1857 3.09294E+01 3.05434E+01 0.00000E+00
 -1      1858 3.14697E+01 3.12447E+01 0.00000E+00
 -1      1859 4.84800E+00 4.57510E+01 0.00000E+00
 -1      1860 2.74125E+01 4.68408E+01 0.00000E+00
 -1      1861 2.86875E+01 4.68408E+01 0.00000E+00
 -1      1862 3.01125E+01 4.68408E+01 0.00000E+00
 -1      1863 3.15375E+01 4.68408E+01 0.00000E+00
 -1      1864 2.94750E+01 4.58995E+01 0.00000E+00
 -1      1865 3.30375E+01 4.68408E+01 0.00000E+00
 -1      1866 3.45375E+01 4.68408E+01 0.00000E+00
 -1      1867 3.24000E+01 4.58995E+01 0.00000E+00
 -1      1868 3.60375E+01 4.68408E+01 0.00000E+00
 -1      1869 3.75375E+01 4.68408E+01 0.00000E+00
 -1      1870 3.54000E+01 4.58995E+01 0.00000E+00
 -1      1871 3.90375E+01 4.68408E+01 0.00000E+00
 -1      1872 4.05375E+01 4.68408E+01 0.00000E+00
 -1      1873 3.84000E+01 4.58995E+01 0.00000E+00
 -1      1874 4.20375E+01 4.68408E+01 0.00000E+00
 -1      1875 4.35375E+01 4.68408E+01 0.00000E+00
 -1      1876 4.14000E+01 4.58995E+01 0.00000E+00
 -1      1877 4.49625E+01 4.68408E+01 0.00000E+00
 -1      1878 4.63875E+01 4.68408E+01 0.00000E+00
 -1      1879 4.43250E+01 4.58995E+01 0.00000E+00
 -1      1880 4.78875E+01 4.68408E+01 0.00000E+00
 -1      1881 4.93875E+01 4.68408E+01 0.00000E+00
 -1      1882 4.72500E+01 4.58995E+01 0.00000E+00
 -1      1883 5.08875E+01 4.68408E+01 0.00000E+00
 -1      1884 5.23875E+01 4.68408E+01 0.00000E+00
 -1      1885 5.02500E+01 4.58995E+01 0.00000E+00
 -1      1886 5.38875E+01 4.68408E+01 0.00000E+00
 -1      1887 5.53875E+01 4.68408E+01 0.00000E+00
 -1      1888 5.32500E+01 4.58995E+01 0.00000E+00
 -1      1889 5.68875E+01 4.68408E+01 0.00000E+00
 -1      1890 5.83875E+01 4.68408E+01 0.00000E+00
 -1      1891 5.62500E+01 4.58995E+01 0.00000E+00
 -1      1892 5.98875E+01 4.68408E+01 0.00000E+00
 -1      1893 6.13875E+01 4.68408E+01 0.00000E+00
 -1      1894 5.92500E+01 4.58995E+01 0.00000E+00
 -1      1895 6.28875E+01 4.68408E+01 0.00000E+00
 -1      1896 6.43875E+01 4.68408E+01 0.00000E+00
 -1      1897 6.22500E+01 4.58995E+01 0.00000E+00
 -1      1898 6.58875E+01 4.68408E+01 0.00000E+00
 -1      1899 6.73875E+01 4.68408E+01 0.00000E+00
 -1      1900 6.52500E+01 4.58995E+01 0.00000E+00
 -1      1901 6.88875E+01 4.68408E+01 0.00000E+00
 -1      1902 7.03875E+01 4.68408E+01 0.00000E+00
 -1      1903 6.82500E+01 4.58995E+01 0.00000E+00
 -1      1904 7.18875E+01 4.68408E+01 0.00000E+00
 -1      1905 7.33875E+01 4.68408E+01 0.00000E+00
 -1      1906 7.12500E+01 4.58995E+01 0.00000E+00
 -1      1907 7.48875E+01 4.68408E+01 0.00000E+00
 -1      1908 7.63875E+01 4.68408E+01 0.00000E+00
 -1      1909 7.42500E+01 4.58995E+01 0.00000E+00
 -1      1910 7.78875E+01 4.68408E+01 0.00000E+00
 -1      1911 7.93875E+01 4.68408E+01 0.00000E+00
 -1      1912 7.72500E+01 4.58995E+01 0.00000E+00
 -1      1913 8.08875E+01 4.68408E+01 0.00000E+00
 -1      1914 8.23875E+01 4.68408E+01 0.00000E+00
 -1      1915 8.02500E+01 4.58995E+01 0.00000E+00
 -1      1916 8.38875E+01 4.68408E+01 0.00000E+00
 -1      1917 8.53875E+01 4.68408E+01 0.00000E+00
 -1      1918 8.32500E+01 4.58995E+01 0.00000E+00
 -1      1919 8.68875E+01 4.68408E+01 0.00000E+00
 -1      1920 8.83875E+01 4.68408E+01 0.00000E+00
 -1      1921 8.62500E+01 4.58995E+01 0.00000E+00
 -1      1922 8.98875E+01 4.68408E+01 0.00000E+00
 -1      1923 9.13875E+01 4.68408E+01 0.00000E+00
 -1      1924 8.92500E+01 4.58995E+01 0.00000E+00
 -1      1925 9.28875E+01 4.68408E+01 0.00000E+00
 -1      1926 9.43875E+01 4.68408E+01 0.00000E+00
 -1      1927 9.22500E+01 4.58995E+01 0.00000E+00
 -1      1928 9.58125E+01 4.68408E+01 0.00000E+00
 -1      1929 9.72375E+01 4.68408E+01 0.00000E+00
 -1      1930 9.51750E+01 4.58995E+01 0.00000E+00
 -1      1931 9.87375E+01 4.68408E+01 0.00000E+00
 -1      1932 1.00238E+02 4.68408E+01 0.00000E+00
 -1      1933 9.81000E+01 4.58995E+01 0.00000E+00
 -1      1934 1.01738E+02 4.68408E+01 0.00000E+00
 -1      1935 1.03238E+02 4.68408E+01 0.00000E+00
 -1      1936 1.01100E+02 4.58995E+01 0.00000E+00
 -1      1937 1.04738E+02 4.68408E+01 0.00000E+00
 -1      1938 1.06238E+02 4.68408E+01 0.00000E+00
 -1      1939 1.04100E+02 4.58995E+01 0.00000E+00
 -1      1940 1.07738E+02 4.68408E+01 0.00000E+00
 -1      1941 1.09238E+02 4.68408E+01 0.00000E+00
 -1      1942 1.07100E+02 4.58995E+01 0.00000E+00
 -1      1943 1.10738E+02 4.68408E+01 0.00000E+00
 -1      1944 1.12238E+02 4.68408E+01 0.00000E+00
 -1      1945 1.10100E+02 4.58995E+01 0.00000E+00
 -1      1946 1.13738E+02 4.68408E+01 0.00000E+00
 -1      1947 1.15238E+02 4.68408E+01 0.00000E+00
 -1      1948 1.13100E+02 4.58995E+01 0.00000E+00
 -1      1949 1.16738E+02 4.68408E+01 0.00000E+00
 -1      1950 1.18238E+02 4.68408E+01 0.00000E+00
 -1      1951 1.16100E+02 4.58995E+01 0.00000E+00
 -1      1952 1.19738E+02 4.68408E+01 0.00000E+00
 -1      1953 1.21238E+02 4.68408E+01 0.00000E+00
 -1      1954 1.19100E+02 4.58995E+01 0.00000E+00
 -1      1955 1.22738E+02 4.68408E+01 0.00000E+00
 -1      1956 1.24238E+02 4.68408E+01 0.00000E+00
 -1      1957 1.22100E+02 4.58995E+01 0.00000E+00
 -1      1958 1.25738E+02 4.68408E+01 0.00000E+00
 -1      1959 1.27238E+02 4.68408E+01 0.00000E+00
 -1      1960 1.25100E+02 4.58995E+01 0.00000E+00
 -1      1961 1.28738E+02 4.68408E+01 0.00000E+00
 -1      1962 1.30238E+02 4.68408E+01 0.00000E+00
 -1      1963 1.28100E+02 4.58995E+01 0.00000E+00
 -1      1964 1.31738E+02 4.68408E+01 0.00000E+00
 -1      1965 1.33238E+02 4.68408E+01 0.00000E+00
 -1      1966 1.31100E+02 4.58995E+01 0.00000E+00
 -1      1967 1.34738E+02 4.68408E+01 0.00000E+00
 -1      1968 1.36238E+02 4.68408E+01 0.00000E+00
 -1      1969 1.34100E+02 4.58995E+01 0.00000E+00
 -1      1970 1.37738E+02 4.68408E+01 0.00000E+00
 -1      1971 1.39238E+02 4.68408E+01 0.00000E+00
 -1      1972 1.37100E+02 4.58995E+01 0.00000E+00
 -1      1973 1.40738E+02 4.68408E+01 0.00000E+00
 -1      1974 1.42238E+02 4.68408E+01 0.00000E+00
 -1      1975 1.40100E+02 4.58995E+01 0.00000E+00
 -1      1976 1.43738E+02 4.68408E+01 0.00000E+00
 -1      1977 1.45238E+02 4.68408E+01 0.00000E+00
 -1      1978 1.43100E+02 4.58995E+01 0.00000E+00
 -1      1979 1.46772E+02 4.64201E+01 0.00000E+00
 -1      1980 1.41240E+01 3.48650E+00 0.00000E+00
 -1      1981 1.26240E+01 3.48650E+00 0.00000E+00
 -1      1982 1.71240E+01 3.48650E+00 0.00000E+00
 -1      1983 1.56240E+01 3.48650E+00 0.00000E+00
 -1      1984 1.48740E+01 4.78550E+00 0.00000E+00
 -1      1985 2.01240E+01 3.48650E+00 0.00000E+00
 -1      1986 1.86240E+01 3.48650E+00 0.00000E+00
 -1      1987 1.78740E+01 4.78550E+00 0.00000E+00
 -1      1988 2.31240E+01 3.48650E+00 0.00000E+00
 -1      1989 2.16240E+01 3.48650E+00 0.00000E+00
 -1      1990 2.08740E+01 4.78550E+00 0.00000E+00
 -1      1991 2.61240E+01 3.48650E+00 0.00000E+00
 -1      1992 2.46240E+01 3.48650E+00 0.00000E+00
 -1      1993 2.38740E+01 4.78550E+00 0.00000E+00
 -1      1994 2.91240E+01 3.48650E+00 0.00000E+00
 -1      1995 2.76240E+01 3.48650E+00 0.00000E+00
 -1      1996 2.68740E+01 4.78550E+00 0.00000E+00
 -1      1997 3.21240E+01 3.48650E+00 0.00000E+00
 -1      1998 3.06240E+01 3.48650E+00 0.00000E+00
 -1      1999 2.98740E+01 4.78550E+00 0.00000E+00
 -1      2000 3.51240E+01 3.48650E+00 0.00000E+00
 -1      2001 3.36240E+01 3.48650E+00 0.00000E+00
 -1      2002 3.28740E+01 4.78550E+00 0.00000E+00
 -1      2003 3.81240E+01 3.48650E+00 0.00000E+00
 -1      2004 3.66240E+01 3.48650E+00 0.00000E+00
 -1      2005 3.58740E+01 4.78550E+00 0.00000E+00
 -1      2006 4.11240E+01 3.48650E+00 0.00000E+00
 -1      2007 3.96240E+01 3.48650E+00 0.00000E+00
 -1      2008 3.88740E+01 4.78550E+00 0.00000E+00
 -1      2009 4.41240E+01 3.48650E+00 0.00000E+00
 -1      2010 4.26240E+01 3.48650E+00 0.00000E+00
 -1      2011 4.18740E+01 4.78550E+00 0.00000E+00
 -1      2012 4.71240E+01 3.48650E+00 0.00000E+00
 -1      2013 4.56240E+01 3.48650E+00 0.00000E+00
 -1      2014 4.48740E+01 4.78550E+00 0.00000E+00
 -1      2015 5.01240E+01 3.48650E+00 0.00000E+00
 -1      2016 4.86240E+01 3.48650E+00 0.00000E+00
 -1      2017 4.78740E+01 4.78550E+00 0.00000E+00
 -1      2018 5.31240E+01 3.48650E+00 0.00000E+00
 -1      2019 5.16240E+01 3.48650E+00 0.00000E+00
 -1      2020 5.08740E+01 4.78550E+00 0.00000E+00
 -1      2021 5.61240E+01 3.48650E+00 0.00000E+00
 -1      2022 5.46240E+01 3.48650E+00 0.00000E+00
 -1      2023 5.38740E+01 4.78550E+00 0.00000E+00
 -1      2024 5.91240E+01 3.48650E+00 0.00000E+00
 -1      2025 5.76240E+01 3.48650E+00 0.00000E+00
 -1      2026 5.68740E+01 4.78550E+00 0.00000E+00
 -1      2027 6.21240E+01 3.48650E+00 0.00000E+00
 -1      2028 6.06240E+01 3.48650E+00 0.00000E+00
 -1      2029 5.98740E+01 4.78550E+00 0.00000E+00
 -1      2030 6.51240E+01 3.48650E+00 0.00000E+00
 -1      2031 6.36240E+01 3.48650E+00 0.00000E+00
 -1      2032 6.28740E+01 4.78550E+00 0.00000E+00
 -1      2033 6.81240E+01 3.48650E+00 0.00000E+00
 -1      2034 6.66240E+01 3.48650E+00 0.00000E+00
 -1      2035 6.58740E+01 4.78550E+00 0.00000E+00
 -1      2036 7.11240E+01 3.48650E+00 0.00000E+00
 -1      2037 6.96240E+01 3.48650E+00 0.00000E+00
 -1      2038 6.88740E+01 4.78550E+00 0.00000E+00
 -1      2039 7.41240E+01 3.48650E+00 0.00000E+00
 -1      2040 7.26240E+01 3.48650E+00 0.00000E+00
 -1      2041 7.18740E+01 4.78550E+00 0.00000E+00
 -1      2042 7.71240E+01 3.48650E+00 0.00000E+00
 -1      2043 7.56240E+01 3.48650E+00 0.00000E+00
 -1      2044 7.48740E+01 4.78550E+00 0.00000E+00
 -1      2045 8.01240E+01 3.48650E+00 0.00000E+00
 -1      2046 7.86240E+01 3.48650E+00 0.00000E+00
 -1      2047 7.78740E+01 4.78550E+00 0.00000E+00
 -1      2048 8.31240E+01 3.48650E+00 0.00000E+00
 -1      2049 8.16240E+01 3.48650E+00 0.00000E+00
 -1      2050 8.08740E+01 4.78550E+00 0.00000E+00
 -1      2051 8.61240E+01 3.48650E+00 0.00000E+00
 -1      2052 8.46240E+01 3.48650E+00 0.00000E+00
 -1      2053 8.38740E+01 4.78550E+00 0.00000E+00
 -1      2054 8.91240E+01 3.48650E+00 0.00000E+00
 -1      2055 8.76240E+01 3.48650E+00 0.00000E+00
 -1      2056 8.68740E+01 4.78550E+00 0.00000E+00
 -1      2057 9.21240E+01 3.48650E+00 0.00000E+00
 -1      2058 9.06240E+01 3.48650E+00 0.00000E+00
 -1      2059 8.98740E+01 4.78550E+00 0.00000E+00
 -1      2060 9.51240E+01 3.48650E+00 0.00000E+00
 -1      2061 9.36240E+01 3.48650E+00 0.00000E+00
 -1      2062 9.28740E+01 4.78550E+00 0.00000E+00
 -1      2063 9.81240E+01 3.48650E+00 0.00000E+00
 -1      2064 9.66240E+01 3.48650E+00 0.00000E+00
 -1      2065 9.58740E+01 4.78550E+00 0.00000E+00
 -1      2066 1.01124E+02 3.48650E+00 0.00000E+00
 -1      2067 9.96240E+01 3.48650E+00 0.00000E+00
 -1      2068 9.88740E+01 4.78550E+00 0.00000E+00
 -1      2069 1.04124E+02 3.48650E+00 0.00000E+00
 -1      2070 1.02624E+02 3.48650E+00 0.00000E+00
 -1      2071 1.01874E+02 4.78550E+00 0.00000E+00
 -1      2072 1.07124E+02 3.48650E+00 0.00000E+00
 -1      2073 1.05624E+02 3.48650E+00 0.00000E+00
 -1      2074 1.04874E+02 4.78550E+00 0.00000E+00
 -1      2075 1.10124E+02 3.48650E+00 0.00000E+00
 -1      2076 1.08624E+02 3.48650E+00 0.00000E+00
 -1      2077 1.07874E+02 4.78550E+00 0.00000E+00
 -1      2078 1.13124E+02 3.48650E+00 0.00000E+00
 -1      2079 1.11624E+02 3.48650E+00 0.00000E+00
 -1      2080 1.10874E+02 4.78550E+00 0.00000E+00
 -1      2081 1.16124E+02 3.48650E+00 0.00000E+00
 -1      2082 1.14624E+02 3.48650E+00 0.00000E+00
 -1      2083 1.13874E+02 4.78550E+00 0.00000E+00
 -1      2084 1.19124E+02 3.48650E+00 0.00000E+00
 -1      2085 1.17624E+02 3.48650E+00 0.00000E+00
 -1      2086 1.16874E+02 4.78550E+00 0.00000E+00
 -1      2087 1.22124E+02 3.48650E+00 0.00000E+00
 -1      2088 1.20624E+02 3.48650E+00 0.00000E+00
 -1      2089 1.19874E+02 4.78550E+00 0.00000E+00
 -1      2090 1.25124E+02 3.48650E+00 0.00000E+00
 -1      2091 1.23624E+02 3.48650E+00 0.00000E+00
 -1      2092 1.22874E+02 4.78550E+00 0.00000E+00
 -1      2093 1.28124E+02 3.48650E+00 0.00000E+00
 -1      2094 1.26624E+02 3.48650E+00 0.00000E+00
 -1      2095 1.25874E+02 4.78550E+00 0.00000E+00
 -1      2096 1.31124E+02 3.48650E+00 0.00000E+00
 -1      2097 1.29624E+02 3.48650E+00 0.00000E+00
 -1      2098 1.28874E+02 4.78550E+00 0.00000E+00
 -1      2099 1.34124E+02 3.48650E+00 0.00000E+00
 -1      2100 1.32624E+02 3.48650E+00 0.00000E+00
 -1      2101 1.31874E+02 4.78550E+00 0.00000E+00
 -1      2102 1.37124E+02 3.48650E+00 0.00000E+00
 -1      2103 1.35624E+02 3.48650E+00 0.00000E+00
 -1      2104 1.34874E+02 4.78550E+00 0.00000E+00
 -1      2105 1.40124E+02 3.48650E+00 0.00000E+00
 -1      2106 1.38624E+02 3.48650E+00 0.00000E+00
 -1      2107 1.37874E+02 4.78550E+00 0.00000E+00
 -1      2108 1.43124E+02 3.48650E+00 0.00000E+00
 -1      2109 1.41624E+02 3.48650E+00 0.00000E+00
 -1      2110 1.40874E+02 4.78550E+00 0.00000E+00
 -1      2111 1.45881E+02 3.39637E+00 0.00000E+00
 -1      2112 1.44381E+02 3.39637E+00 0.00000E+00
 -1      2113 1.43631E+02 4.69537E+00 0.00000E+00
 -1      2114 1.46145E+02 4.51512E+00 0.00000E+00
 -1      2115 1.46103E+02 1.25375E+01 0.00000E+00
 -1      2116 1.46103E+02 1.10625E+01 0.00000E+00
 -1      2117 1.46103E+02 9.58750E+00 0.00000E+00
 -1      2118 1.46103E+02 8.11250E+00 0.00000E+00
 -1      2119 1.44804E+02 1.03250E+01 0.00000E+00
 -1      2120 1.46145E+02 5.99013E+00 0.00000E+00
 -1      2121 1.46103E+02 1.54375E+01 0.00000E+00
 -1      2122 1.46103E+02 1.39875E+01 0.00000E+00
 -1      2123 1.44804E+02 1.32500E+01 0.00000E+00
 -1      2124 1.46103E+02 1.83875E+01 0.00000E+00
 -1      2125 1.46103E+02 1.69125E+01 0.00000E+00
 -1      2126 1.44804E+02 1.61750E+01 0.00000E+00
 -1      2127 1.46103E+02 2.13375E+01 0.00000E+00
 -1      2128 1.46103E+02 1.98625E+01 0.00000E+00
 -1      2129 1.44804E+02 1.91250E+01 0.00000E+00
 -1      2130 1.46103E+02 2.42875E+01 0.00000E+00
 -1      2131 1.46103E+02 2.28125E+01 0.00000E+00
 -1      2132 1.44804E+02 2.20750E+01 0.00000E+00
 -1      2133 1.46103E+02 2.72375E+01 0.00000E+00
 -1      2134 1.46103E+02 2.57625E+01 0.00000E+00
 -1      2135 1.44804E+02 2.50250E+01 0.00000E+00
 -1      2136 1.46103E+02 3.01875E+01 0.00000E+00
 -1      2137 1.46103E+02 2.87125E+01 0.00000E+00
 -1      2138 1.44804E+02 2.79750E+01 0.00000E+00
 -1      2139 1.46103E+02 3.30875E+01 0.00000E+00
 -1      2140 1.46103E+02 3.16375E+01 0.00000E+00
 -1      2141 1.44804E+02 3.09000E+01 0.00000E+00
 -1      2142 1.46103E+02 3.60375E+01 0.00000E+00
 -1      2143 1.46103E+02 3.45625E+01 0.00000E+00
 -1      2144 1.44804E+02 3.38250E+01 0.00000E+00
 -1      2145 1.46103E+02 3.89875E+01 0.00000E+00
 -1      2146 1.46103E+02 3.75125E+01 0.00000E+00
 -1      2147 1.44804E+02 3.67750E+01 0.00000E+00
 -1      2148 1.46103E+02 4.19375E+01 0.00000E+00
 -1      2149 1.46103E+02 4.04625E+01 0.00000E+00
 -1      2150 1.44804E+02 3.97250E+01 0.00000E+00
 -1      2151 1.14143E+01 3.29169E+00 0.00000E+00
 -1      2152 9.91425E+00 3.29169E+00 0.00000E+00
 -1      2153 9.74475E+00 4.20106E+00 0.00000E+00
 -1      2154 1.21643E+01 4.59069E+00 0.00000E+00
 -1      2155 3.20024E+01 3.21172E+01 0.00000E+00
 -1      2156 3.23818E+01 3.29224E+01 0.00000E+00
 -1      2157 2.96423E+01 2.92331E+01 0.00000E+00
 -1      2158 3.02726E+01 2.98205E+01 0.00000E+00
 -1      2159 3.31928E+01 3.58209E+01 0.00000E+00
 -1      2160 3.31194E+01 3.66861E+01 0.00000E+00
 -1      2161 3.89700E+00 3.74688E+01 0.00000E+00
 -1      2162 3.89700E+00 3.89437E+01 0.00000E+00
 -1      2163 5.19600E+00 3.96813E+01 0.00000E+00
 -1      2164 5.19600E+00 3.67438E+01 0.00000E+00
 -1      2165 2.49750E+01 4.69246E+01 0.00000E+00
 -1      2166 2.61750E+01 4.69246E+01 0.00000E+00
 -1      2167 2.81389E+01 2.80606E+01 0.00000E+00
 -1      2168 2.89011E+01 2.85526E+01 0.00000E+00
 -1      2169 2.61082E+01 2.74777E+01 0.00000E+00
 -1      2170 2.70130E+01 2.76011E+01 0.00000E+00
 -1      2171 2.43563E+01 2.72239E+01 0.00000E+00
 -1      2172 2.52322E+01 2.73508E+01 0.00000E+00
 -1      2173 2.57892E+01 2.66459E+01 0.00000E+00
 -1      2174 2.23510E+01 2.76348E+01 0.00000E+00
 -1      2175 2.32081E+01 2.74126E+01 0.00000E+00
 -1      2176 2.06289E+01 2.81578E+01 0.00000E+00
 -1      2177 2.14217E+01 2.78472E+01 0.00000E+00
 -1      2178 1.90037E+01 2.90331E+01 0.00000E+00
 -1      2179 1.97514E+01 2.85881E+01 0.00000E+00
 -1      2180 1.74531E+01 3.01078E+01 0.00000E+00
 -1      2181 1.81712E+01 2.95512E+01 0.00000E+00
 -1      2182 1.64376E+01 3.19859E+01 0.00000E+00
 -1      2183 1.67632E+01 3.11586E+01 0.00000E+00
 -1      2184 1.55213E+01 3.35519E+01 0.00000E+00
 -1      2185 1.59794E+01 3.27689E+01 0.00000E+00
 -1      2186 1.55002E+01 3.21026E+01 0.00000E+00
 -1      2187 1.52894E+01 3.56032E+01 0.00000E+00
 -1      2188 1.52482E+01 3.47035E+01 0.00000E+00
 -1      2189 1.53566E+01 3.73711E+01 0.00000E+00
 -1      2190 1.53230E+01 3.64872E+01 0.00000E+00
 -1      2191 1.45294E+01 3.60727E+01 0.00000E+00
 -1      2192 1.59085E+01 3.93037E+01 0.00000E+00
 -1      2193 1.56094E+01 3.84536E+01 0.00000E+00
 -1      2194 1.66566E+01 4.09734E+01 0.00000E+00
 -1      2195 1.62978E+01 4.01691E+01 0.00000E+00
 -1      2196 1.78549E+01 4.25778E+01 0.00000E+00
 -1      2197 1.72237E+01 4.19855E+01 0.00000E+00
 -1      2198 2.12192E+01 4.47704E+01 0.00000E+00
 -1      2199 2.04278E+01 4.44914E+01 0.00000E+00
 -1      2200 2.20263E+01 4.50009E+01 0.00000E+00
 -1      2201 2.60185E+01 4.50979E+01 0.00000E+00
 -1      2202 2.52220E+01 4.52383E+01 0.00000E+00
 -1      2203 2.80161E+01 4.47163E+01 0.00000E+00
 -1      2204 2.72560E+01 4.50142E+01 0.00000E+00
 -1      2205 3.08855E+01 4.24010E+01 0.00000E+00
 -1      2206 3.02825E+01 4.29958E+01 0.00000E+00
 -1      2207 3.18535E+01 4.08064E+01 0.00000E+00
 -1      2208 3.14211E+01 4.15219E+01 0.00000E+00
 -1      2209 3.25717E+01 3.92545E+01 0.00000E+00
 -1      2210 3.22685E+01 3.99883E+01 0.00000E+00
 -1      2211 3.30768E+01 3.76015E+01 0.00000E+00
 -1      2212 3.29220E+01 3.83834E+01 0.00000E+00
 -1      2213 3.27813E+01 3.38219E+01 0.00000E+00
 -1      2214 3.30596E+01 3.46862E+01 0.00000E+00
 -1      2215 1.46135E+02 4.54788E+01 0.00000E+00
 -1      2216 6.34800E+00 4.57510E+01 0.00000E+00
 -1      2217 7.09800E+00 4.44520E+01 0.00000E+00
 -1      2218 3.22456E+01 3.13710E+01 0.00000E+00
 -1      2219 3.10561E+01 2.97756E+01 0.00000E+00
 -1      2220 2.68125E+01 4.59833E+01 0.00000E+00
 -1      2221 1.44846E+02 6.72762E+00 0.00000E+00
 -1      2222 3.37104E+01 3.51772E+01 0.00000E+00
 -1      2223 1.46186E+02 4.43039E+01 0.00000E+00
 -1      2224 1.46052E+02 4.31124E+01 0.00000E+00
 -1      2225 1.44753E+02 4.23749E+01 0.00000E+00
 -1      2226 1.44651E+02 4.47246E+01 0.00000E+00
 -1      2227 3.31778E+01 3.31431E+01 0.00000E+00
 -1      2228 2.96581E+01 2.83722E+01 0.00000E+00
 -1      2229 3.38010E+01 3.72273E+01 0.00000E+00
 -1      2230 3.34081E+01 3.90138E+01 0.00000E+00
 -1      2231 3.26428E+01 4.07029E+01 0.00000E+00
 -1      2232 3.16923E+01 4.24001E+01 0.00000E+00
 -1      2233 2.90682E+01 4.39196E+01 0.00000E+00
 -1      2234 2.91020E+01 4.51028E+01 0.00000E+00
 -1      2235 3.05270E+01 4.51028E+01 0.00000E+00
 -1      2236 2.97811E+01 4.35093E+01 0.00000E+00
 -1      2237 2.46779E+01 4.60894E+01 0.00000E+00
 -1      2238 2.43250E+01 4.52606E+01 0.00000E+00
 -1      2239 2.34838E+01 4.52764E+01 0.00000E+00
 -1      2240 2.40779E+01 4.69469E+01 0.00000E+00
 -1      2241 1.64141E+01 4.18644E+01 0.00000E+00
 -1      2242 1.48158E+01 3.80392E+01 0.00000E+00
 -1      2243 1.47689E+01 3.40371E+01 0.00000E+00
 -1      2244 1.66482E+01 3.02687E+01 0.00000E+00
 -1      2245 1.65333E+01 2.93789E+01 0.00000E+00
 -1      2246 1.58434E+01 3.04297E+01 0.00000E+00
 -1      2247 1.81707E+01 2.86998E+01 0.00000E+00
 -1      2248 1.98808E+01 2.77514E+01 0.00000E+00
 -1      2249 2.37651E+01 2.67077E+01 0.00000E+00
 -1      2250 2.28779E+01 4.69469E+01 0.00000E+00
 -1      2251 2.77910E+01 2.72322E+01 0.00000E+00
 -1      2252 2.16876E+01 2.71087E+01 0.00000E+00
 -1      2253 1.54578E+01 3.99870E+01 0.00000E+00
 -1      2254 1.89613E+01 4.43022E+01 0.00000E+00
 -1      2255 1.83308E+01 4.37308E+01 0.00000E+00
 -1      2256 2.23233E+01 4.58362E+01 0.00000E+00
 -1      2257 3.06554E+01 4.37926E+01 0.00000E+00
 -1      2258 1.74570E+01 4.40294E+01 0.00000E+00
 -1      2259 6.38869E+00 3.01125E+01 0.00000E+00
 -1      2260 6.38869E+00 3.15875E+01 0.00000E+00
 -1      2261 6.38869E+00 3.30625E+01 0.00000E+00
 -1      2262 6.38869E+00 3.45375E+01 0.00000E+00
 -1      2263 7.58138E+00 3.23250E+01 0.00000E+00
 -1      2264 6.49500E+00 2.42125E+01 0.00000E+00
 -1      2265 6.49500E+00 2.56875E+01 0.00000E+00
 -1      2266 6.49500E+00 2.12625E+01 0.00000E+00
 -1      2267 6.49500E+00 2.27375E+01 0.00000E+00
 -1      2268 7.79400E+00 2.34750E+01 0.00000E+00
 -1      2269 6.49500E+00 1.83625E+01 0.00000E+00
 -1      2270 6.49500E+00 1.98125E+01 0.00000E+00
 -1      2271 7.79400E+00 2.05500E+01 0.00000E+00
 -1      2272 6.49500E+00 1.54125E+01 0.00000E+00
 -1      2273 6.49500E+00 1.68875E+01 0.00000E+00
 -1      2274 7.79400E+00 1.76250E+01 0.00000E+00
 -1      2275 6.49500E+00 1.24625E+01 0.00000E+00
 -1      2276 6.49500E+00 1.39375E+01 0.00000E+00
 -1      2277 7.79400E+00 1.46750E+01 0.00000E+00
 -1      2278 6.49500E+00 9.51250E+00 0.00000E+00
 -1      2279 6.49500E+00 1.09875E+01 0.00000E+00
 -1      2280 7.79400E+00 1.17250E+01 0.00000E+00
 -1      2281 6.49500E+00 6.56250E+00 0.00000E+00
 -1      2282 6.49500E+00 8.03750E+00 0.00000E+00
 -1      2283 7.79400E+00 8.77500E+00 0.00000E+00
 -1      2284 6.84975E+00 4.82969E+00 0.00000E+00
 -1      2285 6.68025E+00 5.73906E+00 0.00000E+00
 -1      2286 7.97925E+00 6.47656E+00 0.00000E+00
 -1      2287 8.34975E+00 4.82969E+00 0.00000E+00
 -1      2288 3.26755E+01 3.05098E+01 0.00000E+00
 -1      2289 3.32082E+01 3.13823E+01 0.00000E+00
 -1      2290 9.75000E+00 4.36113E+01 0.00000E+00
 -1      2291 1.12500E+01 4.36113E+01 0.00000E+00
 -1      2292 3.13314E+01 2.88656E+01 0.00000E+00
 -1      2293 3.19882E+01 2.95886E+01 0.00000E+00
 -1      2294 1.27500E+01 4.36113E+01 0.00000E+00
 -1      2295 1.42500E+01 4.36113E+01 0.00000E+00
 -1      2296 1.20000E+01 4.24186E+01 0.00000E+00
 -1      2297 1.59906E+01 4.38402E+01 0.00000E+00
 -1      2298 2.75205E+01 2.62861E+01 0.00000E+00
 -1      2299 2.86463E+01 2.67456E+01 0.00000E+00
 -1      2300 1.43589E+02 6.81775E+00 0.00000E+00
 -1      2301 6.52200E+00 4.29422E+01 0.00000E+00
 -1      2302 8.42400E+00 4.32942E+01 0.00000E+00
 -1      2303 9.17400E+00 4.21015E+01 0.00000E+00
 -1      2304 6.52200E+00 4.14672E+01 0.00000E+00
 -1      2305 3.20270E+01 4.51028E+01 0.00000E+00
 -1      2306 3.35270E+01 4.51028E+01 0.00000E+00
 -1      2307 3.16541E+01 4.43060E+01 0.00000E+00
 -1      2308 3.50270E+01 4.51028E+01 0.00000E+00
 -1      2309 3.65270E+01 4.51028E+01 0.00000E+00
 -1      2310 3.46541E+01 4.43060E+01 0.00000E+00
 -1      2311 3.80270E+01 4.51028E+01 0.00000E+00
 -1      2312 3.95270E+01 4.51028E+01 0.00000E+00
 -1      2313 3.76541E+01 4.43060E+01 0.00000E+00
 -1      2314 4.10270E+01 4.51028E+01 0.00000E+00
 -1      2315 4.25270E+01 4.51028E+01 0.00000E+00
 -1      2316 4.06541E+01 4.43060E+01 0.00000E+00
 -1      2317 4.39520E+01 4.51028E+01 0.00000E+00
 -1      2318 4.53770E+01 4.51028E+01 0.00000E+00
 -1      2319 4.35791E+01 4.43060E+01 0.00000E+00
 -1      2320 4.68770E+01 4.51028E+01 0.00000E+00
 -1      2321 4.83770E+01 4.51028E+01 0.00000E+00
 -1      2322 4.65041E+01 4.43060E+01 0.00000E+00
 -1      2323 4.98770E+01 4.51028E+01 0.00000E+00
 -1      2324 5.13770E+01 4.51028E+01 0.00000E+00
 -1      2325 4.95041E+01 4.43060E+01 0.00000E+00
 -1      2326 5.28770E+01 4.51028E+01 0.00000E+00
 -1      2327 5.43770E+01 4.51028E+01 0.00000E+00
 -1      2328 5.25041E+01 4.43060E+01 0.00000E+00
 -1      2329 5.58770E+01 4.51028E+01 0.00000E+00
 -1      2330 5.73770E+01 4.51028E+01 0.00000E+00
 -1      2331 5.55041E+01 4.43060E+01 0.00000E+00
 -1      2332 5.88770E+01 4.51028E+01 0.00000E+00
 -1      2333 6.03770E+01 4.51028E+01 0.00000E+00
 -1      2334 5.85041E+01 4.43060E+01 0.00000E+00
 -1      2335 6.18770E+01 4.51028E+01 0.00000E+00
 -1      2336 6.33770E+01 4.51028E+01 0.00000E+00
 -1      2337 6.15041E+01 4.43060E+01 0.00000E+00
 -1      2338 6.48770E+01 4.51028E+01 0.00000E+00
 -1      2339 6.63770E+01 4.51028E+01 0.00000E+00
 -1      2340 6.45041E+01 4.43060E+01 0.00000E+00
 -1      2341 6.78770E+01 4.51028E+01 0.00000E+00
 -1      2342 6.93770E+01 4.51028E+01 0.00000E+00
 -1      2343 6.75041E+01 4.43060E+01 0.00000E+00
 -1      2344 7.08770E+01 4.51028E+01 0.00000E+00
 -1      2345 7.23770E+01 4.51028E+01 0.00000E+00
 -1      2346 7.05041E+01 4.43060E+01 0.00000E+00
 -1      2347 7.38770E+01 4.51028E+01 0.00000E+00
 -1      2348 7.53770E+01 4.51028E+01 0.00000E+00
 -1      2349 7.35041E+01 4.43060E+01 0.00000E+00
 -1      2350 7.68770E+01 4.51028E+01 0.00000E+00
 -1      2351 7.83770E+01 4.51028E+01 0.00000E+00
 -1      2352 7.65041E+01 4.43060E+01 0.00000E+00
 -1      2353 7.98770E+01 4.51028E+01 0.00000E+00
 -1      2354 8.13770E+01 4.51028E+01 0.00000E+00
 -1      2355 7.95041E+01 4.43060E+01 0.00000E+00
 -1      2356 8.28770E+01 4.51028E+01 0.00000E+00
 -1      2357 8.43770E+01 4.51028E+01 0.00000E+00
 -1      2358 8.25041E+01 4.43060E+01 0.00000E+00
 -1      2359 8.58770E+01 4.51028E+01 0.00000E+00
 -1      2360 8.73770E+01 4.51028E+01 0.00000E+00
 -1      2361 8.55041E+01 4.43060E+01 0.00000E+00
 -1      2362 8.88770E+01 4.51028E+01 0.00000E+00
 -1      2363 9.03770E+01 4.51028E+01 0.00000E+00
 -1      2364 8.85041E+01 4.43060E+01 0.00000E+00
 -1      2365 9.18770E+01 4.51028E+01 0.00000E+00
 -1      2366 9.33770E+01 4.51028E+01 0.00000E+00
 -1      2367 9.15041E+01 4.43060E+01 0.00000E+00
 -1      2368 9.48020E+01 4.51028E+01 0.00000E+00
 -1      2369 9.62270E+01 4.51028E+01 0.00000E+00
 -1      2370 9.44291E+01 4.43060E+01 0.00000E+00
 -1      2371 9.77270E+01 4.51028E+01 0.00000E+00
 -1      2372 9.92270E+01 4.51028E+01 0.00000E+00
 -1      2373 9.73541E+01 4.43060E+01 0.00000E+00
 -1      2374 1.00727E+02 4.51028E+01 0.00000E+00
 -1      2375 1.02227E+02 4.51028E+01 0.00000E+00
 -1      2376 1.00354E+02 4.43060E+01 0.00000E+00
 -1      2377 1.03727E+02 4.51028E+01 0.00000E+00
 -1      2378 1.05227E+02 4.51028E+01 0.00000E+00
 -1      2379 1.03354E+02 4.43060E+01 0.00000E+00
 -1      2380 1.06727E+02 4.51028E+01 0.00000E+00
 -1      2381 1.08227E+02 4.51028E+01 0.00000E+00
 -1      2382 1.06354E+02 4.43060E+01 0.00000E+00
 -1      2383 1.09727E+02 4.51028E+01 0.00000E+00
 -1      2384 1.11227E+02 4.51028E+01 0.00000E+00
 -1      2385 1.09354E+02 4.43060E+01 0.00000E+00
 -1      2386 1.12727E+02 4.51028E+01 0.00000E+00
 -1      2387 1.14227E+02 4.51028E+01 0.00000E+00
 -1      2388 1.12354E+02 4.43060E+01 0.00000E+00
 -1      2389 1.15727E+02 4.51028E+01 0.00000E+00
 -1      2390 1.17227E+02 4.51028E+01 0.00000E+00
 -1      2391 1.15354E+02 4.43060E+01 0.00000E+00
 -1      2392 1.18727E+02 4.51028E+01 0.00000E+00
 -1      2393 1.20227E+02 4.51028E+01 0.00000E+00
 -1      2394 1.18354E+02 4.43060E+01 0.00000E+00
 -1      2395 1.21727E+02 4.51028E+01 0.00000E+00
 -1      2396 1.23227E+02 4.51028E+01 0.00000E+00
 -1      2397 1.21354E+02 4.43060E+01 0.00000E+00
 -1      2398 1.24727E+02 4.51028E+01 0.00000E+00
 -1      2399 1.26227E+02 4.51028E+01 0.00000E+00
 -1      2400 1.24354E+02 4.43060E+01 0.00000E+00
 -1      2401 1.27727E+02 4.51028E+01 0.00000E+00
 -1      2402 1.29227E+02 4.51028E+01 0.00000E+00
 -1      2403 1.27354E+02 4.43060E+01 0.00000E+00
 -1      2404 1.30727E+02 4.51028E+01 0.00000E+00
 -1      2405 1.32227E+02 4.51028E+01 0.00000E+00
 -1      2406 1.30354E+02 4.43060E+01 0.00000E+00
 -1      2407 1.33727E+02 4.51028E+01 0.00000E+00
 -1      2408 1.35227E+02 4.51028E+01 0.00000E+00
 -1      2409 1.33354E+02 4.43060E+01 0.00000E+00
 -1      2410 1.36727E+02 4.51028E+01 0.00000E+00
 -1      2411 1.38227E+02 4.51028E+01 0.00000E+00
 -1      2412 1.36354E+02 4.43060E+01 0.00000E+00
 -1      2413 1.39727E+02 4.51028E+01 0.00000E+00
 -1      2414 1.41227E+02 4.51028E+01 0.00000E+00
 -1      2415 1.39354E+02 4.43060E+01 0.00000E+00
 -1      2416 1.42189E+02 4.49137E+01 0.00000E+00
 -1      2417 1.43689E+02 4.49137E+01 0.00000E+00
 -1      2418 1.43740E+02 4.37388E+01 0.00000E+00
 -1      2419 1.41816E+02 4.41170E+01 0.00000E+00
 -1      2420 2.16240E+01 6.08450E+00 0.00000E+00
 -1      2421 2.01240E+01 6.08450E+00 0.00000E+00
 -1      2422 1.86240E+01 6.08450E+00 0.00000E+00
 -1      2423 1.71240E+01 6.08450E+00 0.00000E+00
 -1      2424 1.93740E+01 7.38350E+00 0.00000E+00
 -1      2425 1.56240E+01 6.08450E+00 0.00000E+00
 -1      2426 1.41240E+01 6.08450E+00 0.00000E+00
 -1      2427 1.63740E+01 7.38350E+00 0.00000E+00
 -1      2428 2.46240E+01 6.08450E+00 0.00000E+00
 -1      2429 2.31240E+01 6.08450E+00 0.00000E+00
 -1      2430 2.23740E+01 7.38350E+00 0.00000E+00
 -1      2431 2.76240E+01 6.08450E+00 0.00000E+00
 -1      2432 2.61240E+01 6.08450E+00 0.00000E+00
 -1      2433 2.53740E+01 7.38350E+00 0.00000E+00
 -1      2434 3.06240E+01 6.08450E+00 0.00000E+00
 -1      2435 2.91240E+01 6.08450E+00 0.00000E+00
 -1      2436 2.83740E+01 7.38350E+00 0.00000E+00
 -1      2437 3.36240E+01 6.08450E+00 0.00000E+00
 -1      2438 3.21240E+01 6.08450E+00 0.00000E+00
 -1      2439 3.13740E+01 7.38350E+00 0.00000E+00
 -1      2440 3.66240E+01 6.08450E+00 0.00000E+00
 -1      2441 3.51240E+01 6.08450E+00 0.00000E+00
 -1      2442 3.43740E+01 7.38350E+00 0.00000E+00
 -1      2443 3.96240E+01 6.08450E+00 0.00000E+00
 -1      2444 3.81240E+01 6.08450E+00 0.00000E+00
 -1      2445 3.73740E+01 7.38350E+00 0.00000E+00
 -1      2446 4.26240E+01 6.08450E+00 0.00000E+00
 -1      2447 4.11240E+01 6.08450E+00 0.00000E+00
 -1      2448 4.03740E+01 7.38350E+00 0.00000E+00
 -1      2449 4.56240E+01 6.08450E+00 0.00000E+00
 -1      2450 4.41240E+01 6.08450E+00 0.00000E+00
 -1      2451 4.33740E+01 7.38350E+00 0.00000E+00
 -1      2452 4.86240E+01 6.08450E+00 0.00000E+00
 -1      2453 4.71240E+01 6.08450E+00 0.00000E+00
 -1      2454 4.63740E+01 7.38350E+00 0.00000E+00
 -1      2455 5.16240E+01 6.08450E+00 0.00000E+00
 -1      2456 5.01240E+01 6.08450E+00 0.00000E+00
 -1      2457 4.93740E+01 7.38350E+00 0.00000E+00
 -1      2458 5.46240E+01 6.08450E+00 0.00000E+00
 -1      2459 5.31240E+01 6.08450E+00 0.00000E+00
 -1      2460 5.23740E+01 7.38350E+00 0.00000E+00
 -1      2461 5.76240E+01 6.08450E+00 0.00000E+00
 -1      2462 5.61240E+01 6.08450E+00 0.00000E+00
 -1      2463 5.53740E+01 7.38350E+00 0.00000E+00
 -1      2464 6.06240E+01 6.08450E+00 0.00000E+00
 -1      2465 5.91240E+01 6.08450E+00 0.00000E+00
 -1      2466 5.83740E+01 7.38350E+00 0.00000E+00
 -1      2467 6.36240E+01 6.08450E+00 0.00000E+00
 -1      2468 6.21240E+01 6.08450E+00 0.00000E+00
 -1      2469 6.13740E+01 7.38350E+00 0.00000E+00
 -1      2470 6.66240E+01 6.08450E+00 0.00000E+00
 -1      2471 6.51240E+01 6.08450E+00 0.00000E+00
 -1      2472 6.43740E+01 7.38350E+00 0.00000E+00
 -1      2473 6.96240E+01 6.08450E+00 0.00000E+00
 -1      2474 6.81240E+01 6.08450E+00 0.00000E+00
 -1      2475 6.73740E+01 7.38350E+00 0.00000E+00
 -1      2476 7.26240E+01 6.08450E+00 0.00000E+00
 -1      2477 7.11240E+01 6.08450E+00 0.00000E+00
 -1      2478 7.03740E+01 7.38350E+00 0.00000E+00
 -1      2479 7.56240E+01 6.08450E+00 0.00000E+00
 -1      2480 7.41240E+01 6.08450E+00 0.00000E+00
 -1      2481 7.33740E+01 7.38350E+00 0.00000E+00
 -1      2482 7.86240E+01 6.08450E+00 0.00000E+00
 -1      2483 7.71240E+01 6.08450E+00 0.00000E+00
 -1      2484 7.63740E+01 7.38350E+00 0.00000E+00
 -1      2485 8.16240E+01 6.08450E+00 0.00000E+00
 -1      2486 8.01240E+01 6.08450E+00 0.00000E+00
 -1      2487 7.93740E+01 7.38350E+00 0.00000E+00
 -1      2488 8.46240E+01 6.08450E+00 0.00000E+00
 -1      2489 8.31240E+01 6.08450E+00 0.00000E+00
 -1      2490 8.23740E+01 7.38350E+00 0.00000E+00
 -1      2491 8.76240E+01 6.08450E+00 0.00000E+00
 -1      2492 8.61240E+01 6.08450E+00 0.00000E+00
 -1      2493 8.53740E+01 7.38350E+00 0.00000E+00
 -1      2494 9.06240E+01 6.08450E+00 0.00000E+00
 -1      2495 8.91240E+01 6.08450E+00 0.00000E+00
 -1      2496 8.83740E+01 7.38350E+00 0.00000E+00
 -1      2497 9.36240E+01 6.08450E+00 0.00000E+00
 -1      2498 9.21240E+01 6.08450E+00 0.00000E+00
 -1      2499 9.13740E+01 7.38350E+00 0.00000E+00
 -1      2500 9.66240E+01 6.08450E+00 0.00000E+00
 -1      2501 9.51240E+01 6.08450E+00 0.00000E+00
 -1      2502 9.43740E+01 7.38350E+00 0.00000E+00
 -1      2503 9.96240E+01 6.08450E+00 0.00000E+00
 -1      2504 9.81240E+01 6.08450E+00 0.00000E+00
 -1      2505 9.73740E+01 7.38350E+00 0.00000E+00
 -1      2506 1.02624E+02 6.08450E+00 0.00000E+00
 -1      2507 1.01124E+02 6.08450E+00 0.00000E+00
 -1      2508 1.00374E+02 7.38350E+00 0.00000E+00
 -1      2509 1.05624E+02 6.08450E+00 0.00000E+00
 -1      2510 1.04124E+02 6.08450E+00 0.00000E+00
 -1      2511 1.03374E+02 7.38350E+00 0.00000E+00
 -1      2512 1.08624E+02 6.08450E+00 0.00000E+00
 -1      2513 1.07124E+02 6.08450E+00 0.00000E+00
 -1      2514 1.06374E+02 7.38350E+00 0.00000E+00
 -1      2515 1.11624E+02 6.08450E+00 0.00000E+00
 -1      2516 1.10124E+02 6.08450E+00 0.00000E+00
 -1      2517 1.09374E+02 7.38350E+00 0.00000E+00
 -1      2518 1.14624E+02 6.08450E+00 0.00000E+00
 -1      2519 1.13124E+02 6.08450E+00 0.00000E+00
 -1      2520 1.12374E+02 7.38350E+00 0.00000E+00
 -1      2521 1.17624E+02 6.08450E+00 0.00000E+00
 -1      2522 1.16124E+02 6.08450E+00 0.00000E+00
 -1      2523 1.15374E+02 7.38350E+00 0.00000E+00
 -1      2524 1.20624E+02 6.08450E+00 0.00000E+00
 -1      2525 1.19124E+02 6.08450E+00 0.00000E+00
 -1      2526 1.18374E+02 7.38350E+00 0.00000E+00
 -1      2527 1.23624E+02 6.08450E+00 0.00000E+00
 -1      2528 1.22124E+02 6.08450E+00 0.00000E+00
 -1      2529 1.21374E+02 7.38350E+00 0.00000E+00
 -1      2530 1.26624E+02 6.08450E+00 0.00000E+00
 -1      2531 1.25124E+02 6.08450E+00 0.00000E+00
 -1      2532 1.24374E+02 7.38350E+00 0.00000E+00
 -1      2533 1.29624E+02 6.08450E+00 0.00000E+00
 -1      2534 1.28124E+02 6.08450E+00 0.00000E+00
 -1      2535 1.27374E+02 7.38350E+00 0.00000E+00
 -1      2536 1.32624E+02 6.08450E+00 0.00000E+00
 -1      2537 1.31124E+02 6.08450E+00 0.00000E+00
 -1      2538 1.30374E+02 7.38350E+00 0.00000E+00
 -1      2539 1.35624E+02 6.08450E+00 0.00000E+00
 -1      2540 1.34124E+02 6.08450E+00 0.00000E+00
 -1      2541 1.33374E+02 7.38350E+00 0.00000E+00
 -1      2542 1.38624E+02 6.08450E+00 0.00000E+00
 -1      2543 1.37124E+02 6.08450E+00 0.00000E+00
 -1      2544 1.36374E+02 7.38350E+00 0.00000E+00
 -1      2545 1.41624E+02 6.08450E+00 0.00000E+00
 -1      2546 1.40124E+02 6.08450E+00 0.00000E+00
 -1      2547 1.39374E+02 7.38350E+00 0.00000E+00
 -1      2548 1.43505E+02 1.69125E+01 0.00000E+00
 -1      2549 1.43505E+02 1.54375E+01 0.00000E+00
 -1      2550 1.43505E+02 1.39875E+01 0.00000E+00
 -1      2551 1.43505E+02 1.25375E+01 0.00000E+00
 -1      2552 1.42206E+02 1.47250E+01 0.00000E+00
 -1      2553 1.43505E+02 1.10625E+01 0.00000E+00
 -1      2554 1.43505E+02 9.58750E+00 0.00000E+00
 -1      2555 1.42206E+02 1.18000E+01 0.00000E+00
 -1      2556 3.44955E+01 3.45099E+01 0.00000E+00
 -1      2557 3.46287E+01 3.56446E+01 0.00000E+00
 -1      2558 1.43505E+02 1.98625E+01 0.00000E+00
 -1      2559 1.43505E+02 1.83875E+01 0.00000E+00
 -1      2560 1.42206E+02 1.76500E+01 0.00000E+00
 -1      2561 1.43505E+02 2.28125E+01 0.00000E+00
 -1      2562 1.43505E+02 2.13375E+01 0.00000E+00
 -1      2563 1.42206E+02 2.06000E+01 0.00000E+00
 -1      2564 1.43505E+02 2.57625E+01 0.00000E+00
 -1      2565 1.43505E+02 2.42875E+01 0.00000E+00
 -1      2566 1.42206E+02 2.35500E+01 0.00000E+00
 -1      2567 1.43505E+02 2.87125E+01 0.00000E+00
 -1      2568 1.43505E+02 2.72375E+01 0.00000E+00
 -1      2569 1.42206E+02 2.65000E+01 0.00000E+00
 -1      2570 1.43505E+02 3.16125E+01 0.00000E+00
 -1      2571 1.43505E+02 3.01625E+01 0.00000E+00
 -1      2572 1.42206E+02 2.94250E+01 0.00000E+00
 -1      2573 1.43505E+02 3.45625E+01 0.00000E+00
 -1      2574 1.43505E+02 3.30875E+01 0.00000E+00
 -1      2575 1.42206E+02 3.23500E+01 0.00000E+00
 -1      2576 1.43505E+02 3.75125E+01 0.00000E+00
 -1      2577 1.43505E+02 3.60375E+01 0.00000E+00
 -1      2578 1.42206E+02 3.53000E+01 0.00000E+00
 -1      2579 1.43505E+02 4.04625E+01 0.00000E+00
 -1      2580 1.43505E+02 3.89875E+01 0.00000E+00
 -1      2581 1.42206E+02 3.82500E+01 0.00000E+00
 -1      2582 2.98674E+01 2.74003E+01 0.00000E+00
 -1      2583 3.06086E+01 2.80807E+01 0.00000E+00
 -1      2584 3.43012E+01 3.88669E+01 0.00000E+00
 -1      2585 3.39509E+01 3.97380E+01 0.00000E+00
 -1      2586 6.49500E+00 2.71625E+01 0.00000E+00
 -1      2587 6.49500E+00 2.86375E+01 0.00000E+00
 -1      2588 7.79400E+00 2.64250E+01 0.00000E+00
 -1      2589 3.45115E+01 3.68017E+01 0.00000E+00
 -1      2590 3.44689E+01 3.77171E+01 0.00000E+00
 -1      2591 2.10413E+01 2.64197E+01 0.00000E+00
 -1      2592 2.19706E+01 2.62074E+01 0.00000E+00
 -1      2593 2.54742E+01 2.57337E+01 0.00000E+00
 -1      2594 2.63501E+01 2.58606E+01 0.00000E+00
 -1      2595 1.49468E+01 4.07371E+01 0.00000E+00
 -1      2596 1.45575E+01 3.98717E+01 0.00000E+00
 -1      2597 2.31188E+01 2.60187E+01 0.00000E+00
 -1      2598 2.42669E+01 2.58299E+01 0.00000E+00
 -1      2599 2.24724E+01 2.53296E+01 0.00000E+00
 -1      2600 1.90829E+01 2.72342E+01 0.00000E+00
 -1      2601 1.99604E+01 2.68039E+01 0.00000E+00
 -1      2602 1.73013E+01 2.82308E+01 0.00000E+00
 -1      2603 1.81339E+01 2.77126E+01 0.00000E+00
 -1      2604 1.45671E+01 3.20821E+01 0.00000E+00
 -1      2605 1.50252E+01 3.12991E+01 0.00000E+00
 -1      2606 1.38795E+01 3.44344E+01 0.00000E+00
 -1      2607 1.41526E+01 3.32828E+01 0.00000E+00
 -1      2608 1.38149E+01 3.65425E+01 0.00000E+00
 -1      2609 1.37813E+01 3.56585E+01 0.00000E+00
 -1      2610 1.41887E+01 3.87563E+01 0.00000E+00
 -1      2611 1.39359E+01 3.76739E+01 0.00000E+00
 -1      2612 3.35030E+01 4.06250E+01 0.00000E+00
 -1      2613 3.30880E+01 4.14431E+01 0.00000E+00
 -1      2614 3.36852E+01 3.23793E+01 0.00000E+00
 -1      2615 3.40847E+01 3.32788E+01 0.00000E+00
 -1      2616 1.42839E+02 8.11675E+00 0.00000E+00
 -1      2617 7.58138E+00 3.52687E+01 0.00000E+00
 -1      2618 6.38869E+00 3.60062E+01 0.00000E+00
 -1      2619 6.38869E+00 3.74750E+01 0.00000E+00
 -1      2620 3.29507E+01 2.95998E+01 0.00000E+00
 -1      2621 9.55950E+00 5.02450E+00 0.00000E+00
 -1      2622 9.37425E+00 5.84794E+00 0.00000E+00
 -1      2623 1.07692E+01 5.21931E+00 0.00000E+00
 -1      2624 7.68769E+00 2.93750E+01 0.00000E+00
 -1      2625 3.15407E+01 2.78937E+01 0.00000E+00
 -1      2626 2.72055E+01 2.53739E+01 0.00000E+00
 -1      2627 1.41540E+02 8.85425E+00 0.00000E+00
 -1      2628 3.52967E+01 3.61343E+01 0.00000E+00
 -1      2629 3.50030E+01 3.37461E+01 0.00000E+00
 -1      2630 2.95969E+01 2.64541E+01 0.00000E+00
 -1      2631 1.30515E+01 5.74931E+00 0.00000E+00
 -1      2632 1.18418E+01 5.55450E+00 0.00000E+00
 -1      2633 1.16565E+01 6.37794E+00 0.00000E+00
 -1      2634 1.38015E+01 7.04831E+00 0.00000E+00
 -1      2635 6.45535E+00 3.87367E+01 0.00000E+00
 -1      2636 6.45535E+00 4.02055E+01 0.00000E+00
 -1      2637 7.78135E+00 4.05226E+01 0.00000E+00
 -1      2638 7.64804E+00 3.79992E+01 0.00000E+00
 -1      2639 3.43961E+01 4.04782E+01 0.00000E+00
 -1      2640 1.49103E+01 3.04093E+01 0.00000E+00
 -1      2641 1.56916E+01 2.85527E+01 0.00000E+00
 -1      2642 1.64965E+01 2.83917E+01 0.00000E+00
 -1      2643 1.64597E+01 2.74046E+01 0.00000E+00
 -1      2644 3.41151E+01 3.15180E+01 0.00000E+00
 -1      2645 1.36777E+01 3.95064E+01 0.00000E+00
 -1      2646 1.31878E+01 3.72597E+01 0.00000E+00
 -1      2647 1.31649E+01 3.49042E+01 0.00000E+00
 -1      2648 2.02434E+01 2.59025E+01 0.00000E+00
 -1      2649 1.36777E+01 3.24794E+01 0.00000E+00
 -1      2650 2.48279E+01 2.50447E+01 0.00000E+00
 -1      2651 1.82135E+01 2.67651E+01 0.00000E+00
 -1      2652 3.50117E+01 3.84413E+01 0.00000E+00
 -1      2653 3.35880E+01 4.21747E+01 0.00000E+00
 -1      2654 3.27278E+01 4.22527E+01 0.00000E+00
 -1      2655 1.46735E+01 4.16355E+01 0.00000E+00
 -1      2656 1.37732E+01 4.15202E+01 0.00000E+00
 -1      2657 3.21922E+01 4.31317E+01 0.00000E+00
 -1      2658 1.43597E+02 4.26881E+01 0.00000E+00
 -1      2659 1.43648E+02 4.15132E+01 0.00000E+00
 -1      2660 1.42349E+02 4.07757E+01 0.00000E+00
 -1      2661 1.42635E+02 4.28772E+01 0.00000E+00
 -1      2662 1.59861E+01 4.27691E+01 0.00000E+00
 -1      2663 1.54190E+01 4.17571E+01 0.00000E+00
 -1      2664 3.31909E+01 4.36452E+01 0.00000E+00
 -1      2665 3.21554E+01 4.37926E+01 0.00000E+00
 -1      2666 9.09300E+00 1.98250E+01 0.00000E+00
 -1      2667 9.09300E+00 2.12750E+01 0.00000E+00
 -1      2668 9.09300E+00 2.27500E+01 0.00000E+00
 -1      2669 9.09300E+00 2.42250E+01 0.00000E+00
 -1      2670 1.03920E+01 2.20250E+01 0.00000E+00
 -1      2671 9.09300E+00 1.39375E+01 0.00000E+00
 -1      2672 9.09300E+00 1.54125E+01 0.00000E+00
 -1      2673 9.09300E+00 1.09875E+01 0.00000E+00
 -1      2674 9.09300E+00 1.24625E+01 0.00000E+00
 -1      2675 1.03920E+01 1.32000E+01 0.00000E+00
 -1      2676 9.18900E+00 6.67137E+00 0.00000E+00
 -1      2677 9.00375E+00 7.49481E+00 0.00000E+00
 -1      2678 1.03988E+01 6.86619E+00 0.00000E+00
 -1      2679 1.49955E+01 4.37329E+01 0.00000E+00
 -1      2680 1.40907E+02 2.42875E+01 0.00000E+00
 -1      2681 1.40907E+02 2.28125E+01 0.00000E+00
 -1      2682 1.40907E+02 1.54500E+01 0.00000E+00
 -1      2683 1.40907E+02 1.40000E+01 0.00000E+00
 -1      2684 3.69041E+01 4.30295E+01 0.00000E+00
 -1      2685 3.84041E+01 4.30295E+01 0.00000E+00
 -1      2686 3.99041E+01 4.30295E+01 0.00000E+00
 -1      2687 4.14041E+01 4.30295E+01 0.00000E+00
 -1      2688 3.91541E+01 4.17531E+01 0.00000E+00
 -1      2689 4.28291E+01 4.30295E+01 0.00000E+00
 -1      2690 4.42541E+01 4.30295E+01 0.00000E+00
 -1      2691 4.20791E+01 4.17531E+01 0.00000E+00
 -1      2692 4.57541E+01 4.30295E+01 0.00000E+00
 -1      2693 4.72541E+01 4.30295E+01 0.00000E+00
 -1      2694 4.50041E+01 4.17531E+01 0.00000E+00
 -1      2695 4.87541E+01 4.30295E+01 0.00000E+00
 -1      2696 5.02541E+01 4.30295E+01 0.00000E+00
 -1      2697 4.80041E+01 4.17531E+01 0.00000E+00
 -1      2698 5.17541E+01 4.30295E+01 0.00000E+00
 -1      2699 5.32541E+01 4.30295E+01 0.00000E+00
 -1      2700 5.10041E+01 4.17531E+01 0.00000E+00
 -1      2701 5.47541E+01 4.30295E+01 0.00000E+00
 -1      2702 5.62541E+01 4.30295E+01 0.00000E+00
 -1      2703 5.40041E+01 4.17531E+01 0.00000E+00
 -1      2704 5.77541E+01 4.30295E+01 0.00000E+00
 -1      2705 5.92541E+01 4.30295E+01 0.00000E+00
 -1      2706 5.70041E+01 4.17531E+01 0.00000E+00
 -1      2707 6.07541E+01 4.30295E+01 0.00000E+00
 -1      2708 6.22541E+01 4.30295E+01 0.00000E+00
 -1      2709 6.00041E+01 4.17531E+01 0.00000E+00
 -1      2710 6.37541E+01 4.30295E+01 0.00000E+00
 -1      2711 6.52541E+01 4.30295E+01 0.00000E+00
 -1      2712 6.30041E+01 4.17531E+01 0.00000E+00
 -1      2713 6.67541E+01 4.30295E+01 0.00000E+00
 -1      2714 6.82541E+01 4.30295E+01 0.00000E+00
 -1      2715 6.60041E+01 4.17531E+01 0.00000E+00
 -1      2716 6.97541E+01 4.30295E+01 0.00000E+00
 -1      2717 7.12541E+01 4.30295E+01 0.00000E+00
 -1      2718 6.90041E+01 4.17531E+01 0.00000E+00
 -1      2719 7.27541E+01 4.30295E+01 0.00000E+00
 -1      2720 7.42541E+01 4.30295E+01 0.00000E+00
 -1      2721 7.20041E+01 4.17531E+01 0.00000E+00
 -1      2722 7.57541E+01 4.30295E+01 0.00000E+00
 -1      2723 7.72541E+01 4.30295E+01 0.00000E+00
 -1      2724 7.50041E+01 4.17531E+01 0.00000E+00
 -1      2725 7.87541E+01 4.30295E+01 0.00000E+00
 -1      2726 8.02541E+01 4.30295E+01 0.00000E+00
 -1      2727 7.80041E+01 4.17531E+01 0.00000E+00
 -1      2728 8.17541E+01 4.30295E+01 0.00000E+00
 -1      2729 8.32541E+01 4.30295E+01 0.00000E+00
 -1      2730 8.10041E+01 4.17531E+01 0.00000E+00
 -1      2731 8.47541E+01 4.30295E+01 0.00000E+00
 -1      2732 8.62541E+01 4.30295E+01 0.00000E+00
 -1      2733 8.40041E+01 4.17531E+01 0.00000E+00
 -1      2734 8.77541E+01 4.30295E+01 0.00000E+00
 -1      2735 8.92541E+01 4.30295E+01 0.00000E+00
 -1      2736 8.70041E+01 4.17531E+01 0.00000E+00
 -1      2737 9.07541E+01 4.30295E+01 0.00000E+00
 -1      2738 9.22541E+01 4.30295E+01 0.00000E+00
 -1      2739 9.00041E+01 4.17531E+01 0.00000E+00
 -1      2740 9.36791E+01 4.30295E+01 0.00000E+00
 -1      2741 9.51041E+01 4.30295E+01 0.00000E+00
 -1      2742 9.29291E+01 4.17531E+01 0.00000E+00
 -1      2743 9.66041E+01 4.30295E+01 0.00000E+00
 -1      2744 9.81041E+01 4.30295E+01 0.00000E+00
 -1      2745 9.58541E+01 4.17531E+01 0.00000E+00
 -1      2746 9.96041E+01 4.30295E+01 0.00000E+00
 -1      2747 1.01104E+02 4.30295E+01 0.00000E+00
 -1      2748 9.88541E+01 4.17531E+01 0.00000E+00
 -1      2749 1.02604E+02 4.30295E+01 0.00000E+00
 -1      2750 1.04104E+02 4.30295E+01 0.00000E+00
 -1      2751 1.01854E+02 4.17531E+01 0.00000E+00
 -1      2752 1.05604E+02 4.30295E+01 0.00000E+00
 -1      2753 1.07104E+02 4.30295E+01 0.00000E+00
 -1      2754 1.04854E+02 4.17531E+01 0.00000E+00
 -1      2755 1.08604E+02 4.30295E+01 0.00000E+00
 -1      2756 1.10104E+02 4.30295E+01 0.00000E+00
 -1      2757 1.07854E+02 4.17531E+01 0.00000E+00
 -1      2758 1.11604E+02 4.30295E+01 0.00000E+00
 -1      2759 1.13104E+02 4.30295E+01 0.00000E+00
 -1      2760 1.10854E+02 4.17531E+01 0.00000E+00
 -1      2761 1.14604E+02 4.30295E+01 0.00000E+00
 -1      2762 1.16104E+02 4.30295E+01 0.00000E+00
 -1      2763 1.13854E+02 4.17531E+01 0.00000E+00
 -1      2764 1.17604E+02 4.30295E+01 0.00000E+00
 -1      2765 1.19104E+02 4.30295E+01 0.00000E+00
 -1      2766 1.16854E+02 4.17531E+01 0.00000E+00
 -1      2767 1.20604E+02 4.30295E+01 0.00000E+00
 -1      2768 1.22104E+02 4.30295E+01 0.00000E+00
 -1      2769 1.19854E+02 4.17531E+01 0.00000E+00
 -1      2770 1.23604E+02 4.30295E+01 0.00000E+00
 -1      2771 1.25104E+02 4.30295E+01 0.00000E+00
 -1      2772 1.22854E+02 4.17531E+01 0.00000E+00
 -1      2773 1.26604E+02 4.30295E+01 0.00000E+00
 -1      2774 1.28104E+02 4.30295E+01 0.00000E+00
 -1      2775 1.25854E+02 4.17531E+01 0.00000E+00
 -1      2776 1.29604E+02 4.30295E+01 0.00000E+00
 -1      2777 1.31104E+02 4.30295E+01 0.00000E+00
 -1      2778 1.28854E+02 4.17531E+01 0.00000E+00
 -1      2779 1.32604E+02 4.30295E+01 0.00000E+00
 -1      2780 1.34104E+02 4.30295E+01 0.00000E+00
 -1      2781 1.31854E+02 4.17531E+01 0.00000E+00
 -1      2782 1.35604E+02 4.30295E+01 0.00000E+00
 -1      2783 1.37104E+02 4.30295E+01 0.00000E+00
 -1      2784 1.34854E+02 4.17531E+01 0.00000E+00
 -1      2785 1.38604E+02 4.30295E+01 0.00000E+00
 -1      2786 1.40104E+02 4.30295E+01 0.00000E+00
 -1      2787 1.37854E+02 4.17531E+01 0.00000E+00
 -1      2788 2.01240E+01 8.68250E+00 0.00000E+00
 -1      2789 1.86240E+01 8.68250E+00 0.00000E+00
 -1      2790 2.31240E+01 8.68250E+00 0.00000E+00
 -1      2791 2.16240E+01 8.68250E+00 0.00000E+00
 -1      2792 2.08740E+01 9.98150E+00 0.00000E+00
 -1      2793 1.71240E+01 8.68250E+00 0.00000E+00
 -1      2794 1.56240E+01 8.68250E+00 0.00000E+00
 -1      2795 1.78740E+01 9.98150E+00 0.00000E+00
 -1      2796 2.91240E+01 8.68250E+00 0.00000E+00
 -1      2797 2.76240E+01 8.68250E+00 0.00000E+00
 -1      2798 3.21240E+01 8.68250E+00 0.00000E+00
 -1      2799 3.06240E+01 8.68250E+00 0.00000E+00
 -1      2800 2.98740E+01 9.98150E+00 0.00000E+00
 -1      2801 3.51240E+01 8.68250E+00 0.00000E+00
 -1      2802 3.36240E+01 8.68250E+00 0.00000E+00
 -1      2803 3.28740E+01 9.98150E+00 0.00000E+00
 -1      2804 3.81240E+01 8.68250E+00 0.00000E+00
 -1      2805 3.66240E+01 8.68250E+00 0.00000E+00
 -1      2806 3.58740E+01 9.98150E+00 0.00000E+00
 -1      2807 4.11240E+01 8.68250E+00 0.00000E+00
 -1      2808 3.96240E+01 8.68250E+00 0.00000E+00
 -1      2809 3.88740E+01 9.98150E+00 0.00000E+00
 -1      2810 4.41240E+01 8.68250E+00 0.00000E+00
 -1      2811 4.26240E+01 8.68250E+00 0.00000E+00
 -1      2812 4.18740E+01 9.98150E+00 0.00000E+00
 -1      2813 4.71240E+01 8.68250E+00 0.00000E+00
 -1      2814 4.56240E+01 8.68250E+00 0.00000E+00
 -1      2815 4.48740E+01 9.98150E+00 0.00000E+00
 -1      2816 5.01240E+01 8.68250E+00 0.00000E+00
 -1      2817 4.86240E+01 8.68250E+00 0.00000E+00
 -1      2818 4.78740E+01 9.98150E+00 0.00000E+00
 -1      2819 5.31240E+01 8.68250E+00 0.00000E+00
 -1      2820 5.16240E+01 8.68250E+00 0.00000E+00
 -1      2821 5.08740E+01 9.98150E+00 0.00000E+00
 -1      2822 5.61240E+01 8.68250E+00 0.00000E+00
 -1      2823 5.46240E+01 8.68250E+00 0.00000E+00
 -1      2824 5.38740E+01 9.98150E+00 0.00000E+00
 -1      2825 5.91240E+01 8.68250E+00 0.00000E+00
 -1      2826 5.76240E+01 8.68250E+00 0.00000E+00
 -1      2827 5.68740E+01 9.98150E+00 0.00000E+00
 -1      2828 6.21240E+01 8.68250E+00 0.00000E+00
 -1      2829 6.06240E+01 8.68250E+00 0.00000E+00
 -1      2830 5.98740E+01 9.98150E+00 0.00000E+00
 -1      2831 6.51240E+01 8.68250E+00 0.00000E+00
 -1      2832 6.36240E+01 8.68250E+00 0.00000E+00
 -1      2833 6.28740E+01 9.98150E+00 0.00000E+00
 -1      2834 6.81240E+01 8.68250E+00 0.00000E+00
 -1      2835 6.66240E+01 8.68250E+00 0.00000E+00
 -1      2836 6.58740E+01 9.98150E+00 0.00000E+00
 -1      2837 7.11240E+01 8.68250E+00 0.00000E+00
 -1      2838 6.96240E+01 8.68250E+00 0.00000E+00
 -1      2839 6.88740E+01 9.98150E+00 0.00000E+00
 -1      2840 7.41240E+01 8.68250E+00 0.00000E+00
 -1      2841 7.26240E+01 8.68250E+00 0.00000E+00
 -1      2842 7.18740E+01 9.98150E+00 0.00000E+00
 -1      2843 7.71240E+01 8.68250E+00 0.00000E+00
 -1      2844 7.56240E+01 8.68250E+00 0.00000E+00
 -1      2845 7.48740E+01 9.98150E+00 0.00000E+00
 -1      2846 8.01240E+01 8.68250E+00 0.00000E+00
 -1      2847 7.86240E+01 8.68250E+00 0.00000E+00
 -1      2848 7.78740E+01 9.98150E+00 0.00000E+00
 -1      2849 8.31240E+01 8.68250E+00 0.00000E+00
 -1      2850 8.16240E+01 8.68250E+00 0.00000E+00
 -1      2851 8.08740E+01 9.98150E+00 0.00000E+00
 -1      2852 8.61240E+01 8.68250E+00 0.00000E+00
 -1      2853 8.46240E+01 8.68250E+00 0.00000E+00
 -1      2854 8.38740E+01 9.98150E+00 0.00000E+00
 -1      2855 8.91240E+01 8.68250E+00 0.00000E+00
 -1      2856 8.76240E+01 8.68250E+00 0.00000E+00
 -1      2857 8.68740E+01 9.98150E+00 0.00000E+00
 -1      2858 9.21240E+01 8.68250E+00 0.00000E+00
 -1      2859 9.06240E+01 8.68250E+00 0.00000E+00
 -1      2860 8.98740E+01 9.98150E+00 0.00000E+00
 -1      2861 9.51240E+01 8.68250E+00 0.00000E+00
 -1      2862 9.36240E+01 8.68250E+00 0.00000E+00
 -1      2863 9.28740E+01 9.98150E+00 0.00000E+00
 -1      2864 9.81240E+01 8.68250E+00 0.00000E+00
 -1      2865 9.66240E+01 8.68250E+00 0.00000E+00
 -1      2866 9.58740E+01 9.98150E+00 0.00000E+00
 -1      2867 1.01124E+02 8.68250E+00 0.00000E+00
 -1      2868 9.96240E+01 8.68250E+00 0.00000E+00
 -1      2869 9.88740E+01 9.98150E+00 0.00000E+00
 -1      2870 1.04124E+02 8.68250E+00 0.00000E+00
 -1      2871 1.02624E+02 8.68250E+00 0.00000E+00
 -1      2872 1.01874E+02 9.98150E+00 0.00000E+00
 -1      2873 1.07124E+02 8.68250E+00 0.00000E+00
 -1      2874 1.05624E+02 8.68250E+00 0.00000E+00
 -1      2875 1.04874E+02 9.98150E+00 0.00000E+00
 -1      2876 1.10124E+02 8.68250E+00 0.00000E+00
 -1      2877 1.08624E+02 8.68250E+00 0.00000E+00
 -1      2878 1.07874E+02 9.98150E+00 0.00000E+00
 -1      2879 1.13124E+02 8.68250E+00 0.00000E+00
 -1      2880 1.11624E+02 8.68250E+00 0.00000E+00
 -1      2881 1.10874E+02 9.98150E+00 0.00000E+00
 -1      2882 1.16124E+02 8.68250E+00 0.00000E+00
 -1      2883 1.14624E+02 8.68250E+00 0.00000E+00
 -1      2884 1.13874E+02 9.98150E+00 0.00000E+00
 -1      2885 1.19124E+02 8.68250E+00 0.00000E+00
 -1      2886 1.17624E+02 8.68250E+00 0.00000E+00
 -1      2887 1.16874E+02 9.98150E+00 0.00000E+00
 -1      2888 1.22124E+02 8.68250E+00 0.00000E+00
 -1      2889 1.20624E+02 8.68250E+00 0.00000E+00
 -1      2890 1.19874E+02 9.98150E+00 0.00000E+00
 -1      2891 1.25124E+02 8.68250E+00 0.00000E+00
 -1      2892 1.23624E+02 8.68250E+00 0.00000E+00
 -1      2893 1.22874E+02 9.98150E+00 0.00000E+00
 -1      2894 1.28124E+02 8.68250E+00 0.00000E+00
 -1      2895 1.26624E+02 8.68250E+00 0.00000E+00
 -1      2896 1.25874E+02 9.98150E+00 0.00000E+00
 -1      2897 1.31124E+02 8.68250E+00 0.00000E+00
 -1      2898 1.29624E+02 8.68250E+00 0.00000E+00
 -1      2899 1.28874E+02 9.98150E+00 0.00000E+00
 -1      2900 1.34124E+02 8.68250E+00 0.00000E+00
 -1      2901 1.32624E+02 8.68250E+00 0.00000E+00
 -1      2902 1.31874E+02 9.98150E+00 0.00000E+00
 -1      2903 1.37124E+02 8.68250E+00 0.00000E+00
 -1      2904 1.35624E+02 8.68250E+00 0.00000E+00
 -1      2905 1.34874E+02 9.98150E+00 0.00000E+00
 -1      2906 1.40082E+02 8.76838E+00 0.00000E+00
 -1      2907 1.38582E+02 8.76838E+00 0.00000E+00
 -1      2908 1.37832E+02 1.00674E+01 0.00000E+00
 -1      2909 1.40748E+02 1.02391E+01 0.00000E+00
 -1      2910 3.53107E+01 4.03834E+01 0.00000E+00
 -1      2911 3.48629E+01 4.12704E+01 0.00000E+00
 -1      2912 1.40907E+02 2.13375E+01 0.00000E+00
 -1      2913 1.40907E+02 1.98625E+01 0.00000E+00
 -1      2914 1.39608E+02 2.20750E+01 0.00000E+00
 -1      2915 9.10735E+00 4.08398E+01 0.00000E+00
 -1      2916 1.04333E+01 4.11569E+01 0.00000E+00
 -1      2917 9.04069E+00 3.95781E+01 0.00000E+00
 -1      2918 1.40827E+02 1.28571E+01 0.00000E+00
 -1      2919 1.40827E+02 1.13821E+01 0.00000E+00
 -1      2920 1.39370E+02 1.12962E+01 0.00000E+00
 -1      2921 1.39529E+02 1.35821E+01 0.00000E+00
 -1      2922 1.40907E+02 1.83937E+01 0.00000E+00
 -1      2923 1.40907E+02 1.69188E+01 0.00000E+00
 -1      2924 1.39608E+02 1.61938E+01 0.00000E+00
 -1      2925 1.39608E+02 1.91313E+01 0.00000E+00
 -1      2926 2.61240E+01 8.68250E+00 0.00000E+00
 -1      2927 2.46240E+01 8.68250E+00 0.00000E+00
 -1      2928 2.38740E+01 9.98150E+00 0.00000E+00
 -1      2929 2.68740E+01 9.98150E+00 0.00000E+00
 -1      2930 1.40907E+02 2.72375E+01 0.00000E+00
 -1      2931 1.40907E+02 2.57625E+01 0.00000E+00
 -1      2932 1.39608E+02 2.50250E+01 0.00000E+00
 -1      2933 1.40907E+02 3.01375E+01 0.00000E+00
 -1      2934 1.40907E+02 2.86875E+01 0.00000E+00
 -1      2935 1.39608E+02 2.79500E+01 0.00000E+00
 -1      2936 1.40907E+02 3.30875E+01 0.00000E+00
 -1      2937 1.40907E+02 3.16125E+01 0.00000E+00
 -1      2938 1.39608E+02 3.08750E+01 0.00000E+00
 -1      2939 1.40907E+02 3.60375E+01 0.00000E+00
 -1      2940 1.40907E+02 3.45625E+01 0.00000E+00
 -1      2941 1.39608E+02 3.38250E+01 0.00000E+00
 -1      2942 1.40907E+02 3.89875E+01 0.00000E+00
 -1      2943 1.40907E+02 3.75125E+01 0.00000E+00
 -1      2944 1.39608E+02 3.67750E+01 0.00000E+00
 -1      2945 2.69133E+01 2.43553E+01 0.00000E+00
 -1      2946 2.80836E+01 2.47807E+01 0.00000E+00
 -1      2947 8.93045E+00 2.87232E+01 0.00000E+00
 -1      2948 8.82414E+00 3.01982E+01 0.00000E+00
 -1      2949 3.18718E+01 2.68636E+01 0.00000E+00
 -1      2950 3.25946E+01 2.76485E+01 0.00000E+00
 -1      2951 9.09300E+00 1.68813E+01 0.00000E+00
 -1      2952 9.09300E+00 1.83563E+01 0.00000E+00
 -1      2953 1.03920E+01 1.90812E+01 0.00000E+00
 -1      2954 1.03920E+01 1.61437E+01 0.00000E+00
 -1      2955 1.39072E+01 3.02850E+01 0.00000E+00
 -1      2956 1.47253E+01 2.94156E+01 0.00000E+00
 -1      2957 8.82414E+00 3.16732E+01 0.00000E+00
 -1      2958 8.82414E+00 3.31482E+01 0.00000E+00
 -1      2959 1.00669E+01 3.10215E+01 0.00000E+00
 -1      2960 3.32818E+01 2.85697E+01 0.00000E+00
 -1      2961 3.39691E+01 2.94909E+01 0.00000E+00
 -1      2962 3.36129E+01 2.75396E+01 0.00000E+00
 -1      2963 3.57700E+01 3.28061E+01 0.00000E+00
 -1      2964 3.61808E+01 3.40372E+01 0.00000E+00
 -1      2965 1.23123E+01 3.79255E+01 0.00000E+00
 -1      2966 1.21913E+01 3.67941E+01 0.00000E+00
 -1      2967 1.42455E+01 4.25402E+01 0.00000E+00
 -1      2968 3.59442E+01 3.79902E+01 0.00000E+00
 -1      2969 3.57764E+01 3.91401E+01 0.00000E+00
 -1      2970 2.41561E+01 2.42380E+01 0.00000E+00
 -1      2971 2.53633E+01 2.41417E+01 0.00000E+00
 -1      2972 1.93316E+01 2.50497E+01 0.00000E+00
 -1      2973 2.04125E+01 2.46656E+01 0.00000E+00
 -1      2974 1.22610E+01 3.54477E+01 0.00000E+00
 -1      2975 1.23592E+01 3.42236E+01 0.00000E+00
 -1      2976 3.46501E+01 3.06493E+01 0.00000E+00
 -1      2977 3.51272E+01 3.16463E+01 0.00000E+00
 -1      2978 1.31312E+01 4.13032E+01 0.00000E+00
 -1      2979 1.34044E+01 4.04048E+01 0.00000E+00
 -1      2980 1.30356E+01 3.92894E+01 0.00000E+00
 -1      2981 2.17321E+01 2.44125E+01 0.00000E+00
 -1      2982 2.28803E+01 2.42237E+01 0.00000E+00
 -1      2983 1.74336E+01 2.60067E+01 0.00000E+00
 -1      2984 1.83826E+01 2.55282E+01 0.00000E+00
 -1      2985 1.85517E+01 2.42912E+01 0.00000E+00
 -1      2986 9.09300E+00 2.57000E+01 0.00000E+00
 -1      2987 9.09300E+00 2.71750E+01 0.00000E+00
 -1      2988 1.03920E+01 2.49750E+01 0.00000E+00
 -1      2989 1.16312E+01 4.13032E+01 0.00000E+00
 -1      2990 1.25806E+01 3.27725E+01 0.00000E+00
 -1      2991 1.29951E+01 3.15719E+01 0.00000E+00
 -1      2992 2.94311E+01 2.52971E+01 0.00000E+00
 -1      2993 3.06522E+01 2.59518E+01 0.00000E+00
 -1      2994 3.62918E+01 3.56506E+01 0.00000E+00
 -1      2995 3.61746E+01 3.68077E+01 0.00000E+00
 -1      2996 1.15645E+01 4.00415E+01 0.00000E+00
 -1      2997 9.00375E+00 8.96981E+00 0.00000E+00
 -1      2998 1.46885E+01 2.84284E+01 0.00000E+00
 -1      2999 9.51836E+00 3.42835E+01 0.00000E+00
 -1      3000 9.51836E+00 3.57523E+01 0.00000E+00
 -1      3001 1.48740E+01 9.98151E+00 0.00000E+00
 -1      3002 1.41240E+01 8.68251E+00 0.00000E+00
 -1      3003 1.41673E+02 4.30662E+01 0.00000E+00
 -1      3004 3.62432E+01 3.99323E+01 0.00000E+00
 -1      3005 3.17061E+01 2.57066E+01 0.00000E+00
 -1      3006 1.02295E+01 2.79982E+01 0.00000E+00
 -1      3007 2.91390E+01 2.42785E+01 0.00000E+00
 -1      3008 1.40780E+02 4.07390E+01 0.00000E+00
 -1      3009 1.39481E+02 4.00015E+01 0.00000E+00
 -1      3010 2.62415E+01 2.35485E+01 0.00000E+00
 -1      3011 2.71197E+01 2.29553E+01 0.00000E+00
 -1      3012 2.55697E+01 2.27418E+01 0.00000E+00
 -1      3013 3.49812E+01 2.96192E+01 0.00000E+00
 -1      3014 1.03027E+01 9.70731E+00 0.00000E+00
 -1      3015 1.30515E+01 8.34733E+00 0.00000E+00
 -1      3016 3.70588E+01 3.47106E+01 0.00000E+00
 -1      3017 1.66287E+01 2.61676E+01 0.00000E+00
 -1      3018 1.67978E+01 2.49307E+01 0.00000E+00
 -1      3019 1.58239E+01 2.63286E+01 0.00000E+00
 -1      3020 1.13856E+01 3.61135E+01 0.00000E+00
 -1      3021 1.07611E+01 3.36318E+01 0.00000E+00
 -1      3022 2.34157E+01 2.33208E+01 0.00000E+00
 -1      3023 3.63050E+01 3.19374E+01 0.00000E+00
 -1      3024 1.20391E+01 3.88239E+01 0.00000E+00
 -1      3025 3.59658E+01 4.27408E+01 0.00000E+00
 -1      3026 3.67158E+01 4.14644E+01 0.00000E+00
 -1      3027 3.69393E+01 3.75065E+01 0.00000E+00
 -1      3028 2.08203E+01 2.35596E+01 0.00000E+00
 -1      3029 1.16767E+01 3.33160E+01 0.00000E+00
 -1      3030 3.46281E+01 4.21527E+01 0.00000E+00
 -1      3031 3.42678E+01 4.29622E+01 0.00000E+00
 -1      3032 1.40923E+02 4.17898E+01 0.00000E+00
 -1      3033 3.42310E+01 4.36231E+01 0.00000E+00
 -1      3034 1.16910E+01 2.12875E+01 0.00000E+00
 -1      3035 1.16910E+01 2.27625E+01 0.00000E+00
 -1      3036 1.16910E+01 1.24625E+01 0.00000E+00
 -1      3037 1.16910E+01 1.39375E+01 0.00000E+00
 -1      3038 1.14712E+01 7.20138E+00 0.00000E+00
 -1      3039 1.35784E+01 2.81578E+01 0.00000E+00
 -1      3040 1.45447E+01 2.72949E+01 0.00000E+00
 -1      3041 9.44859E+00 3.70987E+01 0.00000E+00
 -1      3042 9.51524E+00 3.83604E+01 0.00000E+00
 -1      3043 1.38309E+02 2.86750E+01 0.00000E+00
 -1      3044 1.38309E+02 2.72250E+01 0.00000E+00
 -1      3045 1.56240E+01 1.12805E+01 0.00000E+00
 -1      3046 1.41241E+01 1.12805E+01 0.00000E+00
 -1      3047 2.27902E+01 2.22048E+01 0.00000E+00
 -1      3048 2.40660E+01 2.22191E+01 0.00000E+00
 -1      3049 3.79424E+01 3.38393E+01 0.00000E+00
 -1      3050 3.80534E+01 3.54527E+01 0.00000E+00
 -1      3051 1.22252E+01 3.08900E+01 0.00000E+00
 -1      3052 1.33222E+01 3.05968E+01 0.00000E+00
 -1      3053 1.38309E+02 2.57500E+01 0.00000E+00
 -1      3054 1.38309E+02 2.42750E+01 0.00000E+00
 -1      3055 1.37010E+02 2.64750E+01 0.00000E+00
 -1      3056 4.13666E+01 4.04541E+01 0.00000E+00
 -1      3057 4.27916E+01 4.04541E+01 0.00000E+00
 -1      3058 4.42916E+01 4.04541E+01 0.00000E+00
 -1      3059 4.57916E+01 4.04541E+01 0.00000E+00
 -1      3060 4.35791E+01 3.91551E+01 0.00000E+00
 -1      3061 4.72916E+01 4.04541E+01 0.00000E+00
 -1      3062 4.87916E+01 4.04541E+01 0.00000E+00
 -1      3063 4.65791E+01 3.91551E+01 0.00000E+00
 -1      3064 5.02916E+01 4.04541E+01 0.00000E+00
 -1      3065 5.17916E+01 4.04541E+01 0.00000E+00
 -1      3066 4.95791E+01 3.91551E+01 0.00000E+00
 -1      3067 5.32916E+01 4.04541E+01 0.00000E+00
 -1      3068 5.47916E+01 4.04541E+01 0.00000E+00
 -1      3069 5.25791E+01 3.91551E+01 0.00000E+00
 -1      3070 5.62916E+01 4.04541E+01 0.00000E+00
 -1      3071 5.77916E+01 4.04541E+01 0.00000E+00
 -1      3072 5.55791E+01 3.91551E+01 0.00000E+00
 -1      3073 5.92916E+01 4.04541E+01 0.00000E+00
 -1      3074 6.07916E+01 4.04541E+01 0.00000E+00
 -1      3075 5.85791E+01 3.91551E+01 0.00000E+00
 -1      3076 6.22916E+01 4.04541E+01 0.00000E+00
 -1      3077 6.37916E+01 4.04541E+01 0.00000E+00
 -1      3078 6.15791E+01 3.91551E+01 0.00000E+00
 -1      3079 6.52916E+01 4.04541E+01 0.00000E+00
 -1      3080 6.67916E+01 4.04541E+01 0.00000E+00
 -1      3081 6.45791E+01 3.91551E+01 0.00000E+00
 -1      3082 6.82916E+01 4.04541E+01 0.00000E+00
 -1      3083 6.97916E+01 4.04541E+01 0.00000E+00
 -1      3084 6.75791E+01 3.91551E+01 0.00000E+00
 -1      3085 7.12916E+01 4.04541E+01 0.00000E+00
 -1      3086 7.27916E+01 4.04541E+01 0.00000E+00
 -1      3087 7.05791E+01 3.91551E+01 0.00000E+00
 -1      3088 7.42916E+01 4.04541E+01 0.00000E+00
 -1      3089 7.57916E+01 4.04541E+01 0.00000E+00
 -1      3090 7.35791E+01 3.91551E+01 0.00000E+00
 -1      3091 7.72916E+01 4.04541E+01 0.00000E+00
 -1      3092 7.87916E+01 4.04541E+01 0.00000E+00
 -1      3093 7.65791E+01 3.91551E+01 0.00000E+00
 -1      3094 8.02916E+01 4.04541E+01 0.00000E+00
 -1      3095 8.17916E+01 4.04541E+01 0.00000E+00
 -1      3096 7.95791E+01 3.91551E+01 0.00000E+00
 -1      3097 8.32916E+01 4.04541E+01 0.00000E+00
 -1      3098 8.47916E+01 4.04541E+01 0.00000E+00
 -1      3099 8.25791E+01 3.91551E+01 0.00000E+00
 -1      3100 8.62916E+01 4.04541E+01 0.00000E+00
 -1      3101 8.77916E+01 4.04541E+01 0.00000E+00
 -1      3102 8.55791E+01 3.91551E+01 0.00000E+00
 -1      3103 8.92916E+01 4.04541E+01 0.00000E+00
 -1      3104 9.07916E+01 4.04541E+01 0.00000E+00
 -1      3105 8.85791E+01 3.91551E+01 0.00000E+00
 -1      3106 9.22166E+01 4.04541E+01 0.00000E+00
 -1      3107 9.36416E+01 4.04541E+01 0.00000E+00
 -1      3108 9.15041E+01 3.91551E+01 0.00000E+00
 -1      3109 9.51416E+01 4.04541E+01 0.00000E+00
 -1      3110 9.66416E+01 4.04541E+01 0.00000E+00
 -1      3111 9.44291E+01 3.91551E+01 0.00000E+00
 -1      3112 9.81416E+01 4.04541E+01 0.00000E+00
 -1      3113 9.96416E+01 4.04541E+01 0.00000E+00
 -1      3114 9.74291E+01 3.91551E+01 0.00000E+00
 -1      3115 1.01142E+02 4.04541E+01 0.00000E+00
 -1      3116 1.02642E+02 4.04541E+01 0.00000E+00
 -1      3117 1.00429E+02 3.91551E+01 0.00000E+00
 -1      3118 1.04142E+02 4.04541E+01 0.00000E+00
 -1      3119 1.05642E+02 4.04541E+01 0.00000E+00
 -1      3120 1.03429E+02 3.91551E+01 0.00000E+00
 -1      3121 1.07142E+02 4.04541E+01 0.00000E+00
 -1      3122 1.08642E+02 4.04541E+01 0.00000E+00
 -1      3123 1.06429E+02 3.91551E+01 0.00000E+00
 -1      3124 1.10142E+02 4.04541E+01 0.00000E+00
 -1      3125 1.11642E+02 4.04541E+01 0.00000E+00
 -1      3126 1.09429E+02 3.91551E+01 0.00000E+00
 -1      3127 1.13142E+02 4.04541E+01 0.00000E+00
 -1      3128 1.14642E+02 4.04541E+01 0.00000E+00
 -1      3129 1.12429E+02 3.91551E+01 0.00000E+00
 -1      3130 1.16142E+02 4.04541E+01 0.00000E+00
 -1      3131 1.17642E+02 4.04541E+01 0.00000E+00
 -1      3132 1.15429E+02 3.91551E+01 0.00000E+00
 -1      3133 1.19142E+02 4.04541E+01 0.00000E+00
 -1      3134 1.20642E+02 4.04541E+01 0.00000E+00
 -1      3135 1.18429E+02 3.91551E+01 0.00000E+00
 -1      3136 1.22142E+02 4.04541E+01 0.00000E+00
 -1      3137 1.23642E+02 4.04541E+01 0.00000E+00
 -1      3138 1.21429E+02 3.91551E+01 0.00000E+00
 -1      3139 1.25142E+02 4.04541E+01 0.00000E+00
 -1      3140 1.26642E+02 4.04541E+01 0.00000E+00
 -1      3141 1.24429E+02 3.91551E+01 0.00000E+00
 -1      3142 1.28142E+02 4.04541E+01 0.00000E+00
 -1      3143 1.29642E+02 4.04541E+01 0.00000E+00
 -1      3144 1.27429E+02 3.91551E+01 0.00000E+00
 -1      3145 1.31142E+02 4.04541E+01 0.00000E+00
 -1      3146 1.32642E+02 4.04541E+01 0.00000E+00
 -1      3147 1.30429E+02 3.91551E+01 0.00000E+00
 -1      3148 1.34142E+02 4.04541E+01 0.00000E+00
 -1      3149 1.35642E+02 4.04541E+01 0.00000E+00
 -1      3150 1.33429E+02 3.91551E+01 0.00000E+00
 -1      3151 1.36811E+02 4.02278E+01 0.00000E+00
 -1      3152 1.38311E+02 4.02278E+01 0.00000E+00
 -1      3153 1.38438E+02 3.84763E+01 0.00000E+00
 -1      3154 1.36099E+02 3.89288E+01 0.00000E+00
 -1      3155 2.16240E+01 1.12805E+01 0.00000E+00
 -1      3156 2.01240E+01 1.12805E+01 0.00000E+00
 -1      3157 1.86240E+01 1.12805E+01 0.00000E+00
 -1      3158 1.71240E+01 1.12805E+01 0.00000E+00
 -1      3159 1.63741E+01 1.25795E+01 0.00000E+00
 -1      3160 1.93740E+01 1.25795E+01 0.00000E+00
 -1      3161 3.36240E+01 1.12805E+01 0.00000E+00
 -1      3162 3.21240E+01 1.12805E+01 0.00000E+00
 -1      3163 3.06240E+01 1.12805E+01 0.00000E+00
 -1      3164 2.91240E+01 1.12805E+01 0.00000E+00
 -1      3165 3.13740E+01 1.25795E+01 0.00000E+00
 -1      3166 3.96240E+01 1.12805E+01 0.00000E+00
 -1      3167 3.81240E+01 1.12805E+01 0.00000E+00
 -1      3168 4.26240E+01 1.12805E+01 0.00000E+00
 -1      3169 4.11240E+01 1.12805E+01 0.00000E+00
 -1      3170 4.03740E+01 1.25795E+01 0.00000E+00
 -1      3171 4.56240E+01 1.12805E+01 0.00000E+00
 -1      3172 4.41240E+01 1.12805E+01 0.00000E+00
 -1      3173 4.33740E+01 1.25795E+01 0.00000E+00
 -1      3174 4.86240E+01 1.12805E+01 0.00000E+00
 -1      3175 4.71240E+01 1.12805E+01 0.00000E+00
 -1      3176 4.63740E+01 1.25795E+01 0.00000E+00
 -1      3177 5.16240E+01 1.12805E+01 0.00000E+00
 -1      3178 5.01240E+01 1.12805E+01 0.00000E+00
 -1      3179 4.93740E+01 1.25795E+01 0.00000E+00
 -1      3180 5.46240E+01 1.12805E+01 0.00000E+00
 -1      3181 5.31240E+01 1.12805E+01 0.00000E+00
 -1      3182 5.23740E+01 1.25795E+01 0.00000E+00
 -1      3183 5.76240E+01 1.12805E+01 0.00000E+00
 -1      3184 5.61240E+01 1.12805E+01 0.00000E+00
 -1      3185 5.53740E+01 1.25795E+01 0.00000E+00
 -1      3186 6.06240E+01 1.12805E+01 0.00000E+00
 -1      3187 5.91240E+01 1.12805E+01 0.00000E+00
 -1      3188 5.83740E+01 1.25795E+01 0.00000E+00
 -1      3189 6.36240E+01 1.12805E+01 0.00000E+00
 -1      3190 6.21240E+01 1.12805E+01 0.00000E+00
 -1      3191 6.13740E+01 1.25795E+01 0.00000E+00
 -1      3192 6.66240E+01 1.12805E+01 0.00000E+00
 -1      3193 6.51240E+01 1.12805E+01 0.00000E+00
 -1      3194 6.43740E+01 1.25795E+01 0.00000E+00
 -1      3195 6.96240E+01 1.12805E+01 0.00000E+00
 -1      3196 6.81240E+01 1.12805E+01 0.00000E+00
 -1      3197 6.73740E+01 1.25795E+01 0.00000E+00
 -1      3198 7.26240E+01 1.12805E+01 0.00000E+00
 -1      3199 7.11240E+01 1.12805E+01 0.00000E+00
 -1      3200 7.03740E+01 1.25795E+01 0.00000E+00
 -1      3201 7.56240E+01 1.12805E+01 0.00000E+00
 -1      3202 7.41240E+01 1.12805E+01 0.00000E+00
 -1      3203 7.33740E+01 1.25795E+01 0.00000E+00
 -1      3204 7.86240E+01 1.12805E+01 0.00000E+00
 -1      3205 7.71240E+01 1.12805E+01 0.00000E+00
 -1      3206 7.63740E+01 1.25795E+01 0.00000E+00
 -1      3207 8.16240E+01 1.12805E+01 0.00000E+00
 -1      3208 8.01240E+01 1.12805E+01 0.00000E+00
 -1      3209 7.93740E+01 1.25795E+01 0.00000E+00
 -1      3210 8.46240E+01 1.12805E+01 0.00000E+00
 -1      3211 8.31240E+01 1.12805E+01 0.00000E+00
 -1      3212 8.23740E+01 1.25795E+01 0.00000E+00
 -1      3213 8.76240E+01 1.12805E+01 0.00000E+00
 -1      3214 8.61240E+01 1.12805E+01 0.00000E+00
 -1      3215 8.53740E+01 1.25795E+01 0.00000E+00
 -1      3216 9.06240E+01 1.12805E+01 0.00000E+00
 -1      3217 8.91240E+01 1.12805E+01 0.00000E+00
 -1      3218 8.83740E+01 1.25795E+01 0.00000E+00
 -1      3219 9.36240E+01 1.12805E+01 0.00000E+00
 -1      3220 9.21240E+01 1.12805E+01 0.00000E+00
 -1      3221 9.13740E+01 1.25795E+01 0.00000E+00
 -1      3222 9.66240E+01 1.12805E+01 0.00000E+00
 -1      3223 9.51240E+01 1.12805E+01 0.00000E+00
 -1      3224 9.43740E+01 1.25795E+01 0.00000E+00
 -1      3225 9.96240E+01 1.12805E+01 0.00000E+00
 -1      3226 9.81240E+01 1.12805E+01 0.00000E+00
 -1      3227 9.73740E+01 1.25795E+01 0.00000E+00
 -1      3228 1.02624E+02 1.12805E+01 0.00000E+00
 -1      3229 1.01124E+02 1.12805E+01 0.00000E+00
 -1      3230 1.00374E+02 1.25795E+01 0.00000E+00
 -1      3231 1.05624E+02 1.12805E+01 0.00000E+00
 -1      3232 1.04124E+02 1.12805E+01 0.00000E+00
 -1      3233 1.03374E+02 1.25795E+01 0.00000E+00
 -1      3234 1.08624E+02 1.12805E+01 0.00000E+00
 -1      3235 1.07124E+02 1.12805E+01 0.00000E+00
 -1      3236 1.06374E+02 1.25795E+01 0.00000E+00
 -1      3237 1.11624E+02 1.12805E+01 0.00000E+00
 -1      3238 1.10124E+02 1.12805E+01 0.00000E+00
 -1      3239 1.09374E+02 1.25795E+01 0.00000E+00
 -1      3240 1.14624E+02 1.12805E+01 0.00000E+00
 -1      3241 1.13124E+02 1.12805E+01 0.00000E+00
 -1      3242 1.12374E+02 1.25795E+01 0.00000E+00
 -1      3243 1.17624E+02 1.12805E+01 0.00000E+00
 -1      3244 1.16124E+02 1.12805E+01 0.00000E+00
 -1      3245 1.15374E+02 1.25795E+01 0.00000E+00
 -1      3246 1.20624E+02 1.12805E+01 0.00000E+00
 -1      3247 1.19124E+02 1.12805E+01 0.00000E+00
 -1      3248 1.18374E+02 1.25795E+01 0.00000E+00
 -1      3249 1.23624E+02 1.12805E+01 0.00000E+00
 -1      3250 1.22124E+02 1.12805E+01 0.00000E+00
 -1      3251 1.21374E+02 1.25795E+01 0.00000E+00
 -1      3252 1.26624E+02 1.12805E+01 0.00000E+00
 -1      3253 1.25124E+02 1.12805E+01 0.00000E+00
 -1      3254 1.24374E+02 1.25795E+01 0.00000E+00
 -1      3255 1.29624E+02 1.12805E+01 0.00000E+00
 -1      3256 1.28124E+02 1.12805E+01 0.00000E+00
 -1      3257 1.27374E+02 1.25795E+01 0.00000E+00
 -1      3258 1.32624E+02 1.12805E+01 0.00000E+00
 -1      3259 1.31124E+02 1.12805E+01 0.00000E+00
 -1      3260 1.30374E+02 1.25795E+01 0.00000E+00
 -1      3261 1.35624E+02 1.12805E+01 0.00000E+00
 -1      3262 1.34124E+02 1.12805E+01 0.00000E+00
 -1      3263 1.33374E+02 1.25795E+01 0.00000E+00
 -1      3264 1.38226E+02 1.13313E+01 0.00000E+00
 -1      3265 1.36768E+02 1.12454E+01 0.00000E+00
 -1      3266 1.36018E+02 1.25444E+01 0.00000E+00
 -1      3267 1.38305E+02 1.24742E+01 0.00000E+00
 -1      3268 1.38309E+02 2.28000E+01 0.00000E+00
 -1      3269 1.38309E+02 2.13250E+01 0.00000E+00
 -1      3270 1.37010E+02 2.35250E+01 0.00000E+00
 -1      3271 1.38309E+02 3.45625E+01 0.00000E+00
 -1      3272 1.38309E+02 3.30875E+01 0.00000E+00
 -1      3273 1.38374E+02 3.72569E+01 0.00000E+00
 -1      3274 1.38374E+02 3.57819E+01 0.00000E+00
 -1      3275 1.37075E+02 3.50444E+01 0.00000E+00
 -1      3276 1.37204E+02 3.74831E+01 0.00000E+00
 -1      3277 1.17938E+01 8.83558E+00 0.00000E+00
 -1      3278 1.18830E+01 1.08533E+01 0.00000E+00
 -1      3279 1.09825E+01 3.07057E+01 0.00000E+00
 -1      3280 1.09825E+01 3.21807E+01 0.00000E+00
 -1      3281 2.88021E+01 2.31413E+01 0.00000E+00
 -1      3282 3.01496E+01 2.36577E+01 0.00000E+00
 -1      3283 3.40238E+01 2.65161E+01 0.00000E+00
 -1      3284 3.47111E+01 2.74373E+01 0.00000E+00
 -1      3285 1.13096E+01 2.97307E+01 0.00000E+00
 -1      3286 3.66240E+01 1.12805E+01 0.00000E+00
 -1      3287 3.51240E+01 1.12805E+01 0.00000E+00
 -1      3288 3.43740E+01 1.25795E+01 0.00000E+00
 -1      3289 3.73740E+01 1.25795E+01 0.00000E+00
 -1      3290 1.38309E+02 3.16187E+01 0.00000E+00
 -1      3291 1.38309E+02 3.01437E+01 0.00000E+00
 -1      3292 1.37010E+02 2.94188E+01 0.00000E+00
 -1      3293 1.37010E+02 3.23563E+01 0.00000E+00
 -1      3294 3.78962E+01 3.70793E+01 0.00000E+00
 -1      3295 3.76658E+01 3.82618E+01 0.00000E+00
 -1      3296 3.54522E+01 2.85629E+01 0.00000E+00
 -1      3297 3.61332E+01 2.97214E+01 0.00000E+00
 -1      3298 1.75779E+01 2.35403E+01 0.00000E+00
 -1      3299 1.85269E+01 2.30618E+01 0.00000E+00
 -1      3300 3.74236E+01 3.92414E+01 0.00000E+00
 -1      3301 3.69580E+01 4.04847E+01 0.00000E+00
 -1      3302 3.78962E+01 4.07734E+01 0.00000E+00
 -1      3303 3.83806E+01 3.88142E+01 0.00000E+00
 -1      3304 1.19133E+01 2.67371E+01 0.00000E+00
 -1      3305 1.17507E+01 2.82853E+01 0.00000E+00
 -1      3306 3.17101E+01 2.44297E+01 0.00000E+00
 -1      3307 3.29297E+01 2.53415E+01 0.00000E+00
 -1      3308 1.99832E+01 2.27617E+01 0.00000E+00
 -1      3309 2.13028E+01 2.25086E+01 0.00000E+00
 -1      3310 3.68802E+01 3.08606E+01 0.00000E+00
 -1      3311 3.75230E+01 3.20203E+01 0.00000E+00
 -1      3312 1.31373E+01 2.96031E+01 0.00000E+00
 -1      3313 1.29900E+01 1.46687E+01 0.00000E+00
 -1      3314 1.16910E+01 1.54063E+01 0.00000E+00
 -1      3315 1.16910E+01 1.68750E+01 0.00000E+00
 -1      3316 3.93962E+01 4.07734E+01 0.00000E+00
 -1      3317 1.08412E+01 3.86776E+01 0.00000E+00
 -1      3318 2.76240E+01 1.12805E+01 0.00000E+00
 -1      3319 2.61240E+01 1.12805E+01 0.00000E+00
 -1      3320 2.83740E+01 1.25795E+01 0.00000E+00
 -1      3321 1.31820E+01 1.15908E+01 0.00000E+00
 -1      3322 1.39320E+01 1.28898E+01 0.00000E+00
 -1      3323 2.49442E+01 2.16259E+01 0.00000E+00
 -1      3324 3.96635E+01 3.53367E+01 0.00000E+00
 -1      3325 3.87799E+01 3.62080E+01 0.00000E+00
 -1      3326 3.95064E+01 3.69633E+01 0.00000E+00
 -1      3327 1.38309E+02 1.69281E+01 0.00000E+00
 -1      3328 1.38309E+02 1.54594E+01 0.00000E+00
 -1      3329 1.67731E+01 2.37013E+01 0.00000E+00
 -1      3330 1.67484E+01 2.24718E+01 0.00000E+00
 -1      3331 1.59682E+01 2.38622E+01 0.00000E+00
 -1      3332 1.16910E+01 1.98188E+01 0.00000E+00
 -1      3333 1.29900E+01 2.05562E+01 0.00000E+00
 -1      3334 1.16910E+01 1.83500E+01 0.00000E+00
 -1      3335 3.57310E+01 4.36231E+01 0.00000E+00
 -1      3336 4.01087E+01 3.94744E+01 0.00000E+00
 -1      3337 1.38309E+02 1.98609E+01 0.00000E+00
 -1      3338 1.38309E+02 1.83922E+01 0.00000E+00
 -1      3339 1.37010E+02 1.76578E+01 0.00000E+00
 -1      3340 1.37010E+02 2.05859E+01 0.00000E+00
 -1      3341 2.46240E+01 1.12805E+01 0.00000E+00
 -1      3342 2.31240E+01 1.12805E+01 0.00000E+00
 -1      3343 2.23740E+01 1.25795E+01 0.00000E+00
 -1      3344 2.53740E+01 1.25795E+01 0.00000E+00
 -1      3345 1.38385E+02 1.36172E+01 0.00000E+00
 -1      3346 2.74585E+01 2.15278E+01 0.00000E+00
 -1      3347 2.81303E+01 2.23345E+01 0.00000E+00
 -1      3348 2.91409E+01 2.17137E+01 0.00000E+00
 -1      3349 3.40278E+01 2.52392E+01 0.00000E+00
 -1      3350 1.47137E+01 2.60579E+01 0.00000E+00
 -1      3351 1.37086E+02 1.43515E+01 0.00000E+00
 -1      3352 3.13732E+01 2.32925E+01 0.00000E+00
 -1      3353 3.58631E+01 2.75395E+01 0.00000E+00
 -1      3354 3.55428E+01 4.20579E+01 0.00000E+00
 -1      3355 3.73512E+01 2.98043E+01 0.00000E+00
 -1      3356 3.85176E+01 3.27624E+01 0.00000E+00
 -1      3357 3.95122E+01 3.35045E+01 0.00000E+00
 -1      3358 3.90928E+01 3.16856E+01 0.00000E+00
 -1      3359 1.90094E+01 2.20108E+01 0.00000E+00
 -1      3360 2.19531E+01 2.14069E+01 0.00000E+00
 -1      3361 1.17922E+01 2.53729E+01 0.00000E+00
 -1      3362 1.33135E+01 2.56600E+01 0.00000E+00
 -1      3363 1.45927E+01 2.46937E+01 0.00000E+00
 -1      3364 1.17922E+01 2.38979E+01 0.00000E+00
 -1      3365 1.30912E+01 2.31604E+01 0.00000E+00
 -1      3366 4.58291E+01 3.78561E+01 0.00000E+00
 -1      3367 4.73291E+01 3.78561E+01 0.00000E+00
 -1      3368 4.88291E+01 3.78561E+01 0.00000E+00
 -1      3369 5.03291E+01 3.78561E+01 0.00000E+00
 -1      3370 4.80791E+01 3.65571E+01 0.00000E+00
 -1      3371 5.18291E+01 3.78561E+01 0.00000E+00
 -1      3372 5.33291E+01 3.78561E+01 0.00000E+00
 -1      3373 5.10791E+01 3.65571E+01 0.00000E+00
 -1      3374 5.48291E+01 3.78561E+01 0.00000E+00
 -1      3375 5.63291E+01 3.78561E+01 0.00000E+00
 -1      3376 5.40791E+01 3.65571E+01 0.00000E+00
 -1      3377 5.78291E+01 3.78561E+01 0.00000E+00
 -1      3378 5.93291E+01 3.78561E+01 0.00000E+00
 -1      3379 5.70791E+01 3.65571E+01 0.00000E+00
 -1      3380 6.08291E+01 3.78561E+01 0.00000E+00
 -1      3381 6.23291E+01 3.78561E+01 0.00000E+00
 -1      3382 6.00791E+01 3.65571E+01 0.00000E+00
 -1      3383 6.38291E+01 3.78561E+01 0.00000E+00
 -1      3384 6.53291E+01 3.78561E+01 0.00000E+00
 -1      3385 6.30791E+01 3.65571E+01 0.00000E+00
 -1      3386 6.68291E+01 3.78561E+01 0.00000E+00
 -1      3387 6.83291E+01 3.78561E+01 0.00000E+00
 -1      3388 6.60791E+01 3.65571E+01 0.00000E+00
 -1      3389 6.98291E+01 3.78561E+01 0.00000E+00
 -1      3390 7.13291E+01 3.78561E+01 0.00000E+00
 -1      3391 6.90791E+01 3.65571E+01 0.00000E+00
 -1      3392 7.28291E+01 3.78561E+01 0.00000E+00
 -1      3393 7.43291E+01 3.78561E+01 0.00000E+00
 -1      3394 7.20791E+01 3.65571E+01 0.00000E+00
 -1      3395 7.58291E+01 3.78561E+01 0.00000E+00
 -1      3396 7.73291E+01 3.78561E+01 0.00000E+00
 -1      3397 7.50791E+01 3.65571E+01 0.00000E+00
 -1      3398 7.88291E+01 3.78561E+01 0.00000E+00
 -1      3399 8.03291E+01 3.78561E+01 0.00000E+00
 -1      3400 7.80791E+01 3.65571E+01 0.00000E+00
 -1      3401 8.18291E+01 3.78561E+01 0.00000E+00
 -1      3402 8.33291E+01 3.78561E+01 0.00000E+00
 -1      3403 8.10791E+01 3.65571E+01 0.00000E+00
 -1      3404 8.48291E+01 3.78561E+01 0.00000E+00
 -1      3405 8.63291E+01 3.78561E+01 0.00000E+00
 -1      3406 8.40791E+01 3.65571E+01 0.00000E+00
 -1      3407 8.78291E+01 3.78561E+01 0.00000E+00
 -1      3408 8.93291E+01 3.78561E+01 0.00000E+00
 -1      3409 8.70791E+01 3.65571E+01 0.00000E+00
 -1      3410 9.07541E+01 3.78561E+01 0.00000E+00
 -1      3411 9.21791E+01 3.78561E+01 0.00000E+00
 -1      3412 9.00041E+01 3.65571E+01 0.00000E+00
 -1      3413 9.36791E+01 3.78561E+01 0.00000E+00
 -1      3414 9.51791E+01 3.78561E+01 0.00000E+00
 -1      3415 9.29291E+01 3.65571E+01 0.00000E+00
 -1      3416 9.66791E+01 3.78561E+01 0.00000E+00
 -1      3417 9.81791E+01 3.78561E+01 0.00000E+00
 -1      3418 9.59291E+01 3.65571E+01 0.00000E+00
 -1      3419 9.96791E+01 3.78561E+01 0.00000E+00
 -1      3420 1.01179E+02 3.78561E+01 0.00000E+00
 -1      3421 9.89291E+01 3.65571E+01 0.00000E+00
 -1      3422 1.02679E+02 3.78561E+01 0.00000E+00
 -1      3423 1.04179E+02 3.78561E+01 0.00000E+00
 -1      3424 1.01929E+02 3.65571E+01 0.00000E+00
 -1      3425 1.05679E+02 3.78561E+01 0.00000E+00
 -1      3426 1.07179E+02 3.78561E+01 0.00000E+00
 -1      3427 1.04929E+02 3.65571E+01 0.00000E+00
 -1      3428 1.08679E+02 3.78561E+01 0.00000E+00
 -1      3429 1.10179E+02 3.78561E+01 0.00000E+00
 -1      3430 1.07929E+02 3.65571E+01 0.00000E+00
 -1      3431 1.11679E+02 3.78561E+01 0.00000E+00
 -1      3432 1.13179E+02 3.78561E+01 0.00000E+00
 -1      3433 1.10929E+02 3.65571E+01 0.00000E+00
 -1      3434 1.14679E+02 3.78561E+01 0.00000E+00
 -1      3435 1.16179E+02 3.78561E+01 0.00000E+00
 -1      3436 1.13929E+02 3.65571E+01 0.00000E+00
 -1      3437 1.17679E+02 3.78561E+01 0.00000E+00
 -1      3438 1.19179E+02 3.78561E+01 0.00000E+00
 -1      3439 1.16929E+02 3.65571E+01 0.00000E+00
 -1      3440 1.20679E+02 3.78561E+01 0.00000E+00
 -1      3441 1.22179E+02 3.78561E+01 0.00000E+00
 -1      3442 1.19929E+02 3.65571E+01 0.00000E+00
 -1      3443 1.23679E+02 3.78561E+01 0.00000E+00
 -1      3444 1.25179E+02 3.78561E+01 0.00000E+00
 -1      3445 1.22929E+02 3.65571E+01 0.00000E+00
 -1      3446 1.26679E+02 3.78561E+01 0.00000E+00
 -1      3447 1.28179E+02 3.78561E+01 0.00000E+00
 -1      3448 1.25929E+02 3.65571E+01 0.00000E+00
 -1      3449 1.29679E+02 3.78561E+01 0.00000E+00
 -1      3450 1.31179E+02 3.78561E+01 0.00000E+00
 -1      3451 1.28929E+02 3.65571E+01 0.00000E+00
 -1      3452 1.32679E+02 3.78561E+01 0.00000E+00
 -1      3453 1.34179E+02 3.78561E+01 0.00000E+00
 -1      3454 1.31929E+02 3.65571E+01 0.00000E+00
 -1      3455 1.35107E+02 3.77827E+01 0.00000E+00
 -1      3456 1.36276E+02 3.75565E+01 0.00000E+00
 -1      3457 1.36212E+02 3.63371E+01 0.00000E+00
 -1      3458 1.34357E+02 3.64837E+01 0.00000E+00
 -1      3459 1.48741E+01 1.40483E+01 0.00000E+00
 -1      3460 1.39320E+01 1.43585E+01 0.00000E+00
 -1      3461 1.39320E+01 1.58273E+01 0.00000E+00
 -1      3462 3.21240E+01 1.38785E+01 0.00000E+00
 -1      3463 3.06240E+01 1.38785E+01 0.00000E+00
 -1      3464 2.45565E+01 2.03171E+01 0.00000E+00
 -1      3465 2.60602E+01 2.08398E+01 0.00000E+00
 -1      3466 4.41240E+01 1.38785E+01 0.00000E+00
 -1      3467 4.26240E+01 1.38785E+01 0.00000E+00
 -1      3468 4.11240E+01 1.38785E+01 0.00000E+00
 -1      3469 3.96240E+01 1.38785E+01 0.00000E+00
 -1      3470 4.18740E+01 1.51775E+01 0.00000E+00
 -1      3471 5.01240E+01 1.38785E+01 0.00000E+00
 -1      3472 4.86240E+01 1.38785E+01 0.00000E+00
 -1      3473 5.31240E+01 1.38785E+01 0.00000E+00
 -1      3474 5.16240E+01 1.38785E+01 0.00000E+00
 -1      3475 5.08740E+01 1.51775E+01 0.00000E+00
 -1      3476 5.61240E+01 1.38785E+01 0.00000E+00
 -1      3477 5.46240E+01 1.38785E+01 0.00000E+00
 -1      3478 5.38740E+01 1.51775E+01 0.00000E+00
 -1      3479 5.91240E+01 1.38785E+01 0.00000E+00
 -1      3480 5.76240E+01 1.38785E+01 0.00000E+00
 -1      3481 5.68740E+01 1.51775E+01 0.00000E+00
 -1      3482 6.21240E+01 1.38785E+01 0.00000E+00
 -1      3483 6.06240E+01 1.38785E+01 0.00000E+00
 -1      3484 5.98740E+01 1.51775E+01 0.00000E+00
 -1      3485 6.51240E+01 1.38785E+01 0.00000E+00
 -1      3486 6.36240E+01 1.38785E+01 0.00000E+00
 -1      3487 6.28740E+01 1.51775E+01 0.00000E+00
 -1      3488 6.81240E+01 1.38785E+01 0.00000E+00
 -1      3489 6.66240E+01 1.38785E+01 0.00000E+00
 -1      3490 6.58740E+01 1.51775E+01 0.00000E+00
 -1      3491 7.11240E+01 1.38785E+01 0.00000E+00
 -1      3492 6.96240E+01 1.38785E+01 0.00000E+00
 -1      3493 6.88740E+01 1.51775E+01 0.00000E+00
 -1      3494 7.41240E+01 1.38785E+01 0.00000E+00
 -1      3495 7.26240E+01 1.38785E+01 0.00000E+00
 -1      3496 7.18740E+01 1.51775E+01 0.00000E+00
 -1      3497 7.71240E+01 1.38785E+01 0.00000E+00
 -1      3498 7.56240E+01 1.38785E+01 0.00000E+00
 -1      3499 7.48740E+01 1.51775E+01 0.00000E+00
 -1      3500 8.01240E+01 1.38785E+01 0.00000E+00
 -1      3501 7.86240E+01 1.38785E+01 0.00000E+00
 -1      3502 7.78740E+01 1.51775E+01 0.00000E+00
 -1      3503 8.31240E+01 1.38785E+01 0.00000E+00
 -1      3504 8.16240E+01 1.38785E+01 0.00000E+00
 -1      3505 8.08740E+01 1.51775E+01 0.00000E+00
 -1      3506 8.61240E+01 1.38785E+01 0.00000E+00
 -1      3507 8.46240E+01 1.38785E+01 0.00000E+00
 -1      3508 8.38740E+01 1.51775E+01 0.00000E+00
 -1      3509 8.91240E+01 1.38785E+01 0.00000E+00
 -1      3510 8.76240E+01 1.38785E+01 0.00000E+00
 -1      3511 8.68740E+01 1.51775E+01 0.00000E+00
 -1      3512 9.21240E+01 1.38785E+01 0.00000E+00
 -1      3513 9.06240E+01 1.38785E+01 0.00000E+00
 -1      3514 8.98740E+01 1.51775E+01 0.00000E+00
 -1      3515 9.51240E+01 1.38785E+01 0.00000E+00
 -1      3516 9.36240E+01 1.38785E+01 0.00000E+00
 -1      3517 9.28740E+01 1.51775E+01 0.00000E+00
 -1      3518 9.81240E+01 1.38785E+01 0.00000E+00
 -1      3519 9.66240E+01 1.38785E+01 0.00000E+00
 -1      3520 9.58740E+01 1.51775E+01 0.00000E+00
 -1      3521 1.01124E+02 1.38785E+01 0.00000E+00
 -1      3522 9.96240E+01 1.38785E+01 0.00000E+00
 -1      3523 9.88740E+01 1.51775E+01 0.00000E+00
 -1      3524 1.04124E+02 1.38785E+01 0.00000E+00
 -1      3525 1.02624E+02 1.38785E+01 0.00000E+00
 -1      3526 1.01874E+02 1.51775E+01 0.00000E+00
 -1      3527 1.07124E+02 1.38785E+01 0.00000E+00
 -1      3528 1.05624E+02 1.38785E+01 0.00000E+00
 -1      3529 1.04874E+02 1.51775E+01 0.00000E+00
 -1      3530 1.10124E+02 1.38785E+01 0.00000E+00
 -1      3531 1.08624E+02 1.38785E+01 0.00000E+00
 -1      3532 1.07874E+02 1.51775E+01 0.00000E+00
 -1      3533 1.13124E+02 1.38785E+01 0.00000E+00
 -1      3534 1.11624E+02 1.38785E+01 0.00000E+00
 -1      3535 1.10874E+02 1.51775E+01 0.00000E+00
 -1      3536 1.16124E+02 1.38785E+01 0.00000E+00
 -1      3537 1.14624E+02 1.38785E+01 0.00000E+00
 -1      3538 1.13874E+02 1.51775E+01 0.00000E+00
 -1      3539 1.19124E+02 1.38785E+01 0.00000E+00
 -1      3540 1.17624E+02 1.38785E+01 0.00000E+00
 -1      3541 1.16874E+02 1.51775E+01 0.00000E+00
 -1      3542 1.22124E+02 1.38785E+01 0.00000E+00
 -1      3543 1.20624E+02 1.38785E+01 0.00000E+00
 -1      3544 1.19874E+02 1.51775E+01 0.00000E+00
 -1      3545 1.25124E+02 1.38785E+01 0.00000E+00
 -1      3546 1.23624E+02 1.38785E+01 0.00000E+00
 -1      3547 1.22874E+02 1.51775E+01 0.00000E+00
 -1      3548 1.28124E+02 1.38785E+01 0.00000E+00
 -1      3549 1.26624E+02 1.38785E+01 0.00000E+00
 -1      3550 1.25874E+02 1.51775E+01 0.00000E+00
 -1      3551 1.31124E+02 1.38785E+01 0.00000E+00
 -1      3552 1.29624E+02 1.38785E+01 0.00000E+00
 -1      3553 1.28874E+02 1.51775E+01 0.00000E+00
 -1      3554 1.34124E+02 1.38785E+01 0.00000E+00
 -1      3555 1.32624E+02 1.38785E+01 0.00000E+00
 -1      3556 1.31874E+02 1.51775E+01 0.00000E+00
 -1      3557 1.35942E+02 1.43866E+01 0.00000E+00
 -1      3558 1.35711E+02 2.42625E+01 0.00000E+00
 -1      3559 1.35711E+02 2.27875E+01 0.00000E+00
 -1      3560 3.42922E+01 2.38960E+01 0.00000E+00
 -1      3561 3.53863E+01 2.50707E+01 0.00000E+00
 -1      3562 4.71240E+01 1.38785E+01 0.00000E+00
 -1      3563 4.56240E+01 1.38785E+01 0.00000E+00
 -1      3564 4.48740E+01 1.51775E+01 0.00000E+00
 -1      3565 4.78740E+01 1.51775E+01 0.00000E+00
 -1      3566 4.28291E+01 3.78561E+01 0.00000E+00
 -1      3567 4.43291E+01 3.78561E+01 0.00000E+00
 -1      3568 4.50791E+01 3.65571E+01 0.00000E+00
 -1      3569 1.35711E+02 2.72125E+01 0.00000E+00
 -1      3570 1.35711E+02 2.57375E+01 0.00000E+00
 -1      3571 1.34412E+02 2.50000E+01 0.00000E+00
 -1      3572 1.29934E+01 2.84695E+01 0.00000E+00
 -1      3573 3.10847E+01 2.19125E+01 0.00000E+00
 -1      3574 3.26452E+01 2.26846E+01 0.00000E+00
 -1      3575 3.78349E+01 2.86726E+01 0.00000E+00
 -1      3576 3.85819E+01 2.98117E+01 0.00000E+00
 -1      3577 2.10042E+01 2.05544E+01 0.00000E+00
 -1      3578 2.24916E+01 2.02506E+01 0.00000E+00
 -1      3579 1.44668E+01 2.23289E+01 0.00000E+00
 -1      3580 1.45680E+01 2.34643E+01 0.00000E+00
 -1      3581 3.63487E+01 2.64129E+01 0.00000E+00
 -1      3582 3.70898E+01 2.75386E+01 0.00000E+00
 -1      3583 1.80575E+01 2.10747E+01 0.00000E+00
 -1      3584 1.95137E+01 2.07746E+01 0.00000E+00
 -1      3585 1.35192E+02 1.56856E+01 0.00000E+00
 -1      3586 1.35192E+02 1.71497E+01 0.00000E+00
 -1      3587 1.33374E+02 1.66416E+01 0.00000E+00
 -1      3588 1.35192E+02 1.86138E+01 0.00000E+00
 -1      3589 2.91240E+01 1.38785E+01 0.00000E+00
 -1      3590 2.76240E+01 1.38785E+01 0.00000E+00
 -1      3591 2.98740E+01 1.51775E+01 0.00000E+00
 -1      3592 2.00523E+01 1.96183E+01 0.00000E+00
 -1      3593 4.02387E+01 3.42598E+01 0.00000E+00
 -1      3594 4.09652E+01 3.50151E+01 0.00000E+00
 -1      3595 4.08139E+01 3.31830E+01 0.00000E+00
 -1      3596 1.64478E+01 2.13967E+01 0.00000E+00
 -1      3597 1.72526E+01 2.12357E+01 0.00000E+00
 -1      3598 1.77569E+01 1.99996E+01 0.00000E+00
 -1      3599 1.29900E+01 1.76125E+01 0.00000E+00
 -1      3600 1.35452E+02 2.14327E+01 0.00000E+00
 -1      3601 1.35452E+02 1.99686E+01 0.00000E+00
 -1      3602 1.33633E+02 1.94605E+01 0.00000E+00
 -1      3603 1.34152E+02 2.21702E+01 0.00000E+00
 -1      3604 1.35711E+02 3.01500E+01 0.00000E+00
 -1      3605 1.35711E+02 2.86812E+01 0.00000E+00
 -1      3606 1.34412E+02 2.79438E+01 0.00000E+00
 -1      3607 2.36076E+01 1.94646E+01 0.00000E+00
 -1      3608 2.47236E+01 1.86785E+01 0.00000E+00
 -1      3609 2.26588E+01 1.86121E+01 0.00000E+00
 -1      3610 2.01240E+01 1.38785E+01 0.00000E+00
 -1      3611 1.86240E+01 1.38785E+01 0.00000E+00
 -1      3612 3.36240E+01 1.38785E+01 0.00000E+00
 -1      3613 3.28740E+01 1.51775E+01 0.00000E+00
 -1      3614 3.51240E+01 1.38785E+01 0.00000E+00
 -1      3615 1.74990E+01 1.39634E+01 0.00000E+00
 -1      3616 1.59991E+01 1.39634E+01 0.00000E+00
 -1      3617 1.59991E+01 1.54321E+01 0.00000E+00
 -1      3618 1.82490E+01 1.52624E+01 0.00000E+00
 -1      3619 2.70708E+01 2.02190E+01 0.00000E+00
 -1      3620 3.40037E+01 2.25161E+01 0.00000E+00
 -1      3621 3.53622E+01 2.23476E+01 0.00000E+00
 -1      3622 3.37152E+01 2.11361E+01 0.00000E+00
 -1      3623 3.66131E+01 2.50698E+01 0.00000E+00
 -1      3624 2.97411E+01 2.02991E+01 0.00000E+00
 -1      3625 3.04129E+01 2.11058E+01 0.00000E+00
 -1      3626 3.16849E+01 2.04979E+01 0.00000E+00
 -1      3627 4.03509E+01 3.84948E+01 0.00000E+00
 -1      3628 4.12345E+01 3.76235E+01 0.00000E+00
 -1      3629 1.36147E+02 3.51177E+01 0.00000E+00
 -1      3630 1.36082E+02 3.38983E+01 0.00000E+00
 -1      3631 1.35220E+02 3.51910E+01 0.00000E+00
 -1      3632 4.19845E+01 3.63245E+01 0.00000E+00
 -1      3633 3.81240E+01 1.38785E+01 0.00000E+00
 -1      3634 3.66240E+01 1.38785E+01 0.00000E+00
 -1      3635 3.58740E+01 1.51775E+01 0.00000E+00
 -1      3636 3.88740E+01 1.51775E+01 0.00000E+00
 -1      3637 1.39805E+01 2.08245E+01 0.00000E+00
 -1      3638 1.54573E+01 2.11284E+01 0.00000E+00
 -1      3639 1.59616E+01 1.98923E+01 0.00000E+00
 -1      3640 1.39805E+01 1.93558E+01 0.00000E+00
 -1      3641 3.83206E+01 2.75460E+01 0.00000E+00
 -1      3642 2.31240E+01 1.38785E+01 0.00000E+00
 -1      3643 2.16240E+01 1.38785E+01 0.00000E+00
 -1      3644 2.08740E+01 1.51775E+01 0.00000E+00
 -1      3645 3.95766E+01 3.05539E+01 0.00000E+00
 -1      3646 4.05712E+01 3.12960E+01 0.00000E+00
 -1      3647 4.00603E+01 2.94221E+01 0.00000E+00
 -1      3648 1.35897E+02 3.27585E+01 0.00000E+00
 -1      3649 1.35897E+02 3.12898E+01 0.00000E+00
 -1      3650 1.34598E+02 3.05523E+01 0.00000E+00
 -1      3651 1.34969E+02 3.28319E+01 0.00000E+00
 -1      3652 2.61240E+01 1.38785E+01 0.00000E+00
 -1      3653 2.46240E+01 1.38785E+01 0.00000E+00
 -1      3654 2.38740E+01 1.51775E+01 0.00000E+00
 -1      3655 2.68740E+01 1.51775E+01 0.00000E+00
 -1      3656 1.49655E+01 1.63672E+01 0.00000E+00
 -1      3657 1.40235E+01 1.66774E+01 0.00000E+00
 -1      3658 1.40235E+01 1.81524E+01 0.00000E+00
 -1      3659 1.60905E+01 1.62823E+01 0.00000E+00
 -1      3660 5.03291E+01 3.52581E+01 0.00000E+00
 -1      3661 5.18291E+01 3.52581E+01 0.00000E+00
 -1      3662 5.33291E+01 3.52581E+01 0.00000E+00
 -1      3663 5.48291E+01 3.52581E+01 0.00000E+00
 -1      3664 5.25791E+01 3.39591E+01 0.00000E+00
 -1      3665 5.63291E+01 3.52581E+01 0.00000E+00
 -1      3666 5.78291E+01 3.52581E+01 0.00000E+00
 -1      3667 5.55791E+01 3.39591E+01 0.00000E+00
 -1      3668 5.93291E+01 3.52581E+01 0.00000E+00
 -1      3669 6.08291E+01 3.52581E+01 0.00000E+00
 -1      3670 5.85791E+01 3.39591E+01 0.00000E+00
 -1      3671 6.23291E+01 3.52581E+01 0.00000E+00
 -1      3672 6.38291E+01 3.52581E+01 0.00000E+00
 -1      3673 6.15791E+01 3.39591E+01 0.00000E+00
 -1      3674 6.53291E+01 3.52581E+01 0.00000E+00
 -1      3675 6.68291E+01 3.52581E+01 0.00000E+00
 -1      3676 6.45791E+01 3.39591E+01 0.00000E+00
 -1      3677 6.83291E+01 3.52581E+01 0.00000E+00
 -1      3678 6.98291E+01 3.52581E+01 0.00000E+00
 -1      3679 6.75791E+01 3.39591E+01 0.00000E+00
 -1      3680 7.13291E+01 3.52581E+01 0.00000E+00
 -1      3681 7.28291E+01 3.52581E+01 0.00000E+00
 -1      3682 7.05791E+01 3.39591E+01 0.00000E+00
 -1      3683 7.43291E+01 3.52581E+01 0.00000E+00
 -1      3684 7.58291E+01 3.52581E+01 0.00000E+00
 -1      3685 7.35791E+01 3.39591E+01 0.00000E+00
 -1      3686 7.73291E+01 3.52581E+01 0.00000E+00
 -1      3687 7.88291E+01 3.52581E+01 0.00000E+00
 -1      3688 7.65791E+01 3.39591E+01 0.00000E+00
 -1      3689 8.03291E+01 3.52581E+01 0.00000E+00
 -1      3690 8.18291E+01 3.52581E+01 0.00000E+00
 -1      3691 7.95791E+01 3.39591E+01 0.00000E+00
 -1      3692 8.33291E+01 3.52581E+01 0.00000E+00
 -1      3693 8.48291E+01 3.52581E+01 0.00000E+00
 -1      3694 8.25791E+01 3.39591E+01 0.00000E+00
 -1      3695 8.63291E+01 3.52581E+01 0.00000E+00
 -1      3696 8.78291E+01 3.52581E+01 0.00000E+00
 -1      3697 8.55791E+01 3.39591E+01 0.00000E+00
 -1      3698 8.92541E+01 3.52581E+01 0.00000E+00
 -1      3699 9.06791E+01 3.52581E+01 0.00000E+00
 -1      3700 8.85041E+01 3.39591E+01 0.00000E+00
 -1      3701 9.21791E+01 3.52581E+01 0.00000E+00
 -1      3702 9.36791E+01 3.52581E+01 0.00000E+00
 -1      3703 9.14291E+01 3.39591E+01 0.00000E+00
 -1      3704 9.51791E+01 3.52581E+01 0.00000E+00
 -1      3705 9.66791E+01 3.52581E+01 0.00000E+00
 -1      3706 9.44291E+01 3.39591E+01 0.00000E+00
 -1      3707 9.81791E+01 3.52581E+01 0.00000E+00
 -1      3708 9.96791E+01 3.52581E+01 0.00000E+00
 -1      3709 9.74291E+01 3.39591E+01 0.00000E+00
 -1      3710 1.01179E+02 3.52581E+01 0.00000E+00
 -1      3711 1.02679E+02 3.52581E+01 0.00000E+00
 -1      3712 1.00429E+02 3.39591E+01 0.00000E+00
 -1      3713 1.04179E+02 3.52581E+01 0.00000E+00
 -1      3714 1.05679E+02 3.52581E+01 0.00000E+00
 -1      3715 1.03429E+02 3.39591E+01 0.00000E+00
 -1      3716 1.07179E+02 3.52581E+01 0.00000E+00
 -1      3717 1.08679E+02 3.52581E+01 0.00000E+00
 -1      3718 1.06429E+02 3.39591E+01 0.00000E+00
 -1      3719 1.10179E+02 3.52581E+01 0.00000E+00
 -1      3720 1.11679E+02 3.52581E+01 0.00000E+00
 -1      3721 1.09429E+02 3.39591E+01 0.00000E+00
 -1      3722 1.13179E+02 3.52581E+01 0.00000E+00
 -1      3723 1.14679E+02 3.52581E+01 0.00000E+00
 -1      3724 1.12429E+02 3.39591E+01 0.00000E+00
 -1      3725 1.16179E+02 3.52581E+01 0.00000E+00
 -1      3726 1.17679E+02 3.52581E+01 0.00000E+00
 -1      3727 1.15429E+02 3.39591E+01 0.00000E+00
 -1      3728 1.19179E+02 3.52581E+01 0.00000E+00
 -1      3729 1.20679E+02 3.52581E+01 0.00000E+00
 -1      3730 1.18429E+02 3.39591E+01 0.00000E+00
 -1      3731 1.22179E+02 3.52581E+01 0.00000E+00
 -1      3732 1.23679E+02 3.52581E+01 0.00000E+00
 -1      3733 1.21429E+02 3.39591E+01 0.00000E+00
 -1      3734 1.25179E+02 3.52581E+01 0.00000E+00
 -1      3735 1.26679E+02 3.52581E+01 0.00000E+00
 -1      3736 1.24429E+02 3.39591E+01 0.00000E+00
 -1      3737 1.28179E+02 3.52581E+01 0.00000E+00
 -1      3738 1.29679E+02 3.52581E+01 0.00000E+00
 -1      3739 1.27429E+02 3.39591E+01 0.00000E+00
 -1      3740 1.31179E+02 3.52581E+01 0.00000E+00
 -1      3741 1.32679E+02 3.52581E+01 0.00000E+00
 -1      3742 1.30429E+02 3.39591E+01 0.00000E+00
 -1      3743 4.43291E+01 3.52581E+01 0.00000E+00
 -1      3744 4.58291E+01 3.52581E+01 0.00000E+00
 -1      3745 5.46240E+01 1.64765E+01 0.00000E+00
 -1      3746 5.31240E+01 1.64765E+01 0.00000E+00
 -1      3747 5.16240E+01 1.64765E+01 0.00000E+00
 -1      3748 5.01240E+01 1.64765E+01 0.00000E+00
 -1      3749 5.23740E+01 1.77755E+01 0.00000E+00
 -1      3750 6.06240E+01 1.64765E+01 0.00000E+00
 -1      3751 5.91240E+01 1.64765E+01 0.00000E+00
 -1      3752 6.36240E+01 1.64765E+01 0.00000E+00
 -1      3753 6.21240E+01 1.64765E+01 0.00000E+00
 -1      3754 6.13740E+01 1.77755E+01 0.00000E+00
 -1      3755 6.66240E+01 1.64765E+01 0.00000E+00
 -1      3756 6.51240E+01 1.64765E+01 0.00000E+00
 -1      3757 6.43740E+01 1.77755E+01 0.00000E+00
 -1      3758 6.96240E+01 1.64765E+01 0.00000E+00
 -1      3759 6.81240E+01 1.64765E+01 0.00000E+00
 -1      3760 6.73740E+01 1.77755E+01 0.00000E+00
 -1      3761 7.26240E+01 1.64765E+01 0.00000E+00
 -1      3762 7.11240E+01 1.64765E+01 0.00000E+00
 -1      3763 7.03740E+01 1.77755E+01 0.00000E+00
 -1      3764 7.56240E+01 1.64765E+01 0.00000E+00
 -1      3765 7.41240E+01 1.64765E+01 0.00000E+00
 -1      3766 7.33740E+01 1.77755E+01 0.00000E+00
 -1      3767 7.86240E+01 1.64765E+01 0.00000E+00
 -1      3768 7.71240E+01 1.64765E+01 0.00000E+00
 -1      3769 7.63740E+01 1.77755E+01 0.00000E+00
 -1      3770 8.16240E+01 1.64765E+01 0.00000E+00
 -1      3771 8.01240E+01 1.64765E+01 0.00000E+00
 -1      3772 7.93740E+01 1.77755E+01 0.00000E+00
 -1      3773 8.46240E+01 1.64765E+01 0.00000E+00
 -1      3774 8.31240E+01 1.64765E+01 0.00000E+00
 -1      3775 8.23740E+01 1.77755E+01 0.00000E+00
 -1      3776 8.76240E+01 1.64765E+01 0.00000E+00
 -1      3777 8.61240E+01 1.64765E+01 0.00000E+00
 -1      3778 8.53740E+01 1.77755E+01 0.00000E+00
 -1      3779 9.06240E+01 1.64765E+01 0.00000E+00
 -1      3780 8.91240E+01 1.64765E+01 0.00000E+00
 -1      3781 8.83740E+01 1.77755E+01 0.00000E+00
 -1      3782 9.36240E+01 1.64765E+01 0.00000E+00
 -1      3783 9.21240E+01 1.64765E+01 0.00000E+00
 -1      3784 9.13740E+01 1.77755E+01 0.00000E+00
 -1      3785 9.66240E+01 1.64765E+01 0.00000E+00
 -1      3786 9.51240E+01 1.64765E+01 0.00000E+00
 -1      3787 9.43740E+01 1.77755E+01 0.00000E+00
 -1      3788 9.96240E+01 1.64765E+01 0.00000E+00
 -1      3789 9.81240E+01 1.64765E+01 0.00000E+00
 -1      3790 9.73740E+01 1.77755E+01 0.00000E+00
 -1      3791 1.02624E+02 1.64765E+01 0.00000E+00
 -1      3792 1.01124E+02 1.64765E+01 0.00000E+00
 -1      3793 1.00374E+02 1.77755E+01 0.00000E+00
 -1      3794 1.05624E+02 1.64765E+01 0.00000E+00
 -1      3795 1.04124E+02 1.64765E+01 0.00000E+00
 -1      3796 1.03374E+02 1.77755E+01 0.00000E+00
 -1      3797 1.08624E+02 1.64765E+01 0.00000E+00
 -1      3798 1.07124E+02 1.64765E+01 0.00000E+00
 -1      3799 1.06374E+02 1.77755E+01 0.00000E+00
 -1      3800 1.11624E+02 1.64765E+01 0.00000E+00
 -1      3801 1.10124E+02 1.64765E+01 0.00000E+00
 -1      3802 1.09374E+02 1.77755E+01 0.00000E+00
 -1      3803 1.14624E+02 1.64765E+01 0.00000E+00
 -1      3804 1.13124E+02 1.64765E+01 0.00000E+00
 -1      3805 1.12374E+02 1.77755E+01 0.00000E+00
 -1      3806 1.17624E+02 1.64765E+01 0.00000E+00
 -1      3807 1.16124E+02 1.64765E+01 0.00000E+00
 -1      3808 1.15374E+02 1.77755E+01 0.00000E+00
 -1      3809 1.20624E+02 1.64765E+01 0.00000E+00
 -1      3810 1.19124E+02 1.64765E+01 0.00000E+00
 -1      3811 1.18374E+02 1.77755E+01 0.00000E+00
 -1      3812 1.23624E+02 1.64765E+01 0.00000E+00
 -1      3813 1.22124E+02 1.64765E+01 0.00000E+00
 -1      3814 1.21374E+02 1.77755E+01 0.00000E+00
 -1      3815 1.26624E+02 1.64765E+01 0.00000E+00
 -1      3816 1.25124E+02 1.64765E+01 0.00000E+00
 -1      3817 1.24374E+02 1.77755E+01 0.00000E+00
 -1      3818 1.29624E+02 1.64765E+01 0.00000E+00
 -1      3819 1.28124E+02 1.64765E+01 0.00000E+00
 -1      3820 1.27374E+02 1.77755E+01 0.00000E+00
 -1      3821 1.32249E+02 1.65590E+01 0.00000E+00
 -1      3822 1.30749E+02 1.65590E+01 0.00000E+00
 -1      3823 1.29999E+02 1.78580E+01 0.00000E+00
 -1      3824 1.32249E+02 1.80231E+01 0.00000E+00
 -1      3825 3.89448E+01 2.63241E+01 0.00000E+00
 -1      3826 3.96899E+01 2.74581E+01 0.00000E+00
 -1      3827 5.76240E+01 1.64765E+01 0.00000E+00
 -1      3828 5.61240E+01 1.64765E+01 0.00000E+00
 -1      3829 5.53740E+01 1.77755E+01 0.00000E+00
 -1      3830 4.26240E+01 1.64765E+01 0.00000E+00
 -1      3831 4.11240E+01 1.64765E+01 0.00000E+00
 -1      3832 4.25597E+01 3.52477E+01 0.00000E+00
 -1      3833 2.68612E+01 1.88800E+01 0.00000E+00
 -1      3834 2.82595E+01 1.95680E+01 0.00000E+00
 -1      3835 1.33113E+02 2.57375E+01 0.00000E+00
 -1      3836 1.33113E+02 2.42625E+01 0.00000E+00
 -1      3837 3.71012E+01 2.37037E+01 0.00000E+00
 -1      3838 3.80636E+01 2.50459E+01 0.00000E+00
 -1      3839 4.73291E+01 3.52581E+01 0.00000E+00
 -1      3840 4.88291E+01 3.52581E+01 0.00000E+00
 -1      3841 4.95791E+01 3.39591E+01 0.00000E+00
 -1      3842 1.91204E+01 1.84657E+01 0.00000E+00
 -1      3843 2.06109E+01 1.82455E+01 0.00000E+00
 -1      3844 3.06240E+01 1.64765E+01 0.00000E+00
 -1      3845 2.91240E+01 1.64765E+01 0.00000E+00
 -1      3846 4.12977E+01 3.20513E+01 0.00000E+00
 -1      3847 4.20241E+01 3.28066E+01 0.00000E+00
 -1      3848 4.17814E+01 3.09196E+01 0.00000E+00
 -1      3849 4.03740E+01 1.77755E+01 0.00000E+00
 -1      3850 3.96240E+01 1.64765E+01 0.00000E+00
 -1      3851 3.81240E+01 1.64765E+01 0.00000E+00
 -1      3852 1.32854E+02 2.29077E+01 0.00000E+00
 -1      3853 1.32594E+02 2.15528E+01 0.00000E+00
 -1      3854 1.31555E+02 2.36452E+01 0.00000E+00
 -1      3855 2.17269E+01 1.74594E+01 0.00000E+00
 -1      3856 4.33097E+01 3.39487E+01 0.00000E+00
 -1      3857 1.34292E+02 3.52644E+01 0.00000E+00
 -1      3858 1.83405E+01 1.61126E+01 0.00000E+00
 -1      3859 1.72155E+01 1.61974E+01 0.00000E+00
 -1      3860 1.61820E+01 1.71325E+01 0.00000E+00
 -1      3861 3.30434E+01 2.03294E+01 0.00000E+00
 -1      3862 3.44019E+01 2.01609E+01 0.00000E+00
 -1      3863 3.23716E+01 1.95227E+01 0.00000E+00
 -1      3864 5.83740E+01 1.77755E+01 0.00000E+00
 -1      3865 4.65791E+01 3.39591E+01 0.00000E+00
 -1      3866 4.93740E+01 1.77755E+01 0.00000E+00
 -1      3867 4.86240E+01 1.64765E+01 0.00000E+00
 -1      3868 4.71240E+01 1.64765E+01 0.00000E+00
 -1      3869 3.94329E+01 2.49580E+01 0.00000E+00
 -1      3870 4.13088E+01 2.69783E+01 0.00000E+00
 -1      3871 4.06845E+01 2.82002E+01 0.00000E+00
 -1      3872 4.16791E+01 2.89423E+01 0.00000E+00
 -1      3873 2.95315E+01 1.89601E+01 0.00000E+00
 -1      3874 3.65241E+01 2.09438E+01 0.00000E+00
 -1      3875 3.68127E+01 2.23237E+01 0.00000E+00
 -1      3876 3.82631E+01 2.22999E+01 0.00000E+00
 -1      3877 1.50140E+01 1.84207E+01 0.00000E+00
 -1      3878 4.56240E+01 1.64765E+01 0.00000E+00
 -1      3879 4.41240E+01 1.64765E+01 0.00000E+00
 -1      3880 4.63740E+01 1.77755E+01 0.00000E+00
 -1      3881 1.33113E+02 2.72062E+01 0.00000E+00
 -1      3882 1.31814E+02 2.64688E+01 0.00000E+00
 -1      3883 1.33113E+02 2.86750E+01 0.00000E+00
 -1      3884 4.33740E+01 1.77755E+01 0.00000E+00
 -1      3885 1.33542E+02 3.39654E+01 0.00000E+00
 -1      3886 1.33356E+02 3.28256E+01 0.00000E+00
 -1      3887 1.95266E+01 1.61352E+01 0.00000E+00
 -1      3888 1.84930E+01 1.70702E+01 0.00000E+00
 -1      3889 1.71295E+01 1.86041E+01 0.00000E+00
 -1      3890 1.79344E+01 1.84431E+01 0.00000E+00
 -1      3891 2.10266E+01 1.61352E+01 0.00000E+00
 -1      3892 6.81240E+01 1.90745E+01 0.00000E+00
 -1      3893 6.66240E+01 1.90745E+01 0.00000E+00
 -1      3894 1.32551E+02 2.04654E+01 0.00000E+00
 -1      3895 1.32292E+02 1.91105E+01 0.00000E+00
 -1      3896 1.31167E+02 1.90280E+01 0.00000E+00
 -1      3897 1.31252E+02 2.12029E+01 0.00000E+00
 -1      3898 3.21240E+01 1.64765E+01 0.00000E+00
 -1      3899 3.13740E+01 1.77755E+01 0.00000E+00
 -1      3900 5.18291E+01 3.26601E+01 0.00000E+00
 -1      3901 5.33291E+01 3.26601E+01 0.00000E+00
 -1      3902 5.48291E+01 3.26601E+01 0.00000E+00
 -1      3903 5.63291E+01 3.26601E+01 0.00000E+00
 -1      3904 5.40791E+01 3.13611E+01 0.00000E+00
 -1      3905 5.78291E+01 3.26601E+01 0.00000E+00
 -1      3906 5.93291E+01 3.26601E+01 0.00000E+00
 -1      3907 5.70791E+01 3.13611E+01 0.00000E+00
 -1      3908 6.08291E+01 3.26601E+01 0.00000E+00
 -1      3909 6.23291E+01 3.26601E+01 0.00000E+00
 -1      3910 6.00791E+01 3.13611E+01 0.00000E+00
 -1      3911 6.38291E+01 3.26601E+01 0.00000E+00
 -1      3912 6.53291E+01 3.26601E+01 0.00000E+00
 -1      3913 6.30791E+01 3.13611E+01 0.00000E+00
 -1      3914 6.68291E+01 3.26601E+01 0.00000E+00
 -1      3915 6.83291E+01 3.26601E+01 0.00000E+00
 -1      3916 6.60791E+01 3.13611E+01 0.00000E+00
 -1      3917 6.98291E+01 3.26601E+01 0.00000E+00
 -1      3918 7.13291E+01 3.26601E+01 0.00000E+00
 -1      3919 6.90791E+01 3.13611E+01 0.00000E+00
 -1      3920 7.28291E+01 3.26601E+01 0.00000E+00
 -1      3921 7.43291E+01 3.26601E+01 0.00000E+00
 -1      3922 7.20791E+01 3.13611E+01 0.00000E+00
 -1      3923 7.58291E+01 3.26601E+01 0.00000E+00
 -1      3924 7.73291E+01 3.26601E+01 0.00000E+00
 -1      3925 7.50791E+01 3.13611E+01 0.00000E+00
 -1      3926 7.88291E+01 3.26601E+01 0.00000E+00
 -1      3927 8.03291E+01 3.26601E+01 0.00000E+00
 -1      3928 7.80791E+01 3.13611E+01 0.00000E+00
 -1      3929 8.18291E+01 3.26601E+01 0.00000E+00
 -1      3930 8.33291E+01 3.26601E+01 0.00000E+00
 -1      3931 8.10791E+01 3.13611E+01 0.00000E+00
 -1      3932 8.48291E+01 3.26601E+01 0.00000E+00
 -1      3933 8.63291E+01 3.26601E+01 0.00000E+00
 -1      3934 8.40791E+01 3.13611E+01 0.00000E+00
 -1      3935 8.77541E+01 3.26601E+01 0.00000E+00
 -1      3936 8.91791E+01 3.26601E+01 0.00000E+00
 -1      3937 8.70041E+01 3.13611E+01 0.00000E+00
 -1      3938 9.06791E+01 3.26601E+01 0.00000E+00
 -1      3939 9.21791E+01 3.26601E+01 0.00000E+00
 -1      3940 8.99291E+01 3.13611E+01 0.00000E+00
 -1      3941 9.36791E+01 3.26601E+01 0.00000E+00
 -1      3942 9.51791E+01 3.26601E+01 0.00000E+00
 -1      3943 9.29291E+01 3.13611E+01 0.00000E+00
 -1      3944 9.66791E+01 3.26601E+01 0.00000E+00
 -1      3945 9.81791E+01 3.26601E+01 0.00000E+00
 -1      3946 9.59291E+01 3.13611E+01 0.00000E+00
 -1      3947 9.96791E+01 3.26601E+01 0.00000E+00
 -1      3948 1.01179E+02 3.26601E+01 0.00000E+00
 -1      3949 9.89291E+01 3.13611E+01 0.00000E+00
 -1      3950 1.02679E+02 3.26601E+01 0.00000E+00
 -1      3951 1.04179E+02 3.26601E+01 0.00000E+00
 -1      3952 1.01929E+02 3.13611E+01 0.00000E+00
 -1      3953 1.05679E+02 3.26601E+01 0.00000E+00
 -1      3954 1.07179E+02 3.26601E+01 0.00000E+00
 -1      3955 1.04929E+02 3.13611E+01 0.00000E+00
 -1      3956 1.08679E+02 3.26601E+01 0.00000E+00
 -1      3957 1.10179E+02 3.26601E+01 0.00000E+00
 -1      3958 1.07929E+02 3.13611E+01 0.00000E+00
 -1      3959 1.11679E+02 3.26601E+01 0.00000E+00
 -1      3960 1.13179E+02 3.26601E+01 0.00000E+00
 -1      3961 1.10929E+02 3.13611E+01 0.00000E+00
 -1      3962 1.14679E+02 3.26601E+01 0.00000E+00
 -1      3963 1.16179E+02 3.26601E+01 0.00000E+00
 -1      3964 1.13929E+02 3.13611E+01 0.00000E+00
 -1      3965 1.17679E+02 3.26601E+01 0.00000E+00
 -1      3966 1.19179E+02 3.26601E+01 0.00000E+00
 -1      3967 1.16929E+02 3.13611E+01 0.00000E+00
 -1      3968 1.20679E+02 3.26601E+01 0.00000E+00
 -1      3969 1.22179E+02 3.26601E+01 0.00000E+00
 -1      3970 1.19929E+02 3.13611E+01 0.00000E+00
 -1      3971 1.23679E+02 3.26601E+01 0.00000E+00
 -1      3972 1.25179E+02 3.26601E+01 0.00000E+00
 -1      3973 1.22929E+02 3.13611E+01 0.00000E+00
 -1      3974 1.26679E+02 3.26601E+01 0.00000E+00
 -1      3975 1.28179E+02 3.26601E+01 0.00000E+00
 -1      3976 1.25929E+02 3.13611E+01 0.00000E+00
 -1      3977 1.29679E+02 3.26601E+01 0.00000E+00
 -1      3978 1.31179E+02 3.26601E+01 0.00000E+00
 -1      3979 1.28929E+02 3.13611E+01 0.00000E+00
 -1      3980 3.36240E+01 1.64765E+01 0.00000E+00
 -1      3981 6.51240E+01 1.90745E+01 0.00000E+00
 -1      3982 6.36240E+01 1.90745E+01 0.00000E+00
 -1      3983 6.58740E+01 2.03735E+01 0.00000E+00
 -1      3984 6.21240E+01 1.90745E+01 0.00000E+00
 -1      3985 6.06240E+01 1.90745E+01 0.00000E+00
 -1      3986 6.28740E+01 2.03735E+01 0.00000E+00
 -1      3987 7.11240E+01 1.90745E+01 0.00000E+00
 -1      3988 6.96240E+01 1.90745E+01 0.00000E+00
 -1      3989 6.88740E+01 2.03735E+01 0.00000E+00
 -1      3990 7.41240E+01 1.90745E+01 0.00000E+00
 -1      3991 7.26240E+01 1.90745E+01 0.00000E+00
 -1      3992 7.18740E+01 2.03735E+01 0.00000E+00
 -1      3993 7.71240E+01 1.90745E+01 0.00000E+00
 -1      3994 7.56240E+01 1.90745E+01 0.00000E+00
 -1      3995 7.48740E+01 2.03735E+01 0.00000E+00
 -1      3996 8.01240E+01 1.90745E+01 0.00000E+00
 -1      3997 7.86240E+01 1.90745E+01 0.00000E+00
 -1      3998 7.78740E+01 2.03735E+01 0.00000E+00
 -1      3999 8.31240E+01 1.90745E+01 0.00000E+00
 -1      4000 8.16240E+01 1.90745E+01 0.00000E+00
 -1      4001 8.08740E+01 2.03735E+01 0.00000E+00
 -1      4002 8.61240E+01 1.90745E+01 0.00000E+00
 -1      4003 8.46240E+01 1.90745E+01 0.00000E+00
 -1      4004 8.38740E+01 2.03735E+01 0.00000E+00
 -1      4005 8.91240E+01 1.90745E+01 0.00000E+00
 -1      4006 8.76240E+01 1.90745E+01 0.00000E+00
 -1      4007 8.68740E+01 2.03735E+01 0.00000E+00
 -1      4008 9.21240E+01 1.90745E+01 0.00000E+00
 -1      4009 9.06240E+01 1.90745E+01 0.00000E+00
 -1      4010 8.98740E+01 2.03735E+01 0.00000E+00
 -1      4011 9.51240E+01 1.90745E+01 0.00000E+00
 -1      4012 9.36240E+01 1.90745E+01 0.00000E+00
 -1      4013 9.28740E+01 2.03735E+01 0.00000E+00
 -1      4014 9.81240E+01 1.90745E+01 0.00000E+00
 -1      4015 9.66240E+01 1.90745E+01 0.00000E+00
 -1      4016 9.58740E+01 2.03735E+01 0.00000E+00
 -1      4017 1.01124E+02 1.90745E+01 0.00000E+00
 -1      4018 9.96240E+01 1.90745E+01 0.00000E+00
 -1      4019 9.88740E+01 2.03735E+01 0.00000E+00
 -1      4020 1.04124E+02 1.90745E+01 0.00000E+00
 -1      4021 1.02624E+02 1.90745E+01 0.00000E+00
 -1      4022 1.01874E+02 2.03735E+01 0.00000E+00
 -1      4023 1.07124E+02 1.90745E+01 0.00000E+00
 -1      4024 1.05624E+02 1.90745E+01 0.00000E+00
 -1      4025 1.04874E+02 2.03735E+01 0.00000E+00
 -1      4026 1.10124E+02 1.90745E+01 0.00000E+00
 -1      4027 1.08624E+02 1.90745E+01 0.00000E+00
 -1      4028 1.07874E+02 2.03735E+01 0.00000E+00
 -1      4029 1.13124E+02 1.90745E+01 0.00000E+00
 -1      4030 1.11624E+02 1.90745E+01 0.00000E+00
 -1      4031 1.10874E+02 2.03735E+01 0.00000E+00
 -1      4032 1.16124E+02 1.90745E+01 0.00000E+00
 -1      4033 1.14624E+02 1.90745E+01 0.00000E+00
 -1      4034 1.13874E+02 2.03735E+01 0.00000E+00
 -1      4035 1.19124E+02 1.90745E+01 0.00000E+00
 -1      4036 1.17624E+02 1.90745E+01 0.00000E+00
 -1      4037 1.16874E+02 2.03735E+01 0.00000E+00
 -1      4038 1.22124E+02 1.90745E+01 0.00000E+00
 -1      4039 1.20624E+02 1.90745E+01 0.00000E+00
 -1      4040 1.19874E+02 2.03735E+01 0.00000E+00
 -1      4041 1.25124E+02 1.90745E+01 0.00000E+00
 -1      4042 1.23624E+02 1.90745E+01 0.00000E+00
 -1      4043 1.22874E+02 2.03735E+01 0.00000E+00
 -1      4044 1.28124E+02 1.90745E+01 0.00000E+00
 -1      4045 1.26624E+02 1.90745E+01 0.00000E+00
 -1      4046 1.25874E+02 2.03735E+01 0.00000E+00
 -1      4047 4.58291E+01 3.26601E+01 0.00000E+00
 -1      4048 4.73291E+01 3.26601E+01 0.00000E+00
 -1      4049 1.60046E+01 1.86890E+01 0.00000E+00
 -1      4050 5.61240E+01 1.90745E+01 0.00000E+00
 -1      4051 5.46240E+01 1.90745E+01 0.00000E+00
 -1      4052 5.91240E+01 1.90745E+01 0.00000E+00
 -1      4053 5.76240E+01 1.90745E+01 0.00000E+00
 -1      4054 5.98740E+01 2.03735E+01 0.00000E+00
 -1      4055 2.50463E+01 1.73651E+01 0.00000E+00
 -1      4056 2.59952E+01 1.82176E+01 0.00000E+00
 -1      4057 4.00432E+01 2.35943E+01 0.00000E+00
 -1      4058 4.09244E+01 2.48725E+01 0.00000E+00
 -1      4059 2.71839E+01 1.75666E+01 0.00000E+00
 -1      4060 1.32606E+02 3.15266E+01 0.00000E+00
 -1      4061 2.30744E+01 1.65018E+01 0.00000E+00
 -1      4062 3.66240E+01 1.64765E+01 0.00000E+00
 -1      4063 3.51240E+01 1.64765E+01 0.00000E+00
 -1      4064 3.43739E+01 1.77755E+01 0.00000E+00
 -1      4065 3.73740E+01 1.77755E+01 0.00000E+00
 -1      4066 4.37935E+01 3.28170E+01 0.00000E+00
 -1      4067 4.88291E+01 3.26601E+01 0.00000E+00
 -1      4068 5.03291E+01 3.26601E+01 0.00000E+00
 -1      4069 5.10791E+01 3.13611E+01 0.00000E+00
 -1      4070 5.31240E+01 1.90745E+01 0.00000E+00
 -1      4071 5.16240E+01 1.90745E+01 0.00000E+00
 -1      4072 5.38740E+01 2.03735E+01 0.00000E+00
 -1      4073 4.41240E+01 1.90745E+01 0.00000E+00
 -1      4074 4.26240E+01 1.90745E+01 0.00000E+00
 -1      4075 1.30408E+02 2.45669E+01 0.00000E+00
 -1      4076 1.30149E+02 2.32121E+01 0.00000E+00
 -1      4077 5.08740E+01 2.03735E+01 0.00000E+00
 -1      4078 5.01240E+01 1.90745E+01 0.00000E+00
 -1      4079 4.86240E+01 1.90745E+01 0.00000E+00
 -1      4080 2.45744E+01 1.65018E+01 0.00000E+00
 -1      4081 1.30408E+02 2.60357E+01 0.00000E+00
 -1      4082 1.29003E+02 2.56026E+01 0.00000E+00
 -1      4083 1.30408E+02 2.75044E+01 0.00000E+00
 -1      4084 4.45435E+01 3.15180E+01 0.00000E+00
 -1      4085 3.19435E+01 1.87334E+01 0.00000E+00
 -1      4086 3.33020E+01 1.85649E+01 0.00000E+00
 -1      4087 4.80791E+01 3.13611E+01 0.00000E+00
 -1      4088 3.48020E+01 1.85649E+01 0.00000E+00
 -1      4089 1.30208E+02 1.90925E+01 0.00000E+00
 -1      4090 1.29083E+02 1.90100E+01 0.00000E+00
 -1      4091 1.28333E+02 2.03090E+01 0.00000E+00
 -1      4092 1.30251E+02 2.01800E+01 0.00000E+00
 -1      4093 4.19191E+01 2.56146E+01 0.00000E+00
 -1      4094 4.29137E+01 2.63567E+01 0.00000E+00
 -1      4095 4.25293E+01 2.42510E+01 0.00000E+00
 -1      4096 4.71240E+01 1.90745E+01 0.00000E+00
 -1      4097 4.56240E+01 1.90745E+01 0.00000E+00
 -1      4098 4.78740E+01 2.03735E+01 0.00000E+00
 -1      4099 5.68740E+01 2.03735E+01 0.00000E+00
 -1      4100 3.04436E+01 1.87333E+01 0.00000E+00
 -1      4101 2.89619E+01 1.80023E+01 0.00000E+00
 -1      4102 4.24056E+01 2.96976E+01 0.00000E+00
 -1      4103 4.31321E+01 3.04529E+01 0.00000E+00
 -1      4104 4.30299E+01 2.84757E+01 0.00000E+00
 -1      4105 4.48740E+01 2.03735E+01 0.00000E+00
 -1      4106 2.58459E+01 1.60408E+01 0.00000E+00
 -1      4107 3.97547E+01 2.22144E+01 0.00000E+00
 -1      4108 3.54738E+01 1.93716E+01 0.00000E+00
 -1      4109 2.73459E+01 1.60408E+01 0.00000E+00
 -1      4110 2.82119E+01 1.67033E+01 0.00000E+00
 -1      4111 1.32421E+02 3.03868E+01 0.00000E+00
 -1      4112 1.31122E+02 2.96493E+01 0.00000E+00
 -1      4113 3.69243E+01 1.93477E+01 0.00000E+00
 -1      4114 5.03291E+01 3.00621E+01 0.00000E+00
 -1      4115 5.18291E+01 3.00621E+01 0.00000E+00
 -1      4116 4.11240E+01 1.90745E+01 0.00000E+00
 -1      4117 3.96240E+01 1.90745E+01 0.00000E+00
 -1      4118 5.76240E+01 2.16725E+01 0.00000E+00
 -1      4119 5.61240E+01 2.16725E+01 0.00000E+00
 -1      4120 5.33291E+01 3.00621E+01 0.00000E+00
 -1      4121 5.48291E+01 3.00621E+01 0.00000E+00
 -1      4122 5.25791E+01 2.87631E+01 0.00000E+00
 -1      4123 5.63291E+01 3.00621E+01 0.00000E+00
 -1      4124 5.78291E+01 3.00621E+01 0.00000E+00
 -1      4125 5.55791E+01 2.87631E+01 0.00000E+00
 -1      4126 5.93291E+01 3.00621E+01 0.00000E+00
 -1      4127 6.08291E+01 3.00621E+01 0.00000E+00
 -1      4128 5.85791E+01 2.87631E+01 0.00000E+00
 -1      4129 6.23291E+01 3.00621E+01 0.00000E+00
 -1      4130 6.38291E+01 3.00621E+01 0.00000E+00
 -1      4131 6.15791E+01 2.87631E+01 0.00000E+00
 -1      4132 6.53291E+01 3.00621E+01 0.00000E+00
 -1      4133 6.68291E+01 3.00621E+01 0.00000E+00
 -1      4134 6.45791E+01 2.87631E+01 0.00000E+00
 -1      4135 6.83291E+01 3.00621E+01 0.00000E+00
 -1      4136 6.98291E+01 3.00621E+01 0.00000E+00
 -1      4137 6.75791E+01 2.87631E+01 0.00000E+00
 -1      4138 7.13291E+01 3.00621E+01 0.00000E+00
 -1      4139 7.28291E+01 3.00621E+01 0.00000E+00
 -1      4140 7.05791E+01 2.87631E+01 0.00000E+00
 -1      4141 7.43291E+01 3.00621E+01 0.00000E+00
 -1      4142 7.58291E+01 3.00621E+01 0.00000E+00
 -1      4143 7.35791E+01 2.87631E+01 0.00000E+00
 -1      4144 7.73291E+01 3.00621E+01 0.00000E+00
 -1      4145 7.88291E+01 3.00621E+01 0.00000E+00
 -1      4146 7.65791E+01 2.87631E+01 0.00000E+00
 -1      4147 8.03291E+01 3.00621E+01 0.00000E+00
 -1      4148 8.18291E+01 3.00621E+01 0.00000E+00
 -1      4149 7.95791E+01 2.87631E+01 0.00000E+00
 -1      4150 8.33291E+01 3.00621E+01 0.00000E+00
 -1      4151 8.48291E+01 3.00621E+01 0.00000E+00
 -1      4152 8.25791E+01 2.87631E+01 0.00000E+00
 -1      4153 8.62541E+01 3.00621E+01 0.00000E+00
 -1      4154 8.76791E+01 3.00621E+01 0.00000E+00
 -1      4155 8.55041E+01 2.87631E+01 0.00000E+00
 -1      4156 8.91791E+01 3.00621E+01 0.00000E+00
 -1      4157 9.06791E+01 3.00621E+01 0.00000E+00
 -1      4158 8.84291E+01 2.87631E+01 0.00000E+00
 -1      4159 9.21791E+01 3.00621E+01 0.00000E+00
 -1      4160 9.36791E+01 3.00621E+01 0.00000E+00
 -1      4161 9.14291E+01 2.87631E+01 0.00000E+00
 -1      4162 9.51791E+01 3.00621E+01 0.00000E+00
 -1      4163 9.66791E+01 3.00621E+01 0.00000E+00
 -1      4164 9.44291E+01 2.87631E+01 0.00000E+00
 -1      4165 9.81791E+01 3.00621E+01 0.00000E+00
 -1      4166 9.96791E+01 3.00621E+01 0.00000E+00
 -1      4167 9.74291E+01 2.87631E+01 0.00000E+00
 -1      4168 1.01179E+02 3.00621E+01 0.00000E+00
 -1      4169 1.02679E+02 3.00621E+01 0.00000E+00
 -1      4170 1.00429E+02 2.87631E+01 0.00000E+00
 -1      4171 1.04179E+02 3.00621E+01 0.00000E+00
 -1      4172 1.05679E+02 3.00621E+01 0.00000E+00
 -1      4173 1.03429E+02 2.87631E+01 0.00000E+00
 -1      4174 1.07179E+02 3.00621E+01 0.00000E+00
 -1      4175 1.08679E+02 3.00621E+01 0.00000E+00
 -1      4176 1.06429E+02 2.87631E+01 0.00000E+00
 -1      4177 1.10179E+02 3.00621E+01 0.00000E+00
 -1      4178 1.11679E+02 3.00621E+01 0.00000E+00
 -1      4179 1.09429E+02 2.87631E+01 0.00000E+00
 -1      4180 1.13179E+02 3.00621E+01 0.00000E+00
 -1      4181 1.14679E+02 3.00621E+01 0.00000E+00
 -1      4182 1.12429E+02 2.87631E+01 0.00000E+00
 -1      4183 1.16179E+02 3.00621E+01 0.00000E+00
 -1      4184 1.17679E+02 3.00621E+01 0.00000E+00
 -1      4185 1.15429E+02 2.87631E+01 0.00000E+00
 -1      4186 1.19179E+02 3.00621E+01 0.00000E+00
 -1      4187 1.20679E+02 3.00621E+01 0.00000E+00
 -1      4188 1.18429E+02 2.87631E+01 0.00000E+00
 -1      4189 1.22179E+02 3.00621E+01 0.00000E+00
 -1      4190 1.23679E+02 3.00621E+01 0.00000E+00
 -1      4191 1.21429E+02 2.87631E+01 0.00000E+00
 -1      4192 1.25179E+02 3.00621E+01 0.00000E+00
 -1      4193 1.26679E+02 3.00621E+01 0.00000E+00
 -1      4194 1.24429E+02 2.87631E+01 0.00000E+00
 -1      4195 1.28216E+02 2.92162E+01 0.00000E+00
 -1      4196 1.29716E+02 2.92162E+01 0.00000E+00
 -1      4197 6.06240E+01 2.16725E+01 0.00000E+00
 -1      4198 5.91240E+01 2.16725E+01 0.00000E+00
 -1      4199 5.83740E+01 2.29715E+01 0.00000E+00
 -1      4200 7.26240E+01 2.16725E+01 0.00000E+00
 -1      4201 7.11240E+01 2.16725E+01 0.00000E+00
 -1      4202 6.66240E+01 2.16725E+01 0.00000E+00
 -1      4203 6.51240E+01 2.16725E+01 0.00000E+00
 -1      4204 4.73291E+01 3.00621E+01 0.00000E+00
 -1      4205 4.88291E+01 3.00621E+01 0.00000E+00
 -1      4206 4.95791E+01 2.87631E+01 0.00000E+00
 -1      4207 6.36240E+01 2.16725E+01 0.00000E+00
 -1      4208 6.21240E+01 2.16725E+01 0.00000E+00
 -1      4209 6.43740E+01 2.29715E+01 0.00000E+00
 -1      4210 7.56240E+01 2.16725E+01 0.00000E+00
 -1      4211 7.41240E+01 2.16725E+01 0.00000E+00
 -1      4212 7.33740E+01 2.29715E+01 0.00000E+00
 -1      4213 7.86240E+01 2.16725E+01 0.00000E+00
 -1      4214 7.71240E+01 2.16725E+01 0.00000E+00
 -1      4215 7.63740E+01 2.29715E+01 0.00000E+00
 -1      4216 8.16240E+01 2.16725E+01 0.00000E+00
 -1      4217 8.01240E+01 2.16725E+01 0.00000E+00
 -1      4218 7.93740E+01 2.29715E+01 0.00000E+00
 -1      4219 8.46240E+01 2.16725E+01 0.00000E+00
 -1      4220 8.31240E+01 2.16725E+01 0.00000E+00
 -1      4221 8.23740E+01 2.29715E+01 0.00000E+00
 -1      4222 8.76240E+01 2.16725E+01 0.00000E+00
 -1      4223 8.61240E+01 2.16725E+01 0.00000E+00
 -1      4224 8.53740E+01 2.29715E+01 0.00000E+00
 -1      4225 9.06240E+01 2.16725E+01 0.00000E+00
 -1      4226 8.91240E+01 2.16725E+01 0.00000E+00
 -1      4227 8.83740E+01 2.29715E+01 0.00000E+00
 -1      4228 9.36240E+01 2.16725E+01 0.00000E+00
 -1      4229 9.21240E+01 2.16725E+01 0.00000E+00
 -1      4230 9.13740E+01 2.29715E+01 0.00000E+00
 -1      4231 9.66240E+01 2.16725E+01 0.00000E+00
 -1      4232 9.51240E+01 2.16725E+01 0.00000E+00
 -1      4233 9.43740E+01 2.29715E+01 0.00000E+00
 -1      4234 9.96240E+01 2.16725E+01 0.00000E+00
 -1      4235 9.81240E+01 2.16725E+01 0.00000E+00
 -1      4236 9.73740E+01 2.29715E+01 0.00000E+00
 -1      4237 1.02624E+02 2.16725E+01 0.00000E+00
 -1      4238 1.01124E+02 2.16725E+01 0.00000E+00
 -1      4239 1.00374E+02 2.29715E+01 0.00000E+00
 -1      4240 1.05624E+02 2.16725E+01 0.00000E+00
 -1      4241 1.04124E+02 2.16725E+01 0.00000E+00
 -1      4242 1.03374E+02 2.29715E+01 0.00000E+00
 -1      4243 1.08624E+02 2.16725E+01 0.00000E+00
 -1      4244 1.07124E+02 2.16725E+01 0.00000E+00
 -1      4245 1.06374E+02 2.29715E+01 0.00000E+00
 -1      4246 1.11624E+02 2.16725E+01 0.00000E+00
 -1      4247 1.10124E+02 2.16725E+01 0.00000E+00
 -1      4248 1.09374E+02 2.29715E+01 0.00000E+00
 -1      4249 1.14624E+02 2.16725E+01 0.00000E+00
 -1      4250 1.13124E+02 2.16725E+01 0.00000E+00
 -1      4251 1.12374E+02 2.29715E+01 0.00000E+00
 -1      4252 1.17624E+02 2.16725E+01 0.00000E+00
 -1      4253 1.16124E+02 2.16725E+01 0.00000E+00
 -1      4254 1.15374E+02 2.29715E+01 0.00000E+00
 -1      4255 1.20624E+02 2.16725E+01 0.00000E+00
 -1      4256 1.19124E+02 2.16725E+01 0.00000E+00
 -1      4257 1.18374E+02 2.29715E+01 0.00000E+00
 -1      4258 1.23624E+02 2.16725E+01 0.00000E+00
 -1      4259 1.22124E+02 2.16725E+01 0.00000E+00
 -1      4260 1.21374E+02 2.29715E+01 0.00000E+00
 -1      4261 1.26624E+02 2.16725E+01 0.00000E+00
 -1      4262 1.25124E+02 2.16725E+01 0.00000E+00
 -1      4263 1.24374E+02 2.29715E+01 0.00000E+00
 -1      4264 6.96240E+01 2.16725E+01 0.00000E+00
 -1      4265 6.81240E+01 2.16725E+01 0.00000E+00
 -1      4266 7.03740E+01 2.29715E+01 0.00000E+00
 -1      4267 3.84243E+01 1.93477E+01 0.00000E+00
 -1      4268 4.18740E+01 2.03735E+01 0.00000E+00
 -1      4269 4.56240E+01 2.16725E+01 0.00000E+00
 -1      4270 4.41240E+01 2.16725E+01 0.00000E+00
 -1      4271 4.51677E+01 3.02960E+01 0.00000E+00
 -1      4272 5.46240E+01 2.16725E+01 0.00000E+00
 -1      4273 5.31240E+01 2.16725E+01 0.00000E+00
 -1      4274 5.53740E+01 2.29715E+01 0.00000E+00
 -1      4275 3.91743E+01 2.06467E+01 0.00000E+00
 -1      4276 4.09544E+01 2.19412E+01 0.00000E+00
 -1      4277 4.42504E+01 2.57484E+01 0.00000E+00
 -1      4278 4.36402E+01 2.71120E+01 0.00000E+00
 -1      4279 4.43666E+01 2.78673E+01 0.00000E+00
 -1      4280 1.27466E+02 2.79172E+01 0.00000E+00
 -1      4281 4.24544E+01 2.19412E+01 0.00000E+00
 -1      4282 4.32044E+01 2.32402E+01 0.00000E+00
 -1      4283 6.13740E+01 2.29715E+01 0.00000E+00
 -1      4284 6.73740E+01 2.29715E+01 0.00000E+00
 -1      4285 1.28188E+02 2.22537E+01 0.00000E+00
 -1      4286 1.27438E+02 2.35527E+01 0.00000E+00
 -1      4287 4.41990E+01 2.39823E+01 0.00000E+00
 -1      4288 1.27452E+02 2.64693E+01 0.00000E+00
 -1      4289 1.27452E+02 2.50006E+01 0.00000E+00
 -1      4290 1.25888E+02 2.44194E+01 0.00000E+00
 -1      4291 1.25915E+02 2.73152E+01 0.00000E+00
 -1      4292 4.86240E+01 2.16725E+01 0.00000E+00
 -1      4293 4.71240E+01 2.16725E+01 0.00000E+00
 -1      4294 4.63740E+01 2.29715E+01 0.00000E+00
 -1      4295 5.23740E+01 2.29715E+01 0.00000E+00
 -1      4296 5.16240E+01 2.16725E+01 0.00000E+00
 -1      4297 5.01240E+01 2.16725E+01 0.00000E+00
 -1      4298 4.59177E+01 2.89970E+01 0.00000E+00
 -1      4299 1.30293E+02 2.12674E+01 0.00000E+00
 -1      4300 1.29147E+02 2.21892E+01 0.00000E+00
 -1      4301 5.48291E+01 2.74641E+01 0.00000E+00
 -1      4302 5.63291E+01 2.74641E+01 0.00000E+00
 -1      4303 5.78291E+01 2.74641E+01 0.00000E+00
 -1      4304 5.93291E+01 2.74641E+01 0.00000E+00
 -1      4305 5.70791E+01 2.61651E+01 0.00000E+00
 -1      4306 6.08291E+01 2.74641E+01 0.00000E+00
 -1      4307 6.23291E+01 2.74641E+01 0.00000E+00
 -1      4308 6.00791E+01 2.61651E+01 0.00000E+00
 -1      4309 6.38291E+01 2.74641E+01 0.00000E+00
 -1      4310 6.53291E+01 2.74641E+01 0.00000E+00
 -1      4311 6.30791E+01 2.61651E+01 0.00000E+00
 -1      4312 6.68291E+01 2.74641E+01 0.00000E+00
 -1      4313 6.83291E+01 2.74641E+01 0.00000E+00
 -1      4314 6.60791E+01 2.61651E+01 0.00000E+00
 -1      4315 6.98291E+01 2.74641E+01 0.00000E+00
 -1      4316 7.13291E+01 2.74641E+01 0.00000E+00
 -1      4317 6.90791E+01 2.61651E+01 0.00000E+00
 -1      4318 7.28291E+01 2.74641E+01 0.00000E+00
 -1      4319 7.43291E+01 2.74641E+01 0.00000E+00
 -1      4320 7.20791E+01 2.61651E+01 0.00000E+00
 -1      4321 7.58291E+01 2.74641E+01 0.00000E+00
 -1      4322 7.73291E+01 2.74641E+01 0.00000E+00
 -1      4323 7.50791E+01 2.61651E+01 0.00000E+00
 -1      4324 7.88291E+01 2.74641E+01 0.00000E+00
 -1      4325 8.03291E+01 2.74641E+01 0.00000E+00
 -1      4326 7.80791E+01 2.61651E+01 0.00000E+00
 -1      4327 8.18291E+01 2.74641E+01 0.00000E+00
 -1      4328 8.33291E+01 2.74641E+01 0.00000E+00
 -1      4329 8.10791E+01 2.61651E+01 0.00000E+00
 -1      4330 8.47541E+01 2.74641E+01 0.00000E+00
 -1      4331 8.61791E+01 2.74641E+01 0.00000E+00
 -1      4332 8.40041E+01 2.61651E+01 0.00000E+00
 -1      4333 8.76791E+01 2.74641E+01 0.00000E+00
 -1      4334 8.91791E+01 2.74641E+01 0.00000E+00
 -1      4335 8.69291E+01 2.61651E+01 0.00000E+00
 -1      4336 9.06791E+01 2.74641E+01 0.00000E+00
 -1      4337 9.21791E+01 2.74641E+01 0.00000E+00
 -1      4338 8.99291E+01 2.61651E+01 0.00000E+00
 -1      4339 9.36791E+01 2.74641E+01 0.00000E+00
 -1      4340 9.51791E+01 2.74641E+01 0.00000E+00
 -1      4341 9.29291E+01 2.61651E+01 0.00000E+00
 -1      4342 9.66791E+01 2.74641E+01 0.00000E+00
 -1      4343 9.81791E+01 2.74641E+01 0.00000E+00
 -1      4344 9.59291E+01 2.61651E+01 0.00000E+00
 -1      4345 9.96791E+01 2.74641E+01 0.00000E+00
 -1      4346 1.01179E+02 2.74641E+01 0.00000E+00
 -1      4347 9.89291E+01 2.61651E+01 0.00000E+00
 -1      4348 1.02679E+02 2.74641E+01 0.00000E+00
 -1      4349 1.04179E+02 2.74641E+01 0.00000E+00
 -1      4350 1.01929E+02 2.61651E+01 0.00000E+00
 -1      4351 1.05679E+02 2.74641E+01 0.00000E+00
 -1      4352 1.07179E+02 2.74641E+01 0.00000E+00
 -1      4353 1.04929E+02 2.61651E+01 0.00000E+00
 -1      4354 1.08679E+02 2.74641E+01 0.00000E+00
 -1      4355 1.10179E+02 2.74641E+01 0.00000E+00
 -1      4356 1.07929E+02 2.61651E+01 0.00000E+00
 -1      4357 1.11679E+02 2.74641E+01 0.00000E+00
 -1      4358 1.13179E+02 2.74641E+01 0.00000E+00
 -1      4359 1.10929E+02 2.61651E+01 0.00000E+00
 -1      4360 1.14679E+02 2.74641E+01 0.00000E+00
 -1      4361 1.16179E+02 2.74641E+01 0.00000E+00
 -1      4362 1.13929E+02 2.61651E+01 0.00000E+00
 -1      4363 1.17679E+02 2.74641E+01 0.00000E+00
 -1      4364 1.19179E+02 2.74641E+01 0.00000E+00
 -1      4365 1.16929E+02 2.61651E+01 0.00000E+00
 -1      4366 1.20679E+02 2.74641E+01 0.00000E+00
 -1      4367 1.22179E+02 2.74641E+01 0.00000E+00
 -1      4368 1.19929E+02 2.61651E+01 0.00000E+00
 -1      4369 1.24415E+02 2.73152E+01 0.00000E+00
 -1      4370 5.92265E+01 2.45683E+01 0.00000E+00
 -1      4371 5.77265E+01 2.45683E+01 0.00000E+00
 -1      4372 7.72265E+01 2.45683E+01 0.00000E+00
 -1      4373 7.57265E+01 2.45683E+01 0.00000E+00
 -1      4374 7.42265E+01 2.45683E+01 0.00000E+00
 -1      4375 7.27265E+01 2.45683E+01 0.00000E+00
 -1      4376 4.88291E+01 2.74641E+01 0.00000E+00
 -1      4377 5.03291E+01 2.74641E+01 0.00000E+00
 -1      4378 6.52265E+01 2.45683E+01 0.00000E+00
 -1      4379 6.37265E+01 2.45683E+01 0.00000E+00
 -1      4380 8.02265E+01 2.45683E+01 0.00000E+00
 -1      4381 7.87265E+01 2.45683E+01 0.00000E+00
 -1      4382 8.32265E+01 2.45683E+01 0.00000E+00
 -1      4383 8.17265E+01 2.45683E+01 0.00000E+00
 -1      4384 8.61515E+01 2.45683E+01 0.00000E+00
 -1      4385 8.46515E+01 2.45683E+01 0.00000E+00
 -1      4386 8.91515E+01 2.45683E+01 0.00000E+00
 -1      4387 8.76515E+01 2.45683E+01 0.00000E+00
 -1      4388 9.21515E+01 2.45683E+01 0.00000E+00
 -1      4389 9.06515E+01 2.45683E+01 0.00000E+00
 -1      4390 9.51515E+01 2.45683E+01 0.00000E+00
 -1      4391 9.36515E+01 2.45683E+01 0.00000E+00
 -1      4392 9.81515E+01 2.45683E+01 0.00000E+00
 -1      4393 9.66515E+01 2.45683E+01 0.00000E+00
 -1      4394 1.01152E+02 2.45683E+01 0.00000E+00
 -1      4395 9.96515E+01 2.45683E+01 0.00000E+00
 -1      4396 1.04152E+02 2.45683E+01 0.00000E+00
 -1      4397 1.02652E+02 2.45683E+01 0.00000E+00
 -1      4398 1.07152E+02 2.45683E+01 0.00000E+00
 -1      4399 1.05652E+02 2.45683E+01 0.00000E+00
 -1      4400 1.10152E+02 2.45683E+01 0.00000E+00
 -1      4401 1.08652E+02 2.45683E+01 0.00000E+00
 -1      4402 1.13152E+02 2.45683E+01 0.00000E+00
 -1      4403 1.11652E+02 2.45683E+01 0.00000E+00
 -1      4404 1.16152E+02 2.45683E+01 0.00000E+00
 -1      4405 1.14652E+02 2.45683E+01 0.00000E+00
 -1      4406 1.19152E+02 2.45683E+01 0.00000E+00
 -1      4407 1.17652E+02 2.45683E+01 0.00000E+00
 -1      4408 1.22152E+02 2.45683E+01 0.00000E+00
 -1      4409 1.20652E+02 2.45683E+01 0.00000E+00
 -1      4410 1.24388E+02 2.44194E+01 0.00000E+00
 -1      4411 4.56497E+01 2.38545E+01 0.00000E+00
 -1      4412 4.49747E+01 2.48653E+01 0.00000E+00
 -1      4413 4.57012E+01 2.56206E+01 0.00000E+00
 -1      4414 4.71497E+01 2.38545E+01 0.00000E+00
 -1      4415 7.12265E+01 2.45683E+01 0.00000E+00
 -1      4416 6.97265E+01 2.45683E+01 0.00000E+00
 -1      4417 5.18291E+01 2.74641E+01 0.00000E+00
 -1      4418 5.33291E+01 2.74641E+01 0.00000E+00
 -1      4419 5.40791E+01 2.61651E+01 0.00000E+00
 -1      4420 6.22265E+01 2.45683E+01 0.00000E+00
 -1      4421 6.07265E+01 2.45683E+01 0.00000E+00
 -1      4422 4.65280E+01 2.76334E+01 0.00000E+00
 -1      4423 5.62265E+01 2.45683E+01 0.00000E+00
 -1      4424 5.47265E+01 2.45683E+01 0.00000E+00
 -1      4425 6.82265E+01 2.45683E+01 0.00000E+00
 -1      4426 6.67265E+01 2.45683E+01 0.00000E+00
 -1      4427 1.23665E+02 2.60162E+01 0.00000E+00
 -1      4428 5.10791E+01 2.61651E+01 0.00000E+00
 -1      4429 5.32265E+01 2.45683E+01 0.00000E+00
 -1      4430 5.17265E+01 2.45683E+01 0.00000E+00
 -1      4431 4.93740E+01 2.29715E+01 0.00000E+00
 -1      4432 4.72780E+01 2.63344E+01 0.00000E+00
 -1      4433 5.02265E+01 2.45683E+01 0.00000E+00
 -1      4434 4.87265E+01 2.45683E+01 0.00000E+00
 -1      4435 4.80023E+01 2.54513E+01 0.00000E+00
 -3
    3C                          2135                                     1
 -1       166    8    0    1
 -2         6         7        23      1151      1316      1168
 -1       167    8    0    1
 -2         7         8       166      1152      1317      1318
 -1       168    8    0    1
 -2         8         9       167      1153      1319      1320
 -1       169    8    0    1
 -2         8       167       166      1320      1321      1317
 -1       170    8    0    1
 -2         9        10       168      1154      1322      1323
 -1       171    8    0    1
 -2         9       168       167      1323      1324      1319
 -1       172    8    0    1
 -2        10        11       169      1155      1325      1326
 -1       173    8    0    1
 -2        10       169       168      1326      1327      1322
 -1       174    8    0    1
 -2        11        12       170      1156      1328      1329
 -1       175    8    0    1
 -2        11       170       169      1329      1330      1325
 -1       176    8    0    1
 -2        12        13       171      1157      1331      1332
 -1       177    8    0    1
 -2        12       171       170      1332      1333      1328
 -1       178    8    0    1
 -2        13        14       172      1158      1334      1335
 -1       179    8    0    1
 -2        13       172       171      1335      1336      1331
 -1       180    8    0    1
 -2        14        15       173      1159      1337      1338
 -1       181    8    0    1
 -2        14       173       172      1338      1339      1334
 -1       182    8    0    1
 -2        15        16       174      1160      1340      1341
 -1       183    8    0    1
 -2        15       174       173      1341      1342      1337
 -1       184    8    0    1
 -2        16        17       175      1161      1343      1344
 -1       185    8    0    1
 -2        16       175       174      1344      1345      1340
 -1       186    8    0    1
 -2        17        18       176      1162      1346      1347
 -1       187    8    0    1
 -2        17       176       175      1347      1348      1343
 -1       188    8    0    1
 -2        18        19       177      1163      1349      1350
 -1       189    8    0    1
 -2        18       177       176      1350      1351      1346
 -1       190    8    0    1
 -2        19        20       178      1164      1352      1353
 -1       191    8    0    1
 -2        19       178       177      1353      1354      1349
 -1       192    8    0    1
 -2        20        21       179      1165      1355      1356
 -1       193    8    0    1
 -2        20       179       178      1356      1357      1352
 -1       194    8    0    1
 -2        21        22       180      1166      1358      1359
 -1       195    8    0    1
 -2        21       180       179      1359      1360      1355
 -1       196    8    0    1
 -2        22         5       181      1167      1361      1362
 -1       197    8    0    1
 -2       180        22       181      1358      1362      1363
 -1       198    8    0    1
 -2         5        73       181      1219      1364      1361
 -1       199    8    0    1
 -2        24        23       182      1169      1365      1366
 -1       200    8    0    1
 -2        25        24       183      1170      1367      1368
 -1       201    8    0    1
 -2        24       182       183      1366      1369      1367
 -1       202    8    0    1
 -2        26        25       184      1171      1370      1371
 -1       203    8    0    1
 -2        25       183       184      1368      1372      1370
 -1       204    8    0    1
 -2        27        26       185      1172      1373      1374
 -1       205    8    0    1
 -2        26       184       185      1371      1375      1373
 -1       206    8    0    1
 -2        28        27       186      1173      1376      1377
 -1       207    8    0    1
 -2        27       185       186      1374      1378      1376
 -1       208    8    0    1
 -2        29        28       187      1174      1379      1380
 -1       209    8    0    1
 -2        28       186       187      1377      1381      1379
 -1       210    8    0    1
 -2        31        30       188      1176      1382      1383
 -1       211    8    0    1
 -2        32        31       189      1177      1384      1385
 -1       212    8    0    1
 -2        31       188       189      1383      1386      1384
 -1       213    8    0    1
 -2        33        32       190      1178      1387      1388
 -1       214    8    0    1
 -2        32       189       190      1385      1389      1387
 -1       215    8    0    1
 -2        34        33       191      1179      1390      1391
 -1       216    8    0    1
 -2        33       190       191      1388      1392      1390
 -1       217    8    0    1
 -2        35        34       192      1180      1393      1394
 -1       218    8    0    1
 -2        34       191       192      1391      1395      1393
 -1       219    8    0    1
 -2        36        35       193      1181      1396      1397
 -1       220    8    0    1
 -2        35       192       193      1394      1398      1396
 -1       221    8    0    1
 -2        37        36       194      1182      1399      1400
 -1       222    8    0    1
 -2        36       193       194      1397      1401      1399
 -1       223    8    0    1
 -2        38        37       195      1183      1402      1403
 -1       224    8    0    1
 -2        37       194       195      1400      1404      1402
 -1       225    8    0    1
 -2        39        38       196      1184      1405      1406
 -1       226    8    0    1
 -2        38       195       196      1403      1407      1405
 -1       227    8    0    1
 -2        40        39       197      1185      1408      1409
 -1       228    8    0    1
 -2        39       196       197      1406      1410      1408
 -1       229    8    0    1
 -2        41        40       198      1186      1411      1412
 -1       230    8    0    1
 -2        40       197       198      1409      1413      1411
 -1       231    8    0    1
 -2        42        41       199      1187      1414      1415
 -1       232    8    0    1
 -2        41       198       199      1412      1416      1414
 -1       233    8    0    1
 -2        43        42       200      1188      1417      1418
 -1       234    8    0    1
 -2        42       199       200      1415      1419      1417
 -1       235    8    0    1
 -2        44        43       201      1189      1420      1421
 -1       236    8    0    1
 -2        43       200       201      1418      1422      1420
 -1       237    8    0    1
 -2        45        44       202      1190      1423      1424
 -1       238    8    0    1
 -2        44       201       202      1421      1425      1423
 -1       239    8    0    1
 -2        46        45       203      1191      1426      1427
 -1       240    8    0    1
 -2        45       202       203      1424      1428      1426
 -1       241    8    0    1
 -2        47        46       204      1192      1429      1430
 -1       242    8    0    1
 -2        46       203       204      1427      1431      1429
 -1       243    8    0    1
 -2        48        47       205      1193      1432      1433
 -1       244    8    0    1
 -2        47       204       205      1430      1434      1432
 -1       245    8    0    1
 -2        49        48       206      1194      1435      1436
 -1       246    8    0    1
 -2        48       205       206      1433      1437      1435
 -1       247    8    0    1
 -2        50        49       207      1195      1438      1439
 -1       248    8    0    1
 -2        49       206       207      1436      1440      1438
 -1       249    8    0    1
 -2        51        50       208      1196      1441      1442
 -1       250    8    0    1
 -2        50       207       208      1439      1443      1441
 -1       251    8    0    1
 -2        52        51       209      1197      1444      1445
 -1       252    8    0    1
 -2        51       208       209      1442      1446      1444
 -1       253    8    0    1
 -2        53        52       210      1198      1447      1448
 -1       254    8    0    1
 -2        52       209       210      1445      1449      1447
 -1       255    8    0    1
 -2        54        53       211      1199      1450      1451
 -1       256    8    0    1
 -2        53       210       211      1448      1452      1450
 -1       257    8    0    1
 -2        55        54       212      1200      1453      1454
 -1       258    8    0    1
 -2        54       211       212      1451      1455      1453
 -1       259    8    0    1
 -2        56        55       213      1201      1456      1457
 -1       260    8    0    1
 -2        55       212       213      1454      1458      1456
 -1       261    8    0    1
 -2        57        56       214      1202      1459      1460
 -1       262    8    0    1
 -2        56       213       214      1457      1461      1459
 -1       263    8    0    1
 -2        58        57       215      1203      1462      1463
 -1       264    8    0    1
 -2        57       214       215      1460      1464      1462
 -1       265    8    0    1
 -2        59        58       216      1204      1465      1466
 -1       266    8    0    1
 -2        58       215       216      1463      1467      1465
 -1       267    8    0    1
 -2        60        59       217      1205      1468      1469
 -1       268    8    0    1
 -2        59       216       217      1466      1470      1468
 -1       269    8    0    1
 -2        61        60       218      1206      1471      1472
 -1       270    8    0    1
 -2        60       217       218      1469      1473      1471
 -1       271    8    0    1
 -2        62        61       219      1207      1474      1475
 -1       272    8    0    1
 -2        61       218       219      1472      1476      1474
 -1       273    8    0    1
 -2        63        62       220      1208      1477      1478
 -1       274    8    0    1
 -2        62       219       220      1475      1479      1477
 -1       275    8    0    1
 -2        64        63       221      1209      1480      1481
 -1       276    8    0    1
 -2        63       220       221      1478      1482      1480
 -1       277    8    0    1
 -2        65        64       222      1210      1483      1484
 -1       278    8    0    1
 -2        64       221       222      1481      1485      1483
 -1       279    8    0    1
 -2        66        65       223      1211      1486      1487
 -1       280    8    0    1
 -2        65       222       223      1484      1488      1486
 -1       281    8    0    1
 -2        67        66       224      1212      1489      1490
 -1       282    8    0    1
 -2        66       223       224      1487      1491      1489
 -1       283    8    0    1
 -2        68        67       225      1213      1492      1493
 -1       284    8    0    1
 -2        67       224       225      1490      1494      1492
 -1       285    8    0    1
 -2        69        68       226      1214      1495      1496
 -1       286    8    0    1
 -2        68       225       226      1493      1497      1495
 -1       287    8    0    1
 -2        70        69       227      1215      1498      1499
 -1       288    8    0    1
 -2        69       226       227      1496      1500      1498
 -1       289    8    0    1
 -2        71        70       228      1216      1501      1502
 -1       290    8    0    1
 -2        70       227       228      1499      1503      1501
 -1       291    8    0    1
 -2        72        71       229      1217      1504      1505
 -1       292    8    0    1
 -2        71       228       229      1502      1506      1504
 -1       293    8    0    1
 -2         4        72       230      1218      1507      1508
 -1       294    8    0    1
 -2       137         4       230      1285      1508      1509
 -1       295    8    0    1
 -2        72       229       230      1505      1510      1507
 -1       296    8    0    1
 -2        73        74       231      1220      1511      1512
 -1       297    8    0    1
 -2        73       231       181      1512      1513      1364
 -1       298    8    0    1
 -2        74        75       232      1221      1514      1515
 -1       299    8    0    1
 -2        74       232       231      1515      1516      1511
 -1       300    8    0    1
 -2        75        76       233      1222      1517      1518
 -1       301    8    0    1
 -2        75       233       232      1518      1519      1514
 -1       302    8    0    1
 -2        76        77       234      1223      1520      1521
 -1       303    8    0    1
 -2        76       234       233      1521      1522      1517
 -1       304    8    0    1
 -2        77        78       235      1224      1523      1524
 -1       305    8    0    1
 -2        77       235       234      1524      1525      1520
 -1       306    8    0    1
 -2        78        79       236      1225      1526      1527
 -1       307    8    0    1
 -2        78       236       235      1527      1528      1523
 -1       308    8    0    1
 -2        79        80       237      1226      1529      1530
 -1       309    8    0    1
 -2        79       237       236      1530      1531      1526
 -1       310    8    0    1
 -2        80        81       238      1227      1532      1533
 -1       311    8    0    1
 -2        80       238       237      1533      1534      1529
 -1       312    8    0    1
 -2        81        82       239      1228      1535      1536
 -1       313    8    0    1
 -2        81       239       238      1536      1537      1532
 -1       314    8    0    1
 -2        82        83       240      1229      1538      1539
 -1       315    8    0    1
 -2        82       240       239      1539      1540      1535
 -1       316    8    0    1
 -2        83        84       241      1230      1541      1542
 -1       317    8    0    1
 -2        83       241       240      1542      1543      1538
 -1       318    8    0    1
 -2        84        85       242      1231      1544      1545
 -1       319    8    0    1
 -2        84       242       241      1545      1546      1541
 -1       320    8    0    1
 -2        85        86       243      1232      1547      1548
 -1       321    8    0    1
 -2        85       243       242      1548      1549      1544
 -1       322    8    0    1
 -2        86        87       244      1233      1550      1551
 -1       323    8    0    1
 -2        86       244       243      1551      1552      1547
 -1       324    8    0    1
 -2        87        88       245      1234      1553      1554
 -1       325    8    0    1
 -2        87       245       244      1554      1555      1550
 -1       326    8    0    1
 -2        88        89       246      1235      1556      1557
 -1       327    8    0    1
 -2        88       246       245      1557      1558      1553
 -1       328    8    0    1
 -2        89        90       247      1236      1559      1560
 -1       329    8    0    1
 -2        89       247       246      1560      1561      1556
 -1       330    8    0    1
 -2        90        91       248      1237      1562      1563
 -1       331    8    0    1
 -2        90       248       247      1563      1564      1559
 -1       332    8    0    1
 -2        91        92       249      1238      1565      1566
 -1       333    8    0    1
 -2        91       249       248      1566      1567      1562
 -1       334    8    0    1
 -2        92        93       250      1239      1568      1569
 -1       335    8    0    1
 -2        92       250       249      1569      1570      1565
 -1       336    8    0    1
 -2        93        94       251      1240      1571      1572
 -1       337    8    0    1
 -2        93       251       250      1572      1573      1568
 -1       338    8    0    1
 -2        94        95       252      1241      1574      1575
 -1       339    8    0    1
 -2        94       252       251      1575      1576      1571
 -1       340    8    0    1
 -2        95        96       253      1242      1577      1578
 -1       341    8    0    1
 -2        95       253       252      1578      1579      1574
 -1       342    8    0    1
 -2        96        97       254      1243      1580      1581
 -1       343    8    0    1
 -2        96       254       253      1581      1582      1577
 -1       344    8    0    1
 -2        97        98       255      1244      1583      1584
 -1       345    8    0    1
 -2        97       255       254      1584      1585      1580
 -1       346    8    0    1
 -2        98        99       256      1245      1586      1587
 -1       347    8    0    1
 -2        98       256       255      1587      1588      1583
 -1       348    8    0    1
 -2        99       100       257      1246      1589      1590
 -1       349    8    0    1
 -2        99       257       256      1590      1591      1586
 -1       350    8    0    1
 -2       100       101       258      1247      1592      1593
 -1       351    8    0    1
 -2       100       258       257      1593      1594      1589
 -1       352    8    0    1
 -2       101       102       259      1248      1595      1596
 -1       353    8    0    1
 -2       101       259       258      1596      1597      1592
 -1       354    8    0    1
 -2       102       103       260      1249      1598      1599
 -1       355    8    0    1
 -2       102       260       259      1599      1600      1595
 -1       356    8    0    1
 -2       103       104       261      1250      1601      1602
 -1       357    8    0    1
 -2       103       261       260      1602      1603      1598
 -1       358    8    0    1
 -2       104       105       262      1251      1604      1605
 -1       359    8    0    1
 -2       104       262       261      1605      1606      1601
 -1       360    8    0    1
 -2       105       106       263      1252      1607      1608
 -1       361    8    0    1
 -2       105       263       262      1608      1609      1604
 -1       362    8    0    1
 -2       106       107       264      1253      1610      1611
 -1       363    8    0    1
 -2       106       264       263      1611      1612      1607
 -1       364    8    0    1
 -2       107       108       265      1254      1613      1614
 -1       365    8    0    1
 -2       107       265       264      1614      1615      1610
 -1       366    8    0    1
 -2       108       109       266      1255      1616      1617
 -1       367    8    0    1
 -2       108       266       265      1617      1618      1613
 -1       368    8    0    1
 -2       109       110       267      1256      1619      1620
 -1       369    8    0    1
 -2       109       267       266      1620      1621      1616
 -1       370    8    0    1
 -2       110       111       268      1257      1622      1623
 -1       371    8    0    1
 -2       110       268       267      1623      1624      1619
 -1       372    8    0    1
 -2       111       112       269      1258      1625      1626
 -1       373    8    0    1
 -2       111       269       268      1626      1627      1622
 -1       374    8    0    1
 -2       112       113       270      1259      1628      1629
 -1       375    8    0    1
 -2       112       270       269      1629      1630      1625
 -1       376    8    0    1
 -2       113       114       271      1260      1631      1632
 -1       377    8    0    1
 -2       113       271       270      1632      1633      1628
 -1       378    8    0    1
 -2       114       115       272      1261      1634      1635
 -1       379    8    0    1
 -2       114       272       271      1635      1636      1631
 -1       380    8    0    1
 -2       115       116       273      1262      1637      1638
 -1       381    8    0    1
 -2       115       273       272      1638      1639      1634
 -1       382    8    0    1
 -2       116       117       274      1263      1640      1641
 -1       383    8    0    1
 -2       116       274       273      1641      1642      1637
 -1       384    8    0    1
 -2       117       118       275      1264      1643      1644
 -1       385    8    0    1
 -2       117       275       274      1644      1645      1640
 -1       386    8    0    1
 -2       118       119       276      1265      1646      1647
 -1       387    8    0    1
 -2       118       276       275      1647      1648      1643
 -1       388    8    0    1
 -2       119       120       277      1266      1649      1650
 -1       389    8    0    1
 -2       119       277       276      1650      1651      1646
 -1       390    8    0    1
 -2       120       121       278      1267      1652      1653
 -1       391    8    0    1
 -2       120       278       277      1653      1654      1649
 -1       392    8    0    1
 -2       121         3       122      1268      1269      1655
 -1       393    8    0    1
 -2       122       123       279      1270      1656      1657
 -1       394    8    0    1
 -2       123       124       280      1271      1658      1659
 -1       395    8    0    1
 -2       123       280       279      1659      1660      1656
 -1       396    8    0    1
 -2       124       125       281      1272      1661      1662
 -1       397    8    0    1
 -2       124       281       280      1662      1663      1658
 -1       398    8    0    1
 -2       125       126       282      1273      1664      1665
 -1       399    8    0    1
 -2       125       282       281      1665      1666      1661
 -1       400    8    0    1
 -2       126       127       283      1274      1667      1668
 -1       401    8    0    1
 -2       126       283       282      1668      1669      1664
 -1       402    8    0    1
 -2       127       128       284      1275      1670      1671
 -1       403    8    0    1
 -2       127       284       283      1671      1672      1667
 -1       404    8    0    1
 -2       128       129       285      1276      1673      1674
 -1       405    8    0    1
 -2       128       285       284      1674      1675      1670
 -1       406    8    0    1
 -2       129       130       286      1277      1676      1677
 -1       407    8    0    1
 -2       129       286       285      1677      1678      1673
 -1       408    8    0    1
 -2       130       131       287      1278      1679      1680
 -1       409    8    0    1
 -2       130       287       286      1680      1681      1676
 -1       410    8    0    1
 -2       131       132       288      1279      1682      1683
 -1       411    8    0    1
 -2       131       288       287      1683      1684      1679
 -1       412    8    0    1
 -2       132       133       289      1280      1685      1686
 -1       413    8    0    1
 -2       132       289       288      1686      1687      1682
 -1       414    8    0    1
 -2       133       134       290      1281      1688      1689
 -1       415    8    0    1
 -2       133       290       289      1689      1690      1685
 -1       416    8    0    1
 -2       134       135       291      1282      1691      1692
 -1       417    8    0    1
 -2       134       291       290      1692      1693      1688
 -1       418    8    0    1
 -2       135       136       292      1283      1694      1695
 -1       419    8    0    1
 -2       135       292       291      1695      1696      1691
 -1       420    8    0    1
 -2       136       137       293      1284      1697      1698
 -1       421    8    0    1
 -2       292       136       293      1694      1698      1699
 -1       422    8    0    1
 -2       137       230       293      1509      1700      1697
 -1       423    8    0    1
 -2         2       138       294      1286      1701      1702
 -1       424    8    0    1
 -2       138       139       295      1287      1703      1704
 -1       425    8    0    1
 -2       139       140       296      1288      1705      1706
 -1       426    8    0    1
 -2       140       141       297      1289      1707      1708
 -1       427    8    0    1
 -2       141       142       298      1290      1709      1710
 -1       428    8    0    1
 -2       142       143       299      1291      1711      1712
 -1       429    8    0    1
 -2       143       144       300      1292      1713      1714
 -1       430    8    0    1
 -2       144       145       301      1293      1715      1716
 -1       431    8    0    1
 -2       145       146       302      1294      1717      1718
 -1       432    8    0    1
 -2       146       147       303      1295      1719      1720
 -1       433    8    0    1
 -2       147       148       304      1296      1721      1722
 -1       434    8    0    1
 -2       148       149       305      1297      1723      1724
 -1       435    8    0    1
 -2       149       150       306      1298      1725      1726
 -1       436    8    0    1
 -2       150       151       307      1299      1727      1728
 -1       437    8    0    1
 -2       151       152       308      1300      1729      1730
 -1       438    8    0    1
 -2       152       153       309      1301      1731      1732
 -1       439    8    0    1
 -2       153       154       310      1302      1733      1734
 -1       440    8    0    1
 -2       154         1       311      1303      1735      1736
 -1       441    8    0    1
 -2         1       155       312      1304      1737      1738
 -1       442    8    0    1
 -2       155       156       313      1305      1739      1740
 -1       443    8    0    1
 -2       156       157       314      1306      1741      1742
 -1       444    8    0    1
 -2       157       158       315      1307      1743      1744
 -1       445    8    0    1
 -2       158       159       316      1308      1745      1746
 -1       446    8    0    1
 -2       159       160       317      1309      1747      1748
 -1       447    8    0    1
 -2       160       161       318      1310      1749      1750
 -1       448    8    0    1
 -2       161       162       319      1311      1751      1752
 -1       449    8    0    1
 -2       162       163       320      1312      1753      1754
 -1       450    8    0    1
 -2       163       164       321      1313      1755      1756
 -1       451    8    0    1
 -2       164       165       322      1314      1757      1758
 -1       452    8    0    1
 -2       165         2       323      1315      1759      1760
 -1       453    8    0    1
 -2       188        30       324      1382      1761      1762
 -1       454    8    0    1
 -2        30        29       324      1175      1763      1761
 -1       455    8    0    1
 -2       296       140       297      1705      1708      1764
 -1       456    8    0    1
 -2         2       294       323      1702      1765      1759
 -1       457    8    0    1
 -2       121       122       278      1655      1766      1652
 -1       458    8    0    1
 -2       122       279       278      1657      1767      1766
 -1       459    8    0    1
 -2       294       138       295      1701      1704      1768
 -1       460    8    0    1
 -2       295       139       296      1703      1706      1769
 -1       461    8    0    1
 -2       141       298       297      1710      1770      1707
 -1       462    8    0    1
 -2       142       299       298      1712      1771      1709
 -1       463    8    0    1
 -2       143       300       299      1714      1772      1711
 -1       464    8    0    1
 -2       144       301       300      1716      1773      1713
 -1       465    8    0    1
 -2       145       302       301      1718      1774      1715
 -1       466    8    0    1
 -2       146       303       302      1720      1775      1717
 -1       467    8    0    1
 -2       147       304       303      1722      1776      1719
 -1       468    8    0    1
 -2       148       305       304      1724      1777      1721
 -1       469    8    0    1
 -2       149       306       305      1726      1778      1723
 -1       470    8    0    1
 -2       150       307       306      1728      1779      1725
 -1       471    8    0    1
 -2       151       308       307      1730      1780      1727
 -1       472    8    0    1
 -2       152       309       308      1732      1781      1729
 -1       473    8    0    1
 -2       153       310       309      1734      1782      1731
 -1       474    8    0    1
 -2       154       311       310      1736      1783      1733
 -1       475    8    0    1
 -2         1       312       311      1738      1784      1735
 -1       476    8    0    1
 -2       155       313       312      1740      1785      1737
 -1       477    8    0    1
 -2       156       314       313      1742      1786      1739
 -1       478    8    0    1
 -2       157       315       314      1744      1787      1741
 -1       479    8    0    1
 -2       158       316       315      1746      1788      1743
 -1       480    8    0    1
 -2       159       317       316      1748      1789      1745
 -1       481    8    0    1
 -2       160       318       317      1750      1790      1747
 -1       482    8    0    1
 -2       161       319       318      1752      1791      1749
 -1       483    8    0    1
 -2       162       320       319      1754      1792      1751
 -1       484    8    0    1
 -2       163       321       320      1756      1793      1753
 -1       485    8    0    1
 -2       164       322       321      1758      1794      1755
 -1       486    8    0    1
 -2       165       323       322      1760      1795      1757
 -1       487    8    0    1
 -2        23         7       166      1316      1318      1796
 -1       488    8    0    1
 -2       324        29       187      1763      1380      1797
 -1       489    8    0    1
 -2       167       168       325      1324      1798      1799
 -1       490    8    0    1
 -2       166       167       326      1321      1800      1801
 -1       491    8    0    1
 -2       167       325       326      1799      1802      1800
 -1       492    8    0    1
 -2       169       170       327      1330      1803      1804
 -1       493    8    0    1
 -2       170       171       328      1333      1805      1806
 -1       494    8    0    1
 -2       170       328       327      1806      1807      1803
 -1       495    8    0    1
 -2       171       172       329      1336      1808      1809
 -1       496    8    0    1
 -2       171       329       328      1809      1810      1805
 -1       497    8    0    1
 -2       172       173       330      1339      1811      1812
 -1       498    8    0    1
 -2       172       330       329      1812      1813      1808
 -1       499    8    0    1
 -2       173       174       331      1342      1814      1815
 -1       500    8    0    1
 -2       173       331       330      1815      1816      1811
 -1       501    8    0    1
 -2       174       175       332      1345      1817      1818
 -1       502    8    0    1
 -2       174       332       331      1818      1819      1814
 -1       503    8    0    1
 -2       175       176       333      1348      1820      1821
 -1       504    8    0    1
 -2       175       333       332      1821      1822      1817
 -1       505    8    0    1
 -2       176       177       334      1351      1823      1824
 -1       506    8    0    1
 -2       176       334       333      1824      1825      1820
 -1       507    8    0    1
 -2       177       178       335      1354      1826      1827
 -1       508    8    0    1
 -2       177       335       334      1827      1828      1823
 -1       509    8    0    1
 -2       178       179       336      1357      1829      1830
 -1       510    8    0    1
 -2       178       336       335      1830      1831      1826
 -1       511    8    0    1
 -2       179       180       337      1360      1832      1833
 -1       512    8    0    1
 -2       179       337       336      1833      1834      1829
 -1       513    8    0    1
 -2       180       181       338      1363      1835      1836
 -1       514    8    0    1
 -2       337       180       338      1832      1836      1837
 -1       515    8    0    1
 -2       181       231       338      1513      1838      1835
 -1       516    8    0    1
 -2       182        23       166      1365      1796      1839
 -1       517    8    0    1
 -2       231       232       339      1516      1840      1841
 -1       518    8    0    1
 -2       231       339       338      1841      1842      1838
 -1       519    8    0    1
 -2       324       187       340      1797      1843      1844
 -1       520    8    0    1
 -2       184       183       341      1372      1845      1846
 -1       521    8    0    1
 -2       185       184       342      1375      1847      1848
 -1       522    8    0    1
 -2       184       341       342      1846      1849      1847
 -1       523    8    0    1
 -2       186       185       343      1378      1850      1851
 -1       524    8    0    1
 -2       185       342       343      1848      1852      1850
 -1       525    8    0    1
 -2       187       186       344      1381      1853      1854
 -1       526    8    0    1
 -2       340       187       344      1843      1854      1855
 -1       527    8    0    1
 -2       186       343       344      1851      1856      1853
 -1       528    8    0    1
 -2       296       297       345      1764      1857      1858
 -1       529    8    0    1
 -2       182       166       326      1839      1801      1859
 -1       530    8    0    1
 -2       190       189       346      1389      1860      1861
 -1       531    8    0    1
 -2       191       190       347      1392      1862      1863
 -1       532    8    0    1
 -2       190       346       347      1861      1864      1862
 -1       533    8    0    1
 -2       192       191       348      1395      1865      1866
 -1       534    8    0    1
 -2       191       347       348      1863      1867      1865
 -1       535    8    0    1
 -2       193       192       349      1398      1868      1869
 -1       536    8    0    1
 -2       192       348       349      1866      1870      1868
 -1       537    8    0    1
 -2       194       193       350      1401      1871      1872
 -1       538    8    0    1
 -2       193       349       350      1869      1873      1871
 -1       539    8    0    1
 -2       195       194       351      1404      1874      1875
 -1       540    8    0    1
 -2       194       350       351      1872      1876      1874
 -1       541    8    0    1
 -2       196       195       352      1407      1877      1878
 -1       542    8    0    1
 -2       195       351       352      1875      1879      1877
 -1       543    8    0    1
 -2       197       196       353      1410      1880      1881
 -1       544    8    0    1
 -2       196       352       353      1878      1882      1880
 -1       545    8    0    1
 -2       198       197       354      1413      1883      1884
 -1       546    8    0    1
 -2       197       353       354      1881      1885      1883
 -1       547    8    0    1
 -2       199       198       355      1416      1886      1887
 -1       548    8    0    1
 -2       198       354       355      1884      1888      1886
 -1       549    8    0    1
 -2       200       199       356      1419      1889      1890
 -1       550    8    0    1
 -2       199       355       356      1887      1891      1889
 -1       551    8    0    1
 -2       201       200       357      1422      1892      1893
 -1       552    8    0    1
 -2       200       356       357      1890      1894      1892
 -1       553    8    0    1
 -2       202       201       358      1425      1895      1896
 -1       554    8    0    1
 -2       201       357       358      1893      1897      1895
 -1       555    8    0    1
 -2       203       202       359      1428      1898      1899
 -1       556    8    0    1
 -2       202       358       359      1896      1900      1898
 -1       557    8    0    1
 -2       204       203       360      1431      1901      1902
 -1       558    8    0    1
 -2       203       359       360      1899      1903      1901
 -1       559    8    0    1
 -2       205       204       361      1434      1904      1905
 -1       560    8    0    1
 -2       204       360       361      1902      1906      1904
 -1       561    8    0    1
 -2       206       205       362      1437      1907      1908
 -1       562    8    0    1
 -2       205       361       362      1905      1909      1907
 -1       563    8    0    1
 -2       207       206       363      1440      1910      1911
 -1       564    8    0    1
 -2       206       362       363      1908      1912      1910
 -1       565    8    0    1
 -2       208       207       364      1443      1913      1914
 -1       566    8    0    1
 -2       207       363       364      1911      1915      1913
 -1       567    8    0    1
 -2       209       208       365      1446      1916      1917
 -1       568    8    0    1
 -2       208       364       365      1914      1918      1916
 -1       569    8    0    1
 -2       210       209       366      1449      1919      1920
 -1       570    8    0    1
 -2       209       365       366      1917      1921      1919
 -1       571    8    0    1
 -2       211       210       367      1452      1922      1923
 -1       572    8    0    1
 -2       210       366       367      1920      1924      1922
 -1       573    8    0    1
 -2       212       211       368      1455      1925      1926
 -1       574    8    0    1
 -2       211       367       368      1923      1927      1925
 -1       575    8    0    1
 -2       213       212       369      1458      1928      1929
 -1       576    8    0    1
 -2       212       368       369      1926      1930      1928
 -1       577    8    0    1
 -2       214       213       370      1461      1931      1932
 -1       578    8    0    1
 -2       213       369       370      1929      1933      1931
 -1       579    8    0    1
 -2       215       214       371      1464      1934      1935
 -1       580    8    0    1
 -2       214       370       371      1932      1936      1934
 -1       581    8    0    1
 -2       216       215       372      1467      1937      1938
 -1       582    8    0    1
 -2       215       371       372      1935      1939      1937
 -1       583    8    0    1
 -2       217       216       373      1470      1940      1941
 -1       584    8    0    1
 -2       216       372       373      1938      1942      1940
 -1       585    8    0    1
 -2       218       217       374      1473      1943      1944
 -1       586    8    0    1
 -2       217       373       374      1941      1945      1943
 -1       587    8    0    1
 -2       219       218       375      1476      1946      1947
 -1       588    8    0    1
 -2       218       374       375      1944      1948      1946
 -1       589    8    0    1
 -2       220       219       376      1479      1949      1950
 -1       590    8    0    1
 -2       219       375       376      1947      1951      1949
 -1       591    8    0    1
 -2       221       220       377      1482      1952      1953
 -1       592    8    0    1
 -2       220       376       377      1950      1954      1952
 -1       593    8    0    1
 -2       222       221       378      1485      1955      1956
 -1       594    8    0    1
 -2       221       377       378      1953      1957      1955
 -1       595    8    0    1
 -2       223       222       379      1488      1958      1959
 -1       596    8    0    1
 -2       222       378       379      1956      1960      1958
 -1       597    8    0    1
 -2       224       223       380      1491      1961      1962
 -1       598    8    0    1
 -2       223       379       380      1959      1963      1961
 -1       599    8    0    1
 -2       225       224       381      1494      1964      1965
 -1       600    8    0    1
 -2       224       380       381      1962      1966      1964
 -1       601    8    0    1
 -2       226       225       382      1497      1967      1968
 -1       602    8    0    1
 -2       225       381       382      1965      1969      1967
 -1       603    8    0    1
 -2       227       226       383      1500      1970      1971
 -1       604    8    0    1
 -2       226       382       383      1968      1972      1970
 -1       605    8    0    1
 -2       228       227       384      1503      1973      1974
 -1       606    8    0    1
 -2       227       383       384      1971      1975      1973
 -1       607    8    0    1
 -2       229       228       385      1506      1976      1977
 -1       608    8    0    1
 -2       228       384       385      1974      1978      1976
 -1       609    8    0    1
 -2       230       229       293      1510      1979      1700
 -1       610    8    0    1
 -2       233       234       386      1522      1980      1981
 -1       611    8    0    1
 -2       234       235       387      1525      1982      1983
 -1       612    8    0    1
 -2       234       387       386      1983      1984      1980
 -1       613    8    0    1
 -2       235       236       388      1528      1985      1986
 -1       614    8    0    1
 -2       235       388       387      1986      1987      1982
 -1       615    8    0    1
 -2       236       237       389      1531      1988      1989
 -1       616    8    0    1
 -2       236       389       388      1989      1990      1985
 -1       617    8    0    1
 -2       237       238       390      1534      1991      1992
 -1       618    8    0    1
 -2       237       390       389      1992      1993      1988
 -1       619    8    0    1
 -2       238       239       391      1537      1994      1995
 -1       620    8    0    1
 -2       238       391       390      1995      1996      1991
 -1       621    8    0    1
 -2       239       240       392      1540      1997      1998
 -1       622    8    0    1
 -2       239       392       391      1998      1999      1994
 -1       623    8    0    1
 -2       240       241       393      1543      2000      2001
 -1       624    8    0    1
 -2       240       393       392      2001      2002      1997
 -1       625    8    0    1
 -2       241       242       394      1546      2003      2004
 -1       626    8    0    1
 -2       241       394       393      2004      2005      2000
 -1       627    8    0    1
 -2       242       243       395      1549      2006      2007
 -1       628    8    0    1
 -2       242       395       394      2007      2008      2003
 -1       629    8    0    1
 -2       243       244       396      1552      2009      2010
 -1       630    8    0    1
 -2       243       396       395      2010      2011      2006
 -1       631    8    0    1
 -2       244       245       397      1555      2012      2013
 -1       632    8    0    1
 -2       244       397       396      2013      2014      2009
 -1       633    8    0    1
 -2       245       246       398      1558      2015      2016
 -1       634    8    0    1
 -2       245       398       397      2016      2017      2012
 -1       635    8    0    1
 -2       246       247       399      1561      2018      2019
 -1       636    8    0    1
 -2       246       399       398      2019      2020      2015
 -1       637    8    0    1
 -2       247       248       400      1564      2021      2022
 -1       638    8    0    1
 -2       247       400       399      2022      2023      2018
 -1       639    8    0    1
 -2       248       249       401      1567      2024      2025
 -1       640    8    0    1
 -2       248       401       400      2025      2026      2021
 -1       641    8    0    1
 -2       249       250       402      1570      2027      2028
 -1       642    8    0    1
 -2       249       402       401      2028      2029      2024
 -1       643    8    0    1
 -2       250       251       403      1573      2030      2031
 -1       644    8    0    1
 -2       250       403       402      2031      2032      2027
 -1       645    8    0    1
 -2       251       252       404      1576      2033      2034
 -1       646    8    0    1
 -2       251       404       403      2034      2035      2030
 -1       647    8    0    1
 -2       252       253       405      1579      2036      2037
 -1       648    8    0    1
 -2       252       405       404      2037      2038      2033
 -1       649    8    0    1
 -2       253       254       406      1582      2039      2040
 -1       650    8    0    1
 -2       253       406       405      2040      2041      2036
 -1       651    8    0    1
 -2       254       255       407      1585      2042      2043
 -1       652    8    0    1
 -2       254       407       406      2043      2044      2039
 -1       653    8    0    1
 -2       255       256       408      1588      2045      2046
 -1       654    8    0    1
 -2       255       408       407      2046      2047      2042
 -1       655    8    0    1
 -2       256       257       409      1591      2048      2049
 -1       656    8    0    1
 -2       256       409       408      2049      2050      2045
 -1       657    8    0    1
 -2       257       258       410      1594      2051      2052
 -1       658    8    0    1
 -2       257       410       409      2052      2053      2048
 -1       659    8    0    1
 -2       258       259       411      1597      2054      2055
 -1       660    8    0    1
 -2       258       411       410      2055      2056      2051
 -1       661    8    0    1
 -2       259       260       412      1600      2057      2058
 -1       662    8    0    1
 -2       259       412       411      2058      2059      2054
 -1       663    8    0    1
 -2       260       261       413      1603      2060      2061
 -1       664    8    0    1
 -2       260       413       412      2061      2062      2057
 -1       665    8    0    1
 -2       261       262       414      1606      2063      2064
 -1       666    8    0    1
 -2       261       414       413      2064      2065      2060
 -1       667    8    0    1
 -2       262       263       415      1609      2066      2067
 -1       668    8    0    1
 -2       262       415       414      2067      2068      2063
 -1       669    8    0    1
 -2       263       264       416      1612      2069      2070
 -1       670    8    0    1
 -2       263       416       415      2070      2071      2066
 -1       671    8    0    1
 -2       264       265       417      1615      2072      2073
 -1       672    8    0    1
 -2       264       417       416      2073      2074      2069
 -1       673    8    0    1
 -2       265       266       418      1618      2075      2076
 -1       674    8    0    1
 -2       265       418       417      2076      2077      2072
 -1       675    8    0    1
 -2       266       267       419      1621      2078      2079
 -1       676    8    0    1
 -2       266       419       418      2079      2080      2075
 -1       677    8    0    1
 -2       267       268       420      1624      2081      2082
 -1       678    8    0    1
 -2       267       420       419      2082      2083      2078
 -1       679    8    0    1
 -2       268       269       421      1627      2084      2085
 -1       680    8    0    1
 -2       268       421       420      2085      2086      2081
 -1       681    8    0    1
 -2       269       270       422      1630      2087      2088
 -1       682    8    0    1
 -2       269       422       421      2088      2089      2084
 -1       683    8    0    1
 -2       270       271       423      1633      2090      2091
 -1       684    8    0    1
 -2       270       423       422      2091      2092      2087
 -1       685    8    0    1
 -2       271       272       424      1636      2093      2094
 -1       686    8    0    1
 -2       271       424       423      2094      2095      2090
 -1       687    8    0    1
 -2       272       273       425      1639      2096      2097
 -1       688    8    0    1
 -2       272       425       424      2097      2098      2093
 -1       689    8    0    1
 -2       273       274       426      1642      2099      2100
 -1       690    8    0    1
 -2       273       426       425      2100      2101      2096
 -1       691    8    0    1
 -2       274       275       427      1645      2102      2103
 -1       692    8    0    1
 -2       274       427       426      2103      2104      2099
 -1       693    8    0    1
 -2       275       276       428      1648      2105      2106
 -1       694    8    0    1
 -2       275       428       427      2106      2107      2102
 -1       695    8    0    1
 -2       276       277       429      1651      2108      2109
 -1       696    8    0    1
 -2       276       429       428      2109      2110      2105
 -1       697    8    0    1
 -2       277       278       430      1654      2111      2112
 -1       698    8    0    1
 -2       429       277       430      2108      2112      2113
 -1       699    8    0    1
 -2       278       279       430      1767      2114      2111
 -1       700    8    0    1
 -2       281       282       431      1666      2115      2116
 -1       701    8    0    1
 -2       280       281       432      1663      2117      2118
 -1       702    8    0    1
 -2       281       431       432      2116      2119      2117
 -1       703    8    0    1
 -2       279       280       430      1660      2120      2114
 -1       704    8    0    1
 -2       282       283       433      1669      2121      2122
 -1       705    8    0    1
 -2       282       433       431      2122      2123      2115
 -1       706    8    0    1
 -2       283       284       434      1672      2124      2125
 -1       707    8    0    1
 -2       283       434       433      2125      2126      2121
 -1       708    8    0    1
 -2       284       285       435      1675      2127      2128
 -1       709    8    0    1
 -2       284       435       434      2128      2129      2124
 -1       710    8    0    1
 -2       285       286       436      1678      2130      2131
 -1       711    8    0    1
 -2       285       436       435      2131      2132      2127
 -1       712    8    0    1
 -2       286       287       437      1681      2133      2134
 -1       713    8    0    1
 -2       286       437       436      2134      2135      2130
 -1       714    8    0    1
 -2       287       288       438      1684      2136      2137
 -1       715    8    0    1
 -2       287       438       437      2137      2138      2133
 -1       716    8    0    1
 -2       288       289       439      1687      2139      2140
 -1       717    8    0    1
 -2       288       439       438      2140      2141      2136
 -1       718    8    0    1
 -2       289       290       440      1690      2142      2143
 -1       719    8    0    1
 -2       289       440       439      2143      2144      2139
 -1       720    8    0    1
 -2       290       291       441      1693      2145      2146
 -1       721    8    0    1
 -2       290       441       440      2146      2147      2142
 -1       722    8    0    1
 -2       291       292       442      1696      2148      2149
 -1       723    8    0    1
 -2       291       442       441      2149      2150      2145
 -1       724    8    0    1
 -2       232       233       443      1519      2151      2152
 -1       725    8    0    1
 -2       339       232       443      1840      2152      2153
 -1       726    8    0    1
 -2       233       386       443      1981      2154      2151
 -1       727    8    0    1
 -2       295       296       444      1769      2155      2156
 -1       728    8    0    1
 -2       297       298       445      1770      2157      2158
 -1       729    8    0    1
 -2       323       294       446      1765      2159      2160
 -1       730    8    0    1
 -2       168       169       447      1327      2161      2162
 -1       731    8    0    1
 -2       325       168       447      1798      2162      2163
 -1       732    8    0    1
 -2       169       327       447      1804      2164      2161
 -1       733    8    0    1
 -2       189       188       448      1386      2165      2166
 -1       734    8    0    1
 -2       298       299       449      1771      2167      2168
 -1       735    8    0    1
 -2       299       300       450      1772      2169      2170
 -1       736    8    0    1
 -2       300       301       451      1773      2171      2172
 -1       737    8    0    1
 -2       300       451       450      2172      2173      2169
 -1       738    8    0    1
 -2       301       302       452      1774      2174      2175
 -1       739    8    0    1
 -2       302       303       453      1775      2176      2177
 -1       740    8    0    1
 -2       303       304       454      1776      2178      2179
 -1       741    8    0    1
 -2       304       305       455      1777      2180      2181
 -1       742    8    0    1
 -2       305       306       456      1778      2182      2183
 -1       743    8    0    1
 -2       306       307       457      1779      2184      2185
 -1       744    8    0    1
 -2       306       457       456      2185      2186      2182
 -1       745    8    0    1
 -2       307       308       458      1780      2187      2188
 -1       746    8    0    1
 -2       308       309       459      1781      2189      2190
 -1       747    8    0    1
 -2       308       459       458      2190      2191      2187
 -1       748    8    0    1
 -2       309       310       460      1782      2192      2193
 -1       749    8    0    1
 -2       310       311       461      1783      2194      2195
 -1       750    8    0    1
 -2       311       312       462      1784      2196      2197
 -1       751    8    0    1
 -2       313       314       340      1786      2198      2199
 -1       752    8    0    1
 -2       314       315       340      1787      2200      2198
 -1       753    8    0    1
 -2       316       317       448      1789      2201      2202
 -1       754    8    0    1
 -2       317       318       346      1790      2203      2204
 -1       755    8    0    1
 -2       319       320       463      1792      2205      2206
 -1       756    8    0    1
 -2       320       321       464      1793      2207      2208
 -1       757    8    0    1
 -2       321       322       465      1794      2209      2210
 -1       758    8    0    1
 -2       322       323       466      1795      2211      2212
 -1       759    8    0    1
 -2       294       295       467      1768      2213      2214
 -1       760    8    0    1
 -2       293       229       385      1979      1977      2215
 -1       761    8    0    1
 -2       341       183       326      1845      2216      2217
 -1       762    8    0    1
 -2       444       296       345      2155      1858      2218
 -1       763    8    0    1
 -2       345       297       445      1857      2158      2219
 -1       764    8    0    1
 -2       183       182       326      1369      1859      2216
 -1       765    8    0    1
 -2       189       448       346      2166      2220      1860
 -1       766    8    0    1
 -2       430       280       432      2120      2118      2221
 -1       767    8    0    1
 -2       446       294       467      2159      2214      2222
 -1       768    8    0    1
 -2       292       293       468      1699      2223      2224
 -1       769    8    0    1
 -2       442       292       468      2148      2224      2225
 -1       770    8    0    1
 -2       293       385       468      2215      2226      2223
 -1       771    8    0    1
 -2       295       444       467      2156      2227      2213
 -1       772    8    0    1
 -2       445       298       449      2157      2168      2228
 -1       773    8    0    1
 -2       323       446       466      2160      2229      2211
 -1       774    8    0    1
 -2       465       322       466      2209      2212      2230
 -1       775    8    0    1
 -2       464       321       465      2207      2210      2231
 -1       776    8    0    1
 -2       463       320       464      2205      2208      2232
 -1       777    8    0    1
 -2       346       318       469      2203      2233      2234
 -1       778    8    0    1
 -2       347       346       469      1864      2234      2235
 -1       779    8    0    1
 -2       318       319       469      1791      2236      2233
 -1       780    8    0    1
 -2       316       448       470      2202      2237      2238
 -1       781    8    0    1
 -2       315       316       470      1788      2238      2239
 -1       782    8    0    1
 -2       448       188       470      2165      2240      2237
 -1       783    8    0    1
 -2       461       311       462      2194      2197      2241
 -1       784    8    0    1
 -2       459       309       460      2189      2193      2242
 -1       785    8    0    1
 -2       457       307       458      2184      2188      2243
 -1       786    8    0    1
 -2       455       305       471      2180      2244      2245
 -1       787    8    0    1
 -2       305       456       471      2183      2246      2244
 -1       788    8    0    1
 -2       454       304       455      2178      2181      2247
 -1       789    8    0    1
 -2       453       303       454      2176      2179      2248
 -1       790    8    0    1
 -2       451       301       452      2171      2175      2249
 -1       791    8    0    1
 -2       188       324       470      1762      2250      2240
 -1       792    8    0    1
 -2       449       299       450      2167      2170      2251
 -1       793    8    0    1
 -2       452       302       453      2174      2177      2252
 -1       794    8    0    1
 -2       460       310       461      2192      2195      2253
 -1       795    8    0    1
 -2       313       340       344      2199      1855      2254
 -1       796    8    0    1
 -2       312       313       344      1785      2254      2255
 -1       797    8    0    1
 -2       340       315       470      2200      2239      2256
 -1       798    8    0    1
 -2       448       317       346      2201      2204      2220
 -1       799    8    0    1
 -2       319       463       469      2206      2257      2236
 -1       800    8    0    1
 -2       312       344       462      2255      2258      2196
 -1       801    8    0    1
 -2       470       324       340      2250      1844      2256
 -1       802    8    0    1
 -2       328       329       472      1810      2259      2260
 -1       803    8    0    1
 -2       327       328       473      1807      2261      2262
 -1       804    8    0    1
 -2       328       472       473      2260      2263      2261
 -1       805    8    0    1
 -2       330       331       474      1816      2264      2265
 -1       806    8    0    1
 -2       331       332       475      1819      2266      2267
 -1       807    8    0    1
 -2       331       475       474      2267      2268      2264
 -1       808    8    0    1
 -2       332       333       476      1822      2269      2270
 -1       809    8    0    1
 -2       332       476       475      2270      2271      2266
 -1       810    8    0    1
 -2       333       334       477      1825      2272      2273
 -1       811    8    0    1
 -2       333       477       476      2273      2274      2269
 -1       812    8    0    1
 -2       334       335       478      1828      2275      2276
 -1       813    8    0    1
 -2       334       478       477      2276      2277      2272
 -1       814    8    0    1
 -2       335       336       479      1831      2278      2279
 -1       815    8    0    1
 -2       335       479       478      2279      2280      2275
 -1       816    8    0    1
 -2       336       337       480      1834      2281      2282
 -1       817    8    0    1
 -2       336       480       479      2282      2283      2278
 -1       818    8    0    1
 -2       337       338       481      1837      2284      2285
 -1       819    8    0    1
 -2       480       337       481      2281      2285      2286
 -1       820    8    0    1
 -2       338       339       481      1842      2287      2284
 -1       821    8    0    1
 -2       444       345       482      2218      2288      2289
 -1       822    8    0    1
 -2       342       341       483      1849      2290      2291
 -1       823    8    0    1
 -2       345       445       484      2219      2292      2293
 -1       824    8    0    1
 -2       343       342       485      1852      2294      2295
 -1       825    8    0    1
 -2       342       483       485      2291      2296      2294
 -1       826    8    0    1
 -2       344       343       462      1856      2297      2258
 -1       827    8    0    1
 -2       449       450       486      2251      2298      2299
 -1       828    8    0    1
 -2       430       432       429      2221      2300      2113
 -1       829    8    0    1
 -2       341       326       487      2217      2301      2302
 -1       830    8    0    1
 -2       483       341       487      2290      2302      2303
 -1       831    8    0    1
 -2       326       325       487      1802      2304      2301
 -1       832    8    0    1
 -2       348       347       488      1867      2305      2306
 -1       833    8    0    1
 -2       347       469       488      2235      2307      2305
 -1       834    8    0    1
 -2       349       348       489      1870      2308      2309
 -1       835    8    0    1
 -2       348       488       489      2306      2310      2308
 -1       836    8    0    1
 -2       350       349       490      1873      2311      2312
 -1       837    8    0    1
 -2       349       489       490      2309      2313      2311
 -1       838    8    0    1
 -2       351       350       491      1876      2314      2315
 -1       839    8    0    1
 -2       350       490       491      2312      2316      2314
 -1       840    8    0    1
 -2       352       351       492      1879      2317      2318
 -1       841    8    0    1
 -2       351       491       492      2315      2319      2317
 -1       842    8    0    1
 -2       353       352       493      1882      2320      2321
 -1       843    8    0    1
 -2       352       492       493      2318      2322      2320
 -1       844    8    0    1
 -2       354       353       494      1885      2323      2324
 -1       845    8    0    1
 -2       353       493       494      2321      2325      2323
 -1       846    8    0    1
 -2       355       354       495      1888      2326      2327
 -1       847    8    0    1
 -2       354       494       495      2324      2328      2326
 -1       848    8    0    1
 -2       356       355       496      1891      2329      2330
 -1       849    8    0    1
 -2       355       495       496      2327      2331      2329
 -1       850    8    0    1
 -2       357       356       497      1894      2332      2333
 -1       851    8    0    1
 -2       356       496       497      2330      2334      2332
 -1       852    8    0    1
 -2       358       357       498      1897      2335      2336
 -1       853    8    0    1
 -2       357       497       498      2333      2337      2335
 -1       854    8    0    1
 -2       359       358       499      1900      2338      2339
 -1       855    8    0    1
 -2       358       498       499      2336      2340      2338
 -1       856    8    0    1
 -2       360       359       500      1903      2341      2342
 -1       857    8    0    1
 -2       359       499       500      2339      2343      2341
 -1       858    8    0    1
 -2       361       360       501      1906      2344      2345
 -1       859    8    0    1
 -2       360       500       501      2342      2346      2344
 -1       860    8    0    1
 -2       362       361       502      1909      2347      2348
 -1       861    8    0    1
 -2       361       501       502      2345      2349      2347
 -1       862    8    0    1
 -2       363       362       503      1912      2350      2351
 -1       863    8    0    1
 -2       362       502       503      2348      2352      2350
 -1       864    8    0    1
 -2       364       363       504      1915      2353      2354
 -1       865    8    0    1
 -2       363       503       504      2351      2355      2353
 -1       866    8    0    1
 -2       365       364       505      1918      2356      2357
 -1       867    8    0    1
 -2       364       504       505      2354      2358      2356
 -1       868    8    0    1
 -2       366       365       506      1921      2359      2360
 -1       869    8    0    1
 -2       365       505       506      2357      2361      2359
 -1       870    8    0    1
 -2       367       366       507      1924      2362      2363
 -1       871    8    0    1
 -2       366       506       507      2360      2364      2362
 -1       872    8    0    1
 -2       368       367       508      1927      2365      2366
 -1       873    8    0    1
 -2       367       507       508      2363      2367      2365
 -1       874    8    0    1
 -2       369       368       509      1930      2368      2369
 -1       875    8    0    1
 -2       368       508       509      2366      2370      2368
 -1       876    8    0    1
 -2       370       369       510      1933      2371      2372
 -1       877    8    0    1
 -2       369       509       510      2369      2373      2371
 -1       878    8    0    1
 -2       371       370       511      1936      2374      2375
 -1       879    8    0    1
 -2       370       510       511      2372      2376      2374
 -1       880    8    0    1
 -2       372       371       512      1939      2377      2378
 -1       881    8    0    1
 -2       371       511       512      2375      2379      2377
 -1       882    8    0    1
 -2       373       372       513      1942      2380      2381
 -1       883    8    0    1
 -2       372       512       513      2378      2382      2380
 -1       884    8    0    1
 -2       374       373       514      1945      2383      2384
 -1       885    8    0    1
 -2       373       513       514      2381      2385      2383
 -1       886    8    0    1
 -2       375       374       515      1948      2386      2387
 -1       887    8    0    1
 -2       374       514       515      2384      2388      2386
 -1       888    8    0    1
 -2       376       375       516      1951      2389      2390
 -1       889    8    0    1
 -2       375       515       516      2387      2391      2389
 -1       890    8    0    1
 -2       377       376       517      1954      2392      2393
 -1       891    8    0    1
 -2       376       516       517      2390      2394      2392
 -1       892    8    0    1
 -2       378       377       518      1957      2395      2396
 -1       893    8    0    1
 -2       377       517       518      2393      2397      2395
 -1       894    8    0    1
 -2       379       378       519      1960      2398      2399
 -1       895    8    0    1
 -2       378       518       519      2396      2400      2398
 -1       896    8    0    1
 -2       380       379       520      1963      2401      2402
 -1       897    8    0    1
 -2       379       519       520      2399      2403      2401
 -1       898    8    0    1
 -2       381       380       521      1966      2404      2405
 -1       899    8    0    1
 -2       380       520       521      2402      2406      2404
 -1       900    8    0    1
 -2       382       381       522      1969      2407      2408
 -1       901    8    0    1
 -2       381       521       522      2405      2409      2407
 -1       902    8    0    1
 -2       383       382       523      1972      2410      2411
 -1       903    8    0    1
 -2       382       522       523      2408      2412      2410
 -1       904    8    0    1
 -2       384       383       524      1975      2413      2414
 -1       905    8    0    1
 -2       383       523       524      2411      2415      2413
 -1       906    8    0    1
 -2       385       384       525      1978      2416      2417
 -1       907    8    0    1
 -2       468       385       525      2226      2417      2418
 -1       908    8    0    1
 -2       384       524       525      2414      2419      2416
 -1       909    8    0    1
 -2       388       389       526      1990      2420      2421
 -1       910    8    0    1
 -2       387       388       527      1987      2422      2423
 -1       911    8    0    1
 -2       388       526       527      2421      2424      2422
 -1       912    8    0    1
 -2       386       387       528      1984      2425      2426
 -1       913    8    0    1
 -2       387       527       528      2423      2427      2425
 -1       914    8    0    1
 -2       389       390       529      1993      2428      2429
 -1       915    8    0    1
 -2       389       529       526      2429      2430      2420
 -1       916    8    0    1
 -2       390       391       530      1996      2431      2432
 -1       917    8    0    1
 -2       390       530       529      2432      2433      2428
 -1       918    8    0    1
 -2       391       392       531      1999      2434      2435
 -1       919    8    0    1
 -2       391       531       530      2435      2436      2431
 -1       920    8    0    1
 -2       392       393       532      2002      2437      2438
 -1       921    8    0    1
 -2       392       532       531      2438      2439      2434
 -1       922    8    0    1
 -2       393       394       533      2005      2440      2441
 -1       923    8    0    1
 -2       393       533       532      2441      2442      2437
 -1       924    8    0    1
 -2       394       395       534      2008      2443      2444
 -1       925    8    0    1
 -2       394       534       533      2444      2445      2440
 -1       926    8    0    1
 -2       395       396       535      2011      2446      2447
 -1       927    8    0    1
 -2       395       535       534      2447      2448      2443
 -1       928    8    0    1
 -2       396       397       536      2014      2449      2450
 -1       929    8    0    1
 -2       396       536       535      2450      2451      2446
 -1       930    8    0    1
 -2       397       398       537      2017      2452      2453
 -1       931    8    0    1
 -2       397       537       536      2453      2454      2449
 -1       932    8    0    1
 -2       398       399       538      2020      2455      2456
 -1       933    8    0    1
 -2       398       538       537      2456      2457      2452
 -1       934    8    0    1
 -2       399       400       539      2023      2458      2459
 -1       935    8    0    1
 -2       399       539       538      2459      2460      2455
 -1       936    8    0    1
 -2       400       401       540      2026      2461      2462
 -1       937    8    0    1
 -2       400       540       539      2462      2463      2458
 -1       938    8    0    1
 -2       401       402       541      2029      2464      2465
 -1       939    8    0    1
 -2       401       541       540      2465      2466      2461
 -1       940    8    0    1
 -2       402       403       542      2032      2467      2468
 -1       941    8    0    1
 -2       402       542       541      2468      2469      2464
 -1       942    8    0    1
 -2       403       404       543      2035      2470      2471
 -1       943    8    0    1
 -2       403       543       542      2471      2472      2467
 -1       944    8    0    1
 -2       404       405       544      2038      2473      2474
 -1       945    8    0    1
 -2       404       544       543      2474      2475      2470
 -1       946    8    0    1
 -2       405       406       545      2041      2476      2477
 -1       947    8    0    1
 -2       405       545       544      2477      2478      2473
 -1       948    8    0    1
 -2       406       407       546      2044      2479      2480
 -1       949    8    0    1
 -2       406       546       545      2480      2481      2476
 -1       950    8    0    1
 -2       407       408       547      2047      2482      2483
 -1       951    8    0    1
 -2       407       547       546      2483      2484      2479
 -1       952    8    0    1
 -2       408       409       548      2050      2485      2486
 -1       953    8    0    1
 -2       408       548       547      2486      2487      2482
 -1       954    8    0    1
 -2       409       410       549      2053      2488      2489
 -1       955    8    0    1
 -2       409       549       548      2489      2490      2485
 -1       956    8    0    1
 -2       410       411       550      2056      2491      2492
 -1       957    8    0    1
 -2       410       550       549      2492      2493      2488
 -1       958    8    0    1
 -2       411       412       551      2059      2494      2495
 -1       959    8    0    1
 -2       411       551       550      2495      2496      2491
 -1       960    8    0    1
 -2       412       413       552      2062      2497      2498
 -1       961    8    0    1
 -2       412       552       551      2498      2499      2494
 -1       962    8    0    1
 -2       413       414       553      2065      2500      2501
 -1       963    8    0    1
 -2       413       553       552      2501      2502      2497
 -1       964    8    0    1
 -2       414       415       554      2068      2503      2504
 -1       965    8    0    1
 -2       414       554       553      2504      2505      2500
 -1       966    8    0    1
 -2       415       416       555      2071      2506      2507
 -1       967    8    0    1
 -2       415       555       554      2507      2508      2503
 -1       968    8    0    1
 -2       416       417       556      2074      2509      2510
 -1       969    8    0    1
 -2       416       556       555      2510      2511      2506
 -1       970    8    0    1
 -2       417       418       557      2077      2512      2513
 -1       971    8    0    1
 -2       417       557       556      2513      2514      2509
 -1       972    8    0    1
 -2       418       419       558      2080      2515      2516
 -1       973    8    0    1
 -2       418       558       557      2516      2517      2512
 -1       974    8    0    1
 -2       419       420       559      2083      2518      2519
 -1       975    8    0    1
 -2       419       559       558      2519      2520      2515
 -1       976    8    0    1
 -2       420       421       560      2086      2521      2522
 -1       977    8    0    1
 -2       420       560       559      2522      2523      2518
 -1       978    8    0    1
 -2       421       422       561      2089      2524      2525
 -1       979    8    0    1
 -2       421       561       560      2525      2526      2521
 -1       980    8    0    1
 -2       422       423       562      2092      2527      2528
 -1       981    8    0    1
 -2       422       562       561      2528      2529      2524
 -1       982    8    0    1
 -2       423       424       563      2095      2530      2531
 -1       983    8    0    1
 -2       423       563       562      2531      2532      2527
 -1       984    8    0    1
 -2       424       425       564      2098      2533      2534
 -1       985    8    0    1
 -2       424       564       563      2534      2535      2530
 -1       986    8    0    1
 -2       425       426       565      2101      2536      2537
 -1       987    8    0    1
 -2       425       565       564      2537      2538      2533
 -1       988    8    0    1
 -2       426       427       566      2104      2539      2540
 -1       989    8    0    1
 -2       426       566       565      2540      2541      2536
 -1       990    8    0    1
 -2       427       428       567      2107      2542      2543
 -1       991    8    0    1
 -2       427       567       566      2543      2544      2539
 -1       992    8    0    1
 -2       428       429       568      2110      2545      2546
 -1       993    8    0    1
 -2       428       568       567      2546      2547      2542
 -1       994    8    0    1
 -2       433       434       569      2126      2548      2549
 -1       995    8    0    1
 -2       431       433       570      2123      2550      2551
 -1       996    8    0    1
 -2       433       569       570      2549      2552      2550
 -1       997    8    0    1
 -2       432       431       571      2119      2553      2554
 -1       998    8    0    1
 -2       431       570       571      2551      2555      2553
 -1       999    8    0    1
 -2       446       467       572      2222      2556      2557
 -1      1000    8    0    1
 -2       434       435       573      2129      2558      2559
 -1      1001    8    0    1
 -2       434       573       569      2559      2560      2548
 -1      1002    8    0    1
 -2       435       436       574      2132      2561      2562
 -1      1003    8    0    1
 -2       435       574       573      2562      2563      2558
 -1      1004    8    0    1
 -2       436       437       575      2135      2564      2565
 -1      1005    8    0    1
 -2       436       575       574      2565      2566      2561
 -1      1006    8    0    1
 -2       437       438       576      2138      2567      2568
 -1      1007    8    0    1
 -2       437       576       575      2568      2569      2564
 -1      1008    8    0    1
 -2       438       439       577      2141      2570      2571
 -1      1009    8    0    1
 -2       438       577       576      2571      2572      2567
 -1      1010    8    0    1
 -2       439       440       578      2144      2573      2574
 -1      1011    8    0    1
 -2       439       578       577      2574      2575      2570
 -1      1012    8    0    1
 -2       440       441       579      2147      2576      2577
 -1      1013    8    0    1
 -2       440       579       578      2577      2578      2573
 -1      1014    8    0    1
 -2       441       442       580      2150      2579      2580
 -1      1015    8    0    1
 -2       441       580       579      2580      2581      2576
 -1      1016    8    0    1
 -2       445       449       581      2228      2582      2583
 -1      1017    8    0    1
 -2       465       466       582      2230      2584      2585
 -1      1018    8    0    1
 -2       329       330       583      1813      2586      2587
 -1      1019    8    0    1
 -2       330       474       583      2265      2588      2586
 -1      1020    8    0    1
 -2       466       446       584      2229      2589      2590
 -1      1021    8    0    1
 -2       452       453       585      2252      2591      2592
 -1      1022    8    0    1
 -2       450       451       586      2173      2593      2594
 -1      1023    8    0    1
 -2       460       461       587      2253      2595      2596
 -1      1024    8    0    1
 -2       451       452       588      2249      2597      2598
 -1      1025    8    0    1
 -2       452       585       588      2592      2599      2597
 -1      1026    8    0    1
 -2       453       454       589      2248      2600      2601
 -1      1027    8    0    1
 -2       454       455       590      2247      2602      2603
 -1      1028    8    0    1
 -2       456       457       591      2186      2604      2605
 -1      1029    8    0    1
 -2       457       458       592      2243      2606      2607
 -1      1030    8    0    1
 -2       458       459       593      2191      2608      2609
 -1      1031    8    0    1
 -2       459       460       594      2242      2610      2611
 -1      1032    8    0    1
 -2       464       465       595      2231      2612      2613
 -1      1033    8    0    1
 -2       467       444       596      2227      2614      2615
 -1      1034    8    0    1
 -2       429       432       568      2300      2616      2545
 -1      1035    8    0    1
 -2       327       473       597      2262      2617      2618
 -1      1036    8    0    1
 -2       327       597       447      2618      2619      2164
 -1      1037    8    0    1
 -2       482       345       484      2288      2293      2620
 -1      1038    8    0    1
 -2       481       339       598      2287      2621      2622
 -1      1039    8    0    1
 -2       339       443       598      2153      2623      2621
 -1      1040    8    0    1
 -2       472       329       583      2259      2587      2624
 -1      1041    8    0    1
 -2       484       445       581      2292      2583      2625
 -1      1042    8    0    1
 -2       486       450       586      2298      2594      2626
 -1      1043    8    0    1
 -2       432       571       568      2554      2627      2616
 -1      1044    8    0    1
 -2       446       572       584      2557      2628      2589
 -1      1045    8    0    1
 -2       572       467       596      2556      2615      2629
 -1      1046    8    0    1
 -2       581       449       486      2582      2299      2630
 -1      1047    8    0    1
 -2       443       386       599      2154      2631      2632
 -1      1048    8    0    1
 -2       598       443       599      2623      2632      2633
 -1      1049    8    0    1
 -2       386       528       599      2426      2634      2631
 -1      1050    8    0    1
 -2       325       447       600      2163      2635      2636
 -1      1051    8    0    1
 -2       487       325       600      2304      2636      2637
 -1      1052    8    0    1
 -2       447       597       600      2619      2638      2635
 -1      1053    8    0    1
 -2       465       582       595      2585      2639      2612
 -1      1054    8    0    1
 -2       471       456       591      2246      2605      2640
 -1      1055    8    0    1
 -2       455       471       601      2245      2641      2642
 -1      1056    8    0    1
 -2       455       601       590      2642      2643      2602
 -1      1057    8    0    1
 -2       596       444       482      2614      2289      2644
 -1      1058    8    0    1
 -2       594       460       587      2610      2596      2645
 -1      1059    8    0    1
 -2       593       459       594      2608      2611      2646
 -1      1060    8    0    1
 -2       592       458       593      2606      2609      2647
 -1      1061    8    0    1
 -2       453       589       585      2601      2648      2591
 -1      1062    8    0    1
 -2       591       457       592      2604      2607      2649
 -1      1063    8    0    1
 -2       451       588       586      2598      2650      2593
 -1      1064    8    0    1
 -2       589       454       590      2600      2603      2651
 -1      1065    8    0    1
 -2       466       584       582      2590      2652      2584
 -1      1066    8    0    1
 -2       464       595       602      2613      2653      2654
 -1      1067    8    0    1
 -2       587       461       485      2595      2655      2656
 -1      1068    8    0    1
 -2       464       602       463      2654      2657      2232
 -1      1069    8    0    1
 -2       442       468       603      2225      2658      2659
 -1      1070    8    0    1
 -2       580       442       603      2579      2659      2660
 -1      1071    8    0    1
 -2       468       525       603      2418      2661      2658
 -1      1072    8    0    1
 -2       461       462       604      2241      2662      2663
 -1      1073    8    0    1
 -2       463       602       488      2657      2664      2665
 -1      1074    8    0    1
 -2       469       463       488      2257      2665      2307
 -1      1075    8    0    1
 -2       475       476       605      2271      2666      2667
 -1      1076    8    0    1
 -2       474       475       606      2268      2668      2669
 -1      1077    8    0    1
 -2       475       605       606      2667      2670      2668
 -1      1078    8    0    1
 -2       477       478       607      2277      2671      2672
 -1      1079    8    0    1
 -2       478       479       608      2280      2673      2674
 -1      1080    8    0    1
 -2       478       608       607      2674      2675      2671
 -1      1081    8    0    1
 -2       480       481       609      2286      2676      2677
 -1      1082    8    0    1
 -2       481       598       609      2622      2678      2676
 -1      1083    8    0    1
 -2       462       343       604      2297      2679      2662
 -1      1084    8    0    1
 -2       574       575       610      2566      2680      2681
 -1      1085    8    0    1
 -2       570       569       611      2552      2682      2683
 -1      1086    8    0    1
 -2       490       489       612      2313      2684      2685
 -1      1087    8    0    1
 -2       491       490       613      2316      2686      2687
 -1      1088    8    0    1
 -2       490       612       613      2685      2688      2686
 -1      1089    8    0    1
 -2       492       491       614      2319      2689      2690
 -1      1090    8    0    1
 -2       491       613       614      2687      2691      2689
 -1      1091    8    0    1
 -2       493       492       615      2322      2692      2693
 -1      1092    8    0    1
 -2       492       614       615      2690      2694      2692
 -1      1093    8    0    1
 -2       494       493       616      2325      2695      2696
 -1      1094    8    0    1
 -2       493       615       616      2693      2697      2695
 -1      1095    8    0    1
 -2       495       494       617      2328      2698      2699
 -1      1096    8    0    1
 -2       494       616       617      2696      2700      2698
 -1      1097    8    0    1
 -2       496       495       618      2331      2701      2702
 -1      1098    8    0    1
 -2       495       617       618      2699      2703      2701
 -1      1099    8    0    1
 -2       497       496       619      2334      2704      2705
 -1      1100    8    0    1
 -2       496       618       619      2702      2706      2704
 -1      1101    8    0    1
 -2       498       497       620      2337      2707      2708
 -1      1102    8    0    1
 -2       497       619       620      2705      2709      2707
 -1      1103    8    0    1
 -2       499       498       621      2340      2710      2711
 -1      1104    8    0    1
 -2       498       620       621      2708      2712      2710
 -1      1105    8    0    1
 -2       500       499       622      2343      2713      2714
 -1      1106    8    0    1
 -2       499       621       622      2711      2715      2713
 -1      1107    8    0    1
 -2       501       500       623      2346      2716      2717
 -1      1108    8    0    1
 -2       500       622       623      2714      2718      2716
 -1      1109    8    0    1
 -2       502       501       624      2349      2719      2720
 -1      1110    8    0    1
 -2       501       623       624      2717      2721      2719
 -1      1111    8    0    1
 -2       503       502       625      2352      2722      2723
 -1      1112    8    0    1
 -2       502       624       625      2720      2724      2722
 -1      1113    8    0    1
 -2       504       503       626      2355      2725      2726
 -1      1114    8    0    1
 -2       503       625       626      2723      2727      2725
 -1      1115    8    0    1
 -2       505       504       627      2358      2728      2729
 -1      1116    8    0    1
 -2       504       626       627      2726      2730      2728
 -1      1117    8    0    1
 -2       506       505       628      2361      2731      2732
 -1      1118    8    0    1
 -2       505       627       628      2729      2733      2731
 -1      1119    8    0    1
 -2       507       506       629      2364      2734      2735
 -1      1120    8    0    1
 -2       506       628       629      2732      2736      2734
 -1      1121    8    0    1
 -2       508       507       630      2367      2737      2738
 -1      1122    8    0    1
 -2       507       629       630      2735      2739      2737
 -1      1123    8    0    1
 -2       509       508       631      2370      2740      2741
 -1      1124    8    0    1
 -2       508       630       631      2738      2742      2740
 -1      1125    8    0    1
 -2       510       509       632      2373      2743      2744
 -1      1126    8    0    1
 -2       509       631       632      2741      2745      2743
 -1      1127    8    0    1
 -2       511       510       633      2376      2746      2747
 -1      1128    8    0    1
 -2       510       632       633      2744      2748      2746
 -1      1129    8    0    1
 -2       512       511       634      2379      2749      2750
 -1      1130    8    0    1
 -2       511       633       634      2747      2751      2749
 -1      1131    8    0    1
 -2       513       512       635      2382      2752      2753
 -1      1132    8    0    1
 -2       512       634       635      2750      2754      2752
 -1      1133    8    0    1
 -2       514       513       636      2385      2755      2756
 -1      1134    8    0    1
 -2       513       635       636      2753      2757      2755
 -1      1135    8    0    1
 -2       515       514       637      2388      2758      2759
 -1      1136    8    0    1
 -2       514       636       637      2756      2760      2758
 -1      1137    8    0    1
 -2       516       515       638      2391      2761      2762
 -1      1138    8    0    1
 -2       515       637       638      2759      2763      2761
 -1      1139    8    0    1
 -2       517       516       639      2394      2764      2765
 -1      1140    8    0    1
 -2       516       638       639      2762      2766      2764
 -1      1141    8    0    1
 -2       518       517       640      2397      2767      2768
 -1      1142    8    0    1
 -2       517       639       640      2765      2769      2767
 -1      1143    8    0    1
 -2       519       518       641      2400      2770      2771
 -1      1144    8    0    1
 -2       518       640       641      2768      2772      2770
 -1      1145    8    0    1
 -2       520       519       642      2403      2773      2774
 -1      1146    8    0    1
 -2       519       641       642      2771      2775      2773
 -1      1147    8    0    1
 -2       521       520       643      2406      2776      2777
 -1      1148    8    0    1
 -2       520       642       643      2774      2778      2776
 -1      1149    8    0    1
 -2       522       521       644      2409      2779      2780
 -1      1150    8    0    1
 -2       521       643       644      2777      2781      2779
 -1      1151    8    0    1
 -2       523       522       645      2412      2782      2783
 -1      1152    8    0    1
 -2       522       644       645      2780      2784      2782
 -1      1153    8    0    1
 -2       524       523       646      2415      2785      2786
 -1      1154    8    0    1
 -2       523       645       646      2783      2787      2785
 -1      1155    8    0    1
 -2       527       526       647      2424      2788      2789
 -1      1156    8    0    1
 -2       526       529       648      2430      2790      2791
 -1      1157    8    0    1
 -2       526       648       647      2791      2792      2788
 -1      1158    8    0    1
 -2       528       527       649      2427      2793      2794
 -1      1159    8    0    1
 -2       527       647       649      2789      2795      2793
 -1      1160    8    0    1
 -2       530       531       650      2436      2796      2797
 -1      1161    8    0    1
 -2       531       532       651      2439      2798      2799
 -1      1162    8    0    1
 -2       531       651       650      2799      2800      2796
 -1      1163    8    0    1
 -2       532       533       652      2442      2801      2802
 -1      1164    8    0    1
 -2       532       652       651      2802      2803      2798
 -1      1165    8    0    1
 -2       533       534       653      2445      2804      2805
 -1      1166    8    0    1
 -2       533       653       652      2805      2806      2801
 -1      1167    8    0    1
 -2       534       535       654      2448      2807      2808
 -1      1168    8    0    1
 -2       534       654       653      2808      2809      2804
 -1      1169    8    0    1
 -2       535       536       655      2451      2810      2811
 -1      1170    8    0    1
 -2       535       655       654      2811      2812      2807
 -1      1171    8    0    1
 -2       536       537       656      2454      2813      2814
 -1      1172    8    0    1
 -2       536       656       655      2814      2815      2810
 -1      1173    8    0    1
 -2       537       538       657      2457      2816      2817
 -1      1174    8    0    1
 -2       537       657       656      2817      2818      2813
 -1      1175    8    0    1
 -2       538       539       658      2460      2819      2820
 -1      1176    8    0    1
 -2       538       658       657      2820      2821      2816
 -1      1177    8    0    1
 -2       539       540       659      2463      2822      2823
 -1      1178    8    0    1
 -2       539       659       658      2823      2824      2819
 -1      1179    8    0    1
 -2       540       541       660      2466      2825      2826
 -1      1180    8    0    1
 -2       540       660       659      2826      2827      2822
 -1      1181    8    0    1
 -2       541       542       661      2469      2828      2829
 -1      1182    8    0    1
 -2       541       661       660      2829      2830      2825
 -1      1183    8    0    1
 -2       542       543       662      2472      2831      2832
 -1      1184    8    0    1
 -2       542       662       661      2832      2833      2828
 -1      1185    8    0    1
 -2       543       544       663      2475      2834      2835
 -1      1186    8    0    1
 -2       543       663       662      2835      2836      2831
 -1      1187    8    0    1
 -2       544       545       664      2478      2837      2838
 -1      1188    8    0    1
 -2       544       664       663      2838      2839      2834
 -1      1189    8    0    1
 -2       545       546       665      2481      2840      2841
 -1      1190    8    0    1
 -2       545       665       664      2841      2842      2837
 -1      1191    8    0    1
 -2       546       547       666      2484      2843      2844
 -1      1192    8    0    1
 -2       546       666       665      2844      2845      2840
 -1      1193    8    0    1
 -2       547       548       667      2487      2846      2847
 -1      1194    8    0    1
 -2       547       667       666      2847      2848      2843
 -1      1195    8    0    1
 -2       548       549       668      2490      2849      2850
 -1      1196    8    0    1
 -2       548       668       667      2850      2851      2846
 -1      1197    8    0    1
 -2       549       550       669      2493      2852      2853
 -1      1198    8    0    1
 -2       549       669       668      2853      2854      2849
 -1      1199    8    0    1
 -2       550       551       670      2496      2855      2856
 -1      1200    8    0    1
 -2       550       670       669      2856      2857      2852
 -1      1201    8    0    1
 -2       551       552       671      2499      2858      2859
 -1      1202    8    0    1
 -2       551       671       670      2859      2860      2855
 -1      1203    8    0    1
 -2       552       553       672      2502      2861      2862
 -1      1204    8    0    1
 -2       552       672       671      2862      2863      2858
 -1      1205    8    0    1
 -2       553       554       673      2505      2864      2865
 -1      1206    8    0    1
 -2       553       673       672      2865      2866      2861
 -1      1207    8    0    1
 -2       554       555       674      2508      2867      2868
 -1      1208    8    0    1
 -2       554       674       673      2868      2869      2864
 -1      1209    8    0    1
 -2       555       556       675      2511      2870      2871
 -1      1210    8    0    1
 -2       555       675       674      2871      2872      2867
 -1      1211    8    0    1
 -2       556       557       676      2514      2873      2874
 -1      1212    8    0    1
 -2       556       676       675      2874      2875      2870
 -1      1213    8    0    1
 -2       557       558       677      2517      2876      2877
 -1      1214    8    0    1
 -2       557       677       676      2877      2878      2873
 -1      1215    8    0    1
 -2       558       559       678      2520      2879      2880
 -1      1216    8    0    1
 -2       558       678       677      2880      2881      2876
 -1      1217    8    0    1
 -2       559       560       679      2523      2882      2883
 -1      1218    8    0    1
 -2       559       679       678      2883      2884      2879
 -1      1219    8    0    1
 -2       560       561       680      2526      2885      2886
 -1      1220    8    0    1
 -2       560       680       679      2886      2887      2882
 -1      1221    8    0    1
 -2       561       562       681      2529      2888      2889
 -1      1222    8    0    1
 -2       561       681       680      2889      2890      2885
 -1      1223    8    0    1
 -2       562       563       682      2532      2891      2892
 -1      1224    8    0    1
 -2       562       682       681      2892      2893      2888
 -1      1225    8    0    1
 -2       563       564       683      2535      2894      2895
 -1      1226    8    0    1
 -2       563       683       682      2895      2896      2891
 -1      1227    8    0    1
 -2       564       565       684      2538      2897      2898
 -1      1228    8    0    1
 -2       564       684       683      2898      2899      2894
 -1      1229    8    0    1
 -2       565       566       685      2541      2900      2901
 -1      1230    8    0    1
 -2       565       685       684      2901      2902      2897
 -1      1231    8    0    1
 -2       566       567       686      2544      2903      2904
 -1      1232    8    0    1
 -2       566       686       685      2904      2905      2900
 -1      1233    8    0    1
 -2       567       568       687      2547      2906      2907
 -1      1234    8    0    1
 -2       686       567       687      2903      2907      2908
 -1      1235    8    0    1
 -2       568       571       687      2627      2909      2906
 -1      1236    8    0    1
 -2       595       582       688      2639      2910      2911
 -1      1237    8    0    1
 -2       573       574       689      2563      2912      2913
 -1      1238    8    0    1
 -2       574       610       689      2681      2914      2912
 -1      1239    8    0    1
 -2       483       487       690      2303      2915      2916
 -1      1240    8    0    1
 -2       487       600       690      2637      2917      2915
 -1      1241    8    0    1
 -2       571       570       691      2555      2918      2919
 -1      1242    8    0    1
 -2       687       571       691      2909      2919      2920
 -1      1243    8    0    1
 -2       570       611       691      2683      2921      2918
 -1      1244    8    0    1
 -2       569       573       692      2560      2922      2923
 -1      1245    8    0    1
 -2       611       569       692      2682      2923      2924
 -1      1246    8    0    1
 -2       573       689       692      2913      2925      2922
 -1      1247    8    0    1
 -2       529       530       693      2433      2926      2927
 -1      1248    8    0    1
 -2       648       529       693      2790      2927      2928
 -1      1249    8    0    1
 -2       530       650       693      2797      2929      2926
 -1      1250    8    0    1
 -2       575       576       694      2569      2930      2931
 -1      1251    8    0    1
 -2       575       694       610      2931      2932      2680
 -1      1252    8    0    1
 -2       576       577       695      2572      2933      2934
 -1      1253    8    0    1
 -2       576       695       694      2934      2935      2930
 -1      1254    8    0    1
 -2       577       578       696      2575      2936      2937
 -1      1255    8    0    1
 -2       577       696       695      2937      2938      2933
 -1      1256    8    0    1
 -2       578       579       697      2578      2939      2940
 -1      1257    8    0    1
 -2       578       697       696      2940      2941      2936
 -1      1258    8    0    1
 -2       579       580       698      2581      2942      2943
 -1      1259    8    0    1
 -2       579       698       697      2943      2944      2939
 -1      1260    8    0    1
 -2       486       586       699      2626      2945      2946
 -1      1261    8    0    1
 -2       472       583       700      2624      2947      2948
 -1      1262    8    0    1
 -2       484       581       701      2625      2949      2950
 -1      1263    8    0    1
 -2       476       477       702      2274      2951      2952
 -1      1264    8    0    1
 -2       605       476       702      2666      2952      2953
 -1      1265    8    0    1
 -2       477       607       702      2672      2954      2951
 -1      1266    8    0    1
 -2       471       591       703      2640      2955      2956
 -1      1267    8    0    1
 -2       473       472       704      2263      2957      2958
 -1      1268    8    0    1
 -2       472       700       704      2948      2959      2957
 -1      1269    8    0    1
 -2       482       484       705      2620      2960      2961
 -1      1270    8    0    1
 -2       484       701       705      2950      2962      2960
 -1      1271    8    0    1
 -2       572       596       706      2629      2963      2964
 -1      1272    8    0    1
 -2       593       594       707      2646      2965      2966
 -1      1273    8    0    1
 -2       485       461       604      2655      2663      2967
 -1      1274    8    0    1
 -2       582       584       708      2652      2968      2969
 -1      1275    8    0    1
 -2       586       588       709      2650      2970      2971
 -1      1276    8    0    1
 -2       585       589       710      2648      2972      2973
 -1      1277    8    0    1
 -2       592       593       711      2647      2974      2975
 -1      1278    8    0    1
 -2       596       482       712      2644      2976      2977
 -1      1279    8    0    1
 -2       587       485       713      2656      2978      2979
 -1      1280    8    0    1
 -2       587       713       594      2979      2980      2645
 -1      1281    8    0    1
 -2       588       585       714      2599      2981      2982
 -1      1282    8    0    1
 -2       589       590       715      2651      2983      2984
 -1      1283    8    0    1
 -2       589       715       710      2984      2985      2972
 -1      1284    8    0    1
 -2       583       474       716      2588      2986      2987
 -1      1285    8    0    1
 -2       474       606       716      2669      2988      2986
 -1      1286    8    0    1
 -2       485       483       713      2296      2989      2978
 -1      1287    8    0    1
 -2       591       592       717      2649      2990      2991
 -1      1288    8    0    1
 -2       581       486       718      2630      2992      2993
 -1      1289    8    0    1
 -2       584       572       719      2628      2994      2995
 -1      1290    8    0    1
 -2       713       483       690      2989      2916      2996
 -1      1291    8    0    1
 -2       480       609       479      2677      2997      2283
 -1      1292    8    0    1
 -2       471       703       601      2956      2998      2641
 -1      1293    8    0    1
 -2       604       343       485      2679      2295      2967
 -1      1294    8    0    1
 -2       597       473       711      2617      2999      3000
 -1      1295    8    0    1
 -2       528       649       720      2794      3001      3002
 -1      1296    8    0    1
 -2       525       524       603      2419      3003      2661
 -1      1297    8    0    1
 -2       688       582       708      2910      2969      3004
 -1      1298    8    0    1
 -2       701       581       718      2949      2993      3005
 -1      1299    8    0    1
 -2       700       583       716      2947      2987      3006
 -1      1300    8    0    1
 -2       486       699       718      2946      3007      2992
 -1      1301    8    0    1
 -2       698       580       646      2942      3008      3009
 -1      1302    8    0    1
 -2       699       586       721      2945      3010      3011
 -1      1303    8    0    1
 -2       586       709       721      2971      3012      3010
 -1      1304    8    0    1
 -2       482       705       712      2961      3013      2976
 -1      1305    8    0    1
 -2       479       609       608      2997      3014      2673
 -1      1306    8    0    1
 -2       599       528       720      2634      3002      3015
 -1      1307    8    0    1
 -2       572       706       719      2964      3016      2994
 -1      1308    8    0    1
 -2       715       590       722      2983      3017      3018
 -1      1309    8    0    1
 -2       590       601       722      2643      3019      3017
 -1      1310    8    0    1
 -2       711       593       707      2974      2966      3020
 -1      1311    8    0    1
 -2       473       704       711      2958      3021      2999
 -1      1312    8    0    1
 -2       709       588       714      2970      2982      3022
 -1      1313    8    0    1
 -2       706       596       712      2963      2977      3023
 -1      1314    8    0    1
 -2       707       594       713      2965      2980      3024
 -1      1315    8    0    1
 -2       612       489       688      2684      3025      3026
 -1      1316    8    0    1
 -2       708       584       719      2968      2995      3027
 -1      1317    8    0    1
 -2       585       710       714      2973      3028      2981
 -1      1318    8    0    1
 -2       592       711       717      2975      3029      2990
 -1      1319    8    0    1
 -2       602       595       723      2653      3030      3031
 -1      1320    8    0    1
 -2       580       603       646      2660      3032      3008
 -1      1321    8    0    1
 -2       488       602       723      2664      3031      3033
 -1      1322    8    0    1
 -2       603       524       646      3003      2786      3032
 -1      1323    8    0    1
 -2       606       605       724      2670      3034      3035
 -1      1324    8    0    1
 -2       607       608       725      2675      3036      3037
 -1      1325    8    0    1
 -2       609       598       599      2678      2633      3038
 -1      1326    8    0    1
 -2       601       703       726      2998      3039      3040
 -1      1327    8    0    1
 -2       600       597       707      2638      3041      3042
 -1      1328    8    0    1
 -2       694       695       727      2935      3043      3044
 -1      1329    8    0    1
 -2       720       649       728      3001      3045      3046
 -1      1330    8    0    1
 -2       709       714       729      3022      3047      3048
 -1      1331    8    0    1
 -2       719       706       730      3016      3049      3050
 -1      1332    8    0    1
 -2       591       717       731      2991      3051      3052
 -1      1333    8    0    1
 -2       610       694       732      2932      3053      3054
 -1      1334    8    0    1
 -2       694       727       732      3044      3055      3053
 -1      1335    8    0    1
 -2       614       613       733      2691      3056      3057
 -1      1336    8    0    1
 -2       615       614       734      2694      3058      3059
 -1      1337    8    0    1
 -2       614       733       734      3057      3060      3058
 -1      1338    8    0    1
 -2       616       615       735      2697      3061      3062
 -1      1339    8    0    1
 -2       615       734       735      3059      3063      3061
 -1      1340    8    0    1
 -2       617       616       736      2700      3064      3065
 -1      1341    8    0    1
 -2       616       735       736      3062      3066      3064
 -1      1342    8    0    1
 -2       618       617       737      2703      3067      3068
 -1      1343    8    0    1
 -2       617       736       737      3065      3069      3067
 -1      1344    8    0    1
 -2       619       618       738      2706      3070      3071
 -1      1345    8    0    1
 -2       618       737       738      3068      3072      3070
 -1      1346    8    0    1
 -2       620       619       739      2709      3073      3074
 -1      1347    8    0    1
 -2       619       738       739      3071      3075      3073
 -1      1348    8    0    1
 -2       621       620       740      2712      3076      3077
 -1      1349    8    0    1
 -2       620       739       740      3074      3078      3076
 -1      1350    8    0    1
 -2       622       621       741      2715      3079      3080
 -1      1351    8    0    1
 -2       621       740       741      3077      3081      3079
 -1      1352    8    0    1
 -2       623       622       742      2718      3082      3083
 -1      1353    8    0    1
 -2       622       741       742      3080      3084      3082
 -1      1354    8    0    1
 -2       624       623       743      2721      3085      3086
 -1      1355    8    0    1
 -2       623       742       743      3083      3087      3085
 -1      1356    8    0    1
 -2       625       624       744      2724      3088      3089
 -1      1357    8    0    1
 -2       624       743       744      3086      3090      3088
 -1      1358    8    0    1
 -2       626       625       745      2727      3091      3092
 -1      1359    8    0    1
 -2       625       744       745      3089      3093      3091
 -1      1360    8    0    1
 -2       627       626       746      2730      3094      3095
 -1      1361    8    0    1
 -2       626       745       746      3092      3096      3094
 -1      1362    8    0    1
 -2       628       627       747      2733      3097      3098
 -1      1363    8    0    1
 -2       627       746       747      3095      3099      3097
 -1      1364    8    0    1
 -2       629       628       748      2736      3100      3101
 -1      1365    8    0    1
 -2       628       747       748      3098      3102      3100
 -1      1366    8    0    1
 -2       630       629       749      2739      3103      3104
 -1      1367    8    0    1
 -2       629       748       749      3101      3105      3103
 -1      1368    8    0    1
 -2       631       630       750      2742      3106      3107
 -1      1369    8    0    1
 -2       630       749       750      3104      3108      3106
 -1      1370    8    0    1
 -2       632       631       751      2745      3109      3110
 -1      1371    8    0    1
 -2       631       750       751      3107      3111      3109
 -1      1372    8    0    1
 -2       633       632       752      2748      3112      3113
 -1      1373    8    0    1
 -2       632       751       752      3110      3114      3112
 -1      1374    8    0    1
 -2       634       633       753      2751      3115      3116
 -1      1375    8    0    1
 -2       633       752       753      3113      3117      3115
 -1      1376    8    0    1
 -2       635       634       754      2754      3118      3119
 -1      1377    8    0    1
 -2       634       753       754      3116      3120      3118
 -1      1378    8    0    1
 -2       636       635       755      2757      3121      3122
 -1      1379    8    0    1
 -2       635       754       755      3119      3123      3121
 -1      1380    8    0    1
 -2       637       636       756      2760      3124      3125
 -1      1381    8    0    1
 -2       636       755       756      3122      3126      3124
 -1      1382    8    0    1
 -2       638       637       757      2763      3127      3128
 -1      1383    8    0    1
 -2       637       756       757      3125      3129      3127
 -1      1384    8    0    1
 -2       639       638       758      2766      3130      3131
 -1      1385    8    0    1
 -2       638       757       758      3128      3132      3130
 -1      1386    8    0    1
 -2       640       639       759      2769      3133      3134
 -1      1387    8    0    1
 -2       639       758       759      3131      3135      3133
 -1      1388    8    0    1
 -2       641       640       760      2772      3136      3137
 -1      1389    8    0    1
 -2       640       759       760      3134      3138      3136
 -1      1390    8    0    1
 -2       642       641       761      2775      3139      3140
 -1      1391    8    0    1
 -2       641       760       761      3137      3141      3139
 -1      1392    8    0    1
 -2       643       642       762      2778      3142      3143
 -1      1393    8    0    1
 -2       642       761       762      3140      3144      3142
 -1      1394    8    0    1
 -2       644       643       763      2781      3145      3146
 -1      1395    8    0    1
 -2       643       762       763      3143      3147      3145
 -1      1396    8    0    1
 -2       645       644       764      2784      3148      3149
 -1      1397    8    0    1
 -2       644       763       764      3146      3150      3148
 -1      1398    8    0    1
 -2       646       645       765      2787      3151      3152
 -1      1399    8    0    1
 -2       698       646       765      3009      3152      3153
 -1      1400    8    0    1
 -2       645       764       765      3149      3154      3151
 -1      1401    8    0    1
 -2       647       648       766      2792      3155      3156
 -1      1402    8    0    1
 -2       649       647       767      2795      3157      3158
 -1      1403    8    0    1
 -2       728       649       767      3045      3158      3159
 -1      1404    8    0    1
 -2       647       766       767      3156      3160      3157
 -1      1405    8    0    1
 -2       651       652       768      2803      3161      3162
 -1      1406    8    0    1
 -2       650       651       769      2800      3163      3164
 -1      1407    8    0    1
 -2       651       768       769      3162      3165      3163
 -1      1408    8    0    1
 -2       653       654       770      2809      3166      3167
 -1      1409    8    0    1
 -2       654       655       771      2812      3168      3169
 -1      1410    8    0    1
 -2       654       771       770      3169      3170      3166
 -1      1411    8    0    1
 -2       655       656       772      2815      3171      3172
 -1      1412    8    0    1
 -2       655       772       771      3172      3173      3168
 -1      1413    8    0    1
 -2       656       657       773      2818      3174      3175
 -1      1414    8    0    1
 -2       656       773       772      3175      3176      3171
 -1      1415    8    0    1
 -2       657       658       774      2821      3177      3178
 -1      1416    8    0    1
 -2       657       774       773      3178      3179      3174
 -1      1417    8    0    1
 -2       658       659       775      2824      3180      3181
 -1      1418    8    0    1
 -2       658       775       774      3181      3182      3177
 -1      1419    8    0    1
 -2       659       660       776      2827      3183      3184
 -1      1420    8    0    1
 -2       659       776       775      3184      3185      3180
 -1      1421    8    0    1
 -2       660       661       777      2830      3186      3187
 -1      1422    8    0    1
 -2       660       777       776      3187      3188      3183
 -1      1423    8    0    1
 -2       661       662       778      2833      3189      3190
 -1      1424    8    0    1
 -2       661       778       777      3190      3191      3186
 -1      1425    8    0    1
 -2       662       663       779      2836      3192      3193
 -1      1426    8    0    1
 -2       662       779       778      3193      3194      3189
 -1      1427    8    0    1
 -2       663       664       780      2839      3195      3196
 -1      1428    8    0    1
 -2       663       780       779      3196      3197      3192
 -1      1429    8    0    1
 -2       664       665       781      2842      3198      3199
 -1      1430    8    0    1
 -2       664       781       780      3199      3200      3195
 -1      1431    8    0    1
 -2       665       666       782      2845      3201      3202
 -1      1432    8    0    1
 -2       665       782       781      3202      3203      3198
 -1      1433    8    0    1
 -2       666       667       783      2848      3204      3205
 -1      1434    8    0    1
 -2       666       783       782      3205      3206      3201
 -1      1435    8    0    1
 -2       667       668       784      2851      3207      3208
 -1      1436    8    0    1
 -2       667       784       783      3208      3209      3204
 -1      1437    8    0    1
 -2       668       669       785      2854      3210      3211
 -1      1438    8    0    1
 -2       668       785       784      3211      3212      3207
 -1      1439    8    0    1
 -2       669       670       786      2857      3213      3214
 -1      1440    8    0    1
 -2       669       786       785      3214      3215      3210
 -1      1441    8    0    1
 -2       670       671       787      2860      3216      3217
 -1      1442    8    0    1
 -2       670       787       786      3217      3218      3213
 -1      1443    8    0    1
 -2       671       672       788      2863      3219      3220
 -1      1444    8    0    1
 -2       671       788       787      3220      3221      3216
 -1      1445    8    0    1
 -2       672       673       789      2866      3222      3223
 -1      1446    8    0    1
 -2       672       789       788      3223      3224      3219
 -1      1447    8    0    1
 -2       673       674       790      2869      3225      3226
 -1      1448    8    0    1
 -2       673       790       789      3226      3227      3222
 -1      1449    8    0    1
 -2       674       675       791      2872      3228      3229
 -1      1450    8    0    1
 -2       674       791       790      3229      3230      3225
 -1      1451    8    0    1
 -2       675       676       792      2875      3231      3232
 -1      1452    8    0    1
 -2       675       792       791      3232      3233      3228
 -1      1453    8    0    1
 -2       676       677       793      2878      3234      3235
 -1      1454    8    0    1
 -2       676       793       792      3235      3236      3231
 -1      1455    8    0    1
 -2       677       678       794      2881      3237      3238
 -1      1456    8    0    1
 -2       677       794       793      3238      3239      3234
 -1      1457    8    0    1
 -2       678       679       795      2884      3240      3241
 -1      1458    8    0    1
 -2       678       795       794      3241      3242      3237
 -1      1459    8    0    1
 -2       679       680       796      2887      3243      3244
 -1      1460    8    0    1
 -2       679       796       795      3244      3245      3240
 -1      1461    8    0    1
 -2       680       681       797      2890      3246      3247
 -1      1462    8    0    1
 -2       680       797       796      3247      3248      3243
 -1      1463    8    0    1
 -2       681       682       798      2893      3249      3250
 -1      1464    8    0    1
 -2       681       798       797      3250      3251      3246
 -1      1465    8    0    1
 -2       682       683       799      2896      3252      3253
 -1      1466    8    0    1
 -2       682       799       798      3253      3254      3249
 -1      1467    8    0    1
 -2       683       684       800      2899      3255      3256
 -1      1468    8    0    1
 -2       683       800       799      3256      3257      3252
 -1      1469    8    0    1
 -2       684       685       801      2902      3258      3259
 -1      1470    8    0    1
 -2       684       801       800      3259      3260      3255
 -1      1471    8    0    1
 -2       685       686       802      2905      3261      3262
 -1      1472    8    0    1
 -2       685       802       801      3262      3263      3258
 -1      1473    8    0    1
 -2       686       687       803      2908      3264      3265
 -1      1474    8    0    1
 -2       802       686       803      3261      3265      3266
 -1      1475    8    0    1
 -2       687       691       803      2920      3267      3264
 -1      1476    8    0    1
 -2       689       610       804      2914      3268      3269
 -1      1477    8    0    1
 -2       610       732       804      3054      3270      3268
 -1      1478    8    0    1
 -2       696       697       805      2941      3271      3272
 -1      1479    8    0    1
 -2       697       698       806      2944      3273      3274
 -1      1480    8    0    1
 -2       805       697       806      3271      3274      3275
 -1      1481    8    0    1
 -2       698       765       806      3153      3276      3273
 -1      1482    8    0    1
 -2       608       609       720      3014      3277      3278
 -1      1483    8    0    1
 -2       704       700       717      2959      3279      3280
 -1      1484    8    0    1
 -2       718       699       807      3007      3281      3282
 -1      1485    8    0    1
 -2       705       701       808      2962      3283      3284
 -1      1486    8    0    1
 -2       731       717       700      3051      3279      3285
 -1      1487    8    0    1
 -2       711       704       717      3021      3280      3029
 -1      1488    8    0    1
 -2       652       653       809      2806      3286      3287
 -1      1489    8    0    1
 -2       768       652       809      3161      3287      3288
 -1      1490    8    0    1
 -2       653       770       809      3167      3289      3286
 -1      1491    8    0    1
 -2       695       696       810      2938      3290      3291
 -1      1492    8    0    1
 -2       727       695       810      3043      3291      3292
 -1      1493    8    0    1
 -2       696       805       810      3272      3293      3290
 -1      1494    8    0    1
 -2       597       711       707      3000      3020      3041
 -1      1495    8    0    1
 -2       708       719       811      3027      3294      3295
 -1      1496    8    0    1
 -2       712       705       812      3013      3296      3297
 -1      1497    8    0    1
 -2       710       715       813      2985      3298      3299
 -1      1498    8    0    1
 -2       599       720       609      3015      3277      3038
 -1      1499    8    0    1
 -2       688       708       814      3004      3300      3301
 -1      1500    8    0    1
 -2       612       688       814      3026      3301      3302
 -1      1501    8    0    1
 -2       708       811       814      3295      3303      3300
 -1      1502    8    0    1
 -2       700       716       726      3006      3304      3305
 -1      1503    8    0    1
 -2       701       718       815      3005      3306      3307
 -1      1504    8    0    1
 -2       714       710       816      3028      3308      3309
 -1      1505    8    0    1
 -2       706       712       817      3023      3310      3311
 -1      1506    8    0    1
 -2       703       591       731      2955      3052      3312
 -1      1507    8    0    1
 -2       607       725       818      3037      3313      3314
 -1      1508    8    0    1
 -2       607       818       702      3314      3315      2954
 -1      1509    8    0    1
 -2       612       814       613      3302      3316      2688
 -1      1510    8    0    1
 -2       600       707       690      3042      3317      2917
 -1      1511    8    0    1
 -2       693       650       819      2929      3318      3319
 -1      1512    8    0    1
 -2       650       769       819      3164      3320      3318
 -1      1513    8    0    1
 -2       608       720       725      3278      3321      3036
 -1      1514    8    0    1
 -2       720       728       725      3046      3322      3321
 -1      1515    8    0    1
 -2       709       729       721      3048      3323      3012
 -1      1516    8    0    1
 -2       719       730       820      3050      3324      3325
 -1      1517    8    0    1
 -2       719       820       811      3325      3326      3294
 -1      1518    8    0    1
 -2       611       692       821      2924      3327      3328
 -1      1519    8    0    1
 -2       813       715       822      3298      3329      3330
 -1      1520    8    0    1
 -2       715       722       822      3018      3331      3329
 -1      1521    8    0    1
 -2       724       605       823      3034      3332      3333
 -1      1522    8    0    1
 -2       605       702       823      2953      3334      3332
 -1      1523    8    0    1
 -2       489       488       723      2310      3033      3335
 -1      1524    8    0    1
 -2       733       613       814      3056      3316      3336
 -1      1525    8    0    1
 -2       692       689       824      2925      3337      3338
 -1      1526    8    0    1
 -2       821       692       824      3327      3338      3339
 -1      1527    8    0    1
 -2       689       804       824      3269      3340      3337
 -1      1528    8    0    1
 -2       648       693       825      2928      3341      3342
 -1      1529    8    0    1
 -2       766       648       825      3155      3342      3343
 -1      1530    8    0    1
 -2       693       819       825      3319      3344      3341
 -1      1531    8    0    1
 -2       691       611       803      2921      3345      3267
 -1      1532    8    0    1
 -2       699       721       826      3011      3346      3347
 -1      1533    8    0    1
 -2       699       826       807      3347      3348      3281
 -1      1534    8    0    1
 -2       808       701       815      3283      3307      3349
 -1      1535    8    0    1
 -2       722       601       726      3019      3040      3350
 -1      1536    8    0    1
 -2       690       707       713      3317      3024      2996
 -1      1537    8    0    1
 -2       803       611       821      3345      3328      3351
 -1      1538    8    0    1
 -2       718       807       815      3282      3352      3306
 -1      1539    8    0    1
 -2       705       808       812      3284      3353      3296
 -1      1540    8    0    1
 -2       595       688       723      2911      3354      3030
 -1      1541    8    0    1
 -2       712       812       817      3297      3355      3310
 -1      1542    8    0    1
 -2       730       706       827      3049      3356      3357
 -1      1543    8    0    1
 -2       706       817       827      3311      3358      3356
 -1      1544    8    0    1
 -2       710       813       816      3299      3359      3308
 -1      1545    8    0    1
 -2       729       714       816      3047      3309      3360
 -1      1546    8    0    1
 -2       726       716       828      3304      3361      3362
 -1      1547    8    0    1
 -2       722       726       828      3350      3362      3363
 -1      1548    8    0    1
 -2       716       606       828      2988      3364      3361
 -1      1549    8    0    1
 -2       606       724       828      3035      3365      3364
 -1      1550    8    0    1
 -2       735       734       829      3063      3366      3367
 -1      1551    8    0    1
 -2       736       735       830      3066      3368      3369
 -1      1552    8    0    1
 -2       735       829       830      3367      3370      3368
 -1      1553    8    0    1
 -2       737       736       831      3069      3371      3372
 -1      1554    8    0    1
 -2       736       830       831      3369      3373      3371
 -1      1555    8    0    1
 -2       738       737       832      3072      3374      3375
 -1      1556    8    0    1
 -2       737       831       832      3372      3376      3374
 -1      1557    8    0    1
 -2       739       738       833      3075      3377      3378
 -1      1558    8    0    1
 -2       738       832       833      3375      3379      3377
 -1      1559    8    0    1
 -2       740       739       834      3078      3380      3381
 -1      1560    8    0    1
 -2       739       833       834      3378      3382      3380
 -1      1561    8    0    1
 -2       741       740       835      3081      3383      3384
 -1      1562    8    0    1
 -2       740       834       835      3381      3385      3383
 -1      1563    8    0    1
 -2       742       741       836      3084      3386      3387
 -1      1564    8    0    1
 -2       741       835       836      3384      3388      3386
 -1      1565    8    0    1
 -2       743       742       837      3087      3389      3390
 -1      1566    8    0    1
 -2       742       836       837      3387      3391      3389
 -1      1567    8    0    1
 -2       744       743       838      3090      3392      3393
 -1      1568    8    0    1
 -2       743       837       838      3390      3394      3392
 -1      1569    8    0    1
 -2       745       744       839      3093      3395      3396
 -1      1570    8    0    1
 -2       744       838       839      3393      3397      3395
 -1      1571    8    0    1
 -2       746       745       840      3096      3398      3399
 -1      1572    8    0    1
 -2       745       839       840      3396      3400      3398
 -1      1573    8    0    1
 -2       747       746       841      3099      3401      3402
 -1      1574    8    0    1
 -2       746       840       841      3399      3403      3401
 -1      1575    8    0    1
 -2       748       747       842      3102      3404      3405
 -1      1576    8    0    1
 -2       747       841       842      3402      3406      3404
 -1      1577    8    0    1
 -2       749       748       843      3105      3407      3408
 -1      1578    8    0    1
 -2       748       842       843      3405      3409      3407
 -1      1579    8    0    1
 -2       750       749       844      3108      3410      3411
 -1      1580    8    0    1
 -2       749       843       844      3408      3412      3410
 -1      1581    8    0    1
 -2       751       750       845      3111      3413      3414
 -1      1582    8    0    1
 -2       750       844       845      3411      3415      3413
 -1      1583    8    0    1
 -2       752       751       846      3114      3416      3417
 -1      1584    8    0    1
 -2       751       845       846      3414      3418      3416
 -1      1585    8    0    1
 -2       753       752       847      3117      3419      3420
 -1      1586    8    0    1
 -2       752       846       847      3417      3421      3419
 -1      1587    8    0    1
 -2       754       753       848      3120      3422      3423
 -1      1588    8    0    1
 -2       753       847       848      3420      3424      3422
 -1      1589    8    0    1
 -2       755       754       849      3123      3425      3426
 -1      1590    8    0    1
 -2       754       848       849      3423      3427      3425
 -1      1591    8    0    1
 -2       756       755       850      3126      3428      3429
 -1      1592    8    0    1
 -2       755       849       850      3426      3430      3428
 -1      1593    8    0    1
 -2       757       756       851      3129      3431      3432
 -1      1594    8    0    1
 -2       756       850       851      3429      3433      3431
 -1      1595    8    0    1
 -2       758       757       852      3132      3434      3435
 -1      1596    8    0    1
 -2       757       851       852      3432      3436      3434
 -1      1597    8    0    1
 -2       759       758       853      3135      3437      3438
 -1      1598    8    0    1
 -2       758       852       853      3435      3439      3437
 -1      1599    8    0    1
 -2       760       759       854      3138      3440      3441
 -1      1600    8    0    1
 -2       759       853       854      3438      3442      3440
 -1      1601    8    0    1
 -2       761       760       855      3141      3443      3444
 -1      1602    8    0    1
 -2       760       854       855      3441      3445      3443
 -1      1603    8    0    1
 -2       762       761       856      3144      3446      3447
 -1      1604    8    0    1
 -2       761       855       856      3444      3448      3446
 -1      1605    8    0    1
 -2       763       762       857      3147      3449      3450
 -1      1606    8    0    1
 -2       762       856       857      3447      3451      3449
 -1      1607    8    0    1
 -2       764       763       858      3150      3452      3453
 -1      1608    8    0    1
 -2       763       857       858      3450      3454      3452
 -1      1609    8    0    1
 -2       765       764       859      3154      3455      3456
 -1      1610    8    0    1
 -2       806       765       859      3276      3456      3457
 -1      1611    8    0    1
 -2       764       858       859      3453      3458      3455
 -1      1612    8    0    1
 -2       725       728       860      3322      3459      3460
 -1      1613    8    0    1
 -2       725       860       818      3460      3461      3313
 -1      1614    8    0    1
 -2       769       768       861      3165      3462      3463
 -1      1615    8    0    1
 -2       721       729       862      3323      3464      3465
 -1      1616    8    0    1
 -2       771       772       863      3173      3466      3467
 -1      1617    8    0    1
 -2       770       771       864      3170      3468      3469
 -1      1618    8    0    1
 -2       771       863       864      3467      3470      3468
 -1      1619    8    0    1
 -2       773       774       865      3179      3471      3472
 -1      1620    8    0    1
 -2       774       775       866      3182      3473      3474
 -1      1621    8    0    1
 -2       774       866       865      3474      3475      3471
 -1      1622    8    0    1
 -2       775       776       867      3185      3476      3477
 -1      1623    8    0    1
 -2       775       867       866      3477      3478      3473
 -1      1624    8    0    1
 -2       776       777       868      3188      3479      3480
 -1      1625    8    0    1
 -2       776       868       867      3480      3481      3476
 -1      1626    8    0    1
 -2       777       778       869      3191      3482      3483
 -1      1627    8    0    1
 -2       777       869       868      3483      3484      3479
 -1      1628    8    0    1
 -2       778       779       870      3194      3485      3486
 -1      1629    8    0    1
 -2       778       870       869      3486      3487      3482
 -1      1630    8    0    1
 -2       779       780       871      3197      3488      3489
 -1      1631    8    0    1
 -2       779       871       870      3489      3490      3485
 -1      1632    8    0    1
 -2       780       781       872      3200      3491      3492
 -1      1633    8    0    1
 -2       780       872       871      3492      3493      3488
 -1      1634    8    0    1
 -2       781       782       873      3203      3494      3495
 -1      1635    8    0    1
 -2       781       873       872      3495      3496      3491
 -1      1636    8    0    1
 -2       782       783       874      3206      3497      3498
 -1      1637    8    0    1
 -2       782       874       873      3498      3499      3494
 -1      1638    8    0    1
 -2       783       784       875      3209      3500      3501
 -1      1639    8    0    1
 -2       783       875       874      3501      3502      3497
 -1      1640    8    0    1
 -2       784       785       876      3212      3503      3504
 -1      1641    8    0    1
 -2       784       876       875      3504      3505      3500
 -1      1642    8    0    1
 -2       785       786       877      3215      3506      3507
 -1      1643    8    0    1
 -2       785       877       876      3507      3508      3503
 -1      1644    8    0    1
 -2       786       787       878      3218      3509      3510
 -1      1645    8    0    1
 -2       786       878       877      3510      3511      3506
 -1      1646    8    0    1
 -2       787       788       879      3221      3512      3513
 -1      1647    8    0    1
 -2       787       879       878      3513      3514      3509
 -1      1648    8    0    1
 -2       788       789       880      3224      3515      3516
 -1      1649    8    0    1
 -2       788       880       879      3516      3517      3512
 -1      1650    8    0    1
 -2       789       790       881      3227      3518      3519
 -1      1651    8    0    1
 -2       789       881       880      3519      3520      3515
 -1      1652    8    0    1
 -2       790       791       882      3230      3521      3522
 -1      1653    8    0    1
 -2       790       882       881      3522      3523      3518
 -1      1654    8    0    1
 -2       791       792       883      3233      3524      3525
 -1      1655    8    0    1
 -2       791       883       882      3525      3526      3521
 -1      1656    8    0    1
 -2       792       793       884      3236      3527      3528
 -1      1657    8    0    1
 -2       792       884       883      3528      3529      3524
 -1      1658    8    0    1
 -2       793       794       885      3239      3530      3531
 -1      1659    8    0    1
 -2       793       885       884      3531      3532      3527
 -1      1660    8    0    1
 -2       794       795       886      3242      3533      3534
 -1      1661    8    0    1
 -2       794       886       885      3534      3535      3530
 -1      1662    8    0    1
 -2       795       796       887      3245      3536      3537
 -1      1663    8    0    1
 -2       795       887       886      3537      3538      3533
 -1      1664    8    0    1
 -2       796       797       888      3248      3539      3540
 -1      1665    8    0    1
 -2       796       888       887      3540      3541      3536
 -1      1666    8    0    1
 -2       797       798       889      3251      3542      3543
 -1      1667    8    0    1
 -2       797       889       888      3543      3544      3539
 -1      1668    8    0    1
 -2       798       799       890      3254      3545      3546
 -1      1669    8    0    1
 -2       798       890       889      3546      3547      3542
 -1      1670    8    0    1
 -2       799       800       891      3257      3548      3549
 -1      1671    8    0    1
 -2       799       891       890      3549      3550      3545
 -1      1672    8    0    1
 -2       800       801       892      3260      3551      3552
 -1      1673    8    0    1
 -2       800       892       891      3552      3553      3548
 -1      1674    8    0    1
 -2       801       802       893      3263      3554      3555
 -1      1675    8    0    1
 -2       801       893       892      3555      3556      3551
 -1      1676    8    0    1
 -2       802       803       821      3266      3351      3557
 -1      1677    8    0    1
 -2       804       732       894      3270      3558      3559
 -1      1678    8    0    1
 -2       808       815       895      3349      3560      3561
 -1      1679    8    0    1
 -2       772       773       896      3176      3562      3563
 -1      1680    8    0    1
 -2       863       772       896      3466      3563      3564
 -1      1681    8    0    1
 -2       773       865       896      3472      3565      3562
 -1      1682    8    0    1
 -2       734       733       897      3060      3566      3567
 -1      1683    8    0    1
 -2       734       897       829      3567      3568      3366
 -1      1684    8    0    1
 -2       732       727       898      3055      3569      3570
 -1      1685    8    0    1
 -2       732       898       894      3570      3571      3558
 -1      1686    8    0    1
 -2       731       700       726      3285      3305      3572
 -1      1687    8    0    1
 -2       815       807       899      3352      3573      3574
 -1      1688    8    0    1
 -2       817       812       900      3355      3575      3576
 -1      1689    8    0    1
 -2       729       816       901      3360      3577      3578
 -1      1690    8    0    1
 -2       828       724       822      3365      3579      3580
 -1      1691    8    0    1
 -2       812       808       902      3353      3581      3582
 -1      1692    8    0    1
 -2       722       828       822      3363      3580      3331
 -1      1693    8    0    1
 -2       816       813       903      3359      3583      3584
 -1      1694    8    0    1
 -2       703       731       726      3312      3572      3039
 -1      1695    8    0    1
 -2       802       821       893      3557      3585      3554
 -1      1696    8    0    1
 -2       893       821       904      3585      3586      3587
 -1      1697    8    0    1
 -2       821       824       904      3339      3588      3586
 -1      1698    8    0    1
 -2       819       769       905      3320      3589      3590
 -1      1699    8    0    1
 -2       769       861       905      3463      3591      3589
 -1      1700    8    0    1
 -2       816       903       901      3584      3592      3577
 -1      1701    8    0    1
 -2       820       730       906      3324      3593      3594
 -1      1702    8    0    1
 -2       730       827       906      3357      3595      3593
 -1      1703    8    0    1
 -2       813       822       907      3330      3596      3597
 -1      1704    8    0    1
 -2       813       907       903      3597      3598      3583
 -1      1705    8    0    1
 -2       702       818       823      3315      3599      3334
 -1      1706    8    0    1
 -2       824       804       908      3340      3600      3601
 -1      1707    8    0    1
 -2       904       824       908      3588      3601      3602
 -1      1708    8    0    1
 -2       804       894       908      3559      3603      3600
 -1      1709    8    0    1
 -2       727       810       909      3292      3604      3605
 -1      1710    8    0    1
 -2       727       909       898      3605      3606      3569
 -1      1711    8    0    1
 -2       862       729       910      3464      3607      3608
 -1      1712    8    0    1
 -2       729       901       910      3578      3609      3607
 -1      1713    8    0    1
 -2       767       766       911      3160      3610      3611
 -1      1714    8    0    1
 -2       861       768       912      3462      3612      3613
 -1      1715    8    0    1
 -2       768       809       912      3288      3614      3612
 -1      1716    8    0    1
 -2       728       767       913      3159      3615      3616
 -1      1717    8    0    1
 -2       860       728       913      3459      3616      3617
 -1      1718    8    0    1
 -2       767       911       913      3611      3618      3615
 -1      1719    8    0    1
 -2       721       862       826      3465      3619      3346
 -1      1720    8    0    1
 -2       895       815       914      3560      3620      3621
 -1      1721    8    0    1
 -2       815       899       914      3574      3622      3620
 -1      1722    8    0    1
 -2       808       895       902      3561      3623      3581
 -1      1723    8    0    1
 -2       807       826       915      3348      3624      3625
 -1      1724    8    0    1
 -2       807       915       899      3625      3626      3573
 -1      1725    8    0    1
 -2       814       811       733      3303      3627      3336
 -1      1726    8    0    1
 -2       811       820       733      3326      3628      3627
 -1      1727    8    0    1
 -2       805       806       916      3275      3629      3630
 -1      1728    8    0    1
 -2       806       859       916      3457      3631      3629
 -1      1729    8    0    1
 -2       733       820       897      3628      3632      3566
 -1      1730    8    0    1
 -2       809       770       917      3289      3633      3634
 -1      1731    8    0    1
 -2       912       809       917      3614      3634      3635
 -1      1732    8    0    1
 -2       770       864       917      3469      3636      3633
 -1      1733    8    0    1
 -2       489       723       688      3335      3354      3025
 -1      1734    8    0    1
 -2       822       724       918      3579      3637      3638
 -1      1735    8    0    1
 -2       907       822       918      3596      3638      3639
 -1      1736    8    0    1
 -2       724       823       918      3333      3640      3637
 -1      1737    8    0    1
 -2       900       812       902      3575      3582      3641
 -1      1738    8    0    1
 -2       766       825       919      3343      3642      3643
 -1      1739    8    0    1
 -2       766       919       911      3643      3644      3610
 -1      1740    8    0    1
 -2       827       817       920      3358      3645      3646
 -1      1741    8    0    1
 -2       817       900       920      3576      3647      3645
 -1      1742    8    0    1
 -2       810       805       921      3293      3648      3649
 -1      1743    8    0    1
 -2       909       810       921      3604      3649      3650
 -1      1744    8    0    1
 -2       805       916       921      3630      3651      3648
 -1      1745    8    0    1
 -2       825       819       922      3344      3652      3653
 -1      1746    8    0    1
 -2       919       825       922      3642      3653      3654
 -1      1747    8    0    1
 -2       819       905       922      3590      3655      3652
 -1      1748    8    0    1
 -2       818       860       923      3461      3656      3657
 -1      1749    8    0    1
 -2       823       818       923      3599      3657      3658
 -1      1750    8    0    1
 -2       860       913       923      3617      3659      3656
 -1      1751    8    0    1
 -2       831       830       924      3373      3660      3661
 -1      1752    8    0    1
 -2       832       831       925      3376      3662      3663
 -1      1753    8    0    1
 -2       831       924       925      3661      3664      3662
 -1      1754    8    0    1
 -2       833       832       926      3379      3665      3666
 -1      1755    8    0    1
 -2       832       925       926      3663      3667      3665
 -1      1756    8    0    1
 -2       834       833       927      3382      3668      3669
 -1      1757    8    0    1
 -2       833       926       927      3666      3670      3668
 -1      1758    8    0    1
 -2       835       834       928      3385      3671      3672
 -1      1759    8    0    1
 -2       834       927       928      3669      3673      3671
 -1      1760    8    0    1
 -2       836       835       929      3388      3674      3675
 -1      1761    8    0    1
 -2       835       928       929      3672      3676      3674
 -1      1762    8    0    1
 -2       837       836       930      3391      3677      3678
 -1      1763    8    0    1
 -2       836       929       930      3675      3679      3677
 -1      1764    8    0    1
 -2       838       837       931      3394      3680      3681
 -1      1765    8    0    1
 -2       837       930       931      3678      3682      3680
 -1      1766    8    0    1
 -2       839       838       932      3397      3683      3684
 -1      1767    8    0    1
 -2       838       931       932      3681      3685      3683
 -1      1768    8    0    1
 -2       840       839       933      3400      3686      3687
 -1      1769    8    0    1
 -2       839       932       933      3684      3688      3686
 -1      1770    8    0    1
 -2       841       840       934      3403      3689      3690
 -1      1771    8    0    1
 -2       840       933       934      3687      3691      3689
 -1      1772    8    0    1
 -2       842       841       935      3406      3692      3693
 -1      1773    8    0    1
 -2       841       934       935      3690      3694      3692
 -1      1774    8    0    1
 -2       843       842       936      3409      3695      3696
 -1      1775    8    0    1
 -2       842       935       936      3693      3697      3695
 -1      1776    8    0    1
 -2       844       843       937      3412      3698      3699
 -1      1777    8    0    1
 -2       843       936       937      3696      3700      3698
 -1      1778    8    0    1
 -2       845       844       938      3415      3701      3702
 -1      1779    8    0    1
 -2       844       937       938      3699      3703      3701
 -1      1780    8    0    1
 -2       846       845       939      3418      3704      3705
 -1      1781    8    0    1
 -2       845       938       939      3702      3706      3704
 -1      1782    8    0    1
 -2       847       846       940      3421      3707      3708
 -1      1783    8    0    1
 -2       846       939       940      3705      3709      3707
 -1      1784    8    0    1
 -2       848       847       941      3424      3710      3711
 -1      1785    8    0    1
 -2       847       940       941      3708      3712      3710
 -1      1786    8    0    1
 -2       849       848       942      3427      3713      3714
 -1      1787    8    0    1
 -2       848       941       942      3711      3715      3713
 -1      1788    8    0    1
 -2       850       849       943      3430      3716      3717
 -1      1789    8    0    1
 -2       849       942       943      3714      3718      3716
 -1      1790    8    0    1
 -2       851       850       944      3433      3719      3720
 -1      1791    8    0    1
 -2       850       943       944      3717      3721      3719
 -1      1792    8    0    1
 -2       852       851       945      3436      3722      3723
 -1      1793    8    0    1
 -2       851       944       945      3720      3724      3722
 -1      1794    8    0    1
 -2       853       852       946      3439      3725      3726
 -1      1795    8    0    1
 -2       852       945       946      3723      3727      3725
 -1      1796    8    0    1
 -2       854       853       947      3442      3728      3729
 -1      1797    8    0    1
 -2       853       946       947      3726      3730      3728
 -1      1798    8    0    1
 -2       855       854       948      3445      3731      3732
 -1      1799    8    0    1
 -2       854       947       948      3729      3733      3731
 -1      1800    8    0    1
 -2       856       855       949      3448      3734      3735
 -1      1801    8    0    1
 -2       855       948       949      3732      3736      3734
 -1      1802    8    0    1
 -2       857       856       950      3451      3737      3738
 -1      1803    8    0    1
 -2       856       949       950      3735      3739      3737
 -1      1804    8    0    1
 -2       858       857       951      3454      3740      3741
 -1      1805    8    0    1
 -2       857       950       951      3738      3742      3740
 -1      1806    8    0    1
 -2       829       897       952      3568      3743      3744
 -1      1807    8    0    1
 -2       866       867       953      3478      3745      3746
 -1      1808    8    0    1
 -2       865       866       954      3475      3747      3748
 -1      1809    8    0    1
 -2       866       953       954      3746      3749      3747
 -1      1810    8    0    1
 -2       868       869       955      3484      3750      3751
 -1      1811    8    0    1
 -2       869       870       956      3487      3752      3753
 -1      1812    8    0    1
 -2       869       956       955      3753      3754      3750
 -1      1813    8    0    1
 -2       870       871       957      3490      3755      3756
 -1      1814    8    0    1
 -2       870       957       956      3756      3757      3752
 -1      1815    8    0    1
 -2       871       872       958      3493      3758      3759
 -1      1816    8    0    1
 -2       871       958       957      3759      3760      3755
 -1      1817    8    0    1
 -2       872       873       959      3496      3761      3762
 -1      1818    8    0    1
 -2       872       959       958      3762      3763      3758
 -1      1819    8    0    1
 -2       873       874       960      3499      3764      3765
 -1      1820    8    0    1
 -2       873       960       959      3765      3766      3761
 -1      1821    8    0    1
 -2       874       875       961      3502      3767      3768
 -1      1822    8    0    1
 -2       874       961       960      3768      3769      3764
 -1      1823    8    0    1
 -2       875       876       962      3505      3770      3771
 -1      1824    8    0    1
 -2       875       962       961      3771      3772      3767
 -1      1825    8    0    1
 -2       876       877       963      3508      3773      3774
 -1      1826    8    0    1
 -2       876       963       962      3774      3775      3770
 -1      1827    8    0    1
 -2       877       878       964      3511      3776      3777
 -1      1828    8    0    1
 -2       877       964       963      3777      3778      3773
 -1      1829    8    0    1
 -2       878       879       965      3514      3779      3780
 -1      1830    8    0    1
 -2       878       965       964      3780      3781      3776
 -1      1831    8    0    1
 -2       879       880       966      3517      3782      3783
 -1      1832    8    0    1
 -2       879       966       965      3783      3784      3779
 -1      1833    8    0    1
 -2       880       881       967      3520      3785      3786
 -1      1834    8    0    1
 -2       880       967       966      3786      3787      3782
 -1      1835    8    0    1
 -2       881       882       968      3523      3788      3789
 -1      1836    8    0    1
 -2       881       968       967      3789      3790      3785
 -1      1837    8    0    1
 -2       882       883       969      3526      3791      3792
 -1      1838    8    0    1
 -2       882       969       968      3792      3793      3788
 -1      1839    8    0    1
 -2       883       884       970      3529      3794      3795
 -1      1840    8    0    1
 -2       883       970       969      3795      3796      3791
 -1      1841    8    0    1
 -2       884       885       971      3532      3797      3798
 -1      1842    8    0    1
 -2       884       971       970      3798      3799      3794
 -1      1843    8    0    1
 -2       885       886       972      3535      3800      3801
 -1      1844    8    0    1
 -2       885       972       971      3801      3802      3797
 -1      1845    8    0    1
 -2       886       887       973      3538      3803      3804
 -1      1846    8    0    1
 -2       886       973       972      3804      3805      3800
 -1      1847    8    0    1
 -2       887       888       974      3541      3806      3807
 -1      1848    8    0    1
 -2       887       974       973      3807      3808      3803
 -1      1849    8    0    1
 -2       888       889       975      3544      3809      3810
 -1      1850    8    0    1
 -2       888       975       974      3810      3811      3806
 -1      1851    8    0    1
 -2       889       890       976      3547      3812      3813
 -1      1852    8    0    1
 -2       889       976       975      3813      3814      3809
 -1      1853    8    0    1
 -2       890       891       977      3550      3815      3816
 -1      1854    8    0    1
 -2       890       977       976      3816      3817      3812
 -1      1855    8    0    1
 -2       891       892       978      3553      3818      3819
 -1      1856    8    0    1
 -2       891       978       977      3819      3820      3815
 -1      1857    8    0    1
 -2       892       893       979      3556      3821      3822
 -1      1858    8    0    1
 -2       978       892       979      3818      3822      3823
 -1      1859    8    0    1
 -2       893       904       979      3587      3824      3821
 -1      1860    8    0    1
 -2       900       902       980      3641      3825      3826
 -1      1861    8    0    1
 -2       867       868       981      3481      3827      3828
 -1      1862    8    0    1
 -2       867       981       953      3828      3829      3745
 -1      1863    8    0    1
 -2       864       863       982      3470      3830      3831
 -1      1864    8    0    1
 -2       897       820       906      3632      3594      3832
 -1      1865    8    0    1
 -2       826       862       983      3619      3833      3834
 -1      1866    8    0    1
 -2       894       898       984      3571      3835      3836
 -1      1867    8    0    1
 -2       902       895       985      3623      3837      3838
 -1      1868    8    0    1
 -2       830       829       986      3370      3839      3840
 -1      1869    8    0    1
 -2       830       986       924      3840      3841      3660
 -1      1870    8    0    1
 -2       901       903       987      3592      3842      3843
 -1      1871    8    0    1
 -2       905       861       988      3591      3844      3845
 -1      1872    8    0    1
 -2       906       827       989      3595      3846      3847
 -1      1873    8    0    1
 -2       827       920       989      3646      3848      3846
 -1      1874    8    0    1
 -2       864       982       990      3831      3849      3850
 -1      1875    8    0    1
 -2       864       990       917      3850      3851      3636
 -1      1876    8    0    1
 -2       908       894       991      3603      3852      3853
 -1      1877    8    0    1
 -2       894       984       991      3836      3854      3852
 -1      1878    8    0    1
 -2       910       901       987      3609      3843      3855
 -1      1879    8    0    1
 -2       952       897       906      3743      3832      3856
 -1      1880    8    0    1
 -2       859       858       916      3458      3857      3631
 -1      1881    8    0    1
 -2       913       911       992      3618      3858      3859
 -1      1882    8    0    1
 -2       913       992       923      3859      3860      3659
 -1      1883    8    0    1
 -2       914       899       993      3622      3861      3862
 -1      1884    8    0    1
 -2       899       915       993      3626      3863      3861
 -1      1885    8    0    1
 -2       868       955       981      3751      3864      3827
 -1      1886    8    0    1
 -2       986       829       952      3839      3744      3865
 -1      1887    8    0    1
 -2       865       954       994      3748      3866      3867
 -1      1888    8    0    1
 -2       865       994       896      3867      3868      3565
 -1      1889    8    0    1
 -2       980       902       985      3825      3838      3869
 -1      1890    8    0    1
 -2       900       980       995      3826      3870      3871
 -1      1891    8    0    1
 -2       900       995       920      3871      3872      3647
 -1      1892    8    0    1
 -2       915       826       983      3624      3834      3873
 -1      1893    8    0    1
 -2       895       914       996      3621      3874      3875
 -1      1894    8    0    1
 -2       895       996       985      3875      3876      3837
 -1      1895    8    0    1
 -2       823       923       918      3658      3877      3640
 -1      1896    8    0    1
 -2       863       896       997      3564      3878      3879
 -1      1897    8    0    1
 -2       896       994       997      3868      3880      3878
 -1      1898    8    0    1
 -2       984       898       998      3835      3881      3882
 -1      1899    8    0    1
 -2       898       909       998      3606      3883      3881
 -1      1900    8    0    1
 -2       863       997       982      3879      3884      3830
 -1      1901    8    0    1
 -2       921       916       951      3651      3885      3886
 -1      1902    8    0    1
 -2       916       858       951      3857      3741      3885
 -1      1903    8    0    1
 -2       992       911       987      3858      3887      3888
 -1      1904    8    0    1
 -2       903       907       992      3598      3889      3890
 -1      1905    8    0    1
 -2       911       919       987      3644      3891      3887
 -1      1906    8    0    1
 -2       987       903       992      3842      3890      3888
 -1      1907    8    0    1
 -2       957       958       999      3760      3892      3893
 -1      1908    8    0    1
 -2       904       908      1000      3602      3894      3895
 -1      1909    8    0    1
 -2       979       904      1000      3824      3895      3896
 -1      1910    8    0    1
 -2       908       991      1000      3853      3897      3894
 -1      1911    8    0    1
 -2       988       861      1001      3844      3898      3899
 -1      1912    8    0    1
 -2       925       924      1002      3664      3900      3901
 -1      1913    8    0    1
 -2       926       925      1003      3667      3902      3903
 -1      1914    8    0    1
 -2       925      1002      1003      3901      3904      3902
 -1      1915    8    0    1
 -2       927       926      1004      3670      3905      3906
 -1      1916    8    0    1
 -2       926      1003      1004      3903      3907      3905
 -1      1917    8    0    1
 -2       928       927      1005      3673      3908      3909
 -1      1918    8    0    1
 -2       927      1004      1005      3906      3910      3908
 -1      1919    8    0    1
 -2       929       928      1006      3676      3911      3912
 -1      1920    8    0    1
 -2       928      1005      1006      3909      3913      3911
 -1      1921    8    0    1
 -2       930       929      1007      3679      3914      3915
 -1      1922    8    0    1
 -2       929      1006      1007      3912      3916      3914
 -1      1923    8    0    1
 -2       931       930      1008      3682      3917      3918
 -1      1924    8    0    1
 -2       930      1007      1008      3915      3919      3917
 -1      1925    8    0    1
 -2       932       931      1009      3685      3920      3921
 -1      1926    8    0    1
 -2       931      1008      1009      3918      3922      3920
 -1      1927    8    0    1
 -2       933       932      1010      3688      3923      3924
 -1      1928    8    0    1
 -2       932      1009      1010      3921      3925      3923
 -1      1929    8    0    1
 -2       934       933      1011      3691      3926      3927
 -1      1930    8    0    1
 -2       933      1010      1011      3924      3928      3926
 -1      1931    8    0    1
 -2       935       934      1012      3694      3929      3930
 -1      1932    8    0    1
 -2       934      1011      1012      3927      3931      3929
 -1      1933    8    0    1
 -2       936       935      1013      3697      3932      3933
 -1      1934    8    0    1
 -2       935      1012      1013      3930      3934      3932
 -1      1935    8    0    1
 -2       937       936      1014      3700      3935      3936
 -1      1936    8    0    1
 -2       936      1013      1014      3933      3937      3935
 -1      1937    8    0    1
 -2       938       937      1015      3703      3938      3939
 -1      1938    8    0    1
 -2       937      1014      1015      3936      3940      3938
 -1      1939    8    0    1
 -2       939       938      1016      3706      3941      3942
 -1      1940    8    0    1
 -2       938      1015      1016      3939      3943      3941
 -1      1941    8    0    1
 -2       940       939      1017      3709      3944      3945
 -1      1942    8    0    1
 -2       939      1016      1017      3942      3946      3944
 -1      1943    8    0    1
 -2       941       940      1018      3712      3947      3948
 -1      1944    8    0    1
 -2       940      1017      1018      3945      3949      3947
 -1      1945    8    0    1
 -2       942       941      1019      3715      3950      3951
 -1      1946    8    0    1
 -2       941      1018      1019      3948      3952      3950
 -1      1947    8    0    1
 -2       943       942      1020      3718      3953      3954
 -1      1948    8    0    1
 -2       942      1019      1020      3951      3955      3953
 -1      1949    8    0    1
 -2       944       943      1021      3721      3956      3957
 -1      1950    8    0    1
 -2       943      1020      1021      3954      3958      3956
 -1      1951    8    0    1
 -2       945       944      1022      3724      3959      3960
 -1      1952    8    0    1
 -2       944      1021      1022      3957      3961      3959
 -1      1953    8    0    1
 -2       946       945      1023      3727      3962      3963
 -1      1954    8    0    1
 -2       945      1022      1023      3960      3964      3962
 -1      1955    8    0    1
 -2       947       946      1024      3730      3965      3966
 -1      1956    8    0    1
 -2       946      1023      1024      3963      3967      3965
 -1      1957    8    0    1
 -2       948       947      1025      3733      3968      3969
 -1      1958    8    0    1
 -2       947      1024      1025      3966      3970      3968
 -1      1959    8    0    1
 -2       949       948      1026      3736      3971      3972
 -1      1960    8    0    1
 -2       948      1025      1026      3969      3973      3971
 -1      1961    8    0    1
 -2       950       949      1027      3739      3974      3975
 -1      1962    8    0    1
 -2       949      1026      1027      3972      3976      3974
 -1      1963    8    0    1
 -2       951       950      1028      3742      3977      3978
 -1      1964    8    0    1
 -2       950      1027      1028      3975      3979      3977
 -1      1965    8    0    1
 -2       861       912      1001      3613      3980      3898
 -1      1966    8    0    1
 -2       956       957      1029      3757      3981      3982
 -1      1967    8    0    1
 -2       957       999      1029      3893      3983      3981
 -1      1968    8    0    1
 -2       955       956      1030      3754      3984      3985
 -1      1969    8    0    1
 -2       956      1029      1030      3982      3986      3984
 -1      1970    8    0    1
 -2       958       959      1031      3763      3987      3988
 -1      1971    8    0    1
 -2       958      1031       999      3988      3989      3892
 -1      1972    8    0    1
 -2       959       960      1032      3766      3990      3991
 -1      1973    8    0    1
 -2       959      1032      1031      3991      3992      3987
 -1      1974    8    0    1
 -2       960       961      1033      3769      3993      3994
 -1      1975    8    0    1
 -2       960      1033      1032      3994      3995      3990
 -1      1976    8    0    1
 -2       961       962      1034      3772      3996      3997
 -1      1977    8    0    1
 -2       961      1034      1033      3997      3998      3993
 -1      1978    8    0    1
 -2       962       963      1035      3775      3999      4000
 -1      1979    8    0    1
 -2       962      1035      1034      4000      4001      3996
 -1      1980    8    0    1
 -2       963       964      1036      3778      4002      4003
 -1      1981    8    0    1
 -2       963      1036      1035      4003      4004      3999
 -1      1982    8    0    1
 -2       964       965      1037      3781      4005      4006
 -1      1983    8    0    1
 -2       964      1037      1036      4006      4007      4002
 -1      1984    8    0    1
 -2       965       966      1038      3784      4008      4009
 -1      1985    8    0    1
 -2       965      1038      1037      4009      4010      4005
 -1      1986    8    0    1
 -2       966       967      1039      3787      4011      4012
 -1      1987    8    0    1
 -2       966      1039      1038      4012      4013      4008
 -1      1988    8    0    1
 -2       967       968      1040      3790      4014      4015
 -1      1989    8    0    1
 -2       967      1040      1039      4015      4016      4011
 -1      1990    8    0    1
 -2       968       969      1041      3793      4017      4018
 -1      1991    8    0    1
 -2       968      1041      1040      4018      4019      4014
 -1      1992    8    0    1
 -2       969       970      1042      3796      4020      4021
 -1      1993    8    0    1
 -2       969      1042      1041      4021      4022      4017
 -1      1994    8    0    1
 -2       970       971      1043      3799      4023      4024
 -1      1995    8    0    1
 -2       970      1043      1042      4024      4025      4020
 -1      1996    8    0    1
 -2       971       972      1044      3802      4026      4027
 -1      1997    8    0    1
 -2       971      1044      1043      4027      4028      4023
 -1      1998    8    0    1
 -2       972       973      1045      3805      4029      4030
 -1      1999    8    0    1
 -2       972      1045      1044      4030      4031      4026
 -1      2000    8    0    1
 -2       973       974      1046      3808      4032      4033
 -1      2001    8    0    1
 -2       973      1046      1045      4033      4034      4029
 -1      2002    8    0    1
 -2       974       975      1047      3811      4035      4036
 -1      2003    8    0    1
 -2       974      1047      1046      4036      4037      4032
 -1      2004    8    0    1
 -2       975       976      1048      3814      4038      4039
 -1      2005    8    0    1
 -2       975      1048      1047      4039      4040      4035
 -1      2006    8    0    1
 -2       976       977      1049      3817      4041      4042
 -1      2007    8    0    1
 -2       976      1049      1048      4042      4043      4038
 -1      2008    8    0    1
 -2       977       978      1050      3820      4044      4045
 -1      2009    8    0    1
 -2       977      1050      1049      4045      4046      4041
 -1      2010    8    0    1
 -2       986       952      1051      3865      4047      4048
 -1      2011    8    0    1
 -2       923       992       907      3860      3889      4049
 -1      2012    8    0    1
 -2       953       981      1052      3829      4050      4051
 -1      2013    8    0    1
 -2       981       955      1053      3864      4052      4053
 -1      2014    8    0    1
 -2       955      1030      1053      3985      4054      4052
 -1      2015    8    0    1
 -2       862       910      1054      3608      4055      4056
 -1      2016    8    0    1
 -2       980       985      1055      3869      4057      4058
 -1      2017    8    0    1
 -2       862      1054       983      4056      4059      3833
 -1      2018    8    0    1
 -2       921       951      1028      3886      3978      4060
 -1      2019    8    0    1
 -2       910       987       919      3855      3891      4061
 -1      2020    8    0    1
 -2       912       917      1056      3635      4062      4063
 -1      2021    8    0    1
 -2      1001       912      1056      3980      4063      4064
 -1      2022    8    0    1
 -2       917       990      1056      3851      4065      4062
 -1      2023    8    0    1
 -2       952       906       989      3856      3847      4066
 -1      2024    8    0    1
 -2       924       986      1057      3841      4067      4068
 -1      2025    8    0    1
 -2       924      1057      1002      4068      4069      3900
 -1      2026    8    0    1
 -2       954       953      1058      3749      4070      4071
 -1      2027    8    0    1
 -2       953      1052      1058      4051      4072      4070
 -1      2028    8    0    1
 -2       982       997      1059      3884      4073      4074
 -1      2029    8    0    1
 -2       991       984      1060      3854      4075      4076
 -1      2030    8    0    1
 -2       954      1058      1061      4071      4077      4078
 -1      2031    8    0    1
 -2       954      1061       994      4078      4079      3866
 -1      2032    8    0    1
 -2       910       919       922      4061      3654      4080
 -1      2033    8    0    1
 -2      1060       984      1062      4075      4081      4082
 -1      2034    8    0    1
 -2       984       998      1062      3882      4083      4081
 -1      2035    8    0    1
 -2       952       989      1051      4066      4084      4047
 -1      2036    8    0    1
 -2       993       915      1001      3863      4085      4086
 -1      2037    8    0    1
 -2       986      1051      1057      4048      4087      4067
 -1      2038    8    0    1
 -2       993      1001      1056      4086      4064      4088
 -1      2039    8    0    1
 -2       978       979      1063      3823      4089      4090
 -1      2040    8    0    1
 -2      1050       978      1063      4044      4090      4091
 -1      2041    8    0    1
 -2       979      1000      1063      3896      4092      4089
 -1      2042    8    0    1
 -2       995       980      1064      3870      4093      4094
 -1      2043    8    0    1
 -2       980      1055      1064      4058      4095      4093
 -1      2044    8    0    1
 -2       923       907       918      4049      3639      3877
 -1      2045    8    0    1
 -2       997       994      1065      3880      4096      4097
 -1      2046    8    0    1
 -2       994      1061      1065      4079      4098      4096
 -1      2047    8    0    1
 -2      1052       981      1053      4050      4053      4099
 -1      2048    8    0    1
 -2       988      1001       915      3899      4085      4100
 -1      2049    8    0    1
 -2       988       915       983      4100      3873      4101
 -1      2050    8    0    1
 -2       989       920      1066      3848      4102      4103
 -1      2051    8    0    1
 -2       920       995      1066      3872      4104      4102
 -1      2052    8    0    1
 -2       997      1065      1059      4097      4105      4073
 -1      2053    8    0    1
 -2      1054       910       922      4055      4080      4106
 -1      2054    8    0    1
 -2       985       996      1055      3876      4107      4057
 -1      2055    8    0    1
 -2       914       993      1056      3862      4088      4108
 -1      2056    8    0    1
 -2       983      1054       905      4059      4109      4110
 -1      2057    8    0    1
 -2       909       921      1028      3650      4060      4111
 -1      2058    8    0    1
 -2       983       905       988      4110      3845      4101
 -1      2059    8    0    1
 -2       905      1054       922      4109      4106      3655
 -1      2060    8    0    1
 -2       909      1028       998      4111      4112      3883
 -1      2061    8    0    1
 -2       914      1056       996      4108      4113      3874
 -1      2062    8    0    1
 -2      1002      1057      1067      4069      4114      4115
 -1      2063    8    0    1
 -2       990       982      1068      3849      4116      4117
 -1      2064    8    0    1
 -2      1052      1053      1069      4099      4118      4119
 -1      2065    8    0    1
 -2      1003      1002      1070      3904      4120      4121
 -1      2066    8    0    1
 -2      1002      1067      1070      4115      4122      4120
 -1      2067    8    0    1
 -2      1004      1003      1071      3907      4123      4124
 -1      2068    8    0    1
 -2      1003      1070      1071      4121      4125      4123
 -1      2069    8    0    1
 -2      1005      1004      1072      3910      4126      4127
 -1      2070    8    0    1
 -2      1004      1071      1072      4124      4128      4126
 -1      2071    8    0    1
 -2      1006      1005      1073      3913      4129      4130
 -1      2072    8    0    1
 -2      1005      1072      1073      4127      4131      4129
 -1      2073    8    0    1
 -2      1007      1006      1074      3916      4132      4133
 -1      2074    8    0    1
 -2      1006      1073      1074      4130      4134      4132
 -1      2075    8    0    1
 -2      1008      1007      1075      3919      4135      4136
 -1      2076    8    0    1
 -2      1007      1074      1075      4133      4137      4135
 -1      2077    8    0    1
 -2      1009      1008      1076      3922      4138      4139
 -1      2078    8    0    1
 -2      1008      1075      1076      4136      4140      4138
 -1      2079    8    0    1
 -2      1010      1009      1077      3925      4141      4142
 -1      2080    8    0    1
 -2      1009      1076      1077      4139      4143      4141
 -1      2081    8    0    1
 -2      1011      1010      1078      3928      4144      4145
 -1      2082    8    0    1
 -2      1010      1077      1078      4142      4146      4144
 -1      2083    8    0    1
 -2      1012      1011      1079      3931      4147      4148
 -1      2084    8    0    1
 -2      1011      1078      1079      4145      4149      4147
 -1      2085    8    0    1
 -2      1013      1012      1080      3934      4150      4151
 -1      2086    8    0    1
 -2      1012      1079      1080      4148      4152      4150
 -1      2087    8    0    1
 -2      1014      1013      1081      3937      4153      4154
 -1      2088    8    0    1
 -2      1013      1080      1081      4151      4155      4153
 -1      2089    8    0    1
 -2      1015      1014      1082      3940      4156      4157
 -1      2090    8    0    1
 -2      1014      1081      1082      4154      4158      4156
 -1      2091    8    0    1
 -2      1016      1015      1083      3943      4159      4160
 -1      2092    8    0    1
 -2      1015      1082      1083      4157      4161      4159
 -1      2093    8    0    1
 -2      1017      1016      1084      3946      4162      4163
 -1      2094    8    0    1
 -2      1016      1083      1084      4160      4164      4162
 -1      2095    8    0    1
 -2      1018      1017      1085      3949      4165      4166
 -1      2096    8    0    1
 -2      1017      1084      1085      4163      4167      4165
 -1      2097    8    0    1
 -2      1019      1018      1086      3952      4168      4169
 -1      2098    8    0    1
 -2      1018      1085      1086      4166      4170      4168
 -1      2099    8    0    1
 -2      1020      1019      1087      3955      4171      4172
 -1      2100    8    0    1
 -2      1019      1086      1087      4169      4173      4171
 -1      2101    8    0    1
 -2      1021      1020      1088      3958      4174      4175
 -1      2102    8    0    1
 -2      1020      1087      1088      4172      4176      4174
 -1      2103    8    0    1
 -2      1022      1021      1089      3961      4177      4178
 -1      2104    8    0    1
 -2      1021      1088      1089      4175      4179      4177
 -1      2105    8    0    1
 -2      1023      1022      1090      3964      4180      4181
 -1      2106    8    0    1
 -2      1022      1089      1090      4178      4182      4180
 -1      2107    8    0    1
 -2      1024      1023      1091      3967      4183      4184
 -1      2108    8    0    1
 -2      1023      1090      1091      4181      4185      4183
 -1      2109    8    0    1
 -2      1025      1024      1092      3970      4186      4187
 -1      2110    8    0    1
 -2      1024      1091      1092      4184      4188      4186
 -1      2111    8    0    1
 -2      1026      1025      1093      3973      4189      4190
 -1      2112    8    0    1
 -2      1025      1092      1093      4187      4191      4189
 -1      2113    8    0    1
 -2      1027      1026      1094      3976      4192      4193
 -1      2114    8    0    1
 -2      1026      1093      1094      4190      4194      4192
 -1      2115    8    0    1
 -2      1028      1027      1062      3979      4195      4196
 -1      2116    8    0    1
 -2      1053      1030      1095      4054      4197      4198
 -1      2117    8    0    1
 -2      1053      1095      1069      4198      4199      4118
 -1      2118    8    0    1
 -2      1031      1032      1096      3992      4200      4201
 -1      2119    8    0    1
 -2      1029       999      1097      3983      4202      4203
 -1      2120    8    0    1
 -2      1057      1051      1098      4087      4204      4205
 -1      2121    8    0    1
 -2      1057      1098      1067      4205      4206      4114
 -1      2122    8    0    1
 -2      1030      1029      1099      3986      4207      4208
 -1      2123    8    0    1
 -2      1029      1097      1099      4203      4209      4207
 -1      2124    8    0    1
 -2      1032      1033      1100      3995      4210      4211
 -1      2125    8    0    1
 -2      1032      1100      1096      4211      4212      4200
 -1      2126    8    0    1
 -2      1033      1034      1101      3998      4213      4214
 -1      2127    8    0    1
 -2      1033      1101      1100      4214      4215      4210
 -1      2128    8    0    1
 -2      1034      1035      1102      4001      4216      4217
 -1      2129    8    0    1
 -2      1034      1102      1101      4217      4218      4213
 -1      2130    8    0    1
 -2      1035      1036      1103      4004      4219      4220
 -1      2131    8    0    1
 -2      1035      1103      1102      4220      4221      4216
 -1      2132    8    0    1
 -2      1036      1037      1104      4007      4222      4223
 -1      2133    8    0    1
 -2      1036      1104      1103      4223      4224      4219
 -1      2134    8    0    1
 -2      1037      1038      1105      4010      4225      4226
 -1      2135    8    0    1
 -2      1037      1105      1104      4226      4227      4222
 -1      2136    8    0    1
 -2      1038      1039      1106      4013      4228      4229
 -1      2137    8    0    1
 -2      1038      1106      1105      4229      4230      4225
 -1      2138    8    0    1
 -2      1039      1040      1107      4016      4231      4232
 -1      2139    8    0    1
 -2      1039      1107      1106      4232      4233      4228
 -1      2140    8    0    1
 -2      1040      1041      1108      4019      4234      4235
 -1      2141    8    0    1
 -2      1040      1108      1107      4235      4236      4231
 -1      2142    8    0    1
 -2      1041      1042      1109      4022      4237      4238
 -1      2143    8    0    1
 -2      1041      1109      1108      4238      4239      4234
 -1      2144    8    0    1
 -2      1042      1043      1110      4025      4240      4241
 -1      2145    8    0    1
 -2      1042      1110      1109      4241      4242      4237
 -1      2146    8    0    1
 -2      1043      1044      1111      4028      4243      4244
 -1      2147    8    0    1
 -2      1043      1111      1110      4244      4245      4240
 -1      2148    8    0    1
 -2      1044      1045      1112      4031      4246      4247
 -1      2149    8    0    1
 -2      1044      1112      1111      4247      4248      4243
 -1      2150    8    0    1
 -2      1045      1046      1113      4034      4249      4250
 -1      2151    8    0    1
 -2      1045      1113      1112      4250      4251      4246
 -1      2152    8    0    1
 -2      1046      1047      1114      4037      4252      4253
 -1      2153    8    0    1
 -2      1046      1114      1113      4253      4254      4249
 -1      2154    8    0    1
 -2      1047      1048      1115      4040      4255      4256
 -1      2155    8    0    1
 -2      1047      1115      1114      4256      4257      4252
 -1      2156    8    0    1
 -2      1048      1049      1116      4043      4258      4259
 -1      2157    8    0    1
 -2      1048      1116      1115      4259      4260      4255
 -1      2158    8    0    1
 -2      1049      1050      1117      4046      4261      4262
 -1      2159    8    0    1
 -2      1049      1117      1116      4262      4263      4258
 -1      2160    8    0    1
 -2       999      1031      1118      3989      4264      4265
 -1      2161    8    0    1
 -2      1031      1096      1118      4201      4266      4264
 -1      2162    8    0    1
 -2       998      1028      1062      4112      4196      4083
 -1      2163    8    0    1
 -2       996      1056       990      4113      4065      4267
 -1      2164    8    0    1
 -2      1068       982      1059      4116      4074      4268
 -1      2165    8    0    1
 -2      1059      1065      1119      4105      4269      4270
 -1      2166    8    0    1
 -2      1051       989      1066      4084      4103      4271
 -1      2167    8    0    1
 -2      1058      1052      1120      4072      4272      4273
 -1      2168    8    0    1
 -2      1052      1069      1120      4119      4274      4272
 -1      2169    8    0    1
 -2       990      1068       996      4117      4275      4267
 -1      2170    8    0    1
 -2       996      1068      1055      4275      4276      4107
 -1      2171    8    0    1
 -2       995      1064      1121      4094      4277      4278
 -1      2172    8    0    1
 -2       995      1121      1066      4278      4279      4104
 -1      2173    8    0    1
 -2      1027      1094      1062      4193      4280      4195
 -1      2174    8    0    1
 -2      1055      1068      1059      4276      4268      4281
 -1      2175    8    0    1
 -2      1055      1059      1119      4281      4270      4282
 -1      2176    8    0    1
 -2      1095      1030      1099      4197      4208      4283
 -1      2177    8    0    1
 -2       999      1118      1097      4265      4284      4202
 -1      2178    8    0    1
 -2      1117      1050      1060      4261      4285      4286
 -1      2179    8    0    1
 -2      1064      1055      1119      4095      4282      4287
 -1      2180    8    0    1
 -2      1060      1062      1122      4082      4288      4289
 -1      2181    8    0    1
 -2      1117      1060      1122      4286      4289      4290
 -1      2182    8    0    1
 -2      1062      1094      1122      4280      4291      4288
 -1      2183    8    0    1
 -2      1065      1061      1123      4098      4292      4293
 -1      2184    8    0    1
 -2      1065      1123      1119      4293      4294      4269
 -1      2185    8    0    1
 -2      1058      1120      1124      4273      4295      4296
 -1      2186    8    0    1
 -2      1058      1124      1061      4296      4297      4077
 -1      2187    8    0    1
 -2      1051      1066      1098      4271      4298      4204
 -1      2188    8    0    1
 -2      1000       991      1063      3897      4299      4092
 -1      2189    8    0    1
 -2       991      1060      1063      4076      4300      4299
 -1      2190    8    0    1
 -2      1060      1050      1063      4285      4091      4300
 -1      2191    8    0    1
 -2      1071      1070      1125      4125      4301      4302
 -1      2192    8    0    1
 -2      1072      1071      1126      4128      4303      4304
 -1      2193    8    0    1
 -2      1071      1125      1126      4302      4305      4303
 -1      2194    8    0    1
 -2      1073      1072      1127      4131      4306      4307
 -1      2195    8    0    1
 -2      1072      1126      1127      4304      4308      4306
 -1      2196    8    0    1
 -2      1074      1073      1128      4134      4309      4310
 -1      2197    8    0    1
 -2      1073      1127      1128      4307      4311      4309
 -1      2198    8    0    1
 -2      1075      1074      1129      4137      4312      4313
 -1      2199    8    0    1
 -2      1074      1128      1129      4310      4314      4312
 -1      2200    8    0    1
 -2      1076      1075      1130      4140      4315      4316
 -1      2201    8    0    1
 -2      1075      1129      1130      4313      4317      4315
 -1      2202    8    0    1
 -2      1077      1076      1131      4143      4318      4319
 -1      2203    8    0    1
 -2      1076      1130      1131      4316      4320      4318
 -1      2204    8    0    1
 -2      1078      1077      1132      4146      4321      4322
 -1      2205    8    0    1
 -2      1077      1131      1132      4319      4323      4321
 -1      2206    8    0    1
 -2      1079      1078      1133      4149      4324      4325
 -1      2207    8    0    1
 -2      1078      1132      1133      4322      4326      4324
 -1      2208    8    0    1
 -2      1080      1079      1134      4152      4327      4328
 -1      2209    8    0    1
 -2      1079      1133      1134      4325      4329      4327
 -1      2210    8    0    1
 -2      1081      1080      1135      4155      4330      4331
 -1      2211    8    0    1
 -2      1080      1134      1135      4328      4332      4330
 -1      2212    8    0    1
 -2      1082      1081      1136      4158      4333      4334
 -1      2213    8    0    1
 -2      1081      1135      1136      4331      4335      4333
 -1      2214    8    0    1
 -2      1083      1082      1137      4161      4336      4337
 -1      2215    8    0    1
 -2      1082      1136      1137      4334      4338      4336
 -1      2216    8    0    1
 -2      1084      1083      1138      4164      4339      4340
 -1      2217    8    0    1
 -2      1083      1137      1138      4337      4341      4339
 -1      2218    8    0    1
 -2      1085      1084      1139      4167      4342      4343
 -1      2219    8    0    1
 -2      1084      1138      1139      4340      4344      4342
 -1      2220    8    0    1
 -2      1086      1085      1140      4170      4345      4346
 -1      2221    8    0    1
 -2      1085      1139      1140      4343      4347      4345
 -1      2222    8    0    1
 -2      1087      1086      1141      4173      4348      4349
 -1      2223    8    0    1
 -2      1086      1140      1141      4346      4350      4348
 -1      2224    8    0    1
 -2      1088      1087      1142      4176      4351      4352
 -1      2225    8    0    1
 -2      1087      1141      1142      4349      4353      4351
 -1      2226    8    0    1
 -2      1089      1088      1143      4179      4354      4355
 -1      2227    8    0    1
 -2      1088      1142      1143      4352      4356      4354
 -1      2228    8    0    1
 -2      1090      1089      1144      4182      4357      4358
 -1      2229    8    0    1
 -2      1089      1143      1144      4355      4359      4357
 -1      2230    8    0    1
 -2      1091      1090      1145      4185      4360      4361
 -1      2231    8    0    1
 -2      1090      1144      1145      4358      4362      4360
 -1      2232    8    0    1
 -2      1092      1091      1146      4188      4363      4364
 -1      2233    8    0    1
 -2      1091      1145      1146      4361      4365      4363
 -1      2234    8    0    1
 -2      1093      1092      1147      4191      4366      4367
 -1      2235    8    0    1
 -2      1092      1146      1147      4364      4368      4366
 -1      2236    8    0    1
 -2      1094      1093      1122      4194      4369      4291
 -1      2237    8    0    1
 -2      1069      1095      1126      4199      4370      4371
 -1      2238    8    0    1
 -2      1100      1101      1132      4215      4372      4373
 -1      2239    8    0    1
 -2      1096      1100      1131      4212      4374      4375
 -1      2240    8    0    1
 -2      1067      1098      1148      4206      4376      4377
 -1      2241    8    0    1
 -2      1099      1097      1128      4209      4378      4379
 -1      2242    8    0    1
 -2      1101      1102      1133      4218      4380      4381
 -1      2243    8    0    1
 -2      1102      1103      1134      4221      4382      4383
 -1      2244    8    0    1
 -2      1103      1104      1135      4224      4384      4385
 -1      2245    8    0    1
 -2      1104      1105      1136      4227      4386      4387
 -1      2246    8    0    1
 -2      1105      1106      1137      4230      4388      4389
 -1      2247    8    0    1
 -2      1106      1107      1138      4233      4390      4391
 -1      2248    8    0    1
 -2      1107      1108      1139      4236      4392      4393
 -1      2249    8    0    1
 -2      1108      1109      1140      4239      4394      4395
 -1      2250    8    0    1
 -2      1109      1110      1141      4242      4396      4397
 -1      2251    8    0    1
 -2      1110      1111      1142      4245      4398      4399
 -1      2252    8    0    1
 -2      1111      1112      1143      4248      4400      4401
 -1      2253    8    0    1
 -2      1112      1113      1144      4251      4402      4403
 -1      2254    8    0    1
 -2      1113      1114      1145      4254      4404      4405
 -1      2255    8    0    1
 -2      1114      1115      1146      4257      4406      4407
 -1      2256    8    0    1
 -2      1115      1116      1147      4260      4408      4409
 -1      2257    8    0    1
 -2      1116      1117      1122      4263      4290      4410
 -1      2258    8    0    1
 -2      1064      1119      1149      4287      4411      4412
 -1      2259    8    0    1
 -2      1121      1064      1149      4277      4412      4413
 -1      2260    8    0    1
 -2      1119      1123      1149      4294      4414      4411
 -1      2261    8    0    1
 -2      1118      1096      1130      4266      4415      4416
 -1      2262    8    0    1
 -2      1070      1067      1150      4122      4417      4418
 -1      2263    8    0    1
 -2      1070      1150      1125      4418      4419      4301
 -1      2264    8    0    1
 -2      1095      1099      1127      4283      4420      4421
 -1      2265    8    0    1
 -2      1098      1066      1121      4298      4279      4422
 -1      2266    8    0    1
 -2      1120      1069      1125      4274      4423      4424
 -1      2267    8    0    1
 -2      1097      1118      1129      4284      4425      4426
 -1      2268    8    0    1
 -2      1141      1110      1142      4396      4399      4353
 -1      2269    8    0    1
 -2      1130      1096      1131      4415      4375      4320
 -1      2270    8    0    1
 -2      1140      1109      1141      4394      4397      4350
 -1      2271    8    0    1
 -2      1139      1108      1140      4392      4395      4347
 -1      2272    8    0    1
 -2      1138      1107      1139      4390      4393      4344
 -1      2273    8    0    1
 -2      1122      1093      1147      4369      4367      4427
 -1      2274    8    0    1
 -2      1132      1101      1133      4372      4381      4326
 -1      2275    8    0    1
 -2      1126      1095      1127      4370      4421      4308
 -1      2276    8    0    1
 -2      1137      1106      1138      4388      4391      4341
 -1      2277    8    0    1
 -2      1100      1132      1131      4373      4323      4374
 -1      2278    8    0    1
 -2      1067      1148      1150      4377      4428      4417
 -1      2279    8    0    1
 -2      1136      1105      1137      4386      4389      4338
 -1      2280    8    0    1
 -2      1099      1128      1127      4379      4311      4420
 -1      2281    8    0    1
 -2      1120      1125      1150      4424      4419      4429
 -1      2282    8    0    1
 -2      1102      1134      1133      4383      4329      4380
 -1      2283    8    0    1
 -2      1103      1135      1134      4385      4332      4382
 -1      2284    8    0    1
 -2      1104      1136      1135      4387      4335      4384
 -1      2285    8    0    1
 -2      1111      1143      1142      4401      4356      4398
 -1      2286    8    0    1
 -2      1112      1144      1143      4403      4359      4400
 -1      2287    8    0    1
 -2      1113      1145      1144      4405      4362      4402
 -1      2288    8    0    1
 -2      1114      1146      1145      4407      4365      4404
 -1      2289    8    0    1
 -2      1115      1147      1146      4409      4368      4406
 -1      2290    8    0    1
 -2      1116      1122      1147      4410      4427      4408
 -1      2291    8    0    1
 -2      1069      1126      1125      4371      4305      4423
 -1      2292    8    0    1
 -2      1118      1130      1129      4416      4317      4425
 -1      2293    8    0    1
 -2      1120      1150      1124      4429      4430      4295
 -1      2294    8    0    1
 -2      1061      1124      1123      4297      4431      4292
 -1      2295    8    0    1
 -2      1098      1121      1148      4422      4432      4376
 -1      2296    8    0    1
 -2      1097      1129      1128      4426      4314      4378
 -1      2297    8    0    1
 -2      1123      1124      1148      4431      4433      4434
 -1      2298    8    0    1
 -2      1124      1150      1148      4430      4428      4433
 -1      2299    8    0    1
 -2      1123      1148      1149      4434      4435      4414
 -1      2300    8    0    1
 -2      1148      1121      1149      4432      4413      4435
 -3
    1PSTEP                         1           1           1          
  100CL  101 1.000000000        4435                     0    1           1
 -4  DISP        4    1
 -5  D1          1    2    1    0
 -5  D2          1    2    2    0
 -5  D3          1    2    3    0
 -5  ALL         1    2    0    0    1ALL
 -1         1 1.32045E-03-1.28064E-03-1.83758E-15
 -1         2 5.58184E-03-1.04171E-03-6.46826E-15
 -1         3 1.38192E-02-6.80662E-03-1.39278E-13
 -1         4 1.68145E-02-8.23528E-03-1.40906E-13
 -1         5 0.00000E+00 0.00000E+00 0.00000E+00
 -1         6 0.00000E+00 0.00000E+00 0.00000E+00
 -1         7 0.00000E+00 0.00000E+00 0.00000E+00
 -1         8 0.00000E+00 0.00000E+00 0.00000E+00
 -1         9 0.00000E+00 0.00000E+00 0.00000E+00
 -1        10 0.00000E+00 0.00000E+00 0.00000E+00
 -1        11 0.00000E+00 0.00000E+00 0.00000E+00
 -1        12 0.00000E+00 0.00000E+00 0.00000E+00
 -1        13 0.00000E+00 0.00000E+00 0.00000E+00
 -1        14 0.00000E+00 0.00000E+00 0.00000E+00
 -1        15 0.00000E+00 0.00000E+00 0.00000E+00
 -1        16 0.00000E+00 0.00000E+00 0.00000E+00
 -1        17 0.00000E+00 0.00000E+00 0.00000E+00
 -1        18 0.00000E+00 0.00000E+00 0.00000E+00
 -1        19 0.00000E+00 0.00000E+00 0.00000E+00
 -1        20 0.00000E+00 0.00000E+00 0.00000E+00
 -1        21 0.00000E+00 0.00000E+00 0.00000E+00
 -1        22 0.00000E+00 0.00000E+00 0.00000E+00
 -1        23 4.87313E-04-2.37227E-04 5.80929E-17
 -1        24 9.19007E-04-3.78152E-04 1.97867E-17
 -1        25 1.37704E-03-5.33997E-04-1.21492E-16
 -1        26 1.87919E-03-7.53511E-04-3.69489E-16
 -1        27 2.41456E-03-1.08464E-03-7.31593E-16
 -1        28 2.92700E-03-1.54302E-03-1.22270E-15
 -1        29 3.29464E-03-1.99047E-03-1.80138E-15
 -1        30 3.52332E-03-2.28631E-03-2.44822E-15
 -1        31 3.71956E-03-2.37353E-03-3.28698E-15
 -1        32 3.95201E-03-2.24636E-03-4.22064E-15
 -1        33 4.30094E-03-2.01150E-03-5.35397E-15
 -1        34 4.78371E-03-1.78746E-03-6.76952E-15
 -1        35 5.31547E-03-1.67943E-03-8.39704E-15
 -1        36 5.81161E-03-1.69442E-03-1.01512E-14
 -1        37 6.25445E-03-1.79178E-03-1.20239E-14
 -1        38 6.64951E-03-1.93593E-03-1.40207E-14
 -1        39 6.99131E-03-2.09540E-03-1.60228E-14
 -1        40 7.32644E-03-2.27462E-03-1.82451E-14
 -1        41 7.64448E-03-2.45888E-03-2.05805E-14
 -1        42 7.95125E-03-2.64481E-03-2.30241E-14
 -1        43 8.25065E-03-2.83087E-03-2.55941E-14
 -1        44 8.54521E-03-3.01638E-03-2.82817E-14
 -1        45 8.83659E-03-3.20112E-03-3.10829E-14
 -1        46 9.12588E-03-3.38505E-03-3.40083E-14
 -1        47 9.41379E-03-3.56824E-03-3.70451E-14
 -1        48 9.70079E-03-3.75078E-03-4.01800E-14
 -1        49 9.98720E-03-3.93275E-03-4.34056E-14
 -1        50 1.02732E-02-4.11427E-03-4.67312E-14
 -1        51 1.05590E-02-4.29539E-03-5.01602E-14
 -1        52 1.08447E-02-4.47621E-03-5.36869E-14
 -1        53 1.11302E-02-4.65676E-03-5.72846E-14
 -1        54 1.14158E-02-4.83712E-03-6.09396E-14
 -1        55 1.17013E-02-5.01731E-03-6.46607E-14
 -1        56 1.19725E-02-5.18838E-03-6.82742E-14
 -1        57 1.22581E-02-5.36836E-03-7.21601E-14
 -1        58 1.25436E-02-5.54826E-03-7.61006E-14
 -1        59 1.28292E-02-5.72810E-03-8.00874E-14
 -1        60 1.31148E-02-5.90790E-03-8.41230E-14
 -1        61 1.34004E-02-6.08766E-03-8.82222E-14
 -1        62 1.36861E-02-6.26741E-03-9.23764E-14
 -1        63 1.39717E-02-6.44714E-03-9.65676E-14
 -1        64 1.42574E-02-6.62686E-03-1.00817E-13
 -1        65 1.45431E-02-6.80657E-03-1.05109E-13
 -1        66 1.48288E-02-6.98628E-03-1.09454E-13
 -1        67 1.51145E-02-7.16599E-03-1.13861E-13
 -1        68 1.54002E-02-7.34570E-03-1.18332E-13
 -1        69 1.56859E-02-7.52541E-03-1.22841E-13
 -1        70 1.59716E-02-7.70512E-03-1.27370E-13
 -1        71 1.62573E-02-7.88483E-03-1.31934E-13
 -1        72 1.65430E-02-8.06455E-03-1.36518E-13
 -1        73 4.23929E-04 2.80989E-04 5.64056E-17
 -1        74 7.09073E-04 4.38956E-04-2.28733E-17
 -1        75 9.66796E-04 5.44999E-04-2.35804E-16
 -1        76 1.20921E-03 6.14863E-04-5.87821E-16
 -1        77 1.44026E-03 6.53166E-04-1.08279E-15
 -1        78 1.66220E-03 6.60327E-04-1.72035E-15
 -1        79 1.87771E-03 6.35063E-04-2.50283E-15
 -1        80 2.09064E-03 5.76245E-04-3.43002E-15
 -1        81 2.30565E-03 4.84303E-04-4.50210E-15
 -1        82 2.52741E-03 3.61923E-04-5.71826E-15
 -1        83 2.75964E-03 2.13949E-04-7.07840E-15
 -1        84 3.00443E-03 4.66174E-05-8.58151E-15
 -1        85 3.26207E-03-1.33502E-04-1.02223E-14
 -1        86 3.53135E-03-3.20418E-04-1.19932E-14
 -1        87 3.80815E-03-5.09094E-04-1.38929E-14
 -1        88 4.09124E-03-6.97920E-04-1.59211E-14
 -1        89 4.37837E-03-8.85341E-04-1.80772E-14
 -1        90 4.66771E-03-1.07073E-03-2.03538E-14
 -1        91 4.95794E-03-1.25405E-03-2.27432E-14
 -1        92 5.24820E-03-1.43559E-03-2.52475E-14
 -1        93 5.53799E-03-1.61577E-03-2.78713E-14
 -1        94 5.82710E-03-1.79501E-03-3.06150E-14
 -1        95 6.11546E-03-1.97367E-03-3.34851E-14
 -1        96 6.40313E-03-2.15204E-03-3.64768E-14
 -1        97 6.69020E-03-2.33033E-03-3.95756E-14
 -1        98 6.97681E-03-2.50866E-03-4.27825E-14
 -1        99 7.26305E-03-2.68711E-03-4.61045E-14
 -1       100 7.54902E-03-2.86573E-03-4.95185E-14
 -1       101 7.83482E-03-3.04453E-03-5.30261E-14
 -1       102 8.12050E-03-3.22350E-03-5.66228E-14
 -1       103 8.40611E-03-3.40262E-03-6.03023E-14
 -1       104 8.69168E-03-3.58187E-03-6.40566E-14
 -1       105 8.97724E-03-3.76124E-03-6.78830E-14
 -1       106 9.26281E-03-3.94070E-03-7.17775E-14
 -1       107 9.54838E-03-4.12022E-03-7.57299E-14
 -1       108 9.83397E-03-4.29981E-03-7.97452E-14
 -1       109 1.01196E-02-4.47943E-03-8.37936E-14
 -1       110 1.04052E-02-4.65909E-03-8.78779E-14
 -1       111 1.06909E-02-4.83877E-03-9.20080E-14
 -1       112 1.09765E-02-5.01846E-03-9.61826E-14
 -1       113 1.12622E-02-5.19817E-03-1.00397E-13
 -1       114 1.15479E-02-5.37788E-03-1.04644E-13
 -1       115 1.18336E-02-5.55760E-03-1.08923E-13
 -1       116 1.21193E-02-5.73732E-03-1.13238E-13
 -1       117 1.24050E-02-5.91704E-03-1.17591E-13
 -1       118 1.26907E-02-6.09675E-03-1.21957E-13
 -1       119 1.29764E-02-6.27647E-03-1.26339E-13
 -1       120 1.32621E-02-6.45618E-03-1.30722E-13
 -1       121 1.35478E-02-6.63589E-03-1.35120E-13
 -1       122 1.39959E-02-6.89090E-03-1.39440E-13
 -1       123 1.41727E-02-6.97519E-03-1.39629E-13
 -1       124 1.43494E-02-7.05948E-03-1.39814E-13
 -1       125 1.45261E-02-7.14377E-03-1.39990E-13
 -1       126 1.47028E-02-7.22806E-03-1.40155E-13
 -1       127 1.48765E-02-7.31092E-03-1.40335E-13
 -1       128 1.50532E-02-7.39522E-03-1.40514E-13
 -1       129 1.52299E-02-7.47951E-03-1.40658E-13
 -1       130 1.54067E-02-7.56381E-03-1.40784E-13
 -1       131 1.55834E-02-7.64811E-03-1.40868E-13
 -1       132 1.57601E-02-7.73241E-03-1.40919E-13
 -1       133 1.59338E-02-7.81527E-03-1.40971E-13
 -1       134 1.61106E-02-7.89956E-03-1.40991E-13
 -1       135 1.62873E-02-7.98385E-03-1.40983E-13
 -1       136 1.64640E-02-8.06814E-03-1.40952E-13
 -1       137 1.66407E-02-8.15242E-03-1.40941E-13
 -1       138 5.43637E-03-8.48064E-04-6.45032E-15
 -1       139 5.19529E-03-6.63350E-04-6.28389E-15
 -1       140 4.86173E-03-4.82717E-04-5.98169E-15
 -1       141 4.46278E-03-3.22319E-04-5.57756E-15
 -1       142 4.02971E-03-1.92386E-04-5.11592E-15
 -1       143 3.51177E-03-8.03069E-05-4.54401E-15
 -1       144 3.02512E-03-1.32897E-05-4.01118E-15
 -1       145 2.52241E-03 2.09722E-05-3.46622E-15
 -1       146 2.07015E-03 1.89734E-05-2.99039E-15
 -1       147 1.66005E-03-1.48696E-05-2.56946E-15
 -1       148 1.30058E-03-7.97012E-05-2.20667E-15
 -1       149 1.01569E-03-1.71502E-04-1.91911E-15
 -1       150 8.24781E-04-2.83447E-04-1.71972E-15
 -1       151 7.12028E-04-4.30459E-04-1.58285E-15
 -1       152 7.03184E-04-5.90348E-04-1.53231E-15
 -1       153 8.05680E-04-8.03200E-04-1.55693E-15
 -1       154 1.00583E-03-1.02667E-03-1.65638E-15
 -1       155 1.70726E-03-1.52914E-03-2.08094E-15
 -1       156 2.18968E-03-1.77375E-03-2.40953E-15
 -1       157 2.70198E-03-1.96136E-03-2.78719E-15
 -1       158 3.28978E-03-2.08423E-03-3.26499E-15
 -1       159 3.83123E-03-2.10374E-03-3.75637E-15
 -1       160 4.33881E-03-2.03821E-03-4.27971E-15
 -1       161 4.78289E-03-1.90978E-03-4.80943E-15
 -1       162 5.13689E-03-1.74918E-03-5.30987E-15
 -1       163 5.40794E-03-1.56485E-03-5.77740E-15
 -1       164 5.55979E-03-1.39002E-03-6.12293E-15
 -1       165 5.61669E-03-1.21789E-03-6.35247E-15
 -1       166 2.85247E-04-7.59253E-05-5.00766E-18
 -1       167 2.28263E-04-4.38970E-05-2.64918E-17
 -1       168 1.86032E-04-4.05114E-05-4.01358E-17
 -1       169 1.62418E-04-5.31414E-05-4.82165E-17
 -1       170 1.59103E-04-6.83562E-05-5.26516E-17
 -1       171 1.71569E-04-7.56171E-05-5.48403E-17
 -1       172 1.91416E-04-6.92571E-05-5.55416E-17
 -1       173 2.10552E-04-5.03657E-05-5.58805E-17
 -1       174 2.24357E-04-2.36620E-05-5.58466E-17
 -1       175 2.31777E-04 5.84649E-06-5.50910E-17
 -1       176 2.33963E-04 3.43025E-05-5.34105E-17
 -1       177 2.33002E-04 6.13152E-05-5.01003E-17
 -1       178 2.31227E-04 8.66998E-05-4.40559E-17
 -1       179 2.31871E-04 1.12519E-04-3.26853E-17
 -1       180 2.41964E-04 1.44559E-04-1.18551E-17
 -1       181 3.00482E-04 2.03709E-04 1.07505E-17
 -1       182 5.79133E-04-2.03309E-04-1.29969E-17
 -1       183 9.86022E-04-3.39670E-04-1.32212E-16
 -1       184 1.40415E-03-5.11355E-04-3.50692E-16
 -1       185 1.84615E-03-7.70790E-04-6.76129E-16
 -1       186 2.31359E-03-1.16544E-03-1.12309E-15
 -1       187 2.74389E-03-1.62710E-03-1.65157E-15
 -1       188 3.54397E-03-2.30128E-03-3.05253E-15
 -1       189 3.88111E-03-2.26025E-03-3.92083E-15
 -1       190 4.26118E-03-2.03421E-03-4.98370E-15
 -1       191 4.70792E-03-1.76189E-03-6.32877E-15
 -1       192 5.17525E-03-1.59672E-03-7.89439E-15
 -1       193 5.61652E-03-1.57352E-03-9.59306E-15
 -1       194 6.02409E-03-1.65132E-03-1.14141E-14
 -1       195 6.40005E-03-1.78761E-03-1.33582E-14
 -1       196 6.73324E-03-1.94518E-03-1.53141E-14
 -1       197 7.06485E-03-2.12495E-03-1.74834E-14
 -1       198 7.38222E-03-2.31068E-03-1.97664E-14
 -1       199 7.68957E-03-2.49823E-03-2.21650E-14
 -1       200 7.98999E-03-2.68574E-03-2.46805E-14
 -1       201 8.28565E-03-2.87246E-03-2.73156E-14
 -1       202 8.57805E-03-3.05816E-03-3.00671E-14
 -1       203 8.86821E-03-3.24285E-03-3.29340E-14
 -1       204 9.15685E-03-3.42662E-03-3.59145E-14
 -1       205 9.44444E-03-3.60961E-03-3.90018E-14
 -1       206 9.73132E-03-3.79194E-03-4.21853E-14
 -1       207 1.00177E-02-3.97372E-03-4.54653E-14
 -1       208 1.03038E-02-4.15506E-03-4.88426E-14
 -1       209 1.05897E-02-4.33603E-03-5.23192E-14
 -1       210 1.08754E-02-4.51671E-03-5.58805E-14
 -1       211 1.11611E-02-4.69715E-03-5.95059E-14
 -1       212 1.14467E-02-4.87742E-03-6.31961E-14
 -1       213 1.17181E-02-5.04853E-03-6.67690E-14
 -1       214 1.20037E-02-5.22854E-03-7.06056E-14
 -1       215 1.22893E-02-5.40847E-03-7.45136E-14
 -1       216 1.25749E-02-5.58833E-03-7.84796E-14
 -1       217 1.28605E-02-5.76814E-03-8.24996E-14
 -1       218 1.31461E-02-5.94792E-03-8.65708E-14
 -1       219 1.34318E-02-6.12767E-03-9.06970E-14
 -1       220 1.37175E-02-6.30740E-03-9.48755E-14
 -1       221 1.40031E-02-6.48712E-03-9.91012E-14
 -1       222 1.42888E-02-6.66684E-03-1.03378E-13
 -1       223 1.45745E-02-6.84655E-03-1.07702E-13
 -1       224 1.48602E-02-7.02625E-03-1.12081E-13
 -1       225 1.51459E-02-7.20596E-03-1.16515E-13
 -1       226 1.54316E-02-7.38567E-03-1.20992E-13
 -1       227 1.57173E-02-7.56538E-03-1.25498E-13
 -1       228 1.60030E-02-7.74509E-03-1.30039E-13
 -1       229 1.62887E-02-7.92480E-03-1.34609E-13
 -1       230 1.64647E-02-8.03861E-03-1.37769E-13
 -1       231 6.06269E-04 3.66464E-04-8.66142E-17
 -1       232 8.88375E-04 4.79911E-04-3.09767E-16
 -1       233 1.15335E-03 5.55618E-04-6.66168E-16
 -1       234 1.40629E-03 5.99048E-04-1.16151E-15
 -1       235 1.65028E-03 6.10900E-04-1.79757E-15
 -1       236 1.88816E-03 5.89788E-04-2.57633E-15
 -1       237 2.12313E-03 5.34295E-04-3.49814E-15
 -1       238 2.35879E-03 4.44571E-04-4.56456E-15
 -1       239 2.59863E-03 3.23183E-04-5.77423E-15
 -1       240 2.84546E-03 1.75067E-04-7.12716E-15
 -1       241 3.10095E-03 6.74394E-06-8.62200E-15
 -1       242 3.36545E-03-1.74866E-04-1.02521E-14
 -1       243 3.63810E-03-3.63217E-04-1.20151E-14
 -1       244 3.91667E-03-5.53206E-04-1.39062E-14
 -1       245 4.20003E-03-7.43085E-04-1.59242E-14
 -1       246 4.48659E-03-9.31260E-04-1.80681E-14
 -1       247 4.77500E-03-1.11713E-03-2.03329E-14
 -1       248 5.06425E-03-1.30070E-03-2.27138E-14
 -1       249 5.35365E-03-1.48234E-03-2.52113E-14
 -1       250 5.64278E-03-1.66251E-03-2.78291E-14
 -1       251 5.93143E-03-1.84167E-03-3.05671E-14
 -1       252 6.21951E-03-2.02023E-03-3.34266E-14
 -1       253 6.50705E-03-2.19849E-03-3.64006E-14
 -1       254 6.79409E-03-2.37666E-03-3.94852E-14
 -1       255 7.08073E-03-2.55490E-03-4.26793E-14
 -1       256 7.36705E-03-2.73328E-03-4.59821E-14
 -1       257 7.65313E-03-2.91184E-03-4.93820E-14
 -1       258 7.93903E-03-3.09059E-03-5.28744E-14
 -1       259 8.22481E-03-3.26952E-03-5.64583E-14
 -1       260 8.51051E-03-3.44862E-03-6.01284E-14
 -1       261 8.79616E-03-3.62785E-03-6.38732E-14
 -1       262 9.08179E-03-3.80721E-03-6.76917E-14
 -1       263 9.36741E-03-3.98666E-03-7.15729E-14
 -1       264 9.65303E-03-4.16618E-03-7.55152E-14
 -1       265 9.93865E-03-4.34576E-03-7.95107E-14
 -1       266 1.02243E-02-4.52539E-03-8.35465E-14
 -1       267 1.05099E-02-4.70505E-03-8.76288E-14
 -1       268 1.07956E-02-4.88473E-03-9.17584E-14
 -1       269 1.10813E-02-5.06442E-03-9.59296E-14
 -1       270 1.13669E-02-5.24413E-03-1.00142E-13
 -1       271 1.16526E-02-5.42384E-03-1.04389E-13
 -1       272 1.19383E-02-5.60356E-03-1.08663E-13
 -1       273 1.22240E-02-5.78328E-03-1.12968E-13
 -1       274 1.25097E-02-5.96300E-03-1.17310E-13
 -1       275 1.27954E-02-6.14272E-03-1.21673E-13
 -1       276 1.30811E-02-6.32243E-03-1.26057E-13
 -1       277 1.33668E-02-6.50215E-03-1.30442E-13
 -1       278 1.36526E-02-6.68186E-03-1.34834E-13
 -1       279 1.38369E-02-6.77742E-03-1.35731E-13
 -1       280 1.40136E-02-6.86171E-03-1.35904E-13
 -1       281 1.41903E-02-6.94599E-03-1.36074E-13
 -1       282 1.43670E-02-7.03028E-03-1.36236E-13
 -1       283 1.45407E-02-7.11315E-03-1.36390E-13
 -1       284 1.47174E-02-7.19744E-03-1.36542E-13
 -1       285 1.48941E-02-7.28174E-03-1.36675E-13
 -1       286 1.50709E-02-7.36603E-03-1.36798E-13
 -1       287 1.52476E-02-7.45033E-03-1.36896E-13
 -1       288 1.54243E-02-7.53462E-03-1.36964E-13
 -1       289 1.55980E-02-7.61749E-03-1.37011E-13
 -1       290 1.57748E-02-7.70178E-03-1.37032E-13
 -1       291 1.59515E-02-7.78607E-03-1.37029E-13
 -1       292 1.61282E-02-7.87036E-03-1.37008E-13
 -1       293 1.62965E-02-7.95449E-03-1.37391E-13
 -1       294 5.53832E-03-1.05573E-03-7.22376E-15
 -1       295 5.28567E-03-9.18442E-04-7.00713E-15
 -1       296 4.92302E-03-7.54508E-04-6.70070E-15
 -1       297 4.49146E-03-5.49103E-04-6.24721E-15
 -1       298 4.03769E-03-3.38879E-04-5.72464E-15
 -1       299 3.57171E-03-1.33170E-04-5.10873E-15
 -1       300 3.16435E-03 1.72780E-05-4.39405E-15
 -1       301 2.75810E-03 9.37937E-05-3.76092E-15
 -1       302 2.36656E-03 7.66235E-05-3.17233E-15
 -1       303 1.98583E-03 3.60345E-06-2.67187E-15
 -1       304 1.61287E-03-1.09761E-04-2.23623E-15
 -1       305 1.26703E-03-2.42567E-04-1.85796E-15
 -1       306 9.61349E-04-3.32215E-04-1.65145E-15
 -1       307 7.54389E-04-4.27120E-04-1.43309E-15
 -1       308 6.71246E-04-5.01232E-04-1.38708E-15
 -1       309 7.29816E-04-5.92954E-04-1.35836E-15
 -1       310 9.44184E-04-7.43387E-04-1.42749E-15
 -1       311 1.29987E-03-9.33524E-04-1.53422E-15
 -1       312 1.72022E-03-1.23217E-03-1.76764E-15
 -1       313 2.21517E-03-1.54737E-03-2.03170E-15
 -1       314 2.66657E-03-1.87280E-03-2.43095E-15
 -1       315 3.12984E-03-2.11490E-03-2.89388E-15
 -1       316 3.55960E-03-2.20022E-03-3.46066E-15
 -1       317 3.97516E-03-2.13208E-03-4.06524E-15
 -1       318 4.39345E-03-1.95365E-03-4.71049E-15
 -1       319 4.79457E-03-1.73053E-03-5.37417E-15
 -1       320 5.16520E-03-1.51996E-03-5.99373E-15
 -1       321 5.44882E-03-1.35971E-03-6.47964E-15
 -1       322 5.60685E-03-1.24067E-03-6.84724E-15
 -1       323 5.64197E-03-1.14555E-03-7.07051E-15
 -1       324 3.20651E-03-2.09650E-03-2.31728E-15
 -1       325 4.09682E-04-1.10817E-04-1.33421E-16
 -1       326 5.22196E-04-1.42950E-04-9.52201E-17
 -1       327 3.05928E-04-1.33026E-04-1.75597E-16
 -1       328 3.23444E-04-1.46008E-04-1.86144E-16
 -1       329 3.67551E-04-1.38158E-04-1.92751E-16
 -1       330 4.15886E-04-1.07421E-04-1.96905E-16
 -1       331 4.53464E-04-6.05963E-05-1.99486E-16
 -1       332 4.75366E-04-6.75305E-06-2.00106E-16
 -1       333 4.83467E-04 4.65231E-05-1.97938E-16
 -1       334 4.82670E-04 9.79991E-05-1.92300E-16
 -1       335 4.78077E-04 1.46679E-04-1.81204E-16
 -1       336 4.75664E-04 1.95057E-04-1.61014E-16
 -1       337 4.84268E-04 2.48745E-04-1.26831E-16
 -1       338 5.35719E-04 3.04044E-04-1.13658E-16
 -1       339 8.26497E-04 4.20689E-04-3.40660E-16
 -1       340 2.79347E-03-1.83058E-03-2.16161E-15
 -1       341 9.80588E-04-3.24184E-04-3.13460E-16
 -1       342 1.33212E-03-5.11923E-04-6.06184E-16
 -1       343 1.71927E-03-8.02810E-04-1.00692E-15
 -1       344 2.22196E-03-1.26575E-03-1.50617E-15
 -1       345 4.63134E-03-7.59611E-04-7.02542E-15
 -1       346 4.14697E-03-2.07156E-03-4.58544E-15
 -1       347 4.62850E-03-1.76489E-03-5.86435E-15
 -1       348 5.08722E-03-1.54703E-03-7.37097E-15
 -1       349 5.49472E-03-1.48438E-03-9.01517E-15
 -1       350 5.86488E-03-1.53769E-03-1.07835E-14
 -1       351 6.21097E-03-1.66056E-03-1.26755E-14
 -1       352 6.52472E-03-1.81193E-03-1.45824E-14
 -1       353 6.84355E-03-1.98917E-03-1.67006E-14
 -1       354 7.15356E-03-2.17444E-03-1.89315E-14
 -1       355 7.45692E-03-2.36246E-03-2.12813E-14
 -1       356 7.75533E-03-2.55077E-03-2.37460E-14
 -1       357 8.05009E-03-2.73834E-03-2.63290E-14
 -1       358 8.34218E-03-2.92481E-03-2.90289E-14
 -1       359 8.63234E-03-3.11016E-03-3.18441E-14
 -1       360 8.92112E-03-3.29448E-03-3.47716E-14
 -1       361 9.20892E-03-3.47792E-03-3.78105E-14
 -1       362 9.49602E-03-3.66060E-03-4.09489E-14
 -1       363 9.78262E-03-3.84266E-03-4.41843E-14
 -1       364 1.00689E-02-4.02421E-03-4.75144E-14
 -1       365 1.03549E-02-4.20535E-03-5.09429E-14
 -1       366 1.06408E-02-4.38616E-03-5.44626E-14
 -1       367 1.09266E-02-4.56671E-03-5.80547E-14
 -1       368 1.12123E-02-4.74705E-03-6.17139E-14
 -1       369 1.14837E-02-4.91822E-03-6.52534E-14
 -1       370 1.17693E-02-5.09828E-03-6.90540E-14
 -1       371 1.20549E-02-5.27824E-03-7.29259E-14
 -1       372 1.23406E-02-5.45812E-03-7.68604E-14
 -1       373 1.26262E-02-5.63795E-03-8.08578E-14
 -1       374 1.29119E-02-5.81774E-03-8.49102E-14
 -1       375 1.31976E-02-5.99749E-03-8.90110E-14
 -1       376 1.34832E-02-6.17723E-03-9.31699E-14
 -1       377 1.37689E-02-6.35696E-03-9.73761E-14
 -1       378 1.40546E-02-6.53667E-03-1.01630E-13
 -1       379 1.43403E-02-6.71638E-03-1.05936E-13
 -1       380 1.46260E-02-6.89609E-03-1.10287E-13
 -1       381 1.49117E-02-7.07580E-03-1.14692E-13
 -1       382 1.51974E-02-7.25550E-03-1.19141E-13
 -1       383 1.54831E-02-7.43521E-03-1.23628E-13
 -1       384 1.57688E-02-7.61492E-03-1.28147E-13
 -1       385 1.60545E-02-7.79463E-03-1.32695E-13
 -1       386 1.26943E-03 5.14266E-04-1.01283E-15
 -1       387 1.53801E-03 5.44249E-04-1.59295E-15
 -1       388 1.79959E-03 5.41842E-04-2.31254E-15
 -1       389 2.05646E-03 5.04818E-04-3.17255E-15
 -1       390 2.31149E-03 4.32015E-04-4.17642E-15
 -1       391 2.56774E-03 3.24687E-04-5.32377E-15
 -1       392 2.82790E-03 1.86921E-04-6.61313E-15
 -1       393 3.09375E-03 2.50799E-05-8.04360E-15
 -1       394 3.36592E-03-1.53398E-04-9.61210E-15
 -1       395 3.64396E-03-3.41690E-04-1.13145E-14
 -1       396 3.92620E-03-5.32220E-04-1.31459E-14
 -1       397 4.21174E-03-7.23337E-04-1.51051E-14
 -1       398 4.49938E-03-9.12939E-04-1.71881E-14
 -1       399 4.78815E-03-1.10011E-03-1.93932E-14
 -1       400 5.07736E-03-1.28473E-03-2.17173E-14
 -1       401 5.36652E-03-1.46711E-03-2.41598E-14
 -1       402 5.65536E-03-1.64774E-03-2.67235E-14
 -1       403 5.94375E-03-1.82715E-03-2.94036E-14
 -1       404 6.23165E-03-2.00578E-03-3.22043E-14
 -1       405 6.51908E-03-2.18400E-03-3.51192E-14
 -1       406 6.80609E-03-2.36207E-03-3.81448E-14
 -1       407 7.09275E-03-2.54017E-03-4.12804E-14
 -1       408 7.37913E-03-2.71840E-03-4.45213E-14
 -1       409 7.66528E-03-2.89682E-03-4.78679E-14
 -1       410 7.95127E-03-3.07544E-03-5.13084E-14
 -1       411 8.23714E-03-3.25426E-03-5.48439E-14
 -1       412 8.52292E-03-3.43326E-03-5.84680E-14
 -1       413 8.80865E-03-3.61243E-03-6.21730E-14
 -1       414 9.09434E-03-3.79172E-03-6.59527E-14
 -1       415 9.38001E-03-3.97113E-03-6.97955E-14
 -1       416 9.66567E-03-4.15062E-03-7.37024E-14
 -1       417 9.95133E-03-4.33017E-03-7.76629E-14
 -1       418 1.02370E-02-4.50978E-03-8.16737E-14
 -1       419 1.05227E-02-4.68943E-03-8.57298E-14
 -1       420 1.08083E-02-4.86910E-03-8.98329E-14
 -1       421 1.10940E-02-5.04879E-03-9.39863E-14
 -1       422 1.13797E-02-5.22850E-03-9.81774E-14
 -1       423 1.16654E-02-5.40821E-03-1.02410E-13
 -1       424 1.19511E-02-5.58793E-03-1.06670E-13
 -1       425 1.22368E-02-5.76765E-03-1.10958E-13
 -1       426 1.25225E-02-5.94737E-03-1.15281E-13
 -1       427 1.28082E-02-6.12709E-03-1.19628E-13
 -1       428 1.30939E-02-6.30680E-03-1.24003E-13
 -1       429 1.33796E-02-6.48652E-03-1.28388E-13
 -1       430 1.36082E-02-6.63197E-03-1.32056E-13
 -1       431 1.40312E-02-6.83251E-03-1.32324E-13
 -1       432 1.38545E-02-6.74822E-03-1.32166E-13
 -1       433 1.42049E-02-6.91537E-03-1.32470E-13
 -1       434 1.43816E-02-6.99966E-03-1.32606E-13
 -1       435 1.45584E-02-7.08396E-03-1.32725E-13
 -1       436 1.47351E-02-7.16825E-03-1.32834E-13
 -1       437 1.49118E-02-7.25255E-03-1.32933E-13
 -1       438 1.50885E-02-7.33684E-03-1.33012E-13
 -1       439 1.52622E-02-7.41971E-03-1.33062E-13
 -1       440 1.54390E-02-7.50400E-03-1.33085E-13
 -1       441 1.56157E-02-7.58829E-03-1.33085E-13
 -1       442 1.57924E-02-7.67258E-03-1.33070E-13
 -1       443 1.04922E-03 4.77846E-04-6.31409E-16
 -1       444 5.07121E-03-9.47736E-04-7.50046E-15
 -1       445 4.17464E-03-5.23703E-04-6.44617E-15
 -1       446 5.63123E-03-1.15265E-03-7.89830E-15
 -1       447 3.33768E-04-1.14018E-04-1.59076E-16
 -1       448 3.70023E-03-2.25587E-03-3.60286E-15
 -1       449 3.71410E-03-2.81564E-04-5.81436E-15
 -1       450 3.23409E-03-2.53719E-05-4.88681E-15
 -1       451 2.92475E-03 9.05716E-05-4.21604E-15
 -1       452 2.53680E-03 1.23951E-04-3.40230E-15
 -1       453 2.20470E-03 6.43532E-05-2.81705E-15
 -1       454 1.85401E-03-5.40941E-05-2.31199E-15
 -1       455 1.50484E-03-1.89692E-04-1.88482E-15
 -1       456 1.08577E-03-3.34988E-04-1.53373E-15
 -1       457 8.45814E-04-4.02165E-04-1.32559E-15
 -1       458 6.69297E-04-4.46410E-04-1.17935E-15
 -1       459 6.68138E-04-4.75670E-04-1.14866E-15
 -1       460 8.42070E-04-5.52690E-04-1.17812E-15
 -1       461 1.13956E-03-6.88847E-04-1.26367E-15
 -1       462 1.64936E-03-9.51185E-04-1.40886E-15
 -1       463 4.94028E-03-1.56438E-03-6.16792E-15
 -1       464 5.30521E-03-1.37470E-03-6.80052E-15
 -1       465 5.54303E-03-1.26206E-03-7.31401E-15
 -1       466 5.66026E-03-1.19790E-03-7.77108E-15
 -1       467 5.40477E-03-1.07638E-03-7.85090E-15
 -1       468 1.59235E-02-7.73361E-03-1.32889E-13
 -1       469 4.65671E-03-1.73598E-03-5.62609E-15
 -1       470 3.37978E-03-2.22499E-03-2.98103E-15
 -1       471 1.27652E-03-2.65563E-04-1.54815E-15
 -1       472 5.04121E-04-2.09008E-04-3.82771E-16
 -1       473 4.40795E-04-2.15412E-04-3.65142E-16
 -1       474 6.80615E-04-1.08867E-04-4.26430E-16
 -1       475 7.26471E-04-3.28558E-05-4.32105E-16
 -1       476 7.45896E-04 4.22540E-05-4.32854E-16
 -1       477 7.47508E-04 1.14433E-04-4.28009E-16
 -1       478 7.39767E-04 1.81950E-04-4.14707E-16
 -1       479 7.31079E-04 2.47076E-04-3.89418E-16
 -1       480 7.30854E-04 3.13937E-04-3.47534E-16
 -1       481 7.74601E-04 3.65982E-04-3.49208E-16
 -1       482 4.82954E-03-9.38665E-04-8.02905E-15
 -1       483 9.22259E-04-3.40155E-04-5.17127E-16
 -1       484 4.35974E-03-7.20652E-04-7.37472E-15
 -1       485 1.19313E-03-5.33823E-04-8.74612E-16
 -1       486 3.41061E-03-1.59272E-04-5.63877E-15
 -1       487 6.50148E-04-2.09708E-04-2.93595E-16
 -1       488 5.10270E-03-1.48954E-03-7.10348E-15
 -1       489 5.47587E-03-1.41568E-03-8.71866E-15
 -1       490 5.80658E-03-1.46180E-03-1.04570E-14
 -1       491 6.11782E-03-1.57845E-03-1.23173E-14
 -1       492 6.40647E-03-1.72532E-03-1.41948E-14
 -1       493 6.70692E-03-1.89952E-03-1.62827E-14
 -1       494 7.00493E-03-2.08316E-03-1.84834E-14
 -1       495 7.30075E-03-2.27049E-03-2.08033E-14
 -1       496 7.59454E-03-2.45863E-03-2.32385E-14
 -1       497 7.88653E-03-2.64630E-03-2.57902E-14
 -1       498 8.17701E-03-2.83300E-03-2.84590E-14
 -1       499 8.46626E-03-3.01860E-03-3.12436E-14
 -1       500 8.75454E-03-3.20317E-03-3.41425E-14
 -1       501 9.04209E-03-3.38682E-03-3.71489E-14
 -1       502 9.32909E-03-3.56969E-03-4.02592E-14
 -1       503 9.61567E-03-3.75190E-03-4.34685E-14
 -1       504 9.90196E-03-3.93358E-03-4.67702E-14
 -1       505 1.01880E-02-4.11483E-03-5.01691E-14
 -1       506 1.04740E-02-4.29572E-03-5.36602E-14
 -1       507 1.07598E-02-4.47633E-03-5.72289E-14
 -1       508 1.10455E-02-4.65672E-03-6.08681E-14
 -1       509 1.13170E-02-4.82792E-03-6.43907E-14
 -1       510 1.16027E-02-5.00801E-03-6.81713E-14
 -1       511 1.18883E-02-5.18798E-03-7.20208E-14
 -1       512 1.21740E-02-5.36788E-03-7.59367E-14
 -1       513 1.24597E-02-5.54772E-03-7.99175E-14
 -1       514 1.27454E-02-5.72752E-03-8.39598E-14
 -1       515 1.30310E-02-5.90728E-03-8.80492E-14
 -1       516 1.33167E-02-6.08702E-03-9.21952E-14
 -1       517 1.36024E-02-6.26675E-03-9.63877E-14
 -1       518 1.38881E-02-6.44646E-03-1.00629E-13
 -1       519 1.41738E-02-6.62617E-03-1.04923E-13
 -1       520 1.44595E-02-6.80588E-03-1.09260E-13
 -1       521 1.47452E-02-6.98559E-03-1.13645E-13
 -1       522 1.50309E-02-7.16529E-03-1.18076E-13
 -1       523 1.53166E-02-7.34500E-03-1.22546E-13
 -1       524 1.56023E-02-7.52471E-03-1.27052E-13
 -1       525 1.57629E-02-7.62916E-03-1.29965E-13
 -1       526 1.97360E-03 4.64675E-04-2.84185E-15
 -1       527 1.69800E-03 4.81813E-04-2.04165E-15
 -1       528 1.41664E-03 4.65320E-04-1.38012E-15
 -1       529 2.24538E-03 4.10796E-04-3.78284E-15
 -1       530 2.51622E-03 3.19524E-04-4.86751E-15
 -1       531 2.78908E-03 1.93696E-04-6.09504E-15
 -1       532 3.06613E-03 3.93701E-05-7.46282E-15
 -1       533 3.34825E-03-1.35421E-04-8.96967E-15
 -1       534 3.63496E-03-3.22312E-04-1.06113E-14
 -1       535 3.92467E-03-5.13916E-04-1.23854E-14
 -1       536 4.21583E-03-7.05716E-04-1.42859E-14
 -1       537 4.50750E-03-8.96180E-04-1.63112E-14
 -1       538 4.79891E-03-1.08415E-03-1.84580E-14
 -1       539 5.08966E-03-1.26940E-03-2.07245E-14
 -1       540 5.37959E-03-1.45222E-03-2.31105E-14
 -1       541 5.66869E-03-1.63312E-03-2.56171E-14
 -1       542 5.95706E-03-1.81264E-03-2.82432E-14
 -1       543 6.24480E-03-1.99129E-03-3.09864E-14
 -1       544 6.53203E-03-2.16945E-03-3.38427E-14
 -1       545 6.81886E-03-2.34743E-03-3.68121E-14
 -1       546 7.10538E-03-2.52540E-03-3.98897E-14
 -1       547 7.39165E-03-2.70350E-03-4.30728E-14
 -1       548 7.67775E-03-2.88179E-03-4.63600E-14
 -1       549 7.96372E-03-3.06029E-03-4.97519E-14
 -1       550 8.24959E-03-3.23901E-03-5.32353E-14
 -1       551 8.53540E-03-3.41793E-03-5.68116E-14
 -1       552 8.82116E-03-3.59702E-03-6.04734E-14
 -1       553 9.10688E-03-3.77626E-03-6.42125E-14
 -1       554 9.39259E-03-3.95561E-03-6.80220E-14
 -1       555 9.67829E-03-4.13507E-03-7.18934E-14
 -1       556 9.96398E-03-4.31460E-03-7.58217E-14
 -1       557 1.02497E-02-4.49419E-03-7.98050E-14
 -1       558 1.05354E-02-4.67382E-03-8.38351E-14
 -1       559 1.08210E-02-4.85348E-03-8.79120E-14
 -1       560 1.11067E-02-5.03317E-03-9.20407E-14
 -1       561 1.13924E-02-5.21287E-03-9.62141E-14
 -1       562 1.16781E-02-5.39258E-03-1.00429E-13
 -1       563 1.19638E-02-5.57229E-03-1.04673E-13
 -1       564 1.22495E-02-5.75201E-03-1.08949E-13
 -1       565 1.25353E-02-5.93173E-03-1.13256E-13
 -1       566 1.28210E-02-6.11145E-03-1.17591E-13
 -1       567 1.31067E-02-6.29117E-03-1.21947E-13
 -1       568 1.33924E-02-6.47089E-03-1.26324E-13
 -1       569 1.40459E-02-6.80189E-03-1.28699E-13
 -1       570 1.38721E-02-6.71902E-03-1.28567E-13
 -1       571 1.36954E-02-6.63473E-03-1.28421E-13
 -1       572 5.56430E-03-1.18620E-03-8.82935E-15
 -1       573 1.42226E-02-6.88618E-03-1.28814E-13
 -1       574 1.43993E-02-6.97047E-03-1.28913E-13
 -1       575 1.45760E-02-7.05477E-03-1.29001E-13
 -1       576 1.47527E-02-7.13906E-03-1.29072E-13
 -1       577 1.49264E-02-7.22193E-03-1.29126E-13
 -1       578 1.51032E-02-7.30622E-03-1.29153E-13
 -1       579 1.52799E-02-7.39051E-03-1.29156E-13
 -1       580 1.54566E-02-7.47481E-03-1.29147E-13
 -1       581 3.91946E-03-4.70558E-04-6.71897E-15
 -1       582 5.64436E-03-1.24326E-03-8.29513E-15
 -1       583 6.06756E-04-1.74036E-04-4.16886E-16
 -1       584 5.68932E-03-1.20845E-03-8.59490E-15
 -1       585 2.35188E-03 1.23629E-04-3.04592E-15
 -1       586 3.01381E-03 4.63627E-05-4.69449E-15
 -1       587 9.88714E-04-5.15367E-04-9.98845E-16
 -1       588 2.68076E-03 1.40054E-04-3.79883E-15
 -1       589 2.01239E-03 2.48998E-05-2.41816E-15
 -1       590 1.68301E-03-1.00640E-04-1.93254E-15
 -1       591 9.44586E-04-3.54862E-04-1.21525E-15
 -1       592 7.07419E-04-3.97349E-04-1.03590E-15
 -1       593 6.31266E-04-4.07794E-04-9.59499E-16
 -1       594 7.22884E-04-4.29444E-04-9.46928E-16
 -1       595 5.46572E-03-1.30492E-03-7.71037E-15
 -1       596 5.22859E-03-1.08789E-03-8.47052E-15
 -1       597 4.39885E-04-1.99152E-04-3.41080E-16
 -1       598 1.00566E-03 4.25367E-04-6.34360E-16
 -1       599 1.20990E-03 4.52752E-04-9.71103E-16
 -1       600 5.14202E-04-1.92917E-04-3.22974E-16
 -1       601 1.44432E-03-1.71999E-04-1.58494E-15
 -1       602 5.23739E-03-1.40782E-03-7.23145E-15
 -1       603 1.56098E-02-7.55198E-03-1.29557E-13
 -1       604 1.37987E-03-6.82820E-04-1.08257E-15
 -1       605 1.01996E-03 2.88884E-05-7.54744E-16
 -1       606 9.82155E-04-6.80736E-05-7.45707E-16
 -1       607 1.01537E-03 1.98526E-04-7.43529E-16
 -1       608 9.98903E-04 2.74907E-04-7.17583E-16
 -1       609 9.67443E-04 3.73388E-04-6.26764E-16
 -1       610 1.42402E-02-6.85699E-03-1.25112E-13
 -1       611 1.37116E-02-6.60482E-03-1.24818E-13
 -1       612 5.73695E-03-1.34809E-03-9.75238E-15
 -1       613 5.98000E-03-1.45268E-03-1.15507E-14
 -1       614 6.21948E-03-1.58736E-03-1.33702E-14
 -1       615 6.48254E-03-1.75128E-03-1.53977E-14
 -1       616 6.75494E-03-1.92776E-03-1.75385E-14
 -1       617 7.03373E-03-2.11062E-03-1.97955E-14
 -1       618 7.31646E-03-2.29623E-03-2.21718E-14
 -1       619 7.60138E-03-2.48261E-03-2.46631E-14
 -1       620 7.88741E-03-2.66874E-03-2.72711E-14
 -1       621 8.17390E-03-2.85420E-03-2.99936E-14
 -1       622 8.46050E-03-3.03884E-03-3.28312E-14
 -1       623 8.74705E-03-3.22266E-03-3.57807E-14
 -1       624 9.03346E-03-3.40574E-03-3.88336E-14
 -1       625 9.31973E-03-3.58816E-03-4.19892E-14
 -1       626 9.60586E-03-3.77002E-03-4.52395E-14
 -1       627 9.89187E-03-3.95143E-03-4.85876E-14
 -1       628 1.01778E-02-4.13245E-03-5.20233E-14
 -1       629 1.04636E-02-4.31318E-03-5.55412E-14
 -1       630 1.07494E-02-4.49365E-03-5.91355E-14
 -1       631 1.10209E-02-4.66493E-03-6.26248E-14
 -1       632 1.13066E-02-4.84507E-03-6.63676E-14
 -1       633 1.15924E-02-5.02509E-03-7.01817E-14
 -1       634 1.18781E-02-5.20502E-03-7.40624E-14
 -1       635 1.21638E-02-5.38488E-03-7.80103E-14
 -1       636 1.24495E-02-5.56469E-03-8.20215E-14
 -1       637 1.27352E-02-5.74446E-03-8.60908E-14
 -1       638 1.30209E-02-5.92421E-03-9.02062E-14
 -1       639 1.33066E-02-6.10395E-03-9.43724E-14
 -1       640 1.35923E-02-6.28367E-03-9.85866E-14
 -1       641 1.38780E-02-6.46338E-03-1.02849E-13
 -1       642 1.41637E-02-6.64309E-03-1.07165E-13
 -1       643 1.44494E-02-6.82279E-03-1.11520E-13
 -1       644 1.47351E-02-7.00250E-03-1.15918E-13
 -1       645 1.50208E-02-7.18220E-03-1.20361E-13
 -1       646 1.53065E-02-7.36191E-03-1.24835E-13
 -1       647 1.87954E-03 4.14334E-04-2.50735E-15
 -1       648 2.16640E-03 3.81785E-04-3.38631E-15
 -1       649 1.58735E-03 4.10642E-04-1.76745E-15
 -1       650 2.73479E-03 1.97157E-04-5.57250E-15
 -1       651 3.02274E-03 5.11208E-05-6.88025E-15
 -1       652 3.31558E-03-1.20223E-04-8.32679E-15
 -1       653 3.61294E-03-3.06840E-04-9.90890E-15
 -1       654 3.91284E-03-4.99576E-04-1.16241E-14
 -1       655 4.21242E-03-6.91874E-04-1.34670E-14
 -1       656 4.51067E-03-8.82656E-04-1.54356E-14
 -1       657 4.80681E-03-1.07070E-03-1.75265E-14
 -1       658 5.10067E-03-1.25586E-03-1.97365E-14
 -1       659 5.39243E-03-1.43848E-03-2.20648E-14
 -1       660 5.68245E-03-1.61915E-03-2.45134E-14
 -1       661 5.97113E-03-1.79846E-03-2.70828E-14
 -1       662 6.25884E-03-1.97690E-03-2.97702E-14
 -1       663 6.54585E-03-2.15488E-03-3.25719E-14
 -1       664 6.83241E-03-2.33269E-03-3.54843E-14
 -1       665 7.11866E-03-2.51052E-03-3.85042E-14
 -1       666 7.40470E-03-2.68849E-03-4.16308E-14
 -1       667 7.69062E-03-2.86667E-03-4.48618E-14
 -1       668 7.97646E-03-3.04508E-03-4.81990E-14
 -1       669 8.26225E-03-3.22372E-03-5.16339E-14
 -1       670 8.54801E-03-3.40256E-03-5.51633E-14
 -1       671 8.83375E-03-3.58159E-03-5.87784E-14
 -1       672 9.11947E-03-3.76078E-03-6.24771E-14
 -1       673 9.40519E-03-3.94010E-03-6.62463E-14
 -1       674 9.69090E-03-4.11953E-03-7.00838E-14
 -1       675 9.97662E-03-4.29903E-03-7.39803E-14
 -1       676 1.02623E-02-4.47860E-03-7.79361E-14
 -1       677 1.05480E-02-4.65822E-03-8.19404E-14
 -1       678 1.08337E-02-4.83787E-03-8.59926E-14
 -1       679 1.11195E-02-5.01755E-03-9.00971E-14
 -1       680 1.14052E-02-5.19724E-03-9.42483E-14
 -1       681 1.16909E-02-5.37695E-03-9.84453E-14
 -1       682 1.19766E-02-5.55667E-03-1.02673E-13
 -1       683 1.22623E-02-5.73638E-03-1.06931E-13
 -1       684 1.25480E-02-5.91610E-03-1.11224E-13
 -1       685 1.28337E-02-6.09583E-03-1.15551E-13
 -1       686 1.31194E-02-6.27555E-03-1.19895E-13
 -1       687 1.34074E-02-6.45514E-03-1.24143E-13
 -1       688 5.61811E-03-1.29649E-03-8.72053E-15
 -1       689 1.40635E-02-6.77269E-03-1.25035E-13
 -1       690 7.03228E-04-2.98583E-04-5.60912E-16
 -1       691 1.35595E-02-6.52998E-03-1.24482E-13
 -1       692 1.38875E-02-6.68876E-03-1.24935E-13
 -1       693 2.45032E-03 3.09184E-04-4.40699E-15
 -1       694 1.44169E-02-6.94128E-03-1.25175E-13
 -1       695 1.45907E-02-7.02415E-03-1.25218E-13
 -1       696 1.47674E-02-7.10845E-03-1.25250E-13
 -1       697 1.49441E-02-7.19274E-03-1.25259E-13
 -1       698 1.51208E-02-7.27703E-03-1.25250E-13
 -1       699 3.18512E-03-6.02680E-05-5.43864E-15
 -1       700 7.37401E-04-2.49570E-04-6.63206E-16
 -1       701 4.15548E-03-6.48677E-04-7.77954E-15
 -1       702 1.02623E-03 1.17555E-04-7.54964E-16
 -1       703 1.08637E-03-2.81268E-04-1.19685E-15
 -1       704 6.06729E-04-2.93490E-04-6.34590E-16
 -1       705 4.57985E-03-8.75717E-04-8.44675E-15
 -1       706 5.43815E-03-1.21250E-03-9.77072E-15
 -1       707 6.13136E-04-3.36499E-04-7.12990E-16
 -1       708 5.74799E-03-1.26628E-03-9.38833E-15
 -1       709 2.77038E-03 1.21948E-04-4.22752E-15
 -1       710 2.11207E-03 1.10047E-04-2.57162E-15
 -1       711 5.99512E-04-3.47712E-04-7.73832E-16
 -1       712 5.05306E-03-1.08053E-03-9.12069E-15
 -1       713 8.62204E-04-4.21106E-04-8.36135E-16
 -1       714 2.45017E-03 1.62577E-04-3.35784E-15
 -1       715 1.84299E-03 1.82916E-05-2.07064E-15
 -1       716 8.99336E-04-1.67320E-04-7.29167E-16
 -1       717 7.47653E-04-3.36425E-04-8.76493E-16
 -1       718 3.62175E-03-3.27326E-04-6.62139E-15
 -1       719 5.71230E-03-1.26091E-03-9.76914E-15
 -1       720 1.28967E-03 3.76884E-04-1.16355E-15
 -1       721 2.94096E-03 5.20290E-05-4.91894E-15
 -1       722 1.61758E-03-4.65364E-05-1.70412E-15
 -1       723 5.46670E-03-1.35934E-03-8.34712E-15
 -1       724 1.30566E-03 1.34718E-05-1.15922E-15
 -1       725 1.27875E-03 2.84900E-04-1.14429E-15
 -1       726 1.20678E-03-1.85892E-04-1.18610E-15
 -1       727 1.42564E-02-6.82709E-03-1.21353E-13
 -1       728 1.46830E-03 3.28847E-04-1.49517E-15
 -1       729 2.55629E-03 1.70998E-04-3.82681E-15
 -1       730 5.67926E-03-1.30830E-03-1.08803E-14
 -1       731 9.28099E-04-2.98130E-04-1.00079E-15
 -1       732 1.40796E-02-6.74279E-03-1.21315E-13
 -1       733 6.06097E-03-1.47829E-03-1.26021E-14
 -1       734 6.28261E-03-1.62757E-03-1.45714E-14
 -1       735 6.52580E-03-1.79196E-03-1.66554E-14
 -1       736 6.78420E-03-1.96591E-03-1.88559E-14
 -1       737 7.05286E-03-2.14544E-03-2.11723E-14
 -1       738 7.32821E-03-2.32789E-03-2.36066E-14
 -1       739 7.60780E-03-2.51161E-03-2.61565E-14
 -1       740 7.89000E-03-2.69564E-03-2.88203E-14
 -1       741 8.17378E-03-2.87948E-03-3.15975E-14
 -1       742 8.45848E-03-3.06288E-03-3.44896E-14
 -1       743 8.74370E-03-3.24576E-03-3.74889E-14
 -1       744 9.02921E-03-3.42812E-03-4.05937E-14
 -1       745 9.31487E-03-3.61000E-03-4.37950E-14
 -1       746 9.60060E-03-3.79145E-03-4.70948E-14
 -1       747 9.88635E-03-3.97253E-03-5.04833E-14
 -1       748 1.01721E-02-4.15331E-03-5.39552E-14
 -1       749 1.04579E-02-4.33385E-03-5.75023E-14
 -1       750 1.07293E-02-4.50516E-03-6.09517E-14
 -1       751 1.10151E-02-4.68534E-03-6.46614E-14
 -1       752 1.13008E-02-4.86540E-03-6.84380E-14
 -1       753 1.15866E-02-5.04535E-03-7.22861E-14
 -1       754 1.18723E-02-5.22523E-03-7.62046E-14
 -1       755 1.21580E-02-5.40506E-03-8.01905E-14
 -1       756 1.24437E-02-5.58485E-03-8.42335E-14
 -1       757 1.27294E-02-5.76461E-03-8.83271E-14
 -1       758 1.30152E-02-5.94434E-03-9.24656E-14
 -1       759 1.33009E-02-6.12407E-03-9.66539E-14
 -1       760 1.35866E-02-6.30378E-03-1.00892E-13
 -1       761 1.38723E-02-6.48349E-03-1.05178E-13
 -1       762 1.41580E-02-6.66320E-03-1.09505E-13
 -1       763 1.44437E-02-6.84291E-03-1.13876E-13
 -1       764 1.47294E-02-7.02261E-03-1.18288E-13
 -1       765 1.49251E-02-7.14982E-03-1.21758E-13
 -1       766 2.07764E-03 3.44343E-04-2.98936E-15
 -1       767 1.77604E-03 3.52878E-04-2.17357E-15
 -1       768 3.27140E-03-1.05578E-04-7.68092E-15
 -1       769 2.96770E-03 6.27180E-05-6.29404E-15
 -1       770 3.89268E-03-4.89642E-04-1.08625E-14
 -1       771 4.20300E-03-6.82976E-04-1.26472E-14
 -1       772 4.50996E-03-8.73824E-04-1.45585E-14
 -1       773 4.81257E-03-1.06120E-03-1.65955E-14
 -1       774 5.11081E-03-1.24530E-03-1.87516E-14
 -1       775 5.40525E-03-1.42681E-03-2.10235E-14
 -1       776 5.69671E-03-1.60648E-03-2.34153E-14
 -1       777 5.98597E-03-1.78498E-03-2.59263E-14
 -1       778 6.27374E-03-1.96281E-03-2.85559E-14
 -1       779 6.56053E-03-2.14035E-03-3.13022E-14
 -1       780 6.84673E-03-2.31786E-03-3.41597E-14
 -1       781 7.13260E-03-2.49548E-03-3.71247E-14
 -1       782 7.41830E-03-2.67331E-03-4.01942E-14
 -1       783 7.70392E-03-2.85139E-03-4.33712E-14
 -1       784 7.98953E-03-3.02973E-03-4.66524E-14
 -1       785 8.27515E-03-3.20831E-03-5.00352E-14
 -1       786 8.56079E-03-3.38711E-03-5.35131E-14
 -1       787 8.84645E-03-3.56611E-03-5.70832E-14
 -1       788 9.13213E-03-3.74527E-03-6.07394E-14
 -1       789 9.41783E-03-3.92456E-03-6.44726E-14
 -1       790 9.70354E-03-4.10397E-03-6.82739E-14
 -1       791 9.98926E-03-4.28346E-03-7.21384E-14
 -1       792 1.02750E-02-4.46302E-03-7.60637E-14
 -1       793 1.05607E-02-4.64262E-03-8.00428E-14
 -1       794 1.08464E-02-4.82227E-03-8.40721E-14
 -1       795 1.11322E-02-5.00194E-03-8.81499E-14
 -1       796 1.14179E-02-5.18163E-03-9.22790E-14
 -1       797 1.17036E-02-5.36133E-03-9.64539E-14
 -1       798 1.19893E-02-5.54104E-03-1.00665E-13
 -1       799 1.22750E-02-5.72076E-03-1.04909E-13
 -1       800 1.25608E-02-5.90048E-03-1.09191E-13
 -1       801 1.28465E-02-6.08020E-03-1.13502E-13
 -1       802 1.31322E-02-6.25992E-03-1.17841E-13
 -1       803 1.33458E-02-6.39495E-03-1.21154E-13
 -1       804 1.39029E-02-6.65849E-03-1.21261E-13
 -1       805 1.46083E-02-6.99497E-03-1.21395E-13
 -1       806 1.47667E-02-7.07239E-03-1.21583E-13
 -1       807 3.37401E-03-1.88832E-04-6.34453E-15
 -1       808 4.41978E-03-8.20374E-04-8.93305E-15
 -1       809 3.58049E-03-2.93898E-04-9.20540E-15
 -1       810 1.44323E-02-6.91103E-03-1.21380E-13
 -1       811 5.82582E-03-1.32183E-03-1.05467E-14
 -1       812 4.86236E-03-1.03825E-03-9.70338E-15
 -1       813 1.86537E-03 1.00924E-04-2.10068E-15
 -1       814 5.81340E-03-1.32507E-03-1.01552E-14
 -1       815 3.88540E-03-4.95062E-04-7.82970E-15
 -1       816 2.22074E-03 1.72423E-04-2.88028E-15
 -1       817 5.27316E-03-1.20340E-03-1.05026E-14
 -1       818 1.30411E-03 2.03391E-04-1.16598E-15
 -1       819 2.66938E-03 1.99200E-04-5.04748E-15
 -1       820 5.85029E-03-1.37750E-03-1.16976E-14
 -1       821 1.35521E-02-6.49115E-03-1.21083E-13
 -1       822 1.66122E-03 5.03003E-05-1.72934E-15
 -1       823 1.31847E-03 1.14184E-04-1.16994E-15
 -1       824 1.37275E-02-6.57482E-03-1.21184E-13
 -1       825 2.37414E-03 2.94322E-04-3.94599E-15
 -1       826 3.12964E-03-5.08205E-05-5.76743E-15
 -1       827 5.56911E-03-1.31945E-03-1.16482E-14
 -1       828 1.28721E-03-7.19845E-05-1.17675E-15
 -1       829 6.29045E-03-1.66850E-03-1.57255E-14
 -1       830 6.53095E-03-1.82965E-03-1.78639E-14
 -1       831 6.78636E-03-1.99975E-03-2.01195E-14
 -1       832 7.05203E-03-2.17559E-03-2.24923E-14
 -1       833 7.32467E-03-2.35485E-03-2.49840E-14
 -1       834 7.60194E-03-2.53596E-03-2.75879E-14
 -1       835 7.88227E-03-2.71793E-03-3.03018E-14
 -1       836 8.16458E-03-2.90018E-03-3.31312E-14
 -1       837 8.44816E-03-3.08236E-03-3.60736E-14
 -1       838 8.73256E-03-3.26431E-03-3.91198E-14
 -1       839 9.01747E-03-3.44596E-03-4.22705E-14
 -1       840 9.30270E-03-3.62729E-03-4.55194E-14
 -1       841 9.58814E-03-3.80832E-03-4.88607E-14
 -1       842 9.87370E-03-3.98909E-03-5.22865E-14
 -1       843 1.01593E-02-4.16963E-03-5.57905E-14
 -1       844 1.04307E-02-4.34096E-03-5.91942E-14
 -1       845 1.07165E-02-4.52116E-03-6.28629E-14
 -1       846 1.10022E-02-4.70123E-03-6.66045E-14
 -1       847 1.12879E-02-4.88120E-03-7.04182E-14
 -1       848 1.15737E-02-5.06110E-03-7.43022E-14
 -1       849 1.18594E-02-5.24094E-03-7.82584E-14
 -1       850 1.21451E-02-5.42073E-03-8.22752E-14
 -1       851 1.24309E-02-5.60050E-03-8.63463E-14
 -1       852 1.27166E-02-5.78024E-03-9.04612E-14
 -1       853 1.30023E-02-5.95997E-03-9.46203E-14
 -1       854 1.32881E-02-6.13969E-03-9.88300E-14
 -1       855 1.35738E-02-6.31940E-03-1.03088E-13
 -1       856 1.38595E-02-6.49911E-03-1.07387E-13
 -1       857 1.41452E-02-6.67882E-03-1.11730E-13
 -1       858 1.44309E-02-6.85852E-03-1.16111E-13
 -1       859 1.45988E-02-6.96546E-03-1.18840E-13
 -1       860 1.50350E-03 2.50131E-04-1.52313E-15
 -1       861 3.21904E-03-8.85082E-05-7.03263E-15
 -1       862 2.75937E-03 1.20744E-04-4.64704E-15
 -1       863 4.50779E-03-8.70864E-04-1.36823E-14
 -1       864 4.19030E-03-6.79722E-04-1.18276E-14
 -1       865 5.12152E-03-1.23882E-03-1.77654E-14
 -1       866 5.41905E-03-1.41805E-03-1.99851E-14
 -1       867 5.71209E-03-1.59570E-03-2.23213E-14
 -1       868 6.00195E-03-1.77259E-03-2.47755E-14
 -1       869 6.28970E-03-1.94924E-03-2.73466E-14
 -1       870 6.57615E-03-2.12597E-03-3.00354E-14
 -1       871 6.86186E-03-2.30295E-03-3.28384E-14
 -1       872 7.14721E-03-2.48025E-03-3.57505E-14
 -1       873 7.43244E-03-2.65789E-03-3.87652E-14
 -1       874 7.71766E-03-2.83587E-03-4.18873E-14
 -1       875 8.00294E-03-3.01416E-03-4.51147E-14
 -1       876 8.28831E-03-3.19272E-03-4.84444E-14
 -1       877 8.57376E-03-3.37152E-03-5.18715E-14
 -1       878 8.85929E-03-3.55052E-03-5.53902E-14
 -1       879 9.14489E-03-3.72968E-03-5.90018E-14
 -1       880 9.43054E-03-3.90897E-03-6.26977E-14
 -1       881 9.71622E-03-4.08838E-03-6.64621E-14
 -1       882 1.00019E-02-4.26787E-03-7.02928E-14
 -1       883 1.02876E-02-4.44742E-03-7.41871E-14
 -1       884 1.05734E-02-4.62702E-03-7.81388E-14
 -1       885 1.08591E-02-4.80666E-03-8.21453E-14
 -1       886 1.11449E-02-4.98633E-03-8.61986E-14
 -1       887 1.14306E-02-5.16601E-03-9.03030E-14
 -1       888 1.17163E-02-5.34571E-03-9.44577E-14
 -1       889 1.20021E-02-5.52542E-03-9.86491E-14
 -1       890 1.22878E-02-5.70514E-03-1.02876E-13
 -1       891 1.25735E-02-5.88486E-03-1.07143E-13
 -1       892 1.28592E-02-6.06457E-03-1.11442E-13
 -1       893 1.31450E-02-6.24429E-03-1.15771E-13
 -1       894 1.37438E-02-6.54501E-03-1.17493E-13
 -1       895 4.21696E-03-7.15766E-04-9.24822E-15
 -1       896 4.81813E-03-1.05688E-03-1.56620E-14
 -1       897 6.07133E-03-1.52027E-03-1.37030E-14
 -1       898 1.39206E-02-6.62931E-03-1.17528E-13
 -1       899 3.62246E-03-3.43821E-04-7.55262E-15
 -1       900 5.10841E-03-1.16829E-03-1.11227E-14
 -1       901 2.30162E-03 2.12169E-04-3.22816E-15
 -1       902 4.71113E-03-9.87573E-04-1.02928E-14
 -1       903 1.97065E-03 1.86920E-04-2.37873E-15
 -1       904 1.33203E-02-6.32796E-03-1.15866E-13
 -1       905 2.90388E-03 7.68252E-05-5.70564E-15
 -1       906 5.78620E-03-1.40110E-03-1.24977E-14
 -1       907 1.78533E-03 1.52196E-04-1.97922E-15
 -1       908 1.35321E-02-6.43649E-03-1.16687E-13
 -1       909 1.40965E-02-6.71325E-03-1.17552E-13
 -1       910 2.50391E-03 2.03303E-04-3.96441E-15
 -1       911 1.97865E-03 2.95143E-04-2.59534E-15
 -1       912 3.54064E-03-2.80273E-04-8.49906E-15
 -1       913 1.74356E-03 2.80748E-04-2.02089E-15
 -1       914 3.92829E-03-5.34278E-04-8.93620E-15
 -1       915 3.37444E-03-1.93263E-04-6.90952E-15
 -1       916 1.44404E-02-6.88803E-03-1.18659E-13
 -1       917 3.86708E-03-4.83769E-04-1.01002E-14
 -1       918 1.54912E-03 1.31729E-04-1.54703E-15
 -1       919 2.28905E-03 2.73475E-04-3.48639E-15
 -1       920 5.43394E-03-1.30550E-03-1.23013E-14
 -1       921 1.42685E-02-6.80064E-03-1.18110E-13
 -1       922 2.59543E-03 2.01030E-04-4.52219E-15
 -1       923 1.54188E-03 2.05355E-04-1.56706E-15
 -1       924 6.51545E-03-1.86269E-03-1.90739E-14
 -1       925 6.77456E-03-2.03015E-03-2.13857E-14
 -1       926 7.04180E-03-2.20334E-03-2.38161E-14
 -1       927 7.31483E-03-2.38020E-03-2.63596E-14
 -1       928 7.59191E-03-2.55926E-03-2.90126E-14
 -1       929 7.87180E-03-2.73955E-03-3.17816E-14
 -1       930 8.15360E-03-2.92045E-03-3.46618E-14
 -1       931 8.43671E-03-3.10156E-03-3.76514E-14
 -1       932 8.72071E-03-3.28267E-03-4.07465E-14
 -1       933 9.00530E-03-3.46366E-03-4.39441E-14
 -1       934 9.29030E-03-3.64449E-03-4.72384E-14
 -1       935 9.57556E-03-3.82512E-03-5.06166E-14
 -1       936 9.86100E-03-4.00558E-03-5.40792E-14
 -1       937 1.01323E-02-4.17687E-03-5.74420E-14
 -1       938 1.04179E-02-4.35705E-03-6.10667E-14
 -1       939 1.07036E-02-4.53711E-03-6.47738E-14
 -1       940 1.09893E-02-4.71708E-03-6.85556E-14
 -1       941 1.12751E-02-4.89697E-03-7.24060E-14
 -1       942 1.15608E-02-5.07682E-03-7.63280E-14
 -1       943 1.18465E-02-5.25662E-03-8.03139E-14
 -1       944 1.21323E-02-5.43639E-03-8.43572E-14
 -1       945 1.24180E-02-5.61614E-03-8.84496E-14
 -1       946 1.27038E-02-5.79587E-03-9.25852E-14
 -1       947 1.29895E-02-5.97559E-03-9.67688E-14
 -1       948 1.32752E-02-6.15531E-03-1.00999E-13
 -1       949 1.35610E-02-6.33502E-03-1.05273E-13
 -1       950 1.38467E-02-6.51473E-03-1.09586E-13
 -1       951 1.41324E-02-6.69443E-03-1.13938E-13
 -1       952 6.03500E-03-1.55624E-03-1.48005E-14
 -1       953 5.72983E-03-1.58724E-03-2.12280E-14
 -1       954 5.43566E-03-1.41285E-03-1.89453E-14
 -1       955 6.30713E-03-1.93631E-03-2.61426E-14
 -1       956 6.59291E-03-2.11177E-03-2.87747E-14
 -1       957 6.87788E-03-2.28793E-03-3.15196E-14
 -1       958 7.16252E-03-2.46476E-03-3.43762E-14
 -1       959 7.44711E-03-2.64216E-03-3.73413E-14
 -1       960 7.73180E-03-2.82004E-03-4.04101E-14
 -1       961 8.01666E-03-2.99830E-03-4.35859E-14
 -1       962 8.30170E-03-3.17689E-03-4.68641E-14
 -1       963 8.58692E-03-3.35572E-03-5.02371E-14
 -1       964 8.87228E-03-3.53476E-03-5.37055E-14
 -1       965 9.15775E-03-3.71397E-03-5.72691E-14
 -1       966 9.44332E-03-3.89330E-03-6.09208E-14
 -1       967 9.72895E-03-4.07272E-03-6.46512E-14
 -1       968 1.00146E-02-4.25223E-03-6.84471E-14
 -1       969 1.03003E-02-4.43180E-03-7.23049E-14
 -1       970 1.05861E-02-4.61141E-03-7.62257E-14
 -1       971 1.08718E-02-4.79105E-03-8.02076E-14
 -1       972 1.11576E-02-4.97072E-03-8.42428E-14
 -1       973 1.14433E-02-5.15040E-03-8.83208E-14
 -1       974 1.17290E-02-5.33010E-03-9.24470E-14
 -1       975 1.20148E-02-5.50981E-03-9.66216E-14
 -1       976 1.23005E-02-5.68952E-03-1.00833E-13
 -1       977 1.25863E-02-5.86924E-03-1.05081E-13
 -1       978 1.28720E-02-6.04895E-03-1.09364E-13
 -1       979 1.30962E-02-6.18846E-03-1.12606E-13
 -1       980 4.99004E-03-1.13353E-03-1.19058E-14
 -1       981 6.01981E-03-1.76154E-03-2.36270E-14
 -1       982 4.50805E-03-8.74776E-04-1.28061E-14
 -1       983 2.97613E-03 2.90260E-05-5.59706E-15
 -1       984 1.35848E-02-6.43153E-03-1.13731E-13
 -1       985 4.56312E-03-9.18721E-04-1.08738E-14
 -1       986 6.26757E-03-1.70367E-03-1.68802E-14
 -1       987 2.04910E-03 2.54948E-04-2.68770E-15
 -1       988 3.16022E-03-6.59437E-05-6.38265E-15
 -1       989 5.68118E-03-1.40285E-03-1.31799E-14
 -1       990 4.17841E-03-6.82425E-04-1.10089E-14
 -1       991 1.33730E-02-6.32300E-03-1.12945E-13
 -1       992 1.78947E-03 2.40110E-04-2.07154E-15
 -1       993 3.67630E-03-3.75989E-04-8.23197E-15
 -1       994 5.13538E-03-1.23731E-03-1.67780E-14
 -1       995 5.32212E-03-1.28689E-03-1.31260E-14
 -1       996 4.28170E-03-7.55947E-04-1.05314E-14
 -1       997 4.82682E-03-1.05881E-03-1.47302E-14
 -1       998 1.37607E-02-6.51547E-03-1.13757E-13
 -1       999 7.17852E-03-2.44891E-03-3.30077E-14
 -1      1000 1.32346E-02-6.25573E-03-1.12781E-13
 -1      1001 3.49712E-03-2.62391E-04-7.79015E-15
 -1      1002 6.48945E-03-1.88915E-03-2.02853E-14
 -1      1003 6.75496E-03-2.05587E-03-2.26520E-14
 -1      1004 7.02588E-03-2.22783E-03-2.51367E-14
 -1      1005 7.30090E-03-2.40331E-03-2.77329E-14
 -1      1006 7.57898E-03-2.58105E-03-3.04396E-14
 -1      1007 7.85930E-03-2.76015E-03-3.32573E-14
 -1      1008 8.14124E-03-2.94002E-03-3.61876E-14
 -1      1009 8.42433E-03-3.12028E-03-3.92277E-14
 -1      1010 8.70825E-03-3.30070E-03-4.23713E-14
 -1      1011 8.99275E-03-3.48113E-03-4.56144E-14
 -1      1012 9.27766E-03-3.66150E-03-4.89452E-14
 -1      1013 9.56285E-03-3.84179E-03-5.23634E-14
 -1      1014 9.83397E-03-4.01297E-03-5.56920E-14
 -1      1015 1.01195E-02-4.19306E-03-5.92747E-14
 -1      1016 1.04051E-02-4.37307E-03-6.29465E-14
 -1      1017 1.06908E-02-4.55301E-03-6.66937E-14
 -1      1018 1.09765E-02-4.73289E-03-7.05126E-14
 -1      1019 1.12622E-02-4.91272E-03-7.43992E-14
 -1      1020 1.15480E-02-5.09251E-03-7.83540E-14
 -1      1021 1.18337E-02-5.27228E-03-8.23674E-14
 -1      1022 1.21195E-02-5.45203E-03-8.64350E-14
 -1      1023 1.24052E-02-5.63177E-03-9.05456E-14
 -1      1024 1.26910E-02-5.81149E-03-9.47049E-14
 -1      1025 1.29767E-02-5.99121E-03-9.89112E-14
 -1      1026 1.32625E-02-6.17092E-03-1.03160E-13
 -1      1027 1.35482E-02-6.35063E-03-1.07441E-13
 -1      1028 1.38339E-02-6.53034E-03-1.11766E-13
 -1      1029 6.89490E-03-2.27270E-03-3.02080E-14
 -1      1030 6.61113E-03-2.09762E-03-2.75193E-14
 -1      1031 7.46228E-03-2.62602E-03-3.59178E-14
 -1      1032 7.74630E-03-2.80379E-03-3.89377E-14
 -1      1033 8.03065E-03-2.98208E-03-4.20612E-14
 -1      1034 8.31530E-03-3.16074E-03-4.52884E-14
 -1      1035 8.60022E-03-3.33967E-03-4.86134E-14
 -1      1036 8.88537E-03-3.51881E-03-5.20316E-14
 -1      1037 9.17070E-03-3.69810E-03-5.55419E-14
 -1      1038 9.45617E-03-3.87750E-03-5.91455E-14
 -1      1039 9.74173E-03-4.05698E-03-6.28379E-14
 -1      1040 1.00274E-02-4.23653E-03-6.65994E-14
 -1      1041 1.03131E-02-4.41613E-03-7.04227E-14
 -1      1042 1.05988E-02-4.59576E-03-7.43086E-14
 -1      1043 1.08845E-02-4.77542E-03-7.82628E-14
 -1      1044 1.11703E-02-4.95510E-03-8.22730E-14
 -1      1045 1.14560E-02-5.13479E-03-8.63298E-14
 -1      1046 1.17418E-02-5.31449E-03-9.04336E-14
 -1      1047 1.20275E-02-5.49420E-03-9.45839E-14
 -1      1048 1.23133E-02-5.67391E-03-9.87777E-14
 -1      1049 1.25990E-02-5.85362E-03-1.03009E-13
 -1      1050 1.28847E-02-6.03334E-03-1.07276E-13
 -1      1051 5.98042E-03-1.58025E-03-1.58991E-14
 -1      1052 6.04067E-03-1.75180E-03-2.24808E-14
 -1      1053 6.32668E-03-1.92393E-03-2.49415E-14
 -1      1054 2.74531E-03 1.35278E-04-4.89439E-15
 -1      1055 4.88262E-03-1.08760E-03-1.26646E-14
 -1      1056 3.83984E-03-4.80805E-04-9.33680E-15
 -1      1057 6.23078E-03-1.72982E-03-1.80341E-14
 -1      1058 5.75172E-03-1.58117E-03-2.01348E-14
 -1      1059 4.84366E-03-1.06784E-03-1.38009E-14
 -1      1060 1.32651E-02-6.23838E-03-1.09664E-13
 -1      1061 5.45782E-03-1.41149E-03-1.79051E-14
 -1      1062 1.34411E-02-6.32232E-03-1.09687E-13
 -1      1063 1.30597E-02-6.14453E-03-1.10021E-13
 -1      1064 5.20993E-03-1.25239E-03-1.39278E-14
 -1      1065 5.15625E-03-1.24134E-03-1.57923E-14
 -1      1066 5.58262E-03-1.39934E-03-1.40402E-14
 -1      1067 6.19134E-03-1.74806E-03-1.91898E-14
 -1      1068 4.51680E-03-8.86710E-04-1.19327E-14
 -1      1069 6.34905E-03-1.91169E-03-2.37417E-14
 -1      1070 6.46018E-03-1.90969E-03-2.14953E-14
 -1      1071 6.73222E-03-2.07726E-03-2.39185E-14
 -1      1072 7.00723E-03-2.24920E-03-2.64573E-14
 -1      1073 7.28476E-03-2.42421E-03-2.91054E-14
 -1      1074 7.56433E-03-2.60126E-03-3.18625E-14
 -1      1075 7.84552E-03-2.77964E-03-3.47326E-14
 -1      1076 8.12794E-03-2.95881E-03-3.77146E-14
 -1      1077 8.41129E-03-3.13844E-03-4.08027E-14
 -1      1078 8.69534E-03-3.31832E-03-4.39929E-14
 -1      1079 8.97990E-03-3.49829E-03-4.72775E-14
 -1      1080 9.26484E-03-3.67830E-03-5.06516E-14
 -1      1081 9.53577E-03-3.84929E-03-5.39364E-14
 -1      1082 9.82116E-03-4.02924E-03-5.74838E-14
 -1      1083 1.01067E-02-4.20915E-03-6.11203E-14
 -1      1084 1.03923E-02-4.38902E-03-6.48335E-14
 -1      1085 1.06780E-02-4.56885E-03-6.86193E-14
 -1      1086 1.09637E-02-4.74866E-03-7.24713E-14
 -1      1087 1.12494E-02-4.92843E-03-7.63924E-14
 -1      1088 1.15352E-02-5.10819E-03-8.03750E-14
 -1      1089 1.18209E-02-5.28793E-03-8.44160E-14
 -1      1090 1.21067E-02-5.46766E-03-8.85063E-14
 -1      1091 1.23924E-02-5.64739E-03-9.26372E-14
 -1      1092 1.26782E-02-5.82710E-03-9.68193E-14
 -1      1093 1.29639E-02-6.00682E-03-1.01044E-13
 -1      1094 1.32497E-02-6.18653E-03-1.05299E-13
 -1      1095 6.63115E-03-2.08321E-03-2.62639E-14
 -1      1096 7.76107E-03-2.78703E-03-3.74663E-14
 -1      1097 7.19521E-03-2.43250E-03-3.16446E-14
 -1      1098 5.92538E-03-1.59390E-03-1.69992E-14
 -1      1099 6.91305E-03-2.25698E-03-2.88992E-14
 -1      1100 8.04481E-03-2.96539E-03-4.05396E-14
 -1      1101 8.32902E-03-3.14420E-03-4.37185E-14
 -1      1102 8.61362E-03-3.32330E-03-4.69954E-14
 -1      1103 8.89854E-03-3.50260E-03-5.03655E-14
 -1      1104 9.18371E-03-3.68203E-03-5.38262E-14
 -1      1105 9.46906E-03-3.86155E-03-5.73778E-14
 -1      1106 9.75456E-03-4.04113E-03-6.10234E-14
 -1      1107 1.00401E-02-4.22076E-03-6.47495E-14
 -1      1108 1.03258E-02-4.40041E-03-6.85377E-14
 -1      1109 1.06115E-02-4.58008E-03-7.23909E-14
 -1      1110 1.08972E-02-4.75977E-03-7.63081E-14
 -1      1111 1.11830E-02-4.93946E-03-8.02912E-14
 -1      1112 1.14687E-02-5.11917E-03-8.43282E-14
 -1      1113 1.17545E-02-5.29887E-03-8.84088E-14
 -1      1114 1.20402E-02-5.47858E-03-9.25397E-14
 -1      1115 1.23260E-02-5.65830E-03-9.67147E-14
 -1      1116 1.26117E-02-5.83801E-03-1.00930E-13
 -1      1117 1.28975E-02-6.01772E-03-1.05179E-13
 -1      1118 7.47787E-03-2.60930E-03-3.45001E-14
 -1      1119 5.18950E-03-1.25102E-03-1.48098E-14
 -1      1120 6.06587E-03-1.74290E-03-2.13330E-14
 -1      1121 5.47298E-03-1.37717E-03-1.48800E-14
 -1      1122 1.30736E-02-6.10213E-03-1.05246E-13
 -1      1123 5.48908E-03-1.41362E-03-1.68674E-14
 -1      1124 5.78005E-03-1.57705E-03-1.90418E-14
 -1      1125 6.43181E-03-1.92601E-03-2.27066E-14
 -1      1126 6.70923E-03-2.09536E-03-2.51827E-14
 -1      1127 6.98785E-03-2.26808E-03-2.77739E-14
 -1      1128 7.26775E-03-2.44323E-03-3.04748E-14
 -1      1129 7.54887E-03-2.62010E-03-3.32851E-14
 -1      1130 7.83105E-03-2.79810E-03-3.62074E-14
 -1      1131 8.11409E-03-2.97684E-03-3.92390E-14
 -1      1132 8.39784E-03-3.15604E-03-4.23754E-14
 -1      1133 8.68214E-03-3.33551E-03-4.56113E-14
 -1      1134 8.96686E-03-3.51514E-03-4.89417E-14
 -1      1135 9.23763E-03-3.68586E-03-5.21842E-14
 -1      1136 9.52289E-03-3.86561E-03-5.56879E-14
 -1      1137 9.80832E-03-4.04537E-03-5.92875E-14
 -1      1138 1.00939E-02-4.22514E-03-6.29703E-14
 -1      1139 1.03795E-02-4.40489E-03-6.67245E-14
 -1      1140 1.06652E-02-4.58464E-03-7.05442E-14
 -1      1141 1.09509E-02-4.76438E-03-7.44298E-14
 -1      1142 1.12367E-02-4.94412E-03-7.83807E-14
 -1      1143 1.15224E-02-5.12384E-03-8.23934E-14
 -1      1144 1.18082E-02-5.30357E-03-8.64599E-14
 -1      1145 1.20939E-02-5.48329E-03-9.05666E-14
 -1      1146 1.23797E-02-5.66300E-03-9.47222E-14
 -1      1147 1.26654E-02-5.84272E-03-9.89215E-14
 -1      1148 5.87800E-03-1.60131E-03-1.80994E-14
 -1      1149 5.47626E-03-1.39424E-03-1.58666E-14
 -1      1150 6.15510E-03-1.76103E-03-2.03445E-14
 -1      1151 0.00000E+00 0.00000E+00 0.00000E+00
 -1      1152 0.00000E+00 0.00000E+00 0.00000E+00
 -1      1153 0.00000E+00 0.00000E+00 0.00000E+00
 -1      1154 0.00000E+00 0.00000E+00 0.00000E+00
 -1      1155 0.00000E+00 0.00000E+00 0.00000E+00
 -1      1156 0.00000E+00 0.00000E+00 0.00000E+00
 -1      1157 0.00000E+00 0.00000E+00 0.00000E+00
 -1      1158 0.00000E+00 0.00000E+00 0.00000E+00
 -1      1159 0.00000E+00 0.00000E+00 0.00000E+00
 -1      1160 0.00000E+00 0.00000E+00 0.00000E+00
 -1      1161 0.00000E+00 0.00000E+00 0.00000E+00
 -1      1162 0.00000E+00 0.00000E+00 0.00000E+00
 -1      1163 0.00000E+00 0.00000E+00 0.00000E+00
 -1      1164 0.00000E+00 0.00000E+00 0.00000E+00
 -1      1165 0.00000E+00 0.00000E+00 0.00000E+00
 -1      1166 0.00000E+00 0.00000E+00 0.00000E+00
 -1      1167 0.00000E+00 0.00000E+00 0.00000E+00
 -1      1168 2.44071E-04-1.34310E-04 2.60480E-17
 -1      1169 6.97218E-04-2.94873E-04 2.50993E-17
 -1      1170 1.14339E-03-4.34766E-04-6.45778E-17
 -1      1171 1.62454E-03-6.10517E-04-2.62323E-16
 -1      1172 2.14597E-03-8.80336E-04-5.71076E-16
 -1      1173 2.67865E-03-1.29049E-03-1.00088E-15
 -1      1174 3.12559E-03-1.78476E-03-1.54056E-15
 -1      1175 3.42037E-03-2.19511E-03-2.15530E-15
 -1      1176 3.62070E-03-2.40785E-03-2.89493E-15
 -1      1177 3.82333E-03-2.36529E-03-3.78464E-15
 -1      1178 4.11181E-03-2.14513E-03-4.81673E-15
 -1      1179 4.53346E-03-1.87633E-03-6.08850E-15
 -1      1180 5.04849E-03-1.69178E-03-7.60638E-15
 -1      1181 5.56437E-03-1.64931E-03-9.29741E-15
 -1      1182 6.03266E-03-1.71672E-03-1.11098E-14
 -1      1183 6.45044E-03-1.84764E-03-1.30405E-14
 -1      1184 6.81810E-03-2.00658E-03-1.50380E-14
 -1      1185 7.15704E-03-2.17996E-03-1.71494E-14
 -1      1186 7.48396E-03-2.36422E-03-1.94299E-14
 -1      1187 7.79674E-03-2.55068E-03-2.18211E-14
 -1      1188 8.10013E-03-2.73739E-03-2.43275E-14
 -1      1189 8.39735E-03-2.92353E-03-2.69571E-14
 -1      1190 8.69049E-03-3.10883E-03-2.96979E-14
 -1      1191 8.98095E-03-3.29324E-03-3.25611E-14
 -1      1192 9.26963E-03-3.47682E-03-3.55437E-14
 -1      1193 9.55715E-03-3.65968E-03-3.86294E-14
 -1      1194 9.84390E-03-3.84192E-03-4.18110E-14
 -1      1195 1.01301E-02-4.02365E-03-4.50855E-14
 -1      1196 1.04161E-02-4.20495E-03-4.84597E-14
 -1      1197 1.07018E-02-4.38590E-03-5.19366E-14
 -1      1198 1.09874E-02-4.56657E-03-5.54964E-14
 -1      1199 1.12730E-02-4.74701E-03-5.91173E-14
 -1      1200 1.15585E-02-4.92727E-03-6.28092E-14
 -1      1201 1.18369E-02-5.10289E-03-6.64806E-14
 -1      1202 1.21153E-02-5.27840E-03-7.02323E-14
 -1      1203 1.24008E-02-5.45833E-03-7.41470E-14
 -1      1204 1.26864E-02-5.63820E-03-7.81053E-14
 -1      1205 1.29720E-02-5.81801E-03-8.21110E-14
 -1      1206 1.32576E-02-5.99779E-03-8.61820E-14
 -1      1207 1.35433E-02-6.17754E-03-9.03129E-14
 -1      1208 1.38289E-02-6.35728E-03-9.44802E-14
 -1      1209 1.41146E-02-6.53700E-03-9.87003E-14
 -1      1210 1.44002E-02-6.71672E-03-1.02974E-13
 -1      1211 1.46859E-02-6.89643E-03-1.07285E-13
 -1      1212 1.49716E-02-7.07614E-03-1.11660E-13
 -1      1213 1.52573E-02-7.25585E-03-1.16105E-13
 -1      1214 1.55430E-02-7.43556E-03-1.20596E-13
 -1      1215 1.58287E-02-7.61527E-03-1.25117E-13
 -1      1216 1.61145E-02-7.79498E-03-1.29664E-13
 -1      1217 1.64002E-02-7.97469E-03-1.34233E-13
 -1      1218 1.66787E-02-8.14991E-03-1.38713E-13
 -1      1219 2.35059E-04 1.71130E-04 2.87314E-17
 -1      1220 5.61310E-04 3.71250E-04 9.75782E-19
 -1      1221 8.32958E-04 5.04157E-04-1.45907E-16
 -1      1222 1.08483E-03 5.92098E-04-4.29859E-16
 -1      1223 1.32288E-03 6.46018E-04-8.54900E-16
 -1      1224 1.55019E-03 6.68964E-04-1.42179E-15
 -1      1225 1.76944E-03 6.60236E-04-2.13246E-15
 -1      1226 1.98403E-03 6.18199E-04-2.98667E-15
 -1      1227 2.19828E-03 5.42186E-04-3.98724E-15
 -1      1228 2.41688E-03 4.33662E-04-5.13114E-15
 -1      1229 2.64404E-03 2.96527E-04-6.41886E-15
 -1      1230 2.88265E-03 1.36614E-04-7.84938E-15
 -1      1231 3.13386E-03-3.93300E-05-9.42191E-15
 -1      1232 3.39731E-03-2.24672E-04-1.11281E-14
 -1      1233 3.67033E-03-4.13734E-04-1.29610E-14
 -1      1234 3.95017E-03-6.03371E-04-1.49262E-14
 -1      1235 4.23516E-03-7.91994E-04-1.70184E-14
 -1      1236 4.52327E-03-9.78610E-04-1.92345E-14
 -1      1237 4.81296E-03-1.16299E-03-2.15665E-14
 -1      1238 5.10312E-03-1.34535E-03-2.40149E-14
 -1      1239 5.39310E-03-1.52609E-03-2.65778E-14
 -1      1240 5.68251E-03-1.70568E-03-2.92602E-14
 -1      1241 5.97123E-03-1.88452E-03-3.20640E-14
 -1      1242 6.25924E-03-2.06295E-03-3.49946E-14
 -1      1243 6.54661E-03-2.24121E-03-3.80434E-14
 -1      1244 6.83346E-03-2.41948E-03-4.11959E-14
 -1      1245 7.11989E-03-2.59784E-03-4.44571E-14
 -1      1246 7.40600E-03-2.77637E-03-4.78246E-14
 -1      1247 7.69190E-03-2.95508E-03-5.12855E-14
 -1      1248 7.97764E-03-3.13396E-03-5.48387E-14
 -1      1249 8.26329E-03-3.31301E-03-5.84741E-14
 -1      1250 8.54889E-03-3.49220E-03-6.21904E-14
 -1      1251 8.83446E-03-3.67152E-03-6.59767E-14
 -1      1252 9.12002E-03-3.85094E-03-6.98366E-14
 -1      1253 9.40559E-03-4.03044E-03-7.37585E-14
 -1      1254 9.69118E-03-4.21000E-03-7.77403E-14
 -1      1255 9.97678E-03-4.38961E-03-8.17760E-14
 -1      1256 1.02624E-02-4.56925E-03-8.58453E-14
 -1      1257 1.05480E-02-4.74892E-03-8.99508E-14
 -1      1258 1.08337E-02-4.92861E-03-9.41004E-14
 -1      1259 1.11193E-02-5.10831E-03-9.82925E-14
 -1      1260 1.14050E-02-5.28802E-03-1.02524E-13
 -1      1261 1.16907E-02-5.46774E-03-1.06783E-13
 -1      1262 1.19764E-02-5.64746E-03-1.11079E-13
 -1      1263 1.22621E-02-5.82718E-03-1.15418E-13
 -1      1264 1.25478E-02-6.00689E-03-1.19777E-13
 -1      1265 1.28335E-02-6.18661E-03-1.24150E-13
 -1      1266 1.31192E-02-6.36633E-03-1.28532E-13
 -1      1267 1.34049E-02-6.54604E-03-1.32918E-13
 -1      1268 1.36835E-02-6.72126E-03-1.37205E-13
 -1      1269 1.39076E-02-6.84876E-03-1.39354E-13
 -1      1270 1.40843E-02-6.93305E-03-1.39533E-13
 -1      1271 1.42610E-02-7.01733E-03-1.39723E-13
 -1      1272 1.44377E-02-7.10162E-03-1.39904E-13
 -1      1273 1.46144E-02-7.18591E-03-1.40070E-13
 -1      1274 1.47896E-02-7.26949E-03-1.40239E-13
 -1      1275 1.49649E-02-7.35307E-03-1.40427E-13
 -1      1276 1.51416E-02-7.43737E-03-1.40589E-13
 -1      1277 1.53183E-02-7.52166E-03-1.40725E-13
 -1      1278 1.54950E-02-7.60596E-03-1.40824E-13
 -1      1279 1.56717E-02-7.69026E-03-1.40884E-13
 -1      1280 1.58470E-02-7.77384E-03-1.40939E-13
 -1      1281 1.60222E-02-7.85742E-03-1.40980E-13
 -1      1282 1.61989E-02-7.94171E-03-1.40975E-13
 -1      1283 1.63756E-02-8.02599E-03-1.40959E-13
 -1      1284 1.65524E-02-8.11028E-03-1.40941E-13
 -1      1285 1.67276E-02-8.19385E-03-1.40930E-13
 -1      1286 5.56441E-03-9.61720E-04-6.48289E-15
 -1      1287 5.34895E-03-7.93271E-04-6.39504E-15
 -1      1288 5.03240E-03-6.15513E-04-6.16911E-15
 -1      1289 4.63876E-03-4.31776E-04-5.82577E-15
 -1      1290 4.20725E-03-2.62523E-04-5.40231E-15
 -1      1291 3.73400E-03-1.13680E-04-4.89165E-15
 -1      1292 3.24831E-03-3.90781E-06-4.34022E-15
 -1      1293 2.77787E-03 5.05282E-05-3.80154E-15
 -1      1294 2.32206E-03 5.42479E-05-3.28706E-15
 -1      1295 1.90084E-03 1.25434E-05-2.82901E-15
 -1      1296 1.50995E-03-6.33906E-05-2.42509E-15
 -1      1297 1.16776E-03-1.61327E-04-2.08820E-15
 -1      1298 9.03491E-04-2.67652E-04-1.83473E-15
 -1      1299 7.24177E-04-3.85247E-04-1.65578E-15
 -1      1300 6.49295E-04-5.15356E-04-1.55816E-15
 -1      1301 6.93800E-04-6.71342E-04-1.54111E-15
 -1      1302 8.65173E-04-8.67052E-04-1.60827E-15
 -1      1303 1.15078E-03-1.10054E-03-1.75631E-15
 -1      1304 1.53164E-03-1.36925E-03-1.98273E-15
 -1      1305 1.98321E-03-1.65089E-03-2.28260E-15
 -1      1306 2.48059E-03-1.90628E-03-2.65036E-15
 -1      1307 3.01262E-03-2.09186E-03-3.08805E-15
 -1      1308 3.55218E-03-2.16693E-03-3.57884E-15
 -1      1309 4.05641E-03-2.12237E-03-4.08465E-15
 -1      1310 4.52527E-03-1.98720E-03-4.60322E-15
 -1      1311 4.93410E-03-1.80552E-03-5.10724E-15
 -1      1312 5.27237E-03-1.61032E-03-5.58144E-15
 -1      1313 5.51104E-03-1.42730E-03-5.97863E-15
 -1      1314 5.63750E-03-1.26798E-03-6.25837E-15
 -1      1315 5.65886E-03-1.11864E-03-6.42821E-15
 -1      1316 2.00973E-04-8.40498E-05 1.01508E-17
 -1      1317 1.30077E-04-2.00824E-05-1.36745E-17
 -1      1318 1.44188E-04-3.47566E-05-7.10152E-18
 -1      1319 1.06073E-04-8.36468E-06-2.49366E-17
 -1      1320 1.17335E-04-1.19800E-05-2.10064E-17
 -1      1321 2.51218E-04-4.26459E-05-4.86400E-17
 -1      1322 8.88336E-05-1.25023E-05-3.21195E-17
 -1      1323 9.65628E-05-9.85590E-06-2.97885E-17
 -1      1324 2.02100E-04-2.81359E-05-6.99310E-17
 -1      1325 8.02493E-05-2.44873E-05-3.66460E-17
 -1      1326 8.34666E-05-1.92724E-05-3.54534E-17
 -1      1327 1.69076E-04-3.83831E-05-8.40934E-17
 -1      1328 8.04739E-05-3.60192E-05-3.95192E-17
 -1      1329 7.94809E-05-3.18767E-05-3.89906E-17
 -1      1330 1.56189E-04-5.88246E-05-9.33634E-17
 -1      1331 8.70578E-05-4.12823E-05-4.14572E-17
 -1      1332 8.32998E-05-4.04790E-05-4.13623E-17
 -1      1333 1.61866E-04-7.54120E-05-9.96111E-17
 -1      1334 9.61888E-05-3.77073E-05-4.24872E-17
 -1      1335 9.16184E-05-4.08432E-05-4.25820E-17
 -1      1336 1.79388E-04-7.86263E-05-1.03650E-16
 -1      1337 1.04511E-04-2.67520E-05-4.31512E-17
 -1      1338 1.00618E-04-3.28429E-05-4.32326E-17
 -1      1339 1.99833E-04-6.61812E-05-1.06184E-16
 -1      1340 1.10294E-04-1.16004E-05-4.34087E-17
 -1      1341 1.07754E-04-1.91471E-05-4.35307E-17
 -1      1342 2.16660E-04-4.19524E-05-1.07715E-16
 -1      1343 1.13236E-04 4.71235E-06-4.31648E-17
 -1      1344 1.12057E-04-3.05103E-06-4.34630E-17
 -1      1345 2.27169E-04-1.18708E-05-1.08095E-16
 -1      1346 1.13924E-04 2.00300E-05-4.18502E-17
 -1      1347 1.13751E-04 1.28521E-05-4.23245E-17
 -1      1348 2.31604E-04 1.88801E-05-1.06713E-16
 -1      1349 1.13279E-04 3.41498E-05-3.93836E-17
 -1      1350 1.13626E-04 2.74929E-05-4.03459E-17
 -1      1351 2.31751E-04 4.78583E-05-1.03108E-16
 -1      1352 1.12354E-04 4.69981E-05-3.50875E-17
 -1      1353 1.12617E-04 4.07596E-05-3.68764E-17
 -1      1354 2.29682E-04 7.46096E-05-9.65753E-17
 -1      1355 1.12657E-04 5.97848E-05-2.73354E-17
 -1      1356 1.11875E-04 5.32113E-05-3.08049E-17
 -1      1357 2.27814E-04 9.99625E-05-8.51912E-17
 -1      1358 1.17882E-04 7.63873E-05-1.35119E-17
 -1      1359 1.13592E-04 6.69941E-05-2.01933E-17
 -1      1360 2.30024E-04 1.27510E-04-6.56755E-17
 -1      1361 1.59973E-04 1.18537E-04 8.71427E-18
 -1      1362 1.36574E-04 9.51390E-05-5.33970E-18
 -1      1363 2.57332E-04 1.70378E-04-4.11861E-17
 -1      1364 3.38856E-04 2.39958E-04-4.68917E-18
 -1      1365 5.27613E-04-2.06108E-04 2.43945E-19
 -1      1366 7.42935E-04-2.75018E-04-2.62784E-17
 -1      1367 9.59180E-04-3.42213E-04-7.91603E-17
 -1      1368 1.17949E-03-4.13880E-04-1.58090E-16
 -1      1369 7.79232E-04-2.54957E-04-8.77255E-17
 -1      1370 1.40538E-03-4.98168E-04-2.62187E-16
 -1      1371 1.63778E-03-6.01380E-04-3.93823E-16
 -1      1372 1.19263E-03-3.97838E-04-2.57783E-16
 -1      1373 1.87727E-03-7.32007E-04-5.52930E-16
 -1      1374 2.12172E-03-8.97326E-04-7.42109E-16
 -1      1375 1.62256E-03-6.01405E-04-5.31693E-16
 -1      1376 2.36963E-03-1.10205E-03-9.62406E-16
 -1      1377 2.61335E-03-1.34526E-03-1.21847E-15
 -1      1378 2.07938E-03-9.26931E-04-9.20162E-16
 -1      1379 2.82656E-03-1.58875E-03-1.48177E-15
 -1      1380 3.02543E-03-1.83714E-03-1.77760E-15
 -1      1381 2.53591E-03-1.38330E-03-1.41364E-15
 -1      1382 3.51223E-03-2.35540E-03-2.79932E-15
 -1      1383 3.65220E-03-2.39851E-03-3.22317E-15
 -1      1384 3.78700E-03-2.37032E-03-3.65493E-15
 -1      1385 3.93327E-03-2.28995E-03-4.12039E-15
 -1      1386 3.70684E-03-2.35730E-03-3.52152E-15
 -1      1387 4.10309E-03-2.16552E-03-4.64910E-15
 -1      1388 4.28787E-03-2.02610E-03-5.21492E-15
 -1      1389 4.06062E-03-2.18454E-03-4.48280E-15
 -1      1390 4.50992E-03-1.87612E-03-5.88373E-15
 -1      1391 4.74067E-03-1.75121E-03-6.59024E-15
 -1      1392 4.47806E-03-1.88502E-03-5.68080E-15
 -1      1393 4.98698E-03-1.65910E-03-7.37024E-15
 -1      1394 5.23081E-03-1.60698E-03-8.18318E-15
 -1      1395 4.94097E-03-1.63705E-03-7.13446E-15
 -1      1396 5.46792E-03-1.59235E-03-9.03035E-15
 -1      1397 5.69614E-03-1.60798E-03-9.90935E-15
 -1      1398 5.39606E-03-1.54297E-03-8.76675E-15
 -1      1399 5.91442E-03-1.64701E-03-1.08175E-14
 -1      1400 6.12262E-03-1.70372E-03-1.17553E-14
 -1      1401 5.81880E-03-1.58147E-03-1.05263E-14
 -1      1402 6.32141E-03-1.77279E-03-1.27235E-14
 -1      1403 6.51144E-03-1.85083E-03-1.37212E-14
 -1      1404 6.20935E-03-1.69980E-03-1.24069E-14
 -1      1405 6.68493E-03-1.93049E-03-1.46966E-14
 -1      1406 6.85232E-03-2.01384E-03-1.56988E-14
 -1      1407 6.56343E-03-1.85501E-03-1.43564E-14
 -1      1408 7.02294E-03-2.10423E-03-1.67828E-14
 -1      1409 7.18866E-03-2.19629E-03-1.78948E-14
 -1      1410 6.89648E-03-2.02853E-03-1.64164E-14
 -1      1411 7.35033E-03-2.28940E-03-1.90353E-14
 -1      1412 7.50859E-03-2.38299E-03-2.02059E-14
 -1      1413 7.22153E-03-2.21439E-03-1.86429E-14
 -1      1414 7.66407E-03-2.47685E-03-2.14019E-14
 -1      1415 7.81723E-03-2.57067E-03-2.26274E-14
 -1      1416 7.53443E-03-2.40277E-03-2.09844E-14
 -1      1417 7.96850E-03-2.66443E-03-2.38838E-14
 -1      1418 8.11820E-03-2.75796E-03-2.51703E-14
 -1      1419 7.83875E-03-2.59124E-03-2.34399E-14
 -1      1420 8.26664E-03-2.85129E-03-2.64858E-14
 -1      1421 8.41403E-03-2.94433E-03-2.78306E-14
 -1      1422 8.13711E-03-2.77884E-03-2.60161E-14
 -1      1423 8.56056E-03-3.03715E-03-2.92031E-14
 -1      1424 8.70639E-03-3.12968E-03-3.06048E-14
 -1      1425 8.43136E-03-2.96530E-03-2.87076E-14
 -1      1426 8.85165E-03-3.22199E-03-3.20380E-14
 -1      1427 8.99643E-03-3.31405E-03-3.35012E-14
 -1      1428 8.72280E-03-3.15061E-03-3.15171E-14
 -1      1429 9.14083E-03-3.40591E-03-3.49908E-14
 -1      1430 9.28491E-03-3.49755E-03-3.65070E-14
 -1      1431 9.01230E-03-3.33489E-03-3.44401E-14
 -1      1432 9.42874E-03-3.58902E-03-3.80509E-14
 -1      1433 9.57235E-03-3.68031E-03-3.96184E-14
 -1      1434 9.30049E-03-3.51828E-03-3.74744E-14
 -1      1435 9.71579E-03-3.77146E-03-4.12091E-14
 -1      1436 9.85909E-03-3.86246E-03-4.28247E-14
 -1      1437 9.58777E-03-3.70093E-03-4.06100E-14
 -1      1438 1.00023E-02-3.95333E-03-4.44637E-14
 -1      1439 1.01454E-02-4.04409E-03-4.61249E-14
 -1      1440 9.87445E-03-3.88297E-03-4.38409E-14
 -1      1441 1.02884E-02-4.13475E-03-4.78135E-14
 -1      1442 1.04314E-02-4.22531E-03-4.95277E-14
 -1      1443 1.01607E-02-4.06451E-03-4.71690E-14
 -1      1444 1.05743E-02-4.31579E-03-5.12648E-14
 -1      1445 1.07171E-02-4.40619E-03-5.30238E-14
 -1      1446 1.04467E-02-4.24565E-03-5.05949E-14
 -1      1447 1.08600E-02-4.49652E-03-5.48015E-14
 -1      1448 1.10028E-02-4.58679E-03-5.65976E-14
 -1      1449 1.07325E-02-4.42645E-03-5.41102E-14
 -1      1450 1.11456E-02-4.67701E-03-5.84093E-14
 -1      1451 1.12884E-02-4.76718E-03-6.02363E-14
 -1      1452 1.10183E-02-4.60700E-03-5.76993E-14
 -1      1453 1.14312E-02-4.85731E-03-6.20811E-14
 -1      1454 1.15740E-02-4.94740E-03-6.39477E-14
 -1      1455 1.13039E-02-4.78734E-03-6.13571E-14
 -1      1456 1.17097E-02-5.03296E-03-6.57366E-14
 -1      1457 1.18453E-02-5.11849E-03-6.75416E-14
 -1      1458 1.15824E-02-4.96302E-03-6.49905E-14
 -1      1459 1.19881E-02-5.20849E-03-6.94636E-14
 -1      1460 1.21309E-02-5.29847E-03-7.14052E-14
 -1      1461 1.18609E-02-5.13857E-03-6.86986E-14
 -1      1462 1.22737E-02-5.38844E-03-7.33595E-14
 -1      1463 1.24165E-02-5.47838E-03-7.53256E-14
 -1      1464 1.21465E-02-5.31853E-03-7.25740E-14
 -1      1465 1.25592E-02-5.56831E-03-7.73052E-14
 -1      1466 1.27021E-02-5.65823E-03-7.92989E-14
 -1      1467 1.24321E-02-5.49842E-03-7.65076E-14
 -1      1468 1.28449E-02-5.74813E-03-8.13055E-14
 -1      1469 1.29877E-02-5.83803E-03-8.33235E-14
 -1      1470 1.27177E-02-5.67825E-03-8.04972E-14
 -1      1471 1.31305E-02-5.92792E-03-8.53612E-14
 -1      1472 1.32733E-02-6.01780E-03-8.74161E-14
 -1      1473 1.30033E-02-5.85804E-03-8.45442E-14
 -1      1474 1.34161E-02-6.10767E-03-8.94785E-14
 -1      1475 1.35589E-02-6.19754E-03-9.15523E-14
 -1      1476 1.32890E-02-6.03780E-03-8.86449E-14
 -1      1477 1.37018E-02-6.28741E-03-9.36392E-14
 -1      1478 1.38446E-02-6.37727E-03-9.57363E-14
 -1      1479 1.35746E-02-6.21754E-03-9.27983E-14
 -1      1480 1.39874E-02-6.46714E-03-9.78481E-14
 -1      1481 1.41303E-02-6.55699E-03-9.99749E-14
 -1      1482 1.38603E-02-6.39727E-03-9.69994E-14
 -1      1483 1.42731E-02-6.64685E-03-1.02110E-13
 -1      1484 1.44160E-02-6.73671E-03-1.04259E-13
 -1      1485 1.41460E-02-6.57698E-03-1.01248E-13
 -1      1486 1.45588E-02-6.82656E-03-1.06419E-13
 -1      1487 1.47016E-02-6.91642E-03-1.08589E-13
 -1      1488 1.44317E-02-6.75669E-03-1.05546E-13
 -1      1489 1.48445E-02-7.00627E-03-1.10777E-13
 -1      1490 1.49873E-02-7.09612E-03-1.12983E-13
 -1      1491 1.47173E-02-6.93640E-03-1.09897E-13
 -1      1492 1.51302E-02-7.18598E-03-1.15202E-13
 -1      1493 1.52730E-02-7.27583E-03-1.17434E-13
 -1      1494 1.50030E-02-7.11611E-03-1.14301E-13
 -1      1495 1.54159E-02-7.36568E-03-1.19675E-13
 -1      1496 1.55587E-02-7.45554E-03-1.21924E-13
 -1      1497 1.52887E-02-7.29581E-03-1.18758E-13
 -1      1498 1.57016E-02-7.54539E-03-1.24180E-13
 -1      1499 1.58445E-02-7.63525E-03-1.26444E-13
 -1      1500 1.55745E-02-7.47552E-03-1.23249E-13
 -1      1501 1.59873E-02-7.72511E-03-1.28718E-13
 -1      1502 1.61302E-02-7.81496E-03-1.30998E-13
 -1      1503 1.58602E-02-7.65523E-03-1.27774E-13
 -1      1504 1.62730E-02-7.90482E-03-1.33283E-13
 -1      1505 1.64159E-02-7.99468E-03-1.35571E-13
 -1      1506 1.61459E-02-7.83495E-03-1.32330E-13
 -1      1507 1.65039E-02-8.05158E-03-1.37150E-13
 -1      1508 1.66396E-02-8.13695E-03-1.39338E-13
 -1      1509 1.65527E-02-8.09552E-03-1.39357E-13
 -1      1510 1.63767E-02-7.98171E-03-1.36193E-13
 -1      1511 6.44014E-04 4.09011E-04-9.12221E-17
 -1      1512 4.96198E-04 3.32433E-04-3.11166E-17
 -1      1513 4.46301E-04 2.94234E-04-5.81946E-17
 -1      1514 9.19440E-04 5.20712E-04-3.11586E-16
 -1      1515 7.84638E-04 4.70213E-04-1.84802E-16
 -1      1516 7.41949E-04 4.34793E-04-2.16718E-16
 -1      1517 1.17614E-03 5.93729E-04-6.67503E-16
 -1      1518 1.04963E-03 5.61464E-04-4.71940E-16
 -1      1519 1.01757E-03 5.29393E-04-5.07583E-16
 -1      1520 1.41990E-03 6.34712E-04-1.16351E-15
 -1      1521 1.29935E-03 6.18131E-04-8.97780E-16
 -1      1522 1.27794E-03 5.88910E-04-9.34216E-16
 -1      1523 1.65426E-03 6.44426E-04-1.80085E-15
 -1      1524 1.53805E-03 6.43551E-04-1.46425E-15
 -1      1525 1.52723E-03 6.16877E-04-1.50041E-15
 -1      1526 1.88238E-03 6.21347E-04-2.58166E-15
 -1      1527 1.76888E-03 6.37061E-04-2.17329E-15
 -1      1528 1.76870E-03 6.12669E-04-2.20806E-15
 -1      1529 2.10780E-03 5.63974E-04-3.50600E-15
 -1      1530 1.99518E-03 5.96922E-04-3.02572E-15
 -1      1531 2.00554E-03 5.74479E-04-3.05825E-15
 -1      1532 2.33451E-03 4.72472E-04-4.57556E-15
 -1      1533 2.22074E-03 5.22314E-04-4.02263E-15
 -1      1534 2.24121E-03 5.01359E-04-4.05247E-15
 -1      1535 2.56638E-03 3.49475E-04-5.78861E-15
 -1      1536 2.44957E-03 4.14587E-04-5.16440E-15
 -1      1537 2.47926E-03 3.94559E-04-5.19086E-15
 -1      1538 2.80651E-03 2.00007E-04-7.14411E-15
 -1      1539 2.68525E-03 2.77629E-04-6.44854E-15
 -1      1540 2.72282E-03 2.57945E-04-6.47233E-15
 -1      1541 3.05672E-03 3.06460E-05-8.64140E-15
 -1      1542 2.93028E-03 1.17369E-04-7.87494E-15
 -1      1543 2.97412E-03 9.75277E-05-7.89488E-15
 -1      1544 3.31737E-03-1.51646E-04-1.02766E-14
 -1      1545 3.18575E-03-5.92834E-05-9.44195E-15
 -1      1546 3.23413E-03-7.96310E-05-9.45718E-15
 -1      1547 3.58762E-03-3.40349E-04-1.20423E-14
 -1      1548 3.45142E-03-2.45528E-04-1.11437E-14
 -1      1549 3.50265E-03-2.66590E-04-1.11537E-14
 -1      1550 3.86458E-03-5.30510E-04-1.39367E-14
 -1      1551 3.72528E-03-4.35292E-04-1.29734E-14
 -1      1552 3.77815E-03-4.56973E-04-1.29801E-14
 -1      1553 4.14710E-03-7.20404E-04-1.59606E-14
 -1      1554 4.00527E-03-6.25590E-04-1.49325E-14
 -1      1555 4.05895E-03-6.47843E-04-1.49347E-14
 -1      1556 4.43334E-03-9.08507E-04-1.81093E-14
 -1      1557 4.28986E-03-8.14715E-04-1.70197E-14
 -1      1558 4.34374E-03-8.37418E-04-1.70157E-14
 -1      1559 4.72176E-03-1.09426E-03-2.03778E-14
 -1      1560 4.57737E-03-1.00167E-03-1.92291E-14
 -1      1561 4.63106E-03-1.02469E-03-1.92197E-14
 -1      1562 5.01119E-03-1.27773E-03-2.27638E-14
 -1      1563 4.86641E-03-1.18626E-03-2.15563E-14
 -1      1564 4.91977E-03-1.20948E-03-2.15419E-14
 -1      1565 5.30082E-03-1.45928E-03-2.52664E-14
 -1      1566 5.15602E-03-1.36871E-03-2.40002E-14
 -1      1567 5.20900E-03-1.39203E-03-2.39822E-14
 -1      1568 5.59018E-03-1.63938E-03-2.78849E-14
 -1      1569 5.44556E-03-1.54948E-03-2.65606E-14
 -1      1570 5.49820E-03-1.57283E-03-2.65389E-14
 -1      1571 5.87902E-03-1.81851E-03-3.06255E-14
 -1      1572 5.73468E-03-1.72904E-03-2.92400E-14
 -1      1573 5.78706E-03-1.75238E-03-2.92150E-14
 -1      1574 6.16725E-03-1.99705E-03-3.34866E-14
 -1      1575 6.02321E-03-1.90783E-03-3.20411E-14
 -1      1576 6.07540E-03-1.93114E-03-3.20120E-14
 -1      1577 6.45487E-03-2.17532E-03-3.64702E-14
 -1      1578 6.31113E-03-2.08621E-03-3.49642E-14
 -1      1579 6.36321E-03-2.10946E-03-3.49287E-14
 -1      1580 6.74197E-03-2.35351E-03-3.95642E-14
 -1      1581 6.59848E-03-2.26441E-03-3.80033E-14
 -1      1582 6.65051E-03-2.28761E-03-3.79597E-14
 -1      1583 7.02863E-03-2.53177E-03-4.27623E-14
 -1      1584 6.88535E-03-2.44263E-03-4.11491E-14
 -1      1585 6.93736E-03-2.46578E-03-4.10984E-14
 -1      1586 7.31494E-03-2.71017E-03-4.60701E-14
 -1      1587 7.17182E-03-2.62095E-03-4.44038E-14
 -1      1588 7.22385E-03-2.64406E-03-4.43448E-14
 -1      1589 7.60100E-03-2.88875E-03-4.94765E-14
 -1      1590 7.45800E-03-2.79944E-03-4.77620E-14
 -1      1591 7.51006E-03-2.82251E-03-4.76966E-14
 -1      1592 7.88687E-03-3.06752E-03-5.29778E-14
 -1      1593 7.74396E-03-2.97812E-03-5.12160E-14
 -1      1594 7.79606E-03-3.00116E-03-5.11426E-14
 -1      1595 8.17262E-03-3.24647E-03-5.65667E-14
 -1      1596 8.02976E-03-3.15698E-03-5.47615E-14
 -1      1597 8.08190E-03-3.18000E-03-5.46818E-14
 -1      1598 8.45829E-03-3.42559E-03-6.02367E-14
 -1      1599 8.31546E-03-3.33601E-03-5.83908E-14
 -1      1600 8.36765E-03-3.35902E-03-5.83053E-14
 -1      1601 8.74391E-03-3.60484E-03-6.39849E-14
 -1      1602 8.60111E-03-3.51520E-03-6.21019E-14
 -1      1603 8.65333E-03-3.53819E-03-6.20109E-14
 -1      1604 9.02952E-03-3.78420E-03-6.78037E-14
 -1      1605 8.88672E-03-3.69450E-03-6.58859E-14
 -1      1606 8.93897E-03-3.71749E-03-6.57908E-14
 -1      1607 9.31511E-03-3.96366E-03-7.16916E-14
 -1      1608 9.17231E-03-3.87392E-03-6.97384E-14
 -1      1609 9.22460E-03-3.89690E-03-6.96388E-14
 -1      1610 9.60071E-03-4.14319E-03-7.56353E-14
 -1      1611 9.45791E-03-4.05341E-03-7.36572E-14
 -1      1612 9.51022E-03-4.07639E-03-7.35499E-14
 -1      1613 9.88632E-03-4.32277E-03-7.96361E-14
 -1      1614 9.74351E-03-4.23297E-03-7.76292E-14
 -1      1615 9.79584E-03-4.25595E-03-7.75170E-14
 -1      1616 1.01719E-02-4.50240E-03-8.36864E-14
 -1      1617 1.00291E-02-4.41258E-03-8.16557E-14
 -1      1618 1.00815E-02-4.43556E-03-8.15359E-14
 -1      1619 1.04576E-02-4.68206E-03-8.77673E-14
 -1      1620 1.03148E-02-4.59223E-03-8.57218E-14
 -1      1621 1.03671E-02-4.61521E-03-8.55972E-14
 -1      1622 1.07432E-02-4.86174E-03-9.18957E-14
 -1      1623 1.06004E-02-4.77190E-03-8.98258E-14
 -1      1624 1.06528E-02-4.79488E-03-8.96992E-14
 -1      1625 1.10289E-02-5.04144E-03-9.60666E-14
 -1      1626 1.08861E-02-4.95159E-03-9.39765E-14
 -1      1627 1.09384E-02-4.97457E-03-9.38494E-14
 -1      1628 1.13146E-02-5.22115E-03-1.00278E-13
 -1      1629 1.11717E-02-5.13129E-03-9.81684E-14
 -1      1630 1.12241E-02-5.15427E-03-9.80405E-14
 -1      1631 1.16002E-02-5.40086E-03-1.04522E-13
 -1      1632 1.14574E-02-5.31100E-03-1.02395E-13
 -1      1633 1.15098E-02-5.33398E-03-1.02267E-13
 -1      1634 1.18859E-02-5.58058E-03-1.08797E-13
 -1      1635 1.17431E-02-5.49072E-03-1.06657E-13
 -1      1636 1.17955E-02-5.51370E-03-1.06526E-13
 -1      1637 1.21716E-02-5.76030E-03-1.13113E-13
 -1      1638 1.20288E-02-5.67044E-03-1.10950E-13
 -1      1639 1.20812E-02-5.69342E-03-1.10819E-13
 -1      1640 1.24573E-02-5.94002E-03-1.17460E-13
 -1      1641 1.23145E-02-5.85016E-03-1.15283E-13
 -1      1642 1.23669E-02-5.87314E-03-1.15146E-13
 -1      1643 1.27430E-02-6.11974E-03-1.21820E-13
 -1      1644 1.26002E-02-6.02988E-03-1.19637E-13
 -1      1645 1.26526E-02-6.05286E-03-1.19498E-13
 -1      1646 1.30288E-02-6.29945E-03-1.26198E-13
 -1      1647 1.28859E-02-6.20959E-03-1.24007E-13
 -1      1648 1.29383E-02-6.23258E-03-1.23866E-13
 -1      1649 1.33145E-02-6.47917E-03-1.30582E-13
 -1      1650 1.31716E-02-6.38931E-03-1.28390E-13
 -1      1651 1.32240E-02-6.41229E-03-1.28247E-13
 -1      1652 1.36002E-02-6.65888E-03-1.34974E-13
 -1      1653 1.34573E-02-6.56902E-03-1.32778E-13
 -1      1654 1.35097E-02-6.59201E-03-1.32636E-13
 -1      1655 1.37719E-02-6.76340E-03-1.37278E-13
 -1      1656 1.40048E-02-6.87631E-03-1.37679E-13
 -1      1657 1.39164E-02-6.83416E-03-1.37590E-13
 -1      1658 1.41815E-02-6.96059E-03-1.37857E-13
 -1      1659 1.40931E-02-6.91845E-03-1.37768E-13
 -1      1660 1.39252E-02-6.81956E-03-1.35818E-13
 -1      1661 1.43582E-02-7.04488E-03-1.38028E-13
 -1      1662 1.42698E-02-7.00274E-03-1.37943E-13
 -1      1663 1.41019E-02-6.90385E-03-1.35987E-13
 -1      1664 1.45349E-02-7.12917E-03-1.38191E-13
 -1      1665 1.44465E-02-7.08703E-03-1.38112E-13
 -1      1666 1.42787E-02-6.98814E-03-1.36152E-13
 -1      1667 1.47086E-02-7.21204E-03-1.38357E-13
 -1      1668 1.46218E-02-7.17060E-03-1.38273E-13
 -1      1669 1.44539E-02-7.07172E-03-1.36312E-13
 -1      1670 1.48853E-02-7.29633E-03-1.38522E-13
 -1      1671 1.47970E-02-7.25418E-03-1.38442E-13
 -1      1672 1.46291E-02-7.15529E-03-1.36467E-13
 -1      1673 1.50620E-02-7.38063E-03-1.38665E-13
 -1      1674 1.49737E-02-7.33848E-03-1.38595E-13
 -1      1675 1.48058E-02-7.23959E-03-1.36611E-13
 -1      1676 1.52388E-02-7.46492E-03-1.38784E-13
 -1      1677 1.51504E-02-7.42277E-03-1.38730E-13
 -1      1678 1.49825E-02-7.32388E-03-1.36737E-13
 -1      1679 1.54155E-02-7.54922E-03-1.38873E-13
 -1      1680 1.53271E-02-7.50707E-03-1.38832E-13
 -1      1681 1.51592E-02-7.40818E-03-1.36846E-13
 -1      1682 1.55922E-02-7.63351E-03-1.38934E-13
 -1      1683 1.55038E-02-7.59137E-03-1.38906E-13
 -1      1684 1.53359E-02-7.49247E-03-1.36925E-13
 -1      1685 1.57659E-02-7.71638E-03-1.38981E-13
 -1      1686 1.56791E-02-7.67495E-03-1.38960E-13
 -1      1687 1.55112E-02-7.57605E-03-1.36982E-13
 -1      1688 1.59427E-02-7.80067E-03-1.39003E-13
 -1      1689 1.58543E-02-7.75852E-03-1.38999E-13
 -1      1690 1.56864E-02-7.65963E-03-1.37020E-13
 -1      1691 1.61194E-02-7.88496E-03-1.38998E-13
 -1      1692 1.60310E-02-7.84281E-03-1.39002E-13
 -1      1693 1.58631E-02-7.74392E-03-1.37029E-13
 -1      1694 1.62961E-02-7.96925E-03-1.38975E-13
 -1      1695 1.62077E-02-7.92710E-03-1.38989E-13
 -1      1696 1.60399E-02-7.82821E-03-1.37016E-13
 -1      1697 1.64686E-02-8.05345E-03-1.39160E-13
 -1      1698 1.63802E-02-8.01131E-03-1.39168E-13
 -1      1699 1.62123E-02-7.91242E-03-1.37198E-13
 -1      1700 1.63806E-02-7.99655E-03-1.37580E-13
 -1      1701 5.52815E-03-9.99007E-04-6.84376E-15
 -1      1702 5.61316E-03-1.05049E-03-6.85233E-15
 -1      1703 5.25138E-03-8.53345E-04-6.65641E-15
 -1      1704 5.39414E-03-9.20261E-04-6.74077E-15
 -1      1705 4.86911E-03-6.76551E-04-6.36066E-15
 -1      1706 5.05745E-03-7.64502E-04-6.51369E-15
 -1      1707 4.43002E-03-4.68207E-04-5.94415E-15
 -1      1708 4.63695E-03-5.67097E-04-6.14827E-15
 -1      1709 3.98113E-03-2.64048E-04-5.46519E-15
 -1      1710 4.18229E-03-3.58523E-04-5.69832E-15
 -1      1711 3.50857E-03-6.92738E-05-4.87940E-15
 -1      1712 3.72177E-03-1.57259E-04-5.16899E-15
 -1      1713 3.09576E-03 5.58371E-05-4.26392E-15
 -1      1714 3.28471E-03 8.42863E-06-4.52944E-15
 -1      1715 2.68075E-03 1.06450E-04-3.67856E-15
 -1      1716 2.86927E-03 9.51165E-05-3.94913E-15
 -1      1717 2.28093E-03 7.23649E-05-3.14519E-15
 -1      1718 2.46136E-03 9.50492E-05-3.38117E-15
 -1      1719 1.89127E-03-1.40935E-05-2.67673E-15
 -1      1720 2.07057E-03 3.17405E-05-2.88541E-15
 -1      1721 1.51151E-03-1.34303E-04-2.26830E-15
 -1      1722 1.68704E-03-7.65825E-05-2.44641E-15
 -1      1723 1.16846E-03-2.67379E-04-1.92633E-15
 -1      1724 1.32504E-03-2.11344E-04-2.06512E-15
 -1      1725 8.79378E-04-3.57096E-04-1.71137E-15
 -1      1726 9.95734E-04-3.12134E-04-1.80934E-15
 -1      1727 6.90449E-04-4.56623E-04-1.52652E-15
 -1      1728 7.67037E-04-4.18368E-04-1.59261E-15
 -1      1729 6.32135E-04-5.36774E-04-1.47037E-15
 -1      1730 6.41959E-04-4.97885E-04-1.49591E-15
 -1      1731 7.22346E-04-6.48600E-04-1.46636E-15
 -1      1732 6.59336E-04-5.90652E-04-1.45562E-15
 -1      1733 9.57662E-04-8.14365E-04-1.55260E-15
 -1      1734 8.33708E-04-7.33548E-04-1.50560E-15
 -1      1735 1.33316E-03-1.03417E-03-1.70456E-15
 -1      1736 1.14753E-03-9.16753E-04-1.61789E-15
 -1      1737 1.76239E-03-1.34001E-03-1.95602E-15
 -1      1738 1.55505E-03-1.19934E-03-1.83687E-15
 -1      1739 2.26211E-03-1.66673E-03-2.26460E-15
 -1      1740 2.03565E-03-1.50804E-03-2.10471E-15
 -1      1741 2.71926E-03-1.96939E-03-2.66605E-15
 -1      1742 2.50605E-03-1.84246E-03-2.47925E-15
 -1      1743 3.20012E-03-2.17768E-03-3.14522E-15
 -1      1744 2.98007E-03-2.09730E-03-2.90807E-15
 -1      1745 3.64502E-03-2.22199E-03-3.67740E-15
 -1      1746 3.44400E-03-2.22158E-03-3.43283E-15
 -1      1747 4.07989E-03-2.11684E-03-4.23834E-15
 -1      1748 3.87867E-03-2.18149E-03-3.97623E-15
 -1      1749 4.51315E-03-1.91713E-03-4.81622E-15
 -1      1750 4.31412E-03-2.01749E-03-4.55086E-15
 -1      1751 4.91278E-03-1.68898E-03-5.38476E-15
 -1      1752 4.73146E-03-1.79287E-03-5.13250E-15
 -1      1753 5.27442E-03-1.47775E-03-5.91494E-15
 -1      1754 5.11553E-03-1.57190E-03-5.67791E-15
 -1      1755 5.52965E-03-1.32140E-03-6.31866E-15
 -1      1756 5.42870E-03-1.38866E-03-6.14425E-15
 -1      1757 5.66086E-03-1.20280E-03-6.60871E-15
 -1      1758 5.61495E-03-1.25352E-03-6.49162E-15
 -1      1759 5.66755E-03-1.10269E-03-6.77431E-15
 -1      1760 5.68073E-03-1.14766E-03-6.71347E-15
 -1      1761 3.37820E-03-2.24530E-03-2.43519E-15
 -1      1762 3.37974E-03-2.27624E-03-2.71964E-15
 -1      1763 3.23293E-03-2.08102E-03-2.10644E-15
 -1      1764 4.69351E-03-6.93871E-04-6.49642E-15
 -1      1765 5.64879E-03-1.10171E-03-7.15156E-15
 -1      1766 1.38243E-02-6.78638E-03-1.37139E-13
 -1      1767 1.37447E-02-6.72964E-03-1.35281E-13
 -1      1768 5.45684E-03-1.02075E-03-7.12319E-15
 -1      1769 5.12145E-03-8.82344E-04-6.86759E-15
 -1      1770 4.22661E-03-4.65815E-04-6.02147E-15
 -1      1771 3.75838E-03-2.29717E-04-5.46205E-15
 -1      1772 3.34147E-03-2.26036E-05-4.80150E-15
 -1      1773 2.94970E-03 1.02386E-04-4.13238E-15
 -1      1774 2.58562E-03 1.26108E-04-3.52276E-15
 -1      1775 2.21387E-03 6.07400E-05-2.97459E-15
 -1      1776 1.83857E-03-5.99082E-05-2.49789E-15
 -1      1777 1.46493E-03-2.08952E-04-2.08079E-15
 -1      1778 1.11592E-03-3.32444E-04-1.78328E-15
 -1      1779 8.29318E-04-4.24928E-04-1.55966E-15
 -1      1780 6.61108E-04-4.82213E-04-1.42383E-15
 -1      1781 6.38986E-04-5.40169E-04-1.38212E-15
 -1      1782 7.84299E-04-6.28704E-04-1.40266E-15
 -1      1783 1.09509E-03-7.83364E-04-1.49692E-15
 -1      1784 1.51614E-03-1.02831E-03-1.67451E-15
 -1      1785 2.00371E-03-1.36185E-03-1.93704E-15
 -1      1786 2.48121E-03-1.72740E-03-2.27704E-15
 -1      1787 2.93172E-03-2.04954E-03-2.71785E-15
 -1      1788 3.34614E-03-2.23453E-03-3.23675E-15
 -1      1789 3.74150E-03-2.23119E-03-3.82328E-15
 -1      1790 4.14136E-03-2.07035E-03-4.44282E-15
 -1      1791 4.55527E-03-1.82743E-03-5.08625E-15
 -1      1792 4.96049E-03-1.57940E-03-5.71549E-15
 -1      1793 5.31751E-03-1.38286E-03-6.25783E-15
 -1      1794 5.56474E-03-1.25142E-03-6.67526E-15
 -1      1795 5.67885E-03-1.16691E-03-6.96395E-15
 -1      1796 3.57295E-04-1.24047E-04-1.00018E-17
 -1      1797 2.99088E-03-1.90272E-03-2.01267E-15
 -1      1798 2.86636E-04-6.01662E-05-1.14695E-16
 -1      1799 3.20521E-04-6.22463E-05-1.01834E-16
 -1      1800 3.61357E-04-7.33253E-05-8.72647E-17
 -1      1801 4.06091E-04-9.52911E-05-6.81557E-17
 -1      1802 4.56547E-04-1.07721E-04-1.45934E-16
 -1      1803 2.29149E-04-9.93962E-05-1.45500E-16
 -1      1804 2.30817E-04-8.77447E-05-1.39849E-16
 -1      1805 2.46671E-04-1.14204E-04-1.54079E-16
 -1      1806 2.35328E-04-1.09021E-04-1.50230E-16
 -1      1807 3.03992E-04-1.42460E-04-2.18372E-16
 -1      1808 2.79513E-04-1.08825E-04-1.59622E-16
 -1      1809 2.62600E-04-1.14215E-04-1.57155E-16
 -1      1810 3.39383E-04-1.49896E-04-2.29607E-16
 -1      1811 3.12700E-04-8.34724E-05-1.63159E-16
 -1      1812 2.97052E-04-9.82223E-05-1.61627E-16
 -1      1813 3.89733E-04-1.31476E-04-2.37196E-16
 -1      1814 3.37339E-04-4.48786E-05-1.65273E-16
 -1      1815 3.26521E-04-6.51985E-05-1.64473E-16
 -1      1816 4.34933E-04-9.08849E-05-2.42387E-16
 -1      1817 3.50900E-04-1.00332E-06-1.65463E-16
 -1      1818 3.45458E-04-2.31106E-05-1.65653E-16
 -1      1819 4.65104E-04-3.78527E-05-2.45206E-16
 -1      1820 3.55187E-04 4.18848E-05-1.62685E-16
 -1      1821 3.53919E-04 2.07425E-05-1.64473E-16
 -1      1822 4.79376E-04 1.81282E-05-2.44799E-16
 -1      1823 3.53662E-04 8.27759E-05-1.56925E-16
 -1      1824 3.54850E-04 6.27848E-05-1.60435E-16
 -1      1825 4.81950E-04 7.22922E-05-2.40666E-16
 -1      1826 3.49902E-04 1.21025E-04-1.45934E-16
 -1      1827 3.51714E-04 1.02234E-04-1.52263E-16
 -1      1828 4.77876E-04 1.23447E-04-2.31545E-16
 -1      1829 3.48241E-04 1.59215E-04-1.26743E-16
 -1      1830 3.48380E-04 1.40036E-04-1.37829E-16
 -1      1831 4.72485E-04 1.72393E-04-2.14252E-16
 -1      1832 3.56341E-04 2.03608E-04-9.46780E-17
 -1      1833 3.50226E-04 1.80347E-04-1.12920E-16
 -1      1834 4.72318E-04 2.23265E-04-1.85100E-16
 -1      1835 4.09135E-04 2.61249E-04-7.26958E-17
 -1      1836 3.80638E-04 2.29716E-04-8.74816E-17
 -1      1837 5.00608E-04 2.78577E-04-1.58172E-16
 -1      1838 5.59275E-04 3.38845E-04-1.36691E-16
 -1      1839 4.16812E-04-1.19569E-04-3.69306E-17
 -1      1840 8.49854E-04 4.56862E-04-3.63628E-16
 -1      1841 7.06331E-04 4.03120E-04-2.34039E-16
 -1      1842 6.75451E-04 3.71997E-04-2.47659E-16
 -1      1843 2.78651E-03-1.74382E-03-1.94975E-15
 -1      1844 3.03815E-03-2.00457E-03-2.29374E-15
 -1      1845 9.90059E-04-3.09977E-04-2.47727E-16
 -1      1846 1.18210E-03-3.88625E-04-3.64102E-16
 -1      1847 1.37878E-03-4.84000E-04-5.05672E-16
 -1      1848 1.58141E-03-6.05510E-04-6.75322E-16
 -1      1849 1.15040E-03-3.84976E-04-4.76764E-16
 -1      1850 1.79723E-03-7.57490E-04-8.72878E-16
 -1      1851 2.02142E-03-9.53915E-04-1.10299E-15
 -1      1852 1.52072E-03-6.11034E-04-8.23668E-16
 -1      1853 2.28800E-03-1.19676E-03-1.35288E-15
 -1      1854 2.51145E-03-1.44481E-03-1.62369E-15
 -1      1855 2.52978E-03-1.54912E-03-1.85840E-15
 -1      1856 1.97496E-03-9.87458E-04-1.27586E-15
 -1      1857 4.52979E-03-6.99447E-04-6.66256E-15
 -1      1858 4.75298E-03-8.07081E-04-6.89077E-15
 -1      1859 5.48583E-04-1.52520E-04-8.21554E-17
 -1      1860 3.98140E-03-2.20466E-03-4.30258E-15
 -1      1861 4.18856E-03-2.06683E-03-4.83320E-15
 -1      1862 4.42553E-03-1.89859E-03-5.46381E-15
 -1      1863 4.65575E-03-1.74586E-03-6.13740E-15
 -1      1864 4.37006E-03-1.91628E-03-5.25109E-15
 -1      1865 4.89570E-03-1.62393E-03-6.88542E-15
 -1      1866 5.12089E-03-1.54234E-03-7.67026E-15
 -1      1867 4.85362E-03-1.61325E-03-6.63895E-15
 -1      1868 5.33883E-03-1.50491E-03-8.48845E-15
 -1      1869 5.54449E-03-1.50138E-03-9.33930E-15
 -1      1870 5.29290E-03-1.46987E-03-8.21359E-15
 -1      1871 5.74283E-03-1.52697E-03-1.02220E-14
 -1      1872 5.93307E-03-1.57378E-03-1.11343E-14
 -1      1873 5.68115E-03-1.47615E-03-9.91991E-15
 -1      1874 6.11691E-03-1.63630E-03-1.20774E-14
 -1      1875 6.29529E-03-1.71022E-03-1.30499E-14
 -1      1876 6.03735E-03-1.57598E-03-1.17493E-14
 -1      1877 6.45973E-03-1.78751E-03-1.40013E-14
 -1      1878 6.62067E-03-1.86976E-03-1.49791E-14
 -1      1879 6.36597E-03-1.72223E-03-1.36491E-14
 -1      1880 6.78579E-03-1.95963E-03-1.60357E-14
 -1      1881 6.94796E-03-2.05186E-03-1.71219E-14
 -1      1882 6.68216E-03-1.89212E-03-1.56589E-14
 -1      1883 7.10679E-03-2.14535E-03-1.82375E-14
 -1      1884 7.26341E-03-2.23961E-03-1.93810E-14
 -1      1885 6.99679E-03-2.07711E-03-1.78336E-14
 -1      1886 7.41758E-03-2.33415E-03-2.05530E-14
 -1      1887 7.57012E-03-2.42873E-03-2.17537E-14
 -1      1888 7.30383E-03-2.26595E-03-2.01241E-14
 -1      1889 7.72091E-03-2.52320E-03-2.29840E-14
 -1      1890 7.87052E-03-2.61742E-03-2.42443E-14
 -1      1891 7.60508E-03-2.45537E-03-2.25305E-14
 -1      1892 8.01889E-03-2.71137E-03-2.55348E-14
 -1      1893 8.16641E-03-2.80500E-03-2.68532E-14
 -1      1894 7.90195E-03-2.64399E-03-2.50547E-14
 -1      1895 8.31307E-03-2.89832E-03-2.82013E-14
 -1      1896 8.45912E-03-2.99133E-03-2.95776E-14
 -1      1897 8.19559E-03-2.83138E-03-2.76959E-14
 -1      1898 8.60458E-03-3.08405E-03-3.09832E-14
 -1      1899 8.74960E-03-3.17648E-03-3.24191E-14
 -1      1900 8.48688E-03-3.01748E-03-3.04535E-14
 -1      1901 8.89422E-03-3.26866E-03-3.38811E-14
 -1      1902 9.03853E-03-3.36059E-03-3.53703E-14
 -1      1903 8.77647E-03-3.20241E-03-3.33238E-14
 -1      1904 9.18256E-03-3.45231E-03-3.68883E-14
 -1      1905 9.32637E-03-3.54383E-03-3.84322E-14
 -1      1906 9.06484E-03-3.38632E-03-3.63063E-14
 -1      1907 9.46999E-03-3.63517E-03-4.00007E-14
 -1      1908 9.61347E-03-3.72635E-03-4.15936E-14
 -1      1909 9.35234E-03-3.56939E-03-3.93941E-14
 -1      1910 9.75680E-03-3.81738E-03-4.32091E-14
 -1      1911 9.90004E-03-3.90827E-03-4.48497E-14
 -1      1912 9.63923E-03-3.75175E-03-4.25806E-14
 -1      1913 1.00432E-02-3.99904E-03-4.65156E-14
 -1      1914 1.01863E-02-4.08970E-03-4.82047E-14
 -1      1915 9.92569E-03-3.93355E-03-4.58631E-14
 -1      1916 1.03293E-02-4.18027E-03-4.99165E-14
 -1      1917 1.04723E-02-4.27075E-03-5.16533E-14
 -1      1918 1.02119E-02-4.11488E-03-4.92416E-14
 -1      1919 1.06152E-02-4.36116E-03-5.34096E-14
 -1      1920 1.07581E-02-4.45149E-03-5.51849E-14
 -1      1921 1.04978E-02-4.29584E-03-5.27117E-14
 -1      1922 1.09010E-02-4.54176E-03-5.69817E-14
 -1      1923 1.10438E-02-4.63198E-03-5.87939E-14
 -1      1924 1.07837E-02-4.47651E-03-5.62645E-14
 -1      1925 1.11867E-02-4.72215E-03-6.06247E-14
 -1      1926 1.13295E-02-4.81227E-03-6.24707E-14
 -1      1927 1.10694E-02-4.65694E-03-5.98918E-14
 -1      1928 1.14652E-02-4.89786E-03-6.42403E-14
 -1      1929 1.16009E-02-4.98341E-03-6.60292E-14
 -1      1930 1.13480E-02-4.83268E-03-6.34928E-14
 -1      1931 1.17437E-02-5.07344E-03-6.79305E-14
 -1      1932 1.18865E-02-5.16344E-03-6.98507E-14
 -1      1933 1.16265E-02-5.00829E-03-6.71646E-14
 -1      1934 1.20293E-02-5.25341E-03-7.17857E-14
 -1      1935 1.21721E-02-5.34337E-03-7.37379E-14
 -1      1936 1.19121E-02-5.18829E-03-7.10014E-14
 -1      1937 1.23149E-02-5.43331E-03-7.57068E-14
 -1      1938 1.24577E-02-5.52324E-03-7.76876E-14
 -1      1939 1.21978E-02-5.36820E-03-7.49049E-14
 -1      1940 1.26006E-02-5.61315E-03-7.96839E-14
 -1      1941 1.27434E-02-5.70306E-03-8.16927E-14
 -1      1942 1.24834E-02-5.54805E-03-7.88716E-14
 -1      1943 1.28862E-02-5.79295E-03-8.37162E-14
 -1      1944 1.30290E-02-5.88284E-03-8.57574E-14
 -1      1945 1.27691E-02-5.72786E-03-8.28937E-14
 -1      1946 1.31718E-02-5.97271E-03-8.78094E-14
 -1      1947 1.33147E-02-6.06259E-03-8.98724E-14
 -1      1948 1.30547E-02-5.90763E-03-8.69722E-14
 -1      1949 1.34575E-02-6.15246E-03-9.19486E-14
 -1      1950 1.36003E-02-6.24232E-03-9.40383E-14
 -1      1951 1.33404E-02-6.08737E-03-9.11027E-14
 -1      1952 1.37432E-02-6.33218E-03-9.61404E-14
 -1      1953 1.38860E-02-6.42204E-03-9.82542E-14
 -1      1954 1.36261E-02-6.26710E-03-9.52826E-14
 -1      1955 1.40289E-02-6.51190E-03-1.00381E-13
 -1      1956 1.41717E-02-6.60176E-03-1.02519E-13
 -1      1957 1.39118E-02-6.44682E-03-9.95130E-14
 -1      1958 1.43145E-02-6.69161E-03-1.04667E-13
 -1      1959 1.44574E-02-6.78147E-03-1.06830E-13
 -1      1960 1.41974E-02-6.62653E-03-1.03791E-13
 -1      1961 1.46002E-02-6.87132E-03-1.09005E-13
 -1      1962 1.47431E-02-6.96117E-03-1.11193E-13
 -1      1963 1.44831E-02-6.80624E-03-1.08115E-13
 -1      1964 1.48859E-02-7.05103E-03-1.13396E-13
 -1      1965 1.50288E-02-7.14088E-03-1.15613E-13
 -1      1966 1.47688E-02-6.98594E-03-1.12492E-13
 -1      1967 1.51716E-02-7.23073E-03-1.17838E-13
 -1      1968 1.53145E-02-7.32059E-03-1.20072E-13
 -1      1969 1.50545E-02-7.16565E-03-1.16920E-13
 -1      1970 1.54574E-02-7.41044E-03-1.22318E-13
 -1      1971 1.56002E-02-7.50029E-03-1.24570E-13
 -1      1972 1.53402E-02-7.34536E-03-1.21388E-13
 -1      1973 1.57431E-02-7.59015E-03-1.26831E-13
 -1      1974 1.58859E-02-7.68001E-03-1.29101E-13
 -1      1975 1.56260E-02-7.52507E-03-1.25890E-13
 -1      1976 1.60288E-02-7.76986E-03-1.31376E-13
 -1      1977 1.61716E-02-7.85972E-03-1.33658E-13
 -1      1978 1.59117E-02-7.70478E-03-1.30424E-13
 -1      1979 1.62926E-02-7.93964E-03-1.36004E-13
 -1      1980 1.33606E-03 5.65666E-04-1.12750E-15
 -1      1981 1.20365E-03 5.43258E-04-8.75290E-16
 -1      1982 1.59398E-03 5.86984E-04-1.73555E-15
 -1      1983 1.46603E-03 5.80359E-04-1.41398E-15
 -1      1984 1.40247E-03 5.40352E-04-1.32485E-15
 -1      1985 1.84503E-03 5.75377E-04-2.48460E-15
 -1      1986 1.72015E-03 5.85446E-04-2.09227E-15
 -1      1987 1.66820E-03 5.54802E-04-1.97440E-15
 -1      1988 2.09214E-03 5.28895E-04-3.37564E-15
 -1      1989 1.96882E-03 5.56590E-04-2.91228E-15
 -1      1990 1.92778E-03 5.35538E-04-2.76432E-15
 -1      1991 2.33851E-03 4.46958E-04-4.41071E-15
 -1      1992 2.21514E-03 4.92318E-04-3.87528E-15
 -1      1993 2.18391E-03 4.80524E-04-3.69637E-15
 -1      1994 2.58731E-03 3.31500E-04-5.58927E-15
 -1      1995 2.46235E-03 3.93213E-04-4.98194E-15
 -1      1996 2.43964E-03 3.89611E-04-4.77205E-15
 -1      1997 2.84117E-03 1.87160E-04-6.90970E-15
 -1      1998 2.71342E-03 2.62593E-04-6.23185E-15
 -1      1999 2.69792E-03 2.65494E-04-5.99003E-15
 -1      2000 3.10178E-03 2.05652E-05-8.37056E-15
 -1      2001 2.97055E-03 1.06222E-04-7.62288E-15
 -1      2002 2.96102E-03 1.13622E-04-7.34955E-15
 -1      2003 3.36962E-03-1.60916E-04-9.96944E-15
 -1      2004 3.23482E-03-6.87312E-05-9.15313E-15
 -1      2005 3.23014E-03-5.87562E-05-8.84866E-15
 -1      2006 3.64427E-03-3.50394E-04-1.17011E-14
 -1      2007 3.50616E-03-2.55085E-04-1.08189E-14
 -1      2008 3.50534E-03-2.44037E-04-1.04834E-14
 -1      2009 3.92389E-03-5.41577E-04-1.35616E-14
 -1      2010 3.78353E-03-4.45812E-04-1.26154E-14
 -1      2011 3.78555E-03-4.35099E-04-1.22502E-14
 -1      2012 4.20758E-03-7.32730E-04-1.55493E-14
 -1      2013 4.06536E-03-6.37302E-04-1.45396E-14
 -1      2014 4.06942E-03-6.27036E-04-1.41449E-14
 -1      2015 4.49402E-03-9.22034E-04-1.76627E-14
 -1      2016 4.35057E-03-8.27685E-04-1.65907E-14
 -1      2017 4.35595E-03-8.18099E-04-1.61662E-14
 -1      2018 4.78210E-03-1.10878E-03-1.98953E-14
 -1      2019 4.63794E-03-1.01575E-03-1.87642E-14
 -1      2020 4.64407E-03-1.00686E-03-1.83098E-14
 -1      2021 5.07097E-03-1.29297E-03-2.22493E-14
 -1      2022 4.92650E-03-1.20119E-03-2.10576E-14
 -1      2023 4.93296E-03-1.19291E-03-2.05741E-14
 -1      2024 5.36002E-03-1.47499E-03-2.47208E-14
 -1      2025 5.21551E-03-1.38423E-03-2.34697E-14
 -1      2026 5.22206E-03-1.37641E-03-2.29586E-14
 -1      2027 5.64888E-03-1.65536E-03-2.73094E-14
 -1      2028 5.50449E-03-1.56535E-03-2.60006E-14
 -1      2029 5.51099E-03-1.55785E-03-2.54608E-14
 -1      2030 5.93734E-03-1.83458E-03-3.00181E-14
 -1      2031 5.79317E-03-1.74509E-03-2.86488E-14
 -1      2032 5.79956E-03-1.73777E-03-2.80829E-14
 -1      2033 6.22533E-03-2.01312E-03-3.28457E-14
 -1      2034 6.08139E-03-1.92392E-03-3.14176E-14
 -1      2035 6.08767E-03-1.91668E-03-3.08226E-14
 -1      2036 6.51283E-03-2.19131E-03-3.57894E-14
 -1      2037 6.36914E-03-2.10225E-03-3.43028E-14
 -1      2038 6.37532E-03-2.09502E-03-3.36792E-14
 -1      2039 6.79990E-03-2.36940E-03-3.88449E-14
 -1      2040 6.65641E-03-2.28036E-03-3.73025E-14
 -1      2041 6.66254E-03-2.27310E-03-3.66488E-14
 -1      2042 7.08659E-03-2.54754E-03-4.20071E-14
 -1      2043 6.94328E-03-2.45845E-03-4.04131E-14
 -1      2044 6.94937E-03-2.45114E-03-3.97287E-14
 -1      2045 7.37297E-03-2.72582E-03-4.52773E-14
 -1      2046 7.22981E-03-2.63666E-03-4.36291E-14
 -1      2047 7.23590E-03-2.62927E-03-4.29156E-14
 -1      2048 7.65912E-03-2.90430E-03-4.86502E-14
 -1      2049 7.51607E-03-2.81504E-03-4.69523E-14
 -1      2050 7.52217E-03-2.80757E-03-4.62093E-14
 -1      2051 7.94509E-03-3.08298E-03-5.21171E-14
 -1      2052 7.80212E-03-2.99362E-03-5.03714E-14
 -1      2053 7.80825E-03-2.98608E-03-4.96036E-14
 -1      2054 8.23094E-03-3.26186E-03-5.56755E-14
 -1      2055 8.08803E-03-3.17240E-03-5.38852E-14
 -1      2056 8.09418E-03-3.16480E-03-5.30904E-14
 -1      2057 8.51669E-03-3.44091E-03-5.93185E-14
 -1      2058 8.37382E-03-3.35136E-03-5.74868E-14
 -1      2059 8.38001E-03-3.34371E-03-5.66688E-14
 -1      2060 8.80239E-03-3.62011E-03-6.30415E-14
 -1      2061 8.65955E-03-3.53049E-03-6.11702E-14
 -1      2062 8.66577E-03-3.52280E-03-6.03312E-14
 -1      2063 9.08806E-03-3.79944E-03-6.68364E-14
 -1      2064 8.94523E-03-3.70976E-03-6.49299E-14
 -1      2065 8.95148E-03-3.70204E-03-6.40703E-14
 -1      2066 9.37371E-03-3.97887E-03-7.06990E-14
 -1      2067 9.23089E-03-3.88914E-03-6.87601E-14
 -1      2068 9.23717E-03-3.88139E-03-6.78811E-14
 -1      2069 9.65935E-03-4.15838E-03-7.46205E-14
 -1      2070 9.51653E-03-4.06862E-03-7.26520E-14
 -1      2071 9.52284E-03-4.06085E-03-7.17555E-14
 -1      2072 9.94500E-03-4.33795E-03-7.85959E-14
 -1      2073 9.80217E-03-4.24816E-03-7.66023E-14
 -1      2074 9.80850E-03-4.24037E-03-7.56877E-14
 -1      2075 1.02306E-02-4.51757E-03-8.26245E-14
 -1      2076 1.00878E-02-4.42776E-03-8.06039E-14
 -1      2077 1.00942E-02-4.41996E-03-7.96750E-14
 -1      2078 1.05163E-02-4.69723E-03-8.66920E-14
 -1      2079 1.03735E-02-4.60740E-03-8.46527E-14
 -1      2080 1.03798E-02-4.59959E-03-8.37093E-14
 -1      2081 1.08020E-02-4.87691E-03-9.08081E-14
 -1      2082 1.06591E-02-4.78707E-03-8.87442E-14
 -1      2083 1.06655E-02-4.77925E-03-8.77888E-14
 -1      2084 1.10876E-02-5.05660E-03-9.49682E-14
 -1      2085 1.09448E-02-4.96675E-03-9.28826E-14
 -1      2086 1.09512E-02-4.95894E-03-9.19154E-14
 -1      2087 1.13733E-02-5.23631E-03-9.91687E-14
 -1      2088 1.12305E-02-5.14646E-03-9.70630E-14
 -1      2089 1.12369E-02-5.13864E-03-9.60856E-14
 -1      2090 1.16590E-02-5.41602E-03-1.03404E-13
 -1      2091 1.15162E-02-5.32617E-03-1.01284E-13
 -1      2092 1.15225E-02-5.31835E-03-1.00298E-13
 -1      2093 1.19447E-02-5.59574E-03-1.07671E-13
 -1      2094 1.18019E-02-5.50588E-03-1.05533E-13
 -1      2095 1.18082E-02-5.49807E-03-1.04541E-13
 -1      2096 1.22304E-02-5.77546E-03-1.11971E-13
 -1      2097 1.20875E-02-5.68560E-03-1.09816E-13
 -1      2098 1.20939E-02-5.67778E-03-1.08815E-13
 -1      2099 1.25161E-02-5.95518E-03-1.16303E-13
 -1      2100 1.23732E-02-5.86532E-03-1.14133E-13
 -1      2101 1.23796E-02-5.85751E-03-1.13122E-13
 -1      2102 1.28018E-02-6.13490E-03-1.20657E-13
 -1      2103 1.26590E-02-6.04504E-03-1.18479E-13
 -1      2104 1.26653E-02-6.03723E-03-1.17459E-13
 -1      2105 1.30875E-02-6.31462E-03-1.25029E-13
 -1      2106 1.29447E-02-6.22476E-03-1.22842E-13
 -1      2107 1.29510E-02-6.21695E-03-1.21818E-13
 -1      2108 1.33732E-02-6.49433E-03-1.29417E-13
 -1      2109 1.32304E-02-6.40448E-03-1.27224E-13
 -1      2110 1.32368E-02-6.39666E-03-1.26196E-13
 -1      2111 1.36304E-02-6.65692E-03-1.33447E-13
 -1      2112 1.34875E-02-6.56706E-03-1.31251E-13
 -1      2113 1.34939E-02-6.55925E-03-1.30226E-13
 -1      2114 1.37226E-02-6.70470E-03-1.33897E-13
 -1      2115 1.41991E-02-6.93140E-03-1.34279E-13
 -1      2116 1.41108E-02-6.88925E-03-1.34198E-13
 -1      2117 1.40224E-02-6.84711E-03-1.34121E-13
 -1      2118 1.39340E-02-6.80496E-03-1.34041E-13
 -1      2119 1.39429E-02-6.79036E-03-1.32249E-13
 -1      2120 1.38109E-02-6.74684E-03-1.33979E-13
 -1      2121 1.43728E-02-7.01426E-03-1.34427E-13
 -1      2122 1.42860E-02-6.97283E-03-1.34352E-13
 -1      2123 1.41181E-02-6.87394E-03-1.32398E-13
 -1      2124 1.45495E-02-7.09855E-03-1.34571E-13
 -1      2125 1.44612E-02-7.05641E-03-1.34500E-13
 -1      2126 1.42933E-02-6.95752E-03-1.32538E-13
 -1      2127 1.47263E-02-7.18285E-03-1.34699E-13
 -1      2128 1.46379E-02-7.14070E-03-1.34639E-13
 -1      2129 1.44700E-02-7.04181E-03-1.32672E-13
 -1      2130 1.49030E-02-7.26714E-03-1.34816E-13
 -1      2131 1.48146E-02-7.22499E-03-1.34760E-13
 -1      2132 1.46467E-02-7.12611E-03-1.32789E-13
 -1      2133 1.50797E-02-7.35144E-03-1.34913E-13
 -1      2134 1.49913E-02-7.30929E-03-1.34868E-13
 -1      2135 1.48234E-02-7.21040E-03-1.32894E-13
 -1      2136 1.52564E-02-7.43573E-03-1.34983E-13
 -1      2137 1.51680E-02-7.39358E-03-1.34948E-13
 -1      2138 1.50002E-02-7.29469E-03-1.32977E-13
 -1      2139 1.54301E-02-7.51860E-03-1.35031E-13
 -1      2140 1.53433E-02-7.47716E-03-1.35008E-13
 -1      2141 1.51754E-02-7.37828E-03-1.33037E-13
 -1      2142 1.56069E-02-7.60289E-03-1.35056E-13
 -1      2143 1.55185E-02-7.56074E-03-1.35047E-13
 -1      2144 1.53506E-02-7.46185E-03-1.33075E-13
 -1      2145 1.57836E-02-7.68718E-03-1.35053E-13
 -1      2146 1.56952E-02-7.64503E-03-1.35056E-13
 -1      2147 1.55273E-02-7.54615E-03-1.33087E-13
 -1      2148 1.59603E-02-7.77147E-03-1.35037E-13
 -1      2149 1.58720E-02-7.72932E-03-1.35046E-13
 -1      2150 1.57041E-02-7.63044E-03-1.33079E-13
 -1      2151 1.09679E-03 5.24505E-04-6.89146E-16
 -1      2152 9.59608E-04 4.87663E-04-4.99234E-16
 -1      2153 9.33314E-04 4.58240E-04-5.12299E-16
 -1      2154 1.15615E-03 5.05301E-04-8.49323E-16
 -1      2155 4.99264E-03-9.07673E-04-7.11766E-15
 -1      2156 5.18744E-03-9.78767E-04-7.27298E-15
 -1      2157 4.06119E-03-4.51519E-04-6.12193E-15
 -1      2158 4.28161E-03-5.72399E-04-6.38424E-15
 -1      2159 5.62817E-03-1.12385E-03-7.57061E-15
 -1      2160 5.68080E-03-1.13757E-03-7.49135E-15
 -1      2161 2.40754E-04-7.53201E-05-1.33384E-16
 -1      2162 2.59350E-04-6.54876E-05-1.24819E-16
 -1      2163 3.59178E-04-9.88198E-05-1.79463E-16
 -1      2164 3.06641E-04-1.18254E-04-2.02502E-16
 -1      2165 3.60130E-03-2.34102E-03-3.38062E-15
 -1      2166 3.78844E-03-2.30741E-03-3.81552E-15
 -1      2167 3.60358E-03-1.98264E-04-5.50650E-15
 -1      2168 3.81171E-03-3.19379E-04-5.81815E-15
 -1      2169 3.17987E-03 3.35823E-05-4.69557E-15
 -1      2170 3.34845E-03-5.66368E-05-5.05260E-15
 -1      2171 2.85418E-03 1.35649E-04-4.04684E-15
 -1      2172 3.01290E-03 9.58753E-05-4.36410E-15
 -1      2173 3.06064E-03 7.02307E-05-4.59989E-15
 -1      2174 2.49453E-03 1.32718E-04-3.34878E-15
 -1      2175 2.65117E-03 1.49374E-04-3.63961E-15
 -1      2176 2.15610E-03 4.20250E-05-2.80147E-15
 -1      2177 2.31706E-03 9.55922E-05-3.05000E-15
 -1      2178 1.79197E-03-1.01792E-04-2.32355E-15
 -1      2179 1.96513E-03-2.81220E-05-2.53898E-15
 -1      2180 1.42430E-03-2.55535E-04-1.91261E-15
 -1      2181 1.60108E-03-1.81750E-04-2.09934E-15
 -1      2182 1.03314E-03-3.83710E-04-1.62417E-15
 -1      2183 1.18993E-03-3.37832E-04-1.72442E-15
 -1      2184 7.80545E-04-4.51502E-04-1.40396E-15
 -1      2185 8.95731E-04-4.24268E-04-1.51037E-15
 -1      2186 9.53739E-04-4.11678E-04-1.45580E-15
 -1      2187 6.30686E-04-4.84400E-04-1.30039E-15
 -1      2188 6.75930E-04-4.73432E-04-1.32274E-15
 -1      2189 6.54596E-04-5.10716E-04-1.26730E-15
 -1      2190 6.23828E-04-4.99111E-04-1.28199E-15
 -1      2191 6.19401E-04-4.66167E-04-1.18271E-15
 -1      2192 8.64719E-04-5.93574E-04-1.31574E-15
 -1      2193 7.45864E-04-5.48648E-04-1.28384E-15
 -1      2194 1.21622E-03-7.46384E-04-1.41622E-15
 -1      2195 1.02612E-03-6.65677E-04-1.36539E-15
 -1      2196 1.71696E-03-1.03718E-03-1.61488E-15
 -1      2197 1.49544E-03-8.87391E-04-1.50195E-15
 -1      2198 2.77962E-03-1.88044E-03-2.35107E-15
 -1      2199 2.57787E-03-1.69818E-03-2.15046E-15
 -1      2200 2.96687E-03-2.03433E-03-2.56950E-15
 -1      2201 3.77751E-03-2.24795E-03-3.89543E-15
 -1      2202 3.62200E-03-2.29109E-03-3.59524E-15
 -1      2203 4.19332E-03-2.02133E-03-4.70687E-15
 -1      2204 4.02396E-03-2.13566E-03-4.37909E-15
 -1      2205 5.01614E-03-1.48909E-03-6.11695E-15
 -1      2206 4.82845E-03-1.60135E-03-5.80334E-15
 -1      2207 5.37683E-03-1.31050E-03-6.66458E-15
 -1      2208 5.22338E-03-1.38301E-03-6.41875E-15
 -1      2209 5.60282E-03-1.21068E-03-7.09588E-15
 -1      2210 5.51110E-03-1.24867E-03-6.91032E-15
 -1      2211 5.69416E-03-1.15929E-03-7.43072E-15
 -1      2212 5.66945E-03-1.17648E-03-7.31702E-15
 -1      2213 5.36785E-03-1.04579E-03-7.44159E-15
 -1      2214 5.50605E-03-1.08823E-03-7.55058E-15
 -1      2215 1.61755E-02-7.87456E-03-1.35044E-13
 -1      2216 7.31354E-04-2.13292E-04-1.45215E-16
 -1      2217 7.38925E-04-2.08563E-04-2.16664E-16
 -1      2218 4.85073E-03-8.98404E-04-7.28522E-15
 -1      2219 4.37585E-03-6.74325E-04-6.76550E-15
 -1      2220 3.90299E-03-2.22297E-03-4.13200E-15
 -1      2221 1.37314E-02-6.69010E-03-1.32117E-13
 -1      2222 5.57272E-03-1.13293E-03-7.88866E-15
 -1      2223 1.61100E-02-7.84405E-03-1.35137E-13
 -1      2224 1.60258E-02-7.80198E-03-1.34948E-13
 -1      2225 1.58579E-02-7.70309E-03-1.32981E-13
 -1      2226 1.59890E-02-7.76412E-03-1.32797E-13
 -1      2227 5.26579E-03-1.05267E-03-7.69263E-15
 -1      2228 3.90000E-03-4.11119E-04-6.16716E-15
 -1      2229 5.69801E-03-1.16464E-03-7.84765E-15
 -1      2230 5.64504E-03-1.19169E-03-7.55659E-15
 -1      2231 5.44584E-03-1.26577E-03-7.07756E-15
 -1      2232 5.11711E-03-1.41852E-03-6.51320E-15
 -1      2233 4.48359E-03-1.82915E-03-5.20584E-15
 -1      2234 4.36118E-03-1.90610E-03-5.14234E-15
 -1      2235 4.60924E-03-1.73023E-03-5.78851E-15
 -1      2236 4.66759E-03-1.69928E-03-5.54447E-15
 -1      2237 3.53598E-03-2.31462E-03-3.34129E-15
 -1      2238 3.44395E-03-2.28453E-03-3.28134E-15
 -1      2239 3.28440E-03-2.23134E-03-3.00118E-15
 -1      2240 3.47097E-03-2.32084E-03-3.07477E-15
 -1      2241 1.38262E-03-7.64747E-04-1.36181E-15
 -1      2242 6.97283E-04-4.89674E-04-1.18052E-15
 -1      2243 7.13724E-04-4.55743E-04-1.27348E-15
 -1      2244 1.30948E-03-3.04172E-04-1.73956E-15
 -1      2245 1.41046E-03-2.61569E-04-1.75024E-15
 -1      2246 1.19997E-03-3.38319E-04-1.57745E-15
 -1      2247 1.71187E-03-1.40557E-04-2.13542E-15
 -1      2248 2.06807E-03 1.17565E-05-2.60827E-15
 -1      2249 2.74083E-03 1.54210E-04-3.85445E-15
 -1      2250 3.28501E-03-2.22233E-03-2.69462E-15
 -1      2251 3.43612E-03-1.30173E-04-5.38870E-15
 -1      2252 2.39884E-03 1.23730E-04-3.15820E-15
 -1      2253 9.54701E-04-5.73686E-04-1.23995E-15
 -1      2254 2.27574E-03-1.38128E-03-1.80403E-15
 -1      2255 2.04744E-03-1.20689E-03-1.68309E-15
 -1      2256 3.11242E-03-2.11042E-03-2.60431E-15
 -1      2257 4.77036E-03-1.61679E-03-5.93397E-15
 -1      2258 1.96540E-03-1.07377E-03-1.49614E-15
 -1      2259 4.34658E-04-1.79418E-04-3.20192E-16
 -1      2260 4.03068E-04-1.85333E-04-3.13755E-16
 -1      2261 3.76918E-04-1.83457E-04-3.05826E-16
 -1      2262 3.62539E-04-1.75220E-04-2.96678E-16
 -1      2263 4.58894E-04-2.21843E-04-4.10899E-16
 -1      2264 5.66960E-04-8.89158E-05-3.46728E-16
 -1      2265 5.42110E-04-1.19467E-04-3.43665E-16
 -1      2266 5.99732E-04-2.17021E-05-3.50401E-16
 -1      2267 5.86201E-04-5.56260E-05-3.49100E-16
 -1      2268 7.07380E-04-7.64267E-05-4.73268E-16
 -1      2269 6.12316E-04 4.47779E-05-3.49452E-16
 -1      2270 6.08036E-04 1.19273E-05-3.50577E-16
 -1      2271 7.39116E-04 2.46023E-06-4.77659E-16
 -1      2272 6.11677E-04 1.08704E-04-3.43204E-16
 -1      2273 6.13158E-04 7.73470E-05-3.47080E-16
 -1      2274 7.47899E-04 7.84290E-05-4.75924E-16
 -1      2275 6.04584E-04 1.68623E-04-3.29137E-16
 -1      2276 6.08433E-04 1.39114E-04-3.37390E-16
 -1      2277 7.42769E-04 1.49730E-04-4.66492E-16
 -1      2278 5.98104E-04 2.27006E-04-3.03807E-16
 -1      2279 6.00756E-04 1.97839E-04-3.18186E-16
 -1      2280 7.32398E-04 2.16900E-04-4.46244E-16
 -1      2281 6.01000E-04 2.88768E-04-2.62540E-16
 -1      2282 5.97771E-04 2.57200E-04-2.85741E-16
 -1      2283 7.25369E-04 2.83402E-04-4.11360E-16
 -1      2284 6.47396E-04 3.43493E-04-2.54164E-16
 -1      2285 6.23624E-04 3.14758E-04-2.61184E-16
 -1      2286 7.46769E-04 3.43914E-04-3.88090E-16
 -1      2287 7.93773E-04 3.98445E-04-3.83699E-16
 -1      2288 4.71755E-03-8.92935E-04-7.55073E-15
 -1      2289 4.94034E-03-9.84159E-04-7.79152E-15
 -1      2290 9.52669E-04-3.08118E-04-4.40918E-16
 -1      2291 1.10803E-03-3.90934E-04-5.92029E-16
 -1      2292 4.23642E-03-6.49666E-04-6.94238E-15
 -1      2293 4.46257E-03-7.71359E-04-7.24017E-15
 -1      2294 1.26941E-03-4.91064E-04-7.67412E-16
 -1      2295 1.44344E-03-6.22557E-04-9.71052E-16
 -1      2296 1.04642E-03-3.98959E-04-7.11738E-16
 -1      2297 1.71206E-03-8.33614E-04-1.23554E-15
 -1      2298 3.29842E-03-7.26201E-05-5.30703E-15
 -1      2299 3.51373E-03-2.11641E-04-5.77430E-15
 -1      2300 1.36171E-02-6.61737E-03-1.30278E-13
 -1      2301 5.91637E-04-1.57409E-04-2.11487E-16
 -1      2302 7.95646E-04-2.39668E-04-3.36198E-16
 -1      2303 7.71830E-04-2.50158E-04-4.26335E-16
 -1      2304 5.18662E-04-1.42353E-04-2.35814E-16
 -1      2305 4.85776E-03-1.58836E-03-6.51191E-15
 -1      2306 5.08250E-03-1.48715E-03-7.27443E-15
 -1      2307 4.86878E-03-1.56176E-03-6.38446E-15
 -1      2308 5.28972E-03-1.43716E-03-8.07259E-15
 -1      2309 5.48062E-03-1.42175E-03-8.90205E-15
 -1      2310 5.29287E-03-1.40250E-03-7.92929E-15
 -1      2311 5.66017E-03-1.43888E-03-9.76418E-15
 -1      2312 5.83176E-03-1.47811E-03-1.06559E-14
 -1      2313 5.64606E-03-1.40217E-03-9.60778E-15
 -1      2314 5.99761E-03-1.53498E-03-1.15786E-14
 -1      2315 6.15996E-03-1.60442E-03-1.25315E-14
 -1      2316 5.96428E-03-1.49585E-03-1.14067E-14
 -1      2317 6.31132E-03-1.67854E-03-1.34629E-14
 -1      2318 6.46114E-03-1.75859E-03-1.44206E-14
 -1      2319 6.26197E-03-1.63678E-03-1.32762E-14
 -1      2320 6.61681E-03-1.84678E-03-1.54580E-14
 -1      2321 6.77131E-03-1.93806E-03-1.65223E-14
 -1      2322 6.55551E-03-1.80297E-03-1.52561E-14
 -1      2323 6.92418E-03-2.03093E-03-1.76172E-14
 -1      2324 7.07609E-03-2.12500E-03-1.87409E-14
 -1      2325 6.85449E-03-1.98581E-03-1.74008E-14
 -1      2326 7.22667E-03-2.21948E-03-1.98932E-14
 -1      2327 7.37643E-03-2.31423E-03-2.10739E-14
 -1      2328 7.15154E-03-2.17370E-03-1.96612E-14
 -1      2329 7.52514E-03-2.40890E-03-2.22841E-14
 -1      2330 7.67317E-03-2.50342E-03-2.35240E-14
 -1      2331 7.44660E-03-2.36286E-03-2.20380E-14
 -1      2332 7.82037E-03-2.59766E-03-2.47942E-14
 -1      2333 7.96703E-03-2.69161E-03-2.60927E-14
 -1      2334 7.73974E-03-2.55159E-03-2.45320E-14
 -1      2335 8.11307E-03-2.78523E-03-2.74197E-14
 -1      2336 8.25868E-03-2.87853E-03-2.87766E-14
 -1      2337 8.03118E-03-2.73924E-03-2.71433E-14
 -1      2338 8.40383E-03-2.97152E-03-3.01620E-14
 -1      2339 8.54865E-03-3.06421E-03-3.15751E-14
 -1      2340 8.32121E-03-2.92565E-03-2.98698E-14
 -1      2341 8.69314E-03-3.15662E-03-3.30162E-14
 -1      2342 8.83738E-03-3.24876E-03-3.44863E-14
 -1      2343 8.61010E-03-3.11088E-03-3.27087E-14
 -1      2344 8.98138E-03-3.34067E-03-3.59835E-14
 -1      2345 9.12519E-03-3.43236E-03-3.75068E-14
 -1      2346 8.89810E-03-3.29506E-03-3.56606E-14
 -1      2347 9.26883E-03-3.52386E-03-3.90553E-14
 -1      2348 9.41233E-03-3.61517E-03-4.06302E-14
 -1      2349 9.18544E-03-3.47835E-03-3.87173E-14
 -1      2350 9.55571E-03-3.70632E-03-4.22294E-14
 -1      2351 9.69900E-03-3.79732E-03-4.38510E-14
 -1      2352 9.47228E-03-3.66090E-03-4.18770E-14
 -1      2353 9.84219E-03-3.88819E-03-4.54981E-14
 -1      2354 9.98532E-03-3.97894E-03-4.71690E-14
 -1      2355 9.75874E-03-3.84284E-03-4.51328E-14
 -1      2356 1.01284E-02-4.06959E-03-4.88638E-14
 -1      2357 1.02714E-02-4.16014E-03-5.05805E-14
 -1      2358 1.00449E-02-4.02430E-03-4.84838E-14
 -1      2359 1.04144E-02-4.25060E-03-5.23181E-14
 -1      2360 1.05573E-02-4.34098E-03-5.40768E-14
 -1      2361 1.03310E-02-4.20535E-03-5.19256E-14
 -1      2362 1.07002E-02-4.43130E-03-5.58593E-14
 -1      2363 1.08431E-02-4.52156E-03-5.76581E-14
 -1      2364 1.06169E-02-4.38609E-03-5.54528E-14
 -1      2365 1.09860E-02-4.61176E-03-5.94739E-14
 -1      2366 1.11289E-02-4.70192E-03-6.13089E-14
 -1      2367 1.09026E-02-4.56658E-03-5.90572E-14
 -1      2368 1.12646E-02-4.78753E-03-6.30667E-14
 -1      2369 1.14003E-02-4.87310E-03-6.48411E-14
 -1      2370 1.11812E-02-4.74236E-03-6.26389E-14
 -1      2371 1.15431E-02-4.96315E-03-6.67281E-14
 -1      2372 1.16860E-02-5.05317E-03-6.86340E-14
 -1      2373 1.14598E-02-4.91800E-03-6.62921E-14
 -1      2374 1.18288E-02-5.14316E-03-7.05540E-14
 -1      2375 1.19716E-02-5.23313E-03-7.24906E-14
 -1      2376 1.17455E-02-5.09803E-03-7.01062E-14
 -1      2377 1.21145E-02-5.32308E-03-7.44483E-14
 -1      2378 1.22573E-02-5.41302E-03-7.64200E-14
 -1      2379 1.20312E-02-5.27796E-03-7.39908E-14
 -1      2380 1.24001E-02-5.50294E-03-7.84068E-14
 -1      2381 1.25430E-02-5.59285E-03-8.04072E-14
 -1      2382 1.23168E-02-5.45782E-03-7.79413E-14
 -1      2383 1.26858E-02-5.68275E-03-8.24216E-14
 -1      2384 1.28286E-02-5.77263E-03-8.44502E-14
 -1      2385 1.26025E-02-5.63763E-03-8.19503E-14
 -1      2386 1.29715E-02-5.86252E-03-8.64932E-14
 -1      2387 1.31143E-02-5.95239E-03-8.85500E-14
 -1      2388 1.28882E-02-5.81741E-03-8.60155E-14
 -1      2389 1.32571E-02-6.04226E-03-9.06173E-14
 -1      2390 1.34000E-02-6.13213E-03-9.26971E-14
 -1      2391 1.31739E-02-5.99716E-03-9.01322E-14
 -1      2392 1.35428E-02-6.22200E-03-9.47906E-14
 -1      2393 1.36857E-02-6.31186E-03-9.68966E-14
 -1      2394 1.34596E-02-6.17689E-03-9.42991E-14
 -1      2395 1.38285E-02-6.40171E-03-9.90158E-14
 -1      2396 1.39713E-02-6.49157E-03-1.01146E-13
 -1      2397 1.37452E-02-6.35661E-03-9.85163E-14
 -1      2398 1.41142E-02-6.58143E-03-1.03286E-13
 -1      2399 1.42570E-02-6.67128E-03-1.05439E-13
 -1      2400 1.40309E-02-6.53632E-03-1.02782E-13
 -1      2401 1.43999E-02-6.76113E-03-1.07604E-13
 -1      2402 1.45427E-02-6.85099E-03-1.09781E-13
 -1      2403 1.43166E-02-6.71603E-03-1.07092E-13
 -1      2404 1.46856E-02-6.94084E-03-1.11974E-13
 -1      2405 1.48284E-02-7.03069E-03-1.14178E-13
 -1      2406 1.46023E-02-6.89573E-03-1.11454E-13
 -1      2407 1.49713E-02-7.12055E-03-1.16392E-13
 -1      2408 1.51141E-02-7.21040E-03-1.18615E-13
 -1      2409 1.48880E-02-7.07544E-03-1.15863E-13
 -1      2410 1.52570E-02-7.30025E-03-1.20851E-13
 -1      2411 1.53999E-02-7.39011E-03-1.23094E-13
 -1      2412 1.51737E-02-7.25515E-03-1.20314E-13
 -1      2413 1.55427E-02-7.47996E-03-1.25343E-13
 -1      2414 1.56856E-02-7.56982E-03-1.27605E-13
 -1      2415 1.54595E-02-7.43485E-03-1.24799E-13
 -1      2416 1.57659E-02-7.62204E-03-1.29062E-13
 -1      2417 1.59087E-02-7.71190E-03-1.31335E-13
 -1      2418 1.58432E-02-7.68138E-03-1.31428E-13
 -1      2419 1.56826E-02-7.57693E-03-1.28510E-13
 -1      2420 2.01623E-03 4.93658E-04-3.04777E-15
 -1      2421 1.88318E-03 5.11705E-04-2.61514E-15
 -1      2422 1.74915E-03 5.20678E-04-2.21745E-15
 -1      2423 1.61359E-03 5.21071E-04-1.85484E-15
 -1      2424 1.83570E-03 4.84970E-04-2.46459E-15
 -1      2425 1.47648E-03 5.13085E-04-1.52696E-15
 -1      2426 1.33745E-03 4.97323E-04-1.23350E-15
 -1      2427 1.55680E-03 4.84312E-04-1.73371E-15
 -1      2428 2.28027E-03 4.29893E-04-4.02085E-15
 -1      2429 2.14835E-03 4.66444E-04-3.51661E-15
 -1      2430 2.10938E-03 4.49922E-04-3.33545E-15
 -1      2431 2.54429E-03 3.29738E-04-5.13652E-15
 -1      2432 2.41200E-03 3.84234E-04-4.56048E-15
 -1      2433 2.38046E-03 3.76996E-04-4.34808E-15
 -1      2434 2.81111E-03 1.96777E-04-6.39408E-15
 -1      2435 2.67713E-03 2.67030E-04-5.74730E-15
 -1      2436 2.65205E-03 2.67216E-04-5.50375E-15
 -1      2437 3.08268E-03 3.73771E-05-7.79219E-15
 -1      2438 2.94619E-03 1.19918E-04-7.07590E-15
 -1      2439 2.92687E-03 1.25207E-04-6.80094E-15
 -1      2440 3.35974E-03-1.40546E-04-9.32906E-15
 -1      2441 3.22053E-03-4.97679E-05-8.54378E-15
 -1      2442 3.20651E-03-4.16375E-05-8.23816E-15
 -1      2443 3.64183E-03-3.29188E-04-1.10002E-14
 -1      2444 3.50026E-03-2.33940E-04-1.01480E-14
 -1      2445 3.49118E-03-2.24707E-04-9.81245E-15
 -1      2446 3.92737E-03-5.21268E-04-1.28018E-14
 -1      2447 3.78430E-03-4.25213E-04-1.18847E-14
 -1      2448 3.77973E-03-4.15899E-04-1.15194E-14
 -1      2449 4.21524E-03-7.13462E-04-1.47300E-14
 -1      2450 4.07113E-03-6.17452E-04-1.37499E-14
 -1      2451 4.07037E-03-6.08649E-04-1.33551E-14
 -1      2452 4.50443E-03-9.04025E-04-1.67845E-14
 -1      2453 4.35978E-03-8.09033E-04-1.57422E-14
 -1      2454 4.36191E-03-8.00614E-04-1.53179E-14
 -1      2455 4.79413E-03-1.09195E-03-1.89593E-14
 -1      2456 4.64930E-03-9.98341E-04-1.78573E-14
 -1      2457 4.65348E-03-9.90310E-04-1.74046E-14
 -1      2458 5.08379E-03-1.27709E-03-2.12554E-14
 -1      2459 4.93902E-03-1.18486E-03-2.00926E-14
 -1      2460 4.94454E-03-1.17715E-03-1.96121E-14
 -1      2461 5.37311E-03-1.45980E-03-2.36703E-14
 -1      2462 5.22853E-03-1.36872E-03-2.24479E-14
 -1      2463 5.23482E-03-1.36124E-03-2.19383E-14
 -1      2464 5.66194E-03-1.64059E-03-2.62046E-14
 -1      2465 5.51761E-03-1.55040E-03-2.49221E-14
 -1      2466 5.52427E-03-1.54307E-03-2.43843E-14
 -1      2467 5.95024E-03-1.82005E-03-2.88567E-14
 -1      2468 5.80617E-03-1.73046E-03-2.75152E-14
 -1      2469 5.81295E-03-1.72321E-03-2.69490E-14
 -1      2470 6.23803E-03-1.99866E-03-3.16264E-14
 -1      2471 6.09420E-03-1.90944E-03-3.02269E-14
 -1      2472 6.10096E-03-1.90221E-03-2.96324E-14
 -1      2473 6.52536E-03-2.17682E-03-3.45117E-14
 -1      2474 6.38175E-03-2.08778E-03-3.30557E-14
 -1      2475 6.38841E-03-2.08053E-03-3.24321E-14
 -1      2476 6.81230E-03-2.35481E-03-3.75075E-14
 -1      2477 6.66887E-03-2.26582E-03-3.59947E-14
 -1      2478 6.67542E-03-2.25853E-03-3.53443E-14
 -1      2479 7.09891E-03-2.53282E-03-4.06128E-14
 -1      2480 6.95564E-03-2.44380E-03-3.90474E-14
 -1      2481 6.96209E-03-2.43645E-03-3.83665E-14
 -1      2482 7.38527E-03-2.71096E-03-4.38239E-14
 -1      2483 7.24211E-03-2.62187E-03-4.22057E-14
 -1      2484 7.24848E-03-2.61445E-03-4.14965E-14
 -1      2485 7.67142E-03-2.88930E-03-4.71414E-14
 -1      2486 7.52836E-03-2.80010E-03-4.54698E-14
 -1      2487 7.53467E-03-2.79262E-03-4.47329E-14
 -1      2488 7.95742E-03-3.06785E-03-5.05555E-14
 -1      2489 7.81444E-03-2.97855E-03-4.88357E-14
 -1      2490 7.82071E-03-2.97101E-03-4.80713E-14
 -1      2491 8.24331E-03-3.24662E-03-5.40642E-14
 -1      2492 8.10038E-03-3.15721E-03-5.22979E-14
 -1      2493 8.10663E-03-3.14961E-03-5.15075E-14
 -1      2494 8.52912E-03-3.42557E-03-5.76613E-14
 -1      2495 8.38623E-03-3.33607E-03-5.58521E-14
 -1      2496 8.39247E-03-3.32843E-03-5.50367E-14
 -1      2497 8.81488E-03-3.60470E-03-6.13418E-14
 -1      2498 8.67201E-03-3.51512E-03-5.94921E-14
 -1      2499 8.67826E-03-3.50743E-03-5.86535E-14
 -1      2500 9.10060E-03-3.78397E-03-6.50988E-14
 -1      2501 8.95774E-03-3.69432E-03-6.32118E-14
 -1      2502 8.96401E-03-3.68660E-03-6.23524E-14
 -1      2503 9.38629E-03-3.96335E-03-6.89232E-14
 -1      2504 9.24345E-03-3.87365E-03-6.70029E-14
 -1      2505 9.24973E-03-3.86590E-03-6.61255E-14
 -1      2506 9.67198E-03-4.14283E-03-7.28103E-14
 -1      2507 9.52914E-03-4.05308E-03-7.08605E-14
 -1      2508 9.53543E-03-4.04531E-03-6.99631E-14
 -1      2509 9.95766E-03-4.32237E-03-7.67538E-14
 -1      2510 9.81482E-03-4.23259E-03-7.47751E-14
 -1      2511 9.82113E-03-4.22481E-03-7.38636E-14
 -1      2512 1.02433E-02-4.50197E-03-8.07517E-14
 -1      2513 1.01005E-02-4.41217E-03-7.87460E-14
 -1      2514 1.01068E-02-4.40438E-03-7.78190E-14
 -1      2515 1.05290E-02-4.68161E-03-8.47942E-14
 -1      2516 1.03862E-02-4.59179E-03-8.27673E-14
 -1      2517 1.03925E-02-4.58399E-03-8.18259E-14
 -1      2518 1.08147E-02-4.86128E-03-8.88865E-14
 -1      2519 1.06719E-02-4.77145E-03-8.68344E-14
 -1      2520 1.06782E-02-4.76364E-03-8.58796E-14
 -1      2521 1.11004E-02-5.04097E-03-9.30235E-14
 -1      2522 1.09575E-02-4.95113E-03-9.09502E-14
 -1      2523 1.09639E-02-4.94332E-03-8.99839E-14
 -1      2524 1.13861E-02-5.22068E-03-9.72062E-14
 -1      2525 1.12432E-02-5.13082E-03-9.51102E-14
 -1      2526 1.12496E-02-5.12301E-03-9.41343E-14
 -1      2527 1.16718E-02-5.40039E-03-1.01426E-13
 -1      2528 1.15289E-02-5.31053E-03-9.93111E-14
 -1      2529 1.15353E-02-5.30272E-03-9.83263E-14
 -1      2530 1.19575E-02-5.58011E-03-1.05676E-13
 -1      2531 1.18146E-02-5.49025E-03-1.03548E-13
 -1      2532 1.18210E-02-5.48243E-03-1.02553E-13
 -1      2533 1.22432E-02-5.75983E-03-1.09960E-13
 -1      2534 1.21003E-02-5.66997E-03-1.07816E-13
 -1      2535 1.21067E-02-5.66215E-03-1.06814E-13
 -1      2536 1.25289E-02-5.93955E-03-1.14277E-13
 -1      2537 1.23860E-02-5.84969E-03-1.12114E-13
 -1      2538 1.23924E-02-5.84187E-03-1.11104E-13
 -1      2539 1.28146E-02-6.11927E-03-1.18615E-13
 -1      2540 1.26717E-02-6.02941E-03-1.16441E-13
 -1      2541 1.26781E-02-6.02159E-03-1.15425E-13
 -1      2542 1.31003E-02-6.29899E-03-1.22977E-13
 -1      2543 1.29574E-02-6.20913E-03-1.20796E-13
 -1      2544 1.29638E-02-6.20131E-03-1.19769E-13
 -1      2545 1.33860E-02-6.47871E-03-1.27361E-13
 -1      2546 1.32431E-02-6.38885E-03-1.25167E-13
 -1      2547 1.32495E-02-6.38103E-03-1.24138E-13
 -1      2548 1.42138E-02-6.90077E-03-1.30651E-13
 -1      2549 1.41254E-02-6.85863E-03-1.30585E-13
 -1      2550 1.40385E-02-6.81720E-03-1.30519E-13
 -1      2551 1.39517E-02-6.77577E-03-1.30450E-13
 -1      2552 1.39590E-02-6.76045E-03-1.28641E-13
 -1      2553 1.38633E-02-6.73362E-03-1.30376E-13
 -1      2554 1.37750E-02-6.69148E-03-1.30302E-13
 -1      2555 1.37838E-02-6.67688E-03-1.28504E-13
 -1      2556 5.51522E-03-1.15880E-03-8.35484E-15
 -1      2557 5.63192E-03-1.17397E-03-8.37804E-15
 -1      2558 1.43905E-02-6.98507E-03-1.30773E-13
 -1      2559 1.43021E-02-6.94292E-03-1.30712E-13
 -1      2560 1.41342E-02-6.84403E-03-1.28763E-13
 -1      2561 1.45672E-02-7.06936E-03-1.30877E-13
 -1      2562 1.44788E-02-7.02722E-03-1.30827E-13
 -1      2563 1.43109E-02-6.92833E-03-1.28874E-13
 -1      2564 1.47439E-02-7.15366E-03-1.30970E-13
 -1      2565 1.46555E-02-7.11151E-03-1.30926E-13
 -1      2566 1.44876E-02-7.01262E-03-1.28968E-13
 -1      2567 1.49206E-02-7.23795E-03-1.31039E-13
 -1      2568 1.48323E-02-7.19581E-03-1.31007E-13
 -1      2569 1.46644E-02-7.09692E-03-1.29046E-13
 -1      2570 1.50943E-02-7.32082E-03-1.31090E-13
 -1      2571 1.50075E-02-7.27939E-03-1.31069E-13
 -1      2572 1.48396E-02-7.18050E-03-1.29105E-13
 -1      2573 1.52711E-02-7.40511E-03-1.31120E-13
 -1      2574 1.51827E-02-7.36297E-03-1.31107E-13
 -1      2575 1.50148E-02-7.26408E-03-1.29147E-13
 -1      2576 1.54478E-02-7.48940E-03-1.31123E-13
 -1      2577 1.53594E-02-7.44726E-03-1.31126E-13
 -1      2578 1.51915E-02-7.34837E-03-1.29166E-13
 -1      2579 1.56245E-02-7.57369E-03-1.31108E-13
 -1      2580 1.55362E-02-7.53155E-03-1.31116E-13
 -1      2581 1.53683E-02-7.43266E-03-1.29162E-13
 -1      2582 3.78475E-03-3.85292E-04-6.30198E-15
 -1      2583 3.99827E-03-5.16483E-04-6.62292E-15
 -1      2584 5.68150E-03-1.19525E-03-8.05168E-15
 -1      2585 5.61601E-03-1.20858E-03-7.81962E-15
 -1      2586 5.11453E-04-1.46712E-04-3.39477E-16
 -1      2587 4.77849E-04-1.67833E-04-3.34720E-16
 -1      2588 6.45469E-04-1.51069E-04-4.63835E-16
 -1      2589 5.69674E-03-1.17974E-03-8.26100E-15
 -1      2590 5.71086E-03-1.18285E-03-8.19622E-15
 -1      2591 2.31959E-03 1.13740E-04-2.98657E-15
 -1      2592 2.46142E-03 1.50820E-04-3.27762E-15
 -1      2593 2.96248E-03 1.00775E-04-4.50857E-15
 -1      2594 3.09283E-03 3.90846E-05-4.84435E-15
 -1      2595 1.04786E-03-5.52180E-04-1.14949E-15
 -1      2596 8.93505E-04-4.99449E-04-1.10960E-15
 -1      2597 2.63286E-03 1.66277E-04-3.65701E-15
 -1      2598 2.79270E-03 1.51296E-04-4.06055E-15
 -1      2599 2.53206E-03 1.67429E-04-3.46411E-15
 -1      2600 1.98186E-03-1.60039E-05-2.41529E-15
 -1      2601 2.13999E-03 5.24892E-05-2.66497E-15
 -1      2602 1.63540E-03-1.65106E-04-1.95310E-15
 -1      2603 1.80357E-03-9.18235E-05-2.16357E-15
 -1      2604 8.91522E-04-4.13801E-04-1.30153E-15
 -1      2605 1.01710E-03-3.87948E-04-1.40225E-15
 -1      2606 6.61110E-04-4.40147E-04-1.13227E-15
 -1      2607 7.54150E-04-4.36054E-04-1.20311E-15
 -1      2608 6.14511E-04-4.37556E-04-1.07382E-15
 -1      2609 6.15317E-04-4.40623E-04-1.08915E-15
 -1      2610 7.49120E-04-4.58498E-04-1.07998E-15
 -1      2611 6.58155E-04-4.43365E-04-1.06682E-15
 -1      2612 5.51494E-03-1.24019E-03-7.53584E-15
 -1      2613 5.39084E-03-1.28505E-03-7.27668E-15
 -1      2614 5.15897E-03-1.06127E-03-8.00364E-15
 -1      2615 5.33323E-03-1.11223E-03-8.18151E-15
 -1      2616 1.36234E-02-6.60956E-03-1.29246E-13
 -1      2617 4.18260E-04-2.08633E-04-3.87589E-16
 -1      2618 3.62446E-04-1.61852E-04-2.86338E-16
 -1      2619 3.79060E-04-1.48989E-04-2.74073E-16
 -1      2620 4.58277E-03-8.61751E-04-7.73166E-15
 -1      2621 9.08554E-04 4.30840E-04-5.17273E-16
 -1      2622 8.85734E-04 4.03528E-04-5.19387E-16
 -1      2623 1.02282E-03 4.57714E-04-6.73046E-16
 -1      2624 5.50245E-04-2.04048E-04-4.39305E-16
 -1      2625 4.10912E-03-6.11180E-04-7.08157E-15
 -1      2626 3.18514E-03-2.57091E-05-5.20295E-15
 -1      2627 1.35439E-02-6.55281E-03-1.27379E-13
 -1      2628 5.67541E-03-1.19882E-03-8.73201E-15
 -1      2629 5.43714E-03-1.16476E-03-8.67081E-15
 -1      2630 3.63079E-03-3.07809E-04-6.20829E-15
 -1      2631 1.23661E-03 4.90277E-04-1.03307E-15
 -1      2632 1.12302E-03 4.72924E-04-8.34809E-16
 -1      2633 1.10428E-03 4.46814E-04-8.33142E-16
 -1      2634 1.31079E-03 4.67114E-04-1.20647E-15
 -1      2635 4.11408E-04-1.41197E-04-2.66348E-16
 -1      2636 4.59676E-04-1.37037E-04-2.48824E-16
 -1      2637 5.64626E-04-1.83111E-04-3.39924E-16
 -1      2638 4.55894E-04-1.86190E-04-3.64671E-16
 -1      2639 5.58375E-03-1.23246E-03-8.02625E-15
 -1      2640 1.10750E-03-3.49539E-04-1.40961E-15
 -1      2641 1.38678E-03-2.43517E-04-1.60711E-15
 -1      2642 1.50959E-03-2.08873E-04-1.77483E-15
 -1      2643 1.58445E-03-1.54126E-04-1.79537E-15
 -1      2644 5.04094E-03-1.05033E-03-8.27395E-15
 -1      2645 8.12350E-04-4.38391E-04-9.96023E-16
 -1      2646 6.27682E-04-4.09078E-04-9.76371E-16
 -1      2647 6.24507E-04-4.17605E-04-1.02256E-15
 -1      2648 2.21123E-03 9.29216E-05-2.77176E-15
 -1      2649 7.99535E-04-4.09686E-04-1.15279E-15
 -1      2650 2.84421E-03 1.33486E-04-4.28664E-15
 -1      2651 1.87751E-03-4.11443E-05-2.21286E-15
 -1      2652 5.71384E-03-1.20313E-03-8.46632E-15
 -1      2653 5.35871E-03-1.31049E-03-7.49968E-15
 -1      2654 5.25816E-03-1.34313E-03-7.04562E-15
 -1      2655 1.17364E-03-5.62736E-04-1.08862E-15
 -1      2656 1.07999E-03-4.88147E-04-9.63212E-16
 -1      2657 5.08119E-03-1.43312E-03-6.72430E-15
 -1      2658 1.57666E-02-7.64279E-03-1.31226E-13
 -1      2659 1.57011E-02-7.61228E-03-1.31314E-13
 -1      2660 1.55332E-02-7.51339E-03-1.29359E-13
 -1      2661 1.56863E-02-7.59057E-03-1.29767E-13
 -1      2662 1.51750E-03-7.63455E-04-1.26819E-15
 -1      2663 1.26249E-03-6.39948E-04-1.19977E-15
 -1      2664 5.16094E-03-1.41032E-03-7.20168E-15
 -1      2665 4.99965E-03-1.48167E-03-6.66498E-15
 -1      2666 8.82675E-04 3.46969E-05-6.27374E-16
 -1      2667 8.72955E-04-8.55699E-06-6.25937E-16
 -1      2668 8.55692E-04-5.42278E-05-6.22440E-16
 -1      2669 8.29149E-04-9.96687E-05-6.17318E-16
 -1      2670 1.00891E-03-2.23154E-05-7.94368E-16
 -1      2671 8.74679E-04 1.94097E-04-6.10541E-16
 -1      2672 8.80835E-04 1.56521E-04-6.18971E-16
 -1      2673 8.60990E-04 2.66749E-04-5.82976E-16
 -1      2674 8.67635E-04 2.30692E-04-5.98967E-16
 -1      2675 1.00616E-03 2.39866E-04-7.75394E-16
 -1      2676 8.64540E-04 3.76678E-04-5.18926E-16
 -1      2677 8.44898E-04 3.50227E-04-5.16311E-16
 -1      2678 9.82367E-04 4.04545E-04-6.71474E-16
 -1      2679 1.55687E-03-7.04199E-04-1.07802E-15
 -1      2680 1.44081E-02-6.95588E-03-1.27059E-13
 -1      2681 1.43197E-02-6.91373E-03-1.27020E-13
 -1      2682 1.38787E-02-6.70335E-03-1.26760E-13
 -1      2683 1.37919E-02-6.66192E-03-1.26698E-13
 -1      2684 5.62574E-03-1.34528E-03-9.26664E-15
 -1      2685 5.76925E-03-1.38025E-03-1.01368E-14
 -1      2686 5.90774E-03-1.43251E-03-1.10377E-14
 -1      2687 6.04615E-03-1.49735E-03-1.19675E-14
 -1      2688 5.86644E-03-1.37510E-03-1.06688E-14
 -1      2689 6.17690E-03-1.56727E-03-1.28771E-14
 -1      2690 6.30937E-03-1.64353E-03-1.38130E-14
 -1      2691 6.10351E-03-1.50411E-03-1.24795E-14
 -1      2692 6.44925E-03-1.72820E-03-1.48280E-14
 -1      2693 6.59093E-03-1.81671E-03-1.58710E-14
 -1      2694 6.35199E-03-1.65906E-03-1.44009E-14
 -1      2695 6.73309E-03-1.90735E-03-1.69419E-14
 -1      2696 6.87648E-03-1.99976E-03-1.80427E-14
 -1      2697 6.61848E-03-1.83309E-03-1.64860E-14
 -1      2698 7.02008E-03-2.09301E-03-1.91726E-14
 -1      2699 7.16437E-03-2.18691E-03-2.03315E-14
 -1      2700 6.89362E-03-2.01528E-03-1.86854E-14
 -1      2701 7.30865E-03-2.28100E-03-2.15196E-14
 -1      2702 7.45324E-03-2.37515E-03-2.27367E-14
 -1      2703 7.17431E-03-2.20111E-03-2.10020E-14
 -1      2704 7.59770E-03-2.46920E-03-2.39826E-14
 -1      2705 7.74224E-03-2.56305E-03-2.52589E-14
 -1      2706 7.45822E-03-2.38809E-03-2.34358E-14
 -1      2707 7.88661E-03-2.65668E-03-2.65642E-14
 -1      2708 8.03094E-03-2.75003E-03-2.78981E-14
 -1      2709 7.74383E-03-2.57495E-03-2.59855E-14
 -1      2710 8.17509E-03-2.84312E-03-2.92587E-14
 -1      2711 8.31915E-03-2.93591E-03-3.06488E-14
 -1      2712 8.03022E-03-2.76111E-03-2.86503E-14
 -1      2713 8.46305E-03-3.02846E-03-3.20688E-14
 -1      2714 8.60686E-03-3.12073E-03-3.35160E-14
 -1      2715 8.31687E-03-2.94637E-03-3.14282E-14
 -1      2716 8.75052E-03-3.21278E-03-3.49901E-14
 -1      2717 8.89410E-03-3.30460E-03-3.64905E-14
 -1      2718 8.60353E-03-3.13072E-03-3.43203E-14
 -1      2719 9.03756E-03-3.39622E-03-3.80187E-14
 -1      2720 9.18094E-03-3.48765E-03-3.95718E-14
 -1      2721 8.89007E-03-3.31423E-03-3.73196E-14
 -1      2722 9.32423E-03-3.57891E-03-4.11501E-14
 -1      2723 9.46746E-03-3.67001E-03-4.27530E-14
 -1      2724 9.17646E-03-3.49701E-03-4.04249E-14
 -1      2725 9.61063E-03-3.76098E-03-4.43798E-14
 -1      2726 9.75375E-03-3.85181E-03-4.60307E-14
 -1      2727 9.46270E-03-3.67916E-03-4.36278E-14
 -1      2728 9.89681E-03-3.94254E-03-4.77038E-14
 -1      2729 1.00398E-02-4.03315E-03-4.94018E-14
 -1      2730 9.74880E-03-3.86080E-03-4.69259E-14
 -1      2731 1.01828E-02-4.12368E-03-5.11218E-14
 -1      2732 1.03258E-02-4.21411E-03-5.28595E-14
 -1      2733 1.00348E-02-4.04201E-03-5.03175E-14
 -1      2734 1.04687E-02-4.30448E-03-5.46210E-14
 -1      2735 1.06117E-02-4.39478E-03-5.64035E-14
 -1      2736 1.03207E-02-4.22288E-03-5.37946E-14
 -1      2737 1.07546E-02-4.48502E-03-5.82038E-14
 -1      2738 1.08975E-02-4.57521E-03-6.00215E-14
 -1      2739 1.06065E-02-4.40347E-03-5.73509E-14
 -1      2740 1.10332E-02-4.66085E-03-6.17650E-14
 -1      2741 1.11689E-02-4.74645E-03-6.35276E-14
 -1      2742 1.08852E-02-4.57933E-03-6.08929E-14
 -1      2743 1.13118E-02-4.83652E-03-6.53986E-14
 -1      2744 1.14546E-02-4.92656E-03-6.72890E-14
 -1      2745 1.11638E-02-4.75503E-03-6.45061E-14
 -1      2746 1.15975E-02-5.01657E-03-6.91946E-14
 -1      2747 1.17403E-02-5.10655E-03-7.11172E-14
 -1      2748 1.14495E-02-4.93511E-03-6.82824E-14
 -1      2749 1.18832E-02-5.19652E-03-7.30590E-14
 -1      2750 1.20260E-02-5.28646E-03-7.50194E-14
 -1      2751 1.17352E-02-5.11508E-03-7.21295E-14
 -1      2752 1.21689E-02-5.37639E-03-7.69937E-14
 -1      2753 1.23117E-02-5.46631E-03-7.89831E-14
 -1      2754 1.20209E-02-5.29497E-03-7.60462E-14
 -1      2755 1.24546E-02-5.55622E-03-8.09891E-14
 -1      2756 1.25974E-02-5.64611E-03-8.30083E-14
 -1      2757 1.23066E-02-5.47480E-03-8.00274E-14
 -1      2758 1.27403E-02-5.73600E-03-8.50403E-14
 -1      2759 1.28831E-02-5.82588E-03-8.70865E-14
 -1      2760 1.25923E-02-5.65459E-03-8.40682E-14
 -1      2761 1.30259E-02-5.91575E-03-8.91451E-14
 -1      2762 1.31688E-02-6.00562E-03-9.12143E-14
 -1      2763 1.28780E-02-5.83435E-03-8.81571E-14
 -1      2764 1.33116E-02-6.09549E-03-9.32968E-14
 -1      2765 1.34545E-02-6.18535E-03-9.53926E-14
 -1      2766 1.31637E-02-6.01409E-03-9.22962E-14
 -1      2767 1.35973E-02-6.27521E-03-9.74999E-14
 -1      2768 1.37402E-02-6.36507E-03-9.96205E-14
 -1      2769 1.34494E-02-6.19381E-03-9.64851E-14
 -1      2770 1.38830E-02-6.45492E-03-1.01754E-13
 -1      2771 1.40259E-02-6.54478E-03-1.03897E-13
 -1      2772 1.37351E-02-6.37353E-03-1.00724E-13
 -1      2773 1.41687E-02-6.63463E-03-1.06053E-13
 -1      2774 1.43116E-02-6.72448E-03-1.08219E-13
 -1      2775 1.40208E-02-6.55323E-03-1.05011E-13
 -1      2776 1.44544E-02-6.81434E-03-1.10401E-13
 -1      2777 1.45973E-02-6.90419E-03-1.12592E-13
 -1      2778 1.43065E-02-6.73294E-03-1.09347E-13
 -1      2779 1.47401E-02-6.99404E-03-1.14792E-13
 -1      2780 1.48830E-02-7.08390E-03-1.17004E-13
 -1      2781 1.45922E-02-6.91264E-03-1.13724E-13
 -1      2782 1.50258E-02-7.17375E-03-1.19227E-13
 -1      2783 1.51687E-02-7.26360E-03-1.21459E-13
 -1      2784 1.48779E-02-7.09235E-03-1.18141E-13
 -1      2785 1.53116E-02-7.35346E-03-1.23700E-13
 -1      2786 1.54544E-02-7.44331E-03-1.25948E-13
 -1      2787 1.51637E-02-7.27206E-03-1.22600E-13
 -1      2788 1.92741E-03 4.48102E-04-2.71551E-15
 -1      2789 1.78585E-03 4.55645E-04-2.31302E-15
 -1      2790 2.20692E-03 4.04771E-04-3.62647E-15
 -1      2791 2.06753E-03 4.31342E-04-3.15316E-15
 -1      2792 2.02326E-03 4.10246E-04-2.97073E-15
 -1      2793 1.64294E-03 4.54277E-04-1.94521E-15
 -1      2794 1.49832E-03 4.44914E-04-1.61177E-15
 -1      2795 1.73379E-03 4.23369E-04-2.16129E-15
 -1      2796 2.76298E-03 2.02179E-04-5.87449E-15
 -1      2797 2.62321E-03 2.66550E-04-5.25933E-15
 -1      2798 3.04548E-03 5.07465E-05-7.21164E-15
 -1      2799 2.90358E-03 1.29887E-04-6.52530E-15
 -1      2800 2.87711E-03 1.34110E-04-6.24954E-15
 -1      2801 3.33297E-03-1.23576E-04-8.68714E-15
 -1      2802 3.18858E-03-3.41644E-05-7.93225E-15
 -1      2803 3.16733E-03-2.70314E-05-7.62568E-15
 -1      2804 3.62500E-03-3.11401E-04-1.02983E-14
 -1      2805 3.47854E-03-2.16372E-04-9.47570E-15
 -1      2806 3.46270E-03-2.08606E-04-9.13949E-15
 -1      2807 3.91976E-03-5.04481E-04-1.20412E-14
 -1      2808 3.77224E-03-4.07721E-04-1.11536E-14
 -1      2809 3.76194E-03-4.00488E-04-1.07877E-14
 -1      2810 4.21496E-03-6.97281E-04-1.39117E-14
 -1      2811 4.06740E-03-6.00943E-04-1.29610E-14
 -1      2812 4.06224E-03-5.94316E-04-1.25664E-14
 -1      2813 4.50971E-03-8.88485E-04-1.59087E-14
 -1      2814 4.36250E-03-7.93175E-04-1.48942E-14
 -1      2815 4.36153E-03-7.86783E-04-1.44712E-14
 -1      2816 4.80328E-03-1.07692E-03-1.80263E-14
 -1      2817 4.65671E-03-9.83068E-04-1.69522E-14
 -1      2818 4.65893E-03-9.76725E-04-1.65008E-14
 -1      2819 5.09539E-03-1.26241E-03-2.02652E-14
 -1      2820 4.94955E-03-1.17001E-03-1.91306E-14
 -1      2821 4.95401E-03-1.16358E-03-1.86502E-14
 -1      2822 5.38608E-03-1.44532E-03-2.26229E-14
 -1      2823 5.24093E-03-1.35415E-03-2.14298E-14
 -1      2824 5.24682E-03-1.34755E-03-2.09210E-14
 -1      2825 5.67554E-03-1.62620E-03-2.50999E-14
 -1      2826 5.53096E-03-1.53597E-03-2.38462E-14
 -1      2827 5.53766E-03-1.52918E-03-2.33097E-14
 -1      2828 5.96399E-03-1.80566E-03-2.76953E-14
 -1      2829 5.81988E-03-1.71607E-03-2.63831E-14
 -1      2830 5.82694E-03-1.70911E-03-2.58173E-14
 -1      2831 6.25168E-03-1.98421E-03-3.04093E-14
 -1      2832 6.10792E-03-1.89502E-03-2.90375E-14
 -1      2833 6.11508E-03-1.88791E-03-2.84437E-14
 -1      2834 6.53879E-03-2.16227E-03-3.32388E-14
 -1      2835 6.39529E-03-2.07328E-03-3.18097E-14
 -1      2836 6.40239E-03-2.06605E-03-3.11885E-14
 -1      2837 6.82548E-03-2.34014E-03-3.61762E-14
 -1      2838 6.68218E-03-2.25121E-03-3.46939E-14
 -1      2839 6.68914E-03-2.24388E-03-3.40440E-14
 -1      2840 7.11188E-03-2.51802E-03-3.92250E-14
 -1      2841 6.96871E-03-2.42907E-03-3.76876E-14
 -1      2842 6.97552E-03-2.42165E-03-3.70095E-14
 -1      2843 7.39806E-03-2.69603E-03-4.23803E-14
 -1      2844 7.25499E-03-2.60700E-03-4.07898E-14
 -1      2845 7.26165E-03-2.59952E-03-4.00840E-14
 -1      2846 7.68409E-03-2.87425E-03-4.56392E-14
 -1      2847 7.54109E-03-2.78511E-03-4.39959E-14
 -1      2848 7.54763E-03-2.77757E-03-4.32622E-14
 -1      2849 7.97001E-03-3.05269E-03-4.90003E-14
 -1      2850 7.82706E-03-2.96344E-03-4.73081E-14
 -1      2851 7.83351E-03-2.95585E-03-4.65449E-14
 -1      2852 8.25586E-03-3.23136E-03-5.24597E-14
 -1      2853 8.11294E-03-3.14200E-03-5.07179E-14
 -1      2854 8.11933E-03-3.13436E-03-4.99304E-14
 -1      2855 8.54166E-03-3.41023E-03-5.60093E-14
 -1      2856 8.39876E-03-3.32077E-03-5.42236E-14
 -1      2857 8.40510E-03-3.31310E-03-5.34105E-14
 -1      2858 8.82742E-03-3.58929E-03-5.96461E-14
 -1      2859 8.68454E-03-3.49974E-03-5.78176E-14
 -1      2860 8.69085E-03-3.49204E-03-5.69815E-14
 -1      2861 9.11316E-03-3.76850E-03-6.33619E-14
 -1      2862 8.97029E-03-3.67888E-03-6.14944E-14
 -1      2863 8.97659E-03-3.67115E-03-6.06371E-14
 -1      2864 9.39888E-03-3.94784E-03-6.71494E-14
 -1      2865 9.25602E-03-3.85816E-03-6.52476E-14
 -1      2866 9.26232E-03-3.85041E-03-6.43700E-14
 -1      2867 9.68459E-03-4.12728E-03-7.10019E-14
 -1      2868 9.54173E-03-4.03755E-03-6.90667E-14
 -1      2869 9.54804E-03-4.02979E-03-6.81717E-14
 -1      2870 9.97029E-03-4.30680E-03-7.49129E-14
 -1      2871 9.82744E-03-4.21704E-03-7.29509E-14
 -1      2872 9.83375E-03-4.20926E-03-7.20373E-14
 -1      2873 1.02560E-02-4.48638E-03-7.88809E-14
 -1      2874 1.01131E-02-4.39659E-03-7.68898E-14
 -1      2875 1.01195E-02-4.38880E-03-7.59613E-14
 -1      2876 1.05417E-02-4.66601E-03-8.28996E-14
 -1      2877 1.03988E-02-4.57619E-03-8.08859E-14
 -1      2878 1.04052E-02-4.56840E-03-7.99424E-14
 -1      2879 1.08274E-02-4.84567E-03-8.69644E-14
 -1      2880 1.06845E-02-4.75584E-03-8.49248E-14
 -1      2881 1.06909E-02-4.74803E-03-8.39719E-14
 -1      2882 1.11131E-02-5.02535E-03-9.10805E-14
 -1      2883 1.09702E-02-4.93551E-03-8.90167E-14
 -1      2884 1.09766E-02-4.92770E-03-8.80497E-14
 -1      2885 1.13988E-02-5.20505E-03-9.52426E-14
 -1      2886 1.12560E-02-5.11520E-03-9.31560E-14
 -1      2887 1.12623E-02-5.10739E-03-9.21769E-14
 -1      2888 1.16845E-02-5.38476E-03-9.94430E-14
 -1      2889 1.15417E-02-5.29491E-03-9.73384E-14
 -1      2890 1.15480E-02-5.28709E-03-9.63495E-14
 -1      2891 1.19702E-02-5.56448E-03-1.03677E-13
 -1      2892 1.18274E-02-5.47462E-03-1.01556E-13
 -1      2893 1.18337E-02-5.46681E-03-1.00558E-13
 -1      2894 1.22559E-02-5.74420E-03-1.07947E-13
 -1      2895 1.21131E-02-5.65434E-03-1.05809E-13
 -1      2896 1.21194E-02-5.64652E-03-1.04802E-13
 -1      2897 1.25416E-02-5.92392E-03-1.12248E-13
 -1      2898 1.23988E-02-5.83406E-03-1.10094E-13
 -1      2899 1.24052E-02-5.82624E-03-1.09081E-13
 -1      2900 1.28273E-02-6.10364E-03-1.16573E-13
 -1      2901 1.26845E-02-6.01378E-03-1.14407E-13
 -1      2902 1.26909E-02-6.00596E-03-1.13388E-13
 -1      2903 1.31131E-02-6.28336E-03-1.20923E-13
 -1      2904 1.29702E-02-6.19350E-03-1.18747E-13
 -1      2905 1.29766E-02-6.18569E-03-1.17723E-13
 -1      2906 1.33999E-02-6.46302E-03-1.25241E-13
 -1      2907 1.32571E-02-6.37316E-03-1.23052E-13
 -1      2908 1.32634E-02-6.36534E-03-1.22021E-13
 -1      2909 1.35514E-02-6.54494E-03-1.26288E-13
 -1      2910 5.64689E-03-1.23944E-03-8.53386E-15
 -1      2911 5.55446E-03-1.25905E-03-8.23800E-15
 -1      2912 1.42314E-02-6.87158E-03-1.26976E-13
 -1      2913 1.41430E-02-6.82944E-03-1.26927E-13
 -1      2914 1.41518E-02-6.81484E-03-1.25081E-13
 -1      2915 6.73654E-04-2.35007E-04-4.46136E-16
 -1      2916 7.91364E-04-2.94768E-04-5.69138E-16
 -1      2917 5.92830E-04-2.28390E-04-4.63334E-16
 -1      2918 1.37158E-02-6.62450E-03-1.26530E-13
 -1      2919 1.36275E-02-6.58236E-03-1.26461E-13
 -1      2920 1.34835E-02-6.49256E-03-1.24322E-13
 -1      2921 1.36355E-02-6.56740E-03-1.24659E-13
 -1      2922 1.40550E-02-6.78747E-03-1.26876E-13
 -1      2923 1.39667E-02-6.74532E-03-1.26817E-13
 -1      2924 1.37996E-02-6.64679E-03-1.24883E-13
 -1      2925 1.39755E-02-6.73072E-03-1.24989E-13
 -1      2926 2.48433E-03 3.22159E-04-4.67881E-15
 -1      2927 2.34557E-03 3.68380E-04-4.13481E-15
 -1      2928 2.30805E-03 3.58052E-04-3.92054E-15
 -1      2929 2.59147E-03 2.64955E-04-5.01343E-15
 -1      2930 1.45848E-02-7.04017E-03-1.27124E-13
 -1      2931 1.44965E-02-6.99803E-03-1.27095E-13
 -1      2932 1.43286E-02-6.89914E-03-1.25153E-13
 -1      2933 1.47585E-02-7.12304E-03-1.27173E-13
 -1      2934 1.46717E-02-7.08161E-03-1.27152E-13
 -1      2935 1.45038E-02-6.98272E-03-1.25206E-13
 -1      2936 1.49353E-02-7.20733E-03-1.27203E-13
 -1      2937 1.48469E-02-7.16519E-03-1.27189E-13
 -1      2938 1.46790E-02-7.06630E-03-1.25242E-13
 -1      2939 1.51120E-02-7.29163E-03-1.27213E-13
 -1      2940 1.50236E-02-7.24948E-03-1.27211E-13
 -1      2941 1.48557E-02-7.15059E-03-1.25264E-13
 -1      2942 1.52887E-02-7.37592E-03-1.27201E-13
 -1      2943 1.52004E-02-7.33377E-03-1.27211E-13
 -1      2944 1.50325E-02-7.23489E-03-1.25266E-13
 -1      2945 3.08620E-03 1.53537E-05-5.11090E-15
 -1      2946 3.26589E-03-9.25252E-05-5.58684E-15
 -1      2947 6.73463E-04-2.21488E-04-5.72987E-16
 -1      2948 6.08377E-04-2.44506E-04-5.50517E-16
 -1      2949 4.01975E-03-5.87766E-04-7.27692E-15
 -1      2950 4.22857E-03-7.11005E-04-7.61766E-15
 -1      2951 8.85207E-04 1.17683E-04-6.24243E-16
 -1      2952 8.86128E-04 7.70688E-05-6.26913E-16
 -1      2953 1.02785E-03 7.36254E-05-7.99667E-16
 -1      2954 1.02251E-03 1.60167E-04-7.94232E-16
 -1      2955 1.02179E-03-3.46133E-04-1.24192E-15
 -1      2956 1.19096E-03-3.05651E-04-1.40392E-15
 -1      2957 5.52635E-04-2.59553E-04-5.38171E-16
 -1      2958 5.07811E-04-2.63832E-04-5.24598E-16
 -1      2959 6.61874E-04-2.89000E-04-6.84748E-16
 -1      2960 4.45359E-03-8.24654E-04-7.94040E-15
 -1      2961 4.68475E-03-9.36961E-04-8.27065E-15
 -1      2962 4.35357E-03-7.95215E-04-8.14260E-15
 -1      2963 5.35083E-03-1.17730E-03-9.13894E-15
 -1      2964 5.52186E-03-1.21370E-03-9.32267E-15
 -1      2965 6.38243E-04-3.66317E-04-8.50943E-16
 -1      2966 5.93017E-04-3.70678E-04-8.57343E-16
 -1      2967 1.28002E-03-5.65947E-04-1.00307E-15
 -1      2968 5.74559E-03-1.22447E-03-9.01214E-15
 -1      2969 5.72354E-03-1.22686E-03-8.86038E-15
 -1      2970 2.73126E-03 1.58330E-04-4.06576E-15
 -1      2971 2.87751E-03 1.13184E-04-4.50936E-15
 -1      2972 2.09872E-03 7.81832E-05-2.54552E-15
 -1      2973 2.24994E-03 1.30833E-04-2.85481E-15
 -1      2974 5.88773E-04-3.81719E-04-8.91451E-16
 -1      2975 6.27129E-04-3.90461E-04-9.28043E-16
 -1      2976 4.94283E-03-1.04331E-03-8.59807E-15
 -1      2977 5.14277E-03-1.11203E-03-8.82314E-15
 -1      2978 1.00135E-03-4.39737E-04-8.82778E-16
 -1      2979 9.04663E-04-4.34415E-04-9.39624E-16
 -1      2980 7.63307E-04-4.01982E-04-9.15399E-16
 -1      2981 2.42537E-03 1.66758E-04-3.25437E-15
 -1      2982 2.56817E-03 1.77223E-04-3.62790E-15
 -1      2983 1.80097E-03-4.32503E-05-2.04737E-15
 -1      2984 1.95397E-03 2.13263E-05-2.28879E-15
 -1      2985 2.00007E-03 7.32028E-05-2.35964E-15
 -1      2986 7.92436E-04-1.44943E-04-6.10379E-16
 -1      2987 7.46014E-04-1.86073E-04-6.02179E-16
 -1      2988 9.50063E-04-1.25367E-04-7.79718E-16
 -1      2989 8.90056E-04-3.53482E-04-6.96824E-16
 -1      2990 7.15807E-04-3.87650E-04-9.86387E-16
 -1      2991 8.33660E-04-3.76755E-04-1.07113E-15
 -1      2992 3.49434E-03-2.40441E-04-6.16584E-15
 -1      2993 3.73363E-03-4.00834E-04-6.71240E-15
 -1      2994 5.66854E-03-1.23083E-03-9.31819E-15
 -1      2995 5.72831E-03-1.22722E-03-9.19917E-15
 -1      2996 7.64437E-04-3.34580E-04-7.18040E-16
 -1      2997 8.45911E-04 3.13675E-04-5.43646E-16
 -1      2998 1.27243E-03-2.54725E-04-1.42087E-15
 -1      2999 5.13420E-04-2.84896E-04-5.84832E-16
 -1      3000 5.01244E-04-2.75567E-04-5.66685E-16
 -1      3001 1.43817E-03 4.02877E-04-1.48988E-15
 -1      3002 1.35222E-03 4.27927E-04-1.31254E-15
 -1      3003 1.56060E-02-7.53835E-03-1.28310E-13
 -1      3004 5.71914E-03-1.25103E-03-9.08277E-15
 -1      3005 3.86403E-03-5.01387E-04-7.22529E-15
 -1      3006 8.20932E-04-2.24211E-04-7.35008E-16
 -1      3007 3.37893E-03-1.77958E-04-6.05784E-15
 -1      3008 1.53816E-02-7.41836E-03-1.26995E-13
 -1      3009 1.52137E-02-7.31947E-03-1.25055E-13
 -1      3010 2.96288E-03 6.92646E-05-4.86064E-15
 -1      3011 3.04493E-03 1.74818E-05-5.22275E-15
 -1      3012 2.85201E-03 1.10034E-04-4.61667E-15
 -1      3013 4.81645E-03-1.00989E-03-8.81257E-15
 -1      3014 9.77895E-04 3.28218E-04-7.18311E-16
 -1      3015 1.24495E-03 4.20592E-04-1.11068E-15
 -1      3016 5.61988E-03-1.24902E-03-9.80065E-15
 -1      3017 1.68048E-03-8.33850E-05-1.86289E-15
 -1      3018 1.74836E-03-1.72456E-05-1.92648E-15
 -1      3019 1.55980E-03-1.19447E-04-1.68783E-15
 -1      3020 5.65621E-04-3.42394E-04-7.71329E-16
 -1      3021 5.86273E-04-3.30483E-04-7.35062E-16
 -1      3022 2.61352E-03 1.74930E-04-3.82824E-15
 -1      3023 5.26841E-03-1.17377E-03-9.47296E-15
 -1      3024 6.88423E-04-3.52205E-04-8.00324E-16
 -1      3025 5.55086E-03-1.32205E-03-8.75682E-15
 -1      3026 5.68564E-03-1.29327E-03-9.26110E-15
 -1      3027 5.76917E-03-1.25329E-03-9.60583E-15
 -1      3028 2.29772E-03 1.60788E-04-2.99809E-15
 -1      3029 6.41721E-04-3.62065E-04-8.54934E-16
 -1      3030 5.46438E-03-1.29351E-03-8.05852E-15
 -1      3031 5.35532E-03-1.33720E-03-7.81436E-15
 -1      3032 1.54581E-02-7.45695E-03-1.27198E-13
 -1      3033 5.29499E-03-1.37559E-03-7.75149E-15
 -1      3034 1.16579E-03 1.85381E-05-9.90554E-16
 -1      3035 1.14772E-03-3.53613E-05-9.83507E-16
 -1      3036 1.13645E-03 2.85494E-04-9.61186E-16
 -1      3037 1.14786E-03 2.45404E-04-9.76107E-16
 -1      3038 1.08676E-03 4.20714E-04-8.28995E-16
 -1      3039 1.16099E-03-2.52801E-04-1.23130E-15
 -1      3040 1.33726E-03-1.99282E-04-1.41848E-15
 -1      3041 5.13443E-04-2.58326E-04-5.41024E-16
 -1      3042 5.56492E-04-2.51879E-04-5.28555E-16
 -1      3043 1.44235E-02-6.92562E-03-1.23292E-13
 -1      3044 1.43366E-02-6.88419E-03-1.23272E-13
 -1      3045 1.52882E-03 3.76780E-04-1.67215E-15
 -1      3046 1.37645E-03 3.58613E-04-1.36834E-15
 -1      3047 2.51296E-03 1.88494E-04-3.63996E-15
 -1      3048 2.65912E-03 1.67620E-04-4.07556E-15
 -1      3049 5.58120E-03-1.27229E-03-1.03487E-14
 -1      3050 5.71634E-03-1.28640E-03-1.03482E-14
 -1      3051 8.27897E-04-3.41271E-04-9.71404E-16
 -1      3052 9.41059E-04-3.52852E-04-1.14120E-15
 -1      3053 1.42483E-02-6.84204E-03-1.23247E-13
 -1      3054 1.41599E-02-6.79989E-03-1.23221E-13
 -1      3055 1.41680E-02-6.78494E-03-1.21347E-13
 -1      3056 6.03899E-03-1.45033E-03-1.21100E-14
 -1      3057 6.14550E-03-1.52061E-03-1.30175E-14
 -1      3058 6.26229E-03-1.59812E-03-1.40023E-14
 -1      3059 6.38458E-03-1.68062E-03-1.50157E-14
 -1      3060 6.17527E-03-1.54377E-03-1.36054E-14
 -1      3061 6.51059E-03-1.76568E-03-1.60585E-14
 -1      3062 6.64054E-03-1.85367E-03-1.71297E-14
 -1      3063 6.40540E-03-1.70346E-03-1.56316E-14
 -1      3064 6.77309E-03-1.94305E-03-1.82291E-14
 -1      3065 6.90828E-03-2.03401E-03-1.93583E-14
 -1      3066 6.65508E-03-1.87471E-03-1.77745E-14
 -1      3067 7.04514E-03-2.12562E-03-2.05169E-14
 -1      3068 7.18368E-03-2.21798E-03-2.17043E-14
 -1      3069 6.91815E-03-2.05294E-03-2.00323E-14
 -1      3070 7.32323E-03-2.31054E-03-2.29211E-14
 -1      3071 7.46380E-03-2.40336E-03-2.41672E-14
 -1      3072 7.19002E-03-2.23495E-03-2.24081E-14
 -1      3073 7.60496E-03-2.49615E-03-2.54427E-14
 -1      3074 7.74673E-03-2.58895E-03-2.67471E-14
 -1      3075 7.46751E-03-2.41870E-03-2.49009E-14
 -1      3076 7.88881E-03-2.68161E-03-2.80786E-14
 -1      3077 8.03123E-03-2.77414E-03-2.94377E-14
 -1      3078 7.74848E-03-2.60301E-03-2.75078E-14
 -1      3079 8.17381E-03-2.86649E-03-3.08266E-14
 -1      3080 8.31657E-03-2.95867E-03-3.22451E-14
 -1      3081 8.03155E-03-2.78722E-03-3.02269E-14
 -1      3082 8.45940E-03-3.05066E-03-3.36904E-14
 -1      3083 8.60232E-03-3.14247E-03-3.51621E-14
 -1      3084 8.31586E-03-2.97101E-03-3.30604E-14
 -1      3085 8.74527E-03-3.23411E-03-3.66621E-14
 -1      3086 8.88825E-03-3.32557E-03-3.81881E-14
 -1      3087 8.60089E-03-3.15426E-03-3.60044E-14
 -1      3088 9.03123E-03-3.41688E-03-3.97400E-14
 -1      3089 9.17422E-03-3.50804E-03-4.13163E-14
 -1      3090 8.88630E-03-3.33694E-03-3.90552E-14
 -1      3091 9.31720E-03-3.59907E-03-4.29179E-14
 -1      3092 9.46018E-03-3.68996E-03-4.45438E-14
 -1      3093 9.17192E-03-3.51909E-03-4.22079E-14
 -1      3094 9.60314E-03-3.78075E-03-4.61923E-14
 -1      3095 9.74610E-03-3.87142E-03-4.78648E-14
 -1      3096 9.45765E-03-3.70077E-03-4.54585E-14
 -1      3097 9.88904E-03-3.96200E-03-4.95576E-14
 -1      3098 1.00320E-02-4.05249E-03-5.12737E-14
 -1      3099 9.74341E-03-3.88204E-03-4.88011E-14
 -1      3100 1.01749E-02-4.14291E-03-5.30126E-14
 -1      3101 1.03178E-02-4.23325E-03-5.47677E-14
 -1      3102 1.00292E-02-4.06297E-03-5.22296E-14
 -1      3103 1.04607E-02-4.32354E-03-5.65456E-14
 -1      3104 1.06036E-02-4.41376E-03-5.83425E-14
 -1      3105 1.03150E-02-4.24363E-03-5.57420E-14
 -1      3106 1.07394E-02-4.49943E-03-6.00667E-14
 -1      3107 1.08751E-02-4.58506E-03-6.18096E-14
 -1      3108 1.05936E-02-4.41954E-03-5.92418E-14
 -1      3109 1.10180E-02-4.67516E-03-6.36624E-14
 -1      3110 1.11608E-02-4.76522E-03-6.55328E-14
 -1      3111 1.08722E-02-4.59529E-03-6.28203E-14
 -1      3112 1.13037E-02-4.85525E-03-6.74225E-14
 -1      3113 1.14466E-02-4.94526E-03-6.93276E-14
 -1      3114 1.11579E-02-4.77540E-03-6.65609E-14
 -1      3115 1.15894E-02-5.03524E-03-7.12519E-14
 -1      3116 1.17323E-02-5.12520E-03-7.31936E-14
 -1      3117 1.14437E-02-4.95540E-03-7.03747E-14
 -1      3118 1.18752E-02-5.21514E-03-7.51500E-14
 -1      3119 1.20180E-02-5.30507E-03-7.71267E-14
 -1      3120 1.17294E-02-5.13531E-03-7.42568E-14
 -1      3121 1.21609E-02-5.39498E-03-7.91159E-14
 -1      3122 1.23037E-02-5.48489E-03-8.11231E-14
 -1      3123 1.20151E-02-5.31516E-03-7.82063E-14
 -1      3124 1.24466E-02-5.57478E-03-8.31438E-14
 -1      3125 1.25894E-02-5.66466E-03-8.51761E-14
 -1      3126 1.23009E-02-5.49497E-03-8.22192E-14
 -1      3127 1.27323E-02-5.75454E-03-8.72220E-14
 -1      3128 1.28752E-02-5.84442E-03-8.92785E-14
 -1      3129 1.25866E-02-5.67474E-03-8.62859E-14
 -1      3130 1.30180E-02-5.93429E-03-9.13497E-14
 -1      3131 1.31609E-02-6.02415E-03-9.34304E-14
 -1      3132 1.28723E-02-5.85448E-03-9.04024E-14
 -1      3133 1.33037E-02-6.11401E-03-9.55259E-14
 -1      3134 1.34466E-02-6.20387E-03-9.76329E-14
 -1      3135 1.31580E-02-6.03421E-03-9.45673E-14
 -1      3136 1.35894E-02-6.29373E-03-9.97510E-14
 -1      3137 1.37323E-02-6.38358E-03-1.01882E-13
 -1      3138 1.34437E-02-6.21393E-03-9.87796E-14
 -1      3139 1.38751E-02-6.47344E-03-1.04026E-13
 -1      3140 1.40180E-02-6.56329E-03-1.06179E-13
 -1      3141 1.37294E-02-6.39364E-03-1.03041E-13
 -1      3142 1.41608E-02-6.65314E-03-1.08345E-13
 -1      3143 1.43037E-02-6.74300E-03-1.10523E-13
 -1      3144 1.40152E-02-6.57335E-03-1.07347E-13
 -1      3145 1.44466E-02-6.83285E-03-1.12710E-13
 -1      3146 1.45894E-02-6.92270E-03-1.14905E-13
 -1      3147 1.43009E-02-6.75305E-03-1.11695E-13
 -1      3148 1.47323E-02-7.01255E-03-1.17114E-13
 -1      3149 1.48751E-02-7.10241E-03-1.19331E-13
 -1      3150 1.45866E-02-6.93276E-03-1.16087E-13
 -1      3151 1.49730E-02-7.16601E-03-1.21070E-13
 -1      3152 1.51158E-02-7.25587E-03-1.23304E-13
 -1      3153 1.50230E-02-7.21343E-03-1.23510E-13
 -1      3154 1.48273E-02-7.08622E-03-1.20030E-13
 -1      3155 2.12318E-03 3.71859E-04-3.22962E-15
 -1      3156 1.97683E-03 3.86911E-04-2.78804E-15
 -1      3157 1.82920E-03 3.91983E-04-2.38171E-15
 -1      3158 1.67976E-03 3.88390E-04-2.00981E-15
 -1      3159 1.62324E-03 3.50147E-04-1.85935E-15
 -1      3160 1.92810E-03 3.60455E-04-2.60608E-15
 -1      3161 3.29284E-03-1.08370E-04-8.04431E-15
 -1      3162 3.14306E-03-1.99018E-05-7.31903E-15
 -1      3163 2.99474E-03 6.28674E-05-6.62816E-15
 -1      3164 2.84767E-03 1.38343E-04-5.97273E-15
 -1      3165 3.11647E-03-1.23728E-05-7.01163E-15
 -1      3166 3.90251E-03-4.92120E-04-1.12804E-14
 -1      3167 3.74928E-03-3.94335E-04-1.04215E-14
 -1      3168 4.20759E-03-6.85677E-04-1.30932E-14
 -1      3169 4.05531E-03-5.89029E-04-1.21711E-14
 -1      3170 4.04675E-03-5.84930E-04-1.17757E-14
 -1      3171 4.51027E-03-8.77073E-04-1.50328E-14
 -1      3172 4.35936E-03-7.81730E-04-1.40477E-14
 -1      3173 4.35609E-03-7.78024E-04-1.36234E-14
 -1      3174 4.80967E-03-1.06523E-03-1.70950E-14
 -1      3175 4.66045E-03-9.71554E-04-1.60486E-14
 -1      3176 4.66132E-03-9.67641E-04-1.55962E-14
 -1      3177 5.10572E-03-1.25018E-03-1.92768E-14
 -1      3178 4.95813E-03-1.15806E-03-1.81709E-14
 -1      3179 4.96196E-03-1.15359E-03-1.76920E-14
 -1      3180 5.39879E-03-1.43248E-03-2.15792E-14
 -1      3181 5.25261E-03-1.34161E-03-2.04131E-14
 -1      3182 5.25836E-03-1.33644E-03-1.99063E-14
 -1      3183 5.68950E-03-1.61279E-03-2.39991E-14
 -1      3184 5.54442E-03-1.52283E-03-2.27744E-14
 -1      3185 5.55129E-03-1.51699E-03-2.22392E-14
 -1      3186 5.97845E-03-1.79177E-03-2.65379E-14
 -1      3187 5.83417E-03-1.70240E-03-2.52541E-14
 -1      3188 5.84158E-03-1.69601E-03-2.46909E-14
 -1      3189 6.26617E-03-1.96994E-03-2.91946E-14
 -1      3190 6.12244E-03-1.88093E-03-2.78518E-14
 -1      3191 6.13003E-03-1.87410E-03-2.72604E-14
 -1      3192 6.55307E-03-2.14771E-03-3.19685E-14
 -1      3193 6.40970E-03-2.05886E-03-3.05669E-14
 -1      3194 6.41724E-03-2.05173E-03-2.99471E-14
 -1      3195 6.83945E-03-2.32536E-03-3.48500E-14
 -1      3196 6.69631E-03-2.23654E-03-3.33954E-14
 -1      3197 6.70368E-03-2.22919E-03-3.27472E-14
 -1      3198 7.12551E-03-2.50307E-03-3.78418E-14
 -1      3199 6.98251E-03-2.41420E-03-3.63328E-14
 -1      3200 6.98968E-03-2.40672E-03-3.56578E-14
 -1      3201 7.41139E-03-2.68096E-03-4.09424E-14
 -1      3202 7.26847E-03-2.59199E-03-3.93790E-14
 -1      3203 7.27544E-03-2.58441E-03-3.86757E-14
 -1      3204 7.69718E-03-2.85907E-03-4.41451E-14
 -1      3205 7.55430E-03-2.76998E-03-4.25309E-14
 -1      3206 7.56108E-03-2.76234E-03-4.18000E-14
 -1      3207 7.98292E-03-3.03743E-03-4.74523E-14
 -1      3208 7.84005E-03-2.94822E-03-4.57856E-14
 -1      3209 7.84670E-03-2.94054E-03-4.50284E-14
 -1      3210 8.26864E-03-3.21602E-03-5.08601E-14
 -1      3211 8.12578E-03-3.12670E-03-4.91443E-14
 -1      3212 8.13231E-03-3.11899E-03-4.83597E-14
 -1      3213 8.55435E-03-3.39484E-03-5.43621E-14
 -1      3214 8.41149E-03-3.30541E-03-5.25997E-14
 -1      3215 8.41794E-03-3.29768E-03-5.17895E-14
 -1      3216 8.84006E-03-3.57385E-03-5.79533E-14
 -1      3217 8.69720E-03-3.48432E-03-5.61464E-14
 -1      3218 8.70359E-03-3.47658E-03-5.53116E-14
 -1      3219 9.12577E-03-3.75302E-03-6.16267E-14
 -1      3220 8.98292E-03-3.66341E-03-5.97798E-14
 -1      3221 8.98927E-03-3.65566E-03-5.89226E-14
 -1      3222 9.41149E-03-3.93232E-03-6.53757E-14
 -1      3223 9.26863E-03-3.84266E-03-6.34925E-14
 -1      3224 9.27496E-03-3.83489E-03-6.26150E-14
 -1      3225 9.69721E-03-4.11174E-03-6.91915E-14
 -1      3226 9.55435E-03-4.02202E-03-6.72755E-14
 -1      3227 9.56067E-03-4.01424E-03-6.63801E-14
 -1      3228 9.98293E-03-4.29124E-03-7.30724E-14
 -1      3229 9.84007E-03-4.20148E-03-7.11252E-14
 -1      3230 9.84639E-03-4.19369E-03-7.02123E-14
 -1      3231 1.02686E-02-4.47080E-03-7.70101E-14
 -1      3232 1.01258E-02-4.38101E-03-7.50335E-14
 -1      3233 1.01321E-02-4.37322E-03-7.41065E-14
 -1      3234 1.05544E-02-4.65041E-03-8.10030E-14
 -1      3235 1.04115E-02-4.56060E-03-7.89988E-14
 -1      3236 1.04178E-02-4.55281E-03-7.80576E-14
 -1      3237 1.08401E-02-4.83006E-03-8.50444E-14
 -1      3238 1.06972E-02-4.74023E-03-8.30185E-14
 -1      3239 1.07036E-02-4.73243E-03-8.20616E-14
 -1      3240 1.11258E-02-5.00974E-03-8.91351E-14
 -1      3241 1.09829E-02-4.91990E-03-8.70832E-14
 -1      3242 1.09893E-02-4.91209E-03-8.61162E-14
 -1      3243 1.14115E-02-5.18943E-03-9.32738E-14
 -1      3244 1.12687E-02-5.09958E-03-9.11982E-14
 -1      3245 1.12750E-02-5.09178E-03-9.02176E-14
 -1      3246 1.16972E-02-5.36914E-03-9.74540E-14
 -1      3247 1.15544E-02-5.27928E-03-9.53588E-14
 -1      3248 1.15607E-02-5.27147E-03-9.43672E-14
 -1      3249 1.19830E-02-5.54885E-03-1.01673E-13
 -1      3250 1.18401E-02-5.45899E-03-9.95614E-14
 -1      3251 1.18465E-02-5.45118E-03-9.85593E-14
 -1      3252 1.22687E-02-5.72857E-03-1.05927E-13
 -1      3253 1.21258E-02-5.63871E-03-1.03795E-13
 -1      3254 1.21322E-02-5.63090E-03-1.02788E-13
 -1      3255 1.25544E-02-5.90829E-03-1.10214E-13
 -1      3256 1.24115E-02-5.81843E-03-1.08065E-13
 -1      3257 1.24179E-02-5.81062E-03-1.07049E-13
 -1      3258 1.28401E-02-6.08801E-03-1.14527E-13
 -1      3259 1.26972E-02-5.99815E-03-1.12368E-13
 -1      3260 1.27036E-02-5.99034E-03-1.11344E-13
 -1      3261 1.31258E-02-6.26773E-03-1.18870E-13
 -1      3262 1.29830E-02-6.17787E-03-1.16696E-13
 -1      3263 1.29893E-02-6.17006E-03-1.15668E-13
 -1      3264 1.33766E-02-6.42504E-03-1.22653E-13
 -1      3265 1.32326E-02-6.33525E-03-1.20528E-13
 -1      3266 1.32390E-02-6.32743E-03-1.19495E-13
 -1      3267 1.34527E-02-6.46246E-03-1.22822E-13
 -1      3268 1.40716E-02-6.75774E-03-1.23188E-13
 -1      3269 1.39832E-02-6.71559E-03-1.23150E-13
 -1      3270 1.39913E-02-6.70064E-03-1.21296E-13
 -1      3271 1.47762E-02-7.09385E-03-1.23333E-13
 -1      3272 1.46878E-02-7.05171E-03-1.23328E-13
 -1      3273 1.49438E-02-7.17471E-03-1.23422E-13
 -1      3274 1.48554E-02-7.13257E-03-1.23428E-13
 -1      3275 1.46875E-02-7.03368E-03-1.21501E-13
 -1      3276 1.48459E-02-7.11111E-03-1.21682E-13
 -1      3277 1.12321E-03 3.83993E-04-9.16910E-16
 -1      3278 1.14411E-03 3.32089E-04-9.69128E-16
 -1      3279 7.43807E-04-3.09215E-04-8.03340E-16
 -1      3280 6.63453E-04-3.31948E-04-7.83499E-16
 -1      3281 3.26409E-03-1.13749E-04-5.93110E-15
 -1      3282 3.47146E-03-2.49973E-04-6.52645E-15
 -1      3283 4.28011E-03-7.63318E-04-8.38149E-15
 -1      3284 4.48070E-03-8.66897E-04-8.72540E-15
 -1      3285 8.29503E-04-2.93072E-04-8.60220E-16
 -1      3286 3.59619E-03-2.97003E-04-9.59573E-15
 -1      3287 3.44397E-03-2.01301E-04-8.80284E-15
 -1      3288 3.42291E-03-1.93824E-04-8.46613E-15
 -1      3289 3.73443E-03-3.88793E-04-1.00558E-14
 -1      3290 1.45999E-02-7.00974E-03-1.23319E-13
 -1      3291 1.45115E-02-6.96759E-03-1.23308E-13
 -1      3292 1.43443E-02-6.86906E-03-1.21382E-13
 -1      3293 1.45203E-02-6.95300E-03-1.21402E-13
 -1      3294 5.79217E-03-1.28585E-03-1.01835E-14
 -1      3295 5.80800E-03-1.27946E-03-9.99071E-15
 -1      3296 4.71702E-03-9.82360E-04-9.09930E-15
 -1      3297 4.95064E-03-1.08038E-03-9.44454E-15
 -1      3298 1.87772E-03 6.49058E-05-2.13311E-15
 -1      3299 2.00270E-03 1.11494E-04-2.37736E-15
 -1      3300 5.79669E-03-1.27796E-03-9.79736E-15
 -1      3301 5.74118E-03-1.27839E-03-9.45971E-15
 -1      3302 5.79522E-03-1.31352E-03-9.98526E-15
 -1      3303 5.84421E-03-1.30911E-03-1.03827E-14
 -1      3304 1.05483E-03-1.92554E-04-9.84442E-16
 -1      3305 9.57198E-04-2.50639E-04-9.41846E-16
 -1      3306 3.74167E-03-4.32018E-04-7.24685E-15
 -1      3307 4.00191E-03-6.03169E-04-7.83519E-15
 -1      3308 2.18613E-03 1.56751E-04-2.77317E-15
 -1      3309 2.34306E-03 1.84072E-04-3.16349E-15
 -1      3310 5.17006E-03-1.16364E-03-9.83304E-15
 -1      3311 5.36381E-03-1.22388E-03-1.01665E-14
 -1      3312 1.00738E-03-3.13339E-04-1.13238E-15
 -1      3313 1.29273E-03 2.48154E-04-1.20031E-15
 -1      3314 1.15876E-03 2.04508E-04-9.86285E-16
 -1      3315 1.16750E-03 1.61837E-04-9.92506E-16
 -1      3316 5.89917E-03-1.36878E-03-1.08766E-14
 -1      3317 6.30275E-04-3.03237E-04-6.63152E-16
 -1      3318 2.70202E-03 2.05487E-04-5.35208E-15
 -1      3319 2.55704E-03 2.62974E-04-4.76722E-15
 -1      3320 2.81609E-03 1.42749E-04-5.69485E-15
 -1      3321 1.28312E-03 3.35663E-04-1.19939E-15
 -1      3322 1.37412E-03 3.12429E-04-1.35577E-15
 -1      3323 2.74122E-03 1.42538E-04-4.40032E-15
 -1      3324 5.78257E-03-1.34405E-03-1.13162E-14
 -1      3325 5.79190E-03-1.31519E-03-1.07455E-14
 -1      3326 5.85766E-03-1.34396E-03-1.11492E-14
 -1      3327 1.37198E-02-6.58995E-03-1.23010E-13
 -1      3328 1.36318E-02-6.54799E-03-1.22955E-13
 -1      3329 1.76994E-03 3.35370E-05-1.94293E-15
 -1      3330 1.77562E-03 7.88080E-05-1.95507E-15
 -1      3331 1.66055E-03 1.76886E-06-1.76294E-15
 -1      3332 1.17287E-03 6.93505E-05-9.94362E-16
 -1      3333 1.32190E-03 6.47754E-05-1.21005E-15
 -1      3334 1.17309E-03 1.16839E-04-9.95270E-16
 -1      3335 5.47053E-03-1.35614E-03-8.56734E-15
 -1      3336 5.94693E-03-1.38285E-03-1.13859E-14
 -1      3337 1.38955E-02-6.67376E-03-1.23108E-13
 -1      3338 1.38075E-02-6.63179E-03-1.23060E-13
 -1      3339 1.36398E-02-6.53299E-03-1.21139E-13
 -1      3340 1.38152E-02-6.61666E-03-1.21227E-13
 -1      3341 2.41279E-03 3.10093E-04-4.21883E-15
 -1      3342 2.26816E-03 3.46440E-04-3.70647E-15
 -1      3343 2.22626E-03 3.32776E-04-3.49235E-15
 -1      3344 2.52064E-03 2.60223E-04-4.52116E-15
 -1      3345 1.35287E-02-6.49988E-03-1.22986E-13
 -1      3346 3.02700E-03 1.61966E-05-5.38237E-15
 -1      3347 3.14013E-03-4.37799E-05-5.65350E-15
 -1      3348 3.23493E-03-1.05794E-04-6.09688E-15
 -1      3349 4.14342E-03-6.83691E-04-8.40148E-15
 -1      3350 1.42461E-03-1.32426E-04-1.47320E-15
 -1      3351 1.34490E-02-6.44305E-03-1.21125E-13
 -1      3352 3.61362E-03-3.51526E-04-7.09923E-15
 -1      3353 4.63635E-03-9.50621E-04-9.34817E-15
 -1      3354 5.55479E-03-1.29264E-03-8.56673E-15
 -1      3355 5.07691E-03-1.14292E-03-1.01316E-14
 -1      3356 5.50938E-03-1.27631E-03-1.07248E-14
 -1      3357 5.63797E-03-1.32147E-03-1.12941E-14
 -1      3358 5.43602E-03-1.27441E-03-1.11002E-14
 -1      3359 2.05723E-03 1.51713E-04-2.51933E-15
 -1      3360 2.39718E-03 1.98281E-04-3.38199E-15
 -1      3361 1.09497E-03-1.36634E-04-9.79794E-16
 -1      3362 1.26495E-03-1.38260E-04-1.22438E-15
 -1      3363 1.46157E-03-7.00439E-05-1.47136E-15
 -1      3364 1.13776E-03-7.84146E-05-9.91977E-16
 -1      3365 1.30839E-03-3.25066E-05-1.21215E-15
 -1      3366 6.29608E-03-1.64412E-03-1.51802E-14
 -1      3367 6.41260E-03-1.72504E-03-1.62219E-14
 -1      3368 6.53399E-03-1.80810E-03-1.72929E-14
 -1      3369 6.65962E-03-1.89384E-03-1.83920E-14
 -1      3370 6.41180E-03-1.74536E-03-1.68129E-14
 -1      3371 6.78854E-03-1.98096E-03-1.95201E-14
 -1      3372 6.92034E-03-2.06970E-03-2.06780E-14
 -1      3373 6.65888E-03-1.91198E-03-1.90096E-14
 -1      3374 7.05431E-03-2.15924E-03-2.18654E-14
 -1      3375 7.19019E-03-2.24968E-03-2.30818E-14
 -1      3376 6.91902E-03-2.08577E-03-2.13241E-14
 -1      3377 7.32747E-03-2.34051E-03-2.43263E-14
 -1      3378 7.46600E-03-2.43179E-03-2.56018E-14
 -1      3379 7.18803E-03-2.26395E-03-2.37558E-14
 -1      3380 7.60541E-03-2.52322E-03-2.69047E-14
 -1      3381 7.74563E-03-2.61481E-03-2.82345E-14
 -1      3382 7.46297E-03-2.44459E-03-2.63024E-14
 -1      3383 7.88640E-03-2.70642E-03-2.95937E-14
 -1      3384 8.02767E-03-2.79804E-03-3.09804E-14
 -1      3385 7.74180E-03-2.62644E-03-2.89615E-14
 -1      3386 8.16928E-03-2.88960E-03-3.23967E-14
 -1      3387 8.31121E-03-2.98109E-03-3.38399E-14
 -1      3388 8.02316E-03-2.80876E-03-3.17334E-14
 -1      3389 8.45334E-03-3.07248E-03-3.53100E-14
 -1      3390 8.59566E-03-3.16378E-03-3.68084E-14
 -1      3391 8.30615E-03-2.99111E-03-3.46184E-14
 -1      3392 8.73810E-03-3.25496E-03-3.83327E-14
 -1      3393 8.88066E-03-3.34604E-03-3.98828E-14
 -1      3394 8.59019E-03-3.17326E-03-3.76111E-14
 -1      3395 9.02329E-03-3.43701E-03-4.14578E-14
 -1      3396 9.16599E-03-3.52787E-03-4.30591E-14
 -1      3397 8.87488E-03-3.35511E-03-4.07096E-14
 -1      3398 9.30873E-03-3.61864E-03-4.46827E-14
 -1      3399 9.45151E-03-3.70931E-03-4.63316E-14
 -1      3400 9.15998E-03-3.53664E-03-4.39071E-14
 -1      3401 9.59432E-03-3.79989E-03-4.80024E-14
 -1      3402 9.73714E-03-3.89040E-03-4.96919E-14
 -1      3403 9.44534E-03-3.71783E-03-4.72021E-14
 -1      3404 9.87998E-03-3.98083E-03-5.14055E-14
 -1      3405 1.00228E-02-4.07119E-03-5.31406E-14
 -1      3406 9.73086E-03-3.89874E-03-5.05839E-14
 -1      3407 1.01657E-02-4.16149E-03-5.48953E-14
 -1      3408 1.03086E-02-4.25173E-03-5.66693E-14
 -1      3409 1.00165E-02-4.07939E-03-5.40490E-14
 -1      3410 1.04443E-02-4.33742E-03-5.83737E-14
 -1      3411 1.05800E-02-4.42307E-03-6.00964E-14
 -1      3412 1.02950E-02-4.25532E-03-5.75053E-14
 -1      3413 1.07229E-02-4.51318E-03-6.19306E-14
 -1      3414 1.08657E-02-4.60326E-03-6.37824E-14
 -1      3415 1.05736E-02-4.43109E-03-6.10416E-14
 -1      3416 1.10086E-02-4.69330E-03-6.56544E-14
 -1      3417 1.11515E-02-4.78332E-03-6.75433E-14
 -1      3418 1.08593E-02-4.61122E-03-6.47472E-14
 -1      3419 1.12944E-02-4.87331E-03-6.94486E-14
 -1      3420 1.14372E-02-4.96329E-03-7.13732E-14
 -1      3421 1.11450E-02-4.79124E-03-6.85252E-14
 -1      3422 1.15801E-02-5.05324E-03-7.33159E-14
 -1      3423 1.17230E-02-5.14317E-03-7.52750E-14
 -1      3424 1.14308E-02-4.97117E-03-7.23737E-14
 -1      3425 1.18658E-02-5.23310E-03-7.72486E-14
 -1      3426 1.20087E-02-5.32301E-03-7.92393E-14
 -1      3427 1.17165E-02-5.15103E-03-7.62925E-14
 -1      3428 1.21516E-02-5.41291E-03-8.12475E-14
 -1      3429 1.22944E-02-5.50280E-03-8.32689E-14
 -1      3430 1.20023E-02-5.33085E-03-8.02752E-14
 -1      3431 1.24373E-02-5.59268E-03-8.52994E-14
 -1      3432 1.25802E-02-5.68256E-03-8.73453E-14
 -1      3433 1.22880E-02-5.51062E-03-8.43154E-14
 -1      3434 1.27230E-02-5.77243E-03-8.94050E-14
 -1      3435 1.28659E-02-5.86230E-03-9.14743E-14
 -1      3436 1.25737E-02-5.69038E-03-8.84055E-14
 -1      3437 1.30087E-02-5.95216E-03-9.35555E-14
 -1      3438 1.31516E-02-6.04202E-03-9.56494E-14
 -1      3439 1.28595E-02-5.87011E-03-9.25454E-14
 -1      3440 1.32945E-02-6.13188E-03-9.77557E-14
 -1      3441 1.34373E-02-6.22174E-03-9.98735E-14
 -1      3442 1.31452E-02-6.04983E-03-9.67306E-14
 -1      3443 1.35802E-02-6.31160E-03-1.02000E-13
 -1      3444 1.37230E-02-6.40145E-03-1.04142E-13
 -1      3445 1.34309E-02-6.22955E-03-1.00964E-13
 -1      3446 1.38659E-02-6.49130E-03-1.06292E-13
 -1      3447 1.40088E-02-6.58116E-03-1.08454E-13
 -1      3448 1.37166E-02-6.40926E-03-1.05239E-13
 -1      3449 1.41516E-02-6.67101E-03-1.10627E-13
 -1      3450 1.42945E-02-6.76086E-03-1.12810E-13
 -1      3451 1.40024E-02-6.58897E-03-1.09559E-13
 -1      3452 1.44373E-02-6.85072E-03-1.15004E-13
 -1      3453 1.45802E-02-6.94057E-03-1.17207E-13
 -1      3454 1.42881E-02-6.76867E-03-1.13922E-13
 -1      3455 1.46641E-02-6.99404E-03-1.18575E-13
 -1      3456 1.47620E-02-7.05764E-03-1.20306E-13
 -1      3457 1.46828E-02-7.01893E-03-1.20220E-13
 -1      3458 1.45149E-02-6.91199E-03-1.17482E-13
 -1      3459 1.48712E-03 2.94644E-04-1.55458E-15
 -1      3460 1.39050E-03 2.72405E-04-1.37131E-15
 -1      3461 1.40602E-03 2.31031E-04-1.38122E-15
 -1      3462 3.24281E-03-9.20879E-05-7.39872E-15
 -1      3463 3.08748E-03-4.22702E-06-6.70280E-15
 -1      3464 2.65909E-03 1.66249E-04-4.27569E-15
 -1      3465 2.84103E-03 1.02692E-04-4.83221E-15
 -1      3466 4.50785E-03-8.71173E-04-1.41570E-14
 -1      3467 4.35230E-03-7.75935E-04-1.31998E-14
 -1      3468 4.19522E-03-6.79629E-04-1.22742E-14
 -1      3469 4.03712E-03-5.82289E-04-1.13808E-14
 -1      3470 4.34817E-03-7.75412E-04-1.27764E-14
 -1      3471 5.11571E-03-1.24162E-03-1.82909E-14
 -1      3472 4.96589E-03-1.15033E-03-1.72121E-14
 -1      3473 5.41185E-03-1.42221E-03-2.05382E-14
 -1      3474 5.26434E-03-1.33217E-03-1.94000E-14
 -1      3475 5.27069E-03-1.32892E-03-1.88934E-14
 -1      3476 5.70419E-03-1.60102E-03-2.29028E-14
 -1      3477 5.55844E-03-1.51177E-03-2.17053E-14
 -1      3478 5.56598E-03-1.50725E-03-2.11721E-14
 -1      3479 5.99381E-03-1.77880E-03-2.53840E-14
 -1      3480 5.84929E-03-1.68999E-03-2.41285E-14
 -1      3481 5.85736E-03-1.68441E-03-2.35672E-14
 -1      3482 6.28159E-03-1.95610E-03-2.79843E-14
 -1      3483 6.13789E-03-1.86748E-03-2.66701E-14
 -1      3484 6.14607E-03-1.86109E-03-2.60796E-14
 -1      3485 6.56823E-03-2.13325E-03-3.06996E-14
 -1      3486 6.42502E-03-2.04467E-03-2.93274E-14
 -1      3487 6.43308E-03-2.03771E-03-2.87094E-14
 -1      3488 6.85420E-03-2.31049E-03-3.35278E-14
 -1      3489 6.71127E-03-2.22185E-03-3.21003E-14
 -1      3490 6.71910E-03-2.21452E-03-3.14534E-14
 -1      3491 7.13981E-03-2.48795E-03-3.64656E-14
 -1      3492 6.99703E-03-2.39919E-03-3.49831E-14
 -1      3493 7.00458E-03-2.39162E-03-3.43101E-14
 -1      3494 7.42528E-03-2.66567E-03-3.95090E-14
 -1      3495 7.28256E-03-2.57677E-03-3.79733E-14
 -1      3496 7.28983E-03-2.56907E-03-3.72739E-14
 -1      3497 7.71071E-03-2.84368E-03-4.26585E-14
 -1      3498 7.56800E-03-2.75464E-03-4.10712E-14
 -1      3499 7.57503E-03-2.74687E-03-4.03425E-14
 -1      3500 7.99617E-03-3.02198E-03-4.59109E-14
 -1      3501 7.85343E-03-2.93280E-03-4.42718E-14
 -1      3502 7.86027E-03-2.92499E-03-4.35178E-14
 -1      3503 8.28167E-03-3.20054E-03-4.92663E-14
 -1      3504 8.13891E-03-3.11123E-03-4.75769E-14
 -1      3505 8.14559E-03-3.10341E-03-4.67959E-14
 -1      3506 8.56723E-03-3.37933E-03-5.27186E-14
 -1      3507 8.42444E-03-3.28991E-03-5.09810E-14
 -1      3508 8.43100E-03-3.28209E-03-5.01742E-14
 -1      3509 8.85283E-03-3.55832E-03-5.62610E-14
 -1      3510 8.71002E-03-3.46880E-03-5.44785E-14
 -1      3511 8.71650E-03-3.46099E-03-5.36469E-14
 -1      3512 9.13848E-03-3.73747E-03-5.98908E-14
 -1      3513 8.99565E-03-3.64788E-03-5.80651E-14
 -1      3514 9.00207E-03-3.64007E-03-5.72087E-14
 -1      3515 9.42416E-03-3.91677E-03-6.36019E-14
 -1      3516 9.28132E-03-3.82711E-03-6.17369E-14
 -1      3517 9.28769E-03-3.81930E-03-6.08592E-14
 -1      3518 9.70986E-03-4.09617E-03-6.73824E-14
 -1      3519 9.56701E-03-4.00646E-03-6.54840E-14
 -1      3520 9.57336E-03-3.99865E-03-6.45876E-14
 -1      3521 9.99558E-03-4.27566E-03-7.12306E-14
 -1      3522 9.85272E-03-4.18590E-03-6.92980E-14
 -1      3523 9.85906E-03-4.17810E-03-6.83835E-14
 -1      3524 1.02813E-02-4.45521E-03-7.51361E-14
 -1      3525 1.01384E-02-4.36543E-03-7.31755E-14
 -1      3526 1.01448E-02-4.35763E-03-7.22444E-14
 -1      3527 1.05670E-02-4.63482E-03-7.91027E-14
 -1      3528 1.04242E-02-4.54501E-03-7.71133E-14
 -1      3529 1.04305E-02-4.53721E-03-7.61657E-14
 -1      3530 1.08528E-02-4.81446E-03-8.31198E-14
 -1      3531 1.07099E-02-4.72463E-03-8.11030E-14
 -1      3532 1.07162E-02-4.71683E-03-8.01449E-14
 -1      3533 1.11385E-02-4.99413E-03-8.71853E-14
 -1      3534 1.09956E-02-4.90429E-03-8.51470E-14
 -1      3535 1.10020E-02-4.89649E-03-8.41747E-14
 -1      3536 1.14242E-02-5.17382E-03-9.13010E-14
 -1      3537 1.12814E-02-5.08397E-03-8.92374E-14
 -1      3538 1.12877E-02-5.07617E-03-8.82546E-14
 -1      3539 1.17100E-02-5.35352E-03-9.54599E-14
 -1      3540 1.15671E-02-5.26367E-03-9.33752E-14
 -1      3541 1.15735E-02-5.25586E-03-9.23803E-14
 -1      3542 1.19957E-02-5.53323E-03-9.96638E-14
 -1      3543 1.18528E-02-5.44337E-03-9.75580E-14
 -1      3544 1.18592E-02-5.43557E-03-9.65539E-14
 -1      3545 1.22814E-02-5.71295E-03-1.03899E-13
 -1      3546 1.21385E-02-5.62309E-03-1.01776E-13
 -1      3547 1.21449E-02-5.61528E-03-1.00762E-13
 -1      3548 1.25671E-02-5.89266E-03-1.08171E-13
 -1      3549 1.24243E-02-5.80281E-03-1.06031E-13
 -1      3550 1.24306E-02-5.79499E-03-1.05009E-13
 -1      3551 1.28529E-02-6.07239E-03-1.12473E-13
 -1      3552 1.27100E-02-5.98252E-03-1.10318E-13
 -1      3553 1.27164E-02-5.97471E-03-1.09290E-13
 -1      3554 1.31386E-02-6.25211E-03-1.16805E-13
 -1      3555 1.29957E-02-6.16225E-03-1.14637E-13
 -1      3556 1.30021E-02-6.15443E-03-1.13602E-13
 -1      3557 1.33422E-02-6.37553E-03-1.19463E-13
 -1      3558 1.39117E-02-6.64390E-03-1.19406E-13
 -1      3559 1.38234E-02-6.60175E-03-1.19379E-13
 -1      3560 4.04876E-03-6.28178E-04-8.55304E-15
 -1      3561 4.30196E-03-7.78446E-04-9.12760E-15
 -1      3562 4.81466E-03-1.05829E-03-1.61629E-14
 -1      3563 4.66206E-03-9.65228E-04-1.51445E-14
 -1      3564 4.66283E-03-9.64384E-04-1.46923E-14
 -1      3565 4.97009E-03-1.14842E-03-1.67325E-14
 -1      3566 6.08236E-03-1.49351E-03-1.31849E-14
 -1      3567 6.18572E-03-1.56733E-03-1.41681E-14
 -1      3568 6.18372E-03-1.58965E-03-1.47314E-14
 -1      3569 1.40885E-02-6.72820E-03-1.19446E-13
 -1      3570 1.40001E-02-6.68605E-03-1.19427E-13
 -1      3571 1.38322E-02-6.58716E-03-1.17517E-13
 -1      3572 1.07437E-03-2.65635E-04-1.12952E-15
 -1      3573 3.48743E-03-2.66810E-04-6.98310E-15
 -1      3574 3.73746E-03-4.30414E-04-7.72586E-15
 -1      3575 4.98700E-03-1.11927E-03-1.04365E-14
 -1      3576 5.19018E-03-1.19893E-03-1.08457E-14
 -1      3577 2.27147E-03 2.07360E-04-3.10106E-15
 -1      3578 2.42991E-03 2.07995E-04-3.56843E-15
 -1      3579 1.48965E-03 2.77999E-05-1.47378E-15
 -1      3580 1.48619E-03-1.62263E-05-1.48182E-15
 -1      3581 4.56280E-03-9.20803E-04-9.63652E-15
 -1      3582 4.77650E-03-1.02608E-03-1.00328E-14
 -1      3583 1.93371E-03 1.54409E-04-2.28504E-15
 -1      3584 2.10301E-03 1.89269E-04-2.67095E-15
 -1      3585 1.33485E-02-6.36772E-03-1.18424E-13
 -1      3586 1.34362E-02-6.40956E-03-1.18475E-13
 -1      3587 1.32326E-02-6.28613E-03-1.15819E-13
 -1      3588 1.35239E-02-6.45139E-03-1.18519E-13
 -1      3589 2.93410E-03 7.65825E-05-6.04245E-15
 -1      3590 2.78216E-03 1.47831E-04-5.41720E-15
 -1      3591 3.05699E-03 5.31208E-06-6.39412E-15
 -1      3592 2.14417E-03 2.16826E-04-2.83131E-15
 -1      3593 5.74049E-03-1.35690E-03-1.17091E-14
 -1      3594 5.83347E-03-1.39068E-03-1.21293E-14
 -1      3595 5.69146E-03-1.36544E-03-1.21012E-14
 -1      3596 1.73866E-03 1.07476E-04-1.89828E-15
 -1      3597 1.83710E-03 1.31908E-04-2.08645E-15
 -1      3598 1.88623E-03 1.77463E-04-2.21909E-15
 -1      3599 1.31622E-03 1.61859E-04-1.21328E-15
 -1      3600 1.37175E-02-6.54749E-03-1.18972E-13
 -1      3601 1.36298E-02-6.50565E-03-1.18936E-13
 -1      3602 1.34262E-02-6.38223E-03-1.16279E-13
 -1      3603 1.36380E-02-6.49075E-03-1.17093E-13
 -1      3604 1.42644E-02-6.81214E-03-1.19474E-13
 -1      3605 1.41764E-02-6.77017E-03-1.19463E-13
 -1      3606 1.40085E-02-6.67128E-03-1.17550E-13
 -1      3607 2.53133E-03 1.99438E-04-3.94837E-15
 -1      3608 2.62797E-03 1.78251E-04-4.34601E-15
 -1      3609 2.40696E-03 2.24648E-04-3.63402E-15
 -1      3610 2.03075E-03 3.29240E-04-2.83455E-15
 -1      3611 1.87698E-03 3.30940E-04-2.42536E-15
 -1      3612 3.39974E-03-1.85969E-04-8.12833E-15
 -1      3613 3.37515E-03-1.77035E-04-7.78965E-15
 -1      3614 3.55804E-03-2.83851E-04-8.89179E-15
 -1      3615 1.76201E-03 3.23889E-04-2.14223E-15
 -1      3616 1.60481E-03 3.10953E-04-1.79349E-15
 -1      3617 1.62597E-03 2.72322E-04-1.80583E-15
 -1      3618 1.86374E-03 2.97368E-04-2.34189E-15
 -1      3619 2.93322E-03 5.77611E-05-5.23632E-15
 -1      3620 3.90024E-03-5.32448E-04-8.41337E-15
 -1      3621 4.06306E-03-6.38330E-04-9.13187E-15
 -1      3622 3.77482E-03-4.49466E-04-8.27448E-15
 -1      3623 4.45573E-03-8.67331E-04-9.79869E-15
 -1      3624 3.24341E-03-1.13405E-04-6.37153E-15
 -1      3625 3.36021E-03-1.85279E-04-6.67276E-15
 -1      3626 3.48603E-03-2.65102E-04-7.27112E-15
 -1      3627 5.94781E-03-1.38681E-03-1.15883E-14
 -1      3628 5.97425E-03-1.42007E-03-1.21816E-14
 -1      3629 1.46036E-02-6.98021E-03-1.20129E-13
 -1      3630 1.45244E-02-6.94150E-03-1.20035E-13
 -1      3631 1.45196E-02-6.92674E-03-1.18761E-13
 -1      3632 5.96636E-03-1.44335E-03-1.27152E-14
 -1      3633 3.87799E-03-4.84223E-04-1.05190E-14
 -1      3634 3.71784E-03-3.83987E-04-9.68890E-15
 -1      3635 3.69985E-03-3.78966E-04-9.32204E-15
 -1      3636 4.02664E-03-5.80776E-04-1.09856E-14
 -1      3637 1.43847E-03 7.36651E-05-1.39023E-15
 -1      3638 1.61741E-03 9.39818E-05-1.68438E-15
 -1      3639 1.67337E-03 1.45733E-04-1.80055E-15
 -1      3640 1.43778E-03 1.24354E-04-1.39559E-15
 -1      3641 4.91095E-03-1.09334E-03-1.07386E-14
 -1      3642 2.33283E-03 2.93442E-04-3.75911E-15
 -1      3643 2.18229E-03 3.17350E-04-3.27898E-15
 -1      3644 2.13592E-03 2.98679E-04-3.06664E-15
 -1      3645 5.35554E-03-1.26395E-03-1.14207E-14
 -1      3646 5.50784E-03-1.32106E-03-1.20069E-14
 -1      3647 5.27937E-03-1.24838E-03-1.17389E-14
 -1      3648 1.44384E-02-6.89780E-03-1.19759E-13
 -1      3649 1.43504E-02-6.85583E-03-1.19753E-13
 -1      3650 1.41825E-02-6.75695E-03-1.17842E-13
 -1      3651 1.43544E-02-6.84434E-03-1.18395E-13
 -1      3652 2.63190E-03 2.08616E-04-4.82816E-15
 -1      3653 2.48209E-03 2.57287E-04-4.27551E-15
 -1      3654 2.44200E-03 2.53100E-04-4.02999E-15
 -1      3655 2.74677E-03 1.53568E-04-5.13934E-15
 -1      3656 1.52553E-03 2.32226E-04-1.58920E-15
 -1      3657 1.42457E-03 2.08057E-04-1.40252E-15
 -1      3658 1.43637E-03 1.63426E-04-1.40500E-15
 -1      3659 1.64804E-03 2.50776E-04-1.83059E-15
 -1      3660 6.52722E-03-1.84545E-03-1.85015E-14
 -1      3661 6.65361E-03-1.92912E-03-1.96286E-14
 -1      3662 6.78294E-03-2.01432E-03-2.07857E-14
 -1      3663 6.91467E-03-2.10115E-03-2.19718E-14
 -1      3664 6.64529E-03-1.94469E-03-2.02480E-14
 -1      3665 7.04843E-03-2.18896E-03-2.31860E-14
 -1      3666 7.18386E-03-2.27777E-03-2.44301E-14
 -1      3667 6.90815E-03-2.11545E-03-2.26182E-14
 -1      3668 7.32065E-03-2.36714E-03-2.57024E-14
 -1      3669 7.45860E-03-2.45709E-03-2.70030E-14
 -1      3670 7.17814E-03-2.29085E-03-2.51048E-14
 -1      3671 7.59745E-03-2.54734E-03-2.83323E-14
 -1      3672 7.73709E-03-2.63788E-03-2.96885E-14
 -1      3673 7.45315E-03-2.46911E-03-2.77036E-14
 -1      3674 7.87732E-03-2.72856E-03-3.10734E-14
 -1      3675 8.01808E-03-2.81936E-03-3.24867E-14
 -1      3676 7.73163E-03-2.64900E-03-3.04152E-14
 -1      3677 8.15924E-03-2.91019E-03-3.39286E-14
 -1      3678 8.30074E-03-3.00105E-03-3.53968E-14
 -1      3679 8.01250E-03-2.82975E-03-3.32391E-14
 -1      3680 8.44250E-03-3.09189E-03-3.68910E-14
 -1      3681 8.58449E-03-3.18270E-03-3.84135E-14
 -1      3682 8.29499E-03-3.01086E-03-3.61735E-14
 -1      3683 8.72665E-03-3.27345E-03-3.99617E-14
 -1      3684 8.86896E-03-3.36416E-03-4.15351E-14
 -1      3685 8.57857E-03-3.19204E-03-3.92144E-14
 -1      3686 9.01137E-03-3.45480E-03-4.31332E-14
 -1      3687 9.15389E-03-3.54538E-03-4.47561E-14
 -1      3688 8.86289E-03-3.37314E-03-4.23587E-14
 -1      3689 9.29647E-03-3.63589E-03-4.64017E-14
 -1      3690 9.43912E-03-3.72634E-03-4.80701E-14
 -1      3691 9.14771E-03-3.55407E-03-4.56025E-14
 -1      3692 9.58182E-03-3.81673E-03-4.97603E-14
 -1      3693 9.72456E-03-3.90707E-03-5.14715E-14
 -1      3694 9.43286E-03-3.73482E-03-4.89358E-14
 -1      3695 9.86732E-03-3.99735E-03-5.32045E-14
 -1      3696 1.00101E-02-4.08758E-03-5.49570E-14
 -1      3697 9.71823E-03-3.91537E-03-5.23582E-14
 -1      3698 1.01458E-02-4.17326E-03-5.66403E-14
 -1      3699 1.02815E-02-4.25891E-03-5.83420E-14
 -1      3700 9.99660E-03-4.09125E-03-5.57747E-14
 -1      3701 1.04243E-02-4.34902E-03-6.01546E-14
 -1      3702 1.05672E-02-4.43910E-03-6.19869E-14
 -1      3703 1.02751E-02-4.26698E-03-5.92683E-14
 -1      3704 1.07100E-02-4.52915E-03-6.38378E-14
 -1      3705 1.08529E-02-4.61917E-03-6.57107E-14
 -1      3706 1.05607E-02-4.44710E-03-6.29340E-14
 -1      3707 1.09957E-02-4.70917E-03-6.76009E-14
 -1      3708 1.11386E-02-4.79914E-03-6.95080E-14
 -1      3709 1.08464E-02-4.62711E-03-6.66771E-14
 -1      3710 1.12815E-02-4.88910E-03-7.14315E-14
 -1      3711 1.14243E-02-4.97904E-03-7.33749E-14
 -1      3712 1.11322E-02-4.80704E-03-7.04929E-14
 -1      3713 1.15672E-02-5.06897E-03-7.53364E-14
 -1      3714 1.17101E-02-5.15888E-03-7.73103E-14
 -1      3715 1.14179E-02-4.98691E-03-7.43777E-14
 -1      3716 1.18530E-02-5.24879E-03-7.93003E-14
 -1      3717 1.19958E-02-5.33868E-03-8.13083E-14
 -1      3718 1.17037E-02-5.16673E-03-7.83292E-14
 -1      3719 1.21387E-02-5.42857E-03-8.33290E-14
 -1      3720 1.22816E-02-5.51845E-03-8.53602E-14
 -1      3721 1.19894E-02-5.34651E-03-8.23398E-14
 -1      3722 1.24244E-02-5.60832E-03-8.74061E-14
 -1      3723 1.25673E-02-5.69819E-03-8.94646E-14
 -1      3724 1.22752E-02-5.52627E-03-8.64057E-14
 -1      3725 1.27102E-02-5.78806E-03-9.15350E-14
 -1      3726 1.28531E-02-5.87792E-03-9.36156E-14
 -1      3727 1.25609E-02-5.70601E-03-9.05217E-14
 -1      3728 1.29959E-02-5.96779E-03-9.57078E-14
 -1      3729 1.31388E-02-6.05764E-03-9.78126E-14
 -1      3730 1.28466E-02-5.88573E-03-9.46834E-14
 -1      3731 1.32816E-02-6.14750E-03-9.99271E-14
 -1      3732 1.34245E-02-6.23736E-03-1.02052E-13
 -1      3733 1.31324E-02-6.06545E-03-9.88887E-14
 -1      3734 1.35674E-02-6.32721E-03-1.04188E-13
 -1      3735 1.37102E-02-6.41707E-03-1.06335E-13
 -1      3736 1.34181E-02-6.24516E-03-1.03140E-13
 -1      3737 1.38531E-02-6.50692E-03-1.08494E-13
 -1      3738 1.39960E-02-6.59677E-03-1.10663E-13
 -1      3739 1.37038E-02-6.42487E-03-1.07431E-13
 -1      3740 1.41388E-02-6.68663E-03-1.12842E-13
 -1      3741 1.42817E-02-6.77648E-03-1.15031E-13
 -1      3742 1.39896E-02-6.60458E-03-1.11762E-13
 -1      3743 6.06359E-03-1.53803E-03-1.42834E-14
 -1      3744 6.17151E-03-1.61022E-03-1.52947E-14
 -1      3745 5.72055E-03-1.59145E-03-2.18078E-14
 -1      3746 5.57419E-03-1.50346E-03-2.06383E-14
 -1      3747 5.42669E-03-1.41532E-03-1.94987E-14
 -1      3748 5.27785E-03-1.32677E-03-1.83869E-14
 -1      3749 5.58327E-03-1.50050E-03-2.01049E-14
 -1      3750 6.29826E-03-1.94286E-03-2.67780E-14
 -1      3751 6.15468E-03-1.85494E-03-2.54915E-14
 -1      3752 6.58442E-03-2.11896E-03-2.94361E-14
 -1      3753 6.44147E-03-2.03085E-03-2.80925E-14
 -1      3754 6.45024E-03-2.02409E-03-2.74769E-14
 -1      3755 6.86979E-03-2.29554E-03-3.22097E-14
 -1      3756 6.72717E-03-2.20719E-03-3.08090E-14
 -1      3757 6.73552E-03-2.19986E-03-3.01656E-14
 -1      3758 7.15480E-03-2.47259E-03-3.50922E-14
 -1      3759 7.01231E-03-2.38401E-03-3.36375E-14
 -1      3760 7.02026E-03-2.37633E-03-3.29659E-14
 -1      3761 7.43971E-03-2.65010E-03-3.80827E-14
 -1      3762 7.29725E-03-2.56129E-03-3.65744E-14
 -1      3763 7.30483E-03-2.55344E-03-3.58756E-14
 -1      3764 7.72467E-03-2.82802E-03-4.11783E-14
 -1      3765 7.58218E-03-2.73901E-03-3.96159E-14
 -1      3766 7.58944E-03-2.73107E-03-3.88926E-14
 -1      3767 8.00975E-03-3.00628E-03-4.43783E-14
 -1      3768 7.86719E-03-2.91711E-03-4.27658E-14
 -1      3769 7.87420E-03-2.90914E-03-4.20143E-14
 -1      3770 8.29496E-03-3.18484E-03-4.76800E-14
 -1      3771 8.15233E-03-3.09553E-03-4.60159E-14
 -1      3772 8.15915E-03-3.08756E-03-4.52395E-14
 -1      3773 8.58030E-03-3.36365E-03-5.10802E-14
 -1      3774 8.43761E-03-3.27422E-03-4.93678E-14
 -1      3775 8.44427E-03-3.26628E-03-4.85641E-14
 -1      3776 8.86575E-03-3.54266E-03-5.45744E-14
 -1      3777 8.72301E-03-3.45313E-03-5.28166E-14
 -1      3778 8.72956E-03-3.44522E-03-5.19864E-14
 -1      3779 9.15129E-03-3.72183E-03-5.81582E-14
 -1      3780 9.00851E-03-3.63223E-03-5.63564E-14
 -1      3781 9.01498E-03-3.62434E-03-5.55033E-14
 -1      3782 9.43690E-03-3.90114E-03-6.18278E-14
 -1      3783 9.29409E-03-3.81147E-03-5.99824E-14
 -1      3784 9.30051E-03-3.80361E-03-5.91071E-14
 -1      3785 9.72256E-03-4.08055E-03-6.55724E-14
 -1      3786 9.57973E-03-3.99083E-03-6.36913E-14
 -1      3787 9.58611E-03-3.98299E-03-6.27960E-14
 -1      3788 1.00083E-02-4.26005E-03-6.93839E-14
 -1      3789 9.86541E-03-4.17029E-03-6.74698E-14
 -1      3790 9.87177E-03-4.16246E-03-6.65567E-14
 -1      3791 1.02940E-02-4.43960E-03-7.32584E-14
 -1      3792 1.01511E-02-4.34982E-03-7.13150E-14
 -1      3793 1.01575E-02-4.34200E-03-7.03827E-14
 -1      3794 1.05797E-02-4.61921E-03-7.71950E-14
 -1      3795 1.04368E-02-4.52940E-03-7.52179E-14
 -1      3796 1.04432E-02-4.52159E-03-7.42708E-14
 -1      3797 1.08655E-02-4.79885E-03-8.11864E-14
 -1      3798 1.07226E-02-4.70903E-03-7.91834E-14
 -1      3799 1.07289E-02-4.70122E-03-7.82206E-14
 -1      3800 1.11512E-02-4.97852E-03-8.52295E-14
 -1      3801 1.10083E-02-4.88868E-03-8.32023E-14
 -1      3802 1.10147E-02-4.88088E-03-8.22276E-14
 -1      3803 1.14369E-02-5.15821E-03-8.93221E-14
 -1      3804 1.12941E-02-5.06836E-03-8.72700E-14
 -1      3805 1.13004E-02-5.06055E-03-8.62837E-14
 -1      3806 1.17227E-02-5.33791E-03-9.34597E-14
 -1      3807 1.15798E-02-5.24805E-03-9.13861E-14
 -1      3808 1.15862E-02-5.24025E-03-9.03873E-14
 -1      3809 1.20084E-02-5.51761E-03-9.76421E-14
 -1      3810 1.18655E-02-5.42776E-03-9.55443E-14
 -1      3811 1.18719E-02-5.41995E-03-9.45365E-14
 -1      3812 1.22941E-02-5.69733E-03-1.01861E-13
 -1      3813 1.21513E-02-5.60747E-03-9.97480E-14
 -1      3814 1.21576E-02-5.59966E-03-9.87280E-14
 -1      3815 1.25799E-02-5.87704E-03-1.06118E-13
 -1      3816 1.24370E-02-5.78719E-03-1.03983E-13
 -1      3817 1.24434E-02-5.77938E-03-1.02957E-13
 -1      3818 1.28656E-02-6.05676E-03-1.10409E-13
 -1      3819 1.27227E-02-5.96690E-03-1.08260E-13
 -1      3820 1.27291E-02-5.95909E-03-1.07224E-13
 -1      3821 1.31206E-02-6.21638E-03-1.14191E-13
 -1      3822 1.29777E-02-6.12652E-03-1.12027E-13
 -1      3823 1.29841E-02-6.11871E-03-1.10988E-13
 -1      3824 1.32083E-02-6.25821E-03-1.14234E-13
 -1      3825 4.85050E-03-1.07180E-03-1.11211E-14
 -1      3826 5.04365E-03-1.15930E-03-1.15489E-14
 -1      3827 6.01063E-03-1.76711E-03-2.42340E-14
 -1      3828 5.86597E-03-1.67928E-03-2.30065E-14
 -1      3829 5.87526E-03-1.67465E-03-2.24462E-14
 -1      3830 4.50556E-03-8.71946E-04-1.32815E-14
 -1      3831 4.34455E-03-7.76747E-04-1.23526E-14
 -1      3832 5.94424E-03-1.45920E-03-1.31280E-14
 -1      3833 2.86444E-03 8.95131E-05-5.15716E-15
 -1      3834 3.04274E-03 7.39937E-07-5.72910E-15
 -1      3835 1.37527E-02-6.53042E-03-1.15635E-13
 -1      3836 1.36643E-02-6.48827E-03-1.15618E-13
 -1      3837 4.38736E-03-8.31412E-04-1.00791E-14
 -1      3838 4.62580E-03-9.59970E-04-1.06197E-14
 -1      3839 6.28551E-03-1.68542E-03-1.63343E-14
 -1      3840 6.40424E-03-1.76431E-03-1.74035E-14
 -1      3841 6.39245E-03-1.78107E-03-1.79943E-14
 -1      3842 2.01862E-03 2.32016E-04-2.57867E-15
 -1      3843 2.17742E-03 2.43800E-04-2.99920E-15
 -1      3844 3.18549E-03-7.15069E-05-6.74950E-15
 -1      3845 3.02429E-03 1.62440E-05-6.08427E-15
 -1      3846 5.62982E-03-1.36548E-03-1.24368E-14
 -1      3847 5.74300E-03-1.40663E-03-1.28723E-14
 -1      3848 5.56657E-03-1.36076E-03-1.27704E-14
 -1      3849 4.34171E-03-7.79871E-04-1.19284E-14
 -1      3850 4.18113E-03-6.79755E-04-1.14547E-14
 -1      3851 4.01609E-03-5.80801E-04-1.05898E-14
 -1      3852 1.35584E-02-6.43401E-03-1.15219E-13
 -1      3853 1.34525E-02-6.37974E-03-1.14818E-13
 -1      3854 1.34789E-02-6.37726E-03-1.13349E-13
 -1      3855 2.27827E-03 2.51527E-04-3.33791E-15
 -1      3856 5.91394E-03-1.47687E-03-1.36608E-14
 -1      3857 1.44357E-02-6.87328E-03-1.17396E-13
 -1      3858 1.88932E-03 2.78159E-04-2.37045E-15
 -1      3859 1.76949E-03 2.66582E-04-2.09115E-15
 -1      3860 1.66975E-03 2.29254E-04-1.85381E-15
 -1      3861 3.64068E-03-3.61440E-04-7.93457E-15
 -1      3862 3.79879E-03-4.64910E-04-8.62315E-15
 -1      3863 3.51771E-03-2.81279E-04-7.59961E-15
 -1      3864 6.16380E-03-1.84906E-03-2.49036E-14
 -1      3865 6.15341E-03-1.62782E-03-1.58575E-14
 -1      3866 5.28604E-03-1.32582E-03-1.78815E-14
 -1      3867 5.12739E-03-1.23778E-03-1.73055E-14
 -1      3868 4.97517E-03-1.14798E-03-1.62537E-14
 -1      3869 4.77378E-03-1.03609E-03-1.14208E-14
 -1      3870 5.15950E-03-1.21856E-03-1.25438E-14
 -1      3871 5.21497E-03-1.23457E-03-1.21417E-14
 -1      3872 5.37786E-03-1.30295E-03-1.27468E-14
 -1      3873 3.16319E-03-6.64485E-05-6.27848E-15
 -1      3874 4.10663E-03-6.63898E-04-9.76011E-15
 -1      3875 4.23746E-03-7.43053E-04-9.92045E-15
 -1      3876 4.41173E-03-8.40577E-04-1.07407E-14
 -1      3877 1.55189E-03 1.72925E-04-1.60246E-15
 -1      3878 4.82085E-03-1.05732E-03-1.52320E-14
 -1      3879 4.66443E-03-9.65330E-04-1.42418E-14
 -1      3880 4.98140E-03-1.14914E-03-1.57750E-14
 -1      3881 1.38406E-02-6.57239E-03-1.15648E-13
 -1      3882 1.36727E-02-6.47350E-03-1.13756E-13
 -1      3883 1.39286E-02-6.61436E-03-1.15662E-13
 -1      3884 4.66712E-03-9.68130E-04-1.37903E-14
 -1      3885 1.42864E-02-6.79123E-03-1.16300E-13
 -1      3886 1.42004E-02-6.74754E-03-1.16030E-13
 -1      3887 2.01616E-03 2.82750E-04-2.68728E-15
 -1      3888 1.92332E-03 2.57520E-04-2.41335E-15
 -1      3889 1.79632E-03 2.03605E-04-2.07276E-15
 -1      3890 1.88529E-03 2.19704E-04-2.27008E-15
 -1      3891 2.17394E-03 2.79493E-04-3.11898E-15
 -1      3892 7.17048E-03-2.45694E-03-3.37217E-14
 -1      3893 7.02841E-03-2.36858E-03-3.22955E-14
 -1      3894 1.33833E-02-6.34611E-03-1.14733E-13
 -1      3895 1.32775E-02-6.29185E-03-1.14324E-13
 -1      3896 1.31654E-02-6.22209E-03-1.12698E-13
 -1      3897 1.33038E-02-6.28937E-03-1.12869E-13
 -1      3898 3.34874E-03-1.67698E-04-7.45053E-15
 -1      3899 3.32166E-03-1.55913E-04-7.11037E-15
 -1      3900 6.50486E-03-1.87617E-03-1.97119E-14
 -1      3901 6.63455E-03-1.95882E-03-2.08680E-14
 -1      3902 6.76635E-03-2.04303E-03-2.20523E-14
 -1      3903 6.89985E-03-2.12876E-03-2.32651E-14
 -1      3904 6.62253E-03-1.97144E-03-2.14868E-14
 -1      3905 7.03487E-03-2.21552E-03-2.45077E-14
 -1      3906 7.17115E-03-2.30326E-03-2.57785E-14
 -1      3907 6.89048E-03-2.14098E-03-2.39122E-14
 -1      3908 7.30852E-03-2.39167E-03-2.70763E-14
 -1      3909 7.44680E-03-2.48068E-03-2.84035E-14
 -1      3910 7.16332E-03-2.31492E-03-2.64516E-14
 -1      3911 7.58585E-03-2.57007E-03-2.97576E-14
 -1      3912 7.72555E-03-2.65983E-03-3.11402E-14
 -1      3913 7.43981E-03-2.49172E-03-2.91020E-14
 -1      3914 7.86579E-03-2.74979E-03-3.25522E-14
 -1      3915 8.00649E-03-2.83994E-03-3.39903E-14
 -1      3916 7.71899E-03-2.67029E-03-3.18656E-14
 -1      3917 8.14756E-03-2.93019E-03-3.54561E-14
 -1      3918 8.28895E-03-3.02053E-03-3.69486E-14
 -1      3919 8.00013E-03-2.84988E-03-3.47399E-14
 -1      3920 8.43059E-03-3.11090E-03-3.84688E-14
 -1      3921 8.57246E-03-3.20129E-03-4.00157E-14
 -1      3922 8.28266E-03-3.03003E-03-3.77249E-14
 -1      3923 8.71451E-03-3.29168E-03-4.15860E-14
 -1      3924 8.85671E-03-3.38205E-03-4.31828E-14
 -1      3925 8.56618E-03-3.21042E-03-4.08153E-14
 -1      3926 8.99903E-03-3.47240E-03-4.48055E-14
 -1      3927 9.14146E-03-3.56272E-03-4.64485E-14
 -1      3928 8.85041E-03-3.39088E-03-4.40070E-14
 -1      3929 9.28397E-03-3.65300E-03-4.81125E-14
 -1      3930 9.42655E-03-3.74325E-03-4.98008E-14
 -1      3931 9.13513E-03-3.57130E-03-4.72920E-14
 -1      3932 9.56919E-03-3.83347E-03-5.15112E-14
 -1      3933 9.71188E-03-3.92365E-03-5.32445E-14
 -1      3934 9.42019E-03-3.75165E-03-5.06655E-14
 -1      3935 9.84746E-03-4.00929E-03-5.49080E-14
 -1      3936 9.98308E-03-4.09490E-03-5.65912E-14
 -1      3937 9.69836E-03-3.92738E-03-5.40412E-14
 -1      3938 1.01259E-02-4.18498E-03-5.83829E-14
 -1      3939 1.02687E-02-4.27504E-03-6.01958E-14
 -1      3940 9.97669E-03-4.10303E-03-5.74970E-14
 -1      3941 1.04115E-02-4.36507E-03-6.20287E-14
 -1      3942 1.05543E-02-4.45508E-03-6.38819E-14
 -1      3943 1.02623E-02-4.28308E-03-6.11235E-14
 -1      3944 1.06972E-02-4.54507E-03-6.57541E-14
 -1      3945 1.08400E-02-4.63504E-03-6.76459E-14
 -1      3946 1.05479E-02-4.46305E-03-6.48324E-14
 -1      3947 1.09829E-02-4.72499E-03-6.95532E-14
 -1      3948 1.11258E-02-4.81493E-03-7.14783E-14
 -1      3949 1.08336E-02-4.64296E-03-6.86135E-14
 -1      3950 1.12686E-02-4.90486E-03-7.34214E-14
 -1      3951 1.14115E-02-4.99477E-03-7.53823E-14
 -1      3952 1.11193E-02-4.82281E-03-7.24650E-14
 -1      3953 1.15544E-02-5.08467E-03-7.73584E-14
 -1      3954 1.16973E-02-5.17457E-03-7.93480E-14
 -1      3955 1.14051E-02-5.00263E-03-7.63851E-14
 -1      3956 1.18401E-02-5.26446E-03-8.13526E-14
 -1      3957 1.19830E-02-5.35434E-03-8.33725E-14
 -1      3958 1.16908E-02-5.18241E-03-8.03661E-14
 -1      3959 1.21259E-02-5.44422E-03-8.54070E-14
 -1      3960 1.22688E-02-5.53409E-03-8.74514E-14
 -1      3961 1.19766E-02-5.36216E-03-8.44052E-14
 -1      3962 1.24116E-02-5.62396E-03-8.95085E-14
 -1      3963 1.25545E-02-5.71382E-03-9.15789E-14
 -1      3964 1.22624E-02-5.54190E-03-8.84968E-14
 -1      3965 1.26974E-02-5.80368E-03-9.36556E-14
 -1      3966 1.28402E-02-5.89354E-03-9.57481E-14
 -1      3967 1.25481E-02-5.72163E-03-9.26301E-14
 -1      3968 1.29831E-02-5.98340E-03-9.78502E-14
 -1      3969 1.31260E-02-6.07326E-03-9.99639E-14
 -1      3970 1.28338E-02-5.90135E-03-9.68102E-14
 -1      3971 1.32689E-02-6.16312E-03-1.02089E-13
 -1      3972 1.34117E-02-6.25297E-03-1.04221E-13
 -1      3973 1.31196E-02-6.08107E-03-1.01036E-13
 -1      3974 1.35546E-02-6.34283E-03-1.06367E-13
 -1      3975 1.36974E-02-6.43268E-03-1.08521E-13
 -1      3976 1.34053E-02-6.26078E-03-1.05302E-13
 -1      3977 1.38403E-02-6.52253E-03-1.10685E-13
 -1      3978 1.39832E-02-6.61239E-03-1.12859E-13
 -1      3979 1.36911E-02-6.44049E-03-1.09607E-13
 -1      3980 3.51390E-03-2.68278E-04-8.18575E-15
 -1      3981 6.88633E-03-2.28043E-03-3.08957E-14
 -1      3982 6.74418E-03-2.19250E-03-2.95228E-14
 -1      3983 7.03679E-03-2.36073E-03-3.16262E-14
 -1      3984 6.60192E-03-2.10482E-03-2.81774E-14
 -1      3985 6.45945E-03-2.01740E-03-2.68626E-14
 -1      3986 6.75318E-03-2.18510E-03-2.88812E-14
 -1      3987 7.45466E-03-2.63417E-03-3.66604E-14
 -1      3988 7.31255E-03-2.54547E-03-3.51772E-14
 -1      3989 7.32042E-03-2.53739E-03-3.44803E-14
 -1      3990 7.73902E-03-2.81199E-03-3.97041E-14
 -1      3991 7.59681E-03-2.72302E-03-3.81689E-14
 -1      3992 7.60428E-03-2.71485E-03-3.74460E-14
 -1      3993 8.02362E-03-2.99025E-03-4.28522E-14
 -1      3994 7.88129E-03-2.90107E-03-4.12644E-14
 -1      3995 7.88844E-03-2.89289E-03-4.05161E-14
 -1      3996 8.30847E-03-3.16885E-03-4.61022E-14
 -1      3997 8.16601E-03-3.07951E-03-4.44650E-14
 -1      3998 8.17293E-03-3.07137E-03-4.36908E-14
 -1      3999 8.59354E-03-3.34773E-03-4.94506E-14
 -1      4000 8.45098E-03-3.25826E-03-4.77650E-14
 -1      4001 8.45772E-03-3.25017E-03-4.69666E-14
 -1      4002 8.87879E-03-3.52681E-03-5.28952E-14
 -1      4003 8.73614E-03-3.43725E-03-5.11609E-14
 -1      4004 8.74275E-03-3.42921E-03-5.03383E-14
 -1      4005 9.16420E-03-3.70605E-03-5.64319E-14
 -1      4006 9.02148E-03-3.61641E-03-5.46515E-14
 -1      4007 9.02800E-03-3.60843E-03-5.38031E-14
 -1      4008 9.44971E-03-3.88541E-03-6.00552E-14
 -1      4009 9.30694E-03-3.79571E-03-5.82334E-14
 -1      4010 9.31340E-03-3.78778E-03-5.73592E-14
 -1      4011 9.73532E-03-4.06486E-03-6.37623E-14
 -1      4012 9.59251E-03-3.97512E-03-6.18989E-14
 -1      4013 9.59892E-03-3.96723E-03-6.10039E-14
 -1      4014 1.00210E-02-4.24439E-03-6.75370E-14
 -1      4015 9.87814E-03-4.15462E-03-6.56408E-14
 -1      4016 9.88453E-03-4.14675E-03-6.47258E-14
 -1      4017 1.03067E-02-4.42396E-03-7.13792E-14
 -1      4018 1.01638E-02-4.33417E-03-6.94504E-14
 -1      4019 1.01702E-02-4.32632E-03-6.85157E-14
 -1      4020 1.05924E-02-4.60358E-03-7.52826E-14
 -1      4021 1.04495E-02-4.51377E-03-7.33238E-14
 -1      4022 1.04559E-02-4.50594E-03-7.23739E-14
 -1      4023 1.08782E-02-4.78323E-03-7.92461E-14
 -1      4024 1.07353E-02-4.69341E-03-7.72570E-14
 -1      4025 1.07416E-02-4.68559E-03-7.62922E-14
 -1      4026 1.11639E-02-4.96291E-03-8.32670E-14
 -1      4027 1.10210E-02-4.87307E-03-8.12492E-14
 -1      4028 1.10274E-02-4.86525E-03-8.02695E-14
 -1      4029 1.14496E-02-5.14259E-03-8.73341E-14
 -1      4030 1.13068E-02-5.05275E-03-8.52951E-14
 -1      4031 1.13131E-02-5.04494E-03-8.43027E-14
 -1      4032 1.17354E-02-5.32229E-03-9.14509E-14
 -1      4033 1.15925E-02-5.23244E-03-8.93869E-14
 -1      4034 1.15989E-02-5.22464E-03-8.83833E-14
 -1      4035 1.20211E-02-5.50200E-03-9.56090E-14
 -1      4036 1.18783E-02-5.41215E-03-9.35256E-14
 -1      4037 1.18846E-02-5.40434E-03-9.25103E-14
 -1      4038 1.23069E-02-5.68171E-03-9.98130E-14
 -1      4039 1.21640E-02-5.59186E-03-9.77059E-14
 -1      4040 1.21704E-02-5.58405E-03-9.66820E-14
 -1      4041 1.25926E-02-5.86143E-03-1.04050E-13
 -1      4042 1.24498E-02-5.77157E-03-1.01928E-13
 -1      4043 1.24561E-02-5.76376E-03-1.00894E-13
 -1      4044 1.28784E-02-6.04114E-03-1.08329E-13
 -1      4045 1.27355E-02-5.95129E-03-1.06184E-13
 -1      4046 1.27419E-02-5.94348E-03-1.05144E-13
 -1      4047 6.01298E-03-1.57022E-03-1.53823E-14
 -1      4048 6.13099E-03-1.64238E-03-1.64210E-14
 -1      4049 1.66839E-03 1.82783E-04-1.81410E-15
 -1      4050 6.02988E-03-1.75682E-03-2.30865E-14
 -1      4051 5.88546E-03-1.67046E-03-2.18862E-14
 -1      4052 6.31672E-03-1.93026E-03-2.55753E-14
 -1      4053 6.17356E-03-1.84339E-03-2.43161E-14
 -1      4054 6.46918E-03-2.01075E-03-2.62477E-14
 -1      4055 2.62390E-03 1.85440E-04-4.46297E-15
 -1      4056 2.74954E-03 1.38508E-04-4.82004E-15
 -1      4057 4.72245E-03-1.01002E-03-1.17885E-14
 -1      4058 4.92975E-03-1.11506E-03-1.23217E-14
 -1      4059 2.85509E-03 9.55979E-05-5.28408E-15
 -1      4060 1.40512E-02-6.66549E-03-1.14936E-13
 -1      4061 2.39527E-03 2.48642E-04-3.76950E-15
 -1      4062 3.84930E-03-4.80058E-04-9.75711E-15
 -1      4063 3.68068E-03-3.73553E-04-8.95499E-15
 -1      4064 3.66186E-03-3.65426E-04-8.58639E-15
 -1      4065 4.00574E-03-5.81740E-04-1.01946E-14
 -1      4066 5.86979E-03-1.48131E-03-1.40141E-14
 -1      4067 6.25279E-03-1.71751E-03-1.74882E-14
 -1      4068 6.37739E-03-1.79574E-03-1.85852E-14
 -1      4069 6.36092E-03-1.80834E-03-1.91772E-14
 -1      4070 5.74013E-03-1.58436E-03-2.07148E-14
 -1      4071 5.59361E-03-1.49830E-03-1.95724E-14
 -1      4072 5.89676E-03-1.66675E-03-2.13264E-14
 -1      4073 4.83241E-03-1.06343E-03-1.43025E-14
 -1      4074 4.67210E-03-9.72997E-04-1.33389E-14
 -1      4075 1.34249E-02-6.33495E-03-1.11704E-13
 -1      4076 1.33191E-02-6.28069E-03-1.11310E-13
 -1      4077 5.60547E-03-1.49695E-03-1.90395E-14
 -1      4078 5.44564E-03-1.41233E-03-1.84591E-14
 -1      4079 5.29590E-03-1.32605E-03-1.73751E-14
 -1      4080 2.55015E-03 2.13232E-04-4.28784E-15
 -1      4081 1.35129E-02-6.37692E-03-1.11718E-13
 -1      4082 1.33531E-02-6.28035E-03-1.09688E-13
 -1      4083 1.36009E-02-6.41890E-03-1.11728E-13
 -1      4084 5.83217E-03-1.49101E-03-1.45458E-14
 -1      4085 3.42911E-03-2.23877E-04-7.38807E-15
 -1      4086 3.57809E-03-3.16978E-04-8.05244E-15
 -1      4087 6.10723E-03-1.65420E-03-1.69842E-14
 -1      4088 3.75206E-03-4.27155E-04-8.81851E-15
 -1      4089 1.30779E-02-6.16650E-03-1.11319E-13
 -1      4090 1.29658E-02-6.09674E-03-1.09701E-13
 -1      4091 1.29722E-02-6.08893E-03-1.08653E-13
 -1      4092 1.31471E-02-6.20013E-03-1.11404E-13
 -1      4093 5.09872E-03-1.19717E-03-1.29362E-14
 -1      4094 5.26306E-03-1.27405E-03-1.35627E-14
 -1      4095 5.04687E-03-1.17536E-03-1.33251E-14
 -1      4096 5.14401E-03-1.23946E-03-1.63200E-14
 -1      4097 4.98968E-03-1.15195E-03-1.52960E-14
 -1      4098 5.30776E-03-1.32760E-03-1.68691E-14
 -1      4099 6.18409E-03-1.83794E-03-2.37294E-14
 -1      4100 3.25709E-03-1.20674E-04-6.68651E-15
 -1      4101 3.06276E-03-8.62184E-06-6.02629E-15
 -1      4102 5.50963E-03-1.35645E-03-1.31934E-14
 -1      4103 5.63523E-03-1.40620E-03-1.36447E-14
 -1      4104 5.45706E-03-1.34889E-03-1.36143E-14
 -1      4105 5.00040E-03-1.15661E-03-1.48175E-14
 -1      4106 2.66737E-03 1.78623E-04-4.75222E-15
 -1      4107 4.57956E-03-9.30184E-04-1.16136E-14
 -1      4108 3.87929E-03-5.15781E-04-9.18043E-15
 -1      4109 2.82265E-03 1.16449E-04-5.33829E-15
 -1      4110 2.93525E-03 6.09956E-05-5.69930E-15
 -1      4111 1.39652E-02-6.62180E-03-1.14662E-13
 -1      4112 1.37973E-02-6.52291E-03-1.12772E-13
 -1      4113 4.04874E-03-6.16525E-04-9.96725E-15
 -1      4114 6.21265E-03-1.74005E-03-1.86437E-14
 -1      4115 6.34358E-03-1.81907E-03-1.97694E-14
 -1      4116 4.50812E-03-8.80586E-04-1.24066E-14
 -1      4117 4.34088E-03-7.85111E-04-1.15051E-14
 -1      4118 6.33769E-03-1.91806E-03-2.43744E-14
 -1      4119 6.19551E-03-1.83257E-03-2.31422E-14
 -1      4120 6.47602E-03-1.89999E-03-2.09234E-14
 -1      4121 6.60961E-03-1.98272E-03-2.21062E-14
 -1      4122 6.32646E-03-1.82829E-03-2.03609E-14
 -1      4123 6.74447E-03-2.06684E-03-2.33174E-14
 -1      4124 6.88032E-03-2.15226E-03-2.45582E-14
 -1      4125 6.59654E-03-1.99284E-03-2.27244E-14
 -1      4126 7.01717E-03-2.23865E-03-2.58275E-14
 -1      4127 7.15483E-03-2.32591E-03-2.71246E-14
 -1      4128 6.86985E-03-2.16266E-03-2.52043E-14
 -1      4129 7.29325E-03-2.41382E-03-2.84489E-14
 -1      4130 7.43230E-03-2.50230E-03-2.98009E-14
 -1      4131 7.14599E-03-2.33626E-03-2.77967E-14
 -1      4132 7.57193E-03-2.59118E-03-3.11821E-14
 -1      4133 7.71205E-03-2.68042E-03-3.25913E-14
 -1      4134 7.42448E-03-2.51241E-03-3.05005E-14
 -1      4135 7.85258E-03-2.76991E-03-3.40271E-14
 -1      4136 7.99348E-03-2.85960E-03-3.54904E-14
 -1      4137 7.70483E-03-2.69022E-03-3.33156E-14
 -1      4138 8.13469E-03-2.94943E-03-3.69815E-14
 -1      4139 8.27617E-03-3.03937E-03-3.85004E-14
 -1      4140 7.98663E-03-2.86907E-03-3.62412E-14
 -1      4141 8.41787E-03-3.12938E-03-4.00437E-14
 -1      4142 8.55976E-03-3.21944E-03-4.16136E-14
 -1      4143 8.26952E-03-3.04853E-03-3.92741E-14
 -1      4144 8.70182E-03-3.30952E-03-4.32095E-14
 -1      4145 8.84401E-03-3.39962E-03-4.48295E-14
 -1      4146 8.55323E-03-3.22832E-03-4.24122E-14
 -1      4147 8.98633E-03-3.48973E-03-4.64715E-14
 -1      4148 9.12874E-03-3.57983E-03-4.81339E-14
 -1      4149 8.83754E-03-3.40827E-03-4.56494E-14
 -1      4150 9.27124E-03-3.66992E-03-4.98208E-14
 -1      4151 9.41380E-03-3.75999E-03-5.15308E-14
 -1      4152 9.12230E-03-3.58828E-03-4.89781E-14
 -1      4153 9.54930E-03-3.84555E-03-5.31753E-14
 -1      4154 9.68484E-03-3.93109E-03-5.48397E-14
 -1      4155 9.40025E-03-3.76379E-03-5.23091E-14
 -1      4156 9.82755E-03-4.02112E-03-5.66113E-14
 -1      4157 9.97029E-03-4.11113E-03-5.84062E-14
 -1      4158 9.67842E-03-3.93926E-03-5.57254E-14
 -1      4159 1.01131E-02-4.20112E-03-6.02192E-14
 -1      4160 1.02559E-02-4.29110E-03-6.20545E-14
 -1      4161 9.96389E-03-4.11920E-03-5.93144E-14
 -1      4162 1.03987E-02-4.38106E-03-6.39113E-14
 -1      4163 1.05415E-02-4.47101E-03-6.57854E-14
 -1      4164 1.02495E-02-4.29909E-03-6.29891E-14
 -1      4165 1.06844E-02-4.56094E-03-6.76752E-14
 -1      4166 1.08272E-02-4.65087E-03-6.95830E-14
 -1      4167 1.05351E-02-4.47894E-03-6.67378E-14
 -1      4168 1.09701E-02-4.74078E-03-7.15096E-14
 -1      4169 1.11129E-02-4.83069E-03-7.34535E-14
 -1      4170 1.08208E-02-4.65876E-03-7.05547E-14
 -1      4171 1.12558E-02-4.92058E-03-7.54140E-14
 -1      4172 1.13987E-02-5.01047E-03-7.73899E-14
 -1      4173 1.11065E-02-4.83855E-03-7.44412E-14
 -1      4174 1.15416E-02-5.10036E-03-7.93798E-14
 -1      4175 1.16844E-02-5.19024E-03-8.13837E-14
 -1      4176 1.13923E-02-5.01832E-03-7.83918E-14
 -1      4177 1.18273E-02-5.28011E-03-8.34017E-14
 -1      4178 1.19702E-02-5.36998E-03-8.54359E-14
 -1      4179 1.16780E-02-5.19806E-03-8.24004E-14
 -1      4180 1.21131E-02-5.45985E-03-8.74813E-14
 -1      4181 1.22560E-02-5.54972E-03-8.95375E-14
 -1      4182 1.19638E-02-5.37780E-03-8.64647E-14
 -1      4183 1.23988E-02-5.63958E-03-9.16033E-14
 -1      4184 1.25417E-02-5.72944E-03-9.36808E-14
 -1      4185 1.22496E-02-5.55753E-03-9.05755E-14
 -1      4186 1.26846E-02-5.81930E-03-9.57701E-14
 -1      4187 1.28275E-02-5.90916E-03-9.78724E-14
 -1      4188 1.25353E-02-5.73725E-03-9.47303E-14
 -1      4189 1.29703E-02-5.99901E-03-9.99849E-14
 -1      4190 1.31132E-02-6.08887E-03-1.02106E-13
 -1      4191 1.28211E-02-5.91696E-03-9.89315E-14
 -1      4192 1.32561E-02-6.17873E-03-1.04236E-13
 -1      4193 1.33989E-02-6.26858E-03-1.06376E-13
 -1      4194 1.31068E-02-6.09668E-03-1.03171E-13
 -1      4195 1.34946E-02-6.33648E-03-1.08580E-13
 -1      4196 1.36375E-02-6.42633E-03-1.10739E-13
 -1      4197 6.62108E-03-2.09060E-03-2.69227E-14
 -1      4198 6.47948E-03-2.00407E-03-2.56341E-14
 -1      4199 6.49041E-03-1.99730E-03-2.50207E-14
 -1      4200 7.75369E-03-2.79548E-03-3.82321E-14
 -1      4201 7.61183E-03-2.70653E-03-3.67226E-14
 -1      4202 7.18687E-03-2.44082E-03-3.23571E-14
 -1      4203 7.04539E-03-2.35274E-03-3.09575E-14
 -1      4204 5.95487E-03-1.58923E-03-1.64811E-14
 -1      4205 6.08290E-03-1.66341E-03-1.75476E-14
 -1      4206 6.05963E-03-1.67077E-03-1.81122E-14
 -1      4207 6.90396E-03-2.26498E-03-2.95849E-14
 -1      4208 6.76253E-03-2.17758E-03-2.82397E-14
 -1      4209 7.05421E-03-2.34458E-03-3.02894E-14
 -1      4210 8.03772E-03-2.97379E-03-4.13309E-14
 -1      4211 7.89565E-03-2.88458E-03-3.97686E-14
 -1      4212 7.90290E-03-2.87613E-03-3.90215E-14
 -1      4213 8.32214E-03-3.15251E-03-4.45302E-14
 -1      4214 8.17989E-03-3.06311E-03-4.29169E-14
 -1      4215 8.18686E-03-3.05474E-03-4.21455E-14
 -1      4216 8.60690E-03-3.33152E-03-4.78304E-14
 -1      4217 8.46448E-03-3.24199E-03-4.61679E-14
 -1      4218 8.47127E-03-3.23371E-03-4.53713E-14
 -1      4219 8.89193E-03-3.51073E-03-5.12241E-14
 -1      4220 8.74939E-03-3.42110E-03-4.95156E-14
 -1      4221 8.75603E-03-3.41292E-03-4.86947E-14
 -1      4222 9.17718E-03-3.69008E-03-5.47119E-14
 -1      4223 9.03453E-03-3.60039E-03-5.29572E-14
 -1      4224 9.04108E-03-3.59229E-03-5.21113E-14
 -1      4225 9.46259E-03-3.86954E-03-5.82868E-14
 -1      4226 9.31987E-03-3.77980E-03-5.64872E-14
 -1      4227 9.32635E-03-3.77178E-03-5.56178E-14
 -1      4228 9.74812E-03-4.04907E-03-6.19500E-14
 -1      4229 9.60534E-03-3.95930E-03-6.01085E-14
 -1      4230 9.61178E-03-3.95133E-03-5.92133E-14
 -1      4231 1.00337E-02-4.22865E-03-6.56876E-14
 -1      4232 9.89092E-03-4.13886E-03-6.38111E-14
 -1      4233 9.89733E-03-4.13094E-03-6.28958E-14
 -1      4234 1.03194E-02-4.40827E-03-6.94947E-14
 -1      4235 1.01766E-02-4.31846E-03-6.75832E-14
 -1      4236 1.01830E-02-4.31058E-03-6.66514E-14
 -1      4237 1.06051E-02-4.58793E-03-7.33676E-14
 -1      4238 1.04623E-02-4.49810E-03-7.14235E-14
 -1      4239 1.04686E-02-4.49024E-03-7.04732E-14
 -1      4240 1.08909E-02-4.76760E-03-7.73004E-14
 -1      4241 1.07480E-02-4.67776E-03-7.53268E-14
 -1      4242 1.07544E-02-4.66992E-03-7.43596E-14
 -1      4243 1.11766E-02-4.94728E-03-8.12927E-14
 -1      4244 1.10337E-02-4.85744E-03-7.92896E-14
 -1      4245 1.10401E-02-4.84961E-03-7.83079E-14
 -1      4246 1.14624E-02-5.12698E-03-8.53392E-14
 -1      4247 1.13195E-02-5.03713E-03-8.33102E-14
 -1      4248 1.13259E-02-5.02931E-03-8.23156E-14
 -1      4249 1.17481E-02-5.30668E-03-8.94329E-14
 -1      4250 1.16052E-02-5.21683E-03-8.73796E-14
 -1      4251 1.16116E-02-5.20902E-03-8.63745E-14
 -1      4252 1.20339E-02-5.48639E-03-9.35699E-14
 -1      4253 1.18910E-02-5.39653E-03-9.14953E-14
 -1      4254 1.18974E-02-5.38873E-03-9.04787E-14
 -1      4255 1.23196E-02-5.66610E-03-9.77527E-14
 -1      4256 1.21768E-02-5.57624E-03-9.56558E-14
 -1      4257 1.21831E-02-5.56844E-03-9.46290E-14
 -1      4258 1.26054E-02-5.84581E-03-1.01975E-13
 -1      4259 1.24625E-02-5.75596E-03-9.98594E-14
 -1      4260 1.24689E-02-5.74815E-03-9.88225E-14
 -1      4261 1.28911E-02-6.02553E-03-1.06234E-13
 -1      4262 1.27482E-02-5.93567E-03-1.04099E-13
 -1      4263 1.27546E-02-5.92787E-03-1.03055E-13
 -1      4264 7.47008E-03-2.61775E-03-3.52401E-14
 -1      4265 7.32842E-03-2.52917E-03-3.37854E-14
 -1      4266 7.61945E-03-2.69806E-03-3.60012E-14
 -1      4267 4.22219E-03-7.18295E-04-1.08111E-14
 -1      4268 4.67969E-03-9.80029E-04-1.28882E-14
 -1      4269 5.17026E-03-1.24712E-03-1.53365E-14
 -1      4270 5.01482E-03-1.16296E-03-1.43402E-14
 -1      4271 5.78994E-03-1.49289E-03-1.49920E-14
 -1      4272 6.05286E-03-1.74770E-03-2.19392E-14
 -1      4273 5.90943E-03-1.66334E-03-2.07658E-14
 -1      4274 6.20796E-03-1.82726E-03-2.25551E-14
 -1      4275 4.39646E-03-8.23929E-04-1.12603E-14
 -1      4276 4.69335E-03-9.90668E-04-1.23358E-14
 -1      4277 5.34328E-03-1.31907E-03-1.44361E-14
 -1      4278 5.39716E-03-1.33490E-03-1.40262E-14
 -1      4279 5.52760E-03-1.39248E-03-1.44964E-14
 -1      4280 1.33454E-02-6.25443E-03-1.07498E-13
 -1      4281 4.85736E-03-1.07886E-03-1.32686E-14
 -1      4282 5.03667E-03-1.17252E-03-1.37542E-14
 -1      4283 6.77227E-03-2.16992E-03-2.75994E-14
 -1      4284 7.33656E-03-2.52077E-03-3.30910E-14
 -1      4285 1.30749E-02-6.13586E-03-1.08480E-13
 -1      4286 1.30813E-02-6.12805E-03-1.07423E-13
 -1      4287 5.19754E-03-1.25393E-03-1.44034E-14
 -1      4288 1.32573E-02-6.21223E-03-1.07473E-13
 -1      4289 1.31694E-02-6.17025E-03-1.07460E-13
 -1      4290 1.29855E-02-6.05993E-03-1.05222E-13
 -1      4291 1.31616E-02-6.14433E-03-1.05282E-13
 -1      4292 5.47199E-03-1.41327E-03-1.74203E-14
 -1      4293 5.32245E-03-1.33024E-03-1.63633E-14
 -1      4294 5.34042E-03-1.33415E-03-1.58587E-14
 -1      4295 5.92368E-03-1.66023E-03-2.02068E-14
 -1      4296 5.76507E-03-1.57960E-03-1.96223E-14
 -1      4297 5.61933E-03-1.49622E-03-1.85072E-14
 -1      4298 5.75502E-03-1.49649E-03-1.55228E-14
 -1      4299 1.32163E-02-6.23377E-03-1.11488E-13
 -1      4300 1.31624E-02-6.19145E-03-1.09854E-13
 -1      4301 6.44644E-03-1.91841E-03-2.21331E-14
 -1      4302 6.58349E-03-2.00196E-03-2.33429E-14
 -1      4303 6.72112E-03-2.08663E-03-2.45820E-14
 -1      4304 6.85922E-03-2.17232E-03-2.58496E-14
 -1      4305 6.57086E-03-2.01033E-03-2.39615E-14
 -1      4306 6.99785E-03-2.25883E-03-2.71456E-14
 -1      4307 7.13694E-03-2.34605E-03-2.84685E-14
 -1      4308 6.84871E-03-2.18138E-03-2.64944E-14
 -1      4309 7.27649E-03-2.43383E-03-2.98197E-14
 -1      4310 7.41644E-03-2.52211E-03-3.11991E-14
 -1      4311 7.12785E-03-2.35537E-03-2.91409E-14
 -1      4312 7.55677E-03-2.61075E-03-3.26052E-14
 -1      4313 7.69743E-03-2.69972E-03-3.40397E-14
 -1      4314 7.40830E-03-2.53144E-03-3.18960E-14
 -1      4315 7.83839E-03-2.78892E-03-3.55027E-14
 -1      4316 7.97962E-03-2.87832E-03-3.69914E-14
 -1      4317 7.68991E-03-2.70894E-03-3.47635E-14
 -1      4318 8.12108E-03-2.96786E-03-3.85068E-14
 -1      4319 8.26275E-03-3.05753E-03-4.00484E-14
 -1      4320 7.97250E-03-2.88735E-03-3.77409E-14
 -1      4321 8.40460E-03-3.14727E-03-4.16162E-14
 -1      4322 8.54660E-03-3.23708E-03-4.32108E-14
 -1      4323 8.25590E-03-3.06636E-03-4.08226E-14
 -1      4324 8.68875E-03-3.32694E-03-4.48281E-14
 -1      4325 8.83101E-03-3.41683E-03-4.64699E-14
 -1      4326 8.53992E-03-3.24572E-03-4.40082E-14
 -1      4327 8.97337E-03-3.50674E-03-4.81322E-14
 -1      4328 9.11582E-03-3.59666E-03-4.98192E-14
 -1      4329 8.82444E-03-3.42529E-03-4.72892E-14
 -1      4330 9.25122E-03-3.68210E-03-5.14435E-14
 -1      4331 9.38668E-03-3.76754E-03-5.30866E-14
 -1      4332 9.10219E-03-3.60048E-03-5.05779E-14
 -1      4333 9.52931E-03-3.85747E-03-5.48392E-14
 -1      4334 9.67200E-03-3.94740E-03-5.66136E-14
 -1      4335 9.38021E-03-3.77573E-03-5.39526E-14
 -1      4336 9.81472E-03-4.03732E-03-5.84100E-14
 -1      4337 9.95747E-03-4.12724E-03-6.02279E-14
 -1      4338 9.66556E-03-3.95549E-03-5.75042E-14
 -1      4339 1.01003E-02-4.21716E-03-6.20627E-14
 -1      4340 1.02431E-02-4.30707E-03-6.39221E-14
 -1      4341 9.95106E-03-4.13525E-03-6.11407E-14
 -1      4342 1.03859E-02-4.39697E-03-6.57976E-14
 -1      4343 1.05287E-02-4.48686E-03-6.76881E-14
 -1      4344 1.02367E-02-4.31502E-03-6.48539E-14
 -1      4345 1.06716E-02-4.57676E-03-6.95982E-14
 -1      4346 1.08144E-02-4.66664E-03-7.15246E-14
 -1      4347 1.05223E-02-4.49477E-03-6.86410E-14
 -1      4348 1.09573E-02-4.75653E-03-7.34683E-14
 -1      4349 1.11002E-02-4.84640E-03-7.54283E-14
 -1      4350 1.08080E-02-4.67451E-03-7.24947E-14
 -1      4351 1.12430E-02-4.93628E-03-7.74035E-14
 -1      4352 1.13859E-02-5.02615E-03-7.93923E-14
 -1      4353 1.10938E-02-4.85425E-03-7.64138E-14
 -1      4354 1.15288E-02-5.11602E-03-8.13970E-14
 -1      4355 1.16717E-02-5.20589E-03-8.34156E-14
 -1      4356 1.13795E-02-5.03398E-03-8.03932E-14
 -1      4357 1.18145E-02-5.29575E-03-8.54478E-14
 -1      4358 1.19574E-02-5.38561E-03-8.74933E-14
 -1      4359 1.16653E-02-5.21371E-03-8.44316E-14
 -1      4360 1.21003E-02-5.47548E-03-8.95484E-14
 -1      4361 1.22432E-02-5.56534E-03-9.16138E-14
 -1      4362 1.19510E-02-5.39343E-03-8.85179E-14
 -1      4363 1.23861E-02-5.65520E-03-9.36900E-14
 -1      4364 1.25289E-02-5.74505E-03-9.57773E-14
 -1      4365 1.22368E-02-5.57314E-03-9.26479E-14
 -1      4366 1.26718E-02-5.83491E-03-9.78779E-14
 -1      4367 1.28147E-02-5.92477E-03-9.99883E-14
 -1      4368 1.25225E-02-5.75286E-03-9.68229E-14
 -1      4369 1.30188E-02-6.05447E-03-1.03150E-13
 -1      4370 6.67034E-03-2.08972E-03-2.57568E-14
 -1      4371 6.53036E-03-2.00420E-03-2.44930E-14
 -1      4372 8.36346E-03-3.15017E-03-4.30757E-14
 -1      4373 8.22142E-03-3.06064E-03-4.14866E-14
 -1      4374 8.07951E-03-2.97119E-03-3.99219E-14
 -1      4375 7.93775E-03-2.88186E-03-3.83816E-14
 -1      4376 5.90188E-03-1.59921E-03-1.75815E-14
 -1      4377 6.03761E-03-1.67645E-03-1.86760E-14
 -1      4378 7.23164E-03-2.43807E-03-3.10927E-14
 -1      4379 7.09102E-03-2.35023E-03-2.97172E-14
 -1      4380 8.64789E-03-3.32945E-03-4.63309E-14
 -1      4381 8.50562E-03-3.23978E-03-4.46915E-14
 -1      4382 8.93270E-03-3.50890E-03-4.96780E-14
 -1      4383 8.79025E-03-3.41916E-03-4.79926E-14
 -1      4384 9.21066E-03-3.68398E-03-5.30334E-14
 -1      4385 9.06808E-03-3.59419E-03-5.13027E-14
 -1      4386 9.49596E-03-3.86360E-03-5.65610E-14
 -1      4387 9.35329E-03-3.77378E-03-5.47869E-14
 -1      4388 9.78142E-03-4.04327E-03-6.01794E-14
 -1      4389 9.63867E-03-3.95343E-03-5.83584E-14
 -1      4390 1.00670E-02-4.22296E-03-6.38764E-14
 -1      4391 9.92419E-03-4.13311E-03-6.20183E-14
 -1      4392 1.03526E-02-4.40266E-03-6.76480E-14
 -1      4393 1.02098E-02-4.31281E-03-6.57533E-14
 -1      4394 1.06383E-02-4.58237E-03-7.14855E-14
 -1      4395 1.04955E-02-4.49251E-03-6.95580E-14
 -1      4396 1.09241E-02-4.76208E-03-7.53880E-14
 -1      4397 1.07812E-02-4.67222E-03-7.34298E-14
 -1      4398 1.12098E-02-4.94179E-03-7.93519E-14
 -1      4399 1.10669E-02-4.85194E-03-7.73630E-14
 -1      4400 1.14956E-02-5.12151E-03-8.33737E-14
 -1      4401 1.13527E-02-5.03165E-03-8.13552E-14
 -1      4402 1.17813E-02-5.30122E-03-8.74469E-14
 -1      4403 1.16384E-02-5.21136E-03-8.54041E-14
 -1      4404 1.20671E-02-5.48093E-03-9.15650E-14
 -1      4405 1.19242E-02-5.39108E-03-8.95008E-14
 -1      4406 1.23528E-02-5.66065E-03-9.57263E-14
 -1      4407 1.22100E-02-5.57079E-03-9.36407E-14
 -1      4408 1.26386E-02-5.84036E-03-9.99325E-14
 -1      4409 1.24957E-02-5.75051E-03-9.78250E-14
 -1      4410 1.28427E-02-5.97007E-03-1.03092E-13
 -1      4411 5.33370E-03-1.32597E-03-1.53705E-14
 -1      4412 5.34420E-03-1.32576E-03-1.49181E-14
 -1      4413 5.47393E-03-1.38792E-03-1.54064E-14
 -1      4414 5.48191E-03-1.40530E-03-1.63995E-14
 -1      4415 7.79615E-03-2.79267E-03-3.68702E-14
 -1      4416 7.65473E-03-2.70365E-03-3.53849E-14
 -1      4417 6.17364E-03-1.75551E-03-1.97992E-14
 -1      4418 6.30978E-03-1.83622E-03-2.09521E-14
 -1      4419 6.29406E-03-1.84327E-03-2.15426E-14
 -1      4420 6.95062E-03-2.26283E-03-2.83697E-14
 -1      4421 6.81039E-03-2.17597E-03-2.70497E-14
 -1      4422 5.70547E-03-1.48913E-03-1.59590E-14
 -1      4423 6.39046E-03-1.91950E-03-2.32585E-14
 -1      4424 6.25042E-03-1.83571E-03-2.20513E-14
 -1      4425 7.51350E-03-2.61485E-03-3.39264E-14
 -1      4426 7.37246E-03-2.52631E-03-3.24951E-14
 -1      4427 1.28695E-02-5.97242E-03-1.02083E-13
 -1      4428 6.01752E-03-1.68122E-03-1.92395E-14
 -1      4429 6.11023E-03-1.75293E-03-2.08735E-14
 -1      4430 5.96950E-03-1.67119E-03-1.97264E-14
 -1      4431 5.63554E-03-1.49620E-03-1.79744E-14
 -1      4432 5.67711E-03-1.48929E-03-1.64891E-14
 -1      4433 5.82819E-03-1.59056E-03-1.86064E-14
 -1      4434 5.68566E-03-1.51092E-03-1.75155E-14
 -1      4435 5.68027E-03-1.49987E-03-1.70006E-14
 -3
    1PSTEP                         2           1           1          
  100CL  101 1.000000000        4435                     0    1           1
 -4  STRESS      6    1
 -5  SXX         1    4    1    1
 -5  SYY         1    4    2    2
 -5  SZZ         1    4    3    3
 -5  SXY         1    4    1    2
 -5  SYZ         1    4    2    3
 -5  SZX         1    4    3    1
 -1         1 3.68124E+00 2.33571E+00-1.94891E+00 3.46595E+00-3.48821E-12-3.11468E-12
 -1         2-7.50903E-01-2.65202E+01-3.49777E+00 2.72018E-03-8.83210E-13 1.12639E-13
 -1         3 1.99998E+01 4.18637E-06-1.58105E-05 4.24252E-06-6.38790E-13-5.43787E-13
 -1         4 1.99998E+01 6.01144E-06-1.45300E-05-5.21528E-06-2.07528E-13 7.59100E-14
 -1         5 3.38462E+01 6.32525E+00 2.93476E+00 6.56111E+00-3.31818E-14 2.85760E-12
 -1         6 4.09806E+01 1.38387E+01 5.14831E+00-8.72389E+00-1.03528E-13 2.67214E-12
 -1         7 2.60635E+01 7.56582E+00 2.23622E-01-3.07633E+00-1.36835E-14 8.47839E-13
 -1         8 2.17909E+01 6.54565E+00 9.43870E-02-9.47141E-01-3.26406E-14 1.55351E-13
 -1         9 1.81201E+01 5.48603E+00-9.66385E-02-5.20030E-01-3.28904E-14-2.87227E-13
 -1        10 1.55594E+01 4.72983E+00-1.98341E-01-9.62819E-01-2.51466E-14-5.41371E-13
 -1        11 1.44580E+01 4.39818E+00-2.03219E-01-1.75222E+00-2.33320E-14-6.54976E-13
 -1        12 1.47281E+01 4.46949E+00-1.27588E-01-2.39088E+00-1.59109E-14-6.99174E-13
 -1        13 1.59169E+01 4.81130E+00-1.38961E-02-2.57347E+00-1.64591E-14-6.90792E-13
 -1        14 1.74036E+01 5.24318E+00 8.51231E-02-2.21288E+00-1.21084E-14-6.59986E-13
 -1        15 1.86993E+01 5.62195E+00 1.42215E-01-1.44075E+00-5.35683E-15-6.35985E-13
 -1        16 1.95681E+01 5.87839E+00 1.57917E-01-4.62416E-01 1.09635E-15-6.20317E-13
 -1        17 1.99891E+01 6.00554E+00 1.46181E-01 5.48568E-01 2.02442E-15-5.85210E-13
 -1        18 2.00673E+01 6.03345E+00 1.22300E-01 1.47829E+00 9.86060E-15-5.31420E-13
 -1        19 1.99560E+01 6.00817E+00 9.30663E-02 2.32743E+00 2.03843E-14-4.34163E-13
 -1        20 1.98446E+01 5.98778E+00 5.99567E-02 3.10131E+00 2.93142E-14-2.42837E-13
 -1        21 2.00275E+01 6.06896E+00 2.53783E-02 3.88529E+00 3.40353E-14 1.48208E-13
 -1        22 2.14349E+01 6.48084E+00 1.05389E-01 5.00944E+00 7.10543E-15 9.69060E-13
 -1        23 3.15041E+01-1.72412E+00-1.07547E+00-3.15058E-01-5.82728E-14 2.32045E-12
 -1        24 3.08388E+01-1.28745E-01-3.51833E-01 2.28902E-01-2.59523E-14 2.04790E-12
 -1        25 3.35655E+01-4.02109E-02-3.54117E-02 2.55650E-01-7.01370E-15 1.81140E-12
 -1        26 3.66361E+01 6.28415E-02 2.76088E-01 2.10825E-01 1.61121E-14 1.84918E-12
 -1        27 3.75939E+01 1.34913E-01 5.97839E-01-1.13332E-01 4.15726E-14 2.14354E-12
 -1        28 3.29730E+01 8.17804E-02 3.25350E-01-8.65430E-01 1.73091E-14 2.43319E-12
 -1        29 2.37504E+01 1.30556E-02-8.22051E-01-1.06808E+00-4.85029E-15 2.30543E-12
 -1        30 1.64996E+01-1.81059E-01-1.85929E+00-4.98885E-01-3.93886E-14 1.62909E-12
 -1        31 1.67584E+01-1.83107E-01-1.79163E+00 5.48726E-01-5.08482E-14 3.62904E-13
 -1        32 2.41395E+01-6.02868E-02-7.12730E-01 9.50066E-01 1.29063E-15-5.72903E-13
 -1        33 3.28677E+01 9.57011E-02 3.45849E-01 6.68272E-01-3.15997E-14-1.01658E-12
 -1        34 3.73877E+01 1.11436E-01 5.87966E-01 1.43047E-01 5.89025E-14-9.10091E-13
 -1        35 3.63889E+01 6.19218E-02 2.94761E-01-1.34894E-01 3.23418E-15-6.24382E-13
 -1        36 3.28499E+01 9.31324E-03 2.86954E-02-1.64739E-01 7.34259E-14-3.19127E-13
 -1        37 2.91762E+01-1.95762E-02-7.70473E-02-1.18689E-01-3.31657E-15 5.09245E-14
 -1        38 2.62527E+01-2.60174E-02-8.62990E-02-6.98583E-02-3.63685E-15 5.81618E-14
 -1        39 2.42364E+01-2.60671E-02-6.86754E-02-4.14339E-02 2.22797E-14-2.16459E-14
 -1        40 2.27832E+01-1.93631E-02-4.56179E-02-2.17739E-02-5.28697E-14-6.91738E-14
 -1        41 2.18184E+01-1.40713E-02-2.88826E-02-1.11342E-02 1.23701E-13-2.21965E-13
 -1        42 2.11842E+01-9.83522E-03-1.79854E-02-5.51176E-03-5.78406E-14-2.78670E-14
 -1        43 2.07682E+01-6.74970E-03-1.12065E-02-2.58574E-03-7.16050E-15-1.26697E-13
 -1        44 2.04950E+01-4.59636E-03-7.03759E-03-1.09072E-03 4.77469E-15 2.25144E-14
 -1        45 2.03151E+01-3.12531E-03-4.46697E-03-3.44028E-04-4.55731E-14-5.15580E-13
 -1        46 2.01964E+01-2.12950E-03-2.86767E-03 1.54918E-05 7.07147E-14-7.72409E-13
 -1        47 2.01182E+01-1.45647E-03-1.86057E-03 1.76850E-04-1.48315E-14-4.21266E-13
 -1        48 2.00669E+01-1.00013E-03-1.21745E-03 2.38212E-04-1.12478E-14-3.53248E-13
 -1        49 2.00336E+01-6.88773E-04-8.00553E-04 2.50193E-04-6.54663E-14-3.30468E-14
 -1        50 2.00125E+01-4.74692E-04-5.26232E-04 2.38692E-04 5.17817E-14 1.89640E-13
 -1        51 1.99995E+01-3.26328E-04-3.43283E-04 2.16854E-04-8.46550E-14-7.16822E-14
 -1        52 1.99919E+01-2.22809E-04-2.19996E-04 1.91305E-04 1.20675E-13 1.03722E-13
 -1        53 1.99880E+01-1.50214E-04-1.36343E-04 1.65411E-04-2.92407E-14 3.08690E-13
 -1        54 1.99864E+01-9.99789E-05-7.98363E-05 1.40514E-04-4.00102E-14-2.26033E-13
 -1        55 1.99863E+01-6.23408E-05-4.15046E-05 1.21859E-04 3.69823E-14-5.06602E-13
 -1        56 1.99870E+01-3.96387E-05-1.74629E-05 9.71056E-05-1.38100E-13-4.34930E-13
 -1        57 1.99883E+01-2.23782E-05-1.17397E-06 8.07742E-05-7.13323E-14-7.86737E-13
 -1        58 1.99898E+01-1.07087E-05 8.83405E-06 6.52131E-05 1.00756E-13-2.67816E-13
 -1        59 1.99913E+01-3.08041E-06 1.43435E-05 5.20201E-05-6.71727E-14 2.64671E-13
 -1        60 1.99928E+01 1.67468E-06 1.68205E-05 4.09628E-05 2.05526E-14-6.54868E-13
 -1        61 1.99941E+01 4.41875E-06 1.72938E-05 3.18371E-05 3.22584E-14-6.42354E-13
 -1        62 1.99953E+01 5.78739E-06 1.65081E-05 2.44239E-05 2.63072E-13-1.12639E-13
 -1        63 1.99963E+01 6.24698E-06 1.49965E-05 1.85020E-05-2.74299E-14 2.98105E-13
 -1        64 1.99971E+01 6.13845E-06 1.31375E-05 1.38585E-05 1.11252E-13 1.53521E-13
 -1        65 1.99978E+01 5.71068E-06 1.11993E-05 1.02942E-05 7.02535E-14 5.71930E-13
 -1        66 1.99984E+01 5.14624E-06 9.38124E-06 7.62341E-06-1.70586E-14 1.66207E-13
 -1        67 1.99988E+01 4.58004E-06 7.85454E-06 5.66648E-06-3.57252E-14-7.17345E-13
 -1        68 1.99992E+01 4.11406E-06 6.80717E-06 4.23365E-06-6.88217E-14-8.86324E-13
 -1        69 1.99995E+01 3.80842E-06 6.46004E-06 3.08895E-06 2.32420E-13-5.42233E-13
 -1        70 1.99997E+01 3.62793E-06 6.88777E-06 1.77529E-06 1.00113E-14 1.64736E-13
 -1        71 1.99998E+01 3.58020E-06 6.87552E-06-3.75488E-07-5.01803E-14 5.12198E-13
 -1        72 1.99998E+01 7.99982E-07-6.27896E-08-6.44489E-06 2.10502E-13 7.49697E-13
 -1        73 2.10548E+01-4.12702E-01-1.00622E+00-2.91592E-01 4.11095E-14 2.61609E-12
 -1        74 1.87052E+01-6.66082E-02-3.01996E-01-4.88171E-02 1.22038E-14 2.01641E-12
 -1        75 1.74478E+01-2.03214E-02-5.97485E-02-1.09767E-02 8.05009E-15 1.59370E-12
 -1        76 1.65549E+01-1.22512E-02-4.82245E-03 2.07036E-03 2.35612E-14 1.24419E-12
 -1        77 1.58335E+01-1.13689E-02-3.84586E-03 1.23880E-02 2.73783E-15 1.01909E-12
 -1        78 1.52745E+01-1.27844E-02-1.47203E-02 1.72324E-02-8.58872E-15 8.48200E-13
 -1        79 1.49479E+01-1.37707E-02-2.46845E-02 1.50837E-02-1.36326E-14 7.39777E-13
 -1        80 1.49292E+01-1.28584E-02-2.90743E-02 6.70243E-03 2.60266E-14 5.85706E-13
 -1        81 1.52495E+01-9.74455E-03-2.63936E-02-5.17969E-03-3.12772E-14 4.44216E-13
 -1        82 1.58728E+01-5.09934E-03-1.77601E-02-1.68827E-02 7.00037E-15 4.26704E-13
 -1        83 1.67023E+01-1.83259E-04-6.24411E-03-2.50773E-02 1.41630E-14 3.27278E-13
 -1        84 1.76109E+01 3.80076E-03 5.14882E-03-2.81231E-02-1.36978E-14 6.83273E-14
 -1        85 1.84846E+01-6.67705E-04 1.75683E-02-2.77164E-02-5.33633E-15 5.27339E-14
 -1        86 1.91514E+01 2.09181E-02 3.15743E-02-2.73348E-02-1.38398E-14 2.12029E-13
 -1        87 1.96312E+01 6.40161E-03 1.53223E-02-1.43315E-02 2.69732E-14-1.01335E-13
 -1        88 1.99848E+01 5.28574E-03 1.27342E-02-8.97746E-03-4.26519E-14-9.18159E-14
 -1        89 2.01954E+01 3.93431E-03 9.38548E-03-4.73402E-03-8.30575E-15-9.88462E-14
 -1        90 2.02969E+01 2.64535E-03 6.16683E-03-1.77423E-03 3.34656E-14-1.26315E-13
 -1        91 2.03235E+01 1.57709E-03 3.53913E-03 4.43633E-05-5.91296E-14-1.11573E-13
 -1        92 2.03042E+01 7.80346E-04 1.63538E-03 9.93972E-04-3.22164E-14 1.39775E-13
 -1        93 2.02613E+01 2.40027E-04 3.96679E-04 1.35704E-03-7.94884E-15 2.13797E-13
 -1        94 2.02098E+01-9.03097E-05-3.17815E-04 1.36836E-03-5.09484E-15 3.29899E-14
 -1        95 2.01590E+01-2.65247E-04-6.61962E-04 1.19845E-03 5.63811E-14-2.83441E-13
 -1        96 2.01140E+01-3.34786E-04-7.68623E-04 9.58496E-04 1.30077E-15-4.46560E-13
 -1        97 2.00769E+01-3.39024E-04-7.38399E-04 7.13606E-04-4.59724E-14-2.82433E-14
 -1        98 2.00479E+01-3.07263E-04-6.40524E-04 4.96874E-04 3.84466E-14-1.06462E-13
 -1        99 2.00263E+01-2.59297E-04-5.18736E-04 3.21159E-04-9.95696E-14-2.37712E-13
 -1       100 2.00111E+01-2.07478E-04-3.98183E-04 1.87727E-04-1.99435E-14-1.31203E-13
 -1       101 2.00009E+01-1.58799E-04-2.91524E-04 9.20229E-05-2.80883E-14-1.54275E-13
 -1       102 1.99945E+01-1.16649E-04-2.03627E-04 2.72192E-05 1.32967E-13-2.04859E-13
 -1       103 1.99910E+01-8.21619E-05-1.34893E-04-1.37820E-05-4.90252E-14-1.40625E-13
 -1       104 1.99894E+01-5.51705E-05-8.34436E-05-3.73557E-05-2.39140E-15 1.27962E-14
 -1       105 1.99891E+01-3.48441E-05-4.64657E-05-4.87663E-05 9.29975E-14-5.69522E-13
 -1       106 1.99897E+01-2.00894E-05-2.09884E-05-5.21146E-05-4.11070E-14-5.42609E-13
 -1       107 1.99906E+01-9.78455E-06-4.27950E-06-5.04507E-05 2.02199E-14-5.02129E-13
 -1       108 1.99918E+01-2.90282E-06 5.98324E-06-4.59518E-05 9.27791E-16-7.88192E-13
 -1       109 1.99931E+01 1.43322E-06 1.16719E-05-4.01092E-05 1.20801E-14-4.44560E-13
 -1       110 1.99943E+01 3.93872E-06 1.42366E-05-3.38989E-05 1.58793E-15-1.06140E-13
 -1       111 1.99954E+01 5.17605E-06 1.47645E-05-2.79236E-05 1.36780E-13-2.10795E-13
 -1       112 1.99963E+01 5.57500E-06 1.40479E-05-2.25255E-05-4.69545E-14-4.03148E-13
 -1       113 1.99972E+01 5.45662E-06 1.26502E-05-1.78725E-05-4.93436E-14-1.88145E-13
 -1       114 1.99978E+01 5.05689E-06 1.09666E-05-1.40204E-05 4.86308E-14-1.03506E-13
 -1       115 1.99984E+01 4.54760E-06 9.27818E-06-1.09559E-05 3.62099E-14-3.00615E-13
 -1       116 1.99988E+01 4.05394E-06 7.80880E-06-8.62190E-06-2.85478E-14-7.39058E-13
 -1       117 1.99992E+01 3.66122E-06 6.78483E-06-6.91406E-06-8.47375E-14-7.22729E-13
 -1       118 1.99995E+01 3.40909E-06 6.46765E-06-5.63371E-06 1.18491E-13-1.20884E-12
 -1       119 1.99997E+01 3.19209E-06 6.98094E-06-4.38328E-06-1.70070E-13-1.30271E-12
 -1       120 1.99998E+01 2.49445E-06 6.82687E-06-1.82602E-06 1.24504E-13-1.19523E-12
 -1       121 1.99998E+01-2.71540E-06-9.42485E-07 4.37310E-06 2.85590E-13-1.67837E-12
 -1       122 1.99998E+01 1.39186E-05-3.67627E-07 6.49141E-06-1.68380E-12 1.15790E-13
 -1       123 1.99998E+01-1.91783E-05 6.86097E-06 4.13940E-08-1.66482E-12-5.74817E-15
 -1       124 1.99998E+01-1.34412E-04 5.28654E-06-4.46309E-06-1.13006E-12 9.33292E-14
 -1       125 1.99998E+01-3.00048E-04 1.81656E-06-6.02698E-06-5.95315E-13 1.38147E-13
 -1       126 1.99998E+01-4.81677E-04-1.20777E-06-6.11342E-06-9.35057E-13-3.53219E-13
 -1       127 1.99998E+01-6.45821E-04-3.57092E-06-5.15285E-06-2.13583E-12-8.41485E-14
 -1       128 1.99998E+01-7.72230E-04-5.18363E-06-3.38003E-06-1.56543E-12-3.88796E-14
 -1       129 1.99998E+01-8.39778E-04-6.00804E-06-1.15581E-06-7.00436E-13 5.81857E-14
 -1       130 1.99998E+01-8.39060E-04-6.00325E-06 1.21521E-06 1.20737E-13 2.39277E-13
 -1       131 1.99998E+01-7.70130E-04-5.16827E-06 3.43185E-06 4.10119E-13-1.37411E-13
 -1       132 1.99998E+01-6.42563E-04-3.50817E-06 5.24321E-06-4.31426E-13-1.38195E-13
 -1       133 1.99998E+01-4.77659E-04-1.14069E-06 6.15700E-06-5.06868E-13 3.25134E-13
 -1       134 1.99998E+01-2.95740E-04 1.93770E-06 6.02842E-06 2.83167E-13-1.52484E-13
 -1       135 1.99998E+01-1.30995E-04 5.23151E-06 4.26763E-06-6.01963E-13-1.49180E-14
 -1       136 1.99998E+01-1.67651E-05 6.54975E-06-9.15327E-07-7.03697E-13-8.88481E-14
 -1       137 1.99998E+01 2.14526E-05 9.81595E-07-7.51310E-06-1.18780E-12 4.68087E-13
 -1       138-1.29486E+00-1.87932E+01-2.92635E+00-3.51493E+00 1.23490E-12 3.40651E-13
 -1       139-1.00379E+00-5.32662E+00-2.01506E+00-1.73426E+00 2.69751E-12 1.32344E-12
 -1       140 5.30308E+00 7.00247E+00-7.19275E-01 6.24129E+00 3.17846E-12 2.46031E-12
 -1       141 2.01479E+01 1.27219E+01 8.72839E-01 1.57620E+01 2.63961E-12 3.06916E-12
 -1       142 3.99434E+01 1.08557E+01 2.22823E+00 2.00953E+01 1.40896E-12 2.49711E-12
 -1       143 5.97295E+01 4.99298E+00 3.18008E+00 1.57068E+01 4.23085E-13 1.41692E-12
 -1       144 6.92265E+01 1.01146E+00 3.50933E+00 3.50378E+00 7.25218E-14 5.57748E-14
 -1       145 6.52049E+01 2.41881E+00 3.24978E+00-1.02062E+01 3.16915E-13-1.63686E-12
 -1       146 4.99775E+01 7.68619E+00 2.46283E+00-1.88195E+01 1.12443E-12-2.78672E-12
 -1       147 3.00523E+01 1.22737E+01 1.33684E+00-1.88769E+01 2.13812E-12-3.17713E-12
 -1       148 1.26062E+01 1.11541E+01 5.09065E-02-1.18943E+01 2.94764E-12-2.86948E-12
 -1       149 2.24427E+00 3.24370E+00-1.14101E+00-3.00725E+00 3.17357E-12-2.04786E-12
 -1       150-9.83431E-01-8.77403E+00-2.14325E+00 2.19866E+00 2.70223E-12-1.01708E-12
 -1       151-9.28734E-01-2.01985E+01-2.91807E+00 2.32171E+00 1.37163E-12-2.53964E-13
 -1       152-8.47468E-01-2.50381E+01-3.41215E+00-1.97346E+00-2.17687E-13-4.47385E-14
 -1       153-2.45211E+00-2.07128E+01-3.53133E+00-5.92358E+00-1.98344E-12-6.66869E-13
 -1       154-2.88209E+00-9.61010E+00-3.08398E+00-4.52159E+00-3.12067E-12-1.79981E-12
 -1       155 1.99148E+01 9.14448E+00-9.57310E-02 1.35400E+01-2.97656E-12-3.99747E-12
 -1       156 4.54480E+01 8.92232E+00 2.41196E+00 1.94854E+01-1.90076E-12-4.03733E-12
 -1       157 7.03334E+01 4.52731E+00 4.85811E+00 1.54972E+01-7.71216E-13-3.18179E-12
 -1       158 8.36170E+01 1.42414E+00 6.13808E+00 2.02974E+00-1.76949E-13-1.29678E-12
 -1       159 7.65387E+01 3.22685E+00 5.43624E+00-1.25453E+01-2.08014E-13 8.43936E-13
 -1       160 5.43418E+01 8.03105E+00 3.37826E+00-1.98321E+01-1.15538E-12 2.77389E-12
 -1       161 2.82593E+01 1.02787E+01 8.68655E-01-1.68003E+01-2.21978E-12 3.44613E-12
 -1       162 8.77458E+00 6.16248E+00-1.16785E+00-7.63679E+00-3.04246E-12 3.17646E-12
 -1       163-1.34151E+00-4.46765E+00-2.57001E+00 1.94114E+00-3.34038E-12 2.29500E-12
 -1       164-2.94870E+00-1.64505E+01-3.28587E+00 6.10007E+00-3.43126E-12 1.35122E-12
 -1       165-1.57706E+00-2.50148E+01-3.57803E+00 4.71669E+00-2.72010E-12 5.83138E-13
 -1       166 2.51745E+01 3.97991E+00-2.36902E-02-1.37867E+00-2.73552E-13 4.53707E-13
 -1       167 2.01697E+01 4.98447E+00-3.56666E-02-6.95325E-01-2.88998E-13-3.68820E-14
 -1       168 1.63050E+01 5.49907E+00-3.09745E-02-8.64767E-01-2.88037E-13-3.58167E-13
 -1       169 1.41652E+01 5.55985E+00-2.38497E-02-1.57425E+00-2.97870E-13-5.38802E-13
 -1       170 1.39247E+01 5.22254E+00-1.92126E-02-2.32177E+00-2.94321E-13-5.95596E-13
 -1       171 1.51468E+01 4.66656E+00-1.72746E-02-2.68367E+00-2.71797E-13-5.91954E-13
 -1       172 1.70279E+01 4.17157E+00-1.67653E-02-2.46275E+00-2.21550E-13-5.56073E-13
 -1       173 1.88023E+01 3.91613E+00-1.79552E-02-1.76359E+00-1.47858E-13-5.22755E-13
 -1       174 2.00539E+01 3.90868E+00-1.98124E-02-8.13105E-01-7.10543E-14-5.00600E-13
 -1       175 2.07040E+01 4.04938E+00-2.25682E-02 1.88073E-01 3.58437E-15-4.69786E-13
 -1       176 2.08742E+01 4.22072E+00-2.56322E-02 1.11196E+00 9.22617E-14-4.23354E-13
 -1       177 2.07596E+01 4.34686E+00-2.99558E-02 1.95569E+00 1.92179E-13-3.57141E-13
 -1       178 2.05680E+01 4.37155E+00-3.86255E-02 2.71715E+00 2.84144E-13-2.39446E-13
 -1       179 2.05748E+01 4.22397E+00-5.47883E-02 3.44256E+00 3.47829E-13 2.14932E-14
 -1       180 2.13308E+01 3.58751E+00-7.02868E-02 4.11708E+00 3.60286E-13 5.09350E-13
 -1       181 2.24858E+01 1.23425E+00-3.56946E-01 3.46241E+00 2.77673E-13 1.16836E-12
 -1       182 2.89272E+01 9.55147E-01 9.03284E-03-1.67506E-03-1.93914E-13 9.43960E-13
 -1       183 2.88892E+01 3.25116E-01-6.34190E-03 1.61118E+00-1.14686E-13 8.95829E-13
 -1       184 2.99937E+01-9.90322E-02 2.36315E-02 2.06374E+00 5.67313E-14 9.18036E-13
 -1       185 3.15660E+01-1.01078E+00 4.28612E-02 1.00297E+00 2.04038E-13 1.03029E-12
 -1       186 3.28927E+01-1.94344E+00 1.89394E-02-2.06571E+00 2.07874E-13 1.14634E-12
 -1       187 3.31121E+01-1.14285E+00-9.74704E-02-5.11159E+00-1.34136E-13 1.15814E-12
 -1       188 2.96802E+01 2.58663E+00-4.14686E-01 1.21456E-01-8.90232E-13 4.10815E-13
 -1       189 3.04832E+01 1.30901E+00-3.43505E-01 4.38011E+00-6.70727E-13-1.66383E-13
 -1       190 3.21385E+01-8.73231E-01-1.22391E-01 4.83430E+00-2.72879E-13-6.33538E-13
 -1       191 3.28071E+01-1.49599E+00 4.48386E-02 1.87911E+00 1.11860E-13-6.56111E-13
 -1       192 3.17107E+01-8.13421E-01 5.62838E-02-1.05002E+00 1.34434E-13-5.40582E-13
 -1       193 2.96305E+01-1.58494E-01 1.53988E-02-2.25190E+00 1.55774E-13-2.39654E-13
 -1       194 2.73796E+01 1.27433E-01-6.86845E-03-2.25528E+00 2.45989E-13-1.24676E-13
 -1       195 2.53953E+01 1.89395E-01-7.88435E-03-1.81017E+00 3.33414E-14-2.00404E-14
 -1       196 2.38927E+01 1.67677E-01-3.17929E-03-1.33761E+00 3.55610E-14 5.88206E-14
 -1       197 2.27055E+01 1.25480E-01 7.63811E-04-9.28126E-01-8.48596E-14-4.81842E-14
 -1       198 2.18595E+01 8.68942E-02 2.34173E-03-6.27859E-01 8.59425E-15-2.96576E-14
 -1       199 2.12681E+01 5.82334E-02 2.51312E-03-4.20044E-01 8.63107E-14-2.87224E-14
 -1       200 2.08598E+01 3.84745E-02 2.12400E-03-2.80025E-01 9.51106E-15-2.17341E-14
 -1       201 2.05796E+01 2.53207E-02 1.62284E-03-1.86716E-01 3.04986E-14 2.45434E-14
 -1       202 2.03878E+01 1.66973E-02 1.18156E-03-1.24689E-01-2.99291E-13-7.82265E-14
 -1       203 2.02565E+01 1.10686E-02 8.40396E-04-8.33566E-02 4.33415E-15-1.32804E-13
 -1       204 2.01669E+01 7.38632E-03 5.91453E-04-5.56745E-02 1.85079E-13-1.93285E-13
 -1       205 2.01058E+01 4.96147E-03 4.14688E-04-3.70241E-02-1.71672E-14-6.64566E-14
 -1       206 2.00645E+01 3.34979E-03 2.90677E-04-2.43898E-02 1.91265E-13 3.61383E-14
 -1       207 2.00367E+01 2.26711E-03 2.03995E-04-1.57993E-02 8.20121E-14 2.48116E-13
 -1       208 2.00184E+01 1.53198E-03 1.43335E-04-9.95422E-03-1.48009E-13 5.61627E-14
 -1       209 2.00066E+01 1.02809E-03 1.00722E-04-5.99092E-03 1.11848E-13 2.59434E-13
 -1       210 1.99992E+01 6.80342E-04 7.06388E-05-3.32771E-03-6.31861E-14 1.12430E-13
 -1       211 1.99950E+01 4.39102E-04 4.93753E-05-1.56767E-03-2.65100E-13-5.31335E-14
 -1       212 1.99928E+01 2.72212E-04 3.41720E-05-4.33451E-04-1.91437E-13-3.42316E-13
 -1       213 1.99919E+01 1.63427E-04 2.33202E-05 2.37243E-04-8.19455E-14-5.28091E-13
 -1       214 1.99919E+01 8.43350E-05 1.59556E-05 6.48044E-04-2.24259E-13-4.56754E-13
 -1       215 1.99924E+01 3.25648E-05 1.03587E-05 8.55315E-04 2.32840E-13-3.05916E-13
 -1       216 1.99931E+01-5.76088E-07 6.45915E-06 9.26954E-04 2.44923E-13-3.51130E-13
 -1       217 1.99940E+01-2.04600E-05 3.74969E-06 9.13409E-04-4.51579E-13-5.13577E-13
 -1       218 1.99949E+01-3.11528E-05 1.90829E-06 8.49576E-04 1.89337E-13-3.17800E-13
 -1       219 1.99958E+01-3.56427E-05 6.90773E-07 7.59506E-04 1.76309E-13-1.57114E-13
 -1       220 1.99966E+01-3.61036E-05-8.35256E-08 6.59311E-04 3.16987E-13-4.25889E-13
 -1       221 1.99973E+01-3.41082E-05-5.48871E-07 5.59327E-04 1.55393E-13 3.68821E-14
 -1       222 1.99978E+01-3.07888E-05-8.05123E-07 4.65707E-04 1.92066E-13 3.02653E-13
 -1       223 1.99983E+01-2.69658E-05-9.25678E-07 3.81569E-04-3.33378E-13 1.57346E-13
 -1       224 1.99987E+01-2.32531E-05-9.60865E-07 3.07815E-04-4.51964E-13-5.40594E-14
 -1       225 1.99991E+01-2.01355E-05-9.31636E-07 2.43656E-04-1.14548E-13 2.28617E-14
 -1       226 1.99993E+01-1.80269E-05-8.12158E-07 1.86985E-04 1.20840E-13 3.37539E-14
 -1       227 1.99995E+01-1.74118E-05-5.75127E-07 1.34558E-04 5.12962E-13 1.00100E-13
 -1       228 1.99997E+01-1.82194E-05-2.62068E-07 8.27154E-05 3.91878E-14 1.01944E-13
 -1       229 1.99998E+01-1.83695E-05-7.54619E-07 3.17162E-05 2.66802E-13 6.92869E-13
 -1       230 1.99998E+01-1.25494E-05-1.92426E-07 5.08530E-06-3.90552E-13 7.07354E-13
 -1       231 2.06855E+01 2.78121E-01-5.65905E-02 1.55923E+00 2.66391E-13 1.03245E-12
 -1       232 1.91382E+01 1.12413E-01 9.75656E-03 8.68866E-01 2.20696E-13 8.58601E-13
 -1       233 1.81285E+01 4.34777E-02 1.46265E-02 6.15831E-01 1.61847E-13 7.02363E-13
 -1       234 1.73921E+01 3.09886E-02 8.24364E-03 4.76871E-01 1.22491E-13 5.59760E-13
 -1       235 1.68612E+01 4.51049E-02 4.00038E-03 3.38228E-01 8.19854E-14 4.40732E-13
 -1       236 1.65442E+01 6.23143E-02 1.92121E-03 1.58305E-01 6.89724E-14 3.58541E-13
 -1       237 1.64681E+01 7.09788E-02 1.15180E-03-5.72901E-02 1.08449E-13 2.59614E-13
 -1       238 1.66420E+01 6.54532E-02 1.03587E-03-2.75194E-01 6.25554E-14 1.74810E-13
 -1       239 1.70377E+01 4.64440E-02 1.11466E-03-4.53615E-01 2.14271E-14 1.06501E-13
 -1       240 1.75897E+01 1.97336E-02 1.06628E-03-5.60139E-01 7.07030E-14 8.86912E-14
 -1       241 1.82106E+01-6.07846E-03 1.04023E-03-5.83695E-01 9.72109E-14 4.16997E-14
 -1       242 1.88137E+01-2.22612E-02 3.69848E-03-5.38930E-01-1.14223E-14 4.46973E-15
 -1       243 1.93044E+01-3.37058E-02 6.23590E-03-4.18826E-01-1.31798E-14-4.20099E-14
 -1       244 1.96733E+01-3.51227E-02-4.72399E-04-3.03063E-01 1.04691E-13 1.69406E-14
 -1       245 1.99506E+01-3.04299E-02-7.89815E-04-1.99650E-01-1.66261E-14-4.07787E-14
 -1       246 2.01255E+01-2.34110E-02-9.03432E-04-1.13867E-01-3.05302E-14-2.38686E-14
 -1       247 2.02186E+01-1.61890E-02-8.54485E-04-5.00655E-02 2.68864E-14 5.54696E-14
 -1       248 2.02525E+01-9.97631E-03-7.07903E-04-7.32696E-03-5.51488E-14 8.17033E-14
 -1       249 2.02479E+01-5.24173E-03-5.24658E-04 1.80137E-02-9.59027E-14 6.33714E-14
 -1       250 2.02213E+01-1.98067E-03-3.47752E-04 3.04693E-02-3.24926E-14 5.36609E-14
 -1       251 2.01847E+01 4.60539E-05-2.00510E-04 3.42667E-02 7.10964E-14-5.32524E-14
 -1       252 2.01459E+01 1.14982E-03-9.08128E-05 3.28300E-02 1.34983E-13-9.15433E-14
 -1       253 2.01098E+01 1.62424E-03-1.69352E-05 2.86632E-02 1.08516E-14-8.04285E-14
 -1       254 2.00786E+01 1.70687E-03 2.74844E-05 2.34427E-02-1.74594E-13-3.33200E-14
 -1       255 2.00532E+01 1.57142E-03 5.00881E-05 1.81918E-02 2.08469E-14 1.34832E-13
 -1       256 2.00336E+01 1.33497E-03 5.79349E-05 1.34639E-02 3.64242E-14 1.91492E-13
 -1       257 2.00190E+01 1.07029E-03 5.67106E-05 9.49986E-03 4.53668E-14-9.45376E-14
 -1       258 2.00086E+01 8.18480E-04 5.05794E-05 6.34871E-03-4.18270E-14-2.17174E-13
 -1       259 2.00016E+01 5.99563E-04 4.23549E-05 3.95325E-03-1.27165E-14 4.32986E-14
 -1       260 1.99971E+01 4.20456E-04 3.37889E-05 2.20645E-03-1.07333E-13 2.26520E-13
 -1       261 1.99946E+01 2.80607E-04 2.58655E-05 9.86283E-04 1.19158E-13 9.94770E-14
 -1       262 1.99934E+01 1.75697E-04 1.90514E-05 1.75232E-04 2.62876E-13 1.69444E-14
 -1       263 1.99931E+01 9.99244E-05 1.34886E-05-3.29995E-04 2.34791E-14-8.50148E-14
 -1       264 1.99933E+01 4.73301E-05 9.13235E-06-6.14947E-04 1.27257E-13-1.91987E-13
 -1       265 1.99939E+01 1.24794E-05 5.84272E-06-7.47391E-04 8.89893E-14-2.68173E-13
 -1       266 1.99946E+01-9.24666E-06 3.44328E-06-7.79065E-04-3.12131E-13-1.19279E-13
 -1       267 1.99954E+01-2.15873E-05 1.75498E-06-7.48165E-04-1.44234E-13-2.06048E-13
 -1       268 1.99962E+01-2.74601E-05 6.14235E-07-6.81954E-04 2.31726E-13-2.97026E-13
 -1       269 1.99969E+01-2.90744E-05-1.19239E-07-5.99173E-04-2.46512E-14-3.10945E-13
 -1       270 1.99975E+01-2.80634E-05-5.60643E-07-5.12103E-04-5.01633E-14-2.21504E-13
 -1       271 1.99980E+01-2.56131E-05-8.01233E-07-4.28229E-04 6.32622E-14-3.82109E-13
 -1       272 1.99985E+01-2.25824E-05-9.09920E-07-3.51534E-04 1.96121E-13-4.54685E-13
 -1       273 1.99989E+01-1.96108E-05-9.32173E-07-2.83422E-04 1.11662E-13-5.68984E-13
 -1       274 1.99992E+01-1.72200E-05-8.79189E-07-2.23345E-04 1.25024E-13-5.79146E-13
 -1       275 1.99994E+01-1.58726E-05-7.09391E-07-1.69204E-04 2.90190E-13-5.43663E-13
 -1       276 1.99996E+01-1.58121E-05-3.57826E-07-1.17830E-04-8.66793E-14-6.28373E-13
 -1       277 1.99997E+01-1.75709E-05-1.90746E-07-6.55356E-05 1.33808E-13-7.92928E-13
 -1       278 1.99998E+01-1.54320E-05-1.12112E-06-1.57095E-05-3.73925E-15-8.10742E-13
 -1       279 1.99998E+01-5.51292E-05-6.20012E-07-4.55631E-05-4.38792E-13-1.07277E-13
 -1       280 1.99998E+01-1.38429E-04-1.62054E-07-9.66909E-05-5.95758E-13 2.89787E-13
 -1       281 1.99998E+01-2.52852E-04-1.26608E-07-1.30912E-04-5.09498E-13 1.73927E-13
 -1       282 1.99998E+01-3.82296E-04 5.67652E-08-1.41897E-04-7.42079E-13-7.77017E-14
 -1       283 1.99998E+01-5.06455E-04 3.30384E-07-1.29856E-04-6.94742E-13-6.71759E-13
 -1       284 1.99998E+01-6.11758E-04 5.74310E-07-9.81621E-05-4.40731E-13 2.36857E-13
 -1       285 1.99998E+01-6.81071E-04 7.48181E-07-5.24427E-05-4.76405E-13 6.16110E-13
 -1       286 1.99998E+01-7.04983E-04 8.08579E-07 5.27500E-07-7.34549E-14 6.30531E-13
 -1       287 1.99998E+01-6.80241E-04 7.47804E-07 5.34526E-05-8.52739E-14 6.62661E-14
 -1       288 1.99998E+01-6.10148E-04 5.74712E-07 9.90420E-05-1.61910E-13-2.02497E-13
 -1       289 1.99998E+01-5.06352E-04 3.17476E-07 1.30114E-04 9.03903E-14-1.31151E-13
 -1       290 1.99998E+01-3.79799E-04 7.24716E-08 1.42072E-04 9.12147E-14 1.38881E-13
 -1       291 1.99998E+01-2.50350E-04-1.11854E-07 1.30551E-04 5.78644E-14-3.41911E-13
 -1       292 1.99998E+01-1.36965E-04-2.08082E-07 9.50916E-05-2.65663E-13-7.42136E-14
 -1       293 1.99998E+01-6.25200E-05-1.47050E-08 4.70474E-05-1.70714E-13-3.85238E-13
 -1       294-4.46618E-01-1.01710E+01-8.18144E-01 2.86901E+00-2.62679E-13 1.04064E-12
 -1       295 3.68909E+00-7.92176E+00-7.53821E-01 4.63017E+00 4.28851E-13 1.03002E-12
 -1       296 1.11664E+01-3.37102E+00-4.56314E-01 6.84854E+00 9.08273E-13 1.02925E-12
 -1       297 2.15122E+01 7.72412E-01 2.78067E-02 8.60217E+00 1.12527E-12 9.94427E-13
 -1       298 3.24060E+01 3.65711E+00 4.54268E-01 8.54775E+00 1.03882E-12 5.51115E-13
 -1       299 4.08038E+01 5.94425E+00 6.42033E-01 5.81774E+00 7.85490E-13 1.43441E-13
 -1       300 4.82519E+01 7.09041E+00 9.95207E-01 3.61379E+00 6.85771E-13-8.35165E-14
 -1       301 4.78834E+01 7.56379E+00 8.52225E-01-7.60877E-01 8.93619E-13-4.70214E-13
 -1       302 4.55511E+01 6.63290E+00 8.64513E-01-5.44059E+00 9.32199E-13-9.46881E-13
 -1       303 3.74103E+01 5.55499E+00 5.73687E-01-8.27729E+00 1.07055E-12-1.31165E-12
 -1       304 2.71830E+01 3.07109E+00 1.73023E-01-8.77842E+00 1.18777E-12-1.22422E-12
 -1       305 1.82537E+01-9.74607E-01-8.88495E-02-8.23318E+00 8.83460E-13-9.69183E-13
 -1       306 7.83116E+00-3.56648E+00-4.77946E-01-6.30520E+00 1.05987E-12-1.03004E-12
 -1       307 2.55946E+00-6.12928E+00-4.87976E-01-5.17571E+00 3.95461E-13-9.10244E-13
 -1       308-1.21345E+00-9.95222E+00-9.16975E-01-2.27116E+00 1.02945E-13-8.21357E-13
 -1       309-1.03567E+00-1.01021E+01-9.99814E-01-9.59887E-02-4.64462E-13-9.44217E-13
 -1       310 3.01169E+00-8.94481E+00-1.03797E+00 2.17159E+00-9.64423E-13-1.16900E-12
 -1       311 1.25027E+01-6.33344E+00-7.02590E-01 4.97279E+00-1.02784E-12-1.34746E-12
 -1       312 2.38845E+01-3.20205E+00-3.29694E-01 5.89904E+00-1.20609E-12-1.56253E-12
 -1       313 3.73137E+01-5.66500E-01 3.08228E-01 4.06021E+00-1.08749E-12-1.26449E-12
 -1       314 4.82717E+01 3.61527E+00 1.19605E+00 3.44168E+00-1.08599E-12-1.24578E-12
 -1       315 5.34657E+01 6.92238E+00 1.68221E+00 7.58351E-01-1.01297E-12-6.42431E-13
 -1       316 5.55405E+01 7.04283E+00 1.84954E+00-7.40935E-01-1.07794E-12-1.34240E-13
 -1       317 5.07459E+01 5.09861E+00 1.43620E+00-2.65839E+00-1.19435E-12 4.00846E-13
 -1       318 4.08646E+01 1.72752E+00 6.57077E-01-4.85936E+00-1.08173E-12 8.78186E-13
 -1       319 2.87056E+01-2.17353E+00-1.00378E-01-5.82618E+00-1.07966E-12 1.05455E-12
 -1       320 1.62255E+01-5.16209E+00-5.80062E-01-5.60695E+00-1.25511E-12 1.12979E-12
 -1       321 6.13573E+00-8.30276E+00-9.32479E-01-3.51202E+00-1.46455E-12 1.03952E-12
 -1       322 6.36347E-01-1.09499E+01-1.06181E+00-1.37473E+00-1.24800E-12 8.53900E-13
 -1       323-1.57523E+00-1.21343E+01-1.07899E+00 6.06084E-01-8.30346E-13 1.00006E-12
 -1       324 3.05017E+01 1.50671E+00-3.64332E-01-4.34771E+00-5.43288E-13 9.59649E-13
 -1       325 1.76770E+01 4.55927E+00-5.36807E-03 1.43066E-01-2.69564E-13-1.75674E-13
 -1       326 2.28265E+01 2.95802E+00-4.51513E-03 4.96242E-01-2.35328E-13 2.05969E-13
 -1       327 1.29211E+01 5.43735E+00 1.08278E-02-2.34473E+00-3.83303E-13-5.21298E-13
 -1       328 1.40353E+01 4.60018E+00 5.78800E-03-3.29260E+00-3.99494E-13-5.08185E-13
 -1       329 1.63696E+01 3.52574E+00-2.59471E-03-3.31339E+00-3.62580E-13-4.39058E-13
 -1       330 1.87517E+01 2.72297E+00-1.40085E-02-2.52277E+00-2.74080E-13-3.76996E-13
 -1       331 2.04780E+01 2.40393E+00-1.83449E-02-1.35149E+00-1.68343E-13-3.25889E-13
 -1       332 2.13979E+01 2.45673E+00-2.16190E-02-1.65769E-01-6.03389E-14-3.11847E-13
 -1       333 2.16727E+01 2.67020E+00-2.33150E-02 8.43943E-01 4.78835E-14-2.74019E-13
 -1       334 2.15543E+01 2.87462E+00-2.41353E-02 1.67999E+00 1.75180E-13-2.15367E-13
 -1       335 2.12682E+01 2.93908E+00-2.54861E-02 2.34555E+00 2.72796E-13-1.48405E-13
 -1       336 2.10404E+01 2.74229E+00-2.80083E-02 2.83998E+00 3.58113E-13 1.67366E-14
 -1       337 2.10655E+01 2.06760E+00-3.45108E-02 2.99578E+00 3.78524E-13 3.02973E-13
 -1       338 2.10947E+01 1.18832E+00-2.87329E-02 2.50535E+00 3.54277E-13 5.91626E-13
 -1       339 2.00864E+01 4.38376E-01 6.62695E-03 1.58809E+00 2.82709E-13 5.06258E-13
 -1       340 3.84552E+01 1.06536E+00-6.53807E-02-4.33912E+00-6.76861E-13 3.21326E-13
 -1       341 2.42631E+01 9.32736E-01 2.93826E-02 2.64506E+00-1.11022E-14 3.35022E-13
 -1       342 2.52689E+01-1.02343E+00 4.42866E-02 3.30460E+00 2.05749E-13 3.45470E-13
 -1       343 2.83110E+01-4.04999E+00 7.38489E-02 2.25433E+00 3.27238E-13 3.59980E-13
 -1       344 3.39895E+01-4.90096E+00-6.08728E-02-1.74275E+00 4.55712E-14 4.95520E-13
 -1       345 2.09273E+01-4.89448E+00-1.88500E-01 7.65111E+00 3.45335E-13 8.61672E-14
 -1       346 3.69798E+01-3.04457E-03-1.35642E-01 4.80540E+00-7.86052E-13-3.60920E-13
 -1       347 3.31457E+01-3.83301E+00-5.75315E-02 2.19682E+00 2.92648E-15-5.90486E-13
 -1       348 2.93909E+01-2.97146E+00 2.43999E-02-1.50778E+00 2.62061E-13-4.67404E-13
 -1       349 2.66898E+01-9.91281E-01 2.36994E-02-3.31582E+00 3.60392E-13-2.43497E-13
 -1       350 2.49410E+01 1.56297E-01 6.11919E-03-3.49718E+00 2.01826E-13-8.64185E-14
 -1       351 2.37246E+01 5.38631E-01 1.33298E-03-2.95461E+00 1.50831E-13-1.55560E-13
 -1       352 2.28428E+01 5.55094E-01 3.61873E-03-2.28286E+00 1.22281E-14-3.89096E-14
 -1       353 2.21099E+01 4.48086E-01 5.10611E-03-1.64739E+00-7.45528E-14-3.57699E-14
 -1       354 2.15438E+01 3.26367E-01 5.10245E-03-1.15263E+00-2.07774E-14 7.65908E-16
 -1       355 2.11144E+01 2.26343E-01 4.19513E-03-7.93306E-01 1.52664E-13-9.31111E-14
 -1       356 2.07955E+01 1.53336E-01 3.12940E-03-5.41738E-01-2.35277E-14-2.19058E-13
 -1       357 2.05623E+01 1.02850E-01 2.21525E-03-3.68859E-01 1.00600E-13-2.79676E-13
 -1       358 2.03936E+01 6.88368E-02 1.52777E-03-2.51016E-01-2.14847E-14-1.37959E-13
 -1       359 2.02726E+01 4.61807E-02 1.04200E-03-1.70835E-01-1.91503E-13 1.24935E-13
 -1       360 2.01863E+01 3.11289E-02 7.08642E-04-1.16176E-01 1.67516E-13 1.79669E-13
 -1       361 2.01252E+01 2.10997E-02 4.82593E-04-7.87750E-02 1.19824E-13 1.24301E-13
 -1       362 2.00821E+01 1.43732E-02 3.29674E-04-5.30764E-02 1.35970E-13 2.09024E-13
 -1       363 2.00521E+01 9.82245E-03 2.25918E-04-3.53595E-02 1.29394E-13 5.17728E-14
 -1       364 2.00313E+01 6.71429E-03 1.55097E-04-2.31287E-02-3.27586E-14-2.88590E-14
 -1       365 2.00173E+01 4.57217E-03 1.06403E-04-1.46988E-02 9.91666E-14 1.50623E-13
 -1       366 2.00079E+01 3.08500E-03 7.26840E-05-8.92158E-03 2.37005E-14-9.84052E-14
 -1       367 2.00019E+01 2.04834E-03 4.93149E-05-5.00530E-03-2.69056E-13-2.83477E-14
 -1       368 1.99982E+01 1.32391E-03 3.34161E-05-2.40072E-03-5.13797E-13-1.63690E-13
 -1       369 1.99962E+01 8.41935E-04 2.14775E-05-7.78083E-04-1.60861E-13-3.70180E-13
 -1       370 1.99952E+01 4.88978E-04 1.37912E-05 2.95200E-04-1.29832E-13-6.15639E-13
 -1       371 1.99949E+01 2.49814E-04 8.11354E-06 9.17069E-04 1.69845E-13-3.26095E-13
 -1       372 1.99950E+01 9.20372E-05 4.31899E-06 1.23282E-03 2.81569E-13-3.25355E-13
 -1       373 1.99954E+01-8.06402E-06 1.79565E-06 1.34658E-03-2.47068E-13-2.77021E-13
 -1       374 1.99959E+01-6.76069E-05 1.82108E-07 1.33252E-03 7.42446E-15-7.87286E-14
 -1       375 1.99965E+01-9.91431E-05-7.92316E-07 1.24275E-03 1.49419E-13-4.79481E-13
 -1       376 1.99970E+01-1.11863E-04-1.32632E-06 1.11319E-03 1.76303E-13-3.10539E-13
 -1       377 1.99976E+01-1.12470E-04-1.56555E-06 9.67892E-04 2.66073E-13 2.48693E-15
 -1       378 1.99980E+01-1.05826E-04-1.61706E-06 8.22223E-04 4.48217E-13 1.06756E-13
 -1       379 1.99984E+01-9.54567E-05-1.55951E-06 6.85226E-04-1.86334E-13 1.21304E-13
 -1       380 1.99988E+01-8.39464E-05-1.45122E-06 5.61339E-04-4.80653E-13-8.93045E-14
 -1       381 1.99991E+01-7.32601E-05-1.33384E-06 4.51615E-04 4.49259E-14 2.75744E-13
 -1       382 1.99993E+01-6.48934E-05-1.21358E-06 3.54557E-04-2.48770E-13 4.91104E-13
 -1       383 1.99995E+01-6.00547E-05-1.06205E-06 2.67040E-04 4.19557E-13 3.18142E-13
 -1       384 1.99996E+01-5.95934E-05-1.10830E-06 1.85017E-04 5.12637E-14-3.00005E-13
 -1       385 1.99997E+01-5.89679E-05-8.60226E-07 1.05675E-04 5.63388E-13 1.90925E-13
 -1       386 1.91808E+01 2.21739E-01 8.29487E-03 1.13594E+00 2.41614E-13 3.23368E-13
 -1       387 1.86244E+01 2.24194E-01 5.31604E-03 8.47454E-01 1.75252E-13 2.67883E-13
 -1       388 1.82203E+01 2.87686E-01 4.40288E-03 5.21956E-01 1.66567E-13 1.89823E-13
 -1       389 1.79983E+01 3.39775E-01 4.19758E-03 1.32804E-01 1.36546E-13 1.20904E-13
 -1       390 1.79750E+01 3.39178E-01 3.87908E-03-2.82508E-01 1.36176E-13 8.44141E-14
 -1       391 1.81402E+01 2.73950E-01 3.13527E-03-6.54216E-01 6.52361E-14 5.63255E-14
 -1       392 1.84514E+01 1.59709E-01 1.95790E-03-9.15153E-01 7.26654E-14 1.95198E-14
 -1       393 1.88431E+01 2.91885E-02 6.44591E-04-1.02684E+00 1.06136E-13 3.15310E-14
 -1       394 1.92439E+01-8.07039E-02 1.51851E-04-9.88633E-01 7.07365E-14 3.08816E-14
 -1       395 1.95857E+01-1.41832E-01 5.32063E-03-8.39777E-01 4.03096E-14-5.08891E-14
 -1       396 1.98314E+01-1.67511E-01-1.95405E-03-6.25474E-01-2.11630E-14-3.46581E-14
 -1       397 2.00205E+01-1.57383E-01-2.01988E-03-4.35371E-01 5.40475E-16 4.25776E-14
 -1       398 2.01395E+01-1.29616E-01-1.80436E-03-2.68032E-01 1.60066E-14 1.04157E-13
 -1       399 2.02021E+01-9.58632E-02-1.44195E-03-1.36754E-01-7.24434E-14-4.78336E-16
 -1       400 2.02237E+01-6.38978E-02-1.04230E-03-4.37023E-02-3.54307E-14 2.48928E-14
 -1       401 2.02182E+01-3.76688E-02-6.78296E-04 1.55735E-02-8.15840E-14 4.47712E-14
 -1       402 2.01967E+01-1.83209E-02-3.85620E-04 4.83667E-02-4.27154E-14 1.00225E-13
 -1       403 2.01675E+01-5.35264E-03-1.72876E-04 6.23119E-02-2.38144E-15 4.02428E-14
 -1       404 2.01363E+01 2.47142E-03-3.25081E-05 6.40536E-02 7.13058E-14 1.32928E-13
 -1       405 2.01066E+01 6.54110E-03 5.01556E-05 5.87463E-02 7.16599E-14 2.99609E-13
 -1       406 2.00802E+01 8.09803E-03 9.10687E-05 5.00459E-02-2.29614E-13 2.96082E-13
 -1       407 2.00581E+01 8.11982E-03 1.04335E-04 4.03368E-02-9.25511E-14 1.51181E-13
 -1       408 2.00403E+01 7.31008E-03 1.01001E-04 3.10321E-02 6.78636E-14 2.49187E-14
 -1       409 2.00264E+01 6.13760E-03 8.89784E-05 2.28606E-02 1.11642E-13 2.81565E-14
 -1       410 2.00161E+01 4.89085E-03 7.34975E-05 1.61039E-02 5.89568E-14 1.80493E-13
 -1       411 2.00086E+01 3.73039E-03 5.77337E-05 1.07740E-02-2.51330E-13 2.57330E-13
 -1       412 2.00034E+01 2.73200E-03 4.34095E-05 6.73757E-03-1.20529E-14 2.19075E-13
 -1       413 2.00000E+01 1.91911E-03 3.12909E-05 3.79708E-03 9.60988E-14 7.38730E-14
 -1       414 1.99979E+01 1.28541E-03 2.15588E-05 1.74044E-03 9.34737E-14 2.13574E-13
 -1       415 1.99967E+01 8.09771E-04 1.40690E-05 3.68502E-04 1.39416E-13 3.64418E-13
 -1       416 1.99962E+01 4.65505E-04 8.52190E-06-4.91758E-04 1.44748E-13 9.88232E-14
 -1       417 1.99961E+01 2.25703E-04 4.56751E-06-9.82869E-04 1.03224E-13 2.72956E-13
 -1       418 1.99963E+01 6.59821E-05 1.86418E-06-1.21754E-03-2.22124E-13 2.91710E-13
 -1       419 1.99966E+01-3.43508E-05 1.08301E-07-1.28186E-03-1.06406E-13 8.22159E-14
 -1       420 1.99971E+01-9.20748E-05-9.54423E-07-1.23952E-03 1.15231E-13-7.30448E-14
 -1       421 1.99975E+01-1.20328E-04-1.52817E-06-1.13608E-03 1.92218E-13-2.72830E-13
 -1       422 1.99979E+01-1.29113E-04-1.77182E-06-1.00299E-03-2.85291E-14-4.63025E-13
 -1       423 1.99983E+01-1.25881E-04-1.80612E-06-8.60902E-04 1.16215E-13-5.79042E-13
 -1       424 1.99986E+01-1.16104E-04-1.72104E-06-7.22413E-04 2.38591E-13-5.59978E-13
 -1       425 1.99989E+01-1.03791E-04-1.58253E-06-5.94192E-04 1.07575E-13-5.43756E-13
 -1       426 1.99992E+01-9.19398E-05-1.43895E-06-4.78562E-04-9.26666E-14-3.87145E-13
 -1       427 1.99994E+01-8.28629E-05-1.31306E-06-3.74655E-04 4.77102E-14-1.44267E-13
 -1       428 1.99995E+01-7.80793E-05-1.23212E-06-2.79621E-04 1.81382E-13 1.60638E-14
 -1       429 1.99996E+01-7.71273E-05-1.13766E-06-1.90913E-04 1.91274E-13-3.52073E-13
 -1       430 1.99997E+01-7.12516E-05-8.31045E-07-1.14134E-04 2.40112E-13-3.91771E-13
 -1       431 1.99998E+01-3.21916E-04-1.84149E-07-2.45381E-04-1.49088E-13-3.74690E-13
 -1       432 1.99997E+01-2.09784E-04-5.40978E-07-2.15854E-04 1.10580E-13 2.69354E-13
 -1       433 1.99998E+01-4.30062E-04 1.69641E-07-2.39742E-04-6.43087E-13-4.35210E-13
 -1       434 1.99999E+01-5.26283E-04 4.55649E-07-1.99342E-04-3.26675E-13 1.93035E-13
 -1       435 1.99999E+01-5.97458E-04 6.78580E-07-1.31151E-04-9.88071E-14 3.31159E-13
 -1       436 1.99999E+01-6.35196E-04 7.96489E-07-4.52152E-05-5.28741E-13 7.59919E-13
 -1       437 1.99999E+01-6.35025E-04 7.97124E-07 4.67685E-05-5.28542E-13 3.81863E-13
 -1       438 1.99999E+01-5.96915E-04 6.78611E-07 1.32600E-04-4.22395E-13-1.04703E-13
 -1       439 1.99999E+01-5.26835E-04 4.55333E-07 1.99608E-04-2.93462E-13-3.36509E-13
 -1       440 1.99998E+01-4.30570E-04 1.70061E-07 2.40057E-04-1.92149E-13 4.32993E-13
 -1       441 1.99998E+01-3.20339E-04-1.34853E-07 2.45313E-04 7.81730E-14 4.07305E-14
 -1       442 1.99997E+01-2.08797E-04-3.98147E-07 2.12518E-04 2.16473E-13-4.24032E-13
 -1       443 1.95550E+01 2.73509E-01 1.04707E-02 1.31345E+00 2.62912E-13 4.22279E-13
 -1       444 1.17577E+01-5.36764E+00-7.15884E-02 8.23677E+00-1.75887E-13 6.16642E-13
 -1       445 2.92324E+01-2.16140E+00 1.01831E-01 5.60377E+00 4.01700E-13-1.70919E-13
 -1       446 8.29566E-01-4.36416E+00-6.73571E-02 1.74216E+00-4.11799E-13 1.21644E-12
 -1       447 1.41113E+01 5.46313E+00 8.54323E-03-9.47227E-01-3.30394E-13-4.19764E-13
 -1       448 3.86146E+01 5.17372E+00 4.32488E-03 2.62942E+00-1.15150E-12 4.95159E-14
 -1       449 3.39487E+01 1.90746E+00 7.70362E-02 2.28498E+00 6.00457E-13-3.24740E-13
 -1       450 3.65539E+01 7.00698E+00 4.46762E-02 3.25388E-01 7.54799E-13-3.38118E-13
 -1       451 3.72476E+01 8.97345E+00 1.42330E-02 2.30660E-01 8.59507E-13-3.69996E-13
 -1       452 3.83027E+01 8.06109E+00 8.55130E-02-1.89019E-01 9.49824E-13-3.26322E-13
 -1       453 3.60050E+01 5.01648E+00 3.55388E-02-1.21541E+00 7.89639E-13-2.96846E-13
 -1       454 3.21126E+01 1.16864E+00 6.55031E-03-3.43684E+00 5.64387E-13-3.46209E-13
 -1       455 2.63385E+01-2.03309E+00-8.51813E-03-5.75395E+00 2.60986E-13-3.47070E-13
 -1       456 1.59198E+01-3.20667E+00-2.29724E-02-8.31431E+00 7.77295E-14-6.14263E-13
 -1       457 9.11727E+00-2.87033E+00 4.16783E-02-8.07883E+00-1.17212E-13-7.66602E-13
 -1       458 2.52230E+00-2.02713E+00 2.34177E-02-4.84711E+00-1.70849E-13-9.69030E-13
 -1       459 1.07470E+00-2.32336E+00 4.26379E-03-9.74149E-01-1.49973E-13-1.04583E-12
 -1       460 4.75203E+00-3.94451E+00-7.18047E-02 3.61079E+00-1.41637E-13-1.00242E-12
 -1       461 1.25818E+01-5.62844E+00-1.04622E-01 5.78124E+00-1.34254E-13-8.49133E-13
 -1       462 2.50489E+01-6.36345E+00-5.11771E-02 4.52132E+00-6.68077E-14-4.25222E-13
 -1       463 2.76600E+01-6.35254E+00-5.42315E-02-3.69302E+00-2.12552E-13 1.27953E-14
 -1       464 1.66330E+01-6.61164E+00-1.26088E-01-6.17770E+00-3.05173E-13 3.02097E-13
 -1       465 7.87725E+00-5.84708E+00-1.09760E-01-5.40106E+00-3.50941E-13 5.49658E-13
 -1       466 2.54388E+00-4.34784E+00-3.13319E-02-2.50126E+00-2.73559E-13 7.51232E-13
 -1       467 4.78900E+00-4.83398E+00-5.28351E-02 6.38160E+00-3.67414E-13 1.08626E-12
 -1       468 1.99997E+01-1.28080E-04-7.40885E-07 1.65730E-04 3.38464E-13-3.23572E-14
 -1       469 3.31791E+01-4.98604E+00-1.23848E-01-2.00361E-01-2.58925E-13-2.65760E-14
 -1       470 3.87498E+01 5.90910E+00 2.47362E-02-1.18258E+00-1.13295E-12 1.81067E-13
 -1       471 2.28478E+01-3.35724E+00 4.18804E-02-6.67653E+00-1.48222E-13-2.54553E-13
 -1       472 1.51647E+01 2.99296E+00 2.02509E-02-4.48213E+00-4.59442E-13-4.49392E-13
 -1       473 1.23290E+01 4.43726E+00 3.40625E-02-3.74576E+00-4.49387E-13-5.72806E-13
 -1       474 2.09740E+01 1.03382E+00-2.43033E-03-2.21363E+00-2.85179E-13-2.48819E-13
 -1       475 2.21962E+01 1.07640E+00-7.23278E-03-6.31729E-01-1.48615E-13-2.12501E-13
 -1       476 2.25281E+01 1.38352E+00-9.68297E-03 5.99526E-01-1.87272E-14-1.98617E-13
 -1       477 2.23470E+01 1.69959E+00-1.02505E-02 1.48888E+00 1.04156E-13-1.54934E-13
 -1       478 2.19245E+01 1.85699E+00-1.00734E-02 2.07934E+00 2.06005E-13-1.06763E-13
 -1       479 2.14520E+01 1.76639E+00-8.12750E-03 2.41703E+00 2.89222E-13-2.82062E-14
 -1       480 2.09910E+01 1.35842E+00-4.63174E-03 2.42497E+00 3.23895E-13 1.42553E-13
 -1       481 2.06431E+01 8.79161E-01 1.72339E-03 2.10038E+00 3.19657E-13 3.02191E-13
 -1       482 1.90058E+01-5.30648E+00 5.80573E-02 7.84673E+00-4.51854E-13 1.69413E-14
 -1       483 1.88240E+01 1.14211E+00 7.72317E-02 3.47168E+00 7.09745E-14-1.41068E-13
 -1       484 2.63683E+01-5.12856E+00-2.62559E-02 5.39121E+00-2.30834E-13-3.39721E-13
 -1       485 1.94342E+01-2.36911E+00 1.31757E-01 4.96679E+00 2.54588E-13-2.42313E-13
 -1       486 3.19623E+01 3.56355E+00-6.97559E-02-9.47644E-01 5.18433E-13-5.17850E-13
 -1       487 1.80371E+01 3.15295E+00 2.71536E-02 1.73102E+00-1.23005E-13-1.60848E-13
 -1       488 2.71351E+01-5.07785E+00 3.51515E-02-3.01667E+00 2.92717E-13-2.94909E-13
 -1       489 2.37638E+01-1.94706E+00 6.39802E-02-4.42565E+00 3.71217E-13-2.48577E-13
 -1       490 2.22190E+01 1.22422E-01 2.38122E-02-4.24692E+00 2.58451E-13-2.64651E-13
 -1       491 2.16493E+01 8.89328E-01 8.54964E-03-3.53611E+00 2.17851E-13-2.23396E-13
 -1       492 2.13883E+01 9.77423E-01 7.07134E-03-2.76851E+00 5.89793E-14-2.13573E-13
 -1       493 2.11701E+01 8.21933E-01 6.48534E-03-2.04391E+00-2.20698E-14-2.27874E-13
 -1       494 2.09616E+01 6.15689E-01 5.55240E-03-1.46575E+00-1.19865E-14-1.13239E-13
 -1       495 2.07650E+01 4.36288E-01 4.26587E-03-1.03289E+00 1.23425E-13-1.94343E-13
 -1       496 2.05914E+01 3.00613E-01 3.04750E-03-7.20634E-01-1.31845E-14-3.17292E-13
 -1       497 2.04467E+01 2.04408E-01 2.08972E-03-5.00183E-01 5.10872E-14-1.83357E-13
 -1       498 2.03309E+01 1.38349E-01 1.40382E-03-3.46325E-01 1.00324E-13-1.04434E-13
 -1       499 2.02409E+01 9.36850E-02 9.35868E-04-2.39473E-01 4.54775E-14-1.26036E-14
 -1       500 2.01724E+01 6.36557E-02 6.23661E-04-1.65321E-01 9.14498E-14 1.72039E-13
 -1       501 2.01213E+01 4.34529E-02 4.16944E-04-1.13782E-01 2.07266E-13 4.98897E-14
 -1       502 2.00835E+01 2.97963E-02 2.79993E-04-7.78677E-02 1.54357E-13-1.35953E-14
 -1       503 2.00561E+01 2.04971E-02 1.88791E-04-5.27864E-02 3.13746E-14 1.56042E-14
 -1       504 2.00364E+01 1.41109E-02 1.27588E-04-3.52556E-02 3.24488E-14-2.69714E-13
 -1       505 2.00225E+01 9.68810E-03 8.61556E-05-2.30207E-02 8.36740E-14-1.51715E-13
 -1       506 2.00129E+01 6.60304E-03 5.78568E-05-1.45226E-02-1.88432E-14-1.79191E-13
 -1       507 2.00063E+01 4.44056E-03 3.85451E-05-8.67362E-03-9.41645E-14-4.21416E-13
 -1       508 2.00021E+01 2.92183E-03 2.55053E-05-4.70532E-03-5.20009E-13-3.55153E-13
 -1       509 1.99995E+01 1.90606E-03 1.57172E-05-2.18172E-03-3.47027E-13-3.41071E-13
 -1       510 1.99979E+01 1.15390E-03 9.84629E-06-4.48800E-04-2.71761E-13-3.64077E-13
 -1       511 1.99971E+01 6.38464E-04 5.40854E-06 6.09197E-04 1.45390E-13-1.22383E-13
 -1       512 1.99967E+01 2.92697E-04 2.47411E-06 1.20419E-03 1.67837E-13-3.71983E-13
 -1       513 1.99968E+01 6.81544E-05 5.87231E-07 1.48668E-03-7.38557E-15-6.27982E-13
 -1       514 1.99970E+01-7.05587E-05-5.75104E-07 1.56504E-03 2.70095E-14-2.51550E-13
 -1       515 1.99973E+01-1.49360E-04-1.23490E-06 1.51637E-03 3.19182E-15 7.33415E-14
 -1       516 1.99976E+01-1.87288E-04-1.55394E-06 1.39467E-03 2.60772E-13 1.85342E-13
 -1       517 1.99980E+01-1.98286E-04-1.64962E-06 1.23682E-03 4.81554E-13 1.90729E-13
 -1       518 1.99983E+01-1.92517E-04-1.60710E-06 1.06716E-03 2.83537E-13 5.73265E-13
 -1       519 1.99986E+01-1.77359E-04-1.48822E-06 9.00827E-04-2.11832E-13 1.10668E-13
 -1       520 1.99989E+01-1.58189E-04-1.33738E-06 7.46239E-04-4.63260E-13-1.56196E-13
 -1       521 1.99991E+01-1.39000E-04-1.18992E-06 6.06951E-04 3.21371E-13 1.63414E-13
 -1       522 1.99993E+01-1.22834E-04-1.05983E-06 4.82901E-04-1.74073E-13 2.59727E-13
 -1       523 1.99995E+01-1.11533E-04-9.20517E-07 3.71661E-04 1.06401E-13 4.76504E-13
 -1       524 1.99996E+01-1.06816E-04-7.89902E-07 2.69524E-04 9.43598E-14 1.51194E-13
 -1       525 1.99997E+01-1.17939E-04-5.87115E-07 2.18313E-04 3.40518E-13 1.66643E-13
 -1       526 1.93537E+01 7.23624E-01 1.98632E-03 5.37871E-01 1.99182E-13 9.04536E-14
 -1       527 1.96716E+01 5.88727E-01 2.22267E-03 1.03325E+00 2.09022E-13 1.43734E-13
 -1       528 2.00891E+01 4.91749E-01 1.17989E-03 1.42928E+00 2.36895E-13 1.68052E-13
 -1       529 1.91930E+01 7.80649E-01 1.85551E-03-3.29020E-02 1.45204E-13 4.35191E-14
 -1       530 1.92095E+01 6.99504E-01 1.57799E-03-5.90680E-01 1.60123E-13 2.55756E-14
 -1       531 1.93765E+01 4.88060E-01 1.16981E-03-1.03024E+00 1.12527E-13-7.22543E-14
 -1       532 1.96324E+01 2.04031E-01 6.99748E-04-1.27687E+00 3.56822E-14-6.24061E-14
 -1       533 1.99040E+01-7.38327E-02 5.71310E-04-1.30863E+00 9.12192E-14-1.57115E-14
 -1       534 2.01210E+01-2.67018E-01 1.20907E-03-1.16229E+00 7.14857E-14 2.27408E-14
 -1       535 2.02386E+01-3.48448E-01 5.99116E-04-8.80337E-01 1.67779E-14 7.53449E-14
 -1       536 2.03031E+01-3.55098E-01-9.38149E-04-6.28083E-01 2.43390E-14-2.37171E-14
 -1       537 2.03200E+01-3.09173E-01-8.98169E-04-3.98750E-01-6.49752E-14-8.39413E-14
 -1       538 2.03045E+01-2.40090E-01-7.54570E-04-2.13812E-01-2.12630E-14 4.94464E-14
 -1       539 2.02715E+01-1.68403E-01-5.68469E-04-7.92193E-02-5.83417E-14 1.61368E-13
 -1       540 2.02318E+01-1.05951E-01-3.86924E-04 9.27544E-03-7.52059E-14 2.47458E-13
 -1       541 2.01915E+01-5.75341E-02-2.34262E-04 6.06152E-02-1.13632E-13 1.98597E-13
 -1       542 2.01543E+01-2.34328E-02-1.19239E-04 8.47716E-02 7.48972E-14 2.00605E-13
 -1       543 2.01216E+01-1.59860E-03-4.04454E-05 9.07381E-02-4.43852E-14 1.74784E-13
 -1       544 2.00938E+01 1.08287E-02 8.27907E-06 8.56993E-02-1.00507E-13 3.46152E-13
 -1       545 2.00709E+01 1.66500E-02 3.45320E-05 7.49051E-02-2.48942E-14 4.54392E-13
 -1       546 2.00524E+01 1.82061E-02 4.54160E-05 6.19005E-02 2.14143E-14 1.24972E-13
 -1       547 2.00378E+01 1.72651E-02 4.66976E-05 4.88852E-02 7.30294E-14-2.48224E-15
 -1       548 2.00264E+01 1.50610E-02 4.26267E-05 3.70804E-02 9.15098E-14 7.48120E-15
 -1       549 2.00178E+01 1.23934E-02 3.60933E-05 2.70432E-02-3.61245E-14 5.57102E-14
 -1       550 2.00114E+01 9.73934E-03 2.89117E-05 1.89122E-02-1.05872E-13 7.07091E-14
 -1       551 2.00067E+01 7.35218E-03 2.21157E-05 1.25843E-02-2.16572E-13-7.59806E-14
 -1       552 2.00034E+01 5.34017E-03 1.62123E-05 7.83536E-03-5.42262E-14 1.19595E-13
 -1       553 2.00012E+01 3.72391E-03 1.13775E-05 4.39686E-03 4.92171E-14 2.16578E-13
 -1       554 1.99997E+01 2.47578E-03 7.59573E-06 2.00161E-03 1.61941E-13 1.26003E-13
 -1       555 1.99988E+01 1.54560E-03 4.75289E-06 4.07944E-04 2.42092E-13 2.14060E-13
 -1       556 1.99984E+01 8.76251E-04 2.69552E-06-5.89779E-04 6.18873E-14 7.08376E-14
 -1       557 1.99982E+01 4.12507E-04 1.26506E-06-1.15888E-03-1.14130E-14 2.09359E-14
 -1       558 1.99981E+01 1.05401E-04 3.16025E-07-1.43071E-03 1.11910E-14-8.75972E-14
 -1       559 1.99982E+01-8.61070E-05-2.76006E-07-1.50515E-03 2.03051E-13-4.65861E-13
 -1       560 1.99984E+01-1.95050E-04-6.12400E-07-1.45590E-03 1.71303E-13-3.29301E-13
 -1       561 1.99986E+01-2.47182E-04-7.72832E-07-1.33563E-03 3.63908E-14-1.46610E-13
 -1       562 1.99988E+01-2.62083E-04-8.18508E-07-1.18063E-03 9.90256E-14-1.47276E-13
 -1       563 1.99990E+01-2.54345E-04-7.95606E-07-1.01468E-03 1.64303E-13-2.72314E-13
 -1       564 1.99991E+01-2.34711E-04-7.36960E-07-8.52223E-04 1.57672E-13-1.76504E-13
 -1       565 1.99993E+01-2.11044E-04-6.65435E-07-7.00861E-04-5.00996E-14-1.96950E-13
 -1       566 1.99994E+01-1.89126E-04-6.12115E-07-5.63348E-04-2.75661E-13-2.15795E-13
 -1       567 1.99995E+01-1.73105E-04-6.00572E-07-4.38960E-04 7.88087E-14-7.64993E-14
 -1       568 1.99996E+01-1.64980E-04-5.49635E-07-3.25026E-04 4.95250E-13-1.75674E-13
 -1       569 1.99999E+01-4.80039E-04 1.47565E-07-3.05220E-04 1.27440E-14 3.46893E-14
 -1       570 1.99998E+01-3.82410E-04 8.83515E-08-3.41661E-04-1.65958E-13-7.68092E-13
 -1       571 1.99997E+01-2.71719E-04-1.91945E-07-3.32337E-04 2.96031E-14-4.35476E-13
 -1       572 5.50155E+00-1.04818E+00 1.68179E-01 4.37870E+00-5.01075E-13 1.12085E-12
 -1       573 1.99999E+01-5.59024E-04 2.58240E-07-2.28075E-04-3.15559E-14 3.78266E-13
 -1       574 2.00000E+01-6.09696E-04 3.41084E-07-1.21336E-04-8.03315E-14 3.28528E-13
 -1       575 2.00000E+01-6.27219E-04 3.67167E-07 8.13548E-07-3.08445E-13 4.75689E-13
 -1       576 2.00000E+01-6.09828E-04 3.37302E-07 1.22971E-04-5.08761E-13 4.79315E-13
 -1       577 1.99999E+01-5.60287E-04 2.62765E-07 2.28027E-04-8.54396E-14-4.94242E-14
 -1       578 1.99999E+01-4.81604E-04 1.55347E-07 3.05627E-04 3.17264E-13-1.46021E-13
 -1       579 1.99998E+01-3.81971E-04-2.38214E-08 3.42466E-04 9.37468E-14 4.10132E-13
 -1       580 1.99997E+01-2.71359E-04-4.30701E-07 3.31325E-04 1.86307E-14-1.63566E-13
 -1       581 3.03234E+01-2.31607E+00 5.62902E-02 1.78395E+00 1.45453E-13-6.97511E-13
 -1       582 8.70702E+00-2.19366E+00 1.61780E-01-4.89962E+00 2.28706E-13 3.37758E-13
 -1       583 1.85575E+01 1.59147E+00 3.75311E-03-3.77822E+00-4.00352E-13-3.34636E-13
 -1       584 4.13183E+00-9.67606E-01 1.78747E-01-5.65479E-01-7.06518E-14 7.85094E-13
 -1       585 3.21975E+01 6.14473E+00-1.54485E-01 1.42598E+00 7.21576E-13-9.05526E-15
 -1       586 3.11750E+01 7.45623E+00-1.78779E-01-9.54779E-01 7.39575E-13-3.70756E-13
 -1       587 1.20511E+01-2.11865E+00 1.39997E-01 5.12437E+00 1.19238E-13-6.39808E-13
 -1       588 3.19993E+01 8.58945E+00-1.69575E-01 6.21601E-01 8.41063E-13-1.91692E-13
 -1       589 3.15485E+01 2.00292E+00-1.20560E-01 3.75054E-01 4.45810E-13 2.78041E-14
 -1       590 2.91730E+01-1.41290E+00-5.66733E-02-2.05556E+00 8.42260E-14-5.58026E-14
 -1       591 1.55459E+01-2.25009E+00 1.20045E-01-8.20023E+00-3.96710E-13-4.82656E-13
 -1       592 7.95828E+00 4.86172E-03 1.64320E-01-6.96713E+00-3.89605E-13-7.80154E-13
 -1       593 4.16080E+00 1.20947E+00 1.81032E-01-2.86801E+00-2.51710E-13-9.52169E-13
 -1       594 5.62054E+00 3.34677E-01 1.67011E-01 1.87239E+00-6.76299E-14-9.37472E-13
 -1       595 1.54460E+01-4.37443E+00 1.09908E-01-6.24933E+00 2.01672E-13 4.21885E-15
 -1       596 1.14609E+01-3.62371E+00 1.32019E-01 7.92684E+00-5.80806E-13 6.49307E-13
 -1       597 1.17252E+01 5.18624E+00 5.31671E-02-1.63791E+00-3.37063E-13-5.60071E-13
 -1       598 2.02734E+01 5.49716E-01 6.85976E-03 1.73201E+00 2.74818E-13 2.27892E-13
 -1       599 2.01499E+01 4.51486E-01 3.38595E-03 1.58097E+00 2.65761E-13 1.91393E-13
 -1       600 1.38537E+01 4.55296E+00 3.65405E-02 3.61485E-01-2.15322E-13-4.32959E-13
 -1       601 2.65055E+01-2.73349E+00 3.41230E-04-3.63032E+00-1.80080E-13-3.99507E-14
 -1       602 2.27896E+01-5.38890E+00 6.19978E-02-5.00095E+00 2.12913E-13-2.62363E-13
 -1       603 1.99997E+01-1.91668E-04-5.89644E-07 2.85093E-04 2.11828E-13-1.47975E-13
 -1       604 2.09590E+01-4.42082E+00 2.66854E-02 4.97699E+00 2.42570E-13-2.12039E-13
 -1       605 2.35765E+01 3.47480E-01-4.09090E-03 4.28225E-01-7.73377E-14-7.71798E-14
 -1       606 2.32651E+01-2.27448E-01-2.41795E-03-1.19162E+00-2.19641E-13-1.12638E-13
 -1       607 2.25793E+01 1.16129E+00-3.64536E-03 1.96128E+00 1.34440E-13-2.88447E-14
 -1       608 2.18727E+01 1.18310E+00-3.55139E-03 2.19776E+00 2.22165E-13-2.04591E-14
 -1       609 2.08592E+01 8.30853E-01 3.00454E-03 2.06051E+00 2.80577E-13 1.33433E-13
 -1       610 2.00001E+01-6.45993E-04 1.39527E-07-7.68145E-05 2.04903E-13 4.70649E-13
 -1       611 1.99999E+01-4.51584E-04 2.10796E-08-4.16856E-04 3.95087E-13-2.90384E-13
 -1       612 1.68844E+01-1.25388E-01 9.54351E-02-4.87206E+00 3.43867E-13-1.27990E-13
 -1       613 1.76063E+01 1.38784E+00 2.52006E-02-3.76543E+00 2.56118E-13-1.02937E-13
 -1       614 1.84550E+01 1.67488E+00 8.32118E-03-2.94962E+00 7.53746E-14-2.01241E-13
 -1       615 1.91855E+01 1.50254E+00 3.91398E-03-2.23807E+00-1.06576E-14-2.26060E-13
 -1       616 1.96597E+01 1.18410E+00 2.70854E-03-1.67750E+00 7.58030E-14-2.61961E-13
 -1       617 1.99318E+01 8.74532E-01 2.13905E-03-1.23872E+00 7.55257E-14-2.20026E-13
 -1       618 2.00687E+01 6.23394E-01 1.59974E-03-9.03497E-01-5.12364E-14-2.13420E-13
 -1       619 2.01245E+01 4.35938E-01 1.12767E-03-6.52947E-01 9.87796E-14-1.67676E-13
 -1       620 2.01359E+01 3.02014E-01 7.68039E-04-4.68767E-01 1.38858E-13-6.61836E-14
 -1       621 2.01255E+01 2.08562E-01 5.15158E-04-3.34872E-01-5.85709E-14 9.58363E-14
 -1       622 2.01063E+01 1.44106E-01 3.44236E-04-2.38175E-01-3.61767E-14-4.94726E-14
 -1       623 2.00853E+01 9.98278E-02 2.30461E-04-1.68586E-01 7.28470E-14-4.41454E-14
 -1       624 2.00657E+01 6.93783E-02 1.54924E-04-1.18589E-01 7.38305E-14-1.24931E-13
 -1       625 2.00489E+01 4.83456E-02 1.04591E-04-8.27051E-02 5.52274E-14-3.85921E-13
 -1       626 2.00354E+01 3.37251E-02 7.08263E-05-5.69875E-02-1.30661E-13-3.07294E-13
 -1       627 2.00248E+01 2.34906E-02 4.79864E-05-3.86073E-02 8.05706E-14-5.06644E-13
 -1       628 2.00167E+01 1.62804E-02 3.23892E-05-2.55353E-02 2.02700E-13-4.24626E-13
 -1       629 2.00108E+01 1.11764E-02 2.17619E-05-1.63116E-02-1.24189E-13-2.16228E-13
 -1       630 2.00065E+01 7.55468E-03 1.48449E-05-9.88097E-03-4.01703E-13-2.51576E-13
 -1       631 2.00037E+01 5.09656E-03 8.83960E-06-5.64761E-03-4.01364E-13-1.33332E-13
 -1       632 2.00016E+01 3.25617E-03 5.97045E-06-2.62667E-03-3.19016E-13 1.55897E-13
 -1       633 2.00003E+01 1.97023E-03 3.47214E-06-6.64790E-04 4.86727E-14 1.01398E-13
 -1       634 1.99994E+01 1.08612E-03 1.81308E-06 5.48031E-04-3.10322E-13-2.47249E-13
 -1       635 1.99990E+01 4.92247E-04 7.17318E-07 1.24056E-03-3.95040E-14-6.01771E-13
 -1       636 1.99987E+01 1.06767E-04 2.31405E-08 1.57961E-03 2.35760E-13-1.82430E-13
 -1       637 1.99987E+01-1.30721E-04-3.92434E-07 1.68621E-03 3.13743E-13 1.63350E-13
 -1       638 1.99987E+01-2.64880E-04-6.16698E-07 1.64703E-03 1.96792E-13 2.54189E-13
 -1       639 1.99988E+01-3.28682E-04-7.12890E-07 1.52300E-03 9.05876E-14 7.26113E-14
 -1       640 1.99989E+01-3.46365E-04-7.26612E-07 1.35592E-03 3.70479E-13-1.76213E-13
 -1       641 1.99991E+01-3.35639E-04-6.90574E-07 1.17340E-03 1.13969E-14-3.57992E-13
 -1       642 1.99992E+01-3.09399E-04-6.28420E-07 9.92614E-04-4.00327E-13 7.85844E-14
 -1       643 1.99993E+01-2.77055E-04-5.54672E-07 8.23180E-04 1.46638E-13 3.50293E-13
 -1       644 1.99994E+01-2.45494E-04-5.15627E-07 6.69327E-04 1.43582E-14 3.53923E-13
 -1       645 1.99995E+01-2.20111E-04-6.44381E-07 5.31913E-04-3.81944E-14 1.46277E-13
 -1       646 1.99996E+01-2.02870E-04-5.99335E-07 4.07572E-04-5.44471E-14 5.80982E-14
 -1       647 2.05925E+01 1.13368E+00 9.36580E-04 1.07619E+00 2.50790E-13 4.70890E-14
 -1       648 2.03311E+01 1.32995E+00 5.91682E-04 4.08970E-01 2.11431E-13 2.25874E-14
 -1       649 2.09396E+01 8.80941E-01 9.67184E-04 1.57846E+00 2.07936E-13 7.57154E-14
 -1       650 2.03096E+01 1.03507E+00-1.74760E-04-9.63026E-01 1.71313E-13-7.87416E-14
 -1       651 2.04918E+01 5.80664E-01-5.18627E-04-1.37931E+00 9.40755E-14-6.14739E-14
 -1       652 2.06961E+01 7.19190E-02 1.01159E-04-1.51572E+00 2.27578E-14-1.38583E-13
 -1       653 2.08366E+01-3.53188E-01 1.77904E-04-1.38169E+00-1.42247E-14-7.14981E-14
 -1       654 2.08416E+01-5.67999E-01-2.62852E-03-1.05831E+00-1.95073E-14-1.85984E-15
 -1       655 2.07631E+01-6.00690E-01-3.35605E-04-7.40883E-01 5.59050E-14-5.99139E-14
 -1       656 2.06483E+01-5.48035E-01-3.49720E-04-4.61461E-01 2.19361E-14-8.30508E-14
 -1       657 2.05190E+01-4.41204E-01-3.10321E-04-2.37759E-01-1.41756E-13-6.41995E-14
 -1       658 2.03972E+01-3.20259E-01-2.37398E-04-7.68622E-02-1.44126E-13 6.35656E-14
 -1       659 2.02943E+01-2.09732E-01-1.63745E-04 2.74892E-02-7.97989E-14 9.09236E-14
 -1       660 2.02131E+01-1.20916E-01-1.00971E-04 8.70145E-02-1.10804E-13 2.13469E-13
 -1       661 2.01521E+01-5.62262E-02-5.39450E-05 1.14174E-01-7.58266E-14 1.82624E-13
 -1       662 2.01077E+01-1.32116E-02-2.16188E-05 1.19874E-01-8.88863E-15 2.33536E-13
 -1       663 2.00762E+01 1.25772E-02-1.39647E-06 1.12659E-01-9.90264E-14 1.36110E-13
 -1       664 2.00539E+01 2.58613E-02 9.82782E-06 9.87069E-02-1.14123E-13 4.68947E-14
 -1       665 2.00382E+01 3.07728E-02 1.48918E-05 8.21740E-02 2.01416E-13-1.52976E-15
 -1       666 2.00272E+01 3.05457E-02 1.60727E-05 6.56477E-02 1.90922E-13-5.21382E-14
 -1       667 2.00193E+01 2.75129E-02 1.50426E-05 5.05803E-02 4.51225E-14-4.98986E-14
 -1       668 2.00136E+01 2.32403E-02 1.29406E-05 3.76524E-02 1.20990E-13-9.10955E-14
 -1       669 2.00095E+01 1.87039E-02 1.04877E-05 2.70521E-02 2.11779E-14-3.21857E-13
 -1       670 2.00065E+01 1.44569E-02 8.10142E-06 1.86780E-02-1.52870E-13-4.33734E-13
 -1       671 2.00043E+01 1.07690E-02 5.99362E-06 1.22784E-02-2.44344E-13-3.57670E-13
 -1       672 2.00028E+01 7.73107E-03 4.24696E-06 7.54077E-03-1.11816E-13-2.59931E-13
 -1       673 2.00016E+01 5.32993E-03 2.86763E-06 4.14742E-03 1.73058E-13-7.93520E-14
 -1       674 2.00008E+01 3.49844E-03 1.82195E-06 1.80534E-03 1.60476E-13-1.37394E-13
 -1       675 2.00002E+01 2.14734E-03 1.05888E-06 2.60756E-04 5.57638E-14-5.25226E-15
 -1       676 1.99999E+01 1.18404E-03 5.23514E-07-6.96505E-04 1.86157E-13 8.06374E-14
 -1       677 1.99996E+01 5.22888E-04 1.64450E-07-1.23449E-03-2.53701E-14 9.95113E-14
 -1       678 1.99995E+01 8.98152E-05-6.28385E-08-1.48353E-03 2.30718E-13 4.90949E-14
 -1       679 1.99995E+01-1.76278E-04-1.95064E-07-1.54192E-03 1.33541E-13-9.62867E-14
 -1       680 1.99994E+01-3.24056E-04-2.61199E-07-1.48169E-03-1.63552E-13-7.08664E-14
 -1       681 1.99994E+01-3.91203E-04-2.83308E-07-1.35405E-03 1.74650E-13 8.08644E-14
 -1       682 1.99995E+01-4.06234E-04-2.79053E-07-1.19408E-03 1.75485E-13 1.75739E-13
 -1       683 1.99995E+01-3.90356E-04-2.62394E-07-1.02462E-03 1.96876E-13-8.58987E-15
 -1       684 1.99996E+01-3.59143E-04-2.39375E-07-8.59415E-04-1.04506E-13 1.19697E-13
 -1       685 1.99996E+01-3.23909E-04-1.81970E-07-7.05492E-04-3.68473E-14-4.61613E-14
 -1       686 1.99996E+01-2.92806E-04-2.44512E-07-5.65864E-04-7.67819E-15-4.51240E-13
 -1       687 1.99997E+01-2.78505E-04-2.92364E-07-4.44619E-04 2.80761E-13-6.82586E-13
 -1       688 1.47205E+01-1.71973E+00 1.19665E-01-5.65464E+00 3.25545E-13 2.20449E-14
 -1       689 2.00001E+01-6.10845E-04 1.24548E-07-2.22456E-04 1.24276E-13 3.62042E-13
 -1       690 1.28865E+01 2.79232E+00 1.15139E-01 2.21368E+00-3.97009E-14-4.95590E-13
 -1       691 1.99998E+01-3.68086E-04-2.18040E-07-4.47996E-04 2.81011E-13-9.31389E-13
 -1       692 2.00000E+01-5.44397E-04 5.97065E-08-3.40936E-04 2.96617E-13 1.74448E-13
 -1       693 2.02347E+01 1.31050E+00 3.71467E-04-3.23335E-01 2.19677E-13-5.48572E-14
 -1       694 2.00001E+01-6.46402E-04 1.15555E-07 7.80622E-05 2.49831E-13 1.69529E-13
 -1       695 2.00001E+01-6.12807E-04 1.03679E-07 2.21572E-04-1.39209E-13 5.00794E-13
 -1       696 2.00000E+01-5.46568E-04 9.85409E-08 3.41238E-04-7.54879E-14 2.90873E-13
 -1       697 1.99999E+01-4.53473E-04 1.12368E-07 4.19155E-04 2.96264E-13-1.40295E-13
 -1       698 1.99998E+01-3.42021E-04 8.38304E-08 4.44181E-04 4.28162E-14 6.40619E-14
 -1       699 2.86954E+01 4.57848E+00-1.22747E-01-1.86658E+00 4.59636E-13-5.33601E-13
 -1       700 1.75706E+01 6.02000E-01 4.29475E-02-5.49602E+00-4.94905E-13-3.58698E-13
 -1       701 2.80618E+01-4.12668E+00 2.42792E-01 2.46680E+00-3.20508E-13-5.03014E-13
 -1       702 2.32071E+01 8.69556E-01-4.26928E-03 1.41881E+00 4.03166E-14-9.29182E-14
 -1       703 2.07765E+01-2.49032E+00 3.95865E-02-6.38772E+00-3.99996E-13-2.45697E-13
 -1       704 1.25889E+01 2.37293E+00 5.88728E-02-5.68111E+00-4.89749E-13-5.49481E-13
 -1       705 2.35563E+01-5.10702E+00 1.08245E-01 5.40222E+00-2.98109E-13-2.24869E-13
 -1       706 1.13513E+01-7.72186E-01 1.20773E-01 5.96168E+00-5.82340E-13 7.92408E-13
 -1       707 7.77065E+00 3.25073E+00 1.80569E-01-4.31360E-01-1.91295E-13-8.20857E-13
 -1       708 8.91971E+00 5.74988E-01 1.72012E-01-2.80235E+00 2.72261E-13 1.99535E-13
 -1       709 2.81005E+01 7.40228E+00-1.55881E-01-1.35190E-01 6.35617E-13-2.51615E-13
 -1       710 2.86505E+01 3.35762E+00-1.16573E-01 2.14579E+00 3.67498E-13 1.60837E-13
 -1       711 8.09943E+00 2.74074E+00 1.57670E-01-4.67791E+00-4.03278E-13-7.71029E-13
 -1       712 1.69394E+01-3.70043E+00 9.79408E-02 7.26606E+00-4.93289E-13 2.66162E-13
 -1       713 1.14479E+01 1.30540E-01 1.63706E-01 3.98790E+00 9.33628E-14-6.25791E-13
 -1       714 2.81339E+01 6.49840E+00-1.51654E-01 1.63979E+00 6.07993E-13-1.08438E-14
 -1       715 2.87473E+01 5.09616E-01-8.73110E-02 9.69928E-01 1.33508E-13 2.28761E-13
 -1       716 2.16143E+01-4.82152E-01 4.17851E-03-3.43720E+00-3.76158E-13-1.83231E-13
 -1       717 1.34516E+01 4.10730E-01 1.26814E-01-7.08561E+00-5.02254E-13-5.25954E-13
 -1       718 2.90088E+01 8.61591E-02-1.35290E-02-8.08782E-01 6.12080E-14-6.81538E-13
 -1       719 7.68648E+00 1.19961E+00 1.77923E-01 1.32579E+00-8.00384E-14 6.07958E-13
 -1       720 2.12644E+01 7.91628E-01 1.88191E-03 1.92483E+00 2.25776E-13 6.55341E-14
 -1       721 2.66189E+01 5.61519E+00-8.95804E-02-1.29593E+00 5.00527E-13-3.20776E-13
 -1       722 2.77310E+01-1.11455E+00-2.31238E-02-2.94568E-01-7.97661E-14 1.71068E-13
 -1       723 2.07666E+01-2.87911E+00 1.30271E-01-5.17884E+00 3.34385E-13-1.60545E-13
 -1       724 2.49588E+01-3.36596E-01 1.35094E-03 4.22126E-01-7.49817E-14 2.19722E-14
 -1       725 2.23168E+01 1.00284E+00-8.90855E-04 2.09470E+00 1.72647E-13 5.26043E-14
 -1       726 2.41281E+01-2.24878E+00 3.18795E-02-3.78785E+00-3.52589E-13-5.32022E-14
 -1       727 2.00002E+01-6.81014E-04 1.38156E-08 1.82815E-04 2.01039E-13 9.77015E-14
 -1       728 2.20425E+01 1.05228E+00 1.50917E-03 1.98858E+00 1.92537E-13 8.42236E-14
 -1       729 2.55472E+01 5.87386E+00-8.58221E-02 6.83032E-01 4.98310E-13-3.55232E-14
 -1       730 1.11985E+01 1.29324E+00 8.33273E-02 3.09400E+00-9.86482E-14 6.05013E-13
 -1       731 1.83881E+01-1.46519E+00 3.37251E-02-6.75936E+00-4.67924E-13-3.55344E-13
 -1       732 2.00003E+01-6.98412E-04 6.29960E-08-1.43761E-06 3.54039E-13 2.66592E-13
 -1       733 1.51246E+01 2.31332E+00 2.83868E-02-1.99215E+00 1.51278E-13-9.04268E-15
 -1       734 1.68907E+01 2.08111E+00 5.26919E-03-1.58629E+00 8.41276E-15-4.73519E-14
 -1       735 1.80870E+01 1.70758E+00 1.12493E-03-1.29123E+00 2.69416E-14-5.43355E-14
 -1       736 1.88641E+01 1.31218E+00 4.45677E-04-1.04051E+00 5.76556E-14-8.12454E-14
 -1       737 1.93526E+01 9.70125E-01 3.51106E-04-8.22124E-01 1.90309E-14-8.26971E-14
 -1       738 1.96501E+01 7.00738E-01 2.80779E-04-6.37159E-01 9.24711E-14-1.77985E-13
 -1       739 1.98251E+01 4.99423E-01 2.03520E-04-4.85795E-01 1.45422E-13-4.66066E-14
 -1       740 1.99243E+01 3.53522E-01 1.39488E-04-3.65456E-01 9.61051E-14 1.09859E-14
 -1       741 1.99776E+01 2.49614E-01 9.39047E-05-2.71841E-01-1.28470E-15 4.30144E-16
 -1       742 2.00041E+01 1.76262E-01 6.32234E-05-2.00153E-01-5.51751E-14 4.41501E-14
 -1       743 2.00156E+01 1.24629E-01 4.28094E-05-1.45885E-01-4.85005E-14-1.66586E-13
 -1       744 2.00190E+01 8.82407E-02 2.91467E-05-1.05166E-01-8.75786E-15-3.20262E-13
 -1       745 2.00183E+01 6.25006E-02 1.99060E-05-7.48442E-02-1.06061E-15-3.27173E-13
 -1       746 2.00158E+01 4.42029E-02 1.35848E-05-5.24314E-02-1.01985E-13-1.63220E-13
 -1       747 2.00129E+01 3.11314E-02 9.20050E-06-3.59997E-02-6.06941E-14-2.31856E-13
 -1       748 2.00100E+01 2.17573E-02 6.14754E-06-2.40697E-02 2.35563E-13-4.71917E-13
 -1       749 2.00075E+01 1.50221E-02 4.46377E-06-1.55166E-02-1.94696E-13-3.28835E-13
 -1       750 2.00055E+01 1.03934E-02 2.36989E-06-9.72044E-03-1.16342E-13-1.22751E-13
 -1       751 2.00039E+01 6.87493E-03 1.84118E-06-5.44512E-03-3.57679E-13-1.10434E-13
 -1       752 2.00026E+01 4.37943E-03 1.01571E-06-2.55593E-03-6.73465E-14-6.64732E-14
 -1       753 2.00017E+01 2.63045E-03 5.39317E-07-6.68176E-04-1.73179E-13-1.49336E-13
 -1       754 2.00010E+01 1.42672E-03 2.15648E-07 5.05134E-04-1.35755E-13 2.09157E-13
 -1       755 2.00005E+01 6.19404E-04 1.10420E-08 1.17833E-03 3.10306E-13 3.32154E-13
 -1       756 2.00002E+01 9.77510E-05-1.10901E-07 1.51017E-03 2.92385E-13 1.53590E-13
 -1       757 2.00000E+01-2.20838E-04-1.76830E-07 1.61679E-03 2.36930E-13 2.60920E-13
 -1       758 1.99998E+01-3.97884E-04-2.05584E-07 1.58182E-03 2.26214E-14 1.77037E-13
 -1       759 1.99997E+01-4.79017E-04-2.10917E-07 1.46425E-03 2.25290E-13 2.56278E-13
 -1       760 1.99997E+01-4.97877E-04-2.01304E-07 1.30456E-03 2.40703E-13-1.01021E-13
 -1       761 1.99997E+01-4.79057E-04-1.81335E-07 1.12944E-03 6.70071E-14 1.23089E-13
 -1       762 1.99997E+01-4.40500E-04-1.54345E-07 9.55526E-04 5.58463E-14 4.04680E-13
 -1       763 1.99997E+01-3.95268E-04-1.26354E-07 7.92094E-04 4.92649E-14 3.32996E-13
 -1       764 1.99997E+01-3.53286E-04-1.61208E-07 6.43627E-04-3.58645E-13 2.37798E-15
 -1       765 1.99997E+01-3.45330E-04-1.50864E-07 5.40403E-04-2.56774E-13-1.97933E-14
 -1       766 2.14481E+01 1.88539E+00 2.36248E-04 9.97038E-01 2.72589E-13 4.99423E-14
 -1       767 2.17694E+01 1.43480E+00 6.21900E-04 1.64139E+00 2.47456E-13 9.03946E-14
 -1       768 2.15805E+01 4.31231E-01-3.91162E-03-1.64118E+00 5.65526E-14 2.19506E-14
 -1       769 2.14048E+01 1.20246E+00-4.50005E-03-1.36287E+00 1.06690E-13-5.52136E-14
 -1       770 2.16138E+01-7.81174E-01-3.64287E-03-1.15334E+00-4.54314E-14-2.22281E-14
 -1       771 2.13732E+01-8.80882E-01-1.51097E-04-7.55050E-01 1.21752E-13-5.81670E-14
 -1       772 2.10999E+01-8.34835E-01-1.35999E-04-4.24096E-01 6.32759E-14-2.87590E-14
 -1       773 2.08255E+01-6.88341E-01-1.40067E-04-1.72369E-01-1.06176E-13-1.94405E-14
 -1       774 2.05860E+01-5.09567E-01-9.96754E-05-2.83123E-03-1.82606E-13-1.09237E-14
 -1       775 2.03961E+01-3.40903E-01-6.36243E-05 9.81323E-02-1.33565E-13-1.21005E-13
 -1       776 2.02562E+01-2.02533E-01-3.42237E-05 1.48567E-01-2.20972E-13-4.02997E-14
 -1       777 2.01589E+01-9.98749E-02-1.61026E-05 1.65043E-01-1.22961E-13 1.49926E-13
 -1       778 2.00947E+01-3.01829E-02-5.19425E-06 1.60640E-01-1.31681E-13 2.02605E-13
 -1       779 2.00544E+01 1.27921E-02 7.85387E-07 1.44782E-01 8.04792E-14 8.97313E-14
 -1       780 2.00303E+01 3.60096E-02 3.67023E-06 1.23813E-01 6.68048E-14-2.75422E-14
 -1       781 2.00165E+01 4.57169E-02 4.71011E-06 1.01727E-01 7.72300E-14-2.10372E-13
 -1       782 2.00092E+01 4.69029E-02 4.71934E-06 8.08483E-02 7.63366E-14-4.58613E-14
 -1       783 2.00055E+01 4.32363E-02 4.21121E-06 6.23723E-02 1.05170E-13 1.47404E-13
 -1       784 2.00038E+01 3.72347E-02 3.49659E-06 4.67650E-02 7.91813E-14 6.19659E-14
 -1       785 2.00030E+01 3.05098E-02 2.75494E-06 3.40501E-02 2.09359E-13 2.01203E-14
 -1       786 2.00027E+01 2.40115E-02 2.07925E-06 2.40040E-02 8.70855E-14 1.50339E-13
 -1       787 2.00025E+01 1.82350E-02 1.50790E-06 1.62835E-02-5.18436E-14-1.21885E-13
 -1       788 2.00023E+01 1.33811E-02 1.04900E-06 1.05075E-02-2.88206E-13-3.54702E-13
 -1       789 2.00021E+01 9.47315E-03 6.94276E-07 6.30420E-03-5.63284E-14-5.87621E-14
 -1       790 2.00018E+01 6.43684E-03 4.30054E-07 3.33745E-03 1.11017E-13-1.86820E-13
 -1       791 2.00015E+01 4.15263E-03 2.40260E-07 1.31778E-03 3.35371E-14-1.29915E-13
 -1       792 2.00012E+01 2.48772E-03 1.09120E-07 5.23145E-06 9.66442E-14 3.11569E-15
 -1       793 2.00010E+01 1.31434E-03 2.26215E-08-7.93182E-04 1.24162E-13-2.29612E-13
 -1       794 2.00007E+01 5.18957E-04-3.09539E-08-1.22860E-03-1.31554E-13-1.40912E-13
 -1       795 2.00005E+01 5.83660E-06-6.10488E-08-1.41649E-03 2.82030E-13-6.41340E-14
 -1       796 2.00003E+01-3.02701E-04-7.55298E-08-1.44294E-03 1.61799E-14-4.34925E-14
 -1       797 2.00002E+01-4.67810E-04-7.98514E-08-1.37043E-03-1.36191E-13-1.35942E-13
 -1       798 2.00001E+01-5.36444E-04-7.68283E-08-1.24300E-03-1.37325E-13 6.35310E-14
 -1       799 2.00000E+01-5.43900E-04-7.45025E-08-1.09055E-03 2.10378E-13 1.40440E-13
 -1       800 1.99999E+01-5.16388E-04-7.49337E-08-9.32383E-04 1.05609E-13 1.66440E-13
 -1       801 1.99999E+01-4.72558E-04-9.03585E-08-7.79914E-04 2.43588E-13-1.42661E-13
 -1       802 1.99998E+01-4.27293E-04-6.62632E-08-6.39361E-04 2.58489E-13-3.83811E-13
 -1       803 1.99998E+01-3.94097E-04-2.00219E-07-5.40714E-04 3.08997E-13-6.52881E-13
 -1       804 2.00002E+01-6.78672E-04 6.97715E-08-1.85320E-04 4.54880E-13 4.03178E-13
 -1       805 2.00000E+01-5.41117E-04 1.12274E-07 4.71645E-04 1.48839E-14 4.38665E-13
 -1       806 1.99999E+01-4.48845E-04-2.78673E-08 5.28490E-04-5.24095E-14-1.58305E-13
 -1       807 2.72687E+01 1.67861E+00-6.30567E-02-2.05630E+00 1.27379E-13-4.22677E-13
 -1       808 2.51188E+01-4.49089E+00-1.99068E-02 3.11007E+00-1.44984E-13-2.52288E-13
 -1       809 2.17000E+01-3.31873E-01-1.47160E-03-1.56149E+00-2.11502E-14 3.68427E-14
 -1       810 2.00001E+01-6.27164E-04 1.01224E-07 3.46911E-04-1.38260E-14 5.25264E-13
 -1       811 1.06232E+01 1.86365E+00 9.63483E-02-1.10469E+00 1.16391E-13 6.27068E-14
 -1       812 2.08343E+01-3.81851E+00 4.87763E-02 5.48474E+00-3.37792E-13-7.57103E-14
 -1       813 2.68268E+01 1.52458E+00-5.18089E-02 2.03307E+00 1.46378E-13 1.91187E-13
 -1       814 1.27382E+01 1.14980E+00 1.06505E-01-3.53563E+00 2.78077E-13 1.70641E-13
 -1       815 2.71733E+01-3.56120E+00-4.37129E-01 3.53468E-01 1.77303E-13-4.45491E-13
 -1       816 2.64434E+01 4.35394E+00-7.28609E-02 2.16056E+00 3.63033E-13 1.19597E-13
 -1       817 1.61287E+01-1.63958E+00 1.53997E-02 5.83432E+00-4.88285E-13 4.84810E-13
 -1       818 2.32571E+01 9.11735E-01-3.71237E-03 1.98004E+00 1.17170E-13 1.49793E-15
 -1       819 2.12510E+01 1.81800E+00-1.13848E-03-7.37927E-01 1.83100E-13-4.45183E-14
 -1       820 1.22131E+01 2.14242E+00 5.37813E-02 8.81308E-01 6.41921E-14 3.59735E-13
 -1       821 2.00000E+01-5.37405E-04 2.46511E-07-4.71994E-04 4.78481E-13-1.26707E-13
 -1       822 2.65805E+01 1.92533E-01-2.25694E-02 1.30714E+00 3.52565E-14 1.89264E-13
 -1       823 2.42083E+01 4.81455E-01-6.62125E-03 1.51752E+00 2.18740E-14 9.00419E-15
 -1       824 2.00001E+01-6.23521E-04 3.90450E-08-3.47705E-04 4.15448E-13 1.84647E-13
 -1       825 2.12470E+01 2.06648E+00-7.14445E-04 1.29375E-01 2.63104E-13-1.87606E-14
 -1       826 2.57384E+01 3.29482E+00-4.35514E-02-1.91030E+00 3.11984E-13-2.96801E-13
 -1       827 1.45190E+01 3.88913E-01 4.45944E-02 4.16862E+00-2.57498E-13 4.62944E-13
 -1       828 2.51933E+01-1.26461E+00-1.14108E-02-1.04838E+00-2.17121E-13 1.62518E-14
 -1       829 1.66932E+01 1.95420E+00 2.35044E-03-2.70915E-01 9.14832E-14 8.65051E-14
 -1       830 1.78551E+01 1.58405E+00-1.32485E-05-3.99571E-01 7.66342E-14 6.49078E-14
 -1       831 1.86290E+01 1.22809E+00-1.52808E-04-4.35055E-01 1.01863E-14 8.13086E-14
 -1       832 1.91378E+01 9.24926E-01-5.55263E-05-4.13934E-01-7.63503E-14-2.09218E-14
 -1       833 1.94673E+01 6.83717E-01-3.21848E-06-3.64468E-01 2.28344E-13-6.23391E-14
 -1       834 1.96774E+01 4.99645E-01 9.96280E-06-3.05161E-01 3.80551E-14-2.01049E-13
 -1       835 1.98093E+01 3.62760E-01 1.07608E-05-2.46604E-01-5.85049E-14-3.75480E-13
 -1       836 1.98908E+01 2.62520E-01 9.04222E-06-1.94008E-01-1.95667E-14-3.89012E-13
 -1       837 1.99402E+01 1.89709E-01 7.21746E-06-1.49333E-01-1.17429E-13-3.36429E-13
 -1       838 1.99696E+01 1.36987E-01 5.65031E-06-1.12756E-01-1.05116E-13-3.56454E-13
 -1       839 1.99866E+01 9.88028E-02 4.34079E-06-8.35933E-02-6.72412E-14-3.70673E-13
 -1       840 1.99961E+01 7.10915E-02 3.25893E-06-6.08178E-02-4.01069E-14-4.79685E-13
 -1       841 2.00011E+01 5.09276E-02 2.36361E-06-4.33421E-02-1.84977E-13-4.34672E-13
 -1       842 2.00035E+01 3.62246E-02 1.51925E-06-3.01504E-02-1.36814E-14-3.85695E-13
 -1       843 2.00044E+01 2.54985E-02 1.46111E-06-2.03624E-02-9.48400E-14-6.43947E-13
 -1       844 2.00045E+01 1.80159E-02 6.40277E-07-1.35136E-02 6.27236E-14-6.26589E-13
 -1       845 2.00041E+01 1.22452E-02 6.07965E-07-8.30034E-03-3.02567E-13-6.24036E-13
 -1       846 2.00036E+01 8.08862E-03 3.74886E-07-4.65354E-03-5.40253E-14-1.62650E-13
 -1       847 2.00031E+01 5.12433E-03 2.19763E-07-2.17093E-03-1.67926E-13-3.88323E-14
 -1       848 2.00025E+01 3.04225E-03 1.11698E-07-5.42291E-04 7.71417E-14 1.11086E-13
 -1       849 2.00020E+01 1.61000E-03 4.13260E-08 4.71539E-04 1.24635E-13 2.80082E-13
 -1       850 2.00015E+01 6.52664E-04-2.31697E-09 1.05256E-03 1.64438E-13 6.41370E-14
 -1       851 2.00012E+01 3.83728E-05-2.78119E-08 1.33721E-03 4.15216E-13-1.28925E-14
 -1       852 2.00009E+01-3.32148E-04-4.14636E-08 1.42613E-03 2.36388E-13 1.91145E-13
 -1       853 2.00006E+01-5.33287E-04-4.89578E-08 1.39211E-03 1.79901E-13 1.16732E-13
 -1       854 2.00004E+01-6.20424E-04-5.43958E-08 1.28662E-03-3.21914E-14 2.06575E-13
 -1       855 2.00002E+01-6.34483E-04-5.33556E-08 1.14490E-03 2.68672E-13 1.22230E-13
 -1       856 2.00001E+01-6.05220E-04-3.52520E-08 9.90200E-04 9.67572E-14 9.30786E-14
 -1       857 2.00000E+01-5.54582E-04-4.44547E-08 8.36964E-04-7.36622E-14-3.34903E-13
 -1       858 1.99999E+01-4.98647E-04-4.13851E-08 6.93402E-04-3.56912E-13-2.98366E-13
 -1       859 1.99999E+01-4.71363E-04-1.53544E-07 6.07661E-04-4.48551E-13-2.62630E-13
 -1       860 2.31161E+01 1.16403E+00 1.57740E-03 2.09242E+00 1.72534E-13 4.50925E-14
 -1       861 2.25995E+01 1.02855E+00-1.85710E-02-1.68682E+00 1.22164E-13-6.38448E-14
 -1       862 2.44252E+01 4.65734E+00-4.31074E-02-6.87981E-01 3.56029E-13-4.19610E-14
 -1       863 2.16476E+01-1.16856E+00-1.43951E-05-2.57424E-01 5.98009E-14 5.74241E-14
 -1       864 2.21175E+01-1.20027E+00-4.54858E-04-6.57485E-01 4.96978E-14-3.82488E-14
 -1       865 2.08074E+01-7.23228E-01-6.52430E-05 1.74758E-01-1.01550E-13-8.68106E-14
 -1       866 2.05123E+01-4.85277E-01-3.85280E-05 2.47431E-01-1.13845E-13-1.63672E-13
 -1       867 2.03023E+01-2.89685E-01-1.02078E-05 2.65063E-01-2.26599E-13-9.20646E-14
 -1       868 2.01624E+01-1.44348E-01-3.13035E-07 2.51260E-01-3.02269E-13-1.26902E-13
 -1       869 2.00751E+01-4.53347E-02 3.38407E-06 2.22065E-01-1.89612E-13 7.63075E-15
 -1       870 2.00246E+01 1.61714E-02 3.99327E-06 1.87416E-01 3.46483E-14-1.87996E-14
 -1       871 1.99983E+01 4.98948E-02 3.45034E-06 1.52949E-01 1.23887E-13-9.96866E-14
 -1       872 1.99869E+01 6.45220E-02 2.62655E-06 1.21537E-01 6.75893E-14-1.47347E-13
 -1       873 1.99840E+01 6.69858E-02 1.85462E-06 9.43871E-02 2.96002E-15-1.23191E-13
 -1       874 1.99854E+01 6.24029E-02 1.23635E-06 7.17593E-02 1.11895E-14-1.83456E-13
 -1       875 1.99886E+01 5.43111E-02 7.75857E-07 5.34149E-02 2.55663E-14-2.97802E-15
 -1       876 1.99922E+01 4.50030E-02 4.49537E-07 3.88795E-02 1.88161E-13 9.88628E-14
 -1       877 1.99953E+01 3.58553E-02 2.35316E-07 2.75958E-02-1.53657E-14 1.39243E-13
 -1       878 1.99979E+01 2.76095E-02 1.06611E-07 1.90068E-02 8.36932E-14 4.04394E-13
 -1       879 1.99997E+01 2.05904E-02 3.44165E-08 1.25982E-02 1.06018E-13 4.32153E-13
 -1       880 2.00010E+01 1.48654E-02-7.55002E-09 7.91759E-03-3.18025E-13-1.91297E-14
 -1       881 2.00017E+01 1.03563E-02-2.96105E-08 4.58067E-03 1.70983E-13-5.98623E-14
 -1       882 2.00020E+01 6.91325E-03-3.89673E-08 2.26899E-03-9.23107E-14 5.68414E-14
 -1       883 2.00021E+01 4.36095E-03-4.08347E-08 7.24527E-04 1.39080E-13-4.71014E-14
 -1       884 2.00020E+01 2.52569E-03-3.86332E-08-2.57751E-04 1.50414E-13-2.73853E-13
 -1       885 2.00018E+01 1.24993E-03-3.44488E-08-8.37741E-04-1.27962E-14-8.95520E-14
 -1       886 2.00015E+01 3.98542E-04-2.95070E-08-1.13784E-03 9.06054E-14-1.53540E-13
 -1       887 2.00012E+01-1.39754E-04-2.47594E-08-1.24993E-03 4.10919E-14 8.91387E-14
 -1       888 2.00010E+01-4.53794E-04-2.32366E-08-1.24153E-03 4.58417E-14-2.31082E-14
 -1       889 2.00007E+01-6.12671E-04-2.33509E-08-1.16111E-03-1.03551E-13-1.77819E-13
 -1       890 2.00005E+01-6.68966E-04-1.65813E-08-1.04234E-03-5.03482E-14-1.84297E-13
 -1       891 2.00004E+01-6.61737E-04 9.74800E-09-9.07862E-04 1.07071E-13-2.78174E-13
 -1       892 2.00002E+01-6.19931E-04 4.01292E-08-7.72623E-04 2.43050E-13-4.26411E-13
 -1       893 2.00001E+01-5.65980E-04 5.43303E-08-6.44490E-04 1.85308E-13-3.88558E-13
 -1       894 2.00004E+01-7.54726E-04-7.22531E-08-1.12981E-04 3.05176E-13 1.71628E-13
 -1       895 2.56181E+01-3.12794E+00-3.08685E-02 7.50528E-01-3.86323E-14 1.11216E-14
 -1       896 2.11921E+01-9.73182E-01-1.07765E-04 1.65330E-02-5.24738E-14 1.02525E-13
 -1       897 1.49577E+01 2.26532E+00 1.67008E-02-2.45458E-02 5.00195E-14 1.63344E-14
 -1       898 2.00004E+01-7.56634E-04 5.09790E-08 1.07718E-04 8.43128E-14 1.05163E-13
 -1       899 2.58504E+01 7.10695E-02-3.41101E-02-1.24038E+00 1.91173E-13-1.00489E-13
 -1       900 1.94009E+01-2.24804E+00-1.35310E-02 4.78081E+00-3.70098E-13 5.28692E-14
 -1       901 2.45089E+01 4.29835E+00-3.10135E-02 1.49812E+00 3.76576E-13 8.34519E-14
 -1       902 2.27783E+01-3.43043E+00 6.21256E-03 3.58610E+00-2.03579E-13-8.83980E-14
 -1       903 2.51078E+01 2.60846E+00-2.83094E-02 2.24445E+00 1.86842E-13 7.29096E-14
 -1       904 2.00003E+01-6.71305E-04-4.92491E-08-5.03997E-04 2.06908E-13 3.37478E-13
 -1       905 2.23938E+01 2.11065E+00-1.06034E-02-1.25860E+00 1.67458E-13-3.11543E-14
 -1       906 1.40165E+01 1.51224E+00 2.53958E-02 2.44730E+00-1.19583E-13 4.46700E-13
 -1       907 2.53166E+01 1.55710E+00-2.02318E-02 2.13497E+00 1.38591E-13 9.22126E-14
 -1       908 2.00004E+01-7.29503E-04 4.09254E-08-3.16391E-04 3.67505E-13 3.81466E-13
 -1       909 2.00004E+01-7.19790E-04 5.81730E-08 3.16254E-04 2.33479E-14 2.12948E-13
 -1       910 2.34279E+01 4.07623E+00-1.28225E-02 3.59910E-01 3.47169E-13 1.17064E-13
 -1       911 2.26473E+01 2.23818E+00-6.91047E-03 1.64387E+00 2.83723E-13 9.55804E-14
 -1       912 2.26604E+01-3.68242E-02-3.83409E-03-1.73850E+00 1.52205E-14-1.39637E-13
 -1       913 2.29482E+01 1.64550E+00-3.87210E-03 2.00528E+00 2.00961E-13 5.36694E-14
 -1       914 2.55015E+01-5.96435E-01 2.71993E-01-1.48873E+00 3.79585E-13-2.08417E-13
 -1       915 2.50767E+01 1.14835E+00-4.02222E-02-1.84547E+00 1.91814E-13-1.64063E-13
 -1       916 2.00001E+01-5.70749E-04 1.69492E-07 5.41869E-04-2.33101E-13-5.89707E-14
 -1       917 2.25714E+01-1.00383E+00-3.04524E-03-1.19488E+00-1.80804E-14-7.38634E-14
 -1       918 2.48230E+01 7.53577E-01-6.63842E-03 1.84924E+00 7.89390E-14 5.35698E-14
 -1       919 2.23385E+01 2.86796E+00-3.14175E-03 7.59801E-01 3.50671E-13 7.17731E-14
 -1       920 1.73607E+01-5.66121E-01 2.21080E-02 4.15604E+00-2.56978E-13 1.20836E-13
 -1       921 2.00002E+01-6.53883E-04 8.70982E-08 4.46589E-04-7.90291E-14 3.26348E-13
 -1       922 2.22433E+01 2.83980E+00-3.47882E-03-3.45053E-01 2.42603E-13 2.71706E-14
 -1       923 2.38025E+01 1.11839E+00 1.21752E-03 2.07977E+00 1.17232E-13 3.41242E-14
 -1       924 1.81343E+01 1.25758E+00-2.56047E-04 2.32304E-01 3.49108E-14 4.30880E-14
 -1       925 1.87394E+01 1.00949E+00-1.90637E-04 1.56383E-02-8.00953E-15 4.64060E-14
 -1       926 1.91585E+01 7.86424E-01-8.16096E-05-9.43787E-02 2.59147E-14 8.19114E-14
 -1       927 1.94449E+01 6.00672E-01-3.58793E-05-1.39706E-01-1.13833E-13-1.62356E-13
 -1       928 1.96382E+01 4.52907E-01-1.85949E-05-1.48265E-01-9.12802E-14-2.69178E-13
 -1       929 1.97672E+01 3.38639E-01-1.09226E-05-1.37742E-01 4.51668E-15-2.19757E-13
 -1       930 1.98524E+01 2.51791E-01-6.61829E-06-1.18807E-01-9.83298E-14-2.68917E-13
 -1       931 1.99082E+01 1.86441E-01-3.92757E-06-9.75465E-02-2.11243E-13-3.27982E-13
 -1       932 1.99444E+01 1.37525E-01-2.24658E-06-7.71865E-02 3.44577E-14-2.54695E-13
 -1       933 1.99677E+01 1.00998E-01-1.24057E-06-5.92337E-02-1.24107E-13-1.45923E-13
 -1       934 1.99824E+01 7.37490E-02-6.72468E-07-4.42087E-02-2.07136E-13-1.84352E-13
 -1       935 1.99916E+01 5.34388E-02-6.46834E-07-3.20975E-02-2.02535E-13-3.09724E-13
 -1       936 1.99972E+01 3.83314E-02-4.04509E-08-2.26343E-02-1.75734E-13-3.44463E-13
 -1       937 2.00004E+01 2.76037E-02 5.16592E-08-1.57245E-02-6.09555E-14-3.83236E-13
 -1       938 2.00022E+01 1.91934E-02-5.77250E-08-1.02641E-02-7.19263E-14-2.89770E-13
 -1       939 2.00031E+01 1.30358E-02 2.35264E-08-6.30612E-03 1.91797E-13-2.02437E-13
 -1       940 2.00033E+01 8.56993E-03 2.10528E-08-3.51012E-03-4.81761E-15-1.08148E-13
 -1       941 2.00033E+01 5.37550E-03 1.10762E-08-1.59744E-03 7.96341E-14-2.33323E-14
 -1       942 2.00030E+01 3.13151E-03 5.61748E-09-3.41076E-04 1.51479E-13-3.90592E-14
 -1       943 2.00026E+01 1.59232E-03 2.52626E-09 4.38985E-04 1.70681E-13-7.65789E-16
 -1       944 2.00022E+01 5.69999E-04 8.24229E-10 8.82309E-04 2.05624E-13 1.06616E-13
 -1       945 2.00018E+01-7.87775E-05-2.01176E-10 1.09480E-03 4.38712E-13 1.32826E-13
 -1       946 2.00014E+01-4.62732E-04-2.39132E-09 1.15512E-03 1.08755E-13 7.89088E-14
 -1       947 2.00011E+01-6.63694E-04-1.23458E-08 1.12036E-03 8.63094E-14 3.68121E-13
 -1       948 2.00008E+01-7.42687E-04-3.77964E-08 1.03100E-03 9.91976E-14 4.71678E-13
 -1       949 2.00006E+01-7.45227E-04-1.30093E-08 9.14347E-04 4.47948E-14 5.94426E-14
 -1       950 2.00004E+01-7.02927E-04 2.43304E-09 7.88889E-04-1.37625E-13-1.74406E-13
 -1       951 2.00002E+01-6.41652E-04-7.63580E-08 6.64372E-04-2.84803E-13-1.35138E-13
 -1       952 1.60576E+01 1.67191E+00 7.12373E-03 1.23713E+00-1.25902E-14 2.78387E-13
 -1       953 2.03190E+01-3.63026E-01 1.03522E-05 4.52446E-01-1.85503E-13 8.32396E-14
 -1       954 2.06007E+01-6.22783E-01-4.10547E-05 4.98812E-01-7.00480E-14 1.16138E-13
 -1       955 2.00337E+01-4.64844E-02 9.84976E-06 3.10280E-01-3.00350E-13-8.39914E-14
 -1       956 1.99777E+01 3.11938E-02 6.76977E-06 2.43885E-01-1.31322E-13-1.23770E-13
 -1       957 1.99532E+01 7.29846E-02 4.11251E-06 1.87586E-01 1.11355E-13-5.61632E-14
 -1       958 1.99471E+01 9.04296E-02 2.24976E-06 1.41898E-01 1.59988E-13-7.59514E-14
 -1       959 1.99509E+01 9.25131E-02 1.07118E-06 1.05851E-01 4.42703E-14-8.50475E-15
 -1       960 1.99592E+01 8.57644E-02 3.79512E-07 7.79483E-02-9.72225E-14 1.20050E-13
 -1       961 1.99686E+01 7.46569E-02 5.67603E-09 5.66471E-02-8.99739E-14 7.93963E-14
 -1       962 1.99775E+01 6.20778E-02-2.00112E-07 4.05640E-02-1.56512E-14 1.67386E-13
 -1       963 1.99850E+01 4.97612E-02-2.58579E-07 2.85402E-02 9.67165E-14 2.55570E-13
 -1       964 1.99909E+01 3.86418E-02-2.91996E-07 1.96421E-02 1.90152E-14-2.26979E-14
 -1       965 1.99954E+01 2.91352E-02-2.34497E-07 1.31320E-02-3.08282E-14 1.04521E-13
 -1       966 1.99985E+01 2.13304E-02-1.85923E-07 8.43254E-03 5.84597E-14 2.98818E-13
 -1       967 2.00005E+01 1.51316E-02-1.41487E-07 5.09653E-03-5.72514E-14 2.20098E-13
 -1       968 2.00017E+01 1.03498E-02-1.02602E-07 2.77800E-03-2.39434E-14 2.54998E-13
 -1       969 2.00024E+01 6.76123E-03-7.05727E-08 1.21066E-03 1.24390E-13 1.08077E-13
 -1       970 2.00026E+01 4.14187E-03-4.56096E-08 1.90520E-04 2.72493E-13-2.20763E-14
 -1       971 2.00025E+01 2.28651E-03-2.70503E-08-4.37649E-04 1.31366E-13-4.01697E-13
 -1       972 2.00023E+01 1.01743E-03-1.37649E-08-7.90932E-04-4.21420E-14-5.70926E-13
 -1       973 2.00020E+01 1.86784E-04-4.55994E-09-9.56661E-04-3.39650E-14-3.36408E-13
 -1       974 2.00017E+01-3.24653E-04 4.49163E-10-9.99053E-04 3.73503E-14-1.51940E-13
 -1       975 2.00014E+01-6.10553E-04-9.60525E-09-9.64498E-04 1.34911E-13 1.22638E-13
 -1       976 2.00011E+01-7.42894E-04-2.45596E-08-8.85841E-04-1.32697E-13 3.15031E-15
 -1       977 2.00008E+01-7.76209E-04 3.42196E-08-7.85151E-04 1.23989E-13 6.89123E-14
 -1       978 2.00006E+01-7.48911E-04 1.47967E-07-6.78675E-04 3.30044E-13 3.53037E-13
 -1       979 2.00004E+01-7.14774E-04 7.04730E-08-5.89021E-04 1.32220E-13 5.73351E-13
 -1       980 2.12468E+01-2.26189E+00 9.12629E-03 3.35862E+00-2.58039E-13-1.30330E-13
 -1       981 2.01395E+01-1.73509E-01 1.19066E-05 3.83052E-01-2.81173E-13-5.79722E-15
 -1       982 2.22629E+01-1.56323E+00 6.12418E-04 7.82441E-02-4.94949E-14-1.00502E-13
 -1       983 2.39108E+01 2.99125E+00-2.58021E-02-1.48355E+00 2.69944E-13-3.35235E-15
 -1       984 2.00006E+01-8.27924E-04-2.13325E-07-5.65835E-06-2.09700E-14-2.16885E-13
 -1       985 2.36252E+01-2.68400E+00 1.78220E-02 1.92995E+00-2.65808E-13-7.59809E-14
 -1       986 1.72730E+01 1.49648E+00 7.79548E-04 6.16994E-01 5.26376E-14 1.80450E-13
 -1       987 2.34433E+01 2.79614E+00-1.59087E-02 1.82662E+00 2.99732E-13 1.03384E-13
 -1       988 2.38477E+01 1.90059E+00-2.32241E-02-1.71969E+00 1.97414E-13-5.60108E-14
 -1       989 1.61639E+01 6.12644E-01 1.09212E-02 3.14677E+00-1.81757E-13 2.82906E-13
 -1       990 2.29997E+01-1.57555E+00-1.90846E-04-4.35676E-01 3.36020E-14-1.90198E-13
 -1       991 2.00007E+01-8.17788E-04 3.86222E-07-2.45539E-04 1.54692E-13 3.51203E-14
 -1       992 2.36733E+01 1.85083E+00-2.18786E-03 2.12341E+00 1.76567E-13 8.94310E-14
 -1       993 2.45720E+01-3.42590E-02-6.41640E-04-1.56064E+00 3.00787E-13-2.56635E-13
 -1       994 2.10129E+01-9.45416E-01-3.11776E-05 4.87988E-01-3.83900E-15 1.18732E-13
 -1       995 1.94530E+01-1.13499E+00 9.78632E-03 3.36069E+00-1.89436E-13-7.21432E-14
 -1       996 2.43702E+01-2.00286E+00 1.74159E-01 2.52013E-01-1.33372E-13-1.96412E-13
 -1       997 2.15724E+01-1.29182E+00-1.32670E-04 3.67766E-01-5.78543E-14 4.50038E-14
 -1       998 2.00006E+01-8.07798E-04-6.83994E-07 2.47122E-04-2.76097E-16 1.94540E-13
 -1       999 1.98932E+01 1.28241E-01 1.07453E-05 1.61113E-01 4.38687E-14-1.90753E-14
 -1      1000 2.00006E+01-7.74622E-04-2.61391E-07-4.27906E-04 2.20771E-13 2.93592E-13
 -1      1001 2.39015E+01 4.11289E-01-2.77223E-02-1.68210E+00 1.39472E-13-1.58026E-13
 -1      1002 1.86091E+01 8.76048E-01-2.32612E-04 5.71238E-01 7.74974E-15-4.45506E-14
 -1      1003 1.90039E+01 7.47590E-01-8.76339E-05 2.83508E-01-6.80372E-14-1.29343E-13
 -1      1004 1.92975E+01 6.12330E-01-3.14631E-05 1.12244E-01-1.34341E-13-1.68978E-13
 -1      1005 1.95112E+01 4.88329E-01-1.54093E-05 1.65581E-02-1.03489E-13-4.61536E-14
 -1      1006 1.96641E+01 3.82438E-01-1.04773E-05-3.19066E-02-1.40005E-14-8.67612E-14
 -1      1007 1.97721E+01 2.95667E-01-7.78921E-06-5.21359E-02-1.84258E-13-1.80364E-13
 -1      1008 1.98475E+01 2.26343E-01-5.63243E-06-5.64200E-02-7.64053E-14-2.54214E-13
 -1      1009 1.98996E+01 1.71835E-01-3.89925E-06-5.24430E-02-1.50586E-13-1.04411E-13
 -1      1010 1.99354E+01 1.29423E-01-2.61098E-06-4.48235E-02 1.08291E-13-3.00579E-13
 -1      1011 1.99598E+01 9.66642E-02-1.70831E-06-3.62016E-02-1.21035E-13-2.32882E-13
 -1      1012 1.99761E+01 7.15112E-02-1.49243E-06-2.79778E-02-2.01844E-13-7.68910E-14
 -1      1013 1.99869E+01 5.23201E-02-6.77713E-07-2.08165E-02-2.98023E-13-1.49061E-13
 -1      1014 1.99937E+01 3.83882E-02 6.10269E-08-1.51726E-02-2.09904E-13-1.02453E-13
 -1      1015 1.99982E+01 2.72513E-02-3.90715E-07-1.04460E-02 1.18442E-13-1.43590E-13
 -1      1016 2.00010E+01 1.89466E-02-1.08707E-07-6.85131E-03 4.67567E-14-4.12418E-14
 -1      1017 2.00025E+01 1.28167E-02-5.67625E-08-4.20083E-03 2.17786E-13-3.56282E-14
 -1      1018 2.00032E+01 8.35380E-03-2.79348E-08-2.31108E-03 1.03759E-13 2.66981E-14
 -1      1019 2.00034E+01 5.15913E-03-9.57700E-09-1.01262E-03 1.27293E-13 5.34719E-14
 -1      1020 2.00033E+01 2.92021E-03 2.31761E-09-1.59808E-04 1.05852E-13 5.46270E-14
 -1      1021 2.00030E+01 1.39322E-03 9.30435E-09 3.66939E-04 2.69946E-13-2.54402E-13
 -1      1022 2.00026E+01 3.88997E-04 1.30671E-08 6.62329E-04 3.49728E-13-3.74239E-13
 -1      1023 2.00022E+01-2.38058E-04 1.45101E-08 7.99168E-04 3.12320E-13-3.05181E-13
 -1      1024 2.00018E+01-5.99000E-04 6.92098E-09 8.31920E-04 2.63507E-13-1.79522E-13
 -1      1025 2.00014E+01-7.77713E-04-1.28789E-08 8.00056E-04 2.10856E-14-3.72110E-13
 -1      1026 2.00011E+01-8.36395E-04-1.15293E-07 7.31817E-04-2.41035E-13-5.10216E-13
 -1      1027 2.00008E+01-8.22372E-04-2.51735E-07 6.46310E-04-1.39997E-13-4.19790E-13
 -1      1028 2.00005E+01-7.67557E-04 1.06277E-07 5.56303E-04-1.44313E-13-6.38689E-14
 -1      1029 1.98869E+01 1.13125E-01 1.96623E-05 2.26071E-01-1.10799E-13-2.79320E-13
 -1      1030 1.98998E+01 6.97952E-02 3.39458E-05 3.12970E-01-2.30621E-13-3.17085E-13
 -1      1031 1.99085E+01 1.26163E-01 5.38846E-06 1.13660E-01 4.10162E-15 1.60489E-13
 -1      1032 1.99266E+01 1.14608E-01 2.29160E-06 7.95281E-02-1.01394E-13 1.38014E-13
 -1      1033 1.99442E+01 9.87092E-02 5.89194E-07 5.52280E-02 1.59586E-14 7.24249E-14
 -1      1034 1.99597E+01 8.16956E-02-2.63706E-07 3.80394E-02-1.29675E-13-2.21624E-14
 -1      1035 1.99724E+01 6.54573E-02-8.33794E-07 2.59331E-02-4.14188E-14-5.53059E-15
 -1      1036 1.99823E+01 5.09793E-02-1.09510E-06 1.74283E-02 2.15013E-13 2.05580E-13
 -1      1037 1.99896E+01 3.86665E-02-8.29691E-07 1.14800E-02-3.66645E-14 1.98907E-13
 -1      1038 1.99949E+01 2.85647E-02-6.92124E-07 7.33726E-03-1.02039E-14-1.22762E-13
 -1      1039 1.99985E+01 2.05200E-02-5.53858E-07 4.47575E-03 1.93169E-14 1.09172E-13
 -1      1040 2.00008E+01 1.42809E-02-4.30867E-07 2.52355E-03 4.21900E-14-4.38060E-14
 -1      1041 2.00021E+01 9.56169E-03-3.25037E-07 1.21638E-03 2.24636E-13-2.47649E-13
 -1      1042 2.00028E+01 6.08055E-03-2.37995E-07 3.65321E-04 3.04590E-13-3.81772E-13
 -1      1043 2.00030E+01 3.58065E-03-1.68948E-07-1.65491E-04 3.12224E-13-3.58190E-13
 -1      1044 2.00029E+01 1.83940E-03-1.15691E-07-4.74156E-04 2.85861E-14-2.22040E-13
 -1      1045 2.00027E+01 6.70971E-04-7.51678E-08-6.31572E-04-2.61834E-14-2.65045E-13
 -1      1046 2.00023E+01-7.53180E-05-4.40155E-08-6.88823E-04-2.18045E-13-2.28736E-13
 -1      1047 2.00019E+01-5.18666E-04-2.36550E-08-6.82426E-04-9.40170E-14 9.99024E-14
 -1      1048 2.00016E+01-7.51381E-04-5.21202E-08-6.38024E-04 8.75398E-14 2.53882E-13
 -1      1049 2.00012E+01-8.43522E-04-1.15381E-07-5.73774E-04-8.81532E-14 9.32317E-14
 -1      1050 2.00009E+01-8.48166E-04-1.87492E-07-5.00858E-04 7.11151E-14 2.48483E-13
 -1      1051 1.74466E+01 9.40957E-01 1.36876E-03 1.72888E+00-7.97570E-14 1.12709E-13
 -1      1052 2.00556E+01-1.64889E-01 8.90429E-05 5.63459E-01-1.04210E-13-8.26195E-14
 -1      1053 1.99480E+01-1.66418E-02 5.57882E-05 4.25354E-01-2.13069E-13-1.90045E-13
 -1      1054 2.30531E+01 3.26876E+00-1.07693E-02-7.61936E-01 2.61667E-13 9.92493E-14
 -1      1055 2.20403E+01-2.11227E+00 8.92453E-03 2.01814E+00-1.50288E-13-1.02987E-13
 -1      1056 2.40526E+01-7.09359E-01 2.54170E-01-1.58201E+00-2.34951E-14-2.95552E-13
 -1      1057 1.80932E+01 9.60120E-01-7.48162E-05 1.03218E+00-5.84563E-14-2.33505E-14
 -1      1058 2.02572E+01-3.95573E-01 1.62067E-04 7.19509E-01-5.71697E-14 2.77542E-15
 -1      1059 2.18970E+01-1.64107E+00-2.27180E-04 9.26052E-01-1.77797E-13-1.16060E-13
 -1      1060 2.00009E+01-8.86622E-04 2.00057E-07-9.79968E-05 1.41384E-13-1.27341E-13
 -1      1061 2.05960E+01-7.24647E-01-4.08066E-05 8.70901E-01-4.79308E-14-9.05504E-15
 -1      1062 2.00009E+01-8.84506E-04 6.15248E-08 2.01831E-04 5.36138E-14 8.51928E-14
 -1      1063 2.00007E+01-8.17722E-04-6.92858E-07-4.65009E-04 2.03680E-13 3.20306E-13
 -1      1064 2.07085E+01-1.39734E+00 3.92227E-03 2.36435E+00-1.43666E-13-1.31306E-13
 -1      1065 2.11268E+01-1.15499E+00 1.65051E-04 9.71827E-01-9.22206E-14-7.89999E-14
 -1      1066 1.81886E+01-1.65088E-01 2.41772E-03 2.98956E+00-2.16897E-13 1.16962E-14
 -1      1067 1.88463E+01 5.00041E-01-2.23451E-04 1.10415E+00-9.64514E-14 1.27953E-14
 -1      1068 2.28624E+01-2.05052E+00-9.38556E-03 6.60997E-01-1.35236E-13-9.30822E-14
 -1      1069 1.97891E+01 6.41845E-02 6.67291E-05 5.58880E-01-7.23455E-14-1.08859E-13
 -1      1070 1.90826E+01 5.36629E-01-3.18345E-05 6.81155E-01-1.02743E-13-7.58184E-14
 -1      1071 1.92954E+01 5.05484E-01 1.18405E-05 3.99831E-01-2.87918E-14-3.36720E-14
 -1      1072 1.94724E+01 4.44413E-01 1.21807E-05 2.19534E-01-1.46152E-13 3.94620E-14
 -1      1073 1.96130E+01 3.74511E-01 4.91118E-06 1.08552E-01-1.12683E-13-6.22674E-14
 -1      1074 1.97211E+01 3.06713E-01-1.61597E-07 4.34711E-02-1.28251E-13-1.61077E-13
 -1      1075 1.98023E+01 2.46009E-01-2.41714E-06 7.72624E-03-1.84683E-13-1.20595E-13
 -1      1076 1.98624E+01 1.94102E-01-3.01338E-06-9.97803E-03-4.07843E-14-3.00261E-13
 -1      1077 1.99061E+01 1.51007E-01-2.86289E-06-1.70916E-02-1.68204E-13-1.54455E-13
 -1      1078 1.99376E+01 1.15957E-01-2.44173E-06-1.83664E-02-4.72227E-14-2.78828E-13
 -1      1079 1.99598E+01 8.78935E-02-2.33144E-06-1.67233E-02-1.42434E-13-1.41543E-13
 -1      1080 1.99754E+01 6.57292E-02-1.72350E-06-1.38995E-02-8.51460E-14-1.62158E-13
 -1      1081 1.99857E+01 4.91779E-02-4.36623E-07-1.09714E-02-2.09563E-13 1.01887E-13
 -1      1082 1.99930E+01 3.56256E-02-1.17057E-06-8.11086E-03-1.99305E-13-6.16885E-14
 -1      1083 1.99977E+01 2.53000E-02-6.41575E-07-5.70090E-03 2.28101E-13 1.49142E-13
 -1      1084 2.00006E+01 1.75291E-02-4.72046E-07-3.78480E-03 1.10179E-13 7.58069E-14
 -1      1085 2.00023E+01 1.17674E-02-3.43158E-07-2.33410E-03 2.52513E-13 7.99293E-14
 -1      1086 2.00032E+01 7.56760E-03-2.45460E-07-1.28250E-03 1.75843E-13 3.43531E-13
 -1      1087 2.00035E+01 4.56714E-03-1.71397E-07-5.53081E-04 1.07893E-13 4.17772E-13
 -1      1088 2.00034E+01 2.47535E-03-1.16035E-07-7.21295E-05 5.56996E-14 4.40397E-13
 -1      1089 2.00031E+01 1.06163E-03-7.49879E-08 2.24586E-04 2.19326E-13 4.95383E-13
 -1      1090 2.00027E+01 1.45184E-04-4.34782E-08 3.89712E-04 3.58926E-13 2.53393E-13
 -1      1091 2.00023E+01-4.14044E-04-1.46099E-08 4.64507E-04 2.11949E-13 1.72446E-13
 -1      1092 2.00019E+01-7.23027E-04 8.59478E-09 4.80171E-04-1.38400E-13-2.58845E-13
 -1      1093 2.00015E+01-8.66396E-04-2.66802E-07 4.59131E-04-3.71949E-14-4.22146E-13
 -1      1094 2.00011E+01-8.91135E-04 8.24481E-07 4.19030E-04 1.03654E-14-1.51200E-13
 -1      1095 1.97737E+01 1.45749E-01 3.79149E-05 3.87090E-01-7.44896E-14-2.10691E-13
 -1      1096 1.98875E+01 1.50454E-01 3.84526E-06 7.40807E-02-1.37077E-13-6.97189E-14
 -1      1097 1.98205E+01 1.83452E-01 1.19617E-05 1.74584E-01-1.47512E-13-1.29675E-13
 -1      1098 1.86139E+01 3.44012E-01 2.22665E-04 1.70645E+00-5.64881E-14 2.34789E-14
 -1      1099 1.97901E+01 1.79296E-01 2.14251E-05 2.62315E-01-2.06547E-13-2.86036E-13
 -1      1100 1.99161E+01 1.27013E-01 2.35959E-06 4.74160E-02-1.46332E-14-3.71376E-14
 -1      1101 1.99397E+01 1.03844E-01 1.62305E-06 3.00372E-02-3.88035E-14 1.50083E-13
 -1      1102 1.99584E+01 8.26476E-02 8.21965E-07 1.88255E-02-4.54484E-14 1.00858E-13
 -1      1103 1.99727E+01 6.42072E-02-1.61665E-06 1.16635E-02-7.05871E-14 3.26451E-14
 -1      1104 1.99833E+01 4.87583E-02 1.96637E-07 7.10420E-03 1.27408E-13 1.46819E-13
 -1      1105 1.99908E+01 3.61834E-02 7.80184E-07 4.20797E-03 1.98721E-13 1.98578E-13
 -1      1106 1.99960E+01 2.62002E-02 5.89911E-07 2.38335E-03 1.26436E-14 1.40780E-13
 -1      1107 1.99994E+01 1.84539E-02 4.65961E-07 1.24045E-03 1.95207E-13-4.54395E-14
 -1      1108 2.00015E+01 1.25734E-02 3.67859E-07 5.32761E-04 2.13873E-13-2.99031E-13
 -1      1109 2.00027E+01 8.20750E-03 2.88947E-07 1.03589E-04 2.23282E-13-1.20697E-13
 -1      1110 2.00032E+01 5.04216E-03 2.24605E-07-1.46908E-04 2.74848E-13 1.05395E-13
 -1      1111 2.00033E+01 2.80811E-03 1.72072E-07-2.82804E-04 2.06268E-13 7.89064E-14
 -1      1112 2.00031E+01 1.28135E-03 1.30112E-07-3.45631E-04-9.89153E-14 4.14451E-14
 -1      1113 2.00028E+01 2.80246E-04 9.96538E-08-3.62606E-04-1.44256E-13 2.90885E-13
 -1      1114 2.00024E+01-3.39288E-04 8.72433E-08-3.51734E-04-2.52555E-13 1.08744E-13
 -1      1115 2.00020E+01-6.89260E-04 7.86676E-08-3.25088E-04-1.75539E-13-1.42522E-13
 -1      1116 2.00016E+01-8.58778E-04-4.11669E-07-2.90595E-04-2.67244E-14 6.64015E-14
 -1      1117 2.00012E+01-8.98834E-04 1.71438E-07-2.53042E-04-1.99549E-14 1.13237E-14
 -1      1118 1.98547E+01 1.71030E-01 6.68801E-06 1.14455E-01-5.97296E-14-2.24579E-13
 -1      1119 2.10128E+01-1.30708E+00 8.79914E-04 1.65918E+00-8.34572E-14-1.24003E-13
 -1      1120 1.98654E+01-9.11242E-02 1.21076E-04 7.85473E-01-1.32093E-13-1.60132E-13
 -1      1121 1.96677E+01-7.09545E-01 6.72063E-04 2.40471E+00-1.63828E-13-2.42636E-14
 -1      1122 2.00013E+01-9.24370E-04 1.97994E-07 8.54498E-05 9.06531E-14-2.17514E-14
 -1      1123 2.03987E+01-7.44813E-01 1.40457E-03 1.37849E+00-1.00964E-13-2.03476E-13
 -1      1124 2.00489E+01-3.53636E-01 2.01137E-04 1.06692E+00-7.03322E-14-1.92098E-13
 -1      1125 1.94649E+01 2.79729E-01-1.00754E-04 6.52145E-01-1.02107E-14 2.16082E-14
 -1      1126 1.95479E+01 3.13172E-01-7.58469E-05 4.16362E-01-4.98798E-14-7.45050E-14
 -1      1127 1.96360E+01 3.04804E-01-5.01759E-05 2.56635E-01-1.16686E-13-1.94539E-14
 -1      1128 1.97170E+01 2.75348E-01-3.13735E-05 1.52051E-01-2.38208E-13-8.53391E-14
 -1      1129 1.97862E+01 2.37311E-01-1.84246E-05 8.58170E-02-6.23926E-14-4.31577E-14
 -1      1130 1.98424E+01 1.97858E-01-9.94072E-06 4.53277E-02-2.19189E-13 7.24085E-14
 -1      1131 1.98867E+01 1.60807E-01-4.69689E-06 2.15641E-02-5.87002E-14 5.87464E-16
 -1      1132 1.99207E+01 1.27949E-01-1.67103E-06 8.31644E-03-1.32600E-13-1.41307E-14
 -1      1133 1.99462E+01 9.98986E-02-3.11457E-09 1.45004E-03-7.66355E-14-1.18354E-13
 -1      1134 1.99649E+01 7.66313E-02 3.59408E-06-1.70082E-03-8.37081E-14-1.28694E-13
 -1      1135 1.99778E+01 5.85709E-02 2.94095E-06-2.76722E-03 8.43313E-14-2.36726E-13
 -1      1136 1.99874E+01 4.33306E-02 6.27576E-07-2.86218E-03-1.48477E-13-4.14555E-14
 -1      1137 1.99940E+01 3.14110E-02 7.88900E-07-2.47580E-03 1.00137E-13 3.11514E-13
 -1      1138 1.99983E+01 2.22377E-02 6.63762E-07-1.92924E-03 1.24931E-13 1.08297E-13
 -1      1139 2.00009E+01 1.52999E-02 5.31740E-07-1.38910E-03 2.37672E-13 3.93770E-13
 -1      1140 2.00025E+01 1.01484E-02 4.08112E-07-9.27583E-04 2.60268E-13 2.74789E-13
 -1      1141 2.00032E+01 6.40016E-03 3.02839E-07-5.66269E-04 2.55892E-13 1.20300E-13
 -1      1142 2.00035E+01 3.73564E-03 2.17941E-07-3.01390E-04 2.20084E-13 3.51175E-13
 -1      1143 2.00033E+01 1.89388E-03 1.52315E-07-1.18372E-04 1.28993E-13 4.57165E-13
 -1      1144 2.00031E+01 6.65399E-04 1.04334E-07 3.14488E-07 6.82881E-14 8.95329E-14
 -1      1145 2.00027E+01-1.15191E-04 7.37958E-08 7.12780E-05 2.75588E-14 7.39232E-14
 -1      1146 2.00022E+01-5.76419E-04 5.85055E-08 1.08595E-04-5.07009E-14-2.00876E-13
 -1      1147 2.00018E+01-8.16829E-04 5.52216E-07 1.23856E-04-1.99792E-13-1.41305E-13
 -1      1148 1.94298E+01-5.48640E-02-6.64628E-05 1.43954E+00-7.93511E-14 4.75183E-14
 -1      1149 2.01431E+01-7.65163E-01-1.47658E-03 1.83994E+00-4.40873E-14 1.83577E-15
 -1      1150 1.94122E+01 1.71851E-01-5.83331E-05 9.86987E-01-9.92589E-14 5.39704E-14
 -1      1151 3.32447E+01 1.07442E+01 2.56920E+00-6.01757E+00-2.18714E-14 1.73456E-12
 -1      1152 2.42094E+01 7.38512E+00 4.07650E-01-1.82549E+00-1.99840E-14 5.59594E-13
 -1      1153 1.99960E+01 6.00607E+00 2.41859E-02-6.62168E-01-1.93179E-14-5.46316E-14
 -1      1154 1.68440E+01 5.00502E+00-1.60627E-01-7.05404E-01-1.44329E-14-3.99843E-13
 -1      1155 1.49999E+01 4.43183E+00-2.27113E-01-1.35342E+00-1.12133E-14-5.87470E-13
 -1      1156 1.45781E+01 4.31549E+00-1.93171E-01-2.09204E+00-8.51402E-15-6.62889E-13
 -1      1157 1.52970E+01 4.56114E+00-9.32423E-02-2.51660E+00-7.16094E-15-6.85285E-13
 -1      1158 1.66370E+01 4.99860E+00 2.49713E-02-2.42450E+00-5.66214E-15-6.63218E-13
 -1      1159 1.80402E+01 5.44719E+00 1.17125E-01-1.84629E+00-2.27596E-15-6.33381E-13
 -1      1160 1.91372E+01 5.79070E+00 1.65122E-01-9.58368E-01 1.24900E-16-6.11882E-13
 -1      1161 1.97927E+01 5.98972E+00 1.72999E-01 4.52491E-02 4.23273E-16-5.91241E-13
 -1      1162 2.00452E+01 6.06029E+00 1.55678E-01 1.01940E+00 4.86416E-15-5.41454E-13
 -1      1163 2.00288E+01 6.04662E+00 1.26614E-01 1.91031E+00 7.86740E-15-4.65711E-13
 -1      1164 1.99168E+01 6.00298E+00 9.30945E-02 2.72070E+00 1.22376E-14-3.19154E-13
 -1      1165 1.99635E+01 6.00854E+00 6.49782E-02 3.49582E+00 1.87836E-14-3.29337E-14
 -1      1166 2.07364E+01 6.25631E+00 1.17952E-01 4.41906E+00 2.22600E-14 5.66734E-13
 -1      1167 2.57235E+01 8.15931E+00 1.47413E+00 6.30062E+00 5.19584E-14 1.83753E-12
 -1      1168 3.55425E+01 3.84120E+00 1.11361E+00-3.99281E+00-1.19502E-13 2.51466E-12
 -1      1169 2.99556E+01-2.63059E-01-7.49937E-01 1.43072E-01-4.01693E-14 2.28288E-12
 -1      1170 3.19656E+01-1.41697E-01-2.64724E-01 2.38163E-01-1.91010E-14 1.93223E-12
 -1      1171 3.51889E+01-1.62694E-03 1.28141E-01 2.28070E-01 1.10242E-15 1.83678E-12
 -1      1172 3.77076E+01 2.09520E-01 5.86598E-01 5.43975E-02 2.76515E-14 1.99782E-12
 -1      1173 3.62154E+01 3.83166E-01 7.47635E-01-4.84616E-01 2.12642E-14 2.33313E-12
 -1      1174 2.86541E+01 2.82052E-01-1.09202E-01-1.03013E+00 1.31319E-14 2.46536E-12
 -1      1175 1.94230E+01-3.58132E-01-1.57566E+00-8.09205E-01-8.11851E-15 2.04758E-12
 -1      1176 1.52736E+01-5.65552E-01-2.26436E+00 3.08056E-02-3.51108E-14 1.00836E-12
 -1      1177 1.97815E+01-3.51395E-01-1.48078E+00 7.87854E-01-1.73125E-14-1.21680E-13
 -1      1178 2.87710E+01 1.67254E-01-7.49950E-02 8.37634E-01-1.30972E-15-8.35554E-13
 -1      1179 3.58804E+01 3.25209E-01 6.92493E-01 4.31025E-01-4.08042E-14-1.06726E-12
 -1      1180 3.74293E+01 1.66068E-01 5.69234E-01 2.58884E-02 3.27412E-14-7.16621E-13
 -1      1181 3.47780E+01 2.47666E-02 1.85961E-01-1.39343E-01 1.43414E-14-5.03958E-13
 -1      1182 3.09702E+01-3.82049E-02-4.46874E-02-1.42930E-01 4.81882E-14-9.58400E-14
 -1      1183 2.76098E+01-5.20645E-02-1.12101E-01-1.01877E-01 2.36703E-15 4.88776E-14
 -1      1184 2.51472E+01-4.89176E-02-1.06267E-01-6.08993E-02-1.36952E-14 2.75197E-14
 -1      1185 2.34338E+01-3.58319E-02-7.74359E-02-3.81835E-02 2.79737E-14-5.19723E-14
 -1      1186 2.22464E+01-2.58362E-02-5.20502E-02-2.12258E-02 2.79074E-14-2.46261E-13
 -1      1187 2.14642E+01-1.79290E-02-3.36523E-02-1.16012E-02 5.72545E-15 1.71183E-14
 -1      1188 2.09513E+01-1.22318E-02-2.15325E-02-6.22117E-03 3.34390E-15-1.36655E-13
 -1      1189 2.06150E+01-8.28917E-03-1.37989E-02-3.25488E-03 3.14943E-14-8.41605E-14
 -1      1190 2.03940E+01-5.61323E-03-8.90412E-03-1.63462E-03-1.60193E-14-1.23806E-13
 -1      1191 2.02484E+01-3.81168E-03-5.79841E-03-7.56960E-04-2.60469E-15-7.65226E-13
 -1      1192 2.01524E+01-2.60000E-03-3.81253E-03-2.87026E-04 6.73734E-14-5.83803E-13
 -1      1193 2.00892E+01-1.78202E-03-2.52893E-03-4.05405E-05-5.59164E-15-4.54110E-13
 -1      1194 2.00480E+01-1.22607E-03-1.68872E-03 8.35507E-05-4.66173E-14-1.46722E-13
 -1      1195 2.00215E+01-8.45056E-04-1.13131E-03 1.40639E-04-3.15701E-14 1.36435E-13
 -1      1196 2.00049E+01-5.81645E-04-7.56675E-04 1.61159E-04-1.51478E-14 2.38600E-14
 -1      1197 1.99949E+01-3.98116E-04-5.02045E-04 1.61929E-04 4.67606E-14-1.33504E-14
 -1      1198 1.99894E+01-2.69529E-04-3.27534E-04 1.52350E-04 4.52525E-14 1.85935E-13
 -1      1199 1.99869E+01-1.78832E-04-2.07318E-04 1.37749E-04 4.42840E-14 3.59887E-14
 -1      1200 1.99861E+01-1.12055E-04-1.23940E-04 1.20888E-04-2.93789E-14-3.20800E-13
 -1      1201 1.99865E+01-7.73577E-05-7.06105E-05 1.06906E-04-3.80717E-14-4.70621E-13
 -1      1202 1.99876E+01-4.25318E-05-3.35918E-05 8.91030E-05-9.24335E-14-7.72792E-13
 -1      1203 1.99890E+01-2.12212E-05-8.27062E-06 7.37310E-05-3.85637E-14-4.29900E-13
 -1      1204 1.99905E+01-7.34132E-06 7.20943E-06 6.03632E-05 2.97512E-14 1.21242E-14
 -1      1205 1.99921E+01 1.41352E-06 1.60969E-05 4.87330E-05-9.58407E-14-1.06034E-13
 -1      1206 1.99935E+01 6.57314E-06 2.04745E-05 3.88016E-05 1.81194E-14-8.51282E-13
 -1      1207 1.99947E+01 9.25579E-06 2.18447E-05 3.04821E-05 8.98929E-14-4.07610E-13
 -1      1208 1.99958E+01 1.02825E-05 2.12991E-05 2.36412E-05 5.12188E-14 2.38109E-13
 -1      1209 1.99967E+01 1.02539E-05 1.96250E-05 1.81215E-05 3.46119E-14 8.64516E-14
 -1      1210 1.99975E+01 9.60774E-06 1.73881E-05 1.37564E-05 4.41814E-14 4.39762E-13
 -1      1211 1.99981E+01 8.66461E-06 1.50005E-05 1.03790E-05 3.84643E-14 4.87738E-13
 -1      1212 1.99986E+01 7.66309E-06 1.27810E-05 7.82151E-06-4.29099E-14-2.52751E-13
 -1      1213 1.99990E+01 6.78450E-06 1.10135E-05 5.90617E-06-1.65013E-14-7.13169E-13
 -1      1214 1.99993E+01 6.17267E-06 9.98750E-06 4.42420E-06 5.75631E-14-8.41553E-13
 -1      1215 1.99996E+01 5.91948E-06 9.93221E-06 3.03793E-06 2.98939E-14 4.42585E-14
 -1      1216 1.99997E+01 5.91169E-06 1.02498E-05 1.12566E-06 2.56020E-14 2.68983E-13
 -1      1217 1.99998E+01 4.49290E-06 7.06981E-06-2.24849E-06-6.17133E-14 7.46906E-13
 -1      1218 1.99998E+01 3.93329E-06-7.06677E-06-5.90424E-06 6.17531E-14 5.18926E-13
 -1      1219 2.84963E+01 5.57592E-01 4.81016E-01 2.07885E+00-3.25920E-14 2.90445E-12
 -1      1220 1.97857E+01-5.66873E-02-5.85317E-01 1.46244E-01 2.17465E-14 2.34288E-12
 -1      1221 1.79956E+01-3.29815E-02-1.89231E-01 2.52477E-02-8.49147E-16 1.82425E-12
 -1      1222 1.69660E+01-1.75147E-02-3.98864E-02 1.09299E-02 1.56342E-14 1.42407E-12
 -1      1223 1.61744E+01-1.62139E-02-1.09431E-02 1.30769E-02 9.58738E-15 1.14590E-12
 -1      1224 1.55303E+01-2.00712E-02-1.80355E-02 1.86456E-02-3.81726E-15 9.54659E-13
 -1      1225 1.50751E+01-2.51185E-02-3.21414E-02 2.12523E-02-7.55602E-15 7.94706E-13
 -1      1226 1.48903E+01-2.75058E-02-4.23644E-02 1.84514E-02 2.02269E-15 6.82970E-13
 -1      1227 1.50355E+01-2.53551E-02-4.40346E-02 1.03698E-02 2.28550E-15 5.00690E-13
 -1      1228 1.55108E+01-1.88926E-02-3.64565E-02-8.24132E-04-8.04782E-15 4.54959E-13
 -1      1229 1.62489E+01-1.00097E-02-2.23031E-02-1.19395E-02-3.36233E-15 3.91676E-13
 -1      1230 1.71335E+01-1.41335E-03-6.00238E-03-2.00789E-02 1.17446E-14 1.93526E-13
 -1      1231 1.80373E+01 4.90195E-03 1.04719E-02-2.41231E-02 1.01179E-14 4.00409E-14
 -1      1232 1.88647E+01 1.92454E-02 3.94074E-02-3.34661E-02-3.44915E-14 1.42275E-13
 -1      1233 1.93824E+01 9.79475E-03 1.93168E-02-1.85820E-02 2.39897E-14 6.65128E-14
 -1      1234 1.98215E+01 8.92132E-03 1.80664E-02-1.39626E-02-2.66355E-14-1.09780E-13
 -1      1235 2.01028E+01 7.17351E-03 1.46926E-02-9.38821E-03 5.42188E-15-9.89339E-14
 -1      1236 2.02565E+01 5.19775E-03 1.06600E-02-5.54792E-03 3.35084E-15-1.17191E-13
 -1      1237 2.03178E+01 3.39262E-03 6.91596E-03-2.69523E-03-8.99904E-15-1.34424E-13
 -1      1238 2.03189E+01 1.94330E-03 3.91457E-03-7.96412E-04-2.30022E-14 4.22468E-14
 -1      1239 2.02857E+01 8.89866E-04 1.76041E-03 3.24064E-04-3.68299E-14 2.13019E-13
 -1      1240 2.02370E+01 1.91984E-04 3.64096E-04 8.80165E-04 9.71823E-15 1.71161E-13
 -1      1241 2.01848E+01-2.23820E-04-4.41207E-04 1.06691E-03 1.42196E-14-9.22350E-14
 -1      1242 2.01363E+01-4.35502E-04-8.29806E-04 1.03713E-03 3.09058E-14-4.99731E-13
 -1      1243 2.00949E+01-5.11149E-04-9.50074E-04 8.98515E-04-5.63760E-14-2.31097E-13
 -1      1244 2.00617E+01-5.03869E-04-9.14122E-04 7.20246E-04 1.99067E-14-8.12707E-15
 -1      1245 2.00364E+01-4.51793E-04-7.99494E-04 5.42549E-04-2.33562E-14-2.45887E-13
 -1      1246 2.00180E+01-3.80371E-04-6.55720E-04 3.85813E-04-5.74594E-14-1.56722E-13
 -1      1247 2.00054E+01-3.05346E-04-5.11793E-04 2.57903E-04-2.42609E-15-1.85768E-13
 -1      1248 1.99973E+01-2.35550E-04-3.82748E-04 1.59456E-04 3.23238E-14-1.95430E-13
 -1      1249 1.99924E+01-1.75207E-04-2.74776E-04 8.74276E-05 4.68070E-14-2.34396E-13
 -1      1250 1.99899E+01-1.25665E-04-1.88869E-04 3.72848E-05-4.81893E-14-2.80037E-14
 -1      1251 1.99891E+01-8.66116E-05-1.23264E-04 4.27379E-06 4.71715E-14-1.84454E-13
 -1      1252 1.99893E+01-5.68873E-05-7.49810E-05-1.59352E-05 8.66515E-15-7.10447E-13
 -1      1253 1.99901E+01-3.49989E-05-4.07275E-05-2.69780E-05-1.18369E-14-4.21987E-13
 -1      1254 1.99912E+01-1.94171E-05-1.73898E-05-3.17421E-05 1.18324E-14-5.85275E-13
 -1      1255 1.99924E+01-8.73774E-06-2.25842E-06-3.24230E-05-3.42482E-14-8.39977E-13
 -1      1256 1.99937E+01-1.75233E-06 6.89885E-06-3.06287E-05 2.55580E-14-2.30366E-13
 -1      1257 1.99948E+01 2.53343E-06 1.18493E-05-2.74957E-05 4.88660E-14-1.03693E-13
 -1      1258 1.99959E+01 4.91132E-06 1.39495E-05-2.37980E-05 4.47497E-14-3.40225E-13
 -1      1259 1.99967E+01 5.99703E-06 1.42157E-05-2.00417E-05-6.64831E-14-2.45113E-13
 -1      1260 1.99975E+01 6.26253E-06 1.33974E-05-1.65413E-05 4.22391E-14-9.84313E-14
 -1      1261 1.99981E+01 6.06957E-06 1.20482E-05-1.34796E-05-3.20918E-14-2.48588E-13
 -1      1262 1.99986E+01 5.70166E-06 1.05971E-05-1.09509E-05 3.58132E-14-5.72265E-13
 -1      1263 1.99990E+01 5.39235E-06 9.42272E-06-8.98455E-06-1.08755E-13-7.74021E-13
 -1      1264 1.99993E+01 5.32847E-06 8.90711E-06-7.53135E-06 4.60555E-14-8.94294E-13
 -1      1265 1.99996E+01 5.60511E-06 9.35689E-06-6.40699E-06-1.48817E-14-1.29267E-12
 -1      1266 1.99997E+01 5.88916E-06 1.01857E-05-4.87689E-06-4.52274E-15-1.16447E-12
 -1      1267 1.99998E+01 3.93486E-06 6.96443E-06-1.12495E-06 1.27986E-13-1.50661E-12
 -1      1268 1.99998E+01-3.52921E-06-9.15388E-06 3.62624E-06 4.35303E-14-1.18512E-12
 -1      1269 1.99998E+01 1.05779E-05-8.52107E-06 3.57960E-06-1.25000E-12-5.03237E-14
 -1      1270 1.99998E+01 1.23720E-05 7.72528E-06 3.50595E-06-1.91527E-12 9.38094E-14
 -1      1271 1.99998E+01-6.49994E-05 9.77509E-06-2.27205E-06-1.41008E-12 3.39239E-14
 -1      1272 1.99998E+01-2.11226E-04 5.30572E-06-5.16564E-06-7.97734E-13-4.68569E-14
 -1      1273 1.99998E+01-3.91066E-04 1.65097E-07-6.02781E-06-5.50147E-13-5.68337E-14
 -1      1274 1.99998E+01-5.69417E-04-4.25553E-06-5.54791E-06-1.79309E-12-2.47720E-13
 -1      1275 1.99998E+01-7.18966E-04-7.55932E-06-4.24341E-06-1.90929E-12-2.36052E-14
 -1      1276 1.99998E+01-8.18693E-04-9.65090E-06-2.25391E-06-9.97982E-13-1.29557E-13
 -1      1277 1.99998E+01-8.53031E-04-1.03526E-05 2.99860E-08-3.28464E-13 9.02173E-14
 -1      1278 1.99998E+01-8.17260E-04-9.63188E-06 2.31368E-06 2.63058E-13 9.05563E-14
 -1      1279 1.99998E+01-7.16232E-04-7.50590E-06 4.29239E-06 8.64598E-14-1.44205E-13
 -1      1280 1.99998E+01-5.65599E-04-4.15258E-06 5.66354E-06-6.71879E-13 8.54827E-14
 -1      1281 1.99998E+01-3.86750E-04 2.99996E-07 6.05284E-06 4.07240E-14-5.17002E-14
 -1      1282 1.99998E+01-2.07182E-04 5.38716E-06 5.07617E-06-2.52193E-13-4.73975E-15
 -1      1283 1.99998E+01-6.29340E-05 9.23642E-06 1.80673E-06-3.88592E-13 1.57842E-13
 -1      1284 1.99998E+01 1.46088E-05 7.70141E-06-4.71754E-06-1.27223E-12 1.20672E-13
 -1      1285 1.99998E+01 1.17695E-05-6.64843E-06-5.56620E-06-5.08109E-13 1.02522E-13
 -1      1286-1.13925E+00-2.42997E+01-3.67677E+00-2.09352E+00 2.48246E-13 2.33688E-13
 -1      1287-1.41480E+00-1.29862E+01-2.78887E+00-3.31807E+00 2.05036E-12 8.22009E-13
 -1      1288 1.60469E+00 7.34879E-01-1.53955E+00 1.70085E+00 3.05711E-12 1.95632E-12
 -1      1289 1.24130E+01 1.05843E+01 1.97843E-01 1.11667E+01 2.98450E-12 2.95830E-12
 -1      1290 3.06305E+01 1.27860E+01 2.01275E+00 1.86658E+01 2.09888E-12 2.95297E-12
 -1      1291 5.13069E+01 8.63027E+00 3.29917E+00 1.87889E+01 8.82627E-13 1.97153E-12
 -1      1292 6.70624E+01 3.08626E+00 4.09360E+00 1.01675E+01 2.33827E-13 8.29892E-13
 -1      1293 6.95249E+01 1.96178E+00 4.08173E+00-3.52602E+00 1.64563E-13-8.25229E-13
 -1      1294 5.94813E+01 5.38627E+00 3.48188E+00-1.52782E+01 7.05019E-13-2.32381E-12
 -1      1295 4.08339E+01 1.06410E+01 2.31132E+00-1.96415E+01 1.64713E-12-3.07576E-12
 -1      1296 2.11927E+01 1.24762E+01 8.61826E-01-1.57874E+01 2.60880E-12-3.14904E-12
 -1      1297 6.96986E+00 7.62631E+00-5.40157E-01-7.25409E+00 3.16347E-12-2.57128E-12
 -1      1298 1.51582E-01-3.14945E+00-1.88022E+00 2.44227E-01 3.07598E-12-1.60871E-12
 -1      1299-1.27709E+00-1.55025E+01-2.88084E+00 2.77499E+00 2.11120E-12-6.71824E-13
 -1      1300-8.37857E-01-2.44564E+01-3.66205E+00 3.84670E-01 6.13121E-13-1.45217E-13
 -1      1301-1.69589E+00-2.46123E+01-3.93164E+00-4.35109E+00-1.11527E-12-3.56028E-13
 -1      1302-3.10275E+00-1.64489E+01-3.77337E+00-6.11070E+00-2.63745E-12-1.25921E-12
 -1      1303-4.94384E-01-3.97384E+00-2.83799E+00-1.22977E+00-3.39417E-12-2.54796E-12
 -1      1304 1.10296E+01 6.20991E+00-1.09482E+00 8.32320E+00-3.35953E-12-3.73102E-12
 -1      1305 3.27132E+01 9.85566E+00 1.39483E+00 1.71274E+01-2.50266E-12-4.14069E-12
 -1      1306 5.96860E+01 7.40079E+00 4.32937E+00 1.86642E+01-1.36580E-12-3.76277E-12
 -1      1307 8.04287E+01 3.34748E+00 6.55153E+00 9.43777E+00-4.29753E-13-2.35600E-12
 -1      1308 8.37747E+01 2.57358E+00 6.89058E+00-5.66666E+00-1.51282E-13-1.94400E-13
 -1      1309 6.77555E+01 6.20888E+00 5.21434E+00-1.72117E+01-6.91947E-13 1.89937E-12
 -1      1310 4.19304E+01 9.98901E+00 2.53684E+00-1.91792E+01-1.72418E-12 3.34754E-12
 -1      1311 1.79382E+01 8.87453E+00-1.24880E-01-1.23708E+01-2.72737E-12 3.41860E-12
 -1      1312 2.86472E+00 8.84507E-01-2.07566E+00-2.30789E+00-3.30491E-12 2.83640E-12
 -1      1313-2.73269E+00-1.13021E+01-3.31224E+00 4.81709E+00-3.41016E-12 1.83153E-12
 -1      1314-2.56484E+00-2.21355E+01-3.89904E+00 5.99589E+00-3.27749E-12 1.06165E-12
 -1      1315-1.21363E+00-2.76875E+01-4.08255E+00 2.58522E+00-1.85912E-12 3.40339E-13
 -1      1316 2.89538E+01 2.14128E+00-7.01259E-01-1.79245E+00-3.39173E-14 1.55545E-12
 -1      1317 2.33457E+01 5.04880E+00-7.84337E-02-1.10453E+00-1.51518E-13 2.94743E-13
 -1      1318 2.56434E+01 5.60182E+00 7.01011E-02-2.16010E+00-1.82743E-13 6.14814E-13
 -1      1319 1.90357E+01 5.22841E+00-1.11583E-01-6.01633E-01-1.70419E-13-2.03244E-13
 -1      1320 2.10853E+01 5.80571E+00 6.56924E-02-8.32238E-01-1.88821E-13 2.16493E-14
 -1      1321 2.26878E+01 4.52896E+00 2.88434E-03-9.08471E-01-2.59945E-13 2.44582E-13
 -1      1322 1.58954E+01 5.16311E+00-1.17685E-01-8.95386E-01-1.67033E-13-4.93905E-13
 -1      1323 1.73118E+01 5.57877E+00-1.29834E-02-7.18074E-01-1.82854E-13-3.59866E-13
 -1      1324 1.82228E+01 5.24127E+00-2.37815E-02-7.41566E-01-2.71630E-13-1.90344E-13
 -1      1325 1.43411E+01 5.05565E+00-8.64354E-02-1.63325E+00-1.69025E-13-6.39747E-13
 -1      1326 1.49126E+01 5.23076E+00-7.37375E-02-1.29207E+00-1.80522E-13-5.76552E-13
 -1      1327 1.52126E+01 5.48934E+00-2.81930E-02-1.20502E+00-2.79964E-13-4.44918E-13
 -1      1328 1.44003E+01 4.92387E+00-3.20800E-02-2.32054E+00-1.60594E-13-6.94663E-13
 -1      1329 1.41857E+01 4.86922E+00-9.88378E-02-2.05116E+00-1.74832E-13-6.67313E-13
 -1      1330 1.40252E+01 5.33641E+00-2.77535E-02-1.95797E+00-2.82301E-13-5.61322E-13
 -1      1331 1.56120E+01 4.79232E+00 2.03284E-02-2.59812E+00-1.51143E-13-6.91580E-13
 -1      1332 1.48882E+01 4.59023E+00-8.38623E-02-2.54428E+00-1.56833E-13-6.93637E-13
 -1      1333 1.45066E+01 4.88476E+00-3.20881E-02-2.53026E+00-2.69489E-13-5.91587E-13
 -1      1334 1.72705E+01 4.72635E+00 5.19398E-02-2.32225E+00-1.19349E-13-6.59573E-13
 -1      1335 1.64125E+01 4.48268E+00-4.02034E-02-2.52022E+00-1.31103E-13-6.70134E-13
 -1      1336 1.60647E+01 4.36775E+00-3.26481E-02-2.60016E+00-2.39603E-13-5.68942E-13
 -1      1337 1.87710E+01 4.75894E+00 6.02794E-02-1.60233E+00-7.75213E-14-6.34492E-13
 -1      1338 1.80554E+01 4.55373E+00 6.26455E-03-1.98660E+00-8.99558E-14-6.43947E-13
 -1      1339 1.79046E+01 4.01684E+00-2.72209E-02-2.12940E+00-1.76560E-13-5.34864E-13
 -1      1340 1.98040E+01 4.86768E+00 5.37464E-02-6.48084E-01-3.10585E-14-6.16597E-13
 -1      1341 1.93486E+01 4.73472E+00 3.76378E-02-1.12245E+00-4.40481E-14-6.22891E-13
 -1      1342 1.94324E+01 3.91416E+00-1.84718E-02-1.29332E+00-1.04926E-13-5.04482E-13
 -1      1343 2.03260E+01 4.99889E+00 4.11369E-02 3.55009E-01 8.46545E-15-5.83242E-13
 -1      1344 2.01241E+01 4.93673E+00 4.94829E-02-1.31252E-01-1.40166E-15-5.99566E-13
 -1      1345 2.03930E+01 4.00236E+00-1.20624E-02-3.10502E-01-3.26215E-14-4.79297E-13
 -1      1346 2.04471E+01 5.10416E+00 2.81942E-02 1.28355E+00 6.32437E-14-5.32019E-13
 -1      1347 2.04276E+01 5.09314E+00 4.65143E-02 8.35443E-01 4.52138E-14-5.59504E-13
 -1      1348 2.08050E+01 4.16768E+00-1.04141E-02 6.54128E-01 4.37705E-14-4.39988E-13
 -1      1349 2.03387E+01 5.16646E+00 1.60301E-02 2.13431E+00 1.24767E-13-4.46955E-13
 -1      1350 2.04124E+01 5.17895E+00 3.51372E-02 1.71999E+00 1.00226E-13-4.95538E-13
 -1      1351 2.08327E+01 4.31611E+00-1.28001E-02 1.53824E+00 1.35459E-13-3.82271E-13
 -1      1352 2.01966E+01 5.18728E+00 2.86412E-03 2.90781E+00 1.80638E-13-2.89400E-13
 -1      1353 2.02571E+01 5.18927E+00 1.64993E-02 2.52062E+00 1.55342E-13-3.89543E-13
 -1      1354 2.06767E+01 4.38741E+00-1.88765E-02 2.33855E+00 2.29456E-13-2.91038E-13
 -1      1355 2.03017E+01 5.18303E+00-1.20627E-02 3.67073E+00 2.22641E-13 3.31332E-14
 -1      1356 2.01905E+01 5.12003E+00-1.25703E-02 3.25989E+00 1.95094E-13-1.62873E-13
 -1      1357 2.05803E+01 4.32881E+00-2.78211E-02 3.07640E+00 3.01097E-13-9.72833E-14
 -1      1358 2.13020E+01 5.03786E+00-1.32021E-02 4.59427E+00 2.07057E-13 6.77014E-13
 -1      1359 2.06241E+01 4.87908E+00-5.46855E-02 3.98813E+00 1.94927E-13 2.84869E-13
 -1      1360 2.09366E+01 3.99430E+00-3.17030E-02 3.77090E+00 3.37778E-13 2.76945E-13
 -1      1361 2.77254E+01 3.33591E+00 9.95733E-01 4.97239E+00 1.04972E-13 1.93157E-12
 -1      1362 2.22053E+01 3.64523E+00-1.97329E-01 4.34321E+00 1.03528E-13 1.05738E-12
 -1      1363 2.22513E+01 2.65656E+00-4.82266E-02 3.99036E+00 3.41130E-13 8.61311E-13
 -1      1364 2.14330E+01 3.92291E-01-8.00683E-01 1.42743E+00 1.88564E-13 1.86640E-12
 -1      1365 2.99873E+01 2.02761E-01-3.65687E-01-1.49335E-01-1.15102E-13 1.61711E-12
 -1      1366 2.99747E+01 3.25449E-01-1.43375E-01 2.55487E-01-1.15616E-13 1.48122E-12
 -1      1367 3.01171E+01 2.36930E-01-8.29071E-02 8.40734E-01-6.55795E-14 1.44397E-12
 -1      1368 3.12297E+01 1.17235E-01-5.19512E-03 9.46324E-01-6.16625E-14 1.34023E-12
 -1      1369 2.86210E+01 4.82280E-01-1.05843E-01 8.95859E-01-1.71578E-13 9.33384E-13
 -1      1370 3.18537E+01 3.63479E-02 2.28740E-02 1.12282E+00 2.61900E-14 1.35481E-12
 -1      1371 3.31346E+01-1.29839E-01 7.94500E-02 1.10647E+00 3.28522E-14 1.36857E-12
 -1      1372 2.92913E+01 7.82302E-02-4.09634E-02 1.89656E+00-3.46181E-14 9.24039E-13
 -1      1373 3.39416E+01-3.34871E-01 1.38132E-01 6.21622E-01 1.04791E-13 1.42385E-12
 -1      1374 3.42394E+01-5.39374E-01 1.66508E-01 3.53149E-01 9.79911E-14 1.54475E-12
 -1      1375 3.07898E+01-5.42857E-01 4.28152E-02 1.64009E+00 1.27925E-13 9.86301E-13
 -1      1376 3.47975E+01-7.93918E-01 2.36160E-01-1.01299E+00 1.34323E-13 1.62076E-12
 -1      1377 3.27591E+01-7.98462E-01 7.60670E-02-1.58112E+00 5.89598E-14 1.72723E-12
 -1      1378 3.23555E+01-1.38981E+00 1.04271E-01-4.24682E-01 2.18381E-13 1.11162E-12
 -1      1379 3.25703E+01-6.76541E-01 2.38529E-02-2.93729E+00-2.91572E-14 1.75016E-12
 -1      1380 2.87905E+01-1.91035E-01-3.50437E-01-3.18489E+00-1.09773E-13 1.66950E-12
 -1      1381 3.30933E+01-1.43622E+00 3.81874E-02-3.70344E+00 3.94615E-14 1.19562E-12
 -1      1382 2.35627E+01 1.10888E+00-9.51250E-01-3.30621E-01-4.39759E-13 9.60787E-13
 -1      1383 2.36531E+01 1.08740E+00-9.31643E-01 4.68293E-01-4.68792E-13 3.87662E-13
 -1      1384 2.42147E+01 7.81770E-01-8.37325E-01 2.32939E+00-3.68983E-13 8.52929E-14
 -1      1385 2.72632E+01 3.25895E-01-5.09672E-01 2.66735E+00-3.06144E-13-3.47000E-13
 -1      1386 2.98501E+01 1.85342E+00-5.00479E-01 2.41489E+00-7.95919E-13 1.33176E-13
 -1      1387 2.83693E+01-1.29346E-01-3.25060E-01 2.88294E+00-1.76248E-13-5.81923E-13
 -1      1388 3.20848E+01-5.25117E-01 3.02660E-02 2.64274E+00-1.23838E-13-8.07354E-13
 -1      1389 3.12838E+01 1.87425E-01-2.48711E-01 4.89744E+00-4.65350E-13-3.82156E-13
 -1      1390 3.27411E+01-5.79057E-01 1.24373E-01 1.38789E+00-1.03459E-14-8.16014E-13
 -1      1391 3.47461E+01-6.24878E-01 2.54445E-01 9.10828E-01 1.02328E-13-7.82152E-13
 -1      1392 3.26352E+01-1.07970E+00 4.44701E-02 3.46011E+00-1.11008E-13-7.07524E-13
 -1      1393 3.43001E+01-4.33224E-01 1.96110E-01-3.54586E-01 8.79921E-14-6.95000E-13
 -1      1394 3.39085E+01-2.57945E-01 1.58872E-01-6.31257E-01 7.67823E-14-5.75623E-13
 -1      1395 3.24320E+01-1.06612E+00 1.28579E-01 3.34389E-01 1.25552E-13-6.10886E-13
 -1      1396 3.28278E+01-1.60696E-01 7.98109E-02-1.14988E+00 8.52495E-14-4.61173E-13
 -1      1397 3.12443E+01 1.17083E-03 2.92137E-02-1.20393E+00 1.25861E-13-3.09239E-13
 -1      1398 3.07583E+01-4.50017E-01 7.04134E-02-1.73248E+00 1.25171E-13-3.89556E-13
 -1      1399 3.00510E+01 4.35375E-03-5.26317E-03-1.20573E+00 1.70735E-13-2.09430E-13
 -1      1400 2.83396E+01 8.93915E-02-2.78281E-02-1.16719E+00 1.12214E-13-4.37705E-14
 -1      1401 2.85146E+01-2.14397E-02 4.70467E-03-2.28973E+00 2.27350E-13-1.75693E-13
 -1      1402 2.72888E+01 6.29908E-02-2.99518E-02-9.77814E-01 1.18638E-14 2.86576E-14
 -1      1403 2.58907E+01 9.52123E-02-3.34564E-02-9.20342E-01 6.77236E-15 2.29816E-14
 -1      1404 2.63525E+01 1.36077E-01-2.28409E-02-2.04352E+00 1.23560E-13-5.34260E-14
 -1      1405 2.51058E+01 7.05545E-02-2.47710E-02-7.19641E-01 1.54338E-14 6.77930E-14
 -1      1406 2.41222E+01 7.57249E-02-2.48913E-02-6.72777E-01 5.09575E-15 3.96697E-14
 -1      1407 2.45964E+01 1.53613E-01-2.59535E-02-1.57443E+00 4.21937E-14-9.96078E-15
 -1      1408 2.35016E+01 5.65234E-02-1.59605E-02-4.99645E-01 2.06779E-15-2.53270E-14
 -1      1409 2.27846E+01 5.39445E-02-1.48845E-02-4.62526E-01-5.81757E-14-5.42587E-14
 -1      1410 2.32538E+01 1.27088E-01-1.80958E-02-1.13182E+00-3.13864E-14 5.45345E-14
 -1      1411 2.23472E+01 4.14390E-02-8.03373E-03-3.36139E-01-6.93421E-14-6.43409E-14
 -1      1412 2.18665E+01 3.61951E-02-7.99484E-03-3.10805E-01 5.35951E-14-1.78389E-13
 -1      1413 2.22470E+01 9.12452E-02-1.18553E-02-7.76320E-01-9.11198E-14-8.97004E-14
 -1      1414 2.15627E+01 2.88355E-02-3.53991E-03-2.23738E-01 1.23682E-13-1.13844E-13
 -1      1415 2.12444E+01 2.37535E-02-4.12422E-03-2.06866E-01-4.61588E-14-2.04264E-14
 -1      1416 2.15371E+01 6.19201E-02-7.39065E-03-5.22563E-01 1.38033E-13-4.16341E-14
 -1      1417 2.10359E+01 1.95796E-02-1.32864E-03-1.48438E-01-2.75583E-14-6.77557E-14
 -1      1418 2.08260E+01 1.54582E-02-2.08602E-03-1.37322E-01-1.94983E-15-7.54587E-14
 -1      1419 2.10448E+01 4.09589E-02-4.60882E-03-3.49051E-01-2.35229E-14-4.93139E-15
 -1      1420 2.06836E+01 1.31634E-02-3.41352E-04-9.85351E-02 2.64626E-14-2.67464E-14
 -1      1421 2.05451E+01 1.00545E-02-1.04049E-03-9.12245E-02 1.35018E-14-6.65472E-15
 -1      1422 2.07063E+01 2.68159E-02-2.92688E-03-2.32706E-01 8.39628E-14 3.52010E-14
 -1      1423 2.04481E+01 8.83457E-03 5.67096E-05-6.55353E-02-1.42612E-13-4.33771E-14
 -1      1424 2.03566E+01 6.56516E-03-5.08400E-04-6.07102E-02-1.96128E-13-2.94971E-13
 -1      1425 2.04744E+01 1.75279E-02-1.89935E-03-1.55261E-01-1.21869E-13 2.62366E-15
 -1      1426 2.02904E+01 5.94731E-03 1.89897E-04-4.36518E-02-6.79769E-14-4.13462E-13
 -1      1427 2.02299E+01 4.31268E-03-2.38399E-04-4.04465E-02 3.60217E-14-4.85619E-13
 -1      1428 2.03157E+01 1.14948E-02-1.25698E-03-1.03730E-01-2.33617E-13-1.38324E-13
 -1      1429 2.01849E+01 4.02599E-03 2.11766E-04-2.90606E-02 1.16619E-13-3.99342E-13
 -1      1430 2.01448E+01 2.85156E-03-1.02093E-04-2.69148E-02 4.75649E-14-3.01254E-13
 -1      1431 2.02073E+01 7.58280E-03-8.45578E-04-6.93194E-02 1.71334E-13-1.20742E-13
 -1      1432 2.01143E+01 2.74301E-03 1.91775E-04-1.92691E-02-5.49504E-14-2.45886E-13
 -1      1433 2.00879E+01 1.89598E-03-3.40797E-05-1.78217E-02-5.60576E-15-2.32526E-13
 -1      1434 2.01333E+01 5.03598E-03-5.76187E-04-4.62157E-02 2.10108E-15-2.17176E-13
 -1      1435 2.00672E+01 1.88007E-03 1.59977E-04-1.26594E-02 8.45910E-14-1.44099E-13
 -1      1436 2.00501E+01 1.26468E-03-9.21116E-07-1.16773E-02 2.79066E-14-1.53048E-14
 -1      1437 2.00830E+01 3.36503E-03-3.96228E-04-3.06140E-02 1.35204E-13-3.87928E-14
 -1      1438 2.00363E+01 1.29411E-03 1.28454E-04-8.17899E-03 4.00610E-14 1.17982E-13
 -1      1439 2.00253E+01 8.43093E-04 1.45060E-05-7.51057E-03 8.80695E-14 2.24325E-13
 -1      1440 2.00491E+01 2.25774E-03-2.73832E-04-2.00283E-02 1.20203E-13 1.41012E-13
 -1      1441 2.00162E+01 8.92084E-04 1.01318E-04-5.13857E-03-6.50399E-14 1.14174E-13
 -1      1442 2.00094E+01 5.58716E-04 2.09542E-05-4.68395E-03-1.18748E-13-1.04100E-14
 -1      1443 2.00265E+01 1.51590E-03-1.89273E-04-1.28284E-02-6.01716E-14 1.64630E-13
 -1      1444 2.00036E+01 6.13497E-04 7.93312E-05-3.08175E-03-3.09473E-14 1.54237E-13
 -1      1445 1.99995E+01 3.65356E-04 2.28831E-05-2.77437E-03 6.98062E-14 1.80301E-13
 -1      1446 2.00117E+01 1.01368E-03-1.30116E-04-7.93651E-03 4.94570E-15 1.71451E-13
 -1      1447 1.99960E+01 4.18858E-04 6.19997E-05-1.70249E-03 5.12798E-14 1.34656E-13
 -1      1448 1.99938E+01 2.33293E-04 2.25800E-05-1.49725E-03-8.61325E-14 1.81898E-13
 -1      1449 2.00024E+01 6.70731E-04-8.83652E-05-4.63196E-03 5.09571E-14 1.76688E-13
 -1      1450 1.99917E+01 2.81856E-04 4.84702E-05-7.92662E-04-1.90348E-13 8.03633E-14
 -1      1451 1.99908E+01 1.43577E-04 2.15386E-05-6.58974E-04-1.90379E-13-1.53115E-13
 -1      1452 1.99968E+01 4.35075E-04-5.87691E-05-2.42644E-03-1.87240E-13-4.68540E-14
 -1      1453 1.99898E+01 1.82644E-04 3.68639E-05-2.07771E-04-8.59292E-14-2.63731E-13
 -1      1454 1.99896E+01 8.52426E-05 2.03643E-05-1.24738E-04-7.55100E-14-4.29476E-13
 -1      1455 1.99936E+01 2.75785E-04-3.70864E-05-9.84637E-04-2.15190E-13-6.07139E-14
 -1      1456 1.99892E+01 1.17515E-04 2.84513E-05 1.41647E-04-5.26153E-15-4.93858E-13
 -1      1457 1.99895E+01 4.72302E-05 1.80650E-05 1.87543E-04-4.85514E-14-4.08576E-13
 -1      1458 1.99922E+01 1.57262E-04-2.47599E-05-8.57673E-05-1.55478E-13-4.83045E-13
 -1      1459 1.99896E+01 7.11099E-05 2.28377E-05 3.47789E-04-2.34079E-13-4.56627E-13
 -1      1460 1.99901E+01 1.49651E-05 1.49991E-05 3.75808E-04-1.39553E-13-6.27103E-13
 -1      1461 1.99918E+01 9.26183E-05-1.27905E-05 4.52305E-04-1.67047E-13-5.23510E-13
 -1      1462 1.99904E+01 4.03158E-05 1.83069E-05 4.52880E-04 6.97893E-14-4.97712E-13
 -1      1463 1.99911E+01-2.30112E-06 1.28275E-05 4.64834E-04 1.50416E-13-2.06077E-13
 -1      1464 1.99921E+01 3.92984E-05-6.27814E-06 7.59452E-04 3.62356E-14-4.21598E-13
 -1      1465 1.99915E+01 1.82420E-05 1.42021E-05 4.88148E-04 2.33456E-13-3.49418E-13
 -1      1466 1.99922E+01-1.25303E-05 1.08396E-05 4.89882E-04 1.14755E-13-9.35584E-14
 -1      1467 1.99927E+01 6.62778E-06-1.62765E-06 8.96811E-04 2.35921E-13-2.11402E-13
 -1      1468 1.99927E+01 3.89522E-06 1.09229E-05 4.79589E-04-2.93630E-13-1.65216E-13
 -1      1469 1.99934E+01-1.79258E-05 9.02391E-06 4.75049E-04-1.70884E-13-5.21282E-13
 -1      1470 1.99936E+01-1.34206E-05 1.28386E-06 9.24435E-04-2.13048E-13-3.87425E-13
 -1      1471 1.99939E+01-4.94766E-06 8.32058E-06 4.45217E-04 9.53203E-14-5.41861E-13
 -1      1472 1.99945E+01-2.00738E-05 7.40023E-06 4.37183E-04 1.80764E-13-4.55921E-13
 -1      1473 1.99945E+01-2.46524E-05 2.96461E-06 8.84626E-04-1.34275E-13-5.60093E-13
 -1      1474 1.99949E+01-9.93965E-06 6.26146E-06 3.97463E-04 8.51347E-14-3.44877E-13
 -1      1475 1.99955E+01-2.01254E-05 5.97460E-06 3.87830E-04 2.25557E-13-1.51332E-13
 -1      1476 1.99954E+01-2.98848E-05 3.79518E-06 8.06805E-04 2.37819E-13-2.02046E-13
 -1      1477 1.99959E+01-1.23008E-05 4.64013E-06 3.44650E-04 3.52589E-13-2.66513E-13
 -1      1478 1.99964E+01-1.89057E-05 4.74360E-06 3.34664E-04 1.58143E-13-2.31175E-15
 -1      1479 1.99962E+01-3.11680E-05 4.05558E-06 7.11009E-04 3.16095E-13-3.23788E-13
 -1      1480 1.99968E+01-1.29297E-05 3.37187E-06 2.92113E-04 7.57198E-14 1.31198E-13
 -1      1481 1.99972E+01-1.70007E-05 3.69734E-06 2.82550E-04 1.31936E-13 1.87724E-13
 -1      1482 1.99969E+01-2.99834E-05 3.95223E-06 6.10424E-04 1.18964E-13-1.71125E-13
 -1      1483 1.99975E+01-1.24872E-05 2.38809E-06 2.43026E-04 1.69744E-13 1.90262E-13
 -1      1484 1.99978E+01-1.48233E-05 2.82298E-06 2.34320E-04 9.70478E-14 4.50876E-13
 -1      1485 1.99976E+01-2.73957E-05 3.63615E-06 5.13261E-04 2.07455E-13 1.40630E-13
 -1      1486 1.99981E+01-1.14618E-05 1.63482E-06 1.99001E-04-1.15192E-13 3.11010E-13
 -1      1487 1.99984E+01-1.26657E-05 2.11023E-06 1.91336E-04-1.54073E-13 1.91404E-13
 -1      1488 1.99981E+01-2.41698E-05 3.21823E-06 4.24131E-04-5.58937E-14 2.98973E-13
 -1      1489 1.99986E+01-1.02252E-05 1.07519E-06 1.60507E-04-2.24003E-13-6.76155E-14
 -1      1490 1.99988E+01-1.07403E-05 1.56224E-06 1.53877E-04-2.01329E-13-3.83380E-13
 -1      1491 1.99986E+01-2.08655E-05 2.78333E-06 3.45028E-04-4.06648E-13 1.06575E-14
 -1      1492 1.99990E+01-9.07497E-06 7.00378E-07 1.27151E-04 2.70607E-14-4.85175E-13
 -1      1493 1.99991E+01-9.20631E-06 1.21486E-06 1.21394E-04 2.17978E-14-4.19149E-13
 -1      1494 1.99989E+01-1.79125E-05 2.40664E-06 2.75992E-04-2.25183E-13-4.95900E-14
 -1      1495 1.99993E+01-8.26376E-06 5.48879E-07 9.78541E-05-4.41443E-14-4.78206E-13
 -1      1496 1.99994E+01-8.18838E-06 1.14661E-06 9.26737E-05 2.66177E-13-1.94187E-13
 -1      1497 1.99992E+01-1.56701E-05 2.16952E-06 2.15567E-04-9.09285E-14 6.22719E-14
 -1      1498 1.99995E+01-8.08011E-06 6.91636E-07 7.09431E-05 4.01323E-13-2.13899E-13
 -1      1499 1.99996E+01-7.78360E-06 1.41844E-06 6.58448E-05 2.10204E-13 1.96450E-13
 -1      1500 1.99994E+01-1.44923E-05 2.15948E-06 1.61082E-04 4.76099E-13 1.03745E-13
 -1      1501 1.99997E+01-8.61803E-06 1.11859E-06 4.44160E-05 4.32374E-14 6.81554E-14
 -1      1502 1.99997E+01-7.78270E-06 1.52988E-06 3.88673E-05 7.02814E-14 2.70443E-13
 -1      1503 1.99996E+01-1.45926E-05 2.35452E-06 1.09006E-04 1.02365E-13 1.54933E-13
 -1      1504 1.99998E+01-8.45358E-06 1.21684E-06 1.76724E-05 6.01885E-14 5.33006E-13
 -1      1505 1.99998E+01-8.16604E-06-1.32248E-06 1.16651E-05 1.21153E-13 8.28317E-13
 -1      1506 1.99997E+01-1.52866E-05 2.24152E-06 5.71770E-05 2.12300E-13 2.07960E-13
 -1      1507 1.99998E+01-6.63578E-06-1.08402E-06-3.77356E-07 1.09453E-14 7.51344E-13
 -1      1508 1.99998E+01-3.61329E-06-7.61755E-06-1.45044E-07-2.85262E-13 3.62237E-13
 -1      1509 1.99998E+01 1.09338E-06-2.94900E-07-3.72600E-07-7.11368E-13 5.29682E-13
 -1      1510 1.99998E+01-1.43605E-05 6.66546E-07 1.77791E-05-5.72474E-14 9.24719E-13
 -1      1511 1.98010E+01 7.45669E-02-1.63078E-01 6.86810E-01 1.53159E-13 1.51228E-12
 -1      1512 2.13865E+01 2.11704E-01-2.43356E-01 9.35930E-01 1.36613E-13 1.76301E-12
 -1      1513 2.16679E+01 9.41668E-01-7.98467E-02 2.47934E+00 2.76591E-13 1.17181E-12
 -1      1514 1.83342E+01 2.80320E-02-2.13617E-02 4.06136E-01 1.22574E-13 1.21367E-12
 -1      1515 1.90606E+01 1.03107E-01-6.83542E-02 4.50678E-01 1.05988E-13 1.39127E-12
 -1      1516 1.98114E+01 1.83243E-01-5.29714E-02 1.19070E+00 2.28484E-13 9.66473E-13
 -1      1517 1.73564E+01 1.39742E-02 7.19216E-03 2.97557E-01 1.00778E-13 9.59744E-13
 -1      1518 1.78308E+01 3.97873E-02 6.90612E-04 3.14376E-01 8.67605E-14 1.11908E-12
 -1      1519 1.85782E+01 5.56830E-02-1.09293E-02 7.40760E-01 1.95030E-13 8.02056E-13
 -1      1520 1.66232E+01 1.41573E-02 5.41314E-03 2.37294E-01 6.60466E-14 7.81276E-13
 -1      1521 1.69883E+01 2.24013E-02 1.10957E-02 2.48078E-01 6.69304E-14 8.84099E-13
 -1      1522 1.77211E+01 2.26514E-02-3.80305E-03 5.47016E-01 1.40411E-13 6.38585E-13
 -1      1523 1.60812E+01 1.95902E-02-1.40360E-03 1.68893E-01 4.18437E-14 6.36997E-13
 -1      1524 1.63547E+01 2.49717E-02 6.59235E-03 1.84087E-01 4.49302E-14 7.06601E-13
 -1      1525 1.70923E+01 2.75593E-02-5.66489E-03 4.10756E-01 1.05348E-13 5.01486E-13
 -1      1526 1.57636E+01 2.55003E-02-6.62611E-03 7.57835E-02 2.94673E-14 5.48817E-13
 -1      1527 1.59201E+01 3.39219E-02 1.66826E-03 9.92795E-02 2.33546E-14 5.94214E-13
 -1      1528 1.66665E+01 4.08094E-02-9.64612E-03 2.52362E-01 7.25297E-14 4.14565E-13
 -1      1529 1.57186E+01 2.77108E-02-8.83202E-03-3.70938E-02 7.18531E-14 4.19399E-13
 -1      1530 1.57271E+01 4.12250E-02-1.04442E-03-6.91333E-03 5.15256E-14 4.83772E-13
 -1      1531 1.64653E+01 5.08034E-02-1.30612E-02 5.40422E-02 9.17244E-14 3.18659E-13
 -1      1532 1.59652E+01 2.43587E-02-7.83353E-03-1.50913E-01 1.32516E-14 2.90639E-13
 -1      1533 1.58133E+01 4.20805E-02-1.58195E-03-1.19248E-01 5.02376E-14 3.74174E-13
 -1      1534 1.65124E+01 5.12003E-02-1.43597E-02-1.64253E-01 1.00675E-13 2.31092E-13
 -1      1535 1.64711E+01 1.60412E-02-4.36013E-03-2.43084E-01 1.76929E-14 2.61274E-13
 -1      1536 1.61764E+01 3.51898E-02-5.09464E-04-2.16190E-01-5.66214E-15 2.77967E-13
 -1      1537 1.68012E+01 4.05912E-02-1.29871E-02-3.64263E-01 2.45845E-14 1.27945E-13
 -1      1538 1.71565E+01 5.21522E-03 2.05853E-04-2.96570E-01 4.60990E-14 2.13777E-13
 -1      1539 1.67639E+01 2.24397E-02 1.34662E-03-2.79300E-01 3.10849E-14 2.65073E-13
 -1      1540 1.72847E+01 2.19160E-02-9.40674E-03-5.08201E-01 3.97911E-14 1.05541E-13
 -1      1541 1.79160E+01-4.80927E-03 4.84782E-03-3.06148E-01 3.69401E-14 5.29229E-14
 -1      1542 1.74842E+01 7.89474E-03 3.26095E-03-3.00160E-01 6.50780E-14 1.73566E-13
 -1      1543 1.78840E+01 1.18629E-03-4.61403E-03-5.73763E-01 1.02219E-13 6.27580E-14
 -1      1544 1.86499E+01-1.16046E-02 1.23555E-02-2.80941E-01 4.73319E-15 2.44822E-14
 -1      1545 1.82330E+01-4.18457E-03 5.99923E-03-2.82825E-01 7.20170E-15 4.23481E-14
 -1      1546 1.85095E+01-1.50773E-02 1.35297E-03-5.61911E-01 4.61161E-14 3.88968E-14
 -1      1547 1.92339E+01-1.49822E-03 2.30750E-02-2.21673E-01-1.25555E-14 7.57207E-14
 -1      1548 1.89172E+01-1.51978E-02 1.32765E-02-2.32482E-01-2.95866E-14 2.98754E-14
 -1      1549 1.90791E+01-2.47398E-02 1.09181E-02-4.84188E-01-4.33030E-14-1.54174E-14
 -1      1550 1.96479E+01-1.43343E-02 6.86470E-03-1.54323E-01 8.04608E-14-3.79956E-14
 -1      1551 1.93946E+01-1.64152E-02 3.82297E-03-1.66577E-01 5.86805E-14 9.82617E-14
 -1      1552 1.94893E+01-3.00088E-02 4.26612E-03-3.57752E-01 5.06132E-14-3.15616E-14
 -1      1553 1.99632E+01-1.21323E-02 5.28124E-03-1.00352E-01-3.75455E-14-7.06709E-14
 -1      1554 1.97891E+01-1.59757E-02 2.71527E-03-1.12169E-01-2.92149E-15-6.86031E-14
 -1      1555 1.98255E+01-2.75334E-02 4.44913E-03-2.51088E-01 5.31936E-14 4.19846E-15
 -1      1556 2.01565E+01-9.16306E-03 3.57023E-03-5.61248E-02-2.91288E-14-5.42027E-14
 -1      1557 2.00510E+01-1.34655E-02 1.59891E-03-6.59815E-02-2.50477E-14-7.27378E-14
 -1      1558 2.00509E+01-2.21867E-02 3.90595E-03-1.56256E-01-1.23595E-14-5.38029E-14
 -1      1559 2.02547E+01-6.22561E-03 2.08924E-03-2.36262E-02 3.03058E-14-5.13626E-14
 -1      1560 2.02022E+01-1.01501E-02 6.95165E-04-3.09705E-02 5.55112E-15-3.91784E-14
 -1      1561 2.01828E+01-1.60098E-02 3.03893E-03-8.14173E-02-9.97119E-15 3.21204E-14
 -1      1562 2.02858E+01-3.75567E-03 9.84979E-04-2.15083E-03-7.09588E-14-4.05383E-14
 -1      1563 2.02702E+01-6.89722E-03 8.18393E-05-7.07541E-03-5.20927E-15-3.71711E-14
 -1      1564 2.02436E+01-1.03394E-02 2.13097E-03-2.82113E-02-4.26720E-15 6.69884E-14
 -1      1565 2.02747E+01-1.90458E-03 2.60082E-04 1.03512E-02-3.91982E-14 6.78689E-14
 -1      1566 2.02821E+01-4.16785E-03-2.61396E-04 7.42569E-03-6.70524E-14-1.14570E-14
 -1      1567 2.02557E+01-5.81775E-03 1.33934E-03 5.71922E-03-8.65496E-14 7.65486E-14
 -1      1568 2.02406E+01-6.48624E-04-1.54543E-04 1.62948E-02-1.04064E-15 1.08510E-13
 -1      1569 2.02601E+01-2.11792E-03-4.00966E-04 1.48491E-02-3.84910E-14 1.01387E-13
 -1      1570 2.02379E+01-2.58596E-03 7.25678E-04 2.45050E-02-8.39677E-14 6.91068E-14
 -1      1571 2.01970E+01 1.18729E-04-3.48034E-04 1.78923E-02 4.91414E-14-9.28576E-15
 -1      1572 2.02212E+01-7.18927E-04-4.10811E-04 1.74415E-02 4.19943E-14 6.34458E-14
 -1      1573 2.02047E+01-5.02520E-04 2.92764E-04 3.25368E-02 3.51350E-14 3.56280E-15
 -1      1574 2.01525E+01 5.25904E-04-4.01349E-04 1.69079E-02 1.10189E-13-1.70987E-13
 -1      1575 2.01768E+01 1.44228E-04-3.52366E-04 1.70601E-02 4.43566E-14-5.64448E-14
 -1      1576 2.01658E+01 6.87773E-04 1.42424E-05 3.36464E-02 7.12459E-14-7.92859E-14
 -1      1577 2.01121E+01 6.90525E-04-3.76495E-04 1.46138E-02 2.64953E-15-2.70410E-13
 -1      1578 2.01339E+01 6.09700E-04-2.68343E-04 1.50831E-02 4.72485E-14-2.03059E-13
 -1      1579 2.01276E+01 1.25054E-03-1.45884E-04 3.07966E-02 1.15039E-13-9.15286E-14
 -1      1580 2.00780E+01 7.06204E-04-3.15659E-04 1.18503E-02-1.16592E-13-2.84043E-14
 -1      1581 2.00962E+01 8.04504E-04-1.84201E-04 1.24451E-02-1.04958E-13-1.92589E-13
 -1      1582 2.00936E+01 1.41173E-03-2.22525E-04 2.60731E-02-9.77960E-14-8.44372E-14
 -1      1583 2.00508E+01 6.40611E-04-2.44701E-04 9.12176E-03 4.68482E-14 2.18581E-14
 -1      1584 2.00651E+01 8.30533E-04-1.12511E-04 9.72456E-03 1.98817E-14 5.93313E-14
 -1      1585 2.00652E+01 1.34185E-03-2.44751E-04 2.08204E-02-6.48608E-14 8.76582E-14
 -1      1586 2.00302E+01 5.38883E-04-1.77700E-04 6.69447E-03-5.18669E-14-5.78793E-15
 -1      1587 2.00409E+01 7.62265E-04-5.75315E-05 7.24119E-03 1.91189E-14 5.22241E-14
 -1      1588 2.00426E+01 1.15838E-03-2.34572E-04 1.58227E-02 3.61290E-14 1.73947E-13
 -1      1589 2.00152E+01 4.28779E-04-1.21047E-04 4.67823E-03 6.08349E-15-1.01425E-13
 -1      1590 2.00229E+01 6.50102E-04-1.88676E-05 5.14030E-03-3.82381E-14-1.54028E-13
 -1      1591 2.00255E+01 9.35849E-04-2.07461E-04 1.14736E-02 3.22337E-14 4.30937E-14
 -1      1592 2.00049E+01 3.25736E-04-7.65567E-05 3.08841E-03-4.86843E-14-1.73396E-13
 -1      1593 2.00101E+01 5.25647E-04 6.03210E-06 3.45919E-03-3.33936E-14-1.70245E-13
 -1      1594 2.00131E+01 7.17268E-04-1.73586E-04 7.91581E-03 2.18751E-14-1.89299E-13
 -1      1595 1.99982E+01 2.37054E-04-4.36013E-05 1.88922E-03 7.93961E-14-7.19435E-14
 -1      1596 2.00015E+01 4.06979E-04 2.03633E-05 2.17430E-03-7.58242E-15-5.47068E-14
 -1      1597 2.00046E+01 5.24368E-04-1.39147E-04 5.14364E-03-1.29420E-14-1.66644E-13
 -1      1598 1.99942E+01 1.65025E-04-2.04597E-05 1.02184E-03-6.88593E-14 4.53461E-14
 -1      1599 1.99961E+01 3.03081E-04 2.71647E-05 1.23270E-03 1.07476E-14 5.59468E-14
 -1      1600 1.99990E+01 3.65492E-04-1.07564E-04 3.07413E-03-9.80250E-14 1.46304E-13
 -1      1601 1.99921E+01 1.09118E-04-5.09942E-06 4.21576E-04 8.99956E-14 1.63168E-15
 -1      1602 1.99930E+01 2.17217E-04 2.89711E-05 5.71616E-04 3.51826E-14 1.02741E-14
 -1      1603 1.99956E+01 2.41236E-04-8.04188E-05 1.59228E-03 8.07565E-15 1.70710E-13
 -1      1604 1.99913E+01 6.74068E-05 4.41324E-06 2.72458E-05 2.07198E-13-2.78428E-13
 -1      1605 1.99915E+01 1.49325E-04 2.77260E-05 1.29546E-04 1.31005E-13-6.83492E-15
 -1      1606 1.99938E+01 1.48207E-04-5.81568E-05 5.78072E-04 1.92554E-13 4.15111E-14
 -1      1607 1.99914E+01 3.74505E-05 9.73090E-06-2.14282E-04 2.35819E-14-3.35941E-13
 -1      1608 1.99912E+01 9.76138E-05 2.48243E-05-1.48101E-04 4.96169E-14-3.31776E-13
 -1      1609 1.99931E+01 8.13568E-05-4.05699E-05-7.89565E-05 1.15042E-13-4.82524E-14
 -1      1610 1.99920E+01 1.67930E-05 1.21736E-05-3.46614E-04 5.30336E-14-3.36088E-13
 -1      1611 1.99916E+01 5.95688E-05 2.12088E-05-3.06830E-04 3.82377E-14-3.11421E-13
 -1      1612 1.99931E+01 3.53454E-05-2.71211E-05-4.73228E-04 9.78121E-14-1.41449E-13
 -1      1613 1.99929E+01 3.21933E-06 1.27442E-05-4.04026E-04 7.36411E-14-4.61043E-13
 -1      1614 1.99923E+01 3.25472E-05 1.74770E-05-3.82860E-04 2.46429E-14-3.84768E-13
 -1      1615 1.99935E+01 5.24580E-06-1.71473E-05-6.81362E-04 5.06833E-14-2.69746E-13
 -1      1616 1.99939E+01-5.13941E-06 1.21739E-05-4.12503E-04-1.05688E-13-3.47835E-13
 -1      1617 1.99933E+01 1.40950E-05 1.39768E-05-4.03948E-04-1.25790E-13-5.25774E-13
 -1      1618 1.99942E+01-1.31435E-05-9.97851E-06-7.63057E-04-9.22922E-14-1.65395E-13
 -1      1619 1.99948E+01-9.78854E-06 1.09751E-05-3.91094E-04-7.08189E-14-1.87328E-13
 -1      1620 1.99943E+01 2.09210E-06 1.08854E-05-3.90658E-04-4.31625E-14-2.20752E-13
 -1      1621 1.99950E+01-2.32209E-05-5.00119E-06-7.63231E-04-1.85857E-13-1.50264E-13
 -1      1622 1.99958E+01-1.18977E-05 9.49317E-06-3.53296E-04 1.91430E-13-2.71441E-13
 -1      1623 1.99952E+01-5.20633E-06 8.26936E-06-3.57719E-04 8.97442E-14-2.03099E-13
 -1      1624 1.99958E+01-2.76278E-05-1.68693E-06-7.14568E-04-1.74845E-14-3.10130E-13
 -1      1625 1.99966E+01-1.23494E-05 7.94993E-06-3.08304E-04-4.11618E-14-3.74039E-13
 -1      1626 1.99961E+01-9.18582E-06 6.12717E-06-3.15303E-04 6.87985E-14-2.45215E-13
 -1      1627 1.99965E+01-2.83513E-05 4.00668E-07-6.40038E-04 1.30453E-13-2.88964E-13
 -1      1628 1.99973E+01-1.17933E-05 6.48005E-06-2.62076E-04-6.31825E-14-1.81514E-13
 -1      1629 1.99969E+01-1.09174E-05 4.41960E-06-2.70114E-04-7.59859E-14-3.16447E-13
 -1      1630 1.99972E+01-2.68458E-05 1.61084E-06-5.55125E-04-7.04851E-14-2.79673E-13
 -1      1631 1.99979E+01-1.06990E-05 5.15964E-06-2.18182E-04 5.55110E-14-2.27115E-13
 -1      1632 1.99976E+01-1.12138E-05 3.08968E-06-2.26283E-04-7.43104E-15-3.15317E-13
 -1      1633 1.99978E+01-2.41521E-05 2.21691E-06-4.69698E-04 5.49236E-14-2.57421E-13
 -1      1634 1.99984E+01-9.40387E-06 4.03027E-06-1.78450E-04 1.17014E-13-3.28315E-13
 -1      1635 1.99982E+01-1.06881E-05 2.07638E-06-1.86063E-04 8.99448E-14-2.37402E-13
 -1      1636 1.99983E+01-2.10070E-05 2.43066E-06-3.89485E-04 8.38398E-14-3.81959E-13
 -1      1637 1.99989E+01-8.15443E-06 3.12376E-06-1.43433E-04 5.14386E-14-6.17118E-13
 -1      1638 1.99986E+01-9.81187E-06 1.32601E-06-1.50328E-04 1.22238E-13-3.77926E-13
 -1      1639 1.99987E+01-1.79392E-05 2.41882E-06-3.17181E-04 1.88263E-13-4.96633E-13
 -1      1640 1.99992E+01-7.14342E-06 2.49376E-06-1.12706E-04-5.51984E-14-6.27433E-13
 -1      1641 1.99990E+01-8.97244E-06 8.08736E-07-1.18921E-04-3.63670E-14-6.51900E-13
 -1      1642 1.99990E+01-1.53585E-05 2.32399E-06-2.53228E-04 5.40426E-14-6.35332E-13
 -1      1643 1.99994E+01-6.52255E-06 2.24018E-06-8.50364E-05 2.22949E-13-9.06895E-13
 -1      1644 1.99993E+01-8.51440E-06 5.40497E-07-9.08616E-05 1.41312E-13-6.01883E-13
 -1      1645 1.99993E+01-1.36121E-05 2.29216E-06-1.96327E-04 2.17542E-13-4.69180E-13
 -1      1646 1.99996E+01-6.38271E-06 2.40957E-06-5.86153E-05-1.62211E-13-9.73241E-13
 -1      1647 1.99995E+01-8.70985E-06 5.78338E-07-6.45493E-05 7.00704E-15-9.57950E-13
 -1      1648 1.99995E+01-1.29671E-05 2.46887E-06-1.43823E-04 1.24096E-13-6.51769E-13
 -1      1649 1.99997E+01-6.52895E-06 2.32640E-06-3.13212E-05 1.12765E-13-1.06032E-12
 -1      1650 1.99997E+01-9.67068E-06 8.00305E-07-3.81829E-05-3.78699E-14-1.07718E-12
 -1      1651 1.99997E+01-1.36578E-05 2.71051E-06-9.24590E-05 1.09601E-15-7.18934E-13
 -1      1652 1.99998E+01-6.11823E-06-1.23824E-06-5.04432E-06-2.39629E-14-1.16359E-12
 -1      1653 1.99998E+01-9.66907E-06 1.76387E-07-1.20212E-05 1.16253E-13-1.03892E-12
 -1      1654 1.99997E+01-1.42460E-05 2.09439E-06-4.09162E-05 1.42614E-13-8.20836E-13
 -1      1655 1.99998E+01-1.80383E-07-2.97780E-06 3.65332E-06-6.21393E-13-7.06355E-13
 -1      1656 1.99998E+01-4.29598E-05 1.46670E-06-2.44561E-05-1.07121E-12-2.38213E-14
 -1      1657 1.99998E+01-2.15301E-05-1.11386E-06-1.78246E-05-1.04305E-12-2.53633E-14
 -1      1658 1.99998E+01-1.40438E-04 1.12384E-06-5.16695E-05-8.39959E-13 2.29124E-13
 -1      1659 1.99998E+01-8.50273E-05 1.02169E-06-4.59604E-05-1.05377E-12 1.21604E-13
 -1      1660 1.99998E+01-9.02956E-05 2.12724E-06-7.10088E-05-6.13129E-13 9.34329E-14
 -1      1661 1.99998E+01-2.76950E-04 4.88163E-07-6.86210E-05-5.84194E-13 1.59657E-13
 -1      1662 1.99998E+01-1.98795E-04 8.61312E-07-6.60997E-05-8.33128E-13 1.95769E-13
 -1      1663 1.99998E+01-1.90762E-04 1.95064E-06-1.15043E-04-5.39148E-13 2.47434E-13
 -1      1664 1.99998E+01-4.29471E-04 5.73429E-08-7.31915E-05-7.48379E-13-2.24409E-13
 -1      1665 1.99998E+01-3.43697E-04 3.33284E-07-7.33216E-05-6.64125E-13 9.75485E-14
 -1      1666 1.99998E+01-3.16189E-04 5.18091E-07-1.37704E-04-6.22379E-13 4.13293E-14
 -1      1667 1.99998E+01-5.71258E-04-1.30698E-07-6.59345E-05-1.43178E-12-3.47947E-13
 -1      1668 1.99998E+01-4.93608E-04 7.54668E-08-6.82377E-05-8.79934E-13-5.63165E-13
 -1      1669 1.99998E+01-4.47003E-04-8.26453E-07-1.36942E-04-6.70979E-13-5.19765E-13
 -1      1670 1.99998E+01-6.85691E-04-2.01926E-07-4.86975E-05-9.86618E-13 9.83064E-14
 -1      1671 1.99998E+01-6.25795E-04-7.28754E-08-5.27742E-05-1.15916E-12 1.66417E-13
 -1      1672 1.99998E+01-5.65274E-04-1.91904E-06-1.14894E-04-6.73531E-13-9.92303E-14
 -1      1673 1.99998E+01-7.53601E-04-2.02220E-07-2.45261E-05-4.95746E-13 2.95656E-13
 -1      1674 1.99998E+01-7.21569E-04-1.37936E-07-2.96792E-05-9.55335E-13 2.54783E-13
 -1      1675 1.99998E+01-6.55170E-04-2.70944E-06-7.58543E-05-5.25395E-13 2.55568E-13
 -1      1676 1.99998E+01-7.65636E-04-1.76317E-07 3.03514E-06 1.18670E-13 4.58511E-13
 -1      1677 1.99998E+01-7.65978E-04-1.78714E-07-2.48225E-06-3.70809E-13 4.21633E-13
 -1      1678 1.99998E+01-7.03153E-04-3.11521E-06-2.61441E-05-2.98616E-13 6.15941E-13
 -1      1679 1.99998E+01-7.20130E-04-1.30551E-07 3.02028E-05 8.02644E-14-6.26549E-14
 -1      1680 1.99998E+01-7.52825E-04-2.04997E-07 2.50606E-05 7.03355E-15 2.17693E-13
 -1      1681 1.99998E+01-7.02732E-04-3.11314E-06 2.71840E-05-2.16835E-14 3.99538E-13
 -1      1682 1.99998E+01-6.23397E-04-5.05789E-08 5.32102E-05-2.50281E-13-2.37912E-13
 -1      1683 1.99998E+01-6.83861E-04-2.14964E-07 4.91689E-05 5.91259E-14-1.79638E-13
 -1      1684 1.99998E+01-6.53946E-04-2.69652E-06 7.68083E-05-1.83993E-13-1.48391E-13
 -1      1685 1.99998E+01-4.91718E-04 7.72873E-08 6.83982E-05-1.36109E-13 2.26245E-13
 -1      1686 1.99998E+01-5.69676E-04-1.36496E-07 6.61318E-05-1.66633E-13-2.13879E-13
 -1      1687 1.99998E+01-5.64294E-04-1.92691E-06 1.15434E-04-1.42380E-13-3.31413E-13
 -1      1688 1.99998E+01-3.40360E-04 3.63020E-07 7.33675E-05 2.09310E-13-1.52216E-13
 -1      1689 1.99998E+01-4.26261E-04 8.04385E-08 7.33074E-05-1.47478E-13 2.88795E-13
 -1      1690 1.99998E+01-4.45649E-04-7.94738E-07 1.37223E-04 8.13646E-14 3.30113E-13
 -1      1691 1.99998E+01-1.95868E-04 7.85905E-07 6.58268E-05-3.60692E-13-1.92064E-13
 -1      1692 1.99998E+01-2.73604E-04 5.37253E-07 6.84346E-05 5.81018E-14-1.81374E-13
 -1      1693 1.99998E+01-3.13617E-04 5.58083E-07 1.37575E-04 6.58792E-14-2.74294E-13
 -1      1694 1.99998E+01-8.27032E-05 9.94205E-07 4.53976E-05-4.29328E-13-6.19908E-14
 -1      1695 1.99998E+01-1.37457E-04 1.28718E-06 5.10268E-05-3.56702E-13-2.25377E-14
 -1      1696 1.99998E+01-1.88420E-04 1.82661E-06 1.14070E-04-1.18529E-13-1.54378E-13
 -1      1697 1.99998E+01-2.16604E-05-4.49949E-07 1.80203E-05-6.95944E-13 7.76610E-14
 -1      1698 1.99998E+01-4.47660E-05 1.89863E-06 2.43202E-05-4.55488E-13-3.06092E-13
 -1      1699 1.99998E+01-9.38521E-05 2.59702E-06 7.06709E-05-3.16309E-13-3.00971E-13
 -1      1700 1.99998E+01-3.43450E-05 4.02552E-07 2.58746E-05-3.28187E-13 7.28326E-14
 -1      1701-2.93913E-01-1.40307E+01-1.53207E+00 5.63256E-02 4.20552E-13 6.54782E-13
 -1      1702-4.86942E-01-1.73756E+01-1.84878E+00 1.21056E+00-5.17808E-13 5.68545E-13
 -1      1703 1.98569E+00-6.40623E+00-1.08574E+00 1.51256E+00 1.52856E-12 1.10401E-12
 -1      1704 1.04102E+00-1.24843E+01-1.65877E+00 5.46911E-01 7.93809E-13 6.96894E-13
 -1      1705 8.62545E+00 1.71921E+00-4.47071E-01 6.19592E+00 2.05169E-12 1.67399E-12
 -1      1706 4.82108E+00-3.95082E+00-1.24179E+00 2.86651E+00 1.76925E-12 1.19244E-12
 -1      1707 2.05819E+01 6.78056E+00 4.35818E-01 1.17268E+01 1.88938E-12 1.95910E-12
 -1      1708 1.32224E+01 3.75952E+00-4.93401E-01 7.81603E+00 2.06457E-12 1.78368E-12
 -1      1709 3.52028E+01 7.31544E+00 1.11821E+00 1.39205E+01 1.27104E-12 1.51190E-12
 -1      1710 2.61446E+01 7.47604E+00 3.59957E-01 1.23084E+01 1.77658E-12 1.76881E-12
 -1      1711 4.89941E+01 5.56804E+00 1.59431E+00 1.06429E+01 6.28535E-13 7.82707E-13
 -1      1712 4.01766E+01 7.35456E+00 1.00799E+00 1.26744E+01 1.03706E-12 1.24190E-12
 -1      1713 5.76022E+01 3.86120E+00 1.85869E+00 3.92240E+00 3.98542E-13 5.19029E-14
 -1      1714 5.32648E+01 5.28042E+00 1.61879E+00 9.25735E+00 5.34781E-13 6.29830E-13
 -1      1715 5.56962E+01 4.42352E+00 1.61080E+00-4.96801E+00 5.85754E-13-9.71778E-13
 -1      1716 5.74370E+01 3.94270E+00 1.74240E+00 8.71006E-01 4.89275E-13-2.86212E-13
 -1      1717 4.73331E+01 6.36467E+00 1.26560E+00-1.18142E+01 9.67892E-13-1.82676E-12
 -1      1718 5.41719E+01 4.46235E+00 1.69668E+00-7.99891E+00 6.41973E-13-1.31628E-12
 -1      1719 3.35427E+01 8.16149E+00 6.28595E-01-1.36227E+01 1.53255E-12-2.20268E-12
 -1      1720 4.28039E+01 6.81300E+00 1.34387E+00-1.34010E+01 1.13848E-12-2.03193E-12
 -1      1721 1.97533E+01 6.80470E+00-7.64816E-02-1.06503E+01 1.98219E-12-2.02605E-12
 -1      1722 2.82298E+01 7.89819E+00 7.52861E-01-1.34197E+01 1.70708E-12-2.15317E-12
 -1      1723 1.02519E+01 1.23931E+00-6.43678E-01-6.16951E+00 1.93667E-12-1.51423E-12
 -1      1724 1.56094E+01 4.89895E+00 5.34832E-02-9.59266E+00 1.91080E-12-1.82143E-12
 -1      1725 3.12756E+00-5.47772E+00-1.22880E+00-2.16982E+00 1.85485E-12-1.02474E-12
 -1      1726 5.35804E+00-1.38301E-02-6.32994E-01-4.45008E+00 2.11697E-12-1.46289E-12
 -1      1727 7.56505E-01-1.21641E+01-1.45754E+00-1.52179E+00 8.73523E-13-6.18838E-13
 -1      1728 1.49849E+00-7.30752E+00-1.00996E+00-1.76223E+00 1.48304E-12-9.09828E-13
 -1      1729-8.33549E-01-1.67598E+01-1.89130E+00-1.75516E+00-4.37428E-14-4.18027E-13
 -1      1730-6.31664E-01-1.45270E+01-1.60407E+00-2.10796E-01 7.06879E-13-4.93494E-13
 -1      1731-1.11133E+00-1.49007E+01-1.90240E+00-2.63256E+00-1.18017E-12-7.65554E-13
 -1      1732-8.15172E-01-1.67754E+01-1.92538E+00-1.29770E+00-3.73514E-13-4.95048E-13
 -1      1733 8.31866E-01-8.95215E+00-1.69870E+00-1.05988E+00-2.01472E-12-1.40304E-12
 -1      1734 8.36386E-02-1.39188E+01-2.09248E+00-1.86669E+00-1.46816E-12-9.28736E-13
 -1      1735 8.84402E+00-1.94316E+00-1.01210E+00 4.04437E+00-2.22267E-12-2.13030E-12
 -1      1736 4.75838E+00-7.33078E+00-1.76612E+00 7.65358E-01-2.02061E-12-1.60572E-12
 -1      1737 2.15380E+01 3.40731E+00-1.10925E-01 9.41145E+00-2.14495E-12-2.70317E-12
 -1      1738 1.33484E+01-1.34643E-01-1.22036E+00 5.29688E+00-2.32392E-12-2.35922E-12
 -1      1739 4.04841E+01 4.27900E+00 1.21442E+00 1.12107E+01-1.53699E-12-2.58660E-12
 -1      1740 2.85527E+01 3.61149E+00-1.83364E-01 9.05219E+00-1.92923E-12-2.59703E-12
 -1      1741 5.76261E+01 4.36186E+00 2.65491E+00 9.49338E+00-9.73374E-13-2.19869E-12
 -1      1742 4.63056E+01 5.48958E+00 1.34443E+00 1.13339E+01-1.41515E-12-2.60569E-12
 -1      1743 6.69105E+01 3.72437E+00 3.28088E+00 1.95133E+00-5.99854E-13-1.00087E-12
 -1      1744 6.10831E+01 4.63136E+00 2.63966E+00 7.43483E+00-8.15514E-13-1.83020E-12
 -1      1745 6.49355E+01 4.33926E+00 3.04086E+00-6.01160E+00-6.25555E-13 2.95097E-13
 -1      1746 6.80173E+01 3.74536E+00 3.37286E+00-4.70718E-02-6.29552E-13-6.52228E-13
 -1      1747 5.20845E+01 5.44658E+00 1.87239E+00-1.09413E+01-1.12654E-12 1.48459E-12
 -1      1748 6.20227E+01 4.06448E+00 2.95201E+00-7.89774E+00-7.37105E-13 6.44373E-13
 -1      1749 3.44987E+01 5.20846E+00 4.27023E-01-1.12031E+01-1.54443E-12 2.15139E-12
 -1      1750 4.64391E+01 5.12988E+00 1.78844E+00-1.23307E+01-1.14980E-12 1.80544E-12
 -1      1751 1.87621E+01 1.78133E+00-7.72714E-01-7.29770E+00-1.93956E-12 2.09011E-12
 -1      1752 2.82623E+01 4.32581E+00 4.56854E-01-1.09055E+01-1.66889E-12 2.17160E-12
 -1      1753 7.30744E+00-4.45041E+00-1.55380E+00-2.35960E+00-2.26286E-12 1.75171E-12
 -1      1754 1.29283E+01 6.05033E-01-6.43359E-01-6.29441E+00-2.14517E-12 2.06546E-12
 -1      1755 1.41873E+00-1.16145E+01-1.96170E+00 1.07760E+00-2.40352E-12 1.16832E-12
 -1      1756 3.13840E+00-6.16980E+00-1.41903E+00-7.74952E-01-2.40408E-12 1.59261E-12
 -1      1757-4.89805E-01-1.70726E+01-2.06586E+00 1.75674E+00-1.95827E-12 7.61002E-13
 -1      1758-4.50390E-01-1.32954E+01-1.81457E+00 2.12192E+00-2.29605E-12 1.04251E-12
 -1      1759-8.84150E-01-1.85518E+01-1.96608E+00 5.94369E-01-8.83515E-13 5.72209E-13
 -1      1760-1.12947E+00-1.79169E+01-1.98962E+00 2.29165E+00-1.70058E-12 6.99052E-13
 -1      1761 2.40712E+01 8.36321E-01-8.87156E-01-2.22410E+00-3.10751E-13 1.26646E-12
 -1      1762 2.98804E+01 1.88404E+00-5.07476E-01-2.16550E+00-7.22200E-13 6.88142E-13
 -1      1763 2.70816E+01 4.07497E-01-5.84389E-01-2.64839E+00-2.45748E-13 1.57790E-12
 -1      1764 1.63193E+01-1.40096E+00-2.39534E-01 7.68029E+00 1.06826E-12 1.16007E-12
 -1      1765-1.52832E+00-1.20983E+01-1.34441E+00 1.74522E+00-5.42344E-13 1.11400E-12
 -1      1766 1.99998E+01-4.49736E-06-2.03334E-07-3.52586E-06-7.63076E-13-4.36712E-13
 -1      1767 1.99998E+01-3.45614E-05-4.60913E-07-2.93187E-05-1.90506E-13-4.52932E-13
 -1      1768 1.19639E+00-9.94936E+00-1.12866E+00 3.66905E+00 6.42819E-14 1.03872E-12
 -1      1769 7.11585E+00-5.97648E+00-7.69374E-01 5.72932E+00 7.41629E-13 1.03639E-12
 -1      1770 2.74789E+01 2.61773E+00 5.01335E-01 8.77245E+00 1.13087E-12 8.31779E-13
 -1      1771 3.76497E+01 5.35117E+00 9.84208E-01 7.40223E+00 9.35363E-13 3.77476E-13
 -1      1772 4.55891E+01 7.27107E+00 1.33267E+00 4.87705E+00 7.18314E-13 6.37268E-14
 -1      1773 4.95024E+01 8.05727E+00 1.52200E+00 1.43091E+00 7.99583E-13-3.02383E-13
 -1      1774 4.81258E+01 7.69490E+00 1.40760E+00-3.17755E+00 9.12603E-13-7.01716E-13
 -1      1775 4.24848E+01 6.68455E+00 1.16326E+00-7.05737E+00 1.01311E-12-1.19771E-12
 -1      1776 3.27626E+01 4.71756E+00 6.19105E-01-8.68565E+00 1.17129E-12-1.32305E-12
 -1      1777 2.25536E+01 9.51209E-01-1.97831E-03-8.33712E+00 1.07914E-12-1.13420E-12
 -1      1778 1.29468E+01-2.02253E+00-2.64213E-01-7.50738E+00 1.05760E-12-1.09535E-12
 -1      1779 4.88486E+00-5.67946E+00-7.60730E-01-5.55791E+00 7.40408E-13-9.93594E-13
 -1      1780 1.84942E-01-8.61433E+00-1.00377E+00-3.71650E+00 3.17579E-13-9.09384E-13
 -1      1781-1.64826E+00-1.10439E+01-1.36664E+00-1.24944E+00-2.03858E-13-9.05165E-13
 -1      1782 4.21638E-01-1.04523E+01-1.40692E+00 8.76105E-01-7.22422E-13-1.09035E-12
 -1      1783 7.28372E+00-8.08943E+00-1.12650E+00 3.54767E+00-1.06437E-12-1.31753E-12
 -1      1784 1.79372E+01-5.02807E+00-6.07475E-01 5.30936E+00-1.18761E-12-1.54410E-12
 -1      1785 3.11102E+01-1.67661E+00 1.88418E-01 5.14816E+00-1.16129E-12-1.49480E-12
 -1      1786 4.32670E+01 1.80935E+00 9.49608E-01 3.70258E+00-1.10500E-12-1.34115E-12
 -1      1787 5.23680E+01 6.00327E+00 2.07725E+00 2.38606E+00-1.06803E-12-9.57345E-13
 -1      1788 5.66700E+01 8.07063E+00 2.66832E+00 6.60213E-02-1.07092E-12-4.14363E-13
 -1      1789 5.51572E+01 7.07542E+00 2.48201E+00-1.74650E+00-1.13209E-12 1.77858E-13
 -1      1790 4.71842E+01 4.15682E+00 1.63919E+00-3.86599E+00-1.18617E-12 6.56586E-13
 -1      1791 3.53585E+01 1.87832E-01 5.78402E-01-5.60205E+00-1.14952E-12 1.08424E-12
 -1      1792 2.24888E+01-3.66381E+00-3.32951E-01-5.75464E+00-1.17506E-12 1.13842E-12
 -1      1793 1.07885E+01-7.07306E+00-9.51525E-01-4.51334E+00-1.41820E-12 1.18699E-12
 -1      1794 2.86768E+00-1.03859E+01-1.34243E+00-2.26955E+00-1.41409E-12 9.47534E-13
 -1      1795-1.01326E+00-1.24693E+01-1.47267E+00-2.93474E-01-1.07447E-12 9.59510E-13
 -1      1796 2.93306E+01 2.08702E+00-9.78744E-03-1.33614E+00-1.58297E-13 1.30479E-12
 -1      1797 3.20851E+01 2.03091E-01-1.77665E-01-5.10685E+00-3.23075E-13 1.09561E-12
 -1      1798 1.69080E+01 4.98946E+00-6.00315E-02-3.88110E-01-2.76151E-13-2.33723E-13
 -1      1799 1.90060E+01 4.77032E+00 5.66760E-03-2.95342E-01-2.84696E-13-7.72021E-14
 -1      1800 2.13903E+01 3.89565E+00-7.77808E-02-1.56625E-01-2.51715E-13 1.28453E-13
 -1      1801 2.38703E+01 3.37853E+00-6.30604E-02-3.70226E-01-2.56316E-13 3.74735E-13
 -1      1802 2.02797E+01 3.81755E+00 1.86216E-02 3.34129E-01-2.49408E-13 2.61961E-14
 -1      1803 1.34912E+01 5.36825E+00 1.45985E-02-2.31943E+00-3.39658E-13-5.11756E-13
 -1      1804 1.35346E+01 5.49590E+00-1.92127E-02-1.95910E+00-3.43520E-13-4.88451E-13
 -1      1805 1.46916E+01 4.69797E+00 3.49467E-02-2.95304E+00-3.34992E-13-5.01044E-13
 -1      1806 1.39041E+01 4.90006E+00-3.76961E-02-2.80248E+00-3.49124E-13-5.06608E-13
 -1      1807 1.34644E+01 5.00470E+00 1.51149E-02-2.86281E+00-3.82641E-13-5.17809E-13
 -1      1808 1.67836E+01 3.90983E+00 3.14453E-02-2.85044E+00-2.91196E-13-4.51141E-13
 -1      1809 1.56775E+01 4.08674E+00-3.82261E-02-2.99681E+00-3.17191E-13-4.68854E-13
 -1      1810 1.51797E+01 4.00935E+00-1.28771E-02-3.34831E+00-3.76253E-13-4.75561E-13
 -1      1811 1.88183E+01 3.35680E+00 1.06901E-02-2.12213E+00-2.10287E-13-3.98452E-13
 -1      1812 1.78386E+01 3.44900E+00-2.82422E-02-2.49566E+00-2.51603E-13-4.16922E-13
 -1      1813 1.75281E+01 3.06082E+00-3.56883E-02-2.94580E+00-3.11808E-13-4.08568E-13
 -1      1814 2.02697E+01 3.16423E+00-9.73073E-03-1.07872E+00-1.17484E-13-3.59837E-13
 -1      1815 1.96247E+01 3.16544E+00-1.75651E-02-1.55808E+00-1.58559E-13-3.71939E-13
 -1      1816 1.95986E+01 2.52573E+00-3.52939E-02-1.94217E+00-2.15971E-13-3.53955E-13
 -1      1817 2.10348E+01 3.24083E+00-2.41164E-02 3.47056E-03-2.61514E-14-3.42910E-13
 -1      1818 2.07316E+01 3.18463E+00-1.39954E-02-4.85304E-01-6.83897E-14-3.53797E-13
 -1      1819 2.09402E+01 2.42814E+00-2.52096E-02-7.51654E-01-1.10960E-13-3.15404E-13
 -1      1820 2.12512E+01 3.42352E+00-3.16054E-02 9.65882E-01 7.24299E-14-2.93973E-13
 -1      1821 2.11993E+01 3.35582E+00-1.61216E-02 5.22510E-01 2.03379E-14-3.17302E-13
 -1      1822 2.15466E+01 2.58826E+00-1.65530E-02 3.48016E-01-6.69419E-15-2.95111E-13
 -1      1823 2.11352E+01 3.58564E+00-3.54904E-02 1.80539E+00 1.88740E-13-2.38011E-13
 -1      1824 2.12253E+01 3.53957E+00-2.03179E-02 1.40307E+00 1.28840E-13-2.64212E-13
 -1      1825 2.16310E+01 2.81133E+00-1.10465E-02 1.27022E+00 1.09167E-13-2.39704E-13
 -1      1826 2.08973E+01 3.62499E+00-4.14811E-02 2.51965E+00 2.85326E-13-1.48020E-13
 -1      1827 2.10207E+01 3.63137E+00-2.69343E-02 2.15644E+00 2.27097E-13-2.07841E-13
 -1      1828 2.14291E+01 2.95363E+00-8.23507E-03 2.01860E+00 2.22449E-13-1.85300E-13
 -1      1829 2.07750E+01 3.42471E+00-5.90911E-02 3.12606E+00 3.56559E-13 5.85434E-14
 -1      1830 2.08093E+01 3.53591E+00-3.81405E-02 2.78465E+00 3.13978E-13-6.33486E-14
 -1      1831 2.11731E+01 2.90143E+00-4.91452E-03 2.59818E+00 3.11629E-13-5.75442E-14
 -1      1832 2.11586E+01 2.70013E+00-7.54262E-02 3.48322E+00 3.74731E-13 4.38205E-13
 -1      1833 2.08612E+01 3.10595E+00-5.12436E-02 3.25592E+00 3.53160E-13 2.09333E-13
 -1      1834 2.10877E+01 2.49893E+00-5.82148E-04 2.94850E+00 3.64326E-13 1.62755E-13
 -1      1835 2.17600E+01 1.24668E+00-1.35346E-01 2.83418E+00 3.26683E-13 9.17905E-13
 -1      1836 2.14062E+01 2.34017E+00 4.42709E-03 3.32188E+00 3.53693E-13 6.05321E-13
 -1      1837 2.11108E+01 1.67311E+00-1.90431E-02 2.79345E+00 3.79781E-13 4.48065E-13
 -1      1838 2.08081E+01 7.80457E-01-7.04895E-02 2.02505E+00 3.25701E-13 8.18064E-13
 -1      1839 2.71910E+01 2.59033E+00 5.05865E-02-9.26408E-01-2.20440E-13 7.28279E-13
 -1      1840 1.95952E+01 2.62806E-01-9.38224E-03 1.20924E+00 2.56246E-13 6.85691E-13
 -1      1841 2.03535E+01 4.09149E-01-1.93213E-02 1.55449E+00 2.58002E-13 7.67309E-13
 -1      1842 2.06206E+01 8.23450E-01 8.53717E-03 2.03168E+00 3.06612E-13 5.58597E-13
 -1      1843 3.57446E+01-7.91910E-01-1.45177E-01-4.54922E+00-3.59685E-13 7.34135E-13
 -1      1844 3.46302E+01 1.85559E+00-1.28284E-01-4.57680E+00-6.06459E-13 6.51201E-13
 -1      1845 2.66888E+01 7.65484E-01 5.62662E-02 2.06742E+00-5.59743E-14 6.22943E-13
 -1      1846 2.72012E+01 2.68975E-01 2.50112E-02 2.36160E+00 1.91184E-14 6.13055E-13
 -1      1847 2.77725E+01-3.52545E-01 1.06163E-01 2.61999E+00 1.32720E-13 6.34999E-13
 -1      1848 2.85014E+01-1.26263E+00 1.13206E-02 2.17448E+00 2.03233E-13 6.74138E-13
 -1      1849 2.45846E+01-8.19294E-02-2.52204E-02 3.03294E+00 8.71039E-14 3.51177E-13
 -1      1850 3.00521E+01-2.27580E+00 1.41784E-01 1.50242E+00 2.86347E-13 7.11084E-13
 -1      1851 3.07080E+01-3.17978E+00-2.04655E-02 8.73065E-02 2.49467E-13 7.62393E-13
 -1      1852 2.63749E+01-2.55437E+00-3.68303E-02 2.90519E+00 2.65149E-13 3.58488E-13
 -1      1853 3.34129E+01-3.37967E+00 4.15911E-02-1.82277E+00 1.40138E-13 7.94295E-13
 -1      1854 3.34307E+01-2.54816E+00-7.26563E-02-3.32057E+00-1.03872E-13 8.11781E-13
 -1      1855 3.63722E+01-2.30115E+00-3.00145E-02-3.35051E+00-3.10585E-13 3.85636E-13
 -1      1856 3.05385E+01-4.58351E+00-1.10235E-01 3.60824E-01 1.87780E-13 4.25382E-13
 -1      1857 2.11963E+01-1.91440E+00 1.61211E-03 7.97077E+00 6.90503E-13 6.61360E-13
 -1      1858 1.60042E+01-3.83380E+00-3.18921E-01 7.25458E+00 4.09894E-13 6.67577E-13
 -1      1859 2.59825E+01 2.15113E+00 7.15523E-02 1.32425E-01-2.08437E-13 5.74478E-13
 -1      1860 3.37436E+01 1.30435E+00-1.59168E-01 4.48958E+00-7.39186E-13-2.32175E-13
 -1      1861 3.44913E+01-8.87148E-01-1.66793E-01 4.69936E+00-4.54664E-13-4.60590E-13
 -1      1862 3.27682E+01-2.06816E+00-7.39679E-02 3.51972E+00-1.66991E-13-5.97453E-13
 -1      1863 3.30472E+01-2.76213E+00 2.01248E-02 2.04767E+00 9.07122E-14-6.28983E-13
 -1      1864 3.49115E+01-2.05973E+00-1.17554E-01 3.50986E+00-4.01290E-13-4.63130E-13
 -1      1865 3.11368E+01-2.37619E+00-2.12742E-02 1.60824E-01 1.86573E-13-5.73985E-13
 -1      1866 3.06599E+01-1.73025E+00 1.12519E-01-1.25718E+00 2.16778E-13-4.94455E-13
 -1      1867 3.11143E+01-3.55502E+00-4.14570E-02 2.24749E-01 1.43580E-13-5.57429E-13
 -1      1868 2.91863E+01-1.10989E+00-1.14114E-02-2.18870E+00 2.27117E-13-3.85034E-13
 -1      1869 2.82291E+01-4.15559E-01 6.95036E-02-2.77187E+00 2.39374E-13-2.35194E-13
 -1      1870 2.79414E+01-2.01850E+00-2.55226E-03-2.51351E+00 2.79519E-13-3.10621E-13
 -1      1871 2.72784E+01-1.18483E-01-6.69680E-03-2.86658E+00 1.65567E-13-1.15258E-13
 -1      1872 2.61908E+01 2.27085E-01 1.69120E-02-2.86754E+00 2.29925E-13-9.19889E-14
 -1      1873 2.57844E+01-4.10493E-01 3.67782E-03-3.44623E+00 2.92592E-13-1.59251E-13
 -1      1874 2.55574E+01 2.92605E-01 1.01042E-03-2.60297E+00 2.06172E-13-1.72865E-13
 -1      1875 2.45747E+01 3.95775E-01-2.91601E-03-2.37253E+00 1.14328E-13-9.76372E-14
 -1      1876 2.43279E+01 3.57078E-01 4.86695E-04-3.23716E+00 1.87402E-13-1.68360E-13
 -1      1877 2.41388E+01 3.70706E-01 1.00086E-02-2.05115E+00 3.06370E-14-8.93122E-14
 -1      1878 2.33774E+01 3.66614E-01-5.18311E-03-1.80114E+00 3.98223E-14-1.51155E-14
 -1      1879 2.32820E+01 5.49664E-01 2.26023E-04-2.61774E+00 8.66859E-14-9.36274E-14
 -1      1880 2.30164E+01 3.19068E-01 1.33224E-02-1.50013E+00 2.19963E-15 2.59862E-15
 -1      1881 2.24146E+01 2.83354E-01-2.84624E-03-1.27938E+00-7.74051E-14-2.88725E-14
 -1      1882 2.24725E+01 5.01387E-01 2.67046E-03-1.96091E+00-1.42681E-14-4.42354E-16
 -1      1883 2.21401E+01 2.39520E-01 1.33250E-02-1.04767E+00-1.00062E-13-3.15364E-14
 -1      1884 2.17075E+01 2.00793E-01-7.10092E-04-8.83396E-01-1.03069E-14 1.58793E-14
 -1      1885 2.18210E+01 3.85477E-01 2.97602E-03-1.39583E+00-1.00835E-13-2.09651E-14
 -1      1886 2.14994E+01 1.68556E-01 1.11553E-02-7.16815E-01 1.04953E-13-1.90852E-14
 -1      1887 2.11960E+01 1.36815E-01 3.27238E-04-6.01424E-01 1.28383E-13-8.98700E-14
 -1      1888 2.13224E+01 2.74164E-01 2.48175E-03-9.69727E-01 7.97210E-14-3.66379E-14
 -1      1889 2.10412E+01 1.15009E-01 8.50059E-03-4.85766E-01 2.40853E-14-6.50322E-14
 -1      1890 2.08314E+01 9.15929E-02 6.86727E-04-4.07000E-01-3.45761E-14-1.06618E-13
 -1      1891 2.09486E+01 1.87811E-01 1.74356E-03-6.65285E-01 7.81684E-14-1.72546E-13
 -1      1892 2.07179E+01 7.73807E-02 6.14125E-03-3.28071E-01 7.73899E-14-1.17807E-13
 -1      1893 2.05738E+01 6.09339E-02 7.20517E-04-2.74975E-01 6.75198E-14-1.45906E-13
 -1      1894 2.06735E+01 1.26412E-01 1.09698E-03-4.53835E-01 2.36139E-14-2.20623E-13
 -1      1895 2.04915E+01 5.18329E-02 4.31054E-03-2.21498E-01-1.34615E-15-8.02281E-14
 -1      1896 2.03928E+01 4.05464E-02 6.32335E-04-1.85836E-01-1.21601E-13-1.74858E-14
 -1      1897 2.04737E+01 8.45240E-02 6.33988E-04-3.09004E-01 7.05375E-14-2.40994E-13
 -1      1898 2.03336E+01 3.47586E-02 2.98255E-03-1.49645E-01-2.77015E-13 1.49291E-14
 -1      1899 2.02661E+01 2.70853E-02 5.14318E-04-1.25656E-01-1.16594E-13 8.64010E-14
 -1      1900 2.03298E+01 5.65026E-02 3.37799E-04-2.10337E-01-1.40698E-13-4.38289E-15
 -1      1901 2.02239E+01 2.34074E-02 2.05195E-03-1.01106E-01 8.22285E-14 1.01888E-13
 -1      1902 2.01777E+01 1.81952E-02 4.02382E-04-8.48990E-02 2.12770E-13 2.43280E-14
 -1      1903 2.02270E+01 3.78997E-02 1.61800E-04-1.43135E-01-2.14449E-14 1.82848E-13
 -1      1904 2.01478E+01 1.58511E-02 1.41065E-03-6.81763E-02 1.67596E-13-1.10651E-13
 -1      1905 2.01163E+01 1.22946E-02 3.07833E-04-5.71681E-02 7.57179E-14 4.71583E-14
 -1      1906 2.01539E+01 2.55531E-02 6.32600E-05-9.72415E-02 1.46772E-13 9.26232E-14
 -1      1907 2.00952E+01 1.07931E-02 9.71519E-04-4.57267E-02 6.66115E-14 5.62594E-14
 -1      1908 2.00739E+01 8.34689E-03 2.32119E-04-3.82115E-02 1.65181E-13 8.90326E-14
 -1      1909 2.01023E+01 1.73220E-02 1.15107E-05-6.57764E-02 1.37002E-13 1.63538E-13
 -1      1910 2.00591E+01 7.37954E-03 6.70852E-04-3.03562E-02 1.69587E-13 9.15354E-14
 -1      1911 2.00448E+01 5.68030E-03 1.73176E-04-2.52078E-02 5.81930E-14 1.21303E-13
 -1      1912 2.00661E+01 1.17935E-02-1.32377E-05-4.41213E-02 1.69307E-13 1.82115E-13
 -1      1913 2.00346E+01 5.05380E-03 4.64217E-04-1.98072E-02-8.49535E-15 9.01560E-14
 -1      1914 2.00252E+01 3.86121E-03 1.28028E-04-1.62774E-02-1.00134E-13 3.15009E-14
 -1      1915 2.00409E+01 8.04610E-03-2.30530E-05-2.91804E-02 4.67751E-14-8.13480E-14
 -1      1916 2.00182E+01 3.45413E-03 3.21374E-04-1.25709E-02-3.22746E-14 7.55158E-14
 -1      1917 2.00121E+01 2.60920E-03 9.37976E-05-1.01582E-02 1.53280E-13 1.36941E-13
 -1      1918 2.00237E+01 5.48198E-03-2.50354E-05-1.88709E-02 1.06636E-14 1.49378E-13
 -1      1919 2.00075E+01 2.34478E-03 2.21981E-04-7.62982E-03 1.05456E-13 1.12987E-13
 -1      1920 2.00037E+01 1.74175E-03 6.80461E-05-5.99384E-03-4.31871E-14 7.24460E-14
 -1      1921 2.00122E+01 3.71261E-03-2.32370E-05-1.17808E-02 9.46827E-14 7.32654E-15
 -1      1922 2.00008E+01 1.57118E-03 1.52433E-04-4.28910E-03-1.91134E-13 5.20897E-14
 -1      1923 1.99985E+01 1.13875E-03 4.88367E-05-3.19571E-03-2.27471E-13 2.73946E-14
 -1      1924 2.00046E+01 2.48418E-03-1.98265E-05-6.94305E-03-1.38024E-13-1.33870E-13
 -1      1925 1.99968E+01 1.02715E-03 1.02801E-04-2.06894E-03-3.30584E-13-3.38361E-14
 -1      1926 1.99956E+01 7.26227E-04 3.71981E-05-1.35741E-03-3.79313E-13-1.96644E-13
 -1      1927 1.99999E+01 1.62960E-03-1.54834E-05-3.68761E-03-3.94181E-13-7.94163E-14
 -1      1928 1.99946E+01 6.58480E-04 6.76793E-05-6.61695E-04-1.62072E-13-4.09013E-13
 -1      1929 1.99941E+01 4.48528E-04 2.63163E-05-2.32102E-04-9.93758E-14-5.27132E-13
 -1      1930 1.99971E+01 1.03600E-03-1.52186E-05-1.57904E-03-3.37885E-13-1.81854E-13
 -1      1931 1.99936E+01 3.98821E-04 4.46897E-05 2.26169E-04-1.17073E-13-5.79271E-13
 -1      1932 1.99936E+01 2.42580E-04 1.68587E-05 4.97903E-04-8.59674E-14-5.33953E-13
 -1      1933 1.99956E+01 6.40814E-04-9.13676E-06-2.34096E-04-1.57367E-13-5.39096E-13
 -1      1934 1.99934E+01 2.19758E-04 2.86243E-05 7.56093E-04-2.88143E-14-3.81612E-13
 -1      1935 1.99936E+01 1.07736E-04 1.08797E-05 9.02020E-04 2.32467E-13-3.75424E-13
 -1      1936 1.99950E+01 3.52113E-04-7.19973E-06 6.11505E-04-1.10470E-14-4.87364E-13
 -1      1937 1.99937E+01 9.82117E-05 1.68177E-05 1.02737E-03 2.29283E-13-3.27872E-13
 -1      1938 1.99941E+01 2.10600E-05 6.87095E-06 1.08842E-03 2.74912E-13-2.84392E-13
 -1      1939 1.99949E+01 1.60168E-04-5.28162E-06 1.07869E-03 2.16935E-13-3.35147E-13
 -1      1940 1.99943E+01 1.93756E-05 8.73257E-06 1.12701E-03-5.16939E-14-3.86966E-13
 -1      1941 1.99947E+01-3.22157E-05 4.05134E-06 1.13367E-03-3.98617E-13-3.56627E-13
 -1      1942 1.99952E+01 3.59300E-05-3.73470E-06 1.29226E-03 1.02035E-13-3.06379E-13
 -1      1943 1.99950E+01-2.90767E-05 3.38130E-06 1.11794E-03-2.19470E-13-3.41156E-13
 -1      1944 1.99954E+01-6.22191E-05 2.12572E-06 1.09158E-03 6.68418E-14-2.01643E-13
 -1      1945 1.99956E+01-4.07054E-05-2.57096E-06 1.34126E-03-2.11962E-13-1.45787E-13
 -1      1946 1.99957E+01-5.63446E-05-2.42428E-08 1.04427E-03 1.69325E-13-2.92135E-13
 -1      1947 1.99961E+01-7.63738E-05 8.50001E-07 9.99752E-04 1.34528E-13-3.24794E-13
 -1      1948 1.99962E+01-8.41659E-05-1.71371E-06 1.28871E-03 1.14542E-13-2.65638E-13
 -1      1949 1.99964E+01-6.91817E-05-2.06290E-06 9.36448E-04 1.63939E-13-1.76413E-13
 -1      1950 1.99968E+01-8.00959E-05 3.74338E-08 8.83821E-04 2.14410E-13-4.10174E-13
 -1      1951 1.99967E+01-1.05005E-04-1.09622E-06 1.17860E-03 1.58420E-13-3.67331E-13
 -1      1952 1.99971E+01-7.25296E-05-3.15965E-06 8.14885E-04 2.77869E-13-3.10354E-13
 -1      1953 1.99974E+01-7.73158E-05-4.54972E-07 7.60700E-04 2.44422E-13-9.79913E-14
 -1      1954 1.99973E+01-1.10930E-04-6.61723E-07 1.04087E-03 2.18789E-13-1.89533E-13
 -1      1955 1.99976E+01-6.99887E-05-3.62602E-06 6.92685E-04 3.10256E-13-9.65931E-14
 -1      1956 1.99979E+01-7.08710E-05-7.37669E-07 6.40939E-04 3.16941E-13 9.73862E-14
 -1      1957 1.99978E+01-1.07543E-04-3.63167E-07 8.95185E-04 3.12959E-13 1.53710E-13
 -1      1958 1.99981E+01-6.41760E-05-3.68892E-06 5.77633E-04 8.09398E-14 2.61449E-13
 -1      1959 1.99984E+01-6.28116E-05-8.97134E-07 5.30464E-04-2.78705E-13 1.25230E-13
 -1      1960 1.99982E+01-9.88995E-05-1.62343E-07 7.53737E-04 2.62537E-13 1.26162E-13
 -1      1961 1.99986E+01-5.70095E-05-3.51140E-06 4.73653E-04-5.29973E-13 3.06608E-14
 -1      1962 1.99988E+01-5.46457E-05-1.00130E-06 4.31830E-04-4.84533E-13-1.27198E-13
 -1      1963 1.99986E+01-8.79507E-05-2.82006E-08 6.23249E-04-5.02470E-13 7.88051E-14
 -1      1964 1.99989E+01-4.99405E-05-3.20689E-06 3.81827E-04-1.87015E-13 1.25393E-13
 -1      1965 1.99991E+01-4.75235E-05-1.09413E-06 3.45079E-04-1.43877E-13 1.83027E-13
 -1      1966 1.99989E+01-7.68889E-05 6.46795E-08 5.06458E-04-6.67547E-14-6.24574E-14
 -1      1967 1.99992E+01-4.40865E-05-2.83453E-06 3.01103E-04-2.86660E-13 4.05343E-13
 -1      1968 1.99993E+01-4.23154E-05-1.17297E-06 2.68368E-04-1.29549E-13 2.14794E-13
 -1      1969 1.99992E+01-6.73867E-05 1.47260E-07 4.03135E-04-1.16064E-13 4.40364E-13
 -1      1970 1.99994E+01-4.03690E-05-2.39407E-06 2.28904E-04 3.60381E-13 1.63803E-13
 -1      1971 1.99995E+01-3.97599E-05-1.21098E-06 1.98515E-04 5.96030E-13 1.38971E-13
 -1      1972 1.99994E+01-6.07816E-05 2.40567E-07 3.10939E-04 9.17681E-14 4.52324E-13
 -1      1973 1.99996E+01-3.95878E-05-1.94965E-06 1.61564E-04 2.40037E-13-1.56336E-13
 -1      1974 1.99996E+01-3.97217E-05-1.14215E-06 1.31637E-04 1.56043E-14-8.71871E-14
 -1      1975 1.99995E+01-5.80425E-05 3.36796E-07 2.26281E-04 2.03120E-13-1.42763E-13
 -1      1976 1.99997E+01-3.98381E-05-1.38998E-06 9.59286E-05 2.28174E-13 4.85633E-14
 -1      1977 1.99997E+01-3.95812E-05-1.54007E-06 6.76203E-05 4.33750E-13 2.33997E-13
 -1      1978 1.99997E+01-5.77573E-05 5.60161E-07 1.44940E-04 2.59712E-13 3.15443E-14
 -1      1979 1.99998E+01-4.19403E-05-6.70115E-07 4.19152E-05 1.03826E-13 1.83428E-13
 -1      1980 1.83122E+01 1.26573E-01 1.25428E-02 7.93429E-01 1.81606E-13 4.45134E-13
 -1      1981 1.86800E+01 1.43937E-01 1.82253E-02 8.85337E-01 1.93237E-13 5.15897E-13
 -1      1982 1.77678E+01 1.45347E-01 1.20887E-02 5.80287E-01 1.24284E-13 3.66478E-13
 -1      1983 1.80330E+01 1.31617E-01 1.38336E-02 6.68525E-01 1.48480E-13 4.22509E-13
 -1      1984 1.88688E+01 2.07192E-01-5.05834E-03 9.91463E-01 2.12182E-13 2.99733E-13
 -1      1985 1.74082E+01 1.86609E-01 1.17617E-02 3.25597E-01 1.18237E-13 2.61530E-13
 -1      1986 1.75649E+01 1.66368E-01 1.01360E-02 4.36019E-01 1.15487E-13 3.33123E-13
 -1      1987 1.83860E+01 2.42086E-01-7.79738E-03 6.88338E-01 1.70352E-13 2.31027E-13
 -1      1988 1.72570E+01 2.12732E-01 1.07925E-02 2.23555E-02 1.21517E-13 1.91138E-13
 -1      1989 1.72968E+01 2.03427E-01 9.46459E-03 1.52081E-01 1.12739E-13 2.28501E-13
 -1      1990 1.80712E+01 2.97565E-01-9.92528E-03 3.30270E-01 1.58393E-13 1.66213E-13
 -1      1991 1.73266E+01 2.02721E-01 8.72935E-03-2.92853E-01 9.42527E-14 1.44396E-13
 -1      1992 1.72470E+01 2.13065E-01 9.62651E-03-1.63046E-01 1.09949E-13 1.75228E-13
 -1      1993 1.79488E+01 3.22591E-01-1.05768E-02-7.49898E-02 1.36256E-13 1.00390E-13
 -1      1994 1.75986E+01 1.53878E-01 5.87514E-03-5.64359E-01 3.56607E-14 7.95379E-14
 -1      1995 1.74128E+01 1.83077E-01 8.97746E-03-4.58555E-01 6.21170E-14 1.19143E-13
 -1      1996 1.80251E+01 2.91863E-01-9.19488E-03-4.72161E-01 1.09425E-13 7.18728E-14
 -1      1997 1.80210E+01 7.92113E-02 2.87495E-03-7.43326E-01 6.55149E-14 5.13725E-14
 -1      1998 1.77587E+01 1.19042E-01 6.78700E-03-6.80016E-01 5.46559E-14 6.74838E-14
 -1      1999 1.82733E+01 2.06887E-01-6.12080E-03-7.91208E-01 5.60853E-14 3.14323E-14
 -1      2000 1.85192E+01 6.07316E-04 5.49219E-04-8.06149E-01 9.73865E-14 2.19308E-14
 -1      2001 1.82209E+01 3.91932E-02 3.23892E-03-7.91629E-01 9.86808E-14 3.77016E-14
 -1      2002 1.86374E+01 9.04713E-02-2.25908E-03-9.78493E-01 1.01631E-13 2.02490E-14
 -1      2003 1.90144E+01-5.73614E-02 1.32424E-03-7.59711E-01 3.08473E-14 3.32416E-15
 -1      2004 1.87208E+01-3.31972E-02-6.09954E-04-7.88108E-01 9.73633E-14 1.31097E-14
 -1      2005 1.90456E+01-2.37602E-02 1.82908E-03-1.01534E+00 9.20719E-14 3.21507E-14
 -1      2006 1.94275E+01-1.10351E-01-1.29074E-03-6.16146E-01 5.54591E-15-5.68174E-14
 -1      2007 1.91882E+01-9.63516E-02-4.47216E-03-6.99214E-01-1.04478E-14-3.28294E-14
 -1      2008 1.94332E+01-1.04612E-01 9.11113E-03-9.28182E-01 5.16854E-14-1.21579E-14
 -1      2009 1.97407E+01-1.02284E-01-1.54108E-03-4.59773E-01 3.77541E-14-1.38602E-14
 -1      2010 1.95428E+01-1.01992E-01-5.92729E-03-5.21943E-01 1.48020E-14-5.40516E-14
 -1      2011 1.97117E+01-1.50548E-01 3.79622E-03-7.19046E-01 1.40400E-14-5.08098E-14
 -1      2012 1.99759E+01-9.27487E-02-1.49344E-03-3.13357E-01-5.24320E-15 2.76809E-14
 -1      2013 1.98329E+01-1.00149E-01-6.53698E-03-3.72503E-01 4.90515E-14 7.01377E-14
 -1      2014 1.99401E+01-1.56051E-01 3.54161E-03-5.29918E-01-1.55796E-14 2.51009E-15
 -1      2015 2.01252E+01-7.43011E-02-1.29403E-03-1.87548E-01-3.13549E-14 4.86947E-14
 -1      2016 2.00327E+01-8.51973E-02-6.10443E-03-2.36754E-01-1.38249E-14 2.92281E-14
 -1      2017 2.00926E+01-1.38033E-01 2.86823E-03-3.50283E-01 2.02950E-14 7.02093E-14
 -1      2018 2.02054E+01-5.35727E-02-1.02604E-03-9.08836E-02-2.49562E-14 5.33465E-14
 -1      2019 2.01541E+01-6.48095E-02-5.05711E-03-1.27623E-01-4.94366E-14 1.71135E-14
 -1      2020 2.01809E+01-1.08538E-01 2.08918E-03-2.00673E-01-3.86026E-14 6.42519E-14
 -1      2021 2.02351E+01-3.47262E-02-7.44069E-04-2.38114E-02-4.29997E-14 8.68667E-14
 -1      2022 2.02142E+01-4.44667E-02-3.78643E-03-4.85505E-02 1.51159E-15 5.89870E-14
 -1      2023 2.02202E+01-7.69450E-02 1.37909E-03-8.86033E-02-4.87801E-14-3.09182E-15
 -1      2024 2.02315E+01-1.96972E-02-4.84407E-04 1.78147E-02-8.35578E-14 6.01986E-14
 -1      2025 2.02309E+01-2.71996E-02-2.56726E-03 3.03831E-03-5.39800E-14 9.67261E-14
 -1      2026 2.02258E+01-4.89391E-02 8.08984E-04-1.27325E-02-6.36912E-14 6.42332E-14
 -1      2027 2.02085E+01-8.87729E-03-2.67721E-04 3.99243E-02-6.48084E-14 6.15395E-14
 -1      2028 2.02198E+01-1.41137E-02-1.54901E-03 3.25713E-02-1.14211E-13 1.08268E-13
 -1      2029 2.02103E+01-2.69994E-02 3.89597E-04 3.29539E-02-7.26528E-14 8.93082E-14
 -1      2030 2.01762E+01-1.80329E-03-1.02124E-04 4.84388E-02 5.91371E-14-1.35798E-14
 -1      2031 2.01933E+01-5.11240E-03-7.82688E-04 4.61118E-02-3.82029E-15 6.71992E-14
 -1      2032 2.01834E+01-1.14469E-02 1.03527E-04 5.60012E-02-1.86873E-14 9.03060E-14
 -1      2033 2.01416E+01 2.33209E-03 1.35257E-05 4.83661E-02 7.26368E-14 4.55514E-15
 -1      2034 2.01603E+01 4.87141E-04-2.57495E-04 4.91081E-02 5.57370E-14 3.30662E-14
 -1      2035 2.01522E+01-1.44648E-03-7.62011E-05 6.35848E-02 5.74987E-14 6.64010E-14
 -1      2036 2.01088E+01 4.37059E-03 8.59699E-05 4.35040E-02 2.93875E-14 1.14757E-13
 -1      2037 2.01266E+01 3.54154E-03 6.78274E-05 4.58723E-02 1.36549E-13 1.07468E-13
 -1      2038 2.01211E+01 4.26872E-03-1.76888E-04 6.16116E-02 8.49886E-14 2.02228E-13
 -1      2039 2.00800E+01 5.03650E-03 1.24411E-04 3.64890E-02-1.74624E-13 9.58048E-14
 -1      2040 2.00956E+01 4.85289E-03 2.43470E-04 3.95086E-02-9.46801E-14 1.33936E-13
 -1      2041 2.00927E+01 6.96873E-03-2.22254E-04 5.44795E-02-7.65815E-14 3.02173E-13
 -1      2042 2.00563E+01 4.88589E-03 1.38260E-04 2.90001E-02-6.82108E-14 9.66338E-14
 -1      2043 2.00691E+01 5.07136E-03 3.16333E-04 3.20689E-02-1.33575E-13 7.14647E-14
 -1      2044 2.00683E+01 7.72395E-03-2.31255E-04 4.51957E-02-1.57909E-13 2.19333E-13
 -1      2045 2.00374E+01 4.31090E-03 1.35824E-04 2.20019E-02 6.55353E-14 8.47909E-14
 -1      2046 2.00474E+01 4.67537E-03 3.24622E-04 2.47884E-02 2.25375E-14 1.04426E-13
 -1      2047 2.00483E+01 7.34436E-03-2.18177E-04 3.56452E-02-2.79650E-14 1.02220E-13
 -1      2048 2.00231E+01 3.56766E-03 1.23731E-04 1.59660E-02 8.32910E-14 2.82986E-14
 -1      2049 2.00306E+01 3.99022E-03 2.96648E-04 1.83208E-02 1.04602E-13 7.17042E-14
 -1      2050 2.00326E+01 6.39390E-03-1.93254E-04 2.68874E-02 1.03547E-13-2.40193E-14
 -1      2051 2.00126E+01 2.81022E-03 1.06863E-04 1.10487E-02 1.70974E-14 1.37116E-14
 -1      2052 2.00180E+01 3.22055E-03 2.51797E-04 1.29357E-02 8.41893E-14 5.93112E-14
 -1      2053 2.00206E+01 5.23612E-03-1.63444E-04 1.94185E-02 9.17494E-14 1.30113E-13
 -1      2054 2.00053E+01 2.12151E-03 8.85496E-05 7.22212E-03-1.47491E-13 1.97850E-13
 -1      2055 2.00090E+01 2.48377E-03 2.02345E-04 8.66913E-03-1.21903E-13 3.61615E-14
 -1      2056 2.00118E+01 4.08599E-03-1.33193E-04 1.33789E-02-1.10772E-13 1.72693E-13
 -1      2057 2.00004E+01 1.53818E-03 7.08756E-05 4.36312E-03-1.12891E-13 1.93805E-13
 -1      2058 2.00028E+01 1.83846E-03 1.55361E-04 5.42878E-03-7.42020E-14 1.89611E-13
 -1      2059 2.00056E+01 3.05623E-03-1.05112E-04 8.70358E-03-1.48788E-13 2.76465E-13
 -1      2060 1.99974E+01 1.06880E-03 5.50025E-05 2.31058E-03 7.75442E-14 8.78079E-14
 -1      2061 1.99988E+01 1.30610E-03 1.14373E-04 3.06393E-03 3.01365E-14 9.68809E-14
 -1      2062 2.00014E+01 2.19377E-03-8.05294E-05 5.22435E-03 5.20039E-14 1.00025E-13
 -1      2063 1.99957E+01 7.06495E-04 4.14512E-05 8.99416E-04 1.88662E-13 1.23680E-13
 -1      2064 1.99964E+01 8.86612E-04 8.06532E-05 1.40802E-03 1.07115E-13 1.32483E-13
 -1      2065 1.99987E+01 1.50623E-03-5.99238E-05 2.73487E-03 6.66765E-14 1.02199E-13
 -1      2066 1.99949E+01 4.37013E-04 3.03285E-05-2.13079E-05 1.04038E-13 1.42615E-13
 -1      2067 1.99951E+01 5.68695E-04 5.41542E-05 3.02667E-04 2.49047E-13 2.39607E-13
 -1      2068 1.99971E+01 9.80075E-04-4.32480E-05 1.02870E-03 1.17639E-13 3.48279E-13
 -1      2069 1.99948E+01 2.43742E-04 2.14956E-05-5.80293E-04 1.63611E-13-3.84220E-14
 -1      2070 1.99947E+01 3.36378E-04 3.41362E-05-3.90665E-04 7.85922E-14 1.32134E-14
 -1      2071 1.99963E+01 5.92117E-04-3.01583E-05-8.05623E-05 1.43375E-13 1.76625E-13
 -1      2072 1.99950E+01 1.10480E-04 1.46855E-05-8.81997E-04 7.59903E-14-3.72047E-14
 -1      2073 1.99947E+01 1.72858E-04 1.95714E-05-7.86520E-04 1.35068E-13 6.26387E-14
 -1      2074 1.99961E+01 3.16535E-04-2.01699E-05-7.50746E-04 1.26379E-13 2.47856E-13
 -1      2075 1.99955E+01 2.28302E-05 9.58143E-06-1.00795E-03-2.79546E-13 1.47421E-13
 -1      2076 1.99951E+01 6.25596E-05 9.38202E-06-9.75665E-04-4.65930E-14 5.17368E-14
 -1      2077 1.99962E+01 1.28702E-04-1.27577E-05-1.10937E-03-7.78729E-14 2.57903E-13
 -1      2078 1.99960E+01-3.12667E-05 5.86429E-06-1.01967E-03-6.11164E-14-5.90831E-14
 -1      2079 1.99956E+01-7.93140E-06 2.56997E-06-1.02750E-03-2.19867E-13 2.10635E-15
 -1      2080 1.99964E+01 7.03673E-06-7.41608E-06-1.25565E-03-1.69417E-13 1.39230E-13
 -1      2081 1.99966E+01-6.14945E-05 3.23911E-06-9.62080E-04 1.63449E-13-2.07797E-13
 -1      2082 1.99962E+01-4.96090E-05-1.72462E-06-9.93398E-04-3.71206E-14-8.43726E-14
 -1      2083 1.99968E+01-6.63597E-05-3.69104E-06-1.26430E-03-8.40571E-15 1.06464E-13
 -1      2084 1.99972E+01-7.53784E-05 1.44738E-06-8.66899E-04 2.85162E-14-2.93028E-13
 -1      2085 1.99968E+01-7.11534E-05-4.20630E-06-9.10125E-04 2.25197E-13-2.27319E-13
 -1      2086 1.99973E+01-1.05744E-04-1.19398E-06-1.18977E-03 2.10491E-13-2.36584E-13
 -1      2087 1.99977E+01-7.86146E-05 2.70146E-07-7.55623E-04-4.03356E-14-3.87514E-13
 -1      2088 1.99974E+01-7.92188E-05-5.43079E-06-8.03054E-04 2.60359E-14-3.55525E-13
 -1      2089 1.99977E+01-1.22119E-04 3.95783E-07-1.07039E-03 3.86267E-14-2.78662E-13
 -1      2090 1.99982E+01-7.54293E-05-4.74263E-07-6.42039E-04 1.37772E-13-4.52061E-13
 -1      2091 1.99979E+01-7.87870E-05-5.82272E-06-6.88870E-04 5.62271E-14-4.09082E-13
 -1      2092 1.99981E+01-1.23767E-04 1.33503E-06-9.32086E-04 3.37896E-14-5.71177E-13
 -1      2093 1.99986E+01-6.89233E-05-9.34352E-07-5.34219E-04 2.24021E-13-5.96414E-13
 -1      2094 1.99983E+01-7.35269E-05-5.69693E-06-5.77782E-04 1.56653E-13-4.54177E-13
 -1      2095 1.99985E+01-1.16807E-04 1.82410E-06-7.91383E-04 1.68695E-13-5.20311E-13
 -1      2096 1.99989E+01-6.13822E-05-1.22898E-06-4.36027E-04 1.34151E-13-6.48160E-13
 -1      2097 1.99987E+01-6.61262E-05-5.27850E-06-4.75235E-04 2.10935E-13-5.41845E-13
 -1      2098 1.99988E+01-1.05722E-04 2.01526E-06-6.57834E-04 1.68904E-13-5.14288E-13
 -1      2099 1.99992E+01-5.45457E-05-1.44485E-06-3.48221E-04 7.86343E-14-5.10134E-13
 -1      2100 1.99990E+01-5.85849E-05-4.71786E-06-3.83175E-04-5.22719E-15-5.06632E-13
 -1      2101 1.99990E+01-9.38234E-05 2.01907E-06-5.35877E-04-5.35220E-14-5.14015E-13
 -1      2102 1.99994E+01-4.97462E-05-1.60224E-06-2.69219E-04 1.68486E-13-3.27552E-13
 -1      2103 1.99993E+01-5.24564E-05-4.09235E-06-3.00946E-04 2.11566E-13-3.62391E-13
 -1      2104 1.99993E+01-8.36466E-05 1.91082E-06-4.26204E-04-1.25610E-14-2.55245E-13
 -1      2105 1.99995E+01-4.77975E-05-1.68714E-06-1.95914E-04 2.30826E-14-2.65467E-13
 -1      2106 1.99995E+01-4.88993E-05-3.40936E-06-2.26069E-04 2.01377E-13-2.82379E-13
 -1      2107 1.99994E+01-7.69577E-05 1.76234E-06-3.26879E-04 1.39705E-13-1.28844E-13
 -1      2108 1.99997E+01-4.87451E-05-1.58837E-06-1.24879E-04 6.49567E-14-4.72067E-13
 -1      2109 1.99996E+01-4.81683E-05-2.48385E-06-1.55146E-04 3.93173E-14-4.33503E-13
 -1      2110 1.99996E+01-7.42424E-05 1.90402E-06-2.35146E-04 1.91569E-13-1.87551E-13
 -1      2111 1.99997E+01-4.35594E-05-1.48516E-06-6.16765E-05 1.13542E-13-6.05396E-13
 -1      2112 1.99997E+01-4.53389E-05-1.70385E-06-8.90925E-05 2.37112E-13-4.67453E-13
 -1      2113 1.99997E+01-7.18159E-05 6.54330E-07-1.51605E-04 1.85593E-13-3.21143E-13
 -1      2114 1.99997E+01-6.30238E-05-4.92271E-07-7.83975E-05-1.13791E-13-3.24841E-13
 -1      2115 1.99998E+01-3.50828E-04 7.90613E-07-1.93038E-04-4.64122E-13-1.90245E-13
 -1      2116 1.99998E+01-2.89071E-04-1.19582E-06-1.87303E-04-3.22927E-13-1.06869E-13
 -1      2117 1.99998E+01-2.31841E-04 1.49667E-07-1.72522E-04-1.84985E-13 1.91584E-13
 -1      2118 1.99998E+01-1.75770E-04-1.29056E-06-1.54277E-04-2.76683E-13 3.28099E-13
 -1      2119 1.99998E+01-2.65284E-04 1.28313E-07-2.31304E-04-3.23265E-14-2.53778E-14
 -1      2120 1.99998E+01-1.06106E-04-6.69863E-07-1.08066E-04-2.61477E-13-9.42119E-14
 -1      2121 1.99998E+01-4.65654E-04 1.43117E-06-1.83441E-04-6.12438E-13-6.33834E-13
 -1      2122 1.99998E+01-4.06282E-04-2.76913E-07-1.90792E-04-7.37237E-13-2.35081E-13
 -1      2123 1.99998E+01-3.77423E-04-5.41158E-07-2.44254E-04-3.66516E-13-3.51149E-13
 -1      2124 1.99998E+01-5.65290E-04 1.97084E-06-1.46757E-04-3.93993E-13 2.56242E-13
 -1      2125 1.99998E+01-5.14943E-04 6.42299E-07-1.65511E-04-5.51913E-13-2.49200E-13
 -1      2126 1.99998E+01-4.82042E-04-1.17072E-06-2.21048E-04-5.12659E-13-3.03325E-13
 -1      2127 1.99998E+01-6.34902E-04 2.28266E-06-8.94244E-05-3.04214E-13 4.03569E-13
 -1      2128 1.99998E+01-6.01706E-04 1.45244E-06-1.16332E-04-3.38127E-13 1.83340E-13
 -1      2129 1.99999E+01-5.67812E-04-1.74180E-06-1.66332E-04-2.89242E-13 3.68301E-13
 -1      2130 1.99999E+01-6.65652E-04 2.31079E-06-1.98973E-05-3.57806E-13 6.29656E-13
 -1      2131 1.99999E+01-6.54198E-04 2.02792E-06-5.10369E-05-5.49367E-13 7.71645E-13
 -1      2132 1.99999E+01-6.23652E-04-2.10383E-06-8.87456E-05-2.61273E-13 5.59522E-13
 -1      2133 1.99999E+01-6.53699E-04 2.03402E-06 5.23177E-05-2.30046E-13 2.65482E-13
 -1      2134 1.99999E+01-6.65571E-04 2.30525E-06 2.12021E-05-3.34904E-13 5.18149E-13
 -1      2135 1.99999E+01-6.42917E-04-2.22975E-06 7.80988E-07-5.24016E-13 6.02895E-13
 -1      2136 1.99998E+01-6.00627E-04 1.47515E-06 1.17474E-04-2.01177E-13-1.59245E-13
 -1      2137 1.99998E+01-6.34244E-04 2.26296E-06 9.06622E-05-3.08410E-13-3.50224E-14
 -1      2138 1.99999E+01-6.23319E-04-2.09928E-06 9.02594E-05-4.97000E-13 1.11173E-13
 -1      2139 1.99998E+01-5.15116E-04 6.52781E-07 1.65737E-04-1.61184E-13-3.49820E-13
 -1      2140 1.99998E+01-5.64783E-04 1.96136E-06 1.47359E-04-2.35502E-13-1.31170E-13
 -1      2141 1.99999E+01-5.67772E-04-1.76555E-06 1.67164E-04-2.67907E-13-2.26196E-13
 -1      2142 1.99998E+01-4.05384E-04-3.01130E-07 1.91041E-04 2.36097E-15 3.72456E-13
 -1      2143 1.99998E+01-4.65812E-04 1.44713E-06 1.83710E-04-4.68743E-14 2.11578E-13
 -1      2144 1.99998E+01-4.82593E-04-1.18378E-06 2.21345E-04-2.90005E-13-4.73970E-14
 -1      2145 1.99998E+01-2.87014E-04-1.16450E-06 1.86977E-04 1.79529E-13-2.45865E-13
 -1      2146 1.99998E+01-3.48800E-04 8.30356E-07 1.93107E-04 8.39794E-14-1.10015E-14
 -1      2147 1.99998E+01-3.76830E-04-4.93793E-07 2.44464E-04-5.11123E-14 2.56209E-13
 -1      2148 1.99998E+01-1.75326E-04-1.67715E-06 1.52448E-04-2.03064E-14-2.02836E-13
 -1      2149 1.99998E+01-2.29790E-04 1.66328E-07 1.72036E-04 1.76111E-13-3.69322E-13
 -1      2150 1.99998E+01-2.63686E-04 2.30611E-07 2.30779E-04 2.09412E-13-2.60762E-13
 -1      2151 1.88639E+01 1.48518E-01 1.20353E-02 9.51136E-01 2.13806E-13 5.72450E-13
 -1      2152 1.93653E+01 2.16493E-01 1.64235E-02 1.10218E+00 2.39725E-13 6.43924E-13
 -1      2153 1.97934E+01 3.62646E-01 1.64882E-03 1.45161E+00 2.71226E-13 4.70061E-13
 -1      2154 1.93333E+01 2.32078E-01-3.79699E-03 1.22370E+00 2.56930E-13 3.87933E-13
 -1      2155 1.16287E+01-4.22084E+00-1.30439E-01 7.71862E+00 3.73257E-13 7.29319E-13
 -1      2156 7.67168E+00-6.40298E+00-4.15565E-01 6.40728E+00 1.19016E-13 8.16708E-13
 -1      2157 3.04002E+01 7.68959E-01 2.13259E-01 7.00691E+00 7.33330E-13 1.75859E-13
 -1      2158 2.53589E+01-9.41526E-01-6.41685E-02 6.94355E+00 7.21423E-13 3.75588E-13
 -1      2159 2.69963E-01-6.95337E+00-3.29259E-01 2.49220E+00-3.31596E-13 1.12160E-12
 -1      2160-2.22529E-01-7.96118E+00-4.78116E-01 9.47365E-01-6.38458E-13 1.07164E-12
 -1      2161 1.41249E+01 5.50940E+00-2.31615E-02-1.26974E+00-3.16726E-13-4.45099E-13
 -1      2162 1.52648E+01 5.48969E+00 1.25336E-03-9.24338E-01-3.11421E-13-3.47659E-13
 -1      2163 1.58903E+01 5.03901E+00 2.44481E-02-3.77926E-01-2.91255E-13-2.98090E-13
 -1      2164 1.35097E+01 5.46542E+00 3.11134E-02-1.64946E+00-3.53189E-13-4.77221E-13
 -1      2165 3.40613E+01 4.13973E+00-1.74364E-01 1.31872E+00-1.00786E-12 2.44957E-13
 -1      2166 3.45059E+01 2.86008E+00-2.32959E-01 3.34106E+00-8.80851E-13-5.71210E-14
 -1      2167 3.68397E+01 3.90059E+00 2.50715E-01 4.15414E+00 6.97012E-13-1.12355E-13
 -1      2168 3.31930E+01 2.36910E+00 1.20618E-01 5.15176E+00 7.55930E-13 7.73825E-14
 -1      2169 4.18183E+01 7.04526E+00 4.04000E-01 2.14195E+00 7.17149E-13-2.34313E-13
 -1      2170 3.83559E+01 6.16824E+00 1.31684E-01 2.78800E+00 7.43183E-13-1.26621E-13
 -1      2171 4.20346E+01 8.15221E+00 2.55620E-01 6.60501E-02 8.78519E-13-4.31405E-13
 -1      2172 4.22707E+01 7.75284E+00 3.06868E-01 1.48920E+00 7.77822E-13-2.73032E-13
 -1      2173 3.74017E+01 8.42447E+00 3.06821E-01 2.64412E-01 7.94476E-13-3.44724E-13
 -1      2174 4.16528E+01 7.06531E+00 3.16624E-01-2.44845E+00 9.24427E-13-5.91860E-13
 -1      2175 4.25326E+01 7.65644E+00 2.80806E-01-7.25000E-01 9.30866E-13-3.90826E-13
 -1      2176 3.65405E+01 4.83794E+00 9.17702E-02-4.44302E+00 8.98032E-13-7.68385E-13
 -1      2177 4.02161E+01 5.81573E+00 3.35472E-01-3.42749E+00 8.98587E-13-6.04183E-13
 -1      2178 2.95881E+01 1.79093E+00-7.92410E-02-6.04185E+00 8.26283E-13-7.69940E-13
 -1      2179 3.44751E+01 3.42056E+00 2.79923E-01-5.81495E+00 8.34208E-13-7.87259E-13
 -1      2180 2.23685E+01-1.35930E+00-5.01325E-02-7.09602E+00 5.63050E-13-6.44707E-13
 -1      2181 2.68792E+01 5.90243E-01 1.98869E-01-7.31661E+00 7.35967E-13-7.56617E-13
 -1      2182 1.19984E+01-3.49937E+00-3.05567E-01-7.31484E+00 5.27134E-13-8.39870E-13
 -1      2183 1.68441E+01-2.14456E+00-9.71416E-02-8.13634E+00 4.83891E-13-7.76545E-13
 -1      2184 5.87668E+00-4.26533E+00-1.91014E-01-6.51575E+00 1.24512E-13-8.21315E-13
 -1      2185 8.74475E+00-3.39609E+00-1.53448E-01-7.36969E+00 4.50529E-13-8.58820E-13
 -1      2186 1.25806E+01-3.26409E+00-2.27206E-02-8.17033E+00-8.54872E-15-7.25642E-13
 -1      2187 7.77687E-01-5.67874E+00-3.78310E-01-3.42550E+00-5.32629E-14-9.08940E-13
 -1      2188 2.55273E+00-3.82981E+00-1.37400E-01-5.09118E+00 1.17351E-13-8.94507E-13
 -1      2189 2.21545E-01-5.81884E+00-3.42837E-01-2.78823E-01-3.10543E-13-9.68670E-13
 -1      2190-6.06673E-03-5.77237E+00-3.49988E-01-1.85332E+00-3.42920E-14-9.19265E-13
 -1      2191 1.65399E+00-2.46920E+00-1.11338E-01-2.95296E+00-1.48992E-13-1.03212E-12
 -1      2192 4.25930E+00-6.30585E+00-4.01023E-01 3.14980E+00-5.44065E-13-1.05438E-12
 -1      2193 1.77386E+00-6.58027E+00-4.65173E-01 1.67330E+00-2.86854E-13-9.57012E-13
 -1      2194 1.25275E+01-5.87810E+00-3.30150E-01 5.41684E+00-6.16396E-13-1.05070E-12
 -1      2195 7.63897E+00-7.03174E+00-5.83539E-01 3.93073E+00-5.23526E-13-1.01141E-12
 -1      2196 2.45184E+01-5.19988E+00-2.51056E-01 4.98121E+00-6.29607E-13-9.26814E-13
 -1      2197 1.86020E+01-6.28075E+00-4.73801E-01 4.65399E+00-5.05818E-13-8.84320E-13
 -1      2198 4.31938E+01 1.99303E+00 4.56296E-01-7.28869E-01-9.03222E-13-4.21996E-13
 -1      2199 3.83574E+01 4.75695E-01 1.77809E-01-2.40987E-01-8.65599E-13-4.07341E-13
 -1      2200 4.46826E+01 3.99128E+00 5.31260E-01-1.41713E+00-8.89733E-13-1.95066E-13
 -1      2201 4.40397E+01 5.04932E+00 4.28485E-01 5.37922E-01-1.13465E-12 1.92957E-13
 -1      2202 4.60411E+01 5.89978E+00 6.13680E-01 6.89248E-01-1.10967E-12-1.90681E-14
 -1      2203 3.88467E+01 3.23000E-01-4.18759E-03 8.22962E-01-9.03638E-13 1.57208E-13
 -1      2204 4.26847E+01 2.13648E+00 3.21980E-01 1.21822E+00-9.88987E-13 1.63203E-14
 -1      2205 2.20313E+01-5.92779E+00-4.44138E-01-4.61467E+00-6.71352E-13 5.33518E-13
 -1      2206 2.80826E+01-4.33140E+00-6.46373E-02-4.58708E+00-6.62470E-13 4.62907E-13
 -1      2207 1.12910E+01-7.34952E+00-5.80399E-01-4.85399E+00-8.13793E-13 6.99496E-13
 -1      2208 1.65682E+01-5.85144E+00-2.60499E-01-5.90959E+00-7.90257E-13 6.78152E-13
 -1      2209 4.18548E+00-8.04130E+00-5.43977E-01-3.36739E+00-8.02580E-13 6.93223E-13
 -1      2210 7.36012E+00-6.94084E+00-3.60366E-01-4.62534E+00-9.03055E-13 7.59309E-13
 -1      2211 5.19254E-01-7.76374E+00-4.41875E-01-8.21475E-01-5.35655E-13 8.80407E-13
 -1      2212 1.88822E+00-7.34219E+00-3.76577E-01-2.21490E+00-7.68052E-13 7.81042E-13
 -1      2213 4.52306E+00-6.27503E+00-2.81761E-01 5.77142E+00 3.08642E-14 1.01807E-12
 -1      2214 2.21088E+00-7.18228E+00-3.73704E-01 4.46784E+00-2.91378E-13 1.02784E-12
 -1      2215 1.99997E+01-6.18529E-05 1.24423E-07 7.67891E-05 2.77940E-13-9.49930E-14
 -1      2216 2.59076E+01 1.50314E+00-9.90275E-03 1.08803E+00-1.70346E-13 5.35008E-13
 -1      2217 2.34089E+01 1.85919E+00-3.65958E-02 1.62006E+00-1.32437E-13 2.77486E-13
 -1      2218 1.64126E+01-4.89680E+00-2.51523E-02 8.17478E+00-5.37348E-14 3.61461E-13
 -1      2219 2.54021E+01-3.80203E+00-2.20616E-02 6.55724E+00 5.20028E-13-1.94844E-14
 -1      2220 3.83856E+01 2.98272E+00 1.86752E-01 3.93127E+00-9.82825E-13-1.30951E-13
 -1      2221 1.99997E+01-1.37738E-04-1.08600E-07-1.67220E-04 1.45644E-13-3.82036E-15
 -1      2222 2.50847E+00-4.95708E+00-1.83665E-01 4.12054E+00-3.79308E-13 1.22002E-12
 -1      2223 1.99997E+01-9.78038E-05-1.47445E-06 1.04376E-04 4.17565E-14-1.85396E-13
 -1      2224 1.99998E+01-1.34401E-04-7.38634E-07 1.30638E-04 3.70332E-14-5.17108E-14
 -1      2225 1.99997E+01-1.66522E-04 1.17605E-07 1.89818E-04 2.41260E-13-1.72448E-13
 -1      2226 1.99997E+01-9.26587E-05-3.55271E-07 1.36116E-04 4.51726E-13 1.24144E-13
 -1      2227 8.14012E+00-5.42850E+00-1.65307E-01 7.29867E+00-2.85716E-13 8.90926E-13
 -1      2228 3.20536E+01 1.10220E-01 2.68146E-01 4.02334E+00 5.28355E-13-2.06446E-13
 -1      2229 1.46041E+00-4.73576E+00-2.02787E-01-3.86297E-01-3.62682E-13 1.01791E-12
 -1      2230 4.95348E+00-5.48220E+00-2.17043E-01-3.91010E+00-3.09974E-13 6.41209E-13
 -1      2231 1.20933E+01-6.44812E+00-2.00149E-01-5.80300E+00-3.71203E-13 4.42590E-13
 -1      2232 2.23598E+01-6.49607E+00-6.08639E-02-5.09886E+00-2.80664E-13 1.89765E-13
 -1      2233 3.63051E+01-2.01177E+00 6.62087E-02-2.21019E+00-6.85008E-13 4.44422E-13
 -1      2234 3.62642E+01-2.12689E+00 1.77218E-01 2.13809E+00-5.73534E-13-2.08167E-13
 -1      2235 3.34648E+01-4.53125E+00-5.85824E-02 1.12544E+00-1.00489E-13-3.58880E-13
 -1      2236 3.06350E+01-4.05394E+00-3.64468E-01-2.59136E+00-6.37435E-13 5.11813E-13
 -1      2237 3.93722E+01 6.13575E+00 3.84829E-01 8.37526E-01-1.19016E-12 1.44107E-13
 -1      2238 4.61148E+01 6.23515E+00 5.79795E-01-4.81582E-01-1.11489E-12 1.60011E-14
 -1      2239 4.54164E+01 6.33111E+00 6.17843E-01-8.19840E-01-1.07325E-12-2.15494E-13
 -1      2240 3.40205E+01 4.32403E+00-1.99823E-01-6.30230E-01-1.00486E-12 3.06866E-13
 -1      2241 1.87023E+01-6.13214E+00-1.05794E-01 5.33717E+00-1.38334E-13-6.86284E-13
 -1      2242 2.55139E+00-3.51811E+00-1.82157E-01 1.28436E+00-1.57027E-13-1.05449E-12
 -1      2243 5.62819E+00-2.72900E+00-4.17810E-02-6.55662E+00-1.25677E-13-8.92841E-13
 -1      2244 2.09205E+01-2.37172E+00 6.11551E-04-7.39175E+00 3.13249E-13-5.68323E-13
 -1      2245 2.42904E+01-2.94959E+00-1.23684E-01-6.11453E+00 4.42979E-14-3.00093E-13
 -1      2246 1.97457E+01-3.06421E+00 1.39708E-01-7.60049E+00-3.17524E-14-4.14391E-13
 -1      2247 2.93568E+01-4.64139E-01 3.94204E-02-4.62162E+00 4.23050E-13-3.77531E-13
 -1      2248 3.45778E+01 3.32300E+00 2.18689E-01-2.37337E+00 6.86354E-13-3.52551E-13
 -1      2249 3.85671E+01 8.87340E+00 3.04786E-01 4.17302E-02 9.27536E-13-3.55410E-13
 -1      2250 3.44239E+01 3.40780E+00-2.65687E-01-2.71386E+00-8.13460E-13 5.68073E-13
 -1      2251 3.58979E+01 4.68816E+00 2.51945E-01 1.33070E+00 6.81594E-13-3.16025E-13
 -1      2252 3.77465E+01 6.91789E+00 3.30488E-01-7.12585E-01 8.68527E-13-3.25850E-13
 -1      2253 8.41959E+00-5.02894E+00-1.86064E-01 4.68445E+00-1.55209E-13-9.55735E-13
 -1      2254 3.55256E+01-3.34826E+00 4.81459E-02 8.93489E-01-4.93827E-13-2.61346E-13
 -1      2255 3.00112E+01-4.61301E+00-2.11655E-01 1.87305E+00-4.37650E-13-4.45033E-13
 -1      2256 3.96350E+01 4.14579E+00 3.19948E-01-2.81046E+00-9.03499E-13 2.13218E-13
 -1      2257 3.06794E+01-5.28960E+00 1.01100E-01-2.04273E+00-2.87270E-13 8.43769E-15
 -1      2258 3.03233E+01-5.46232E+00 1.04332E-01 1.71710E+00-6.03129E-14 4.44089E-16
 -1      2259 1.59058E+01 3.34154E+00 6.48988E-02-3.85407E+00-4.13689E-13-4.46151E-13
 -1      2260 1.44486E+01 3.75329E+00-3.95332E-02-3.87856E+00-4.32123E-13-4.81592E-13
 -1      2261 1.33093E+01 4.57751E+00 7.08799E-02-3.49784E+00-4.18143E-13-5.37936E-13
 -1      2262 1.24701E+01 4.86743E+00-3.30365E-02-3.04816E+00-4.13967E-13-5.46022E-13
 -1      2263 1.37223E+01 3.70157E+00 3.78511E-02-4.18493E+00-4.45165E-13-5.16826E-13
 -1      2264 2.07283E+01 1.73820E+00-1.47674E-03-1.77157E+00-2.23665E-13-2.94410E-13
 -1      2265 1.98396E+01 1.89464E+00-5.10083E-03-2.38145E+00-2.83824E-13-3.18327E-13
 -1      2266 2.17663E+01 1.75593E+00-2.15450E-02-4.06996E-01-1.00759E-13-2.64511E-13
 -1      2267 2.13585E+01 1.75698E+00 2.12130E-03-9.96588E-01-1.63086E-13-2.75830E-13
 -1      2268 2.15845E+01 1.04078E+00-1.69524E-02-1.40579E+00-2.08452E-13-2.33389E-13
 -1      2269 2.20622E+01 2.00017E+00-3.00688E-02 7.05721E-01 2.13623E-14-2.43632E-13
 -1      2270 2.19915E+01 1.92525E+00-2.89763E-03 2.18828E-01-4.52923E-14-2.56210E-13
 -1      2271 2.23738E+01 1.25530E+00-4.60087E-03 2.43457E-03-8.78275E-14-1.99842E-13
 -1      2272 2.19148E+01 2.25334E+00-3.23945E-02 1.56651E+00 1.40299E-13-1.89099E-13
 -1      2273 2.20347E+01 2.17856E+00-9.79388E-03 1.17322E+00 7.25883E-14-2.20546E-13
 -1      2274 2.24588E+01 1.58764E+00 3.83731E-03 1.05968E+00 4.96030E-14-1.75191E-13
 -1      2275 2.15620E+01 2.35828E+00-3.42873E-02 2.19352E+00 2.44135E-13-1.35508E-13
 -1      2276 2.17570E+01 2.35107E+00-1.55615E-02 1.88865E+00 1.86793E-13-1.68175E-13
 -1      2277 2.21576E+01 1.83350E+00 8.06538E-03 1.79503E+00 1.53262E-13-1.25800E-13
 -1      2278 2.11928E+01 2.20026E+00-4.19626E-02 2.59836E+00 3.28337E-13-1.17059E-14
 -1      2279 2.13720E+01 2.32933E+00-1.95544E-02 2.39158E+00 2.79143E-13-8.59642E-14
 -1      2280 2.17086E+01 1.87230E+00 1.20471E-02 2.26023E+00 2.48587E-13-6.19947E-14
 -1      2281 2.09814E+01 1.66820E+00-3.56254E-02 2.66860E+00 3.43682E-13 2.16216E-13
 -1      2282 2.10686E+01 2.02293E+00-1.11933E-02 2.65622E+00 3.33317E-13 8.11139E-14
 -1      2283 2.12714E+01 1.61952E+00 1.84458E-02 2.44423E+00 3.02841E-13 6.03380E-14
 -1      2284 2.08399E+01 1.00404E+00-2.38280E-02 2.28107E+00 3.24973E-13 4.38913E-13
 -1      2285 2.09014E+01 1.45966E+00 1.30700E-03 2.53361E+00 3.37900E-13 3.12410E-13
 -1      2286 2.08110E+01 1.13573E+00-7.96859E-04 2.26316E+00 3.26312E-13 2.19633E-13
 -1      2287 2.03522E+01 6.63368E-01-4.61940E-03 1.84902E+00 3.13341E-13 4.03039E-13
 -1      2288 1.96521E+01-5.39131E+00-1.88593E-01 7.91725E+00 1.75970E-14-7.64250E-14
 -1      2289 1.55413E+01-5.23585E+00 4.78216E-03 7.97442E+00-3.12195E-13 2.89250E-13
 -1      2290 2.16403E+01 1.13997E+00 9.70882E-02 3.00106E+00 3.99195E-14 1.03785E-13
 -1      2291 2.21046E+01-4.03519E-02 7.92219E-02 3.43068E+00 1.27912E-13 7.76601E-14
 -1      2292 2.77765E+01-3.34365E+00 1.69920E-01 5.33914E+00-9.27591E-14-5.71487E-14
 -1      2293 2.39221E+01-4.31867E+00 1.38917E-01 6.25801E+00-1.70253E-13-1.20182E-13
 -1      2294 2.25067E+01-1.52235E+00 1.55114E-01 4.03239E+00 2.35242E-13 6.94722E-14
 -1      2295 2.38998E+01-3.39622E+00 8.32892E-02 3.82162E+00 2.67286E-13 1.91236E-14
 -1      2296 1.88021E+01-5.92344E-01 1.90503E-02 4.24286E+00 1.44343E-13-1.72445E-13
 -1      2297 2.71178E+01-5.31824E+00 9.01750E-02 3.16898E+00 1.65840E-13-1.34753E-14
 -1      2298 3.39515E+01 5.13155E+00-1.14554E-01-1.92826E-01 6.52478E-13-4.09395E-13
 -1      2299 3.30292E+01 2.80426E+00 1.97995E-02 4.91138E-01 5.52336E-13-4.18054E-13
 -1      2300 1.99997E+01-1.43462E-04-1.44821E-06-2.07958E-04 2.35946E-13-1.15690E-13
 -1      2301 2.04955E+01 3.11539E+00 3.61695E-02 1.11207E+00-1.76838E-13 2.72681E-14
 -1      2302 2.11378E+01 1.99183E+00 3.46282E-02 2.23394E+00-6.95017E-14 7.71223E-14
 -1      2303 1.82775E+01 2.09332E+00-3.09010E-03 2.61382E+00-2.51917E-14-1.42011E-13
 -1      2304 1.78062E+01 3.81158E+00-2.31390E-02 9.21292E-01-1.90647E-13-1.54494E-13
 -1      2305 3.04237E+01-4.54123E+00 3.67297E-02-5.79712E-01 1.36502E-13-4.18360E-13
 -1      2306 2.84638E+01-3.86745E+00 9.74300E-02-2.16131E+00 2.90795E-13-3.80527E-13
 -1      2307 2.97810E+01-5.26966E+00-9.33648E-02-1.67939E+00 2.11497E-14-1.73361E-13
 -1      2308 2.65707E+01-2.55881E+00 3.28611E-02-3.02140E+00 2.95750E-13-3.10679E-13
 -1      2309 2.52973E+01-1.34571E+00 8.96218E-02-3.78352E+00 3.71411E-13-2.17194E-13
 -1      2310 2.51406E+01-3.47733E+00-1.80958E-02-3.82936E+00 3.18814E-13-2.65926E-13
 -1      2311 2.44463E+01-4.81735E-01 2.87964E-02-3.78860E+00 3.39360E-13-2.43278E-13
 -1      2312 2.35967E+01 1.85858E-01 2.84380E-02-3.86113E+00 2.19975E-13-1.88525E-13
 -1      2313 2.28857E+01-8.99751E-01 9.16845E-03-4.36501E+00 3.22284E-13-2.26305E-13
 -1      2314 2.32774E+01 5.07893E-01 1.52310E-02-3.49736E+00 2.31326E-13-2.05151E-13
 -1      2315 2.26671E+01 7.24720E-01-1.61972E-03-3.24582E+00 1.83223E-13-1.73730E-13
 -1      2316 2.19264E+01 4.97959E-01 4.98541E-03-3.89750E+00 2.21628E-13-2.73483E-13
 -1      2317 2.25471E+01 7.56147E-01 1.26976E-02-2.83944E+00 8.91934E-14-1.16693E-13
 -1      2318 2.20869E+01 7.63995E-01-7.24098E-03-2.52556E+00 5.04766E-14-9.45617E-14
 -1      2319 2.15454E+01 9.36833E-01 1.33458E-02-3.14966E+00 1.14870E-13-1.70787E-13
 -1      2320 2.19979E+01 6.94817E-01 1.31874E-02-2.14675E+00-2.20917E-14-1.00645E-13
 -1      2321 2.16141E+01 6.29331E-01-6.18990E-03-1.84469E+00-3.84345E-14-1.26022E-13
 -1      2322 2.13050E+01 9.08157E-01 1.53760E-02-2.40064E+00 8.74648E-15-2.09224E-13
 -1      2323 2.15328E+01 5.40453E-01 1.24005E-02-1.54636E+00-7.20726E-14-1.02775E-13
 -1      2324 2.12329E+01 4.65430E-01-4.02125E-03-1.30704E+00 1.05072E-14-6.81642E-14
 -1      2325 2.10817E+01 7.24880E-01 1.21553E-02-1.74955E+00-3.99854E-14-1.66522E-13
 -1      2326 2.11540E+01 3.90016E-01 1.05243E-02-1.08747E+00 8.70163E-14-8.65402E-14
 -1      2327 2.09257E+01 3.26810E-01-2.46582E-03-9.10636E-01 1.49158E-13-7.94937E-14
 -1      2328 2.08702E+01 5.29645E-01 8.28242E-03-1.24494E+00 6.41531E-14-1.24862E-13
 -1      2329 2.08539E+01 2.71045E-01 8.20948E-03-7.54659E-01 7.92040E-14-1.67185E-13
 -1      2330 2.06840E+01 2.23679E-01-1.48660E-03-6.28909E-01-1.84002E-14-2.87302E-13
 -1      2331 2.06797E+01 3.70275E-01 5.08837E-03-8.73423E-01 7.11185E-14-2.53762E-13
 -1      2332 2.06225E+01 1.84946E-01 6.07731E-03-5.20262E-01 2.27830E-14-2.35037E-13
 -1      2333 2.04982E+01 1.51339E-01-8.89807E-04-4.32623E-01 7.95917E-14-2.28797E-13
 -1      2334 2.05178E+01 2.53183E-01 2.87795E-03-6.07991E-01 3.98119E-16-2.57110E-13
 -1      2335 2.04480E+01 1.25251E-01 4.36164E-03-3.57677E-01 1.33777E-13-2.16525E-13
 -1      2336 2.03582E+01 1.02045E-01-5.26739E-04-2.97175E-01 5.66049E-14-1.60011E-13
 -1      2337 2.03865E+01 1.71413E-01 1.49813E-03-4.21555E-01 9.90646E-14-1.01868E-13
 -1      2338 2.03184E+01 8.47280E-02 3.07868E-03-2.45658E-01-3.46814E-14-9.46019E-14
 -1      2339 2.02541E+01 6.89003E-02-3.05870E-04-2.04012E-01-3.97257E-14 1.00438E-13
 -1      2340 2.02834E+01 1.15745E-01 6.97007E-04-2.91725E-01 2.09601E-14-9.45444E-14
 -1      2341 2.02235E+01 5.74637E-02 2.15640E-03-1.68587E-01-1.07097E-15 1.67852E-13
 -1      2342 2.01777E+01 4.67047E-02-1.72718E-04-1.39894E-01 2.03335E-13 1.76096E-13
 -1      2343 2.02044E+01 7.82854E-02 2.59581E-04-2.01591E-01 4.47877E-14 1.30386E-13
 -1      2344 2.01546E+01 3.91464E-02 1.50684E-03-1.15475E-01 2.18499E-13 1.17484E-13
 -1      2345 2.01221E+01 3.18152E-02-9.38565E-05-9.56458E-02 1.65089E-13 1.70690E-13
 -1      2346 2.01449E+01 5.31579E-02 3.62673E-05-1.38999E-01 1.38615E-13 1.29348E-13
 -1      2347 2.01050E+01 2.67975E-02 1.05357E-03-7.87602E-02 7.36938E-14 1.37770E-13
 -1      2348 2.00821E+01 2.17710E-02-4.82959E-05-6.50074E-02 1.12650E-13 1.57452E-13
 -1      2349 2.01008E+01 3.62645E-02-6.69564E-05-9.54448E-02 1.81177E-13 1.41874E-14
 -1      2350 2.00696E+01 1.84172E-02 7.38026E-04-5.32999E-02 1.56906E-13 1.64127E-13
 -1      2351 2.00536E+01 1.49419E-02-2.28200E-05-4.37335E-02 9.26956E-14 8.20180E-14
 -1      2352 2.00686E+01 2.48411E-02-1.05797E-04-6.50641E-02 1.49486E-13 2.00848E-14
 -1      2353 2.00446E+01 1.26826E-02 5.17917E-04-3.56077E-02 8.99715E-14-1.14428E-13
 -1      2354 2.00336E+01 1.02576E-02-9.19405E-06-2.89454E-02 2.88417E-14-1.32539E-13
 -1      2355 2.00453E+01 1.70555E-02-1.11982E-04-4.38376E-02-3.22308E-14-1.38283E-13
 -1      2356 2.00272E+01 8.72404E-03 3.63682E-04-2.33143E-02 3.10929E-14-1.58515E-14
 -1      2357 2.00197E+01 7.01709E-03-2.37221E-06-1.86813E-02 9.08115E-14 7.01673E-14
 -1      2358 2.00287E+01 1.17034E-02-1.03009E-04-2.90092E-02 6.65072E-14-1.58842E-13
 -1      2359 2.00153E+01 5.96972E-03 2.54987E-04-1.47992E-02 5.49669E-14-1.48310E-14
 -1      2360 2.00103E+01 4.75969E-03 6.62164E-07-1.15940E-02 6.90740E-15-2.13610E-13
 -1      2361 2.00171E+01 7.99445E-03-8.82028E-05-1.86804E-02 2.00834E-14-1.60421E-13
 -1      2362 2.00073E+01 4.04169E-03 1.77907E-04-8.94405E-03-3.44804E-14-3.44685E-13
 -1      2363 2.00041E+01 3.18080E-03 2.00365E-06-6.74873E-03-1.44661E-13-2.97031E-13
 -1      2364 2.00092E+01 5.40783E-03-7.22524E-05-1.15329E-02-1.14040E-13-3.21819E-13
 -1      2365 2.00021E+01 2.68574E-03 1.21843E-04-4.96664E-03-3.97926E-13-2.89071E-13
 -1      2366 2.00001E+01 2.07752E-03 4.60544E-06-3.49077E-03-5.15766E-13-3.70359E-13
 -1      2367 2.00039E+01 3.60053E-03-5.67212E-05-6.64293E-03-3.04445E-13-3.82080E-13
 -1      2368 1.99990E+01 1.76013E-03 8.35567E-05-2.37727E-03-4.09952E-13-2.49207E-13
 -1      2369 1.99979E+01 1.34043E-03 4.05975E-06-1.43712E-03-2.60113E-13-3.10480E-13
 -1      2370 2.00006E+01 2.34065E-03-4.97352E-05-3.41118E-03-4.22612E-13-3.05525E-13
 -1      2371 1.99971E+01 1.10223E-03 5.63210E-05-6.78158E-04-2.16919E-13-3.96338E-13
 -1      2372 1.99965E+01 7.91774E-04 1.41734E-06-4.66042E-05-1.82538E-13-4.49387E-13
 -1      2373 1.99985E+01 1.48660E-03-3.40334E-05-1.29007E-03-3.37339E-13-3.94815E-13
 -1      2374 1.99962E+01 6.39192E-04 3.73333E-05 4.03306E-04-6.89965E-14-3.31249E-13
 -1      2375 1.99960E+01 4.21053E-04 8.45067E-07 7.83009E-04 1.50696E-13-2.35984E-13
 -1      2376 1.99974E+01 8.65383E-04-2.57915E-05 9.68779E-05-6.98083E-14-1.69175E-13
 -1      2377 1.99958E+01 3.23691E-04 2.32603E-05 1.02467E-03 2.11451E-13-2.90169E-13
 -1      2378 1.99959E+01 1.74655E-04 5.15059E-07 1.23096E-03 2.41620E-13-2.92855E-13
 -1      2379 1.99968E+01 4.44788E-04-1.90446E-05 9.18226E-04 1.81900E-13-2.90660E-13
 -1      2380 1.99959E+01 1.15600E-04 1.34662E-05 1.33371E-03 1.43928E-13-4.48535E-13
 -1      2381 1.99961E+01 1.66104E-05 2.83266E-07 1.42389E-03-6.43642E-14-4.09842E-13
 -1      2382 1.99967E+01 1.66965E-04-1.37986E-05 1.35321E-03 8.44414E-14-4.68229E-13
 -1      2383 1.99962E+01-1.60943E-05 6.79739E-06 1.43730E-03-1.61594E-13-2.22800E-13
 -1      2384 1.99964E+01-7.91371E-05 1.26793E-07 1.45249E-03 5.99855E-14-7.87228E-14
 -1      2385 1.99968E+01-9.43476E-06-9.80059E-06 1.53092E-03-6.27705E-14-4.47556E-13
 -1      2386 1.99966E+01-9.40463E-05 2.39381E-06 1.41157E-03 5.37255E-15-1.63555E-14
 -1      2387 1.99969E+01-1.31659E-04 3.09282E-08 1.38092E-03 5.79930E-14-1.84335E-13
 -1      2388 1.99971E+01-1.14547E-04-6.80337E-06 1.54383E-03 6.01169E-14-5.48014E-14
 -1      2389 1.99971E+01-1.34929E-04-3.90572E-07 1.30999E-03 3.01566E-13-2.01289E-13
 -1      2390 1.99973E+01-1.54941E-04-2.34936E-08 1.25380E-03 2.53325E-13-5.71493E-14
 -1      2391 1.99974E+01-1.70444E-04-4.59038E-06 1.45728E-03 2.09187E-13 1.23835E-13
 -1      2392 1.99975E+01-1.50980E-04-2.03447E-06 1.16931E-03 3.87373E-13-6.19563E-14
 -1      2393 1.99978E+01-1.59201E-04-5.55720E-08 1.10134E-03 3.62172E-13 1.03848E-13
 -1      2394 1.99978E+01-1.93296E-04-2.98228E-06 1.31658E-03 3.01068E-13 2.80309E-13
 -1      2395 1.99979E+01-1.51145E-04-2.89184E-06 1.01398E-03 2.51437E-13 3.68360E-13
 -1      2396 1.99982E+01-1.51868E-04-8.39784E-08 9.43210E-04 3.88676E-13 4.87091E-13
 -1      2397 1.99982E+01-1.94911E-04-1.83393E-06 1.15222E-03 3.63987E-13 3.29367E-13
 -1      2398 1.99983E+01-1.41932E-04-3.22296E-06 8.59481E-04 2.22739E-13 1.91691E-13
 -1      2399 1.99985E+01-1.38327E-04-1.27598E-07 7.91342E-04-9.47876E-14 1.47103E-13
 -1      2400 1.99985E+01-1.83870E-04-1.03041E-06 9.83859E-04 7.96510E-14 4.23585E-13
 -1      2401 1.99987E+01-1.28084E-04-3.21685E-06 7.14713E-04-4.19328E-13-7.13433E-16
 -1      2402 1.99988E+01-1.22503E-04-2.05746E-07 6.52071E-04-4.72084E-13-3.03144E-14
 -1      2403 1.99988E+01-1.66409E-04-4.82730E-07 8.23209E-04-3.75736E-13-1.53884E-15
 -1      2404 1.99989E+01-1.13105E-04-3.01061E-06 5.83813E-04 7.29124E-15 7.40917E-15
 -1      2405 1.99991E+01-1.07328E-04-3.38787E-07 5.27624E-04 2.13888E-13 2.37907E-13
 -1      2406 1.99990E+01-1.47105E-04-1.24872E-07 6.76219E-04-7.35874E-14-4.43531E-14
 -1      2407 1.99992E+01-9.96804E-05-2.70429E-06 4.67394E-04-8.70489E-14 4.13870E-13
 -1      2408 1.99993E+01-9.49838E-05-5.03039E-07 4.17149E-04-1.71825E-13 4.12532E-13
 -1      2409 1.99992E+01-1.29411E-04 8.89951E-08 5.44613E-04 6.16334E-14 2.63603E-13
 -1      2410 1.99994E+01-8.96675E-05-2.33454E-06 3.63565E-04-3.56269E-14 5.06100E-13
 -1      2411 1.99995E+01-8.69790E-05-6.76637E-07 3.17946E-04 1.96277E-13 5.12843E-13
 -1      2412 1.99994E+01-1.15643E-04 2.56750E-07 4.27022E-04-2.41027E-14 3.64594E-13
 -1      2413 1.99995E+01-8.44132E-05-1.85987E-06 2.68927E-04 1.38523E-13 1.96853E-13
 -1      2414 1.99996E+01-8.44476E-05-1.30281E-06 2.26179E-04 1.07719E-13-3.61445E-14
 -1      2415 1.99995E+01-1.08018E-04 2.43446E-07 3.20608E-04 5.79939E-14 2.59812E-13
 -1      2416 1.99996E+01-8.92669E-05-1.47589E-06 2.02703E-04 2.30524E-13 5.72701E-14
 -1      2417 1.99997E+01-8.92315E-05-1.49247E-06 1.60492E-04 4.92557E-13 3.70750E-13
 -1      2418 1.99997E+01-1.22021E-04 1.42635E-08 1.91717E-04 3.40490E-13 3.71370E-14
 -1      2419 1.99996E+01-1.11823E-04 2.09749E-07 2.44208E-04 2.62567E-13 1.51692E-13
 -1      2420 1.86945E+01 5.43699E-01 1.09677E-02 3.25153E-01 1.58094E-13 1.02220E-13
 -1      2421 1.88003E+01 5.02711E-01 6.00665E-03 5.37238E-01 1.82860E-13 1.38055E-13
 -1      2422 1.89651E+01 4.53468E-01 1.12208E-02 7.67541E-01 1.85296E-13 1.51170E-13
 -1      2423 1.91609E+01 4.03510E-01 6.78290E-03 9.46851E-01 1.88274E-13 2.00835E-13
 -1      2424 1.94864E+01 6.45166E-01-7.53600E-03 7.90862E-01 2.13109E-13 1.10909E-13
 -1      2425 1.93742E+01 3.68393E-01 8.79053E-03 1.13093E+00 2.11202E-13 2.09015E-13
 -1      2426 1.96460E+01 3.61853E-01 9.71190E-03 1.29110E+00 2.41049E-13 2.40151E-13
 -1      2427 1.98581E+01 5.31945E-01-4.79654E-03 1.23570E+00 2.20944E-13 1.70044E-13
 -1      2428 1.85981E+01 5.62103E-01 7.98572E-03-1.65903E-01 1.44432E-13 5.59667E-14
 -1      2429 1.86114E+01 5.64863E-01 7.89968E-03 5.89924E-02 1.26091E-13 7.25281E-14
 -1      2430 1.92447E+01 7.39233E-01-9.60843E-03 2.54659E-01 1.70987E-13 5.63964E-14
 -1      2431 1.86823E+01 4.77532E-01 3.56188E-03-6.26966E-01 1.06120E-13 2.13225E-14
 -1      2432 1.86095E+01 5.34014E-01 9.89214E-03-4.26817E-01 1.54669E-13 5.16605E-14
 -1      2433 1.91750E+01 7.27962E-01-9.24157E-03-3.14860E-01 1.51566E-13 4.50101E-14
 -1      2434 1.89145E+01 3.06265E-01-6.52778E-04-9.73206E-01 7.99465E-14-3.78402E-14
 -1      2435 1.87745E+01 4.02990E-01 1.01236E-02-8.33517E-01 8.88838E-14-9.86895E-15
 -1      2436 1.92742E+01 5.85425E-01-6.42645E-03-8.18156E-01 1.44909E-13-2.51706E-14
 -1      2437 1.92330E+01 9.59316E-02-3.36485E-03-1.14903E+00 6.81859E-14 8.76426E-15
 -1      2438 1.90539E+01 2.05605E-01 8.01923E-03-1.08984E+00 7.55281E-14 1.19913E-14
 -1      2439 1.94956E+01 3.42444E-01-2.49831E-03-1.16363E+00 7.09299E-14-6.17582E-14
 -1      2440 1.95678E+01-9.48068E-02-3.14924E-03-1.14506E+00 7.60788E-14 5.04204E-14
 -1      2441 1.93798E+01-2.84180E-03 4.26508E-03-1.16496E+00 1.09671E-13 5.43614E-14
 -1      2442 1.97694E+01 6.62062E-02 1.62036E-03-1.30251E+00 5.52766E-14-2.93913E-14
 -1      2443 1.98550E+01-1.93699E-01 8.93360E-03-1.00615E+00 7.19833E-14 4.78545E-15
 -1      2444 1.96833E+01-1.66156E-01-3.78127E-04-1.07551E+00 7.09855E-14 5.09597E-14
 -1      2445 2.00217E+01-1.66147E-01 5.28167E-03-1.24146E+00 8.96449E-14-1.75892E-14
 -1      2446 2.00284E+01-2.61632E-01-1.33225E-03-7.48978E-01-1.87430E-14 3.40143E-14
 -1      2447 1.99066E+01-2.25548E-01 4.97071E-03-8.57388E-01 3.79995E-14 3.10472E-14
 -1      2448 2.01921E+01-3.00924E-01 6.58669E-03-1.02675E+00 4.04681E-14 5.60590E-14
 -1      2449 2.01586E+01-2.54797E-01-2.63438E-04-5.29437E-01 3.47899E-15-3.27975E-14
 -1      2450 2.00606E+01-2.64856E-01-6.02987E-03-6.29958E-01-1.47890E-14 3.15720E-16
 -1      2451 2.02775E+01-3.48682E-01 2.79962E-03-7.53386E-01 1.25439E-14 3.77676E-14
 -1      2452 2.02279E+01-2.15569E-01 4.19335E-04-3.31991E-01-1.62909E-14-4.85088E-15
 -1      2453 2.01634E+01-2.39662E-01-6.27975E-03-4.20247E-01-1.30508E-14-6.42113E-14
 -1      2454 2.03180E+01-3.29339E-01 1.77229E-03-5.11735E-01 1.05088E-14-9.07737E-14
 -1      2455 2.02524E+01-1.63390E-01 7.30517E-04-1.74537E-01-4.22965E-14 1.77755E-15
 -1      2456 2.02159E+01-1.91943E-01-5.57478E-03-2.43691E-01 1.81742E-14 7.00390E-14
 -1      2457 2.03167E+01-2.72789E-01 9.06003E-04-3.04046E-01-7.21262E-14-4.79925E-15
 -1      2458 2.02474E+01-1.11831E-01 7.86195E-04-6.11503E-02-4.70318E-14 4.76733E-14
 -1      2459 2.02320E+01-1.38584E-01-4.41214E-03-1.10156E-01-4.84204E-14 3.26113E-14
 -1      2460 2.02908E+01-2.03155E-01 3.12758E-04-1.44322E-01-2.69560E-14 7.07833E-14
 -1      2461 2.02251E+01-6.82580E-02 7.03711E-04 1.24664E-02-1.00589E-13 1.18417E-13
 -1      2462 2.02243E+01-9.00950E-02-3.16373E-03-1.87631E-02-5.83630E-14 1.05292E-13
 -1      2463 2.02532E+01-1.36626E-01-3.61309E-05-3.31254E-02-7.59210E-14 2.14471E-13
 -1      2464 2.01944E+01-3.52784E-02 5.69193E-04 5.43784E-02-7.65325E-14 1.30672E-13
 -1      2465 2.02026E+01-5.13494E-02-2.05004E-03 3.70950E-02-1.31523E-13 8.72858E-14
 -1      2466 2.02123E+01-8.15586E-02-2.13880E-04 3.63439E-02-1.00776E-13 2.34832E-13
 -1      2467 2.01613E+01-1.25753E-02 4.32317E-04 7.33494E-02-1.65577E-15 1.39341E-13
 -1      2468 2.01742E+01-2.33405E-02-1.16719E-03 6.60103E-02 5.77625E-14 1.54626E-13
 -1      2469 2.01730E+01-4.05374E-02-2.87926E-04 7.36618E-02-4.79896E-15 2.16421E-13
 -1      2470 2.01294E+01 1.58196E-03 3.15702E-04 7.71710E-02 8.92799E-15 1.66991E-13
 -1      2471 2.01440E+01-4.91469E-03-5.29985E-04 7.62899E-02-4.60381E-14 1.14982E-13
 -1      2472 2.01376E+01-1.27133E-02-3.05348E-04 8.83659E-02-4.40396E-15 1.88689E-13
 -1      2473 2.01006E+01 9.33526E-03 2.25503E-04 7.19947E-02-1.29260E-14 3.17156E-13
 -1      2474 2.01150E+01 5.95560E-03-1.09535E-04 7.48597E-02 3.97596E-15 2.43595E-13
 -1      2475 2.01072E+01 4.34063E-03-2.94364E-04 8.85606E-02-7.28668E-14 2.49278E-13
 -1      2476 2.00759E+01 1.26865E-02 1.59763E-04 6.22615E-02-1.45450E-13 3.79804E-13
 -1      2477 2.00890E+01 1.13979E-02 1.40246E-04 6.69421E-02 2.60677E-14 3.92516E-13
 -1      2478 2.00817E+01 1.34346E-02-2.70234E-04 8.04571E-02-5.98404E-14 4.26204E-13
 -1      2479 2.00556E+01 1.32618E-02 1.13559E-04 5.09280E-02-2.44349E-14 1.79148E-13
 -1      2480 2.00667E+01 1.32555E-02 2.66873E-04 5.61588E-02-1.36629E-13 2.09911E-13
 -1      2481 2.00610E+01 1.71243E-02-2.40677E-04 6.84377E-02 1.34656E-14 2.62970E-13
 -1      2482 2.00393E+01 1.22631E-02 8.16750E-05 3.97954E-02 1.28799E-14-2.94929E-15
 -1      2483 2.00484E+01 1.29551E-02 3.11470E-04 4.48217E-02-2.74840E-14 6.99705E-14
 -1      2484 2.00445E+01 1.74524E-02-2.09538E-04 5.53578E-02 5.55292E-14 4.25259E-14
 -1      2485 2.00267E+01 1.05126E-02 5.97308E-05 2.98351E-02 9.04658E-14-1.06509E-14
 -1      2486 2.00338E+01 1.15121E-02 3.06050E-04 3.42638E-02 1.12651E-13-2.76016E-14
 -1      2487 2.00315E+01 1.59115E-02-1.78840E-04 4.29126E-02 9.72439E-14 8.17516E-15
 -1      2488 2.00171E+01 8.53201E-03 4.44543E-05 2.14645E-02-1.87797E-16 9.34675E-14
 -1      2489 2.00225E+01 9.59685E-03 2.73627E-04 2.51402E-02 9.04714E-15 6.15706E-14
 -1      2490 2.00216E+01 1.35120E-02-1.49765E-04 3.19790E-02-3.59412E-15 4.56002E-14
 -1      2491 2.00101E+01 6.62392E-03 3.35791E-05 1.47576E-02-1.79753E-13 3.03633E-14
 -1      2492 2.00141E+01 7.61819E-03 2.29598E-04 1.76694E-02-1.14344E-14 1.16170E-13
 -1      2493 2.00142E+01 1.08881E-02-1.23061E-04 2.28959E-02-2.49704E-14 1.03940E-13
 -1      2494 2.00052E+01 4.94213E-03 2.56151E-05 9.59557E-03-7.12275E-14 4.29850E-14
 -1      2495 2.00079E+01 5.80073E-03 1.83516E-04 1.18116E-02-2.17797E-13 6.56883E-14
 -1      2496 2.00087E+01 8.40221E-03-9.91929E-05 1.56746E-02-2.12378E-13-2.71600E-14
 -1      2497 2.00018E+01 3.54565E-03 1.96165E-05 5.76758E-03 2.67550E-14 1.56096E-13
 -1      2498 2.00036E+01 4.24763E-03 1.40751E-04 7.39125E-03 5.21592E-14 1.68221E-13
 -1      2499 2.00048E+01 6.23357E-03-7.83934E-05 1.01475E-02-1.12104E-13-3.69556E-14
 -1      2500 1.99996E+01 2.43756E-03 1.49941E-05 3.03348E-03 4.30200E-14 2.42034E-13
 -1      2501 2.00007E+01 2.98731E-03 1.03870E-04 4.17720E-03 8.09166E-14 2.31608E-13
 -1      2502 2.00021E+01 4.44594E-03-6.07007E-05 6.06567E-03-2.88327E-15 1.86404E-13
 -1      2503 1.99983E+01 1.59133E-03 1.13804E-05 1.16045E-03 1.13830E-13 1.99919E-13
 -1      2504 1.99989E+01 2.00604E-03 7.36836E-05 1.93055E-03 1.63432E-13 2.30936E-13
 -1      2505 2.00003E+01 3.03570E-03-4.59955E-05 3.15992E-03 1.24695E-13 1.87572E-13
 -1      2506 1.99975E+01 9.67543E-04 8.53944E-06-5.84398E-05 1.79804E-13 1.34767E-13
 -1      2507 1.99979E+01 1.26944E-03 4.99833E-05 4.30955E-04 1.78188E-13 2.41040E-13
 -1      2508 1.99992E+01 1.96421E-03-3.40445E-05 1.17514E-03 2.03500E-13 9.82971E-14
 -1      2509 1.99973E+01 5.23913E-04 6.31059E-06-7.96852E-04 7.33298E-14 1.69260E-13
 -1      2510 1.99973E+01 7.35632E-04 3.20403E-05-5.11206E-04 7.31918E-14 1.00438E-13
 -1      2511 1.99985E+01 1.17830E-03-2.45434E-05-1.12552E-04 1.12215E-13 2.19108E-13
 -1      2512 1.99972E+01 2.20739E-04 4.57629E-06-1.19440E-03-1.55246E-13 2.26313E-13
 -1      2513 1.99972E+01 3.62966E-04 1.89199E-05-1.05133E-03 5.55227E-14 1.75738E-13
 -1      2514 1.99982E+01 6.22345E-04-1.71543E-05-8.89594E-04 7.61466E-14 7.20517E-15
 -1      2515 1.99974E+01 2.34815E-05 3.24372E-06-1.35943E-03-8.25436E-14 1.24810E-14
 -1      2516 1.99972E+01 1.13889E-04 9.66752E-06-1.31198E-03-1.25972E-13 9.95326E-14
 -1      2517 1.99981E+01 2.44809E-04-1.15352E-05-1.30515E-03-5.33309E-14-6.35619E-14
 -1      2518 1.99977E+01-9.64164E-05 2.23532E-06-1.37342E-03 1.58430E-13-3.11122E-13
 -1      2519 1.99975E+01-4.34150E-05 3.40796E-06-1.38665E-03 3.64570E-14-2.39360E-13
 -1      2520 1.99982E+01 1.22136E-06-7.36211E-06-1.47461E-03 1.04004E-13-2.33473E-13
 -1      2521 1.99979E+01-1.61691E-04 1.48386E-06-1.29575E-03 2.21620E-13-3.22147E-13
 -1      2522 1.99977E+01-1.34745E-04-6.09463E-07-1.34451E-03 1.63283E-13-2.84069E-13
 -1      2523 1.99983E+01-1.44980E-04-4.34172E-06-1.48455E-03 2.16115E-13-4.31652E-13
 -1      2524 1.99982E+01-1.89911E-04 9.29792E-07-1.16828E-03-1.59184E-14-3.19585E-13
 -1      2525 1.99980E+01-1.80335E-04-2.99926E-06-1.23509E-03 1.38001E-13-2.72677E-13
 -1      2526 1.99985E+01-2.22787E-04-2.21879E-06-1.39792E-03 1.09135E-13-2.12660E-13
 -1      2527 1.99985E+01-1.94334E-04 5.19339E-07-1.01930E-03 8.34698E-14-4.08556E-13
 -1      2528 1.99983E+01-1.95627E-04-4.24615E-06-1.09256E-03 2.05949E-14-3.93518E-13
 -1      2529 1.99987E+01-2.54531E-04-7.78439E-07-1.25903E-03 7.54652E-14-1.52425E-13
 -1      2530 1.99988E+01-1.84792E-04 2.03830E-07-8.66887E-04 1.94290E-13-4.34932E-13
 -1      2531 1.99986E+01-1.92167E-04-4.72015E-06-9.39405E-04 1.52329E-13-4.67713E-13
 -1      2532 1.99989E+01-2.57031E-04 1.54114E-07-1.09776E-03 1.43202E-13-1.59561E-13
 -1      2533 1.99990E+01-1.68505E-04-5.89378E-08-7.21499E-04 1.10699E-13-2.42379E-13
 -1      2534 1.99989E+01-1.78464E-04-4.69403E-06-7.89358E-04 1.86171E-13-3.81390E-13
 -1      2535 1.99991E+01-2.42747E-04 7.17282E-07-9.33105E-04 1.32206E-13-3.01210E-13
 -1      2536 1.99992E+01-1.50781E-04-3.01821E-07-5.88033E-04-1.89814E-13-2.70549E-13
 -1      2537 1.99991E+01-1.60761E-04-4.36134E-06-6.49695E-04-3.57884E-14-3.75476E-13
 -1      2538 1.99992E+01-2.20827E-04 1.01674E-06-7.75993E-04 9.76439E-14-2.29070E-13
 -1      2539 1.99994E+01-1.35601E-04-5.58032E-07-4.67399E-04-8.74951E-14-1.60365E-13
 -1      2540 1.99993E+01-1.43685E-04-3.86093E-06-5.23039E-04-1.24905E-13-2.80065E-13
 -1      2541 1.99994E+01-1.97960E-04 1.12726E-06-6.31511E-04-2.34056E-13-1.66099E-13
 -1      2542 1.99995E+01-1.25650E-04-8.57508E-07-3.57709E-04 1.24345E-13-7.16584E-14
 -1      2543 1.99994E+01-1.30705E-04-3.30026E-06-4.08569E-04 4.83062E-14-1.03498E-13
 -1      2544 1.99995E+01-1.79005E-04 1.12955E-06-5.00623E-04-2.79087E-14-1.72899E-13
 -1      2545 1.99996E+01-1.21652E-04-1.68048E-06-2.56718E-04 4.09331E-13-2.88932E-13
 -1      2546 1.99996E+01-1.23471E-04-2.98185E-06-3.03118E-04 3.85622E-13-5.72063E-14
 -1      2547 1.99996E+01-1.66622E-04 1.18605E-06-3.81192E-04 2.52529E-13-1.23872E-13
 -1      2548 1.99999E+01-4.99766E-04 2.20364E-06-2.50537E-04-1.21320E-13 9.25004E-14
 -1      2549 1.99998E+01-4.55055E-04-5.26413E-07-2.72473E-04-2.97642E-13-1.84088E-13
 -1      2550 1.99998E+01-4.03670E-04 1.87567E-06-2.89393E-04-3.54924E-13-4.76809E-13
 -1      2551 1.99998E+01-3.53183E-04-1.28209E-06-2.93172E-04-1.33396E-13-5.99749E-13
 -1      2552 1.99998E+01-4.34110E-04-9.36538E-07-3.25326E-04-1.02456E-13-2.99341E-13
 -1      2553 1.99998E+01-2.95260E-04 1.33574E-06-2.87886E-04-1.03786E-13-3.83151E-13
 -1      2554 1.99997E+01-2.42846E-04-1.87956E-06-2.71706E-04 8.36972E-14-1.03914E-13
 -1      2555 1.99998E+01-3.29195E-04-9.07482E-07-3.39255E-04-1.29512E-13-6.38090E-13
 -1      2556 5.04047E+00-2.92632E+00 3.95213E-02 5.45875E+00-4.56579E-13 1.11261E-12
 -1      2557 3.27417E+00-2.53681E+00 9.45224E-02 2.99581E+00-4.29684E-13 1.16440E-12
 -1      2558 1.99999E+01-5.74561E-04 2.27783E-06-1.77677E-04-5.75571E-14 4.02452E-13
 -1      2559 1.99999E+01-5.41526E-04 2.54161E-07-2.14396E-04-1.35315E-13 3.82735E-13
 -1      2560 1.99999E+01-5.23737E-04-1.50275E-06-2.68324E-04 1.67923E-14 2.49938E-13
 -1      2561 1.99999E+01-6.18877E-04 2.10082E-06-8.13646E-05-2.10394E-13 6.10072E-13
 -1      2562 1.99999E+01-6.01346E-04 1.05016E-06-1.27496E-04-3.01260E-14 3.84620E-13
 -1      2563 2.00000E+01-5.89700E-04-1.85710E-06-1.75737E-04-9.20034E-14 2.57897E-13
 -1      2564 1.99999E+01-6.28042E-04 1.68882E-06 2.54709E-05-4.82222E-13 4.77315E-13
 -1      2565 1.99999E+01-6.28137E-04 1.67739E-06-2.38783E-05-4.37351E-13 6.84161E-13
 -1      2566 2.00000E+01-6.24415E-04-2.05424E-06-6.06152E-05-1.57865E-13 4.47070E-13
 -1      2567 1.99999E+01-6.01111E-04 1.08262E-06 1.29028E-04-5.50900E-13 1.24179E-13
 -1      2568 1.99999E+01-6.18880E-04 2.08133E-06 8.29604E-05-5.71061E-13 2.64247E-13
 -1      2569 2.00000E+01-6.24516E-04-2.05617E-06 6.22549E-05-3.54911E-13 3.43188E-13
 -1      2570 1.99999E+01-5.42384E-04 2.92192E-07 2.14494E-04-1.71280E-13-2.15091E-13
 -1      2571 1.99999E+01-5.74912E-04 2.26943E-06 1.78395E-04-3.07142E-13-6.84418E-14
 -1      2572 2.00000E+01-5.90379E-04-1.89610E-06 1.76506E-04-3.51189E-13 2.63396E-13
 -1      2573 1.99998E+01-4.56148E-04-5.83856E-07 2.72900E-04-5.91775E-14 1.28714E-13
 -1      2574 1.99999E+01-5.00789E-04 2.22404E-06 2.50853E-04-7.55072E-14-2.22646E-13
 -1      2575 1.99999E+01-5.25223E-04-1.49763E-06 2.68459E-04 1.73356E-13-1.35949E-13
 -1      2576 1.99998E+01-3.52370E-04-1.39859E-06 2.93373E-04 9.22343E-14 3.95582E-13
 -1      2577 1.99998E+01-4.03399E-04 1.95656E-06 2.89885E-04-7.28660E-14 4.29021E-13
 -1      2578 1.99998E+01-4.34579E-04-1.01963E-06 3.26131E-04 1.86285E-13 7.45851E-14
 -1      2579 1.99997E+01-2.41126E-04-1.48322E-06 2.70635E-04 1.36917E-13-2.31022E-13
 -1      2580 1.99998E+01-2.93574E-04 1.32688E-06 2.87801E-04 2.96684E-14 2.89483E-14
 -1      2581 1.99998E+01-3.27684E-04-5.49270E-07 3.39730E-04 3.60507E-14 1.54221E-13
 -1      2582 3.17544E+01-4.08234E-01-5.72481E-02 2.12149E+00 4.12601E-13-4.63851E-13
 -1      2583 2.98840E+01-2.18022E+00 1.00509E-01 3.60782E+00 2.55320E-13-4.53582E-13
 -1      2584 5.66103E+00-3.17443E+00 7.44278E-02-3.66425E+00-2.51466E-14 4.81171E-13
 -1      2585 8.36598E+00-4.00909E+00 4.01641E-02-5.21892E+00-5.05707E-14 4.41147E-13
 -1      2586 1.87234E+01 2.21738E+00 2.96847E-02-3.11232E+00-3.34809E-13-3.62587E-13
 -1      2587 1.73601E+01 2.54941E+00-2.51550E-02-3.55784E+00-3.86870E-13-3.88927E-13
 -1      2588 1.97351E+01 1.25721E+00-2.96166E-02-3.00489E+00-3.36921E-13-2.94490E-13
 -1      2589 2.48908E+00-2.59472E+00 5.03102E-02 6.79301E-01-2.06538E-13 1.03323E-12
 -1      2590 3.36644E+00-2.64409E+00 7.58419E-02-1.60593E+00-2.06224E-13 7.67442E-13
 -1      2591 3.40055E+01 5.54314E+00-1.12897E-01 2.64268E-01 7.45293E-13-1.46050E-13
 -1      2592 3.49002E+01 6.96751E+00-1.29698E-01 4.77036E-01 8.36109E-13-1.80522E-13
 -1      2593 3.39506E+01 8.11277E+00-1.49070E-01-2.09358E-01 7.96474E-13-3.56701E-13
 -1      2594 3.37153E+01 7.19068E+00-1.11333E-01-4.97832E-01 7.50511E-13-3.33011E-13
 -1      2595 1.22543E+01-3.88865E+00-1.27480E-03 5.42548E+00 2.57017E-14-7.22394E-13
 -1      2596 8.44565E+00-3.01016E+00 1.29386E-02 4.30540E+00 8.60423E-15-8.25728E-13
 -1      2597 3.50284E+01 8.30784E+00-8.27966E-02 4.20291E-01 8.88900E-13-2.47330E-13
 -1      2598 3.44151E+01 8.69417E+00-1.61742E-01 3.23285E-01 8.54206E-13-2.70402E-13
 -1      2599 3.24400E+01 7.57701E+00-3.87657E-02 1.07029E+00 7.73964E-13-1.03362E-13
 -1      2600 3.18218E+01 1.56038E+00-9.74953E-02-1.41428E+00 4.96735E-13-1.49492E-13
 -1      2601 3.34943E+01 3.38516E+00-1.15375E-01-5.33257E-01 6.19879E-13-1.45578E-13
 -1      2602 2.78089E+01-1.67330E+00-4.45646E-02-3.89660E+00 1.78441E-13-1.95982E-13
 -1      2603 3.05003E+01-2.15603E-01-3.67484E-02-2.84792E+00 3.50844E-13-2.01172E-13
 -1      2604 1.24913E+01-2.39122E+00 1.24644E-01-8.06130E+00-2.68313E-13-6.19380E-13
 -1      2605 1.57217E+01-2.77206E+00 5.49735E-02-8.40053E+00-1.47327E-13-5.40873E-13
 -1      2606 5.38607E+00-8.88300E-01 1.37861E-01-5.85560E+00-2.84689E-13-8.65863E-13
 -1      2607 8.33814E+00-1.48240E+00 4.73130E-02-7.56650E+00-2.44416E-13-7.56201E-13
 -1      2608 2.82211E+00-5.00009E-01 1.28725E-01-1.83376E+00-2.13303E-13-9.85600E-13
 -1      2609 3.26525E+00-3.79522E-01 7.17644E-02-3.90297E+00-1.99493E-13-9.44356E-13
 -1      2610 5.24911E+00-1.73405E+00 7.43258E-02 2.80038E+00-1.10856E-13-9.43967E-13
 -1      2611 3.28565E+00-9.64810E-01 5.73741E-02 4.09968E-01-1.01509E-13-9.80660E-13
 -1      2612 1.17174E+01-5.02814E+00 8.88436E-04-5.77964E+00-7.39409E-14 2.99066E-13
 -1      2613 1.59138E+01-5.52441E+00-2.82176E-02-6.24829E+00-7.51621E-14 1.29396E-13
 -1      2614 1.15646E+01-4.54448E+00 1.30637E-02 8.17552E+00-3.84581E-13 6.17340E-13
 -1      2615 8.23106E+00-4.06107E+00 7.11568E-02 7.07936E+00-4.90108E-13 8.23869E-13
 -1      2616 1.99997E+01-1.86368E-04 1.22256E-06-2.70793E-04 2.98653E-13-9.44659E-14
 -1      2617 1.19484E+01 4.82018E+00 5.37703E-02-2.76653E+00-3.86465E-13-5.81143E-13
 -1      2618 1.23769E+01 5.31107E+00 5.17042E-02-1.99189E+00-3.62271E-13-5.47975E-13
 -1      2619 1.29001E+01 5.24327E+00 6.57761E-03-1.30580E+00-3.37755E-13-4.94613E-13
 -1      2620 2.28566E+01-4.59823E+00 2.57878E-01 6.82669E+00-5.84449E-13-1.89015E-13
 -1      2621 2.01845E+01 5.03378E-01 8.07459E-03 1.66925E+00 2.74976E-13 3.70409E-13
 -1      2622 2.04575E+01 7.27123E-01 8.56853E-03 1.91836E+00 2.94636E-13 2.68909E-13
 -1      2623 1.99208E+01 4.10551E-01 7.50137E-03 1.51741E+00 2.68497E-13 3.20673E-13
 -1      2624 1.68297E+01 2.22020E+00-1.42382E-02-4.19112E+00-4.21791E-13-3.92681E-13
 -1      2625 2.85028E+01-4.40209E+00-1.30648E-01 3.43800E+00 2.29830E-13-4.40536E-13
 -1      2626 3.18399E+01 5.68583E+00-5.06397E-02-9.70687E-01 6.48842E-13-4.10977E-13
 -1      2627 1.99997E+01-2.19032E-04-8.65620E-07-3.31149E-04 2.98827E-13-3.52027E-13
 -1      2628 4.74282E+00-1.04292E+00 1.74712E-01 1.96732E+00-2.40759E-13 9.98202E-13
 -1      2629 8.39711E+00-2.49479E+00 1.38364E-01 6.21827E+00-5.83145E-13 9.18016E-13
 -1      2630 3.15039E+01 6.28917E-01 5.67721E-02 3.94624E-01 3.40630E-13-5.64437E-13
 -1      2631 1.96797E+01 3.48799E-01 1.17687E-02 1.34885E+00 2.58030E-13 2.46360E-13
 -1      2632 1.98585E+01 3.73800E-01 1.17412E-02 1.45253E+00 2.60731E-13 3.01653E-13
 -1      2633 2.01916E+01 4.80810E-01-5.36798E-03 1.65065E+00 2.65292E-13 2.10192E-13
 -1      2634 2.00941E+01 4.67303E-01-5.91620E-03 1.50423E+00 2.61833E-13 1.77950E-13
 -1      2635 1.39540E+01 4.96646E+00 4.64362E-03-2.93107E-01-2.72593E-13-4.25340E-13
 -1      2636 1.57892E+01 4.54061E+00 1.95614E-02 2.55236E-01-2.46693E-13-3.04992E-13
 -1      2637 1.59872E+01 3.87269E+00 7.06384E-02 1.05301E+00-1.79170E-13-3.01602E-13
 -1      2638 1.28352E+01 4.83815E+00 6.57801E-02-6.68434E-01-2.76716E-13-4.99201E-13
 -1      2639 1.20711E+01-3.38797E+00 1.32610E-01-5.58014E+00 2.13302E-13 2.51743E-13
 -1      2640 1.90919E+01-3.03031E+00 3.06734E-02-7.44586E+00-2.78749E-13-3.88902E-13
 -1      2641 2.48137E+01-2.81647E+00 9.45415E-02-5.16097E+00-1.46008E-13-1.46376E-13
 -1      2642 2.65372E+01-2.53268E+00-1.08190E-02-4.61891E+00 2.74780E-14-1.95316E-13
 -1      2643 2.77031E+01-2.07650E+00-5.44617E-02-2.78345E+00-5.81514E-14-5.23886E-14
 -1      2644 1.53281E+01-4.53873E+00 1.10207E-01 7.94661E+00-5.11785E-13 3.30930E-13
 -1      2645 8.73881E+00-9.81350E-01 1.51606E-01 3.55515E+00 2.40086E-14-8.19345E-13
 -1      2646 4.86340E+00 7.00107E-01 1.77233E-01-5.60859E-01-1.58186E-13-9.67670E-13
 -1      2647 5.99202E+00 5.70002E-01 1.84220E-01-4.97473E+00-3.17038E-13-8.83682E-13
 -1      2648 3.22340E+01 4.18646E+00-2.50508E-02 9.26346E-01 5.89029E-13-1.11022E-15
 -1      2649 1.17334E+01-1.20219E+00 1.50449E-01-7.69836E+00-3.84359E-13-6.56281E-13
 -1      2650 3.18605E+01 8.22098E+00-8.70993E-02-1.98251E-01 7.99472E-13-2.88269E-13
 -1      2651 3.06260E+01 2.86740E-01-1.26792E-02-8.36196E-01 2.72865E-13-2.10942E-14
 -1      2652 6.27988E+00-1.66592E+00 1.55745E-01-2.80660E+00 2.65482E-14 4.91940E-13
 -1      2653 1.93056E+01-4.95923E+00 1.09548E-01-5.69107E+00 1.97092E-13-1.19904E-13
 -1      2654 1.99471E+01-6.02770E+00-2.02898E-02-5.46961E+00-2.08722E-14 9.84109E-15
 -1      2655 1.64115E+01-3.89885E+00 7.15053E-02 5.33734E+00 1.12105E-13-5.23859E-13
 -1      2656 1.59538E+01-2.13099E+00 2.00868E-01 5.08921E+00 1.86462E-13-4.34097E-13
 -1      2657 2.49527E+01-5.95416E+00-3.51229E-02-4.28211E+00 2.70339E-14-1.33005E-13
 -1      2658 1.99997E+01-1.59747E-04-1.09505E-06 2.24348E-04 2.78921E-13-1.19439E-13
 -1      2659 1.99997E+01-1.99453E-04 4.75249E-07 2.47827E-04 1.86986E-13-3.34145E-13
 -1      2660 1.99997E+01-2.32014E-04-1.00862E-08 3.08406E-04 2.52411E-13-1.38140E-13
 -1      2661 1.99997E+01-1.55018E-04-9.73572E-07 2.51899E-04 1.74740E-13-1.15930E-13
 -1      2662 2.27366E+01-5.43033E+00-2.77437E-02 4.73172E+00 1.01974E-13-3.12427E-13
 -1      2663 1.71246E+01-4.98783E+00 1.25596E-02 5.42741E+00 4.95159E-14-5.35516E-13
 -1      2664 2.50391E+01-5.00658E+00 1.14484E-01-4.01443E+00 2.44887E-13-2.94244E-13
 -1      2665 2.73769E+01-5.91262E+00-2.90203E-02-3.10812E+00 6.78624E-14-1.47535E-13
 -1      2666 2.29853E+01 8.25831E-01-3.14305E-02 4.88947E-01-5.15143E-14-1.44116E-13
 -1      2667 2.29423E+01 7.21807E-01 1.61230E-02-9.98801E-02-1.25136E-13-1.38800E-13
 -1      2668 2.26719E+01 4.06933E-01-2.28513E-02-9.24223E-01-1.84349E-13-1.71091E-13
 -1      2669 2.21710E+01 4.40825E-01 2.82994E-02-1.69664E+00-2.62275E-13-1.76100E-13
 -1      2670 2.34532E+01 1.11909E-01 9.36929E-03-3.52011E-01-1.40975E-13-9.44861E-14
 -1      2671 2.22071E+01 1.46556E+00-2.74438E-02 1.99835E+00 1.79145E-13-6.94245E-14
 -1      2672 2.24920E+01 1.41495E+00-3.56018E-03 1.73479E+00 1.11296E-13-9.08319E-14
 -1      2673 2.16133E+01 1.43183E+00-2.79458E-02 2.28574E+00 2.62398E-13-3.28565E-14
 -1      2674 2.19241E+01 1.50100E+00-5.00572E-03 2.14338E+00 2.09053E-13-5.83244E-14
 -1      2675 2.22498E+01 1.23441E+00 1.84904E-02 2.08631E+00 1.87471E-13-1.51960E-14
 -1      2676 2.07403E+01 8.51530E-01-2.10892E-04 2.07372E+00 2.97986E-13 2.07877E-13
 -1      2677 2.08980E+01 1.07626E+00-1.18652E-02 2.23044E+00 3.07723E-13 1.40247E-13
 -1      2678 2.05681E+01 7.05131E-01 8.49114E-03 1.89076E+00 2.81805E-13 1.80027E-13
 -1      2679 2.50671E+01-4.17920E+00 1.71162E-01 3.69311E+00 2.68091E-13 5.40332E-14
 -1      2680 2.00000E+01-6.33773E-04 1.50856E-06-3.65292E-05-1.54590E-14 4.60110E-13
 -1      2681 2.00000E+01-6.25867E-04 7.99687E-07-1.00164E-04 5.84865E-14 3.94138E-13
 -1      2682 1.99999E+01-4.62063E-04 2.33138E-06-3.59757E-04 1.59762E-13-1.81338E-13
 -1      2683 1.99998E+01-4.17277E-04-8.37373E-07-3.78054E-04 1.14010E-13-5.20771E-13
 -1      2684 2.02774E+01-1.07083E+00 8.21178E-02-4.73365E+00 3.83103E-13-1.99080E-13
 -1      2685 1.95767E+01 3.49840E-02 5.17870E-02-4.54165E+00 3.13256E-13-1.81726E-13
 -1      2686 1.99039E+01 7.37894E-01 4.32136E-02-4.03303E+00 2.49471E-13-2.03807E-13
 -1      2687 1.96342E+01 1.12799E+00 6.01909E-03-3.67948E+00 2.21195E-13-1.60378E-13
 -1      2688 1.71853E+01 6.33226E-01 2.06321E-02-4.34349E+00 2.79953E-13-1.05204E-13
 -1      2689 2.00578E+01 1.27238E+00 2.07324E-02-3.24180E+00 1.54212E-13-2.39868E-13
 -1      2690 1.99202E+01 1.29828E+00-1.20769E-02-2.88458E+00 7.67459E-14-2.38920E-13
 -1      2691 1.80924E+01 1.53832E+00 3.31029E-02-3.35821E+00 1.57039E-13-1.60143E-13
 -1      2692 2.02796E+01 1.24471E+00 1.40643E-02-2.50076E+00 4.38287E-14-3.22791E-13
 -1      2693 2.01700E+01 1.13509E+00-1.28585E-02-2.16262E+00 1.41217E-14-2.53385E-13
 -1      2694 1.88941E+01 1.61970E+00 2.98101E-02-2.58442E+00 2.67963E-14-1.99147E-13
 -1      2695 2.04107E+01 1.00985E+00 1.06231E-02-1.86093E+00 3.18599E-14-2.89688E-13
 -1      2696 2.03063E+01 8.77327E-01-9.39354E-03-1.58609E+00 2.87756E-14-2.12855E-13
 -1      2697 1.94752E+01 1.36305E+00 2.09125E-02-1.95265E+00 2.36775E-14-2.25792E-13
 -1      2698 2.04469E+01 7.53285E-01 9.07198E-03-1.35411E+00 4.54914E-14-1.91448E-13
 -1      2699 2.03471E+01 6.37920E-01-6.24892E-03-1.14475E+00 8.75064E-14-2.34858E-13
 -1      2700 1.98283E+01 1.04103E+00 1.38146E-02-1.45364E+00 7.74083E-14-2.31065E-13
 -1      2701 2.04198E+01 5.37742E-01 7.50996E-03-9.70642E-01 3.01972E-14-2.87801E-13
 -1      2702 2.03307E+01 4.49105E-01-3.99338E-03-8.17274E-01-2.36501E-14-3.08718E-13
 -1      2703 2.00185E+01 7.55345E-01 8.55299E-03-1.06739E+00 8.81435E-15-2.05314E-13
 -1      2704 2.03621E+01 3.75078E-01 5.93084E-03-6.89187E-01 7.33289E-14-2.79463E-13
 -1      2705 2.02871E+01 3.10978E-01-2.49094E-03-5.79448E-01 6.68012E-14-1.92438E-13
 -1      2706 2.01058E+01 5.32822E-01 4.94975E-03-7.75263E-01 2.15858E-14-2.02495E-13
 -1      2707 2.02955E+01 2.58677E-01 4.51584E-03-4.86551E-01 1.14052E-13-1.86066E-13
 -1      2708 2.02351E+01 2.13769E-01-1.52093E-03-4.09051E-01 1.46553E-13-9.25542E-14
 -1      2709 2.01341E+01 3.70302E-01 2.66238E-03-5.58595E-01 8.97673E-14-1.24239E-13
 -1      2710 2.02320E+01 1.77667E-01 3.35518E-03-3.42280E-01-9.02371E-15-7.71212E-15
 -1      2711 2.01848E+01 1.46711E-01-9.07996E-04-2.87892E-01 7.56947E-15-6.93663E-15
 -1      2712 2.01318E+01 2.55639E-01 1.29974E-03-4.00138E-01 3.52403E-14 6.33876E-14
 -1      2713 2.01768E+01 1.22058E-01 2.45483E-03-2.40135E-01 5.39665E-14-9.30543E-14
 -1      2714 2.01408E+01 1.00864E-01-5.28222E-04-2.02039E-01 1.30409E-14-2.79988E-14
 -1      2715 2.01156E+01 1.76208E-01 5.32727E-04-2.85296E-01-2.85820E-14 2.57256E-14
 -1      2716 2.01314E+01 8.40823E-02 1.77964E-03-1.67952E-01 8.18735E-14-7.35373E-14
 -1      2717 2.01044E+01 6.95798E-02-2.97660E-04-1.41252E-01 1.65939E-13-6.04467E-14
 -1      2718 2.00949E+01 1.21639E-01 1.26570E-04-2.02493E-01-3.24048E-14-1.33441E-13
 -1      2719 2.00954E+01 5.81343E-02 1.28334E-03-1.16934E-01 1.35976E-13-1.48902E-13
 -1      2720 2.00755E+01 4.81764E-02-1.60721E-04-9.81892E-02 1.37983E-13-1.02173E-13
 -1      2721 2.00744E+01 8.42182E-02-7.09998E-05-1.42948E-01 1.07760E-13-4.20490E-14
 -1      2722 2.00677E+01 4.03289E-02 9.22606E-04-8.08421E-02 1.60686E-13-2.69950E-13
 -1      2723 2.00532E+01 3.34503E-02-8.13993E-05-6.76624E-02 3.01121E-14-2.53651E-13
 -1      2724 2.00563E+01 5.84915E-02-1.53058E-04-1.00187E-01 4.59025E-14-1.93698E-13
 -1      2725 2.00469E+01 2.80311E-02 6.61812E-04-5.52964E-02-7.78825E-14-2.25553E-13
 -1      2726 2.00364E+01 2.32451E-02-3.68540E-05-4.60270E-02-6.06015E-14-3.14932E-13
 -1      2727 2.00413E+01 4.07098E-02-1.74257E-04-6.95140E-02-1.04929E-14-3.82314E-13
 -1      2728 2.00314E+01 1.94740E-02 4.73584E-04-3.72311E-02 9.75223E-14-4.30069E-13
 -1      2729 2.00240E+01 1.61198E-02-1.28740E-05-3.07242E-02 1.39509E-13-3.54671E-13
 -1      2730 2.00293E+01 2.83366E-02-1.65676E-04-4.75567E-02-7.09372E-14-4.03602E-13
 -1      2731 2.00202E+01 1.34769E-02 3.37657E-04-2.44959E-02 1.11258E-13-3.80672E-13
 -1      2732 2.00151E+01 1.11121E-02-7.93416E-07-1.99507E-02 1.45630E-13-2.77830E-13
 -1      2733 2.00201E+01 1.96673E-02-1.44436E-04-3.18964E-02 8.49236E-14-4.34392E-13
 -1      2734 2.00123E+01 9.24997E-03 2.39353E-04-1.55741E-02-4.86174E-14-2.54237E-13
 -1      2735 2.00088E+01 7.57680E-03 5.00294E-06-1.24276E-02-1.38523E-13-3.02057E-13
 -1      2736 2.00133E+01 1.35573E-02-1.19559E-04-2.07959E-02 9.51476E-14-3.19883E-13
 -1      2737 2.00068E+01 6.25744E-03 1.67252E-04-9.38711E-03-2.64427E-13-3.55271E-13
 -1      2738 2.00045E+01 5.08349E-03 1.10479E-05-7.24279E-03-4.65465E-13-2.59203E-13
 -1      2739 2.00083E+01 9.23612E-03-9.53644E-05-1.30016E-02-2.60472E-13-2.17685E-13
 -1      2740 2.00031E+01 4.19644E-03 1.16924E-04-5.25655E-03-4.18297E-13-2.67861E-13
 -1      2741 2.00017E+01 3.39349E-03 1.05349E-05-3.87472E-03-3.66782E-13-2.46787E-13
 -1      2742 2.00048E+01 6.21148E-03-8.22131E-05-7.69992E-03-4.00193E-13-2.62349E-13
 -1      2743 2.00007E+01 2.71790E-03 8.05133E-05-2.45876E-03-3.44056E-13-1.87902E-13
 -1      2744 1.99998E+01 2.12305E-03 6.18644E-06-1.50601E-03-3.13930E-13-1.37152E-13
 -1      2745 2.00024E+01 4.10483E-03-5.69955E-05-4.08614E-03-3.70353E-13 6.21736E-15
 -1      2746 1.99992E+01 1.66148E-03 5.42321E-05-5.94741E-04-1.02183E-13-1.51680E-13
 -1      2747 1.99987E+01 1.24780E-03 5.11909E-06-4.17996E-06 1.86945E-13 3.98862E-14
 -1      2748 2.00008E+01 2.55918E-03-4.26614E-05-1.61018E-03-1.48690E-13 1.63812E-13
 -1      2749 1.99983E+01 9.32044E-04 3.49131E-05 5.53647E-04-3.98813E-15-2.43362E-13
 -1      2750 1.99981E+01 6.51180E-04 4.10357E-06 8.93542E-04-3.72614E-14-3.67976E-13
 -1      2751 1.99997E+01 1.48976E-03-3.11834E-05-3.35412E-05-9.92504E-14-5.64432E-14
 -1      2752 1.99979E+01 4.40387E-04 2.13124E-05 1.20663E-03 2.60113E-14-6.33506E-13
 -1      2753 1.99979E+01 2.55119E-04 3.20108E-06 1.37626E-03 3.96099E-14-6.68758E-13
 -1      2754 1.99991E+01 7.62468E-04-2.23183E-05 9.11473E-04-2.43366E-13-4.80369E-13
 -1      2755 1.99978E+01 1.19436E-04 1.19066E-05 1.52387E-03 6.97217E-14-5.65952E-13
 -1      2756 1.99979E+01 2.38128E-06 2.44866E-06 1.58132E-03 9.10595E-14-3.49169E-13
 -1      2757 1.99988E+01 2.81462E-04-1.55993E-05 1.42165E-03 1.49603E-13-3.73314E-13
 -1      2758 1.99978E+01-8.01544E-05 5.55324E-06 1.62079E-03 2.47590E-13-1.61947E-13
 -1      2759 1.99980E+01-1.49201E-04 1.84517E-06 1.60755E-03 2.53703E-13 2.84160E-14
 -1      2760 1.99987E+01-2.37051E-05-1.05955E-05 1.64041E-03 2.40029E-13 8.64060E-14
 -1      2761 1.99980E+01-1.94782E-04 1.40505E-06 1.57982E-03 1.35807E-13 2.76788E-13
 -1      2762 1.99982E+01-2.30743E-04 1.37297E-06 1.52508E-03 1.70035E-13 2.73287E-13
 -1      2763 1.99987E+01-2.05015E-04-6.93612E-06 1.67122E-03 2.80763E-13 1.63425E-13
 -1      2764 1.99982E+01-2.51295E-04-1.17051E-06 1.45885E-03 8.54105E-14 1.68386E-13
 -1      2765 1.99984E+01-2.65161E-04 1.00653E-06 1.38268E-03 2.39985E-13 1.35365E-13
 -1      2766 1.99988E+01-3.00841E-04-4.31086E-06 1.58759E-03 1.14694E-13 1.58169E-13
 -1      2767 1.99985E+01-2.69429E-04-2.64344E-06 1.29753E-03 3.99224E-13 3.71218E-14
 -1      2768 1.99986E+01-2.69249E-04 7.18739E-07 1.21326E-03 3.05957E-13-7.63078E-15
 -1      2769 1.99989E+01-3.39436E-04-2.46755E-06 1.44067E-03 2.12229E-13 2.66918E-14
 -1      2770 1.99987E+01-2.63609E-04-3.36031E-06 1.12205E-03 1.24281E-13 7.73178E-14
 -1      2771 1.99988E+01-2.55253E-04 4.83248E-07 1.03807E-03-2.47422E-13-1.89919E-13
 -1      2772 1.99990E+01-3.41499E-04-1.20536E-06 1.26498E-03 2.65950E-13-2.71079E-13
 -1      2773 1.99989E+01-2.44342E-04-3.57321E-06 9.48756E-04-4.29577E-13 2.96882E-14
 -1      2774 1.99990E+01-2.32089E-04 2.75936E-07 8.69846E-04-3.77354E-13-7.65298E-14
 -1      2775 1.99991E+01-3.22126E-04-3.70035E-07 1.08279E-03-2.97692E-13-1.37950E-13
 -1      2776 1.99991E+01-2.19294E-04-3.46134E-06 7.86778E-04-9.98219E-14 6.11312E-14
 -1      2777 1.99992E+01-2.06287E-04 7.84035E-08 7.15093E-04 2.96510E-13 2.72881E-13
 -1      2778 1.99993E+01-2.92312E-04 1.55509E-07 9.07410E-04-1.88390E-13 2.07176E-13
 -1      2779 1.99993E+01-1.94152E-04-3.16592E-06 6.40068E-04 1.47518E-13 2.23304E-13
 -1      2780 1.99994E+01-1.82724E-04-1.36691E-07 5.75833E-04-9.98697E-14 1.94790E-13
 -1      2781 1.99994E+01-2.60081E-04 4.55911E-07 7.45659E-04 1.32714E-13 3.51109E-13
 -1      2782 1.99994E+01-1.73389E-04-2.83895E-06 5.08737E-04 3.62787E-16 1.07269E-13
 -1      2783 1.99995E+01-1.64739E-04-2.59919E-07 4.50618E-04 6.34698E-14 3.10313E-13
 -1      2784 1.99995E+01-2.31157E-04 6.98917E-07 6.00011E-04 9.12466E-15 2.76965E-13
 -1      2785 1.99995E+01-1.58454E-04-2.32665E-06 3.90580E-04-4.30415E-15 2.28222E-13
 -1      2786 1.99996E+01-1.54590E-04-6.94648E-07 3.37571E-04-2.09574E-14 1.31120E-13
 -1      2787 1.99996E+01-2.08788E-04 1.41318E-06 4.68847E-04-7.96824E-14 1.62301E-13
 -1      2788 1.99890E+01 9.46797E-01 9.80361E-03 7.98314E-01 2.28448E-13 7.86014E-14
 -1      2789 2.01355E+01 8.48303E-01-9.17743E-05 1.05687E+00 2.31243E-13 9.97712E-14
 -1      2790 1.97747E+01 1.06204E+00 6.96227E-03 1.80403E-01 1.82321E-13 4.53142E-14
 -1      2791 1.98504E+01 1.02164E+00 2.60304E-03 4.78651E-01 2.00885E-13 6.55993E-14
 -1      2792 2.04441E+01 1.22354E+00-6.98556E-03 7.49393E-01 2.32642E-13 3.27421E-14
 -1      2793 2.03196E+01 7.53237E-01 8.15526E-03 1.29876E+00 2.10066E-13 1.18349E-13
 -1      2794 2.05196E+01 6.77045E-01 1.26749E-03 1.50400E+00 2.14349E-13 1.32966E-13
 -1      2795 2.07560E+01 1.00334E+00-2.17240E-03 1.33614E+00 2.31638E-13 5.82594E-14
 -1      2796 1.98400E+01 7.38458E-01-4.38017E-03-9.95359E-01 1.40232E-13-5.85025E-14
 -1      2797 1.97753E+01 8.90750E-01 1.01797E-02-7.68467E-01 1.84000E-13-2.11480E-14
 -1      2798 2.00528E+01 3.62798E-01-7.81008E-03-1.32360E+00 4.48381E-14-9.46817E-14
 -1      2799 1.99483E+01 5.64476E-01 1.01826E-02-1.19800E+00 9.60763E-14-4.99618E-14
 -1      2800 2.03956E+01 8.06056E-01-3.13485E-03-1.18341E+00 1.23846E-13-4.58989E-14
 -1      2801 2.02879E+01-2.88562E-02-7.81590E-03-1.40536E+00 3.24859E-14-9.67948E-14
 -1      2802 2.01736E+01 1.66839E-01 7.74632E-03-1.39180E+00 1.91293E-14-1.30072E-13
 -1      2803 2.05974E+01 3.27569E-01 1.04005E-03-1.46097E+00 5.39064E-14-1.15602E-13
 -1      2804 2.04681E+01-3.28289E-01-4.75691E-03-1.26418E+00 2.90167E-14-4.30537E-14
 -1      2805 2.03730E+01-1.93024E-01 3.17645E-03-1.34475E+00 4.99401E-14-9.64768E-14
 -1      2806 2.07778E+01-1.34161E-01 5.79712E-03-1.46004E+00 6.34800E-15-1.11654E-13
 -1      2807 2.05346E+01-4.64895E-01-2.58969E-03-9.66043E-01-5.95867E-15 3.27561E-14
 -1      2808 2.04845E+01-4.16845E-01-2.02577E-03-1.11772E+00 2.55698E-15-7.15071E-15
 -1      2809 2.08571E+01-4.64396E-01 4.10852E-03-1.23117E+00-1.88543E-14-4.08595E-14
 -1      2810 2.05327E+01-4.75453E-01 1.51968E-03-6.83806E-01 2.21067E-14-1.00471E-14
 -1      2811 2.04950E+01-4.77267E-01-4.60086E-03-8.11630E-01 2.10960E-14 2.65005E-15
 -1      2812 2.08015E+01-5.72019E-01 2.56330E-03-8.92924E-01 2.35692E-14-3.12493E-14
 -1      2813 2.04860E+01-4.22563E-01 2.73069E-03-4.30642E-01-2.89810E-14-3.80129E-14
 -1      2814 2.04712E+01-4.57769E-01-5.27828E-03-5.46325E-01 3.60523E-14-4.70988E-14
 -1      2815 2.07066E+01-5.74117E-01 5.94678E-04-5.99041E-01 4.60440E-14-6.79021E-14
 -1      2816 2.04145E+01-3.33556E-01 3.01982E-03-2.26872E-01-9.69135E-14 2.21204E-16
 -1      2817 2.04156E+01-3.82725E-01-4.84132E-03-3.19521E-01-1.11481E-13-3.84156E-14
 -1      2818 2.05819E+01-4.95540E-01-7.44944E-04-3.46806E-01-6.87084E-14-4.89307E-14
 -1      2819 2.03372E+01-2.37746E-01 2.73958E-03-7.92280E-02-9.15263E-14 1.27599E-13
 -1      2820 2.03479E+01-2.87260E-01-3.88215E-03-1.46277E-01-7.59937E-14 5.55590E-14
 -1      2821 2.04551E+01-3.82124E-01-1.38868E-03-1.54620E-01-1.52819E-13-1.81700E-14
 -1      2822 2.02655E+01-1.52480E-01 2.19932E-03 1.73282E-02-7.79072E-14 1.62943E-13
 -1      2823 2.02809E+01-1.94856E-01-2.80897E-03-2.65120E-02-7.74445E-14 1.48109E-13
 -1      2824 2.03425E+01-2.66415E-01-1.52035E-03-2.24693E-02-8.53164E-14 8.28396E-14
 -1      2825 2.02042E+01-8.52551E-02 1.61260E-03 7.29761E-02-9.42885E-14 2.11719E-13
 -1      2826 2.02212E+01-1.17705E-01-1.84521E-03 4.77404E-02-8.16776E-14 2.30791E-13
 -1      2827 2.02508E+01-1.66554E-01-1.36901E-03 5.89036E-02-1.06355E-13 1.34031E-13
 -1      2828 2.01546E+01-3.71217E-02 1.09339E-03 9.88488E-02-6.53407E-15 1.83228E-13
 -1      2829 2.01712E+01-5.97544E-02-1.07892E-03 8.71816E-02-7.28126E-14 2.03379E-13
 -1      2830 2.01803E+01-8.95479E-02-1.10798E-03 1.01725E-01-8.12027E-14 2.00126E-13
 -1      2831 2.01156E+01-5.70926E-03 6.85835E-04 1.04860E-01-2.09384E-14 1.55328E-13
 -1      2832 2.01308E+01-2.00632E-02-5.21329E-04 1.02254E-01 6.26994E-14 2.18748E-13
 -1      2833 2.01282E+01-3.54581E-02-8.39348E-04 1.17733E-01-2.19137E-14 2.61152E-13
 -1      2834 2.00856E+01 1.26551E-02 3.92559E-04 9.88683E-02-1.17313E-13 2.50935E-13
 -1      2835 2.00989E+01 4.58801E-03-1.46768E-04 1.01733E-01-7.61863E-14 1.74415E-13
 -1      2836 2.00906E+01-8.64406E-04-6.10275E-04 1.16663E-01-8.41824E-14 1.58039E-13
 -1      2837 2.00628E+01 2.17004E-02 1.96667E-04 8.65907E-02-7.04692E-14 2.93945E-13
 -1      2838 2.00741E+01 1.80190E-02 8.33301E-05 9.23057E-02-1.04074E-13 2.54826E-13
 -1      2839 2.00640E+01 1.88149E-02-4.34112E-04 1.05863E-01-1.00563E-13 6.54888E-14
 -1      2840 2.00456E+01 2.46128E-02 7.52302E-05 7.18872E-02 1.13535E-13 9.21327E-14
 -1      2841 2.00549E+01 2.37479E-02 2.07864E-04 7.86811E-02 8.74353E-14 2.30673E-13
 -1      2842 2.00453E+01 2.80145E-02-3.07099E-04 9.04814E-02 6.48624E-14 2.04202E-14
 -1      2843 2.00327E+01 2.38430E-02 6.34901E-06 5.71602E-02 1.25560E-13-2.34007E-14
 -1      2844 2.00402E+01 2.46170E-02 2.60348E-04 6.39322E-02 7.40957E-14 1.49046E-14
 -1      2845 2.00321E+01 3.04280E-02-2.19112E-04 7.38699E-02 2.10279E-13-4.53777E-14
 -1      2846 2.00230E+01 2.11311E-02-2.79177E-05 4.37534E-02 8.33381E-14-1.73211E-14
 -1      2847 2.00289E+01 2.27251E-02 2.67108E-04 4.98914E-02 1.08246E-13 9.71034E-15
 -1      2848 2.00228E+01 2.88485E-02-1.59360E-04 5.80311E-02 8.40909E-14-3.73159E-14
 -1      2849 2.00158E+01 1.76266E-02-4.09363E-05 3.22907E-02 2.74233E-14-1.86227E-14
 -1      2850 2.00204E+01 1.95110E-02 2.47458E-04 3.75150E-02 6.95863E-14 1.33441E-15
 -1      2851 2.00161E+01 2.52325E-02-1.18804E-04 4.40174E-02 9.37276E-14-7.79840E-14
 -1      2852 2.00105E+01 1.40317E-02-4.19717E-05 2.29390E-02-3.82142E-14-7.11830E-14
 -1      2853 2.00140E+01 1.58913E-02 2.14740E-04 2.71800E-02-5.07286E-15-1.15600E-13
 -1      2854 2.00113E+01 2.08560E-02-9.07713E-05 3.22532E-02 6.17951E-14-1.78451E-13
 -1      2855 2.00067E+01 1.07334E-02-3.70490E-05 1.55982E-02-2.37425E-13-1.69295E-13
 -1      2856 2.00092E+01 1.24010E-02 1.77620E-04 1.89085E-02-1.62896E-13-1.57680E-13
 -1      2857 2.00078E+01 1.64865E-02-7.07254E-05 2.27747E-02-2.79451E-14-4.41352E-13
 -1      2858 2.00039E+01 7.91014E-03-2.98385E-05 1.00315E-02-1.75083E-13-5.13301E-14
 -1      2859 2.00057E+01 9.31509E-03 1.41319E-04 1.25253E-02-2.07115E-13-1.46773E-13
 -1      2860 2.00052E+01 1.25372E-02-5.57804E-05 1.54006E-02-2.28502E-13-3.79011E-13
 -1      2861 2.00020E+01 5.61125E-03-2.24027E-05 5.94943E-03-9.90593E-14-1.78055E-14
 -1      2862 2.00033E+01 6.74109E-03 1.08661E-04 7.76368E-03-1.23118E-13-5.16645E-14
 -1      2863 2.00034E+01 9.18949E-03-4.41830E-05 9.84583E-03-1.59655E-13-3.26636E-13
 -1      2864 2.00007E+01 3.81290E-03-1.57700E-05 3.05981E-03 1.85199E-13 6.89056E-14
 -1      2865 2.00015E+01 4.68729E-03 8.08794E-05 4.33138E-03 1.50884E-13 3.03481E-14
 -1      2866 2.00021E+01 6.48268E-03-3.49043E-05 5.79356E-03 3.52425E-14-1.66497E-13
 -1      2867 1.99998E+01 2.45482E-03-1.03432E-05 1.09564E-03 1.58751E-13-3.36224E-14
 -1      2868 2.00004E+01 3.10848E-03 5.82254E-05 1.94870E-03 1.04439E-13-6.84654E-14
 -1      2869 2.00011E+01 4.37699E-03-2.73483E-05 2.93754E-03 1.89541E-13-9.04196E-14
 -1      2870 1.99993E+01 1.46329E-03-6.17450E-06-1.72572E-04 6.87786E-14 3.34064E-14
 -1      2871 1.99996E+01 1.93558E-03 4.03868E-05 3.67974E-04 1.72599E-13 6.92395E-14
 -1      2872 2.00005E+01 2.79447E-03-2.11601E-05 1.00407E-03 7.61898E-14-6.27785E-14
 -1      2873 1.99990E+01 7.64538E-04-3.14058E-06-9.33455E-04 1.26569E-13-5.20765E-15
 -1      2874 1.99992E+01 1.09349E-03 2.67717E-05-6.18839E-04 1.82339E-13 2.40524E-14
 -1      2875 2.00000E+01 1.64442E-03-1.61094E-05-2.38859E-04 1.47332E-13 2.22655E-14
 -1      2876 1.99989E+01 2.91686E-04-1.04772E-06-1.33658E-03-2.12202E-14-2.16303E-15
 -1      2877 1.99989E+01 5.11092E-04 1.66875E-05-1.17968E-03-1.41783E-14 2.08265E-14
 -1      2878 1.99997E+01 8.37904E-04-1.20274E-05-9.80203E-04 5.59657E-14 6.30631E-14
 -1      2879 1.99989E+01-1.22602E-05 3.08952E-07-1.49698E-03 2.31730E-13-1.79780E-13
 -1      2880 1.99988E+01 1.25992E-04 9.44705E-06-1.44568E-03 1.74166E-13-4.96062E-14
 -1      2881 1.99995E+01 2.95278E-04-8.77364E-06-1.36893E-03 6.07922E-14 1.08868E-13
 -1      2882 1.99989E+01-1.93803E-04 1.11552E-06-1.50054E-03 1.16056E-13-2.25584E-13
 -1      2883 1.99989E+01-1.13785E-04 4.42646E-06-1.51622E-03 1.23358E-13-2.64263E-13
 -1      2884 1.99995E+01-5.08482E-05-6.22277E-06-1.51908E-03 1.68951E-13-1.68098E-14
 -1      2885 1.99990E+01-2.89638E-04 1.52693E-06-1.40956E-03-2.56825E-14-8.17121E-14
 -1      2886 1.99989E+01-2.49924E-04 1.09072E-06-1.46447E-03 2.06729E-14-2.13891E-13
 -1      2887 1.99994E+01-2.55177E-04-4.25985E-06-1.51559E-03-3.45102E-14-9.34769E-14
 -1      2888 1.99991E+01-3.27956E-04 1.66442E-06-1.26772E-03 1.22513E-13 4.09701E-14
 -1      2889 1.99990E+01-3.14874E-04-9.99845E-07-1.34262E-03 7.40094E-14 6.12816E-15
 -1      2890 1.99994E+01-3.60718E-04-2.78014E-06-1.41987E-03 1.12464E-14-1.30328E-14
 -1      2891 1.99992E+01-3.29955E-04 1.61697E-06-1.10440E-03 1.96724E-13-4.89116E-14
 -1      2892 1.99991E+01-3.33287E-04-2.19449E-06-1.18655E-03 1.66743E-13 1.61543E-14
 -1      2893 1.99995E+01-4.00424E-04-1.69092E-06-1.27487E-03 1.51417E-13 1.36897E-13
 -1      2894 1.99993E+01-3.11329E-04 1.44890E-06-9.38192E-04 2.11319E-13-1.74124E-13
 -1      2895 1.99992E+01-3.23548E-04-2.76172E-06-1.01976E-03 2.22881E-13-1.68337E-13
 -1      2896 1.99995E+01-3.99038E-04-9.16034E-07-1.10941E-03 2.05934E-13 1.00493E-13
 -1      2897 1.99994E+01-2.83578E-04 1.20499E-06-7.79748E-04 5.33943E-14-5.43386E-14
 -1      2898 1.99994E+01-2.99189E-04-2.89933E-06-8.56459E-04 6.38343E-14-7.68826E-15
 -1      2899 1.99995E+01-3.74841E-04-3.88089E-07-9.41649E-04-1.31201E-14-1.45998E-14
 -1      2900 1.99995E+01-2.54985E-04 9.33867E-07-6.33940E-04-2.46380E-13-1.52117E-13
 -1      2901 1.99994E+01-2.70079E-04-2.74321E-06-7.04099E-04 2.23828E-14-4.58976E-14
 -1      2902 1.99996E+01-3.41240E-04-5.78878E-08-7.81932E-04-1.63882E-14 7.90478E-14
 -1      2903 1.99996E+01-2.31898E-04 4.53073E-07-5.01594E-04 8.24889E-14-2.91826E-13
 -1      2904 1.99995E+01-2.43621E-04-2.52143E-06-5.65427E-04-1.68088E-13-2.92752E-13
 -1      2905 1.99996E+01-3.07731E-04 1.71449E-07-6.35000E-04-6.96595E-14-2.54590E-13
 -1      2906 1.99997E+01-2.21754E-04-2.13627E-07-3.84491E-04 3.85749E-13-4.18601E-13
 -1      2907 1.99996E+01-2.28194E-04-2.21462E-06-4.43275E-04 2.25216E-13-3.53824E-13
 -1      2908 1.99997E+01-2.84241E-04 8.67090E-07-5.04488E-04 1.22819E-13-5.33191E-13
 -1      2909 1.99997E+01-2.72063E-04 1.54645E-06-3.87705E-04 1.73547E-13-6.08668E-13
 -1      2910 1.18234E+01-1.88205E+00 1.71926E-01-5.19940E+00 3.24421E-13 2.15383E-13
 -1      2911 1.50409E+01-3.05749E+00 9.79086E-02-5.95864E+00 2.77889E-13-7.57727E-15
 -1      2912 2.00000E+01-6.06875E-04 2.04009E-06-1.70183E-04 3.21847E-15 3.06668E-13
 -1      2913 2.00000E+01-5.83944E-04 2.44359E-08-2.25855E-04 1.91441E-14 3.97510E-13
 -1      2914 2.00001E+01-6.33165E-04-1.92198E-06-1.50446E-04 1.89902E-13 3.24519E-13
 -1      2915 1.55425E+01 3.01864E+00 7.57303E-02 1.92414E+00-7.37466E-14-3.32956E-13
 -1      2916 1.59446E+01 1.94405E+00 1.26530E-01 2.85922E+00 1.24206E-14-3.27738E-13
 -1      2917 1.32796E+01 3.68560E+00 3.13502E-02 1.27528E+00-1.19738E-13-4.52791E-13
 -1      2918 1.99998E+01-3.72064E-04 1.99218E-06-3.93966E-04 4.14504E-14-8.72449E-13
 -1      2919 1.99998E+01-3.19852E-04-6.38045E-07-3.89497E-04 1.42977E-13-7.32398E-13
 -1      2920 1.99997E+01-3.24907E-04-1.70384E-06-4.46752E-04 2.53147E-13-8.90257E-13
 -1      2921 1.99998E+01-4.11736E-04-1.96831E-07-4.33593E-04 3.40116E-13-5.68790E-13
 -1      2922 2.00000E+01-5.47977E-04 2.38084E-06-2.82724E-04 3.24892E-14 2.21280E-13
 -1      2923 1.99999E+01-5.12331E-04-7.85530E-07-3.23225E-04 1.57598E-13 1.13859E-13
 -1      2924 1.99999E+01-5.01099E-04-1.39112E-06-3.81876E-04 3.91141E-13 7.47789E-14
 -1      2925 2.00000E+01-5.81662E-04-1.67776E-06-2.83228E-04 1.32724E-13 2.77142E-13
 -1      2926 1.97272E+01 9.95216E-01 1.22304E-03-4.60715E-01 1.91294E-13-1.22952E-14
 -1      2927 1.97271E+01 1.05524E+00 7.14741E-03-1.70184E-01 1.83991E-13 2.06174E-14
 -1      2928 2.02629E+01 1.31007E+00-9.21524E-03 4.25637E-02 2.13004E-13-1.20106E-14
 -1      2929 2.02574E+01 1.16562E+00-7.30600E-03-6.51240E-01 2.07408E-13-8.90352E-14
 -1      2930 2.00000E+01-6.26073E-04 8.41133E-07 1.01596E-04-1.01987E-13 4.34360E-13
 -1      2931 2.00000E+01-6.34005E-04 1.47301E-06 3.79577E-05-3.86845E-14 3.23399E-13
 -1      2932 2.00001E+01-6.51191E-04-2.03941E-06 6.21565E-07 1.94609E-13 3.54318E-13
 -1      2933 2.00000E+01-5.85510E-04 5.52819E-08 2.25406E-04-1.68938E-13 2.65216E-13
 -1      2934 2.00000E+01-6.07900E-04 2.01363E-06 1.70568E-04-3.44405E-13 7.12928E-13
 -1      2935 2.00001E+01-6.34326E-04-1.98916E-06 1.50590E-04 1.09103E-13 3.64855E-13
 -1      2936 1.99999E+01-5.14108E-04-7.26544E-07 3.23492E-04 2.03205E-13 5.59969E-14
 -1      2937 2.00000E+01-5.49779E-04 2.38380E-06 2.82794E-04-6.33425E-14 1.00085E-13
 -1      2938 2.00000E+01-5.83955E-04-1.70407E-06 2.82976E-04-1.40193E-13 3.49890E-13
 -1      2939 1.99998E+01-4.18600E-04-1.41094E-06 3.80500E-04 1.62421E-13 1.04852E-13
 -1      2940 1.99999E+01-4.64086E-04 2.51653E-06 3.60592E-04 4.05561E-13-1.45584E-13
 -1      2941 1.99999E+01-5.03566E-04-1.28386E-06 3.82217E-04 1.08785E-13 7.68154E-14
 -1      2942 1.99997E+01-3.08440E-04-1.96765E-06 3.87873E-04-7.74339E-14-5.04612E-14
 -1      2943 1.99998E+01-3.59175E-04 2.40567E-06 3.91321E-04 2.95430E-14 2.47189E-13
 -1      2944 1.99998E+01-4.00861E-04-1.29299E-06 4.33700E-04 1.32044E-13 1.29709E-15
 -1      2945 2.97867E+01 5.94939E+00-1.95130E-01-1.37112E+00 5.92915E-13-4.46754E-13
 -1      2946 3.03920E+01 4.22539E+00-4.45099E-02-1.52222E+00 4.87443E-13-5.37903E-13
 -1      2947 1.82030E+01 1.16123E+00 6.43487E-02-4.56633E+00-4.43041E-13-3.46360E-13
 -1      2948 1.61549E+01 1.78088E+00-2.71342E-02-4.95914E+00-4.72980E-13-3.96620E-13
 -1      2949 2.89277E+01-3.38463E+00 1.08191E-01 2.34108E+00-1.04916E-13-7.73548E-13
 -1      2950 2.72533E+01-5.41220E+00-7.13198E-02 3.95668E+00 1.21070E-13-5.82229E-13
 -1      2951 2.27226E+01 1.23977E+00-3.02563E-02 1.42981E+00 7.70824E-14-1.29723E-13
 -1      2952 2.29124E+01 1.11993E+00 4.45152E-03 1.01715E+00 9.59519E-15-1.43858E-13
 -1      2953 2.34199E+01 6.75252E-01 1.58689E-02 9.48612E-01-1.06360E-14-8.46275E-14
 -1      2954 2.29191E+01 1.08082E+00 1.76099E-02 1.70527E+00 8.23499E-14-5.97497E-14
 -1      2955 1.82537E+01-2.28856E+00 9.07126E-02-7.27863E+00-3.89369E-13-3.52843E-13
 -1      2956 2.15937E+01-2.95604E+00 2.10312E-03-6.59669E+00-2.65898E-13-2.66266E-13
 -1      2957 1.41048E+01 2.76591E+00 1.06816E-01-5.05502E+00-4.82506E-13-5.00860E-13
 -1      2958 1.22912E+01 3.42428E+00-5.85928E-03-4.63028E+00-4.80005E-13-5.66304E-13
 -1      2959 1.51538E+01 1.45496E+00 5.99427E-02-5.67531E+00-4.80862E-13-4.51736E-13
 -1      2960 2.44930E+01-5.63091E+00-1.97984E-01 5.69626E+00-1.14103E-13-5.17725E-13
 -1      2961 2.14594E+01-5.19325E+00 9.24984E-02 6.49017E+00-3.89130E-13-1.11321E-13
 -1      2962 2.58910E+01-4.59702E+00 2.34277E-01 3.92431E+00-2.65149E-13-1.83430E-13
 -1      2963 1.11943E+01-2.28714E+00 5.15382E-02 6.97325E+00-5.77247E-13 7.40241E-13
 -1      2964 8.53416E+00-8.36067E-01 1.67017E-01 5.18206E+00-5.47964E-13 9.45688E-13
 -1      2965 6.84019E+00 1.88917E+00 2.40137E-01 6.90888E-01-1.36412E-13-8.74967E-13
 -1      2966 5.80501E+00 2.17522E+00 1.11536E-01-1.69292E+00-2.13062E-13-8.76521E-13
 -1      2967 2.00771E+01-3.62683E+00-2.66970E-02 4.95438E+00 2.59431E-13-2.25889E-13
 -1      2968 6.55463E+00-1.38229E-01 1.70987E-01-1.67371E+00 1.14735E-13 4.44811E-13
 -1      2969 8.70049E+00-8.54160E-01 1.22392E-01-3.88962E+00 2.46247E-13 2.53159E-13
 -1      2970 2.99891E+01 7.96960E+00-1.67524E-01 2.92373E-01 7.31359E-13-2.05582E-13
 -1      2971 2.95575E+01 7.47858E+00-1.74685E-01-5.41055E-01 6.83203E-13-3.09898E-13
 -1      2972 3.00652E+01 2.77904E+00-1.16000E-01 1.35945E+00 4.12961E-13 1.15727E-13
 -1      2973 3.01796E+01 4.57572E+00-2.07654E-01 1.73337E+00 5.47840E-13 6.53227E-14
 -1      2974 6.21442E+00 2.04088E+00 2.03990E-01-3.71777E+00-3.35829E-13-8.47489E-13
 -1      2975 7.78797E+00 1.29198E+00 8.77558E-02-5.83691E+00-3.89716E-13-7.71772E-13
 -1      2976 1.77022E+01-4.59553E+00-1.10128E-02 7.62440E+00-4.76508E-13 1.39638E-13
 -1      2977 1.43363E+01-3.57312E+00 1.35620E-01 7.49339E+00-5.46840E-13 4.26228E-13
 -1      2978 1.54335E+01-1.19812E+00 1.48920E-01 4.58743E+00 1.62315E-13-4.46171E-13
 -1      2979 1.18023E+01-1.07048E+00 1.54583E-01 4.57917E+00 8.35720E-14-6.24334E-13
 -1      2980 8.35950E+00 1.94646E-01 1.13510E-01 2.93182E+00 1.40166E-14-7.80487E-13
 -1      2981 3.00817E+01 6.40238E+00-1.48909E-01 1.62670E+00 6.63247E-13 5.68989E-15
 -1      2982 2.98666E+01 7.43248E+00-2.13506E-01 1.04678E+00 7.32414E-13-1.00454E-13
 -1      2983 2.90379E+01-3.83877E-01-7.78315E-02-4.75742E-01 1.09954E-13 1.01003E-13
 -1      2984 2.99888E+01 1.13443E+00-1.53264E-01 6.03480E-01 2.90067E-13 1.07553E-13
 -1      2985 2.89155E+01 1.93562E+00-4.91732E-02 1.57828E+00 2.37518E-13 1.89959E-13
 -1      2986 2.12897E+01 3.05249E-01 3.46522E-03-2.80798E+00-3.33426E-13-2.11176E-13
 -1      2987 2.00131E+01 5.96402E-01 2.67872E-03-3.61062E+00-3.96456E-13-2.50459E-13
 -1      2988 2.25254E+01-3.33978E-01 1.22684E-02-2.26590E+00-2.91197E-13-1.35151E-13
 -1      2989 1.53383E+01 7.31919E-01 1.32911E-01 3.73200E+00 9.48408E-14-3.69371E-13
 -1      2990 1.08971E+01 2.85047E-01 1.88067E-01-7.00837E+00-4.54844E-13-6.45525E-13
 -1      2991 1.41973E+01-9.67523E-01 4.62519E-02-7.65581E+00-4.44950E-13-4.94868E-13
 -1      2992 3.02380E+01 1.52936E+00-1.54987E-01-7.84298E-01 2.83856E-13-6.26610E-13
 -1      2993 2.99542E+01-1.00326E+00 9.97055E-02 4.22734E-01 1.29424E-13-6.80678E-13
 -1      2994 6.38640E+00 9.08472E-02 1.17371E-01 2.86386E+00-2.68591E-13 8.46823E-13
 -1      2995 5.99989E+00 1.81214E-01 1.93971E-01 3.27785E-01-8.37386E-14 6.89837E-13
 -1      2996 1.21733E+01 1.55044E+00 1.57637E-01 3.08196E+00 2.72421E-14-5.54529E-13
 -1      2997 2.12031E+01 1.29682E+00 1.50536E-03 2.27097E+00 2.80621E-13 5.68564E-14
 -1      2998 2.37711E+01-2.77645E+00 4.00046E-02-5.03814E+00-3.04992E-13-1.61315E-13
 -1      2999 1.05404E+01 3.67293E+00 1.14537E-01-4.13519E+00-4.33447E-13-6.58272E-13
 -1      3000 9.75444E+00 4.06898E+00 5.01739E-02-2.96731E+00-3.67728E-13-6.57335E-13
 -1      3001 2.10933E+01 8.32744E-01 2.33856E-04 1.75527E+00 2.18351E-13 8.40330E-14
 -1      3002 2.06936E+01 6.60068E-01 7.00518E-03 1.67552E+00 2.27761E-13 1.17308E-13
 -1      3003 1.99996E+01-1.49441E-04-1.30790E-06 2.78529E-04 1.46857E-13 4.02252E-14
 -1      3004 1.16662E+01-6.01720E-01 1.52045E-01-4.30714E+00 2.80720E-13 1.56680E-13
 -1      3005 2.88597E+01-2.11150E+00 1.52085E-01 8.78917E-01-1.02085E-13-6.51063E-13
 -1      3006 1.96018E+01-5.10892E-03 7.21609E-03-4.48690E+00-4.25935E-13-2.68573E-13
 -1      3007 2.90610E+01 2.36655E+00-4.41495E-02-1.45818E+00 2.64760E-13-6.02435E-13
 -1      3008 1.99997E+01-2.35587E-04 7.93843E-07 3.68505E-04 5.32843E-15-1.27365E-13
 -1      3009 1.99997E+01-2.74759E-04-1.49488E-06 4.29828E-04 1.70120E-14 2.76422E-14
 -1      3010 2.87687E+01 6.40555E+00-1.32077E-01-1.14127E+00 5.95690E-13-3.70148E-13
 -1      3011 2.76388E+01 5.15453E+00-9.19869E-02-1.51112E+00 4.86375E-13-4.16996E-13
 -1      3012 2.73491E+01 6.55659E+00-1.03254E-01-7.62269E-01 5.74402E-13-2.85348E-13
 -1      3013 2.04318E+01-4.47907E+00 1.33712E-01 6.46458E+00-3.71515E-13-1.97134E-14
 -1      3014 2.13859E+01 1.07110E+00 1.53740E-02 2.16000E+00 2.55519E-13 5.01673E-14
 -1      3015 2.07073E+01 6.43812E-01 7.28518E-03 1.76231E+00 2.51802E-13 1.33680E-13
 -1      3016 9.24195E+00 2.87555E-01 1.69319E-01 3.77966E+00-3.25184E-13 7.74492E-13
 -1      3017 2.84570E+01-1.31790E+00-5.72906E-02-1.14247E+00-1.54217E-14 5.60940E-14
 -1      3018 2.82035E+01-2.41856E-01-4.61966E-02 3.76077E-01 2.53270E-14 2.33709E-13
 -1      3019 2.72308E+01-1.75513E+00 3.12639E-02-1.88919E+00-1.22284E-13 6.28525E-14
 -1      3020 7.81231E+00 2.96095E+00 1.69213E-01-2.60519E+00-3.04031E-13-8.06633E-13
 -1      3021 1.04697E+01 2.56711E+00 1.34085E-01-5.31066E+00-4.37449E-13-6.61957E-13
 -1      3022 2.82665E+01 7.02001E+00-1.18697E-01 7.54867E-01 6.17451E-13-1.36443E-13
 -1      3023 1.41067E+01-2.32843E+00 1.11287E-01 6.64416E+00-5.90084E-13 5.38292E-13
 -1      3024 9.24928E+00 1.74180E+00 1.82048E-01 1.78922E+00-3.93713E-14-7.54841E-13
 -1      3025 1.94853E+01-1.97267E+00 7.82606E-02-5.13231E+00 3.34996E-13-1.24387E-13
 -1      3026 1.59400E+01-8.65377E-01 1.48290E-01-5.17759E+00 3.33913E-13-7.37049E-14
 -1      3027 8.24510E+00 8.86523E-01 1.89721E-01-7.58306E-01 1.00586E-13 4.25743E-13
 -1      3028 2.85918E+01 4.98417E+00-8.36251E-02 1.95311E+00 4.86111E-13 6.56072E-14
 -1      3029 1.06839E+01 1.52724E+00 1.64272E-01-6.06141E+00-4.49349E-13-6.79387E-13
 -1      3030 1.82298E+01-3.52106E+00 1.35730E-01-5.61264E+00 3.02286E-13-1.06526E-13
 -1      3031 2.16045E+01-4.23666E+00 2.78193E-02-5.17418E+00 2.55768E-13-2.05863E-13
 -1      3032 1.99997E+01-1.97009E-04-4.57170E-07 3.45243E-04 1.02061E-13 3.71827E-14
 -1      3033 2.38516E+01-4.01905E+00 6.29740E-02-4.26963E+00 2.89546E-13-2.25708E-13
 -1      3034 2.41648E+01-7.13833E-02-4.30403E-02 3.87720E-01-7.32500E-14-3.44746E-14
 -1      3035 2.41916E+01-3.29353E-01 1.56109E-02-3.93013E-01-1.57835E-13-4.53916E-14
 -1      3036 2.20543E+01 1.04482E+00-2.27044E-02 2.12785E+00 1.96236E-13 1.18124E-14
 -1      3037 2.24767E+01 1.05628E+00-3.00708E-03 2.03808E+00 1.49117E-13 1.53136E-14
 -1      3038 2.05218E+01 6.27698E-01 6.94343E-03 1.81010E+00 2.57580E-13 1.73803E-13
 -1      3039 2.27135E+01-2.21431E+00 1.21919E-01-4.98061E+00-3.73535E-13-1.46050E-13
 -1      3040 2.50475E+01-2.62580E+00-8.12826E-02-3.76008E+00-2.56045E-13-4.24868E-14
 -1      3041 9.98170E+00 4.29937E+00 1.22109E-01-1.02568E+00-2.72723E-13-6.61665E-13
 -1      3042 1.09788E+01 3.96161E+00 8.43123E-02 2.10224E-02-1.95149E-13-6.08388E-13
 -1      3043 2.00001E+01-6.45802E-04 1.06852E-07 2.02710E-04 1.07604E-13 2.57473E-13
 -1      3044 2.00002E+01-6.60846E-04 1.61033E-06 1.29027E-04 3.05666E-13 1.31907E-13
 -1      3045 2.15003E+01 9.90414E-01 5.66936E-03 1.78134E+00 1.97933E-13 8.33575E-14
 -1      3046 2.16339E+01 9.02994E-01-9.54213E-03 1.94662E+00 2.03503E-13 7.10406E-14
 -1      3047 2.68265E+01 6.27478E+00-9.24901E-02 1.17628E+00 5.55750E-13-3.57978E-14
 -1      3048 2.67774E+01 6.56091E+00-1.44667E-01 2.20696E-01 5.69877E-13-1.52735E-13
 -1      3049 1.10991E+01 3.13498E-01 8.87003E-02 4.48437E+00-3.33570E-13 7.32581E-13
 -1      3050 9.50867E+00 1.28762E+00 1.53063E-01 2.30961E+00-4.82080E-14 5.97050E-13
 -1      3051 1.60441E+01-5.46722E-01 1.18607E-01-6.89623E+00-4.90316E-13-4.46893E-13
 -1      3052 1.71540E+01-1.78422E+00 1.10612E-01-7.36371E+00-4.40190E-13-4.08243E-13
 -1      3053 2.00002E+01-6.70436E-04 9.35419E-07 3.93932E-05 3.57371E-13 1.72272E-13
 -1      3054 2.00002E+01-6.70203E-04 9.09981E-07-4.01142E-05 3.60471E-13 4.85463E-13
 -1      3055 2.00002E+01-6.93910E-04-1.97720E-06 9.11160E-05 2.90233E-13 1.41350E-13
 -1      3056 1.63091E+01 1.81848E+00 2.76920E-02-2.85293E+00 1.86459E-13-1.58502E-14
 -1      3057 1.67105E+01 1.93189E+00-1.49871E-02-2.50614E+00 8.02847E-14-5.21163E-14
 -1      3058 1.76149E+01 1.88191E+00 4.53815E-03-2.23472E+00 3.73009E-14-6.74998E-14
 -1      3059 1.79790E+01 1.75655E+00-2.53687E-02-1.93965E+00-2.15687E-14-9.44301E-14
 -1      3060 1.61745E+01 2.22309E+00 6.96832E-02-1.77419E+00 7.10343E-14 8.71915E-15
 -1      3061 1.85957E+01 1.60460E+00-9.31878E-04-1.74477E+00-2.72291E-14-1.06366E-13
 -1      3062 1.88324E+01 1.42226E+00-1.91542E-02-1.50255E+00 5.69637E-14-1.49668E-13
 -1      3063 1.75987E+01 1.93359E+00 3.95158E-02-1.43578E+00-5.27573E-15-8.42599E-14
 -1      3064 1.92360E+01 1.24893E+00-4.22724E-04-1.34693E+00 8.93552E-14-1.52125E-13
 -1      3065 1.93710E+01 1.07631E+00-1.34811E-02-1.15091E+00 8.23425E-14-1.69604E-13
 -1      3066 1.85468E+01 1.53505E+00 2.51042E-02-1.16449E+00 6.65250E-14-8.83096E-14
 -1      3067 1.96271E+01 9.25021E-01 9.24968E-04-1.02375E+00 4.44703E-14-1.56317E-13
 -1      3068 1.96935E+01 7.84100E-01-9.27132E-03-8.69627E-01-1.48446E-15-1.25829E-13
 -1      3069 1.91532E+01 1.15705E+00 1.61675E-02-9.29897E-01 3.81506E-14-8.96288E-14
 -1      3070 1.98514E+01 6.65827E-01 1.71614E-03-7.67012E-01 3.33305E-15-1.70728E-13
 -1      3071 1.98766E+01 5.58966E-01-6.30452E-03-6.49057E-01 9.47935E-14-1.71118E-13
 -1      3072 1.95287E+01 8.45155E-01 1.02178E-02-7.28151E-01 8.30087E-15-1.37700E-13
 -1      3073 1.99711E+01 4.71653E-01 1.94919E-03-5.67985E-01 1.33955E-13-1.10511E-13
 -1      3074 1.99741E+01 3.93873E-01-4.24534E-03-4.79566E-01 1.25836E-13-3.65575E-14
 -1      3075 1.97538E+01 6.05842E-01 6.27305E-03-5.60060E-01 1.47222E-13-1.68191E-13
 -1      3076 2.00287E+01 3.31428E-01 1.85180E-03-4.16756E-01 1.07667E-13-2.58622E-14
 -1      3077 2.00211E+01 2.76110E-01-2.83273E-03-3.51423E-01 3.30805E-15 5.26284E-14
 -1      3078 1.98840E+01 4.29770E-01 3.73163E-03-4.24384E-01 1.13356E-13-1.17590E-14
 -1      3079 2.00515E+01 2.32209E-01 1.60645E-03-3.03503E-01-4.53530E-14 6.18330E-14
 -1      3080 2.00397E+01 1.93342E-01-1.87577E-03-2.55669E-01-4.12623E-14 2.05168E-15
 -1      3081 1.99560E+01 3.03375E-01 2.14445E-03-3.17620E-01 2.69286E-14 3.94488E-14
 -1      3082 2.00557E+01 1.62723E-01 1.32144E-03-2.19520E-01-7.51638E-14 9.29381E-14
 -1      3083 2.00435E+01 1.35550E-01-1.23525E-03-1.84691E-01-2.30532E-14 8.10014E-14
 -1      3084 1.99934E+01 2.13867E-01 1.18095E-03-2.35177E-01-2.64497E-14-2.53668E-14
 -1      3085 2.00511E+01 1.14235E-01 1.05096E-03-1.57648E-01 1.53358E-14 3.06119E-14
 -1      3086 2.00400E+01 9.52385E-02-8.10687E-04-1.32371E-01 4.24376E-14-1.64908E-13
 -1      3087 2.00110E+01 1.50872E-01 6.11711E-04-1.72380E-01-5.17611E-14-5.67996E-14
 -1      3088 2.00430E+01 8.03652E-02 8.17161E-04-1.12272E-01 2.83459E-14-2.16169E-13
 -1      3089 2.00336E+01 6.70432E-02-5.31158E-04-9.39713E-02 3.98223E-15-2.66087E-13
 -1      3090 2.00177E+01 1.06585E-01 2.85251E-04-1.25035E-01-1.92660E-14-3.20177E-13
 -1      3091 2.00343E+01 5.66150E-02 6.25235E-04-7.91204E-02 2.18129E-14-2.97920E-13
 -1      3092 2.00267E+01 4.72254E-02-3.47784E-04-6.59034E-02-4.97127E-14-2.75878E-13
 -1      3093 2.00186E+01 7.53770E-02 1.04962E-04-8.96320E-02-1.61644E-14-3.02239E-13
 -1      3094 2.00262E+01 3.98694E-02 4.72505E-04-5.49980E-02-1.23501E-13-2.16479E-13
 -1      3095 2.00203E+01 3.32145E-02-2.27595E-04-4.54865E-02-1.91571E-14-2.95213E-13
 -1      3096 2.00169E+01 5.32906E-02 1.07403E-05-6.33555E-02-2.88212E-14-3.28844E-13
 -1      3097 2.00193E+01 2.79944E-02 3.53327E-04-3.75366E-02-1.98307E-14-3.04066E-13
 -1      3098 2.00148E+01 2.32540E-02-1.48734E-04-3.07290E-02 5.65042E-14-3.48692E-13
 -1      3099 2.00141E+01 3.75806E-02-3.41035E-05-4.40029E-02-1.12933E-13-1.27119E-13
 -1      3100 2.00137E+01 1.95315E-02 2.61548E-04-2.49864E-02 2.74027E-13-4.35778E-13
 -1      3101 2.00104E+01 1.61437E-02-9.66352E-05-2.01534E-02 7.60852E-14-3.25581E-13
 -1      3102 2.00112E+01 2.63544E-02-5.16011E-05-2.98750E-02 8.77869E-14-3.91308E-13
 -1      3103 2.00094E+01 1.34791E-02 1.91024E-04-1.60531E-02-2.04565E-13-2.58669E-13
 -1      3104 2.00071E+01 1.10672E-02-5.69939E-05-1.26658E-02-3.43528E-13-2.55973E-13
 -1      3105 2.00085E+01 1.83068E-02-5.50679E-05-1.96708E-02 5.19257E-14-4.04092E-13
 -1      3106 2.00063E+01 9.25562E-03 1.39743E-04-9.91548E-03-2.81949E-13-1.95298E-13
 -1      3107 2.00046E+01 7.58661E-03-3.55717E-05-7.65979E-03-2.78765E-13-1.59633E-13
 -1      3108 2.00063E+01 1.26217E-02-6.03991E-05-1.25336E-02-2.04985E-13-1.95655E-13
 -1      3109 2.00039E+01 6.19253E-03 9.93371E-05-5.62723E-03-3.67342E-13-9.56292E-14
 -1      3110 2.00028E+01 4.94755E-03-2.46219E-05-4.01417E-03-2.95863E-13-1.82480E-14
 -1      3111 2.00045E+01 8.57638E-03-4.35637E-05-7.51452E-03-2.46847E-13-1.38116E-13
 -1      3112 2.00022E+01 3.96999E-03 7.05410E-05-2.65266E-03-2.28544E-13 1.01464E-13
 -1      3113 2.00015E+01 3.09170E-03-1.47787E-05-1.59346E-03-8.97579E-14 1.53778E-14
 -1      3114 2.00031E+01 5.58032E-03-3.59535E-05-3.95214E-03-1.63112E-13-1.42869E-13
 -1      3115 2.00011E+01 2.40895E-03 4.83999E-05-7.11424E-04-1.17464E-13-8.17722E-14
 -1      3116 2.00006E+01 1.80112E-03-7.98308E-06-4.71879E-05-2.45039E-13-1.69770E-13
 -1      3117 2.00020E+01 3.46841E-03-2.87267E-05-1.57737E-03-1.48606E-13-1.18515E-13
 -1      3118 2.00003E+01 1.33244E-03 3.21992E-05 4.94377E-04-3.14736E-13 1.52633E-14
 -1      3119 2.00000E+01 9.21130E-04-3.57941E-06 8.82485E-04-1.65570E-13-9.55949E-14
 -1      3120 2.00012E+01 2.00071E-03-2.23628E-05-5.69953E-05-1.22352E-13-9.75512E-15
 -1      3121 1.99998E+01 6.07734E-04 2.05376E-05 1.18685E-03 1.26123E-13 2.00239E-14
 -1      3122 1.99996E+01 3.38263E-04-7.80293E-07 1.38606E-03 3.47287E-13 1.35251E-13
 -1      3123 2.00007E+01 1.00219E-03-1.70442E-05 8.58695E-04 4.54439E-14 3.54534E-13
 -1      3124 1.99995E+01 1.36543E-04 1.22893E-05 1.52944E-03 2.78916E-13 9.62302E-14
 -1      3125 1.99994E+01-3.16988E-05 9.24251E-07 1.60331E-03 2.15653E-13 2.89843E-13
 -1      3126 2.00003E+01 3.43246E-04-1.27401E-05 1.35564E-03 3.37695E-13 1.44679E-13
 -1      3127 1.99993E+01-1.54183E-04 6.58192E-06 1.64130E-03 2.16113E-13 2.63943E-13
 -1      3128 1.99993E+01-2.51376E-04 1.88482E-06 1.63552E-03 3.06904E-13 1.51281E-13
 -1      3129 2.00000E+01-7.25845E-05-9.34154E-06 1.57083E-03 1.97689E-13 2.67264E-13
 -1      3130 1.99993E+01-3.18738E-04 2.74633E-06 1.60800E-03 6.02096E-14 1.43649E-13
 -1      3131 1.99993E+01-3.67258E-04 2.34477E-06 1.55490E-03 2.51325E-14 2.77645E-14
 -1      3132 1.99999E+01-3.17132E-04-6.71121E-06 1.60376E-03 1.66709E-13 1.64479E-13
 -1      3133 1.99993E+01-3.97360E-04 2.71588E-07 1.48987E-03 2.10927E-13 1.39482E-13
 -1      3134 1.99993E+01-4.13711E-04 2.47273E-06 1.41175E-03 2.66667E-13 3.17943E-14
 -1      3135 1.99998E+01-4.43770E-04-4.71110E-06 1.52548E-03 1.81463E-13 2.49206E-13
 -1      3136 1.99993E+01-4.19708E-04-1.22821E-06 1.32831E-03 2.65575E-13-9.21884E-14
 -1      3137 1.99994E+01-4.15976E-04 2.38757E-06 1.24002E-03 2.02796E-13-1.97704E-13
 -1      3138 1.99997E+01-4.91959E-04-3.21600E-06 1.38550E-03 1.45145E-13-7.81089E-15
 -1      3139 1.99994E+01-4.07491E-04-2.04096E-06 1.15071E-03 5.40850E-14-1.28391E-13
 -1      3140 1.99994E+01-3.92479E-04 2.17064E-06 1.06162E-03-1.47314E-13 1.45083E-13
 -1      3141 1.99997E+01-4.90660E-04-2.11393E-06 1.21722E-03 1.76877E-13-1.22238E-14
 -1      3142 1.99994E+01-3.76542E-04-2.37687E-06 9.74129E-04-2.04235E-13 2.18685E-13
 -1      3143 1.99995E+01-3.56654E-04 1.88003E-06 8.89621E-04-2.03211E-14 3.72403E-13
 -1      3144 1.99997E+01-4.61042E-04-1.32349E-06 1.04220E-03 4.21094E-14 2.39742E-13
 -1      3145 1.99995E+01-3.38420E-04-2.39179E-06 8.08113E-04 1.01917E-13 4.58584E-13
 -1      3146 1.99996E+01-3.18347E-04 1.47685E-06 7.30732E-04 1.79424E-14 3.72520E-13
 -1      3147 1.99997E+01-4.18486E-04-7.64628E-07 8.73254E-04 8.02359E-14 4.76640E-13
 -1      3148 1.99996E+01-3.01749E-04-2.35299E-06 6.56528E-04-9.33793E-14 2.67605E-13
 -1      3149 1.99996E+01-2.85064E-04 4.87216E-07 5.87039E-04-2.33941E-13 7.52153E-14
 -1      3150 1.99997E+01-3.74159E-04-2.07655E-07 7.17113E-04-1.77858E-13 1.37669E-13
 -1      3151 1.99996E+01-2.85636E-04-2.54801E-06 5.38434E-04-2.06659E-13 8.05751E-15
 -1      3152 1.99997E+01-2.73827E-04-4.65817E-07 4.74681E-04-8.03665E-14 1.43797E-14
 -1      3153 1.99998E+01-3.39136E-04 2.75770E-06 4.91139E-04-2.76491E-14 7.83278E-15
 -1      3154 1.99997E+01-3.46799E-04 1.85317E-06 5.90656E-04-3.45405E-13 1.52200E-14
 -1      3155 2.09024E+01 1.62525E+00 8.59764E-03 6.94568E-01 2.42961E-13 3.51740E-14
 -1      3156 2.10166E+01 1.48588E+00-4.99086E-03 1.03568E+00 2.55026E-13 3.89602E-14
 -1      3157 2.11940E+01 1.31485E+00 1.00938E-02 1.35329E+00 2.45810E-13 7.29144E-14
 -1      3158 2.13458E+01 1.13158E+00-7.34238E-03 1.60656E+00 2.14426E-13 7.48233E-14
 -1      3159 2.19159E+01 1.23365E+00 2.66182E-03 1.82757E+00 2.15206E-13 9.91457E-14
 -1      3160 2.16092E+01 1.66350E+00 8.56623E-05 1.33384E+00 2.66674E-13 7.42440E-14
 -1      3161 2.11198E+01 2.10742E-01-1.47377E-02-1.57060E+00 3.77104E-14-5.30554E-14
 -1      3162 2.10477E+01 5.43343E-01 8.56160E-03-1.50554E+00 8.23703E-14-2.25903E-14
 -1      3163 2.09345E+01 8.53924E-01-1.35553E-02-1.36290E+00 1.05832E-13-5.80916E-14
 -1      3164 2.08720E+01 1.15437E+00 1.02161E-02-1.15641E+00 1.37607E-13-7.35813E-14
 -1      3165 2.15037E+01 8.22751E-01-7.68377E-04-1.51728E+00 7.99603E-14-1.72833E-14
 -1      3166 2.12198E+01-6.83307E-01-6.27295E-03-1.10209E+00-2.94563E-14 8.07928E-15
 -1      3167 2.12362E+01-5.74147E-01-3.82422E-03-1.28213E+00-4.74356E-14-3.19623E-15
 -1      3168 2.10699E+01-7.36288E-01 2.93382E-03-7.48651E-01 9.89047E-14-5.69882E-14
 -1      3169 2.10982E+01-7.15727E-01-4.46730E-03-9.01189E-01 5.66583E-14-6.07966E-16
 -1      3170 2.14838E+01-8.09224E-01 2.97310E-03-9.40596E-01 4.11475E-14-4.03454E-14
 -1      3171 2.08795E+01-6.82108E-01 4.89545E-03-4.45401E-01 4.34725E-14-7.30911E-14
 -1      3172 2.09285E+01-7.24738E-01-5.14811E-03-5.82831E-01 8.05675E-14-6.41635E-14
 -1      3173 2.12323E+01-8.60079E-01-6.35229E-04-5.86282E-01 1.04984E-13-6.04781E-14
 -1      3174 2.06789E+01-5.54500E-01 5.21147E-03-2.08297E-01-1.17000E-13-3.28571E-14
 -1      3175 2.07352E+01-6.26543E-01-4.45044E-03-3.16681E-01-3.20135E-14-7.34916E-14
 -1      3176 2.09540E+01-7.65654E-01-2.86521E-03-2.94384E-01-4.51166E-14-5.43603E-15
 -1      3177 2.04979E+01-4.05820E-01 4.60079E-03-4.28660E-02-2.07139E-13 1.08740E-14
 -1      3178 2.05520E+01-4.82900E-01-3.27654E-03-1.19746E-01-1.83362E-13-2.86914E-14
 -1      3179 2.06957E+01-6.03367E-01-3.71117E-03-8.42218E-02-1.53364E-13 5.03162E-15
 -1      3180 2.03504E+01-2.68210E-01 3.60821E-03 6.03685E-02-8.22495E-14 2.74524E-14
 -1      3181 2.03969E+01-3.36415E-01-2.13303E-03 1.12595E-02-1.24441E-13-1.96779E-14
 -1      3182 2.04818E+01-4.29157E-01-3.60173E-03 5.02126E-02-1.43331E-13-8.10762E-14
 -1      3183 2.02385E+01-1.56647E-01 2.58901E-03 1.15994E-01-1.71884E-13 1.03391E-13
 -1      3184 2.02758E+01-2.10226E-01-1.22927E-03 8.85978E-02-1.55421E-13 5.51722E-14
 -1      3185 2.03186E+01-2.74820E-01-3.02202E-03 1.25117E-01-1.78798E-13-9.60312E-14
 -1      3186 2.01582E+01-7.47018E-02 1.71393E-03 1.38380E-01-9.45431E-14 1.60181E-13
 -1      3187 2.01867E+01-1.13013E-01-5.91485E-04 1.26496E-01-9.26585E-14 1.85166E-13
 -1      3188 2.02019E+01-1.53471E-01-2.30888E-03 1.57928E-01-1.52869E-13 4.91367E-14
 -1      3189 2.01030E+01-1.96744E-02 1.04090E-03 1.39468E-01-6.74234E-14 2.07022E-13
 -1      3190 2.01241E+01-4.47007E-02-1.77159E-04 1.37771E-01-9.33840E-14 1.69547E-13
 -1      3191 2.01229E+01-6.65849E-02-1.64558E-03 1.63489E-01-1.38636E-13 1.98026E-13
 -1      3192 2.00663E+01 1.37660E-02 5.63864E-04 1.28245E-01-9.44229E-15 1.20067E-13
 -1      3193 2.00817E+01-9.15375E-04 7.16580E-05 1.32609E-01 1.67347E-14 1.66318E-13
 -1      3194 2.00720E+01-9.71035E-03-1.10830E-03 1.53032E-01-1.67754E-14 1.72559E-13
 -1      3195 2.00427E+01 3.13922E-02 2.49515E-04 1.10992E-01-3.62784E-14-3.88433E-14
 -1      3196 2.00537E+01 2.41083E-02 2.06329E-04 1.18457E-01 1.17214E-14 5.96981E-14
 -1      3197 2.00407E+01 2.37670E-02-7.10644E-04 1.34409E-01 6.55333E-14 4.80989E-14
 -1      3198 2.00277E+01 3.83163E-02 5.78271E-05 9.18120E-02 1.30701E-13-1.52194E-13
 -1      3199 2.00357E+01 3.59216E-02 2.66333E-04 1.00397E-01-1.71575E-14-1.30748E-13
 -1      3200 2.00224E+01 4.04818E-02-4.35711E-04 1.12754E-01 8.12330E-14-1.71637E-13
 -1      3201 2.00183E+01 3.85796E-02-4.78801E-05 7.31851E-02 1.96290E-13-4.93962E-14
 -1      3202 2.00241E+01 3.91433E-02 2.79839E-04 8.16631E-02 1.49084E-13-9.18637E-14
 -1      3203 2.00123E+01 4.60865E-02-2.56254E-04 9.12026E-02 6.28510E-14-1.50188E-13
 -1      3204 2.00124E+01 3.51266E-02-9.71381E-05 5.64541E-02 2.65490E-14 7.18649E-14
 -1      3205 2.00167E+01 3.72720E-02 2.66135E-04 6.41412E-02 1.42917E-13 1.05177E-13
 -1      3206 2.00070E+01 4.49401E-02-1.45198E-04 7.14938E-02 8.83667E-14 6.88773E-14
 -1      3207 2.00087E+01 2.99571E-02-1.11828E-04 4.22061E-02 1.17503E-13-4.72541E-14
 -1      3208 2.00118E+01 3.27682E-02 2.38055E-04 4.87872E-02 6.20542E-14-2.10649E-14
 -1      3209 2.00044E+01 4.01590E-02-8.00565E-05 5.44441E-02 8.51798E-14 1.00417E-13
 -1      3210 2.00062E+01 2.43351E-02-1.07147E-04 3.05561E-02 1.17429E-13-1.73489E-13
 -1      3211 2.00086E+01 2.72461E-02 2.03893E-04 3.59511E-02 1.75689E-13-1.24821E-14
 -1      3212 2.00033E+01 3.38242E-02-4.39983E-05 4.02888E-02 1.56117E-13 4.17616E-14
 -1      3213 2.00046E+01 1.89924E-02-9.30372E-05 2.13475E-02-5.06146E-15-1.91558E-13
 -1      3214 2.00063E+01 2.16862E-02 1.68804E-04 2.56142E-02 5.71018E-14-1.42941E-13
 -1      3215 2.00028E+01 2.72270E-02-2.53114E-05 2.89212E-02 1.39715E-13 4.83967E-14
 -1      3216 2.00034E+01 1.42987E-02-7.56151E-05 1.42861E-02-2.05856E-13-3.85536E-13
 -1      3217 2.00047E+01 1.66243E-02 1.35796E-04 1.75541E-02-9.55367E-14-3.08806E-13
 -1      3218 2.00025E+01 2.10967E-02-1.63564E-05 2.00537E-02 2.37191E-14 7.29037E-14
 -1      3219 2.00025E+01 1.03924E-02-5.83608E-05 9.02718E-03-1.75839E-13-3.38694E-13
 -1      3220 2.00035E+01 1.23028E-02 1.06451E-04 1.14542E-02-2.15571E-13-4.30303E-13
 -1      3221 2.00023E+01 1.57852E-02-1.24368E-05 1.33216E-02-1.67227E-13-2.78658E-13
 -1      3222 2.00018E+01 7.27427E-03-4.30286E-05 5.22680E-03 4.31222E-14-6.92536E-14
 -1      3223 2.00025E+01 8.78311E-03 8.14083E-05 6.97280E-03-2.95504E-14-1.70819E-13
 -1      3224 2.00021E+01 1.14066E-02-1.08289E-05 8.34705E-03-2.17024E-13-2.35232E-13
 -1      3225 2.00013E+01 4.87184E-03-3.03080E-05 2.57075E-03 1.51644E-13-1.17679E-13
 -1      3226 2.00018E+01 6.02339E-03 6.07223E-05 3.78289E-03 7.75244E-14-1.35385E-13
 -1      3227 2.00019E+01 7.93649E-03-1.00789E-05 4.77528E-03 7.61353E-14-1.12882E-13
 -1      3228 2.00009E+01 3.08011E-03-2.02763E-05 7.87533E-04-1.58782E-14-7.69824E-15
 -1      3229 2.00012E+01 3.93108E-03 4.41027E-05 1.59344E-03 9.91557E-14-5.33187E-14
 -1      3230 2.00016E+01 5.27821E-03-9.49127E-06 2.29321E-03 6.72058E-14-1.34614E-13
 -1      3231 2.00006E+01 1.78658E-03-1.26932E-05-3.47982E-04 1.32337E-13 6.84187E-14
 -1      3232 2.00008E+01 2.39502E-03 3.10815E-05 1.57596E-04 4.80912E-14 2.01894E-14
 -1      3233 2.00013E+01 3.30571E-03-8.79490E-06 6.36180E-04 9.37374E-15-1.17707E-13
 -1      3234 2.00003E+01 8.85155E-04-7.18267E-06-1.01641E-03 6.52049E-14-1.50799E-13
 -1      3235 2.00005E+01 1.30447E-03 2.11214E-05-7.26271E-04 9.56871E-14-5.82329E-14
 -1      3236 2.00011E+01 1.88867E-03-7.93589E-06-4.12108E-04 1.10865E-13-6.03276E-14
 -1      3237 2.00001E+01 2.82764E-04-3.33849E-06-1.35861E-03 4.12822E-14-3.38366E-14
 -1      3238 2.00002E+01 5.59070E-04 1.36844E-05-1.21786E-03-2.93210E-14-3.83451E-14
 -1      3239 2.00008E+01 9.06336E-04-6.95561E-06-1.02347E-03 6.05431E-15-2.11419E-13
 -1      3240 2.00000E+01-9.82549E-05-7.81334E-07-1.48155E-03 2.40452E-13-6.69819E-14
 -1      3241 2.00000E+01 7.30771E-05 8.27207E-06-1.44019E-03 2.75299E-13 3.07554E-14
 -1      3242 2.00006E+01 2.53997E-04-5.92454E-06-1.33093E-03 1.18809E-13-7.67592E-14
 -1      3243 1.99999E+01-3.20384E-04 8.15573E-07-1.46436E-03-9.12189E-14-8.19852E-14
 -1      3244 1.99999E+01-2.23697E-04 4.44557E-06-1.48560E-03 1.52860E-13-5.12786E-14
 -1      3245 2.00004E+01-1.55111E-04-4.91023E-06-1.43502E-03 1.50298E-13-6.02286E-14
 -1      3246 1.99998E+01-4.32445E-04 1.71922E-06-1.36396E-03 8.07874E-14-8.72338E-14
 -1      3247 1.99998E+01-3.86881E-04 1.83406E-06-1.42150E-03-1.55524E-13-9.42637E-14
 -1      3248 2.00003E+01-3.90437E-04-3.96467E-06-1.40978E-03-1.16224E-13-5.92312E-14
 -1      3249 1.99998E+01-4.71678E-04 2.14043E-06-1.21992E-03-3.62983E-14 2.24974E-13
 -1      3250 1.99998E+01-4.59411E-04 1.34287E-07-1.29565E-03 5.68921E-14 9.92017E-14
 -1      3251 2.00001E+01-5.06046E-04-3.12068E-06-1.30829E-03-8.05656E-14-8.80640E-14
 -1      3252 1.99998E+01-4.65950E-04 2.23289E-06-1.05865E-03 2.39379E-13 2.32232E-13
 -1      3253 1.99997E+01-4.73702E-04-8.97605E-07-1.14065E-03 1.92152E-13 3.03887E-13
 -1      3254 2.00000E+01-5.43044E-04-2.39380E-06-1.16734E-03-2.97273E-14 6.69187E-14
 -1      3255 1.99997E+01-4.35824E-04 2.12595E-06-8.96660E-04-1.17524E-13 1.13663E-13
 -1      3256 1.99997E+01-4.53862E-04-1.45337E-06-9.77651E-04 9.81666E-14 1.27596E-13
 -1      3257 2.00000E+01-5.32173E-04-1.80186E-06-1.01142E-03 2.37040E-13 1.63600E-13
 -1      3258 1.99997E+01-3.96219E-04 1.91563E-06-7.43269E-04 1.50375E-13-1.16793E-13
 -1      3259 1.99997E+01-4.17469E-04-1.67255E-06-8.19308E-04 8.38585E-14-1.27498E-14
 -1      3260 1.99999E+01-4.95844E-04-1.28989E-06-8.55630E-04 8.75134E-14-3.64367E-15
 -1      3261 1.99997E+01-3.58055E-04 1.55792E-06-6.03370E-04 1.15475E-13-4.37454E-13
 -1      3262 1.99997E+01-3.77116E-04-1.51232E-06-6.72211E-04 7.89533E-14-3.16972E-13
 -1      3263 1.99999E+01-4.50355E-04-8.95119E-07-7.08863E-04 2.54332E-13-2.94594E-13
 -1      3264 1.99998E+01-3.35236E-04 3.29835E-08-4.92129E-04 2.65230E-13-7.31731E-13
 -1      3265 1.99997E+01-3.45220E-04-1.65140E-06-5.53020E-04 1.28810E-13-6.45050E-13
 -1      3266 1.99998E+01-4.13190E-04-1.20167E-06-5.89612E-04 2.56677E-13-4.92514E-13
 -1      3267 1.99998E+01-3.80275E-04-3.44613E-07-4.93017E-04 3.37547E-13-7.83345E-13
 -1      3268 2.00002E+01-6.59626E-04 1.63023E-06-1.29777E-04 3.50162E-13 3.42738E-13
 -1      3269 2.00001E+01-6.43635E-04 1.20222E-07-2.04501E-04 3.01989E-13 3.61140E-13
 -1      3270 2.00002E+01-6.92891E-04-1.93105E-06-9.38406E-05 4.62758E-13 3.42665E-13
 -1      3271 1.99999E+01-4.97182E-04-7.72778E-07 4.44349E-04 1.97319E-13 1.96124E-13
 -1      3272 2.00000E+01-5.40757E-04 2.38703E-06 4.04417E-04-1.47055E-14 4.20279E-13
 -1      3273 1.99998E+01-3.95355E-04-7.65762E-07 4.85213E-04 1.06123E-13-3.80914E-15
 -1      3274 1.99999E+01-4.47618E-04 2.49148E-06 4.72066E-04 1.69167E-13-1.67408E-13
 -1      3275 1.99999E+01-4.98209E-04-1.77768E-06 5.01526E-04-5.84563E-14 6.01980E-14
 -1      3276 1.99998E+01-4.00602E-04-2.65639E-06 5.35639E-04-1.61788E-13-6.42066E-14
 -1      3277 2.10113E+01 7.77045E-01-1.39390E-02 1.97033E+00 2.55164E-13 8.60157E-14
 -1      3278 2.16047E+01 9.72799E-01 3.63126E-03 2.07649E+00 2.12914E-13 2.63619E-14
 -1      3279 1.57066E+01 6.11129E-01 1.15539E-01-6.20935E+00-4.98504E-13-4.24341E-13
 -1      3280 1.28811E+01 1.32773E+00 4.58798E-02-6.39572E+00-4.87985E-13-5.34628E-13
 -1      3281 2.77551E+01 2.99055E+00-1.79671E-01-1.86105E+00 2.96603E-13-5.17059E-13
 -1      3282 2.82185E+01 1.18798E+00 5.27331E-02-1.63308E+00 5.41442E-14-5.55833E-13
 -1      3283 2.62451E+01-4.52120E+00-5.86390E-02 2.86286E+00-2.08056E-13-3.10418E-13
 -1      3284 2.45344E+01-4.70652E+00 1.11437E-01 4.23503E+00-2.09912E-13-2.43493E-13
 -1      3285 1.79000E+01-4.21418E-01 2.90248E-02-6.14005E+00-4.92946E-13-3.64802E-13
 -1      3286 2.12526E+01-3.71510E-01-1.03138E-02-1.45994E+00-4.52795E-14-6.22332E-15
 -1      3287 2.12038E+01-9.62321E-02 5.97083E-03-1.53622E+00 1.07421E-14-2.30684E-14
 -1      3288 2.16537E+01 5.27618E-02 2.29210E-03-1.62036E+00 2.33128E-14 4.20649E-14
 -1      3289 2.16909E+01-5.63764E-01 7.50051E-03-1.37797E+00-3.52186E-14-3.77866E-15
 -1      3290 2.00001E+01-5.86597E-04-5.77877E-07 3.43991E-04-5.82624E-14 4.37552E-13
 -1      3291 2.00001E+01-6.16754E-04 2.20589E-06 2.82408E-04-7.51175E-14 4.96051E-13
 -1      3292 2.00002E+01-6.58200E-04-1.75412E-06 2.66132E-04 4.26312E-14 3.21966E-13
 -1      3293 2.00001E+01-5.88129E-04-1.44951E-06 4.11510E-04 3.38393E-15 4.07552E-13
 -1      3294 9.08783E+00 1.51966E+00 1.11445E-01 7.07801E-03-7.03430E-15 3.26308E-13
 -1      3295 9.72600E+00 1.20196E+00 1.09359E-01-1.94803E+00 1.86660E-13 1.27454E-13
 -1      3296 2.19595E+01-4.62421E+00-2.25168E-02 5.53548E+00-2.94141E-13-1.48756E-13
 -1      3297 1.90556E+01-3.68053E+00 1.12430E-01 6.31720E+00-3.77171E-13 8.48280E-14
 -1      3298 2.77848E+01 1.10029E+00-4.66784E-02 1.52822E+00 1.39555E-13 2.04600E-13
 -1      3299 2.76181E+01 2.27611E+00-1.39259E-01 2.01143E+00 2.42584E-13 1.71238E-13
 -1      3300 1.09220E+01 9.05294E-01 1.71328E-01-3.14346E+00 2.47122E-13 1.84658E-13
 -1      3301 1.34654E+01-2.43273E-01 9.68642E-02-4.54771E+00 2.92884E-13 9.93094E-14
 -1      3302 1.47420E+01 4.50354E-01 8.63279E-02-4.27061E+00 3.08448E-13 1.50574E-14
 -1      3303 1.17786E+01 1.44817E+00 1.24723E-01-2.33727E+00 1.89982E-13 1.28286E-13
 -1      3304 2.26895E+01-1.42514E+00-2.40153E-02-3.69622E+00-3.62529E-13-1.37165E-13
 -1      3305 2.07338E+01-9.92277E-01 2.98611E-02-4.83104E+00-4.41733E-13-2.24806E-13
 -1      3306 2.73286E+01-2.28618E+00-5.59831E-01 2.10675E-01 8.37663E-14-6.87839E-13
 -1      3307 2.77415E+01-4.56058E+00-3.74354E-01 1.41977E+00-1.00142E-13-5.27994E-13
 -1      3308 2.75992E+01 3.99667E+00-4.94959E-02 2.18647E+00 3.78836E-13 1.55140E-13
 -1      3309 2.72048E+01 5.29993E+00-1.55716E-01 1.84287E+00 4.86999E-13 4.82635E-14
 -1      3310 1.63366E+01-2.74850E+00-9.89871E-03 6.55800E+00-4.87714E-13 4.31585E-13
 -1      3311 1.38110E+01-1.23031E+00 4.75611E-02 5.89897E+00-5.19806E-13 6.13037E-13
 -1      3312 1.94115E+01-1.99623E+00-3.05061E-02-6.59570E+00-4.23689E-13-2.86198E-13
 -1      3313 2.27991E+01 1.00854E+00 1.36819E-02 2.04130E+00 1.53576E-13 3.24997E-14
 -1      3314 2.28733E+01 9.85718E-01-2.51827E-02 1.95015E+00 1.23703E-13-2.64667E-14
 -1      3315 2.32759E+01 8.65675E-01-3.34093E-04 1.71257E+00 6.72152E-14-5.16954E-14
 -1      3316 1.52421E+01 1.34278E+00 6.11563E-02-3.61424E+00 2.92277E-13 2.65898E-14
 -1      3317 1.01960E+01 3.00760E+00 1.34551E-01 1.00947E+00-1.15755E-13-6.70103E-13
 -1      3318 2.07738E+01 1.39893E+00-7.58080E-03-8.47912E-01 1.81715E-13-6.66717E-14
 -1      3319 2.07559E+01 1.58547E+00 8.92872E-03-5.22458E-01 2.08998E-13-4.90776E-14
 -1      3320 2.13283E+01 1.51015E+00-4.86584E-03-1.06571E+00 1.41649E-13-5.26196E-14
 -1      3321 2.18118E+01 9.42995E-01 1.46367E-02 2.02148E+00 2.01272E-13 5.95647E-14
 -1      3322 2.21916E+01 1.03872E+00 5.57231E-03 2.05167E+00 1.80284E-13 7.08174E-14
 -1      3323 2.61343E+01 5.85297E+00-8.72247E-02-2.91579E-01 5.16656E-13-1.48360E-13
 -1      3324 1.16778E+01 1.68513E+00 5.10454E-02 1.93073E+00-1.05194E-14 4.78811E-13
 -1      3325 1.02501E+01 1.70118E+00 1.37680E-01 1.13477E+00 6.97532E-15 4.66072E-13
 -1      3326 1.13058E+01 2.02006E+00 4.31232E-02-4.77695E-02 1.06162E-13 2.19172E-13
 -1      3327 2.00000E+01-5.36769E-04 2.89791E-06-4.03719E-04 4.64453E-13 1.02616E-14
 -1      3328 1.99999E+01-4.96311E-04-1.88876E-06-4.44242E-04 5.10310E-13-1.55800E-13
 -1      3329 2.75602E+01 2.88501E-01-7.60376E-02 1.07554E+00 9.11493E-14 2.07858E-13
 -1      3330 2.67359E+01 9.13393E-01-1.06165E-02 1.66875E+00 8.64725E-14 1.93109E-13
 -1      3331 2.71361E+01-2.92481E-01 1.54381E-02 5.62150E-01-3.36536E-15 1.90008E-13
 -1      3332 2.39586E+01 3.86793E-01 7.19604E-03 9.83518E-01-3.50561E-14-3.68442E-14
 -1      3333 2.46245E+01 1.70827E-01 2.43965E-02 1.01194E+00-2.92093E-14 1.43958E-14
 -1      3334 2.36324E+01 6.10502E-01-3.56084E-02 1.43394E+00 3.41545E-14-4.90226E-14
 -1      3335 2.24349E+01-2.32524E+00 1.57483E-01-4.74381E+00 3.50456E-13-2.09679E-13
 -1      3336 1.39688E+01 1.81367E+00 5.19743E-02-2.71053E+00 1.96738E-13 8.85195E-14
 -1      3337 2.00001E+01-6.13809E-04 2.22563E-06-2.83463E-04 2.60136E-13 2.69890E-13
 -1      3338 2.00001E+01-5.83948E-04-8.09364E-07-3.44357E-04 3.77247E-13 1.78593E-13
 -1      3339 2.00001E+01-5.83571E-04-1.78329E-06-4.11491E-04 4.37062E-13-1.22666E-15
 -1      3340 2.00002E+01-6.55204E-04-1.92433E-06-2.67831E-04 4.06305E-13 3.80159E-13
 -1      3341 2.07460E+01 1.68326E+00 1.30820E-03-1.01719E-01 2.36757E-13-2.58228E-14
 -1      3342 2.07950E+01 1.69475E+00 1.83833E-03 2.73646E-01 2.36725E-13 3.78435E-15
 -1      3343 2.13376E+01 1.96997E+00-7.13975E-03 5.69420E-01 2.64684E-13 3.11978E-14
 -1      3344 2.12379E+01 1.93541E+00-8.78746E-03-3.10701E-01 2.24091E-13-2.85191E-14
 -1      3345 1.99999E+01-4.20635E-04 1.84797E-06-4.78390E-04 3.82358E-13-4.30326E-13
 -1      3346 2.61515E+01 4.46160E+00-6.47410E-02-1.64610E+00 3.97148E-13-3.31048E-13
 -1      3347 2.71645E+01 3.87720E+00-7.12048E-02-1.89179E+00 3.66894E-13-4.32477E-13
 -1      3348 2.64451E+01 2.59002E+00-4.34944E-02-1.87120E+00 2.54654E-13-3.39352E-13
 -1      3349 2.66503E+01-4.54710E+00-2.71360E-01 1.47357E+00 5.95080E-14-3.01287E-13
 -1      3350 2.60636E+01-1.82674E+00-6.96032E-04-2.02535E+00-2.29053E-13 4.35069E-14
 -1      3351 1.99999E+01-4.67438E-04 5.12796E-07-5.10665E-04 4.39743E-13-2.17947E-13
 -1      3352 2.72502E+01-2.19833E-01-3.83181E-02-8.60893E-01 2.23155E-14-4.80796E-13
 -1      3353 2.31076E+01-4.20888E+00 5.07285E-02 4.36586E+00-2.60455E-13-1.46435E-13
 -1      3354 1.77634E+01-2.36029E+00 9.42386E-02-5.47900E+00 3.15567E-13-6.14508E-14
 -1      3355 1.85102E+01-2.78189E+00 5.23667E-02 5.70672E+00-4.14141E-13 2.23987E-13
 -1      3356 1.31954E+01-1.15479E-01 1.20106E-01 5.00117E+00-3.78905E-13 5.79259E-13
 -1      3357 1.28392E+01 8.03494E-01 4.22642E-02 3.73435E+00-1.81986E-13 5.63612E-13
 -1      3358 1.52762E+01-5.33944E-01 5.21962E-02 4.96064E+00-3.74310E-13 4.62852E-13
 -1      3359 2.67615E+01 2.91021E+00-4.39589E-02 2.15639E+00 2.50369E-13 1.70280E-13
 -1      3360 2.60588E+01 5.18464E+00-7.01642E-02 1.45279E+00 4.31773E-13 3.28106E-14
 -1      3361 2.35479E+01-9.04679E-01 3.67050E-02-2.26396E+00-3.03355E-13-9.30350E-14
 -1      3362 2.47495E+01-1.60939E+00 4.52634E-02-2.28851E+00-2.76466E-13-8.78464E-15
 -1      3363 2.62413E+01-1.37061E+00-1.00269E-01-7.54346E-01-1.41677E-13 7.60191E-14
 -1      3364 2.40839E+01-8.24567E-01-5.68158E-02-1.18144E+00-2.17017E-13-4.71201E-14
 -1      3365 2.51461E+01-6.74502E-01 4.39484E-02-2.63471E-01-1.46029E-13 4.25059E-14
 -1      3366 1.67156E+01 1.99256E+00-1.79168E-02-8.92607E-01 6.26652E-14-2.29131E-14
 -1      3367 1.73314E+01 1.81459E+00-1.96383E-02-8.07906E-01 7.94967E-14 3.09117E-14
 -1      3368 1.79232E+01 1.62689E+00-1.38708E-02-8.22786E-01 4.52164E-14 2.44487E-14
 -1      3369 1.83228E+01 1.43773E+00-1.39530E-02-7.37193E-01 3.36438E-14 1.04626E-15
 -1      3370 1.73723E+01 1.80325E+00 3.39278E-02-3.40515E-01 7.07745E-14 6.74304E-14
 -1      3371 1.87166E+01 1.25840E+00-8.76465E-03-7.23569E-01 1.25724E-14 2.59603E-14
 -1      3372 1.89671E+01 1.09127E+00-9.83329E-03-6.39526E-01 2.89966E-14 1.12067E-14
 -1      3373 1.83057E+01 1.42857E+00 2.18048E-02-4.20577E-01 5.53184E-14 5.80074E-14
 -1      3374 1.92269E+01 9.41297E-01-4.91244E-03-6.09359E-01-4.53603E-14-3.64161E-14
 -1      3375 1.93786E+01 8.06479E-01-6.96244E-03-5.32481E-01-5.71098E-15-7.81062E-14
 -1      3376 1.89245E+01 1.09122E+00 1.44050E-02-4.26228E-01-2.57538E-14 2.22908E-14
 -1      3377 1.95479E+01 6.89600E-01-2.43703E-03-4.95710E-01 1.91041E-13-7.05877E-14
 -1      3378 1.96363E+01 5.86404E-01-4.93528E-03-4.29489E-01 1.88109E-13-5.19819E-14
 -1      3379 1.93289E+01 8.13778E-01 9.45929E-03-3.89907E-01 7.12741E-14-4.07578E-14
 -1      3380 1.97452E+01 4.98995E-01-9.81327E-04-3.92595E-01 1.02430E-13-6.38346E-14
 -1      3381 1.97945E+01 4.22463E-01-3.48355E-03-3.38018E-01 8.21789E-14-1.71898E-14
 -1      3382 1.95890E+01 5.97650E-01 6.11002E-03-3.34920E-01 1.44022E-13-1.82924E-13
 -1      3383 1.98635E+01 3.58675E-01-1.86982E-04-3.04488E-01 1.42654E-14-1.35537E-13
 -1      3384 1.98895E+01 3.02973E-01-2.44224E-03-2.60887E-01-9.37687E-15-1.54846E-13
 -1      3385 1.97537E+01 4.34901E-01 3.87519E-03-2.75680E-01-3.21853E-14-2.81800E-13
 -1      3386 1.99326E+01 2.57058E-01 2.06579E-04-2.32166E-01-2.08582E-14-2.15286E-13
 -1      3387 1.99450E+01 2.16929E-01-1.70144E-03-1.98092E-01-3.78201E-14-2.08515E-13
 -1      3388 1.98563E+01 3.14887E-01 2.41368E-03-2.19976E-01-3.77789E-14-3.68972E-13
 -1      3389 1.99715E+01 1.84094E-01 3.69982E-04-1.74428E-01-7.76128E-14-2.11299E-13
 -1      3390 1.99764E+01 1.55307E-01-1.17997E-03-1.48215E-01-7.91200E-14-2.59370E-13
 -1      3391 1.99192E+01 2.27449E-01 1.47555E-03-1.71312E-01-4.17094E-14-3.95177E-13
 -1      3392 1.99925E+01 1.31863E-01 4.08920E-04-1.29244E-01-1.13188E-13-2.44012E-13
 -1      3393 1.99933E+01 1.11218E-01-8.16170E-04-1.09318E-01-8.13009E-14-3.05116E-13
 -1      3394 1.99570E+01 1.64118E-01 8.83401E-04-1.30708E-01-9.92553E-14-3.24156E-13
 -1      3395 2.00029E+01 9.44495E-02 3.85942E-04-9.44223E-02-8.10338E-15-3.35890E-13
 -1      3396 2.00018E+01 7.96107E-02-5.63840E-04-7.94249E-02-3.70336E-14-3.47234E-13
 -1      3397 1.99793E+01 1.18321E-01 5.15554E-04-9.78801E-02-7.82242E-14-3.57481E-13
 -1      3398 2.00074E+01 6.75750E-02 3.36442E-04-6.79258E-02-1.76630E-14-4.16333E-13
 -1      3399 2.00056E+01 5.68736E-02-3.89268E-04-5.67402E-02-5.30017E-14-3.31570E-13
 -1      3400 1.99919E+01 8.51691E-02 2.90739E-04-7.19586E-02-7.39277E-14-4.10090E-13
 -1      3401 2.00087E+01 4.81997E-02 2.79441E-04-4.79973E-02-1.89906E-13-2.58476E-13
 -1      3402 2.00068E+01 4.04564E-02-2.68483E-04-3.97329E-02-1.05755E-13-2.93796E-13
 -1      3403 1.99989E+01 6.11126E-02 1.55788E-04-5.18789E-02-1.12175E-13-4.83151E-13
 -1      3404 2.00084E+01 3.41835E-02 2.24515E-04-3.31825E-02 9.11409E-15-2.82114E-13
 -1      3405 2.00066E+01 2.85676E-02-1.84821E-04-2.71404E-02 5.18642E-14-3.79867E-13
 -1      3406 2.00024E+01 4.36121E-02 7.63736E-05-3.65860E-02-4.29024E-14-4.10864E-13
 -1      3407 2.00074E+01 2.40228E-02 1.76365E-04-2.23072E-02 6.64223E-14-5.38656E-13
 -1      3408 2.00059E+01 1.99605E-02-1.20337E-04-1.79500E-02-9.85322E-14-4.90418E-13
 -1      3409 2.00039E+01 3.08575E-02 2.97030E-05-2.51265E-02-4.63910E-14-5.09150E-13
 -1      3410 2.00062E+01 1.68250E-02 1.36580E-04-1.46079E-02-3.64437E-14-5.10563E-13
 -1      3411 2.00050E+01 1.39834E-02-8.14009E-05-1.16221E-02 2.51251E-15-3.51994E-13
 -1      3412 2.00044E+01 2.17290E-02-4.21735E-06-1.68450E-02-6.56812E-14-6.46140E-13
 -1      3413 2.00050E+01 1.15515E-02 1.02245E-04-9.07427E-03-2.01758E-13-3.81568E-13
 -1      3414 2.00040E+01 9.39363E-03-5.79832E-05-6.87089E-03-3.88362E-13-2.88358E-13
 -1      3415 2.00042E+01 1.51053E-02-6.19215E-06-1.08294E-02-6.34308E-14-6.93249E-13
 -1      3416 2.00039E+01 7.65792E-03 7.60001E-05-5.10300E-03-2.55374E-13-1.21745E-13
 -1      3417 2.00031E+01 6.11463E-03-3.80858E-05-3.60025E-03-6.59466E-14-9.18571E-14
 -1      3418 2.00038E+01 1.01415E-02-1.16691E-05-6.42054E-03-1.96530E-13-4.25924E-13
 -1      3419 2.00029E+01 4.88184E-03 5.50189E-05-2.40545E-03-1.15270E-13-2.93095E-14
 -1      3420 2.00024E+01 3.79342E-03-2.39941E-05-1.41403E-03-1.82009E-13-1.87480E-14
 -1      3421 2.00033E+01 6.58238E-03-1.36628E-05-3.37063E-03-1.13794E-13-1.15937E-13
 -1      3422 2.00021E+01 2.93058E-03 3.89325E-05-6.37481E-04-4.18246E-14-1.43323E-14
 -1      3423 2.00017E+01 2.17669E-03-1.42794E-05-1.29203E-05 1.46083E-14 9.59205E-14
 -1      3424 2.00027E+01 4.06190E-03-1.35297E-05-1.32638E-03-6.91312E-14 5.79787E-14
 -1      3425 2.00015E+01 1.58530E-03 2.68140E-05 4.64015E-04 1.16292E-14 2.49210E-13
 -1      3426 2.00013E+01 1.07608E-03-7.66916E-06 8.30271E-04 2.18268E-13 2.26478E-13
 -1      3427 2.00022E+01 2.30789E-03-1.23469E-05-1.38614E-05 7.69195E-14 2.28635E-13
 -1      3428 2.00011E+01 6.82429E-04 1.78468E-05 1.09742E-03 2.29580E-13 1.70453E-13
 -1      3429 2.00009E+01 3.50445E-04-3.27064E-06 1.28615E-03 2.47123E-13 7.96434E-14
 -1      3430 2.00017E+01 1.11624E-03-1.07330E-05 7.76981E-04 1.50784E-13 1.14478E-13
 -1      3431 2.00007E+01 9.92154E-05 1.13350E-05 1.41058E-03 4.18226E-13 1.36750E-13
 -1      3432 2.00006E+01-1.06147E-04-4.42927E-07 1.48116E-03 3.02822E-13 2.50982E-13
 -1      3433 2.00013E+01 3.33304E-04-9.02856E-06 1.20492E-03 3.34601E-13-1.62740E-14
 -1      3434 2.00004E+01-2.56448E-04 6.70651E-06 1.51213E-03 2.11749E-13 2.09371E-13
 -1      3435 2.00003E+01-3.73089E-04 1.27817E-06 1.50749E-03 2.18611E-13 2.98255E-13
 -1      3436 2.00010E+01-1.56591E-04-7.41058E-06 1.38814E-03 2.82507E-13 1.78028E-14
 -1      3437 2.00002E+01-4.53470E-04 3.50053E-06 1.48049E-03 1.88067E-13 2.13637E-13
 -1      3438 2.00002E+01-5.09621E-04 2.22975E-06 1.43109E-03 2.09597E-13 2.78687E-13
 -1      3439 2.00007E+01-4.40293E-04-5.96250E-06 1.41304E-03 2.52288E-13 2.03718E-13
 -1      3440 2.00001E+01-5.43116E-04 1.35339E-06 1.37108E-03 4.14400E-14 1.00598E-13
 -1      3441 2.00001E+01-5.59665E-04 2.65406E-06 1.29794E-03 1.71194E-13 2.55852E-14
 -1      3442 2.00005E+01-5.82667E-04-4.71606E-06 1.34150E-03 5.16406E-15 3.80113E-14
 -1      3443 2.00000E+01-5.63269E-04-1.44436E-08 1.22191E-03 3.19696E-13 1.41082E-14
 -1      3444 2.00000E+01-5.55504E-04 2.74028E-06 1.13903E-03 1.46450E-13 5.35311E-14
 -1      3445 2.00003E+01-6.31848E-04-3.67673E-06 1.21671E-03 2.15250E-13 2.80673E-13
 -1      3446 1.99999E+01-5.41600E-04-8.15491E-07 1.05811E-03 4.08455E-14 1.49685E-13
 -1      3447 1.99999E+01-5.20685E-04 2.61283E-06 9.74305E-04 7.97141E-14 2.37699E-13
 -1      3448 2.00002E+01-6.23082E-04-2.80397E-06 1.06772E-03 1.29510E-13 1.21953E-13
 -1      3449 1.99998E+01-4.98377E-04-1.21135E-06 8.95286E-04 9.00262E-14 1.02503E-13
 -1      3450 1.99998E+01-4.72462E-04 2.31709E-06 8.15626E-04 8.25443E-16-8.02919E-14
 -1      3451 2.00001E+01-5.82276E-04-2.12317E-06 9.13299E-04 2.63251E-15-1.00730E-13
 -1      3452 1.99998E+01-4.48034E-04-1.29834E-06 7.42003E-04-1.48709E-13-7.25203E-14
 -1      3453 1.99998E+01-4.24220E-04 1.25892E-06 6.69879E-04-4.02716E-13-1.60285E-13
 -1      3454 2.00000E+01-5.28204E-04-1.57637E-06 7.64599E-04-1.83613E-13-3.68391E-13
 -1      3455 1.99998E+01-4.15260E-04-1.97368E-06 6.27146E-04-4.43783E-13-1.74759E-13
 -1      3456 1.99998E+01-4.07772E-04 1.73382E-08 5.73794E-04-3.51649E-13-1.65148E-13
 -1      3457 1.99999E+01-4.56591E-04 1.96738E-06 5.67346E-04-2.40530E-13-1.81138E-13
 -1      3458 1.99999E+01-4.85791E-04-5.55869E-07 6.49581E-04-4.54297E-13-2.79863E-13
 -1      3459 2.25689E+01 1.14057E+00 6.90924E-03 2.03936E+00 1.93556E-13 4.46273E-14
 -1      3460 2.26832E+01 1.05837E+00-1.17783E-02 2.07303E+00 1.75756E-13 4.17827E-14
 -1      3461 2.31976E+01 1.02301E+00-1.60205E-03 2.03526E+00 1.44598E-13 4.36010E-14
 -1      3462 2.20679E+01 6.86283E-01-2.47564E-02-1.64771E+00 8.39571E-14-3.69240E-14
 -1      3463 2.20121E+01 1.16177E+00 2.43392E-03-1.52340E+00 1.08993E-13-4.44436E-14
 -1      3464 2.49860E+01 5.32826E+00-4.86402E-02-4.43632E-02 4.43638E-13-6.07951E-14
 -1      3465 2.55034E+01 5.11071E+00-8.04880E-02-9.97728E-01 4.37157E-13-1.94482E-13
 -1      3466 2.13838E+01-9.86806E-01 7.63437E-03-3.46115E-01 5.73092E-14 7.22344E-15
 -1      3467 2.15079E+01-1.03481E+00-6.26999E-03-5.05550E-01 7.52254E-14-9.60384E-15
 -1      3468 2.17496E+01-1.03164E+00 4.65625E-03-7.08366E-01 9.12626E-14-4.38191E-14
 -1      3469 2.18475E+01-9.73107E-01-6.08350E-03-8.93511E-01 4.30596E-15-4.83068E-14
 -1      3470 2.18721E+01-1.18970E+00-2.38152E-03-4.51607E-01 5.92361E-14-5.71648E-15
 -1      3471 2.07072E+01-6.04175E-01 6.55082E-03 8.06668E-02-1.42715E-13-5.12220E-14
 -1      3472 2.08188E+01-7.14227E-01-2.75182E-03 3.56612E-03-1.12186E-13-4.26419E-14
 -1      3473 2.04626E+01-4.04240E-01 4.92386E-03 1.68682E-01-1.48882E-13-1.50529E-13
 -1      3474 2.05524E+01-5.03064E-01-1.20815E-03 1.24562E-01-1.15127E-13-1.08813E-13
 -1      3475 2.06431E+01-6.11265E-01-6.32219E-03 2.14043E-01-1.13545E-13-1.58519E-13
 -1      3476 2.02853E+01-2.40251E-01 3.39504E-03 2.03911E-01-2.27365E-13-7.88508E-14
 -1      3477 2.03524E+01-3.18598E-01-2.26224E-04 1.83480E-01-1.99903E-13-1.36772E-13
 -1      3478 2.03942E+01-3.92827E-01-5.10643E-03 2.57984E-01-1.72413E-13-1.25800E-13
 -1      3479 2.01647E+01-1.18555E-01 2.15558E-03 2.06242E-01-2.39878E-13 1.72550E-14
 -1      3480 2.02120E+01-1.75091E-01 2.98635E-04 2.01345E-01-2.70369E-13-6.24572E-14
 -1      3481 2.02228E+01-2.20806E-01-3.78193E-03 2.59062E-01-2.46836E-13-1.02503E-13
 -1      3482 2.00875E+01-3.58219E-02 1.24595E-03 1.90185E-01-1.43379E-13 1.16047E-13
 -1      3483 2.01191E+01-7.31993E-02 5.20795E-04 1.94574E-01-1.56557E-13 1.07424E-13
 -1      3484 2.01123E+01-9.73560E-02-2.61519E-03 2.37036E-01-2.62397E-13-5.57741E-14
 -1      3485 2.00410E+01 1.53559E-02 6.26238E-04 1.65444E-01 7.52088E-14 8.45722E-15
 -1      3486 2.00612E+01-6.98350E-03 5.70650E-04 1.74720E-01-4.76118E-14 1.01764E-13
 -1      3487 2.00458E+01-1.61503E-02-1.69988E-03 2.04808E-01-7.60790E-14-4.68249E-15
 -1      3488 2.00150E+01 4.31737E-02 2.32345E-04 1.38056E-01 7.23441E-14-4.23237E-14
 -1      3489 2.00275E+01 3.16923E-02 5.35394E-04 1.49320E-01 9.32983E-14-2.28850E-14
 -1      3490 2.00090E+01 3.21185E-02-1.03735E-03 1.70089E-01 9.14236E-14-4.03260E-14
 -1      3491 2.00020E+01 5.49716E-02 9.87954E-07 1.11506E-01 5.79502E-14-1.28007E-13
 -1      3492 2.00094E+01 5.07620E-02 4.66328E-04 1.22968E-01 4.41057E-14-1.03142E-13
 -1      3493 1.99913E+01 5.67190E-02-5.87774E-04 1.37076E-01 9.81407E-14-1.72359E-13
 -1      3494 1.99966E+01 5.66126E-02-1.20410E-04 8.76016E-02 3.64964E-14-5.41876E-14
 -1      3495 2.00008E+01 5.68896E-02 3.90090E-04 9.82467E-02 5.23038E-14-1.23300E-13
 -1      3496 1.99848E+01 6.55244E-02-3.00455E-04 1.07771E-01 4.36260E-14-1.31301E-13
 -1      3497 1.99954E+01 5.24194E-02-1.71661E-04 6.71032E-02 5.77738E-14-6.71807E-14
 -1      3498 1.99977E+01 5.51745E-02 3.18760E-04 7.64302E-02 2.38220E-14-7.34141E-14
 -1      3499 1.99845E+01 6.46124E-02-1.28226E-04 8.28859E-02 1.49381E-14-1.60827E-13
 -1      3500 1.99960E+01 4.53718E-02-1.81061E-04 5.01473E-02 6.70549E-14 5.77653E-14
 -1      3501 1.99973E+01 4.92485E-02 2.56692E-04 5.79824E-02 1.14793E-13 4.69931E-14
 -1      3502 1.99870E+01 5.83510E-02-3.28639E-05 6.24168E-02 1.99256E-15-8.76558E-14
 -1      3503 1.99974E+01 3.73904E-02-1.67708E-04 3.65238E-02 1.73147E-13 6.05537E-14
 -1      3504 1.99982E+01 4.15337E-02 2.04575E-04 4.28892E-02 1.33329E-13 7.78693E-14
 -1      3505 1.99904E+01 4.96838E-02 1.40556E-05 4.59996E-02 1.23694E-13 1.33816E-14
 -1      3506 1.99989E+01 2.96186E-02-1.43841E-04 2.58515E-02 2.46111E-14 1.81194E-13
 -1      3507 1.99993E+01 3.35343E-02 1.61614E-04 3.08768E-02 6.99602E-14 1.17114E-13
 -1      3508 1.99938E+01 4.04646E-02 3.23199E-05 3.31138E-02 7.78665E-14 6.08326E-14
 -1      3509 2.00001E+01 2.26628E-02-1.16859E-04 1.76863E-02 4.95042E-14 2.34989E-13
 -1      3510 2.00004E+01 2.61014E-02 1.26538E-04 2.15506E-02 9.82838E-14 3.02550E-13
 -1      3511 1.99967E+01 3.17647E-02 3.50570E-05 2.32000E-02 1.75546E-14 2.36536E-13
 -1      3512 2.00009E+01 1.67790E-02-9.09270E-05 1.15832E-02-1.25704E-13 3.49029E-14
 -1      3513 2.00012E+01 1.96482E-02 9.80915E-05 1.44798E-02 7.07900E-14 2.09747E-13
 -1      3514 1.99989E+01 2.41243E-02 3.03278E-05 1.57214E-02 1.21260E-13 4.48672E-13
 -1      3515 2.00015E+01 1.20093E-02-6.81002E-05 7.13183E-03-2.58716E-13-4.20252E-14
 -1      3516 2.00017E+01 1.43102E-02 7.51684E-05 9.24625E-03-3.25059E-13-1.54175E-13
 -1      3517 2.00004E+01 1.77435E-02 2.29142E-05 1.01943E-02-1.20985E-13 1.84592E-13
 -1      3518 2.00017E+01 8.27612E-03-4.91371E-05 3.97238E-03 2.08148E-13-1.28439E-13
 -1      3519 2.00019E+01 1.00603E-02 5.68257E-05 5.47141E-03 1.00268E-13-6.47307E-14
 -1      3520 2.00013E+01 1.26186E-02 1.53624E-05 6.20013E-03-3.79693E-14-1.08944E-13
 -1      3521 2.00017E+01 5.44471E-03-3.40576E-05 1.80095E-03 2.99921E-14-2.15935E-14
 -1      3522 2.00020E+01 6.78625E-03 4.22795E-05 2.82778E-03 4.51666E-14-1.00193E-13
 -1      3523 2.00019E+01 8.63656E-03 8.86860E-06 3.38780E-03 2.30828E-14 2.56828E-14
 -1      3524 2.00016E+01 3.36156E-03-2.24973E-05 3.68347E-04 4.03886E-14-6.76919E-14
 -1      3525 2.00018E+01 4.34003E-03 3.08684E-05 1.04162E-03 7.80723E-14-1.26846E-13
 -1      3526 2.00020E+01 5.63471E-03 3.84344E-06 1.46934E-03 6.22495E-14 5.49515E-14
 -1      3527 2.00015E+01 1.87683E-03-1.39282E-05-5.24756E-04 1.99350E-13-1.48942E-13
 -1      3528 2.00016E+01 2.56765E-03 2.20298E-05-1.09526E-04 1.93672E-13-1.38299E-13
 -1      3529 2.00020E+01 3.43833E-03 2.78228E-07 2.13539E-04 8.09519E-14-2.67680E-13
 -1      3530 2.00013E+01 8.55952E-04-7.78749E-06-1.03418E-03-6.02747E-14-9.66685E-14
 -1      3531 2.00014E+01 1.32565E-03 1.52831E-05-8.02048E-04 8.24411E-14-1.03126E-13
 -1      3532 2.00019E+01 1.88148E-03-2.03007E-06-5.61751E-04 9.18063E-14-1.62289E-13
 -1      3533 2.00010E+01 1.84447E-04-3.54803E-06-1.27915E-03 1.99462E-13-1.78274E-13
 -1      3534 2.00011E+01 4.88910E-04 1.02190E-05-1.17269E-03 1.80054E-15-2.04088E-13
 -1      3535 2.00016E+01 8.17472E-04-3.34916E-06-9.97365E-04 6.10445E-14-1.72507E-13
 -1      3536 2.00008E+01-2.31333E-04-7.51590E-07-1.34885E-03 2.49120E-14-1.99806E-14
 -1      3537 2.00009E+01-4.68302E-05 6.49095E-06-1.32511E-03 1.22357E-13-4.10992E-14
 -1      3538 2.00014E+01 1.22813E-04-3.94290E-06-1.20017E-03 9.93929E-14-3.76718E-14
 -1      3539 2.00006E+01-4.65662E-04 9.80870E-07-1.30848E-03-1.45747E-13-5.46530E-14
 -1      3540 2.00007E+01-3.65484E-04 3.80785E-06-1.33615E-03-7.45578E-14-6.79222E-16
 -1      3541 2.00011E+01-3.02800E-04-4.04075E-06-1.24963E-03-4.38380E-15 8.87421E-14
 -1      3542 2.00004E+01-5.75974E-04 1.95183E-06-1.20442E-03-1.00325E-13 6.44731E-15
 -1      3543 2.00005E+01-5.32743E-04 1.93204E-06-1.26131E-03-1.08237E-13-1.90840E-13
 -1      3544 2.00008E+01-5.38507E-04-3.82690E-06-1.20353E-03-7.72051E-15-1.91166E-13
 -1      3545 2.00003E+01-6.05705E-04 2.40405E-06-1.06854E-03 4.30664E-14-1.19470E-13
 -1      3546 2.00003E+01-5.98852E-04 6.72597E-07-1.13949E-03-8.70004E-14-9.03509E-14
 -1      3547 2.00006E+01-6.45286E-04-3.43623E-06-1.10279E-03-9.22379E-14-1.42645E-13
 -1      3548 2.00001E+01-5.87097E-04 2.54342E-06-9.21892E-04 1.70158E-13-1.95138E-15
 -1      3549 2.00002E+01-6.01420E-04-1.38221E-07-9.97022E-04 1.22754E-13-1.10702E-13
 -1      3550 2.00004E+01-6.68977E-04-2.93510E-06-9.75406E-04-1.57699E-14-2.22930E-13
 -1      3551 2.00000E+01-5.44138E-04 2.33442E-06-7.77111E-04 2.08654E-13-2.78488E-13
 -1      3552 2.00001E+01-5.68845E-04-7.93783E-07-8.50906E-04 1.91381E-13-7.63108E-14
 -1      3553 2.00003E+01-6.43474E-04-2.33911E-06-8.39965E-04 1.93361E-13-2.82614E-13
 -1      3554 2.00000E+01-4.94394E-04 1.94008E-06-6.40795E-04 2.27522E-13-3.01247E-13
 -1      3555 2.00000E+01-5.20640E-04-1.23497E-06-7.10362E-04 2.46200E-13-2.45360E-13
 -1      3556 2.00001E+01-5.93817E-04-9.96331E-07-7.08239E-04 2.53826E-13-4.86994E-13
 -1      3557 1.99999E+01-4.83668E-04-1.09447E-07-5.57445E-04 3.78668E-13-2.14729E-13
 -1      3558 2.00003E+01-7.24342E-04 1.12389E-06-5.64733E-05 2.41539E-13 2.46842E-13
 -1      3559 2.00003E+01-7.14479E-04 9.11624E-07-1.49400E-04 3.69006E-13 2.88941E-13
 -1      3560 2.67958E+01-3.71075E+00-1.76695E-01 2.07511E-01 1.59761E-13-9.04415E-14
 -1      3561 2.54483E+01-3.77931E+00-5.39235E-03 1.85236E+00-9.50490E-14-1.44329E-13
 -1      3562 2.10204E+01-8.15800E-01 7.74712E-03-8.39173E-02-8.04273E-14 2.47810E-14
 -1      3563 2.11465E+01-9.14674E-01-4.66677E-03-2.01903E-01 1.32961E-14 5.11490E-14
 -1      3564 2.14023E+01-1.07912E+00-5.80706E-03-1.14668E-01 1.85918E-14 1.23216E-13
 -1      3565 2.09808E+01-8.56487E-01-6.86635E-03 1.00131E-01-7.78796E-14 1.00234E-16
 -1      3566 1.48815E+01 2.20875E+00-2.33307E-02-9.45565E-01 1.47093E-13-4.97276E-14
 -1      3567 1.58212E+01 2.13493E+00-2.62169E-02-8.43205E-01 5.59565E-14-1.66577E-14
 -1      3568 1.59790E+01 2.15627E+00 5.84663E-02-1.48062E-01 6.27564E-14 7.92680E-14
 -1      3569 2.00003E+01-7.17728E-04 3.34471E-07 1.45823E-04 8.48500E-14 8.35134E-15
 -1      3570 2.00003E+01-7.25323E-04 1.23334E-06 5.20143E-05 1.80987E-13 1.19616E-13
 -1      3571 2.00004E+01-7.59254E-04-1.90332E-06-2.90261E-06 2.92173E-13 2.43432E-13
 -1      3572 2.13130E+01-1.85702E+00 3.74214E-02-5.33632E+00-3.98709E-13-1.99512E-13
 -1      3573 2.64674E+01 5.42253E-01-1.51066E-01-1.65071E+00 1.42206E-13-2.80958E-13
 -1      3574 2.63116E+01-5.24446E-01 4.17015E-02-3.91694E-01 1.31339E-13-2.60653E-13
 -1      3575 1.99284E+01-3.11974E+00-5.22804E-02 5.13768E+00-3.28034E-13 4.52763E-14
 -1      3576 1.78189E+01-1.96088E+00-4.81331E-03 5.30855E+00-4.64451E-13 2.42660E-13
 -1      3577 2.54912E+01 4.42112E+00-2.20563E-02 1.83978E+00 3.76851E-13 9.68548E-14
 -1      3578 2.49982E+01 5.05804E+00-6.49467E-02 1.09756E+00 4.37039E-13 3.38670E-14
 -1      3579 2.56792E+01-2.03079E-01-5.27523E-02 8.19374E-01-1.98149E-14 1.13085E-13
 -1      3580 2.59839E+01-6.46972E-01-2.33000E-02 1.31234E-01-9.54384E-14 1.04722E-13
 -1      3581 2.37425E+01-4.08351E+00-8.26771E-02 3.38012E+00-1.61173E-13-1.43435E-13
 -1      3582 2.19251E+01-3.53218E+00 6.94072E-02 4.45725E+00-2.91742E-13-7.35488E-14
 -1      3583 2.60076E+01 2.16632E+00-1.57685E-02 2.15809E+00 1.85671E-13 1.49759E-13
 -1      3584 2.57024E+01 3.34362E+00-8.94521E-02 2.17459E+00 2.68046E-13 9.53708E-14
 -1      3585 2.00001E+01-5.50350E-04 8.47620E-07-5.55958E-04 2.25512E-13-2.50804E-13
 -1      3586 2.00001E+01-6.03518E-04-4.48315E-08-4.86977E-04 2.40801E-13 7.73421E-14
 -1      3587 2.00002E+01-6.20607E-04-1.86203E-06-5.76670E-04 1.15733E-13-2.08431E-14
 -1      3588 2.00002E+01-6.44593E-04 1.96552E-06-4.23964E-04 3.33788E-13 1.61659E-13
 -1      3589 2.18820E+01 1.60935E+00-2.17384E-02-1.29757E+00 1.33279E-13-5.05420E-14
 -1      3590 2.18330E+01 2.00791E+00 8.18927E-03-9.89112E-01 1.74369E-13-4.57087E-14
 -1      3591 2.25257E+01 1.57790E+00-6.67347E-03-1.49438E+00 1.35674E-13-4.24496E-14
 -1      3592 2.48694E+01 3.41820E+00-3.25492E-02 1.92850E+00 2.79221E-13 7.96533E-14
 -1      3593 1.28256E+01 1.44720E+00 1.09052E-01 2.77585E+00-1.27642E-13 5.15990E-13
 -1      3594 1.29888E+01 1.75388E+00-6.24401E-03 1.75238E+00-4.74620E-14 3.83010E-13
 -1      3595 1.41791E+01 9.21164E-01 1.38917E-02 3.28886E+00-1.81425E-13 4.80879E-13
 -1      3596 2.59501E+01 9.41398E-01-2.55641E-02 1.73483E+00 8.84969E-14 1.21850E-13
 -1      3597 2.60366E+01 1.49752E+00-6.09271E-02 2.04052E+00 1.48841E-13 1.25538E-13
 -1      3598 2.52645E+01 2.12780E+00 5.02031E-04 2.21392E+00 1.58621E-13 9.03904E-14
 -1      3599 2.37550E+01 7.68327E-01 1.75308E-02 1.76571E+00 7.28436E-14 1.45153E-15
 -1      3600 2.00003E+01-7.01421E-04 1.56036E-06-2.49668E-04 4.11089E-13 4.47595E-13
 -1      3601 2.00003E+01-6.74839E-04 6.51194E-07-3.31948E-04 3.56295E-13 3.22339E-13
 -1      3602 2.00003E+01-7.03978E-04-1.78200E-06-4.11086E-04 2.81998E-13 3.38597E-13
 -1      3603 2.00004E+01-7.45411E-04-1.97669E-06-2.14846E-04 3.48692E-13 2.85153E-13
 -1      3604 2.00002E+01-6.73494E-04-5.47278E-07 3.31761E-04 5.15606E-14 3.21265E-13
 -1      3605 2.00003E+01-6.96993E-04 1.78740E-06 2.48252E-04 4.86506E-14 1.34457E-13
 -1      3606 2.00004E+01-7.40746E-04-1.64482E-06 2.13300E-04-4.31066E-14 1.06068E-13
 -1      3607 2.44621E+01 4.83626E+00-5.95073E-02 5.11636E-01 3.99170E-13 3.26883E-14
 -1      3608 2.39241E+01 4.39311E+00-1.71531E-02-1.39262E-01 3.50161E-13 5.06904E-14
 -1      3609 2.39815E+01 4.26362E+00 1.61294E-03 9.08825E-01 3.68577E-13 8.65375E-14
 -1      3610 2.20570E+01 2.10048E+00 9.69550E-03 1.32314E+00 2.88195E-13 7.27988E-14
 -1      3611 2.21919E+01 1.79467E+00-1.33105E-02 1.62687E+00 2.68356E-13 8.04558E-14
 -1      3612 2.21325E+01 2.27974E-01 4.22801E-03-1.67450E+00 4.46795E-14-6.76577E-14
 -1      3613 2.26629E+01 5.04424E-01-1.15403E-03-1.71401E+00 8.01702E-14-1.15683E-13
 -1      3614 2.21597E+01-2.57607E-01-2.22918E-02-1.63654E+00-9.48634E-15-6.39645E-14
 -1      3615 2.23554E+01 1.57297E+00 6.77732E-03 1.82071E+00 2.34836E-13 6.29807E-14
 -1      3616 2.24726E+01 1.31033E+00-8.45863E-03 1.97943E+00 1.91529E-13 4.73516E-14
 -1      3617 2.30446E+01 1.39493E+00-6.72288E-04 2.05748E+00 1.81207E-13 3.94515E-14
 -1      3618 2.28124E+01 1.95859E+00 2.91821E-03 1.83476E+00 2.53119E-13 8.32815E-14
 -1      3619 2.51094E+01 4.04058E+00-4.78173E-02-1.29870E+00 3.39541E-13-1.57894E-13
 -1      3620 2.64435E+01-1.59309E+00 1.20167E-01-7.85996E-01 3.87912E-13-1.96121E-13
 -1      3621 2.58506E+01-2.25241E+00 5.87956E-02-5.40354E-01 1.74583E-13-9.42302E-14
 -1      3622 2.53813E+01 1.10664E-01 1.50940E-01-1.23884E+00 3.86247E-13-6.55587E-14
 -1      3623 2.43136E+01-3.34739E+00 8.33820E-03 2.20094E+00-1.39111E-13-6.45855E-14
 -1      3624 2.53853E+01 2.20866E+00-3.76223E-02-1.89465E+00 2.43401E-13-2.36942E-13
 -1      3625 2.61609E+01 1.46524E+00-1.17628E-02-1.93711E+00 1.46447E-13-3.19869E-13
 -1      3626 2.54678E+01 5.28749E-01-6.04585E-02-1.52230E+00 1.50713E-13-1.56528E-13
 -1      3627 1.30850E+01 2.20595E+00 1.06454E-01-1.54653E+00 1.57386E-13-1.22610E-14
 -1      3628 1.35591E+01 2.21177E+00 2.59355E-02-6.80897E-01 1.36315E-13 1.20338E-13
 -1      3629 2.00000E+01-5.09550E-04 3.98789E-07 5.35873E-04-2.02538E-13-1.07260E-13
 -1      3630 2.00000E+01-5.52295E-04 1.80727E-06 5.06518E-04-1.97799E-13 2.68546E-13
 -1      3631 2.00000E+01-5.22419E-04 1.71699E-08 5.75482E-04-3.12216E-13-2.30622E-13
 -1      3632 1.37631E+01 2.30976E+00 1.05478E-01 3.90695E-01 6.25450E-14 1.45522E-13
 -1      3633 2.20741E+01-9.05903E-01-1.12540E-02-1.16623E+00-1.61700E-14-8.53380E-14
 -1      3634 2.21657E+01-6.76354E-01-1.40119E-03-1.41108E+00 4.16507E-15-5.46134E-14
 -1      3635 2.27064E+01-5.27468E-01 2.49413E-02-1.53244E+00-7.08461E-15-1.18100E-13
 -1      3636 2.23136E+01-1.06387E+00 2.83784E-03-8.95501E-01 1.26350E-14-4.58455E-14
 -1      3637 2.49357E+01 1.73270E-01-1.46545E-02 1.14847E+00 3.64292E-16 1.97039E-14
 -1      3638 2.57033E+01 5.39507E-01 6.76897E-03 1.60857E+00 4.57421E-14 1.08372E-13
 -1      3639 2.50627E+01 1.15251E+00-8.00127E-03 1.99158E+00 1.07654E-13 9.33221E-14
 -1      3640 2.44635E+01 5.59820E-01-3.77694E-02 1.66198E+00 5.45046E-14 3.06803E-14
 -1      3641 2.11494E+01-2.88149E+00 1.82796E-02 4.21558E+00-2.54977E-13 1.36662E-14
 -1      3642 2.18000E+01 2.47017E+00 3.76928E-03 4.39617E-01 3.00738E-13 1.84410E-14
 -1      3643 2.18781E+01 2.34174E+00-1.06855E-02 8.71767E-01 3.04512E-13 6.60951E-14
 -1      3644 2.25002E+01 2.59824E+00 4.31059E-03 1.22812E+00 3.20766E-13 1.07198E-13
 -1      3645 1.68565E+01-1.02122E+00 5.66549E-02 4.98682E+00-3.92119E-13 2.76543E-13
 -1      3646 1.58894E+01-1.44784E-01 3.81433E-03 4.20449E+00-2.81429E-13 2.81060E-13
 -1      3647 1.83910E+01-1.32266E+00 4.19886E-02 4.46494E+00-3.71251E-13 5.05915E-14
 -1      3648 2.00001E+01-5.98335E-04-1.61677E-07 4.60346E-04-4.80954E-14 3.82821E-13
 -1      3649 2.00002E+01-6.36272E-04 2.28664E-06 3.96533E-04-2.24070E-14 4.36229E-13
 -1      3650 2.00003E+01-6.88125E-04-8.11558E-07 3.84691E-04-6.64563E-14 2.52795E-13
 -1      3651 2.00002E+01-6.14449E-04-3.20545E-07 4.96045E-04-1.33144E-13 2.63578E-13
 -1      3652 2.17420E+01 2.30411E+00-7.06362E-03-5.39605E-01 2.05528E-13-1.28795E-14
 -1      3653 2.17455E+01 2.46362E+00 2.41872E-03-9.96890E-02 2.52208E-13-1.00719E-14
 -1      3654 2.22796E+01 2.83843E+00-1.39663E-02 2.16309E-01 2.93041E-13 4.95653E-14
 -1      3655 2.23238E+01 2.48836E+00-8.21425E-03-8.19332E-01 2.10658E-13-4.65209E-15
 -1      3656 2.34605E+01 1.16557E+00 6.41172E-03 2.09193E+00 1.45757E-13 5.96281E-14
 -1      3657 2.34915E+01 9.83558E-01-1.88078E-02 2.01489E+00 1.27088E-13 2.16664E-14
 -1      3658 2.40337E+01 7.96304E-01-4.01509E-03 1.81187E+00 7.57389E-14 2.58820E-14
 -1      3659 2.33871E+01 1.40321E+00-2.44874E-03 2.05949E+00 1.58315E-13 5.80341E-14
 -1      3660 1.79525E+01 1.39149E+00-1.83733E-02-6.40835E-02 8.49769E-14 7.47899E-14
 -1      3661 1.83569E+01 1.24621E+00-5.68081E-03-1.13033E-01 1.69242E-14 8.05522E-14
 -1      3662 1.86566E+01 1.09994E+00-1.18431E-02-1.96887E-01-1.99885E-14 4.77012E-14
 -1      3663 1.89220E+01 9.68399E-01-4.49346E-03-2.06908E-01-3.47260E-14 2.44112E-14
 -1      3664 1.84815E+01 1.14987E+00 1.51742E-02 1.18295E-01 1.21828E-14 3.28101E-15
 -1      3665 1.91303E+01 8.44143E-01-7.31492E-03-2.45892E-01-9.61817E-15 3.32816E-14
 -1      3666 1.93016E+01 7.34811E-01-3.54347E-03-2.34583E-01 1.32811E-13 4.18171E-15
 -1      3667 1.89794E+01 9.09185E-01 1.06236E-02-4.28444E-02 5.05000E-15 9.88677E-14
 -1      3668 1.94448E+01 6.35536E-01-4.34755E-03-2.46874E-01 4.97884E-14-1.18476E-13
 -1      3669 1.95535E+01 5.49115E-01-2.77227E-03-2.25849E-01-5.06459E-14-2.29242E-13
 -1      3670 1.93223E+01 7.01156E-01 7.35576E-03-1.19046E-01-4.03202E-14-2.69194E-14
 -1      3671 1.96509E+01 4.72708E-01-2.46960E-03-2.23501E-01-1.11470E-13-2.66700E-13
 -1      3672 1.97186E+01 4.06478E-01-2.13526E-03-1.99681E-01-1.07086E-13-3.70464E-13
 -1      3673 1.95553E+01 5.31870E-01 5.00844E-03-1.45054E-01-1.33090E-13-2.23075E-13
 -1      3674 1.97841E+01 3.49003E-01-1.31528E-03-1.90246E-01 2.54808E-15-3.01099E-13
 -1      3675 1.98255E+01 2.99194E-01-1.61768E-03-1.67344E-01 1.34099E-14-3.17026E-13
 -1      3676 1.97117E+01 3.99118E-01 3.35723E-03-1.43504E-01-6.99272E-15-2.21629E-13
 -1      3677 1.98692E+01 2.56538E-01-6.28984E-04-1.55288E-01-2.78926E-14-3.06735E-13
 -1      3678 1.98940E+01 2.19482E-01-1.20854E-03-1.35026E-01-9.32483E-14-2.81318E-13
 -1      3679 1.98157E+01 2.97388E-01 2.21990E-03-1.28447E-01-5.41346E-14-2.88524E-13
 -1      3680 1.99228E+01 1.88042E-01-2.37583E-04-1.22818E-01-1.84411E-13-3.22108E-13
 -1      3681 1.99374E+01 1.60622E-01-8.93248E-04-1.05770E-01-1.36475E-13-3.71147E-13
 -1      3682 1.98841E+01 2.20509E-01 1.45034E-03-1.08173E-01-1.46856E-13-2.93862E-13
 -1      3683 1.99563E+01 1.37511E-01-2.69432E-05-9.46485E-02-4.75706E-14-3.25129E-13
 -1      3684 1.99645E+01 1.17260E-01-6.54942E-04-8.07890E-02-4.63284E-14-2.97446E-13
 -1      3685 1.99287E+01 1.62865E-01 9.37178E-04-8.72760E-02-1.05509E-13-3.22780E-13
 -1      3686 1.99768E+01 1.00272E-01 7.62279E-05-7.12653E-02-1.39641E-13-2.47534E-13
 -1      3687 1.99812E+01 8.53157E-02-4.77191E-04-6.02818E-02-9.82733E-14-2.85214E-13
 -1      3688 1.99575E+01 1.19812E-01 5.99053E-04-6.80856E-02-3.42432E-14-1.96698E-13
 -1      3689 1.99891E+01 7.28136E-02 1.17825E-04-5.24635E-02-1.01086E-13-3.77421E-13
 -1      3690 1.99913E+01 6.17619E-02-3.45700E-04-4.39386E-02-1.89311E-13-3.45944E-13
 -1      3691 1.99759E+01 8.77107E-02 3.78432E-04-5.15914E-02-1.54010E-13-1.92144E-13
 -1      3692 1.99964E+01 5.25511E-02 1.25942E-04-3.77226E-02-2.02038E-13-4.62385E-13
 -1      3693 1.99973E+01 4.43824E-02-2.49372E-04-3.12265E-02-9.39410E-14-3.87856E-13
 -1      3694 1.99875E+01 6.37952E-02 2.35491E-04-3.80329E-02-2.58204E-13-2.98280E-13
 -1      3695 2.00004E+01 3.76003E-02 1.19059E-04-2.64154E-02-7.32006E-14-4.91481E-13
 -1      3696 2.00006E+01 3.15802E-02-1.72489E-04-2.15579E-02-1.12856E-13-5.21216E-13
 -1      3697 1.99947E+01 4.59918E-02 1.41468E-04-2.72568E-02-1.59585E-13-3.54381E-13
 -1      3698 2.00025E+01 2.68231E-02 1.03442E-04-1.80986E-02-1.00389E-13-4.96492E-13
 -1      3699 2.00023E+01 2.25530E-02-1.22286E-04-1.46590E-02 5.27412E-15-4.69614E-13
 -1      3700 1.99989E+01 3.30285E-02 7.63926E-05-1.90962E-02-1.74776E-13-3.30059E-13
 -1      3701 2.00034E+01 1.88224E-02 8.42523E-05-1.19243E-02-7.42147E-15-4.59753E-13
 -1      3702 2.00031E+01 1.55229E-02-8.90683E-05-9.30525E-03-1.54444E-13-4.65625E-13
 -1      3703 2.00013E+01 2.34252E-02 4.89920E-05-1.29208E-02-2.05070E-14-3.61406E-13
 -1      3704 2.00037E+01 1.28130E-02 6.66707E-05-7.34051E-03-9.03309E-14-3.86319E-13
 -1      3705 2.00033E+01 1.04178E-02-6.11511E-05-5.49188E-03 8.97527E-14-1.89535E-13
 -1      3706 2.00026E+01 1.61266E-02 2.65221E-05-8.22967E-03 5.73808E-14-2.65318E-13
 -1      3707 2.00035E+01 8.46212E-03 5.14266E-05-4.11460E-03-7.47227E-15-1.56214E-13
 -1      3708 2.00032E+01 6.74310E-03-4.08406E-05-2.84571E-03-8.99208E-14-1.21235E-13
 -1      3709 2.00032E+01 1.08032E-02 1.19983E-05-4.86553E-03 9.10934E-14-1.64733E-13
 -1      3710 2.00032E+01 5.35013E-03 3.86391E-05-1.91179E-03-4.40225E-14-3.85352E-15
 -1      3711 2.00029E+01 4.13553E-03-2.63113E-05-1.07080E-03 9.71647E-14 4.48607E-14
 -1      3712 2.00033E+01 6.96677E-03 3.23296E-06-2.52184E-03 1.23879E-14 1.41672E-14
 -1      3713 2.00028E+01 3.16089E-03 2.83122E-05-4.64267E-04 1.00425E-13 5.14726E-14
 -1      3714 2.00025E+01 2.32042E-03-1.60446E-05 6.68121E-05 1.53582E-13 1.27356E-13
 -1      3715 2.00031E+01 4.24449E-03-1.81979E-06-9.45847E-04 1.03700E-13-8.34333E-14
 -1      3716 2.00023E+01 1.65460E-03 2.02094E-05 4.37209E-04 1.13542E-13 1.05268E-13
 -1      3717 2.00021E+01 1.08915E-03-8.92217E-06 7.48726E-04 9.53074E-14-3.94332E-15
 -1      3718 2.00028E+01 2.35180E-03-4.51556E-06 6.56988E-05 2.01705E-13-6.99383E-14
 -1      3719 2.00019E+01 6.48957E-04 1.40054E-05 9.53281E-04 1.70104E-13 6.14694E-14
 -1      3720 2.00017E+01 2.83163E-04-4.10372E-06 1.11334E-03 2.43598E-13-2.25197E-14
 -1      3721 2.00024E+01 1.07111E-03-5.73516E-06 6.72290E-04 1.69874E-13 5.56085E-14
 -1      3722 2.00015E+01 5.49430E-06 9.36143E-06 1.20511E-03 3.67189E-13 5.95206E-14
 -1      3723 2.00013E+01-2.17750E-04-9.57643E-07 1.26420E-03 3.05026E-13 1.70487E-13
 -1      3724 2.00020E+01 2.36277E-04-6.04954E-06 9.96376E-04 3.50116E-13 7.98148E-14
 -1      3725 2.00012E+01-3.80558E-04 5.96210E-06 1.28239E-03 1.87299E-13 2.09055E-13
 -1      3726 2.00010E+01-5.04272E-04 9.88959E-07 1.27720E-03 1.63404E-13 1.21419E-13
 -1      3727 2.00016E+01-2.79047E-04-5.83027E-06 1.12998E-03 2.28622E-13 1.37860E-13
 -1      3728 2.00009E+01-5.87983E-04 3.53011E-06 1.25012E-03 7.02064E-14 2.10621E-13
 -1      3729 2.00008E+01-6.44305E-04 2.09326E-06 1.20674E-03 5.09602E-15 3.50563E-13
 -1      3730 2.00013E+01-5.70345E-04-5.32201E-06 1.14076E-03 4.25588E-14 9.44401E-14
 -1      3731 2.00006E+01-6.75538E-04 1.83730E-06 1.15434E-03 4.35261E-15 4.59580E-13
 -1      3732 2.00005E+01-6.88353E-04 2.60279E-06 1.09081E-03 2.15056E-13 3.31718E-13
 -1      3733 2.00010E+01-7.09138E-04-4.67983E-06 1.07727E-03 1.29138E-13 4.92455E-13
 -1      3734 2.00004E+01-6.86785E-04 7.17822E-07 1.02647E-03 1.22429E-13 1.09063E-13
 -1      3735 2.00004E+01-6.73344E-04 2.79880E-06 9.54672E-04 1.16493E-13 1.88384E-14
 -1      3736 2.00007E+01-7.48785E-04-4.01632E-06 9.73454E-04 4.21564E-14 3.29869E-13
 -1      3737 2.00002E+01-6.53162E-04 4.00293E-08 8.87324E-04 3.03567E-14-1.04786E-13
 -1      3738 2.00002E+01-6.26565E-04 2.61525E-06 8.14951E-04-1.60209E-13-1.98441E-13
 -1      3739 2.00005E+01-7.27960E-04-3.30138E-06 8.51437E-04-7.01769E-16-1.40529E-13
 -1      3740 2.00001E+01-5.97627E-04-1.91214E-07 7.49347E-04-1.21583E-13-2.53412E-13
 -1      3741 2.00001E+01-5.67713E-04 2.07220E-06 6.81213E-04-2.64970E-13-2.42156E-13
 -1      3742 2.00003E+01-6.76240E-04-2.94727E-06 7.26876E-04-1.77947E-13-1.41538E-13
 -1      3743 1.54093E+01 1.88949E+00-3.45462E-02 6.67819E-01-3.83374E-16 1.67999E-13
 -1      3744 1.63118E+01 1.80424E+00-9.40044E-03 4.59909E-01 5.07736E-14 1.74939E-13
 -1      3745 2.03190E+01-3.20221E-01 3.95520E-03 3.54684E-01-2.10057E-13-2.67353E-14
 -1      3746 2.04222E+01-4.25978E-01 1.29047E-03 3.53451E-01-1.27292E-13-2.46697E-14
 -1      3747 2.05686E+01-5.43436E-01 6.19630E-03 3.67075E-01-9.90105E-14-4.32311E-14
 -1      3748 2.07113E+01-6.78255E-01 1.51338E-04 3.41137E-01-7.27685E-14-1.68243E-14
 -1      3749 2.04400E+01-5.00763E-01-7.57349E-03 4.77097E-01-1.37084E-13 1.03167E-13
 -1      3750 2.00576E+01-4.46909E-02 1.16566E-03 2.64710E-01-2.83452E-13-6.72979E-14
 -1      3751 2.01020E+01-9.43574E-02 1.60266E-03 2.82594E-01-2.79351E-13-9.00710E-14
 -1      3752 2.00028E+01 2.38302E-02 4.60582E-04 2.14897E-01-5.44906E-14-7.75133E-14
 -1      3753 2.00292E+01-5.70763E-03 1.35894E-03 2.34178E-01-1.81442E-13-5.98622E-14
 -1      3754 2.00002E+01-9.68756E-03-2.24003E-03 2.76670E-01-2.50462E-13-1.15900E-13
 -1      3755 1.99765E+01 6.10382E-02 5.02237E-05 1.69952E-01 1.24957E-13-7.88514E-14
 -1      3756 1.99908E+01 4.59193E-02 1.06990E-03 1.88255E-01 7.70492E-14-4.63433E-14
 -1      3757 1.99624E+01 5.09689E-02-1.30217E-03 2.15268E-01 1.27914E-14-7.06621E-14
 -1      3758 1.99672E+01 7.68394E-02-1.65862E-04 1.31652E-01 1.24311E-13-1.09323E-13
 -1      3759 1.99739E+01 7.13423E-02 8.04482E-04 1.47872E-01 1.52648E-13-6.25319E-14
 -1      3760 1.99486E+01 8.11695E-02-6.84668E-04 1.64304E-01 1.72980E-13-5.48158E-14
 -1      3761 1.99674E+01 7.90558E-02-2.60748E-04 1.00183E-01 3.10060E-14-7.53549E-14
 -1      3762 1.99697E+01 7.94976E-02 5.87797E-04 1.13947E-01 9.96769E-14-6.50271E-14
 -1      3763 1.99484E+01 9.12793E-02-3.01108E-04 1.23499E-01 6.95208E-14-7.58650E-14
 -1      3764 1.99721E+01 7.34256E-02-2.84327E-04 7.49727E-02-3.60821E-14-7.67983E-14
 -1      3765 1.99720E+01 7.71636E-02 4.22518E-04 8.63028E-02-5.36478E-14-1.56316E-14
 -1      3766 1.99550E+01 8.91350E-02-7.87848E-05 9.15928E-02-2.27318E-14 9.99010E-14
 -1      3767 1.99783E+01 6.39040E-02-2.69127E-04 5.51627E-02-6.38361E-14 9.06935E-14
 -1      3768 1.99773E+01 6.91537E-02 3.01685E-04 6.42714E-02-3.05348E-14-6.98882E-15
 -1      3769 1.99640E+01 8.02965E-02 3.80573E-05 6.70541E-02-9.76834E-14 4.62350E-14
 -1      3770 1.99845E+01 5.30524E-02-2.35453E-04 3.98440E-02 1.00519E-13 1.77333E-13
 -1      3771 1.99832E+01 5.86836E-02 2.15583E-04 4.70228E-02-7.00206E-15 7.82417E-14
 -1      3772 1.99733E+01 6.84843E-02 8.95482E-05 4.84154E-02-4.76861E-14 1.16098E-13
 -1      3773 1.99899E+01 4.24109E-02-1.95480E-04 2.81711E-02 5.29162E-14 1.50498E-13
 -1      3774 1.99887E+01 4.77640E-02 1.55045E-04 3.37272E-02 1.64741E-13 2.10822E-13
 -1      3775 1.99815E+01 5.60358E-02 1.03140E-04 3.44053E-02 4.08426E-14 2.51244E-13
 -1      3776 1.99942E+01 3.28107E-02-1.55946E-04 1.94059E-02 2.05325E-14 2.45520E-13
 -1      3777 1.99932E+01 3.75460E-02 1.12601E-04 2.36303E-02 3.49056E-14 1.67855E-13
 -1      3778 1.99882E+01 4.43019E-02 9.67170E-05 2.39785E-02 7.24569E-14 1.00785E-13
 -1      3779 1.99974E+01 2.46186E-02-1.20314E-04 1.29261E-02 1.08576E-14 3.56906E-13
 -1      3780 1.99967E+01 2.86033E-02 8.26176E-05 1.60796E-02 4.36560E-15 2.72292E-13
 -1      3781 1.99933E+01 3.39677E-02 8.12876E-05 1.63014E-02-3.89327E-14-6.36319E-14
 -1      3782 1.99996E+01 1.79123E-02-9.00469E-05 8.21854E-03-1.54832E-13 1.47987E-13
 -1      3783 1.99991E+01 2.11390E-02 6.11869E-05 1.05262E-02 1.01316E-13 3.12301E-13
 -1      3784 1.99970E+01 2.52909E-02 6.33782E-05 1.07174E-02 5.42882E-14 2.56376E-13
 -1      3785 2.00010E+01 1.26059E-02-6.53824E-05 4.86799E-03 3.12416E-14 9.19636E-14
 -1      3786 2.00008E+01 1.51357E-02 4.55801E-05 6.51887E-03-1.27787E-13 3.02406E-14
 -1      3787 1.99996E+01 1.82706E-02 4.63703E-05 6.71588E-03-1.33349E-14 2.08357E-13
 -1      3788 2.00018E+01 8.53103E-03-4.59439E-05 2.54212E-03-9.00633E-14 1.43974E-13
 -1      3789 2.00017E+01 1.04576E-02 3.40138E-05 3.69166E-03 1.46246E-14 1.74307E-13
 -1      3790 2.00012E+01 1.27654E-02 3.18392E-05 3.90110E-03-4.67081E-14 2.97429E-13
 -1      3791 2.00022E+01 5.48969E-03-3.10647E-05 9.78331E-04 2.21038E-13 1.31741E-13
 -1      3792 2.00022E+01 6.91603E-03 2.53118E-05 1.75208E-03 1.94870E-14 1.49523E-13
 -1      3793 2.00021E+01 8.56907E-03 2.02738E-05 1.96778E-03 1.31591E-14 1.66001E-13
 -1      3794 2.00023E+01 3.28449E-03-1.99848E-05-2.84170E-05 1.33445E-13-1.32958E-13
 -1      3795 2.00024E+01 4.30998E-03 1.86943E-05 4.69148E-04 2.89074E-13 6.70477E-14
 -1      3796 2.00025E+01 5.45712E-03 1.15729E-05 6.81393E-04 2.24480E-13 6.01014E-14
 -1      3797 2.00021E+01 1.73542E-03-1.19624E-05-6.36201E-04 2.09288E-14-2.14369E-13
 -1      3798 2.00023E+01 2.44891E-03 1.36353E-05-3.37103E-04 1.47893E-13-2.26765E-13
 -1      3799 2.00026E+01 3.21441E-03 5.35894E-06-1.37183E-04 2.03491E-13-1.72487E-13
 -1      3800 2.00019E+01 6.87224E-04-6.32999E-06-9.65220E-04-1.81706E-14-2.76389E-13
 -1      3801 2.00021E+01 1.16433E-03 9.76900E-06-8.05005E-04-2.52557E-14-3.16860E-13
 -1      3802 2.00024E+01 1.64888E-03 1.16074E-06-6.23719E-04 3.80968E-14-6.25072E-13
 -1      3803 2.00016E+01 1.13259E-05-2.51778E-06-1.10546E-03 2.71707E-14-1.09304E-13
 -1      3804 2.00018E+01 3.14056E-04 6.83054E-06-1.03928E-03 6.05695E-15-1.92711E-13
 -1      3805 2.00022E+01 5.97195E-04-1.48657E-06-8.80117E-04-8.91233E-14-4.62170E-13
 -1      3806 2.00013E+01-3.95478E-04-6.00857E-08-1.12311E-03 1.43250E-13-1.19726E-13
 -1      3807 2.00015E+01-2.17758E-04 4.61962E-06-1.11786E-03 3.07253E-14-1.51494E-14
 -1      3808 2.00019E+01-7.46194E-05-2.99424E-06-9.81910E-04 6.70815E-15-1.75354E-13
 -1      3809 2.00011E+01-6.13903E-04 1.41672E-06-1.06580E-03 2.25644E-14-6.39805E-14
 -1      3810 2.00012E+01-5.22846E-04 2.97466E-06-1.09765E-03 1.78744E-13-8.15219E-15
 -1      3811 2.00015E+01-4.73364E-04-3.70612E-06-9.84209E-04 8.21826E-14-3.78414E-14
 -1      3812 2.00008E+01-7.05756E-04 2.19749E-06-9.66989E-04-9.94673E-14-6.17480E-14
 -1      3813 2.00009E+01-6.72138E-04 1.77956E-06-1.01921E-03-1.47908E-13-1.09765E-13
 -1      3814 2.00012E+01-6.82119E-04-3.89012E-06-9.26455E-04-1.97386E-15 2.78739E-14
 -1      3815 2.00006E+01-7.17093E-04 2.60955E-06-8.49114E-04 8.89423E-14-2.35448E-13
 -1      3816 2.00007E+01-7.19454E-04 9.51446E-07-9.10509E-04 3.44156E-14-1.24826E-13
 -1      3817 2.00009E+01-7.64343E-04-3.72713E-06-8.36157E-04-1.29405E-15 9.13417E-14
 -1      3818 2.00004E+01-6.82415E-04 2.44519E-06-7.26994E-04 2.92898E-13-1.27462E-13
 -1      3819 2.00005E+01-7.05022E-04 2.04096E-07-7.90401E-04 2.86518E-13-1.27990E-13
 -1      3820 2.00007E+01-7.66633E-04-3.13352E-06-7.31641E-04 2.28971E-13 2.10938E-13
 -1      3821 2.00002E+01-6.38985E-04 1.34527E-06-6.19630E-04 1.35177E-13-5.80075E-14
 -1      3822 2.00003E+01-6.67956E-04-6.46080E-07-6.80131E-04 1.93835E-13-7.96440E-14
 -1      3823 2.00005E+01-7.33919E-04-1.67026E-06-6.33829E-04 2.56993E-13 4.46911E-13
 -1      3824 2.00004E+01-6.91442E-04 4.14028E-07-5.46556E-04 1.46899E-13 4.54244E-13
 -1      3825 2.18617E+01-2.91754E+00-5.08689E-02 3.51414E+00-2.00541E-13-8.25798E-14
 -1      3826 2.03793E+01-2.23439E+00 5.51052E-03 4.04172E+00-2.72639E-13-3.38340E-14
 -1      3827 2.01563E+01-1.55827E-01 2.28952E-03 3.14613E-01-2.65895E-13-7.23767E-14
 -1      3828 2.02262E+01-2.31468E-01 1.66042E-03 3.26673E-01-2.52374E-13-5.06656E-15
 -1      3829 2.02154E+01-2.73638E-01-5.38350E-03 4.18133E-01-2.60008E-13 4.44042E-14
 -1      3830 2.19716E+01-1.34066E+00 1.21588E-02-9.98257E-02 1.89032E-14-2.41164E-14
 -1      3831 2.21876E+01-1.39897E+00-8.89991E-03-2.87757E-01 2.14632E-14-6.59400E-14
 -1      3832 1.44085E+01 1.92438E+00 1.76469E-02 1.13425E+00-5.47019E-14 2.12230E-13
 -1      3833 2.41840E+01 3.84141E+00-2.33194E-02-1.10140E+00 3.20129E-13-9.94690E-15
 -1      3834 2.48196E+01 3.16786E+00-3.35247E-02-1.69317E+00 2.95703E-13-1.58093E-13
 -1      3835 2.00005E+01-7.91470E-04 2.67717E-07 5.16832E-05 7.47773E-14 8.70331E-14
 -1      3836 2.00005E+01-7.89149E-04 9.79606E-07-5.96493E-05 2.03384E-13 4.92195E-14
 -1      3837 2.45148E+01-2.86897E+00-2.71023E-02 1.38527E+00-1.88146E-13-2.31655E-14
 -1      3838 2.33246E+01-2.95762E+00 5.92502E-02 2.70615E+00-2.15199E-13-1.11147E-13
 -1      3839 1.69190E+01 1.68322E+00-2.57307E-02 2.02798E-01 6.22137E-14 1.02753E-13
 -1      3840 1.75256E+01 1.54601E+00-7.01707E-03 9.06945E-02 9.47161E-14 1.13263E-13
 -1      3841 1.77686E+01 1.40035E+00 2.20311E-02 4.15257E-01 3.64213E-14 1.53643E-13
 -1      3842 2.42866E+01 2.77195E+00-3.87756E-04 2.02964E+00 2.52982E-13 6.54635E-14
 -1      3843 2.39229E+01 3.43321E+00-6.11682E-02 1.65972E+00 3.25901E-13 8.06599E-14
 -1      3844 2.31831E+01 1.40689E+00-4.20022E-02-1.68749E+00 1.59654E-13-4.65288E-14
 -1      3845 2.31075E+01 2.04373E+00-1.19547E-02-1.47219E+00 1.74813E-13-2.44839E-14
 -1      3846 1.54627E+01 5.31175E-01 6.79415E-02 3.64405E+00-2.34878E-13 3.63577E-13
 -1      3847 1.50029E+01 9.82298E-01-2.76883E-02 2.86007E+00-1.50730E-13 3.60918E-13
 -1      3848 1.67264E+01 2.63132E-02 1.70114E-02 3.64695E+00-1.97091E-13 2.09412E-13
 -1      3849 2.26064E+01-1.58481E+00-6.44281E-03-1.69153E-01-4.95957E-15-1.47550E-13
 -1      3850 2.25641E+01-1.37082E+00 8.24517E-03-5.47869E-01 2.89966E-14-7.26275E-14
 -1      3851 2.27382E+01-1.26176E+00-1.10585E-02-7.80449E-01 4.45716E-15-7.64375E-14
 -1      3852 2.00005E+01-7.85602E-04 6.05538E-07-1.78195E-04 2.13661E-13 7.11430E-14
 -1      3853 2.00005E+01-7.73628E-04 6.00284E-07-2.81299E-04 2.76463E-13 2.21868E-13
 -1      3854 2.00006E+01-8.23757E-04-1.68236E-06-1.24647E-04 4.31611E-14-1.26872E-13
 -1      3855 2.34517E+01 3.47892E+00-1.38041E-02 1.14699E+00 3.35523E-13 9.92262E-14
 -1      3856 1.51833E+01 1.68148E+00 6.93932E-02 1.80195E+00-6.15432E-14 3.78638E-13
 -1      3857 2.00000E+01-5.35777E-04-2.02606E-07 6.16101E-04-2.95096E-13-3.02980E-13
 -1      3858 2.31722E+01 2.07181E+00-2.19276E-03 1.88223E+00 2.31212E-13 9.76659E-14
 -1      3859 2.32962E+01 1.73946E+00-1.33038E-02 2.06062E+00 1.82135E-13 9.39596E-14
 -1      3860 2.37588E+01 1.48556E+00 7.36627E-03 2.11555E+00 1.35678E-13 6.09265E-14
 -1      3861 2.52713E+01 9.27297E-02 2.79696E-02-1.37832E+00 2.64483E-13-1.61241E-13
 -1      3862 2.46510E+01-2.73889E-01 4.49896E-02-1.32589E+00 3.54938E-13-2.00423E-13
 -1      3863 2.48299E+01 5.57766E-01-2.06912E-02-1.66340E+00 2.60167E-13-2.06161E-13
 -1      3864 2.00776E+01-1.13418E-01-3.58451E-03 3.46487E-01-2.57784E-13-4.24394E-14
 -1      3865 1.67590E+01 1.61348E+00 3.52035E-02 9.18254E-01 1.84665E-14 2.02220E-13
 -1      3866 2.07804E+01-7.95006E-01-9.87770E-03 4.96729E-01-2.05370E-14 1.38796E-13
 -1      3867 2.09262E+01-8.17916E-01 8.91445E-03 3.23083E-01-3.67100E-14 1.53842E-14
 -1      3868 2.11088E+01-9.69566E-01-2.12579E-03 2.57065E-01-2.42613E-14 6.15632E-14
 -1      3869 2.25482E+01-2.53540E+00 3.92848E-02 2.66704E+00-2.49500E-13-1.07001E-13
 -1      3870 2.03545E+01-1.65975E+00 3.04563E-02 3.35132E+00-2.45534E-13-1.16682E-13
 -1      3871 1.94449E+01-1.63494E+00 1.28781E-02 4.07681E+00-3.08745E-13-2.75786E-14
 -1      3872 1.83875E+01-8.88930E-01-6.47743E-03 3.76558E+00-2.31358E-13 2.75726E-14
 -1      3873 2.45105E+01 2.13545E+00-2.67912E-02-1.71380E+00 2.29055E-13-8.68923E-14
 -1      3874 2.54304E+01-1.36290E+00 3.04834E-01-7.41844E-01 8.93730E-15-2.82607E-13
 -1      3875 2.52161E+01-2.24315E+00 1.78121E-01 4.05470E-01-1.29452E-13-6.75154E-14
 -1      3876 2.41383E+01-2.27756E+00 1.43568E-01 1.00053E+00-2.39211E-13-6.10761E-14
 -1      3877 2.43144E+01 9.90616E-01 1.60666E-02 1.95859E+00 1.03732E-13 3.68422E-14
 -1      3878 2.14009E+01-1.11010E+00 1.13193E-02 1.82227E-01-6.77180E-14 8.67196E-14
 -1      3879 2.16133E+01-1.24536E+00-5.35649E-03 5.92558E-02-2.07245E-15 4.33666E-14
 -1      3880 2.12609E+01-1.13217E+00-1.14038E-02 4.34180E-01-2.29242E-14 8.68113E-14
 -1      3881 2.00005E+01-7.79437E-04 1.66588E-06 1.77694E-04-3.03393E-15 1.41499E-13
 -1      3882 2.00006E+01-8.20181E-04-1.65326E-06 1.23394E-04-5.51791E-14-4.06192E-15
 -1      3883 2.00005E+01-7.63049E-04 5.87608E-07 2.80349E-04 7.12587E-14 2.09585E-13
 -1      3884 2.18850E+01-1.44176E+00-1.04863E-02 2.31849E-01-6.85816E-14-4.60517E-14
 -1      3885 2.00001E+01-6.07320E-04-1.69665E-06 6.01610E-04-2.92319E-13-1.11476E-13
 -1      3886 2.00002E+01-6.46917E-04 9.46299E-07 5.51131E-04-2.58285E-13 1.60416E-13
 -1      3887 2.30201E+01 2.45375E+00-3.54571E-02 1.71558E+00 2.74740E-13 1.17834E-13
 -1      3888 2.36127E+01 2.33420E+00 1.20880E-02 1.98460E+00 2.42974E-13 1.09591E-13
 -1      3889 2.44700E+01 1.75090E+00-3.95255E-03 2.12887E+00 1.61151E-13 6.58798E-14
 -1      3890 2.43342E+01 2.15687E+00-3.86777E-02 2.13443E+00 1.78729E-13 4.87080E-14
 -1      3891 2.29139E+01 2.91533E+00 9.74959E-03 1.29132E+00 3.32800E-13 9.65298E-14
 -1      3892 1.99200E+01 1.07831E-01-5.12451E-04 1.51603E-01 1.24532E-13-2.26844E-15
 -1      3893 1.99248E+01 1.02783E-01 1.25583E-03 1.74936E-01 7.41523E-14-2.69528E-14
 -1      3894 2.00005E+01-7.50699E-04 9.75929E-07-3.72262E-04 3.07401E-13 2.25845E-13
 -1      3895 2.00004E+01-7.22325E-04 1.17000E-06-4.66044E-04 2.86712E-13 3.75179E-13
 -1      3896 2.00005E+01-7.45553E-04-5.40261E-07-5.07493E-04 1.74294E-13 5.77087E-13
 -1      3897 2.00006E+01-7.96911E-04-3.42963E-07-3.38495E-04 1.69360E-13 1.64385E-13
 -1      3898 2.32455E+01 7.52630E-01-1.83461E-02-1.71176E+00 1.37321E-13-1.04559E-13
 -1      3899 2.39247E+01 1.16312E+00-6.84498E-03-1.74859E+00 1.76199E-13-1.26933E-13
 -1      3900 1.83426E+01 1.03746E+00-1.63606E-02 4.15482E-01 3.19110E-14-3.20846E-14
 -1      3901 1.86627E+01 9.54141E-01 8.39894E-04 2.87237E-01 1.97966E-14-2.29780E-15
 -1      3902 1.88511E+01 8.58795E-01-1.10285E-02 1.59153E-01-2.04632E-14-2.81701E-14
 -1      3903 1.90726E+01 7.73758E-01-1.72878E-04 9.00864E-02-3.42141E-14-3.24294E-14
 -1      3904 1.88314E+01 8.21413E-01 8.34309E-03 4.21335E-01-5.58253E-15-6.96580E-14
 -1      3905 1.92139E+01 6.86532E-01-7.22290E-03 1.54853E-02-8.20991E-14-9.63278E-14
 -1      3906 1.93648E+01 6.10192E-01-6.87577E-04-1.69409E-02-1.33412E-13-1.76509E-13
 -1      3907 1.91693E+01 6.87101E-01 6.47234E-03 1.93949E-01-1.13294E-13-1.34885E-13
 -1      3908 1.94686E+01 5.36422E-01-4.61998E-03-5.71889E-02-1.40853E-13-1.27498E-13
 -1      3909 1.95700E+01 4.72386E-01-8.85857E-04-6.81303E-02-9.50248E-14-1.38330E-13
 -1      3910 1.94180E+01 5.55517E-01 4.84044E-03 6.19314E-02-1.24063E-13-1.07241E-13
 -1      3911 1.96450E+01 4.12780E-01-2.87695E-03-8.72103E-02 1.65402E-14-1.39055E-13
 -1      3912 1.97123E+01 3.61166E-01-8.97685E-04-8.64248E-02-3.74952E-14-1.02687E-13
 -1      3913 1.95974E+01 4.39073E-01 3.52004E-03-9.16596E-03-2.71755E-14-5.23871E-14
 -1      3914 1.97656E+01 3.14325E-01-1.73562E-03-9.30911E-02-1.02191E-13-1.90943E-13
 -1      3915 1.98098E+01 2.73725E-01-8.14460E-04-8.65880E-02-1.21989E-13-2.46782E-13
 -1      3916 1.97249E+01 3.41632E-01 2.50725E-03-4.28777E-02-1.40903E-13-1.60304E-13
 -1      3917 1.98474E+01 2.37535E-01-1.00614E-03-8.64500E-02-1.62800E-13-2.85901E-13
 -1      3918 1.98761E+01 2.06074E-01-6.93620E-04-7.77580E-02-1.52863E-13-2.99986E-13
 -1      3919 1.98145E+01 2.62783E-01 1.75821E-03-5.47348E-02-1.31900E-13-2.35046E-13
 -1      3920 1.99024E+01 1.78393E-01-5.52086E-04-7.42787E-02-1.54053E-13-2.55565E-13
 -1      3921 1.99208E+01 1.54235E-01-5.67179E-04-6.53498E-02-1.54920E-14-2.02383E-13
 -1      3922 1.98767E+01 2.00301E-01 1.21822E-03-5.46460E-02-1.00775E-13-1.80362E-13
 -1      3923 1.99390E+01 1.33189E-01-2.77869E-04-6.05763E-02 9.69620E-14-2.39153E-13
 -1      3924 1.99507E+01 1.14744E-01-4.50780E-04-5.23967E-02 1.67774E-14-2.10364E-13
 -1      3925 1.99197E+01 1.51447E-01 8.35991E-04-4.87072E-02-7.44501E-15-1.61621E-13
 -1      3926 1.99632E+01 9.87988E-02-1.18285E-04-4.74703E-02-7.87129E-14-1.89149E-13
 -1      3927 1.99705E+01 8.47733E-02-3.50601E-04-4.04571E-02-1.52372E-13-1.40290E-13
 -1      3928 1.99490E+01 1.13590E-01 5.68944E-04-4.05101E-02-6.22400E-17-3.06068E-13
 -1      3929 1.99790E+01 7.27255E-02-2.98562E-05-3.59584E-02-2.99684E-13-2.75293E-14
 -1      3930 1.99834E+01 6.20974E-02-2.68633E-04-3.02087E-02-2.32367E-13-1.17043E-13
 -1      3931 1.99689E+01 8.44487E-02 3.83778E-04-3.20502E-02-2.06451E-13-1.66284E-13
 -1      3932 1.99891E+01 5.30317E-02 1.87709E-05-2.63853E-02-2.11415E-13-1.43360E-13
 -1      3933 1.99918E+01 4.50178E-02-1.97960E-04-2.18353E-02-2.49663E-13-2.19651E-13
 -1      3934 1.99821E+01 6.21371E-02 2.53641E-04-2.43388E-02-2.03661E-13-1.04417E-13
 -1      3935 1.99954E+01 3.85288E-02 3.81031E-05-1.88973E-02-1.90185E-13-2.06636E-13
 -1      3936 1.99968E+01 3.27447E-02-1.46982E-04-1.55252E-02-1.23129E-13-2.54365E-13
 -1      3937 1.99907E+01 4.55158E-02 1.64450E-04-1.79405E-02-2.73439E-13-2.23858E-13
 -1      3938 1.99993E+01 2.75807E-02 4.27513E-05-1.30754E-02 2.32674E-14-2.53136E-13
 -1      3939 2.00001E+01 2.30244E-02-1.09774E-04-1.04059E-02 5.49121E-15-2.06004E-13
 -1      3940 1.99962E+01 3.29065E-02 1.11059E-04-1.27553E-02-1.86469E-14-3.47965E-14
 -1      3941 2.00016E+01 1.92027E-02 3.98766E-05-8.56548E-03-4.55501E-14-1.26364E-13
 -1      3942 2.00019E+01 1.58406E-02-7.80808E-05-6.61032E-03 1.32609E-13-1.05219E-13
 -1      3943 1.99997E+01 2.31566E-02 7.18080E-05-8.60470E-03 6.13370E-14-1.39079E-13
 -1      3944 2.00028E+01 1.30363E-02 3.51411E-05-5.26704E-03 2.16037E-13-9.55028E-14
 -1      3945 2.00028E+01 1.05815E-02-5.42770E-05-3.87406E-03 1.03772E-13-6.43661E-14
 -1      3946 2.00018E+01 1.59138E-02 4.41336E-05-5.48996E-03 1.75331E-13-2.94430E-14
 -1      3947 2.00033E+01 8.55001E-03 2.92140E-05-2.92618E-03 4.89037E-14-4.74392E-14
 -1      3948 2.00032E+01 6.78371E-03-3.65947E-05-1.96405E-03 6.87312E-14 1.17082E-14
 -1      3949 2.00029E+01 1.06008E-02 2.55174E-05-3.22755E-03 1.29097E-13-7.18790E-15
 -1      3950 2.00033E+01 5.33578E-03 2.32981E-05-1.32047E-03 8.48173E-14-4.63827E-15
 -1      3951 2.00032E+01 4.08836E-03-2.36744E-05-6.80843E-04 1.19462E-13 3.32058E-14
 -1      3952 2.00033E+01 6.76153E-03 1.32217E-05-1.64020E-03 1.10500E-13 4.00525E-14
 -1      3953 2.00032E+01 3.07764E-03 1.79842E-05-2.64627E-04 1.38560E-13 2.51890E-14
 -1      3954 2.00029E+01 2.21751E-03-1.44160E-05 1.39293E-04 2.15780E-13 5.60211E-14
 -1      3955 2.00033E+01 4.03835E-03 5.28139E-06-5.70196E-04 9.02106E-14 3.33984E-14
 -1      3956 2.00028E+01 1.53095E-03 1.34951E-05 3.90532E-04 2.73230E-13-1.90967E-15
 -1      3957 2.00026E+01 9.56371E-04-7.93679E-06 6.26553E-04 2.13079E-13 3.61676E-14
 -1      3958 2.00031E+01 2.15177E-03 3.29017E-07 1.15077E-04 2.32061E-13-2.54289E-14
 -1      3959 2.00024E+01 5.06925E-04 9.85823E-06 7.61783E-04 2.91430E-13-1.31129E-13
 -1      3960 2.00022E+01 1.39662E-04-3.53603E-06 8.81705E-04 5.33032E-13-1.60369E-13
 -1      3961 2.00028E+01 8.84362E-04-2.58795E-06 5.22644E-04 1.79022E-13-3.84830E-13
 -1      3962 2.00020E+01-1.39280E-04 7.00367E-06 9.38283E-04 3.66912E-13-1.07378E-13
 -1      3963 2.00018E+01-3.58948E-04-6.64676E-07 9.80810E-04 1.45328E-13-1.12426E-13
 -1      3964 2.00024E+01 6.81035E-05-4.13565E-06 7.36113E-04 4.47734E-13-3.40157E-13
 -1      3965 2.00016E+01-5.17963E-04 4.81864E-06 9.86487E-04 1.54495E-13-4.61659E-14
 -1      3966 2.00015E+01-6.35218E-04 1.08840E-06 9.79888E-04 2.21821E-13 2.66430E-14
 -1      3967 2.00020E+01-4.25776E-04-4.78384E-06 8.18958E-04 1.69090E-13-1.69703E-13
 -1      3968 2.00013E+01-7.12339E-04 3.17279E-06 9.54664E-04 1.07681E-13 2.36357E-14
 -1      3969 2.00011E+01-7.60893E-04 2.06625E-06 9.19060E-04 4.86723E-14 2.79301E-15
 -1      3970 2.00016E+01-6.95057E-04-4.88057E-06 8.18066E-04 2.36324E-13-2.62890E-13
 -1      3971 2.00010E+01-7.84524E-04 1.92129E-06 8.77164E-04-3.90730E-14-4.21741E-14
 -1      3972 2.00008E+01-7.89582E-04 2.64376E-06 8.26328E-04-9.69928E-14-1.79537E-13
 -1      3973 2.00012E+01-8.12949E-04-4.64812E-06 7.66940E-04-9.82591E-14-4.30495E-13
 -1      3974 2.00007E+01-7.80861E-04 9.00104E-07 7.77697E-04-6.41533E-14-2.75494E-13
 -1      3975 2.00006E+01-7.60050E-04 3.28039E-06 7.21305E-04-1.54475E-13-3.57424E-13
 -1      3976 2.00009E+01-8.33953E-04-4.73884E-06 6.89149E-04-2.36586E-13-4.90025E-13
 -1      3977 2.00005E+01-7.32715E-04 9.43610E-07 6.68626E-04-6.93908E-14-2.52768E-13
 -1      3978 2.00004E+01-7.02624E-04 1.70003E-06 6.12862E-04-1.82679E-13-8.17879E-14
 -1      3979 2.00006E+01-8.01714E-04-4.40575E-06 6.01841E-04-1.31324E-13-3.29402E-13
 -1      3980 2.32297E+01 1.86214E-01-2.75839E-02-1.68502E+00 8.18720E-14-1.22583E-13
 -1      3981 1.99204E+01 9.14754E-02-3.96118E-04 2.06668E-01-2.88468E-14-1.64155E-13
 -1      3982 1.99350E+01 7.49474E-02 1.78945E-03 2.36014E-01-1.06418E-13-2.20164E-13
 -1      3983 1.98888E+01 1.20325E-01-5.68029E-04 1.92731E-01-3.92651E-14-1.81827E-13
 -1      3984 1.99402E+01 4.91486E-02-6.86359E-05 2.77771E-01-2.30789E-13-2.22424E-13
 -1      3985 1.99710E+01 1.49979E-02 2.43826E-03 3.13334E-01-2.89494E-13-1.62591E-13
 -1      3986 1.98903E+01 9.04493E-02-1.28027E-03 2.68449E-01-1.78549E-13-3.10502E-13
 -1      3987 1.99293E+01 1.08037E-01-5.16053E-04 1.09966E-01-9.78054E-15 6.23484E-14
 -1      3988 1.99288E+01 1.09914E-01 8.51040E-04 1.28081E-01 5.31409E-14 1.60202E-14
 -1      3989 1.99006E+01 1.27202E-01-1.52456E-04 1.36728E-01 2.79347E-14 1.07442E-13
 -1      3990 1.99424E+01 9.91212E-02-4.65745E-04 7.89807E-02-1.06357E-13 1.85592E-13
 -1      3991 1.99393E+01 1.04734E-01 5.60795E-04 9.28214E-02-6.18635E-14 5.91161E-14
 -1      3992 1.99178E+01 1.20561E-01 7.00398E-05 9.61080E-02-5.87052E-14 1.26346E-13
 -1      3993 1.99559E+01 8.58403E-02-3.94874E-04 5.61685E-02-7.49950E-14 9.82780E-15
 -1      3994 1.99520E+01 9.30731E-02 3.61519E-04 6.66263E-02-6.49444E-14 1.04736E-13
 -1      3995 1.99359E+01 1.06900E-01 1.72470E-04 6.70273E-02-3.29922E-14 9.28188E-14
 -1      3996 1.99681E+01 7.12351E-02-3.21267E-04 3.95012E-02-7.23095E-14 2.16095E-14
 -1      3997 1.99642E+01 7.87681E-02 2.29470E-04 4.73353E-02-8.39806E-14-5.39940E-14
 -1      3998 1.99525E+01 9.04486E-02 2.04194E-04 4.63839E-02-5.55556E-14 3.65690E-15
 -1      3999 1.99783E+01 5.71145E-02-2.53463E-04 2.73984E-02 5.48376E-15 1.50130E-13
 -1      4000 1.99749E+01 6.41864E-02 1.44496E-04 3.32221E-02-1.34787E-14 9.52032E-14
 -1      4001 1.99665E+01 7.37961E-02 1.97183E-04 3.18094E-02-7.41785E-14 3.57609E-15
 -1      4002 1.99863E+01 4.44394E-02-1.95135E-04 1.86611E-02 1.12242E-13 4.35520E-14
 -1      4003 1.99836E+01 5.06690E-02 9.12541E-05 2.29555E-02 1.49125E-13 1.97767E-13
 -1      4004 1.99777E+01 5.83994E-02 1.71128E-04 2.15559E-02 4.77285E-14 7.55536E-14
 -1      4005 1.99923E+01 3.36258E-02-1.46777E-04 1.23994E-02-3.12664E-14 7.94534E-14
 -1      4006 1.99903E+01 3.88685E-02 5.83843E-05 1.55369E-02-1.59290E-15 1.41003E-14
 -1      4007 1.99863E+01 4.49642E-02 1.39761E-04 1.43664E-02 9.01035E-14 2.29474E-13
 -1      4008 1.99965E+01 2.47461E-02-1.08027E-04 7.95178E-03 2.09226E-14 1.06485E-13
 -1      4009 1.99951E+01 2.90058E-02 3.84691E-05 1.02175E-02 2.55203E-14 1.90719E-14
 -1      4010 1.99925E+01 3.37211E-02 1.08396E-04 9.34641E-03-2.21399E-14 5.33320E-14
 -1      4011 1.99994E+01 1.76802E-02-7.76884E-05 4.83205E-03-2.53147E-14 1.83894E-13
 -1      4012 1.99985E+01 2.10398E-02 2.63048E-05 6.44420E-03 5.13508E-14 2.19680E-13
 -1      4013 1.99969E+01 2.46170E-02 8.02259E-05 5.86240E-03-7.30524E-15-3.67408E-14
 -1      4014 2.00012E+01 1.22118E-02-5.44292E-05 2.68076E-03 5.67393E-14 8.01346E-14
 -1      4015 2.00006E+01 1.47912E-02 1.87810E-05 3.80614E-03 1.34127E-14 9.17548E-14
 -1      4016 1.99997E+01 1.74505E-02 5.67313E-05 3.46836E-03 5.44432E-14 3.99260E-14
 -1      4017 2.00022E+01 8.08919E-03-3.69465E-05 1.23181E-03 1.02346E-13-1.48843E-13
 -1      4018 2.00019E+01 1.00191E-02 1.39665E-05 1.99784E-03 7.91798E-14-4.97158E-14
 -1      4019 2.00015E+01 1.19526E-02 3.81258E-05 1.84779E-03 1.26559E-13-1.50253E-13
 -1      4020 2.00026E+01 5.06201E-03-2.40669E-05 2.87921E-04 2.50089E-13-2.81794E-13
 -1      4021 2.00026E+01 6.46814E-03 1.07164E-05 7.91699E-04 2.22704E-13-2.82765E-13
 -1      4022 2.00025E+01 7.83869E-03 2.40053E-05 7.75222E-04 2.95407E-13-2.90331E-13
 -1      4023 2.00027E+01 2.90117E-03-1.47823E-05-2.97230E-04 2.05903E-13-3.77961E-13
 -1      4024 2.00028E+01 3.89637E-03 8.37948E-06 1.80258E-05 2.54087E-13-3.23974E-13
 -1      4025 2.00029E+01 4.83858E-03 1.37027E-05 8.90053E-05 2.82387E-13-3.69194E-13
 -1      4026 2.00026E+01 1.40806E-03-8.25457E-06-6.31890E-04 4.51532E-14-3.80340E-13
 -1      4027 2.00027E+01 2.08883E-03 6.59743E-06-4.49564E-04 7.75949E-14-3.68073E-13
 -1      4028 2.00030E+01 2.71162E-03 6.48615E-06-3.27319E-04 1.16676E-13-2.91323E-13
 -1      4029 2.00023E+01 4.16993E-04-3.80251E-06-7.95709E-04-5.96094E-14-3.63475E-13
 -1      4030 2.00025E+01 8.63016E-04 5.17899E-06-7.04785E-04-2.87891E-14-4.06432E-13
 -1      4031 2.00028E+01 1.25280E-03 1.66450E-06-5.57893E-04 7.31289E-14-2.25678E-13
 -1      4032 2.00020E+01-2.06054E-04-8.84199E-07-8.46760E-04-1.13041E-13-1.67466E-13
 -1      4033 2.00022E+01 6.91630E-05 4.02320E-06-8.16606E-04-1.29924E-13-2.89114E-13
 -1      4034 2.00025E+01 2.93188E-04-1.36370E-06-6.63454E-04-1.70819E-13-2.70541E-13
 -1      4035 2.00017E+01-5.66824E-04 9.09305E-07-8.26825E-04 4.54766E-14 1.40801E-13
 -1      4036 2.00018E+01-4.12304E-04 3.07302E-06-8.35205E-04-3.24566E-14 4.20849E-14
 -1      4037 2.00021E+01-3.02670E-04-3.09645E-06-6.87620E-04-1.60459E-13-3.02277E-14
 -1      4038 2.00013E+01-7.46830E-04 1.91462E-06-7.65369E-04-2.53361E-14 1.51657E-13
 -1      4039 2.00015E+01-6.74646E-04 2.26995E-06-7.96488E-04 1.30859E-13 2.27300E-13
 -1      4040 2.00017E+01-6.40938E-04-3.95029E-06-6.61372E-04 3.21928E-14 1.86003E-13
 -1      4041 2.00010E+01-8.08171E-04 2.48095E-06-6.82788E-04 2.67254E-14 1.82708E-13
 -1      4042 2.00012E+01-7.89147E-04 1.59726E-06-7.25801E-04-9.36539E-14 1.21539E-13
 -1      4043 2.00014E+01-8.03027E-04-4.23168E-06-6.06361E-04-4.99502E-14 1.59779E-13
 -1      4044 2.00007E+01-7.95649E-04 2.52790E-06-5.93410E-04 2.17719E-13 4.54102E-13
 -1      4045 2.00009E+01-8.09485E-04 9.88452E-07-6.40015E-04 1.03501E-13 2.74056E-13
 -1      4046 2.00011E+01-8.50460E-04-4.41012E-06-5.37066E-04-1.90664E-14 1.55203E-13
 -1      4047 1.66900E+01 1.23250E+00-3.49879E-02 1.52352E+00-3.75698E-14 1.91606E-13
 -1      4048 1.73382E+01 1.23268E+00 5.42994E-03 1.16792E+00-1.45847E-15 1.51590E-13
 -1      4049 2.45152E+01 1.29496E+00-1.37253E-02 2.07323E+00 1.19964E-13 4.77921E-14
 -1      4050 2.01037E+01-1.67681E-01 1.91515E-03 4.70290E-01-2.22724E-13-7.14629E-14
 -1      4051 2.01959E+01-2.61058E-01 3.65198E-03 5.11892E-01-1.55420E-13 1.63633E-16
 -1      4052 1.99941E+01-3.20485E-02 6.25772E-04 3.66289E-01-2.44179E-13-1.31770E-13
 -1      4053 2.00499E+01-9.15198E-02 3.12561E-03 4.06868E-01-2.43041E-13-1.26893E-13
 -1      4054 1.99178E+01 2.44650E-02-2.42862E-03 3.67940E-01-1.83814E-13-2.48425E-13
 -1      4055 2.32540E+01 3.68441E+00-1.17458E-02-2.48161E-01 2.95415E-13 1.10729E-13
 -1      4056 2.37306E+01 3.87865E+00-3.88014E-02-7.12873E-01 2.96350E-13 6.27499E-14
 -1      4057 2.27743E+01-2.48053E+00-1.38772E-02 2.01304E+00-2.18474E-13-1.14811E-13
 -1      4058 2.17150E+01-2.11053E+00 4.34097E-02 2.66238E+00-1.82851E-13-1.58136E-13
 -1      4059 2.34721E+01 3.14989E+00-1.51159E-02-1.08482E+00 2.77525E-13 7.99031E-14
 -1      4060 2.00004E+01-7.11052E-04-2.06992E-06 4.98350E-04-1.18851E-13 1.47376E-13
 -1      4061 2.28571E+01 3.42133E+00-2.52478E-02 5.70107E-01 3.47897E-13 9.13012E-14
 -1      4062 2.31274E+01-1.19919E+00-3.33899E-02-1.20824E+00-5.47878E-14-9.53040E-14
 -1      4063 2.32382E+01-6.15589E-01-6.57367E-03-1.65933E+00-2.42601E-15-1.97460E-13
 -1      4064 2.39780E+01-1.58807E-01 8.71414E-02-1.71651E+00 8.89358E-14-2.56864E-13
 -1      4065 2.32979E+01-1.36886E+00-7.73631E-03-7.57363E-01 1.80713E-14-1.62026E-13
 -1      4066 1.60566E+01 1.19722E+00 1.62934E-02 2.14681E+00-1.17909E-13 2.97911E-13
 -1      4067 1.76427E+01 1.18607E+00-2.28462E-02 8.43343E-01-2.06827E-14 1.06183E-13
 -1      4068 1.80984E+01 1.12669E+00 2.85074E-03 6.23606E-01-1.24954E-14-4.36364E-15
 -1      4069 1.83833E+01 9.30509E-01 1.04453E-02 7.92644E-01-2.79557E-14-3.03300E-14
 -1      4070 2.02986E+01-3.73908E-01 4.09100E-03 5.80812E-01-1.26832E-13 7.79014E-14
 -1      4071 2.04400E+01-5.08494E-01 3.64359E-03 6.14626E-01-8.48493E-14 1.04663E-13
 -1      4072 2.01388E+01-2.86821E-01-6.72380E-03 6.40836E-01-7.13889E-14-3.14422E-14
 -1      4073 2.17607E+01-1.43173E+00 1.65854E-02 6.34214E-01-1.29578E-13-3.35287E-14
 -1      4074 2.20897E+01-1.61914E+00-3.16709E-03 5.12706E-01-1.39439E-13-1.11955E-13
 -1      4075 2.00008E+01-8.56619E-04-4.98499E-07-5.26469E-05 3.92776E-14-1.99629E-13
 -1      4076 2.00008E+01-8.52727E-04-4.27717E-07-1.73190E-04 1.23308E-13-9.71191E-14
 -1      4077 2.03998E+01-5.70578E-01-1.01384E-02 7.95723E-01-6.96283E-14-4.44393E-15
 -1      4078 2.06151E+01-6.62008E-01 7.32506E-03 6.76664E-01-5.61236E-14 1.02445E-13
 -1      4079 2.08175E+01-8.39525E-01 2.38198E-03 6.86661E-01-3.21337E-14 7.99926E-14
 -1      4080 2.28300E+01 3.45638E+00-4.51563E-03-1.25334E-02 2.91654E-13 8.40998E-14
 -1      4081 2.00008E+01-8.53321E-04 2.10423E-06 9.44813E-05 3.08681E-14-1.57716E-13
 -1      4082 2.00009E+01-8.81028E-04 1.26404E-08 5.19419E-05 1.38169E-13-5.17206E-14
 -1      4083 2.00007E+01-8.49490E-04-3.19912E-06 2.25777E-04 3.85699E-15 1.53133E-13
 -1      4084 1.68932E+01 8.38291E-01 3.62773E-02 2.39858E+00-1.32513E-13 2.07097E-13
 -1      4085 2.44917E+01 7.52147E-01-3.58738E-02-1.73076E+00 1.88308E-13-1.60021E-13
 -1      4086 2.41965E+01 1.60960E-01-3.85187E-02-1.60787E+00 2.01866E-13-2.23264E-13
 -1      4087 1.78093E+01 9.61109E-01 1.39304E-02 1.37227E+00-6.83163E-14 5.46767E-14
 -1      4088 2.42728E+01-2.19615E-01 1.65635E-01-1.77054E+00 1.30271E-13-3.66068E-13
 -1      4089 2.00006E+01-7.64863E-04 1.18305E-06-5.27630E-04 1.93376E-13 6.47348E-13
 -1      4090 2.00006E+01-7.81610E-04 6.66555E-07-5.69975E-04 2.11227E-13 4.95065E-13
 -1      4091 2.00008E+01-8.37717E-04-3.58700E-06-4.83098E-04 1.52771E-13 2.58128E-13
 -1      4092 2.00006E+01-7.96829E-04-1.92547E-06-4.45686E-04 1.85639E-13 3.25070E-13
 -1      4093 2.09341E+01-1.83042E+00-7.76985E-03 2.85394E+00-2.36465E-13-1.37676E-13
 -1      4094 2.00852E+01-1.28993E+00-4.73804E-03 2.86018E+00-1.48829E-13-1.13030E-13
 -1      4095 2.13718E+01-1.72208E+00 1.80803E-02 2.18710E+00-1.35499E-13-8.69037E-14
 -1      4096 2.10934E+01-1.02803E+00 1.20073E-02 7.17364E-01-6.54229E-14 1.72096E-14
 -1      4097 2.13618E+01-1.23643E+00-9.46739E-04 6.78282E-01-6.28373E-14 9.21561E-15
 -1      4098 2.08221E+01-9.56037E-01-1.46909E-02 9.25142E-01-6.33802E-14-6.03987E-14
 -1      4099 1.99911E+01-9.46322E-02-4.18575E-03 4.93229E-01-1.72707E-13-1.17255E-13
 -1      4100 2.44684E+01 1.58833E+00-2.39209E-02-1.79408E+00 2.18624E-13-1.04854E-13
 -1      4101 2.38821E+01 2.42842E+00-3.08470E-02-1.60814E+00 2.17115E-13-3.95825E-14
 -1      4102 1.78358E+01-3.61826E-01 2.55843E-02 3.55927E+00-2.01625E-13 5.84576E-14
 -1      4103 1.71336E+01 1.46895E-01-3.15205E-02 3.10330E+00-1.79461E-13 1.48147E-13
 -1      4104 1.88306E+01-6.30061E-01 2.07399E-02 3.17294E+00-2.08470E-13-5.10954E-14
 -1      4105 2.14563E+01-1.42005E+00-1.92103E-02 9.59393E-01-1.38654E-13-8.26262E-14
 -1      4106 2.26658E+01 3.07790E+00 3.63881E-03-5.64669E-01 2.49148E-13 3.55615E-14
 -1      4107 2.31767E+01-2.22363E+00 6.59336E-02 1.19982E+00-1.92926E-13-1.00024E-13
 -1      4108 2.50892E+01-1.15579E-01 5.54735E-01-1.69203E+00 1.07137E-13-3.78475E-13
 -1      4109 2.27246E+01 2.68796E+00-8.03787E-03-1.01294E+00 2.18184E-13 2.44988E-14
 -1      4110 2.31352E+01 2.50411E+00-2.57538E-02-1.35197E+00 2.05932E-13-8.18269E-15
 -1      4111 2.00004E+01-7.43822E-04 4.21265E-07 4.32487E-04-8.22965E-14 2.17955E-13
 -1      4112 2.00006E+01-7.88148E-04 1.55534E-06 4.02072E-04-1.13405E-13 1.50262E-13
 -1      4113 2.43953E+01-1.26962E+00 3.00362E-01-5.88887E-01-3.60510E-14-2.68535E-13
 -1      4114 1.84497E+01 6.98521E-01-1.56388E-02 1.07757E+00-6.51130E-14-5.83995E-15
 -1      4115 1.87274E+01 7.08401E-01 7.52201E-03 8.35683E-01-4.74347E-14-3.13881E-14
 -1      4116 2.26048E+01-1.77205E+00 1.69393E-02 3.52545E-01-1.07486E-13-1.29957E-13
 -1      4117 2.29683E+01-1.84146E+00-7.44607E-03 1.03374E-01-4.22390E-14-1.82965E-13
 -1      4118 1.98702E+01 1.98737E-02-1.00838E-03 4.90503E-01-1.85632E-13-1.50870E-13
 -1      4119 1.99319E+01-4.28182E-02 5.43228E-03 5.63303E-01-8.47626E-14-1.21382E-13
 -1      4120 1.88293E+01 6.82825E-01-1.17598E-02 6.34094E-01-5.48624E-14-5.11193E-14
 -1      4121 1.90413E+01 6.55683E-01 4.35384E-03 4.80314E-01-7.96528E-14-1.12228E-13
 -1      4122 1.89733E+01 5.22681E-01 2.51465E-03 8.85340E-01-9.97541E-14-2.47298E-14
 -1      4123 1.91367E+01 6.09785E-01-8.43852E-03 3.47773E-01-6.40617E-14-7.70506E-14
 -1      4124 1.92940E+01 5.67631E-01 2.33281E-03 2.54214E-01-7.56420E-14-9.89455E-14
 -1      4125 1.91990E+01 5.25245E-01 3.22560E-03 5.35309E-01-5.42676E-14-4.52667E-14
 -1      4126 1.93754E+01 5.16850E-01-5.88252E-03 1.70389E-01-1.20247E-13-9.48247E-14
 -1      4127 1.94894E+01 4.71744E-01 1.09097E-03 1.16516E-01-7.67032E-14-2.13254E-14
 -1      4128 1.93930E+01 4.78615E-01 3.11135E-03 3.06113E-01-1.01111E-13-4.41968E-14
 -1      4129 1.95552E+01 4.23741E-01-3.99331E-03 6.57673E-02-7.42785E-14-6.39219E-14
 -1      4130 1.96364E+01 3.81611E-01 3.67246E-04 3.70962E-02-5.57591E-14-1.05585E-13
 -1      4131 1.95503E+01 4.12446E-01 2.66613E-03 1.61669E-01-1.09197E-13-3.34964E-16
 -1      4132 1.96878E+01 3.39613E-01-2.64291E-03 8.01723E-03-7.37341E-14-1.75641E-13
 -1      4133 1.97448E+01 3.02889E-01-2.48481E-05-5.28701E-03-1.69176E-13-1.42158E-13
 -1      4134 1.96730E+01 3.42934E-01 2.14375E-03 7.44859E-02-1.25681E-13-1.29303E-13
 -1      4135 1.97839E+01 2.67733E-01-1.70588E-03-2.06821E-02-1.91958E-13-1.54460E-13
 -1      4136 1.98235E+01 2.36986E-01-2.14236E-04-2.50743E-02-1.11553E-13-1.67935E-13
 -1      4137 1.97662E+01 2.78114E-01 1.65733E-03 2.46531E-02-1.46938E-13-1.52250E-13
 -1      4138 1.98527E+01 2.08350E-01-1.07303E-03-3.21804E-02 1.90616E-14-2.60065E-13
 -1      4139 1.98799E+01 1.83256E-01-2.85613E-04-3.17561E-02-1.10856E-13-1.76131E-13
 -1      4140 1.98357E+01 2.21349E-01 1.24781E-03-1.68700E-03-1.01334E-13-1.73428E-13
 -1      4141 1.99014E+01 1.60344E-01-6.56181E-04-3.40975E-02-1.92120E-13-1.56782E-13
 -1      4142 1.99199E+01 1.40215E-01-2.92298E-04-3.13616E-02-3.15392E-14-2.66648E-13
 -1      4143 1.98867E+01 1.73494E-01 9.21742E-04-1.38493E-02-1.22058E-13-2.47470E-13
 -1      4144 1.99356E+01 1.22110E-01-3.88122E-04-3.11622E-02 1.10826E-14-3.30298E-13
 -1      4145 1.99480E+01 1.06169E-01-2.66552E-04-2.75798E-02-9.51348E-14-2.62832E-13
 -1      4146 1.99236E+01 1.34155E-01 6.70962E-04-1.78908E-02-9.29179E-14-2.62415E-13
 -1      4147 1.99592E+01 9.20007E-02-2.19716E-04-2.61888E-02-1.91569E-13-2.14754E-13
 -1      4148 1.99675E+01 7.95023E-02-2.28585E-04-2.25643E-02-1.42509E-13-1.40218E-13
 -1      4149 1.99499E+01 1.02401E-01 4.82276E-04-1.76167E-02-8.12084E-14-2.83039E-13
 -1      4150 1.99754E+01 6.85219E-02-1.12155E-04-2.07656E-02-6.93499E-14-2.03044E-13
 -1      4151 1.99808E+01 5.88168E-02-1.85397E-04-1.75046E-02-1.74852E-13-1.59397E-13
 -1      4152 1.99685E+01 7.71263E-02 3.39559E-04-1.53284E-02-1.19620E-13-1.40556E-13
 -1      4153 1.99861E+01 5.07537E-02-5.29088E-05-1.58141E-02-2.59060E-13-5.67225E-14
 -1      4154 1.99894E+01 4.35898E-02-1.46680E-04-1.31777E-02-2.32933E-13-1.52340E-14
 -1      4155 1.99811E+01 5.77074E-02 2.40606E-04-1.24281E-02-1.34003E-13 2.25943E-15
 -1      4156 1.99932E+01 3.70481E-02-1.93237E-05-1.15784E-02-2.17162E-13-5.07814E-14
 -1      4157 1.99954E+01 3.12772E-02-1.13281E-04-9.35342E-03-1.32299E-14-1.05316E-13
 -1      4158 1.99897E+01 4.25448E-02 1.66851E-04-9.52172E-03-2.07002E-13 2.22534E-14
 -1      4159 1.99979E+01 2.63328E-02-3.13053E-06-8.04342E-03 1.91908E-13-4.47544E-14
 -1      4160 1.99992E+01 2.19935E-02-8.38045E-05-6.32584E-03 1.57851E-13 6.31128E-14
 -1      4161 1.99956E+01 3.05659E-02 1.15073E-04-6.88435E-03 3.07223E-14-3.75544E-14
 -1      4162 2.00008E+01 1.82987E-02 6.39708E-06-5.30545E-03 9.99834E-14 2.31359E-14
 -1      4163 2.00015E+01 1.50722E-02-6.05122E-05-4.02459E-03 2.22327E-13 4.64034E-14
 -1      4164 1.99993E+01 2.14801E-02 7.64972E-05-4.72128E-03 1.43185E-13 1.15756E-13
 -1      4165 2.00024E+01 1.23486E-02 1.03726E-05-3.26536E-03 2.22669E-13 7.26485E-14
 -1      4166 2.00027E+01 9.98522E-03-4.23157E-05-2.34162E-03 2.33110E-13 1.32821E-13
 -1      4167 2.00016E+01 1.46876E-02 4.90548E-05-3.04055E-03 1.60684E-13 9.79549E-14
 -1      4168 2.00032E+01 8.00942E-03 1.12741E-05-1.80060E-03 1.09399E-13 2.20020E-13
 -1      4169 2.00032E+01 6.30890E-03-2.84790E-05-1.15776E-03 1.64707E-13 1.84089E-13
 -1      4170 2.00028E+01 9.68904E-03 2.98677E-05-1.79279E-03 2.15789E-13 2.31865E-13
 -1      4171 2.00034E+01 4.90304E-03 1.06153E-05-7.89700E-04 1.54509E-13 1.85155E-13
 -1      4172 2.00033E+01 3.70579E-03-1.82251E-05-3.60694E-04 1.06453E-13 2.10259E-13
 -1      4173 2.00033E+01 6.07702E-03 1.66868E-05-9.05674E-04 1.67969E-13 3.28397E-13
 -1      4174 2.00033E+01 2.72927E-03 9.26951E-06-1.24041E-04 4.70296E-14 2.02583E-13
 -1      4175 2.00032E+01 1.90909E-03-1.08289E-05 1.47008E-04 2.29635E-13 3.61178E-14
 -1      4176 2.00034E+01 3.52326E-03 7.84416E-06-3.03514E-04 3.56453E-14 4.76541E-13
 -1      4177 2.00031E+01 1.25152E-03 7.71967E-06 2.87554E-04 2.10377E-13-2.05844E-14
 -1      4178 2.00028E+01 7.09533E-04-5.65296E-06 4.45406E-04 2.01609E-13-2.02391E-14
 -1      4179 2.00032E+01 1.76586E-03 2.10763E-06 8.28026E-05 1.71291E-13 5.04561E-13
 -1      4180 2.00027E+01 2.85033E-04 6.21707E-06 5.18301E-04 3.69506E-13-7.73423E-14
 -1      4181 2.00025E+01-5.54687E-05-2.16080E-06 5.97675E-04 4.38690E-13-4.27062E-14
 -1      4182 2.00029E+01 5.98181E-04-1.43096E-06 3.11726E-04 2.51086E-13 3.29162E-13
 -1      4183 2.00023E+01-3.13043E-04 4.87834E-06 6.24930E-04 2.33995E-13-6.87045E-14
 -1      4184 2.00020E+01-5.10875E-04 8.56640E-08 6.52006E-04 1.92506E-13-5.01015E-14
 -1      4185 2.00025E+01-1.40861E-04-3.43818E-06 4.30163E-04 3.22715E-13 2.16362E-13
 -1      4186 2.00018E+01-6.51866E-04 3.74291E-06 6.50089E-04 9.38135E-14-2.80387E-13
 -1      4187 2.00017E+01-7.51639E-04 1.46748E-06 6.44071E-04-8.41415E-14-4.26747E-13
 -1      4188 2.00021E+01-5.75299E-04-4.40444E-06 4.74243E-04 6.36710E-14 5.01519E-15
 -1      4189 2.00015E+01-8.13989E-04 2.79418E-06 6.25038E-04 4.31040E-14-5.05052E-13
 -1      4190 2.00013E+01-8.48760E-04 2.66077E-06 5.99943E-04-7.68252E-14-5.20026E-13
 -1      4191 2.00017E+01-7.99582E-04-4.95998E-06 4.70844E-04-9.66607E-14-4.18714E-13
 -1      4192 2.00011E+01-8.62495E-04 1.56760E-06 5.69712E-04-2.20953E-13-3.48319E-13
 -1      4193 2.00010E+01-8.55163E-04 3.33024E-06 5.32865E-04-3.58470E-14-2.54400E-13
 -1      4194 2.00013E+01-8.84751E-04-3.73434E-06 4.36902E-04-7.59669E-14-2.74681E-13
 -1      4195 2.00009E+01-8.52560E-04 1.79793E-06 4.23284E-04-6.36435E-14-3.89064E-14
 -1      4196 2.00007E+01-8.26556E-04 1.93220E-06 3.88113E-04-1.18573E-13-1.33445E-15
 -1      4197 1.98368E+01 1.03601E-01-1.40267E-03 3.49533E-01-1.48811E-13-2.74341E-13
 -1      4198 1.98672E+01 7.07534E-02 3.97469E-03 4.07408E-01-1.49512E-13-2.14375E-13
 -1      4199 1.97770E+01 1.04435E-01-1.63411E-03 4.70159E-01-8.67934E-14-1.08911E-13
 -1      4200 1.99061E+01 1.30745E-01-7.90798E-04 7.72182E-02-1.03722E-13 6.37381E-14
 -1      4201 1.98987E+01 1.39891E-01 7.28576E-04 9.37974E-02-3.23590E-14 3.45045E-14
 -1      4202 1.98558E+01 1.52781E-01-1.23149E-03 1.68188E-01-1.03961E-13-9.57123E-14
 -1      4203 1.98561E+01 1.51699E-01 1.84706E-03 2.00558E-01-1.41111E-13-1.67004E-13
 -1      4204 1.79892E+01 5.83067E-01-2.91351E-02 1.73627E+00-8.18234E-14 4.07764E-14
 -1      4205 1.83605E+01 6.73902E-01 1.25466E-02 1.37380E+00-5.00271E-14-1.42839E-14
 -1      4206 1.87392E+01 4.19107E-01 9.19863E-04 1.39964E+00-8.01257E-14 3.05562E-14
 -1      4207 1.98378E+01 1.42472E-01-1.40250E-03 2.44273E-01-1.62864E-13-2.65316E-13
 -1      4208 1.98490E+01 1.29269E-01 2.76805E-03 2.88232E-01-1.89893E-13-3.04745E-13
 -1      4209 1.98059E+01 1.82209E-01 2.40806E-04 2.16805E-01-1.87602E-13-2.17554E-13
 -1      4210 1.99294E+01 1.11555E-01-6.02385E-04 5.16852E-02 1.10678E-14 4.74027E-14
 -1      4211 1.99217E+01 1.21841E-01 4.28577E-04 6.33580E-02-2.03939E-14 8.64439E-14
 -1      4212 1.99033E+01 1.39485E-01 5.79815E-04 6.02079E-02-5.20172E-14-6.49237E-14
 -1      4213 1.99491E+01 9.18302E-02-4.49273E-04 3.43368E-02-1.01532E-13 1.04353E-13
 -1      4214 1.99421E+01 1.01931E-01 2.38869E-04 4.25122E-02 5.01085E-14 1.42574E-13
 -1      4215 1.99292E+01 1.16041E-01 5.08887E-04 3.83723E-02-4.19956E-14 4.32312E-14
 -1      4216 1.99649E+01 7.33832E-02-3.30790E-04 2.26125E-02-7.89043E-15 2.81707E-14
 -1      4217 1.99590E+01 8.25798E-02 1.24082E-04 2.83239E-02-7.83215E-14 6.31448E-14
 -1      4218 1.99501E+01 9.37253E-02 4.21517E-04 2.42044E-02-7.70740E-14 1.41126E-13
 -1      4219 1.99771E+01 5.71315E-02-2.38839E-04 1.47133E-02 5.34057E-14 1.88377E-13
 -1      4220 1.99725E+01 6.50940E-02 6.06008E-05 1.87063E-02-8.73845E-14 5.02382E-14
 -1      4221 1.99664E+01 7.37834E-02 3.31226E-04 1.50998E-02-3.20557E-14 6.24436E-14
 -1      4222 1.99862E+01 4.33862E-02-1.72734E-04 9.41390E-03 3.70380E-14 2.67612E-13
 -1      4223 1.99827E+01 5.00252E-02 2.40190E-05 1.21933E-02 1.71141E-13 2.33337E-13
 -1      4224 1.99786E+01 5.67343E-02 2.50975E-04 9.29397E-03 1.44810E-14 9.48435E-14
 -1      4225 1.99927E+01 3.21474E-02-1.22085E-04 5.85875E-03 1.04640E-13 6.45479E-14
 -1      4226 1.99902E+01 3.75235E-02 7.11626E-06 7.79021E-03 9.94169E-14 2.78358E-13
 -1      4227 1.99875E+01 4.26616E-02 1.90670E-04 5.59734E-03 1.59182E-13 2.80939E-13
 -1      4228 1.99971E+01 2.32043E-02-8.48695E-05 3.48793E-03 7.31785E-15 1.06679E-13
 -1      4229 1.99954E+01 2.74448E-02-8.24348E-07 4.82367E-03 6.55465E-14 4.16198E-14
 -1      4230 1.99937E+01 3.13250E-02 1.38853E-04 3.25960E-03 1.59473E-13 1.68658E-13
 -1      4231 2.00000E+01 1.62617E-02-5.77828E-05 1.91970E-03 5.49961E-14 1.09206E-14
 -1      4232 1.99989E+01 1.95282E-02-3.16241E-06 2.83522E-03 9.02066E-14 4.08650E-14
 -1      4233 1.99979E+01 2.24166E-02 9.76458E-05 1.78944E-03 6.85060E-14 4.63990E-15
 -1      4234 2.00017E+01 1.09970E-02-3.82739E-05 8.97293E-04 2.27596E-13-2.32765E-13
 -1      4235 2.00011E+01 1.34559E-02-2.91189E-06 1.51566E-03 7.24794E-14-1.27583E-13
 -1      4236 2.00006E+01 1.55708E-02 6.60010E-05 8.72613E-04 1.90198E-13-1.62921E-13
 -1      4237 2.00027E+01 7.09813E-03-2.43912E-05 2.46666E-04 2.76434E-13-1.39863E-13
 -1      4238 2.00024E+01 8.90574E-03-1.68874E-06 6.54937E-04 2.43299E-13-1.49819E-13
 -1      4239 2.00022E+01 1.04242E-02 4.23935E-05 3.09435E-04 1.80910E-13-2.80828E-13
 -1      4240 2.00031E+01 4.28265E-03-1.46607E-05-1.51099E-04 3.45302E-13-7.95578E-14
 -1      4241 2.00030E+01 5.57768E-03-3.24859E-07 1.09189E-04 2.84628E-13-6.07464E-14
 -1      4242 2.00030E+01 6.64217E-03 2.52846E-05-2.71295E-05 2.81176E-13 5.01573E-14
 -1      4243 2.00031E+01 2.30678E-03-7.97413E-06-3.77970E-04 1.87053E-14-1.23441E-13
 -1      4244 2.00031E+01 3.20738E-03 8.08018E-07-2.21014E-04 2.52150E-13-9.57081E-14
 -1      4245 2.00032E+01 3.93147E-03 1.32713E-05-2.18274E-04 2.65594E-13 1.61703E-13
 -1      4246 2.00029E+01 9.67153E-04-3.49963E-06-4.90864E-04-2.17320E-14-9.29241E-14
 -1      4247 2.00030E+01 1.57089E-03 1.59151E-06-4.05003E-04-3.26211E-14-1.73507E-13
 -1      4248 2.00032E+01 2.04403E-03 5.14709E-06-3.16332E-04 3.87928E-14-5.87853E-14
 -1      4249 2.00026E+01 9.87085E-05-6.13520E-07-5.29473E-04-2.02364E-13 3.18201E-14
 -1      4250 2.00027E+01 4.84132E-04 2.03509E-06-4.91433E-04-6.40610E-14 3.69487E-14
 -1      4251 2.00029E+01 7.75914E-04-8.34236E-08-3.55395E-04-8.45357E-14 2.91298E-13
 -1      4252 2.00022E+01-4.29388E-04 1.15617E-06-5.21464E-04-2.27623E-13 3.07477E-14
 -1      4253 2.00024E+01-2.00452E-04 2.20344E-06-5.14523E-04-1.90655E-13-5.32439E-14
 -1      4254 2.00026E+01-3.65907E-05-3.21328E-06-3.57903E-04-2.00160E-13 1.39259E-13
 -1      4255 2.00018E+01-7.18802E-04 2.11801E-06-4.86042E-04-4.83705E-14 4.94429E-14
 -1      4256 2.00020E+01-5.98561E-04 2.17078E-06-4.98300E-04-1.45913E-13-6.75911E-14
 -1      4257 2.00022E+01-5.22176E-04-4.85387E-06-3.38754E-04-2.29205E-13 1.94761E-14
 -1      4258 2.00014E+01-8.46492E-04 2.93013E-06-4.36485E-04-8.79214E-14 7.76657E-14
 -1      4259 2.00016E+01-7.99114E-04 1.97021E-06-4.59401E-04 3.19316E-14 1.17693E-13
 -1      4260 2.00018E+01-7.80191E-04-5.57626E-06-3.07954E-04-6.80555E-14-5.99467E-14
 -1      4261 2.00011E+01-8.71953E-04 3.02780E-06-3.78468E-04 3.01217E-14-4.94503E-15
 -1      4262 2.00012E+01-8.71181E-04 1.12999E-06-4.08439E-04-2.87323E-14 2.37072E-14
 -1      4263 2.00014E+01-8.85176E-04-3.97154E-06-2.68988E-04-1.83577E-14 1.03929E-13
 -1      4264 1.98806E+01 1.46215E-01-1.00839E-03 1.14480E-01-3.60902E-14-2.35212E-14
 -1      4265 1.98754E+01 1.51998E-01 1.18401E-03 1.37813E-01-2.52900E-14-9.82419E-14
 -1      4266 1.98727E+01 1.61615E-01 6.02728E-04 9.34619E-02-1.07523E-13-1.64087E-13
 -1      4267 2.34791E+01-1.86290E+00 2.00303E-02-7.27431E-02 1.30959E-14-2.70841E-13
 -1      4268 2.23322E+01-1.84950E+00-1.60326E-02 8.00412E-01-1.57511E-13-9.41239E-14
 -1      4269 2.11123E+01-1.20780E+00 1.62813E-02 1.30114E+00-9.58423E-14-1.12898E-13
 -1      4270 2.14937E+01-1.48992E+00 6.11205E-03 1.30570E+00-1.14780E-13-1.43043E-13
 -1      4271 1.77930E+01 4.49444E-01 1.93135E-02 2.33926E+00-1.71854E-13 6.07227E-14
 -1      4272 1.99653E+01-1.30076E-01 1.75863E-04 6.70840E-01-7.66411E-14-1.13750E-13
 -1      4273 2.00750E+01-2.35389E-01 6.96502E-03 7.56093E-01-5.92222E-14-9.02700E-14
 -1      4274 1.98168E+01-1.59337E-02-3.84632E-03 6.68865E-01-9.20881E-14-1.25537E-13
 -1      4275 2.33339E+01-2.19036E+00-1.82456E-02 5.45007E-01-9.96325E-14-1.51405E-13
 -1      4276 2.25207E+01-2.09108E+00 1.08951E-02 1.33285E+00-1.56407E-13-6.78132E-14
 -1      4277 2.02180E+01-1.04247E+00 1.63783E-02 2.38838E+00-1.45042E-13-1.54460E-13
 -1      4278 1.95907E+01-9.40801E-01 4.74599E-03 2.86787E+00-1.49366E-13-9.19739E-14
 -1      4279 1.89125E+01-4.96994E-01-2.43413E-02 2.71029E+00-1.89254E-13 3.02926E-15
 -1      4280 2.00010E+01-8.91563E-04-1.12907E-06 3.10722E-04 9.76472E-14 7.05309E-14
 -1      4281 2.19977E+01-1.84132E+00 1.28781E-02 1.43046E+00-1.52303E-13-9.52541E-14
 -1      4282 2.14235E+01-1.70331E+00-2.03436E-02 1.84125E+00-1.21022E-13-8.64209E-14
 -1      4283 1.97808E+01 1.62957E-01-3.95408E-04 3.22485E-01-1.34678E-13-2.45140E-13
 -1      4284 1.98390E+01 1.78171E-01 5.21473E-04 1.43349E-01-9.82564E-14-1.57147E-13
 -1      4285 2.00009E+01-8.66265E-04 1.57449E-06-2.96704E-04 1.16871E-13-1.71114E-14
 -1      4286 2.00011E+01-8.96301E-04-1.55967E-06-1.76440E-04 5.79106E-14-5.66430E-14
 -1      4287 2.08630E+01-1.33690E+00 6.96034E-03 1.99203E+00-1.25452E-13-9.74850E-14
 -1      4288 2.00011E+01-9.04873E-04-1.55202E-06 1.40347E-04 1.34071E-13 1.76905E-14
 -1      4289 2.00011E+01-9.05564E-04 2.31570E-07-5.57531E-06 1.58648E-13-7.34339E-14
 -1      4290 2.00012E+01-9.05318E-04 1.67730E-06-8.50645E-05 3.06040E-14 3.20826E-15
 -1      4291 2.00012E+01-9.01314E-04 1.31131E-06 2.54888E-04 8.05824E-14-6.06867E-14
 -1      4292 2.05211E+01-7.23993E-01 8.44975E-03 1.10992E+00-9.10904E-14-1.63004E-13
 -1      4293 2.07832E+01-9.52827E-01 5.85917E-03 1.18252E+00-1.19603E-13-1.85034E-13
 -1      4294 2.06578E+01-1.04084E+00-1.62108E-02 1.52283E+00-8.66086E-14-1.72004E-13
 -1      4295 1.99364E+01-2.28201E-01-7.51625E-03 9.22691E-01-1.21026E-13-1.81045E-13
 -1      4296 2.01634E+01-3.71790E-01 2.77906E-03 8.85729E-01-7.69025E-14-1.52828E-13
 -1      4297 2.03404E+01-5.33788E-01 7.37850E-03 9.74165E-01-5.23419E-14-1.55527E-13
 -1      4298 1.84294E+01 1.33698E-01 1.69394E-02 2.32069E+00-1.40890E-13 1.61640E-14
 -1      4299 2.00007E+01-8.15842E-04 1.62639E-06-3.55263E-04 2.05425E-13 9.85021E-14
 -1      4300 2.00008E+01-8.51840E-04 1.05033E-06-2.84981E-04 2.06425E-13-4.15544E-14
 -1      4301 1.92652E+01 3.91838E-01-7.70364E-03 6.69167E-01-4.92456E-14-1.90656E-14
 -1      4302 1.93845E+01 4.05415E-01 5.66822E-03 5.24846E-01 8.12357E-15 2.83984E-14
 -1      4303 1.94140E+01 3.96652E-01-6.06659E-03 4.10738E-01-5.20652E-14 1.96653E-15
 -1      4304 1.95123E+01 3.87362E-01 3.45382E-03 3.16741E-01-1.42367E-13 2.61973E-14
 -1      4305 1.95077E+01 2.97415E-01-2.24587E-06 5.29693E-01-2.35553E-14 1.40877E-14
 -1      4306 1.95481E+01 3.65279E-01-4.52022E-03 2.40428E-01-1.63733E-13 8.59408E-14
 -1      4307 1.96253E+01 3.45158E-01 1.99431E-03 1.81507E-01-1.38792E-13 2.47126E-14
 -1      4308 1.95955E+01 3.10641E-01 1.00538E-03 3.33130E-01-6.84194E-14-9.57974E-14
 -1      4309 1.96603E+01 3.18329E-01-3.24009E-03 1.32212E-01-1.67465E-13-7.90827E-15
 -1      4310 1.97191E+01 2.94407E-01 1.06575E-03 9.68541E-02-1.85193E-13-6.28185E-14
 -1      4311 1.96806E+01 2.91845E-01 1.34638E-03 2.01966E-01-2.02008E-13-5.11516E-14
 -1      4312 1.97502E+01 2.67491E-01-2.25316E-03 6.61231E-02-1.09170E-13-9.35736E-14
 -1      4313 1.97940E+01 2.43624E-01 4.98317E-04 4.60479E-02-1.25919E-13-5.28701E-14
 -1      4314 1.97555E+01 2.57947E-01 1.34873E-03 1.17318E-01-1.61663E-13-7.46606E-14
 -1      4315 1.98200E+01 2.18923E-01-1.52786E-03 2.76322E-02-1.89657E-13 4.39208E-14
 -1      4316 1.98520E+01 1.97039E-01 1.68436E-04 1.71143E-02-1.40256E-13-4.76082E-14
 -1      4317 1.98176E+01 2.18950E-01 1.19957E-03 6.45097E-02-1.42429E-13 5.08669E-14
 -1      4318 1.98729E+01 1.75503E-01-1.01352E-03 6.59769E-03-6.72460E-14-1.35031E-13
 -1      4319 1.98960E+01 1.56411E-01-1.02726E-05 1.81178E-03-1.05131E-13 5.55367E-15
 -1      4320 1.98673E+01 1.80430E-01 9.99315E-04 3.27696E-02-1.60998E-13 5.04976E-14
 -1      4321 1.99123E+01 1.38247E-01-6.58933E-04-3.81397E-03-1.61146E-13-3.57252E-15
 -1      4322 1.99287E+01 1.22133E-01-9.62002E-05-5.34056E-03-6.72922E-14-5.31506E-14
 -1      4323 1.99058E+01 1.45230E-01 7.98190E-04 1.45246E-02-1.05215E-13-1.42315E-14
 -1      4324 1.99411E+01 1.07174E-01-4.20053E-04-8.05699E-03-8.22149E-14-5.07667E-14
 -1      4325 1.99527E+01 9.39006E-02-1.27742E-04-7.86823E-03-1.10863E-13-9.63337E-14
 -1      4326 1.99351E+01 1.14569E-01 6.18531E-04 4.63778E-03-8.46606E-14-5.71552E-14
 -1      4327 1.99619E+01 8.18182E-02-2.59058E-04-8.93501E-03-1.03434E-13-8.91778E-14
 -1      4328 1.99699E+01 7.10855E-02-1.32245E-04-7.96405E-03-1.22138E-13-1.55615E-13
 -1      4329 1.99568E+01 8.87348E-02 4.68147E-04-2.64416E-04-7.92743E-14-1.50139E-13
 -1      4330 1.99763E+01 6.19177E-02-1.58936E-04-8.17504E-03-4.55404E-14-1.25793E-13
 -1      4331 1.99815E+01 5.37584E-02-1.16387E-04-6.99059E-03-8.50267E-14-7.13560E-14
 -1      4332 1.99722E+01 6.79786E-02 3.49755E-04-2.30110E-03-1.75796E-14-1.20369E-13
 -1      4333 1.99863E+01 4.61231E-02-9.53574E-05-6.79623E-03-2.19356E-13 7.03310E-14
 -1      4334 1.99900E+01 3.93687E-02-9.53959E-05-5.57348E-03-2.09778E-13 6.04257E-14
 -1      4335 1.99832E+01 5.11745E-02 2.47240E-04-2.85168E-03-4.67205E-14-1.76271E-13
 -1      4336 1.99933E+01 3.34526E-02-5.77566E-05-5.21947E-03-2.54614E-14 1.64331E-13
 -1      4337 1.99957E+01 2.82575E-02-7.49040E-05-4.14642E-03 1.99319E-13 2.40740E-13
 -1      4338 1.99911E+01 3.75378E-02 1.78057E-04-2.68358E-03-1.78238E-14 1.68309E-13
 -1      4339 1.99979E+01 2.37441E-02-3.16965E-05-3.77034E-03 1.35793E-13 1.50266E-13
 -1      4340 1.99994E+01 1.98021E-02-5.67287E-05-2.89416E-03 1.09269E-13 3.93406E-14
 -1      4341 1.99964E+01 2.69371E-02 1.24082E-04-2.20497E-03 1.17339E-13 2.10857E-13
 -1      4342 2.00007E+01 1.64122E-02-1.57839E-05-2.56205E-03 1.16993E-13 2.15872E-13
 -1      4343 2.00016E+01 1.34702E-02-4.11623E-05-1.88375E-03 2.28800E-13 2.16123E-13
 -1      4344 1.99998E+01 1.88417E-02 8.36972E-05-1.65618E-03 1.90431E-13 2.15622E-13
 -1      4345 2.00024E+01 1.09667E-02-6.34696E-06-1.61900E-03 2.64990E-13 1.16886E-13
 -1      4346 2.00028E+01 8.81110E-03-2.85701E-05-1.11673E-03 2.70851E-13 2.59690E-13
 -1      4347 2.00018E+01 1.27685E-02 5.41558E-05-1.15329E-03 2.41169E-13 4.09181E-13
 -1      4348 2.00032E+01 6.99729E-03-9.53878E-07-9.20874E-04 2.64386E-13 2.33387E-13
 -1      4349 2.00033E+01 5.45068E-03-1.88163E-05-5.64308E-04 1.92134E-13 2.84937E-13
 -1      4350 2.00029E+01 8.29868E-03 3.30015E-05-7.41576E-04 2.47003E-13 1.55859E-13
 -1      4351 2.00035E+01 4.16580E-03 1.94943E-06-4.28794E-04 1.20110E-13 3.79293E-13
 -1      4352 2.00034E+01 3.08361E-03-1.15449E-05-1.86825E-04 1.28085E-13 4.69416E-13
 -1      4353 2.00034E+01 5.07874E-03 1.82200E-05-4.29018E-04 2.45699E-13 1.95777E-13
 -1      4354 2.00034E+01 2.19818E-03 3.34460E-06-9.96570E-05 8.37298E-14 4.75464E-13
 -1      4355 2.00032E+01 1.46428E-03-6.32291E-06 5.58080E-05 2.20488E-13 5.61470E-13
 -1      4356 2.00034E+01 2.81680E-03 8.20025E-06-2.05916E-04 1.79650E-13 4.63186E-13
 -1      4357 2.00031E+01 8.75414E-04 3.84742E-06 1.06674E-04 2.59678E-13 3.22512E-13
 -1      4358 2.00029E+01 3.97899E-04-2.72045E-06 1.99213E-04 2.21821E-13 2.40808E-13
 -1      4359 2.00032E+01 1.27627E-03 1.67646E-06-5.59474E-05 9.25169E-14 2.25553E-13
 -1      4360 2.00027E+01 2.49740E-05 3.84297E-06 2.24303E-04 1.50203E-13 1.74380E-13
 -1      4361 2.00025E+01-2.67793E-04-3.49864E-07 2.72724E-04 1.71157E-13 1.52332E-13
 -1      4362 2.00028E+01 2.68713E-04-2.32942E-06 3.80859E-05 3.02762E-15 9.82103E-14
 -1      4363 2.00023E+01-4.87121E-04 3.57137E-06 2.80516E-04 6.34200E-14 4.51195E-14
 -1      4364 2.00021E+01-6.50174E-04 1.09006E-06 2.99214E-04-1.12391E-13-1.17820E-13
 -1      4365 2.00024E+01-3.53551E-04-4.55910E-06 9.15689E-05 4.55845E-14-1.08729E-13
 -1      4366 2.00019E+01-7.63294E-04 3.26615E-06 2.96076E-04-1.55029E-13-6.15948E-14
 -1      4367 2.00017E+01-8.41099E-04 1.89143E-06 2.96781E-04-1.43565E-13-1.66519E-13
 -1      4368 2.00020E+01-7.04520E-04-5.48267E-06 1.17127E-04-1.55132E-13-1.59104E-13
 -1      4369 2.00014E+01-8.94837E-04 1.67233E-06 2.65562E-04-5.90298E-14-8.94014E-14
 -1      4370 1.96583E+01 2.20772E-01-3.24979E-03 4.04824E-01-4.63104E-14-1.97594E-13
 -1      4371 1.96716E+01 1.98848E-01 4.68496E-03 4.92012E-01-2.95559E-14-1.23760E-13
 -1      4372 1.99289E+01 1.14916E-01-6.16545E-04 1.97108E-02-9.04074E-14 1.70795E-15
 -1      4373 1.99175E+01 1.28216E-01-2.31595E-05 2.77928E-02-8.04285E-14-6.80531E-14
 -1      4374 1.98997E+01 1.42392E-01-8.74789E-04 3.52556E-02-5.66090E-14-7.09616E-14
 -1      4375 1.98860E+01 1.56901E-01 1.22601E-04 4.78715E-02-1.04136E-13-5.69983E-14
 -1      4376 1.90042E+01 1.11235E-01-1.60593E-02 1.57150E+00-6.69484E-14 3.29188E-14
 -1      4377 1.91566E+01 2.47046E-01 1.41832E-02 1.27397E+00-8.16860E-14-4.63280E-16
 -1      4378 1.97656E+01 2.24586E-01-2.19143E-03 1.65305E-01-1.79830E-13-1.58993E-13
 -1      4379 1.97530E+01 2.32328E-01 1.64320E-03 2.08633E-01-2.25832E-13-2.40965E-13
 -1      4380 1.99513E+01 9.06574E-02-4.27966E-04 1.05051E-02-7.60841E-14-6.81881E-14
 -1      4381 1.99422E+01 1.02270E-01-9.07283E-05 1.56195E-02-2.26552E-14-6.61219E-14
 -1      4382 1.99681E+01 7.00322E-02-2.96557E-04 5.22968E-03-5.20241E-14-1.10825E-13
 -1      4383 1.99611E+01 7.98343E-02-1.10067E-04 8.42416E-03-6.27560E-14-1.45732E-14
 -1      4384 1.99801E+01 5.34120E-02-2.01883E-04 2.35248E-03 1.43226E-13-1.70459E-13
 -1      4385 1.99748E+01 6.14909E-02-1.03118E-04 4.35364E-03 5.75428E-14-1.60446E-13
 -1      4386 1.99888E+01 3.96014E-02-1.39755E-04 7.93658E-04 2.59123E-14-2.12795E-14
 -1      4387 1.99850E+01 4.60931E-02-8.58846E-05 2.03279E-03 3.19690E-14-4.18955E-14
 -1      4388 1.99948E+01 2.87154E-02-9.29795E-05 3.17028E-05-5.15646E-15 1.72096E-13
 -1      4389 1.99922E+01 3.38121E-02-6.99389E-05 7.97607E-04 1.18592E-13 1.21892E-13
 -1      4390 1.99987E+01 2.02961E-02-6.03974E-05-2.96236E-04 1.75593E-13 6.64355E-14
 -1      4391 1.99970E+01 2.42178E-02-5.41690E-05 1.76792E-04 2.22780E-14 7.48494E-14
 -1      4392 2.00011E+01 1.39115E-02-3.79225E-05-4.00160E-04 2.40680E-13 8.06131E-14
 -1      4393 2.00001E+01 1.68701E-02-3.96142E-05-1.09014E-04 2.79339E-13 1.00181E-13
 -1      4394 2.00025E+01 9.16734E-03-2.25976E-05-3.97396E-04 2.14406E-13 7.95253E-14
 -1      4395 2.00019E+01 1.13536E-02-2.73608E-05-2.19690E-04 2.39534E-13 8.36639E-15
 -1      4396 2.00032E+01 5.71881E-03-1.23083E-05-3.50685E-04 2.32808E-13 6.84183E-14
 -1      4397 2.00029E+01 7.29821E-03-1.76655E-05-2.44242E-04 2.40533E-13-3.73957E-14
 -1      4398 2.00034E+01 3.27398E-03-5.55052E-06-2.91627E-04 2.43918E-13 2.28677E-13
 -1      4399 2.00033E+01 4.38557E-03-1.03734E-05-2.30310E-04 2.16903E-13 1.49083E-13
 -1      4400 2.00032E+01 1.59189E-03-1.25443E-06-2.34731E-04 1.41522E-14 2.15078E-13
 -1      4401 2.00033E+01 2.34978E-03-5.14268E-06-2.02155E-04 2.19887E-13 2.13428E-13
 -1      4402 2.00029E+01 4.77910E-04 1.34261E-06-1.85568E-04-1.08668E-13 1.82224E-13
 -1      4403 2.00031E+01 9.73780E-04-1.57497E-06-1.71293E-04-9.59559E-14 9.66508E-14
 -1      4404 2.00025E+01-2.22105E-04 2.78414E-06-1.45352E-04-1.25286E-13 9.16336E-14
 -1      4405 2.00027E+01 8.40257E-05 7.14872E-07-1.42598E-04-6.64487E-14 1.23917E-13
 -1      4406 2.00021E+01-6.28091E-04 3.41611E-06-1.13381E-04-1.14712E-13-1.43530E-13
 -1      4407 2.00023E+01-4.55724E-04 2.06050E-06-1.17663E-04-9.76732E-14-2.83868E-14
 -1      4408 2.00017E+01-8.34172E-04 2.79405E-06-8.93828E-05-1.28828E-13-1.33202E-13
 -1      4409 2.00019E+01-7.50427E-04 2.74801E-06-9.65022E-05-1.55518E-13-1.82557E-13
 -1      4410 2.00014E+01-8.95510E-04 1.32531E-06-9.64980E-05 1.05547E-14-3.39954E-15
 -1      4411 2.05951E+01-1.03731E+00 5.94832E-03 1.75956E+00-4.91599E-14-3.80878E-14
 -1      4412 2.03883E+01-1.09517E+00-1.17423E-02 2.10394E+00-8.15482E-14-9.25015E-14
 -1      4413 1.98878E+01-7.42525E-01-8.94387E-03 2.10602E+00-1.18542E-13-3.52803E-14
 -1      4414 2.02962E+01-7.37011E-01 1.18086E-02 1.60671E+00-4.42589E-14-4.99469E-14
 -1      4415 1.98627E+01 1.71863E-01-1.21921E-03 6.07821E-02-2.07266E-13-2.25707E-14
 -1      4416 1.98474E+01 1.86535E-01 3.95800E-04 8.01827E-02-1.21193E-13-1.37875E-13
 -1      4417 1.91216E+01 3.16250E-01-9.04472E-03 1.04682E+00-1.10969E-13 1.14516E-14
 -1      4418 1.92557E+01 3.72550E-01 8.94948E-03 8.33576E-01-1.20913E-13-1.83449E-14
 -1      4419 1.94346E+01 2.24939E-01-2.19842E-03 8.13903E-01-8.63523E-14 2.34564E-14
 -1      4420 1.97098E+01 2.35428E-01-2.76440E-03 2.62032E-01-1.55984E-13-1.65059E-13
 -1      4421 1.97055E+01 2.32575E-01 2.85728E-03 3.24473E-01-5.00777E-14-1.67836E-13
 -1      4422 1.91248E+01-1.34773E-01 1.63453E-02 2.06480E+00-1.13136E-13 5.04506E-14
 -1      4423 1.96269E+01 1.61310E-01-3.36619E-03 6.08891E-01-2.65907E-14-7.66263E-14
 -1      4424 1.96726E+01 1.07716E-01 7.31969E-03 7.25829E-01-1.06671E-13-1.07103E-13
 -1      4425 1.98177E+01 2.00797E-01-1.66045E-03 1.01621E-01-4.65754E-14-1.61738E-13
 -1      4426 1.98023E+01 2.13681E-01 8.68654E-04 1.30925E-01-6.09429E-14-1.55355E-13
 -1      4427 2.00015E+01-8.82667E-04-4.59398E-06 1.06145E-04-1.06393E-13-1.15270E-13
 -1      4428 1.94097E+01 5.18254E-02-6.26585E-03 1.20823E+00-7.07675E-14 1.37758E-14
 -1      4429 1.96440E+01 2.87112E-02-2.56714E-03 8.89317E-01-1.30878E-13-3.67595E-14
 -1      4430 1.97453E+01-7.41144E-02 1.10579E-02 1.03761E+00-4.99145E-14-1.50825E-14
 -1      4431 2.01956E+01-5.66509E-01-1.20879E-02 1.22061E+00-8.03294E-14-1.78541E-13
 -1      4432 1.95272E+01-3.48107E-01 3.65251E-03 1.90587E+00-1.24750E-13 3.02108E-14
 -1      4433 1.97571E+01-2.17770E-01-5.57826E-04 1.25589E+00-7.11874E-14-7.16755E-15
 -1      4434 1.99230E+01-4.01695E-01 5.82742E-03 1.42969E+00-8.63554E-14 1.40771E-14
 -1      4435 1.97641E+01-3.90051E-01 1.07840E-03 1.64086E+00-8.42028E-14 2.89014E-14
 -3
    1PSTEP                         3           1           1          
  100CL  101 1.000000000        4435                     0    1           1
 -4  TOSTRAIN    6    1
 -5  EXX         1    4    1    1
 -5  EYY         1    4    2    2
 -5  EZZ         1    4    3    3
 -5  EXY         1    4    1    2
 -5  EYZ         1    4    2    3
 -5  EZX         1    4    3    1
 -1         1 1.69771E-05 8.64766E-06-1.78762E-05 2.14559E-05-2.15926E-17-1.92814E-17
 -1         2 3.93071E-05-1.20217E-04 2.23026E-05 1.68392E-08-5.46739E-18 6.97479E-19
 -1         3 9.52372E-05-2.85711E-05-2.85712E-05 2.62632E-11-3.95441E-18-3.36630E-18
 -1         4 9.52372E-05-2.85711E-05-2.85712E-05-3.22851E-11-1.28470E-18 4.69919E-19
 -1         5 1.47944E-04-2.24240E-05-4.34127E-05 4.06164E-05-2.05300E-19 1.76904E-17
 -1         6 1.68021E-04 3.40745E-10-5.37975E-05-5.40050E-05-6.41204E-19 1.65419E-17
 -1         7 1.12984E-04-1.52534E-06-4.69771E-05-1.90440E-05-8.49151E-20 5.24824E-18
 -1         8 9.42802E-05-9.48582E-08-4.00313E-05-5.86325E-06-2.01806E-19 9.61717E-19
 -1         9 7.85871E-05 3.76126E-07-3.41833E-05-3.21924E-06-2.03923E-19-1.77807E-18
 -1        10 6.76186E-05 5.78685E-07-2.99290E-05-5.96031E-06-1.55589E-19-3.35134E-18
 -1        11 6.28550E-05 5.79691E-07-2.79051E-05-1.08471E-05-1.44313E-19-4.05461E-18
 -1        12 6.39313E-05 4.25363E-07-2.80327E-05-1.48007E-05-9.84676E-20-4.32821E-18
 -1        13 6.89411E-05 1.92455E-07-2.96778E-05-1.59310E-05-1.01803E-19-4.27633E-18
 -1        14 7.52624E-05-1.63615E-08-3.19472E-05-1.36988E-05-7.50154E-20-4.08562E-18
 -1        15 8.08096E-05-1.45227E-07-3.40674E-05-8.91895E-06-3.31931E-20-3.93704E-18
 -1        16 8.45583E-05-1.87751E-07-3.56002E-05-2.86257E-06 6.64391E-21-3.84004E-18
 -1        17 8.63978E-05-1.66841E-07-3.64390E-05 3.39589E-06 1.25334E-20-3.62273E-18
 -1        18 8.67645E-05-1.11527E-07-3.67044E-05 9.15132E-06 6.10310E-20-3.28973E-18
 -1        19 8.63123E-05-3.11178E-08-3.66484E-05 1.44079E-05 1.26191E-19-2.68767E-18
 -1        20 8.58583E-05 7.81986E-08-3.66178E-05 1.91986E-05 1.81487E-19-1.50326E-18
 -1        21 8.66630E-05 2.52781E-07-3.71599E-05 2.40518E-05 2.10647E-19 9.17471E-19
 -1        22 9.26620E-05 8.93433E-08-3.93778E-05 3.10108E-05 4.37281E-20 5.99895E-18
 -1        23 1.54019E-04-5.16796E-05-4.76641E-05-1.95036E-06-3.60730E-19 1.43648E-17
 -1        24 1.47538E-04-4.41659E-05-4.55469E-05 1.41702E-06-1.60665E-19 1.26775E-17
 -1        25 1.59944E-04-4.80916E-05-4.80619E-05 1.58260E-06-4.34253E-20 1.12135E-17
 -1        26 1.73974E-04-5.24325E-05-5.11124E-05 1.30511E-06 9.97563E-20 1.14472E-17
 -1        27 1.77972E-04-5.39172E-05-5.10514E-05-7.01582E-07 2.57405E-19 1.32695E-17
 -1        28 1.56432E-04-4.71796E-05-4.56718E-05-5.35742E-06 1.07176E-19 1.50617E-17
 -1        29 1.14253E-04-3.26926E-05-3.78623E-05-6.61191E-06-2.99770E-20 1.42717E-17
 -1        30 8.14843E-05-2.17769E-05-3.21660E-05-3.08833E-06-2.43893E-19 1.00850E-17
 -1        31 8.26230E-05-2.22531E-05-3.22106E-05 3.39687E-06-3.14646E-19 2.24633E-18
 -1        32 1.16054E-04-3.37539E-05-3.77929E-05 5.88136E-06 7.91446E-21-3.54716E-18
 -1        33 1.55882E-04-4.69922E-05-4.54437E-05 4.13692E-06-1.95645E-19-6.29303E-18
 -1        34 1.77038E-04-5.37203E-05-5.07704E-05 8.85529E-07 3.64641E-19-5.63393E-18
 -1        35 1.72771E-04-5.21104E-05-5.06690E-05-8.35058E-07 2.00012E-20-3.86517E-18
 -1        36 1.56374E-04-4.69250E-05-4.68050E-05-1.01981E-06 4.54537E-19-1.97533E-18
 -1        37 1.39073E-04-4.16635E-05-4.20193E-05-7.34741E-07-2.05348E-20 3.15149E-19
 -1        38 1.25173E-04-3.75044E-05-3.78776E-05-4.32456E-07-2.25125E-20 3.60068E-19
 -1        39 1.15547E-04-3.46495E-05-3.49133E-05-2.56495E-07 1.37927E-19-1.34016E-19
 -1        40 1.08584E-04-3.25745E-05-3.27370E-05-1.34791E-07-3.27289E-19-4.28202E-19
 -1        41 1.03959E-04-3.11949E-05-3.12866E-05-6.89262E-08 7.65764E-19-1.37406E-18
 -1        42 1.00917E-04-3.02843E-05-3.03347E-05-3.41204E-08-3.58061E-19-1.72520E-19
 -1        43 9.89218E-05-2.96850E-05-2.97126E-05-1.60070E-08-4.43284E-20-7.84319E-19
 -1        44 9.76118E-05-2.92904E-05-2.93055E-05-6.75208E-09 2.95587E-20 1.39375E-19
 -1        45 9.67493E-05-2.90301E-05-2.90384E-05-2.12970E-09-2.82119E-19-3.19169E-18
 -1        46 9.61806E-05-2.88581E-05-2.88627E-05 9.59015E-11 4.37757E-19-4.78158E-18
 -1        47 9.58058E-05-2.87446E-05-2.87471E-05 1.09479E-09-9.18141E-20-2.60784E-18
 -1        48 9.55600E-05-2.86701E-05-2.86714E-05 1.47465E-09-6.96294E-20-2.18677E-18
 -1        49 9.54004E-05-2.86216E-05-2.86223E-05 1.54882E-09-4.05268E-19-2.04575E-19
 -1        50 9.52989E-05-2.85908E-05-2.85911E-05 1.47761E-09 3.20553E-19 1.17396E-18
 -1        51 9.52364E-05-2.85717E-05-2.85718E-05 1.34243E-09-5.24055E-19-4.43747E-19
 -1        52 9.52001E-05-2.85606E-05-2.85606E-05 1.18427E-09 7.47038E-19 6.42088E-19
 -1        53 9.51812E-05-2.85548E-05-2.85547E-05 1.02397E-09-1.81014E-19 1.91094E-18
 -1        54 9.51735E-05-2.85523E-05-2.85522E-05 8.69849E-10-2.47682E-19-1.39925E-18
 -1        55 9.51730E-05-2.85521E-05-2.85520E-05 7.54365E-10 2.28938E-19-3.13611E-18
 -1        56 9.51765E-05-2.85531E-05-2.85530E-05 6.01130E-10-8.54904E-19-2.69242E-18
 -1        57 9.51824E-05-2.85548E-05-2.85547E-05 5.00031E-10-4.41581E-19-4.87028E-18
 -1        58 9.51895E-05-2.85569E-05-2.85568E-05 4.03700E-10 6.23729E-19-1.65791E-18
 -1        59 9.51967E-05-2.85591E-05-2.85590E-05 3.22029E-10-4.15831E-19 1.63844E-18
 -1        60 9.52037E-05-2.85611E-05-2.85610E-05 2.53579E-10 1.27230E-19-4.05395E-18
 -1        61 9.52100E-05-2.85630E-05-2.85629E-05 1.97087E-10 1.99695E-19-3.97648E-18
 -1        62 9.52156E-05-2.85647E-05-2.85646E-05 1.51195E-10 1.62854E-18-6.97290E-19
 -1        63 9.52203E-05-2.85661E-05-2.85660E-05 1.14536E-10-1.69804E-19 1.84541E-18
 -1        64 9.52244E-05-2.85673E-05-2.85673E-05 8.57909E-11 6.88705E-19 9.50366E-19
 -1        65 9.52277E-05-2.85683E-05-2.85683E-05 6.37258E-11 4.34903E-19 3.54052E-18
 -1        66 9.52304E-05-2.85691E-05-2.85691E-05 4.71926E-11-1.05601E-19 1.02890E-18
 -1        67 9.52326E-05-2.85698E-05-2.85697E-05 3.50782E-11-2.21156E-19-4.44071E-18
 -1        68 9.52343E-05-2.85703E-05-2.85703E-05 2.62083E-11-4.26039E-19-5.48677E-18
 -1        69 9.52356E-05-2.85707E-05-2.85707E-05 1.91221E-11 1.43879E-18-3.35668E-18
 -1        70 9.52365E-05-2.85710E-05-2.85709E-05 1.09899E-11 6.19748E-20 1.01979E-18
 -1        71 9.52371E-05-2.85711E-05-2.85711E-05-2.32445E-12-3.10640E-19 3.17075E-18
 -1        72 9.52372E-05-2.85712E-05-2.85712E-05-3.98969E-11 1.30311E-18 4.64098E-18
 -1        73 1.02288E-04-3.06061E-05-3.42802E-05-1.80509E-06 2.54560E-19 1.61953E-17
 -1        74 8.95991E-05-2.66075E-05-2.80647E-05-3.02201E-07 7.55381E-20 1.24826E-17
 -1        75 8.31991E-05-2.49368E-05-2.51809E-05-6.79512E-08 4.98318E-20 9.86573E-18
 -1        76 7.88575E-05-2.37014E-05-2.36554E-05 1.28165E-08 1.45855E-19 7.70220E-18
 -1        77 7.54193E-05-2.26679E-05-2.26213E-05 7.66875E-08 1.69498E-20 6.30863E-18
 -1        78 7.27748E-05-2.18605E-05-2.18725E-05 1.06677E-07-5.31650E-20 5.25076E-18
 -1        79 7.12354E-05-2.13845E-05-2.14520E-05 9.33751E-08-8.43956E-20 4.57957E-18
 -1        80 7.11515E-05-2.13472E-05-2.14475E-05 4.14912E-08 1.61112E-19 3.62580E-18
 -1        81 7.26685E-05-2.17938E-05-2.18968E-05-3.20648E-08-1.93620E-19 2.74993E-18
 -1        82 7.56174E-05-2.26743E-05-2.27527E-05-1.04512E-07 4.33352E-20 2.64151E-18
 -1        83 7.95441E-05-2.38524E-05-2.38899E-05-1.55240E-07 8.76749E-20 2.02596E-18
 -1        84 8.38488E-05-2.51477E-05-2.51394E-05-1.74095E-07-8.47971E-20 4.22961E-19
 -1        85 8.79979E-05-2.64349E-05-2.63220E-05-1.71578E-07-3.30349E-20 3.26439E-19
 -1        86 9.11222E-05-2.73046E-05-2.72387E-05-1.69215E-07-8.56740E-20 1.31258E-18
 -1        87 9.34506E-05-2.80359E-05-2.79807E-05-8.87187E-08 1.66977E-19-6.27304E-19
 -1        88 9.51401E-05-2.85428E-05-2.84967E-05-5.55747E-08-2.64034E-19-5.68392E-19
 -1        89 9.61498E-05-2.88453E-05-2.88116E-05-2.93058E-08-5.14163E-20-6.11903E-19
 -1        90 9.66394E-05-2.89918E-05-2.89700E-05-1.09833E-08 2.07167E-19-7.81951E-19
 -1        91 9.67710E-05-2.90311E-05-2.90189E-05 2.74630E-10-3.66041E-19-6.90691E-19
 -1        92 9.66834E-05-2.90047E-05-2.89994E-05 6.15316E-09-1.99435E-19 8.65276E-19
 -1        93 9.64816E-05-2.89442E-05-2.89432E-05 8.40072E-09-4.92072E-20 1.32350E-18
 -1        94 9.62378E-05-2.88711E-05-2.88725E-05 8.47082E-09-3.15395E-20 2.04223E-19
 -1        95 9.59968E-05-2.87990E-05-2.88014E-05 7.41897E-09 3.49026E-19-1.75464E-18
 -1        96 9.57827E-05-2.87348E-05-2.87375E-05 5.93355E-09 8.05247E-21-2.76442E-18
 -1        97 9.56057E-05-2.86818E-05-2.86843E-05 4.41756E-09-2.84591E-19-1.74840E-19
 -1        98 9.54674E-05-2.86404E-05-2.86424E-05 3.07588E-09 2.38003E-19-6.59050E-19
 -1        99 9.53645E-05-2.86095E-05-2.86111E-05 1.98812E-09-6.16383E-19-1.47155E-18
 -1       100 9.52917E-05-2.85877E-05-2.85889E-05 1.16212E-09-1.23460E-19-8.12211E-19
 -1       101 9.52430E-05-2.85730E-05-2.85739E-05 5.69666E-10-1.73880E-19-9.55038E-19
 -1       102 9.52125E-05-2.85639E-05-2.85644E-05 1.68499E-10 8.23131E-19-1.26818E-18
 -1       103 9.51955E-05-2.85588E-05-2.85591E-05-8.53169E-11-3.03489E-19-8.70537E-19
 -1       104 9.51879E-05-2.85564E-05-2.85566E-05-2.31249E-10-1.48039E-20 7.92144E-20
 -1       105 9.51864E-05-2.85560E-05-2.85561E-05-3.01886E-10 5.75699E-19-3.52561E-18
 -1       106 9.51889E-05-2.85567E-05-2.85567E-05-3.22614E-10-2.54472E-19-3.35901E-18
 -1       107 9.51936E-05-2.85581E-05-2.85581E-05-3.12314E-10 1.25171E-19-3.10842E-18
 -1       108 9.51993E-05-2.85598E-05-2.85597E-05-2.84463E-10 5.74347E-21-4.87928E-18
 -1       109 9.52052E-05-2.85616E-05-2.85615E-05-2.48295E-10 7.47813E-20-2.75204E-18
 -1       110 9.52109E-05-2.85633E-05-2.85632E-05-2.09850E-10 9.83007E-21-6.57056E-19
 -1       111 9.52161E-05-2.85648E-05-2.85648E-05-1.72860E-10 8.46736E-19-1.30492E-18
 -1       112 9.52206E-05-2.85662E-05-2.85661E-05-1.39444E-10-2.90671E-19-2.49568E-18
 -1       113 9.52245E-05-2.85674E-05-2.85673E-05-1.10640E-10-3.05460E-19-1.16471E-18
 -1       114 9.52278E-05-2.85683E-05-2.85683E-05-8.67930E-11 3.01048E-19-6.40751E-19
 -1       115 9.52304E-05-2.85691E-05-2.85691E-05-6.78224E-11 2.24156E-19-1.86095E-18
 -1       116 9.52326E-05-2.85698E-05-2.85697E-05-5.33736E-11-1.76724E-19-4.57512E-18
 -1       117 9.52343E-05-2.85703E-05-2.85703E-05-4.28013E-11-5.24566E-19-4.47403E-18
 -1       118 9.52356E-05-2.85707E-05-2.85707E-05-3.48753E-11 7.33514E-19-7.48332E-18
 -1       119 9.52365E-05-2.85710E-05-2.85709E-05-2.71346E-11-1.05281E-18-8.06439E-18
 -1       120 9.52371E-05-2.85711E-05-2.85711E-05-1.13039E-11 7.70739E-19-7.39907E-18
 -1       121 9.52372E-05-2.85712E-05-2.85712E-05 2.70716E-11 1.76794E-18-1.03899E-17
 -1       122 9.52371E-05-2.85711E-05-2.85712E-05 4.01849E-11-1.04235E-17 7.16795E-19
 -1       123 9.52372E-05-2.85712E-05-2.85711E-05 2.56249E-13-1.03060E-17-3.55839E-20
 -1       124 9.52373E-05-2.85718E-05-2.85709E-05-2.76287E-11-6.99562E-18 5.77752E-19
 -1       125 9.52376E-05-2.85726E-05-2.85707E-05-3.73099E-11-3.68528E-18 8.55195E-19
 -1       126 9.52378E-05-2.85734E-05-2.85705E-05-3.78450E-11-5.78845E-18-2.18660E-18
 -1       127 9.52381E-05-2.85742E-05-2.85702E-05-3.18986E-11-1.32218E-17-5.20919E-19
 -1       128 9.52382E-05-2.85748E-05-2.85701E-05-2.09240E-11-9.69078E-18-2.40683E-19
 -1       129 9.52383E-05-2.85751E-05-2.85700E-05-7.15503E-12-4.33603E-18 3.60198E-19
 -1       130 9.52383E-05-2.85751E-05-2.85700E-05 7.52273E-12 7.47421E-19 1.48124E-18
 -1       131 9.52382E-05-2.85748E-05-2.85701E-05 2.12448E-11 2.53883E-18-8.50637E-19
 -1       132 9.52381E-05-2.85742E-05-2.85702E-05 3.24580E-11-2.67073E-18-8.55491E-19
 -1       133 9.52378E-05-2.85734E-05-2.85705E-05 3.81148E-11-3.13776E-18 2.01273E-18
 -1       134 9.52376E-05-2.85726E-05-2.85707E-05 3.73188E-11 1.75294E-18-9.43946E-19
 -1       135 9.52373E-05-2.85718E-05-2.85709E-05 2.64187E-11-3.72644E-18-9.23497E-20
 -1       136 9.52372E-05-2.85712E-05-2.85711E-05-5.66631E-12-4.35622E-18-5.50012E-19
 -1       137 9.52371E-05-2.85710E-05-2.85712E-05-4.65097E-11-7.35305E-18 2.89768E-18
 -1       138 2.48619E-05-8.34609E-05 1.47622E-05-2.17591E-05 7.64532E-18 2.10911E-18
 -1       139 5.70817E-06-2.10522E-05-5.52059E-07-1.07359E-05 1.67001E-17 8.19144E-18
 -1       140 1.62768E-05 2.67968E-05-2.10045E-05 3.86366E-05 1.96757E-17 1.52326E-17
 -1       141 7.65215E-05 3.05506E-05-4.28005E-05 9.75741E-05 1.63405E-17 1.90006E-17
 -1       142 1.71516E-04-8.55163E-06-6.19595E-05 1.24400E-04 8.72211E-18 1.54567E-17
 -1       143 2.72751E-04-6.60948E-05-7.73175E-05 9.72329E-05 2.61918E-18 8.77145E-18
 -1       144 3.23192E-04-9.90918E-05-8.36288E-05 2.16900E-05 4.48822E-19 3.45113E-19
 -1       145 3.02402E-04-8.62743E-05-8.11302E-05-6.31812E-05 1.96187E-18-1.01333E-17
 -1       146 2.23490E-04-3.83139E-05-7.06490E-05-1.16502E-04 6.96071E-18-1.72511E-17
 -1       147 1.23663E-04 1.36048E-05-5.40999E-05-1.16857E-04 1.32366E-17-1.96668E-17
 -1       148 4.40225E-05 3.50330E-05-3.37009E-05-7.36315E-05 1.82485E-17-1.77627E-17
 -1       149 7.68316E-06 1.38701E-05-1.32733E-05-1.86163E-05 1.96444E-17-1.26784E-17
 -1       150 1.09131E-05-3.73144E-05 3.73328E-06 1.36107E-05 1.67268E-17-6.29631E-18
 -1       151 2.86011E-05-9.06879E-05 1.62862E-05 1.43725E-05 8.49151E-18-1.57212E-18
 -1       152 3.66076E-05-1.13144E-04 2.07310E-05-1.22167E-05-1.34726E-18-2.76874E-19
 -1       153 2.29578E-05-9.00847E-05 1.62769E-05-3.66698E-05-1.22786E-17-4.12833E-18
 -1       154 4.41015E-06-3.72394E-05 3.16040E-06-2.79908E-05-1.93170E-17-1.11421E-17
 -1       155 8.19056E-05 1.52322E-05-4.19691E-05 8.38189E-05-1.84285E-17-2.47461E-17
 -1       156 2.00227E-04-2.58841E-05-6.61863E-05 1.20624E-04-1.17672E-17-2.49942E-17
 -1       157 3.21513E-04-8.58578E-05-8.38099E-05 9.59349E-05-4.77430E-18-1.96956E-17
 -1       158 3.87373E-04-1.21440E-04-9.22584E-05 1.25650E-05-1.09532E-18-8.02744E-18
 -1       159 3.52094E-04-1.01741E-04-8.80639E-05-7.76613E-05-1.28768E-18 5.22662E-18
 -1       160 2.42471E-04-4.42141E-05-7.30171E-05-1.22770E-04-7.15192E-18 1.71736E-17
 -1       161 1.18643E-04 7.33471E-06-5.09177E-05-1.04002E-04-1.37401E-17 2.13325E-17
 -1       162 3.46485E-05 1.84784E-05-2.68999E-05-4.72754E-05-1.88359E-17 1.96639E-17
 -1       163 3.66564E-06-1.56866E-05-3.93934E-06 1.20166E-05-2.06786E-17 1.42081E-17
 -1       164 1.41534E-05-6.94292E-05 1.20661E-05 3.77623E-05-2.12415E-17 8.36445E-18
 -1       165 3.33370E-05-1.11754E-04 2.09501E-05 2.91985E-05-1.68383E-17 3.60987E-18
 -1       166 1.14227E-04-1.69778E-05-4.17620E-05-8.53460E-06-1.69351E-18 2.80868E-18
 -1       167 8.89765E-05-5.02734E-06-3.61044E-05-4.30439E-06-1.78901E-18-2.28302E-19
 -1       168 6.98314E-05 2.93738E-06-3.12962E-05-5.35332E-06-1.78306E-18-2.21722E-18
 -1       169 5.95446E-05 6.27359E-06-2.82922E-05-9.74537E-06-1.84396E-18-3.33544E-18
 -1       170 5.88746E-05 5.00430E-06-2.74446E-05-1.43729E-05-1.82200E-18-3.68703E-18
 -1       171 6.54860E-05 6.08028E-07-2.83871E-05-1.66132E-05-1.68253E-18-3.66448E-18
 -1       172 7.51498E-05-4.43700E-06-3.03648E-05-1.52456E-05-1.37150E-18-3.44235E-18
 -1       173 8.39661E-05-8.18659E-06-3.25404E-05-1.09175E-05-9.15279E-19-3.23611E-18
 -1       174 8.99393E-05-1.00074E-05-3.43266E-05-5.03351E-06-4.39842E-19-3.09896E-18
 -1       175 9.28381E-05-1.02622E-05-3.54695E-05 1.16426E-06 2.21899E-20-2.90821E-18
 -1       176 9.34077E-05-9.68495E-06-3.59719E-05 6.88356E-06 5.71144E-19-2.62076E-18
 -1       177 9.26883E-05-8.91445E-06-3.60090E-05 1.21066E-05 1.18968E-18-2.21088E-18
 -1       178 9.17532E-05-8.51083E-06-3.58119E-05 1.68204E-05 1.75898E-18-1.48225E-18
 -1       179 9.20194E-05-9.20021E-06-3.56878E-05 2.13111E-05 2.15322E-18 1.33050E-19
 -1       180 9.65508E-05-1.32889E-05-3.59323E-05 2.54867E-05 2.23044E-18 3.15305E-18
 -1       181 1.05822E-04-2.57353E-05-3.55856E-05 2.14340E-05 1.71894E-18 7.23292E-18
 -1       182 1.36371E-04-3.67892E-05-4.26461E-05-1.03694E-08-1.20048E-18 5.84356E-18
 -1       183 1.37112E-04-3.97131E-05-4.17650E-05 9.97395E-06-7.09933E-19 5.54564E-18
 -1       184 1.42935E-04-4.33534E-05-4.25941E-05 1.27756E-05 3.51208E-19 5.68309E-18
 -1       185 1.51697E-04-4.99687E-05-4.34461E-05 6.20886E-06 1.26314E-18 6.37795E-18
 -1       186 1.59381E-04-5.62711E-05-4.41231E-05-1.27877E-05 1.28682E-18 7.09640E-18
 -1       187 1.59449E-04-5.26059E-05-4.61345E-05-3.16432E-05-8.30278E-19 7.16950E-18
 -1       188 1.38231E-04-2.94906E-05-4.80702E-05 7.51867E-07-5.51111E-18 2.54314E-18
 -1       189 1.43779E-04-3.68233E-05-4.70532E-05 2.71150E-05-4.15216E-18-1.02998E-18
 -1       190 1.54463E-04-4.98955E-05-4.52474E-05 2.99266E-05-1.68925E-18-3.92195E-18
 -1       191 1.58297E-04-5.40551E-05-4.45166E-05 1.16326E-05 6.92449E-19-4.06159E-18
 -1       192 1.52085E-04-4.92548E-05-4.38709E-05-6.50015E-06 8.32210E-19-3.34648E-18
 -1       193 1.41302E-04-4.31060E-05-4.20295E-05-1.39403E-05 9.64294E-19-1.48362E-18
 -1       194 1.30207E-04-3.84970E-05-3.93284E-05-1.39613E-05 1.52279E-18-7.71832E-19
 -1       195 1.20671E-04-3.53659E-05-3.65871E-05-1.12058E-05 2.06398E-19-1.24044E-19
 -1       196 1.13540E-04-3.33295E-05-3.43871E-05-8.28044E-06 2.20149E-19 3.64122E-19
 -1       197 1.07941E-04-3.18401E-05-3.26121E-05-5.74554E-06-5.25323E-19-2.98290E-19
 -1       198 1.03965E-04-3.08174E-05-3.13408E-05-3.88675E-06 5.31976E-20-1.83596E-19
 -1       199 1.01190E-04-3.01093E-05-3.04542E-05-2.60027E-06 5.34302E-19-1.77805E-19
 -1       200 9.92744E-05-2.96195E-05-2.98446E-05-1.73349E-06 5.88779E-20-1.34545E-19
 -1       201 9.79596E-05-2.92812E-05-2.94279E-05-1.15586E-06 1.88799E-19 1.51935E-19
 -1       202 9.70590E-05-2.90475E-05-2.91436E-05-7.71887E-07-1.85276E-18-4.84258E-19
 -1       203 9.64427E-05-2.88864E-05-2.89497E-05-5.16017E-07 2.68296E-20-8.22123E-19
 -1       204 9.60215E-05-2.87755E-05-2.88176E-05-3.44652E-07 1.14573E-18-1.19652E-18
 -1       205 9.57344E-05-2.86996E-05-2.87277E-05-2.29197E-07-1.06273E-19-4.11398E-19
 -1       206 9.55399E-05-2.86480E-05-2.86669E-05-1.50984E-07 1.18402E-18 2.23713E-19
 -1       207 9.54094E-05-2.86134E-05-2.86261E-05-9.78051E-08 5.07694E-19 1.53595E-18
 -1       208 9.53232E-05-2.85906E-05-2.85992E-05-6.16213E-08-9.16246E-19 3.47674E-19
 -1       209 9.52678E-05-2.85761E-05-2.85818E-05-3.70866E-08 6.92394E-19 1.60602E-18
 -1       210 9.52334E-05-2.85672E-05-2.85710E-05-2.06001E-08-3.91152E-19 6.95995E-19
 -1       211 9.52135E-05-2.85622E-05-2.85647E-05-9.70461E-09-1.64109E-18-3.28922E-19
 -1       212 9.52033E-05-2.85599E-05-2.85613E-05-2.68327E-09-1.18509E-18-2.11910E-18
 -1       213 9.51994E-05-2.85592E-05-2.85600E-05 1.46865E-09-5.07282E-19-3.26913E-18
 -1       214 9.51994E-05-2.85595E-05-2.85599E-05 4.01170E-09-1.38827E-18-2.82752E-18
 -1       215 9.52017E-05-2.85604E-05-2.85605E-05 5.29480E-09 1.44139E-18-1.89377E-18
 -1       216 9.52054E-05-2.85616E-05-2.85616E-05 5.73829E-09 1.51619E-18-2.17366E-18
 -1       217 9.52097E-05-2.85630E-05-2.85628E-05 5.65444E-09-2.79549E-18-3.17928E-18
 -1       218 9.52140E-05-2.85643E-05-2.85641E-05 5.25928E-09 1.17209E-18-1.96733E-18
 -1       219 9.52181E-05-2.85656E-05-2.85654E-05 4.70170E-09 1.09144E-18-9.72607E-19
 -1       220 9.52218E-05-2.85667E-05-2.85665E-05 4.08145E-09 1.96230E-18-2.63645E-18
 -1       221 9.52251E-05-2.85677E-05-2.85675E-05 3.46250E-09 9.61959E-19 2.28318E-19
 -1       222 9.52279E-05-2.85685E-05-2.85683E-05 2.88295E-09 1.18898E-18 1.87357E-18
 -1       223 9.52302E-05-2.85692E-05-2.85690E-05 2.36209E-09-2.06377E-18 9.74045E-19
 -1       224 9.52322E-05-2.85698E-05-2.85696E-05 1.90552E-09-2.79787E-18-3.34654E-19
 -1       225 9.52337E-05-2.85702E-05-2.85701E-05 1.50834E-09-7.09109E-19 1.41525E-19
 -1       226 9.52350E-05-2.85706E-05-2.85705E-05 1.15753E-09 7.48059E-19 2.08952E-19
 -1       227 9.52359E-05-2.85708E-05-2.85707E-05 8.32977E-10 3.17548E-18 6.19664E-19
 -1       228 9.52366E-05-2.85710E-05-2.85709E-05 5.12048E-10 2.42591E-19 6.31079E-19
 -1       229 9.52370E-05-2.85712E-05-2.85711E-05 1.96339E-10 1.65163E-18 4.28919E-18
 -1       230 9.52371E-05-2.85712E-05-2.85711E-05 3.14804E-11-2.41770E-18 4.37886E-18
 -1       231 9.81859E-05-2.81455E-05-3.02175E-05 9.65239E-06 1.64904E-18 6.39137E-18
 -1       232 9.09597E-05-2.68189E-05-2.74544E-05 5.37869E-06 1.36623E-18 5.31515E-18
 -1       233 8.62434E-05-2.57118E-05-2.58904E-05 3.81229E-06 1.00191E-18 4.34797E-18
 -1       234 8.27633E-05-2.47100E-05-2.48508E-05 2.95206E-06 7.58275E-19 3.46518E-18
 -1       235 8.02211E-05-2.38783E-05-2.41328E-05 2.09379E-06 5.07532E-19 2.72834E-18
 -1       236 7.86902E-05-2.33406E-05-2.37145E-05 9.79982E-07 4.26969E-19 2.21954E-18
 -1       237 7.83165E-05-2.31895E-05-2.36218E-05-3.54653E-07 6.71358E-19 1.60713E-18
 -1       238 7.91528E-05-2.34641E-05-2.38629E-05-1.70358E-06 3.87243E-19 1.08216E-18
 -1       239 8.10642E-05-2.41201E-05-2.44007E-05-2.80809E-06 1.32643E-19 6.59294E-19
 -1       240 8.37308E-05-2.50357E-05-2.51513E-05-3.46753E-06 4.37684E-19 5.49044E-19
 -1       241 8.67245E-05-2.60456E-05-2.60016E-05-3.61335E-06 6.01781E-19 2.58135E-19
 -1       242 8.96157E-05-2.69880E-05-2.68273E-05-3.33623E-06-7.07066E-20 2.76593E-20
 -1       243 9.19651E-05-2.77472E-05-2.74999E-05-2.59273E-06-8.15848E-20-2.60061E-19
 -1       244 9.37334E-05-2.82713E-05-2.80568E-05-1.87611E-06 6.48089E-19 1.04870E-19
 -1       245 9.50476E-05-2.86447E-05-2.84612E-05-1.23593E-06-1.02924E-19-2.52439E-19
 -1       246 9.58705E-05-2.88609E-05-2.87216E-05-7.04891E-07-1.88999E-19-1.47758E-19
 -1       247 9.63033E-05-2.89595E-05-2.88646E-05-3.09929E-07 1.66439E-19 3.43383E-19
 -1       248 9.64558E-05-2.89787E-05-2.89213E-05-4.53574E-08-3.41396E-19 5.05782E-19
 -1       249 9.64269E-05-2.89498E-05-2.89206E-05 1.11513E-07-5.93683E-19 3.92298E-19
 -1       250 9.62953E-05-2.88965E-05-2.88864E-05 1.88620E-07-2.01144E-19 3.32186E-19
 -1       251 9.61177E-05-2.88347E-05-2.88363E-05 2.12127E-07 4.40120E-19-3.29658E-19
 -1       252 9.59314E-05-2.87743E-05-2.87820E-05 2.03233E-07 8.35606E-19-5.66697E-19
 -1       253 9.57585E-05-2.87205E-05-2.87306E-05 1.77439E-07 6.71763E-20-4.97891E-19
 -1       254 9.56099E-05-2.86756E-05-2.86860E-05 1.45121E-07-1.08082E-18-2.06267E-19
 -1       255 9.54893E-05-2.86401E-05-2.86495E-05 1.12616E-07 1.29052E-19 8.34677E-19
 -1       256 9.53959E-05-2.86131E-05-2.86210E-05 8.33479E-08 2.25483E-19 1.18543E-18
 -1       257 9.53267E-05-2.85935E-05-2.85998E-05 5.88086E-08 2.80842E-19-5.85233E-19
 -1       258 9.52777E-05-2.85799E-05-2.85846E-05 3.93016E-08-2.58929E-19-1.34441E-18
 -1       259 9.52447E-05-2.85709E-05-2.85743E-05 2.44725E-08-7.87214E-20 2.68039E-19
 -1       260 9.52238E-05-2.85654E-05-2.85678E-05 1.36590E-08-6.64444E-19 1.40227E-18
 -1       261 9.52119E-05-2.85624E-05-2.85640E-05 6.10556E-09 7.37643E-19 6.15810E-19
 -1       262 9.52063E-05-2.85612E-05-2.85621E-05 1.08477E-09 1.62733E-18 1.04894E-19
 -1       263 9.52049E-05-2.85610E-05-2.85616E-05-2.04283E-09 1.45347E-19-5.26282E-19
 -1       264 9.52061E-05-2.85616E-05-2.85619E-05-3.80681E-09 7.87780E-19-1.18849E-18
 -1       265 9.52089E-05-2.85626E-05-2.85627E-05-4.62671E-09 5.50886E-19-1.66012E-18
 -1       266 9.52124E-05-2.85638E-05-2.85637E-05-4.82278E-09-1.93224E-18-7.38393E-19
 -1       267 9.52162E-05-2.85649E-05-2.85648E-05-4.63150E-09-8.92879E-19-1.27554E-18
 -1       268 9.52198E-05-2.85661E-05-2.85659E-05-4.22162E-09 1.43450E-18-1.83873E-18
 -1       269 9.52232E-05-2.85671E-05-2.85669E-05-3.70917E-09-1.52603E-19-1.92490E-18
 -1       270 9.52262E-05-2.85680E-05-2.85678E-05-3.17016E-09-3.10535E-19-1.37121E-18
 -1       271 9.52288E-05-2.85687E-05-2.85686E-05-2.65094E-09 3.91623E-19-2.36544E-18
 -1       272 9.52309E-05-2.85694E-05-2.85692E-05-2.17616E-09 1.21408E-18-2.81471E-18
 -1       273 9.52327E-05-2.85699E-05-2.85698E-05-1.75451E-09 6.91242E-19-3.52228E-18
 -1       274 9.52342E-05-2.85703E-05-2.85702E-05-1.38261E-09 7.73958E-19-3.58519E-18
 -1       275 9.52353E-05-2.85707E-05-2.85706E-05-1.04745E-09 1.79641E-18-3.36553E-18
 -1       276 9.52361E-05-2.85709E-05-2.85708E-05-7.29426E-10-5.36586E-19-3.88993E-18
 -1       277 9.52367E-05-2.85711E-05-2.85710E-05-4.05697E-10 8.28337E-19-4.90860E-18
 -1       278 9.52370E-05-2.85712E-05-2.85711E-05-9.72496E-11-2.31477E-20-5.01888E-18
 -1       279 9.52371E-05-2.85714E-05-2.85710E-05-2.82057E-10-2.71633E-18-6.64098E-19
 -1       280 9.52372E-05-2.85718E-05-2.85709E-05-5.98563E-10-3.68802E-18 1.79392E-18
 -1       281 9.52375E-05-2.85723E-05-2.85708E-05-8.10410E-10-3.15404E-18 1.07669E-18
 -1       282 9.52377E-05-2.85730E-05-2.85706E-05-8.78412E-10-4.59382E-18-4.81011E-19
 -1       283 9.52379E-05-2.85736E-05-2.85704E-05-8.03871E-10-4.30078E-18-4.15851E-18
 -1       284 9.52381E-05-2.85741E-05-2.85703E-05-6.07670E-10-2.72833E-18 1.46626E-18
 -1       285 9.52382E-05-2.85744E-05-2.85702E-05-3.24646E-10-2.94917E-18 3.81401E-18
 -1       286 9.52383E-05-2.85745E-05-2.85702E-05 3.26547E-12-4.54721E-19 3.90328E-18
 -1       287 9.52382E-05-2.85744E-05-2.85702E-05 3.30897E-10-5.27886E-19 4.10219E-19
 -1       288 9.52381E-05-2.85741E-05-2.85703E-05 6.13117E-10-1.00230E-18-1.25355E-18
 -1       289 9.52379E-05-2.85736E-05-2.85704E-05 8.05466E-10 5.59559E-19-8.11884E-19
 -1       290 9.52377E-05-2.85730E-05-2.85706E-05 8.79493E-10 5.64663E-19 8.59737E-19
 -1       291 9.52375E-05-2.85723E-05-2.85708E-05 8.08173E-10 3.58208E-19-2.11659E-18
 -1       292 9.52372E-05-2.85718E-05-2.85709E-05 5.88662E-10-1.64458E-18-4.59418E-19
 -1       293 9.52371E-05-2.85714E-05-2.85710E-05 2.91246E-10-1.05680E-18-2.38481E-18
 -1       294 1.35720E-05-4.66265E-05 1.12721E-05 1.77606E-05-1.62641E-18 6.44137E-18
 -1       295 2.99608E-05-4.19159E-05 2.45705E-06 2.86630E-05 2.65481E-18 6.37641E-18
 -1       296 5.86408E-05-3.13525E-05-1.33091E-05 4.23957E-05 5.62197E-18 6.37117E-18
 -1       297 1.01296E-04-2.70933E-05-3.17028E-05 5.32515E-05 6.96621E-18 6.15560E-18
 -1       298 1.48441E-04-2.95284E-05-4.93555E-05 5.29146E-05 6.43057E-18 3.41143E-18
 -1       299 1.84895E-04-3.09024E-05-6.37256E-05 3.60146E-05 4.86239E-18 8.87267E-19
 -1       300 2.18220E-04-3.65892E-05-7.43214E-05 2.23711E-05 4.24522E-18-5.16584E-19
 -1       301 2.15993E-04-3.36042E-05-7.51520E-05-4.71019E-06 5.53165E-18-2.91104E-18
 -1       302 2.06199E-04-3.47228E-05-7.04318E-05-3.36799E-05 5.77089E-18-5.86189E-18
 -1       303 1.69389E-04-2.78105E-05-5.86472E-05-5.12403E-05 6.62729E-18-8.12072E-18
 -1       304 1.24808E-04-2.44557E-05-4.23962E-05-5.43426E-05 7.35256E-18-7.57904E-18
 -1       305 8.84414E-05-3.05907E-05-2.51074E-05-5.09673E-05 5.46866E-18-6.00038E-18
 -1       306 4.30690E-05-2.74878E-05-8.36833E-06-3.90322E-05 6.56175E-18-6.37657E-18
 -1       307 2.16411E-05-3.21463E-05 2.77605E-06-3.20401E-05 2.44793E-18-5.63467E-18
 -1       308 9.74907E-06-4.43480E-05 1.15844E-05-1.40595E-05 6.37392E-19-5.08442E-18
 -1       309 1.09281E-05-4.51972E-05 1.11500E-05-5.94215E-07-2.87525E-18-5.84516E-18
 -1       310 2.86025E-05-4.54139E-05 3.53315E-06 1.34432E-05-5.97095E-18-7.23657E-18
 -1       311 6.95881E-05-4.70165E-05-1.21589E-05 3.07839E-05-6.36270E-18-8.34116E-18
 -1       312 1.18781E-04-4.88976E-05-3.11163E-05 3.65179E-05-7.46532E-18-9.67290E-18
 -1       313 1.78053E-04-5.64432E-05-5.10282E-05 2.51347E-05-6.73179E-18-7.82701E-18
 -1       314 2.22992E-04-5.34527E-05-6.84288E-05 2.13056E-05-6.72281E-18-7.71266E-18
 -1       315 2.42306E-04-4.58190E-05-7.82582E-05 4.69455E-06-6.27058E-18-3.97703E-18
 -1       316 2.51775E-04-4.84485E-05-8.05975E-05-4.58674E-06-6.67250E-18-8.30939E-19
 -1       317 2.32312E-04-5.02669E-05-7.29389E-05-1.64567E-05-7.39322E-18 2.48223E-18
 -1       318 1.91187E-04-5.10905E-05-5.77170E-05-3.00818E-05-6.69632E-18 5.43668E-18
 -1       319 1.39942E-04-5.12148E-05-3.83810E-05-3.60668E-05-6.68351E-18 6.52808E-18
 -1       320 8.54672E-05-4.69319E-05-1.85670E-05-3.47097E-05-7.76941E-18 6.99374E-18
 -1       321 4.24109E-05-4.69702E-05-1.34461E-06-2.17410E-05-9.06664E-18 6.43508E-18
 -1       322 2.01899E-05-5.15348E-05 9.67748E-06-8.51021E-06-7.72515E-18 5.28623E-18
 -1       323 1.13750E-05-5.39906E-05 1.44470E-05 3.75195E-06-5.14026E-18 6.19096E-18
 -1       324 1.43614E-04-3.58785E-05-4.74612E-05-2.69144E-05-3.36272E-18 5.94080E-18
 -1       325 7.76706E-05-3.53440E-06-3.17917E-05 8.85645E-07-1.66871E-18-1.08752E-18
 -1       326 1.04478E-04-1.85170E-05-3.68565E-05 3.07197E-06-1.45677E-18 1.27504E-18
 -1       327 5.37458E-05 7.41800E-06-2.61747E-05-1.45150E-05-2.37283E-18-3.22709E-18
 -1       328 6.02549E-05 1.84689E-06-2.65946E-05-2.03828E-05-2.47307E-18-3.14590E-18
 -1       329 7.29173E-05-6.59218E-06-2.84342E-05-2.05114E-05-2.24454E-18-2.71798E-18
 -1       330 8.54239E-05-1.38016E-05-3.07448E-05-1.56171E-05-1.69670E-18-2.33380E-18
 -1       331 9.41065E-05-1.77808E-05-3.27759E-05-8.36635E-06-1.04212E-18-2.01738E-18
 -1       332 9.84159E-05-1.88388E-05-3.41810E-05-1.02619E-06-3.73524E-19-1.93048E-18
 -1       333 9.94223E-05-1.82125E-05-3.48867E-05 5.22441E-06 2.96421E-19-1.69630E-18
 -1       334 9.85672E-05-1.70686E-05-3.50133E-05 1.03999E-05 1.08444E-18-1.33321E-18
 -1       335 9.71149E-05-1.63511E-05-3.47032E-05 1.45201E-05 1.68874E-18-9.18687E-19
 -1       336 9.63148E-05-1.69592E-05-3.41087E-05 1.75808E-05 2.21689E-18 1.03603E-19
 -1       337 9.74077E-05-2.01986E-05-3.32117E-05 1.85453E-05 2.34325E-18 1.87553E-18
 -1       338 9.87945E-05-2.44356E-05-3.19697E-05 1.55093E-05 2.19315E-18 3.66245E-18
 -1       339 9.50137E-05-2.66168E-05-2.92895E-05 9.83105E-06 1.75009E-18 3.13398E-18
 -1       340 1.81691E-04-4.97694E-05-5.67692E-05-2.68612E-05-4.19006E-18 1.98862E-18
 -1       341 1.14164E-04-3.02619E-05-3.58541E-05 1.63742E-05-6.87321E-20 2.07395E-18
 -1       342 1.21727E-04-4.10352E-05-3.44255E-05 2.04571E-05 1.27369E-18 2.13863E-18
 -1       343 1.40494E-04-5.98354E-05-3.43069E-05 1.39554E-05 2.02571E-18 2.22840E-18
 -1       344 1.68943E-04-7.18074E-05-4.18449E-05-1.07885E-05 2.82009E-19 3.06732E-18
 -1       345 1.06915E-04-5.29339E-05-2.38017E-05 4.73640E-05 2.13781E-18 5.33525E-19
 -1       346 1.76292E-04-5.26490E-05-5.34699E-05 2.97477E-05-4.86578E-18-2.23405E-18
 -1       347 1.63395E-04-6.55213E-05-4.21493E-05 1.35994E-05 1.81053E-20-3.65542E-18
 -1       348 1.44167E-04-5.61717E-05-3.76258E-05-9.33389E-06 1.62225E-18-2.89348E-18
 -1       349 1.28477E-04-4.28826E-05-3.65993E-05-2.05265E-05 2.23101E-18-1.50736E-18
 -1       350 1.18535E-04-3.48945E-05-3.58242E-05-2.16492E-05 1.24940E-18-5.34981E-19
 -1       351 1.12203E-04-3.13292E-05-3.46554E-05-1.82904E-05 9.33712E-19-9.62994E-19
 -1       352 1.07977E-04-2.99944E-05-3.34083E-05-1.41320E-05 7.56970E-20-2.40869E-19
 -1       353 1.04638E-04-2.94591E-05-3.22013E-05-1.01981E-05-4.61514E-19-2.21433E-19
 -1       354 1.02116E-04-2.92300E-05-3.12188E-05-7.13534E-06-1.28618E-19 4.74305E-21
 -1       355 1.00216E-04-2.90917E-05-3.04669E-05-4.91094E-06 9.45062E-19-5.76402E-19
 -1       356 9.88027E-05-2.89822E-05-2.99120E-05-3.35362E-06-1.45649E-19-1.35607E-18
 -1       357 9.77654E-05-2.88881E-05-2.95110E-05-2.28341E-06 6.22761E-19-1.73133E-18
 -1       358 9.70118E-05-2.88081E-05-2.92248E-05-1.55391E-06-1.33001E-19-8.54032E-19
 -1       359 9.64687E-05-2.87424E-05-2.90218E-05-1.05755E-06-1.18550E-18 7.73410E-19
 -1       360 9.60798E-05-2.86904E-05-2.88787E-05-7.19182E-07 1.03700E-18 1.11223E-18
 -1       361 9.58033E-05-2.86504E-05-2.87781E-05-4.87654E-07 7.41770E-19 7.69484E-19
 -1       362 9.56081E-05-2.86208E-05-2.87077E-05-3.28568E-07 8.41719E-19 1.29396E-18
 -1       363 9.54717E-05-2.85994E-05-2.86588E-05-2.18892E-07 8.01010E-19 3.20498E-19
 -1       364 9.53775E-05-2.85844E-05-2.86250E-05-1.43177E-07-2.02791E-19-1.78651E-19
 -1       365 9.53136E-05-2.85745E-05-2.86021E-05-9.09924E-08 6.13889E-19 9.32429E-19
 -1       366 9.52713E-05-2.85681E-05-2.85868E-05-5.52288E-08 1.46717E-19-6.09175E-19
 -1       367 9.52442E-05-2.85645E-05-2.85768E-05-3.09852E-08-1.66558E-18-1.75486E-19
 -1       368 9.52278E-05-2.85627E-05-2.85707E-05-1.48616E-08-3.18065E-18-1.01332E-18
 -1       369 9.52190E-05-2.85621E-05-2.85672E-05-4.81670E-09-9.95804E-19-2.29159E-18
 -1       370 9.52145E-05-2.85623E-05-2.85652E-05 1.82743E-09-8.03723E-19-3.81110E-18
 -1       371 9.52133E-05-2.85629E-05-2.85644E-05 5.67710E-09 1.05142E-18-2.01868E-18
 -1       372 9.52142E-05-2.85639E-05-2.85644E-05 7.63174E-09 1.74304E-18-2.01410E-18
 -1       373 9.52162E-05-2.85649E-05-2.85648E-05 8.33599E-09-1.52947E-18-1.71489E-18
 -1       374 9.52187E-05-2.85659E-05-2.85655E-05 8.24894E-09 4.59609E-20-4.87367E-19
 -1       375 9.52214E-05-2.85669E-05-2.85663E-05 7.69320E-09 9.24977E-19-2.96822E-18
 -1       376 9.52241E-05-2.85677E-05-2.85670E-05 6.89116E-09 1.09140E-18-1.92239E-18
 -1       377 9.52266E-05-2.85685E-05-2.85678E-05 5.99171E-09 1.64712E-18 1.53953E-20
 -1       378 9.52288E-05-2.85691E-05-2.85685E-05 5.08995E-09 2.77468E-18 6.60869E-19
 -1       379 9.52307E-05-2.85696E-05-2.85690E-05 4.24187E-09-1.15349E-18 7.50927E-19
 -1       380 9.52324E-05-2.85701E-05-2.85696E-05 3.47496E-09-2.97547E-18-5.52837E-19
 -1       381 9.52337E-05-2.85704E-05-2.85700E-05 2.79571E-09 2.78113E-19 1.70699E-18
 -1       382 9.52348E-05-2.85707E-05-2.85703E-05 2.19487E-09-1.54000E-18 3.04017E-18
 -1       383 9.52356E-05-2.85710E-05-2.85706E-05 1.65311E-09 2.59726E-18 1.96945E-18
 -1       384 9.52363E-05-2.85712E-05-2.85708E-05 1.14535E-09 3.17346E-19-1.85717E-18
 -1       385 9.52368E-05-2.85713E-05-2.85709E-05 6.54176E-10 3.48764E-18 1.18192E-18
 -1       386 9.10085E-05-2.63571E-05-2.76784E-05 7.03203E-06 1.49570E-18 2.00180E-18
 -1       387 8.83598E-05-2.55463E-05-2.69013E-05 5.24614E-06 1.08490E-18 1.65832E-18
 -1       388 8.63463E-05-2.46654E-05-2.64191E-05 3.23116E-06 1.03113E-18 1.17509E-18
 -1       389 8.52148E-05-2.40999E-05-2.61773E-05 8.22120E-07 8.45287E-19 7.48451E-19
 -1       390 8.51049E-05-2.40689E-05-2.61446E-05-1.74886E-06 8.42992E-19 5.22563E-19
 -1       391 8.59860E-05-2.46145E-05-2.62910E-05-4.04991E-06 4.03846E-19 3.48683E-19
 -1       392 8.76328E-05-2.56014E-05-2.65780E-05-5.66523E-06 4.49835E-19 1.20836E-19
 -1       393 8.96865E-05-2.67807E-05-2.69574E-05-6.35663E-06 6.57030E-19 1.95191E-19
 -1       394 9.17525E-05-2.78757E-05-2.73752E-05-6.12011E-06 4.37892E-19 1.91170E-19
 -1       395 9.34602E-05-2.86625E-05-2.77516E-05-5.19862E-06 2.49534E-19-3.15026E-19
 -1       396 9.46774E-05-2.91255E-05-2.81006E-05-3.87198E-06-1.31008E-19-2.14550E-19
 -1       397 9.55636E-05-2.93473E-05-2.83855E-05-2.69515E-06 3.34595E-21 2.63576E-19
 -1       398 9.60900E-05-2.93853E-05-2.85941E-05-1.65925E-06 9.90880E-20 6.44783E-19
 -1       399 9.63395E-05-2.93146E-05-2.87301E-05-8.46571E-07-4.48458E-19-2.96131E-21
 -1       400 9.63962E-05-2.91938E-05-2.88047E-05-2.70538E-07-2.19333E-19 1.54098E-19
 -1       401 9.63318E-05-2.90615E-05-2.88325E-05 9.64073E-08-5.05044E-19 2.77155E-19
 -1       402 9.62015E-05-2.89391E-05-2.88281E-05 2.99413E-07-2.64429E-19 6.20441E-19
 -1       403 9.60438E-05-2.88360E-05-2.88040E-05 3.85741E-07-1.47422E-20 2.49122E-19
 -1       404 9.58838E-05-2.87544E-05-2.87699E-05 3.96522E-07 4.41417E-19 8.22888E-19
 -1       405 9.57363E-05-2.86926E-05-2.87328E-05 3.63667E-07 4.43609E-19 1.85472E-18
 -1       406 9.56085E-05-2.86476E-05-2.86972E-05 3.09808E-07-1.42142E-18 1.83289E-18
 -1       407 9.55030E-05-2.86159E-05-2.86655E-05 2.49704E-07-5.72935E-19 9.35882E-19
 -1       408 9.54193E-05-2.85943E-05-2.86389E-05 1.92103E-07 4.20108E-19 1.54258E-19
 -1       409 9.53551E-05-2.85801E-05-2.86175E-05 1.41518E-07 6.91120E-19 1.74302E-19
 -1       410 9.53076E-05-2.85712E-05-2.86010E-05 9.96908E-08 3.64971E-19 1.11734E-18
 -1       411 9.52736E-05-2.85660E-05-2.85888E-05 6.66963E-08-1.55585E-18 1.59299E-18
 -1       412 9.52503E-05-2.85633E-05-2.85800E-05 4.17088E-08-7.46133E-20 1.35618E-18
 -1       413 9.52352E-05-2.85623E-05-2.85740E-05 2.35057E-08 5.94897E-19 4.57309E-19
 -1       414 9.52261E-05-2.85623E-05-2.85701E-05 1.07742E-08 5.78647E-19 1.32212E-18
 -1       415 9.52212E-05-2.85629E-05-2.85678E-05 2.28120E-09 8.63050E-19 2.25592E-18
 -1       416 9.52192E-05-2.85638E-05-2.85666E-05-3.04421E-09 8.96057E-19 6.11763E-19
 -1       417 9.52192E-05-2.85648E-05-2.85662E-05-6.08443E-09 6.39005E-19 1.68973E-18
 -1       418 9.52204E-05-2.85658E-05-2.85662E-05-7.53716E-09-1.37506E-18 1.80582E-18
 -1       419 9.52222E-05-2.85668E-05-2.85666E-05-7.93535E-09-6.58702E-19 5.08955E-19
 -1       420 9.52242E-05-2.85677E-05-2.85671E-05-7.67320E-09 7.13336E-19-4.52182E-19
 -1       421 9.52263E-05-2.85684E-05-2.85677E-05-7.03289E-09 1.18992E-18-1.68895E-18
 -1       422 9.52283E-05-2.85691E-05-2.85683E-05-6.20900E-09-1.76609E-19-2.86635E-18
 -1       423 9.52301E-05-2.85696E-05-2.85688E-05-5.32939E-09 7.19424E-19-3.58454E-18
 -1       424 9.52317E-05-2.85700E-05-2.85693E-05-4.47208E-09 1.47699E-18-3.46653E-18
 -1       425 9.52331E-05-2.85704E-05-2.85697E-05-3.67833E-09 6.65938E-19-3.36611E-18
 -1       426 9.52342E-05-2.85707E-05-2.85701E-05-2.96253E-09-5.73651E-19-2.39661E-18
 -1       427 9.52352E-05-2.85709E-05-2.85704E-05-2.31929E-09 2.95349E-19-8.93081E-19
 -1       428 9.52359E-05-2.85711E-05-2.85706E-05-1.73099E-09 1.12284E-18 9.94428E-20
 -1       429 9.52365E-05-2.85713E-05-2.85708E-05-1.18184E-09 1.18408E-18-2.17950E-18
 -1       430 9.52369E-05-2.85714E-05-2.85709E-05-7.06542E-10 1.48641E-18-2.42525E-18
 -1       431 9.52375E-05-2.85727E-05-2.85707E-05-1.51903E-09-9.22928E-19-2.31951E-18
 -1       432 9.52372E-05-2.85721E-05-2.85708E-05-1.33624E-09 6.84545E-19 1.66743E-18
 -1       433 9.52379E-05-2.85732E-05-2.85706E-05-1.48411E-09-3.98102E-18-2.69416E-18
 -1       434 9.52381E-05-2.85737E-05-2.85705E-05-1.23402E-09-2.02228E-18 1.19498E-18
 -1       435 9.52383E-05-2.85741E-05-2.85704E-05-8.11890E-10-6.11663E-19 2.05003E-18
 -1       436 9.52385E-05-2.85743E-05-2.85704E-05-2.79904E-10-3.27316E-18 4.70426E-18
 -1       437 9.52385E-05-2.85743E-05-2.85704E-05 2.89519E-10-3.27193E-18 2.36391E-18
 -1       438 9.52383E-05-2.85741E-05-2.85704E-05 8.20858E-10-2.61483E-18-6.48159E-19
 -1       439 9.52381E-05-2.85737E-05-2.85705E-05 1.23567E-09-1.81667E-18-2.08315E-18
 -1       440 9.52379E-05-2.85732E-05-2.85706E-05 1.48607E-09-1.18949E-18 2.68043E-18
 -1       441 9.52375E-05-2.85726E-05-2.85707E-05 1.51861E-09 4.83928E-19 2.52141E-19
 -1       442 9.52372E-05-2.85721E-05-2.85708E-05 1.31559E-09 1.34007E-18-2.62496E-18
 -1       443 9.27133E-05-2.66482E-05-2.82766E-05 8.13087E-06 1.62755E-18 2.61411E-18
 -1       444 6.37592E-05-4.22546E-05-9.46952E-06 5.09895E-05-1.08844E-18 3.81726E-18
 -1       445 1.42144E-04-5.21985E-05-3.81880E-05 3.46900E-05 2.48662E-18-1.05794E-18
 -1       446 1.02810E-05-2.18706E-05 4.72867E-06 1.07848E-05-2.54926E-18 7.52970E-18
 -1       447 5.93800E-05 5.84371E-06-2.79228E-05-5.86379E-06-2.04530E-18-2.59855E-18
 -1       448 1.76482E-04-3.05332E-05-6.25342E-05 1.62774E-05-7.12821E-18 3.06679E-19
 -1       449 1.58825E-04-3.95250E-05-5.08563E-05 1.41451E-05 3.71699E-18-2.01022E-18
 -1       450 1.63992E-04-1.89170E-05-6.20170E-05 2.01430E-06 4.67276E-18-2.09302E-18
 -1       451 1.64530E-04-1.05005E-05-6.59624E-05 1.42789E-06 5.32053E-18-2.29038E-18
 -1       452 1.70756E-04-1.64542E-05-6.58268E-05-1.17012E-06 5.88010E-18-2.01996E-18
 -1       453 1.64235E-04-2.75985E-05-5.84329E-05-7.52396E-06 4.88839E-18-1.83721E-18
 -1       454 1.51238E-04-4.03196E-05-4.75135E-05-2.12757E-05 3.49385E-18-2.14321E-18
 -1       455 1.28338E-04-4.72957E-05-3.47626E-05-3.56197E-05 1.61572E-18-2.14860E-18
 -1       456 8.04222E-05-3.79796E-05-1.82710E-05-5.14695E-05 4.81115E-19-3.80265E-18
 -1       457 4.74565E-05-2.67525E-05-8.72574E-06-5.00118E-05-7.25484E-19-4.74582E-18
 -1       458 1.48734E-05-1.32897E-05-5.95879E-07-3.00059E-05-1.05768E-18-5.99879E-18
 -1       459 8.43059E-06-1.26050E-05 1.80410E-06-6.03045E-06-9.28423E-19-6.47387E-18
 -1       460 2.83663E-05-2.54694E-05-1.49553E-06 2.23525E-05-8.76256E-19-6.20547E-18
 -1       461 6.81032E-05-4.46266E-05-1.04315E-05 3.57886E-05-8.31363E-19-5.25658E-18
 -1       462 1.28444E-04-6.60132E-05-2.69372E-05 2.79892E-05-4.13140E-19-2.63226E-18
 -1       463 1.40867E-04-6.96870E-05-3.06975E-05-2.28616E-05-1.31629E-18 7.93035E-20
 -1       464 8.88303E-05-5.50654E-05-1.49167E-05-3.82429E-05-1.88931E-18 1.87012E-18
 -1       465 4.60205E-05-3.89397E-05-3.42290E-06-3.34351E-05-2.17253E-18 3.40232E-18
 -1       466 1.83697E-05-2.42934E-05 2.42788E-06-1.54840E-05-1.69359E-18 4.65063E-18
 -1       467 2.97860E-05-2.97849E-05-1.87341E-07 3.95052E-05-2.27460E-18 6.72428E-18
 -1       468 9.52370E-05-2.85716E-05-2.85709E-05 1.02595E-09 2.09526E-18-2.00307E-19
 -1       469 1.65296E-04-7.09649E-05-4.08656E-05-1.24033E-06-1.60296E-18-1.64536E-19
 -1       470 1.76046E-04-2.72536E-05-6.36806E-05-7.32075E-06-7.01364E-18 1.12092E-18
 -1       471 1.13535E-04-4.86864E-05-2.76442E-05-4.13309E-05-9.17654E-19-1.57583E-18
 -1       472 6.79082E-05-7.44057E-06-2.58431E-05-2.77465E-05-2.84416E-18-2.78196E-18
 -1       473 5.23219E-05 3.46830E-06-2.37896E-05-2.31881E-05-2.78193E-18-3.54593E-18
 -1       474 9.84030E-05-2.50365E-05-3.14514E-05-1.37034E-05-1.76539E-18-1.54030E-18
 -1       475 1.04169E-04-2.65729E-05-3.32811E-05-3.91070E-06-9.19998E-19-1.31549E-18
 -1       476 1.05314E-04-2.55809E-05-3.42055E-05 3.71135E-06-1.15930E-19-1.22952E-18
 -1       477 1.04001E-04-2.38164E-05-3.44011E-05 9.21688E-06 6.44776E-19-9.59111E-19
 -1       478 1.01764E-04-2.24635E-05-3.40215E-05 1.28721E-05 1.27527E-18-6.60916E-19
 -1       479 9.96408E-05-2.22228E-05-3.32079E-05 1.49625E-05 1.79042E-18-1.74610E-19
 -1       480 9.80231E-05-2.35119E-05-3.19498E-05 1.50117E-05 2.00507E-18 8.82471E-19
 -1       481 9.70420E-05-2.53061E-05-3.07378E-05 1.30024E-05 1.97883E-18 1.87071E-18
 -1       482 9.80017E-05-5.25031E-05-1.92940E-05 4.85750E-05-2.79717E-18 1.04883E-19
 -1       483 8.78963E-05-2.15632E-05-2.81553E-05 2.14913E-05 4.39398E-19-8.73344E-19
 -1       484 1.32927E-04-6.20532E-05-3.04675E-05 3.33742E-05-1.42875E-18-2.10292E-18
 -1       485 9.57403E-05-3.92329E-05-2.37514E-05 3.07468E-05 1.57601E-18-1.50004E-18
 -1       486 1.47210E-04-2.85915E-05-5.10834E-05-5.86637E-06 3.20920E-18-3.20581E-18
 -1       487 8.13479E-05-1.07920E-05-3.01422E-05 1.07158E-05-7.61473E-19-9.95720E-19
 -1       488 1.36418E-04-6.29949E-05-3.13429E-05-1.86746E-05 1.81207E-18-1.82561E-18
 -1       489 1.15851E-04-4.33114E-05-3.08621E-05-2.73969E-05 2.29803E-18-1.53882E-18
 -1       490 1.05596E-04-3.11925E-05-3.18030E-05-2.62905E-05 1.59993E-18-1.63830E-18
 -1       491 1.01809E-04-2.67049E-05-3.21574E-05-2.18902E-05 1.34860E-18-1.38293E-18
 -1       492 1.00443E-04-2.59104E-05-3.19174E-05-1.71384E-05 3.65109E-19-1.32212E-18
 -1       493 9.96264E-05-2.63383E-05-3.13863E-05-1.26528E-05-1.36619E-19-1.41065E-18
 -1       494 9.89297E-05-2.70212E-05-3.07983E-05-9.07372E-06-7.41998E-20-7.01003E-19
 -1       495 9.82514E-05-2.75927E-05-3.02672E-05-6.39410E-06 7.64058E-19-1.20308E-18
 -1       496 9.76205E-05-2.79892E-05-2.98312E-05-4.46107E-06-8.16187E-20-1.96419E-18
 -1       497 9.70702E-05-2.82392E-05-2.94916E-05-3.09637E-06 3.16255E-19-1.13507E-18
 -1       498 9.66140E-05-2.83873E-05-2.92351E-05-2.14392E-06 6.21052E-19-6.46494E-19
 -1       499 9.62499E-05-2.84707E-05-2.90449E-05-1.48245E-06 2.81527E-19-7.80218E-20
 -1       500 9.59674E-05-2.85155E-05-2.89057E-05-1.02342E-06 5.66118E-19 1.06500E-18
 -1       501 9.57529E-05-2.85383E-05-2.88047E-05-7.04363E-07 1.28307E-18 3.08841E-19
 -1       502 9.55929E-05-2.85493E-05-2.87320E-05-4.82038E-07 9.55543E-19-8.41614E-20
 -1       503 9.54756E-05-2.85542E-05-2.86799E-05-3.26773E-07 1.94224E-19 9.65975E-20
 -1       504 9.53911E-05-2.85564E-05-2.86430E-05-2.18249E-07 2.00873E-19-1.66966E-18
 -1       505 9.53313E-05-2.85576E-05-2.86170E-05-1.42509E-07 5.17982E-19-9.39189E-19
 -1       506 9.52898E-05-2.85584E-05-2.85990E-05-8.99020E-08-1.16648E-19-1.10928E-18
 -1       507 9.52619E-05-2.85594E-05-2.85866E-05-5.36938E-08-5.82923E-19-2.60877E-18
 -1       508 9.52438E-05-2.85605E-05-2.85784E-05-2.91282E-08-3.21910E-18-2.19857E-18
 -1       509 9.52330E-05-2.85617E-05-2.85734E-05-1.35059E-08-2.14826E-18-2.11139E-18
 -1       510 9.52264E-05-2.85629E-05-2.85700E-05-2.77828E-09-1.68233E-18-2.25381E-18
 -1       511 9.52232E-05-2.85642E-05-2.85681E-05 3.77122E-09 9.00034E-19-7.57607E-19
 -1       512 9.52222E-05-2.85654E-05-2.85672E-05 7.45451E-09 1.03899E-18-2.30275E-18
 -1       513 9.52225E-05-2.85665E-05-2.85669E-05 9.20326E-09-4.57202E-20-3.88751E-18
 -1       514 9.52237E-05-2.85674E-05-2.85670E-05 9.68834E-09 1.67201E-19-1.55722E-18
 -1       515 9.52253E-05-2.85682E-05-2.85673E-05 9.38708E-09 1.97589E-20 4.54019E-19
 -1       516 9.52271E-05-2.85689E-05-2.85678E-05 8.63366E-09 1.61430E-18 1.14736E-18
 -1       517 9.52288E-05-2.85695E-05-2.85683E-05 7.65651E-09 2.98105E-18 1.18070E-18
 -1       518 9.52304E-05-2.85699E-05-2.85688E-05 6.60625E-09 1.75523E-18 3.54878E-18
 -1       519 9.52318E-05-2.85703E-05-2.85692E-05 5.57655E-09-1.31134E-18 6.85091E-19
 -1       520 9.52331E-05-2.85706E-05-2.85696E-05 4.61958E-09-2.86780E-18-9.66927E-19
 -1       521 9.52341E-05-2.85708E-05-2.85700E-05 3.75731E-09 1.98944E-18 1.01161E-18
 -1       522 9.52350E-05-2.85710E-05-2.85703E-05 2.98939E-09-1.07759E-18 1.60783E-18
 -1       523 9.52357E-05-2.85712E-05-2.85705E-05 2.30076E-09 6.58671E-19 2.94979E-18
 -1       524 9.52363E-05-2.85714E-05-2.85707E-05 1.66848E-09 5.84132E-19 9.35962E-19
 -1       525 9.52367E-05-2.85715E-05-2.85708E-05 1.35146E-09 2.10797E-18 1.03160E-18
 -1       526 9.11239E-05-2.42052E-05-2.86724E-05 3.32968E-06 1.23303E-18 5.59951E-19
 -1       527 9.28301E-05-2.53020E-05-2.89328E-05 6.39629E-06 1.29395E-18 8.89781E-19
 -1       528 9.49580E-05-2.63587E-05-2.93955E-05 8.84792E-06 1.46649E-18 1.04032E-18
 -1       529 9.02774E-05-2.37039E-05-2.85250E-05-2.03679E-07 8.98885E-19 2.69404E-19
 -1       530 9.04724E-05-2.41135E-05-2.84339E-05-3.65659E-06 9.91241E-19 1.58325E-19
 -1       531 9.15700E-05-2.53582E-05-2.83723E-05-6.37765E-06 6.96593E-19-4.47287E-19
 -1       532 9.31950E-05-2.70757E-05-2.83344E-05-7.90444E-06 2.20889E-19-3.86323E-19
 -1       533 9.48856E-05-2.87867E-05-2.83261E-05-8.10103E-06 5.64690E-19-9.72620E-20
 -1       534 9.61942E-05-3.00176E-05-2.83571E-05-7.19510E-06 4.42530E-19 1.40777E-19
 -1       535 9.68712E-05-3.05724E-05-2.84117E-05-5.44971E-06 1.03864E-19 4.66421E-19
 -1       536 9.71899E-05-3.06940E-05-2.85016E-05-3.88813E-06 1.50670E-19-1.46820E-19
 -1       537 9.72050E-05-3.04996E-05-2.85912E-05-2.46845E-06-4.02228E-19-5.19637E-19
 -1       538 9.70319E-05-3.01486E-05-2.86670E-05-1.32360E-06-1.31628E-19 3.06097E-19
 -1       539 9.67725E-05-2.97604E-05-2.87215E-05-4.90405E-07-3.61163E-19 9.98944E-19
 -1       540 9.64936E-05-2.94065E-05-2.87530E-05 5.74194E-08-4.65560E-19 1.53188E-18
 -1       541 9.62327E-05-2.91187E-05-2.87640E-05 3.75237E-07-7.03436E-19 1.22941E-18
 -1       542 9.60065E-05-2.89033E-05-2.87589E-05 5.24777E-07 4.63649E-19 1.24184E-18
 -1       543 9.58193E-05-2.87527E-05-2.87430E-05 5.61712E-07-2.74766E-19 1.08200E-18
 -1       544 9.56694E-05-2.86539E-05-2.87209E-05 5.30519E-07-6.22188E-19 2.14284E-18
 -1       545 9.55520E-05-2.85935E-05-2.86964E-05 4.63698E-07-1.54107E-19 2.81291E-18
 -1       546 9.54617E-05-2.85597E-05-2.86721E-05 3.83194E-07 1.32565E-19 7.73638E-19
 -1       547 9.53934E-05-2.85433E-05-2.86499E-05 3.02623E-07 4.52087E-19-1.53663E-20
 -1       548 9.53424E-05-2.85375E-05-2.86305E-05 2.29545E-07 5.66489E-19 4.63122E-20
 -1       549 9.53051E-05-2.85379E-05-2.86144E-05 1.67410E-07-2.23628E-19 3.44873E-19
 -1       550 9.52783E-05-2.85414E-05-2.86015E-05 1.17075E-07-6.55396E-19 4.37723E-19
 -1       551 9.52595E-05-2.85460E-05-2.85914E-05 7.79029E-08-1.34068E-18-4.70356E-19
 -1       552 9.52467E-05-2.85509E-05-2.85839E-05 4.85046E-08-3.35686E-19 7.40353E-19
 -1       553 9.52384E-05-2.85554E-05-2.85784E-05 2.72186E-08 3.04677E-19 1.34072E-18
 -1       554 9.52332E-05-2.85592E-05-2.85745E-05 1.23909E-08 1.00249E-18 7.80018E-19
 -1       555 9.52303E-05-2.85624E-05-2.85719E-05 2.52537E-09 1.49866E-18 1.32513E-18
 -1       556 9.52290E-05-2.85649E-05-2.85703E-05-3.65101E-09 3.83112E-19 4.38519E-19
 -1       557 9.52287E-05-2.85668E-05-2.85694E-05-7.17404E-09-7.06521E-20 1.29603E-19
 -1       558 9.52291E-05-2.85683E-05-2.85689E-05-8.85678E-09 6.92774E-20-5.42268E-19
 -1       559 9.52298E-05-2.85693E-05-2.85688E-05-9.31759E-09 1.25698E-18-2.88390E-18
 -1       560 9.52307E-05-2.85701E-05-2.85689E-05-9.01270E-09 1.06045E-18-2.03853E-18
 -1       561 9.52317E-05-2.85706E-05-2.85691E-05-8.26820E-09 2.25276E-19-9.07584E-19
 -1       562 9.52327E-05-2.85709E-05-2.85693E-05-7.30867E-09 6.13016E-19-9.11708E-19
 -1       563 9.52336E-05-2.85712E-05-2.85696E-05-6.28134E-09 1.01711E-18-1.68575E-18
 -1       564 9.52344E-05-2.85713E-05-2.85699E-05-5.27567E-09 9.76065E-19-1.09264E-18
 -1       565 9.52351E-05-2.85714E-05-2.85701E-05-4.33866E-09-3.10141E-19-1.21922E-18
 -1       566 9.52356E-05-2.85715E-05-2.85703E-05-3.48739E-09-1.70647E-18-1.33588E-18
 -1       567 9.52361E-05-2.85716E-05-2.85705E-05-2.71737E-09 4.87863E-19-4.73567E-19
 -1       568 9.52366E-05-2.85717E-05-2.85707E-05-2.01207E-09 3.06583E-18-1.08751E-18
 -1       569 9.52382E-05-2.85735E-05-2.85706E-05-1.88946E-09 7.88917E-20 2.14743E-19
 -1       570 9.52377E-05-2.85730E-05-2.85706E-05-2.11504E-09-1.02736E-18-4.75485E-18
 -1       571 9.52372E-05-2.85723E-05-2.85707E-05-2.05732E-09 1.83257E-19-2.69580E-18
 -1       572 2.74550E-05-1.30909E-05-5.56111E-06 2.71063E-05-3.10186E-18 6.93805E-18
 -1       573 9.52386E-05-2.85740E-05-2.85705E-05-1.41189E-09-1.95346E-19 2.34165E-18
 -1       574 9.52388E-05-2.85743E-05-2.85705E-05-7.51131E-10-4.97290E-19 2.03375E-18
 -1       575 9.52389E-05-2.85744E-05-2.85705E-05 5.03625E-12-1.90942E-18 2.94474E-18
 -1       576 9.52388E-05-2.85743E-05-2.85705E-05 7.61249E-10-3.14947E-18 2.96719E-18
 -1       577 9.52386E-05-2.85740E-05-2.85705E-05 1.41160E-09-5.28912E-19-3.05960E-19
 -1       578 9.52382E-05-2.85736E-05-2.85706E-05 1.89197E-09 1.96402E-18-9.03939E-19
 -1       579 9.52377E-05-2.85730E-05-2.85706E-05 2.12003E-09 5.80337E-19 2.53891E-18
 -1       580 9.52372E-05-2.85723E-05-2.85707E-05 2.05106E-09 1.15333E-19-1.01255E-18
 -1       581 1.47625E-04-5.44285E-05-3.97425E-05 1.10435E-05 9.00449E-19-4.31786E-18
 -1       582 4.43647E-05-2.31157E-05-8.53441E-06-3.03310E-05 1.41582E-18 2.09058E-18
 -1       583 8.60902E-05-1.89377E-05-2.87664E-05-2.33890E-05-2.47836E-18-2.07156E-18
 -1       584 2.08023E-05-1.07656E-05-3.66914E-06-3.50059E-06-4.37360E-19 4.86006E-18
 -1       585 1.44764E-04-1.65151E-05-5.55102E-05 8.82751E-06 4.46683E-18-5.60630E-20
 -1       586 1.38056E-04-8.77451E-06-5.60388E-05-5.91054E-06 4.57800E-18-2.29514E-18
 -1       587 6.02127E-05-2.75046E-05-1.35225E-05 3.17223E-05 7.38189E-19-3.96073E-18
 -1       588 1.40349E-04-4.56890E-06-5.87914E-05 3.84801E-06 5.20650E-18-1.18669E-18
 -1       589 1.47542E-04-3.53593E-05-4.85047E-05 2.32176E-06 2.75966E-18 1.72212E-19
 -1       590 1.41018E-04-4.83228E-05-3.99271E-05-1.27249E-05 5.21412E-19-3.45484E-19
 -1       591 7.70710E-05-3.30946E-05-1.84223E-05-5.07633E-05-2.45555E-18-2.98783E-18
 -1       592 3.76549E-05-1.15806E-05-1.05934E-05-4.31298E-05-2.41177E-18-4.82957E-18
 -1       593 1.78269E-05-4.43243E-07-6.80975E-06-1.77544E-05-1.55820E-18-5.89493E-18
 -1       594 2.60478E-05-6.67423E-06-7.71216E-06 1.15910E-05-4.18805E-19-5.80334E-18
 -1       595 7.96447E-05-4.30534E-05-1.52932E-05-3.86863E-05 1.24847E-18 2.61521E-20
 -1       596 5.95637E-05-3.38170E-05-1.05673E-05 4.90709E-05-3.59550E-18 4.01981E-18
 -1       597 4.83493E-05 7.87021E-06-2.39060E-05-1.01394E-05-2.08658E-18-3.46712E-18
 -1       598 9.57448E-05-2.63541E-05-2.97146E-05 1.07219E-05 1.70126E-18 1.41076E-18
 -1       599 9.53022E-05-2.66405E-05-2.94145E-05 9.78699E-06 1.64519E-18 1.18481E-18
 -1       600 5.94134E-05 1.83762E-06-2.61212E-05 2.23776E-06-1.33295E-18-2.68021E-18
 -1       601 1.30121E-04-5.08821E-05-3.39583E-05-2.24734E-05-1.11484E-18-2.47281E-19
 -1       602 1.16132E-04-5.83065E-05-2.45629E-05-3.09583E-05 1.31798E-18-1.62419E-18
 -1       603 9.52369E-05-2.85719E-05-2.85707E-05 1.76486E-09 1.31131E-18-9.16033E-19
 -1       604 1.06082E-04-5.10311E-05-2.34989E-05 3.08099E-05 1.50147E-18-1.31264E-18
 -1       605 1.11778E-04-3.20202E-05-3.41966E-05 2.65092E-06-4.78761E-19-4.77782E-19
 -1       606 1.11115E-04-3.43155E-05-3.29224E-05-7.37671E-06-1.35968E-18-6.97282E-19
 -1       607 1.05867E-04-2.67210E-05-3.39326E-05 1.21413E-05 8.32247E-19-1.78563E-19
 -1       608 1.02470E-04-2.56078E-05-3.29537E-05 1.36052E-05 1.37531E-18-1.26653E-19
 -1       609 9.81381E-05-2.58467E-05-3.09714E-05 1.27555E-05 1.73691E-18 8.26014E-19
 -1       610 9.52395E-05-2.85746E-05-2.85706E-05-4.75518E-10 1.26845E-18 2.91354E-18
 -1       611 9.52382E-05-2.85734E-05-2.85706E-05-2.58054E-09 2.44578E-18-1.79761E-18
 -1       612 8.04449E-05-2.48541E-05-2.34871E-05-3.01604E-05 2.12865E-18-7.92280E-19
 -1       613 8.18211E-05-1.85792E-05-2.70145E-05-2.33098E-05 1.58550E-18-6.37240E-19
 -1       614 8.54762E-05-1.84005E-05-2.87173E-05-1.82596E-05 4.66603E-19-1.24578E-18
 -1       615 8.92076E-05-2.02586E-05-2.95358E-05-1.38547E-05-6.59763E-20-1.39942E-18
 -1       616 9.19221E-05-2.24506E-05-2.97639E-05-1.03845E-05 4.69257E-19-1.62167E-18
 -1       617 9.36608E-05-2.43126E-05-2.97131E-05-7.66825E-06 4.67540E-19-1.36207E-18
 -1       618 9.46724E-05-2.57033E-05-2.95525E-05-5.59308E-06-3.17178E-19-1.32117E-18
 -1       619 9.52066E-05-2.66750E-05-2.93667E-05-4.04205E-06 6.11493E-19-1.03799E-18
 -1       620 9.54527E-05-2.73285E-05-2.91934E-05-2.90189E-06 8.59595E-19-4.09708E-19
 -1       621 9.55371E-05-2.77583E-05-2.90462E-05-2.07302E-06-3.62582E-19 5.93272E-19
 -1       622 9.55381E-05-2.80376E-05-2.89276E-05-1.47442E-06-2.23951E-19-3.06259E-19
 -1       623 9.55012E-05-2.82182E-05-2.88347E-05-1.04363E-06 4.50958E-19-2.73281E-19
 -1       624 9.54515E-05-2.83351E-05-2.87636E-05-7.34123E-07 4.57046E-19-7.73380E-19
 -1       625 9.54020E-05-2.84113E-05-2.87099E-05-5.11984E-07 3.41884E-19-2.38904E-18
 -1       626 9.53583E-05-2.84615E-05-2.86698E-05-3.52780E-07-8.08852E-19-1.90230E-18
 -1       627 9.53225E-05-2.84950E-05-2.86402E-05-2.38997E-07 4.98771E-19-3.13637E-18
 -1       628 9.52945E-05-2.85179E-05-2.86184E-05-1.58076E-07 1.25481E-18-2.62864E-18
 -1       629 9.52736E-05-2.85337E-05-2.86027E-05-1.00977E-07-7.68791E-19-1.33855E-18
 -1       630 9.52585E-05-2.85448E-05-2.85915E-05-6.11679E-08-2.48674E-18-1.55737E-18
 -1       631 9.52483E-05-2.85524E-05-2.85839E-05-3.49614E-08-2.48463E-18-8.25391E-19
 -1       632 9.52411E-05-2.85582E-05-2.85784E-05-1.62603E-08-1.97486E-18 9.65074E-19
 -1       633 9.52365E-05-2.85624E-05-2.85746E-05-4.11537E-09 3.01307E-19 6.27704E-19
 -1       634 9.52338E-05-2.85654E-05-2.85722E-05 3.39257E-09-1.92104E-18-1.53059E-18
 -1       635 9.52325E-05-2.85676E-05-2.85706E-05 7.67965E-09-2.44549E-19-3.72525E-18
 -1       636 9.52319E-05-2.85691E-05-2.85698E-05 9.77855E-09 1.45947E-18-1.12933E-18
 -1       637 9.52320E-05-2.85702E-05-2.85694E-05 1.04385E-08 1.94222E-18 1.01121E-18
 -1       638 9.52324E-05-2.85709E-05-2.85692E-05 1.01959E-08 1.21824E-18 1.57355E-18
 -1       639 9.52329E-05-2.85713E-05-2.85693E-05 9.42810E-09 5.60780E-19 4.49498E-19
 -1       640 9.52336E-05-2.85716E-05-2.85694E-05 8.39382E-09 2.29344E-18-1.09084E-18
 -1       641 9.52342E-05-2.85717E-05-2.85696E-05 7.26389E-09 7.05524E-20-2.21614E-18
 -1       642 9.52348E-05-2.85718E-05-2.85699E-05 6.14475E-09-2.47822E-18 4.86475E-19
 -1       643 9.52353E-05-2.85718E-05-2.85701E-05 5.09588E-09 9.07758E-19 2.16848E-18
 -1       644 9.52358E-05-2.85718E-05-2.85703E-05 4.14345E-09 8.88842E-20 2.19095E-18
 -1       645 9.52362E-05-2.85718E-05-2.85705E-05 3.29280E-09-2.36441E-19 9.05526E-19
 -1       646 9.52366E-05-2.85718E-05-2.85706E-05 2.52306E-09-3.37054E-19 3.59656E-19
 -1       647 9.64389E-05-2.40208E-05-3.10330E-05 6.66214E-06 1.55251E-18 2.91502E-19
 -1       648 9.49139E-05-2.27122E-05-3.09415E-05 2.53172E-06 1.30886E-18 1.39827E-19
 -1       649 9.84525E-05-2.57201E-05-3.11676E-05 9.77140E-06 1.28722E-18 4.68715E-19
 -1       650 9.52342E-05-2.40846E-05-3.04933E-05-5.96159E-06 1.06051E-18-4.87449E-19
 -1       651 9.67512E-05-2.65082E-05-3.01060E-05-8.53858E-06 5.82371E-19-3.80552E-19
 -1       652 9.84497E-05-2.92235E-05-2.96681E-05-9.38304E-06 1.40881E-19-8.57892E-19
 -1       653 9.97262E-05-3.14487E-05-2.92612E-05-8.55332E-06-8.80616E-20-4.42606E-19
 -1       654 1.00061E-04-3.24748E-05-2.89749E-05-6.55147E-06-1.20759E-19-1.15134E-20
 -1       655 9.97303E-05-3.25215E-05-2.88050E-05-4.58642E-06 3.46079E-19-3.70895E-19
 -1       656 9.91087E-05-3.21068E-05-2.87164E-05-2.85666E-06 1.35795E-19-5.14124E-19
 -1       657 9.83401E-05-3.14133E-05-2.86840E-05-1.47184E-06-8.77536E-19-3.97425E-19
 -1       658 9.75876E-05-3.06636E-05-2.86825E-05-4.75814E-07-8.92210E-19 3.93501E-19
 -1       659 9.69393E-05-2.99903E-05-2.86930E-05 1.70171E-07-4.93993E-19 5.62860E-19
 -1       660 9.64257E-05-2.94515E-05-2.87036E-05 5.38661E-07-6.85930E-19 1.32148E-18
 -1       661 9.60428E-05-2.90564E-05-2.87086E-05 7.06793E-07-4.69403E-19 1.13053E-18
 -1       662 9.57701E-05-2.87882E-05-2.87066E-05 7.42076E-07-5.50249E-20 1.44570E-18
 -1       663 9.55828E-05-2.86203E-05-2.86982E-05 6.97412E-07-6.13020E-19 8.42583E-19
 -1       664 9.54577E-05-2.85253E-05-2.86853E-05 6.11043E-07-7.06475E-19 2.90300E-19
 -1       665 9.53761E-05-2.84795E-05-2.86699E-05 5.08696E-07 1.24686E-18-9.46993E-21
 -1       666 9.53238E-05-2.84648E-05-2.86538E-05 4.06391E-07 1.18190E-18-3.22760E-19
 -1       667 9.52907E-05-2.84680E-05-2.86382E-05 3.13116E-07 2.79330E-19-3.08896E-19
 -1       668 9.52698E-05-2.84803E-05-2.86240E-05 2.33086E-07 7.48984E-19-5.63925E-19
 -1       669 9.52567E-05-2.84960E-05-2.86117E-05 1.67465E-07 1.31101E-19-1.99245E-18
 -1       670 9.52485E-05-2.85119E-05-2.86014E-05 1.15626E-07-9.46337E-19-2.68502E-18
 -1       671 9.52434E-05-2.85264E-05-2.85930E-05 7.60089E-08-1.51261E-18-2.21414E-18
 -1       672 9.52402E-05-2.85386E-05-2.85864E-05 4.66810E-08-6.92197E-19-1.60910E-18
 -1       673 9.52381E-05-2.85484E-05-2.85813E-05 2.56745E-08 1.07131E-18-4.91227E-19
 -1       674 9.52369E-05-2.85559E-05-2.85776E-05 1.11759E-08 9.93422E-19-8.50537E-19
 -1       675 9.52362E-05-2.85616E-05-2.85748E-05 1.61421E-09 3.45204E-19-3.25140E-20
 -1       676 9.52358E-05-2.85656E-05-2.85729E-05-4.31170E-09 1.15240E-18 4.99184E-19
 -1       677 9.52357E-05-2.85684E-05-2.85717E-05-7.64208E-09-1.57053E-19 6.16022E-19
 -1       678 9.52356E-05-2.85703E-05-2.85709E-05-9.18379E-09 1.42825E-18 3.03921E-19
 -1       679 9.52357E-05-2.85715E-05-2.85704E-05-9.54521E-09 8.26681E-19-5.96061E-19
 -1       680 9.52359E-05-2.85722E-05-2.85702E-05-9.17235E-09-1.01246E-18-4.38696E-19
 -1       681 9.52360E-05-2.85725E-05-2.85701E-05-8.38222E-09 1.08117E-18 5.00589E-19
 -1       682 9.52362E-05-2.85726E-05-2.85701E-05-7.39193E-09 1.08633E-18 1.08791E-18
 -1       683 9.52364E-05-2.85726E-05-2.85702E-05-6.34290E-09 1.21876E-18-5.31754E-20
 -1       684 9.52365E-05-2.85725E-05-2.85703E-05-5.32019E-09-6.46945E-19 7.40982E-19
 -1       685 9.52367E-05-2.85724E-05-2.85704E-05-4.36733E-09-2.28102E-19-2.85760E-19
 -1       686 9.52368E-05-2.85723E-05-2.85705E-05-3.50297E-09-4.75317E-20-2.79339E-18
 -1       687 9.52370E-05-2.85723E-05-2.85706E-05-2.75240E-09 1.73804E-18-4.22553E-18
 -1       688 7.23833E-05-2.93894E-05-1.80027E-05-3.50049E-05 2.01530E-18 1.36531E-19
 -1       689 9.52393E-05-2.85744E-05-2.85706E-05-1.37711E-09 7.69330E-19 2.24121E-18
 -1       690 5.72108E-05-5.27701E-06-2.18500E-05 1.37037E-05-2.45785E-19-3.06795E-18
 -1       691 9.52376E-05-2.85729E-05-2.85706E-05-2.77331E-09 1.73959E-18-5.76574E-18
 -1       692 9.52388E-05-2.85740E-05-2.85706E-05-2.11056E-09 1.83620E-18 1.07992E-18
 -1       693 9.44830E-05-2.26668E-05-3.07771E-05-2.00160E-06 1.35991E-18-3.39592E-19
 -1       694 9.52395E-05-2.85747E-05-2.85706E-05 4.83242E-10 1.54658E-18 1.04947E-18
 -1       695 9.52393E-05-2.85744E-05-2.85706E-05 1.37163E-09-8.61773E-19 3.10015E-18
 -1       696 9.52388E-05-2.85740E-05-2.85706E-05 2.11243E-09-4.67306E-19 1.80064E-18
 -1       697 9.52382E-05-2.85734E-05-2.85706E-05 2.59477E-09 1.83401E-18-8.68490E-19
 -1       698 9.52375E-05-2.85727E-05-2.85706E-05 2.74969E-09 2.65053E-19 3.96573E-19
 -1       699 1.30279E-04-1.90158E-05-4.81186E-05-1.15550E-05 2.84534E-18-3.30324E-18
 -1       700 8.27484E-05-2.22956E-05-2.57564E-05-3.40230E-05-3.06370E-18-2.22050E-18
 -1       701 1.39176E-04-6.00860E-05-3.30369E-05 1.52707E-05-1.98428E-18-3.11396E-18
 -1       702 1.09274E-04-2.90062E-05-3.44156E-05 8.78313E-06 2.49581E-19-5.75208E-19
 -1       703 1.02437E-04-4.15959E-05-2.59346E-05-3.95430E-05-2.47617E-18-1.52100E-18
 -1       704 5.64732E-05-6.76861E-06-2.10937E-05-3.51688E-05-3.03181E-18-3.40153E-18
 -1       705 1.19314E-04-5.81257E-05-2.58407E-05 3.34423E-05-1.84543E-18-1.39218E-18
 -1       706 5.49842E-05-2.00657E-05-1.45379E-05 3.69056E-05-3.60495E-18 4.90533E-18
 -1       707 3.21013E-05 4.12076E-06-1.48850E-05-2.67033E-06-1.18420E-18-5.08167E-18
 -1       708 4.14077E-05-1.02501E-05-1.27448E-05-1.73479E-05 1.68544E-18 1.23519E-18
 -1       709 1.23460E-04-4.67186E-06-5.14605E-05-8.36890E-07 3.93479E-18-1.55763E-18
 -1       710 1.31801E-04-2.47742E-05-4.62811E-05 1.32834E-05 2.27495E-18 9.95648E-19
 -1       711 3.44281E-05 1.25528E-06-1.47351E-05-2.89585E-05-2.49642E-18-4.77308E-18
 -1       712 8.58104E-05-4.19602E-05-1.84465E-05 4.49804E-05-3.05363E-18 1.64769E-18
 -1       713 5.40935E-05-1.59664E-05-1.57611E-05 2.46870E-05 5.77915E-19-3.87391E-18
 -1       714 1.24904E-04-9.02993E-06-5.01970E-05 1.01511E-05 3.76379E-18-6.70877E-20
 -1       715 1.36288E-04-3.85161E-05-4.22113E-05 6.00432E-06 8.26426E-19 1.41609E-18
 -1       716 1.03608E-04-3.31795E-05-3.01688E-05-2.12779E-05-2.32859E-18-1.13428E-18
 -1       717 6.32874E-05-1.74419E-05-1.91995E-05-4.38633E-05-3.10906E-18-3.25592E-18
 -1       718 1.38033E-04-4.10115E-05-4.16287E-05-5.00675E-06 3.78835E-19-4.21886E-18
 -1       719 3.46344E-05-5.52242E-06-1.18472E-05 8.20726E-06-4.95461E-19 3.76358E-18
 -1       720 1.00125E-04-2.66107E-05-3.14996E-05 1.19156E-05 1.39766E-18 4.05687E-19
 -1       721 1.18863E-04-1.11601E-05-4.64753E-05-8.02243E-06 3.09842E-18-1.98576E-18
 -1       722 1.33678E-04-4.48901E-05-3.81336E-05-1.82352E-06-4.93790E-19 1.05902E-18
 -1       723 1.02816E-04-4.35627E-05-2.49332E-05-3.20595E-05 2.06991E-18-9.93887E-19
 -1       724 1.19330E-04-3.72602E-05-3.51682E-05 2.61316E-06-4.64167E-19 1.36016E-19
 -1       725 1.04839E-04-2.71044E-05-3.33180E-05 1.29672E-05 1.06877E-18 3.25647E-19
 -1       726 1.18063E-04-4.52227E-05-3.11043E-05-2.34486E-05-2.18271E-18-3.29350E-19
 -1       727 9.52402E-05-2.85750E-05-2.85708E-05 1.13171E-09 1.24453E-18 6.04819E-19
 -1       728 1.03459E-04-2.64806E-05-3.29854E-05 1.23103E-05 1.19190E-18 5.21383E-19
 -1       729 1.13385E-04-8.40259E-06-4.52959E-05 4.22829E-06 3.08479E-18-2.19898E-19
 -1       730 5.13597E-05-9.95863E-06-1.74486E-05 1.91534E-05-6.10685E-19 3.74537E-18
 -1       731 8.96075E-05-3.32940E-05-2.40150E-05-4.18437E-05-2.89669E-18-2.19977E-18
 -1       732 9.52403E-05-2.85751E-05-2.85708E-05-8.89946E-12 2.19167E-18 1.65033E-18
 -1       733 6.86766E-05-1.06313E-05-2.47761E-05-1.23324E-05 9.36494E-19-5.59836E-20
 -1       734 7.74514E-05-1.42271E-05-2.70775E-05-9.81991E-06 5.20785E-20-2.93131E-19
 -1       735 8.36874E-05-1.77088E-05-2.82726E-05-7.99330E-06 1.66783E-19-3.36361E-19
 -1       736 8.79538E-05-2.07009E-05-2.88211E-05-6.44124E-06 3.56915E-19-5.02948E-19
 -1       737 9.07691E-05-2.30275E-05-2.90309E-05-5.08934E-06 1.17810E-19-5.11934E-19
 -1       738 9.25703E-05-2.47351E-05-2.90713E-05-3.94432E-06 5.72440E-19-1.10181E-18
 -1       739 9.36917E-05-2.59437E-05-2.90341E-05-3.00730E-06 9.00232E-19-2.88517E-19
 -1       740 9.43722E-05-2.67800E-05-2.89676E-05-2.26235E-06 5.94936E-19 6.80077E-20
 -1       741 9.47746E-05-2.73509E-05-2.88955E-05-1.68282E-06-7.95281E-21 2.66280E-21
 -1       742 9.50059E-05-2.77381E-05-2.88288E-05-1.23905E-06-3.41560E-19 2.73311E-19
 -1       743 9.51343E-05-2.80003E-05-2.87716E-05-9.03100E-07-3.00241E-19-1.03125E-18
 -1       744 9.52023E-05-2.81784E-05-2.87244E-05-6.51029E-07-5.42153E-20-1.98258E-18
 -1       745 9.52358E-05-2.82999E-05-2.86867E-05-4.63321E-07-6.56567E-21-2.02536E-18
 -1       746 9.52503E-05-2.83836E-05-2.86571E-05-3.24575E-07-6.31337E-19-1.01041E-18
 -1       747 9.52549E-05-2.84416E-05-2.86342E-05-2.22855E-07-3.75726E-19-1.43530E-18
 -1       748 9.52546E-05-2.84821E-05-2.86168E-05-1.49003E-07 1.45825E-18-2.92139E-18
 -1       749 9.52523E-05-2.85106E-05-2.86036E-05-9.60553E-08-1.20526E-18-2.03564E-18
 -1       750 9.52495E-05-2.85298E-05-2.85941E-05-6.01741E-08-7.20210E-19-7.59884E-19
 -1       751 9.52467E-05-2.85442E-05-2.85868E-05-3.37079E-08-2.21420E-18-6.83640E-19
 -1       752 9.52442E-05-2.85543E-05-2.85814E-05-1.58224E-08-4.16907E-19-4.11501E-19
 -1       753 9.52423E-05-2.85613E-05-2.85776E-05-4.13633E-09-1.07206E-18-9.24459E-19
 -1       754 9.52408E-05-2.85660E-05-2.85749E-05 3.12702E-09-8.40386E-19 1.29478E-18
 -1       755 9.52396E-05-2.85692E-05-2.85730E-05 7.29444E-09 1.92094E-18 2.05619E-18
 -1       756 9.52388E-05-2.85712E-05-2.85718E-05 9.34870E-09 1.81000E-18 9.50794E-19
 -1       757 9.52382E-05-2.85724E-05-2.85711E-05 1.00087E-08 1.46671E-18 1.61522E-18
 -1       758 9.52378E-05-2.85731E-05-2.85706E-05 9.79224E-09 1.40037E-19 1.09594E-18
 -1       759 9.52375E-05-2.85733E-05-2.85704E-05 9.06443E-09 1.39465E-18 1.58648E-18
 -1       760 9.52374E-05-2.85734E-05-2.85703E-05 8.07583E-09 1.49007E-18-6.25369E-19
 -1       761 9.52372E-05-2.85732E-05-2.85703E-05 6.99178E-09 4.14806E-19 7.61979E-19
 -1       762 9.52372E-05-2.85731E-05-2.85703E-05 5.91516E-09 3.45715E-19 2.50516E-18
 -1       763 9.52371E-05-2.85729E-05-2.85704E-05 4.90344E-09 3.04973E-19 2.06140E-18
 -1       764 9.52372E-05-2.85727E-05-2.85705E-05 3.98436E-09-2.22019E-18 1.47208E-20
 -1       765 9.52373E-05-2.85727E-05-2.85706E-05 3.34535E-09-1.58955E-18-1.22530E-19
 -1       766 9.94399E-05-2.16624E-05-3.33324E-05 6.17214E-06 1.68746E-18 3.09167E-19
 -1       767 1.01613E-04-2.42676E-05-3.31458E-05 1.01610E-05 1.53187E-18 5.59586E-19
 -1       768 1.02154E-04-2.87702E-05-3.14640E-05-1.01597E-05 3.50091E-19 1.35886E-19
 -1       769 1.00216E-04-2.48458E-05-3.23175E-05-8.43679E-06 6.60470E-19-3.41798E-19
 -1       770 1.04044E-04-3.45915E-05-2.97783E-05-7.13970E-06-2.81242E-19-1.37603E-19
 -1       771 1.03036E-04-3.47276E-05-2.92754E-05-4.67412E-06 7.53706E-19-3.60081E-19
 -1       772 1.01668E-04-3.41179E-05-2.89507E-05-2.62536E-06 3.91708E-19-1.78032E-19
 -1       773 1.00152E-04-3.30283E-05-2.87680E-05-1.06705E-06-6.57281E-19-1.20346E-19
 -1       774 9.87566E-05-3.18349E-05-2.86811E-05-1.75267E-08-1.13042E-18-6.76228E-20
 -1       775 9.76116E-05-3.07606E-05-2.86506E-05 6.07486E-07-8.26832E-19-7.49076E-19
 -1       776 9.67473E-05-2.99018E-05-2.86482E-05 9.19701E-07-1.36792E-18-2.49475E-19
 -1       777 9.61374E-05-2.92740E-05-2.86558E-05 1.02170E-06-7.61186E-19 9.28114E-19
 -1       778 9.57322E-05-2.88505E-05-2.86636E-05 9.94436E-07-8.15166E-19 1.25422E-18
 -1       779 9.54788E-05-2.85882E-05-2.86674E-05 8.96272E-07 4.98205E-19 5.55479E-19
 -1       780 9.53307E-05-2.84432E-05-2.86661E-05 7.66462E-07 4.13554E-19-1.70500E-19
 -1       781 9.52516E-05-2.83774E-05-2.86603E-05 6.29737E-07 4.78090E-19-1.30230E-18
 -1       782 9.52148E-05-2.83612E-05-2.86515E-05 5.00490E-07 4.72560E-19-2.83903E-19
 -1       783 9.52024E-05-2.83734E-05-2.86410E-05 3.86114E-07 6.51053E-19 9.12499E-19
 -1       784 9.52028E-05-2.83995E-05-2.86300E-05 2.89497E-07 4.90170E-19 3.83599E-19
 -1       785 9.52089E-05-2.84305E-05-2.86193E-05 2.10787E-07 1.29603E-18 1.24554E-19
 -1       786 9.52166E-05-2.84609E-05-2.86096E-05 1.48596E-07 5.39101E-19 9.30668E-19
 -1       787 9.52239E-05-2.84881E-05-2.86010E-05 1.00803E-07-3.20937E-19-7.54527E-19
 -1       788 9.52299E-05-2.85110E-05-2.85938E-05 6.50462E-08-1.78413E-18-2.19577E-18
 -1       789 9.52344E-05-2.85293E-05-2.85879E-05 3.90260E-08-3.48700E-19-3.63765E-19
 -1       790 9.52375E-05-2.85433E-05-2.85832E-05 2.06604E-08 6.87248E-19-1.15650E-18
 -1       791 9.52394E-05-2.85538E-05-2.85795E-05 8.15768E-09 2.07610E-19-8.04233E-19
 -1       792 9.52404E-05-2.85614E-05-2.85768E-05 3.23852E-11 5.98274E-19 1.92876E-20
 -1       793 9.52409E-05-2.85666E-05-2.85747E-05-4.91018E-09 7.68622E-19-1.42141E-18
 -1       794 9.52409E-05-2.85700E-05-2.85732E-05-7.60563E-09-8.14379E-19-8.72311E-19
 -1       795 9.52406E-05-2.85722E-05-2.85722E-05-8.76878E-09 1.74590E-18-3.97020E-19
 -1       796 9.52402E-05-2.85734E-05-2.85715E-05-8.93246E-09 1.00161E-19-2.69239E-19
 -1       797 9.52397E-05-2.85739E-05-2.85711E-05-8.48358E-09-8.43087E-19-8.41547E-19
 -1       798 9.52393E-05-2.85741E-05-2.85708E-05-7.69473E-09-8.50106E-19 3.93287E-19
 -1       799 9.52389E-05-2.85740E-05-2.85706E-05-6.75103E-09 1.30234E-18 8.69391E-19
 -1       800 9.52385E-05-2.85738E-05-2.85706E-05-5.77190E-09 6.53771E-19 1.03034E-18
 -1       801 9.52382E-05-2.85735E-05-2.85706E-05-4.82804E-09 1.50793E-18-8.83138E-19
 -1       802 9.52379E-05-2.85732E-05-2.85706E-05-3.95795E-09 1.60017E-18-2.37597E-18
 -1       803 9.52378E-05-2.85730E-05-2.85706E-05-3.34728E-09 1.91284E-18-4.04165E-18
 -1       804 9.52401E-05-2.85750E-05-2.85708E-05-1.14722E-09 2.81592E-18 2.49586E-18
 -1       805 9.52390E-05-2.85740E-05-2.85707E-05 2.91971E-09 9.21384E-20 2.71555E-18
 -1       806 9.52382E-05-2.85734E-05-2.85706E-05 3.27161E-09-3.24440E-19-9.79982E-19
 -1       807 1.27543E-04-3.08719E-05-4.16536E-05-1.27295E-05 7.88495E-19-2.61657E-18
 -1       808 1.26058E-04-5.72408E-05-2.95633E-05 1.92528E-05-8.97537E-19-1.56180E-18
 -1       809 1.03809E-04-3.25782E-05-3.05328E-05-9.66636E-06-1.30928E-19 2.28075E-19
 -1       810 9.52397E-05-2.85746E-05-2.85707E-05 2.14754E-09-8.55894E-20 3.25163E-18
 -1       811 4.77867E-05-6.43913E-06-1.73796E-05-6.83853E-06 7.20518E-19 3.88100E-19
 -1       812 1.04596E-04-4.80163E-05-2.40759E-05 3.39531E-05-2.09107E-18-4.68727E-19
 -1       813 1.25643E-04-3.09901E-05-4.07487E-05 1.25857E-05 9.06107E-19 1.18354E-18
 -1       814 5.88634E-05-1.28743E-05-1.93328E-05-2.18872E-05 1.72143E-18 1.05633E-18
 -1       815 1.35108E-04-5.51526E-05-3.58131E-05 2.18813E-06 1.09775E-18-2.75794E-18
 -1       816 1.19805E-04-1.69392E-05-4.43432E-05 1.33749E-05 2.24731E-18 7.40340E-19
 -1       817 7.91237E-05-3.08706E-05-2.06254E-05 3.61172E-05-3.02270E-18 3.00117E-18
 -1       818 1.09451E-04-2.88775E-05-3.45446E-05 1.22574E-05 7.25337E-19 9.27104E-21
 -1       819 9.85995E-05-2.16997E-05-3.29611E-05-4.56812E-06 1.13348E-18-2.75588E-19
 -1       820 5.50200E-05-7.32206E-06-2.02517E-05 5.45571E-06 3.97362E-19 2.22694E-18
 -1       821 9.52390E-05-2.85740E-05-2.85707E-05-2.92187E-09 2.96203E-18-7.84378E-19
 -1       822 1.26331E-04-3.70231E-05-3.83547E-05 8.09183E-06 2.18253E-19 1.17162E-18
 -1       823 1.14600E-04-3.22813E-05-3.53027E-05 9.39419E-06 1.35411E-19 5.57404E-20
 -1       824 9.52397E-05-2.85746E-05-2.85707E-05-2.15246E-09 2.57182E-18 1.14305E-18
 -1       825 9.82249E-05-2.05114E-05-3.33083E-05 8.00892E-07 1.62874E-18-1.16137E-19
 -1       826 1.17919E-04-2.10174E-05-4.16835E-05-1.18256E-05 1.93135E-18-1.83734E-18
 -1       827 6.85189E-05-1.89532E-05-2.10847E-05 2.58058E-05-1.59403E-18 2.86584E-18
 -1       828 1.21791E-04-4.19961E-05-3.42382E-05-6.48999E-06-1.34410E-18 1.00618E-19
 -1       829 7.66962E-05-1.45450E-05-2.66279E-05-1.67710E-06 5.66326E-19 5.35509E-19
 -1       830 8.27612E-05-1.79641E-05-2.77702E-05-2.47354E-06 4.74401E-19 4.01810E-19
 -1       831 8.69552E-05-2.07645E-05-2.83680E-05-2.69320E-06 6.30564E-20 5.03339E-19
 -1       832 8.98109E-05-2.29352E-05-2.86612E-05-2.56245E-06-4.72644E-19-1.29515E-19
 -1       833 9.17247E-05-2.45546E-05-2.87872E-05-2.25623E-06 1.41356E-18-3.85909E-19
 -1       834 9.29882E-05-2.57314E-05-2.88243E-05-1.88909E-06 2.35579E-19-1.24459E-18
 -1       835 9.38118E-05-2.65716E-05-2.88172E-05-1.52659E-06-3.62173E-19-2.32440E-18
 -1       836 9.43429E-05-2.71653E-05-2.87904E-05-1.20100E-06-1.21127E-19-2.40817E-18
 -1       837 9.46823E-05-2.75826E-05-2.87570E-05-9.24440E-07-7.26939E-19-2.08265E-18
 -1       838 9.48975E-05-2.78756E-05-2.87236E-05-6.98015E-07-6.50716E-19-2.20662E-18
 -1       839 9.50330E-05-2.80818E-05-2.86934E-05-5.17483E-07-4.16255E-19-2.29464E-18
 -1       840 9.51179E-05-2.82273E-05-2.86674E-05-3.76491E-07-2.48281E-19-2.96948E-18
 -1       841 9.51705E-05-2.83305E-05-2.86457E-05-2.68308E-07-1.14510E-18-2.69083E-18
 -1       842 9.52029E-05-2.84039E-05-2.86281E-05-1.86646E-07-8.46946E-20-2.38763E-18
 -1       843 9.52225E-05-2.84563E-05-2.86141E-05-1.26053E-07-5.87105E-19-3.98634E-18
 -1       844 9.52336E-05-2.84920E-05-2.86035E-05-8.36555E-08 3.88289E-19-3.87888E-18
 -1       845 9.52403E-05-2.85190E-05-2.85948E-05-5.13831E-08-1.87304E-18-3.86308E-18
 -1       846 9.52438E-05-2.85381E-05-2.85882E-05-2.88076E-08-3.34442E-19-1.00688E-18
 -1       847 9.52453E-05-2.85514E-05-2.85831E-05-1.34391E-08-1.03954E-18-2.40390E-19
 -1       848 9.52456E-05-2.85605E-05-2.85793E-05-3.35704E-09 4.77544E-19 6.87675E-19
 -1       849 9.52453E-05-2.85666E-05-2.85766E-05 2.91905E-09 7.71548E-19 1.73384E-18
 -1       850 9.52445E-05-2.85705E-05-2.85746E-05 6.51582E-09 1.01795E-18 3.97039E-19
 -1       851 9.52436E-05-2.85729E-05-2.85732E-05 8.27796E-09 2.57038E-18-7.98108E-20
 -1       852 9.52427E-05-2.85742E-05-2.85722E-05 8.82841E-09 1.46335E-18 1.18328E-18
 -1       853 9.52417E-05-2.85748E-05-2.85715E-05 8.61783E-09 1.11367E-18 7.22627E-19
 -1       854 9.52409E-05-2.85750E-05-2.85711E-05 7.96479E-09-1.99280E-19 1.27880E-18
 -1       855 9.52401E-05-2.85748E-05-2.85709E-05 7.08748E-09 1.66321E-18 7.56664E-19
 -1       856 9.52395E-05-2.85745E-05-2.85707E-05 6.12981E-09 5.98973E-19 5.76201E-19
 -1       857 9.52389E-05-2.85741E-05-2.85706E-05 5.18120E-09-4.56004E-19-2.07321E-18
 -1       858 9.52385E-05-2.85737E-05-2.85706E-05 4.29249E-09-2.20946E-18-1.84703E-18
 -1       859 9.52383E-05-2.85735E-05-2.85706E-05 3.76171E-09-2.77675E-18-1.62580E-18
 -1       860 1.08412E-04-2.74823E-05-3.46784E-05 1.29531E-05 1.06807E-18 2.79140E-19
 -1       861 1.06174E-04-2.73606E-05-3.38428E-05-1.04422E-05 7.56235E-19-3.95222E-19
 -1       862 1.09719E-04-1.26538E-05-4.17517E-05-4.25893E-06 2.20400E-18-2.59756E-19
 -1       863 1.04753E-04-3.64897E-05-2.92559E-05-1.59358E-06 3.70195E-19 3.55483E-19
 -1       864 1.07037E-04-3.73113E-05-2.98839E-05-4.07015E-06 3.07653E-19-2.36778E-19
 -1       865 1.00116E-04-3.31687E-05-2.86920E-05 1.08183E-06-6.28641E-19-5.37399E-19
 -1       866 9.83711E-05-3.16141E-05-2.86103E-05 1.53172E-06-7.04754E-19-1.01321E-18
 -1       867 9.70916E-05-3.03828E-05-2.85895E-05 1.64087E-06-1.40275E-18-5.69924E-19
 -1       868 9.62176E-05-2.94908E-05-2.85972E-05 1.55542E-06-1.87119E-18-7.85586E-19
 -1       869 9.56604E-05-2.88946E-05-2.86139E-05 1.37469E-06-1.17379E-18 4.72379E-20
 -1       870 9.53322E-05-2.85296E-05-2.86297E-05 1.16019E-06 2.14490E-19-1.16379E-19
 -1       871 9.51589E-05-2.83315E-05-2.86403E-05 9.46828E-07 7.66917E-19-6.17107E-19
 -1       872 9.50837E-05-2.82455E-05-2.86449E-05 7.52374E-07 4.18410E-19-9.12151E-19
 -1       873 9.50663E-05-2.82296E-05-2.86443E-05 5.84301E-07 1.83239E-20-7.62611E-19
 -1       874 9.50795E-05-2.82534E-05-2.86397E-05 4.44224E-07 6.92686E-20-1.13568E-18
 -1       875 9.51063E-05-2.82965E-05-2.86327E-05 3.30663E-07 1.58267E-19-1.84353E-20
 -1       876 9.51365E-05-2.83459E-05-2.86245E-05 2.40683E-07 1.16481E-18 6.12008E-19
 -1       877 9.51647E-05-2.83940E-05-2.86160E-05 1.70831E-07-9.51208E-20 8.61979E-19
 -1       878 9.51886E-05-2.84369E-05-2.86079E-05 1.17661E-07 5.18101E-19 2.50339E-18
 -1       879 9.52075E-05-2.84730E-05-2.86005E-05 7.79888E-08 6.56302E-19 2.67523E-18
 -1       880 9.52215E-05-2.85020E-05-2.85940E-05 4.90137E-08-1.96873E-18-1.18422E-19
 -1       881 9.52313E-05-2.85245E-05-2.85886E-05 2.83565E-08 1.05847E-18-3.70576E-19
 -1       882 9.52378E-05-2.85414E-05-2.85842E-05 1.40461E-08-5.71447E-19 3.51875E-19
 -1       883 9.52418E-05-2.85536E-05-2.85806E-05 4.48517E-09 8.60969E-19-2.91580E-19
 -1       884 9.52439E-05-2.85622E-05-2.85779E-05-1.59560E-09 9.31132E-19-1.69528E-18
 -1       885 9.52447E-05-2.85680E-05-2.85757E-05-5.18602E-09-7.92148E-20-5.54370E-19
 -1       886 9.52447E-05-2.85717E-05-2.85742E-05-7.04376E-09 5.60890E-19-9.50485E-19
 -1       887 9.52442E-05-2.85739E-05-2.85730E-05-7.73763E-09 2.54379E-19 5.51811E-19
 -1       888 9.52434E-05-2.85750E-05-2.85722E-05-7.68569E-09 2.83782E-19-1.43051E-19
 -1       889 9.52425E-05-2.85754E-05-2.85716E-05-7.18783E-09-6.41033E-19-1.10079E-18
 -1       890 9.52416E-05-2.85754E-05-2.85712E-05-6.45260E-09-3.11679E-19-1.14089E-18
 -1       891 9.52407E-05-2.85751E-05-2.85710E-05-5.62010E-09 6.62820E-19-1.72203E-18
 -1       892 9.52399E-05-2.85747E-05-2.85708E-05-4.78290E-09 1.50459E-18-2.63969E-18
 -1       893 9.52393E-05-2.85742E-05-2.85707E-05-3.98970E-09 1.14715E-18-2.40536E-18
 -1       894 9.52412E-05-2.85756E-05-2.85710E-05-6.99404E-10 1.88918E-18 1.06246E-18
 -1       895 1.26504E-04-5.14482E-05-3.22758E-05 4.64612E-06-2.39128E-19 6.88127E-20
 -1       896 1.02305E-04-3.49085E-05-2.88847E-05 1.02347E-07-3.24837E-19 6.34680E-19
 -1       897 6.79672E-05-1.06048E-05-2.45248E-05-1.51950E-07 3.09652E-19 1.01118E-19
 -1       898 9.52412E-05-2.85756E-05-2.85710E-05 6.66829E-10 5.21937E-19 6.51009E-19
 -1       899 1.23045E-04-3.65420E-05-3.71932E-05-7.67855E-06 1.18341E-18-6.22093E-19
 -1       900 9.56158E-05-3.84011E-05-2.45685E-05 2.95955E-05-2.29108E-18 3.27299E-19
 -1       901 1.10613E-04-1.45001E-05-4.13010E-05 9.27405E-06 2.33117E-18 5.16608E-19
 -1       902 1.13360E-04-4.88847E-05-2.76103E-05 2.21997E-05-1.26026E-18-5.47240E-19
 -1       903 1.15875E-04-2.34066E-05-3.97295E-05 1.38942E-05 1.15664E-18 4.51341E-19
 -1       904 9.52404E-05-2.85750E-05-2.85709E-05-3.11998E-09 1.28086E-18 2.08915E-18
 -1       905 1.03637E-04-2.19253E-05-3.50568E-05-7.79131E-06 1.03665E-18-1.92859E-19
 -1       906 6.45487E-05-1.28587E-05-2.20630E-05 1.51500E-05-7.40280E-19 2.76529E-18
 -1       907 1.18360E-04-2.87229E-05-3.84874E-05 1.32165E-05 8.57942E-19 5.70837E-19
 -1       908 9.52410E-05-2.85755E-05-2.85709E-05-1.95861E-09 2.27503E-18 2.36145E-18
 -1       909 9.52408E-05-2.85754E-05-2.85709E-05 1.95777E-09 1.44535E-19 1.31825E-18
 -1       910 1.05756E-04-1.40395E-05-3.93526E-05 2.22801E-06 2.14915E-18 7.24683E-19
 -1       911 1.04657E-04-2.16854E-05-3.55836E-05 1.01763E-05 1.75638E-18 5.91684E-19
 -1       912 1.07965E-04-3.25419E-05-3.23377E-05-1.07622E-05 9.42258E-20-8.64437E-19
 -1       913 1.06932E-04-2.49418E-05-3.51523E-05 1.24137E-05 1.24405E-18 3.32241E-19
 -1       914 1.21899E-04-3.96595E-05-3.42835E-05-9.21593E-06 2.34988E-18-1.29024E-18
 -1       915 1.17830E-04-3.02980E-05-3.76559E-05-1.14243E-05 1.18743E-18-1.01558E-18
 -1       916 9.52393E-05-2.85743E-05-2.85707E-05 3.35442E-09-1.44301E-18-3.65057E-19
 -1       917 1.08921E-04-3.70207E-05-3.08253E-05-7.39686E-06-1.11927E-19-4.57249E-19
 -1       918 1.17138E-04-3.18635E-05-3.65696E-05 1.14477E-05 4.88671E-19 3.31622E-19
 -1       919 1.02281E-04-1.82508E-05-3.60243E-05 4.70353E-06 2.17082E-18 4.44307E-19
 -1       920 8.34470E-05-2.75283E-05-2.38869E-05 2.57279E-05-1.59082E-18 7.48026E-19
 -1       921 9.52401E-05-2.85749E-05-2.85708E-05 2.76460E-09-4.89228E-19 2.02025E-18
 -1       922 1.01868E-04-1.82483E-05-3.58495E-05-2.13604E-06 1.50183E-18 1.68196E-19
 -1       923 1.11746E-04-2.86797E-05-3.55955E-05 1.28748E-05 7.25724E-19 2.11245E-19
 -1       924 8.45578E-05-1.99173E-05-2.77040E-05 1.43807E-06 2.16114E-19 2.66736E-19
 -1       925 8.77933E-05-2.19632E-05-2.82136E-05 9.68085E-08-4.95823E-20 2.87275E-19
 -1       926 9.01075E-05-2.36243E-05-2.84931E-05-5.84249E-07 1.60424E-19 5.07071E-19
 -1       927 9.17368E-05-2.49180E-05-2.86367E-05-8.64850E-07-7.04680E-19-1.00506E-18
 -1       928 9.28683E-05-2.58979E-05-2.87017E-05-9.17828E-07-5.65068E-19-1.66634E-18
 -1       929 9.36457E-05-2.66263E-05-2.87227E-05-8.52688E-07 2.79605E-20-1.36040E-18
 -1       930 9.41756E-05-2.71616E-05-2.87203E-05-7.35470E-07-6.08708E-19-1.66472E-18
 -1       931 9.45346E-05-2.75525E-05-2.87067E-05-6.03859E-07-1.30769E-18-2.03036E-18
 -1       932 9.47769E-05-2.78371E-05-2.86885E-05-4.77821E-07 2.13309E-19-1.57668E-18
 -1       933 9.49398E-05-2.80443E-05-2.86695E-05-3.66685E-07-7.68283E-19-9.03333E-19
 -1       934 9.50490E-05-2.81951E-05-2.86517E-05-2.73673E-07-1.28227E-18-1.14123E-18
 -1       935 9.51218E-05-2.83050E-05-2.86358E-05-1.98699E-07-1.25379E-18-1.91734E-18
 -1       936 9.51700E-05-2.83849E-05-2.86222E-05-1.40117E-07-1.08788E-18-2.13239E-18
 -1       937 9.52003E-05-2.84405E-05-2.86114E-05-9.73419E-08-3.77343E-19-2.37242E-18
 -1       938 9.52211E-05-2.84832E-05-2.86020E-05-6.35400E-08-4.45258E-19-1.79381E-18
 -1       939 9.52340E-05-2.85137E-05-2.85944E-05-3.90379E-08 1.18731E-18-1.25318E-18
 -1       940 9.52417E-05-2.85354E-05-2.85884E-05-2.17293E-08-2.98233E-20-6.69488E-19
 -1       941 9.52459E-05-2.85505E-05-2.85838E-05-9.88890E-09 4.92973E-19-1.44438E-19
 -1       942 9.52478E-05-2.85608E-05-2.85802E-05-2.11142E-09 9.37726E-19-2.41795E-19
 -1       943 9.52483E-05-2.85676E-05-2.85774E-05 2.71753E-09 1.05660E-18-4.74060E-21
 -1       944 9.52478E-05-2.85719E-05-2.85754E-05 5.46191E-09 1.27291E-18 6.60006E-19
 -1       945 9.52469E-05-2.85744E-05-2.85739E-05 6.77734E-09 2.71583E-18 8.22256E-19
 -1       946 9.52457E-05-2.85757E-05-2.85728E-05 7.15076E-09 6.73247E-19 4.88483E-19
 -1       947 9.52444E-05-2.85762E-05-2.85721E-05 6.93557E-09 5.34296E-19 2.27885E-18
 -1       948 9.52431E-05-2.85762E-05-2.85716E-05 6.38238E-09 6.14080E-19 2.91991E-18
 -1       949 9.52420E-05-2.85758E-05-2.85712E-05 5.66024E-09 2.77301E-19 3.67978E-19
 -1       950 9.52409E-05-2.85753E-05-2.85710E-05 4.88360E-09-8.51965E-19-1.07965E-18
 -1       951 9.52401E-05-2.85748E-05-2.85708E-05 4.11278E-09-1.76307E-18-8.36566E-19
 -1       952 7.40659E-05-1.49881E-05-2.52939E-05 7.65841E-06-7.79420E-20 1.72335E-18
 -1       953 9.72756E-05-3.07558E-05-2.85084E-05 2.80085E-06-1.14835E-18 5.15293E-19
 -1       954 9.89881E-05-3.23951E-05-2.85400E-05 3.08788E-06-4.33630E-19 7.18950E-19
 -1       955 9.54650E-05-2.88410E-05-2.85531E-05 1.92078E-06-1.85931E-18-5.19947E-19
 -1       956 9.50874E-05-2.83911E-05-2.85841E-05 1.50976E-06-8.12948E-19-7.66192E-19
 -1       957 9.49108E-05-2.81570E-05-2.86088E-05 1.16125E-06 6.89342E-19-3.47677E-19
 -1       958 9.48571E-05-2.80653E-05-2.86251E-05 8.78417E-07 9.90404E-19-4.70175E-19
 -1       959 9.48723E-05-2.80608E-05-2.86335E-05 6.55266E-07 2.74054E-19-5.26485E-20
 -1       960 9.49212E-05-2.81047E-05-2.86356E-05 4.82537E-07-6.01854E-19 7.43164E-19
 -1       961 9.49819E-05-2.81711E-05-2.86332E-05 3.50673E-07-5.56981E-19 4.91501E-19
 -1       962 9.50421E-05-2.82436E-05-2.86279E-05 2.51110E-07-9.68881E-20 1.03620E-18
 -1       963 9.50956E-05-2.83130E-05-2.86211E-05 1.76677E-07 5.98721E-19 1.58210E-18
 -1       964 9.51398E-05-2.83745E-05-2.86137E-05 1.21594E-07 1.17713E-19-1.40511E-19
 -1       965 9.51744E-05-2.84261E-05-2.86064E-05 8.12930E-08-1.90841E-19 6.47032E-19
 -1       966 9.52003E-05-2.84677E-05-2.85997E-05 5.22015E-08 3.61893E-19 1.84983E-18
 -1       967 9.52188E-05-2.85001E-05-2.85938E-05 3.15499E-08-3.54414E-19 1.36251E-18
 -1       968 9.52315E-05-2.85246E-05-2.85887E-05 1.71971E-08-1.48221E-19 1.57856E-18
 -1       969 9.52396E-05-2.85426E-05-2.85844E-05 7.49457E-09 7.70032E-19 6.69050E-19
 -1       970 9.52444E-05-2.85554E-05-2.85810E-05 1.17941E-09 1.68686E-18-1.36663E-19
 -1       971 9.52469E-05-2.85642E-05-2.85783E-05-2.70926E-09 8.13217E-19-2.48669E-18
 -1       972 9.52477E-05-2.85699E-05-2.85762E-05-4.89625E-09-2.60879E-19-3.53431E-18
 -1       973 9.52475E-05-2.85734E-05-2.85746E-05-5.92219E-09-2.10260E-19-2.08252E-18
 -1       974 9.52467E-05-2.85754E-05-2.85734E-05-6.18461E-09 2.31216E-19-9.40581E-19
 -1       975 9.52455E-05-2.85763E-05-2.85725E-05-5.97070E-09 8.35166E-19 7.59190E-19
 -1       976 9.52443E-05-2.85765E-05-2.85719E-05-5.48378E-09-8.21458E-19 1.95019E-20
 -1       977 9.52430E-05-2.85763E-05-2.85715E-05-4.86046E-09 7.67549E-19 4.26600E-19
 -1       978 9.52418E-05-2.85758E-05-2.85712E-05-4.20132E-09 2.04313E-18 2.18547E-18
 -1       979 9.52411E-05-2.85754E-05-2.85710E-05-3.64632E-09 8.18503E-19 3.54932E-18
 -1       980 1.04394E-04-4.11365E-05-2.70779E-05 2.07915E-05-1.59738E-18-8.06810E-19
 -1       981 9.61500E-05-2.95969E-05-2.85227E-05 2.37127E-06-1.74059E-18-3.58878E-20
 -1       982 1.08246E-04-3.92489E-05-2.95680E-05 4.84368E-07-3.06397E-19-6.22153E-19
 -1       983 1.09625E-04-1.98774E-05-3.85543E-05-9.18387E-06 1.67108E-18-2.07523E-20
 -1       984 9.52424E-05-2.85763E-05-2.85712E-05-3.50279E-11-1.29814E-19-1.34262E-18
 -1       985 1.16310E-04-4.65566E-05-2.98311E-05 1.19473E-05-1.64549E-18-4.70315E-19
 -1       986 8.01134E-05-1.75507E-05-2.68098E-05 3.81949E-06 3.25850E-19 1.11708E-18
 -1       987 1.07663E-04-2.01528E-05-3.75607E-05 1.13076E-05 1.85548E-18 6.39993E-19
 -1       988 1.10878E-04-2.49845E-05-3.68938E-05-1.06457E-05 1.22207E-18-3.46728E-19
 -1       989 7.60800E-05-2.01895E-05-2.39144E-05 1.94800E-05-1.12517E-18 1.75131E-18
 -1       990 1.11773E-04-4.03590E-05-3.06068E-05-2.69704E-06 2.08012E-19-1.17741E-18
 -1       991 9.52424E-05-2.85763E-05-2.85712E-05-1.52000E-09 9.57620E-19 2.17411E-19
 -1       992 1.10089E-04-2.50025E-05-3.64735E-05 1.31449E-05 1.09303E-18 5.53624E-19
 -1       993 1.17059E-04-3.52650E-05-3.50569E-05-9.66108E-06 1.86202E-18-1.58864E-18
 -1       994 1.01412E-04-3.45203E-05-2.86680E-05 3.02088E-06-2.37664E-20 7.35008E-19
 -1       995 9.42407E-05-3.32087E-05-2.61220E-05 2.08043E-05-1.17269E-18-4.46599E-19
 -1       996 1.18661E-04-4.46007E-05-3.11240E-05 1.56008E-06-8.25659E-19-1.21584E-18
 -1       997 1.04572E-04-3.69691E-05-2.89729E-05 2.27665E-06-3.58146E-19 2.78594E-19
 -1       998 9.52421E-05-2.85761E-05-2.85711E-05 1.52981E-09-1.70917E-21 1.20430E-18
 -1       999 9.45463E-05-2.78082E-05-2.86020E-05 9.97368E-07 2.71568E-19-1.18085E-19
 -1      1000 9.52418E-05-2.85759E-05-2.85711E-05-2.64894E-09 1.36668E-18 1.81747E-18
 -1      1001 1.13269E-04-3.21468E-05-3.48645E-05-1.04130E-05 8.63444E-19-9.78244E-19
 -1      1002 8.73638E-05-2.24125E-05-2.78371E-05 3.53624E-06 4.79750E-20-2.75789E-19
 -1      1003 8.94268E-05-2.35883E-05-2.82168E-05 1.75505E-06-4.21182E-19-8.00693E-19
 -1      1004 9.10182E-05-2.46520E-05-2.84428E-05 6.94843E-07-8.31632E-19-1.04606E-18
 -1      1005 9.22130E-05-2.55478E-05-2.85709E-05 1.02502E-07-6.40649E-19-2.85713E-19
 -1      1006 9.30925E-05-2.62705E-05-2.86380E-05-1.97517E-07-8.66698E-20-5.37093E-19
 -1      1007 9.37304E-05-2.68379E-05-2.86683E-05-3.22746E-07-1.14065E-18-1.11654E-18
 -1      1008 9.41884E-05-2.72757E-05-2.86769E-05-3.49267E-07-4.72985E-19-1.57370E-18
 -1      1009 9.45147E-05-2.76098E-05-2.86735E-05-3.24647E-07-9.32196E-19-6.46357E-19
 -1      1010 9.47457E-05-2.78629E-05-2.86641E-05-2.77479E-07 6.70371E-19-1.86073E-18
 -1      1011 9.49084E-05-2.80536E-05-2.86520E-05-2.24105E-07-7.49265E-19-1.44165E-18
 -1      1012 9.50222E-05-2.81968E-05-2.86395E-05-1.73196E-07-1.24951E-18-4.75992E-19
 -1      1013 9.51012E-05-2.83036E-05-2.86275E-05-1.28864E-07-1.84491E-18-9.22760E-19
 -1      1014 9.51532E-05-2.83796E-05-2.86173E-05-9.39257E-08-1.29941E-18-6.34231E-19
 -1      1015 9.51907E-05-2.84391E-05-2.86078E-05-6.46654E-08 7.33214E-19-8.88892E-19
 -1      1016 9.52156E-05-2.84826E-05-2.85999E-05-4.24129E-08 2.89446E-19-2.55306E-19
 -1      1017 9.52315E-05-2.85139E-05-2.85933E-05-2.60052E-08 1.34820E-18-2.20556E-19
 -1      1018 9.52413E-05-2.85362E-05-2.85879E-05-1.43067E-08 6.42319E-19 1.65274E-19
 -1      1019 9.52468E-05-2.85517E-05-2.85836E-05-6.26862E-09 7.88003E-19 3.31017E-19
 -1      1020 9.52495E-05-2.85622E-05-2.85803E-05-9.89286E-10 6.55275E-19 3.38167E-19
 -1      1021 9.52503E-05-2.85690E-05-2.85777E-05 2.27153E-09 1.67109E-18-1.57487E-18
 -1      1022 9.52499E-05-2.85733E-05-2.85757E-05 4.10013E-09 2.16498E-18-2.31672E-18
 -1      1023 9.52488E-05-2.85757E-05-2.85742E-05 4.94723E-09 1.93341E-18-1.88921E-18
 -1      1024 9.52474E-05-2.85768E-05-2.85731E-05 5.14998E-09 1.63124E-18-1.11133E-18
 -1      1025 9.52459E-05-2.85771E-05-2.85723E-05 4.95273E-09 1.30530E-19-2.30354E-18
 -1      1026 9.52444E-05-2.85769E-05-2.85718E-05 4.53030E-09-1.49212E-18-3.15848E-18
 -1      1027 9.52430E-05-2.85765E-05-2.85714E-05 4.00096E-09-8.66650E-19-2.59870E-18
 -1      1028 9.52417E-05-2.85758E-05-2.85711E-05 3.44378E-09-8.93364E-19-3.95379E-19
 -1      1029 9.45380E-05-2.78712E-05-2.85714E-05 1.39949E-06-6.85899E-19-1.72912E-18
 -1      1030 9.46612E-05-2.80960E-05-2.85278E-05 1.93743E-06-1.42765E-18-1.96291E-18
 -1      1031 9.46220E-05-2.78399E-05-2.86209E-05 7.03607E-07 2.53910E-20 9.93505E-19
 -1      1032 9.47248E-05-2.79208E-05-2.86303E-05 4.92317E-07-6.27674E-19 8.54374E-19
 -1      1033 9.48315E-05-2.80217E-05-2.86328E-05 3.41888E-07 9.87911E-20 4.48345E-19
 -1      1034 9.49294E-05-2.81248E-05-2.86305E-05 2.35482E-07-8.02751E-19-1.37196E-19
 -1      1035 9.50130E-05-2.82203E-05-2.86255E-05 1.60538E-07-2.56402E-19-3.42370E-20
 -1      1036 9.50808E-05-2.83033E-05-2.86189E-05 1.07890E-07 1.33103E-18 1.27264E-18
 -1      1037 9.51335E-05-2.83725E-05-2.86119E-05 7.10667E-08-2.26971E-19 1.23133E-18
 -1      1038 9.51730E-05-2.84281E-05-2.86049E-05 4.54212E-08-6.31668E-20-7.59953E-19
 -1      1039 9.52015E-05-2.84715E-05-2.85986E-05 2.77070E-08 1.19581E-19 6.75826E-19
 -1      1040 9.52213E-05-2.85045E-05-2.85929E-05 1.56220E-08 2.61176E-19-2.71180E-19
 -1      1041 9.52345E-05-2.85289E-05-2.85881E-05 7.52997E-09 1.39061E-18-1.53307E-18
 -1      1042 9.52426E-05-2.85464E-05-2.85841E-05 2.26151E-09 1.88556E-18-2.36335E-18
 -1      1043 9.52472E-05-2.85586E-05-2.85808E-05-1.02447E-09 1.93281E-18-2.21737E-18
 -1      1044 9.52493E-05-2.85668E-05-2.85782E-05-2.93525E-09 1.76961E-19-1.37454E-18
 -1      1045 9.52498E-05-2.85720E-05-2.85762E-05-3.90973E-09-1.62088E-19-1.64076E-18
 -1      1046 9.52492E-05-2.85751E-05-2.85746E-05-4.26414E-09-1.34980E-18-1.41598E-18
 -1      1047 9.52481E-05-2.85767E-05-2.85735E-05-4.22454E-09-5.82010E-19 6.18443E-19
 -1      1048 9.52467E-05-2.85773E-05-2.85726E-05-3.94967E-09 5.41913E-19 1.57165E-18
 -1      1049 9.52451E-05-2.85772E-05-2.85720E-05-3.55193E-09-5.45710E-19 5.77148E-19
 -1      1050 9.52437E-05-2.85768E-05-2.85715E-05-3.10055E-09 4.40236E-19 1.53823E-18
 -1      1051 8.17330E-05-2.04450E-05-2.62615E-05 1.07026E-05-4.93734E-19 6.97721E-19
 -1      1052 9.57384E-05-2.94362E-05-2.84149E-05 3.48808E-06-6.45109E-19-5.11454E-19
 -1      1053 9.50140E-05-2.85764E-05-2.84731E-05 2.63314E-06-1.31900E-18-1.17647E-18
 -1      1054 1.05122E-04-1.73521E-05-3.76540E-05-4.71675E-06 1.61984E-18 6.14406E-19
 -1      1055 1.07958E-04-4.15573E-05-2.84261E-05 1.24932E-05-9.30361E-19-6.37539E-19
 -1      1056 1.15187E-04-3.81019E-05-3.21372E-05-9.79339E-06-1.45458E-19-1.82950E-18
 -1      1057 8.47867E-05-2.12753E-05-2.72194E-05 6.38971E-06-3.61872E-19-1.44550E-19
 -1      1058 9.70279E-05-3.08228E-05-2.83730E-05 4.45410E-06-3.53907E-19 1.71810E-20
 -1      1059 1.06616E-04-3.90957E-05-2.89381E-05 5.73271E-06-1.10065E-18-7.18463E-19
 -1      1060 9.52437E-05-2.85770E-05-2.85715E-05-6.06647E-10 8.75231E-19-7.88303E-19
 -1      1061 9.91114E-05-3.28735E-05-2.83878E-05 5.39129E-06-2.96714E-19-5.60549E-20
 -1      1062 9.52436E-05-2.85769E-05-2.85714E-05 1.24943E-09 3.31895E-19 5.27384E-19
 -1      1063 9.52427E-05-2.85764E-05-2.85713E-05-2.87862E-09 1.26088E-18 1.98285E-18
 -1      1064 1.00603E-04-3.62432E-05-2.75687E-05 1.46364E-05-8.89357E-19-8.12848E-19
 -1      1065 1.02254E-04-3.56813E-05-2.85304E-05 6.01607E-06-5.70890E-19-4.89048E-19
 -1      1066 8.68449E-05-2.67733E-05-2.57364E-05 1.85068E-05-1.34270E-18 7.24039E-20
 -1      1067 8.90304E-05-2.45419E-05-2.76387E-05 6.83518E-06-5.97080E-19 7.92082E-20
 -1      1068 1.11811E-04-4.24115E-05-2.97759E-05 4.09188E-06-8.37174E-19-5.76224E-19
 -1      1069 9.41421E-05-2.79646E-05-2.83615E-05 3.45973E-06-4.47853E-19-6.73890E-19
 -1      1070 9.01029E-05-2.47054E-05-2.80276E-05 4.21667E-06-6.36027E-19-4.69353E-19
 -1      1071 9.11605E-05-2.51577E-05-2.82869E-05 2.47515E-06-1.78235E-19-2.08446E-19
 -1      1072 9.20910E-05-2.57015E-05-2.84526E-05 1.35902E-06-9.04751E-19 2.44289E-19
 -1      1073 9.28602E-05-2.62352E-05-2.85536E-05 6.71991E-07-6.97563E-19-3.85465E-19
 -1      1074 9.34718E-05-2.67124E-05-2.86111E-05 2.69107E-07-7.93933E-19-9.97144E-19
 -1      1075 9.39454E-05-2.71176E-05-2.86405E-05 4.78291E-08-1.14328E-18-7.46540E-19
 -1      1076 9.43055E-05-2.74505E-05-2.86521E-05-6.17688E-08-2.52474E-19-1.85876E-18
 -1      1077 9.45753E-05-2.77182E-05-2.86531E-05-1.05805E-07-1.04126E-18-9.56151E-19
 -1      1078 9.47751E-05-2.79300E-05-2.86479E-05-1.13697E-07-2.92331E-19-1.72608E-18
 -1      1079 9.49213E-05-2.80955E-05-2.86396E-05-1.03525E-07-8.81735E-19-8.76221E-19
 -1      1080 9.50271E-05-2.82233E-05-2.86302E-05-8.60445E-08-5.27095E-19-1.00383E-18
 -1      1081 9.50995E-05-2.83168E-05-2.86212E-05-6.79180E-08-1.29730E-18 6.30730E-19
 -1      1082 9.51537E-05-2.83917E-05-2.86123E-05-5.02101E-08-1.23379E-18-3.81881E-19
 -1      1083 9.51910E-05-2.84477E-05-2.86043E-05-3.52913E-08 1.41205E-18 9.23257E-19
 -1      1084 9.52161E-05-2.84889E-05-2.85974E-05-2.34297E-08 6.82061E-19 4.69281E-19
 -1      1085 9.52324E-05-2.85187E-05-2.85916E-05-1.44492E-08 1.56317E-18 4.94800E-19
 -1      1086 9.52424E-05-2.85399E-05-2.85868E-05-7.93926E-09 1.08855E-18 2.12662E-18
 -1      1087 9.52480E-05-2.85546E-05-2.85829E-05-3.42383E-09 6.67910E-19 2.58621E-18
 -1      1088 9.52507E-05-2.85645E-05-2.85798E-05-4.46516E-10 3.44807E-19 2.72627E-18
 -1      1089 9.52514E-05-2.85708E-05-2.85774E-05 1.39029E-09 1.35774E-18 3.06666E-18
 -1      1090 9.52509E-05-2.85746E-05-2.85755E-05 2.41250E-09 2.22192E-18 1.56862E-18
 -1      1091 9.52497E-05-2.85767E-05-2.85741E-05 2.87552E-09 1.31207E-18 1.06752E-18
 -1      1092 9.52481E-05-2.85776E-05-2.85731E-05 2.97249E-09-8.56762E-19-1.60237E-18
 -1      1093 9.52465E-05-2.85777E-05-2.85723E-05 2.84224E-09-2.30254E-19-2.61329E-18
 -1      1094 9.52448E-05-2.85773E-05-2.85718E-05 2.59400E-09 6.41671E-20-9.36000E-19
 -1      1095 9.39523E-05-2.75542E-05-2.84562E-05 2.39627E-06-4.61126E-19-1.30428E-18
 -1      1096 9.44873E-05-2.76942E-05-2.86256E-05 4.58595E-07-8.48573E-19-4.31593E-19
 -1      1097 9.41211E-05-2.74414E-05-2.85770E-05 1.08076E-06-9.13172E-19-8.02748E-19
 -1      1098 8.81459E-05-2.49535E-05-2.70817E-05 1.05638E-05-3.49687E-19 1.45347E-19
 -1      1099 9.39822E-05-2.74177E-05-2.85275E-05 1.62385E-06-1.27862E-18-1.77070E-18
 -1      1100 9.46571E-05-2.78467E-05-2.86330E-05 2.93528E-07-9.05867E-20-2.29899E-19
 -1      1101 9.48027E-05-2.79908E-05-2.86337E-05 1.85945E-07-2.40212E-19 9.29085E-19
 -1      1102 9.49221E-05-2.81185E-05-2.86301E-05 1.16539E-07-2.81347E-19 6.24361E-19
 -1      1103 9.50164E-05-2.82267E-05-2.86242E-05 7.22029E-08-4.36968E-19 2.02089E-19
 -1      1104 9.50888E-05-2.83154E-05-2.86172E-05 4.39784E-08 7.88718E-19 9.08876E-19
 -1      1105 9.51427E-05-2.83860E-05-2.86100E-05 2.60493E-08 1.23018E-18 1.22929E-18
 -1      1106 9.51816E-05-2.84410E-05-2.86031E-05 1.47541E-08 7.82702E-20 8.71497E-19
 -1      1107 9.52089E-05-2.84827E-05-2.85969E-05 7.67899E-09 1.20843E-18-2.81292E-19
 -1      1108 9.52273E-05-2.85137E-05-2.85915E-05 3.29804E-09 1.32398E-18-1.85115E-18
 -1      1109 9.52390E-05-2.85361E-05-2.85870E-05 6.41267E-10 1.38222E-18-7.47172E-19
 -1      1110 9.52460E-05-2.85520E-05-2.85832E-05-9.09429E-10 1.70144E-18 6.52447E-19
 -1      1111 9.52497E-05-2.85627E-05-2.85801E-05-1.75069E-09 1.27690E-18 4.88468E-19
 -1      1112 9.52510E-05-2.85698E-05-2.85777E-05-2.13962E-09-6.12333E-19 2.56565E-19
 -1      1113 9.52509E-05-2.85741E-05-2.85758E-05-2.24471E-09-8.93014E-19 1.80072E-18
 -1      1114 9.52500E-05-2.85765E-05-2.85744E-05-2.17740E-09-1.56344E-18 6.73176E-19
 -1      1115 9.52485E-05-2.85775E-05-2.85733E-05-2.01245E-09-1.08667E-18-8.82282E-19
 -1      1116 9.52469E-05-2.85778E-05-2.85725E-05-1.79892E-09-1.65437E-19 4.11057E-19
 -1      1117 9.52452E-05-2.85774E-05-2.85719E-05-1.56645E-09-1.23530E-19 7.00990E-20
 -1      1118 9.43021E-05-2.75495E-05-2.86082E-05 7.08531E-07-3.69754E-19-1.39025E-18
 -1      1119 1.01927E-04-3.62437E-05-2.81468E-05 1.02711E-05-5.16639E-19-7.67637E-19
 -1      1120 9.47270E-05-2.88132E-05-2.82483E-05 4.86245E-06-8.17720E-19-9.91293E-19
 -1      1121 9.46686E-05-3.14765E-05-2.70800E-05 1.48863E-05-1.01417E-18-1.50202E-19
 -1      1122 9.52454E-05-2.85776E-05-2.85719E-05 5.28975E-10 5.61186E-19-1.34652E-19
 -1      1123 9.81987E-05-3.26897E-05-2.80703E-05 8.53351E-06-6.25015E-19-1.25961E-18
 -1      1124 9.59760E-05-3.03256E-05-2.81352E-05 6.60472E-06-4.35390E-19-1.18918E-18
 -1      1125 9.22906E-05-2.64748E-05-2.82071E-05 4.03709E-06-6.32089E-20 1.33765E-19
 -1      1126 9.26380E-05-2.64342E-05-2.83733E-05 2.57748E-06-3.08780E-19-4.61222E-19
 -1      1127 9.30694E-05-2.65999E-05-2.84871E-05 1.58869E-06-7.22341E-19-1.20429E-19
 -1      1128 9.34973E-05-2.68560E-05-2.85607E-05 9.41268E-07-1.47462E-18-5.28290E-19
 -1      1129 9.38809E-05-2.71359E-05-2.86051E-05 5.31248E-07-3.86240E-19-2.67167E-19
 -1      1130 9.42052E-05-2.74041E-05-2.86290E-05 2.80600E-07-1.35689E-18 4.48243E-19
 -1      1131 9.44691E-05-2.76439E-05-2.86394E-05 1.33492E-07-3.63382E-19 3.63672E-21
 -1      1132 9.46779E-05-2.78489E-05-2.86410E-05 5.14827E-08-8.20860E-19-8.74760E-20
 -1      1133 9.48393E-05-2.80189E-05-2.86373E-05 8.97645E-09-4.74410E-19-7.32670E-19
 -1      1134 9.49617E-05-2.81564E-05-2.86308E-05-1.05289E-08-5.18193E-19-7.96678E-19
 -1      1135 9.50488E-05-2.82608E-05-2.86234E-05-1.71304E-08 5.22051E-19-1.46544E-18
 -1      1136 9.51164E-05-2.83471E-05-2.86154E-05-1.77183E-08-9.19144E-19-2.56630E-19
 -1      1137 9.51645E-05-2.84133E-05-2.86077E-05-1.53264E-08 6.19895E-19 1.92842E-18
 -1      1138 9.51981E-05-2.84631E-05-2.86007E-05-1.19429E-08 7.73381E-19 6.70409E-19
 -1      1139 9.52207E-05-2.84999E-05-2.85946E-05-8.59916E-09 1.47130E-18 2.43762E-18
 -1      1140 9.52354E-05-2.85266E-05-2.85895E-05-5.74218E-09 1.61118E-18 1.70108E-18
 -1      1141 9.52443E-05-2.85456E-05-2.85852E-05-3.50547E-09 1.58409E-18 7.44716E-19
 -1      1142 9.52492E-05-2.85586E-05-2.85817E-05-1.86575E-09 1.36243E-18 2.17394E-18
 -1      1143 9.52513E-05-2.85672E-05-2.85789E-05-7.32779E-10 7.98529E-19 2.83007E-18
 -1      1144 9.52517E-05-2.85726E-05-2.85767E-05 1.94683E-12 4.22736E-19 5.54251E-19
 -1      1145 9.52510E-05-2.85758E-05-2.85751E-05 4.41245E-10 1.70602E-19 4.57620E-19
 -1      1146 9.52496E-05-2.85774E-05-2.85738E-05 6.72253E-10-3.13863E-19-1.24352E-18
 -1      1147 9.52479E-05-2.85779E-05-2.85729E-05 7.66727E-10-1.23681E-18-8.74744E-19
 -1      1148 9.26011E-05-2.80180E-05-2.76787E-05 8.91143E-06-4.91221E-19 2.94160E-19
 -1      1149 9.70146E-05-3.24174E-05-2.76898E-05 1.13901E-05-2.72922E-19 1.13609E-20
 -1      1150 9.21938E-05-2.69133E-05-2.79775E-05 6.10992E-06-6.14460E-19 3.34103E-19
 -1      1151 1.39289E-04 3.40745E-10-5.06071E-05-3.72516E-05-1.35525E-19 1.07378E-17
 -1      1152 1.04150E-04 9.94861E-11-4.31938E-05-1.13006E-05-1.23667E-19 3.46410E-18
 -1      1153 8.66046E-05 2.45108E-11-3.70307E-05-4.09913E-06-1.19432E-19-3.38191E-19
 -1      1154 7.32891E-05-1.79416E-11-3.19778E-05-4.36679E-06-8.93620E-20-2.47522E-18
 -1      1155 6.54214E-05-3.53552E-11-2.88411E-05-8.37833E-06-6.91391E-20-3.63672E-18
 -1      1156 6.35307E-05-2.85692E-11-2.79108E-05-1.29507E-05-5.25955E-20-4.10360E-18
 -1      1157 6.64603E-05-5.44567E-12-2.88128E-05-1.55789E-05-4.43634E-20-4.24224E-18
 -1      1158 7.20473E-05 2.12606E-11-3.07891E-05-1.50088E-05-3.51519E-20-4.10565E-18
 -1      1159 7.79565E-05 4.12941E-11-3.29956E-05-1.14294E-05-1.39760E-20-3.92092E-18
 -1      1160 8.26211E-05 5.11642E-11-3.48250E-05-5.93276E-06 5.29396E-22-3.78780E-18
 -1      1161 8.54470E-05 5.26331E-11-3.60082E-05 2.80113E-07 2.59404E-21-3.66008E-18
 -1      1162 8.65736E-05 4.95024E-11-3.65523E-05 6.31057E-06 3.01094E-20-3.35185E-18
 -1      1163 8.65562E-05 4.51316E-11-3.66476E-05 1.18257E-05 4.86978E-20-2.88296E-18
 -1      1164 8.61332E-05 4.22954E-11-3.65850E-05 1.68424E-05 7.57697E-20-1.97570E-18
 -1      1165 8.63876E-05 4.45662E-11-3.67934E-05 2.16408E-05 1.16255E-19-2.03883E-19
 -1      1166 8.96386E-05 6.36829E-11-3.79993E-05 2.73561E-05 1.37855E-19 3.50841E-18
 -1      1167 1.08731E-04 1.61367E-10-4.13843E-05 3.90039E-05 3.21873E-19 1.13758E-17
 -1      1168 1.62171E-04-3.40744E-05-5.09594E-05-2.47174E-05-7.39883E-19 1.55672E-17
 -1      1169 1.44093E-04-4.29750E-05-4.59890E-05 8.85682E-07-2.48657E-19 1.41320E-17
 -1      1170 1.52798E-04-4.59618E-05-4.67234E-05 1.47434E-06-1.18267E-19 1.19620E-17
 -1      1171 1.67386E-04-5.04607E-05-4.96574E-05 1.41186E-06 6.82259E-21 1.13704E-17
 -1      1172 1.78423E-04-5.37083E-05-5.13740E-05 3.36746E-07 1.71220E-19 1.23675E-17
 -1      1173 1.70839E-04-5.09797E-05-4.87235E-05-3.00001E-06 1.31687E-19 1.44423E-17
 -1      1174 1.36201E-04-3.94353E-05-4.18573E-05-6.37702E-06 8.13416E-20 1.52618E-17
 -1      1175 9.52531E-05-2.72016E-05-3.47387E-05-5.00937E-06-5.04514E-20 1.26742E-17
 -1      1176 7.67742E-05-2.12778E-05-3.17942E-05 1.90701E-07-2.17317E-19 6.24221E-18
 -1      1177 9.68148E-05-2.78171E-05-3.48086E-05 4.87719E-06-1.07044E-19-7.53859E-19
 -1      1178 1.36873E-04-4.01978E-05-4.16975E-05 5.18536E-06-8.15269E-21-5.17368E-18
 -1      1179 1.69405E-04-5.06984E-05-4.84248E-05 2.66825E-06-2.52601E-19-6.60643E-18
 -1      1180 1.77185E-04-5.34929E-05-5.09971E-05 1.60261E-07 2.02666E-19-4.43623E-18
 -1      1181 1.65308E-04-4.98306E-05-4.88327E-05-8.62597E-07 8.87763E-20-3.11952E-18
 -1      1182 1.47596E-04-4.43612E-05-4.44014E-05-8.84806E-07 2.98304E-19-5.93558E-19
 -1      1183 1.31710E-04-3.95303E-05-3.99020E-05-6.30665E-07 1.46510E-20 3.02814E-19
 -1      1184 1.19970E-04-3.60058E-05-3.63608E-05-3.76996E-07-8.47794E-20 1.70254E-19
 -1      1185 1.11751E-04-3.35368E-05-3.37944E-05-2.36374E-07 1.73172E-19-3.21767E-19
 -1      1186 1.06046E-04-3.18292E-05-3.19915E-05-1.31398E-07 1.72753E-19-1.52447E-18
 -1      1187 1.02284E-04-3.07004E-05-3.07977E-05-7.18167E-08 3.54447E-20 1.05972E-19
 -1      1188 9.98164E-05-2.99579E-05-3.00155E-05-3.85120E-08 2.07002E-20-8.45968E-19
 -1      1189 9.81984E-05-2.94698E-05-2.95039E-05-2.01493E-08 1.94966E-19-5.20996E-19
 -1      1190 9.71351E-05-2.91483E-05-2.91687E-05-1.01191E-08-9.91670E-20-7.66419E-19
 -1      1191 9.64346E-05-2.89361E-05-2.89484E-05-4.68594E-09-1.61242E-20-4.73711E-18
 -1      1192 9.59728E-05-2.87960E-05-2.88035E-05-1.77683E-09 4.17074E-19-3.61402E-18
 -1      1193 9.56691E-05-2.87038E-05-2.87084E-05-2.50965E-10-3.46150E-20-2.81115E-18
 -1      1194 9.54708E-05-2.86434E-05-2.86463E-05 5.17219E-10-2.88583E-19-9.08278E-19
 -1      1195 9.53433E-05-2.86045E-05-2.86063E-05 8.70623E-10-1.95434E-19 8.44601E-19
 -1      1196 9.52633E-05-2.85801E-05-2.85812E-05 9.97653E-10-9.37720E-20 1.47705E-19
 -1      1197 9.52153E-05-2.85654E-05-2.85660E-05 1.00242E-09 2.89471E-19-8.26442E-20
 -1      1198 9.51887E-05-2.85572E-05-2.85575E-05 9.43122E-10 2.80134E-19 1.15103E-18
 -1      1199 9.51760E-05-2.85532E-05-2.85534E-05 8.52731E-10 2.74139E-19 2.22787E-19
 -1      1200 9.51724E-05-2.85520E-05-2.85521E-05 7.48353E-10-1.81869E-19-1.98591E-18
 -1      1201 9.51743E-05-2.85525E-05-2.85524E-05 6.61798E-10-2.35682E-19-2.91337E-18
 -1      1202 9.51792E-05-2.85539E-05-2.85538E-05 5.51590E-10-5.72207E-19-4.78395E-18
 -1      1203 9.51858E-05-2.85558E-05-2.85557E-05 4.56430E-10-2.38727E-19-2.66129E-18
 -1      1204 9.51931E-05-2.85580E-05-2.85579E-05 3.73677E-10 1.84174E-19 7.50549E-20
 -1      1205 9.52002E-05-2.85601E-05-2.85600E-05 3.01680E-10-5.93300E-19-6.56398E-19
 -1      1206 9.52069E-05-2.85621E-05-2.85620E-05 2.40201E-10 1.12168E-19-5.26984E-18
 -1      1207 9.52128E-05-2.85639E-05-2.85638E-05 1.88699E-10 5.56480E-19-2.52330E-18
 -1      1208 9.52180E-05-2.85654E-05-2.85653E-05 1.46350E-10 3.17069E-19 1.47401E-18
 -1      1209 9.52224E-05-2.85667E-05-2.85667E-05 1.12180E-10 2.14264E-19 5.35177E-19
 -1      1210 9.52261E-05-2.85678E-05-2.85678E-05 8.51589E-11 2.73504E-19 2.72234E-18
 -1      1211 9.52291E-05-2.85687E-05-2.85687E-05 6.42509E-11 2.38112E-19 3.01933E-18
 -1      1212 9.52315E-05-2.85694E-05-2.85694E-05 4.84189E-11-2.65633E-19-1.56465E-18
 -1      1213 9.52335E-05-2.85700E-05-2.85700E-05 3.65620E-11-1.02151E-19-4.41485E-18
 -1      1214 9.52350E-05-2.85705E-05-2.85705E-05 2.73879E-11 3.56343E-19-5.20961E-18
 -1      1215 9.52361E-05-2.85708E-05-2.85708E-05 1.88062E-11 1.85058E-19 2.73981E-19
 -1      1216 9.52368E-05-2.85710E-05-2.85710E-05 6.96839E-12 1.58489E-19 1.66513E-18
 -1      1217 9.52372E-05-2.85712E-05-2.85711E-05-1.39192E-11-3.82035E-19 4.62370E-18
 -1      1218 9.52372E-05-2.85711E-05-2.85712E-05-3.65501E-11 3.82281E-19 3.21240E-18
 -1      1219 1.34213E-04-3.87409E-05-3.92150E-05 1.28691E-05-2.01779E-19 1.79804E-17
 -1      1220 9.51346E-05-2.76990E-05-3.09715E-05 9.05322E-07 1.34705E-19 1.45037E-17
 -1      1221 8.60106E-05-2.55947E-05-2.65619E-05 1.56295E-07-5.26087E-21 1.12931E-17
 -1      1222 8.08723E-05-2.42635E-05-2.44020E-05 6.76610E-08 9.67834E-20 8.81571E-18
 -1      1223 7.70600E-05-2.31679E-05-2.31353E-05 8.09524E-08 5.93469E-20 7.09365E-18
 -1      1224 7.40082E-05-2.22559E-05-2.22433E-05 1.15425E-07-2.36292E-20 5.90979E-18
 -1      1225 7.18681E-05-2.16096E-05-2.16531E-05 1.31562E-07-4.67738E-20 4.91961E-18
 -1      1226 7.10061E-05-2.13424E-05-2.14343E-05 1.14223E-07 1.25136E-20 4.22791E-18
 -1      1227 7.16966E-05-2.15371E-05-2.16527E-05 6.41939E-08 1.41448E-20 3.09952E-18
 -1      1228 7.39401E-05-2.21962E-05-2.23049E-05-5.10177E-09-4.98178E-20 2.81644E-18
 -1      1229 7.74219E-05-2.32285E-05-2.33046E-05-7.39115E-08-2.08152E-20 2.42468E-18
 -1      1230 8.15988E-05-2.44746E-05-2.45030E-05-1.24298E-07 7.27050E-20 1.19802E-18
 -1      1231 8.58697E-05-2.57591E-05-2.57246E-05-1.49334E-07 6.26335E-20 2.47863E-19
 -1      1232 8.97483E-05-2.69143E-05-2.67895E-05-2.07171E-07-2.13518E-19 8.80782E-19
 -1      1233 9.22553E-05-2.76700E-05-2.76111E-05-1.15031E-07 1.48509E-19 4.11777E-19
 -1      1234 9.43493E-05-2.82997E-05-2.82431E-05-8.64353E-08-1.64886E-19-6.79585E-19
 -1      1235 9.56962E-05-2.87051E-05-2.86585E-05-5.81175E-08 3.35645E-20-6.12445E-19
 -1      1236 9.64369E-05-2.89284E-05-2.88945E-05-3.43443E-08 2.07416E-20-7.25466E-19
 -1      1237 9.67365E-05-2.90191E-05-2.89973E-05-1.66848E-08-5.57090E-20-8.32149E-19
 -1      1238 9.67481E-05-2.90233E-05-2.90111E-05-4.93017E-09-1.42394E-19 2.61530E-19
 -1      1239 9.65948E-05-2.89779E-05-2.89725E-05 2.00611E-09-2.27995E-19 1.31869E-18
 -1      1240 9.63657E-05-2.89096E-05-2.89085E-05 5.44864E-09 6.01605E-20 1.05957E-18
 -1      1241 9.61190E-05-2.88359E-05-2.88372E-05 6.60468E-09 8.80261E-20-5.70983E-19
 -1      1242 9.58889E-05-2.87670E-05-2.87694E-05 6.42032E-09 1.91322E-19-3.09358E-18
 -1      1243 9.56919E-05-2.87080E-05-2.87107E-05 5.56224E-09-3.48994E-19-1.43060E-18
 -1      1244 9.55337E-05-2.86606E-05-2.86631E-05 4.45867E-09 1.23232E-19-5.03108E-20
 -1      1245 9.54131E-05-2.86244E-05-2.86266E-05 3.35864E-09-1.44586E-19-1.52216E-18
 -1      1246 9.53255E-05-2.85981E-05-2.85998E-05 2.38837E-09-3.55701E-19-9.70184E-19
 -1      1247 9.52651E-05-2.85799E-05-2.85812E-05 1.59654E-09-1.50187E-20-1.14999E-18
 -1      1248 9.52259E-05-2.85681E-05-2.85690E-05 9.87111E-10 2.00100E-19-1.20980E-18
 -1      1249 9.52026E-05-2.85610E-05-2.85616E-05 5.41218E-10 2.89758E-19-1.45103E-18
 -1      1250 9.51906E-05-2.85574E-05-2.85578E-05 2.30811E-10-2.98315E-19-1.73356E-19
 -1      1251 9.51863E-05-2.85561E-05-2.85563E-05 2.64568E-11 2.92014E-19-1.14186E-18
 -1      1252 9.51871E-05-2.85562E-05-2.85564E-05-9.86465E-11 5.36414E-20-4.39801E-18
 -1      1253 9.51909E-05-2.85573E-05-2.85574E-05-1.67007E-10-7.32760E-20-2.61230E-18
 -1      1254 9.51962E-05-2.85589E-05-2.85589E-05-1.96499E-10 7.32484E-20-3.62313E-18
 -1      1255 9.52021E-05-2.85607E-05-2.85606E-05-2.00714E-10-2.12013E-19-5.19986E-18
 -1      1256 9.52080E-05-2.85624E-05-2.85624E-05-1.89606E-10 1.58216E-19-1.42608E-18
 -1      1257 9.52134E-05-2.85640E-05-2.85640E-05-1.70211E-10 3.02504E-19-6.41912E-19
 -1      1258 9.52183E-05-2.85655E-05-2.85655E-05-1.47321E-10 2.77022E-19-2.10616E-18
 -1      1259 9.52226E-05-2.85668E-05-2.85667E-05-1.24068E-10-4.11562E-19-1.51737E-18
 -1      1260 9.52262E-05-2.85678E-05-2.85678E-05-1.02399E-10 2.61480E-19-6.09337E-19
 -1      1261 9.52291E-05-2.85687E-05-2.85687E-05-8.34448E-11-1.98663E-19-1.53888E-18
 -1      1262 9.52315E-05-2.85695E-05-2.85694E-05-6.77916E-11 2.21701E-19-3.54260E-18
 -1      1263 9.52335E-05-2.85700E-05-2.85700E-05-5.56186E-11-6.73245E-19-4.79156E-18
 -1      1264 9.52350E-05-2.85705E-05-2.85705E-05-4.66226E-11 2.85105E-19-5.53610E-18
 -1      1265 9.52361E-05-2.85708E-05-2.85708E-05-3.96623E-11-9.21245E-20-8.00227E-18
 -1      1266 9.52368E-05-2.85710E-05-2.85710E-05-3.01903E-11-2.79979E-20-7.20862E-18
 -1      1267 9.52372E-05-2.85712E-05-2.85711E-05-6.96398E-12 7.92292E-19-9.32663E-18
 -1      1268 9.52372E-05-2.85712E-05-2.85712E-05 2.24481E-11 2.69473E-19-7.33644E-18
 -1      1269 9.52371E-05-2.85711E-05-2.85712E-05 2.21595E-11-7.73812E-18-3.11528E-19
 -1      1270 9.52371E-05-2.85711E-05-2.85711E-05 2.17035E-11-1.18564E-17 5.80725E-19
 -1      1271 9.52373E-05-2.85715E-05-2.85710E-05-1.40651E-11-8.72909E-18 2.10005E-19
 -1      1272 9.52375E-05-2.85722E-05-2.85708E-05-3.19778E-11-4.93836E-18-2.90067E-19
 -1      1273 9.52377E-05-2.85730E-05-2.85706E-05-3.73150E-11-3.40567E-18-3.51828E-19
 -1      1274 9.52379E-05-2.85738E-05-2.85703E-05-3.43442E-11-1.11001E-17-1.53350E-18
 -1      1275 9.52382E-05-2.85745E-05-2.85701E-05-2.62687E-11-1.18194E-17-1.46128E-19
 -1      1276 9.52383E-05-2.85750E-05-2.85700E-05-1.39528E-11-6.17798E-18-8.02023E-19
 -1      1277 9.52383E-05-2.85752E-05-2.85700E-05 1.85628E-13-2.03335E-18 5.58488E-19
 -1      1278 9.52383E-05-2.85750E-05-2.85700E-05 1.43228E-11 1.62845E-18 5.60587E-19
 -1      1279 9.52382E-05-2.85745E-05-2.85701E-05 2.65719E-11 5.35227E-19-8.92700E-19
 -1      1280 9.52379E-05-2.85738E-05-2.85703E-05 3.50600E-11-4.15925E-18 5.29179E-19
 -1      1281 9.52377E-05-2.85730E-05-2.85706E-05 3.74699E-11 2.52101E-19-3.20049E-19
 -1      1282 9.52374E-05-2.85721E-05-2.85708E-05 3.14239E-11-1.56120E-18-2.93413E-20
 -1      1283 9.52372E-05-2.85715E-05-2.85710E-05 1.11845E-11-2.40557E-18 9.77114E-19
 -1      1284 9.52371E-05-2.85711E-05-2.85711E-05-2.92038E-11-7.87573E-18 7.47015E-19
 -1      1285 9.52372E-05-2.85711E-05-2.85712E-05-3.44574E-11-3.14544E-18 6.34658E-19
 -1      1286 3.45414E-05-1.08833E-04 1.88329E-05-1.29599E-05 1.53821E-18 1.44671E-18
 -1      1287 1.57987E-05-5.58340E-05 7.29257E-06-2.05404E-05 1.26953E-17 5.08813E-18
 -1      1288 8.79092E-06 3.40636E-06-1.06734E-05 1.05291E-05 1.89261E-17 1.21109E-17
 -1      1289 4.37065E-05 3.23861E-05-3.19112E-05 6.91273E-05 1.84755E-17 1.83179E-17
 -1      1290 1.24719E-04 1.42526E-05-5.24392E-05 1.15550E-04 1.29935E-17 1.82807E-17
 -1      1291 2.27277E-04-3.69122E-05-6.99143E-05 1.16312E-04 5.46379E-18 1.22057E-17
 -1      1292 3.09088E-04-8.69550E-05-8.07191E-05 6.29418E-05 1.44758E-18 5.13725E-18
 -1      1293 3.22438E-04-9.58106E-05-8.26871E-05-2.18277E-05 1.01858E-18-5.10909E-18
 -1      1294 2.70576E-04-6.42985E-05-7.60876E-05-9.45791E-05 4.36434E-18-1.43852E-17
 -1      1295 1.75944E-04-1.09648E-05-6.25292E-05-1.21590E-04 1.01966E-17-1.90379E-17
 -1      1296 8.18634E-05 2.79041E-05-4.39945E-05-9.77315E-05 1.61529E-17-1.94953E-17
 -1      1297 2.30667E-05 2.71305E-05-2.34239E-05-4.49063E-05 1.95834E-17-1.59191E-17
 -1      1298 7.90706E-06-1.25279E-05-4.67074E-06 1.51188E-06 1.90413E-17-9.95857E-18
 -1      1299 2.01806E-05-6.78817E-05 1.02526E-05 1.71785E-05 1.30723E-17-4.15893E-18
 -1      1300 3.61795E-05-1.10031E-04 1.86964E-05 2.38129E-06 3.79598E-18-8.99073E-19
 -1      1301 3.27014E-05-1.09162E-04 1.88610E-05-2.69353E-05-6.90417E-18-2.20377E-18
 -1      1302 1.41139E-05-6.85050E-05 9.96248E-06-3.78281E-05-1.63283E-17-7.79524E-18
 -1      1303 7.37698E-06-1.41625E-05-7.13108E-06-7.61288E-06-2.10064E-17-1.57743E-17
 -1      1304 4.52145E-05 1.53785E-05-2.98413E-05 5.15246E-05-2.07964E-17-2.30952E-17
 -1      1305 1.39705E-04-1.79404E-06-5.41706E-05 1.06027E-04-1.54948E-17-2.56363E-17
 -1      1306 2.67462E-04-5.62087E-05-7.52222E-05 1.15540E-04-8.45508E-18-2.32917E-17
 -1      1307 3.68852E-04-1.08317E-04-8.84825E-05 5.84243E-05-2.66037E-18-1.45834E-17
 -1      1308 3.85407E-04-1.17267E-04-9.05424E-05-3.50793E-05-9.36421E-19-1.20321E-18
 -1      1309 3.06326E-04-7.46766E-05-8.08332E-05-1.06549E-04-4.28302E-18 1.17619E-17
 -1      1310 1.81774E-04-1.59579E-05-6.20903E-05-1.18728E-04-1.06718E-17 2.07201E-17
 -1      1311 7.29205E-05 1.68121E-05-3.88986E-05-7.65809E-05-1.68831E-17 2.11623E-17
 -1      1312 1.53431E-05 3.08471E-06-1.52401E-05-1.42869E-05-2.04592E-17 1.75607E-17
 -1      1313 7.86487E-06-4.51840E-05 4.27717E-06 2.98201E-05-2.11131E-17 1.13375E-17
 -1      1314 2.49787E-05-9.61732E-05 1.67194E-05 3.71174E-05-2.02881E-17 6.57192E-18
 -1      1315 3.96066E-05-1.24279E-04 2.18466E-05 1.60037E-05-1.15091E-17 2.10689E-18
 -1      1316 1.35818E-04-3.01642E-05-4.77608E-05-1.10961E-05-2.09641E-19 9.62907E-18
 -1      1317 1.04070E-04-9.19704E-06-4.09371E-05-6.83757E-06-9.37665E-19 1.82456E-18
 -1      1318 1.14009E-04-1.00583E-05-4.43023E-05-1.33721E-05-1.13142E-18 3.80593E-18
 -1      1319 8.33365E-05-2.13729E-06-3.51944E-05-3.72439E-06-1.05498E-18-1.25819E-18
 -1      1320 9.20187E-05-2.56953E-06-3.81030E-05-5.15195E-06-1.16891E-18 1.34069E-19
 -1      1321 1.01563E-04-1.08488E-05-3.88673E-05-5.62387E-06-1.60926E-18 1.51407E-18
 -1      1322 6.84845E-05 2.04667E-06-3.06439E-05-5.54287E-06-1.03412E-18-3.05751E-18
 -1      1323 7.44862E-05 1.85291E-06-3.27627E-05-4.44522E-06-1.13227E-18-2.22774E-18
 -1      1324 7.93218E-05-1.04021E-06-3.36334E-05-4.59065E-06-1.68141E-18-1.17828E-18
 -1      1325 6.11922E-05 3.71070E-06-2.81213E-05-1.01106E-05-1.04630E-18-3.96033E-18
 -1      1326 6.36450E-05 3.71009E-06-2.91273E-05-7.99852E-06-1.11755E-18-3.56914E-18
 -1      1327 6.46391E-05 4.44775E-06-2.97084E-05-7.45963E-06-1.73308E-18-2.75425E-18
 -1      1328 6.15844E-05 2.92103E-06-2.77587E-05-1.43653E-05-9.94126E-19-4.30029E-18
 -1      1329 6.07362E-05 3.06266E-06-2.76920E-05-1.26976E-05-1.08222E-18-4.13098E-18
 -1      1330 5.92027E-05 5.41517E-06-2.77915E-05-1.21208E-05-1.74758E-18-3.47485E-18
 -1      1331 6.74675E-05 4.88718E-07-2.90522E-05-1.60836E-05-9.35548E-19-4.28121E-18
 -1      1332 6.44585E-05 7.09199E-07-2.82257E-05-1.57503E-05-9.70912E-19-4.29394E-18
 -1      1333 6.21467E-05 2.58286E-06-2.78547E-05-1.56635E-05-1.66830E-18-3.66221E-18
 -1      1334 7.54145E-05-2.23996E-06-3.11768E-05-1.43758E-05-7.38930E-19-4.08306E-18
 -1      1335 7.18083E-05-2.04287E-06-3.00417E-05-1.56014E-05-8.11458E-19-4.14845E-18
 -1      1336 7.03057E-05-2.10416E-06-2.93447E-05-1.60962E-05-1.48321E-18-3.52202E-18
 -1      1337 8.25009E-05-4.24014E-06-3.33271E-05-9.91921E-06-4.79897E-19-3.92782E-18
 -1      1338 7.94640E-05-4.11801E-06-3.22690E-05-1.22980E-05-5.56924E-19-3.98632E-18
 -1      1339 7.95606E-05-6.41133E-06-3.14460E-05-1.31820E-05-1.09299E-18-3.31103E-18
 -1      1340 8.72742E-05-5.18881E-06-3.49893E-05-4.01195E-06-1.92329E-19-3.81705E-18
 -1      1341 8.53185E-05-5.14834E-06-3.42255E-05-6.94853E-06-2.72745E-19-3.85601E-18
 -1      1342 8.69701E-05-9.09535E-06-3.34402E-05-8.00624E-06-6.49515E-19-3.12296E-18
 -1      1343 8.95904E-05-5.29169E-06-3.59825E-05 2.19767E-06 5.24102E-20-3.61053E-18
 -1      1344 8.87058E-05-5.31112E-06-3.55655E-05-8.12515E-07-8.68209E-21-3.71157E-18
 -1      1345 9.14091E-05-1.00568E-05-3.49080E-05-1.92215E-06-2.01918E-19-2.96710E-18
 -1      1346 9.00350E-05-4.94483E-06-3.63675E-05 7.94576E-06 3.91501E-19-3.29350E-18
 -1      1347 8.99317E-05-4.99561E-06-3.62367E-05 5.17179E-06 2.79891E-19-3.46357E-18
 -1      1348 9.31324E-05-9.86043E-06-3.57248E-05 4.04936E-06 2.70963E-19-2.72366E-18
 -1      1349 8.94473E-05-4.47597E-06-3.63596E-05 1.32124E-05 7.72358E-19-2.76686E-18
 -1      1350 8.97532E-05-4.54910E-06-3.63918E-05 1.06476E-05 6.20437E-19-3.06756E-18
 -1      1351 9.30557E-05-9.18980E-06-3.59878E-05 9.52244E-06 8.38554E-19-2.36645E-18
 -1      1352 8.87596E-05-4.15499E-06-3.62490E-05 1.80007E-05 1.11824E-18-1.79147E-18
 -1      1353 8.90255E-05-4.25147E-06-3.62734E-05 1.56038E-05 9.61647E-19-2.41142E-18
 -1      1354 9.22197E-05-8.61873E-06-3.58958E-05 1.44767E-05 1.42044E-18-1.80164E-18
 -1      1355 8.92876E-05-4.30409E-06-3.64642E-05 2.27236E-05 1.37823E-18 2.05061E-19
 -1      1356 8.88487E-05-4.44448E-06-3.62177E-05 2.01802E-05 1.20774E-18-1.00826E-18
 -1      1357 9.18570E-05-8.74727E-06-3.57169E-05 1.90444E-05 1.86394E-18-6.02240E-19
 -1      1358 9.42598E-05-6.42269E-06-3.76912E-05 2.84407E-05 1.28177E-18 4.19091E-18
 -1      1359 9.13178E-05-6.15108E-06-3.66935E-05 2.46884E-05 1.20670E-18 1.76342E-18
 -1      1360 9.40373E-05-1.08437E-05-3.57666E-05 2.33437E-05 2.09103E-18 1.71434E-18
 -1      1361 1.25837E-04-2.51448E-05-3.96317E-05 3.07814E-05 6.49780E-19 1.19584E-17
 -1      1362 1.00814E-04-1.40817E-05-3.78689E-05 2.68865E-05 6.40569E-19 6.54587E-18
 -1      1363 1.02232E-04-1.90683E-05-3.58122E-05 2.47022E-05 2.11179E-18 5.33186E-18
 -1      1364 1.02645E-04-2.76067E-05-3.49918E-05 8.83650E-06 1.16740E-18 1.15544E-17
 -1      1365 1.43029E-04-4.13511E-05-4.48700E-05-9.24455E-07-7.12566E-19 1.00107E-17
 -1      1366 1.42476E-04-4.10664E-05-4.39686E-05 1.58159E-06-7.15637E-19 9.16934E-18
 -1      1367 1.43195E-04-4.17778E-05-4.37577E-05 5.20455E-06-4.05914E-19 8.93906E-18
 -1      1368 1.48553E-04-4.40482E-05-4.48061E-05 5.85819E-06-3.81747E-19 8.29690E-18
 -1      1369 1.35753E-04-3.84394E-05-4.20802E-05 5.54580E-06-1.06218E-18 5.77810E-18
 -1      1370 1.51600E-04-4.53648E-05-4.54482E-05 6.95079E-06 1.62141E-19 8.38679E-18
 -1      1371 1.57856E-04-4.80669E-05-4.67713E-05 6.84956E-06 2.03354E-19 8.47213E-18
 -1      1372 1.39429E-04-4.14137E-05-4.21516E-05 1.17406E-05-2.14286E-19 5.72023E-18
 -1      1373 1.61908E-04-5.02800E-05-4.73519E-05 3.84814E-06 6.48695E-19 8.81422E-18
 -1      1374 1.63577E-04-5.17197E-05-4.73500E-05 2.18616E-06 6.06687E-19 9.56263E-18
 -1      1375 1.47333E-04-4.66317E-05-4.30061E-05 1.01530E-05 7.91896E-19 6.10570E-18
 -1      1376 1.66499E-04-5.38287E-05-4.74520E-05-6.27091E-06 8.31575E-19 1.00331E-17
 -1      1377 1.57028E-04-5.07095E-05-4.52958E-05-9.78786E-06 3.64992E-19 1.06917E-17
 -1      1378 1.55910E-04-5.29893E-05-4.37402E-05-2.62898E-06 1.35186E-18 6.88143E-18
 -1      1379 1.56029E-04-4.97847E-05-4.54489E-05-1.81832E-05-1.80471E-19 1.08338E-17
 -1      1380 1.37871E-04-4.15384E-05-4.25251E-05-1.97160E-05-6.79426E-19 1.03351E-17
 -1      1381 1.59584E-04-5.41699E-05-4.50426E-05-2.29261E-05 2.44316E-19 7.40143E-18
 -1      1382 1.11978E-04-2.70217E-05-3.97749E-05-2.04670E-06-2.72236E-18 5.94797E-18
 -1      1383 1.12412E-04-2.72812E-05-3.97800E-05 2.89896E-06-2.90215E-18 2.39975E-18
 -1      1384 1.15388E-04-2.96736E-05-3.96966E-05 1.44200E-05-2.28445E-18 5.28125E-19
 -1      1385 1.30087E-04-3.66674E-05-4.18400E-05 1.65122E-05-1.89524E-18-2.14892E-18
 -1      1386 1.40211E-04-3.31023E-05-4.76740E-05 1.49493E-05-4.92804E-18 8.24434E-19
 -1      1387 1.35741E-04-4.06791E-05-4.18907E-05 1.78468E-05-1.09119E-18-3.60328E-18
 -1      1388 1.53492E-04-4.83792E-05-4.49411E-05 1.63598E-05-7.66724E-19-4.99834E-18
 -1      1389 1.49058E-04-4.34433E-05-4.61432E-05 3.03175E-05-2.88055E-18-2.36567E-18
 -1      1390 1.56560E-04-4.97081E-05-4.53536E-05 8.59167E-06-6.40569E-20-5.05086E-18
 -1      1391 1.65987E-04-5.29764E-05-4.75330E-05 5.63846E-06 6.33475E-19-4.84175E-18
 -1      1392 1.56885E-04-5.18267E-05-4.48676E-05 2.14197E-05-6.87261E-19-4.37985E-18
 -1      1393 1.63673E-04-5.13433E-05-4.74474E-05-2.19506E-06 5.44695E-19-4.30240E-18
 -1      1394 1.61611E-04-4.98960E-05-4.73157E-05-3.90778E-06 4.75318E-19-3.56336E-18
 -1      1395 1.55777E-04-5.15918E-05-4.41961E-05 2.07002E-06 7.77153E-19-3.78168E-18
 -1      1396 1.56439E-04-4.77761E-05-4.62873E-05-7.11832E-06 5.27715E-19-2.85487E-18
 -1      1397 1.48739E-04-4.46709E-05-4.44973E-05-7.45292E-06 7.79138E-19-1.91429E-18
 -1      1398 1.47010E-04-4.61840E-05-4.29622E-05-1.07249E-05 7.74876E-19-2.41158E-18
 -1      1399 1.43101E-04-4.29018E-05-4.29613E-05-7.46404E-06 1.05692E-18-1.29660E-18
 -1      1400 1.34862E-04-4.00197E-05-4.07453E-05-7.22547E-06 6.94658E-19-2.71051E-19
 -1      1401 1.35808E-04-4.08440E-05-4.06822E-05-1.41745E-05 1.40738E-18-1.08762E-18
 -1      1402 1.29900E-04-3.86413E-05-3.92167E-05-6.05313E-06 7.34470E-20 1.77453E-19
 -1      1403 1.23201E-04-3.64855E-05-3.72821E-05-5.69735E-06 4.19149E-20 1.42407E-19
 -1      1404 1.25326E-04-3.69659E-05-3.79496E-05-1.26504E-05 7.64891E-19-3.30687E-19
 -1      1405 1.19486E-04-3.54941E-05-3.60842E-05-4.45492E-06 9.55427E-20 4.19599E-19
 -1      1406 1.14795E-04-3.40641E-05-3.46869E-05-4.16481E-06 3.15387E-20 2.45560E-19
 -1      1407 1.16943E-04-3.43691E-05-3.54807E-05-9.74650E-06 2.61204E-19-6.16614E-20
 -1      1408 1.11854E-04-3.32818E-05-3.37305E-05-3.09304E-06 1.27981E-20-1.56807E-19
 -1      1409 1.08442E-04-3.22713E-05-3.26974E-05-2.86326E-06-3.60135E-19-3.35902E-19
 -1      1410 1.10577E-04-3.25886E-05-3.34874E-05-7.00648E-06-1.94288E-19 3.37596E-19
 -1      1411 1.06368E-04-3.17158E-05-3.20221E-05-2.08086E-06-4.29264E-19-3.98278E-19
 -1      1412 1.04086E-04-3.10541E-05-3.13276E-05-1.92403E-06 3.31779E-19-1.10431E-18
 -1      1413 1.05824E-04-3.13299E-05-3.19682E-05-4.80579E-06-5.64078E-19-5.55286E-19
 -1      1414 1.02643E-04-3.06615E-05-3.08619E-05-1.38505E-06 7.65648E-19-7.04745E-19
 -1      1415 1.01136E-04-3.02302E-05-3.04028E-05-1.28060E-06-2.85748E-19-1.26453E-19
 -1      1416 1.02480E-04-3.04619E-05-3.08910E-05-3.23492E-06 8.54491E-19-2.57738E-19
 -1      1417 1.00145E-04-2.99561E-05-3.00856E-05-9.18904E-07-1.70599E-19-4.19450E-19
 -1      1418 9.91524E-05-2.96749E-05-2.97835E-05-8.50088E-07-1.20735E-20-4.67127E-19
 -1      1419 1.00162E-04-2.98624E-05-3.01445E-05-2.16079E-06-1.45617E-19-3.05296E-20
 -1      1420 9.84749E-05-2.94848E-05-2.95684E-05-6.09979E-07 1.63813E-19-1.65573E-19
 -1      1421 9.78212E-05-2.93008E-05-2.93695E-05-5.64723E-07 8.35816E-20-4.11961E-20
 -1      1422 9.85673E-05-2.94485E-05-2.96327E-05-1.44056E-06 5.19774E-19 2.17911E-19
 -1      1423 9.73590E-05-2.91695E-05-2.92239E-05-4.05694E-07-8.82836E-19-2.68525E-19
 -1      1424 9.69274E-05-2.90488E-05-2.90926E-05-3.75825E-07-1.21413E-18-1.82601E-18
 -1      1425 9.74747E-05-2.91629E-05-2.92832E-05-9.61142E-07-7.54425E-19 1.62433E-20
 -1      1426 9.66123E-05-2.89583E-05-2.89939E-05-2.70226E-07-4.20810E-19-2.55953E-18
 -1      1427 9.63270E-05-2.88790E-05-2.89071E-05-2.50383E-07 2.22991E-19-3.00621E-18
 -1      1428 9.67268E-05-2.89659E-05-2.90448E-05-6.42138E-07-1.44620E-18-8.56290E-19
 -1      1429 9.61123E-05-2.88166E-05-2.88403E-05-1.79899E-07 7.21927E-19-2.47212E-18
 -1      1430 9.59238E-05-2.87646E-05-2.87829E-05-1.66615E-07 2.94449E-19-1.86491E-18
 -1      1431 9.62154E-05-2.88302E-05-2.88824E-05-4.29120E-07 1.06064E-18-7.47452E-19
 -1      1432 9.57779E-05-2.87219E-05-2.87376E-05-1.19285E-07-3.40169E-19-1.52215E-18
 -1      1433 9.56539E-05-2.86879E-05-2.86998E-05-1.10325E-07-3.47019E-20-1.43945E-18
 -1      1434 9.58664E-05-2.87370E-05-2.87718E-05-2.86097E-07 1.30066E-20-1.34443E-18
 -1      1435 9.55554E-05-2.86588E-05-2.86694E-05-7.83675E-08 5.23658E-19-8.92043E-19
 -1      1436 9.54746E-05-2.86369E-05-2.86447E-05-7.22883E-08 1.72755E-19-9.47438E-20
 -1      1437 9.56291E-05-2.86734E-05-2.86967E-05-1.89515E-07 8.36978E-19-2.40145E-19
 -1      1438 9.54088E-05-2.86173E-05-2.86245E-05-5.06319E-08 2.47996E-19 7.30363E-19
 -1      1439 9.53571E-05-2.86035E-05-2.86086E-05-4.64940E-08 5.45192E-19 1.38868E-18
 -1      1440 9.54690E-05-2.86304E-05-2.86461E-05-1.23985E-07 7.44113E-19 8.72932E-19
 -1      1441 9.53138E-05-2.85905E-05-2.85954E-05-3.18102E-08-4.02628E-19 7.06789E-19
 -1      1442 9.52818E-05-2.85822E-05-2.85855E-05-2.89959E-08-7.35105E-19-6.44425E-20
 -1      1443 9.53623E-05-2.86018E-05-2.86123E-05-7.94139E-08-3.72491E-19 1.01914E-18
 -1      1444 9.52540E-05-2.85737E-05-2.85770E-05-1.90775E-08-1.91578E-19 9.54802E-19
 -1      1445 9.52352E-05-2.85690E-05-2.85712E-05-1.71746E-08 4.32134E-19 1.11615E-18
 -1      1446 9.52927E-05-2.85832E-05-2.85903E-05-4.91308E-08 3.06159E-20 1.06136E-18
 -1      1447 9.52181E-05-2.85637E-05-2.85659E-05-1.05392E-08 3.17446E-19 8.33583E-19
 -1      1448 9.52081E-05-2.85615E-05-2.85628E-05-9.26870E-09-5.33201E-19 1.12604E-18
 -1      1449 9.52487E-05-2.85715E-05-2.85762E-05-2.86740E-08 3.15449E-19 1.09378E-18
 -1      1450 9.51983E-05-2.85584E-05-2.85598E-05-4.90695E-09-1.17835E-18 4.97487E-19
 -1      1451 9.51940E-05-2.85576E-05-2.85584E-05-4.07936E-09-1.17854E-18-9.47857E-19
 -1      1452 9.52221E-05-2.85646E-05-2.85677E-05-1.50208E-08-1.15911E-18-2.90049E-19
 -1      1453 9.51891E-05-2.85560E-05-2.85569E-05-1.28620E-09-5.31942E-19-1.63262E-18
 -1      1454 9.51884E-05-2.85562E-05-2.85566E-05-7.72185E-10-4.67443E-19-2.65866E-18
 -1      1455 9.52075E-05-2.85610E-05-2.85629E-05-6.09537E-09-1.33213E-18-3.75848E-19
 -1      1456 9.51867E-05-2.85555E-05-2.85561E-05 8.76863E-10-3.25714E-20-3.05721E-18
 -1      1457 9.51881E-05-2.85563E-05-2.85564E-05 1.16098E-09-3.00556E-19-2.52928E-18
 -1      1458 9.52008E-05-2.85595E-05-2.85606E-05-5.30941E-10-9.62483E-19-2.99028E-18
 -1      1459 9.51882E-05-2.85562E-05-2.85565E-05 2.15298E-09-1.44906E-18-2.82674E-18
 -1      1460 9.51910E-05-2.85573E-05-2.85573E-05 2.32643E-09-8.63899E-19-3.88207E-18
 -1      1461 9.51990E-05-2.85593E-05-2.85599E-05 2.79998E-09-1.03410E-18-3.24077E-18
 -1      1462 9.51923E-05-2.85575E-05-2.85577E-05 2.80354E-09 4.32029E-19-3.08107E-18
 -1      1463 9.51956E-05-2.85587E-05-2.85586E-05 2.87754E-09 9.31145E-19-1.27572E-18
 -1      1464 9.52003E-05-2.85599E-05-2.85602E-05 4.70137E-09 2.24316E-19-2.60989E-18
 -1      1465 9.51976E-05-2.85592E-05-2.85592E-05 3.02187E-09 1.44520E-18-2.16306E-18
 -1      1466 9.52010E-05-2.85604E-05-2.85602E-05 3.03260E-09 7.10386E-19-5.79171E-19
 -1      1467 9.52035E-05-2.85610E-05-2.85611E-05 5.55169E-09 1.46047E-18-1.30868E-18
 -1      1468 9.52033E-05-2.85610E-05-2.85609E-05 2.96888E-09-1.81771E-18-1.02277E-18
 -1      1469 9.52066E-05-2.85621E-05-2.85619E-05 2.94078E-09-1.05786E-18-3.22698E-18
 -1      1470 9.52075E-05-2.85623E-05-2.85622E-05 5.72269E-09-1.31887E-18-2.39834E-18
 -1      1471 9.52089E-05-2.85627E-05-2.85626E-05 2.75611E-09 5.90078E-19-3.35438E-18
 -1      1472 9.52119E-05-2.85637E-05-2.85635E-05 2.70637E-09 1.11902E-18-2.82237E-18
 -1      1473 9.52118E-05-2.85637E-05-2.85635E-05 5.47625E-09-8.31229E-19-3.46724E-18
 -1      1474 9.52140E-05-2.85643E-05-2.85642E-05 2.46049E-09 5.27024E-19-2.13495E-18
 -1      1475 9.52168E-05-2.85651E-05-2.85650E-05 2.40085E-09 1.39630E-18-9.36816E-19
 -1      1476 9.52161E-05-2.85650E-05-2.85647E-05 4.99451E-09 1.47221E-18-1.25076E-18
 -1      1477 9.52187E-05-2.85657E-05-2.85656E-05 2.13355E-09 2.18269E-18-1.64984E-18
 -1      1478 9.52210E-05-2.85664E-05-2.85663E-05 2.07173E-09 9.78980E-19-1.43108E-20
 -1      1479 9.52200E-05-2.85661E-05-2.85659E-05 4.40149E-09 1.95678E-18-2.00440E-18
 -1      1480 9.52227E-05-2.85669E-05-2.85668E-05 1.80832E-09 4.68742E-19 8.12175E-19
 -1      1481 9.52247E-05-2.85675E-05-2.85674E-05 1.74912E-09 8.16748E-19 1.16210E-18
 -1      1482 9.52235E-05-2.85672E-05-2.85670E-05 3.77881E-09 7.36443E-19-1.05934E-18
 -1      1483 9.52261E-05-2.85679E-05-2.85678E-05 1.50445E-09 1.05080E-18 1.17782E-18
 -1      1484 9.52277E-05-2.85684E-05-2.85683E-05 1.45055E-09 6.00772E-19 2.79114E-18
 -1      1485 9.52265E-05-2.85681E-05-2.85679E-05 3.17733E-09 1.28425E-18 8.70564E-19
 -1      1486 9.52289E-05-2.85687E-05-2.85687E-05 1.23191E-09-7.13092E-19 1.92530E-18
 -1      1487 9.52303E-05-2.85691E-05-2.85690E-05 1.18446E-09-9.53786E-19 1.18488E-18
 -1      1488 9.52291E-05-2.85688E-05-2.85687E-05 2.62557E-09-3.46009E-19 1.85078E-18
 -1      1489 9.52313E-05-2.85694E-05-2.85694E-05 9.93617E-10-1.38668E-18-4.18572E-19
 -1      1490 9.52323E-05-2.85697E-05-2.85697E-05 9.52570E-10-1.24632E-18-2.37330E-18
 -1      1491 9.52312E-05-2.85695E-05-2.85693E-05 2.13588E-09-2.51735E-18 6.59748E-20
 -1      1492 9.52331E-05-2.85700E-05-2.85699E-05 7.87126E-10 1.67518E-19-3.00346E-18
 -1      1493 9.52340E-05-2.85702E-05-2.85702E-05 7.51487E-10 1.34939E-19-2.59473E-18
 -1      1494 9.52330E-05-2.85700E-05-2.85699E-05 1.70852E-09-1.39399E-18-3.06986E-19
 -1      1495 9.52346E-05-2.85704E-05-2.85704E-05 6.05763E-10-2.73274E-19-2.96032E-18
 -1      1496 9.52352E-05-2.85706E-05-2.85706E-05 5.73695E-10 1.64776E-18-1.20211E-18
 -1      1497 9.52344E-05-2.85704E-05-2.85703E-05 1.33446E-09-5.62890E-19 3.85493E-19
 -1      1498 9.52357E-05-2.85708E-05-2.85707E-05 4.39172E-10 2.48438E-18-1.32414E-18
 -1      1499 9.52362E-05-2.85709E-05-2.85708E-05 4.07611E-10 1.30126E-18 1.21612E-18
 -1      1500 9.52355E-05-2.85707E-05-2.85706E-05 9.97177E-10 2.94728E-18 6.42232E-19
 -1      1501 9.52365E-05-2.85710E-05-2.85709E-05 2.74956E-10 2.67660E-19 4.21915E-19
 -1      1502 9.52368E-05-2.85711E-05-2.85710E-05 2.40607E-10 4.35076E-19 1.67417E-18
 -1      1503 9.52363E-05-2.85709E-05-2.85708E-05 6.74800E-10 6.33687E-19 9.59112E-19
 -1      1504 9.52370E-05-2.85711E-05-2.85711E-05 1.09401E-10 3.72596E-19 3.29956E-18
 -1      1505 9.52371E-05-2.85712E-05-2.85711E-05 7.22127E-11 7.49994E-19 5.12768E-18
 -1      1506 9.52368E-05-2.85711E-05-2.85710E-05 3.53953E-10 1.31424E-18 1.28737E-18
 -1      1507 9.52372E-05-2.85712E-05-2.85711E-05-2.33602E-12 6.77568E-20 4.65118E-18
 -1      1508 9.52371E-05-2.85711E-05-2.85712E-05-8.97889E-13-1.76591E-18 2.24242E-18
 -1      1509 9.52371E-05-2.85711E-05-2.85711E-05-2.30657E-12-4.40371E-18 3.27898E-18
 -1      1510 9.52370E-05-2.85712E-05-2.85711E-05 1.10061E-10-3.54388E-19 5.72445E-18
 -1      1511 9.44168E-05-2.76991E-05-2.91702E-05 4.25168E-06 9.48095E-19 9.36162E-18
 -1      1512 1.01886E-04-2.91963E-05-3.20134E-05 5.79385E-06 8.45657E-19 1.09139E-17
 -1      1513 1.01950E-04-2.63560E-05-3.26797E-05 1.53483E-05 1.71222E-18 7.25431E-18
 -1      1514 8.72960E-05-2.60277E-05-2.63334E-05 2.51417E-06 7.58809E-19 7.51316E-18
 -1      1515 9.07151E-05-2.66408E-05-2.77022E-05 2.78991E-06 6.56106E-19 8.61264E-18
 -1      1516 9.41537E-05-2.73537E-05-2.88160E-05 7.37101E-06 1.41449E-18 5.98294E-18
 -1      1517 8.26192E-05-2.47386E-05-2.47805E-05 1.84202E-06 6.23853E-19 5.94127E-18
 -1      1518 8.48509E-05-2.52841E-05-2.55262E-05 1.94614E-06 5.37082E-19 6.92766E-18
 -1      1519 8.84036E-05-2.62595E-05-2.66719E-05 4.58566E-06 1.20733E-18 4.96512E-18
 -1      1520 7.91301E-05-2.36877E-05-2.37419E-05 1.46896E-06 4.08862E-19 4.83647E-18
 -1      1521 8.08487E-05-2.41781E-05-2.42481E-05 1.53572E-06 4.14331E-19 5.47301E-18
 -1      1522 8.43592E-05-2.52025E-05-2.53663E-05 3.38629E-06 8.69201E-19 3.95314E-18
 -1      1523 7.65513E-05-2.28779E-05-2.30078E-05 1.04553E-06 2.59037E-19 3.94331E-18
 -1      1524 7.78342E-05-2.32543E-05-2.33681E-05 1.13959E-06 2.78144E-19 4.37420E-18
 -1      1525 8.13606E-05-2.42782E-05-2.44839E-05 2.54278E-06 6.52149E-19 3.10444E-18
 -1      1526 7.50376E-05-2.23885E-05-2.25874E-05 4.69136E-07 1.82416E-19 3.39744E-18
 -1      1527 7.57590E-05-2.25838E-05-2.27835E-05 6.14587E-07 1.44578E-19 3.67847E-18
 -1      1528 7.93197E-05-2.36012E-05-2.39135E-05 1.56224E-06 4.49000E-19 2.56635E-18
 -1      1529 7.48236E-05-2.23106E-05-2.25368E-05-2.29628E-07 4.44808E-19 2.59629E-18
 -1      1530 7.48337E-05-2.22695E-05-2.25312E-05-4.27968E-08 3.18974E-19 2.99478E-18
 -1      1531 7.83521E-05-2.32612E-05-2.36566E-05 3.34547E-07 5.67823E-19 1.97265E-18
 -1      1532 7.60010E-05-2.26802E-05-2.28795E-05-9.34225E-07 8.20332E-20 1.79919E-18
 -1      1533 7.52437E-05-2.23878E-05-2.26581E-05-7.38204E-07 3.10993E-19 2.31632E-18
 -1      1534 7.85780E-05-2.33249E-05-2.37307E-05-1.01680E-06 6.23224E-19 1.43057E-18
 -1      1535 7.84171E-05-2.34475E-05-2.35738E-05-1.50481E-06 1.09529E-19 1.61740E-18
 -1      1536 7.69810E-05-2.29409E-05-2.31619E-05-1.33832E-06-3.50460E-20 1.72077E-18
 -1      1537 7.99664E-05-2.37899E-05-2.41216E-05-2.25496E-06 1.52185E-19 7.92049E-19
 -1      1538 8.16900E-05-2.44848E-05-2.45158E-05-1.83591E-06 2.85374E-19 1.32336E-18
 -1      1539 7.97939E-05-2.38434E-05-2.39740E-05-1.72900E-06 1.92432E-19 1.64091E-18
 -1      1540 8.22900E-05-2.45746E-05-2.47685E-05-3.14601E-06 2.46328E-19 6.53354E-19
 -1      1541 8.53142E-05-2.56241E-05-2.55643E-05-1.89520E-06 2.28677E-19 3.27603E-19
 -1      1542 8.32422E-05-2.49445E-05-2.49732E-05-1.85813E-06 4.02863E-19 1.07442E-18
 -1      1543 8.51669E-05-2.55364E-05-2.55723E-05-3.55187E-06 6.32783E-19 3.88517E-19
 -1      1544 8.88081E-05-2.67157E-05-2.65673E-05-1.73916E-06 2.93020E-20 1.51539E-19
 -1      1545 8.68211E-05-2.60756E-05-2.60125E-05-1.75082E-06 4.45834E-20 2.62143E-19
 -1      1546 8.81599E-05-2.65158E-05-2.64141E-05-3.47850E-06 2.85480E-19 2.40782E-19
 -1      1547 9.15592E-05-2.75171E-05-2.73650E-05-1.37226E-06-7.77219E-20 4.68753E-19
 -1      1548 9.00846E-05-2.71159E-05-2.69396E-05-1.43918E-06-1.83154E-19 1.84944E-19
 -1      1549 9.08724E-05-2.73892E-05-2.71685E-05-2.99736E-06-2.68063E-19-9.54451E-20
 -1      1550 9.35719E-05-2.81464E-05-2.80152E-05-9.55336E-07 4.98093E-19-2.35210E-19
 -1      1551 9.23735E-05-2.77903E-05-2.76650E-05-1.03119E-06 3.63260E-19 6.08282E-19
 -1      1552 9.28428E-05-2.79908E-05-2.77786E-05-2.21465E-06 3.13319E-19-1.95387E-19
 -1      1553 9.50727E-05-2.85842E-05-2.84764E-05-6.21224E-07-2.32426E-19-4.37489E-19
 -1      1554 9.42526E-05-2.83501E-05-2.82344E-05-6.94377E-07-1.80855E-20-4.24681E-19
 -1      1555 9.44402E-05-2.84596E-05-2.82616E-05-1.55436E-06 3.29294E-19 2.59900E-20
 -1      1556 9.59915E-05-2.88438E-05-2.87650E-05-3.47439E-07-1.80320E-19-3.35541E-19
 -1      1557 9.54980E-05-2.87107E-05-2.86175E-05-4.08457E-07-1.55057E-19-4.50284E-19
 -1      1558 9.55067E-05-2.87554E-05-2.85939E-05-9.67301E-07-7.65142E-20-3.33066E-19
 -1      1559 9.64568E-05-2.89679E-05-2.89164E-05-1.46257E-07 1.87607E-19-3.17960E-19
 -1      1560 9.62144E-05-2.89096E-05-2.88424E-05-1.91722E-07 3.43644E-20-2.42533E-19
 -1      1561 9.61269E-05-2.89131E-05-2.87952E-05-5.04012E-07-6.17259E-20 1.98841E-19
 -1      1562 9.66032E-05-2.89991E-05-2.89697E-05-1.33147E-08-4.39268E-19-2.50953E-19
 -1      1563 9.65346E-05-2.89904E-05-2.89472E-05-4.38001E-08-3.22485E-20-2.30107E-19
 -1      1564 9.64098E-05-2.89717E-05-2.88945E-05-1.74641E-07-2.64152E-20 4.14690E-19
 -1      1565 9.65487E-05-2.89733E-05-2.89599E-05 6.40787E-08-2.42656E-19 4.20143E-19
 -1      1566 9.65875E-05-2.89938E-05-2.89697E-05 4.59685E-08-4.15086E-19-7.09258E-20
 -1      1567 9.64621E-05-2.89663E-05-2.89220E-05 3.54047E-08-5.35781E-19 4.73872E-19
 -1      1568 9.63849E-05-2.89180E-05-2.89149E-05 1.00873E-07-6.44229E-21 6.71724E-19
 -1      1569 9.64803E-05-2.89525E-05-2.89419E-05 9.19230E-08-2.38278E-19 6.27635E-19
 -1      1570 9.63737E-05-2.89247E-05-2.89042E-05 1.51698E-07-5.19800E-19 4.27804E-19
 -1      1571 9.61763E-05-2.88517E-05-2.88546E-05 1.10762E-07 3.04209E-19-5.74824E-20
 -1      1572 9.62932E-05-2.88903E-05-2.88884E-05 1.07971E-07 2.59965E-19 3.92759E-19
 -1      1573 9.62129E-05-2.88666E-05-2.88617E-05 2.01418E-07 2.17503E-19 2.20551E-20
 -1      1574 9.59640E-05-2.87862E-05-2.87919E-05 1.04668E-07 6.82125E-19-1.05849E-18
 -1      1575 9.60805E-05-2.88229E-05-2.88259E-05 1.05610E-07 2.74588E-19-3.49421E-19
 -1      1576 9.60267E-05-2.88051E-05-2.88092E-05 2.08287E-07 4.41046E-19-4.90818E-19
 -1      1577 9.57713E-05-2.87277E-05-2.87343E-05 9.04662E-08 1.64019E-20-1.67396E-18
 -1      1578 9.58753E-05-2.87595E-05-2.87649E-05 9.33719E-08 2.92491E-19-1.25703E-18
 -1      1579 9.58444E-05-2.87476E-05-2.87563E-05 1.90646E-07 7.12149E-19-5.66605E-19
 -1      1580 9.56088E-05-2.86790E-05-2.86853E-05 7.33587E-08-7.21762E-19-1.75836E-19
 -1      1581 9.56952E-05-2.87047E-05-2.87109E-05 7.70408E-08-6.49740E-19-1.19222E-18
 -1      1582 9.56821E-05-2.86981E-05-2.87082E-05 1.61405E-07-6.05404E-19-5.22706E-19
 -1      1583 9.54795E-05-2.86406E-05-2.86461E-05 5.64680E-08 2.90013E-19 1.35312E-19
 -1      1584 9.55473E-05-2.86604E-05-2.86662E-05 6.01997E-08 1.23077E-19 3.67289E-19
 -1      1585 9.55468E-05-2.86578E-05-2.86676E-05 1.28888E-07-4.01519E-19 5.42646E-19
 -1      1586 9.53813E-05-2.86117E-05-2.86162E-05 4.14420E-08-3.21081E-19-3.58299E-20
 -1      1587 9.54320E-05-2.86262E-05-2.86313E-05 4.48264E-08 1.18355E-19 3.23293E-19
 -1      1588 9.54397E-05-2.86265E-05-2.86351E-05 9.79502E-08 2.23656E-19 1.07681E-18
 -1      1589 9.53102E-05-2.85910E-05-2.85944E-05 2.89604E-08 3.76597E-20-6.27868E-19
 -1      1590 9.53463E-05-2.86010E-05-2.86052E-05 3.18209E-08-2.36712E-19-9.53508E-19
 -1      1591 9.53586E-05-2.86031E-05-2.86102E-05 7.10273E-08 1.99542E-19 2.66771E-19
 -1      1592 9.52612E-05-2.85768E-05-2.85793E-05 1.91187E-08-3.01379E-19-1.07341E-18
 -1      1593 9.52855E-05-2.85834E-05-2.85866E-05 2.14140E-08-2.06722E-19-1.05390E-18
 -1      1594 9.52999E-05-2.85865E-05-2.85921E-05 4.90026E-08 1.35417E-19-1.17185E-18
 -1      1595 9.52293E-05-2.85677E-05-2.85694E-05 1.16951E-08 4.91500E-19-4.45365E-19
 -1      1596 9.52446E-05-2.85716E-05-2.85740E-05 1.34599E-08-4.69388E-20-3.38661E-19
 -1      1597 9.52593E-05-2.85753E-05-2.85794E-05 3.18416E-08-8.01173E-20-1.03160E-18
 -1      1598 9.52102E-05-2.85623E-05-2.85635E-05 6.32569E-09-4.26272E-19 2.80714E-19
 -1      1599 9.52189E-05-2.85644E-05-2.85661E-05 7.63100E-09 6.65325E-20 3.46337E-19
 -1      1600 9.52327E-05-2.85680E-05-2.85710E-05 1.90303E-08-6.06821E-19 9.05693E-19
 -1      1601 9.52003E-05-2.85596E-05-2.85603E-05 2.60976E-09 5.57116E-19 1.01009E-20
 -1      1602 9.52043E-05-2.85604E-05-2.85616E-05 3.53857E-09 2.17797E-19 6.36018E-20
 -1      1603 9.52167E-05-2.85638E-05-2.85658E-05 9.85694E-09 4.99921E-20 1.05678E-18
 -1      1604 9.51966E-05-2.85587E-05-2.85591E-05 1.68664E-10 1.28265E-18-1.72360E-18
 -1      1605 9.51976E-05-2.85587E-05-2.85594E-05 8.01951E-10 8.10985E-19-4.23114E-20
 -1      1606 9.52082E-05-2.85617E-05-2.85630E-05 3.57854E-09 1.19200E-18 2.56974E-19
 -1      1607 9.51971E-05-2.85590E-05-2.85592E-05-1.32651E-09 1.45983E-19-2.07964E-18
 -1      1608 9.51960E-05-2.85584E-05-2.85589E-05-9.16815E-10 3.07152E-19-2.05385E-18
 -1      1609 9.52050E-05-2.85611E-05-2.85618E-05-4.88778E-10 7.12163E-19-2.98705E-19
 -1      1610 9.52000E-05-2.85599E-05-2.85600E-05-2.14571E-09 3.28303E-19-2.08054E-18
 -1      1611 9.51978E-05-2.85591E-05-2.85594E-05-1.89943E-09 2.36709E-19-1.92784E-18
 -1      1612 9.52051E-05-2.85613E-05-2.85617E-05-2.92951E-09 6.05503E-19-8.75636E-19
 -1      1613 9.52041E-05-2.85613E-05-2.85612E-05-2.50111E-09 4.55873E-19-2.85408E-18
 -1      1614 9.52015E-05-2.85603E-05-2.85604E-05-2.37009E-09 1.52552E-19-2.38190E-18
 -1      1615 9.52072E-05-2.85621E-05-2.85622E-05-4.21795E-09 3.13754E-19-1.66985E-18
 -1      1616 9.52088E-05-2.85627E-05-2.85626E-05-2.55359E-09-6.54258E-19-2.15326E-18
 -1      1617 9.52060E-05-2.85618E-05-2.85618E-05-2.50063E-09-7.78699E-19-3.25479E-18
 -1      1618 9.52105E-05-2.85632E-05-2.85632E-05-4.72369E-09-5.71332E-19-1.02388E-18
 -1      1619 9.52135E-05-2.85641E-05-2.85640E-05-2.42106E-09-4.38403E-19-1.15965E-18
 -1      1620 9.52108E-05-2.85633E-05-2.85632E-05-2.41836E-09-2.67197E-19-1.36656E-18
 -1      1621 9.52142E-05-2.85643E-05-2.85642E-05-4.72476E-09-1.15055E-18-9.30203E-19
 -1      1622 9.52180E-05-2.85655E-05-2.85653E-05-2.18707E-09 1.18504E-18-1.68035E-18
 -1      1623 9.52155E-05-2.85647E-05-2.85646E-05-2.21445E-09 5.55559E-19-1.25728E-18
 -1      1624 9.52180E-05-2.85655E-05-2.85653E-05-4.42352E-09-1.08237E-19-1.91985E-18
 -1      1625 9.52219E-05-2.85666E-05-2.85665E-05-1.90855E-09-2.54811E-19-2.31548E-18
 -1      1626 9.52197E-05-2.85660E-05-2.85659E-05-1.95188E-09 4.25895E-19-1.51800E-18
 -1      1627 9.52215E-05-2.85666E-05-2.85664E-05-3.96214E-09 8.07568E-19-1.78882E-18
 -1      1628 9.52254E-05-2.85677E-05-2.85676E-05-1.62238E-09-3.91129E-19-1.12366E-18
 -1      1629 9.52235E-05-2.85671E-05-2.85670E-05-1.67213E-09-4.70389E-19-1.95896E-18
 -1      1630 9.52247E-05-2.85675E-05-2.85674E-05-3.43649E-09-4.36336E-19-1.73131E-18
 -1      1631 9.52283E-05-2.85685E-05-2.85684E-05-1.35065E-09 3.43640E-19-1.40595E-18
 -1      1632 9.52267E-05-2.85681E-05-2.85680E-05-1.40080E-09-4.60017E-20-1.95196E-18
 -1      1633 9.52275E-05-2.85684E-05-2.85682E-05-2.90765E-09 3.40003E-19-1.59356E-18
 -1      1634 9.52307E-05-2.85693E-05-2.85692E-05-1.10469E-09 7.24372E-19-2.03243E-18
 -1      1635 9.52294E-05-2.85689E-05-2.85688E-05-1.15182E-09 5.56801E-19-1.46963E-18
 -1      1636 9.52299E-05-2.85691E-05-2.85689E-05-2.41110E-09 5.19008E-19-2.36451E-18
 -1      1637 9.52326E-05-2.85698E-05-2.85698E-05-8.87918E-10 3.18430E-19-3.82025E-18
 -1      1638 9.52316E-05-2.85695E-05-2.85695E-05-9.30602E-10 7.56712E-19-2.33954E-18
 -1      1639 9.52319E-05-2.85696E-05-2.85695E-05-1.96350E-09 1.16544E-18-3.07439E-18
 -1      1640 9.52342E-05-2.85703E-05-2.85702E-05-6.97702E-10-3.41704E-19-3.88411E-18
 -1      1641 9.52334E-05-2.85701E-05-2.85700E-05-7.36177E-10-2.25129E-19-4.03557E-18
 -1      1642 9.52335E-05-2.85701E-05-2.85700E-05-1.56760E-09 3.34550E-19-3.93301E-18
 -1      1643 9.52354E-05-2.85707E-05-2.85706E-05-5.26416E-10 1.38016E-18-5.61411E-18
 -1      1644 9.52348E-05-2.85705E-05-2.85704E-05-5.62477E-10 8.74790E-19-3.72594E-18
 -1      1645 9.52348E-05-2.85705E-05-2.85704E-05-1.21535E-09 1.34669E-18-2.90445E-18
 -1      1646 9.52363E-05-2.85709E-05-2.85709E-05-3.62857E-10-1.00416E-18-6.02483E-18
 -1      1647 9.52359E-05-2.85708E-05-2.85707E-05-3.99591E-10 4.33769E-20-5.93017E-18
 -1      1648 9.52358E-05-2.85708E-05-2.85707E-05-8.90332E-10 7.68213E-19-4.03476E-18
 -1      1649 9.52369E-05-2.85711E-05-2.85710E-05-1.93893E-10 6.98071E-19-6.56387E-18
 -1      1650 9.52366E-05-2.85710E-05-2.85710E-05-2.36370E-10-2.34433E-19-6.66828E-18
 -1      1651 9.52365E-05-2.85710E-05-2.85709E-05-5.72366E-10 6.78481E-21-4.45054E-18
 -1      1652 9.52371E-05-2.85712E-05-2.85711E-05-3.12268E-11-1.48342E-19-7.20317E-18
 -1      1653 9.52370E-05-2.85712E-05-2.85711E-05-7.44169E-11 7.19664E-19-6.43141E-18
 -1      1654 9.52369E-05-2.85711E-05-2.85710E-05-2.53291E-10 8.82851E-19-5.08137E-18
 -1      1655 9.52372E-05-2.85711E-05-2.85712E-05 2.26158E-11-3.84672E-18-4.37267E-18
 -1      1656 9.52372E-05-2.85713E-05-2.85711E-05-1.51395E-10-6.63127E-18-1.47465E-19
 -1      1657 9.52371E-05-2.85712E-05-2.85711E-05-1.10343E-10-6.45698E-18-1.57011E-19
 -1      1658 9.52373E-05-2.85718E-05-2.85709E-05-3.19859E-10-5.19975E-18 1.41838E-18
 -1      1659 9.52372E-05-2.85715E-05-2.85710E-05-2.84517E-10-6.52333E-18 7.52789E-19
 -1      1660 9.52372E-05-2.85715E-05-2.85710E-05-4.39578E-10-3.79556E-18 5.78394E-19
 -1      1661 9.52375E-05-2.85725E-05-2.85707E-05-4.24797E-10-3.61644E-18 9.88355E-19
 -1      1662 9.52374E-05-2.85721E-05-2.85708E-05-4.09189E-10-5.15746E-18 1.21191E-18
 -1      1663 9.52374E-05-2.85720E-05-2.85708E-05-7.12171E-10-3.33758E-18 1.53173E-18
 -1      1664 9.52378E-05-2.85732E-05-2.85705E-05-4.53090E-10-4.63282E-18-1.38920E-18
 -1      1665 9.52376E-05-2.85728E-05-2.85706E-05-4.53896E-10-4.11125E-18 6.03872E-19
 -1      1666 9.52376E-05-2.85726E-05-2.85707E-05-8.52456E-10-3.85282E-18 2.55848E-19
 -1      1667 9.52380E-05-2.85739E-05-2.85703E-05-4.08166E-10-8.86337E-18-2.15396E-18
 -1      1668 9.52379E-05-2.85735E-05-2.85704E-05-4.22424E-10-5.44721E-18-3.48626E-18
 -1      1669 9.52378E-05-2.85733E-05-2.85705E-05-8.47735E-10-4.15368E-18-3.21760E-18
 -1      1670 9.52382E-05-2.85744E-05-2.85702E-05-3.01461E-10-6.10764E-18 6.08564E-19
 -1      1671 9.52381E-05-2.85741E-05-2.85703E-05-3.26697E-10-7.17576E-18 1.03020E-18
 -1      1672 9.52380E-05-2.85738E-05-2.85704E-05-7.11249E-10-4.16948E-18-6.14283E-19
 -1      1673 9.52383E-05-2.85747E-05-2.85701E-05-1.51828E-10-3.06890E-18 1.83025E-18
 -1      1674 9.52382E-05-2.85746E-05-2.85701E-05-1.83728E-10-5.91398E-18 1.57723E-18
 -1      1675 9.52382E-05-2.85743E-05-2.85702E-05-4.69574E-10-3.25245E-18 1.58209E-18
 -1      1676 9.52383E-05-2.85748E-05-2.85701E-05 1.87890E-11 7.34625E-19 2.83840E-18
 -1      1677 9.52383E-05-2.85748E-05-2.85701E-05-1.53663E-11-2.29549E-18 2.61011E-18
 -1      1678 9.52382E-05-2.85745E-05-2.85702E-05-1.61845E-10-1.84857E-18 3.81297E-18
 -1      1679 9.52382E-05-2.85746E-05-2.85701E-05 1.86970E-10 4.96875E-19-3.87863E-19
 -1      1680 9.52383E-05-2.85747E-05-2.85701E-05 1.55137E-10 4.35410E-20 1.34762E-18
 -1      1681 9.52382E-05-2.85745E-05-2.85702E-05 1.68282E-10-1.34231E-19 2.47333E-18
 -1      1682 9.52381E-05-2.85741E-05-2.85703E-05 3.29397E-10-1.54936E-18-1.47279E-18
 -1      1683 9.52382E-05-2.85744E-05-2.85702E-05 3.04379E-10 3.66017E-19-1.11204E-18
 -1      1684 9.52381E-05-2.85743E-05-2.85702E-05 4.75480E-10-1.13901E-18-9.18613E-19
 -1      1685 9.52379E-05-2.85735E-05-2.85704E-05 4.23418E-10-8.42577E-19 1.40056E-18
 -1      1686 9.52380E-05-2.85739E-05-2.85703E-05 4.09388E-10-1.03154E-18-1.32401E-18
 -1      1687 9.52380E-05-2.85738E-05-2.85704E-05 7.14588E-10-8.81403E-19-2.05160E-18
 -1      1688 9.52376E-05-2.85728E-05-2.85707E-05 4.54180E-10 1.29573E-18-9.42287E-19
 -1      1689 9.52378E-05-2.85732E-05-2.85705E-05 4.53807E-10-9.12959E-19 1.78778E-18
 -1      1690 9.52378E-05-2.85733E-05-2.85705E-05 8.49477E-10 5.03685E-19 2.04356E-18
 -1      1691 9.52374E-05-2.85721E-05-2.85709E-05 4.07499E-10-2.23285E-18-1.18897E-18
 -1      1692 9.52375E-05-2.85724E-05-2.85707E-05 4.23643E-10 3.59678E-19-1.12279E-18
 -1      1693 9.52376E-05-2.85726E-05-2.85707E-05 8.51654E-10 4.07824E-19-1.69801E-18
 -1      1694 9.52372E-05-2.85715E-05-2.85710E-05 2.81033E-10-2.65775E-18-3.83753E-19
 -1      1695 9.52373E-05-2.85718E-05-2.85709E-05 3.15880E-10-2.20816E-18-1.39519E-19
 -1      1696 9.52374E-05-2.85720E-05-2.85708E-05 7.06147E-10-7.33748E-19-9.55671E-19
 -1      1697 9.52371E-05-2.85712E-05-2.85711E-05 1.11554E-10-4.30822E-18 4.80759E-19
 -1      1698 9.52372E-05-2.85713E-05-2.85711E-05 1.50554E-10-2.81969E-18-1.89486E-18
 -1      1699 9.52372E-05-2.85716E-05-2.85710E-05 4.37486E-10-1.95810E-18-1.86315E-18
 -1      1700 9.52371E-05-2.85713E-05-2.85711E-05 1.60176E-10-2.03163E-18 4.50869E-19
 -1      1701 2.08329E-05-6.42043E-05 1.31682E-05 3.48682E-07 2.60378E-18 4.05316E-18
 -1      1702 2.51447E-05-7.94043E-05 1.67142E-05 7.49396E-06-3.20602E-18 3.51963E-18
 -1      1703 2.01585E-05-3.17915E-05 1.14487E-06 9.36344E-06 9.46390E-18 6.83429E-18
 -1      1704 2.51616E-05-5.85666E-05 8.44867E-06 3.38564E-06 4.91533E-18 4.31436E-18
 -1      1705 3.92563E-05-3.49671E-06-1.69070E-05 3.83557E-05 1.27013E-17 1.03626E-17
 -1      1706 3.03755E-05-2.39267E-05-7.15654E-06 1.77451E-05 1.09530E-17 7.38147E-18
 -1      1707 8.77000E-05 2.26306E-06-3.70139E-05 7.25947E-05 1.16958E-17 1.21304E-17
 -1      1708 5.82977E-05-2.81747E-07-2.66094E-05 4.83849E-05 1.27800E-17 1.10436E-17
 -1      1709 1.55584E-04-1.70517E-05-5.54156E-05 8.61745E-05 7.86894E-18 9.35971E-18
 -1      1710 1.13304E-04-2.26348E-06-4.63154E-05 7.61945E-05 1.09979E-17 1.09513E-17
 -1      1711 2.23073E-04-4.57547E-05-7.03539E-05 6.58845E-05 3.89098E-18 4.84503E-18
 -1      1712 1.79371E-04-2.38134E-05-6.31017E-05 7.84608E-05 6.41987E-18 7.68598E-18
 -1      1713 2.66125E-04-6.65575E-05-7.89540E-05 2.42815E-05 2.46741E-18 3.21237E-19
 -1      1714 2.43786E-04-5.32602E-05-7.59275E-05 5.73074E-05 3.31063E-18 3.89847E-18
 -1      1715 2.56599E-04-6.08027E-05-7.82148E-05-3.07544E-05 3.62657E-18-6.01605E-18
 -1      1716 2.65388E-04-6.57672E-05-7.93881E-05 5.39194E-06 3.02878E-18-1.77205E-18
 -1      1717 2.14495E-04-3.91188E-05-7.06844E-05-7.31353E-05 5.99191E-18-1.13087E-17
 -1      1718 2.49163E-04-5.85630E-05-7.56838E-05-4.95170E-05 3.97417E-18-8.14930E-18
 -1      1719 1.47170E-04-9.95193E-06-5.65841E-05-8.43312E-05 9.48677E-18-1.36364E-17
 -1      1720 1.92175E-04-3.06253E-05-6.44819E-05-8.29585E-05 7.04731E-18-1.25801E-17
 -1      1721 8.44515E-05 4.29359E-06-3.83042E-05-6.59305E-05 1.22718E-17-1.25420E-17
 -1      1722 1.22069E-04-3.79329E-06-4.80263E-05-8.30742E-05 1.05676E-17-1.33281E-17
 -1      1723 4.79676E-05-7.82455E-06-1.94811E-05-3.81922E-05 1.19881E-17-9.37411E-18
 -1      1724 6.72556E-05 9.52771E-07-2.90430E-05-5.93831E-05 1.18280E-17-1.12757E-17
 -1      1725 2.44739E-05-2.87969E-05-2.49408E-06-1.34322E-05 1.14815E-17-6.34385E-18
 -1      1726 2.64385E-05-6.81593E-06-1.06488E-05-2.75481E-05 1.31028E-17-9.05648E-18
 -1      1727 2.30619E-05-5.69227E-05 9.35584E-06-9.42060E-06 5.40746E-18-3.83092E-18
 -1      1728 1.90178E-05-3.54956E-05 3.48925E-06-1.09090E-05 9.18014E-18-5.63213E-18
 -1      1729 2.26752E-05-7.59161E-05 1.61272E-05-1.08653E-05-2.70204E-19-2.58790E-18
 -1      1730 2.00365E-05-6.59824E-05 1.40169E-05-1.30493E-06 4.37620E-18-3.05482E-18
 -1      1731 1.87124E-05-6.66505E-05 1.38153E-05-1.62968E-05-7.30566E-18-4.73936E-18
 -1      1732 2.28337E-05-7.59680E-05 1.59610E-05-8.03340E-06-2.31198E-18-3.06414E-18
 -1      1733 1.91768E-05-4.13910E-05 3.51136E-06-6.56114E-06-1.24717E-17-8.68569E-18
 -1      1734 2.32716E-05-6.34103E-05 9.80037E-06-1.15557E-05-9.08866E-18-5.74942E-18
 -1      1735 4.63362E-05-2.04416E-05-1.46779E-05 2.50366E-05-1.37567E-17-1.31875E-17
 -1      1736 3.56545E-05-3.91831E-05-4.73523E-06 4.73793E-06-1.25090E-17-9.94036E-18
 -1      1737 9.78530E-05-1.43849E-05-3.61644E-05 5.82613E-05-1.32798E-17-1.67340E-17
 -1      1738 6.54994E-05-1.79669E-05-2.46880E-05 3.27902E-05-1.43877E-17-1.46037E-17
 -1      1739 1.84934E-04-3.91932E-05-5.81644E-05 6.93996E-05-9.51557E-18-1.60140E-17
 -1      1740 1.31068E-04-2.33300E-05-4.68220E-05 5.60374E-05-1.19432E-17-1.60801E-17
 -1      1741 2.64386E-04-6.53449E-05-7.59118E-05 5.87685E-05-6.02558E-18-1.36118E-17
 -1      1742 2.10740E-04-4.19306E-05-6.75910E-05 7.01624E-05-8.76001E-18-1.61326E-17
 -1      1743 3.08614E-04-8.25384E-05-8.52837E-05 1.20797E-05-3.71339E-18-6.19605E-18
 -1      1744 2.80485E-04-6.89785E-05-8.13080E-05 4.60251E-05-5.04874E-18-1.13291E-17
 -1      1745 2.98674E-04-7.64460E-05-8.44837E-05-3.72146E-05-3.87221E-18 1.82790E-18
 -1      1746 3.13723E-04-8.41509E-05-8.64568E-05-2.91397E-07-3.89635E-18-4.03786E-18
 -1      1747 2.37566E-04-5.11452E-05-7.32712E-05-6.77320E-05-6.97341E-18 9.19370E-18
 -1      1748 2.85323E-04-7.34663E-05-8.03530E-05-4.88908E-05-4.56297E-18 3.99122E-18
 -1      1749 1.56229E-04-2.50917E-05-5.46911E-05-6.93526E-05-9.56046E-18 1.33171E-17
 -1      1750 2.11255E-04-4.44685E-05-6.51536E-05-7.63329E-05-7.11804E-18 1.11758E-17
 -1      1751 8.79022E-05-1.72165E-05-3.30273E-05-4.51763E-05-1.20075E-17 1.29376E-17
 -1      1752 1.27750E-04-2.04283E-05-4.43789E-05-6.75102E-05-1.03313E-17 1.34424E-17
 -1      1753 4.33748E-05-2.94119E-05-1.14805E-05-1.46071E-05-1.40057E-17 1.08454E-17
 -1      1754 6.16180E-05-1.46688E-05-2.23969E-05-3.89654E-05-1.32798E-17 1.27851E-17
 -1      1755 2.61505E-05-5.45317E-05 5.22403E-06 6.67087E-06-1.48798E-17 7.23239E-18
 -1      1756 2.57860E-05-3.18363E-05-2.42672E-06-4.79732E-06-1.48841E-17 9.85904E-18
 -1      1757 2.50082E-05-7.76471E-05 1.52517E-05 1.08751E-05-1.21219E-17 4.71088E-18
 -1      1758 1.94410E-05-6.00760E-05 1.09961E-05 1.31357E-05-1.42132E-17 6.45349E-18
 -1      1759 2.51010E-05-8.42699E-05 1.84033E-05 3.67943E-06-5.46929E-18 3.54208E-18
 -1      1760 2.30595E-05-8.08628E-05 1.77348E-05 1.41864E-05-1.05269E-17 4.32707E-18
 -1      1761 1.14697E-04-2.91375E-05-3.98067E-05-1.37682E-05-1.92361E-18 7.84014E-18
 -1      1762 1.40321E-04-3.29897E-05-4.77943E-05-1.34055E-05-4.47064E-18 4.25995E-18
 -1      1763 1.29213E-04-3.59128E-05-4.20530E-05-1.63948E-05-1.52148E-18 9.76756E-18
 -1      1764 8.00545E-05-2.96423E-05-2.24526E-05 4.75446E-05 6.61279E-18 7.18072E-18
 -1      1765 1.19262E-05-5.35072E-05 1.30647E-05 1.08037E-05-3.35743E-18 6.89570E-18
 -1      1766 9.52371E-05-2.85712E-05-2.85711E-05-2.18267E-11-4.72380E-18-2.70345E-18
 -1      1767 9.52371E-05-2.85713E-05-2.85711E-05-1.81497E-10-1.17932E-18-2.80386E-18
 -1      1768 2.15229E-05-4.74747E-05 7.12967E-06 2.27132E-05 3.98105E-19 6.43025E-18
 -1      1769 4.35219E-05-3.75258E-05-5.29137E-06 3.54672E-05 4.59007E-18 6.41543E-18
 -1      1770 1.26396E-04-2.75064E-05-4.06079E-05 5.43056E-05 6.99988E-18 5.14911E-18
 -1      1771 1.70234E-04-2.97095E-05-5.67431E-05 4.58234E-05 5.79032E-18 2.33612E-18
 -1      1772 2.04800E-04-3.24069E-05-6.91684E-05 3.01912E-05 4.44650E-18 3.95141E-19
 -1      1773 2.22041E-04-3.45240E-05-7.49804E-05 8.85801E-06 4.94964E-18-1.87194E-18
 -1      1774 2.16167E-04-3.41196E-05-7.30410E-05-1.96705E-05 5.64971E-18-4.34401E-18
 -1      1775 1.91097E-04-3.05231E-05-6.47025E-05-4.36885E-05 6.27172E-18-7.41493E-18
 -1      1776 1.48389E-04-2.52236E-05-5.05950E-05-5.37683E-05 7.25060E-18-8.18996E-18
 -1      1777 1.06042E-04-2.76870E-05-3.35877E-05-5.16107E-05 6.68013E-18-7.02148E-18
 -1      1778 6.49181E-05-2.77490E-05-1.68642E-05-4.64742E-05 6.54756E-18-6.78092E-18
 -1      1779 3.24615E-05-3.29367E-05-2.48738E-06-3.44061E-05 4.58330E-18-6.15084E-18
 -1      1780 1.46208E-05-3.98509E-05 7.26213E-06-2.30069E-05 1.96639E-18-5.62938E-18
 -1      1781 9.88054E-06-4.82831E-05 1.16239E-05-7.73462E-06-1.26192E-18-5.60312E-18
 -1      1782 1.89496E-05-4.83655E-05 7.62998E-06 5.42350E-06-4.47233E-18-6.74958E-18
 -1      1783 4.78500E-05-4.73171E-05-4.21330E-06 2.19618E-05-6.58822E-18-8.15613E-18
 -1      1784 9.34660E-05-4.86999E-05-2.13344E-05 3.28675E-05-7.35225E-18-9.55834E-18
 -1      1785 1.50270E-04-5.26962E-05-4.11508E-05 3.18695E-05-7.18877E-18-9.25468E-18
 -1      1786 2.02092E-04-5.45506E-05-5.98728E-05 2.29207E-05-6.84043E-18-8.30092E-18
 -1      1787 2.37828E-04-4.91919E-05-7.34958E-05 1.47708E-05-6.61067E-18-5.92669E-18
 -1      1788 2.54516E-04-4.63374E-05-7.97803E-05 4.08703E-07-6.62846E-18-2.56503E-18
 -1      1789 2.49000E-04-4.86492E-05-7.70846E-05-1.08117E-05-7.00708E-18 1.10114E-18
 -1      1790 2.16407E-04-4.99533E-05-6.55386E-05-2.39323E-05-7.34280E-18 4.06406E-18
 -1      1791 1.67279E-04-5.04440E-05-4.80262E-05-3.46793E-05-7.11635E-18 6.71020E-18
 -1      1792 1.12799E-04-4.90979E-05-2.84783E-05-3.56240E-05-7.27432E-18 7.04647E-18
 -1      1793 6.28376E-05-4.77341E-05-9.83889E-06-2.79397E-05-8.78034E-18 7.34801E-18
 -1      1794 3.04104E-05-5.16355E-05 4.34774E-06-1.40496E-05-8.75409E-18 5.86560E-18
 -1      1795 1.50921E-05-5.58263E-05 1.22481E-05-1.81674E-06-6.65133E-18 5.94024E-18
 -1      1796 1.36702E-04-3.19487E-05-4.49289E-05-8.27133E-06-9.79911E-19 8.07731E-18
 -1      1797 1.52750E-04-4.46150E-05-4.69720E-05-3.16138E-05-1.99963E-18 6.78238E-18
 -1      1798 7.34722E-05-3.09184E-07-3.15679E-05-2.40259E-06-1.70950E-18-1.44686E-18
 -1      1799 8.36818E-05-4.44368E-06-3.39392E-05-1.82831E-06-1.76244E-18-4.77899E-19
 -1      1800 9.64047E-05-1.18958E-05-3.64932E-05-9.69586E-07-1.55825E-18 7.95205E-19
 -1      1801 1.08932E-04-1.79221E-05-3.92272E-05-2.29187E-06-1.58673E-18 2.31976E-18
 -1      1802 9.10896E-05-1.08187E-05-3.43359E-05 2.06842E-06-1.54396E-18 1.62180E-19
 -1      1803 5.65539E-05 6.26911E-06-2.68725E-05-1.43584E-05-2.10265E-18-3.16802E-18
 -1      1804 5.66265E-05 6.86332E-06-2.72779E-05-1.21277E-05-2.12655E-18-3.02375E-18
 -1      1805 6.31986E-05 1.33339E-06-2.75329E-05-1.82807E-05-2.07376E-18-3.10171E-18
 -1      1806 5.92638E-05 3.52444E-06-2.70426E-05-1.73487E-05-2.16124E-18-3.13615E-18
 -1      1807 5.69452E-05 4.57538E-06-2.63125E-05-1.77222E-05-2.36873E-18-3.20549E-18
 -1      1808 7.42915E-05-5.40325E-06-2.94123E-05-1.76456E-05-1.80266E-18-2.79277E-18
 -1      1809 6.88710E-05-2.88110E-06-2.84166E-05-1.85517E-05-1.96354E-18-2.90241E-18
 -1      1810 6.65750E-05-2.57476E-06-2.74742E-05-2.07276E-05-2.32918E-18-2.94395E-18
 -1      1811 8.48000E-05-1.09137E-05-3.16277E-05-1.31370E-05-1.30177E-18-2.46661E-18
 -1      1812 8.00590E-05-9.01960E-06-3.05454E-05-1.54493E-05-1.55755E-18-2.58095E-18
 -1      1813 7.91455E-05-1.04138E-05-2.95827E-05-1.82359E-05-1.93024E-18-2.52925E-18
 -1      1814 9.20161E-05-1.38751E-05-3.35234E-05-6.67780E-06-7.27290E-19-2.22754E-18
 -1      1815 8.89539E-05-1.29366E-05-3.26410E-05-9.64523E-06-9.81552E-19-2.30247E-18
 -1      1816 8.97690E-05-1.59203E-05-3.17743E-05-1.20230E-05-1.33697E-18-2.19116E-18
 -1      1817 9.55702E-05-1.45827E-05-3.47943E-05 2.14844E-08-1.61886E-19-2.12280E-18
 -1      1818 9.41925E-05-1.44317E-05-3.42327E-05-3.00426E-06-4.23358E-19-2.19016E-18
 -1      1819 9.62824E-05-1.83159E-05-3.35034E-05-4.65310E-06-6.86891E-19-1.95245E-18
 -1      1820 9.63507E-05-1.40113E-05-3.54001E-05 5.97927E-06 4.48379E-19-1.81980E-18
 -1      1821 9.61783E-05-1.42816E-05-3.51556E-05 3.23459E-06 1.25904E-19-1.96430E-18
 -1      1822 9.89291E-05-1.84322E-05-3.45572E-05 2.15438E-06-4.14393E-20-1.82689E-18
 -1      1823 9.55724E-05-1.30680E-05-3.54846E-05 1.11762E-05 1.16840E-18-1.47341E-18
 -1      1824 9.60452E-05-1.34377E-05-3.54751E-05 8.68567E-06 7.97580E-19-1.63562E-18
 -1      1825 9.90042E-05-1.74983E-05-3.49702E-05 7.86329E-06 6.75793E-19-1.48386E-18
 -1      1826 9.43917E-05-1.25322E-05-3.52294E-05 1.55978E-05 1.76630E-18-9.16278E-19
 -1      1827 9.49495E-05-1.26989E-05-3.53455E-05 1.33494E-05 1.40584E-18-1.28670E-18
 -1      1828 9.78357E-05-1.65363E-05-3.48717E-05 1.24961E-05 1.37707E-18-1.14708E-18
 -1      1829 9.41207E-05-1.32861E-05-3.48525E-05 1.93518E-05 2.20728E-18 3.62424E-19
 -1      1830 9.40951E-05-1.28354E-05-3.49605E-05 1.72383E-05 1.94367E-18-3.92123E-19
 -1      1831 9.66863E-05-1.64239E-05-3.44155E-05 1.60840E-05 1.92913E-18-3.56204E-19
 -1      1832 9.70057E-05-1.72611E-05-3.44431E-05 2.15628E-05 2.31977E-18 2.71262E-18
 -1      1833 9.49754E-05-1.49383E-05-3.44829E-05 2.01557E-05 2.18624E-18 1.29585E-18
 -1      1834 9.68485E-05-1.82248E-05-3.36979E-05 1.82526E-05 2.25535E-18 1.00749E-18
 -1      1835 1.02031E-04-2.49558E-05-3.35112E-05 1.75449E-05 2.02229E-18 5.68232E-18
 -1      1836 9.85849E-05-1.94430E-05-3.39023E-05 2.05640E-05 2.18953E-18 3.74706E-18
 -1      1837 9.81646E-05-2.21638E-05-3.26391E-05 1.72928E-05 2.35105E-18 2.77372E-18
 -1      1838 9.80721E-05-2.59087E-05-3.11765E-05 1.25360E-05 2.01618E-18 5.06426E-18
 -1      1839 1.25708E-04-2.65816E-05-4.23038E-05-5.73491E-06-1.36461E-18 4.50844E-18
 -1      1840 9.29486E-05-2.67283E-05-2.84133E-05 7.48579E-06 1.58631E-18 4.24476E-18
 -1      1841 9.63645E-05-2.71005E-05-2.97529E-05 9.62302E-06 1.59711E-18 4.75000E-18
 -1      1842 9.70047E-05-2.55490E-05-3.05937E-05 1.25771E-05 1.89804E-18 3.45799E-18
 -1      1843 1.71551E-04-5.46273E-05-5.06237E-05-2.81618E-05-2.22664E-18 4.54476E-18
 -1      1844 1.62438E-04-4.04524E-05-5.27335E-05-2.83325E-05-3.75363E-18 4.03145E-18
 -1      1845 1.25916E-04-3.45621E-05-3.89525E-05 1.27983E-05-3.46476E-19 3.85632E-18
 -1      1846 1.29110E-04-3.76138E-05-3.91240E-05 1.46194E-05 1.18346E-19 3.79505E-18
 -1      1847 1.32602E-04-4.15055E-05-3.86658E-05 1.62190E-05 8.21569E-19 3.93092E-18
 -1      1848 1.37508E-04-4.67450E-05-3.88586E-05 1.34611E-05 1.25811E-18 4.17325E-18
 -1      1849 1.17223E-04-3.54749E-05-3.51239E-05 1.87753E-05 5.39242E-19 2.17396E-18
 -1      1850 1.46154E-04-5.39713E-05-3.90053E-05 9.30069E-06 1.77258E-18 4.40195E-18
 -1      1851 1.50800E-04-5.89811E-05-3.94234E-05 5.40469E-07 1.54425E-18 4.71960E-18
 -1      1852 1.29297E-04-4.97895E-05-3.42047E-05 1.79845E-05 1.64134E-18 2.21917E-18
 -1      1853 1.63878E-04-6.38858E-05-4.27066E-05-1.12838E-05 8.67573E-19 4.91703E-18
 -1      1854 1.62938E-04-5.97884E-05-4.44639E-05-2.05559E-05-6.43004E-19 5.02523E-18
 -1      1855 1.76531E-04-6.28752E-05-4.88158E-05-2.07412E-05-1.92255E-18 2.38694E-18
 -1      1856 1.52127E-04-6.52952E-05-3.76035E-05 2.23367E-06 1.16245E-18 2.63316E-18
 -1      1857 1.03667E-04-3.93989E-05-2.75379E-05 4.93429E-05 4.27413E-18 4.09371E-18
 -1      1858 8.21430E-05-4.06637E-05-1.89050E-05 4.49093E-05 2.53729E-18 4.13267E-18
 -1      1859 1.20551E-04-2.69767E-05-3.98502E-05 8.19771E-07-1.29032E-18 3.55627E-18
 -1      1860 1.59048E-04-4.17665E-05-5.08264E-05 2.77926E-05-4.57567E-18-1.43741E-18
 -1      1861 1.65750E-04-5.32595E-05-4.88001E-05 2.90913E-05-2.81448E-18-2.85122E-18
 -1      1862 1.59099E-04-5.65544E-05-4.42094E-05 2.17887E-05-1.03375E-18-3.69854E-18
 -1      1863 1.61285E-04-6.03921E-05-4.31686E-05 1.26761E-05 5.61543E-19-3.89365E-18
 -1      1864 1.69356E-04-5.95139E-05-4.74909E-05 2.17277E-05-2.48424E-18-2.86721E-18
 -1      1865 1.51695E-04-5.57659E-05-4.11879E-05 9.95578E-07 1.15493E-18-3.55328E-18
 -1      1866 1.48311E-04-5.21999E-05-4.07923E-05-7.78256E-06 1.34194E-18-3.06097E-18
 -1      1867 1.53301E-04-6.13185E-05-3.95679E-05 1.39130E-06 8.88802E-19-3.45071E-18
 -1      1868 1.40584E-04-4.69636E-05-4.01635E-05-1.35491E-05 1.40597E-18-2.38357E-18
 -1      1869 1.34919E-04-4.24055E-05-3.94027E-05-1.71592E-05 1.48188E-18-1.45594E-18
 -1      1870 1.35941E-04-4.95245E-05-3.70448E-05-1.55598E-05 1.73028E-18-1.92290E-18
 -1      1871 1.30076E-04-3.95237E-05-3.88317E-05-1.77455E-05 1.02494E-18-7.13519E-19
 -1      1872 1.24370E-04-3.63582E-05-3.76593E-05-1.77514E-05 1.42335E-18-5.69444E-19
 -1      1873 1.23364E-04-3.87949E-05-3.62310E-05-2.13338E-05 1.81130E-18-9.85844E-19
 -1      1874 1.21282E-04-3.51186E-05-3.69237E-05-1.61136E-05 1.27631E-18-1.07012E-18
 -1      1875 1.16461E-04-3.32179E-05-3.56860E-05-1.46871E-05 7.07729E-19-6.04424E-19
 -1      1876 1.15336E-04-3.30544E-05-3.52619E-05-2.00396E-05 1.16010E-18-1.04223E-18
 -1      1877 1.14403E-04-3.27330E-05-3.49659E-05-1.26976E-05 1.89656E-19-5.52861E-19
 -1      1878 1.10805E-04-3.16431E-05-3.39447E-05-1.11499E-05 2.46520E-19-9.35707E-20
 -1      1879 1.10081E-04-3.06429E-05-3.40441E-05-1.62050E-05 5.36622E-19-5.79596E-19
 -1      1880 1.09127E-04-3.13803E-05-3.32730E-05-9.28654E-06 1.36187E-20 1.60804E-20
 -1      1881 1.06336E-04-3.06675E-05-3.24393E-05-7.91996E-06-4.79169E-19-1.78733E-19
 -1      1882 1.06292E-04-2.97198E-05-3.28071E-05-1.21390E-05-8.83363E-20-2.74293E-21
 -1      1883 1.05068E-04-3.05072E-05-3.19074E-05-6.48559E-06-6.19446E-19-1.95228E-19
 -1      1884 1.03083E-04-3.00535E-05-3.13009E-05-5.46864E-06-6.38120E-20 9.83013E-20
 -1      1885 1.03354E-04-2.93415E-05-3.17093E-05-8.64085E-06-6.24217E-19-1.29784E-19
 -1      1886 1.02121E-04-2.99267E-05-3.09011E-05-4.43743E-06 6.49707E-19-1.18147E-19
 -1      1887 1.00738E-04-2.96290E-05-3.04739E-05-3.72310E-06 7.94745E-19-5.56338E-19
 -1      1888 1.01140E-04-2.91585E-05-3.08404E-05-6.00307E-06 4.93503E-19-2.26806E-19
 -1      1889 1.00020E-04-2.95233E-05-3.01827E-05-3.00712E-06 1.49098E-19-4.02579E-19
 -1      1890 9.90653E-05-2.93239E-05-2.98867E-05-2.51952E-06-2.14041E-19-6.60013E-19
 -1      1891 9.94847E-05-2.90348E-05-3.01866E-05-4.11843E-06 4.83894E-19-1.06814E-18
 -1      1892 9.85374E-05-2.92373E-05-2.96783E-05-2.03091E-06 4.79082E-19-7.29282E-19
 -1      1893 9.78822E-05-2.91020E-05-2.94747E-05-1.70223E-06 4.17981E-19-9.03229E-19
 -1      1894 9.82632E-05-2.89332E-05-2.97090E-05-2.80945E-06 1.46186E-19-1.36576E-18
 -1      1895 9.74984E-05-2.90329E-05-2.93271E-05-1.37118E-06-8.33136E-21-4.96651E-19
 -1      1896 9.70497E-05-2.89404E-05-2.91875E-05-1.15041E-06-7.52771E-19-1.08245E-19
 -1      1897 9.73720E-05-2.88465E-05-2.93658E-05-1.91288E-06 4.36660E-19-1.49187E-18
 -1      1898 9.67730E-05-2.88868E-05-2.90835E-05-9.26374E-07-1.71485E-18 9.24184E-20
 -1      1899 9.64659E-05-2.88233E-05-2.89878E-05-7.77871E-07-7.21772E-19 5.34863E-19
 -1      1900 9.67274E-05-2.87740E-05-2.91217E-05-1.30209E-06-8.70988E-19-2.71311E-20
 -1      1901 9.62678E-05-2.87827E-05-2.89149E-05-6.25892E-07 5.09034E-19 6.30735E-19
 -1      1902 9.60579E-05-2.87393E-05-2.88494E-05-5.25565E-07 1.31715E-18 1.50602E-19
 -1      1903 9.62645E-05-2.87154E-05-2.89490E-05-8.86074E-07-1.32753E-19 1.13191E-18
 -1      1904 9.59170E-05-2.87090E-05-2.87984E-05-4.22044E-07 1.03750E-18-6.84981E-19
 -1      1905 9.57740E-05-2.86795E-05-2.87537E-05-3.53898E-07 4.68729E-19 2.91933E-19
 -1      1906 9.59343E-05-2.86697E-05-2.88275E-05-6.01971E-07 9.08588E-19 5.73382E-19
 -1      1907 9.56746E-05-2.86574E-05-2.87182E-05-2.83070E-07 4.12357E-19 3.48273E-19
 -1      1908 9.55776E-05-2.86375E-05-2.86878E-05-2.36547E-07 1.02255E-18 5.51154E-19
 -1      1909 9.57003E-05-2.86350E-05-2.87422E-05-4.07188E-07 8.48111E-19 1.01238E-18
 -1      1910 9.55081E-05-2.86217E-05-2.86632E-05-1.87920E-07 1.04982E-18 5.66648E-19
 -1      1911 9.54431E-05-2.86086E-05-2.86427E-05-1.56048E-07 3.60243E-19 7.50924E-19
 -1      1912 9.55359E-05-2.86096E-05-2.86827E-05-2.73132E-07 1.04809E-18 1.12738E-18
 -1      1913 9.53951E-05-2.85975E-05-2.86259E-05-1.22616E-07-5.25902E-20 5.58109E-19
 -1      1914 9.53522E-05-2.85892E-05-2.86123E-05-1.00765E-07-6.19879E-19 1.95006E-19
 -1      1915 9.54216E-05-2.85916E-05-2.86415E-05-1.80641E-07 2.89561E-19-5.03583E-19
 -1      1916 9.53196E-05-2.85815E-05-2.86009E-05-7.78199E-08-1.99795E-19 4.67479E-19
 -1      1917 9.52920E-05-2.85765E-05-2.85920E-05-6.28838E-08 9.48875E-19 8.47730E-19
 -1      1918 9.53434E-05-2.85792E-05-2.86133E-05-1.16820E-07 6.60127E-20 9.24721E-19
 -1      1919 9.52703E-05-2.85714E-05-2.85845E-05-4.72322E-08 6.52821E-19 6.99443E-19
 -1      1920 9.52533E-05-2.85686E-05-2.85789E-05-3.71047E-08-2.67349E-19 4.48475E-19
 -1      1921 9.52909E-05-2.85711E-05-2.85943E-05-7.29289E-08 5.86131E-19 4.53548E-20
 -1      1922 9.52394E-05-2.85653E-05-2.85741E-05-2.65516E-08-1.18321E-18 3.22460E-19
 -1      1923 9.52295E-05-2.85640E-05-2.85707E-05-1.97830E-08-1.40815E-18 1.69585E-19
 -1      1924 9.52566E-05-2.85662E-05-2.85817E-05-4.29808E-08-8.54433E-19-8.28720E-19
 -1      1925 9.52210E-05-2.85620E-05-2.85678E-05-1.28077E-08-2.04647E-18-2.09461E-19
 -1      1926 9.52160E-05-2.85617E-05-2.85660E-05-8.40305E-09-2.34813E-18-1.21732E-18
 -1      1927 9.52352E-05-2.85635E-05-2.85736E-05-2.28280E-08-2.44017E-18-4.91624E-19
 -1      1928 9.52114E-05-2.85607E-05-2.85643E-05-4.09621E-09-1.00331E-18-2.53198E-18
 -1      1929 9.52095E-05-2.85610E-05-2.85636E-05-1.43682E-09-6.15184E-19-3.26320E-18
 -1      1930 9.52228E-05-2.85623E-05-2.85688E-05-9.77503E-09-2.09167E-18-1.12576E-18
 -1      1931 9.52072E-05-2.85605E-05-2.85627E-05 1.40010E-09-7.24738E-19-3.58596E-18
 -1      1932 9.52071E-05-2.85611E-05-2.85625E-05 3.08226E-09-5.32179E-19-3.30543E-18
 -1      1933 9.52163E-05-2.85621E-05-2.85661E-05-1.44917E-09-9.74177E-19-3.33726E-18
 -1      1934 9.52065E-05-2.85610E-05-2.85622E-05 4.68058E-09-1.78374E-19-2.36236E-18
 -1      1935 9.52077E-05-2.85619E-05-2.85625E-05 5.58393E-09 1.43908E-18-2.32405E-18
 -1      1936 9.52137E-05-2.85626E-05-2.85648E-05 3.78551E-09-6.83860E-20-3.01702E-18
 -1      1937 9.52080E-05-2.85620E-05-2.85625E-05 6.35993E-09 1.41937E-18-2.02968E-18
 -1      1938 9.52099E-05-2.85629E-05-2.85630E-05 6.73787E-09 1.70184E-18-1.76052E-18
 -1      1939 9.52136E-05-2.85634E-05-2.85644E-05 6.67760E-09 1.34293E-18-2.07472E-18
 -1      1940 9.52108E-05-2.85632E-05-2.85632E-05 6.97670E-09-3.20010E-19-2.39551E-18
 -1      1941 9.52130E-05-2.85640E-05-2.85638E-05 7.01793E-09-2.46763E-18-2.20769E-18
 -1      1942 9.52151E-05-2.85644E-05-2.85646E-05 7.99972E-09 6.31644E-19-1.89663E-18
 -1      1943 9.52142E-05-2.85644E-05-2.85642E-05 6.92055E-09-1.35863E-18-2.11192E-18
 -1      1944 9.52164E-05-2.85652E-05-2.85648E-05 6.75741E-09 4.13782E-19-1.24827E-18
 -1      1945 9.52174E-05-2.85654E-05-2.85651E-05 8.30301E-09-1.31215E-18-9.02491E-19
 -1      1946 9.52177E-05-2.85656E-05-2.85652E-05 6.46453E-09 1.04821E-18-1.80845E-18
 -1      1947 9.52198E-05-2.85663E-05-2.85658E-05 6.18894E-09 8.32791E-19-2.01063E-18
 -1      1948 9.52200E-05-2.85664E-05-2.85659E-05 7.97776E-09 7.09068E-19-1.64442E-18
 -1      1949 9.52211E-05-2.85666E-05-2.85662E-05 5.79706E-09 1.01486E-18-1.09208E-18
 -1      1950 9.52230E-05-2.85672E-05-2.85667E-05 5.47127E-09 1.32730E-18-2.53917E-18
 -1      1951 9.52228E-05-2.85673E-05-2.85666E-05 7.29611E-09 9.80697E-19-2.27396E-18
 -1      1952 9.52242E-05-2.85676E-05-2.85671E-05 5.04453E-09 1.72014E-18-1.92124E-18
 -1      1953 9.52258E-05-2.85681E-05-2.85676E-05 4.70909E-09 1.51309E-18-6.06613E-19
 -1      1954 9.52254E-05-2.85681E-05-2.85674E-05 6.44347E-09 1.35441E-18-1.17330E-18
 -1      1955 9.52269E-05-2.85684E-05-2.85680E-05 4.28805E-09 1.92063E-18-5.97957E-19
 -1      1956 9.52283E-05-2.85688E-05-2.85684E-05 3.96772E-09 1.96202E-18 6.02867E-19
 -1      1957 9.52277E-05-2.85688E-05-2.85681E-05 5.54162E-09 1.93736E-18 9.51537E-19
 -1      1958 9.52293E-05-2.85691E-05-2.85687E-05 3.57583E-09 5.01056E-19 1.61849E-18
 -1      1959 9.52305E-05-2.85694E-05-2.85690E-05 3.28382E-09-1.72532E-18 7.75234E-19
 -1      1960 9.52298E-05-2.85694E-05-2.85688E-05 4.66599E-09 1.62523E-18 7.81005E-19
 -1      1961 9.52313E-05-2.85696E-05-2.85693E-05 2.93214E-09-3.28079E-18 1.89805E-19
 -1      1962 9.52323E-05-2.85699E-05-2.85696E-05 2.67323E-09-2.99949E-18-7.87414E-19
 -1      1963 9.52316E-05-2.85698E-05-2.85693E-05 3.85821E-09-3.11053E-18 4.87841E-19
 -1      1964 9.52329E-05-2.85701E-05-2.85698E-05 2.36369E-09-1.15771E-18 7.76241E-19
 -1      1965 9.52337E-05-2.85703E-05-2.85700E-05 2.13621E-09-8.90669E-19 1.13302E-18
 -1      1966 9.52330E-05-2.85702E-05-2.85698E-05 3.13522E-09-4.13243E-19-3.86641E-19
 -1      1967 9.52342E-05-2.85705E-05-2.85702E-05 1.86397E-09-1.77456E-18 2.50926E-18
 -1      1968 9.52349E-05-2.85706E-05-2.85704E-05 1.66132E-09-8.01972E-19 1.32967E-18
 -1      1969 9.52343E-05-2.85706E-05-2.85702E-05 2.49560E-09-7.18494E-19 2.72606E-18
 -1      1970 9.52353E-05-2.85708E-05-2.85705E-05 1.41703E-09 2.23093E-18 1.01402E-18
 -1      1971 9.52358E-05-2.85709E-05-2.85707E-05 1.22890E-09 3.68971E-18 8.60294E-19
 -1      1972 9.52352E-05-2.85708E-05-2.85705E-05 1.92486E-09 5.68088E-19 2.80010E-18
 -1      1973 9.52361E-05-2.85710E-05-2.85708E-05 1.00016E-09 1.48595E-18-9.67797E-19
 -1      1974 9.52364E-05-2.85711E-05-2.85709E-05 8.14894E-10 9.65978E-20-5.39730E-19
 -1      1975 9.52360E-05-2.85711E-05-2.85707E-05 1.40079E-09 1.25741E-18-8.83773E-19
 -1      1976 9.52367E-05-2.85712E-05-2.85709E-05 5.93844E-10 1.41250E-18 3.00630E-19
 -1      1977 9.52369E-05-2.85712E-05-2.85710E-05 4.18602E-10 2.68512E-18 1.44855E-18
 -1      1978 9.52366E-05-2.85712E-05-2.85709E-05 8.97249E-10 1.60774E-18 1.95274E-19
 -1      1979 9.52370E-05-2.85713E-05-2.85710E-05 2.59475E-10 6.42731E-19 1.13551E-18
 -1      1980 8.70021E-05-2.55754E-05-2.62813E-05 4.91171E-06 1.12422E-18 2.75559E-18
 -1      1981 8.87209E-05-2.60264E-05-2.68046E-05 5.48066E-06 1.19623E-18 3.19365E-18
 -1      1982 8.43838E-05-2.47078E-05-2.55327E-05 3.59225E-06 7.69377E-19 2.26867E-18
 -1      1983 8.56636E-05-2.51544E-05-2.58836E-05 4.13849E-06 9.19163E-19 2.61553E-18
 -1      1984 8.95629E-05-2.59616E-05-2.72756E-05 6.13763E-06 1.31351E-18 1.85549E-18
 -1      1985 8.26127E-05-2.39970E-05-2.50794E-05 2.01560E-06 7.31942E-19 1.61900E-18
 -1      1986 8.33904E-05-2.43150E-05-2.52822E-05 2.69916E-06 7.14922E-19 2.06219E-18
 -1      1987 8.72177E-05-2.51018E-05-2.66487E-05 4.26114E-06 1.05456E-18 1.43017E-18
 -1      1988 8.18571E-05-2.36553E-05-2.49054E-05 1.38391E-07 7.52261E-19 1.18324E-18
 -1      1989 8.20618E-05-2.37546E-05-2.49553E-05 9.41452E-07 6.97909E-19 1.41453E-18
 -1      1990 8.56424E-05-2.43848E-05-2.62883E-05 2.04453E-06 9.80530E-19 1.02894E-18
 -1      1991 8.22056E-05-2.37994E-05-2.50003E-05-1.81290E-06 5.83467E-19 8.93881E-19
 -1      1992 8.18102E-05-2.36377E-05-2.48970E-05-1.00933E-06 6.80641E-19 1.08474E-18
 -1      1993 8.50249E-05-2.40899E-05-2.61524E-05-4.64223E-07 8.43496E-19 6.21462E-19
 -1      1994 8.35747E-05-2.44165E-05-2.53327E-05-3.49365E-06 2.20751E-19 4.92384E-19
 -1      1995 8.26435E-05-2.40164E-05-2.50942E-05-2.83867E-06 3.84533E-19 7.37556E-19
 -1      1996 8.54298E-05-2.43471E-05-2.62108E-05-2.92290E-06 6.77395E-19 4.44928E-19
 -1      1997 8.56970E-05-2.53712E-05-2.58437E-05-4.60154E-06 4.05570E-19 3.18018E-19
 -1      1998 8.43856E-05-2.48125E-05-2.55074E-05-4.20962E-06 3.38352E-19 4.17759E-19
 -1      1999 8.67291E-05-2.51108E-05-2.64295E-05-4.89796E-06 3.47197E-19 1.94579E-19
 -1      2000 8.81849E-05-2.64538E-05-2.64542E-05-4.99045E-06 6.02868E-19 1.35763E-19
 -1      2001 8.67053E-05-2.58478E-05-2.60704E-05-4.90056E-06 6.10879E-19 2.33397E-19
 -1      2002 8.86234E-05-2.61908E-05-2.67648E-05-6.05734E-06 6.29147E-19 1.25349E-19
 -1      2003 9.06249E-05-2.74385E-05-2.70752E-05-4.70297E-06 1.90960E-19 2.05736E-20
 -1      2004 8.91948E-05-2.69012E-05-2.66994E-05-4.87877E-06 6.02723E-19 8.11497E-20
 -1      2005 9.07249E-05-2.73238E-05-2.71654E-05-6.28544E-06 5.69968E-19 1.99026E-19
 -1      2006 9.26716E-05-2.82773E-05-2.76021E-05-3.81424E-06 3.43346E-20-3.51727E-19
 -1      2007 9.15166E-05-2.78642E-05-2.72954E-05-4.32846E-06-6.46789E-20-2.03229E-19
 -1      2008 9.26753E-05-2.82728E-05-2.75688E-05-5.74589E-06 3.19957E-19-7.52602E-20
 -1      2009 9.41518E-05-2.86859E-05-2.80623E-05-2.84621E-06 2.33718E-19-8.58001E-20
 -1      2010 9.32150E-05-2.83955E-05-2.78008E-05-3.23108E-06 9.16318E-20-3.34606E-19
 -1      2011 9.40749E-05-2.88819E-05-2.79264E-05-4.45124E-06 8.69102E-20-3.14539E-19
 -1      2012 9.52580E-05-2.89765E-05-2.84116E-05-1.93983E-06-3.24586E-20 1.71358E-19
 -1      2013 9.45948E-05-2.88003E-05-2.82208E-05-2.30597E-06 3.03651E-19 4.34184E-19
 -1      2014 9.51708E-05-2.92341E-05-2.82461E-05-3.28044E-06-9.64410E-20 1.55394E-20
 -1      2015 9.59423E-05-2.91023E-05-2.86503E-05-1.16101E-06-1.94103E-19 3.01443E-19
 -1      2016 9.55244E-05-2.90152E-05-2.85256E-05-1.46562E-06-8.55818E-20 1.80935E-19
 -1      2017 9.58722E-05-2.93651E-05-2.84929E-05-2.16842E-06 1.25632E-19 4.34629E-19
 -1      2018 9.62940E-05-2.91184E-05-2.87932E-05-5.62613E-07-1.54489E-19 3.30240E-19
 -1      2019 9.60718E-05-2.90930E-05-2.87231E-05-7.90049E-07-3.06037E-19 1.05940E-19
 -1      2020 9.62514E-05-2.93496E-05-2.86648E-05-1.24226E-06-2.38970E-19 3.97750E-19
 -1      2021 9.64082E-05-2.90716E-05-2.88612E-05-1.47404E-07-2.66188E-19 5.37746E-19
 -1      2022 9.63272E-05-2.90838E-05-2.88320E-05-3.00551E-07 9.35707E-21 3.65158E-19
 -1      2023 9.63948E-05-2.92544E-05-2.87696E-05-5.48497E-07-3.01971E-19-1.91405E-20
 -1      2024 9.63692E-05-2.89952E-05-2.88763E-05 1.10282E-07-5.17262E-19 3.72658E-19
 -1      2025 9.63802E-05-2.90272E-05-2.88747E-05 1.88086E-08-3.34161E-19 5.98781E-19
 -1      2026 9.63820E-05-2.91282E-05-2.88202E-05-7.88201E-08-3.94280E-19 3.97634E-19
 -1      2027 9.62438E-05-2.89111E-05-2.88578E-05 2.47151E-07-4.01194E-19 3.80959E-19
 -1      2028 9.63073E-05-2.89505E-05-2.88727E-05 2.01632E-07-7.07022E-19 6.70233E-19
 -1      2029 9.62773E-05-2.90009E-05-2.88314E-05 2.04000E-07-4.49755E-19 5.52860E-19
 -1      2030 9.60798E-05-2.88316E-05-2.88210E-05 2.99859E-07 3.66087E-19-8.40660E-20
 -1      2031 9.61672E-05-2.88709E-05-2.88441E-05 2.85454E-07-2.36492E-20 4.15995E-19
 -1      2032 9.61278E-05-2.88881E-05-2.88166E-05 3.46674E-07-1.15683E-19 5.59037E-19
 -1      2033 9.59089E-05-2.87626E-05-2.87769E-05 2.99409E-07 4.49656E-19 2.81985E-20
 -1      2034 9.60013E-05-2.87978E-05-2.88024E-05 3.04003E-07 3.45038E-19 2.04696E-19
 -1      2035 9.59651E-05-2.87957E-05-2.87872E-05 3.93620E-07 3.55944E-19 4.11054E-19
 -1      2036 9.57497E-05-2.87061E-05-2.87327E-05 2.69311E-07 1.81923E-19 7.10402E-19
 -1      2037 9.58359E-05-2.87356E-05-2.87571E-05 2.83972E-07 8.45304E-19 6.65280E-19
 -1      2038 9.58089E-05-2.87239E-05-2.87514E-05 3.81405E-07 5.26120E-19 1.25189E-18
 -1      2039 9.56119E-05-2.86620E-05-2.86924E-05 2.25884E-07-1.08100E-18 5.93077E-19
 -1      2040 9.56862E-05-2.86853E-05-2.87138E-05 2.44577E-07-5.86115E-19 8.29130E-19
 -1      2041 9.56700E-05-2.86704E-05-2.87149E-05 3.37254E-07-4.74076E-19 1.87060E-18
 -1      2042 9.54988E-05-2.86287E-05-2.86581E-05 1.79524E-07-4.22257E-19 5.98209E-19
 -1      2043 9.55593E-05-2.86464E-05-2.86758E-05 1.98522E-07-8.26891E-19 4.42401E-19
 -1      2044 9.55528E-05-2.86319E-05-2.86812E-05 2.79783E-07-9.77533E-19 1.35777E-18
 -1      2045 9.54099E-05-2.86046E-05-2.86304E-05 1.36202E-07 4.05695E-19 5.24896E-19
 -1      2046 9.54569E-05-2.86174E-05-2.86443E-05 1.53452E-07 1.39517E-19 6.46446E-19
 -1      2047 9.54581E-05-2.86052E-05-2.86520E-05 2.20661E-07-1.73117E-19 6.32789E-19
 -1      2048 9.53429E-05-2.85876E-05-2.86089E-05 9.88369E-08 5.15611E-19 1.75182E-19
 -1      2049 9.53777E-05-2.85966E-05-2.86194E-05 1.13414E-07 6.47534E-19 4.43883E-19
 -1      2050 9.53844E-05-2.85872E-05-2.86280E-05 1.66446E-07 6.41007E-19-1.48691E-19
 -1      2051 9.52942E-05-2.85763E-05-2.85930E-05 6.83967E-08 1.05841E-19 8.48814E-20
 -1      2052 9.53189E-05-2.85822E-05-2.86006E-05 8.00782E-08 5.21171E-19 3.67165E-19
 -1      2053 9.53289E-05-2.85757E-05-2.86091E-05 1.20210E-07 5.67973E-19 8.05460E-19
 -1      2054 9.52603E-05-2.85691E-05-2.85816E-05 4.47084E-08-9.13040E-19 1.22479E-18
 -1      2055 9.52770E-05-2.85727E-05-2.85869E-05 5.36660E-08-7.54638E-19 2.23857E-19
 -1      2056 9.52886E-05-2.85686E-05-2.85947E-05 8.28220E-08-6.85734E-19 1.06905E-18
 -1      2057 9.52379E-05-2.85648E-05-2.85739E-05 2.70098E-08-6.98851E-19 1.19975E-18
 -1      2058 9.52485E-05-2.85669E-05-2.85773E-05 3.36067E-08-4.59346E-19 1.17378E-18
 -1      2059 9.52604E-05-2.85647E-05-2.85842E-05 5.38793E-08-9.21069E-19 1.71145E-18
 -1      2060 9.52241E-05-2.85627E-05-2.85690E-05 1.43036E-08 4.80035E-19 5.43573E-19
 -1      2061 9.52303E-05-2.85636E-05-2.85710E-05 1.89672E-08 1.86560E-19 5.99739E-19
 -1      2062 9.52415E-05-2.85628E-05-2.85769E-05 3.23412E-08 3.21929E-19 6.19202E-19
 -1      2063 9.52166E-05-2.85620E-05-2.85661E-05 5.56782E-09 1.16791E-18 7.65638E-19
 -1      2064 9.52195E-05-2.85622E-05-2.85671E-05 8.71631E-09 6.63094E-19 8.20134E-19
 -1      2065 9.52297E-05-2.85623E-05-2.85720E-05 1.69301E-08 4.12759E-19 6.32658E-19
 -1      2066 9.52133E-05-2.85621E-05-2.85647E-05-1.31906E-10 6.44047E-19 8.82852E-19
 -1      2067 9.52141E-05-2.85619E-05-2.85650E-05 1.87365E-09 1.54172E-18 1.48328E-18
 -1      2068 9.52230E-05-2.85626E-05-2.85689E-05 6.36814E-09 7.28238E-19 2.15601E-18
 -1      2069 9.52128E-05-2.85628E-05-2.85642E-05-3.59229E-09 1.01283E-18-2.37851E-19
 -1      2070 9.52122E-05-2.85623E-05-2.85641E-05-2.41840E-09 4.86523E-19 8.17973E-20
 -1      2071 9.52198E-05-2.85633E-05-2.85672E-05-4.98719E-10 8.87559E-19 1.09339E-18
 -1      2072 9.52141E-05-2.85638E-05-2.85644E-05-5.45998E-09 4.70416E-19-2.30315E-19
 -1      2073 9.52128E-05-2.85631E-05-2.85641E-05-4.86894E-09 8.36138E-19 3.87763E-19
 -1      2074 9.52189E-05-2.85643E-05-2.85664E-05-4.64747E-09 7.82347E-19 1.53435E-18
 -1      2075 9.52164E-05-2.85648E-05-2.85649E-05-6.23969E-09-1.73052E-18 9.12606E-19
 -1      2076 9.52146E-05-2.85641E-05-2.85645E-05-6.03983E-09-2.88433E-19 3.20275E-19
 -1      2077 9.52196E-05-2.85653E-05-2.85662E-05-6.86751E-09-4.82070E-19 1.59654E-18
 -1      2078 9.52191E-05-2.85659E-05-2.85657E-05-6.31223E-09-3.78340E-19-3.65752E-19
 -1      2079 9.52173E-05-2.85652E-05-2.85652E-05-6.36073E-09-1.36108E-18 1.30393E-20
 -1      2080 9.52212E-05-2.85663E-05-2.85664E-05-7.77310E-09-1.04877E-18 8.61901E-19
 -1      2081 9.52220E-05-2.85669E-05-2.85665E-05-5.95573E-09 1.01183E-18-1.28636E-18
 -1      2082 9.52202E-05-2.85663E-05-2.85660E-05-6.14961E-09-2.29794E-19-5.22307E-19
 -1      2083 9.52231E-05-2.85672E-05-2.85668E-05-7.82665E-09-5.20354E-20 6.59063E-19
 -1      2084 9.52247E-05-2.85677E-05-2.85673E-05-5.36652E-09 1.76529E-19-1.81398E-18
 -1      2085 9.52230E-05-2.85672E-05-2.85668E-05-5.63411E-09 1.39407E-18-1.40721E-18
 -1      2086 9.52253E-05-2.85680E-05-2.85674E-05-7.36522E-09 1.30304E-18-1.46457E-18
 -1      2087 9.52272E-05-2.85685E-05-2.85680E-05-4.67766E-09-2.49697E-19-2.39890E-18
 -1      2088 9.52257E-05-2.85680E-05-2.85676E-05-4.97129E-09 1.61175E-19-2.20087E-18
 -1      2089 9.52273E-05-2.85687E-05-2.85680E-05-6.62622E-09 2.39118E-19-1.72505E-18
 -1      2090 9.52294E-05-2.85692E-05-2.85687E-05-3.97453E-09 8.52873E-19-2.79847E-18
 -1      2091 9.52281E-05-2.85688E-05-2.85683E-05-4.26443E-09 3.48073E-19-2.53241E-18
 -1      2092 9.52293E-05-2.85693E-05-2.85685E-05-5.77006E-09 2.09174E-19-3.53585E-18
 -1      2093 9.52313E-05-2.85697E-05-2.85693E-05-3.30707E-09 1.38680E-18-3.69208E-18
 -1      2094 9.52302E-05-2.85694E-05-2.85690E-05-3.57675E-09 9.69757E-19-2.81157E-18
 -1      2095 9.52310E-05-2.85698E-05-2.85691E-05-4.89904E-09 1.04430E-18-3.22097E-18
 -1      2096 9.52329E-05-2.85701E-05-2.85698E-05-2.69922E-09 8.30457E-19-4.01242E-18
 -1      2097 9.52320E-05-2.85699E-05-2.85695E-05-2.94193E-09 1.30579E-18-3.35428E-18
 -1      2098 9.52324E-05-2.85702E-05-2.85695E-05-4.07231E-09 1.04560E-18-3.18369E-18
 -1      2099 9.52342E-05-2.85705E-05-2.85702E-05-2.15565E-09 4.86784E-19-3.15797E-18
 -1      2100 9.52334E-05-2.85703E-05-2.85699E-05-2.37204E-09-3.23588E-20-3.13629E-18
 -1      2101 9.52337E-05-2.85705E-05-2.85699E-05-3.31733E-09-3.31327E-19-3.18199E-18
 -1      2102 9.52352E-05-2.85708E-05-2.85705E-05-1.66659E-09 1.04301E-18-2.02770E-18
 -1      2103 9.52346E-05-2.85706E-05-2.85703E-05-1.86300E-09 1.30970E-18-2.24337E-18
 -1      2104 9.52347E-05-2.85708E-05-2.85703E-05-2.63841E-09-7.77583E-20-1.58009E-18
 -1      2105 9.52360E-05-2.85710E-05-2.85707E-05-1.21280E-09 1.42892E-19-1.64337E-18
 -1      2106 9.52356E-05-2.85709E-05-2.85706E-05-1.39947E-09 1.24662E-18-1.74806E-18
 -1      2107 9.52356E-05-2.85710E-05-2.85705E-05-2.02354E-09 8.64843E-19-7.97606E-19
 -1      2108 9.52366E-05-2.85712E-05-2.85709E-05-7.73060E-10 4.02113E-19-2.92232E-18
 -1      2109 9.52363E-05-2.85711E-05-2.85708E-05-9.60428E-10 2.43393E-19-2.68359E-18
 -1      2110 9.52362E-05-2.85712E-05-2.85707E-05-1.45566E-09 1.18590E-18-1.16103E-18
 -1      2111 9.52369E-05-2.85713E-05-2.85710E-05-3.81807E-10 7.02882E-19-3.74769E-18
 -1      2112 9.52368E-05-2.85712E-05-2.85710E-05-5.51525E-10 1.46784E-18-2.89376E-18
 -1      2113 9.52367E-05-2.85713E-05-2.85709E-05-9.38507E-10 1.14891E-18-1.98803E-18
 -1      2114 9.52370E-05-2.85714E-05-2.85710E-05-4.85318E-10-7.04422E-19-2.01092E-18
 -1      2115 9.52376E-05-2.85728E-05-2.85706E-05-1.19500E-09-2.87313E-18-1.17771E-18
 -1      2116 9.52375E-05-2.85725E-05-2.85707E-05-1.15949E-09-1.99907E-18-6.61570E-19
 -1      2117 9.52373E-05-2.85722E-05-2.85708E-05-1.06800E-09-1.14514E-18 1.18599E-18
 -1      2118 9.52372E-05-2.85719E-05-2.85708E-05-9.55047E-10-1.71280E-18 2.03109E-18
 -1      2119 9.52374E-05-2.85724E-05-2.85707E-05-1.43188E-09-2.00116E-19-1.57101E-19
 -1      2120 9.52371E-05-2.85716E-05-2.85709E-05-6.68977E-10-1.61866E-18-5.83216E-19
 -1      2121 9.52379E-05-2.85734E-05-2.85705E-05-1.13559E-09-3.79128E-18-3.92373E-18
 -1      2122 9.52378E-05-2.85731E-05-2.85706E-05-1.18109E-09-4.56385E-18-1.45526E-18
 -1      2123 9.52377E-05-2.85729E-05-2.85706E-05-1.51205E-09-2.26891E-18-2.17378E-18
 -1      2124 9.52381E-05-2.85739E-05-2.85704E-05-9.08496E-10-2.43900E-18 1.58626E-18
 -1      2125 9.52380E-05-2.85736E-05-2.85704E-05-1.02459E-09-3.41660E-18-1.54267E-18
 -1      2126 9.52380E-05-2.85735E-05-2.85705E-05-1.36839E-09-3.17360E-18-1.87773E-18
 -1      2127 9.52383E-05-2.85742E-05-2.85703E-05-5.53580E-10-1.88323E-18 2.49829E-18
 -1      2128 9.52382E-05-2.85741E-05-2.85703E-05-7.20149E-10-2.09317E-18 1.13496E-18
 -1      2129 9.52382E-05-2.85739E-05-2.85704E-05-1.02968E-09-1.79055E-18 2.27996E-18
 -1      2130 9.52384E-05-2.85744E-05-2.85703E-05-1.23174E-10-2.21499E-18 3.89787E-18
 -1      2131 9.52383E-05-2.85743E-05-2.85703E-05-3.15943E-10-3.40084E-18 4.77685E-18
 -1      2132 9.52384E-05-2.85742E-05-2.85704E-05-5.49377E-10-1.61741E-18 3.46371E-18
 -1      2133 9.52383E-05-2.85743E-05-2.85703E-05 3.23871E-10-1.42410E-18 1.64346E-18
 -1      2134 9.52384E-05-2.85744E-05-2.85703E-05 1.31251E-10-2.07321E-18 3.20759E-18
 -1      2135 9.52385E-05-2.85743E-05-2.85704E-05 4.83469E-12-3.24391E-18 3.73221E-18
 -1      2136 9.52382E-05-2.85741E-05-2.85703E-05 7.27221E-10-1.24538E-18-9.85804E-19
 -1      2137 9.52383E-05-2.85742E-05-2.85703E-05 5.61242E-10-1.90921E-18-2.16805E-19
 -1      2138 9.52384E-05-2.85742E-05-2.85704E-05 5.58749E-10-3.07667E-18 6.88216E-19
 -1      2139 9.52380E-05-2.85736E-05-2.85704E-05 1.02599E-09-9.97808E-19-2.16555E-18
 -1      2140 9.52381E-05-2.85739E-05-2.85704E-05 9.12225E-10-1.45787E-18-8.12006E-19
 -1      2141 9.52382E-05-2.85739E-05-2.85704E-05 1.03483E-09-1.65847E-18-1.40026E-18
 -1      2142 9.52378E-05-2.85731E-05-2.85706E-05 1.18263E-09 1.46156E-20 2.30568E-18
 -1      2143 9.52379E-05-2.85734E-05-2.85705E-05 1.13725E-09-2.90174E-19 1.30977E-18
 -1      2144 9.52380E-05-2.85735E-05-2.85705E-05 1.37023E-09-1.79527E-18-2.93410E-19
 -1      2145 9.52375E-05-2.85725E-05-2.85707E-05 1.15748E-09 1.11137E-18-1.52202E-18
 -1      2146 9.52376E-05-2.85728E-05-2.85706E-05 1.19542E-09 5.19872E-19-6.81048E-20
 -1      2147 9.52377E-05-2.85729E-05-2.85706E-05 1.51335E-09-3.16409E-19 1.58605E-18
 -1      2148 9.52372E-05-2.85719E-05-2.85708E-05 9.43725E-10-1.25706E-19-1.25565E-18
 -1      2149 9.52373E-05-2.85722E-05-2.85708E-05 1.06498E-09 1.09021E-18-2.28628E-18
 -1      2150 9.52374E-05-2.85724E-05-2.85707E-05 1.42863E-09 1.29636E-18-1.61424E-18
 -1      2151 8.95989E-05-2.62584E-05-2.71033E-05 5.88799E-06 1.32356E-18 3.54373E-18
 -1      2152 9.18829E-05-2.66572E-05-2.78958E-05 6.82299E-06 1.48403E-18 3.98621E-18
 -1      2153 9.37340E-05-2.65518E-05-2.87865E-05 8.98615E-06 1.67900E-18 2.90990E-18
 -1      2154 9.17372E-05-2.65084E-05-2.79686E-05 7.57526E-06 1.59053E-18 2.40148E-18
 -1      2155 6.15911E-05-3.65254E-05-1.12039E-05 4.77819E-05 2.31071E-18 4.51479E-18
 -1      2156 4.62726E-05-4.08562E-05-3.79131E-06 3.96641E-05 7.37766E-19 5.05583E-18
 -1      2157 1.43359E-04-4.00717E-05-4.35118E-05 4.33761E-05 4.53946E-18 1.08844E-18
 -1      2158 1.22193E-04-4.06188E-05-3.51876E-05 4.29839E-05 4.46556E-18 2.32511E-18
 -1      2159 1.16893E-05-3.30266E-05 7.97983E-06 1.54279E-05-2.05300E-18 6.94228E-18
 -1      2160 1.09965E-05-3.69094E-05 9.41427E-06 5.86464E-06-3.95239E-18 6.63439E-18
 -1      2161 5.94237E-05 6.08998E-06-2.81592E-05-7.86027E-06-1.96067E-18-2.75537E-18
 -1      2162 6.48451E-05 4.33280E-06-2.96432E-05-5.72209E-06-1.92790E-18-2.15218E-18
 -1      2163 6.84345E-05 1.25993E-06-2.97826E-05-2.33954E-06-1.80299E-18-1.84531E-18
 -1      2164 5.64798E-05 6.68176E-06-2.69592E-05-1.02110E-05-2.18640E-18-2.95422E-18
 -1      2165 1.56532E-04-2.86969E-05-5.54032E-05 8.16351E-06-6.23882E-18 1.51640E-18
 -1      2166 1.60561E-04-3.53419E-05-5.44893E-05 2.06828E-05-5.45362E-18-3.53636E-19
 -1      2167 1.69496E-04-3.44120E-05-5.70065E-05 2.57161E-05 4.31457E-18-6.95414E-19
 -1      2168 1.54505E-04-3.63094E-05-5.02286E-05 3.18918E-05 4.67972E-18 4.77727E-19
 -1      2169 1.88493E-04-2.67687E-05-6.78812E-05 1.32597E-05 4.43972E-18-1.45076E-18
 -1      2170 1.73647E-04-2.56097E-05-6.29789E-05 1.72590E-05 4.60108E-18-7.83505E-19
 -1      2171 1.88154E-04-2.15946E-05-7.04782E-05 4.08881E-07 5.43753E-18-2.67059E-18
 -1      2172 1.89775E-04-2.39068E-05-7.00009E-05 9.21884E-06 4.81454E-18-1.69004E-18
 -1      2173 1.65630E-04-1.37528E-05-6.40049E-05 1.63684E-06 4.91830E-18-2.13410E-18
 -1      2174 1.87801E-04-2.63120E-05-6.80896E-05-1.51571E-05 5.72319E-18-3.66384E-18
 -1      2175 1.91197E-04-2.47028E-05-7.03615E-05-4.48809E-06 5.76279E-18-2.41955E-18
 -1      2176 1.66960E-04-2.92940E-05-5.86750E-05-2.75044E-05 5.55918E-18-4.75778E-18
 -1      2177 1.82718E-04-3.02368E-05-6.41622E-05-2.12178E-05 5.56289E-18-3.73965E-18
 -1      2178 1.38451E-04-3.36273E-05-4.52045E-05-3.74019E-05 5.11544E-18-4.76583E-18
 -1      2179 1.58881E-04-3.33617E-05-5.28037E-05-3.59973E-05 5.16425E-18-4.87340E-18
 -1      2180 1.08530E-04-3.83563E-05-3.02519E-05-4.39278E-05 3.48469E-18-3.99122E-18
 -1      2181 1.26869E-04-3.58722E-05-3.82950E-05-4.52933E-05 4.55577E-18-4.68367E-18
 -1      2182 6.25711E-05-3.33678E-05-1.35966E-05-4.52823E-05 3.26319E-18-5.19909E-18
 -1      2183 8.34124E-05-3.41364E-05-2.14619E-05-5.03678E-05 2.99596E-18-4.80734E-18
 -1      2184 3.43504E-05-2.84335E-05-3.21153E-06-4.03356E-05 7.70800E-19-5.08410E-18
 -1      2185 4.67124E-05-2.84452E-05-8.37164E-06-4.56219E-05 2.78970E-18-5.31646E-18
 -1      2186 6.46030E-05-3.34831E-05-1.34175E-05-5.05783E-05-5.29396E-20-4.49203E-18
 -1      2187 1.23562E-05-2.76122E-05 5.20003E-06-2.12055E-05-3.29496E-19-5.62684E-18
 -1      2188 1.78233E-05-2.16877E-05 1.17012E-06-3.15168E-05 7.26754E-19-5.53705E-18
 -1      2189 9.85738E-06-2.75355E-05 6.36358E-06-1.72605E-06-1.92255E-18-5.99615E-18
 -1      2190 8.71734E-06-2.69788E-05 6.58830E-06-1.14730E-05-2.12182E-19-5.69037E-18
 -1      2191 1.15626E-05-1.39619E-05 6.34416E-07-1.82802E-05-9.22207E-19-6.38917E-18
 -1      2192 2.98636E-05-3.55397E-05 1.01402E-06 1.94988E-05-3.36780E-18-6.52724E-18
 -1      2193 1.85119E-05-3.32042E-05 4.65120E-06 1.03585E-05-1.77559E-18-5.92415E-18
 -1      2194 6.85236E-05-4.54157E-05-1.10713E-05 3.35328E-05-3.81504E-18-6.50442E-18
 -1      2195 4.72550E-05-4.35636E-05-3.64623E-06 2.43331E-05-3.24075E-18-6.26116E-18
 -1      2196 1.24541E-04-5.94289E-05-2.87933E-05 3.08360E-05-3.89720E-18-5.73695E-18
 -1      2197 9.82302E-05-5.58058E-05-1.98580E-05 2.88104E-05-3.13063E-18-5.47395E-18
 -1      2198 2.02186E-04-5.28667E-05-6.23798E-05-4.51205E-06-5.59126E-18-2.61310E-18
 -1      2199 1.81721E-04-5.27851E-05-5.46292E-05-1.49182E-06-5.35828E-18-2.52162E-18
 -1      2200 2.06314E-04-4.55852E-05-6.70043E-05-8.77270E-06-5.50868E-18-1.20872E-18
 -1      2201 2.01888E-04-3.94817E-05-6.80868E-05 3.33000E-06-7.02360E-18 1.19389E-18
 -1      2202 2.09938E-04-3.85555E-05-7.12789E-05 4.26677E-06-6.86944E-18-1.17738E-19
 -1      2203 1.84529E-04-5.39512E-05-5.59766E-05 5.09453E-06-5.59370E-18 9.74088E-19
 -1      2204 1.99748E-04-5.12643E-05-6.24969E-05 7.54137E-06-6.12235E-18 1.00373E-19
 -1      2205 1.14014E-04-5.90664E-05-2.51200E-05-2.85670E-05-4.15554E-18 3.30300E-18
 -1      2206 1.40007E-04-6.06514E-05-3.42381E-05-2.83962E-05-4.10176E-18 2.86636E-18
 -1      2207 6.50949E-05-5.02985E-05-8.39443E-06-3.00485E-05-5.03730E-18 4.33024E-18
 -1      2208 8.76274E-05-5.11607E-05-1.65501E-05-3.65832E-05-4.89162E-18 4.19790E-18
 -1      2209 3.21956E-05-4.34941E-05 2.91794E-06-2.08457E-05-4.96785E-18 4.29170E-18
 -1      2210 4.54785E-05-4.30513E-05-2.31500E-06-2.86331E-05-5.58999E-18 4.70050E-18
 -1      2211 1.41949E-05-3.70807E-05 8.24510E-06-5.08532E-06-3.31603E-18 5.45023E-18
 -1      2212 2.00183E-05-3.71223E-05 5.99815E-06-1.37113E-05-4.75482E-18 4.83571E-18
 -1      2213 3.09052E-05-3.59401E-05 1.16109E-06 3.57278E-05 1.91853E-19 6.30256E-18
 -1      2214 2.13223E-05-3.68259E-05 5.32246E-06 2.76581E-05-1.80376E-18 6.36334E-18
 -1      2215 9.52370E-05-2.85714E-05-2.85710E-05 4.75361E-10 1.72058E-18-5.88052E-19
 -1      2216 1.21236E-04-2.98389E-05-3.92054E-05 6.73542E-06-1.05448E-18 3.31195E-18
 -1      2217 1.08867E-04-2.45358E-05-3.62716E-05 1.00289E-05-8.19835E-19 1.71777E-18
 -1      2218 8.51866E-05-4.67287E-05-1.65709E-05 5.06058E-05-3.32037E-19 2.23754E-18
 -1      2219 1.26425E-04-5.43621E-05-3.09623E-05 4.05924E-05 3.21915E-18-1.20702E-19
 -1      2220 1.78261E-04-4.08999E-05-5.82082E-05 2.43365E-05-6.08424E-18-8.10187E-19
 -1      2221 9.52370E-05-2.85717E-05-2.85708E-05-1.03517E-09 9.01605E-19-2.36498E-20
 -1      2222 1.92890E-05-2.69263E-05 2.62342E-06 2.55081E-05-2.34861E-18 7.55215E-18
 -1      2223 9.52370E-05-2.85715E-05-2.85709E-05 6.46139E-10 2.58493E-19-1.14769E-18
 -1      2224 9.52371E-05-2.85717E-05-2.85709E-05 8.08710E-10 2.29253E-19-3.20114E-19
 -1      2225 9.52371E-05-2.85718E-05-2.85708E-05 1.17506E-09 1.49351E-18-1.06754E-18
 -1      2226 9.52369E-05-2.85715E-05-2.85709E-05 8.42625E-10 2.79640E-18 7.68508E-19
 -1      2227 4.67536E-05-3.72426E-05-4.66092E-06 4.51823E-05-1.76860E-18 5.51503E-18
 -1      2228 1.52096E-04-4.56490E-05-4.46714E-05 2.49064E-05 3.27090E-18-1.27733E-18
 -1      2229 1.40094E-05-2.43478E-05 3.71342E-06-2.39136E-06-2.24527E-18 6.30150E-18
 -1      2230 3.17298E-05-3.28721E-05-2.78223E-07-2.42054E-05-1.91853E-18 3.96962E-18
 -1      2231 6.70847E-05-4.76956E-05-9.01763E-06-3.59233E-05-2.29800E-18 2.73952E-18
 -1      2232 1.15842E-04-6.27894E-05-2.29523E-05-3.15644E-05-1.73769E-18 1.17483E-18
 -1      2233 1.75661E-04-6.15389E-05-4.86753E-05-1.36821E-05-4.24025E-18 2.75032E-18
 -1      2234 1.75472E-04-6.21872E-05-4.79237E-05 1.32358E-05-3.55044E-18-1.28876E-18
 -1      2235 1.65913E-04-6.93005E-05-4.16125E-05 6.96699E-06-6.22040E-19-2.22134E-18
 -1      2236 1.52193E-04-6.25481E-05-3.97085E-05-1.60417E-05-3.94590E-18 3.16875E-18
 -1      2237 1.78171E-04-2.75779E-05-6.31788E-05 5.18469E-06-7.36749E-18 8.92190E-19
 -1      2238 2.09859E-04-3.70154E-05-7.20247E-05-2.98122E-06-6.90078E-18 9.91029E-20
 -1      2239 2.06342E-04-3.56151E-05-7.09829E-05-5.07520E-06-6.64497E-18-1.33365E-18
 -1      2240 1.56111E-04-2.77247E-05-5.57295E-05-3.90142E-06-6.21976E-18 1.89968E-18
 -1      2241 9.79700E-05-5.57671E-05-1.84612E-05 3.30396E-05-8.55503E-19-4.24835E-18
 -1      2242 1.74356E-05-2.01375E-05 5.13616E-07 7.95082E-06-9.71970E-19-6.52851E-18
 -1      2243 3.07592E-05-2.09758E-05-4.34066E-06-4.05886E-05-7.78423E-19-5.52753E-18
 -1      2244 1.03009E-04-4.11812E-05-2.64953E-05-4.57584E-05 1.93928E-18-3.51857E-18
 -1      2245 1.20059E-04-4.85696E-05-3.10759E-05-3.78519E-05 2.74015E-19-1.85776E-18
 -1      2246 9.82052E-05-4.29993E-05-2.31655E-05-4.70506E-05-1.96723E-19-2.56529E-18
 -1      2247 1.40401E-04-4.42047E-05-4.10874E-05-2.86100E-05 2.61881E-18-2.33654E-18
 -1      2248 1.59597E-04-3.38854E-05-5.31026E-05-1.46923E-05 4.24877E-18-2.18280E-18
 -1      2249 1.70541E-04-1.32770E-05-6.63207E-05 2.58330E-07 5.74246E-18-2.20027E-18
 -1      2250 1.59435E-04-3.25699E-05-5.53105E-05-1.68001E-05-5.03603E-18 3.51656E-18
 -1      2251 1.63885E-04-2.93180E-05-5.67803E-05 8.23764E-06 4.21949E-18-1.95580E-18
 -1      2252 1.69391E-04-2.14535E-05-6.22326E-05-4.41124E-06 5.37654E-18-2.01700E-18
 -1      2253 4.75433E-05-3.57095E-05-5.72981E-06 2.89990E-05-9.60959E-19-5.91631E-18
 -1      2254 1.73884E-04-6.67638E-05-4.57384E-05 5.53113E-06-3.05673E-18-1.61699E-18
 -1      2255 1.49803E-04-6.45375E-05-3.72910E-05 1.15950E-05-2.70902E-18-2.75497E-18
 -1      2256 1.82358E-04-3.73366E-05-6.10204E-05-1.73981E-05-5.59296E-18 1.31989E-18
 -1      2257 1.53505E-04-6.91607E-05-3.57898E-05-1.26455E-05-1.77877E-18 5.25160E-20
 -1      2258 1.52051E-04-6.94791E-05-3.50189E-05 1.06297E-05-3.73542E-19 2.54110E-21
 -1      2259 7.08754E-05-6.90314E-06-2.71871E-05-2.38585E-05-2.56093E-18-2.76190E-18
 -1      2260 6.34976E-05-2.71162E-06-2.61910E-05-2.40101E-05-2.67506E-18-2.98129E-18
 -1      2261 5.67372E-05 2.68307E-06-2.52151E-05-2.16533E-05-2.58850E-18-3.33008E-18
 -1      2262 5.24750E-05 5.41106E-06-2.49252E-05-1.88696E-05-2.56265E-18-3.38015E-18
 -1      2263 6.00022E-05-2.03081E-06-2.47110E-05-2.59067E-05-2.75580E-18-3.19938E-18
 -1      2264 9.62250E-05-2.13325E-05-3.21020E-05-1.09668E-05-1.38459E-18-1.82252E-18
 -1      2265 9.17748E-05-1.93129E-05-3.10732E-05-1.47423E-05-1.75700E-18-1.97060E-18
 -1      2266 1.01171E-04-2.27023E-05-3.37057E-05-2.51950E-06-6.23745E-19-1.63745E-18
 -1      2267 9.91940E-05-2.21486E-05-3.30120E-05-6.16935E-06-1.00957E-18-1.70751E-18
 -1      2268 1.01321E-04-2.58546E-05-3.24025E-05-8.70252E-06-1.29042E-18-1.44479E-18
 -1      2269 1.02244E-04-2.19499E-05-3.45180E-05 4.36875E-06 1.32244E-19-1.50820E-18
 -1      2270 1.01975E-04-2.22445E-05-3.41807E-05 1.35465E-06-2.80379E-19-1.58607E-18
 -1      2271 1.04755E-04-2.59783E-05-3.37777E-05 1.50711E-08-5.43693E-19-1.23712E-18
 -1      2272 1.01184E-04-2.05305E-05-3.46802E-05 9.69745E-06 8.68514E-19-1.17059E-18
 -1      2273 1.01829E-04-2.10901E-05-3.46370E-05 7.26277E-06 4.49356E-19-1.36526E-18
 -1      2274 1.04673E-04-2.45292E-05-3.43337E-05 6.55990E-06 3.07067E-19-1.08452E-18
 -1      2275 9.93562E-05-1.95240E-05-3.43351E-05 1.35790E-05 1.51131E-18-8.38854E-19
 -1      2276 1.00268E-04-1.98636E-05-3.45142E-05 1.16917E-05 1.15634E-18-1.04108E-18
 -1      2277 1.02882E-04-2.29343E-05-3.42346E-05 1.11121E-05 9.48760E-19-7.78767E-19
 -1      2278 9.78349E-05-1.97381E-05-3.36185E-05 1.60851E-05 2.03256E-18-7.24346E-20
 -1      2279 9.84719E-05-1.94115E-05-3.39522E-05 1.48050E-05 1.72803E-18-5.32162E-19
 -1      2280 1.00682E-04-2.21138E-05-3.36296E-05 1.39919E-05 1.53887E-18-3.83779E-19
 -1      2281 9.75790E-05-2.19787E-05-3.25262E-05 1.65199E-05 2.12756E-18 1.33847E-18
 -1      2282 9.74527E-05-2.04490E-05-3.30412E-05 1.64433E-05 2.06339E-18 5.02118E-19
 -1      2283 9.89525E-05-2.27021E-05-3.26135E-05 1.51310E-05 1.87474E-18 3.73522E-19
 -1      2284 9.78372E-05-2.49561E-05-3.13191E-05 1.41209E-05 2.01173E-18 2.71708E-18
 -1      2285 9.74432E-05-2.29102E-05-3.19381E-05 1.56843E-05 2.09176E-18 1.93395E-18
 -1      2286 9.74788E-05-2.43206E-05-3.13563E-05 1.40100E-05 2.02003E-18 1.35964E-18
 -1      2287 9.59741E-05-2.59091E-05-3.00442E-05 1.14463E-05 1.93973E-18 2.49500E-18
 -1      2288 1.01553E-04-5.34780E-05-2.12707E-05 4.90116E-05 1.09055E-19-4.72962E-19
 -1      2289 8.14793E-05-4.71414E-05-1.46993E-05 4.93654E-05-1.93272E-18 1.79059E-18
 -1      2290 1.01282E-04-2.56249E-05-3.20809E-05 1.85780E-05 2.47095E-19 6.42501E-19
 -1      2291 1.05205E-04-3.18834E-05-3.11431E-05 2.12375E-05 7.91870E-19 4.80691E-19
 -1      2292 1.36803E-04-5.58456E-05-3.40949E-05 3.30518E-05-5.74288E-19-3.53848E-19
 -1      2293 1.19886E-04-5.49380E-05-2.73434E-05 3.87400E-05-1.05392E-18-7.43907E-19
 -1      2294 1.09128E-04-3.96233E-05-2.92390E-05 2.49624E-05 1.45631E-18 4.30134E-19
 -1      2295 1.18541E-04-5.04340E-05-2.88942E-05 2.36576E-05 1.65457E-18 1.18386E-19
 -1      2296 9.03526E-05-2.97080E-05-2.59232E-05 2.62653E-05 8.93620E-19-1.06747E-18
 -1      2297 1.36601E-04-6.41935E-05-3.07128E-05 1.96175E-05 1.02660E-18-8.35386E-20
 -1      2298 1.54506E-04-2.39025E-05-5.63784E-05-1.19369E-06 4.03908E-18-2.53411E-18
 -1      2299 1.53248E-04-3.38592E-05-5.10964E-05 3.04038E-06 3.41884E-18-2.58769E-18
 -1      2300 9.52368E-05-2.85717E-05-2.85708E-05-1.28736E-09 1.46062E-18-7.16176E-19
 -1      2301 9.30952E-05-1.44957E-05-3.35576E-05 6.88426E-06-1.09470E-18 1.68811E-19
 -1      2302 9.77612E-05-2.07614E-05-3.28774E-05 1.38292E-05-4.30260E-19 4.77435E-19
 -1      2303 8.40497E-05-1.61381E-05-2.91159E-05 1.61808E-05-1.55973E-19-8.79141E-19
 -1      2304 7.93793E-05-7.25397E-06-3.09927E-05 5.70324E-06-1.18018E-18-9.56393E-19
 -1      2305 1.51310E-04-6.51398E-05-3.68000E-05-3.58870E-06 8.45233E-19-2.58980E-18
 -1      2306 1.40927E-04-5.92181E-05-3.46736E-05-1.33795E-05 1.80010E-18-2.35561E-18
 -1      2307 1.49476E-04-6.75046E-05-3.54608E-05-1.03962E-05 1.30867E-19-1.07319E-18
 -1      2308 1.30136E-04-5.01899E-05-3.41463E-05-1.87039E-05 1.83076E-18-1.92324E-18
 -1      2309 1.22258E-04-4.26752E-05-3.37898E-05-2.34218E-05 2.29927E-18-1.34452E-18
 -1      2310 1.24710E-04-5.24479E-05-3.10337E-05-2.37056E-05 1.97359E-18-1.64621E-18
 -1      2311 1.17058E-04-3.72584E-05-3.40980E-05-2.34533E-05 2.10080E-18-1.50600E-18
 -1      2312 1.12059E-04-3.28651E-05-3.38396E-05-2.39022E-05 1.36175E-18-1.16706E-18
 -1      2313 1.10252E-04-3.69915E-05-3.13649E-05-2.70215E-05 1.99508E-18-1.40094E-18
 -1      2314 1.10097E-04-3.08566E-05-3.39064E-05-2.16503E-05 1.43202E-18-1.26998E-18
 -1      2315 1.06905E-04-2.89282E-05-3.34245E-05-2.00932E-05 1.13423E-18-1.07548E-18
 -1      2316 1.03693E-04-2.89593E-05-3.20110E-05-2.41274E-05 1.37198E-18-1.69299E-18
 -1      2317 1.06269E-04-2.86276E-05-3.32299E-05-1.75775E-05 5.52140E-19-7.22380E-19
 -1      2318 1.04095E-04-2.79043E-05-3.26786E-05-1.56344E-05 3.12469E-19-5.85382E-19
 -1      2319 1.01240E-04-2.63371E-05-3.20539E-05-1.94979E-05 7.11097E-19-1.05726E-18
 -1      2320 1.03740E-04-2.81357E-05-3.23553E-05-1.32894E-05-1.36763E-19-6.23038E-19
 -1      2321 1.02034E-04-2.78716E-05-3.18058E-05-1.14195E-05-2.37930E-19-7.80136E-19
 -1      2322 1.00133E-04-2.61331E-05-3.16599E-05-1.48611E-05 5.41539E-20-1.29519E-18
 -1      2323 1.01747E-04-2.82052E-05-3.14741E-05-9.57271E-06-4.46155E-19-6.36226E-19
 -1      2324 1.00450E-04-2.81106E-05-3.10168E-05-8.09122E-06 6.50495E-20-4.21968E-19
 -1      2325 9.93363E-05-2.66823E-05-3.10944E-05-1.08306E-05-2.47522E-19-1.03085E-18
 -1      2326 1.00161E-04-2.83779E-05-3.07271E-05-6.73194E-06 5.38683E-19-5.35722E-19
 -1      2327 9.91828E-05-2.83341E-05-3.03725E-05-5.63727E-06 9.23359E-19-4.92105E-19
 -1      2328 9.86136E-05-2.73043E-05-3.05318E-05-7.70677E-06 3.97139E-19-7.72957E-19
 -1      2329 9.89053E-05-2.85123E-05-3.01394E-05-4.67170E-06 4.90320E-19-1.03495E-18
 -1      2330 9.81777E-05-2.84813E-05-2.98751E-05-3.89325E-06-1.13913E-19-1.77854E-18
 -1      2331 9.79384E-05-2.77865E-05-3.00471E-05-5.40691E-06 4.40259E-19-1.57091E-18
 -1      2332 9.79294E-05-2.85887E-05-2.96960E-05-3.22067E-06 1.41038E-19-1.45499E-18
 -1      2333 9.73956E-05-2.85612E-05-2.95036E-05-2.67814E-06 4.92712E-19-1.41636E-18
 -1      2334 9.73381E-05-2.81097E-05-2.96592E-05-3.76375E-06 2.46334E-21-1.59163E-18
 -1      2335 9.71860E-05-2.86212E-05-2.93695E-05-2.21419E-06 8.28142E-19-1.34039E-18
 -1      2336 9.67985E-05-2.85964E-05-2.92314E-05-1.83965E-06 3.50412E-19-9.90543E-19
 -1      2337 9.68315E-05-2.83094E-05-2.93613E-05-2.60963E-06 6.13258E-19-6.30609E-19
 -1      2338 9.66291E-05-2.86273E-05-2.91327E-05-1.52074E-06-2.14695E-19-5.85630E-19
 -1      2339 9.63501E-05-2.86059E-05-2.90343E-05-1.26293E-06-2.45921E-19 6.21760E-19
 -1      2340 9.64212E-05-2.84261E-05-2.91383E-05-1.80591E-06 1.29753E-19-5.85275E-19
 -1      2341 9.62172E-05-2.86202E-05-2.89625E-05-1.04364E-06-6.62985E-21 1.03909E-18
 -1      2342 9.60177E-05-2.86026E-05-2.88928E-05-8.66009E-07 1.25874E-18 1.09012E-18
 -1      2343 9.60991E-05-2.84910E-05-2.89740E-05-1.24795E-06 2.77258E-19 8.07151E-19
 -1      2344 9.59161E-05-2.86080E-05-2.88410E-05-7.14846E-07 1.35261E-18 7.27283E-19
 -1      2345 9.57743E-05-2.85943E-05-2.87918E-05-5.92093E-07 1.02198E-18 1.05665E-18
 -1      2346 9.58522E-05-2.85254E-05-2.88542E-05-8.60471E-07 8.58089E-19 8.00726E-19
 -1      2347 9.56981E-05-2.85953E-05-2.87546E-05-4.87563E-07 4.56199E-19 8.52865E-19
 -1      2348 9.55981E-05-2.85850E-05-2.87201E-05-4.02427E-07 6.97360E-19 9.74704E-19
 -1      2349 9.56666E-05-2.85427E-05-2.87676E-05-5.90849E-07 1.12157E-18 8.78267E-20
 -1      2350 9.55420E-05-2.85842E-05-2.86936E-05-3.29952E-07 9.71323E-19 1.01603E-18
 -1      2351 9.54722E-05-2.85769E-05-2.86695E-05-2.70731E-07 5.73830E-19 5.07731E-19
 -1      2352 9.55293E-05-2.85510E-05-2.87054E-05-4.02778E-07 9.25388E-19 1.24335E-19
 -1      2353 9.54316E-05-2.85755E-05-2.86508E-05-2.20429E-07 5.56966E-19-7.08367E-19
 -1      2354 9.53834E-05-2.85705E-05-2.86341E-05-1.79186E-07 1.78544E-19-8.20480E-19
 -1      2355 9.54296E-05-2.85548E-05-2.86610E-05-2.71376E-07-1.99524E-19-8.56038E-19
 -1      2356 9.53546E-05-2.85692E-05-2.86210E-05-1.44327E-07 1.92480E-19-9.81282E-20
 -1      2357 9.53219E-05-2.85661E-05-2.86096E-05-1.15646E-07 5.62166E-19 4.34369E-19
 -1      2358 9.53583E-05-2.85566E-05-2.86297E-05-1.79581E-07 4.11711E-19-9.83310E-19
 -1      2359 9.53019E-05-2.85652E-05-2.86006E-05-9.16142E-08 3.40271E-19-9.18111E-20
 -1      2360 9.52802E-05-2.85634E-05-2.85929E-05-7.17727E-08 4.27601E-20-1.32235E-18
 -1      2361 9.53084E-05-2.85577E-05-2.86077E-05-1.15640E-07 1.24326E-19-9.93085E-19
 -1      2362 9.52668E-05-2.85628E-05-2.85868E-05-5.53679E-08-2.13450E-19-2.13376E-18
 -1      2363 9.52529E-05-2.85621E-05-2.85818E-05-4.17778E-08-8.95523E-19-1.83877E-18
 -1      2364 9.52743E-05-2.85587E-05-2.85926E-05-7.13939E-08-7.05961E-19-1.99222E-18
 -1      2365 9.52441E-05-2.85618E-05-2.85777E-05-3.07459E-08-2.46335E-18-1.78949E-18
 -1      2366 9.52357E-05-2.85617E-05-2.85745E-05-2.16095E-08-3.19284E-18-2.29270E-18
 -1      2367 9.52516E-05-2.85598E-05-2.85824E-05-4.11229E-08-1.88466E-18-2.36525E-18
 -1      2368 9.52305E-05-2.85617E-05-2.85721E-05-1.47164E-08-2.53780E-18-1.54271E-18
 -1      2369 9.52260E-05-2.85620E-05-2.85703E-05-8.89644E-09-1.61023E-18-1.92202E-18
 -1      2370 9.52375E-05-2.85610E-05-2.85758E-05-2.11168E-08-2.61617E-18-1.89134E-18
 -1      2371 9.52228E-05-2.85622E-05-2.85686E-05-4.19812E-09-1.34283E-18-2.45352E-18
 -1      2372 9.52205E-05-2.85627E-05-2.85676E-05-2.88502E-10-1.13000E-18-2.78192E-18
 -1      2373 9.52290E-05-2.85622E-05-2.85716E-05-7.98612E-09-2.08829E-18-2.44409E-18
 -1      2374 9.52189E-05-2.85630E-05-2.85667E-05 2.49666E-09-4.27121E-19-2.05059E-18
 -1      2375 9.52183E-05-2.85637E-05-2.85663E-05 4.84720E-09 9.32881E-19-1.46085E-18
 -1      2376 9.52243E-05-2.85635E-05-2.85690E-05 5.99720E-10-4.32147E-19-1.04727E-18
 -1      2377 9.52178E-05-2.85640E-05-2.85658E-05 6.34321E-09 1.30898E-18-1.79628E-18
 -1      2378 9.52182E-05-2.85647E-05-2.85658E-05 7.62024E-09 1.49574E-18-1.81291E-18
 -1      2379 9.52224E-05-2.85647E-05-2.85676E-05 5.68426E-09 1.12605E-18-1.79932E-18
 -1      2380 9.52184E-05-2.85650E-05-2.85657E-05 8.25631E-09 8.90985E-19-2.77665E-18
 -1      2381 9.52194E-05-2.85657E-05-2.85658E-05 8.81454E-09-3.98445E-19-2.53712E-18
 -1      2382 9.52221E-05-2.85659E-05-2.85670E-05 8.37701E-09 5.22732E-19-2.89856E-18
 -1      2383 9.52200E-05-2.85661E-05-2.85659E-05 8.89757E-09-1.00035E-18-1.37924E-18
 -1      2384 9.52213E-05-2.85667E-05-2.85662E-05 8.99159E-09 3.71339E-19-4.87332E-19
 -1      2385 9.52230E-05-2.85669E-05-2.85669E-05 9.47710E-09-3.88580E-19-2.77059E-18
 -1      2386 9.52221E-05-2.85670E-05-2.85664E-05 8.73830E-09 3.32587E-20-1.01248E-19
 -1      2387 9.52234E-05-2.85676E-05-2.85668E-05 8.54855E-09 3.59004E-19-1.14112E-18
 -1      2388 9.52244E-05-2.85678E-05-2.85671E-05 9.55702E-09 3.72152E-19-3.39247E-19
 -1      2389 9.52243E-05-2.85679E-05-2.85670E-05 8.10947E-09 1.86683E-18-1.24607E-18
 -1      2390 9.52256E-05-2.85684E-05-2.85674E-05 7.76162E-09 1.56820E-18-3.53781E-19
 -1      2391 9.52261E-05-2.85686E-05-2.85675E-05 9.02127E-09 1.29497E-18 7.66599E-19
 -1      2392 9.52265E-05-2.85686E-05-2.85677E-05 7.23857E-09 2.39802E-18-3.83539E-19
 -1      2393 9.52277E-05-2.85690E-05-2.85680E-05 6.81785E-09 2.24202E-18 6.42871E-19
 -1      2394 9.52279E-05-2.85692E-05-2.85680E-05 8.15026E-09 1.86375E-18 1.73524E-18
 -1      2395 9.52285E-05-2.85692E-05-2.85683E-05 6.27703E-09 1.55652E-18 2.28033E-18
 -1      2396 9.52296E-05-2.85695E-05-2.85686E-05 5.83892E-09 2.40609E-18 3.01532E-18
 -1      2397 9.52296E-05-2.85697E-05-2.85685E-05 7.13281E-09 2.25325E-18 2.03894E-18
 -1      2398 9.52303E-05-2.85697E-05-2.85688E-05 5.32060E-09 1.37886E-18 1.18666E-18
 -1      2399 9.52313E-05-2.85700E-05-2.85691E-05 4.89879E-09-5.86780E-19 9.10638E-19
 -1      2400 9.52311E-05-2.85701E-05-2.85690E-05 6.09056E-09 4.93078E-19 2.62219E-18
 -1      2401 9.52319E-05-2.85701E-05-2.85693E-05 4.42441E-09-2.59584E-18-4.41649E-21
 -1      2402 9.52327E-05-2.85703E-05-2.85696E-05 4.03663E-09-2.92242E-18-1.87661E-19
 -1      2403 9.52325E-05-2.85705E-05-2.85694E-05 5.09606E-09-2.32599E-18-9.52618E-21
 -1      2404 9.52332E-05-2.85705E-05-2.85698E-05 3.61408E-09 4.51363E-20 4.58663E-20
 -1      2405 9.52339E-05-2.85706E-05-2.85700E-05 3.26624E-09 1.32407E-18 1.47276E-18
 -1      2406 9.52336E-05-2.85707E-05-2.85698E-05 4.18612E-09-4.55541E-19-2.74567E-19
 -1      2407 9.52344E-05-2.85707E-05-2.85701E-05 2.89339E-09-5.38874E-19 2.56205E-18
 -1      2408 9.52349E-05-2.85709E-05-2.85703E-05 2.58235E-09-1.06368E-18 2.55377E-18
 -1      2409 9.52346E-05-2.85709E-05-2.85701E-05 3.37142E-09 3.81540E-19 1.63183E-18
 -1      2410 9.52353E-05-2.85710E-05-2.85704E-05 2.25064E-09-2.20547E-19 3.13300E-18
 -1      2411 9.52357E-05-2.85711E-05-2.85706E-05 1.96824E-09 1.21505E-18 3.17474E-18
 -1      2412 9.52354E-05-2.85711E-05-2.85704E-05 2.64347E-09-1.49207E-19 2.25701E-18
 -1      2413 9.52360E-05-2.85712E-05-2.85706E-05 1.66479E-09 8.57522E-19 1.21861E-18
 -1      2414 9.52363E-05-2.85713E-05-2.85707E-05 1.40016E-09 6.66834E-19-2.23752E-19
 -1      2415 9.52360E-05-2.85713E-05-2.85706E-05 1.98472E-09 3.59010E-19 1.60836E-18
 -1      2416 9.52365E-05-2.85713E-05-2.85708E-05 1.25483E-09 1.42705E-18 3.54529E-19
 -1      2417 9.52367E-05-2.85714E-05-2.85709E-05 9.93524E-10 3.04916E-18 2.29512E-18
 -1      2418 9.52368E-05-2.85716E-05-2.85708E-05 1.18682E-09 2.10780E-18 2.29896E-19
 -1      2419 9.52365E-05-2.85714E-05-2.85707E-05 1.51176E-09 1.62541E-18 9.39044E-19
 -1      2420 8.82289E-05-2.41330E-05-2.74309E-05 2.01285E-06 9.78680E-19 6.32792E-19
 -1      2421 8.87985E-05-2.44723E-05-2.75471E-05 3.32576E-06 1.13199E-18 8.54630E-19
 -1      2422 8.96464E-05-2.49497E-05-2.76874E-05 4.75145E-06 1.14707E-18 9.35816E-19
 -1      2423 9.06561E-05-2.54609E-05-2.79168E-05 5.86146E-06 1.16551E-18 1.24326E-18
 -1      2424 9.18814E-05-2.47547E-05-2.87952E-05 4.89581E-06 1.31924E-18 6.86582E-19
 -1      2425 9.17195E-05-2.59358E-05-2.81619E-05 7.00101E-06 1.30744E-18 1.29390E-18
 -1      2426 9.30216E-05-2.63565E-05-2.85364E-05 7.99250E-06 1.49221E-18 1.48664E-18
 -1      2427 9.38095E-05-2.58288E-05-2.91515E-05 7.64956E-06 1.36775E-18 1.05266E-18
 -1      2428 8.77480E-05-2.39035E-05-2.73337E-05-1.02702E-06 8.94096E-19 3.46460E-19
 -1      2429 8.78073E-05-2.39091E-05-2.73570E-05 3.65191E-07 7.80562E-19 4.48983E-19
 -1      2430 9.05989E-05-2.39585E-05-2.85942E-05 1.57646E-06 1.05849E-18 3.49120E-19
 -1      2431 8.82762E-05-2.44202E-05-2.73543E-05-3.88122E-06 6.56930E-19 1.31997E-19
 -1      2432 8.78399E-05-2.40563E-05-2.73008E-05-2.64220E-06 9.57473E-19 3.19803E-19
 -1      2433 9.02826E-05-2.39131E-05-2.84768E-05-1.94914E-06 9.38268E-19 2.78634E-19
 -1      2434 8.96323E-05-2.55613E-05-2.74613E-05-6.02461E-06 4.94907E-19-2.34248E-19
 -1      2435 8.88120E-05-2.49161E-05-2.73482E-05-5.15986E-06 5.50237E-19-6.10939E-20
 -1      2436 9.09547E-05-2.47376E-05-2.84015E-05-5.06478E-06 8.97057E-19-1.55818E-19
 -1      2437 9.14536E-05-2.70141E-05-2.76288E-05-7.11304E-06 4.22102E-19 5.42556E-20
 -1      2438 9.04277E-05-2.62523E-05-2.74754E-05-6.74661E-06 4.67555E-19 7.42312E-20
 -1      2439 9.23508E-05-2.62167E-05-2.83520E-05-7.20343E-06 4.39088E-19-3.82312E-19
 -1      2440 9.33197E-05-2.84009E-05-2.78335E-05-7.08849E-06 4.70964E-19 3.12126E-19
 -1      2441 9.22825E-05-2.77050E-05-2.76610E-05-7.21168E-06 6.78919E-19 3.36523E-19
 -1      2442 9.40432E-05-2.79291E-05-2.83289E-05-8.06318E-06 3.42188E-19-1.81946E-19
 -1      2443 9.48117E-05-2.92995E-05-2.80451E-05-6.22856E-06 4.45610E-19 2.96246E-20
 -1      2444 9.39681E-05-2.89097E-05-2.78835E-05-6.65795E-06 4.39433E-19 3.15465E-19
 -1      2445 9.55711E-05-2.94011E-05-2.83399E-05-7.68521E-06 5.54944E-19-1.08886E-19
 -1      2446 9.57492E-05-2.98560E-05-2.82446E-05-4.63653E-06-1.16029E-19 2.10565E-19
 -1      2447 9.51085E-05-2.95191E-05-2.80921E-05-5.30764E-06 2.35235E-19 1.92198E-19
 -1      2448 9.65734E-05-3.02883E-05-2.83846E-05-6.35607E-06 2.50518E-19 3.47032E-19
 -1      2449 9.63575E-05-3.00109E-05-2.84352E-05-3.27746E-06 2.15365E-20-2.03032E-19
 -1      2450 9.59137E-05-2.99106E-05-2.83084E-05-3.89974E-06-9.15482E-20 1.95483E-21
 -1      2451 9.70537E-05-3.06323E-05-2.84564E-05-4.66382E-06 7.76520E-20 2.33800E-19
 -1      2452 9.66307E-05-2.99241E-05-2.85871E-05-2.05518E-06-1.00848E-19-3.00289E-20
 -1      2453 9.63675E-05-2.99371E-05-2.84924E-05-2.60153E-06-8.07940E-20-3.97498E-19
 -1      2454 9.72205E-05-3.05966E-05-2.85468E-05-3.16789E-06 6.50540E-20-5.61932E-19
 -1      2455 9.66725E-05-2.97111E-05-2.86951E-05-1.08047E-06-2.61835E-19 1.10036E-20
 -1      2456 9.65482E-05-2.97859E-05-2.86321E-05-1.50857E-06 1.12505E-19 4.33575E-19
 -1      2457 9.71348E-05-3.03242E-05-2.86299E-05-1.88219E-06-4.46495E-19-2.97098E-20
 -1      2458 9.65748E-05-2.94585E-05-2.87613E-05-3.78549E-07-2.91149E-19 2.95121E-19
 -1      2459 9.65470E-05-2.95564E-05-2.87259E-05-6.81920E-07-2.99745E-19 2.01879E-19
 -1      2460 9.69127E-05-2.99547E-05-2.86952E-05-8.93423E-07-1.66870E-19 4.38182E-19
 -1      2461 9.64065E-05-2.92190E-05-2.87921E-05 7.71727E-08-6.22695E-19 7.33057E-19
 -1      2462 9.64392E-05-2.93163E-05-2.87781E-05-1.16152E-07-3.61295E-19 6.51810E-19
 -1      2463 9.66391E-05-2.95837E-05-2.87382E-05-2.05062E-07-4.69987E-19 1.32768E-18
 -1      2464 9.62135E-05-2.90180E-05-2.87961E-05 3.36628E-07-4.73773E-19 8.08919E-19
 -1      2465 9.62791E-05-2.91024E-05-2.87972E-05 2.29636E-07-8.14191E-19 5.40341E-19
 -1      2466 9.63660E-05-2.92628E-05-2.87593E-05 2.24986E-07-6.23853E-19 1.45372E-18
 -1      2467 9.60235E-05-2.88624E-05-2.87818E-05 4.54068E-07-1.02499E-20 8.62589E-19
 -1      2468 9.61026E-05-2.89298E-05-2.87925E-05 4.08635E-07 3.57577E-19 9.57209E-19
 -1      2469 9.61202E-05-2.90112E-05-2.87620E-05 4.56001E-07-2.97078E-20 1.33975E-18
 -1      2470 9.58514E-05-2.87491E-05-2.87570E-05 4.77725E-07 5.52685E-20 1.03375E-18
 -1      2471 9.59315E-05-2.87998E-05-2.87726E-05 4.72271E-07-2.84998E-19 7.11791E-19
 -1      2472 9.59120E-05-2.88281E-05-2.87513E-05 5.47027E-07-2.72626E-20 1.16807E-18
 -1      2473 9.57035E-05-2.86710E-05-2.87274E-05 4.45681E-07-8.00181E-20 1.96335E-18
 -1      2474 9.57773E-05-2.87072E-05-2.87447E-05 4.63417E-07 2.46131E-20 1.50797E-18
 -1      2475 9.57426E-05-2.87034E-05-2.87321E-05 5.48232E-07-4.51080E-19 1.54315E-18
 -1      2476 9.55814E-05-2.86197E-05-2.86973E-05 3.85428E-07-9.00408E-19 2.35117E-18
 -1      2477 9.56453E-05-2.86445E-05-2.87141E-05 4.14403E-07 1.61371E-19 2.42986E-18
 -1      2478 9.56085E-05-2.86238E-05-2.87087E-05 4.98067E-07-3.70441E-19 2.63841E-18
 -1      2479 9.54837E-05-2.85878E-05-2.86692E-05 3.15269E-07-1.51264E-19 1.10901E-18
 -1      2480 9.55364E-05-2.86040E-05-2.86844E-05 3.47650E-07-8.45797E-19 1.29945E-18
 -1      2481 9.55045E-05-2.85767E-05-2.86842E-05 4.23662E-07 8.33587E-20 1.62791E-18
 -1      2482 9.54076E-05-2.85693E-05-2.86447E-05 2.46352E-07 7.97330E-20-1.82575E-20
 -1      2483 9.54495E-05-2.85793E-05-2.86576E-05 2.77468E-07-1.70139E-19 4.33151E-19
 -1      2484 9.54252E-05-2.85515E-05-2.86609E-05 3.42691E-07 3.43752E-19 2.63256E-19
 -1      2485 9.53500E-05-2.85596E-05-2.86243E-05 1.84694E-07 5.60026E-19-6.59342E-20
 -1      2486 9.53821E-05-2.85653E-05-2.86347E-05 2.12109E-07 6.97362E-19-1.70867E-19
 -1      2487 9.53658E-05-2.85404E-05-2.86401E-05 2.65650E-07 6.01986E-19 5.06082E-20
 -1      2488 9.53074E-05-2.85553E-05-2.86079E-05 1.32875E-07-1.16260E-21 5.78608E-19
 -1      2489 9.53312E-05-2.85583E-05-2.86160E-05 1.55630E-07 5.60061E-20 3.81151E-19
 -1      2490 9.53219E-05-2.85377E-05-2.86223E-05 1.97965E-07-2.22493E-20 2.82287E-19
 -1      2491 9.52769E-05-2.85544E-05-2.85952E-05 9.13564E-08-1.11276E-18 1.87963E-19
 -1      2492 9.52939E-05-2.85556E-05-2.86013E-05 1.09382E-07-7.07844E-20 7.19145E-19
 -1      2493 9.52901E-05-2.85396E-05-2.86078E-05 1.41736E-07-1.54579E-19 6.43435E-19
 -1      2494 9.52556E-05-2.85553E-05-2.85858E-05 5.94012E-08-4.40932E-19 2.66098E-19
 -1      2495 9.52673E-05-2.85554E-05-2.85902E-05 7.31194E-08-1.34826E-18 4.06642E-19
 -1      2496 9.52676E-05-2.85437E-05-2.85963E-05 9.70334E-08-1.31472E-18-1.68134E-19
 -1      2497 9.52415E-05-2.85571E-05-2.85790E-05 3.57041E-08 1.65626E-19 9.66308E-19
 -1      2498 9.52491E-05-2.85566E-05-2.85820E-05 4.57553E-08 3.22890E-19 1.04137E-18
 -1      2499 9.52521E-05-2.85485E-05-2.85875E-05 6.28178E-08-6.93976E-19-2.28773E-19
 -1      2500 9.52326E-05-2.85593E-05-2.85742E-05 1.87787E-08 2.66314E-19 1.49831E-18
 -1      2501 9.52372E-05-2.85584E-05-2.85763E-05 2.58589E-08 5.00912E-19 1.43376E-18
 -1      2502 9.52417E-05-2.85531E-05-2.85810E-05 3.75494E-08-1.78488E-20 1.15393E-18
 -1      2503 9.52275E-05-2.85614E-05-2.85712E-05 7.18375E-09 7.04662E-19 1.23759E-18
 -1      2504 9.52300E-05-2.85604E-05-2.85724E-05 1.19510E-08 1.01172E-18 1.42961E-18
 -1      2505 9.52352E-05-2.85573E-05-2.85764E-05 1.95614E-08 7.71919E-19 1.16116E-18
 -1      2506 9.52250E-05-2.85633E-05-2.85693E-05-3.61770E-10 1.11307E-18 8.34272E-19
 -1      2507 9.52260E-05-2.85624E-05-2.85699E-05 2.66781E-09 1.10307E-18 1.49215E-18
 -1      2508 9.52313E-05-2.85608E-05-2.85732E-05 7.27466E-09 1.25976E-18 6.08506E-19
 -1      2509 9.52242E-05-2.85650E-05-2.85682E-05-4.93289E-09 4.53946E-19 1.04780E-18
 -1      2510 9.52243E-05-2.85642E-05-2.85685E-05-3.16461E-09 4.53092E-19 6.21759E-19
 -1      2511 9.52293E-05-2.85636E-05-2.85711E-05-6.96754E-10 6.94662E-19 1.35638E-18
 -1      2512 9.52246E-05-2.85664E-05-2.85678E-05-7.39388E-09-9.61046E-19 1.40098E-18
 -1      2513 9.52241E-05-2.85657E-05-2.85678E-05-6.50824E-09 3.43712E-19 1.08790E-18
 -1      2514 9.52286E-05-2.85659E-05-2.85698E-05-5.50701E-09 4.71384E-19 4.46035E-20
 -1      2515 9.52257E-05-2.85676E-05-2.85677E-05-8.41549E-09-5.10984E-19 7.72633E-20
 -1      2516 9.52248E-05-2.85670E-05-2.85676E-05-8.12176E-09-7.79827E-19 6.16154E-19
 -1      2517 9.52287E-05-2.85675E-05-2.85691E-05-8.07950E-09-3.30144E-19-3.93479E-19
 -1      2518 9.52270E-05-2.85685E-05-2.85679E-05-8.50210E-09 9.80754E-19-1.92599E-18
 -1      2519 9.52260E-05-2.85680E-05-2.85677E-05-8.58403E-09 2.25686E-19-1.48175E-18
 -1      2520 9.52294E-05-2.85688E-05-2.85688E-05-9.12856E-09 6.43833E-19-1.44531E-18
 -1      2521 9.52285E-05-2.85693E-05-2.85683E-05-8.02132E-09 1.37193E-18-1.99424E-18
 -1      2522 9.52275E-05-2.85688E-05-2.85680E-05-8.32317E-09 1.01080E-18-1.75852E-18
 -1      2523 9.52302E-05-2.85697E-05-2.85688E-05-9.19004E-09 1.33785E-18-2.67213E-18
 -1      2524 9.52300E-05-2.85698E-05-2.85686E-05-7.23221E-09-9.85424E-20-1.97839E-18
 -1      2525 9.52290E-05-2.85695E-05-2.85684E-05-7.64577E-09 8.54292E-19-1.68800E-18
 -1      2526 9.52312E-05-2.85703E-05-2.85690E-05-8.65380E-09 6.75600E-19-1.31647E-18
 -1      2527 9.52314E-05-2.85703E-05-2.85691E-05-6.30997E-09 5.16718E-19-2.52915E-18
 -1      2528 9.52305E-05-2.85700E-05-2.85688E-05-6.76345E-09 1.27492E-19-2.43606E-18
 -1      2529 9.52322E-05-2.85708E-05-2.85692E-05-7.79401E-09 4.67165E-19-9.43586E-19
 -1      2530 9.52326E-05-2.85706E-05-2.85694E-05-5.36645E-09 1.20275E-18-2.69244E-18
 -1      2531 9.52318E-05-2.85704E-05-2.85692E-05-5.81536E-09 9.42992E-19-2.89537E-18
 -1      2532 9.52331E-05-2.85711E-05-2.85695E-05-6.79566E-09 8.86491E-19-9.87760E-19
 -1      2533 9.52337E-05-2.85708E-05-2.85698E-05-4.46642E-09 6.85280E-19-1.50044E-18
 -1      2534 9.52330E-05-2.85707E-05-2.85696E-05-4.88650E-09 1.15249E-18-2.36098E-18
 -1      2535 9.52340E-05-2.85712E-05-2.85697E-05-5.77636E-09 8.18417E-19-1.86463E-18
 -1      2536 9.52346E-05-2.85710E-05-2.85701E-05-3.64021E-09-1.17504E-18-1.67482E-18
 -1      2537 9.52341E-05-2.85709E-05-2.85699E-05-4.02192E-09-2.21547E-19-2.32437E-18
 -1      2538 9.52347E-05-2.85714E-05-2.85700E-05-4.80377E-09 6.04462E-19-1.41805E-18
 -1      2539 9.52354E-05-2.85712E-05-2.85704E-05-2.89342E-09-5.41637E-19-9.92733E-19
 -1      2540 9.52349E-05-2.85711E-05-2.85702E-05-3.23786E-09-7.73221E-19-1.73373E-18
 -1      2541 9.52354E-05-2.85715E-05-2.85702E-05-3.90935E-09-1.44892E-18-1.02823E-18
 -1      2542 9.52360E-05-2.85713E-05-2.85706E-05-2.21439E-09 7.69752E-19-4.43600E-19
 -1      2543 9.52356E-05-2.85713E-05-2.85705E-05-2.52923E-09 2.99039E-19-6.40699E-19
 -1      2544 9.52359E-05-2.85716E-05-2.85704E-05-3.09910E-09-1.72768E-19-1.07033E-18
 -1      2545 9.52365E-05-2.85715E-05-2.85707E-05-1.58920E-09 2.53395E-18-1.78863E-18
 -1      2546 9.52362E-05-2.85714E-05-2.85707E-05-1.87644E-09 2.38718E-18-3.54134E-19
 -1      2547 9.52364E-05-2.85716E-05-2.85706E-05-2.35976E-09 1.56328E-18-7.66828E-19
 -1      2548 9.52382E-05-2.85736E-05-2.85705E-05-1.55095E-09-7.51031E-19 5.72622E-19
 -1      2549 9.52380E-05-2.85734E-05-2.85706E-05-1.68674E-09-1.84255E-18-1.13959E-18
 -1      2550 9.52378E-05-2.85731E-05-2.85706E-05-1.79148E-09-2.19715E-18-2.95168E-18
 -1      2551 9.52376E-05-2.85728E-05-2.85706E-05-1.81487E-09-8.25783E-19-3.71273E-18
 -1      2552 9.52380E-05-2.85733E-05-2.85706E-05-2.01392E-09-6.34253E-19-1.85306E-18
 -1      2553 9.52374E-05-2.85725E-05-2.85707E-05-1.78215E-09-6.42486E-19-2.37189E-18
 -1      2554 9.52372E-05-2.85722E-05-2.85707E-05-1.68199E-09 5.18126E-19-6.43277E-19
 -1      2555 9.52375E-05-2.85727E-05-2.85706E-05-2.10015E-09-8.01739E-19-3.95008E-18
 -1      2556 2.81262E-05-2.11920E-05-2.83201E-06 3.37923E-05-2.82676E-18 6.88722E-18
 -1      2557 1.90803E-05-1.68925E-05-6.03265E-07 1.85455E-05-2.65990E-18 7.20740E-18
 -1      2558 9.52385E-05-2.85740E-05-2.85705E-05-1.09990E-09-3.56306E-19 2.49137E-18
 -1      2559 9.52383E-05-2.85739E-05-2.85705E-05-1.32721E-09-8.37665E-19 2.36931E-18
 -1      2560 9.52384E-05-2.85738E-05-2.85706E-05-1.66106E-09 1.03952E-19 1.54723E-18
 -1      2561 9.52386E-05-2.85743E-05-2.85704E-05-5.03686E-10-1.30244E-18 3.77664E-18
 -1      2562 9.52386E-05-2.85742E-05-2.85705E-05-7.89264E-10-1.86494E-19 2.38098E-18
 -1      2563 9.52387E-05-2.85742E-05-2.85705E-05-1.08790E-09-5.69545E-19 1.59651E-18
 -1      2564 9.52387E-05-2.85743E-05-2.85704E-05 1.57677E-10-2.98518E-18 2.95481E-18
 -1      2565 9.52387E-05-2.85743E-05-2.85704E-05-1.47818E-10-2.70741E-18 4.23528E-18
 -1      2566 9.52389E-05-2.85744E-05-2.85705E-05-3.75237E-10-9.77257E-19 2.76758E-18
 -1      2567 9.52386E-05-2.85742E-05-2.85705E-05 7.98745E-10-3.41033E-18 7.68728E-19
 -1      2568 9.52386E-05-2.85743E-05-2.85704E-05 5.13564E-10-3.53514E-18 1.63582E-18
 -1      2569 9.52389E-05-2.85744E-05-2.85705E-05 3.85388E-10-2.19707E-18 2.12450E-18
 -1      2570 9.52383E-05-2.85739E-05-2.85705E-05 1.32782E-09-1.06030E-18-1.33151E-18
 -1      2571 9.52385E-05-2.85740E-05-2.85705E-05 1.10435E-09-1.90136E-18-4.23687E-19
 -1      2572 9.52387E-05-2.85742E-05-2.85705E-05 1.09265E-09-2.17403E-18 1.63055E-18
 -1      2573 9.52380E-05-2.85734E-05-2.85706E-05 1.68938E-09-3.66337E-19 7.96803E-19
 -1      2574 9.52382E-05-2.85736E-05-2.85705E-05 1.55290E-09-4.67425E-19-1.37829E-18
 -1      2575 9.52384E-05-2.85738E-05-2.85706E-05 1.66189E-09 1.07316E-18-8.41586E-19
 -1      2576 9.52376E-05-2.85728E-05-2.85706E-05 1.81612E-09 5.70974E-19 2.44884E-18
 -1      2577 9.52378E-05-2.85731E-05-2.85706E-05 1.79452E-09-4.51075E-19 2.65585E-18
 -1      2578 9.52380E-05-2.85733E-05-2.85706E-05 2.01891E-09 1.15319E-18 4.61717E-19
 -1      2579 9.52372E-05-2.85722E-05-2.85707E-05 1.67536E-09 8.47578E-19-1.43013E-18
 -1      2580 9.52374E-05-2.85725E-05-2.85707E-05 1.78163E-09 1.83661E-19 1.79204E-19
 -1      2581 9.52375E-05-2.85727E-05-2.85706E-05 2.10309E-09 2.23171E-19 9.54702E-19
 -1      2582 1.51876E-04-4.72255E-05-4.50528E-05 1.31330E-05 2.55412E-18-2.87229E-18
 -1      2583 1.45276E-04-5.32170E-05-3.90982E-05 2.23341E-05 1.58062E-18-2.80791E-18
 -1      2584 3.13859E-05-2.33099E-05-3.19786E-06-2.26834E-05-1.55642E-19 2.97817E-18
 -1      2585 4.55079E-05-3.10997E-05-6.03287E-06-3.23076E-05-3.13190E-19 2.73062E-18
 -1      2586 8.59490E-05-1.62312E-05-2.97741E-05-1.92668E-05-2.07263E-18-2.24458E-18
 -1      2587 7.90610E-05-1.26242E-05-2.85619E-05-2.20247E-05-2.39490E-18-2.40764E-18
 -1      2588 9.22230E-05-2.21640E-05-3.01301E-05-1.86017E-05-2.08571E-18-1.82303E-18
 -1      2589 1.54876E-05-1.59835E-05 3.90495E-07 4.20519E-06-1.27858E-18 6.39637E-18
 -1      2590 1.96996E-05-1.75085E-05-6.70783E-07-9.94148E-06-1.27658E-18 4.75058E-18
 -1      2591 1.54173E-04-2.20221E-05-5.70357E-05 1.63595E-06 4.61358E-18-9.03784E-19
 -1      2592 1.56423E-04-1.64936E-05-6.04287E-05 2.95308E-06 5.17558E-18-1.11766E-18
 -1      2593 1.50293E-04-9.65566E-06-6.08004E-05-1.29603E-06 4.93058E-18-2.20816E-18
 -1      2594 1.50436E-04-1.37644E-05-5.89673E-05-3.08182E-06 4.64555E-18-2.06168E-18
 -1      2595 6.39110E-05-3.60217E-05-1.19570E-05 3.35863E-05 1.59242E-19-4.47212E-18
 -1      2596 4.44991E-05-2.64178E-05-7.70339E-06 2.66525E-05 5.35748E-20-5.11163E-18
 -1      2597 1.55052E-04-1.03612E-05-6.23032E-05 2.60180E-06 5.50317E-18-1.53133E-18
 -1      2598 1.51692E-04-7.53250E-06-6.23548E-05 2.00129E-06 5.28887E-18-1.67390E-18
 -1      2599 1.43707E-04-1.02065E-05-5.73517E-05 6.62558E-06 4.79103E-18-6.39933E-19
 -1      2600 1.49443E-04-3.78901E-05-4.81531E-05-8.75505E-06 3.07505E-18-9.24960E-19
 -1      2601 1.54825E-04-3.15643E-05-5.32343E-05-3.30112E-06 3.83748E-18-9.00820E-19
 -1      2602 1.34877E-04-4.76314E-05-3.75487E-05-2.41218E-05 1.10453E-18-1.21295E-18
 -1      2603 1.45600E-04-4.45461E-05-4.34389E-05-1.76300E-05 2.17190E-18-1.24535E-18
 -1      2604 6.27202E-05-2.94095E-05-1.38351E-05-4.99033E-05-1.66103E-18-3.83420E-18
 -1      2605 7.87469E-05-3.57384E-05-1.82377E-05-5.20033E-05-9.12254E-19-3.34832E-18
 -1      2606 2.67200E-05-1.21213E-05-5.76891E-06-3.62490E-05-1.76236E-18-5.35981E-18
 -1      2607 4.17556E-05-1.90383E-05-9.56861E-06-4.68402E-05-1.51280E-18-4.68113E-18
 -1      2608 1.39690E-05-6.59647E-06-2.70431E-06-1.13518E-05-1.32043E-18-6.10160E-18
 -1      2609 1.59885E-05-6.57442E-06-3.78074E-06-2.41613E-05-1.23487E-18-5.84664E-18
 -1      2610 2.73668E-05-1.58623E-05-4.66758E-06 1.73357E-05-6.85673E-19-5.84368E-18
 -1      2611 1.69423E-05-9.37009E-06-3.04228E-06 2.53790E-06-6.28393E-19-6.07111E-18
 -1      2612 6.29788E-05-4.06839E-05-9.55183E-06-3.57788E-05-4.57821E-19 1.85140E-18
 -1      2613 8.37124E-05-4.90004E-05-1.49764E-05-3.86799E-05-4.65021E-19 8.01081E-19
 -1      2614 6.15431E-05-3.81800E-05-9.96658E-06 5.06104E-05-2.38080E-18 3.82202E-18
 -1      2615 4.48954E-05-3.11988E-05-5.61829E-06 4.38246E-05-3.03386E-18 5.09999E-18
 -1      2616 9.52369E-05-2.85719E-05-2.85707E-05-1.67634E-09 1.84880E-18-5.84789E-19
 -1      2617 4.99343E-05 5.80728E-06-2.36990E-05-1.71261E-05-2.39240E-18-3.59753E-18
 -1      2618 5.12766E-05 7.53565E-06-2.50223E-05-1.23308E-05-2.24263E-18-3.39221E-18
 -1      2619 5.39294E-05 6.52980E-06-2.58878E-05-8.08349E-06-2.09087E-18-3.06190E-18
 -1      2620 1.15042E-04-5.49171E-05-2.48555E-05 4.22605E-05-3.61810E-18-1.17007E-18
 -1      2621 9.53858E-05-2.64494E-05-2.95156E-05 1.03334E-05 1.70225E-18 2.29300E-18
 -1      2622 9.63657E-05-2.57748E-05-3.02229E-05 1.18756E-05 1.82393E-18 1.66467E-18
 -1      2623 9.42635E-05-2.65139E-05-2.90090E-05 9.39350E-06 1.66213E-18 1.98512E-18
 -1      2624 7.69899E-05-1.34497E-05-2.72819E-05-2.59450E-05-2.61108E-18-2.43089E-18
 -1      2625 1.42203E-04-6.14939E-05-3.50517E-05 2.12829E-05 1.42291E-18-2.72723E-18
 -1      2626 1.43568E-04-1.83379E-05-5.38494E-05-6.00902E-06 4.01642E-18-2.54406E-18
 -1      2627 9.52369E-05-2.85720E-05-2.85707E-05-2.04997E-09 1.84988E-18-2.17922E-18
 -1      2628 2.38252E-05-1.19913E-05-4.45361E-06 1.21786E-05-1.49046E-18 6.17932E-18
 -1      2629 4.33526E-05-2.40735E-05-7.77300E-06 3.84940E-05-3.61016E-18 5.68274E-18
 -1      2630 1.49039E-04-4.20918E-05-4.56336E-05 2.44291E-06 2.10879E-18-3.49401E-18
 -1      2631 9.31977E-05-2.64697E-05-2.85561E-05 8.35005E-06 1.59733E-18 1.52508E-18
 -1      2632 9.40137E-05-2.66061E-05-2.88474E-05 8.99183E-06 1.61405E-18 1.86738E-18
 -1      2633 9.54715E-05-2.65480E-05-2.95576E-05 1.02183E-05 1.64229E-18 1.30119E-18
 -1      2634 9.50271E-05-2.64722E-05-2.94016E-05 9.31189E-06 1.62087E-18 1.10160E-18
 -1      2635 5.93459E-05 3.70891E-06-2.70071E-05-1.81447E-06-1.68747E-18-2.63305E-18
 -1      2636 6.86719E-05-9.61936E-07-2.89494E-05 1.58003E-06-1.52714E-18-1.88804E-18
 -1      2637 7.04964E-05-4.49846E-06-2.80349E-05 6.51862E-06-1.10915E-18-1.86705E-18
 -1      2638 5.41145E-05 4.60878E-06-2.49344E-05-4.13792E-06-1.71300E-18-3.09029E-18
 -1      2639 6.21317E-05-3.35670E-05-1.17729E-05-3.45437E-05 1.32031E-18 1.55833E-18
 -1      2640 9.51988E-05-4.17480E-05-2.27990E-05-4.60934E-05-1.72562E-18-2.40752E-18
 -1      2641 1.22049E-04-4.89950E-05-3.09744E-05-3.19488E-05-9.03996E-19-9.06113E-19
 -1      2642 1.30001E-04-4.99553E-05-3.43437E-05-2.85932E-05 1.70148E-19-1.20914E-18
 -1      2643 1.34964E-04-4.93861E-05-3.68688E-05-1.72309E-05-3.59949E-19-3.24308E-19
 -1      2644 7.93175E-05-4.36678E-05-1.48886E-05 4.91933E-05-3.16833E-18 2.04887E-18
 -1      2645 4.27987E-05-1.73737E-05-1.03602E-05 2.20080E-05 1.48654E-19-5.07225E-18
 -1      2646 2.19057E-05-3.86707E-06-7.10390E-06-3.47199E-06-9.79276E-19-5.99043E-18
 -1      2647 2.74560E-05-6.10891E-06-8.49708E-06-3.07959E-05-1.96268E-18-5.47077E-18
 -1      2648 1.47550E-04-2.60772E-05-5.21485E-05 5.73453E-06 3.64637E-18-6.77626E-21
 -1      2649 5.73757E-05-2.27016E-05-1.43281E-05-4.76565E-05-2.37932E-18-4.06269E-18
 -1      2650 1.40097E-04-6.24302E-06-5.76740E-05-1.22727E-06 4.94900E-18-1.78454E-18
 -1      2651 1.45446E-04-4.23679E-05-4.42214E-05-5.17645E-06 1.68901E-18-1.30231E-19
 -1      2652 3.20616E-05-1.71267E-05-5.84973E-06-1.73742E-05 1.64430E-19 3.04508E-18
 -1      2653 9.88593E-05-5.13513E-05-1.99731E-05-3.52304E-05 1.21994E-18-7.42266E-19
 -1      2654 1.03626E-04-5.71702E-05-1.99815E-05-3.38595E-05-1.28961E-19 6.09864E-20
 -1      2655 8.36177E-05-4.21131E-05-1.75347E-05 3.30407E-05 6.94144E-19-3.24329E-18
 -1      2656 7.87277E-05-3.32256E-05-1.87903E-05 3.15047E-05 1.15408E-18-2.68700E-18
 -1      2657 1.27379E-04-6.39497E-05-2.73080E-05-2.65083E-05 1.67501E-19-8.23263E-19
 -1      2658 9.52369E-05-2.85718E-05-2.85708E-05 1.38882E-09 1.72665E-18-7.39387E-19
 -1      2659 9.52371E-05-2.85720E-05-2.85707E-05 1.53417E-09 1.15753E-18-2.06852E-18
 -1      2660 9.52371E-05-2.85721E-05-2.85707E-05 1.90918E-09 1.56255E-18-8.55150E-19
 -1      2661 9.52368E-05-2.85717E-05-2.85707E-05 1.55937E-09 1.08173E-18-7.17661E-19
 -1      2662 1.16067E-04-5.83000E-05-2.48554E-05 2.92916E-05 6.31463E-19-1.93417E-18
 -1      2663 8.86533E-05-4.82332E-05-1.72784E-05 3.35982E-05 3.06626E-19-3.31529E-18
 -1      2664 1.26222E-04-5.97745E-05-2.80727E-05-2.48512E-05 1.51598E-18-1.82160E-18
 -1      2665 1.38854E-04-6.72237E-05-3.08015E-05-1.92407E-05 4.20340E-19-9.13313E-19
 -1      2666 1.08319E-04-2.88587E-05-3.41656E-05 3.02681E-06-3.18900E-19-8.92144E-19
 -1      2667 1.08195E-04-2.93605E-05-3.37291E-05-6.18305E-07-7.74651E-19-8.59250E-19
 -1      2668 1.07413E-04-3.04180E-05-3.30786E-05-5.72138E-06-1.14120E-18-1.05915E-18
 -1      2669 1.04906E-04-2.96141E-05-3.21679E-05-1.05030E-05-1.62360E-18-1.09014E-18
 -1      2670 1.11508E-04-3.29850E-05-3.36198E-05-2.17911E-06-8.72704E-19-5.84916E-19
 -1      2671 1.03694E-04-2.47064E-05-3.39487E-05 1.23708E-05 1.10900E-18-4.29777E-19
 -1      2672 1.05088E-04-2.53885E-05-3.41697E-05 1.07392E-05 6.88972E-19-5.62298E-19
 -1      2673 1.00915E-04-2.40180E-05-3.30547E-05 1.41498E-05 1.62437E-18-2.03404E-19
 -1      2674 1.02263E-04-2.41653E-05-3.34882E-05 1.32686E-05 1.29414E-18-3.61054E-19
 -1      2675 1.04162E-04-2.59337E-05-3.34608E-05 1.29153E-05 1.16053E-18-9.40719E-20
 -1      2676 9.75474E-05-2.55739E-05-3.08465E-05 1.28373E-05 1.84467E-18 1.28686E-18
 -1      2677 9.79936E-05-2.47122E-05-3.14483E-05 1.38075E-05 1.90495E-18 8.68196E-19
 -1      2678 9.69238E-05-2.60373E-05-3.03499E-05 1.17047E-05 1.74451E-18 1.11446E-18
 -1      2679 1.25093E-04-5.59556E-05-2.90248E-05 2.28621E-05 1.65966E-18 3.34393E-19
 -1      2680 9.52392E-05-2.85745E-05-2.85706E-05-2.26133E-10-9.56988E-20 2.84830E-18
 -1      2681 9.52392E-05-2.85745E-05-2.85706E-05-6.20060E-10 3.62059E-19 2.43990E-18
 -1      2682 9.52382E-05-2.85735E-05-2.85706E-05-2.22707E-09 9.89004E-19-1.12257E-18
 -1      2683 9.52380E-05-2.85732E-05-2.85706E-05-2.34033E-09 7.05774E-19-3.22382E-18
 -1      2684 9.79713E-05-3.41842E-05-2.70469E-05-2.93035E-05 2.37169E-18-1.23238E-18
 -1      2685 9.30986E-05-2.78742E-05-2.77701E-05-2.81150E-05 1.93920E-18-1.12497E-18
 -1      2686 9.36645E-05-2.49821E-05-2.92825E-05-2.49664E-05 1.54435E-18-1.26167E-18
 -1      2687 9.18760E-05-2.26860E-05-2.96316E-05-2.27778E-05 1.36930E-18-9.92822E-19
 -1      2688 8.09006E-05-2.15645E-05-2.53568E-05-2.68883E-05 1.73303E-18-6.51315E-19
 -1      2689 9.36662E-05-2.26247E-05-3.03730E-05-2.00683E-05 9.54646E-19-1.48490E-18
 -1      2690 9.30207E-05-2.22579E-05-3.03696E-05-1.78569E-05 4.75098E-19-1.47902E-18
 -1      2691 8.39096E-05-1.85683E-05-2.78863E-05-2.07889E-05 9.72142E-19-9.91363E-19
 -1      2692 9.47713E-05-2.30637E-05-3.06820E-05-1.54809E-05 2.71325E-19-1.99823E-18
 -1      2693 9.44445E-05-2.33908E-05-3.04971E-05-1.33876E-05 8.74214E-20-1.56858E-18
 -1      2694 8.76154E-05-1.93213E-05-2.91635E-05-1.59988E-05 1.65882E-19-1.23282E-18
 -1      2695 9.57362E-05-2.43645E-05-3.05503E-05-1.15201E-05 1.97230E-19-1.79331E-18
 -1      2696 9.54566E-05-2.48178E-05-3.03070E-05-9.81867E-06 1.78133E-19-1.31767E-18
 -1      2697 9.07617E-05-2.13608E-05-2.96693E-05-1.20879E-05 1.46577E-19-1.39776E-18
 -1      2698 9.62769E-05-2.56357E-05-3.02427E-05-8.38260E-06 2.81612E-19-1.18515E-18
 -1      2699 9.59885E-05-2.60206E-05-3.00083E-05-7.08652E-06 5.41706E-19-1.45388E-18
 -1      2700 9.29137E-05-2.33886E-05-2.97476E-05-8.99873E-06 4.79195E-19-1.43040E-18
 -1      2701 9.64583E-05-2.66212E-05-2.99036E-05-6.00873E-06 1.86938E-19-1.78162E-18
 -1      2702 9.61768E-05-2.68995E-05-2.97044E-05-5.05932E-06-1.46404E-19-1.91111E-18
 -1      2703 9.42350E-05-2.50132E-05-2.96362E-05-6.60764E-06 5.45641E-20-1.27099E-18
 -1      2704 9.64182E-05-2.73111E-05-2.95963E-05-4.26640E-06 4.53942E-19-1.73001E-18
 -1      2705 9.61644E-05-2.74971E-05-2.94376E-05-3.58706E-06 4.13532E-19-1.19128E-18
 -1      2706 9.49737E-05-2.61924E-05-2.94602E-05-4.79925E-06 1.33627E-19-1.25354E-18
 -1      2707 9.62694E-05-2.77683E-05-2.93417E-05-3.01198E-06 7.06037E-19-1.15183E-18
 -1      2708 9.60543E-05-2.78871E-05-2.92199E-05-2.53222E-06 9.07231E-19-5.72955E-19
 -1      2709 9.53440E-05-2.70035E-05-2.92794E-05-3.45797E-06 5.55703E-19-7.69096E-19
 -1      2710 9.60842E-05-2.80616E-05-2.91407E-05-2.11888E-06-5.58607E-20-4.77420E-20
 -1      2711 9.59098E-05-2.81355E-05-2.90493E-05-1.78219E-06 4.68577E-20-4.29410E-20
 -1      2712 9.54986E-05-2.75442E-05-2.91187E-05-2.47705E-06 2.18154E-19 3.92400E-19
 -1      2713 9.59019E-05-2.82462E-05-2.89866E-05-1.48655E-06 3.34078E-19-5.76050E-19
 -1      2714 9.57651E-05-2.82915E-05-2.89191E-05-1.25072E-06 8.07295E-20-1.73326E-19
 -1      2715 9.55361E-05-2.78983E-05-2.89858E-05-1.76612E-06-1.76937E-19 1.59253E-19
 -1      2716 9.57410E-05-2.83613E-05-2.88707E-05-1.03970E-06 5.06836E-19-4.55231E-19
 -1      2717 9.56363E-05-2.83888E-05-2.88214E-05-8.74417E-07 1.02724E-18-3.74194E-19
 -1      2718 9.55160E-05-2.81279E-05-2.88802E-05-1.25353E-06-2.00601E-19-8.26065E-19
 -1      2719 9.56076E-05-2.84328E-05-2.87847E-05-7.23877E-07 8.41759E-19-9.21773E-19
 -1      2720 9.55290E-05-2.84497E-05-2.87489E-05-6.07838E-07 8.54179E-19-6.32500E-19
 -1      2721 9.54722E-05-2.82766E-05-2.87984E-05-8.84919E-07 6.67086E-19-2.60303E-19
 -1      2722 9.55017E-05-2.84775E-05-2.87214E-05-5.00451E-07 9.94725E-19-1.67112E-18
 -1      2723 9.54438E-05-2.84880E-05-2.86956E-05-4.18863E-07 1.86408E-19-1.57022E-18
 -1      2724 9.54227E-05-2.83731E-05-2.87361E-05-6.20204E-07 2.84159E-19-1.19909E-18
 -1      2725 9.54203E-05-2.85058E-05-2.86753E-05-3.42311E-07-4.82129E-19-1.39628E-18
 -1      2726 9.53783E-05-2.85127E-05-2.86568E-05-2.84929E-07-3.75152E-19-1.94958E-18
 -1      2727 9.53766E-05-2.84363E-05-2.86893E-05-4.30325E-07-6.49558E-20-2.36670E-18
 -1      2728 9.53593E-05-2.85243E-05-2.86419E-05-2.30478E-07 6.03710E-19-2.66233E-18
 -1      2729 9.53295E-05-2.85290E-05-2.86288E-05-1.90198E-07 8.63627E-19-2.19558E-18
 -1      2730 9.53375E-05-2.84781E-05-2.86546E-05-2.94399E-07-4.39135E-19-2.49849E-18
 -1      2731 9.53148E-05-2.85367E-05-2.86180E-05-1.51641E-07 6.88737E-19-2.35654E-18
 -1      2732 9.52941E-05-2.85401E-05-2.86089E-05-1.23504E-07 9.01521E-19-1.71990E-18
 -1      2733 9.53062E-05-2.85064E-05-2.86290E-05-1.97454E-07 5.25718E-19-2.68909E-18
 -1      2734 9.52831E-05-2.85453E-05-2.86011E-05-9.64110E-08-3.00965E-19-1.57385E-18
 -1      2735 9.52691E-05-2.85479E-05-2.85948E-05-7.69325E-08-8.57525E-19-1.86987E-18
 -1      2736 9.52822E-05-2.85257E-05-2.86104E-05-1.28737E-07 5.89009E-19-1.98023E-18
 -1      2737 9.52612E-05-2.85515E-05-2.85892E-05-5.81107E-08-1.63693E-18-2.19930E-18
 -1      2738 9.52520E-05-2.85536E-05-2.85850E-05-4.48363E-08-2.88145E-18-1.60459E-18
 -1      2739 9.52646E-05-2.85392E-05-2.85969E-05-8.04861E-08-1.61245E-18-1.34758E-18
 -1      2740 9.52468E-05-2.85561E-05-2.85813E-05-3.25405E-08-2.58946E-18-1.65819E-18
 -1      2741 9.52413E-05-2.85577E-05-2.85786E-05-2.39864E-08-2.27055E-18-1.52773E-18
 -1      2742 9.52524E-05-2.85486E-05-2.85876E-05-4.76662E-08-2.47738E-18-1.62406E-18
 -1      2743 9.52376E-05-2.85596E-05-2.85760E-05-1.52209E-08-2.12987E-18-1.16321E-18
 -1      2744 9.52342E-05-2.85611E-05-2.85742E-05-9.32289E-09-1.94338E-18-8.49035E-19
 -1      2745 9.52439E-05-2.85553E-05-2.85810E-05-2.52951E-08-2.29266E-18 3.84884E-20
 -1      2746 9.52318E-05-2.85624E-05-2.85724E-05-3.68173E-09-6.32565E-19-9.38971E-19
 -1      2747 9.52301E-05-2.85636E-05-2.85713E-05-2.58760E-11 1.15728E-18 2.46914E-19
 -1      2748 9.52382E-05-2.85603E-05-2.85764E-05-9.96776E-09-9.20460E-19 1.01407E-18
 -1      2749 9.52287E-05-2.85646E-05-2.85702E-05 3.42734E-09-2.46884E-20-1.50653E-18
 -1      2750 9.52282E-05-2.85656E-05-2.85696E-05 5.53145E-09-2.30666E-19-2.27795E-18
 -1      2751 9.52348E-05-2.85639E-05-2.85733E-05-2.07636E-10-6.14407E-19-3.49410E-19
 -1      2752 9.52275E-05-2.85664E-05-2.85690E-05 7.46964E-09 1.61022E-19-3.92170E-18
 -1      2753 9.52276E-05-2.85672E-05-2.85687E-05 8.51970E-09 2.45204E-19-4.13993E-18
 -1      2754 9.52329E-05-2.85665E-05-2.85714E-05 5.64245E-09-1.50655E-18-2.97371E-18
 -1      2755 9.52273E-05-2.85677E-05-2.85684E-05 9.43351E-09 4.31611E-19-3.50351E-18
 -1      2756 9.52279E-05-2.85684E-05-2.85684E-05 9.78910E-09 5.63702E-19-2.16152E-18
 -1      2757 9.52320E-05-2.85684E-05-2.85702E-05 8.80070E-09 9.26111E-19-2.31099E-18
 -1      2758 9.52279E-05-2.85687E-05-2.85682E-05 1.00335E-08 1.53270E-18-1.00253E-18
 -1      2759 9.52287E-05-2.85693E-05-2.85683E-05 9.95149E-09 1.57054E-18 1.75909E-19
 -1      2760 9.52318E-05-2.85696E-05-2.85696E-05 1.01549E-08 1.48590E-18 5.34894E-19
 -1      2761 9.52289E-05-2.85695E-05-2.85683E-05 9.77985E-09 8.40709E-19 1.71345E-18
 -1      2762 9.52297E-05-2.85699E-05-2.85685E-05 9.44099E-09 1.05260E-18 1.69178E-18
 -1      2763 9.52321E-05-2.85705E-05-2.85693E-05 1.03456E-08 1.73806E-18 1.01168E-18
 -1      2764 9.52300E-05-2.85701E-05-2.85685E-05 9.03097E-09 5.28732E-19 1.04239E-18
 -1      2765 9.52308E-05-2.85704E-05-2.85688E-05 8.55944E-09 1.48562E-18 8.37974E-19
 -1      2766 9.52326E-05-2.85711E-05-2.85692E-05 9.82793E-09 7.10008E-19 9.79143E-19
 -1      2767 9.52312E-05-2.85705E-05-2.85689E-05 8.03230E-09 2.47139E-18 2.29802E-19
 -1      2768 9.52319E-05-2.85708E-05-2.85691E-05 7.51063E-09 1.89402E-18-4.72382E-20
 -1      2769 9.52332E-05-2.85714E-05-2.85693E-05 8.91841E-09 1.31380E-18 1.65235E-19
 -1      2770 9.52323E-05-2.85708E-05-2.85692E-05 6.94603E-09 7.69361E-19 4.78634E-19
 -1      2771 9.52330E-05-2.85710E-05-2.85694E-05 6.42615E-09-1.53166E-18-1.17569E-18
 -1      2772 9.52339E-05-2.85716E-05-2.85695E-05 7.83081E-09 1.64636E-18-1.67811E-18
 -1      2773 9.52333E-05-2.85710E-05-2.85695E-05 5.87325E-09-2.65928E-18 1.83784E-19
 -1      2774 9.52339E-05-2.85712E-05-2.85697E-05 5.38476E-09-2.33600E-18-4.73756E-19
 -1      2775 9.52345E-05-2.85717E-05-2.85697E-05 6.70298E-09-1.84286E-18-8.53974E-19
 -1      2776 9.52342E-05-2.85712E-05-2.85699E-05 4.87053E-09-6.17945E-19 3.78431E-19
 -1      2777 9.52347E-05-2.85713E-05-2.85700E-05 4.42676E-09 1.83554E-18 1.68927E-18
 -1      2778 9.52350E-05-2.85718E-05-2.85700E-05 5.61730E-09-1.16622E-18 1.28252E-18
 -1      2779 9.52349E-05-2.85713E-05-2.85701E-05 3.96232E-09 9.13207E-19 1.38236E-18
 -1      2780 9.52354E-05-2.85714E-05-2.85703E-05 3.56468E-09-6.18241E-19 1.20584E-18
 -1      2781 9.52356E-05-2.85718E-05-2.85702E-05 4.61598E-09 8.21566E-19 2.17353E-18
 -1      2782 9.52356E-05-2.85714E-05-2.85704E-05 3.14933E-09 2.24582E-21 6.64047E-19
 -1      2783 9.52359E-05-2.85715E-05-2.85705E-05 2.78954E-09 3.92908E-19 1.92098E-18
 -1      2784 9.52360E-05-2.85718E-05-2.85704E-05 3.71436E-09 5.64860E-20 1.71454E-18
 -1      2785 9.52361E-05-2.85715E-05-2.85706E-05 2.41788E-09-2.66447E-20 1.41280E-18
 -1      2786 9.52364E-05-2.85716E-05-2.85706E-05 2.08972E-09-1.29736E-19 8.11696E-19
 -1      2787 9.52364E-05-2.85718E-05-2.85705E-05 2.90238E-09-4.93272E-19 1.00472E-18
 -1      2788 9.38189E-05-2.40611E-05-2.98615E-05 4.94194E-06 1.41420E-18 4.86579E-19
 -1      2789 9.46715E-05-2.47253E-05-2.99773E-05 6.54254E-06 1.43150E-18 6.17630E-19
 -1      2790 9.26382E-05-2.32022E-05-2.97337E-05 1.11678E-06 1.12865E-18 2.80517E-19
 -1      2791 9.30624E-05-2.34964E-05-2.98048E-05 2.96308E-06 1.24358E-18 4.06090E-19
 -1      2792 9.56150E-05-2.33695E-05-3.09870E-05 4.63910E-06 1.44017E-18 2.02689E-19
 -1      2793 9.56725E-05-2.54529E-05-3.00653E-05 8.03995E-06 1.30041E-18 7.32636E-19
 -1      2794 9.67436E-05-2.60916E-05-3.02749E-05 9.31045E-06 1.32692E-18 8.23126E-19
 -1      2795 9.74078E-05-2.48705E-05-3.10951E-05 8.27132E-06 1.43395E-18 3.60653E-19
 -1      2796 9.34274E-05-2.48201E-05-2.94186E-05-6.16175E-06 8.68105E-19-3.62157E-19
 -1      2797 9.28811E-05-2.40233E-05-2.94745E-05-4.75718E-06 1.13904E-18-1.30916E-19
 -1      2798 9.49823E-05-2.69081E-05-2.92023E-05-8.19374E-06 2.77569E-19-5.86124E-19
 -1      2799 9.41708E-05-2.58241E-05-2.92554E-05-7.41619E-06 5.94756E-19-3.09286E-19
 -1      2800 9.59747E-05-2.52937E-05-3.03030E-05-7.32587E-06 7.66669E-19-2.84136E-19
 -1      2801 9.66616E-05-2.91090E-05-2.89788E-05-8.69988E-06 2.01104E-19-5.99206E-19
 -1      2802 9.58153E-05-2.80360E-05-2.90209E-05-8.61590E-06 1.18419E-19-8.05210E-19
 -1      2803 9.76133E-05-2.78664E-05-2.98878E-05-9.04412E-06 3.33705E-19-7.15630E-19
 -1      2804 9.79430E-05-3.07966E-05-2.87938E-05-7.82586E-06 1.79631E-19-2.66523E-19
 -1      2805 9.72855E-05-3.00280E-05-2.88134E-05-8.32463E-06 3.09150E-19-5.97239E-19
 -1      2806 9.91253E-05-3.03297E-05-2.94633E-05-9.03833E-06 3.92952E-20-6.91192E-19
 -1      2807 9.84517E-05-3.15452E-05-2.86834E-05-5.98026E-06-3.68856E-20 2.02775E-19
 -1      2808 9.81438E-05-3.12457E-05-2.86778E-05-6.91923E-06 1.58289E-20-4.42662E-20
 -1      2809 9.99771E-05-3.20131E-05-2.91129E-05-7.62156E-06-1.16717E-19-2.52939E-19
 -1      2810 9.84517E-05-3.15986E-05-2.86459E-05-4.23309E-06 1.36851E-19-6.21959E-20
 -1      2811 9.82835E-05-3.15446E-05-2.86186E-05-5.02438E-06 1.30593E-19 1.64049E-20
 -1      2812 9.98682E-05-3.24440E-05-2.88870E-05-5.52763E-06 1.45905E-19-1.93448E-19
 -1      2813 9.81520E-05-3.12818E-05-2.86490E-05-2.66588E-06-1.79406E-19-2.35318E-19
 -1      2814 9.81435E-05-3.14169E-05-2.86158E-05-3.38201E-06 2.23180E-19-2.91564E-19
 -1      2815 9.94221E-05-3.23156E-05-2.87578E-05-3.70835E-06 2.85034E-19-4.20347E-19
 -1      2816 9.76839E-05-3.07562E-05-2.86726E-05-1.40445E-06-5.99940E-19 1.36940E-21
 -1      2817 9.77710E-05-3.09808E-05-2.86415E-05-1.97799E-06-6.90119E-19-2.37811E-19
 -1      2818 9.87179E-05-3.17613E-05-2.86983E-05-2.14689E-06-4.25337E-19-3.02904E-19
 -1      2819 9.71797E-05-3.01892E-05-2.87005E-05-4.90459E-07-5.66592E-19 7.89897E-19
 -1      2820 9.73109E-05-3.04308E-05-2.86766E-05-9.05524E-07-4.70437E-19 3.43937E-19
 -1      2821 9.79531E-05-3.10392E-05-2.86823E-05-9.57169E-07-9.46023E-19-1.12481E-19
 -1      2822 9.67170E-05-2.96799E-05-2.87224E-05 1.07270E-07-4.82283E-19 1.00870E-18
 -1      2823 9.68582E-05-2.98966E-05-2.87077E-05-1.64122E-07-4.79418E-19 9.16868E-19
 -1      2824 9.72520E-05-3.03272E-05-2.86874E-05-1.39096E-07-5.28149E-19 5.12817E-19
 -1      2825 9.63302E-05-2.92715E-05-2.87337E-05 4.51757E-07-5.83691E-19 1.31064E-18
 -1      2826 9.64622E-05-2.94453E-05-2.87281E-05 2.95536E-07-5.05623E-19 1.42871E-18
 -1      2827 9.66724E-05-2.97209E-05-2.86983E-05 3.64642E-07-6.58387E-19 8.29716E-19
 -1      2828 9.60258E-05-2.89706E-05-2.87340E-05 6.11921E-07-4.04489E-20 1.13427E-18
 -1      2829 9.61401E-05-2.90990E-05-2.87357E-05 5.39696E-07-4.50745E-19 1.25901E-18
 -1      2830 9.62261E-05-2.92538E-05-2.87063E-05 6.29729E-07-5.02683E-19 1.23888E-18
 -1      2831 9.57959E-05-2.87648E-05-2.87252E-05 6.49136E-07-1.29619E-19 9.61553E-19
 -1      2832 9.58903E-05-2.88531E-05-2.87321E-05 6.33003E-07 3.88139E-19 1.35415E-18
 -1      2833 9.59002E-05-2.89222E-05-2.87078E-05 7.28826E-07-1.35656E-19 1.61666E-18
 -1      2834 9.56272E-05-2.86341E-05-2.87100E-05 6.12042E-07-7.26221E-19 1.55341E-18
 -1      2835 9.57028E-05-2.86907E-05-2.87200E-05 6.29778E-07-4.71630E-19 1.07971E-18
 -1      2836 9.56718E-05-2.87041E-05-2.87026E-05 7.22197E-07-5.21129E-19 9.78336E-19
 -1      2837 9.55060E-05-2.85581E-05-2.86912E-05 5.36038E-07-4.36238E-19 1.81966E-18
 -1      2838 9.55650E-05-2.85916E-05-2.87026E-05 5.71416E-07-6.44266E-19 1.57750E-18
 -1      2839 9.55168E-05-2.85727E-05-2.86919E-05 6.55342E-07-6.22535E-19 4.05407E-19
 -1      2840 9.54200E-05-2.85195E-05-2.86714E-05 4.45016E-07 7.02834E-19 5.70345E-19
 -1      2841 9.54653E-05-2.85371E-05-2.86828E-05 4.87073E-07 5.41266E-19 1.42797E-18
 -1      2842 9.54144E-05-2.85023E-05-2.86777E-05 5.60123E-07 4.01529E-19 1.26411E-19
 -1      2843 9.53595E-05-2.85046E-05-2.86521E-05 3.53849E-07 7.77274E-19-1.44861E-19
 -1      2844 9.53938E-05-2.85119E-05-2.86627E-05 3.95771E-07 4.58688E-19 9.22669E-20
 -1      2845 9.53480E-05-2.84721E-05-2.86619E-05 4.57290E-07 1.30173E-18-2.80910E-19
 -1      2846 9.53174E-05-2.85036E-05-2.86346E-05 2.70854E-07 5.15902E-19-1.07226E-19
 -1      2847 9.53429E-05-2.85049E-05-2.86439E-05 3.08852E-07 6.70094E-19 6.01116E-20
 -1      2848 9.53057E-05-2.84664E-05-2.86460E-05 3.59240E-07 5.20563E-19-2.31003E-19
 -1      2849 9.52882E-05-2.85100E-05-2.86194E-05 1.99895E-07 1.69763E-19-1.15283E-19
 -1      2850 9.53069E-05-2.85080E-05-2.86272E-05 2.32235E-07 4.30772E-19 8.26065E-21
 -1      2851 9.52789E-05-2.84741E-05-2.86311E-05 2.72489E-07 5.80219E-19-4.82758E-19
 -1      2852 9.52682E-05-2.85196E-05-2.86067E-05 1.42003E-07-2.36564E-19-4.40657E-19
 -1      2853 9.52816E-05-2.85160E-05-2.86131E-05 1.68257E-07-3.14034E-20-7.15619E-19
 -1      2854 9.52622E-05-2.84881E-05-2.86178E-05 1.99663E-07 3.82541E-19-1.10470E-18
 -1      2855 9.52546E-05-2.85298E-05-2.85965E-05 9.65603E-08-1.46977E-18-1.04802E-18
 -1      2856 9.52640E-05-2.85258E-05-2.86014E-05 1.17052E-07-1.00841E-18-9.76114E-19
 -1      2857 9.52518E-05-2.85040E-05-2.86065E-05 1.40987E-07-1.72993E-19-2.73218E-18
 -1      2858 9.52455E-05-2.85393E-05-2.85885E-05 6.21001E-08-1.08384E-18-3.17758E-19
 -1      2859 9.52519E-05-2.85355E-05-2.85923E-05 7.75374E-08-1.28214E-18-9.08595E-19
 -1      2860 9.52452E-05-2.85191E-05-2.85971E-05 9.53372E-08-1.41454E-18-2.34626E-18
 -1      2861 9.52396E-05-2.85475E-05-2.85824E-05 3.68298E-08-6.13224E-19-1.10225E-19
 -1      2862 9.52438E-05-2.85441E-05-2.85852E-05 4.80609E-08-7.62162E-19-3.19828E-19
 -1      2863 9.52412E-05-2.85325E-05-2.85896E-05 6.09504E-08-9.88341E-19-2.02203E-18
 -1      2864 9.52359E-05-2.85542E-05-2.85779E-05 1.89417E-08 1.14647E-18 4.26559E-19
 -1      2865 9.52385E-05-2.85514E-05-2.85799E-05 2.68133E-08 9.34042E-19 1.87869E-19
 -1      2866 9.52387E-05-2.85434E-05-2.85838E-05 3.58649E-08 2.18168E-19-1.03070E-18
 -1      2867 9.52338E-05-2.85595E-05-2.85747E-05 6.78256E-09 9.82742E-19-2.08138E-19
 -1      2868 9.52353E-05-2.85572E-05-2.85761E-05 1.20634E-08 6.46528E-19-4.23833E-19
 -1      2869 9.52372E-05-2.85521E-05-2.85794E-05 1.81848E-08 1.17335E-18-5.59741E-19
 -1      2870 9.52327E-05-2.85635E-05-2.85726E-05-1.06830E-09 4.25772E-19 2.06801E-19
 -1      2871 9.52334E-05-2.85617E-05-2.85734E-05 2.27794E-09 1.06847E-18 4.28625E-19
 -1      2872 9.52363E-05-2.85587E-05-2.85762E-05 6.21566E-09 4.71651E-19-3.88629E-19
 -1      2873 9.52324E-05-2.85664E-05-2.85711E-05-5.77853E-09 7.83520E-19-3.22378E-20
 -1      2874 9.52325E-05-2.85651E-05-2.85717E-05-3.83091E-09 1.12876E-18 1.48896E-19
 -1      2875 9.52358E-05-2.85636E-05-2.85739E-05-1.47865E-09 9.12058E-19 1.37834E-19
 -1      2876 9.52324E-05-2.85685E-05-2.85703E-05-8.27410E-09-1.31363E-19-1.33902E-20
 -1      2877 9.52323E-05-2.85675E-05-2.85706E-05-7.30277E-09-8.77702E-20 1.28926E-19
 -1      2878 9.52356E-05-2.85670E-05-2.85723E-05-6.06792E-09 3.46454E-19 3.90391E-19
 -1      2879 9.52328E-05-2.85699E-05-2.85698E-05-9.26700E-09 1.43452E-18-1.11292E-18
 -1      2880 9.52324E-05-2.85692E-05-2.85699E-05-8.94942E-09 1.07817E-18-3.07086E-19
 -1      2881 9.52355E-05-2.85694E-05-2.85712E-05-8.47430E-09 3.76332E-19 6.73947E-19
 -1      2882 9.52333E-05-2.85708E-05-2.85696E-05-9.28906E-09 7.18442E-19-1.39647E-18
 -1      2883 9.52328E-05-2.85703E-05-2.85696E-05-9.38614E-09 7.63642E-19-1.63591E-18
 -1      2884 9.52356E-05-2.85709E-05-2.85706E-05-9.40383E-09 1.04589E-18-1.04061E-19
 -1      2885 9.52338E-05-2.85714E-05-2.85696E-05-8.72586E-09-1.58987E-19-5.05837E-19
 -1      2886 9.52333E-05-2.85711E-05-2.85695E-05-9.06579E-09 1.27975E-19-1.32409E-18
 -1      2887 9.52357E-05-2.85718E-05-2.85703E-05-9.38223E-09-2.13634E-19-5.78667E-19
 -1      2888 9.52344E-05-2.85717E-05-2.85697E-05-7.84780E-09 7.58412E-19 2.53624E-19
 -1      2889 9.52339E-05-2.85715E-05-2.85696E-05-8.31147E-09 4.58154E-19 3.79362E-20
 -1      2890 9.52359E-05-2.85723E-05-2.85701E-05-8.78966E-09 6.96209E-20-8.06794E-20
 -1      2891 9.52349E-05-2.85719E-05-2.85698E-05-6.83675E-09 1.21781E-18-3.02786E-19
 -1      2892 9.52344E-05-2.85718E-05-2.85697E-05-7.34534E-09 1.03222E-18 1.00003E-19
 -1      2893 9.52361E-05-2.85726E-05-2.85701E-05-7.89205E-09 9.37341E-19 8.47455E-19
 -1      2894 9.52354E-05-2.85720E-05-2.85700E-05-5.80785E-09 1.30817E-18-1.07791E-18
 -1      2895 9.52350E-05-2.85719E-05-2.85699E-05-6.31278E-09 1.37974E-18-1.04208E-18
 -1      2896 9.52363E-05-2.85726E-05-2.85701E-05-6.86775E-09 1.27483E-18 6.22100E-19
 -1      2897 9.52358E-05-2.85720E-05-2.85702E-05-4.82701E-09 3.30536E-19-3.36382E-19
 -1      2898 9.52354E-05-2.85719E-05-2.85701E-05-5.30189E-09 3.95164E-19-4.75940E-20
 -1      2899 9.52364E-05-2.85726E-05-2.85702E-05-5.82925E-09-8.12194E-20-9.03795E-20
 -1      2900 9.52362E-05-2.85720E-05-2.85704E-05-3.92439E-09-1.52521E-18-9.41678E-19
 -1      2901 9.52359E-05-2.85719E-05-2.85703E-05-4.35871E-09 1.38560E-19-2.84128E-19
 -1      2902 9.52366E-05-2.85725E-05-2.85703E-05-4.84053E-09-1.01451E-19 4.89344E-19
 -1      2903 9.52365E-05-2.85720E-05-2.85705E-05-3.10511E-09 5.10646E-19-1.80654E-18
 -1      2904 9.52362E-05-2.85719E-05-2.85704E-05-3.50026E-09-1.04055E-18-1.81227E-18
 -1      2905 9.52368E-05-2.85724E-05-2.85705E-05-3.93095E-09-4.31225E-19-1.57603E-18
 -1      2906 9.52368E-05-2.85720E-05-2.85706E-05-2.38018E-09 2.38797E-18-2.59134E-18
 -1      2907 9.52366E-05-2.85720E-05-2.85706E-05-2.74409E-09 1.39420E-18-2.19034E-18
 -1      2908 9.52370E-05-2.85723E-05-2.85706E-05-3.12302E-09 7.60306E-19-3.30071E-18
 -1      2909 9.52371E-05-2.85723E-05-2.85706E-05-2.40008E-09 1.07434E-18-3.76794E-18
 -1      2910 5.87451E-05-2.60984E-05-1.33833E-05-3.21867E-05 2.00821E-18 1.33302E-18
 -1      2911 7.58512E-05-3.61863E-05-1.66529E-05-3.68868E-05 1.71990E-18-4.67986E-20
 -1      2912 9.52391E-05-2.85743E-05-2.85706E-05-1.05351E-09 1.99239E-20 1.89842E-18
 -1      2913 9.52389E-05-2.85742E-05-2.85706E-05-1.39815E-09 1.18511E-19 2.46078E-18
 -1      2914 9.52394E-05-2.85746E-05-2.85706E-05-9.31332E-10 1.17558E-18 2.00893E-18
 -1      2915 6.95914E-05-7.93729E-06-2.61553E-05 1.19113E-05-4.56538E-19-2.06115E-18
 -1      2916 7.29686E-05-1.37013E-05-2.49527E-05 1.76999E-05 7.69212E-20-2.02880E-18
 -1      2917 5.79262E-05-1.46516E-06-2.40867E-05 7.89462E-06-7.41246E-19-2.80299E-18
 -1      2918 9.52377E-05-2.85729E-05-2.85706E-05-2.43884E-09 2.56598E-19-5.40087E-18
 -1      2919 9.52374E-05-2.85726E-05-2.85706E-05-2.41117E-09 8.85093E-19-4.53389E-18
 -1      2920 9.52373E-05-2.85726E-05-2.85706E-05-2.76561E-09 1.56710E-18-5.51112E-18
 -1      2921 9.52379E-05-2.85732E-05-2.85706E-05-2.68415E-09 2.10548E-18-3.52108E-18
 -1      2922 9.52387E-05-2.85740E-05-2.85706E-05-1.75019E-09 2.01124E-19 1.36983E-18
 -1      2923 9.52385E-05-2.85738E-05-2.85706E-05-2.00092E-09 9.75608E-19 7.04843E-19
 -1      2924 9.52385E-05-2.85737E-05-2.85706E-05-2.36400E-09 2.42135E-18 4.62917E-19
 -1      2925 9.52390E-05-2.85742E-05-2.85706E-05-1.75331E-09 8.21622E-19 1.71564E-18
 -1      2926 9.25155E-05-2.34443E-05-2.95976E-05-2.85205E-06 1.18420E-18-7.61136E-20
 -1      2927 9.24210E-05-2.31669E-05-2.96551E-05-1.05352E-06 1.13899E-18 1.27632E-19
 -1      2928 9.46314E-05-2.26954E-05-3.08623E-05 2.63490E-07 1.31859E-18-7.43509E-20
 -1      2929 9.48088E-05-2.33780E-05-3.06390E-05-4.03149E-06 1.28396E-18-5.51170E-19
 -1      2930 9.52392E-05-2.85745E-05-2.85706E-05 6.28929E-10-6.31348E-19 2.68889E-18
 -1      2931 9.52392E-05-2.85745E-05-2.85706E-05 2.34976E-10-2.39475E-19 2.00200E-18
 -1      2932 9.52395E-05-2.85747E-05-2.85706E-05 3.84778E-12 1.20472E-18 2.19340E-18
 -1      2933 9.52389E-05-2.85742E-05-2.85706E-05 1.39537E-09-1.04581E-18 1.64181E-18
 -1      2934 9.52391E-05-2.85744E-05-2.85706E-05 1.05590E-09-2.13203E-18 4.41336E-18
 -1      2935 9.52394E-05-2.85746E-05-2.85706E-05 9.32226E-10 6.75398E-19 2.25863E-18
 -1      2936 9.52385E-05-2.85738E-05-2.85706E-05 2.00257E-09 1.25794E-18 3.46647E-19
 -1      2937 9.52387E-05-2.85740E-05-2.85706E-05 1.75063E-09-3.92120E-19 6.19574E-19
 -1      2938 9.52390E-05-2.85742E-05-2.85706E-05 1.75175E-09-8.67864E-19 2.16599E-18
 -1      2939 9.52379E-05-2.85732E-05-2.85706E-05 2.35548E-09 1.00546E-18 6.49082E-19
 -1      2940 9.52382E-05-2.85735E-05-2.85706E-05 2.23224E-09 2.51061E-18-9.01234E-19
 -1      2941 9.52385E-05-2.85737E-05-2.85706E-05 2.36610E-09 6.73434E-19 4.75524E-19
 -1      2942 9.52373E-05-2.85725E-05-2.85706E-05 2.40112E-09-4.79352E-19-3.12379E-19
 -1      2943 9.52376E-05-2.85729E-05-2.85706E-05 2.42246E-09 1.82885E-19 1.53022E-18
 -1      2944 9.52378E-05-2.85731E-05-2.85706E-05 2.68481E-09 8.17414E-19 8.02958E-21
 -1      2945 1.33621E-04-1.39433E-05-5.19808E-05-8.48789E-06 3.67030E-18-2.76572E-18
 -1      2946 1.38751E-04-2.32326E-05-4.96653E-05-9.42328E-06 3.01734E-18-3.32990E-18
 -1      2947 8.49299E-05-2.05665E-05-2.73567E-05-2.82677E-05-2.74262E-18-2.14413E-18
 -1      2948 7.44227E-05-1.45593E-05-2.57517E-05-3.06994E-05-2.92796E-18-2.45526E-18
 -1      2949 1.42432E-04-5.75972E-05-3.59750E-05 1.44924E-05-6.49886E-19-4.78891E-18
 -1      2950 1.37611E-04-6.46038E-05-3.15412E-05 2.44938E-05 7.49624E-19-3.60413E-18
 -1      2951 1.06475E-04-2.65140E-05-3.43761E-05 8.85121E-06 4.77176E-19-8.03040E-19
 -1      2952 1.07500E-04-2.74053E-05-3.43106E-05 6.29664E-06 5.94007E-20-8.90548E-19
 -1      2953 1.10536E-04-3.02641E-05-3.43460E-05 5.87236E-06-6.58419E-20-5.23882E-19
 -1      2954 1.07569E-04-2.76200E-05-3.42017E-05 1.05565E-05 5.09786E-19-3.69883E-19
 -1      2955 9.00620E-05-3.71041E-05-2.23753E-05-4.50582E-05-2.41023E-18-2.18429E-18
 -1      2956 1.07047E-04-4.49275E-05-2.66152E-05-4.08366E-05-1.64600E-18-1.64833E-18
 -1      2957 6.30617E-05-7.13126E-06-2.35923E-05-3.12930E-05-2.98694E-18-3.10056E-18
 -1      2958 5.36462E-05-1.24443E-06-2.24786E-05-2.86636E-05-2.97150E-18-3.50560E-18
 -1      2959 6.99970E-05-1.48056E-05-2.34414E-05-3.51329E-05-2.97676E-18-2.79648E-18
 -1      2960 1.24961E-04-6.15211E-05-2.78887E-05 3.52626E-05-7.06108E-19-3.20496E-18
 -1      2961 1.09474E-04-5.55181E-05-2.27968E-05 4.01772E-05-2.40888E-18-6.89061E-19
 -1      2962 1.29523E-04-5.92124E-05-2.93044E-05 2.42934E-05-1.64155E-18-1.13569E-18
 -1      2963 5.64997E-05-2.69566E-05-1.24790E-05 4.31677E-05-3.57342E-18 4.58266E-18
 -1      2964 4.15946E-05-1.64115E-05-1.02020E-05 3.20794E-05-3.39226E-18 5.85384E-18
 -1      2965 2.95305E-05-1.11871E-06-1.13270E-05 4.27693E-06-8.44492E-19-5.41656E-18
 -1      2966 2.43761E-05 1.90598E-06-1.08692E-05-1.04800E-05-1.31896E-18-5.42609E-18
 -1      2967 1.00825E-04-4.59141E-05-2.36275E-05 3.06700E-05 1.60576E-18-1.39845E-18
 -1      2968 3.11657E-05-1.02663E-05-8.35205E-06-1.03610E-05 7.10211E-19 2.75307E-18
 -1      2969 4.24763E-05-1.66715E-05-1.06262E-05-2.40786E-05 1.52445E-18 1.56743E-18
 -1      2970 1.31659E-04-4.65176E-06-5.50244E-05 1.80993E-06 4.52739E-18-1.27267E-18
 -1      2971 1.30316E-04-6.36320E-06-5.37405E-05-3.34939E-06 4.22945E-18-1.91845E-18
 -1      2972 1.39363E-04-2.95510E-05-4.74727E-05 8.41566E-06 2.55656E-18 7.16484E-19
 -1      2973 1.37472E-04-2.10280E-05-5.06394E-05 1.07304E-05 3.39141E-18 4.04246E-19
 -1      2974 2.63855E-05 5.49324E-07-1.08219E-05-2.30148E-05-2.07894E-18-5.24631E-18
 -1      2975 3.51145E-05-5.09877E-06-1.25535E-05-3.61332E-05-2.41246E-18-4.77769E-18
 -1      2976 9.08768E-05-4.71566E-05-1.87762E-05 4.71987E-05-2.94990E-18 8.64450E-19
 -1      2977 7.31786E-05-3.76890E-05-1.47301E-05 4.63877E-05-3.38517E-18 2.63861E-18
 -1      2978 7.49918E-05-2.79660E-05-1.96271E-05 2.83984E-05 1.00500E-18-2.76207E-18
 -1      2979 5.75101E-05-2.21788E-05-1.45951E-05 2.83473E-05 5.17325E-19-3.86480E-18
 -1      2980 3.93669E-05-1.11774E-05-1.16797E-05 1.81494E-05 8.67150E-20-4.83126E-18
 -1      2981 1.34313E-04-1.22736E-05-5.28292E-05 1.00700E-05 4.10557E-18 3.51519E-20
 -1      2982 1.31909E-04-6.96874E-06-5.43010E-05 6.48005E-06 4.53374E-18-6.21881E-19
 -1      2983 1.38935E-04-4.31995E-05-4.13049E-05-2.94507E-06 6.80670E-19 6.25110E-19
 -1      2984 1.41402E-04-3.72202E-05-4.51916E-05 3.73583E-06 1.79560E-18 6.66086E-19
 -1      2985 1.34998E-04-3.20204E-05-4.43072E-05 9.77030E-06 1.47034E-18 1.17600E-18
 -1      2986 1.00938E-04-2.89652E-05-3.08334E-05-1.73827E-05-2.06406E-18-1.30728E-18
 -1      2987 9.44444E-05-2.57539E-05-2.94293E-05-2.23515E-05-2.45425E-18-1.55048E-18
 -1      2988 1.07723E-04-3.37870E-05-3.16436E-05-1.40270E-05-1.80265E-18-8.36644E-19
 -1      2989 7.18040E-05-1.86164E-05-2.23245E-05 2.31029E-05 5.87100E-19-2.28667E-18
 -1      2990 5.12148E-05-1.44785E-05-1.50789E-05-4.33851E-05-2.81564E-18-3.99630E-18
 -1      2991 6.89224E-05-2.49552E-05-1.86795E-05-4.73931E-05-2.75434E-18-3.06351E-18
 -1      2992 1.42027E-04-3.56930E-05-4.61199E-05-4.85518E-06 1.75717E-18-3.87856E-18
 -1      2993 1.43930E-04-4.77116E-05-4.08837E-05 2.61692E-06 8.01293E-19-4.21399E-18
 -1      2994 3.01140E-05-8.85850E-06-8.69430E-06 1.77287E-05-1.66273E-18 5.24186E-18
 -1      2995 2.80349E-05-7.98545E-06-7.90647E-06 2.02915E-06-5.18384E-19 4.27053E-18
 -1      2996 5.55281E-05-1.02326E-05-1.88547E-05 1.90788E-05 1.68560E-19-3.43292E-18
 -1      2997 9.91122E-05-2.41169E-05-3.21355E-05 1.40584E-05 1.73718E-18 3.51962E-19
 -1      2998 1.17105E-04-4.72371E-05-2.98019E-05-3.11885E-05-1.88814E-18-9.98652E-19
 -1      2999 4.47817E-05 2.26879E-06-1.97593E-05-2.55988E-05-2.68327E-18-4.07497E-18
 -1      3000 4.05652E-05 5.36951E-06-1.95088E-05-1.83690E-05-2.27639E-18-4.06936E-18
 -1      3001 9.92541E-05-2.61681E-05-3.13218E-05 1.08659E-05 1.35170E-18 5.20204E-19
 -1      3002 9.75880E-05-2.64291E-05-3.04719E-05 1.03723E-05 1.40995E-18 7.26193E-19
 -1      3003 9.52366E-05-2.85716E-05-2.85707E-05 1.72423E-09 9.09115E-19 2.49013E-19
 -1      3004 5.61959E-05-1.97486E-05-1.50824E-05-2.66633E-05 1.73758E-18 9.69641E-19
 -1      3005 1.40226E-04-5.15002E-05-3.74875E-05 5.44092E-06-6.32310E-19-4.03039E-18
 -1      3006 9.33388E-05-2.80372E-05-2.79609E-05-2.77760E-05-2.63673E-18-1.66258E-18
 -1      3007 1.35068E-04-3.01834E-05-4.51067E-05-9.02682E-06 1.63901E-18-3.72938E-18
 -1      3008 9.52369E-05-2.85721E-05-2.85706E-05 2.28122E-09 3.29855E-20-7.88451E-19
 -1      3009 9.52370E-05-2.85723E-05-2.85706E-05 2.66084E-09 1.05312E-19 1.71119E-19
 -1      3010 1.28032E-04-1.04069E-05-5.08779E-05-7.06499E-06 3.68735E-18-2.29138E-18
 -1      3011 1.24381E-04-1.48072E-05-4.72856E-05-9.35457E-06 3.01078E-18-2.58144E-18
 -1      3012 1.21015E-04-7.70080E-06-4.89284E-05-4.71881E-06 3.55584E-18-1.76649E-18
 -1      3013 1.03502E-04-5.07082E-05-2.21529E-05 4.00188E-05-2.29980E-18-1.21920E-19
 -1      3014 1.00286E-04-2.54728E-05-3.20083E-05 1.33714E-05 1.58179E-18 3.10558E-19
 -1      3015 9.76759E-05-2.65265E-05-3.04669E-05 1.09095E-05 1.55877E-18 8.27546E-19
 -1      3016 4.33566E-05-1.20754E-05-1.28073E-05 2.33979E-05-2.01308E-18 4.79431E-18
 -1      3017 1.37474E-04-4.68467E-05-3.90429E-05-7.07245E-06-9.54633E-20 3.47178E-19
 -1      3018 1.34714E-04-4.13764E-05-4.01652E-05 2.32809E-06 1.56807E-19 1.44679E-18
 -1      3019 1.32133E-04-4.73035E-05-3.62449E-05-1.16950E-05-7.56999E-19 3.89212E-19
 -1      3020 3.27298E-05 2.69760E-06-1.45846E-05-1.61273E-05-1.88211E-18-4.99337E-18
 -1      3021 4.59969E-05-2.92395E-06-1.79855E-05-3.28755E-05-2.70796E-18-4.09773E-18
 -1      3022 1.24743E-04-6.78258E-06-5.09746E-05 4.67298E-06 3.82245E-18-8.44624E-19
 -1      3023 7.03422E-05-3.13992E-05-1.62962E-05 4.11305E-05-3.65288E-18 3.33223E-18
 -1      3024 4.12958E-05-5.17903E-06-1.48346E-05 1.10761E-05-2.43654E-19-4.67287E-18
 -1      3025 9.54934E-05-3.73416E-05-2.46454E-05-3.17714E-05 2.07396E-18-7.69953E-19
 -1      3026 7.69291E-05-2.71041E-05-2.08290E-05-3.20517E-05 2.06703E-18-4.56127E-19
 -1      3027 3.77249E-05-7.82821E-06-1.21417E-05-4.69427E-06 6.22675E-19 2.63565E-18
 -1      3028 1.29151E-04-1.69918E-05-4.83639E-05 1.20907E-05 3.00919E-18 4.06152E-19
 -1      3029 4.84595E-05-8.22489E-06-1.66623E-05-3.75230E-05-2.78166E-18-4.20562E-18
 -1      3030 9.16446E-05-4.30034E-05-2.03661E-05-3.47449E-05 1.87152E-18-6.59627E-19
 -1      3031 1.08891E-04-5.10778E-05-2.46787E-05-3.20306E-05 1.58332E-18-1.27447E-18
 -1      3032 9.52367E-05-2.85719E-05-2.85707E-05 2.13722E-09 6.31807E-19 2.30178E-19
 -1      3033 1.19231E-04-5.33021E-05-2.80324E-05-2.64311E-05 1.79253E-18-1.39727E-18
 -1      3034 1.15234E-04-3.47996E-05-3.46241E-05 2.40017E-06-4.53459E-19-2.13416E-19
 -1      3035 1.15646E-04-3.61501E-05-3.40146E-05-2.43294E-06-9.77067E-19-2.80990E-19
 -1      3036 1.03560E-04-2.64984E-05-3.31069E-05 1.31724E-05 1.21479E-18 7.31252E-20
 -1      3037 1.05527E-04-2.70754E-05-3.36329E-05 1.26167E-05 9.23105E-19 9.47986E-20
 -1      3038 9.68161E-05-2.63377E-05-3.01805E-05 1.12054E-05 1.59454E-18 1.07592E-18
 -1      3039 1.11149E-04-4.31663E-05-2.87040E-05-3.08324E-05-2.31235E-18-9.04155E-19
 -1      3040 1.23141E-04-4.81699E-05-3.24181E-05-2.32767E-05-1.58501E-18-2.63004E-19
 -1      3041 4.12155E-05 6.03918E-06-1.98201E-05-6.34943E-06-1.68828E-18-4.09609E-18
 -1      3042 4.65003E-05 3.06033E-06-2.09420E-05 1.30138E-07-1.20805E-18-3.76612E-18
 -1      3043 9.52397E-05-2.85747E-05-2.85707E-05 1.25487E-09 6.66119E-19 1.59388E-18
 -1      3044 9.52398E-05-2.85748E-05-2.85707E-05 7.98739E-10 1.89222E-18 8.16569E-19
 -1      3045 1.00960E-04-2.60066E-05-3.21026E-05 1.10273E-05 1.22530E-18 5.16023E-19
 -1      3046 1.01742E-04-2.65919E-05-3.22410E-05 1.20505E-05 1.25978E-18 4.39776E-19
 -1      3047 1.18914E-04-8.31159E-06-4.77280E-05 7.28173E-06 3.44044E-18-2.21605E-19
 -1      3048 1.18345E-04-6.80425E-06-4.83150E-05 1.36622E-06 3.52800E-18-9.45486E-19
 -1      3049 5.22781E-05-1.44897E-05-1.58813E-05 2.77604E-05-2.06496E-18 4.53512E-18
 -1      3050 4.32213E-05-7.67097E-06-1.46944E-05 1.42976E-05-2.98394E-19 3.69613E-18
 -1      3051 7.70123E-05-2.56931E-05-2.15744E-05-4.26909E-05-3.03524E-18-2.76657E-18
 -1      3052 8.40764E-05-3.31600E-05-2.14300E-05-4.55849E-05-2.72480E-18-2.52728E-18
 -1      3053 9.52399E-05-2.85749E-05-2.85707E-05 2.43862E-10 2.21230E-18 1.06645E-18
 -1      3054 9.52399E-05-2.85749E-05-2.85707E-05-2.48326E-10 2.23149E-18 3.00524E-18
 -1      3055 9.52402E-05-2.85751E-05-2.85708E-05 5.64052E-10 1.79668E-18 8.75026E-19
 -1      3056 7.50250E-05-1.46789E-05-2.57647E-05-1.76610E-05 1.15427E-18-9.81367E-20
 -1      3057 7.68356E-05-1.46513E-05-2.67034E-05-1.55142E-05 4.96997E-19-3.22653E-19
 -1      3058 8.11857E-05-1.62092E-05-2.78310E-05-1.38340E-05 2.30907E-19-4.17868E-19
 -1      3059 8.31411E-05-1.72835E-05-2.83144E-05-1.20074E-05-1.33523E-19-5.84565E-19
 -1      3060 7.37461E-05-1.26199E-05-2.59505E-05-1.09831E-05 4.39736E-19 5.39719E-20
 -1      3061 8.62599E-05-1.89230E-05-2.88620E-05-1.08010E-05-1.68563E-19-6.58457E-19
 -1      3062 8.76737E-05-2.01034E-05-2.90265E-05-9.30151E-06 3.52632E-19-9.26516E-19
 -1      3063 8.09848E-05-1.59900E-05-2.77152E-05-8.88815E-06-3.26579E-20-5.21607E-19
 -1      3064 8.98163E-05-2.15321E-05-2.92662E-05-8.33816E-06 5.53149E-19-9.41726E-19
 -1      3065 9.07244E-05-2.25283E-05-2.92746E-05-7.12465E-06 5.09740E-19-1.04993E-18
 -1      3066 8.60892E-05-1.92215E-05-2.85688E-05-7.20872E-06 4.11821E-19-5.46674E-19
 -1      3067 9.21397E-05-2.36352E-05-2.93558E-05-6.33750E-06 2.75292E-19-9.67677E-19
 -1      3068 9.26716E-05-2.43865E-05-2.92979E-05-5.38341E-06-9.18977E-21-7.78942E-19
 -1      3069 8.95297E-05-2.18750E-05-2.89377E-05-5.75650E-06 2.36170E-19-5.54845E-19
 -1      3070 9.35768E-05-2.51910E-05-2.93021E-05-4.74817E-06 2.06315E-20-1.05689E-18
 -1      3071 9.38611E-05-2.57244E-05-2.92237E-05-4.01797E-06 5.86817E-19-1.05930E-18
 -1      3072 9.17720E-05-2.38883E-05-2.90569E-05-4.50760E-06 5.13865E-20-8.52431E-19
 -1      3073 9.44239E-05-2.62870E-05-2.91946E-05-3.51610E-06 8.29247E-19-6.84117E-19
 -1      3074 9.45580E-05-2.66527E-05-2.91173E-05-2.96874E-06 7.78987E-19-2.26308E-19
 -1      3075 9.31913E-05-2.53437E-05-2.90554E-05-3.46704E-06 9.11373E-19-1.04118E-18
 -1      3076 9.48989E-05-2.70369E-05-2.90771E-05-2.57992E-06 6.66513E-19-1.60100E-19
 -1      3077 9.49480E-05-2.72827E-05-2.90095E-05-2.17548E-06 2.04782E-20 3.25794E-19
 -1      3078 9.40662E-05-2.63645E-05-2.90018E-05-2.62714E-06 7.01728E-19-7.27944E-20
 -1      3079 9.51491E-05-2.75415E-05-2.89690E-05-1.87883E-06-2.80757E-19 3.82776E-19
 -1      3080 9.51538E-05-2.77049E-05-2.89133E-05-1.58271E-06-2.55433E-19 1.27009E-20
 -1      3081 9.45920E-05-2.70670E-05-2.89317E-05-1.96622E-06 1.66701E-19 2.44207E-19
 -1      3082 9.52691E-05-2.78780E-05-2.88772E-05-1.35893E-06-4.65300E-19 5.75331E-19
 -1      3083 9.52532E-05-2.79863E-05-2.88330E-05-1.14332E-06-1.42710E-19 5.01437E-19
 -1      3084 9.48997E-05-2.75453E-05-2.88620E-05-1.45586E-06-1.63736E-19-1.57033E-19
 -1      3085 9.53169E-05-2.81020E-05-2.88027E-05-9.75914E-07 9.49356E-20 1.89503E-19
 -1      3086 9.52936E-05-2.81739E-05-2.87685E-05-8.19441E-07 2.62709E-19-1.02086E-18
 -1      3087 9.50743E-05-2.78696E-05-2.87998E-05-1.06712E-06-3.20426E-19-3.51616E-19
 -1      3088 9.53271E-05-2.82514E-05-2.87438E-05-6.95017E-07 1.75475E-19-1.33819E-18
 -1      3089 9.53032E-05-2.82994E-05-2.87178E-05-5.81727E-07 2.46519E-20-1.64720E-18
 -1      3090 9.51696E-05-2.80896E-05-2.87476E-05-7.74028E-07-1.19266E-19-1.98205E-18
 -1      3091 9.53195E-05-2.83517E-05-2.86983E-05-4.89793E-07 1.35032E-19-1.84427E-18
 -1      3092 9.52981E-05-2.83842E-05-2.86787E-05-4.07973E-07-3.07745E-19-1.70782E-18
 -1      3093 9.52190E-05-2.82392E-05-2.87052E-05-5.54865E-07-1.00065E-19-1.87100E-18
 -1      3094 9.53050E-05-2.84196E-05-2.86635E-05-3.40464E-07-7.64531E-19-1.34011E-18
 -1      3095 9.52874E-05-2.84419E-05-2.86489E-05-2.81583E-07-1.18592E-19-1.82751E-18
 -1      3096 9.52423E-05-2.83418E-05-2.86716E-05-3.92201E-07-1.78417E-19-2.03570E-18
 -1      3097 9.52894E-05-2.84662E-05-2.86373E-05-2.32369E-07-1.22761E-19-1.88231E-18
 -1      3098 9.52756E-05-2.84816E-05-2.86265E-05-1.90227E-07 3.49788E-19-2.15857E-18
 -1      3099 9.52516E-05-2.84126E-05-2.86454E-05-2.72399E-07-6.99108E-19-7.86927E-19
 -1      3100 9.52752E-05-2.84984E-05-2.86177E-05-1.54677E-07 1.69636E-18-2.69767E-18
 -1      3101 9.52648E-05-2.85093E-05-2.86098E-05-1.24759E-07 4.71004E-19-2.01550E-18
 -1      3102 9.52537E-05-2.84618E-05-2.86253E-05-1.84940E-07 5.43443E-19-2.42238E-18
 -1      3103 9.52635E-05-2.85210E-05-2.86032E-05-9.93764E-08-1.26635E-18-1.60128E-18
 -1      3104 9.52559E-05-2.85287E-05-2.85976E-05-7.84076E-08-2.12660E-18-1.58459E-18
 -1      3105 9.52525E-05-2.84963E-05-2.86100E-05-1.21772E-07 3.21445E-19-2.50152E-18
 -1      3106 9.52545E-05-2.85365E-05-2.85929E-05-6.13816E-08-1.74540E-18-1.20899E-18
 -1      3107 9.52494E-05-2.85419E-05-2.85891E-05-4.74178E-08-1.72569E-18-9.88203E-19
 -1      3108 9.52501E-05-2.85202E-05-2.85987E-05-7.75889E-08-1.26895E-18-1.21120E-18
 -1      3109 9.52479E-05-2.85477E-05-2.85854E-05-3.48352E-08-2.27402E-18-5.91990E-19
 -1      3110 9.52442E-05-2.85518E-05-2.85826E-05-2.48496E-08-1.83153E-18-1.12964E-19
 -1      3111 9.52474E-05-2.85370E-05-2.85903E-05-4.65184E-08-1.52810E-18-8.55005E-19
 -1      3112 9.52430E-05-2.85558E-05-2.85800E-05-1.64212E-08-1.41480E-18 6.28111E-19
 -1      3113 9.52406E-05-2.85588E-05-2.85780E-05-9.86425E-09-5.55644E-19 9.51962E-20
 -1      3114 9.52449E-05-2.85492E-05-2.85840E-05-2.44656E-08-1.00974E-18-8.84430E-19
 -1      3115 9.52396E-05-2.85615E-05-2.85761E-05-4.40406E-09-7.27158E-19-5.06209E-19
 -1      3116 9.52382E-05-2.85637E-05-2.85749E-05-2.92115E-10-1.51691E-18-1.05096E-18
 -1      3117 9.52429E-05-2.85578E-05-2.85794E-05-9.76470E-09-9.19943E-19-7.33666E-19
 -1      3118 9.52375E-05-2.85655E-05-2.85736E-05 3.06043E-09-1.94836E-18 9.44873E-20
 -1      3119 9.52367E-05-2.85670E-05-2.85728E-05 5.46300E-09-1.02496E-18-5.91778E-19
 -1      3120 9.52412E-05-2.85637E-05-2.85762E-05-3.52828E-10-7.57420E-19-6.03889E-20
 -1      3121 9.52362E-05-2.85683E-05-2.85719E-05 7.34714E-09 7.80761E-19 1.23957E-19
 -1      3122 9.52359E-05-2.85693E-05-2.85714E-05 8.58035E-09 2.14987E-18 8.37266E-19
 -1      3123 9.52400E-05-2.85676E-05-2.85739E-05 5.31573E-09 2.81320E-19 2.19474E-18
 -1      3124 9.52355E-05-2.85701E-05-2.85708E-05 9.46798E-09 1.72662E-18 5.95711E-19
 -1      3125 9.52355E-05-2.85708E-05-2.85706E-05 9.92522E-09 1.33500E-18 1.79427E-18
 -1      3126 9.52391E-05-2.85702E-05-2.85724E-05 8.39207E-09 2.09049E-18 8.95631E-19
 -1      3127 9.52352E-05-2.85712E-05-2.85702E-05 1.01604E-08 1.33784E-18 1.63393E-18
 -1      3128 9.52354E-05-2.85717E-05-2.85701E-05 1.01247E-08 1.89988E-18 9.36504E-19
 -1      3129 9.52384E-05-2.85718E-05-2.85714E-05 9.72416E-09 1.22379E-18 1.65449E-18
 -1      3130 9.52351E-05-2.85719E-05-2.85699E-05 9.95426E-09 3.72726E-19 8.89258E-19
 -1      3131 9.52354E-05-2.85722E-05-2.85699E-05 9.62559E-09 1.55582E-19 1.71876E-19
 -1      3132 9.52379E-05-2.85727E-05-2.85708E-05 9.92807E-09 1.03201E-18 1.01820E-18
 -1      3133 9.52353E-05-2.85723E-05-2.85698E-05 9.22298E-09 1.30574E-18 8.63458E-19
 -1      3134 9.52356E-05-2.85725E-05-2.85699E-05 8.73938E-09 1.65080E-18 1.96822E-19
 -1      3135 9.52376E-05-2.85732E-05-2.85705E-05 9.44348E-09 1.12334E-18 1.54270E-18
 -1      3136 9.52355E-05-2.85725E-05-2.85699E-05 8.22289E-09 1.64403E-18-5.70690E-19
 -1      3137 9.52358E-05-2.85725E-05-2.85700E-05 7.67630E-09 1.25540E-18-1.22388E-18
 -1      3138 9.52374E-05-2.85733E-05-2.85703E-05 8.57690E-09 8.98517E-19-4.83531E-20
 -1      3139 9.52357E-05-2.85725E-05-2.85700E-05 7.12346E-09 3.34812E-19-7.94803E-19
 -1      3140 9.52360E-05-2.85725E-05-2.85701E-05 6.57194E-09-9.11945E-19 8.98134E-19
 -1      3141 9.52373E-05-2.85733E-05-2.85703E-05 7.53520E-09 1.09496E-18-7.56709E-20
 -1      3142 9.52360E-05-2.85724E-05-2.85701E-05 6.03032E-09-1.26431E-18 1.35376E-18
 -1      3143 9.52362E-05-2.85724E-05-2.85702E-05 5.50718E-09-1.25798E-19 2.30535E-18
 -1      3144 9.52372E-05-2.85732E-05-2.85703E-05 6.45170E-09 2.60677E-19 1.48412E-18
 -1      3145 9.52362E-05-2.85723E-05-2.85703E-05 5.00260E-09 6.30916E-19 2.83885E-18
 -1      3146 9.52365E-05-2.85723E-05-2.85703E-05 4.52358E-09 1.11072E-19 2.30608E-18
 -1      3147 9.52372E-05-2.85730E-05-2.85704E-05 5.40586E-09 4.96699E-19 2.95063E-18
 -1      3148 9.52365E-05-2.85722E-05-2.85704E-05 4.06422E-09-5.78062E-19 1.65660E-18
 -1      3149 9.52367E-05-2.85722E-05-2.85705E-05 3.63405E-09-1.44821E-18 4.65618E-19
 -1      3150 9.52371E-05-2.85728E-05-2.85705E-05 4.43927E-09-1.10103E-18 8.52238E-19
 -1      3151 9.52368E-05-2.85723E-05-2.85705E-05 3.33316E-09-1.27932E-18 4.98798E-20
 -1      3152 9.52369E-05-2.85723E-05-2.85706E-05 2.93850E-09-4.97507E-19 8.90170E-20
 -1      3153 9.52374E-05-2.85727E-05-2.85706E-05 3.04038E-09-1.71161E-19 4.84887E-20
 -1      3154 9.52373E-05-2.85727E-05-2.85705E-05 3.65644E-09-2.13822E-18 9.42191E-20
 -1      3155 9.72014E-05-2.21336E-05-3.21415E-05 4.29971E-06 1.50405E-18 2.17745E-19
 -1      3156 9.79637E-05-2.29410E-05-3.21702E-05 6.41136E-06 1.57873E-18 2.41180E-19
 -1      3157 9.90310E-05-2.40304E-05-3.21074E-05 8.37752E-06 1.52168E-18 4.51373E-19
 -1      3158 1.00041E-04-2.50950E-05-3.21455E-05 9.94536E-06 1.32740E-18 4.63193E-19
 -1      3159 1.02595E-04-2.54377E-05-3.30581E-05 1.13135E-05 1.33223E-18 6.13760E-19
 -1      3160 1.00524E-04-2.29490E-05-3.32463E-05 8.25708E-06 1.65084E-18 4.59608E-19
 -1      3161 1.00291E-04-2.91466E-05-3.05424E-05-9.72274E-06 2.33444E-19-3.28439E-19
 -1      3162 9.94389E-05-2.74931E-05-3.08036E-05-9.32004E-06 5.09914E-19-1.39843E-19
 -1      3163 9.84874E-05-2.58207E-05-3.11908E-05-8.43697E-06 6.55150E-19-3.59612E-19
 -1      3164 9.77269E-05-2.43348E-05-3.14176E-05-7.15872E-06 8.51857E-19-4.55504E-19
 -1      3165 1.01224E-04-2.68005E-05-3.18985E-05-9.39266E-06 4.95005E-19-1.06990E-19
 -1      3166 1.02032E-04-3.35589E-05-2.93677E-05-6.82245E-06-1.82349E-19 5.00144E-20
 -1      3167 1.01950E-04-3.30660E-05-2.95354E-05-7.93702E-06-2.93651E-19-1.97862E-20
 -1      3168 1.01381E-04-3.36102E-05-2.90340E-05-4.63451E-06 6.12267E-19-3.52784E-19
 -1      3169 1.01497E-04-3.35421E-05-2.91391E-05-5.57879E-06 3.50743E-19-3.76378E-21
 -1      3170 1.03455E-04-3.45488E-05-2.95209E-05-5.82274E-06 2.54722E-19-2.49757E-19
 -1      3171 1.00394E-04-3.30830E-05-2.88301E-05-2.75724E-06 2.69115E-19-4.52469E-19
 -1      3172 1.00702E-04-3.33416E-05-2.88870E-05-3.60800E-06 4.98751E-19-3.97202E-19
 -1      3173 1.02336E-04-3.44266E-05-2.91062E-05-3.62936E-06 6.49902E-19-3.74388E-19
 -1      3174 9.92556E-05-3.21892E-05-2.87243E-05-1.28946E-06-7.24285E-19-2.03401E-19
 -1      3175 9.96405E-05-3.25989E-05-2.87479E-05-1.96041E-06-1.98179E-19-4.54949E-19
 -1      3176 1.00879E-04-3.35762E-05-2.88542E-05-1.82238E-06-2.79294E-19-3.36518E-20
 -1      3177 9.81824E-05-3.12218E-05-2.86811E-05-2.65361E-07-1.28229E-18 6.73155E-20
 -1      3178 9.85610E-05-3.16548E-05-2.86857E-05-7.41285E-07-1.13510E-18-1.77613E-19
 -1      3179 9.94184E-05-3.24332E-05-2.87211E-05-5.21373E-07-9.49395E-19 3.11479E-20
 -1      3180 9.72848E-05-3.03544E-05-2.86717E-05 3.73710E-07-5.09163E-19 1.69944E-19
 -1      3181 9.76119E-05-3.07374E-05-2.86680E-05 6.97014E-08-7.70349E-19-1.21815E-19
 -1      3182 9.81507E-05-3.12982E-05-2.86638E-05 3.10840E-07-8.87286E-19-5.01900E-19
 -1      3183 9.65940E-05-2.96618E-05-2.86761E-05 7.18055E-07-1.06405E-18 6.40039E-19
 -1      3184 9.68536E-05-2.99648E-05-2.86710E-05 5.48463E-07-9.62130E-19 3.41542E-19
 -1      3185 9.71523E-05-3.03310E-05-2.86484E-05 7.74537E-07-1.10684E-18-5.94479E-19
 -1      3186 9.60957E-05-2.91556E-05-2.86825E-05 8.56635E-07-5.85267E-19 9.91594E-19
 -1      3187 9.62894E-05-2.93755E-05-2.86795E-05 7.83070E-07-5.73600E-19 1.14627E-18
 -1      3188 9.64221E-05-2.95874E-05-2.86516E-05 9.77647E-07-9.46330E-19 3.04179E-19
 -1      3189 9.57551E-05-2.88137E-05-2.86855E-05 8.63373E-07-4.17383E-19 1.28156E-18
 -1      3190 9.58931E-05-2.89613E-05-2.86857E-05 8.52870E-07-5.78091E-19 1.04958E-18
 -1      3191 9.59207E-05-2.90617E-05-2.86597E-05 1.01207E-06-8.58225E-19 1.22588E-18
 -1      3192 9.55335E-05-2.86014E-05-2.86832E-05 7.93897E-07-5.84522E-20 7.43271E-19
 -1      3193 9.56283E-05-2.86926E-05-2.86865E-05 8.20916E-07 1.03596E-19 1.02959E-18
 -1      3194 9.55962E-05-2.87189E-05-2.86656E-05 9.47343E-07-1.03848E-19 1.06822E-18
 -1      3195 9.53960E-05-2.84832E-05-2.86760E-05 6.87094E-07-2.24581E-19-2.40459E-19
 -1      3196 9.54593E-05-2.85337E-05-2.86817E-05 7.33308E-07 7.25611E-20 3.69560E-19
 -1      3197 9.53989E-05-2.85154E-05-2.86669E-05 8.32054E-07 4.05682E-19 2.97755E-19
 -1      3198 9.53150E-05-2.84286E-05-2.86654E-05 5.68360E-07 8.09104E-19-9.42154E-19
 -1      3199 9.53563E-05-2.84517E-05-2.86724E-05 6.21506E-07-1.06213E-19-8.09393E-19
 -1      3200 9.52876E-05-2.84100E-05-2.86633E-05 6.98003E-07 5.02871E-19-1.06251E-18
 -1      3201 9.52701E-05-2.84138E-05-2.86529E-05 4.53051E-07 1.21513E-18-3.05786E-19
 -1      3202 9.52965E-05-2.84199E-05-2.86604E-05 5.05533E-07 9.22901E-19-5.68680E-19
 -1      3203 9.52311E-05-2.83691E-05-2.86560E-05 5.64587E-07 3.89078E-19-9.29738E-19
 -1      3204 9.52471E-05-2.84217E-05-2.86398E-05 3.49478E-07 1.64351E-19 4.44878E-19
 -1      3205 9.52638E-05-2.84181E-05-2.86472E-05 3.97064E-07 8.84724E-19 6.51097E-19
 -1      3206 9.52074E-05-2.83672E-05-2.86463E-05 4.42580E-07 5.47032E-19 4.26383E-19
 -1      3207 9.52368E-05-2.84410E-05-2.86271E-05 2.61276E-07 7.27401E-19-2.92526E-19
 -1      3208 9.52472E-05-2.84326E-05-2.86340E-05 3.02016E-07 3.84145E-19-1.30402E-19
 -1      3209 9.52019E-05-2.83864E-05-2.86355E-05 3.37035E-07 5.27303E-19 6.21632E-19
 -1      3210 9.52332E-05-2.84643E-05-2.86156E-05 1.89157E-07 7.26943E-19-1.07398E-18
 -1      3211 9.52397E-05-2.84542E-05-2.86216E-05 2.22555E-07 1.08760E-18-7.72703E-20
 -1      3212 9.52054E-05-2.84150E-05-2.86246E-05 2.49407E-07 9.66439E-19 2.58524E-19
 -1      3213 9.52328E-05-2.84874E-05-2.86055E-05 1.32151E-07-3.13329E-20-1.18584E-18
 -1      3214 9.52369E-05-2.84774E-05-2.86106E-05 1.58564E-07 3.53487E-19-8.84871E-19
 -1      3215 9.52124E-05-2.84457E-05-2.86144E-05 1.79036E-07 8.64903E-19 2.99598E-19
 -1      3216 9.52339E-05-2.85081E-05-2.85970E-05 8.84379E-08-1.27435E-18-2.38665E-18
 -1      3217 9.52364E-05-2.84991E-05-2.86012E-05 1.08668E-07-5.91418E-19-1.91165E-18
 -1      3218 9.52199E-05-2.84745E-05-2.86052E-05 1.24142E-07 1.46833E-19 4.51308E-19
 -1      3219 9.52352E-05-2.85254E-05-2.85901E-05 5.58825E-08-1.08853E-18-2.09668E-18
 -1      3220 9.52368E-05-2.85179E-05-2.85934E-05 7.09073E-08-1.33449E-18-2.66378E-18
 -1      3221 9.52266E-05-2.84996E-05-2.85974E-05 8.24672E-08-1.03522E-18-1.72503E-18
 -1      3222 9.52364E-05-2.85393E-05-2.85846E-05 3.23564E-08 2.66947E-19-4.28713E-19
 -1      3223 9.52374E-05-2.85333E-05-2.85872E-05 4.31649E-08-1.82931E-19-1.05745E-18
 -1      3224 9.52319E-05-2.85201E-05-2.85908E-05 5.16722E-08-1.34348E-18-1.45620E-18
 -1      3225 9.52373E-05-2.85500E-05-2.85804E-05 1.59142E-08 9.38748E-19-7.28491E-19
 -1      3226 9.52379E-05-2.85454E-05-2.85823E-05 2.34179E-08 4.79913E-19-8.38100E-19
 -1      3227 9.52357E-05-2.85363E-05-2.85855E-05 2.95612E-08 4.71314E-19-6.98791E-19
 -1      3228 9.52379E-05-2.85580E-05-2.85772E-05 4.87520E-09-9.82934E-20-4.76558E-20
 -1      3229 9.52383E-05-2.85545E-05-2.85786E-05 9.86415E-09 6.13821E-19-3.30068E-19
 -1      3230 9.52383E-05-2.85486E-05-2.85813E-05 1.41961E-08 4.16036E-19-8.33324E-19
 -1      3231 9.52382E-05-2.85637E-05-2.85748E-05-2.15417E-09 8.19227E-19 4.23544E-19
 -1      3232 9.52384E-05-2.85612E-05-2.85758E-05 9.75596E-10 2.97708E-19 1.24982E-19
 -1      3233 9.52398E-05-2.85576E-05-2.85781E-05 3.93825E-09 5.80279E-20-7.28663E-19
 -1      3234 9.52383E-05-2.85677E-05-2.85732E-05-6.29209E-09 4.03650E-19-9.33520E-19
 -1      3235 9.52384E-05-2.85659E-05-2.85739E-05-4.49597E-09 5.92348E-19-3.60489E-19
 -1      3236 9.52405E-05-2.85640E-05-2.85757E-05-2.55114E-09 6.86305E-19-3.73456E-19
 -1      3237 9.52383E-05-2.85703E-05-2.85720E-05-8.41047E-09 2.55557E-19-2.09465E-19
 -1      3238 9.52383E-05-2.85691E-05-2.85725E-05-7.53911E-09-1.81511E-19-2.37374E-19
 -1      3239 9.52407E-05-2.85683E-05-2.85739E-05-6.33575E-09 3.74791E-20-1.30878E-18
 -1      3240 9.52382E-05-2.85719E-05-2.85713E-05-9.17151E-09 1.48851E-18-4.14650E-19
 -1      3241 9.52382E-05-2.85711E-05-2.85716E-05-8.91548E-09 1.70423E-18 1.90391E-19
 -1      3242 9.52406E-05-2.85711E-05-2.85727E-05-8.23911E-09 7.35482E-19-4.75176E-19
 -1      3243 9.52381E-05-2.85728E-05-2.85708E-05-9.06510E-09-5.64689E-19-5.07527E-19
 -1      3244 9.52380E-05-2.85724E-05-2.85710E-05-9.19658E-09 9.46276E-19-3.17439E-19
 -1      3245 9.52403E-05-2.85728E-05-2.85718E-05-8.88347E-09 9.30414E-19-3.72844E-19
 -1      3246 9.52379E-05-2.85732E-05-2.85706E-05-8.44353E-09 5.00113E-19-5.40019E-19
 -1      3247 9.52378E-05-2.85730E-05-2.85706E-05-8.79977E-09-9.62768E-19-5.83537E-19
 -1      3248 9.52399E-05-2.85737E-05-2.85713E-05-8.72724E-09-7.19481E-19-3.66669E-19
 -1      3249 9.52377E-05-2.85734E-05-2.85704E-05-7.55187E-09-2.24704E-19 1.39270E-18
 -1      3250 9.52377E-05-2.85733E-05-2.85704E-05-8.02067E-09 3.52189E-19 6.14105E-19
 -1      3251 9.52395E-05-2.85740E-05-2.85709E-05-8.09896E-09-4.98739E-19-5.45158E-19
 -1      3252 9.52376E-05-2.85733E-05-2.85704E-05-6.55356E-09 1.48187E-18 1.43763E-18
 -1      3253 9.52375E-05-2.85733E-05-2.85704E-05-7.06114E-09 1.18951E-18 1.88120E-18
 -1      3254 9.52390E-05-2.85741E-05-2.85707E-05-7.22642E-09-1.84026E-19 4.14259E-19
 -1      3255 9.52375E-05-2.85731E-05-2.85704E-05-5.55075E-09-7.27528E-19 7.03628E-19
 -1      3256 9.52374E-05-2.85732E-05-2.85704E-05-6.05212E-09 6.07698E-19 7.89883E-19
 -1      3257 9.52386E-05-2.85739E-05-2.85706E-05-6.26116E-09 1.46739E-18 1.01276E-18
 -1      3258 9.52374E-05-2.85729E-05-2.85705E-05-4.60119E-09 9.30893E-19-7.23005E-19
 -1      3259 9.52373E-05-2.85730E-05-2.85704E-05-5.07191E-09 5.19124E-19-7.89274E-20
 -1      3260 9.52383E-05-2.85736E-05-2.85706E-05-5.29676E-09 5.41750E-19-2.25560E-20
 -1      3261 9.52374E-05-2.85728E-05-2.85705E-05-3.73515E-09 7.14845E-19-2.70805E-18
 -1      3262 9.52373E-05-2.85728E-05-2.85705E-05-4.16131E-09 4.88759E-19-1.96221E-18
 -1      3263 9.52380E-05-2.85734E-05-2.85706E-05-4.38820E-09 1.57443E-18-1.82368E-18
 -1      3264 9.52374E-05-2.85727E-05-2.85706E-05-3.04651E-09 1.64190E-18-4.52977E-18
 -1      3265 9.52373E-05-2.85727E-05-2.85706E-05-3.42346E-09 7.97397E-19-3.99317E-18
 -1      3266 9.52378E-05-2.85731E-05-2.85706E-05-3.64998E-09 1.58895E-18-3.04890E-18
 -1      3267 9.52377E-05-2.85730E-05-2.85706E-05-3.05201E-09 2.08958E-18-4.84928E-18
 -1      3268 9.52398E-05-2.85748E-05-2.85707E-05-8.03381E-10 2.16767E-18 2.12171E-18
 -1      3269 9.52397E-05-2.85747E-05-2.85707E-05-1.26596E-09 1.86946E-18 2.23563E-18
 -1      3270 9.52402E-05-2.85751E-05-2.85708E-05-5.80918E-10 2.86469E-18 2.12126E-18
 -1      3271 9.52386E-05-2.85737E-05-2.85706E-05 2.75073E-09 1.22150E-18 1.21410E-18
 -1      3272 9.52389E-05-2.85740E-05-2.85707E-05 2.50353E-09-9.10338E-20 2.60173E-18
 -1      3273 9.52378E-05-2.85731E-05-2.85706E-05 3.00370E-09 6.56953E-19-2.35804E-20
 -1      3274 9.52382E-05-2.85734E-05-2.85706E-05 2.92231E-09 1.04722E-18-1.03634E-18
 -1      3275 9.52386E-05-2.85737E-05-2.85707E-05 3.10469E-09-3.61872E-19 3.72654E-19
 -1      3276 9.52377E-05-2.85731E-05-2.85706E-05 3.31586E-09-1.00154E-18-3.97469E-19
 -1      3277 9.89635E-05-2.62960E-05-3.11925E-05 1.21973E-05 1.57959E-18 5.32477E-19
 -1      3278 1.01485E-04-2.62367E-05-3.22363E-05 1.28545E-05 1.31804E-18 1.63193E-19
 -1      3279 7.37551E-05-1.96929E-05-2.27608E-05-3.84388E-05-3.08593E-18-2.62681E-18
 -1      3280 5.93765E-05-1.21446E-05-2.00799E-05-3.95925E-05-3.02084E-18-3.30978E-18
 -1      3281 1.28152E-04-2.51528E-05-4.47779E-05-1.15208E-05 1.83610E-18-3.20088E-18
 -1      3282 1.32601E-04-3.47304E-05-4.17581E-05-1.01095E-05 3.35107E-19-3.44075E-18
 -1      3283 1.31519E-04-5.89387E-05-3.13133E-05 1.77225E-05-1.28791E-18-1.92149E-18
 -1      3284 1.23395E-04-5.76203E-05-2.77949E-05 2.62169E-05-1.29948E-18-1.50735E-18
 -1      3285 8.57988E-05-2.76197E-05-2.48312E-05-3.80098E-05-3.05160E-18-2.25830E-18
 -1      3286 1.01748E-04-3.21152E-05-2.98793E-05-9.03770E-06-2.80307E-19-3.85218E-20
 -1      3287 1.01100E-04-3.07580E-05-3.01253E-05-9.50991E-06 6.64983E-20-1.42803E-19
 -1      3288 1.03034E-04-3.06859E-05-3.09984E-05-1.00308E-05 1.44322E-19 2.60406E-19
 -1      3289 1.04085E-04-3.36824E-05-3.01460E-05-8.53032E-06-2.18020E-19-2.33927E-20
 -1      3290 9.52392E-05-2.85743E-05-2.85707E-05 2.12947E-09-3.60672E-19 2.70865E-18
 -1      3291 9.52395E-05-2.85745E-05-2.85707E-05 1.74824E-09-4.65013E-19 3.07079E-18
 -1      3292 9.52399E-05-2.85748E-05-2.85708E-05 1.64748E-09 2.63908E-19 1.99312E-18
 -1      3293 9.52393E-05-2.85743E-05-2.85707E-05 2.54744E-09 2.09482E-20 2.52294E-18
 -1      3294 4.09452E-05-5.90535E-06-1.46229E-05 4.38163E-08-4.35362E-20 2.01996E-18
 -1      3295 4.44410E-05-8.32687E-06-1.50906E-05-1.20592E-05 1.15554E-18 7.89011E-19
 -1      3296 1.11207E-04-5.33586E-05-2.48719E-05 3.42673E-05-1.82087E-18-9.21042E-19
 -1      3297 9.58385E-05-4.49093E-05-2.14291E-05 3.91065E-05-2.33482E-18 5.25213E-19
 -1      3298 1.30803E-04-3.43864E-05-4.14867E-05 9.46039E-06 8.63815E-19 1.26653E-18
 -1      3299 1.28462E-04-2.84169E-05-4.33692E-05 1.24517E-05 1.50174E-18 1.06006E-18
 -1      3300 5.04714E-05-1.15367E-05-1.60803E-05-1.94595E-05 1.52977E-18 1.14286E-18
 -1      3301 6.43302E-05-2.05331E-05-1.84275E-05-2.81525E-05 1.81313E-18 6.14734E-19
 -1      3302 6.94335E-05-1.90388E-05-2.12923E-05-2.64371E-05 1.90937E-18 9.32795E-20
 -1      3303 5.38417E-05-1.01087E-05-1.83015E-05-1.44688E-05 1.17605E-18 7.94199E-19
 -1      3304 1.10116E-04-3.91657E-05-3.04920E-05-2.28813E-05-2.24421E-18-8.49104E-19
 -1      3305 1.00107E-04-3.43874E-05-2.80599E-05-2.99065E-05-2.73457E-18-1.39165E-18
 -1      3306 1.34202E-04-4.91276E-05-3.84407E-05 1.30418E-06 5.19231E-19-4.25803E-18
 -1      3307 1.39152E-04-6.08130E-05-3.48983E-05 8.78904E-06-6.18758E-19-3.26828E-18
 -1      3308 1.25786E-04-2.03250E-05-4.53727E-05 1.35353E-05 2.34501E-18 9.60350E-19
 -1      3309 1.22198E-04-1.34038E-05-4.71769E-05 1.14083E-05 3.01480E-18 2.98764E-19
 -1      3310 8.17339E-05-3.64120E-05-1.94587E-05 4.05971E-05-3.01914E-18 2.67165E-18
 -1      3311 6.74565E-05-2.56566E-05-1.77460E-05 3.65174E-05-3.21785E-18 3.79492E-18
 -1      3312 9.53309E-05-3.71930E-05-2.50242E-05-4.08305E-05-2.62289E-18-1.77173E-18
 -1      3313 1.07107E-04-2.77871E-05-3.39458E-05 1.26366E-05 9.50707E-19 2.01190E-19
 -1      3314 1.07548E-04-2.79463E-05-3.42043E-05 1.20723E-05 7.65783E-19-1.63845E-19
 -1      3315 1.09601E-04-2.91285E-05-3.44895E-05 1.06016E-05 4.16099E-19-3.20022E-19
 -1      3316 7.05760E-05-1.54677E-05-2.34015E-05-2.23739E-05 1.80934E-18 1.64642E-19
 -1      3317 4.40635E-05-4.35999E-07-1.82215E-05 6.24908E-06-7.16537E-19-4.14824E-18
 -1      3318 9.69351E-05-2.30044E-05-3.17114E-05-5.24898E-06 1.12490E-18-4.12732E-19
 -1      3319 9.65597E-05-2.21141E-05-3.18737E-05-3.23426E-06 1.29379E-18-3.03814E-19
 -1      3320 9.94130E-05-2.32709E-05-3.26496E-05-6.59726E-06 8.76876E-19-3.25740E-19
 -1      3321 1.02498E-04-2.66902E-05-3.24372E-05 1.25139E-05 1.24597E-18 3.68734E-19
 -1      3322 1.04182E-04-2.67639E-05-3.31596E-05 1.27008E-05 1.11604E-18 4.38393E-19
 -1      3323 1.16213E-04-9.33888E-06-4.61115E-05-1.80501E-06 3.19834E-18-9.18409E-19
 -1      3324 5.31283E-05-8.73103E-06-1.88468E-05 1.19521E-05-6.51223E-20 2.96409E-18
 -1      3325 4.61831E-05-6.73886E-06-1.64177E-05 7.02475E-06 4.31854E-20 2.88515E-18
 -1      3326 5.08898E-05-6.59340E-06-1.88316E-05-2.95716E-07 6.57165E-19 1.35679E-18
 -1      3327 9.52389E-05-2.85740E-05-2.85707E-05-2.49921E-09 2.87518E-18 6.35244E-20
 -1      3328 9.52386E-05-2.85737E-05-2.85707E-05-2.75007E-09 3.15906E-18-9.64475E-19
 -1      3329 1.30936E-04-3.78893E-05-4.01460E-05 6.65812E-06 5.64256E-19 1.28672E-18
 -1      3330 1.26024E-04-3.38294E-05-3.95495E-05 1.03303E-05 5.35259E-19 1.19543E-18
 -1      3331 1.29615E-04-4.01807E-05-3.82746E-05 3.47997E-06-2.08317E-20 1.17626E-18
 -1      3332 1.13526E-04-3.23949E-05-3.47448E-05 6.08844E-06-2.17015E-19-2.28083E-19
 -1      3333 1.16980E-04-3.43992E-05-3.53057E-05 6.26438E-06-1.80828E-19 8.91188E-20
 -1      3334 1.11714E-04-3.08026E-05-3.48023E-05 8.87679E-06 2.11435E-19-3.03476E-19
 -1      3335 1.09930E-04-4.33475E-05-2.79782E-05-2.93665E-05 2.16936E-18-1.29805E-18
 -1      3336 6.38527E-05-1.13931E-05-2.22988E-05-1.67795E-05 1.21791E-18 5.47924E-19
 -1      3337 9.52395E-05-2.85745E-05-2.85707E-05-1.75477E-09 1.61037E-18 1.67075E-18
 -1      3338 9.52392E-05-2.85743E-05-2.85707E-05-2.13173E-09 2.33534E-18 1.10558E-18
 -1      3339 9.52393E-05-2.85743E-05-2.85707E-05-2.54732E-09 2.70562E-18-7.59361E-21
 -1      3340 9.52399E-05-2.85748E-05-2.85708E-05-1.65800E-09 2.51522E-18 2.35336E-18
 -1      3341 9.63839E-05-2.16234E-05-3.20356E-05-6.29687E-07 1.46564E-18-1.59855E-19
 -1      3342 9.66003E-05-2.16396E-05-3.21195E-05 1.69400E-06 1.46544E-18 2.34270E-20
 -1      3343 9.88034E-05-2.10912E-05-3.33305E-05 3.52498E-06 1.63852E-18 1.93128E-19
 -1      3344 9.83807E-05-2.11111E-05-3.31466E-05-1.92339E-06 1.38723E-18-1.76546E-19
 -1      3345 9.52380E-05-2.85732E-05-2.85706E-05-2.96146E-09 2.36698E-18-2.66392E-18
 -1      3346 1.18250E-04-1.60210E-05-4.40412E-05-1.01902E-05 2.45857E-18-2.04932E-18
 -1      3347 1.23918E-04-2.02419E-05-4.46844E-05-1.17111E-05 2.27127E-18-2.67729E-18
 -1      3348 1.22291E-04-2.53831E-05-4.16859E-05-1.15836E-05 1.57643E-18-2.10074E-18
 -1      3349 1.33790E-04-5.93370E-05-3.28682E-05 9.12211E-06 3.68459E-19-1.86474E-18
 -1      3350 1.26723E-04-4.59315E-05-3.46274E-05-1.25379E-05-1.41793E-18 2.69356E-19
 -1      3351 9.52384E-05-2.85735E-05-2.85706E-05-3.16126E-09 2.72222E-18-1.34920E-18
 -1      3352 1.30132E-04-3.99209E-05-3.87973E-05-5.32934E-06 1.37643E-19-2.97637E-18
 -1      3353 1.15976E-04-5.31256E-05-2.67566E-05 2.70267E-05-1.61230E-18-9.06537E-19
 -1      3354 8.78249E-05-3.67504E-05-2.15557E-05-3.39176E-05 1.95358E-18-3.80530E-19
 -1      3355 9.20432E-05-3.97651E-05-2.22197E-05 3.53273E-05-2.56376E-18 1.38665E-18
 -1      3356 6.28286E-05-1.95720E-05-1.81137E-05 3.09596E-05-2.34559E-18 3.58591E-18
 -1      3357 5.99308E-05-1.45759E-05-1.92883E-05 2.31174E-05-1.12657E-18 3.48909E-18
 -1      3358 7.34322E-05-2.44403E-05-2.08119E-05 3.07087E-05-2.31716E-18 2.86530E-18
 -1      3359 1.23341E-04-2.43098E-05-4.25975E-05 1.33491E-05 1.54981E-18 1.05408E-18
 -1      3360 1.16783E-04-1.24379E-05-4.49676E-05 8.99347E-06 2.67287E-18 2.03089E-19
 -1      3361 1.13373E-04-3.80003E-05-3.21726E-05-1.40150E-05-1.87790E-18-5.75929E-19
 -1      3362 1.20089E-04-4.30848E-05-3.28417E-05-1.41670E-05-1.71148E-18-5.43689E-20
 -1      3363 1.27060E-04-4.38711E-05-3.60070E-05-4.66976E-06-8.77076E-19 4.70606E-19
 -1      3364 1.15944E-04-3.82509E-05-3.34982E-05-7.31367E-06-1.34343E-18-2.91690E-19
 -1      3365 1.20644E-04-3.91977E-05-3.47502E-05-1.63101E-06-9.03969E-19 2.63136E-19
 -1      3366 7.67771E-05-1.43654E-05-2.68112E-05-5.52566E-06 3.87928E-19-1.41843E-19
 -1      3367 7.99664E-05-1.60903E-05-2.74450E-05-5.00132E-06 4.92124E-19 1.91363E-19
 -1      3368 8.30445E-05-1.78377E-05-2.79948E-05-5.09344E-06 2.79910E-19 1.51350E-19
 -1      3369 8.52177E-05-1.93093E-05-2.82958E-05-4.56357E-06 2.08269E-19 6.47558E-21
 -1      3370 8.01006E-05-1.62791E-05-2.72320E-05-2.10795E-06 4.38128E-19 4.17428E-19
 -1      3371 8.73413E-05-2.07330E-05-2.85774E-05-4.47924E-06 7.78286E-20 1.60706E-19
 -1      3372 8.87747E-05-2.18853E-05-2.87017E-05-3.95897E-06 1.79502E-19 6.93752E-20
 -1      3373 8.50980E-05-1.93794E-05-2.80880E-05-2.60357E-06 3.42445E-19 3.59096E-19
 -1      3374 9.02188E-05-2.29776E-05-2.88351E-05-3.77222E-06-2.80801E-19-2.25433E-19
 -1      3375 9.11368E-05-2.38334E-05-2.88690E-05-3.29631E-06-3.53539E-20-4.83514E-19
 -1      3376 8.85373E-05-2.18593E-05-2.85253E-05-2.63855E-06-1.59429E-19 1.37990E-19
 -1      3377 9.21034E-05-2.46382E-05-2.89223E-05-3.06868E-06 1.18264E-18-4.36972E-19
 -1      3378 9.26758E-05-2.52525E-05-2.89131E-05-2.65874E-06 1.16449E-18-3.21793E-19
 -1      3379 9.08661E-05-2.37510E-05-2.87301E-05-2.41371E-06 4.41220E-19-2.52310E-19
 -1      3380 9.33131E-05-2.58298E-05-2.89249E-05-2.43035E-06 6.34093E-19-3.95167E-19
 -1      3381 9.36612E-05-2.62612E-05-2.88980E-05-2.09249E-06 5.08727E-19-1.06414E-19
 -1      3382 9.24182E-05-2.51470E-05-2.88089E-05-2.07331E-06 8.91562E-19-1.13238E-18
 -1      3383 9.40761E-05-2.66682E-05-2.88897E-05-1.88492E-06 8.83100E-20-8.39038E-19
 -1      3384 9.42824E-05-2.69673E-05-2.88580E-05-1.61502E-06-5.80471E-20-9.58569E-19
 -1      3385 9.34382E-05-2.61541E-05-2.88223E-05-1.70659E-06-1.99242E-19-1.74448E-18
 -1      3386 9.45496E-05-2.72513E-05-2.88414E-05-1.43722E-06-1.29122E-19-1.33272E-18
 -1      3387 9.46685E-05-2.74574E-05-2.88108E-05-1.22628E-06-2.34124E-19-1.29081E-18
 -1      3388 9.41005E-05-2.68701E-05-2.88045E-05-1.36176E-06-2.33869E-19-2.28411E-18
 -1      3389 9.48390E-05-2.76546E-05-2.87920E-05-1.07979E-06-4.80460E-19-1.30804E-18
 -1      3390 9.49053E-05-2.77964E-05-2.87651E-05-9.17520E-07-4.89791E-19-1.60563E-18
 -1      3391 9.45263E-05-2.73750E-05-2.87739E-05-1.06050E-06-2.58201E-19-2.44634E-18
 -1      3392 9.50132E-05-2.79333E-05-2.87471E-05-8.00081E-07-7.00690E-19-1.51055E-18
 -1      3393 9.50485E-05-2.80311E-05-2.87246E-05-6.76732E-07-5.03291E-19-1.88881E-18
 -1      3394 9.47977E-05-2.77298E-05-2.87403E-05-8.09142E-07-6.14438E-19-2.00668E-18
 -1      3395 9.51164E-05-2.81264E-05-2.87086E-05-5.84519E-07-5.01637E-20-2.07932E-18
 -1      3396 9.51340E-05-2.81942E-05-2.86905E-05-4.91678E-07-2.29256E-19-2.14954E-18
 -1      3397 9.49696E-05-2.79791E-05-2.87084E-05-6.05924E-07-4.84245E-19-2.21298E-18
 -1      3398 9.51763E-05-2.82607E-05-2.86769E-05-4.20493E-07-1.09343E-19-2.57730E-18
 -1      3399 9.51841E-05-2.83081E-05-2.86625E-05-3.51249E-07-3.28106E-19-2.05258E-18
 -1      3400 9.50777E-05-2.81548E-05-2.86802E-05-4.45458E-07-4.57648E-19-2.53865E-18
 -1      3401 9.52103E-05-2.83548E-05-2.86514E-05-2.97126E-07-1.17561E-18-1.60009E-18
 -1      3402 9.52129E-05-2.83881E-05-2.86402E-05-2.45966E-07-6.54677E-19-1.81874E-18
 -1      3403 9.51452E-05-2.82790E-05-2.86564E-05-3.21155E-07-6.94415E-19-2.99094E-18
 -1      3404 9.52290E-05-2.84210E-05-2.86312E-05-2.05415E-07 5.64205E-20-1.74642E-18
 -1      3405 9.52290E-05-2.84446E-05-2.86226E-05-1.68012E-07 3.21064E-19-2.35156E-18
 -1      3406 9.51870E-05-2.83673E-05-2.86368E-05-2.26485E-07-2.65586E-19-2.54344E-18
 -1      3407 9.52387E-05-2.84679E-05-2.86155E-05-1.38092E-07 4.11186E-19-3.33454E-18
 -1      3408 9.52377E-05-2.84846E-05-2.86089E-05-1.11119E-07-6.09961E-19-3.03592E-18
 -1      3409 9.52127E-05-2.84301E-05-2.86210E-05-1.55545E-07-2.87182E-19-3.15188E-18
 -1      3410 9.52432E-05-2.85003E-05-2.86036E-05-9.04298E-08-2.25604E-19-3.16063E-18
 -1      3411 9.52419E-05-2.85118E-05-2.85989E-05-7.19465E-08 1.55536E-20-2.17901E-18
 -1      3412 9.52278E-05-2.84742E-05-2.86087E-05-1.04279E-07-4.06598E-19-3.99992E-18
 -1      3413 9.52451E-05-2.85237E-05-2.85945E-05-5.61741E-08-1.24898E-18-2.36209E-18
 -1      3414 9.52437E-05-2.85323E-05-2.85908E-05-4.25341E-08-2.40415E-18-1.78508E-18
 -1      3415 9.52367E-05-2.85055E-05-2.85991E-05-6.70393E-08-3.92667E-19-4.29154E-18
 -1      3416 9.52454E-05-2.85406E-05-2.85875E-05-3.15900E-08-1.58089E-18-7.53660E-19
 -1      3417 9.52442E-05-2.85467E-05-2.85848E-05-2.22872E-08-4.08241E-19-5.68639E-19
 -1      3418 9.52418E-05-2.85286E-05-2.85914E-05-3.97462E-08-1.21662E-18-2.63667E-18
 -1      3419 9.52449E-05-2.85524E-05-2.85823E-05-1.48909E-08-7.13575E-19-1.81440E-19
 -1      3420 9.52440E-05-2.85567E-05-2.85803E-05-8.75355E-09-1.12672E-18-1.16059E-19
 -1      3421 9.52443E-05-2.85447E-05-2.85856E-05-2.08658E-08-7.04436E-19-7.17708E-19
 -1      3422 9.52441E-05-2.85606E-05-2.85785E-05-3.94631E-09-2.58914E-19-8.87236E-20
 -1      3423 9.52433E-05-2.85635E-05-2.85771E-05-7.99829E-11 9.04320E-20 5.93794E-19
 -1      3424 9.52453E-05-2.85559E-05-2.85812E-05-8.21092E-09-4.27955E-19 3.58916E-19
 -1      3425 9.52431E-05-2.85661E-05-2.85758E-05 2.87247E-09 7.19905E-20 1.54273E-18
 -1      3426 9.52426E-05-2.85681E-05-2.85748E-05 5.13977E-09 1.35118E-18 1.40201E-18
 -1      3427 9.52453E-05-2.85636E-05-2.85779E-05-8.58086E-11 4.76168E-19 1.41536E-18
 -1      3428 9.52422E-05-2.85697E-05-2.85738E-05 6.79355E-09 1.42121E-18 1.05519E-18
 -1      3429 9.52418E-05-2.85710E-05-2.85732E-05 7.96190E-09 1.52981E-18 4.93031E-19
 -1      3430 9.52448E-05-2.85686E-05-2.85755E-05 4.80988E-09 9.33423E-19 7.08675E-19
 -1      3431 9.52413E-05-2.85720E-05-2.85725E-05 8.73218E-09 2.58902E-18 8.46548E-19
 -1      3432 9.52410E-05-2.85728E-05-2.85721E-05 9.16908E-09 1.87461E-18 1.55370E-18
 -1      3433 9.52440E-05-2.85717E-05-2.85738E-05 7.45906E-09 2.07134E-18-1.00744E-19
 -1      3434 9.52405E-05-2.85733E-05-2.85716E-05 9.36079E-09 1.31083E-18 1.29611E-18
 -1      3435 9.52403E-05-2.85737E-05-2.85714E-05 9.33209E-09 1.35331E-18 1.84634E-18
 -1      3436 9.52430E-05-2.85736E-05-2.85727E-05 8.59325E-09 1.74885E-18 1.10208E-19
 -1      3437 9.52398E-05-2.85739E-05-2.85711E-05 9.16492E-09 1.16422E-18 1.32251E-18
 -1      3438 9.52397E-05-2.85741E-05-2.85709E-05 8.85912E-09 1.29750E-18 1.72521E-18
 -1      3439 9.52421E-05-2.85745E-05-2.85718E-05 8.74737E-09 1.56178E-18 1.26111E-18
 -1      3440 9.52392E-05-2.85741E-05-2.85708E-05 8.48761E-09 2.56533E-19 6.22751E-19
 -1      3441 9.52391E-05-2.85742E-05-2.85707E-05 8.03488E-09 1.05977E-18 1.58385E-19
 -1      3442 9.52413E-05-2.85749E-05-2.85713E-05 8.30454E-09 3.19680E-20 2.35308E-19
 -1      3443 9.52388E-05-2.85741E-05-2.85706E-05 7.56424E-09 1.97907E-18 8.73364E-20
 -1      3444 9.52387E-05-2.85740E-05-2.85706E-05 7.05111E-09 9.06593E-19 3.31383E-19
 -1      3445 9.52405E-05-2.85749E-05-2.85710E-05 7.53203E-09 1.33250E-18 1.73750E-18
 -1      3446 9.52384E-05-2.85739E-05-2.85705E-05 6.55021E-09 2.52853E-19 9.26621E-19
 -1      3447 9.52383E-05-2.85738E-05-2.85705E-05 6.03141E-09 4.93468E-19 1.47147E-18
 -1      3448 9.52398E-05-2.85746E-05-2.85708E-05 6.60969E-09 8.01729E-19 7.54944E-19
 -1      3449 9.52381E-05-2.85736E-05-2.85705E-05 5.54224E-09 5.57305E-19 6.34541E-19
 -1      3450 9.52380E-05-2.85735E-05-2.85705E-05 5.04911E-09 5.10988E-21-4.97045E-19
 -1      3451 9.52392E-05-2.85743E-05-2.85707E-05 5.65376E-09 1.62965E-20-6.23566E-19
 -1      3452 9.52378E-05-2.85733E-05-2.85705E-05 4.59335E-09-9.20579E-19-4.48935E-19
 -1      3453 9.52378E-05-2.85732E-05-2.85706E-05 4.14687E-09-2.49300E-18-9.92239E-19
 -1      3454 9.52387E-05-2.85739E-05-2.85706E-05 4.73323E-09-1.13665E-18-2.28052E-18
 -1      3455 9.52377E-05-2.85731E-05-2.85706E-05 3.88233E-09-2.74723E-18-1.08184E-18
 -1      3456 9.52378E-05-2.85731E-05-2.85706E-05 3.55206E-09-2.17688E-18-1.02234E-18
 -1      3457 9.52382E-05-2.85735E-05-2.85706E-05 3.51214E-09-1.48899E-18-1.12133E-18
 -1      3458 9.52384E-05-2.85736E-05-2.85706E-05 4.02121E-09-2.81232E-18-1.73249E-18
 -1      3459 1.05831E-04-2.68198E-05-3.38377E-05 1.26246E-05 1.19820E-18 2.76261E-19
 -1      3460 1.06520E-04-2.73479E-05-3.39727E-05 1.28330E-05 1.08801E-18 2.58656E-19
 -1      3461 1.09006E-04-2.82657E-05-3.46085E-05 1.25992E-05 8.95129E-19 2.69907E-19
 -1      3462 1.04140E-04-2.82222E-05-3.26239E-05-1.02001E-05 5.19734E-19-2.28580E-19
 -1      3463 1.03156E-04-2.59171E-05-3.30939E-05-9.43058E-06 6.74715E-19-2.75127E-19
 -1      3464 1.11439E-04-1.02522E-05-4.35377E-05-2.74629E-07 2.74640E-18-3.76354E-19
 -1      3465 1.14259E-04-1.19817E-05-4.41177E-05-6.17641E-06 2.70627E-18-1.20392E-18
 -1      3466 1.03226E-04-3.52582E-05-2.91022E-05-2.14261E-06 3.54772E-19 4.47157E-20
 -1      3467 1.03906E-04-3.56443E-05-2.92772E-05-3.12960E-06 4.65681E-19-5.94517E-20
 -1      3468 1.05037E-04-3.59901E-05-2.95749E-05-4.38512E-06 5.64959E-19-2.71261E-19
 -1      3469 1.05435E-04-3.58359E-05-2.98496E-05-5.53126E-06 2.66558E-20-2.99042E-19
 -1      3470 1.05856E-04-3.69077E-05-2.95576E-05-2.79566E-06 3.66698E-19-3.53876E-20
 -1      3471 9.94597E-05-3.24682E-05-2.86875E-05 4.99366E-07-8.83471E-19-3.17089E-19
 -1      3472 1.00162E-04-3.31383E-05-2.87340E-05 2.20760E-08-6.94484E-19-2.63974E-19
 -1      3473 9.80116E-05-3.11643E-05-2.86314E-05 1.04422E-06-9.21649E-19-9.31843E-19
 -1      3474 9.85888E-05-3.17543E-05-2.86476E-05 7.71097E-07-7.12689E-19-6.73605E-19
 -1      3475 9.91828E-05-3.23919E-05-2.86470E-05 1.32503E-06-7.02898E-19-9.81306E-19
 -1      3476 9.69353E-05-3.01280E-05-2.86197E-05 1.26231E-06-1.40749E-18-4.88124E-19
 -1      3477 9.73717E-05-3.05917E-05-2.86208E-05 1.13583E-06-1.23750E-18-8.46687E-19
 -1      3478 9.76835E-05-3.09978E-05-2.85977E-05 1.59705E-06-1.06732E-18-7.78763E-19
 -1      3479 9.61888E-05-2.93744E-05-2.86271E-05 1.27674E-06-1.48496E-18 1.06816E-19
 -1      3480 9.64973E-05-2.97085E-05-2.86227E-05 1.24642E-06-1.67371E-18-3.86640E-19
 -1      3481 9.66200E-05-2.99358E-05-2.85923E-05 1.60372E-06-1.52803E-18-6.34543E-19
 -1      3482 9.57039E-05-2.88687E-05-2.86393E-05 1.17734E-06-8.87581E-19 7.18383E-19
 -1      3483 9.59091E-05-2.90909E-05-2.86345E-05 1.20451E-06-9.69160E-19 6.65008E-19
 -1      3484 9.59156E-05-2.91917E-05-2.86052E-05 1.46736E-06-1.62436E-18-3.45268E-19
 -1      3485 9.54103E-05-2.85577E-05-2.86489E-05 1.02418E-06 4.65578E-19 5.23543E-20
 -1      3486 9.55388E-05-2.86930E-05-2.86462E-05 1.08160E-06-2.94740E-19 6.29970E-19
 -1      3487 9.54815E-05-2.87113E-05-2.86218E-05 1.26786E-06-4.70965E-19-2.89869E-20
 -1      3488 9.52477E-05-2.83877E-05-2.86535E-05 8.54635E-07 4.47845E-19-2.62004E-19
 -1      3489 9.53229E-05-2.84605E-05-2.86534E-05 9.24362E-07 5.77561E-19-1.41669E-19
 -1      3490 9.52367E-05-2.84299E-05-2.86352E-05 1.05293E-06 5.65956E-19-2.49637E-19
 -1      3491 9.51692E-05-2.83126E-05-2.86529E-05 6.90276E-07 3.58739E-19-7.92426E-19
 -1      3492 9.52096E-05-2.83438E-05-2.86551E-05 7.61232E-07 2.73035E-19-6.38497E-19
 -1      3493 9.51165E-05-2.82881E-05-2.86428E-05 8.48566E-07 6.07538E-19-1.06699E-18
 -1      3494 9.51414E-05-2.82969E-05-2.86481E-05 5.42296E-07 2.25930E-19-3.35447E-19
 -1      3495 9.51602E-05-2.83022E-05-2.86520E-05 6.08194E-07 3.23786E-19-7.63283E-19
 -1      3496 9.50726E-05-2.82373E-05-2.86448E-05 6.67156E-07 2.70066E-19-8.12813E-19
 -1      3497 9.51414E-05-2.83149E-05-2.86405E-05 4.15401E-07 3.57647E-19-4.15881E-19
 -1      3498 9.51477E-05-2.83058E-05-2.86454E-05 4.73139E-07 1.47469E-19-4.54468E-19
 -1      3499 9.50720E-05-2.82414E-05-2.86421E-05 5.13103E-07 9.24740E-20-9.95597E-19
 -1      3500 9.51547E-05-2.83495E-05-2.86315E-05 3.10436E-07 4.15102E-19 3.57595E-19
 -1      3501 9.51546E-05-2.83334E-05-2.86367E-05 3.58939E-07 7.10623E-19 2.90910E-19
 -1      3502 9.50927E-05-2.82749E-05-2.86363E-05 3.86390E-07 1.23349E-20-5.42631E-19
 -1      3503 9.51727E-05-2.83895E-05-2.86220E-05 2.26100E-07 1.07187E-18 3.74856E-19
 -1      3504 9.51697E-05-2.83713E-05-2.86272E-05 2.65504E-07 8.25368E-19 4.82048E-19
 -1      3505 9.51215E-05-2.83212E-05-2.86287E-05 2.84759E-07 7.65727E-19 8.28386E-20
 -1      3506 9.51907E-05-2.84286E-05-2.86128E-05 1.60033E-07 1.52354E-19 1.12168E-18
 -1      3507 9.51868E-05-2.84110E-05-2.86176E-05 1.91142E-07 4.33087E-19 7.24989E-19
 -1      3508 9.51508E-05-2.83700E-05-2.86203E-05 2.04990E-07 4.82031E-19 3.76583E-19
 -1      3509 9.52063E-05-2.84635E-05-2.86045E-05 1.09486E-07 3.06455E-19 1.45469E-18
 -1      3510 9.52026E-05-2.84479E-05-2.86087E-05 1.33409E-07 6.08424E-19 1.87293E-18
 -1      3511 9.51769E-05-2.84155E-05-2.86119E-05 1.43619E-07 1.08671E-19 1.46427E-18
 -1      3512 9.52187E-05-2.84927E-05-2.85972E-05 7.17055E-08-7.78170E-19 2.16066E-19
 -1      3513 9.52157E-05-2.84797E-05-2.86008E-05 8.96368E-08 4.38224E-19 1.29843E-18
 -1      3514 9.51982E-05-2.84550E-05-2.86041E-05 9.73232E-08 7.50658E-19 2.77749E-18
 -1      3515 9.52280E-05-2.85162E-05-2.85910E-05 4.41494E-08-1.60158E-18-2.60156E-19
 -1      3516 9.52257E-05-2.85058E-05-2.85940E-05 5.72387E-08-2.01227E-18-9.54418E-19
 -1      3517 9.52146E-05-2.84875E-05-2.85972E-05 6.31073E-08-7.48957E-19 1.14271E-18
 -1      3518 9.52344E-05-2.85344E-05-2.85859E-05 2.45909E-08 1.28853E-18-7.95097E-19
 -1      3519 9.52329E-05-2.85264E-05-2.85883E-05 3.38706E-08 6.20705E-19-4.00714E-19
 -1      3520 9.52264E-05-2.85133E-05-2.85913E-05 3.83817E-08-2.35048E-19-6.74412E-19
 -1      3521 9.52387E-05-2.85479E-05-2.85819E-05 1.11488E-08 1.85665E-19-1.33674E-19
 -1      3522 9.52377E-05-2.85420E-05-2.85837E-05 1.75053E-08 2.79603E-19-6.20240E-19
 -1      3523 9.52346E-05-2.85330E-05-2.85864E-05 2.09721E-08 1.42893E-19 1.58989E-19
 -1      3524 9.52412E-05-2.85577E-05-2.85787E-05 2.28024E-09 2.50024E-19-4.19045E-19
 -1      3525 9.52406E-05-2.85534E-05-2.85801E-05 6.44812E-09 4.83305E-19-7.85237E-19
 -1      3526 9.52398E-05-2.85475E-05-2.85824E-05 9.09594E-09 3.85354E-19 3.40176E-19
 -1      3527 9.52424E-05-2.85646E-05-2.85763E-05-3.24849E-09 1.23407E-18-9.22023E-19
 -1      3528 9.52422E-05-2.85616E-05-2.85773E-05-6.78017E-10 1.19892E-18-8.56134E-19
 -1      3529 9.52428E-05-2.85579E-05-2.85792E-05 1.32191E-09 5.01131E-19-1.65706E-18
 -1      3530 9.52428E-05-2.85691E-05-2.85745E-05-6.40209E-09-3.73129E-19-5.98424E-19
 -1      3531 9.52428E-05-2.85671E-05-2.85752E-05-4.96506E-09 5.10350E-19-6.38399E-19
 -1      3532 9.52442E-05-2.85651E-05-2.85768E-05-3.47751E-09 5.68325E-19-1.00465E-18
 -1      3533 9.52427E-05-2.85720E-05-2.85732E-05-7.91852E-09 1.23477E-18-1.10360E-18
 -1      3534 9.52428E-05-2.85708E-05-2.85737E-05-7.25948E-09 1.11462E-20-1.26340E-18
 -1      3535 9.52447E-05-2.85698E-05-2.85749E-05-6.17416E-09 3.77894E-19-1.06790E-18
 -1      3536 9.52422E-05-2.85737E-05-2.85722E-05-8.35000E-09 1.54217E-19-1.23690E-19
 -1      3537 9.52424E-05-2.85729E-05-2.85726E-05-8.20307E-09 7.57450E-19-2.54424E-19
 -1      3538 9.52444E-05-2.85728E-05-2.85736E-05-7.42960E-09 6.15289E-19-2.33207E-19
 -1      3539 9.52416E-05-2.85745E-05-2.85716E-05-8.10011E-09-9.02246E-19-3.38328E-19
 -1      3540 9.52418E-05-2.85741E-05-2.85719E-05-8.27140E-09-4.61548E-19-4.20471E-21
 -1      3541 9.52438E-05-2.85744E-05-2.85726E-05-7.73577E-09-2.71378E-20 5.49356E-19
 -1      3542 9.52409E-05-2.85748E-05-2.85712E-05-7.45593E-09-6.21057E-19 3.99119E-20
 -1      3543 9.52411E-05-2.85747E-05-2.85713E-05-7.80809E-09-6.70038E-19-1.18139E-18
 -1      3544 9.52429E-05-2.85752E-05-2.85719E-05-7.45041E-09-4.77936E-20-1.18341E-18
 -1      3545 9.52402E-05-2.85747E-05-2.85709E-05-6.61480E-09 2.66601E-19-7.39578E-19
 -1      3546 9.52405E-05-2.85747E-05-2.85710E-05-7.05400E-09-5.38574E-19-5.59315E-19
 -1      3547 9.52420E-05-2.85754E-05-2.85714E-05-6.82678E-09-5.70996E-19-8.83042E-19
 -1      3548 9.52396E-05-2.85744E-05-2.85708E-05-5.70695E-09 1.05336E-18-1.20800E-20
 -1      3549 9.52398E-05-2.85745E-05-2.85708E-05-6.17204E-09 7.59907E-19-6.85300E-19
 -1      3550 9.52411E-05-2.85752E-05-2.85711E-05-6.03823E-09-9.76230E-20-1.38004E-18
 -1      3551 9.52391E-05-2.85741E-05-2.85707E-05-4.81069E-09 1.29167E-18-1.72397E-18
 -1      3552 9.52392E-05-2.85742E-05-2.85707E-05-5.26752E-09 1.18474E-18-4.72400E-19
 -1      3553 9.52403E-05-2.85749E-05-2.85709E-05-5.19978E-09 1.19700E-18-1.74952E-18
 -1      3554 9.52386E-05-2.85737E-05-2.85707E-05-3.96682E-09 1.40847E-18-1.86486E-18
 -1      3555 9.52387E-05-2.85739E-05-2.85707E-05-4.39748E-09 1.52410E-18-1.51889E-18
 -1      3556 9.52396E-05-2.85744E-05-2.85708E-05-4.38433E-09 1.57130E-18-3.01472E-18
 -1      3557 9.52385E-05-2.85736E-05-2.85706E-05-3.45085E-09 2.34414E-18-1.32927E-18
 -1      3558 9.52408E-05-2.85754E-05-2.85709E-05-3.49596E-10 1.49524E-18 1.52807E-18
 -1      3559 9.52407E-05-2.85753E-05-2.85709E-05-9.24855E-10 2.28433E-18 1.78868E-18
 -1      3560 1.33152E-04-5.56975E-05-3.38200E-05 1.28459E-06 9.88911E-19-5.59889E-19
 -1      3561 1.26589E-04-5.43438E-05-3.09814E-05 1.14670E-05-5.88370E-19-8.93461E-19
 -1      3562 1.01251E-04-3.39249E-05-2.88268E-05-5.19488E-07-4.97884E-19 1.53406E-19
 -1      3563 1.02011E-04-3.45581E-05-2.89248E-05-1.24988E-06 8.23092E-20 3.16636E-19
 -1      3564 1.03465E-04-3.57050E-05-2.90607E-05-7.09849E-07 1.15093E-19 7.62764E-19
 -1      3565 1.01142E-04-3.40413E-05-2.87817E-05 6.19856E-07-4.82112E-19 6.20385E-22
 -1      3566 6.77423E-05-1.07081E-05-2.45258E-05-5.85350E-06 9.10584E-19-3.07844E-19
 -1      3567 7.23267E-05-1.23980E-05-2.57765E-05-5.21984E-06 3.46397E-19-1.03120E-19
 -1      3568 7.29266E-05-1.26427E-05-2.56291E-05-9.16577E-07 3.88494E-19 4.90705E-19
 -1      3569 9.52407E-05-2.85753E-05-2.85709E-05 9.02715E-10 5.25262E-19 5.16988E-20
 -1      3570 9.52408E-05-2.85754E-05-2.85709E-05 3.21993E-10 1.12040E-18 7.40478E-19
 -1      3571 9.52412E-05-2.85756E-05-2.85710E-05-1.79685E-11 1.80869E-18 1.50696E-18
 -1      3572 1.04090E-04-3.93436E-05-2.76161E-05-3.30343E-05-2.46836E-18-1.23508E-18
 -1      3573 1.25476E-04-3.50125E-05-3.93045E-05-1.02187E-05 8.80173E-19-1.73927E-18
 -1      3574 1.25983E-04-4.01449E-05-3.66402E-05-2.42477E-06 8.13363E-19-1.61360E-18
 -1      3575 9.94284E-05-4.32503E-05-2.42613E-05 3.18047E-05-2.03068E-18 2.80368E-19
 -1      3576 8.76601E-05-3.47862E-05-2.26773E-05 3.28625E-05-2.87515E-18 1.50216E-18
 -1      3577 1.15102E-04-1.53315E-05-4.28369E-05 1.13891E-05 2.33294E-18 5.99567E-19
 -1      3578 1.11906E-04-1.15330E-05-4.32467E-05 6.79445E-06 2.70553E-18 2.09661E-19
 -1      3579 1.22647E-04-3.75763E-05-3.66457E-05 5.07232E-06-1.22668E-19 7.00040E-19
 -1      3580 1.24690E-04-4.01674E-05-3.63065E-05 8.12401E-07-5.90812E-19 6.48271E-19
 -1      3581 1.19011E-04-5.32450E-05-2.84779E-05 2.09246E-05-9.97752E-19-8.87935E-19
 -1      3582 1.09352E-04-4.82406E-05-2.59451E-05 2.75925E-05-1.80599E-18-4.55280E-19
 -1      3583 1.20774E-04-2.68154E-05-4.03236E-05 1.33596E-05 1.14934E-18 9.27064E-19
 -1      3584 1.17744E-04-2.06679E-05-4.19203E-05 1.34618E-05 1.65931E-18 5.90395E-19
 -1      3585 9.52391E-05-2.85741E-05-2.85707E-05-3.44165E-09 1.39602E-18-1.55259E-18
 -1      3586 9.52397E-05-2.85745E-05-2.85708E-05-3.01462E-09 1.49067E-18 4.78784E-19
 -1      3587 9.52398E-05-2.85746E-05-2.85708E-05-3.56986E-09 7.16439E-19-1.29029E-19
 -1      3588 9.52401E-05-2.85748E-05-2.85708E-05-2.62454E-09 2.06630E-18 1.00075E-18
 -1      3589 1.01932E-04-2.35654E-05-3.36626E-05-8.03255E-06 8.25055E-19-3.12883E-19
 -1      3590 1.01087E-04-2.16402E-05-3.40195E-05-6.12307E-06 1.07942E-18-2.82959E-19
 -1      3591 1.05020E-04-2.46562E-05-3.44654E-05-9.25090E-06 8.39893E-19-2.62775E-19
 -1      3592 1.13589E-04-1.92041E-05-4.05658E-05 1.19383E-05 1.72849E-18 4.93086E-19
 -1      3593 5.88511E-05-1.15866E-05-1.98704E-05 1.71838E-05-7.90196E-19 3.19416E-18
 -1      3594 5.93547E-05-1.01946E-05-2.10907E-05 1.08480E-05-2.93828E-19 2.37100E-18
 -1      3595 6.61836E-05-1.58892E-05-2.15056E-05 2.03596E-05-1.12311E-18 2.97687E-18
 -1      3596 1.22263E-04-3.25522E-05-3.85381E-05 1.07394E-05 5.47819E-19 7.54309E-19
 -1      3597 1.21932E-04-2.99771E-05-3.96246E-05 1.26318E-05 9.21387E-19 7.77126E-19
 -1      3598 1.17266E-04-2.59604E-05-3.91294E-05 1.37053E-05 9.81923E-19 5.59558E-19
 -1      3599 1.11997E-04-3.03021E-05-3.49499E-05 1.09306E-05 4.50946E-19 8.98318E-21
 -1      3600 9.52406E-05-2.85752E-05-2.85709E-05-1.54556E-09 2.54483E-18 2.77083E-18
 -1      3601 9.52403E-05-2.85750E-05-2.85708E-05-2.05491E-09 2.20564E-18 1.99543E-18
 -1      3602 9.52407E-05-2.85753E-05-2.85709E-05-2.54482E-09 1.74570E-18 2.09608E-18
 -1      3603 9.52411E-05-2.85756E-05-2.85710E-05-1.33000E-09 2.15857E-18 1.76523E-18
 -1      3604 9.52402E-05-2.85750E-05-2.85708E-05 2.05376E-09 3.19185E-19 1.98878E-18
 -1      3605 9.52405E-05-2.85752E-05-2.85708E-05 1.53680E-09 3.01170E-19 8.32351E-19
 -1      3606 9.52410E-05-2.85755E-05-2.85709E-05 1.32043E-09-2.66851E-19 6.56609E-19
 -1      3607 1.09662E-04-1.18310E-05-4.21382E-05 3.16727E-06 2.47105E-18 2.02368E-19
 -1      3608 1.07673E-04-1.32332E-05-4.05348E-05-8.62097E-07 2.16768E-18 3.13799E-19
 -1      3609 1.08104E-04-1.39586E-05-4.03425E-05 5.62606E-06 2.28170E-18 5.35715E-19
 -1      3610 1.02019E-04-2.15215E-05-3.44645E-05 8.19085E-06 1.78406E-18 4.50660E-19
 -1      3611 1.03131E-04-2.31377E-05-3.43299E-05 1.00711E-05 1.66125E-18 4.98059E-19
 -1      3612 1.05061E-04-3.05382E-05-3.19233E-05-1.03660E-05 2.76603E-19-4.18838E-19
 -1      3613 1.07200E-04-2.99719E-05-3.31017E-05-1.06105E-05 4.96269E-19-7.16133E-19
 -1      3614 1.05922E-04-3.28516E-05-3.13949E-05-1.01310E-05-5.87199E-20-3.95988E-19
 -1      3615 1.04197E-04-2.44556E-05-3.41511E-05 1.12710E-05 1.45375E-18 3.89882E-19
 -1      3616 1.05153E-04-2.58520E-05-3.40159E-05 1.22536E-05 1.18565E-18 2.93127E-19
 -1      3617 1.07744E-04-2.62774E-05-3.49168E-05 1.27368E-05 1.12176E-18 2.44223E-19
 -1      3618 1.05828E-04-2.32667E-05-3.53732E-05 1.13580E-05 1.56693E-18 5.15555E-19
 -1      3619 1.13865E-04-1.65614E-05-4.18706E-05-8.03960E-06 2.10194E-18-9.77436E-19
 -1      3620 1.28025E-04-4.55342E-05-3.49283E-05-4.86569E-06 2.40134E-18-1.21422E-18
 -1      3621 1.26232E-04-4.77393E-05-3.34318E-05-3.34505E-06 1.08081E-18-5.83394E-19
 -1      3622 1.20490E-04-3.59477E-05-3.56984E-05-7.66898E-06 2.39117E-18-4.05835E-19
 -1      3623 1.20549E-04-5.06856E-05-2.99120E-05 1.36249E-05-8.61141E-19-3.99826E-19
 -1      3624 1.17781E-04-2.56936E-05-3.95991E-05-1.17288E-05 1.50678E-18-1.46677E-18
 -1      3625 1.22499E-04-3.03786E-05-3.95219E-05-1.19917E-05 9.06570E-19-1.98020E-18
 -1      3626 1.20606E-04-3.37783E-05-3.74258E-05-9.42376E-06 9.33007E-19-9.69032E-19
 -1      3627 5.90059E-05-8.34037E-06-2.13372E-05-9.57373E-06 9.74290E-19-7.60477E-20
 -1      3628 6.13706E-05-8.87501E-06-2.24064E-05-4.21508E-06 8.43857E-19 7.44992E-19
 -1      3629 9.52387E-05-2.85738E-05-2.85707E-05 3.31731E-09-1.25381E-18-6.63990E-19
 -1      3630 9.52391E-05-2.85741E-05-2.85707E-05 3.13559E-09-1.22447E-18 1.66243E-18
 -1      3631 9.52388E-05-2.85739E-05-2.85707E-05 3.56251E-09-1.93277E-18-1.42766E-18
 -1      3632 6.20880E-05-8.81332E-06-2.24589E-05 2.41859E-06 3.87187E-19 9.00872E-19
 -1      3633 1.06425E-04-3.58322E-05-3.02939E-05-7.21950E-06-1.00099E-19-5.28282E-19
 -1      3634 1.06519E-04-3.48840E-05-3.07057E-05-8.73527E-06 2.57849E-20-3.38085E-19
 -1      3635 1.08843E-04-3.49851E-05-3.15654E-05-9.48653E-06-4.38439E-20-7.31109E-19
 -1      3636 1.07771E-04-3.69467E-05-3.03433E-05-5.54358E-06 7.82161E-20-2.83806E-19
 -1      3637 1.18515E-04-3.47764E-05-3.59398E-05 7.10957E-06 2.25655E-21 1.21976E-19
 -1      3638 1.21616E-04-3.41597E-05-3.74576E-05 9.95782E-06 2.83167E-19 6.70870E-19
 -1      3639 1.17711E-04-3.03042E-05-3.74884E-05 1.23288E-05 6.66430E-19 5.77710E-19
 -1      3640 1.15747E-04-3.22281E-05-3.59275E-05 1.02884E-05 3.37404E-19 1.89924E-19
 -1      3641 1.04802E-04-4.39609E-05-2.60100E-05 2.60964E-05-1.57842E-18 8.45974E-20
 -1      3642 1.00275E-04-1.93856E-05-3.46538E-05 2.72144E-06 1.86171E-18 1.14154E-19
 -1      3643 1.00851E-04-2.00880E-05-3.46507E-05 5.39666E-06 1.88508E-18 4.09157E-19
 -1      3644 1.03426E-04-1.97767E-05-3.58344E-05 7.60262E-06 1.98569E-18 6.63605E-19
 -1      3645 8.16470E-05-2.90246E-05-2.23520E-05 3.08708E-05-2.42740E-18 1.71196E-18
 -1      3646 7.58650E-05-2.33940E-05-2.24741E-05 2.60278E-05-1.74216E-18 1.73989E-18
 -1      3647 8.94056E-05-3.26312E-05-2.41834E-05 2.76401E-05-2.29822E-18 3.13177E-19
 -1      3648 9.52395E-05-2.85744E-05-2.85707E-05 2.84976E-09-2.97734E-19 2.36984E-18
 -1      3649 9.52399E-05-2.85747E-05-2.85708E-05 2.45473E-09-1.38710E-19 2.70047E-18
 -1      3650 9.52405E-05-2.85751E-05-2.85709E-05 2.38142E-09-4.11396E-19 1.56492E-18
 -1      3651 9.52397E-05-2.85746E-05-2.85708E-05 3.07075E-09-8.24228E-19 1.63168E-18
 -1      3652 1.00252E-04-2.00779E-05-3.43852E-05-3.34041E-06 1.27232E-18-7.97286E-20
 -1      3653 1.00027E-04-1.93370E-05-3.45730E-05-6.17123E-07 1.56129E-18-6.23504E-20
 -1      3654 1.02059E-04-1.82918E-05-3.59495E-05 1.33906E-06 1.81407E-18 3.06829E-19
 -1      3655 1.02761E-04-2.00301E-05-3.54851E-05-5.07205E-06 1.30408E-18-2.87975E-20
 -1      3656 1.10042E-04-2.79738E-05-3.51495E-05 1.29500E-05 9.02302E-19 3.69124E-19
 -1      3657 1.10486E-04-2.88488E-05-3.50539E-05 1.24731E-05 7.86740E-19 1.34124E-19
 -1      3658 1.13314E-04-3.05362E-05-3.54905E-05 1.12163E-05 4.68865E-19 1.60221E-19
 -1      3659 1.09366E-04-2.67247E-05-3.54264E-05 1.27492E-05 9.80049E-19 3.59259E-19
 -1      3660 8.35263E-05-1.89940E-05-2.77217E-05-3.96707E-07 5.26049E-19 4.62986E-19
 -1      3661 8.56416E-05-2.02817E-05-2.80315E-05-6.99726E-07 1.04766E-19 4.98659E-19
 -1      3662 8.72866E-05-2.13976E-05-2.82800E-05-1.21882E-06-1.23739E-19 2.95293E-19
 -1      3663 8.87275E-05-2.24135E-05-2.84362E-05-1.28086E-06-2.14969E-19 1.51117E-19
 -1      3664 8.63427E-05-2.09482E-05-2.79725E-05 7.32304E-07 7.54178E-20 2.03089E-20
 -1      3665 8.99013E-05-2.32989E-05-2.85698E-05-1.52219E-06-5.95400E-20 2.06029E-19
 -1      3666 9.08679E-05-2.40696E-05-2.86404E-05-1.45218E-06 8.22164E-19 2.58875E-20
 -1      3667 8.90641E-05-2.27992E-05-2.83617E-05-2.65227E-07 3.12621E-20 6.12039E-19
 -1      3668 9.16928E-05-2.47458E-05-2.87070E-05-1.52827E-06 3.08214E-19-7.33426E-19
 -1      3669 9.23316E-05-2.53148E-05-2.87313E-05-1.39812E-06-3.13522E-19-1.41912E-18
 -1      3670 9.09987E-05-2.42749E-05-2.85699E-05-7.36953E-07-2.49600E-19-1.66644E-19
 -1      3671 9.29037E-05-2.58181E-05-2.87597E-05-1.38358E-06-6.90051E-19-1.65100E-18
 -1      3672 9.33206E-05-2.62308E-05-2.87603E-05-1.23612E-06-6.62910E-19-2.29335E-18
 -1      3673 9.23535E-05-2.54106E-05-2.86721E-05-8.97953E-07-8.23891E-19-1.38094E-18
 -1      3674 9.37131E-05-2.65992E-05-2.87678E-05-1.17771E-06 1.57739E-20-1.86395E-18
 -1      3675 9.39822E-05-2.68952E-05-2.87573E-05-1.03594E-06 8.30138E-20-1.96254E-18
 -1      3676 9.32904E-05-2.62639E-05-2.87138E-05-8.88357E-07-4.32883E-20-1.37199E-18
 -1      3677 9.42494E-05-2.71620E-05-2.87540E-05-9.61309E-07-1.72669E-19-1.89883E-18
 -1      3678 9.44215E-05-2.73731E-05-2.87393E-05-8.35872E-07-5.77252E-19-1.74149E-18
 -1      3679 9.39323E-05-2.68951E-05-2.87224E-05-7.95151E-07-3.35119E-19-1.78610E-18
 -1      3680 9.46024E-05-2.75654E-05-2.87310E-05-7.60301E-07-1.14159E-18-1.99400E-18
 -1      3681 9.47116E-05-2.77158E-05-2.87157E-05-6.54769E-07-8.44844E-19-2.29758E-18
 -1      3682 9.43689E-05-2.73578E-05-2.87139E-05-6.69640E-07-9.09109E-19-1.81915E-18
 -1      3683 9.48335E-05-2.78541E-05-2.87055E-05-5.85919E-07-2.94485E-19-2.01270E-18
 -1      3684 9.49024E-05-2.79614E-05-2.86913E-05-5.00122E-07-2.86795E-19-1.84133E-18
 -1      3685 9.46644E-05-2.76953E-05-2.86977E-05-5.40280E-07-6.53150E-19-1.99816E-18
 -1      3686 9.49842E-05-2.80609E-05-2.86812E-05-4.41166E-07-8.64446E-19-1.53235E-18
 -1      3687 9.50274E-05-2.81376E-05-2.86687E-05-3.73173E-07-6.08359E-19-1.76561E-18
 -1      3688 9.48637E-05-2.79410E-05-2.86790E-05-4.21482E-07-2.11982E-19-1.21766E-18
 -1      3689 9.50822E-05-2.82093E-05-2.86594E-05-3.24774E-07-6.25771E-19-2.33641E-18
 -1      3690 9.51090E-05-2.82644E-05-2.86489E-05-2.72001E-07-1.17193E-18-2.14156E-18
 -1      3691 9.49976E-05-2.81199E-05-2.86605E-05-3.19375E-07-9.53394E-19-1.18946E-18
 -1      3692 9.51455E-05-2.83162E-05-2.86407E-05-2.33521E-07-1.25071E-18-2.86238E-18
 -1      3693 9.51620E-05-2.83558E-05-2.86321E-05-1.93307E-07-5.81539E-19-2.40101E-18
 -1      3694 9.50873E-05-2.82502E-05-2.86436E-05-2.35442E-07-1.59840E-18-1.84650E-18
 -1      3695 9.51861E-05-2.83931E-05-2.86252E-05-1.63524E-07-4.53146E-19-3.04250E-18
 -1      3696 9.51961E-05-2.84217E-05-2.86182E-05-1.33454E-07-6.98635E-19-3.22658E-18
 -1      3697 9.51470E-05-2.83451E-05-2.86289E-05-1.68733E-07-9.87904E-19-2.19379E-18
 -1      3698 9.52113E-05-2.84474E-05-2.86128E-05-1.12039E-07-6.21456E-19-3.07352E-18
 -1      3699 9.52170E-05-2.84671E-05-2.86075E-05-9.07462E-08 3.26493E-20-2.90713E-18
 -1      3700 9.51857E-05-2.84127E-05-2.86167E-05-1.18214E-07-1.08195E-18-2.04322E-18
 -1      3701 9.52273E-05-2.84868E-05-2.86028E-05-7.38172E-08-4.59424E-20-2.84609E-18
 -1      3702 9.52307E-05-2.85018E-05-2.85984E-05-5.76040E-08-9.56083E-19-2.88244E-18
 -1      3703 9.52110E-05-2.84619E-05-2.86066E-05-7.99861E-08-1.26948E-19-2.23728E-18
 -1      3704 9.52372E-05-2.85158E-05-2.85947E-05-4.54412E-08-5.59192E-19-2.39150E-18
 -1      3705 9.52390E-05-2.85264E-05-2.85913E-05-3.39973E-08 5.55612E-19-1.17331E-18
 -1      3706 9.52276E-05-2.84985E-05-2.85981E-05-5.09456E-08 3.55214E-19-1.64245E-18
 -1      3707 9.52428E-05-2.85363E-05-2.85883E-05-2.54713E-08-4.62569E-20-9.67040E-19
 -1      3708 9.52436E-05-2.85438E-05-2.85858E-05-1.76163E-08-5.56653E-19-7.50500E-19
 -1      3709 9.52379E-05-2.85246E-05-2.85914E-05-3.01200E-08 5.63911E-19-1.01977E-18
 -1      3710 9.52457E-05-2.85506E-05-2.85835E-05-1.18349E-08-2.72520E-19-2.38552E-20
 -1      3711 9.52459E-05-2.85558E-05-2.85816E-05-6.62877E-09 6.01495E-19 2.77709E-19
 -1      3712 9.52438E-05-2.85429E-05-2.85861E-05-1.56114E-08 7.66871E-20 8.77015E-20
 -1      3713 9.52468E-05-2.85604E-05-2.85798E-05-2.87403E-09 6.21679E-19 3.18640E-19
 -1      3714 9.52466E-05-2.85639E-05-2.85784E-05 4.13599E-10 9.50747E-19 7.88396E-19
 -1      3715 9.52468E-05-2.85556E-05-2.85819E-05-5.85524E-09 6.41952E-19-5.16492E-19
 -1      3716 9.52468E-05-2.85669E-05-2.85770E-05 2.70653E-09 7.02882E-19 6.51661E-19
 -1      3717 9.52465E-05-2.85692E-05-2.85760E-05 4.63497E-09 5.89999E-19-2.44110E-20
 -1      3718 9.52479E-05-2.85642E-05-2.85788E-05 4.06707E-10 1.24865E-18-4.32952E-19
 -1      3719 9.52462E-05-2.85711E-05-2.85750E-05 5.90127E-09 1.05303E-18 3.80525E-19
 -1      3720 9.52458E-05-2.85725E-05-2.85743E-05 6.89212E-09 1.50799E-18-1.39408E-19
 -1      3721 9.52479E-05-2.85697E-05-2.85764E-05 4.16180E-09 1.05160E-18 3.44243E-19
 -1      3722 9.52453E-05-2.85736E-05-2.85736E-05 7.46021E-09 2.27307E-18 3.68461E-19
 -1      3723 9.52448E-05-2.85744E-05-2.85730E-05 7.82597E-09 1.88826E-18 1.05539E-18
 -1      3724 9.52472E-05-2.85731E-05-2.85746E-05 6.16804E-09 2.16739E-18 4.94091E-19
 -1      3725 9.52442E-05-2.85749E-05-2.85725E-05 7.93858E-09 1.15947E-18 1.29415E-18
 -1      3726 9.52437E-05-2.85753E-05-2.85722E-05 7.90645E-09 1.01155E-18 7.51642E-19
 -1      3727 9.52462E-05-2.85751E-05-2.85734E-05 6.99511E-09 1.41528E-18 8.53421E-19
 -1      3728 9.52431E-05-2.85755E-05-2.85718E-05 7.73883E-09 4.34611E-19 1.30384E-18
 -1      3729 9.52427E-05-2.85756E-05-2.85716E-05 7.47032E-09 3.15468E-20 2.17015E-18
 -1      3730 9.52449E-05-2.85759E-05-2.85724E-05 7.06182E-09 2.63460E-19 5.84629E-19
 -1      3731 9.52420E-05-2.85755E-05-2.85713E-05 7.14592E-09 2.69447E-20 2.84502E-18
 -1      3732 9.52416E-05-2.85755E-05-2.85712E-05 6.75262E-09 1.33130E-18 2.05350E-18
 -1      3733 9.52437E-05-2.85762E-05-2.85718E-05 6.66884E-09 7.99428E-19 3.04853E-18
 -1      3734 9.52411E-05-2.85753E-05-2.85710E-05 6.35434E-09 7.57893E-19 6.75149E-19
 -1      3735 9.52407E-05-2.85751E-05-2.85710E-05 5.90987E-09 7.21147E-19 1.16619E-19
 -1      3736 9.52425E-05-2.85760E-05-2.85714E-05 6.02615E-09 2.60968E-19 2.04204E-18
 -1      3737 9.52402E-05-2.85749E-05-2.85709E-05 5.49296E-09 1.87923E-19-6.48678E-19
 -1      3738 9.52399E-05-2.85747E-05-2.85708E-05 5.04494E-09-9.91767E-19-1.22844E-18
 -1      3739 9.52414E-05-2.85756E-05-2.85711E-05 5.27080E-09-4.34428E-21-8.69943E-19
 -1      3740 9.52395E-05-2.85744E-05-2.85707E-05 4.63882E-09-7.52657E-19-1.56874E-18
 -1      3741 9.52393E-05-2.85742E-05-2.85707E-05 4.21704E-09-1.64029E-18-1.49906E-18
 -1      3742 9.52405E-05-2.85751E-05-2.85709E-05 4.49971E-09-1.10158E-18-8.76187E-19
 -1      3743 7.07278E-05-1.29664E-05-2.48771E-05 4.13412E-06-2.37897E-21 1.03999E-18
 -1      3744 7.51110E-05-1.46975E-05-2.59248E-05 2.84706E-06 3.14315E-19 1.08296E-18
 -1      3745 9.72091E-05-3.05577E-05-2.85509E-05 2.19566E-06-1.30035E-18-1.65505E-19
 -1      3746 9.78554E-05-3.12049E-05-2.85599E-05 2.18803E-06-7.88000E-19-1.52717E-19
 -1      3747 9.87134E-05-3.19804E-05-2.85779E-05 2.27237E-06-6.12923E-19-2.67621E-19
 -1      3748 9.95937E-05-3.28175E-05-2.86178E-05 2.11180E-06-4.50471E-19-1.04150E-19
 -1      3749 9.80595E-05-3.15738E-05-2.85207E-05 2.95346E-06-8.48612E-19 6.38651E-19
 -1      3750 9.55744E-05-2.88681E-05-2.85843E-05 1.63868E-06-1.75470E-18-4.16606E-19
 -1      3751 9.58565E-05-2.91688E-05-2.85748E-05 1.74939E-06-1.72932E-18-5.57583E-19
 -1      3752 9.52169E-05-2.84627E-05-2.86073E-05 1.33031E-06-3.37323E-19-4.79844E-19
 -1      3753 9.53834E-05-2.86423E-05-2.85985E-05 1.44967E-06-1.12321E-18-3.70576E-19
 -1      3754 9.52563E-05-2.86147E-05-2.85686E-05 1.71272E-06-1.55048E-18-7.17478E-19
 -1      3755 9.50389E-05-2.82473E-05-2.86248E-05 1.05208E-06 7.73542E-19-4.88128E-19
 -1      3756 9.51270E-05-2.83411E-05-2.86187E-05 1.16539E-06 4.76972E-19-2.86887E-19
 -1      3757 9.49879E-05-2.82731E-05-2.85967E-05 1.33261E-06 7.91849E-20-4.37432E-19
 -1      3758 9.49724E-05-2.81585E-05-2.86352E-05 8.14989E-07 7.69543E-19-6.76763E-19
 -1      3759 9.50109E-05-2.81956E-05-2.86323E-05 9.15400E-07 9.44964E-19-3.87103E-19
 -1      3760 9.48783E-05-2.81105E-05-2.86172E-05 1.01712E-06 1.07083E-18-3.39336E-19
 -1      3761 9.49702E-05-2.81480E-05-2.86390E-05 6.20178E-07 1.91942E-19-4.66483E-19
 -1      3762 9.49794E-05-2.81504E-05-2.86389E-05 7.05388E-07 6.17048E-19-4.02548E-19
 -1      3763 9.48625E-05-2.80626E-05-2.86296E-05 7.64518E-07 4.30367E-19-4.69640E-19
 -1      3764 9.50005E-05-2.81815E-05-2.86378E-05 4.64117E-07-2.23366E-19-4.75418E-19
 -1      3765 9.49941E-05-2.81647E-05-2.86397E-05 5.34255E-07-3.32105E-19-9.67668E-20
 -1      3766 9.48964E-05-2.80825E-05-2.86348E-05 5.67003E-07-1.40721E-19 6.18435E-19
 -1      3767 9.50439E-05-2.82358E-05-2.86330E-05 3.41483E-07-3.95176E-19 5.61436E-19
 -1      3768 9.50306E-05-2.82101E-05-2.86363E-05 3.97871E-07-1.89025E-19-4.32641E-20
 -1      3769 9.49521E-05-2.81378E-05-2.86346E-05 4.15097E-07-6.04707E-19 2.86216E-19
 -1      3770 9.50890E-05-2.82964E-05-2.86263E-05 2.46653E-07 6.22262E-19 1.09778E-18
 -1      3771 9.50739E-05-2.82683E-05-2.86302E-05 2.91094E-07-4.33461E-20 4.84353E-19
 -1      3772 9.50129E-05-2.82073E-05-2.86307E-05 2.99714E-07-2.95200E-19 7.18701E-19
 -1      3773 9.51299E-05-2.83548E-05-2.86186E-05 1.74392E-07 3.27576E-19 9.31657E-19
 -1      3774 9.51157E-05-2.83280E-05-2.86227E-05 2.08788E-07 1.01982E-18 1.30509E-18
 -1      3775 9.50698E-05-2.82783E-05-2.86246E-05 2.12985E-07 2.52835E-19 1.55532E-18
 -1      3776 9.51640E-05-2.84067E-05-2.86108E-05 1.20132E-07 1.27106E-19 1.51989E-18
 -1      3777 9.51520E-05-2.83831E-05-2.86148E-05 1.46283E-07 2.16082E-19 1.03910E-18
 -1      3778 9.51185E-05-2.83438E-05-2.86174E-05 1.48438E-07 4.48543E-19 6.23905E-19
 -1      3779 9.51908E-05-2.84503E-05-2.86035E-05 8.00184E-08 6.72136E-20 2.20942E-18
 -1      3780 9.51813E-05-2.84306E-05-2.86071E-05 9.95405E-08 2.70251E-20 1.68561E-18
 -1      3781 9.51577E-05-2.84003E-05-2.86101E-05 1.00913E-07-2.41012E-19-3.93912E-19
 -1      3782 9.52108E-05-2.84854E-05-2.85969E-05 5.08767E-08-9.58484E-19 9.16110E-19
 -1      3783 9.52037E-05-2.84696E-05-2.86001E-05 6.51625E-08 6.27196E-19 1.93329E-18
 -1      3784 9.51878E-05-2.84469E-05-2.86030E-05 6.63459E-08 3.36070E-19 1.58709E-18
 -1      3785 9.52250E-05-2.85128E-05-2.85912E-05 3.01352E-08 1.93400E-19 5.69298E-19
 -1      3786 9.52200E-05-2.85005E-05-2.85939E-05 4.03549E-08-7.91061E-19 1.87204E-19
 -1      3787 9.52099E-05-2.84839E-05-2.85967E-05 4.15745E-08-8.25494E-20 1.28983E-18
 -1      3788 9.52346E-05-2.85333E-05-2.85864E-05 1.57369E-08-5.57535E-19 8.91265E-19
 -1      3789 9.52313E-05-2.85242E-05-2.85887E-05 2.28532E-08 9.05332E-20 1.07904E-18
 -1      3790 9.52254E-05-2.85124E-05-2.85912E-05 2.41497E-08-2.89145E-19 1.84123E-18
 -1      3791 9.52407E-05-2.85484E-05-2.85825E-05 6.05633E-09 1.36833E-18 8.15541E-19
 -1      3792 9.52387E-05-2.85417E-05-2.85843E-05 1.08462E-08 1.20634E-19 9.25616E-19
 -1      3793 9.52357E-05-2.85336E-05-2.85865E-05 1.21815E-08 8.14613E-20 1.02763E-18
 -1      3794 9.52442E-05-2.85590E-05-2.85794E-05-1.75915E-10 8.26086E-19-8.23071E-19
 -1      3795 9.52431E-05-2.85543E-05-2.85809E-05 2.90425E-09 1.78951E-18 4.15057E-19
 -1      3796 9.52421E-05-2.85490E-05-2.85827E-05 4.21815E-09 1.38964E-18 3.72056E-19
 -1      3797 9.52458E-05-2.85662E-05-2.85770E-05-3.93839E-09 1.29559E-19-1.32704E-18
 -1      3798 9.52454E-05-2.85630E-05-2.85781E-05-2.08683E-09 9.15526E-19-1.40378E-18
 -1      3799 9.52456E-05-2.85598E-05-2.85796E-05-8.49231E-10 1.25970E-18-1.06778E-18
 -1      3800 9.52463E-05-2.85709E-05-2.85752E-05-5.97517E-09-1.12485E-19-1.71098E-18
 -1      3801 9.52463E-05-2.85688E-05-2.85760E-05-4.98337E-09-1.56345E-19-1.96152E-18
 -1      3802 9.52473E-05-2.85670E-05-2.85772E-05-3.86112E-09 2.35837E-19-3.86949E-18
 -1      3803 9.52459E-05-2.85737E-05-2.85738E-05-6.84334E-09 1.68200E-19-6.76641E-19
 -1      3804 9.52461E-05-2.85725E-05-2.85744E-05-6.43363E-09 3.74954E-20-1.19297E-18
 -1      3805 9.52476E-05-2.85717E-05-2.85754E-05-5.44834E-09-5.51715E-19-2.86105E-18
 -1      3806 9.52451E-05-2.85752E-05-2.85728E-05-6.95257E-09 8.86785E-19-7.41159E-19
 -1      3807 9.52455E-05-2.85746E-05-2.85732E-05-6.92010E-09 1.90204E-19-9.37823E-20
 -1      3808 9.52470E-05-2.85744E-05-2.85740E-05-6.07849E-09 4.15266E-20-1.08552E-18
 -1      3809 9.52440E-05-2.85759E-05-2.85721E-05-6.59780E-09 1.39684E-19-3.96070E-19
 -1      3810 9.52445E-05-2.85756E-05-2.85724E-05-6.79495E-09 1.10651E-18-5.04660E-20
 -1      3811 9.52460E-05-2.85759E-05-2.85730E-05-6.09272E-09 5.08749E-19-2.34257E-19
 -1      3812 9.52429E-05-2.85759E-05-2.85716E-05-5.98612E-09-6.15750E-19-3.82249E-19
 -1      3813 9.52434E-05-2.85759E-05-2.85718E-05-6.30941E-09-9.15620E-19-6.79496E-19
 -1      3814 9.52448E-05-2.85764E-05-2.85722E-05-5.73520E-09-1.22191E-20 1.72552E-19
 -1      3815 9.52419E-05-2.85757E-05-2.85712E-05-5.25642E-09 5.50595E-19-1.45753E-18
 -1      3816 9.52423E-05-2.85758E-05-2.85714E-05-5.63648E-09 2.13049E-19-7.72729E-19
 -1      3817 9.52436E-05-2.85764E-05-2.85717E-05-5.17621E-09-8.01076E-21 5.65449E-19
 -1      3818 9.52409E-05-2.85752E-05-2.85710E-05-4.50044E-09 1.81318E-18-7.89051E-19
 -1      3819 9.52413E-05-2.85754E-05-2.85711E-05-4.89296E-09 1.77368E-18-7.92320E-19
 -1      3820 9.52424E-05-2.85760E-05-2.85713E-05-4.52921E-09 1.41744E-18 1.30581E-18
 -1      3821 9.52402E-05-2.85748E-05-2.85709E-05-3.83580E-09 8.36813E-19-3.59094E-19
 -1      3822 9.52405E-05-2.85751E-05-2.85709E-05-4.21033E-09 1.19993E-18-4.93034E-19
 -1      3823 9.52415E-05-2.85756E-05-2.85711E-05-3.92370E-09 1.59091E-18 2.76659E-18
 -1      3824 9.52408E-05-2.85752E-05-2.85709E-05-3.38344E-09 9.09376E-19 2.81199E-18
 -1      3825 1.08344E-04-4.50514E-05-2.73053E-05 2.17542E-05-1.24142E-18-5.11211E-19
 -1      3826 1.00228E-04-3.97611E-05-2.58950E-05 2.50202E-05-1.68776E-18-2.09455E-19
 -1      3827 9.62017E-05-2.95400E-05-2.85612E-05 1.94761E-06-1.64602E-18-4.48046E-19
 -1      3828 9.66437E-05-2.99992E-05-2.85560E-05 2.02226E-06-1.56232E-18-3.13647E-20
 -1      3829 9.66625E-05-3.01745E-05-2.85139E-05 2.58844E-06-1.60958E-18 2.74883E-19
 -1      3830 1.06525E-04-3.77895E-05-2.94149E-05-6.17969E-07 1.17019E-19-1.49291E-19
 -1      3831 1.07667E-04-3.83457E-05-2.97405E-05-1.78135E-06 1.32867E-19-4.08200E-19
 -1      3832 6.58375E-05-1.14451E-05-2.32486E-05 7.02156E-06-3.38621E-19 1.31380E-18
 -1      3833 1.09707E-04-1.62228E-05-4.01473E-05-6.81819E-06 1.98177E-18-6.15687E-20
 -1      3834 1.13711E-04-2.03236E-05-4.01417E-05-1.04815E-05 1.83054E-18-9.78661E-19
 -1      3835 9.52418E-05-2.85760E-05-2.85711E-05 3.19943E-10 4.62907E-19 5.38776E-19
 -1      3836 9.52418E-05-2.85760E-05-2.85711E-05-3.69258E-10 1.25904E-18 3.04692E-19
 -1      3837 1.20875E-04-4.86442E-05-3.10517E-05 8.57549E-06-1.16472E-18-1.43387E-19
 -1      3838 1.15210E-04-4.74895E-05-2.88136E-05 1.67524E-05-1.33218E-18-6.88042E-19
 -1      3839 7.81987E-05-1.61179E-05-2.66971E-05 1.25542E-06 3.85134E-19 6.36100E-19
 -1      3840 8.12567E-05-1.76646E-05-2.72786E-05 5.61442E-07 5.86335E-19 7.01156E-19
 -1      3841 8.25805E-05-1.87469E-05-2.72793E-05 2.57064E-06 2.25465E-19 9.51122E-19
 -1      3842 1.11691E-04-2.14948E-05-3.86569E-05 1.25644E-05 1.56608E-18 4.05242E-19
 -1      3843 1.09102E-04-1.77396E-05-3.93715E-05 1.02745E-05 2.01746E-18 4.99324E-19
 -1      3844 1.08446E-04-2.63592E-05-3.53286E-05-1.04464E-05 9.88329E-19-2.88018E-19
 -1      3845 1.07133E-04-2.32615E-05-3.59872E-05-9.11355E-06 1.08216E-18-1.51553E-19
 -1      3846 7.27759E-05-1.96572E-05-2.25248E-05 2.25584E-05-1.45400E-18 2.25071E-18
 -1      3847 7.00785E-05-1.67155E-05-2.29678E-05 1.77052E-05-9.33113E-19 2.23423E-18
 -1      3848 7.95878E-05-2.37939E-05-2.38515E-05 2.25764E-05-1.22009E-18 1.29637E-18
 -1      3849 1.09923E-04-3.98324E-05-3.00615E-05-1.04714E-06-3.07033E-20-9.13404E-19
 -1      3850 1.09394E-04-3.87739E-05-3.02368E-05-3.39157E-06 1.79505E-19-4.49598E-19
 -1      3851 1.10096E-04-3.84758E-05-3.07333E-05-4.83135E-06 2.75947E-20-4.73184E-19
 -1      3852 9.52418E-05-2.85759E-05-2.85711E-05-1.10311E-09 1.32266E-18 4.40409E-19
 -1      3853 9.52417E-05-2.85759E-05-2.85711E-05-1.74138E-09 1.71144E-18 1.37347E-18
 -1      3854 9.52424E-05-2.85763E-05-2.85712E-05-7.71622E-10 2.67188E-19-7.85397E-19
 -1      3855 1.06725E-04-1.69164E-05-3.85381E-05 7.10043E-06 2.07704E-18 6.14271E-19
 -1      3856 6.98002E-05-1.37825E-05-2.37621E-05 1.11549E-05-3.80983E-19 2.34394E-18
 -1      3857 9.52389E-05-2.85740E-05-2.85707E-05 3.81396E-09-1.82679E-18-1.87559E-18
 -1      3858 1.07387E-04-2.32342E-05-3.60733E-05 1.16519E-05 1.43130E-18 6.04600E-19
 -1      3859 1.08468E-04-2.49781E-05-3.58286E-05 1.27562E-05 1.12750E-18 5.81654E-19
 -1      3860 1.11004E-04-2.68776E-05-3.60283E-05 1.30963E-05 8.39906E-19 3.77168E-19
 -1      3861 1.20167E-04-3.57003E-05-3.61012E-05-8.53248E-06 1.63742E-18-9.98142E-19
 -1      3862 1.17713E-04-3.65842E-05-3.46102E-05-8.20786E-06 2.19720E-18-1.24048E-18
 -1      3863 1.17470E-04-3.27857E-05-3.63666E-05-1.02972E-05 1.61053E-18-1.27624E-18
 -1      3864 9.57748E-05-2.92173E-05-2.85373E-05 2.14492E-06-1.59581E-18-2.62720E-19
 -1      3865 7.74493E-05-1.63084E-05-2.60787E-05 5.68443E-06 1.14316E-19 1.25184E-18
 -1      3866 1.00104E-04-3.34579E-05-2.85975E-05 3.07499E-06-1.27133E-19 8.59216E-19
 -1      3867 1.00804E-04-3.38022E-05-2.86837E-05 2.00003E-06-2.27253E-19 9.52356E-20
 -1      3868 1.01906E-04-3.47694E-05-2.87805E-05 1.59136E-06-1.50189E-19 3.81106E-19
 -1      3869 1.10938E-04-4.43411E-05-2.84026E-05 1.65102E-05-1.54451E-18-6.62380E-19
 -1      3870 9.92539E-05-3.70250E-05-2.65618E-05 2.07462E-05-1.51997E-18-7.22317E-19
 -1      3871 9.49119E-05-3.55822E-05-2.53814E-05 2.52374E-05-1.91127E-18-1.70730E-19
 -1      3872 8.88388E-05-3.04916E-05-2.50288E-05 2.33107E-05-1.43222E-18 1.70677E-19
 -1      3873 1.13705E-04-2.48080E-05-3.81933E-05-1.06092E-05 1.41796E-18-5.37892E-19
 -1      3874 1.22609E-04-4.32546E-05-3.29306E-05-4.59237E-06 5.54807E-20-1.74955E-18
 -1      3875 1.23027E-04-4.69591E-05-3.19703E-05 2.51005E-06-8.01267E-19-4.17905E-19
 -1      3876 1.17993E-04-4.55340E-05-3.05460E-05 6.19373E-06-1.48088E-18-3.78094E-19
 -1      3877 1.14345E-04-3.00406E-05-3.60735E-05 1.21246E-05 6.42154E-19 2.28068E-19
 -1      3878 1.03479E-04-3.58751E-05-2.89330E-05 1.12807E-06-4.19206E-19 5.36837E-19
 -1      3879 1.04707E-04-3.67988E-05-2.91226E-05 3.66821E-07-1.28296E-20 2.68461E-19
 -1      3880 1.02876E-04-3.57477E-05-2.88097E-05 2.68778E-06-1.41913E-19 5.37404E-19
 -1      3881 9.52417E-05-2.85759E-05-2.85710E-05 1.10001E-09-1.87815E-20 8.75943E-19
 -1      3882 9.52422E-05-2.85762E-05-2.85712E-05 7.63870E-10-3.41585E-19-2.51452E-20
 -1      3883 9.52415E-05-2.85757E-05-2.85710E-05 1.73549E-09 4.41125E-19 1.29743E-18
 -1      3884 1.06289E-04-3.81149E-05-2.92546E-05 1.43525E-06-4.24553E-19-2.85081E-19
 -1      3885 9.52396E-05-2.85745E-05-2.85708E-05 3.72425E-09-1.80960E-18-6.90088E-19
 -1      3886 9.52401E-05-2.85748E-05-2.85708E-05 3.41177E-09-1.59891E-18 9.93051E-19
 -1      3887 1.06165E-04-2.11506E-05-3.65600E-05 1.06202E-05 1.70077E-18 7.29448E-19
 -1      3888 1.09090E-04-2.26345E-05-3.70095E-05 1.22856E-05 1.50412E-18 6.78420E-19
 -1      3889 1.14028E-04-2.66139E-05-3.74772E-05 1.31787E-05 9.97593E-19 4.07830E-19
 -1      3890 1.12851E-04-2.44371E-05-3.80286E-05 1.32131E-05 1.10640E-18 3.01534E-19
 -1      3891 1.04935E-04-1.88655E-05-3.68524E-05 7.99387E-06 2.06020E-18 5.97560E-19
 -1      3892 9.47038E-05-2.79429E-05-2.86136E-05 9.38495E-07 7.70913E-19-1.40427E-20
 -1      3893 9.47316E-05-2.79764E-05-2.86049E-05 1.08294E-06 4.59038E-19-1.66850E-19
 -1      3894 9.52414E-05-2.85757E-05-2.85710E-05-2.30448E-09 1.90296E-18 1.39809E-18
 -1      3895 9.52412E-05-2.85755E-05-2.85710E-05-2.88504E-09 1.77488E-18 2.32253E-18
 -1      3896 9.52415E-05-2.85757E-05-2.85711E-05-3.14162E-09 1.07896E-18 3.57244E-18
 -1      3897 9.52421E-05-2.85761E-05-2.85712E-05-2.09545E-09 1.04842E-18 1.01762E-18
 -1      3898 1.09644E-04-2.95977E-05-3.43704E-05-1.05966E-05 8.50077E-19-6.47252E-19
 -1      3899 1.12275E-04-2.86298E-05-3.58724E-05-1.08246E-05 1.09074E-18-7.85769E-19
 -1      3900 8.58869E-05-2.12400E-05-2.77637E-05 2.57203E-06 1.97546E-19-1.98618E-19
 -1      3901 8.75059E-05-2.21187E-05-2.80201E-05 1.77813E-06 1.22551E-19-1.42263E-20
 -1      3902 8.85562E-05-2.28249E-05-2.82096E-05 9.85235E-07-1.26677E-19-1.74387E-19
 -1      3903 8.97166E-05-2.35617E-05-2.83527E-05 5.57678E-07-2.11801E-19-2.00754E-19
 -1      3904 8.84878E-05-2.30024E-05-2.80357E-05 2.60826E-06-3.45584E-20-4.31216E-19
 -1      3905 9.05245E-05-2.41690E-05-2.84636E-05 9.58614E-08-5.08233E-19-5.96315E-19
 -1      3906 9.13427E-05-2.47574E-05-2.85390E-05-1.04872E-07-8.25883E-19-1.09267E-18
 -1      3907 9.02917E-05-2.41221E-05-2.83355E-05 1.20064E-06-7.01342E-19-8.35001E-19
 -1      3908 9.19480E-05-2.52513E-05-2.86006E-05-3.54026E-07-8.71947E-19-7.89273E-19
 -1      3909 9.25170E-05-2.57065E-05-2.86362E-05-4.21759E-07-5.88249E-19-8.56332E-19
 -1      3910 9.16660E-05-2.51015E-05-2.85105E-05 3.83385E-07-7.68008E-19-6.63872E-19
 -1      3911 9.29618E-05-2.60945E-05-2.86676E-05-5.39873E-07 1.02392E-19-8.60818E-19
 -1      3912 9.33533E-05-2.64393E-05-2.86806E-05-5.35011E-07-2.32113E-19-6.35684E-19
 -1      3913 9.26886E-05-2.59105E-05-2.86067E-05-5.67416E-08-1.68229E-19-3.24301E-19
 -1      3914 9.36755E-05-2.67374E-05-2.86939E-05-5.76278E-07-6.32612E-19-1.18203E-18
 -1      3915 9.39425E-05-2.69951E-05-2.86946E-05-5.36021E-07-7.55167E-19-1.52770E-18
 -1      3916 9.34365E-05-2.65552E-05-2.86545E-05-2.65433E-07-8.72254E-19-9.92355E-19
 -1      3917 9.41736E-05-2.72209E-05-2.86976E-05-5.35166E-07-1.00781E-18-1.76986E-18
 -1      3918 9.43547E-05-2.74121E-05-2.86921E-05-4.81359E-07-9.46296E-19-1.85705E-18
 -1      3919 9.39766E-05-2.70575E-05-2.86734E-05-3.38835E-07-8.16523E-19-1.45505E-18
 -1      3920 9.45191E-05-2.75817E-05-2.86894E-05-4.59821E-07-9.53663E-19-1.58207E-18
 -1      3921 9.46414E-05-2.77230E-05-2.86813E-05-4.04547E-07-9.59026E-20-1.25285E-18
 -1      3922 9.43633E-05-2.74433E-05-2.86757E-05-3.38285E-07-6.23845E-19-1.11653E-18
 -1      3923 9.47577E-05-2.78496E-05-2.86759E-05-3.74996E-07 6.00241E-19-1.48047E-18
 -1      3924 9.48399E-05-2.79539E-05-2.86670E-05-3.24361E-07 1.03860E-19-1.30225E-18
 -1      3925 9.46380E-05-2.77367E-05-2.86691E-05-3.01521E-07-4.60881E-20-1.00051E-18
 -1      3926 9.49217E-05-2.80482E-05-2.86605E-05-2.93864E-07-4.87270E-19-1.17092E-18
 -1      3927 9.49769E-05-2.81251E-05-2.86520E-05-2.50448E-07-9.43254E-19-8.68463E-19
 -1      3928 9.48322E-05-2.79585E-05-2.86582E-05-2.50777E-07-3.85298E-22-1.89470E-18
 -1      3929 9.50341E-05-2.81950E-05-2.86454E-05-2.22600E-07-1.85519E-18-1.70420E-19
 -1      3930 9.50709E-05-2.82517E-05-2.86378E-05-1.87006E-07-1.43846E-18-7.24552E-19
 -1      3931 9.49687E-05-2.81254E-05-2.86458E-05-1.98406E-07-1.27803E-18-1.02938E-18
 -1      3932 9.51106E-05-2.83034E-05-2.86316E-05-1.63337E-07-1.30876E-18-8.87464E-19
 -1      3933 9.51350E-05-2.83450E-05-2.86250E-05-1.35171E-07-1.54554E-18-1.35974E-18
 -1      3934 9.50639E-05-2.82504E-05-2.86335E-05-1.50669E-07-1.26076E-18-6.46389E-19
 -1      3935 9.51611E-05-2.83814E-05-2.86197E-05-1.16983E-07-1.17733E-18-1.27918E-18
 -1      3936 9.51764E-05-2.84108E-05-2.86144E-05-9.61083E-08-7.62225E-19-1.57464E-18
 -1      3937 9.51285E-05-2.83416E-05-2.86224E-05-1.11060E-07-1.69272E-18-1.38579E-18
 -1      3938 9.51952E-05-2.84391E-05-2.86096E-05-8.09433E-08 1.44036E-19-1.56704E-18
 -1      3939 9.52057E-05-2.84617E-05-2.86050E-05-6.44176E-08 3.39932E-20-1.27526E-18
 -1      3940 9.51729E-05-2.84095E-05-2.86125E-05-7.89614E-08-1.15433E-19-2.15407E-19
 -1      3941 9.52182E-05-2.84823E-05-2.86009E-05-5.30244E-08-2.81977E-19-7.82251E-19
 -1      3942 9.52247E-05-2.84986E-05-2.85972E-05-4.09210E-08 8.20914E-19-6.51359E-19
 -1      3943 9.52037E-05-2.84609E-05-2.86038E-05-5.32672E-08 3.79705E-19-8.60965E-19
 -1      3944 9.52327E-05-2.85134E-05-2.85939E-05-3.26055E-08 1.33737E-18-5.91208E-19
 -1      3945 9.52366E-05-2.85250E-05-2.85909E-05-2.39823E-08 6.42397E-19-3.98457E-19
 -1      3946 9.52238E-05-2.84983E-05-2.85965E-05-3.39854E-08 1.08538E-18-1.82266E-19
 -1      3947 9.52415E-05-2.85355E-05-2.85882E-05-1.81144E-08 3.02737E-19-2.93671E-19
 -1      3948 9.52436E-05-2.85436E-05-2.85858E-05-1.21584E-08 4.25479E-19 7.24791E-20
 -1      3949 9.52365E-05-2.85251E-05-2.85905E-05-1.99801E-08 7.99170E-19-4.44965E-20
 -1      3950 9.52464E-05-2.85508E-05-2.85837E-05-8.17434E-09 5.25059E-19-2.87131E-20
 -1      3951 9.52474E-05-2.85564E-05-2.85819E-05-4.21474E-09 7.39527E-19 2.05560E-19
 -1      3952 9.52441E-05-2.85439E-05-2.85857E-05-1.01536E-08 6.84049E-19 2.47944E-19
 -1      3953 9.52487E-05-2.85613E-05-2.85802E-05-1.63817E-09 8.57755E-19 1.55932E-19
 -1      3954 9.52489E-05-2.85650E-05-2.85789E-05 8.62288E-10 1.33578E-18 3.46797E-19
 -1      3955 9.52481E-05-2.85569E-05-2.85819E-05-3.52979E-09 5.58446E-19 2.06752E-19
 -1      3956 9.52493E-05-2.85682E-05-2.85776E-05 2.41758E-09 1.69142E-18-1.18218E-20
 -1      3957 9.52491E-05-2.85706E-05-2.85765E-05 3.87866E-09 1.31906E-18 2.23895E-19
 -1      3958 9.52498E-05-2.85656E-05-2.85789E-05 7.12381E-10 1.43657E-18-1.57417E-19
 -1      3959 9.52489E-05-2.85725E-05-2.85756E-05 4.71580E-09 1.80409E-18-8.11749E-19
 -1      3960 9.52484E-05-2.85739E-05-2.85748E-05 5.45817E-09 3.29972E-18-9.92763E-19
 -1      3961 9.52500E-05-2.85712E-05-2.85767E-05 3.23541E-09 1.10823E-18-2.38228E-18
 -1      3962 9.52479E-05-2.85750E-05-2.85741E-05 5.80842E-09 2.27136E-18-6.64720E-19
 -1      3963 9.52473E-05-2.85757E-05-2.85735E-05 6.07168E-09 8.99650E-19-6.95968E-19
 -1      3964 9.52493E-05-2.85745E-05-2.85749E-05 4.55689E-09 2.77169E-18-2.10574E-18
 -1      3965 9.52466E-05-2.85762E-05-2.85730E-05 6.10682E-09 9.56399E-19-2.85789E-19
 -1      3966 9.52459E-05-2.85765E-05-2.85726E-05 6.06597E-09 1.37318E-18 1.64933E-19
 -1      3967 9.52480E-05-2.85762E-05-2.85736E-05 5.06974E-09 1.04675E-18-1.05055E-18
 -1      3968 9.52452E-05-2.85766E-05-2.85722E-05 5.90983E-09 6.66597E-19 1.46316E-19
 -1      3969 9.52445E-05-2.85767E-05-2.85719E-05 5.68942E-09 3.01305E-19 1.72900E-20
 -1      3970 9.52466E-05-2.85770E-05-2.85727E-05 5.06422E-09 1.46296E-18-1.62741E-18
 -1      3971 9.52438E-05-2.85765E-05-2.85717E-05 5.43006E-09-2.41881E-19-2.61078E-19
 -1      3972 9.52432E-05-2.85764E-05-2.85715E-05 5.11537E-09-6.00432E-19-1.11142E-18
 -1      3973 9.52451E-05-2.85770E-05-2.85720E-05 4.74772E-09-6.08270E-19-2.66497E-18
 -1      3974 9.52425E-05-2.85761E-05-2.85713E-05 4.81431E-09-3.97140E-19-1.70544E-18
 -1      3975 9.52420E-05-2.85759E-05-2.85712E-05 4.46522E-09-9.56274E-19-2.21263E-18
 -1      3976 9.52436E-05-2.85767E-05-2.85716E-05 4.26616E-09-1.46458E-18-3.03349E-18
 -1      3977 9.52413E-05-2.85756E-05-2.85710E-05 4.13912E-09-4.29562E-19-1.56476E-18
 -1      3978 9.52409E-05-2.85753E-05-2.85710E-05 3.79391E-09-1.13087E-18-5.06306E-19
 -1      3979 9.52423E-05-2.85762E-05-2.85712E-05 3.72568E-09-8.12958E-19-2.03916E-18
 -1      3980 1.10391E-04-3.22591E-05-3.35826E-05-1.04311E-05 5.06817E-19-7.58859E-19
 -1      3981 9.47290E-05-2.80216E-05-2.85903E-05 1.27938E-06-1.78575E-19-1.01620E-18
 -1      3982 9.48191E-05-2.81243E-05-2.85772E-05 1.46104E-06-6.58775E-19-1.36292E-18
 -1      3983 9.45375E-05-2.78388E-05-2.85872E-05 1.19309E-06-2.43069E-19-1.12560E-18
 -1      3984 9.48831E-05-2.82518E-05-2.85565E-05 1.71953E-06-1.42869E-18-1.37691E-18
 -1      3985 9.50749E-05-2.84620E-05-2.85398E-05 1.93968E-06-1.79211E-18-1.00652E-18
 -1      3986 9.45884E-05-2.79822E-05-2.85500E-05 1.66183E-06-1.10530E-18-1.92216E-18
 -1      3987 9.47477E-05-2.79552E-05-2.86272E-05 6.80743E-07-6.05462E-20 3.85967E-19
 -1      3988 9.47406E-05-2.79475E-05-2.86226E-05 7.92881E-07 3.28968E-19 9.91724E-20
 -1      3989 9.45833E-05-2.78235E-05-2.86119E-05 8.46414E-07 1.72929E-19 6.65117E-19
 -1      3990 9.48228E-05-2.80164E-05-2.86329E-05 4.88928E-07-6.58401E-19 1.14890E-18
 -1      3991 9.47986E-05-2.79868E-05-2.86316E-05 5.74609E-07-3.82965E-19 3.65957E-19
 -1      3992 9.46744E-05-2.78800E-05-2.86259E-05 5.94954E-07-3.63413E-19 7.82141E-19
 -1      3993 9.49061E-05-2.80991E-05-2.86330E-05 3.47710E-07-4.64255E-19 6.08388E-20
 -1      3994 9.48758E-05-2.80601E-05-2.86340E-05 4.12449E-07-4.02037E-19 6.48364E-19
 -1      3995 9.47800E-05-2.79711E-05-2.86318E-05 4.14931E-07-2.04237E-19 5.74593E-19
 -1      3996 9.49851E-05-2.81863E-05-2.86292E-05 2.44531E-07-4.47630E-19 1.33773E-19
 -1      3997 9.49550E-05-2.81456E-05-2.86318E-05 2.93028E-07-5.19880E-19-3.34249E-19
 -1      3998 9.48825E-05-2.80732E-05-2.86318E-05 2.87139E-07-3.43915E-19 2.26380E-20
 -1      3999 9.50537E-05-2.82681E-05-2.86233E-05 1.69609E-07 3.39471E-20 9.29376E-19
 -1      4000 9.50269E-05-2.82302E-05-2.86266E-05 2.05661E-07-8.34396E-20 5.89353E-19
 -1      4001 9.49731E-05-2.81725E-05-2.86281E-05 1.96915E-07-4.59200E-19 2.21377E-20
 -1      4002 9.51098E-05-2.83400E-05-2.86163E-05 1.15521E-07 6.94830E-19 2.69608E-19
 -1      4003 9.50876E-05-2.83069E-05-2.86200E-05 1.42106E-07 9.23154E-19 1.22427E-18
 -1      4004 9.50485E-05-2.82618E-05-2.86223E-05 1.33441E-07 2.95462E-19 4.67713E-19
 -1      4005 9.51535E-05-2.84001E-05-2.86091E-05 7.67582E-08-1.93554E-19 4.91854E-19
 -1      4006 9.51361E-05-2.83725E-05-2.86128E-05 9.61809E-08-9.86079E-21 8.72875E-20
 -1      4007 9.51084E-05-2.83379E-05-2.86154E-05 8.89348E-08 5.57784E-19 1.42055E-18
 -1      4008 9.51863E-05-2.84485E-05-2.86023E-05 4.92253E-08 1.29521E-19 6.59196E-19
 -1      4009 9.51733E-05-2.84264E-05-2.86057E-05 6.32512E-08 1.57983E-19 1.18064E-19
 -1      4010 9.51542E-05-2.84003E-05-2.86084E-05 5.78587E-08-1.37057E-19 3.30151E-19
 -1      4011 9.52100E-05-2.84862E-05-2.85962E-05 2.99127E-08-1.56710E-19 1.13839E-18
 -1      4012 9.52006E-05-2.84691E-05-2.85992E-05 3.98927E-08 3.17886E-19 1.35992E-18
 -1      4013 9.51879E-05-2.84498E-05-2.86017E-05 3.62910E-08-4.52229E-20-2.27443E-19
 -1      4014 9.52263E-05-2.85149E-05-2.85908E-05 1.65952E-08 3.51243E-19 4.96072E-19
 -1      4015 9.52199E-05-2.85019E-05-2.85934E-05 2.35618E-08 8.30308E-20 5.68006E-19
 -1      4016 9.52118E-05-2.84880E-05-2.85957E-05 2.14708E-08 3.37029E-19 2.47161E-19
 -1      4017 9.52370E-05-2.85360E-05-2.85863E-05 7.62551E-09 6.33573E-19-9.21408E-19
 -1      4018 9.52329E-05-2.85265E-05-2.85884E-05 1.23676E-08 4.90161E-19-3.07764E-19
 -1      4019 9.52282E-05-2.85167E-05-2.85905E-05 1.14387E-08 7.83460E-19-9.30136E-19
 -1      4020 9.52435E-05-2.85511E-05-2.85826E-05 1.78237E-09 1.54817E-18-1.74444E-18
 -1      4021 9.52411E-05-2.85443E-05-2.85843E-05 4.90100E-09 1.37864E-18-1.75045E-18
 -1      4022 9.52387E-05-2.85377E-05-2.85861E-05 4.79899E-09 1.82871E-18-1.79728E-18
 -1      4023 9.52470E-05-2.85615E-05-2.85796E-05-1.83999E-09 1.27464E-18-2.33976E-18
 -1      4024 9.52458E-05-2.85569E-05-2.85809E-05 1.11588E-10 1.57292E-18-2.00556E-18
 -1      4025 9.52450E-05-2.85526E-05-2.85824E-05 5.50985E-10 1.74811E-18-2.28548E-18
 -1      4026 9.52485E-05-2.85684E-05-2.85772E-05-3.91170E-09 2.79520E-19-2.35449E-18
 -1      4027 9.52481E-05-2.85654E-05-2.85783E-05-2.78301E-09 4.80350E-19-2.27855E-18
 -1      4028 9.52483E-05-2.85627E-05-2.85795E-05-2.02626E-09 7.22282E-19-1.80343E-18
 -1      4029 9.52487E-05-2.85728E-05-2.85754E-05-4.92582E-09-3.69010E-19-2.25008E-18
 -1      4030 9.52488E-05-2.85709E-05-2.85762E-05-4.36295E-09-1.78218E-19-2.51601E-18
 -1      4031 9.52495E-05-2.85694E-05-2.85772E-05-3.45362E-09 4.52703E-19-1.39705E-18
 -1      4032 9.52480E-05-2.85753E-05-2.85740E-05-5.24185E-09-6.99779E-19-1.03669E-18
 -1      4033 9.52484E-05-2.85742E-05-2.85746E-05-5.05518E-09-8.04290E-19-1.78975E-18
 -1      4034 9.52495E-05-2.85736E-05-2.85754E-05-4.10710E-09-1.05745E-18-1.67478E-18
 -1      4035 9.52468E-05-2.85765E-05-2.85730E-05-5.11844E-09 2.81522E-19 8.71627E-19
 -1      4036 9.52474E-05-2.85760E-05-2.85734E-05-5.17032E-09-2.00922E-19 2.60525E-19
 -1      4037 9.52486E-05-2.85759E-05-2.85740E-05-4.25669E-09-9.93319E-19-1.87124E-19
 -1      4038 9.52455E-05-2.85769E-05-2.85723E-05-4.73800E-09-1.56843E-19 9.38830E-19
 -1      4039 9.52461E-05-2.85768E-05-2.85726E-05-4.93064E-09 8.10081E-19 1.40710E-18
 -1      4040 9.52473E-05-2.85770E-05-2.85730E-05-4.09421E-09 1.99289E-19 1.15145E-18
 -1      4041 9.52441E-05-2.85767E-05-2.85717E-05-4.22678E-09 1.65443E-19 1.13105E-18
 -1      4042 9.52447E-05-2.85768E-05-2.85719E-05-4.49305E-09-5.79762E-19 7.52384E-19
 -1      4043 9.52458E-05-2.85772E-05-2.85723E-05-3.75367E-09-3.09215E-19 9.89108E-19
 -1      4044 9.52428E-05-2.85763E-05-2.85713E-05-3.67349E-09 1.34779E-18 2.81111E-18
 -1      4045 9.52434E-05-2.85765E-05-2.85715E-05-3.96200E-09 6.40720E-19 1.69654E-18
 -1      4046 9.52443E-05-2.85770E-05-2.85717E-05-3.32469E-09-1.18030E-19 9.60784E-19
 -1      4047 7.77653E-05-1.79238E-05-2.57701E-05 9.43134E-06-2.32573E-19 1.18613E-18
 -1      4048 8.07942E-05-1.89067E-05-2.65040E-05 7.22995E-06-9.03033E-21 9.38415E-19
 -1      4049 1.14909E-04-2.88356E-05-3.69370E-05 1.28343E-05 7.42629E-19 2.95853E-19
 -1      4050 9.59687E-05-2.95208E-05-2.84709E-05 2.91132E-06-1.37877E-18-4.42389E-19
 -1      4051 9.65387E-05-3.00996E-05-2.84610E-05 3.16885E-06-9.62124E-19 1.01319E-21
 -1      4052 9.52548E-05-2.87165E-05-2.85142E-05 2.26750E-06-1.51158E-18-8.15718E-19
 -1      4053 9.56020E-05-2.90830E-05-2.84971E-05 2.51870E-06-1.50454E-18-7.85527E-19
 -1      4054 9.48154E-05-2.83341E-05-2.85006E-05 2.27773E-06-1.13790E-18-1.53787E-18
 -1      4055 1.05487E-04-1.56585E-05-3.85394E-05-1.53624E-06 1.82876E-18 6.85468E-19
 -1      4056 1.07517E-04-1.53756E-05-3.96265E-05-4.41302E-06 1.83455E-18 3.88457E-19
 -1      4057 1.12013E-04-4.43269E-05-2.90572E-05 1.24616E-05-1.35247E-18-7.10714E-19
 -1      4058 1.06358E-04-4.11336E-05-2.77997E-05 1.64814E-05-1.13194E-18-9.78932E-19
 -1      4059 1.07293E-04-1.85105E-05-3.81033E-05-6.71556E-06 1.71801E-18 4.94637E-19
 -1      4060 9.52409E-05-2.85753E-05-2.85709E-05 3.08502E-09-7.35747E-19 9.12328E-19
 -1      4061 1.03992E-04-1.63249E-05-3.76609E-05 3.52923E-06 2.15365E-18 5.65190E-19
 -1      4062 1.11891E-04-3.87019E-05-3.14851E-05-7.47956E-06-3.39171E-19-5.89958E-19
 -1      4063 1.11547E-04-3.61194E-05-3.23493E-05-1.02721E-05-1.50150E-20-1.22227E-18
 -1      4064 1.14284E-04-3.51350E-05-3.36125E-05-1.06260E-05 5.50624E-19-1.59009E-18
 -1      4065 1.12909E-04-3.97901E-05-3.13641E-05-4.68844E-06 1.11873E-19-1.00302E-18
 -1      4066 7.47263E-05-1.72602E-05-2.45707E-05 1.32898E-05-7.29914E-19 1.84420E-18
 -1      4067 8.23512E-05-1.95233E-05-2.70071E-05 5.22070E-06-1.28038E-19 6.57325E-19
 -1      4068 8.45692E-05-2.04937E-05-2.74508E-05 3.86042E-06-7.73534E-20-2.70116E-20
 -1      4069 8.61951E-05-2.18457E-05-2.75413E-05 4.90684E-06-1.73057E-19-1.87758E-19
 -1      4070 9.71881E-05-3.07843E-05-2.84443E-05 3.59551E-06-7.85150E-19 4.82247E-19
 -1      4071 9.80546E-05-3.16266E-05-2.84563E-05 3.80483E-06-5.25257E-19 6.47914E-19
 -1      4072 9.63183E-05-3.01259E-05-2.83920E-05 3.96708E-06-4.41931E-19-1.94642E-19
 -1      4073 1.05644E-04-3.79281E-05-2.89624E-05 3.92609E-06-8.02148E-19-2.07561E-19
 -1      4074 1.07507E-04-3.92624E-05-2.92587E-05 3.17389E-06-8.63194E-19-6.93055E-19
 -1      4075 9.52430E-05-2.85766E-05-2.85713E-05-3.25909E-10 2.43147E-19-1.23580E-18
 -1      4076 9.52430E-05-2.85766E-05-2.85713E-05-1.07213E-09 7.63338E-19-6.01213E-19
 -1      4077 9.79717E-05-3.18452E-05-2.83758E-05 4.92591E-06-4.31032E-19-2.75104E-20
 -1      4078 9.91022E-05-3.26130E-05-2.84695E-05 4.18887E-06-3.47432E-19 6.34184E-19
 -1      4079 1.00327E-04-3.37404E-05-2.85286E-05 4.25076E-06-1.98922E-19 4.95192E-19
 -1      4080 1.03783E-04-1.61488E-05-3.75734E-05-7.75878E-08 1.80548E-18 5.20616E-19
 -1      4081 9.52430E-05-2.85766E-05-2.85713E-05 5.84884E-10 1.91088E-19-9.76335E-19
 -1      4082 9.52436E-05-2.85769E-05-2.85715E-05 3.21545E-10 8.55331E-19-3.20175E-19
 -1      4083 9.52428E-05-2.85765E-05-2.85713E-05 1.39767E-09 2.38766E-20 9.47966E-19
 -1      4084 7.91943E-05-2.01931E-05-2.51579E-05 1.48484E-05-8.20327E-19 1.28202E-18
 -1      4085 1.15604E-04-3.13553E-05-3.62335E-05-1.07142E-05 1.16570E-18-9.90579E-19
 -1      4086 1.15046E-04-3.37449E-05-3.49797E-05-9.95351E-06 1.24969E-18-1.38209E-18
 -1      4087 8.34132E-05-2.08850E-05-2.67485E-05 8.49501E-06-4.22911E-19 3.38475E-19
 -1      4088 1.15662E-04-3.59579E-05-3.35730E-05-1.09605E-05 8.06349E-19-2.26592E-18
 -1      4089 9.52419E-05-2.85759E-05-2.85711E-05-3.26628E-09 1.19709E-18 4.00739E-18
 -1      4090 9.52423E-05-2.85761E-05-2.85712E-05-3.52842E-09 1.30760E-18 3.06469E-18
 -1      4091 9.52432E-05-2.85766E-05-2.85714E-05-2.99061E-09 9.45725E-19 1.59794E-18
 -1      4092 9.52423E-05-2.85761E-05-2.85712E-05-2.75901E-09 1.14920E-18 2.01234E-18
 -1      4093 1.02312E-04-3.86110E-05-2.73280E-05 1.76673E-05-1.46383E-18-8.52281E-19
 -1      4094 9.74935E-05-3.48289E-05-2.68730E-05 1.77059E-05-9.21322E-19-6.99709E-19
 -1      4095 1.04205E-04-3.87573E-05-2.79849E-05 1.35392E-05-8.38795E-19-5.37976E-19
 -1      4096 1.01896E-04-3.50459E-05-2.86076E-05 4.44082E-06-4.05000E-19 1.06535E-19
 -1      4097 1.03491E-04-3.64033E-05-2.87550E-05 4.19889E-06-3.88994E-19 5.70465E-20
 -1      4098 1.00539E-04-3.42774E-05-2.84500E-05 5.72707E-06-3.92352E-19-3.73897E-19
 -1      4099 9.53368E-05-2.90033E-05-2.84434E-05 3.05332E-06-1.06914E-18-7.25866E-19
 -1      4100 1.14281E-04-2.73573E-05-3.73378E-05-1.11062E-05 1.35340E-18-6.49039E-19
 -1      4101 1.10299E-04-2.25093E-05-3.77333E-05-9.95517E-06 1.34404E-18-2.45037E-19
 -1      4102 8.54127E-05-2.72392E-05-2.48410E-05 2.20336E-05-1.24816E-18 3.61885E-19
 -1      4103 8.14236E-05-2.37320E-05-2.48365E-05 1.92109E-05-1.11095E-18 9.17098E-19
 -1      4104 9.05399E-05-2.99308E-05-2.59020E-05 1.96420E-05-1.29053E-18-3.16302E-19
 -1      4105 1.04229E-04-3.73866E-05-2.87147E-05 5.93910E-06-8.58337E-19-5.11495E-19
 -1      4106 1.03530E-04-1.77282E-05-3.67593E-05-3.49557E-06 1.54233E-18 2.20143E-19
 -1      4107 1.13448E-04-4.37925E-05-2.96189E-05 7.42747E-06-1.19434E-18-6.19260E-19
 -1      4108 1.18845E-04-3.71845E-05-3.30350E-05-1.04745E-05 6.63650E-19-2.34289E-18
 -1      4109 1.04384E-04-1.96524E-05-3.63419E-05-6.27057E-06 1.35066E-18 1.51662E-19
 -1      4110 1.06627E-04-2.10892E-05-3.67502E-05-8.36936E-06 1.27482E-18-5.06532E-20
 -1      4111 9.52413E-05-2.85756E-05-2.85710E-05 2.67730E-09-5.09454E-19 1.34925E-18
 -1      4112 9.52420E-05-2.85760E-05-2.85711E-05 2.48901E-09-7.02028E-19 9.30195E-19
 -1      4113 1.17553E-04-4.13253E-05-3.16064E-05-3.64549E-06-2.23140E-19-1.66230E-18
 -1      4114 8.68804E-05-2.30081E-05-2.74291E-05 6.67070E-06-4.03079E-19-3.61519E-20
 -1      4115 8.81553E-05-2.33908E-05-2.77296E-05 5.17327E-06-2.93643E-19-1.94307E-19
 -1      4116 1.10149E-04-4.07551E-05-2.96804E-05 2.18242E-06-6.65392E-19-8.04498E-19
 -1      4117 1.12014E-04-4.15700E-05-3.02166E-05 6.39936E-07-2.61478E-19-1.13264E-18
 -1      4118 9.45931E-05-2.82899E-05-2.84192E-05 3.03645E-06-1.14915E-18-9.33959E-19
 -1      4119 9.49671E-05-2.86858E-05-2.83871E-05 3.48711E-06-5.24721E-19-7.51413E-19
 -1      4120 8.87047E-05-2.36307E-05-2.79305E-05 3.92534E-06-3.39625E-19-3.16454E-19
 -1      4121 8.97301E-05-2.40858E-05-2.81178E-05 2.97337E-06-4.93089E-19-6.94746E-19
 -1      4122 8.95988E-05-2.46194E-05-2.78394E-05 5.48067E-06-6.17526E-19-1.53090E-19
 -1      4123 9.02680E-05-2.44223E-05-2.82494E-05 2.15288E-06-3.96572E-19-4.76980E-19
 -1      4124 9.10619E-05-2.48632E-05-2.83626E-05 1.57371E-06-4.68260E-19-6.12520E-19
 -1      4125 9.06688E-05-2.49306E-05-2.81621E-05 3.31382E-06-3.35942E-19-2.80223E-19
 -1      4126 9.15337E-05-2.52095E-05-2.84455E-05 1.05479E-06-7.44385E-19-5.87010E-19
 -1      4127 9.21312E-05-2.55972E-05-2.85107E-05 7.21290E-07-4.74829E-19-1.32014E-19
 -1      4128 9.16596E-05-2.54297E-05-2.83733E-05 1.89499E-06-6.25926E-19-2.73600E-19
 -1      4129 9.25204E-05-2.59125E-05-2.85604E-05 4.07131E-07-4.59819E-19-3.95707E-19
 -1      4130 9.29610E-05-2.62353E-05-2.85954E-05 2.29643E-07-3.45175E-19-6.53622E-19
 -1      4131 9.25037E-05-2.59688E-05-2.85055E-05 1.00081E-06-6.75979E-19-2.07374E-21
 -1      4132 9.32700E-05-2.65044E-05-2.86232E-05 4.96305E-08-4.56449E-19-1.08730E-18
 -1      4133 9.35901E-05-2.67645E-05-2.86396E-05-3.27291E-08-1.04728E-18-8.80024E-19
 -1      4134 9.31880E-05-2.64743E-05-2.85840E-05 4.61103E-07-7.78022E-19-8.00448E-19
 -1      4135 9.38291E-05-2.69854E-05-2.86534E-05-1.28032E-07-1.18831E-18-9.56183E-19
 -1      4136 9.40592E-05-2.71904E-05-2.86588E-05-1.55222E-07-6.90565E-19-1.03960E-18
 -1      4137 9.37253E-05-2.69155E-05-2.86269E-05 1.52615E-07-9.09615E-19-9.42502E-19
 -1      4138 9.42407E-05-2.73674E-05-2.86638E-05-1.99212E-07 1.18000E-19-1.60992E-18
 -1      4139 9.44047E-05-2.75268E-05-2.86630E-05-1.96586E-07-6.86254E-19-1.09033E-18
 -1      4140 9.41378E-05-2.72845E-05-2.86470E-05-1.04433E-08-6.27305E-19-1.07360E-18
 -1      4141 9.45406E-05-2.76661E-05-2.86628E-05-2.11080E-07-1.18931E-18-9.70554E-19
 -1      4142 9.46568E-05-2.77889E-05-2.86587E-05-1.94143E-07-1.95243E-19-1.65068E-18
 -1      4143 9.44493E-05-2.75847E-05-2.86530E-05-8.57340E-08-7.55599E-19-1.53196E-18
 -1      4144 9.47573E-05-2.78973E-05-2.86557E-05-1.92909E-07 6.86064E-20-2.04470E-18
 -1      4145 9.48392E-05-2.79912E-05-2.86501E-05-1.70732E-07-5.88930E-19-1.62706E-18
 -1      4146 9.46816E-05-2.78244E-05-2.86507E-05-1.10752E-07-5.75206E-19-1.62447E-18
 -1      4147 9.49128E-05-2.80747E-05-2.86456E-05-1.62121E-07-1.18590E-18-1.32943E-18
 -1      4148 9.49701E-05-2.81461E-05-2.86397E-05-1.39683E-07-8.82196E-19-8.68016E-19
 -1      4149 9.48527E-05-2.80130E-05-2.86439E-05-1.09056E-07-5.02719E-19-1.75215E-18
 -1      4150 9.50233E-05-2.82098E-05-2.86347E-05-1.28549E-07-4.29309E-19-1.25694E-18
 -1      4151 9.50630E-05-2.82637E-05-2.86289E-05-1.08362E-07-1.08242E-18-9.86743E-19
 -1      4152 9.49774E-05-2.81596E-05-2.86350E-05-9.48902E-08-7.40507E-19-8.70105E-19
 -1      4153 9.50994E-05-2.83098E-05-2.86243E-05-9.78966E-08-1.60371E-18-3.51140E-19
 -1      4154 9.51257E-05-2.83485E-05-2.86193E-05-8.15760E-08-1.44197E-18-9.43057E-20
 -1      4155 9.50653E-05-2.82700E-05-2.86257E-05-7.69360E-08-8.29544E-19 1.39870E-20
 -1      4156 9.51529E-05-2.83853E-05-2.86147E-05-7.16759E-08-1.34434E-18-3.14361E-19
 -1      4157 9.51718E-05-2.84158E-05-2.86101E-05-5.79021E-08-8.18996E-20-6.51955E-19
 -1      4158 9.51281E-05-2.83544E-05-2.86167E-05-5.89440E-08-1.28144E-18 1.37759E-19
 -1      4159 9.51905E-05-2.84430E-05-2.86061E-05-4.97926E-08 1.18800E-18-2.77051E-19
 -1      4160 9.52030E-05-2.84654E-05-2.86021E-05-3.91600E-08 9.77175E-19 3.90698E-19
 -1      4161 9.51733E-05-2.84197E-05-2.86083E-05-4.26174E-08 1.90186E-19-2.32479E-19
 -1      4162 9.52156E-05-2.84854E-05-2.85986E-05-3.28433E-08 6.18945E-19 1.43222E-19
 -1      4163 9.52237E-05-2.85017E-05-2.85954E-05-2.49141E-08 1.37631E-18 2.87259E-19
 -1      4164 9.52041E-05-2.84683E-05-2.86008E-05-2.92270E-08 8.86386E-19 7.16585E-19
 -1      4165 9.52318E-05-2.85161E-05-2.85924E-05-2.02141E-08 1.37842E-18 4.49729E-19
 -1      4166 9.52368E-05-2.85277E-05-2.85898E-05-1.44958E-08 1.44306E-18 8.22225E-19
 -1      4167 9.52246E-05-2.85038E-05-2.85944E-05-1.88224E-08 9.94708E-19 6.06387E-19
 -1      4168 9.52418E-05-2.85378E-05-2.85874E-05-1.11466E-08 6.77234E-19 1.36203E-18
 -1      4169 9.52446E-05-2.85460E-05-2.85852E-05-7.16709E-09 1.01962E-18 1.13960E-18
 -1      4170 9.52375E-05-2.85293E-05-2.85891E-05-1.10982E-08 1.33584E-18 1.43536E-18
 -1      4171 9.52474E-05-2.85530E-05-2.85833E-05-4.88862E-09 9.56484E-19 1.14620E-18
 -1      4172 9.52487E-05-2.85585E-05-2.85816E-05-2.23287E-09 6.58994E-19 1.30160E-18
 -1      4173 9.52453E-05-2.85473E-05-2.85848E-05-5.60655E-09 1.03981E-18 2.03293E-18
 -1      4174 9.52501E-05-2.85632E-05-2.85801E-05-7.67874E-10 2.91136E-19 1.25408E-18
 -1      4175 9.52505E-05-2.85669E-05-2.85787E-05 9.10047E-10 1.42155E-18 2.23587E-19
 -1      4176 9.52493E-05-2.85595E-05-2.85813E-05-1.87890E-09 2.20661E-19 2.95001E-18
 -1      4177 9.52508E-05-2.85698E-05-2.85775E-05 1.78010E-09 1.30233E-18-1.27427E-19
 -1      4178 9.52507E-05-2.85721E-05-2.85765E-05 2.75727E-09 1.24806E-18-1.25289E-19
 -1      4179 9.52510E-05-2.85676E-05-2.85786E-05 5.12587E-10 1.06037E-18 3.12347E-18
 -1      4180 9.52504E-05-2.85739E-05-2.85756E-05 3.20853E-09 2.28742E-18-4.78786E-19
 -1      4181 9.52499E-05-2.85752E-05-2.85749E-05 3.69989E-09 2.71570E-18-2.64372E-19
 -1      4182 9.52511E-05-2.85727E-05-2.85764E-05 1.92973E-09 1.55434E-18 2.03767E-18
 -1      4183 9.52493E-05-2.85761E-05-2.85742E-05 3.86861E-09 1.44854E-18-4.25314E-19
 -1      4184 9.52486E-05-2.85768E-05-2.85736E-05 4.03623E-09 1.19170E-18-3.10152E-19
 -1      4185 9.52502E-05-2.85757E-05-2.85748E-05 2.66292E-09 1.99776E-18 1.33939E-18
 -1      4186 9.52478E-05-2.85772E-05-2.85731E-05 4.02436E-09 5.80750E-19-1.73573E-18
 -1      4187 9.52470E-05-2.85774E-05-2.85727E-05 3.98711E-09-5.20876E-19-2.64177E-18
 -1      4188 9.52488E-05-2.85771E-05-2.85736E-05 2.93579E-09 3.94154E-19 3.10464E-20
 -1      4189 9.52462E-05-2.85774E-05-2.85723E-05 3.86929E-09 2.66834E-19-3.12651E-18
 -1      4190 9.52454E-05-2.85773E-05-2.85720E-05 3.71393E-09-4.75585E-19-3.21921E-18
 -1      4191 9.52472E-05-2.85776E-05-2.85727E-05 2.91475E-09-5.98376E-19-2.59204E-18
 -1      4192 9.52446E-05-2.85771E-05-2.85718E-05 3.52679E-09-1.36781E-18-2.15626E-18
 -1      4193 9.52439E-05-2.85769E-05-2.85716E-05 3.29869E-09-2.21910E-19-1.57486E-18
 -1      4194 9.52456E-05-2.85775E-05-2.85720E-05 2.70463E-09-4.70271E-19-1.70040E-18
 -1      4195 9.52434E-05-2.85767E-05-2.85714E-05 2.62033E-09-3.93983E-19-2.40849E-19
 -1      4196 9.52427E-05-2.85764E-05-2.85713E-05 2.40261E-09-7.34022E-19-8.26091E-21
 -1      4197 9.43149E-05-2.78429E-05-2.84930E-05 2.16378E-06-9.21213E-19-1.69830E-18
 -1      4198 9.44988E-05-2.80504E-05-2.84638E-05 2.52205E-06-9.25553E-19-1.32708E-18
 -1      4199 9.40294E-05-2.77532E-05-2.84099E-05 2.91051E-06-5.37293E-19-6.74211E-19
 -1      4200 9.46055E-05-2.78136E-05-2.86279E-05 4.78017E-07-6.42088E-19 3.94569E-19
 -1      4201 9.45548E-05-2.77616E-05-2.86231E-05 5.80650E-07-2.00318E-19 2.13599E-19
 -1      4202 9.43352E-05-2.76362E-05-2.85896E-05 1.04117E-06-6.43570E-19-5.92505E-19
 -1      4203 9.43336E-05-2.76462E-05-2.85738E-05 1.24155E-06-8.73547E-19-1.03383E-18
 -1      4204 8.48714E-05-2.28807E-05-2.66705E-05 1.07484E-05-5.06526E-19 2.52427E-19
 -1      4205 8.64505E-05-2.30382E-05-2.71323E-05 8.50450E-06-3.09691E-19-8.84233E-20
 -1      4206 8.86342E-05-2.47758E-05-2.73646E-05 8.66446E-06-4.96016E-19 1.89157E-19
 -1      4207 9.42640E-05-2.76592E-05-2.85499E-05 1.51217E-06-1.00820E-18-1.64243E-18
 -1      4208 9.43302E-05-2.77440E-05-2.85271E-05 1.78429E-06-1.17553E-18-1.88651E-18
 -1      4209 9.40531E-05-2.74268E-05-2.85533E-05 1.34213E-06-1.16134E-18-1.34677E-18
 -1      4210 9.47435E-05-2.79385E-05-2.86328E-05 3.19956E-07 6.85153E-20 2.93445E-19
 -1      4211 9.46904E-05-2.78799E-05-2.86315E-05 3.92216E-07-1.26248E-19 5.35129E-19
 -1      4212 9.45774E-05-2.77699E-05-2.86297E-05 3.72715E-07-3.22012E-19-4.01908E-19
 -1      4213 9.48652E-05-2.80608E-05-2.86321E-05 2.12561E-07-6.28534E-19 6.45992E-19
 -1      4214 9.48163E-05-2.80036E-05-2.86332E-05 2.63171E-07 3.10195E-19 8.82600E-19
 -1      4215 9.47345E-05-2.79184E-05-2.86336E-05 2.37543E-07-2.59973E-19 2.67622E-19
 -1      4216 9.49668E-05-2.81714E-05-2.86278E-05 1.39982E-07-4.88455E-20 1.74390E-19
 -1      4217 9.49249E-05-2.81199E-05-2.86303E-05 1.75339E-07-4.84847E-19 3.90896E-19
 -1      4218 9.48661E-05-2.80545E-05-2.86321E-05 1.49837E-07-4.77125E-19 8.73640E-19
 -1      4219 9.50480E-05-2.82664E-05-2.86215E-05 9.10824E-08 3.30607E-19 1.16614E-18
 -1      4220 9.50140E-05-2.82222E-05-2.86248E-05 1.15801E-07-5.40952E-19 3.10998E-19
 -1      4221 9.49722E-05-2.81726E-05-2.86273E-05 9.34749E-08-1.98440E-19 3.86555E-19
 -1      4222 9.51106E-05-2.83449E-05-2.86145E-05 5.82765E-08 2.29283E-19 1.65665E-18
 -1      4223 9.50842E-05-2.83085E-05-2.86181E-05 7.54824E-08 1.05944E-18 1.44447E-18
 -1      4224 9.50549E-05-2.82711E-05-2.86207E-05 5.75341E-08 8.96443E-20 5.87127E-19
 -1      4225 9.51574E-05-2.84077E-05-2.86075E-05 3.62685E-08 6.47772E-19 3.99583E-19
 -1      4226 9.51376E-05-2.83787E-05-2.86109E-05 4.82251E-08 6.15438E-19 1.72317E-18
 -1      4227 9.51173E-05-2.83507E-05-2.86136E-05 3.46502E-08 9.85411E-19 1.73915E-18
 -1      4228 9.51913E-05-2.84567E-05-2.86009E-05 2.15920E-08 4.53010E-20 6.60394E-19
 -1      4229 9.51770E-05-2.84342E-05-2.86041E-05 2.98608E-08 4.05764E-19 2.57647E-19
 -1      4230 9.51633E-05-2.84135E-05-2.86066E-05 2.01784E-08 9.87212E-19 1.04407E-18
 -1      4231 9.52149E-05-2.84939E-05-2.85949E-05 1.18839E-08 3.40452E-19 6.76040E-20
 -1      4232 9.52050E-05-2.84769E-05-2.85978E-05 1.75514E-08 5.58422E-19 2.52974E-19
 -1      4233 9.51960E-05-2.84619E-05-2.86000E-05 1.10775E-08 4.24084E-19 2.87232E-20
 -1      4234 9.52308E-05-2.85215E-05-2.85898E-05 5.55467E-09 1.40893E-18-1.44093E-18
 -1      4235 9.52241E-05-2.85089E-05-2.85922E-05 9.38267E-09 4.48682E-19-7.89797E-19
 -1      4236 9.52186E-05-2.84982E-05-2.85942E-05 5.40189E-09 1.17741E-18-1.00856E-18
 -1      4237 9.52408E-05-2.85414E-05-2.85855E-05 1.52698E-09 1.71126E-18-8.65816E-19
 -1      4238 9.52367E-05-2.85324E-05-2.85875E-05 4.05437E-09 1.50614E-18-9.27449E-19
 -1      4239 9.52334E-05-2.85249E-05-2.85892E-05 1.91555E-09 1.11992E-18-1.73846E-18
 -1      4240 9.52466E-05-2.85554E-05-2.85820E-05-9.35378E-10 2.13758E-18-4.92500E-19
 -1      4241 9.52443E-05-2.85491E-05-2.85836E-05 6.75931E-10 1.76199E-18-3.76049E-19
 -1      4242 9.52427E-05-2.85441E-05-2.85850E-05-1.67944E-10 1.74062E-18 3.10498E-19
 -1      4243 9.52495E-05-2.85648E-05-2.85792E-05-2.33982E-09 1.15795E-19-7.64160E-19
 -1      4244 9.52484E-05-2.85606E-05-2.85805E-05-1.36818E-09 1.56093E-18-5.92479E-19
 -1      4245 9.52479E-05-2.85574E-05-2.85816E-05-1.35122E-09 1.64415E-18 1.00102E-18
 -1      4246 9.52504E-05-2.85709E-05-2.85769E-05-3.03868E-09-1.34532E-19-5.75245E-19
 -1      4247 9.52502E-05-2.85682E-05-2.85780E-05-2.50716E-09-2.01940E-19-1.07409E-18
 -1      4248 9.52503E-05-2.85662E-05-2.85789E-05-1.95825E-09 2.40146E-19-3.63909E-19
 -1      4249 9.52501E-05-2.85746E-05-2.85752E-05-3.27769E-09-1.25273E-18 1.96982E-19
 -1      4250 9.52504E-05-2.85730E-05-2.85760E-05-3.04220E-09-3.96568E-19 2.28730E-19
 -1      4251 9.52509E-05-2.85719E-05-2.85767E-05-2.20006E-09-5.23316E-19 1.80327E-18
 -1      4252 9.52490E-05-2.85766E-05-2.85739E-05-3.22811E-09-1.40909E-18 1.90343E-19
 -1      4253 9.52496E-05-2.85758E-05-2.85745E-05-3.18514E-09-1.18025E-18-3.29605E-19
 -1      4254 9.52504E-05-2.85753E-05-2.85751E-05-2.21559E-09-1.23908E-18 8.62082E-19
 -1      4255 9.52476E-05-2.85774E-05-2.85729E-05-3.00883E-09-2.99437E-19 3.06075E-19
 -1      4256 9.52483E-05-2.85771E-05-2.85734E-05-3.08471E-09-9.03269E-19-4.18421E-19
 -1      4257 9.52492E-05-2.85770E-05-2.85738E-05-2.09705E-09-1.41889E-18 1.20566E-19
 -1      4258 9.52460E-05-2.85775E-05-2.85722E-05-2.70205E-09-5.44275E-19 4.80787E-19
 -1      4259 9.52468E-05-2.85775E-05-2.85725E-05-2.84391E-09 1.97672E-19 7.28574E-19
 -1      4260 9.52476E-05-2.85777E-05-2.85729E-05-1.90638E-09-4.21296E-19-3.71098E-19
 -1      4261 9.52445E-05-2.85771E-05-2.85717E-05-2.34290E-09 1.86467E-19-3.06121E-20
 -1      4262 9.52452E-05-2.85773E-05-2.85719E-05-2.52843E-09-1.77866E-19 1.46759E-19
 -1      4263 9.52460E-05-2.85776E-05-2.85722E-05-1.66516E-09-1.13643E-19 6.43373E-19
 -1      4264 9.44621E-05-2.77032E-05-2.86145E-05 7.08685E-07-2.23415E-19-1.45608E-19
 -1      4265 9.44258E-05-2.76713E-05-2.86049E-05 8.53130E-07-1.56557E-19-6.08164E-19
 -1      4266 9.44000E-05-2.76208E-05-2.86175E-05 5.78574E-07-6.65617E-19-1.01577E-18
 -1      4267 1.14438E-04-4.24411E-05-3.07849E-05-4.50315E-07 8.10736E-20-1.67664E-18
 -1      4268 1.09009E-04-4.06874E-05-2.93374E-05 4.95493E-06-9.75071E-19-5.82676E-19
 -1      4269 1.02237E-04-3.59352E-05-2.83575E-05 8.05470E-06-5.93310E-19-6.98896E-19
 -1      4270 1.04471E-04-3.78089E-05-2.85478E-05 8.08289E-06-7.10542E-19-8.85501E-19
 -1      4271 8.40589E-05-2.33060E-05-2.59687E-05 1.44811E-05-1.06385E-18 3.75897E-19
 -1      4272 9.52584E-05-2.91415E-05-2.83352E-05 4.15282E-06-4.74445E-19-7.04167E-19
 -1      4273 9.59214E-05-2.98094E-05-2.83091E-05 4.68058E-06-3.66614E-19-5.58814E-19
 -1      4274 9.43940E-05-2.83801E-05-2.83053E-05 4.14059E-06-5.70070E-19-7.77133E-19
 -1      4275 1.14269E-04-4.37383E-05-3.02919E-05 3.37386E-06-6.16772E-19-9.37273E-19
 -1      4276 1.10213E-04-4.21455E-05-2.91333E-05 8.25099E-06-9.68236E-19-4.19799E-19
 -1      4277 9.77421E-05-3.38704E-05-2.73157E-05 1.47852E-05-8.97873E-19-9.56180E-19
 -1      4278 9.46261E-05-3.24734E-05-2.66201E-05 1.77535E-05-9.24647E-19-5.69362E-19
 -1      4279 9.08045E-05-2.93498E-05-2.64238E-05 1.67780E-05-1.17157E-18 1.87522E-20
 -1      4280 9.52442E-05-2.85771E-05-2.85716E-05 1.92352E-09 6.04483E-19 4.36620E-19
 -1      4281 1.07363E-04-4.02119E-05-2.87335E-05 8.85523E-06-9.42827E-19-5.89671E-19
 -1      4282 1.04479E-04-3.86869E-05-2.82685E-05 1.13982E-05-7.49180E-19-5.34984E-19
 -1      4283 9.39622E-05-2.74818E-05-2.84930E-05 1.99634E-06-8.33723E-19-1.51753E-18
 -1      4284 9.42160E-05-2.74937E-05-2.85934E-05 8.87401E-07-6.08254E-19-9.72814E-19
 -1      4285 9.52437E-05-2.85769E-05-2.85715E-05-1.83674E-09 7.23489E-19-1.05927E-19
 -1      4286 9.52444E-05-2.85772E-05-2.85717E-05-1.09225E-09 3.58494E-19-3.50647E-19
 -1      4287 1.01248E-04-3.61804E-05-2.78613E-05 1.23316E-05-7.76607E-19-6.03476E-19
 -1      4288 9.52445E-05-2.85773E-05-2.85717E-05 8.68814E-10 8.29962E-19 1.09513E-19
 -1      4289 9.52445E-05-2.85773E-05-2.85717E-05-3.45138E-11 9.82107E-19-4.54591E-19
 -1      4290 9.52453E-05-2.85775E-05-2.85719E-05-5.26589E-10 1.89454E-19 1.98607E-20
 -1      4291 9.52451E-05-2.85774E-05-2.85718E-05 1.57788E-09 4.98843E-19-3.75680E-19
 -1      4292 9.87415E-05-3.27754E-05-2.82413E-05 6.87092E-06-5.63892E-19-1.00907E-18
 -1      4293 1.00320E-04-3.42359E-05-2.83012E-05 7.32035E-06-7.40398E-19-1.14545E-18
 -1      4294 9.98807E-05-3.44444E-05-2.81015E-05 9.42704E-06-5.36145E-19-1.06479E-18
 -1      4295 9.52717E-05-2.95564E-05-2.81903E-05 5.71190E-06-7.49211E-19-1.12076E-18
 -1      4296 9.65436E-05-3.05793E-05-2.82606E-05 5.48308E-06-4.76063E-19-9.46078E-19
 -1      4297 9.76110E-05-3.16101E-05-2.82600E-05 6.03055E-06-3.24023E-19-9.62784E-19
 -1      4298 8.75437E-05-2.57152E-05-2.64380E-05 1.43662E-05-8.72176E-19 1.00064E-19
 -1      4299 9.52426E-05-2.85763E-05-2.85712E-05-2.19925E-09 1.27168E-18 6.09775E-19
 -1      4300 9.52433E-05-2.85767E-05-2.85714E-05-1.76417E-09 1.27787E-18-2.57241E-19
 -1      4301 9.11902E-05-2.56448E-05-2.81181E-05 4.14246E-06-3.04854E-19-1.18025E-19
 -1      4302 9.17198E-05-2.57697E-05-2.82443E-05 3.24905E-06 5.02891E-20 1.75799E-19
 -1      4303 9.18896E-05-2.58368E-05-2.83298E-05 2.54266E-06-3.22308E-19 1.21734E-20
 -1      4304 9.23572E-05-2.60350E-05-2.84116E-05 1.96078E-06-8.81319E-19 1.62174E-19
 -1      4305 9.24692E-05-2.64519E-05-2.82931E-05 3.27905E-06-1.45818E-19 8.72100E-20
 -1      4306 9.25707E-05-2.61799E-05-2.84692E-05 1.48837E-06-1.01359E-18 5.32014E-19
 -1      4307 9.29578E-05-2.63954E-05-2.85197E-05 1.12361E-06-8.59190E-19 1.52982E-19
 -1      4308 9.28667E-05-2.65158E-05-2.84326E-05 2.06223E-06-4.23548E-19-5.93032E-19
 -1      4309 9.31705E-05-2.65657E-05-2.85564E-05 8.18458E-07-1.03669E-18-4.89559E-20
 -1      4310 9.34786E-05-2.67698E-05-2.85857E-05 5.99573E-07-1.14643E-18-3.88876E-19
 -1      4311 9.32984E-05-2.67274E-05-2.85257E-05 1.25027E-06-1.25052E-18-3.16653E-19
 -1      4312 9.36697E-05-2.69376E-05-2.86074E-05 4.09334E-07-6.75812E-19-5.79265E-19
 -1      4313 9.39083E-05-2.71177E-05-2.86228E-05 2.85058E-07-7.79496E-19-3.27291E-19
 -1      4314 9.37032E-05-2.69957E-05-2.85842E-05 7.26254E-07-1.00077E-18-4.62185E-19
 -1      4315 9.40702E-05-2.72696E-05-2.86343E-05 1.71057E-07-1.17407E-18 2.71891E-19
 -1      4316 9.42516E-05-2.74219E-05-2.86407E-05 1.05946E-07-8.68249E-19-2.94717E-19
 -1      4317 9.40551E-05-2.72700E-05-2.86180E-05 3.99346E-07-8.81702E-19 3.14890E-19
 -1      4318 9.43835E-05-2.75527E-05-2.86454E-05 4.08428E-08-4.16285E-19-8.35908E-19
 -1      4319 9.45193E-05-2.76780E-05-2.86463E-05 1.12158E-08-6.50812E-19 3.43798E-20
 -1      4320 9.43469E-05-2.75241E-05-2.86348E-05 2.02859E-07-9.96654E-19 3.12604E-19
 -1      4321 9.46238E-05-2.77868E-05-2.86467E-05-2.36103E-08-9.97572E-19-2.21156E-20
 -1      4322 9.47243E-05-2.78879E-05-2.86445E-05-3.30606E-08-4.16571E-19-3.29028E-19
 -1      4323 9.45811E-05-2.77465E-05-2.86406E-05 8.99141E-08-6.51329E-19-8.80996E-20
 -1      4324 9.48052E-05-2.79764E-05-2.86424E-05-4.98766E-08-5.08950E-19-3.14270E-19
 -1      4325 9.48788E-05-2.80565E-05-2.86386E-05-4.87081E-08-6.86293E-19-5.96352E-19
 -1      4326 9.47643E-05-2.79340E-05-2.86394E-05 2.87101E-08-5.24089E-19-3.53818E-19
 -1      4327 9.49401E-05-2.81270E-05-2.86351E-05-5.53120E-08-6.40304E-19-5.52053E-19
 -1      4328 9.49933E-05-2.81897E-05-2.86306E-05-4.93013E-08-7.56089E-19-9.63331E-19
 -1      4329 9.49048E-05-2.80878E-05-2.86342E-05-1.63686E-09-4.90745E-19-9.29433E-19
 -1      4330 9.50369E-05-2.82425E-05-2.86267E-05-5.06074E-08-2.81917E-19-7.78717E-19
 -1      4331 9.50734E-05-2.82888E-05-2.86224E-05-4.32751E-08-5.26355E-19-4.41728E-19
 -1      4332 9.50081E-05-2.82085E-05-2.86272E-05-1.42449E-08-1.08826E-19-7.45144E-19
 -1      4333 9.51072E-05-2.83321E-05-2.86182E-05-4.20719E-08-1.35792E-18 4.35383E-19
 -1      4334 9.51345E-05-2.83696E-05-2.86139E-05-3.45025E-08-1.29862E-18 3.74064E-19
 -1      4335 9.50848E-05-2.83041E-05-2.86194E-05-1.76533E-08-2.89222E-19-1.09120E-18
 -1      4336 9.51586E-05-2.84025E-05-2.86100E-05-3.23110E-08-1.57618E-19 1.01729E-18
 -1      4337 9.51774E-05-2.84306E-05-2.86060E-05-2.56683E-08 1.23388E-18 1.49029E-18
 -1      4338 9.51419E-05-2.83802E-05-2.86115E-05-1.66126E-08-1.10338E-19 1.04191E-18
 -1      4339 9.51942E-05-2.84553E-05-2.86025E-05-2.33402E-08 8.40626E-19 9.30219E-19
 -1      4340 9.52069E-05-2.84761E-05-2.85991E-05-1.79162E-08 6.76428E-19 2.43537E-19
 -1      4341 9.51823E-05-2.84382E-05-2.86042E-05-1.36498E-08 7.26386E-19 1.30530E-18
 -1      4342 9.52182E-05-2.84943E-05-2.85960E-05-1.58603E-08 7.24242E-19 1.33635E-18
 -1      4343 9.52264E-05-2.85095E-05-2.85931E-05-1.16613E-08 1.41638E-18 1.33790E-18
 -1      4344 9.52101E-05-2.84815E-05-2.85976E-05-1.02526E-08 1.17886E-18 1.33480E-18
 -1      4345 9.52338E-05-2.85226E-05-2.85905E-05-1.00224E-08 1.64041E-18 7.23582E-19
 -1      4346 9.52388E-05-2.85334E-05-2.85881E-05-6.91312E-09 1.67670E-18 1.60760E-18
 -1      4347 9.52284E-05-2.85133E-05-2.85920E-05-7.13939E-09 1.49295E-18 2.53302E-18
 -1      4348 9.52433E-05-2.85427E-05-2.85860E-05-5.70065E-09 1.63667E-18 1.44478E-18
 -1      4349 9.52461E-05-2.85502E-05-2.85840E-05-3.49333E-09 1.18940E-18 1.76389E-18
 -1      4350 9.52400E-05-2.85361E-05-2.85873E-05-4.59071E-09 1.52906E-18 9.64841E-19
 -1      4351 9.52486E-05-2.85565E-05-2.85823E-05-2.65444E-09 7.43536E-19 2.34800E-18
 -1      4352 9.52499E-05-2.85616E-05-2.85808E-05-1.15654E-09 7.92907E-19 2.90591E-18
 -1      4353 9.52468E-05-2.85521E-05-2.85834E-05-2.65582E-09 1.52100E-18 1.21195E-18
 -1      4354 9.52510E-05-2.85658E-05-2.85794E-05-6.16924E-10 5.18327E-19 2.94335E-18
 -1      4355 9.52514E-05-2.85691E-05-2.85782E-05 3.45478E-10 1.36493E-18 3.47577E-18
 -1      4356 9.52503E-05-2.85629E-05-2.85803E-05-1.27472E-09 1.11212E-18 2.86734E-18
 -1      4357 9.52516E-05-2.85717E-05-2.85771E-05 6.60363E-10 1.60753E-18 1.99650E-18
 -1      4358 9.52513E-05-2.85737E-05-2.85761E-05 1.23322E-09 1.37318E-18 1.49071E-18
 -1      4359 9.52515E-05-2.85699E-05-2.85778E-05-3.46341E-10 5.72724E-19 1.39628E-18
 -1      4360 9.52509E-05-2.85752E-05-2.85753E-05 1.38854E-09 9.29829E-19 1.07950E-18
 -1      4361 9.52503E-05-2.85763E-05-2.85746E-05 1.68829E-09 1.05954E-18 9.43008E-19
 -1      4362 9.52513E-05-2.85742E-05-2.85759E-05 2.35770E-10 1.87424E-20 6.07969E-19
 -1      4363 9.52497E-05-2.85770E-05-2.85740E-05 1.73653E-09 3.92600E-19 2.79311E-19
 -1      4364 9.52489E-05-2.85775E-05-2.85735E-05 1.85228E-09-6.95753E-19-7.29364E-19
 -1      4365 9.52502E-05-2.85766E-05-2.85744E-05 5.66855E-10 2.82190E-19-6.73085E-19
 -1      4366 9.52480E-05-2.85777E-05-2.85730E-05 1.83285E-09-9.59704E-19-3.81301E-19
 -1      4367 9.52472E-05-2.85778E-05-2.85726E-05 1.83722E-09-8.88736E-19-1.03083E-18
 -1      4368 9.52487E-05-2.85776E-05-2.85733E-05 7.25069E-10-9.60339E-19-9.84931E-19
 -1      4369 9.52460E-05-2.85777E-05-2.85721E-05 1.64395E-09-3.65422E-19-5.53437E-19
 -1      4370 9.33003E-05-2.70274E-05-2.84142E-05 2.50605E-06-2.86683E-19-1.22320E-18
 -1      4371 9.33834E-05-2.71620E-05-2.83640E-05 3.04579E-06-1.82964E-19-7.66131E-19
 -1      4372 9.47362E-05-2.79218E-05-2.86370E-05 1.22019E-07-5.59665E-19 1.05730E-20
 -1      4373 9.46619E-05-2.78429E-05-2.86368E-05 1.72050E-07-4.97891E-19-4.21281E-19
 -1      4374 9.45581E-05-2.77488E-05-2.86357E-05 2.18249E-07-3.50436E-19-4.39286E-19
 -1      4375 9.44709E-05-2.76616E-05-2.86321E-05 2.96347E-07-6.44653E-19-3.52847E-19
 -1      4376 9.03605E-05-2.65963E-05-2.73843E-05 9.72833E-06-4.14441E-19 2.03781E-19
 -1      4377 9.08486E-05-2.62104E-05-2.76519E-05 7.88647E-06-5.05672E-19-2.86949E-21
 -1      4378 9.38040E-05-2.71639E-05-2.85678E-05 1.02332E-06-1.11324E-18-9.84240E-19
 -1      4379 9.37276E-05-2.71146E-05-2.85426E-05 1.29154E-06-1.39801E-18-1.49169E-18
 -1      4380 9.48775E-05-2.80696E-05-2.86335E-05 6.50317E-08-4.70997E-19-4.22117E-19
 -1      4381 9.48169E-05-2.80017E-05-2.86354E-05 9.66923E-08-1.40246E-19-4.09326E-19
 -1      4382 9.49867E-05-2.81920E-05-2.86273E-05 3.23742E-08-3.22054E-19-6.86061E-19
 -1      4383 9.49389E-05-2.81355E-05-2.86304E-05 5.21496E-08-3.88490E-19-9.02153E-20
 -1      4384 9.50672E-05-2.82883E-05-2.86202E-05 1.45630E-08 8.86635E-19-1.05522E-18
 -1      4385 9.50305E-05-2.82425E-05-2.86238E-05 2.69511E-08 3.56218E-19-9.93240E-19
 -1      4386 9.51283E-05-2.83666E-05-2.86126E-05 4.91312E-09 1.60409E-19-1.31730E-19
 -1      4387 9.51011E-05-2.83304E-05-2.86163E-05 1.25839E-08 1.97903E-19-2.59353E-19
 -1      4388 9.51723E-05-2.84271E-05-2.86054E-05 1.96256E-10-3.19209E-20 1.06536E-18
 -1      4389 9.51526E-05-2.83991E-05-2.86089E-05 4.93757E-09 7.34143E-19 7.54567E-19
 -1      4390 9.52030E-05-2.84728E-05-2.85988E-05-1.83384E-09 1.08701E-18 4.11267E-19
 -1      4391 9.51892E-05-2.84517E-05-2.86020E-05 1.09443E-09 1.37911E-19 4.63354E-19
 -1      4392 9.52237E-05-2.85068E-05-2.85931E-05-2.47718E-09 1.48992E-18 4.99033E-19
 -1      4393 9.52144E-05-2.84911E-05-2.85958E-05-6.74849E-10 1.72924E-18 6.20168E-19
 -1      4394 9.52370E-05-2.85313E-05-2.85882E-05-2.46007E-09 1.32728E-18 4.92300E-19
 -1      4395 9.52311E-05-2.85201E-05-2.85905E-05-1.35999E-09 1.48283E-18 5.17919E-20
 -1      4396 9.52451E-05-2.85487E-05-2.85842E-05-2.17091E-09 1.44119E-18 4.23542E-19
 -1      4397 9.52416E-05-2.85408E-05-2.85861E-05-1.51197E-09 1.48901E-18-2.31497E-19
 -1      4398 9.52494E-05-2.85606E-05-2.85809E-05-1.80531E-09 1.50997E-18 1.41562E-18
 -1      4399 9.52476E-05-2.85552E-05-2.85825E-05-1.42573E-09 1.34273E-18 9.22895E-19
 -1      4400 9.52512E-05-2.85685E-05-2.85783E-05-1.45310E-09 8.76088E-20 1.33143E-18
 -1      4401 9.52505E-05-2.85650E-05-2.85795E-05-1.25144E-09 1.36121E-18 1.32122E-18
 -1      4402 9.52514E-05-2.85733E-05-2.85763E-05-1.14875E-09-6.72705E-19 1.12805E-18
 -1      4403 9.52514E-05-2.85712E-05-2.85772E-05-1.06038E-09-5.94013E-19 5.98314E-19
 -1      4404 9.52505E-05-2.85761E-05-2.85747E-05-8.99797E-10-7.75577E-19 5.67255E-19
 -1      4405 9.52510E-05-2.85749E-05-2.85755E-05-8.82748E-10-4.11349E-19 7.67107E-19
 -1      4406 9.52491E-05-2.85775E-05-2.85736E-05-7.01880E-10-7.10125E-19-8.88520E-19
 -1      4407 9.52498E-05-2.85769E-05-2.85741E-05-7.28391E-10-6.04643E-19-1.75728E-19
 -1      4408 9.52474E-05-2.85779E-05-2.85727E-05-5.53322E-10-7.97508E-19-8.24586E-19
 -1      4409 9.52483E-05-2.85777E-05-2.85731E-05-5.97395E-10-9.62731E-19-1.13011E-18
 -1      4410 9.52462E-05-2.85777E-05-2.85722E-05-5.97369E-10 6.53386E-20-2.10448E-20
 -1      4411 9.95453E-05-3.43696E-05-2.79114E-05 1.08925E-05-3.04323E-19-2.35783E-19
 -1      4412 9.86684E-05-3.43245E-05-2.76175E-05 1.30244E-05-5.04822E-19-5.72631E-19
 -1      4413 9.57773E-05-3.19342E-05-2.73930E-05 1.30373E-05-7.33830E-19-2.18401E-19
 -1      4414 9.76846E-05-3.25210E-05-2.78855E-05 9.94627E-06-2.73985E-19-3.09195E-19
 -1      4415 9.43405E-05-2.75551E-05-2.86266E-05 3.76270E-07-1.28307E-18-1.39724E-19
 -1      4416 9.42445E-05-2.74658E-05-2.86180E-05 4.96369E-07-7.50242E-19-8.53510E-19
 -1      4417 9.06166E-05-2.57978E-05-2.78115E-05 6.48034E-06-6.86951E-19 7.08888E-20
 -1      4418 9.11487E-05-2.57469E-05-2.79977E-05 5.16023E-06-7.48511E-19-1.13565E-19
 -1      4419 9.22273E-05-2.66894E-05-2.80955E-05 5.03844E-06-5.34562E-19 1.45207E-19
 -1      4420 9.35237E-05-2.70318E-05-2.85063E-05 1.62210E-06-9.65612E-19-1.02179E-18
 -1      4421 9.34994E-05-2.70473E-05-2.84694E-05 2.00864E-06-3.10005E-19-1.03898E-18
 -1      4422 9.12396E-05-2.79863E-05-2.70508E-05 1.27821E-05-7.00366E-19 3.12314E-19
 -1      4423 9.32359E-05-2.72655E-05-2.82849E-05 3.76933E-06-1.64609E-19-4.74353E-19
 -1      4424 9.35147E-05-2.76012E-05-2.82227E-05 4.49323E-06-6.60344E-19-6.63018E-19
 -1      4425 9.40854E-05-2.73524E-05-2.86057E-05 6.29081E-07-2.88324E-19-1.00123E-18
 -1      4426 9.39900E-05-2.72727E-05-2.85901E-05 8.10487E-07-3.77266E-19-9.61721E-19
 -1      4427 9.52466E-05-2.85778E-05-2.85724E-05 6.57085E-10-6.58626E-19-7.13576E-19
 -1      4428 9.23621E-05-2.74724E-05-2.78320E-05 7.47951E-06-4.38085E-19 8.52794E-20
 -1      4429 9.35055E-05-2.79225E-05-2.81161E-05 5.50530E-06-8.10197E-19-2.27559E-19
 -1      4430 9.41151E-05-2.85762E-05-2.80490E-05 6.42331E-06-3.08995E-19-9.33676E-20
 -1      4431 9.69961E-05-3.15313E-05-2.80991E-05 7.55613E-06-4.97278E-19-1.10526E-18
 -1      4432 9.34786E-05-2.95588E-05-2.73813E-05 1.17983E-05-7.72262E-19 1.87019E-19
 -1      4433 9.43931E-05-2.92606E-05-2.79159E-05 7.77454E-06-4.40682E-19-4.43712E-20
 -1      4434 9.54371E-05-3.03826E-05-2.78599E-05 8.85048E-06-5.34580E-19 8.71451E-20
 -1      4435 9.46704E-05-3.00933E-05-2.76721E-05 1.01577E-05-5.21258E-19 1.78912E-19
 -3
    1PSTEP                         4           1           1          
  100CL  101 1.000000000        4435                     0    1           1
 -4  ERROR       1    1
 -5  STR(%)      1    1    0    0
 -1         1 4.81673E+01
 -1         2 2.52130E+01
 -1         3 3.16931E-05
 -1         4 4.17672E-05
 -1         5 1.47390E+01
 -1         6 1.11986E+01
 -1         7 1.11986E+01
 -1         8 5.80046E+00
 -1         9 5.38794E+00
 -1        10 4.50487E+00
 -1        11 2.61456E+00
 -1        12 2.41339E+00
 -1        13 2.41339E+00
 -1        14 2.25560E+00
 -1        15 1.86415E+00
 -1        16 1.80744E+00
 -1        17 1.62098E+00
 -1        18 1.42227E+00
 -1        19 1.30385E+00
 -1        20 1.57903E+00
 -1        21 3.36544E+00
 -1        22 9.16763E+00
 -1        23 1.11986E+01
 -1        24 3.10766E+00
 -1        25 4.42685E+00
 -1        26 5.03020E+00
 -1        27 5.03020E+00
 -1        28 6.38710E+00
 -1        29 1.33653E+01
 -1        30 1.47352E+01
 -1        31 1.47352E+01
 -1        32 1.30183E+01
 -1        33 5.78380E+00
 -1        34 4.75378E+00
 -1        35 4.85145E+00
 -1        36 4.85145E+00
 -1        37 3.82316E+00
 -1        38 2.88318E+00
 -1        39 1.97469E+00
 -1        40 1.53572E+00
 -1        41 1.10814E+00
 -1        42 7.73229E-01
 -1        43 5.28814E-01
 -1        44 3.57777E-01
 -1        45 2.40773E-01
 -1        46 1.61568E-01
 -1        47 1.08118E-01
 -1        48 7.20116E-02
 -1        49 5.27730E-02
 -1        50 3.99161E-02
 -1        51 3.01401E-02
 -1        52 2.26799E-02
 -1        53 1.69720E-02
 -1        54 1.26009E-02
 -1        55 9.25877E-03
 -1        56 7.46869E-03
 -1        57 6.16970E-03
 -1        58 4.97889E-03
 -1        59 3.95962E-03
 -1        60 3.10245E-03
 -1        61 2.44259E-03
 -1        62 1.91461E-03
 -1        63 1.47577E-03
 -1        64 1.11711E-03
 -1        65 8.37791E-04
 -1        66 6.90175E-04
 -1        67 5.60566E-04
 -1        68 4.48429E-04
 -1        69 3.50445E-04
 -1        70 2.59819E-04
 -1        71 2.03749E-04
 -1        72 1.31082E-04
 -1        73 1.47390E+01
 -1        74 3.77139E+00
 -1        75 3.05058E+00
 -1        76 2.59391E+00
 -1        77 2.50567E+00
 -1        78 2.60563E+00
 -1        79 2.60563E+00
 -1        80 2.81007E+00
 -1        81 2.81007E+00
 -1        82 2.80142E+00
 -1        83 2.52171E+00
 -1        84 2.04793E+00
 -1        85 1.55886E+00
 -1        86 1.04240E+00
 -1        87 6.89647E-01
 -1        88 4.55172E-01
 -1        89 2.87153E-01
 -1        90 1.61394E-01
 -1        91 1.35039E-01
 -1        92 1.20663E-01
 -1        93 1.13940E-01
 -1        94 9.59939E-02
 -1        95 7.43891E-02
 -1        96 5.71679E-02
 -1        97 4.43795E-02
 -1        98 3.58843E-02
 -1        99 2.75623E-02
 -1       100 2.01855E-02
 -1       101 1.40701E-02
 -1       102 1.14835E-02
 -1       103 9.74945E-03
 -1       104 8.00352E-03
 -1       105 6.38626E-03
 -1       106 5.42561E-03
 -1       107 4.77269E-03
 -1       108 4.05912E-03
 -1       109 3.35910E-03
 -1       110 2.71546E-03
 -1       111 2.18843E-03
 -1       112 1.74806E-03
 -1       113 1.36804E-03
 -1       114 1.04857E-03
 -1       115 7.85155E-04
 -1       116 5.70663E-04
 -1       117 4.43171E-04
 -1       118 3.47796E-04
 -1       119 2.58934E-04
 -1       120 1.66198E-04
 -1       121 1.11152E-04
 -1       122 4.82202E-05
 -1       123 4.82202E-05
 -1       124 4.38807E-05
 -1       125 2.34582E-05
 -1       126 2.05919E-05
 -1       127 3.50650E-05
 -1       128 4.38509E-05
 -1       129 4.64390E-05
 -1       130 4.64390E-05
 -1       131 4.37767E-05
 -1       132 3.46158E-05
 -1       133 2.04750E-05
 -1       134 2.36486E-05
 -1       135 4.28323E-05
 -1       136 4.28323E-05
 -1       137 3.85004E-05
 -1       138 2.52130E+01
 -1       139 4.40566E+01
 -1       140 4.40566E+01
 -1       141 1.66237E+01
 -1       142 1.26822E+01
 -1       143 1.26822E+01
 -1       144 1.20520E+01
 -1       145 1.20520E+01
 -1       146 1.17101E+01
 -1       147 1.14110E+01
 -1       148 2.18333E+01
 -1       149 4.90127E+01
 -1       150 4.90127E+01
 -1       151 2.61387E+01
 -1       152 2.54171E+01
 -1       153 2.63394E+01
 -1       154 4.81673E+01
 -1       155 2.20272E+01
 -1       156 1.27760E+01
 -1       157 1.36352E+01
 -1       158 1.36352E+01
 -1       159 1.31122E+01
 -1       160 1.31122E+01
 -1       161 1.53584E+01
 -1       162 4.14580E+01
 -1       163 4.14580E+01
 -1       164 2.47757E+01
 -1       165 2.47757E+01
 -1       166 7.75184E+00
 -1       167 5.49859E+00
 -1       168 5.49859E+00
 -1       169 4.06935E+00
 -1       170 2.65507E+00
 -1       171 2.76201E+00
 -1       172 2.76201E+00
 -1       173 2.27817E+00
 -1       174 1.89475E+00
 -1       175 1.80744E+00
 -1       176 1.62098E+00
 -1       177 1.42227E+00
 -1       178 1.42196E+00
 -1       179 2.04593E+00
 -1       180 3.90754E+00
 -1       181 1.47390E+01
 -1       182 5.50781E+00
 -1       183 5.64926E+00
 -1       184 5.12495E+00
 -1       185 5.88049E+00
 -1       186 5.90778E+00
 -1       187 7.97768E+00
 -1       188 1.47352E+01
 -1       189 1.30183E+01
 -1       190 6.78383E+00
 -1       191 3.99073E+00
 -1       192 4.75378E+00
 -1       193 4.85145E+00
 -1       194 3.97659E+00
 -1       195 3.16361E+00
 -1       196 2.43113E+00
 -1       197 1.85839E+00
 -1       198 1.29460E+00
 -1       199 8.67575E-01
 -1       200 5.66962E-01
 -1       201 3.90840E-01
 -1       202 2.68910E-01
 -1       203 1.84328E-01
 -1       204 1.26059E-01
 -1       205 8.59781E-02
 -1       206 5.83738E-02
 -1       207 3.99161E-02
 -1       208 3.01401E-02
 -1       209 2.26799E-02
 -1       210 1.70876E-02
 -1       211 1.31297E-02
 -1       212 9.99631E-03
 -1       213 7.56309E-03
 -1       214 6.16970E-03
 -1       215 4.97889E-03
 -1       216 3.95962E-03
 -1       217 3.18797E-03
 -1       218 2.52837E-03
 -1       219 2.01889E-03
 -1       220 1.59764E-03
 -1       221 1.24190E-03
 -1       222 9.46963E-04
 -1       223 7.06104E-04
 -1       224 5.60566E-04
 -1       225 4.48429E-04
 -1       226 3.50445E-04
 -1       227 2.65481E-04
 -1       228 2.03749E-04
 -1       229 1.31082E-04
 -1       230 6.15945E-05
 -1       231 3.77139E+00
 -1       232 3.05058E+00
 -1       233 2.63116E+00
 -1       234 2.63116E+00
 -1       235 2.57165E+00
 -1       236 2.60563E+00
 -1       237 2.59565E+00
 -1       238 2.81007E+00
 -1       239 2.80142E+00
 -1       240 2.52171E+00
 -1       241 2.04793E+00
 -1       242 1.55886E+00
 -1       243 1.07768E+00
 -1       244 7.57400E-01
 -1       245 4.68671E-01
 -1       246 2.87153E-01
 -1       247 1.61394E-01
 -1       248 1.35039E-01
 -1       249 1.20663E-01
 -1       250 1.13940E-01
 -1       251 9.59939E-02
 -1       252 7.43891E-02
 -1       253 5.84421E-02
 -1       254 4.49984E-02
 -1       255 3.58843E-02
 -1       256 2.75623E-02
 -1       257 2.01855E-02
 -1       258 1.43133E-02
 -1       259 1.18181E-02
 -1       260 1.00371E-02
 -1       261 8.25662E-03
 -1       262 6.60779E-03
 -1       263 5.42561E-03
 -1       264 4.77269E-03
 -1       265 4.05912E-03
 -1       266 3.35910E-03
 -1       267 2.71546E-03
 -1       268 2.18843E-03
 -1       269 1.74806E-03
 -1       270 1.37976E-03
 -1       271 1.07772E-03
 -1       272 8.22895E-04
 -1       273 6.11810E-04
 -1       274 4.43171E-04
 -1       275 3.47796E-04
 -1       276 2.58934E-04
 -1       277 1.68632E-04
 -1       278 1.11152E-04
 -1       279 8.72113E-05
 -1       280 8.72113E-05
 -1       281 6.66991E-05
 -1       282 3.55318E-05
 -1       283 6.29822E-05
 -1       284 8.12050E-05
 -1       285 8.86858E-05
 -1       286 8.86860E-05
 -1       287 8.86860E-05
 -1       288 8.08476E-05
 -1       289 6.33438E-05
 -1       290 3.61948E-05
 -1       291 6.63773E-05
 -1       292 8.33383E-05
 -1       293 9.17160E-05
 -1       294 2.94106E+01
 -1       295 3.85136E+01
 -1       296 4.40566E+01
 -1       297 1.69363E+01
 -1       298 1.10035E+01
 -1       299 1.26822E+01
 -1       300 1.17474E+01
 -1       301 1.20520E+01
 -1       302 1.17101E+01
 -1       303 1.10465E+01
 -1       304 1.14110E+01
 -1       305 2.51559E+01
 -1       306 4.90127E+01
 -1       307 2.73054E+01
 -1       308 3.52614E+01
 -1       309 3.52614E+01
 -1       310 3.06564E+01
 -1       311 4.81673E+01
 -1       312 2.31523E+01
 -1       313 1.27134E+01
 -1       314 1.27760E+01
 -1       315 1.36352E+01
 -1       316 1.33149E+01
 -1       317 1.31122E+01
 -1       318 1.15632E+01
 -1       319 1.53986E+01
 -1       320 4.14580E+01
 -1       321 3.64701E+01
 -1       322 2.83411E+01
 -1       323 2.94106E+01
 -1       324 1.33653E+01
 -1       325 6.30242E+00
 -1       326 6.13616E+00
 -1       327 4.43574E+00
 -1       328 3.45727E+00
 -1       329 3.45727E+00
 -1       330 3.07922E+00
 -1       331 2.66539E+00
 -1       332 1.89773E+00
 -1       333 1.23312E+00
 -1       334 1.00808E+00
 -1       335 9.15219E-01
 -1       336 8.22179E-01
 -1       337 1.03565E+00
 -1       338 2.58878E+00
 -1       339 2.48452E+00
 -1       340 1.10489E+01
 -1       341 6.96210E+00
 -1       342 7.11490E+00
 -1       343 9.66025E+00
 -1       344 1.06949E+01
 -1       345 1.53488E+01
 -1       346 1.01141E+01
 -1       347 6.76640E+00
 -1       348 5.51719E+00
 -1       349 4.07923E+00
 -1       350 3.65389E+00
 -1       351 3.12043E+00
 -1       352 2.49096E+00
 -1       353 1.93963E+00
 -1       354 1.40469E+00
 -1       355 9.84739E-01
 -1       356 6.75240E-01
 -1       357 4.56505E-01
 -1       358 3.05688E-01
 -1       359 2.03191E-01
 -1       360 1.34085E-01
 -1       361 8.79622E-02
 -1       362 6.18184E-02
 -1       363 4.31629E-02
 -1       364 2.98652E-02
 -1       365 2.04012E-02
 -1       366 1.38969E-02
 -1       367 1.06379E-02
 -1       368 8.28331E-03
 -1       369 6.52290E-03
 -1       370 5.09568E-03
 -1       371 3.89612E-03
 -1       372 3.25299E-03
 -1       373 2.68400E-03
 -1       374 2.21569E-03
 -1       375 1.82338E-03
 -1       376 1.47277E-03
 -1       377 1.16777E-03
 -1       378 9.31071E-04
 -1       379 7.43662E-04
 -1       380 5.81340E-04
 -1       381 4.43932E-04
 -1       382 3.42554E-04
 -1       383 2.65481E-04
 -1       384 1.93576E-04
 -1       385 1.36483E-04
 -1       386 2.63116E+00
 -1       387 2.57165E+00
 -1       388 2.50313E+00
 -1       389 2.34933E+00
 -1       390 2.30648E+00
 -1       391 2.23685E+00
 -1       392 2.01364E+00
 -1       393 1.66501E+00
 -1       394 1.35038E+00
 -1       395 1.03436E+00
 -1       396 7.55094E-01
 -1       397 5.31220E-01
 -1       398 3.41096E-01
 -1       399 1.92587E-01
 -1       400 9.27921E-02
 -1       401 7.67304E-02
 -1       402 7.91987E-02
 -1       403 7.01305E-02
 -1       404 5.79446E-02
 -1       405 4.77713E-02
 -1       406 3.97898E-02
 -1       407 3.28827E-02
 -1       408 2.60788E-02
 -1       409 1.97540E-02
 -1       410 1.43133E-02
 -1       411 1.18181E-02
 -1       412 1.00371E-02
 -1       413 8.25662E-03
 -1       414 6.60779E-03
 -1       415 5.15786E-03
 -1       416 4.22429E-03
 -1       417 3.59946E-03
 -1       418 2.98315E-03
 -1       419 2.41658E-03
 -1       420 1.97874E-03
 -1       421 1.58824E-03
 -1       422 1.28203E-03
 -1       423 1.02200E-03
 -1       424 7.94695E-04
 -1       425 6.01446E-04
 -1       426 4.41150E-04
 -1       427 3.15264E-04
 -1       428 2.41153E-04
 -1       429 1.68632E-04
 -1       430 1.34026E-04
 -1       431 7.04751E-05
 -1       432 1.63720E-04
 -1       433 8.47265E-05
 -1       434 1.11816E-04
 -1       435 1.24533E-04
 -1       436 1.24533E-04
 -1       437 1.24374E-04
 -1       438 1.24374E-04
 -1       439 1.12333E-04
 -1       440 8.55072E-05
 -1       441 7.41844E-05
 -1       442 7.41844E-05
 -1       443 2.33590E+00
 -1       444 2.64991E+01
 -1       445 8.58078E+00
 -1       446 3.95201E+01
 -1       447 6.30242E+00
 -1       448 1.26583E+01
 -1       449 7.31559E+00
 -1       450 1.04041E+01
 -1       451 1.06802E+01
 -1       452 9.34442E+00
 -1       453 9.05479E+00
 -1       454 7.18182E+00
 -1       455 1.00677E+01
 -1       456 1.74522E+01
 -1       457 2.73054E+01
 -1       458 2.90720E+01
 -1       459 3.52614E+01
 -1       460 3.25000E+01
 -1       461 3.06564E+01
 -1       462 1.73908E+01
 -1       463 1.38776E+01
 -1       464 2.42309E+01
 -1       465 2.62274E+01
 -1       466 3.95201E+01
 -1       467 2.63262E+01
 -1       468 8.33383E-05
 -1       469 7.65420E+00
 -1       470 1.33149E+01
 -1       471 1.00813E+01
 -1       472 5.35179E+00
 -1       473 6.98257E+00
 -1       474 3.70113E+00
 -1       475 2.48381E+00
 -1       476 1.48200E+00
 -1       477 1.02831E+00
 -1       478 8.09182E-01
 -1       479 1.12784E+00
 -1       480 1.12784E+00
 -1       481 1.67468E+00
 -1       482 1.26938E+01
 -1       483 9.90867E+00
 -1       484 8.28093E+00
 -1       485 1.24895E+01
 -1       486 5.35492E+00
 -1       487 7.82674E+00
 -1       488 6.76640E+00
 -1       489 1.00529E+01
 -1       490 6.77679E+00
 -1       491 4.95109E+00
 -1       492 3.67130E+00
 -1       493 2.67039E+00
 -1       494 1.86204E+00
 -1       495 1.27385E+00
 -1       496 8.59361E-01
 -1       497 5.73843E-01
 -1       498 3.80126E-01
 -1       499 2.49938E-01
 -1       500 1.62966E-01
 -1       501 1.05093E-01
 -1       502 6.67031E-02
 -1       503 4.31629E-02
 -1       504 2.98652E-02
 -1       505 2.04012E-02
 -1       506 1.36852E-02
 -1       507 9.26761E-03
 -1       508 7.57714E-03
 -1       509 6.55813E-03
 -1       510 5.51221E-03
 -1       511 4.53191E-03
 -1       512 3.65888E-03
 -1       513 2.90505E-03
 -1       514 2.48209E-03
 -1       515 2.08173E-03
 -1       516 1.70801E-03
 -1       517 1.39583E-03
 -1       518 1.12304E-03
 -1       519 8.84082E-04
 -1       520 6.79974E-04
 -1       521 5.09436E-04
 -1       522 3.70137E-04
 -1       523 2.59541E-04
 -1       524 1.87991E-04
 -1       525 1.36483E-04
 -1       526 1.89172E+00
 -1       527 2.00165E+00
 -1       528 2.03056E+00
 -1       529 1.71434E+00
 -1       530 1.72149E+00
 -1       531 1.66751E+00
 -1       532 1.51250E+00
 -1       533 1.32679E+00
 -1       534 1.10050E+00
 -1       535 8.15628E-01
 -1       536 5.83151E-01
 -1       537 4.01910E-01
 -1       538 2.58901E-01
 -1       539 1.48963E-01
 -1       540 1.01906E-01
 -1       541 7.62727E-02
 -1       542 6.01452E-02
 -1       543 5.75713E-02
 -1       544 5.19485E-02
 -1       545 4.36159E-02
 -1       546 3.59792E-02
 -1       547 2.82862E-02
 -1       548 2.10047E-02
 -1       549 1.47122E-02
 -1       550 1.03347E-02
 -1       551 7.32865E-03
 -1       552 5.99705E-03
 -1       553 5.31485E-03
 -1       554 4.54873E-03
 -1       555 3.78169E-03
 -1       556 3.06517E-03
 -1       557 2.64185E-03
 -1       558 2.27715E-03
 -1       559 1.90637E-03
 -1       560 1.57830E-03
 -1       561 1.29374E-03
 -1       562 1.03450E-03
 -1       563 8.11391E-04
 -1       564 6.38790E-04
 -1       565 4.89180E-04
 -1       566 3.63313E-04
 -1       567 2.60095E-04
 -1       568 1.83186E-04
 -1       569 1.43682E-04
 -1       570 1.12882E-04
 -1       571 1.34937E-04
 -1       572 2.63262E+01
 -1       573 1.63600E-04
 -1       574 1.64759E-04
 -1       575 1.64759E-04
 -1       576 1.64492E-04
 -1       577 1.64186E-04
 -1       578 1.43812E-04
 -1       579 1.18855E-04
 -1       580 1.56112E-04
 -1       581 4.59641E+00
 -1       582 2.62274E+01
 -1       583 4.40785E+00
 -1       584 3.95201E+01
 -1       585 6.90232E+00
 -1       586 7.59810E+00
 -1       587 2.09402E+01
 -1       588 8.06444E+00
 -1       589 4.56490E+00
 -1       590 4.78545E+00
 -1       591 1.31388E+01
 -1       592 2.09610E+01
 -1       593 2.90720E+01
 -1       594 3.25000E+01
 -1       595 1.70387E+01
 -1       596 1.87700E+01
 -1       597 1.21415E+01
 -1       598 1.28721E+00
 -1       599 1.56292E+00
 -1       600 1.21415E+01
 -1       601 5.84075E+00
 -1       602 1.07519E+01
 -1       603 1.56112E-04
 -1       604 1.39700E+01
 -1       605 1.75153E+00
 -1       606 3.07856E+00
 -1       607 9.64023E-01
 -1       608 1.46012E+00
 -1       609 1.46012E+00
 -1       610 2.12528E-04
 -1       611 1.97546E-04
 -1       612 8.55572E+00
 -1       613 6.69518E+00
 -1       614 4.93303E+00
 -1       615 3.33666E+00
 -1       616 2.17786E+00
 -1       617 1.40332E+00
 -1       618 9.16647E-01
 -1       619 6.00797E-01
 -1       620 4.06379E-01
 -1       621 2.81251E-01
 -1       622 1.93321E-01
 -1       623 1.31782E-01
 -1       624 8.88951E-02
 -1       625 5.91401E-02
 -1       626 3.86005E-02
 -1       627 2.45131E-02
 -1       628 1.49358E-02
 -1       629 9.26761E-03
 -1       630 7.57714E-03
 -1       631 6.55813E-03
 -1       632 5.51221E-03
 -1       633 4.53191E-03
 -1       634 3.65888E-03
 -1       635 3.02685E-03
 -1       636 2.51422E-03
 -1       637 2.08173E-03
 -1       638 1.71142E-03
 -1       639 1.41006E-03
 -1       640 1.13644E-03
 -1       641 8.96037E-04
 -1       642 7.07486E-04
 -1       643 5.50380E-04
 -1       644 4.16627E-04
 -1       645 3.03962E-04
 -1       646 2.25380E-04
 -1       647 1.59640E+00
 -1       648 1.46635E+00
 -1       649 1.63395E+00
 -1       650 1.38472E+00
 -1       651 1.35198E+00
 -1       652 1.27591E+00
 -1       653 1.14727E+00
 -1       654 9.16236E-01
 -1       655 7.42346E-01
 -1       656 5.69528E-01
 -1       657 4.01910E-01
 -1       658 2.58901E-01
 -1       659 1.73625E-01
 -1       660 1.17799E-01
 -1       661 7.73104E-02
 -1       662 7.00961E-02
 -1       663 5.90752E-02
 -1       664 4.99828E-02
 -1       665 4.05118E-02
 -1       666 3.20420E-02
 -1       667 2.45321E-02
 -1       668 1.79729E-02
 -1       669 1.25606E-02
 -1       670 8.29345E-03
 -1       671 5.06270E-03
 -1       672 3.44291E-03
 -1       673 3.25127E-03
 -1       674 3.06299E-03
 -1       675 2.75053E-03
 -1       676 2.38085E-03
 -1       677 1.99965E-03
 -1       678 1.73585E-03
 -1       679 1.48883E-03
 -1       680 1.24034E-03
 -1       681 1.01719E-03
 -1       682 8.19600E-04
 -1       683 6.43181E-04
 -1       684 4.90746E-04
 -1       685 3.70178E-04
 -1       686 2.75400E-04
 -1       687 1.94123E-04
 -1       688 1.27978E+01
 -1       689 2.12528E-04
 -1       690 1.36324E+01
 -1       691 1.40617E-04
 -1       692 2.05015E-04
 -1       693 1.34111E+00
 -1       694 2.13167E-04
 -1       695 2.13167E-04
 -1       696 2.06560E-04
 -1       697 1.73869E-04
 -1       698 2.01938E-04
 -1       699 4.42302E+00
 -1       700 6.68617E+00
 -1       701 6.28111E+00
 -1       702 1.20704E+00
 -1       703 8.12965E+00
 -1       704 9.94931E+00
 -1       705 8.17844E+00
 -1       706 1.54397E+01
 -1       707 1.36324E+01
 -1       708 1.84800E+01
 -1       709 5.70277E+00
 -1       710 3.98375E+00
 -1       711 1.61115E+01
 -1       712 1.00484E+01
 -1       713 1.84802E+01
 -1       714 5.74234E+00
 -1       715 2.78538E+00
 -1       716 6.41387E+00
 -1       717 1.16301E+01
 -1       718 3.97399E+00
 -1       719 1.64002E+01
 -1       720 1.56292E+00
 -1       721 4.91524E+00
 -1       722 4.14647E+00
 -1       723 1.00529E+01
 -1       724 2.17927E+00
 -1       725 1.31119E+00
 -1       726 6.65048E+00
 -1       727 2.64296E-04
 -1       728 1.32322E+00
 -1       729 4.11057E+00
 -1       730 1.06793E+01
 -1       731 7.11219E+00
 -1       732 2.55559E-04
 -1       733 9.00834E+00
 -1       734 4.32714E+00
 -1       735 2.80672E+00
 -1       736 1.82597E+00
 -1       737 1.19954E+00
 -1       738 7.90603E-01
 -1       739 5.20404E-01
 -1       740 3.41034E-01
 -1       741 2.21954E-01
 -1       742 1.44941E-01
 -1       743 9.57567E-02
 -1       744 6.25355E-02
 -1       745 4.34428E-02
 -1       746 2.95502E-02
 -1       747 1.95728E-02
 -1       748 1.25057E-02
 -1       749 7.57294E-03
 -1       750 4.51487E-03
 -1       751 4.02351E-03
 -1       752 3.73156E-03
 -1       753 3.31315E-03
 -1       754 2.84909E-03
 -1       755 2.38870E-03
 -1       756 2.01618E-03
 -1       757 1.72131E-03
 -1       758 1.43285E-03
 -1       759 1.16593E-03
 -1       760 9.28170E-04
 -1       761 7.22310E-04
 -1       762 5.50380E-04
 -1       763 4.16627E-04
 -1       764 3.03962E-04
 -1       765 2.52515E-04
 -1       766 1.49946E+00
 -1       767 1.39608E+00
 -1       768 1.28252E+00
 -1       769 1.47781E+00
 -1       770 1.09662E+00
 -1       771 9.16236E-01
 -1       772 7.29089E-01
 -1       773 5.31087E-01
 -1       774 3.67146E-01
 -1       775 2.56386E-01
 -1       776 1.73625E-01
 -1       777 1.17799E-01
 -1       778 9.34733E-02
 -1       779 7.35224E-02
 -1       780 5.90752E-02
 -1       781 4.72256E-02
 -1       782 3.63240E-02
 -1       783 2.69345E-02
 -1       784 1.96423E-02
 -1       785 1.39603E-02
 -1       786 9.55453E-03
 -1       787 6.22870E-03
 -1       788 3.78565E-03
 -1       789 2.05151E-03
 -1       790 1.89112E-03
 -1       791 2.04238E-03
 -1       792 2.00497E-03
 -1       793 1.85244E-03
 -1       794 1.63849E-03
 -1       795 1.42345E-03
 -1       796 1.25659E-03
 -1       797 1.07171E-03
 -1       798 8.87439E-04
 -1       799 7.14976E-04
 -1       800 5.60215E-04
 -1       801 4.25745E-04
 -1       802 3.10388E-04
 -1       803 2.68661E-04
 -1       804 3.16595E-04
 -1       805 2.61126E-04
 -1       806 2.43206E-04
 -1       807 3.53242E+00
 -1       808 5.53450E+00
 -1       809 1.19401E+00
 -1       810 2.64296E-04
 -1       811 1.04062E+01
 -1       812 6.62749E+00
 -1       813 2.01864E+00
 -1       814 1.05127E+01
 -1       815 3.97399E+00
 -1       816 3.11914E+00
 -1       817 8.77327E+00
 -1       818 1.14240E+00
 -1       819 1.45010E+00
 -1       820 1.04062E+01
 -1       821 3.49785E-04
 -1       822 2.63670E+00
 -1       823 1.44475E+00
 -1       824 3.49785E-04
 -1       825 1.43241E+00
 -1       826 3.35742E+00
 -1       827 6.81733E+00
 -1       828 3.76147E+00
 -1       829 2.83478E+00
 -1       830 1.75480E+00
 -1       831 1.17920E+00
 -1       832 8.13020E-01
 -1       833 5.62327E-01
 -1       834 3.88153E-01
 -1       835 2.66617E-01
 -1       836 1.81884E-01
 -1       837 1.23008E-01
 -1       838 8.22758E-02
 -1       839 5.50068E-02
 -1       840 3.66980E-02
 -1       841 2.41081E-02
 -1       842 1.53625E-02
 -1       843 9.35141E-03
 -1       844 5.87569E-03
 -1       845 3.53235E-03
 -1       846 2.24287E-03
 -1       847 2.39472E-03
 -1       848 2.33448E-03
 -1       849 2.14557E-03
 -1       850 1.89336E-03
 -1       851 1.61968E-03
 -1       852 1.40694E-03
 -1       853 1.20684E-03
 -1       854 1.00712E-03
 -1       855 8.19767E-04
 -1       856 6.51236E-04
 -1       857 5.03731E-04
 -1       858 3.78149E-04
 -1       859 2.86878E-04
 -1       860 1.21905E+00
 -1       861 1.53707E+00
 -1       862 3.03538E+00
 -1       863 8.72976E-01
 -1       864 1.09662E+00
 -1       865 5.04595E-01
 -1       866 3.67146E-01
 -1       867 2.56386E-01
 -1       868 1.74420E-01
 -1       869 1.29346E-01
 -1       870 9.62886E-02
 -1       871 7.50265E-02
 -1       872 5.65031E-02
 -1       873 4.19293E-02
 -1       874 3.22680E-02
 -1       875 2.48568E-02
 -1       876 1.84079E-02
 -1       877 1.29609E-02
 -1       878 8.79344E-03
 -1       879 5.69839E-03
 -1       880 3.38452E-03
 -1       881 1.85618E-03
 -1       882 1.12051E-03
 -1       883 1.38441E-03
 -1       884 1.48803E-03
 -1       885 1.45509E-03
 -1       886 1.34013E-03
 -1       887 1.18215E-03
 -1       888 1.05544E-03
 -1       889 9.13826E-04
 -1       890 7.66670E-04
 -1       891 6.25162E-04
 -1       892 4.95493E-04
 -1       893 4.14887E-04
 -1       894 3.23166E-04
 -1       895 3.38467E+00
 -1       896 6.92868E-01
 -1       897 5.37020E+00
 -1       898 3.19013E-04
 -1       899 2.54705E+00
 -1       900 5.38005E+00
 -1       901 2.80092E+00
 -1       902 4.07679E+00
 -1       903 2.11045E+00
 -1       904 4.14887E-04
 -1       905 1.73797E+00
 -1       906 5.37020E+00
 -1       907 1.75744E+00
 -1       908 3.30629E-04
 -1       909 3.67464E-04
 -1       910 2.61015E+00
 -1       911 1.49946E+00
 -1       912 1.60820E+00
 -1       913 1.31964E+00
 -1       914 4.18786E+00
 -1       915 2.53365E+00
 -1       916 3.25335E-04
 -1       917 1.33628E+00
 -1       918 2.05278E+00
 -1       919 1.59875E+00
 -1       920 4.53980E+00
 -1       921 3.67464E-04
 -1       922 1.53362E+00
 -1       923 1.75744E+00
 -1       924 1.27223E+00
 -1       925 8.61517E-01
 -1       926 5.73595E-01
 -1       927 3.77428E-01
 -1       928 2.45860E-01
 -1       929 1.78234E-01
 -1       930 1.29230E-01
 -1       931 9.22563E-02
 -1       932 6.48408E-02
 -1       933 4.47909E-02
 -1       934 3.05186E-02
 -1       935 2.07493E-02
 -1       936 1.37078E-02
 -1       937 8.88264E-03
 -1       938 5.45424E-03
 -1       939 3.04638E-03
 -1       940 1.43116E-03
 -1       941 1.46226E-03
 -1       942 1.60908E-03
 -1       943 1.59066E-03
 -1       944 1.47572E-03
 -1       945 1.31060E-03
 -1       946 1.12579E-03
 -1       947 9.85670E-04
 -1       948 8.36991E-04
 -1       949 6.91161E-04
 -1       950 5.56299E-04
 -1       951 4.34938E-04
 -1       952 3.11253E+00
 -1       953 3.54368E-01
 -1       954 5.04595E-01
 -1       955 1.88950E-01
 -1       956 1.35882E-01
 -1       957 9.76991E-02
 -1       958 7.02736E-02
 -1       959 5.34807E-02
 -1       960 4.19293E-02
 -1       961 3.22680E-02
 -1       962 2.39540E-02
 -1       963 1.71505E-02
 -1       964 1.17946E-02
 -1       965 7.83402E-03
 -1       966 5.05291E-03
 -1       967 3.02306E-03
 -1       968 1.90014E-03
 -1       969 1.12051E-03
 -1       970 9.87669E-04
 -1       971 1.13736E-03
 -1       972 1.15506E-03
 -1       973 1.09070E-03
 -1       974 9.80192E-04
 -1       975 8.65567E-04
 -1       976 7.52525E-04
 -1       977 6.33954E-04
 -1       978 5.19735E-04
 -1       979 4.24939E-04
 -1       980 3.09212E+00
 -1       981 2.51395E-01
 -1       982 1.20087E+00
 -1       983 2.27519E+00
 -1       984 3.82711E-04
 -1       985 2.74615E+00
 -1       986 1.94680E+00
 -1       987 2.11045E+00
 -1       988 1.73582E+00
 -1       989 3.84274E+00
 -1       990 1.33628E+00
 -1       991 3.44455E-04
 -1       992 1.73772E+00
 -1       993 2.54705E+00
 -1       994 6.92868E-01
 -1       995 3.16592E+00
 -1       996 4.18786E+00
 -1       997 9.30375E-01
 -1       998 3.82711E-04
 -1       999 9.30846E-02
 -1      1000 3.63305E-04
 -1      1001 1.60820E+00
 -1      1002 9.82757E-01
 -1      1003 5.97383E-01
 -1      1004 4.06348E-01
 -1      1005 2.87787E-01
 -1      1006 2.00145E-01
 -1      1007 1.37376E-01
 -1      1008 9.33312E-02
 -1      1009 6.28409E-02
 -1      1010 4.56825E-02
 -1      1011 3.30699E-02
 -1      1012 2.33033E-02
 -1      1013 1.61368E-02
 -1      1014 1.11276E-02
 -1      1015 7.43759E-03
 -1      1016 4.68791E-03
 -1      1017 2.77649E-03
 -1      1018 1.45682E-03
 -1      1019 8.69980E-04
 -1      1020 1.10133E-03
 -1      1021 1.16701E-03
 -1      1022 1.12982E-03
 -1      1023 1.03345E-03
 -1      1024 9.07599E-04
 -1      1025 7.74802E-04
 -1      1026 6.64726E-04
 -1      1027 5.50157E-04
 -1      1028 5.16616E-04
 -1      1029 1.27852E-01
 -1      1030 1.86371E-01
 -1      1031 7.02736E-02
 -1      1032 5.34807E-02
 -1      1033 3.96943E-02
 -1      1034 2.87832E-02
 -1      1035 2.03726E-02
 -1      1036 1.40250E-02
 -1      1037 9.32588E-03
 -1      1038 6.45999E-03
 -1      1039 4.52348E-03
 -1      1040 3.02306E-03
 -1      1041 1.90014E-03
 -1      1042 1.08756E-03
 -1      1043 7.71021E-04
 -1      1044 8.91010E-04
 -1      1045 9.16144E-04
 -1      1046 8.72230E-04
 -1      1047 7.88919E-04
 -1      1048 6.86611E-04
 -1      1049 5.88352E-04
 -1      1050 4.92177E-04
 -1      1051 2.46249E+00
 -1      1052 3.95788E-01
 -1      1053 2.78187E-01
 -1      1054 1.73797E+00
 -1      1055 2.66340E+00
 -1      1056 4.18786E+00
 -1      1057 1.54563E+00
 -1      1058 5.28004E-01
 -1      1059 1.20087E+00
 -1      1060 4.65538E-04
 -1      1061 6.98046E-01
 -1      1062 5.16616E-04
 -1      1063 4.22376E-04
 -1      1064 2.17998E+00
 -1      1065 9.88847E-01
 -1      1066 2.79258E+00
 -1      1067 1.04269E+00
 -1      1068 1.68392E+00
 -1      1069 4.55514E-01
 -1      1070 7.32675E-01
 -1      1071 4.89327E-01
 -1      1072 3.16104E-01
 -1      1073 2.00145E-01
 -1      1074 1.44877E-01
 -1      1075 1.06038E-01
 -1      1076 7.63270E-02
 -1      1077 5.41974E-02
 -1      1078 3.79957E-02
 -1      1079 2.62730E-02
 -1      1080 1.79545E-02
 -1      1081 1.17744E-02
 -1      1082 8.56240E-03
 -1      1083 5.76597E-03
 -1      1084 3.75269E-03
 -1      1085 2.32146E-03
 -1      1086 1.32246E-03
 -1      1087 6.41846E-04
 -1      1088 7.51436E-04
 -1      1089 8.42401E-04
 -1      1090 8.41579E-04
 -1      1091 7.85701E-04
 -1      1092 7.00017E-04
 -1      1093 7.11433E-04
 -1      1094 5.08224E-04
 -1      1095 2.87980E-01
 -1      1096 6.64776E-02
 -1      1097 1.32521E-01
 -1      1098 1.58070E+00
 -1      1099 1.86403E-01
 -1      1100 4.67484E-02
 -1      1101 3.24148E-02
 -1      1102 2.38444E-02
 -1      1103 1.77336E-02
 -1      1104 1.27841E-02
 -1      1105 8.98041E-03
 -1      1106 6.27868E-03
 -1      1107 4.22732E-03
 -1      1108 2.70809E-03
 -1      1109 1.61244E-03
 -1      1110 8.45180E-04
 -1      1111 6.04207E-04
 -1      1112 6.95937E-04
 -1      1113 7.07329E-04
 -1      1114 6.69146E-04
 -1      1115 6.03059E-04
 -1      1116 7.01960E-04
 -1      1117 4.83694E-04
 -1      1118 9.30846E-02
 -1      1119 1.33932E+00
 -1      1120 6.94034E-01
 -1      1121 1.81879E+00
 -1      1122 7.11433E-04
 -1      1123 1.27719E+00
 -1      1124 1.01087E+00
 -1      1125 5.81014E-01
 -1      1126 4.11767E-01
 -1      1127 2.80433E-01
 -1      1128 1.85454E-01
 -1      1129 1.19840E-01
 -1      1130 7.63270E-02
 -1      1131 5.64882E-02
 -1      1132 4.23056E-02
 -1      1133 3.10226E-02
 -1      1134 2.22803E-02
 -1      1135 1.49918E-02
 -1      1136 1.10698E-02
 -1      1137 7.67707E-03
 -1      1138 5.14639E-03
 -1      1139 3.31180E-03
 -1      1140 2.03020E-03
 -1      1141 1.13602E-03
 -1      1142 6.40897E-04
 -1      1143 5.45548E-04
 -1      1144 6.18368E-04
 -1      1145 6.23722E-04
 -1      1146 6.06044E-04
 -1      1147 7.11433E-04
 -1      1148 1.48897E+00
 -1      1149 1.27719E+00
 -1      1150 8.25806E-01
 -1      1151 1.11986E+01
 -1      1152 8.49955E+00
 -1      1153 5.59420E+00
 -1      1154 4.94640E+00
 -1      1155 3.55972E+00
 -1      1156 2.51398E+00
 -1      1157 2.41339E+00
 -1      1158 2.33450E+00
 -1      1159 2.05988E+00
 -1      1160 1.83579E+00
 -1      1161 1.71421E+00
 -1      1162 1.52163E+00
 -1      1163 1.36306E+00
 -1      1164 1.44144E+00
 -1      1165 2.47223E+00
 -1      1166 6.26653E+00
 -1      1167 1.19533E+01
 -1      1168 1.11986E+01
 -1      1169 7.15315E+00
 -1      1170 3.76725E+00
 -1      1171 4.72853E+00
 -1      1172 5.03020E+00
 -1      1173 5.70865E+00
 -1      1174 9.87619E+00
 -1      1175 1.40502E+01
 -1      1176 1.47352E+01
 -1      1177 1.38767E+01
 -1      1178 9.40102E+00
 -1      1179 5.26879E+00
 -1      1180 4.80262E+00
 -1      1181 4.85145E+00
 -1      1182 4.33731E+00
 -1      1183 3.35317E+00
 -1      1184 2.42893E+00
 -1      1185 1.75520E+00
 -1      1186 1.32193E+00
 -1      1187 9.40687E-01
 -1      1188 6.51022E-01
 -1      1189 4.43296E-01
 -1      1190 2.99275E-01
 -1      1191 2.01171E-01
 -1      1192 1.34843E-01
 -1      1193 9.00650E-02
 -1      1194 6.23923E-02
 -1      1195 4.63445E-02
 -1      1196 3.50281E-02
 -1      1197 2.64100E-02
 -1      1198 1.98260E-02
 -1      1199 1.47864E-02
 -1      1200 1.09298E-02
 -1      1201 8.36373E-03
 -1      1202 6.81919E-03
 -1      1203 5.57430E-03
 -1      1204 4.46926E-03
 -1      1205 3.53104E-03
 -1      1206 2.77252E-03
 -1      1207 2.17860E-03
 -1      1208 1.69519E-03
 -1      1209 1.29644E-03
 -1      1210 9.77451E-04
 -1      1211 7.63983E-04
 -1      1212 6.25371E-04
 -1      1213 5.04498E-04
 -1      1214 3.99437E-04
 -1      1215 3.05132E-04
 -1      1216 2.31784E-04
 -1      1217 1.67415E-04
 -1      1218 8.64245E-05
 -1      1219 1.47390E+01
 -1      1220 9.25518E+00
 -1      1221 3.41099E+00
 -1      1222 2.82225E+00
 -1      1223 2.54979E+00
 -1      1224 2.55565E+00
 -1      1225 2.60563E+00
 -1      1226 2.70785E+00
 -1      1227 2.81007E+00
 -1      1228 2.80574E+00
 -1      1229 2.66157E+00
 -1      1230 2.28482E+00
 -1      1231 1.80340E+00
 -1      1232 1.30063E+00
 -1      1233 8.66022E-01
 -1      1234 5.72409E-01
 -1      1235 3.71163E-01
 -1      1236 2.24274E-01
 -1      1237 1.48216E-01
 -1      1238 1.27851E-01
 -1      1239 1.17301E-01
 -1      1240 1.04967E-01
 -1      1241 8.51915E-02
 -1      1242 6.57785E-02
 -1      1243 5.07737E-02
 -1      1244 4.01319E-02
 -1      1245 3.17233E-02
 -1      1246 2.38739E-02
 -1      1247 1.71278E-02
 -1      1248 1.27768E-02
 -1      1249 1.06165E-02
 -1      1250 8.87649E-03
 -1      1251 7.19489E-03
 -1      1252 5.90593E-03
 -1      1253 5.09915E-03
 -1      1254 4.41591E-03
 -1      1255 3.70911E-03
 -1      1256 3.03728E-03
 -1      1257 2.45194E-03
 -1      1258 1.96824E-03
 -1      1259 1.55805E-03
 -1      1260 1.20830E-03
 -1      1261 9.16861E-04
 -1      1262 6.77909E-04
 -1      1263 5.06917E-04
 -1      1264 3.95484E-04
 -1      1265 3.03365E-04
 -1      1266 2.12566E-04
 -1      1267 1.38675E-04
 -1      1268 7.14225E-05
 -1      1269 3.99566E-05
 -1      1270 4.82202E-05
 -1      1271 4.60504E-05
 -1      1272 3.36694E-05
 -1      1273 2.20250E-05
 -1      1274 2.78284E-05
 -1      1275 3.94580E-05
 -1      1276 4.51450E-05
 -1      1277 4.64390E-05
 -1      1278 4.51079E-05
 -1      1279 3.91963E-05
 -1      1280 2.75454E-05
 -1      1281 2.20618E-05
 -1      1282 3.32405E-05
 -1      1283 4.28323E-05
 -1      1284 4.06664E-05
 -1      1285 4.01338E-05
 -1      1286 2.52130E+01
 -1      1287 3.46348E+01
 -1      1288 4.40566E+01
 -1      1289 3.03401E+01
 -1      1290 1.46529E+01
 -1      1291 1.26822E+01
 -1      1292 1.23671E+01
 -1      1293 1.20520E+01
 -1      1294 1.18811E+01
 -1      1295 1.15606E+01
 -1      1296 1.66221E+01
 -1      1297 3.54230E+01
 -1      1298 4.90127E+01
 -1      1299 3.75757E+01
 -1      1300 2.57779E+01
 -1      1301 2.58782E+01
 -1      1302 3.72533E+01
 -1      1303 4.81673E+01
 -1      1304 3.50972E+01
 -1      1305 1.74016E+01
 -1      1306 1.32056E+01
 -1      1307 1.36352E+01
 -1      1308 1.33737E+01
 -1      1309 1.31122E+01
 -1      1310 1.42353E+01
 -1      1311 2.84082E+01
 -1      1312 4.14580E+01
 -1      1313 3.31169E+01
 -1      1314 2.47757E+01
 -1      1315 2.49944E+01
 -1      1316 1.11986E+01
 -1      1317 6.77615E+00
 -1      1318 9.47524E+00
 -1      1319 5.44326E+00
 -1      1320 5.64952E+00
 -1      1321 6.62521E+00
 -1      1322 5.00173E+00
 -1      1323 5.44326E+00
 -1      1324 5.49859E+00
 -1      1325 3.34196E+00
 -1      1326 4.28711E+00
 -1      1327 4.78397E+00
 -1      1328 2.53423E+00
 -1      1329 2.63481E+00
 -1      1330 3.36221E+00
 -1      1331 2.58770E+00
 -1      1332 2.58770E+00
 -1      1333 2.70854E+00
 -1      1334 2.50881E+00
 -1      1335 2.58770E+00
 -1      1336 2.76201E+00
 -1      1337 2.07116E+00
 -1      1338 2.26689E+00
 -1      1339 2.52009E+00
 -1      1340 1.85109E+00
 -1      1341 1.87945E+00
 -1      1342 2.08646E+00
 -1      1343 1.71421E+00
 -1      1344 1.80744E+00
 -1      1345 1.85109E+00
 -1      1346 1.52163E+00
 -1      1347 1.62098E+00
 -1      1348 1.71421E+00
 -1      1349 1.36306E+00
 -1      1350 1.42227E+00
 -1      1351 1.52163E+00
 -1      1352 1.50049E+00
 -1      1353 1.36291E+00
 -1      1354 1.42212E+00
 -1      1355 2.70569E+00
 -1      1356 1.81248E+00
 -1      1357 1.73395E+00
 -1      1358 6.53758E+00
 -1      1359 3.63649E+00
 -1      1360 2.97674E+00
 -1      1361 1.47390E+01
 -1      1362 1.19533E+01
 -1      1363 9.32325E+00
 -1      1364 1.47390E+01
 -1      1365 8.35322E+00
 -1      1366 4.30773E+00
 -1      1367 4.37846E+00
 -1      1368 5.03806E+00
 -1      1369 5.57854E+00
 -1      1370 4.77590E+00
 -1      1371 5.07758E+00
 -1      1372 5.38711E+00
 -1      1373 5.45534E+00
 -1      1374 5.45534E+00
 -1      1375 5.50272E+00
 -1      1376 5.46899E+00
 -1      1377 6.14744E+00
 -1      1378 5.89413E+00
 -1      1379 7.18239E+00
 -1      1380 1.06715E+01
 -1      1381 6.94273E+00
 -1      1382 1.47352E+01
 -1      1383 1.47352E+01
 -1      1384 1.38767E+01
 -1      1385 1.30183E+01
 -1      1386 1.38767E+01
 -1      1387 9.90104E+00
 -1      1388 6.28381E+00
 -1      1389 9.90104E+00
 -1      1390 4.88726E+00
 -1      1391 4.37226E+00
 -1      1392 5.38728E+00
 -1      1393 4.75378E+00
 -1      1394 4.80262E+00
 -1      1395 4.37226E+00
 -1      1396 4.85145E+00
 -1      1397 4.85145E+00
 -1      1398 4.80262E+00
 -1      1399 4.41402E+00
 -1      1400 3.89988E+00
 -1      1401 4.41402E+00
 -1      1402 3.49339E+00
 -1      1403 3.02340E+00
 -1      1404 3.57010E+00
 -1      1405 2.65715E+00
 -1      1406 2.20291E+00
 -1      1407 2.79737E+00
 -1      1408 1.91654E+00
 -1      1409 1.69705E+00
 -1      1410 2.14476E+00
 -1      1411 1.41516E+00
 -1      1412 1.20137E+00
 -1      1413 1.57649E+00
 -1      1414 9.87860E-01
 -1      1415 8.20402E-01
 -1      1416 1.08109E+00
 -1      1417 6.70096E-01
 -1      1418 5.47888E-01
 -1      1419 7.17268E-01
 -1      1420 4.59827E-01
 -1      1421 3.74309E-01
 -1      1422 4.78901E-01
 -1      1423 3.13344E-01
 -1      1424 2.54841E-01
 -1      1425 3.29875E-01
 -1      1426 2.12550E-01
 -1      1427 1.72948E-01
 -1      1428 2.26619E-01
 -1      1429 1.43813E-01
 -1      1430 1.17088E-01
 -1      1431 1.55193E-01
 -1      1432 9.70483E-02
 -1      1433 7.89948E-02
 -1      1434 1.06018E-01
 -1      1435 6.51927E-02
 -1      1436 5.55734E-02
 -1      1437 7.21760E-02
 -1      1438 4.63445E-02
 -1      1439 3.99161E-02
 -1      1440 4.91450E-02
 -1      1441 3.50281E-02
 -1      1442 3.01401E-02
 -1      1443 3.50281E-02
 -1      1444 2.64100E-02
 -1      1445 2.26799E-02
 -1      1446 2.64100E-02
 -1      1447 1.98838E-02
 -1      1448 1.70298E-02
 -1      1449 1.98838E-02
 -1      1450 1.50509E-02
 -1      1451 1.28653E-02
 -1      1452 1.51087E-02
 -1      1453 1.12986E-02
 -1      1454 9.62754E-03
 -1      1455 1.15630E-02
 -1      1456 8.41093E-03
 -1      1457 7.51589E-03
 -1      1458 8.77970E-03
 -1      1459 6.81919E-03
 -1      1460 6.16970E-03
 -1      1461 6.86640E-03
 -1      1462 5.57430E-03
 -1      1463 4.97889E-03
 -1      1464 5.57430E-03
 -1      1465 4.46926E-03
 -1      1466 3.95962E-03
 -1      1467 4.46926E-03
 -1      1468 3.57379E-03
 -1      1469 3.14521E-03
 -1      1470 3.57379E-03
 -1      1471 2.81541E-03
 -1      1472 2.48548E-03
 -1      1473 2.85817E-03
 -1      1474 2.23074E-03
 -1      1475 1.96675E-03
 -1      1476 2.27363E-03
 -1      1477 1.75613E-03
 -1      1478 1.53671E-03
 -1      1479 1.80827E-03
 -1      1480 1.35884E-03
 -1      1481 1.17951E-03
 -1      1482 1.41977E-03
 -1      1483 1.03204E-03
 -1      1484 8.92377E-04
 -1      1485 1.09443E-03
 -1      1486 7.71948E-04
 -1      1487 6.98139E-04
 -1      1488 8.26533E-04
 -1      1489 6.25371E-04
 -1      1490 5.60566E-04
 -1      1491 6.33335E-04
 -1      1492 5.04498E-04
 -1      1493 4.48429E-04
 -1      1494 5.04498E-04
 -1      1495 3.99437E-04
 -1      1496 3.50445E-04
 -1      1497 3.99437E-04
 -1      1498 3.07963E-04
 -1      1499 2.62650E-04
 -1      1500 3.07963E-04
 -1      1501 2.31784E-04
 -1      1502 2.03749E-04
 -1      1503 2.34615E-04
 -1      1504 1.67415E-04
 -1      1505 1.31082E-04
 -1      1506 1.67415E-04
 -1      1507 9.63381E-05
 -1      1508 5.16808E-05
 -1      1509 5.00474E-05
 -1      1510 9.63381E-05
 -1      1511 3.77139E+00
 -1      1512 9.25518E+00
 -1      1513 9.25518E+00
 -1      1514 3.05058E+00
 -1      1515 3.41099E+00
 -1      1516 3.41099E+00
 -1      1517 2.61254E+00
 -1      1518 2.84087E+00
 -1      1519 2.84087E+00
 -1      1520 2.56842E+00
 -1      1521 2.61254E+00
 -1      1522 2.63116E+00
 -1      1523 2.58864E+00
 -1      1524 2.53866E+00
 -1      1525 2.60141E+00
 -1      1526 2.60563E+00
 -1      1527 2.60563E+00
 -1      1528 2.58864E+00
 -1      1529 2.70286E+00
 -1      1530 2.60064E+00
 -1      1531 2.60064E+00
 -1      1532 2.81007E+00
 -1      1533 2.81007E+00
 -1      1534 2.70286E+00
 -1      1535 2.80142E+00
 -1      1536 2.80574E+00
 -1      1537 2.80574E+00
 -1      1538 2.52171E+00
 -1      1539 2.66157E+00
 -1      1540 2.66157E+00
 -1      1541 2.04793E+00
 -1      1542 2.28482E+00
 -1      1543 2.28482E+00
 -1      1544 1.55886E+00
 -1      1545 1.80340E+00
 -1      1546 1.80340E+00
 -1      1547 1.06004E+00
 -1      1548 1.31827E+00
 -1      1549 1.31827E+00
 -1      1550 7.23523E-01
 -1      1551 8.99899E-01
 -1      1552 9.17538E-01
 -1      1553 4.61922E-01
 -1      1554 5.79159E-01
 -1      1555 6.13035E-01
 -1      1556 2.87153E-01
 -1      1557 3.71163E-01
 -1      1558 3.77912E-01
 -1      1559 1.61394E-01
 -1      1560 2.24274E-01
 -1      1561 2.24274E-01
 -1      1562 1.35039E-01
 -1      1563 1.48216E-01
 -1      1564 1.48216E-01
 -1      1565 1.20663E-01
 -1      1566 1.27851E-01
 -1      1567 1.27851E-01
 -1      1568 1.13940E-01
 -1      1569 1.17301E-01
 -1      1570 1.17301E-01
 -1      1571 9.59939E-02
 -1      1572 1.04967E-01
 -1      1573 1.04967E-01
 -1      1574 7.43891E-02
 -1      1575 8.51915E-02
 -1      1576 8.51915E-02
 -1      1577 5.78050E-02
 -1      1578 6.64156E-02
 -1      1579 6.64156E-02
 -1      1580 4.46889E-02
 -1      1581 5.10832E-02
 -1      1582 5.17202E-02
 -1      1583 3.58843E-02
 -1      1584 4.01319E-02
 -1      1585 4.04413E-02
 -1      1586 2.75623E-02
 -1      1587 3.17233E-02
 -1      1588 3.17233E-02
 -1      1589 2.01855E-02
 -1      1590 2.38739E-02
 -1      1591 2.38739E-02
 -1      1592 1.41917E-02
 -1      1593 1.72494E-02
 -1      1594 1.72494E-02
 -1      1595 1.16508E-02
 -1      1596 1.29441E-02
 -1      1597 1.30657E-02
 -1      1598 9.89329E-03
 -1      1599 1.07603E-02
 -1      1600 1.09276E-02
 -1      1601 8.13007E-03
 -1      1602 9.00303E-03
 -1      1603 9.14688E-03
 -1      1604 6.49702E-03
 -1      1605 7.30566E-03
 -1      1606 7.43220E-03
 -1      1607 5.42561E-03
 -1      1608 5.90593E-03
 -1      1609 6.01670E-03
 -1      1610 4.77269E-03
 -1      1611 5.09915E-03
 -1      1612 5.09915E-03
 -1      1613 4.05912E-03
 -1      1614 4.41591E-03
 -1      1615 4.41591E-03
 -1      1616 3.35910E-03
 -1      1617 3.70911E-03
 -1      1618 3.70911E-03
 -1      1619 2.71546E-03
 -1      1620 3.03728E-03
 -1      1621 3.03728E-03
 -1      1622 2.18843E-03
 -1      1623 2.45194E-03
 -1      1624 2.45194E-03
 -1      1625 1.74806E-03
 -1      1626 1.96824E-03
 -1      1627 1.96824E-03
 -1      1628 1.37390E-03
 -1      1629 1.56391E-03
 -1      1630 1.56391E-03
 -1      1631 1.06314E-03
 -1      1632 1.22288E-03
 -1      1633 1.22874E-03
 -1      1634 8.04025E-04
 -1      1635 9.35731E-04
 -1      1636 9.50306E-04
 -1      1637 5.91236E-04
 -1      1638 6.98482E-04
 -1      1639 7.17352E-04
 -1      1640 4.43171E-04
 -1      1641 5.06917E-04
 -1      1642 5.27490E-04
 -1      1643 3.47796E-04
 -1      1644 3.95484E-04
 -1      1645 3.95484E-04
 -1      1646 2.58934E-04
 -1      1647 3.03365E-04
 -1      1648 3.03365E-04
 -1      1649 1.67415E-04
 -1      1650 2.13783E-04
 -1      1651 2.13783E-04
 -1      1652 1.11152E-04
 -1      1653 1.38675E-04
 -1      1654 1.39892E-04
 -1      1655 7.96861E-05
 -1      1656 6.77157E-05
 -1      1657 6.77157E-05
 -1      1658 6.55460E-05
 -1      1659 6.77157E-05
 -1      1660 8.72113E-05
 -1      1661 4.50787E-05
 -1      1662 5.52899E-05
 -1      1663 7.69552E-05
 -1      1664 2.80619E-05
 -1      1665 2.94950E-05
 -1      1666 5.11155E-05
 -1      1667 4.90236E-05
 -1      1668 4.17870E-05
 -1      1669 4.92570E-05
 -1      1670 6.25279E-05
 -1      1671 5.81350E-05
 -1      1672 7.20936E-05
 -1      1673 6.75624E-05
 -1      1674 6.62684E-05
 -1      1675 8.49454E-05
 -1      1676 6.75625E-05
 -1      1677 6.75625E-05
 -1      1678 8.86859E-05
 -1      1679 6.62313E-05
 -1      1680 6.75625E-05
 -1      1681 8.86860E-05
 -1      1682 5.77317E-05
 -1      1683 6.23122E-05
 -1      1684 8.47668E-05
 -1      1685 4.19094E-05
 -1      1686 4.89798E-05
 -1      1687 7.20957E-05
 -1      1688 2.99217E-05
 -1      1689 2.83349E-05
 -1      1690 4.97693E-05
 -1      1691 5.46048E-05
 -1      1692 4.50129E-05
 -1      1693 5.12860E-05
 -1      1694 6.30853E-05
 -1      1695 6.30853E-05
 -1      1696 7.48578E-05
 -1      1697 6.51082E-05
 -1      1698 6.72742E-05
 -1      1699 8.75272E-05
 -1      1700 7.66552E-05
 -1      1701 2.73118E+01
 -1      1702 2.73118E+01
 -1      1703 4.12851E+01
 -1      1704 3.18633E+01
 -1      1705 4.40566E+01
 -1      1706 4.40566E+01
 -1      1707 1.67800E+01
 -1      1708 3.04965E+01
 -1      1709 1.18428E+01
 -1      1710 1.38136E+01
 -1      1711 1.26822E+01
 -1      1712 1.26822E+01
 -1      1713 1.18997E+01
 -1      1714 1.22148E+01
 -1      1715 1.20520E+01
 -1      1716 1.20520E+01
 -1      1717 1.17101E+01
 -1      1718 1.18811E+01
 -1      1719 1.12288E+01
 -1      1720 1.13783E+01
 -1      1721 1.66221E+01
 -1      1722 1.14110E+01
 -1      1723 3.70843E+01
 -1      1724 2.34946E+01
 -1      1725 4.90127E+01
 -1      1726 4.90127E+01
 -1      1727 2.67220E+01
 -1      1728 3.81591E+01
 -1      1729 3.03392E+01
 -1      1730 3.07001E+01
 -1      1731 3.08004E+01
 -1      1732 3.03392E+01
 -1      1733 3.94119E+01
 -1      1734 2.84979E+01
 -1      1735 4.81673E+01
 -1      1736 4.81673E+01
 -1      1737 2.25897E+01
 -1      1738 3.56598E+01
 -1      1739 1.27447E+01
 -1      1740 1.73703E+01
 -1      1741 1.32056E+01
 -1      1742 1.27760E+01
 -1      1743 1.36352E+01
 -1      1744 1.36352E+01
 -1      1745 1.32136E+01
 -1      1746 1.34750E+01
 -1      1747 1.31122E+01
 -1      1748 1.31122E+01
 -1      1749 1.34608E+01
 -1      1750 1.23377E+01
 -1      1751 2.84283E+01
 -1      1752 1.53785E+01
 -1      1753 4.14580E+01
 -1      1754 4.14580E+01
 -1      1755 3.06229E+01
 -1      1756 3.89640E+01
 -1      1757 2.65584E+01
 -1      1758 2.65584E+01
 -1      1759 2.73118E+01
 -1      1760 2.70932E+01
 -1      1761 1.40502E+01
 -1      1762 1.40502E+01
 -1      1763 1.33653E+01
 -1      1764 3.04965E+01
 -1      1765 2.94106E+01
 -1      1766 7.96861E-05
 -1      1767 9.91816E-05
 -1      1768 3.39621E+01
 -1      1769 4.12851E+01
 -1      1770 1.39699E+01
 -1      1771 1.18428E+01
 -1      1772 1.22148E+01
 -1      1773 1.18997E+01
 -1      1774 1.18811E+01
 -1      1775 1.13783E+01
 -1      1776 1.12288E+01
 -1      1777 1.82834E+01
 -1      1778 3.70843E+01
 -1      1779 3.81591E+01
 -1      1780 3.12834E+01
 -1      1781 3.52614E+01
 -1      1782 3.29589E+01
 -1      1783 3.94119E+01
 -1      1784 3.56598E+01
 -1      1785 1.79329E+01
 -1      1786 1.27447E+01
 -1      1787 1.32056E+01
 -1      1788 1.34750E+01
 -1      1789 1.32136E+01
 -1      1790 1.23377E+01
 -1      1791 1.34809E+01
 -1      1792 2.84283E+01
 -1      1793 3.89640E+01
 -1      1794 3.24056E+01
 -1      1795 2.88759E+01
 -1      1796 9.47524E+00
 -1      1797 1.06715E+01
 -1      1798 5.90050E+00
 -1      1799 5.90050E+00
 -1      1800 5.81737E+00
 -1      1801 6.94400E+00
 -1      1802 6.21929E+00
 -1      1803 3.54540E+00
 -1      1804 4.25255E+00
 -1      1805 3.10964E+00
 -1      1806 3.05617E+00
 -1      1807 3.94650E+00
 -1      1808 3.10964E+00
 -1      1809 3.10964E+00
 -1      1810 3.45727E+00
 -1      1811 2.67870E+00
 -1      1812 2.92062E+00
 -1      1813 3.26825E+00
 -1      1814 2.28007E+00
 -1      1815 2.47178E+00
 -1      1816 2.87231E+00
 -1      1817 1.85258E+00
 -1      1818 1.89624E+00
 -1      1819 2.28156E+00
 -1      1820 1.42705E+00
 -1      1821 1.52028E+00
 -1      1822 1.56543E+00
 -1      1823 1.21518E+00
 -1      1824 1.31453E+00
 -1      1825 1.12060E+00
 -1      1826 1.16859E+00
 -1      1827 1.16875E+00
 -1      1828 9.61651E-01
 -1      1829 1.43406E+00
 -1      1830 1.12207E+00
 -1      1831 8.68699E-01
 -1      1832 2.47160E+00
 -1      1833 1.54079E+00
 -1      1834 9.28916E-01
 -1      1835 8.66387E+00
 -1      1836 3.24816E+00
 -1      1837 1.81222E+00
 -1      1838 3.18009E+00
 -1      1839 6.62983E+00
 -1      1840 2.76755E+00
 -1      1841 3.12795E+00
 -1      1842 2.53665E+00
 -1      1843 9.51329E+00
 -1      1844 1.22071E+01
 -1      1845 6.30568E+00
 -1      1846 6.04353E+00
 -1      1847 6.11993E+00
 -1      1848 6.49770E+00
 -1      1849 7.03850E+00
 -1      1850 7.77037E+00
 -1      1851 7.78401E+00
 -1      1852 8.38758E+00
 -1      1853 8.30133E+00
 -1      1854 9.33629E+00
 -1      1855 1.08719E+01
 -1      1856 1.01776E+01
 -1      1857 1.61426E+01
 -1      1858 2.97027E+01
 -1      1859 5.82198E+00
 -1      1860 1.15662E+01
 -1      1861 8.44898E+00
 -1      1862 6.77512E+00
 -1      1863 5.37856E+00
 -1      1864 8.44026E+00
 -1      1865 4.75396E+00
 -1      1866 5.13549E+00
 -1      1867 6.14180E+00
 -1      1868 4.41651E+00
 -1      1869 4.46534E+00
 -1      1870 4.79821E+00
 -1      1871 4.25267E+00
 -1      1872 3.81524E+00
 -1      1873 3.86656E+00
 -1      1874 3.54851E+00
 -1      1875 3.14202E+00
 -1      1876 3.38716E+00
 -1      1877 2.82729E+00
 -1      1878 2.46105E+00
 -1      1879 2.80570E+00
 -1      1880 2.18538E+00
 -1      1881 1.89901E+00
 -1      1882 2.21530E+00
 -1      1883 1.63154E+00
 -1      1884 1.34964E+00
 -1      1885 1.67216E+00
 -1      1886 1.13967E+00
 -1      1887 9.26157E-01
 -1      1888 1.19471E+00
 -1      1889 7.71407E-01
 -1      1890 6.21101E-01
 -1      1891 8.29989E-01
 -1      1892 5.11734E-01
 -1      1893 4.23673E-01
 -1      1894 5.65873E-01
 -1      1895 3.48264E-01
 -1      1896 2.87299E-01
 -1      1897 3.81097E-01
 -1      1898 2.36051E-01
 -1      1899 1.93760E-01
 -1      1900 2.54440E-01
 -1      1901 1.59207E-01
 -1      1902 1.30072E-01
 -1      1903 1.68638E-01
 -1      1904 1.07010E-01
 -1      1905 8.69702E-02
 -1      1906 1.11024E-01
 -1      1907 7.38983E-02
 -1      1908 6.00961E-02
 -1      1909 7.48903E-02
 -1      1910 5.07684E-02
 -1      1911 4.15395E-02
 -1      1912 5.24907E-02
 -1      1913 3.48907E-02
 -1      1914 3.00026E-02
 -1      1915 3.65140E-02
 -1      1916 2.52706E-02
 -1      1917 2.15406E-02
 -1      1918 2.51332E-02
 -1      1919 1.82884E-02
 -1      1920 1.54922E-02
 -1      1921 1.71490E-02
 -1      1922 1.38627E-02
 -1      1923 1.18838E-02
 -1      1924 1.22674E-02
 -1      1925 1.07065E-02
 -1      1926 9.13981E-03
 -1      1927 9.46058E-03
 -1      1928 8.25960E-03
 -1      1929 7.04300E-03
 -1      1930 7.40311E-03
 -1      1931 6.32939E-03
 -1      1932 5.63269E-03
 -1      1933 5.80929E-03
 -1      1934 5.03291E-03
 -1      1935 4.43751E-03
 -1      1936 4.49590E-03
 -1      1937 4.11594E-03
 -1      1938 3.60631E-03
 -1      1939 3.57456E-03
 -1      1940 3.32181E-03
 -1      1941 2.93598E-03
 -1      1942 2.96850E-03
 -1      1943 2.70183E-03
 -1      1944 2.37203E-03
 -1      1945 2.44984E-03
 -1      1946 2.17588E-03
 -1      1947 1.92114E-03
 -1      1948 2.01954E-03
 -1      1949 1.74583E-03
 -1      1950 1.53521E-03
 -1      1951 1.64808E-03
 -1      1952 1.38271E-03
 -1      1953 1.20484E-03
 -1      1954 1.32027E-03
 -1      1955 1.08649E-03
 -1      1956 9.39017E-04
 -1      1957 1.04942E-03
 -1      1958 8.45312E-04
 -1      1959 7.24883E-04
 -1      1960 8.37366E-04
 -1      1961 6.43722E-04
 -1      1962 5.70953E-04
 -1      1963 6.62501E-04
 -1      1964 5.02249E-04
 -1      1965 4.46180E-04
 -1      1966 5.12636E-04
 -1      1967 3.95491E-04
 -1      1968 3.46499E-04
 -1      1969 3.93243E-04
 -1      1970 3.07963E-04
 -1      1971 2.65481E-04
 -1      1972 3.04017E-04
 -1      1973 2.29529E-04
 -1      1974 1.98662E-04
 -1      1975 2.29529E-04
 -1      1976 1.70116E-04
 -1      1977 1.33782E-04
 -1      1978 1.65030E-04
 -1      1979 1.11399E-04
 -1      1980 2.63116E+00
 -1      1981 2.63116E+00
 -1      1982 2.57165E+00
 -1      1983 2.60141E+00
 -1      1984 2.60141E+00
 -1      1985 2.55438E+00
 -1      1986 2.53739E+00
 -1      1987 2.53739E+00
 -1      1988 2.47249E+00
 -1      1989 2.47748E+00
 -1      1990 2.42623E+00
 -1      1991 2.55827E+00
 -1      1992 2.45106E+00
 -1      1993 2.32791E+00
 -1      1994 2.51914E+00
 -1      1995 2.52346E+00
 -1      1996 2.27167E+00
 -1      1997 2.26767E+00
 -1      1998 2.40753E+00
 -1      1999 2.12524E+00
 -1      2000 1.85647E+00
 -1      2001 2.09336E+00
 -1      2002 1.83932E+00
 -1      2003 1.45462E+00
 -1      2004 1.69915E+00
 -1      2005 1.50769E+00
 -1      2006 1.05602E+00
 -1      2007 1.29661E+00
 -1      2008 1.19237E+00
 -1      2009 7.56247E-01
 -1      2010 9.16385E-01
 -1      2011 8.94727E-01
 -1      2012 4.99946E-01
 -1      2013 6.44310E-01
 -1      2014 6.43157E-01
 -1      2015 3.14125E-01
 -1      2016 4.04883E-01
 -1      2017 4.36158E-01
 -1      2018 1.76990E-01
 -1      2019 2.39870E-01
 -1      2020 2.66842E-01
 -1      2021 1.13915E-01
 -1      2022 1.27093E-01
 -1      2023 1.42690E-01
 -1      2024 9.86968E-02
 -1      2025 1.05884E-01
 -1      2026 8.47613E-02
 -1      2027 9.65692E-02
 -1      2028 9.99309E-02
 -1      2029 7.79646E-02
 -1      2030 8.30622E-02
 -1      2031 9.20350E-02
 -1      2032 7.46646E-02
 -1      2033 6.61669E-02
 -1      2034 7.69693E-02
 -1      2035 6.40376E-02
 -1      2036 5.31067E-02
 -1      2037 6.10802E-02
 -1      2038 5.28580E-02
 -1      2039 4.23941E-02
 -1      2040 4.91160E-02
 -1      2041 4.37806E-02
 -1      2042 3.43835E-02
 -1      2043 3.89405E-02
 -1      2044 3.63363E-02
 -1      2045 2.68206E-02
 -1      2046 3.09815E-02
 -1      2047 2.94807E-02
 -1      2048 1.99697E-02
 -1      2049 2.36582E-02
 -1      2050 2.29164E-02
 -1      2051 1.43133E-02
 -1      2052 1.72494E-02
 -1      2053 1.70337E-02
 -1      2054 1.18181E-02
 -1      2055 1.30657E-02
 -1      2056 1.30657E-02
 -1      2057 1.00371E-02
 -1      2058 1.09276E-02
 -1      2059 1.09276E-02
 -1      2060 8.25662E-03
 -1      2061 9.14688E-03
 -1      2062 9.14688E-03
 -1      2063 6.60779E-03
 -1      2064 7.43220E-03
 -1      2065 7.43220E-03
 -1      2066 5.29173E-03
 -1      2067 5.88282E-03
 -1      2068 5.88282E-03
 -1      2069 4.49849E-03
 -1      2070 4.82495E-03
 -1      2071 4.69107E-03
 -1      2072 3.82929E-03
 -1      2073 4.18608E-03
 -1      2074 3.91187E-03
 -1      2075 3.17112E-03
 -1      2076 3.52113E-03
 -1      2077 3.29130E-03
 -1      2078 2.56602E-03
 -1      2079 2.88784E-03
 -1      2080 2.69986E-03
 -1      2081 2.08359E-03
 -1      2082 2.34710E-03
 -1      2083 2.19766E-03
 -1      2084 1.66815E-03
 -1      2085 1.88833E-03
 -1      2086 1.78349E-03
 -1      2087 1.33090E-03
 -1      2088 1.51504E-03
 -1      2089 1.43513E-03
 -1      2090 1.04986E-03
 -1      2091 1.20088E-03
 -1      2092 1.15202E-03
 -1      2093 8.08795E-04
 -1      2094 9.36206E-04
 -1      2095 9.08350E-04
 -1      2096 6.06628E-04
 -1      2097 7.12171E-04
 -1      2098 6.98071E-04
 -1      2099 4.42161E-04
 -1      2100 5.26480E-04
 -1      2101 5.21298E-04
 -1      2102 3.31530E-04
 -1      2103 3.79217E-04
 -1      2104 3.78207E-04
 -1      2105 2.50044E-04
 -1      2106 2.94475E-04
 -1      2107 2.78209E-04
 -1      2108 1.68632E-04
 -1      2109 2.13783E-04
 -1      2110 2.04893E-04
 -1      2111 1.22589E-04
 -1      2112 1.51329E-04
 -1      2113 1.51329E-04
 -1      2114 1.10619E-04
 -1      2115 5.30035E-05
 -1      2116 6.85871E-05
 -1      2117 1.15210E-04
 -1      2118 1.25466E-04
 -1      2119 1.17098E-04
 -1      2120 1.10619E-04
 -1      2121 7.38543E-05
 -1      2122 6.01292E-05
 -1      2123 7.76008E-05
 -1      2124 9.65103E-05
 -1      2125 8.73989E-05
 -1      2126 9.82710E-05
 -1      2127 1.06610E-04
 -1      2128 1.02869E-04
 -1      2129 1.18174E-04
 -1      2130 1.06610E-04
 -1      2131 1.06610E-04
 -1      2132 1.24533E-04
 -1      2133 1.06530E-04
 -1      2134 1.06530E-04
 -1      2135 1.24454E-04
 -1      2136 1.02611E-04
 -1      2137 1.06530E-04
 -1      2138 1.24374E-04
 -1      2139 8.78382E-05
 -1      2140 9.65901E-05
 -1      2141 1.18353E-04
 -1      2142 6.08510E-05
 -1      2143 7.44255E-05
 -1      2144 9.89199E-05
 -1      2145 7.02808E-05
 -1      2146 5.51896E-05
 -1      2147 7.98458E-05
 -1      2148 7.87613E-05
 -1      2149 7.02808E-05
 -1      2150 7.41844E-05
 -1      2151 2.48353E+00
 -1      2152 2.69324E+00
 -1      2153 2.41021E+00
 -1      2154 2.48353E+00
 -1      2155 3.52779E+01
 -1      2156 3.25064E+01
 -1      2157 9.79215E+00
 -1      2158 1.27586E+01
 -1      2159 3.44653E+01
 -1      2160 3.44653E+01
 -1      2161 5.18589E+00
 -1      2162 5.90050E+00
 -1      2163 6.30242E+00
 -1      2164 5.36908E+00
 -1      2165 1.36967E+01
 -1      2166 1.28383E+01
 -1      2167 9.99888E+00
 -1      2168 9.15955E+00
 -1      2169 1.10757E+01
 -1      2170 1.15431E+01
 -1      2171 1.13661E+01
 -1      2172 1.12138E+01
 -1      2173 1.05421E+01
 -1      2174 1.05273E+01
 -1      2175 1.06982E+01
 -1      2176 1.00507E+01
 -1      2177 1.03825E+01
 -1      2178 9.29640E+00
 -1      2179 9.11418E+00
 -1      2180 1.76118E+01
 -1      2181 1.07393E+01
 -1      2182 3.32325E+01
 -1      2183 2.13040E+01
 -1      2184 2.73054E+01
 -1      2185 3.81591E+01
 -1      2186 2.23788E+01
 -1      2187 3.21667E+01
 -1      2188 2.81887E+01
 -1      2189 3.52614E+01
 -1      2190 3.52614E+01
 -1      2191 3.21667E+01
 -1      2192 3.15782E+01
 -1      2193 3.38807E+01
 -1      2194 3.94119E+01
 -1      2195 3.06564E+01
 -1      2196 2.02715E+01
 -1      2197 3.27790E+01
 -1      2198 1.19125E+01
 -1      2199 1.18812E+01
 -1      2200 1.23420E+01
 -1      2201 1.28853E+01
 -1      2202 1.29866E+01
 -1      2203 1.08386E+01
 -1      2204 1.16132E+01
 -1      2205 2.76678E+01
 -1      2206 1.46381E+01
 -1      2207 3.03505E+01
 -1      2208 3.28445E+01
 -1      2209 2.72843E+01
 -1      2210 3.13488E+01
 -1      2211 3.44653E+01
 -1      2212 3.39306E+01
 -1      2213 3.24199E+01
 -1      2214 2.78684E+01
 -1      2215 1.14099E-04
 -1      2216 5.89271E+00
 -1      2217 6.54913E+00
 -1      2218 2.09240E+01
 -1      2219 1.19648E+01
 -1      2220 1.13862E+01
 -1      2221 1.48873E-04
 -1      2222 3.29231E+01
 -1      2223 8.75272E-05
 -1      2224 8.33383E-05
 -1      2225 7.87613E-05
 -1      2226 1.09910E-04
 -1      2227 2.64126E+01
 -1      2228 7.94819E+00
 -1      2229 3.95201E+01
 -1      2230 3.28738E+01
 -1      2231 2.52292E+01
 -1      2232 1.90543E+01
 -1      2233 9.60868E+00
 -1      2234 8.88416E+00
 -1      2235 7.21030E+00
 -1      2236 1.15264E+01
 -1      2237 1.29866E+01
 -1      2238 1.33149E+01
 -1      2239 1.34750E+01
 -1      2240 1.40250E+01
 -1      2241 2.40236E+01
 -1      2242 3.38807E+01
 -1      2243 2.81887E+01
 -1      2244 1.76186E+01
 -1      2245 1.00745E+01
 -1      2246 1.37668E+01
 -1      2247 8.62475E+00
 -1      2248 8.11831E+00
 -1      2249 1.00123E+01
 -1      2250 1.33401E+01
 -1      2251 8.85984E+00
 -1      2252 9.19961E+00
 -1      2253 3.15782E+01
 -1      2254 1.17042E+01
 -1      2255 1.69236E+01
 -1      2256 1.21819E+01
 -1      2257 1.07659E+01
 -1      2258 1.40428E+01
 -1      2259 4.40453E+00
 -1      2260 4.40453E+00
 -1      2261 5.21992E+00
 -1      2262 5.70915E+00
 -1      2263 6.16718E+00
 -1      2264 3.18326E+00
 -1      2265 3.39018E+00
 -1      2266 2.19077E+00
 -1      2267 2.57460E+00
 -1      2268 3.09247E+00
 -1      2269 1.35756E+00
 -1      2270 1.68986E+00
 -1      2271 1.98290E+00
 -1      2272 1.01820E+00
 -1      2273 1.13072E+00
 -1      2274 1.25515E+00
 -1      2275 8.62200E-01
 -1      2276 9.08633E-01
 -1      2277 9.18747E-01
 -1      2278 9.75010E-01
 -1      2279 1.02153E+00
 -1      2280 9.68511E-01
 -1      2281 1.08175E+00
 -1      2282 9.75010E-01
 -1      2283 1.12784E+00
 -1      2284 2.13173E+00
 -1      2285 1.35516E+00
 -1      2286 1.40126E+00
 -1      2287 2.07960E+00
 -1      2288 1.40213E+01
 -1      2289 1.95965E+01
 -1      2290 8.43539E+00
 -1      2291 8.51179E+00
 -1      2292 8.43086E+00
 -1      2293 1.18149E+01
 -1      2294 9.80222E+00
 -1      2295 1.10749E+01
 -1      2296 1.11991E+01
 -1      2297 1.35255E+01
 -1      2298 7.87950E+00
 -1      2299 6.33525E+00
 -1      2300 1.66176E-04
 -1      2301 6.98145E+00
 -1      2302 7.39442E+00
 -1      2303 8.86771E+00
 -1      2304 7.06458E+00
 -1      2305 6.76640E+00
 -1      2306 6.14180E+00
 -1      2307 7.21030E+00
 -1      2308 7.78503E+00
 -1      2309 7.06605E+00
 -1      2310 8.40963E+00
 -1      2311 5.42801E+00
 -1      2312 5.21534E+00
 -1      2313 8.41483E+00
 -1      2314 4.30249E+00
 -1      2315 4.03576E+00
 -1      2316 5.86394E+00
 -1      2317 3.39587E+00
 -1      2318 3.08113E+00
 -1      2319 4.31120E+00
 -1      2320 2.58068E+00
 -1      2321 2.30501E+00
 -1      2322 3.17085E+00
 -1      2323 1.90083E+00
 -1      2324 1.63336E+00
 -1      2325 2.26622E+00
 -1      2326 1.33927E+00
 -1      2327 1.12929E+00
 -1      2328 1.56794E+00
 -1      2329 9.22050E-01
 -1      2330 7.67301E-01
 -1      2331 1.06661E+00
 -1      2332 6.24541E-01
 -1      2333 5.15174E-01
 -1      2334 7.16602E-01
 -1      2335 4.18316E-01
 -1      2336 3.42907E-01
 -1      2337 4.76985E-01
 -1      2338 2.77813E-01
 -1      2339 2.26565E-01
 -1      2340 3.15032E-01
 -1      2341 1.83079E-01
 -1      2342 1.48526E-01
 -1      2343 2.06452E-01
 -1      2344 1.19589E-01
 -1      2345 9.65276E-02
 -1      2346 1.34030E-01
 -1      2347 7.73327E-02
 -1      2348 6.42608E-02
 -1      2349 8.58981E-02
 -1      2350 5.24907E-02
 -1      2351 4.31629E-02
 -1      2352 5.49330E-02
 -1      2353 3.65140E-02
 -1      2354 2.98652E-02
 -1      2355 3.65140E-02
 -1      2356 2.51332E-02
 -1      2357 2.04012E-02
 -1      2358 2.51332E-02
 -1      2359 1.70432E-02
 -1      2360 1.37910E-02
 -1      2361 1.70432E-02
 -1      2362 1.15822E-02
 -1      2363 9.95273E-03
 -1      2364 1.14764E-02
 -1      2365 9.10750E-03
 -1      2366 7.93023E-03
 -1      2367 8.42238E-03
 -1      2368 7.42072E-03
 -1      2369 6.54051E-03
 -1      2370 7.06764E-03
 -1      2371 6.01756E-03
 -1      2372 5.30394E-03
 -1      2373 6.03517E-03
 -1      2374 4.81379E-03
 -1      2375 4.21402E-03
 -1      2376 5.02206E-03
 -1      2377 3.77750E-03
 -1      2378 3.45594E-03
 -1      2379 4.09540E-03
 -1      2380 3.07902E-03
 -1      2381 2.79453E-03
 -1      2382 3.28197E-03
 -1      2383 2.58304E-03
 -1      2384 2.34889E-03
 -1      2385 2.69357E-03
 -1      2386 2.14871E-03
 -1      2387 1.95256E-03
 -1      2388 2.28191E-03
 -1      2389 1.76570E-03
 -1      2390 1.59039E-03
 -1      2391 1.89487E-03
 -1      2392 1.43430E-03
 -1      2393 1.28180E-03
 -1      2394 1.55192E-03
 -1      2395 1.14541E-03
 -1      2396 1.02706E-03
 -1      2397 1.25943E-03
 -1      2398 9.07577E-04
 -1      2399 8.13872E-04
 -1      2400 1.00356E-03
 -1      2401 7.11818E-04
 -1      2402 6.30657E-04
 -1      2403 7.82028E-04
 -1      2404 5.45388E-04
 -1      2405 4.76684E-04
 -1      2406 5.94705E-04
 -1      2407 4.07034E-04
 -1      2408 3.56345E-04
 -1      2409 4.39786E-04
 -1      2410 3.01047E-04
 -1      2411 2.62511E-04
 -1      2412 3.14839E-04
 -1      2413 2.26736E-04
 -1      2414 1.90784E-04
 -1      2415 2.23766E-04
 -1      2416 1.65030E-04
 -1      2417 1.36483E-04
 -1      2418 1.09910E-04
 -1      2419 1.62237E-04
 -1      2420 2.12053E+00
 -1      2421 2.19742E+00
 -1      2422 2.25239E+00
 -1      2423 2.28665E+00
 -1      2424 1.94668E+00
 -1      2425 2.30110E+00
 -1      2426 2.33086E+00
 -1      2427 2.01610E+00
 -1      2428 2.01041E+00
 -1      2429 2.03184E+00
 -1      2430 1.80303E+00
 -1      2431 1.97917E+00
 -1      2432 2.01398E+00
 -1      2433 1.71792E+00
 -1      2434 1.84058E+00
 -1      2435 1.95218E+00
 -1      2436 1.69450E+00
 -1      2437 1.58876E+00
 -1      2438 1.76307E+00
 -1      2439 1.59001E+00
 -1      2440 1.33858E+00
 -1      2441 1.49590E+00
 -1      2442 1.41964E+00
 -1      2443 1.06743E+00
 -1      2444 1.22544E+00
 -1      2445 1.21364E+00
 -1      2446 7.85361E-01
 -1      2447 9.24993E-01
 -1      2448 9.58065E-01
 -1      2449 5.57185E-01
 -1      2450 6.69122E-01
 -1      2451 6.99389E-01
 -1      2452 3.71503E-01
 -1      2453 4.66565E-01
 -1      2454 4.92530E-01
 -1      2455 2.25744E-01
 -1      2456 2.99999E-01
 -1      2457 3.30406E-01
 -1      2458 1.20878E-01
 -1      2459 1.70775E-01
 -1      2460 2.03932E-01
 -1      2461 8.93184E-02
 -1      2462 9.73493E-02
 -1      2463 1.25435E-01
 -1      2464 7.77357E-02
 -1      2465 7.65016E-02
 -1      2466 8.90896E-02
 -1      2467 6.51378E-02
 -1      2468 6.96720E-02
 -1      2469 6.82089E-02
 -1      2470 5.77580E-02
 -1      2471 6.38509E-02
 -1      2472 5.88582E-02
 -1      2473 4.98599E-02
 -1      2474 5.49466E-02
 -1      2475 5.47599E-02
 -1      2476 4.17029E-02
 -1      2477 4.56936E-02
 -1      2478 4.77822E-02
 -1      2479 3.44309E-02
 -1      2480 3.78845E-02
 -1      2481 3.97975E-02
 -1      2482 2.71825E-02
 -1      2483 3.05844E-02
 -1      2484 3.21327E-02
 -1      2485 2.03794E-02
 -1      2486 2.35418E-02
 -1      2487 2.46454E-02
 -1      2488 1.45128E-02
 -1      2489 1.72331E-02
 -1      2490 1.78585E-02
 -1      2491 1.10764E-02
 -1      2492 1.23240E-02
 -1      2493 1.25234E-02
 -1      2494 8.68290E-03
 -1      2495 9.57336E-03
 -1      2496 8.83166E-03
 -1      2497 7.12684E-03
 -1      2498 8.01710E-03
 -1      2499 6.66285E-03
 -1      2500 5.96132E-03
 -1      2501 6.78573E-03
 -1      2502 5.65595E-03
 -1      2503 4.85329E-03
 -1      2504 5.57826E-03
 -1      2505 4.93179E-03
 -1      2506 4.00299E-03
 -1      2507 4.46977E-03
 -1      2508 4.16521E-03
 -1      2509 3.33231E-03
 -1      2510 3.64473E-03
 -1      2511 3.42343E-03
 -1      2512 2.81250E-03
 -1      2513 3.12065E-03
 -1      2514 2.85351E-03
 -1      2515 2.34686E-03
 -1      2516 2.63015E-03
 -1      2517 2.45950E-03
 -1      2518 1.94255E-03
 -1      2519 2.16147E-03
 -1      2520 2.09176E-03
 -1      2521 1.58327E-03
 -1      2522 1.77852E-03
 -1      2523 1.74233E-03
 -1      2524 1.28789E-03
 -1      2525 1.44099E-03
 -1      2526 1.43602E-03
 -1      2527 1.02825E-03
 -1      2528 1.15826E-03
 -1      2529 1.16412E-03
 -1      2530 8.03043E-04
 -1      2531 9.16697E-04
 -1      2532 9.22944E-04
 -1      2533 6.20118E-04
 -1      2534 7.16743E-04
 -1      2535 7.25091E-04
 -1      2536 4.65165E-04
 -1      2537 5.45313E-04
 -1      2538 5.63985E-04
 -1      2539 3.39288E-04
 -1      2540 4.02231E-04
 -1      2541 4.26246E-04
 -1      2542 2.50624E-04
 -1      2543 2.87679E-04
 -1      2544 3.11704E-04
 -1      2545 1.75909E-04
 -1      2546 2.12170E-04
 -1      2547 2.21640E-04
 -1      2548 1.27749E-04
 -1      2549 1.14204E-04
 -1      2550 9.88043E-05
 -1      2551 9.16786E-05
 -1      2552 1.28282E-04
 -1      2553 1.02706E-04
 -1      2554 1.49329E-04
 -1      2555 1.23910E-04
 -1      2556 2.63262E+01
 -1      2557 3.29231E+01
 -1      2558 1.44067E-04
 -1      2559 1.37708E-04
 -1      2560 1.53641E-04
 -1      2561 1.44646E-04
 -1      2562 1.44646E-04
 -1      2563 1.64180E-04
 -1      2564 1.44567E-04
 -1      2565 1.44646E-04
 -1      2566 1.64759E-04
 -1      2567 1.44433E-04
 -1      2568 1.44433E-04
 -1      2569 1.64626E-04
 -1      2570 1.38259E-04
 -1      2571 1.44280E-04
 -1      2572 1.64339E-04
 -1      2573 1.14660E-04
 -1      2574 1.28072E-04
 -1      2575 1.53999E-04
 -1      2576 9.65195E-05
 -1      2577 1.02181E-04
 -1      2578 1.31333E-04
 -1      2579 1.15148E-04
 -1      2580 1.15148E-04
 -1      2581 1.37483E-04
 -1      2582 5.95600E+00
 -1      2583 6.58860E+00
 -1      2584 3.28738E+01
 -1      2585 2.62274E+01
 -1      2586 3.74354E+00
 -1      2587 3.93256E+00
 -1      2588 4.05449E+00
 -1      2589 3.95201E+01
 -1      2590 3.95201E+01
 -1      2591 7.97856E+00
 -1      2592 8.12337E+00
 -1      2593 9.13915E+00
 -1      2594 9.00109E+00
 -1      2595 2.57983E+01
 -1      2596 2.67201E+01
 -1      2597 8.70443E+00
 -1      2598 9.37232E+00
 -1      2599 7.48338E+00
 -1      2600 5.87336E+00
 -1      2601 6.80985E+00
 -1      2602 7.42656E+00
 -1      2603 5.98363E+00
 -1      2604 2.02221E+01
 -1      2605 1.52955E+01
 -1      2606 2.50165E+01
 -1      2607 2.41332E+01
 -1      2608 3.21667E+01
 -1      2609 2.90720E+01
 -1      2610 3.25000E+01
 -1      2611 3.38807E+01
 -1      2612 2.16331E+01
 -1      2613 2.06348E+01
 -1      2614 2.26345E+01
 -1      2615 2.25481E+01
 -1      2616 1.73453E-04
 -1      2617 9.56203E+00
 -1      2618 8.28862E+00
 -1      2619 9.22196E+00
 -1      2620 1.04874E+01
 -1      2621 1.88586E+00
 -1      2622 1.48094E+00
 -1      2623 1.81155E+00
 -1      2624 4.87982E+00
 -1      2625 6.43867E+00
 -1      2626 6.47651E+00
 -1      2627 1.59061E-04
 -1      2628 3.29231E+01
 -1      2629 2.25481E+01
 -1      2630 4.97566E+00
 -1      2631 2.09704E+00
 -1      2632 1.94941E+00
 -1      2633 1.42506E+00
 -1      2634 1.79674E+00
 -1      2635 9.22196E+00
 -1      2636 9.22196E+00
 -1      2637 9.98412E+00
 -1      2638 1.21415E+01
 -1      2639 2.16331E+01
 -1      2640 1.16100E+01
 -1      2641 7.96104E+00
 -1      2642 7.95421E+00
 -1      2643 5.31310E+00
 -1      2644 1.57319E+01
 -1      2645 2.67201E+01
 -1      2646 3.07860E+01
 -1      2647 2.50165E+01
 -1      2648 5.73361E+00
 -1      2649 1.70499E+01
 -1      2650 7.83127E+00
 -1      2651 4.67517E+00
 -1      2652 3.28738E+01
 -1      2653 1.38953E+01
 -1      2654 1.74914E+01
 -1      2655 2.15730E+01
 -1      2656 1.67149E+01
 -1      2657 1.23147E+01
 -1      2658 1.19725E-04
 -1      2659 1.15148E-04
 -1      2660 1.56112E-04
 -1      2661 1.46297E-04
 -1      2662 1.56804E+01
 -1      2663 2.23132E+01
 -1      2664 8.75912E+00
 -1      2665 1.03220E+01
 -1      2666 1.61676E+00
 -1      2667 2.11767E+00
 -1      2668 2.78118E+00
 -1      2669 3.38985E+00
 -1      2670 2.41505E+00
 -1      2671 8.86602E-01
 -1      2672 9.96167E-01
 -1      2673 1.29398E+00
 -1      2674 1.13465E+00
 -1      2675 1.21207E+00
 -1      2676 1.56740E+00
 -1      2677 1.29398E+00
 -1      2678 1.37366E+00
 -1      2679 1.18151E+01
 -1      2680 1.88643E-04
 -1      2681 1.88643E-04
 -1      2682 1.70614E-04
 -1      2683 1.55214E-04
 -1      2684 9.30430E+00
 -1      2685 7.66625E+00
 -1      2686 6.73598E+00
 -1      2687 5.82314E+00
 -1      2688 7.62545E+00
 -1      2689 4.94206E+00
 -1      2690 4.30217E+00
 -1      2691 5.81411E+00
 -1      2692 3.50398E+00
 -1      2693 3.00353E+00
 -1      2694 4.13485E+00
 -1      2695 2.42413E+00
 -1      2696 2.01995E+00
 -1      2697 2.75726E+00
 -1      2698 1.63268E+00
 -1      2699 1.33858E+00
 -1      2700 1.79059E+00
 -1      2701 1.09525E+00
 -1      2702 8.88004E-01
 -1      2703 1.15998E+00
 -1      2704 7.30079E-01
 -1      2705 5.87320E-01
 -1      2706 7.58722E-01
 -1      2707 4.90111E-01
 -1      2708 3.93253E-01
 -1      2709 5.03588E-01
 -1      2710 3.30688E-01
 -1      2711 2.65594E-01
 -1      2712 3.43815E-01
 -1      2713 2.21630E-01
 -1      2714 1.78144E-01
 -1      2715 2.37286E-01
 -1      2716 1.47374E-01
 -1      2717 1.18437E-01
 -1      2718 1.62552E-01
 -1      2719 9.69941E-02
 -1      2720 7.77991E-02
 -1      2721 1.10338E-01
 -1      2722 6.29216E-02
 -1      2723 5.11515E-02
 -1      2724 7.40176E-02
 -1      2725 4.08817E-02
 -1      2726 3.42328E-02
 -1      2727 4.88703E-02
 -1      2728 2.71892E-02
 -1      2729 2.24572E-02
 -1      2730 3.15568E-02
 -1      2731 1.76685E-02
 -1      2732 1.43105E-02
 -1      2733 1.97244E-02
 -1      2734 1.14764E-02
 -1      2735 9.26761E-03
 -1      2736 1.21017E-02
 -1      2737 8.42238E-03
 -1      2738 7.57714E-03
 -1      2739 8.42238E-03
 -1      2740 7.06764E-03
 -1      2741 6.55813E-03
 -1      2742 7.06764E-03
 -1      2743 6.03517E-03
 -1      2744 5.51221E-03
 -1      2745 6.03517E-03
 -1      2746 5.02206E-03
 -1      2747 4.53191E-03
 -1      2748 5.02206E-03
 -1      2749 4.09540E-03
 -1      2750 3.65888E-03
 -1      2751 4.09540E-03
 -1      2752 3.34286E-03
 -1      2753 2.96595E-03
 -1      2754 3.34286E-03
 -1      2755 2.70964E-03
 -1      2756 2.49816E-03
 -1      2757 2.77053E-03
 -1      2758 2.28191E-03
 -1      2759 2.08173E-03
 -1      2760 2.29797E-03
 -1      2761 1.89657E-03
 -1      2762 1.70972E-03
 -1      2763 1.89657E-03
 -1      2764 1.55903E-03
 -1      2765 1.40294E-03
 -1      2766 1.56074E-03
 -1      2767 1.26613E-03
 -1      2768 1.12974E-03
 -1      2769 1.27325E-03
 -1      2770 1.00954E-03
 -1      2771 8.90060E-04
 -1      2772 1.01624E-03
 -1      2773 7.95784E-04
 -1      2774 6.93730E-04
 -1      2775 8.01762E-04
 -1      2776 6.15177E-04
 -1      2777 5.29908E-04
 -1      2778 6.28933E-04
 -1      2779 4.63031E-04
 -1      2780 3.93382E-04
 -1      2781 4.83503E-04
 -1      2782 3.37049E-04
 -1      2783 2.81752E-04
 -1      2784 3.60294E-04
 -1      2785 2.42461E-04
 -1      2786 2.06685E-04
 -1      2787 2.64671E-04
 -1      2788 1.74406E+00
 -1      2789 1.79902E+00
 -1      2790 1.59035E+00
 -1      2791 1.67903E+00
 -1      2792 1.53137E+00
 -1      2793 1.81780E+00
 -1      2794 1.83225E+00
 -1      2795 1.61517E+00
 -1      2796 1.52612E+00
 -1      2797 1.55311E+00
 -1      2798 1.43224E+00
 -1      2799 1.50975E+00
 -1      2800 1.36835E+00
 -1      2801 1.30135E+00
 -1      2802 1.39421E+00
 -1      2803 1.31394E+00
 -1      2804 1.12389E+00
 -1      2805 1.23703E+00
 -1      2806 1.21159E+00
 -1      2807 8.65932E-01
 -1      2808 1.00837E+00
 -1      2809 1.03175E+00
 -1      2810 6.62748E-01
 -1      2811 7.78987E-01
 -1      2812 8.29291E-01
 -1      2813 4.85719E-01
 -1      2814 5.76339E-01
 -1      2815 6.55937E-01
 -1      2816 3.30406E-01
 -1      2817 4.01910E-01
 -1      2818 4.85719E-01
 -1      2819 2.03932E-01
 -1      2820 2.58901E-01
 -1      2821 3.30406E-01
 -1      2822 1.37766E-01
 -1      2823 1.61294E-01
 -1      2824 2.16263E-01
 -1      2825 9.70357E-02
 -1      2826 1.09853E-01
 -1      2827 1.45712E-01
 -1      2828 6.87278E-02
 -1      2829 7.67916E-02
 -1      2830 9.75546E-02
 -1      2831 6.38337E-02
 -1      2832 6.51207E-02
 -1      2833 7.37033E-02
 -1      2834 5.55118E-02
 -1      2835 5.83232E-02
 -1      2836 6.45856E-02
 -1      2837 4.67993E-02
 -1      2838 5.09657E-02
 -1      2839 5.45290E-02
 -1      2840 3.82455E-02
 -1      2841 4.20638E-02
 -1      2842 4.52473E-02
 -1      2843 3.01641E-02
 -1      2844 3.40106E-02
 -1      2845 3.62769E-02
 -1      2846 2.27684E-02
 -1      2847 2.64091E-02
 -1      2848 2.82871E-02
 -1      2849 1.63426E-02
 -1      2850 1.94888E-02
 -1      2851 2.12525E-02
 -1      2852 1.14476E-02
 -1      2853 1.36364E-02
 -1      2854 1.52668E-02
 -1      2855 7.81105E-03
 -1      2856 9.31405E-03
 -1      2857 1.04270E-02
 -1      2858 5.52988E-03
 -1      2859 6.19568E-03
 -1      2860 6.67807E-03
 -1      2861 4.37888E-03
 -1      2862 4.71998E-03
 -1      2863 4.25281E-03
 -1      2864 3.90000E-03
 -1      2865 4.28306E-03
 -1      2866 3.34709E-03
 -1      2867 3.42234E-03
 -1      2868 3.80586E-03
 -1      2869 3.15713E-03
 -1      2870 2.90785E-03
 -1      2871 3.26611E-03
 -1      2872 2.90676E-03
 -1      2873 2.51135E-03
 -1      2874 2.72301E-03
 -1      2875 2.56569E-03
 -1      2876 2.13840E-03
 -1      2877 2.32075E-03
 -1      2878 2.19025E-03
 -1      2879 1.82111E-03
 -1      2880 2.00650E-03
 -1      2881 1.86775E-03
 -1      2882 1.53356E-03
 -1      2883 1.69760E-03
 -1      2884 1.61234E-03
 -1      2885 1.26704E-03
 -1      2886 1.40932E-03
 -1      2887 1.36458E-03
 -1      2888 1.02584E-03
 -1      2889 1.15547E-03
 -1      2890 1.12876E-03
 -1      2891 8.15496E-04
 -1      2892 9.27049E-04
 -1      2893 9.18393E-04
 -1      2894 6.40986E-04
 -1      2895 7.27286E-04
 -1      2896 7.31391E-04
 -1      2897 4.89963E-04
 -1      2898 5.64768E-04
 -1      2899 5.66964E-04
 -1      2900 3.66745E-04
 -1      2901 4.29679E-04
 -1      2902 4.30462E-04
 -1      2903 2.67748E-04
 -1      2904 3.19356E-04
 -1      2905 3.22789E-04
 -1      2906 1.88654E-04
 -1      2907 2.27109E-04
 -1      2908 2.34762E-04
 -1      2909 1.64530E-04
 -1      2910 1.95126E+01
 -1      2911 1.49182E+01
 -1      2912 1.88643E-04
 -1      2913 1.88064E-04
 -1      2914 2.12528E-04
 -1      2915 1.07296E+01
 -1      2916 1.17705E+01
 -1      2917 1.28869E+01
 -1      2918 1.26750E-04
 -1      2919 1.37777E-04
 -1      2920 1.67370E-04
 -1      2921 1.69082E-04
 -1      2922 1.84308E-04
 -1      2923 1.74349E-04
 -1      2924 2.01281E-04
 -1      2925 2.08771E-04
 -1      2926 1.53130E+00
 -1      2927 1.52773E+00
 -1      2928 1.40373E+00
 -1      2929 1.36292E+00
 -1      2930 1.88830E-04
 -1      2931 1.88963E-04
 -1      2932 2.12847E-04
 -1      2933 1.88676E-04
 -1      2934 1.88830E-04
 -1      2935 2.13167E-04
 -1      2936 1.75186E-04
 -1      2937 1.85373E-04
 -1      2938 2.09864E-04
 -1      2939 1.46362E-04
 -1      2940 1.58841E-04
 -1      2941 1.90214E-04
 -1      2942 1.79025E-04
 -1      2943 1.60396E-04
 -1      2944 1.87904E-04
 -1      2945 6.01056E+00
 -1      2946 4.88897E+00
 -1      2947 5.54701E+00
 -1      2948 6.01898E+00
 -1      2949 5.43876E+00
 -1      2950 7.28102E+00
 -1      2951 1.11767E+00
 -1      2952 1.34452E+00
 -1      2953 1.47928E+00
 -1      2954 1.08553E+00
 -1      2955 1.06342E+01
 -1      2956 9.10549E+00
 -1      2957 7.65055E+00
 -1      2958 8.46594E+00
 -1      2959 8.31774E+00
 -1      2960 8.22968E+00
 -1      2961 1.04361E+01
 -1      2962 7.22977E+00
 -1      2963 1.71048E+01
 -1      2964 2.08829E+01
 -1      2965 2.30662E+01
 -1      2966 2.13522E+01
 -1      2967 1.32298E+01
 -1      2968 2.90000E+01
 -1      2969 2.23537E+01
 -1      2970 6.88361E+00
 -1      2971 6.65044E+00
 -1      2972 4.27433E+00
 -1      2973 5.44304E+00
 -1      2974 2.25917E+01
 -1      2975 1.85362E+01
 -1      2976 1.13711E+01
 -1      2977 1.44092E+01
 -1      2978 1.54849E+01
 -1      2979 1.97102E+01
 -1      2980 2.54901E+01
 -1      2981 6.32233E+00
 -1      2982 6.90339E+00
 -1      2983 3.78541E+00
 -1      2984 3.67514E+00
 -1      2985 3.38456E+00
 -1      2986 5.05750E+00
 -1      2987 5.41086E+00
 -1      2988 4.74622E+00
 -1      2989 1.41944E+01
 -1      2990 1.62955E+01
 -1      2991 1.23844E+01
 -1      2992 4.66446E+00
 -1      2993 4.28520E+00
 -1      2994 2.13632E+01
 -1      2995 2.79602E+01
 -1      2996 1.60563E+01
 -1      2997 1.29398E+00
 -1      2998 6.98520E+00
 -1      2999 1.15470E+01
 -1      3000 1.41265E+01
 -1      3001 1.59843E+00
 -1      3002 1.79674E+00
 -1      3003 1.72052E-04
 -1      3004 1.56389E+01
 -1      3005 5.12755E+00
 -1      3006 6.55002E+00
 -1      3007 4.19851E+00
 -1      3008 1.90746E-04
 -1      3009 2.13659E-04
 -1      3010 6.25667E+00
 -1      3011 4.66913E+00
 -1      3012 5.30901E+00
 -1      3013 9.11340E+00
 -1      3014 1.46012E+00
 -1      3015 1.56292E+00
 -1      3016 1.59200E+01
 -1      3017 4.46596E+00
 -1      3018 3.46592E+00
 -1      3019 4.99361E+00
 -1      3020 1.48719E+01
 -1      3021 1.30304E+01
 -1      3022 5.72256E+00
 -1      3023 1.27440E+01
 -1      3024 1.60563E+01
 -1      3025 1.14253E+01
 -1      3026 1.06767E+01
 -1      3027 1.74401E+01
 -1      3028 4.86304E+00
 -1      3029 1.38708E+01
 -1      3030 1.35458E+01
 -1      3031 1.04024E+01
 -1      3032 1.90746E-04
 -1      3033 8.40963E+00
 -1      3034 1.96540E+00
 -1      3035 2.62892E+00
 -1      3036 1.38565E+00
 -1      3037 1.13760E+00
 -1      3038 1.51152E+00
 -1      3039 7.39007E+00
 -1      3040 6.24561E+00
 -1      3041 1.28869E+01
 -1      3042 1.28869E+01
 -1      3043 2.38732E-04
 -1      3044 2.38732E-04
 -1      3045 1.47859E+00
 -1      3046 1.44307E+00
 -1      3047 4.92645E+00
 -1      3048 4.90667E+00
 -1      3049 1.30595E+01
 -1      3050 1.35398E+01
 -1      3051 9.37114E+00
 -1      3052 1.01255E+01
 -1      3053 2.34363E-04
 -1      3054 2.34043E-04
 -1      3055 2.59928E-04
 -1      3056 7.85176E+00
 -1      3057 6.97069E+00
 -1      3058 4.63009E+00
 -1      3059 3.83190E+00
 -1      3060 6.66774E+00
 -1      3061 3.07169E+00
 -1      3062 2.49229E+00
 -1      3063 3.56693E+00
 -1      3064 2.00192E+00
 -1      3065 1.61465E+00
 -1      3066 2.31634E+00
 -1      3067 1.30143E+00
 -1      3068 1.05809E+00
 -1      3069 1.51276E+00
 -1      3070 8.53625E-01
 -1      3071 6.95700E-01
 -1      3072 9.95072E-01
 -1      3073 5.60600E-01
 -1      3074 4.63391E-01
 -1      3075 6.55503E-01
 -1      3076 3.73706E-01
 -1      3077 3.11142E-01
 -1      3078 4.30719E-01
 -1      3079 2.51602E-01
 -1      3080 2.07638E-01
 -1      3081 2.81494E-01
 -1      3082 1.69131E-01
 -1      3083 1.38361E-01
 -1      3084 1.83448E-01
 -1      3085 1.13769E-01
 -1      3086 9.23259E-02
 -1      3087 1.20349E-01
 -1      3088 7.57153E-02
 -1      3089 6.08378E-02
 -1      3090 7.91461E-02
 -1      3091 5.12915E-02
 -1      3092 4.10216E-02
 -1      3093 5.29892E-02
 -1      3094 3.40753E-02
 -1      3095 2.70316E-02
 -1      3096 3.64965E-02
 -1      3097 2.20430E-02
 -1      3098 1.72543E-02
 -1      3099 2.45615E-02
 -1      3100 1.37208E-02
 -1      3101 1.08867E-02
 -1      3102 1.60393E-02
 -1      3103 8.42027E-03
 -1      3104 7.57504E-03
 -1      3105 1.00393E-02
 -1      3106 6.04601E-03
 -1      3107 5.53650E-03
 -1      3108 6.04390E-03
 -1      3109 5.29082E-03
 -1      3110 4.76786E-03
 -1      3111 4.26919E-03
 -1      3112 4.62189E-03
 -1      3113 4.13174E-03
 -1      3114 3.87754E-03
 -1      3115 3.92253E-03
 -1      3116 3.48602E-03
 -1      3117 3.52235E-03
 -1      3118 3.25399E-03
 -1      3119 2.93797E-03
 -1      3120 3.08112E-03
 -1      3121 2.70777E-03
 -1      3122 2.45146E-03
 -1      3123 2.61889E-03
 -1      3124 2.26520E-03
 -1      3125 2.04895E-03
 -1      3126 2.20244E-03
 -1      3127 1.90152E-03
 -1      3128 1.71636E-03
 -1      3129 1.86874E-03
 -1      3130 1.57213E-03
 -1      3131 1.42145E-03
 -1      3132 1.57708E-03
 -1      3133 1.28799E-03
 -1      3134 1.15119E-03
 -1      3135 1.29939E-03
 -1      3136 1.03231E-03
 -1      3137 9.12104E-04
 -1      3138 1.04705E-03
 -1      3139 8.09174E-04
 -1      3140 7.14898E-04
 -1      3141 8.25240E-04
 -1      3142 6.28933E-04
 -1      3143 5.50380E-04
 -1      3144 6.36345E-04
 -1      3145 4.83503E-04
 -1      3146 4.16627E-04
 -1      3147 4.83503E-04
 -1      3148 3.60294E-04
 -1      3149 3.03962E-04
 -1      3150 3.60294E-04
 -1      3151 2.78238E-04
 -1      3152 2.38947E-04
 -1      3153 2.27227E-04
 -1      3154 2.78238E-04
 -1      3155 1.48290E+00
 -1      3156 1.54793E+00
 -1      3157 1.49624E+00
 -1      3158 1.51501E+00
 -1      3159 1.35965E+00
 -1      3160 1.44777E+00
 -1      3161 1.27922E+00
 -1      3162 1.31725E+00
 -1      3163 1.41490E+00
 -1      3164 1.43127E+00
 -1      3165 1.38017E+00
 -1      3166 1.00643E+00
 -1      3167 1.12194E+00
 -1      3168 8.29291E-01
 -1      3169 9.16236E-01
 -1      3170 1.00643E+00
 -1      3171 6.49308E-01
 -1      3172 7.35717E-01
 -1      3173 8.22662E-01
 -1      3174 4.66499E-01
 -1      3175 5.50308E-01
 -1      3176 6.30088E-01
 -1      3177 3.13024E-01
 -1      3178 3.84528E-01
 -1      3179 4.49117E-01
 -1      3180 2.15005E-01
 -1      3181 2.57643E-01
 -1      3182 3.11766E-01
 -1      3183 1.45712E-01
 -1      3184 1.73625E-01
 -1      3185 2.15005E-01
 -1      3186 9.75546E-02
 -1      3187 1.17799E-01
 -1      3188 1.45712E-01
 -1      3189 8.17847E-02
 -1      3190 8.53918E-02
 -1      3191 1.05636E-01
 -1      3192 6.62988E-02
 -1      3193 7.18093E-02
 -1      3194 8.34979E-02
 -1      3195 5.45290E-02
 -1      3196 5.90752E-02
 -1      3197 6.62988E-02
 -1      3198 4.38687E-02
 -1      3199 4.86042E-02
 -1      3200 5.31504E-02
 -1      3201 3.41830E-02
 -1      3202 3.84179E-02
 -1      3203 4.17748E-02
 -1      3204 2.57333E-02
 -1      3205 2.94883E-02
 -1      3206 3.16293E-02
 -1      3207 1.88076E-02
 -1      3208 2.20872E-02
 -1      3209 2.32884E-02
 -1      3210 1.32604E-02
 -1      3211 1.59666E-02
 -1      3212 1.68013E-02
 -1      3213 8.92399E-03
 -1      3214 1.10576E-02
 -1      3215 1.17574E-02
 -1      3216 5.64570E-03
 -1      3217 7.26107E-03
 -1      3218 7.89161E-03
 -1      3219 3.61428E-03
 -1      3220 4.42417E-03
 -1      3221 5.00717E-03
 -1      3222 2.65139E-03
 -1      3223 2.74721E-03
 -1      3224 2.91858E-03
 -1      3225 2.47705E-03
 -1      3226 2.57119E-03
 -1      3227 1.97131E-03
 -1      3228 2.39646E-03
 -1      3229 2.55268E-03
 -1      3230 1.96675E-03
 -1      3231 2.19291E-03
 -1      3232 2.37775E-03
 -1      3233 2.02368E-03
 -1      3234 1.92604E-03
 -1      3235 2.11664E-03
 -1      3236 1.92870E-03
 -1      3237 1.68717E-03
 -1      3238 1.81907E-03
 -1      3239 1.74546E-03
 -1      3240 1.45614E-03
 -1      3241 1.57965E-03
 -1      3242 1.53097E-03
 -1      3243 1.24846E-03
 -1      3244 1.37271E-03
 -1      3245 1.34002E-03
 -1      3246 1.04445E-03
 -1      3247 1.15602E-03
 -1      3248 1.16415E-03
 -1      3249 8.53520E-04
 -1      3250 9.52313E-04
 -1      3251 9.79573E-04
 -1      3252 6.79078E-04
 -1      3253 7.67288E-04
 -1      3254 8.01207E-04
 -1      3255 5.25480E-04
 -1      3256 6.01698E-04
 -1      3257 6.37595E-04
 -1      3258 3.97962E-04
 -1      3259 4.58245E-04
 -1      3260 4.92980E-04
 -1      3261 2.92894E-04
 -1      3262 3.40283E-04
 -1      3263 3.68067E-04
 -1      3264 2.31392E-04
 -1      3265 2.72031E-04
 -1      3266 2.89525E-04
 -1      3267 2.04639E-04
 -1      3268 2.64561E-04
 -1      3269 2.64561E-04
 -1      3270 2.86077E-04
 -1      3271 2.17497E-04
 -1      3272 2.33843E-04
 -1      3273 2.22572E-04
 -1      3274 2.08538E-04
 -1      3275 2.52166E-04
 -1      3276 2.47861E-04
 -1      3277 1.51152E+00
 -1      3278 1.51152E+00
 -1      3279 9.15813E+00
 -1      3280 1.07897E+01
 -1      3281 3.97772E+00
 -1      3282 3.75321E+00
 -1      3283 5.90780E+00
 -1      3284 6.85647E+00
 -1      3285 6.89918E+00
 -1      3286 1.17064E+00
 -1      3287 1.23496E+00
 -1      3288 1.23827E+00
 -1      3289 1.14531E+00
 -1      3290 2.35428E-04
 -1      3291 2.38732E-04
 -1      3292 2.64296E-04
 -1      3293 2.62711E-04
 -1      3294 1.34032E+01
 -1      3295 1.44431E+01
 -1      3296 7.40296E+00
 -1      3297 8.33793E+00
 -1      3298 2.40201E+00
 -1      3299 3.00120E+00
 -1      3300 1.44964E+01
 -1      3301 1.16553E+01
 -1      3302 9.53423E+00
 -1      3303 1.04595E+01
 -1      3304 6.53217E+00
 -1      3305 6.66832E+00
 -1      3306 3.97399E+00
 -1      3307 5.12755E+00
 -1      3308 3.55145E+00
 -1      3309 4.43074E+00
 -1      3310 9.41082E+00
 -1      3311 1.21065E+01
 -1      3312 7.62092E+00
 -1      3313 1.22679E+00
 -1      3314 1.05321E+00
 -1      3315 1.17472E+00
 -1      3316 8.60396E+00
 -1      3317 1.36324E+01
 -1      3318 1.41741E+00
 -1      3319 1.39560E+00
 -1      3320 1.46396E+00
 -1      3321 1.43705E+00
 -1      3322 1.31720E+00
 -1      3323 4.51290E+00
 -1      3324 1.05428E+01
 -1      3325 1.34032E+01
 -1      3326 1.04062E+01
 -1      3327 2.77400E-04
 -1      3328 2.73666E-04
 -1      3329 2.71104E+00
 -1      3330 2.32767E+00
 -1      3331 3.39158E+00
 -1      3332 1.59814E+00
 -1      3333 1.81201E+00
 -1      3334 1.32590E+00
 -1      3335 1.00529E+01
 -1      3336 9.76054E+00
 -1      3337 2.81157E-04
 -1      3338 2.77400E-04
 -1      3339 3.49785E-04
 -1      3340 3.33190E-04
 -1      3341 1.38676E+00
 -1      3342 1.44938E+00
 -1      3343 1.46594E+00
 -1      3344 1.44126E+00
 -1      3345 2.33104E-04
 -1      3346 4.13633E+00
 -1      3347 3.89022E+00
 -1      3348 3.44492E+00
 -1      3349 4.75425E+00
 -1      3350 5.39847E+00
 -1      3351 3.09223E-04
 -1      3352 3.75321E+00
 -1      3353 6.08099E+00
 -1      3354 1.14253E+01
 -1      3355 7.70038E+00
 -1      3356 1.11285E+01
 -1      3357 8.74830E+00
 -1      3358 7.79530E+00
 -1      3359 2.56889E+00
 -1      3360 3.61485E+00
 -1      3361 5.08767E+00
 -1      3362 5.20598E+00
 -1      3363 3.95397E+00
 -1      3364 3.42002E+00
 -1      3365 2.97037E+00
 -1      3366 3.58096E+00
 -1      3367 2.82075E+00
 -1      3368 2.28076E+00
 -1      3369 1.79039E+00
 -1      3370 2.29479E+00
 -1      3371 1.50259E+00
 -1      3372 1.18937E+00
 -1      3373 1.46700E+00
 -1      3374 1.00628E+00
 -1      3375 8.01812E-01
 -1      3376 9.96109E-01
 -1      3377 6.76465E-01
 -1      3378 5.41365E-01
 -1      3379 6.87674E-01
 -1      3380 4.54278E-01
 -1      3381 3.64593E-01
 -1      3382 4.75240E-01
 -1      3383 3.03825E-01
 -1      3384 2.44286E-01
 -1      3385 3.27385E-01
 -1      3386 2.01919E-01
 -1      3387 1.63412E-01
 -1      3388 2.24250E-01
 -1      3389 1.33974E-01
 -1      3390 1.09382E-01
 -1      3391 1.52446E-01
 -1      3392 8.90163E-02
 -1      3393 7.24056E-02
 -1      3394 1.02642E-01
 -1      3395 5.87711E-02
 -1      3396 4.92248E-02
 -1      3397 6.86413E-02
 -1      3398 4.00704E-02
 -1      3399 3.31241E-02
 -1      3400 4.58524E-02
 -1      3401 2.68291E-02
 -1      3402 2.18405E-02
 -1      3403 3.04031E-02
 -1      3404 1.74677E-02
 -1      3405 1.39341E-02
 -1      3406 1.97353E-02
 -1      3407 1.09286E-02
 -1      3408 8.46217E-03
 -1      3409 1.23569E-02
 -1      3410 6.72431E-03
 -1      3411 5.19528E-03
 -1      3412 7.61355E-03
 -1      3413 4.02361E-03
 -1      3414 3.77793E-03
 -1      3415 4.70402E-03
 -1      3416 3.13319E-03
 -1      3417 2.98722E-03
 -1      3418 2.88761E-03
 -1      3419 3.06314E-03
 -1      3420 2.85394E-03
 -1      3421 2.31880E-03
 -1      3422 2.82381E-03
 -1      3423 2.59178E-03
 -1      3424 2.36460E-03
 -1      3425 2.49733E-03
 -1      3426 2.26713E-03
 -1      3427 2.24002E-03
 -1      3428 2.14103E-03
 -1      3429 1.95477E-03
 -1      3430 2.01947E-03
 -1      3431 1.81793E-03
 -1      3432 1.67050E-03
 -1      3433 1.75652E-03
 -1      3434 1.56412E-03
 -1      3435 1.41989E-03
 -1      3436 1.51331E-03
 -1      3437 1.31984E-03
 -1      3438 1.18638E-03
 -1      3439 1.30689E-03
 -1      3440 1.08652E-03
 -1      3441 9.67646E-04
 -1      3442 1.10698E-03
 -1      3443 8.73968E-04
 -1      3444 7.71039E-04
 -1      3445 9.13444E-04
 -1      3446 6.86773E-04
 -1      3447 6.00808E-04
 -1      3448 7.35502E-04
 -1      3449 5.27056E-04
 -1      3450 4.60179E-04
 -1      3451 5.77484E-04
 -1      3452 3.97388E-04
 -1      3453 3.41055E-04
 -1      3454 4.40940E-04
 -1      3455 2.95420E-04
 -1      3456 2.69696E-04
 -1      3457 2.65042E-04
 -1      3458 3.32513E-04
 -1      3459 1.27113E+00
 -1      3460 1.26512E+00
 -1      3461 1.18072E+00
 -1      3462 1.40980E+00
 -1      3463 1.50744E+00
 -1      3464 3.57297E+00
 -1      3465 3.97531E+00
 -1      3466 8.01032E-01
 -1      3467 8.94606E-01
 -1      3468 1.00643E+00
 -1      3469 1.09662E+00
 -1      3470 9.84796E-01
 -1      3471 4.35871E-01
 -1      3472 5.17841E-01
 -1      3473 3.11766E-01
 -1      3474 3.67146E-01
 -1      3475 4.35871E-01
 -1      3476 2.15005E-01
 -1      3477 2.56386E-01
 -1      3478 3.11766E-01
 -1      3479 1.46109E-01
 -1      3480 1.74023E-01
 -1      3481 2.15403E-01
 -1      3482 1.11410E-01
 -1      3483 1.23573E-01
 -1      3484 1.51883E-01
 -1      3485 8.49055E-02
 -1      3486 9.48809E-02
 -1      3487 1.12818E-01
 -1      3488 6.70508E-02
 -1      3489 7.42745E-02
 -1      3490 8.56575E-02
 -1      3491 5.18644E-02
 -1      3492 5.77891E-02
 -1      3493 6.57648E-02
 -1      3494 3.91266E-02
 -1      3495 4.45774E-02
 -1      3496 4.92162E-02
 -1      3497 2.96012E-02
 -1      3498 3.42960E-02
 -1      3499 3.70986E-02
 -1      3500 2.22496E-02
 -1      3501 2.58957E-02
 -1      3502 2.85624E-02
 -1      3503 1.61841E-02
 -1      3504 1.90251E-02
 -1      3505 2.16323E-02
 -1      3506 1.12577E-02
 -1      3507 1.34606E-02
 -1      3508 1.56844E-02
 -1      3509 7.51107E-03
 -1      3510 9.17398E-03
 -1      3511 1.08772E-02
 -1      3512 4.74202E-03
 -1      3513 5.96355E-03
 -1      3514 7.24592E-03
 -1      3515 2.71801E-03
 -1      3516 3.58508E-03
 -1      3517 4.54146E-03
 -1      3518 1.87365E-03
 -1      3519 1.95384E-03
 -1      3520 2.62035E-03
 -1      3521 1.58144E-03
 -1      3522 1.50581E-03
 -1      3523 1.48834E-03
 -1      3524 1.69469E-03
 -1      3525 1.71340E-03
 -1      3526 1.25246E-03
 -1      3527 1.67023E-03
 -1      3528 1.74650E-03
 -1      3529 1.43622E-03
 -1      3530 1.54679E-03
 -1      3531 1.65376E-03
 -1      3532 1.47156E-03
 -1      3533 1.38179E-03
 -1      3534 1.48931E-03
 -1      3535 1.39761E-03
 -1      3536 1.21937E-03
 -1      3537 1.30280E-03
 -1      3538 1.26114E-03
 -1      3539 1.06357E-03
 -1      3540 1.15601E-03
 -1      3541 1.11880E-03
 -1      3542 9.00633E-04
 -1      3543 9.92766E-04
 -1      3544 9.84633E-04
 -1      3545 7.40823E-04
 -1      3546 8.27055E-04
 -1      3547 8.40248E-04
 -1      3548 5.92688E-04
 -1      3549 6.70069E-04
 -1      3550 6.95916E-04
 -1      3551 4.60619E-04
 -1      3552 5.27854E-04
 -1      3553 5.60327E-04
 -1      3554 3.62638E-04
 -1      3555 4.20316E-04
 -1      3556 4.55190E-04
 -1      3557 3.30087E-04
 -1      3558 2.89363E-04
 -1      3559 3.19880E-04
 -1      3560 3.67933E+00
 -1      3561 4.45958E+00
 -1      3562 6.11978E-01
 -1      3563 7.10978E-01
 -1      3564 7.82922E-01
 -1      3565 5.98732E-01
 -1      3566 7.18927E+00
 -1      3567 4.84867E+00
 -1      3568 4.10249E+00
 -1      3569 2.91654E-04
 -1      3570 2.87286E-04
 -1      3571 3.21090E-04
 -1      3572 6.88133E+00
 -1      3573 3.03973E+00
 -1      3574 3.26052E+00
 -1      3575 6.00377E+00
 -1      3576 7.07666E+00
 -1      3577 2.96003E+00
 -1      3578 3.45574E+00
 -1      3579 2.40799E+00
 -1      3580 3.19909E+00
 -1      3581 4.80564E+00
 -1      3582 5.35214E+00
 -1      3583 2.06455E+00
 -1      3584 2.61479E+00
 -1      3585 3.82336E-04
 -1      3586 3.82336E-04
 -1      3587 4.14887E-04
 -1      3588 3.82336E-04
 -1      3589 1.60789E+00
 -1      3590 1.59403E+00
 -1      3591 1.63752E+00
 -1      3592 2.45568E+00
 -1      3593 8.02474E+00
 -1      3594 7.88822E+00
 -1      3595 6.09377E+00
 -1      3596 2.19707E+00
 -1      3597 1.88804E+00
 -1      3598 1.93394E+00
 -1      3599 1.29358E+00
 -1      3600 3.23612E-04
 -1      3601 3.40207E-04
 -1      3602 3.72758E-04
 -1      3603 3.26898E-04
 -1      3604 3.15880E-04
 -1      3605 3.15880E-04
 -1      3606 3.43239E-04
 -1      3607 3.36036E+00
 -1      3608 2.82277E+00
 -1      3609 2.70554E+00
 -1      3610 1.49946E+00
 -1      3611 1.44777E+00
 -1      3612 1.44536E+00
 -1      3613 1.57264E+00
 -1      3614 1.40111E+00
 -1      3615 1.35786E+00
 -1      3616 1.32143E+00
 -1      3617 1.26934E+00
 -1      3618 1.40955E+00
 -1      3619 3.19640E+00
 -1      3620 4.08093E+00
 -1      3621 3.78627E+00
 -1      3622 3.36746E+00
 -1      3623 3.73073E+00
 -1      3624 2.94554E+00
 -1      3625 3.03303E+00
 -1      3626 2.54035E+00
 -1      3627 9.70728E+00
 -1      3628 9.70728E+00
 -1      3629 2.84271E-04
 -1      3630 2.93230E-04
 -1      3631 3.06106E-04
 -1      3632 7.88822E+00
 -1      3633 1.21645E+00
 -1      3634 1.26515E+00
 -1      3635 1.47224E+00
 -1      3636 1.21645E+00
 -1      3637 2.11603E+00
 -1      3638 2.34474E+00
 -1      3639 1.90511E+00
 -1      3640 1.74877E+00
 -1      3641 4.72842E+00
 -1      3642 1.51558E+00
 -1      3643 1.54910E+00
 -1      3644 1.54910E+00
 -1      3645 6.65654E+00
 -1      3646 5.67857E+00
 -1      3647 4.95993E+00
 -1      3648 3.14295E-04
 -1      3649 3.15880E-04
 -1      3650 3.67464E-04
 -1      3651 3.46400E-04
 -1      3652 1.49186E+00
 -1      3653 1.48301E+00
 -1      3654 1.56618E+00
 -1      3655 1.63579E+00
 -1      3656 1.48824E+00
 -1      3657 1.44992E+00
 -1      3658 1.60110E+00
 -1      3659 1.53854E+00
 -1      3660 1.51352E+00
 -1      3661 1.22572E+00
 -1      3662 1.02036E+00
 -1      3663 8.37269E-01
 -1      3664 1.06688E+00
 -1      3665 6.93308E-01
 -1      3666 5.67961E-01
 -1      3667 7.17556E-01
 -1      3668 4.69877E-01
 -1      3669 3.82791E-01
 -1      3670 4.75511E-01
 -1      3671 3.17006E-01
 -1      3672 2.56238E-01
 -1      3673 3.11644E-01
 -1      3674 2.22425E-01
 -1      3675 1.80059E-01
 -1      3676 2.12047E-01
 -1      3677 1.55557E-01
 -1      3678 1.26119E-01
 -1      3679 1.53732E-01
 -1      3680 1.07632E-01
 -1      3681 8.72661E-02
 -1      3682 1.10743E-01
 -1      3683 7.35583E-02
 -1      3684 5.99238E-02
 -1      3685 7.85486E-02
 -1      3686 4.98989E-02
 -1      3687 4.07445E-02
 -1      3688 5.48159E-02
 -1      3689 3.36083E-02
 -1      3690 2.73133E-02
 -1      3691 3.76548E-02
 -1      3692 2.24287E-02
 -1      3693 1.80559E-02
 -1      3694 2.56339E-02
 -1      3695 1.45352E-02
 -1      3696 1.15296E-02
 -1      3697 1.72285E-02
 -1      3698 9.11702E-03
 -1      3699 7.37916E-03
 -1      3700 1.12952E-02
 -1      3701 5.66496E-03
 -1      3702 4.49329E-03
 -1      3703 7.16844E-03
 -1      3704 3.28936E-03
 -1      3705 2.64462E-03
 -1      3706 4.25031E-03
 -1      3707 1.83701E-03
 -1      3708 1.91294E-03
 -1      3709 2.23877E-03
 -1      3710 1.92849E-03
 -1      3711 1.89837E-03
 -1      3712 1.44671E-03
 -1      3713 1.97178E-03
 -1      3714 1.87733E-03
 -1      3715 1.53567E-03
 -1      3716 1.86811E-03
 -1      3717 1.74201E-03
 -1      3718 1.59987E-03
 -1      3719 1.68454E-03
 -1      3720 1.54770E-03
 -1      3721 1.53319E-03
 -1      3722 1.46514E-03
 -1      3723 1.35877E-03
 -1      3724 1.39316E-03
 -1      3725 1.26636E-03
 -1      3726 1.16631E-03
 -1      3727 1.21819E-03
 -1      3728 1.09625E-03
 -1      3729 9.96396E-04
 -1      3730 1.05573E-03
 -1      3731 9.22056E-04
 -1      3732 8.28379E-04
 -1      3733 9.11330E-04
 -1      3734 7.55464E-04
 -1      3735 6.71198E-04
 -1      3736 7.64076E-04
 -1      3737 6.03767E-04
 -1      3738 5.30015E-04
 -1      3739 6.23730E-04
 -1      3740 4.69334E-04
 -1      3741 4.06543E-04
 -1      3742 4.95618E-04
 -1      3743 4.24137E+00
 -1      3744 2.97366E+00
 -1      3745 3.05377E-01
 -1      3746 3.60757E-01
 -1      3747 4.35871E-01
 -1      3748 5.04595E-01
 -1      3749 4.29482E-01
 -1      3750 1.59148E-01
 -1      3751 1.81685E-01
 -1      3752 1.16086E-01
 -1      3753 1.32614E-01
 -1      3754 1.62416E-01
 -1      3755 8.63628E-02
 -1      3756 9.69938E-02
 -1      3757 1.16791E-01
 -1      3758 6.33884E-02
 -1      3759 7.26500E-02
 -1      3760 8.39863E-02
 -1      3761 4.77050E-02
 -1      3762 5.49919E-02
 -1      3763 6.18771E-02
 -1      3764 3.70986E-02
 -1      3765 4.19293E-02
 -1      3766 4.77050E-02
 -1      3767 2.85624E-02
 -1      3768 3.22680E-02
 -1      3769 3.70986E-02
 -1      3770 2.11810E-02
 -1      3771 2.44054E-02
 -1      3772 2.81110E-02
 -1      3773 1.50557E-02
 -1      3774 1.77792E-02
 -1      3775 2.05522E-02
 -1      3776 1.02940E-02
 -1      3777 1.23777E-02
 -1      3778 1.44725E-02
 -1      3779 6.76621E-03
 -1      3780 8.31373E-03
 -1      3781 9.81429E-03
 -1      3782 4.21871E-03
 -1      3783 5.37565E-03
 -1      3784 6.44347E-03
 -1      3785 2.43962E-03
 -1      3786 3.20379E-03
 -1      3787 4.03799E-03
 -1      3788 1.51032E-03
 -1      3789 1.87816E-03
 -1      3790 2.46160E-03
 -1      3791 1.25246E-03
 -1      3792 1.12051E-03
 -1      3793 1.51032E-03
 -1      3794 1.23785E-03
 -1      3795 1.18604E-03
 -1      3796 1.05409E-03
 -1      3797 1.29623E-03
 -1      3798 1.31270E-03
 -1      3799 1.06251E-03
 -1      3800 1.24759E-03
 -1      3801 1.30507E-03
 -1      3802 1.14621E-03
 -1      3803 1.13643E-03
 -1      3804 1.21542E-03
 -1      3805 1.12288E-03
 -1      3806 1.01782E-03
 -1      3807 1.08117E-03
 -1      3808 1.03545E-03
 -1      3809 8.89696E-04
 -1      3810 9.60503E-04
 -1      3811 9.22880E-04
 -1      3812 7.59598E-04
 -1      3813 8.33175E-04
 -1      3814 8.09046E-04
 -1      3815 6.29558E-04
 -1      3816 7.00312E-04
 -1      3817 6.93240E-04
 -1      3818 5.07614E-04
 -1      3819 5.72448E-04
 -1      3820 5.76845E-04
 -1      3821 4.19913E-04
 -1      3822 4.60216E-04
 -1      3823 4.72337E-04
 -1      3824 4.19913E-04
 -1      3825 3.58446E+00
 -1      3826 4.23609E+00
 -1      3827 2.12907E-01
 -1      3828 2.53890E-01
 -1      3829 3.02881E-01
 -1      3830 1.03692E+00
 -1      3831 1.14874E+00
 -1      3832 5.37020E+00
 -1      3833 2.65528E+00
 -1      3834 2.81631E+00
 -1      3835 3.50862E-04
 -1      3836 3.52938E-04
 -1      3837 3.06541E+00
 -1      3838 3.41147E+00
 -1      3839 2.39079E+00
 -1      3840 1.85080E+00
 -1      3841 1.60951E+00
 -1      3842 2.11045E+00
 -1      3843 2.45568E+00
 -1      3844 1.63645E+00
 -1      3845 1.73689E+00
 -1      3846 5.33003E+00
 -1      3847 4.60647E+00
 -1      3848 4.19127E+00
 -1      3849 1.26857E+00
 -1      3850 1.21645E+00
 -1      3851 1.33628E+00
 -1      3852 3.33811E-04
 -1      3853 3.37542E-04
 -1      3854 3.63583E-04
 -1      3855 2.36030E+00
 -1      3856 4.24137E+00
 -1      3857 3.51742E-04
 -1      3858 1.61859E+00
 -1      3859 1.52868E+00
 -1      3860 1.74758E+00
 -1      3861 2.54705E+00
 -1      3862 3.36746E+00
 -1      3863 2.54035E+00
 -1      3864 2.20172E-01
 -1      3865 2.52966E+00
 -1      3866 5.98732E-01
 -1      3867 5.98732E-01
 -1      3868 6.92868E-01
 -1      3869 2.91914E+00
 -1      3870 3.12902E+00
 -1      3871 4.27298E+00
 -1      3872 3.85286E+00
 -1      3873 2.40442E+00
 -1      3874 4.18786E+00
 -1      3875 3.78627E+00
 -1      3876 3.46701E+00
 -1      3877 1.90511E+00
 -1      3878 8.11622E-01
 -1      3879 9.01675E-01
 -1      3880 8.11622E-01
 -1      3881 3.50862E-04
 -1      3882 3.82711E-04
 -1      3883 3.75087E-04
 -1      3884 1.06562E+00
 -1      3885 3.80136E-04
 -1      3886 4.01201E-04
 -1      3887 1.80495E+00
 -1      3888 1.92408E+00
 -1      3889 1.74758E+00
 -1      3890 1.92408E+00
 -1      3891 1.85460E+00
 -1      3892 8.16791E-02
 -1      3893 9.53918E-02
 -1      3894 3.46967E-04
 -1      3895 3.89096E-04
 -1      3896 3.94122E-04
 -1      3897 3.53880E-04
 -1      3898 1.57264E+00
 -1      3899 1.67201E+00
 -1      3900 1.12750E+00
 -1      3901 9.22137E-01
 -1      3902 7.29450E-01
 -1      3903 5.85489E-01
 -1      3904 7.90070E-01
 -1      3905 4.89972E-01
 -1      3906 3.91888E-01
 -1      3907 5.01866E-01
 -1      3908 3.32607E-01
 -1      3909 2.66823E-01
 -1      3910 3.47068E-01
 -1      3911 2.23003E-01
 -1      3912 1.89189E-01
 -1      3913 2.43966E-01
 -1      3914 1.57805E-01
 -1      3915 1.33303E-01
 -1      3916 1.68761E-01
 -1      3917 1.11281E-01
 -1      3918 9.27937E-02
 -1      3919 1.15354E-01
 -1      3920 7.75486E-02
 -1      3921 6.38409E-02
 -1      3922 7.80861E-02
 -1      3923 5.52616E-02
 -1      3924 4.52367E-02
 -1      3925 5.42617E-02
 -1      3926 3.89304E-02
 -1      3927 3.17943E-02
 -1      3928 3.93762E-02
 -1      3929 2.69110E-02
 -1      3930 2.20263E-02
 -1      3931 2.81866E-02
 -1      3932 1.84430E-02
 -1      3933 1.49223E-02
 -1      3934 1.97201E-02
 -1      3935 1.24177E-02
 -1      3936 1.00051E-02
 -1      3937 1.36322E-02
 -1      3938 8.16011E-03
 -1      3939 6.44592E-03
 -1      3940 9.28262E-03
 -1      3941 5.07107E-03
 -1      3942 3.86714E-03
 -1      3943 6.06275E-03
 -1      3944 2.91143E-03
 -1      3945 2.10382E-03
 -1      3946 3.73220E-03
 -1      3947 1.44399E-03
 -1      3948 1.45954E-03
 -1      3949 2.11666E-03
 -1      3950 1.16612E-03
 -1      3951 1.23953E-03
 -1      3952 1.16340E-03
 -1      3953 1.35521E-03
 -1      3954 1.34599E-03
 -1      3955 9.85655E-04
 -1      3956 1.37883E-03
 -1      3957 1.32136E-03
 -1      3958 1.13417E-03
 -1      3959 1.30277E-03
 -1      3960 1.22021E-03
 -1      3961 1.14841E-03
 -1      3962 1.17203E-03
 -1      3963 1.07962E-03
 -1      3964 1.08164E-03
 -1      3965 1.01669E-03
 -1      3966 9.46634E-04
 -1      3967 9.70526E-04
 -1      3968 8.80236E-04
 -1      3969 8.05896E-04
 -1      3970 8.41200E-04
 -1      3971 7.50858E-04
 -1      3972 6.77944E-04
 -1      3973 7.19764E-04
 -1      3974 6.20659E-04
 -1      3975 5.53228E-04
 -1      3976 6.07442E-04
 -1      3977 5.36457E-04
 -1      3978 4.75777E-04
 -1      3979 5.33386E-04
 -1      3980 1.60820E+00
 -1      3981 1.12775E-01
 -1      3982 1.31867E-01
 -1      3983 1.10468E-01
 -1      3984 1.61127E-01
 -1      3985 1.87660E-01
 -1      3986 1.57111E-01
 -1      3987 6.18771E-02
 -1      3988 7.02736E-02
 -1      3989 8.16791E-02
 -1      3990 4.77050E-02
 -1      3991 5.34807E-02
 -1      3992 6.18771E-02
 -1      3993 3.59811E-02
 -1      3994 4.08118E-02
 -1      3995 4.65875E-02
 -1      3996 2.63686E-02
 -1      3997 3.05256E-02
 -1      3998 3.42388E-02
 -1      3999 1.87615E-02
 -1      4000 2.21633E-02
 -1      4001 2.45779E-02
 -1      4002 1.29098E-02
 -1      4003 1.55877E-02
 -1      4004 1.71988E-02
 -1      4005 8.57995E-03
 -1      4006 1.05602E-02
 -1      4007 1.16755E-02
 -1      4008 5.75645E-03
 -1      4009 7.14701E-03
 -1      4010 7.89293E-03
 -1      4011 3.77327E-03
 -1      4012 4.78820E-03
 -1      4013 5.49173E-03
 -1      4014 2.46160E-03
 -1      4015 3.02306E-03
 -1      4016 3.77327E-03
 -1      4017 1.51032E-03
 -1      4018 1.90014E-03
 -1      4019 2.46160E-03
 -1      4020 1.03762E-03
 -1      4021 1.10403E-03
 -1      4022 1.49385E-03
 -1      4023 9.54191E-04
 -1      4024 8.79345E-04
 -1      4025 9.29292E-04
 -1      4026 1.02303E-03
 -1      4027 1.01419E-03
 -1      4028 8.31015E-04
 -1      4029 1.00342E-03
 -1      4030 1.03560E-03
 -1      4031 9.03577E-04
 -1      4032 9.26211E-04
 -1      4033 9.81464E-04
 -1      4034 8.94187E-04
 -1      4035 8.27243E-04
 -1      4036 8.84556E-04
 -1      4037 8.30574E-04
 -1      4038 7.19568E-04
 -1      4039 7.76089E-04
 -1      4040 7.37765E-04
 -1      4041 6.11153E-04
 -1      4042 6.70439E-04
 -1      4043 6.37482E-04
 -1      4044 5.05956E-04
 -1      4045 5.63066E-04
 -1      4046 5.40265E-04
 -1      4047 2.78751E+00
 -1      4048 2.20464E+00
 -1      4049 1.75744E+00
 -1      4050 3.23592E-01
 -1      4051 3.75078E-01
 -1      4052 2.33568E-01
 -1      4053 2.64791E-01
 -1      4054 2.32279E-01
 -1      4055 2.17406E+00
 -1      4056 2.38667E+00
 -1      4057 2.70477E+00
 -1      4058 2.87776E+00
 -1      4059 2.00658E+00
 -1      4060 4.42040E-04
 -1      4061 2.10445E+00
 -1      4062 2.76207E+00
 -1      4063 2.89803E+00
 -1      4064 2.89803E+00
 -1      4065 2.76207E+00
 -1      4066 3.47764E+00
 -1      4067 1.74621E+00
 -1      4068 1.40893E+00
 -1      4069 1.26419E+00
 -1      4070 4.41186E-01
 -1      4071 5.16300E-01
 -1      4072 4.61896E-01
 -1      4073 1.06562E+00
 -1      4074 1.20087E+00
 -1      4075 4.24125E-04
 -1      4076 4.04997E-04
 -1      4077 6.13025E-01
 -1      4078 6.01321E-01
 -1      4079 6.95457E-01
 -1      4080 2.07188E+00
 -1      4081 4.49663E-04
 -1      4082 4.91077E-04
 -1      4083 4.49663E-04
 -1      4084 3.15261E+00
 -1      4085 2.07093E+00
 -1      4086 2.07762E+00
 -1      4087 2.00406E+00
 -1      4088 3.36746E+00
 -1      4089 4.23658E-04
 -1      4090 4.71056E-04
 -1      4091 4.57277E-04
 -1      4092 3.92840E-04
 -1      4093 2.63605E+00
 -1      4094 2.67295E+00
 -1      4095 2.42169E+00
 -1      4096 8.40857E-01
 -1      4097 9.59611E-01
 -1      4098 8.43446E-01
 -1      4099 3.36987E-01
 -1      4100 2.13474E+00
 -1      4101 2.00550E+00
 -1      4102 3.66619E+00
 -1      4103 3.31766E+00
 -1      4104 2.97925E+00
 -1      4105 1.09486E+00
 -1      4106 1.63579E+00
 -1      4107 3.42563E+00
 -1      4108 4.18786E+00
 -1      4109 1.73797E+00
 -1      4110 2.00658E+00
 -1      4111 4.42040E-04
 -1      4112 4.49663E-04
 -1      4113 4.18786E+00
 -1      4114 1.29416E+00
 -1      4115 1.01272E+00
 -1      4116 1.44239E+00
 -1      4117 1.51010E+00
 -1      4118 3.66851E-01
 -1      4119 4.25651E-01
 -1      4120 8.57716E-01
 -1      4121 6.65029E-01
 -1      4122 8.87682E-01
 -1      4123 5.43355E-01
 -1      4124 4.47838E-01
 -1      4125 6.11001E-01
 -1      4126 3.61226E-01
 -1      4127 3.01945E-01
 -1      4128 4.02715E-01
 -1      4129 2.43966E-01
 -1      4130 2.00145E-01
 -1      4131 2.58125E-01
 -1      4132 1.72511E-01
 -1      4133 1.41126E-01
 -1      4134 1.72511E-01
 -1      4135 1.21707E-01
 -1      4136 9.96846E-02
 -1      4137 1.25457E-01
 -1      4138 8.48291E-02
 -1      4139 6.95840E-02
 -1      4140 9.11825E-02
 -1      4141 5.85192E-02
 -1      4142 4.99399E-02
 -1      4143 6.52622E-02
 -1      4144 4.18391E-02
 -1      4145 3.55328E-02
 -1      4146 4.60965E-02
 -1      4147 2.96715E-02
 -1      4148 2.47881E-02
 -1      4149 3.21343E-02
 -1      4150 2.06289E-02
 -1      4151 1.70457E-02
 -1      4152 2.21138E-02
 -1      4153 1.39556E-02
 -1      4154 1.14510E-02
 -1      4155 1.48645E-02
 -1      4156 9.84502E-03
 -1      4157 8.00000E-03
 -1      4158 1.01684E-02
 -1      4159 6.60178E-03
 -1      4160 5.22694E-03
 -1      4161 7.16419E-03
 -1      4162 4.22030E-03
 -1      4163 3.26459E-03
 -1      4164 4.75933E-03
 -1      4165 2.54898E-03
 -1      4166 1.88914E-03
 -1      4167 3.03707E-03
 -1      4168 1.38964E-03
 -1      4169 1.09622E-03
 -1      4170 1.82196E-03
 -1      4171 7.55913E-04
 -1      4172 8.71589E-04
 -1      4173 9.82153E-04
 -1      4174 9.26383E-04
 -1      4175 9.59223E-04
 -1      4176 6.96641E-04
 -1      4177 1.00471E-03
 -1      4178 9.86109E-04
 -1      4179 7.96918E-04
 -1      4180 9.85699E-04
 -1      4181 9.37516E-04
 -1      4182 8.41990E-04
 -1      4183 9.09577E-04
 -1      4184 8.46650E-04
 -1      4185 8.13640E-04
 -1      4186 8.03808E-04
 -1      4187 7.37410E-04
 -1      4188 7.42859E-04
 -1      4189 7.43117E-04
 -1      4190 6.88079E-04
 -1      4191 7.05725E-04
 -1      4192 5.86475E-04
 -1      4193 5.29191E-04
 -1      4194 6.09829E-04
 -1      4195 5.33386E-04
 -1      4196 5.16616E-04
 -1      4197 2.37175E-01
 -1      4198 2.83083E-01
 -1      4199 3.71747E-01
 -1      4200 5.99792E-02
 -1      4201 6.83756E-02
 -1      4202 1.12803E-01
 -1      4203 1.30186E-01
 -1      4204 2.02160E+00
 -1      4205 1.56317E+00
 -1      4206 1.31170E+00
 -1      4207 1.57127E-01
 -1      4208 1.86387E-01
 -1      4209 1.59462E-01
 -1      4210 4.32214E-02
 -1      4211 5.01146E-02
 -1      4212 5.66130E-02
 -1      4213 3.05990E-02
 -1      4214 3.60545E-02
 -1      4215 3.95816E-02
 -1      4216 2.21085E-02
 -1      4217 2.63138E-02
 -1      4218 2.81296E-02
 -1      4219 1.58793E-02
 -1      4220 1.90531E-02
 -1      4221 2.07890E-02
 -1      4222 1.10550E-02
 -1      4223 1.34046E-02
 -1      4224 1.52589E-02
 -1      4225 7.72020E-03
 -1      4226 9.15314E-03
 -1      4227 1.08823E-02
 -1      4228 5.40108E-03
 -1      4229 6.36934E-03
 -1      4230 7.62955E-03
 -1      4231 3.62519E-03
 -1      4232 4.37540E-03
 -1      4233 5.25300E-03
 -1      4234 2.30411E-03
 -1      4235 2.86558E-03
 -1      4236 3.46771E-03
 -1      4237 1.35000E-03
 -1      4238 1.75629E-03
 -1      4239 2.16026E-03
 -1      4240 8.08100E-04
 -1      4241 9.66372E-04
 -1      4242 1.22881E-03
 -1      4243 7.47608E-04
 -1      4244 6.87614E-04
 -1      4245 7.24693E-04
 -1      4246 8.06040E-04
 -1      4247 7.93473E-04
 -1      4248 6.50072E-04
 -1      4249 7.89779E-04
 -1      4250 8.11737E-04
 -1      4251 7.01633E-04
 -1      4252 7.29033E-04
 -1      4253 7.70688E-04
 -1      4254 6.88238E-04
 -1      4255 6.44835E-04
 -1      4256 6.95989E-04
 -1      4257 6.36102E-04
 -1      4258 6.45156E-04
 -1      4259 6.94286E-04
 -1      4260 6.52509E-04
 -1      4261 4.87936E-04
 -1      4262 5.36023E-04
 -1      4263 5.92827E-04
 -1      4264 8.16791E-02
 -1      4265 9.30846E-02
 -1      4266 7.97811E-02
 -1      4267 2.76207E+00
 -1      4268 1.44239E+00
 -1      4269 1.16408E+00
 -1      4270 1.27009E+00
 -1      4271 2.62753E+00
 -1      4272 5.44911E-01
 -1      4273 6.11019E-01
 -1      4274 5.74774E-01
 -1      4275 2.93589E+00
 -1      4276 2.17366E+00
 -1      4277 1.99939E+00
 -1      4278 2.49236E+00
 -1      4279 2.30568E+00
 -1      4280 5.12420E-04
 -1      4281 1.93214E+00
 -1      4282 2.00136E+00
 -1      4283 2.37191E-01
 -1      4284 1.12803E-01
 -1      4285 4.78858E-04
 -1      4286 4.74616E-04
 -1      4287 1.75965E+00
 -1      4288 6.14024E-04
 -1      4289 5.88485E-04
 -1      4290 5.97564E-04
 -1      4291 6.09829E-04
 -1      4292 9.87618E-01
 -1      4293 1.13302E+00
 -1      4294 1.30825E+00
 -1      4295 8.52450E-01
 -1      4296 7.69435E-01
 -1      4297 8.54457E-01
 -1      4298 2.18664E+00
 -1      4299 3.83416E-04
 -1      4300 4.43957E-04
 -1      4301 6.56845E-01
 -1      4302 5.35170E-01
 -1      4303 4.50547E-01
 -1      4304 3.63936E-01
 -1      4305 4.96391E-01
 -1      4306 2.98269E-01
 -1      4307 2.40289E-01
 -1      4308 3.46100E-01
 -1      4309 1.92800E-01
 -1      4310 1.65165E-01
 -1      4311 2.32944E-01
 -1      4312 1.32358E-01
 -1      4313 1.12939E-01
 -1      4314 1.52647E-01
 -1      4315 9.11825E-02
 -1      4316 7.63270E-02
 -1      4317 9.80836E-02
 -1      4318 6.64076E-02
 -1      4319 5.53428E-02
 -1      4320 6.64076E-02
 -1      4321 4.82515E-02
 -1      4322 4.01506E-02
 -1      4323 4.93969E-02
 -1      4324 3.45092E-02
 -1      4325 2.86478E-02
 -1      4326 3.66641E-02
 -1      4327 2.42766E-02
 -1      4328 2.01174E-02
 -1      4329 2.66514E-02
 -1      4330 1.64732E-02
 -1      4331 1.33831E-02
 -1      4332 1.86360E-02
 -1      4333 1.14221E-02
 -1      4334 9.81611E-03
 -1      4335 1.30308E-02
 -1      4336 8.11974E-03
 -1      4337 6.72152E-03
 -1      4338 9.37345E-03
 -1      4339 5.45618E-03
 -1      4340 4.44954E-03
 -1      4341 6.41173E-03
 -1      4342 3.53225E-03
 -1      4343 2.81663E-03
 -1      4344 4.22909E-03
 -1      4345 2.17583E-03
 -1      4346 1.67633E-03
 -1      4347 2.67100E-03
 -1      4348 1.22924E-03
 -1      4349 8.88934E-04
 -1      4350 1.58311E-03
 -1      4351 6.41372E-04
 -1      4352 6.96167E-04
 -1      4353 8.88460E-04
 -1      4354 6.48492E-04
 -1      4355 6.93974E-04
 -1      4356 5.93222E-04
 -1      4357 7.30384E-04
 -1      4358 7.29974E-04
 -1      4359 5.81958E-04
 -1      4360 7.32651E-04
 -1      4361 7.04712E-04
 -1      4362 6.21045E-04
 -1      4363 6.95873E-04
 -1      4364 6.53031E-04
 -1      4365 6.14883E-04
 -1      4366 7.05725E-04
 -1      4367 7.11433E-04
 -1      4368 6.58738E-04
 -1      4369 7.11433E-04
 -1      4370 3.49873E-01
 -1      4371 4.33641E-01
 -1      4372 3.73602E-02
 -1      4373 4.45270E-02
 -1      4374 5.16183E-02
 -1      4375 6.14829E-02
 -1      4376 1.53484E+00
 -1      4377 1.26583E+00
 -1      4378 1.58987E-01
 -1      4379 1.85929E-01
 -1      4380 2.74335E-02
 -1      4381 3.17187E-02
 -1      4382 2.00069E-02
 -1      4383 2.30623E-02
 -1      4384 1.38879E-02
 -1      4385 1.63627E-02
 -1      4386 1.00251E-02
 -1      4387 1.19270E-02
 -1      4388 6.97788E-03
 -1      4389 8.32874E-03
 -1      4390 4.68685E-03
 -1      4391 5.71253E-03
 -1      4392 3.00995E-03
 -1      4393 3.76956E-03
 -1      4394 1.82132E-03
 -1      4395 2.36914E-03
 -1      4396 9.90601E-04
 -1      4397 1.37423E-03
 -1      4398 6.22552E-04
 -1      4399 7.43039E-04
 -1      4400 6.20742E-04
 -1      4401 5.74877E-04
 -1      4402 6.62848E-04
 -1      4403 6.57152E-04
 -1      4404 6.46434E-04
 -1      4405 6.65526E-04
 -1      4406 6.04551E-04
 -1      4407 6.37595E-04
 -1      4408 7.06696E-04
 -1      4409 6.57246E-04
 -1      4410 7.06696E-04
 -1      4411 1.30825E+00
 -1      4412 1.72859E+00
 -1      4413 1.54799E+00
 -1      4414 1.27719E+00
 -1      4415 7.14023E-02
 -1      4416 8.47058E-02
 -1      4417 9.34247E-01
 -1      4418 7.79241E-01
 -1      4419 7.03410E-01
 -1      4420 2.33418E-01
 -1      4421 2.84206E-01
 -1      4422 1.69975E+00
 -1      4423 5.18264E-01
 -1      4424 6.37524E-01
 -1      4425 1.06462E-01
 -1      4426 1.26180E-01
 -1      4427 7.11433E-04
 -1      4428 1.15739E+00
 -1      4429 7.59920E-01
 -1      4430 9.18336E-01
 -1      4431 1.14403E+00
 -1      4432 1.65388E+00
 -1      4433 1.24992E+00
 -1      4434 1.38308E+00
 -1      4435 1.38308E+00
 -3
 9999
