    1C
    1UUSER                                                              
    1UDATE              27.october.2022                                 
    1UTIME              00:05:10                                        
    1UHOST                                                              
    1UPGM               CalculiX                                        
    1UVERSION           Version 2.17                             
    1UCOMPILETIME       Thu Jul 23 21:43:50 CEST 2020                    
    1UDIR                                                               
    1UDBN                                                               
    1UMAT    1SOLIDMATERIAL                                             
    2C                          4380                                     1
 -1         1 5.66704E+01 2.89278E+01 0.00000E+00
 -1         2 6.68122E+01 2.26725E+01 0.00000E+00
 -1         3 1.50000E+02 0.00000E+00 0.00000E+00
 -1         4 1.50000E+02 5.00000E+01 0.00000E+00
 -1         5 0.00000E+00 0.00000E+00 0.00000E+00
 -1         6 0.00000E+00 5.00000E+01 0.00000E+00
 -1         7 0.00000E+00 4.70500E+01 0.00000E+00
 -1         8 0.00000E+00 4.41000E+01 0.00000E+00
 -1         9 0.00000E+00 4.11500E+01 0.00000E+00
 -1        10 0.00000E+00 3.82000E+01 0.00000E+00
 -1        11 0.00000E+00 3.52500E+01 0.00000E+00
 -1        12 0.00000E+00 3.23500E+01 0.00000E+00
 -1        13 0.00000E+00 2.94000E+01 0.00000E+00
 -1        14 0.00000E+00 2.64500E+01 0.00000E+00
 -1        15 0.00000E+00 2.35000E+01 0.00000E+00
 -1        16 0.00000E+00 2.05500E+01 0.00000E+00
 -1        17 0.00000E+00 1.76000E+01 0.00000E+00
 -1        18 0.00000E+00 1.47000E+01 0.00000E+00
 -1        19 0.00000E+00 1.17500E+01 0.00000E+00
 -1        20 0.00000E+00 8.80000E+00 0.00000E+00
 -1        21 0.00000E+00 5.85000E+00 0.00000E+00
 -1        22 0.00000E+00 2.90000E+00 0.00000E+00
 -1        23 3.15000E+00 5.00000E+01 0.00000E+00
 -1        24 6.15000E+00 5.00000E+01 0.00000E+00
 -1        25 9.15000E+00 5.00000E+01 0.00000E+00
 -1        26 1.21500E+01 5.00000E+01 0.00000E+00
 -1        27 1.51500E+01 5.00000E+01 0.00000E+00
 -1        28 1.81500E+01 5.00000E+01 0.00000E+00
 -1        29 2.11500E+01 5.00000E+01 0.00000E+00
 -1        30 2.41500E+01 5.00000E+01 0.00000E+00
 -1        31 2.71500E+01 5.00000E+01 0.00000E+00
 -1        32 3.01500E+01 5.00000E+01 0.00000E+00
 -1        33 3.31500E+01 5.00000E+01 0.00000E+00
 -1        34 3.61500E+01 5.00000E+01 0.00000E+00
 -1        35 3.91500E+01 5.00000E+01 0.00000E+00
 -1        36 4.21500E+01 5.00000E+01 0.00000E+00
 -1        37 4.51500E+01 5.00000E+01 0.00000E+00
 -1        38 4.81500E+01 5.00000E+01 0.00000E+00
 -1        39 5.11500E+01 5.00000E+01 0.00000E+00
 -1        40 5.41500E+01 5.00000E+01 0.00000E+00
 -1        41 5.71500E+01 5.00000E+01 0.00000E+00
 -1        42 6.01500E+01 5.00000E+01 0.00000E+00
 -1        43 6.31500E+01 5.00000E+01 0.00000E+00
 -1        44 6.61500E+01 5.00000E+01 0.00000E+00
 -1        45 6.91500E+01 5.00000E+01 0.00000E+00
 -1        46 7.21500E+01 5.00000E+01 0.00000E+00
 -1        47 7.51500E+01 5.00000E+01 0.00000E+00
 -1        48 7.81500E+01 5.00000E+01 0.00000E+00
 -1        49 8.11500E+01 5.00000E+01 0.00000E+00
 -1        50 8.41500E+01 5.00000E+01 0.00000E+00
 -1        51 8.71500E+01 5.00000E+01 0.00000E+00
 -1        52 9.01500E+01 5.00000E+01 0.00000E+00
 -1        53 9.31500E+01 5.00000E+01 0.00000E+00
 -1        54 9.61500E+01 5.00000E+01 0.00000E+00
 -1        55 9.91500E+01 5.00000E+01 0.00000E+00
 -1        56 1.02150E+02 5.00000E+01 0.00000E+00
 -1        57 1.05150E+02 5.00000E+01 0.00000E+00
 -1        58 1.08150E+02 5.00000E+01 0.00000E+00
 -1        59 1.11150E+02 5.00000E+01 0.00000E+00
 -1        60 1.14150E+02 5.00000E+01 0.00000E+00
 -1        61 1.17150E+02 5.00000E+01 0.00000E+00
 -1        62 1.20150E+02 5.00000E+01 0.00000E+00
 -1        63 1.23150E+02 5.00000E+01 0.00000E+00
 -1        64 1.26150E+02 5.00000E+01 0.00000E+00
 -1        65 1.29150E+02 5.00000E+01 0.00000E+00
 -1        66 1.32150E+02 5.00000E+01 0.00000E+00
 -1        67 1.35150E+02 5.00000E+01 0.00000E+00
 -1        68 1.38150E+02 5.00000E+01 0.00000E+00
 -1        69 1.41150E+02 5.00000E+01 0.00000E+00
 -1        70 1.44150E+02 5.00000E+01 0.00000E+00
 -1        71 1.47150E+02 5.00000E+01 0.00000E+00
 -1        72 3.15000E+00 0.00000E+00 0.00000E+00
 -1        73 6.15000E+00 0.00000E+00 0.00000E+00
 -1        74 9.15000E+00 0.00000E+00 0.00000E+00
 -1        75 1.21500E+01 0.00000E+00 0.00000E+00
 -1        76 1.51500E+01 0.00000E+00 0.00000E+00
 -1        77 1.81500E+01 0.00000E+00 0.00000E+00
 -1        78 2.11500E+01 0.00000E+00 0.00000E+00
 -1        79 2.41500E+01 0.00000E+00 0.00000E+00
 -1        80 2.71500E+01 0.00000E+00 0.00000E+00
 -1        81 3.01500E+01 0.00000E+00 0.00000E+00
 -1        82 3.31500E+01 0.00000E+00 0.00000E+00
 -1        83 3.61500E+01 0.00000E+00 0.00000E+00
 -1        84 3.91500E+01 0.00000E+00 0.00000E+00
 -1        85 4.21500E+01 0.00000E+00 0.00000E+00
 -1        86 4.51500E+01 0.00000E+00 0.00000E+00
 -1        87 4.81500E+01 0.00000E+00 0.00000E+00
 -1        88 5.11500E+01 0.00000E+00 0.00000E+00
 -1        89 5.41500E+01 0.00000E+00 0.00000E+00
 -1        90 5.71500E+01 0.00000E+00 0.00000E+00
 -1        91 6.01500E+01 0.00000E+00 0.00000E+00
 -1        92 6.31500E+01 0.00000E+00 0.00000E+00
 -1        93 6.61500E+01 0.00000E+00 0.00000E+00
 -1        94 6.91500E+01 0.00000E+00 0.00000E+00
 -1        95 7.21500E+01 0.00000E+00 0.00000E+00
 -1        96 7.51500E+01 0.00000E+00 0.00000E+00
 -1        97 7.81500E+01 0.00000E+00 0.00000E+00
 -1        98 8.11500E+01 0.00000E+00 0.00000E+00
 -1        99 8.41500E+01 0.00000E+00 0.00000E+00
 -1       100 8.71500E+01 0.00000E+00 0.00000E+00
 -1       101 9.01500E+01 0.00000E+00 0.00000E+00
 -1       102 9.31500E+01 0.00000E+00 0.00000E+00
 -1       103 9.61500E+01 0.00000E+00 0.00000E+00
 -1       104 9.91500E+01 0.00000E+00 0.00000E+00
 -1       105 1.02150E+02 0.00000E+00 0.00000E+00
 -1       106 1.05150E+02 0.00000E+00 0.00000E+00
 -1       107 1.08150E+02 0.00000E+00 0.00000E+00
 -1       108 1.11150E+02 0.00000E+00 0.00000E+00
 -1       109 1.14150E+02 0.00000E+00 0.00000E+00
 -1       110 1.17150E+02 0.00000E+00 0.00000E+00
 -1       111 1.20150E+02 0.00000E+00 0.00000E+00
 -1       112 1.23150E+02 0.00000E+00 0.00000E+00
 -1       113 1.26150E+02 0.00000E+00 0.00000E+00
 -1       114 1.29150E+02 0.00000E+00 0.00000E+00
 -1       115 1.32150E+02 0.00000E+00 0.00000E+00
 -1       116 1.35150E+02 0.00000E+00 0.00000E+00
 -1       117 1.38150E+02 0.00000E+00 0.00000E+00
 -1       118 1.41150E+02 0.00000E+00 0.00000E+00
 -1       119 1.44150E+02 0.00000E+00 0.00000E+00
 -1       120 1.47150E+02 0.00000E+00 0.00000E+00
 -1       121 1.50000E+02 2.95000E+00 0.00000E+00
 -1       122 1.50000E+02 5.90000E+00 0.00000E+00
 -1       123 1.50000E+02 8.85000E+00 0.00000E+00
 -1       124 1.50000E+02 1.18000E+01 0.00000E+00
 -1       125 1.50000E+02 1.47500E+01 0.00000E+00
 -1       126 1.50000E+02 1.76500E+01 0.00000E+00
 -1       127 1.50000E+02 2.06000E+01 0.00000E+00
 -1       128 1.50000E+02 2.35500E+01 0.00000E+00
 -1       129 1.50000E+02 2.65000E+01 0.00000E+00
 -1       130 1.50000E+02 2.94500E+01 0.00000E+00
 -1       131 1.50000E+02 3.24000E+01 0.00000E+00
 -1       132 1.50000E+02 3.53000E+01 0.00000E+00
 -1       133 1.50000E+02 3.82500E+01 0.00000E+00
 -1       134 1.50000E+02 4.12000E+01 0.00000E+00
 -1       135 1.50000E+02 4.41500E+01 0.00000E+00
 -1       136 1.50000E+02 4.71000E+01 0.00000E+00
 -1       137 6.66545E+01 2.11951E+01 0.00000E+00
 -1       138 6.61858E+01 1.97782E+01 0.00000E+00
 -1       139 6.54721E+01 1.85536E+01 0.00000E+00
 -1       140 6.45301E+01 1.75013E+01 0.00000E+00
 -1       141 6.33643E+01 1.66407E+01 0.00000E+00
 -1       142 6.21087E+01 1.60599E+01 0.00000E+00
 -1       143 6.06145E+01 1.57187E+01 0.00000E+00
 -1       144 5.91177E+01 1.57071E+01 0.00000E+00
 -1       145 5.77138E+01 1.59945E+01 0.00000E+00
 -1       146 5.63158E+01 1.66083E+01 0.00000E+00
 -1       147 5.51614E+01 1.74409E+01 0.00000E+00
 -1       148 5.40688E+01 1.86709E+01 0.00000E+00
 -1       149 5.33308E+01 2.00285E+01 0.00000E+00
 -1       150 5.29283E+01 2.14030E+01 0.00000E+00
 -1       151 5.28171E+01 2.29348E+01 0.00000E+00
 -1       152 5.30181E+01 2.43576E+01 0.00000E+00
 -1       153 5.35091E+01 2.57174E+01 0.00000E+00
 -1       154 5.42397E+01 2.69089E+01 0.00000E+00
 -1       155 5.54729E+01 2.81653E+01 0.00000E+00
 -1       156 5.79915E+01 2.94316E+01 0.00000E+00
 -1       157 5.94201E+01 2.96615E+01 0.00000E+00
 -1       158 6.08487E+01 2.95954E+01 0.00000E+00
 -1       159 6.21682E+01 2.92642E+01 0.00000E+00
 -1       160 6.34537E+01 2.86508E+01 0.00000E+00
 -1       161 6.45617E+01 2.78147E+01 0.00000E+00
 -1       162 6.55085E+01 2.67410E+01 0.00000E+00
 -1       163 6.62256E+01 2.54776E+01 0.00000E+00
 -1       164 6.66597E+01 2.41260E+01 0.00000E+00
 -1       165 2.59800E+00 4.55750E+01 0.00000E+00
 -1       166 2.59800E+00 4.26250E+01 0.00000E+00
 -1       167 2.59800E+00 3.96750E+01 0.00000E+00
 -1       168 2.59800E+00 3.67250E+01 0.00000E+00
 -1       169 2.59800E+00 3.38250E+01 0.00000E+00
 -1       170 2.59800E+00 3.08750E+01 0.00000E+00
 -1       171 2.59800E+00 2.79250E+01 0.00000E+00
 -1       172 2.59800E+00 2.49750E+01 0.00000E+00
 -1       173 2.59800E+00 2.20250E+01 0.00000E+00
 -1       174 2.59800E+00 1.90750E+01 0.00000E+00
 -1       175 2.59800E+00 1.61750E+01 0.00000E+00
 -1       176 2.59800E+00 1.32250E+01 0.00000E+00
 -1       177 2.59800E+00 1.02750E+01 0.00000E+00
 -1       178 2.59800E+00 7.32500E+00 0.00000E+00
 -1       179 2.59800E+00 4.37500E+00 0.00000E+00
 -1       180 2.87400E+00 2.18750E+00 0.00000E+00
 -1       181 4.65000E+00 4.74020E+01 0.00000E+00
 -1       182 7.65000E+00 4.74020E+01 0.00000E+00
 -1       183 1.06500E+01 4.74020E+01 0.00000E+00
 -1       184 1.36500E+01 4.74020E+01 0.00000E+00
 -1       185 1.66500E+01 4.74020E+01 0.00000E+00
 -1       186 1.96500E+01 4.74020E+01 0.00000E+00
 -1       187 2.26500E+01 4.74020E+01 0.00000E+00
 -1       188 2.56500E+01 4.74020E+01 0.00000E+00
 -1       189 2.86500E+01 4.74020E+01 0.00000E+00
 -1       190 3.16500E+01 4.74020E+01 0.00000E+00
 -1       191 3.46500E+01 4.74020E+01 0.00000E+00
 -1       192 3.76500E+01 4.74020E+01 0.00000E+00
 -1       193 4.06500E+01 4.74020E+01 0.00000E+00
 -1       194 4.36500E+01 4.74020E+01 0.00000E+00
 -1       195 4.66500E+01 4.74020E+01 0.00000E+00
 -1       196 4.96500E+01 4.74020E+01 0.00000E+00
 -1       197 5.26500E+01 4.74020E+01 0.00000E+00
 -1       198 5.56500E+01 4.74020E+01 0.00000E+00
 -1       199 5.86500E+01 4.74020E+01 0.00000E+00
 -1       200 6.16500E+01 4.74020E+01 0.00000E+00
 -1       201 6.46500E+01 4.74020E+01 0.00000E+00
 -1       202 6.76500E+01 4.74020E+01 0.00000E+00
 -1       203 7.06500E+01 4.74020E+01 0.00000E+00
 -1       204 7.36500E+01 4.74020E+01 0.00000E+00
 -1       205 7.66500E+01 4.74020E+01 0.00000E+00
 -1       206 7.96500E+01 4.74020E+01 0.00000E+00
 -1       207 8.26500E+01 4.74020E+01 0.00000E+00
 -1       208 8.56500E+01 4.74020E+01 0.00000E+00
 -1       209 8.86500E+01 4.74020E+01 0.00000E+00
 -1       210 9.16500E+01 4.74020E+01 0.00000E+00
 -1       211 9.46500E+01 4.74020E+01 0.00000E+00
 -1       212 9.76500E+01 4.74020E+01 0.00000E+00
 -1       213 1.00650E+02 4.74020E+01 0.00000E+00
 -1       214 1.03650E+02 4.74020E+01 0.00000E+00
 -1       215 1.06650E+02 4.74020E+01 0.00000E+00
 -1       216 1.09650E+02 4.74020E+01 0.00000E+00
 -1       217 1.12650E+02 4.74020E+01 0.00000E+00
 -1       218 1.15650E+02 4.74020E+01 0.00000E+00
 -1       219 1.18650E+02 4.74020E+01 0.00000E+00
 -1       220 1.21650E+02 4.74020E+01 0.00000E+00
 -1       221 1.24650E+02 4.74020E+01 0.00000E+00
 -1       222 1.27650E+02 4.74020E+01 0.00000E+00
 -1       223 1.30650E+02 4.74020E+01 0.00000E+00
 -1       224 1.33650E+02 4.74020E+01 0.00000E+00
 -1       225 1.36650E+02 4.74020E+01 0.00000E+00
 -1       226 1.39650E+02 4.74020E+01 0.00000E+00
 -1       227 1.42650E+02 4.74020E+01 0.00000E+00
 -1       228 1.45650E+02 4.74020E+01 0.00000E+00
 -1       229 5.87400E+00 2.18750E+00 0.00000E+00
 -1       230 8.87400E+00 2.18750E+00 0.00000E+00
 -1       231 1.18740E+01 2.18750E+00 0.00000E+00
 -1       232 1.48740E+01 2.18750E+00 0.00000E+00
 -1       233 1.78740E+01 2.18750E+00 0.00000E+00
 -1       234 2.08740E+01 2.18750E+00 0.00000E+00
 -1       235 2.38740E+01 2.18750E+00 0.00000E+00
 -1       236 2.68740E+01 2.18750E+00 0.00000E+00
 -1       237 2.98740E+01 2.18750E+00 0.00000E+00
 -1       238 3.28740E+01 2.18750E+00 0.00000E+00
 -1       239 3.58740E+01 2.18750E+00 0.00000E+00
 -1       240 3.88740E+01 2.18750E+00 0.00000E+00
 -1       241 4.18740E+01 2.18750E+00 0.00000E+00
 -1       242 4.48740E+01 2.18750E+00 0.00000E+00
 -1       243 4.78740E+01 2.18750E+00 0.00000E+00
 -1       244 5.08740E+01 2.18750E+00 0.00000E+00
 -1       245 5.38740E+01 2.18750E+00 0.00000E+00
 -1       246 5.68740E+01 2.18750E+00 0.00000E+00
 -1       247 5.98740E+01 2.18750E+00 0.00000E+00
 -1       248 6.28740E+01 2.18750E+00 0.00000E+00
 -1       249 6.58740E+01 2.18750E+00 0.00000E+00
 -1       250 6.88740E+01 2.18750E+00 0.00000E+00
 -1       251 7.18740E+01 2.18750E+00 0.00000E+00
 -1       252 7.48740E+01 2.18750E+00 0.00000E+00
 -1       253 7.78740E+01 2.18750E+00 0.00000E+00
 -1       254 8.08740E+01 2.18750E+00 0.00000E+00
 -1       255 8.38740E+01 2.18750E+00 0.00000E+00
 -1       256 8.68740E+01 2.18750E+00 0.00000E+00
 -1       257 8.98740E+01 2.18750E+00 0.00000E+00
 -1       258 9.28740E+01 2.18750E+00 0.00000E+00
 -1       259 9.58740E+01 2.18750E+00 0.00000E+00
 -1       260 9.88740E+01 2.18750E+00 0.00000E+00
 -1       261 1.01874E+02 2.18750E+00 0.00000E+00
 -1       262 1.04874E+02 2.18750E+00 0.00000E+00
 -1       263 1.07874E+02 2.18750E+00 0.00000E+00
 -1       264 1.10874E+02 2.18750E+00 0.00000E+00
 -1       265 1.13874E+02 2.18750E+00 0.00000E+00
 -1       266 1.16874E+02 2.18750E+00 0.00000E+00
 -1       267 1.19874E+02 2.18750E+00 0.00000E+00
 -1       268 1.22874E+02 2.18750E+00 0.00000E+00
 -1       269 1.25874E+02 2.18750E+00 0.00000E+00
 -1       270 1.28874E+02 2.18750E+00 0.00000E+00
 -1       271 1.31874E+02 2.18750E+00 0.00000E+00
 -1       272 1.34874E+02 2.18750E+00 0.00000E+00
 -1       273 1.37874E+02 2.18750E+00 0.00000E+00
 -1       274 1.40874E+02 2.18750E+00 0.00000E+00
 -1       275 1.43874E+02 2.18750E+00 0.00000E+00
 -1       276 1.46874E+02 2.18750E+00 0.00000E+00
 -1       277 1.47402E+02 4.42500E+00 0.00000E+00
 -1       278 1.47402E+02 7.37500E+00 0.00000E+00
 -1       279 1.47402E+02 1.03250E+01 0.00000E+00
 -1       280 1.47402E+02 1.32750E+01 0.00000E+00
 -1       281 1.47402E+02 1.61750E+01 0.00000E+00
 -1       282 1.47402E+02 1.91250E+01 0.00000E+00
 -1       283 1.47402E+02 2.20750E+01 0.00000E+00
 -1       284 1.47402E+02 2.50250E+01 0.00000E+00
 -1       285 1.47402E+02 2.79750E+01 0.00000E+00
 -1       286 1.47402E+02 3.09250E+01 0.00000E+00
 -1       287 1.47402E+02 3.38250E+01 0.00000E+00
 -1       288 1.47402E+02 3.67750E+01 0.00000E+00
 -1       289 1.47402E+02 3.97250E+01 0.00000E+00
 -1       290 1.47402E+02 4.26750E+01 0.00000E+00
 -1       291 1.46526E+02 4.50385E+01 0.00000E+00
 -1       292 6.80222E+01 2.17962E+01 0.00000E+00
 -1       293 6.77303E+01 2.00532E+01 0.00000E+00
 -1       294 6.68764E+01 1.85554E+01 0.00000E+00
 -1       295 6.59669E+01 1.71629E+01 0.00000E+00
 -1       296 6.46672E+01 1.60956E+01 0.00000E+00
 -1       297 6.32454E+01 1.52499E+01 0.00000E+00
 -1       298 6.16502E+01 1.46257E+01 0.00000E+00
 -1       299 5.98761E+01 1.44167E+01 0.00000E+00
 -1       300 5.81726E+01 1.46630E+01 0.00000E+00
 -1       301 5.64600E+01 1.50379E+01 0.00000E+00
 -1       302 5.50294E+01 1.60413E+01 0.00000E+00
 -1       303 5.35834E+01 1.71394E+01 0.00000E+00
 -1       304 5.26346E+01 1.87707E+01 0.00000E+00
 -1       305 5.19660E+01 2.03751E+01 0.00000E+00
 -1       306 5.15799E+01 2.20751E+01 0.00000E+00
 -1       307 5.17171E+01 2.38157E+01 0.00000E+00
 -1       308 5.21233E+01 2.54493E+01 0.00000E+00
 -1       309 5.28408E+01 2.69468E+01 0.00000E+00
 -1       310 5.36921E+01 2.86798E+01 0.00000E+00
 -1       311 5.54204E+01 2.95692E+01 0.00000E+00
 -1       312 5.68990E+01 3.03126E+01 0.00000E+00
 -1       313 5.84998E+01 3.08263E+01 0.00000E+00
 -1       314 6.01982E+01 3.10070E+01 0.00000E+00
 -1       315 6.18036E+01 3.06057E+01 0.00000E+00
 -1       316 6.34052E+01 3.02029E+01 0.00000E+00
 -1       317 6.47885E+01 2.92675E+01 0.00000E+00
 -1       318 6.60074E+01 2.81351E+01 0.00000E+00
 -1       319 6.70672E+01 2.67905E+01 0.00000E+00
 -1       320 6.76768E+01 2.51981E+01 0.00000E+00
 -1       321 6.81084E+01 2.35433E+01 0.00000E+00
 -1       322 5.19600E+00 4.11500E+01 0.00000E+00
 -1       323 5.19600E+00 4.41000E+01 0.00000E+00
 -1       324 5.19600E+00 3.52750E+01 0.00000E+00
 -1       325 5.19600E+00 3.23250E+01 0.00000E+00
 -1       326 5.19600E+00 2.93750E+01 0.00000E+00
 -1       327 5.19600E+00 2.64250E+01 0.00000E+00
 -1       328 5.19600E+00 2.34750E+01 0.00000E+00
 -1       329 5.19600E+00 2.05250E+01 0.00000E+00
 -1       330 5.19600E+00 1.76250E+01 0.00000E+00
 -1       331 5.19600E+00 1.46750E+01 0.00000E+00
 -1       332 5.19600E+00 1.17250E+01 0.00000E+00
 -1       333 5.19600E+00 8.77500E+00 0.00000E+00
 -1       334 5.19600E+00 5.82500E+00 0.00000E+00
 -1       335 5.53500E+00 4.00625E+00 0.00000E+00
 -1       336 8.53500E+00 4.00625E+00 0.00000E+00
 -1       337 9.15000E+00 4.48040E+01 0.00000E+00
 -1       338 1.21500E+01 4.48040E+01 0.00000E+00
 -1       339 1.51500E+01 4.48040E+01 0.00000E+00
 -1       340 1.81500E+01 4.48040E+01 0.00000E+00
 -1       341 2.11500E+01 4.48040E+01 0.00000E+00
 -1       342 2.41500E+01 4.48040E+01 0.00000E+00
 -1       343 2.71500E+01 4.48040E+01 0.00000E+00
 -1       344 3.01500E+01 4.48040E+01 0.00000E+00
 -1       345 3.31500E+01 4.48040E+01 0.00000E+00
 -1       346 3.61500E+01 4.48040E+01 0.00000E+00
 -1       347 3.91500E+01 4.48040E+01 0.00000E+00
 -1       348 4.21500E+01 4.48040E+01 0.00000E+00
 -1       349 4.51500E+01 4.48040E+01 0.00000E+00
 -1       350 4.81500E+01 4.48040E+01 0.00000E+00
 -1       351 5.11500E+01 4.48040E+01 0.00000E+00
 -1       352 5.41500E+01 4.48040E+01 0.00000E+00
 -1       353 5.71500E+01 4.48040E+01 0.00000E+00
 -1       354 6.01500E+01 4.48040E+01 0.00000E+00
 -1       355 6.31500E+01 4.48040E+01 0.00000E+00
 -1       356 6.61500E+01 4.48040E+01 0.00000E+00
 -1       357 6.91500E+01 4.48040E+01 0.00000E+00
 -1       358 7.21500E+01 4.48040E+01 0.00000E+00
 -1       359 7.51500E+01 4.48040E+01 0.00000E+00
 -1       360 7.81500E+01 4.48040E+01 0.00000E+00
 -1       361 8.11500E+01 4.48040E+01 0.00000E+00
 -1       362 8.41500E+01 4.48040E+01 0.00000E+00
 -1       363 8.71500E+01 4.48040E+01 0.00000E+00
 -1       364 9.01500E+01 4.48040E+01 0.00000E+00
 -1       365 9.31500E+01 4.48040E+01 0.00000E+00
 -1       366 9.61500E+01 4.48040E+01 0.00000E+00
 -1       367 9.91500E+01 4.48040E+01 0.00000E+00
 -1       368 1.02150E+02 4.48040E+01 0.00000E+00
 -1       369 1.05150E+02 4.48040E+01 0.00000E+00
 -1       370 1.08150E+02 4.48040E+01 0.00000E+00
 -1       371 1.11150E+02 4.48040E+01 0.00000E+00
 -1       372 1.14150E+02 4.48040E+01 0.00000E+00
 -1       373 1.17150E+02 4.48040E+01 0.00000E+00
 -1       374 1.20150E+02 4.48040E+01 0.00000E+00
 -1       375 1.23150E+02 4.48040E+01 0.00000E+00
 -1       376 1.26150E+02 4.48040E+01 0.00000E+00
 -1       377 1.29150E+02 4.48040E+01 0.00000E+00
 -1       378 1.32150E+02 4.48040E+01 0.00000E+00
 -1       379 1.35150E+02 4.48040E+01 0.00000E+00
 -1       380 1.38150E+02 4.48040E+01 0.00000E+00
 -1       381 1.41150E+02 4.48040E+01 0.00000E+00
 -1       382 1.43838E+02 4.49212E+01 0.00000E+00
 -1       383 1.15350E+01 4.00625E+00 0.00000E+00
 -1       384 1.45350E+01 4.00625E+00 0.00000E+00
 -1       385 1.75350E+01 4.00625E+00 0.00000E+00
 -1       386 2.05350E+01 4.00625E+00 0.00000E+00
 -1       387 2.35350E+01 4.00625E+00 0.00000E+00
 -1       388 2.65350E+01 4.00625E+00 0.00000E+00
 -1       389 2.95350E+01 4.00625E+00 0.00000E+00
 -1       390 3.25350E+01 4.00625E+00 0.00000E+00
 -1       391 3.55350E+01 4.00625E+00 0.00000E+00
 -1       392 3.85350E+01 4.00625E+00 0.00000E+00
 -1       393 4.15350E+01 4.00625E+00 0.00000E+00
 -1       394 4.45350E+01 4.00625E+00 0.00000E+00
 -1       395 4.75350E+01 4.00625E+00 0.00000E+00
 -1       396 5.05350E+01 4.00625E+00 0.00000E+00
 -1       397 5.35350E+01 4.00625E+00 0.00000E+00
 -1       398 5.65350E+01 4.00625E+00 0.00000E+00
 -1       399 5.95350E+01 4.00625E+00 0.00000E+00
 -1       400 6.25350E+01 4.00625E+00 0.00000E+00
 -1       401 6.55350E+01 4.00625E+00 0.00000E+00
 -1       402 6.85350E+01 4.00625E+00 0.00000E+00
 -1       403 7.15350E+01 4.00625E+00 0.00000E+00
 -1       404 7.45350E+01 4.00625E+00 0.00000E+00
 -1       405 7.75350E+01 4.00625E+00 0.00000E+00
 -1       406 8.05350E+01 4.00625E+00 0.00000E+00
 -1       407 8.35350E+01 4.00625E+00 0.00000E+00
 -1       408 8.65350E+01 4.00625E+00 0.00000E+00
 -1       409 8.95350E+01 4.00625E+00 0.00000E+00
 -1       410 9.25350E+01 4.00625E+00 0.00000E+00
 -1       411 9.55350E+01 4.00625E+00 0.00000E+00
 -1       412 9.85350E+01 4.00625E+00 0.00000E+00
 -1       413 1.01535E+02 4.00625E+00 0.00000E+00
 -1       414 1.04535E+02 4.00625E+00 0.00000E+00
 -1       415 1.07535E+02 4.00625E+00 0.00000E+00
 -1       416 1.10535E+02 4.00625E+00 0.00000E+00
 -1       417 1.13535E+02 4.00625E+00 0.00000E+00
 -1       418 1.16535E+02 4.00625E+00 0.00000E+00
 -1       419 1.19535E+02 4.00625E+00 0.00000E+00
 -1       420 1.22535E+02 4.00625E+00 0.00000E+00
 -1       421 1.25535E+02 4.00625E+00 0.00000E+00
 -1       422 1.28535E+02 4.00625E+00 0.00000E+00
 -1       423 1.31535E+02 4.00625E+00 0.00000E+00
 -1       424 1.34535E+02 4.00625E+00 0.00000E+00
 -1       425 1.37535E+02 4.00625E+00 0.00000E+00
 -1       426 1.40535E+02 4.00625E+00 0.00000E+00
 -1       427 1.43535E+02 4.00625E+00 0.00000E+00
 -1       428 1.45469E+02 4.21562E+00 0.00000E+00
 -1       429 1.44804E+02 1.18000E+01 0.00000E+00
 -1       430 1.44804E+02 8.85000E+00 0.00000E+00
 -1       431 1.45136E+02 6.53281E+00 0.00000E+00
 -1       432 1.44804E+02 1.47000E+01 0.00000E+00
 -1       433 1.44804E+02 1.76500E+01 0.00000E+00
 -1       434 1.44804E+02 2.06000E+01 0.00000E+00
 -1       435 1.44804E+02 2.35500E+01 0.00000E+00
 -1       436 1.44804E+02 2.65000E+01 0.00000E+00
 -1       437 1.44804E+02 2.94500E+01 0.00000E+00
 -1       438 1.44804E+02 3.23500E+01 0.00000E+00
 -1       439 1.44804E+02 3.53000E+01 0.00000E+00
 -1       440 1.44804E+02 3.82500E+01 0.00000E+00
 -1       441 1.44804E+02 4.12000E+01 0.00000E+00
 -1       442 6.85022E+01 1.86209E+01 0.00000E+00
 -1       443 6.96947E+01 2.25894E+01 0.00000E+00
 -1       444 6.94027E+01 2.08464E+01 0.00000E+00
 -1       445 6.75927E+01 1.72284E+01 0.00000E+00
 -1       446 6.61929E+01 1.55628E+01 0.00000E+00
 -1       447 5.19600E+00 3.82125E+01 0.00000E+00
 -1       448 6.29202E+01 1.37308E+01 0.00000E+00
 -1       449 6.09638E+01 1.28179E+01 0.00000E+00
 -1       450 5.88149E+01 1.30912E+01 0.00000E+00
 -1       451 5.71023E+01 1.34660E+01 0.00000E+00
 -1       452 5.50004E+01 1.44784E+01 0.00000E+00
 -1       453 5.34718E+01 1.54914E+01 0.00000E+00
 -1       454 5.17713E+01 1.71770E+01 0.00000E+00
 -1       455 5.10265E+01 1.90420E+01 0.00000E+00
 -1       456 5.03456E+01 2.09009E+01 0.00000E+00
 -1       457 5.02728E+01 2.30538E+01 0.00000E+00
 -1       458 5.04184E+01 2.50059E+01 0.00000E+00
 -1       459 5.13131E+01 2.67582E+01 0.00000E+00
 -1       460 5.20279E+01 2.84218E+01 0.00000E+00
 -1       461 5.38865E+01 3.04261E+01 0.00000E+00
 -1       462 5.53651E+01 3.11694E+01 0.00000E+00
 -1       463 5.72521E+01 3.19632E+01 0.00000E+00
 -1       464 5.92031E+01 3.22888E+01 0.00000E+00
 -1       465 6.13152E+01 3.20638E+01 0.00000E+00
 -1       466 6.29168E+01 3.16611E+01 0.00000E+00
 -1       467 6.48699E+01 3.08783E+01 0.00000E+00
 -1       468 6.63371E+01 2.97123E+01 0.00000E+00
 -1       469 6.77527E+01 2.84208E+01 0.00000E+00
 -1       470 6.85825E+01 2.64577E+01 0.00000E+00
 -1       471 6.93089E+01 2.47402E+01 0.00000E+00
 -1       472 6.47046E+01 1.44147E+01 0.00000E+00
 -1       473 5.56427E+01 1.29065E+01 0.00000E+00
 -1       474 5.22223E+01 3.01680E+01 0.00000E+00
 -1       475 1.00350E+01 6.60425E+00 0.00000E+00
 -1       476 7.79400E+00 3.08500E+01 0.00000E+00
 -1       477 7.79400E+00 3.38000E+01 0.00000E+00
 -1       478 7.79400E+00 2.49500E+01 0.00000E+00
 -1       479 7.79400E+00 2.20000E+01 0.00000E+00
 -1       480 7.79400E+00 1.91000E+01 0.00000E+00
 -1       481 7.79400E+00 1.61500E+01 0.00000E+00
 -1       482 7.79400E+00 1.32000E+01 0.00000E+00
 -1       483 7.79400E+00 1.02500E+01 0.00000E+00
 -1       484 1.30350E+01 6.60425E+00 0.00000E+00
 -1       485 1.06500E+01 4.22060E+01 0.00000E+00
 -1       486 1.36500E+01 4.22060E+01 0.00000E+00
 -1       487 1.66500E+01 4.22060E+01 0.00000E+00
 -1       488 1.96500E+01 4.22060E+01 0.00000E+00
 -1       489 2.26500E+01 4.22060E+01 0.00000E+00
 -1       490 2.56500E+01 4.22060E+01 0.00000E+00
 -1       491 2.86500E+01 4.22060E+01 0.00000E+00
 -1       492 3.16500E+01 4.22060E+01 0.00000E+00
 -1       493 3.46500E+01 4.22060E+01 0.00000E+00
 -1       494 3.76500E+01 4.22060E+01 0.00000E+00
 -1       495 4.06500E+01 4.22060E+01 0.00000E+00
 -1       496 4.36500E+01 4.22060E+01 0.00000E+00
 -1       497 4.66500E+01 4.22060E+01 0.00000E+00
 -1       498 4.96500E+01 4.22060E+01 0.00000E+00
 -1       499 5.26500E+01 4.22060E+01 0.00000E+00
 -1       500 5.56500E+01 4.22060E+01 0.00000E+00
 -1       501 5.86500E+01 4.22060E+01 0.00000E+00
 -1       502 6.16500E+01 4.22060E+01 0.00000E+00
 -1       503 6.46500E+01 4.22060E+01 0.00000E+00
 -1       504 6.76500E+01 4.22060E+01 0.00000E+00
 -1       505 7.06500E+01 4.22060E+01 0.00000E+00
 -1       506 7.36500E+01 4.22060E+01 0.00000E+00
 -1       507 7.66500E+01 4.22060E+01 0.00000E+00
 -1       508 7.96500E+01 4.22060E+01 0.00000E+00
 -1       509 8.26500E+01 4.22060E+01 0.00000E+00
 -1       510 8.56500E+01 4.22060E+01 0.00000E+00
 -1       511 8.86500E+01 4.22060E+01 0.00000E+00
 -1       512 9.16500E+01 4.22060E+01 0.00000E+00
 -1       513 9.46500E+01 4.22060E+01 0.00000E+00
 -1       514 9.76500E+01 4.22060E+01 0.00000E+00
 -1       515 1.00650E+02 4.22060E+01 0.00000E+00
 -1       516 1.03650E+02 4.22060E+01 0.00000E+00
 -1       517 1.06650E+02 4.22060E+01 0.00000E+00
 -1       518 1.09650E+02 4.22060E+01 0.00000E+00
 -1       519 1.12650E+02 4.22060E+01 0.00000E+00
 -1       520 1.15650E+02 4.22060E+01 0.00000E+00
 -1       521 1.18650E+02 4.22060E+01 0.00000E+00
 -1       522 1.21650E+02 4.22060E+01 0.00000E+00
 -1       523 1.24650E+02 4.22060E+01 0.00000E+00
 -1       524 1.27650E+02 4.22060E+01 0.00000E+00
 -1       525 1.30650E+02 4.22060E+01 0.00000E+00
 -1       526 1.33650E+02 4.22060E+01 0.00000E+00
 -1       527 1.36650E+02 4.22060E+01 0.00000E+00
 -1       528 1.39650E+02 4.22060E+01 0.00000E+00
 -1       529 1.90350E+01 6.60425E+00 0.00000E+00
 -1       530 2.20350E+01 6.60425E+00 0.00000E+00
 -1       531 2.50350E+01 6.60425E+00 0.00000E+00
 -1       532 2.80350E+01 6.60425E+00 0.00000E+00
 -1       533 3.10350E+01 6.60425E+00 0.00000E+00
 -1       534 3.40350E+01 6.60425E+00 0.00000E+00
 -1       535 3.70350E+01 6.60425E+00 0.00000E+00
 -1       536 4.00350E+01 6.60425E+00 0.00000E+00
 -1       537 4.30350E+01 6.60425E+00 0.00000E+00
 -1       538 4.60350E+01 6.60425E+00 0.00000E+00
 -1       539 4.90350E+01 6.60425E+00 0.00000E+00
 -1       540 5.20350E+01 6.60425E+00 0.00000E+00
 -1       541 5.50350E+01 6.60425E+00 0.00000E+00
 -1       542 5.80350E+01 6.60425E+00 0.00000E+00
 -1       543 6.10350E+01 6.60425E+00 0.00000E+00
 -1       544 6.40350E+01 6.60425E+00 0.00000E+00
 -1       545 6.70350E+01 6.60425E+00 0.00000E+00
 -1       546 7.00350E+01 6.60425E+00 0.00000E+00
 -1       547 7.30350E+01 6.60425E+00 0.00000E+00
 -1       548 7.60350E+01 6.60425E+00 0.00000E+00
 -1       549 7.90350E+01 6.60425E+00 0.00000E+00
 -1       550 8.20350E+01 6.60425E+00 0.00000E+00
 -1       551 8.50350E+01 6.60425E+00 0.00000E+00
 -1       552 8.80350E+01 6.60425E+00 0.00000E+00
 -1       553 9.10350E+01 6.60425E+00 0.00000E+00
 -1       554 9.40350E+01 6.60425E+00 0.00000E+00
 -1       555 9.70350E+01 6.60425E+00 0.00000E+00
 -1       556 1.00035E+02 6.60425E+00 0.00000E+00
 -1       557 1.03035E+02 6.60425E+00 0.00000E+00
 -1       558 1.06035E+02 6.60425E+00 0.00000E+00
 -1       559 1.09035E+02 6.60425E+00 0.00000E+00
 -1       560 1.12035E+02 6.60425E+00 0.00000E+00
 -1       561 1.15035E+02 6.60425E+00 0.00000E+00
 -1       562 1.18035E+02 6.60425E+00 0.00000E+00
 -1       563 1.21035E+02 6.60425E+00 0.00000E+00
 -1       564 1.24035E+02 6.60425E+00 0.00000E+00
 -1       565 1.27035E+02 6.60425E+00 0.00000E+00
 -1       566 1.30035E+02 6.60425E+00 0.00000E+00
 -1       567 1.33035E+02 6.60425E+00 0.00000E+00
 -1       568 1.36035E+02 6.60425E+00 0.00000E+00
 -1       569 1.39035E+02 6.60425E+00 0.00000E+00
 -1       570 1.42035E+02 6.60425E+00 0.00000E+00
 -1       571 1.42206E+02 1.61750E+01 0.00000E+00
 -1       572 1.42206E+02 1.91250E+01 0.00000E+00
 -1       573 1.42206E+02 1.03250E+01 0.00000E+00
 -1       574 1.42206E+02 1.32500E+01 0.00000E+00
 -1       575 6.93431E+01 1.70783E+01 0.00000E+00
 -1       576 1.42206E+02 2.20750E+01 0.00000E+00
 -1       577 1.42206E+02 2.50250E+01 0.00000E+00
 -1       578 1.42206E+02 2.79750E+01 0.00000E+00
 -1       579 1.42206E+02 3.08750E+01 0.00000E+00
 -1       580 1.42206E+02 3.38250E+01 0.00000E+00
 -1       581 1.42206E+02 3.67750E+01 0.00000E+00
 -1       582 1.42206E+02 3.97250E+01 0.00000E+00
 -1       583 6.82058E+01 1.52922E+01 0.00000E+00
 -1       584 1.60350E+01 6.60425E+00 0.00000E+00
 -1       585 7.14055E+01 2.14069E+01 0.00000E+00
 -1       586 7.11900E+01 2.39676E+01 0.00000E+00
 -1       587 7.92300E+00 4.16780E+01 0.00000E+00
 -1       588 6.64963E+01 1.36308E+01 0.00000E+00
 -1       589 6.04409E+01 3.38818E+01 0.00000E+00
 -1       590 6.43963E+01 1.25495E+01 0.00000E+00
 -1       591 7.79400E+00 2.79000E+01 0.00000E+00
 -1       592 5.96941E+01 1.14194E+01 0.00000E+00
 -1       593 5.33812E+01 1.36949E+01 0.00000E+00
 -1       594 5.75919E+01 1.16032E+01 0.00000E+00
 -1       595 5.79728E+01 3.36524E+01 0.00000E+00
 -1       596 6.24398E+01 1.16366E+01 0.00000E+00
 -1       597 5.15321E+01 1.52351E+01 0.00000E+00
 -1       598 4.98839E+01 1.75045E+01 0.00000E+00
 -1       599 4.92030E+01 1.93634E+01 0.00000E+00
 -1       600 4.85951E+01 2.19195E+01 0.00000E+00
 -1       601 4.88859E+01 2.41387E+01 0.00000E+00
 -1       602 4.94875E+01 2.65858E+01 0.00000E+00
 -1       603 5.02022E+01 2.82494E+01 0.00000E+00
 -1       604 5.38554E+01 3.23301E+01 0.00000E+00
 -1       605 6.66185E+01 3.15725E+01 0.00000E+00
 -1       606 5.57425E+01 3.31238E+01 0.00000E+00
 -1       607 6.24934E+01 3.33633E+01 0.00000E+00
 -1       608 6.44691E+01 3.27062E+01 0.00000E+00
 -1       609 6.80340E+01 3.02809E+01 0.00000E+00
 -1       610 6.97474E+01 2.81070E+01 0.00000E+00
 -1       611 7.04738E+01 2.63895E+01 0.00000E+00
 -1       612 7.61550E+00 6.21462E+00 0.00000E+00
 -1       613 7.05050E+01 1.91814E+01 0.00000E+00
 -1       614 6.11701E+01 1.02381E+01 0.00000E+00
 -1       615 7.79400E+00 3.67375E+01 0.00000E+00
 -1       616 7.00287E+01 2.99672E+01 0.00000E+00
 -1       617 1.41678E+02 4.22645E+01 0.00000E+00
 -1       618 5.03966E+01 2.99956E+01 0.00000E+00
 -1       619 5.21912E+01 3.20720E+01 0.00000E+00
 -1       620 4.96447E+01 1.55626E+01 0.00000E+00
 -1       621 1.03920E+01 2.05500E+01 0.00000E+00
 -1       622 1.03920E+01 2.35000E+01 0.00000E+00
 -1       623 1.03920E+01 1.46750E+01 0.00000E+00
 -1       624 1.03920E+01 1.17250E+01 0.00000E+00
 -1       625 1.15350E+01 9.20225E+00 0.00000E+00
 -1       626 1.45350E+01 9.20225E+00 0.00000E+00
 -1       627 1.51500E+01 3.96080E+01 0.00000E+00
 -1       628 1.81500E+01 3.96080E+01 0.00000E+00
 -1       629 2.11500E+01 3.96080E+01 0.00000E+00
 -1       630 2.41500E+01 3.96080E+01 0.00000E+00
 -1       631 2.71500E+01 3.96080E+01 0.00000E+00
 -1       632 3.01500E+01 3.96080E+01 0.00000E+00
 -1       633 3.31500E+01 3.96080E+01 0.00000E+00
 -1       634 3.61500E+01 3.96080E+01 0.00000E+00
 -1       635 3.91500E+01 3.96080E+01 0.00000E+00
 -1       636 4.21500E+01 3.96080E+01 0.00000E+00
 -1       637 4.51500E+01 3.96080E+01 0.00000E+00
 -1       638 4.81500E+01 3.96080E+01 0.00000E+00
 -1       639 5.11500E+01 3.96080E+01 0.00000E+00
 -1       640 5.41500E+01 3.96080E+01 0.00000E+00
 -1       641 5.71500E+01 3.96080E+01 0.00000E+00
 -1       642 6.01500E+01 3.96080E+01 0.00000E+00
 -1       643 6.31500E+01 3.96080E+01 0.00000E+00
 -1       644 6.61500E+01 3.96080E+01 0.00000E+00
 -1       645 6.91500E+01 3.96080E+01 0.00000E+00
 -1       646 7.21500E+01 3.96080E+01 0.00000E+00
 -1       647 7.51500E+01 3.96080E+01 0.00000E+00
 -1       648 7.81500E+01 3.96080E+01 0.00000E+00
 -1       649 8.11500E+01 3.96080E+01 0.00000E+00
 -1       650 8.41500E+01 3.96080E+01 0.00000E+00
 -1       651 8.71500E+01 3.96080E+01 0.00000E+00
 -1       652 9.01500E+01 3.96080E+01 0.00000E+00
 -1       653 9.31500E+01 3.96080E+01 0.00000E+00
 -1       654 9.61500E+01 3.96080E+01 0.00000E+00
 -1       655 9.91500E+01 3.96080E+01 0.00000E+00
 -1       656 1.02150E+02 3.96080E+01 0.00000E+00
 -1       657 1.05150E+02 3.96080E+01 0.00000E+00
 -1       658 1.08150E+02 3.96080E+01 0.00000E+00
 -1       659 1.11150E+02 3.96080E+01 0.00000E+00
 -1       660 1.14150E+02 3.96080E+01 0.00000E+00
 -1       661 1.17150E+02 3.96080E+01 0.00000E+00
 -1       662 1.20150E+02 3.96080E+01 0.00000E+00
 -1       663 1.23150E+02 3.96080E+01 0.00000E+00
 -1       664 1.26150E+02 3.96080E+01 0.00000E+00
 -1       665 1.29150E+02 3.96080E+01 0.00000E+00
 -1       666 1.32150E+02 3.96080E+01 0.00000E+00
 -1       667 1.35150E+02 3.96080E+01 0.00000E+00
 -1       668 1.38150E+02 3.96080E+01 0.00000E+00
 -1       669 2.35350E+01 9.20225E+00 0.00000E+00
 -1       670 6.88968E+01 1.28710E+01 0.00000E+00
 -1       671 2.05350E+01 9.20225E+00 0.00000E+00
 -1       672 2.95350E+01 9.20225E+00 0.00000E+00
 -1       673 3.25350E+01 9.20225E+00 0.00000E+00
 -1       674 3.55350E+01 9.20225E+00 0.00000E+00
 -1       675 3.85350E+01 9.20225E+00 0.00000E+00
 -1       676 4.15350E+01 9.20225E+00 0.00000E+00
 -1       677 4.45350E+01 9.20225E+00 0.00000E+00
 -1       678 4.75350E+01 9.20225E+00 0.00000E+00
 -1       679 5.05350E+01 9.20225E+00 0.00000E+00
 -1       680 5.35350E+01 9.20225E+00 0.00000E+00
 -1       681 5.95350E+01 9.15721E+00 0.00000E+00
 -1       682 6.55350E+01 8.98964E+00 0.00000E+00
 -1       683 6.85350E+01 8.98964E+00 0.00000E+00
 -1       684 7.15350E+01 8.98964E+00 0.00000E+00
 -1       685 7.45350E+01 8.98964E+00 0.00000E+00
 -1       686 7.75350E+01 8.98964E+00 0.00000E+00
 -1       687 8.05350E+01 8.98964E+00 0.00000E+00
 -1       688 8.35350E+01 8.98964E+00 0.00000E+00
 -1       689 8.65350E+01 8.98964E+00 0.00000E+00
 -1       690 8.95350E+01 8.98964E+00 0.00000E+00
 -1       691 9.25350E+01 8.98964E+00 0.00000E+00
 -1       692 9.55350E+01 8.98964E+00 0.00000E+00
 -1       693 9.85350E+01 8.98964E+00 0.00000E+00
 -1       694 1.01535E+02 8.98964E+00 0.00000E+00
 -1       695 1.04535E+02 8.98964E+00 0.00000E+00
 -1       696 1.07535E+02 8.98964E+00 0.00000E+00
 -1       697 1.10535E+02 8.98964E+00 0.00000E+00
 -1       698 1.13535E+02 8.98964E+00 0.00000E+00
 -1       699 1.16535E+02 8.98964E+00 0.00000E+00
 -1       700 1.19535E+02 8.98964E+00 0.00000E+00
 -1       701 1.22535E+02 8.98964E+00 0.00000E+00
 -1       702 1.25535E+02 8.98964E+00 0.00000E+00
 -1       703 1.28535E+02 8.98964E+00 0.00000E+00
 -1       704 1.31535E+02 8.98964E+00 0.00000E+00
 -1       705 1.34535E+02 8.98964E+00 0.00000E+00
 -1       706 1.37535E+02 8.98964E+00 0.00000E+00
 -1       707 1.39870E+02 9.65732E+00 0.00000E+00
 -1       708 1.39608E+02 2.35500E+01 0.00000E+00
 -1       709 1.40178E+02 3.96665E+01 0.00000E+00
 -1       710 1.39608E+02 1.76500E+01 0.00000E+00
 -1       711 5.39750E+01 1.17603E+01 0.00000E+00
 -1       712 1.39608E+02 2.65000E+01 0.00000E+00
 -1       713 1.39608E+02 2.06000E+01 0.00000E+00
 -1       714 1.39608E+02 2.94000E+01 0.00000E+00
 -1       715 1.39608E+02 3.23500E+01 0.00000E+00
 -1       716 1.39608E+02 3.53000E+01 0.00000E+00
 -1       717 1.75350E+01 9.20225E+00 0.00000E+00
 -1       718 7.05038E+01 1.50841E+01 0.00000E+00
 -1       719 9.78035E+00 3.93914E+01 0.00000E+00
 -1       720 5.13590E+01 1.31471E+01 0.00000E+00
 -1       721 5.59242E+01 1.04569E+01 0.00000E+00
 -1       722 4.75212E+01 2.57717E+01 0.00000E+00
 -1       723 6.18872E+01 3.52854E+01 0.00000E+00
 -1       724 7.23962E+01 2.56411E+01 0.00000E+00
 -1       725 2.65350E+01 9.20225E+00 0.00000E+00
 -1       726 6.64221E+01 3.38045E+01 0.00000E+00
 -1       727 7.31738E+01 2.28452E+01 0.00000E+00
 -1       728 1.24652E+01 3.94997E+01 0.00000E+00
 -1       729 1.03920E+01 1.76125E+01 0.00000E+00
 -1       730 6.63082E+01 1.14163E+01 0.00000E+00
 -1       731 1.03920E+01 3.23250E+01 0.00000E+00
 -1       732 6.41433E+01 1.05388E+01 0.00000E+00
 -1       733 4.71230E+01 2.32410E+01 0.00000E+00
 -1       734 4.80117E+01 1.78728E+01 0.00000E+00
 -1       735 6.38629E+01 3.46283E+01 0.00000E+00
 -1       736 4.70674E+01 2.02058E+01 0.00000E+00
 -1       737 4.82690E+01 2.80946E+01 0.00000E+00
 -1       738 5.90481E+01 3.54749E+01 0.00000E+00
 -1       739 5.64621E+01 3.50570E+01 0.00000E+00
 -1       740 5.40690E+01 3.44624E+01 0.00000E+00
 -1       741 5.84936E+01 9.80267E+00 0.00000E+00
 -1       742 7.28558E+01 1.95252E+01 0.00000E+00
 -1       743 6.84822E+01 3.21937E+01 0.00000E+00
 -1       744 7.16658E+01 1.71871E+01 0.00000E+00
 -1       745 7.16902E+01 2.79164E+01 0.00000E+00
 -1       746 1.03920E+01 3.52625E+01 0.00000E+00
 -1       747 1.03920E+01 2.64500E+01 0.00000E+00
 -1       748 4.84634E+01 2.98409E+01 0.00000E+00
 -1       749 1.39608E+02 1.47250E+01 0.00000E+00
 -1       750 7.46241E+01 2.09634E+01 0.00000E+00
 -1       751 5.65350E+01 9.15721E+00 0.00000E+00
 -1       752 1.39739E+02 1.21912E+01 0.00000E+00
 -1       753 4.94716E+01 1.34747E+01 0.00000E+00
 -1       754 5.03655E+01 3.18997E+01 0.00000E+00
 -1       755 5.24047E+01 3.42043E+01 0.00000E+00
 -1       756 1.03920E+01 2.93875E+01 0.00000E+00
 -1       757 4.77725E+01 1.59310E+01 0.00000E+00
 -1       758 4.55953E+01 2.15274E+01 0.00000E+00
 -1       759 1.29900E+01 1.32000E+01 0.00000E+00
 -1       760 7.31727E+01 1.49820E+01 0.00000E+00
 -1       761 1.96500E+01 3.70100E+01 0.00000E+00
 -1       762 2.26500E+01 3.70100E+01 0.00000E+00
 -1       763 2.56500E+01 3.70100E+01 0.00000E+00
 -1       764 2.86500E+01 3.70100E+01 0.00000E+00
 -1       765 3.16500E+01 3.70100E+01 0.00000E+00
 -1       766 3.46500E+01 3.70100E+01 0.00000E+00
 -1       767 3.76500E+01 3.70100E+01 0.00000E+00
 -1       768 4.06500E+01 3.70100E+01 0.00000E+00
 -1       769 4.36500E+01 3.70100E+01 0.00000E+00
 -1       770 4.66500E+01 3.70100E+01 0.00000E+00
 -1       771 4.96500E+01 3.70100E+01 0.00000E+00
 -1       772 5.56500E+01 3.70550E+01 0.00000E+00
 -1       773 6.76500E+01 3.70550E+01 0.00000E+00
 -1       774 7.06500E+01 3.70550E+01 0.00000E+00
 -1       775 7.36500E+01 3.70550E+01 0.00000E+00
 -1       776 7.66500E+01 3.70550E+01 0.00000E+00
 -1       777 7.96500E+01 3.70550E+01 0.00000E+00
 -1       778 8.26500E+01 3.70550E+01 0.00000E+00
 -1       779 8.56500E+01 3.70550E+01 0.00000E+00
 -1       780 8.86500E+01 3.70550E+01 0.00000E+00
 -1       781 9.16500E+01 3.70550E+01 0.00000E+00
 -1       782 9.46500E+01 3.70550E+01 0.00000E+00
 -1       783 9.76500E+01 3.70550E+01 0.00000E+00
 -1       784 1.00650E+02 3.70550E+01 0.00000E+00
 -1       785 1.03650E+02 3.70550E+01 0.00000E+00
 -1       786 1.06650E+02 3.70550E+01 0.00000E+00
 -1       787 1.09650E+02 3.70550E+01 0.00000E+00
 -1       788 1.12650E+02 3.70550E+01 0.00000E+00
 -1       789 1.15650E+02 3.70550E+01 0.00000E+00
 -1       790 1.18650E+02 3.70550E+01 0.00000E+00
 -1       791 1.21650E+02 3.70550E+01 0.00000E+00
 -1       792 1.24650E+02 3.70550E+01 0.00000E+00
 -1       793 1.27650E+02 3.70550E+01 0.00000E+00
 -1       794 1.30650E+02 3.70550E+01 0.00000E+00
 -1       795 1.33650E+02 3.70550E+01 0.00000E+00
 -1       796 1.36650E+02 3.70550E+01 0.00000E+00
 -1       797 3.40350E+01 1.18003E+01 0.00000E+00
 -1       798 3.10350E+01 1.18003E+01 0.00000E+00
 -1       799 4.00350E+01 1.18003E+01 0.00000E+00
 -1       800 4.30350E+01 1.18003E+01 0.00000E+00
 -1       801 4.60350E+01 1.18003E+01 0.00000E+00
 -1       802 7.40014E+01 2.73864E+01 0.00000E+00
 -1       803 4.54623E+01 2.47990E+01 0.00000E+00
 -1       804 7.60350E+01 1.15876E+01 0.00000E+00
 -1       805 7.90350E+01 1.15876E+01 0.00000E+00
 -1       806 8.20350E+01 1.15876E+01 0.00000E+00
 -1       807 8.50350E+01 1.15876E+01 0.00000E+00
 -1       808 8.80350E+01 1.15876E+01 0.00000E+00
 -1       809 9.10350E+01 1.15876E+01 0.00000E+00
 -1       810 9.40350E+01 1.15876E+01 0.00000E+00
 -1       811 9.70350E+01 1.15876E+01 0.00000E+00
 -1       812 1.00035E+02 1.15876E+01 0.00000E+00
 -1       813 1.03035E+02 1.15876E+01 0.00000E+00
 -1       814 1.06035E+02 1.15876E+01 0.00000E+00
 -1       815 1.09035E+02 1.15876E+01 0.00000E+00
 -1       816 1.12035E+02 1.15876E+01 0.00000E+00
 -1       817 1.15035E+02 1.15876E+01 0.00000E+00
 -1       818 1.18035E+02 1.15876E+01 0.00000E+00
 -1       819 1.21035E+02 1.15876E+01 0.00000E+00
 -1       820 1.24035E+02 1.15876E+01 0.00000E+00
 -1       821 1.27035E+02 1.15876E+01 0.00000E+00
 -1       822 1.30035E+02 1.15876E+01 0.00000E+00
 -1       823 1.33035E+02 1.15876E+01 0.00000E+00
 -1       824 1.36035E+02 1.15876E+01 0.00000E+00
 -1       825 1.37887E+02 1.18894E+01 0.00000E+00
 -1       826 7.10770E+01 3.23456E+01 0.00000E+00
 -1       827 1.29900E+01 2.20250E+01 0.00000E+00
 -1       828 1.37010E+02 3.38250E+01 0.00000E+00
 -1       829 7.43628E+01 1.73200E+01 0.00000E+00
 -1       830 1.37010E+02 2.50250E+01 0.00000E+00
 -1       831 6.58733E+01 3.64871E+01 0.00000E+00
 -1       832 1.37010E+02 3.08750E+01 0.00000E+00
 -1       833 7.30350E+01 1.15876E+01 0.00000E+00
 -1       834 3.70350E+01 1.18003E+01 0.00000E+00
 -1       835 2.20350E+01 1.18003E+01 0.00000E+00
 -1       836 5.17852E+01 1.07903E+01 0.00000E+00
 -1       837 1.66500E+01 3.70100E+01 0.00000E+00
 -1       838 4.57944E+01 1.83330E+01 0.00000E+00
 -1       839 7.27385E+01 3.02948E+01 0.00000E+00
 -1       840 4.61030E+01 2.75101E+01 0.00000E+00
 -1       841 7.47789E+01 2.45904E+01 0.00000E+00
 -1       842 1.37010E+02 2.79500E+01 0.00000E+00
 -1       843 7.14949E+01 1.26744E+01 0.00000E+00
 -1       844 6.87151E+01 3.46142E+01 0.00000E+00
 -1       845 1.37625E+01 1.12011E+01 0.00000E+00
 -1       846 1.29900E+01 2.49750E+01 0.00000E+00
 -1       847 4.75994E+01 1.38430E+01 0.00000E+00
 -1       848 1.37010E+02 2.20750E+01 0.00000E+00
 -1       849 4.84323E+01 3.17449E+01 0.00000E+00
 -1       850 1.29900E+01 3.37938E+01 0.00000E+00
 -1       851 1.29900E+01 1.61375E+01 0.00000E+00
 -1       852 1.37010E+02 1.61875E+01 0.00000E+00
 -1       853 7.61310E+01 1.87583E+01 0.00000E+00
 -1       854 5.26095E+01 3.70352E+01 0.00000E+00
 -1       855 6.44866E+01 3.68718E+01 0.00000E+00
 -1       856 2.50350E+01 1.18003E+01 0.00000E+00
 -1       857 2.80350E+01 1.18003E+01 0.00000E+00
 -1       858 1.90350E+01 1.18003E+01 0.00000E+00
 -1       859 4.39346E+01 2.30854E+01 0.00000E+00
 -1       860 1.29900E+01 1.90875E+01 0.00000E+00
 -1       861 1.37010E+02 1.91313E+01 0.00000E+00
 -1       862 1.63988E+01 1.15007E+01 0.00000E+00
 -1       863 1.29900E+01 3.08563E+01 0.00000E+00
 -1       864 5.05791E+01 3.40320E+01 0.00000E+00
 -1       865 7.62292E+01 2.27086E+01 0.00000E+00
 -1       866 1.27276E+01 3.66467E+01 0.00000E+00
 -1       867 4.62974E+01 2.92564E+01 0.00000E+00
 -1       868 4.55552E+01 1.63911E+01 0.00000E+00
 -1       869 4.43223E+01 1.96546E+01 0.00000E+00
 -1       870 2.41500E+01 3.44120E+01 0.00000E+00
 -1       871 2.71500E+01 3.44120E+01 0.00000E+00
 -1       872 3.01500E+01 3.44120E+01 0.00000E+00
 -1       873 3.31500E+01 3.44120E+01 0.00000E+00
 -1       874 3.61500E+01 3.44120E+01 0.00000E+00
 -1       875 3.91500E+01 3.44120E+01 0.00000E+00
 -1       876 4.21500E+01 3.44120E+01 0.00000E+00
 -1       877 4.51500E+01 3.44120E+01 0.00000E+00
 -1       878 7.21500E+01 3.44570E+01 0.00000E+00
 -1       879 7.51500E+01 3.44570E+01 0.00000E+00
 -1       880 7.81500E+01 3.44570E+01 0.00000E+00
 -1       881 8.11500E+01 3.44570E+01 0.00000E+00
 -1       882 8.41500E+01 3.44570E+01 0.00000E+00
 -1       883 8.71500E+01 3.44570E+01 0.00000E+00
 -1       884 9.01500E+01 3.44570E+01 0.00000E+00
 -1       885 9.31500E+01 3.44570E+01 0.00000E+00
 -1       886 9.61500E+01 3.44570E+01 0.00000E+00
 -1       887 9.91500E+01 3.44570E+01 0.00000E+00
 -1       888 1.02150E+02 3.44570E+01 0.00000E+00
 -1       889 1.05150E+02 3.44570E+01 0.00000E+00
 -1       890 1.08150E+02 3.44570E+01 0.00000E+00
 -1       891 1.11150E+02 3.44570E+01 0.00000E+00
 -1       892 1.14150E+02 3.44570E+01 0.00000E+00
 -1       893 1.17150E+02 3.44570E+01 0.00000E+00
 -1       894 1.20150E+02 3.44570E+01 0.00000E+00
 -1       895 1.23150E+02 3.44570E+01 0.00000E+00
 -1       896 1.26150E+02 3.44570E+01 0.00000E+00
 -1       897 1.29150E+02 3.44570E+01 0.00000E+00
 -1       898 1.32150E+02 3.44570E+01 0.00000E+00
 -1       899 1.34580E+02 3.41410E+01 0.00000E+00
 -1       900 3.25350E+01 1.43982E+01 0.00000E+00
 -1       901 4.45350E+01 1.43982E+01 0.00000E+00
 -1       902 4.15350E+01 1.43982E+01 0.00000E+00
 -1       903 8.05350E+01 1.41856E+01 0.00000E+00
 -1       904 4.37873E+01 2.66261E+01 0.00000E+00
 -1       905 7.75350E+01 1.41856E+01 0.00000E+00
 -1       906 8.65350E+01 1.41856E+01 0.00000E+00
 -1       907 8.95350E+01 1.41856E+01 0.00000E+00
 -1       908 9.25350E+01 1.41856E+01 0.00000E+00
 -1       909 9.55350E+01 1.41856E+01 0.00000E+00
 -1       910 9.85350E+01 1.41856E+01 0.00000E+00
 -1       911 1.01535E+02 1.41856E+01 0.00000E+00
 -1       912 1.04535E+02 1.41856E+01 0.00000E+00
 -1       913 1.07535E+02 1.41856E+01 0.00000E+00
 -1       914 1.10535E+02 1.41856E+01 0.00000E+00
 -1       915 1.13535E+02 1.41856E+01 0.00000E+00
 -1       916 1.16535E+02 1.41856E+01 0.00000E+00
 -1       917 1.19535E+02 1.41856E+01 0.00000E+00
 -1       918 1.22535E+02 1.41856E+01 0.00000E+00
 -1       919 1.25535E+02 1.41856E+01 0.00000E+00
 -1       920 1.28535E+02 1.41856E+01 0.00000E+00
 -1       921 1.31535E+02 1.41856E+01 0.00000E+00
 -1       922 1.34535E+02 1.41856E+01 0.00000E+00
 -1       923 1.34580E+02 3.11910E+01 0.00000E+00
 -1       924 1.37449E+02 1.40385E+01 0.00000E+00
 -1       925 8.35350E+01 1.41856E+01 0.00000E+00
 -1       926 7.52506E+01 2.96572E+01 0.00000E+00
 -1       927 1.29900E+01 2.79188E+01 0.00000E+00
 -1       928 2.11500E+01 3.44120E+01 0.00000E+00
 -1       929 1.81500E+01 3.44120E+01 0.00000E+00
 -1       930 7.37003E+01 3.20571E+01 0.00000E+00
 -1       931 1.55700E+01 3.26341E+01 0.00000E+00
 -1       932 7.62040E+01 2.64928E+01 0.00000E+00
 -1       933 1.56263E+01 1.34996E+01 0.00000E+00
 -1       934 1.34412E+02 2.35500E+01 0.00000E+00
 -1       935 4.86459E+01 3.38772E+01 0.00000E+00
 -1       936 7.77362E+01 2.05035E+01 0.00000E+00
 -1       937 4.40831E+01 1.77127E+01 0.00000E+00
 -1       938 2.35350E+01 1.43982E+01 0.00000E+00
 -1       939 2.95350E+01 1.43982E+01 0.00000E+00
 -1       940 2.05350E+01 1.43982E+01 0.00000E+00
 -1       941 3.85350E+01 1.43982E+01 0.00000E+00
 -1       942 4.39817E+01 2.83723E+01 0.00000E+00
 -1       943 4.22597E+01 2.49125E+01 0.00000E+00
 -1       944 1.34580E+02 2.82660E+01 0.00000E+00
 -1       945 1.34139E+02 1.72065E+01 0.00000E+00
 -1       946 4.62663E+01 3.11604E+01 0.00000E+00
 -1       947 3.55350E+01 1.43982E+01 0.00000E+00
 -1       948 4.26616E+01 2.12126E+01 0.00000E+00
 -1       949 1.55880E+01 2.05562E+01 0.00000E+00
 -1       950 1.34496E+02 2.59080E+01 0.00000E+00
 -1       951 7.76543E+01 2.46110E+01 0.00000E+00
 -1       952 7.83330E+01 1.64720E+01 0.00000E+00
 -1       953 1.55880E+01 2.35063E+01 0.00000E+00
 -1       954 1.55880E+01 2.64500E+01 0.00000E+00
 -1       955 2.86500E+01 3.18140E+01 0.00000E+00
 -1       956 3.16500E+01 3.18140E+01 0.00000E+00
 -1       957 3.46500E+01 3.18140E+01 0.00000E+00
 -1       958 3.76500E+01 3.18140E+01 0.00000E+00
 -1       959 4.06500E+01 3.18140E+01 0.00000E+00
 -1       960 2.65350E+01 1.43982E+01 0.00000E+00
 -1       961 7.66500E+01 3.18590E+01 0.00000E+00
 -1       962 7.96500E+01 3.18590E+01 0.00000E+00
 -1       963 8.26500E+01 3.18590E+01 0.00000E+00
 -1       964 8.56500E+01 3.18590E+01 0.00000E+00
 -1       965 8.86500E+01 3.18590E+01 0.00000E+00
 -1       966 9.16500E+01 3.18590E+01 0.00000E+00
 -1       967 9.46500E+01 3.18590E+01 0.00000E+00
 -1       968 9.76500E+01 3.18590E+01 0.00000E+00
 -1       969 1.00650E+02 3.18590E+01 0.00000E+00
 -1       970 1.03650E+02 3.18590E+01 0.00000E+00
 -1       971 1.06650E+02 3.18590E+01 0.00000E+00
 -1       972 1.09650E+02 3.18590E+01 0.00000E+00
 -1       973 1.12650E+02 3.18590E+01 0.00000E+00
 -1       974 1.15650E+02 3.18590E+01 0.00000E+00
 -1       975 1.18650E+02 3.18590E+01 0.00000E+00
 -1       976 1.21650E+02 3.18590E+01 0.00000E+00
 -1       977 1.24650E+02 3.18590E+01 0.00000E+00
 -1       978 1.27650E+02 3.18590E+01 0.00000E+00
 -1       979 1.30650E+02 3.18590E+01 0.00000E+00
 -1       980 1.32615E+02 3.15250E+01 0.00000E+00
 -1       981 1.61458E+01 1.66550E+01 0.00000E+00
 -1       982 8.20350E+01 1.67836E+01 0.00000E+00
 -1       983 9.10350E+01 1.67836E+01 0.00000E+00
 -1       984 8.80350E+01 1.67836E+01 0.00000E+00
 -1       985 9.70350E+01 1.67836E+01 0.00000E+00
 -1       986 1.00035E+02 1.67836E+01 0.00000E+00
 -1       987 1.03035E+02 1.67836E+01 0.00000E+00
 -1       988 1.06035E+02 1.67836E+01 0.00000E+00
 -1       989 1.09035E+02 1.67836E+01 0.00000E+00
 -1       990 1.12035E+02 1.67836E+01 0.00000E+00
 -1       991 1.15035E+02 1.67836E+01 0.00000E+00
 -1       992 1.18035E+02 1.67836E+01 0.00000E+00
 -1       993 1.21035E+02 1.67836E+01 0.00000E+00
 -1       994 1.24035E+02 1.67836E+01 0.00000E+00
 -1       995 1.27035E+02 1.67836E+01 0.00000E+00
 -1       996 1.30035E+02 1.67836E+01 0.00000E+00
 -1       997 1.34412E+02 2.06063E+01 0.00000E+00
 -1       998 1.80806E+01 1.39489E+01 0.00000E+00
 -1       999 8.50350E+01 1.67836E+01 0.00000E+00
 -1      1000 4.28091E+01 1.60555E+01 0.00000E+00
 -1      1001 2.26500E+01 3.18140E+01 0.00000E+00
 -1      1002 1.55880E+01 2.93875E+01 0.00000E+00
 -1      1003 7.78508E+01 2.87148E+01 0.00000E+00
 -1      1004 2.56500E+01 3.18140E+01 0.00000E+00
 -1      1005 9.40350E+01 1.67836E+01 0.00000E+00
 -1      1006 1.96500E+01 3.18140E+01 0.00000E+00
 -1      1007 3.10350E+01 1.69963E+01 0.00000E+00
 -1      1008 4.24224E+01 1.92707E+01 0.00000E+00
 -1      1009 7.93011E+01 2.68330E+01 0.00000E+00
 -1      1010 4.36500E+01 3.18140E+01 0.00000E+00
 -1      1011 2.50350E+01 1.69963E+01 0.00000E+00
 -1      1012 2.20350E+01 1.69963E+01 0.00000E+00
 -1      1013 1.32615E+02 2.86000E+01 0.00000E+00
 -1      1014 3.98091E+01 1.60555E+01 0.00000E+00
 -1      1015 4.13680E+01 2.72451E+01 0.00000E+00
 -1      1016 1.84387E+01 1.89733E+01 0.00000E+00
 -1      1017 1.31814E+02 2.20781E+01 0.00000E+00
 -1      1018 7.91612E+01 2.24059E+01 0.00000E+00
 -1      1019 1.30924E+02 1.94309E+01 0.00000E+00
 -1      1020 4.09867E+01 2.30397E+01 0.00000E+00
 -1      1021 1.31898E+02 2.44361E+01 0.00000E+00
 -1      1022 1.84387E+01 2.19233E+01 0.00000E+00
 -1      1023 3.40350E+01 1.69963E+01 0.00000E+00
 -1      1024 8.05981E+01 1.95948E+01 0.00000E+00
 -1      1025 8.35981E+01 1.95948E+01 0.00000E+00
 -1      1026 4.11157E+01 1.76631E+01 0.00000E+00
 -1      1027 3.31500E+01 2.92160E+01 0.00000E+00
 -1      1028 3.61500E+01 2.92160E+01 0.00000E+00
 -1      1029 3.91500E+01 2.92160E+01 0.00000E+00
 -1      1030 2.80350E+01 1.69963E+01 0.00000E+00
 -1      1031 1.04535E+02 1.93816E+01 0.00000E+00
 -1      1032 8.41500E+01 2.92610E+01 0.00000E+00
 -1      1033 8.71500E+01 2.92610E+01 0.00000E+00
 -1      1034 9.01500E+01 2.92610E+01 0.00000E+00
 -1      1035 9.31500E+01 2.92610E+01 0.00000E+00
 -1      1036 9.61500E+01 2.92610E+01 0.00000E+00
 -1      1037 9.91500E+01 2.92610E+01 0.00000E+00
 -1      1038 1.02150E+02 2.92610E+01 0.00000E+00
 -1      1039 1.05150E+02 2.92610E+01 0.00000E+00
 -1      1040 1.08150E+02 2.92610E+01 0.00000E+00
 -1      1041 1.11150E+02 2.92610E+01 0.00000E+00
 -1      1042 1.14150E+02 2.92610E+01 0.00000E+00
 -1      1043 1.17150E+02 2.92610E+01 0.00000E+00
 -1      1044 1.20150E+02 2.92610E+01 0.00000E+00
 -1      1045 1.23150E+02 2.92610E+01 0.00000E+00
 -1      1046 1.26150E+02 2.92610E+01 0.00000E+00
 -1      1047 1.29150E+02 2.92610E+01 0.00000E+00
 -1      1048 1.30883E+02 2.89305E+01 0.00000E+00
 -1      1049 8.95350E+01 1.93816E+01 0.00000E+00
 -1      1050 1.94869E+01 1.66858E+01 0.00000E+00
 -1      1051 4.00950E+01 2.53723E+01 0.00000E+00
 -1      1052 2.71500E+01 2.92160E+01 0.00000E+00
 -1      1053 1.01535E+02 1.93816E+01 0.00000E+00
 -1      1054 9.85350E+01 1.93816E+01 0.00000E+00
 -1      1055 1.07535E+02 1.93816E+01 0.00000E+00
 -1      1056 1.10535E+02 1.93816E+01 0.00000E+00
 -1      1057 1.13535E+02 1.93816E+01 0.00000E+00
 -1      1058 1.16535E+02 1.93816E+01 0.00000E+00
 -1      1059 1.19535E+02 1.93816E+01 0.00000E+00
 -1      1060 1.22535E+02 1.93816E+01 0.00000E+00
 -1      1061 1.25535E+02 1.93816E+01 0.00000E+00
 -1      1062 1.28230E+02 1.94063E+01 0.00000E+00
 -1      1063 1.96500E+01 2.88765E+01 0.00000E+00
 -1      1064 3.70350E+01 1.69963E+01 0.00000E+00
 -1      1065 1.32257E+02 2.65181E+01 0.00000E+00
 -1      1066 8.65666E+01 1.94882E+01 0.00000E+00
 -1      1067 2.41500E+01 2.92160E+01 0.00000E+00
 -1      1068 3.01500E+01 2.92160E+01 0.00000E+00
 -1      1069 1.84387E+01 2.48671E+01 0.00000E+00
 -1      1070 2.19000E+01 2.90462E+01 0.00000E+00
 -1      1071 8.09756E+01 2.93460E+01 0.00000E+00
 -1      1072 2.35350E+01 1.95942E+01 0.00000E+00
 -1      1073 4.07475E+01 2.10978E+01 0.00000E+00
 -1      1074 8.08080E+01 2.46279E+01 0.00000E+00
 -1      1075 9.55350E+01 1.93816E+01 0.00000E+00
 -1      1076 2.95350E+01 1.95942E+01 0.00000E+00
 -1      1077 2.65350E+01 1.95942E+01 0.00000E+00
 -1      1078 2.09869E+01 1.92838E+01 0.00000E+00
 -1      1079 9.25350E+01 1.93816E+01 0.00000E+00
 -1      1080 1.29119E+02 2.20535E+01 0.00000E+00
 -1      1081 3.25350E+01 1.95942E+01 0.00000E+00
 -1      1082 1.29203E+02 2.44115E+01 0.00000E+00
 -1      1083 8.56500E+01 2.66630E+01 0.00000E+00
 -1      1084 3.46500E+01 2.66180E+01 0.00000E+00
 -1      1085 3.83417E+01 1.86038E+01 0.00000E+00
 -1      1086 3.73725E+01 2.59952E+01 0.00000E+00
 -1      1087 8.24756E+01 2.67480E+01 0.00000E+00
 -1      1088 1.09035E+02 2.19796E+01 0.00000E+00
 -1      1089 2.56500E+01 2.66180E+01 0.00000E+00
 -1      1090 8.86500E+01 2.66630E+01 0.00000E+00
 -1      1091 9.16500E+01 2.66630E+01 0.00000E+00
 -1      1092 9.46500E+01 2.66630E+01 0.00000E+00
 -1      1093 9.76500E+01 2.66630E+01 0.00000E+00
 -1      1094 1.00650E+02 2.66630E+01 0.00000E+00
 -1      1095 1.03650E+02 2.66630E+01 0.00000E+00
 -1      1096 1.06650E+02 2.66630E+01 0.00000E+00
 -1      1097 1.09650E+02 2.66630E+01 0.00000E+00
 -1      1098 1.12650E+02 2.66630E+01 0.00000E+00
 -1      1099 1.15650E+02 2.66630E+01 0.00000E+00
 -1      1100 1.18650E+02 2.66630E+01 0.00000E+00
 -1      1101 1.21650E+02 2.66630E+01 0.00000E+00
 -1      1102 1.24650E+02 2.66630E+01 0.00000E+00
 -1      1103 2.06887E+01 2.50368E+01 0.00000E+00
 -1      1104 1.03035E+02 2.19796E+01 0.00000E+00
 -1      1105 3.16500E+01 2.66180E+01 0.00000E+00
 -1      1106 8.22031E+01 2.21114E+01 0.00000E+00
 -1      1107 1.06035E+02 2.19796E+01 0.00000E+00
 -1      1108 1.00035E+02 2.19796E+01 0.00000E+00
 -1      1109 1.12035E+02 2.19796E+01 0.00000E+00
 -1      1110 1.15035E+02 2.19796E+01 0.00000E+00
 -1      1111 1.18035E+02 2.19796E+01 0.00000E+00
 -1      1112 1.21035E+02 2.19796E+01 0.00000E+00
 -1      1113 1.24035E+02 2.19796E+01 0.00000E+00
 -1      1114 2.86500E+01 2.66180E+01 0.00000E+00
 -1      1115 3.82642E+01 2.36625E+01 0.00000E+00
 -1      1116 2.15819E+01 2.24080E+01 0.00000E+00
 -1      1117 3.55350E+01 1.95942E+01 0.00000E+00
 -1      1118 9.70350E+01 2.19796E+01 0.00000E+00
 -1      1119 1.26565E+02 2.33250E+01 0.00000E+00
 -1      1120 8.51715E+01 2.20048E+01 0.00000E+00
 -1      1121 3.80250E+01 2.17206E+01 0.00000E+00
 -1      1122 1.30524E+02 2.68486E+01 0.00000E+00
 -1      1123 2.34000E+01 2.64482E+01 0.00000E+00
 -1      1124 1.27650E+02 2.66630E+01 0.00000E+00
 -1      1125 2.80350E+01 2.21922E+01 0.00000E+00
 -1      1126 9.10350E+01 2.19796E+01 0.00000E+00
 -1      1127 2.50350E+01 2.21922E+01 0.00000E+00
 -1      1128 8.81033E+01 2.19922E+01 0.00000E+00
 -1      1129 3.10350E+01 2.21922E+01 0.00000E+00
 -1      1130 8.39932E+01 2.41085E+01 0.00000E+00
 -1      1131 1.07535E+02 2.45776E+01 0.00000E+00
 -1      1132 3.55417E+01 2.42854E+01 0.00000E+00
 -1      1133 9.40350E+01 2.19796E+01 0.00000E+00
 -1      1134 3.45300E+01 2.19564E+01 0.00000E+00
 -1      1135 1.11150E+02 2.40650E+01 0.00000E+00
 -1      1136 1.24080E+02 2.49461E+01 0.00000E+00
 -1      1137 0.00000E+00 4.85250E+01 0.00000E+00
 -1      1138 0.00000E+00 4.55750E+01 0.00000E+00
 -1      1139 0.00000E+00 4.26250E+01 0.00000E+00
 -1      1140 0.00000E+00 3.96750E+01 0.00000E+00
 -1      1141 0.00000E+00 3.67250E+01 0.00000E+00
 -1      1142 0.00000E+00 3.38000E+01 0.00000E+00
 -1      1143 0.00000E+00 3.08750E+01 0.00000E+00
 -1      1144 0.00000E+00 2.79250E+01 0.00000E+00
 -1      1145 0.00000E+00 2.49750E+01 0.00000E+00
 -1      1146 0.00000E+00 2.20250E+01 0.00000E+00
 -1      1147 0.00000E+00 1.90750E+01 0.00000E+00
 -1      1148 0.00000E+00 1.61500E+01 0.00000E+00
 -1      1149 0.00000E+00 1.32250E+01 0.00000E+00
 -1      1150 0.00000E+00 1.02750E+01 0.00000E+00
 -1      1151 0.00000E+00 7.32500E+00 0.00000E+00
 -1      1152 0.00000E+00 4.37500E+00 0.00000E+00
 -1      1153 0.00000E+00 1.45000E+00 0.00000E+00
 -1      1154 1.57500E+00 5.00000E+01 0.00000E+00
 -1      1155 4.65000E+00 5.00000E+01 0.00000E+00
 -1      1156 7.65000E+00 5.00000E+01 0.00000E+00
 -1      1157 1.06500E+01 5.00000E+01 0.00000E+00
 -1      1158 1.36500E+01 5.00000E+01 0.00000E+00
 -1      1159 1.66500E+01 5.00000E+01 0.00000E+00
 -1      1160 1.96500E+01 5.00000E+01 0.00000E+00
 -1      1161 2.26500E+01 5.00000E+01 0.00000E+00
 -1      1162 2.56500E+01 5.00000E+01 0.00000E+00
 -1      1163 2.86500E+01 5.00000E+01 0.00000E+00
 -1      1164 3.16500E+01 5.00000E+01 0.00000E+00
 -1      1165 3.46500E+01 5.00000E+01 0.00000E+00
 -1      1166 3.76500E+01 5.00000E+01 0.00000E+00
 -1      1167 4.06500E+01 5.00000E+01 0.00000E+00
 -1      1168 4.36500E+01 5.00000E+01 0.00000E+00
 -1      1169 4.66500E+01 5.00000E+01 0.00000E+00
 -1      1170 4.96500E+01 5.00000E+01 0.00000E+00
 -1      1171 5.26500E+01 5.00000E+01 0.00000E+00
 -1      1172 5.56500E+01 5.00000E+01 0.00000E+00
 -1      1173 5.86500E+01 5.00000E+01 0.00000E+00
 -1      1174 6.16500E+01 5.00000E+01 0.00000E+00
 -1      1175 6.46500E+01 5.00000E+01 0.00000E+00
 -1      1176 6.76500E+01 5.00000E+01 0.00000E+00
 -1      1177 7.06500E+01 5.00000E+01 0.00000E+00
 -1      1178 7.36500E+01 5.00000E+01 0.00000E+00
 -1      1179 7.66500E+01 5.00000E+01 0.00000E+00
 -1      1180 7.96500E+01 5.00000E+01 0.00000E+00
 -1      1181 8.26500E+01 5.00000E+01 0.00000E+00
 -1      1182 8.56500E+01 5.00000E+01 0.00000E+00
 -1      1183 8.86500E+01 5.00000E+01 0.00000E+00
 -1      1184 9.16500E+01 5.00000E+01 0.00000E+00
 -1      1185 9.46500E+01 5.00000E+01 0.00000E+00
 -1      1186 9.76500E+01 5.00000E+01 0.00000E+00
 -1      1187 1.00650E+02 5.00000E+01 0.00000E+00
 -1      1188 1.03650E+02 5.00000E+01 0.00000E+00
 -1      1189 1.06650E+02 5.00000E+01 0.00000E+00
 -1      1190 1.09650E+02 5.00000E+01 0.00000E+00
 -1      1191 1.12650E+02 5.00000E+01 0.00000E+00
 -1      1192 1.15650E+02 5.00000E+01 0.00000E+00
 -1      1193 1.18650E+02 5.00000E+01 0.00000E+00
 -1      1194 1.21650E+02 5.00000E+01 0.00000E+00
 -1      1195 1.24650E+02 5.00000E+01 0.00000E+00
 -1      1196 1.27650E+02 5.00000E+01 0.00000E+00
 -1      1197 1.30650E+02 5.00000E+01 0.00000E+00
 -1      1198 1.33650E+02 5.00000E+01 0.00000E+00
 -1      1199 1.36650E+02 5.00000E+01 0.00000E+00
 -1      1200 1.39650E+02 5.00000E+01 0.00000E+00
 -1      1201 1.42650E+02 5.00000E+01 0.00000E+00
 -1      1202 1.45650E+02 5.00000E+01 0.00000E+00
 -1      1203 1.48575E+02 5.00000E+01 0.00000E+00
 -1      1204 1.57500E+00 0.00000E+00 0.00000E+00
 -1      1205 4.65000E+00 0.00000E+00 0.00000E+00
 -1      1206 7.65000E+00 0.00000E+00 0.00000E+00
 -1      1207 1.06500E+01 0.00000E+00 0.00000E+00
 -1      1208 1.36500E+01 0.00000E+00 0.00000E+00
 -1      1209 1.66500E+01 0.00000E+00 0.00000E+00
 -1      1210 1.96500E+01 0.00000E+00 0.00000E+00
 -1      1211 2.26500E+01 0.00000E+00 0.00000E+00
 -1      1212 2.56500E+01 0.00000E+00 0.00000E+00
 -1      1213 2.86500E+01 0.00000E+00 0.00000E+00
 -1      1214 3.16500E+01 0.00000E+00 0.00000E+00
 -1      1215 3.46500E+01 0.00000E+00 0.00000E+00
 -1      1216 3.76500E+01 0.00000E+00 0.00000E+00
 -1      1217 4.06500E+01 0.00000E+00 0.00000E+00
 -1      1218 4.36500E+01 0.00000E+00 0.00000E+00
 -1      1219 4.66500E+01 0.00000E+00 0.00000E+00
 -1      1220 4.96500E+01 0.00000E+00 0.00000E+00
 -1      1221 5.26500E+01 0.00000E+00 0.00000E+00
 -1      1222 5.56500E+01 0.00000E+00 0.00000E+00
 -1      1223 5.86500E+01 0.00000E+00 0.00000E+00
 -1      1224 6.16500E+01 0.00000E+00 0.00000E+00
 -1      1225 6.46500E+01 0.00000E+00 0.00000E+00
 -1      1226 6.76500E+01 0.00000E+00 0.00000E+00
 -1      1227 7.06500E+01 0.00000E+00 0.00000E+00
 -1      1228 7.36500E+01 0.00000E+00 0.00000E+00
 -1      1229 7.66500E+01 0.00000E+00 0.00000E+00
 -1      1230 7.96500E+01 0.00000E+00 0.00000E+00
 -1      1231 8.26500E+01 0.00000E+00 0.00000E+00
 -1      1232 8.56500E+01 0.00000E+00 0.00000E+00
 -1      1233 8.86500E+01 0.00000E+00 0.00000E+00
 -1      1234 9.16500E+01 0.00000E+00 0.00000E+00
 -1      1235 9.46500E+01 0.00000E+00 0.00000E+00
 -1      1236 9.76500E+01 0.00000E+00 0.00000E+00
 -1      1237 1.00650E+02 0.00000E+00 0.00000E+00
 -1      1238 1.03650E+02 0.00000E+00 0.00000E+00
 -1      1239 1.06650E+02 0.00000E+00 0.00000E+00
 -1      1240 1.09650E+02 0.00000E+00 0.00000E+00
 -1      1241 1.12650E+02 0.00000E+00 0.00000E+00
 -1      1242 1.15650E+02 0.00000E+00 0.00000E+00
 -1      1243 1.18650E+02 0.00000E+00 0.00000E+00
 -1      1244 1.21650E+02 0.00000E+00 0.00000E+00
 -1      1245 1.24650E+02 0.00000E+00 0.00000E+00
 -1      1246 1.27650E+02 0.00000E+00 0.00000E+00
 -1      1247 1.30650E+02 0.00000E+00 0.00000E+00
 -1      1248 1.33650E+02 0.00000E+00 0.00000E+00
 -1      1249 1.36650E+02 0.00000E+00 0.00000E+00
 -1      1250 1.39650E+02 0.00000E+00 0.00000E+00
 -1      1251 1.42650E+02 0.00000E+00 0.00000E+00
 -1      1252 1.45650E+02 0.00000E+00 0.00000E+00
 -1      1253 1.48575E+02 0.00000E+00 0.00000E+00
 -1      1254 1.50000E+02 1.47500E+00 0.00000E+00
 -1      1255 1.50000E+02 4.42500E+00 0.00000E+00
 -1      1256 1.50000E+02 7.37500E+00 0.00000E+00
 -1      1257 1.50000E+02 1.03250E+01 0.00000E+00
 -1      1258 1.50000E+02 1.32750E+01 0.00000E+00
 -1      1259 1.50000E+02 1.62000E+01 0.00000E+00
 -1      1260 1.50000E+02 1.91250E+01 0.00000E+00
 -1      1261 1.50000E+02 2.20750E+01 0.00000E+00
 -1      1262 1.50000E+02 2.50250E+01 0.00000E+00
 -1      1263 1.50000E+02 2.79750E+01 0.00000E+00
 -1      1264 1.50000E+02 3.09250E+01 0.00000E+00
 -1      1265 1.50000E+02 3.38500E+01 0.00000E+00
 -1      1266 1.50000E+02 3.67750E+01 0.00000E+00
 -1      1267 1.50000E+02 3.97250E+01 0.00000E+00
 -1      1268 1.50000E+02 4.26750E+01 0.00000E+00
 -1      1269 1.50000E+02 4.56250E+01 0.00000E+00
 -1      1270 1.50000E+02 4.85500E+01 0.00000E+00
 -1      1271 6.67727E+01 2.19296E+01 0.00000E+00
 -1      1272 6.64580E+01 2.04741E+01 0.00000E+00
 -1      1273 6.58600E+01 1.91478E+01 0.00000E+00
 -1      1274 6.50277E+01 1.80037E+01 0.00000E+00
 -1      1275 6.39695E+01 1.70408E+01 0.00000E+00
 -1      1276 6.27509E+01 1.63192E+01 0.00000E+00
 -1      1277 6.13710E+01 1.58483E+01 0.00000E+00
 -1      1278 5.98664E+01 1.56727E+01 0.00000E+00
 -1      1279 5.84083E+01 1.58148E+01 0.00000E+00
 -1      1280 5.69980E+01 1.62632E+01 0.00000E+00
 -1      1281 5.57174E+01 1.69952E+01 0.00000E+00
 -1      1282 5.45789E+01 1.80237E+01 0.00000E+00
 -1      1283 5.36622E+01 1.93293E+01 0.00000E+00
 -1      1284 5.30943E+01 2.07055E+01 0.00000E+00
 -1      1285 5.28306E+01 2.21659E+01 0.00000E+00
 -1      1286 5.28810E+01 2.36514E+01 0.00000E+00
 -1      1287 5.32284E+01 2.50502E+01 0.00000E+00
 -1      1288 5.38446E+01 2.63314E+01 0.00000E+00
 -1      1289 5.48166E+01 2.75760E+01 0.00000E+00
 -1      1290 5.60523E+01 2.85770E+01 0.00000E+00
 -1      1291 5.73182E+01 2.92132E+01 0.00000E+00
 -1      1292 5.86998E+01 2.95836E+01 0.00000E+00
 -1      1293 6.01361E+01 2.96650E+01 0.00000E+00
 -1      1294 6.15165E+01 2.94619E+01 0.00000E+00
 -1      1295 6.28266E+01 2.89903E+01 0.00000E+00
 -1      1296 6.40285E+01 2.82603E+01 0.00000E+00
 -1      1297 6.50627E+01 2.73021E+01 0.00000E+00
 -1      1298 6.58999E+01 2.61279E+01 0.00000E+00
 -1      1299 6.64770E+01 2.48128E+01 0.00000E+00
 -1      1300 6.67740E+01 2.34033E+01 0.00000E+00
 -1      1301 1.57500E+00 4.85250E+01 0.00000E+00
 -1      1302 1.29900E+00 4.48375E+01 0.00000E+00
 -1      1303 1.29900E+00 4.63125E+01 0.00000E+00
 -1      1304 1.29900E+00 4.18875E+01 0.00000E+00
 -1      1305 1.29900E+00 4.33625E+01 0.00000E+00
 -1      1306 2.59800E+00 4.41000E+01 0.00000E+00
 -1      1307 1.29900E+00 3.89375E+01 0.00000E+00
 -1      1308 1.29900E+00 4.04125E+01 0.00000E+00
 -1      1309 2.59800E+00 4.11500E+01 0.00000E+00
 -1      1310 1.29900E+00 3.59875E+01 0.00000E+00
 -1      1311 1.29900E+00 3.74625E+01 0.00000E+00
 -1      1312 2.59800E+00 3.82000E+01 0.00000E+00
 -1      1313 1.29900E+00 3.30875E+01 0.00000E+00
 -1      1314 1.29900E+00 3.45375E+01 0.00000E+00
 -1      1315 2.59800E+00 3.52750E+01 0.00000E+00
 -1      1316 1.29900E+00 3.01375E+01 0.00000E+00
 -1      1317 1.29900E+00 3.16125E+01 0.00000E+00
 -1      1318 2.59800E+00 3.23500E+01 0.00000E+00
 -1      1319 1.29900E+00 2.71875E+01 0.00000E+00
 -1      1320 1.29900E+00 2.86625E+01 0.00000E+00
 -1      1321 2.59800E+00 2.94000E+01 0.00000E+00
 -1      1322 1.29900E+00 2.42375E+01 0.00000E+00
 -1      1323 1.29900E+00 2.57125E+01 0.00000E+00
 -1      1324 2.59800E+00 2.64500E+01 0.00000E+00
 -1      1325 1.29900E+00 2.12875E+01 0.00000E+00
 -1      1326 1.29900E+00 2.27625E+01 0.00000E+00
 -1      1327 2.59800E+00 2.35000E+01 0.00000E+00
 -1      1328 1.29900E+00 1.83375E+01 0.00000E+00
 -1      1329 1.29900E+00 1.98125E+01 0.00000E+00
 -1      1330 2.59800E+00 2.05500E+01 0.00000E+00
 -1      1331 1.29900E+00 1.54375E+01 0.00000E+00
 -1      1332 1.29900E+00 1.68875E+01 0.00000E+00
 -1      1333 2.59800E+00 1.76250E+01 0.00000E+00
 -1      1334 1.29900E+00 1.24875E+01 0.00000E+00
 -1      1335 1.29900E+00 1.39625E+01 0.00000E+00
 -1      1336 2.59800E+00 1.47000E+01 0.00000E+00
 -1      1337 1.29900E+00 9.53750E+00 0.00000E+00
 -1      1338 1.29900E+00 1.10125E+01 0.00000E+00
 -1      1339 2.59800E+00 1.17500E+01 0.00000E+00
 -1      1340 1.29900E+00 6.58750E+00 0.00000E+00
 -1      1341 1.29900E+00 8.06250E+00 0.00000E+00
 -1      1342 2.59800E+00 8.80000E+00 0.00000E+00
 -1      1343 1.29900E+00 3.63750E+00 0.00000E+00
 -1      1344 1.29900E+00 5.11250E+00 0.00000E+00
 -1      1345 2.59800E+00 5.85000E+00 0.00000E+00
 -1      1346 1.43700E+00 1.09375E+00 0.00000E+00
 -1      1347 1.43700E+00 2.54375E+00 0.00000E+00
 -1      1348 2.73600E+00 3.28125E+00 0.00000E+00
 -1      1349 3.01200E+00 1.09375E+00 0.00000E+00
 -1      1350 3.90000E+00 4.87010E+01 0.00000E+00
 -1      1351 5.40000E+00 4.87010E+01 0.00000E+00
 -1      1352 6.90000E+00 4.87010E+01 0.00000E+00
 -1      1353 8.40000E+00 4.87010E+01 0.00000E+00
 -1      1354 6.15000E+00 4.74020E+01 0.00000E+00
 -1      1355 9.90000E+00 4.87010E+01 0.00000E+00
 -1      1356 1.14000E+01 4.87010E+01 0.00000E+00
 -1      1357 9.15000E+00 4.74020E+01 0.00000E+00
 -1      1358 1.29000E+01 4.87010E+01 0.00000E+00
 -1      1359 1.44000E+01 4.87010E+01 0.00000E+00
 -1      1360 1.21500E+01 4.74020E+01 0.00000E+00
 -1      1361 1.59000E+01 4.87010E+01 0.00000E+00
 -1      1362 1.74000E+01 4.87010E+01 0.00000E+00
 -1      1363 1.51500E+01 4.74020E+01 0.00000E+00
 -1      1364 1.89000E+01 4.87010E+01 0.00000E+00
 -1      1365 2.04000E+01 4.87010E+01 0.00000E+00
 -1      1366 1.81500E+01 4.74020E+01 0.00000E+00
 -1      1367 2.19000E+01 4.87010E+01 0.00000E+00
 -1      1368 2.34000E+01 4.87010E+01 0.00000E+00
 -1      1369 2.11500E+01 4.74020E+01 0.00000E+00
 -1      1370 2.49000E+01 4.87010E+01 0.00000E+00
 -1      1371 2.64000E+01 4.87010E+01 0.00000E+00
 -1      1372 2.41500E+01 4.74020E+01 0.00000E+00
 -1      1373 2.79000E+01 4.87010E+01 0.00000E+00
 -1      1374 2.94000E+01 4.87010E+01 0.00000E+00
 -1      1375 2.71500E+01 4.74020E+01 0.00000E+00
 -1      1376 3.09000E+01 4.87010E+01 0.00000E+00
 -1      1377 3.24000E+01 4.87010E+01 0.00000E+00
 -1      1378 3.01500E+01 4.74020E+01 0.00000E+00
 -1      1379 3.39000E+01 4.87010E+01 0.00000E+00
 -1      1380 3.54000E+01 4.87010E+01 0.00000E+00
 -1      1381 3.31500E+01 4.74020E+01 0.00000E+00
 -1      1382 3.69000E+01 4.87010E+01 0.00000E+00
 -1      1383 3.84000E+01 4.87010E+01 0.00000E+00
 -1      1384 3.61500E+01 4.74020E+01 0.00000E+00
 -1      1385 3.99000E+01 4.87010E+01 0.00000E+00
 -1      1386 4.14000E+01 4.87010E+01 0.00000E+00
 -1      1387 3.91500E+01 4.74020E+01 0.00000E+00
 -1      1388 4.29000E+01 4.87010E+01 0.00000E+00
 -1      1389 4.44000E+01 4.87010E+01 0.00000E+00
 -1      1390 4.21500E+01 4.74020E+01 0.00000E+00
 -1      1391 4.59000E+01 4.87010E+01 0.00000E+00
 -1      1392 4.74000E+01 4.87010E+01 0.00000E+00
 -1      1393 4.51500E+01 4.74020E+01 0.00000E+00
 -1      1394 4.89000E+01 4.87010E+01 0.00000E+00
 -1      1395 5.04000E+01 4.87010E+01 0.00000E+00
 -1      1396 4.81500E+01 4.74020E+01 0.00000E+00
 -1      1397 5.19000E+01 4.87010E+01 0.00000E+00
 -1      1398 5.34000E+01 4.87010E+01 0.00000E+00
 -1      1399 5.11500E+01 4.74020E+01 0.00000E+00
 -1      1400 5.49000E+01 4.87010E+01 0.00000E+00
 -1      1401 5.64000E+01 4.87010E+01 0.00000E+00
 -1      1402 5.41500E+01 4.74020E+01 0.00000E+00
 -1      1403 5.79000E+01 4.87010E+01 0.00000E+00
 -1      1404 5.94000E+01 4.87010E+01 0.00000E+00
 -1      1405 5.71500E+01 4.74020E+01 0.00000E+00
 -1      1406 6.09000E+01 4.87010E+01 0.00000E+00
 -1      1407 6.24000E+01 4.87010E+01 0.00000E+00
 -1      1408 6.01500E+01 4.74020E+01 0.00000E+00
 -1      1409 6.39000E+01 4.87010E+01 0.00000E+00
 -1      1410 6.54000E+01 4.87010E+01 0.00000E+00
 -1      1411 6.31500E+01 4.74020E+01 0.00000E+00
 -1      1412 6.69000E+01 4.87010E+01 0.00000E+00
 -1      1413 6.84000E+01 4.87010E+01 0.00000E+00
 -1      1414 6.61500E+01 4.74020E+01 0.00000E+00
 -1      1415 6.99000E+01 4.87010E+01 0.00000E+00
 -1      1416 7.14000E+01 4.87010E+01 0.00000E+00
 -1      1417 6.91500E+01 4.74020E+01 0.00000E+00
 -1      1418 7.29000E+01 4.87010E+01 0.00000E+00
 -1      1419 7.44000E+01 4.87010E+01 0.00000E+00
 -1      1420 7.21500E+01 4.74020E+01 0.00000E+00
 -1      1421 7.59000E+01 4.87010E+01 0.00000E+00
 -1      1422 7.74000E+01 4.87010E+01 0.00000E+00
 -1      1423 7.51500E+01 4.74020E+01 0.00000E+00
 -1      1424 7.89000E+01 4.87010E+01 0.00000E+00
 -1      1425 8.04000E+01 4.87010E+01 0.00000E+00
 -1      1426 7.81500E+01 4.74020E+01 0.00000E+00
 -1      1427 8.19000E+01 4.87010E+01 0.00000E+00
 -1      1428 8.34000E+01 4.87010E+01 0.00000E+00
 -1      1429 8.11500E+01 4.74020E+01 0.00000E+00
 -1      1430 8.49000E+01 4.87010E+01 0.00000E+00
 -1      1431 8.64000E+01 4.87010E+01 0.00000E+00
 -1      1432 8.41500E+01 4.74020E+01 0.00000E+00
 -1      1433 8.79000E+01 4.87010E+01 0.00000E+00
 -1      1434 8.94000E+01 4.87010E+01 0.00000E+00
 -1      1435 8.71500E+01 4.74020E+01 0.00000E+00
 -1      1436 9.09000E+01 4.87010E+01 0.00000E+00
 -1      1437 9.24000E+01 4.87010E+01 0.00000E+00
 -1      1438 9.01500E+01 4.74020E+01 0.00000E+00
 -1      1439 9.39000E+01 4.87010E+01 0.00000E+00
 -1      1440 9.54000E+01 4.87010E+01 0.00000E+00
 -1      1441 9.31500E+01 4.74020E+01 0.00000E+00
 -1      1442 9.69000E+01 4.87010E+01 0.00000E+00
 -1      1443 9.84000E+01 4.87010E+01 0.00000E+00
 -1      1444 9.61500E+01 4.74020E+01 0.00000E+00
 -1      1445 9.99000E+01 4.87010E+01 0.00000E+00
 -1      1446 1.01400E+02 4.87010E+01 0.00000E+00
 -1      1447 9.91500E+01 4.74020E+01 0.00000E+00
 -1      1448 1.02900E+02 4.87010E+01 0.00000E+00
 -1      1449 1.04400E+02 4.87010E+01 0.00000E+00
 -1      1450 1.02150E+02 4.74020E+01 0.00000E+00
 -1      1451 1.05900E+02 4.87010E+01 0.00000E+00
 -1      1452 1.07400E+02 4.87010E+01 0.00000E+00
 -1      1453 1.05150E+02 4.74020E+01 0.00000E+00
 -1      1454 1.08900E+02 4.87010E+01 0.00000E+00
 -1      1455 1.10400E+02 4.87010E+01 0.00000E+00
 -1      1456 1.08150E+02 4.74020E+01 0.00000E+00
 -1      1457 1.11900E+02 4.87010E+01 0.00000E+00
 -1      1458 1.13400E+02 4.87010E+01 0.00000E+00
 -1      1459 1.11150E+02 4.74020E+01 0.00000E+00
 -1      1460 1.14900E+02 4.87010E+01 0.00000E+00
 -1      1461 1.16400E+02 4.87010E+01 0.00000E+00
 -1      1462 1.14150E+02 4.74020E+01 0.00000E+00
 -1      1463 1.17900E+02 4.87010E+01 0.00000E+00
 -1      1464 1.19400E+02 4.87010E+01 0.00000E+00
 -1      1465 1.17150E+02 4.74020E+01 0.00000E+00
 -1      1466 1.20900E+02 4.87010E+01 0.00000E+00
 -1      1467 1.22400E+02 4.87010E+01 0.00000E+00
 -1      1468 1.20150E+02 4.74020E+01 0.00000E+00
 -1      1469 1.23900E+02 4.87010E+01 0.00000E+00
 -1      1470 1.25400E+02 4.87010E+01 0.00000E+00
 -1      1471 1.23150E+02 4.74020E+01 0.00000E+00
 -1      1472 1.26900E+02 4.87010E+01 0.00000E+00
 -1      1473 1.28400E+02 4.87010E+01 0.00000E+00
 -1      1474 1.26150E+02 4.74020E+01 0.00000E+00
 -1      1475 1.29900E+02 4.87010E+01 0.00000E+00
 -1      1476 1.31400E+02 4.87010E+01 0.00000E+00
 -1      1477 1.29150E+02 4.74020E+01 0.00000E+00
 -1      1478 1.32900E+02 4.87010E+01 0.00000E+00
 -1      1479 1.34400E+02 4.87010E+01 0.00000E+00
 -1      1480 1.32150E+02 4.74020E+01 0.00000E+00
 -1      1481 1.35900E+02 4.87010E+01 0.00000E+00
 -1      1482 1.37400E+02 4.87010E+01 0.00000E+00
 -1      1483 1.35150E+02 4.74020E+01 0.00000E+00
 -1      1484 1.38900E+02 4.87010E+01 0.00000E+00
 -1      1485 1.40400E+02 4.87010E+01 0.00000E+00
 -1      1486 1.38150E+02 4.74020E+01 0.00000E+00
 -1      1487 1.41900E+02 4.87010E+01 0.00000E+00
 -1      1488 1.43400E+02 4.87010E+01 0.00000E+00
 -1      1489 1.41150E+02 4.74020E+01 0.00000E+00
 -1      1490 1.44900E+02 4.87010E+01 0.00000E+00
 -1      1491 1.46400E+02 4.87010E+01 0.00000E+00
 -1      1492 1.44150E+02 4.74020E+01 0.00000E+00
 -1      1493 1.48575E+02 4.85500E+01 0.00000E+00
 -1      1494 1.47825E+02 4.72510E+01 0.00000E+00
 -1      1495 6.01200E+00 1.09375E+00 0.00000E+00
 -1      1496 4.51200E+00 1.09375E+00 0.00000E+00
 -1      1497 4.37400E+00 2.18750E+00 0.00000E+00
 -1      1498 9.01200E+00 1.09375E+00 0.00000E+00
 -1      1499 7.51200E+00 1.09375E+00 0.00000E+00
 -1      1500 7.37400E+00 2.18750E+00 0.00000E+00
 -1      1501 1.20120E+01 1.09375E+00 0.00000E+00
 -1      1502 1.05120E+01 1.09375E+00 0.00000E+00
 -1      1503 1.03740E+01 2.18750E+00 0.00000E+00
 -1      1504 1.50120E+01 1.09375E+00 0.00000E+00
 -1      1505 1.35120E+01 1.09375E+00 0.00000E+00
 -1      1506 1.33740E+01 2.18750E+00 0.00000E+00
 -1      1507 1.80120E+01 1.09375E+00 0.00000E+00
 -1      1508 1.65120E+01 1.09375E+00 0.00000E+00
 -1      1509 1.63740E+01 2.18750E+00 0.00000E+00
 -1      1510 2.10120E+01 1.09375E+00 0.00000E+00
 -1      1511 1.95120E+01 1.09375E+00 0.00000E+00
 -1      1512 1.93740E+01 2.18750E+00 0.00000E+00
 -1      1513 2.40120E+01 1.09375E+00 0.00000E+00
 -1      1514 2.25120E+01 1.09375E+00 0.00000E+00
 -1      1515 2.23740E+01 2.18750E+00 0.00000E+00
 -1      1516 2.70120E+01 1.09375E+00 0.00000E+00
 -1      1517 2.55120E+01 1.09375E+00 0.00000E+00
 -1      1518 2.53740E+01 2.18750E+00 0.00000E+00
 -1      1519 3.00120E+01 1.09375E+00 0.00000E+00
 -1      1520 2.85120E+01 1.09375E+00 0.00000E+00
 -1      1521 2.83740E+01 2.18750E+00 0.00000E+00
 -1      1522 3.30120E+01 1.09375E+00 0.00000E+00
 -1      1523 3.15120E+01 1.09375E+00 0.00000E+00
 -1      1524 3.13740E+01 2.18750E+00 0.00000E+00
 -1      1525 3.60120E+01 1.09375E+00 0.00000E+00
 -1      1526 3.45120E+01 1.09375E+00 0.00000E+00
 -1      1527 3.43740E+01 2.18750E+00 0.00000E+00
 -1      1528 3.90120E+01 1.09375E+00 0.00000E+00
 -1      1529 3.75120E+01 1.09375E+00 0.00000E+00
 -1      1530 3.73740E+01 2.18750E+00 0.00000E+00
 -1      1531 4.20120E+01 1.09375E+00 0.00000E+00
 -1      1532 4.05120E+01 1.09375E+00 0.00000E+00
 -1      1533 4.03740E+01 2.18750E+00 0.00000E+00
 -1      1534 4.50120E+01 1.09375E+00 0.00000E+00
 -1      1535 4.35120E+01 1.09375E+00 0.00000E+00
 -1      1536 4.33740E+01 2.18750E+00 0.00000E+00
 -1      1537 4.80120E+01 1.09375E+00 0.00000E+00
 -1      1538 4.65120E+01 1.09375E+00 0.00000E+00
 -1      1539 4.63740E+01 2.18750E+00 0.00000E+00
 -1      1540 5.10120E+01 1.09375E+00 0.00000E+00
 -1      1541 4.95120E+01 1.09375E+00 0.00000E+00
 -1      1542 4.93740E+01 2.18750E+00 0.00000E+00
 -1      1543 5.40120E+01 1.09375E+00 0.00000E+00
 -1      1544 5.25120E+01 1.09375E+00 0.00000E+00
 -1      1545 5.23740E+01 2.18750E+00 0.00000E+00
 -1      1546 5.70120E+01 1.09375E+00 0.00000E+00
 -1      1547 5.55120E+01 1.09375E+00 0.00000E+00
 -1      1548 5.53740E+01 2.18750E+00 0.00000E+00
 -1      1549 6.00120E+01 1.09375E+00 0.00000E+00
 -1      1550 5.85120E+01 1.09375E+00 0.00000E+00
 -1      1551 5.83740E+01 2.18750E+00 0.00000E+00
 -1      1552 6.30120E+01 1.09375E+00 0.00000E+00
 -1      1553 6.15120E+01 1.09375E+00 0.00000E+00
 -1      1554 6.13740E+01 2.18750E+00 0.00000E+00
 -1      1555 6.60120E+01 1.09375E+00 0.00000E+00
 -1      1556 6.45120E+01 1.09375E+00 0.00000E+00
 -1      1557 6.43740E+01 2.18750E+00 0.00000E+00
 -1      1558 6.90120E+01 1.09375E+00 0.00000E+00
 -1      1559 6.75120E+01 1.09375E+00 0.00000E+00
 -1      1560 6.73740E+01 2.18750E+00 0.00000E+00
 -1      1561 7.20120E+01 1.09375E+00 0.00000E+00
 -1      1562 7.05120E+01 1.09375E+00 0.00000E+00
 -1      1563 7.03740E+01 2.18750E+00 0.00000E+00
 -1      1564 7.50120E+01 1.09375E+00 0.00000E+00
 -1      1565 7.35120E+01 1.09375E+00 0.00000E+00
 -1      1566 7.33740E+01 2.18750E+00 0.00000E+00
 -1      1567 7.80120E+01 1.09375E+00 0.00000E+00
 -1      1568 7.65120E+01 1.09375E+00 0.00000E+00
 -1      1569 7.63740E+01 2.18750E+00 0.00000E+00
 -1      1570 8.10120E+01 1.09375E+00 0.00000E+00
 -1      1571 7.95120E+01 1.09375E+00 0.00000E+00
 -1      1572 7.93740E+01 2.18750E+00 0.00000E+00
 -1      1573 8.40120E+01 1.09375E+00 0.00000E+00
 -1      1574 8.25120E+01 1.09375E+00 0.00000E+00
 -1      1575 8.23740E+01 2.18750E+00 0.00000E+00
 -1      1576 8.70120E+01 1.09375E+00 0.00000E+00
 -1      1577 8.55120E+01 1.09375E+00 0.00000E+00
 -1      1578 8.53740E+01 2.18750E+00 0.00000E+00
 -1      1579 9.00120E+01 1.09375E+00 0.00000E+00
 -1      1580 8.85120E+01 1.09375E+00 0.00000E+00
 -1      1581 8.83740E+01 2.18750E+00 0.00000E+00
 -1      1582 9.30120E+01 1.09375E+00 0.00000E+00
 -1      1583 9.15120E+01 1.09375E+00 0.00000E+00
 -1      1584 9.13740E+01 2.18750E+00 0.00000E+00
 -1      1585 9.60120E+01 1.09375E+00 0.00000E+00
 -1      1586 9.45120E+01 1.09375E+00 0.00000E+00
 -1      1587 9.43740E+01 2.18750E+00 0.00000E+00
 -1      1588 9.90120E+01 1.09375E+00 0.00000E+00
 -1      1589 9.75120E+01 1.09375E+00 0.00000E+00
 -1      1590 9.73740E+01 2.18750E+00 0.00000E+00
 -1      1591 1.02012E+02 1.09375E+00 0.00000E+00
 -1      1592 1.00512E+02 1.09375E+00 0.00000E+00
 -1      1593 1.00374E+02 2.18750E+00 0.00000E+00
 -1      1594 1.05012E+02 1.09375E+00 0.00000E+00
 -1      1595 1.03512E+02 1.09375E+00 0.00000E+00
 -1      1596 1.03374E+02 2.18750E+00 0.00000E+00
 -1      1597 1.08012E+02 1.09375E+00 0.00000E+00
 -1      1598 1.06512E+02 1.09375E+00 0.00000E+00
 -1      1599 1.06374E+02 2.18750E+00 0.00000E+00
 -1      1600 1.11012E+02 1.09375E+00 0.00000E+00
 -1      1601 1.09512E+02 1.09375E+00 0.00000E+00
 -1      1602 1.09374E+02 2.18750E+00 0.00000E+00
 -1      1603 1.14012E+02 1.09375E+00 0.00000E+00
 -1      1604 1.12512E+02 1.09375E+00 0.00000E+00
 -1      1605 1.12374E+02 2.18750E+00 0.00000E+00
 -1      1606 1.17012E+02 1.09375E+00 0.00000E+00
 -1      1607 1.15512E+02 1.09375E+00 0.00000E+00
 -1      1608 1.15374E+02 2.18750E+00 0.00000E+00
 -1      1609 1.20012E+02 1.09375E+00 0.00000E+00
 -1      1610 1.18512E+02 1.09375E+00 0.00000E+00
 -1      1611 1.18374E+02 2.18750E+00 0.00000E+00
 -1      1612 1.23012E+02 1.09375E+00 0.00000E+00
 -1      1613 1.21512E+02 1.09375E+00 0.00000E+00
 -1      1614 1.21374E+02 2.18750E+00 0.00000E+00
 -1      1615 1.26012E+02 1.09375E+00 0.00000E+00
 -1      1616 1.24512E+02 1.09375E+00 0.00000E+00
 -1      1617 1.24374E+02 2.18750E+00 0.00000E+00
 -1      1618 1.29012E+02 1.09375E+00 0.00000E+00
 -1      1619 1.27512E+02 1.09375E+00 0.00000E+00
 -1      1620 1.27374E+02 2.18750E+00 0.00000E+00
 -1      1621 1.32012E+02 1.09375E+00 0.00000E+00
 -1      1622 1.30512E+02 1.09375E+00 0.00000E+00
 -1      1623 1.30374E+02 2.18750E+00 0.00000E+00
 -1      1624 1.35012E+02 1.09375E+00 0.00000E+00
 -1      1625 1.33512E+02 1.09375E+00 0.00000E+00
 -1      1626 1.33374E+02 2.18750E+00 0.00000E+00
 -1      1627 1.38012E+02 1.09375E+00 0.00000E+00
 -1      1628 1.36512E+02 1.09375E+00 0.00000E+00
 -1      1629 1.36374E+02 2.18750E+00 0.00000E+00
 -1      1630 1.41012E+02 1.09375E+00 0.00000E+00
 -1      1631 1.39512E+02 1.09375E+00 0.00000E+00
 -1      1632 1.39374E+02 2.18750E+00 0.00000E+00
 -1      1633 1.44012E+02 1.09375E+00 0.00000E+00
 -1      1634 1.42512E+02 1.09375E+00 0.00000E+00
 -1      1635 1.42374E+02 2.18750E+00 0.00000E+00
 -1      1636 1.47012E+02 1.09375E+00 0.00000E+00
 -1      1637 1.45512E+02 1.09375E+00 0.00000E+00
 -1      1638 1.45374E+02 2.18750E+00 0.00000E+00
 -1      1639 1.48575E+02 1.47500E+00 0.00000E+00
 -1      1640 1.48701E+02 5.16250E+00 0.00000E+00
 -1      1641 1.48701E+02 3.68750E+00 0.00000E+00
 -1      1642 1.48701E+02 8.11250E+00 0.00000E+00
 -1      1643 1.48701E+02 6.63750E+00 0.00000E+00
 -1      1644 1.47402E+02 5.90000E+00 0.00000E+00
 -1      1645 1.48701E+02 1.10625E+01 0.00000E+00
 -1      1646 1.48701E+02 9.58750E+00 0.00000E+00
 -1      1647 1.47402E+02 8.85000E+00 0.00000E+00
 -1      1648 1.48701E+02 1.40125E+01 0.00000E+00
 -1      1649 1.48701E+02 1.25375E+01 0.00000E+00
 -1      1650 1.47402E+02 1.18000E+01 0.00000E+00
 -1      1651 1.48701E+02 1.69125E+01 0.00000E+00
 -1      1652 1.48701E+02 1.54625E+01 0.00000E+00
 -1      1653 1.47402E+02 1.47250E+01 0.00000E+00
 -1      1654 1.48701E+02 1.98625E+01 0.00000E+00
 -1      1655 1.48701E+02 1.83875E+01 0.00000E+00
 -1      1656 1.47402E+02 1.76500E+01 0.00000E+00
 -1      1657 1.48701E+02 2.28125E+01 0.00000E+00
 -1      1658 1.48701E+02 2.13375E+01 0.00000E+00
 -1      1659 1.47402E+02 2.06000E+01 0.00000E+00
 -1      1660 1.48701E+02 2.57625E+01 0.00000E+00
 -1      1661 1.48701E+02 2.42875E+01 0.00000E+00
 -1      1662 1.47402E+02 2.35500E+01 0.00000E+00
 -1      1663 1.48701E+02 2.87125E+01 0.00000E+00
 -1      1664 1.48701E+02 2.72375E+01 0.00000E+00
 -1      1665 1.47402E+02 2.65000E+01 0.00000E+00
 -1      1666 1.48701E+02 3.16625E+01 0.00000E+00
 -1      1667 1.48701E+02 3.01875E+01 0.00000E+00
 -1      1668 1.47402E+02 2.94500E+01 0.00000E+00
 -1      1669 1.48701E+02 3.45625E+01 0.00000E+00
 -1      1670 1.48701E+02 3.31125E+01 0.00000E+00
 -1      1671 1.47402E+02 3.23750E+01 0.00000E+00
 -1      1672 1.48701E+02 3.75125E+01 0.00000E+00
 -1      1673 1.48701E+02 3.60375E+01 0.00000E+00
 -1      1674 1.47402E+02 3.53000E+01 0.00000E+00
 -1      1675 1.48701E+02 4.04625E+01 0.00000E+00
 -1      1676 1.48701E+02 3.89875E+01 0.00000E+00
 -1      1677 1.47402E+02 3.82500E+01 0.00000E+00
 -1      1678 1.48701E+02 4.34125E+01 0.00000E+00
 -1      1679 1.48701E+02 4.19375E+01 0.00000E+00
 -1      1680 1.47402E+02 4.12000E+01 0.00000E+00
 -1      1681 1.48263E+02 4.60692E+01 0.00000E+00
 -1      1682 1.48263E+02 4.45942E+01 0.00000E+00
 -1      1683 1.46964E+02 4.38568E+01 0.00000E+00
 -1      1684 1.46088E+02 4.62202E+01 0.00000E+00
 -1      1685 6.73384E+01 2.14956E+01 0.00000E+00
 -1      1686 6.74172E+01 2.22344E+01 0.00000E+00
 -1      1687 6.69581E+01 1.99157E+01 0.00000E+00
 -1      1688 6.71924E+01 2.06241E+01 0.00000E+00
 -1      1689 6.61743E+01 1.85545E+01 0.00000E+00
 -1      1690 6.65311E+01 1.91668E+01 0.00000E+00
 -1      1691 6.52485E+01 1.73321E+01 0.00000E+00
 -1      1692 6.57195E+01 1.78583E+01 0.00000E+00
 -1      1693 6.40158E+01 1.63682E+01 0.00000E+00
 -1      1694 6.45987E+01 1.67985E+01 0.00000E+00
 -1      1695 6.26771E+01 1.56549E+01 0.00000E+00
 -1      1696 6.33049E+01 1.59453E+01 0.00000E+00
 -1      1697 6.11324E+01 1.51722E+01 0.00000E+00
 -1      1698 6.18794E+01 1.53428E+01 0.00000E+00
 -1      1699 5.94969E+01 1.50619E+01 0.00000E+00
 -1      1700 6.02453E+01 1.50677E+01 0.00000E+00
 -1      1701 5.79432E+01 1.53288E+01 0.00000E+00
 -1      1702 5.86451E+01 1.51851E+01 0.00000E+00
 -1      1703 5.63879E+01 1.58231E+01 0.00000E+00
 -1      1704 5.70869E+01 1.55162E+01 0.00000E+00
 -1      1705 5.50954E+01 1.67411E+01 0.00000E+00
 -1      1706 5.56726E+01 1.63248E+01 0.00000E+00
 -1      1707 5.38261E+01 1.79051E+01 0.00000E+00
 -1      1708 5.43724E+01 1.72901E+01 0.00000E+00
 -1      1709 5.29827E+01 1.93996E+01 0.00000E+00
 -1      1710 5.33517E+01 1.87208E+01 0.00000E+00
 -1      1711 5.24472E+01 2.08890E+01 0.00000E+00
 -1      1712 5.26484E+01 2.02018E+01 0.00000E+00
 -1      1713 5.21985E+01 2.25049E+01 0.00000E+00
 -1      1714 5.22541E+01 2.17391E+01 0.00000E+00
 -1      1715 5.23676E+01 2.40867E+01 0.00000E+00
 -1      1716 5.22671E+01 2.33753E+01 0.00000E+00
 -1      1717 5.28162E+01 2.55833E+01 0.00000E+00
 -1      1718 5.25707E+01 2.49034E+01 0.00000E+00
 -1      1719 5.35403E+01 2.69279E+01 0.00000E+00
 -1      1720 5.31750E+01 2.63321E+01 0.00000E+00
 -1      1721 5.45825E+01 2.84226E+01 0.00000E+00
 -1      1722 5.39659E+01 2.77944E+01 0.00000E+00
 -1      1723 5.60454E+01 2.92485E+01 0.00000E+00
 -1      1724 5.54467E+01 2.88672E+01 0.00000E+00
 -1      1725 5.74453E+01 2.98721E+01 0.00000E+00
 -1      1726 5.67847E+01 2.96202E+01 0.00000E+00
 -1      1727 5.89599E+01 3.02439E+01 0.00000E+00
 -1      1728 5.82457E+01 3.01289E+01 0.00000E+00
 -1      1729 6.05235E+01 3.03012E+01 0.00000E+00
 -1      1730 5.98092E+01 3.03342E+01 0.00000E+00
 -1      1731 6.19859E+01 2.99349E+01 0.00000E+00
 -1      1732 6.13262E+01 3.01005E+01 0.00000E+00
 -1      1733 6.34295E+01 2.94269E+01 0.00000E+00
 -1      1734 6.27867E+01 2.97336E+01 0.00000E+00
 -1      1735 6.46751E+01 2.85411E+01 0.00000E+00
 -1      1736 6.41211E+01 2.89591E+01 0.00000E+00
 -1      1737 6.57579E+01 2.74380E+01 0.00000E+00
 -1      1738 6.52845E+01 2.79749E+01 0.00000E+00
 -1      1739 6.66464E+01 2.61340E+01 0.00000E+00
 -1      1740 6.62879E+01 2.67657E+01 0.00000E+00
 -1      1741 6.71682E+01 2.46621E+01 0.00000E+00
 -1      1742 6.69512E+01 2.53379E+01 0.00000E+00
 -1      1743 6.74603E+01 2.31079E+01 0.00000E+00
 -1      1744 6.73840E+01 2.38347E+01 0.00000E+00
 -1      1745 6.53171E+01 1.66293E+01 0.00000E+00
 -1      1746 6.64217E+01 1.78592E+01 0.00000E+00
 -1      1747 1.48437E+02 2.56875E+00 0.00000E+00
 -1      1748 1.47138E+02 3.30625E+00 0.00000E+00
 -1      1749 6.78763E+01 2.09247E+01 0.00000E+00
 -1      1750 6.73034E+01 1.93043E+01 0.00000E+00
 -1      1751 6.80653E+01 2.26698E+01 0.00000E+00
 -1      1752 6.39563E+01 1.56728E+01 0.00000E+00
 -1      1753 6.24478E+01 1.49378E+01 0.00000E+00
 -1      1754 6.07632E+01 1.45212E+01 0.00000E+00
 -1      1755 5.90243E+01 1.45399E+01 0.00000E+00
 -1      1756 5.73163E+01 1.48504E+01 0.00000E+00
 -1      1757 5.57447E+01 1.55396E+01 0.00000E+00
 -1      1758 5.43064E+01 1.65903E+01 0.00000E+00
 -1      1759 5.31090E+01 1.79550E+01 0.00000E+00
 -1      1760 5.23003E+01 1.95729E+01 0.00000E+00
 -1      1761 5.17730E+01 2.12251E+01 0.00000E+00
 -1      1762 5.16485E+01 2.29454E+01 0.00000E+00
 -1      1763 5.19202E+01 2.46325E+01 0.00000E+00
 -1      1764 5.24820E+01 2.61981E+01 0.00000E+00
 -1      1765 5.32665E+01 2.78133E+01 0.00000E+00
 -1      1766 5.45563E+01 2.91245E+01 0.00000E+00
 -1      1767 5.61597E+01 2.99409E+01 0.00000E+00
 -1      1768 5.76994E+01 3.05694E+01 0.00000E+00
 -1      1769 5.93490E+01 3.09166E+01 0.00000E+00
 -1      1770 6.10009E+01 3.08063E+01 0.00000E+00
 -1      1771 6.26044E+01 3.04043E+01 0.00000E+00
 -1      1772 6.40968E+01 2.97352E+01 0.00000E+00
 -1      1773 6.53979E+01 2.87013E+01 0.00000E+00
 -1      1774 6.65373E+01 2.74628E+01 0.00000E+00
 -1      1775 6.73720E+01 2.59943E+01 0.00000E+00
 -1      1776 6.78926E+01 2.43707E+01 0.00000E+00
 -1      1777 2.87400E+00 4.77875E+01 0.00000E+00
 -1      1778 3.89700E+00 4.04125E+01 0.00000E+00
 -1      1779 3.89700E+00 4.18875E+01 0.00000E+00
 -1      1780 3.89700E+00 4.33625E+01 0.00000E+00
 -1      1781 3.89700E+00 4.48375E+01 0.00000E+00
 -1      1782 5.19600E+00 4.26250E+01 0.00000E+00
 -1      1783 3.89700E+00 3.45500E+01 0.00000E+00
 -1      1784 3.89700E+00 3.60000E+01 0.00000E+00
 -1      1785 3.89700E+00 3.16000E+01 0.00000E+00
 -1      1786 3.89700E+00 3.30750E+01 0.00000E+00
 -1      1787 5.19600E+00 3.38000E+01 0.00000E+00
 -1      1788 3.89700E+00 2.86500E+01 0.00000E+00
 -1      1789 3.89700E+00 3.01250E+01 0.00000E+00
 -1      1790 5.19600E+00 3.08500E+01 0.00000E+00
 -1      1791 3.89700E+00 2.57000E+01 0.00000E+00
 -1      1792 3.89700E+00 2.71750E+01 0.00000E+00
 -1      1793 5.19600E+00 2.79000E+01 0.00000E+00
 -1      1794 3.89700E+00 2.27500E+01 0.00000E+00
 -1      1795 3.89700E+00 2.42250E+01 0.00000E+00
 -1      1796 5.19600E+00 2.49500E+01 0.00000E+00
 -1      1797 3.89700E+00 1.98000E+01 0.00000E+00
 -1      1798 3.89700E+00 2.12750E+01 0.00000E+00
 -1      1799 5.19600E+00 2.20000E+01 0.00000E+00
 -1      1800 3.89700E+00 1.69000E+01 0.00000E+00
 -1      1801 3.89700E+00 1.83500E+01 0.00000E+00
 -1      1802 5.19600E+00 1.90750E+01 0.00000E+00
 -1      1803 3.89700E+00 1.39500E+01 0.00000E+00
 -1      1804 3.89700E+00 1.54250E+01 0.00000E+00
 -1      1805 5.19600E+00 1.61500E+01 0.00000E+00
 -1      1806 3.89700E+00 1.10000E+01 0.00000E+00
 -1      1807 3.89700E+00 1.24750E+01 0.00000E+00
 -1      1808 5.19600E+00 1.32000E+01 0.00000E+00
 -1      1809 3.89700E+00 8.05000E+00 0.00000E+00
 -1      1810 3.89700E+00 9.52500E+00 0.00000E+00
 -1      1811 5.19600E+00 1.02500E+01 0.00000E+00
 -1      1812 3.89700E+00 5.10000E+00 0.00000E+00
 -1      1813 3.89700E+00 6.57500E+00 0.00000E+00
 -1      1814 5.19600E+00 7.30000E+00 0.00000E+00
 -1      1815 4.20450E+00 3.09687E+00 0.00000E+00
 -1      1816 4.06650E+00 4.19063E+00 0.00000E+00
 -1      1817 5.36550E+00 4.91563E+00 0.00000E+00
 -1      1818 5.70450E+00 3.09687E+00 0.00000E+00
 -1      1819 3.62400E+00 4.64885E+01 0.00000E+00
 -1      1820 8.70450E+00 3.09687E+00 0.00000E+00
 -1      1821 7.20450E+00 3.09687E+00 0.00000E+00
 -1      1822 7.03500E+00 4.00625E+00 0.00000E+00
 -1      1823 4.92300E+00 4.57510E+01 0.00000E+00
 -1      1824 8.40000E+00 4.61030E+01 0.00000E+00
 -1      1825 9.90000E+00 4.61030E+01 0.00000E+00
 -1      1826 1.14000E+01 4.61030E+01 0.00000E+00
 -1      1827 1.29000E+01 4.61030E+01 0.00000E+00
 -1      1828 1.06500E+01 4.48040E+01 0.00000E+00
 -1      1829 1.44000E+01 4.61030E+01 0.00000E+00
 -1      1830 1.59000E+01 4.61030E+01 0.00000E+00
 -1      1831 1.36500E+01 4.48040E+01 0.00000E+00
 -1      1832 1.74000E+01 4.61030E+01 0.00000E+00
 -1      1833 1.89000E+01 4.61030E+01 0.00000E+00
 -1      1834 1.66500E+01 4.48040E+01 0.00000E+00
 -1      1835 2.04000E+01 4.61030E+01 0.00000E+00
 -1      1836 2.19000E+01 4.61030E+01 0.00000E+00
 -1      1837 1.96500E+01 4.48040E+01 0.00000E+00
 -1      1838 2.34000E+01 4.61030E+01 0.00000E+00
 -1      1839 2.49000E+01 4.61030E+01 0.00000E+00
 -1      1840 2.26500E+01 4.48040E+01 0.00000E+00
 -1      1841 2.64000E+01 4.61030E+01 0.00000E+00
 -1      1842 2.79000E+01 4.61030E+01 0.00000E+00
 -1      1843 2.56500E+01 4.48040E+01 0.00000E+00
 -1      1844 2.94000E+01 4.61030E+01 0.00000E+00
 -1      1845 3.09000E+01 4.61030E+01 0.00000E+00
 -1      1846 2.86500E+01 4.48040E+01 0.00000E+00
 -1      1847 3.24000E+01 4.61030E+01 0.00000E+00
 -1      1848 3.39000E+01 4.61030E+01 0.00000E+00
 -1      1849 3.16500E+01 4.48040E+01 0.00000E+00
 -1      1850 3.54000E+01 4.61030E+01 0.00000E+00
 -1      1851 3.69000E+01 4.61030E+01 0.00000E+00
 -1      1852 3.46500E+01 4.48040E+01 0.00000E+00
 -1      1853 3.84000E+01 4.61030E+01 0.00000E+00
 -1      1854 3.99000E+01 4.61030E+01 0.00000E+00
 -1      1855 3.76500E+01 4.48040E+01 0.00000E+00
 -1      1856 4.14000E+01 4.61030E+01 0.00000E+00
 -1      1857 4.29000E+01 4.61030E+01 0.00000E+00
 -1      1858 4.06500E+01 4.48040E+01 0.00000E+00
 -1      1859 4.44000E+01 4.61030E+01 0.00000E+00
 -1      1860 4.59000E+01 4.61030E+01 0.00000E+00
 -1      1861 4.36500E+01 4.48040E+01 0.00000E+00
 -1      1862 4.74000E+01 4.61030E+01 0.00000E+00
 -1      1863 4.89000E+01 4.61030E+01 0.00000E+00
 -1      1864 4.66500E+01 4.48040E+01 0.00000E+00
 -1      1865 5.04000E+01 4.61030E+01 0.00000E+00
 -1      1866 5.19000E+01 4.61030E+01 0.00000E+00
 -1      1867 4.96500E+01 4.48040E+01 0.00000E+00
 -1      1868 5.34000E+01 4.61030E+01 0.00000E+00
 -1      1869 5.49000E+01 4.61030E+01 0.00000E+00
 -1      1870 5.26500E+01 4.48040E+01 0.00000E+00
 -1      1871 5.64000E+01 4.61030E+01 0.00000E+00
 -1      1872 5.79000E+01 4.61030E+01 0.00000E+00
 -1      1873 5.56500E+01 4.48040E+01 0.00000E+00
 -1      1874 5.94000E+01 4.61030E+01 0.00000E+00
 -1      1875 6.09000E+01 4.61030E+01 0.00000E+00
 -1      1876 5.86500E+01 4.48040E+01 0.00000E+00
 -1      1877 6.24000E+01 4.61030E+01 0.00000E+00
 -1      1878 6.39000E+01 4.61030E+01 0.00000E+00
 -1      1879 6.16500E+01 4.48040E+01 0.00000E+00
 -1      1880 6.54000E+01 4.61030E+01 0.00000E+00
 -1      1881 6.69000E+01 4.61030E+01 0.00000E+00
 -1      1882 6.46500E+01 4.48040E+01 0.00000E+00
 -1      1883 6.84000E+01 4.61030E+01 0.00000E+00
 -1      1884 6.99000E+01 4.61030E+01 0.00000E+00
 -1      1885 6.76500E+01 4.48040E+01 0.00000E+00
 -1      1886 7.14000E+01 4.61030E+01 0.00000E+00
 -1      1887 7.29000E+01 4.61030E+01 0.00000E+00
 -1      1888 7.06500E+01 4.48040E+01 0.00000E+00
 -1      1889 7.44000E+01 4.61030E+01 0.00000E+00
 -1      1890 7.59000E+01 4.61030E+01 0.00000E+00
 -1      1891 7.36500E+01 4.48040E+01 0.00000E+00
 -1      1892 7.74000E+01 4.61030E+01 0.00000E+00
 -1      1893 7.89000E+01 4.61030E+01 0.00000E+00
 -1      1894 7.66500E+01 4.48040E+01 0.00000E+00
 -1      1895 8.04000E+01 4.61030E+01 0.00000E+00
 -1      1896 8.19000E+01 4.61030E+01 0.00000E+00
 -1      1897 7.96500E+01 4.48040E+01 0.00000E+00
 -1      1898 8.34000E+01 4.61030E+01 0.00000E+00
 -1      1899 8.49000E+01 4.61030E+01 0.00000E+00
 -1      1900 8.26500E+01 4.48040E+01 0.00000E+00
 -1      1901 8.64000E+01 4.61030E+01 0.00000E+00
 -1      1902 8.79000E+01 4.61030E+01 0.00000E+00
 -1      1903 8.56500E+01 4.48040E+01 0.00000E+00
 -1      1904 8.94000E+01 4.61030E+01 0.00000E+00
 -1      1905 9.09000E+01 4.61030E+01 0.00000E+00
 -1      1906 8.86500E+01 4.48040E+01 0.00000E+00
 -1      1907 9.24000E+01 4.61030E+01 0.00000E+00
 -1      1908 9.39000E+01 4.61030E+01 0.00000E+00
 -1      1909 9.16500E+01 4.48040E+01 0.00000E+00
 -1      1910 9.54000E+01 4.61030E+01 0.00000E+00
 -1      1911 9.69000E+01 4.61030E+01 0.00000E+00
 -1      1912 9.46500E+01 4.48040E+01 0.00000E+00
 -1      1913 9.84000E+01 4.61030E+01 0.00000E+00
 -1      1914 9.99000E+01 4.61030E+01 0.00000E+00
 -1      1915 9.76500E+01 4.48040E+01 0.00000E+00
 -1      1916 1.01400E+02 4.61030E+01 0.00000E+00
 -1      1917 1.02900E+02 4.61030E+01 0.00000E+00
 -1      1918 1.00650E+02 4.48040E+01 0.00000E+00
 -1      1919 1.04400E+02 4.61030E+01 0.00000E+00
 -1      1920 1.05900E+02 4.61030E+01 0.00000E+00
 -1      1921 1.03650E+02 4.48040E+01 0.00000E+00
 -1      1922 1.07400E+02 4.61030E+01 0.00000E+00
 -1      1923 1.08900E+02 4.61030E+01 0.00000E+00
 -1      1924 1.06650E+02 4.48040E+01 0.00000E+00
 -1      1925 1.10400E+02 4.61030E+01 0.00000E+00
 -1      1926 1.11900E+02 4.61030E+01 0.00000E+00
 -1      1927 1.09650E+02 4.48040E+01 0.00000E+00
 -1      1928 1.13400E+02 4.61030E+01 0.00000E+00
 -1      1929 1.14900E+02 4.61030E+01 0.00000E+00
 -1      1930 1.12650E+02 4.48040E+01 0.00000E+00
 -1      1931 1.16400E+02 4.61030E+01 0.00000E+00
 -1      1932 1.17900E+02 4.61030E+01 0.00000E+00
 -1      1933 1.15650E+02 4.48040E+01 0.00000E+00
 -1      1934 1.19400E+02 4.61030E+01 0.00000E+00
 -1      1935 1.20900E+02 4.61030E+01 0.00000E+00
 -1      1936 1.18650E+02 4.48040E+01 0.00000E+00
 -1      1937 1.22400E+02 4.61030E+01 0.00000E+00
 -1      1938 1.23900E+02 4.61030E+01 0.00000E+00
 -1      1939 1.21650E+02 4.48040E+01 0.00000E+00
 -1      1940 1.25400E+02 4.61030E+01 0.00000E+00
 -1      1941 1.26900E+02 4.61030E+01 0.00000E+00
 -1      1942 1.24650E+02 4.48040E+01 0.00000E+00
 -1      1943 1.28400E+02 4.61030E+01 0.00000E+00
 -1      1944 1.29900E+02 4.61030E+01 0.00000E+00
 -1      1945 1.27650E+02 4.48040E+01 0.00000E+00
 -1      1946 1.31400E+02 4.61030E+01 0.00000E+00
 -1      1947 1.32900E+02 4.61030E+01 0.00000E+00
 -1      1948 1.30650E+02 4.48040E+01 0.00000E+00
 -1      1949 1.34400E+02 4.61030E+01 0.00000E+00
 -1      1950 1.35900E+02 4.61030E+01 0.00000E+00
 -1      1951 1.33650E+02 4.48040E+01 0.00000E+00
 -1      1952 1.37400E+02 4.61030E+01 0.00000E+00
 -1      1953 1.38900E+02 4.61030E+01 0.00000E+00
 -1      1954 1.36650E+02 4.48040E+01 0.00000E+00
 -1      1955 1.40400E+02 4.61030E+01 0.00000E+00
 -1      1956 1.41900E+02 4.61030E+01 0.00000E+00
 -1      1957 1.39650E+02 4.48040E+01 0.00000E+00
 -1      1958 1.43244E+02 4.61616E+01 0.00000E+00
 -1      1959 1.44744E+02 4.61616E+01 0.00000E+00
 -1      1960 1.45182E+02 4.49799E+01 0.00000E+00
 -1      1961 1.42494E+02 4.48626E+01 0.00000E+00
 -1      1962 1.17045E+01 3.09687E+00 0.00000E+00
 -1      1963 1.02045E+01 3.09687E+00 0.00000E+00
 -1      1964 1.00350E+01 4.00625E+00 0.00000E+00
 -1      1965 1.47045E+01 3.09687E+00 0.00000E+00
 -1      1966 1.32045E+01 3.09687E+00 0.00000E+00
 -1      1967 1.30350E+01 4.00625E+00 0.00000E+00
 -1      1968 1.77045E+01 3.09687E+00 0.00000E+00
 -1      1969 1.62045E+01 3.09687E+00 0.00000E+00
 -1      1970 1.60350E+01 4.00625E+00 0.00000E+00
 -1      1971 2.07045E+01 3.09687E+00 0.00000E+00
 -1      1972 1.92045E+01 3.09687E+00 0.00000E+00
 -1      1973 1.90350E+01 4.00625E+00 0.00000E+00
 -1      1974 2.37045E+01 3.09687E+00 0.00000E+00
 -1      1975 2.22045E+01 3.09687E+00 0.00000E+00
 -1      1976 2.20350E+01 4.00625E+00 0.00000E+00
 -1      1977 2.67045E+01 3.09687E+00 0.00000E+00
 -1      1978 2.52045E+01 3.09687E+00 0.00000E+00
 -1      1979 2.50350E+01 4.00625E+00 0.00000E+00
 -1      1980 2.97045E+01 3.09687E+00 0.00000E+00
 -1      1981 2.82045E+01 3.09687E+00 0.00000E+00
 -1      1982 2.80350E+01 4.00625E+00 0.00000E+00
 -1      1983 3.27045E+01 3.09687E+00 0.00000E+00
 -1      1984 3.12045E+01 3.09687E+00 0.00000E+00
 -1      1985 3.10350E+01 4.00625E+00 0.00000E+00
 -1      1986 3.57045E+01 3.09687E+00 0.00000E+00
 -1      1987 3.42045E+01 3.09687E+00 0.00000E+00
 -1      1988 3.40350E+01 4.00625E+00 0.00000E+00
 -1      1989 3.87045E+01 3.09687E+00 0.00000E+00
 -1      1990 3.72045E+01 3.09687E+00 0.00000E+00
 -1      1991 3.70350E+01 4.00625E+00 0.00000E+00
 -1      1992 4.17045E+01 3.09687E+00 0.00000E+00
 -1      1993 4.02045E+01 3.09687E+00 0.00000E+00
 -1      1994 4.00350E+01 4.00625E+00 0.00000E+00
 -1      1995 4.47045E+01 3.09687E+00 0.00000E+00
 -1      1996 4.32045E+01 3.09687E+00 0.00000E+00
 -1      1997 4.30350E+01 4.00625E+00 0.00000E+00
 -1      1998 4.77045E+01 3.09687E+00 0.00000E+00
 -1      1999 4.62045E+01 3.09687E+00 0.00000E+00
 -1      2000 4.60350E+01 4.00625E+00 0.00000E+00
 -1      2001 5.07045E+01 3.09687E+00 0.00000E+00
 -1      2002 4.92045E+01 3.09687E+00 0.00000E+00
 -1      2003 4.90350E+01 4.00625E+00 0.00000E+00
 -1      2004 5.37045E+01 3.09687E+00 0.00000E+00
 -1      2005 5.22045E+01 3.09687E+00 0.00000E+00
 -1      2006 5.20350E+01 4.00625E+00 0.00000E+00
 -1      2007 5.67045E+01 3.09687E+00 0.00000E+00
 -1      2008 5.52045E+01 3.09687E+00 0.00000E+00
 -1      2009 5.50350E+01 4.00625E+00 0.00000E+00
 -1      2010 5.97045E+01 3.09687E+00 0.00000E+00
 -1      2011 5.82045E+01 3.09687E+00 0.00000E+00
 -1      2012 5.80350E+01 4.00625E+00 0.00000E+00
 -1      2013 6.27045E+01 3.09687E+00 0.00000E+00
 -1      2014 6.12045E+01 3.09687E+00 0.00000E+00
 -1      2015 6.10350E+01 4.00625E+00 0.00000E+00
 -1      2016 6.57045E+01 3.09687E+00 0.00000E+00
 -1      2017 6.42045E+01 3.09687E+00 0.00000E+00
 -1      2018 6.40350E+01 4.00625E+00 0.00000E+00
 -1      2019 6.87045E+01 3.09687E+00 0.00000E+00
 -1      2020 6.72045E+01 3.09687E+00 0.00000E+00
 -1      2021 6.70350E+01 4.00625E+00 0.00000E+00
 -1      2022 7.17045E+01 3.09687E+00 0.00000E+00
 -1      2023 7.02045E+01 3.09687E+00 0.00000E+00
 -1      2024 7.00350E+01 4.00625E+00 0.00000E+00
 -1      2025 7.47045E+01 3.09687E+00 0.00000E+00
 -1      2026 7.32045E+01 3.09687E+00 0.00000E+00
 -1      2027 7.30350E+01 4.00625E+00 0.00000E+00
 -1      2028 7.77045E+01 3.09687E+00 0.00000E+00
 -1      2029 7.62045E+01 3.09687E+00 0.00000E+00
 -1      2030 7.60350E+01 4.00625E+00 0.00000E+00
 -1      2031 8.07045E+01 3.09687E+00 0.00000E+00
 -1      2032 7.92045E+01 3.09687E+00 0.00000E+00
 -1      2033 7.90350E+01 4.00625E+00 0.00000E+00
 -1      2034 8.37045E+01 3.09687E+00 0.00000E+00
 -1      2035 8.22045E+01 3.09687E+00 0.00000E+00
 -1      2036 8.20350E+01 4.00625E+00 0.00000E+00
 -1      2037 8.67045E+01 3.09687E+00 0.00000E+00
 -1      2038 8.52045E+01 3.09687E+00 0.00000E+00
 -1      2039 8.50350E+01 4.00625E+00 0.00000E+00
 -1      2040 8.97045E+01 3.09687E+00 0.00000E+00
 -1      2041 8.82045E+01 3.09687E+00 0.00000E+00
 -1      2042 8.80350E+01 4.00625E+00 0.00000E+00
 -1      2043 9.27045E+01 3.09687E+00 0.00000E+00
 -1      2044 9.12045E+01 3.09687E+00 0.00000E+00
 -1      2045 9.10350E+01 4.00625E+00 0.00000E+00
 -1      2046 9.57045E+01 3.09687E+00 0.00000E+00
 -1      2047 9.42045E+01 3.09687E+00 0.00000E+00
 -1      2048 9.40350E+01 4.00625E+00 0.00000E+00
 -1      2049 9.87045E+01 3.09687E+00 0.00000E+00
 -1      2050 9.72045E+01 3.09687E+00 0.00000E+00
 -1      2051 9.70350E+01 4.00625E+00 0.00000E+00
 -1      2052 1.01704E+02 3.09687E+00 0.00000E+00
 -1      2053 1.00204E+02 3.09687E+00 0.00000E+00
 -1      2054 1.00035E+02 4.00625E+00 0.00000E+00
 -1      2055 1.04704E+02 3.09687E+00 0.00000E+00
 -1      2056 1.03204E+02 3.09687E+00 0.00000E+00
 -1      2057 1.03035E+02 4.00625E+00 0.00000E+00
 -1      2058 1.07704E+02 3.09687E+00 0.00000E+00
 -1      2059 1.06204E+02 3.09687E+00 0.00000E+00
 -1      2060 1.06035E+02 4.00625E+00 0.00000E+00
 -1      2061 1.10704E+02 3.09687E+00 0.00000E+00
 -1      2062 1.09204E+02 3.09687E+00 0.00000E+00
 -1      2063 1.09035E+02 4.00625E+00 0.00000E+00
 -1      2064 1.13704E+02 3.09687E+00 0.00000E+00
 -1      2065 1.12204E+02 3.09687E+00 0.00000E+00
 -1      2066 1.12035E+02 4.00625E+00 0.00000E+00
 -1      2067 1.16704E+02 3.09687E+00 0.00000E+00
 -1      2068 1.15204E+02 3.09687E+00 0.00000E+00
 -1      2069 1.15035E+02 4.00625E+00 0.00000E+00
 -1      2070 1.19704E+02 3.09687E+00 0.00000E+00
 -1      2071 1.18204E+02 3.09687E+00 0.00000E+00
 -1      2072 1.18035E+02 4.00625E+00 0.00000E+00
 -1      2073 1.22704E+02 3.09687E+00 0.00000E+00
 -1      2074 1.21204E+02 3.09687E+00 0.00000E+00
 -1      2075 1.21035E+02 4.00625E+00 0.00000E+00
 -1      2076 1.25704E+02 3.09687E+00 0.00000E+00
 -1      2077 1.24204E+02 3.09687E+00 0.00000E+00
 -1      2078 1.24035E+02 4.00625E+00 0.00000E+00
 -1      2079 1.28704E+02 3.09687E+00 0.00000E+00
 -1      2080 1.27204E+02 3.09687E+00 0.00000E+00
 -1      2081 1.27035E+02 4.00625E+00 0.00000E+00
 -1      2082 1.31704E+02 3.09687E+00 0.00000E+00
 -1      2083 1.30204E+02 3.09687E+00 0.00000E+00
 -1      2084 1.30035E+02 4.00625E+00 0.00000E+00
 -1      2085 1.34704E+02 3.09687E+00 0.00000E+00
 -1      2086 1.33204E+02 3.09687E+00 0.00000E+00
 -1      2087 1.33035E+02 4.00625E+00 0.00000E+00
 -1      2088 1.37704E+02 3.09687E+00 0.00000E+00
 -1      2089 1.36204E+02 3.09687E+00 0.00000E+00
 -1      2090 1.36035E+02 4.00625E+00 0.00000E+00
 -1      2091 1.40704E+02 3.09687E+00 0.00000E+00
 -1      2092 1.39204E+02 3.09687E+00 0.00000E+00
 -1      2093 1.39035E+02 4.00625E+00 0.00000E+00
 -1      2094 1.43704E+02 3.09687E+00 0.00000E+00
 -1      2095 1.42204E+02 3.09687E+00 0.00000E+00
 -1      2096 1.42035E+02 4.00625E+00 0.00000E+00
 -1      2097 1.46171E+02 3.20156E+00 0.00000E+00
 -1      2098 1.44671E+02 3.20156E+00 0.00000E+00
 -1      2099 1.44502E+02 4.11094E+00 0.00000E+00
 -1      2100 1.46435E+02 4.32031E+00 0.00000E+00
 -1      2101 1.46103E+02 1.25375E+01 0.00000E+00
 -1      2102 1.46103E+02 1.10625E+01 0.00000E+00
 -1      2103 1.46103E+02 9.58750E+00 0.00000E+00
 -1      2104 1.46103E+02 8.11250E+00 0.00000E+00
 -1      2105 1.44804E+02 1.03250E+01 0.00000E+00
 -1      2106 1.46269E+02 6.95391E+00 0.00000E+00
 -1      2107 1.46269E+02 5.47891E+00 0.00000E+00
 -1      2108 1.45302E+02 5.37422E+00 0.00000E+00
 -1      2109 1.44970E+02 7.69141E+00 0.00000E+00
 -1      2110 1.46103E+02 1.54375E+01 0.00000E+00
 -1      2111 1.46103E+02 1.39875E+01 0.00000E+00
 -1      2112 1.44804E+02 1.32500E+01 0.00000E+00
 -1      2113 1.46103E+02 1.83875E+01 0.00000E+00
 -1      2114 1.46103E+02 1.69125E+01 0.00000E+00
 -1      2115 1.44804E+02 1.61750E+01 0.00000E+00
 -1      2116 1.46103E+02 2.13375E+01 0.00000E+00
 -1      2117 1.46103E+02 1.98625E+01 0.00000E+00
 -1      2118 1.44804E+02 1.91250E+01 0.00000E+00
 -1      2119 1.46103E+02 2.42875E+01 0.00000E+00
 -1      2120 1.46103E+02 2.28125E+01 0.00000E+00
 -1      2121 1.44804E+02 2.20750E+01 0.00000E+00
 -1      2122 1.46103E+02 2.72375E+01 0.00000E+00
 -1      2123 1.46103E+02 2.57625E+01 0.00000E+00
 -1      2124 1.44804E+02 2.50250E+01 0.00000E+00
 -1      2125 1.46103E+02 3.01875E+01 0.00000E+00
 -1      2126 1.46103E+02 2.87125E+01 0.00000E+00
 -1      2127 1.44804E+02 2.79750E+01 0.00000E+00
 -1      2128 1.46103E+02 3.30875E+01 0.00000E+00
 -1      2129 1.46103E+02 3.16375E+01 0.00000E+00
 -1      2130 1.44804E+02 3.09000E+01 0.00000E+00
 -1      2131 1.46103E+02 3.60375E+01 0.00000E+00
 -1      2132 1.46103E+02 3.45625E+01 0.00000E+00
 -1      2133 1.44804E+02 3.38250E+01 0.00000E+00
 -1      2134 1.46103E+02 3.89875E+01 0.00000E+00
 -1      2135 1.46103E+02 3.75125E+01 0.00000E+00
 -1      2136 1.44804E+02 3.67750E+01 0.00000E+00
 -1      2137 1.46103E+02 4.19375E+01 0.00000E+00
 -1      2138 1.46103E+02 4.04625E+01 0.00000E+00
 -1      2139 1.44804E+02 3.97250E+01 0.00000E+00
 -1      2140 6.76893E+01 1.85881E+01 0.00000E+00
 -1      2141 6.81163E+01 1.93370E+01 0.00000E+00
 -1      2142 6.88585E+01 2.21928E+01 0.00000E+00
 -1      2143 6.89015E+01 2.30664E+01 0.00000E+00
 -1      2144 6.85665E+01 2.04498E+01 0.00000E+00
 -1      2145 6.87125E+01 2.13213E+01 0.00000E+00
 -1      2146 6.95487E+01 2.17179E+01 0.00000E+00
 -1      2147 6.67798E+01 1.71957E+01 0.00000E+00
 -1      2148 6.72346E+01 1.78919E+01 0.00000E+00
 -1      2149 6.80474E+01 1.79246E+01 0.00000E+00
 -1      2150 6.54301E+01 1.58292E+01 0.00000E+00
 -1      2151 6.60799E+01 1.63629E+01 0.00000E+00
 -1      2152 3.89700E+00 3.74688E+01 0.00000E+00
 -1      2153 3.89700E+00 3.89437E+01 0.00000E+00
 -1      2154 5.19600E+00 3.96813E+01 0.00000E+00
 -1      2155 5.19600E+00 3.67438E+01 0.00000E+00
 -1      2156 6.22852E+01 1.41782E+01 0.00000E+00
 -1      2157 6.30828E+01 1.44903E+01 0.00000E+00
 -1      2158 6.04199E+01 1.36173E+01 0.00000E+00
 -1      2159 6.13070E+01 1.37218E+01 0.00000E+00
 -1      2160 5.84937E+01 1.38771E+01 0.00000E+00
 -1      2161 5.93455E+01 1.37540E+01 0.00000E+00
 -1      2162 5.67812E+01 1.42519E+01 0.00000E+00
 -1      2163 5.76375E+01 1.40645E+01 0.00000E+00
 -1      2164 5.79586E+01 1.32786E+01 0.00000E+00
 -1      2165 5.50149E+01 1.52598E+01 0.00000E+00
 -1      2166 5.57302E+01 1.47581E+01 0.00000E+00
 -1      2167 5.35276E+01 1.63154E+01 0.00000E+00
 -1      2168 5.42506E+01 1.57663E+01 0.00000E+00
 -1      2169 5.22030E+01 1.79738E+01 0.00000E+00
 -1      2170 5.26774E+01 1.71582E+01 0.00000E+00
 -1      2171 5.14963E+01 1.97086E+01 0.00000E+00
 -1      2172 5.18306E+01 1.89063E+01 0.00000E+00
 -1      2173 5.09628E+01 2.14880E+01 0.00000E+00
 -1      2174 5.11558E+01 2.06380E+01 0.00000E+00
 -1      2175 5.09950E+01 2.34348E+01 0.00000E+00
 -1      2176 5.09264E+01 2.25645E+01 0.00000E+00
 -1      2177 5.12708E+01 2.52276E+01 0.00000E+00
 -1      2178 5.10677E+01 2.44108E+01 0.00000E+00
 -1      2179 5.20770E+01 2.68525E+01 0.00000E+00
 -1      2180 5.17182E+01 2.61037E+01 0.00000E+00
 -1      2181 5.28600E+01 2.85508E+01 0.00000E+00
 -1      2182 5.24343E+01 2.76843E+01 0.00000E+00
 -1      2183 5.46535E+01 2.99976E+01 0.00000E+00
 -1      2184 5.37893E+01 2.95529E+01 0.00000E+00
 -1      2185 5.61320E+01 3.07410E+01 0.00000E+00
 -1      2186 5.53927E+01 3.03693E+01 0.00000E+00
 -1      2187 5.46258E+01 3.07977E+01 0.00000E+00
 -1      2188 5.78760E+01 3.13947E+01 0.00000E+00
 -1      2189 5.70756E+01 3.11379E+01 0.00000E+00
 -1      2190 5.97007E+01 3.16479E+01 0.00000E+00
 -1      2191 5.88514E+01 3.15576E+01 0.00000E+00
 -1      2192 6.15594E+01 3.13348E+01 0.00000E+00
 -1      2193 6.07567E+01 3.15354E+01 0.00000E+00
 -1      2194 6.31610E+01 3.09320E+01 0.00000E+00
 -1      2195 6.23602E+01 3.11334E+01 0.00000E+00
 -1      2196 6.21160E+01 3.18624E+01 0.00000E+00
 -1      2197 6.48292E+01 3.00729E+01 0.00000E+00
 -1      2198 6.41376E+01 3.05406E+01 0.00000E+00
 -1      2199 6.61722E+01 2.89237E+01 0.00000E+00
 -1      2200 6.55628E+01 2.94899E+01 0.00000E+00
 -1      2201 6.74099E+01 2.76056E+01 0.00000E+00
 -1      2202 6.68800E+01 2.82779E+01 0.00000E+00
 -1      2203 6.81296E+01 2.58279E+01 0.00000E+00
 -1      2204 6.78249E+01 2.66241E+01 0.00000E+00
 -1      2205 6.87087E+01 2.41417E+01 0.00000E+00
 -1      2206 6.84929E+01 2.49691E+01 0.00000E+00
 -1      2207 6.39750E+01 1.48323E+01 0.00000E+00
 -1      2208 6.46859E+01 1.52552E+01 0.00000E+00
 -1      2209 6.42300E+00 4.57510E+01 0.00000E+00
 -1      2210 5.53216E+01 1.36925E+01 0.00000E+00
 -1      2211 5.60514E+01 1.39722E+01 0.00000E+00
 -1      2212 5.63725E+01 1.31863E+01 0.00000E+00
 -1      2213 6.38124E+01 1.40727E+01 0.00000E+00
 -1      2214 7.17300E+00 4.44520E+01 0.00000E+00
 -1      2215 6.89525E+01 1.97336E+01 0.00000E+00
 -1      2216 1.45665E+02 4.31193E+01 0.00000E+00
 -1      2217 6.68928E+01 1.63956E+01 0.00000E+00
 -1      2218 6.95018E+01 2.36648E+01 0.00000E+00
 -1      2219 6.54487E+01 1.49888E+01 0.00000E+00
 -1      2220 6.89457E+01 2.55989E+01 0.00000E+00
 -1      2221 6.81676E+01 2.74392E+01 0.00000E+00
 -1      2222 6.70449E+01 2.90665E+01 0.00000E+00
 -1      2223 6.38934E+01 3.12697E+01 0.00000E+00
 -1      2224 6.02592E+01 3.21763E+01 0.00000E+00
 -1      2225 5.63086E+01 3.15663E+01 0.00000E+00
 -1      2226 5.29572E+01 2.94239E+01 0.00000E+00
 -1      2227 5.21250E+01 2.92949E+01 0.00000E+00
 -1      2228 5.30544E+01 3.02970E+01 0.00000E+00
 -1      2229 5.16705E+01 2.75900E+01 0.00000E+00
 -1      2230 5.08657E+01 2.58820E+01 0.00000E+00
 -1      2231 5.03456E+01 2.40299E+01 0.00000E+00
 -1      2232 5.03092E+01 2.19774E+01 0.00000E+00
 -1      2233 5.06861E+01 1.99715E+01 0.00000E+00
 -1      2234 5.13989E+01 1.81095E+01 0.00000E+00
 -1      2235 5.26216E+01 1.63342E+01 0.00000E+00
 -1      2236 6.19420E+01 1.32743E+01 0.00000E+00
 -1      2237 5.98893E+01 1.29545E+01 0.00000E+00
 -1      2238 5.42361E+01 1.49849E+01 0.00000E+00
 -1      2239 5.82276E+01 3.21260E+01 0.00000E+00
 -1      2240 6.56035E+01 3.02953E+01 0.00000E+00
 -1      2241 1.07850E+01 5.30525E+00 0.00000E+00
 -1      2242 9.28500E+00 5.30525E+00 0.00000E+00
 -1      2243 6.49500E+00 3.01125E+01 0.00000E+00
 -1      2244 6.49500E+00 3.15875E+01 0.00000E+00
 -1      2245 6.49500E+00 3.30625E+01 0.00000E+00
 -1      2246 6.49500E+00 3.45375E+01 0.00000E+00
 -1      2247 7.79400E+00 3.23250E+01 0.00000E+00
 -1      2248 6.49500E+00 2.42125E+01 0.00000E+00
 -1      2249 6.49500E+00 2.56875E+01 0.00000E+00
 -1      2250 6.49500E+00 2.12625E+01 0.00000E+00
 -1      2251 6.49500E+00 2.27375E+01 0.00000E+00
 -1      2252 7.79400E+00 2.34750E+01 0.00000E+00
 -1      2253 6.49500E+00 1.83625E+01 0.00000E+00
 -1      2254 6.49500E+00 1.98125E+01 0.00000E+00
 -1      2255 7.79400E+00 2.05500E+01 0.00000E+00
 -1      2256 6.49500E+00 1.54125E+01 0.00000E+00
 -1      2257 6.49500E+00 1.68875E+01 0.00000E+00
 -1      2258 7.79400E+00 1.76250E+01 0.00000E+00
 -1      2259 6.49500E+00 1.24625E+01 0.00000E+00
 -1      2260 6.49500E+00 1.39375E+01 0.00000E+00
 -1      2261 7.79400E+00 1.46750E+01 0.00000E+00
 -1      2262 6.49500E+00 9.51250E+00 0.00000E+00
 -1      2263 6.49500E+00 1.09875E+01 0.00000E+00
 -1      2264 7.79400E+00 1.17250E+01 0.00000E+00
 -1      2265 1.37850E+01 5.30525E+00 0.00000E+00
 -1      2266 1.22850E+01 5.30525E+00 0.00000E+00
 -1      2267 1.15350E+01 6.60425E+00 0.00000E+00
 -1      2268 9.90000E+00 4.35050E+01 0.00000E+00
 -1      2269 1.14000E+01 4.35050E+01 0.00000E+00
 -1      2270 1.29000E+01 4.35050E+01 0.00000E+00
 -1      2271 1.44000E+01 4.35050E+01 0.00000E+00
 -1      2272 1.21500E+01 4.22060E+01 0.00000E+00
 -1      2273 1.59000E+01 4.35050E+01 0.00000E+00
 -1      2274 1.74000E+01 4.35050E+01 0.00000E+00
 -1      2275 1.51500E+01 4.22060E+01 0.00000E+00
 -1      2276 1.89000E+01 4.35050E+01 0.00000E+00
 -1      2277 2.04000E+01 4.35050E+01 0.00000E+00
 -1      2278 1.81500E+01 4.22060E+01 0.00000E+00
 -1      2279 2.19000E+01 4.35050E+01 0.00000E+00
 -1      2280 2.34000E+01 4.35050E+01 0.00000E+00
 -1      2281 2.11500E+01 4.22060E+01 0.00000E+00
 -1      2282 2.49000E+01 4.35050E+01 0.00000E+00
 -1      2283 2.64000E+01 4.35050E+01 0.00000E+00
 -1      2284 2.41500E+01 4.22060E+01 0.00000E+00
 -1      2285 2.79000E+01 4.35050E+01 0.00000E+00
 -1      2286 2.94000E+01 4.35050E+01 0.00000E+00
 -1      2287 2.71500E+01 4.22060E+01 0.00000E+00
 -1      2288 3.09000E+01 4.35050E+01 0.00000E+00
 -1      2289 3.24000E+01 4.35050E+01 0.00000E+00
 -1      2290 3.01500E+01 4.22060E+01 0.00000E+00
 -1      2291 3.39000E+01 4.35050E+01 0.00000E+00
 -1      2292 3.54000E+01 4.35050E+01 0.00000E+00
 -1      2293 3.31500E+01 4.22060E+01 0.00000E+00
 -1      2294 3.69000E+01 4.35050E+01 0.00000E+00
 -1      2295 3.84000E+01 4.35050E+01 0.00000E+00
 -1      2296 3.61500E+01 4.22060E+01 0.00000E+00
 -1      2297 3.99000E+01 4.35050E+01 0.00000E+00
 -1      2298 4.14000E+01 4.35050E+01 0.00000E+00
 -1      2299 3.91500E+01 4.22060E+01 0.00000E+00
 -1      2300 4.29000E+01 4.35050E+01 0.00000E+00
 -1      2301 4.44000E+01 4.35050E+01 0.00000E+00
 -1      2302 4.21500E+01 4.22060E+01 0.00000E+00
 -1      2303 4.59000E+01 4.35050E+01 0.00000E+00
 -1      2304 4.74000E+01 4.35050E+01 0.00000E+00
 -1      2305 4.51500E+01 4.22060E+01 0.00000E+00
 -1      2306 4.89000E+01 4.35050E+01 0.00000E+00
 -1      2307 5.04000E+01 4.35050E+01 0.00000E+00
 -1      2308 4.81500E+01 4.22060E+01 0.00000E+00
 -1      2309 5.19000E+01 4.35050E+01 0.00000E+00
 -1      2310 5.34000E+01 4.35050E+01 0.00000E+00
 -1      2311 5.11500E+01 4.22060E+01 0.00000E+00
 -1      2312 5.49000E+01 4.35050E+01 0.00000E+00
 -1      2313 5.64000E+01 4.35050E+01 0.00000E+00
 -1      2314 5.41500E+01 4.22060E+01 0.00000E+00
 -1      2315 5.79000E+01 4.35050E+01 0.00000E+00
 -1      2316 5.94000E+01 4.35050E+01 0.00000E+00
 -1      2317 5.71500E+01 4.22060E+01 0.00000E+00
 -1      2318 6.09000E+01 4.35050E+01 0.00000E+00
 -1      2319 6.24000E+01 4.35050E+01 0.00000E+00
 -1      2320 6.01500E+01 4.22060E+01 0.00000E+00
 -1      2321 6.39000E+01 4.35050E+01 0.00000E+00
 -1      2322 6.54000E+01 4.35050E+01 0.00000E+00
 -1      2323 6.31500E+01 4.22060E+01 0.00000E+00
 -1      2324 6.69000E+01 4.35050E+01 0.00000E+00
 -1      2325 6.84000E+01 4.35050E+01 0.00000E+00
 -1      2326 6.61500E+01 4.22060E+01 0.00000E+00
 -1      2327 6.99000E+01 4.35050E+01 0.00000E+00
 -1      2328 7.14000E+01 4.35050E+01 0.00000E+00
 -1      2329 6.91500E+01 4.22060E+01 0.00000E+00
 -1      2330 7.29000E+01 4.35050E+01 0.00000E+00
 -1      2331 7.44000E+01 4.35050E+01 0.00000E+00
 -1      2332 7.21500E+01 4.22060E+01 0.00000E+00
 -1      2333 7.59000E+01 4.35050E+01 0.00000E+00
 -1      2334 7.74000E+01 4.35050E+01 0.00000E+00
 -1      2335 7.51500E+01 4.22060E+01 0.00000E+00
 -1      2336 7.89000E+01 4.35050E+01 0.00000E+00
 -1      2337 8.04000E+01 4.35050E+01 0.00000E+00
 -1      2338 7.81500E+01 4.22060E+01 0.00000E+00
 -1      2339 8.19000E+01 4.35050E+01 0.00000E+00
 -1      2340 8.34000E+01 4.35050E+01 0.00000E+00
 -1      2341 8.11500E+01 4.22060E+01 0.00000E+00
 -1      2342 8.49000E+01 4.35050E+01 0.00000E+00
 -1      2343 8.64000E+01 4.35050E+01 0.00000E+00
 -1      2344 8.41500E+01 4.22060E+01 0.00000E+00
 -1      2345 8.79000E+01 4.35050E+01 0.00000E+00
 -1      2346 8.94000E+01 4.35050E+01 0.00000E+00
 -1      2347 8.71500E+01 4.22060E+01 0.00000E+00
 -1      2348 9.09000E+01 4.35050E+01 0.00000E+00
 -1      2349 9.24000E+01 4.35050E+01 0.00000E+00
 -1      2350 9.01500E+01 4.22060E+01 0.00000E+00
 -1      2351 9.39000E+01 4.35050E+01 0.00000E+00
 -1      2352 9.54000E+01 4.35050E+01 0.00000E+00
 -1      2353 9.31500E+01 4.22060E+01 0.00000E+00
 -1      2354 9.69000E+01 4.35050E+01 0.00000E+00
 -1      2355 9.84000E+01 4.35050E+01 0.00000E+00
 -1      2356 9.61500E+01 4.22060E+01 0.00000E+00
 -1      2357 9.99000E+01 4.35050E+01 0.00000E+00
 -1      2358 1.01400E+02 4.35050E+01 0.00000E+00
 -1      2359 9.91500E+01 4.22060E+01 0.00000E+00
 -1      2360 1.02900E+02 4.35050E+01 0.00000E+00
 -1      2361 1.04400E+02 4.35050E+01 0.00000E+00
 -1      2362 1.02150E+02 4.22060E+01 0.00000E+00
 -1      2363 1.05900E+02 4.35050E+01 0.00000E+00
 -1      2364 1.07400E+02 4.35050E+01 0.00000E+00
 -1      2365 1.05150E+02 4.22060E+01 0.00000E+00
 -1      2366 1.08900E+02 4.35050E+01 0.00000E+00
 -1      2367 1.10400E+02 4.35050E+01 0.00000E+00
 -1      2368 1.08150E+02 4.22060E+01 0.00000E+00
 -1      2369 1.11900E+02 4.35050E+01 0.00000E+00
 -1      2370 1.13400E+02 4.35050E+01 0.00000E+00
 -1      2371 1.11150E+02 4.22060E+01 0.00000E+00
 -1      2372 1.14900E+02 4.35050E+01 0.00000E+00
 -1      2373 1.16400E+02 4.35050E+01 0.00000E+00
 -1      2374 1.14150E+02 4.22060E+01 0.00000E+00
 -1      2375 1.17900E+02 4.35050E+01 0.00000E+00
 -1      2376 1.19400E+02 4.35050E+01 0.00000E+00
 -1      2377 1.17150E+02 4.22060E+01 0.00000E+00
 -1      2378 1.20900E+02 4.35050E+01 0.00000E+00
 -1      2379 1.22400E+02 4.35050E+01 0.00000E+00
 -1      2380 1.20150E+02 4.22060E+01 0.00000E+00
 -1      2381 1.23900E+02 4.35050E+01 0.00000E+00
 -1      2382 1.25400E+02 4.35050E+01 0.00000E+00
 -1      2383 1.23150E+02 4.22060E+01 0.00000E+00
 -1      2384 1.26900E+02 4.35050E+01 0.00000E+00
 -1      2385 1.28400E+02 4.35050E+01 0.00000E+00
 -1      2386 1.26150E+02 4.22060E+01 0.00000E+00
 -1      2387 1.29900E+02 4.35050E+01 0.00000E+00
 -1      2388 1.31400E+02 4.35050E+01 0.00000E+00
 -1      2389 1.29150E+02 4.22060E+01 0.00000E+00
 -1      2390 1.32900E+02 4.35050E+01 0.00000E+00
 -1      2391 1.34400E+02 4.35050E+01 0.00000E+00
 -1      2392 1.32150E+02 4.22060E+01 0.00000E+00
 -1      2393 1.35900E+02 4.35050E+01 0.00000E+00
 -1      2394 1.37400E+02 4.35050E+01 0.00000E+00
 -1      2395 1.35150E+02 4.22060E+01 0.00000E+00
 -1      2396 1.38900E+02 4.35050E+01 0.00000E+00
 -1      2397 1.40400E+02 4.35050E+01 0.00000E+00
 -1      2398 1.38150E+02 4.22060E+01 0.00000E+00
 -1      2399 1.97850E+01 5.30525E+00 0.00000E+00
 -1      2400 1.82850E+01 5.30525E+00 0.00000E+00
 -1      2401 2.27850E+01 5.30525E+00 0.00000E+00
 -1      2402 2.12850E+01 5.30525E+00 0.00000E+00
 -1      2403 2.05350E+01 6.60425E+00 0.00000E+00
 -1      2404 2.57850E+01 5.30525E+00 0.00000E+00
 -1      2405 2.42850E+01 5.30525E+00 0.00000E+00
 -1      2406 2.35350E+01 6.60425E+00 0.00000E+00
 -1      2407 2.87850E+01 5.30525E+00 0.00000E+00
 -1      2408 2.72850E+01 5.30525E+00 0.00000E+00
 -1      2409 2.65350E+01 6.60425E+00 0.00000E+00
 -1      2410 3.17850E+01 5.30525E+00 0.00000E+00
 -1      2411 3.02850E+01 5.30525E+00 0.00000E+00
 -1      2412 2.95350E+01 6.60425E+00 0.00000E+00
 -1      2413 3.47850E+01 5.30525E+00 0.00000E+00
 -1      2414 3.32850E+01 5.30525E+00 0.00000E+00
 -1      2415 3.25350E+01 6.60425E+00 0.00000E+00
 -1      2416 3.77850E+01 5.30525E+00 0.00000E+00
 -1      2417 3.62850E+01 5.30525E+00 0.00000E+00
 -1      2418 3.55350E+01 6.60425E+00 0.00000E+00
 -1      2419 4.07850E+01 5.30525E+00 0.00000E+00
 -1      2420 3.92850E+01 5.30525E+00 0.00000E+00
 -1      2421 3.85350E+01 6.60425E+00 0.00000E+00
 -1      2422 4.37850E+01 5.30525E+00 0.00000E+00
 -1      2423 4.22850E+01 5.30525E+00 0.00000E+00
 -1      2424 4.15350E+01 6.60425E+00 0.00000E+00
 -1      2425 4.67850E+01 5.30525E+00 0.00000E+00
 -1      2426 4.52850E+01 5.30525E+00 0.00000E+00
 -1      2427 4.45350E+01 6.60425E+00 0.00000E+00
 -1      2428 4.97850E+01 5.30525E+00 0.00000E+00
 -1      2429 4.82850E+01 5.30525E+00 0.00000E+00
 -1      2430 4.75350E+01 6.60425E+00 0.00000E+00
 -1      2431 5.27850E+01 5.30525E+00 0.00000E+00
 -1      2432 5.12850E+01 5.30525E+00 0.00000E+00
 -1      2433 5.05350E+01 6.60425E+00 0.00000E+00
 -1      2434 5.57850E+01 5.30525E+00 0.00000E+00
 -1      2435 5.42850E+01 5.30525E+00 0.00000E+00
 -1      2436 5.35350E+01 6.60425E+00 0.00000E+00
 -1      2437 5.87850E+01 5.30525E+00 0.00000E+00
 -1      2438 5.72850E+01 5.30525E+00 0.00000E+00
 -1      2439 5.65350E+01 6.60425E+00 0.00000E+00
 -1      2440 6.17850E+01 5.30525E+00 0.00000E+00
 -1      2441 6.02850E+01 5.30525E+00 0.00000E+00
 -1      2442 5.95350E+01 6.60425E+00 0.00000E+00
 -1      2443 6.47850E+01 5.30525E+00 0.00000E+00
 -1      2444 6.32850E+01 5.30525E+00 0.00000E+00
 -1      2445 6.25350E+01 6.60425E+00 0.00000E+00
 -1      2446 6.77850E+01 5.30525E+00 0.00000E+00
 -1      2447 6.62850E+01 5.30525E+00 0.00000E+00
 -1      2448 6.55350E+01 6.60425E+00 0.00000E+00
 -1      2449 7.07850E+01 5.30525E+00 0.00000E+00
 -1      2450 6.92850E+01 5.30525E+00 0.00000E+00
 -1      2451 6.85350E+01 6.60425E+00 0.00000E+00
 -1      2452 7.37850E+01 5.30525E+00 0.00000E+00
 -1      2453 7.22850E+01 5.30525E+00 0.00000E+00
 -1      2454 7.15350E+01 6.60425E+00 0.00000E+00
 -1      2455 7.67850E+01 5.30525E+00 0.00000E+00
 -1      2456 7.52850E+01 5.30525E+00 0.00000E+00
 -1      2457 7.45350E+01 6.60425E+00 0.00000E+00
 -1      2458 7.97850E+01 5.30525E+00 0.00000E+00
 -1      2459 7.82850E+01 5.30525E+00 0.00000E+00
 -1      2460 7.75350E+01 6.60425E+00 0.00000E+00
 -1      2461 8.27850E+01 5.30525E+00 0.00000E+00
 -1      2462 8.12850E+01 5.30525E+00 0.00000E+00
 -1      2463 8.05350E+01 6.60425E+00 0.00000E+00
 -1      2464 8.57850E+01 5.30525E+00 0.00000E+00
 -1      2465 8.42850E+01 5.30525E+00 0.00000E+00
 -1      2466 8.35350E+01 6.60425E+00 0.00000E+00
 -1      2467 8.87850E+01 5.30525E+00 0.00000E+00
 -1      2468 8.72850E+01 5.30525E+00 0.00000E+00
 -1      2469 8.65350E+01 6.60425E+00 0.00000E+00
 -1      2470 9.17850E+01 5.30525E+00 0.00000E+00
 -1      2471 9.02850E+01 5.30525E+00 0.00000E+00
 -1      2472 8.95350E+01 6.60425E+00 0.00000E+00
 -1      2473 9.47850E+01 5.30525E+00 0.00000E+00
 -1      2474 9.32850E+01 5.30525E+00 0.00000E+00
 -1      2475 9.25350E+01 6.60425E+00 0.00000E+00
 -1      2476 9.77850E+01 5.30525E+00 0.00000E+00
 -1      2477 9.62850E+01 5.30525E+00 0.00000E+00
 -1      2478 9.55350E+01 6.60425E+00 0.00000E+00
 -1      2479 1.00785E+02 5.30525E+00 0.00000E+00
 -1      2480 9.92850E+01 5.30525E+00 0.00000E+00
 -1      2481 9.85350E+01 6.60425E+00 0.00000E+00
 -1      2482 1.03785E+02 5.30525E+00 0.00000E+00
 -1      2483 1.02285E+02 5.30525E+00 0.00000E+00
 -1      2484 1.01535E+02 6.60425E+00 0.00000E+00
 -1      2485 1.06785E+02 5.30525E+00 0.00000E+00
 -1      2486 1.05285E+02 5.30525E+00 0.00000E+00
 -1      2487 1.04535E+02 6.60425E+00 0.00000E+00
 -1      2488 1.09785E+02 5.30525E+00 0.00000E+00
 -1      2489 1.08285E+02 5.30525E+00 0.00000E+00
 -1      2490 1.07535E+02 6.60425E+00 0.00000E+00
 -1      2491 1.12785E+02 5.30525E+00 0.00000E+00
 -1      2492 1.11285E+02 5.30525E+00 0.00000E+00
 -1      2493 1.10535E+02 6.60425E+00 0.00000E+00
 -1      2494 1.15785E+02 5.30525E+00 0.00000E+00
 -1      2495 1.14285E+02 5.30525E+00 0.00000E+00
 -1      2496 1.13535E+02 6.60425E+00 0.00000E+00
 -1      2497 1.18785E+02 5.30525E+00 0.00000E+00
 -1      2498 1.17285E+02 5.30525E+00 0.00000E+00
 -1      2499 1.16535E+02 6.60425E+00 0.00000E+00
 -1      2500 1.21785E+02 5.30525E+00 0.00000E+00
 -1      2501 1.20285E+02 5.30525E+00 0.00000E+00
 -1      2502 1.19535E+02 6.60425E+00 0.00000E+00
 -1      2503 1.24785E+02 5.30525E+00 0.00000E+00
 -1      2504 1.23285E+02 5.30525E+00 0.00000E+00
 -1      2505 1.22535E+02 6.60425E+00 0.00000E+00
 -1      2506 1.27785E+02 5.30525E+00 0.00000E+00
 -1      2507 1.26285E+02 5.30525E+00 0.00000E+00
 -1      2508 1.25535E+02 6.60425E+00 0.00000E+00
 -1      2509 1.30785E+02 5.30525E+00 0.00000E+00
 -1      2510 1.29285E+02 5.30525E+00 0.00000E+00
 -1      2511 1.28535E+02 6.60425E+00 0.00000E+00
 -1      2512 1.33785E+02 5.30525E+00 0.00000E+00
 -1      2513 1.32285E+02 5.30525E+00 0.00000E+00
 -1      2514 1.31535E+02 6.60425E+00 0.00000E+00
 -1      2515 1.36785E+02 5.30525E+00 0.00000E+00
 -1      2516 1.35285E+02 5.30525E+00 0.00000E+00
 -1      2517 1.34535E+02 6.60425E+00 0.00000E+00
 -1      2518 1.39785E+02 5.30525E+00 0.00000E+00
 -1      2519 1.38285E+02 5.30525E+00 0.00000E+00
 -1      2520 1.37535E+02 6.60425E+00 0.00000E+00
 -1      2521 1.42785E+02 5.30525E+00 0.00000E+00
 -1      2522 1.41285E+02 5.30525E+00 0.00000E+00
 -1      2523 1.40535E+02 6.60425E+00 0.00000E+00
 -1      2524 1.44336E+02 5.26953E+00 0.00000E+00
 -1      2525 1.43505E+02 1.69125E+01 0.00000E+00
 -1      2526 1.43505E+02 1.54375E+01 0.00000E+00
 -1      2527 1.43505E+02 1.98625E+01 0.00000E+00
 -1      2528 1.43505E+02 1.83875E+01 0.00000E+00
 -1      2529 1.42206E+02 1.76500E+01 0.00000E+00
 -1      2530 1.43505E+02 1.10625E+01 0.00000E+00
 -1      2531 1.43505E+02 9.58750E+00 0.00000E+00
 -1      2532 1.43505E+02 1.39750E+01 0.00000E+00
 -1      2533 1.43505E+02 1.25250E+01 0.00000E+00
 -1      2534 1.42206E+02 1.17875E+01 0.00000E+00
 -1      2535 1.42206E+02 1.47125E+01 0.00000E+00
 -1      2536 6.84679E+01 1.71534E+01 0.00000E+00
 -1      2537 6.89226E+01 1.78496E+01 0.00000E+00
 -1      2538 1.43505E+02 2.28125E+01 0.00000E+00
 -1      2539 1.43505E+02 2.13375E+01 0.00000E+00
 -1      2540 1.42206E+02 2.06000E+01 0.00000E+00
 -1      2541 1.43505E+02 2.57625E+01 0.00000E+00
 -1      2542 1.43505E+02 2.42875E+01 0.00000E+00
 -1      2543 1.42206E+02 2.35500E+01 0.00000E+00
 -1      2544 1.43505E+02 2.87125E+01 0.00000E+00
 -1      2545 1.43505E+02 2.72375E+01 0.00000E+00
 -1      2546 1.42206E+02 2.65000E+01 0.00000E+00
 -1      2547 1.43505E+02 3.16125E+01 0.00000E+00
 -1      2548 1.43505E+02 3.01625E+01 0.00000E+00
 -1      2549 1.42206E+02 2.94250E+01 0.00000E+00
 -1      2550 1.43505E+02 3.45625E+01 0.00000E+00
 -1      2551 1.43505E+02 3.30875E+01 0.00000E+00
 -1      2552 1.42206E+02 3.23500E+01 0.00000E+00
 -1      2553 1.43505E+02 3.75125E+01 0.00000E+00
 -1      2554 1.43505E+02 3.60375E+01 0.00000E+00
 -1      2555 1.42206E+02 3.53000E+01 0.00000E+00
 -1      2556 1.43505E+02 4.04625E+01 0.00000E+00
 -1      2557 1.43505E+02 3.89875E+01 0.00000E+00
 -1      2558 1.42206E+02 3.82500E+01 0.00000E+00
 -1      2559 1.44321E+02 4.30606E+01 0.00000E+00
 -1      2560 6.71993E+01 1.54275E+01 0.00000E+00
 -1      2561 6.78992E+01 1.62603E+01 0.00000E+00
 -1      2562 1.67850E+01 5.30525E+00 0.00000E+00
 -1      2563 1.52850E+01 5.30525E+00 0.00000E+00
 -1      2564 1.75350E+01 6.60425E+00 0.00000E+00
 -1      2565 7.04041E+01 2.11267E+01 0.00000E+00
 -1      2566 7.05501E+01 2.19982E+01 0.00000E+00
 -1      2567 7.04423E+01 2.32785E+01 0.00000E+00
 -1      2568 7.02495E+01 2.43539E+01 0.00000E+00
 -1      2569 6.55950E+00 4.28890E+01 0.00000E+00
 -1      2570 8.53650E+00 4.32410E+01 0.00000E+00
 -1      2571 9.28650E+00 4.19420E+01 0.00000E+00
 -1      2572 6.55950E+00 4.14140E+01 0.00000E+00
 -1      2573 6.56005E+01 1.40228E+01 0.00000E+00
 -1      2574 6.63446E+01 1.45968E+01 0.00000E+00
 -1      2575 6.08780E+01 3.29728E+01 0.00000E+00
 -1      2576 5.98220E+01 3.30853E+01 0.00000E+00
 -1      2577 6.36582E+01 1.31401E+01 0.00000E+00
 -1      2578 6.45504E+01 1.34821E+01 0.00000E+00
 -1      2579 6.49500E+00 2.71625E+01 0.00000E+00
 -1      2580 6.49500E+00 2.86375E+01 0.00000E+00
 -1      2581 7.79400E+00 2.93750E+01 0.00000E+00
 -1      2582 7.79400E+00 2.64250E+01 0.00000E+00
 -1      2583 5.92545E+01 1.22553E+01 0.00000E+00
 -1      2584 6.03289E+01 1.21186E+01 0.00000E+00
 -1      2585 5.34265E+01 1.45931E+01 0.00000E+00
 -1      2586 5.41908E+01 1.40866E+01 0.00000E+00
 -1      2587 5.73471E+01 1.25346E+01 0.00000E+00
 -1      2588 5.82034E+01 1.23472E+01 0.00000E+00
 -1      2589 5.85879E+01 3.29706E+01 0.00000E+00
 -1      2590 5.76125E+01 3.28078E+01 0.00000E+00
 -1      2591 6.17018E+01 1.22272E+01 0.00000E+00
 -1      2592 6.26800E+01 1.26837E+01 0.00000E+00
 -1      2593 6.34181E+01 1.20930E+01 0.00000E+00
 -1      2594 5.16517E+01 1.62060E+01 0.00000E+00
 -1      2595 5.25020E+01 1.53632E+01 0.00000E+00
 -1      2596 5.04552E+01 1.82733E+01 0.00000E+00
 -1      2597 5.08276E+01 1.73407E+01 0.00000E+00
 -1      2598 4.97743E+01 2.01322E+01 0.00000E+00
 -1      2599 5.01148E+01 1.92027E+01 0.00000E+00
 -1      2600 4.95435E+01 1.84340E+01 0.00000E+00
 -1      2601 4.94339E+01 2.24866E+01 0.00000E+00
 -1      2602 4.94703E+01 2.14102E+01 0.00000E+00
 -1      2603 4.96521E+01 2.45723E+01 0.00000E+00
 -1      2604 4.95794E+01 2.35963E+01 0.00000E+00
 -1      2605 5.04003E+01 2.66720E+01 0.00000E+00
 -1      2606 4.99529E+01 2.57959E+01 0.00000E+00
 -1      2607 5.11150E+01 2.83356E+01 0.00000E+00
 -1      2608 5.07577E+01 2.75038E+01 0.00000E+00
 -1      2609 4.98449E+01 2.74176E+01 0.00000E+00
 -1      2610 5.46102E+01 3.17497E+01 0.00000E+00
 -1      2611 5.38709E+01 3.13781E+01 0.00000E+00
 -1      2612 6.64778E+01 3.06424E+01 0.00000E+00
 -1      2613 6.57442E+01 3.12254E+01 0.00000E+00
 -1      2614 5.64973E+01 3.25435E+01 0.00000E+00
 -1      2615 5.55538E+01 3.21466E+01 0.00000E+00
 -1      2616 5.47989E+01 3.27270E+01 0.00000E+00
 -1      2617 6.27051E+01 3.25122E+01 0.00000E+00
 -1      2618 6.19043E+01 3.27135E+01 0.00000E+00
 -1      2619 6.46695E+01 3.17922E+01 0.00000E+00
 -1      2620 6.36929E+01 3.21836E+01 0.00000E+00
 -1      2621 6.78933E+01 2.93508E+01 0.00000E+00
 -1      2622 6.71856E+01 2.99966E+01 0.00000E+00
 -1      2623 6.73262E+01 3.09267E+01 0.00000E+00
 -1      2624 6.91649E+01 2.72824E+01 0.00000E+00
 -1      2625 6.87500E+01 2.82639E+01 0.00000E+00
 -1      2626 6.98914E+01 2.55648E+01 0.00000E+00
 -1      2627 6.95281E+01 2.64236E+01 0.00000E+00
 -1      2628 7.01106E+01 2.72483E+01 0.00000E+00
 -1      2629 8.07525E+00 5.11044E+00 0.00000E+00
 -1      2630 6.57525E+00 5.11044E+00 0.00000E+00
 -1      2631 6.40575E+00 6.01981E+00 0.00000E+00
 -1      2632 8.82525E+00 6.40944E+00 0.00000E+00
 -1      2633 6.95036E+01 1.89011E+01 0.00000E+00
 -1      2634 6.99539E+01 2.00139E+01 0.00000E+00
 -1      2635 7.09553E+01 2.02942E+01 0.00000E+00
 -1      2636 6.04321E+01 1.08287E+01 0.00000E+00
 -1      2637 6.10670E+01 1.15280E+01 0.00000E+00
 -1      2638 6.18050E+01 1.09373E+01 0.00000E+00
 -1      2639 7.79400E+00 3.52687E+01 0.00000E+00
 -1      2640 6.49500E+00 3.60062E+01 0.00000E+00
 -1      2641 6.49500E+00 3.74750E+01 0.00000E+00
 -1      2642 1.45350E+01 6.60425E+00 0.00000E+00
 -1      2643 6.40575E+00 7.49481E+00 0.00000E+00
 -1      2644 6.99240E+01 1.81299E+01 0.00000E+00
 -1      2645 5.45120E+01 1.33007E+01 0.00000E+00
 -1      2646 6.54463E+01 1.30901E+01 0.00000E+00
 -1      2647 5.66173E+01 1.22549E+01 0.00000E+00
 -1      2648 7.08319E+01 2.51785E+01 0.00000E+00
 -1      2649 6.87744E+01 1.61852E+01 0.00000E+00
 -1      2650 6.88907E+01 2.91940E+01 0.00000E+00
 -1      2651 6.90313E+01 3.01240E+01 0.00000E+00
 -1      2652 6.98880E+01 2.90371E+01 0.00000E+00
 -1      2653 1.43586E+02 6.56853E+00 0.00000E+00
 -1      2654 1.43419E+02 7.72713E+00 0.00000E+00
 -1      2655 1.42758E+02 4.35929E+01 0.00000E+00
 -1      2656 1.43241E+02 4.17323E+01 0.00000E+00
 -1      2657 1.41942E+02 4.09948E+01 0.00000E+00
 -1      2658 1.41414E+02 4.35342E+01 0.00000E+00
 -1      2659 6.73511E+01 1.44615E+01 0.00000E+00
 -1      2660 6.55438E+01 3.21393E+01 0.00000E+00
 -1      2661 5.68576E+01 3.33881E+01 0.00000E+00
 -1      2662 7.70475E+00 8.23231E+00 0.00000E+00
 -1      2663 5.12122E+01 2.92087E+01 0.00000E+00
 -1      2664 5.02994E+01 2.91225E+01 0.00000E+00
 -1      2665 5.13094E+01 3.00818E+01 0.00000E+00
 -1      2666 6.14671E+01 3.36225E+01 0.00000E+00
 -1      2667 5.92068E+01 3.37671E+01 0.00000E+00
 -1      2668 5.30233E+01 3.22010E+01 0.00000E+00
 -1      2669 5.30388E+01 3.12490E+01 0.00000E+00
 -1      2670 5.22067E+01 3.11200E+01 0.00000E+00
 -1      2671 4.91867E+01 2.53623E+01 0.00000E+00
 -1      2672 4.88990E+01 2.06414E+01 0.00000E+00
 -1      2673 5.24567E+01 1.44650E+01 0.00000E+00
 -1      2674 6.55950E+00 3.99453E+01 0.00000E+00
 -1      2675 7.12977E+01 2.26872E+01 0.00000E+00
 -1      2676 5.86430E+01 1.15113E+01 0.00000E+00
 -1      2677 5.07080E+01 1.63698E+01 0.00000E+00
 -1      2678 5.05884E+01 1.53989E+01 0.00000E+00
 -1      2679 4.97644E+01 1.65336E+01 0.00000E+00
 -1      2680 4.87405E+01 2.30291E+01 0.00000E+00
 -1      2681 6.34813E+01 3.30347E+01 0.00000E+00
 -1      2682 1.42120E+02 8.46463E+00 0.00000E+00
 -1      2683 1.40664E+02 4.22352E+01 0.00000E+00
 -1      2684 9.09300E+00 1.98250E+01 0.00000E+00
 -1      2685 9.09300E+00 2.12750E+01 0.00000E+00
 -1      2686 9.09300E+00 2.27500E+01 0.00000E+00
 -1      2687 9.09300E+00 2.42250E+01 0.00000E+00
 -1      2688 1.03920E+01 2.20250E+01 0.00000E+00
 -1      2689 9.09300E+00 1.39375E+01 0.00000E+00
 -1      2690 9.09300E+00 1.54125E+01 0.00000E+00
 -1      2691 9.09300E+00 1.09875E+01 0.00000E+00
 -1      2692 9.09300E+00 1.24625E+01 0.00000E+00
 -1      2693 1.03920E+01 1.32000E+01 0.00000E+00
 -1      2694 1.22850E+01 7.90325E+00 0.00000E+00
 -1      2695 1.07850E+01 7.90325E+00 0.00000E+00
 -1      2696 1.52850E+01 7.90325E+00 0.00000E+00
 -1      2697 1.37850E+01 7.90325E+00 0.00000E+00
 -1      2698 1.30350E+01 9.20225E+00 0.00000E+00
 -1      2699 1.44000E+01 4.09070E+01 0.00000E+00
 -1      2700 1.59000E+01 4.09070E+01 0.00000E+00
 -1      2701 1.74000E+01 4.09070E+01 0.00000E+00
 -1      2702 1.89000E+01 4.09070E+01 0.00000E+00
 -1      2703 1.66500E+01 3.96080E+01 0.00000E+00
 -1      2704 2.04000E+01 4.09070E+01 0.00000E+00
 -1      2705 2.19000E+01 4.09070E+01 0.00000E+00
 -1      2706 1.96500E+01 3.96080E+01 0.00000E+00
 -1      2707 2.34000E+01 4.09070E+01 0.00000E+00
 -1      2708 2.49000E+01 4.09070E+01 0.00000E+00
 -1      2709 2.26500E+01 3.96080E+01 0.00000E+00
 -1      2710 2.64000E+01 4.09070E+01 0.00000E+00
 -1      2711 2.79000E+01 4.09070E+01 0.00000E+00
 -1      2712 2.56500E+01 3.96080E+01 0.00000E+00
 -1      2713 2.94000E+01 4.09070E+01 0.00000E+00
 -1      2714 3.09000E+01 4.09070E+01 0.00000E+00
 -1      2715 2.86500E+01 3.96080E+01 0.00000E+00
 -1      2716 3.24000E+01 4.09070E+01 0.00000E+00
 -1      2717 3.39000E+01 4.09070E+01 0.00000E+00
 -1      2718 3.16500E+01 3.96080E+01 0.00000E+00
 -1      2719 3.54000E+01 4.09070E+01 0.00000E+00
 -1      2720 3.69000E+01 4.09070E+01 0.00000E+00
 -1      2721 3.46500E+01 3.96080E+01 0.00000E+00
 -1      2722 3.84000E+01 4.09070E+01 0.00000E+00
 -1      2723 3.99000E+01 4.09070E+01 0.00000E+00
 -1      2724 3.76500E+01 3.96080E+01 0.00000E+00
 -1      2725 4.14000E+01 4.09070E+01 0.00000E+00
 -1      2726 4.29000E+01 4.09070E+01 0.00000E+00
 -1      2727 4.06500E+01 3.96080E+01 0.00000E+00
 -1      2728 4.44000E+01 4.09070E+01 0.00000E+00
 -1      2729 4.59000E+01 4.09070E+01 0.00000E+00
 -1      2730 4.36500E+01 3.96080E+01 0.00000E+00
 -1      2731 4.74000E+01 4.09070E+01 0.00000E+00
 -1      2732 4.89000E+01 4.09070E+01 0.00000E+00
 -1      2733 4.66500E+01 3.96080E+01 0.00000E+00
 -1      2734 5.04000E+01 4.09070E+01 0.00000E+00
 -1      2735 5.19000E+01 4.09070E+01 0.00000E+00
 -1      2736 4.96500E+01 3.96080E+01 0.00000E+00
 -1      2737 5.34000E+01 4.09070E+01 0.00000E+00
 -1      2738 5.49000E+01 4.09070E+01 0.00000E+00
 -1      2739 5.26500E+01 3.96080E+01 0.00000E+00
 -1      2740 5.64000E+01 4.09070E+01 0.00000E+00
 -1      2741 5.79000E+01 4.09070E+01 0.00000E+00
 -1      2742 5.56500E+01 3.96080E+01 0.00000E+00
 -1      2743 5.94000E+01 4.09070E+01 0.00000E+00
 -1      2744 6.09000E+01 4.09070E+01 0.00000E+00
 -1      2745 5.86500E+01 3.96080E+01 0.00000E+00
 -1      2746 6.24000E+01 4.09070E+01 0.00000E+00
 -1      2747 6.39000E+01 4.09070E+01 0.00000E+00
 -1      2748 6.16500E+01 3.96080E+01 0.00000E+00
 -1      2749 6.54000E+01 4.09070E+01 0.00000E+00
 -1      2750 6.69000E+01 4.09070E+01 0.00000E+00
 -1      2751 6.46500E+01 3.96080E+01 0.00000E+00
 -1      2752 6.84000E+01 4.09070E+01 0.00000E+00
 -1      2753 6.99000E+01 4.09070E+01 0.00000E+00
 -1      2754 6.76500E+01 3.96080E+01 0.00000E+00
 -1      2755 7.14000E+01 4.09070E+01 0.00000E+00
 -1      2756 7.29000E+01 4.09070E+01 0.00000E+00
 -1      2757 7.06500E+01 3.96080E+01 0.00000E+00
 -1      2758 7.44000E+01 4.09070E+01 0.00000E+00
 -1      2759 7.59000E+01 4.09070E+01 0.00000E+00
 -1      2760 7.36500E+01 3.96080E+01 0.00000E+00
 -1      2761 7.74000E+01 4.09070E+01 0.00000E+00
 -1      2762 7.89000E+01 4.09070E+01 0.00000E+00
 -1      2763 7.66500E+01 3.96080E+01 0.00000E+00
 -1      2764 8.04000E+01 4.09070E+01 0.00000E+00
 -1      2765 8.19000E+01 4.09070E+01 0.00000E+00
 -1      2766 7.96500E+01 3.96080E+01 0.00000E+00
 -1      2767 8.34000E+01 4.09070E+01 0.00000E+00
 -1      2768 8.49000E+01 4.09070E+01 0.00000E+00
 -1      2769 8.26500E+01 3.96080E+01 0.00000E+00
 -1      2770 8.64000E+01 4.09070E+01 0.00000E+00
 -1      2771 8.79000E+01 4.09070E+01 0.00000E+00
 -1      2772 8.56500E+01 3.96080E+01 0.00000E+00
 -1      2773 8.94000E+01 4.09070E+01 0.00000E+00
 -1      2774 9.09000E+01 4.09070E+01 0.00000E+00
 -1      2775 8.86500E+01 3.96080E+01 0.00000E+00
 -1      2776 9.24000E+01 4.09070E+01 0.00000E+00
 -1      2777 9.39000E+01 4.09070E+01 0.00000E+00
 -1      2778 9.16500E+01 3.96080E+01 0.00000E+00
 -1      2779 9.54000E+01 4.09070E+01 0.00000E+00
 -1      2780 9.69000E+01 4.09070E+01 0.00000E+00
 -1      2781 9.46500E+01 3.96080E+01 0.00000E+00
 -1      2782 9.84000E+01 4.09070E+01 0.00000E+00
 -1      2783 9.99000E+01 4.09070E+01 0.00000E+00
 -1      2784 9.76500E+01 3.96080E+01 0.00000E+00
 -1      2785 1.01400E+02 4.09070E+01 0.00000E+00
 -1      2786 1.02900E+02 4.09070E+01 0.00000E+00
 -1      2787 1.00650E+02 3.96080E+01 0.00000E+00
 -1      2788 1.04400E+02 4.09070E+01 0.00000E+00
 -1      2789 1.05900E+02 4.09070E+01 0.00000E+00
 -1      2790 1.03650E+02 3.96080E+01 0.00000E+00
 -1      2791 1.07400E+02 4.09070E+01 0.00000E+00
 -1      2792 1.08900E+02 4.09070E+01 0.00000E+00
 -1      2793 1.06650E+02 3.96080E+01 0.00000E+00
 -1      2794 1.10400E+02 4.09070E+01 0.00000E+00
 -1      2795 1.11900E+02 4.09070E+01 0.00000E+00
 -1      2796 1.09650E+02 3.96080E+01 0.00000E+00
 -1      2797 1.13400E+02 4.09070E+01 0.00000E+00
 -1      2798 1.14900E+02 4.09070E+01 0.00000E+00
 -1      2799 1.12650E+02 3.96080E+01 0.00000E+00
 -1      2800 1.16400E+02 4.09070E+01 0.00000E+00
 -1      2801 1.17900E+02 4.09070E+01 0.00000E+00
 -1      2802 1.15650E+02 3.96080E+01 0.00000E+00
 -1      2803 1.19400E+02 4.09070E+01 0.00000E+00
 -1      2804 1.20900E+02 4.09070E+01 0.00000E+00
 -1      2805 1.18650E+02 3.96080E+01 0.00000E+00
 -1      2806 1.22400E+02 4.09070E+01 0.00000E+00
 -1      2807 1.23900E+02 4.09070E+01 0.00000E+00
 -1      2808 1.21650E+02 3.96080E+01 0.00000E+00
 -1      2809 1.25400E+02 4.09070E+01 0.00000E+00
 -1      2810 1.26900E+02 4.09070E+01 0.00000E+00
 -1      2811 1.24650E+02 3.96080E+01 0.00000E+00
 -1      2812 1.28400E+02 4.09070E+01 0.00000E+00
 -1      2813 1.29900E+02 4.09070E+01 0.00000E+00
 -1      2814 1.27650E+02 3.96080E+01 0.00000E+00
 -1      2815 1.31400E+02 4.09070E+01 0.00000E+00
 -1      2816 1.32900E+02 4.09070E+01 0.00000E+00
 -1      2817 1.30650E+02 3.96080E+01 0.00000E+00
 -1      2818 1.34400E+02 4.09070E+01 0.00000E+00
 -1      2819 1.35900E+02 4.09070E+01 0.00000E+00
 -1      2820 1.33650E+02 3.96080E+01 0.00000E+00
 -1      2821 1.37400E+02 4.09070E+01 0.00000E+00
 -1      2822 1.38900E+02 4.09070E+01 0.00000E+00
 -1      2823 1.36650E+02 3.96080E+01 0.00000E+00
 -1      2824 2.42850E+01 7.90325E+00 0.00000E+00
 -1      2825 2.27850E+01 7.90325E+00 0.00000E+00
 -1      2826 6.76966E+01 1.32509E+01 0.00000E+00
 -1      2827 6.85513E+01 1.40816E+01 0.00000E+00
 -1      2828 2.12850E+01 7.90325E+00 0.00000E+00
 -1      2829 1.97850E+01 7.90325E+00 0.00000E+00
 -1      2830 2.20350E+01 9.20225E+00 0.00000E+00
 -1      2831 3.02850E+01 7.90325E+00 0.00000E+00
 -1      2832 2.87850E+01 7.90325E+00 0.00000E+00
 -1      2833 3.32850E+01 7.90325E+00 0.00000E+00
 -1      2834 3.17850E+01 7.90325E+00 0.00000E+00
 -1      2835 3.10350E+01 9.20225E+00 0.00000E+00
 -1      2836 3.62850E+01 7.90325E+00 0.00000E+00
 -1      2837 3.47850E+01 7.90325E+00 0.00000E+00
 -1      2838 3.40350E+01 9.20225E+00 0.00000E+00
 -1      2839 3.92850E+01 7.90325E+00 0.00000E+00
 -1      2840 3.77850E+01 7.90325E+00 0.00000E+00
 -1      2841 3.70350E+01 9.20225E+00 0.00000E+00
 -1      2842 4.22850E+01 7.90325E+00 0.00000E+00
 -1      2843 4.07850E+01 7.90325E+00 0.00000E+00
 -1      2844 4.00350E+01 9.20225E+00 0.00000E+00
 -1      2845 4.52850E+01 7.90325E+00 0.00000E+00
 -1      2846 4.37850E+01 7.90325E+00 0.00000E+00
 -1      2847 4.30350E+01 9.20225E+00 0.00000E+00
 -1      2848 4.82850E+01 7.90325E+00 0.00000E+00
 -1      2849 4.67850E+01 7.90325E+00 0.00000E+00
 -1      2850 4.60350E+01 9.20225E+00 0.00000E+00
 -1      2851 5.12850E+01 7.90325E+00 0.00000E+00
 -1      2852 4.97850E+01 7.90325E+00 0.00000E+00
 -1      2853 4.90350E+01 9.20225E+00 0.00000E+00
 -1      2854 5.42850E+01 7.90325E+00 0.00000E+00
 -1      2855 5.27850E+01 7.90325E+00 0.00000E+00
 -1      2856 5.20350E+01 9.20225E+00 0.00000E+00
 -1      2857 6.02850E+01 7.88073E+00 0.00000E+00
 -1      2858 5.87850E+01 7.88073E+00 0.00000E+00
 -1      2859 6.26026E+01 8.42117E+00 0.00000E+00
 -1      2860 6.11026E+01 8.42117E+00 0.00000E+00
 -1      2861 6.62850E+01 7.79695E+00 0.00000E+00
 -1      2862 6.47850E+01 7.79695E+00 0.00000E+00
 -1      2863 6.92850E+01 7.79695E+00 0.00000E+00
 -1      2864 6.77850E+01 7.79695E+00 0.00000E+00
 -1      2865 6.70350E+01 8.98964E+00 0.00000E+00
 -1      2866 7.22850E+01 7.79695E+00 0.00000E+00
 -1      2867 7.07850E+01 7.79695E+00 0.00000E+00
 -1      2868 7.00350E+01 8.98964E+00 0.00000E+00
 -1      2869 7.52850E+01 7.79695E+00 0.00000E+00
 -1      2870 7.37850E+01 7.79695E+00 0.00000E+00
 -1      2871 7.30350E+01 8.98964E+00 0.00000E+00
 -1      2872 7.82850E+01 7.79695E+00 0.00000E+00
 -1      2873 7.67850E+01 7.79695E+00 0.00000E+00
 -1      2874 7.60350E+01 8.98964E+00 0.00000E+00
 -1      2875 8.12850E+01 7.79695E+00 0.00000E+00
 -1      2876 7.97850E+01 7.79695E+00 0.00000E+00
 -1      2877 7.90350E+01 8.98964E+00 0.00000E+00
 -1      2878 8.42850E+01 7.79695E+00 0.00000E+00
 -1      2879 8.27850E+01 7.79695E+00 0.00000E+00
 -1      2880 8.20350E+01 8.98964E+00 0.00000E+00
 -1      2881 8.72850E+01 7.79695E+00 0.00000E+00
 -1      2882 8.57850E+01 7.79695E+00 0.00000E+00
 -1      2883 8.50350E+01 8.98964E+00 0.00000E+00
 -1      2884 9.02850E+01 7.79695E+00 0.00000E+00
 -1      2885 8.87850E+01 7.79695E+00 0.00000E+00
 -1      2886 8.80350E+01 8.98964E+00 0.00000E+00
 -1      2887 9.32850E+01 7.79695E+00 0.00000E+00
 -1      2888 9.17850E+01 7.79695E+00 0.00000E+00
 -1      2889 9.10350E+01 8.98964E+00 0.00000E+00
 -1      2890 9.62850E+01 7.79695E+00 0.00000E+00
 -1      2891 9.47850E+01 7.79695E+00 0.00000E+00
 -1      2892 9.40350E+01 8.98964E+00 0.00000E+00
 -1      2893 9.92850E+01 7.79695E+00 0.00000E+00
 -1      2894 9.77850E+01 7.79695E+00 0.00000E+00
 -1      2895 9.70350E+01 8.98964E+00 0.00000E+00
 -1      2896 1.02285E+02 7.79695E+00 0.00000E+00
 -1      2897 1.00785E+02 7.79695E+00 0.00000E+00
 -1      2898 1.00035E+02 8.98964E+00 0.00000E+00
 -1      2899 1.05285E+02 7.79695E+00 0.00000E+00
 -1      2900 1.03785E+02 7.79695E+00 0.00000E+00
 -1      2901 1.03035E+02 8.98964E+00 0.00000E+00
 -1      2902 1.08285E+02 7.79695E+00 0.00000E+00
 -1      2903 1.06785E+02 7.79695E+00 0.00000E+00
 -1      2904 1.06035E+02 8.98964E+00 0.00000E+00
 -1      2905 1.11285E+02 7.79695E+00 0.00000E+00
 -1      2906 1.09785E+02 7.79695E+00 0.00000E+00
 -1      2907 1.09035E+02 8.98964E+00 0.00000E+00
 -1      2908 1.14285E+02 7.79695E+00 0.00000E+00
 -1      2909 1.12785E+02 7.79695E+00 0.00000E+00
 -1      2910 1.12035E+02 8.98964E+00 0.00000E+00
 -1      2911 1.17285E+02 7.79695E+00 0.00000E+00
 -1      2912 1.15785E+02 7.79695E+00 0.00000E+00
 -1      2913 1.15035E+02 8.98964E+00 0.00000E+00
 -1      2914 1.20285E+02 7.79695E+00 0.00000E+00
 -1      2915 1.18785E+02 7.79695E+00 0.00000E+00
 -1      2916 1.18035E+02 8.98964E+00 0.00000E+00
 -1      2917 1.23285E+02 7.79695E+00 0.00000E+00
 -1      2918 1.21785E+02 7.79695E+00 0.00000E+00
 -1      2919 1.21035E+02 8.98964E+00 0.00000E+00
 -1      2920 1.26285E+02 7.79695E+00 0.00000E+00
 -1      2921 1.24785E+02 7.79695E+00 0.00000E+00
 -1      2922 1.24035E+02 8.98964E+00 0.00000E+00
 -1      2923 1.29285E+02 7.79695E+00 0.00000E+00
 -1      2924 1.27785E+02 7.79695E+00 0.00000E+00
 -1      2925 1.27035E+02 8.98964E+00 0.00000E+00
 -1      2926 1.32285E+02 7.79695E+00 0.00000E+00
 -1      2927 1.30785E+02 7.79695E+00 0.00000E+00
 -1      2928 1.30035E+02 8.98964E+00 0.00000E+00
 -1      2929 1.35285E+02 7.79695E+00 0.00000E+00
 -1      2930 1.33785E+02 7.79695E+00 0.00000E+00
 -1      2931 1.33035E+02 8.98964E+00 0.00000E+00
 -1      2932 1.38285E+02 7.79695E+00 0.00000E+00
 -1      2933 1.36785E+02 7.79695E+00 0.00000E+00
 -1      2934 1.36035E+02 8.98964E+00 0.00000E+00
 -1      2935 1.40953E+02 8.13078E+00 0.00000E+00
 -1      2936 1.39453E+02 8.13078E+00 0.00000E+00
 -1      2937 1.38703E+02 9.32348E+00 0.00000E+00
 -1      2938 1.41038E+02 9.99116E+00 0.00000E+00
 -1      2939 1.40907E+02 2.42875E+01 0.00000E+00
 -1      2940 1.40907E+02 2.28125E+01 0.00000E+00
 -1      2941 1.39914E+02 4.09362E+01 0.00000E+00
 -1      2942 1.40928E+02 4.09655E+01 0.00000E+00
 -1      2943 1.39164E+02 3.96372E+01 0.00000E+00
 -1      2944 1.40907E+02 1.83875E+01 0.00000E+00
 -1      2945 1.40907E+02 1.69125E+01 0.00000E+00
 -1      2946 5.36781E+01 1.27276E+01 0.00000E+00
 -1      2947 5.48089E+01 1.23334E+01 0.00000E+00
 -1      2948 1.40907E+02 2.72375E+01 0.00000E+00
 -1      2949 1.40907E+02 2.57625E+01 0.00000E+00
 -1      2950 1.39608E+02 2.50250E+01 0.00000E+00
 -1      2951 1.40907E+02 2.13375E+01 0.00000E+00
 -1      2952 1.40907E+02 1.98625E+01 0.00000E+00
 -1      2953 1.39608E+02 1.91250E+01 0.00000E+00
 -1      2954 1.39608E+02 2.20750E+01 0.00000E+00
 -1      2955 1.40907E+02 3.01375E+01 0.00000E+00
 -1      2956 1.40907E+02 2.86875E+01 0.00000E+00
 -1      2957 1.39608E+02 2.79500E+01 0.00000E+00
 -1      2958 1.40907E+02 3.30875E+01 0.00000E+00
 -1      2959 1.40907E+02 3.16125E+01 0.00000E+00
 -1      2960 1.39608E+02 3.08750E+01 0.00000E+00
 -1      2961 1.40907E+02 3.60375E+01 0.00000E+00
 -1      2962 1.40907E+02 3.45625E+01 0.00000E+00
 -1      2963 1.39608E+02 3.38250E+01 0.00000E+00
 -1      2964 1.82850E+01 7.90325E+00 0.00000E+00
 -1      2965 1.67850E+01 7.90325E+00 0.00000E+00
 -1      2966 1.60350E+01 9.20225E+00 0.00000E+00
 -1      2967 1.90350E+01 9.20225E+00 0.00000E+00
 -1      2968 1.41192E+02 3.96958E+01 0.00000E+00
 -1      2969 6.93548E+01 1.51881E+01 0.00000E+00
 -1      2970 6.99235E+01 1.60812E+01 0.00000E+00
 -1      2971 8.85168E+00 4.05347E+01 0.00000E+00
 -1      2972 1.02152E+01 4.07987E+01 0.00000E+00
 -1      2973 5.14456E+01 1.41911E+01 0.00000E+00
 -1      2974 5.23701E+01 1.34210E+01 0.00000E+00
 -1      2975 5.57835E+01 1.16817E+01 0.00000E+00
 -1      2976 5.67581E+01 1.10300E+01 0.00000E+00
 -1      2977 5.49496E+01 1.11086E+01 0.00000E+00
 -1      2978 4.85043E+01 2.61788E+01 0.00000E+00
 -1      2979 4.82035E+01 2.49552E+01 0.00000E+00
 -1      2980 6.21903E+01 3.43243E+01 0.00000E+00
 -1      2981 6.11640E+01 3.45836E+01 0.00000E+00
 -1      2982 7.17931E+01 2.48043E+01 0.00000E+00
 -1      2983 7.14350E+01 2.60153E+01 0.00000E+00
 -1      2984 2.72850E+01 7.90325E+00 0.00000E+00
 -1      2985 2.57850E+01 7.90325E+00 0.00000E+00
 -1      2986 2.50350E+01 9.20225E+00 0.00000E+00
 -1      2987 2.80350E+01 9.20225E+00 0.00000E+00
 -1      2988 7.48818E+00 3.88019E+01 0.00000E+00
 -1      2989 6.65203E+01 3.26885E+01 0.00000E+00
 -1      2990 6.54456E+01 3.32553E+01 0.00000E+00
 -1      2991 7.22897E+01 2.21260E+01 0.00000E+00
 -1      2992 7.21819E+01 2.34064E+01 0.00000E+00
 -1      2993 1.15576E+01 4.08528E+01 0.00000E+00
 -1      2994 1.30576E+01 4.08528E+01 0.00000E+00
 -1      2995 1.38076E+01 3.95538E+01 0.00000E+00
 -1      2996 1.11228E+01 3.94455E+01 0.00000E+00
 -1      2997 9.09300E+00 1.68813E+01 0.00000E+00
 -1      2998 9.09300E+00 1.83563E+01 0.00000E+00
 -1      2999 1.03920E+01 1.90812E+01 0.00000E+00
 -1      3000 1.03920E+01 1.61437E+01 0.00000E+00
 -1      3001 6.53522E+01 1.19829E+01 0.00000E+00
 -1      3002 6.64022E+01 1.25236E+01 0.00000E+00
 -1      3003 8.91450E+00 8.42712E+00 0.00000E+00
 -1      3004 9.09300E+00 3.15875E+01 0.00000E+00
 -1      3005 9.09300E+00 3.30625E+01 0.00000E+00
 -1      3006 6.32916E+01 1.10877E+01 0.00000E+00
 -1      3007 6.42698E+01 1.15441E+01 0.00000E+00
 -1      3008 4.80044E+01 2.36899E+01 0.00000E+00
 -1      3009 4.78590E+01 2.25802E+01 0.00000E+00
 -1      3010 4.86073E+01 1.86181E+01 0.00000E+00
 -1      3011 4.89478E+01 1.76887E+01 0.00000E+00
 -1      3012 6.41660E+01 3.36672E+01 0.00000E+00
 -1      3013 6.31782E+01 3.39958E+01 0.00000E+00
 -1      3014 6.28750E+01 3.49568E+01 0.00000E+00
 -1      3015 4.78313E+01 2.10626E+01 0.00000E+00
 -1      3016 4.81352E+01 1.97846E+01 0.00000E+00
 -1      3017 4.92356E+01 2.81720E+01 0.00000E+00
 -1      3018 4.88783E+01 2.73402E+01 0.00000E+00
 -1      3019 5.97445E+01 3.46783E+01 0.00000E+00
 -1      3020 5.85104E+01 3.45636E+01 0.00000E+00
 -1      3021 5.72174E+01 3.43547E+01 0.00000E+00
 -1      3022 5.61023E+01 3.40904E+01 0.00000E+00
 -1      3023 5.49057E+01 3.37931E+01 0.00000E+00
 -1      3024 5.39622E+01 3.33962E+01 0.00000E+00
 -1      3025 5.80428E+01 1.07029E+01 0.00000E+00
 -1      3026 5.90938E+01 1.06110E+01 0.00000E+00
 -1      3027 7.16804E+01 1.93533E+01 0.00000E+00
 -1      3028 7.21307E+01 2.04660E+01 0.00000E+00
 -1      3029 6.82581E+01 3.12373E+01 0.00000E+00
 -1      3030 6.75503E+01 3.18831E+01 0.00000E+00
 -1      3031 7.05044E+01 1.71327E+01 0.00000E+00
 -1      3032 7.10854E+01 1.81843E+01 0.00000E+00
 -1      3033 7.10848E+01 1.61356E+01 0.00000E+00
 -1      3034 7.10820E+01 2.71529E+01 0.00000E+00
 -1      3035 7.07188E+01 2.80117E+01 0.00000E+00
 -1      3036 9.09300E+00 3.45313E+01 0.00000E+00
 -1      3037 9.09300E+00 3.60000E+01 0.00000E+00
 -1      3038 1.03920E+01 3.37938E+01 0.00000E+00
 -1      3039 1.03920E+01 2.49750E+01 0.00000E+00
 -1      3040 9.09300E+00 2.57000E+01 0.00000E+00
 -1      3041 9.09300E+00 2.71750E+01 0.00000E+00
 -1      3042 8.78718E+00 3.80644E+01 0.00000E+00
 -1      3043 4.94300E+01 2.99183E+01 0.00000E+00
 -1      3044 4.93328E+01 2.90451E+01 0.00000E+00
 -1      3045 4.83662E+01 2.89678E+01 0.00000E+00
 -1      3046 6.92555E+01 3.10804E+01 0.00000E+00
 -1      3047 7.22608E+01 1.83561E+01 0.00000E+00
 -1      3048 5.72089E+01 1.01298E+01 0.00000E+00
 -1      3049 6.76025E+01 1.21437E+01 0.00000E+00
 -1      3050 5.52655E+01 3.47597E+01 0.00000E+00
 -1      3051 5.77551E+01 3.52659E+01 0.00000E+00
 -1      3052 7.08594E+01 2.89418E+01 0.00000E+00
 -1      3053 1.39608E+02 1.61875E+01 0.00000E+00
 -1      3054 1.40907E+02 1.54500E+01 0.00000E+00
 -1      3055 1.40907E+02 1.39875E+01 0.00000E+00
 -1      3056 7.30148E+01 2.11852E+01 0.00000E+00
 -1      3057 7.38990E+01 2.19043E+01 0.00000E+00
 -1      3058 7.37400E+01 2.02443E+01 0.00000E+00
 -1      3059 6.97003E+01 1.39776E+01 0.00000E+00
 -1      3060 1.41192E+02 3.82207E+01 0.00000E+00
 -1      3061 6.04677E+01 3.53801E+01 0.00000E+00
 -1      3062 5.72850E+01 7.88073E+00 0.00000E+00
 -1      3063 5.57850E+01 7.88073E+00 0.00000E+00
 -1      3064 4.73221E+01 2.45064E+01 0.00000E+00
 -1      3065 1.40973E+02 1.27206E+01 0.00000E+00
 -1      3066 1.40973E+02 1.12581E+01 0.00000E+00
 -1      3067 1.39805E+02 1.09242E+01 0.00000E+00
 -1      3068 1.39674E+02 1.34581E+01 0.00000E+00
 -1      3069 6.52257E+01 1.09776E+01 0.00000E+00
 -1      3070 1.39893E+02 3.74832E+01 0.00000E+00
 -1      3071 6.51425E+01 3.42164E+01 0.00000E+00
 -1      3072 4.75396E+01 1.90393E+01 0.00000E+00
 -1      3073 5.05019E+01 1.43549E+01 0.00000E+00
 -1      3074 5.04153E+01 1.33109E+01 0.00000E+00
 -1      3075 4.95582E+01 1.45187E+01 0.00000E+00
 -1      3076 7.27850E+01 2.42431E+01 0.00000E+00
 -1      3077 5.12939E+01 3.10338E+01 0.00000E+00
 -1      3078 5.03811E+01 3.09477E+01 0.00000E+00
 -1      3079 5.12783E+01 3.19858E+01 0.00000E+00
 -1      3080 6.26567E+01 1.03884E+01 0.00000E+00
 -1      3081 5.26670E+01 1.24537E+01 0.00000E+00
 -1      3082 5.31301E+01 3.32672E+01 0.00000E+00
 -1      3083 5.22979E+01 3.31382E+01 0.00000E+00
 -1      3084 5.32368E+01 3.43333E+01 0.00000E+00
 -1      3085 4.78951E+01 2.69332E+01 0.00000E+00
 -1      3086 5.50350E+01 9.17973E+00 0.00000E+00
 -1      3087 7.20432E+01 2.67788E+01 0.00000E+00
 -1      3088 9.09300E+00 2.86437E+01 0.00000E+00
 -1      3089 9.09300E+00 3.01187E+01 0.00000E+00
 -1      3090 1.03920E+01 3.08563E+01 0.00000E+00
 -1      3091 1.03920E+01 2.79188E+01 0.00000E+00
 -1      3092 6.74522E+01 3.29991E+01 0.00000E+00
 -1      3093 9.66450E+00 9.72612E+00 0.00000E+00
 -1      3094 4.88282E+01 1.67177E+01 0.00000E+00
 -1      3095 4.87086E+01 1.57468E+01 0.00000E+00
 -1      3096 4.78921E+01 1.69019E+01 0.00000E+00
 -1      3097 4.63592E+01 2.23842E+01 0.00000E+00
 -1      3098 4.70952E+01 2.17234E+01 0.00000E+00
 -1      3099 4.63314E+01 2.08666E+01 0.00000E+00
 -1      3100 5.98319E+01 1.00204E+01 0.00000E+00
 -1      3101 1.09635E+01 1.04636E+01 0.00000E+00
 -1      3102 1.16910E+01 1.24625E+01 0.00000E+00
 -1      3103 1.16910E+01 1.39375E+01 0.00000E+00
 -1      3104 7.18383E+01 1.50330E+01 0.00000E+00
 -1      3105 7.24193E+01 1.60846E+01 0.00000E+00
 -1      3106 1.89000E+01 3.83090E+01 0.00000E+00
 -1      3107 2.04000E+01 3.83090E+01 0.00000E+00
 -1      3108 2.19000E+01 3.83090E+01 0.00000E+00
 -1      3109 2.34000E+01 3.83090E+01 0.00000E+00
 -1      3110 2.11500E+01 3.70100E+01 0.00000E+00
 -1      3111 2.49000E+01 3.83090E+01 0.00000E+00
 -1      3112 2.64000E+01 3.83090E+01 0.00000E+00
 -1      3113 2.41500E+01 3.70100E+01 0.00000E+00
 -1      3114 2.79000E+01 3.83090E+01 0.00000E+00
 -1      3115 2.94000E+01 3.83090E+01 0.00000E+00
 -1      3116 2.71500E+01 3.70100E+01 0.00000E+00
 -1      3117 3.09000E+01 3.83090E+01 0.00000E+00
 -1      3118 3.24000E+01 3.83090E+01 0.00000E+00
 -1      3119 3.01500E+01 3.70100E+01 0.00000E+00
 -1      3120 3.39000E+01 3.83090E+01 0.00000E+00
 -1      3121 3.54000E+01 3.83090E+01 0.00000E+00
 -1      3122 3.31500E+01 3.70100E+01 0.00000E+00
 -1      3123 3.69000E+01 3.83090E+01 0.00000E+00
 -1      3124 3.84000E+01 3.83090E+01 0.00000E+00
 -1      3125 3.61500E+01 3.70100E+01 0.00000E+00
 -1      3126 3.99000E+01 3.83090E+01 0.00000E+00
 -1      3127 4.14000E+01 3.83090E+01 0.00000E+00
 -1      3128 3.91500E+01 3.70100E+01 0.00000E+00
 -1      3129 4.29000E+01 3.83090E+01 0.00000E+00
 -1      3130 4.44000E+01 3.83090E+01 0.00000E+00
 -1      3131 4.21500E+01 3.70100E+01 0.00000E+00
 -1      3132 4.59000E+01 3.83090E+01 0.00000E+00
 -1      3133 4.74000E+01 3.83090E+01 0.00000E+00
 -1      3134 4.51500E+01 3.70100E+01 0.00000E+00
 -1      3135 4.89000E+01 3.83090E+01 0.00000E+00
 -1      3136 5.04000E+01 3.83090E+01 0.00000E+00
 -1      3137 4.81500E+01 3.70100E+01 0.00000E+00
 -1      3138 5.49000E+01 3.83315E+01 0.00000E+00
 -1      3139 5.64000E+01 3.83315E+01 0.00000E+00
 -1      3140 5.80991E+01 3.75414E+01 0.00000E+00
 -1      3141 5.95991E+01 3.75414E+01 0.00000E+00
 -1      3142 6.10186E+01 3.74467E+01 0.00000E+00
 -1      3143 6.25186E+01 3.74467E+01 0.00000E+00
 -1      3144 6.69000E+01 3.83315E+01 0.00000E+00
 -1      3145 6.84000E+01 3.83315E+01 0.00000E+00
 -1      3146 6.99000E+01 3.83315E+01 0.00000E+00
 -1      3147 7.14000E+01 3.83315E+01 0.00000E+00
 -1      3148 6.91500E+01 3.70550E+01 0.00000E+00
 -1      3149 7.29000E+01 3.83315E+01 0.00000E+00
 -1      3150 7.44000E+01 3.83315E+01 0.00000E+00
 -1      3151 7.21500E+01 3.70550E+01 0.00000E+00
 -1      3152 7.59000E+01 3.83315E+01 0.00000E+00
 -1      3153 7.74000E+01 3.83315E+01 0.00000E+00
 -1      3154 7.51500E+01 3.70550E+01 0.00000E+00
 -1      3155 7.89000E+01 3.83315E+01 0.00000E+00
 -1      3156 8.04000E+01 3.83315E+01 0.00000E+00
 -1      3157 7.81500E+01 3.70550E+01 0.00000E+00
 -1      3158 8.19000E+01 3.83315E+01 0.00000E+00
 -1      3159 8.34000E+01 3.83315E+01 0.00000E+00
 -1      3160 8.11500E+01 3.70550E+01 0.00000E+00
 -1      3161 8.49000E+01 3.83315E+01 0.00000E+00
 -1      3162 8.64000E+01 3.83315E+01 0.00000E+00
 -1      3163 8.41500E+01 3.70550E+01 0.00000E+00
 -1      3164 8.79000E+01 3.83315E+01 0.00000E+00
 -1      3165 8.94000E+01 3.83315E+01 0.00000E+00
 -1      3166 8.71500E+01 3.70550E+01 0.00000E+00
 -1      3167 9.09000E+01 3.83315E+01 0.00000E+00
 -1      3168 9.24000E+01 3.83315E+01 0.00000E+00
 -1      3169 9.01500E+01 3.70550E+01 0.00000E+00
 -1      3170 9.39000E+01 3.83315E+01 0.00000E+00
 -1      3171 9.54000E+01 3.83315E+01 0.00000E+00
 -1      3172 9.31500E+01 3.70550E+01 0.00000E+00
 -1      3173 9.69000E+01 3.83315E+01 0.00000E+00
 -1      3174 9.84000E+01 3.83315E+01 0.00000E+00
 -1      3175 9.61500E+01 3.70550E+01 0.00000E+00
 -1      3176 9.99000E+01 3.83315E+01 0.00000E+00
 -1      3177 1.01400E+02 3.83315E+01 0.00000E+00
 -1      3178 9.91500E+01 3.70550E+01 0.00000E+00
 -1      3179 1.02900E+02 3.83315E+01 0.00000E+00
 -1      3180 1.04400E+02 3.83315E+01 0.00000E+00
 -1      3181 1.02150E+02 3.70550E+01 0.00000E+00
 -1      3182 1.05900E+02 3.83315E+01 0.00000E+00
 -1      3183 1.07400E+02 3.83315E+01 0.00000E+00
 -1      3184 1.05150E+02 3.70550E+01 0.00000E+00
 -1      3185 1.08900E+02 3.83315E+01 0.00000E+00
 -1      3186 1.10400E+02 3.83315E+01 0.00000E+00
 -1      3187 1.08150E+02 3.70550E+01 0.00000E+00
 -1      3188 1.11900E+02 3.83315E+01 0.00000E+00
 -1      3189 1.13400E+02 3.83315E+01 0.00000E+00
 -1      3190 1.11150E+02 3.70550E+01 0.00000E+00
 -1      3191 1.14900E+02 3.83315E+01 0.00000E+00
 -1      3192 1.16400E+02 3.83315E+01 0.00000E+00
 -1      3193 1.14150E+02 3.70550E+01 0.00000E+00
 -1      3194 1.17900E+02 3.83315E+01 0.00000E+00
 -1      3195 1.19400E+02 3.83315E+01 0.00000E+00
 -1      3196 1.17150E+02 3.70550E+01 0.00000E+00
 -1      3197 1.20900E+02 3.83315E+01 0.00000E+00
 -1      3198 1.22400E+02 3.83315E+01 0.00000E+00
 -1      3199 1.20150E+02 3.70550E+01 0.00000E+00
 -1      3200 1.23900E+02 3.83315E+01 0.00000E+00
 -1      3201 1.25400E+02 3.83315E+01 0.00000E+00
 -1      3202 1.23150E+02 3.70550E+01 0.00000E+00
 -1      3203 1.26900E+02 3.83315E+01 0.00000E+00
 -1      3204 1.28400E+02 3.83315E+01 0.00000E+00
 -1      3205 1.26150E+02 3.70550E+01 0.00000E+00
 -1      3206 1.29900E+02 3.83315E+01 0.00000E+00
 -1      3207 1.31400E+02 3.83315E+01 0.00000E+00
 -1      3208 1.29150E+02 3.70550E+01 0.00000E+00
 -1      3209 1.32900E+02 3.83315E+01 0.00000E+00
 -1      3210 1.34400E+02 3.83315E+01 0.00000E+00
 -1      3211 1.32150E+02 3.70550E+01 0.00000E+00
 -1      3212 1.35900E+02 3.83315E+01 0.00000E+00
 -1      3213 1.37400E+02 3.83315E+01 0.00000E+00
 -1      3214 1.35150E+02 3.70550E+01 0.00000E+00
 -1      3215 5.80350E+01 9.15721E+00 0.00000E+00
 -1      3216 3.47850E+01 1.05013E+01 0.00000E+00
 -1      3217 3.32850E+01 1.05013E+01 0.00000E+00
 -1      3218 3.17850E+01 1.05013E+01 0.00000E+00
 -1      3219 3.02850E+01 1.05013E+01 0.00000E+00
 -1      3220 3.25350E+01 1.18003E+01 0.00000E+00
 -1      3221 4.07850E+01 1.05013E+01 0.00000E+00
 -1      3222 3.92850E+01 1.05013E+01 0.00000E+00
 -1      3223 4.37850E+01 1.05013E+01 0.00000E+00
 -1      3224 4.22850E+01 1.05013E+01 0.00000E+00
 -1      3225 4.15350E+01 1.18003E+01 0.00000E+00
 -1      3226 4.67850E+01 1.05013E+01 0.00000E+00
 -1      3227 4.52850E+01 1.05013E+01 0.00000E+00
 -1      3228 4.45350E+01 1.18003E+01 0.00000E+00
 -1      3229 5.00033E+01 1.13385E+01 0.00000E+00
 -1      3230 4.85033E+01 1.13385E+01 0.00000E+00
 -1      3231 7.31988E+01 2.65138E+01 0.00000E+00
 -1      3232 7.28458E+01 2.76514E+01 0.00000E+00
 -1      3233 4.64917E+01 2.52854E+01 0.00000E+00
 -1      3234 4.62926E+01 2.40200E+01 0.00000E+00
 -1      3235 6.33526E+01 9.61386E+00 0.00000E+00
 -1      3236 7.67850E+01 1.02886E+01 0.00000E+00
 -1      3237 7.52850E+01 1.02886E+01 0.00000E+00
 -1      3238 7.97850E+01 1.02886E+01 0.00000E+00
 -1      3239 7.82850E+01 1.02886E+01 0.00000E+00
 -1      3240 7.75350E+01 1.15876E+01 0.00000E+00
 -1      3241 8.27850E+01 1.02886E+01 0.00000E+00
 -1      3242 8.12850E+01 1.02886E+01 0.00000E+00
 -1      3243 8.05350E+01 1.15876E+01 0.00000E+00
 -1      3244 8.57850E+01 1.02886E+01 0.00000E+00
 -1      3245 8.42850E+01 1.02886E+01 0.00000E+00
 -1      3246 8.35350E+01 1.15876E+01 0.00000E+00
 -1      3247 8.87850E+01 1.02886E+01 0.00000E+00
 -1      3248 8.72850E+01 1.02886E+01 0.00000E+00
 -1      3249 8.65350E+01 1.15876E+01 0.00000E+00
 -1      3250 9.17850E+01 1.02886E+01 0.00000E+00
 -1      3251 9.02850E+01 1.02886E+01 0.00000E+00
 -1      3252 8.95350E+01 1.15876E+01 0.00000E+00
 -1      3253 9.47850E+01 1.02886E+01 0.00000E+00
 -1      3254 9.32850E+01 1.02886E+01 0.00000E+00
 -1      3255 9.25350E+01 1.15876E+01 0.00000E+00
 -1      3256 9.77850E+01 1.02886E+01 0.00000E+00
 -1      3257 9.62850E+01 1.02886E+01 0.00000E+00
 -1      3258 9.55350E+01 1.15876E+01 0.00000E+00
 -1      3259 1.00785E+02 1.02886E+01 0.00000E+00
 -1      3260 9.92850E+01 1.02886E+01 0.00000E+00
 -1      3261 9.85350E+01 1.15876E+01 0.00000E+00
 -1      3262 1.03785E+02 1.02886E+01 0.00000E+00
 -1      3263 1.02285E+02 1.02886E+01 0.00000E+00
 -1      3264 1.01535E+02 1.15876E+01 0.00000E+00
 -1      3265 1.06785E+02 1.02886E+01 0.00000E+00
 -1      3266 1.05285E+02 1.02886E+01 0.00000E+00
 -1      3267 1.04535E+02 1.15876E+01 0.00000E+00
 -1      3268 1.09785E+02 1.02886E+01 0.00000E+00
 -1      3269 1.08285E+02 1.02886E+01 0.00000E+00
 -1      3270 1.07535E+02 1.15876E+01 0.00000E+00
 -1      3271 1.12785E+02 1.02886E+01 0.00000E+00
 -1      3272 1.11285E+02 1.02886E+01 0.00000E+00
 -1      3273 1.10535E+02 1.15876E+01 0.00000E+00
 -1      3274 1.15785E+02 1.02886E+01 0.00000E+00
 -1      3275 1.14285E+02 1.02886E+01 0.00000E+00
 -1      3276 1.13535E+02 1.15876E+01 0.00000E+00
 -1      3277 1.18785E+02 1.02886E+01 0.00000E+00
 -1      3278 1.17285E+02 1.02886E+01 0.00000E+00
 -1      3279 1.16535E+02 1.15876E+01 0.00000E+00
 -1      3280 1.21785E+02 1.02886E+01 0.00000E+00
 -1      3281 1.20285E+02 1.02886E+01 0.00000E+00
 -1      3282 1.19535E+02 1.15876E+01 0.00000E+00
 -1      3283 1.24785E+02 1.02886E+01 0.00000E+00
 -1      3284 1.23285E+02 1.02886E+01 0.00000E+00
 -1      3285 1.22535E+02 1.15876E+01 0.00000E+00
 -1      3286 1.27785E+02 1.02886E+01 0.00000E+00
 -1      3287 1.26285E+02 1.02886E+01 0.00000E+00
 -1      3288 1.25535E+02 1.15876E+01 0.00000E+00
 -1      3289 1.30785E+02 1.02886E+01 0.00000E+00
 -1      3290 1.29285E+02 1.02886E+01 0.00000E+00
 -1      3291 1.28535E+02 1.15876E+01 0.00000E+00
 -1      3292 1.33785E+02 1.02886E+01 0.00000E+00
 -1      3293 1.32285E+02 1.02886E+01 0.00000E+00
 -1      3294 1.31535E+02 1.15876E+01 0.00000E+00
 -1      3295 1.36785E+02 1.02886E+01 0.00000E+00
 -1      3296 1.35285E+02 1.02886E+01 0.00000E+00
 -1      3297 1.34535E+02 1.15876E+01 0.00000E+00
 -1      3298 1.38879E+02 1.07734E+01 0.00000E+00
 -1      3299 1.37711E+02 1.04395E+01 0.00000E+00
 -1      3300 1.36961E+02 1.17385E+01 0.00000E+00
 -1      3301 1.38813E+02 1.20403E+01 0.00000E+00
 -1      3302 7.05528E+01 3.11564E+01 0.00000E+00
 -1      3303 6.97796E+01 3.22696E+01 0.00000E+00
 -1      3304 1.16910E+01 2.12875E+01 0.00000E+00
 -1      3305 1.16910E+01 2.27625E+01 0.00000E+00
 -1      3306 1.38309E+02 3.45625E+01 0.00000E+00
 -1      3307 1.38309E+02 3.30875E+01 0.00000E+00
 -1      3308 7.30143E+01 1.72536E+01 0.00000E+00
 -1      3309 7.36093E+01 1.84226E+01 0.00000E+00
 -1      3310 7.37677E+01 1.61510E+01 0.00000E+00
 -1      3311 1.38309E+02 2.57625E+01 0.00000E+00
 -1      3312 1.38309E+02 2.42875E+01 0.00000E+00
 -1      3313 6.61477E+01 3.51458E+01 0.00000E+00
 -1      3314 6.48681E+01 3.55577E+01 0.00000E+00
 -1      3315 1.38309E+02 3.16125E+01 0.00000E+00
 -1      3316 1.38309E+02 3.01375E+01 0.00000E+00
 -1      3317 1.37010E+02 3.23500E+01 0.00000E+00
 -1      3318 7.37850E+01 1.02886E+01 0.00000E+00
 -1      3319 7.22850E+01 1.02886E+01 0.00000E+00
 -1      3320 7.45350E+01 1.15876E+01 0.00000E+00
 -1      3321 1.00862E+01 3.73269E+01 0.00000E+00
 -1      3322 3.77850E+01 1.05013E+01 0.00000E+00
 -1      3323 3.62850E+01 1.05013E+01 0.00000E+00
 -1      3324 3.55350E+01 1.18003E+01 0.00000E+00
 -1      3325 3.85350E+01 1.18003E+01 0.00000E+00
 -1      3326 2.27850E+01 1.05013E+01 0.00000E+00
 -1      3327 2.12850E+01 1.05013E+01 0.00000E+00
 -1      3328 5.60561E+01 3.60560E+01 0.00000E+00
 -1      3329 5.48595E+01 3.57587E+01 0.00000E+00
 -1      3330 5.15721E+01 1.19687E+01 0.00000E+00
 -1      3331 5.28801E+01 1.12753E+01 0.00000E+00
 -1      3332 1.59000E+01 3.83090E+01 0.00000E+00
 -1      3333 1.74000E+01 3.83090E+01 0.00000E+00
 -1      3334 1.81500E+01 3.70100E+01 0.00000E+00
 -1      3335 4.64309E+01 1.92694E+01 0.00000E+00
 -1      3336 4.69031E+01 1.81029E+01 0.00000E+00
 -1      3337 7.22144E+01 2.91056E+01 0.00000E+00
 -1      3338 7.13836E+01 3.01310E+01 0.00000E+00
 -1      3339 7.19078E+01 3.13202E+01 0.00000E+00
 -1      3340 4.71860E+01 2.78024E+01 0.00000E+00
 -1      3341 4.68121E+01 2.66409E+01 0.00000E+00
 -1      3342 7.39764E+01 2.37178E+01 0.00000E+00
 -1      3343 7.35876E+01 2.51158E+01 0.00000E+00
 -1      3344 7.43901E+01 2.59884E+01 0.00000E+00
 -1      3345 1.38309E+02 2.86750E+01 0.00000E+00
 -1      3346 1.38309E+02 2.72250E+01 0.00000E+00
 -1      3347 1.37010E+02 2.64875E+01 0.00000E+00
 -1      3348 1.37010E+02 2.94125E+01 0.00000E+00
 -1      3349 7.01958E+01 1.27727E+01 0.00000E+00
 -1      3350 7.09994E+01 1.38792E+01 0.00000E+00
 -1      3351 6.85986E+01 3.34040E+01 0.00000E+00
 -1      3352 6.75686E+01 3.42094E+01 0.00000E+00
 -1      3353 1.26488E+01 1.02017E+01 0.00000E+00
 -1      3354 1.20772E+01 1.14631E+01 0.00000E+00
 -1      3355 1.33763E+01 1.22006E+01 0.00000E+00
 -1      3356 1.41488E+01 1.02017E+01 0.00000E+00
 -1      3357 1.16910E+01 2.42375E+01 0.00000E+00
 -1      3358 1.16910E+01 2.57125E+01 0.00000E+00
 -1      3359 1.29900E+01 2.35000E+01 0.00000E+00
 -1      3360 4.76859E+01 1.48870E+01 0.00000E+00
 -1      3361 4.86221E+01 1.47028E+01 0.00000E+00
 -1      3362 4.85355E+01 1.36589E+01 0.00000E+00
 -1      3363 1.37010E+02 2.35500E+01 0.00000E+00
 -1      3364 1.38309E+02 2.28125E+01 0.00000E+00
 -1      3365 1.38309E+02 2.13375E+01 0.00000E+00
 -1      3366 4.94145E+01 3.08703E+01 0.00000E+00
 -1      3367 4.84479E+01 3.07929E+01 0.00000E+00
 -1      3368 4.93989E+01 3.18223E+01 0.00000E+00
 -1      3369 1.16910E+01 3.30594E+01 0.00000E+00
 -1      3370 1.16910E+01 3.45281E+01 0.00000E+00
 -1      3371 1.16910E+01 1.54063E+01 0.00000E+00
 -1      3372 1.16910E+01 1.68750E+01 0.00000E+00
 -1      3373 1.29900E+01 1.46687E+01 0.00000E+00
 -1      3374 1.38309E+02 1.69188E+01 0.00000E+00
 -1      3375 1.38309E+02 1.54563E+01 0.00000E+00
 -1      3376 7.44934E+01 1.91417E+01 0.00000E+00
 -1      3377 7.53776E+01 1.98608E+01 0.00000E+00
 -1      3378 7.52469E+01 1.80392E+01 0.00000E+00
 -1      3379 5.33797E+01 3.83216E+01 0.00000E+00
 -1      3380 5.41297E+01 3.70451E+01 0.00000E+00
 -1      3381 5.33392E+01 3.57488E+01 0.00000E+00
 -1      3382 5.18797E+01 3.83216E+01 0.00000E+00
 -1      3383 6.31869E+01 3.60786E+01 0.00000E+00
 -1      3384 6.38183E+01 3.82399E+01 0.00000E+00
 -1      3385 6.53183E+01 3.82399E+01 0.00000E+00
 -1      3386 2.42850E+01 1.05013E+01 0.00000E+00
 -1      3387 2.35350E+01 1.18003E+01 0.00000E+00
 -1      3388 2.57850E+01 1.05013E+01 0.00000E+00
 -1      3389 2.95350E+01 1.18003E+01 0.00000E+00
 -1      3390 2.87850E+01 1.05013E+01 0.00000E+00
 -1      3391 2.72850E+01 1.05013E+01 0.00000E+00
 -1      3392 7.33699E+01 2.88406E+01 0.00000E+00
 -1      3393 5.26601E+01 9.99629E+00 0.00000E+00
 -1      3394 5.11601E+01 9.99629E+00 0.00000E+00
 -1      3395 2.05350E+01 1.18003E+01 0.00000E+00
 -1      3396 1.97850E+01 1.05013E+01 0.00000E+00
 -1      3397 1.82850E+01 1.05013E+01 0.00000E+00
 -1      3398 4.46984E+01 2.39422E+01 0.00000E+00
 -1      3399 4.55288E+01 2.31632E+01 0.00000E+00
 -1      3400 4.47650E+01 2.23064E+01 0.00000E+00
 -1      3401 6.74216E+01 1.02030E+01 0.00000E+00
 -1      3402 6.59216E+01 1.02030E+01 0.00000E+00
 -1      3403 4.57826E+01 2.61546E+01 0.00000E+00
 -1      3404 1.16910E+01 1.98188E+01 0.00000E+00
 -1      3405 1.29900E+01 2.05562E+01 0.00000E+00
 -1      3406 1.16910E+01 1.83500E+01 0.00000E+00
 -1      3407 1.38309E+02 1.98656E+01 0.00000E+00
 -1      3408 1.38309E+02 1.83906E+01 0.00000E+00
 -1      3409 1.37010E+02 1.76594E+01 0.00000E+00
 -1      3410 1.37010E+02 2.06031E+01 0.00000E+00
 -1      3411 1.38879E+02 3.74540E+01 0.00000E+00
 -1      3412 6.48391E+01 9.76422E+00 0.00000E+00
 -1      3413 5.25071E+01 3.56197E+01 0.00000E+00
 -1      3414 6.72942E+01 3.55507E+01 0.00000E+00
 -1      3415 5.37550E+01 1.04813E+01 0.00000E+00
 -1      3416 5.47296E+01 9.82958E+00 0.00000E+00
 -1      3417 1.69669E+01 1.03515E+01 0.00000E+00
 -1      3418 1.54669E+01 1.03515E+01 0.00000E+00
 -1      3419 1.50806E+01 1.13509E+01 0.00000E+00
 -1      3420 1.77169E+01 1.16505E+01 0.00000E+00
 -1      3421 1.38129E+02 3.61775E+01 0.00000E+00
 -1      3422 1.36830E+02 3.54400E+01 0.00000E+00
 -1      3423 6.87159E+01 1.09303E+01 0.00000E+00
 -1      3424 7.02159E+01 1.09303E+01 0.00000E+00
 -1      3425 1.16910E+01 3.15906E+01 0.00000E+00
 -1      3426 1.29900E+01 3.23250E+01 0.00000E+00
 -1      3427 1.16910E+01 3.01219E+01 0.00000E+00
 -1      3428 5.11297E+01 3.70226E+01 0.00000E+00
 -1      3429 5.13851E+01 3.30520E+01 0.00000E+00
 -1      3430 5.04723E+01 3.29658E+01 0.00000E+00
 -1      3431 5.14919E+01 3.41181E+01 0.00000E+00
 -1      3432 7.23338E+01 1.38282E+01 0.00000E+00
 -1      3433 7.47015E+01 2.27769E+01 0.00000E+00
 -1      3434 7.55041E+01 2.36495E+01 0.00000E+00
 -1      3435 7.54267E+01 2.18360E+01 0.00000E+00
 -1      3436 1.15598E+01 3.59546E+01 0.00000E+00
 -1      3437 1.12540E+01 3.80190E+01 0.00000E+00
 -1      3438 1.25964E+01 3.80732E+01 0.00000E+00
 -1      3439 1.28588E+01 3.52202E+01 0.00000E+00
 -1      3440 7.15149E+01 1.08320E+01 0.00000E+00
 -1      3441 4.73804E+01 2.95486E+01 0.00000E+00
 -1      3442 4.72832E+01 2.86755E+01 0.00000E+00
 -1      3443 4.62002E+01 2.83833E+01 0.00000E+00
 -1      3444 6.41747E+01 3.57500E+01 0.00000E+00
 -1      3445 1.39388E+01 3.81274E+01 0.00000E+00
 -1      3446 6.98960E+01 3.34799E+01 0.00000E+00
 -1      3447 4.67835E+01 1.71320E+01 0.00000E+00
 -1      3448 4.66639E+01 1.61610E+01 0.00000E+00
 -1      3449 4.56748E+01 1.73621E+01 0.00000E+00
 -1      3450 5.73491E+01 3.62649E+01 0.00000E+00
 -1      3451 4.56949E+01 1.99302E+01 0.00000E+00
 -1      3452 4.50584E+01 1.89938E+01 0.00000E+00
 -1      3453 4.49588E+01 2.05910E+01 0.00000E+00
 -1      3454 1.46888E+01 3.68284E+01 0.00000E+00
 -1      3455 5.62296E+01 9.80706E+00 0.00000E+00
 -1      3456 5.75143E+01 9.47994E+00 0.00000E+00
 -1      3457 2.34000E+01 3.57110E+01 0.00000E+00
 -1      3458 2.49000E+01 3.57110E+01 0.00000E+00
 -1      3459 2.64000E+01 3.57110E+01 0.00000E+00
 -1      3460 2.79000E+01 3.57110E+01 0.00000E+00
 -1      3461 2.56500E+01 3.44120E+01 0.00000E+00
 -1      3462 2.94000E+01 3.57110E+01 0.00000E+00
 -1      3463 3.09000E+01 3.57110E+01 0.00000E+00
 -1      3464 2.86500E+01 3.44120E+01 0.00000E+00
 -1      3465 3.24000E+01 3.57110E+01 0.00000E+00
 -1      3466 3.39000E+01 3.57110E+01 0.00000E+00
 -1      3467 3.16500E+01 3.44120E+01 0.00000E+00
 -1      3468 3.54000E+01 3.57110E+01 0.00000E+00
 -1      3469 3.69000E+01 3.57110E+01 0.00000E+00
 -1      3470 3.46500E+01 3.44120E+01 0.00000E+00
 -1      3471 3.84000E+01 3.57110E+01 0.00000E+00
 -1      3472 3.99000E+01 3.57110E+01 0.00000E+00
 -1      3473 3.76500E+01 3.44120E+01 0.00000E+00
 -1      3474 4.14000E+01 3.57110E+01 0.00000E+00
 -1      3475 4.29000E+01 3.57110E+01 0.00000E+00
 -1      3476 4.06500E+01 3.44120E+01 0.00000E+00
 -1      3477 4.44000E+01 3.57110E+01 0.00000E+00
 -1      3478 4.59000E+01 3.57110E+01 0.00000E+00
 -1      3479 4.36500E+01 3.44120E+01 0.00000E+00
 -1      3480 6.51800E+01 3.66794E+01 0.00000E+00
 -1      3481 6.60117E+01 3.80475E+01 0.00000E+00
 -1      3482 7.14000E+01 3.57560E+01 0.00000E+00
 -1      3483 7.29000E+01 3.57560E+01 0.00000E+00
 -1      3484 7.44000E+01 3.57560E+01 0.00000E+00
 -1      3485 7.59000E+01 3.57560E+01 0.00000E+00
 -1      3486 7.36500E+01 3.44570E+01 0.00000E+00
 -1      3487 7.74000E+01 3.57560E+01 0.00000E+00
 -1      3488 7.89000E+01 3.57560E+01 0.00000E+00
 -1      3489 7.66500E+01 3.44570E+01 0.00000E+00
 -1      3490 8.04000E+01 3.57560E+01 0.00000E+00
 -1      3491 8.19000E+01 3.57560E+01 0.00000E+00
 -1      3492 7.96500E+01 3.44570E+01 0.00000E+00
 -1      3493 8.34000E+01 3.57560E+01 0.00000E+00
 -1      3494 8.49000E+01 3.57560E+01 0.00000E+00
 -1      3495 8.26500E+01 3.44570E+01 0.00000E+00
 -1      3496 8.64000E+01 3.57560E+01 0.00000E+00
 -1      3497 8.79000E+01 3.57560E+01 0.00000E+00
 -1      3498 8.56500E+01 3.44570E+01 0.00000E+00
 -1      3499 8.94000E+01 3.57560E+01 0.00000E+00
 -1      3500 9.09000E+01 3.57560E+01 0.00000E+00
 -1      3501 8.86500E+01 3.44570E+01 0.00000E+00
 -1      3502 9.24000E+01 3.57560E+01 0.00000E+00
 -1      3503 9.39000E+01 3.57560E+01 0.00000E+00
 -1      3504 9.16500E+01 3.44570E+01 0.00000E+00
 -1      3505 9.54000E+01 3.57560E+01 0.00000E+00
 -1      3506 9.69000E+01 3.57560E+01 0.00000E+00
 -1      3507 9.46500E+01 3.44570E+01 0.00000E+00
 -1      3508 9.84000E+01 3.57560E+01 0.00000E+00
 -1      3509 9.99000E+01 3.57560E+01 0.00000E+00
 -1      3510 9.76500E+01 3.44570E+01 0.00000E+00
 -1      3511 1.01400E+02 3.57560E+01 0.00000E+00
 -1      3512 1.02900E+02 3.57560E+01 0.00000E+00
 -1      3513 1.00650E+02 3.44570E+01 0.00000E+00
 -1      3514 1.04400E+02 3.57560E+01 0.00000E+00
 -1      3515 1.05900E+02 3.57560E+01 0.00000E+00
 -1      3516 1.03650E+02 3.44570E+01 0.00000E+00
 -1      3517 1.07400E+02 3.57560E+01 0.00000E+00
 -1      3518 1.08900E+02 3.57560E+01 0.00000E+00
 -1      3519 1.06650E+02 3.44570E+01 0.00000E+00
 -1      3520 1.10400E+02 3.57560E+01 0.00000E+00
 -1      3521 1.11900E+02 3.57560E+01 0.00000E+00
 -1      3522 1.09650E+02 3.44570E+01 0.00000E+00
 -1      3523 1.13400E+02 3.57560E+01 0.00000E+00
 -1      3524 1.14900E+02 3.57560E+01 0.00000E+00
 -1      3525 1.12650E+02 3.44570E+01 0.00000E+00
 -1      3526 1.16400E+02 3.57560E+01 0.00000E+00
 -1      3527 1.17900E+02 3.57560E+01 0.00000E+00
 -1      3528 1.15650E+02 3.44570E+01 0.00000E+00
 -1      3529 1.19400E+02 3.57560E+01 0.00000E+00
 -1      3530 1.20900E+02 3.57560E+01 0.00000E+00
 -1      3531 1.18650E+02 3.44570E+01 0.00000E+00
 -1      3532 1.22400E+02 3.57560E+01 0.00000E+00
 -1      3533 1.23900E+02 3.57560E+01 0.00000E+00
 -1      3534 1.21650E+02 3.44570E+01 0.00000E+00
 -1      3535 1.25400E+02 3.57560E+01 0.00000E+00
 -1      3536 1.26900E+02 3.57560E+01 0.00000E+00
 -1      3537 1.24650E+02 3.44570E+01 0.00000E+00
 -1      3538 1.28400E+02 3.57560E+01 0.00000E+00
 -1      3539 1.29900E+02 3.57560E+01 0.00000E+00
 -1      3540 1.27650E+02 3.44570E+01 0.00000E+00
 -1      3541 1.31400E+02 3.57560E+01 0.00000E+00
 -1      3542 1.32900E+02 3.57560E+01 0.00000E+00
 -1      3543 1.30650E+02 3.44570E+01 0.00000E+00
 -1      3544 1.34115E+02 3.55980E+01 0.00000E+00
 -1      3545 1.35615E+02 3.55980E+01 0.00000E+00
 -1      3546 1.35795E+02 3.39830E+01 0.00000E+00
 -1      3547 1.33365E+02 3.42990E+01 0.00000E+00
 -1      3548 3.32850E+01 1.30992E+01 0.00000E+00
 -1      3549 3.17850E+01 1.30992E+01 0.00000E+00
 -1      3550 4.52850E+01 1.30992E+01 0.00000E+00
 -1      3551 4.37850E+01 1.30992E+01 0.00000E+00
 -1      3552 4.22850E+01 1.30992E+01 0.00000E+00
 -1      3553 4.07850E+01 1.30992E+01 0.00000E+00
 -1      3554 4.30350E+01 1.43982E+01 0.00000E+00
 -1      3555 4.77533E+01 1.26375E+01 0.00000E+00
 -1      3556 6.03526E+01 9.69765E+00 0.00000E+00
 -1      3557 8.12850E+01 1.28866E+01 0.00000E+00
 -1      3558 7.97850E+01 1.28866E+01 0.00000E+00
 -1      3559 4.49452E+01 2.70681E+01 0.00000E+00
 -1      3560 4.46248E+01 2.57126E+01 0.00000E+00
 -1      3561 7.82850E+01 1.28866E+01 0.00000E+00
 -1      3562 7.67850E+01 1.28866E+01 0.00000E+00
 -1      3563 7.90350E+01 1.41856E+01 0.00000E+00
 -1      3564 8.72850E+01 1.28866E+01 0.00000E+00
 -1      3565 8.57850E+01 1.28866E+01 0.00000E+00
 -1      3566 9.02850E+01 1.28866E+01 0.00000E+00
 -1      3567 8.87850E+01 1.28866E+01 0.00000E+00
 -1      3568 8.80350E+01 1.41856E+01 0.00000E+00
 -1      3569 9.32850E+01 1.28866E+01 0.00000E+00
 -1      3570 9.17850E+01 1.28866E+01 0.00000E+00
 -1      3571 9.10350E+01 1.41856E+01 0.00000E+00
 -1      3572 9.62850E+01 1.28866E+01 0.00000E+00
 -1      3573 9.47850E+01 1.28866E+01 0.00000E+00
 -1      3574 9.40350E+01 1.41856E+01 0.00000E+00
 -1      3575 9.92850E+01 1.28866E+01 0.00000E+00
 -1      3576 9.77850E+01 1.28866E+01 0.00000E+00
 -1      3577 9.70350E+01 1.41856E+01 0.00000E+00
 -1      3578 1.02285E+02 1.28866E+01 0.00000E+00
 -1      3579 1.00785E+02 1.28866E+01 0.00000E+00
 -1      3580 1.00035E+02 1.41856E+01 0.00000E+00
 -1      3581 1.05285E+02 1.28866E+01 0.00000E+00
 -1      3582 1.03785E+02 1.28866E+01 0.00000E+00
 -1      3583 1.03035E+02 1.41856E+01 0.00000E+00
 -1      3584 1.08285E+02 1.28866E+01 0.00000E+00
 -1      3585 1.06785E+02 1.28866E+01 0.00000E+00
 -1      3586 1.06035E+02 1.41856E+01 0.00000E+00
 -1      3587 1.11285E+02 1.28866E+01 0.00000E+00
 -1      3588 1.09785E+02 1.28866E+01 0.00000E+00
 -1      3589 1.09035E+02 1.41856E+01 0.00000E+00
 -1      3590 1.14285E+02 1.28866E+01 0.00000E+00
 -1      3591 1.12785E+02 1.28866E+01 0.00000E+00
 -1      3592 1.12035E+02 1.41856E+01 0.00000E+00
 -1      3593 1.17285E+02 1.28866E+01 0.00000E+00
 -1      3594 1.15785E+02 1.28866E+01 0.00000E+00
 -1      3595 1.15035E+02 1.41856E+01 0.00000E+00
 -1      3596 1.20285E+02 1.28866E+01 0.00000E+00
 -1      3597 1.18785E+02 1.28866E+01 0.00000E+00
 -1      3598 1.18035E+02 1.41856E+01 0.00000E+00
 -1      3599 1.23285E+02 1.28866E+01 0.00000E+00
 -1      3600 1.21785E+02 1.28866E+01 0.00000E+00
 -1      3601 1.21035E+02 1.41856E+01 0.00000E+00
 -1      3602 1.26285E+02 1.28866E+01 0.00000E+00
 -1      3603 1.24785E+02 1.28866E+01 0.00000E+00
 -1      3604 1.24035E+02 1.41856E+01 0.00000E+00
 -1      3605 1.29285E+02 1.28866E+01 0.00000E+00
 -1      3606 1.27785E+02 1.28866E+01 0.00000E+00
 -1      3607 1.27035E+02 1.41856E+01 0.00000E+00
 -1      3608 1.32285E+02 1.28866E+01 0.00000E+00
 -1      3609 1.30785E+02 1.28866E+01 0.00000E+00
 -1      3610 1.30035E+02 1.41856E+01 0.00000E+00
 -1      3611 1.35285E+02 1.28866E+01 0.00000E+00
 -1      3612 1.33785E+02 1.28866E+01 0.00000E+00
 -1      3613 1.33035E+02 1.41856E+01 0.00000E+00
 -1      3614 1.35795E+02 3.25080E+01 0.00000E+00
 -1      3615 1.35795E+02 3.10330E+01 0.00000E+00
 -1      3616 1.34580E+02 3.26660E+01 0.00000E+00
 -1      3617 7.22649E+01 1.21310E+01 0.00000E+00
 -1      3618 1.38528E+02 1.43817E+01 0.00000E+00
 -1      3619 1.38594E+02 1.31148E+01 0.00000E+00
 -1      3620 1.37668E+02 1.29639E+01 0.00000E+00
 -1      3621 1.37229E+02 1.51130E+01 0.00000E+00
 -1      3622 7.53539E+01 1.45838E+01 0.00000E+00
 -1      3623 7.59489E+01 1.57528E+01 0.00000E+00
 -1      3624 8.42850E+01 1.28866E+01 0.00000E+00
 -1      3625 8.27850E+01 1.28866E+01 0.00000E+00
 -1      3626 8.50350E+01 1.41856E+01 0.00000E+00
 -1      3627 7.46260E+01 2.85218E+01 0.00000E+00
 -1      3628 7.39945E+01 2.99760E+01 0.00000E+00
 -1      3629 5.09470E+01 1.11747E+01 0.00000E+00
 -1      3630 7.31039E+01 1.32848E+01 0.00000E+00
 -1      3631 7.46039E+01 1.32848E+01 0.00000E+00
 -1      3632 5.90143E+01 9.47994E+00 0.00000E+00
 -1      3633 1.48200E+01 3.54019E+01 0.00000E+00
 -1      3634 6.67617E+01 3.67711E+01 0.00000E+00
 -1      3635 1.16910E+01 2.71844E+01 0.00000E+00
 -1      3636 1.16910E+01 2.86531E+01 0.00000E+00
 -1      3637 1.29900E+01 2.93875E+01 0.00000E+00
 -1      3638 7.16135E+01 3.34013E+01 0.00000E+00
 -1      3639 7.04325E+01 3.45356E+01 0.00000E+00
 -1      3640 2.04000E+01 3.57110E+01 0.00000E+00
 -1      3641 2.19000E+01 3.57110E+01 0.00000E+00
 -1      3642 2.26500E+01 3.44120E+01 0.00000E+00
 -1      3643 1.74000E+01 3.57110E+01 0.00000E+00
 -1      3644 1.89000E+01 3.57110E+01 0.00000E+00
 -1      3645 1.96500E+01 3.44120E+01 0.00000E+00
 -1      3646 5.10274E+01 3.56071E+01 0.00000E+00
 -1      3647 7.32194E+01 3.11760E+01 0.00000E+00
 -1      3648 7.23886E+01 3.22014E+01 0.00000E+00
 -1      3649 7.29251E+01 3.32571E+01 0.00000E+00
 -1      3650 7.44754E+01 3.08571E+01 0.00000E+00
 -1      3651 1.42800E+01 3.32139E+01 0.00000E+00
 -1      3652 1.61100E+01 3.48221E+01 0.00000E+00
 -1      3653 1.68600E+01 3.35231E+01 0.00000E+00
 -1      3654 1.42800E+01 3.17452E+01 0.00000E+00
 -1      3655 7.54914E+01 2.55416E+01 0.00000E+00
 -1      3656 7.51027E+01 2.69396E+01 0.00000E+00
 -1      3657 1.46944E+01 1.23503E+01 0.00000E+00
 -1      3658 1.43081E+01 1.33498E+01 0.00000E+00
 -1      3659 1.60125E+01 1.25001E+01 0.00000E+00
 -1      3660 4.65773E+01 1.51171E+01 0.00000E+00
 -1      3661 1.35711E+02 2.42875E+01 0.00000E+00
 -1      3662 1.35711E+02 2.28125E+01 0.00000E+00
 -1      3663 4.95057E+01 3.28884E+01 0.00000E+00
 -1      3664 4.85391E+01 3.28110E+01 0.00000E+00
 -1      3665 4.96125E+01 3.39546E+01 0.00000E+00
 -1      3666 1.29900E+01 2.64469E+01 0.00000E+00
 -1      3667 1.29900E+01 1.76125E+01 0.00000E+00
 -1      3668 7.69336E+01 1.96309E+01 0.00000E+00
 -1      3669 7.61801E+01 2.07335E+01 0.00000E+00
 -1      3670 7.69827E+01 2.16061E+01 0.00000E+00
 -1      3671 4.42027E+01 1.86837E+01 0.00000E+00
 -1      3672 4.49388E+01 1.80229E+01 0.00000E+00
 -1      3673 4.48192E+01 1.70519E+01 0.00000E+00
 -1      3674 4.68979E+01 3.41446E+01 0.00000E+00
 -1      3675 4.76479E+01 3.54436E+01 0.00000E+00
 -1      3676 4.91479E+01 3.54436E+01 0.00000E+00
 -1      3677 2.42850E+01 1.30992E+01 0.00000E+00
 -1      3678 2.27850E+01 1.30992E+01 0.00000E+00
 -1      3679 3.10350E+01 1.43982E+01 0.00000E+00
 -1      3680 3.02850E+01 1.30992E+01 0.00000E+00
 -1      3681 2.87850E+01 1.30992E+01 0.00000E+00
 -1      3682 2.65350E+01 1.18003E+01 0.00000E+00
 -1      3683 2.12850E+01 1.30992E+01 0.00000E+00
 -1      3684 1.97850E+01 1.30992E+01 0.00000E+00
 -1      3685 2.20350E+01 1.43982E+01 0.00000E+00
 -1      3686 4.00350E+01 1.43982E+01 0.00000E+00
 -1      3687 3.92850E+01 1.30992E+01 0.00000E+00
 -1      3688 3.77850E+01 1.30992E+01 0.00000E+00
 -1      3689 4.50424E+01 2.79412E+01 0.00000E+00
 -1      3690 4.38845E+01 2.74992E+01 0.00000E+00
 -1      3691 4.51396E+01 2.88144E+01 0.00000E+00
 -1      3692 6.96825E+01 3.58346E+01 0.00000E+00
 -1      3693 4.38610E+01 2.48558E+01 0.00000E+00
 -1      3694 4.30972E+01 2.39989E+01 0.00000E+00
 -1      3695 4.30235E+01 2.57693E+01 0.00000E+00
 -1      3696 8.20350E+01 1.41856E+01 0.00000E+00
 -1      3697 1.34580E+02 2.97285E+01 0.00000E+00
 -1      3698 1.35795E+02 2.95705E+01 0.00000E+00
 -1      3699 1.35795E+02 2.81080E+01 0.00000E+00
 -1      3700 1.36742E+02 1.28130E+01 0.00000E+00
 -1      3701 1.35773E+02 1.51866E+01 0.00000E+00
 -1      3702 1.35992E+02 1.41120E+01 0.00000E+00
 -1      3703 1.35574E+02 1.66970E+01 0.00000E+00
 -1      3704 1.34337E+02 1.56961E+01 0.00000E+00
 -1      3705 6.81825E+01 3.58346E+01 0.00000E+00
 -1      3706 4.73493E+01 3.14526E+01 0.00000E+00
 -1      3707 4.73649E+01 3.05006E+01 0.00000E+00
 -1      3708 4.62818E+01 3.02084E+01 0.00000E+00
 -1      3709 3.47850E+01 1.30992E+01 0.00000E+00
 -1      3710 3.40350E+01 1.43982E+01 0.00000E+00
 -1      3711 3.62850E+01 1.30992E+01 0.00000E+00
 -1      3712 4.32981E+01 2.21490E+01 0.00000E+00
 -1      3713 4.41285E+01 2.13700E+01 0.00000E+00
 -1      3714 4.34920E+01 2.04336E+01 0.00000E+00
 -1      3715 7.57273E+01 2.80750E+01 0.00000E+00
 -1      3716 1.42890E+01 1.98219E+01 0.00000E+00
 -1      3717 1.42890E+01 2.12906E+01 0.00000E+00
 -1      3718 1.35753E+02 2.69290E+01 0.00000E+00
 -1      3719 1.35753E+02 2.54665E+01 0.00000E+00
 -1      3720 1.34454E+02 2.47290E+01 0.00000E+00
 -1      3721 1.34538E+02 2.70870E+01 0.00000E+00
 -1      3722 1.35574E+02 1.81689E+01 0.00000E+00
 -1      3723 5.01145E+01 3.55210E+01 0.00000E+00
 -1      3724 7.62166E+01 2.46007E+01 0.00000E+00
 -1      3725 7.69291E+01 2.55519E+01 0.00000E+00
 -1      3726 7.69418E+01 2.36598E+01 0.00000E+00
 -1      3727 7.79340E+01 1.53288E+01 0.00000E+00
 -1      3728 7.63479E+01 1.68960E+01 0.00000E+00
 -1      3729 7.72320E+01 1.76151E+01 0.00000E+00
 -1      3730 7.94340E+01 1.53288E+01 0.00000E+00
 -1      3731 1.43081E+01 1.48185E+01 0.00000E+00
 -1      3732 1.42890E+01 2.27656E+01 0.00000E+00
 -1      3733 1.42890E+01 2.42406E+01 0.00000E+00
 -1      3734 1.55880E+01 2.20313E+01 0.00000E+00
 -1      3735 1.42890E+01 2.57125E+01 0.00000E+00
 -1      3736 1.42890E+01 2.71844E+01 0.00000E+00
 -1      3737 1.55880E+01 2.49781E+01 0.00000E+00
 -1      3738 2.79000E+01 3.31130E+01 0.00000E+00
 -1      3739 2.94000E+01 3.31130E+01 0.00000E+00
 -1      3740 3.09000E+01 3.31130E+01 0.00000E+00
 -1      3741 3.24000E+01 3.31130E+01 0.00000E+00
 -1      3742 3.01500E+01 3.18140E+01 0.00000E+00
 -1      3743 3.39000E+01 3.31130E+01 0.00000E+00
 -1      3744 3.54000E+01 3.31130E+01 0.00000E+00
 -1      3745 3.31500E+01 3.18140E+01 0.00000E+00
 -1      3746 3.69000E+01 3.31130E+01 0.00000E+00
 -1      3747 3.84000E+01 3.31130E+01 0.00000E+00
 -1      3748 3.61500E+01 3.18140E+01 0.00000E+00
 -1      3749 3.99000E+01 3.31130E+01 0.00000E+00
 -1      3750 4.14000E+01 3.31130E+01 0.00000E+00
 -1      3751 3.91500E+01 3.18140E+01 0.00000E+00
 -1      3752 4.50451E+01 1.53947E+01 0.00000E+00
 -1      3753 4.60672E+01 1.41206E+01 0.00000E+00
 -1      3754 2.57850E+01 1.30992E+01 0.00000E+00
 -1      3755 2.50350E+01 1.43982E+01 0.00000E+00
 -1      3756 2.72850E+01 1.30992E+01 0.00000E+00
 -1      3757 7.59000E+01 3.31580E+01 0.00000E+00
 -1      3758 7.74000E+01 3.31580E+01 0.00000E+00
 -1      3759 7.89000E+01 3.31580E+01 0.00000E+00
 -1      3760 8.04000E+01 3.31580E+01 0.00000E+00
 -1      3761 7.81500E+01 3.18590E+01 0.00000E+00
 -1      3762 8.19000E+01 3.31580E+01 0.00000E+00
 -1      3763 8.34000E+01 3.31580E+01 0.00000E+00
 -1      3764 8.11500E+01 3.18590E+01 0.00000E+00
 -1      3765 8.49000E+01 3.31580E+01 0.00000E+00
 -1      3766 8.64000E+01 3.31580E+01 0.00000E+00
 -1      3767 8.41500E+01 3.18590E+01 0.00000E+00
 -1      3768 8.79000E+01 3.31580E+01 0.00000E+00
 -1      3769 8.94000E+01 3.31580E+01 0.00000E+00
 -1      3770 8.71500E+01 3.18590E+01 0.00000E+00
 -1      3771 9.09000E+01 3.31580E+01 0.00000E+00
 -1      3772 9.24000E+01 3.31580E+01 0.00000E+00
 -1      3773 9.01500E+01 3.18590E+01 0.00000E+00
 -1      3774 9.39000E+01 3.31580E+01 0.00000E+00
 -1      3775 9.54000E+01 3.31580E+01 0.00000E+00
 -1      3776 9.31500E+01 3.18590E+01 0.00000E+00
 -1      3777 9.69000E+01 3.31580E+01 0.00000E+00
 -1      3778 9.84000E+01 3.31580E+01 0.00000E+00
 -1      3779 9.61500E+01 3.18590E+01 0.00000E+00
 -1      3780 9.99000E+01 3.31580E+01 0.00000E+00
 -1      3781 1.01400E+02 3.31580E+01 0.00000E+00
 -1      3782 9.91500E+01 3.18590E+01 0.00000E+00
 -1      3783 1.02900E+02 3.31580E+01 0.00000E+00
 -1      3784 1.04400E+02 3.31580E+01 0.00000E+00
 -1      3785 1.02150E+02 3.18590E+01 0.00000E+00
 -1      3786 1.05900E+02 3.31580E+01 0.00000E+00
 -1      3787 1.07400E+02 3.31580E+01 0.00000E+00
 -1      3788 1.05150E+02 3.18590E+01 0.00000E+00
 -1      3789 1.08900E+02 3.31580E+01 0.00000E+00
 -1      3790 1.10400E+02 3.31580E+01 0.00000E+00
 -1      3791 1.08150E+02 3.18590E+01 0.00000E+00
 -1      3792 1.11900E+02 3.31580E+01 0.00000E+00
 -1      3793 1.13400E+02 3.31580E+01 0.00000E+00
 -1      3794 1.11150E+02 3.18590E+01 0.00000E+00
 -1      3795 1.14900E+02 3.31580E+01 0.00000E+00
 -1      3796 1.16400E+02 3.31580E+01 0.00000E+00
 -1      3797 1.14150E+02 3.18590E+01 0.00000E+00
 -1      3798 1.17900E+02 3.31580E+01 0.00000E+00
 -1      3799 1.19400E+02 3.31580E+01 0.00000E+00
 -1      3800 1.17150E+02 3.18590E+01 0.00000E+00
 -1      3801 1.20900E+02 3.31580E+01 0.00000E+00
 -1      3802 1.22400E+02 3.31580E+01 0.00000E+00
 -1      3803 1.20150E+02 3.18590E+01 0.00000E+00
 -1      3804 1.23900E+02 3.31580E+01 0.00000E+00
 -1      3805 1.25400E+02 3.31580E+01 0.00000E+00
 -1      3806 1.23150E+02 3.18590E+01 0.00000E+00
 -1      3807 1.26900E+02 3.31580E+01 0.00000E+00
 -1      3808 1.28400E+02 3.31580E+01 0.00000E+00
 -1      3809 1.26150E+02 3.18590E+01 0.00000E+00
 -1      3810 1.29900E+02 3.31580E+01 0.00000E+00
 -1      3811 1.31400E+02 3.31580E+01 0.00000E+00
 -1      3812 1.29150E+02 3.18590E+01 0.00000E+00
 -1      3813 1.32383E+02 3.29910E+01 0.00000E+00
 -1      3814 1.33598E+02 3.28330E+01 0.00000E+00
 -1      3815 1.33598E+02 3.13580E+01 0.00000E+00
 -1      3816 1.31633E+02 3.16920E+01 0.00000E+00
 -1      3817 4.68172E+01 1.28216E+01 0.00000E+00
 -1      3818 1.58860E+01 1.50773E+01 0.00000E+00
 -1      3819 1.45679E+01 1.63963E+01 0.00000E+00
 -1      3820 8.27850E+01 1.54846E+01 0.00000E+00
 -1      3821 8.12850E+01 1.54846E+01 0.00000E+00
 -1      3822 9.17850E+01 1.54846E+01 0.00000E+00
 -1      3823 9.02850E+01 1.54846E+01 0.00000E+00
 -1      3824 8.87850E+01 1.54846E+01 0.00000E+00
 -1      3825 8.72850E+01 1.54846E+01 0.00000E+00
 -1      3826 8.95350E+01 1.67836E+01 0.00000E+00
 -1      3827 9.77850E+01 1.54846E+01 0.00000E+00
 -1      3828 9.62850E+01 1.54846E+01 0.00000E+00
 -1      3829 1.00785E+02 1.54846E+01 0.00000E+00
 -1      3830 9.92850E+01 1.54846E+01 0.00000E+00
 -1      3831 9.85350E+01 1.67836E+01 0.00000E+00
 -1      3832 1.03785E+02 1.54846E+01 0.00000E+00
 -1      3833 1.02285E+02 1.54846E+01 0.00000E+00
 -1      3834 1.01535E+02 1.67836E+01 0.00000E+00
 -1      3835 1.06785E+02 1.54846E+01 0.00000E+00
 -1      3836 1.05285E+02 1.54846E+01 0.00000E+00
 -1      3837 1.04535E+02 1.67836E+01 0.00000E+00
 -1      3838 1.09785E+02 1.54846E+01 0.00000E+00
 -1      3839 1.08285E+02 1.54846E+01 0.00000E+00
 -1      3840 1.07535E+02 1.67836E+01 0.00000E+00
 -1      3841 1.12785E+02 1.54846E+01 0.00000E+00
 -1      3842 1.11285E+02 1.54846E+01 0.00000E+00
 -1      3843 1.10535E+02 1.67836E+01 0.00000E+00
 -1      3844 1.15785E+02 1.54846E+01 0.00000E+00
 -1      3845 1.14285E+02 1.54846E+01 0.00000E+00
 -1      3846 1.13535E+02 1.67836E+01 0.00000E+00
 -1      3847 1.18785E+02 1.54846E+01 0.00000E+00
 -1      3848 1.17285E+02 1.54846E+01 0.00000E+00
 -1      3849 1.16535E+02 1.67836E+01 0.00000E+00
 -1      3850 1.21785E+02 1.54846E+01 0.00000E+00
 -1      3851 1.20285E+02 1.54846E+01 0.00000E+00
 -1      3852 1.19535E+02 1.67836E+01 0.00000E+00
 -1      3853 1.24785E+02 1.54846E+01 0.00000E+00
 -1      3854 1.23285E+02 1.54846E+01 0.00000E+00
 -1      3855 1.22535E+02 1.67836E+01 0.00000E+00
 -1      3856 1.27785E+02 1.54846E+01 0.00000E+00
 -1      3857 1.26285E+02 1.54846E+01 0.00000E+00
 -1      3858 1.25535E+02 1.67836E+01 0.00000E+00
 -1      3859 1.30785E+02 1.54846E+01 0.00000E+00
 -1      3860 1.29285E+02 1.54846E+01 0.00000E+00
 -1      3861 1.28535E+02 1.67836E+01 0.00000E+00
 -1      3862 1.32837E+02 1.56961E+01 0.00000E+00
 -1      3863 1.35711E+02 2.13406E+01 0.00000E+00
 -1      3864 1.35711E+02 1.98687E+01 0.00000E+00
 -1      3865 1.34412E+02 2.20781E+01 0.00000E+00
 -1      3866 1.85578E+01 1.28746E+01 0.00000E+00
 -1      3867 1.72397E+01 1.27248E+01 0.00000E+00
 -1      3868 1.68534E+01 1.37242E+01 0.00000E+00
 -1      3869 1.93078E+01 1.41736E+01 0.00000E+00
 -1      3870 8.57850E+01 1.54846E+01 0.00000E+00
 -1      3871 8.42850E+01 1.54846E+01 0.00000E+00
 -1      3872 8.65350E+01 1.67836E+01 0.00000E+00
 -1      3873 1.45679E+01 1.78713E+01 0.00000E+00
 -1      3874 1.34275E+02 1.89064E+01 0.00000E+00
 -1      3875 4.41821E+01 1.62233E+01 0.00000E+00
 -1      3876 4.36720E+01 1.52269E+01 0.00000E+00
 -1      3877 4.21720E+01 1.52269E+01 0.00000E+00
 -1      3878 4.34461E+01 1.68841E+01 0.00000E+00
 -1      3879 1.32087E+02 1.69951E+01 0.00000E+00
 -1      3880 1.58669E+01 1.86056E+01 0.00000E+00
 -1      3881 2.19000E+01 3.31130E+01 0.00000E+00
 -1      3882 2.34000E+01 3.31130E+01 0.00000E+00
 -1      3883 1.42890E+01 2.86531E+01 0.00000E+00
 -1      3884 1.42890E+01 3.01219E+01 0.00000E+00
 -1      3885 1.55880E+01 2.79188E+01 0.00000E+00
 -1      3886 7.70274E+01 2.76038E+01 0.00000E+00
 -1      3887 7.65507E+01 2.91860E+01 0.00000E+00
 -1      3888 2.49000E+01 3.31130E+01 0.00000E+00
 -1      3889 2.64000E+01 3.31130E+01 0.00000E+00
 -1      3890 2.41500E+01 3.18140E+01 0.00000E+00
 -1      3891 9.47850E+01 1.54846E+01 0.00000E+00
 -1      3892 9.32850E+01 1.54846E+01 0.00000E+00
 -1      3893 9.25350E+01 1.67836E+01 0.00000E+00
 -1      3894 9.55350E+01 1.67836E+01 0.00000E+00
 -1      3895 7.44251E+01 3.32571E+01 0.00000E+00
 -1      3896 1.89000E+01 3.31130E+01 0.00000E+00
 -1      3897 2.04000E+01 3.31130E+01 0.00000E+00
 -1      3898 2.11500E+01 3.18140E+01 0.00000E+00
 -1      3899 4.67912E+01 3.30784E+01 0.00000E+00
 -1      3900 3.17850E+01 1.56973E+01 0.00000E+00
 -1      3901 3.02850E+01 1.56973E+01 0.00000E+00
 -1      3902 7.80346E+01 1.84877E+01 0.00000E+00
 -1      3903 2.71500E+01 3.18140E+01 0.00000E+00
 -1      3904 4.33724E+01 1.94626E+01 0.00000E+00
 -1      3905 4.32528E+01 1.84917E+01 0.00000E+00
 -1      3906 4.25420E+01 2.02416E+01 0.00000E+00
 -1      3907 7.84777E+01 2.57220E+01 0.00000E+00
 -1      3908 7.77525E+01 2.66629E+01 0.00000E+00
 -1      3909 7.85760E+01 2.77739E+01 0.00000E+00
 -1      3910 8.01840E+01 1.66278E+01 0.00000E+00
 -1      3911 4.29000E+01 3.31130E+01 0.00000E+00
 -1      3912 4.44000E+01 3.31130E+01 0.00000E+00
 -1      3913 2.57850E+01 1.56973E+01 0.00000E+00
 -1      3914 2.42850E+01 1.56973E+01 0.00000E+00
 -1      3915 2.80350E+01 1.43982E+01 0.00000E+00
 -1      3916 7.72504E+01 3.02869E+01 0.00000E+00
 -1      3917 7.59503E+01 3.07581E+01 0.00000E+00
 -1      3918 2.27850E+01 1.56973E+01 0.00000E+00
 -1      3919 2.12850E+01 1.56973E+01 0.00000E+00
 -1      3920 2.35350E+01 1.69963E+01 0.00000E+00
 -1      3921 1.32615E+02 3.00625E+01 0.00000E+00
 -1      3922 1.33598E+02 2.98955E+01 0.00000E+00
 -1      3923 1.33598E+02 2.84330E+01 0.00000E+00
 -1      3924 4.13091E+01 1.60555E+01 0.00000E+00
 -1      3925 4.06720E+01 1.52269E+01 0.00000E+00
 -1      3926 3.91720E+01 1.52269E+01 0.00000E+00
 -1      3927 1.71132E+01 1.53020E+01 0.00000E+00
 -1      3928 4.49737E+01 3.05352E+01 0.00000E+00
 -1      3929 4.38159E+01 3.00932E+01 0.00000E+00
 -1      3930 4.25777E+01 2.69356E+01 0.00000E+00
 -1      3931 4.18139E+01 2.60788E+01 0.00000E+00
 -1      3932 1.76100E+01 3.22241E+01 0.00000E+00
 -1      3933 7.51751E+01 3.19581E+01 0.00000E+00
 -1      3934 1.72923E+01 1.78142E+01 0.00000E+00
 -1      3935 1.70134E+01 1.97648E+01 0.00000E+00
 -1      3936 1.33113E+02 2.28141E+01 0.00000E+00
 -1      3937 1.33113E+02 2.13422E+01 0.00000E+00
 -1      3938 4.21500E+01 3.18140E+01 0.00000E+00
 -1      3939 8.35350E+01 1.67836E+01 0.00000E+00
 -1      3940 7.84487E+01 2.14547E+01 0.00000E+00
 -1      3941 7.76952E+01 2.25573E+01 0.00000E+00
 -1      3942 7.84078E+01 2.35085E+01 0.00000E+00
 -1      3943 1.32668E+02 2.00186E+01 0.00000E+00
 -1      3944 1.32532E+02 1.83187E+01 0.00000E+00
 -1      3945 1.30480E+02 1.81073E+01 0.00000E+00
 -1      3946 1.31369E+02 2.07545E+01 0.00000E+00
 -1      3947 3.70350E+01 1.43982E+01 0.00000E+00
 -1      3948 4.24607E+01 2.30625E+01 0.00000E+00
 -1      3949 4.18241E+01 2.21261E+01 0.00000E+00
 -1      3950 4.16232E+01 2.39761E+01 0.00000E+00
 -1      3951 1.33197E+02 2.51721E+01 0.00000E+00
 -1      3952 1.33155E+02 2.39931E+01 0.00000E+00
 -1      3953 1.31856E+02 2.32571E+01 0.00000E+00
 -1      3954 1.84387E+01 2.04483E+01 0.00000E+00
 -1      3955 1.70134E+01 2.12398E+01 0.00000E+00
 -1      3956 1.70134E+01 2.27148E+01 0.00000E+00
 -1      3957 3.47850E+01 1.56973E+01 0.00000E+00
 -1      3958 3.32850E+01 1.56973E+01 0.00000E+00
 -1      3959 3.25350E+01 1.69963E+01 0.00000E+00
 -1      3960 1.55790E+01 3.10108E+01 0.00000E+00
 -1      3961 4.26749E+01 2.78087E+01 0.00000E+00
 -1      3962 4.57081E+01 3.27862E+01 0.00000E+00
 -1      3963 1.76190E+01 3.06007E+01 0.00000E+00
 -1      3964 7.94656E+01 1.80334E+01 0.00000E+00
 -1      3965 7.91671E+01 2.00492E+01 0.00000E+00
 -1      3966 7.98797E+01 2.10004E+01 0.00000E+00
 -1      3967 8.13166E+01 1.81892E+01 0.00000E+00
 -1      3968 8.43166E+01 1.81892E+01 0.00000E+00
 -1      3969 8.28166E+01 1.81892E+01 0.00000E+00
 -1      3970 8.20981E+01 1.95948E+01 0.00000E+00
 -1      3971 4.25994E+01 1.76879E+01 0.00000E+00
 -1      3972 4.19624E+01 1.68593E+01 0.00000E+00
 -1      3973 4.04624E+01 1.68593E+01 0.00000E+00
 -1      3974 4.17691E+01 1.84669E+01 0.00000E+00
 -1      3975 3.24000E+01 3.05150E+01 0.00000E+00
 -1      3976 3.39000E+01 3.05150E+01 0.00000E+00
 -1      3977 3.54000E+01 3.05150E+01 0.00000E+00
 -1      3978 3.69000E+01 3.05150E+01 0.00000E+00
 -1      3979 3.46500E+01 2.92160E+01 0.00000E+00
 -1      3980 3.84000E+01 3.05150E+01 0.00000E+00
 -1      3981 3.99000E+01 3.05150E+01 0.00000E+00
 -1      3982 3.76500E+01 2.92160E+01 0.00000E+00
 -1      3983 2.87850E+01 1.56973E+01 0.00000E+00
 -1      3984 2.72850E+01 1.56973E+01 0.00000E+00
 -1      3985 2.95350E+01 1.69963E+01 0.00000E+00
 -1      3986 1.05285E+02 1.80826E+01 0.00000E+00
 -1      3987 1.03785E+02 1.80826E+01 0.00000E+00
 -1      3988 7.87504E+01 3.02869E+01 0.00000E+00
 -1      3989 8.34000E+01 3.05600E+01 0.00000E+00
 -1      3990 8.49000E+01 3.05600E+01 0.00000E+00
 -1      3991 8.64000E+01 3.05600E+01 0.00000E+00
 -1      3992 8.79000E+01 3.05600E+01 0.00000E+00
 -1      3993 8.56500E+01 2.92610E+01 0.00000E+00
 -1      3994 8.94000E+01 3.05600E+01 0.00000E+00
 -1      3995 9.09000E+01 3.05600E+01 0.00000E+00
 -1      3996 8.86500E+01 2.92610E+01 0.00000E+00
 -1      3997 9.24000E+01 3.05600E+01 0.00000E+00
 -1      3998 9.39000E+01 3.05600E+01 0.00000E+00
 -1      3999 9.16500E+01 2.92610E+01 0.00000E+00
 -1      4000 9.54000E+01 3.05600E+01 0.00000E+00
 -1      4001 9.69000E+01 3.05600E+01 0.00000E+00
 -1      4002 9.46500E+01 2.92610E+01 0.00000E+00
 -1      4003 9.84000E+01 3.05600E+01 0.00000E+00
 -1      4004 9.99000E+01 3.05600E+01 0.00000E+00
 -1      4005 9.76500E+01 2.92610E+01 0.00000E+00
 -1      4006 1.01400E+02 3.05600E+01 0.00000E+00
 -1      4007 1.02900E+02 3.05600E+01 0.00000E+00
 -1      4008 1.00650E+02 2.92610E+01 0.00000E+00
 -1      4009 1.04400E+02 3.05600E+01 0.00000E+00
 -1      4010 1.05900E+02 3.05600E+01 0.00000E+00
 -1      4011 1.03650E+02 2.92610E+01 0.00000E+00
 -1      4012 1.07400E+02 3.05600E+01 0.00000E+00
 -1      4013 1.08900E+02 3.05600E+01 0.00000E+00
 -1      4014 1.06650E+02 2.92610E+01 0.00000E+00
 -1      4015 1.10400E+02 3.05600E+01 0.00000E+00
 -1      4016 1.11900E+02 3.05600E+01 0.00000E+00
 -1      4017 1.09650E+02 2.92610E+01 0.00000E+00
 -1      4018 1.13400E+02 3.05600E+01 0.00000E+00
 -1      4019 1.14900E+02 3.05600E+01 0.00000E+00
 -1      4020 1.12650E+02 2.92610E+01 0.00000E+00
 -1      4021 1.16400E+02 3.05600E+01 0.00000E+00
 -1      4022 1.17900E+02 3.05600E+01 0.00000E+00
 -1      4023 1.15650E+02 2.92610E+01 0.00000E+00
 -1      4024 1.19400E+02 3.05600E+01 0.00000E+00
 -1      4025 1.20900E+02 3.05600E+01 0.00000E+00
 -1      4026 1.18650E+02 2.92610E+01 0.00000E+00
 -1      4027 1.22400E+02 3.05600E+01 0.00000E+00
 -1      4028 1.23900E+02 3.05600E+01 0.00000E+00
 -1      4029 1.21650E+02 2.92610E+01 0.00000E+00
 -1      4030 1.25400E+02 3.05600E+01 0.00000E+00
 -1      4031 1.26900E+02 3.05600E+01 0.00000E+00
 -1      4032 1.24650E+02 2.92610E+01 0.00000E+00
 -1      4033 1.28400E+02 3.05600E+01 0.00000E+00
 -1      4034 1.29900E+02 3.05600E+01 0.00000E+00
 -1      4035 1.27650E+02 2.92610E+01 0.00000E+00
 -1      4036 1.30766E+02 3.03948E+01 0.00000E+00
 -1      4037 1.31749E+02 3.02278E+01 0.00000E+00
 -1      4038 1.31749E+02 2.87653E+01 0.00000E+00
 -1      4039 1.30016E+02 2.90958E+01 0.00000E+00
 -1      4040 4.49581E+01 3.14872E+01 0.00000E+00
 -1      4041 9.02850E+01 1.80826E+01 0.00000E+00
 -1      4042 8.87850E+01 1.80826E+01 0.00000E+00
 -1      4043 1.87837E+01 1.53173E+01 0.00000E+00
 -1      4044 1.78163E+01 1.66704E+01 0.00000E+00
 -1      4045 1.89628E+01 1.78296E+01 0.00000E+00
 -1      4046 2.00109E+01 1.55420E+01 0.00000E+00
 -1      4047 4.07315E+01 2.63087E+01 0.00000E+00
 -1      4048 4.11773E+01 2.51424E+01 0.00000E+00
 -1      4049 4.05408E+01 2.42060E+01 0.00000E+00
 -1      4050 2.64000E+01 3.05150E+01 0.00000E+00
 -1      4051 2.79000E+01 3.05150E+01 0.00000E+00
 -1      4052 1.02285E+02 1.80826E+01 0.00000E+00
 -1      4053 1.00785E+02 1.80826E+01 0.00000E+00
 -1      4054 1.03035E+02 1.93816E+01 0.00000E+00
 -1      4055 9.92850E+01 1.80826E+01 0.00000E+00
 -1      4056 9.77850E+01 1.80826E+01 0.00000E+00
 -1      4057 1.00035E+02 1.93816E+01 0.00000E+00
 -1      4058 1.08285E+02 1.80826E+01 0.00000E+00
 -1      4059 1.06785E+02 1.80826E+01 0.00000E+00
 -1      4060 1.06035E+02 1.93816E+01 0.00000E+00
 -1      4061 1.11285E+02 1.80826E+01 0.00000E+00
 -1      4062 1.09785E+02 1.80826E+01 0.00000E+00
 -1      4063 1.09035E+02 1.93816E+01 0.00000E+00
 -1      4064 1.14285E+02 1.80826E+01 0.00000E+00
 -1      4065 1.12785E+02 1.80826E+01 0.00000E+00
 -1      4066 1.12035E+02 1.93816E+01 0.00000E+00
 -1      4067 1.17285E+02 1.80826E+01 0.00000E+00
 -1      4068 1.15785E+02 1.80826E+01 0.00000E+00
 -1      4069 1.15035E+02 1.93816E+01 0.00000E+00
 -1      4070 1.20285E+02 1.80826E+01 0.00000E+00
 -1      4071 1.18785E+02 1.80826E+01 0.00000E+00
 -1      4072 1.18035E+02 1.93816E+01 0.00000E+00
 -1      4073 1.23285E+02 1.80826E+01 0.00000E+00
 -1      4074 1.21785E+02 1.80826E+01 0.00000E+00
 -1      4075 1.21035E+02 1.93816E+01 0.00000E+00
 -1      4076 1.26285E+02 1.80826E+01 0.00000E+00
 -1      4077 1.24785E+02 1.80826E+01 0.00000E+00
 -1      4078 1.24035E+02 1.93816E+01 0.00000E+00
 -1      4079 1.29132E+02 1.80950E+01 0.00000E+00
 -1      4080 1.27632E+02 1.80950E+01 0.00000E+00
 -1      4081 1.26882E+02 1.93940E+01 0.00000E+00
 -1      4082 1.29577E+02 1.94186E+01 0.00000E+00
 -1      4083 1.76190E+01 2.76632E+01 0.00000E+00
 -1      4084 1.76190E+01 2.91320E+01 0.00000E+00
 -1      4085 1.96500E+01 3.03452E+01 0.00000E+00
 -1      4086 3.77850E+01 1.56973E+01 0.00000E+00
 -1      4087 3.62850E+01 1.56973E+01 0.00000E+00
 -1      4088 3.55350E+01 1.69963E+01 0.00000E+00
 -1      4089 4.23159E+01 3.00932E+01 0.00000E+00
 -1      4090 1.33418E+02 2.73920E+01 0.00000E+00
 -1      4091 1.33376E+02 2.62130E+01 0.00000E+00
 -1      4092 1.32077E+02 2.54771E+01 0.00000E+00
 -1      4093 1.32436E+02 2.75591E+01 0.00000E+00
 -1      4094 8.73008E+01 1.81359E+01 0.00000E+00
 -1      4095 8.58008E+01 1.81359E+01 0.00000E+00
 -1      4096 8.50823E+01 1.95415E+01 0.00000E+00
 -1      4097 8.80508E+01 1.94349E+01 0.00000E+00
 -1      4098 2.34000E+01 3.05150E+01 0.00000E+00
 -1      4099 2.49000E+01 3.05150E+01 0.00000E+00
 -1      4100 2.56500E+01 2.92160E+01 0.00000E+00
 -1      4101 2.94000E+01 3.05150E+01 0.00000E+00
 -1      4102 3.09000E+01 3.05150E+01 0.00000E+00
 -1      4103 3.16500E+01 2.92160E+01 0.00000E+00
 -1      4104 1.70134E+01 2.41867E+01 0.00000E+00
 -1      4105 1.70134E+01 2.56585E+01 0.00000E+00
 -1      4106 1.84387E+01 2.33952E+01 0.00000E+00
 -1      4107 2.07750E+01 3.04301E+01 0.00000E+00
 -1      4108 2.22750E+01 3.04301E+01 0.00000E+00
 -1      4109 2.30250E+01 2.91311E+01 0.00000E+00
 -1      4110 2.07750E+01 2.89614E+01 0.00000E+00
 -1      4111 7.94132E+01 2.90304E+01 0.00000E+00
 -1      4112 8.03128E+01 3.06025E+01 0.00000E+00
 -1      4113 8.18128E+01 3.06025E+01 0.00000E+00
 -1      4114 8.01383E+01 2.80895E+01 0.00000E+00
 -1      4115 2.42850E+01 1.82952E+01 0.00000E+00
 -1      4116 2.27850E+01 1.82952E+01 0.00000E+00
 -1      4117 4.17045E+01 2.11552E+01 0.00000E+00
 -1      4118 4.15849E+01 2.01842E+01 0.00000E+00
 -1      4119 4.08671E+01 2.20687E+01 0.00000E+00
 -1      4120 7.92312E+01 2.46195E+01 0.00000E+00
 -1      4121 8.00546E+01 2.57305E+01 0.00000E+00
 -1      4122 7.99846E+01 2.35169E+01 0.00000E+00
 -1      4123 2.65350E+01 1.69963E+01 0.00000E+00
 -1      4124 9.70350E+01 1.93816E+01 0.00000E+00
 -1      4125 9.62850E+01 1.80826E+01 0.00000E+00
 -1      4126 9.47850E+01 1.80826E+01 0.00000E+00
 -1      4127 3.02850E+01 1.82952E+01 0.00000E+00
 -1      4128 2.87850E+01 1.82952E+01 0.00000E+00
 -1      4129 8.25628E+01 2.93035E+01 0.00000E+00
 -1      4130 2.07609E+01 1.68410E+01 0.00000E+00
 -1      4131 1.90444E+01 2.68718E+01 0.00000E+00
 -1      4132 2.57850E+01 1.82952E+01 0.00000E+00
 -1      4133 2.50350E+01 1.95942E+01 0.00000E+00
 -1      4134 2.72850E+01 1.82952E+01 0.00000E+00
 -1      4135 2.02369E+01 1.79848E+01 0.00000E+00
 -1      4136 1.97128E+01 1.91286E+01 0.00000E+00
 -1      4137 2.15109E+01 1.81400E+01 0.00000E+00
 -1      4138 4.02590E+01 2.82306E+01 0.00000E+00
 -1      4139 3.96225E+01 2.72942E+01 0.00000E+00
 -1      4140 9.32850E+01 1.80826E+01 0.00000E+00
 -1      4141 9.17850E+01 1.80826E+01 0.00000E+00
 -1      4142 9.10350E+01 1.93816E+01 0.00000E+00
 -1      4143 9.40350E+01 1.93816E+01 0.00000E+00
 -1      4144 3.84220E+01 1.65259E+01 0.00000E+00
 -1      4145 1.30467E+02 2.20658E+01 0.00000E+00
 -1      4146 1.30022E+02 2.07422E+01 0.00000E+00
 -1      4147 1.28674E+02 2.07299E+01 0.00000E+00
 -1      4148 2.86500E+01 2.92160E+01 0.00000E+00
 -1      4149 1.97128E+01 2.06036E+01 0.00000E+00
 -1      4150 4.15659E+01 2.87942E+01 0.00000E+00
 -1      4151 3.32850E+01 1.82952E+01 0.00000E+00
 -1      4152 3.17850E+01 1.82952E+01 0.00000E+00
 -1      4153 3.10350E+01 1.95942E+01 0.00000E+00
 -1      4154 1.30551E+02 2.44238E+01 0.00000E+00
 -1      4155 1.30509E+02 2.32448E+01 0.00000E+00
 -1      4156 1.29161E+02 2.32325E+01 0.00000E+00
 -1      4157 8.49000E+01 2.79620E+01 0.00000E+00
 -1      4158 8.64000E+01 2.79620E+01 0.00000E+00
 -1      4159 3.39000E+01 2.79170E+01 0.00000E+00
 -1      4160 3.54000E+01 2.79170E+01 0.00000E+00
 -1      4161 3.90754E+01 1.73297E+01 0.00000E+00
 -1      4162 3.76883E+01 1.78001E+01 0.00000E+00
 -1      4163 3.97287E+01 1.81335E+01 0.00000E+00
 -1      4164 3.67612E+01 2.76056E+01 0.00000E+00
 -1      4165 3.82612E+01 2.76056E+01 0.00000E+00
 -1      4166 3.87337E+01 2.56837E+01 0.00000E+00
 -1      4167 3.60112E+01 2.63066E+01 0.00000E+00
 -1      4168 8.17256E+01 2.80470E+01 0.00000E+00
 -1      4169 8.33128E+01 2.80045E+01 0.00000E+00
 -1      4170 8.40628E+01 2.67055E+01 0.00000E+00
 -1      4171 8.08883E+01 2.67905E+01 0.00000E+00
 -1      4172 1.09785E+02 2.06806E+01 0.00000E+00
 -1      4173 1.08285E+02 2.06806E+01 0.00000E+00
 -1      4174 2.22609E+01 1.94390E+01 0.00000E+00
 -1      4175 2.49000E+01 2.79170E+01 0.00000E+00
 -1      4176 2.64000E+01 2.79170E+01 0.00000E+00
 -1      4177 8.79000E+01 2.79620E+01 0.00000E+00
 -1      4178 8.94000E+01 2.79620E+01 0.00000E+00
 -1      4179 8.71500E+01 2.66630E+01 0.00000E+00
 -1      4180 9.09000E+01 2.79620E+01 0.00000E+00
 -1      4181 9.24000E+01 2.79620E+01 0.00000E+00
 -1      4182 9.01500E+01 2.66630E+01 0.00000E+00
 -1      4183 9.39000E+01 2.79620E+01 0.00000E+00
 -1      4184 9.54000E+01 2.79620E+01 0.00000E+00
 -1      4185 9.31500E+01 2.66630E+01 0.00000E+00
 -1      4186 9.69000E+01 2.79620E+01 0.00000E+00
 -1      4187 9.84000E+01 2.79620E+01 0.00000E+00
 -1      4188 9.61500E+01 2.66630E+01 0.00000E+00
 -1      4189 9.99000E+01 2.79620E+01 0.00000E+00
 -1      4190 1.01400E+02 2.79620E+01 0.00000E+00
 -1      4191 9.91500E+01 2.66630E+01 0.00000E+00
 -1      4192 1.02900E+02 2.79620E+01 0.00000E+00
 -1      4193 1.04400E+02 2.79620E+01 0.00000E+00
 -1      4194 1.02150E+02 2.66630E+01 0.00000E+00
 -1      4195 1.05900E+02 2.79620E+01 0.00000E+00
 -1      4196 1.07400E+02 2.79620E+01 0.00000E+00
 -1      4197 1.05150E+02 2.66630E+01 0.00000E+00
 -1      4198 1.08900E+02 2.79620E+01 0.00000E+00
 -1      4199 1.10400E+02 2.79620E+01 0.00000E+00
 -1      4200 1.08150E+02 2.66630E+01 0.00000E+00
 -1      4201 1.11900E+02 2.79620E+01 0.00000E+00
 -1      4202 1.13400E+02 2.79620E+01 0.00000E+00
 -1      4203 1.11150E+02 2.66630E+01 0.00000E+00
 -1      4204 1.14900E+02 2.79620E+01 0.00000E+00
 -1      4205 1.16400E+02 2.79620E+01 0.00000E+00
 -1      4206 1.14150E+02 2.66630E+01 0.00000E+00
 -1      4207 1.17900E+02 2.79620E+01 0.00000E+00
 -1      4208 1.19400E+02 2.79620E+01 0.00000E+00
 -1      4209 1.17150E+02 2.66630E+01 0.00000E+00
 -1      4210 1.20900E+02 2.79620E+01 0.00000E+00
 -1      4211 1.22400E+02 2.79620E+01 0.00000E+00
 -1      4212 1.20150E+02 2.66630E+01 0.00000E+00
 -1      4213 1.23900E+02 2.79620E+01 0.00000E+00
 -1      4214 1.25400E+02 2.79620E+01 0.00000E+00
 -1      4215 1.23150E+02 2.66630E+01 0.00000E+00
 -1      4216 1.95637E+01 2.49520E+01 0.00000E+00
 -1      4217 2.01694E+01 2.69567E+01 0.00000E+00
 -1      4218 2.12944E+01 2.70415E+01 0.00000E+00
 -1      4219 1.03785E+02 2.06806E+01 0.00000E+00
 -1      4220 1.02285E+02 2.06806E+01 0.00000E+00
 -1      4221 3.09000E+01 2.79170E+01 0.00000E+00
 -1      4222 3.24000E+01 2.79170E+01 0.00000E+00
 -1      4223 3.31500E+01 2.66180E+01 0.00000E+00
 -1      4224 8.14006E+01 2.08531E+01 0.00000E+00
 -1      4225 8.06822E+01 2.22587E+01 0.00000E+00
 -1      4226 8.15056E+01 2.33696E+01 0.00000E+00
 -1      4227 8.29006E+01 2.08531E+01 0.00000E+00
 -1      4228 1.06785E+02 2.06806E+01 0.00000E+00
 -1      4229 1.05285E+02 2.06806E+01 0.00000E+00
 -1      4230 1.07535E+02 2.19796E+01 0.00000E+00
 -1      4231 1.00785E+02 2.06806E+01 0.00000E+00
 -1      4232 9.92850E+01 2.06806E+01 0.00000E+00
 -1      4233 1.01535E+02 2.19796E+01 0.00000E+00
 -1      4234 1.12785E+02 2.06806E+01 0.00000E+00
 -1      4235 1.11285E+02 2.06806E+01 0.00000E+00
 -1      4236 1.10535E+02 2.19796E+01 0.00000E+00
 -1      4237 1.15785E+02 2.06806E+01 0.00000E+00
 -1      4238 1.14285E+02 2.06806E+01 0.00000E+00
 -1      4239 1.13535E+02 2.19796E+01 0.00000E+00
 -1      4240 1.18785E+02 2.06806E+01 0.00000E+00
 -1      4241 1.17285E+02 2.06806E+01 0.00000E+00
 -1      4242 1.16535E+02 2.19796E+01 0.00000E+00
 -1      4243 1.21785E+02 2.06806E+01 0.00000E+00
 -1      4244 1.20285E+02 2.06806E+01 0.00000E+00
 -1      4245 1.19535E+02 2.19796E+01 0.00000E+00
 -1      4246 1.24785E+02 2.06806E+01 0.00000E+00
 -1      4247 1.23285E+02 2.06806E+01 0.00000E+00
 -1      4248 1.22535E+02 2.19796E+01 0.00000E+00
 -1      4249 2.79000E+01 2.79170E+01 0.00000E+00
 -1      4250 2.94000E+01 2.79170E+01 0.00000E+00
 -1      4251 2.71500E+01 2.66180E+01 0.00000E+00
 -1      4252 3.91796E+01 2.45174E+01 0.00000E+00
 -1      4253 3.96254E+01 2.33511E+01 0.00000E+00
 -1      4254 3.78183E+01 2.48288E+01 0.00000E+00
 -1      4255 2.80350E+01 1.95942E+01 0.00000E+00
 -1      4256 2.12844E+01 2.08459E+01 0.00000E+00
 -1      4257 2.00103E+01 2.21657E+01 0.00000E+00
 -1      4258 2.00103E+01 2.36375E+01 0.00000E+00
 -1      4259 3.62850E+01 1.82952E+01 0.00000E+00
 -1      4260 3.47850E+01 1.82952E+01 0.00000E+00
 -1      4261 3.40350E+01 1.95942E+01 0.00000E+00
 -1      4262 2.25585E+01 2.10011E+01 0.00000E+00
 -1      4263 4.09316E+01 1.93804E+01 0.00000E+00
 -1      4264 9.77850E+01 2.06806E+01 0.00000E+00
 -1      4265 9.62850E+01 2.06806E+01 0.00000E+00
 -1      4266 9.85350E+01 2.19796E+01 0.00000E+00
 -1      4267 1.27884E+02 2.38683E+01 0.00000E+00
 -1      4268 1.27842E+02 2.26893E+01 0.00000E+00
 -1      4269 3.69383E+01 1.90991E+01 0.00000E+00
 -1      4270 3.01500E+01 2.66180E+01 0.00000E+00
 -1      4271 8.58690E+01 2.07465E+01 0.00000E+00
 -1      4272 8.43848E+01 2.07998E+01 0.00000E+00
 -1      4273 8.36873E+01 2.20581E+01 0.00000E+00
 -1      4274 3.95058E+01 2.23802E+01 0.00000E+00
 -1      4275 3.93862E+01 2.14092E+01 0.00000E+00
 -1      4276 3.81446E+01 2.26916E+01 0.00000E+00
 -1      4277 1.30703E+02 2.78896E+01 0.00000E+00
 -1      4278 1.31570E+02 2.77243E+01 0.00000E+00
 -1      4279 1.31390E+02 2.66833E+01 0.00000E+00
 -1      4280 2.37750E+01 2.78321E+01 0.00000E+00
 -1      4281 2.45250E+01 2.65331E+01 0.00000E+00
 -1      4282 2.26500E+01 2.77472E+01 0.00000E+00
 -1      4283 1.26900E+02 2.79620E+01 0.00000E+00
 -1      4284 1.28400E+02 2.79620E+01 0.00000E+00
 -1      4285 1.29837E+02 2.80548E+01 0.00000E+00
 -1      4286 1.04535E+02 2.19796E+01 0.00000E+00
 -1      4287 2.87850E+01 2.08932E+01 0.00000E+00
 -1      4288 2.72850E+01 2.08932E+01 0.00000E+00
 -1      4289 1.29087E+02 2.67558E+01 0.00000E+00
 -1      4290 9.17850E+01 2.06806E+01 0.00000E+00
 -1      4291 9.02850E+01 2.06806E+01 0.00000E+00
 -1      4292 1.26050E+02 2.13533E+01 0.00000E+00
 -1      4293 1.25300E+02 2.26523E+01 0.00000E+00
 -1      4294 1.27397E+02 2.13656E+01 0.00000E+00
 -1      4295 2.57850E+01 2.08932E+01 0.00000E+00
 -1      4296 2.42850E+01 2.08932E+01 0.00000E+00
 -1      4297 2.65350E+01 2.21922E+01 0.00000E+00
 -1      4298 8.88191E+01 2.06869E+01 0.00000E+00
 -1      4299 8.73349E+01 2.07402E+01 0.00000E+00
 -1      4300 8.66374E+01 2.19985E+01 0.00000E+00
 -1      4301 8.95691E+01 2.19859E+01 0.00000E+00
 -1      4302 2.33085E+01 2.23001E+01 0.00000E+00
 -1      4303 8.16418E+01 2.56880E+01 0.00000E+00
 -1      4304 3.17850E+01 2.08932E+01 0.00000E+00
 -1      4305 3.02850E+01 2.08932E+01 0.00000E+00
 -1      4306 2.95350E+01 2.21922E+01 0.00000E+00
 -1      4307 1.31211E+02 2.56424E+01 0.00000E+00
 -1      4308 1.26150E+02 2.66630E+01 0.00000E+00
 -1      4309 1.29864E+02 2.56301E+01 0.00000E+00
 -1      4310 8.32344E+01 2.54283E+01 0.00000E+00
 -1      4311 8.48216E+01 2.53858E+01 0.00000E+00
 -1      4312 1.08285E+02 2.32786E+01 0.00000E+00
 -1      4313 1.06785E+02 2.32786E+01 0.00000E+00
 -1      4314 3.81833E+01 2.01622E+01 0.00000E+00
 -1      4315 3.67800E+01 2.06574E+01 0.00000E+00
 -1      4316 3.50958E+01 2.54517E+01 0.00000E+00
 -1      4317 3.64571E+01 2.51403E+01 0.00000E+00
 -1      4318 3.69029E+01 2.39739E+01 0.00000E+00
 -1      4319 8.68766E+01 2.43276E+01 0.00000E+00
 -1      4320 8.83766E+01 2.43276E+01 0.00000E+00
 -1      4321 1.04842E+02 2.43213E+01 0.00000E+00
 -1      4322 1.03342E+02 2.43213E+01 0.00000E+00
 -1      4323 9.47850E+01 2.06806E+01 0.00000E+00
 -1      4324 9.32850E+01 2.06806E+01 0.00000E+00
 -1      4325 9.25350E+01 2.19796E+01 0.00000E+00
 -1      4326 9.55350E+01 2.19796E+01 0.00000E+00
 -1      4327 3.50325E+01 2.07753E+01 0.00000E+00
 -1      4328 3.35325E+01 2.07753E+01 0.00000E+00
 -1      4329 3.27825E+01 2.20743E+01 0.00000E+00
 -1      4330 3.62775E+01 2.18385E+01 0.00000E+00
 -1      4331 1.28427E+02 2.55373E+01 0.00000E+00
 -1      4332 8.98425E+01 2.43213E+01 0.00000E+00
 -1      4333 9.13425E+01 2.43213E+01 0.00000E+00
 -1      4334 9.28425E+01 2.43213E+01 0.00000E+00
 -1      4335 9.43425E+01 2.43213E+01 0.00000E+00
 -1      4336 9.58425E+01 2.43213E+01 0.00000E+00
 -1      4337 9.73425E+01 2.43213E+01 0.00000E+00
 -1      4338 9.88425E+01 2.43213E+01 0.00000E+00
 -1      4339 1.00342E+02 2.43213E+01 0.00000E+00
 -1      4340 1.01842E+02 2.43213E+01 0.00000E+00
 -1      4341 1.07092E+02 2.56203E+01 0.00000E+00
 -1      4342 1.08592E+02 2.56203E+01 0.00000E+00
 -1      4343 1.10400E+02 2.53640E+01 0.00000E+00
 -1      4344 1.11900E+02 2.53640E+01 0.00000E+00
 -1      4345 1.13842E+02 2.43213E+01 0.00000E+00
 -1      4346 1.15342E+02 2.43213E+01 0.00000E+00
 -1      4347 1.16842E+02 2.43213E+01 0.00000E+00
 -1      4348 1.18342E+02 2.43213E+01 0.00000E+00
 -1      4349 1.19842E+02 2.43213E+01 0.00000E+00
 -1      4350 1.21342E+02 2.43213E+01 0.00000E+00
 -1      4351 2.11353E+01 2.37224E+01 0.00000E+00
 -1      4352 2.42175E+01 2.43202E+01 0.00000E+00
 -1      4353 2.24910E+01 2.44281E+01 0.00000E+00
 -1      4354 8.24006E+01 2.43682E+01 0.00000E+00
 -1      4355 1.25323E+02 2.41356E+01 0.00000E+00
 -1      4356 1.24058E+02 2.34629E+01 0.00000E+00
 -1      4357 1.22558E+02 2.34629E+01 0.00000E+00
 -1      4358 2.68425E+01 2.44051E+01 0.00000E+00
 -1      4359 2.83425E+01 2.44051E+01 0.00000E+00
 -1      4360 2.53425E+01 2.44051E+01 0.00000E+00
 -1      4361 2.20444E+01 2.57425E+01 0.00000E+00
 -1      4362 3.95446E+01 1.98508E+01 0.00000E+00
 -1      4363 8.30982E+01 2.31099E+01 0.00000E+00
 -1      4364 2.98425E+01 2.44051E+01 0.00000E+00
 -1      4365 3.13425E+01 2.44051E+01 0.00000E+00
 -1      4366 1.11592E+02 2.30223E+01 0.00000E+00
 -1      4367 1.10092E+02 2.30223E+01 0.00000E+00
 -1      4368 1.27107E+02 2.49940E+01 0.00000E+00
 -1      4369 3.50358E+01 2.31209E+01 0.00000E+00
 -1      4370 3.63971E+01 2.28095E+01 0.00000E+00
 -1      4371 1.09342E+02 2.43213E+01 0.00000E+00
 -1      4372 1.06342E+02 2.43213E+01 0.00000E+00
 -1      4373 1.22865E+02 2.58046E+01 0.00000E+00
 -1      4374 1.24365E+02 2.58046E+01 0.00000E+00
 -1      4375 3.30900E+01 2.42872E+01 0.00000E+00
 -1      4376 8.45824E+01 2.30566E+01 0.00000E+00
 -1      4377 1.12342E+02 2.43213E+01 0.00000E+00
 -1      4378 1.25607E+02 2.49940E+01 0.00000E+00
 -1      4379 8.60482E+01 2.30503E+01 0.00000E+00
 -1      4380 3.35958E+01 2.54517E+01 0.00000E+00
 -3
    3C                          2108                                     1
 -1       165    8    0    1
 -2         6         7        23      1137      1301      1154
 -1       166    8    0    1
 -2         7         8       165      1138      1302      1303
 -1       167    8    0    1
 -2         8         9       166      1139      1304      1305
 -1       168    8    0    1
 -2         8       166       165      1305      1306      1302
 -1       169    8    0    1
 -2         9        10       167      1140      1307      1308
 -1       170    8    0    1
 -2         9       167       166      1308      1309      1304
 -1       171    8    0    1
 -2        10        11       168      1141      1310      1311
 -1       172    8    0    1
 -2        10       168       167      1311      1312      1307
 -1       173    8    0    1
 -2        11        12       169      1142      1313      1314
 -1       174    8    0    1
 -2        11       169       168      1314      1315      1310
 -1       175    8    0    1
 -2        12        13       170      1143      1316      1317
 -1       176    8    0    1
 -2        12       170       169      1317      1318      1313
 -1       177    8    0    1
 -2        13        14       171      1144      1319      1320
 -1       178    8    0    1
 -2        13       171       170      1320      1321      1316
 -1       179    8    0    1
 -2        14        15       172      1145      1322      1323
 -1       180    8    0    1
 -2        14       172       171      1323      1324      1319
 -1       181    8    0    1
 -2        15        16       173      1146      1325      1326
 -1       182    8    0    1
 -2        15       173       172      1326      1327      1322
 -1       183    8    0    1
 -2        16        17       174      1147      1328      1329
 -1       184    8    0    1
 -2        16       174       173      1329      1330      1325
 -1       185    8    0    1
 -2        17        18       175      1148      1331      1332
 -1       186    8    0    1
 -2        17       175       174      1332      1333      1328
 -1       187    8    0    1
 -2        18        19       176      1149      1334      1335
 -1       188    8    0    1
 -2        18       176       175      1335      1336      1331
 -1       189    8    0    1
 -2        19        20       177      1150      1337      1338
 -1       190    8    0    1
 -2        19       177       176      1338      1339      1334
 -1       191    8    0    1
 -2        20        21       178      1151      1340      1341
 -1       192    8    0    1
 -2        20       178       177      1341      1342      1337
 -1       193    8    0    1
 -2        21        22       179      1152      1343      1344
 -1       194    8    0    1
 -2        21       179       178      1344      1345      1340
 -1       195    8    0    1
 -2        22         5       180      1153      1346      1347
 -1       196    8    0    1
 -2       179        22       180      1343      1347      1348
 -1       197    8    0    1
 -2         5        72       180      1204      1349      1346
 -1       198    8    0    1
 -2        24        23       181      1155      1350      1351
 -1       199    8    0    1
 -2        25        24       182      1156      1352      1353
 -1       200    8    0    1
 -2        24       181       182      1351      1354      1352
 -1       201    8    0    1
 -2        26        25       183      1157      1355      1356
 -1       202    8    0    1
 -2        25       182       183      1353      1357      1355
 -1       203    8    0    1
 -2        27        26       184      1158      1358      1359
 -1       204    8    0    1
 -2        26       183       184      1356      1360      1358
 -1       205    8    0    1
 -2        28        27       185      1159      1361      1362
 -1       206    8    0    1
 -2        27       184       185      1359      1363      1361
 -1       207    8    0    1
 -2        29        28       186      1160      1364      1365
 -1       208    8    0    1
 -2        28       185       186      1362      1366      1364
 -1       209    8    0    1
 -2        30        29       187      1161      1367      1368
 -1       210    8    0    1
 -2        29       186       187      1365      1369      1367
 -1       211    8    0    1
 -2        31        30       188      1162      1370      1371
 -1       212    8    0    1
 -2        30       187       188      1368      1372      1370
 -1       213    8    0    1
 -2        32        31       189      1163      1373      1374
 -1       214    8    0    1
 -2        31       188       189      1371      1375      1373
 -1       215    8    0    1
 -2        33        32       190      1164      1376      1377
 -1       216    8    0    1
 -2        32       189       190      1374      1378      1376
 -1       217    8    0    1
 -2        34        33       191      1165      1379      1380
 -1       218    8    0    1
 -2        33       190       191      1377      1381      1379
 -1       219    8    0    1
 -2        35        34       192      1166      1382      1383
 -1       220    8    0    1
 -2        34       191       192      1380      1384      1382
 -1       221    8    0    1
 -2        36        35       193      1167      1385      1386
 -1       222    8    0    1
 -2        35       192       193      1383      1387      1385
 -1       223    8    0    1
 -2        37        36       194      1168      1388      1389
 -1       224    8    0    1
 -2        36       193       194      1386      1390      1388
 -1       225    8    0    1
 -2        38        37       195      1169      1391      1392
 -1       226    8    0    1
 -2        37       194       195      1389      1393      1391
 -1       227    8    0    1
 -2        39        38       196      1170      1394      1395
 -1       228    8    0    1
 -2        38       195       196      1392      1396      1394
 -1       229    8    0    1
 -2        40        39       197      1171      1397      1398
 -1       230    8    0    1
 -2        39       196       197      1395      1399      1397
 -1       231    8    0    1
 -2        41        40       198      1172      1400      1401
 -1       232    8    0    1
 -2        40       197       198      1398      1402      1400
 -1       233    8    0    1
 -2        42        41       199      1173      1403      1404
 -1       234    8    0    1
 -2        41       198       199      1401      1405      1403
 -1       235    8    0    1
 -2        43        42       200      1174      1406      1407
 -1       236    8    0    1
 -2        42       199       200      1404      1408      1406
 -1       237    8    0    1
 -2        44        43       201      1175      1409      1410
 -1       238    8    0    1
 -2        43       200       201      1407      1411      1409
 -1       239    8    0    1
 -2        45        44       202      1176      1412      1413
 -1       240    8    0    1
 -2        44       201       202      1410      1414      1412
 -1       241    8    0    1
 -2        46        45       203      1177      1415      1416
 -1       242    8    0    1
 -2        45       202       203      1413      1417      1415
 -1       243    8    0    1
 -2        47        46       204      1178      1418      1419
 -1       244    8    0    1
 -2        46       203       204      1416      1420      1418
 -1       245    8    0    1
 -2        48        47       205      1179      1421      1422
 -1       246    8    0    1
 -2        47       204       205      1419      1423      1421
 -1       247    8    0    1
 -2        49        48       206      1180      1424      1425
 -1       248    8    0    1
 -2        48       205       206      1422      1426      1424
 -1       249    8    0    1
 -2        50        49       207      1181      1427      1428
 -1       250    8    0    1
 -2        49       206       207      1425      1429      1427
 -1       251    8    0    1
 -2        51        50       208      1182      1430      1431
 -1       252    8    0    1
 -2        50       207       208      1428      1432      1430
 -1       253    8    0    1
 -2        52        51       209      1183      1433      1434
 -1       254    8    0    1
 -2        51       208       209      1431      1435      1433
 -1       255    8    0    1
 -2        53        52       210      1184      1436      1437
 -1       256    8    0    1
 -2        52       209       210      1434      1438      1436
 -1       257    8    0    1
 -2        54        53       211      1185      1439      1440
 -1       258    8    0    1
 -2        53       210       211      1437      1441      1439
 -1       259    8    0    1
 -2        55        54       212      1186      1442      1443
 -1       260    8    0    1
 -2        54       211       212      1440      1444      1442
 -1       261    8    0    1
 -2        56        55       213      1187      1445      1446
 -1       262    8    0    1
 -2        55       212       213      1443      1447      1445
 -1       263    8    0    1
 -2        57        56       214      1188      1448      1449
 -1       264    8    0    1
 -2        56       213       214      1446      1450      1448
 -1       265    8    0    1
 -2        58        57       215      1189      1451      1452
 -1       266    8    0    1
 -2        57       214       215      1449      1453      1451
 -1       267    8    0    1
 -2        59        58       216      1190      1454      1455
 -1       268    8    0    1
 -2        58       215       216      1452      1456      1454
 -1       269    8    0    1
 -2        60        59       217      1191      1457      1458
 -1       270    8    0    1
 -2        59       216       217      1455      1459      1457
 -1       271    8    0    1
 -2        61        60       218      1192      1460      1461
 -1       272    8    0    1
 -2        60       217       218      1458      1462      1460
 -1       273    8    0    1
 -2        62        61       219      1193      1463      1464
 -1       274    8    0    1
 -2        61       218       219      1461      1465      1463
 -1       275    8    0    1
 -2        63        62       220      1194      1466      1467
 -1       276    8    0    1
 -2        62       219       220      1464      1468      1466
 -1       277    8    0    1
 -2        64        63       221      1195      1469      1470
 -1       278    8    0    1
 -2        63       220       221      1467      1471      1469
 -1       279    8    0    1
 -2        65        64       222      1196      1472      1473
 -1       280    8    0    1
 -2        64       221       222      1470      1474      1472
 -1       281    8    0    1
 -2        66        65       223      1197      1475      1476
 -1       282    8    0    1
 -2        65       222       223      1473      1477      1475
 -1       283    8    0    1
 -2        67        66       224      1198      1478      1479
 -1       284    8    0    1
 -2        66       223       224      1476      1480      1478
 -1       285    8    0    1
 -2        68        67       225      1199      1481      1482
 -1       286    8    0    1
 -2        67       224       225      1479      1483      1481
 -1       287    8    0    1
 -2        69        68       226      1200      1484      1485
 -1       288    8    0    1
 -2        68       225       226      1482      1486      1484
 -1       289    8    0    1
 -2        70        69       227      1201      1487      1488
 -1       290    8    0    1
 -2        69       226       227      1485      1489      1487
 -1       291    8    0    1
 -2        71        70       228      1202      1490      1491
 -1       292    8    0    1
 -2        70       227       228      1488      1492      1490
 -1       293    8    0    1
 -2         4        71       136      1203      1493      1270
 -1       294    8    0    1
 -2       136        71       228      1493      1491      1494
 -1       295    8    0    1
 -2        72        73       229      1205      1495      1496
 -1       296    8    0    1
 -2        72       229       180      1496      1497      1349
 -1       297    8    0    1
 -2        73        74       230      1206      1498      1499
 -1       298    8    0    1
 -2        73       230       229      1499      1500      1495
 -1       299    8    0    1
 -2        74        75       231      1207      1501      1502
 -1       300    8    0    1
 -2        74       231       230      1502      1503      1498
 -1       301    8    0    1
 -2        75        76       232      1208      1504      1505
 -1       302    8    0    1
 -2        75       232       231      1505      1506      1501
 -1       303    8    0    1
 -2        76        77       233      1209      1507      1508
 -1       304    8    0    1
 -2        76       233       232      1508      1509      1504
 -1       305    8    0    1
 -2        77        78       234      1210      1510      1511
 -1       306    8    0    1
 -2        77       234       233      1511      1512      1507
 -1       307    8    0    1
 -2        78        79       235      1211      1513      1514
 -1       308    8    0    1
 -2        78       235       234      1514      1515      1510
 -1       309    8    0    1
 -2        79        80       236      1212      1516      1517
 -1       310    8    0    1
 -2        79       236       235      1517      1518      1513
 -1       311    8    0    1
 -2        80        81       237      1213      1519      1520
 -1       312    8    0    1
 -2        80       237       236      1520      1521      1516
 -1       313    8    0    1
 -2        81        82       238      1214      1522      1523
 -1       314    8    0    1
 -2        81       238       237      1523      1524      1519
 -1       315    8    0    1
 -2        82        83       239      1215      1525      1526
 -1       316    8    0    1
 -2        82       239       238      1526      1527      1522
 -1       317    8    0    1
 -2        83        84       240      1216      1528      1529
 -1       318    8    0    1
 -2        83       240       239      1529      1530      1525
 -1       319    8    0    1
 -2        84        85       241      1217      1531      1532
 -1       320    8    0    1
 -2        84       241       240      1532      1533      1528
 -1       321    8    0    1
 -2        85        86       242      1218      1534      1535
 -1       322    8    0    1
 -2        85       242       241      1535      1536      1531
 -1       323    8    0    1
 -2        86        87       243      1219      1537      1538
 -1       324    8    0    1
 -2        86       243       242      1538      1539      1534
 -1       325    8    0    1
 -2        87        88       244      1220      1540      1541
 -1       326    8    0    1
 -2        87       244       243      1541      1542      1537
 -1       327    8    0    1
 -2        88        89       245      1221      1543      1544
 -1       328    8    0    1
 -2        88       245       244      1544      1545      1540
 -1       329    8    0    1
 -2        89        90       246      1222      1546      1547
 -1       330    8    0    1
 -2        89       246       245      1547      1548      1543
 -1       331    8    0    1
 -2        90        91       247      1223      1549      1550
 -1       332    8    0    1
 -2        90       247       246      1550      1551      1546
 -1       333    8    0    1
 -2        91        92       248      1224      1552      1553
 -1       334    8    0    1
 -2        91       248       247      1553      1554      1549
 -1       335    8    0    1
 -2        92        93       249      1225      1555      1556
 -1       336    8    0    1
 -2        92       249       248      1556      1557      1552
 -1       337    8    0    1
 -2        93        94       250      1226      1558      1559
 -1       338    8    0    1
 -2        93       250       249      1559      1560      1555
 -1       339    8    0    1
 -2        94        95       251      1227      1561      1562
 -1       340    8    0    1
 -2        94       251       250      1562      1563      1558
 -1       341    8    0    1
 -2        95        96       252      1228      1564      1565
 -1       342    8    0    1
 -2        95       252       251      1565      1566      1561
 -1       343    8    0    1
 -2        96        97       253      1229      1567      1568
 -1       344    8    0    1
 -2        96       253       252      1568      1569      1564
 -1       345    8    0    1
 -2        97        98       254      1230      1570      1571
 -1       346    8    0    1
 -2        97       254       253      1571      1572      1567
 -1       347    8    0    1
 -2        98        99       255      1231      1573      1574
 -1       348    8    0    1
 -2        98       255       254      1574      1575      1570
 -1       349    8    0    1
 -2        99       100       256      1232      1576      1577
 -1       350    8    0    1
 -2        99       256       255      1577      1578      1573
 -1       351    8    0    1
 -2       100       101       257      1233      1579      1580
 -1       352    8    0    1
 -2       100       257       256      1580      1581      1576
 -1       353    8    0    1
 -2       101       102       258      1234      1582      1583
 -1       354    8    0    1
 -2       101       258       257      1583      1584      1579
 -1       355    8    0    1
 -2       102       103       259      1235      1585      1586
 -1       356    8    0    1
 -2       102       259       258      1586      1587      1582
 -1       357    8    0    1
 -2       103       104       260      1236      1588      1589
 -1       358    8    0    1
 -2       103       260       259      1589      1590      1585
 -1       359    8    0    1
 -2       104       105       261      1237      1591      1592
 -1       360    8    0    1
 -2       104       261       260      1592      1593      1588
 -1       361    8    0    1
 -2       105       106       262      1238      1594      1595
 -1       362    8    0    1
 -2       105       262       261      1595      1596      1591
 -1       363    8    0    1
 -2       106       107       263      1239      1597      1598
 -1       364    8    0    1
 -2       106       263       262      1598      1599      1594
 -1       365    8    0    1
 -2       107       108       264      1240      1600      1601
 -1       366    8    0    1
 -2       107       264       263      1601      1602      1597
 -1       367    8    0    1
 -2       108       109       265      1241      1603      1604
 -1       368    8    0    1
 -2       108       265       264      1604      1605      1600
 -1       369    8    0    1
 -2       109       110       266      1242      1606      1607
 -1       370    8    0    1
 -2       109       266       265      1607      1608      1603
 -1       371    8    0    1
 -2       110       111       267      1243      1609      1610
 -1       372    8    0    1
 -2       110       267       266      1610      1611      1606
 -1       373    8    0    1
 -2       111       112       268      1244      1612      1613
 -1       374    8    0    1
 -2       111       268       267      1613      1614      1609
 -1       375    8    0    1
 -2       112       113       269      1245      1615      1616
 -1       376    8    0    1
 -2       112       269       268      1616      1617      1612
 -1       377    8    0    1
 -2       113       114       270      1246      1618      1619
 -1       378    8    0    1
 -2       113       270       269      1619      1620      1615
 -1       379    8    0    1
 -2       114       115       271      1247      1621      1622
 -1       380    8    0    1
 -2       114       271       270      1622      1623      1618
 -1       381    8    0    1
 -2       115       116       272      1248      1624      1625
 -1       382    8    0    1
 -2       115       272       271      1625      1626      1621
 -1       383    8    0    1
 -2       116       117       273      1249      1627      1628
 -1       384    8    0    1
 -2       116       273       272      1628      1629      1624
 -1       385    8    0    1
 -2       117       118       274      1250      1630      1631
 -1       386    8    0    1
 -2       117       274       273      1631      1632      1627
 -1       387    8    0    1
 -2       118       119       275      1251      1633      1634
 -1       388    8    0    1
 -2       118       275       274      1634      1635      1630
 -1       389    8    0    1
 -2       119       120       276      1252      1636      1637
 -1       390    8    0    1
 -2       119       276       275      1637      1638      1633
 -1       391    8    0    1
 -2       120         3       121      1253      1254      1639
 -1       392    8    0    1
 -2       121       122       277      1255      1640      1641
 -1       393    8    0    1
 -2       122       123       278      1256      1642      1643
 -1       394    8    0    1
 -2       122       278       277      1643      1644      1640
 -1       395    8    0    1
 -2       123       124       279      1257      1645      1646
 -1       396    8    0    1
 -2       123       279       278      1646      1647      1642
 -1       397    8    0    1
 -2       124       125       280      1258      1648      1649
 -1       398    8    0    1
 -2       124       280       279      1649      1650      1645
 -1       399    8    0    1
 -2       125       126       281      1259      1651      1652
 -1       400    8    0    1
 -2       125       281       280      1652      1653      1648
 -1       401    8    0    1
 -2       126       127       282      1260      1654      1655
 -1       402    8    0    1
 -2       126       282       281      1655      1656      1651
 -1       403    8    0    1
 -2       127       128       283      1261      1657      1658
 -1       404    8    0    1
 -2       127       283       282      1658      1659      1654
 -1       405    8    0    1
 -2       128       129       284      1262      1660      1661
 -1       406    8    0    1
 -2       128       284       283      1661      1662      1657
 -1       407    8    0    1
 -2       129       130       285      1263      1663      1664
 -1       408    8    0    1
 -2       129       285       284      1664      1665      1660
 -1       409    8    0    1
 -2       130       131       286      1264      1666      1667
 -1       410    8    0    1
 -2       130       286       285      1667      1668      1663
 -1       411    8    0    1
 -2       131       132       287      1265      1669      1670
 -1       412    8    0    1
 -2       131       287       286      1670      1671      1666
 -1       413    8    0    1
 -2       132       133       288      1266      1672      1673
 -1       414    8    0    1
 -2       132       288       287      1673      1674      1669
 -1       415    8    0    1
 -2       133       134       289      1267      1675      1676
 -1       416    8    0    1
 -2       133       289       288      1676      1677      1672
 -1       417    8    0    1
 -2       134       135       290      1268      1678      1679
 -1       418    8    0    1
 -2       134       290       289      1679      1680      1675
 -1       419    8    0    1
 -2       135       136       291      1269      1681      1682
 -1       420    8    0    1
 -2       290       135       291      1678      1682      1683
 -1       421    8    0    1
 -2       136       228       291      1494      1684      1681
 -1       422    8    0    1
 -2         2       137       292      1271      1685      1686
 -1       423    8    0    1
 -2       137       138       293      1272      1687      1688
 -1       424    8    0    1
 -2       138       139       294      1273      1689      1690
 -1       425    8    0    1
 -2       139       140       295      1274      1691      1692
 -1       426    8    0    1
 -2       140       141       296      1275      1693      1694
 -1       427    8    0    1
 -2       141       142       297      1276      1695      1696
 -1       428    8    0    1
 -2       142       143       298      1277      1697      1698
 -1       429    8    0    1
 -2       143       144       299      1278      1699      1700
 -1       430    8    0    1
 -2       144       145       300      1279      1701      1702
 -1       431    8    0    1
 -2       145       146       301      1280      1703      1704
 -1       432    8    0    1
 -2       146       147       302      1281      1705      1706
 -1       433    8    0    1
 -2       147       148       303      1282      1707      1708
 -1       434    8    0    1
 -2       148       149       304      1283      1709      1710
 -1       435    8    0    1
 -2       149       150       305      1284      1711      1712
 -1       436    8    0    1
 -2       150       151       306      1285      1713      1714
 -1       437    8    0    1
 -2       151       152       307      1286      1715      1716
 -1       438    8    0    1
 -2       152       153       308      1287      1717      1718
 -1       439    8    0    1
 -2       153       154       309      1288      1719      1720
 -1       440    8    0    1
 -2       154       155       310      1289      1721      1722
 -1       441    8    0    1
 -2       155         1       311      1290      1723      1724
 -1       442    8    0    1
 -2         1       156       312      1291      1725      1726
 -1       443    8    0    1
 -2       156       157       313      1292      1727      1728
 -1       444    8    0    1
 -2       157       158       314      1293      1729      1730
 -1       445    8    0    1
 -2       158       159       315      1294      1731      1732
 -1       446    8    0    1
 -2       159       160       316      1295      1733      1734
 -1       447    8    0    1
 -2       160       161       317      1296      1735      1736
 -1       448    8    0    1
 -2       161       162       318      1297      1737      1738
 -1       449    8    0    1
 -2       162       163       319      1298      1739      1740
 -1       450    8    0    1
 -2       163       164       320      1299      1741      1742
 -1       451    8    0    1
 -2       164         2       321      1300      1743      1744
 -1       452    8    0    1
 -2       295       140       296      1691      1694      1745
 -1       453    8    0    1
 -2       294       139       295      1689      1692      1746
 -1       454    8    0    1
 -2       120       121       276      1639      1747      1636
 -1       455    8    0    1
 -2       121       277       276      1641      1748      1747
 -1       456    8    0    1
 -2       292       137       293      1685      1688      1749
 -1       457    8    0    1
 -2       293       138       294      1687      1690      1750
 -1       458    8    0    1
 -2         2       292       321      1686      1751      1743
 -1       459    8    0    1
 -2       141       297       296      1696      1752      1693
 -1       460    8    0    1
 -2       142       298       297      1698      1753      1695
 -1       461    8    0    1
 -2       143       299       298      1700      1754      1697
 -1       462    8    0    1
 -2       144       300       299      1702      1755      1699
 -1       463    8    0    1
 -2       145       301       300      1704      1756      1701
 -1       464    8    0    1
 -2       146       302       301      1706      1757      1703
 -1       465    8    0    1
 -2       147       303       302      1708      1758      1705
 -1       466    8    0    1
 -2       148       304       303      1710      1759      1707
 -1       467    8    0    1
 -2       149       305       304      1712      1760      1709
 -1       468    8    0    1
 -2       150       306       305      1714      1761      1711
 -1       469    8    0    1
 -2       151       307       306      1716      1762      1713
 -1       470    8    0    1
 -2       152       308       307      1718      1763      1715
 -1       471    8    0    1
 -2       153       309       308      1720      1764      1717
 -1       472    8    0    1
 -2       154       310       309      1722      1765      1719
 -1       473    8    0    1
 -2       155       311       310      1724      1766      1721
 -1       474    8    0    1
 -2         1       312       311      1726      1767      1723
 -1       475    8    0    1
 -2       156       313       312      1728      1768      1725
 -1       476    8    0    1
 -2       157       314       313      1730      1769      1727
 -1       477    8    0    1
 -2       158       315       314      1732      1770      1729
 -1       478    8    0    1
 -2       159       316       315      1734      1771      1731
 -1       479    8    0    1
 -2       160       317       316      1736      1772      1733
 -1       480    8    0    1
 -2       161       318       317      1738      1773      1735
 -1       481    8    0    1
 -2       162       319       318      1740      1774      1737
 -1       482    8    0    1
 -2       163       320       319      1742      1775      1739
 -1       483    8    0    1
 -2       164       321       320      1744      1776      1741
 -1       484    8    0    1
 -2        23         7       165      1301      1303      1777
 -1       485    8    0    1
 -2       166       167       322      1309      1778      1779
 -1       486    8    0    1
 -2       165       166       323      1306      1780      1781
 -1       487    8    0    1
 -2       166       322       323      1779      1782      1780
 -1       488    8    0    1
 -2       168       169       324      1315      1783      1784
 -1       489    8    0    1
 -2       169       170       325      1318      1785      1786
 -1       490    8    0    1
 -2       169       325       324      1786      1787      1783
 -1       491    8    0    1
 -2       170       171       326      1321      1788      1789
 -1       492    8    0    1
 -2       170       326       325      1789      1790      1785
 -1       493    8    0    1
 -2       171       172       327      1324      1791      1792
 -1       494    8    0    1
 -2       171       327       326      1792      1793      1788
 -1       495    8    0    1
 -2       172       173       328      1327      1794      1795
 -1       496    8    0    1
 -2       172       328       327      1795      1796      1791
 -1       497    8    0    1
 -2       173       174       329      1330      1797      1798
 -1       498    8    0    1
 -2       173       329       328      1798      1799      1794
 -1       499    8    0    1
 -2       174       175       330      1333      1800      1801
 -1       500    8    0    1
 -2       174       330       329      1801      1802      1797
 -1       501    8    0    1
 -2       175       176       331      1336      1803      1804
 -1       502    8    0    1
 -2       175       331       330      1804      1805      1800
 -1       503    8    0    1
 -2       176       177       332      1339      1806      1807
 -1       504    8    0    1
 -2       176       332       331      1807      1808      1803
 -1       505    8    0    1
 -2       177       178       333      1342      1809      1810
 -1       506    8    0    1
 -2       177       333       332      1810      1811      1806
 -1       507    8    0    1
 -2       178       179       334      1345      1812      1813
 -1       508    8    0    1
 -2       178       334       333      1813      1814      1809
 -1       509    8    0    1
 -2       179       180       335      1348      1815      1816
 -1       510    8    0    1
 -2       334       179       335      1812      1816      1817
 -1       511    8    0    1
 -2       180       229       335      1497      1818      1815
 -1       512    8    0    1
 -2       181        23       165      1350      1777      1819
 -1       513    8    0    1
 -2       229       230       336      1500      1820      1821
 -1       514    8    0    1
 -2       229       336       335      1821      1822      1818
 -1       515    8    0    1
 -2       181       165       323      1819      1781      1823
 -1       516    8    0    1
 -2       183       182       337      1357      1824      1825
 -1       517    8    0    1
 -2       184       183       338      1360      1826      1827
 -1       518    8    0    1
 -2       183       337       338      1825      1828      1826
 -1       519    8    0    1
 -2       185       184       339      1363      1829      1830
 -1       520    8    0    1
 -2       184       338       339      1827      1831      1829
 -1       521    8    0    1
 -2       186       185       340      1366      1832      1833
 -1       522    8    0    1
 -2       185       339       340      1830      1834      1832
 -1       523    8    0    1
 -2       187       186       341      1369      1835      1836
 -1       524    8    0    1
 -2       186       340       341      1833      1837      1835
 -1       525    8    0    1
 -2       188       187       342      1372      1838      1839
 -1       526    8    0    1
 -2       187       341       342      1836      1840      1838
 -1       527    8    0    1
 -2       189       188       343      1375      1841      1842
 -1       528    8    0    1
 -2       188       342       343      1839      1843      1841
 -1       529    8    0    1
 -2       190       189       344      1378      1844      1845
 -1       530    8    0    1
 -2       189       343       344      1842      1846      1844
 -1       531    8    0    1
 -2       191       190       345      1381      1847      1848
 -1       532    8    0    1
 -2       190       344       345      1845      1849      1847
 -1       533    8    0    1
 -2       192       191       346      1384      1850      1851
 -1       534    8    0    1
 -2       191       345       346      1848      1852      1850
 -1       535    8    0    1
 -2       193       192       347      1387      1853      1854
 -1       536    8    0    1
 -2       192       346       347      1851      1855      1853
 -1       537    8    0    1
 -2       194       193       348      1390      1856      1857
 -1       538    8    0    1
 -2       193       347       348      1854      1858      1856
 -1       539    8    0    1
 -2       195       194       349      1393      1859      1860
 -1       540    8    0    1
 -2       194       348       349      1857      1861      1859
 -1       541    8    0    1
 -2       196       195       350      1396      1862      1863
 -1       542    8    0    1
 -2       195       349       350      1860      1864      1862
 -1       543    8    0    1
 -2       197       196       351      1399      1865      1866
 -1       544    8    0    1
 -2       196       350       351      1863      1867      1865
 -1       545    8    0    1
 -2       198       197       352      1402      1868      1869
 -1       546    8    0    1
 -2       197       351       352      1866      1870      1868
 -1       547    8    0    1
 -2       199       198       353      1405      1871      1872
 -1       548    8    0    1
 -2       198       352       353      1869      1873      1871
 -1       549    8    0    1
 -2       200       199       354      1408      1874      1875
 -1       550    8    0    1
 -2       199       353       354      1872      1876      1874
 -1       551    8    0    1
 -2       201       200       355      1411      1877      1878
 -1       552    8    0    1
 -2       200       354       355      1875      1879      1877
 -1       553    8    0    1
 -2       202       201       356      1414      1880      1881
 -1       554    8    0    1
 -2       201       355       356      1878      1882      1880
 -1       555    8    0    1
 -2       203       202       357      1417      1883      1884
 -1       556    8    0    1
 -2       202       356       357      1881      1885      1883
 -1       557    8    0    1
 -2       204       203       358      1420      1886      1887
 -1       558    8    0    1
 -2       203       357       358      1884      1888      1886
 -1       559    8    0    1
 -2       205       204       359      1423      1889      1890
 -1       560    8    0    1
 -2       204       358       359      1887      1891      1889
 -1       561    8    0    1
 -2       206       205       360      1426      1892      1893
 -1       562    8    0    1
 -2       205       359       360      1890      1894      1892
 -1       563    8    0    1
 -2       207       206       361      1429      1895      1896
 -1       564    8    0    1
 -2       206       360       361      1893      1897      1895
 -1       565    8    0    1
 -2       208       207       362      1432      1898      1899
 -1       566    8    0    1
 -2       207       361       362      1896      1900      1898
 -1       567    8    0    1
 -2       209       208       363      1435      1901      1902
 -1       568    8    0    1
 -2       208       362       363      1899      1903      1901
 -1       569    8    0    1
 -2       210       209       364      1438      1904      1905
 -1       570    8    0    1
 -2       209       363       364      1902      1906      1904
 -1       571    8    0    1
 -2       211       210       365      1441      1907      1908
 -1       572    8    0    1
 -2       210       364       365      1905      1909      1907
 -1       573    8    0    1
 -2       212       211       366      1444      1910      1911
 -1       574    8    0    1
 -2       211       365       366      1908      1912      1910
 -1       575    8    0    1
 -2       213       212       367      1447      1913      1914
 -1       576    8    0    1
 -2       212       366       367      1911      1915      1913
 -1       577    8    0    1
 -2       214       213       368      1450      1916      1917
 -1       578    8    0    1
 -2       213       367       368      1914      1918      1916
 -1       579    8    0    1
 -2       215       214       369      1453      1919      1920
 -1       580    8    0    1
 -2       214       368       369      1917      1921      1919
 -1       581    8    0    1
 -2       216       215       370      1456      1922      1923
 -1       582    8    0    1
 -2       215       369       370      1920      1924      1922
 -1       583    8    0    1
 -2       217       216       371      1459      1925      1926
 -1       584    8    0    1
 -2       216       370       371      1923      1927      1925
 -1       585    8    0    1
 -2       218       217       372      1462      1928      1929
 -1       586    8    0    1
 -2       217       371       372      1926      1930      1928
 -1       587    8    0    1
 -2       219       218       373      1465      1931      1932
 -1       588    8    0    1
 -2       218       372       373      1929      1933      1931
 -1       589    8    0    1
 -2       220       219       374      1468      1934      1935
 -1       590    8    0    1
 -2       219       373       374      1932      1936      1934
 -1       591    8    0    1
 -2       221       220       375      1471      1937      1938
 -1       592    8    0    1
 -2       220       374       375      1935      1939      1937
 -1       593    8    0    1
 -2       222       221       376      1474      1940      1941
 -1       594    8    0    1
 -2       221       375       376      1938      1942      1940
 -1       595    8    0    1
 -2       223       222       377      1477      1943      1944
 -1       596    8    0    1
 -2       222       376       377      1941      1945      1943
 -1       597    8    0    1
 -2       224       223       378      1480      1946      1947
 -1       598    8    0    1
 -2       223       377       378      1944      1948      1946
 -1       599    8    0    1
 -2       225       224       379      1483      1949      1950
 -1       600    8    0    1
 -2       224       378       379      1947      1951      1949
 -1       601    8    0    1
 -2       226       225       380      1486      1952      1953
 -1       602    8    0    1
 -2       225       379       380      1950      1954      1952
 -1       603    8    0    1
 -2       227       226       381      1489      1955      1956
 -1       604    8    0    1
 -2       226       380       381      1953      1957      1955
 -1       605    8    0    1
 -2       228       227       382      1492      1958      1959
 -1       606    8    0    1
 -2       291       228       382      1684      1959      1960
 -1       607    8    0    1
 -2       227       381       382      1956      1961      1958
 -1       608    8    0    1
 -2       230       231       383      1503      1962      1963
 -1       609    8    0    1
 -2       230       383       336      1963      1964      1820
 -1       610    8    0    1
 -2       231       232       384      1506      1965      1966
 -1       611    8    0    1
 -2       231       384       383      1966      1967      1962
 -1       612    8    0    1
 -2       232       233       385      1509      1968      1969
 -1       613    8    0    1
 -2       232       385       384      1969      1970      1965
 -1       614    8    0    1
 -2       233       234       386      1512      1971      1972
 -1       615    8    0    1
 -2       233       386       385      1972      1973      1968
 -1       616    8    0    1
 -2       234       235       387      1515      1974      1975
 -1       617    8    0    1
 -2       234       387       386      1975      1976      1971
 -1       618    8    0    1
 -2       235       236       388      1518      1977      1978
 -1       619    8    0    1
 -2       235       388       387      1978      1979      1974
 -1       620    8    0    1
 -2       236       237       389      1521      1980      1981
 -1       621    8    0    1
 -2       236       389       388      1981      1982      1977
 -1       622    8    0    1
 -2       237       238       390      1524      1983      1984
 -1       623    8    0    1
 -2       237       390       389      1984      1985      1980
 -1       624    8    0    1
 -2       238       239       391      1527      1986      1987
 -1       625    8    0    1
 -2       238       391       390      1987      1988      1983
 -1       626    8    0    1
 -2       239       240       392      1530      1989      1990
 -1       627    8    0    1
 -2       239       392       391      1990      1991      1986
 -1       628    8    0    1
 -2       240       241       393      1533      1992      1993
 -1       629    8    0    1
 -2       240       393       392      1993      1994      1989
 -1       630    8    0    1
 -2       241       242       394      1536      1995      1996
 -1       631    8    0    1
 -2       241       394       393      1996      1997      1992
 -1       632    8    0    1
 -2       242       243       395      1539      1998      1999
 -1       633    8    0    1
 -2       242       395       394      1999      2000      1995
 -1       634    8    0    1
 -2       243       244       396      1542      2001      2002
 -1       635    8    0    1
 -2       243       396       395      2002      2003      1998
 -1       636    8    0    1
 -2       244       245       397      1545      2004      2005
 -1       637    8    0    1
 -2       244       397       396      2005      2006      2001
 -1       638    8    0    1
 -2       245       246       398      1548      2007      2008
 -1       639    8    0    1
 -2       245       398       397      2008      2009      2004
 -1       640    8    0    1
 -2       246       247       399      1551      2010      2011
 -1       641    8    0    1
 -2       246       399       398      2011      2012      2007
 -1       642    8    0    1
 -2       247       248       400      1554      2013      2014
 -1       643    8    0    1
 -2       247       400       399      2014      2015      2010
 -1       644    8    0    1
 -2       248       249       401      1557      2016      2017
 -1       645    8    0    1
 -2       248       401       400      2017      2018      2013
 -1       646    8    0    1
 -2       249       250       402      1560      2019      2020
 -1       647    8    0    1
 -2       249       402       401      2020      2021      2016
 -1       648    8    0    1
 -2       250       251       403      1563      2022      2023
 -1       649    8    0    1
 -2       250       403       402      2023      2024      2019
 -1       650    8    0    1
 -2       251       252       404      1566      2025      2026
 -1       651    8    0    1
 -2       251       404       403      2026      2027      2022
 -1       652    8    0    1
 -2       252       253       405      1569      2028      2029
 -1       653    8    0    1
 -2       252       405       404      2029      2030      2025
 -1       654    8    0    1
 -2       253       254       406      1572      2031      2032
 -1       655    8    0    1
 -2       253       406       405      2032      2033      2028
 -1       656    8    0    1
 -2       254       255       407      1575      2034      2035
 -1       657    8    0    1
 -2       254       407       406      2035      2036      2031
 -1       658    8    0    1
 -2       255       256       408      1578      2037      2038
 -1       659    8    0    1
 -2       255       408       407      2038      2039      2034
 -1       660    8    0    1
 -2       256       257       409      1581      2040      2041
 -1       661    8    0    1
 -2       256       409       408      2041      2042      2037
 -1       662    8    0    1
 -2       257       258       410      1584      2043      2044
 -1       663    8    0    1
 -2       257       410       409      2044      2045      2040
 -1       664    8    0    1
 -2       258       259       411      1587      2046      2047
 -1       665    8    0    1
 -2       258       411       410      2047      2048      2043
 -1       666    8    0    1
 -2       259       260       412      1590      2049      2050
 -1       667    8    0    1
 -2       259       412       411      2050      2051      2046
 -1       668    8    0    1
 -2       260       261       413      1593      2052      2053
 -1       669    8    0    1
 -2       260       413       412      2053      2054      2049
 -1       670    8    0    1
 -2       261       262       414      1596      2055      2056
 -1       671    8    0    1
 -2       261       414       413      2056      2057      2052
 -1       672    8    0    1
 -2       262       263       415      1599      2058      2059
 -1       673    8    0    1
 -2       262       415       414      2059      2060      2055
 -1       674    8    0    1
 -2       263       264       416      1602      2061      2062
 -1       675    8    0    1
 -2       263       416       415      2062      2063      2058
 -1       676    8    0    1
 -2       264       265       417      1605      2064      2065
 -1       677    8    0    1
 -2       264       417       416      2065      2066      2061
 -1       678    8    0    1
 -2       265       266       418      1608      2067      2068
 -1       679    8    0    1
 -2       265       418       417      2068      2069      2064
 -1       680    8    0    1
 -2       266       267       419      1611      2070      2071
 -1       681    8    0    1
 -2       266       419       418      2071      2072      2067
 -1       682    8    0    1
 -2       267       268       420      1614      2073      2074
 -1       683    8    0    1
 -2       267       420       419      2074      2075      2070
 -1       684    8    0    1
 -2       268       269       421      1617      2076      2077
 -1       685    8    0    1
 -2       268       421       420      2077      2078      2073
 -1       686    8    0    1
 -2       269       270       422      1620      2079      2080
 -1       687    8    0    1
 -2       269       422       421      2080      2081      2076
 -1       688    8    0    1
 -2       270       271       423      1623      2082      2083
 -1       689    8    0    1
 -2       270       423       422      2083      2084      2079
 -1       690    8    0    1
 -2       271       272       424      1626      2085      2086
 -1       691    8    0    1
 -2       271       424       423      2086      2087      2082
 -1       692    8    0    1
 -2       272       273       425      1629      2088      2089
 -1       693    8    0    1
 -2       272       425       424      2089      2090      2085
 -1       694    8    0    1
 -2       273       274       426      1632      2091      2092
 -1       695    8    0    1
 -2       273       426       425      2092      2093      2088
 -1       696    8    0    1
 -2       274       275       427      1635      2094      2095
 -1       697    8    0    1
 -2       274       427       426      2095      2096      2091
 -1       698    8    0    1
 -2       275       276       428      1638      2097      2098
 -1       699    8    0    1
 -2       427       275       428      2094      2098      2099
 -1       700    8    0    1
 -2       276       277       428      1748      2100      2097
 -1       701    8    0    1
 -2       279       280       429      1650      2101      2102
 -1       702    8    0    1
 -2       278       279       430      1647      2103      2104
 -1       703    8    0    1
 -2       279       429       430      2102      2105      2103
 -1       704    8    0    1
 -2       277       278       431      1644      2106      2107
 -1       705    8    0    1
 -2       428       277       431      2100      2107      2108
 -1       706    8    0    1
 -2       278       430       431      2104      2109      2106
 -1       707    8    0    1
 -2       280       281       432      1653      2110      2111
 -1       708    8    0    1
 -2       280       432       429      2111      2112      2101
 -1       709    8    0    1
 -2       281       282       433      1656      2113      2114
 -1       710    8    0    1
 -2       281       433       432      2114      2115      2110
 -1       711    8    0    1
 -2       282       283       434      1659      2116      2117
 -1       712    8    0    1
 -2       282       434       433      2117      2118      2113
 -1       713    8    0    1
 -2       283       284       435      1662      2119      2120
 -1       714    8    0    1
 -2       283       435       434      2120      2121      2116
 -1       715    8    0    1
 -2       284       285       436      1665      2122      2123
 -1       716    8    0    1
 -2       284       436       435      2123      2124      2119
 -1       717    8    0    1
 -2       285       286       437      1668      2125      2126
 -1       718    8    0    1
 -2       285       437       436      2126      2127      2122
 -1       719    8    0    1
 -2       286       287       438      1671      2128      2129
 -1       720    8    0    1
 -2       286       438       437      2129      2130      2125
 -1       721    8    0    1
 -2       287       288       439      1674      2131      2132
 -1       722    8    0    1
 -2       287       439       438      2132      2133      2128
 -1       723    8    0    1
 -2       288       289       440      1677      2134      2135
 -1       724    8    0    1
 -2       288       440       439      2135      2136      2131
 -1       725    8    0    1
 -2       289       290       441      1680      2137      2138
 -1       726    8    0    1
 -2       289       441       440      2138      2139      2134
 -1       727    8    0    1
 -2       293       294       442      1750      2140      2141
 -1       728    8    0    1
 -2       321       292       443      1751      2142      2143
 -1       729    8    0    1
 -2       292       293       444      1749      2144      2145
 -1       730    8    0    1
 -2       292       444       443      2145      2146      2142
 -1       731    8    0    1
 -2       294       295       445      1746      2147      2148
 -1       732    8    0    1
 -2       294       445       442      2148      2149      2140
 -1       733    8    0    1
 -2       295       296       446      1745      2150      2151
 -1       734    8    0    1
 -2       167       168       447      1312      2152      2153
 -1       735    8    0    1
 -2       322       167       447      1778      2153      2154
 -1       736    8    0    1
 -2       168       324       447      1784      2155      2152
 -1       737    8    0    1
 -2       297       298       448      1753      2156      2157
 -1       738    8    0    1
 -2       298       299       449      1754      2158      2159
 -1       739    8    0    1
 -2       299       300       450      1755      2160      2161
 -1       740    8    0    1
 -2       300       301       451      1756      2162      2163
 -1       741    8    0    1
 -2       300       451       450      2163      2164      2160
 -1       742    8    0    1
 -2       301       302       452      1757      2165      2166
 -1       743    8    0    1
 -2       302       303       453      1758      2167      2168
 -1       744    8    0    1
 -2       303       304       454      1759      2169      2170
 -1       745    8    0    1
 -2       304       305       455      1760      2171      2172
 -1       746    8    0    1
 -2       305       306       456      1761      2173      2174
 -1       747    8    0    1
 -2       306       307       457      1762      2175      2176
 -1       748    8    0    1
 -2       307       308       458      1763      2177      2178
 -1       749    8    0    1
 -2       308       309       459      1764      2179      2180
 -1       750    8    0    1
 -2       309       310       460      1765      2181      2182
 -1       751    8    0    1
 -2       310       311       461      1766      2183      2184
 -1       752    8    0    1
 -2       311       312       462      1767      2185      2186
 -1       753    8    0    1
 -2       311       462       461      2186      2187      2183
 -1       754    8    0    1
 -2       312       313       463      1768      2188      2189
 -1       755    8    0    1
 -2       313       314       464      1769      2190      2191
 -1       756    8    0    1
 -2       314       315       465      1770      2192      2193
 -1       757    8    0    1
 -2       315       316       466      1771      2194      2195
 -1       758    8    0    1
 -2       315       466       465      2195      2196      2192
 -1       759    8    0    1
 -2       316       317       467      1772      2197      2198
 -1       760    8    0    1
 -2       317       318       468      1773      2199      2200
 -1       761    8    0    1
 -2       318       319       469      1774      2201      2202
 -1       762    8    0    1
 -2       319       320       470      1775      2203      2204
 -1       763    8    0    1
 -2       320       321       471      1776      2205      2206
 -1       764    8    0    1
 -2       296       297       472      1752      2207      2208
 -1       765    8    0    1
 -2       181       323       182      1823      2209      1354
 -1       766    8    0    1
 -2       301       452       473      2166      2210      2211
 -1       767    8    0    1
 -2       301       473       451      2211      2212      2162
 -1       768    8    0    1
 -2       297       448       472      2157      2213      2207
 -1       769    8    0    1
 -2       337       182       323      1824      2209      2214
 -1       770    8    0    1
 -2       444       293       442      2144      2141      2215
 -1       771    8    0    1
 -2       441       290       291      2137      1683      2216
 -1       772    8    0    1
 -2       295       446       445      2151      2217      2147
 -1       773    8    0    1
 -2       321       443       471      2143      2218      2205
 -1       774    8    0    1
 -2       446       296       472      2150      2208      2219
 -1       775    8    0    1
 -2       470       320       471      2203      2206      2220
 -1       776    8    0    1
 -2       469       319       470      2201      2204      2221
 -1       777    8    0    1
 -2       468       318       469      2199      2202      2222
 -1       778    8    0    1
 -2       466       316       467      2194      2198      2223
 -1       779    8    0    1
 -2       464       314       465      2190      2193      2224
 -1       780    8    0    1
 -2       462       312       463      2185      2189      2225
 -1       781    8    0    1
 -2       460       310       474      2181      2226      2227
 -1       782    8    0    1
 -2       310       461       474      2184      2228      2226
 -1       783    8    0    1
 -2       459       309       460      2179      2182      2229
 -1       784    8    0    1
 -2       458       308       459      2177      2180      2230
 -1       785    8    0    1
 -2       457       307       458      2175      2178      2231
 -1       786    8    0    1
 -2       456       306       457      2173      2176      2232
 -1       787    8    0    1
 -2       455       305       456      2171      2174      2233
 -1       788    8    0    1
 -2       454       304       455      2169      2172      2234
 -1       789    8    0    1
 -2       453       303       454      2167      2170      2235
 -1       790    8    0    1
 -2       448       298       449      2156      2159      2236
 -1       791    8    0    1
 -2       449       299       450      2158      2161      2237
 -1       792    8    0    1
 -2       452       302       453      2165      2168      2238
 -1       793    8    0    1
 -2       463       313       464      2188      2191      2239
 -1       794    8    0    1
 -2       467       317       468      2197      2200      2240
 -1       795    8    0    1
 -2       336       383       475      1964      2241      2242
 -1       796    8    0    1
 -2       325       326       476      1790      2243      2244
 -1       797    8    0    1
 -2       324       325       477      1787      2245      2246
 -1       798    8    0    1
 -2       325       476       477      2244      2247      2245
 -1       799    8    0    1
 -2       327       328       478      1796      2248      2249
 -1       800    8    0    1
 -2       328       329       479      1799      2250      2251
 -1       801    8    0    1
 -2       328       479       478      2251      2252      2248
 -1       802    8    0    1
 -2       329       330       480      1802      2253      2254
 -1       803    8    0    1
 -2       329       480       479      2254      2255      2250
 -1       804    8    0    1
 -2       330       331       481      1805      2256      2257
 -1       805    8    0    1
 -2       330       481       480      2257      2258      2253
 -1       806    8    0    1
 -2       331       332       482      1808      2259      2260
 -1       807    8    0    1
 -2       331       482       481      2260      2261      2256
 -1       808    8    0    1
 -2       332       333       483      1811      2262      2263
 -1       809    8    0    1
 -2       332       483       482      2263      2264      2259
 -1       810    8    0    1
 -2       383       384       484      1967      2265      2266
 -1       811    8    0    1
 -2       383       484       475      2266      2267      2241
 -1       812    8    0    1
 -2       338       337       485      1828      2268      2269
 -1       813    8    0    1
 -2       339       338       486      1831      2270      2271
 -1       814    8    0    1
 -2       338       485       486      2269      2272      2270
 -1       815    8    0    1
 -2       340       339       487      1834      2273      2274
 -1       816    8    0    1
 -2       339       486       487      2271      2275      2273
 -1       817    8    0    1
 -2       341       340       488      1837      2276      2277
 -1       818    8    0    1
 -2       340       487       488      2274      2278      2276
 -1       819    8    0    1
 -2       342       341       489      1840      2279      2280
 -1       820    8    0    1
 -2       341       488       489      2277      2281      2279
 -1       821    8    0    1
 -2       343       342       490      1843      2282      2283
 -1       822    8    0    1
 -2       342       489       490      2280      2284      2282
 -1       823    8    0    1
 -2       344       343       491      1846      2285      2286
 -1       824    8    0    1
 -2       343       490       491      2283      2287      2285
 -1       825    8    0    1
 -2       345       344       492      1849      2288      2289
 -1       826    8    0    1
 -2       344       491       492      2286      2290      2288
 -1       827    8    0    1
 -2       346       345       493      1852      2291      2292
 -1       828    8    0    1
 -2       345       492       493      2289      2293      2291
 -1       829    8    0    1
 -2       347       346       494      1855      2294      2295
 -1       830    8    0    1
 -2       346       493       494      2292      2296      2294
 -1       831    8    0    1
 -2       348       347       495      1858      2297      2298
 -1       832    8    0    1
 -2       347       494       495      2295      2299      2297
 -1       833    8    0    1
 -2       349       348       496      1861      2300      2301
 -1       834    8    0    1
 -2       348       495       496      2298      2302      2300
 -1       835    8    0    1
 -2       350       349       497      1864      2303      2304
 -1       836    8    0    1
 -2       349       496       497      2301      2305      2303
 -1       837    8    0    1
 -2       351       350       498      1867      2306      2307
 -1       838    8    0    1
 -2       350       497       498      2304      2308      2306
 -1       839    8    0    1
 -2       352       351       499      1870      2309      2310
 -1       840    8    0    1
 -2       351       498       499      2307      2311      2309
 -1       841    8    0    1
 -2       353       352       500      1873      2312      2313
 -1       842    8    0    1
 -2       352       499       500      2310      2314      2312
 -1       843    8    0    1
 -2       354       353       501      1876      2315      2316
 -1       844    8    0    1
 -2       353       500       501      2313      2317      2315
 -1       845    8    0    1
 -2       355       354       502      1879      2318      2319
 -1       846    8    0    1
 -2       354       501       502      2316      2320      2318
 -1       847    8    0    1
 -2       356       355       503      1882      2321      2322
 -1       848    8    0    1
 -2       355       502       503      2319      2323      2321
 -1       849    8    0    1
 -2       357       356       504      1885      2324      2325
 -1       850    8    0    1
 -2       356       503       504      2322      2326      2324
 -1       851    8    0    1
 -2       358       357       505      1888      2327      2328
 -1       852    8    0    1
 -2       357       504       505      2325      2329      2327
 -1       853    8    0    1
 -2       359       358       506      1891      2330      2331
 -1       854    8    0    1
 -2       358       505       506      2328      2332      2330
 -1       855    8    0    1
 -2       360       359       507      1894      2333      2334
 -1       856    8    0    1
 -2       359       506       507      2331      2335      2333
 -1       857    8    0    1
 -2       361       360       508      1897      2336      2337
 -1       858    8    0    1
 -2       360       507       508      2334      2338      2336
 -1       859    8    0    1
 -2       362       361       509      1900      2339      2340
 -1       860    8    0    1
 -2       361       508       509      2337      2341      2339
 -1       861    8    0    1
 -2       363       362       510      1903      2342      2343
 -1       862    8    0    1
 -2       362       509       510      2340      2344      2342
 -1       863    8    0    1
 -2       364       363       511      1906      2345      2346
 -1       864    8    0    1
 -2       363       510       511      2343      2347      2345
 -1       865    8    0    1
 -2       365       364       512      1909      2348      2349
 -1       866    8    0    1
 -2       364       511       512      2346      2350      2348
 -1       867    8    0    1
 -2       366       365       513      1912      2351      2352
 -1       868    8    0    1
 -2       365       512       513      2349      2353      2351
 -1       869    8    0    1
 -2       367       366       514      1915      2354      2355
 -1       870    8    0    1
 -2       366       513       514      2352      2356      2354
 -1       871    8    0    1
 -2       368       367       515      1918      2357      2358
 -1       872    8    0    1
 -2       367       514       515      2355      2359      2357
 -1       873    8    0    1
 -2       369       368       516      1921      2360      2361
 -1       874    8    0    1
 -2       368       515       516      2358      2362      2360
 -1       875    8    0    1
 -2       370       369       517      1924      2363      2364
 -1       876    8    0    1
 -2       369       516       517      2361      2365      2363
 -1       877    8    0    1
 -2       371       370       518      1927      2366      2367
 -1       878    8    0    1
 -2       370       517       518      2364      2368      2366
 -1       879    8    0    1
 -2       372       371       519      1930      2369      2370
 -1       880    8    0    1
 -2       371       518       519      2367      2371      2369
 -1       881    8    0    1
 -2       373       372       520      1933      2372      2373
 -1       882    8    0    1
 -2       372       519       520      2370      2374      2372
 -1       883    8    0    1
 -2       374       373       521      1936      2375      2376
 -1       884    8    0    1
 -2       373       520       521      2373      2377      2375
 -1       885    8    0    1
 -2       375       374       522      1939      2378      2379
 -1       886    8    0    1
 -2       374       521       522      2376      2380      2378
 -1       887    8    0    1
 -2       376       375       523      1942      2381      2382
 -1       888    8    0    1
 -2       375       522       523      2379      2383      2381
 -1       889    8    0    1
 -2       377       376       524      1945      2384      2385
 -1       890    8    0    1
 -2       376       523       524      2382      2386      2384
 -1       891    8    0    1
 -2       378       377       525      1948      2387      2388
 -1       892    8    0    1
 -2       377       524       525      2385      2389      2387
 -1       893    8    0    1
 -2       379       378       526      1951      2390      2391
 -1       894    8    0    1
 -2       378       525       526      2388      2392      2390
 -1       895    8    0    1
 -2       380       379       527      1954      2393      2394
 -1       896    8    0    1
 -2       379       526       527      2391      2395      2393
 -1       897    8    0    1
 -2       381       380       528      1957      2396      2397
 -1       898    8    0    1
 -2       380       527       528      2394      2398      2396
 -1       899    8    0    1
 -2       385       386       529      1973      2399      2400
 -1       900    8    0    1
 -2       386       387       530      1976      2401      2402
 -1       901    8    0    1
 -2       386       530       529      2402      2403      2399
 -1       902    8    0    1
 -2       387       388       531      1979      2404      2405
 -1       903    8    0    1
 -2       387       531       530      2405      2406      2401
 -1       904    8    0    1
 -2       388       389       532      1982      2407      2408
 -1       905    8    0    1
 -2       388       532       531      2408      2409      2404
 -1       906    8    0    1
 -2       389       390       533      1985      2410      2411
 -1       907    8    0    1
 -2       389       533       532      2411      2412      2407
 -1       908    8    0    1
 -2       390       391       534      1988      2413      2414
 -1       909    8    0    1
 -2       390       534       533      2414      2415      2410
 -1       910    8    0    1
 -2       391       392       535      1991      2416      2417
 -1       911    8    0    1
 -2       391       535       534      2417      2418      2413
 -1       912    8    0    1
 -2       392       393       536      1994      2419      2420
 -1       913    8    0    1
 -2       392       536       535      2420      2421      2416
 -1       914    8    0    1
 -2       393       394       537      1997      2422      2423
 -1       915    8    0    1
 -2       393       537       536      2423      2424      2419
 -1       916    8    0    1
 -2       394       395       538      2000      2425      2426
 -1       917    8    0    1
 -2       394       538       537      2426      2427      2422
 -1       918    8    0    1
 -2       395       396       539      2003      2428      2429
 -1       919    8    0    1
 -2       395       539       538      2429      2430      2425
 -1       920    8    0    1
 -2       396       397       540      2006      2431      2432
 -1       921    8    0    1
 -2       396       540       539      2432      2433      2428
 -1       922    8    0    1
 -2       397       398       541      2009      2434      2435
 -1       923    8    0    1
 -2       397       541       540      2435      2436      2431
 -1       924    8    0    1
 -2       398       399       542      2012      2437      2438
 -1       925    8    0    1
 -2       398       542       541      2438      2439      2434
 -1       926    8    0    1
 -2       399       400       543      2015      2440      2441
 -1       927    8    0    1
 -2       399       543       542      2441      2442      2437
 -1       928    8    0    1
 -2       400       401       544      2018      2443      2444
 -1       929    8    0    1
 -2       400       544       543      2444      2445      2440
 -1       930    8    0    1
 -2       401       402       545      2021      2446      2447
 -1       931    8    0    1
 -2       401       545       544      2447      2448      2443
 -1       932    8    0    1
 -2       402       403       546      2024      2449      2450
 -1       933    8    0    1
 -2       402       546       545      2450      2451      2446
 -1       934    8    0    1
 -2       403       404       547      2027      2452      2453
 -1       935    8    0    1
 -2       403       547       546      2453      2454      2449
 -1       936    8    0    1
 -2       404       405       548      2030      2455      2456
 -1       937    8    0    1
 -2       404       548       547      2456      2457      2452
 -1       938    8    0    1
 -2       405       406       549      2033      2458      2459
 -1       939    8    0    1
 -2       405       549       548      2459      2460      2455
 -1       940    8    0    1
 -2       406       407       550      2036      2461      2462
 -1       941    8    0    1
 -2       406       550       549      2462      2463      2458
 -1       942    8    0    1
 -2       407       408       551      2039      2464      2465
 -1       943    8    0    1
 -2       407       551       550      2465      2466      2461
 -1       944    8    0    1
 -2       408       409       552      2042      2467      2468
 -1       945    8    0    1
 -2       408       552       551      2468      2469      2464
 -1       946    8    0    1
 -2       409       410       553      2045      2470      2471
 -1       947    8    0    1
 -2       409       553       552      2471      2472      2467
 -1       948    8    0    1
 -2       410       411       554      2048      2473      2474
 -1       949    8    0    1
 -2       410       554       553      2474      2475      2470
 -1       950    8    0    1
 -2       411       412       555      2051      2476      2477
 -1       951    8    0    1
 -2       411       555       554      2477      2478      2473
 -1       952    8    0    1
 -2       412       413       556      2054      2479      2480
 -1       953    8    0    1
 -2       412       556       555      2480      2481      2476
 -1       954    8    0    1
 -2       413       414       557      2057      2482      2483
 -1       955    8    0    1
 -2       413       557       556      2483      2484      2479
 -1       956    8    0    1
 -2       414       415       558      2060      2485      2486
 -1       957    8    0    1
 -2       414       558       557      2486      2487      2482
 -1       958    8    0    1
 -2       415       416       559      2063      2488      2489
 -1       959    8    0    1
 -2       415       559       558      2489      2490      2485
 -1       960    8    0    1
 -2       416       417       560      2066      2491      2492
 -1       961    8    0    1
 -2       416       560       559      2492      2493      2488
 -1       962    8    0    1
 -2       417       418       561      2069      2494      2495
 -1       963    8    0    1
 -2       417       561       560      2495      2496      2491
 -1       964    8    0    1
 -2       418       419       562      2072      2497      2498
 -1       965    8    0    1
 -2       418       562       561      2498      2499      2494
 -1       966    8    0    1
 -2       419       420       563      2075      2500      2501
 -1       967    8    0    1
 -2       419       563       562      2501      2502      2497
 -1       968    8    0    1
 -2       420       421       564      2078      2503      2504
 -1       969    8    0    1
 -2       420       564       563      2504      2505      2500
 -1       970    8    0    1
 -2       421       422       565      2081      2506      2507
 -1       971    8    0    1
 -2       421       565       564      2507      2508      2503
 -1       972    8    0    1
 -2       422       423       566      2084      2509      2510
 -1       973    8    0    1
 -2       422       566       565      2510      2511      2506
 -1       974    8    0    1
 -2       423       424       567      2087      2512      2513
 -1       975    8    0    1
 -2       423       567       566      2513      2514      2509
 -1       976    8    0    1
 -2       424       425       568      2090      2515      2516
 -1       977    8    0    1
 -2       424       568       567      2516      2517      2512
 -1       978    8    0    1
 -2       425       426       569      2093      2518      2519
 -1       979    8    0    1
 -2       425       569       568      2519      2520      2515
 -1       980    8    0    1
 -2       426       427       570      2096      2521      2522
 -1       981    8    0    1
 -2       426       570       569      2522      2523      2518
 -1       982    8    0    1
 -2       427       428       431      2099      2108      2524
 -1       983    8    0    1
 -2       432       433       571      2115      2525      2526
 -1       984    8    0    1
 -2       433       434       572      2118      2527      2528
 -1       985    8    0    1
 -2       433       572       571      2528      2529      2525
 -1       986    8    0    1
 -2       430       429       573      2105      2530      2531
 -1       987    8    0    1
 -2       429       432       574      2112      2532      2533
 -1       988    8    0    1
 -2       573       429       574      2530      2533      2534
 -1       989    8    0    1
 -2       432       571       574      2526      2535      2532
 -1       990    8    0    1
 -2       442       445       575      2149      2536      2537
 -1       991    8    0    1
 -2       434       435       576      2121      2538      2539
 -1       992    8    0    1
 -2       434       576       572      2539      2540      2527
 -1       993    8    0    1
 -2       435       436       577      2124      2541      2542
 -1       994    8    0    1
 -2       435       577       576      2542      2543      2538
 -1       995    8    0    1
 -2       436       437       578      2127      2544      2545
 -1       996    8    0    1
 -2       436       578       577      2545      2546      2541
 -1       997    8    0    1
 -2       437       438       579      2130      2547      2548
 -1       998    8    0    1
 -2       437       579       578      2548      2549      2544
 -1       999    8    0    1
 -2       438       439       580      2133      2550      2551
 -1      1000    8    0    1
 -2       438       580       579      2551      2552      2547
 -1      1001    8    0    1
 -2       439       440       581      2136      2553      2554
 -1      1002    8    0    1
 -2       439       581       580      2554      2555      2550
 -1      1003    8    0    1
 -2       440       441       582      2139      2556      2557
 -1      1004    8    0    1
 -2       440       582       581      2557      2558      2553
 -1      1005    8    0    1
 -2       441       291       382      2216      1960      2559
 -1      1006    8    0    1
 -2       445       446       583      2217      2560      2561
 -1      1007    8    0    1
 -2       384       385       584      1970      2562      2563
 -1      1008    8    0    1
 -2       385       529       584      2400      2564      2562
 -1      1009    8    0    1
 -2       443       444       585      2146      2565      2566
 -1      1010    8    0    1
 -2       471       443       586      2218      2567      2568
 -1      1011    8    0    1
 -2       337       323       587      2214      2569      2570
 -1      1012    8    0    1
 -2       485       337       587      2268      2570      2571
 -1      1013    8    0    1
 -2       323       322       587      1782      2572      2569
 -1      1014    8    0    1
 -2       446       472       588      2219      2573      2574
 -1      1015    8    0    1
 -2       464       465       589      2224      2575      2576
 -1      1016    8    0    1
 -2       472       448       590      2213      2577      2578
 -1      1017    8    0    1
 -2       326       327       591      1793      2579      2580
 -1      1018    8    0    1
 -2       476       326       591      2243      2580      2581
 -1      1019    8    0    1
 -2       327       478       591      2249      2582      2579
 -1      1020    8    0    1
 -2       449       450       592      2237      2583      2584
 -1      1021    8    0    1
 -2       452       453       593      2238      2585      2586
 -1      1022    8    0    1
 -2       450       451       594      2164      2587      2588
 -1      1023    8    0    1
 -2       463       464       595      2239      2589      2590
 -1      1024    8    0    1
 -2       448       449       596      2236      2591      2592
 -1      1025    8    0    1
 -2       448       596       590      2592      2593      2577
 -1      1026    8    0    1
 -2       453       454       597      2235      2594      2595
 -1      1027    8    0    1
 -2       454       455       598      2234      2596      2597
 -1      1028    8    0    1
 -2       455       456       599      2233      2598      2599
 -1      1029    8    0    1
 -2       455       599       598      2599      2600      2596
 -1      1030    8    0    1
 -2       456       457       600      2232      2601      2602
 -1      1031    8    0    1
 -2       457       458       601      2231      2603      2604
 -1      1032    8    0    1
 -2       458       459       602      2230      2605      2606
 -1      1033    8    0    1
 -2       459       460       603      2229      2607      2608
 -1      1034    8    0    1
 -2       459       603       602      2608      2609      2605
 -1      1035    8    0    1
 -2       461       462       604      2187      2610      2611
 -1      1036    8    0    1
 -2       467       468       605      2240      2612      2613
 -1      1037    8    0    1
 -2       462       463       606      2225      2614      2615
 -1      1038    8    0    1
 -2       462       606       604      2615      2616      2610
 -1      1039    8    0    1
 -2       465       466       607      2196      2617      2618
 -1      1040    8    0    1
 -2       466       467       608      2223      2619      2620
 -1      1041    8    0    1
 -2       468       469       609      2222      2621      2622
 -1      1042    8    0    1
 -2       468       609       605      2622      2623      2612
 -1      1043    8    0    1
 -2       469       470       610      2221      2624      2625
 -1      1044    8    0    1
 -2       470       471       611      2220      2626      2627
 -1      1045    8    0    1
 -2       470       611       610      2627      2628      2624
 -1      1046    8    0    1
 -2       335       336       612      1822      2629      2630
 -1      1047    8    0    1
 -2       334       335       612      1817      2630      2631
 -1      1048    8    0    1
 -2       336       475       612      2242      2632      2629
 -1      1049    8    0    1
 -2       444       442       613      2215      2633      2634
 -1      1050    8    0    1
 -2       444       613       585      2634      2635      2565
 -1      1051    8    0    1
 -2       449       592       614      2584      2636      2637
 -1      1052    8    0    1
 -2       449       614       596      2637      2638      2591
 -1      1053    8    0    1
 -2       324       477       615      2246      2639      2640
 -1      1054    8    0    1
 -2       324       615       447      2640      2641      2155
 -1      1055    8    0    1
 -2       484       384       584      2265      2563      2642
 -1      1056    8    0    1
 -2       333       334       612      1814      2631      2643
 -1      1057    8    0    1
 -2       613       442       575      2633      2537      2644
 -1      1058    8    0    1
 -2       473       452       593      2210      2586      2645
 -1      1059    8    0    1
 -2       588       472       590      2573      2578      2646
 -1      1060    8    0    1
 -2       451       473       594      2212      2647      2587
 -1      1061    8    0    1
 -2       611       471       586      2626      2568      2648
 -1      1062    8    0    1
 -2       445       583       575      2561      2649      2536
 -1      1063    8    0    1
 -2       609       469       616      2621      2650      2651
 -1      1064    8    0    1
 -2       469       610       616      2625      2652      2650
 -1      1065    8    0    1
 -2       427       431       570      2524      2653      2521
 -1      1066    8    0    1
 -2       431       430       570      2109      2654      2653
 -1      1067    8    0    1
 -2       441       382       617      2559      2655      2656
 -1      1068    8    0    1
 -2       582       441       617      2556      2656      2657
 -1      1069    8    0    1
 -2       382       381       617      1961      2658      2655
 -1      1070    8    0    1
 -2       583       446       588      2560      2574      2659
 -1      1071    8    0    1
 -2       608       467       605      2619      2613      2660
 -1      1072    8    0    1
 -2       606       463       595      2614      2590      2661
 -1      1073    8    0    1
 -2       333       612       483      2643      2662      2262
 -1      1074    8    0    1
 -2       603       460       618      2607      2663      2664
 -1      1075    8    0    1
 -2       460       474       618      2227      2665      2663
 -1      1076    8    0    1
 -2       589       465       607      2575      2618      2666
 -1      1077    8    0    1
 -2       464       589       595      2576      2667      2589
 -1      1078    8    0    1
 -2       461       604       619      2611      2668      2669
 -1      1079    8    0    1
 -2       461       619       474      2669      2670      2228
 -1      1080    8    0    1
 -2       601       458       602      2603      2606      2671
 -1      1081    8    0    1
 -2       599       456       600      2598      2602      2672
 -1      1082    8    0    1
 -2       453       597       593      2595      2673      2585
 -1      1083    8    0    1
 -2       587       322       447      2572      2154      2674
 -1      1084    8    0    1
 -2       586       443       585      2567      2566      2675
 -1      1085    8    0    1
 -2       450       594       592      2588      2676      2583
 -1      1086    8    0    1
 -2       597       454       620      2594      2677      2678
 -1      1087    8    0    1
 -2       454       598       620      2597      2679      2677
 -1      1088    8    0    1
 -2       600       457       601      2601      2604      2680
 -1      1089    8    0    1
 -2       607       466       608      2617      2620      2681
 -1      1090    8    0    1
 -2       570       430       573      2654      2531      2682
 -1      1091    8    0    1
 -2       617       381       528      2658      2397      2683
 -1      1092    8    0    1
 -2       479       480       621      2255      2684      2685
 -1      1093    8    0    1
 -2       478       479       622      2252      2686      2687
 -1      1094    8    0    1
 -2       479       621       622      2685      2688      2686
 -1      1095    8    0    1
 -2       481       482       623      2261      2689      2690
 -1      1096    8    0    1
 -2       482       483       624      2264      2691      2692
 -1      1097    8    0    1
 -2       482       624       623      2692      2693      2689
 -1      1098    8    0    1
 -2       475       484       625      2267      2694      2695
 -1      1099    8    0    1
 -2       484       584       626      2642      2696      2697
 -1      1100    8    0    1
 -2       484       626       625      2697      2698      2694
 -1      1101    8    0    1
 -2       487       486       627      2275      2699      2700
 -1      1102    8    0    1
 -2       488       487       628      2278      2701      2702
 -1      1103    8    0    1
 -2       487       627       628      2700      2703      2701
 -1      1104    8    0    1
 -2       489       488       629      2281      2704      2705
 -1      1105    8    0    1
 -2       488       628       629      2702      2706      2704
 -1      1106    8    0    1
 -2       490       489       630      2284      2707      2708
 -1      1107    8    0    1
 -2       489       629       630      2705      2709      2707
 -1      1108    8    0    1
 -2       491       490       631      2287      2710      2711
 -1      1109    8    0    1
 -2       490       630       631      2708      2712      2710
 -1      1110    8    0    1
 -2       492       491       632      2290      2713      2714
 -1      1111    8    0    1
 -2       491       631       632      2711      2715      2713
 -1      1112    8    0    1
 -2       493       492       633      2293      2716      2717
 -1      1113    8    0    1
 -2       492       632       633      2714      2718      2716
 -1      1114    8    0    1
 -2       494       493       634      2296      2719      2720
 -1      1115    8    0    1
 -2       493       633       634      2717      2721      2719
 -1      1116    8    0    1
 -2       495       494       635      2299      2722      2723
 -1      1117    8    0    1
 -2       494       634       635      2720      2724      2722
 -1      1118    8    0    1
 -2       496       495       636      2302      2725      2726
 -1      1119    8    0    1
 -2       495       635       636      2723      2727      2725
 -1      1120    8    0    1
 -2       497       496       637      2305      2728      2729
 -1      1121    8    0    1
 -2       496       636       637      2726      2730      2728
 -1      1122    8    0    1
 -2       498       497       638      2308      2731      2732
 -1      1123    8    0    1
 -2       497       637       638      2729      2733      2731
 -1      1124    8    0    1
 -2       499       498       639      2311      2734      2735
 -1      1125    8    0    1
 -2       498       638       639      2732      2736      2734
 -1      1126    8    0    1
 -2       500       499       640      2314      2737      2738
 -1      1127    8    0    1
 -2       499       639       640      2735      2739      2737
 -1      1128    8    0    1
 -2       501       500       641      2317      2740      2741
 -1      1129    8    0    1
 -2       500       640       641      2738      2742      2740
 -1      1130    8    0    1
 -2       502       501       642      2320      2743      2744
 -1      1131    8    0    1
 -2       501       641       642      2741      2745      2743
 -1      1132    8    0    1
 -2       503       502       643      2323      2746      2747
 -1      1133    8    0    1
 -2       502       642       643      2744      2748      2746
 -1      1134    8    0    1
 -2       504       503       644      2326      2749      2750
 -1      1135    8    0    1
 -2       503       643       644      2747      2751      2749
 -1      1136    8    0    1
 -2       505       504       645      2329      2752      2753
 -1      1137    8    0    1
 -2       504       644       645      2750      2754      2752
 -1      1138    8    0    1
 -2       506       505       646      2332      2755      2756
 -1      1139    8    0    1
 -2       505       645       646      2753      2757      2755
 -1      1140    8    0    1
 -2       507       506       647      2335      2758      2759
 -1      1141    8    0    1
 -2       506       646       647      2756      2760      2758
 -1      1142    8    0    1
 -2       508       507       648      2338      2761      2762
 -1      1143    8    0    1
 -2       507       647       648      2759      2763      2761
 -1      1144    8    0    1
 -2       509       508       649      2341      2764      2765
 -1      1145    8    0    1
 -2       508       648       649      2762      2766      2764
 -1      1146    8    0    1
 -2       510       509       650      2344      2767      2768
 -1      1147    8    0    1
 -2       509       649       650      2765      2769      2767
 -1      1148    8    0    1
 -2       511       510       651      2347      2770      2771
 -1      1149    8    0    1
 -2       510       650       651      2768      2772      2770
 -1      1150    8    0    1
 -2       512       511       652      2350      2773      2774
 -1      1151    8    0    1
 -2       511       651       652      2771      2775      2773
 -1      1152    8    0    1
 -2       513       512       653      2353      2776      2777
 -1      1153    8    0    1
 -2       512       652       653      2774      2778      2776
 -1      1154    8    0    1
 -2       514       513       654      2356      2779      2780
 -1      1155    8    0    1
 -2       513       653       654      2777      2781      2779
 -1      1156    8    0    1
 -2       515       514       655      2359      2782      2783
 -1      1157    8    0    1
 -2       514       654       655      2780      2784      2782
 -1      1158    8    0    1
 -2       516       515       656      2362      2785      2786
 -1      1159    8    0    1
 -2       515       655       656      2783      2787      2785
 -1      1160    8    0    1
 -2       517       516       657      2365      2788      2789
 -1      1161    8    0    1
 -2       516       656       657      2786      2790      2788
 -1      1162    8    0    1
 -2       518       517       658      2368      2791      2792
 -1      1163    8    0    1
 -2       517       657       658      2789      2793      2791
 -1      1164    8    0    1
 -2       519       518       659      2371      2794      2795
 -1      1165    8    0    1
 -2       518       658       659      2792      2796      2794
 -1      1166    8    0    1
 -2       520       519       660      2374      2797      2798
 -1      1167    8    0    1
 -2       519       659       660      2795      2799      2797
 -1      1168    8    0    1
 -2       521       520       661      2377      2800      2801
 -1      1169    8    0    1
 -2       520       660       661      2798      2802      2800
 -1      1170    8    0    1
 -2       522       521       662      2380      2803      2804
 -1      1171    8    0    1
 -2       521       661       662      2801      2805      2803
 -1      1172    8    0    1
 -2       523       522       663      2383      2806      2807
 -1      1173    8    0    1
 -2       522       662       663      2804      2808      2806
 -1      1174    8    0    1
 -2       524       523       664      2386      2809      2810
 -1      1175    8    0    1
 -2       523       663       664      2807      2811      2809
 -1      1176    8    0    1
 -2       525       524       665      2389      2812      2813
 -1      1177    8    0    1
 -2       524       664       665      2810      2814      2812
 -1      1178    8    0    1
 -2       526       525       666      2392      2815      2816
 -1      1179    8    0    1
 -2       525       665       666      2813      2817      2815
 -1      1180    8    0    1
 -2       527       526       667      2395      2818      2819
 -1      1181    8    0    1
 -2       526       666       667      2816      2820      2818
 -1      1182    8    0    1
 -2       528       527       668      2398      2821      2822
 -1      1183    8    0    1
 -2       527       667       668      2819      2823      2821
 -1      1184    8    0    1
 -2       530       531       669      2406      2824      2825
 -1      1185    8    0    1
 -2       583       588       670      2659      2826      2827
 -1      1186    8    0    1
 -2       529       530       671      2403      2828      2829
 -1      1187    8    0    1
 -2       530       669       671      2825      2830      2828
 -1      1188    8    0    1
 -2       532       533       672      2412      2831      2832
 -1      1189    8    0    1
 -2       533       534       673      2415      2833      2834
 -1      1190    8    0    1
 -2       533       673       672      2834      2835      2831
 -1      1191    8    0    1
 -2       534       535       674      2418      2836      2837
 -1      1192    8    0    1
 -2       534       674       673      2837      2838      2833
 -1      1193    8    0    1
 -2       535       536       675      2421      2839      2840
 -1      1194    8    0    1
 -2       535       675       674      2840      2841      2836
 -1      1195    8    0    1
 -2       536       537       676      2424      2842      2843
 -1      1196    8    0    1
 -2       536       676       675      2843      2844      2839
 -1      1197    8    0    1
 -2       537       538       677      2427      2845      2846
 -1      1198    8    0    1
 -2       537       677       676      2846      2847      2842
 -1      1199    8    0    1
 -2       538       539       678      2430      2848      2849
 -1      1200    8    0    1
 -2       538       678       677      2849      2850      2845
 -1      1201    8    0    1
 -2       539       540       679      2433      2851      2852
 -1      1202    8    0    1
 -2       539       679       678      2852      2853      2848
 -1      1203    8    0    1
 -2       540       541       680      2436      2854      2855
 -1      1204    8    0    1
 -2       540       680       679      2855      2856      2851
 -1      1205    8    0    1
 -2       542       543       681      2442      2857      2858
 -1      1206    8    0    1
 -2       543       544       614      2445      2859      2860
 -1      1207    8    0    1
 -2       544       545       682      2448      2861      2862
 -1      1208    8    0    1
 -2       545       546       683      2451      2863      2864
 -1      1209    8    0    1
 -2       545       683       682      2864      2865      2861
 -1      1210    8    0    1
 -2       546       547       684      2454      2866      2867
 -1      1211    8    0    1
 -2       546       684       683      2867      2868      2863
 -1      1212    8    0    1
 -2       547       548       685      2457      2869      2870
 -1      1213    8    0    1
 -2       547       685       684      2870      2871      2866
 -1      1214    8    0    1
 -2       548       549       686      2460      2872      2873
 -1      1215    8    0    1
 -2       548       686       685      2873      2874      2869
 -1      1216    8    0    1
 -2       549       550       687      2463      2875      2876
 -1      1217    8    0    1
 -2       549       687       686      2876      2877      2872
 -1      1218    8    0    1
 -2       550       551       688      2466      2878      2879
 -1      1219    8    0    1
 -2       550       688       687      2879      2880      2875
 -1      1220    8    0    1
 -2       551       552       689      2469      2881      2882
 -1      1221    8    0    1
 -2       551       689       688      2882      2883      2878
 -1      1222    8    0    1
 -2       552       553       690      2472      2884      2885
 -1      1223    8    0    1
 -2       552       690       689      2885      2886      2881
 -1      1224    8    0    1
 -2       553       554       691      2475      2887      2888
 -1      1225    8    0    1
 -2       553       691       690      2888      2889      2884
 -1      1226    8    0    1
 -2       554       555       692      2478      2890      2891
 -1      1227    8    0    1
 -2       554       692       691      2891      2892      2887
 -1      1228    8    0    1
 -2       555       556       693      2481      2893      2894
 -1      1229    8    0    1
 -2       555       693       692      2894      2895      2890
 -1      1230    8    0    1
 -2       556       557       694      2484      2896      2897
 -1      1231    8    0    1
 -2       556       694       693      2897      2898      2893
 -1      1232    8    0    1
 -2       557       558       695      2487      2899      2900
 -1      1233    8    0    1
 -2       557       695       694      2900      2901      2896
 -1      1234    8    0    1
 -2       558       559       696      2490      2902      2903
 -1      1235    8    0    1
 -2       558       696       695      2903      2904      2899
 -1      1236    8    0    1
 -2       559       560       697      2493      2905      2906
 -1      1237    8    0    1
 -2       559       697       696      2906      2907      2902
 -1      1238    8    0    1
 -2       560       561       698      2496      2908      2909
 -1      1239    8    0    1
 -2       560       698       697      2909      2910      2905
 -1      1240    8    0    1
 -2       561       562       699      2499      2911      2912
 -1      1241    8    0    1
 -2       561       699       698      2912      2913      2908
 -1      1242    8    0    1
 -2       562       563       700      2502      2914      2915
 -1      1243    8    0    1
 -2       562       700       699      2915      2916      2911
 -1      1244    8    0    1
 -2       563       564       701      2505      2917      2918
 -1      1245    8    0    1
 -2       563       701       700      2918      2919      2914
 -1      1246    8    0    1
 -2       564       565       702      2508      2920      2921
 -1      1247    8    0    1
 -2       564       702       701      2921      2922      2917
 -1      1248    8    0    1
 -2       565       566       703      2511      2923      2924
 -1      1249    8    0    1
 -2       565       703       702      2924      2925      2920
 -1      1250    8    0    1
 -2       566       567       704      2514      2926      2927
 -1      1251    8    0    1
 -2       566       704       703      2927      2928      2923
 -1      1252    8    0    1
 -2       567       568       705      2517      2929      2930
 -1      1253    8    0    1
 -2       567       705       704      2930      2931      2926
 -1      1254    8    0    1
 -2       568       569       706      2520      2932      2933
 -1      1255    8    0    1
 -2       568       706       705      2933      2934      2929
 -1      1256    8    0    1
 -2       569       570       707      2523      2935      2936
 -1      1257    8    0    1
 -2       706       569       707      2932      2936      2937
 -1      1258    8    0    1
 -2       570       573       707      2682      2938      2935
 -1      1259    8    0    1
 -2       576       577       708      2543      2939      2940
 -1      1260    8    0    1
 -2       617       528       709      2683      2941      2942
 -1      1261    8    0    1
 -2       528       668       709      2822      2943      2941
 -1      1262    8    0    1
 -2       571       572       710      2529      2944      2945
 -1      1263    8    0    1
 -2       473       593       711      2645      2946      2947
 -1      1264    8    0    1
 -2       577       578       712      2546      2948      2949
 -1      1265    8    0    1
 -2       577       712       708      2949      2950      2939
 -1      1266    8    0    1
 -2       572       576       713      2540      2951      2952
 -1      1267    8    0    1
 -2       710       572       713      2944      2952      2953
 -1      1268    8    0    1
 -2       576       708       713      2940      2954      2951
 -1      1269    8    0    1
 -2       578       579       714      2549      2955      2956
 -1      1270    8    0    1
 -2       578       714       712      2956      2957      2948
 -1      1271    8    0    1
 -2       579       580       715      2552      2958      2959
 -1      1272    8    0    1
 -2       579       715       714      2959      2960      2955
 -1      1273    8    0    1
 -2       580       581       716      2555      2961      2962
 -1      1274    8    0    1
 -2       580       716       715      2962      2963      2958
 -1      1275    8    0    1
 -2       584       529       717      2564      2964      2965
 -1      1276    8    0    1
 -2       626       584       717      2696      2965      2966
 -1      1277    8    0    1
 -2       529       671       717      2829      2967      2964
 -1      1278    8    0    1
 -2       582       617       709      2657      2942      2968
 -1      1279    8    0    1
 -2       575       583       718      2649      2969      2970
 -1      1280    8    0    1
 -2       485       587       719      2571      2971      2972
 -1      1281    8    0    1
 -2       593       597       720      2673      2973      2974
 -1      1282    8    0    1
 -2       594       473       721      2647      2975      2976
 -1      1283    8    0    1
 -2       473       711       721      2947      2977      2975
 -1      1284    8    0    1
 -2       601       602       722      2671      2978      2979
 -1      1285    8    0    1
 -2       589       607       723      2666      2980      2981
 -1      1286    8    0    1
 -2       611       586       724      2648      2982      2983
 -1      1287    8    0    1
 -2       531       532       725      2409      2984      2985
 -1      1288    8    0    1
 -2       669       531       725      2824      2985      2986
 -1      1289    8    0    1
 -2       532       672       725      2832      2987      2984
 -1      1290    8    0    1
 -2       587       447       719      2674      2988      2971
 -1      1291    8    0    1
 -2       608       605       726      2660      2989      2990
 -1      1292    8    0    1
 -2       586       585       727      2675      2991      2992
 -1      1293    8    0    1
 -2       486       485       728      2272      2993      2994
 -1      1294    8    0    1
 -2       627       486       728      2699      2994      2995
 -1      1295    8    0    1
 -2       485       719       728      2972      2996      2993
 -1      1296    8    0    1
 -2       480       481       729      2258      2997      2998
 -1      1297    8    0    1
 -2       621       480       729      2684      2998      2999
 -1      1298    8    0    1
 -2       481       623       729      2690      3000      2997
 -1      1299    8    0    1
 -2       588       590       730      2646      3001      3002
 -1      1300    8    0    1
 -2       483       612       475      2662      2632      3003
 -1      1301    8    0    1
 -2       477       476       731      2247      3004      3005
 -1      1302    8    0    1
 -2       590       596       732      2593      3006      3007
 -1      1303    8    0    1
 -2       600       601       733      2680      3008      3009
 -1      1304    8    0    1
 -2       598       599       734      2600      3010      3011
 -1      1305    8    0    1
 -2       607       608       735      2681      3012      3013
 -1      1306    8    0    1
 -2       607       735       723      3013      3014      2980
 -1      1307    8    0    1
 -2       599       600       736      2672      3015      3016
 -1      1308    8    0    1
 -2       602       603       737      2609      3017      3018
 -1      1309    8    0    1
 -2       595       589       738      2667      3019      3020
 -1      1310    8    0    1
 -2       606       595       739      2661      3021      3022
 -1      1311    8    0    1
 -2       604       606       740      2616      3023      3024
 -1      1312    8    0    1
 -2       592       594       741      2676      3025      3026
 -1      1313    8    0    1
 -2       585       613       742      2635      3027      3028
 -1      1314    8    0    1
 -2       605       609       743      2623      3029      3030
 -1      1315    8    0    1
 -2       613       575       744      2644      3031      3032
 -1      1316    8    0    1
 -2       575       718       744      2970      3033      3031
 -1      1317    8    0    1
 -2       610       611       745      2628      3034      3035
 -1      1318    8    0    1
 -2       615       477       746      2639      3036      3037
 -1      1319    8    0    1
 -2       477       731       746      3005      3038      3036
 -1      1320    8    0    1
 -2       478       622       747      2687      3039      3040
 -1      1321    8    0    1
 -2       478       747       591      3040      3041      2582
 -1      1322    8    0    1
 -2       719       447       615      2988      2641      3042
 -1      1323    8    0    1
 -2       603       618       748      2664      3043      3044
 -1      1324    8    0    1
 -2       603       748       737      3044      3045      3017
 -1      1325    8    0    1
 -2       743       609       616      3029      2651      3046
 -1      1326    8    0    1
 -2       742       613       744      3027      3032      3047
 -1      1327    8    0    1
 -2       741       594       721      3025      2976      3048
 -1      1328    8    0    1
 -2       588       730       670      3002      3049      2826
 -1      1329    8    0    1
 -2       740       606       739      3023      3022      3050
 -1      1330    8    0    1
 -2       739       595       738      3021      3020      3051
 -1      1331    8    0    1
 -2       616       610       745      2652      3035      3052
 -1      1332    8    0    1
 -2       571       710       749      2945      3053      3054
 -1      1333    8    0    1
 -2       571       749       574      3054      3055      2535
 -1      1334    8    0    1
 -2       727       585       750      2991      3056      3057
 -1      1335    8    0    1
 -2       585       742       750      3028      3058      3056
 -1      1336    8    0    1
 -2       583       670       718      2827      3059      2969
 -1      1337    8    0    1
 -2       582       709       581      2968      3060      2558
 -1      1338    8    0    1
 -2       738       589       723      3019      2981      3061
 -1      1339    8    0    1
 -2       541       542       751      2439      3062      3063
 -1      1340    8    0    1
 -2       601       722       733      2979      3064      3008
 -1      1341    8    0    1
 -2       573       574       752      2534      3065      3066
 -1      1342    8    0    1
 -2       707       573       752      2938      3066      3067
 -1      1343    8    0    1
 -2       574       749       752      3055      3068      3065
 -1      1344    8    0    1
 -2       730       590       732      3001      3007      3069
 -1      1345    8    0    1
 -2       716       581       709      2961      3060      3070
 -1      1346    8    0    1
 -2       735       608       726      3012      2990      3071
 -1      1347    8    0    1
 -2       734       599       736      3010      3016      3072
 -1      1348    8    0    1
 -2       720       597       753      2973      3073      3074
 -1      1349    8    0    1
 -2       597       620       753      2678      3075      3073
 -1      1350    8    0    1
 -2       724       586       727      2982      2992      3076
 -1      1351    8    0    1
 -2       618       474       754      2665      3077      3078
 -1      1352    8    0    1
 -2       474       619       754      2670      3079      3077
 -1      1353    8    0    1
 -2       596       614       732      2638      3080      3006
 -1      1354    8    0    1
 -2       593       720       711      2974      3081      2946
 -1      1355    8    0    1
 -2       619       604       755      2668      3082      3083
 -1      1356    8    0    1
 -2       604       740       755      3024      3084      3082
 -1      1357    8    0    1
 -2       722       602       737      2978      3018      3085
 -1      1358    8    0    1
 -2       541       751       680      3063      3086      2854
 -1      1359    8    0    1
 -2       611       724       745      2983      3087      3034
 -1      1360    8    0    1
 -2       476       591       756      2581      3088      3089
 -1      1361    8    0    1
 -2       731       476       756      3004      3089      3090
 -1      1362    8    0    1
 -2       591       747       756      3041      3091      3088
 -1      1363    8    0    1
 -2       726       605       743      2989      3030      3092
 -1      1364    8    0    1
 -2       483       475       625      3003      2695      3093
 -1      1365    8    0    1
 -2       620       598       757      2679      3094      3095
 -1      1366    8    0    1
 -2       598       734       757      3011      3096      3094
 -1      1367    8    0    1
 -2       600       733       758      3009      3097      3098
 -1      1368    8    0    1
 -2       600       758       736      3098      3099      3015
 -1      1369    8    0    1
 -2       592       741       614      3026      3100      2636
 -1      1370    8    0    1
 -2       624       483       625      2691      3093      3101
 -1      1371    8    0    1
 -2       623       624       759      2693      3102      3103
 -1      1372    8    0    1
 -2       744       718       760      3033      3104      3105
 -1      1373    8    0    1
 -2       629       628       761      2706      3106      3107
 -1      1374    8    0    1
 -2       630       629       762      2709      3108      3109
 -1      1375    8    0    1
 -2       629       761       762      3107      3110      3108
 -1      1376    8    0    1
 -2       631       630       763      2712      3111      3112
 -1      1377    8    0    1
 -2       630       762       763      3109      3113      3111
 -1      1378    8    0    1
 -2       632       631       764      2715      3114      3115
 -1      1379    8    0    1
 -2       631       763       764      3112      3116      3114
 -1      1380    8    0    1
 -2       633       632       765      2718      3117      3118
 -1      1381    8    0    1
 -2       632       764       765      3115      3119      3117
 -1      1382    8    0    1
 -2       634       633       766      2721      3120      3121
 -1      1383    8    0    1
 -2       633       765       766      3118      3122      3120
 -1      1384    8    0    1
 -2       635       634       767      2724      3123      3124
 -1      1385    8    0    1
 -2       634       766       767      3121      3125      3123
 -1      1386    8    0    1
 -2       636       635       768      2727      3126      3127
 -1      1387    8    0    1
 -2       635       767       768      3124      3128      3126
 -1      1388    8    0    1
 -2       637       636       769      2730      3129      3130
 -1      1389    8    0    1
 -2       636       768       769      3127      3131      3129
 -1      1390    8    0    1
 -2       638       637       770      2733      3132      3133
 -1      1391    8    0    1
 -2       637       769       770      3130      3134      3132
 -1      1392    8    0    1
 -2       639       638       771      2736      3135      3136
 -1      1393    8    0    1
 -2       638       770       771      3133      3137      3135
 -1      1394    8    0    1
 -2       641       640       772      2742      3138      3139
 -1      1395    8    0    1
 -2       642       641       738      2745      3140      3141
 -1      1396    8    0    1
 -2       643       642       723      2748      3142      3143
 -1      1397    8    0    1
 -2       645       644       773      2754      3144      3145
 -1      1398    8    0    1
 -2       646       645       774      2757      3146      3147
 -1      1399    8    0    1
 -2       645       773       774      3145      3148      3146
 -1      1400    8    0    1
 -2       647       646       775      2760      3149      3150
 -1      1401    8    0    1
 -2       646       774       775      3147      3151      3149
 -1      1402    8    0    1
 -2       648       647       776      2763      3152      3153
 -1      1403    8    0    1
 -2       647       775       776      3150      3154      3152
 -1      1404    8    0    1
 -2       649       648       777      2766      3155      3156
 -1      1405    8    0    1
 -2       648       776       777      3153      3157      3155
 -1      1406    8    0    1
 -2       650       649       778      2769      3158      3159
 -1      1407    8    0    1
 -2       649       777       778      3156      3160      3158
 -1      1408    8    0    1
 -2       651       650       779      2772      3161      3162
 -1      1409    8    0    1
 -2       650       778       779      3159      3163      3161
 -1      1410    8    0    1
 -2       652       651       780      2775      3164      3165
 -1      1411    8    0    1
 -2       651       779       780      3162      3166      3164
 -1      1412    8    0    1
 -2       653       652       781      2778      3167      3168
 -1      1413    8    0    1
 -2       652       780       781      3165      3169      3167
 -1      1414    8    0    1
 -2       654       653       782      2781      3170      3171
 -1      1415    8    0    1
 -2       653       781       782      3168      3172      3170
 -1      1416    8    0    1
 -2       655       654       783      2784      3173      3174
 -1      1417    8    0    1
 -2       654       782       783      3171      3175      3173
 -1      1418    8    0    1
 -2       656       655       784      2787      3176      3177
 -1      1419    8    0    1
 -2       655       783       784      3174      3178      3176
 -1      1420    8    0    1
 -2       657       656       785      2790      3179      3180
 -1      1421    8    0    1
 -2       656       784       785      3177      3181      3179
 -1      1422    8    0    1
 -2       658       657       786      2793      3182      3183
 -1      1423    8    0    1
 -2       657       785       786      3180      3184      3182
 -1      1424    8    0    1
 -2       659       658       787      2796      3185      3186
 -1      1425    8    0    1
 -2       658       786       787      3183      3187      3185
 -1      1426    8    0    1
 -2       660       659       788      2799      3188      3189
 -1      1427    8    0    1
 -2       659       787       788      3186      3190      3188
 -1      1428    8    0    1
 -2       661       660       789      2802      3191      3192
 -1      1429    8    0    1
 -2       660       788       789      3189      3193      3191
 -1      1430    8    0    1
 -2       662       661       790      2805      3194      3195
 -1      1431    8    0    1
 -2       661       789       790      3192      3196      3194
 -1      1432    8    0    1
 -2       663       662       791      2808      3197      3198
 -1      1433    8    0    1
 -2       662       790       791      3195      3199      3197
 -1      1434    8    0    1
 -2       664       663       792      2811      3200      3201
 -1      1435    8    0    1
 -2       663       791       792      3198      3202      3200
 -1      1436    8    0    1
 -2       665       664       793      2814      3203      3204
 -1      1437    8    0    1
 -2       664       792       793      3201      3205      3203
 -1      1438    8    0    1
 -2       666       665       794      2817      3206      3207
 -1      1439    8    0    1
 -2       665       793       794      3204      3208      3206
 -1      1440    8    0    1
 -2       667       666       795      2820      3209      3210
 -1      1441    8    0    1
 -2       666       794       795      3207      3211      3209
 -1      1442    8    0    1
 -2       668       667       796      2823      3212      3213
 -1      1443    8    0    1
 -2       667       795       796      3210      3214      3212
 -1      1444    8    0    1
 -2       751       542       681      3062      2858      3215
 -1      1445    8    0    1
 -2       673       674       797      2838      3216      3217
 -1      1446    8    0    1
 -2       672       673       798      2835      3218      3219
 -1      1447    8    0    1
 -2       673       797       798      3217      3220      3218
 -1      1448    8    0    1
 -2       675       676       799      2844      3221      3222
 -1      1449    8    0    1
 -2       676       677       800      2847      3223      3224
 -1      1450    8    0    1
 -2       676       800       799      3224      3225      3221
 -1      1451    8    0    1
 -2       677       678       801      2850      3226      3227
 -1      1452    8    0    1
 -2       677       801       800      3227      3228      3223
 -1      1453    8    0    1
 -2       678       679       753      2853      3229      3230
 -1      1454    8    0    1
 -2       745       724       802      3087      3231      3232
 -1      1455    8    0    1
 -2       733       722       803      3064      3233      3234
 -1      1456    8    0    1
 -2       544       682       614      2862      3235      2859
 -1      1457    8    0    1
 -2       685       686       804      2874      3236      3237
 -1      1458    8    0    1
 -2       686       687       805      2877      3238      3239
 -1      1459    8    0    1
 -2       686       805       804      3239      3240      3236
 -1      1460    8    0    1
 -2       687       688       806      2880      3241      3242
 -1      1461    8    0    1
 -2       687       806       805      3242      3243      3238
 -1      1462    8    0    1
 -2       688       689       807      2883      3244      3245
 -1      1463    8    0    1
 -2       688       807       806      3245      3246      3241
 -1      1464    8    0    1
 -2       689       690       808      2886      3247      3248
 -1      1465    8    0    1
 -2       689       808       807      3248      3249      3244
 -1      1466    8    0    1
 -2       690       691       809      2889      3250      3251
 -1      1467    8    0    1
 -2       690       809       808      3251      3252      3247
 -1      1468    8    0    1
 -2       691       692       810      2892      3253      3254
 -1      1469    8    0    1
 -2       691       810       809      3254      3255      3250
 -1      1470    8    0    1
 -2       692       693       811      2895      3256      3257
 -1      1471    8    0    1
 -2       692       811       810      3257      3258      3253
 -1      1472    8    0    1
 -2       693       694       812      2898      3259      3260
 -1      1473    8    0    1
 -2       693       812       811      3260      3261      3256
 -1      1474    8    0    1
 -2       694       695       813      2901      3262      3263
 -1      1475    8    0    1
 -2       694       813       812      3263      3264      3259
 -1      1476    8    0    1
 -2       695       696       814      2904      3265      3266
 -1      1477    8    0    1
 -2       695       814       813      3266      3267      3262
 -1      1478    8    0    1
 -2       696       697       815      2907      3268      3269
 -1      1479    8    0    1
 -2       696       815       814      3269      3270      3265
 -1      1480    8    0    1
 -2       697       698       816      2910      3271      3272
 -1      1481    8    0    1
 -2       697       816       815      3272      3273      3268
 -1      1482    8    0    1
 -2       698       699       817      2913      3274      3275
 -1      1483    8    0    1
 -2       698       817       816      3275      3276      3271
 -1      1484    8    0    1
 -2       699       700       818      2916      3277      3278
 -1      1485    8    0    1
 -2       699       818       817      3278      3279      3274
 -1      1486    8    0    1
 -2       700       701       819      2919      3280      3281
 -1      1487    8    0    1
 -2       700       819       818      3281      3282      3277
 -1      1488    8    0    1
 -2       701       702       820      2922      3283      3284
 -1      1489    8    0    1
 -2       701       820       819      3284      3285      3280
 -1      1490    8    0    1
 -2       702       703       821      2925      3286      3287
 -1      1491    8    0    1
 -2       702       821       820      3287      3288      3283
 -1      1492    8    0    1
 -2       703       704       822      2928      3289      3290
 -1      1493    8    0    1
 -2       703       822       821      3290      3291      3286
 -1      1494    8    0    1
 -2       704       705       823      2931      3292      3293
 -1      1495    8    0    1
 -2       704       823       822      3293      3294      3289
 -1      1496    8    0    1
 -2       705       706       824      2934      3295      3296
 -1      1497    8    0    1
 -2       705       824       823      3296      3297      3292
 -1      1498    8    0    1
 -2       706       707       825      2937      3298      3299
 -1      1499    8    0    1
 -2       824       706       825      3295      3299      3300
 -1      1500    8    0    1
 -2       707       752       825      3067      3301      3298
 -1      1501    8    0    1
 -2       743       616       826      3046      3302      3303
 -1      1502    8    0    1
 -2       622       621       827      2688      3304      3305
 -1      1503    8    0    1
 -2       715       716       828      2963      3306      3307
 -1      1504    8    0    1
 -2       742       744       829      3047      3308      3309
 -1      1505    8    0    1
 -2       744       760       829      3105      3310      3308
 -1      1506    8    0    1
 -2       708       712       830      2950      3311      3312
 -1      1507    8    0    1
 -2       735       726       831      3071      3313      3314
 -1      1508    8    0    1
 -2       714       715       832      2960      3315      3316
 -1      1509    8    0    1
 -2       715       828       832      3307      3317      3315
 -1      1510    8    0    1
 -2       684       685       833      2871      3318      3319
 -1      1511    8    0    1
 -2       685       804       833      3237      3320      3318
 -1      1512    8    0    1
 -2       719       615       746      3042      3037      3321
 -1      1513    8    0    1
 -2       674       675       834      2841      3322      3323
 -1      1514    8    0    1
 -2       797       674       834      3216      3323      3324
 -1      1515    8    0    1
 -2       675       799       834      3222      3325      3322
 -1      1516    8    0    1
 -2       671       669       835      2830      3326      3327
 -1      1517    8    0    1
 -2       740       739       772      3050      3328      3329
 -1      1518    8    0    1
 -2       723       642       738      3142      3141      3061
 -1      1519    8    0    1
 -2       711       720       836      3081      3330      3331
 -1      1520    8    0    1
 -2       628       627       837      2703      3332      3333
 -1      1521    8    0    1
 -2       628       837       761      3333      3334      3106
 -1      1522    8    0    1
 -2       734       736       838      3072      3335      3336
 -1      1523    8    0    1
 -2       616       745       839      3052      3337      3338
 -1      1524    8    0    1
 -2       616       839       826      3338      3339      3302
 -1      1525    8    0    1
 -2       722       737       840      3085      3340      3341
 -1      1526    8    0    1
 -2       724       727       841      3076      3342      3343
 -1      1527    8    0    1
 -2       724       841       802      3343      3344      3231
 -1      1528    8    0    1
 -2       712       714       842      2957      3345      3346
 -1      1529    8    0    1
 -2       830       712       842      3311      3346      3347
 -1      1530    8    0    1
 -2       714       832       842      3316      3348      3345
 -1      1531    8    0    1
 -2       718       670       843      3059      3349      3350
 -1      1532    8    0    1
 -2       726       743       844      3092      3351      3352
 -1      1533    8    0    1
 -2       624       625       845      3101      3353      3354
 -1      1534    8    0    1
 -2       759       624       845      3102      3354      3355
 -1      1535    8    0    1
 -2       625       626       845      2698      3356      3353
 -1      1536    8    0    1
 -2       747       622       846      3039      3357      3358
 -1      1537    8    0    1
 -2       622       827       846      3305      3359      3357
 -1      1538    8    0    1
 -2       620       757       847      3095      3360      3361
 -1      1539    8    0    1
 -2       620       847       753      3361      3362      3075
 -1      1540    8    0    1
 -2       708       830       848      3312      3363      3364
 -1      1541    8    0    1
 -2       708       848       713      3364      3365      2954
 -1      1542    8    0    1
 -2       748       618       849      3043      3366      3367
 -1      1543    8    0    1
 -2       618       754       849      3078      3368      3366
 -1      1544    8    0    1
 -2       746       731       850      3038      3369      3370
 -1      1545    8    0    1
 -2       729       623       851      3000      3371      3372
 -1      1546    8    0    1
 -2       623       759       851      3103      3373      3371
 -1      1547    8    0    1
 -2       749       710       852      3053      3374      3375
 -1      1548    8    0    1
 -2       750       742       853      3058      3376      3377
 -1      1549    8    0    1
 -2       742       829       853      3309      3378      3376
 -1      1550    8    0    1
 -2       772       640       854      3138      3379      3380
 -1      1551    8    0    1
 -2       740       772       854      3329      3380      3381
 -1      1552    8    0    1
 -2       640       639       854      2739      3382      3379
 -1      1553    8    0    1
 -2       643       723       855      3143      3383      3384
 -1      1554    8    0    1
 -2       644       643       855      2751      3384      3385
 -1      1555    8    0    1
 -2       835       669       856      3326      3386      3387
 -1      1556    8    0    1
 -2       669       725       856      2986      3388      3386
 -1      1557    8    0    1
 -2       672       798       857      3219      3389      3390
 -1      1558    8    0    1
 -2       672       857       725      3390      3391      2987
 -1      1559    8    0    1
 -2       745       802       839      3232      3392      3337
 -1      1560    8    0    1
 -2       679       680       836      2856      3393      3394
 -1      1561    8    0    1
 -2       671       835       858      3327      3395      3396
 -1      1562    8    0    1
 -2       671       858       717      3396      3397      2967
 -1      1563    8    0    1
 -2       733       803       859      3234      3398      3399
 -1      1564    8    0    1
 -2       733       859       758      3399      3400      3097
 -1      1565    8    0    1
 -2       682       683       730      2865      3401      3402
 -1      1566    8    0    1
 -2       722       840       803      3341      3403      3233
 -1      1567    8    0    1
 -2       827       621       860      3304      3404      3405
 -1      1568    8    0    1
 -2       621       729       860      2999      3406      3404
 -1      1569    8    0    1
 -2       710       713       861      2953      3407      3408
 -1      1570    8    0    1
 -2       852       710       861      3374      3408      3409
 -1      1571    8    0    1
 -2       713       848       861      3365      3410      3407
 -1      1572    8    0    1
 -2       709       668       716      2943      3411      3070
 -1      1573    8    0    1
 -2       730       732       682      3069      3412      3402
 -1      1574    8    0    1
 -2       740       854       755      3381      3413      3084
 -1      1575    8    0    1
 -2       831       726       844      3313      3352      3414
 -1      1576    8    0    1
 -2       721       711       680      2977      3415      3416
 -1      1577    8    0    1
 -2       626       717       862      2966      3417      3418
 -1      1578    8    0    1
 -2       845       626       862      3356      3418      3419
 -1      1579    8    0    1
 -2       717       858       862      3397      3420      3417
 -1      1580    8    0    1
 -2       711       836       680      3331      3393      3415
 -1      1581    8    0    1
 -2       828       716       796      3306      3421      3422
 -1      1582    8    0    1
 -2       716       668       796      3411      3213      3421
 -1      1583    8    0    1
 -2       730       683       670      3401      3423      3049
 -1      1584    8    0    1
 -2       670       683       684      3423      2868      3424
 -1      1585    8    0    1
 -2       850       731       863      3369      3425      3426
 -1      1586    8    0    1
 -2       731       756       863      3090      3427      3425
 -1      1587    8    0    1
 -2       854       639       771      3382      3136      3428
 -1      1588    8    0    1
 -2       754       619       864      3079      3429      3430
 -1      1589    8    0    1
 -2       619       755       864      3083      3431      3429
 -1      1590    8    0    1
 -2       718       843       760      3350      3432      3104
 -1      1591    8    0    1
 -2       841       727       865      3342      3433      3434
 -1      1592    8    0    1
 -2       727       750       865      3057      3435      3433
 -1      1593    8    0    1
 -2       719       746       866      3321      3436      3437
 -1      1594    8    0    1
 -2       728       719       866      2996      3437      3438
 -1      1595    8    0    1
 -2       746       850       866      3370      3439      3436
 -1      1596    8    0    1
 -2       670       684       843      3424      3440      3349
 -1      1597    8    0    1
 -2       737       748       867      3045      3441      3442
 -1      1598    8    0    1
 -2       737       867       840      3442      3443      3340
 -1      1599    8    0    1
 -2       855       723       735      3383      3014      3444
 -1      1600    8    0    1
 -2       627       728       866      2995      3438      3445
 -1      1601    8    0    1
 -2       743       826       844      3303      3446      3351
 -1      1602    8    0    1
 -2       757       734       868      3096      3447      3448
 -1      1603    8    0    1
 -2       734       838       868      3336      3449      3447
 -1      1604    8    0    1
 -2       738       641       772      3140      3139      3450
 -1      1605    8    0    1
 -2       838       736       869      3335      3451      3452
 -1      1606    8    0    1
 -2       736       758       869      3099      3453      3451
 -1      1607    8    0    1
 -2       627       866       837      3445      3454      3332
 -1      1608    8    0    1
 -2       680       751       721      3086      3455      3416
 -1      1609    8    0    1
 -2       739       738       772      3051      3450      3328
 -1      1610    8    0    1
 -2       741       721       751      3048      3455      3456
 -1      1611    8    0    1
 -2       763       762       870      3113      3457      3458
 -1      1612    8    0    1
 -2       764       763       871      3116      3459      3460
 -1      1613    8    0    1
 -2       763       870       871      3458      3461      3459
 -1      1614    8    0    1
 -2       765       764       872      3119      3462      3463
 -1      1615    8    0    1
 -2       764       871       872      3460      3464      3462
 -1      1616    8    0    1
 -2       766       765       873      3122      3465      3466
 -1      1617    8    0    1
 -2       765       872       873      3463      3467      3465
 -1      1618    8    0    1
 -2       767       766       874      3125      3468      3469
 -1      1619    8    0    1
 -2       766       873       874      3466      3470      3468
 -1      1620    8    0    1
 -2       768       767       875      3128      3471      3472
 -1      1621    8    0    1
 -2       767       874       875      3469      3473      3471
 -1      1622    8    0    1
 -2       769       768       876      3131      3474      3475
 -1      1623    8    0    1
 -2       768       875       876      3472      3476      3474
 -1      1624    8    0    1
 -2       770       769       877      3134      3477      3478
 -1      1625    8    0    1
 -2       769       876       877      3475      3479      3477
 -1      1626    8    0    1
 -2       644       855       831      3385      3480      3481
 -1      1627    8    0    1
 -2       775       774       878      3151      3482      3483
 -1      1628    8    0    1
 -2       776       775       879      3154      3484      3485
 -1      1629    8    0    1
 -2       775       878       879      3483      3486      3484
 -1      1630    8    0    1
 -2       777       776       880      3157      3487      3488
 -1      1631    8    0    1
 -2       776       879       880      3485      3489      3487
 -1      1632    8    0    1
 -2       778       777       881      3160      3490      3491
 -1      1633    8    0    1
 -2       777       880       881      3488      3492      3490
 -1      1634    8    0    1
 -2       779       778       882      3163      3493      3494
 -1      1635    8    0    1
 -2       778       881       882      3491      3495      3493
 -1      1636    8    0    1
 -2       780       779       883      3166      3496      3497
 -1      1637    8    0    1
 -2       779       882       883      3494      3498      3496
 -1      1638    8    0    1
 -2       781       780       884      3169      3499      3500
 -1      1639    8    0    1
 -2       780       883       884      3497      3501      3499
 -1      1640    8    0    1
 -2       782       781       885      3172      3502      3503
 -1      1641    8    0    1
 -2       781       884       885      3500      3504      3502
 -1      1642    8    0    1
 -2       783       782       886      3175      3505      3506
 -1      1643    8    0    1
 -2       782       885       886      3503      3507      3505
 -1      1644    8    0    1
 -2       784       783       887      3178      3508      3509
 -1      1645    8    0    1
 -2       783       886       887      3506      3510      3508
 -1      1646    8    0    1
 -2       785       784       888      3181      3511      3512
 -1      1647    8    0    1
 -2       784       887       888      3509      3513      3511
 -1      1648    8    0    1
 -2       786       785       889      3184      3514      3515
 -1      1649    8    0    1
 -2       785       888       889      3512      3516      3514
 -1      1650    8    0    1
 -2       787       786       890      3187      3517      3518
 -1      1651    8    0    1
 -2       786       889       890      3515      3519      3517
 -1      1652    8    0    1
 -2       788       787       891      3190      3520      3521
 -1      1653    8    0    1
 -2       787       890       891      3518      3522      3520
 -1      1654    8    0    1
 -2       789       788       892      3193      3523      3524
 -1      1655    8    0    1
 -2       788       891       892      3521      3525      3523
 -1      1656    8    0    1
 -2       790       789       893      3196      3526      3527
 -1      1657    8    0    1
 -2       789       892       893      3524      3528      3526
 -1      1658    8    0    1
 -2       791       790       894      3199      3529      3530
 -1      1659    8    0    1
 -2       790       893       894      3527      3531      3529
 -1      1660    8    0    1
 -2       792       791       895      3202      3532      3533
 -1      1661    8    0    1
 -2       791       894       895      3530      3534      3532
 -1      1662    8    0    1
 -2       793       792       896      3205      3535      3536
 -1      1663    8    0    1
 -2       792       895       896      3533      3537      3535
 -1      1664    8    0    1
 -2       794       793       897      3208      3538      3539
 -1      1665    8    0    1
 -2       793       896       897      3536      3540      3538
 -1      1666    8    0    1
 -2       795       794       898      3211      3541      3542
 -1      1667    8    0    1
 -2       794       897       898      3539      3543      3541
 -1      1668    8    0    1
 -2       796       795       899      3214      3544      3545
 -1      1669    8    0    1
 -2       828       796       899      3422      3545      3546
 -1      1670    8    0    1
 -2       795       898       899      3542      3547      3544
 -1      1671    8    0    1
 -2       798       797       900      3220      3548      3549
 -1      1672    8    0    1
 -2       800       801       901      3228      3550      3551
 -1      1673    8    0    1
 -2       799       800       902      3225      3552      3553
 -1      1674    8    0    1
 -2       800       901       902      3551      3554      3552
 -1      1675    8    0    1
 -2       801       678       753      3226      3230      3555
 -1      1676    8    0    1
 -2       681       543       614      2857      2860      3556
 -1      1677    8    0    1
 -2       805       806       903      3243      3557      3558
 -1      1678    8    0    1
 -2       803       840       904      3403      3559      3560
 -1      1679    8    0    1
 -2       804       805       905      3240      3561      3562
 -1      1680    8    0    1
 -2       805       903       905      3558      3563      3561
 -1      1681    8    0    1
 -2       807       808       906      3249      3564      3565
 -1      1682    8    0    1
 -2       808       809       907      3252      3566      3567
 -1      1683    8    0    1
 -2       808       907       906      3567      3568      3564
 -1      1684    8    0    1
 -2       809       810       908      3255      3569      3570
 -1      1685    8    0    1
 -2       809       908       907      3570      3571      3566
 -1      1686    8    0    1
 -2       810       811       909      3258      3572      3573
 -1      1687    8    0    1
 -2       810       909       908      3573      3574      3569
 -1      1688    8    0    1
 -2       811       812       910      3261      3575      3576
 -1      1689    8    0    1
 -2       811       910       909      3576      3577      3572
 -1      1690    8    0    1
 -2       812       813       911      3264      3578      3579
 -1      1691    8    0    1
 -2       812       911       910      3579      3580      3575
 -1      1692    8    0    1
 -2       813       814       912      3267      3581      3582
 -1      1693    8    0    1
 -2       813       912       911      3582      3583      3578
 -1      1694    8    0    1
 -2       814       815       913      3270      3584      3585
 -1      1695    8    0    1
 -2       814       913       912      3585      3586      3581
 -1      1696    8    0    1
 -2       815       816       914      3273      3587      3588
 -1      1697    8    0    1
 -2       815       914       913      3588      3589      3584
 -1      1698    8    0    1
 -2       816       817       915      3276      3590      3591
 -1      1699    8    0    1
 -2       816       915       914      3591      3592      3587
 -1      1700    8    0    1
 -2       817       818       916      3279      3593      3594
 -1      1701    8    0    1
 -2       817       916       915      3594      3595      3590
 -1      1702    8    0    1
 -2       818       819       917      3282      3596      3597
 -1      1703    8    0    1
 -2       818       917       916      3597      3598      3593
 -1      1704    8    0    1
 -2       819       820       918      3285      3599      3600
 -1      1705    8    0    1
 -2       819       918       917      3600      3601      3596
 -1      1706    8    0    1
 -2       820       821       919      3288      3602      3603
 -1      1707    8    0    1
 -2       820       919       918      3603      3604      3599
 -1      1708    8    0    1
 -2       821       822       920      3291      3605      3606
 -1      1709    8    0    1
 -2       821       920       919      3606      3607      3602
 -1      1710    8    0    1
 -2       822       823       921      3294      3608      3609
 -1      1711    8    0    1
 -2       822       921       920      3609      3610      3605
 -1      1712    8    0    1
 -2       823       824       922      3297      3611      3612
 -1      1713    8    0    1
 -2       823       922       921      3612      3613      3608
 -1      1714    8    0    1
 -2       832       828       923      3317      3614      3615
 -1      1715    8    0    1
 -2       828       899       923      3546      3616      3614
 -1      1716    8    0    1
 -2       684       833       843      3319      3617      3440
 -1      1717    8    0    1
 -2       752       749       924      3068      3618      3619
 -1      1718    8    0    1
 -2       825       752       924      3301      3619      3620
 -1      1719    8    0    1
 -2       749       852       924      3375      3621      3618
 -1      1720    8    0    1
 -2       735       831       855      3314      3480      3444
 -1      1721    8    0    1
 -2       829       760       905      3310      3622      3623
 -1      1722    8    0    1
 -2       806       807       925      3246      3624      3625
 -1      1723    8    0    1
 -2       807       906       925      3565      3626      3624
 -1      1724    8    0    1
 -2       839       802       926      3392      3627      3628
 -1      1725    8    0    1
 -2       720       753       679      3074      3229      3629
 -1      1726    8    0    1
 -2       760       843       833      3432      3617      3630
 -1      1727    8    0    1
 -2       760       833       804      3630      3320      3631
 -1      1728    8    0    1
 -2       681       614       741      3556      3100      3632
 -1      1729    8    0    1
 -2       866       850       837      3439      3633      3454
 -1      1730    8    0    1
 -2       773       644       831      3144      3481      3634
 -1      1731    8    0    1
 -2       756       747       927      3091      3635      3636
 -1      1732    8    0    1
 -2       756       927       863      3636      3637      3427
 -1      1733    8    0    1
 -2       844       826       878      3446      3638      3639
 -1      1734    8    0    1
 -2       762       761       928      3110      3640      3641
 -1      1735    8    0    1
 -2       762       928       870      3641      3642      3457
 -1      1736    8    0    1
 -2       761       837       929      3334      3643      3644
 -1      1737    8    0    1
 -2       761       929       928      3644      3645      3640
 -1      1738    8    0    1
 -2       755       854       771      3413      3428      3646
 -1      1739    8    0    1
 -2       826       839       930      3339      3647      3648
 -1      1740    8    0    1
 -2       878       826       930      3638      3648      3649
 -1      1741    8    0    1
 -2       839       926       930      3628      3650      3647
 -1      1742    8    0    1
 -2       837       850       931      3633      3651      3652
 -1      1743    8    0    1
 -2       929       837       931      3643      3652      3653
 -1      1744    8    0    1
 -2       850       863       931      3426      3654      3651
 -1      1745    8    0    1
 -2       802       841       932      3344      3655      3656
 -1      1746    8    0    1
 -2       759       845       933      3355      3657      3658
 -1      1747    8    0    1
 -2       845       862       933      3419      3659      3657
 -1      1748    8    0    1
 -2       760       804       905      3631      3562      3622
 -1      1749    8    0    1
 -2       847       757       868      3360      3448      3660
 -1      1750    8    0    1
 -2       848       830       934      3363      3661      3662
 -1      1751    8    0    1
 -2       849       754       935      3368      3663      3664
 -1      1752    8    0    1
 -2       754       864       935      3430      3665      3663
 -1      1753    8    0    1
 -2       747       846       927      3358      3666      3635
 -1      1754    8    0    1
 -2       729       851       860      3372      3667      3406
 -1      1755    8    0    1
 -2       750       853       936      3377      3668      3669
 -1      1756    8    0    1
 -2       750       936       865      3669      3670      3435
 -1      1757    8    0    1
 -2       838       869       937      3452      3671      3672
 -1      1758    8    0    1
 -2       838       937       868      3672      3673      3449
 -1      1759    8    0    1
 -2       770       877       935      3478      3674      3675
 -1      1760    8    0    1
 -2       771       770       935      3137      3675      3676
 -1      1761    8    0    1
 -2       835       856       938      3387      3677      3678
 -1      1762    8    0    1
 -2       798       900       939      3549      3679      3680
 -1      1763    8    0    1
 -2       798       939       857      3680      3681      3389
 -1      1764    8    0    1
 -2       856       725       857      3388      3391      3682
 -1      1765    8    0    1
 -2       858       835       940      3395      3683      3684
 -1      1766    8    0    1
 -2       835       938       940      3678      3685      3683
 -1      1767    8    0    1
 -2       799       902       941      3553      3686      3687
 -1      1768    8    0    1
 -2       799       941       834      3687      3688      3325
 -1      1769    8    0    1
 -2       904       840       942      3559      3689      3690
 -1      1770    8    0    1
 -2       840       867       942      3443      3691      3689
 -1      1771    8    0    1
 -2       844       878       774      3639      3482      3692
 -1      1772    8    0    1
 -2       859       803       943      3398      3693      3694
 -1      1773    8    0    1
 -2       803       904       943      3560      3695      3693
 -1      1774    8    0    1
 -2       903       806       925      3557      3625      3696
 -1      1775    8    0    1
 -2       614       682       732      3235      3412      3080
 -1      1776    8    0    1
 -2       832       923       944      3615      3697      3698
 -1      1777    8    0    1
 -2       832       944       842      3698      3699      3348
 -1      1778    8    0    1
 -2       824       825       924      3300      3620      3700
 -1      1779    8    0    1
 -2       924       852       922      3621      3701      3702
 -1      1780    8    0    1
 -2       922       852       945      3701      3703      3704
 -1      1781    8    0    1
 -2       844       774       773      3692      3148      3705
 -1      1782    8    0    1
 -2       748       849       946      3367      3706      3707
 -1      1783    8    0    1
 -2       748       946       867      3707      3708      3441
 -1      1784    8    0    1
 -2       900       797       947      3548      3709      3710
 -1      1785    8    0    1
 -2       797       834       947      3324      3711      3709
 -1      1786    8    0    1
 -2       758       859       948      3400      3712      3713
 -1      1787    8    0    1
 -2       758       948       869      3713      3714      3453
 -1      1788    8    0    1
 -2       926       802       932      3627      3656      3715
 -1      1789    8    0    1
 -2       720       679       836      3629      3394      3330
 -1      1790    8    0    1
 -2       827       860       949      3405      3716      3717
 -1      1791    8    0    1
 -2       830       842       950      3347      3718      3719
 -1      1792    8    0    1
 -2       934       830       950      3661      3719      3720
 -1      1793    8    0    1
 -2       842       944       950      3699      3721      3718
 -1      1794    8    0    1
 -2       852       861       945      3409      3722      3703
 -1      1795    8    0    1
 -2       831       844       773      3414      3705      3634
 -1      1796    8    0    1
 -2       755       771       864      3646      3723      3431
 -1      1797    8    0    1
 -2       932       841       951      3655      3724      3725
 -1      1798    8    0    1
 -2       841       865       951      3434      3726      3724
 -1      1799    8    0    1
 -2       864       771       935      3723      3676      3665
 -1      1800    8    0    1
 -2       829       905       952      3623      3727      3728
 -1      1801    8    0    1
 -2       853       829       952      3378      3728      3729
 -1      1802    8    0    1
 -2       905       903       952      3563      3730      3727
 -1      1803    8    0    1
 -2       759       933       851      3658      3731      3373
 -1      1804    8    0    1
 -2       824       924       922      3700      3702      3611
 -1      1805    8    0    1
 -2       846       827       953      3359      3732      3733
 -1      1806    8    0    1
 -2       827       949       953      3717      3734      3732
 -1      1807    8    0    1
 -2       927       846       954      3666      3735      3736
 -1      1808    8    0    1
 -2       846       953       954      3733      3737      3735
 -1      1809    8    0    1
 -2       872       871       955      3464      3738      3739
 -1      1810    8    0    1
 -2       873       872       956      3467      3740      3741
 -1      1811    8    0    1
 -2       872       955       956      3739      3742      3740
 -1      1812    8    0    1
 -2       874       873       957      3470      3743      3744
 -1      1813    8    0    1
 -2       873       956       957      3741      3745      3743
 -1      1814    8    0    1
 -2       875       874       958      3473      3746      3747
 -1      1815    8    0    1
 -2       874       957       958      3744      3748      3746
 -1      1816    8    0    1
 -2       876       875       959      3476      3749      3750
 -1      1817    8    0    1
 -2       875       958       959      3747      3751      3749
 -1      1818    8    0    1
 -2       847       868       901      3660      3752      3753
 -1      1819    8    0    1
 -2       938       856       960      3677      3754      3755
 -1      1820    8    0    1
 -2       856       857       960      3682      3756      3754
 -1      1821    8    0    1
 -2       751       681       741      3215      3632      3456
 -1      1822    8    0    1
 -2       880       879       961      3489      3757      3758
 -1      1823    8    0    1
 -2       881       880       962      3492      3759      3760
 -1      1824    8    0    1
 -2       880       961       962      3758      3761      3759
 -1      1825    8    0    1
 -2       882       881       963      3495      3762      3763
 -1      1826    8    0    1
 -2       881       962       963      3760      3764      3762
 -1      1827    8    0    1
 -2       883       882       964      3498      3765      3766
 -1      1828    8    0    1
 -2       882       963       964      3763      3767      3765
 -1      1829    8    0    1
 -2       884       883       965      3501      3768      3769
 -1      1830    8    0    1
 -2       883       964       965      3766      3770      3768
 -1      1831    8    0    1
 -2       885       884       966      3504      3771      3772
 -1      1832    8    0    1
 -2       884       965       966      3769      3773      3771
 -1      1833    8    0    1
 -2       886       885       967      3507      3774      3775
 -1      1834    8    0    1
 -2       885       966       967      3772      3776      3774
 -1      1835    8    0    1
 -2       887       886       968      3510      3777      3778
 -1      1836    8    0    1
 -2       886       967       968      3775      3779      3777
 -1      1837    8    0    1
 -2       888       887       969      3513      3780      3781
 -1      1838    8    0    1
 -2       887       968       969      3778      3782      3780
 -1      1839    8    0    1
 -2       889       888       970      3516      3783      3784
 -1      1840    8    0    1
 -2       888       969       970      3781      3785      3783
 -1      1841    8    0    1
 -2       890       889       971      3519      3786      3787
 -1      1842    8    0    1
 -2       889       970       971      3784      3788      3786
 -1      1843    8    0    1
 -2       891       890       972      3522      3789      3790
 -1      1844    8    0    1
 -2       890       971       972      3787      3791      3789
 -1      1845    8    0    1
 -2       892       891       973      3525      3792      3793
 -1      1846    8    0    1
 -2       891       972       973      3790      3794      3792
 -1      1847    8    0    1
 -2       893       892       974      3528      3795      3796
 -1      1848    8    0    1
 -2       892       973       974      3793      3797      3795
 -1      1849    8    0    1
 -2       894       893       975      3531      3798      3799
 -1      1850    8    0    1
 -2       893       974       975      3796      3800      3798
 -1      1851    8    0    1
 -2       895       894       976      3534      3801      3802
 -1      1852    8    0    1
 -2       894       975       976      3799      3803      3801
 -1      1853    8    0    1
 -2       896       895       977      3537      3804      3805
 -1      1854    8    0    1
 -2       895       976       977      3802      3806      3804
 -1      1855    8    0    1
 -2       897       896       978      3540      3807      3808
 -1      1856    8    0    1
 -2       896       977       978      3805      3809      3807
 -1      1857    8    0    1
 -2       898       897       979      3543      3810      3811
 -1      1858    8    0    1
 -2       897       978       979      3808      3812      3810
 -1      1859    8    0    1
 -2       899       898       980      3547      3813      3814
 -1      1860    8    0    1
 -2       923       899       980      3616      3814      3815
 -1      1861    8    0    1
 -2       898       979       980      3811      3816      3813
 -1      1862    8    0    1
 -2       801       753       847      3555      3362      3817
 -1      1863    8    0    1
 -2       851       933       981      3731      3818      3819
 -1      1864    8    0    1
 -2       903       925       982      3696      3820      3821
 -1      1865    8    0    1
 -2       907       908       983      3571      3822      3823
 -1      1866    8    0    1
 -2       906       907       984      3568      3824      3825
 -1      1867    8    0    1
 -2       907       983       984      3823      3826      3824
 -1      1868    8    0    1
 -2       909       910       985      3577      3827      3828
 -1      1869    8    0    1
 -2       910       911       986      3580      3829      3830
 -1      1870    8    0    1
 -2       910       986       985      3830      3831      3827
 -1      1871    8    0    1
 -2       911       912       987      3583      3832      3833
 -1      1872    8    0    1
 -2       911       987       986      3833      3834      3829
 -1      1873    8    0    1
 -2       912       913       988      3586      3835      3836
 -1      1874    8    0    1
 -2       912       988       987      3836      3837      3832
 -1      1875    8    0    1
 -2       913       914       989      3589      3838      3839
 -1      1876    8    0    1
 -2       913       989       988      3839      3840      3835
 -1      1877    8    0    1
 -2       914       915       990      3592      3841      3842
 -1      1878    8    0    1
 -2       914       990       989      3842      3843      3838
 -1      1879    8    0    1
 -2       915       916       991      3595      3844      3845
 -1      1880    8    0    1
 -2       915       991       990      3845      3846      3841
 -1      1881    8    0    1
 -2       916       917       992      3598      3847      3848
 -1      1882    8    0    1
 -2       916       992       991      3848      3849      3844
 -1      1883    8    0    1
 -2       917       918       993      3601      3850      3851
 -1      1884    8    0    1
 -2       917       993       992      3851      3852      3847
 -1      1885    8    0    1
 -2       918       919       994      3604      3853      3854
 -1      1886    8    0    1
 -2       918       994       993      3854      3855      3850
 -1      1887    8    0    1
 -2       919       920       995      3607      3856      3857
 -1      1888    8    0    1
 -2       919       995       994      3857      3858      3853
 -1      1889    8    0    1
 -2       920       921       996      3610      3859      3860
 -1      1890    8    0    1
 -2       920       996       995      3860      3861      3856
 -1      1891    8    0    1
 -2       921       922       945      3613      3704      3862
 -1      1892    8    0    1
 -2       861       848       997      3410      3863      3864
 -1      1893    8    0    1
 -2       848       934       997      3662      3865      3863
 -1      1894    8    0    1
 -2       862       858       998      3420      3866      3867
 -1      1895    8    0    1
 -2       933       862       998      3659      3867      3868
 -1      1896    8    0    1
 -2       858       940       998      3684      3869      3866
 -1      1897    8    0    1
 -2       925       906       999      3626      3870      3871
 -1      1898    8    0    1
 -2       906       984       999      3825      3872      3870
 -1      1899    8    0    1
 -2       860       851       981      3667      3819      3873
 -1      1900    8    0    1
 -2       945       861       997      3722      3864      3874
 -1      1901    8    0    1
 -2       801       847       901      3817      3753      3550
 -1      1902    8    0    1
 -2       901       868      1000      3752      3875      3876
 -1      1903    8    0    1
 -2       902       901      1000      3554      3876      3877
 -1      1904    8    0    1
 -2       868       937      1000      3673      3878      3875
 -1      1905    8    0    1
 -2       921       945       996      3862      3879      3859
 -1      1906    8    0    1
 -2       949       860       981      3716      3873      3880
 -1      1907    8    0    1
 -2       870       928      1001      3642      3881      3882
 -1      1908    8    0    1
 -2       863       927      1002      3637      3883      3884
 -1      1909    8    0    1
 -2       927       954      1002      3736      3885      3883
 -1      1910    8    0    1
 -2       926       932      1003      3715      3886      3887
 -1      1911    8    0    1
 -2       871       870      1004      3461      3888      3889
 -1      1912    8    0    1
 -2       870      1001      1004      3882      3890      3888
 -1      1913    8    0    1
 -2       908       909      1005      3574      3891      3892
 -1      1914    8    0    1
 -2       983       908      1005      3822      3892      3893
 -1      1915    8    0    1
 -2       909       985      1005      3828      3894      3891
 -1      1916    8    0    1
 -2       879       878       930      3486      3649      3895
 -1      1917    8    0    1
 -2       928       929      1006      3645      3896      3897
 -1      1918    8    0    1
 -2       928      1006      1001      3897      3898      3881
 -1      1919    8    0    1
 -2       849       935       877      3664      3674      3899
 -1      1920    8    0    1
 -2       939       900      1007      3679      3900      3901
 -1      1921    8    0    1
 -2       936       853       952      3668      3729      3902
 -1      1922    8    0    1
 -2       955       871      1004      3738      3889      3903
 -1      1923    8    0    1
 -2       937       869      1008      3671      3904      3905
 -1      1924    8    0    1
 -2       869       948      1008      3714      3906      3904
 -1      1925    8    0    1
 -2       932       951      1009      3725      3907      3908
 -1      1926    8    0    1
 -2       932      1009      1003      3908      3909      3886
 -1      1927    8    0    1
 -2       952       903       982      3730      3821      3910
 -1      1928    8    0    1
 -2       877       876      1010      3479      3911      3912
 -1      1929    8    0    1
 -2       938       960      1011      3755      3913      3914
 -1      1930    8    0    1
 -2       857       939       960      3681      3915      3756
 -1      1931    8    0    1
 -2       926      1003       961      3887      3916      3917
 -1      1932    8    0    1
 -2       940       938      1012      3685      3918      3919
 -1      1933    8    0    1
 -2       938      1011      1012      3914      3920      3918
 -1      1934    8    0    1
 -2       923       980      1013      3815      3921      3922
 -1      1935    8    0    1
 -2       923      1013       944      3922      3923      3697
 -1      1936    8    0    1
 -2       902      1000      1014      3877      3924      3925
 -1      1937    8    0    1
 -2       902      1014       941      3925      3926      3686
 -1      1938    8    0    1
 -2       981       933       998      3818      3868      3927
 -1      1939    8    0    1
 -2       942       867      1010      3691      3928      3929
 -1      1940    8    0    1
 -2       943       904      1015      3695      3930      3931
 -1      1941    8    0    1
 -2       929       931      1006      3653      3932      3896
 -1      1942    8    0    1
 -2       879       930       961      3895      3933      3757
 -1      1943    8    0    1
 -2       949       981      1016      3880      3934      3935
 -1      1944    8    0    1
 -2       997       934      1017      3865      3936      3937
 -1      1945    8    0    1
 -2       876       959      1010      3750      3938      3911
 -1      1946    8    0    1
 -2       982       925       999      3820      3871      3939
 -1      1947    8    0    1
 -2       865       936      1018      3670      3940      3941
 -1      1948    8    0    1
 -2       865      1018       951      3941      3942      3726
 -1      1949    8    0    1
 -2       945       997      1019      3874      3943      3944
 -1      1950    8    0    1
 -2       996       945      1019      3879      3944      3945
 -1      1951    8    0    1
 -2       997      1017      1019      3937      3946      3943
 -1      1952    8    0    1
 -2       947       834       941      3711      3688      3947
 -1      1953    8    0    1
 -2       948       859      1020      3712      3948      3949
 -1      1954    8    0    1
 -2       859       943      1020      3694      3950      3948
 -1      1955    8    0    1
 -2       934       950      1021      3720      3951      3952
 -1      1956    8    0    1
 -2       934      1021      1017      3952      3953      3936
 -1      1957    8    0    1
 -2       949      1016      1022      3935      3954      3955
 -1      1958    8    0    1
 -2       949      1022       953      3955      3956      3734
 -1      1959    8    0    1
 -2       900       947      1023      3710      3957      3958
 -1      1960    8    0    1
 -2       900      1023      1007      3958      3959      3900
 -1      1961    8    0    1
 -2       931       863      1002      3654      3884      3960
 -1      1962    8    0    1
 -2       904       942      1015      3690      3961      3930
 -1      1963    8    0    1
 -2       849       877       946      3899      3962      3706
 -1      1964    8    0    1
 -2       930       926       961      3650      3917      3933
 -1      1965    8    0    1
 -2       931      1002      1006      3960      3963      3932
 -1      1966    8    0    1
 -2       936       952      1024      3902      3964      3965
 -1      1967    8    0    1
 -2      1018       936      1024      3940      3965      3966
 -1      1968    8    0    1
 -2       952       982      1024      3910      3967      3964
 -1      1969    8    0    1
 -2       982       999      1025      3939      3968      3969
 -1      1970    8    0    1
 -2       982      1025      1024      3969      3970      3967
 -1      1971    8    0    1
 -2      1000       937      1026      3878      3971      3972
 -1      1972    8    0    1
 -2      1014      1000      1026      3924      3972      3973
 -1      1973    8    0    1
 -2       937      1008      1026      3905      3974      3971
 -1      1974    8    0    1
 -2       957       956      1027      3745      3975      3976
 -1      1975    8    0    1
 -2       958       957      1028      3748      3977      3978
 -1      1976    8    0    1
 -2       957      1027      1028      3976      3979      3977
 -1      1977    8    0    1
 -2       959       958      1029      3751      3980      3981
 -1      1978    8    0    1
 -2       958      1028      1029      3978      3982      3980
 -1      1979    8    0    1
 -2       960       939      1030      3915      3983      3984
 -1      1980    8    0    1
 -2       939      1007      1030      3901      3985      3983
 -1      1981    8    0    1
 -2       987       988      1031      3837      3986      3987
 -1      1982    8    0    1
 -2       961      1003       962      3916      3988      3761
 -1      1983    8    0    1
 -2       964       963      1032      3767      3989      3990
 -1      1984    8    0    1
 -2       965       964      1033      3770      3991      3992
 -1      1985    8    0    1
 -2       964      1032      1033      3990      3993      3991
 -1      1986    8    0    1
 -2       966       965      1034      3773      3994      3995
 -1      1987    8    0    1
 -2       965      1033      1034      3992      3996      3994
 -1      1988    8    0    1
 -2       967       966      1035      3776      3997      3998
 -1      1989    8    0    1
 -2       966      1034      1035      3995      3999      3997
 -1      1990    8    0    1
 -2       968       967      1036      3779      4000      4001
 -1      1991    8    0    1
 -2       967      1035      1036      3998      4002      4000
 -1      1992    8    0    1
 -2       969       968      1037      3782      4003      4004
 -1      1993    8    0    1
 -2       968      1036      1037      4001      4005      4003
 -1      1994    8    0    1
 -2       970       969      1038      3785      4006      4007
 -1      1995    8    0    1
 -2       969      1037      1038      4004      4008      4006
 -1      1996    8    0    1
 -2       971       970      1039      3788      4009      4010
 -1      1997    8    0    1
 -2       970      1038      1039      4007      4011      4009
 -1      1998    8    0    1
 -2       972       971      1040      3791      4012      4013
 -1      1999    8    0    1
 -2       971      1039      1040      4010      4014      4012
 -1      2000    8    0    1
 -2       973       972      1041      3794      4015      4016
 -1      2001    8    0    1
 -2       972      1040      1041      4013      4017      4015
 -1      2002    8    0    1
 -2       974       973      1042      3797      4018      4019
 -1      2003    8    0    1
 -2       973      1041      1042      4016      4020      4018
 -1      2004    8    0    1
 -2       975       974      1043      3800      4021      4022
 -1      2005    8    0    1
 -2       974      1042      1043      4019      4023      4021
 -1      2006    8    0    1
 -2       976       975      1044      3803      4024      4025
 -1      2007    8    0    1
 -2       975      1043      1044      4022      4026      4024
 -1      2008    8    0    1
 -2       977       976      1045      3806      4027      4028
 -1      2009    8    0    1
 -2       976      1044      1045      4025      4029      4027
 -1      2010    8    0    1
 -2       978       977      1046      3809      4030      4031
 -1      2011    8    0    1
 -2       977      1045      1046      4028      4032      4030
 -1      2012    8    0    1
 -2       979       978      1047      3812      4033      4034
 -1      2013    8    0    1
 -2       978      1046      1047      4031      4035      4033
 -1      2014    8    0    1
 -2       980       979      1048      3816      4036      4037
 -1      2015    8    0    1
 -2      1013       980      1048      3921      4037      4038
 -1      2016    8    0    1
 -2       979      1047      1048      4034      4039      4036
 -1      2017    8    0    1
 -2       946       877      1010      3962      3912      4040
 -1      2018    8    0    1
 -2      1010       867       946      3928      3708      4040
 -1      2019    8    0    1
 -2       984       983      1049      3826      4041      4042
 -1      2020    8    0    1
 -2       981       998      1050      3927      4043      4044
 -1      2021    8    0    1
 -2      1016       981      1050      3934      4044      4045
 -1      2022    8    0    1
 -2       998       940      1050      3869      4046      4043
 -1      2023    8    0    1
 -2       943      1015      1051      3931      4047      4048
 -1      2024    8    0    1
 -2       943      1051      1020      4048      4049      3950
 -1      2025    8    0    1
 -2       955      1004      1052      3903      4050      4051
 -1      2026    8    0    1
 -2       986       987      1053      3834      4052      4053
 -1      2027    8    0    1
 -2       987      1031      1053      3987      4054      4052
 -1      2028    8    0    1
 -2       985       986      1054      3831      4055      4056
 -1      2029    8    0    1
 -2       986      1053      1054      4053      4057      4055
 -1      2030    8    0    1
 -2       988       989      1055      3840      4058      4059
 -1      2031    8    0    1
 -2       988      1055      1031      4059      4060      3986
 -1      2032    8    0    1
 -2       989       990      1056      3843      4061      4062
 -1      2033    8    0    1
 -2       989      1056      1055      4062      4063      4058
 -1      2034    8    0    1
 -2       990       991      1057      3846      4064      4065
 -1      2035    8    0    1
 -2       990      1057      1056      4065      4066      4061
 -1      2036    8    0    1
 -2       991       992      1058      3849      4067      4068
 -1      2037    8    0    1
 -2       991      1058      1057      4068      4069      4064
 -1      2038    8    0    1
 -2       992       993      1059      3852      4070      4071
 -1      2039    8    0    1
 -2       992      1059      1058      4071      4072      4067
 -1      2040    8    0    1
 -2       993       994      1060      3855      4073      4074
 -1      2041    8    0    1
 -2       993      1060      1059      4074      4075      4070
 -1      2042    8    0    1
 -2       994       995      1061      3858      4076      4077
 -1      2043    8    0    1
 -2       994      1061      1060      4077      4078      4073
 -1      2044    8    0    1
 -2       995       996      1062      3861      4079      4080
 -1      2045    8    0    1
 -2      1061       995      1062      4076      4080      4081
 -1      2046    8    0    1
 -2       996      1019      1062      3945      4082      4079
 -1      2047    8    0    1
 -2      1002       954      1063      3885      4083      4084
 -1      2048    8    0    1
 -2      1002      1063      1006      4084      4085      3963
 -1      2049    8    0    1
 -2       947       941      1064      3947      4086      4087
 -1      2050    8    0    1
 -2       947      1064      1023      4087      4088      3957
 -1      2051    8    0    1
 -2      1010       959       942      3938      4089      3929
 -1      2052    8    0    1
 -2       950       944      1065      3721      4090      4091
 -1      2053    8    0    1
 -2      1021       950      1065      3951      4091      4092
 -1      2054    8    0    1
 -2       944      1013      1065      3923      4093      4090
 -1      2055    8    0    1
 -2       999       984      1066      3872      4094      4095
 -1      2056    8    0    1
 -2      1025       999      1066      3968      4095      4096
 -1      2057    8    0    1
 -2       984      1049      1066      4042      4097      4094
 -1      2058    8    0    1
 -2      1004      1001      1067      3890      4098      4099
 -1      2059    8    0    1
 -2      1004      1067      1052      4099      4100      4050
 -1      2060    8    0    1
 -2       956       955      1068      3742      4101      4102
 -1      2061    8    0    1
 -2       956      1068      1027      4102      4103      3975
 -1      2062    8    0    1
 -2       954       953      1069      3737      4104      4105
 -1      2063    8    0    1
 -2       953      1022      1069      3956      4106      4104
 -1      2064    8    0    1
 -2      1001      1006      1070      3898      4107      4108
 -1      2065    8    0    1
 -2      1067      1001      1070      4098      4108      4109
 -1      2066    8    0    1
 -2      1006      1063      1070      4085      4110      4107
 -1      2067    8    0    1
 -2       962      1003      1071      3988      4111      4112
 -1      2068    8    0    1
 -2       963       962      1071      3764      4112      4113
 -1      2069    8    0    1
 -2      1003      1009      1071      3909      4114      4111
 -1      2070    8    0    1
 -2      1012      1011      1072      3920      4115      4116
 -1      2071    8    0    1
 -2      1008       948      1073      3906      4117      4118
 -1      2072    8    0    1
 -2       948      1020      1073      3949      4119      4117
 -1      2073    8    0    1
 -2      1009       951      1074      3907      4120      4121
 -1      2074    8    0    1
 -2       951      1018      1074      3942      4122      4120
 -1      2075    8    0    1
 -2      1011       960      1030      3913      3984      4123
 -1      2076    8    0    1
 -2       985      1054      1075      4056      4124      4125
 -1      2077    8    0    1
 -2       985      1075      1005      4125      4126      3894
 -1      2078    8    0    1
 -2      1030      1007      1076      3985      4127      4128
 -1      2079    8    0    1
 -2      1032       963      1071      3989      4113      4129
 -1      2080    8    0    1
 -2       940      1012      1050      3919      4130      4046
 -1      2081    8    0    1
 -2       954      1069      1063      4105      4131      4083
 -1      2082    8    0    1
 -2      1072      1011      1077      4115      4132      4133
 -1      2083    8    0    1
 -2      1011      1030      1077      4123      4134      4132
 -1      2084    8    0    1
 -2      1016      1050      1078      4045      4135      4136
 -1      2085    8    0    1
 -2      1050      1012      1078      4130      4137      4135
 -1      2086    8    0    1
 -2      1051      1015      1029      4047      4138      4139
 -1      2087    8    0    1
 -2       983      1005      1079      3893      4140      4141
 -1      2088    8    0    1
 -2      1049       983      1079      4041      4141      4142
 -1      2089    8    0    1
 -2      1005      1075      1079      4126      4143      4140
 -1      2090    8    0    1
 -2      1064       941      1014      4086      3926      4144
 -1      2091    8    0    1
 -2      1019      1017      1080      3946      4145      4146
 -1      2092    8    0    1
 -2      1019      1080      1062      4146      4147      4082
 -1      2093    8    0    1
 -2       955      1052      1068      4051      4148      4101
 -1      2094    8    0    1
 -2      1022      1016      1078      3954      4136      4149
 -1      2095    8    0    1
 -2       942       959      1029      4089      3981      4150
 -1      2096    8    0    1
 -2      1007      1023      1081      3959      4151      4152
 -1      2097    8    0    1
 -2      1007      1081      1076      4152      4153      4127
 -1      2098    8    0    1
 -2      1017      1021      1082      3953      4154      4155
 -1      2099    8    0    1
 -2      1017      1082      1080      4155      4156      4145
 -1      2100    8    0    1
 -2      1033      1032      1083      3993      4157      4158
 -1      2101    8    0    1
 -2      1028      1027      1084      3979      4159      4160
 -1      2102    8    0    1
 -2      1064      1014      1085      4144      4161      4162
 -1      2103    8    0    1
 -2      1014      1026      1085      3973      4163      4161
 -1      2104    8    0    1
 -2      1029      1028      1086      3982      4164      4165
 -1      2105    8    0    1
 -2      1051      1029      1086      4139      4165      4166
 -1      2106    8    0    1
 -2      1028      1084      1086      4160      4167      4164
 -1      2107    8    0    1
 -2      1032      1071      1087      4129      4168      4169
 -1      2108    8    0    1
 -2      1083      1032      1087      4157      4169      4170
 -1      2109    8    0    1
 -2      1071      1009      1087      4114      4171      4168
 -1      2110    8    0    1
 -2      1055      1056      1088      4063      4172      4173
 -1      2111    8    0    1
 -2      1078      1012      1072      4137      4116      4174
 -1      2112    8    0    1
 -2      1052      1067      1089      4100      4175      4176
 -1      2113    8    0    1
 -2      1034      1033      1090      3996      4177      4178
 -1      2114    8    0    1
 -2      1033      1083      1090      4158      4179      4177
 -1      2115    8    0    1
 -2      1035      1034      1091      3999      4180      4181
 -1      2116    8    0    1
 -2      1034      1090      1091      4178      4182      4180
 -1      2117    8    0    1
 -2      1036      1035      1092      4002      4183      4184
 -1      2118    8    0    1
 -2      1035      1091      1092      4181      4185      4183
 -1      2119    8    0    1
 -2      1037      1036      1093      4005      4186      4187
 -1      2120    8    0    1
 -2      1036      1092      1093      4184      4188      4186
 -1      2121    8    0    1
 -2      1038      1037      1094      4008      4189      4190
 -1      2122    8    0    1
 -2      1037      1093      1094      4187      4191      4189
 -1      2123    8    0    1
 -2      1039      1038      1095      4011      4192      4193
 -1      2124    8    0    1
 -2      1038      1094      1095      4190      4194      4192
 -1      2125    8    0    1
 -2      1040      1039      1096      4014      4195      4196
 -1      2126    8    0    1
 -2      1039      1095      1096      4193      4197      4195
 -1      2127    8    0    1
 -2      1041      1040      1097      4017      4198      4199
 -1      2128    8    0    1
 -2      1040      1096      1097      4196      4200      4198
 -1      2129    8    0    1
 -2      1042      1041      1098      4020      4201      4202
 -1      2130    8    0    1
 -2      1041      1097      1098      4199      4203      4201
 -1      2131    8    0    1
 -2      1043      1042      1099      4023      4204      4205
 -1      2132    8    0    1
 -2      1042      1098      1099      4202      4206      4204
 -1      2133    8    0    1
 -2      1044      1043      1100      4026      4207      4208
 -1      2134    8    0    1
 -2      1043      1099      1100      4205      4209      4207
 -1      2135    8    0    1
 -2      1045      1044      1101      4029      4210      4211
 -1      2136    8    0    1
 -2      1044      1100      1101      4208      4212      4210
 -1      2137    8    0    1
 -2      1046      1045      1102      4032      4213      4214
 -1      2138    8    0    1
 -2      1045      1101      1102      4211      4215      4213
 -1      2139    8    0    1
 -2      1063      1069      1103      4131      4216      4217
 -1      2140    8    0    1
 -2      1063      1103      1070      4217      4218      4110
 -1      2141    8    0    1
 -2      1053      1031      1104      4054      4219      4220
 -1      2142    8    0    1
 -2      1027      1068      1105      4103      4221      4222
 -1      2143    8    0    1
 -2      1027      1105      1084      4222      4223      4159
 -1      2144    8    0    1
 -2      1018      1024      1106      3966      4224      4225
 -1      2145    8    0    1
 -2      1074      1018      1106      4122      4225      4226
 -1      2146    8    0    1
 -2      1024      1025      1106      3970      4227      4224
 -1      2147    8    0    1
 -2      1031      1055      1107      4060      4228      4229
 -1      2148    8    0    1
 -2      1055      1088      1107      4173      4230      4228
 -1      2149    8    0    1
 -2      1054      1053      1108      4057      4231      4232
 -1      2150    8    0    1
 -2      1053      1104      1108      4220      4233      4231
 -1      2151    8    0    1
 -2      1056      1057      1109      4066      4234      4235
 -1      2152    8    0    1
 -2      1056      1109      1088      4235      4236      4172
 -1      2153    8    0    1
 -2      1057      1058      1110      4069      4237      4238
 -1      2154    8    0    1
 -2      1057      1110      1109      4238      4239      4234
 -1      2155    8    0    1
 -2      1058      1059      1111      4072      4240      4241
 -1      2156    8    0    1
 -2      1058      1111      1110      4241      4242      4237
 -1      2157    8    0    1
 -2      1059      1060      1112      4075      4243      4244
 -1      2158    8    0    1
 -2      1059      1112      1111      4244      4245      4240
 -1      2159    8    0    1
 -2      1060      1061      1113      4078      4246      4247
 -1      2160    8    0    1
 -2      1060      1113      1112      4247      4248      4243
 -1      2161    8    0    1
 -2      1068      1052      1114      4148      4249      4250
 -1      2162    8    0    1
 -2      1052      1089      1114      4176      4251      4249
 -1      2163    8    0    1
 -2      1020      1051      1115      4049      4252      4253
 -1      2164    8    0    1
 -2      1051      1086      1115      4166      4254      4252
 -1      2165    8    0    1
 -2      1015       942      1029      3961      4150      4138
 -1      2166    8    0    1
 -2      1030      1076      1077      4128      4255      4134
 -1      2167    8    0    1
 -2      1022      1078      1116      4149      4256      4257
 -1      2168    8    0    1
 -2      1069      1022      1116      4106      4257      4258
 -1      2169    8    0    1
 -2      1023      1064      1117      4088      4259      4260
 -1      2170    8    0    1
 -2      1023      1117      1081      4260      4261      4151
 -1      2171    8    0    1
 -2      1078      1072      1116      4174      4262      4256
 -1      2172    8    0    1
 -2      1008      1073      1026      4118      4263      3974
 -1      2173    8    0    1
 -2      1075      1054      1118      4124      4264      4265
 -1      2174    8    0    1
 -2      1054      1108      1118      4232      4266      4264
 -1      2175    8    0    1
 -2      1080      1082      1119      4156      4267      4268
 -1      2176    8    0    1
 -2      1064      1085      1117      4162      4269      4259
 -1      2177    8    0    1
 -2      1105      1068      1114      4221      4250      4270
 -1      2178    8    0    1
 -2      1025      1066      1120      4096      4271      4272
 -1      2179    8    0    1
 -2      1025      1120      1106      4272      4273      4227
 -1      2180    8    0    1
 -2      1073      1020      1121      4119      4274      4275
 -1      2181    8    0    1
 -2      1020      1115      1121      4253      4276      4274
 -1      2182    8    0    1
 -2      1013      1048      1122      4038      4277      4278
 -1      2183    8    0    1
 -2      1013      1122      1065      4278      4279      4093
 -1      2184    8    0    1
 -2      1089      1067      1123      4175      4280      4281
 -1      2185    8    0    1
 -2      1067      1070      1123      4109      4282      4280
 -1      2186    8    0    1
 -2      1047      1046      1124      4035      4283      4284
 -1      2187    8    0    1
 -2      1048      1047      1122      4039      4285      4277
 -1      2188    8    0    1
 -2      1104      1031      1107      4219      4229      4286
 -1      2189    8    0    1
 -2      1077      1076      1125      4255      4287      4288
 -1      2190    8    0    1
 -2      1047      1124      1122      4284      4289      4285
 -1      2191    8    0    1
 -2      1049      1079      1126      4142      4290      4291
 -1      2192    8    0    1
 -2      1113      1061      1119      4246      4292      4293
 -1      2193    8    0    1
 -2      1061      1062      1119      4081      4294      4292
 -1      2194    8    0    1
 -2      1072      1077      1127      4133      4295      4296
 -1      2195    8    0    1
 -2      1077      1125      1127      4288      4297      4295
 -1      2196    8    0    1
 -2      1080      1119      1062      4268      4294      4147
 -1      2197    8    0    1
 -2      1066      1049      1128      4097      4298      4299
 -1      2198    8    0    1
 -2      1120      1066      1128      4271      4299      4300
 -1      2199    8    0    1
 -2      1049      1126      1128      4291      4301      4298
 -1      2200    8    0    1
 -2      1116      1072      1127      4262      4296      4302
 -1      2201    8    0    1
 -2      1087      1009      1074      4171      4121      4303
 -1      2202    8    0    1
 -2      1076      1081      1129      4153      4304      4305
 -1      2203    8    0    1
 -2      1076      1129      1125      4305      4306      4287
 -1      2204    8    0    1
 -2      1021      1065      1122      4092      4279      4307
 -1      2205    8    0    1
 -2      1124      1046      1102      4283      4214      4308
 -1      2206    8    0    1
 -2      1021      1122      1082      4307      4309      4154
 -1      2207    8    0    1
 -2      1083      1087      1130      4170      4310      4311
 -1      2208    8    0    1
 -2      1107      1088      1131      4230      4312      4313
 -1      2209    8    0    1
 -2      1117      1085      1121      4269      4314      4315
 -1      2210    8    0    1
 -2      1086      1084      1132      4167      4316      4317
 -1      2211    8    0    1
 -2      1086      1132      1115      4317      4318      4254
 -1      2212    8    0    1
 -2      1090      1083      1128      4179      4319      4320
 -1      2213    8    0    1
 -2      1104      1107      1095      4286      4321      4322
 -1      2214    8    0    1
 -2      1079      1075      1133      4143      4323      4324
 -1      2215    8    0    1
 -2      1126      1079      1133      4290      4324      4325
 -1      2216    8    0    1
 -2      1075      1118      1133      4265      4326      4323
 -1      2217    8    0    1
 -2      1081      1117      1134      4261      4327      4328
 -1      2218    8    0    1
 -2      1129      1081      1134      4304      4328      4329
 -1      2219    8    0    1
 -2      1117      1121      1134      4315      4330      4327
 -1      2220    8    0    1
 -2      1082      1122      1124      4309      4289      4331
 -1      2221    8    0    1
 -2      1091      1090      1126      4182      4332      4333
 -1      2222    8    0    1
 -2      1092      1091      1133      4185      4334      4335
 -1      2223    8    0    1
 -2      1093      1092      1118      4188      4336      4337
 -1      2224    8    0    1
 -2      1094      1093      1108      4191      4338      4339
 -1      2225    8    0    1
 -2      1095      1094      1104      4194      4340      4322
 -1      2226    8    0    1
 -2      1097      1096      1131      4200      4341      4342
 -1      2227    8    0    1
 -2      1098      1097      1135      4203      4343      4344
 -1      2228    8    0    1
 -2      1099      1098      1110      4206      4345      4346
 -1      2229    8    0    1
 -2      1100      1099      1111      4209      4347      4348
 -1      2230    8    0    1
 -2      1101      1100      1112      4212      4349      4350
 -1      2231    8    0    1
 -2      1103      1069      1116      4216      4258      4351
 -1      2232    8    0    1
 -2      1116      1127      1123      4302      4352      4353
 -1      2233    8    0    1
 -2      1087      1074      1130      4303      4354      4310
 -1      2234    8    0    1
 -2      1113      1119      1136      4293      4355      4356
 -1      2235    8    0    1
 -2      1108      1104      1094      4233      4340      4339
 -1      2236    8    0    1
 -2      1110      1111      1099      4242      4347      4346
 -1      2237    8    0    1
 -2      1111      1112      1100      4245      4349      4348
 -1      2238    8    0    1
 -2      1112      1113      1136      4248      4356      4357
 -1      2239    8    0    1
 -2      1114      1089      1125      4251      4358      4359
 -1      2240    8    0    1
 -2      1127      1125      1089      4297      4358      4360
 -1      2241    8    0    1
 -2      1070      1103      1123      4218      4361      4282
 -1      2242    8    0    1
 -2      1085      1026      1073      4163      4263      4362
 -1      2243    8    0    1
 -2      1074      1106      1130      4226      4363      4354
 -1      2244    8    0    1
 -2      1105      1114      1129      4270      4364      4365
 -1      2245    8    0    1
 -2      1088      1109      1135      4236      4366      4367
 -1      2246    8    0    1
 -2      1082      1124      1119      4331      4368      4267
 -1      2247    8    0    1
 -2      1108      1093      1118      4338      4337      4266
 -1      2248    8    0    1
 -2      1085      1073      1121      4362      4275      4314
 -1      2249    8    0    1
 -2      1126      1090      1128      4332      4320      4301
 -1      2250    8    0    1
 -2      1103      1116      1123      4351      4353      4361
 -1      2251    8    0    1
 -2      1114      1125      1129      4359      4306      4364
 -1      2252    8    0    1
 -2      1115      1132      1134      4318      4369      4370
 -1      2253    8    0    1
 -2      1097      1131      1135      4342      4371      4343
 -1      2254    8    0    1
 -2      1126      1133      1091      4325      4334      4333
 -1      2255    8    0    1
 -2      1118      1092      1133      4336      4335      4326
 -1      2256    8    0    1
 -2      1131      1088      1135      4312      4367      4371
 -1      2257    8    0    1
 -2      1096      1095      1107      4197      4321      4372
 -1      2258    8    0    1
 -2      1102      1101      1136      4215      4373      4374
 -1      2259    8    0    1
 -2      1105      1129      1134      4365      4329      4375
 -1      2260    8    0    1
 -2      1106      1120      1130      4273      4376      4363
 -1      2261    8    0    1
 -2      1127      1089      1123      4360      4281      4352
 -1      2262    8    0    1
 -2      1110      1098      1109      4345      4377      4239
 -1      2263    8    0    1
 -2      1119      1124      1102      4368      4308      4378
 -1      2264    8    0    1
 -2      1136      1101      1112      4373      4350      4357
 -1      2265    8    0    1
 -2      1128      1083      1130      4319      4311      4379
 -1      2266    8    0    1
 -2      1121      1115      1134      4276      4370      4330
 -1      2267    8    0    1
 -2      1105      1134      1132      4375      4369      4380
 -1      2268    8    0    1
 -2      1084      1105      1132      4223      4380      4316
 -1      2269    8    0    1
 -2      1119      1102      1136      4378      4374      4355
 -1      2270    8    0    1
 -2      1096      1107      1131      4372      4313      4341
 -1      2271    8    0    1
 -2      1109      1098      1135      4377      4344      4366
 -1      2272    8    0    1
 -2      1130      1120      1128      4376      4300      4379
 -3
    1PSTEP                         1           1           1          
  100CL  101 1.000000000        4380                     0    1           1
 -4  DISP        4    1
 -5  D1          1    2    1    0
 -5  D2          1    2    2    0
 -5  D3          1    2    3    0
 -5  ALL         1    2    0    0    1ALL
 -1         1 5.11702E-03-5.76597E-04-1.78010E-14
 -1         2 8.33178E-03 2.18647E-04-2.42050E-14
 -1         3 1.54734E-02 1.70116E-03-1.10252E-13
 -1         4 1.49271E-02 2.69613E-04-1.14682E-13
 -1         5 0.00000E+00 0.00000E+00 0.00000E+00
 -1         6 0.00000E+00 0.00000E+00 0.00000E+00
 -1         7 0.00000E+00 0.00000E+00 0.00000E+00
 -1         8 0.00000E+00 0.00000E+00 0.00000E+00
 -1         9 0.00000E+00 0.00000E+00 0.00000E+00
 -1        10 0.00000E+00 0.00000E+00 0.00000E+00
 -1        11 0.00000E+00 0.00000E+00 0.00000E+00
 -1        12 0.00000E+00 0.00000E+00 0.00000E+00
 -1        13 0.00000E+00 0.00000E+00 0.00000E+00
 -1        14 0.00000E+00 0.00000E+00 0.00000E+00
 -1        15 0.00000E+00 0.00000E+00 0.00000E+00
 -1        16 0.00000E+00 0.00000E+00 0.00000E+00
 -1        17 0.00000E+00 0.00000E+00 0.00000E+00
 -1        18 0.00000E+00 0.00000E+00 0.00000E+00
 -1        19 0.00000E+00 0.00000E+00 0.00000E+00
 -1        20 0.00000E+00 0.00000E+00 0.00000E+00
 -1        21 0.00000E+00 0.00000E+00 0.00000E+00
 -1        22 0.00000E+00 0.00000E+00 0.00000E+00
 -1        23 4.08374E-04-2.54906E-04 1.83298E-17
 -1        24 7.00719E-04-3.88241E-04-9.36751E-17
 -1        25 9.73530E-04-4.78199E-04-3.29892E-16
 -1        26 1.24295E-03-5.39337E-04-6.86771E-16
 -1        27 1.51393E-03-5.80989E-04-1.16070E-15
 -1        28 1.78916E-03-6.08873E-04-1.75084E-15
 -1        29 2.07038E-03-6.27285E-04-2.45311E-15
 -1        30 2.35886E-03-6.39864E-04-3.26206E-15
 -1        31 2.65559E-03-6.50018E-04-4.17909E-15
 -1        32 2.96122E-03-6.61186E-04-5.20627E-15
 -1        33 3.27591E-03-6.76960E-04-6.34000E-15
 -1        34 3.59899E-03-7.01023E-04-7.57334E-15
 -1        35 3.92852E-03-7.36809E-04-8.90475E-15
 -1        36 4.26085E-03-7.86732E-04-1.03318E-14
 -1        37 4.59044E-03-8.50937E-04-1.18485E-14
 -1        38 4.91037E-03-9.25743E-04-1.34580E-14
 -1        39 5.21393E-03-1.00245E-03-1.51635E-14
 -1        40 5.49727E-03-1.06767E-03-1.69653E-14
 -1        41 5.76208E-03-1.10611E-03-1.88640E-14
 -1        42 6.01641E-03-1.10575E-03-2.08594E-14
 -1        43 6.27238E-03-1.06270E-03-2.29583E-14
 -1        44 6.54157E-03-9.83018E-04-2.51631E-14
 -1        45 6.83075E-03-8.80010E-04-2.74720E-14
 -1        46 7.14026E-03-7.68965E-04-2.98839E-14
 -1        47 7.46548E-03-6.62467E-04-3.23954E-14
 -1        48 7.79964E-03-5.68188E-04-3.49942E-14
 -1        49 8.13625E-03-4.89056E-04-3.76765E-14
 -1        50 8.47044E-03-4.24640E-04-4.04455E-14
 -1        51 8.79923E-03-3.72706E-04-4.32956E-14
 -1        52 9.12131E-03-3.30397E-04-4.62154E-14
 -1        53 9.43647E-03-2.94945E-04-4.91861E-14
 -1        54 9.74522E-03-2.64003E-04-5.22064E-14
 -1        55 1.00484E-02-2.35749E-04-5.52891E-14
 -1        56 1.03470E-02-2.08851E-04-5.84362E-14
 -1        57 1.06419E-02-1.82397E-04-6.16492E-14
 -1        58 1.09339E-02-1.55798E-04-6.49098E-14
 -1        59 1.12237E-02-1.28707E-04-6.82148E-14
 -1        60 1.15120E-02-1.00946E-04-7.15578E-14
 -1        61 1.17992E-02-7.24534E-05-7.49431E-14
 -1        62 1.20856E-02-4.32422E-05-7.83801E-14
 -1        63 1.23715E-02-1.33687E-05-8.18758E-14
 -1        64 1.26572E-02 1.70866E-05-8.54231E-14
 -1        65 1.29426E-02 4.80334E-05-8.90210E-14
 -1        66 1.32280E-02 7.93792E-05-9.26652E-14
 -1        67 1.35134E-02 1.11035E-04-9.63339E-14
 -1        68 1.37989E-02 1.42915E-04-1.00016E-13
 -1        69 1.40844E-02 1.74941E-04-1.03698E-13
 -1        70 1.43700E-02 2.07039E-04-1.07394E-13
 -1        71 1.46557E-02 2.39144E-04-1.11115E-13
 -1        72 4.10543E-04 2.55415E-04 6.35783E-17
 -1        73 7.00326E-04 3.90470E-04 3.44471E-17
 -1        74 9.73824E-04 4.79138E-04-8.86843E-17
 -1        75 1.24361E-03 5.39661E-04-3.12450E-16
 -1        76 1.51497E-03 5.80557E-04-6.37904E-16
 -1        77 1.79087E-03 6.07398E-04-1.06530E-15
 -1        78 2.07336E-03 6.24388E-04-1.59431E-15
 -1        79 2.36417E-03 6.35133E-04-2.22176E-15
 -1        80 2.66500E-03 6.43146E-04-2.94784E-15
 -1        81 2.97751E-03 6.52237E-04-3.77477E-15
 -1        82 3.30324E-03 6.66857E-04-4.69970E-15
 -1        83 3.64320E-03 6.92346E-04-5.71696E-15
 -1        84 3.99712E-03 7.34909E-04-6.82221E-15
 -1        85 4.36234E-03 8.00960E-04-8.01580E-15
 -1        86 4.73243E-03 8.95323E-04-9.30797E-15
 -1        87 5.09652E-03 1.01783E-03-1.06975E-14
 -1        88 5.44069E-03 1.15888E-03-1.21852E-14
 -1        89 5.75308E-03 1.29667E-03-1.37729E-14
 -1        90 6.03167E-03 1.40062E-03-1.54743E-14
 -1        91 6.28940E-03 1.44344E-03-1.72879E-14
 -1        92 6.55026E-03 1.41592E-03-1.92243E-14
 -1        93 6.83670E-03 1.33249E-03-2.12947E-14
 -1        94 7.15837E-03 1.22262E-03-2.34878E-14
 -1        95 7.51041E-03 1.11575E-03-2.57857E-14
 -1        96 7.87985E-03 1.03101E-03-2.81909E-14
 -1        97 8.25329E-03 9.75612E-04-3.06970E-14
 -1        98 8.62105E-03 9.48445E-04-3.32921E-14
 -1        99 8.97792E-03 9.44416E-04-3.59667E-14
 -1       100 9.32219E-03 9.57523E-04-3.87155E-14
 -1       101 9.65426E-03 9.82390E-04-4.15327E-14
 -1       102 9.97557E-03 1.01479E-03-4.44208E-14
 -1       103 1.02879E-02 1.05164E-03-4.73729E-14
 -1       104 1.05931E-02 1.09082E-03-5.03873E-14
 -1       105 1.08928E-02 1.13093E-03-5.34759E-14
 -1       106 1.11881E-02 1.17109E-03-5.66424E-14
 -1       107 1.14804E-02 1.21078E-03-5.98866E-14
 -1       108 1.17703E-02 1.24974E-03-6.31973E-14
 -1       109 1.20586E-02 1.28786E-03-6.65942E-14
 -1       110 1.23457E-02 1.32513E-03-7.00582E-14
 -1       111 1.26320E-02 1.36160E-03-7.35757E-14
 -1       112 1.29179E-02 1.39735E-03-7.71565E-14
 -1       113 1.32035E-02 1.43249E-03-8.07874E-14
 -1       114 1.34889E-02 1.46713E-03-8.44515E-14
 -1       115 1.37743E-02 1.50134E-03-8.81365E-14
 -1       116 1.40597E-02 1.53525E-03-9.18270E-14
 -1       117 1.43451E-02 1.56892E-03-9.55212E-14
 -1       118 1.46307E-02 1.60245E-03-9.92273E-14
 -1       119 1.49163E-02 1.63591E-03-1.02954E-13
 -1       120 1.52020E-02 1.66936E-03-1.06696E-13
 -1       121 1.54405E-02 1.61688E-03-1.10561E-13
 -1       122 1.54075E-02 1.53256E-03-1.10881E-13
 -1       123 1.53745E-02 1.44818E-03-1.11173E-13
 -1       124 1.53416E-02 1.36373E-03-1.11447E-13
 -1       125 1.53088E-02 1.27922E-03-1.11712E-13
 -1       126 1.52767E-02 1.19611E-03-1.11968E-13
 -1       127 1.52441E-02 1.11154E-03-1.12219E-13
 -1       128 1.52117E-02 1.02696E-03-1.12465E-13
 -1       129 1.51795E-02 9.42369E-04-1.12716E-13
 -1       130 1.51474E-02 8.57787E-04-1.12956E-13
 -1       131 1.51155E-02 7.73220E-04-1.13219E-13
 -1       132 1.50843E-02 6.90112E-04-1.13480E-13
 -1       133 1.50526E-02 6.05611E-04-1.13747E-13
 -1       134 1.50211E-02 5.21167E-04-1.14010E-13
 -1       135 1.49896E-02 4.36789E-04-1.14252E-13
 -1       136 1.49581E-02 3.52471E-04-1.14475E-13
 -1       137 8.29611E-03 3.91305E-04-2.39793E-14
 -1       138 8.16303E-03 5.57306E-04-2.35208E-14
 -1       139 7.95113E-03 7.04607E-04-2.29074E-14
 -1       140 7.66440E-03 8.33676E-04-2.21526E-14
 -1       141 7.30282E-03 9.41757E-04-2.12705E-14
 -1       142 6.90757E-03 1.01519E-03-2.03655E-14
 -1       143 6.43286E-03 1.05607E-03-1.93437E-14
 -1       144 5.95425E-03 1.05053E-03-1.83767E-14
 -1       145 5.50279E-03 1.00351E-03-1.75192E-14
 -1       146 5.05581E-03 9.11972E-04-1.67115E-14
 -1       147 4.68628E-03 7.95970E-04-1.60821E-14
 -1       148 4.33845E-03 6.33776E-04-1.55246E-14
 -1       149 4.10336E-03 4.62829E-04-1.51885E-14
 -1       150 3.97426E-03 2.95808E-04-1.50535E-14
 -1       151 3.93562E-03 1.15266E-04-1.50973E-14
 -1       152 3.99423E-03-5.05461E-05-1.53119E-14
 -1       153 4.14287E-03-2.07727E-04-1.56874E-14
 -1       154 4.36670E-03-3.45269E-04-1.61923E-14
 -1       155 4.74562E-03-4.89677E-04-1.70135E-14
 -1       156 5.52865E-03-6.31920E-04-1.86675E-14
 -1       157 5.97492E-03-6.52651E-04-1.96017E-14
 -1       158 6.42136E-03-6.36114E-04-2.05370E-14
 -1       159 6.83743E-03-5.87247E-04-2.14033E-14
 -1       160 7.24169E-03-5.03761E-04-2.22453E-14
 -1       161 7.59260E-03-3.96019E-04-2.29611E-14
 -1       162 7.89448E-03-2.62401E-04-2.35552E-14
 -1       163 8.12660E-03-1.10272E-04-2.39757E-14
 -1       164 8.27198E-03 4.97303E-05-2.41937E-14
 -1       165 2.41425E-04-1.20428E-04-3.06050E-17
 -1       166 2.26611E-04-8.88991E-05-4.52756E-17
 -1       167 2.20528E-04-6.68031E-05-5.24381E-17
 -1       168 2.17108E-04-4.93925E-05-5.57246E-17
 -1       169 2.14916E-04-3.50445E-05-5.64937E-17
 -1       170 2.13444E-04-2.22844E-05-5.61651E-17
 -1       171 2.12587E-04-1.06778E-05-5.50131E-17
 -1       172 2.12303E-04 3.61844E-07-5.36748E-17
 -1       173 2.12590E-04 1.13910E-05-5.16690E-17
 -1       174 2.13464E-04 2.29761E-05-4.90026E-17
 -1       175 2.14942E-04 3.55051E-05-4.53705E-17
 -1       176 2.17223E-04 5.01404E-05-3.99732E-17
 -1       177 2.20725E-04 6.77258E-05-3.18654E-17
 -1       178 2.26825E-04 9.01613E-05-1.91463E-17
 -1       179 2.40389E-04 1.22359E-04 1.15874E-18
 -1       180 2.97689E-04 1.80030E-04 2.36322E-17
 -1       181 4.69618E-04-2.54024E-04-8.18132E-17
 -1       182 7.69928E-04-3.64979E-04-2.75557E-16
 -1       183 1.05758E-03-4.39836E-04-5.84449E-16
 -1       184 1.34071E-03-4.90384E-04-1.00799E-15
 -1       185 1.62340E-03-5.23848E-04-1.54408E-15
 -1       186 1.90824E-03-5.45324E-04-2.19103E-15
 -1       187 2.19698E-03-5.58842E-04-2.94642E-15
 -1       188 2.49086E-03-5.67973E-04-3.80670E-15
 -1       189 2.79073E-03-5.76200E-04-4.77331E-15
 -1       190 3.09708E-03-5.87147E-04-5.84532E-15
 -1       191 3.40986E-03-6.04648E-04-7.01860E-15
 -1       192 3.72836E-03-6.32593E-04-8.28912E-15
 -1       193 4.05094E-03-6.74399E-04-9.65679E-15
 -1       194 4.37485E-03-7.31956E-04-1.11160E-14
 -1       195 4.69631E-03-8.04052E-04-1.26671E-14
 -1       196 5.01107E-03-8.84628E-04-1.43148E-14
 -1       197 5.31560E-03-9.61903E-04-1.60567E-14
 -1       198 5.60882E-03-1.01977E-03-1.78969E-14
 -1       199 5.89335E-03-1.04233E-03-1.98368E-14
 -1       200 6.17525E-03-1.02009E-03-2.18763E-14
 -1       201 6.46173E-03-9.54350E-04-2.40229E-14
 -1       202 6.75823E-03-8.56583E-04-2.62755E-14
 -1       203 7.06654E-03-7.43316E-04-2.86298E-14
 -1       204 7.38496E-03-6.30022E-04-3.10876E-14
 -1       205 7.70978E-03-5.27321E-04-3.36360E-14
 -1       206 8.03689E-03-4.40235E-04-3.62689E-14
 -1       207 8.36286E-03-3.69413E-04-3.89857E-14
 -1       208 8.68535E-03-3.12922E-04-4.17878E-14
 -1       209 9.00309E-03-2.67757E-04-4.46627E-14
 -1       210 9.31562E-03-2.30807E-04-4.76014E-14
 -1       211 9.62308E-03-1.99351E-04-5.05950E-14
 -1       212 9.92593E-03-1.71235E-04-5.36446E-14
 -1       213 1.02248E-02-1.44868E-04-5.67565E-14
 -1       214 1.05203E-02-1.19144E-04-5.99280E-14
 -1       215 1.08132E-02-9.33462E-05-6.31579E-14
 -1       216 1.11040E-02-6.70431E-05-6.64371E-14
 -1       217 1.13932E-02-4.00087E-05-6.97570E-14
 -1       218 1.16812E-02-1.21563E-05-7.31195E-14
 -1       219 1.19683E-02 1.65110E-05-7.65266E-14
 -1       220 1.22548E-02 4.59360E-05-7.99881E-14
 -1       221 1.25410E-02 7.60320E-05-8.35036E-14
 -1       222 1.28268E-02 1.06700E-04-8.70651E-14
 -1       223 1.31125E-02 1.37837E-04-9.06725E-14
 -1       224 1.33981E-02 1.69345E-04-9.43190E-14
 -1       225 1.36837E-02 2.01130E-04-9.79873E-14
 -1       226 1.39693E-02 2.33106E-04-1.01665E-13
 -1       227 1.42549E-02 2.65193E-04-1.05355E-13
 -1       228 1.45406E-02 2.97317E-04-1.09066E-13
 -1       229 6.05716E-04 3.18114E-04-2.58786E-17
 -1       230 8.97640E-04 4.11585E-04-1.64487E-16
 -1       231 1.18131E-03 4.74720E-04-3.99369E-16
 -1       232 1.46279E-03 5.16808E-04-7.33507E-16
 -1       233 1.74570E-03 5.43854E-04-1.16732E-15
 -1       234 2.03247E-03 5.60270E-04-1.70224E-15
 -1       235 2.32496E-03 5.69748E-04-2.33623E-15
 -1       236 2.62474E-03 5.75812E-04-3.06790E-15
 -1       237 2.93323E-03 5.82246E-04-3.89743E-15
 -1       238 3.25160E-03 5.93479E-04-4.82425E-15
 -1       239 3.58062E-03 6.14900E-04-5.84349E-15
 -1       240 3.92022E-03 6.52940E-04-6.95185E-15
 -1       241 4.26888E-03 7.14570E-04-8.14984E-15
 -1       242 4.62297E-03 8.05656E-04-9.44196E-15
 -1       243 4.97630E-03 9.27549E-04-1.08297E-14
 -1       244 5.32079E-03 1.07214E-03-1.23168E-14
 -1       245 5.64897E-03 1.21791E-03-1.39080E-14
 -1       246 5.95843E-03 1.33220E-03-1.56062E-14
 -1       247 6.25530E-03 1.38358E-03-1.74181E-14
 -1       248 6.55275E-03 1.35938E-03-1.93562E-14
 -1       249 6.86372E-03 1.27368E-03-2.14217E-14
 -1       250 7.19397E-03 1.15843E-03-2.36084E-14
 -1       251 7.54077E-03 1.04595E-03-2.58997E-14
 -1       252 7.89661E-03 9.57125E-04-2.82965E-14
 -1       253 8.25357E-03 8.99586E-04-3.07951E-14
 -1       254 8.60572E-03 8.71899E-04-3.33833E-14
 -1       255 8.94970E-03 8.68431E-04-3.60525E-14
 -1       256 9.28424E-03 8.82690E-04-3.87963E-14
 -1       257 9.60948E-03 9.08943E-04-4.16115E-14
 -1       258 9.92630E-03 9.42742E-04-4.44959E-14
 -1       259 1.02359E-02 9.80885E-04-4.74442E-14
 -1       260 1.05396E-02 1.02119E-03-5.04551E-14
 -1       261 1.08386E-02 1.06224E-03-5.35379E-14
 -1       262 1.11338E-02 1.10317E-03-5.66984E-14
 -1       263 1.14262E-02 1.14349E-03-5.99305E-14
 -1       264 1.17165E-02 1.18293E-03-6.32308E-14
 -1       265 1.20053E-02 1.22142E-03-6.66044E-14
 -1       266 1.22929E-02 1.25897E-03-7.00471E-14
 -1       267 1.25797E-02 1.29565E-03-7.35503E-14
 -1       268 1.28660E-02 1.33155E-03-7.71151E-14
 -1       269 1.31519E-02 1.36680E-03-8.07284E-14
 -1       270 1.34376E-02 1.40150E-03-8.43774E-14
 -1       271 1.37232E-02 1.43576E-03-8.80483E-14
 -1       272 1.40088E-02 1.46969E-03-9.17303E-14
 -1       273 1.42943E-02 1.50337E-03-9.54171E-14
 -1       274 1.45799E-02 1.53690E-03-9.91209E-14
 -1       275 1.48656E-02 1.57034E-03-1.02844E-13
 -1       276 1.51513E-02 1.60378E-03-1.06583E-13
 -1       277 1.51765E-02 1.54573E-03-1.07476E-13
 -1       278 1.51435E-02 1.46139E-03-1.07777E-13
 -1       279 1.51106E-02 1.37702E-03-1.08068E-13
 -1       280 1.50777E-02 1.29262E-03-1.08344E-13
 -1       281 1.50455E-02 1.20963E-03-1.08611E-13
 -1       282 1.50129E-02 1.12519E-03-1.08875E-13
 -1       283 1.49804E-02 1.04073E-03-1.09135E-13
 -1       284 1.49481E-02 9.56281E-04-1.09388E-13
 -1       285 1.49160E-02 8.71827E-04-1.09642E-13
 -1       286 1.48840E-02 7.87378E-04-1.09897E-13
 -1       287 1.48527E-02 7.04370E-04-1.10148E-13
 -1       288 1.48210E-02 6.19948E-04-1.10401E-13
 -1       289 1.47894E-02 5.35549E-04-1.10649E-13
 -1       290 1.47579E-02 4.51183E-04-1.10888E-13
 -1       291 1.46492E-02 3.74237E-04-1.09980E-13
 -1       292 8.34971E-03 2.73209E-04-2.50996E-14
 -1       293 8.22678E-03 3.69364E-04-2.47352E-14
 -1       294 7.99516E-03 5.03592E-04-2.39636E-14
 -1       295 7.68369E-03 6.48735E-04-2.31745E-14
 -1       296 7.33386E-03 8.21355E-04-2.21447E-14
 -1       297 6.96457E-03 9.77162E-04-2.10724E-14
 -1       298 6.58123E-03 1.09547E-03-1.99331E-14
 -1       299 6.19680E-03 1.13853E-03-1.87526E-14
 -1       300 5.81825E-03 1.08597E-03-1.76988E-14
 -1       301 5.44095E-03 9.57667E-04-1.66897E-14
 -1       302 5.03265E-03 7.83116E-04-1.59257E-14
 -1       303 4.64734E-03 5.78886E-04-1.51853E-14
 -1       304 4.27857E-03 4.10870E-04-1.47677E-14
 -1       305 4.03695E-03 2.77812E-04-1.45103E-14
 -1       306 3.91634E-03 1.72220E-04-1.44156E-14
 -1       307 3.93497E-03 7.89392E-05-1.45996E-14
 -1       308 4.07984E-03-2.34326E-05-1.49263E-14
 -1       309 4.32587E-03-1.47939E-04-1.54201E-14
 -1       310 4.70564E-03-2.93923E-04-1.60177E-14
 -1       311 5.08094E-03-4.90392E-04-1.70857E-14
 -1       312 5.44600E-03-6.25636E-04-1.80364E-14
 -1       313 5.81232E-03-7.12665E-04-1.90817E-14
 -1       314 6.16942E-03-7.28206E-04-2.02025E-14
 -1       315 6.52665E-03-6.59290E-04-2.12569E-14
 -1       316 6.87559E-03-5.34901E-04-2.23447E-14
 -1       317 7.25167E-03-3.71436E-04-2.32658E-14
 -1       318 7.61224E-03-1.99650E-04-2.40731E-14
 -1       319 7.93708E-03-3.58665E-05-2.47657E-14
 -1       320 8.19129E-03 8.49218E-05-2.51029E-14
 -1       321 8.33593E-03 1.86270E-04-2.53068E-14
 -1       322 4.57973E-04-1.52777E-04-1.77630E-16
 -1       323 4.77239E-04-2.01357E-04-1.55258E-16
 -1       324 4.40039E-04-8.35476E-05-1.94513E-16
 -1       325 4.35412E-04-5.65788E-05-1.95211E-16
 -1       326 4.32474E-04-3.24782E-05-1.93723E-16
 -1       327 4.31028E-04-1.00251E-05-1.90291E-16
 -1       328 4.31032E-04 1.18760E-05-1.85094E-16
 -1       329 4.32506E-04 3.42988E-05-1.77962E-16
 -1       330 4.35462E-04 5.79464E-05-1.68617E-16
 -1       331 4.40224E-04 8.49024E-05-1.55881E-16
 -1       332 4.47373E-04 1.16425E-04-1.38304E-16
 -1       333 4.58580E-04 1.54974E-04-1.12957E-16
 -1       334 4.78931E-04 2.05057E-04-7.61313E-17
 -1       335 5.34667E-04 2.57518E-04-5.68495E-17
 -1       336 8.29927E-04 3.52800E-04-2.04575E-16
 -1       337 8.69702E-04-3.35467E-04-4.74877E-16
 -1       338 1.16002E-03-3.95803E-04-8.51566E-16
 -1       339 1.44827E-03-4.36301E-04-1.33753E-15
 -1       340 1.73634E-03-4.62382E-04-1.93210E-15
 -1       341 2.02580E-03-4.78364E-04-2.63395E-15
 -1       342 2.31789E-03-4.87956E-04-3.44049E-15
 -1       343 2.61364E-03-4.94634E-04-4.34970E-15
 -1       344 2.91382E-03-5.01922E-04-5.36210E-15
 -1       345 3.21904E-03-5.13569E-04-6.47618E-15
 -1       346 3.52964E-03-5.33567E-04-7.68819E-15
 -1       347 3.84557E-03-5.65900E-04-8.99677E-15
 -1       348 4.16618E-03-6.13861E-04-1.03988E-14
 -1       349 4.48981E-03-6.78755E-04-1.18921E-14
 -1       350 4.81361E-03-7.57983E-04-1.34790E-14
 -1       351 5.13372E-03-8.43010E-04-1.51608E-14
 -1       352 5.44657E-03-9.18666E-04-1.69402E-14
 -1       353 5.75108E-03-9.65831E-04-1.88198E-14
 -1       354 6.05030E-03-9.68282E-04-2.08013E-14
 -1       355 6.35042E-03-9.20653E-04-2.28902E-14
 -1       356 6.65715E-03-8.31285E-04-2.50852E-14
 -1       357 6.97263E-03-7.17832E-04-2.73846E-14
 -1       358 7.29503E-03-5.99038E-04-2.97863E-14
 -1       359 7.62061E-03-4.88723E-04-3.22854E-14
 -1       360 7.94574E-03-3.94081E-04-3.48711E-14
 -1       361 8.26792E-03-3.16879E-04-3.75408E-14
 -1       362 8.58583E-03-2.55566E-04-4.02921E-14
 -1       363 8.89901E-03-2.07108E-04-4.31229E-14
 -1       364 9.20755E-03-1.68166E-04-4.60246E-14
 -1       365 9.51181E-03-1.35727E-04-4.89828E-14
 -1       366 9.81229E-03-1.07350E-04-5.20038E-14
 -1       367 1.01095E-02-8.12000E-05-5.50845E-14
 -1       368 1.04041E-02-5.59807E-05-5.82223E-14
 -1       369 1.06964E-02-3.08319E-05-6.14158E-14
 -1       370 1.09870E-02-5.22465E-06-6.46623E-14
 -1       371 1.12762E-02 2.11309E-05-6.79585E-14
 -1       372 1.15644E-02 4.83595E-05-7.12985E-14
 -1       373 1.18518E-02 7.64778E-05-7.46798E-14
 -1       374 1.21386E-02 1.05436E-04-7.81076E-14
 -1       375 1.24249E-02 1.35147E-04-8.15889E-14
 -1       376 1.27110E-02 1.65506E-04-8.51225E-14
 -1       377 1.29969E-02 1.96404E-04-8.87009E-14
 -1       378 1.32827E-02 2.27734E-04-9.23168E-14
 -1       379 1.35684E-02 2.59396E-04-9.59661E-14
 -1       380 1.38541E-02 2.91298E-04-9.96355E-14
 -1       381 1.41398E-02 3.23354E-04-1.03318E-13
 -1       382 1.43945E-02 3.48792E-04-1.06638E-13
 -1       383 1.11963E-03 4.18306E-04-4.45641E-16
 -1       384 1.40646E-03 4.62062E-04-7.83468E-16
 -1       385 1.69321E-03 4.90014E-04-1.22037E-15
 -1       386 1.98202E-03 5.06652E-04-1.75705E-15
 -1       387 2.27460E-03 5.15715E-04-2.39262E-15
 -1       388 2.57236E-03 5.20715E-04-3.12512E-15
 -1       389 2.87654E-03 5.25363E-04-3.95454E-15
 -1       390 3.18826E-03 5.33971E-04-4.88010E-15
 -1       391 3.50844E-03 5.51793E-04-5.89774E-15
 -1       392 3.83768E-03 5.85198E-04-7.00447E-15
 -1       393 4.17593E-03 6.41361E-04-8.20166E-15
 -1       394 4.52199E-03 7.26943E-04-9.49132E-15
 -1       395 4.87276E-03 8.45061E-04-1.08750E-14
 -1       396 5.22263E-03 9.90209E-04-1.23579E-14
 -1       397 5.56439E-03 1.14287E-03-1.39453E-14
 -1       398 5.89294E-03 1.26918E-03-1.56370E-14
 -1       399 6.21046E-03 1.33236E-03-1.74441E-14
 -1       400 6.52712E-03 1.31408E-03-1.93755E-14
 -1       401 6.85383E-03 1.22739E-03-2.14338E-14
 -1       402 7.19441E-03 1.10747E-03-2.36115E-14
 -1       403 7.54472E-03 9.90208E-04-2.58957E-14
 -1       404 7.89762E-03 8.98005E-04-2.82856E-14
 -1       405 8.24718E-03 8.38591E-04-3.07758E-14
 -1       406 8.58998E-03 8.10124E-04-3.33547E-14
 -1       407 8.92462E-03 8.06584E-04-3.60160E-14
 -1       408 9.25099E-03 8.21193E-04-3.87540E-14
 -1       409 9.56968E-03 8.48030E-04-4.15632E-14
 -1       410 9.88157E-03 8.82515E-04-4.44423E-14
 -1       411 1.01877E-02 9.21364E-04-4.73853E-14
 -1       412 1.04890E-02 9.62342E-04-5.03901E-14
 -1       413 1.07864E-02 1.00400E-03-5.34656E-14
 -1       414 1.10807E-02 1.04547E-03-5.66166E-14
 -1       415 1.13727E-02 1.08623E-03-5.98384E-14
 -1       416 1.16628E-02 1.12604E-03-6.31270E-14
 -1       417 1.19515E-02 1.16484E-03-6.64837E-14
 -1       418 1.22392E-02 1.20262E-03-6.99067E-14
 -1       419 1.25261E-02 1.23949E-03-7.33970E-14
 -1       420 1.28126E-02 1.27554E-03-7.69470E-14
 -1       421 1.30987E-02 1.31089E-03-8.05461E-14
 -1       422 1.33846E-02 1.34566E-03-8.41830E-14
 -1       423 1.36703E-02 1.37998E-03-8.78424E-14
 -1       424 1.39560E-02 1.41394E-03-9.15118E-14
 -1       425 1.42416E-02 1.44764E-03-9.51964E-14
 -1       426 1.45273E-02 1.48117E-03-9.88952E-14
 -1       427 1.48130E-02 1.51461E-03-1.02614E-13
 -1       428 1.49947E-02 1.53016E-03-1.05042E-13
 -1       429 1.48467E-02 1.30597E-03-1.04977E-13
 -1       430 1.48796E-02 1.39031E-03-1.04687E-13
 -1       431 1.49372E-02 1.46024E-03-1.04866E-13
 -1       432 1.48144E-02 1.22307E-03-1.05253E-13
 -1       433 1.47817E-02 1.13873E-03-1.05527E-13
 -1       434 1.47492E-02 1.05439E-03-1.05791E-13
 -1       435 1.47168E-02 9.70062E-04-1.06055E-13
 -1       436 1.46846E-02 8.85733E-04-1.06317E-13
 -1       437 1.46525E-02 8.01403E-04-1.06577E-13
 -1       438 1.46211E-02 7.18500E-04-1.06824E-13
 -1       439 1.45894E-02 6.34164E-04-1.07071E-13
 -1       440 1.45577E-02 5.49829E-04-1.07310E-13
 -1       441 1.45262E-02 4.65499E-04-1.07546E-13
 -1       442 8.09389E-03 3.87035E-04-2.52170E-14
 -1       443 8.38162E-03 2.40230E-04-2.64910E-14
 -1       444 8.33238E-03 2.84137E-04-2.61118E-14
 -1       445 7.83874E-03 5.01894E-04-2.43987E-14
 -1       446 7.43953E-03 6.97217E-04-2.32060E-14
 -1       447 4.46967E-04-1.14716E-04-1.89356E-16
 -1       448 6.73411E-03 1.05145E-03-2.07137E-14
 -1       449 6.37391E-03 1.16505E-03-1.93187E-14
 -1       450 6.02497E-03 1.15400E-03-1.79666E-14
 -1       451 5.72536E-03 1.05836E-03-1.69489E-14
 -1       452 5.28655E-03 8.40673E-04-1.57989E-14
 -1       453 4.92788E-03 6.40760E-04-1.50173E-14
 -1       454 4.47720E-03 4.05077E-04-1.42184E-14
 -1       455 4.16034E-03 2.74211E-04-1.39498E-14
 -1       456 3.95436E-03 1.84377E-04-1.37167E-14
 -1       457 3.89165E-03 1.24820E-04-1.38121E-14
 -1       458 3.98531E-03 6.79742E-05-1.40059E-14
 -1       459 4.20974E-03-2.74820E-05-1.45839E-14
 -1       460 4.49792E-03-1.45541E-04-1.50734E-14
 -1       461 5.00000E-03-3.89128E-04-1.62412E-14
 -1       462 5.29973E-03-5.42335E-04-1.71560E-14
 -1       463 5.65975E-03-6.93559E-04-1.83618E-14
 -1       464 5.98473E-03-7.60835E-04-1.96319E-14
 -1       465 6.33349E-03-7.22303E-04-2.10265E-14
 -1       466 6.61910E-03-6.19514E-04-2.21098E-14
 -1       467 7.00337E-03-4.24722E-04-2.34565E-14
 -1       468 7.36705E-03-2.32080E-04-2.44579E-14
 -1       469 7.72160E-03-4.87487E-05-2.54390E-14
 -1       470 8.06828E-03 9.20496E-05-2.59286E-14
 -1       471 8.28044E-03 1.79809E-04-2.63636E-14
 -1       472 7.08180E-03 8.84313E-04-2.20245E-14
 -1       473 5.53860E-03 9.63442E-04-1.60424E-14
 -1       474 4.75068E-03-2.53494E-04-1.52829E-14
 -1       475 9.38534E-04 3.20477E-04-3.94846E-16
 -1       476 6.60268E-04-6.47928E-05-4.14196E-16
 -1       477 6.66901E-04-1.01721E-04-4.14880E-16
 -1       478 6.55065E-04 1.43014E-06-4.01162E-16
 -1       479 6.56353E-04 3.37382E-05-3.89076E-16
 -1       480 6.60217E-04 6.69134E-05-3.73382E-16
 -1       481 6.66986E-04 1.03682E-04-3.52606E-16
 -1       482 6.77135E-04 1.45312E-04-3.25145E-16
 -1       483 6.91999E-04 1.93993E-04-2.88113E-16
 -1       484 1.22813E-03 3.71798E-04-7.06392E-16
 -1       485 9.83208E-04-3.02285E-04-6.93727E-16
 -1       486 1.27216E-03-3.48576E-04-1.13242E-15
 -1       487 1.56118E-03-3.79462E-04-1.67686E-15
 -1       488 1.85056E-03-3.98706E-04-2.32636E-15
 -1       489 2.14100E-03-4.09835E-04-3.08000E-15
 -1       490 2.43328E-03-4.16147E-04-3.93507E-15
 -1       491 2.72824E-03-4.20913E-04-4.89083E-15
 -1       492 3.02683E-03-4.27573E-04-5.94623E-15
 -1       493 3.33010E-03-4.39875E-04-7.10080E-15
 -1       494 3.63920E-03-4.61886E-04-8.35227E-15
 -1       495 3.95522E-03-4.97749E-04-9.69645E-15
 -1       496 4.27866E-03-5.50972E-04-1.11308E-14
 -1       497 4.60862E-03-6.22898E-04-1.26568E-14
 -1       498 4.94184E-03-7.10108E-04-1.42789E-14
 -1       499 5.27274E-03-8.01260E-04-1.59956E-14
 -1       500 5.59588E-03-8.75917E-04-1.78137E-14
 -1       501 5.91021E-03-9.09580E-04-1.97346E-14
 -1       502 6.22135E-03-8.85747E-04-2.17648E-14
 -1       503 6.53755E-03-8.06741E-04-2.39029E-14
 -1       504 6.86312E-03-6.92093E-04-2.61477E-14
 -1       505 7.19560E-03-5.66326E-04-2.84968E-14
 -1       506 7.52919E-03-4.47972E-04-3.09447E-14
 -1       507 7.85879E-03-3.46446E-04-3.34818E-14
 -1       508 8.18174E-03-2.64002E-04-3.61040E-14
 -1       509 8.49758E-03-1.98909E-04-3.88093E-14
 -1       510 8.80700E-03-1.47834E-04-4.15957E-14
 -1       511 9.11112E-03-1.07191E-04-4.44543E-14
 -1       512 9.41103E-03-7.37665E-05-4.73790E-14
 -1       513 9.70764E-03-4.49497E-05-5.03647E-14
 -1       514 1.00017E-02-1.87581E-05-5.34141E-14
 -1       515 1.02937E-02 6.23151E-06-5.65207E-14
 -1       516 1.05842E-02 3.09833E-05-5.96799E-14
 -1       517 1.08735E-02 5.61073E-05-6.28937E-14
 -1       518 1.11618E-02 8.19526E-05-6.61614E-14
 -1       519 1.14494E-02 1.08684E-04-6.94755E-14
 -1       520 1.17365E-02 1.36345E-04-7.28353E-14
 -1       521 1.20231E-02 1.64897E-04-7.62350E-14
 -1       522 1.23094E-02 1.94262E-04-7.96830E-14
 -1       523 1.25955E-02 2.24333E-04-8.31872E-14
 -1       524 1.28815E-02 2.55001E-04-8.67365E-14
 -1       525 1.31673E-02 2.86153E-04-9.03263E-14
 -1       526 1.34531E-02 3.17686E-04-9.39528E-14
 -1       527 1.37389E-02 3.49503E-04-9.76073E-14
 -1       528 1.40246E-02 3.81517E-04-1.01273E-13
 -1       529 1.80652E-03 4.26561E-04-1.62023E-15
 -1       530 2.09713E-03 4.37978E-04-2.22477E-15
 -1       531 2.39003E-03 4.43397E-04-2.92613E-15
 -1       532 2.68619E-03 4.46224E-04-3.72251E-15
 -1       533 2.98661E-03 4.50217E-04-4.61573E-15
 -1       534 3.29242E-03 4.59840E-04-5.60130E-15
 -1       535 3.60509E-03 4.80577E-04-6.67663E-15
 -1       536 3.92651E-03 5.19091E-04-7.84058E-15
 -1       537 4.25885E-03 5.82938E-04-9.09548E-15
 -1       538 4.60373E-03 6.79226E-04-1.04434E-14
 -1       539 4.96039E-03 8.11097E-04-1.18870E-14
 -1       540 5.32290E-03 9.70816E-04-1.34306E-14
 -1       541 5.68062E-03 1.13101E-03-1.50773E-14
 -1       542 6.02568E-03 1.24475E-03-1.68353E-14
 -1       543 6.36276E-03 1.26873E-03-1.87151E-14
 -1       544 6.70604E-03 1.19991E-03-2.07205E-14
 -1       545 7.06222E-03 1.07467E-03-2.28476E-14
 -1       546 7.42550E-03 9.43218E-04-2.50881E-14
 -1       547 7.78478E-03 8.36636E-04-2.74358E-14
 -1       548 8.13325E-03 7.65622E-04-2.98836E-14
 -1       549 8.46940E-03 7.28481E-04-3.24241E-14
 -1       550 8.79465E-03 7.18735E-04-3.50468E-14
 -1       551 9.11121E-03 7.29130E-04-3.77500E-14
 -1       552 9.42104E-03 7.53332E-04-4.05269E-14
 -1       553 9.72566E-03 7.86390E-04-4.33736E-14
 -1       554 1.00262E-02 8.24684E-04-4.62889E-14
 -1       555 1.03234E-02 8.65697E-04-4.92656E-14
 -1       556 1.06179E-02 9.07761E-04-5.23059E-14
 -1       557 1.09103E-02 9.49824E-04-5.54180E-14
 -1       558 1.12011E-02 9.91271E-04-5.86025E-14
 -1       559 1.14905E-02 1.03178E-03-6.18536E-14
 -1       560 1.17788E-02 1.07122E-03-6.51667E-14
 -1       561 1.20664E-02 1.10959E-03-6.85458E-14
 -1       562 1.23534E-02 1.14696E-03-7.19935E-14
 -1       563 1.26399E-02 1.18343E-03-7.55037E-14
 -1       564 1.29262E-02 1.21913E-03-7.90666E-14
 -1       565 1.32122E-02 1.25418E-03-8.26728E-14
 -1       566 1.34981E-02 1.28871E-03-8.63104E-14
 -1       567 1.37839E-02 1.32282E-03-8.99628E-14
 -1       568 1.40696E-02 1.35663E-03-9.36323E-14
 -1       569 1.43553E-02 1.39021E-03-9.73183E-14
 -1       570 1.46410E-02 1.42367E-03-1.01022E-13
 -1       571 1.45506E-02 1.15217E-03-1.02183E-13
 -1       572 1.45180E-02 1.06793E-03-1.02456E-13
 -1       573 1.46157E-02 1.31927E-03-1.01609E-13
 -1       574 1.45831E-02 1.23571E-03-1.01902E-13
 -1       575 7.97436E-03 4.25326E-04-2.57310E-14
 -1       576 1.44855E-02 9.83718E-04-1.02724E-13
 -1       577 1.44532E-02 8.99514E-04-1.02990E-13
 -1       578 1.44211E-02 8.15311E-04-1.03248E-13
 -1       579 1.43896E-02 7.32525E-04-1.03497E-13
 -1       580 1.43578E-02 6.48294E-04-1.03745E-13
 -1       581 1.43261E-02 5.64042E-04-1.03985E-13
 -1       582 1.42945E-02 4.79770E-04-1.04222E-13
 -1       583 7.65517E-03 5.72536E-04-2.46855E-14
 -1       584 1.51720E-03 4.05744E-04-1.11424E-15
 -1       585 8.40874E-03 2.66430E-04-2.77612E-14
 -1       586 8.37990E-03 2.26833E-04-2.78086E-14
 -1       587 7.17084E-04-2.32808E-04-3.93447E-16
 -1       588 7.26452E-03 7.80345E-04-2.32460E-14
 -1       589 6.15916E-03-7.71880E-04-2.05523E-14
 -1       590 6.88293E-03 9.88117E-04-2.16281E-14
 -1       591 6.56370E-04-3.09209E-05-4.09612E-16
 -1       592 6.18248E-03 1.19338E-03-1.83686E-14
 -1       593 5.13832E-03 7.30668E-04-1.48323E-14
 -1       594 5.88841E-03 1.12970E-03-1.70811E-14
 -1       595 5.82318E-03-7.54172E-04-1.89198E-14
 -1       596 6.56564E-03 1.13282E-03-2.01898E-14
 -1       597 4.71902E-03 4.97475E-04-1.39568E-14
 -1       598 4.27330E-03 2.90515E-04-1.32650E-14
 -1       599 4.03614E-03 2.01872E-04-1.30434E-14
 -1       600 3.86698E-03 1.37721E-04-1.28972E-14
 -1       601 3.89040E-03 1.01937E-04-1.31721E-14
 -1       602 4.08311E-03 3.29702E-05-1.36160E-14
 -1       603 4.30900E-03-5.28837E-05-1.40808E-14
 -1       604 5.17991E-03-4.80596E-04-1.63309E-14
 -1       605 7.17268E-03-3.07667E-04-2.48107E-14
 -1       606 5.49474E-03-6.37651E-04-1.74986E-14
 -1       607 6.45484E-03-6.87544E-04-2.19286E-14
 -1       608 6.77175E-03-5.33365E-04-2.32953E-14
 -1       609 7.49940E-03-1.31783E-04-2.58012E-14
 -1       610 7.94171E-03 7.14467E-05-2.69839E-14
 -1       611 8.17863E-03 1.59476E-04-2.74305E-14
 -1       612 7.08838E-04 2.72310E-04-2.03559E-16
 -1       613 8.25851E-03 3.18228E-04-2.68411E-14
 -1       614 6.37836E-03 1.19997E-03-1.92043E-14
 -1       615 6.76735E-04-1.43285E-04-4.09998E-16
 -1       616 7.76146E-03-1.09731E-05-2.73455E-14
 -1       617 1.42171E-02 4.01556E-04-1.03771E-13
 -1       618 4.51676E-03-1.51874E-04-1.42756E-14
 -1       619 4.93116E-03-3.60320E-04-1.53651E-14
 -1       620 4.46779E-03 3.78487E-04-1.30041E-14
 -1       621 8.88369E-04 6.41302E-05-6.59642E-16
 -1       622 8.84524E-04 2.22026E-05-6.81882E-16
 -1       623 9.08418E-04 1.57047E-04-5.94360E-16
 -1       624 9.25710E-04 2.12190E-04-5.46340E-16
 -1       625 1.05475E-03 2.84431E-04-6.13913E-16
 -1       626 1.34239E-03 3.22917E-04-9.93817E-16
 -1       627 1.38869E-03-2.98909E-04-1.42773E-15
 -1       628 1.67626E-03-3.21036E-04-2.02640E-15
 -1       629 1.96441E-03-3.34100E-04-2.72759E-15
 -1       630 2.25327E-03-3.40914E-04-3.52945E-15
 -1       631 2.54336E-03-3.44301E-04-4.43073E-15
 -1       632 2.83552E-03-3.47195E-04-5.43005E-15
 -1       633 3.13101E-03-3.52793E-04-6.52737E-15
 -1       634 3.43162E-03-3.64722E-04-7.72078E-15
 -1       635 3.73963E-03-3.87161E-04-9.00820E-15
 -1       636 4.05759E-03-4.24804E-04-1.03851E-14
 -1       637 4.38740E-03-4.82325E-04-1.18518E-14
 -1       638 4.72863E-03-5.62500E-04-1.34114E-14
 -1       639 5.07644E-03-6.61873E-04-1.50661E-14
 -1       640 5.42161E-03-7.64444E-04-1.68198E-14
 -1       641 5.75614E-03-8.39095E-04-1.86782E-14
 -1       642 6.08098E-03-8.51133E-04-2.06458E-14
 -1       643 6.40687E-03-7.88662E-04-2.27260E-14
 -1       644 6.74426E-03-6.70447E-04-2.49143E-14
 -1       645 7.09104E-03-5.32375E-04-2.72100E-14
 -1       646 7.43806E-03-4.02549E-04-2.96071E-14
 -1       647 7.77702E-03-2.93692E-04-3.20973E-14
 -1       648 8.10417E-03-2.07438E-04-3.46739E-14
 -1       649 8.41979E-03-1.40543E-04-3.73353E-14
 -1       650 8.72603E-03-8.85719E-05-4.00758E-14
 -1       651 9.02541E-03-4.73927E-05-4.28942E-14
 -1       652 9.32008E-03-1.36012E-05-4.57810E-14
 -1       653 9.61163E-03 1.54528E-05-4.87316E-14
 -1       654 9.90117E-03 4.17530E-05-5.17446E-14
 -1       655 1.01894E-02 6.67275E-05-5.48186E-14
 -1       656 1.04769E-02 9.13587E-05-5.79496E-14
 -1       657 1.07638E-02 1.16283E-04-6.11306E-14
 -1       658 1.10503E-02 1.41879E-04-6.43689E-14
 -1       659 1.13366E-02 1.68339E-04-6.76564E-14
 -1       660 1.16227E-02 1.95725E-04-7.09888E-14
 -1       661 1.19088E-02 2.24017E-04-7.43631E-14
 -1       662 1.21947E-02 2.53144E-04-7.77878E-14
 -1       663 1.24806E-02 2.83009E-04-8.12594E-14
 -1       664 1.27664E-02 3.13502E-04-8.47799E-14
 -1       665 1.30522E-02 3.44514E-04-8.83428E-14
 -1       666 1.33379E-02 3.75940E-04-9.19450E-14
 -1       667 1.36237E-02 4.07685E-04-9.55799E-14
 -1       668 1.39094E-02 4.39659E-04-9.92359E-14
 -1       669 2.20740E-03 3.69570E-04-2.71379E-15
 -1       670 7.53011E-03 6.80409E-04-2.49637E-14
 -1       671 1.91871E-03 3.62416E-04-2.04370E-15
 -1       672 2.78779E-03 3.73911E-04-4.33924E-15
 -1       673 3.08098E-03 3.77818E-04-5.29291E-15
 -1       674 3.37793E-03 3.88332E-04-6.33662E-15
 -1       675 3.68115E-03 4.10746E-04-7.47019E-15
 -1       676 3.99453E-03 4.51769E-04-8.69127E-15
 -1       677 4.32335E-03 5.19832E-04-1.00035E-14
 -1       678 4.67243E-03 6.24631E-04-1.14094E-14
 -1       679 5.04439E-03 7.72386E-04-1.29120E-14
 -1       680 5.42926E-03 9.55451E-04-1.45125E-14
 -1       681 6.17802E-03 1.22245E-03-1.80411E-14
 -1       682 6.91797E-03 1.05519E-03-2.20537E-14
 -1       683 7.30184E-03 9.02737E-04-2.42482E-14
 -1       684 7.67619E-03 7.78642E-04-2.65526E-14
 -1       685 8.03026E-03 6.96954E-04-2.89612E-14
 -1       686 8.36399E-03 6.53738E-04-3.14612E-14
 -1       687 8.68166E-03 6.39943E-04-3.40495E-14
 -1       688 8.98845E-03 6.47257E-04-3.67167E-14
 -1       689 9.28839E-03 6.69049E-04-3.94611E-14
 -1       690 9.58411E-03 7.00335E-04-4.22751E-14
 -1       691 9.87716E-03 7.37463E-04-4.51590E-14
 -1       692 1.01684E-02 7.77834E-04-4.81089E-14
 -1       693 1.04585E-02 8.19666E-04-5.11190E-14
 -1       694 1.07475E-02 8.61791E-04-5.41972E-14
 -1       695 1.10358E-02 9.03487E-04-5.73444E-14
 -1       696 1.13235E-02 9.44349E-04-6.05599E-14
 -1       697 1.16108E-02 9.84190E-04-6.38346E-14
 -1       698 1.18976E-02 1.02296E-03-6.71729E-14
 -1       699 1.21841E-02 1.06071E-03-7.05792E-14
 -1       700 1.24704E-02 1.09751E-03-7.40485E-14
 -1       701 1.27565E-02 1.13350E-03-7.75730E-14
 -1       702 1.30425E-02 1.16879E-03-8.11472E-14
 -1       703 1.33284E-02 1.20351E-03-8.47601E-14
 -1       704 1.36142E-02 1.23777E-03-8.83942E-14
 -1       705 1.39000E-02 1.27168E-03-9.20481E-14
 -1       706 1.41857E-02 1.30533E-03-9.57231E-14
 -1       707 1.44007E-02 1.31234E-03-9.86625E-14
 -1       708 1.42220E-02 9.13161E-04-9.96737E-14
 -1       709 1.41020E-02 4.59692E-04-1.01723E-13
 -1       710 1.42868E-02 1.08133E-03-9.91330E-14
 -1       711 5.37290E-03 8.76801E-04-1.49968E-14
 -1       712 1.41897E-02 8.29099E-04-9.99354E-14
 -1       713 1.42543E-02 9.97233E-04-9.94082E-14
 -1       714 1.41582E-02 7.46453E-04-1.00182E-13
 -1       715 1.41263E-02 6.62354E-04-1.00429E-13
 -1       716 1.40945E-02 5.78213E-04-1.00675E-13
 -1       717 1.63044E-03 3.47878E-04-1.47003E-15
 -1       718 7.89548E-03 4.93830E-04-2.64417E-14
 -1       719 8.75583E-04-2.23915E-04-6.14607E-16
 -1       720 4.91131E-03 6.10235E-04-1.37007E-14
 -1       721 5.69847E-03 1.06263E-03-1.59858E-14
 -1       722 3.91527E-03 6.74063E-05-1.25740E-14
 -1       723 6.32201E-03-7.48312E-04-2.16236E-14
 -1       724 8.33919E-03 2.06379E-04-2.89291E-14
 -1       725 2.49690E-03 3.72349E-04-3.47875E-15
 -1       726 6.97226E-03-4.34784E-04-2.48120E-14
 -1       727 8.47790E-03 2.55743E-04-2.93286E-14
 -1       728 1.13110E-03-2.66680E-04-9.79631E-16
 -1       729 8.96237E-04 1.08411E-04-6.31128E-16
 -1       730 7.09668E-03 9.08932E-04-2.28793E-14
 -1       731 8.96371E-04-1.05506E-04-7.13270E-16
 -1       732 6.77072E-03 1.07651E-03-2.12455E-14
 -1       733 3.81251E-03 1.10630E-04-1.22435E-14
 -1       734 4.09554E-03 2.27994E-04-1.23497E-14
 -1       735 6.59176E-03-6.37083E-04-2.29801E-14
 -1       736 3.87704E-03 1.55050E-04-1.20387E-14
 -1       737 4.13306E-03-9.26718E-06-1.30672E-14
 -1       738 5.97350E-03-7.95174E-04-1.97195E-14
 -1       739 5.64865E-03-7.25276E-04-1.80450E-14
 -1       740 5.32070E-03-5.87025E-04-1.65652E-14
 -1       741 6.04377E-03 1.19335E-03-1.74589E-14
 -1       742 8.40267E-03 3.04708E-04-2.87652E-14
 -1       743 7.36293E-03-2.14295E-04-2.62840E-14
 -1       744 8.17769E-03 3.76278E-04-2.75764E-14
 -1       745 8.11595E-03 1.30559E-04-2.85313E-14
 -1       746 9.08236E-04-1.54460E-04-7.10844E-16
 -1       747 8.84620E-04-1.89582E-05-6.98033E-16
 -1       748 4.29835E-03-9.05327E-05-1.32488E-14
 -1       749 1.43192E-02 1.16477E-03-9.88478E-14
 -1       750 8.53784E-03 2.89131E-04-3.03574E-14
 -1       751 5.81120E-03 1.13155E-03-1.62144E-14
 -1       752 1.43599E-02 1.23854E-03-9.87582E-14
 -1       753 4.64394E-03 4.86900E-04-1.27514E-14
 -1       754 4.68168E-03-2.59642E-04-1.43495E-14
 -1       755 5.08938E-03-4.84070E-04-1.55868E-14
 -1       756 8.88570E-04-6.09056E-05-7.08492E-16
 -1       757 4.24646E-03 3.01153E-04-1.20941E-14
 -1       758 3.76177E-03 1.25544E-04-1.14075E-14
 -1       759 1.15905E-03 2.14041E-04-8.88666E-16
 -1       760 8.15989E-03 4.52788E-04-2.85623E-14
 -1       761 1.79188E-03-2.61693E-04-2.38582E-15
 -1       762 2.07709E-03-2.69352E-04-3.13549E-15
 -1       763 2.36248E-03-2.72327E-04-3.98328E-15
 -1       764 2.64842E-03-2.72904E-04-4.92792E-15
 -1       765 2.93586E-03-2.73535E-04-5.96936E-15
 -1       766 3.22645E-03-2.77015E-04-7.10636E-15
 -1       767 3.52282E-03-2.86757E-04-8.33603E-15
 -1       768 3.82863E-03-3.07222E-04-9.65665E-15
 -1       769 4.14840E-03-3.44385E-04-1.10646E-14
 -1       770 4.48611E-03-4.05803E-04-1.25640E-14
 -1       771 4.84237E-03-4.98102E-04-1.41545E-14
 -1       772 5.57484E-03-7.41981E-04-1.76359E-14
 -1       773 6.98768E-03-5.03073E-04-2.59294E-14
 -1       774 7.35284E-03-3.53987E-04-2.82767E-14
 -1       775 7.70456E-03-2.35284E-04-3.07199E-14
 -1       776 8.03736E-03-1.46212E-04-3.32507E-14
 -1       777 8.35285E-03-7.98860E-05-3.58667E-14
 -1       778 8.65528E-03-2.93698E-05-3.85648E-14
 -1       779 8.94896E-03 1.05707E-05-4.13414E-14
 -1       780 9.23729E-03 4.36213E-05-4.41908E-14
 -1       781 9.52266E-03 7.23637E-05-4.71053E-14
 -1       782 9.80659E-03 9.86230E-05-5.00816E-14
 -1       783 1.00900E-02 1.23685E-04-5.31181E-14
 -1       784 1.03734E-02 1.48437E-04-5.62184E-14
 -1       785 1.06571E-02 1.73463E-04-5.93739E-14
 -1       786 1.09411E-02 1.99119E-04-6.25801E-14
 -1       787 1.12255E-02 2.25594E-04-6.58396E-14
 -1       788 1.15102E-02 2.52958E-04-6.91459E-14
 -1       789 1.17952E-02 2.81201E-04-7.24972E-14
 -1       790 1.20804E-02 3.10262E-04-7.58920E-14
 -1       791 1.23658E-02 3.40054E-04-7.93376E-14
 -1       792 1.26513E-02 3.70475E-04-8.28292E-14
 -1       793 1.29369E-02 4.01421E-04-8.63694E-14
 -1       794 1.32225E-02 4.32794E-04-8.99501E-14
 -1       795 1.35082E-02 4.64499E-04-9.35606E-14
 -1       796 1.37939E-02 4.96455E-04-9.72042E-14
 -1       797 3.16157E-03 3.08880E-04-5.98649E-15
 -1       798 2.87872E-03 3.05054E-04-4.97450E-15
 -1       799 3.73667E-03 3.40750E-04-8.27871E-15
 -1       800 4.03828E-03 3.80065E-04-9.55737E-15
 -1       801 4.36049E-03 4.47455E-04-1.09271E-14
 -1       802 8.32539E-03 1.77052E-04-3.03897E-14
 -1       803 3.76814E-03 7.88666E-05-1.15180E-14
 -1       804 8.28831E-03 5.66927E-04-3.05267E-14
 -1       805 8.59427E-03 5.54041E-04-3.30772E-14
 -1       806 8.88720E-03 5.61735E-04-3.57105E-14
 -1       807 9.17346E-03 5.82893E-04-3.84217E-14
 -1       808 9.45686E-03 6.12976E-04-4.12076E-14
 -1       809 9.73943E-03 6.48776E-04-4.40628E-14
 -1       810 1.00221E-02 6.87978E-04-4.69817E-14
 -1       811 1.03053E-02 7.28917E-04-4.99632E-14
 -1       812 1.05891E-02 7.70440E-04-5.30097E-14
 -1       813 1.08734E-02 8.11788E-04-5.61216E-14
 -1       814 1.11582E-02 8.52498E-04-5.93026E-14
 -1       815 1.14432E-02 8.92323E-04-6.25444E-14
 -1       816 1.17285E-02 9.31167E-04-6.58429E-14
 -1       817 1.20140E-02 9.69033E-04-6.92061E-14
 -1       818 1.22996E-02 1.00598E-03-7.26350E-14
 -1       819 1.25852E-02 1.04212E-03-7.61205E-14
 -1       820 1.28709E-02 1.07755E-03-7.96591E-14
 -1       821 1.31566E-02 1.11238E-03-8.32439E-14
 -1       822 1.34424E-02 1.14674E-03-8.68547E-14
 -1       823 1.37281E-02 1.18073E-03-9.04946E-14
 -1       824 1.40138E-02 1.21442E-03-9.41544E-14
 -1       825 1.41869E-02 1.22651E-03-9.64532E-14
 -1       826 7.66906E-03-9.72913E-05-2.83471E-14
 -1       827 1.11921E-03 5.09523E-05-1.02690E-15
 -1       828 1.38629E-02 5.92349E-04-9.73767E-14
 -1       829 8.39455E-03 3.64755E-04-2.97844E-14
 -1       830 1.39585E-02 8.42746E-04-9.66379E-14
 -1       831 6.78618E-03-5.78812E-04-2.45579E-14
 -1       832 1.38948E-02 6.76337E-04-9.71322E-14
 -1       833 7.95969E-03 6.10392E-04-2.80640E-14
 -1       834 3.44641E-03 3.19227E-04-7.08909E-15
 -1       835 2.02877E-03 2.99061E-04-2.49033E-15
 -1       836 5.12932E-03 7.68980E-04-1.37182E-14
 -1       837 1.50697E-03-2.47166E-04-1.73569E-15
 -1       838 3.90862E-03 1.87988E-04-1.13057E-14
 -1       839 8.00652E-03 5.36123E-05-2.95584E-14
 -1       840 3.92828E-03 1.90910E-05-1.19557E-14
 -1       841 8.51222E-03 2.40853E-04-3.08105E-14
 -1       842 1.39266E-02 7.59557E-04-9.68887E-14
 -1       843 7.83863E-03 5.94657E-04-2.69599E-14
 -1       844 7.22731E-03-3.31772E-04-2.66174E-14
 -1       845 1.24853E-03 2.66388E-04-9.45841E-16
 -1       846 1.11675E-03 2.21735E-06-1.05411E-15
 -1       847 4.39880E-03 3.95756E-04-1.18480E-14
 -1       848 1.39908E-02 9.26647E-04-9.63747E-14
 -1       849 4.44052E-03-1.87927E-04-1.33148E-14
 -1       850 1.14060E-03-1.51630E-04-1.08806E-15
 -1       851 1.14029E-03 1.55107E-04-9.45848E-16
 -1       852 1.40556E-02 1.09422E-03-9.58155E-14
 -1       853 8.57666E-03 3.38040E-04-3.14055E-14
 -1       854 5.20560E-03-6.17944E-04-1.58211E-14
 -1       855 6.60622E-03-6.65046E-04-2.35583E-14
 -1       856 2.31284E-03 3.03030E-04-3.22476E-15
 -1       857 2.59608E-03 3.04121E-04-4.05335E-15
 -1       858 1.74398E-03 2.89668E-04-1.85142E-15
 -1       859 3.66325E-03 9.63542E-05-1.07099E-14
 -1       860 1.12699E-03 1.01140E-04-9.91472E-16
 -1       861 1.40231E-02 1.01040E-03-9.61040E-14
 -1       862 1.49646E-03 2.82223E-04-1.35965E-15
 -1       863 1.12758E-03-9.72954E-05-1.08497E-15
 -1       864 4.84316E-03-3.87049E-04-1.45572E-14
 -1       865 8.62868E-03 2.75630E-04-3.18647E-14
 -1       866 1.13361E-03-2.06811E-04-1.03948E-15
 -1       867 4.05290E-03-4.12721E-05-1.21266E-14
 -1       868 4.01475E-03 2.44844E-04-1.10590E-14
 -1       869 3.74968E-03 1.50499E-04-1.06980E-14
 -1       870 2.18857E-03-2.05049E-04-3.54984E-15
 -1       871 2.46892E-03-2.04646E-04-4.44159E-15
 -1       872 2.74881E-03-2.02402E-04-5.42751E-15
 -1       873 3.02922E-03-2.00152E-04-6.50930E-15
 -1       874 3.31206E-03-2.00115E-04-7.68316E-15
 -1       875 3.60069E-03-2.05397E-04-8.94649E-15
 -1       876 3.90025E-03-2.20881E-04-1.02985E-14
 -1       877 4.21782E-03-2.54843E-04-1.17372E-14
 -1       878 7.65709E-03-1.66035E-04-2.93443E-14
 -1       879 7.99335E-03-7.50625E-05-3.18308E-14
 -1       880 8.30502E-03-1.25059E-05-3.44008E-14
 -1       881 8.59997E-03 3.33862E-05-3.70547E-14
 -1       882 8.88493E-03 6.96870E-05-3.97900E-14
 -1       883 9.16460E-03 1.00444E-04-4.26024E-14
 -1       884 9.44199E-03 1.28020E-04-4.54809E-14
 -1       885 9.71890E-03 1.53894E-04-4.84216E-14
 -1       886 9.99633E-03 1.79043E-04-5.14200E-14
 -1       887 1.02748E-02 2.04122E-04-5.44834E-14
 -1       888 1.05544E-02 2.29564E-04-5.76075E-14
 -1       889 1.08352E-02 2.55635E-04-6.07872E-14
 -1       890 1.11171E-02 2.82480E-04-6.40182E-14
 -1       891 1.13999E-02 3.10150E-04-6.72940E-14
 -1       892 1.16834E-02 3.38631E-04-7.06175E-14
 -1       893 1.19676E-02 3.67870E-04-7.39900E-14
 -1       894 1.22522E-02 3.97787E-04-7.74101E-14
 -1       895 1.25372E-02 4.28293E-04-8.08806E-14
 -1       896 1.28224E-02 4.59296E-04-8.43954E-14
 -1       897 1.31078E-02 4.90706E-04-8.79549E-14
 -1       898 1.33934E-02 5.22440E-04-9.15500E-14
 -1       899 1.36281E-02 5.57318E-04-9.44530E-14
 -1       900 2.96123E-03 2.40668E-04-5.62684E-15
 -1       901 4.04835E-03 3.04163E-04-1.04372E-14
 -1       902 3.76901E-03 2.70936E-04-9.10311E-15
 -1       903 8.80498E-03 4.79445E-04-3.46986E-14
 -1       904 3.72571E-03 3.39893E-05-1.08073E-14
 -1       905 8.53270E-03 4.67948E-04-3.21010E-14
 -1       906 9.34135E-03 5.31273E-04-4.01308E-14
 -1       907 9.61132E-03 5.65674E-04-4.29579E-14
 -1       908 9.88378E-03 6.03217E-04-4.58515E-14
 -1       909 1.01588E-02 6.42586E-04-4.88039E-14
 -1       910 1.04361E-02 6.82783E-04-5.18180E-14
 -1       911 1.07154E-02 7.23090E-04-5.48997E-14
 -1       912 1.09963E-02 7.63030E-04-5.80468E-14
 -1       913 1.12784E-02 8.02313E-04-6.12567E-14
 -1       914 1.15616E-02 8.40793E-04-6.45234E-14
 -1       915 1.18455E-02 8.78429E-04-6.78461E-14
 -1       916 1.21299E-02 9.15245E-04-7.12359E-14
 -1       917 1.24148E-02 9.51309E-04-7.46828E-14
 -1       918 1.26999E-02 9.86711E-04-7.81825E-14
 -1       919 1.29853E-02 1.02155E-03-8.17352E-14
 -1       920 1.32708E-02 1.05591E-03-8.53248E-14
 -1       921 1.35564E-02 1.08991E-03-8.89462E-14
 -1       922 1.38421E-02 1.12361E-03-9.25925E-14
 -1       923 1.36601E-02 6.41169E-04-9.42158E-14
 -1       924 1.41212E-02 1.16033E-03-9.61367E-14
 -1       925 9.07321E-03 5.01722E-04-3.73766E-14
 -1       926 8.28059E-03 1.19149E-04-3.16019E-14
 -1       927 1.11959E-03-4.65982E-05-1.07338E-15
 -1       928 1.90753E-03-2.01944E-04-2.75412E-15
 -1       929 1.62613E-03-1.93733E-04-2.05588E-15
 -1       930 7.97776E-03-3.66816E-06-3.04701E-14
 -1       931 1.37321E-03-1.44033E-04-1.53445E-15
 -1       932 8.52440E-03 2.13900E-04-3.21683E-14
 -1       933 1.40460E-03 2.29935E-04-1.29102E-15
 -1       934 1.37273E-02 8.56210E-04-9.33527E-14
 -1       935 4.59480E-03-3.07362E-04-1.35097E-14
 -1       936 8.71637E-03 3.18462E-04-3.29443E-14
 -1       937 3.82127E-03 1.92740E-04-1.04645E-14
 -1       938 2.13698E-03 2.37572E-04-2.96096E-15
 -1       939 2.68938E-03 2.39855E-04-4.64626E-15
 -1       940 1.85721E-03 2.31976E-04-2.25828E-15
 -1       941 3.49865E-03 2.53138E-04-7.85746E-15
 -1       942 3.81214E-03-1.03763E-05-1.09701E-14
 -1       943 3.58074E-03 5.92761E-05-1.00296E-14
 -1       944 1.36918E-02 7.24225E-04-9.39692E-14
 -1       945 1.37710E-02 1.03327E-03-9.24187E-14
 -1       946 4.16998E-03-1.21691E-04-1.21866E-14
 -1       947 3.23050E-03 2.44223E-04-6.69796E-15
 -1       948 3.60557E-03 1.18158E-04-1.00285E-14
 -1       949 1.35877E-03 8.49067E-05-1.43325E-15
 -1       950 1.37096E-02 7.90228E-04-9.36618E-14
 -1       951 8.68191E-03 2.56263E-04-3.32501E-14
 -1       952 8.67544E-03 4.05335E-04-3.30409E-14
 -1       953 1.35236E-03 2.99615E-05-1.47452E-15
 -1       954 1.35276E-03-2.42008E-05-1.50536E-15
 -1       955 2.57335E-03-1.38531E-04-4.90205E-15
 -1       956 2.84512E-03-1.33546E-04-5.92823E-15
 -1       957 3.11551E-03-1.27917E-04-7.04723E-15
 -1       958 3.38617E-03-1.23102E-04-8.25513E-15
 -1       959 3.66050E-03-1.21887E-04-9.55127E-15
 -1       960 2.41456E-03 2.39525E-04-3.75744E-15
 -1       961 8.28296E-03 5.93185E-05-3.29410E-14
 -1       962 8.56258E-03 9.74416E-05-3.55493E-14
 -1       963 8.83322E-03 1.27872E-04-3.82417E-14
 -1       964 9.10061E-03 1.54981E-04-4.10137E-14
 -1       965 9.36770E-03 1.80650E-04-4.38566E-14
 -1       966 9.63607E-03 2.05845E-04-4.67628E-14
 -1       967 9.90648E-03 2.31091E-04-4.97267E-14
 -1       968 1.01792E-02 2.56704E-04-5.27521E-14
 -1       969 1.04542E-02 2.82881E-04-5.58397E-14
 -1       970 1.07313E-02 3.09741E-04-5.89883E-14
 -1       971 1.10103E-02 3.37337E-04-6.21915E-14
 -1       972 1.12909E-02 3.65676E-04-6.54423E-14
 -1       973 1.15727E-02 3.94724E-04-6.87379E-14
 -1       974 1.18556E-02 4.24425E-04-7.20824E-14
 -1       975 1.21393E-02 4.54708E-04-7.54807E-14
 -1       976 1.24236E-02 4.85496E-04-7.89257E-14
 -1       977 1.27084E-02 5.16713E-04-8.24180E-14
 -1       978 1.29935E-02 5.48283E-04-8.59589E-14
 -1       979 1.32788E-02 5.80136E-04-8.95382E-14
 -1       980 1.34694E-02 6.10597E-04-9.18721E-14
 -1       981 1.42924E-03 1.64562E-04-1.45742E-15
 -1       982 8.98456E-03 4.26889E-04-3.63241E-14
 -1       983 9.75064E-03 5.24227E-04-4.47131E-14
 -1       984 9.48954E-03 4.88879E-04-4.18450E-14
 -1       985 1.02868E-02 5.99487E-04-5.06265E-14
 -1       986 1.05605E-02 6.38038E-04-5.36731E-14
 -1       987 1.08370E-02 6.76545E-04-5.67896E-14
 -1       988 1.11158E-02 7.14698E-04-5.99676E-14
 -1       989 1.13964E-02 7.52311E-04-6.32041E-14
 -1       990 1.16783E-02 7.89295E-04-6.64956E-14
 -1       991 1.19613E-02 8.25630E-04-6.98494E-14
 -1       992 1.22452E-02 8.61347E-04-7.32588E-14
 -1       993 1.25296E-02 8.96502E-04-7.67236E-14
 -1       994 1.28145E-02 9.31166E-04-8.02385E-14
 -1       995 1.30996E-02 9.65416E-04-8.38008E-14
 -1       996 1.33850E-02 9.99327E-04-8.74002E-14
 -1       997 1.37596E-02 9.39749E-04-9.30821E-14
 -1       998 1.63150E-03 2.33703E-04-1.74072E-15
 -1       999 9.23401E-03 4.56149E-04-3.90458E-14
 -1      1000 3.80299E-03 2.30372E-04-9.77669E-15
 -1      1001 2.02361E-03-1.42287E-04-3.13040E-15
 -1      1002 1.35984E-03-7.95293E-05-1.52628E-15
 -1      1003 8.54648E-03 1.71716E-04-3.37510E-14
 -1      1004 2.29950E-03-1.41769E-04-3.96962E-15
 -1      1005 1.00166E-02 5.61346E-04-4.76402E-14
 -1      1006 1.74630E-03-1.39114E-04-2.38672E-15
 -1      1007 2.77980E-03 1.80462E-04-5.25870E-15
 -1      1008 3.63915E-03 1.50958E-04-9.81095E-15
 -1      1009 8.73105E-03 2.25180E-04-3.48682E-14
 -1      1010 3.94515E-03-1.28911E-04-1.09339E-14
 -1      1011 2.24479E-03 1.78690E-04-3.45394E-15
 -1      1012 1.97088E-03 1.75436E-04-2.68973E-15
 -1      1013 1.35012E-02 6.93497E-04-9.16251E-14
 -1      1014 3.55091E-03 2.14774E-04-8.48663E-15
 -1      1015 3.57121E-03 8.10421E-06-9.72510E-15
 -1      1016 1.62657E-03 1.24803E-04-1.94623E-15
 -1      1017 1.34962E-02 8.69339E-04-9.00704E-14
 -1      1018 8.81177E-03 2.99926E-04-3.43586E-14
 -1      1019 1.34406E-02 9.34370E-04-8.87384E-14
 -1      1020 3.48402E-03 8.36218E-05-9.37851E-15
 -1      1021 1.34784E-02 8.03555E-04-9.03897E-14
 -1      1022 1.61434E-03 6.47116E-05-2.00620E-15
 -1      1023 3.03883E-03 1.81872E-04-6.29798E-15
 -1      1024 8.90646E-03 3.57878E-04-3.53464E-14
 -1      1025 9.13436E-03 3.85347E-04-3.80367E-14
 -1      1026 3.59882E-03 1.80727E-04-9.14108E-15
 -1      1027 2.93887E-03-6.75985E-05-6.42741E-15
 -1      1028 3.19572E-03-5.86562E-05-7.58043E-15
 -1      1029 3.44850E-03-4.86878E-05-8.82222E-15
 -1      1030 2.51481E-03 1.79876E-04-4.31050E-15
 -1      1031 1.09544E-02 6.29841E-04-5.86799E-14
 -1      1032 9.04394E-03 2.05773E-04-3.94253E-14
 -1      1033 9.29793E-03 2.29339E-04-4.22296E-14
 -1      1034 9.55619E-03 2.53862E-04-4.51011E-14
 -1      1035 9.81871E-03 2.79376E-04-4.80332E-14
 -1      1036 1.00852E-02 3.05805E-04-5.10245E-14
 -1      1037 1.03553E-02 3.33073E-04-5.40750E-14
 -1      1038 1.06286E-02 3.61114E-04-5.71876E-14
 -1      1039 1.09045E-02 3.89861E-04-6.03570E-14
 -1      1040 1.11827E-02 4.19255E-04-6.35806E-14
 -1      1041 1.14627E-02 4.49225E-04-6.68511E-14
 -1      1042 1.17442E-02 4.79704E-04-7.01698E-14
 -1      1043 1.20269E-02 5.10624E-04-7.35419E-14
 -1      1044 1.23104E-02 5.41924E-04-7.69702E-14
 -1      1045 1.25947E-02 5.73540E-04-8.04419E-14
 -1      1046 1.28794E-02 6.05418E-04-8.39604E-14
 -1      1047 1.31645E-02 6.37506E-04-8.75228E-14
 -1      1048 1.33328E-02 6.65459E-04-8.95695E-14
 -1      1049 9.61870E-03 4.51315E-04-4.35643E-14
 -1      1050 1.73859E-03 1.76788E-04-2.10614E-15
 -1      1051 3.43944E-03 3.99949E-05-9.09307E-15
 -1      1052 2.41128E-03-8.01837E-05-4.39280E-15
 -1      1053 1.06791E-02 5.93407E-04-5.55345E-14
 -1      1054 1.04070E-02 5.56971E-04-5.24481E-14
 -1      1055 1.12323E-02 6.66066E-04-6.18862E-14
 -1      1056 1.15121E-02 7.01945E-04-6.51484E-14
 -1      1057 1.17936E-02 7.37417E-04-6.84697E-14
 -1      1058 1.20762E-02 7.72469E-04-7.18481E-14
 -1      1059 1.23598E-02 8.07118E-04-7.52767E-14
 -1      1060 1.26441E-02 8.41404E-04-7.87568E-14
 -1      1061 1.29288E-02 8.75374E-04-8.22852E-14
 -1      1062 1.31846E-02 9.04964E-04-8.54958E-14
 -1      1063 1.72972E-03-7.55738E-05-2.36653E-15
 -1      1064 3.29110E-03 1.85495E-04-7.42601E-15
 -1      1065 1.34898E-02 7.48561E-04-9.10105E-14
 -1      1066 9.37164E-03 4.17167E-04-4.07646E-14
 -1      1067 2.14130E-03-8.32291E-05-3.51293E-15
 -1      1068 2.67734E-03-7.48798E-05-5.36435E-15
 -1      1069 1.61059E-03 6.20175E-06-2.05235E-15
 -1      1070 1.93590E-03-8.01092E-05-2.91235E-15
 -1      1071 8.77623E-03 1.79473E-04-3.65486E-14
 -1      1072 2.08677E-03 1.20405E-04-3.14472E-15
 -1      1073 3.48326E-03 1.13856E-04-9.17791E-15
 -1      1074 8.89638E-03 2.75716E-04-3.60137E-14
 -1      1075 1.01390E-02 5.20853E-04-4.94283E-14
 -1      1076 2.61712E-03 1.24530E-04-4.88410E-15
 -1      1077 2.35479E-03 1.22799E-04-3.96852E-15
 -1      1078 1.85779E-03 1.23709E-04-2.51033E-15
 -1      1079 9.87579E-03 4.85467E-04-4.64689E-14
 -1      1080 1.32403E-02 8.40264E-04-8.68198E-14
 -1      1081 2.87196E-03 1.26585E-04-5.89038E-15
 -1      1082 1.32225E-02 7.74745E-04-8.71435E-14
 -1      1083 9.22915E-03 2.72972E-04-4.06063E-14
 -1      1084 3.03362E-03-6.36151E-06-6.92329E-15
 -1      1085 3.35689E-03 1.53820E-04-8.03666E-15
 -1      1086 3.24428E-03 1.61349E-05-7.97487E-15
 -1      1087 8.97473E-03 2.47720E-04-3.76940E-14
 -1      1088 1.13462E-02 6.16553E-04-6.38049E-14
 -1      1089 2.26251E-03-2.53111E-05-3.89935E-15
 -1      1090 9.47611E-03 2.97329E-04-4.34363E-14
 -1      1091 9.73044E-03 3.23581E-04-4.63384E-14
 -1      1092 9.99073E-03 3.51228E-04-4.92932E-14
 -1      1093 1.02560E-02 3.79982E-04-5.23107E-14
 -1      1094 1.05256E-02 4.09601E-04-5.53902E-14
 -1      1095 1.07986E-02 4.39897E-04-5.85260E-14
 -1      1096 1.10745E-02 4.70718E-04-6.17170E-14
 -1      1097 1.13528E-02 5.01980E-04-6.49623E-14
 -1      1098 1.16330E-02 5.33563E-04-6.82566E-14
 -1      1099 1.19147E-02 5.65398E-04-7.16030E-14
 -1      1100 1.21975E-02 5.97453E-04-7.50085E-14
 -1      1101 1.24812E-02 6.29671E-04-7.84625E-14
 -1      1102 1.27655E-02 6.62024E-04-8.19576E-14
 -1      1103 1.81449E-03 4.01861E-06-2.56046E-15
 -1      1104 1.07930E-02 5.47852E-04-5.73938E-14
 -1      1105 2.78385E-03-1.47304E-05-5.82483E-15
 -1      1106 9.02663E-03 3.28431E-04-3.70300E-14
 -1      1107 1.10683E-02 5.82198E-04-6.05703E-14
 -1      1108 1.05208E-02 5.13631E-04-5.42766E-14
 -1      1109 1.16262E-02 6.50791E-04-6.70933E-14
 -1      1110 1.19077E-02 6.84845E-04-7.04381E-14
 -1      1111 1.21904E-02 7.18714E-04-7.38351E-14
 -1      1112 1.24740E-02 7.52390E-04-7.72834E-14
 -1      1113 1.27582E-02 7.85901E-04-8.07817E-14
 -1      1114 2.52628E-03-2.09860E-05-4.81703E-15
 -1      1115 3.29476E-03 6.26721E-05-8.25052E-15
 -1      1116 1.89791E-03 5.89348E-05-2.72569E-15
 -1      1117 3.11729E-03 1.29863E-04-6.98626E-15
 -1      1118 1.02526E-02 4.79787E-04-5.12201E-14
 -1      1119 1.29837E-02 7.76304E-04-8.38977E-14
 -1      1120 9.25301E-03 3.56363E-04-3.97274E-14
 -1      1121 3.28350E-03 9.55834E-05-8.06688E-15
 -1      1122 1.33214E-02 7.20404E-04-8.89541E-14
 -1      1123 2.06109E-03-2.37622E-05-3.26789E-15
 -1      1124 1.30503E-02 6.94478E-04-8.54989E-14
 -1      1125 2.47058E-03 6.97631E-05-4.50447E-15
 -1      1126 9.73206E-03 4.14569E-04-4.52862E-14
 -1      1127 2.20755E-03 6.69118E-05-3.62218E-15
 -1      1128 9.48797E-03 3.84467E-04-4.24740E-14
 -1      1129 2.72646E-03 7.32822E-05-5.47669E-15
 -1      1130 9.14119E-03 3.08341E-04-3.88461E-14
 -1      1131 1.11798E-02 5.33132E-04-6.24580E-14
 -1      1132 3.08986E-03 4.25324E-05-7.18824E-15
 -1      1133 9.98930E-03 4.46636E-04-4.82222E-14
 -1      1134 3.01335E-03 8.33510E-05-6.71363E-15
 -1      1135 1.15214E-02 5.85936E-04-6.63418E-14
 -1      1136 1.27302E-02 7.03715E-04-8.11278E-14
 -1      1137 0.00000E+00 0.00000E+00 0.00000E+00
 -1      1138 0.00000E+00 0.00000E+00 0.00000E+00
 -1      1139 0.00000E+00 0.00000E+00 0.00000E+00
 -1      1140 0.00000E+00 0.00000E+00 0.00000E+00
 -1      1141 0.00000E+00 0.00000E+00 0.00000E+00
 -1      1142 0.00000E+00 0.00000E+00 0.00000E+00
 -1      1143 0.00000E+00 0.00000E+00 0.00000E+00
 -1      1144 0.00000E+00 0.00000E+00 0.00000E+00
 -1      1145 0.00000E+00 0.00000E+00 0.00000E+00
 -1      1146 0.00000E+00 0.00000E+00 0.00000E+00
 -1      1147 0.00000E+00 0.00000E+00 0.00000E+00
 -1      1148 0.00000E+00 0.00000E+00 0.00000E+00
 -1      1149 0.00000E+00 0.00000E+00 0.00000E+00
 -1      1150 0.00000E+00 0.00000E+00 0.00000E+00
 -1      1151 0.00000E+00 0.00000E+00 0.00000E+00
 -1      1152 0.00000E+00 0.00000E+00 0.00000E+00
 -1      1153 0.00000E+00 0.00000E+00 0.00000E+00
 -1      1154 2.09937E-04-1.45929E-04 6.93889E-18
 -1      1155 5.48924E-04-3.28628E-04-5.49284E-17
 -1      1156 8.32433E-04-4.42678E-04-2.26205E-16
 -1      1157 1.10590E-03-5.16672E-04-5.23466E-16
 -1      1158 1.37755E-03-5.66142E-04-9.39570E-16
 -1      1159 1.65142E-03-5.99182E-04-1.47205E-15
 -1      1160 1.93006E-03-6.20854E-04-2.11821E-15
 -1      1161 2.21514E-03-6.35011E-04-2.87328E-15
 -1      1162 2.50786E-03-6.45082E-04-3.73531E-15
 -1      1163 2.80907E-03-6.54446E-04-4.70728E-15
 -1      1164 3.11917E-03-6.66635E-04-5.78792E-15
 -1      1165 3.43790E-03-6.85388E-04-6.97133E-15
 -1      1166 3.76397E-03-7.14480E-04-8.25276E-15
 -1      1167 4.09465E-03-7.57178E-04-9.63259E-15
 -1      1168 4.42542E-03-8.15189E-04-1.11053E-14
 -1      1169 4.75013E-03-8.87095E-04-1.26670E-14
 -1      1170 5.06197E-03-9.66719E-04-1.43247E-14
 -1      1171 5.35559E-03-1.04240E-03-1.60785E-14
 -1      1172 5.62978E-03-1.09856E-03-1.79287E-14
 -1      1173 5.88931E-03-1.12007E-03-1.98762E-14
 -1      1174 6.14437E-03-1.09802E-03-2.19249E-14
 -1      1175 6.40695E-03-1.03363E-03-2.40775E-14
 -1      1176 6.68628E-03-9.37711E-04-2.63332E-14
 -1      1177 6.98580E-03-8.26029E-04-2.86917E-14
 -1      1178 7.30324E-03-7.13636E-04-3.11525E-14
 -1      1179 7.63285E-03-6.11104E-04-3.37076E-14
 -1      1180 7.96804E-03-5.23611E-04-3.63493E-14
 -1      1181 8.30320E-03-4.52005E-04-3.90729E-14
 -1      1182 8.63449E-03-3.94526E-04-4.18825E-14
 -1      1183 8.95978E-03-3.48296E-04-4.47673E-14
 -1      1184 9.27834E-03-3.10294E-04-4.77102E-14
 -1      1185 9.59029E-03-2.77858E-04-5.07052E-14
 -1      1186 9.89630E-03-2.48865E-04-5.37549E-14
 -1      1187 1.01972E-02-2.21742E-04-5.68705E-14
 -1      1188 1.04940E-02-1.95386E-04-6.00511E-14
 -1      1189 1.07875E-02-1.69073E-04-6.32861E-14
 -1      1190 1.10786E-02-1.42360E-04-6.65674E-14
 -1      1191 1.13677E-02-1.15007E-04-6.98959E-14
 -1      1192 1.16555E-02-8.69126E-05-7.32609E-14
 -1      1193 1.19423E-02-5.80658E-05-7.66686E-14
 -1      1194 1.22285E-02-2.85113E-05-8.01321E-14
 -1      1195 1.25143E-02 1.67536E-06-8.36553E-14
 -1      1196 1.27998E-02 3.24038E-05-8.72315E-14
 -1      1197 1.30853E-02 6.35794E-05-9.08515E-14
 -1      1198 1.33707E-02 9.51095E-05-9.45072E-14
 -1      1199 1.36561E-02 1.26906E-04-9.81786E-14
 -1      1200 1.39416E-02 1.58886E-04-1.01860E-13
 -1      1201 1.42272E-02 1.90972E-04-1.05550E-13
 -1      1202 1.45128E-02 2.23092E-04-1.09259E-13
 -1      1203 1.47914E-02 2.54386E-04-1.12904E-13
 -1      1204 2.26401E-04 1.58077E-04 3.20382E-17
 -1      1205 5.50871E-04 3.32898E-04 3.82046E-17
 -1      1206 8.33137E-04 4.44236E-04-3.86789E-17
 -1      1207 1.10661E-03 5.17317E-04-2.13303E-16
 -1      1208 1.37845E-03 5.66119E-04-4.89233E-16
 -1      1209 1.65284E-03 5.98285E-04-8.65763E-16
 -1      1210 1.93249E-03 6.18710E-04-1.34456E-15
 -1      1211 2.21944E-03 6.31168E-04-1.92228E-15
 -1      1212 2.51547E-03 6.39086E-04-2.59939E-15
 -1      1213 2.82226E-03 6.46014E-04-3.37553E-15
 -1      1214 3.14139E-03 6.56016E-04-4.25124E-15
 -1      1215 3.47412E-03 6.74013E-04-5.22188E-15
 -1      1216 3.82081E-03 7.05984E-04-6.28355E-15
 -1      1217 4.18003E-03 7.58746E-04-7.43259E-15
 -1      1218 4.54740E-03 8.38812E-04-8.67547E-15
 -1      1219 4.91449E-03 9.49670E-04-1.00182E-14
 -1      1220 5.26901E-03 1.08730E-03-1.14580E-14
 -1      1221 5.59783E-03 1.23557E-03-1.29942E-14
 -1      1222 5.89343E-03 1.36576E-03-1.46400E-14
 -1      1223 6.16096E-03 1.44490E-03-1.64011E-14
 -1      1224 6.41934E-03 1.45165E-03-1.82745E-14
 -1      1225 6.69252E-03 1.38904E-03-2.02761E-14
 -1      1226 6.99681E-03 1.28264E-03-2.24049E-14
 -1      1227 7.33417E-03 1.16587E-03-2.46498E-14
 -1      1228 7.69520E-03 1.06508E-03-2.70025E-14
 -1      1229 8.06657E-03 9.93381E-04-2.94602E-14
 -1      1230 8.43688E-03 9.52699E-04-3.20085E-14
 -1      1231 8.79889E-03 9.38755E-04-3.46407E-14
 -1      1232 9.14925E-03 9.45189E-04-3.73511E-14
 -1      1233 9.48733E-03 9.65890E-04-4.01331E-14
 -1      1234 9.81404E-03 9.95901E-04-4.29847E-14
 -1      1235 1.01310E-02 1.03156E-03-4.59057E-14
 -1      1236 1.04398E-02 1.07030E-03-4.88882E-14
 -1      1237 1.07424E-02 1.11044E-03-5.19392E-14
 -1      1238 1.10400E-02 1.15089E-03-5.50680E-14
 -1      1239 1.13339E-02 1.19101E-03-5.82721E-14
 -1      1240 1.16250E-02 1.23045E-03-6.15469E-14
 -1      1241 1.19142E-02 1.26904E-03-6.49027E-14
 -1      1242 1.22020E-02 1.30675E-03-6.83373E-14
 -1      1243 1.24888E-02 1.34361E-03-7.18305E-14
 -1      1244 1.27749E-02 1.37970E-03-7.53724E-14
 -1      1245 1.30607E-02 1.41512E-03-7.89782E-14
 -1      1246 1.33462E-02 1.44997E-03-8.26256E-14
 -1      1247 1.36316E-02 1.48437E-03-8.62965E-14
 -1      1248 1.39170E-02 1.51840E-03-8.99805E-14
 -1      1249 1.42024E-02 1.55216E-03-9.36733E-14
 -1      1250 1.44879E-02 1.58573E-03-9.73763E-14
 -1      1251 1.47735E-02 1.61920E-03-1.01095E-13
 -1      1252 1.50591E-02 1.65263E-03-1.04828E-13
 -1      1253 1.53377E-02 1.68525E-03-1.08476E-13
 -1      1254 1.54569E-02 1.65902E-03-1.10404E-13
 -1      1255 1.54240E-02 1.57472E-03-1.10722E-13
 -1      1256 1.53910E-02 1.49037E-03-1.11036E-13
 -1      1257 1.53580E-02 1.40595E-03-1.11311E-13
 -1      1258 1.53252E-02 1.32147E-03-1.11580E-13
 -1      1259 1.52927E-02 1.23767E-03-1.11838E-13
 -1      1260 1.52603E-02 1.15382E-03-1.12097E-13
 -1      1261 1.52279E-02 1.06925E-03-1.12342E-13
 -1      1262 1.51956E-02 9.84663E-04-1.12590E-13
 -1      1263 1.51634E-02 9.00079E-04-1.12833E-13
 -1      1264 1.51314E-02 8.15505E-04-1.13083E-13
 -1      1265 1.50999E-02 7.31668E-04-1.13347E-13
 -1      1266 1.50684E-02 6.47863E-04-1.13613E-13
 -1      1267 1.50368E-02 5.63391E-04-1.13878E-13
 -1      1268 1.50053E-02 4.78979E-04-1.14129E-13
 -1      1269 1.49738E-02 3.94632E-04-1.14366E-13
 -1      1270 1.49426E-02 3.11048E-04-1.14587E-13
 -1      1271 8.36519E-03 2.92597E-04-2.41260E-14
 -1      1272 8.26539E-03 4.41136E-04-2.37837E-14
 -1      1273 8.06745E-03 5.89839E-04-2.32471E-14
 -1      1274 7.79269E-03 7.35768E-04-2.25673E-14
 -1      1275 7.45145E-03 8.75818E-04-2.17541E-14
 -1      1276 7.06908E-03 9.93044E-04-2.08644E-14
 -1      1277 6.64689E-03 1.07351E-03-1.99026E-14
 -1      1278 6.19267E-03 1.10080E-03-1.89046E-14
 -1      1279 5.75083E-03 1.06679E-03-1.79819E-14
 -1      1280 5.31444E-03 9.75210E-04-1.71364E-14
 -1      1281 4.90448E-03 8.43410E-04-1.64084E-14
 -1      1282 4.52464E-03 6.81760E-04-1.57974E-14
 -1      1283 4.20534E-03 5.07174E-04-1.53408E-14
 -1      1284 3.99998E-03 3.48009E-04-1.51000E-14
 -1      1285 3.90175E-03 1.96545E-04-1.50511E-14
 -1      1286 3.91591E-03 4.88078E-05-1.51876E-14
 -1      1287 4.03695E-03-9.42236E-05-1.54904E-14
 -1      1288 4.24934E-03-2.36268E-04-1.59400E-14
 -1      1289 4.57334E-03-3.90156E-04-1.66060E-14
 -1      1290 4.96714E-03-5.30321E-04-1.74337E-14
 -1      1291 5.35607E-03-6.26910E-04-1.82729E-14
 -1      1292 5.76890E-03-6.82965E-04-1.91782E-14
 -1      1293 6.19265E-03-6.89247E-04-2.01175E-14
 -1      1294 6.60332E-03-6.46225E-04-2.10198E-14
 -1      1295 7.00318E-03-5.57994E-04-2.18724E-14
 -1      1296 7.38417E-03-4.36929E-04-2.26472E-14
 -1      1297 7.72806E-03-2.96374E-04-2.33002E-14
 -1      1298 8.02075E-03-1.45743E-04-2.38015E-14
 -1      1299 8.23386E-03 2.68331E-06-2.41138E-14
 -1      1300 8.35213E-03 1.47087E-04-2.42314E-14
 -1      1301 1.66337E-04-1.08082E-04-1.00289E-17
 -1      1302 1.13142E-04-5.45795E-05-2.80673E-17
 -1      1303 1.18020E-04-6.54252E-05-2.29715E-17
 -1      1304 1.09079E-04-4.06320E-05-3.62259E-17
 -1      1305 1.10942E-04-4.69148E-05-3.38678E-17
 -1      1306 2.27743E-04-1.02325E-04-7.99328E-17
 -1      1307 1.07323E-04-3.05639E-05-4.00748E-17
 -1      1308 1.08272E-04-3.53139E-05-3.90177E-17
 -1      1309 2.20414E-04-7.65490E-05-9.38919E-17
 -1      1310 1.06262E-04-2.24401E-05-4.20535E-17
 -1      1311 1.06842E-04-2.63492E-05-4.16740E-17
 -1      1312 2.16673E-04-5.72691E-05-1.01061E-16
 -1      1313 1.05560E-04-1.56273E-05-4.25007E-17
 -1      1314 1.05941E-04-1.89330E-05-4.25278E-17
 -1      1315 2.14343E-04-4.16659E-05-1.04192E-16
 -1      1316 1.05082E-04-9.50216E-06-4.25685E-17
 -1      1317 1.05328E-04-1.25020E-05-4.27447E-17
 -1      1318 2.12757E-04-2.82848E-05-1.05019E-16
 -1      1319 1.04821E-04-3.87584E-06-4.19044E-17
 -1      1320 1.04942E-04-6.66340E-06-4.21619E-17
 -1      1321 2.11725E-04-1.62573E-05-1.04463E-16
 -1      1322 1.04775E-04 1.53537E-06-4.09151E-17
 -1      1323 1.04774E-04-1.18015E-06-4.12268E-17
 -1      1324 2.11212E-04-5.08455E-06-1.02647E-16
 -1      1325 1.04947E-04 7.01118E-06-3.93836E-17
 -1      1326 1.04823E-04 4.22830E-06-3.97767E-17
 -1      1327 2.11213E-04 5.79903E-06-9.97602E-17
 -1      1328 1.05343E-04 1.28408E-05-3.74321E-17
 -1      1329 1.05091E-04 9.84464E-06-3.80555E-17
 -1      1330 2.11735E-04 1.69534E-05-9.58435E-17
 -1      1331 1.05967E-04 1.92203E-05-3.46809E-17
 -1      1332 1.05577E-04 1.59121E-05-3.55347E-17
 -1      1333 2.12781E-04 2.88580E-05-9.06257E-17
 -1      1334 1.06903E-04 2.67401E-05-3.08727E-17
 -1      1335 1.06308E-04 2.28031E-05-3.22686E-17
 -1      1336 2.14410E-04 4.22494E-05-8.35649E-17
 -1      1337 1.08338E-04 3.58378E-05-2.53432E-17
 -1      1338 1.07380E-04 3.10230E-05-2.74981E-17
 -1      1339 2.16818E-04 5.81043E-05-7.38477E-17
 -1      1340 1.10946E-04 4.75981E-05-1.66832E-17
 -1      1341 1.09112E-04 4.12451E-05-2.03288E-17
 -1      1342 2.20569E-04 7.76742E-05-5.96718E-17
 -1      1343 1.17341E-04 6.54385E-05-3.69984E-18
 -1      1344 1.12809E-04 5.53326E-05-9.92045E-18
 -1      1345 2.27773E-04 1.04017E-04-3.92346E-17
 -1      1346 1.56988E-04 1.07765E-04 1.58294E-17
 -1      1347 1.35850E-04 8.38820E-05 4.20128E-18
 -1      1348 2.56953E-04 1.47055E-04-1.51924E-17
 -1      1349 3.34169E-04 2.15431E-04 1.76996E-17
 -1      1350 4.21045E-04-2.54541E-04-6.26669E-17
 -1      1351 5.74696E-04-3.25871E-04-1.21241E-16
 -1      1352 7.22892E-04-3.82632E-04-2.13168E-16
 -1      1353 8.67521E-04-4.28009E-04-3.35479E-16
 -1      1354 6.14402E-04-3.17753E-04-1.96363E-16
 -1      1355 1.00951E-03-4.65102E-04-4.86807E-16
 -1      1356 1.14984E-03-4.95082E-04-6.67543E-16
 -1      1357 9.10676E-04-4.10423E-04-4.47288E-16
 -1      1358 1.28939E-03-5.19801E-04-8.76903E-16
 -1      1359 1.42872E-03-5.39789E-04-1.11583E-15
 -1      1360 1.19792E-03-4.71563E-04-8.13531E-16
 -1      1361 1.56834E-03-5.56112E-04-1.38290E-15
 -1      1362 1.70857E-03-5.69183E-04-1.67814E-15
 -1      1363 1.48183E-03-5.11917E-04-1.29306E-15
 -1      1364 1.84974E-03-5.79668E-04-2.00092E-15
 -1      1365 1.99205E-03-5.87976E-04-2.35136E-15
 -1      1366 1.76610E-03-5.37924E-04-1.88444E-15
 -1      1367 2.13571E-03-5.94597E-04-2.72869E-15
 -1      1368 2.28086E-03-5.99943E-04-3.13264E-15
 -1      1369 2.05318E-03-5.54094E-04-2.58489E-15
 -1      1370 2.42765E-03-6.04447E-04-3.56350E-15
 -1      1371 2.57616E-03-6.08530E-04-4.02122E-15
 -1      1372 2.34465E-03-5.64152E-04-3.39252E-15
 -1      1373 2.72650E-03-6.12633E-04-4.50593E-15
 -1      1374 2.87869E-03-6.17192E-04-5.01712E-15
 -1      1375 2.64160E-03-5.71569E-04-4.30569E-15
 -1      1376 3.03277E-03-6.22694E-04-5.55454E-15
 -1      1377 3.18870E-03-6.29583E-04-6.11874E-15
 -1      1378 2.94469E-03-5.79884E-04-5.32467E-15
 -1      1379 3.34642E-03-6.38405E-04-6.70781E-15
 -1      1380 3.50579E-03-6.49586E-04-7.32076E-15
 -1      1381 3.25413E-03-5.92878E-04-6.44679E-15
 -1      1382 3.66660E-03-6.63696E-04-7.95898E-15
 -1      1383 3.82859E-03-6.81075E-04-8.62167E-15
 -1      1384 3.56954E-03-6.14560E-04-7.66845E-15
 -1      1385 3.99140E-03-7.02220E-04-9.30821E-15
 -1      1386 4.15457E-03-7.27262E-04-1.00183E-14
 -1      1387 3.88975E-03-6.48856E-04-8.98787E-15
 -1      1388 4.31758E-03-7.56426E-04-1.07511E-14
 -1      1389 4.47984E-03-7.89464E-04-1.15070E-14
 -1      1390 4.21263E-03-6.98814E-04-1.04013E-14
 -1      1391 4.64070E-03-8.26054E-04-1.22860E-14
 -1      1392 4.79951E-03-8.65382E-04-1.30875E-14
 -1      1393 4.53503E-03-7.65212E-04-1.19069E-14
 -1      1394 4.95566E-03-9.06326E-04-1.39133E-14
 -1      1395 5.10865E-03-9.47417E-04-1.47639E-14
 -1      1396 4.85303E-03-8.44687E-04-1.35058E-14
 -1      1397 5.25811E-03-9.86713E-04-1.56385E-14
 -1      1398 5.40393E-03-1.02226E-03-1.65364E-14
 -1      1399 5.16277E-03-9.28109E-04-1.52005E-14
 -1      1400 5.54625E-03-1.05171E-03-1.74587E-14
 -1      1401 5.68555E-03-1.07317E-03-1.84062E-14
 -1      1402 5.46187E-03-1.00058E-03-1.69918E-14
 -1      1403 5.82251E-03-1.08472E-03-1.93773E-14
 -1      1404 5.95813E-03-1.08523E-03-2.03741E-14
 -1      1405 5.75097E-03-1.04457E-03-1.88810E-14
 -1      1406 6.09347E-03-1.07409E-03-2.13973E-14
 -1      1407 6.22970E-03-1.05143E-03-2.24470E-14
 -1      1408 6.03435E-03-1.04592E-03-2.08716E-14
 -1      1409 6.36783E-03-1.01825E-03-2.35212E-14
 -1      1410 6.50876E-03-9.75891E-04-2.46214E-14
 -1      1411 6.31872E-03-1.00004E-03-2.29656E-14
 -1      1412 6.65307E-03-9.26462E-04-2.57496E-14
 -1      1413 6.80111E-03-8.71944E-04-2.69014E-14
 -1      1414 6.61044E-03-9.14099E-04-2.51661E-14
 -1      1415 6.95289E-03-8.14653E-04-2.80799E-14
 -1      1416 7.10820E-03-7.56483E-04-2.92840E-14
 -1      1417 6.91307E-03-8.03617E-04-2.74695E-14
 -1      1418 7.26663E-03-6.99213E-04-3.05117E-14
 -1      1419 7.42762E-03-6.44185E-04-3.17640E-14
 -1      1420 7.22651E-03-6.86044E-04-2.98735E-14
 -1      1421 7.59056E-03-5.92338E-04-3.30394E-14
 -1      1422 7.75481E-03-5.44374E-04-3.43367E-14
 -1      1423 7.54798E-03-5.75194E-04-3.23744E-14
 -1      1424 7.91978E-03-5.00488E-04-3.56561E-14
 -1      1425 8.08492E-03-4.60869E-04-3.69962E-14
 -1      1426 7.87365E-03-4.78950E-04-3.49658E-14
 -1      1427 8.24976E-03-4.25244E-04-3.83565E-14
 -1      1428 8.41392E-03-3.93481E-04-3.97373E-14
 -1      1429 8.19984E-03-3.99804E-04-3.76417E-14
 -1      1430 8.57710E-03-3.65105E-04-4.11395E-14
 -1      1431 8.73909E-03-3.39830E-04-4.25619E-14
 -1      1432 8.52378E-03-3.36660E-04-4.04003E-14
 -1      1433 8.89974E-03-3.17159E-04-4.40005E-14
 -1      1434 9.05897E-03-2.96763E-04-4.54545E-14
 -1      1435 8.84369E-03-2.86666E-04-4.32365E-14
 -1      1436 9.21674E-03-2.78215E-04-4.69243E-14
 -1      1437 9.37307E-03-2.61205E-04-4.84082E-14
 -1      1438 9.15873E-03-2.46504E-04-4.61419E-14
 -1      1439 9.52799E-03-2.45406E-04-4.99067E-14
 -1      1440 9.68157E-03-2.30556E-04-5.14172E-14
 -1      1441 9.46870E-03-2.13116E-04-4.91067E-14
 -1      1442 9.83389E-03-2.16425E-04-5.29425E-14
 -1      1443 9.98503E-03-2.02805E-04-5.44834E-14
 -1      1444 9.77389E-03-1.84003E-04-5.21297E-14
 -1      1445 1.01351E-02-1.89547E-04-5.60397E-14
 -1      1446 1.02842E-02-1.76494E-04-5.76128E-14
 -1      1447 1.00748E-02-1.57280E-04-5.52112E-14
 -1      1448 1.04324E-02-1.63560E-04-5.92004E-14
 -1      1449 1.05798E-02-1.50632E-04-6.08018E-14
 -1      1450 1.03721E-02-1.31612E-04-5.83519E-14
 -1      1451 1.07265E-02-1.37664E-04-6.24178E-14
 -1      1452 1.08726E-02-1.24582E-04-6.40441E-14
 -1      1453 1.06664E-02-1.06112E-04-6.15510E-14
 -1      1454 1.10181E-02-1.11369E-04-6.56849E-14
 -1      1455 1.11632E-02-9.79758E-05-6.73363E-14
 -1      1456 1.09583E-02-8.02302E-05-6.48039E-14
 -1      1457 1.13078E-02-8.44045E-05-6.89973E-14
 -1      1458 1.14521E-02-7.06267E-05-7.06737E-14
 -1      1459 1.12484E-02-5.36624E-05-6.81044E-14
 -1      1460 1.15961E-02-5.66546E-05-7.23539E-14
 -1      1461 1.17399E-02-4.24738E-05-7.40432E-14
 -1      1462 1.15370E-02-2.62711E-05-7.14450E-14
 -1      1463 1.18834E-02-2.81020E-05-7.57495E-14
 -1      1464 1.20268E-02-1.35347E-05-7.74676E-14
 -1      1465 1.18246E-02 1.96989E-06-7.48309E-14
 -1      1466 1.21700E-02 1.20873E-06-7.91982E-14
 -1      1467 1.23131E-02 1.61264E-05-8.09418E-14
 -1      1468 1.21115E-02 3.10190E-05-7.82638E-14
 -1      1469 1.24561E-02 3.11991E-05-8.27021E-14
 -1      1470 1.25990E-02 4.64210E-05-8.44768E-14
 -1      1471 1.23978E-02 6.07958E-05-8.17528E-14
 -1      1472 1.27419E-02 6.17740E-05-8.62602E-14
 -1      1473 1.28847E-02 7.72504E-05-8.80547E-14
 -1      1474 1.26838E-02 9.12014E-05-8.52918E-14
 -1      1475 1.30275E-02 9.28337E-05-8.98616E-14
 -1      1476 1.31702E-02 1.08515E-04-9.16792E-14
 -1      1477 1.29696E-02 1.22131E-04-8.88768E-14
 -1      1478 1.33130E-02 1.24280E-04-9.35028E-14
 -1      1479 1.34558E-02 1.40120E-04-9.53322E-14
 -1      1480 1.32553E-02 1.53482E-04-9.25017E-14
 -1      1481 1.35985E-02 1.56021E-04-9.71663E-14
 -1      1482 1.37413E-02 1.71975E-04-9.90011E-14
 -1      1483 1.35409E-02 1.85156E-04-9.61567E-14
 -1      1484 1.38841E-02 1.87970E-04-1.00842E-13
 -1      1485 1.40269E-02 2.03997E-04-1.02685E-13
 -1      1486 1.38265E-02 2.17064E-04-9.98275E-14
 -1      1487 1.41697E-02 2.20046E-04-1.04531E-13
 -1      1488 1.43125E-02 2.36107E-04-1.06381E-13
 -1      1489 1.41121E-02 2.49121E-04-1.03512E-13
 -1      1490 1.44553E-02 2.52172E-04-1.08238E-13
 -1      1491 1.45982E-02 2.68233E-04-1.10100E-13
 -1      1492 1.43978E-02 2.81249E-04-1.07214E-13
 -1      1493 1.48069E-02 2.95816E-04-1.12800E-13
 -1      1494 1.47493E-02 3.24913E-04-1.11771E-13
 -1      1495 6.43026E-04 3.59139E-04-2.14808E-17
 -1      1496 4.92231E-04 2.94698E-04 9.69006E-18
 -1      1497 4.45639E-04 2.57082E-04-1.47045E-17
 -1      1498 9.31479E-04 4.50967E-04-1.54363E-16
 -1      1499 7.88928E-04 4.09594E-04-7.59348E-17
 -1      1500 7.47600E-04 3.73880E-04-1.07837E-16
 -1      1501 1.21143E-03 5.11861E-04-3.84960E-16
 -1      1502 1.07194E-03 4.84482E-04-2.57010E-16
 -1      1503 1.03752E-03 4.50790E-04-2.95526E-16
 -1      1504 1.48965E-03 5.52189E-04-7.15506E-16
 -1      1505 1.35040E-03 5.34185E-04-5.37791E-16
 -1      1506 1.32146E-03 5.01658E-04-5.80929E-16
 -1      1507 1.77016E-03 5.78045E-04-1.14627E-15
 -1      1508 1.62940E-03 5.66642E-04-9.18116E-16
 -1      1509 1.60440E-03 5.34628E-04-9.65414E-16
 -1      1510 2.05558E-03 5.93726E-04-1.67763E-15
 -1      1511 1.91211E-03 5.86913E-04-1.39939E-15
 -1      1512 1.88967E-03 5.54927E-04-1.44984E-15
 -1      1513 2.34787E-03 6.02808E-04-2.30766E-15
 -1      1514 2.20075E-03 5.98852E-04-1.98031E-15
 -1      1515 2.17960E-03 5.66509E-04-2.03377E-15
 -1      1516 2.64871E-03 6.08738E-04-3.03722E-15
 -1      1517 2.49712E-03 6.05909E-04-2.66013E-15
 -1      1518 2.47595E-03 5.72866E-04-2.71648E-15
 -1      1519 2.95961E-03 6.15265E-04-3.86500E-15
 -1      1520 2.80281E-03 6.11633E-04-3.43874E-15
 -1      1521 2.78023E-03 5.77553E-04-3.49737E-15
 -1      1522 3.28180E-03 6.26827E-04-4.78957E-15
 -1      1523 3.11921E-03 6.20077E-04-4.31557E-15
 -1      1524 3.09371E-03 5.84607E-04-4.37528E-15
 -1      1525 3.61597E-03 6.48885E-04-5.80708E-15
 -1      1526 3.44735E-03 6.36163E-04-5.28646E-15
 -1      1527 3.41731E-03 5.98947E-04-5.34772E-15
 -1      1528 3.96173E-03 6.88011E-04-6.91362E-15
 -1      1529 3.78746E-03 6.65931E-04-6.34936E-15
 -1      1530 3.75134E-03 6.26643E-04-6.41094E-15
 -1      1531 4.31680E-03 7.51381E-04-8.11092E-15
 -1      1532 4.13831E-03 7.16379E-04-7.50123E-15
 -1      1533 4.09500E-03 6.74824E-04-7.56472E-15
 -1      1534 4.67623E-03 8.45018E-04-9.40291E-15
 -1      1535 4.49640E-03 7.94415E-04-8.74444E-15
 -1      1536 4.44582E-03 7.50716E-04-8.80956E-15
 -1      1537 5.03205E-03 9.70154E-04-1.07937E-14
 -1      1538 4.85523E-03 9.04199E-04-1.00863E-14
 -1      1539 4.79909E-03 8.59073E-04-1.01506E-14
 -1      1540 5.37440E-03 1.11802E-03-1.22827E-14
 -1      1541 5.20561E-03 1.04257E-03-1.15260E-14
 -1      1542 5.14793E-03 9.97572E-04-1.15893E-14
 -1      1543 5.69489E-03 1.26593E-03-1.38717E-14
 -1      1544 5.53777E-03 1.19396E-03-1.30639E-14
 -1      1545 5.48459E-03 1.15137E-03-1.31285E-14
 -1      1546 5.99182E-03 1.38015E-03-1.55742E-14
 -1      1547 5.84602E-03 1.32925E-03-1.47087E-14
 -1      1548 5.80378E-03 1.29118E-03-1.47734E-14
 -1      1549 6.27374E-03 1.42910E-03-1.73926E-14
 -1      1550 6.13366E-03 1.41374E-03-1.64683E-14
 -1      1551 6.10697E-03 1.38079E-03-1.65312E-14
 -1      1552 6.55712E-03 1.40078E-03-1.93278E-14
 -1      1553 6.41404E-03 1.42383E-03-1.83442E-14
 -1      1554 6.40395E-03 1.39439E-03-1.84069E-14
 -1      1555 6.85770E-03 1.31077E-03-2.13927E-14
 -1      1556 6.70448E-03 1.36146E-03-2.03439E-14
 -1      1557 6.70825E-03 1.33265E-03-2.04069E-14
 -1      1558 7.18273E-03 1.19201E-03-2.35764E-14
 -1      1559 7.01710E-03 1.25275E-03-2.24702E-14
 -1      1560 7.02926E-03 1.22224E-03-2.25300E-14
 -1      1561 7.52937E-03 1.07750E-03-2.58723E-14
 -1      1562 7.35383E-03 1.13272E-03-2.47121E-14
 -1      1563 7.36810E-03 1.09958E-03-2.47685E-14
 -1      1564 7.88884E-03 9.88089E-04-2.82759E-14
 -1      1565 7.70817E-03 1.02908E-03-2.70602E-14
 -1      1566 7.71933E-03 9.93593E-04-2.71141E-14
 -1      1567 8.25148E-03 9.30951E-04-3.07734E-14
 -1      1568 8.07034E-03 9.55563E-04-2.95125E-14
 -1      1569 8.07528E-03 9.18523E-04-2.95622E-14
 -1      1570 8.60987E-03 9.04088E-04-3.33630E-14
 -1      1571 8.43159E-03 9.14115E-04-3.20577E-14
 -1      1572 8.42927E-03 8.76349E-04-3.21038E-14
 -1      1573 8.95965E-03 9.01460E-04-3.60308E-14
 -1      1574 8.78603E-03 9.00186E-04-3.46878E-14
 -1      1575 8.77690E-03 8.62336E-04-3.47305E-14
 -1      1576 9.29905E-03 9.16363E-04-3.87763E-14
 -1      1577 9.13070E-03 9.07108E-04-3.73945E-14
 -1      1578 9.11592E-03 8.69590E-04-3.74358E-14
 -1      1579 9.62807E-03 9.43014E-04-4.15908E-14
 -1      1580 9.46482E-03 9.28521E-04-4.01753E-14
 -1      1581 9.44574E-03 8.91557E-04-4.02138E-14
 -1      1582 9.94768E-03 9.76991E-04-4.44761E-14
 -1      1583 9.78898E-03 9.59303E-04-4.30242E-14
 -1      1584 9.76683E-03 9.22977E-04-4.30616E-14
 -1      1585 1.02593E-02 1.01515E-03-4.74254E-14
 -1      1586 1.01044E-02 9.95695E-04-4.59434E-14
 -1      1587 1.00802E-02 9.60003E-04-4.59775E-14
 -1      1588 1.05642E-02 1.05536E-03-5.04418E-14
 -1      1589 1.04125E-02 1.03509E-03-4.89251E-14
 -1      1590 1.03870E-02 9.99984E-04-4.89590E-14
 -1      1591 1.08640E-02 1.09627E-03-5.35282E-14
 -1      1592 1.07147E-02 1.07579E-03-5.19753E-14
 -1      1593 1.06884E-02 1.04118E-03-5.20064E-14
 -1      1594 1.11597E-02 1.13702E-03-5.66906E-14
 -1      1595 1.10123E-02 1.11670E-03-5.50989E-14
 -1      1596 1.09857E-02 1.08252E-03-5.51274E-14
 -1      1597 1.14524E-02 1.17716E-03-5.99239E-14
 -1      1598 1.13064E-02 1.15719E-03-5.82994E-14
 -1      1599 1.12796E-02 1.12336E-03-5.83220E-14
 -1      1600 1.17427E-02 1.21644E-03-6.32341E-14
 -1      1601 1.15978E-02 1.19691E-03-6.15685E-14
 -1      1602 1.15711E-02 1.16336E-03-6.15879E-14
 -1      1603 1.20314E-02 1.25478E-03-6.66162E-14
 -1      1604 1.18872E-02 1.23573E-03-6.49163E-14
 -1      1605 1.18607E-02 1.20239E-03-6.49256E-14
 -1      1606 1.23189E-02 1.29220E-03-7.00744E-14
 -1      1607 1.21753E-02 1.27360E-03-6.83367E-14
 -1      1608 1.21489E-02 1.24043E-03-6.83355E-14
 -1      1609 1.26056E-02 1.32877E-03-7.35826E-14
 -1      1610 1.24624E-02 1.31059E-03-7.18224E-14
 -1      1611 1.24362E-02 1.27755E-03-7.18113E-14
 -1      1612 1.28918E-02 1.36459E-03-7.71492E-14
 -1      1613 1.27488E-02 1.34677E-03-7.53585E-14
 -1      1614 1.27227E-02 1.31382E-03-7.53425E-14
 -1      1615 1.31776E-02 1.39977E-03-8.07698E-14
 -1      1616 1.30347E-02 1.38225E-03-7.89546E-14
 -1      1617 1.30089E-02 1.34937E-03-7.89300E-14
 -1      1618 1.34632E-02 1.43441E-03-8.44215E-14
 -1      1619 1.33204E-02 1.41715E-03-8.25899E-14
 -1      1620 1.32947E-02 1.38431E-03-8.25580E-14
 -1      1621 1.37487E-02 1.46863E-03-8.80936E-14
 -1      1622 1.36060E-02 1.45157E-03-8.62569E-14
 -1      1623 1.35804E-02 1.41876E-03-8.62149E-14
 -1      1624 1.40342E-02 1.50253E-03-9.17795E-14
 -1      1625 1.38915E-02 1.48562E-03-8.99350E-14
 -1      1626 1.38660E-02 1.45283E-03-8.98900E-14
 -1      1627 1.43198E-02 1.53619E-03-9.54733E-14
 -1      1628 1.41770E-02 1.51938E-03-9.36258E-14
 -1      1629 1.41516E-02 1.48660E-03-9.35753E-14
 -1      1630 1.46053E-02 1.56970E-03-9.91811E-14
 -1      1631 1.44625E-02 1.55296E-03-9.73241E-14
 -1      1632 1.44371E-02 1.52018E-03-9.72733E-14
 -1      1633 1.48909E-02 1.60313E-03-1.02906E-13
 -1      1634 1.47481E-02 1.58642E-03-1.01040E-13
 -1      1635 1.47228E-02 1.55364E-03-1.00986E-13
 -1      1636 1.51766E-02 1.63656E-03-1.06639E-13
 -1      1637 1.50338E-02 1.61985E-03-1.04772E-13
 -1      1638 1.50084E-02 1.58706E-03-1.04714E-13
 -1      1639 1.53212E-02 1.64311E-03-1.08629E-13
 -1      1640 1.52920E-02 1.53913E-03-1.09176E-13
 -1      1641 1.53085E-02 1.58129E-03-1.09019E-13
 -1      1642 1.52590E-02 1.45477E-03-1.09477E-13
 -1      1643 1.52755E-02 1.49696E-03-1.09330E-13
 -1      1644 1.51600E-02 1.50356E-03-1.07628E-13
 -1      1645 1.52261E-02 1.37037E-03-1.09755E-13
 -1      1646 1.52425E-02 1.41258E-03-1.09618E-13
 -1      1647 1.51270E-02 1.41921E-03-1.07923E-13
 -1      1648 1.51932E-02 1.28592E-03-1.10028E-13
 -1      1649 1.52096E-02 1.32815E-03-1.09894E-13
 -1      1650 1.50941E-02 1.33482E-03-1.08206E-13
 -1      1651 1.51610E-02 1.20287E-03-1.10289E-13
 -1      1652 1.51771E-02 1.24440E-03-1.10160E-13
 -1      1653 1.50616E-02 1.25112E-03-1.08479E-13
 -1      1654 1.51285E-02 1.11837E-03-1.10549E-13
 -1      1655 1.51447E-02 1.16063E-03-1.10419E-13
 -1      1656 1.50291E-02 1.16740E-03-1.08745E-13
 -1      1657 1.50960E-02 1.03386E-03-1.10798E-13
 -1      1658 1.51122E-02 1.07612E-03-1.10674E-13
 -1      1659 1.49966E-02 1.08296E-03-1.09004E-13
 -1      1660 1.50638E-02 9.49343E-04-1.11051E-13
 -1      1661 1.50799E-02 9.91601E-04-1.10925E-13
 -1      1662 1.49642E-02 9.98507E-04-1.09259E-13
 -1      1663 1.50317E-02 8.64827E-04-1.11296E-13
 -1      1664 1.50477E-02 9.07084E-04-1.11177E-13
 -1      1665 1.49320E-02 9.14054E-04-1.09513E-13
 -1      1666 1.49997E-02 7.80321E-04-1.11555E-13
 -1      1667 1.50157E-02 8.22573E-04-1.11422E-13
 -1      1668 1.48999E-02 8.29604E-04-1.09766E-13
 -1      1669 1.49684E-02 6.97265E-04-1.11808E-13
 -1      1670 1.49841E-02 7.38791E-04-1.11683E-13
 -1      1671 1.48683E-02 7.45877E-04-1.10018E-13
 -1      1672 1.49368E-02 6.12805E-04-1.12070E-13
 -1      1673 1.49526E-02 6.55031E-04-1.11939E-13
 -1      1674 1.48368E-02 6.62162E-04-1.10272E-13
 -1      1675 1.49052E-02 5.28382E-04-1.12326E-13
 -1      1676 1.49210E-02 5.70588E-04-1.12201E-13
 -1      1677 1.48052E-02 5.77752E-04-1.10526E-13
 -1      1678 1.48737E-02 4.44004E-04-1.12569E-13
 -1      1679 1.48895E-02 4.86187E-04-1.12450E-13
 -1      1680 1.47736E-02 4.93369E-04-1.10774E-13
 -1      1681 1.48037E-02 3.63371E-04-1.12230E-13
 -1      1682 1.48194E-02 4.05532E-04-1.12117E-13
 -1      1683 1.47036E-02 4.12711E-04-1.10442E-13
 -1      1684 1.45949E-02 3.35776E-04-1.09533E-13
 -1      1685 8.36371E-03 2.94919E-04-2.45432E-14
 -1      1686 8.38925E-03 2.50372E-04-2.46594E-14
 -1      1687 8.20946E-03 4.02427E-04-2.41361E-14
 -1      1688 8.29635E-03 3.49696E-04-2.43676E-14
 -1      1689 7.95842E-03 5.44588E-04-2.34496E-14
 -1      1690 8.08544E-03 4.79587E-04-2.37575E-14
 -1      1691 7.63167E-03 6.98147E-04-2.26854E-14
 -1      1692 7.78763E-03 6.22509E-04-2.30652E-14
 -1      1693 7.26752E-03 8.72281E-04-2.17378E-14
 -1      1694 7.44253E-03 7.93062E-04-2.21790E-14
 -1      1695 6.89453E-03 1.02019E-03-2.07585E-14
 -1      1696 7.06485E-03 9.56296E-04-2.12110E-14
 -1      1697 6.49740E-03 1.12500E-03-1.96862E-14
 -1      1698 6.68241E-03 1.08422E-03-2.01946E-14
 -1      1699 6.10347E-03 1.14643E-03-1.86127E-14
 -1      1700 6.28279E-03 1.14816E-03-1.90978E-14
 -1      1701 5.71771E-03 1.07763E-03-1.76513E-14
 -1      1702 5.89351E-03 1.11833E-03-1.80802E-14
 -1      1703 5.32245E-03 9.33343E-04-1.67366E-14
 -1      1704 5.51136E-03 1.00987E-03-1.71385E-14
 -1      1705 4.91760E-03 7.56755E-04-1.60327E-14
 -1      1706 5.09498E-03 8.40667E-04-1.63456E-14
 -1      1707 4.52142E-03 5.50747E-04-1.53758E-14
 -1      1708 4.70984E-03 6.44680E-04-1.56505E-14
 -1      1709 4.17854E-03 3.88224E-04-1.49873E-14
 -1      1710 4.31954E-03 4.61702E-04-1.51551E-14
 -1      1711 3.96698E-03 2.61186E-04-1.47843E-14
 -1      1712 4.04914E-03 3.14570E-04-1.48512E-14
 -1      1713 3.87751E-03 1.54144E-04-1.47585E-14
 -1      1714 3.90224E-03 2.00788E-04-1.47367E-14
 -1      1715 3.92752E-03 5.52696E-05-1.49604E-14
 -1      1716 3.88821E-03 1.00673E-04-1.48545E-14
 -1      1717 4.10059E-03-5.67626E-05-1.53173E-14
 -1      1718 4.00616E-03-2.48588E-06-1.51306E-14
 -1      1719 4.36552E-03-1.89850E-04-1.58236E-14
 -1      1720 4.23376E-03-1.25670E-04-1.55728E-14
 -1      1721 4.77675E-03-3.56140E-04-1.65398E-14
 -1      1722 4.57850E-03-2.63263E-04-1.61328E-14
 -1      1723 5.14767E-03-5.37024E-04-1.74810E-14
 -1      1724 4.97607E-03-4.66792E-04-1.70868E-14
 -1      1725 5.51910E-03-6.62081E-04-1.83958E-14
 -1      1726 5.34823E-03-6.09306E-04-1.79641E-14
 -1      1727 5.89318E-03-7.33416E-04-1.93857E-14
 -1      1728 5.72278E-03-7.09123E-04-1.89200E-14
 -1      1729 6.25882E-03-7.29986E-04-2.04158E-14
 -1      1730 6.09292E-03-7.42249E-04-1.99452E-14
 -1      1731 6.62278E-03-6.50076E-04-2.13741E-14
 -1      1732 6.45832E-03-6.93257E-04-2.09401E-14
 -1      1733 6.98636E-03-5.13304E-04-2.23317E-14
 -1      1734 6.81315E-03-5.83601E-04-2.19092E-14
 -1      1735 7.36417E-03-3.48530E-04-2.31441E-14
 -1      1736 7.19508E-03-4.26740E-04-2.27826E-14
 -1      1737 7.72379E-03-1.78099E-04-2.38379E-14
 -1      1738 7.56099E-03-2.56184E-04-2.35381E-14
 -1      1739 8.03672E-03-2.02251E-05-2.43833E-14
 -1      1740 7.89895E-03-8.72648E-05-2.41724E-14
 -1      1741 8.26615E-03 9.77808E-05-2.46535E-14
 -1      1742 8.17462E-03 4.56565E-05-2.45439E-14
 -1      1743 8.38151E-03 1.99448E-04-2.47600E-14
 -1      1744 8.34355E-03 1.56504E-04-2.47564E-14
 -1      1745 7.47920E-03 7.06024E-04-2.26834E-14
 -1      1746 7.83278E-03 5.31930E-04-2.35874E-14
 -1      1747 1.52959E-02 1.61031E-03-1.08572E-13
 -1      1748 1.51639E-02 1.57475E-03-1.07029E-13
 -1      1749 8.33293E-03 2.95772E-04-2.49262E-14
 -1      1750 8.13233E-03 3.91519E-04-2.43615E-14
 -1      1751 8.39535E-03 2.28736E-04-2.52090E-14
 -1      1752 7.10770E-03 8.96488E-04-2.16395E-14
 -1      1753 6.73596E-03 1.06145E-03-2.05410E-14
 -1      1754 6.37410E-03 1.16148E-03-1.93845E-14
 -1      1755 6.02129E-03 1.15763E-03-1.82660E-14
 -1      1756 5.66058E-03 1.05142E-03-1.72275E-14
 -1      1757 5.28060E-03 8.70050E-04-1.63365E-14
 -1      1758 4.86856E-03 6.53096E-04-1.55761E-14
 -1      1759 4.46531E-03 4.50530E-04-1.49899E-14
 -1      1760 4.13112E-03 3.02247E-04-1.46439E-14
 -1      1761 3.92961E-03 2.01038E-04-1.44649E-14
 -1      1762 3.87285E-03 1.31491E-04-1.45114E-14
 -1      1763 3.96700E-03 5.77950E-05-1.47711E-14
 -1      1764 4.18621E-03-4.21147E-05-1.51870E-14
 -1      1765 4.52852E-03-1.80061E-04-1.57402E-14
 -1      1766 4.92448E-03-3.72508E-04-1.65773E-14
 -1      1767 5.30431E-03-5.65489E-04-1.75978E-14
 -1      1768 5.66084E-03-7.00189E-04-1.85989E-14
 -1      1769 6.00020E-03-7.64197E-04-1.96809E-14
 -1      1770 6.32640E-03-7.33886E-04-2.07689E-14
 -1      1771 6.66736E-03-6.20270E-04-2.18360E-14
 -1      1772 7.02131E-03-4.48865E-04-2.28348E-14
 -1      1773 7.40166E-03-2.56963E-04-2.36927E-14
 -1      1774 7.76799E-03-7.38421E-05-2.44343E-14
 -1      1775 8.08523E-03 6.65645E-05-2.49408E-14
 -1      1776 8.30646E-03 1.62774E-04-2.52087E-14
 -1      1777 2.85564E-04-1.71302E-04-5.36409E-17
 -1      1778 3.34026E-04-1.07759E-04-1.47858E-16
 -1      1779 3.38488E-04-1.24167E-04-1.40824E-16
 -1      1780 3.44524E-04-1.43454E-04-1.31622E-16
 -1      1781 3.53938E-04-1.65872E-04-1.18137E-16
 -1      1782 4.61500E-04-1.76189E-04-2.04724E-16
 -1      1783 3.24266E-04-5.76158E-05-1.59717E-16
 -1      1784 3.25990E-04-6.83044E-05-1.58632E-16
 -1      1785 3.21684E-04-3.78993E-05-1.60421E-16
 -1      1786 3.22856E-04-4.74135E-05-1.60286E-16
 -1      1787 4.35376E-04-6.96210E-05-2.36071E-16
 -1      1788 3.20090E-04-2.01639E-05-1.58822E-16
 -1      1789 3.20778E-04-2.88227E-05-1.59825E-16
 -1      1790 4.31861E-04-4.42213E-05-2.35936E-16
 -1      1791 3.19411E-04-3.49314E-06-1.55759E-16
 -1      1792 3.19640E-04-1.17319E-05-1.57575E-16
 -1      1793 4.29798E-04-2.10942E-05-2.33320E-16
 -1      1794 3.19644E-04 1.29544E-05-1.51111E-16
 -1      1795 3.19412E-04 4.72279E-06-1.53713E-16
 -1      1796 4.29114E-04 9.24163E-07-2.28414E-16
 -1      1797 3.20805E-04 3.00194E-05-1.44755E-16
 -1      1798 3.20102E-04 2.13745E-05-1.48143E-16
 -1      1799 4.29811E-04 2.29256E-05-2.21123E-16
 -1      1800 3.22900E-04 4.82691E-05-1.36474E-16
 -1      1801 3.21719E-04 3.89293E-05-1.41122E-16
 -1      1802 4.31902E-04 4.58164E-05-2.11460E-16
 -1      1803 3.26153E-04 6.93758E-05-1.25117E-16
 -1      1804 3.24349E-04 5.84697E-05-1.31283E-16
 -1      1805 4.35486E-04 7.09674E-05-1.98843E-16
 -1      1806 3.31001E-04 9.44890E-05-1.09206E-16
 -1      1807 3.28303E-04 8.13926E-05-1.18029E-16
 -1      1808 4.40923E-04 1.00078E-04-1.81658E-16
 -1      1809 3.38828E-04 1.26042E-04-8.63567E-17
 -1      1810 3.34331E-04 1.09394E-04-9.91638E-17
 -1      1811 4.49043E-04 1.35004E-04-1.57697E-16
 -1      1812 3.54522E-04 1.69237E-04-5.37629E-17
 -1      1813 3.45192E-04 1.45979E-04-7.17606E-17
 -1      1814 4.62580E-04 1.79230E-04-1.24046E-16
 -1      1815 4.09206E-04 2.25105E-04-2.94632E-17
 -1      1816 3.80140E-04 1.94127E-04-4.49266E-17
 -1      1817 4.99143E-04 2.31870E-04-9.31872E-17
 -1      1818 5.61037E-04 2.89976E-04-6.70037E-17
 -1      1819 3.41527E-04-1.83920E-04-8.89994E-17
 -1      1820 8.58989E-04 3.86210E-04-2.11921E-16
 -1      1821 7.10933E-04 3.42731E-04-1.27909E-16
 -1      1822 6.77720E-04 3.12370E-04-1.44795E-16
 -1      1823 4.61624E-04-2.26313E-04-1.54472E-16
 -1      1824 8.12799E-04-3.54540E-04-4.05370E-16
 -1      1825 9.59927E-04-3.91564E-04-5.62918E-16
 -1      1826 1.10501E-03-4.22018E-04-7.48384E-16
 -1      1827 1.24937E-03-4.46620E-04-9.61796E-16
 -1      1828 1.01264E-03-3.71654E-04-6.82194E-16
 -1      1829 1.39293E-03-4.66763E-04-1.20291E-15
 -1      1830 1.53634E-03-4.82785E-04-1.47206E-15
 -1      1831 1.30308E-03-4.20892E-04-1.11288E-15
 -1      1832 1.67980E-03-4.95640E-04-1.76835E-15
 -1      1833 1.82361E-03-5.05638E-04-2.09167E-15
 -1      1834 1.59194E-03-4.52934E-04-1.65251E-15
 -1      1835 1.96800E-03-5.13471E-04-2.44202E-15
 -1      1836 2.11314E-03-5.19448E-04-2.81883E-15
 -1      1837 1.88111E-03-4.72755E-04-2.30007E-15
 -1      1838 2.25921E-03-5.24137E-04-3.22221E-15
 -1      1839 2.40632E-03-5.27863E-04-3.65195E-15
 -1      1840 2.17212E-03-4.84367E-04-3.05353E-15
 -1      1841 2.55459E-03-5.31159E-04-4.10753E-15
 -1      1842 2.70412E-03-5.34375E-04-4.58929E-15
 -1      1843 2.46616E-03-4.91330E-04-3.91112E-15
 -1      1844 2.85498E-03-5.38058E-04-5.09732E-15
 -1      1845 3.00719E-03-5.42593E-04-5.63060E-15
 -1      1846 2.76414E-03-4.97124E-04-4.87201E-15
 -1      1847 3.16084E-03-5.48568E-04-6.18989E-15
 -1      1848 3.31582E-03-5.56400E-04-6.77327E-15
 -1      1849 3.06677E-03-5.05405E-04-5.93564E-15
 -1      1850 3.47226E-03-5.66704E-04-7.38084E-15
 -1      1851 3.62984E-03-5.79901E-04-8.01393E-15
 -1      1852 3.37453E-03-5.20129E-04-7.09743E-15
 -1      1853 3.78878E-03-5.96560E-04-8.67135E-15
 -1      1854 3.94848E-03-6.17034E-04-9.35176E-15
 -1      1855 3.68762E-03-5.45465E-04-8.35802E-15
 -1      1856 4.10923E-03-6.41691E-04-1.00546E-14
 -1      1857 4.27016E-03-6.70669E-04-1.07816E-14
 -1      1858 4.00576E-03-5.85358E-04-9.71254E-15
 -1      1859 4.43156E-03-7.03893E-04-1.15316E-14
 -1      1860 4.59233E-03-7.41055E-04-1.23045E-14
 -1      1861 4.32794E-03-6.42528E-04-1.11597E-14
 -1      1862 4.75273E-03-7.81365E-04-1.31013E-14
 -1      1863 4.91161E-03-8.23810E-04-1.39210E-14
 -1      1864 4.65200E-03-7.16766E-04-1.26999E-14
 -1      1865 5.06908E-03-8.66726E-04-1.47658E-14
 -1      1866 5.22439E-03-9.08281E-04-1.56348E-14
 -1      1867 4.97454E-03-8.02704E-04-1.43348E-14
 -1      1868 5.37739E-03-9.46119E-04-1.65269E-14
 -1      1869 5.52827E-03-9.77917E-04-1.74438E-14
 -1      1870 5.29151E-03-8.88054E-04-1.60652E-14
 -1      1871 5.67664E-03-1.00128E-03-1.83877E-14
 -1      1872 5.82387E-03-1.01425E-03-1.93547E-14
 -1      1873 5.60011E-03-9.54333E-04-1.78952E-14
 -1      1874 5.96946E-03-1.01537E-03-2.03474E-14
 -1      1875 6.11556E-03-1.00400E-03-2.13675E-14
 -1      1876 5.90115E-03-9.82011E-04-1.98268E-14
 -1      1877 6.26160E-03-9.80344E-04-2.24131E-14
 -1      1878 6.40969E-03-9.45398E-04-2.34850E-14
 -1      1879 6.19972E-03-9.59018E-04-2.18616E-14
 -1      1880 6.55928E-03-9.00917E-04-2.45838E-14
 -1      1881 6.71153E-03-8.49031E-04-2.57095E-14
 -1      1882 6.50247E-03-8.87022E-04-2.40040E-14
 -1      1883 6.86608E-03-7.92208E-04-2.68598E-14
 -1      1884 7.02288E-03-7.32734E-04-2.80353E-14
 -1      1885 6.81367E-03-7.80522E-04-2.62517E-14
 -1      1886 7.18184E-03-6.72853E-04-2.92366E-14
 -1      1887 7.34210E-03-6.14225E-04-3.04617E-14
 -1      1888 7.13317E-03-6.59536E-04-2.86012E-14
 -1      1889 7.50381E-03-5.58329E-04-3.17109E-14
 -1      1890 7.66582E-03-5.06018E-04-3.29829E-14
 -1      1891 7.45771E-03-5.41476E-04-3.10500E-14
 -1      1892 7.82842E-03-4.57921E-04-3.42768E-14
 -1      1893 7.99056E-03-4.14251E-04-3.55930E-14
 -1      1894 7.78335E-03-4.37088E-04-3.35913E-14
 -1      1895 8.15254E-03-3.74996E-04-3.69293E-14
 -1      1896 8.31360E-03-3.39991E-04-3.82855E-14
 -1      1897 8.10702E-03-3.50565E-04-3.62185E-14
 -1      1898 8.47396E-03-3.08862E-04-3.96634E-14
 -1      1899 8.63317E-03-2.81284E-04-4.10611E-14
 -1      1900 8.42692E-03-2.81556E-04-3.89291E-14
 -1      1901 8.79139E-03-2.56750E-04-4.24771E-14
 -1      1902 8.94839E-03-2.34906E-04-4.39105E-14
 -1      1903 8.74228E-03-2.27359E-04-4.17206E-14
 -1      1904 9.10426E-03-2.15256E-04-4.53610E-14
 -1      1905 9.25896E-03-1.97481E-04-4.68269E-14
 -1      1906 9.05299E-03-1.84497E-04-4.45836E-14
 -1      1907 9.41254E-03-1.81163E-04-4.83082E-14
 -1      1908 9.56504E-03-1.66043E-04-4.98053E-14
 -1      1909 9.35929E-03-1.49621E-04-4.75124E-14
 -1      1910 9.71650E-03-1.51803E-04-5.13156E-14
 -1      1911 9.86702E-03-1.38242E-04-5.28412E-14
 -1      1912 9.66162E-03-1.19920E-04-5.05023E-14
 -1      1913 1.00166E-02-1.25138E-04-5.43809E-14
 -1      1914 1.01654E-02-1.12344E-04-5.59362E-14
 -1      1915 9.96049E-03-9.32239E-05-5.35525E-14
 -1      1916 1.03134E-02-9.97162E-05-5.75052E-14
 -1      1917 1.04608E-02-8.71497E-05-5.90888E-14
 -1      1918 1.02564E-02-6.79701E-05-5.66606E-14
 -1      1919 1.06075E-02-7.45605E-05-6.06894E-14
 -1      1920 1.07537E-02-6.18779E-05-6.23000E-14
 -1      1921 1.05499E-02-4.30968E-05-5.98263E-14
 -1      1922 1.08994E-02-4.90601E-05-6.39242E-14
 -1      1923 1.10447E-02-3.60620E-05-6.55623E-14
 -1      1924 1.08414E-02-1.79316E-05-6.30472E-14
 -1      1925 1.11896E-02-2.28700E-05-6.72098E-14
 -1      1926 1.13341E-02-9.45765E-06-6.88700E-14
 -1      1927 1.11314E-02 7.91264E-06-6.63181E-14
 -1      1928 1.14783E-02 4.17075E-06-7.05397E-14
 -1      1929 1.16224E-02 1.80287E-05-7.22200E-14
 -1      1930 1.14201E-02 3.46237E-05-6.96343E-14
 -1      1931 1.17661E-02 3.21015E-05-7.39124E-14
 -1      1932 1.19097E-02 4.63937E-05-7.56155E-14
 -1      1933 1.17079E-02 6.22561E-05-7.29955E-14
 -1      1934 1.20532E-02 6.08854E-05-7.73329E-14
 -1      1935 1.21965E-02 7.55756E-05-7.90607E-14
 -1      1936 1.19951E-02 9.07805E-05-7.64003E-14
 -1      1937 1.23397E-02 9.04425E-05-8.08044E-14
 -1      1938 1.24828E-02 1.05482E-04-8.25610E-14
 -1      1939 1.22817E-02 1.20119E-04-7.98577E-14
 -1      1940 1.26258E-02 1.20671E-04-8.43266E-14
 -1      1941 1.27688E-02 1.36005E-04-8.61058E-14
 -1      1942 1.25679E-02 1.50169E-04-8.33646E-14
 -1      1943 1.29118E-02 1.51463E-04-8.78951E-14
 -1      1944 1.30547E-02 1.67037E-04-8.96949E-14
 -1      1945 1.28539E-02 1.80819E-04-8.69163E-14
 -1      1946 1.31975E-02 1.82709E-04-9.15081E-14
 -1      1947 1.33404E-02 1.98472E-04-9.33260E-14
 -1      1948 1.31398E-02 2.11957E-04-9.05133E-14
 -1      1949 1.34832E-02 2.14310E-04-9.51496E-14
 -1      1950 1.36261E-02 2.30214E-04-9.69788E-14
 -1      1951 1.34255E-02 2.43478E-04-9.41463E-14
 -1      1952 1.37689E-02 2.46170E-04-9.88154E-14
 -1      1953 1.39117E-02 2.62170E-04-1.00654E-13
 -1      1954 1.37112E-02 2.75285E-04-9.78025E-14
 -1      1955 1.40545E-02 2.78202E-04-1.02496E-13
 -1      1956 1.41974E-02 2.94258E-04-1.04342E-13
 -1      1957 1.39969E-02 3.07287E-04-1.01480E-13
 -1      1958 1.43247E-02 3.06979E-04-1.06003E-13
 -1      1959 1.44676E-02 3.23052E-04-1.07859E-13
 -1      1960 1.45219E-02 3.61515E-04-1.08313E-13
 -1      1961 1.42671E-02 3.36057E-04-1.04983E-13
 -1      1962 1.14868E-03 4.50300E-04-4.50893E-16
 -1      1963 1.00435E-03 4.21543E-04-3.19216E-16
 -1      1964 9.72356E-04 3.92248E-04-3.39667E-16
 -1      1965 1.43459E-03 4.92444E-04-7.87890E-16
 -1      1966 1.29174E-03 4.73710E-04-6.07018E-16
 -1      1967 1.26205E-03 4.45628E-04-6.29745E-16
 -1      1968 1.72049E-03 5.19055E-04-1.22381E-15
 -1      1969 1.57731E-03 5.07418E-04-9.93346E-16
 -1      1970 1.54966E-03 4.80137E-04-1.01781E-15
 -1      1971 2.00900E-03 5.34673E-04-1.75848E-15
 -1      1972 1.86426E-03 5.28018E-04-1.47853E-15
 -1      1973 1.83792E-03 5.01128E-04-1.50440E-15
 -1      1974 2.30208E-03 5.42994E-04-2.39248E-15
 -1      1975 2.15485E-03 5.39540E-04-2.06318E-15
 -1      1976 2.12893E-03 5.12691E-04-2.08956E-15
 -1      1977 2.60127E-03 5.47495E-04-3.12487E-15
 -1      1978 2.45080E-03 5.45507E-04-2.74638E-15
 -1      1979 2.42431E-03 5.18374E-04-2.77335E-15
 -1      1980 2.90788E-03 5.51894E-04-3.95392E-15
 -1      1981 2.75354E-03 5.49463E-04-3.52703E-15
 -1      1982 2.72540E-03 5.21704E-04-3.55400E-15
 -1      1983 3.22302E-03 5.60573E-04-4.87922E-15
 -1      1984 3.06430E-03 5.55407E-04-4.40475E-15
 -1      1985 3.03337E-03 5.26629E-04-4.43094E-15
 -1      1986 3.54741E-03 5.78944E-04-5.89631E-15
 -1      1987 3.38401E-03 5.68199E-04-5.37653E-15
 -1      1988 3.34919E-03 5.37925E-04-5.40243E-15
 -1      1989 3.88122E-03 6.13634E-04-7.00384E-15
 -1      1990 3.71317E-03 5.93859E-04-6.43887E-15
 -1      1991 3.67361E-03 5.61527E-04-6.46405E-15
 -1      1992 4.22364E-03 6.72134E-04-8.20256E-15
 -1      1993 4.05153E-03 6.39540E-04-7.59142E-15
 -1      1994 4.00694E-03 6.04565E-04-7.61584E-15
 -1      1995 4.57238E-03 7.61297E-04-9.49401E-15
 -1      1996 4.39760E-03 7.12693E-04-8.83668E-15
 -1      1997 4.34874E-03 6.74683E-04-8.85959E-15
 -1      1998 4.92317E-03 8.83954E-04-1.08812E-14
 -1      1999 4.74815E-03 8.18723E-04-1.01754E-14
 -1      2000 4.69718E-03 7.77919E-04-1.01980E-14
 -1      2001 5.26964E-03 1.03339E-03-1.23693E-14
 -1      2002 5.09769E-03 9.56399E-04-1.16126E-14
 -1      2003 5.04820E-03 9.14315E-04-1.16324E-14
 -1      2004 5.60484E-03 1.18823E-03-1.39571E-14
 -1      2005 5.43919E-03 1.11209E-03-1.31498E-14
 -1      2006 5.39521E-03 1.07170E-03-1.31687E-14
 -1      2007 5.92488E-03 1.31329E-03-1.56546E-14
 -1      2008 5.76657E-03 1.25672E-03-1.47919E-14
 -1      2009 5.73103E-03 1.22146E-03-1.48075E-14
 -1      2010 6.23354E-03 1.37253E-03-1.74692E-14
 -1      2011 6.07961E-03 1.35246E-03-1.65469E-14
 -1      2012 6.05308E-03 1.32391E-03-1.65593E-14
 -1      2013 6.54190E-03 1.34921E-03-1.94035E-14
 -1      2014 6.38635E-03 1.37048E-03-1.84204E-14
 -1      2015 6.36796E-03 1.34690E-03-1.84300E-14
 -1      2016 6.86166E-03 1.25834E-03-2.14616E-14
 -1      2017 6.69959E-03 1.31017E-03-2.04173E-14
 -1      2018 6.68822E-03 1.28766E-03-2.04239E-14
 -1      2019 7.19698E-03 1.13520E-03-2.36389E-14
 -1      2020 7.02741E-03 1.19851E-03-2.25363E-14
 -1      2021 7.02226E-03 1.17427E-03-2.25389E-14
 -1      2022 7.54444E-03 1.01577E-03-2.59288E-14
 -1      2023 7.36974E-03 1.07354E-03-2.47711E-14
 -1      2024 7.36891E-03 1.04678E-03-2.47704E-14
 -1      2025 7.89721E-03 9.22547E-04-2.83224E-14
 -1      2026 7.72082E-03 9.65374E-04-2.71112E-14
 -1      2027 7.72136E-03 9.36615E-04-2.71075E-14
 -1      2028 8.24895E-03 8.63125E-04-3.08113E-14
 -1      2029 8.07373E-03 8.88748E-04-2.95550E-14
 -1      2030 8.07275E-03 8.58799E-04-2.95462E-14
 -1      2031 8.59535E-03 8.35297E-04-3.33937E-14
 -1      2032 8.42315E-03 8.45667E-04-3.20925E-14
 -1      2033 8.41862E-03 8.15137E-04-3.20788E-14
 -1      2034 8.93413E-03 8.32654E-04-3.60571E-14
 -1      2035 8.76585E-03 8.31267E-04-3.47169E-14
 -1      2036 8.75693E-03 8.00539E-04-3.46995E-14
 -1      2037 9.26450E-03 8.48136E-04-3.87966E-14
 -1      2038 9.10040E-03 8.38499E-04-3.74178E-14
 -1      2039 9.08713E-03 8.07812E-04-3.73986E-14
 -1      2040 9.58666E-03 8.75678E-04-4.16071E-14
 -1      2041 9.42657E-03 8.60676E-04-4.01930E-14
 -1      2042 9.40950E-03 8.30178E-04-4.01707E-14
 -1      2043 9.90137E-03 9.10660E-04-4.44859E-14
 -1      2044 9.74488E-03 8.92432E-04-4.30375E-14
 -1      2045 9.72475E-03 8.62209E-04-4.30119E-14
 -1      2046 1.02096E-02 9.49813E-04-4.74318E-14
 -1      2047 1.00562E-02 9.29842E-04-4.59512E-14
 -1      2048 1.00338E-02 8.99936E-04-4.59228E-14
 -1      2049 1.05125E-02 9.90943E-04-5.04428E-14
 -1      2050 1.03617E-02 9.70211E-04-4.89290E-14
 -1      2051 1.03376E-02 9.40628E-04-4.88979E-14
 -1      2052 1.08111E-02 1.03265E-03-5.35238E-14
 -1      2053 1.06623E-02 1.01177E-03-5.19741E-14
 -1      2054 1.06371E-02 9.82496E-04-5.19389E-14
 -1      2055 1.11062E-02 1.07408E-03-5.66777E-14
 -1      2056 1.09590E-02 1.05343E-03-5.50919E-14
 -1      2057 1.09331E-02 1.02443E-03-5.50539E-14
 -1      2058 1.13986E-02 1.11478E-03-5.99013E-14
 -1      2059 1.12527E-02 1.09454E-03-5.82807E-14
 -1      2060 1.12263E-02 1.06578E-03-5.82382E-14
 -1      2061 1.16890E-02 1.15451E-03-6.31969E-14
 -1      2062 1.15440E-02 1.13477E-03-6.15399E-14
 -1      2063 1.15174E-02 1.10622E-03-6.14915E-14
 -1      2064 1.19779E-02 1.19321E-03-6.65621E-14
 -1      2065 1.18336E-02 1.17398E-03-6.48716E-14
 -1      2066 1.18069E-02 1.14560E-03-6.48147E-14
 -1      2067 1.22657E-02 1.23090E-03-6.99985E-14
 -1      2068 1.21219E-02 1.21217E-03-6.82716E-14
 -1      2069 1.20951E-02 1.18393E-03-6.82077E-14
 -1      2070 1.25527E-02 1.26768E-03-7.34937E-14
 -1      2071 1.24093E-02 1.24940E-03-7.17380E-14
 -1      2072 1.23825E-02 1.22126E-03-7.16654E-14
 -1      2073 1.28391E-02 1.30366E-03-7.70463E-14
 -1      2074 1.26960E-02 1.28576E-03-7.52638E-14
 -1      2075 1.26693E-02 1.25771E-03-7.51829E-14
 -1      2076 1.31252E-02 1.33895E-03-8.06487E-14
 -1      2077 1.29822E-02 1.32138E-03-7.88407E-14
 -1      2078 1.29556E-02 1.29339E-03-7.87546E-14
 -1      2079 1.34110E-02 1.37367E-03-8.42858E-14
 -1      2080 1.32681E-02 1.35637E-03-8.24637E-14
 -1      2081 1.32416E-02 1.32843E-03-8.23677E-14
 -1      2082 1.36967E-02 1.40794E-03-8.79469E-14
 -1      2083 1.35539E-02 1.39086E-03-8.61151E-14
 -1      2084 1.35274E-02 1.36295E-03-8.60151E-14
 -1      2085 1.39824E-02 1.44187E-03-9.16230E-14
 -1      2086 1.38396E-02 1.42494E-03-8.97850E-14
 -1      2087 1.38131E-02 1.39706E-03-8.96782E-14
 -1      2088 1.42680E-02 1.47554E-03-9.53117E-14
 -1      2089 1.41252E-02 1.45873E-03-9.34645E-14
 -1      2090 1.40988E-02 1.43086E-03-9.33566E-14
 -1      2091 1.45536E-02 1.50905E-03-9.90146E-14
 -1      2092 1.44108E-02 1.49231E-03-9.71613E-14
 -1      2093 1.43845E-02 1.46445E-03-9.70484E-14
 -1      2094 1.48393E-02 1.54248E-03-1.02734E-13
 -1      2095 1.46964E-02 1.52577E-03-1.00872E-13
 -1      2096 1.46701E-02 1.49791E-03-1.00757E-13
 -1      2097 1.50730E-02 1.56697E-03-1.05813E-13
 -1      2098 1.49302E-02 1.55026E-03-1.03945E-13
 -1      2099 1.49038E-02 1.52239E-03-1.03830E-13
 -1      2100 1.50856E-02 1.53794E-03-1.06258E-13
 -1      2101 1.49622E-02 1.29930E-03-1.06662E-13
 -1      2102 1.49786E-02 1.34149E-03-1.06521E-13
 -1      2103 1.49951E-02 1.38366E-03-1.06377E-13
 -1      2104 1.50116E-02 1.42584E-03-1.06233E-13
 -1      2105 1.48631E-02 1.34814E-03-1.04836E-13
 -1      2106 1.50403E-02 1.46081E-03-1.06321E-13
 -1      2107 1.50568E-02 1.50297E-03-1.06170E-13
 -1      2108 1.49659E-02 1.49520E-03-1.04955E-13
 -1      2109 1.49084E-02 1.42527E-03-1.04777E-13
 -1      2110 1.49299E-02 1.21635E-03-1.06935E-13
 -1      2111 1.49460E-02 1.25783E-03-1.06798E-13
 -1      2112 1.48305E-02 1.26452E-03-1.05119E-13
 -1      2113 1.48973E-02 1.13197E-03-1.07204E-13
 -1      2114 1.49136E-02 1.17416E-03-1.07070E-13
 -1      2115 1.47980E-02 1.18090E-03-1.05394E-13
 -1      2116 1.48647E-02 1.04758E-03-1.07464E-13
 -1      2117 1.48810E-02 1.08977E-03-1.07336E-13
 -1      2118 1.47654E-02 1.09656E-03-1.05663E-13
 -1      2119 1.48324E-02 9.63187E-04-1.07724E-13
 -1      2120 1.48486E-02 1.00538E-03-1.07593E-13
 -1      2121 1.47329E-02 1.01223E-03-1.05927E-13
 -1      2122 1.48002E-02 8.78797E-04-1.07981E-13
 -1      2123 1.48163E-02 9.20992E-04-1.07852E-13
 -1      2124 1.47006E-02 9.27898E-04-1.06188E-13
 -1      2125 1.47682E-02 7.94408E-04-1.08234E-13
 -1      2126 1.47842E-02 8.36602E-04-1.08107E-13
 -1      2127 1.46685E-02 8.43569E-04-1.06446E-13
 -1      2128 1.47369E-02 7.11452E-04-1.08485E-13
 -1      2129 1.47525E-02 7.52929E-04-1.08359E-13
 -1      2130 1.46368E-02 7.59952E-04-1.06698E-13
 -1      2131 1.47051E-02 6.27071E-04-1.08734E-13
 -1      2132 1.47210E-02 6.69260E-04-1.08610E-13
 -1      2133 1.46052E-02 6.76332E-04-1.06947E-13
 -1      2134 1.46735E-02 5.42703E-04-1.08980E-13
 -1      2135 1.46893E-02 5.84885E-04-1.08856E-13
 -1      2136 1.45735E-02 5.91996E-04-1.07192E-13
 -1      2137 1.46420E-02 4.58351E-04-1.09219E-13
 -1      2138 1.46578E-02 5.00524E-04-1.09100E-13
 -1      2139 1.45419E-02 5.07662E-04-1.07432E-13
 -1      2140 8.04414E-03 3.90531E-04-2.46058E-14
 -1      2141 8.17355E-03 3.38666E-04-2.49942E-14
 -1      2142 8.40243E-03 2.41797E-04-2.58046E-14
 -1      2143 8.39605E-03 2.27678E-04-2.59102E-14
 -1      2144 8.30778E-03 2.86008E-04-2.54352E-14
 -1      2145 8.37368E-03 2.63083E-04-2.56188E-14
 -1      2146 8.39908E-03 2.49798E-04-2.63183E-14
 -1      2147 7.73961E-03 5.26044E-04-2.38079E-14
 -1      2148 7.90211E-03 4.53490E-04-2.42046E-14
 -1      2149 7.97039E-03 4.01026E-04-2.48297E-14
 -1      2150 7.34336E-03 7.30699E-04-2.27022E-14
 -1      2151 7.51904E-03 6.34023E-04-2.32198E-14
 -1      2152 3.28044E-04-8.01847E-05-1.56328E-16
 -1      2153 3.30653E-04-9.31437E-05-1.52669E-16
 -1      2154 4.48470E-04-1.33043E-04-2.23075E-16
 -1      2155 4.40603E-04-9.85854E-05-2.32453E-16
 -1      2156 6.63054E-03 1.10094E-03-2.03631E-14
 -1      2157 6.79220E-03 1.02629E-03-2.09323E-14
 -1      2158 6.28891E-03 1.19464E-03-1.90787E-14
 -1      2159 6.43754E-03 1.16631E-03-1.96683E-14
 -1      2160 5.95716E-03 1.15737E-03-1.78748E-14
 -1      2161 6.10498E-03 1.18877E-03-1.84025E-14
 -1      2162 5.63698E-03 1.02533E-03-1.68565E-14
 -1      2163 5.79675E-03 1.10285E-03-1.73609E-14
 -1      2164 5.89788E-03 1.14043E-03-1.74915E-14
 -1      2165 5.21914E-03 7.96710E-04-1.58946E-14
 -1      2166 5.40501E-03 9.02369E-04-1.62735E-14
 -1      2167 4.82990E-03 5.71688E-04-1.51261E-14
 -1      2168 5.02417E-03 6.84685E-04-1.54945E-14
 -1      2169 4.39181E-03 3.57820E-04-1.45094E-14
 -1      2170 4.58316E-03 4.41377E-04-1.47156E-14
 -1      2171 4.08067E-03 2.38496E-04-1.42381E-14
 -1      2172 4.21390E-03 2.88540E-04-1.43668E-14
 -1      2173 3.89955E-03 1.66733E-04-1.40725E-14
 -1      2174 3.96764E-03 1.92403E-04-1.41189E-14
 -1      2175 3.87605E-03 1.21957E-04-1.42124E-14
 -1      2176 3.86463E-03 1.39521E-04-1.41207E-14
 -1      2177 4.01148E-03 6.77075E-05-1.44766E-14
 -1      2178 3.92976E-03 9.51891E-05-1.43152E-14
 -1      2179 4.27016E-03-3.46126E-05-1.50175E-14
 -1      2180 4.13554E-03 1.67547E-05-1.47717E-14
 -1      2181 4.62454E-03-1.76753E-04-1.55658E-14
 -1      2182 4.43332E-03-9.77873E-05-1.52704E-14
 -1      2183 5.08766E-03-4.22006E-04-1.66948E-14
 -1      2184 4.89907E-03-3.12714E-04-1.61594E-14
 -1      2185 5.41183E-03-5.94211E-04-1.76336E-14
 -1      2186 5.25025E-03-5.09530E-04-1.71599E-14
 -1      2187 5.18728E-03-4.58670E-04-1.67288E-14
 -1      2188 5.75495E-03-7.35902E-04-1.87615E-14
 -1      2189 5.60570E-03-6.79733E-04-1.82415E-14
 -1      2190 6.06692E-03-7.84416E-04-1.99577E-14
 -1      2191 5.92617E-03-7.74074E-04-1.93972E-14
 -1      2192 6.39120E-03-7.22869E-04-2.11852E-14
 -1      2193 6.24766E-03-7.63569E-04-2.06546E-14
 -1      2194 6.69356E-03-5.88300E-04-2.22654E-14
 -1      2195 6.54265E-03-6.65137E-04-2.17220E-14
 -1      2196 6.44929E-03-6.99751E-04-2.16036E-14
 -1      2197 7.06981E-03-3.80956E-04-2.33941E-14
 -1      2198 6.89681E-03-4.78383E-04-2.29309E-14
 -1      2199 7.44727E-03-1.77308E-04-2.42935E-14
 -1      2200 7.26820E-03-2.73481E-04-2.38868E-14
 -1      2201 7.81245E-03 5.33323E-06-2.51207E-14
 -1      2202 7.64098E-03-7.49990E-05-2.47738E-14
 -1      2203 8.14315E-03 1.27527E-04-2.55253E-14
 -1      2204 8.00566E-03 7.94097E-05-2.53570E-14
 -1      2205 8.34053E-03 1.99645E-04-2.58436E-14
 -1      2206 8.25996E-03 1.73174E-04-2.57404E-14
 -1      2207 6.97807E-03 9.30953E-04-2.15810E-14
 -1      2208 7.14710E-03 8.36077E-04-2.21178E-14
 -1      2209 6.11702E-04-2.83781E-04-2.47862E-16
 -1      2210 5.46039E-03 9.05306E-04-1.59539E-14
 -1      2211 5.54773E-03 9.67889E-04-1.64009E-14
 -1      2212 5.66026E-03 1.02625E-03-1.65265E-14
 -1      2213 6.87022E-03 9.78002E-04-2.13979E-14
 -1      2214 6.68446E-04-2.75731E-04-3.27036E-16
 -1      2215 8.25146E-03 2.98675E-04-2.56831E-14
 -1      2216 1.45877E-02 4.19872E-04-1.08769E-13
 -1      2217 7.62166E-03 5.62029E-04-2.38271E-14
 -1      2218 8.37892E-03 2.24141E-04-2.64413E-14
 -1      2219 7.22387E-03 7.74878E-04-2.26428E-14
 -1      2220 8.20334E-03 1.70583E-04-2.61576E-14
 -1      2221 7.90091E-03 6.33401E-05-2.56987E-14
 -1      2222 7.52595E-03-1.04926E-04-2.49686E-14
 -1      2223 6.77423E-03-5.32144E-04-2.28119E-14
 -1      2224 6.15153E-03-7.84636E-04-2.03623E-14
 -1      2225 5.51632E-03-6.36546E-04-1.77908E-14
 -1      2226 4.77293E-03-2.33321E-04-1.56771E-14
 -1      2227 4.65051E-03-1.66675E-04-1.52045E-14
 -1      2228 4.90286E-03-2.95877E-04-1.57868E-14
 -1      2229 4.35408E-03-4.49407E-05-1.48483E-14
 -1      2230 4.07016E-03 5.86376E-05-1.43092E-14
 -1      2231 3.89468E-03 1.13036E-04-1.39211E-14
 -1      2232 3.87227E-03 1.45904E-04-1.37738E-14
 -1      2233 4.02270E-03 1.95910E-04-1.38430E-14
 -1      2234 4.30939E-03 2.97356E-04-1.40979E-14
 -1      2235 4.71687E-03 4.84743E-04-1.46353E-14
 -1      2236 6.52206E-03 1.14374E-03-2.00478E-14
 -1      2237 6.20256E-03 1.20545E-03-1.86741E-14
 -1      2238 5.14381E-03 7.25472E-04-1.54332E-14
 -1      2239 5.84129E-03-7.64009E-04-1.90296E-14
 -1      2240 7.14917E-03-3.12004E-04-2.39837E-14
 -1      2241 1.02573E-03 3.72031E-04-4.49971E-16
 -1      2242 8.79326E-04 3.40160E-04-3.23174E-16
 -1      2243 5.43427E-04-4.74724E-05-3.34260E-16
 -1      2244 5.45357E-04-6.23557E-05-3.35344E-16
 -1      2245 5.47827E-04-7.80641E-05-3.35411E-16
 -1      2246 5.50826E-04-9.46935E-05-3.34395E-16
 -1      2247 6.61098E-04-8.29369E-05-4.54335E-16
 -1      2248 5.40535E-04 7.93827E-06-3.22306E-16
 -1      2249 5.40536E-04-5.59844E-06-3.26562E-16
 -1      2250 5.41987E-04 3.54368E-05-3.11532E-16
 -1      2251 5.41019E-04 2.15854E-05-3.17468E-16
 -1      2252 6.53464E-04 1.75111E-05-4.33965E-16
 -1      2253 5.45371E-04 6.40790E-05-2.97844E-16
 -1      2254 5.43437E-04 4.94949E-05-3.05122E-16
 -1      2255 6.55974E-04 5.01207E-05-4.19180E-16
 -1      2256 5.50986E-04 9.63357E-05-2.79155E-16
 -1      2257 5.47898E-04 7.97427E-05-2.89116E-16
 -1      2258 6.61101E-04 8.49729E-05-3.99705E-16
 -1      2259 5.59327E-04 1.33554E-04-2.54191E-16
 -1      2260 5.54787E-04 1.14236E-04-2.67703E-16
 -1      2261 6.69210E-04 1.24125E-04-3.73901E-16
 -1      2262 5.71806E-04 1.78224E-04-2.20296E-16
 -1      2263 5.64978E-04 1.54820E-04-2.38741E-16
 -1      2264 6.81053E-04 1.69348E-04-3.39857E-16
 -1      2265 1.31617E-03 4.19506E-04-7.75286E-16
 -1      2266 1.17115E-03 3.98367E-04-6.00350E-16
 -1      2267 1.08125E-03 3.51044E-04-5.66956E-16
 -1      2268 9.22602E-04-3.22002E-04-6.15773E-16
 -1      2269 1.06843E-03-3.51028E-04-8.05915E-16
 -1      2270 1.21366E-03-3.75028E-04-1.02280E-15
 -1      2271 1.35878E-03-3.94433E-04-1.26701E-15
 -1      2272 1.12567E-03-3.29651E-04-9.33403E-16
 -1      2273 1.50359E-03-4.10129E-04-1.53783E-15
 -1      2274 1.64843E-03-4.22438E-04-1.83541E-15
 -1      2275 1.41554E-03-3.67484E-04-1.42405E-15
 -1      2276 1.79333E-03-4.32094E-04-2.15955E-15
 -1      2277 1.93850E-03-4.39381E-04-2.50990E-15
 -1      2278 1.70529E-03-3.91599E-04-2.02022E-15
 -1      2279 2.08405E-03-4.44909E-04-2.88639E-15
 -1      2280 2.23013E-03-4.48970E-04-3.28881E-15
 -1      2281 1.99553E-03-4.05785E-04-2.72104E-15
 -1      2282 2.37683E-03-4.52108E-04-3.71646E-15
 -1      2283 2.52429E-03-4.54640E-04-4.17036E-15
 -1      2284 2.28707E-03-4.13472E-04-3.52420E-15
 -1      2285 2.67261E-03-4.57092E-04-4.64949E-15
 -1      2286 2.82188E-03-4.59827E-04-5.15394E-15
 -1      2287 2.58074E-03-4.17942E-04-4.42935E-15
 -1      2288 2.97223E-03-4.63386E-04-5.68367E-15
 -1      2289 3.12371E-03-4.68193E-04-6.23846E-15
 -1      2290 2.87747E-03-4.22551E-04-5.43498E-15
 -1      2291 3.27651E-03-4.74809E-04-6.81729E-15
 -1      2292 3.43057E-03-4.83729E-04-7.42039E-15
 -1      2293 3.17827E-03-4.30927E-04-6.53979E-15
 -1      2294 3.58619E-03-4.95497E-04-8.04787E-15
 -1      2295 3.74313E-03-5.10657E-04-8.69972E-15
 -1      2296 3.48432E-03-4.47070E-04-7.74191E-15
 -1      2297 3.90179E-03-5.29649E-04-9.37369E-15
 -1      2298 4.06171E-03-5.52972E-04-1.00709E-14
 -1      2299 3.79684E-03-4.75274E-04-9.03868E-15
 -1      2300 4.22333E-03-5.80807E-04-1.07911E-14
 -1      2301 4.38584E-03-6.13389E-04-1.15350E-14
 -1      2302 4.11682E-03-5.19698E-04-1.04272E-14
 -1      2303 4.54966E-03-6.50420E-04-1.23030E-14
 -1      2304 4.71359E-03-6.91469E-04-1.30936E-14
 -1      2305 4.44429E-03-5.83282E-04-1.19081E-14
 -1      2306 4.87784E-03-7.35518E-04-1.39064E-14
 -1      2307 5.04110E-03-7.81015E-04-1.47449E-14
 -1      2308 4.77718E-03-6.65604E-04-1.34826E-14
 -1      2309 5.20321E-03-8.26096E-04-1.56080E-14
 -1      2310 5.36333E-03-8.67920E-04-1.64938E-14
 -1      2311 5.11069E-03-7.59609E-04-1.51522E-14
 -1      2312 5.52098E-03-9.04070E-04-1.74060E-14
 -1      2313 5.67664E-03-9.31130E-04-1.83443E-14
 -1      2314 5.43828E-03-8.48726E-04-1.69208E-14
 -1      2315 5.82970E-03-9.46921E-04-1.93082E-14
 -1      2316 5.98226E-03-9.49298E-04-2.02973E-14
 -1      2317 5.75569E-03-9.08228E-04-1.87912E-14
 -1      2318 6.13369E-03-9.37550E-04-2.13128E-14
 -1      2319 6.28675E-03-9.11923E-04-2.23564E-14
 -1      2320 6.06546E-03-9.14867E-04-2.07663E-14
 -1      2321 6.44078E-03-8.73554E-04-2.34259E-14
 -1      2322 6.59763E-03-8.25088E-04-2.45226E-14
 -1      2323 6.37638E-03-8.60734E-04-2.28497E-14
 -1      2324 6.75666E-03-7.68828E-04-2.56461E-14
 -1      2325 6.91799E-03-7.08208E-04-2.67947E-14
 -1      2326 6.69641E-03-7.58050E-04-2.50411E-14
 -1      2327 7.08118E-03-6.45584E-04-2.79697E-14
 -1      2328 7.24525E-03-5.83518E-04-2.91686E-14
 -1      2329 7.02633E-03-6.31763E-04-2.73379E-14
 -1      2330 7.41011E-03-5.23699E-04-3.03911E-14
 -1      2331 7.57446E-03-4.67395E-04-3.16378E-14
 -1      2332 7.36084E-03-5.05306E-04-2.97346E-14
 -1      2333 7.73856E-03-4.15465E-04-3.29074E-14
 -1      2334 7.90132E-03-3.68170E-04-3.41988E-14
 -1      2335 7.69363E-03-3.92989E-04-3.22257E-14
 -1      2336 8.06316E-03-3.25711E-04-3.55114E-14
 -1      2337 8.22339E-03-2.87794E-04-3.68452E-14
 -1      2338 8.02053E-03-3.00201E-04-3.48060E-14
 -1      2339 8.38242E-03-2.54212E-04-3.81979E-14
 -1      2340 8.53988E-03-2.24487E-04-3.95720E-14
 -1      2341 8.34008E-03-2.26592E-04-3.74694E-14
 -1      2342 8.69611E-03-1.98214E-04-4.09663E-14
 -1      2343 8.85097E-03-1.74915E-04-4.23785E-14
 -1      2344 8.65261E-03-1.69145E-04-4.02136E-14
 -1      2345 9.00469E-03-1.54139E-04-4.38097E-14
 -1      2346 9.15726E-03-1.35481E-04-4.52558E-14
 -1      2347 8.95920E-03-1.24096E-04-4.30361E-14
 -1      2348 9.30882E-03-1.18530E-04-4.67188E-14
 -1      2349 9.45944E-03-1.02969E-04-4.81969E-14
 -1      2350 9.26104E-03-8.78705E-05-4.59273E-14
 -1      2351 9.60919E-03-8.84650E-05-4.96910E-14
 -1      2352 9.75817E-03-7.47848E-05-5.12012E-14
 -1      2353 9.55917E-03-5.74682E-05-4.88813E-14
 -1      2354 9.90642E-03-6.16782E-05-5.27244E-14
 -1      2355 1.00541E-02-4.89806E-05-5.42634E-14
 -1      2356 9.85442E-03-3.05579E-05-5.18972E-14
 -1      2357 1.02011E-02-3.65189E-05-5.58170E-14
 -1      2358 1.03476E-02-2.41807E-05-5.73835E-14
 -1      2359 1.01474E-02-5.43198E-06-5.49733E-14
 -1      2360 1.04936E-02-1.18557E-05-5.89665E-14
 -1      2361 1.06393E-02 5.29605E-07-6.05625E-14
 -1      2362 1.04387E-02 1.90915E-05-5.81078E-14
 -1      2363 1.07845E-02 1.30379E-05-6.21711E-14
 -1      2364 1.09294E-02 2.57145E-05-6.37921E-14
 -1      2365 1.07286E-02 4.37815E-05-6.12959E-14
 -1      2366 1.10740E-02 3.85882E-05-6.54262E-14
 -1      2367 1.12184E-02 5.16846E-05-6.70716E-14
 -1      2368 1.10174E-02 6.90974E-05-6.45356E-14
 -1      2369 1.13625E-02 6.50095E-05-6.87283E-14
 -1      2370 1.15064E-02 7.85751E-05-7.03980E-14
 -1      2371 1.13054E-02 9.52779E-05-6.78244E-14
 -1      2372 1.16501E-02 9.23729E-05-7.20763E-14
 -1      2373 1.17937E-02 1.06406E-04-7.37663E-14
 -1      2374 1.15928E-02 1.22411E-04-7.11582E-14
 -1      2375 1.19372E-02 1.20658E-04-7.54692E-14
 -1      2376 1.20806E-02 1.35127E-04-7.71848E-14
 -1      2377 1.18796E-02 1.50486E-04-7.45379E-14
 -1      2378 1.22238E-02 1.49792E-04-7.89119E-14
 -1      2379 1.23670E-02 1.64647E-04-8.06516E-14
 -1      2380 1.21661E-02 1.79435E-04-7.79676E-14
 -1      2381 1.25101E-02 1.79671E-04-8.24028E-14
 -1      2382 1.26531E-02 1.94856E-04-8.41657E-14
 -1      2383 1.24524E-02 2.09157E-04-8.14432E-14
 -1      2384 1.27961E-02 2.10182E-04-8.59432E-14
 -1      2385 1.29391E-02 2.25641E-04-8.77288E-14
 -1      2386 1.27384E-02 2.39540E-04-8.49686E-14
 -1      2387 1.30820E-02 2.41213E-04-8.95240E-14
 -1      2388 1.32250E-02 2.56890E-04-9.13320E-14
 -1      2389 1.30244E-02 2.70468E-04-8.85397E-14
 -1      2390 1.33678E-02 2.72654E-04-9.31465E-14
 -1      2391 1.35107E-02 2.88498E-04-9.49640E-14
 -1      2392 1.33102E-02 3.01832E-04-9.21450E-14
 -1      2393 1.36536E-02 3.04406E-04-9.67900E-14
 -1      2394 1.37965E-02 3.20370E-04-9.86228E-14
 -1      2395 1.35960E-02 3.33528E-04-9.57820E-14
 -1      2396 1.39393E-02 3.36376E-04-1.00460E-13
 -1      2397 1.40822E-02 3.52417E-04-1.02301E-13
 -1      2398 1.38817E-02 3.65465E-04-9.94413E-14
 -1      2399 1.89522E-03 4.67731E-04-1.71841E-15
 -1      2400 1.75010E-03 4.60128E-04-1.44603E-15
 -1      2401 2.18726E-03 4.77011E-04-2.33757E-15
 -1      2402 2.04086E-03 4.73258E-04-2.01569E-15
 -1      2403 1.95187E-03 4.34095E-04-1.93830E-15
 -1      2404 2.48280E-03 4.81132E-04-3.05403E-15
 -1      2405 2.33449E-03 4.79523E-04-2.68354E-15
 -1      2406 2.24387E-03 4.41317E-04-2.59080E-15
 -1      2407 2.78299E-03 4.83636E-04-3.86666E-15
 -1      2408 2.63222E-03 4.82370E-04-3.44866E-15
 -1      2409 2.53853E-03 4.44130E-04-3.33930E-15
 -1      2410 3.08890E-03 4.88563E-04-4.77503E-15
 -1      2411 2.93515E-03 4.85536E-04-4.30869E-15
 -1      2412 2.83682E-03 4.46058E-04-4.18365E-15
 -1      2413 3.40159E-03 5.00842E-04-5.77544E-15
 -1      2414 3.24433E-03 4.93454E-04-5.26388E-15
 -1      2415 3.13980E-03 4.51173E-04-5.12231E-15
 -1      2416 3.72218E-03 5.26598E-04-6.86609E-15
 -1      2417 3.56088E-03 5.11618E-04-6.30954E-15
 -1      2418 3.44876E-03 4.64472E-04-6.15218E-15
 -1      2419 4.05179E-03 5.73158E-04-8.04740E-15
 -1      2420 3.88593E-03 5.46778E-04-7.44539E-15
 -1      2421 3.76545E-03 4.92166E-04-7.27208E-15
 -1      2422 4.39126E-03 6.48315E-04-9.31990E-15
 -1      2423 4.22053E-03 6.06658E-04-8.67153E-15
 -1      2424 4.09209E-03 5.41740E-04-8.48155E-15
 -1      2425 4.74024E-03 7.58085E-04-1.06875E-14
 -1      2426 4.56506E-03 6.98590E-04-9.99233E-15
 -1      2427 4.43103E-03 6.21292E-04-9.78353E-15
 -1      2428 5.09550E-03 9.01963E-04-1.21522E-14
 -1      2429 4.91791E-03 8.26240E-04-1.14060E-14
 -1      2430 4.78329E-03 7.37410E-04-1.11800E-14
 -1      2431 5.44963E-03 1.06529E-03-1.37171E-14
 -1      2432 5.27363E-03 9.82837E-04-1.29225E-14
 -1      2433 5.14570E-03 8.89376E-04-1.26739E-14
 -1      2434 5.79313E-03 1.21500E-03-1.53887E-14
 -1      2435 5.62304E-03 1.14490E-03-1.45397E-14
 -1      2436 5.50846E-03 1.06023E-03-1.42702E-14
 -1      2437 6.12243E-03 1.30581E-03-1.71752E-14
 -1      2438 5.95846E-03 1.27062E-03-1.62667E-14
 -1      2439 5.85908E-03 1.20979E-03-1.59735E-14
 -1      2440 6.44672E-03 1.30624E-03-1.90817E-14
 -1      2441 6.28336E-03 1.31802E-03-1.81130E-14
 -1      2442 6.19518E-03 1.28560E-03-1.77935E-14
 -1      2443 6.77942E-03 1.22225E-03-2.11115E-14
 -1      2444 6.61042E-03 1.27224E-03-2.00819E-14
 -1      2445 6.52940E-03 1.25815E-03-1.97367E-14
 -1      2446 7.12758E-03 1.09418E-03-2.32596E-14
 -1      2447 6.95195E-03 1.16067E-03-2.21711E-14
 -1      2448 6.87697E-03 1.14849E-03-2.18018E-14
 -1      2449 7.48403E-03 9.65372E-04-2.55244E-14
 -1      2450 7.30578E-03 1.02775E-03-2.43779E-14
 -1      2451 7.23924E-03 1.00884E-03-2.39850E-14
 -1      2452 7.83932E-03 8.63007E-04-2.78906E-14
 -1      2453 7.66270E-03 9.10005E-04-2.66937E-14
 -1      2454 7.60352E-03 8.82781E-04-2.62791E-14
 -1      2455 8.18736E-03 7.96436E-04-3.03544E-14
 -1      2456 8.01476E-03 8.25289E-04-2.91110E-14
 -1      2457 7.95915E-03 7.91259E-04-2.86746E-14
 -1      2458 8.52607E-03 7.63461E-04-3.29131E-14
 -1      2459 8.35809E-03 7.76148E-04-3.16230E-14
 -1      2460 8.30197E-03 7.37261E-04-3.11670E-14
 -1      2461 8.85563E-03 7.57371E-04-3.55550E-14
 -1      2462 8.69202E-03 7.57522E-04-3.42238E-14
 -1      2463 8.63251E-03 7.15172E-04-3.37490E-14
 -1      2464 9.17709E-03 7.70758E-04-3.82733E-14
 -1      2465 9.01732E-03 7.62039E-04-3.69044E-14
 -1      2466 8.95304E-03 7.17235E-04-3.64113E-14
 -1      2467 9.49163E-03 7.97237E-04-4.10640E-14
 -1      2468 9.33515E-03 7.82682E-04-3.96591E-14
 -1      2469 9.26592E-03 7.36208E-04-3.91491E-14
 -1      2470 9.80032E-03 8.31891E-04-4.39262E-14
 -1      2471 9.64662E-03 8.13776E-04-4.24873E-14
 -1      2472 9.57293E-03 7.66270E-04-4.19605E-14
 -1      2473 1.01041E-02 8.71202E-04-4.68532E-14
 -1      2474 9.95275E-03 8.51129E-04-4.53798E-14
 -1      2475 9.87539E-03 8.03084E-04-4.48402E-14
 -1      2476 1.04039E-02 9.12780E-04-4.98449E-14
 -1      2477 1.02544E-02 8.91818E-04-4.83410E-14
 -1      2478 1.01742E-02 8.43598E-04-4.77848E-14
 -1      2479 1.07003E-02 9.55082E-04-5.29056E-14
 -1      2480 1.05524E-02 9.33913E-04-5.13662E-14
 -1      2481 1.04701E-02 8.85762E-04-5.07940E-14
 -1      2482 1.09941E-02 9.97162E-04-5.60374E-14
 -1      2483 1.08475E-02 9.76194E-04-5.44630E-14
 -1      2484 1.07637E-02 9.28264E-04-5.38729E-14
 -1      2485 1.12858E-02 1.03849E-03-5.92374E-14
 -1      2486 1.11402E-02 1.01795E-03-5.76290E-14
 -1      2487 1.10553E-02 9.70315E-04-5.70211E-14
 -1      2488 1.15758E-02 1.07880E-03-6.25060E-14
 -1      2489 1.14309E-02 1.05878E-03-6.08635E-14
 -1      2490 1.13454E-02 1.01148E-03-6.02383E-14
 -1      2491 1.18645E-02 1.11801E-03-6.58432E-14
 -1      2492 1.17203E-02 1.09855E-03-6.41664E-14
 -1      2493 1.16344E-02 1.05158E-03-6.35214E-14
 -1      2494 1.21523E-02 1.15615E-03-6.92458E-14
 -1      2495 1.20085E-02 1.13722E-03-6.75354E-14
 -1      2496 1.19224E-02 1.09055E-03-6.68686E-14
 -1      2497 1.24394E-02 1.19330E-03-7.27135E-14
 -1      2498 1.22960E-02 1.17485E-03-7.09724E-14
 -1      2499 1.22097E-02 1.12845E-03-7.02828E-14
 -1      2500 1.27260E-02 1.22957E-03-7.62395E-14
 -1      2501 1.25828E-02 1.21154E-03-7.44681E-14
 -1      2502 1.24965E-02 1.16537E-03-7.37594E-14
 -1      2503 1.30123E-02 1.26510E-03-7.98146E-14
 -1      2504 1.28692E-02 1.24742E-03-7.80217E-14
 -1      2505 1.27830E-02 1.20145E-03-7.72924E-14
 -1      2506 1.32983E-02 1.30000E-03-8.34334E-14
 -1      2507 1.31553E-02 1.28262E-03-8.16204E-14
 -1      2508 1.30691E-02 1.23680E-03-8.08748E-14
 -1      2509 1.35841E-02 1.33441E-03-8.70772E-14
 -1      2510 1.34412E-02 1.31726E-03-8.52529E-14
 -1      2511 1.33551E-02 1.27157E-03-8.44939E-14
 -1      2512 1.38699E-02 1.36843E-03-9.07401E-14
 -1      2513 1.37270E-02 1.35147E-03-8.89063E-14
 -1      2514 1.36409E-02 1.30587E-03-8.81369E-14
 -1      2515 1.41556E-02 1.40217E-03-9.44163E-14
 -1      2516 1.40128E-02 1.38533E-03-9.25761E-14
 -1      2517 1.39267E-02 1.33980E-03-9.17977E-14
 -1      2518 1.44413E-02 1.43571E-03-9.81124E-14
 -1      2519 1.42984E-02 1.41896E-03-9.62621E-14
 -1      2520 1.42124E-02 1.37347E-03-9.54767E-14
 -1      2521 1.47270E-02 1.46915E-03-1.01823E-13
 -1      2522 1.45841E-02 1.45244E-03-9.99652E-14
 -1      2523 1.44981E-02 1.40697E-03-9.91726E-14
 -1      2524 1.48751E-02 1.48743E-03-1.03742E-13
 -1      2525 1.46661E-02 1.14546E-03-1.03858E-13
 -1      2526 1.46825E-02 1.18761E-03-1.03720E-13
 -1      2527 1.46335E-02 1.06118E-03-1.04128E-13
 -1      2528 1.46498E-02 1.10332E-03-1.03994E-13
 -1      2529 1.45342E-02 1.11005E-03-1.02327E-13
 -1      2530 1.47312E-02 1.31263E-03-1.03299E-13
 -1      2531 1.47476E-02 1.35479E-03-1.03151E-13
 -1      2532 1.46987E-02 1.22940E-03-1.03581E-13
 -1      2533 1.47148E-02 1.27084E-03-1.03441E-13
 -1      2534 1.45993E-02 1.27749E-03-1.01764E-13
 -1      2535 1.45668E-02 1.19394E-03-1.02048E-13
 -1      2536 7.89856E-03 4.20283E-04-2.50862E-14
 -1      2537 8.03103E-03 3.68529E-04-2.54979E-14
 -1      2538 1.46011E-02 9.76907E-04-1.04391E-13
 -1      2539 1.46173E-02 1.01904E-03-1.04260E-13
 -1      2540 1.45017E-02 1.02582E-03-1.02597E-13
 -1      2541 1.45688E-02 8.92639E-04-1.04655E-13
 -1      2542 1.45850E-02 9.34772E-04-1.04523E-13
 -1      2543 1.44693E-02 9.41616E-04-1.02862E-13
 -1      2544 1.45367E-02 8.08371E-04-1.04912E-13
 -1      2545 1.45528E-02 8.50505E-04-1.04784E-13
 -1      2546 1.44371E-02 8.57413E-04-1.03124E-13
 -1      2547 1.45053E-02 7.25524E-04-1.05160E-13
 -1      2548 1.45210E-02 7.66948E-04-1.05036E-13
 -1      2549 1.44053E-02 7.73918E-04-1.03376E-13
 -1      2550 1.44735E-02 6.41237E-04-1.05409E-13
 -1      2551 1.44894E-02 6.83381E-04-1.05285E-13
 -1      2552 1.43736E-02 6.90409E-04-1.03624E-13
 -1      2553 1.44419E-02 5.56938E-04-1.05650E-13
 -1      2554 1.44577E-02 5.99088E-04-1.05530E-13
 -1      2555 1.43419E-02 6.06166E-04-1.03871E-13
 -1      2556 1.44103E-02 4.72633E-04-1.05886E-13
 -1      2557 1.44261E-02 5.14786E-04-1.05767E-13
 -1      2558 1.43102E-02 5.21900E-04-1.04109E-13
 -1      2559 1.44603E-02 4.07135E-04-1.07098E-13
 -1      2560 7.52275E-03 5.99892E-04-2.39693E-14
 -1      2561 7.72007E-03 5.00483E-04-2.45722E-14
 -1      2562 1.60538E-03 4.49834E-04-1.19799E-15
 -1      2563 1.46078E-03 4.36560E-04-9.74223E-16
 -1      2564 1.66150E-03 4.19111E-04-1.38350E-15
 -1      2565 8.39599E-03 2.56281E-04-2.69519E-14
 -1      2566 8.42333E-03 2.49857E-04-2.71435E-14
 -1      2567 8.41089E-03 2.36249E-04-2.71654E-14
 -1      2568 8.35649E-03 2.24929E-04-2.70988E-14
 -1      2569 5.92682E-04-2.22632E-04-2.97790E-16
 -1      2570 7.87270E-04-2.84184E-04-4.70761E-16
 -1      2571 8.46612E-04-2.70872E-04-5.68203E-16
 -1      2572 5.82645E-04-1.94718E-04-3.11898E-16
 -1      2573 7.13827E-03 8.18584E-04-2.26625E-14
 -1      2574 7.30748E-03 7.17700E-04-2.32586E-14
 -1      2575 6.22487E-03-7.78639E-04-2.08290E-14
 -1      2576 6.08124E-03-7.99707E-04-2.01273E-14
 -1      2577 6.77670E-03 1.03010E-03-2.12049E-14
 -1      2578 6.93415E-03 9.37851E-04-2.18610E-14
 -1      2579 5.41020E-04-1.92595E-05-3.29977E-16
 -1      2580 5.41977E-04-3.31367E-05-3.32579E-16
 -1      2581 6.56008E-04-4.76425E-05-4.51801E-16
 -1      2582 6.53477E-04-1.46684E-05-4.44902E-16
 -1      2583 6.11816E-03 1.20644E-03-1.82074E-14
 -1      2584 6.26470E-03 1.21359E-03-1.88795E-14
 -1      2585 5.07657E-03 6.65945E-04-1.49525E-14
 -1      2586 5.24881E-03 7.73180E-04-1.53404E-14
 -1      2587 5.84059E-03 1.11771E-03-1.70523E-14
 -1      2588 5.96757E-03 1.17107E-03-1.75595E-14
 -1      2589 5.90984E-03-7.87971E-04-1.93124E-14
 -1      2590 5.77282E-03-7.49893E-04-1.86787E-14
 -1      2591 6.45753E-03 1.17702E-03-1.97889E-14
 -1      2592 6.60798E-03 1.11346E-03-2.04893E-14
 -1      2593 6.69474E-03 1.08172E-03-2.09365E-14
 -1      2594 4.62167E-03 4.16961E-04-1.41086E-14
 -1      2595 4.84892E-03 5.35495E-04-1.45048E-14
 -1      2596 4.21684E-03 2.45599E-04-1.36221E-14
 -1      2597 4.37611E-03 3.04917E-04-1.37555E-14
 -1      2598 3.97357E-03 1.70254E-04-1.33926E-14
 -1      2599 4.08341E-03 2.00363E-04-1.35071E-14
 -1      2600 4.13686E-03 2.14125E-04-1.31708E-14
 -1      2601 3.84803E-03 1.33226E-04-1.33647E-14
 -1      2602 3.87980E-03 1.42817E-04-1.33178E-14
 -1      2603 3.91039E-03 1.09038E-04-1.36020E-14
 -1      2604 3.86194E-03 1.20674E-04-1.35051E-14
 -1      2605 4.13823E-03 4.36728E-05-1.41160E-14
 -1      2606 4.01800E-03 7.83859E-05-1.38304E-14
 -1      2607 4.41056E-03-5.75715E-05-1.45963E-14
 -1      2608 4.26626E-03-1.59407E-06-1.43542E-14
 -1      2609 4.18558E-03 2.30110E-05-1.38700E-14
 -1      2610 5.27633E-03-5.06300E-04-1.67773E-14
 -1      2611 5.13513E-03-4.24314E-04-1.63198E-14
 -1      2612 7.22698E-03-2.48628E-04-2.46661E-14
 -1      2613 7.05374E-03-3.51718E-04-2.41606E-14
 -1      2614 5.60294E-03-6.81899E-04-1.79646E-14
 -1      2615 5.44460E-03-5.98162E-04-1.73642E-14
 -1      2616 5.36766E-03-5.65812E-04-1.69428E-14
 -1      2617 6.49961E-03-6.73668E-04-2.20584E-14
 -1      2618 6.37754E-03-7.30860E-04-2.15151E-14
 -1      2619 6.84021E-03-4.79744E-04-2.34096E-14
 -1      2620 6.66492E-03-5.86349E-04-2.27345E-14
 -1      2621 7.58477E-03-5.78523E-05-2.56448E-14
 -1      2622 7.40549E-03-1.50146E-04-2.51534E-14
 -1      2623 7.31173E-03-1.98979E-04-2.53320E-14
 -1      2624 8.00084E-03 1.18323E-04-2.64728E-14
 -1      2625 7.82800E-03 5.32330E-05-2.62261E-14
 -1      2626 8.24704E-03 1.95166E-04-2.69125E-14
 -1      2627 8.13341E-03 1.63673E-04-2.66927E-14
 -1      2628 8.07298E-03 1.46951E-04-2.72268E-14
 -1      2629 7.63709E-04 3.14527E-04-2.33063E-16
 -1      2630 6.15829E-04 2.69409E-04-1.48631E-16
 -1      2631 5.89065E-04 2.42888E-04-1.58930E-16
 -1      2632 8.20232E-04 3.00786E-04-3.18864E-16
 -1      2633 8.19081E-03 3.11998E-04-2.60452E-14
 -1      2634 8.31619E-03 2.77918E-04-2.64969E-14
 -1      2635 8.37011E-03 2.70412E-04-2.73217E-14
 -1      2636 6.28016E-03 1.22529E-03-1.88195E-14
 -1      2637 6.36179E-03 1.20875E-03-1.93016E-14
 -1      2638 6.45310E-03 1.19211E-03-1.97287E-14
 -1      2639 6.68962E-04-1.22128E-04-4.51936E-16
 -1      2640 5.54476E-04-1.12520E-04-3.32281E-16
 -1      2641 5.58828E-04-1.31732E-04-3.28310E-16
 -1      2642 1.37166E-03 3.92810E-04-9.26830E-16
 -1      2643 5.76351E-04 2.12442E-04-1.85480E-16
 -1      2644 8.13643E-03 3.35525E-04-2.63078E-14
 -1      2645 5.36919E-03 8.47643E-04-1.54582E-14
 -1      2646 7.04240E-03 8.83566E-04-2.24617E-14
 -1      2647 5.74667E-03 1.07262E-03-1.65896E-14
 -1      2648 8.31623E-03 2.16081E-04-2.76398E-14
 -1      2649 7.80914E-03 4.64498E-04-2.52328E-14
 -1      2650 7.71817E-03 8.86852E-06-2.64104E-14
 -1      2651 7.62074E-03-4.14374E-05-2.65935E-14
 -1      2652 7.84306E-03 5.80708E-05-2.71879E-14
 -1      2653 1.47891E-02 1.44196E-03-1.02943E-13
 -1      2654 1.47603E-02 1.40700E-03-1.02856E-13
 -1      2655 1.43058E-02 3.75166E-04-1.05210E-13
 -1      2656 1.43716E-02 4.33513E-04-1.05661E-13
 -1      2657 1.42558E-02 4.40651E-04-1.04001E-13
 -1      2658 1.41784E-02 3.62438E-04-1.03551E-13
 -1      2659 7.43669E-03 6.53721E-04-2.39902E-14
 -1      2660 6.94055E-03-4.18921E-04-2.40773E-14
 -1      2661 5.68242E-03-7.22592E-04-1.82364E-14
 -1      2662 6.94256E-04 2.32253E-04-2.78233E-16
 -1      2663 4.53336E-03-1.11524E-04-1.46993E-14
 -1      2664 4.42223E-03-7.29933E-05-1.42037E-14
 -1      2665 4.64844E-03-1.72087E-04-1.48011E-14
 -1      2666 6.29093E-03-7.62738E-04-2.12703E-14
 -1      2667 5.99768E-03-8.02390E-04-1.97624E-14
 -1      2668 5.08018E-03-4.10018E-04-1.58756E-14
 -1      2669 5.00388E-03-3.53317E-04-1.58331E-14
 -1      2670 4.87368E-03-2.88433E-04-1.53546E-14
 -1      2671 3.95004E-03 9.30893E-05-1.34126E-14
 -1      2672 3.90831E-03 1.49450E-04-1.29864E-14
 -1      2673 4.95231E-03 5.91762E-04-1.44136E-14
 -1      2674 5.74616E-04-1.69923E-04-3.22184E-16
 -1      2675 8.43884E-03 2.47488E-04-2.78059E-14
 -1      2676 6.04545E-03 1.19698E-03-1.77532E-14
 -1      2677 4.49506E-03 3.52086E-04-1.36279E-14
 -1      2678 4.60206E-03 4.06487E-04-1.34966E-14
 -1      2679 4.37685E-03 3.05165E-04-1.31551E-14
 -1      2680 3.83643E-03 1.24245E-04-1.30512E-14
 -1      2681 6.58516E-03-6.29624E-04-2.26406E-14
 -1      2682 1.46283E-02 1.37148E-03-1.01323E-13
 -1      2683 1.41208E-02 3.91515E-04-1.02525E-13
 -1      2684 7.71930E-04 6.70170E-05-5.42765E-16
 -1      2685 7.69586E-04 4.80548E-05-5.53377E-16
 -1      2686 7.67994E-04 2.92427E-05-5.62796E-16
 -1      2687 7.67224E-04 1.07519E-05-5.70927E-16
 -1      2688 8.84025E-04 4.30386E-05-7.07848E-16
 -1      2689 7.90314E-04 1.53646E-04-4.82212E-16
 -1      2690 7.84297E-04 1.30035E-04-5.00563E-16
 -1      2691 8.06150E-04 2.06381E-04-4.37652E-16
 -1      2692 7.97599E-04 1.79021E-04-4.61667E-16
 -1      2693 9.14097E-04 1.84463E-04-6.03846E-16
 -1      2694 1.13863E-03 3.29456E-04-6.90813E-16
 -1      2695 9.93590E-04 3.04989E-04-5.29538E-16
 -1      2696 1.42831E-03 3.65657E-04-1.08492E-15
 -1      2697 1.28342E-03 3.49556E-04-8.75819E-16
 -1      2698 1.19680E-03 3.07155E-04-8.21690E-16
 -1      2699 1.32866E-03-3.25611E-04-1.31132E-15
 -1      2700 1.47323E-03-3.40088E-04-1.58395E-15
 -1      2701 1.61777E-03-3.51626E-04-1.88241E-15
 -1      2702 1.76246E-03-3.60474E-04-2.20685E-15
 -1      2703 1.53128E-03-3.12342E-04-1.74669E-15
 -1      2704 1.90722E-03-3.67191E-04-2.55728E-15
 -1      2705 2.05221E-03-3.72042E-04-2.93312E-15
 -1      2706 1.81958E-03-3.29199E-04-2.39579E-15
 -1      2707 2.19743E-03-3.75533E-04-3.33467E-15
 -1      2708 2.34302E-03-3.77941E-04-3.76080E-15
 -1      2709 2.10833E-03-3.38297E-04-3.14698E-15
 -1      2710 2.48905E-03-3.79744E-04-4.21198E-15
 -1      2711 2.63565E-03-3.81261E-04-4.68833E-15
 -1      2712 2.39790E-03-3.42490E-04-3.99795E-15
 -1      2713 2.78294E-03-3.82963E-04-5.19005E-15
 -1      2714 2.93106E-03-3.85236E-04-5.71594E-15
 -1      2715 2.68899E-03-3.44656E-04-4.94800E-15
 -1      2716 3.08021E-03-3.88556E-04-6.26602E-15
 -1      2717 3.23053E-03-3.93413E-04-6.84076E-15
 -1      2718 2.98269E-03-3.47863E-04-5.99598E-15
 -1      2719 3.38232E-03-4.00277E-04-7.43958E-15
 -1      2720 3.53568E-03-4.09776E-04-8.06203E-15
 -1      2721 3.28057E-03-3.55538E-04-7.14072E-15
 -1      2722 3.69106E-03-4.22338E-04-8.70727E-15
 -1      2723 3.84840E-03-4.38727E-04-9.37592E-15
 -1      2724 3.58478E-03-3.71646E-04-8.38000E-15
 -1      2725 4.00831E-03-4.59259E-04-1.00674E-14
 -1      2726 4.17042E-03-4.84742E-04-1.07810E-14
 -1      2727 3.89794E-03-4.00787E-04-9.71117E-15
 -1      2728 4.33539E-03-5.15258E-04-1.15183E-14
 -1      2729 4.50230E-03-5.51316E-04-1.22794E-14
 -1      2730 4.22263E-03-4.48036E-04-1.11334E-14
 -1      2731 4.67165E-03-5.92581E-04-1.30630E-14
 -1      2732 4.84180E-03-6.38480E-04-1.38696E-14
 -1      2733 4.55993E-03-5.17939E-04-1.26471E-14
 -1      2734 5.01286E-03-6.87880E-04-1.47010E-14
 -1      2735 5.18278E-03-7.38348E-04-1.55573E-14
 -1      2736 4.90715E-03-6.11295E-04-1.42546E-14
 -1      2737 5.35110E-03-7.87736E-04-1.64382E-14
 -1      2738 5.51658E-03-8.31226E-04-1.73442E-14
 -1      2739 5.25619E-03-7.19208E-04-1.59591E-14
 -1      2740 5.67861E-03-8.66052E-04-1.82764E-14
 -1      2741 5.83819E-03-8.87043E-04-1.92359E-14
 -1      2742 5.59608E-03-8.16690E-04-1.77653E-14
 -1      2743 5.99429E-03-8.92252E-04-2.02214E-14
 -1      2744 6.15161E-03-8.79727E-04-2.12344E-14
 -1      2745 5.92132E-03-8.66748E-04-1.96788E-14
 -1      2746 6.30855E-03-8.49952E-04-2.22755E-14
 -1      2747 6.46936E-03-8.05477E-04-2.33428E-14
 -1      2748 6.24001E-03-8.40808E-04-2.17024E-14
 -1      2749 6.63294E-03-7.48666E-04-2.44380E-14
 -1      2750 6.79983E-03-6.85234E-04-2.55600E-14
 -1      2751 6.56829E-03-7.42463E-04-2.38360E-14
 -1      2752 6.96932E-03-6.17778E-04-2.67072E-14
 -1      2753 7.13980E-03-5.50571E-04-2.78808E-14
 -1      2754 6.91109E-03-6.05375E-04-2.60775E-14
 -1      2755 7.31094E-03-4.85523E-04-2.90790E-14
 -1      2756 7.48079E-03-4.24611E-04-3.02999E-14
 -1      2757 7.26064E-03-4.65355E-04-2.84228E-14
 -1      2758 7.64953E-03-3.68764E-04-3.15448E-14
 -1      2759 7.81567E-03-3.18233E-04-3.28116E-14
 -1      2760 7.60617E-03-3.43058E-04-3.08653E-14
 -1      2761 7.97976E-03-2.73283E-04-3.41024E-14
 -1      2762 8.14107E-03-2.33288E-04-3.54127E-14
 -1      2763 7.94075E-03-2.44783E-04-3.33993E-14
 -1      2764 8.30022E-03-1.98154E-04-3.67423E-14
 -1      2765 8.45696E-03-1.67093E-04-3.80931E-14
 -1      2766 8.26273E-03-1.68619E-04-3.60170E-14
 -1      2767 8.61184E-03-1.39822E-04-3.94639E-14
 -1      2768 8.76487E-03-1.15647E-04-4.08549E-14
 -1      2769 8.57372E-03-1.10004E-04-3.87164E-14
 -1      2770 8.91644E-03-9.42132E-05-4.22652E-14
 -1      2771 9.06667E-03-7.49864E-05-4.36926E-14
 -1      2772 8.87635E-03-6.43303E-05-4.14956E-14
 -1      2773 9.21582E-03-5.76176E-05-4.51376E-14
 -1      2774 9.36403E-03-4.17194E-05-4.65968E-14
 -1      2775 9.17312E-03-2.76893E-05-4.43484E-14
 -1      2776 9.51145E-03-2.69869E-05-4.80734E-14
 -1      2777 9.65822E-03-1.31512E-05-4.95657E-14
 -1      2778 9.46600E-03 3.00058E-06-4.72671E-14
 -1      2779 9.80442E-03 3.20074E-08-5.10722E-14
 -1      2780 9.95016E-03 1.27438E-05-5.25934E-14
 -1      2781 9.75638E-03 3.00730E-05-5.02469E-14
 -1      2782 1.00955E-02 2.51655E-05-5.41316E-14
 -1      2783 1.02405E-02 3.74151E-05-5.56835E-14
 -1      2784 1.00452E-02 5.52314E-05-5.32896E-14
 -1      2785 1.03851E-02 4.96176E-05-5.72473E-14
 -1      2786 1.05296E-02 6.18464E-05-5.88274E-14
 -1      2787 1.03330E-02 7.96688E-05-5.63897E-14
 -1      2788 1.06738E-02 7.41804E-05-6.04218E-14
 -1      2789 1.08178E-02 8.66623E-05-6.20279E-14
 -1      2790 1.06201E-02 1.04178E-04-5.95465E-14
 -1      2791 1.09617E-02 9.93357E-05-6.36459E-14
 -1      2792 1.11054E-02 1.12222E-04-6.52770E-14
 -1      2793 1.09068E-02 1.29248E-04-6.27575E-14
 -1      2794 1.12490E-02 1.25341E-04-6.69215E-14
 -1      2795 1.13925E-02 1.38699E-04-6.85766E-14
 -1      2796 1.11932E-02 1.55148E-04-6.60182E-14
 -1      2797 1.15359E-02 1.52297E-04-7.02423E-14
 -1      2798 1.16792E-02 1.66136E-04-7.19189E-14
 -1      2799 1.14795E-02 1.81990E-04-6.93264E-14
 -1      2800 1.18224E-02 1.80206E-04-7.36076E-14
 -1      2801 1.19656E-02 1.94500E-04-7.53100E-14
 -1      2802 1.17656E-02 2.09782E-04-7.26799E-14
 -1      2803 1.21087E-02 2.09004E-04-7.70251E-14
 -1      2804 1.22518E-02 2.23708E-04-7.87512E-14
 -1      2805 1.20516E-02 2.38470E-04-7.60815E-14
 -1      2806 1.23949E-02 2.38594E-04-8.04869E-14
 -1      2807 1.25379E-02 2.53654E-04-8.22346E-14
 -1      2808 1.23375E-02 2.67960E-04-7.95308E-14
 -1      2809 1.26808E-02 2.68866E-04-8.39954E-14
 -1      2810 1.28238E-02 2.84223E-04-8.57686E-14
 -1      2811 1.26234E-02 2.98144E-04-8.30254E-14
 -1      2812 1.29667E-02 2.99704E-04-8.75528E-14
 -1      2813 1.31097E-02 3.15302E-04-8.93460E-14
 -1      2814 1.29092E-02 3.28908E-04-8.65668E-14
 -1      2815 1.32526E-02 3.30998E-04-9.11484E-14
 -1      2816 1.33955E-02 3.46784E-04-9.29576E-14
 -1      2817 1.31950E-02 3.60143E-04-9.01523E-14
 -1      2818 1.35384E-02 3.62644E-04-9.47740E-14
 -1      2819 1.36812E-02 3.78570E-04-9.65967E-14
 -1      2820 1.34808E-02 3.91746E-04-9.37673E-14
 -1      2821 1.38241E-02 3.94549E-04-9.84230E-14
 -1      2822 1.39670E-02 4.10572E-04-1.00257E-13
 -1      2823 1.37665E-02 4.23623E-04-9.74088E-14
 -1      2824 2.29885E-03 4.05846E-04-2.84885E-15
 -1      2825 2.15313E-03 4.03822E-04-2.49444E-15
 -1      2826 7.37757E-03 7.10506E-04-2.41276E-14
 -1      2827 7.56351E-03 6.06522E-04-2.48573E-14
 -1      2828 2.00782E-03 4.00418E-04-2.16400E-15
 -1      2829 1.86273E-03 3.95362E-04-1.85773E-15
 -1      2830 2.06284E-03 3.66950E-04-2.39533E-15
 -1      2831 2.88719E-03 4.09167E-04-4.50498E-15
 -1      2832 2.73903E-03 4.08204E-04-4.05532E-15
 -1      2833 3.18641E-03 4.14533E-04-5.47354E-15
 -1      2834 3.03623E-03 4.11104E-04-4.97799E-15
 -1      2835 2.93418E-03 3.73069E-04-4.83074E-15
 -1      2836 3.49100E-03 4.28652E-04-6.53260E-15
 -1      2837 3.33791E-03 4.20137E-04-5.99173E-15
 -1      2838 3.22893E-03 3.78629E-04-5.82868E-15
 -1      2839 3.80343E-03 4.57702E-04-7.68169E-15
 -1      2840 3.64609E-03 4.40817E-04-7.09597E-15
 -1      2841 3.52857E-03 3.93198E-04-6.91755E-15
 -1      2842 4.12723E-03 5.09277E-04-8.91947E-15
 -1      2843 3.96378E-03 4.80014E-04-8.28963E-15
 -1      2844 3.83645E-03 4.22813E-04-8.09461E-15
 -1      2845 4.46651E-03 5.92036E-04-1.02513E-14
 -1      2846 4.29497E-03 5.46000E-04-9.57313E-15
 -1      2847 4.15760E-03 4.75275E-04-9.36169E-15
 -1      2848 4.82378E-03 7.13888E-04-1.16761E-14
 -1      2849 4.64334E-03 6.47532E-04-1.09516E-14
 -1      2850 4.49798E-03 5.60478E-04-1.07214E-14
 -1      2851 5.19689E-03 8.75001E-04-1.31996E-14
 -1      2852 5.00999E-03 7.90045E-04-1.24256E-14
 -1      2853 4.86250E-03 6.88243E-04-1.21758E-14
 -1      2854 5.57101E-03 1.05639E-03-1.48245E-14
 -1      2855 5.38521E-03 9.65991E-04-1.39985E-14
 -1      2856 5.24722E-03 8.62170E-04-1.37268E-14
 -1      2857 6.27281E-03 1.26539E-03-1.84134E-14
 -1      2858 6.10115E-03 1.25185E-03-1.74704E-14
 -1      2859 6.54026E-03 1.21471E-03-1.99927E-14
 -1      2860 6.36317E-03 1.25087E-03-1.90003E-14
 -1      2861 6.98138E-03 1.06899E-03-2.24837E-14
 -1      2862 6.79665E-03 1.14183E-03-2.14193E-14
 -1      2863 7.35630E-03 9.21583E-04-2.46986E-14
 -1      2864 7.16902E-03 9.93245E-04-2.35758E-14
 -1      2865 7.09860E-03 9.80162E-04-2.31693E-14
 -1      2866 7.72560E-03 8.03315E-04-2.70247E-14
 -1      2867 7.54346E-03 8.57836E-04-2.58494E-14
 -1      2868 7.48390E-03 8.31874E-04-2.54169E-14
 -1      2869 8.07821E-03 7.25619E-04-2.94476E-14
 -1      2870 7.90450E-03 7.59558E-04-2.82240E-14
 -1      2871 7.85271E-03 7.26245E-04-2.77737E-14
 -1      2872 8.41373E-03 6.85215E-04-3.19677E-14
 -1      2873 8.24815E-03 7.01415E-04-3.06959E-14
 -1      2874 8.19834E-03 6.64373E-04-3.02255E-14
 -1      2875 8.73539E-03 6.73891E-04-3.45702E-14
 -1      2876 8.57612E-03 6.76550E-04-3.32573E-14
 -1      2877 8.52424E-03 6.37639E-04-3.27678E-14
 -1      2878 9.04717E-03 6.83497E-04-3.72551E-14
 -1      2879 8.89232E-03 6.76567E-04-3.59038E-14
 -1      2880 8.83606E-03 6.36363E-04-3.53943E-14
 -1      2881 9.35218E-03 7.07361E-04-4.00118E-14
 -1      2882 9.20035E-03 6.94006E-04-3.86246E-14
 -1      2883 9.13893E-03 6.52668E-04-3.81002E-14
 -1      2884 9.65254E-03 7.40374E-04-4.28437E-14
 -1      2885 9.50282E-03 7.22977E-04-4.14183E-14
 -1      2886 9.43636E-03 6.80675E-04-4.08785E-14
 -1      2887 9.94957E-03 7.78829E-04-4.57403E-14
 -1      2888 9.80138E-03 7.59097E-04-4.42845E-14
 -1      2889 9.73048E-03 7.16056E-04-4.37273E-14
 -1      2890 1.02441E-02 8.20139E-04-4.87036E-14
 -1      2891 1.00971E-02 7.99245E-04-4.72138E-14
 -1      2892 1.00225E-02 7.55713E-04-4.66444E-14
 -1      2893 1.05367E-02 8.62576E-04-5.17303E-14
 -1      2894 1.03906E-02 8.41293E-04-5.02080E-14
 -1      2895 1.03131E-02 7.97493E-04-4.96232E-14
 -1      2896 1.08277E-02 9.05042E-04-5.48273E-14
 -1      2897 1.06823E-02 8.83852E-04-5.32700E-14
 -1      2898 1.06026E-02 8.39963E-04-5.26681E-14
 -1      2899 1.11175E-02 9.46888E-04-5.79922E-14
 -1      2900 1.09727E-02 9.26070E-04-5.64008E-14
 -1      2901 1.08913E-02 8.82220E-04-5.57819E-14
 -1      2902 1.14062E-02 9.87771E-04-6.12224E-14
 -1      2903 1.12619E-02 9.67464E-04-5.95988E-14
 -1      2904 1.11794E-02 9.23734E-04-5.89627E-14
 -1      2905 1.16942E-02 1.02755E-03-6.45198E-14
 -1      2906 1.15503E-02 1.00780E-03-6.28632E-14
 -1      2907 1.14669E-02 9.64238E-04-6.22076E-14
 -1      2908 1.19815E-02 1.06621E-03-6.78795E-14
 -1      2909 1.18379E-02 1.04702E-03-6.61925E-14
 -1      2910 1.17540E-02 1.00364E-03-6.55176E-14
 -1      2911 1.22684E-02 1.10383E-03-7.13057E-14
 -1      2912 1.21250E-02 1.08515E-03-6.95825E-14
 -1      2913 1.20407E-02 1.04195E-03-6.88894E-14
 -1      2914 1.25549E-02 1.14050E-03-7.47903E-14
 -1      2915 1.24117E-02 1.12228E-03-7.30405E-14
 -1      2916 1.23271E-02 1.07925E-03-7.23238E-14
 -1      2917 1.28412E-02 1.17636E-03-7.83299E-14
 -1      2918 1.26981E-02 1.15853E-03-7.65543E-14
 -1      2919 1.26134E-02 1.11565E-03-7.58193E-14
 -1      2920 1.31272E-02 1.21154E-03-8.19182E-14
 -1      2921 1.29842E-02 1.19403E-03-8.01186E-14
 -1      2922 1.28994E-02 1.15128E-03-7.93659E-14
 -1      2923 1.34131E-02 1.24616E-03-8.55385E-14
 -1      2924 1.32702E-02 1.22891E-03-8.37260E-14
 -1      2925 1.31854E-02 1.18627E-03-8.29586E-14
 -1      2926 1.36990E-02 1.28034E-03-8.91810E-14
 -1      2927 1.35561E-02 1.26330E-03-8.73564E-14
 -1      2928 1.34712E-02 1.22074E-03-8.65797E-14
 -1      2929 1.39847E-02 1.31419E-03-9.28434E-14
 -1      2930 1.38419E-02 1.29730E-03-9.10097E-14
 -1      2931 1.37570E-02 1.25481E-03-9.02226E-14
 -1      2932 1.42705E-02 1.34780E-03-9.65247E-14
 -1      2933 1.41276E-02 1.33102E-03-9.46808E-14
 -1      2934 1.40428E-02 1.28857E-03-9.38876E-14
 -1      2935 1.45208E-02 1.36802E-03-9.98438E-14
 -1      2936 1.43780E-02 1.35130E-03-9.79957E-14
 -1      2937 1.42932E-02 1.30887E-03-9.71953E-14
 -1      2938 1.45082E-02 1.31583E-03-1.00140E-13
 -1      2939 1.43375E-02 9.06356E-04-1.01335E-13
 -1      2940 1.43537E-02 9.48424E-04-1.01204E-13
 -1      2941 1.40632E-02 4.20587E-04-1.01505E-13
 -1      2942 1.41595E-02 4.30615E-04-1.02753E-13
 -1      2943 1.40057E-02 4.49651E-04-1.00484E-13
 -1      2944 1.44024E-02 1.07466E-03-1.00799E-13
 -1      2945 1.44187E-02 1.11675E-03-1.00659E-13
 -1      2946 5.29167E-03 8.01088E-04-1.49429E-14
 -1      2947 5.48312E-03 9.22297E-04-1.55455E-14
 -1      2948 1.43054E-02 8.22220E-04-1.01594E-13
 -1      2949 1.43214E-02 8.64288E-04-1.01465E-13
 -1      2950 1.42058E-02 8.71130E-04-9.98108E-14
 -1      2951 1.43699E-02 9.90497E-04-1.01068E-13
 -1      2952 1.43861E-02 1.03257E-03-1.00935E-13
 -1      2953 1.42705E-02 1.03928E-03-9.92751E-14
 -1      2954 1.42381E-02 9.55197E-04-9.95467E-14
 -1      2955 1.42739E-02 7.39499E-04-1.01842E-13
 -1      2956 1.42896E-02 7.80861E-04-1.01720E-13
 -1      2957 1.41739E-02 7.87776E-04-1.00064E-13
 -1      2958 1.42420E-02 6.55327E-04-1.02092E-13
 -1      2959 1.42579E-02 6.97416E-04-1.01968E-13
 -1      2960 1.41422E-02 7.04403E-04-1.00314E-13
 -1      2961 1.42102E-02 5.71123E-04-1.02332E-13
 -1      2962 1.42261E-02 6.13229E-04-1.02211E-13
 -1      2963 1.41103E-02 6.20281E-04-1.00558E-13
 -1      2964 1.71787E-03 3.88116E-04-1.57581E-15
 -1      2965 1.57304E-03 3.78412E-04-1.31824E-15
 -1      2966 1.48539E-03 3.38211E-04-1.24954E-15
 -1      2967 1.77404E-03 3.57086E-04-1.77412E-15
 -1      2968 1.41982E-02 4.69715E-04-1.02978E-13
 -1      2969 7.76646E-03 5.01890E-04-2.55841E-14
 -1      2970 7.92156E-03 4.31425E-04-2.61133E-14
 -1      2971 7.93220E-04-2.31126E-04-5.35203E-16
 -1      2972 9.25467E-04-2.63198E-04-6.90813E-16
 -1      2973 4.84315E-03 5.34280E-04-1.38523E-14
 -1      2974 5.04672E-03 6.52463E-04-1.42854E-14
 -1      2975 5.65554E-03 1.02711E-03-1.60491E-14
 -1      2976 5.80882E-03 1.11510E-03-1.65619E-14
 -1      2977 5.56259E-03 9.83819E-04-1.55158E-14
 -1      2978 3.98111E-03 7.62839E-05-1.31118E-14
 -1      2979 3.88355E-03 9.96409E-05-1.28926E-14
 -1      2980 6.36721E-03-7.39560E-04-2.18134E-14
 -1      2981 6.23645E-03-7.84358E-04-2.11206E-14
 -1      2982 8.37990E-03 2.29359E-04-2.83866E-14
 -1      2983 8.27673E-03 2.06201E-04-2.81957E-14
 -1      2984 2.59170E-03 4.07612E-04-3.62985E-15
 -1      2985 2.44498E-03 4.07006E-04-3.22740E-15
 -1      2986 2.35209E-03 3.70825E-04-3.11253E-15
 -1      2987 2.64230E-03 3.71759E-04-3.92473E-15
 -1      2988 6.55154E-04-1.71004E-04-4.10086E-16
 -1      2989 7.03623E-03-3.66191E-04-2.48450E-14
 -1      2990 6.84719E-03-4.82340E-04-2.40802E-14
 -1      2991 8.46882E-03 2.55804E-04-2.85628E-14
 -1      2992 8.45184E-03 2.47666E-04-2.85856E-14
 -1      2993 1.05460E-03-2.87026E-04-8.67375E-16
 -1      2994 1.19889E-03-3.08351E-04-1.09034E-15
 -1      2995 1.25806E-03-2.85266E-04-1.22718E-15
 -1      2996 1.00074E-03-2.47844E-04-8.22110E-16
 -1      2997 7.79248E-04 1.07934E-04-5.16433E-16
 -1      2998 7.75164E-04 8.69712E-05-5.30514E-16
 -1      2999 8.89805E-04 8.60410E-05-6.81435E-16
 -1      3000 8.99673E-04 1.32471E-04-6.47526E-16
 -1      3001 6.96563E-03 9.47930E-04-2.22836E-14
 -1      3002 7.14535E-03 8.40304E-04-2.30964E-14
 -1      3003 8.08513E-04 2.55875E-04-3.73169E-16
 -1      3004 7.75243E-04-8.44568E-05-5.92706E-16
 -1      3005 7.79246E-04-1.05534E-04-5.92923E-16
 -1      3006 6.65132E-03 1.12019E-03-2.07486E-14
 -1      3007 6.79547E-03 1.04332E-03-2.14730E-14
 -1      3008 3.82747E-03 1.15492E-04-1.27225E-14
 -1      3009 3.81316E-03 1.21704E-04-1.25866E-14
 -1      3010 4.05741E-03 1.90789E-04-1.27137E-14
 -1      3011 4.17622E-03 2.28552E-04-1.28226E-14
 -1      3012 6.64890E-03-5.97251E-04-2.31718E-14
 -1      3013 6.50452E-03-6.77543E-04-2.24872E-14
 -1      3014 6.43976E-03-7.14664E-04-2.23296E-14
 -1      3015 3.84939E-03 1.36823E-04-1.24836E-14
 -1      3016 3.93611E-03 1.56090E-04-1.25546E-14
 -1      3017 4.21788E-03-4.66984E-08-1.35940E-14
 -1      3018 4.10518E-03 3.77826E-05-1.33652E-14
 -1      3019 6.06128E-03-8.10169E-04-2.01698E-14
 -1      3020 5.91308E-03-8.00404E-04-1.93538E-14
 -1      3021 5.74884E-03-7.59293E-04-1.85160E-14
 -1      3022 5.60062E-03-6.98085E-04-1.78064E-14
 -1      3023 5.43090E-03-6.17131E-04-1.70631E-14
 -1      3024 5.28457E-03-5.36312E-04-1.64824E-14
 -1      3025 5.98292E-03 1.18621E-03-1.73056E-14
 -1      3026 6.11341E-03 1.21909E-03-1.79483E-14
 -1      3027 8.34544E-03 2.88939E-04-2.78189E-14
 -1      3028 8.42578E-03 2.73412E-04-2.82851E-14
 -1      3029 7.40417E-03-1.53795E-04-2.60706E-14
 -1      3030 7.24557E-03-2.43276E-04-2.55712E-14
 -1      3031 8.08035E-03 3.67667E-04-2.66713E-14
 -1      3032 8.22336E-03 3.22469E-04-2.72321E-14
 -1      3033 8.04239E-03 4.07628E-04-2.70326E-14
 -1      3034 8.15223E-03 1.69219E-04-2.80000E-14
 -1      3035 8.03336E-03 1.30522E-04-2.77731E-14
 -1      3036 7.84167E-04-1.27731E-04-5.91622E-16
 -1      3037 7.89974E-04-1.51291E-04-5.88383E-16
 -1      3038 8.99674E-04-1.29735E-04-7.50498E-16
 -1      3039 8.82177E-04 1.63097E-06-7.27635E-16
 -1      3040 7.67247E-04-7.67829E-06-5.77663E-16
 -1      3041 7.68060E-04-2.62047E-05-5.83369E-16
 -1      3042 7.71674E-04-1.82184E-04-5.45693E-16
 -1      3043 4.41159E-03-9.44539E-05-1.37843E-14
 -1      3044 4.31523E-03-4.40358E-05-1.36895E-14
 -1      3045 4.21476E-03-2.71812E-05-1.31849E-14
 -1      3046 7.54891E-03-9.01298E-05-2.68379E-14
 -1      3047 8.31307E-03 3.16716E-04-2.81928E-14
 -1      3048 5.88682E-03 1.15807E-03-1.67445E-14
 -1      3049 7.29468E-03 7.84508E-04-2.39421E-14
 -1      3050 5.50513E-03-6.71257E-04-1.73289E-14
 -1      3051 5.82338E-03-7.89244E-04-1.89050E-14
 -1      3052 7.94776E-03 8.98010E-05-2.79581E-14
 -1      3053 1.43030E-02 1.12305E-03-9.89951E-14
 -1      3054 1.44349E-02 1.15849E-03-1.00520E-13
 -1      3055 1.44511E-02 1.20024E-03-1.00377E-13
 -1      3056 8.48375E-03 2.69263E-04-2.90711E-14
 -1      3057 8.52855E-03 2.69281E-04-2.98641E-14
 -1      3058 8.49042E-03 2.85680E-04-2.95802E-14
 -1      3059 7.70297E-03 5.64393E-04-2.57275E-14
 -1      3060 1.42140E-02 5.11843E-04-1.02862E-13
 -1      3061 6.14376E-03-8.05867E-04-2.06933E-14
 -1      3062 5.93028E-03 1.20839E-03-1.65581E-14
 -1      3063 5.75294E-03 1.14196E-03-1.56762E-14
 -1      3064 3.83006E-03 1.01411E-04-1.24305E-14
 -1      3065 1.44715E-02 1.23714E-03-1.00334E-13
 -1      3066 1.44878E-02 1.27891E-03-1.00188E-13
 -1      3067 1.43803E-02 1.27545E-03-9.87138E-14
 -1      3068 1.43395E-02 1.20166E-03-9.88094E-14
 -1      3069 6.91201E-03 1.00182E-03-2.20876E-14
 -1      3070 1.40981E-02 5.18957E-04-1.01207E-13
 -1      3071 6.75863E-03-5.45720E-04-2.39184E-14
 -1      3072 3.96027E-03 1.68939E-04-1.22154E-14
 -1      3073 4.70438E-03 4.67202E-04-1.33725E-14
 -1      3074 4.78903E-03 5.29910E-04-1.32441E-14
 -1      3075 4.57037E-03 4.12574E-04-1.29013E-14
 -1      3076 8.44467E-03 2.41847E-04-2.91504E-14
 -1      3077 4.74403E-03-2.31310E-04-1.48429E-14
 -1      3078 4.61804E-03-1.85775E-04-1.43412E-14
 -1      3079 4.82246E-03-2.92208E-04-1.48826E-14
 -1      3080 6.55873E-03 1.16766E-03-2.02432E-14
 -1      3081 5.16436E-03 7.35322E-04-1.43647E-14
 -1      3082 5.16257E-03-4.75843E-04-1.59914E-14
 -1      3083 5.03920E-03-4.16895E-04-1.55085E-14
 -1      3084 5.22429E-03-5.36020E-04-1.61042E-14
 -1      3085 4.00361E-03 5.33915E-05-1.28439E-14
 -1      3086 5.63310E-03 1.05886E-03-1.53794E-14
 -1      3087 8.24813E-03 1.90902E-04-2.87508E-14
 -1      3088 7.69665E-04-4.50035E-05-5.87597E-16
 -1      3089 7.72047E-04-6.43872E-05-5.90619E-16
 -1      3090 8.89997E-04-8.29749E-05-7.49197E-16
 -1      3091 8.84190E-04-3.97928E-05-7.41201E-16
 -1      3092 7.14448E-03-3.16848E-04-2.55715E-14
 -1      3093 8.69354E-04 2.42427E-04-4.65882E-16
 -1      3094 4.26821E-03 2.67802E-04-1.26953E-14
 -1      3095 4.35617E-03 3.13472E-04-1.25661E-14
 -1      3096 4.16731E-03 2.42060E-04-1.22442E-14
 -1      3097 3.76440E-03 1.17130E-04-1.18430E-14
 -1      3098 3.80133E-03 1.25552E-04-1.21612E-14
 -1      3099 3.79819E-03 1.30928E-04-1.17421E-14
 -1      3100 6.20836E-03 1.23347E-03-1.83525E-14
 -1      3101 9.86844E-04 2.48401E-04-6.12127E-16
 -1      3102 1.04035E-03 2.15733E-04-7.38382E-16
 -1      3103 1.03067E-03 1.85998E-04-7.67168E-16
 -1      3104 8.02874E-03 4.49831E-04-2.75181E-14
 -1      3105 8.16419E-03 3.95866E-04-2.80932E-14
 -1      3106 1.73312E-03-2.92096E-04-2.23705E-15
 -1      3107 1.87668E-03-2.97838E-04-2.58699E-15
 -1      3108 2.02026E-03-3.01936E-04-2.96196E-15
 -1      3109 2.16397E-03-3.04614E-04-3.36206E-15
 -1      3110 1.93356E-03-2.66465E-04-2.78011E-15
 -1      3111 2.30778E-03-3.06276E-04-3.78632E-15
 -1      3112 2.45181E-03-3.07172E-04-4.23529E-15
 -1      3113 2.21902E-03-2.71071E-04-3.57795E-15
 -1      3114 2.59612E-03-3.07695E-04-4.70919E-15
 -1      3115 2.74088E-03-3.08149E-04-5.20763E-15
 -1      3116 2.50470E-03-2.72047E-04-4.47400E-15
 -1      3117 2.88621E-03-3.08916E-04-5.72920E-15
 -1      3118 3.03237E-03-3.10398E-04-6.27524E-15
 -1      3119 2.79126E-03-2.71751E-04-5.46637E-15
 -1      3120 3.17960E-03-3.12966E-04-6.84587E-15
 -1      3121 3.32819E-03-3.17185E-04-7.43992E-15
 -1      3122 3.08006E-03-2.72779E-04-6.55492E-15
 -1      3123 3.47856E-03-3.23401E-04-8.05675E-15
 -1      3124 3.63103E-03-3.32440E-04-8.69633E-15
 -1      3125 3.37330E-03-2.78191E-04-7.73788E-15
 -1      3126 3.78623E-03-3.44602E-04-9.35896E-15
 -1      3127 3.94437E-03-3.61040E-04-1.00441E-14
 -1      3128 3.67431E-03-2.91900E-04-9.01178E-15
 -1      3129 4.10630E-03-3.81994E-04-1.07518E-14
 -1      3130 4.27181E-03-4.08908E-04-1.14829E-14
 -1      3131 3.98753E-03-3.19203E-04-1.03757E-14
 -1      3132 4.44182E-03-4.41937E-04-1.22370E-14
 -1      3133 4.61521E-03-4.82211E-04-1.30131E-14
 -1      3134 4.31777E-03-3.67419E-04-1.18305E-14
 -1      3135 4.79292E-03-5.29399E-04-1.38126E-14
 -1      3136 4.97190E-03-5.83083E-04-1.46364E-14
 -1      3137 4.66816E-03-4.44927E-04-1.33764E-14
 -1      3138 5.50666E-03-7.59890E-04-1.72601E-14
 -1      3139 5.67808E-03-8.06342E-04-1.81863E-14
 -1      3140 5.86563E-03-8.29342E-04-1.92359E-14
 -1      3141 6.03253E-03-8.37907E-04-2.02199E-14
 -1      3142 6.18732E-03-8.19324E-04-2.11737E-14
 -1      3143 6.35665E-03-7.77482E-04-2.22129E-14
 -1      3144 6.85126E-03-5.94629E-04-2.54495E-14
 -1      3145 7.03037E-03-5.18412E-04-2.65969E-14
 -1      3146 7.21070E-03-4.44822E-04-2.77701E-14
 -1      3147 7.38865E-03-3.76898E-04-2.89674E-14
 -1      3148 7.16227E-03-4.24947E-04-2.71182E-14
 -1      3149 7.56465E-03-3.15914E-04-3.01892E-14
 -1      3150 7.73619E-03-2.61898E-04-3.14320E-14
 -1      3151 7.52569E-03-2.87168E-04-2.95131E-14
 -1      3152 7.90417E-03-2.15026E-04-3.26974E-14
 -1      3153 8.06774E-03-1.73908E-04-3.39865E-14
 -1      3154 7.87088E-03-1.83010E-04-3.20000E-14
 -1      3155 8.22779E-03-1.38452E-04-3.52942E-14
 -1      3156 8.38429E-03-1.07298E-04-3.66223E-14
 -1      3157 8.19623E-03-1.06534E-04-3.45716E-14
 -1      3158 8.53799E-03-8.02394E-05-3.79709E-14
 -1      3159 8.68919E-03-5.62384E-05-3.93399E-14
 -1      3160 8.50542E-03-4.95005E-05-3.72271E-14
 -1      3161 8.83841E-03-3.50481E-05-4.07292E-14
 -1      3162 8.98601E-03-1.59633E-05-4.21371E-14
 -1      3163 8.80328E-03-5.47698E-06-3.99637E-14
 -1      3164 9.13232E-03 1.27190E-06-4.35609E-14
 -1      3165 9.27765E-03 1.71194E-05-4.50029E-14
 -1      3166 9.09396E-03 3.00432E-05-4.27762E-14
 -1      3167 9.42220E-03 3.18182E-05-4.64610E-14
 -1      3168 9.56620E-03 4.56646E-05-4.79341E-14
 -1      3169 9.38049E-03 6.01626E-05-4.56563E-14
 -1      3170 9.70974E-03 5.88644E-05-4.94255E-14
 -1      3171 9.85300E-03 7.16045E-05-5.09292E-14
 -1      3172 9.66488E-03 8.70496E-05-4.86024E-14
 -1      3173 9.99602E-03 8.40498E-05-5.24480E-14
 -1      3174 1.01389E-02 9.63150E-05-5.39832E-14
 -1      3175 9.94836E-03 1.12232E-04-5.16090E-14
 -1      3176 1.02817E-02 1.08523E-04-5.55316E-14
 -1      3177 1.04244E-02 1.20740E-04-5.70950E-14
 -1      3178 1.02317E-02 1.36773E-04-5.46736E-14
 -1      3179 1.05671E-02 1.33052E-04-5.86724E-14
 -1      3180 1.07098E-02 1.45494E-04-6.02660E-14
 -1      3181 1.05151E-02 1.61389E-04-5.78004E-14
 -1      3182 1.08525E-02 1.58119E-04-6.18704E-14
 -1      3183 1.09952E-02 1.70942E-04-6.34861E-14
 -1      3184 1.07989E-02 1.86533E-04-6.09811E-14
 -1      3185 1.11379E-02 1.83992E-04-6.51170E-14
 -1      3186 1.12806E-02 1.97271E-04-6.67591E-14
 -1      3187 1.10831E-02 2.12460E-04-6.42155E-14
 -1      3188 1.14233E-02 2.10789E-04-6.84133E-14
 -1      3189 1.15661E-02 2.24541E-04-7.00771E-14
 -1      3190 1.13677E-02 2.39288E-04-6.74975E-14
 -1      3191 1.17089E-02 2.38525E-04-7.17505E-14
 -1      3192 1.18517E-02 2.52731E-04-7.34384E-14
 -1      3193 1.16525E-02 2.67035E-04-7.08230E-14
 -1      3194 1.19945E-02 2.67151E-04-7.51399E-14
 -1      3195 1.21373E-02 2.81771E-04-7.68538E-14
 -1      3196 1.19376E-02 2.95655E-04-7.41971E-14
 -1      3197 1.22801E-02 2.96579E-04-7.85756E-14
 -1      3198 1.24230E-02 3.11562E-04-8.03090E-14
 -1      3199 1.22230E-02 3.25068E-04-7.76203E-14
 -1      3200 1.25658E-02 3.26705E-04-8.20574E-14
 -1      3201 1.27087E-02 3.41996E-04-8.38149E-14
 -1      3202 1.25084E-02 3.55172E-04-8.10887E-14
 -1      3203 1.28515E-02 3.57419E-04-8.55865E-14
 -1      3204 1.29944E-02 3.72962E-04-8.73679E-14
 -1      3205 1.27940E-02 3.85861E-04-8.46061E-14
 -1      3206 1.31373E-02 3.88611E-04-8.91574E-14
 -1      3207 1.32801E-02 4.04355E-04-9.09580E-14
 -1      3208 1.30796E-02 4.17031E-04-8.81666E-14
 -1      3209 1.34230E-02 4.20181E-04-9.27640E-14
 -1      3210 1.35659E-02 4.36080E-04-9.45758E-14
 -1      3211 1.33653E-02 4.48584E-04-9.17608E-14
 -1      3212 1.37087E-02 4.52038E-04-9.63969E-14
 -1      3213 1.38516E-02 4.68047E-04-9.82229E-14
 -1      3214 1.36510E-02 4.80430E-04-9.53846E-14
 -1      3215 6.00121E-03 1.20930E-03-1.71452E-14
 -1      3216 3.26762E-03 3.43556E-04-6.18818E-15
 -1      3217 3.12251E-03 3.39926E-04-5.66324E-15
 -1      3218 2.97817E-03 3.37927E-04-5.16056E-15
 -1      3219 2.83424E-03 3.37046E-04-4.68111E-15
 -1      3220 3.01927E-03 3.03772E-04-5.49516E-15
 -1      3221 3.86365E-03 3.87351E-04-8.51152E-15
 -1      3222 3.71110E-03 3.70321E-04-7.89736E-15
 -1      3223 4.18101E-03 4.39269E-04-9.80727E-15
 -1      3224 4.01999E-03 4.09542E-04-9.14817E-15
 -1      3225 3.88490E-03 3.50774E-04-8.93246E-15
 -1      3226 4.52225E-03 5.25396E-04-1.11947E-14
 -1      3227 4.34835E-03 4.76724E-04-1.04894E-14
 -1      3228 4.19715E-03 4.00643E-04-1.02561E-14
 -1      3229 4.87399E-03 6.24258E-04-1.28638E-14
 -1      3230 4.68405E-03 5.48970E-04-1.21062E-14
 -1      3231 8.34066E-03 2.06156E-04-2.96764E-14
 -1      3232 8.23140E-03 1.73550E-04-2.94744E-14
 -1      3233 3.82380E-03 8.59259E-05-1.20634E-14
 -1      3234 3.77265E-03 1.00218E-04-1.19005E-14
 -1      3235 6.64029E-03 1.15603E-03-2.06335E-14
 -1      3236 8.32210E-03 6.03600E-04-3.10186E-14
 -1      3237 8.15846E-03 6.21068E-04-2.97671E-14
 -1      3238 8.63538E-03 5.91063E-04-3.35850E-14
 -1      3239 8.48083E-03 5.94399E-04-3.22925E-14
 -1      3240 8.44381E-03 5.49912E-04-3.18140E-14
 -1      3241 8.93587E-03 5.99392E-04-3.62355E-14
 -1      3242 8.78680E-03 5.93210E-04-3.48995E-14
 -1      3243 8.74281E-03 5.50135E-04-3.44051E-14
 -1      3244 9.22921E-03 6.21730E-04-3.89617E-14
 -1      3245 9.08313E-03 6.09188E-04-3.75902E-14
 -1      3246 9.03172E-03 5.66573E-04-3.70770E-14
 -1      3247 9.51887E-03 6.53231E-04-4.17610E-14
 -1      3248 9.37431E-03 6.36580E-04-4.03520E-14
 -1      3249 9.31593E-03 5.93719E-04-3.98247E-14
 -1      3250 9.80678E-03 6.90434E-04-4.46288E-14
 -1      3251 9.66293E-03 6.71286E-04-4.31857E-14
 -1      3252 9.59846E-03 6.27830E-04-4.26436E-14
 -1      3253 1.00939E-02 7.30857E-04-4.75618E-14
 -1      3254 9.95037E-03 7.10355E-04-4.60876E-14
 -1      3255 9.88080E-03 6.66232E-04-4.55299E-14
 -1      3256 1.03807E-02 7.72769E-04-5.05586E-14
 -1      3257 1.02373E-02 7.51701E-04-4.90519E-14
 -1      3258 1.01636E-02 7.06987E-04-4.84802E-14
 -1      3259 1.06672E-02 8.15014E-04-5.36214E-14
 -1      3260 1.05239E-02 7.93897E-04-5.20812E-14
 -1      3261 1.04470E-02 7.48729E-04-5.14950E-14
 -1      3262 1.09537E-02 8.56863E-04-5.67511E-14
 -1      3263 1.08105E-02 8.36016E-04-5.51775E-14
 -1      3264 1.07310E-02 7.90536E-04-5.45738E-14
 -1      3265 1.12401E-02 8.97896E-04-5.99465E-14
 -1      3266 1.10969E-02 8.77496E-04-5.83410E-14
 -1      3267 1.10155E-02 8.31826E-04-5.77198E-14
 -1      3268 1.15264E-02 9.37912E-04-6.32065E-14
 -1      3269 1.13833E-02 9.18037E-04-6.15685E-14
 -1      3270 1.13004E-02 8.72272E-04-6.09324E-14
 -1      3271 1.18126E-02 9.76851E-04-6.65273E-14
 -1      3272 1.16695E-02 9.57516E-04-6.48582E-14
 -1      3273 1.15857E-02 9.11723E-04-6.42029E-14
 -1      3274 1.20987E-02 1.01475E-03-6.99097E-14
 -1      3275 1.19556E-02 9.95927E-04-6.82110E-14
 -1      3276 1.18711E-02 9.50149E-04-6.75340E-14
 -1      3277 1.23847E-02 1.05169E-03-7.33550E-14
 -1      3278 1.22417E-02 1.03333E-03-7.16252E-14
 -1      3279 1.21566E-02 9.87597E-04-7.09293E-14
 -1      3280 1.26706E-02 1.08779E-03-7.68580E-14
 -1      3281 1.25277E-02 1.06984E-03-7.50999E-14
 -1      3282 1.24423E-02 1.02416E-03-7.43850E-14
 -1      3283 1.29565E-02 1.12318E-03-8.04125E-14
 -1      3284 1.28136E-02 1.10557E-03-7.86289E-14
 -1      3285 1.27280E-02 1.05994E-03-7.78948E-14
 -1      3286 1.32424E-02 1.15797E-03-8.40072E-14
 -1      3287 1.30995E-02 1.14064E-03-8.22054E-14
 -1      3288 1.30137E-02 1.09507E-03-8.14548E-14
 -1      3289 1.35282E-02 1.19228E-03-8.76301E-14
 -1      3290 1.33853E-02 1.17518E-03-8.58171E-14
 -1      3291 1.32994E-02 1.12965E-03-8.50539E-14
 -1      3292 1.38140E-02 1.22623E-03-9.12755E-14
 -1      3293 1.36711E-02 1.20929E-03-8.94491E-14
 -1      3294 1.35852E-02 1.16381E-03-8.86785E-14
 -1      3295 1.40997E-02 1.25990E-03-9.49419E-14
 -1      3296 1.39568E-02 1.24309E-03-9.31067E-14
 -1      3297 1.38709E-02 1.19763E-03-9.23270E-14
 -1      3298 1.42937E-02 1.26944E-03-9.75596E-14
 -1      3299 1.41862E-02 1.26594E-03-9.60925E-14
 -1      3300 1.41003E-02 1.22050E-03-9.53077E-14
 -1      3301 1.42734E-02 1.23255E-03-9.76092E-14
 -1      3302 7.69778E-03-3.64393E-05-2.78716E-14
 -1      3303 7.50707E-03-1.36109E-04-2.73325E-14
 -1      3304 1.00158E-03 5.87643E-05-8.68771E-16
 -1      3305 9.99356E-04 3.58196E-05-8.82541E-16
 -1      3306 1.39786E-02 5.85274E-04-9.90298E-14
 -1      3307 1.39945E-02 6.27318E-04-9.89114E-14
 -1      3308 8.29385E-03 3.50344E-04-2.86934E-14
 -1      3309 8.40615E-03 3.20218E-04-2.92965E-14
 -1      3310 8.28762E-03 3.89857E-04-2.91953E-14
 -1      3311 1.40740E-02 8.35942E-04-9.82892E-14
 -1      3312 1.40902E-02 8.77934E-04-9.81611E-14
 -1      3313 6.85226E-03-5.12967E-04-2.47186E-14
 -1      3314 6.67369E-03-6.13303E-04-2.37963E-14
 -1      3315 1.40105E-02 6.69349E-04-9.87881E-14
 -1      3316 1.40265E-02 7.11366E-04-9.86638E-14
 -1      3317 1.38788E-02 6.34342E-04-9.72669E-14
 -1      3318 7.98787E-03 6.46711E-04-2.85391E-14
 -1      3319 7.81088E-03 6.84733E-04-2.73354E-14
 -1      3320 8.12561E-03 5.74785E-04-2.93094E-14
 -1      3321 8.88475E-04-1.88983E-04-7.01519E-16
 -1      3322 3.56139E-03 3.58102E-04-7.30542E-15
 -1      3323 3.41373E-03 3.49344E-04-6.73559E-15
 -1      3324 3.30259E-03 3.09229E-04-6.55209E-15
 -1      3325 3.58948E-03 3.23100E-04-7.69788E-15
 -1      3326 2.11704E-03 3.33861E-04-2.63189E-15
 -1      3327 1.97355E-03 3.30854E-04-2.29305E-15
 -1      3328 5.62556E-03-7.45423E-04-1.78750E-14
 -1      3329 5.47431E-03-6.80342E-04-1.71302E-14
 -1      3330 5.04477E-03 6.83374E-04-1.37355E-14
 -1      3331 5.26921E-03 8.17393E-04-1.43772E-14
 -1      3332 1.44633E-03-2.74235E-04-1.61299E-15
 -1      3333 1.58969E-03-2.84303E-04-1.91221E-15
 -1      3334 1.64818E-03-2.55975E-04-2.08081E-15
 -1      3335 3.88080E-03 1.57677E-04-1.16918E-14
 -1      3336 3.99068E-03 1.87804E-04-1.18433E-14
 -1      3337 8.05803E-03 1.11339E-04-2.90670E-14
 -1      3338 7.88244E-03 4.54034E-05-2.84672E-14
 -1      3339 7.83690E-03-2.35474E-06-2.89741E-14
 -1      3340 4.02023E-03 2.63567E-05-1.25304E-14
 -1      3341 3.91325E-03 5.91660E-05-1.22881E-14
 -1      3342 8.51304E-03 2.51888E-04-3.00885E-14
 -1      3343 8.44286E-03 2.34720E-04-2.98849E-14
 -1      3344 8.44232E-03 2.22303E-04-3.06218E-14
 -1      3345 1.40423E-02 7.53017E-04-9.85420E-14
 -1      3346 1.40581E-02 7.94303E-04-9.84170E-14
 -1      3347 1.39425E-02 8.01152E-04-9.67735E-14
 -1      3348 1.39106E-02 7.17947E-04-9.70230E-14
 -1      3349 7.67781E-03 6.17779E-04-2.59812E-14
 -1      3350 7.85210E-03 5.27213E-04-2.67296E-14
 -1      3351 7.27068E-03-2.65546E-04-2.64801E-14
 -1      3352 7.08383E-03-3.75919E-04-2.57375E-14
 -1      3353 1.14985E-03 2.78089E-04-8.01781E-16
 -1      3354 1.08445E-03 2.41931E-04-7.63251E-16
 -1      3355 1.20147E-03 2.40567E-04-9.49409E-16
 -1      3356 1.29350E-03 2.95486E-04-1.00123E-15
 -1      3357 9.98275E-04 1.31775E-05-8.94291E-16
 -1      3358 9.98348E-04-9.37573E-06-9.04292E-16
 -1      3359 1.11547E-03 2.65343E-05-1.07705E-15
 -1      3360 4.32685E-03 3.29732E-04-1.19954E-14
 -1      3361 4.44528E-03 3.65812E-04-1.24440E-14
 -1      3362 4.52487E-03 4.22523E-04-1.23187E-14
 -1      3363 1.39746E-02 8.84696E-04-9.65129E-14
 -1      3364 1.41063E-02 9.19929E-04-9.80286E-14
 -1      3365 1.41225E-02 9.61928E-04-9.78936E-14
 -1      3366 4.49502E-03-1.48290E-04-1.38202E-14
 -1      3367 4.37745E-03-1.21632E-04-1.33103E-14
 -1      3368 4.56851E-03-2.05208E-04-1.38552E-14
 -1      3369 1.01556E-03-1.28448E-04-9.27887E-16
 -1      3370 1.02236E-03-1.55116E-04-9.26519E-16
 -1      3371 1.02233E-03 1.58085E-04-7.92457E-16
 -1      3372 1.01536E-03 1.31642E-04-8.15306E-16
 -1      3373 1.14710E-03 1.84421E-04-9.51157E-16
 -1      3374 1.41712E-02 1.08781E-03-9.74748E-14
 -1      3375 1.41874E-02 1.12950E-03-9.73316E-14
 -1      3376 8.49426E-03 3.09629E-04-3.00972E-14
 -1      3377 8.56972E-03 3.05179E-04-3.09037E-14
 -1      3378 8.49900E-03 3.38767E-04-3.06129E-14
 -1      3379 5.32871E-03-7.01321E-04-1.63473E-14
 -1      3380 5.40259E-03-6.89641E-04-1.67459E-14
 -1      3381 5.28158E-03-6.03591E-04-1.62253E-14
 -1      3382 5.15024E-03-6.41583E-04-1.54736E-14
 -1      3383 6.45574E-03-7.22339E-04-2.26142E-14
 -1      3384 6.49292E-03-7.41406E-04-2.31740E-14
 -1      3385 6.66638E-03-6.72864E-04-2.42659E-14
 -1      3386 2.26042E-03 3.35648E-04-2.99465E-15
 -1      3387 2.17033E-03 3.01305E-04-2.87457E-15
 -1      3388 2.40382E-03 3.36447E-04-3.38163E-15
 -1      3389 2.73684E-03 3.02733E-04-4.52897E-15
 -1      3390 2.69066E-03 3.36764E-04-4.22430E-15
 -1      3391 2.54717E-03 3.36729E-04-3.79125E-15
 -1      3392 8.17970E-03 1.36948E-04-2.99952E-14
 -1      3393 5.29845E-03 8.64954E-04-1.41389E-14
 -1      3394 5.10107E-03 7.66648E-04-1.33400E-14
 -1      3395 1.88568E-03 2.95472E-04-2.18841E-15
 -1      3396 1.83006E-03 3.26161E-04-1.97806E-15
 -1      3397 1.68645E-03 3.19559E-04-1.68741E-15
 -1      3398 3.69688E-03 9.18243E-05-1.11341E-14
 -1      3399 3.72793E-03 1.05154E-04-1.14871E-14
 -1      3400 3.69482E-03 1.09236E-04-1.10790E-14
 -1      3401 7.18212E-03 9.00827E-04-2.35927E-14
 -1      3402 6.98226E-03 9.89312E-04-2.25012E-14
 -1      3403 3.82493E-03 6.40063E-05-1.17610E-14
 -1      3404 1.00499E-03 8.21656E-05-8.53091E-16
 -1      3405 1.12059E-03 7.58747E-05-1.04501E-15
 -1      3406 1.00953E-03 1.06334E-04-8.35378E-16
 -1      3407 1.41387E-02 1.00385E-03-9.77554E-14
 -1      3408 1.41549E-02 1.04586E-03-9.76166E-14
 -1      3409 1.40393E-02 1.05231E-03-9.59587E-14
 -1      3410 1.40069E-02 9.68524E-04-9.62416E-14
 -1      3411 1.40019E-02 5.08915E-04-9.99588E-14
 -1      3412 6.82999E-03 1.07401E-03-2.16828E-14
 -1      3413 5.17067E-03-5.54695E-04-1.57371E-14
 -1      3414 6.98614E-03-4.58705E-04-2.56055E-14
 -1      3415 5.42634E-03 9.20185E-04-1.47852E-14
 -1      3416 5.57735E-03 1.01718E-03-1.52703E-14
 -1      3417 1.56193E-03 3.15600E-04-1.44630E-15
 -1      3418 1.41818E-03 3.04272E-04-1.20104E-15
 -1      3419 1.37110E-03 2.76466E-04-1.17350E-15
 -1      3420 1.61926E-03 2.87553E-04-1.62586E-15
 -1      3421 1.39441E-02 5.37290E-04-9.89401E-14
 -1      3422 1.38284E-02 5.44394E-04-9.72997E-14
 -1      3423 7.38545E-03 7.90139E-04-2.46421E-14
 -1      3424 7.58043E-03 7.20888E-04-2.57891E-14
 -1      3425 1.00987E-03-1.03011E-04-9.27074E-16
 -1      3426 1.13161E-03-1.24243E-04-1.12350E-15
 -1      3427 1.00534E-03-7.86156E-05-9.23862E-16
 -1      3428 5.03305E-03-5.55926E-04-1.50048E-14
 -1      3429 4.91040E-03-3.61623E-04-1.49912E-14
 -1      3430 4.78269E-03-3.13385E-04-1.44837E-14
 -1      3431 4.98105E-03-4.28689E-04-1.50981E-14
 -1      3432 7.99989E-03 5.02858E-04-2.77830E-14
 -1      3433 8.56282E-03 2.65546E-04-3.06088E-14
 -1      3434 8.58844E-03 2.60892E-04-3.13584E-14
 -1      3435 8.60086E-03 2.79258E-04-3.11309E-14
 -1      3436 1.01797E-03-1.81018E-04-9.04143E-16
 -1      3437 1.00242E-03-2.19033E-04-8.50895E-16
 -1      3438 1.12982E-03-2.37142E-04-1.04617E-15
 -1      3439 1.13470E-03-1.79308E-04-1.10053E-15
 -1      3440 7.74022E-03 6.79163E-04-2.67902E-14
 -1      3441 4.17061E-03-4.44942E-05-1.27083E-14
 -1      3442 4.09378E-03-6.11444E-06-1.26199E-14
 -1      3443 3.98301E-03 5.03166E-06-1.20672E-14
 -1      3444 6.58125E-03-6.60762E-04-2.33035E-14
 -1      3445 1.25777E-03-2.52734E-04-1.26196E-15
 -1      3446 7.43487E-03-2.01254E-04-2.75023E-14
 -1      3447 4.05613E-03 2.17544E-04-1.17200E-14
 -1      3448 4.12375E-03 2.52941E-04-1.15937E-14
 -1      3449 3.95333E-03 2.01301E-04-1.12059E-14
 -1      3450 5.77833E-03-7.93529E-04-1.86957E-14
 -1      3451 3.80495E-03 1.42148E-04-1.13815E-14
 -1      3452 3.81403E-03 1.57368E-04-1.10225E-14
 -1      3453 3.74006E-03 1.30935E-04-1.10728E-14
 -1      3454 1.31807E-03-2.29558E-04-1.40004E-15
 -1      3455 5.77091E-03 1.11312E-03-1.61324E-14
 -1      3456 5.93468E-03 1.18529E-03-1.68635E-14
 -1      3457 2.13202E-03-2.36978E-04-3.37283E-15
 -1      3458 2.27363E-03-2.37743E-04-3.79525E-15
 -1      3459 2.41514E-03-2.37749E-04-4.24198E-15
 -1      3460 2.55669E-03-2.37195E-04-4.71305E-15
 -1      3461 2.32774E-03-2.04687E-04-4.01396E-15
 -1      3462 2.69831E-03-2.36376E-04-5.20741E-15
 -1      3463 2.84022E-03-2.35553E-04-5.72567E-15
 -1      3464 2.60777E-03-2.02659E-04-4.95222E-15
 -1      3465 2.98254E-03-2.35002E-04-6.26794E-15
 -1      3466 3.12563E-03-2.35113E-04-6.83407E-15
 -1      3467 2.88770E-03-1.99560E-04-5.98553E-15
 -1      3468 3.26975E-03-2.36132E-04-7.42326E-15
 -1      3469 3.41544E-03-2.38685E-04-8.03481E-15
 -1      3470 3.16899E-03-1.97335E-04-7.11262E-15
 -1      3471 3.56313E-03-2.42984E-04-8.66904E-15
 -1      3472 3.71354E-03-2.50130E-04-9.32568E-15
 -1      3473 3.45436E-03-1.98466E-04-8.33098E-15
 -1      3474 3.86740E-03-2.60269E-04-1.00045E-14
 -1      3475 4.02543E-03-2.75221E-04-1.07058E-14
 -1      3476 3.74833E-03-2.06791E-04-9.63833E-15
 -1      3477 4.18877E-03-2.95240E-04-1.14292E-14
 -1      3478 4.35763E-03-3.23021E-04-1.21760E-14
 -1      3479 4.05757E-03-2.28747E-04-1.10341E-14
 -1      3480 6.68309E-03-6.30583E-04-2.40863E-14
 -1      3481 6.75162E-03-6.31045E-04-2.47702E-14
 -1      3482 7.49388E-03-2.54348E-04-2.88356E-14
 -1      3483 7.67208E-03-1.95675E-04-3.00567E-14
 -1      3484 7.84461E-03-1.47375E-04-3.13006E-14
 -1      3485 8.01031E-03-1.06152E-04-3.25644E-14
 -1      3486 7.82489E-03-1.08681E-04-3.06011E-14
 -1      3487 8.17071E-03-7.19625E-05-3.38495E-14
 -1      3488 8.32618E-03-4.23210E-05-3.51560E-14
 -1      3489 8.15088E-03-3.50927E-05-3.31290E-14
 -1      3490 8.47774E-03-1.71149E-05-3.64843E-14
 -1      3491 8.62615E-03 5.27774E-06-3.78317E-14
 -1      3492 8.45456E-03 1.65322E-05-3.57412E-14
 -1      3493 8.77205E-03 2.49698E-05-3.91980E-14
 -1      3494 8.91612E-03 4.28858E-05-4.05858E-14
 -1      3495 8.74425E-03 5.58041E-05-3.84348E-14
 -1      3496 9.05873E-03 5.91670E-05-4.19903E-14
 -1      3497 9.20040E-03 7.43383E-05-4.34123E-14
 -1      3498 9.02611E-03 8.80942E-05-4.12051E-14
 -1      3499 9.34133E-03 8.85504E-05-4.48524E-14
 -1      3500 9.48188E-03 1.02098E-04-4.63082E-14
 -1      3501 9.30420E-03 1.16395E-04-4.40484E-14
 -1      3502 9.62213E-03 1.15130E-04-4.77789E-14
 -1      3503 9.76232E-03 1.27811E-04-4.92670E-14
 -1      3504 9.58099E-03 1.42493E-04-4.69582E-14
 -1      3505 9.90248E-03 1.40272E-04-5.07683E-14
 -1      3506 1.00427E-02 1.52605E-04-5.22842E-14
 -1      3507 9.85788E-03 1.67540E-04-4.99276E-14
 -1      3508 1.01831E-02 1.64916E-04-5.38166E-14
 -1      3509 1.03237E-02 1.77252E-04-5.53627E-14
 -1      3510 1.01356E-02 1.92307E-04-5.29587E-14
 -1      3511 1.04644E-02 1.89693E-04-5.69259E-14
 -1      3512 1.06053E-02 2.02259E-04-5.85036E-14
 -1      3513 1.04145E-02 2.17309E-04-5.60514E-14
 -1      3514 1.07465E-02 2.15005E-04-6.00915E-14
 -1      3515 1.08878E-02 2.27936E-04-6.16949E-14
 -1      3516 1.06947E-02 2.42877E-04-5.92032E-14
 -1      3517 1.10293E-02 2.41085E-04-6.33095E-14
 -1      3518 1.11709E-02 2.54446E-04-6.49394E-14
 -1      3519 1.09760E-02 2.69201E-04-6.24047E-14
 -1      3520 1.13128E-02 2.68036E-04-6.65790E-14
 -1      3521 1.14547E-02 2.81844E-04-6.82294E-14
 -1      3522 1.12583E-02 2.96367E-04-6.56593E-14
 -1      3523 1.15968E-02 2.95876E-04-6.98936E-14
 -1      3524 1.17390E-02 3.10116E-04-7.15651E-14
 -1      3525 1.15415E-02 3.24383E-04-6.89595E-14
 -1      3526 1.18813E-02 3.24562E-04-7.32522E-14
 -1      3527 1.20238E-02 3.39198E-04-7.49537E-14
 -1      3528 1.18253E-02 3.53206E-04-7.23080E-14
 -1      3529 1.21662E-02 3.54017E-04-7.66627E-14
 -1      3530 1.23088E-02 3.69003E-04-7.83844E-14
 -1      3531 1.21097E-02 3.82765E-04-7.57033E-14
 -1      3532 1.24514E-02 3.84146E-04-8.01198E-14
 -1      3533 1.25941E-02 3.99432E-04-8.18658E-14
 -1      3534 1.23946E-02 4.12969E-04-7.91498E-14
 -1      3535 1.27368E-02 4.14849E-04-8.36263E-14
 -1      3536 1.28795E-02 4.30384E-04-8.53970E-14
 -1      3537 1.26797E-02 4.43724E-04-8.26451E-14
 -1      3538 1.30223E-02 4.46025E-04-8.71725E-14
 -1      3539 1.31651E-02 4.61761E-04-8.89606E-14
 -1      3540 1.29650E-02 4.74937E-04-8.61815E-14
 -1      3541 1.33079E-02 4.77580E-04-9.07585E-14
 -1      3542 1.34507E-02 4.93473E-04-9.25618E-14
 -1      3543 1.32505E-02 5.06518E-04-8.97561E-14
 -1      3544 1.35681E-02 5.10889E-04-9.40176E-14
 -1      3545 1.37109E-02 5.26894E-04-9.58336E-14
 -1      3546 1.37455E-02 5.74803E-04-9.59233E-14
 -1      3547 1.35107E-02 5.39840E-04-9.30080E-14
 -1      3548 3.05791E-03 2.70828E-04-5.83431E-15
 -1      3549 2.91971E-03 2.70021E-04-5.32475E-15
 -1      3550 4.20188E-03 3.60248E-04-1.07079E-14
 -1      3551 4.04722E-03 3.33130E-04-1.00210E-14
 -1      3552 3.89865E-03 3.13906E-04-9.35664E-15
 -1      3553 3.75399E-03 2.99148E-04-8.71414E-15
 -1      3554 3.90447E-03 2.76129E-04-9.78388E-15
 -1      3555 4.50887E-03 4.49758E-04-1.18481E-14
 -1      3556 6.27218E-03 1.23821E-03-1.86513E-14
 -1      3557 8.84541E-03 5.14825E-04-3.52254E-14
 -1      3558 8.70458E-03 5.07598E-04-3.39086E-14
 -1      3559 3.81497E-03 3.91156E-05-1.13993E-14
 -1      3560 3.73710E-03 6.46996E-05-1.11851E-14
 -1      3561 8.56161E-03 5.03800E-04-3.26126E-14
 -1      3562 8.41494E-03 5.04933E-04-3.13368E-14
 -1      3563 8.67230E-03 4.65272E-04-3.34111E-14
 -1      3564 9.39872E-03 5.68471E-04-4.06889E-14
 -1      3565 9.26082E-03 5.52320E-04-3.92950E-14
 -1      3566 9.67488E-03 6.04330E-04-4.35264E-14
 -1      3567 9.53662E-03 5.85882E-04-4.20989E-14
 -1      3568 9.47718E-03 5.45447E-04-4.15531E-14
 -1      3569 9.95236E-03 6.43336E-04-4.64317E-14
 -1      3570 9.81339E-03 6.23523E-04-4.49713E-14
 -1      3571 9.74794E-03 5.82264E-04-4.44105E-14
 -1      3572 1.02314E-02 6.84015E-04-4.93993E-14
 -1      3573 1.00917E-02 6.63525E-04-4.79082E-14
 -1      3574 1.00214E-02 6.21365E-04-4.73348E-14
 -1      3575 1.05120E-02 7.25304E-04-5.24299E-14
 -1      3576 1.03715E-02 7.04622E-04-5.09062E-14
 -1      3577 1.02974E-02 6.61637E-04-5.03183E-14
 -1      3578 1.07938E-02 7.66474E-04-5.55292E-14
 -1      3579 1.06527E-02 7.45928E-04-5.39727E-14
 -1      3580 1.05756E-02 7.02255E-04-5.33674E-14
 -1      3581 1.10767E-02 8.07067E-04-5.86898E-14
 -1      3582 1.09351E-02 7.86856E-04-5.71010E-14
 -1      3583 1.08556E-02 7.42646E-04-5.64829E-14
 -1      3584 1.13603E-02 8.46827E-04-6.19156E-14
 -1      3585 1.12184E-02 8.27057E-04-6.02946E-14
 -1      3586 1.11371E-02 7.82446E-04-5.96585E-14
 -1      3587 1.16446E-02 8.85645E-04-6.51983E-14
 -1      3588 1.15024E-02 8.66354E-04-6.35494E-14
 -1      3589 1.14198E-02 8.21458E-04-6.28971E-14
 -1      3590 1.19294E-02 9.23510E-04-6.85428E-14
 -1      3591 1.17870E-02 9.04693E-04-6.68630E-14
 -1      3592 1.17033E-02 8.59600E-04-6.61928E-14
 -1      3593 1.22145E-02 9.60475E-04-7.19501E-14
 -1      3594 1.20719E-02 9.42099E-04-7.02401E-14
 -1      3595 1.19875E-02 8.96877E-04-6.95510E-14
 -1      3596 1.24998E-02 9.96632E-04-7.54144E-14
 -1      3597 1.23571E-02 9.78648E-04-7.36769E-14
 -1      3598 1.22722E-02 9.33345E-04-7.29703E-14
 -1      3599 1.27852E-02 1.03209E-03-7.89327E-14
 -1      3600 1.26425E-02 1.01444E-03-7.71670E-14
 -1      3601 1.25572E-02 9.69090E-04-7.64429E-14
 -1      3602 1.30708E-02 1.06695E-03-8.24966E-14
 -1      3603 1.29280E-02 1.04958E-03-8.07077E-14
 -1      3604 1.28425E-02 1.00421E-03-7.99654E-14
 -1      3605 1.33565E-02 1.10133E-03-8.60966E-14
 -1      3606 1.32136E-02 1.08419E-03-8.42921E-14
 -1      3607 1.31280E-02 1.03881E-03-8.35346E-14
 -1      3608 1.36422E-02 1.13532E-03-8.97263E-14
 -1      3609 1.34993E-02 1.11837E-03-8.79103E-14
 -1      3610 1.34136E-02 1.07298E-03-8.71396E-14
 -1      3611 1.39279E-02 1.16902E-03-9.33758E-14
 -1      3612 1.37850E-02 1.15220E-03-9.15479E-14
 -1      3613 1.36992E-02 1.10681E-03-9.07730E-14
 -1      3614 1.37614E-02 6.16778E-04-9.58011E-14
 -1      3615 1.37774E-02 6.58731E-04-9.56793E-14
 -1      3616 1.36440E-02 5.99244E-04-9.43429E-14
 -1      3617 7.89335E-03 5.90510E-04-2.75363E-14
 -1      3618 1.42202E-02 1.16257E-03-9.74941E-14
 -1      3619 1.42405E-02 1.19944E-03-9.74477E-14
 -1      3620 1.41540E-02 1.19343E-03-9.62976E-14
 -1      3621 1.40884E-02 1.12728E-03-9.59754E-14
 -1      3622 8.34810E-03 4.44462E-04-3.03341E-14
 -1      3623 8.45651E-03 4.05650E-04-3.09594E-14
 -1      3624 9.12296E-03 5.37741E-04-3.79203E-14
 -1      3625 8.98452E-03 5.25149E-04-3.65635E-14
 -1      3626 9.20878E-03 5.12333E-04-3.87633E-14
 -1      3627 8.30577E-03 1.60683E-04-3.10150E-14
 -1      3628 8.15000E-03 1.02619E-04-3.05948E-14
 -1      3629 5.00991E-03 6.87544E-04-1.33369E-14
 -1      3630 8.05292E-03 5.17481E-04-2.83414E-14
 -1      3631 8.21176E-03 4.99185E-04-2.95648E-14
 -1      3632 6.11512E-03 1.23078E-03-1.77828E-14
 -1      3633 1.31960E-03-1.98765E-04-1.42917E-15
 -1      3634 6.87552E-03-5.42864E-04-2.52677E-14
 -1      3635 9.99563E-04-3.20408E-05-9.12573E-16
 -1      3636 1.00188E-03-5.50240E-05-9.19105E-16
 -1      3637 1.12111E-03-7.17550E-05-1.11634E-15
 -1      3638 7.65126E-03-1.21891E-04-2.88707E-14
 -1      3639 7.43721E-03-2.34103E-04-2.79918E-14
 -1      3640 1.84859E-03-2.32079E-04-2.60095E-15
 -1      3641 1.99036E-03-2.35147E-04-2.97479E-15
 -1      3642 2.04699E-03-2.03933E-04-3.17095E-15
 -1      3643 1.56509E-03-2.21141E-04-1.92737E-15
 -1      3644 1.70685E-03-2.27459E-04-2.25200E-15
 -1      3645 1.76555E-03-1.98787E-04-2.42522E-15
 -1      3646 4.98073E-03-4.84084E-04-1.48977E-14
 -1      3647 7.98772E-03 3.76462E-05-3.00365E-14
 -1      3648 7.82297E-03-3.35901E-05-2.94240E-14
 -1      3649 7.81349E-03-7.15676E-05-2.99303E-14
 -1      3650 8.13493E-03 7.36827E-05-3.10563E-14
 -1      3651 1.25515E-03-1.49344E-04-1.33743E-15
 -1      3652 1.43644E-03-1.94062E-04-1.67084E-15
 -1      3653 1.49724E-03-1.68916E-04-1.82009E-15
 -1      3654 1.24768E-03-1.20376E-04-1.33578E-15
 -1      3655 8.52908E-03 2.34453E-04-3.15096E-14
 -1      3656 8.43667E-03 2.06394E-04-3.12942E-14
 -1      3657 1.32505E-03 2.49649E-04-1.14359E-15
 -1      3658 1.28008E-03 2.23733E-04-1.11165E-15
 -1      3659 1.44867E-03 2.56390E-04-1.35724E-15
 -1      3660 4.19626E-03 2.96475E-04-1.14757E-14
 -1      3661 1.38428E-02 8.49505E-04-9.49979E-14
 -1      3662 1.38590E-02 8.91409E-04-9.48648E-14
 -1      3663 4.65450E-03-2.70679E-04-1.39570E-14
 -1      3664 4.52932E-03-2.36420E-04-1.34409E-14
 -1      3665 4.72832E-03-3.36522E-04-1.40570E-14
 -1      3666 1.11568E-03-2.21048E-05-1.10065E-15
 -1      3667 1.13112E-03 1.27888E-04-1.00352E-15
 -1      3668 8.65999E-03 3.21493E-04-3.21946E-14
 -1      3669 8.63350E-03 2.98677E-04-3.16634E-14
 -1      3670 8.68631E-03 2.94010E-04-3.24264E-14
 -1      3671 3.77319E-03 1.61486E-04-1.06059E-14
 -1      3672 3.85837E-03 1.78761E-04-1.09045E-14
 -1      3673 3.90694E-03 2.04771E-04-1.07842E-14
 -1      3674 4.40764E-03-2.67344E-04-1.26368E-14
 -1      3675 4.55299E-03-3.51605E-04-1.30659E-14
 -1      3676 4.73566E-03-3.99430E-04-1.38603E-14
 -1      3677 2.22298E-03 2.69419E-04-3.12272E-15
 -1      3678 2.08221E-03 2.67888E-04-2.75168E-15
 -1      3679 2.82423E-03 2.38171E-04-5.15221E-15
 -1      3680 2.78131E-03 2.69844E-04-4.83804E-15
 -1      3681 2.64241E-03 2.70047E-04-4.37454E-15
 -1      3682 2.45403E-03 3.02856E-04-3.65506E-15
 -1      3683 1.94110E-03 2.65142E-04-2.40479E-15
 -1      3684 1.79961E-03 2.61014E-04-2.08175E-15
 -1      3685 1.99625E-03 2.35250E-04-2.62727E-15
 -1      3686 3.63037E-03 2.54642E-04-8.49382E-15
 -1      3687 3.61251E-03 2.88704E-04-8.09388E-15
 -1      3688 3.47263E-03 2.81075E-04-7.49567E-15
 -1      3689 3.86630E-03 1.60951E-05-1.14835E-14
 -1      3690 3.75916E-03 2.15913E-05-1.09140E-14
 -1      3691 3.92334E-03-1.10808E-05-1.15674E-14
 -1      3692 7.27709E-03-3.38162E-04-2.74718E-14
 -1      3693 3.66762E-03 7.39569E-05-1.07865E-14
 -1      3694 3.60953E-03 8.06133E-05-1.03926E-14
 -1      3695 3.63942E-03 5.30459E-05-1.04406E-14
 -1      3696 8.94148E-03 4.84727E-04-3.60483E-14
 -1      3697 1.36759E-02 6.82698E-04-9.40984E-14
 -1      3698 1.37933E-02 7.00311E-04-9.55578E-14
 -1      3699 1.38092E-02 7.41877E-04-9.54345E-14
 -1      3700 1.40675E-02 1.18741E-03-9.51484E-14
 -1      3701 1.39488E-02 1.10896E-03-9.42043E-14
 -1      3702 1.39816E-02 1.14201E-03-9.43631E-14
 -1      3703 1.39132E-02 1.06376E-03-9.41166E-14
 -1      3704 1.38065E-02 1.07844E-03-9.25100E-14
 -1      3705 7.08767E-03-4.19177E-04-2.63013E-14
 -1      3706 4.30493E-03-1.37404E-04-1.27717E-14
 -1      3707 4.23998E-03-8.88524E-05-1.27412E-14
 -1      3708 4.11095E-03-6.67065E-05-1.21845E-14
 -1      3709 3.19584E-03 2.72677E-04-6.36599E-15
 -1      3710 3.09427E-03 2.39119E-04-6.17745E-15
 -1      3711 3.33408E-03 2.75968E-04-6.91992E-15
 -1      3712 3.61919E-03 1.05550E-04-1.03916E-14
 -1      3713 3.67530E-03 1.17770E-04-1.07307E-14
 -1      3714 3.66256E-03 1.28484E-04-1.03854E-14
 -1      3715 8.41777E-03 1.80823E-04-3.19092E-14
 -1      3716 1.24101E-03 9.41695E-05-1.23607E-15
 -1      3717 1.23661E-03 6.75288E-05-1.25712E-15
 -1      3718 1.38180E-02 7.74921E-04-9.52810E-14
 -1      3719 1.38340E-02 8.16471E-04-9.51529E-14
 -1      3720 1.37184E-02 8.23220E-04-9.35089E-14
 -1      3721 1.37006E-02 7.57227E-04-9.38192E-14
 -1      3722 1.38970E-02 1.02189E-03-9.42617E-14
 -1      3723 4.86063E-03-4.39815E-04-1.43884E-14
 -1      3724 8.60457E-03 2.52209E-04-3.20433E-14
 -1      3725 8.61712E-03 2.40776E-04-3.27303E-14
 -1      3726 8.66820E-03 2.67764E-04-3.25785E-14
 -1      3727 8.61096E-03 4.27086E-04-3.25954E-14
 -1      3728 8.53650E-03 3.74441E-04-3.14179E-14
 -1      3729 8.62972E-03 3.63696E-04-3.22430E-14
 -1      3730 8.74047E-03 4.35918E-04-3.38885E-14
 -1      3731 1.26912E-03 1.92113E-04-1.14620E-15
 -1      3732 1.23371E-03 4.13277E-05-1.27541E-15
 -1      3733 1.23235E-03 1.54215E-05-1.29141E-15
 -1      3734 1.35296E-03 5.73093E-05-1.48912E-15
 -1      3735 1.23250E-03-1.03674E-05-1.30507E-15
 -1      3736 1.23414E-03-3.63346E-05-1.31659E-15
 -1      3737 1.34997E-03 2.90758E-06-1.52540E-15
 -1      3738 2.52000E-03-1.70542E-04-4.70107E-15
 -1      3739 2.65814E-03-1.68588E-04-5.19226E-15
 -1      3740 2.79598E-03-1.66351E-04-5.70702E-15
 -1      3741 2.93381E-03-1.64001E-04-6.24519E-15
 -1      3742 2.70782E-03-1.35042E-04-5.43249E-15
 -1      3743 3.07165E-03-1.61718E-04-6.80631E-15
 -1      3744 3.21001E-03-1.59809E-04-7.39027E-15
 -1      3745 2.97855E-03-1.28914E-04-6.50413E-15
 -1      3746 3.34901E-03-1.58412E-04-7.99713E-15
 -1      3747 3.48950E-03-1.58126E-04-8.62553E-15
 -1      3748 3.24858E-03-1.22517E-04-7.66700E-15
 -1      3749 3.63178E-03-1.59084E-04-9.27623E-15
 -1      3750 3.77714E-03-1.62626E-04-9.94896E-15
 -1      3751 3.52045E-03-1.17404E-04-8.91888E-15
 -1      3752 4.03133E-03 2.61986E-04-1.07721E-14
 -1      3753 4.21785E-03 3.30130E-04-1.11560E-14
 -1      3754 2.36326E-03 2.70136E-04-3.51673E-15
 -1      3755 2.27504E-03 2.38305E-04-3.37610E-15
 -1      3756 2.50311E-03 2.70208E-04-3.93392E-15
 -1      3757 8.13954E-03 3.27186E-06-3.24094E-14
 -1      3758 8.29082E-03 2.93279E-05-3.36934E-14
 -1      3759 8.43711E-03 5.07046E-05-3.49984E-14
 -1      3760 8.58011E-03 6.97784E-05-3.63246E-14
 -1      3761 8.42591E-03 8.59128E-05-3.42581E-14
 -1      3762 8.72031E-03 8.65299E-05-3.76711E-14
 -1      3763 8.85890E-03 1.02089E-04-3.90368E-14
 -1      3764 8.70048E-03 1.17343E-04-3.69075E-14
 -1      3765 8.99614E-03 1.16502E-04-4.04207E-14
 -1      3766 9.13279E-03 1.30280E-04-4.18238E-14
 -1      3767 8.96885E-03 1.44462E-04-3.96372E-14
 -1      3768 9.26894E-03 1.43491E-04-4.32445E-14
 -1      3769 9.40508E-03 1.56368E-04-4.46828E-14
 -1      3770 9.23549E-03 1.69852E-04-4.24412E-14
 -1      3771 9.54123E-03 1.69001E-04-4.61366E-14
 -1      3772 9.67766E-03 1.81491E-04-4.76058E-14
 -1      3773 9.50274E-03 1.94643E-04-4.53148E-14
 -1      3774 9.81435E-03 1.93932E-04-4.90883E-14
 -1      3775 9.95148E-03 2.06360E-04-5.05870E-14
 -1      3776 9.77176E-03 2.19426E-04-4.82494E-14
 -1      3777 1.00890E-02 2.18860E-04-5.21025E-14
 -1      3778 1.02270E-02 2.31437E-04-5.36315E-14
 -1      3779 1.00431E-02 2.44546E-04-5.12457E-14
 -1      3780 1.03654E-02 2.44162E-04-5.51769E-14
 -1      3781 1.05042E-02 2.57024E-04-5.67371E-14
 -1      3782 1.03168E-02 2.70218E-04-5.43029E-14
 -1      3783 1.06435E-02 2.70079E-04-5.83115E-14
 -1      3784 1.07831E-02 2.83307E-04-5.98998E-14
 -1      3785 1.05927E-02 2.96575E-04-5.74198E-14
 -1      3786 1.09231E-02 2.96747E-04-6.14999E-14
 -1      3787 1.10635E-02 3.10378E-04-6.31131E-14
 -1      3788 1.08707E-02 3.23687E-04-6.05936E-14
 -1      3789 1.12042E-02 3.24224E-04-6.47389E-14
 -1      3790 1.13452E-02 3.38262E-04-6.63765E-14
 -1      3791 1.11504E-02 3.51573E-04-6.38178E-14
 -1      3792 1.14864E-02 3.52506E-04-6.80258E-14
 -1      3793 1.16279E-02 3.66932E-04-6.96878E-14
 -1      3794 1.14316E-02 3.80213E-04-6.70909E-14
 -1      3795 1.17696E-02 3.81546E-04-7.13629E-14
 -1      3796 1.19114E-02 3.96328E-04-7.30490E-14
 -1      3797 1.17140E-02 4.09554E-04-7.04153E-14
 -1      3798 1.20534E-02 4.11276E-04-7.47460E-14
 -1      3799 1.21956E-02 4.26372E-04-7.64552E-14
 -1      3800 1.19973E-02 4.39526E-04-7.37870E-14
 -1      3801 1.23379E-02 4.41611E-04-7.81793E-14
 -1      3802 1.24802E-02 4.56978E-04-7.99160E-14
 -1      3803 1.22813E-02 4.70052E-04-7.72093E-14
 -1      3804 1.26227E-02 4.72465E-04-8.16604E-14
 -1      3805 1.27653E-02 4.88058E-04-8.34211E-14
 -1      3806 1.25659E-02 5.01053E-04-8.06789E-14
 -1      3807 1.29079E-02 5.03750E-04-8.51903E-14
 -1      3808 1.30505E-02 5.19528E-04-8.69665E-14
 -1      3809 1.28508E-02 5.32449E-04-8.41945E-14
 -1      3810 1.31933E-02 5.35384E-04-8.87518E-14
 -1      3811 1.33360E-02 5.51308E-04-9.05494E-14
 -1      3812 1.31361E-02 5.64166E-04-8.77519E-14
 -1      3813 1.34313E-02 5.66511E-04-9.17160E-14
 -1      3814 1.35487E-02 5.83976E-04-9.31682E-14
 -1      3815 1.35647E-02 6.25860E-04-9.30462E-14
 -1      3816 1.33740E-02 5.95339E-04-9.07058E-14
 -1      3817 4.38694E-03 4.09835E-04-1.14099E-14
 -1      3818 1.41468E-03 1.97202E-04-1.40702E-15
 -1      3819 1.28297E-03 1.61408E-04-1.22013E-15
 -1      3820 9.03046E-03 4.59461E-04-3.68720E-14
 -1      3821 8.90208E-03 4.46111E-04-3.55313E-14
 -1      3822 9.81763E-03 5.61429E-04-4.52963E-14
 -1      3823 9.68388E-03 5.42594E-04-4.38484E-14
 -1      3824 9.55122E-03 5.24361E-04-4.24194E-14
 -1      3825 9.41949E-03 5.06736E-04-4.10063E-14
 -1      3826 9.62088E-03 5.04539E-04-4.32860E-14
 -1      3827 1.03614E-02 6.39746E-04-5.12371E-14
 -1      3828 1.02242E-02 6.19880E-04-4.97303E-14
 -1      3829 1.06377E-02 6.79504E-04-5.43061E-14
 -1      3830 1.04992E-02 6.59619E-04-5.27625E-14
 -1      3831 1.04236E-02 6.18057E-04-5.21581E-14
 -1      3832 1.09164E-02 7.18990E-04-5.74352E-14
 -1      3833 1.07768E-02 6.99291E-04-5.58639E-14
 -1      3834 1.06986E-02 6.56833E-04-5.52426E-14
 -1      3835 1.11968E-02 7.57917E-04-6.06258E-14
 -1      3836 1.10564E-02 7.38528E-04-5.90225E-14
 -1      3837 1.09762E-02 6.95344E-04-5.83874E-14
 -1      3838 1.14787E-02 7.96127E-04-6.38769E-14
 -1      3839 1.13376E-02 7.77112E-04-6.22443E-14
 -1      3840 1.12558E-02 7.33357E-04-6.15930E-14
 -1      3841 1.17616E-02 8.33561E-04-6.71881E-14
 -1      3842 1.16200E-02 8.14938E-04-6.55249E-14
 -1      3843 1.15371E-02 7.70743E-04-6.48570E-14
 -1      3844 1.20454E-02 8.70230E-04-7.05577E-14
 -1      3845 1.19034E-02 8.51986E-04-6.88641E-14
 -1      3846 1.18196E-02 8.07460E-04-6.81809E-14
 -1      3847 1.23298E-02 9.06190E-04-7.39833E-14
 -1      3848 1.21875E-02 8.88293E-04-7.22632E-14
 -1      3849 1.21031E-02 8.43520E-04-7.15620E-14
 -1      3850 1.26146E-02 9.41518E-04-7.74663E-14
 -1      3851 1.24721E-02 9.23927E-04-7.57189E-14
 -1      3852 1.23872E-02 8.78975E-04-7.49967E-14
 -1      3853 1.28998E-02 9.76303E-04-8.09964E-14
 -1      3854 1.27571E-02 9.58972E-04-7.92276E-14
 -1      3855 1.26719E-02 9.13892E-04-7.84898E-14
 -1      3856 1.31851E-02 1.01063E-03-8.45709E-14
 -1      3857 1.30424E-02 9.93520E-04-8.27789E-14
 -1      3858 1.29570E-02 9.48348E-04-8.20263E-14
 -1      3859 1.34706E-02 1.04460E-03-8.81800E-14
 -1      3860 1.33279E-02 1.02766E-03-8.63703E-14
 -1      3861 1.32422E-02 9.82422E-04-8.56055E-14
 -1      3862 1.36636E-02 1.06166E-03-9.06882E-14
 -1      3863 1.38751E-02 9.33232E-04-9.47299E-14
 -1      3864 1.38913E-02 9.75067E-04-9.45889E-14
 -1      3865 1.37434E-02 8.97978E-04-9.32184E-14
 -1      3866 1.68607E-03 2.61742E-04-1.82710E-15
 -1      3867 1.56278E-03 2.58799E-04-1.57596E-15
 -1      3868 1.51678E-03 2.33120E-04-1.53799E-15
 -1      3869 1.74337E-03 2.33685E-04-2.02103E-15
 -1      3870 9.28891E-03 4.89984E-04-3.96094E-14
 -1      3871 9.15913E-03 4.74142E-04-3.82312E-14
 -1      3872 9.36317E-03 4.69773E-04-4.04566E-14
 -1      3873 1.27489E-03 1.32248E-04-1.24868E-15
 -1      3874 1.37652E-02 9.86510E-04-9.27542E-14
 -1      3875 3.90437E-03 2.25305E-04-1.04329E-14
 -1      3876 3.91752E-03 2.54245E-04-1.01304E-14
 -1      3877 3.78393E-03 2.42689E-04-9.46331E-15
 -1      3878 3.80766E-03 2.02031E-04-1.01438E-14
 -1      3879 1.35779E-02 1.01637E-03-8.99081E-14
 -1      3880 1.39066E-03 1.23869E-04-1.48152E-15
 -1      3881 1.96417E-03-1.72028E-04-2.97268E-15
 -1      3882 2.10365E-03-1.72912E-04-3.36900E-15
 -1      3883 1.23728E-03-6.26625E-05-1.32565E-15
 -1      3884 1.24183E-03-8.96335E-05-1.33253E-15
 -1      3885 1.35375E-03-5.16858E-05-1.55167E-15
 -1      3886 8.53963E-03 2.00307E-04-3.29805E-14
 -1      3887 8.42167E-03 1.55838E-04-3.26919E-14
 -1      3888 2.24278E-03-1.72870E-04-3.78934E-15
 -1      3889 2.38159E-03-1.72006E-04-4.23354E-15
 -1      3890 2.16037E-03-1.42126E-04-3.56860E-15
 -1      3891 1.00878E-02 6.00173E-04-4.82371E-14
 -1      3892 9.95225E-03 5.80623E-04-4.67594E-14
 -1      3893 9.88402E-03 5.41326E-04-4.61831E-14
 -1      3894 1.01518E-02 5.79384E-04-4.91395E-14
 -1      3895 7.97895E-03-3.14101E-05-3.11730E-14
 -1      3896 1.68461E-03-1.66779E-04-2.25311E-15
 -1      3897 1.82448E-03-1.70013E-04-2.60085E-15
 -1      3898 1.88365E-03-1.41175E-04-2.77832E-15
 -1      3899 4.34071E-03-2.09985E-04-1.25468E-14
 -1      3900 2.86626E-03 2.07906E-04-5.47095E-15
 -1      3901 2.73304E-03 2.08011E-04-4.97721E-15
 -1      3902 8.71093E-03 3.52548E-04-3.30213E-14
 -1      3903 2.43521E-03-1.39766E-04-4.45385E-15
 -1      3904 3.68630E-03 1.43954E-04-1.02735E-14
 -1      3905 3.71711E-03 1.62361E-04-1.01607E-14
 -1      3906 3.60931E-03 1.29301E-04-9.94527E-15
 -1      3907 8.71431E-03 2.44957E-04-3.40804E-14
 -1      3908 8.63202E-03 2.24490E-04-3.35290E-14
 -1      3909 8.64810E-03 2.04995E-04-3.43326E-14
 -1      3910 8.83438E-03 4.09792E-04-3.46897E-14
 -1      3911 3.92628E-03-1.68794E-04-1.06430E-14
 -1      3912 4.08086E-03-1.80499E-04-1.13597E-14
 -1      3913 2.32692E-03 2.08057E-04-3.63472E-15
 -1      3914 2.18957E-03 2.07371E-04-3.23336E-15
 -1      3915 2.55117E-03 2.38601E-04-4.21806E-15
 -1      3916 8.42303E-03 1.27505E-04-3.33715E-14
 -1      3917 8.28058E-03 9.81504E-05-3.22918E-14
 -1      3918 2.05147E-03 2.05886E-04-2.85556E-15
 -1      3919 1.91266E-03 2.03509E-04-2.50098E-15
 -1      3920 2.10684E-03 1.77102E-04-3.08930E-15
 -1      3921 1.34853E-02 6.52050E-04-9.17517E-14
 -1      3922 1.35806E-02 6.67363E-04-9.29251E-14
 -1      3923 1.35965E-02 7.08846E-04-9.27994E-14
 -1      3924 3.67234E-03 2.14541E-04-9.14558E-15
 -1      3925 3.65299E-03 2.34504E-04-8.81775E-15
 -1      3926 3.52242E-03 2.28563E-04-8.19435E-15
 -1      3927 1.52764E-03 1.98790E-04-1.62953E-15
 -1      3928 4.00541E-03-7.43269E-05-1.15533E-14
 -1      3929 3.87574E-03-5.75213E-05-1.09811E-14
 -1      3930 3.64355E-03 2.72938E-05-1.02852E-14
 -1      3931 3.56600E-03 3.93291E-05-9.90453E-15
 -1      3932 1.55832E-03-1.43326E-04-1.97204E-15
 -1      3933 8.13374E-03 4.02601E-05-3.17179E-14
 -1      3934 1.52629E-03 1.45490E-04-1.72556E-15
 -1      3935 1.49037E-03 1.04688E-04-1.71395E-15
 -1      3936 1.36117E-02 8.62813E-04-9.17125E-14
 -1      3937 1.36278E-02 9.04527E-04-9.15750E-14
 -1      3938 3.79951E-03-1.17074E-04-1.02579E-14
 -1      3939 9.11154E-03 4.37773E-04-3.76972E-14
 -1      3940 8.77588E-03 3.06961E-04-3.36727E-14
 -1      3941 8.72661E-03 2.86790E-04-3.31246E-14
 -1      3942 8.75973E-03 2.78913E-04-3.38272E-14
 -1      3943 1.36000E-02 9.37121E-04-9.09104E-14
 -1      3944 1.36057E-02 9.83796E-04-9.05800E-14
 -1      3945 1.34128E-02 9.66866E-04-8.80768E-14
 -1      3946 1.34684E-02 9.01874E-04-8.94094E-14
 -1      3947 3.36216E-03 2.43709E-04-7.29167E-15
 -1      3948 3.56677E-03 9.00111E-05-1.00581E-14
 -1      3949 3.53224E-03 9.96643E-05-9.72743E-15
 -1      3950 3.51965E-03 7.31186E-05-9.72784E-15
 -1      3951 1.35939E-02 7.96922E-04-9.20282E-14
 -1      3952 1.36028E-02 8.29868E-04-9.18710E-14
 -1      3953 1.34873E-02 8.36448E-04-9.02335E-14
 -1      3954 1.61775E-03 9.44970E-05-2.01008E-15
 -1      3955 1.48482E-03 7.55618E-05-1.74092E-15
 -1      3956 1.48120E-03 4.69015E-05-1.76453E-15
 -1      3957 3.12907E-03 2.08998E-04-6.52486E-15
 -1      3958 2.99818E-03 2.08220E-04-5.98665E-15
 -1      3959 2.90771E-03 1.79120E-04-5.79365E-15
 -1      3960 1.36390E-03-1.11429E-04-1.56656E-15
 -1      3961 3.68169E-03 7.59582E-06-1.03643E-14
 -1      3962 4.20415E-03-1.79044E-04-1.19927E-14
 -1      3963 1.54985E-03-1.08869E-04-1.96735E-15
 -1      3964 8.80694E-03 3.73365E-04-3.42130E-14
 -1      3965 8.81556E-03 3.34122E-04-3.41592E-14
 -1      3966 8.86978E-03 3.25677E-04-3.48768E-14
 -1      3967 8.95101E-03 3.87472E-04-3.58580E-14
 -1      3968 9.18813E-03 4.17230E-04-3.85641E-14
 -1      3969 9.06812E-03 4.01912E-04-3.72008E-14
 -1      3970 9.02365E-03 3.68700E-04-3.67035E-14
 -1      3971 3.70421E-03 1.78238E-04-9.81652E-15
 -1      3972 3.69111E-03 1.96494E-04-9.48243E-15
 -1      3973 3.57072E-03 1.91828E-04-8.83629E-15
 -1      3974 3.61209E-03 1.59562E-04-9.49866E-15
 -1      3975 2.89002E-03-9.86615E-05-6.20633E-15
 -1      3976 3.02225E-03-9.46974E-05-6.76256E-15
 -1      3977 3.15365E-03-9.04915E-05-7.34121E-15
 -1      3978 3.28489E-03-8.61626E-05-7.94272E-15
 -1      3979 3.06502E-03-6.14559E-05-7.02021E-15
 -1      3980 3.41559E-03-8.18484E-05-8.56567E-15
 -1      3981 3.54703E-03-7.76798E-05-9.21057E-15
 -1      3982 3.31899E-03-5.08527E-05-8.21680E-15
 -1      3983 2.59876E-03 2.08157E-04-4.50695E-15
 -1      3984 2.46331E-03 2.08296E-04-4.05952E-15
 -1      3985 2.64613E-03 1.78952E-04-4.80089E-15
 -1      3986 1.10351E-02 6.71652E-04-5.93392E-14
 -1      3987 1.08963E-02 6.52941E-04-5.77528E-14
 -1      3988 8.55387E-03 1.41099E-04-3.46729E-14
 -1      3989 8.94400E-03 1.71348E-04-3.88564E-14
 -1      3990 9.07366E-03 1.83232E-04-4.02376E-14
 -1      3991 9.20349E-03 1.95132E-04-4.16389E-14
 -1      3992 9.33404E-03 2.07104E-04-4.30586E-14
 -1      3993 9.17274E-03 2.19300E-04-4.08375E-14
 -1      3994 9.46514E-03 2.19223E-04-4.44933E-14
 -1      3995 9.59710E-03 2.31465E-04-4.59448E-14
 -1      3996 9.42824E-03 2.42706E-04-4.36729E-14
 -1      3997 9.72977E-03 2.43907E-04-4.74117E-14
 -1      3998 9.86330E-03 2.56492E-04-4.88927E-14
 -1      3999 9.68817E-03 2.67343E-04-4.65727E-14
 -1      4000 9.99759E-03 2.69291E-04-5.03888E-14
 -1      4001 1.01327E-02 2.82247E-04-5.19018E-14
 -1      4002 9.95235E-03 2.93068E-04-4.95339E-14
 -1      4003 1.02685E-02 2.95422E-04-5.34290E-14
 -1      4004 1.04051E-02 3.08761E-04-5.49717E-14
 -1      4005 1.02204E-02 3.19747E-04-5.25544E-14
 -1      4006 1.05423E-02 3.22318E-04-5.65308E-14
 -1      4007 1.06801E-02 3.36044E-04-5.81011E-14
 -1      4008 1.04919E-02 3.47284E-04-5.56385E-14
 -1      4009 1.08185E-02 3.49979E-04-5.96851E-14
 -1      4010 1.09575E-02 3.64080E-04-6.12832E-14
 -1      4011 1.07664E-02 3.75597E-04-5.87784E-14
 -1      4012 1.10969E-02 3.78378E-04-6.28962E-14
 -1      4013 1.12368E-02 3.92835E-04-6.45197E-14
 -1      4014 1.10434E-02 4.04610E-04-6.19719E-14
 -1      4015 1.13770E-02 4.07471E-04-6.61569E-14
 -1      4016 1.15176E-02 4.22255E-04-6.78053E-14
 -1      4017 1.13225E-02 4.34256E-04-6.52203E-14
 -1      4018 1.16586E-02 4.37198E-04-6.94659E-14
 -1      4019 1.17998E-02 4.52273E-04-7.11395E-14
 -1      4020 1.16033E-02 4.64456E-04-6.85172E-14
 -1      4021 1.19413E-02 4.67487E-04-7.28282E-14
 -1      4022 1.20830E-02 4.82819E-04-7.45269E-14
 -1      4023 1.18854E-02 4.95140E-04-7.18640E-14
 -1      4024 1.22249E-02 4.98269E-04-7.62345E-14
 -1      4025 1.23669E-02 5.13819E-04-7.79596E-14
 -1      4026 1.21685E-02 5.26243E-04-7.52631E-14
 -1      4027 1.25091E-02 5.29469E-04-7.96964E-14
 -1      4028 1.26514E-02 5.45204E-04-8.14428E-14
 -1      4029 1.24524E-02 5.57698E-04-7.87116E-14
 -1      4030 1.27938E-02 5.61019E-04-8.32002E-14
 -1      4031 1.29363E-02 5.76904E-04-8.49701E-14
 -1      4032 1.27369E-02 5.89447E-04-8.22061E-14
 -1      4033 1.30789E-02 5.92853E-04-8.67506E-14
 -1      4034 1.32215E-02 6.08857E-04-8.85376E-14
 -1      4035 1.30218E-02 6.21433E-04-8.57445E-14
 -1      4036 1.33057E-02 6.22797E-04-8.95588E-14
 -1      4037 1.34010E-02 6.38060E-04-9.07229E-14
 -1      4038 1.34170E-02 6.79462E-04-9.05988E-14
 -1      4039 1.32486E-02 6.51463E-04-8.85502E-14
 -1      4040 4.05729E-03-1.13789E-04-1.15794E-14
 -1      4041 9.68632E-03 4.85683E-04-4.41537E-14
 -1      4042 9.55813E-03 4.68168E-04-4.27207E-14
 -1      4043 1.68349E-03 2.05423E-04-1.95123E-15
 -1      4044 1.58250E-03 1.71779E-04-1.79843E-15
 -1      4045 1.68025E-03 1.50481E-04-2.05828E-15
 -1      4046 1.79583E-03 2.04095E-04-2.21367E-15
 -1      4047 3.49519E-03 2.87071E-05-9.43313E-15
 -1      4048 3.50394E-03 5.22807E-05-9.58166E-15
 -1      4049 3.45051E-03 6.38808E-05-9.26304E-15
 -1      4050 2.35355E-03-1.10234E-04-4.20989E-15
 -1      4051 2.48893E-03-1.08105E-04-4.67421E-15
 -1      4052 1.07582E-02 6.34171E-04-5.61786E-14
 -1      4053 1.06207E-02 6.15316E-04-5.46202E-14
 -1      4054 1.08166E-02 6.11341E-04-5.71164E-14
 -1      4055 1.04841E-02 5.96471E-04-5.30809E-14
 -1      4056 1.03483E-02 5.77608E-04-5.15542E-14
 -1      4057 1.05430E-02 5.74754E-04-5.40004E-14
 -1      4058 1.13142E-02 7.08723E-04-6.25586E-14
 -1      4059 1.11744E-02 6.90239E-04-6.09416E-14
 -1      4060 1.10931E-02 6.47783E-04-6.02913E-14
 -1      4061 1.15951E-02 7.45275E-04-6.58378E-14
 -1      4062 1.14545E-02 7.27062E-04-6.41902E-14
 -1      4063 1.13720E-02 6.83917E-04-6.35257E-14
 -1      4064 1.18773E-02 7.81272E-04-6.91752E-14
 -1      4065 1.17361E-02 7.63339E-04-6.74996E-14
 -1      4066 1.16527E-02 7.19648E-04-6.68173E-14
 -1      4067 1.21606E-02 8.16728E-04-7.25669E-14
 -1      4068 1.20188E-02 7.99063E-04-7.08652E-14
 -1      4069 1.19347E-02 7.54944E-04-7.01670E-14
 -1      4070 1.24446E-02 8.51685E-04-7.60121E-14
 -1      4071 1.23025E-02 8.34264E-04-7.42817E-14
 -1      4072 1.22179E-02 7.89816E-04-7.35695E-14
 -1      4073 1.27291E-02 8.86201E-04-7.95102E-14
 -1      4074 1.25868E-02 8.68993E-04-7.77550E-14
 -1      4075 1.25018E-02 8.24294E-04-7.70233E-14
 -1      4076 1.30141E-02 9.20338E-04-8.30527E-14
 -1      4077 1.28716E-02 9.03312E-04-8.12772E-14
 -1      4078 1.27863E-02 8.58426E-04-8.05282E-14
 -1      4079 1.32847E-02 9.52103E-04-8.64573E-14
 -1      4080 1.31421E-02 9.35218E-04-8.46608E-14
 -1      4081 1.30566E-02 8.90199E-04-8.38991E-14
 -1      4082 1.33125E-02 9.19696E-04-8.71231E-14
 -1      4083 1.53835E-03-4.91280E-05-1.94629E-15
 -1      4084 1.54317E-03-7.86528E-05-1.95842E-15
 -1      4085 1.73548E-03-1.06973E-04-2.41144E-15
 -1      4086 3.38752E-03 2.13107E-04-7.66748E-15
 -1      4087 3.25866E-03 2.10602E-04-7.08534E-15
 -1      4088 3.16264E-03 1.80529E-04-6.87662E-15
 -1      4089 3.74298E-03-5.86968E-05-1.02810E-14
 -1      4090 1.35908E-02 7.36418E-04-9.24930E-14
 -1      4091 1.35996E-02 7.69379E-04-9.23366E-14
 -1      4092 1.34841E-02 7.76065E-04-9.07035E-14
 -1      4093 1.34955E-02 7.21034E-04-9.13211E-14
 -1      4094 9.43320E-03 4.50347E-04-4.13242E-14
 -1      4095 9.30871E-03 4.33845E-04-3.99250E-14
 -1      4096 9.25496E-03 3.99175E-04-3.94119E-14
 -1      4097 9.49634E-03 4.32608E-04-4.21724E-14
 -1      4098 2.08063E-03-1.12443E-04-3.35136E-15
 -1      4099 2.21745E-03-1.11679E-04-3.76908E-15
 -1      4100 2.27501E-03-8.16326E-05-3.97025E-15
 -1      4101 2.62343E-03-1.05447E-04-5.16240E-15
 -1      4102 2.75719E-03-1.02248E-04-5.67264E-15
 -1      4103 2.80638E-03-7.02995E-05-5.91276E-15
 -1      4104 1.47951E-03 1.86079E-05-1.78553E-15
 -1      4105 1.47974E-03-9.70567E-06-1.80352E-15
 -1      4106 1.60966E-03 3.53961E-05-2.06375E-15
 -1      4107 1.83941E-03-1.09909E-04-2.67774E-15
 -1      4108 1.97708E-03-1.10567E-04-3.05337E-15
 -1      4109 2.03711E-03-8.16695E-05-3.23671E-15
 -1      4110 1.83127E-03-7.80054E-05-2.66505E-15
 -1      4111 8.66361E-03 1.80344E-04-3.51616E-14
 -1      4112 8.67563E-03 1.45222E-04-3.60715E-14
 -1      4113 8.80574E-03 1.57610E-04-3.74155E-14
 -1      4114 8.75737E-03 2.06989E-04-3.57297E-14
 -1      4115 2.16283E-03 1.48930E-04-3.32898E-15
 -1      4116 2.02689E-03 1.47535E-04-2.94427E-15
 -1      4117 3.53651E-03 1.13250E-04-9.62344E-15
 -1      4118 3.54866E-03 1.27720E-04-9.51791E-15
 -1      4119 3.47181E-03 9.72899E-05-9.30450E-15
 -1      4120 8.79363E-03 2.67425E-04-3.46425E-14
 -1      4121 8.82402E-03 2.53677E-04-3.54634E-14
 -1      4122 8.86326E-03 2.88707E-04-3.52066E-14
 -1      4123 2.37882E-03 1.78746E-04-3.89902E-15
 -1      4124 1.02731E-02 5.38276E-04-5.09478E-14
 -1      4125 1.02135E-02 5.58857E-04-5.00428E-14
 -1      4126 1.00798E-02 5.40181E-04-4.85479E-14
 -1      4127 2.69408E-03 1.51045E-04-5.09969E-15
 -1      4128 2.56347E-03 1.50804E-04-4.62267E-15
 -1      4129 8.91290E-03 1.95548E-04-3.79984E-14
 -1      4130 1.85361E-03 1.76506E-04-2.41940E-15
 -1      4131 1.66625E-03-3.38708E-05-2.24244E-15
 -1      4132 2.29767E-03 1.49886E-04-3.73710E-15
 -1      4133 2.21965E-03 1.21405E-04-3.57429E-15
 -1      4134 2.43131E-03 1.50399E-04-4.16865E-15
 -1      4135 1.79634E-03 1.50237E-04-2.33579E-15
 -1      4136 1.74081E-03 1.24584E-04-2.25065E-15
 -1      4137 1.91195E-03 1.49178E-04-2.63111E-15
 -1      4138 3.50710E-03-1.56618E-05-9.29642E-15
 -1      4139 3.43399E-03 1.90503E-06-8.98757E-15
 -1      4140 9.94727E-03 5.21753E-04-4.70679E-14
 -1      4141 9.81604E-03 5.03513E-04-4.56029E-14
 -1      4142 9.74792E-03 4.67173E-04-4.50221E-14
 -1      4143 1.00077E-02 5.02269E-04-4.79544E-14
 -1      4144 3.41550E-03 1.94720E-04-7.97295E-15
 -1      4145 1.33682E-02 8.54815E-04-8.84483E-14
 -1      4146 1.33404E-02 8.87270E-04-8.77873E-14
 -1      4147 1.32124E-02 8.72634E-04-8.61706E-14
 -1      4148 2.54290E-03-7.71036E-05-4.89551E-15
 -1      4149 1.73324E-03 9.37216E-05-2.28505E-15
 -1      4150 3.62980E-03-2.32089E-05-9.89538E-15
 -1      4151 2.94963E-03 1.51970E-04-6.12132E-15
 -1      4152 2.82281E-03 1.51479E-04-5.59915E-15
 -1      4153 2.74302E-03 1.24483E-04-5.40308E-15
 -1      4154 1.33504E-02 7.89154E-04-8.87715E-14
 -1      4155 1.33593E-02 8.21983E-04-8.86105E-14
 -1      4156 1.32313E-02 8.07504E-04-8.69948E-14
 -1      4157 9.14244E-03 2.41911E-04-4.00382E-14
 -1      4158 9.26620E-03 2.53141E-04-4.14363E-14
 -1      4159 2.98269E-03-3.49845E-05-6.70313E-15
 -1      4160 3.10763E-03-2.97141E-05-7.27635E-15
 -1      4161 3.44412E-03 1.78018E-04-8.28722E-15
 -1      4162 3.32010E-03 1.65852E-04-7.75412E-15
 -1      4163 3.47104E-03 1.61985E-04-8.60568E-15
 -1      4164 3.21399E-03-1.77644E-05-7.80673E-15
 -1      4165 3.33425E-03-1.11274E-05-8.42164E-15
 -1      4166 3.33821E-03 2.99972E-05-8.55192E-15
 -1      4167 3.13623E-03 6.16222E-06-7.46724E-15
 -1      4168 8.88388E-03 2.18074E-04-3.71426E-14
 -1      4169 9.01246E-03 2.29619E-04-3.85790E-14
 -1      4170 9.10424E-03 2.61456E-04-3.91601E-14
 -1      4171 8.85653E-03 2.38913E-04-3.62915E-14
 -1      4172 1.14292E-02 6.58907E-04-6.44914E-14
 -1      4173 1.12896E-02 6.41326E-04-6.28601E-14
 -1      4174 1.97103E-03 1.22129E-04-2.84890E-15
 -1      4175 2.19956E-03-5.38567E-05-3.73468E-15
 -1      4176 2.33347E-03-5.20824E-05-4.17216E-15
 -1      4177 9.39136E-03 2.64882E-04-4.28509E-14
 -1      4178 9.51822E-03 2.77022E-04-4.42835E-14
 -1      4179 9.35411E-03 2.85643E-04-4.20311E-14
 -1      4180 9.64643E-03 2.89637E-04-4.57334E-14
 -1      4181 9.77609E-03 3.02554E-04-4.71987E-14
 -1      4182 9.60422E-03 3.10727E-04-4.48946E-14
 -1      4183 9.90696E-03 3.15831E-04-4.86774E-14
 -1      4184 1.00391E-02 3.29355E-04-5.01716E-14
 -1      4185 9.86113E-03 3.37541E-04-4.78206E-14
 -1      4186 1.01722E-02 3.43173E-04-5.16802E-14
 -1      4187 1.03064E-02 3.57194E-04-5.32053E-14
 -1      4188 1.01236E-02 3.65669E-04-5.08067E-14
 -1      4189 1.04415E-02 3.71458E-04-5.47457E-14
 -1      4190 1.05776E-02 3.85891E-04-5.63018E-14
 -1      4191 1.03909E-02 3.94816E-04-5.38532E-14
 -1      4192 1.07143E-02 4.00528E-04-5.78711E-14
 -1      4193 1.08518E-02 4.15309E-04-5.94526E-14
 -1      4194 1.06620E-02 4.24752E-04-5.69620E-14
 -1      4195 1.09900E-02 4.30259E-04-6.10492E-14
 -1      4196 1.11288E-02 4.45331E-04-6.26589E-14
 -1      4197 1.09364E-02 4.55305E-04-6.01262E-14
 -1      4198 1.12681E-02 4.60553E-04-6.42813E-14
 -1      4199 1.14078E-02 4.75872E-04-6.59186E-14
 -1      4200 1.12135E-02 4.86354E-04-6.33442E-14
 -1      4201 1.15480E-02 4.91312E-04-6.75661E-14
 -1      4202 1.16886E-02 5.06843E-04-6.92256E-14
 -1      4203 1.14927E-02 5.17752E-04-6.66145E-14
 -1      4204 1.18295E-02 5.22470E-04-7.09018E-14
 -1      4205 1.19707E-02 5.38173E-04-7.25910E-14
 -1      4206 1.17737E-02 5.49459E-04-6.99369E-14
 -1      4207 1.21122E-02 5.53960E-04-7.42907E-14
 -1      4208 1.22539E-02 5.69810E-04-7.60021E-14
 -1      4209 1.20559E-02 5.81408E-04-7.33150E-14
 -1      4210 1.23958E-02 5.85728E-04-7.77253E-14
 -1      4211 1.25378E-02 6.01697E-04-7.94626E-14
 -1      4212 1.23392E-02 6.13546E-04-7.67415E-14
 -1      4213 1.26800E-02 6.17722E-04-8.12126E-14
 -1      4214 1.28224E-02 6.33788E-04-8.29703E-14
 -1      4215 1.26232E-02 6.45835E-04-8.02149E-14
 -1      4216 1.71092E-03 5.14536E-06-2.33289E-15
 -1      4217 1.76875E-03-3.57142E-05-2.49896E-15
 -1      4218 1.87109E-03-3.73092E-05-2.76881E-15
 -1      4219 1.08740E-02 5.88285E-04-5.80529E-14
 -1      4220 1.07368E-02 5.70538E-04-5.64786E-14
 -1      4221 2.72759E-03-4.35077E-05-5.62297E-15
 -1      4222 2.85607E-03-3.94522E-05-6.15190E-15
 -1      4223 2.90660E-03-9.85336E-06-6.39017E-15
 -1      4224 8.97660E-03 3.40850E-04-3.62073E-14
 -1      4225 8.92307E-03 3.12902E-04-3.57059E-14
 -1      4226 8.97088E-03 3.02075E-04-3.65437E-14
 -1      4227 9.08705E-03 3.54645E-04-3.75545E-14
 -1      4228 1.11504E-02 6.23694E-04-6.12422E-14
 -1      4229 1.10119E-02 6.05992E-04-5.96409E-14
 -1      4230 1.12071E-02 5.99293E-04-6.21944E-14
 -1      4231 1.06005E-02 5.52823E-04-5.49198E-14
 -1      4232 1.04651E-02 5.35119E-04-5.33782E-14
 -1      4233 1.06568E-02 5.30527E-04-5.58410E-14
 -1      4234 1.17099E-02 6.93839E-04-6.77971E-14
 -1      4235 1.15693E-02 6.76408E-04-6.61372E-14
 -1      4236 1.14860E-02 6.33619E-04-6.54571E-14
 -1      4237 1.19919E-02 7.28458E-04-7.11576E-14
 -1      4238 1.18507E-02 7.11184E-04-6.94708E-14
 -1      4239 1.17667E-02 6.67798E-04-6.87749E-14
 -1      4240 1.22750E-02 7.62769E-04-7.45685E-14
 -1      4241 1.21333E-02 7.45650E-04-7.28567E-14
 -1      4242 1.20488E-02 7.01779E-04-7.21451E-14
 -1      4243 1.25589E-02 7.96792E-04-7.80312E-14
 -1      4244 1.24169E-02 7.79812E-04-7.62930E-14
 -1      4245 1.23320E-02 7.35563E-04-7.55645E-14
 -1      4246 1.28434E-02 8.30560E-04-8.15449E-14
 -1      4247 1.27011E-02 8.13705E-04-7.97820E-14
 -1      4248 1.26160E-02 7.69160E-04-7.90373E-14
 -1      4249 2.46618E-03-4.97978E-05-4.63312E-15
 -1      4250 2.59766E-03-4.69080E-05-5.11710E-15
 -1      4251 2.39305E-03-2.30926E-05-4.37505E-15
 -1      4252 3.35858E-03 5.27392E-05-8.69307E-15
 -1      4253 3.38440E-03 7.34049E-05-8.83228E-15
 -1      4254 3.26175E-03 4.12068E-05-8.14011E-15
 -1      4255 2.48473E-03 1.23056E-04-4.44322E-15
 -1      4256 1.87490E-03 9.10912E-05-2.65021E-15
 -1      4257 1.75470E-03 6.20641E-05-2.38443E-15
 -1      4258 1.75185E-03 3.20677E-05-2.41221E-15
 -1      4259 3.19644E-03 1.54088E-04-7.23197E-15
 -1      4260 3.07416E-03 1.52933E-04-6.66569E-15
 -1      4261 2.99256E-03 1.26496E-04-6.45306E-15
 -1      4262 1.98927E-03 8.93166E-05-2.96510E-15
 -1      4263 3.52431E-03 1.40575E-04-9.18861E-15
 -1      4264 1.03307E-02 5.17526E-04-5.18515E-14
 -1      4265 1.01975E-02 5.00010E-04-5.03374E-14
 -1      4266 1.03868E-02 4.96401E-04-5.27530E-14
 -1      4267 1.31030E-02 7.75568E-04-8.55300E-14
 -1      4268 1.31119E-02 8.08248E-04-8.53672E-14
 -1      4269 3.23239E-03 1.38982E-04-7.52823E-15
 -1      4270 2.65349E-03-1.75898E-05-5.33747E-15
 -1      4271 9.31675E-03 3.84982E-04-4.02655E-14
 -1      4272 9.20022E-03 3.69410E-04-3.89009E-14
 -1      4273 9.14239E-03 3.41215E-04-3.83887E-14
 -1      4274 3.37816E-03 8.82860E-05-8.73696E-15
 -1      4275 3.37775E-03 1.02956E-04-8.63933E-15
 -1      4276 3.28084E-03 7.87867E-05-8.18509E-15
 -1      4277 1.33271E-02 6.92938E-04-8.92669E-14
 -1      4278 1.34113E-02 7.06977E-04-9.02939E-14
 -1      4279 1.34056E-02 7.34471E-04-8.99855E-14
 -1      4280 2.09811E-03-5.29676E-05-3.42146E-15
 -1      4281 2.16024E-03-2.45160E-05-3.60646E-15
 -1      4282 1.99621E-03-5.18161E-05-3.12090E-15
 -1      4283 1.29648E-02 6.49897E-04-8.47423E-14
 -1      4284 1.31073E-02 6.66040E-04-8.65233E-14
 -1      4285 1.32429E-02 6.78918E-04-8.82448E-14
 -1      4286 1.09305E-02 5.64888E-04-5.89882E-14
 -1      4287 2.53981E-03 9.66197E-05-4.72269E-15
 -1      4288 2.40966E-03 9.55951E-05-4.26260E-15
 -1      4289 1.31858E-02 7.07436E-04-8.72323E-14
 -1      4290 9.80605E-03 4.48771E-04-4.58912E-14
 -1      4291 9.67884E-03 4.32207E-04-4.44394E-14
 -1      4292 1.29562E-02 8.25869E-04-8.31083E-14
 -1      4293 1.28709E-02 7.81162E-04-8.23505E-14
 -1      4294 1.30841E-02 8.40528E-04-8.47088E-14
 -1      4295 2.27785E-03 9.44600E-05-3.82498E-15
 -1      4296 2.14460E-03 9.32989E-05-3.41033E-15
 -1      4297 2.33776E-03 6.80847E-05-4.08103E-15
 -1      4298 9.55647E-03 4.16373E-04-4.30362E-14
 -1      4299 9.43451E-03 3.99759E-04-4.16360E-14
 -1      4300 9.37221E-03 3.69478E-04-4.11101E-14
 -1      4301 9.61106E-03 3.98816E-04-4.38877E-14
 -1      4302 2.05156E-03 6.28874E-05-3.18955E-15
 -1      4303 8.94094E-03 2.63989E-04-3.68723E-14
 -1      4304 2.79402E-03 9.91633E-05-5.71136E-15
 -1      4305 2.66801E-03 9.78770E-05-5.20581E-15
 -1      4306 2.59702E-03 7.10888E-05-5.00714E-15
 -1      4307 1.33999E-02 7.61946E-04-8.96758E-14
 -1      4308 1.29078E-02 6.78238E-04-8.37369E-14
 -1      4309 1.32719E-02 7.47611E-04-8.80576E-14
 -1      4310 9.06594E-03 2.79616E-04-3.82896E-14
 -1      4311 9.18964E-03 2.92069E-04-3.97448E-14
 -1      4312 1.12632E-02 5.74554E-04-6.31455E-14
 -1      4313 1.11244E-02 5.57804E-04-6.15288E-14
 -1      4314 3.30877E-03 1.21515E-04-8.08028E-15
 -1      4315 3.19585E-03 1.10355E-04-7.54397E-15
 -1      4316 3.05605E-03 1.94936E-05-7.08324E-15
 -1      4317 3.16074E-03 3.04563E-05-7.60318E-15
 -1      4318 3.18890E-03 5.30415E-05-7.73647E-15
 -1      4319 9.36816E-03 3.28706E-04-4.15637E-14
 -1      4320 9.48995E-03 3.41854E-04-4.29795E-14
 -1      4321 1.09346E-02 5.10337E-04-5.95657E-14
 -1      4322 1.07974E-02 4.94074E-04-5.79804E-14
 -1      4323 1.00655E-02 4.82710E-04-4.88412E-14
 -1      4324 9.93498E-03 4.65567E-04-4.73588E-14
 -1      4325 9.86125E-03 4.30050E-04-4.67617E-14
 -1      4326 1.01212E-02 4.62790E-04-4.97280E-14
 -1      4327 3.05885E-03 1.05268E-04-6.87655E-15
 -1      4328 2.93857E-03 1.03402E-04-6.32313E-15
 -1      4329 2.86844E-03 7.76998E-05-6.10693E-15
 -1      4330 3.14614E-03 8.83839E-05-7.40121E-15
 -1      4331 1.31363E-02 7.34567E-04-8.63343E-14
 -1      4332 9.61116E-03 3.55591E-04-4.43805E-14
 -1      4333 9.73714E-03 3.69751E-04-4.58325E-14
 -1      4334 9.86492E-03 3.84474E-04-4.72992E-14
 -1      4335 9.99435E-03 3.99404E-04-4.87787E-14
 -1      4336 1.01252E-02 4.14741E-04-5.02748E-14
 -1      4337 1.02575E-02 4.30226E-04-5.17857E-14
 -1      4338 1.03909E-02 4.46000E-04-5.33114E-14
 -1      4339 1.05255E-02 4.61872E-04-5.48538E-14
 -1      4340 1.06610E-02 4.77943E-04-5.64099E-14
 -1      4341 1.11275E-02 5.01866E-04-6.21012E-14
 -1      4342 1.12664E-02 5.17801E-04-6.37211E-14
 -1      4343 1.14373E-02 5.43784E-04-6.56627E-14
 -1      4344 1.15773E-02 5.59924E-04-6.73107E-14
 -1      4345 1.17706E-02 6.08737E-04-6.93601E-14
 -1      4346 1.19114E-02 6.25201E-04-7.10438E-14
 -1      4347 1.20526E-02 6.41680E-04-7.27353E-14
 -1      4348 1.21941E-02 6.58149E-04-7.44399E-14
 -1      4349 1.23358E-02 6.74623E-04-7.61591E-14
 -1      4350 1.24776E-02 6.91090E-04-7.78873E-14
 -1      4351 1.85341E-03 3.13454E-05-2.67677E-15
 -1      4352 2.12939E-03 2.16043E-05-3.47864E-15
 -1      4353 1.97502E-03 1.79040E-05-3.02506E-15
 -1      4354 9.02210E-03 2.92229E-04-3.74395E-14
 -1      4355 1.28569E-02 7.39944E-04-8.25217E-14
 -1      4356 1.27442E-02 7.44797E-04-8.09684E-14
 -1      4357 1.26020E-02 7.28235E-04-7.92153E-14
 -1      4358 2.36099E-03 2.26806E-05-4.23175E-15
 -1      4359 2.49128E-03 2.47656E-05-4.69328E-15
 -1      4360 2.22917E-03 2.10123E-05-3.79326E-15
 -1      4361 1.93589E-03-9.77948E-06-2.93561E-15
 -1      4362 3.41403E-03 1.29570E-04-8.62511E-15
 -1      4363 9.08979E-03 3.18397E-04-3.79537E-14
 -1      4364 2.61969E-03 2.70395E-05-5.17681E-15
 -1      4365 2.74609E-03 2.99406E-05-5.68312E-15
 -1      4366 1.15738E-02 6.18221E-04-6.67313E-14
 -1      4367 1.14339E-02 6.01393E-04-6.50835E-14
 -1      4368 1.30169E-02 7.35442E-04-8.47150E-14
 -1      4369 3.04538E-03 6.28262E-05-6.97614E-15
 -1      4370 3.15073E-03 7.19055E-05-7.48937E-15
 -1      4371 1.13503E-02 5.59391E-04-6.44027E-14
 -1      4372 1.10726E-02 5.26646E-04-6.11638E-14
 -1      4373 1.26056E-02 6.66609E-04-7.98012E-14
 -1      4374 1.27478E-02 6.82889E-04-8.15561E-14
 -1      4375 2.89008E-03 3.59578E-05-6.29683E-15
 -1      4376 9.20258E-03 3.31882E-04-3.93054E-14
 -1      4377 1.16300E-02 5.92258E-04-6.76958E-14
 -1      4378 1.28745E-02 7.19061E-04-8.29394E-14
 -1      4379 9.31709E-03 3.44935E-04-4.06629E-14
 -1      4380 2.93500E-03 1.48129E-05-6.51935E-15
 -3
    1PSTEP                         2           1           1          
  100CL  101 1.000000000        4380                     0    1           1
 -4  STRESS      6    1
 -5  SXX         1    4    1    1
 -5  SYY         1    4    2    2
 -5  SZZ         1    4    3    3
 -5  SXY         1    4    1    2
 -5  SYZ         1    4    2    3
 -5  SZX         1    4    3    1
 -1         1 3.84670E+01 9.36417E+00 2.06541E+00 1.84252E+01-1.12585E-12-2.11542E-12
 -1         2-7.62517E-01-2.43904E+01-3.35228E+00 2.15823E-02 1.31807E-12 4.88533E-14
 -1         3 2.00001E+01 3.08438E-04 4.20295E-05 2.96526E-04-4.18466E-13-3.30441E-13
 -1         4 2.00000E+01 2.52517E-04 9.95688E-06-2.47157E-04 2.12008E-13 6.13400E-14
 -1         5 3.24390E+01 6.08473E+00 2.67435E+00 6.14657E+00-3.72480E-14 2.57398E-12
 -1         6 3.53655E+01 1.21143E+01 5.01530E+00-8.52861E+00-1.58706E-13 2.05008E-12
 -1         7 2.08643E+01 6.10804E+00-1.08888E-01-4.60872E+00-2.32175E-14 2.04111E-13
 -1         8 1.97711E+01 5.96158E+00 6.09741E-02-3.11871E+00-2.31135E-14-3.16276E-13
 -1         9 1.92400E+01 5.80063E+00 5.44147E-02-2.34349E+00-1.99910E-14-5.78244E-13
 -1        10 1.89670E+01 5.71205E+00 5.20368E-02-1.76124E+00-1.08542E-14-6.87349E-13
 -1        11 1.87984E+01 5.65741E+00 4.75087E-02-1.27992E+00-6.05592E-15-7.22750E-13
 -1        12 1.86869E+01 5.62155E+00 4.29340E-02-8.71644E-01-9.69710E-16-7.16385E-13
 -1        13 1.86142E+01 5.59846E+00 3.93211E-02-5.00970E-01 8.51316E-16-6.95891E-13
 -1        14 1.85783E+01 5.58711E+00 3.73311E-02-1.56659E-01 7.18013E-15-6.69015E-13
 -1        15 1.85786E+01 5.58719E+00 3.72554E-02 1.78668E-01 9.29671E-15-6.39634E-13
 -1        16 1.86155E+01 5.59880E+00 3.91587E-02 5.22417E-01 1.47655E-14-6.04161E-13
 -1        17 1.86902E+01 5.62232E+00 4.28892E-02 8.92807E-01 1.63454E-14-5.50778E-13
 -1        18 1.88043E+01 5.65895E+00 4.77750E-02 1.30175E+00 2.19842E-14-4.70383E-13
 -1        19 1.89763E+01 5.71462E+00 5.24468E-02 1.78713E+00 3.15147E-14-3.38569E-13
 -1        20 1.92498E+01 5.80435E+00 5.43154E-02 2.37717E+00 3.30794E-14-1.10967E-13
 -1        21 1.97698E+01 5.97646E+00 5.63995E-02 3.14999E+00 3.75533E-14 2.95600E-13
 -1        22 2.12215E+01 6.38035E+00 1.49467E-01 4.40682E+00 7.75768E-15 1.04656E-12
 -1        23 2.29575E+01-1.37964E+00-9.40834E-01-6.80182E-01-1.07948E-13 1.50752E-12
 -1        24 1.94833E+01-9.96409E-02-3.06352E-01 6.64078E-02-3.38531E-14 1.03070E-12
 -1        25 1.89456E+01-5.74616E-02-6.85312E-02 6.17193E-02-2.89113E-15 6.05346E-13
 -1        26 1.89048E+01-2.43554E-02-8.83508E-03 3.43411E-02 5.57432E-15 3.08363E-13
 -1        27 1.91113E+01-1.48941E-02-2.37264E-03 2.49978E-02-2.36326E-14 7.57588E-14
 -1        28 1.94695E+01-9.89081E-03-3.26821E-03 2.02848E-02-1.37250E-14-8.24367E-14
 -1        29 1.99332E+01-6.91833E-03-3.99316E-03 1.82396E-02 1.20616E-14-1.28800E-13
 -1        30 2.04767E+01-4.65259E-03-3.77905E-03 1.78372E-02-2.21000E-14-1.97785E-13
 -1        31 2.10788E+01-2.25184E-03-2.38531E-03 1.84032E-02 1.38950E-14-3.45586E-13
 -1        32 2.17117E+01 9.37496E-04 8.45602E-04 1.91774E-02-4.62209E-14-5.18053E-13
 -1        33 2.23303E+01 5.39211E-03 6.82063E-03 1.89838E-02 4.40875E-14-6.59021E-13
 -1        34 2.28624E+01 1.12248E-02 1.62200E-02 1.59922E-02-3.07699E-14-6.96227E-13
 -1        35 2.32035E+01 1.78063E-02 2.86053E-02 7.75198E-03-6.47713E-15-8.52693E-13
 -1        36 2.32239E+01 2.33284E-02 4.11131E-02-8.08515E-03 1.51823E-14-7.12658E-13
 -1        37 2.28001E+01 2.47126E-02 4.74716E-02-3.18662E-02-3.26343E-14-5.41988E-13
 -1        38 2.18789E+01 1.85659E-02 3.92369E-02-5.90838E-02-5.04142E-14-5.66429E-13
 -1        39 2.05590E+01 3.53714E-03 1.09330E-02-7.86839E-02 7.19525E-15-7.47149E-13
 -1        40 1.91404E+01-1.70202E-02-3.22974E-02-7.64694E-02-3.34499E-14-7.37764E-13
 -1        41 1.80666E+01-3.47737E-02-7.17395E-02-4.51127E-02 4.23505E-14-7.87563E-13
 -1        42 1.77372E+01-4.07668E-02-8.52840E-02 6.20480E-03 4.49640E-15-8.13263E-13
 -1        43 1.82883E+01-3.17007E-02-6.46800E-02 5.47261E-02-4.85087E-14-7.87226E-13
 -1        44 1.95124E+01-1.25965E-02-2.24676E-02 7.97338E-02 1.76491E-14-7.21936E-13
 -1        45 2.09819E+01 7.12694E-03 1.83882E-02 7.60724E-02 5.70637E-15-5.15803E-13
 -1        46 2.22758E+01 2.00722E-02 4.18317E-02 5.37509E-02-2.57325E-14-6.95000E-13
 -1        47 2.31427E+01 2.41329E-02 4.58062E-02 2.69794E-02-2.17001E-14-7.28910E-13
 -1        48 2.35279E+01 2.13969E-02 3.71164E-02 5.35415E-03 6.35421E-14-7.61568E-13
 -1        49 2.35099E+01 1.53642E-02 2.40015E-02-7.95373E-03 4.08521E-14-6.37494E-13
 -1        50 2.32197E+01 8.88570E-03 1.19644E-02-1.39348E-02-5.43727E-14-6.05794E-13
 -1        51 2.27840E+01 3.51631E-03 3.21733E-03-1.50266E-02-1.59408E-14-6.29117E-13
 -1        52 2.22997E+01-2.50386E-04-2.12201E-03-1.35025E-02 6.03007E-14-4.95373E-13
 -1        53 2.18300E+01-2.52436E-03-4.81424E-03-1.09398E-02 6.09323E-14-3.92695E-13
 -1        54 2.14096E+01-3.64879E-03-5.75762E-03-8.24500E-03 3.03453E-14-2.61676E-13
 -1        55 2.10533E+01-3.99130E-03-5.68362E-03-5.85208E-03-4.47391E-14-4.38200E-13
 -1        56 2.07634E+01-3.85641E-03-5.09581E-03-3.91379E-03 1.27459E-14-5.09245E-13
 -1        57 2.05354E+01-3.46544E-03-4.30588E-03-2.43719E-03-2.91190E-15-2.49083E-13
 -1        58 2.03611E+01-2.96552E-03-3.49035E-03-1.36521E-03-1.16576E-14-3.06800E-13
 -1        59 2.02317E+01-2.44723E-03-2.73959E-03-6.20690E-04-8.82082E-14-4.21308E-13
 -1        60 2.01383E+01-1.96160E-03-2.09258E-03-1.27494E-04 5.18943E-15-2.64272E-13
 -1        61 2.00732E+01-1.53367E-03-1.55926E-03 1.80718E-04 1.19489E-13-4.72725E-15
 -1        62 2.00296E+01-1.17222E-03-1.13424E-03 3.57980E-04-6.23896E-14-9.35402E-14
 -1        63 2.00022E+01-8.76431E-04-8.04820E-04 4.46368E-04-1.11759E-13-4.59853E-13
 -1        64 1.99864E+01-6.40188E-04-5.55669E-04 4.77584E-04-3.12520E-14-7.49896E-13
 -1        65 1.99791E+01-4.54777E-04-3.71144E-04 4.74866E-04-9.55073E-14-5.53272E-13
 -1        66 1.99775E+01-3.10369E-04-2.36103E-04 4.54697E-04-1.23134E-14-5.42100E-13
 -1        67 1.99797E+01-1.96701E-04-1.35225E-04 4.28043E-04 7.93503E-14 2.71732E-14
 -1        68 1.99842E+01-1.03039E-04-4.99856E-05 4.00703E-04 9.82542E-16 4.45790E-13
 -1        69 1.99898E+01-1.93509E-05 4.52073E-05 3.68991E-04-4.23058E-14 4.14731E-13
 -1        70 1.99953E+01 4.66668E-05 1.62581E-04 2.93382E-04 1.05583E-13 3.46689E-13
 -1        71 1.99992E+01-1.19845E-05 2.24447E-04 1.35802E-04-8.98433E-14 2.38197E-13
 -1        72 2.09860E+01-4.02592E-01-9.79820E-01-3.16664E-01 3.44794E-14 2.41922E-12
 -1        73 1.94471E+01-6.63035E-02-2.87917E-01-5.47820E-02 1.07384E-14 1.98701E-12
 -1        74 1.89564E+01-2.20884E-02-6.44726E-02-1.96275E-02 1.79152E-14 1.60547E-12
 -1        75 1.89241E+01-1.23542E-02-1.23110E-02-1.40172E-02 2.16689E-15 1.35701E-12
 -1        76 1.91483E+01-8.46886E-03-4.46857E-03-1.08864E-02 2.41554E-14 1.18123E-12
 -1        77 1.95390E+01-6.68539E-03-5.34759E-03-9.14366E-03-1.64820E-14 9.97168E-13
 -1        78 2.00607E+01-5.82365E-03-7.12246E-03-8.65818E-03 7.27559E-15 9.67029E-13
 -1        79 2.07022E+01-5.19493E-03-8.67130E-03-9.51969E-03 9.21247E-15 8.96928E-13
 -1        80 2.14626E+01-4.17557E-03-9.57261E-03-1.20778E-02-1.01592E-14 8.43196E-13
 -1        81 2.23383E+01-2.03660E-03-8.75884E-03-1.67977E-02 4.38347E-14 7.77585E-13
 -1        82 2.33088E+01 2.07219E-03-4.17222E-03-2.39260E-02-2.69187E-15 7.19947E-13
 -1        83 2.43146E+01 8.87185E-03 7.23846E-03-3.27498E-02 9.24906E-16 7.47189E-13
 -1        84 2.52293E+01 1.82155E-02 2.85601E-02-4.02213E-02 1.45771E-15 8.18325E-13
 -1        85 2.58344E+01 2.77312E-02 5.96926E-02-3.91933E-02 2.46237E-14 7.65813E-13
 -1        86 2.58261E+01 3.15761E-02 9.10708E-02-1.82527E-02-5.14671E-15 6.30995E-13
 -1        87 2.49072E+01 2.21145E-02 9.90870E-02 3.19201E-02-2.98429E-14 6.84387E-13
 -1        88 2.30053E+01-3.22151E-03 5.50054E-02 1.03173E-01 9.74698E-16 9.37084E-13
 -1        89 2.05417E+01-3.37178E-02-4.46913E-02 1.57108E-01 1.09045E-13 4.90392E-13
 -1        90 1.84764E+01-4.92325E-02-1.49772E-01 1.41548E-01-1.22265E-13 3.56746E-13
 -1        91 1.78481E+01-3.98488E-02-1.83387E-01 4.51241E-02 7.68005E-15 7.30612E-13
 -1        92 1.90121E+01-1.37000E-02-1.20051E-01-7.26580E-02 6.54641E-16 6.50736E-13
 -1        93 2.13542E+01 1.18919E-02-7.65960E-03-1.39969E-01-1.60170E-14 4.37879E-13
 -1        94 2.37812E+01 2.60487E-02 7.65055E-02-1.33894E-01-1.40064E-14 4.16549E-13
 -1        95 2.54648E+01 2.74957E-02 1.00732E-01-8.61210E-02 8.24670E-14 3.52184E-14
 -1        96 2.61535E+01 2.10279E-02 8.13316E-02-3.49919E-02-1.31709E-15-1.52098E-13
 -1        97 2.60196E+01 1.22524E-02 4.77612E-02 3.13550E-04-4.75199E-14 1.65371E-13
 -1        98 2.53822E+01 4.68700E-03 1.88828E-02 1.81394E-02 3.90873E-14 3.70672E-13
 -1        99 2.45263E+01-4.32727E-04 5.16994E-04 2.38199E-02 1.05056E-14 2.91590E-13
 -1       100 2.36430E+01-3.27102E-03-8.64745E-03 2.29878E-02-3.94209E-14 4.97465E-13
 -1       101 2.28360E+01-4.46676E-03-1.18373E-02 1.94828E-02 2.93811E-14 2.47406E-13
 -1       102 2.21486E+01-4.65936E-03-1.18458E-02 1.53809E-02-6.95694E-14-1.25426E-13
 -1       103 2.15891E+01-4.32117E-03-1.04633E-02 1.16109E-02 5.28489E-15 1.51162E-13
 -1       104 2.11481E+01-3.75246E-03-8.65976E-03 8.48722E-03 7.18592E-14-6.06923E-14
 -1       105 2.08090E+01-3.12478E-03-6.89295E-03 6.03965E-03 6.96185E-14-3.47454E-13
 -1       106 2.05538E+01-2.52659E-03-5.34482E-03 4.18682E-03-1.27067E-13-3.78627E-13
 -1       107 2.03656E+01-1.99739E-03-4.06304E-03 2.81769E-03-5.44117E-14-4.33733E-13
 -1       108 2.02298E+01-1.54973E-03-3.03659E-03 1.82567E-03 1.56765E-13-7.96425E-13
 -1       109 2.01341E+01-1.18237E-03-2.23286E-03 1.12027E-03 1.25452E-14-1.30483E-12
 -1       110 2.00687E+01-8.87682E-04-1.61447E-03 6.28696E-04 1.60726E-15-1.14755E-12
 -1       111 2.00257E+01-6.55550E-04-1.14611E-03 2.93921E-04 8.18022E-14-6.25587E-13
 -1       112 1.99990E+01-4.75428E-04-7.96737E-04 7.19502E-05-5.29366E-14-6.76500E-13
 -1       113 1.99842E+01-3.37282E-04-5.40087E-04-7.08270E-05 1.30779E-13-8.50451E-13
 -1       114 1.99775E+01-2.31935E-04-3.54260E-04-1.59963E-04-1.63386E-13-4.16138E-13
 -1       115 1.99765E+01-1.50974E-04-2.20685E-04-2.15027E-04-2.45244E-14-3.56809E-13
 -1       116 1.99791E+01-8.64090E-05-1.21759E-04-2.51266E-04 1.09169E-13-4.59721E-13
 -1       117 1.99840E+01-3.04850E-05-3.69018E-05-2.80091E-04 1.84923E-14-8.11440E-13
 -1       118 1.99898E+01 2.27545E-05 6.03675E-05-3.07177E-04-1.33841E-14-8.94758E-13
 -1       119 1.99955E+01 7.95242E-05 1.91699E-04-3.19141E-04-7.20021E-14-8.88575E-13
 -1       120 1.99992E+01-3.87825E-05 1.89032E-04-1.96628E-04 1.34290E-13-6.63119E-13
 -1       121 1.99998E+01-7.88777E-04 1.54417E-04-1.78579E-04-6.43042E-13 1.31718E-14
 -1       122 1.99999E+01-4.42665E-03 1.09105E-04-2.79510E-04-3.27782E-13-4.46038E-14
 -1       123 1.99998E+01-9.27081E-03-3.60563E-05-2.64148E-04 1.02954E-12 4.68028E-13
 -1       124 1.99998E+01-1.37475E-02-1.04803E-04-1.96939E-04 5.13492E-13 1.27649E-13
 -1       125 1.99997E+01-1.72063E-02-1.13805E-04-1.26021E-04 7.79690E-13-3.53662E-14
 -1       126 1.99997E+01-1.95082E-02-9.78297E-05-7.20419E-05 3.08611E-13 2.99232E-14
 -1       127 1.99998E+01-2.08594E-02-7.42617E-05-3.29737E-05 6.98021E-13 2.02910E-13
 -1       128 1.99998E+01-2.14258E-02-5.87581E-05-7.26556E-06 5.42861E-13-2.55993E-13
 -1       129 1.99998E+01-2.13542E-02-5.75492E-05 1.31578E-05 5.27564E-13 2.61856E-13
 -1       130 1.99998E+01-2.06575E-02-7.08871E-05 3.76322E-05 2.00379E-13-2.38496E-13
 -1       131 1.99998E+01-1.92130E-02-9.22319E-05 7.59737E-05-6.90411E-13 3.04267E-14
 -1       132 1.99997E+01-1.68729E-02-1.09270E-04 1.26375E-04-8.70661E-13 4.20666E-14
 -1       133 1.99998E+01-1.34278E-02-1.00044E-04 1.94491E-04-9.60781E-13 2.59070E-13
 -1       134 1.99998E+01-9.01574E-03-2.94815E-05 2.69938E-04-7.66435E-13-1.72752E-13
 -1       135 1.99999E+01-4.37227E-03 8.60790E-05 3.81654E-04-6.97284E-13 1.32927E-13
 -1       136 1.99999E+01-8.81162E-04 1.40927E-04 1.78522E-04-3.58710E-13 3.09585E-14
 -1       137-1.47306E+00-2.01244E+01-3.12038E+00-3.88319E+00 1.48981E-12 5.78877E-14
 -1       138-1.61981E+00-9.13204E+00-2.37027E+00-3.18607E+00 1.75499E-12 9.41913E-13
 -1       139 2.43961E+00 2.58230E+00-1.22547E+00 2.82296E+00 2.30932E-12 1.46488E-12
 -1       140 1.36312E+01 9.78450E+00 1.33003E-01 1.15396E+01 1.90881E-12 2.18292E-12
 -1       141 3.18404E+01 1.04123E+01 1.58827E+00 1.77928E+01 1.27365E-12 2.05658E-12
 -1       142 5.09913E+01 6.22101E+00 2.80336E+00 1.67598E+01 4.38552E-13 1.27159E-12
 -1       143 6.51224E+01 1.68540E+00 3.61276E+00 7.19393E+00 7.37240E-14 1.93512E-13
 -1       144 6.57948E+01 1.42081E+00 3.64407E+00-6.16425E+00 2.07084E-13-1.24650E-12
 -1       145 5.34448E+01 5.63226E+00 2.95065E+00-1.61644E+01 6.67785E-13-2.09049E-12
 -1       146 3.32051E+01 1.02234E+01 1.69344E+00-1.79304E+01 1.54726E-12-2.66126E-12
 -1       147 1.46495E+01 1.01047E+01 2.38031E-01-1.20817E+01 2.25953E-12-2.47274E-12
 -1       148 1.72550E+00 1.71319E+00-1.33878E+00-2.11797E+00 2.63151E-12-1.89598E-12
 -1       149-1.91043E+00-1.12966E+01-2.54920E+00 3.92004E+00 1.95621E-12-8.45185E-13
 -1       150-1.23989E+00-2.15485E+01-3.22056E+00 3.50904E+00 3.58907E-13-1.53703E-13
 -1       151-7.21770E-01-2.45281E+01-3.37836E+00-7.35565E-01-1.21828E-12-9.93025E-14
 -1       152-1.49484E+00-1.84283E+01-2.98298E+00-4.07028E+00-2.22927E-12-5.33469E-13
 -1       153-1.25910E+00-6.77315E+00-2.12428E+00-2.46427E+00-2.34635E-12-1.11541E-12
 -1       154 3.96135E+00 4.39332E+00-8.98111E-01 4.46965E+00-2.29183E-12-1.79401E-12
 -1       155 1.96794E+01 1.09835E+01 7.43311E-01 1.44960E+01-1.88144E-12-2.31098E-12
 -1       156 5.58966E+01 4.43777E+00 3.03320E+00 1.43376E+01-3.38229E-13-7.12652E-13
 -1       157 6.52131E+01 1.09792E+00 3.48972E+00 3.43381E+00 1.06370E-13 4.87999E-13
 -1       158 6.24615E+01 2.06357E+00 3.34447E+00-8.75736E+00-2.83327E-13 1.69328E-12
 -1       159 4.93043E+01 6.52351E+00 2.65322E+00-1.69103E+01-8.10657E-13 2.41762E-12
 -1       160 3.07296E+01 1.05335E+01 1.54255E+00-1.75062E+01-1.67255E-12 2.63656E-12
 -1       161 1.37710E+01 1.00415E+01 2.32014E-01-1.16744E+01-2.19991E-12 2.36433E-12
 -1       162 2.65582E+00 2.84703E+00-1.11771E+00-3.11828E+00-2.45703E-12 1.75610E-12
 -1       163-1.50546E+00-8.87077E+00-2.26541E+00 2.99366E+00-1.68987E-12 9.38749E-13
 -1       164-1.34832E+00-1.96860E+01-3.04340E+00 3.57566E+00 1.67782E-13 8.32216E-14
 -1       165 2.11221E+01 3.66583E+00-5.50893E-02-3.44519E+00-3.24914E-13-4.57967E-14
 -1       166 2.01174E+01 4.20664E+00-4.41684E-02-2.62200E+00-2.72811E-13-3.59622E-13
 -1       167 1.96005E+01 4.50299E+00-3.07390E-02-1.99761E+00-2.04103E-13-5.25486E-13
 -1       168 1.93034E+01 4.66254E+00-2.29227E-02-1.48497E+00-1.32512E-13-5.88757E-13
 -1       169 1.91077E+01 4.76437E+00-1.84720E-02-1.05498E+00-6.77414E-14-5.99360E-13
 -1       170 1.89754E+01 4.83015E+00-1.61234E-02-6.70799E-01-8.55522E-15-5.88851E-13
 -1       171 1.88979E+01 4.86798E+00-1.49376E-02-3.21001E-01 5.09646E-14-5.57696E-13
 -1       172 1.88721E+01 4.88091E+00-1.45746E-02 1.14732E-02 1.06259E-13-5.40235E-13
 -1       173 1.88980E+01 4.86943E+00-1.49479E-02 3.43418E-01 1.52538E-13-5.17543E-13
 -1       174 1.89769E+01 4.83188E+00-1.61413E-02 6.91955E-01 1.97803E-13-4.82504E-13
 -1       175 1.91099E+01 4.76550E+00-1.85140E-02 1.06840E+00 2.42550E-13-4.14418E-13
 -1       176 1.93133E+01 4.65852E+00-2.29970E-02 1.50594E+00 3.00570E-13-3.04596E-13
 -1       177 1.96209E+01 4.48801E+00-3.17670E-02 2.02471E+00 3.49836E-13-1.48263E-13
 -1       178 2.01436E+01 4.18455E+00-4.54924E-02 2.65509E+00 3.70315E-13 1.19519E-13
 -1       179 2.12406E+01 3.43932E+00-5.75401E-02 3.37230E+00 3.29660E-13 5.88793E-13
 -1       180 2.24579E+01 1.12422E+00-3.32188E-01 2.89389E+00 2.29562E-13 1.17339E-12
 -1       181 2.20686E+01 8.45882E-01 9.83412E-04-1.83700E+00-2.95153E-13 3.71321E-13
 -1       182 2.06538E+01 1.90450E-01-9.15495E-03-6.43876E-01-2.47725E-13 2.34433E-13
 -1       183 2.00058E+01 1.09201E-01 1.41849E-02-1.53461E-01-1.76478E-13 9.50195E-14
 -1       184 1.98167E+01 5.98432E-02 1.06275E-02 9.11481E-02-1.47723E-13-4.27219E-15
 -1       185 1.98700E+01 3.91160E-02 5.86992E-03 2.36367E-01-7.73544E-14-3.60790E-14
 -1       186 2.00792E+01 2.86262E-02 3.14296E-03 3.34801E-01-4.42591E-14-5.08079E-14
 -1       187 2.03941E+01 2.17498E-02 1.70894E-03 4.06554E-01-7.36042E-14-1.41734E-13
 -1       188 2.07824E+01 1.46748E-02 7.38317E-04 4.57492E-01-7.65518E-14-1.55377E-13
 -1       189 2.12165E+01 4.21370E-03-1.78829E-04 4.84076E-01-9.02616E-14-1.84366E-13
 -1       190 2.16650E+01-1.27357E-02-1.19079E-03 4.74697E-01-8.98314E-14-1.82832E-13
 -1       191 2.20862E+01-3.87196E-02-2.26298E-03 4.10794E-01-9.46609E-14-3.20506E-13
 -1       192 2.24239E+01-7.40860E-02-3.18655E-03 2.70425E-01-1.91785E-14-3.45048E-13
 -1       193 2.26089E+01-1.13957E-01-3.59863E-03 3.73270E-02 4.79699E-14-2.75568E-13
 -1       194 2.25688E+01-1.44668E-01-3.11765E-03-2.82291E-01 8.57738E-14-2.92853E-13
 -1       195 2.22534E+01-1.43241E-01-1.65077E-03-6.38006E-01-2.72404E-14-2.00450E-13
 -1       196 2.16719E+01-8.60368E-02 3.88368E-04-9.22759E-01-1.06906E-13-1.91038E-13
 -1       197 2.09318E+01 3.04335E-02 2.10668E-03-9.95443E-01-7.84234E-14-2.49384E-13
 -1       198 2.02423E+01 1.68877E-01 2.72932E-03-7.54553E-01-4.51332E-14-3.03928E-13
 -1       199 1.98507E+01 2.59060E-01 2.65975E-03-2.30468E-01-1.14987E-13-4.41715E-13
 -1       200 1.99182E+01 2.46892E-01 2.64181E-03 3.90383E-01-3.10663E-14-5.60176E-13
 -1       201 2.04234E+01 1.40291E-01 2.67603E-03 8.64035E-01-5.05498E-15-5.87840E-13
 -1       202 2.11763E+01 2.01027E-03 1.81966E-03 1.03480E+00 8.69998E-14-5.63294E-13
 -1       203 2.19302E+01-1.01776E-01-1.71373E-05 9.08343E-01 3.03100E-14-3.78083E-13
 -1       204 2.24979E+01-1.43965E-01-1.92463E-03 6.04019E-01-2.91399E-14-2.77201E-13
 -1       205 2.27986E+01-1.35074E-01-3.14449E-03 2.59587E-01-2.87474E-14-3.74652E-13
 -1       206 2.28412E+01-9.99978E-02-3.38944E-03-3.09597E-02 1.33428E-13-3.66845E-13
 -1       207 2.26845E+01-5.99414E-02-2.83988E-03-2.29529E-01-4.95877E-14-4.15075E-13
 -1       208 2.24013E+01-2.64519E-02-1.91191E-03-3.37613E-01-3.06723E-14-3.74996E-13
 -1       209 2.20568E+01-3.09835E-03-9.55610E-04-3.75159E-01 9.07150E-14-2.00899E-13
 -1       210 2.16999E+01 1.08773E-02-1.73863E-04-3.65834E-01-9.65577E-15-2.60414E-13
 -1       211 2.13625E+01 1.77831E-02 3.65205E-04-3.29856E-01 2.44766E-14-3.95505E-13
 -1       212 2.10625E+01 2.00041E-02 6.76597E-04-2.81881E-01-7.19200E-14-3.29459E-13
 -1       213 2.08072E+01 1.94441E-02 8.11309E-04-2.31372E-01 4.63882E-14-2.32928E-13
 -1       214 2.05976E+01 1.74371E-02 8.26029E-04-1.83797E-01 1.97709E-13-6.72198E-14
 -1       215 2.04305E+01 1.48380E-02 7.68873E-04-1.41876E-01-3.57457E-14-2.31440E-13
 -1       216 2.03008E+01 1.21537E-02 6.75265E-04-1.06588E-01-3.27663E-14-2.56024E-13
 -1       217 2.02026E+01 9.65872E-03 5.68795E-04-7.78879E-02-2.53327E-14-2.42480E-13
 -1       218 2.01302E+01 7.48112E-03 4.63801E-04-5.51929E-02 1.68461E-13-3.74023E-14
 -1       219 2.00783E+01 5.66091E-03 3.68082E-04-3.76789E-02-8.77746E-14-5.99496E-14
 -1       220 2.00424E+01 4.18824E-03 2.85118E-04-2.44652E-02-2.01989E-13-1.32273E-13
 -1       221 2.00186E+01 3.02755E-03 2.15680E-04-1.47156E-02-1.13168E-13-1.70878E-13
 -1       222 2.00039E+01 2.13187E-03 1.58922E-04-7.69125E-03 1.59985E-13-1.54925E-13
 -1       223 1.99957E+01 1.45060E-03 1.13080E-04-2.77291E-03-4.36290E-14 1.29673E-13
 -1       224 1.99921E+01 9.32675E-04 7.60060E-05 5.31187E-04 2.99752E-13 3.04656E-13
 -1       225 1.99916E+01 5.26524E-04 4.57861E-05 2.58352E-03 2.82282E-13 2.93980E-13
 -1       226 1.99930E+01 1.72817E-04 2.25940E-05 3.61261E-03 8.52710E-14 6.53428E-14
 -1       227 1.99953E+01-2.10716E-04 9.07787E-06 3.69345E-03 1.66349E-13 2.00899E-13
 -1       228 1.99977E+01-7.08010E-04 1.08697E-05 2.78389E-03-1.18079E-13 2.44413E-13
 -1       229 2.11011E+01 2.73793E-01-4.96087E-02 1.05922E+00 2.30180E-13 1.00302E-12
 -1       230 2.01340E+01 1.30010E-01 9.05568E-03 3.35186E-01 2.05907E-13 8.02398E-13
 -1       231 1.97780E+01 6.64294E-02 1.31737E-02 2.26186E-02 1.36579E-13 6.27367E-13
 -1       232 1.97545E+01 4.07744E-02 8.07323E-03-1.50675E-01 1.23115E-13 4.97298E-13
 -1       233 1.99412E+01 3.06505E-02 4.32012E-03-2.67464E-01 5.32840E-14 4.76993E-13
 -1       234 2.02776E+01 2.71157E-02 2.38447E-03-3.60700E-01 4.09959E-14 4.18174E-13
 -1       235 2.07344E+01 2.64343E-02 1.32356E-03-4.45144E-01 3.49001E-14 3.56994E-13
 -1       236 2.12957E+01 2.60137E-02 5.07392E-04-5.25721E-01 3.01770E-14 3.32565E-13
 -1       237 2.19480E+01 2.28624E-02-3.30440E-04-5.98729E-01 2.81223E-14 2.94368E-13
 -1       238 2.26685E+01 1.27206E-02-1.18362E-03-6.49670E-01-3.47527E-16 4.09936E-13
 -1       239 2.34124E+01-1.02371E-02-1.73760E-03-6.49597E-01 2.43536E-14 4.38277E-13
 -1       240 2.40994E+01-5.21603E-02-1.30735E-03-5.53029E-01 3.47274E-14 3.33602E-13
 -1       241 2.46035E+01-1.14736E-01 9.19906E-04-3.04581E-01 8.53389E-14 2.87608E-13
 -1       242 2.47607E+01-1.84385E-01 5.03396E-03 1.33424E-01-3.86592E-14 3.43064E-13
 -1       243 2.44140E+01-2.19798E-01 8.43461E-03 7.20825E-01-1.69656E-14 3.49825E-13
 -1       244 2.35166E+01-1.58407E-01 5.86530E-03 1.26898E+00-6.61142E-14 2.52848E-13
 -1       245 2.22656E+01 3.16055E-02-5.77185E-03 1.45053E+00 2.41889E-13 3.95468E-13
 -1       246 2.11505E+01 2.75116E-01-1.94113E-02 9.95681E-01-4.01354E-14 2.55480E-13
 -1       247 2.07470E+01 3.94635E-01-2.39082E-02 6.26831E-03-9.93303E-14 2.07344E-13
 -1       248 2.12986E+01 2.91694E-01-1.51553E-02-9.91134E-01 1.10302E-14 2.99340E-13
 -1       249 2.25072E+01 5.48397E-02 9.71403E-04-1.47259E+00 5.18999E-14 3.60292E-13
 -1       250 2.37817E+01-1.41380E-01 1.01906E-02-1.31360E+00 1.77343E-13 1.50749E-13
 -1       251 2.46593E+01-2.12147E-01 8.94723E-03-7.78211E-01 2.15686E-13-1.69087E-13
 -1       252 2.49833E+01-1.83834E-01 3.16851E-03-1.96351E-01-4.23099E-14-9.21387E-14
 -1       253 2.48280E+01-1.17265E-01-1.36260E-03 2.38988E-01-1.67393E-13 6.67530E-14
 -1       254 2.43583E+01-5.45974E-02-3.07337E-03 4.84216E-01-6.77388E-14 1.47671E-13
 -1       255 2.37351E+01-1.10712E-02-2.80303E-03 5.75197E-01 2.93720E-14 3.23799E-13
 -1       256 2.30774E+01 1.34560E-02-1.76572E-03 5.67596E-01-1.03829E-13 2.26415E-13
 -1       257 2.24580E+01 2.43871E-02-7.17461E-04 5.08556E-01 1.19419E-13 1.66808E-13
 -1       258 2.19135E+01 2.71739E-02 4.20773E-05 4.29573E-01 8.87772E-14 2.66895E-14
 -1       259 2.14563E+01 2.57343E-02 4.84818E-04 3.48705E-01-7.21396E-15-1.63856E-13
 -1       260 2.10850E+01 2.24665E-02 6.85023E-04 2.74903E-01 1.25340E-13-2.37910E-13
 -1       261 2.07913E+01 1.86887E-02 7.30330E-04 2.11692E-01 1.56650E-13-4.20671E-14
 -1       262 2.05640E+01 1.50550E-02 6.89649E-04 1.59680E-01-1.07083E-13-5.29000E-14
 -1       263 2.03916E+01 1.18455E-02 6.08650E-04 1.18065E-01 1.82865E-13-1.17503E-13
 -1       264 2.02632E+01 9.14455E-03 5.14510E-04 8.54771E-02 2.40546E-13-5.35419E-13
 -1       265 2.01697E+01 6.94163E-03 4.21950E-04 6.04150E-02 4.46438E-14-4.72997E-13
 -1       266 2.01032E+01 5.18549E-03 3.38048E-04 4.14554E-02-1.17431E-13-4.87940E-13
 -1       267 2.00572E+01 3.81123E-03 2.65512E-04 2.73411E-02-1.97662E-13-2.06200E-13
 -1       268 2.00265E+01 2.75301E-03 2.04690E-04 1.70068E-02-5.62248E-15-9.42687E-15
 -1       269 2.00072E+01 1.94977E-03 1.54701E-04 9.57709E-03 6.92796E-14 5.44936E-14
 -1       270 1.99961E+01 1.34730E-03 1.14042E-04 4.35061E-03-3.00013E-13 1.69489E-13
 -1       271 1.99908E+01 8.98177E-04 8.09705E-05 7.80954E-04 2.65925E-13 2.53895E-14
 -1       272 1.99895E+01 5.59556E-04 5.41043E-05-1.54038E-03 9.83853E-14-3.51638E-13
 -1       273 1.99906E+01 2.88519E-04 3.37526E-05-2.89228E-03 1.23088E-13-2.76612E-13
 -1       274 1.99932E+01 4.03663E-05 2.42152E-05-3.41997E-03 3.73560E-14-2.10187E-13
 -1       275 1.99960E+01-2.60278E-04 2.76416E-05-3.12418E-03 4.17732E-15-8.61597E-14
 -1       276 1.99985E+01-6.77722E-04 3.82795E-05-1.89743E-03-6.89157E-15-1.24075E-13
 -1       277 1.99992E+01-2.33624E-03 4.11607E-06-2.75399E-03 4.52754E-14 1.25666E-13
 -1       278 1.99997E+01-4.69809E-03-2.15133E-06-3.40551E-03-3.95650E-14 5.84783E-13
 -1       279 2.00000E+01-7.05993E-03-1.90641E-06-3.14696E-03 1.02277E-13-1.85392E-13
 -1       280 2.00001E+01-9.05162E-03 3.28255E-06-2.44520E-03 2.53948E-13 2.66096E-13
 -1       281 2.00001E+01-1.04715E-02 6.91585E-06-1.65794E-03 1.96823E-13-2.38452E-13
 -1       282 2.00001E+01-1.13738E-02 8.66293E-06-9.52301E-04 1.00159E-13-1.75829E-15
 -1       283 2.00000E+01-1.18245E-02 9.04085E-06-3.96176E-04 1.46336E-13 2.70974E-13
 -1       284 2.00000E+01-1.19294E-02 8.98434E-06 5.37571E-05 3.31954E-13-2.33944E-13
 -1       285 2.00000E+01-1.17360E-02 8.87354E-06 4.94210E-04-1.32804E-13-2.18742E-13
 -1       286 2.00001E+01-1.12122E-02 8.27146E-06 1.02396E-03-1.59175E-13-4.07584E-13
 -1       287 2.00001E+01-1.02850E-02 6.17674E-06 1.67902E-03-2.14948E-13-3.32275E-14
 -1       288 2.00001E+01-8.83275E-03 2.55724E-06 2.43334E-03 8.54262E-14 6.13010E-14
 -1       289 2.00000E+01-6.87185E-03-4.13651E-06 3.10414E-03-1.14131E-13 7.19997E-14
 -1       290 1.99997E+01-4.50404E-03-1.56813E-06 3.25387E-03-1.69495E-13-1.03721E-13
 -1       291 1.99991E+01-2.39118E-03-9.74741E-06 3.57966E-03-2.26362E-13-2.81384E-14
 -1       292-8.12185E-01-1.02714E+01-8.78048E-01 1.01806E+00 3.54758E-13 7.41213E-14
 -1       293 2.84067E+00-8.25953E+00-7.05136E-01 3.61877E+00 4.86083E-13 4.06064E-13
 -1       294 8.81509E+00-5.32545E+00-5.53194E-01 5.19375E+00 6.72684E-13 6.93973E-13
 -1       295 1.80078E+01-1.89137E+00-1.68190E-01 6.83178E+00 7.09849E-13 7.42462E-13
 -1       296 2.77922E+01 1.86083E+00 2.56605E-01 7.47081E+00 8.14959E-13 6.54865E-13
 -1       297 3.74236E+01 4.38940E+00 6.63097E-01 6.48172E+00 8.52630E-13 5.69322E-13
 -1       298 4.40983E+01 6.12054E+00 9.06781E-01 3.47295E+00 6.89157E-13 3.28931E-13
 -1       299 4.67410E+01 6.90126E+00 1.01942E+00 8.71351E-02 6.39377E-13-3.00660E-13
 -1       300 4.52857E+01 6.18255E+00 1.00609E+00-3.53154E+00 6.09818E-13-6.65440E-13
 -1       301 3.78236E+01 4.25550E+00 5.84528E-01-5.19227E+00 7.77040E-13-7.12513E-13
 -1       302 2.84509E+01 2.05852E+00 2.83547E-01-7.52971E+00 7.98056E-13-9.25537E-13
 -1       303 1.82716E+01-2.20299E+00-1.53526E-01-6.85561E+00 7.81514E-13-6.96249E-13
 -1       304 7.73344E+00-5.85679E+00-6.09824E-01-4.97719E+00 7.26419E-13-9.49525E-13
 -1       305 1.62607E+00-9.37738E+00-8.93653E-01-2.72007E+00 3.28071E-13-8.99461E-13
 -1       306-1.08770E+00-1.06629E+01-9.39084E-01-6.38214E-01-1.60622E-13-7.91478E-13
 -1       307-5.19240E-01-1.06903E+01-9.76514E-01 1.54701E+00-6.24598E-13-5.99243E-13
 -1       308 3.27924E+00-8.19929E+00-7.96338E-01 3.65994E+00-8.66557E-13-4.62110E-13
 -1       309 1.00320E+01-4.42449E+00-4.49189E-01 5.82336E+00-8.77021E-13-7.77781E-13
 -1       310 2.18057E+01-1.99276E+00-1.48406E-02 6.78936E+00-5.85337E-13-5.81257E-13
 -1       311 3.09087E+01 3.18661E+00 3.99547E-01 7.50020E+00-8.21926E-13-7.56228E-13
 -1       312 3.96452E+01 5.35415E+00 7.80183E-01 6.04071E+00-9.07576E-13-2.48968E-13
 -1       313 4.45547E+01 6.54609E+00 9.01962E-01 2.71961E+00-6.75168E-13 1.71946E-14
 -1       314 4.48944E+01 7.01085E+00 8.50960E-01-6.85846E-01-6.66467E-13 4.36373E-13
 -1       315 4.32971E+01 6.00500E+00 8.87772E-01-4.35097E+00-6.45067E-13 8.25395E-13
 -1       316 3.59329E+01 4.20254E+00 5.14119E-01-5.80971E+00-7.54662E-13 8.85597E-13
 -1       317 2.73240E+01 1.77559E+00 2.36697E-01-7.35665E+00-7.99416E-13 9.88931E-13
 -1       318 1.78069E+01-1.54193E+00-1.29763E-01-7.04456E+00-7.23061E-13 8.96255E-13
 -1       319 9.50197E+00-5.19715E+00-4.21389E-01-5.84673E+00-4.14835E-13 8.55011E-13
 -1       320 2.70226E+00-8.27428E+00-7.24609E-01-3.61236E+00 3.68039E-14 1.14923E-12
 -1       321-6.65072E-01-9.66095E+00-7.96687E-01-1.50207E+00 2.26541E-13 5.76428E-13
 -1       322 2.02693E+01 3.04434E+00-1.77656E-02-1.88679E+00-2.79202E-13-3.14698E-13
 -1       323 2.09093E+01 2.20580E+00-1.71380E-02-2.16549E+00-3.36504E-13-1.29639E-13
 -1       324 1.95604E+01 3.80603E+00-1.49044E-02-1.11244E+00-1.37137E-13-4.48622E-13
 -1       325 1.93588E+01 4.00093E+00-1.26296E-02-7.57749E-01-4.76569E-14-4.49511E-13
 -1       326 1.92273E+01 4.12140E+00-1.13865E-02-4.34618E-01 3.98274E-14-4.27461E-13
 -1       327 1.91618E+01 4.17996E+00-1.08226E-02-1.32295E-01 9.83146E-14-4.13616E-13
 -1       328 1.91616E+01 4.18117E+00-1.08296E-02 1.62105E-01 1.58010E-13-4.11568E-13
 -1       329 1.92276E+01 4.12398E+00-1.14071E-02 4.62278E-01 2.11241E-13-3.75389E-13
 -1       330 1.93594E+01 4.00468E+00-1.26732E-02 7.76172E-01 2.68974E-13-3.38608E-13
 -1       331 1.95675E+01 3.80435E+00-1.48893E-02 1.12536E+00 3.42946E-13-2.46594E-13
 -1       332 1.98682E+01 3.49033E+00-1.83794E-02 1.50725E+00 3.83787E-13-1.30815E-13
 -1       333 2.03090E+01 2.98978E+00-2.23470E-02 1.89650E+00 4.06480E-13 3.25217E-14
 -1       334 2.09068E+01 2.12973E+00-2.95838E-02 2.12052E+00 3.92589E-13 3.29247E-13
 -1       335 2.12506E+01 1.18092E+00-2.36263E-02 1.75751E+00 3.28976E-13 5.91086E-13
 -1       336 2.06387E+01 5.02143E-01 9.01531E-03 7.46695E-01 2.76727E-13 4.70192E-13
 -1       337 2.07008E+01 6.99162E-01 1.30404E-02-8.08984E-01-2.49934E-13-6.82287E-14
 -1       338 2.03777E+01 3.80592E-01 7.69958E-03-2.00253E-01-2.04157E-13-6.87206E-14
 -1       339 2.02464E+01 2.36080E-01 4.78272E-03 1.66709E-01-1.22281E-13-5.77775E-14
 -1       340 2.02613E+01 1.61921E-01 2.59248E-03 4.09901E-01-8.26963E-14-8.39592E-14
 -1       341 2.03870E+01 1.18312E-01 1.50331E-03 5.81926E-01-1.10126E-13-1.28125E-13
 -1       342 2.05956E+01 8.45615E-02 8.44283E-04 7.06399E-01-9.78684E-14-1.67437E-13
 -1       343 2.08659E+01 4.64521E-02 2.35565E-04 7.88750E-01-4.97938E-14-1.79487E-13
 -1       344 2.11802E+01-8.34072E-03-5.24742E-04 8.20392E-01-8.54366E-14-1.58322E-13
 -1       345 2.15200E+01-9.06111E-02-1.52510E-03 7.80656E-01-1.29794E-13-1.12133E-13
 -1       346 2.18630E+01-2.06247E-01-2.72782E-03 6.39795E-01-4.10631E-14-4.49792E-14
 -1       347 2.21778E+01-3.48326E-01-3.90475E-03 3.66886E-01 4.47353E-15-1.04525E-13
 -1       348 2.24201E+01-4.85202E-01-4.56648E-03-5.29067E-02 9.00933E-14-7.29148E-15
 -1       349 2.25309E+01-5.50941E-01-4.07214E-03-5.89007E-01 3.47096E-15-8.78472E-14
 -1       350 2.24495E+01-4.55496E-01-2.16670E-03-1.13104E+00-8.42902E-14-1.63589E-13
 -1       351 2.21514E+01-1.36245E-01 7.26469E-04-1.47882E+00-1.01655E-13-1.60171E-13
 -1       352 2.17076E+01 3.56019E-01 3.12714E-03-1.40539E+00-8.39780E-14-7.59922E-14
 -1       353 2.13088E+01 8.12691E-01 3.47632E-03-8.10019E-01-1.51680E-13-1.07302E-13
 -1       354 2.11803E+01 9.69267E-01 3.00659E-03 1.34564E-01-2.23510E-13-1.74023E-13
 -1       355 2.14048E+01 7.30661E-01 3.45744E-03 1.03216E+00-9.23276E-14-3.30754E-13
 -1       356 2.18567E+01 2.44286E-01 2.56243E-03 1.51891E+00 8.29012E-14-3.81028E-13
 -1       357 2.23041E+01-2.18858E-01-1.71771E-04 1.48866E+00 1.26870E-13-3.34027E-13
 -1       358 2.25819E+01-4.82637E-01-2.74228E-03 1.08801E+00 7.99608E-14-4.08272E-13
 -1       359 2.26470E+01-5.30892E-01-4.21047E-03 5.47998E-01 1.04727E-14-2.36344E-13
 -1       360 2.25373E+01-4.39449E-01-4.34318E-03 4.94539E-02 1.25730E-13-2.33736E-13
 -1       361 2.23151E+01-2.95685E-01-3.46429E-03-3.18791E-01 1.07210E-13-2.83976E-13
 -1       362 2.20356E+01-1.57983E-01-2.24481E-03-5.40935E-01 2.02597E-14-5.69358E-14
 -1       363 2.17378E+01-5.20435E-02-1.10737E-03-6.39740E-01 9.52671E-14 4.42639E-15
 -1       364 2.14468E+01 1.78585E-02-2.40386E-04-6.50323E-01 4.48300E-14-6.69002E-14
 -1       365 2.11778E+01 5.74344E-02 3.26418E-04-6.05996E-01-9.26737E-14-2.76357E-13
 -1       366 2.09389E+01 7.51294E-02 6.38640E-04-5.32826E-01 8.68309E-14-2.93944E-13
 -1       367 2.07333E+01 7.86938E-02 7.65683E-04-4.48909E-01 1.37347E-13-1.39639E-14
 -1       368 2.05613E+01 7.40635E-02 7.73073E-04-3.65616E-01 8.43459E-14-9.70580E-14
 -1       369 2.04207E+01 6.53320E-02 7.12115E-04-2.89338E-01-5.63536E-15-2.81940E-13
 -1       370 2.03083E+01 5.51084E-02 6.18599E-04-2.23076E-01-4.78462E-14-1.81908E-13
 -1       371 2.02205E+01 4.49349E-02 5.15333E-04-1.67685E-01 1.61138E-14-5.73250E-15
 -1       372 2.01533E+01 3.56392E-02 4.15579E-04-1.22765E-01 1.78799E-13 2.57229E-13
 -1       373 2.01030E+01 2.75934E-02 3.26170E-04-8.72538E-02 5.72727E-14 8.07405E-14
 -1       374 2.00662E+01 2.08930E-02 2.49885E-04-5.98127E-02 2.31656E-14 2.02650E-13
 -1       375 2.00402E+01 1.54757E-02 1.87061E-04-3.90603E-02-3.08861E-13 4.47042E-13
 -1       376 2.00223E+01 1.11977E-02 1.36658E-04-2.37067E-02-1.43624E-13 4.49695E-13
 -1       377 2.00107E+01 7.87860E-03 9.69118E-05-1.26217E-02 2.17726E-13 1.44624E-13
 -1       378 2.00036E+01 5.32520E-03 6.56660E-05-4.86634E-03 2.87087E-13 2.40543E-13
 -1       379 1.99998E+01 3.34198E-03 4.06385E-05 2.97598E-04 2.23285E-13 8.99540E-14
 -1       380 1.99981E+01 1.73116E-03 2.12522E-05 3.40534E-03-7.63173E-14 2.87610E-13
 -1       381 1.99979E+01 2.74085E-04 6.01848E-06 4.81972E-03 4.74371E-15 2.01711E-13
 -1       382 1.99982E+01-1.04485E-03-1.56497E-05 4.77159E-03 1.25839E-13 6.71089E-15
 -1       383 2.02565E+01 2.57789E-01 1.13856E-02 1.82337E-01 2.30030E-13 3.92140E-13
 -1       384 2.01192E+01 1.60017E-01 7.02767E-03-1.52479E-01 1.68953E-13 3.00884E-13
 -1       385 2.01752E+01 1.17124E-01 3.92098E-03-3.78105E-01 9.43101E-14 2.51515E-13
 -1       386 2.03740E+01 9.93964E-02 2.49981E-03-5.51897E-01 7.96896E-14 1.94040E-13
 -1       387 2.06850E+01 9.28698E-02 1.86278E-03-7.01964E-01 6.15121E-14 1.41647E-13
 -1       388 2.10894E+01 8.81015E-02 1.38426E-03-8.39233E-01 2.09813E-14 1.49057E-13
 -1       389 2.15734E+01 7.50776E-02 7.03952E-04-9.60600E-01 6.39972E-14 1.27616E-13
 -1       390 2.21223E+01 4.04991E-02-4.15902E-04-1.04698E+00-3.89463E-14 1.85770E-13
 -1       391 2.27140E+01-3.29452E-02-2.08962E-03-1.05907E+00 2.66035E-14 1.68735E-13
 -1       392 2.33120E+01-1.62795E-01-4.17678E-03-9.34852E-01 7.05636E-14 1.48568E-13
 -1       393 2.38571E+01-3.53078E-01-6.04761E-03-5.97392E-01 1.05567E-13 1.49044E-13
 -1       394 2.42598E+01-5.65627E-01-6.61378E-03 1.19474E-02 2.18315E-14 1.63794E-13
 -1       395 2.43967E+01-6.82135E-01-4.77032E-03 8.57114E-01-1.09600E-14 1.01077E-13
 -1       396 2.41447E+01-5.17526E-01-3.82128E-03 1.70054E+00-8.11786E-14 2.56977E-13
 -1       397 2.34998E+01 4.12242E-02-6.18666E-03 2.07901E+00 1.63985E-13 2.65466E-13
 -1       398 2.27321E+01 8.00642E-01-9.36314E-03 1.54080E+00 1.77544E-13 3.00452E-13
 -1       399 2.23531E+01 1.22650E+00-5.80034E-03 1.42665E-01-1.17959E-13 4.42417E-14
 -1       400 2.26624E+01 9.46593E-01-8.22660E-03-1.34870E+00-2.66922E-14 8.35365E-14
 -1       401 2.34467E+01 2.09730E-01-3.57161E-03-2.10719E+00 1.16004E-13 6.76455E-15
 -1       402 2.41783E+01-4.25652E-01-1.25796E-03-1.88825E+00 3.90174E-13-2.54323E-13
 -1       403 2.45297E+01-6.71876E-01-4.37780E-03-1.09778E+00 1.91001E-13-2.65573E-13
 -1       404 2.44766E+01-5.96853E-01-7.65844E-03-2.32946E-01-1.00548E-13-4.04906E-15
 -1       405 2.41401E+01-3.89451E-01-7.57844E-03 4.18930E-01-2.36672E-13-1.16243E-13
 -1       406 2.36523E+01-1.87203E-01-5.36023E-03 7.91982E-01-1.02234E-13-1.98879E-13
 -1       407 2.31094E+01-4.28184E-02-2.72146E-03 9.35386E-01-6.77111E-14 7.61487E-14
 -1       408 2.25729E+01 4.09756E-02-6.42136E-04 9.28373E-01-9.58187E-15 1.87052E-13
 -1       409 2.20784E+01 7.99982E-02 6.69464E-04 8.39812E-01 1.07571E-13 1.94458E-13
 -1       410 2.16435E+01 9.13841E-02 1.32468E-03 7.17165E-01 2.50749E-13 1.74052E-13
 -1       411 2.12743E+01 8.79208E-02 1.53730E-03 5.88757E-01 9.12847E-14-9.69766E-14
 -1       412 2.09695E+01 7.76882E-02 1.49550E-03 4.69416E-01 6.65121E-14-7.22871E-14
 -1       413 2.07238E+01 6.52718E-02 1.33072E-03 3.65578E-01-2.80648E-14 9.39404E-14
 -1       414 2.05297E+01 5.30353E-02 1.12248E-03 2.78932E-01-5.31823E-15 2.32676E-13
 -1       415 2.03793E+01 4.20522E-02 9.13750E-04 2.08717E-01 2.40948E-13 8.24167E-14
 -1       416 2.02648E+01 3.26968E-02 7.24848E-04 1.53079E-01 3.40379E-13 7.89061E-14
 -1       417 2.01794E+01 2.49909E-02 5.63334E-04 1.09805E-01 8.20319E-14 8.07834E-14
 -1       418 2.01169E+01 1.87956E-02 4.30107E-04 7.67072E-02-3.06584E-14 1.09061E-14
 -1       419 2.00723E+01 1.39099E-02 3.22943E-04 5.17941E-02-3.11983E-13-7.88598E-14
 -1       420 2.00414E+01 1.01197E-02 2.38377E-04 3.33444E-02-1.53045E-13 1.20090E-13
 -1       421 2.00208E+01 7.22097E-03 1.72614E-04 1.99196E-02-1.08556E-14 3.46676E-13
 -1       422 2.00078E+01 5.02928E-03 1.21947E-04 1.03513E-02 1.32079E-14 3.66892E-13
 -1       423 2.00002E+01 3.38144E-03 8.28572E-05 3.71731E-03 2.04212E-13-6.74653E-14
 -1       424 1.99966E+01 2.13083E-03 5.21705E-05-6.83859E-04 1.32978E-13 2.43890E-13
 -1       425 1.99955E+01 1.13427E-03 2.82683E-05-3.35116E-03 1.50978E-13 1.77390E-13
 -1       426 1.99960E+01 2.50807E-04 9.95532E-06-4.58254E-03-6.61416E-14 2.56021E-13
 -1       427 1.99973E+01-6.86597E-04 5.08303E-08-4.49928E-03 9.25188E-14 2.98517E-13
 -1       428 1.99983E+01-1.46876E-03-9.56269E-06-3.86206E-03-1.09467E-13 1.29032E-13
 -1       429 2.00009E+01-3.27874E-03 6.68957E-06-3.84469E-03 1.19332E-13 2.28706E-13
 -1       430 2.00003E+01-2.77595E-03-4.75391E-06-4.69178E-03-2.28119E-13 5.06169E-13
 -1       431 1.99993E+01-2.35295E-03-1.26906E-05-4.70664E-03 4.47392E-14 3.75839E-13
 -1       432 2.00010E+01-3.41270E-03 1.01875E-05-2.69777E-03 1.39137E-13-1.16543E-13
 -1       433 2.00009E+01-3.30323E-03 1.07388E-05-1.61212E-03 1.33361E-13-3.07532E-14
 -1       434 2.00006E+01-3.09398E-03 1.01526E-05-7.72047E-04 1.56013E-13 5.23544E-14
 -1       435 2.00004E+01-2.92959E-03 9.45133E-06-1.66284E-04-2.06921E-13-1.23199E-13
 -1       436 2.00004E+01-2.89833E-03 9.36022E-06 3.36941E-04-2.30520E-13-3.52471E-13
 -1       437 2.00006E+01-3.00552E-03 9.96434E-06 9.13664E-04-2.51774E-13-4.71328E-13
 -1       438 2.00008E+01-3.16787E-03 1.03308E-05 1.68594E-03 1.42907E-13 6.76365E-14
 -1       439 2.00010E+01-3.25817E-03 7.82612E-06 2.69821E-03 1.32297E-13 3.26412E-13
 -1       440 2.00009E+01-3.11837E-03 4.80092E-06 3.79982E-03 2.45889E-13-8.29808E-14
 -1       441 2.00003E+01-2.70519E-03-6.52481E-06 4.67399E-03 3.82797E-14-2.66913E-13
 -1       442 1.04787E+01-5.64086E+00-4.28198E-02 6.68950E+00-5.43315E-14 5.76206E-13
 -1       443 1.72607E+00-3.51159E+00 3.38380E-02-7.00734E-02-6.47153E-14 2.89380E-13
 -1       444 3.41297E+00-4.35397E+00-1.13106E-02 3.78706E+00 1.03112E-13 3.42920E-14
 -1       445 1.73638E+01-5.64822E+00-6.78614E-02 6.66339E+00 2.30954E-13 3.39874E-13
 -1       446 2.63415E+01-3.64059E+00 6.07716E-03 4.50971E+00 2.62651E-13 1.46314E-13
 -1       447 1.98612E+01 3.50242E+00-1.72223E-02-1.51233E+00-1.99774E-13-4.23583E-13
 -1       448 3.54193E+01 4.21140E+00 8.37640E-02 2.81075E-01 6.70464E-13 1.01863E-13
 -1       449 3.47568E+01 7.35564E+00-3.25801E-02-6.69420E-01 9.06164E-13-1.09142E-13
 -1       450 3.61461E+01 7.57280E+00 6.40055E-02 2.32615E-01 6.99663E-13-8.18720E-14
 -1       451 3.52757E+01 5.16431E+00 4.31352E-02 1.06356E-01 5.48353E-13-2.10998E-13
 -1       452 3.18880E+01 1.13526E-01 1.24178E-02-2.10942E+00 3.92266E-13-2.23571E-13
 -1       453 2.66970E+01-3.54775E+00 1.36834E-02-4.41549E+00 2.61249E-13-2.49620E-13
 -1       454 1.77112E+01-5.87430E+00-1.76234E-02-6.79638E+00-4.98629E-14-3.20799E-13
 -1       455 8.78928E+00-5.68052E+00-7.00753E-02-6.44577E+00-8.19483E-14-7.60468E-13
 -1       456 3.02761E+00-4.69518E+00-5.38260E-02-3.69696E+00-7.20257E-14-9.99201E-13
 -1       457 1.16550E+00-4.59606E+00-7.11923E-02 1.07313E+00-5.97786E-14-8.00277E-13
 -1       458 4.64777E+00-4.78338E+00-3.40066E-02 5.07661E+00-6.69881E-14-3.23644E-13
 -1       459 1.08510E+01-5.68819E+00-7.19136E-02 6.95538E+00-2.01561E-13-2.68237E-13
 -1       460 1.89218E+01-5.31913E+00-1.31611E-02 6.73183E+00-1.40291E-13-2.81164E-13
 -1       461 2.85126E+01-2.21422E+00 1.12251E-03 3.31632E+00-2.58522E-13 1.86101E-14
 -1       462 3.23373E+01 1.41275E+00 1.58624E-02 1.57216E+00-6.40283E-13 2.06890E-13
 -1       463 3.48315E+01 5.63798E+00 4.01143E-02 3.33810E-02-7.96210E-13 1.52198E-13
 -1       464 3.56970E+01 7.96002E+00 6.44037E-02-7.19395E-02-7.14068E-13-1.62578E-14
 -1       465 3.60188E+01 7.20390E+00 9.95746E-02 3.54231E-02-7.03756E-13 4.59147E-14
 -1       466 3.47384E+01 4.54284E+00 9.06518E-02-5.65738E-01-4.75620E-13 1.75970E-13
 -1       467 3.09085E+01-8.59633E-02 1.31436E-02-2.28534E+00-3.60450E-13 1.08608E-13
 -1       468 2.55847E+01-3.46950E+00 6.65216E-04-4.83581E+00-1.21791E-13 4.51306E-13
 -1       469 1.88359E+01-5.45238E+00 9.37216E-03-6.77158E+00 1.30562E-13 4.28827E-13
 -1       470 9.61384E+00-5.46154E+00-5.67252E-02-6.80124E+00 4.52818E-13 8.78644E-13
 -1       471 4.02080E+00-4.47436E+00-1.63552E-02-4.59988E+00 2.12344E-13 7.85913E-13
 -1       472 3.18477E+01-1.90172E-01 2.49793E-02 1.79016E+00 4.51535E-13-2.75058E-14
 -1       473 3.20641E+01 1.73604E+00-7.64361E-02 1.31738E+00 3.30486E-13 1.09843E-13
 -1       474 2.50956E+01-4.94790E+00 3.28709E-03 4.32138E+00-9.43828E-14 1.86053E-13
 -1       475 2.06182E+01 8.93330E-01 4.22302E-03 6.88936E-01 2.89279E-13 1.67716E-13
 -1       476 1.95420E+01 3.35737E+00-4.84094E-03-4.62293E-01-1.33849E-15-3.85533E-13
 -1       477 1.97274E+01 3.13445E+00-5.31882E-03-7.19723E-01-7.01671E-14-3.99162E-13
 -1       478 1.93892E+01 3.53052E+00-4.38763E-03 1.66099E-02 1.17627E-13-3.68787E-13
 -1       479 1.94258E+01 3.49122E+00-4.49699E-03 2.48820E-01 1.73681E-13-3.61563E-13
 -1       480 1.95361E+01 3.36721E+00-4.91030E-03 4.83325E-01 2.34162E-13-3.25620E-13
 -1       481 1.97239E+01 3.14304E+00-5.58911E-03 7.32739E-01 2.97768E-13-2.41977E-13
 -1       482 1.99865E+01 2.79860E+00-6.32900E-03 9.86267E-01 3.43761E-13-1.59720E-13
 -1       483 2.03336E+01 2.28928E+00-5.62621E-03 1.21839E+00 3.54112E-13-5.94099E-14
 -1       484 2.04426E+01 5.50548E-01 5.52500E-03 1.12127E-01 2.58534E-13 1.26631E-13
 -1       485 2.05558E+01 1.05162E+00 3.21576E-03-6.38836E-01-2.13656E-13-1.99660E-13
 -1       486 2.04496E+01 6.55771E-01 2.49583E-03-9.72278E-02-1.41230E-13-1.72653E-13
 -1       487 2.03866E+01 4.42101E-01 1.34876E-03 2.89829E-01-1.07052E-13-1.48020E-13
 -1       488 2.03917E+01 3.18018E-01 7.89995E-04 5.71529E-01-1.15685E-13-1.69625E-13
 -1       489 2.04632E+01 2.34184E-01 4.70108E-04 7.82095E-01-1.05329E-13-1.23499E-13
 -1       490 2.05953E+01 1.58835E-01 2.34893E-04 9.38225E-01-9.74762E-14-1.29333E-13
 -1       491 2.07845E+01 6.63066E-02-4.19792E-05 1.04112E+00-6.72832E-14-1.50830E-13
 -1       492 2.10316E+01-6.66268E-02-4.31647E-04 1.07764E+00-7.34089E-14-1.55895E-13
 -1       493 2.13406E+01-2.58641E-01-9.75454E-04 1.02098E+00-1.09311E-15-4.87250E-14
 -1       494 2.17145E+01-5.14509E-01-1.63163E-03 8.33117E-01-3.91638E-15 5.84527E-14
 -1       495 2.21441E+01-8.06725E-01-2.20839E-03 4.73427E-01 5.93197E-14 8.72259E-14
 -1       496 2.25896E+01-1.05007E+00-2.26994E-03-7.94558E-02-1.28662E-14-1.01012E-13
 -1       497 2.29603E+01-1.08651E+00-1.43044E-03-7.83170E-01-9.43334E-14-4.11125E-14
 -1       498 2.31223E+01-7.26062E-01-6.51538E-04-1.46993E+00-1.25293E-13 3.16506E-14
 -1       499 2.29783E+01 1.08159E-01-1.18152E-03-1.82446E+00-1.42597E-13-3.78266E-14
 -1       500 2.26064E+01 1.17692E+00-3.87869E-03-1.51072E+00-2.54737E-13-2.10464E-13
 -1       501 2.22972E+01 1.91501E+00-9.37766E-03-4.75766E-01-2.36037E-13-2.63673E-13
 -1       502 2.23515E+01 1.81384E+00-7.62629E-03 8.13570E-01-1.25818E-13-1.25385E-13
 -1       503 2.27183E+01 9.50775E-01-3.44869E-03 1.71378E+00-1.31302E-13-1.29225E-13
 -1       504 2.30725E+01-1.02608E-01-2.02062E-03 1.86369E+00 7.27106E-14-2.86432E-13
 -1       505 2.31586E+01-8.27151E-01-1.37774E-03 1.41307E+00 1.21041E-13-2.83559E-13
 -1       506 2.29543E+01-1.07732E+00-1.91113E-03 7.16423E-01 1.47663E-13-2.61911E-13
 -1       507 2.25742E+01-9.72688E-01-2.44825E-03 5.69310E-02 8.12209E-14-2.39238E-13
 -1       508 2.21461E+01-7.04510E-01-2.06978E-03-4.32106E-01 9.98440E-14-3.00776E-13
 -1       509 2.17467E+01-4.15592E-01-1.39600E-03-7.29674E-01 1.59901E-13-3.33799E-13
 -1       510 2.14054E+01-1.77282E-01-7.49506E-04-8.66975E-01 7.98711E-14-2.76523E-13
 -1       511 2.11244E+01-9.92798E-03-2.61077E-04-8.89322E-01 5.19670E-14-1.15932E-13
 -1       512 2.08955E+01 9.23545E-02 6.10438E-05-8.38625E-01-9.80708E-14-8.18217E-14
 -1       513 2.07093E+01 1.44765E-01 2.45022E-04-7.47638E-01-4.50128E-15-1.09124E-14
 -1       514 2.05574E+01 1.63098E-01 3.29201E-04-6.39536E-01 1.09847E-13-1.00830E-13
 -1       515 2.04336E+01 1.60330E-01 3.48145E-04-5.29427E-01 1.67304E-13-3.19336E-13
 -1       516 2.03331E+01 1.45911E-01 3.28805E-04-4.26307E-01 9.97133E-14-2.59360E-13
 -1       517 2.02523E+01 1.26182E-01 2.90110E-04-3.34861E-01 1.29089E-13-7.82960E-14
 -1       518 2.01880E+01 1.05111E-01 2.44330E-04-2.56911E-01 1.55871E-13 2.72165E-13
 -1       519 2.01375E+01 8.49974E-02 1.98701E-04-1.92493E-01 7.46436E-14 3.69594E-13
 -1       520 2.00985E+01 6.70280E-02 1.57026E-04-1.40614E-01-6.81442E-14 1.15720E-13
 -1       521 2.00688E+01 5.16802E-02 1.21015E-04-9.97718E-02 3.66391E-15 3.72165E-14
 -1       522 2.00468E+01 3.90012E-02 9.11009E-05-6.82861E-02 2.02541E-13 6.05267E-14
 -1       523 2.00307E+01 2.87965E-02 6.69864E-05-4.45111E-02-8.50173E-14 4.19024E-13
 -1       524 2.00193E+01 2.07491E-02 4.79583E-05-2.69479E-02-1.98889E-13 4.67610E-13
 -1       525 2.00114E+01 1.44897E-02 3.31349E-05-1.43042E-02 1.91053E-13 1.92474E-13
 -1       526 2.00063E+01 9.63166E-03 2.13023E-05-5.51846E-03 5.55824E-14 2.51954E-13
 -1       527 2.00030E+01 5.79205E-03 1.27835E-05 2.32012E-04 2.61673E-13 4.15098E-14
 -1       528 2.00011E+01 2.57684E-03 6.27592E-06 3.54648E-03-2.09676E-13-1.96385E-13
 -1       529 2.03885E+01 2.95751E-01 1.76679E-03-5.87301E-01 1.37232E-13 5.52507E-14
 -1       530 2.04991E+01 2.57516E-01 1.24827E-03-8.31384E-01 7.38370E-14 2.13216E-14
 -1       531 2.06843E+01 2.37433E-01 9.96233E-04-1.04558E+00 4.24388E-14 4.20199E-15
 -1       532 2.09356E+01 2.12873E-01 7.17757E-04-1.23848E+00 2.85506E-14 4.62415E-15
 -1       533 2.12509E+01 1.57456E-01 2.21082E-04-1.40196E+00-8.92133E-15 7.24908E-14
 -1       534 2.16363E+01 3.70208E-02-6.52286E-04-1.50798E+00 5.96788E-14 2.38300E-14
 -1       535 2.21077E+01-1.88694E-01-1.99381E-03-1.50351E+00 9.03838E-14-2.91617E-14
 -1       536 2.26882E+01-5.50711E-01-3.73004E-03-1.30725E+00 3.51814E-14 3.97073E-15
 -1       537 2.33900E+01-1.02840E+00-5.36646E-03-8.18874E-01 3.53589E-14 1.46667E-14
 -1       538 2.41740E+01-1.47707E+00-5.69803E-03 3.95200E-02-1.98765E-14 1.47142E-13
 -1       539 2.48688E+01-1.53994E+00-3.87353E-03 1.20397E+00-1.56151E-13 2.72814E-13
 -1       540 2.51603E+01-7.69291E-01-1.70842E-02 2.27863E+00 4.33464E-15 2.29280E-13
 -1       541 2.48680E+01 9.03265E-01-3.42534E-02 2.48350E+00 1.68310E-13 4.00146E-13
 -1       542 2.43624E+01 2.52513E+00-4.72454E-02 1.21845E+00 1.74546E-13 2.80456E-13
 -1       543 2.42770E+01 2.63269E+00-4.61468E-02-9.54090E-01 5.84524E-14-6.70870E-14
 -1       544 2.47712E+01 1.25786E+00-2.57401E-02-2.42701E+00 1.67973E-13-3.35710E-13
 -1       545 2.51961E+01-5.20456E-01-1.80353E-02-2.46584E+00 2.71918E-13-2.57078E-13
 -1       546 2.50210E+01-1.46610E+00-5.00178E-03-1.49034E+00 2.19893E-13 4.39134E-14
 -1       547 2.43955E+01-1.51305E+00-5.56745E-03-3.15008E-01-2.36887E-14 3.51617E-14
 -1       548 2.36363E+01-1.09489E+00-5.48448E-03 5.92508E-01-3.36108E-14-7.08832E-14
 -1       549 2.29416E+01-6.03143E-01-4.10768E-03 1.12308E+00-1.08725E-13-2.73425E-13
 -1       550 2.23685E+01-2.13775E-01-2.16888E-03 1.34312E+00-1.47667E-13-3.29925E-13
 -1       551 2.19094E+01 3.38226E-02-6.55916E-04 1.35551E+00-1.77448E-13-3.47801E-13
 -1       552 2.15383E+01 1.64528E-01 3.34323E-04 1.24993E+00-5.61419E-14-2.88329E-13
 -1       553 2.12331E+01 2.16788E-01 8.42203E-04 1.08920E+00 1.20107E-13-1.05613E-13
 -1       554 2.09796E+01 2.23051E-01 1.02424E-03 9.12660E-01 2.09559E-13 6.09708E-14
 -1       555 2.07688E+01 2.05627E-01 1.01604E-03 7.42608E-01 5.09434E-14 1.57131E-13
 -1       556 2.05949E+01 1.78181E-01 9.13501E-04 5.90139E-01-9.69548E-14 5.03267E-15
 -1       557 2.04532E+01 1.48374E-01 7.75114E-04 4.59520E-01-3.96276E-15-2.73295E-13
 -1       558 2.03393E+01 1.20119E-01 6.33154E-04 3.51136E-01 7.04910E-14-3.46332E-13
 -1       559 2.02493E+01 9.51496E-02 5.03278E-04 2.63358E-01 1.70860E-13-1.25007E-13
 -1       560 2.01793E+01 7.40029E-02 3.91633E-04 1.93671E-01 2.24841E-13 1.01655E-13
 -1       561 2.01260E+01 5.66105E-02 2.99289E-04 1.39305E-01 5.21979E-14 3.73249E-15
 -1       562 2.00860E+01 4.26209E-02 2.24879E-04 9.75739E-02-2.26689E-13 1.35353E-14
 -1       563 2.00567E+01 3.15719E-02 1.66096E-04 6.60473E-02-5.01612E-13 2.22653E-13
 -1       564 2.00358E+01 2.29793E-02 1.20434E-04 4.26195E-02 2.07140E-15 3.38255E-13
 -1       565 2.00212E+01 1.63824E-02 8.53699E-05 2.55266E-02 3.78093E-15 1.90560E-13
 -1       566 2.00116E+01 1.13617E-02 5.85810E-05 1.33346E-02 2.66917E-13 2.90140E-13
 -1       567 2.00054E+01 7.54252E-03 3.77751E-05 4.91195E-03 1.73344E-13 3.59238E-13
 -1       568 2.00019E+01 4.58065E-03 2.23952E-05-5.99900E-04 1.40233E-14 2.58347E-13
 -1       569 2.00000E+01 2.14596E-03 8.22132E-06-3.82799E-03-9.37269E-14 5.57722E-13
 -1       570 1.99994E+01-8.79975E-05-9.28017E-07-5.16905E-03 1.62197E-13 4.66686E-13
 -1       571 2.00019E+01 3.55295E-03 4.44917E-06-1.43135E-03 3.77883E-13-4.28431E-14
 -1       572 2.00014E+01 4.92437E-03 4.26215E-06-5.40533E-04 2.80193E-13-2.98480E-14
 -1       573 2.00016E+01 7.31595E-04-3.77906E-06-4.09704E-03-6.92710E-15 5.82863E-13
 -1       574 2.00022E+01 2.05721E-03 4.22335E-06-2.69807E-03 1.19691E-13 2.47423E-13
 -1       575 1.70104E+01-5.30218E+00 8.56579E-02 6.60852E+00-1.82840E-13 3.35544E-13
 -1       576 2.00009E+01 5.88633E-03 4.21845E-06-7.63997E-05-1.28021E-14-1.30790E-13
 -1       577 2.00007E+01 6.24550E-03 4.12660E-06 1.11298E-04-2.02850E-13-4.42140E-13
 -1       578 2.00009E+01 5.93108E-03 4.44691E-06 2.80011E-04-6.95690E-15-2.19194E-13
 -1       579 2.00013E+01 5.02850E-03 4.90424E-06 6.82174E-04 3.22740E-14-8.97992E-14
 -1       580 2.00018E+01 3.68480E-03 3.63344E-06 1.49663E-03 9.72185E-14-3.86548E-14
 -1       581 2.00020E+01 2.23653E-03 5.50608E-06 2.63905E-03 9.12814E-14 2.08848E-13
 -1       582 2.00015E+01 9.31221E-04 6.94182E-07 3.95132E-03-1.18196E-13-3.11167E-13
 -1       583 2.37892E+01-5.65926E+00 1.81740E-02 4.56228E+00 5.21111E-14 4.64871E-14
 -1       584 2.03657E+01 3.78567E-01 3.05839E-03-2.88169E-01 1.81284E-13 9.01445E-14
 -1       585 6.11918E+00-1.02675E+00 1.97880E-01 2.23235E+00-8.48505E-14 2.41140E-13
 -1       586 5.70545E+00-1.33049E+00 1.78312E-01-2.79315E+00-9.30298E-14 3.68608E-13
 -1       587 2.05535E+01 1.80856E+00-6.11054E-03-1.27660E+00-2.62572E-13-2.46570E-13
 -1       588 2.88477E+01-3.49401E+00-5.24355E-02 9.52307E-01 1.14636E-13-3.27377E-13
 -1       589 2.99856E+01 7.31989E+00-1.61700E-01 5.24450E-01-7.00787E-13-1.74746E-13
 -1       590 3.10408E+01 8.87324E-01-1.07849E-01-1.55558E+00 3.95753E-13-3.06671E-13
 -1       591 1.94286E+01 3.48638E+00-4.49914E-03-2.17732E-01 7.27718E-14-3.76538E-13
 -1       592 3.03792E+01 6.96736E+00-1.92051E-01 1.26238E-01 6.94556E-13 2.40871E-14
 -1       593 2.92288E+01-3.12549E+00-5.55474E-02-9.54921E-01 1.10722E-13 4.33542E-14
 -1       594 3.06441E+01 5.38296E+00-1.74317E-01 1.71881E+00 5.34198E-13 1.54720E-13
 -1       595 3.03926E+01 6.37437E+00-1.54663E-01-1.23676E+00-5.79606E-13 4.50022E-14
 -1       596 3.05027E+01 4.85417E+00-1.48389E-01-2.02743E+00 5.84185E-13-4.07445E-13
 -1       597 2.40936E+01-5.63005E+00-8.01061E-03-4.45789E+00-1.84283E-13-5.42483E-14
 -1       598 1.54327E+01-4.85046E+00 1.10421E-01-6.70913E+00-3.89598E-13-3.09867E-13
 -1       599 9.18513E+00-3.22632E+00 1.48658E-01-5.77632E+00-3.28175E-13-6.04836E-13
 -1       600 4.94841E+00-1.40429E+00 1.86716E-01-1.40109E+00-3.64049E-14-8.41702E-13
 -1       601 5.24848E+00-2.03492E+00 1.51524E-01 3.23743E+00 1.75859E-13-5.18724E-13
 -1       602 1.10606E+01-3.89606E+00 1.35643E-01 6.67479E+00 7.67025E-14-1.43129E-13
 -1       603 1.70039E+01-5.17830E+00 9.25827E-02 6.84010E+00 9.62216E-14-1.99476E-13
 -1       604 2.92650E+01-1.50762E+00-9.71564E-02 1.26792E-02-2.54820E-13 4.37192E-13
 -1       605 2.81029E+01-3.28509E+00-5.91086E-02-1.58357E+00 5.56308E-14-1.36703E-13
 -1       606 3.03558E+01 2.55318E+00-1.37347E-01-1.50381E+00-6.17194E-13 3.11758E-13
 -1       607 3.07311E+01 5.14115E+00-1.53555E-01 1.54153E+00-5.12146E-13-2.30843E-13
 -1       608 3.04670E+01 1.23032E+00-1.01900E-01 1.02142E+00-2.30004E-13-2.06085E-14
 -1       609 2.41608E+01-5.09443E+00 1.23774E-02-4.36363E+00 2.37782E-13 1.27159E-13
 -1       610 1.61444E+01-4.77749E+00 8.81184E-02-6.80034E+00 4.56642E-13 4.97734E-13
 -1       611 1.05715E+01-3.32963E+00 1.50269E-01-6.34499E+00 3.95954E-13 7.97411E-13
 -1       612 2.07842E+01 1.33258E+00-7.72232E-04 1.31280E+00 3.40067E-13 2.24073E-13
 -1       613 9.73950E+00-3.19857E+00 1.41641E-01 5.83490E+00 3.16969E-14 3.02189E-13
 -1       614 2.80805E+01 5.36655E+00-1.32501E-01-1.46333E+00 4.65239E-13-1.02373E-13
 -1       615 1.99753E+01 2.79523E+00-9.07857E-03-9.74974E-01-1.61316E-13-3.87063E-13
 -1       616 2.12014E+01-5.18490E+00 5.42220E-02-5.29917E+00 3.28508E-13 1.88504E-13
 -1       617 2.00004E+01 5.44702E-04 2.08450E-06 4.67734E-03-2.84059E-13-7.24650E-14
 -1       618 2.21480E+01-5.40943E+00 4.53765E-02 5.14948E+00 1.08257E-13 1.29083E-13
 -1       619 2.72346E+01-3.87929E+00-3.57455E-02 1.46874E+00-1.98817E-14 2.60774E-13
 -1       620 2.10572E+01-5.20340E+00 6.50161E-02-5.23234E+00-4.02820E-13-1.71646E-13
 -1       621 1.96446E+01 2.83550E+00-1.40453E-03 2.43476E-01 1.86319E-13-2.80099E-13
 -1       622 1.95675E+01 2.93093E+00-1.32565E-03 9.37470E-02 1.35697E-13-3.16773E-13
 -1       623 2.00197E+01 2.31855E+00-1.58943E-03 5.38195E-01 2.75447E-13-1.67254E-13
 -1       624 2.02784E+01 1.86990E+00-2.10399E-03 6.49230E-01 2.94299E-13-1.05920E-13
 -1       625 2.04861E+01 1.18432E+00 2.85252E-03 4.65655E-01 2.75714E-13-1.00554E-14
 -1       626 2.04159E+01 8.19366E-01 1.36257E-03-4.30170E-02 2.21594E-13 6.61219E-15
 -1       627 2.03891E+01 8.74890E-01-2.67138E-04 6.68867E-02-1.16284E-13-2.30836E-13
 -1       628 2.03534E+01 6.34898E-01 3.62445E-04 4.30834E-01-1.03763E-13-2.32056E-13
 -1       629 2.03415E+01 4.75433E-01 1.82167E-04 7.15587E-01-5.53176E-14-2.00714E-13
 -1       630 2.03659E+01 3.52856E-01 1.15896E-04 9.42519E-01-1.03941E-13-1.66208E-13
 -1       631 2.04374E+01 2.28015E-01 5.61262E-05 1.12137E+00-5.36379E-14-1.19834E-13
 -1       632 2.05711E+01 6.48364E-02-3.60917E-05 1.25079E+00-2.81685E-14-4.44495E-14
 -1       633 2.07898E+01-1.70723E-01-1.92381E-04 1.31600E+00-1.65959E-15 3.40291E-14
 -1       634 2.11251E+01-5.04726E-01-4.86977E-04 1.28619E+00 4.83795E-14 2.33877E-14
 -1       635 2.16099E+01-9.37784E-01-8.64740E-04 1.11201E+00-1.67775E-14-3.89566E-14
 -1       636 2.22586E+01-1.41220E+00-1.13566E-03 7.28292E-01-2.33037E-14-1.13087E-14
 -1       637 2.30252E+01-1.76224E+00-8.01067E-04 7.69964E-02-8.66474E-15 5.37115E-14
 -1       638 2.37526E+01-1.68488E+00-4.83327E-04-8.17959E-01-9.11885E-14-8.73000E-16
 -1       639 2.41704E+01-8.36048E-01-7.15714E-03-1.71375E+00-2.00370E-13-8.54207E-14
 -1       640 2.40763E+01 8.37414E-01-1.75243E-02-2.06980E+00-2.26082E-13-1.36714E-14
 -1       641 2.36352E+01 2.61539E+00-2.24443E-02-1.36065E+00-2.75155E-13 1.30305E-13
 -1       642 2.33402E+01 3.27337E+00-4.79737E-02 2.26365E-01-1.96717E-13 5.31970E-14
 -1       643 2.37563E+01 2.24892E+00-1.70322E-02 1.69976E+00-1.12964E-13-2.08789E-13
 -1       644 2.41285E+01 4.27230E-01-1.89786E-02 2.15142E+00-2.49618E-14-1.52780E-13
 -1       645 2.41249E+01-1.07215E+00-5.67290E-03 1.61592E+00 4.93182E-14-1.52327E-13
 -1       646 2.36196E+01-1.71794E+00-1.10310E-03 7.00630E-01 1.00804E-13-1.58930E-13
 -1       647 2.28664E+01-1.65882E+00-1.61767E-03-1.30937E-01 2.31084E-14-3.61860E-13
 -1       648 2.21210E+01-1.25452E+00-1.24227E-03-6.98710E-01 7.71742E-14-2.72375E-13
 -1       649 2.15098E+01-7.79183E-01-7.66588E-04-1.00950E+00 1.06547E-13-1.81804E-13
 -1       650 2.10591E+01-3.71336E-01-3.64125E-04-1.12921E+00 1.38853E-13-1.83504E-13
 -1       651 2.07459E+01-7.48850E-02-1.21381E-04-1.12425E+00 1.73946E-13-4.20651E-13
 -1       652 2.05343E+01 1.14386E-01 1.54466E-05-1.04545E+00 6.92337E-14-2.66106E-13
 -1       653 2.03916E+01 2.18657E-01 8.43746E-05-9.28107E-01-5.02425E-14-7.36001E-14
 -1       654 2.02938E+01 2.62757E-01 1.13632E-04-7.95644E-01-2.84199E-14-2.48343E-13
 -1       655 2.02247E+01 2.67961E-01 1.19519E-04-6.62970E-01-1.44207E-13-2.66348E-13
 -1       656 2.01739E+01 2.50350E-01 1.12347E-04-5.39009E-01 6.39242E-14-3.30205E-13
 -1       657 2.01354E+01 2.21132E-01 9.87203E-05-4.28533E-01 2.91800E-13-3.26890E-13
 -1       658 2.01054E+01 1.87618E-01 8.29297E-05-3.33511E-01 2.48482E-13-2.19687E-13
 -1       659 2.00816E+01 1.54272E-01 6.75228E-05-2.54094E-01 1.34164E-13-1.74212E-13
 -1       660 2.00627E+01 1.23596E-01 5.35625E-05-1.89320E-01-3.10435E-14-1.13106E-13
 -1       661 2.00476E+01 9.67842E-02 4.14476E-05-1.37621E-01 1.64024E-13-1.33966E-13
 -1       662 2.00357E+01 7.42003E-02 3.12528E-05-9.71735E-02 8.49413E-14 1.59364E-14
 -1       663 2.00263E+01 5.57099E-02 2.29848E-05-6.61401E-02 7.69526E-14 6.39198E-14
 -1       664 2.00190E+01 4.09089E-02 1.64805E-05-4.28037E-02-1.88694E-13-5.40563E-14
 -1       665 2.00135E+01 2.92626E-02 1.14269E-05-2.56438E-02-1.71930E-13 2.41880E-13
 -1       666 2.00092E+01 2.01846E-02 7.49780E-06-1.33708E-02 1.20489E-13 2.33062E-13
 -1       667 2.00061E+01 1.30674E-02 4.43066E-06-4.94965E-03-2.28173E-13 8.73956E-14
 -1       668 2.00038E+01 7.39574E-03-4.10656E-06 3.94934E-04-1.41129E-13-4.37547E-13
 -1       669 2.03733E+01 4.53893E-01 4.03620E-04-1.03723E+00 9.66622E-14-8.45384E-15
 -1       670 2.62014E+01-4.63349E+00-7.61845E-03 1.49371E+00-4.35589E-15-4.76518E-13
 -1       671 2.03517E+01 5.08134E-01 4.52032E-04-7.60919E-01 1.18123E-13 4.39612E-14
 -1       672 2.05363E+01 3.57819E-01 2.66223E-04-1.51709E+00-1.97613E-14-3.90758E-15
 -1       673 2.07000E+01 2.33858E-01 4.77979E-05-1.72130E+00 6.60533E-14-3.84404E-14
 -1       674 2.09626E+01-1.41617E-02-3.48322E-04-1.87561E+00 7.21037E-14-7.32656E-15
 -1       675 2.13924E+01-4.51905E-01-8.91553E-04-1.93039E+00 4.14839E-14 4.27728E-14
 -1       676 2.20892E+01-1.12287E+00-1.54902E-03-1.79569E+00-4.26484E-14 1.69599E-13
 -1       677 2.31490E+01-1.96166E+00-1.54006E-03-1.32242E+00-1.04863E-13 2.80956E-13
 -1       678 2.45908E+01-2.65806E+00-9.74158E-03-3.08390E-01-1.43358E-13 2.94045E-13
 -1       679 2.61181E+01-2.44528E+00-2.63871E-02 1.20918E+00-1.32670E-13 4.10454E-13
 -1       680 2.68759E+01-4.96590E-01-7.04630E-02 2.54662E+00-4.17600E-14 5.30987E-13
 -1       681 2.66375E+01 4.87153E+00-1.28552E-01 2.74731E-01 4.61881E-13 1.27464E-13
 -1       682 2.67176E+01 1.10097E-01-9.36097E-02-2.82001E+00 1.36960E-13-3.00916E-13
 -1       683 2.61641E+01-2.13391E+00-3.58988E-02-1.61297E+00 6.02400E-14-2.70986E-13
 -1       684 2.49556E+01-2.60455E+00-3.32746E-04-1.11949E-01 3.01517E-14-2.12049E-13
 -1       685 2.34904E+01-2.02344E+00-2.38104E-03 9.99737E-01-8.55431E-14 4.92058E-14
 -1       686 2.23931E+01-1.19957E+00-2.12869E-03 1.54870E+00 1.23096E-13 2.69784E-14
 -1       687 2.16500E+01-5.04230E-01-1.10933E-03 1.73390E+00 4.38984E-14-2.23143E-13
 -1       688 2.11810E+01-3.91586E-02-4.90554E-04 1.70069E+00-8.41424E-14-2.49924E-13
 -1       689 2.08865E+01 2.23959E-01 2.49353E-05 1.55485E+00-1.32001E-13-4.24220E-13
 -1       690 2.06929E+01 3.44824E-01 2.87141E-04 1.35875E+00-1.29385E-13-3.55134E-13
 -1       691 2.05551E+01 3.77598E-01 3.93120E-04 1.14921E+00-1.30190E-13-9.30022E-14
 -1       692 2.04489E+01 3.61564E-01 4.07877E-04 9.47325E-01 1.59252E-13-2.16980E-14
 -1       693 2.03622E+01 3.22069E-01 3.76503E-04 7.64235E-01 8.84023E-14-1.60842E-13
 -1       694 2.02895E+01 2.74173E-01 3.25065E-04 6.04841E-01 1.15852E-13-4.27350E-13
 -1       695 2.02283E+01 2.26163E-01 2.68960E-04 4.70206E-01 6.31012E-14-5.04799E-13
 -1       696 2.01772E+01 1.82169E-01 2.15936E-04 3.59173E-01-1.70065E-14-4.36596E-13
 -1       697 2.01352E+01 1.43896E-01 1.69558E-04 2.69425E-01 8.91148E-14-3.70277E-13
 -1       698 2.01012E+01 1.11725E-01 1.30838E-04 1.98162E-01 1.07657E-13 1.06887E-13
 -1       699 2.00743E+01 8.53636E-02 9.93472E-05 1.42506E-01 1.92528E-14 2.78860E-13
 -1       700 2.00534E+01 6.41966E-02 7.41306E-05 9.97234E-02-3.42974E-13 3.61516E-13
 -1       701 2.00374E+01 4.74865E-02 5.43430E-05 6.73576E-02-1.07707E-13-4.44050E-14
 -1       702 2.00255E+01 3.44820E-02 3.91007E-05 4.32866E-02-5.17776E-14 2.71842E-14
 -1       703 2.00169E+01 2.44738E-02 2.73372E-05 2.57329E-02 1.79860E-13 3.28785E-13
 -1       704 2.00107E+01 1.68124E-02 1.78313E-05 1.32544E-02 2.30707E-13 1.44252E-13
 -1       705 2.00064E+01 1.09265E-02 1.23069E-05 4.71087E-03-2.40441E-14 3.02999E-13
 -1       706 2.00036E+01 6.26581E-03 1.78447E-05-7.54237E-04-2.21575E-13 2.88105E-13
 -1       707 2.00025E+01 3.65958E-03 7.21736E-06-2.95934E-03 9.99492E-15 3.22793E-13
 -1       708 2.00006E+01 1.59878E-02 8.47161E-07 4.83806E-04-2.83483E-14-1.83581E-13
 -1       709 2.00026E+01 3.98389E-03 1.57811E-07 2.65375E-03-3.95930E-14-5.87510E-13
 -1       710 2.00023E+01 1.23880E-02-4.28917E-07 8.76047E-04 4.44203E-13-4.34781E-13
 -1       711 2.92960E+01-1.06698E+00-7.80592E-02 1.64523E+00 1.10398E-13 2.38261E-13
 -1       712 2.00005E+01 1.60027E-02 8.43536E-07-2.33171E-04 7.09896E-14-2.33587E-13
 -1       713 2.00013E+01 1.47126E-02 7.02456E-07 9.71834E-04 3.25180E-13-2.90798E-13
 -1       714 2.00011E+01 1.47893E-02 1.46374E-06-7.51601E-04 1.87712E-13-2.13522E-13
 -1       715 2.00021E+01 1.25013E-02 2.42861E-06-7.35862E-04-6.38883E-14-1.36226E-13
 -1       716 2.00031E+01 9.55086E-03 1.82001E-06-1.36731E-05-2.33236E-13 2.75456E-13
 -1       717 2.03676E+01 6.15525E-01 8.16575E-04-4.38925E-01 1.72173E-13 2.54773E-14
 -1       718 2.13927E+01-4.89215E+00 4.67380E-02 4.72052E+00-2.51903E-13 6.42325E-15
 -1       719 2.03723E+01 1.80224E+00-1.25301E-03-8.19450E-01-1.97534E-13-2.95110E-13
 -1       720 2.67967E+01-4.54183E+00-5.73122E-03-1.38573E+00-2.43996E-13 2.11671E-13
 -1       721 2.84438E+01 2.45224E+00-1.32246E-01 2.61762E+00 3.51261E-13 2.83270E-13
 -1       722 1.02923E+01-1.62119E+00 1.39691E-01 4.86542E+00 2.03719E-13-2.72317E-13
 -1       723 2.72098E+01 5.18327E+00-1.45465E-01 1.62686E+00-5.39714E-13-3.25736E-13
 -1       724 1.02067E+01-1.24076E+00 1.34914E-01-4.52714E+00 2.10248E-14 4.95937E-13
 -1       725 2.04331E+01 4.15997E-01 3.60427E-04-1.28690E+00 3.79255E-15-1.34292E-14
 -1       726 2.79566E+01-1.55528E+00-7.61652E-02 1.03726E+00-3.47777E-14-2.71293E-13
 -1       727 8.35472E+00 2.32675E-01 1.42951E-01-4.74435E-01-1.84983E-14 3.06914E-13
 -1       728 2.04000E+01 1.25209E+00 1.09891E-03-3.36898E-01-1.59271E-13-2.46329E-13
 -1       729 1.97989E+01 2.63459E+00-1.54879E-03 3.92987E-01 2.43569E-13-2.38048E-13
 -1       730 2.85344E+01-1.74540E+00-6.17794E-02-1.63305E+00 7.75907E-14-5.61984E-13
 -1       731 1.98137E+01 2.61411E+00-1.50399E-03-3.76188E-01-3.10597E-14-3.38048E-13
 -1       732 2.85556E+01 1.50392E+00-1.82416E-01-2.64151E+00 2.75693E-13-5.25711E-13
 -1       733 7.55422E+00-2.39800E-01 1.56660E-01 1.15564E+00 1.47082E-13-5.18426E-13
 -1       734 1.41477E+01-3.01784E+00 1.21198E-01-5.79491E+00-3.08940E-13-3.81695E-13
 -1       735 2.81908E+01 2.59519E+00-1.37382E-01 2.20525E+00-3.39642E-13-3.76314E-13
 -1       736 9.63109E+00-8.64948E-01 1.43211E-01-3.60445E+00-1.97363E-13-5.80390E-13
 -1       737 1.57411E+01-3.66596E+00 1.08067E-01 6.19357E+00 1.67855E-13-1.28855E-13
 -1       738 2.69358E+01 6.00033E+00-1.43404E-01-6.59323E-01-4.58501E-13-5.01769E-14
 -1       739 2.77517E+01 3.61391E+00-1.51928E-01-2.08824E+00-4.04142E-13 1.80054E-13
 -1       740 2.78574E+01 2.54299E-02-9.75708E-02-1.79697E+00-3.33334E-13 3.23991E-13
 -1       741 2.75064E+01 5.13066E+00-1.53049E-01 1.18164E+00 5.05998E-13 1.92736E-13
 -1       742 1.10499E+01-9.76251E-01 1.22730E-01 4.06815E+00-9.02247E-14 2.75578E-13
 -1       743 2.60314E+01-4.45128E+00-1.44913E-02-2.00967E+00 1.38292E-13 3.27863E-14
 -1       744 1.57759E+01-3.32898E+00 9.71342E-02 5.72744E+00-1.49526E-13 2.00527E-13
 -1       745 1.51495E+01-3.25958E+00 9.86968E-02-6.02659E+00 3.19994E-13 6.58872E-13
 -1       746 2.00268E+01 2.30689E+00-1.62704E-03-5.38511E-01-1.12608E-13-3.14721E-13
 -1       747 1.95723E+01 2.92479E+00-1.32247E-03-5.71212E-02 8.15649E-14-3.28465E-13
 -1       748 1.98516E+01-4.46243E+00 5.17857E-02 5.29879E+00 1.93116E-13 1.22603E-13
 -1       749 2.00032E+01 9.37852E-03-3.21144E-06 4.22873E-05 3.10300E-13 4.66100E-13
 -1       750 1.10511E+01 4.10222E-01 8.05964E-02 1.81398E+00 7.41161E-15 2.24029E-13
 -1       751 2.68641E+01 2.88517E+00-1.10559E-01 2.40188E+00 3.56180E-13 5.03111E-13
 -1       752 2.00033E+01 6.34483E-03-1.09024E-06-1.34856E-03-7.99602E-14 4.98779E-13
 -1       753 2.43365E+01-4.82808E+00 7.87670E-03-2.85581E+00-3.37152E-13 1.45663E-13
 -1       754 2.49181E+01-4.79826E+00 6.01214E-03 2.79450E+00 3.46563E-14 2.12285E-13
 -1       755 2.71681E+01-2.21939E+00-5.07319E-02-7.21168E-01-2.44993E-13 2.22955E-13
 -1       756 1.96569E+01 2.81982E+00-1.36752E-03-2.13177E-01 1.46741E-14-3.10696E-13
 -1       757 1.86346E+01-3.79219E+00 4.87479E-02-5.21286E+00-3.51250E-13-1.21535E-13
 -1       758 1.01153E+01 2.95827E-01 1.06252E-01-1.36662E+00-3.63724E-14-4.82909E-13
 -1       759 2.02036E+01 1.61613E+00 2.57325E-04 2.20840E-01 2.27656E-13-1.20243E-13
 -1       760 1.96142E+01-3.11005E+00 4.25938E-02 4.25448E+00-4.05977E-13-5.07355E-14
 -1       761 2.02061E+01 8.00902E-01 8.82578E-05 5.55009E-01-6.19161E-14-2.13354E-13
 -1       762 2.01604E+01 6.20719E-01 3.30349E-05 8.27647E-01-6.09230E-14-1.73928E-13
 -1       763 2.01313E+01 4.66479E-01 4.07614E-05 1.06267E+00-4.60164E-14-1.48317E-13
 -1       764 2.01419E+01 2.93338E-01 4.57714E-05 1.26887E+00 7.85674E-15-8.85832E-14
 -1       765 2.02238E+01 5.58449E-02 5.05273E-05 1.44695E+00 5.88739E-14-5.27485E-14
 -1       766 2.04227E+01-2.91353E-01 2.67754E-05 1.58548E+00 6.10097E-14 6.28577E-15
 -1       767 2.08022E+01-7.85057E-01-2.52408E-04 1.65211E+00-2.75360E-16 4.60885E-14
 -1       768 2.14366E+01-1.42636E+00-4.37228E-04 1.58112E+00 5.22128E-14 7.75622E-14
 -1       769 2.23886E+01-2.13230E+00-8.55653E-05 1.25442E+00 4.88622E-14 4.71505E-14
 -1       770 2.36203E+01-2.62554E+00-1.54165E-03 5.19347E-01-2.21188E-14 1.18890E-13
 -1       771 2.48711E+01-2.35142E+00-5.19241E-03-6.49612E-01-1.62985E-13 3.15734E-13
 -1       772 2.55358E+01 2.32216E+00-9.90187E-02-2.26560E+00-2.52486E-13 1.65153E-13
 -1       773 2.54657E+01-1.09104E+00-3.50754E-02 1.68355E+00 9.55468E-14-5.00879E-13
 -1       774 2.45900E+01-2.46445E+00-4.18786E-03 4.57717E-01 1.62838E-13-3.54871E-13
 -1       775 2.32976E+01-2.47937E+00-1.53576E-03-6.07891E-01 6.26083E-15-2.00533E-13
 -1       776 2.21179E+01-1.90274E+00-7.46156E-04-1.21848E+00 6.16267E-14-1.53277E-13
 -1       777 2.12322E+01-1.19986E+00-4.71242E-04-1.46097E+00 5.03894E-14-1.30209E-13
 -1       778 2.06452E+01-5.95536E-01-1.30242E-04-1.48208E+00 9.12764E-14-2.97609E-13
 -1       779 2.02905E+01-1.53820E-01 8.09424E-06-1.38861E+00-4.27082E-14-3.83168E-13
 -1       780 2.00943E+01 1.32985E-01 6.21468E-05-1.24280E+00 1.37849E-13-4.17664E-13
 -1       781 1.99974E+01 2.96829E-01 6.78638E-05-1.07838E+00 1.08278E-13-4.07374E-13
 -1       782 1.99581E+01 3.72440E-01 6.03769E-05-9.13404E-01-6.93679E-14-2.17057E-13
 -1       783 1.99497E+01 3.89573E-01 5.04381E-05-7.57780E-01-1.25323E-13 1.11871E-13
 -1       784 1.99559E+01 3.71059E-01 4.11236E-05-6.16786E-01-1.34667E-13-9.74480E-14
 -1       785 1.99675E+01 3.33195E-01 3.23275E-05-4.92909E-01 1.20319E-13-2.89763E-13
 -1       786 1.99796E+01 2.86948E-01 2.47726E-05-3.86812E-01 2.55561E-13-3.93055E-13
 -1       787 1.99901E+01 2.39267E-01 1.91336E-05-2.97973E-01 2.59688E-13-4.29283E-13
 -1       788 1.99981E+01 1.94277E-01 1.51909E-05-2.25109E-01 4.08823E-14-2.51663E-13
 -1       789 2.00036E+01 1.54160E-01 1.21081E-05-1.66478E-01-4.04143E-14-1.55919E-13
 -1       790 2.00070E+01 1.19787E-01 9.04189E-06-1.20143E-01 4.48331E-14-4.05635E-13
 -1       791 2.00087E+01 9.12143E-02 6.32339E-06-8.41720E-02 1.92343E-13-4.08327E-13
 -1       792 2.00091E+01 6.80293E-02 4.25834E-06-5.67555E-02 3.89604E-14-2.47924E-13
 -1       793 2.00086E+01 4.95771E-02 2.62806E-06-3.62722E-02-2.76061E-14-1.29710E-13
 -1       794 2.00076E+01 3.50900E-02 2.10240E-06-2.13227E-02 8.13306E-14 3.01336E-13
 -1       795 2.00063E+01 2.37765E-02 5.08869E-06-1.07591E-02-8.10591E-14 4.29149E-13
 -1       796 2.00048E+01 1.48111E-02 6.89509E-06-3.63193E-03-4.86422E-13 3.91003E-13
 -1       797 1.99278E+01 3.13038E-01-2.26349E-06-1.94493E+00 2.53131E-14-7.11083E-14
 -1       798 1.99266E+01 5.11236E-01 1.10186E-04-1.68034E+00 5.30847E-14-1.24233E-13
 -1       799 2.04173E+01-7.28617E-01 7.95981E-04-2.45158E+00-8.53720E-14 7.16833E-14
 -1       800 2.12208E+01-1.74055E+00 2.35377E-03-2.58665E+00-1.62296E-13 5.66663E-14
 -1       801 2.27035E+01-2.99796E+00 1.76151E-02-2.41983E+00-2.05226E-13 1.12720E-13
 -1       802 1.43267E+01-1.43216E+00 6.06300E-02-4.64014E+00 2.00387E-13 4.86385E-13
 -1       803 1.09813E+01-6.23846E-02 8.93047E-02 2.74699E+00 1.89442E-13-3.85286E-13
 -1       804 2.15843E+01-1.90319E+00-1.94876E-03 2.35153E+00-6.79012E-14-1.94740E-13
 -1       805 2.06292E+01-8.35315E-01 4.01107E-04 2.30266E+00 1.21673E-13-3.23049E-14
 -1       806 2.01733E+01-1.20471E-01 1.50840E-06 2.07795E+00 3.58079E-15 6.09005E-14
 -1       807 1.99859E+01 2.93012E-01 1.53884E-04 1.81532E+00 9.69080E-14-7.81224E-14
 -1       808 1.99334E+01 4.95689E-01 1.56272E-04 1.55275E+00-1.82326E-13-1.75772E-13
 -1       809 1.99404E+01 5.64217E-01 1.56795E-04 1.30564E+00-1.71253E-13-3.42092E-13
 -1       810 1.99669E+01 5.55004E-01 1.41862E-04 1.08043E+00-3.90032E-14-2.97447E-13
 -1       811 1.99941E+01 5.05414E-01 1.23712E-04 8.80052E-01 9.77832E-14-3.03957E-14
 -1       812 2.00150E+01 4.38609E-01 1.02851E-04 7.05632E-01 1.81924E-13 3.33295E-14
 -1       813 2.00282E+01 3.68118E-01 8.31052E-05 5.56896E-01 7.75590E-14-8.46495E-14
 -1       814 2.00348E+01 3.01268E-01 6.56207E-05 4.32478E-01-7.14324E-15-1.21068E-13
 -1       815 2.00364E+01 2.41566E-01 5.08440E-05 3.30253E-01-7.22523E-14-9.84115E-14
 -1       816 2.00349E+01 1.90274E-01 3.92062E-05 2.47684E-01-1.57026E-13 6.47523E-14
 -1       817 2.00315E+01 1.47435E-01 3.01592E-05 1.82087E-01-2.06008E-13 3.35994E-13
 -1       818 2.00272E+01 1.12454E-01 2.26860E-05 1.30800E-01-3.34498E-13 6.59726E-13
 -1       819 2.00227E+01 8.44161E-02 1.66767E-05 9.13275E-02-1.75961E-13 6.62179E-13
 -1       820 2.00185E+01 6.22906E-02 1.19827E-05 6.14426E-02 4.53761E-14 5.90269E-13
 -1       821 2.00146E+01 4.50583E-02 8.64129E-06 3.92224E-02 2.06590E-14 1.94999E-13
 -1       822 2.00111E+01 3.17585E-02 6.29416E-06 2.30444E-02 4.53870E-14 4.71578E-13
 -1       823 2.00082E+01 2.15303E-02 4.45001E-06 1.16365E-02-1.03538E-13 9.30742E-13
 -1       824 2.00058E+01 1.35655E-02 4.42517E-06 3.94248E-03-8.61407E-14 1.06433E-12
 -1       825 2.00044E+01 9.88258E-03-1.61745E-05 8.22654E-04-7.48523E-14 1.01812E-12
 -1       826 2.33300E+01-4.38950E+00 1.01890E-03-2.99076E+00 1.83686E-13-1.87858E-14
 -1       827 1.96862E+01 2.39603E+00-2.67811E-04 8.27028E-02 1.44851E-13-2.52878E-13
 -1       828 2.00030E+01 1.94498E-02-6.70439E-06-3.92076E-03-3.77581E-13 1.16132E-14
 -1       829 1.55976E+01-1.40849E+00 5.02704E-02 4.23040E+00-1.56351E-13-3.33605E-14
 -1       830 1.99992E+01 2.75443E-02-6.18640E-06 1.20756E-04 2.31059E-13-3.19122E-13
 -1       831 2.61568E+01 2.52884E-01-4.75601E-02 2.23680E+00-1.22603E-13-4.71132E-13
 -1       832 2.00012E+01 2.37355E-02-3.31816E-06-3.49563E-03-5.52406E-14-5.52635E-13
 -1       833 2.31647E+01-3.16049E+00-1.10627E-02 2.03759E+00-2.15932E-13-3.33114E-13
 -1       834 2.00505E+01-6.86012E-02-7.59877E-05-2.21026E+00-3.02489E-14-2.92456E-14
 -1       835 2.01353E+01 7.24470E-01 8.14747E-05-8.76267E-01 1.27607E-13-7.57486E-14
 -1       836 2.70779E+01-2.74875E+00-7.59038E-02 8.06776E-01-1.42326E-13 4.49333E-13
 -1       837 2.02510E+01 1.04762E+00-6.57183E-05 2.30865E-01-1.04000E-13-2.23719E-13
 -1       838 1.38085E+01-1.21527E+00 7.92391E-02-4.32693E+00-2.26267E-13-4.18561E-13
 -1       839 1.94701E+01-3.52620E+00 4.52835E-02-4.72194E+00 3.55296E-13 3.26961E-13
 -1       840 1.45283E+01-1.82398E+00 7.90039E-02 4.93195E+00 2.32953E-13-6.07431E-14
 -1       841 1.12660E+01 3.00534E-01 7.75378E-02-2.31121E+00 3.73226E-15 3.39912E-13
 -1       842 1.99997E+01 2.65514E-02-6.99081E-06-1.99143E-03 2.06848E-13-2.51755E-13
 -1       843 2.36095E+01-4.00922E+00 2.38344E-02 2.45994E+00-2.85402E-13-4.66383E-13
 -1       844 2.61525E+01-3.08277E+00-1.94562E-02 1.50891E-01 2.20772E-13-4.41723E-13
 -1       845 2.03427E+01 1.20367E+00 1.78444E-04 1.03707E-01 2.22244E-13-4.94371E-14
 -1       846 1.96531E+01 2.43892E+00-2.57316E-04 2.60455E-02 9.01822E-14-2.66880E-13
 -1       847 2.19674E+01-4.00865E+00 4.27367E-02-3.68616E+00-3.70752E-13 2.10324E-15
 -1       848 1.99999E+01 2.65401E-02-1.07576E-06 2.21260E-03 2.84274E-13-7.27170E-13
 -1       849 2.27217E+01-4.47264E+00 1.78913E-02 3.59199E+00 1.43965E-13 9.73800E-14
 -1       850 2.00203E+01 1.93917E+00 5.38089E-04-1.81547E-01-6.61076E-14-2.52322E-13
 -1       851 1.99883E+01 1.98007E+00 2.70671E-04 1.88468E-01 2.01262E-13-1.75604E-13
 -1       852 2.00034E+01 1.93802E-02 1.91999E-06 3.94900E-03-3.00682E-14 3.11617E-13
 -1       853 1.42491E+01 5.59818E-03 3.23695E-02 2.93216E+00-5.49014E-14 1.43639E-13
 -1       854 2.56127E+01-6.71032E-01-3.74999E-02-1.89720E+00-1.99054E-13 3.60645E-13
 -1       855 2.57252E+01 1.77031E+00-7.30143E-02 2.32296E+00-1.97339E-13-3.30635E-13
 -1       856 2.00551E+01 6.61552E-01 1.21982E-04-1.15488E+00 5.18567E-14-3.84783E-14
 -1       857 1.99804E+01 6.06640E-01 1.37352E-04-1.41902E+00 1.43806E-15-5.96976E-14
 -1       858 2.02130E+01 8.38564E-01 5.72710E-05-5.66668E-01 1.34290E-13-5.11973E-14
 -1       859 1.17075E+01 7.07897E-01 5.82563E-02 5.33312E-01 5.22016E-14-2.87353E-13
 -1       860 1.98030E+01 2.24289E+00 1.73923E-06 1.38230E-01 1.95106E-13-2.28967E-13
 -1       861 2.00014E+01 2.36877E-02 2.20473E-06 3.62876E-03 2.21408E-13-2.91048E-13
 -1       862 2.02879E+01 9.76103E-01 1.02511E-04-2.59557E-01 1.62992E-13-4.26347E-14
 -1       863 1.98311E+01 2.20903E+00-2.37915E-04-1.06552E-01-7.67727E-15-2.96704E-13
 -1       864 2.59046E+01-3.51741E+00-1.11336E-02 5.27326E-01-3.38197E-14 1.44731E-13
 -1       865 1.20373E+01 8.97933E-01 4.59691E-02-1.62660E-01 8.09449E-15 3.50660E-13
 -1       866 2.02225E+01 1.63472E+00 1.38621E-03-2.69998E-01-1.19591E-13-2.71000E-13
 -1       867 1.76709E+01-2.87340E+00 5.13726E-02 4.90842E+00 2.57009E-13-2.79898E-14
 -1       868 1.71257E+01-2.13392E+00 4.31497E-02-4.50777E+00-2.78227E-13-1.04377E-13
 -1       869 1.29368E+01 1.93942E-02 6.03099E-02-2.81095E+00-1.34322E-13-4.41865E-13
 -1       870 1.98765E+01 7.53365E-01-1.69101E-05 8.90604E-01-3.12258E-14-1.39560E-13
 -1       871 1.97753E+01 5.80985E-01 1.32042E-05 1.13441E+00 1.50970E-14-1.10044E-13
 -1       872 1.97041E+01 3.72480E-01 5.58622E-05 1.38028E+00 5.37011E-14-1.07068E-13
 -1       873 1.97053E+01 7.43151E-02 1.72834E-04 1.63757E+00 9.32870E-14-1.46497E-13
 -1       874 1.98442E+01-3.72293E-01 3.75016E-04 1.90701E+00 9.31006E-14-1.29011E-13
 -1       875 2.02227E+01-1.02590E+00-9.06276E-05 2.16049E+00 3.96089E-14-9.37115E-14
 -1       876 2.09765E+01-1.90609E+00 2.68394E-04 2.32582E+00 9.60745E-14-5.41951E-14
 -1       877 2.22968E+01-2.93065E+00 5.00051E-03 2.18700E+00 8.62451E-14 3.62869E-14
 -1       878 2.36521E+01-3.47432E+00 1.07775E-02-1.59019E+00 2.46552E-13-4.71802E-13
 -1       879 2.18714E+01-2.61275E+00 3.86246E-03-2.14531E+00 1.31356E-13-1.56361E-13
 -1       880 2.06895E+01-1.60644E+00 5.60246E-04-2.17176E+00 7.41761E-14-4.60041E-14
 -1       881 2.00065E+01-7.82090E-01 3.71330E-04-1.97082E+00-1.03652E-13 2.04747E-14
 -1       882 1.96587E+01-1.94955E-01 1.53527E-04-1.70357E+00-7.39255E-15 1.13020E-14
 -1       883 1.95198E+01 1.81413E-01 1.35457E-04-1.43842E+00 8.99572E-15 4.47744E-14
 -1       884 1.94985E+01 3.97962E-01 8.67428E-05-1.19838E+00 1.83228E-13-1.51661E-14
 -1       885 1.95387E+01 5.00928E-01 5.21842E-05-9.87957E-01 9.90560E-14-3.49569E-14
 -1       886 1.96061E+01 5.27943E-01 2.96414E-05-8.06152E-01 1.12187E-13 1.54566E-13
 -1       887 1.96806E+01 5.07613E-01 1.77704E-05-6.50480E-01-1.34257E-13 1.65136E-13
 -1       888 1.97515E+01 4.60529E-01 1.01267E-05-5.18390E-01-1.32911E-13 2.80311E-13
 -1       889 1.98137E+01 4.00891E-01 3.24921E-06-4.07509E-01 1.21432E-13 1.57667E-13
 -1       890 1.98653E+01 3.37955E-01-1.15439E-07-3.15569E-01 1.21661E-13-3.01920E-14
 -1       891 1.99064E+01 2.77438E-01 4.88914E-07-2.40415E-01 1.18472E-13-1.81025E-13
 -1       892 1.99379E+01 2.22607E-01 2.45410E-06-1.79877E-01-4.15123E-14-4.71084E-13
 -1       893 1.99612E+01 1.74965E-01 2.32415E-06-1.31815E-01-4.81711E-14-5.87767E-13
 -1       894 1.99778E+01 1.34845E-01 7.06676E-07-9.42329E-02-2.01303E-16-6.18867E-13
 -1       895 1.99892E+01 1.01894E-01-3.59445E-07-6.53209E-02 9.30471E-14-9.84626E-13
 -1       896 1.99965E+01 7.53847E-02-9.07260E-07-4.34737E-02 2.91475E-13-5.51801E-13
 -1       897 2.00008E+01 5.44062E-02-4.41000E-07-2.72973E-02 3.20029E-13-1.89456E-13
 -1       898 2.00029E+01 3.80065E-02 3.71269E-06-1.56664E-02 2.01927E-13-2.52267E-13
 -1       899 2.00032E+01 2.80212E-02 4.18474E-06-8.81872E-03-1.39047E-13 7.38061E-14
 -1       900 1.91229E+01 6.82126E-01-6.78934E-05-1.70926E+00 6.97833E-15-1.79236E-13
 -1       901 1.94875E+01-2.16930E+00 1.46124E-02-3.68573E+00-2.24110E-13-1.25754E-13
 -1       902 1.88751E+01-8.48372E-01 5.69777E-03-3.03960E+00-9.67766E-14-1.82218E-13
 -1       903 1.88066E+01-1.00881E-01 2.23011E-03 2.43583E+00 5.86506E-14 4.21564E-14
 -1       904 1.41909E+01-3.70400E-01 3.82057E-02 3.33348E+00 1.42861E-13-1.91737E-13
 -1       905 1.90924E+01-1.00698E+00 6.22575E-03 2.99174E+00-1.14644E-13-1.23775E-14
 -1       906 1.90078E+01 6.70825E-01 1.58860E-04 1.62752E+00 3.95623E-14 6.25625E-14
 -1       907 1.91996E+01 7.64654E-01 8.28593E-05 1.34084E+00-9.69793E-14-4.47195E-14
 -1       908 1.93823E+01 7.60365E-01 3.78884E-05 1.10371E+00-2.05556E-13-1.99413E-14
 -1       909 1.95393E+01 7.02239E-01 2.70313E-05 9.02756E-01-4.03863E-14-1.47974E-13
 -1       910 1.96666E+01 6.18617E-01 1.78660E-05 7.30971E-01 6.22083E-14-1.79323E-13
 -1       911 1.97654E+01 5.27000E-01 1.12153E-05 5.84488E-01 1.60702E-13-2.58701E-15
 -1       912 1.98399E+01 4.37583E-01 7.23619E-06 4.60776E-01 1.02884E-14 3.63571E-13
 -1       913 1.98946E+01 3.55821E-01 5.24291E-06 3.57661E-01-1.76345E-14 4.19590E-13
 -1       914 1.99337E+01 2.84107E-01 3.94226E-06 2.72966E-01-5.89466E-14 3.14184E-13
 -1       915 1.99610E+01 2.23069E-01 3.71504E-06 2.04518E-01-2.35540E-13 1.68593E-13
 -1       916 1.99795E+01 1.72382E-01 2.71680E-06 1.50096E-01-4.05472E-13 2.23949E-13
 -1       917 1.99916E+01 1.31141E-01 1.98031E-06 1.07505E-01-3.30451E-13 4.23657E-13
 -1       918 1.99991E+01 9.81501E-02 1.30213E-06 7.47082E-02-1.65871E-13 3.57828E-13
 -1       919 2.00033E+01 7.21293E-02 5.24258E-07 4.98935E-02 1.83693E-13 7.31330E-13
 -1       920 2.00053E+01 5.18504E-02 1.54166E-06 3.14968E-02-1.33863E-14 4.86088E-13
 -1       921 2.00058E+01 3.61169E-02-1.65275E-05 1.81134E-02-1.68162E-13 6.10399E-13
 -1       922 2.00053E+01 2.40579E-02 1.26867E-05 8.75762E-03-2.49511E-13 5.50954E-13
 -1       923 2.00001E+01 3.42639E-02-4.07456E-06-7.44006E-03 2.82136E-14-7.68947E-13
 -1       924 2.00043E+01 1.44260E-02 4.26095E-06 2.69394E-03 7.22375E-14 4.48411E-13
 -1       925 1.88493E+01 4.10374E-01 5.08429E-04 1.98602E+00 7.51064E-14-5.98290E-14
 -1       926 1.76327E+01-1.88845E+00 2.19074E-02-4.10035E+00 3.47510E-13 2.63629E-13
 -1       927 1.97035E+01 2.37561E+00-3.17038E-04-3.57104E-02 4.97746E-14-2.76207E-13
 -1       928 1.99788E+01 9.38072E-01-1.24025E-05 6.36708E-01-3.92920E-14-1.64355E-13
 -1       929 2.00561E+01 1.18132E+00-5.27820E-04 3.54966E-01-7.96002E-14-1.82663E-13
 -1       930 2.10124E+01-3.24574E+00 1.96948E-02-3.45683E+00 3.58946E-13 1.46078E-13
 -1       931 1.99645E+01 1.64991E+00-9.26499E-04 9.26054E-02-5.64338E-14-2.28184E-13
 -1       932 1.40870E+01-1.16297E-01 3.03874E-02-3.13296E+00 6.31049E-14 3.22701E-13
 -1       933 2.01741E+01 1.30205E+00-3.05443E-05-1.24386E-01 1.57806E-13-9.94492E-14
 -1       934 1.99967E+01 4.08047E-02-3.89381E-06 2.23700E-03 2.69761E-13-6.04440E-13
 -1       935 2.43476E+01-3.86671E+00-1.52584E-03 1.65653E+00 6.37832E-14 9.76440E-14
 -1       936 1.38284E+01 8.26245E-01 1.52081E-02 1.48111E+00 7.15476E-14 2.14263E-13
 -1       937 1.53422E+01-7.55787E-01 4.36515E-02-3.67935E+00-2.66612E-13-2.16408E-13
 -1       938 1.97936E+01 9.25325E-01 1.47704E-05-9.03533E-01 8.45611E-14-1.57532E-13
 -1       939 1.93660E+01 8.00397E-01 5.82202E-05-1.42179E+00 4.77636E-14-1.92145E-13
 -1       940 1.99549E+01 1.03269E+00 1.14827E-04-6.31775E-01 1.42452E-13-1.71808E-13
 -1       941 1.87655E+01-2.91419E-02 1.03649E-03-2.48658E+00-8.16590E-14-1.67565E-13
 -1       942 1.62839E+01-1.26803E+00 3.06287E-02 3.95026E+00 1.38664E-13-4.86434E-14
 -1       943 1.37715E+01 5.78593E-01 2.92811E-02 1.78333E+00 5.67749E-14-2.71509E-13
 -1       944 1.99977E+01 3.84851E-02-5.76898E-06-4.41964E-03 2.20170E-13-7.02033E-13
 -1       945 2.00020E+01 3.29780E-02-1.11712E-05 9.34863E-03-1.02336E-13 2.36061E-13
 -1       946 2.03836E+01-3.38791E+00 2.57471E-02 4.06629E+00 1.72879E-13 3.02276E-15
 -1       947 1.89000E+01 4.36636E-01-3.80932E-04-2.05297E+00-1.82165E-15-1.24080E-13
 -1       948 1.31144E+01 7.66424E-01 2.97330E-02-1.12889E+00-5.08507E-15-2.56563E-13
 -1       949 1.97378E+01 1.93983E+00-4.54772E-04-2.28626E-02 1.46548E-13-2.07093E-13
 -1       950 1.99966E+01 4.05298E-02-1.79085E-06-1.23784E-03 4.47842E-13 6.46022E-14
 -1       951 1.36417E+01 7.87661E-01 2.32178E-02-1.49941E+00 1.34844E-13 3.45178E-13
 -1       952 1.70372E+01-1.18221E-01 1.70549E-02 2.88103E+00-6.68680E-14-2.73458E-13
 -1       953 1.96660E+01 2.03136E+00-1.82664E-05 1.92919E-02 1.19511E-13-2.08036E-13
 -1       954 1.96828E+01 2.01346E+00 2.38584E-04 5.18312E-02 6.38028E-14-2.46224E-13
 -1       955 1.93020E+01 7.10152E-01-1.14711E-04 1.13669E+00 5.13437E-14-8.71190E-14
 -1       956 1.91042E+01 4.92218E-01-2.90130E-05 1.43070E+00 5.94233E-14-1.01152E-13
 -1       957 1.89537E+01 1.68691E-01 5.04909E-04 1.79039E+00 5.38489E-14-6.96629E-14
 -1       958 1.89150E+01-3.31982E-01 7.80692E-04 2.24642E+00 5.48021E-14-8.35821E-14
 -1       959 1.91653E+01-1.11970E+00-4.54404E-03 2.77823E+00 8.71980E-14-3.42332E-14
 -1       960 1.95947E+01 8.63307E-01 4.72252E-05-1.16078E+00 3.31245E-14-1.84861E-13
 -1       961 1.95348E+01-1.86868E+00 9.54008E-03-3.15302E+00 1.81042E-13 2.08678E-13
 -1       962 1.89374E+01-8.29502E-01 5.60628E-04-2.55831E+00 1.22446E-13 3.18417E-13
 -1       963 1.87406E+01-1.28736E-01 6.03501E-04-2.02557E+00-1.33937E-14 4.12416E-13
 -1       964 1.87619E+01 2.98671E-01 1.68910E-04-1.59785E+00-5.21626E-14 3.62167E-13
 -1       965 1.88808E+01 5.41263E-01 4.82697E-05-1.26275E+00 5.45830E-14 1.48256E-13
 -1       966 1.90398E+01 6.54680E-01-1.59329E-06-1.00051E+00 4.50688E-14 2.04438E-13
 -1       967 1.92063E+01 6.81914E-01-2.00044E-05-7.93505E-01 1.61017E-13 1.20672E-13
 -1       968 1.93633E+01 6.54865E-01-2.13275E-05-6.28097E-01 1.34110E-13 3.71366E-14
 -1       969 1.95024E+01 5.96338E-01-1.74684E-05-4.94600E-01 6.56494E-14 2.22023E-13
 -1       970 1.96208E+01 5.22330E-01-1.68407E-05-3.86414E-01-1.64068E-13 2.87618E-13
 -1       971 1.97181E+01 4.43800E-01-1.54723E-05-2.98752E-01 3.21875E-14 2.35405E-13
 -1       972 1.97960E+01 3.67405E-01-1.23550E-05-2.28104E-01-1.13343E-13 5.99619E-14
 -1       973 1.98566E+01 2.97434E-01-3.30683E-06-1.71653E-01-1.49551E-13-1.09879E-13
 -1       974 1.99027E+01 2.36025E-01 1.32694E-07-1.26965E-01-1.90737E-13-2.84918E-13
 -1       975 1.99367E+01 1.83751E-01-2.18515E-06-9.19635E-02 1.60137E-14-3.64799E-13
 -1       976 1.99612E+01 1.40387E-01-2.97837E-06-6.49351E-02-1.95238E-14-2.70712E-13
 -1       977 1.99782E+01 1.05149E-01-3.11025E-06-4.43814E-02 2.68245E-13-2.08028E-13
 -1       978 1.99894E+01 7.70505E-02-1.36592E-06-2.90220E-02 3.95909E-13-4.32982E-13
 -1       979 1.99962E+01 5.50038E-02-8.16878E-07-1.78694E-02 2.50044E-13-4.96251E-13
 -1       980 1.99985E+01 4.39916E-02-2.31781E-06-1.19589E-02 3.15098E-13-5.36272E-13
 -1       981 1.99436E+01 1.58817E+00-1.51240E-04-1.28707E-01 1.63948E-13-1.89025E-13
 -1       982 1.73996E+01 6.31187E-01-2.00863E-03 1.96339E+00 1.40260E-13-1.90292E-13
 -1       983 1.87321E+01 9.62722E-01-1.73280E-04 9.91410E-01-1.72065E-13-8.03739E-14
 -1       984 1.83621E+01 9.73087E-01-1.25890E-04 1.21695E+00-1.93041E-14-2.96855E-14
 -1       985 1.92749E+01 7.96888E-01-7.72186E-05 6.64388E-01-1.21683E-14-1.35836E-13
 -1       986 1.94645E+01 6.87666E-01-5.90592E-05 5.38588E-01-2.63456E-14-4.73421E-14
 -1       987 1.96113E+01 5.78646E-01-4.50777E-05 4.31325E-01-2.08225E-13 3.42608E-13
 -1       988 1.97232E+01 4.76768E-01-3.19449E-05 3.40517E-01-4.50110E-14 3.96538E-13
 -1       989 1.98073E+01 3.85735E-01-1.23162E-05 2.64477E-01 6.07685E-14 5.09444E-13
 -1       990 1.98694E+01 3.06742E-01-5.35145E-06 2.01778E-01-1.42208E-13 5.74921E-13
 -1       991 1.99145E+01 2.39983E-01-8.95094E-06 1.50975E-01-5.35952E-13 7.46907E-13
 -1       992 1.99466E+01 1.84855E-01-7.52256E-06 1.10485E-01-5.40738E-13 7.66648E-13
 -1       993 1.99689E+01 1.40124E-01-4.18646E-06 7.87636E-02-3.23864E-13 7.14115E-13
 -1       994 1.99838E+01 1.04444E-01-4.52707E-06 5.43349E-02-1.35199E-13 5.17893E-13
 -1       995 1.99934E+01 7.62478E-02-7.90519E-06 3.58988E-02 2.01035E-13 5.53554E-13
 -1       996 1.99991E+01 5.43113E-02 2.88276E-06 2.22434E-02-2.22367E-13 4.33034E-13
 -1       997 1.99985E+01 3.80094E-02-1.16383E-05 6.05108E-03 4.45963E-14-4.40691E-13
 -1       998 2.00858E+01 1.13428E+00 9.42768E-05-3.99911E-01 1.55656E-13-1.39163E-13
 -1       999 1.79180E+01 8.85738E-01 2.07525E-04 1.52042E+00-4.47296E-14-1.56758E-13
 -1      1000 1.74131E+01-8.74291E-01 1.62862E-02-3.43327E+00-1.89671E-13-1.68247E-13
 -1      1001 1.96883E+01 1.05326E+00-1.10704E-04 6.50568E-01-2.11438E-14-1.39500E-13
 -1      1002 1.97853E+01 1.88910E+00 1.72449E-04 7.63916E-02 1.46587E-14-2.24561E-13
 -1      1003 1.66716E+01-5.25165E-01 8.04463E-03-3.10827E+00 1.79563E-13 2.20284E-13
 -1      1004 1.95061E+01 8.79891E-01-9.85715E-05 8.83561E-01 2.36112E-14-1.10277E-13
 -1      1005 1.90338E+01 8.94738E-01-1.04761E-04 8.12653E-01 7.19637E-14-2.30511E-13
 -1      1006 1.98320E+01 1.26948E+00 1.90887E-04 4.18503E-01-3.57605E-14-1.63905E-13
 -1      1007 1.86332E+01 9.89880E-01 1.21434E-05-1.25927E+00 1.35417E-14-1.85746E-13
 -1      1008 1.44163E+01 3.39375E-01 2.22572E-02-2.36514E+00-1.26438E-13-3.15575E-13
 -1      1009 1.56527E+01 4.25681E-01 1.01278E-02-2.17473E+00 5.92206E-14 5.09835E-14
 -1      1010 1.98848E+01-2.24501E+00 3.06670E-03 3.35754E+00 1.45983E-13-9.15198E-14
 -1      1011 1.93761E+01 1.09570E+00-3.47389E-05-8.16166E-01 7.82518E-14-1.57838E-13
 -1      1012 1.96365E+01 1.18587E+00-2.52314E-05-6.03397E-01 9.06767E-14-1.44271E-13
 -1      1013 1.99949E+01 4.97232E-02-3.01700E-06-7.38624E-03 2.61047E-13-8.29338E-13
 -1      1014 1.76303E+01 2.65007E-02 2.44289E-03-2.62061E+00-8.45842E-14-1.92391E-13
 -1      1015 1.57089E+01 1.91643E-02 1.37283E-02 2.62877E+00 8.50379E-14-9.60790E-14
 -1      1016 1.97244E+01 1.54269E+00 1.87526E-05-2.32579E-01 1.19975E-13-1.73102E-13
 -1      1017 1.99929E+01 5.59258E-02-8.01429E-07 7.32599E-03 1.48798E-13-3.23984E-13
 -1      1018 1.42183E+01 1.13175E+00 8.79989E-03 1.01668E-01 9.24740E-14 2.86458E-13
 -1      1019 1.99947E+01 5.69337E-02 1.70266E-05 1.48304E-02-7.08023E-14-1.47808E-13
 -1      1020 1.40801E+01 9.80180E-01 1.17073E-02 2.94452E-01 5.62207E-14-2.91293E-13
 -1      1021 1.99916E+01 5.72586E-02 1.16340E-05 1.59011E-03 7.93610E-14-1.68655E-13
 -1      1022 1.96041E+01 1.67642E+00 2.60960E-04-8.69395E-02 1.13780E-13-1.77792E-13
 -1      1023 1.81471E+01 8.79055E-01-7.26503E-05-1.54523E+00-2.37381E-14-1.38949E-13
 -1      1024 1.56688E+01 9.83845E-01 7.75178E-03 1.41400E+00 4.50280E-14 9.96406E-14
 -1      1025 1.67012E+01 1.13102E+00-4.35830E-04 1.04810E+00-2.51527E-14 4.92048E-14
 -1      1026 1.62113E+01 1.57630E-01 1.47838E-02-2.65981E+00-1.01673E-13-2.31987E-13
 -1      1027 1.83285E+01 6.73815E-01-7.99536E-04 1.35938E+00 7.25911E-14-3.46898E-14
 -1      1028 1.79096E+01 3.76048E-01-3.87289E-04 1.82145E+00 4.76674E-14-8.14908E-15
 -1      1029 1.75286E+01-8.29783E-02 8.02058E-03 2.47754E+00 7.52272E-14-7.50702E-15
 -1      1030 1.90425E+01 1.04465E+00 4.78841E-06-1.02753E+00 5.89521E-14-2.17899E-13
 -1      1031 1.95416E+01 5.92336E-01-1.28618E-04 2.71061E-01-1.97882E-13 3.99908E-13
 -1      1032 1.77710E+01 5.21509E-01 1.00432E-04-1.63276E+00-7.75408E-14 7.50469E-14
 -1      1033 1.81333E+01 7.41721E-01-1.88784E-04-1.21745E+00-1.59742E-13 1.68791E-13
 -1      1034 1.84669E+01 8.39141E-01-2.86405E-04-9.17003E-01 9.96773E-14 1.29965E-13
 -1      1035 1.87648E+01 8.50269E-01-1.77468E-04-6.98353E-01 8.86810E-14 1.24327E-13
 -1      1036 1.90207E+01 8.08149E-01-1.41712E-04-5.35536E-01 4.27359E-14-2.94360E-14
 -1      1037 1.92367E+01 7.34415E-01-1.11710E-04-4.11579E-01 6.62029E-14-1.09336E-13
 -1      1038 1.94155E+01 6.44693E-01-9.31361E-05-3.15771E-01 7.45057E-15-2.35342E-13
 -1      1039 1.95613E+01 5.50005E-01-6.46155E-05-2.41251E-01-6.03574E-14-5.92152E-14
 -1      1040 1.96774E+01 4.58196E-01-5.09036E-05-1.82654E-01-1.35279E-13-2.08501E-13
 -1      1041 1.97681E+01 3.73687E-01 6.13675E-06-1.37185E-01-5.54901E-14 8.54879E-14
 -1      1042 1.98377E+01 2.98681E-01-2.16293E-05-1.01680E-01-1.89255E-13 2.89812E-13
 -1      1043 1.98899E+01 2.34586E-01-3.38237E-05-7.39372E-02-2.27071E-13 1.94683E-13
 -1      1044 1.99285E+01 1.80764E-01-2.12624E-05-5.27171E-02 8.84558E-14 1.57713E-13
 -1      1045 1.99558E+01 1.36836E-01-1.16362E-05-3.65866E-02 1.04952E-13 4.13153E-13
 -1      1046 1.99747E+01 1.01448E-01-2.53987E-06-2.45715E-02 1.53827E-13 5.31331E-14
 -1      1047 1.99870E+01 7.36212E-02 4.90581E-06-1.57241E-02 1.60804E-13-3.56933E-13
 -1      1048 1.99915E+01 6.10215E-02 2.64099E-05-1.09894E-02 2.27330E-13-5.89125E-13
 -1      1049 1.80751E+01 1.13721E+00-7.00895E-04 7.11704E-01-9.98327E-14 6.79436E-14
 -1      1050 1.98216E+01 1.29652E+00 7.98250E-05-4.25202E-01 1.33705E-13-1.64549E-13
 -1      1051 1.51867E+01 7.07106E-01 1.01694E-02 1.54648E+00 1.11176E-13-2.63297E-13
 -1      1052 1.90661E+01 1.00663E+00-4.03954E-04 7.78442E-01 6.88300E-14-1.30800E-13
 -1      1053 1.93739E+01 7.09832E-01-1.85030E-04 3.35839E-01-2.03562E-13 4.15094E-13
 -1      1054 1.91579E+01 8.32403E-01-2.26461E-04 4.09588E-01-2.59773E-13 3.17671E-13
 -1      1055 1.96699E+01 4.85677E-01-2.44520E-05 2.15412E-01-1.45952E-13 5.52779E-13
 -1      1056 1.97672E+01 3.90945E-01-7.66076E-08 1.67883E-01-3.39524E-13 7.60383E-13
 -1      1057 1.98397E+01 3.09538E-01-4.13351E-05 1.28182E-01-2.86603E-13 7.66829E-13
 -1      1058 1.98929E+01 2.41369E-01-5.08591E-05 9.58038E-02-2.03739E-13 4.95812E-13
 -1      1059 1.99314E+01 1.85075E-01-3.11631E-05 6.97994E-02-2.85792E-13-1.60967E-14
 -1      1060 1.99584E+01 1.39646E-01-1.11023E-05 4.94914E-02-2.23470E-14-8.15044E-14
 -1      1061 1.99766E+01 1.03654E-01 6.07892E-06 3.38785E-02-9.50358E-14-1.18934E-13
 -1      1062 1.99876E+01 7.77489E-02 1.14754E-05 2.32222E-02 2.67980E-13-7.64526E-14
 -1      1063 1.96420E+01 1.46966E+00 2.44775E-04 2.86649E-01-9.14297E-15-1.47067E-13
 -1      1064 1.75750E+01 6.45960E-01-6.15875E-04-1.93892E+00 2.76166E-14-1.42148E-13
 -1      1065 1.99927E+01 5.43345E-02 2.33459E-05-3.35375E-03 3.09074E-14-1.72304E-13
 -1      1066 1.74826E+01 1.16967E+00-6.09296E-04 8.46088E-01-9.76784E-14 3.00142E-14
 -1      1067 1.93560E+01 1.14825E+00-4.94115E-05 5.74790E-01 7.00190E-15-1.63282E-13
 -1      1068 1.87192E+01 8.65381E-01-6.38085E-04 1.03034E+00 7.11482E-14-1.06505E-13
 -1      1069 1.95733E+01 1.70673E+00-8.00950E-04 5.97612E-02 9.42517E-14-1.79129E-13
 -1      1070 1.95148E+01 1.29361E+00-9.08031E-05 4.27430E-01 4.14682E-15-1.39886E-13
 -1      1071 1.74566E+01 5.63053E-02 3.52743E-03-2.27421E+00 1.12853E-13 7.12150E-14
 -1      1072 1.93024E+01 1.28727E+00-8.89052E-06-4.59742E-01 9.12406E-14-2.18367E-13
 -1      1073 1.44523E+01 9.41947E-01 1.54468E-02-9.86422E-01 2.25939E-14-1.78994E-13
 -1      1074 1.53290E+01 1.04405E+00 3.96321E-03-9.54728E-01 1.00613E-13 4.05110E-13
 -1      1075 1.88808E+01 9.52939E-01-3.04030E-04 4.93488E-01-2.62945E-14-2.20768E-14
 -1      1076 1.84638E+01 1.18406E+00-1.07620E-04-7.25068E-01 5.29916E-15-1.21528E-13
 -1      1077 1.89387E+01 1.21713E+00-2.03872E-04-5.93224E-01 5.36303E-14-1.93282E-13
 -1      1078 1.95498E+01 1.38314E+00-4.68102E-05-3.60328E-01 1.12841E-13-2.05238E-13
 -1      1079 1.85266E+01 1.06017E+00-4.61280E-04 5.91350E-01 2.08453E-14 3.53011E-14
 -1      1080 1.99851E+01 7.69387E-02 3.63603E-05 1.14694E-02 3.07528E-14-2.49288E-13
 -1      1081 1.78587E+01 1.15115E+00 4.36430E-04-8.80393E-01-2.51646E-14-1.12393E-13
 -1      1082 1.99831E+01 7.85382E-02-1.43099E-05 2.51890E-03 2.22520E-14-2.20188E-13
 -1      1083 1.72782E+01 9.96208E-01 7.48574E-04-9.62550E-01-2.55464E-14 2.46976E-13
 -1      1084 1.74405E+01 9.07661E-01 3.34118E-03 1.07297E+00 8.06175E-14-2.14352E-13
 -1      1085 1.65103E+01 7.85265E-01 1.11514E-03-1.74800E+00 1.93373E-14-1.43630E-13
 -1      1086 1.64925E+01 8.26204E-01 1.96532E-03 1.27993E+00 6.90937E-14-2.68155E-13
 -1      1087 1.65561E+01 8.04413E-01 5.25237E-04-1.43751E+00 3.64443E-14 1.13061E-13
 -1      1088 1.96690E+01 4.66145E-01 8.00002E-05 9.91951E-02-1.16781E-13 8.01134E-14
 -1      1089 1.89961E+01 1.23291E+00 8.96442E-04 3.95763E-01 5.89466E-14-6.04538E-14
 -1      1090 1.78358E+01 1.04848E+00 3.83905E-05-6.83099E-01-1.06540E-13 4.48403E-13
 -1      1091 1.82974E+01 1.02540E+00-2.35616E-04-4.92677E-01-5.38274E-15 2.67974E-13
 -1      1092 1.86687E+01 9.60463E-01-1.75211E-04-3.56473E-01-5.34450E-14 2.49756E-13
 -1      1093 1.89691E+01 8.68060E-01-1.41135E-04-2.59095E-01-1.08406E-14 4.68059E-14
 -1      1094 1.92116E+01 7.61689E-01-1.16583E-04-1.88991E-01 9.91259E-15-1.25842E-13
 -1      1095 1.94057E+01 6.51350E-01-1.51410E-04-1.38259E-01 2.57744E-14-5.48333E-14
 -1      1096 1.95647E+01 5.43243E-01 6.49100E-04-1.01814E-01-1.31938E-13-1.28694E-13
 -1      1097 1.96835E+01 4.44424E-01-3.36709E-05-7.41956E-02 1.65026E-14-2.44266E-13
 -1      1098 1.97721E+01 3.60456E-01 1.40436E-04-5.27695E-02 1.11304E-13-3.17640E-13
 -1      1099 1.98426E+01 2.84373E-01 1.88348E-05-3.71188E-02-4.10028E-14-1.18224E-13
 -1      1100 1.98947E+01 2.20626E-01-2.29627E-05-2.64277E-02-1.27473E-13 2.93248E-13
 -1      1101 1.99333E+01 1.67902E-01 1.46163E-04-1.84867E-02 7.19519E-14 1.31026E-13
 -1      1102 1.99593E+01 1.25547E-01-3.11948E-06-1.23783E-02 2.36799E-14-1.04717E-13
 -1      1103 1.94365E+01 1.52541E+00 6.55990E-04 9.09754E-02 8.61891E-14-1.15322E-13
 -1      1104 1.93672E+01 6.93190E-01 1.32445E-04 1.50378E-01-1.41993E-13 2.93565E-13
 -1      1105 1.80624E+01 1.04657E+00 4.54069E-04 7.76818E-01 9.04962E-14-1.83506E-13
 -1      1106 1.57529E+01 1.23913E+00 1.78828E-03 2.24190E-01 8.94778E-14 2.62520E-13
 -1      1107 1.95347E+01 5.76906E-01 4.66211E-04 1.24083E-01-1.89180E-13 2.69143E-13
 -1      1108 1.91517E+01 8.17874E-01 8.82103E-05 1.74973E-01-2.76016E-13 3.15515E-13
 -1      1109 1.97652E+01 3.75085E-01 3.12600E-04 7.86944E-02-2.48961E-13-1.97580E-13
 -1      1110 1.98362E+01 2.96523E-01-4.53662E-05 6.12643E-02 3.50867E-14-2.60691E-13
 -1      1111 1.98905E+01 2.30264E-01 2.32037E-05 4.62931E-02 1.48741E-13-4.08203E-13
 -1      1112 1.99296E+01 1.75607E-01 3.49002E-06 3.33867E-02-1.39107E-13-3.86326E-13
 -1      1113 1.99578E+01 1.31288E-01 5.88620E-05 2.33052E-02-2.26505E-15-3.72241E-13
 -1      1114 1.85795E+01 1.13557E+00 4.61225E-04 5.52567E-01 6.13725E-14-1.44751E-13
 -1      1115 1.56428E+01 1.07196E+00 1.09045E-03 4.34255E-01 9.68800E-14-2.44283E-13
 -1      1116 1.93719E+01 1.45965E+00-6.22290E-04-1.27458E-01 1.10065E-13-1.95902E-13
 -1      1117 1.70786E+01 1.07885E+00 8.75163E-04-1.08794E+00 2.40845E-15-1.61613E-13
 -1      1118 1.88759E+01 9.44987E-01 9.25120E-05 1.98019E-01-2.26173E-13 4.86873E-13
 -1      1119 1.99712E+01 1.04149E-01 4.37443E-05 9.80369E-03-7.98723E-15-2.76258E-13
 -1      1120 1.68089E+01 1.26254E+00 4.87966E-03 2.56855E-01-1.38112E-13 2.94162E-13
 -1      1121 1.57784E+01 1.12443E+00 1.94525E-03-4.70652E-01 5.82230E-14-1.69620E-13
 -1      1122 1.99883E+01 6.66451E-02-1.78912E-05-5.63705E-03-1.88236E-14-2.77861E-14
 -1      1123 1.92378E+01 1.33393E+00 9.70936E-04 2.81242E-01 3.77689E-14-3.93645E-14
 -1      1124 1.99771E+01 9.22300E-02 1.38494E-05-8.14635E-03-9.72086E-14 4.96081E-14
 -1      1125 1.85415E+01 1.26790E+00-4.66228E-04-2.19032E-01 5.34394E-15-1.44824E-13
 -1      1126 1.80707E+01 1.17209E+00 4.83253E-05 2.30093E-01-8.78273E-14 1.90153E-13
 -1      1127 1.89970E+01 1.32068E+00-8.92901E-04-1.96591E-01 3.63527E-14-1.78031E-13
 -1      1128 1.75007E+01 1.24968E+00-1.08275E-03 2.46798E-01-1.62110E-13 2.26088E-13
 -1      1129 1.79480E+01 1.24447E+00-2.43988E-04-2.23541E-01-5.91084E-15-1.22845E-13
 -1      1130 1.64222E+01 1.19819E+00-5.39330E-03-4.48265E-01-7.52155E-14 3.83494E-13
 -1      1131 1.95824E+01 5.24824E-01-1.24492E-03-1.80506E-03-1.15474E-13-9.83160E-14
 -1      1132 1.67732E+01 1.10099E+00-3.90508E-03 4.67514E-01 5.43231E-14-2.65386E-13
 -1      1133 1.85237E+01 1.06623E+00 7.76629E-05 2.17134E-01 6.61526E-14 3.88530E-13
 -1      1134 1.70457E+01 1.21361E+00-1.50841E-03-2.97375E-01 1.50493E-15-1.60719E-13
 -1      1135 1.97213E+01 4.07651E-01-7.96514E-04 1.93357E-02-9.22081E-14-2.56396E-14
 -1      1136 1.99524E+01 1.34790E-01-2.01783E-04-2.49360E-04-3.98602E-14-1.79654E-13
 -1      1137 2.78097E+01 9.03029E+00 2.29107E+00-6.58774E+00-4.65183E-14 1.10215E-12
 -1      1138 2.06115E+01 6.24973E+00 2.20846E-01-3.76661E+00-2.23987E-14 3.38618E-15
 -1      1139 1.95368E+01 5.88638E+00 8.43863E-02-2.71727E+00-1.36488E-14-4.34333E-13
 -1      1140 1.91144E+01 5.75367E+00 6.44779E-02-2.04740E+00-7.72993E-15-6.17997E-13
 -1      1141 1.88884E+01 5.68361E+00 5.69550E-02-1.51730E+00-5.41234E-15-6.90103E-13
 -1      1142 1.87469E+01 5.63936E+00 5.09761E-02-1.07337E+00-2.34535E-15-7.07729E-13
 -1      1143 1.86541E+01 5.61008E+00 4.61566E-02-6.84694E-01-8.03177E-16-6.93864E-13
 -1      1144 1.85994E+01 5.59270E+00 4.28940E-02-3.27991E-01 1.23252E-15-6.70402E-13
 -1      1145 1.85815E+01 5.58698E+00 4.17230E-02 1.10202E-02 2.99327E-15-6.42297E-13
 -1      1146 1.86003E+01 5.59293E+00 4.28126E-02 3.49728E-01 4.89539E-15-6.08534E-13
 -1      1147 1.86564E+01 5.61077E+00 4.61178E-02 7.05908E-01 7.10716E-15-5.66463E-13
 -1      1148 1.87521E+01 5.64107E+00 5.14584E-02 1.09482E+00 8.22432E-15-4.95857E-13
 -1      1149 1.88966E+01 5.68632E+00 5.77378E-02 1.54096E+00 1.11196E-14-3.91723E-13
 -1      1150 1.91240E+01 5.75659E+00 6.46174E-02 2.07726E+00 1.50435E-14-2.14381E-13
 -1      1151 1.95376E+01 5.88494E+00 7.88465E-02 2.75449E+00 1.75554E-14 1.06241E-13
 -1      1152 2.05189E+01 6.20545E+00 1.65858E-01 3.74040E+00 1.93179E-14 6.74450E-13
 -1      1153 2.51009E+01 7.95324E+00 1.40979E+00 5.74030E+00 3.12528E-14 1.75840E-12
 -1      1154 2.85782E+01 3.55074E+00 1.21865E+00-4.14340E+00-1.81077E-13 1.78951E-12
 -1      1155 2.02519E+01-1.79693E-01-6.16916E-01-9.76886E-02-6.30329E-14 1.35986E-12
 -1      1156 1.90249E+01-9.78505E-02-2.35063E-01 6.46667E-02-2.01020E-14 8.07437E-13
 -1      1157 1.88425E+01-5.12461E-02-6.23963E-02 4.19087E-02-4.47472E-15 4.55927E-13
 -1      1158 1.89626E+01-2.93972E-02-2.09931E-02 2.88696E-02-1.61616E-14 1.91250E-13
 -1      1159 1.92616E+01-1.90954E-02-1.28358E-02 2.24500E-02-1.81979E-14-9.57220E-15
 -1      1160 1.96809E+01-1.34294E-02-1.06699E-02 1.93518E-02-9.82092E-15-1.22097E-13
 -1      1161 2.01900E+01-9.66358E-03-8.97768E-03 1.82341E-02-3.85748E-15-1.48197E-13
 -1      1162 2.07682E+01-6.21494E-03-6.37369E-03 1.83182E-02-8.43255E-15-2.77986E-13
 -1      1163 2.13930E+01-1.85681E-03-1.71478E-03 1.89062E-02-7.95982E-15-4.04649E-13
 -1      1164 2.20301E+01 4.46249E-03 6.38708E-03 1.90370E-02-1.68959E-14-6.50292E-13
 -1      1165 2.26221E+01 1.34873E-02 1.91689E-02 1.72241E-02 1.50030E-14-6.76407E-13
 -1      1166 2.30805E+01 2.51519E-02 3.67433E-02 1.13726E-02-2.70027E-14-8.03460E-13
 -1      1167 2.32849E+01 3.77088E-02 5.64797E-02-8.38727E-04-2.72352E-16-8.02968E-13
 -1      1168 2.30998E+01 4.67935E-02 7.12802E-02-2.06763E-02-1.91947E-15-6.33792E-13
 -1      1169 2.24237E+01 4.54410E-02 6.96850E-02-4.60422E-02-3.61300E-14-5.40214E-13
 -1      1170 2.12667E+01 2.68355E-02 4.06680E-02-6.92420E-02-1.27606E-14-6.64011E-13
 -1      1171 1.98285E+01-9.60413E-03-1.63480E-02-7.77724E-02 1.65016E-15-7.01744E-13
 -1      1172 1.85032E+01-5.23918E-02-8.26810E-02-6.08971E-02 4.09742E-15-8.13252E-13
 -1      1173 1.77509E+01-8.01278E-02-1.25377E-01-1.94706E-02 1.06495E-14-7.91974E-13
 -1      1174 1.78685E+01-7.64487E-02-1.19693E-01 3.05337E-02-1.16608E-14-8.22696E-13
 -1      1175 1.88161E+01-4.36540E-02-6.91200E-02 6.73863E-02-9.59866E-15-7.68760E-13
 -1      1176 2.02423E+01-8.88651E-04-2.59669E-03 7.81677E-02 1.51830E-14-5.92831E-13
 -1      1177 2.16861E+01 3.17229E-02 4.85534E-02 6.53602E-02-2.97002E-14-5.98632E-13
 -1      1178 2.27943E+01 4.57340E-02 7.03161E-02 4.10252E-02-1.39212E-14-7.08822E-13
 -1      1179 2.34177E+01 4.38215E-02 6.67170E-02 1.69373E-02 9.27904E-15-7.58026E-13
 -1      1180 2.35818E+01 3.32730E-02 4.96086E-02-5.85889E-04 3.59335E-14-7.07562E-13
 -1      1181 2.34037E+01 2.06073E-02 2.96857E-02-1.04153E-02 1.23853E-14-6.29394E-13
 -1      1182 2.30200E+01 9.59142E-03 1.29754E-02-1.41809E-02-3.37382E-14-6.53807E-13
 -1      1183 2.25450E+01 1.59814E-03 1.39716E-03-1.41693E-02 2.57278E-14-5.95114E-13
 -1      1184 2.20588E+01-3.41113E-03-5.42652E-03-1.22732E-02 2.79726E-14-4.58970E-13
 -1      1185 2.16089E+01-6.05571E-03-8.70275E-03-9.73128E-03 5.70602E-14-3.04312E-13
 -1      1186 2.12188E+01-7.05744E-03-9.67020E-03-7.22555E-03 1.59222E-14-4.00979E-13
 -1      1187 2.08959E+01-7.03264E-03-9.30134E-03-5.06494E-03-2.70040E-14-4.78024E-13
 -1      1188 2.06381E+01-6.43682E-03-8.26231E-03-3.34314E-03 3.63020E-14-4.58605E-13
 -1      1189 2.04385E+01-5.57687E-03-6.96910E-03-2.04521E-03 1.42800E-15-1.78948E-13
 -1      1190 2.02884E+01-4.64441E-03-5.66107E-03-1.11057E-03-2.44429E-14-3.98752E-13
 -1      1191 2.01786E+01-3.74993E-03-4.46294E-03-4.66346E-04-1.00205E-14-4.02089E-13
 -1      1192 2.01008E+01-2.95011E-03-3.42931E-03-4.32001E-05-1.16892E-14-1.35196E-13
 -1      1193 2.00476E+01-2.26776E-03-2.57394E-03 2.18343E-04 3.48797E-14-3.61459E-14
 -1      1194 2.00131E+01-1.70536E-03-1.88824E-03 3.66306E-04-5.75042E-14-2.01332E-13
 -1      1195 1.99922E+01-1.25409E-03-1.35267E-03 4.37889E-04-5.82179E-14-6.56059E-13
 -1      1196 1.99813E+01-8.99449E-04-9.43252E-04 4.61010E-04-1.89549E-14-7.20915E-13
 -1      1197 1.99773E+01-6.24503E-04-6.34945E-04 4.55989E-04-7.02305E-14-5.84132E-13
 -1      1198 1.99779E+01-4.11518E-04-4.02532E-04 4.36924E-04 1.50669E-14-1.31034E-13
 -1      1199 1.99816E+01-2.42542E-04-2.19097E-04 4.12404E-04 1.28689E-14 2.77532E-13
 -1      1200 1.99869E+01-9.92711E-05-5.17925E-05 3.84035E-04-1.98446E-14 4.84498E-13
 -1      1201 1.99927E+01 3.69476E-05 1.32523E-04 3.34490E-04 2.37258E-14 3.52391E-13
 -1      1202 1.99977E+01 1.71042E-04 3.29839E-04 2.23448E-04-1.65698E-14 3.15824E-13
 -1      1203 1.99998E+01 1.98279E-05 1.17237E-04-1.13515E-05 5.94987E-14 1.71573E-13
 -1      1204 2.75614E+01 5.18360E-01 3.39077E-01 1.94133E+00-2.52437E-14 2.61097E-12
 -1      1205 2.01140E+01-6.82587E-02-5.72953E-01 1.25146E-01 8.82627E-15 2.22755E-12
 -1      1206 1.90970E+01-4.35936E-02-1.93305E-01 1.92656E-02 1.06850E-14 1.82252E-12
 -1      1207 1.88757E+01-2.59724E-02-5.45922E-02 3.15139E-03 1.04704E-14 1.47727E-12
 -1      1208 1.89926E+01-1.87077E-02-2.09637E-02-1.38654E-03 1.00670E-14 1.29690E-12
 -1      1209 1.93092E+01-1.55772E-02-1.54742E-02-2.39209E-03-9.13766E-16 1.09152E-12
 -1      1210 1.97687E+01-1.44010E-02-1.60068E-02-2.68061E-03-5.32235E-15 9.78835E-13
 -1      1211 2.03505E+01-1.40734E-02-1.75964E-02-3.26873E-03 1.24490E-14 9.69023E-13
 -1      1212 2.10504E+01-1.36011E-02-1.89647E-02-4.83880E-03-3.34346E-15 8.90246E-13
 -1      1213 2.18682E+01-1.16914E-02-1.86777E-02-8.13968E-03 1.99944E-14 8.20774E-13
 -1      1214 2.27952E+01-6.52449E-03-1.41421E-02-1.39760E-02 1.73362E-14 7.40855E-13
 -1      1215 2.37962E+01 4.17280E-03-1.35321E-03-2.28404E-02 2.77708E-15 7.11126E-13
 -1      1216 2.47840E+01 2.22935E-02 2.43869E-02-3.39553E-02 1.28370E-16 7.86732E-13
 -1      1217 2.55908E+01 4.70642E-02 6.53966E-02-4.35426E-02-1.65861E-14 8.54355E-13
 -1      1218 2.59515E+01 7.11662E-02 1.14722E-01-4.30153E-02 5.71071E-15 6.60137E-13
 -1      1219 2.55430E+01 7.80640E-02 1.48012E-01-2.02425E-02-8.85576E-16 6.53241E-13
 -1      1220 2.41377E+01 4.88584E-02 1.26310E-01 3.14813E-02-1.98617E-14 7.75810E-13
 -1      1221 2.18710E+01-1.77022E-02 2.43205E-02 9.79533E-02 4.03004E-14 8.24119E-13
 -1      1222 1.94472E+01-8.70408E-02-1.25669E-01 1.38963E-01-3.59088E-16 3.18190E-13
 -1      1223 1.79536E+01-1.09510E-01-2.30962E-01 1.14715E-01-1.83308E-14 5.65631E-13
 -1      1224 1.81860E+01-7.34562E-02-2.16866E-01 2.95147E-02-1.93612E-14 8.24917E-13
 -1      1225 2.00231E+01-1.20222E-02-9.94599E-02-6.33758E-02-1.00267E-15 4.69152E-13
 -1      1226 2.25347E+01 3.16235E-02 3.32085E-02-1.12990E-01-3.28654E-14 4.31877E-13
 -1      1227 2.46797E+01 4.57681E-02 1.07522E-01-1.08155E-01 2.79117E-14 2.83912E-13
 -1      1228 2.58965E+01 3.98240E-02 1.14476E-01-7.25368E-02 5.68677E-14-1.70065E-13
 -1      1229 2.61645E+01 2.66152E-02 8.37896E-02-3.31806E-02-1.31986E-14 3.42183E-14
 -1      1230 2.57546E+01 1.39287E-02 4.59453E-02-4.30630E-03-6.42325E-15 2.46799E-13
 -1      1231 2.49843E+01 4.61960E-03 1.64642E-02 1.18267E-02 2.64809E-14 3.19886E-13
 -1      1232 2.40973E+01-1.13958E-03-1.46782E-03 1.83251E-02-4.00189E-14 3.98560E-13
 -1      1233 2.32412E+01-4.17226E-03-1.02237E-02 1.91124E-02-6.94816E-15 4.28633E-13
 -1      1234 2.24881E+01-5.41182E-03-1.32272E-02 1.71486E-02 5.25112E-15-3.06491E-14
 -1      1235 2.18619E+01-5.59297E-03-1.31760E-02 1.42154E-02-1.79995E-14-1.63064E-16
 -1      1236 2.13609E+01-5.21375E-03-1.17564E-02 1.12262E-02 4.52470E-14 8.59677E-14
 -1      1237 2.09710E+01-4.58212E-03-9.88858E-03 8.57578E-03-3.03197E-15-2.06730E-13
 -1      1238 2.06746E+01-3.87560E-03-8.02183E-03 6.38565E-03-2.80452E-14-3.25497E-13
 -1      1239 2.04539E+01-3.18934E-03-6.34809E-03 4.64999E-03-4.71192E-14-4.06217E-13
 -1      1240 2.02928E+01-2.56936E-03-4.92926E-03 3.31224E-03 2.77631E-14-6.31792E-13
 -1      1241 2.01780E+01-2.03367E-03-3.76656E-03 2.30250E-03 7.85630E-14-1.04840E-12
 -1      1242 2.00982E+01-1.58500E-03-2.83587E-03 1.55380E-03 3.67567E-14-1.28563E-12
 -1      1243 2.00446E+01-1.21805E-03-2.10461E-03 1.00791E-03-3.17898E-14-8.87665E-13
 -1      1244 2.00104E+01-9.23615E-04-1.53933E-03 6.16500E-04 9.62557E-15-6.81377E-13
 -1      1245 1.99901E+01-6.90963E-04-1.10884E-03 3.40474E-04 4.73687E-14-7.73460E-13
 -1      1246 1.99797E+01-5.08996E-04-7.85325E-04 1.48646E-04 2.33387E-14-7.41951E-13
 -1      1247 1.99761E+01-3.66640E-04-5.44125E-04 1.61842E-05-6.65334E-14-3.32931E-13
 -1      1248 1.99771E+01-2.52348E-04-3.62039E-04-7.70039E-05 2.72580E-14-5.11373E-13
 -1      1249 1.99811E+01-1.52955E-04-2.13591E-04-1.47466E-04 9.49138E-15-5.28554E-13
 -1      1250 1.99866E+01-5.27122E-05-6.64720E-05-2.08333E-04-1.69274E-14-8.26081E-13
 -1      1251 1.99926E+01 6.63794E-05 1.16461E-04-2.64685E-04-1.95330E-14-9.24150E-13
 -1      1252 1.99976E+01 1.99434E-04 3.19661E-04-2.77216E-04 4.10919E-14-7.44726E-13
 -1      1253 1.99998E+01 3.77520E-06 1.10544E-04 2.03830E-06-6.72247E-14-5.32213E-13
 -1      1254 1.99998E+01-2.18430E-05 9.04391E-05-2.24072E-05-5.68775E-13-5.43006E-14
 -1      1255 1.99999E+01-2.23084E-03 2.55036E-04-1.89682E-04-6.88940E-13 3.10320E-15
 -1      1256 1.99998E+01-6.80046E-03 4.48688E-05-2.72174E-04 4.70335E-13 1.41777E-13
 -1      1257 1.99997E+01-1.16421E-02-1.13592E-04-2.32340E-04 8.14201E-13 6.94203E-14
 -1      1258 1.99997E+01-1.56795E-02-1.71193E-04-1.64692E-04 7.29638E-13 1.62126E-13
 -1      1259 1.99997E+01-1.85557E-02-1.66797E-04-1.00664E-04 4.46970E-13-2.83794E-14
 -1      1260 1.99997E+01-2.03487E-02-1.34730E-04-5.50407E-05 5.49890E-13 1.21245E-13
 -1      1261 1.99997E+01-2.12733E-02-1.04477E-04-2.15190E-05 7.05443E-13-1.73812E-13
 -1      1262 1.99997E+01-2.15053E-02-9.12451E-05 2.94402E-06 3.57782E-13 8.03357E-15
 -1      1263 1.99997E+01-2.11319E-02-1.00674E-04 2.68645E-05 7.10146E-13-3.23331E-14
 -1      1264 1.99997E+01-2.00911E-02-1.27594E-04 5.89091E-05-4.61311E-13-1.20557E-13
 -1      1265 1.99997E+01-1.82273E-02-1.56967E-04 1.04464E-04-6.81988E-13-3.26334E-14
 -1      1266 1.99997E+01-1.53419E-02-1.63246E-04 1.63564E-04-9.57781E-13 4.50467E-14
 -1      1267 1.99997E+01-1.13414E-02-1.04806E-04 2.31773E-04-9.76759E-13 8.94376E-15
 -1      1268 1.99999E+01-6.52537E-03 7.95566E-05 3.15500E-04-7.42584E-13-1.82784E-14
 -1      1269 2.00000E+01-2.16986E-03 2.79174E-04 2.34960E-04-4.29730E-13 3.59600E-14
 -1      1270 1.99998E+01-5.40810E-05 6.78637E-05 4.70265E-05-8.41376E-14 6.88765E-15
 -1      1271-1.14073E+00-2.42010E+01-3.76916E+00-2.23258E+00 1.52550E-12 1.86406E-13
 -1      1272-1.92587E+00-1.57729E+01-3.15679E+00-4.17125E+00 1.47493E-12 4.15723E-13
 -1      1273-1.75031E-01-3.60252E+00-2.04724E+00-7.97979E-01 2.24754E-12 1.32583E-12
 -1      1274 7.56315E+00 6.60285E+00-5.52173E-01 7.05621E+00 2.16138E-12 1.84852E-12
 -1      1275 2.27760E+01 1.08365E+01 1.07760E+00 1.51470E+01 1.69775E-12 2.25375E-12
 -1      1276 4.24372E+01 8.98735E+00 2.67783E+00 1.80847E+01 8.63976E-13 1.74150E-12
 -1      1277 6.01563E+01 4.26666E+00 3.87115E+00 1.26884E+01 2.42473E-13 7.94032E-13
 -1      1278 6.80079E+01 1.69766E+00 4.37249E+00 5.34915E-01 9.94135E-14-5.34683E-13
 -1      1279 6.18797E+01 3.75612E+00 3.99253E+00-1.18448E+01 3.72410E-13-1.73517E-12
 -1      1280 4.44369E+01 8.60620E+00 2.81269E+00-1.78494E+01 1.12821E-12-2.48845E-12
 -1      1281 2.41303E+01 1.09864E+01 1.25638E+00-1.56166E+01 1.97842E-12-2.65299E-12
 -1      1282 7.63672E+00 6.43510E+00-5.47992E-01-7.00034E+00 2.54441E-12-2.29994E-12
 -1      1283-5.93871E-01-5.18771E+00-2.16693E+00 1.60399E+00 2.43494E-12-1.42142E-12
 -1      1284-1.80862E+00-1.76990E+01-3.29788E+00 4.32904E+00 1.14719E-12-5.10592E-13
 -1      1285-1.00236E+00-2.47770E+01-3.76404E+00 1.57697E+00-4.50945E-13-7.81285E-14
 -1      1286-1.16468E+00-2.31034E+01-3.63915E+00-2.77735E+00-1.82865E-12-3.46306E-13
 -1      1287-1.71852E+00-1.35106E+01-2.88876E+00-3.89787E+00-2.41185E-12-9.01446E-13
 -1      1288 8.48423E-01-1.26367E+00-1.64634E+00 4.44051E-01-2.32925E-12-1.44174E-12
 -1      1289 1.13681E+01 8.39040E+00 1.66428E-04 9.53529E+00-2.16693E-12-2.18781E-12
 -1      1290 2.94995E+01 1.09177E+01 1.71615E+00 1.72094E+01-1.56442E-12-2.30704E-12
 -1      1291 4.85782E+01 7.43421E+00 3.09197E+00 1.71949E+01-7.16149E-13-1.51679E-12
 -1      1292 6.28523E+01 3.01718E+00 3.97274E+00 9.36544E+00-5.58581E-14-4.97380E-14
 -1      1293 6.61532E+01 1.88652E+00 4.14900E+00-2.80983E+00-9.32102E-14 1.07445E-12
 -1      1294 5.79669E+01 4.61978E+00 3.68036E+00-1.35665E+01-5.81563E-13 2.12130E-12
 -1      1295 4.09756E+01 9.25552E+00 2.56740E+00-1.79509E+01-1.26810E-12 2.61346E-12
 -1      1296 2.24184E+01 1.11186E+01 1.17587E+00-1.50969E+01-2.00773E-12 2.61680E-12
 -1      1297 7.71408E+00 6.90834E+00-4.49761E-01-7.30442E+00-2.36744E-12 2.15850E-12
 -1      1298 1.26743E-03-3.28706E+00-1.91734E+00 5.06456E-01-2.27618E-12 1.49813E-12
 -1      1299-1.76324E+00-1.55241E+01-3.08834E+00 3.96593E+00-8.42326E-13 5.14977E-13
 -1      1300-1.20542E+00-2.37748E+01-3.71179E+00 2.08903E+00 9.06386E-13-4.52520E-14
 -1      1301 2.22448E+01 1.83942E+00-7.17466E-01-2.71549E+00-6.92779E-14 8.38829E-13
 -1      1302 2.04586E+01 4.68604E+00-4.46090E-02-3.15267E+00-1.61648E-13-2.03171E-13
 -1      1303 2.09409E+01 4.79356E+00-1.06165E-01-4.01681E+00-2.18214E-13 2.68743E-14
 -1      1304 1.96431E+01 5.00346E+00-1.80360E-02-2.47141E+00-1.47778E-13-5.18287E-13
 -1      1305 1.99437E+01 5.10005E+00 5.61186E-03-2.87310E+00-1.70967E-13-3.87267E-13
 -1      1306 2.06441E+01 3.94317E+00-2.33141E-02-2.90182E+00-2.75998E-13-1.75082E-13
 -1      1307 1.92638E+01 5.10453E+00-3.97464E-03-1.87824E+00-1.07515E-13-6.57092E-13
 -1      1308 1.94327E+01 5.16529E+00 1.40736E-02-2.17300E+00-1.29820E-13-5.98997E-13
 -1      1309 1.98643E+01 4.38074E+00-2.25705E-02-2.29648E+00-2.30127E-13-4.36734E-13
 -1      1310 1.90367E+01 5.15668E+00 1.44340E-03-1.38239E+00-6.93612E-14-7.07125E-13
 -1      1311 1.91427E+01 5.19449E+00 1.44638E-02-1.62479E+00-8.15285E-14-6.88428E-13
 -1      1312 1.94565E+01 4.59301E+00-1.87624E-02-1.73769E+00-1.58658E-13-5.50129E-13
 -1      1313 1.88875E+01 5.19002E+00 3.79268E-03-9.63585E-01-3.26943E-14-7.08248E-13
 -1      1314 1.89580E+01 5.21476E+00 1.32174E-02-1.16867E+00-4.46605E-14-7.08213E-13
 -1      1315 1.92090E+01 4.71984E+00-1.50221E-02-1.26688E+00-9.95818E-14-5.85490E-13
 -1      1316 1.87880E+01 5.21221E+00 4.96785E-03-5.85984E-01-4.54498E-16-6.92732E-13
 -1      1317 1.88337E+01 5.22791E+00 1.12351E-02-7.72073E-01-7.29018E-15-7.04999E-13
 -1      1318 1.90441E+01 4.80157E+00-1.29176E-02-8.61002E-01-3.38605E-14-5.95586E-13
 -1      1319 1.87339E+01 5.22650E+00 6.04244E-03-2.38705E-01 3.63774E-14-6.61245E-13
 -1      1320 1.87565E+01 5.23419E+00 9.22170E-03-4.11623E-01 2.33607E-14-6.75088E-13
 -1      1321 1.89387E+01 4.85243E+00-1.17816E-02-4.94783E-01 1.59644E-14-5.64614E-13
 -1      1322 1.87235E+01 5.23403E+00 7.38608E-03 9.54374E-02 6.48006E-14-6.40174E-13
 -1      1323 1.87235E+01 5.23400E+00 7.45867E-03-7.30109E-02 5.74731E-14-6.55921E-13
 -1      1324 1.88869E+01 4.87739E+00-1.12841E-02-1.54385E-01 7.77457E-14-5.44282E-13
 -1      1325 1.87572E+01 5.23508E+00 9.13377E-03 4.33512E-01 9.41183E-14-6.06130E-13
 -1      1326 1.87342E+01 5.22727E+00 6.03541E-03 2.60871E-01 8.35996E-14-6.27474E-13
 -1      1327 1.88869E+01 4.87815E+00-1.12758E-02 1.77089E-01 1.20802E-13-5.26749E-13
 -1      1328 1.88361E+01 5.22910E+00 1.11867E-02 7.93157E-01 1.18321E-13-5.60978E-13
 -1      1329 1.87894E+01 5.21324E+00 4.87266E-03 6.07259E-01 1.10480E-13-5.87494E-13
 -1      1330 1.89395E+01 4.85419E+00-1.17597E-02 5.16557E-01 1.66895E-13-4.90611E-13
 -1      1331 1.89621E+01 5.21592E+00 1.33448E-02 1.18613E+00 1.48574E-13-4.84422E-13
 -1      1332 1.88900E+01 5.19056E+00 3.58304E-03 9.80913E-01 1.36892E-13-5.29621E-13
 -1      1333 1.90463E+01 4.80335E+00-1.27619E-02 8.78279E-01 2.11301E-13-4.47399E-13
 -1      1334 1.91530E+01 5.19382E+00 1.48308E-02 1.64809E+00 1.85983E-13-3.61256E-13
 -1      1335 1.90442E+01 5.15489E+00 1.16616E-03 1.40393E+00 1.67822E-13-4.30633E-13
 -1      1336 1.92151E+01 4.71885E+00-1.48898E-02 1.28411E+00 2.58063E-13-3.50029E-13
 -1      1337 1.94477E+01 5.16133E+00 1.38884E-02 2.20325E+00 2.16750E-13-1.65770E-13
 -1      1338 1.92765E+01 5.09849E+00-4.86278E-03 1.90444E+00 1.99413E-13-2.86174E-13
 -1      1339 1.94724E+01 4.58508E+00-1.85362E-02 1.76039E+00 3.08649E-13-2.23255E-13
 -1      1340 1.99723E+01 5.10972E+00 1.15192E-02 2.90765E+00 2.31822E-13 1.71800E-13
 -1      1341 1.96589E+01 4.99574E+00-1.88124E-02 2.50943E+00 2.10734E-13-3.21618E-14
 -1      1342 1.98891E+01 4.36380E+00-2.26110E-02 2.33070E+00 3.44069E-13-2.22738E-15
 -1      1343 2.11678E+01 4.88824E+00 1.29463E-02 3.91196E+00 1.83992E-13 7.73853E-13
 -1      1344 2.04362E+01 4.72852E+00-4.37022E-02 3.25741E+00 1.86962E-13 4.10456E-13
 -1      1345 2.06849E+01 3.90778E+00-1.95069E-02 3.00007E+00 3.36287E-13 3.61641E-13
 -1      1346 2.70692E+01 3.17012E+00 9.02840E-01 4.48362E+00 8.03385E-14 1.81838E-12
 -1      1347 2.20413E+01 3.50689E+00-1.77020E-01 3.76852E+00 9.28146E-14 1.10298E-12
 -1      1348 2.21818E+01 2.54286E+00-2.96633E-02 3.30946E+00 2.91579E-13 8.99225E-13
 -1      1349 2.14252E+01 3.52931E-01-7.57849E-01 1.11861E+00 1.50574E-13 1.77386E-12
 -1      1350 2.20309E+01 1.27152E-01-3.98122E-01-1.21255E+00-1.85546E-13 9.16489E-13
 -1      1351 2.07879E+01 3.01696E-01-1.61179E-01-7.43900E-01-1.71752E-13 6.94132E-13
 -1      1352 2.02424E+01 1.53492E-01-7.18953E-02-3.40849E-01-1.38049E-13 6.13139E-13
 -1      1353 1.98483E+01 9.24865E-02-1.34130E-02-2.69280E-01-1.20685E-13 4.17808E-13
 -1      1354 2.11222E+01 3.63865E-01-1.03697E-01-1.15316E+00-2.93994E-13 3.14047E-13
 -1      1355 1.95553E+01 6.76819E-02 3.64009E-03-6.95022E-02-9.50021E-14 3.42781E-13
 -1      1356 1.94828E+01 4.55268E-02 1.39072E-02-4.97095E-02-8.66529E-14 2.01256E-13
 -1      1357 2.01875E+01 1.36066E-01-3.60714E-02-3.78641E-01-2.13163E-13 1.69876E-13
 -1      1358 1.93986E+01 3.72534E-02 1.32791E-02 5.09236E-02-6.94219E-14 1.38868E-13
 -1      1359 1.94771E+01 2.57928E-02 1.14433E-02 6.35564E-02-8.66425E-14 2.72352E-14
 -1      1360 1.98475E+01 6.31458E-02-1.00588E-02-2.49309E-02-1.63394E-13 4.74898E-14
 -1      1361 1.95137E+01 2.37663E-02 8.54812E-03 1.22950E-01-4.58067E-14 1.29237E-14
 -1      1362 1.96775E+01 1.70682E-02 6.68012E-03 1.31828E-01-4.16728E-14-5.65780E-14
 -1      1363 1.98037E+01 3.58689E-02-5.64361E-03 1.66478E-01-1.14945E-13-2.67451E-14
 -1      1364 1.97905E+01 1.70701E-02 4.21503E-03 1.72048E-01-3.60645E-14-6.43409E-14
 -1      1365 2.00110E+01 1.23408E-02 3.71385E-03 1.78878E-01-1.30998E-14-1.05457E-13
 -1      1366 1.99483E+01 2.43022E-02-4.80227E-03 2.87200E-01-7.45680E-14-3.22494E-14
 -1      1367 2.01761E+01 1.30129E-02 1.70909E-03 2.08220E-01-2.34378E-14-1.24512E-13
 -1      1368 2.04377E+01 8.87970E-03 2.03221E-03 2.13643E-01-5.09120E-14-1.69469E-13
 -1      1369 2.02184E+01 1.81584E-02-4.15239E-03 3.71875E-01-4.18957E-14-1.05194E-13
 -1      1370 2.06393E+01 9.46008E-03 2.87664E-04 2.34458E-01-5.26237E-14-1.71172E-13
 -1      1371 2.09298E+01 4.98280E-03 9.30096E-04 2.38338E-01-3.89733E-14-2.51020E-13
 -1      1372 2.05759E+01 1.31366E-02-3.32660E-03 4.33237E-01-8.85676E-14-1.44722E-13
 -1      1373 2.11543E+01 4.77766E-03-5.48075E-04 2.49065E-01-3.51205E-14-2.72331E-13
 -1      1374 2.14587E+01-8.06190E-04 1.39775E-04 2.50519E-01-7.38881E-14-3.37258E-13
 -1      1375 2.09931E+01 6.42687E-03-2.19971E-03 4.72376E-01-7.13143E-14-1.89610E-13
 -1      1376 2.16903E+01-2.58221E-03-8.67780E-04 2.46224E-01-8.60931E-14-3.62613E-13
 -1      1377 2.19855E+01-9.82606E-03-2.90781E-04 2.43564E-01-2.85562E-14-4.20278E-13
 -1      1378 2.14419E+01-4.52898E-03-4.88225E-04 4.81698E-01-1.12456E-13-1.93119E-13
 -1      1379 2.22030E+01-1.39884E-02-4.63473E-04 2.16404E-01-8.42468E-15-4.66540E-13
 -1      1380 2.24534E+01-2.29478E-02-1.19790E-04 2.07209E-01-4.61792E-14-5.08137E-13
 -1      1381 2.18868E+01-2.20387E-02 2.18375E-03 4.46040E-01-7.88419E-14-2.53194E-13
 -1      1382 2.26274E+01-3.00131E-02 9.81450E-04 1.47956E-01-4.70453E-14-5.10685E-13
 -1      1383 2.27831E+01-3.96750E-02 9.38791E-04 1.29553E-01-2.25805E-14-5.90873E-13
 -1      1384 2.22793E+01-4.72419E-02 6.11799E-03 3.44886E-01-6.80606E-14-3.70689E-13
 -1      1385 2.28771E+01-4.91565E-02 3.60854E-03 3.14435E-02 3.45470E-14-5.43834E-13
 -1      1386 2.28786E+01-5.67079E-02 2.92311E-03 2.21510E-03 3.40596E-14-4.81270E-13
 -1      1387 2.25553E+01-7.81060E-02 1.12388E-02 1.58519E-01 2.96351E-14-3.18213E-13
 -1      1388 2.28540E+01-6.61340E-02 6.91773E-03-1.31935E-01 5.83544E-14-4.91352E-13
 -1      1389 2.26474E+01-6.66407E-02 5.18073E-03-1.70142E-01 3.06023E-14-4.31618E-13
 -1      1390 2.26406E+01-1.06660E-01 1.66093E-02-1.19124E-01 4.94535E-14-2.90748E-13
 -1      1391 2.24768E+01-7.10488E-02 9.32882E-03-3.18855E-01-2.99491E-14-3.69191E-13
 -1      1392 2.20435E+01-5.87221E-02 6.10928E-03-3.57902E-01-5.67766E-14-3.90979E-13
 -1      1393 2.24672E+01-1.17472E-01 1.99257E-02-4.60861E-01 4.03948E-14-2.40748E-13
 -1      1394 2.17310E+01-5.21595E-02 8.48041E-03-4.76102E-01-7.05816E-14-3.96551E-13
 -1      1395 2.11223E+01-2.42428E-02 3.68857E-03-5.00826E-01-5.58499E-14-4.73982E-13
 -1      1396 2.20068E+01-9.15957E-02 1.76529E-02-7.88084E-01-7.95058E-14-2.25743E-13
 -1      1397 2.07246E+01-4.42430E-03 2.76647E-03-5.29767E-01-2.45730E-14-5.02098E-13
 -1      1398 2.00799E+01 3.36101E-02-2.81716E-03-5.23178E-01-5.41706E-14-4.99864E-13
 -1      1399 2.13134E+01-1.91048E-02 6.87144E-03-9.74284E-01-8.64166E-14-1.96204E-13
 -1      1400 1.97090E+01 5.99406E-02-6.40155E-03-4.21344E-01-3.45782E-14-5.42399E-13
 -1      1401 1.92259E+01 9.30249E-02-1.09160E-02-3.76363E-01-3.89185E-15-5.36259E-13
 -1      1402 2.05514E+01 8.45963E-02-1.12601E-02-8.93004E-01-6.90923E-14-3.06470E-13
 -1      1403 1.90149E+01 1.10986E-01-1.39683E-02-1.57187E-01-1.58745E-14-6.07243E-13
 -1      1404 1.88680E+01 1.22114E-01-1.54211E-02-8.68005E-02-4.95923E-14-6.45185E-13
 -1      1405 1.99685E+01 1.75647E-01-2.89556E-02-5.04260E-01-7.45723E-14-3.71886E-13
 -1      1406 1.89038E+01 1.19693E-01-1.50366E-02 1.72407E-01-7.21992E-15-6.96401E-13
 -1      1407 1.91520E+01 1.02637E-01-1.27104E-02 2.39332E-01-5.75182E-14-6.59136E-13
 -1      1408 1.97920E+01 2.06493E-01-3.52150E-02 8.15551E-02-7.49383E-14-5.40192E-13
 -1      1409 1.94232E+01 8.16404E-02-9.28702E-03 4.37649E-01-2.68978E-14-6.71643E-13
 -1      1410 1.99766E+01 4.59481E-02-4.24344E-03 4.74608E-01 9.94951E-15-6.59993E-13
 -1      1411 2.01002E+01 1.59509E-01-2.57839E-02 6.41117E-01-3.34906E-14-5.67316E-13
 -1      1412 2.03805E+01 2.01808E-02-1.13960E-03 5.47295E-01 7.07583E-14-6.41431E-13
 -1      1413 2.10520E+01-1.64666E-02 4.50235E-03 5.46084E-01 6.27241E-14-5.57644E-13
 -1      1414 2.07745E+01 6.16167E-02-7.09386E-03 9.67428E-01 4.37783E-14-6.04829E-13
 -1      1415 2.14560E+01-3.32044E-02 4.51906E-03 4.94593E-01 1.67505E-14-4.72927E-13
 -1      1416 2.20567E+01-5.75799E-02 9.09940E-03 4.65764E-01-2.21351E-14-5.08135E-13
 -1      1417 2.15727E+01-3.74109E-02 9.69944E-03 9.85175E-01 7.23887E-14-4.83863E-13
 -1      1418 2.23607E+01-6.08884E-02 6.01389E-03 3.39176E-01-3.48332E-15-4.65288E-13
 -1      1419 2.27723E+01-6.98166E-02 9.01200E-03 3.00173E-01-6.14179E-15-4.79564E-13
 -1      1420 2.22611E+01-9.88313E-02 1.83546E-02 7.62035E-01-7.88692E-15-2.75243E-13
 -1      1421 2.29340E+01-6.33986E-02 4.57116E-03 1.56025E-01-4.99002E-14-5.61596E-13
 -1      1422 2.31249E+01-6.08300E-02 6.19410E-03 1.20549E-01 1.06972E-14-5.71349E-13
 -1      1423 2.27027E+01-1.14211E-01 1.89767E-02 4.31266E-01-5.99156E-14-3.46971E-13
 -1      1424 2.31498E+01-5.06817E-02 2.20385E-03-1.48731E-03 1.07274E-13-5.59764E-13
 -1      1425 2.31508E+01-4.24699E-02 2.90471E-03-2.69650E-02 8.02483E-14-5.28872E-13
 -1      1426 2.28671E+01-9.71433E-02 1.48679E-02 1.10442E-01 8.16422E-14-3.77604E-13
 -1      1427 2.30709E+01-3.30049E-02 2.99378E-04-1.10591E-01 5.22022E-15-4.91309E-13
 -1      1428 2.29400E+01-2.36722E-02 4.57953E-04-1.25307E-01-6.14678E-14-5.08989E-13
 -1      1429 2.27963E+01-6.65282E-02 9.38948E-03-1.34882E-01 4.85150E-14-3.76875E-13
 -1      1430 2.27941E+01-1.68401E-02-6.95661E-04-1.70964E-01-2.21576E-14-4.90481E-13
 -1      1431 2.25900E+01-8.79911E-03-8.60845E-04-1.77017E-01 1.22443E-14-4.70557E-13
 -1      1432 2.25621E+01-3.62261E-02 4.52300E-03-2.87571E-01-5.01318E-14-4.99543E-13
 -1      1433 2.24125E+01-4.80026E-03-9.31075E-04-1.93021E-01 1.03612E-14-3.76378E-13
 -1      1434 2.21815E+01 1.14618E-03-1.29598E-03-1.93223E-01 9.60166E-14-3.12647E-13
 -1      1435 2.22364E+01-1.27377E-02 9.90148E-04-3.59283E-01 8.29285E-15-2.50204E-13
 -1      1436 2.19981E+01 2.90174E-03-7.34370E-04-1.89515E-01 3.11376E-14-3.88168E-13
 -1      1437 2.17714E+01 6.82534E-03-1.21768E-03-1.86331E-01 8.75970E-15-3.33077E-13
 -1      1438 2.18773E+01 2.66906E-03-1.21380E-03-3.72335E-01 5.60175E-14-2.65780E-13
 -1      1439 2.15984E+01 7.09452E-03-3.85761E-04-1.71416E-01 8.24780E-14-3.76643E-13
 -1      1440 2.13936E+01 9.40666E-03-9.22739E-04-1.66639E-01 3.72924E-14-2.60080E-13
 -1      1441 2.15251E+01 1.12545E-02-2.37876E-03-3.48860E-01 2.47840E-14-3.56648E-13
 -1      1442 2.12402E+01 8.83125E-03-5.21402E-05-1.46682E-01-1.36655E-14-2.86417E-13
 -1      1443 2.10654E+01 9.99434E-03-5.90132E-04-1.41467E-01-4.81959E-14-4.02726E-13
 -1      1444 2.12038E+01 1.49823E-02-2.83475E-03-3.06316E-01-4.17992E-14-3.73469E-13
 -1      1445 2.09353E+01 9.02770E-03 1.96263E-04-1.20443E-01-3.47060E-14-3.46685E-13
 -1      1446 2.07921E+01 9.43593E-03-3.04181E-04-1.15456E-01 6.54012E-15-4.03149E-13
 -1      1447 2.09254E+01 1.56457E-02-2.85420E-03-2.56718E-01-4.46171E-14-3.01505E-13
 -1      1448 2.06856E+01 8.36144E-03 3.47921E-04-9.56590E-02 6.92390E-14-2.70269E-13
 -1      1449 2.05723E+01 8.31084E-03-9.14339E-05-9.12335E-02 9.46140E-14-2.34129E-13
 -1      1450 2.06933E+01 1.45912E-02-2.63212E-03-2.07474E-01 1.08523E-13-1.78086E-13
 -1      1451 2.04876E+01 7.28667E-03 4.18239E-04-7.37999E-02-4.89268E-14-1.95236E-13
 -1      1452 2.04006E+01 6.98316E-03 5.03221E-05-7.00625E-02-3.97017E-14-2.43308E-13
 -1      1453 2.05058E+01 1.27216E-02-2.29670E-03-1.62626E-01 1.12231E-13-1.39986E-13
 -1      1454 2.03350E+01 6.08524E-03 4.30282E-04-5.53988E-02-9.54098E-15-2.58949E-13
 -1      1455 2.02700E+01 5.66411E-03 1.34366E-04-5.23554E-02-3.72968E-14-2.65517E-13
 -1      1456 2.03585E+01 1.05927E-02-1.92688E-03-1.23984E-01-2.67688E-14-3.18361E-13
 -1      1457 2.02206E+01 4.91882E-03 4.05528E-04-4.04405E-02-2.74696E-14-3.55403E-13
 -1      1458 2.01734E+01 4.46436E-03 1.75992E-04-3.80335E-02 2.32059E-14-3.03164E-13
 -1      1459 2.02458E+01 8.51896E-03-1.56811E-03-9.19905E-02-2.63279E-14-2.10417E-13
 -1      1460 2.01370E+01 3.87054E-03 3.60653E-04-2.86207E-02 7.45665E-14-1.46704E-13
 -1      1461 2.01039E+01 3.43193E-03 1.88692E-04-2.67642E-02 1.51915E-13-2.54834E-14
 -1      1462 2.01616E+01 6.65929E-03-1.24415E-03-6.63137E-02 6.45995E-14-1.53130E-13
 -1      1463 2.00779E+01 2.97464E-03 3.07276E-04-1.95080E-02 2.44246E-14-4.72975E-14
 -1      1464 2.00556E+01 2.57772E-03 1.83027E-04-1.81086E-02-1.10950E-13-1.49651E-13
 -1      1465 2.01005E+01 5.07740E-03-9.65188E-04-4.62388E-02 5.39624E-14-1.84491E-14
 -1      1466 2.00377E+01 2.23642E-03 2.52806E-04-1.26403E-02-9.69367E-14-1.34142E-13
 -1      1467 2.00234E+01 1.89203E-03 1.66671E-04-1.16087E-02-1.60936E-13-3.26114E-13
 -1      1468 2.00575E+01 3.78202E-03-7.33183E-04-3.09069E-02-1.34620E-13-5.12373E-14
 -1      1469 2.00117E+01 1.64520E-03 2.01500E-04-7.57904E-03-1.30279E-13-3.85931E-13
 -1      1470 2.00033E+01 1.35491E-03 1.44835E-04-6.83612E-03-5.69840E-14-5.02103E-13
 -1      1471 2.00283E+01 2.75231E-03-5.45429E-04-1.94558E-02-2.03726E-13-1.95341E-13
 -1      1472 1.99961E+01 1.18239E-03 1.55407E-04-3.93674E-03 1.76255E-14-3.91440E-13
 -1      1473 1.99920E+01 9.42182E-04 1.20801E-04-3.41553E-03 2.77976E-14-4.08458E-13
 -1      1474 2.00096E+01 1.95333E-03-3.96828E-04-1.10959E-02 3.25499E-14-1.09151E-13
 -1      1475 1.99881E+01 8.26037E-04 1.15149E-04-1.38853E-03-8.17373E-14-1.85901E-13
 -1      1476 1.99869E+01 6.28625E-04 9.64959E-05-1.03510E-03-1.43581E-14-2.21964E-13
 -1      1477 1.99986E+01 1.34479E-03-2.81259E-04-5.14730E-03 7.71720E-14-9.36564E-14
 -1      1478 1.99853E+01 5.53060E-04 8.06579E-05 3.24081E-04 1.32544E-13-1.60840E-13
 -1      1479 1.99861E+01 3.89174E-04 7.32879E-05 5.50784E-04 1.91060E-13 1.28419E-13
 -1      1480 1.99931E+01 8.85234E-04-1.92259E-04-1.05389E-03 1.38153E-13 1.78192E-13
 -1      1481 1.99860E+01 3.39782E-04 5.22257E-05 1.39251E-03 2.06865E-13 1.20314E-13
 -1      1482 1.99880E+01 1.98541E-04 5.34625E-05 1.52064E-03 1.33925E-13 3.51175E-13
 -1      1483 1.99914E+01 5.32931E-04-1.23136E-04 1.61171E-03 2.96990E-13 3.22266E-13
 -1      1484 1.99888E+01 1.60250E-04 3.27516E-05 1.93879E-03 1.06937E-14 2.17790E-13
 -1      1485 1.99914E+01 2.83806E-05 4.29366E-05 1.98139E-03-3.79815E-14 2.29902E-13
 -1      1486 1.99921E+01 2.43295E-04-6.62634E-05 3.14596E-03 1.61204E-13 2.22849E-13
 -1      1487 1.99926E+01-2.03343E-05 3.01099E-05 2.00467E-03 2.14307E-14 3.22669E-13
 -1      1488 1.99951E+01-1.57898E-04 4.58287E-05 1.95264E-03 1.11871E-13 2.53802E-13
 -1      1489 1.99941E+01-4.18133E-05-1.34064E-05 3.69843E-03 6.58130E-14 1.41737E-13
 -1      1490 1.99964E+01-2.34127E-04 5.25841E-05 1.53487E-03-5.24756E-15 2.89898E-13
 -1      1491 1.99983E+01-3.57129E-04 7.07435E-05 1.39376E-03-1.22340E-13 2.22699E-13
 -1      1492 1.99966E+01-4.16615E-04 3.84107E-05 3.27233E-03 7.99981E-14 1.81965E-13
 -1      1493 1.99995E+01-3.64561E-04 1.46280E-04 2.56646E-04-1.96022E-13 1.24508E-13
 -1      1494 1.99990E+01-9.91435E-04 7.50052E-05 1.50850E-03-2.41748E-13 1.58935E-13
 -1      1495 2.03869E+01 7.48297E-02-1.48901E-01 4.29704E-01 1.28602E-13 1.47751E-12
 -1      1496 2.15727E+01 2.16084E-01-2.28021E-01 6.63035E-01 1.15227E-13 1.66801E-12
 -1      1497 2.18053E+01 8.66434E-01-8.72559E-02 1.95286E+00 2.30406E-13 1.14232E-12
 -1      1498 1.95994E+01 3.40553E-02-2.02684E-02 1.30715E-01 1.24975E-13 1.18970E-12
 -1      1499 1.99435E+01 1.15464E-01-6.06363E-02 1.83596E-01 1.09631E-13 1.36181E-12
 -1      1500 2.04999E+01 1.85511E-01-5.57351E-02 6.80932E-01 2.11157E-13 9.21670E-13
 -1      1501 1.93793E+01 1.85669E-02 5.43202E-03-1.20512E-02 7.24230E-14 9.75955E-13
 -1      1502 1.94323E+01 5.63993E-02 2.10811E-03 1.74003E-02 7.44361E-14 1.09473E-12
 -1      1503 1.98926E+01 7.54913E-02-1.34730E-02 1.82597E-01 1.74727E-13 7.35745E-13
 -1      1504 1.94697E+01 1.22169E-02 6.01828E-03-9.25147E-02 7.26346E-14 8.33070E-13
 -1      1505 1.93778E+01 3.35022E-02 1.17205E-02-7.29428E-02 5.35769E-14 9.15993E-13
 -1      1506 1.97234E+01 3.89272E-02-4.62175E-03-5.94427E-02 1.25542E-13 5.61847E-13
 -1      1507 1.97540E+01 9.88000E-03 3.30624E-03-1.47954E-01 2.09221E-14 7.21825E-13
 -1      1508 1.95722E+01 2.43684E-02 9.00461E-03-1.32566E-01 4.49003E-14 8.05847E-13
 -1      1509 1.98154E+01 2.48650E-02-4.62772E-03-2.04906E-01 9.51864E-14 5.00636E-13
 -1      1510 2.01813E+01 9.22156E-03 1.32751E-03-1.93544E-01 3.18799E-14 6.74648E-13
 -1      1511 1.99312E+01 2.08281E-02 5.80842E-03-1.79571E-01 1.57721E-14 7.04214E-13
 -1      1512 2.00821E+01 1.96081E-02-5.59977E-03-3.10189E-01 4.03362E-14 4.62437E-13
 -1      1513 2.07298E+01 9.18368E-03 5.05891E-05-2.35989E-01 2.57372E-14 6.19310E-13
 -1      1514 2.04191E+01 1.98510E-02 3.79209E-03-2.22000E-01 2.08297E-14 6.57353E-13
 -1      1515 2.04807E+01 1.80948E-02-6.40640E-03-3.99135E-01 4.21455E-14 3.94049E-13
 -1      1516 2.13901E+01 8.90733E-03-8.12269E-04-2.77323E-01 1.20140E-14 5.64562E-13
 -1      1517 2.10209E+01 1.96589E-02 2.50187E-03-2.62802E-01 1.51359E-14 5.88897E-13
 -1      1518 2.09904E+01 1.78069E-02-7.08049E-03-4.81743E-01 3.12671E-14 3.52297E-13
 -1      1519 2.21525E+01 7.28419E-03-1.14667E-03-3.15179E-01 3.91302E-14 5.29974E-13
 -1      1520 2.17281E+01 1.84715E-02 1.52111E-03-3.00714E-01 3.39550E-15 5.60963E-13
 -1      1521 2.15982E+01 1.65566E-02-7.47117E-03-5.58899E-01 2.12710E-14 3.31378E-13
 -1      1522 2.29939E+01 2.71756E-03-3.47757E-04-3.41391E-01 4.02412E-15 5.64174E-13
 -1      1523 2.25262E+01 1.38469E-02 7.69798E-04-3.29263E-01 2.78086E-14 5.73213E-13
 -1      1524 2.22878E+01 1.14936E-02-7.00495E-03-6.21912E-01 2.60285E-14 3.32321E-13
 -1      1525 2.38603E+01-6.86687E-03 2.72647E-03-3.39827E-01 1.67138E-14 5.86170E-13
 -1      1526 2.33801E+01 2.38257E-03 5.48640E-04-3.34883E-01 3.41762E-15 5.70419E-13
 -1      1527 2.30282E+01-1.39578E-03-4.60767E-03-6.49601E-01 2.91618E-15 4.33168E-13
 -1      1528 2.46468E+01-2.33412E-02 9.52834E-03-2.85149E-01 1.67279E-14 5.69152E-13
 -1      1529 2.42161E+01-1.98133E-02 1.58481E-03-2.95504E-01 6.44753E-15 5.38125E-13
 -1      1530 2.37600E+01-2.70131E-02 1.21967E-03-6.05258E-01 3.66651E-14 3.95389E-13
 -1      1531 2.51819E+01-4.63013E-02 2.06810E-02-1.46544E-01 4.20254E-14 5.41332E-13
 -1      1532 2.49042E+01-5.48495E-02 4.82636E-03-1.82828E-01 2.95545E-14 5.38061E-13
 -1      1533 2.43821E+01-6.88663E-02 1.17752E-02-4.38391E-01 6.39697E-14 3.14608E-13
 -1      1534 2.52374E+01-6.89972E-02 3.32536E-02 9.63959E-02-3.71795E-14 4.74617E-13
 -1      1535 2.52512E+01-9.76876E-02 1.04729E-02 2.58092E-02 4.07313E-15 5.30706E-13
 -1      1536 2.47475E+01-1.23026E-01 2.63789E-02-1.00859E-01 2.98251E-14 3.53583E-13
 -1      1537 2.45987E+01-7.47786E-02 3.76944E-02 4.19368E-01-4.21815E-14 5.25587E-13
 -1      1538 2.50328E+01-1.29055E-01 1.58064E-02 3.19620E-01-1.95972E-14 4.81726E-13
 -1      1539 2.46849E+01-1.67872E-01 3.96587E-02 4.10260E-01-3.85161E-14 3.15149E-13
 -1      1540 2.32203E+01-4.26128E-02 2.01089E-02 7.14533E-01-3.48428E-14 5.66297E-13
 -1      1541 2.40957E+01-1.15890E-01 1.38943E-02 6.17316E-01-4.20792E-14 4.59195E-13
 -1      1542 2.40711E+01-1.60351E-01 4.01971E-02 9.85399E-01-1.93075E-14 3.10654E-13
 -1      1543 2.14126E+01 3.13235E-02-2.42669E-02 7.99529E-01 1.80028E-13 4.49973E-13
 -1      1544 2.25295E+01-3.33009E-02-2.26572E-03 7.60523E-01 1.27036E-13 6.34243E-13
 -1      1545 2.29617E+01-5.57624E-02 1.84563E-02 1.36667E+00 6.55203E-14 3.24130E-13
 -1      1546 1.98771E+01 1.10691E-01-7.40016E-02 5.30733E-01-1.15566E-13 2.78826E-13
 -1      1547 2.08034E+01 9.66578E-02-2.93904E-02 5.94248E-01 4.72886E-14 3.33553E-13
 -1      1548 2.17043E+01 1.35912E-01-1.96896E-02 1.24462E+00 1.40703E-13 3.77063E-13
 -1      1549 1.93862E+01 1.34910E-01-9.00424E-02-2.51272E-02-1.90542E-14 4.66424E-13
 -1      1550 1.96624E+01 1.93868E-01-4.91716E-02 1.22673E-01-1.23464E-13 2.77237E-13
 -1      1551 2.08709E+01 3.10042E-01-4.89918E-02 5.21003E-01-1.26545E-13 1.57936E-13
 -1      1552 2.02232E+01 8.35969E-02-5.68862E-02-5.70762E-01 1.76994E-14 4.70519E-13
 -1      1553 1.96950E+01 1.86497E-01-4.37718E-02-4.21132E-01 8.64586E-15 4.80026E-13
 -1      1554 2.09143E+01 3.22918E-01-5.29087E-02-4.89284E-01-2.12608E-14 3.11043E-13
 -1      1555 2.19518E+01-4.77574E-05 2.98097E-03-8.21129E-01 4.35893E-14 3.78808E-13
 -1      1556 2.08905E+01 8.80387E-02-1.46517E-02-7.44910E-01 4.78463E-14 4.50182E-13
 -1      1557 2.18143E+01 1.63256E-01-3.17299E-02-1.24151E+00 3.80564E-14 3.65229E-13
 -1      1558 2.37612E+01-5.88426E-02 4.60355E-02-7.17878E-01 4.74161E-14 2.89421E-13
 -1      1559 2.26535E+01-2.47719E-02 1.70458E-02-7.29751E-01 3.42885E-14 3.59698E-13
 -1      1560 2.31006E+01-5.08084E-02-6.22467E-03-1.40271E+00 1.05364E-13 3.06227E-13
 -1      1561 2.50225E+01-7.33969E-02 5.48944E-02-4.15666E-01 1.55213E-13-1.40998E-14
 -1      1562 2.42443E+01-8.86874E-02 3.14226E-02-4.77939E-01 1.22338E-13 1.37279E-13
 -1      1563 2.42178E+01-1.80988E-01 9.24602E-03-1.04925E+00 2.08071E-13-6.38725E-14
 -1      1564 2.55293E+01-5.82905E-02 4.06129E-02-9.77659E-02-3.56321E-14-1.57711E-13
 -1      1565 2.52037E+01-9.67525E-02 2.76702E-02-1.67062E-01 4.97831E-14-8.13932E-14
 -1      1566 2.48439E+01-1.97082E-01 1.32763E-02-4.86062E-01 1.28179E-13-1.50124E-13
 -1      1567 2.53953E+01-3.43753E-02 2.07863E-02 1.33836E-01-8.60883E-14 9.96356E-14
 -1      1568 2.54521E+01-7.32046E-02 1.58716E-02 8.14951E-02-7.75517E-14-7.22165E-15
 -1      1569 2.49369E+01-1.45485E-01 1.10135E-02 2.35698E-02-1.40565E-13 2.04953E-14
 -1      1570 2.48540E+01-1.40397E-02 5.47847E-03 2.60180E-01-2.66844E-15 2.45814E-13
 -1      1571 2.51510E+01-4.25063E-02 4.95712E-03 2.29758E-01-8.24393E-14 1.86585E-13
 -1      1572 2.46219E+01-7.95151E-02 7.15540E-03 3.63055E-01-1.26787E-13 1.32481E-13
 -1      1573 2.41243E+01-8.09503E-04-3.13732E-03 3.03944E-01 2.24404E-14 3.13111E-13
 -1      1574 2.45299E+01-1.73766E-02-1.66309E-03 2.91106E-01 5.25853E-14 3.42944E-13
 -1      1575 2.40678E+01-2.72912E-02 3.88038E-03 5.30191E-01 1.56446E-14 2.02293E-13
 -1      1576 2.33603E+01 6.16992E-03-6.61977E-03 2.96475E-01-5.27592E-14 3.63870E-13
 -1      1577 2.37835E+01-1.03005E-03-4.32460E-03 2.94852E-01-5.06241E-14 3.03278E-13
 -1      1578 2.34190E+01 4.95255E-03 1.70384E-03 5.71308E-01-6.85924E-14 3.16817E-13
 -1      1579 2.26507E+01 8.95685E-03-7.14650E-03 2.63215E-01 6.78944E-14 2.10257E-13
 -1      1580 2.30407E+01 7.80434E-03-4.57912E-03 2.67570E-01 4.58017E-14 3.14679E-13
 -1      1581 2.27737E+01 2.08942E-02 4.33278E-04 5.37818E-01-8.27246E-16 1.73048E-13
 -1      1582 2.20363E+01 9.35627E-03-6.34264E-03 2.20638E-01 1.54974E-14-1.46827E-14
 -1      1583 2.23708E+01 1.15442E-02-3.77726E-03 2.27526E-01 1.02263E-13 1.08042E-13
 -1      1584 2.21869E+01 2.63697E-02-2.45104E-04 4.68863E-01 1.39520E-13 8.25919E-14
 -1      1585 2.15283E+01 8.58516E-03-5.12921E-03 1.77914E-01-4.21364E-15 3.32399E-14
 -1      1586 2.18022E+01 1.22918E-02-2.72835E-03 1.85357E-01-5.64971E-14-1.01209E-13
 -1      1587 2.16831E+01 2.61336E-02-5.78249E-04 3.89072E-01 1.68260E-14-9.14494E-14
 -1      1588 2.11218E+01 7.35536E-03-3.93529E-03 1.39417E-01 1.07609E-13-1.38531E-13
 -1      1589 2.13388E+01 1.14945E-02-1.79392E-03 1.46414E-01 5.14961E-14-3.50033E-14
 -1      1590 2.12673E+01 2.32641E-02-7.17770E-04 3.11867E-01 7.40614E-14-1.43523E-13
 -1      1591 2.08048E+01 6.04245E-03-2.91901E-03 1.06753E-01 1.24242E-13-2.30232E-13
 -1      1592 2.09724E+01 1.00305E-02-1.08060E-03 1.12875E-01 1.11425E-13-1.03344E-13
 -1      1593 2.09342E+01 1.95058E-02-7.49007E-04 2.43454E-01 1.32617E-13-1.63832E-13
 -1      1594 2.05628E+01 4.82367E-03-2.11178E-03 8.00756E-02-1.19332E-13-2.22317E-13
 -1      1595 2.06895E+01 8.38686E-03-5.81468E-04 8.52052E-02-1.68360E-14-2.52790E-13
 -1      1596 2.06737E+01 1.57446E-02-7.19749E-04 1.85897E-01-1.10929E-14-4.90542E-14
 -1      1597 2.03818E+01 3.76849E-03-1.49473E-03 5.88655E-02 7.96093E-14-2.62965E-13
 -1      1598 2.04756E+01 6.80988E-03-2.52905E-04 6.30393E-02 2.53351E-14-2.36650E-13
 -1      1599 2.04740E+01 1.23731E-02-6.57980E-04 1.39105E-01 5.81098E-14-1.90959E-14
 -1      1600 2.02491E+01 2.89176E-03-1.03427E-03 4.23491E-02 2.31375E-13-6.71582E-13
 -1      1601 2.03171E+01 5.40871E-03-4.80872E-05 4.56721E-02 5.35381E-14-5.07637E-13
 -1      1602 2.03241E+01 9.52299E-03-5.80927E-04 1.02003E-01 1.70241E-13-3.56587E-13
 -1      1603 2.01539E+01 2.18312E-03-6.96767E-04 2.97131E-02 8.47363E-14-8.83608E-13
 -1      1604 2.02021E+01 4.21880E-03 7.16743E-05 3.23123E-02 1.58887E-13-6.30026E-13
 -1      1605 2.02136E+01 7.19892E-03-4.99507E-04 7.31627E-02 2.03752E-13-4.51940E-13
 -1      1606 2.00875E+01 1.62214E-03-4.53390E-04 2.02024E-02-6.61730E-14-7.78399E-13
 -1      1607 2.01206E+01 3.23856E-03 1.35077E-04 2.22044E-02-7.24387E-14-9.36237E-13
 -1      1608 2.01341E+01 5.35050E-03-4.20591E-04 5.11289E-02-2.97406E-14-5.81931E-13
 -1      1609 2.00426E+01 1.18571E-03-2.80961E-04 1.31586E-02-4.17926E-14-3.84336E-13
 -1      1610 2.00646E+01 2.44929E-03 1.62278E-04 1.46789E-02-1.16080E-13-6.31995E-13
 -1      1611 2.00782E+01 3.90874E-03-3.48253E-04 3.45662E-02-2.02198E-13-3.44785E-13
 -1      1612 2.00137E+01 8.51360E-04-1.61330E-04 8.02891E-03-3.59759E-14-3.51171E-13
 -1      1613 2.00274E+01 1.82552E-03 1.67022E-04 9.16806E-03 3.60358E-14-3.26451E-13
 -1      1614 2.00403E+01 2.80283E-03-2.84572E-04 2.23163E-02-8.65437E-14-1.03378E-13
 -1      1615 1.99964E+01 5.98648E-04-8.04928E-05 4.36241E-03 6.64545E-14-3.67031E-13
 -1      1616 2.00042E+01 1.34032E-03 1.58486E-04 5.20477E-03 2.24119E-14-3.08748E-13
 -1      1617 2.00156E+01 1.96730E-03-2.30240E-04 1.34104E-02 7.81177E-14-4.37667E-14
 -1      1618 1.99873E+01 4.09617E-04-2.77615E-05 1.80006E-03-2.57486E-13-1.65924E-13
 -1      1619 1.99910E+01 9.67795E-04 1.42629E-04 2.41454E-03-7.35638E-14-2.94308E-13
 -1      1620 2.00007E+01 1.34467E-03-1.85011E-04 7.06088E-03-1.12911E-13 1.62467E-13
 -1      1621 1.99840E+01 2.68538E-04 5.11809E-06 6.37488E-05 1.68962E-13-1.34497E-13
 -1      1622 1.99849E+01 6.83996E-04 1.23165E-04 5.04861E-04 5.47313E-14-9.02172E-14
 -1      1623 1.99927E+01 8.85651E-04-1.47971E-04 2.64388E-03-7.33490E-14 1.05903E-13
 -1      1624 1.99845E+01 1.60947E-04 2.53751E-05-1.05282E-03 7.82990E-14-4.58408E-13
 -1      1625 1.99835E+01 4.66369E-04 1.02519E-04-7.44272E-04 7.10561E-15-3.87486E-13
 -1      1626 1.99896E+01 5.47728E-04-1.17367E-04-3.18755E-04 2.35200E-13-2.02141E-13
 -1      1627 1.99874E+01 7.20980E-05 4.16009E-05-1.68806E-03 6.78521E-14-4.99452E-13
 -1      1628 1.99853E+01 2.91747E-04 8.32871E-05-1.48577E-03 8.81127E-14-2.98359E-13
 -1      1629 1.99896E+01 2.92115E-04-8.95751E-05-2.17226E-03 6.46530E-14-3.03546E-13
 -1      1630 1.99915E+01-1.44734E-05 6.50928E-05-1.90913E-03 3.40100E-14-5.81923E-13
 -1      1631 1.99889E+01 1.33809E-04 7.02271E-05-1.80422E-03 3.55451E-14-5.71676E-13
 -1      1632 1.99916E+01 7.82424E-05-5.78426E-05-3.13147E-03 5.28679E-14-2.23774E-13
 -1      1633 1.99957E+01-1.20340E-04 1.01767E-04-1.70087E-03-4.50434E-14-5.06435E-13
 -1      1634 1.99931E+01-4.19725E-05 6.97131E-05-1.71090E-03 2.71908E-14-5.34233E-13
 -1      1635 1.99945E+01-1.40399E-04-1.26605E-05-3.27128E-03 7.85017E-14-1.55548E-13
 -1      1636 1.99987E+01-2.91219E-04 9.52826E-05-9.94019E-04-2.64288E-14-4.53336E-13
 -1      1637 1.99970E+01-2.72002E-04 8.13075E-05-1.14148E-03-2.55493E-14-5.11201E-13
 -1      1638 1.99973E+01-4.68178E-04 4.36080E-05-2.54105E-03 4.57774E-14-4.91441E-14
 -1      1639 1.99995E+01-4.17798E-04 1.24613E-04-2.90296E-04-2.38486E-13-2.97037E-13
 -1      1640 1.99996E+01-3.42377E-03 3.43431E-05-1.53355E-03-1.56191E-13 9.23466E-14
 -1      1641 1.99995E+01-1.73146E-03 3.96298E-05-1.33977E-03-2.68105E-13 5.27435E-14
 -1      1642 1.99998E+01-6.91757E-03-1.42917E-05-1.81421E-03 4.76609E-13 5.81695E-13
 -1      1643 1.99997E+01-4.69317E-03 1.78139E-05-1.80979E-03-7.45677E-14 2.52027E-13
 -1      1644 1.99995E+01-3.44628E-03 2.58774E-05-3.13352E-03-4.17324E-14 3.51624E-13
 -1      1645 1.99999E+01-1.02821E-02-3.08572E-05-1.63539E-03 3.20952E-13-1.58903E-13
 -1      1646 1.99999E+01-8.18842E-03-7.63082E-06-1.70607E-03 4.82628E-13 1.29262E-13
 -1      1647 1.99999E+01-5.91476E-03-2.04656E-05-3.31178E-03-1.54986E-14 2.76739E-13
 -1      1648 2.00000E+01-1.30024E-02-2.88293E-05-1.24918E-03 4.94183E-13 1.32060E-13
 -1      1649 1.99999E+01-1.13524E-02-1.43484E-05-1.34095E-03 3.91532E-13 2.72714E-13
 -1      1650 2.00000E+01-8.15466E-03-4.05667E-05-2.81113E-03 3.07013E-13 3.15230E-14
 -1      1651 2.00000E+01-1.48808E-02-2.13096E-05-8.35043E-04 3.18322E-13-3.33806E-14
 -1      1652 2.00000E+01-1.37605E-02-1.01807E-05-9.17042E-04 4.65267E-13-1.85189E-13
 -1      1653 2.00001E+01-9.87950E-03-4.24850E-05-2.05133E-03 1.11777E-13-4.75532E-14
 -1      1654 1.99999E+01-1.60339E-02-1.29575E-05-4.70668E-04 3.19416E-13 1.49964E-13
 -1      1655 1.99999E+01-1.53644E-02-6.07556E-06-5.35778E-04 2.27927E-13 5.56204E-14
 -1      1656 2.00001E+01-1.10287E-02-3.24576E-05-1.29969E-03 2.21643E-13-4.53610E-14
 -1      1657 1.99999E+01-1.65608E-02-6.39689E-06-1.85424E-04 3.94695E-13-8.50034E-14
 -1      1658 1.99999E+01-1.62748E-02-2.97130E-06-2.33458E-04 3.43986E-13 2.64838E-13
 -1      1659 2.00000E+01-1.16817E-02-2.15292E-05-6.68157E-04 3.56070E-14 2.16945E-13
 -1      1660 1.99999E+01-1.65837E-02-2.82628E-06 4.84127E-05 3.75001E-13 7.76444E-14
 -1      1661 1.99999E+01-1.66172E-02-2.99315E-06 7.64395E-06 4.72968E-13-2.15856E-13
 -1      1662 2.00000E+01-1.19427E-02-1.42464E-05-1.68403E-04 2.97193E-13-1.72708E-13
 -1      1663 1.99999E+01-1.61337E-02-2.50399E-06 2.83561E-04 4.60943E-14-2.53106E-13
 -1      1664 1.99999E+01-1.64810E-02-6.28904E-06 2.37525E-04 2.53676E-13 4.11928E-14
 -1      1665 2.00000E+01-1.18968E-02-1.37073E-05 2.72191E-04 1.11622E-13-4.24202E-14
 -1      1666 1.99999E+01-1.51415E-02-5.42630E-06 5.71040E-04-4.00011E-13-1.31939E-13
 -1      1667 1.99999E+01-1.58545E-02-1.27744E-05 5.09569E-04-7.79333E-15-2.71127E-13
 -1      1668 2.00000E+01-1.15521E-02-1.99822E-05 7.53824E-04-1.30667E-13-4.41499E-13
 -1      1669 1.99999E+01-1.35090E-02-1.03310E-05 9.26284E-04-5.04895E-13-4.80354E-14
 -1      1670 1.99999E+01-1.46464E-02-2.12445E-05 8.49875E-04-4.01921E-13-1.01305E-13
 -1      1671 2.00000E+01-1.08451E-02-3.00747E-05 1.34650E-03-2.48796E-13-2.40358E-13
 -1      1672 1.99999E+01-1.10862E-02-1.36044E-05 1.33226E-03-3.96952E-13 1.02584E-13
 -1      1673 2.00000E+01-1.27316E-02-2.90727E-05 1.24490E-03-4.13928E-13 1.29433E-13
 -1      1674 2.00001E+01-9.66868E-03-3.92767E-05 2.05651E-03-1.00156E-13 1.76033E-13
 -1      1675 1.99999E+01-7.97947E-03-1.25747E-05 1.68785E-03-4.96042E-13-3.94815E-14
 -1      1676 1.99999E+01-1.00315E-02-3.06476E-05 1.61356E-03-5.72814E-13 2.23273E-13
 -1      1677 2.00000E+01-7.94252E-03-3.84396E-05 2.78030E-03-6.50826E-14-5.02275E-14
 -1      1678 1.99997E+01-4.61981E-03-2.19300E-06 1.75222E-03-4.84041E-13 7.85879E-14
 -1      1679 1.99998E+01-6.73381E-03-2.00238E-05 1.75069E-03-4.53888E-13-7.81328E-14
 -1      1680 1.99998E+01-5.71518E-03-2.20566E-05 3.25166E-03-1.75629E-13-8.97555E-14
 -1      1681 1.99994E+01-1.89168E-03-1.98020E-06 1.73046E-03-2.94385E-13 1.00198E-13
 -1      1682 1.99995E+01-3.49267E-03-1.92914E-05 2.01784E-03-4.07534E-13 6.58326E-14
 -1      1683 1.99996E+01-3.26036E-03 8.93472E-05 3.41188E-03-1.89571E-13-1.06205E-13
 -1      1684 1.99984E+01-1.37957E-03 5.66566E-05 3.17252E-03-1.49874E-13 1.52972E-13
 -1      1685-6.63839E-01-1.46314E+01-1.66374E+00-1.11144E+00 9.30755E-13 7.06379E-14
 -1      1686-6.15429E-01-1.64799E+01-1.80573E+00 2.25939E-01 7.94809E-13 1.44107E-13
 -1      1687 1.33649E+00-8.47783E+00-1.21810E+00 3.99530E-01 1.05127E-12 6.95444E-13
 -1      1688 6.46018E-01-1.32196E+01-1.66355E+00-8.45850E-02 9.55125E-13 1.85928E-13
 -1      1689 6.05682E+00-1.25371E+00-6.84005E-01 3.84249E+00 1.48526E-12 1.02229E-12
 -1      1690 3.38422E+00-6.59649E+00-1.37328E+00 1.25452E+00 1.23257E-12 8.61144E-13
 -1      1691 1.59497E+01 3.91769E+00 6.73548E-02 8.77811E+00 1.25799E-12 1.40243E-12
 -1      1692 1.02123E+01 3.54733E-01-7.50658E-01 5.28011E+00 1.41043E-12 1.08491E-12
 -1      1693 2.92930E+01 6.32495E+00 8.67146E-01 1.22768E+01 1.06126E-12 1.30362E-12
 -1      1694 2.06096E+01 5.41227E+00-8.26810E-03 9.79195E+00 1.27720E-12 1.38711E-12
 -1      1695 4.31477E+01 5.41857E+00 1.48656E+00 1.14831E+01 6.61277E-13 9.25593E-13
 -1      1696 3.44228E+01 6.60564E+00 7.83162E-01 1.20781E+01 9.60509E-13 1.24745E-12
 -1      1697 5.33056E+01 3.83451E+00 1.86543E+00 5.65475E+00 4.01790E-13 2.89657E-13
 -1      1698 4.70842E+01 5.35589E+00 1.43835E+00 9.77365E+00 5.14866E-13 7.44738E-13
 -1      1699 5.53167E+01 3.68274E+00 1.89342E+00-2.56645E+00 4.35041E-13-7.34524E-13
 -1      1700 5.49527E+01 3.75143E+00 1.84829E+00 3.07443E+00 3.59740E-13-1.12799E-13
 -1      1701 4.87497E+01 5.16516E+00 1.54440E+00-9.50602E+00 5.93241E-13-1.30795E-12
 -1      1702 5.43333E+01 3.72893E+00 1.95305E+00-5.15226E+00 4.25077E-13-9.79716E-13
 -1      1703 3.54443E+01 6.41359E+00 8.09306E-01-1.15355E+01 1.08125E-12-1.62959E-12
 -1      1704 4.44562E+01 5.09116E+00 1.49254E+00-1.05645E+01 7.59448E-13-1.39955E-12
 -1      1705 2.13837E+01 5.65092E+00 3.11600E-02-1.00721E+01 1.44285E-12-1.68887E-12
 -1      1706 3.01514E+01 6.29728E+00 8.76431E-01-1.23662E+01 1.20892E-12-1.77458E-12
 -1      1707 9.96552E+00-2.04573E-01-8.08946E-01-4.98676E+00 1.64646E-12-1.32605E-12
 -1      1708 1.65672E+01 3.88245E+00 1.16450E-01-8.99531E+00 1.52867E-12-1.52311E-12
 -1      1709 2.62165E+00-7.97603E+00-1.51687E+00-7.11614E-01 1.34126E-12-8.96505E-13
 -1      1710 5.18758E+00-1.99779E+00-7.63589E-01-3.35899E+00 1.66267E-12-1.33493E-12
 -1      1711 1.32539E-01-1.45891E+01-1.83523E+00 4.85876E-01 3.67151E-13-5.42344E-13
 -1      1712 5.10519E-01-1.00690E+01-1.41633E+00 4.29443E-01 1.07936E-12-8.28088E-13
 -1      1713-6.79468E-01-1.68288E+01-1.85831E+00-3.77322E-01-6.28469E-13-4.05148E-13
 -1      1714-7.18648E-01-1.55278E+01-1.75663E+00 1.06801E+00 9.62008E-14-4.38899E-13
 -1      1715-4.81887E-01-1.41086E+01-1.66721E+00-9.58044E-01-1.37546E-12-5.16753E-13
 -1      1716-4.98587E-01-1.68007E+01-1.90620E+00 1.52781E-01-9.02917E-13-4.01540E-13
 -1      1717 1.61361E+00-7.33241E+00-1.19731E+00 6.50289E-01-1.61526E-12-7.66193E-13
 -1      1718 7.41166E-01-1.25298E+01-1.72611E+00-1.97976E-01-1.51279E-12-5.34989E-13
 -1      1719 7.22882E+00-7.98845E-03-5.52024E-01 4.84972E+00-1.57341E-12-1.23968E-12
 -1      1720 4.07466E+00-5.15691E+00-1.27939E+00 1.91234E+00-1.55120E-12-9.29867E-13
 -1      1721 2.06469E+01 4.30159E+00 3.60501E-01 1.00094E+01-1.22335E-12-1.38223E-12
 -1      1722 1.30905E+01 1.08374E+00-5.07091E-01 6.23252E+00-1.34814E-12-1.19427E-12
 -1      1723 3.40248E+01 6.58275E+00 1.15579E+00 1.27231E+01-9.95926E-13-1.39666E-12
 -1      1724 2.51214E+01 6.62316E+00 3.28008E-01 1.12399E+01-1.29652E-12-1.50213E-12
 -1      1725 4.66583E+01 4.93674E+00 1.61128E+00 1.02124E+01-6.37213E-13-5.47784E-13
 -1      1726 3.87792E+01 6.53299E+00 1.05400E+00 1.20856E+01-9.76524E-13-1.15730E-12
 -1      1727 5.36498E+01 3.58975E+00 1.76436E+00 3.38274E+00-2.57516E-13 2.24376E-13
 -1      1728 4.95719E+01 4.79744E+00 1.53771E+00 8.06619E+00-4.93119E-13-3.34954E-13
 -1      1729 5.27167E+01 4.03541E+00 1.64681E+00-4.24889E+00-4.24188E-13 1.01985E-12
 -1      1730 5.38922E+01 3.69143E+00 1.71170E+00 9.19355E-01-3.12528E-13 4.79651E-13
 -1      1731 4.57377E+01 5.54153E+00 1.35761E+00-1.03267E+01-6.90108E-13 1.57518E-12
 -1      1732 5.16675E+01 3.97906E+00 1.75113E+00-6.71373E+00-5.00253E-13 1.30995E-12
 -1      1733 3.32364E+01 6.49862E+00 6.89049E-01-1.15374E+01-1.13670E-12 1.71996E-12
 -1      1734 4.16131E+01 5.42052E+00 1.33842E+00-1.10618E+01-7.97057E-13 1.66844E-12
 -1      1735 2.04537E+01 5.41051E+00 6.98578E-03-9.75960E+00-1.43840E-12 1.64402E-12
 -1      1736 2.84407E+01 6.20176E+00 7.75023E-01-1.20125E+01-1.26699E-12 1.74616E-12
 -1      1737 1.01083E+01 7.39245E-01-6.85531E-01-5.47262E+00-1.50024E-12 1.31140E-12
 -1      1738 1.58309E+01 4.29253E+00 1.25784E-01-8.96024E+00-1.44806E-12 1.56830E-12
 -1      1739 3.90530E+00-6.45264E+00-1.23895E+00-1.79853E+00-1.01708E-12 9.24871E-13
 -1      1740 6.64093E+00-1.20093E+00-5.53994E-01-4.34384E+00-1.41109E-12 1.22458E-12
 -1      1741 5.89825E-01-1.30611E+01-1.65744E+00-1.66055E-02 2.55351E-14 6.45928E-13
 -1      1742 1.21561E+00-8.30570E+00-1.19471E+00-4.38866E-01-7.85483E-13 9.65950E-13
 -1      1743-5.29799E-01-1.61049E+01-1.74773E+00-4.65215E-01 7.24615E-13 2.51354E-13
 -1      1744-4.84471E-01-1.40776E+01-1.56389E+00 6.98673E-01 2.28151E-13 3.43975E-13
 -1      1745 2.30237E+01 9.60475E-02 1.22655E-01 7.14891E+00 7.54286E-13 7.36411E-13
 -1      1746 1.32952E+01-3.70147E+00-4.20662E-01 6.06924E+00 7.71272E-13 6.94000E-13
 -1      1747 1.99993E+01-8.62802E-04 1.13839E-04-1.04055E-03-3.27440E-13-1.35903E-13
 -1      1748 1.99988E+01-1.41374E-03 5.93282E-05-2.32088E-03 3.67958E-14 3.08777E-14
 -1      1749 5.13694E-01-1.00865E+01-1.14978E+00 2.29015E+00 4.53970E-13 1.21902E-13
 -1      1750 5.45465E+00-7.47105E+00-9.03336E-01 4.23309E+00 5.86087E-13 7.19758E-13
 -1      1751-1.29569E+00-1.09336E+01-1.24894E+00-2.53183E-01 3.29903E-13 3.55493E-13
 -1      1752 3.32330E+01 3.58047E+00 7.64041E-01 7.14045E+00 8.38662E-13 6.43929E-13
 -1      1753 4.19780E+01 5.80107E+00 1.27037E+00 5.18080E+00 7.61446E-13 5.10481E-13
 -1      1754 4.67640E+01 7.30347E+00 1.55372E+00 1.82104E+00 7.03271E-13 2.34257E-14
 -1      1755 4.75123E+01 7.22808E+00 1.61486E+00-1.76312E+00 6.22613E-13-5.15477E-13
 -1      1756 4.24061E+01 5.78567E+00 1.18603E+00-4.51449E+00 7.06823E-13-7.60725E-13
 -1      1757 3.40489E+01 3.62961E+00 7.95727E-01-6.74360E+00 8.08575E-13-8.75522E-13
 -1      1758 2.34710E+01 5.18875E-02 1.52533E-01-7.12977E+00 7.97584E-13-8.48210E-13
 -1      1759 1.29443E+01-4.11010E+00-4.23040E-01-6.04558E+00 7.94365E-13-9.01945E-13
 -1      1760 4.26551E+00-8.21368E+00-1.01486E+00-3.72150E+00 5.47784E-13-9.61089E-13
 -1      1761-2.03622E-01-1.08891E+01-1.27325E+00-1.61739E+00 8.54872E-14-8.69804E-13
 -1      1762-1.28424E+00-1.16228E+01-1.33666E+00 4.45392E-01-4.10200E-13-7.48290E-13
 -1      1763 9.23060E-01-1.01968E+01-1.21266E+00 2.52869E+00-7.93587E-13-5.35905E-13
 -1      1764 6.32956E+00-6.73507E+00-8.13082E-01 4.61802E+00-9.18265E-13-5.97009E-13
 -1      1765 1.60426E+01-2.93745E+00-1.51024E-01 6.69087E+00-7.56062E-13-7.63722E-13
 -1      1766 2.62336E+01 6.59884E-01 2.14581E-01 6.92473E+00-7.66442E-13-7.27418E-13
 -1      1767 3.60849E+01 4.80152E+00 9.57773E-01 7.01917E+00-8.97393E-13-5.48672E-13
 -1      1768 4.33666E+01 6.58548E+00 1.36657E+00 4.52552E+00-8.08020E-13-1.57929E-13
 -1      1769 4.60659E+01 7.47436E+00 1.44454E+00 1.03981E+00-6.51701E-13 2.76404E-13
 -1      1770 4.54402E+01 7.13394E+00 1.41519E+00-2.57734E+00-6.61193E-13 6.53533E-13
 -1      1771 4.04496E+01 5.70439E+00 1.11280E+00-5.22353E+00-7.15011E-13 9.10383E-13
 -1      1772 3.23460E+01 3.42316E+00 6.92155E-01-6.78065E+00-7.90812E-13 9.55458E-13
 -1      1773 2.27670E+01 3.23919E-01 1.71486E-01-7.29523E+00-7.85039E-13 1.03728E-12
 -1      1774 1.34997E+01-3.61731E+00-3.73161E-01-6.35960E+00-6.09957E-13 8.94007E-13
 -1      1775 5.73818E+00-7.20554E+00-8.01246E-01-4.67365E+00-2.28040E-13 1.06034E-12
 -1      1776 5.40422E-01-9.85540E+00-1.12839E+00-2.47616E+00 1.50435E-13 9.13269E-13
 -1      1777 2.28783E+01 1.96544E+00-2.54809E-02-2.61549E+00-2.23488E-13 6.68909E-13
 -1      1778 1.99294E+01 3.73988E+00-3.60702E-02-1.94293E+00-2.34888E-13-3.78645E-13
 -1      1779 2.01861E+01 3.57709E+00-3.82632E-02-2.23929E+00-2.85171E-13-2.97616E-13
 -1      1780 2.05011E+01 3.17756E+00-4.56314E-02-2.39472E+00-2.92929E-13-1.89633E-13
 -1      1781 2.07222E+01 2.79634E+00-1.38677E-01-2.67393E+00-3.26492E-13-4.77118E-14
 -1      1782 2.05663E+01 2.70694E+00-3.35817E-03-2.01531E+00-3.06163E-13-2.16879E-13
 -1      1783 1.93260E+01 4.27854E+00-2.06755E-02-1.08644E+00-1.02569E-13-4.74940E-13
 -1      1784 1.94364E+01 4.23075E+00-1.58158E-02-1.29744E+00-1.38999E-13-4.70178E-13
 -1      1785 1.91614E+01 4.41089E+00-1.68258E-02-7.16525E-01-2.64673E-14-4.65428E-13
 -1      1786 1.92374E+01 4.38142E+00-1.25271E-02-9.05772E-01-5.99989E-14-4.76697E-13
 -1      1787 1.94650E+01 3.91694E+00-7.96396E-03-9.33293E-01-9.57665E-14-4.52693E-13
 -1      1788 1.90592E+01 4.49147E+00-1.43280E-02-3.79439E-01 4.38354E-14-4.44903E-13
 -1      1789 1.91040E+01 4.47490E+00-1.15880E-02-5.52118E-01 1.27402E-14-4.56522E-13
 -1      1790 1.92970E+01 4.07117E+00-7.60868E-03-5.94969E-01-2.17632E-15-4.37509E-13
 -1      1791 1.90157E+01 4.52833E+00-1.27018E-02-6.15664E-02 1.02161E-13-4.25182E-13
 -1      1792 1.90307E+01 4.52274E+00-1.17341E-02-2.25836E-01 7.48294E-14-4.40228E-13
 -1      1793 1.91980E+01 4.15902E+00-7.30276E-03-2.82809E-01 6.85605E-14-4.24661E-13
 -1      1794 1.90305E+01 4.52399E+00-1.17935E-02 2.51953E-01 1.58935E-13-4.17584E-13
 -1      1795 1.90156E+01 4.52903E+00-1.26711E-02 8.79864E-02 1.34850E-13-4.28248E-13
 -1      1796 1.91650E+01 4.18851E+00-7.16143E-03 1.49427E-02 1.23522E-13-4.13942E-13
 -1      1797 1.91049E+01 4.47692E+00-1.16815E-02 5.76524E-01 2.09876E-13-3.80562E-13
 -1      1798 1.90593E+01 4.49360E+00-1.43457E-02 4.04596E-01 1.84774E-13-4.01956E-13
 -1      1799 1.91980E+01 4.16119E+00-7.24047E-03 3.11625E-01 1.78644E-13-3.97962E-13
 -1      1800 1.92388E+01 4.38372E+00-1.26250E-02 9.21629E-01 2.57995E-13-3.30102E-13
 -1      1801 1.91623E+01 4.41341E+00-1.69602E-02 7.36488E-01 2.34990E-13-3.68372E-13
 -1      1802 1.92978E+01 4.07469E+00-7.41827E-03 6.18073E-01 2.36436E-13-3.56644E-13
 -1      1803 1.94455E+01 4.22762E+00-1.55822E-02 1.31456E+00 3.27348E-13-2.34753E-13
 -1      1804 1.93300E+01 4.27786E+00-2.09993E-02 1.10021E+00 2.88823E-13-2.87203E-13
 -1      1805 1.94685E+01 3.91893E+00-7.82328E-03 9.49081E-01 2.97450E-13-2.90996E-13
 -1      1806 1.97479E+01 3.97603E+00-2.33796E-02 1.76294E+00 3.69724E-13-1.06849E-13
 -1      1807 1.95791E+01 4.06256E+00-2.76979E-02 1.51138E+00 3.38104E-13-1.83312E-13
 -1      1808 1.97253E+01 3.67023E+00-7.71090E-03 1.31447E+00 3.57169E-13-1.88433E-13
 -1      1809 2.02082E+01 3.54068E+00-4.30968E-02 2.26101E+00 3.92629E-13 1.05613E-13
 -1      1810 1.99463E+01 3.71270E+00-4.01578E-02 1.96769E+00 3.76484E-13-1.95746E-14
 -1      1811 2.00990E+01 3.28147E+00-4.75927E-03 1.70230E+00 3.92178E-13-4.20029E-14
 -1      1812 2.10548E+01 2.67114E+00-5.53877E-02 2.67558E+00 3.68189E-13 4.81400E-13
 -1      1813 2.05552E+01 3.09597E+00-4.99227E-02 2.41964E+00 3.72367E-13 2.55830E-13
 -1      1814 2.06602E+01 2.62759E+00 3.26733E-03 2.02773E+00 3.85720E-13 1.77875E-13
 -1      1815 2.18292E+01 1.20175E+00-1.19957E-01 2.19032E+00 2.86451E-13 9.07482E-13
 -1      1816 2.13976E+01 2.24630E+00-1.15609E-04 2.57704E+00 3.23427E-13 6.28261E-13
 -1      1817 2.10971E+01 1.68340E+00-2.06860E-02 1.95568E+00 3.66839E-13 4.62116E-13
 -1      1818 2.11032E+01 7.74426E-01-5.95749E-02 1.38655E+00 2.88228E-13 8.04417E-13
 -1      1819 2.18917E+01 2.43388E+00 8.90249E-02-2.90017E+00-2.95023E-13 2.16910E-13
 -1      1820 2.03621E+01 3.07508E-01-6.65531E-03 5.10862E-01 2.43951E-13 6.41704E-13
 -1      1821 2.08489E+01 4.44919E-01-1.10755E-02 8.92947E-01 2.50591E-13 7.33107E-13
 -1      1822 2.09403E+01 8.46392E-01 1.13062E-03 1.24379E+00 2.99098E-13 5.38240E-13
 -1      1823 2.16322E+01 1.73294E+00 7.84952E-02-2.17365E+00-3.12167E-13 1.16199E-13
 -1      1824 2.07486E+01 5.11288E-01 3.30526E-02-7.54343E-01-2.44103E-13 8.35491E-14
 -1      1825 2.03821E+01 3.70620E-01 1.01832E-02-4.54349E-01-2.05596E-13 8.08468E-15
 -1      1826 2.02352E+01 2.81830E-01 2.78137E-02-1.97377E-01-1.87213E-13 1.40903E-14
 -1      1827 2.01211E+01 2.09070E-01 1.30182E-02-4.32945E-02-1.73960E-13-2.37900E-14
 -1      1828 2.04866E+01 5.15460E-01-7.19004E-03-4.86658E-01-2.24386E-13-7.91238E-14
 -1      1829 2.00594E+01 1.68245E-01 1.72330E-02 1.16055E-01-1.37611E-13-1.51103E-14
 -1      1830 2.00743E+01 1.33852E-01 9.85097E-03 2.09244E-01-9.36248E-14-4.77444E-14
 -1      1831 2.02710E+01 2.93380E-01-7.09192E-03-9.78169E-03-1.76035E-13-5.95253E-14
 -1      1832 2.00836E+01 1.12404E-01 9.47285E-03 3.14904E-01-8.62084E-14-4.53643E-14
 -1      1833 2.01814E+01 9.42485E-02 7.12655E-03 3.77890E-01-6.37958E-14-5.87421E-14
 -1      1834 2.02242E+01 1.88084E-01-6.21108E-03 2.92101E-01-1.01899E-13-6.96697E-14
 -1      1835 2.02451E+01 8.11892E-02 5.14394E-03 4.52752E-01-7.74695E-14-8.67353E-14
 -1      1836 2.03984E+01 6.95534E-02 5.28335E-03 4.98241E-01-8.67971E-14-1.40747E-13
 -1      1837 2.03029E+01 1.32185E-01-5.19885E-03 4.98243E-01-1.00535E-13-1.08379E-13
 -1      1838 2.05030E+01 5.90782E-02 2.75172E-03 5.52521E-01-8.73302E-14-1.57530E-13
 -1      1839 2.06938E+01 4.82153E-02 3.57468E-03 5.84567E-01-7.25063E-14-1.50677E-13
 -1      1840 2.04760E+01 9.55545E-02-4.17898E-03 6.45965E-01-1.09258E-13-1.58070E-13
 -1      1841 2.08295E+01 3.62769E-02 1.28920E-03 6.20418E-01-5.84553E-14-1.61138E-13
 -1      1842 2.10426E+01 2.16184E-02 1.42489E-03 6.37459E-01-5.36517E-14-1.64932E-13
 -1      1843 2.07203E+01 6.12929E-02-3.28810E-03 7.49515E-01-7.77041E-14-1.70101E-13
 -1      1844 2.12011E+01 4.64026E-03 2.57196E-04 6.50734E-01-9.38485E-14-1.41100E-13
 -1      1845 2.14198E+01-1.79852E-02-1.55521E-03 6.46536E-01-8.57992E-14-1.45264E-13
 -1      1846 2.10171E+01 1.64741E-02-2.50248E-03 8.07221E-01-6.28085E-14-1.87937E-13
 -1      1847 2.15924E+01-4.31694E-02-5.78042E-04 6.27601E-01-8.84687E-14-1.39952E-13
 -1      1848 2.17949E+01-7.70255E-02-5.51802E-03 5.92017E-01-1.11358E-13-1.86385E-13
 -1      1849 2.13490E+01-5.01693E-02-1.69600E-03 8.04397E-01-1.16066E-13-1.45971E-13
 -1      1850 2.19711E+01-1.12133E-01-1.33957E-03 5.27085E-01-9.36451E-14-1.70162E-13
 -1      1851 2.21291E+01-1.57609E-01-1.01801E-02 4.48111E-01-1.98522E-14-1.95888E-13
 -1      1852 2.16963E+01-1.46748E-01-6.57982E-04 7.15652E-01-8.10530E-14-7.45378E-14
 -1      1853 2.22931E+01-2.00503E-01-2.15458E-03 3.22925E-01 1.01546E-14-2.07510E-13
 -1      1854 2.23731E+01-2.51489E-01-1.45080E-02 1.91689E-01 2.59367E-14-2.03091E-13
 -1      1855 2.20322E+01-2.72590E-01 9.31417E-04 5.10146E-01-2.34535E-14-9.27776E-14
 -1      1856 2.25018E+01-2.92516E-01-3.23195E-03-3.87966E-04 4.97068E-14-1.80397E-13
 -1      1857 2.24711E+01-3.32152E-01-1.64984E-02-1.80495E-01 7.28003E-14-1.64466E-13
 -1      1858 2.23188E+01-4.08379E-01 3.47171E-03 1.63933E-01 4.20744E-14-8.91941E-14
 -1      1859 2.25323E+01-3.51136E-01-4.81546E-03-4.24802E-01 5.20287E-14-1.86341E-13
 -1      1860 2.23719E+01-3.51104E-01-1.36199E-02-6.26143E-01 1.73637E-14-1.24192E-13
 -1      1861 2.25033E+01-5.05632E-01 7.12398E-03-3.16841E-01 4.67074E-14-4.41995E-14
 -1      1862 2.23308E+01-3.20361E-01-6.83759E-03-8.71203E-01-4.57863E-14-1.82298E-13
 -1      1863 2.20524E+01-2.51255E-01-4.49963E-03-1.03446E+00-9.14269E-14-1.45551E-13
 -1      1864 2.25224E+01-4.87592E-01 1.08870E-02-8.63435E-01-3.44065E-14-1.63033E-13
 -1      1865 2.18933E+01-1.51339E-01-8.00882E-03-1.18863E+00-1.08611E-13-1.57726E-13
 -1      1866 2.15525E+01-8.18988E-03 8.53999E-03-1.23403E+00-9.76801E-14-1.68527E-13
 -1      1867 2.23274E+01-2.81165E-01 1.16847E-02-1.32015E+00-1.01702E-13-1.64867E-13
 -1      1868 2.13122E+01 1.45243E-01-5.80274E-03-1.19595E+00-8.63563E-14-1.43062E-13
 -1      1869 2.10043E+01 3.16869E-01 1.85707E-02-1.06391E+00-7.27179E-14-1.70104E-13
 -1      1870 2.19365E+01 1.15301E-01 5.57396E-03-1.46796E+00-9.56259E-14-1.17807E-13
 -1      1871 2.07867E+01 4.59108E-01 1.53525E-03-7.91344E-01-9.21763E-14-2.18867E-13
 -1      1872 2.06158E+01 5.71521E-01 1.87544E-02-4.96599E-01-1.42601E-13-2.42752E-13
 -1      1873 2.14845E+01 5.72981E-01-7.38343E-03-1.13333E+00-1.22192E-13-1.15594E-13
 -1      1874 2.05451E+01 6.20324E-01 1.22441E-02-6.89159E-02-1.95444E-13-2.70917E-13
 -1      1875 2.05755E+01 6.05210E-01 9.95913E-03 2.81508E-01-1.23363E-13-3.45362E-13
 -1      1876 2.11976E+01 8.64375E-01-1.91415E-02-3.46521E-01-1.89106E-13-1.02385E-13
 -1      1877 2.06975E+01 5.30781E-01 1.94616E-02 6.88351E-01-6.25541E-14-4.37093E-13
 -1      1878 2.09210E+01 3.98166E-01-3.72943E-04 9.54037E-01-5.06244E-14-4.58644E-13
 -1      1879 2.12488E+01 8.25828E-01-1.73890E-02 5.96911E-01-1.60791E-13-2.91062E-13
 -1      1880 2.11661E+01 2.46592E-01 1.68310E-02 1.17808E+00 1.72297E-14-4.55983E-13
 -1      1881 2.15062E+01 7.55972E-02-6.47217E-03 1.27025E+00 5.04657E-14-4.58276E-13
 -1      1882 2.16138E+01 4.80155E-01-4.39708E-03 1.30253E+00 5.39022E-15-3.41590E-13
 -1      1883 2.17467E+01-6.89414E-02 5.37783E-03 1.26134E+00 7.77473E-14-3.80132E-13
 -1      1884 2.20983E+01-1.95997E-01-7.57294E-03 1.18595E+00 1.02630E-13-3.64883E-13
 -1      1885 2.20927E+01 2.08635E-02 7.30001E-03 1.52770E+00 9.72754E-14-3.42290E-13
 -1      1886 2.22446E+01-2.78848E-01-7.13710E-03 1.00712E+00 4.07105E-14-3.90697E-13
 -1      1887 2.25205E+01-3.29207E-01-5.83534E-03 8.33479E-01-1.83967E-15-3.60849E-13
 -1      1888 2.24715E+01-3.35708E-01 1.15013E-02 1.30049E+00 1.23125E-13-3.65978E-13
 -1      1889 2.25514E+01-3.45507E-01-1.47584E-02 5.88733E-01-6.40399E-14-2.88079E-13
 -1      1890 2.27071E+01-3.32717E-01-3.73040E-03 3.94169E-01-2.22947E-14-2.75439E-13
 -1      1891 2.26452E+01-4.92062E-01 9.80977E-03 8.19150E-01 3.32577E-14-3.38919E-13
 -1      1892 2.26455E+01-3.05927E-01-1.63070E-02 1.66665E-01 6.52256E-14-2.88523E-13
 -1      1893 2.26785E+01-2.60856E-01-2.20604E-03 3.06985E-03 1.14892E-13-2.92807E-13
 -1      1894 2.26172E+01-4.74107E-01 5.94762E-03 2.93541E-01 6.51055E-14-2.33854E-13
 -1      1895 2.25597E+01-2.17803E-01-1.36000E-02-1.65557E-01 1.14688E-13-3.38396E-13
 -1      1896 2.24938E+01-1.66612E-01-1.18584E-03-2.77386E-01 5.39577E-14-3.49715E-13
 -1      1897 2.24432E+01-3.60491E-01 2.61023E-03-1.41790E-01 1.08570E-13-2.71705E-13
 -1      1898 2.23476E+01-1.25144E-01-9.15197E-03-3.79324E-01-4.91694E-14-2.79036E-13
 -1      1899 2.22162E+01-8.21595E-02-4.68859E-04-4.40293E-01-1.68348E-14-2.38268E-13
 -1      1900 2.21849E+01-2.23205E-01 4.41257E-04-4.36364E-01 5.66639E-14-1.90996E-13
 -1      1901 2.20629E+01-5.01089E-02-4.76567E-03-4.85829E-01-2.55351E-15-1.31301E-13
 -1      1902 2.18977E+01-1.99065E-02 8.84762E-05-5.06962E-01 9.66269E-14-9.47248E-14
 -1      1903 2.18901E+01-1.04032E-01-7.99436E-04-5.95237E-01 6.63276E-14-2.02864E-14
 -1      1904 2.17498E+01 1.40093E-03-1.30058E-03-5.12215E-01 6.40856E-14-1.61798E-13
 -1      1905 2.15756E+01 1.96200E-02 5.24000E-04-5.06664E-01 2.66448E-14-8.51351E-14
 -1      1906 2.15912E+01-1.79771E-02-1.45902E-03-6.48248E-01 6.08047E-14-4.83450E-14
 -1      1907 2.14401E+01 3.18702E-02 1.03831E-03-4.86928E-01-7.57255E-14-2.58871E-13
 -1      1908 2.12734E+01 4.09166E-02 8.34613E-04-4.66027E-01-7.80525E-14-3.20249E-13
 -1      1909 2.13082E+01 3.55785E-02-1.77758E-03-6.29994E-01 5.84171E-15-1.50471E-13
 -1      1910 2.11539E+01 4.66149E-02 2.38276E-03-4.33230E-01 2.31508E-14-3.72686E-13
 -1      1911 2.10043E+01 4.94821E-02 1.01924E-03-4.05287E-01 4.81813E-14-2.80599E-13
 -1      1912 2.10525E+01 6.35784E-02-1.88971E-03-5.70252E-01-3.47313E-14-3.18901E-13
 -1      1913 2.09020E+01 5.09268E-02 2.98139E-03-3.67667E-01-2.90902E-15-1.72641E-13
 -1      1914 2.07739E+01 5.00624E-02 1.09215E-03-3.38115E-01 9.76257E-14-1.32140E-14
 -1      1915 2.08295E+01 7.39798E-02-1.86900E-03-4.91063E-01 1.22127E-13-1.99264E-13
 -1      1916 2.06886E+01 4.90140E-02 3.08291E-03-3.00820E-01 1.01951E-13-3.74647E-14
 -1      1917 2.05828E+01 4.61707E-02 1.07822E-03-2.72847E-01 1.74880E-13-3.38247E-14
 -1      1918 2.06406E+01 7.34968E-02-1.76068E-03-4.07077E-01 9.51635E-14 6.31876E-14
 -1      1919 2.05134E+01 4.38451E-02 2.88886E-03-2.38748E-01 1.41143E-13-1.81526E-13
 -1      1920 2.04286E+01 4.01710E-02 1.00507E-03-2.13977E-01 5.77522E-15-2.53445E-13
 -1      1921 2.04847E+01 6.70376E-02-1.59735E-03-3.27094E-01 7.04341E-14-2.95774E-13
 -1      1922 2.03732E+01 3.73464E-02 2.54411E-03-1.84408E-01-5.28566E-14-2.64282E-13
 -1      1923 2.03071E+01 3.35370E-02 8.97511E-04-1.63452E-01-3.13306E-14-2.94557E-13
 -1      1924 2.03588E+01 5.78726E-02-1.40446E-03-2.55747E-01-4.35401E-14-1.87518E-13
 -1      1925 2.02639E+01 3.06777E-02 2.14400E-03-1.38779E-01-8.68359E-15-1.57847E-13
 -1      1926 2.02137E+01 2.71186E-02 7.75001E-04-1.21651E-01-4.90366E-14-8.94929E-14
 -1      1927 2.02595E+01 4.80205E-02-1.20176E-03-1.94914E-01 4.46830E-14-1.32318E-13
 -1      1928 2.01807E+01 2.44776E-02 1.74621E-03-1.01679E-01 1.04183E-13 7.99311E-14
 -1      1929 2.01435E+01 2.13545E-02 6.51245E-04-8.80674E-02 1.98357E-13 1.67667E-13
 -1      1930 2.01828E+01 3.86289E-02-1.00379E-03-1.44794E-01 8.10590E-14 1.16744E-13
 -1      1931 2.01188E+01 1.90500E-02 1.38229E-03-7.23084E-02 1.00795E-13 5.99304E-14
 -1      1932 2.00920E+01 1.64255E-02 5.34870E-04-6.17503E-02 1.74049E-14 6.09594E-14
 -1      1933 2.01248E+01 3.02753E-02-8.20321E-04-1.04632E-01 7.79364E-14 2.02316E-13
 -1      1934 2.00740E+01 1.44932E-02 1.06668E-03-4.95959E-02 5.36688E-15 1.63798E-13
 -1      1935 2.00554E+01 1.23586E-02 4.30564E-04-4.15878E-02-8.18410E-14 2.11711E-13
 -1      1936 2.00819E+01 2.31819E-02-6.56891E-04-7.32153E-02 8.83609E-14 1.20194E-13
 -1      1937 2.00426E+01 1.07863E-02 8.03191E-04-3.24144E-02-3.13817E-13 1.55944E-13
 -1      1938 2.00302E+01 9.09502E-03 3.40142E-04-2.64726E-02-2.09429E-13 2.51009E-13
 -1      1939 2.00511E+01 1.73616E-02-5.15746E-04-4.91767E-02-2.25325E-13 3.01008E-13
 -1      1940 2.00215E+01 7.84545E-03 5.89522E-04-1.96998E-02-1.45645E-13 2.06939E-13
 -1      1941 2.00137E+01 6.53323E-03 2.63393E-04-1.53932E-02 2.92728E-14 1.73491E-13
 -1      1942 2.00297E+01 1.27121E-02-3.96835E-04-3.11761E-02-2.07442E-13 5.26715E-13
 -1      1943 2.00080E+01 5.55716E-03 4.20200E-04-1.05141E-02 1.94278E-13 1.63132E-14
 -1      1944 2.00036E+01 4.55364E-03 1.98631E-04-7.47897E-03 1.16437E-13 1.05547E-13
 -1      1945 2.00153E+01 9.07481E-03-2.98657E-04-1.80014E-02 2.28824E-14 2.92898E-13
 -1      1946 2.00002E+01 3.79713E-03 2.88434E-04-4.07372E-03 1.20817E-13 2.76676E-13
 -1      1947 1.99981E+01 3.03106E-03 1.43167E-04-2.01918E-03 3.23988E-13 4.84884E-13
 -1      1948 2.00063E+01 6.26797E-03-2.18900E-04-8.61738E-03 2.93179E-13 1.06438E-13
 -1      1949 1.99963E+01 2.43853E-03 1.87357E-04 2.41489E-04 2.02749E-13 3.73230E-13
 -1      1950 1.99959E+01 1.83894E-03 9.37012E-05 1.53180E-03 2.67162E-13 2.86283E-13
 -1      1951 2.00011E+01 4.10318E-03-1.54854E-04-2.18513E-03 1.95319E-13 1.76205E-13
 -1      1952 1.99951E+01 1.35319E-03 1.11199E-04 2.88607E-03 1.09927E-13 2.61505E-13
 -1      1953 1.99957E+01 8.51837E-04 5.12266E-05 3.55073E-03 5.86014E-14 2.46836E-13
 -1      1954 1.99986E+01 2.38968E-03-1.03517E-04 1.93376E-03 1.52669E-13 1.11092E-13
 -1      1955 1.99956E+01 3.91563E-04 5.23106E-05 4.16463E-03 1.58738E-13 8.96273E-16
 -1      1956 1.99966E+01-8.51460E-05 1.43631E-05 4.25315E-03 1.99445E-13 1.77327E-13
 -1      1957 1.99978E+01 9.49605E-04-6.03075E-05 4.18072E-03-1.04846E-13 2.26092E-13
 -1      1958 1.99968E+01-4.97322E-04 2.60359E-05 4.20075E-03 2.09739E-13 3.81872E-14
 -1      1959 1.99979E+01-1.02485E-03-1.72322E-05 3.72458E-03 3.73234E-14 1.21980E-13
 -1      1960 1.99986E+01-1.71907E-03-2.74752E-05 4.23247E-03-4.12187E-14-3.77868E-14
 -1      1961 1.99979E+01-4.61715E-04-4.54657E-05 4.84497E-03 1.21508E-13 1.58068E-13
 -1      1962 2.00145E+01 1.62656E-01 9.92818E-03 8.53887E-02 1.93330E-13 5.08989E-13
 -1      1963 2.02096E+01 2.20633E-01 1.76241E-02 2.72265E-01 2.11673E-13 5.94807E-13
 -1      1964 2.04045E+01 3.69698E-01-2.70705E-03 4.57509E-01 2.52362E-13 4.35351E-13
 -1      1965 1.99416E+01 1.02753E-01 9.28542E-03-1.63349E-01 1.56725E-13 3.93340E-13
 -1      1966 1.99617E+01 1.29072E-01 1.56143E-02-5.25736E-02 1.52874E-13 4.54973E-13
 -1      1967 2.01463E+01 1.99742E-01-3.37812E-03 1.29779E-02 2.00713E-13 3.55933E-13
 -1      1968 2.00657E+01 7.68611E-02 7.23501E-03-3.31859E-01 5.66470E-14 3.81647E-13
 -1      1969 1.99758E+01 8.95374E-02 1.01439E-02-2.54068E-01 1.02688E-13 3.81098E-13
 -1      1970 2.01156E+01 1.29745E-01-4.48656E-03-2.65339E-01 1.32974E-13 2.77557E-13
 -1      1971 2.03348E+01 6.63361E-02 6.13775E-03-4.64104E-01 5.00984E-14 3.08914E-13
 -1      1972 2.01675E+01 7.26451E-02 6.53497E-03-4.00578E-01 5.79163E-14 3.53114E-13
 -1      1973 2.02496E+01 1.00353E-01-4.84566E-03-4.63956E-01 8.43761E-14 2.35685E-13
 -1      1974 2.07195E+01 6.24764E-02 5.55899E-03-5.80821E-01 4.56818E-14 2.50002E-13
 -1      1975 2.04909E+01 6.61609E-02 4.58117E-03-5.22767E-01 4.78411E-14 2.76508E-13
 -1      1976 2.05085E+01 8.88681E-02-4.73900E-03-6.25340E-01 7.33315E-14 1.67514E-13
 -1      1977 2.12025E+01 5.91152E-02 4.87606E-03-6.89447E-01 2.09696E-14 2.55207E-13
 -1      1978 2.09216E+01 6.30283E-02 3.38559E-03-6.33773E-01 2.26963E-14 2.47033E-13
 -1      1979 2.08688E+01 8.35967E-02-4.60874E-03-7.68878E-01 4.42168E-14 1.38916E-13
 -1      1980 2.17694E+01 4.94225E-02 3.54716E-03-7.86070E-01 3.87316E-14 2.00587E-13
 -1      1981 2.14443E+01 5.67473E-02 2.30347E-03-7.34889E-01 4.37747E-14 2.48715E-13
 -1      1982 2.13152E+01 7.50447E-02-4.61496E-03-8.98616E-01 4.23563E-14 1.60159E-13
 -1      1983 2.24005E+01 2.42293E-02 1.07599E-03-8.53244E-01-3.60523E-14 2.94223E-13
 -1      1984 2.20443E+01 3.90644E-02 9.12721E-04-8.15255E-01-4.85831E-16 2.17537E-13
 -1      1985 2.18347E+01 5.19112E-02-4.71099E-03-1.00377E+00 1.63762E-14 1.43773E-13
 -1      1986 2.30611E+01-2.82111E-02-2.84534E-03-8.55988E-01 2.67529E-14 2.93556E-13
 -1      1987 2.26980E+01-1.04513E-03-1.03481E-03-8.48761E-01 7.67463E-15 3.03343E-13
 -1      1988 2.24100E+01-6.16852E-04-4.67102E-03-1.05560E+00-3.41090E-16 2.06600E-13
 -1      1989 2.36920E+01-1.19086E-01-7.88389E-03-7.39622E-01 6.95503E-14 2.50066E-13
 -1      1990 2.33633E+01-7.60739E-02-3.54639E-03-7.91000E-01 5.62419E-14 2.98907E-13
 -1      1991 2.30130E+01-9.93244E-02-4.00510E-03-1.00379E+00 4.08631E-14 1.55272E-13
 -1      1992 2.42026E+01-2.48753E-01-1.23869E-02-4.37560E-01 1.20084E-13 2.22931E-13
 -1      1993 2.39692E+01-1.93210E-01-6.24481E-03-5.81902E-01 9.06220E-14 2.35043E-13
 -1      1994 2.35966E+01-2.54308E-01-1.84313E-03-7.78510E-01 9.90336E-14 1.49976E-13
 -1      1995 2.44723E+01-3.86317E-01-1.30289E-02 9.71058E-02-8.63719E-15 3.02569E-13
 -1      1996 2.44080E+01-3.38214E-01-8.41785E-03-1.64909E-01 4.02612E-14 2.34964E-13
 -1      1997 2.40863E+01-4.48131E-01 2.90186E-03-3.09893E-01 3.78916E-14 1.58650E-13
 -1      1998 2.43713E+01-4.47193E-01-6.85324E-03 8.21466E-01-1.77792E-14 2.24615E-13
 -1      1999 2.45401E+01-4.49974E-01-9.21360E-03 4.63305E-01-2.92977E-14 2.12813E-13
 -1      2000 2.43728E+01-6.03387E-01 1.06329E-02 4.19042E-01 3.16674E-14 1.27633E-13
 -1      2001 2.38205E+01-3.10573E-01 2.72446E-03 1.51359E+00-6.59724E-14 2.79683E-13
 -1      2002 2.42332E+01-4.13493E-01-9.54512E-03 1.17174E+00-3.21097E-14 2.94417E-13
 -1      2003 2.43252E+01-5.69797E-01 1.79048E-02 1.27871E+00-5.21441E-14 1.48840E-13
 -1      2004 2.29031E+01 7.80221E-02 5.19641E-03 1.77298E+00 1.70868E-13 3.50314E-13
 -1      2005 2.34726E+01-1.23776E-01-9.19087E-03 1.64595E+00 1.14644E-14 2.71991E-13
 -1      2006 2.38662E+01-2.12437E-01 1.33324E-02 1.91777E+00 3.79521E-14 2.92301E-13
 -1      2007 2.19712E+01 5.60935E-01-7.08010E-03 1.24855E+00 1.02227E-13 3.29504E-13
 -1      2008 2.24935E+01 3.65419E-01-5.49512E-03 1.49920E+00 2.04111E-13 3.79499E-13
 -1      2009 2.31236E+01 4.21319E-01-6.40758E-03 1.85832E+00 1.66849E-13 2.98940E-13
 -1      2010 2.15578E+01 7.91503E-01-2.40486E-02 4.09260E-02-1.36294E-13 9.79442E-14
 -1      2011 2.17819E+01 7.58415E-01 4.39603E-03 6.02253E-01-9.87162E-14 1.40889E-13
 -1      2012 2.25108E+01 9.81758E-01-2.60980E-02 8.71536E-01 5.91437E-14 1.76053E-13
 -1      2013 2.19667E+01 5.72322E-01-3.02553E-02-1.19767E+00 2.45984E-15 1.80918E-13
 -1      2014 2.17549E+01 7.35003E-01 7.98798E-03-6.39742E-01-3.07462E-14 1.87985E-13
 -1      2015 2.24716E+01 1.05794E+00-2.42344E-02-6.20217E-01-8.69721E-14 5.11553E-14
 -1      2016 2.29635E+01 9.56194E-02-1.21457E-02-1.80058E+00 6.54546E-14 1.71568E-13
 -1      2017 2.24155E+01 3.28400E-01 4.95958E-03-1.53478E+00 3.61516E-14 1.77677E-13
 -1      2018 2.30372E+01 5.69498E-01-1.24718E-02-1.77367E+00 3.42920E-14 5.85140E-14
 -1      2019 2.39881E+01-2.93980E-01 1.02718E-02-1.60106E+00 2.97012E-13-7.72264E-14
 -1      2020 2.33646E+01-1.47406E-01-3.60728E-03-1.68017E+00 1.60810E-13 4.24140E-14
 -1      2021 2.38180E+01-8.97239E-02 5.68900E-03-2.02890E+00 2.46418E-13-1.13798E-13
 -1      2022 2.46189E+01-4.32289E-01 1.88726E-02-9.31593E-01 1.96747E-13-2.42998E-13
 -1      2023 2.41581E+01-4.09933E-01-1.16224E-02-1.20732E+00 2.46771E-13-1.54628E-13
 -1      2024 2.43651E+01-5.31009E-01 6.16918E-03-1.49852E+00 3.13709E-13-2.90514E-13
 -1      2025 2.47558E+01-3.74166E-01 1.49340E-02-2.05491E-01-6.41952E-14-5.52644E-14
 -1      2026 2.45599E+01-4.28584E-01-1.51315E-02-5.06153E-01 4.97016E-14-1.00726E-13
 -1      2027 2.45121E+01-6.26446E-01-1.48168E-03-6.55329E-01 3.62765E-14-1.37356E-13
 -1      2028 2.45017E+01-2.39752E-01 7.24881E-03 3.37827E-01-2.10501E-13-6.18932E-14
 -1      2029 2.45505E+01-3.12973E-01-1.37303E-02 1.10442E-01-1.64466E-13-6.45807E-14
 -1      2030 2.43156E+01-4.91865E-01-5.97827E-03 1.06106E-01-1.72454E-13 1.12048E-14
 -1      2031 2.40130E+01-1.12336E-01 1.17465E-03 6.44821E-01-7.20955E-14-3.69366E-14
 -1      2032 2.42298E+01-1.72088E-01-9.57375E-03 5.13467E-01-1.35053E-13-2.81945E-14
 -1      2033 2.39028E+01-2.89632E-01-5.83797E-03 6.15456E-01-1.58140E-13-1.80337E-13
 -1      2034 2.34225E+01-2.26566E-02-2.02401E-03 7.59346E-01-1.71319E-14 2.29546E-13
 -1      2035 2.37259E+01-6.05749E-02-4.95714E-03 7.07194E-01-3.74267E-14 1.00381E-13
 -1      2036 2.33858E+01-1.16971E-01-3.86594E-03 8.69594E-01-6.56870E-14-1.26612E-13
 -1      2037 2.28213E+01 2.87990E-02-3.04545E-03 7.49691E-01-5.79976E-14 2.11054E-13
 -1      2038 2.31486E+01 9.58160E-03-1.16955E-03 7.49357E-01-1.39489E-14 2.85553E-13
 -1      2039 2.28435E+01-2.88124E-03-1.96941E-03 9.34568E-01-4.81878E-14 1.39379E-13
 -1      2040 2.22628E+01 5.23821E-02-2.88318E-03 6.74194E-01 1.15816E-13 1.87070E-13
 -1      2041 2.25747E+01 4.56711E-02 1.36835E-03 7.01956E-01-4.19885E-14 2.00533E-13
 -1      2042 2.23252E+01 5.85691E-02-8.05060E-04 8.84799E-01 6.07706E-15 1.98077E-13
 -1      2043 2.17730E+01 5.88923E-02-2.27529E-03 5.72335E-01 1.49734E-13 5.85456E-14
 -1      2044 2.20492E+01 5.93097E-02 2.76711E-03 6.11915E-01 1.78662E-13 1.54705E-13
 -1      2045 2.18582E+01 8.37619E-02-2.97851E-04 7.78164E-01 1.95514E-13 1.88028E-13
 -1      2046 2.13605E+01 5.62938E-02-1.61070E-03 4.67167E-01 4.45961E-14-2.18771E-13
 -1      2047 2.15934E+01 6.01724E-02 3.32131E-03 5.08916E-01 5.01257E-14-5.56933E-14
 -1      2048 2.14546E+01 8.77166E-02-1.84321E-04 6.52201E-01 1.98599E-13 3.59640E-14
 -1      2049 2.10234E+01 4.95869E-02-1.04663E-03 3.70413E-01 1.42636E-13-1.90662E-13
 -1      2050 2.12132E+01 5.47410E-02 3.33808E-03 4.09316E-01 5.79708E-14-1.99252E-13
 -1      2051 2.11168E+01 8.09122E-02-2.41672E-04 5.28218E-01 7.73685E-14-1.26691E-13
 -1      2052 2.07546E+01 4.15969E-02-6.20847E-04 2.86921E-01 7.51181E-14 5.41430E-14
 -1      2053 2.09051E+01 4.68530E-02 3.05974E-03 3.20809E-01 6.52709E-14-1.21705E-13
 -1      2054 2.08414E+01 6.96938E-02-3.38081E-04 4.16680E-01 7.96542E-15 5.59244E-15
 -1      2055 2.05447E+01 3.37739E-02-3.21757E-04 2.17738E-01-7.74491E-14 1.11201E-13
 -1      2056 2.06614E+01 3.85727E-02 2.65052E-03 2.46039E-01 1.58059E-14 1.90912E-13
 -1      2057 2.06218E+01 5.75253E-02-4.13609E-04 3.21552E-01-4.43404E-14 2.07520E-13
 -1      2058 2.03839E+01 2.67722E-02-1.23010E-04 1.62022E-01 2.28766E-13-1.15473E-14
 -1      2059 2.04725E+01 3.08983E-02 2.20972E-03 1.84975E-01 5.14003E-14 3.57741E-14
 -1      2060 2.04500E+01 4.61050E-02-4.50671E-04 2.43251E-01 1.11881E-13 1.29435E-13
 -1      2061 2.02630E+01 2.08158E-02 2.04746E-06 1.18121E-01 2.59855E-13-2.36909E-13
 -1      2062 2.03291E+01 2.42327E-02 1.79118E-03 1.36327E-01 2.31302E-13-3.29597E-14
 -1      2063 2.03182E+01 3.61371E-02-4.51692E-04 1.80445E-01 3.09391E-13 1.04244E-13
 -1      2064 2.01739E+01 1.59124E-02 7.55427E-05 8.41552E-02 1.96720E-14-1.69692E-13
 -1      2065 2.02221E+01 1.86685E-02 1.42002E-03 9.83349E-02 1.90702E-13-2.32501E-13
 -1      2066 2.02188E+01 2.78045E-02-4.26182E-04 1.31094E-01 2.35568E-13 1.83617E-14
 -1      2067 2.01096E+01 1.19709E-02 1.14237E-04 5.83088E-02-3.18647E-15-1.72582E-13
 -1      2068 2.01440E+01 1.41490E-02 1.10468E-03 6.91733E-02-6.46621E-14-2.06742E-13
 -1      2069 2.01455E+01 2.10381E-02-3.84482E-04 9.29942E-02-2.43563E-14 7.67130E-15
 -1      2070 2.00645E+01 8.86266E-03 1.30195E-04 3.89529E-02-2.96042E-13-1.58214E-13
 -1      2071 2.00883E+01 1.05543E-02 8.44629E-04 4.71496E-02-2.35100E-13-2.52205E-13
 -1      2072 2.00924E+01 1.56617E-02-3.35177E-04 6.40573E-02-1.53138E-13-6.08487E-14
 -1      2073 2.00338E+01 6.45100E-03 1.31818E-04 2.46937E-02-9.73435E-14 1.07514E-13
 -1      2074 2.00498E+01 7.74462E-03 6.34919E-04 3.07828E-02-1.68253E-13-6.07121E-14
 -1      2075 2.00551E+01 1.14655E-02-2.84357E-04 4.24295E-02-2.40716E-13-1.14145E-15
 -1      2076 2.00140E+01 4.60594E-03 1.24742E-04 1.43756E-02 7.32875E-15 2.18751E-13
 -1      2077 2.00241E+01 5.58133E-03 4.68738E-04 1.88257E-02-3.69190E-15 1.84182E-13
 -1      2078 2.00297E+01 8.24053E-03-2.35851E-04 2.65334E-02-2.27830E-14 2.32413E-13
 -1      2079 2.00020E+01 3.20983E-03 1.12478E-04 7.06666E-03-1.43123E-13 2.81806E-13
 -1      2080 2.00078E+01 3.93656E-03 3.38790E-04 1.02583E-02-2.43223E-14 2.93886E-13
 -1      2081 2.00132E+01 5.79409E-03-1.91803E-04 1.50675E-02-5.50631E-14 3.94659E-13
 -1      2082 1.99956E+01 2.15812E-03 9.68191E-05 2.03602E-03 1.77790E-13-1.15472E-13
 -1      2083 1.99985E+01 2.69609E-03 2.37949E-04 4.26924E-03-6.36119E-14-1.31754E-14
 -1      2084 2.00032E+01 3.95510E-03-1.53141E-04 6.98838E-03 1.52397E-13 1.16851E-13
 -1      2085 1.99931E+01 1.35565E-03 7.82676E-05-1.26739E-03 2.11386E-13-2.68586E-14
 -1      2086 1.99939E+01 1.75780E-03 1.59682E-04 2.33684E-04 2.80446E-13 2.53363E-14
 -1      2087 1.99978E+01 2.57181E-03-1.20058E-04 1.48551E-03 1.77887E-13 5.81477E-14
 -1      2088 1.99931E+01 7.08983E-04 5.75139E-05-3.22813E-03 1.38083E-13-1.13229E-13
 -1      2089 1.99927E+01 1.02519E-03 9.86771E-05-2.30392E-03 7.58910E-14-5.39695E-14
 -1      2090 1.99956E+01 1.50438E-03-9.15856E-05-2.04144E-03 9.16784E-14 2.42231E-13
 -1      2091 1.99946E+01 1.20351E-04 3.58351E-05-4.06283E-03-4.15154E-14 2.70944E-14
 -1      2092 1.99934E+01 3.99847E-04 5.21006E-05-3.63608E-03 4.63883E-14-3.29119E-14
 -1      2093 1.99955E+01 6.11583E-04-6.54679E-05-3.98933E-03 1.84852E-14 2.01160E-13
 -1      2094 1.99967E+01-5.18897E-04 1.91165E-05-3.80530E-03 3.35779E-14 1.29138E-13
 -1      2095 1.99953E+01-2.21336E-04 2.18460E-05-3.90728E-03 9.44642E-14 8.69547E-14
 -1      2096 1.99965E+01-2.50521E-04-3.91009E-05-4.58680E-03 4.28113E-14 2.11908E-13
 -1      2097 1.99983E+01-1.17776E-03-8.58364E-07-2.83314E-03-2.08114E-15 8.39825E-14
 -1      2098 1.99971E+01-7.94453E-04 5.65597E-06-3.47114E-03-8.07406E-14 8.95444E-14
 -1      2099 1.99977E+01-1.01427E-03-4.98000E-06-4.18748E-03-3.26349E-14 2.55628E-13
 -1      2100 1.99988E+01-1.89437E-03 1.87128E-05-3.31609E-03-2.12946E-14 7.49457E-14
 -1      2101 2.00006E+01-6.13290E-03-1.95303E-06-3.12307E-03 2.91799E-13 2.12133E-13
 -1      2102 2.00005E+01-5.14532E-03 2.54574E-05-3.51320E-03 1.61715E-13 1.27018E-14
 -1      2103 2.00002E+01-4.87665E-03 3.37073E-06-3.90899E-03-7.35674E-14 1.82452E-13
 -1      2104 1.99999E+01-3.75583E-03 4.27697E-06-4.05131E-03-1.41787E-13 5.67304E-13
 -1      2105 2.00006E+01-3.06804E-03-2.03964E-05-4.30685E-03-7.05275E-14 3.51523E-13
 -1      2106 1.99996E+01-3.53068E-03 6.88501E-06-4.03733E-03-6.08998E-14 4.21752E-13
 -1      2107 1.99991E+01-2.41597E-03-1.18686E-05-3.69921E-03 1.04178E-14 2.93771E-13
 -1      2108 1.99988E+01-1.95628E-03-1.66311E-05-4.27312E-03-7.55101E-16 2.44323E-13
 -1      2109 1.99998E+01-2.63501E-03-2.93404E-05-4.74418E-03-1.37595E-13 4.77276E-13
 -1      2110 2.00006E+01-6.91744E-03-4.42540E-06-2.16210E-03 9.01465E-14-2.47574E-13
 -1      2111 2.00006E+01-6.18504E-03 4.21550E-05-2.59623E-03 1.77548E-13 1.18014E-13
 -1      2112 2.00009E+01-3.38854E-03-1.23321E-05-3.27173E-03 1.64789E-13 1.54526E-13
 -1      2113 2.00004E+01-7.32282E-03-3.98888E-06-1.27285E-03 1.55733E-13-4.76545E-14
 -1      2114 2.00005E+01-6.84245E-03 4.28131E-05-1.65946E-03 1.22067E-13-6.34831E-14
 -1      2115 2.00009E+01-3.38681E-03-2.66853E-06-2.14541E-03 9.46358E-14-1.19457E-13
 -1      2116 2.00003E+01-7.44811E-03 3.75920E-07-5.79268E-04 1.18283E-13 2.23948E-13
 -1      2117 2.00004E+01-7.19725E-03 3.45862E-05-8.79598E-04 1.53961E-13-1.59041E-14
 -1      2118 2.00007E+01-3.20499E-03 7.79651E-06-1.17924E-03 2.15313E-13-4.94867E-14
 -1      2119 2.00002E+01-7.41627E-03 9.05742E-06-5.17205E-05 2.45486E-14-2.84956E-13
 -1      2120 2.00002E+01-7.35330E-03 2.18629E-05-2.90950E-04-2.08590E-14 9.45794E-14
 -1      2121 2.00005E+01-2.99900E-03 1.59141E-05-4.60381E-04-3.85048E-14-1.42329E-14
 -1      2122 2.00002E+01-7.29511E-03 2.10193E-05 4.24456E-04-1.34974E-13-2.21391E-13
 -1      2123 2.00002E+01-7.40011E-03 9.34992E-06 1.90608E-04 6.53868E-15-2.07177E-13
 -1      2124 2.00004E+01-2.89315E-03 1.90798E-05 8.60612E-05-2.07601E-13-2.19414E-13
 -1      2125 2.00003E+01-7.07544E-03 3.31441E-05 9.84796E-04-2.19066E-13-4.44427E-13
 -1      2126 2.00003E+01-7.36004E-03 7.98327E-08 6.99503E-04-2.15967E-13-2.93678E-13
 -1      2127 2.00005E+01-2.93709E-03 1.64431E-05 6.17877E-04-2.54150E-13-4.66642E-13
 -1      2128 2.00005E+01-6.68419E-03 4.06761E-05 1.70447E-03-4.36277E-14 1.89815E-14
 -1      2129 2.00004E+01-7.17769E-03-5.01644E-06 1.34772E-03-1.57975E-13-1.64908E-13
 -1      2130 2.00007E+01-3.08856E-03 9.60823E-06 1.28799E-03-3.88690E-14-2.52934E-13
 -1      2131 2.00006E+01-6.00466E-03 3.92025E-05 2.58975E-03 1.62035E-13 2.26370E-13
 -1      2132 2.00005E+01-6.74944E-03-6.63453E-06 2.17457E-03 2.08011E-14 2.69124E-13
 -1      2133 2.00009E+01-3.23616E-03-2.29927E-06 2.18270E-03 1.36266E-13 1.75670E-13
 -1      2134 2.00004E+01-4.97187E-03 2.35074E-05 3.46143E-03 9.05306E-14-3.38260E-15
 -1      2135 2.00005E+01-5.94644E-03-4.10888E-06 3.09462E-03 1.86085E-13-5.35820E-14
 -1      2136 2.00009E+01-3.22890E-03-1.41195E-05 3.25227E-03 2.34708E-13 9.66161E-14
 -1      2137 1.99998E+01-3.66907E-03-2.61818E-05 4.03190E-03-2.39412E-15-2.42756E-13
 -1      2138 2.00003E+01-4.72875E-03 1.21661E-05 3.84052E-03 5.30027E-14-7.86420E-14
 -1      2139 2.00006E+01-2.90801E-03-7.55625E-06 4.22998E-03 1.12985E-13-1.40023E-13
 -1      2140 9.95668E+00-5.47389E+00-1.88203E-01 6.07342E+00 3.09752E-13 6.46573E-13
 -1      2141 6.62318E+00-6.69258E+00-3.54925E-01 5.09730E+00 1.93512E-13 5.30992E-13
 -1      2142 6.16631E-01-6.56237E+00-3.06727E-01 7.02880E-01 1.44620E-13 1.61982E-13
 -1      2143 6.31561E-01-6.25029E+00-2.63596E-01-9.78663E-01 7.16927E-14 4.49196E-13
 -1      2144 3.23022E+00-6.13402E+00-2.49502E-01 3.89556E+00 2.90490E-13 1.18683E-13
 -1      2145 1.40318E+00-6.97454E+00-3.64924E-01 2.24878E+00 1.87017E-13 1.66533E-14
 -1      2146 2.44024E+00-4.26182E+00-1.21614E-01 1.83576E+00 3.84415E-15 1.39333E-13
 -1      2147 1.76442E+01-3.71385E+00-5.85316E-02 6.76434E+00 5.39346E-13 4.94715E-13
 -1      2148 1.30697E+01-5.48300E+00-3.63822E-01 5.91948E+00 4.69624E-13 4.66571E-13
 -1      2149 1.39141E+01-5.80153E+00-9.77214E-02 6.64506E+00 1.31672E-13 4.72532E-13
 -1      2150 2.69744E+01-9.14899E-01 1.49375E-01 5.94341E+00 5.73819E-13 3.65707E-13
 -1      2151 2.21180E+01-2.89563E+00-1.90924E-01 5.62286E+00 4.74176E-13 4.61076E-13
 -1      2152 1.95685E+01 4.07539E+00-2.56572E-02-1.49294E+00-1.62864E-13-4.52782E-13
 -1      2153 1.97267E+01 3.99179E+00-2.31381E-02-1.74458E+00-2.09734E-13-4.20899E-13
 -1      2154 2.00559E+01 3.28820E+00-1.82540E-02-1.70046E+00-2.30984E-13-3.72717E-13
 -1      2155 1.97138E+01 3.68317E+00-5.82214E-03-1.30361E+00-1.61806E-13-4.40589E-13
 -1      2156 3.91252E+01 5.08064E+00 3.24401E-01 2.00096E+00 6.77181E-13 2.92433E-13
 -1      2157 3.62183E+01 3.98257E+00 2.00973E-01 3.11575E+00 7.65929E-13 3.42948E-13
 -1      2158 4.00807E+01 7.03755E+00 2.97582E-01 5.48447E-02 7.88425E-13-1.26357E-13
 -1      2159 3.90466E+01 6.51061E+00 2.47294E-01 9.32217E-01 8.47711E-13 1.09190E-13
 -1      2160 4.03383E+01 6.61771E+00 3.51762E-01-1.25349E+00 6.64302E-13-3.69871E-13
 -1      2161 4.07690E+01 7.09195E+00 3.21622E-01-8.37727E-02 6.36935E-13-1.68865E-13
 -1      2162 3.65927E+01 4.50979E+00 2.33636E-01-2.37540E+00 6.47704E-13-4.35874E-13
 -1      2163 3.99983E+01 5.72525E+00 5.02803E-01-1.92155E+00 5.76983E-13-4.51805E-13
 -1      2164 3.63597E+01 6.71488E+00 3.25608E-01 2.08623E-01 6.57308E-13-2.24543E-13
 -1      2165 3.02578E+01 7.64007E-01 3.08994E-02-4.59591E+00 5.89695E-13-5.49560E-13
 -1      2166 3.43359E+01 2.20151E+00 2.06967E-01-3.61746E+00 5.95284E-13-4.52971E-13
 -1      2167 2.24108E+01-2.95122E+00-1.72054E-01-5.57769E+00 4.82836E-13-4.57356E-13
 -1      2168 2.74931E+01-7.76182E-01 1.72880E-01-5.93721E+00 5.50393E-13-5.51004E-13
 -1      2169 1.27731E+01-5.79930E+00-3.44252E-01-5.93812E+00 2.79221E-13-6.49591E-13
 -1      2170 1.79143E+01-4.03835E+00-4.01147E-02-6.86568E+00 3.79474E-13-4.65655E-13
 -1      2171 5.13089E+00-7.24584E+00-4.64709E-01-4.53029E+00 9.69225E-14-8.15764E-13
 -1      2172 8.48017E+00-5.71305E+00-2.29313E-01-5.84935E+00 3.25517E-13-8.39002E-13
 -1      2173 1.01404E+00-7.30762E+00-4.09763E-01-2.01793E+00-1.33588E-13-9.05664E-13
 -1      2174 2.57411E+00-6.83704E+00-3.44640E-01-3.46861E+00 1.30507E-13-9.25260E-13
 -1      2175 4.59871E-01-7.36040E+00-4.13672E-01 1.54336E+00-3.42421E-13-6.61304E-13
 -1      2176 1.26729E-01-7.30432E+00-3.99769E-01 1.42696E-02-1.20834E-13-7.98195E-13
 -1      2177 4.22789E+00-6.31901E+00-2.73758E-01 4.62089E+00-4.50195E-13-3.88939E-13
 -1      2178 2.10123E+00-7.32489E+00-4.23610E-01 3.24071E+00-3.19689E-13-4.85889E-13
 -1      2179 1.05743E+01-5.05573E+00-1.84958E-01 6.44873E+00-5.55334E-13-4.77507E-13
 -1      2180 6.97854E+00-6.73499E+00-4.40819E-01 5.27344E+00-5.11813E-13-3.46098E-13
 -1      2181 1.99229E+01-3.71837E+00-1.01236E-01 6.66709E+00-3.80362E-13-3.83471E-13
 -1      2182 1.45938E+01-5.00811E+00-2.91577E-01 6.25980E+00-4.75175E-13-5.54889E-13
 -1      2183 2.97579E+01 5.19963E-01 2.82337E-01 5.40510E+00-5.65104E-13-3.34621E-13
 -1      2184 2.51820E+01-1.97970E+00-3.36192E-02 5.12992E+00-4.56635E-13-2.56628E-13
 -1      2185 3.54817E+01 3.41401E+00 3.13949E-01 3.81667E+00-7.88883E-13 3.55271E-15
 -1      2186 3.15042E+01 1.86733E+00 1.57359E-02 4.34484E+00-7.12430E-13-2.40252E-13
 -1      2187 3.06748E+01-2.95470E-01 1.17865E-01 2.46327E+00-4.70110E-13 6.92779E-14
 -1      2188 3.90914E+01 5.99900E+00 3.08859E-01 1.55343E+00-7.33358E-13 8.58758E-14
 -1      2189 3.70086E+01 5.14183E+00 2.25507E-01 2.64706E+00-8.14265E-13 2.69229E-14
 -1      2190 3.99015E+01 7.32324E+00 3.12808E-01-7.07245E-02-6.81288E-13 1.72078E-13
 -1      2191 3.97585E+01 7.02875E+00 3.25749E-01 9.85019E-01-6.75737E-13-2.05114E-14
 -1      2192 3.94646E+01 6.31038E+00 3.54843E-01-1.83767E+00-6.40488E-13 4.21330E-13
 -1      2193 4.00027E+01 6.96676E+00 3.20414E-01-5.68873E-01-7.04992E-13 2.03948E-13
 -1      2194 3.51091E+01 4.11258E+00 1.30213E-01-3.02709E+00-6.18658E-13 4.93161E-13
 -1      2195 3.86622E+01 5.27013E+00 4.29147E-01-2.60299E+00-5.68046E-13 4.61575E-13
 -1      2196 3.58983E+01 6.22244E+00 3.39537E-01-2.69030E-01-5.79092E-13 1.24567E-13
 -1      2197 2.90951E+01 5.15872E-01-1.44381E-02-4.67105E+00-5.17586E-13 5.49449E-13
 -1      2198 3.31001E+01 2.09468E+00 2.32571E-01-4.13498E+00-5.67928E-13 4.49751E-13
 -1      2199 2.16292E+01-2.65681E+00-1.79210E-01-5.92084E+00-3.94351E-13 6.87117E-13
 -1      2200 2.63265E+01-8.06779E-01 1.46873E-01-6.08355E+00-4.84168E-13 6.89337E-13
 -1      2201 1.41527E+01-5.22876E+00-2.45883E-01-6.30923E+00-1.25344E-13 5.77066E-13
 -1      2202 1.84351E+01-3.52316E+00 1.86676E-02-6.93273E+00-3.02425E-13 6.02574E-13
 -1      2203 6.10010E+00-6.70367E+00-4.01123E-01-5.10751E+00 2.56906E-13 9.76663E-13
 -1      2204 9.62350E+00-5.19677E+00-1.50885E-01-6.38835E+00-2.84217E-14 8.33205E-13
 -1      2205 1.70124E+00-6.74505E+00-3.41385E-01-2.92714E+00 2.07223E-13 6.33271E-13
 -1      2206 3.60577E+00-6.23799E+00-2.55061E-01-4.32354E+00 1.34670E-13 9.37250E-13
 -1      2207 3.42639E+01 2.09581E+00 2.96705E-01 4.11767E+00 6.92418E-13 2.64566E-13
 -1      2208 2.98119E+01 4.41365E-01-2.72507E-02 4.46507E+00 6.35519E-13 3.47056E-13
 -1      2209 2.09147E+01 1.10797E+00-1.92313E-02-1.45132E+00-2.91697E-13 4.67560E-14
 -1      2210 3.23353E+01 1.14798E+00 1.17406E-01-3.38508E-01 3.77670E-13-2.30926E-14
 -1      2211 3.46383E+01 2.79097E+00 1.65349E-01-1.51766E+00 5.62189E-13-2.54463E-13
 -1      2212 3.33143E+01 3.24162E+00-1.59715E-01 7.41984E-01 4.22773E-13-3.53606E-14
 -1      2213 3.41174E+01 2.27610E+00 2.66531E-01 1.04147E+00 5.65020E-13 1.98730E-14
 -1      2214 2.08163E+01 1.34149E+00-1.91164E-02-1.47006E+00-3.04630E-13-7.98146E-14
 -1      2215 6.64494E+00-5.34523E+00-1.33997E-01 5.31077E+00 5.32352E-14 3.63820E-13
 -1      2216 1.99996E+01-2.70787E-03-1.50399E-05 4.15731E-03-1.21247E-13-2.62373E-13
 -1      2217 2.20251E+01-4.70285E+00 1.20148E-02 5.71369E+00 2.34035E-13 2.99816E-13
 -1      2218 2.60308E+00-4.35258E+00-1.15342E-01-2.33430E+00 7.61197E-14 5.77427E-13
 -1      2219 2.94668E+01-1.81061E+00 1.39576E-01 3.17872E+00 3.61711E-13 5.71765E-14
 -1      2220 6.64955E+00-5.26692E+00-1.40387E-01-5.66983E+00 3.55271E-13 9.19986E-13
 -1      2221 1.42050E+01-5.51038E+00-3.21681E-02-6.95642E+00 2.52465E-13 6.37594E-13
 -1      2222 2.22054E+01-4.59957E+00-1.28537E-02-5.77064E+00-1.83187E-15 5.14783E-13
 -1      2223 3.32730E+01 2.40732E+00 2.05981E-01-1.43584E+00-4.32848E-13 1.78635E-13
 -1      2224 3.65223E+01 7.93108E+00 3.20496E-01-1.55737E-02-7.20812E-13 3.45349E-14
 -1      2225 3.42236E+01 3.82923E+00 2.65884E-01 8.42620E-01-7.21201E-13 1.64480E-13
 -1      2226 2.37667E+01-3.60891E+00 4.16595E-02 5.47581E+00-3.05644E-13-1.90625E-13
 -1      2227 2.23987E+01-4.91495E+00 1.36945E-01 5.66403E+00-1.37390E-13-5.13894E-14
 -1      2228 2.65102E+01-3.89747E+00-1.47097E-01 3.74641E+00-1.63619E-13 1.30451E-13
 -1      2229 1.49887E+01-5.50942E+00-1.27229E-02 6.93164E+00-1.99618E-13-3.40106E-13
 -1      2230 7.58198E+00-5.58347E+00-1.56039E-01 5.99112E+00-1.61759E-13-2.78527E-13
 -1      2231 2.68651E+00-5.00204E+00-1.82388E-01 3.11766E+00-5.65936E-14-5.84977E-13
 -1      2232 1.81852E+00-4.99508E+00-1.92536E-01-1.33738E+00-7.77989E-14-9.38027E-13
 -1      2233 5.70819E+00-5.51920E+00-1.78762E-01-5.05638E+00-8.27116E-14-8.74245E-13
 -1      2234 1.32157E+01-5.81565E+00-5.35103E-02-6.75253E+00-3.14748E-14-5.71779E-13
 -1      2235 2.22496E+01-4.94594E+00-2.22802E-02-5.66605E+00 1.34892E-13-3.19550E-13
 -1      2236 3.58821E+01 6.16721E+00 2.95445E-01-2.09639E-01 7.92810E-13 5.91194E-15
 -1      2237 3.61390E+01 7.86082E+00 2.70453E-01-1.95221E-01 7.99638E-13 9.58608E-15
 -1      2238 2.96221E+01-1.59377E+00 1.30879E-01-3.21533E+00 3.42504E-13-2.74669E-13
 -1      2239 3.58741E+01 7.15889E+00 3.04945E-01-1.13723E-02-7.37743E-13 2.98650E-14
 -1      2240 2.85828E+01-1.67843E+00 1.26210E-01-3.61662E+00-2.77361E-13 2.44305E-13
 -1      2241 2.04571E+01 5.55408E-01 6.35130E-03 4.25832E-01 2.52692E-13 2.81258E-13
 -1      2242 2.06636E+01 7.35872E-01 2.08606E-02 7.38255E-01 2.75373E-13 3.20501E-13
 -1      2243 1.93803E+01 3.73231E+00-1.13970E-02-4.51677E-01 2.51284E-14-4.05179E-13
 -1      2244 1.94511E+01 3.67342E+00-9.12967E-03-6.07305E-01-2.58776E-14-4.22638E-13
 -1      2245 1.95378E+01 3.55811E+00-1.34396E-02-7.42863E-01-5.46736E-14-4.28142E-13
 -1      2246 1.96438E+01 3.46054E+00-1.12917E-02-9.12313E-01-1.06812E-13-4.25056E-13
 -1      2247 1.96408E+01 3.26299E+00 1.29128E-03-5.90360E-01-3.79320E-14-3.94631E-13
 -1      2248 1.92740E+01 3.85081E+00-9.05692E-03 8.68935E-02 1.40108E-13-3.90953E-13
 -1      2249 1.92745E+01 3.85046E+00-8.86008E-03-5.54566E-02 1.06172E-13-3.93819E-13
 -1      2250 1.93265E+01 3.80253E+00-8.79868E-03 3.53083E-01 1.94168E-13-3.68762E-13
 -1      2251 1.92911E+01 3.83054E+00-9.84383E-03 2.08216E-01 1.61961E-13-3.90759E-13
 -1      2252 1.94126E+01 3.52388E+00 7.48702E-04 1.32596E-01 1.44227E-13-3.69612E-13
 -1      2253 1.94481E+01 3.67985E+00-9.38617E-03 6.26797E-01 2.55727E-13-3.36453E-13
 -1      2254 1.93778E+01 3.73819E+00-1.14301E-02 4.76007E-01 2.19896E-13-3.57311E-13
 -1      2255 1.94868E+01 3.44359E+00 1.05542E-03 3.65595E-01 1.99296E-13-3.44742E-13
 -1      2256 1.96451E+01 3.46439E+00-1.14977E-02 9.24867E-01 3.24143E-13-2.47986E-13
 -1      2257 1.95363E+01 3.56427E+00-1.35993E-02 7.58650E-01 2.79989E-13-2.99400E-13
 -1      2258 1.96366E+01 3.27308E+00 1.53284E-03 6.07361E-01 2.60184E-13-2.86071E-13
 -1      2259 1.99211E+01 3.12698E+00-1.65767E-02 1.23952E+00 3.70490E-13-1.48320E-13
 -1      2260 1.97722E+01 3.28783E+00-1.62723E-02 1.06144E+00 3.42343E-13-2.09247E-13
 -1      2261 1.98640E+01 2.99477E+00 2.80859E-03 8.59399E-01 3.17044E-13-2.01294E-13
 -1      2262 2.02880E+01 2.61274E+00-2.68094E-02 1.53820E+00 3.88288E-13-1.91062E-14
 -1      2263 2.00940E+01 2.87236E+00-1.82675E-02 1.36459E+00 3.72438E-13-9.51114E-14
 -1      2264 2.01647E+01 2.58246E+00 6.23430E-03 1.09890E+00 3.49111E-13-1.02347E-13
 -1      2265 2.02997E+01 3.43052E-01 8.05061E-03-2.98828E-02 2.11692E-13 2.10403E-13
 -1      2266 2.03827E+01 4.29458E-01 2.03723E-02 1.58790E-01 2.38083E-13 2.61956E-13
 -1      2267 2.04935E+01 7.11646E-01-3.78524E-03 3.88406E-01 2.72763E-13 1.51910E-13
 -1      2268 2.06317E+01 9.06313E-01 1.40723E-02-7.41172E-01-2.20221E-13-1.34955E-13
 -1      2269 2.04693E+01 6.91089E-01-2.05267E-03-4.10797E-01-2.00711E-13-1.38626E-13
 -1      2270 2.04349E+01 5.45434E-01 1.60640E-02-1.61705E-01-1.72398E-13-1.16728E-13
 -1      2271 2.03574E+01 4.32683E-01 2.65851E-03 4.07950E-02-1.27104E-13-1.18649E-13
 -1      2272 2.04850E+01 8.40799E-01-2.49077E-03-3.58772E-01-1.86707E-13-1.85154E-13
 -1      2273 2.03345E+01 3.57524E-01 1.08426E-02 2.18785E-01-1.10101E-13-9.25039E-14
 -1      2274 2.03327E+01 2.95615E-01 3.37209E-03 3.54402E-01-8.82597E-14-1.13760E-13
 -1      2275 2.03965E+01 5.39012E-01-4.92360E-03 1.02096E-01-1.24629E-13-1.54718E-13
 -1      2276 2.03398E+01 2.52162E-01 6.58327E-03 4.83929E-01-9.91890E-14-1.22923E-13
 -1      2277 2.03965E+01 2.14636E-01 3.34139E-03 5.80172E-01-1.10006E-13-1.37715E-13
 -1      2278 2.03706E+01 3.72926E-01-4.87846E-03 4.34309E-01-1.13032E-13-1.59284E-13
 -1      2279 2.04348E+01 1.85072E-01 4.07257E-03 6.76992E-01-1.01890E-13-1.31919E-13
 -1      2280 2.05348E+01 1.56526E-01 2.83701E-03 7.46703E-01-1.03397E-13-1.43989E-13
 -1      2281 2.04126E+01 2.70387E-01-4.36428E-03 6.79347E-01-1.18705E-13-1.58705E-13
 -1      2282 2.06029E+01 1.29415E-01 2.79003E-03 8.18402E-01-1.05139E-13-1.50767E-13
 -1      2283 2.07341E+01 9.87008E-02 1.77769E-03 8.64984E-01-6.82805E-14-1.59256E-13
 -1      2284 2.05173E+01 1.91928E-01-3.86038E-03 8.62344E-01-1.02721E-13-1.16471E-13
 -1      2285 2.08315E+01 6.48882E-02 2.38768E-03 9.11636E-01-4.81663E-14-1.64445E-13
 -1      2286 2.09836E+01 2.22882E-02-2.66874E-05 9.31233E-01-5.38594E-14-1.66677E-13
 -1      2287 2.06799E+01 1.08718E-01-3.64251E-03 9.92145E-01-8.11455E-14-1.43462E-13
 -1      2288 2.11118E+01-2.65066E-02 2.68213E-03 9.45945E-01-8.47683E-14-1.58587E-13
 -1      2289 2.12744E+01-8.96129E-02-2.75420E-03 9.28502E-01-1.15962E-13-1.28487E-13
 -1      2290 2.08990E+01-3.66147E-03-3.81415E-03 1.06276E+00-7.57995E-14-1.50318E-13
 -1      2291 2.14366E+01-1.59934E-01 3.49652E-03 8.97708E-01-7.36527E-14-8.62304E-14
 -1      2292 2.15972E+01-2.48779E-01-6.44030E-03 8.28501E-01-6.18277E-15-3.52275E-14
 -1      2293 2.11772E+01-1.66146E-01-4.34645E-03 1.05420E+00-3.53633E-14-1.14138E-13
 -1      2294 2.17953E+01-3.41862E-01 4.46961E-03 7.33320E-01-1.76580E-14-1.92947E-14
 -1      2295 2.19378E+01-4.52653E-01-1.07114E-02 5.96791E-01 1.52938E-15 7.84296E-15
 -1      2296 2.15184E+01-3.90333E-01-4.95994E-03 9.33884E-01 2.29114E-15-2.45799E-14
 -1      2297 2.21665E+01-5.57600E-01 4.81397E-03 4.17650E-01 4.71459E-14 8.59913E-15
 -1      2298 2.22701E+01-6.68397E-01-1.43253E-02 2.05660E-01 9.66996E-14 8.04205E-14
 -1      2299 2.19212E+01-6.64391E-01-4.88406E-03 6.61978E-01 2.36940E-14 1.01670E-13
 -1      2300 2.25059E+01-7.53141E-01 3.19857E-03-6.61893E-02 4.56401E-14-1.16391E-14
 -1      2301 2.25463E+01-8.14976E-01-1.47216E-02-3.40070E-01-2.56297E-14-7.65147E-14
 -1      2302 2.23635E+01-9.30771E-01-2.67945E-03 2.06132E-01 1.99007E-14-7.27933E-16
 -1      2303 2.27373E+01-8.21837E-01-1.89893E-03-6.80467E-01-7.16996E-14-6.23749E-14
 -1      2304 2.26941E+01-7.62832E-01-8.71240E-03-9.63025E-01-1.03183E-13-1.00767E-13
 -1      2305 2.27829E+01-1.06615E+00 3.06175E-03-4.25936E-01-5.68929E-14-9.62937E-14
 -1      2306 2.27648E+01-6.24791E-01-1.09256E-02-1.28680E+00-1.06672E-13-4.39436E-14
 -1      2307 2.26379E+01-3.87361E-01 4.51164E-03-1.47687E+00-1.05552E-13-4.12630E-14
 -1      2308 2.30650E+01-8.95535E-01 1.11882E-02-1.13270E+00-1.00773E-13-1.27910E-14
 -1      2309 2.25350E+01-8.06044E-02-1.99205E-02-1.63261E+00-1.16888E-13-9.62147E-14
 -1      2310 2.23609E+01 3.05611E-01 1.87490E-02-1.60845E+00-1.15662E-13-5.54522E-14
 -1      2311 2.30834E+01-2.91304E-01 1.47049E-02-1.67230E+00-1.47247E-13-3.29684E-15
 -1      2312 2.21332E+01 6.91650E-01-2.08749E-02-1.44472E+00-1.39193E-13-1.51094E-13
 -1      2313 2.19853E+01 1.06174E+00 2.14887E-02-1.14458E+00-1.78263E-13-1.81486E-13
 -1      2314 2.28146E+01 6.54705E-01 5.60137E-03-1.70750E+00-1.98185E-13-1.24072E-13
 -1      2315 2.18027E+01 1.32415E+00-9.47854E-03-6.47543E-01-1.91895E-13-1.90006E-13
 -1      2316 2.17574E+01 1.45181E+00 5.74071E-03-1.55971E-01-2.40192E-13-2.08260E-13
 -1      2317 2.24499E+01 1.54168E+00-1.32548E-02-1.02617E+00-2.20739E-13-2.64511E-13
 -1      2318 2.17883E+01 1.41683E+00 1.05768E-02 4.57829E-01-1.87140E-13-1.99595E-13
 -1      2319 2.18704E+01 1.22161E+00-1.29654E-02 9.23661E-01-1.10811E-13-2.27096E-13
 -1      2320 2.23138E+01 1.85141E+00-2.08282E-02 1.74658E-01-2.13721E-13-1.83415E-13
 -1      2321 2.20885E+01 9.13338E-01 2.21400E-02 1.35932E+00-9.75669E-14-2.17665E-13
 -1      2322 2.22613E+01 5.21351E-01-2.16762E-02 1.60083E+00-5.82672E-15-2.76342E-13
 -1      2323 2.25377E+01 1.38617E+00-7.73462E-03 1.30101E+00-1.04469E-13-1.04363E-13
 -1      2324 2.24786E+01 1.39768E-01 1.52937E-02 1.68746E+00 7.32804E-14-3.84988E-13
 -1      2325 2.26601E+01-2.19954E-01-1.83660E-02 1.65777E+00 9.51437E-14-3.69032E-13
 -1      2326 2.29220E+01 4.38164E-01 7.80165E-03 1.82652E+00-4.11871E-14-2.01272E-13
 -1      2327 2.27289E+01-4.88364E-01 3.48840E-04 1.45428E+00 1.41411E-13-3.50834E-13
 -1      2328 2.28526E+01-6.80379E-01-8.50153E-03 1.23889E+00 1.51881E-13-3.30652E-13
 -1      2329 2.31472E+01-4.49290E-01 1.34484E-02 1.65823E+00 1.21458E-13-3.02572E-13
 -1      2330 2.27561E+01-7.78594E-01-1.10621E-02 9.08207E-01 1.37607E-13-3.28374E-13
 -1      2331 2.27954E+01-8.01477E-01-2.32466E-05 6.28376E-01 1.34944E-13-2.17386E-13
 -1      2332 2.30763E+01-9.43569E-01 8.89331E-03 1.06745E+00 1.21527E-13-2.92887E-13
 -1      2333 2.25969E+01-7.69364E-01-1.52984E-02 3.07949E-01 6.31504E-14-2.58498E-13
 -1      2334 2.25586E+01-6.89129E-01 4.23994E-03 5.41651E-02 1.08949E-13-2.13482E-13
 -1      2335 2.27688E+01-1.02440E+00 1.15285E-03 3.79832E-01 1.14052E-13-2.57824E-13
 -1      2336 2.23305E+01-5.94767E-01-1.38353E-02-1.87156E-01 1.52218E-13-2.52320E-13
 -1      2337 2.22367E+01-4.79964E-01 5.32121E-03-3.72628E-01 1.27432E-13-2.58338E-13
 -1      2338 2.23552E+01-8.41515E-01-3.52032E-03-1.96873E-01 8.06875E-14-2.52818E-13
 -1      2339 2.20234E+01-3.75835E-01-9.90189E-03-5.21396E-01 1.14337E-13-2.42318E-13
 -1      2340 2.18975E+01-2.69285E-01 4.65527E-03-6.32256E-01 1.16625E-13-1.43600E-13
 -1      2341 2.19382E+01-5.63811E-01-4.89402E-03-5.89156E-01 1.23844E-13-3.11788E-13
 -1      2342 2.17164E+01-1.82384E-01-5.74882E-03-7.02338E-01 5.51273E-14-1.54538E-13
 -1      2343 2.15770E+01-1.01698E-01 3.44435E-03-7.50655E-01 1.05869E-13-1.32666E-13
 -1      2344 2.15679E+01-2.99868E-01-4.51195E-03-8.04499E-01 1.08243E-13-3.56855E-13
 -1      2345 2.14297E+01-4.01866E-02-2.35267E-03-7.63970E-01 6.51818E-14-1.01820E-13
 -1      2346 2.12899E+01 1.25277E-02 2.30771E-03-7.67548E-01 3.77311E-14-1.07911E-13
 -1      2347 2.12578E+01-9.65046E-02-3.59942E-03-8.82248E-01 7.18074E-14-1.59506E-13
 -1      2348 2.11718E+01 5.04301E-02 4.67593E-05-7.44758E-01-6.73599E-14-1.21492E-13
 -1      2349 2.10401E+01 7.99601E-02 1.45629E-03-7.20393E-01-6.11388E-14-1.92327E-13
 -1      2350 2.10039E+01 3.87301E-02-2.74268E-03-8.66392E-01-4.52551E-14-7.44286E-14
 -1      2351 2.09456E+01 9.96664E-02 1.54091E-03-6.77710E-01-1.86444E-14-1.93377E-13
 -1      2352 2.08268E+01 1.12532E-01 8.91406E-04-6.38590E-01 3.60325E-14-2.00319E-13
 -1      2353 2.07971E+01 1.16347E-01-2.11088E-03-7.94328E-01-2.83277E-14-8.36572E-14
 -1      2354 2.07509E+01 1.19774E-01 2.33029E-03-5.87452E-01 8.95462E-14-2.27803E-13
 -1      2355 2.06476E+01 1.21864E-01 5.45131E-04-5.42803E-01 1.53525E-13-1.56366E-13
 -1      2356 2.06285E+01 1.51904E-01-1.68744E-03-6.93963E-01 6.04681E-14-3.23919E-15
 -1      2357 2.05866E+01 1.21370E-01 2.62357E-03-4.90620E-01 1.60268E-13-1.45031E-13
 -1      2358 2.04993E+01 1.17193E-01 3.44130E-04-4.46295E-01 1.08617E-13-2.46030E-13
 -1      2359 2.04910E+01 1.59845E-01-1.40575E-03-5.84349E-01 1.26572E-13-2.18884E-13
 -1      2360 2.04504E+01 1.12408E-01 2.59754E-03-3.97444E-01 1.01395E-13-2.43639E-13
 -1      2361 2.03785E+01 1.05089E-01 2.31414E-04-3.56771E-01 4.25049E-14-2.06834E-13
 -1      2362 2.03793E+01 1.51414E-01-1.20524E-03-4.77450E-01 1.25715E-13-3.51516E-13
 -1      2363 2.03395E+01 9.83237E-02 2.38643E-03-3.13510E-01 3.44577E-14-1.39251E-13
 -1      2364 2.02817E+01 8.98719E-02 1.68823E-04-2.78079E-01 4.28199E-14-1.61004E-13
 -1      2365 2.02890E+01 1.34516E-01-1.04583E-03-3.80036E-01 1.00040E-13-1.30595E-13
 -1      2366 2.02509E+01 8.25686E-02 2.08446E-03-2.41269E-01 3.27890E-14 5.14473E-14
 -1      2367 2.02054E+01 7.41849E-02 1.33206E-04-2.11558E-01 7.85989E-14 1.15719E-13
 -1      2368 2.02169E+01 1.14304E-01-9.05974E-04-2.95304E-01 1.57722E-13 5.44526E-14
 -1      2369 2.01814E+01 6.71792E-02 1.75331E-03-1.81200E-01 2.24494E-14 2.06871E-13
 -1      2370 2.01464E+01 5.95156E-02 1.11440E-04-1.57024E-01 6.89650E-14 2.63262E-13
 -1      2371 2.01599E+01 9.39032E-02-7.76709E-04-2.24144E-01 1.29522E-13 2.89174E-13
 -1      2372 2.01279E+01 5.32402E-02 1.43063E-03-1.32628E-01 2.14090E-14 1.73962E-13
 -1      2373 2.01015E+01 4.65940E-02 9.63847E-05-1.13448E-01-3.16326E-14 9.59416E-14
 -1      2374 2.01156E+01 7.50465E-02-6.56162E-04-1.66052E-01 1.10799E-14 2.36689E-13
 -1      2375 2.00875E+01 4.12257E-02 1.13730E-03-9.42843E-02 6.64185E-14-4.18439E-14
 -1      2376 2.00682E+01 3.56757E-02 8.43362E-05-7.94084E-02 6.35020E-14-2.94085E-14
 -1      2377 2.00817E+01 5.85594E-02-5.45163E-04-1.19760E-01-4.34584E-14 1.07738E-13
 -1      2378 2.00578E+01 3.12360E-02 8.82923E-04-6.46697E-02 3.52399E-14-7.34736E-14
 -1      2379 2.00440E+01 2.67345E-02 7.34720E-05-5.33762E-02-5.63965E-14 1.82768E-13
 -1      2380 2.00562E+01 4.46999E-02-4.44936E-04-8.36679E-02 7.58173E-14 2.74261E-14
 -1      2381 2.00364E+01 2.31582E-02 6.69894E-04-4.22737E-02-1.71891E-13 3.84723E-13
 -1      2382 2.00269E+01 1.95909E-02 6.28734E-05-3.38841E-02-1.13441E-13 4.57293E-13
 -1      2383 2.00374E+01 3.33924E-02-3.56304E-04-5.61048E-02 9.27492E-14 2.81870E-13
 -1      2384 2.00216E+01 1.67682E-02 4.96437E-04-2.57032E-02-1.35745E-13 3.81926E-13
 -1      2385 2.00153E+01 1.39905E-02 5.18762E-05-1.96197E-02 2.00436E-14 3.37660E-13
 -1      2386 2.00240E+01 2.43810E-02-2.79516E-04-3.54951E-02-1.40577E-13 4.94056E-13
 -1      2387 2.00117E+01 1.17927E-02 3.58678E-04-1.37461E-02 2.09567E-13 1.77943E-13
 -1      2388 2.00077E+01 9.64911E-03 3.96063E-05-9.46926E-03 2.73453E-13 8.09804E-14
 -1      2389 2.00146E+01 1.73236E-02-2.14277E-04-2.04417E-02-4.41210E-14 3.60185E-13
 -1      2390 2.00054E+01 7.94011E-03 2.51781E-04-5.40042E-03 1.11467E-13 3.44575E-14
 -1      2391 2.00032E+01 6.27443E-03 2.50294E-05-2.53551E-03 1.70621E-13 3.90813E-14
 -1      2392 2.00083E+01 1.18438E-02-1.60026E-04-9.76679E-03 8.55723E-14 2.15907E-13
 -1      2393 2.00017E+01 4.91828E-03 1.70705E-04 1.17854E-04 3.15671E-13-2.02159E-14
 -1      2394 2.00007E+01 3.58232E-03 1.12617E-05 1.86030E-03 1.63653E-13 1.78241E-13
 -1      2395 2.00042E+01 7.56140E-03-1.14957E-04-2.52671E-03 2.04500E-13 1.06378E-13
 -1      2396 1.99998E+01 2.40585E-03 1.02518E-04 3.38998E-03-1.69254E-13 1.22879E-13
 -1      2397 1.99996E+01 1.30781E-03 1.16928E-05 4.18122E-03-2.13030E-13 1.14001E-13
 -1      2398 2.00018E+01 4.11403E-03-7.66067E-05 1.99532E-03 3.94054E-14-8.07108E-14
 -1      2399 2.03921E+01 1.96904E-01 6.63336E-03-5.77256E-01 9.98802E-14 1.00505E-13
 -1      2400 2.02984E+01 2.15882E-01 7.54102E-03-4.77854E-01 1.28442E-13 1.44256E-13
 -1      2401 2.06006E+01 1.76150E-01 6.33647E-03-7.73695E-01 6.70932E-14 6.65493E-14
 -1      2402 2.04485E+01 1.84335E-01 4.48473E-03-6.88383E-01 8.30640E-14 9.95794E-14
 -1      2403 2.04248E+01 2.69419E-01-4.87082E-03-7.10989E-01 1.05107E-13 4.03158E-14
 -1      2404 2.08933E+01 1.63569E-01 5.86841E-03-9.48835E-01 3.38531E-14 7.06163E-14
 -1      2405 2.06936E+01 1.69412E-01 2.77363E-03-8.71530E-01 4.60385E-14 7.81350E-14
 -1      2406 2.05764E+01 2.41583E-01-4.19639E-03-9.39450E-01 5.54332E-14 1.04596E-14
 -1      2407 2.12585E+01 1.42640E-01 4.72162E-03-1.10508E+00 5.49469E-14 6.45731E-14
 -1      2408 2.10194E+01 1.54987E-01 1.85761E-03-1.03721E+00 3.92392E-14 8.21500E-14
 -1      2409 2.07973E+01 2.20174E-01-3.77341E-03-1.14301E+00 4.21780E-14 7.82035E-15
 -1      2410 2.16874E+01 9.29378E-02 2.32310E-03-1.22842E+00-2.89206E-14 1.32501E-13
 -1      2411 2.14175E+01 1.23139E-01 1.52530E-03-1.17980E+00 2.40536E-14 9.81481E-14
 -1      2412 2.10823E+01 1.80784E-01-3.83955E-03-1.32197E+00 1.26867E-14 3.43703E-14
 -1      2413 2.21716E+01-1.18757E-02-1.94150E-03-1.28474E+00 3.77736E-14 1.04467E-13
 -1      2414 2.18834E+01 5.06375E-02 1.79752E-03-1.27555E+00 2.02707E-14 1.12581E-13
 -1      2415 2.14330E+01 9.30834E-02-4.63879E-03-1.45848E+00 2.64261E-14 6.10074E-14
 -1      2416 2.27008E+01-2.00511E-01-8.49011E-03-1.21615E+00 6.75545E-14 4.34869E-14
 -1      2417 2.24141E+01-9.10277E-02 2.79928E-03-1.27800E+00 6.23789E-14 5.46882E-14
 -1      2418 2.18602E+01-8.03859E-02-6.40359E-03-1.51226E+00 8.75913E-14 6.78385E-15
 -1      2419 2.32575E+01-4.87709E-01-1.68462E-02-9.43402E-01 8.27532E-14 5.66379E-14
 -1      2420 2.30022E+01-3.27213E-01 4.44536E-03-1.11532E+00 6.25043E-14 3.35539E-14
 -1      2421 2.23831E+01-3.75565E-01-9.01639E-03-1.41628E+00 5.10759E-14-2.40622E-14
 -1      2422 2.38041E+01-8.36237E-01-2.45611E-02-3.87718E-01 2.35558E-14 6.76273E-14
 -1      2423 2.36234E+01-6.54164E-01 5.86729E-03-6.99596E-01 5.88774E-14 8.28287E-14
 -1      2424 2.30216E+01-7.97413E-01-1.11980E-02-1.07893E+00 4.87498E-14 3.77692E-14
 -1      2425 2.42617E+01-1.09724E+00-2.54304E-02 4.69797E-01 1.20806E-14 1.54036E-13
 -1      2426 2.42088E+01-9.89197E-01 4.50625E-03 3.38016E-02 4.33490E-14 1.34594E-13
 -1      2427 2.37659E+01-1.26037E+00-9.89649E-03-4.09625E-01 5.17121E-15 3.72940E-14
 -1      2428 2.44936E+01-9.87315E-01-1.33882E-02 1.47532E+00-1.32849E-13 2.16309E-13
 -1      2429 2.46113E+01-1.11273E+00-3.62708E-03 1.03067E+00-8.87649E-14 1.66762E-13
 -1      2430 2.45220E+01-1.51466E+00-1.67195E-03 6.09987E-01-8.37047E-14 2.28938E-13
 -1      2431 2.43468E+01-2.44190E-01 4.52468E-03 2.18546E+00 1.20265E-13 2.40759E-13
 -1      2432 2.46170E+01-7.10318E-01-2.73532E-02 1.97074E+00-3.65315E-14 2.55315E-13
 -1      2433 2.50514E+01-1.13412E+00 1.05417E-02 1.76028E+00-8.31722E-14 2.62050E-13
 -1      2434 2.38465E+01 9.91748E-01 1.25938E-02 1.98776E+00 1.64087E-13 3.21611E-13
 -1      2435 2.41564E+01 3.43586E-01-4.91902E-02 2.25186E+00 1.89270E-13 3.26006E-13
 -1      2436 2.50693E+01 9.05995E-02-2.93571E-03 2.44960E+00 9.41157E-14 3.13140E-13
 -1      2437 2.34022E+01 1.91848E+00-3.76433E-03 6.48157E-01 5.67602E-14 1.84900E-13
 -1      2438 2.35536E+01 1.55958E+00-4.35857E-02 1.36610E+00 1.72275E-13 2.60744E-13
 -1      2439 2.46416E+01 1.72724E+00-3.74888E-02 1.92614E+00 1.84731E-13 3.29195E-13
 -1      2440 2.34940E+01 1.70374E+00-4.08607E-02-1.13746E+00-1.59525E-14-1.68520E-14
 -1      2441 2.33752E+01 1.96428E+00-9.51221E-03-3.85577E-01-2.69750E-14 2.44978E-14
 -1      2442 2.43392E+01 2.62698E+00-5.04394E-02 1.44563E-01 1.06297E-13 1.56200E-13
 -1      2443 2.40734E+01 5.90211E-01-5.36744E-02-2.24376E+00 1.56118E-13-1.56337E-13
 -1      2444 2.37613E+01 1.22478E+00 6.61984E-03-1.87299E+00 7.27404E-14-9.00321E-14
 -1      2445 2.45573E+01 1.90103E+00-4.05191E-02-1.72397E+00 1.00826E-13-2.50212E-13
 -1      2446 2.46323E+01-5.57829E-01-2.96581E-02-2.15093E+00 3.44095E-13-2.55296E-13
 -1      2447 2.43291E+01-4.62855E-02 6.72425E-03-2.29126E+00 2.27618E-13-1.71555E-13
 -1      2448 2.50535E+01 4.01708E-01-4.59977E-03-2.53391E+00 2.25542E-13-2.94126E-13
 -1      2449 2.47375E+01-1.07361E+00-4.15328E-03-1.28728E+00 1.89048E-13-4.33581E-14
 -1      2450 2.45704E+01-8.99933E-01-1.06087E-02-1.69901E+00 3.44214E-13-1.25421E-13
 -1      2451 2.51533E+01-9.73168E-01 1.12814E-02-2.00683E+00 2.52123E-13-1.43100E-13
 -1      2452 2.44204E+01-1.01834E+00 5.84995E-03-2.80564E-01-8.83096E-14 1.08724E-15
 -1      2453 2.44247E+01-1.09985E+00-2.32970E-02-7.13977E-01 6.69647E-14-4.00626E-14
 -1      2454 2.47160E+01-1.48752E+00 2.56103E-03-8.94814E-01 1.11010E-13 9.14006E-14
 -1      2455 2.38866E+01-6.99278E-01 7.16823E-03 4.95785E-01-1.15663E-13-4.86646E-14
 -1      2456 2.40271E+01-8.75186E-01-2.37114E-02 1.74481E-01-6.79908E-14 2.74529E-14
 -1      2457 2.40037E+01-1.30926E+00-7.87668E-03 1.57635E-01-7.67715E-14-3.83769E-14
 -1      2458 2.33018E+01-3.61051E-01 5.27598E-03 9.50212E-01-1.40776E-13-2.22883E-13
 -1      2459 2.35237E+01-5.25448E-01-1.69239E-02 7.67585E-01-1.73865E-13-2.23220E-13
 -1      2460 2.32718E+01-8.55887E-01-1.08662E-02 8.73545E-01-4.55547E-14-1.91884E-13
 -1      2461 2.27466E+01-1.06453E-01 3.23860E-03 1.13504E+00-1.38947E-13-1.42000E-13
 -1      2462 2.30036E+01-2.22273E-01-9.07008E-03 1.06603E+00-1.14793E-13-2.36716E-13
 -1      2463 2.26403E+01-4.13781E-01-9.05540E-03 1.24424E+00-1.12115E-13-2.78746E-13
 -1      2464 2.22497E+01 4.91781E-02 1.85905E-03 1.13983E+00-9.03736E-14-9.01933E-14
 -1      2465 2.25099E+01-1.78801E-02-2.77145E-03 1.14551E+00-1.25259E-13-1.17972E-13
 -1      2466 2.21279E+01-9.39746E-02-6.16597E-03 1.35594E+00-1.74819E-13-3.34199E-13
 -1      2467 2.18170E+01 1.27344E-01 1.17443E-03 1.04376E+00 2.86832E-14-4.12560E-14
 -1      2468 2.20606E+01 9.60324E-02 1.33401E-03 1.09044E+00-3.71810E-14-1.24414E-14
 -1      2469 2.17152E+01 9.58113E-02-3.94004E-03 1.30616E+00-1.23964E-13-2.83950E-13
 -1      2470 2.14466E+01 1.55250E-01 8.93425E-04 9.02396E-01 1.65283E-13 1.30871E-13
 -1      2471 2.16631E+01 1.46198E-01 3.59346E-03 9.66560E-01 1.09601E-13 5.42691E-14
 -1      2472 2.13782E+01 1.87492E-01-2.61611E-03 1.17096E+00 1.05701E-14-2.31020E-13
 -1      2473 2.11345E+01 1.54623E-01 7.96399E-04 7.49952E-01 1.78087E-13 1.21757E-14
 -1      2474 2.13198E+01 1.57756E-01 4.54206E-03 8.17319E-01 2.60278E-13 1.30991E-13
 -1      2475 2.10993E+01 2.16840E-01-1.93622E-03 1.00112E+00 1.81903E-13 1.00945E-14
 -1      2476 2.08758E+01 1.39914E-01 7.57079E-04 6.05202E-01 6.73539E-14 5.84560E-14
 -1      2477 2.10298E+01 1.48762E-01 4.66994E-03 6.68131E-01 8.39394E-14 5.11092E-14
 -1      2478 2.08674E+01 2.11378E-01-1.60576E-03 8.27186E-01 1.21044E-13 1.24477E-13
 -1      2479 2.06651E+01 1.19739E-01 7.20099E-04 4.77010E-01-7.21878E-14 3.61694E-14
 -1      2480 2.07899E+01 1.30540E-01 4.34271E-03 5.32074E-01-2.51372E-14 6.49473E-14
 -1      2481 2.06755E+01 1.89141E-01-1.42566E-03 6.65632E-01-1.42961E-14 8.86782E-14
 -1      2482 2.04962E+01 9.87951E-02 6.68391E-04 3.68381E-01 4.41734E-14-7.97225E-14
 -1      2483 2.05952E+01 1.09547E-01 3.80375E-03 4.14589E-01 1.94940E-14-3.03214E-14
 -1      2484 2.05182E+01 1.60783E-01-1.29168E-03 5.23999E-01-6.04963E-14-9.72568E-14
 -1      2485 2.03632E+01 7.93960E-02 6.02100E-04 2.79126E-01 1.71796E-13-1.18260E-13
 -1      2486 2.04402E+01 8.91481E-02 3.20096E-03 3.16777E-01 1.14225E-13-4.42483E-14
 -1      2487 2.03910E+01 1.32061E-01-1.16124E-03 4.04520E-01 4.07839E-14-3.45377E-13
 -1      2488 2.02602E+01 6.24972E-02 5.27117E-04 2.07492E-01 2.77490E-13 4.89171E-14
 -1      2489 2.03190E+01 7.08872E-02 2.61640E-03 2.37484E-01 2.29573E-13 4.25000E-14
 -1      2490 2.02898E+01 1.05770E-01-1.02381E-03 3.06517E-01 9.69283E-14-3.00727E-13
 -1      2491 2.01818E+01 4.83309E-02 4.50021E-04 1.51101E-01 1.48593E-13 1.73259E-13
 -1      2492 2.02259E+01 5.53056E-02 2.09023E-03 1.74548E-01 3.10351E-13 1.25560E-13
 -1      2493 2.02105E+01 8.30222E-02-8.82109E-04 2.27883E-01 2.25593E-13 2.01637E-14
 -1      2494 2.01234E+01 3.67715E-02 3.76007E-04 1.07462E-01-3.21434E-14-5.47069E-14
 -1      2495 2.01557E+01 4.24269E-02 1.63779E-03 1.25487E-01 6.97969E-14 1.12031E-13
 -1      2496 2.01495E+01 6.40380E-02-7.42772E-04 1.65958E-01 1.39916E-13 9.26136E-14
 -1      2497 2.00806E+01 2.75350E-02 3.08307E-04 7.42305E-02-2.34721E-13-1.63634E-14
 -1      2498 2.01038E+01 3.20305E-02 1.26076E-03 8.78680E-02-1.27076E-13 9.93575E-15
 -1      2499 2.01034E+01 4.85993E-02-6.12164E-04 1.18005E-01-9.59712E-14-1.09355E-14
 -1      2500 2.00501E+01 2.02818E-02 2.48442E-04 4.93252E-02-3.30552E-13 2.20211E-13
 -1      2501 2.00663E+01 2.37961E-02 9.53962E-04 5.94784E-02-3.64341E-13 1.03463E-13
 -1      2502 2.00693E+01 3.62962E-02-4.94588E-04 8.14616E-02-3.85116E-13 7.87487E-14
 -1      2503 2.00291E+01 1.46698E-02 1.96665E-04 3.09721E-02 6.60821E-16 3.47872E-13
 -1      2504 2.00400E+01 1.73782E-02 7.09101E-04 3.84018E-02-8.18619E-14 2.62166E-13
 -1      2505 2.00447E+01 2.66566E-02-3.91974E-04 5.40573E-02-2.54426E-13 3.27524E-13
 -1      2506 2.00151E+01 1.03797E-02 1.52219E-04 1.77049E-02-3.22837E-15 2.54180E-13
 -1      2507 2.00220E+01 1.24435E-02 5.16819E-04 2.30329E-02-4.64566E-14 2.12260E-13
 -1      2508 2.00273E+01 1.92109E-02-3.04585E-04 3.38573E-02 2.79333E-14 3.12499E-13
 -1      2509 2.00063E+01 7.12314E-03 1.13672E-04 8.34655E-03 2.48999E-13 2.05919E-13
 -1      2510 2.00104E+01 8.68739E-03 3.67936E-04 1.20662E-02 2.03401E-13 2.47049E-13
 -1      2511 2.00155E+01 1.35228E-02-2.31666E-04 1.92635E-02 1.54754E-13 2.12537E-13
 -1      2512 2.00013E+01 4.64197E-03 7.88389E-05 1.98201E-03 8.39276E-14 3.15345E-13
 -1      2513 2.00034E+01 5.83704E-03 2.53975E-04 4.47054E-03 1.63727E-13 2.28583E-13
 -1      2514 2.00079E+01 9.20030E-03-1.71689E-04 8.99402E-03 1.45308E-13 3.54117E-13
 -1      2515 1.99988E+01 2.69939E-03 4.93864E-05-2.06357E-03 1.23658E-13 2.36272E-13
 -1      2516 1.99996E+01 3.64387E-03 1.67688E-04-5.37820E-04 1.74333E-14 2.68958E-13
 -1      2517 2.00032E+01 5.88870E-03-1.22959E-04 2.05308E-03 1.08810E-13 2.76769E-13
 -1      2518 1.99981E+01 1.04178E-03 1.89150E-05-4.25799E-03-8.38784E-14 5.00003E-13
 -1      2519 1.99980E+01 1.86054E-03 9.96297E-05-3.52880E-03 6.71328E-14 4.15769E-13
 -1      2520 2.00006E+01 3.27793E-03-8.13100E-05-2.28880E-03-3.57976E-14 3.78694E-13
 -1      2521 1.99983E+01-5.23123E-04-1.20313E-05-4.84249E-03 5.77154E-14 4.33426E-13
 -1      2522 1.99978E+01 2.82641E-04 6.15485E-05-4.80937E-03 4.27060E-14 4.34458E-13
 -1      2523 1.99995E+01 9.19787E-04-6.18015E-05-4.58321E-03 6.90820E-14 5.81264E-13
 -1      2524 1.99984E+01-1.36944E-03 2.59355E-05-4.58656E-03 9.84053E-14 3.17166E-13
 -1      2525 2.00014E+01 9.08714E-05-2.81547E-05-1.53458E-03 2.35558E-13-9.84679E-14
 -1      2526 2.00015E+01 8.55211E-05 3.88632E-05-2.06853E-03 2.29835E-13-1.19397E-13
 -1      2527 2.00010E+01 8.71624E-04-2.79348E-05-6.76265E-04 2.18490E-13 3.51808E-16
 -1      2528 2.00012E+01 8.16434E-04 3.13547E-05-1.07441E-03 2.05205E-13-6.78737E-15
 -1      2529 2.00017E+01 4.30860E-03 2.83460E-05-9.65447E-04 3.63550E-13-4.21585E-14
 -1      2530 2.00013E+01-1.25325E-03-3.95537E-06-3.95511E-03-3.04447E-14 3.96032E-13
 -1      2531 2.00009E+01-9.85066E-04 6.35336E-06-4.39492E-03-9.13779E-14 3.97525E-13
 -1      2532 2.00016E+01-6.90895E-04-2.02241E-05-2.70021E-03 1.19814E-13 8.52141E-14
 -1      2533 2.00015E+01-5.86714E-04 3.53452E-05-3.27095E-03 7.13889E-14 2.80377E-13
 -1      2534 2.00019E+01 1.40950E-03 4.66736E-06-3.38279E-03 2.12541E-15 4.73912E-13
 -1      2535 2.00021E+01 2.83960E-03 1.11708E-05-2.05131E-03 2.14073E-13 1.28117E-13
 -1      2536 1.70980E+01-5.51926E+00-1.70563E-02 6.71096E+00 3.21965E-14 3.35863E-13
 -1      2537 1.38407E+01-5.34324E+00 3.82526E-02 6.57013E+00-1.32727E-13 4.23342E-13
 -1      2538 2.00006E+01 1.43632E-03-1.88479E-05-1.43268E-04-9.74114E-14-8.35865E-14
 -1      2539 2.00008E+01 1.38452E-03 1.59895E-05-4.13980E-04 7.90307E-14-2.90478E-15
 -1      2540 2.00012E+01 5.50690E-03 4.30800E-05-2.90740E-04 1.45801E-13-1.45745E-13
 -1      2541 2.00006E+01 1.64284E-03-3.37219E-06 2.05706E-04-2.42711E-13-3.77985E-13
 -1      2542 2.00006E+01 1.62873E-03-2.24105E-06-9.81490E-06-2.32153E-13-2.23631E-13
 -1      2543 2.00009E+01 6.18560E-03 5.13756E-05 2.47167E-05-1.09302E-13-2.23875E-13
 -1      2544 2.00007E+01 1.44836E-03 1.44954E-05 5.85976E-04-2.00772E-13-4.26891E-13
 -1      2545 2.00006E+01 1.47585E-03-1.78657E-05 3.30020E-04-1.71272E-13-3.61621E-13
 -1      2546 2.00008E+01 6.20888E-03 5.14901E-05 1.90206E-04-5.71599E-14-3.96948E-13
 -1      2547 2.00011E+01 9.34347E-04 3.01555E-05 1.18053E-03 1.20764E-13-3.14217E-15
 -1      2548 2.00009E+01 9.66256E-04-2.75140E-05 8.18541E-04-5.08550E-14-3.16112E-13
 -1      2549 2.00011E+01 5.58267E-03 4.49230E-05 4.65131E-04 2.53418E-14-1.72515E-13
 -1      2550 2.00014E+01 2.26013E-04 3.32669E-05 2.10268E-03 6.08658E-14 1.52672E-13
 -1      2551 2.00013E+01 2.26906E-04-2.80013E-05 1.60308E-03 1.34494E-13 1.83532E-14
 -1      2552 2.00016E+01 4.42974E-03 2.96330E-05 1.06618E-03 1.06104E-14-3.93743E-14
 -1      2553 2.00014E+01-4.68960E-04 2.38054E-05 3.24170E-03 1.60667E-13 3.59462E-14
 -1      2554 2.00015E+01-5.32637E-04-1.50201E-05 2.67828E-03 7.64567E-14 2.81556E-13
 -1      2555 2.00019E+01 2.98680E-03 3.74785E-06 2.07096E-03 1.39679E-13 1.22625E-13
 -1      2556 2.00008E+01-8.94815E-04 8.98586E-06 4.27583E-03-7.60440E-14-1.87220E-13
 -1      2557 2.00012E+01-1.10362E-03-5.64886E-06 3.86955E-03 4.62059E-14-1.75575E-13
 -1      2558 2.00018E+01 1.53210E-03-1.78120E-05 3.31326E-03 1.76188E-14-9.44034E-14
 -1      2559 1.99994E+01-1.71129E-03 3.37951E-05 4.73267E-03 3.14629E-14-1.20774E-13
 -1      2560 2.47769E+01-4.82248E+00-6.47931E-02 4.59887E+00 1.62009E-13 9.33698E-14
 -1      2561 2.07608E+01-5.55850E+00-1.10340E-03 5.57702E+00 1.05332E-13 2.56864E-13
 -1      2562 2.02845E+01 2.43335E-01 7.21660E-03-3.41683E-01 1.42410E-13 1.55016E-13
 -1      2563 2.02658E+01 2.84922E-01 1.28126E-02-2.12988E-01 1.62842E-13 1.91063E-13
 -1      2564 2.03533E+01 3.28030E-01-5.39057E-03-4.40802E-01 1.60357E-13 7.89251E-14
 -1      2565 4.82994E+00-2.58154E+00 1.16100E-01 3.08759E+00-2.56739E-15 1.17961E-13
 -1      2566 3.97575E+00-2.14386E+00 1.41807E-01 1.03952E+00-1.12278E-13 2.42639E-13
 -1      2567 3.69716E+00-2.35748E+00 9.86516E-02-1.39871E+00-6.59854E-14 3.00926E-13
 -1      2568 4.87857E+00-2.85230E+00 9.01117E-02-3.77329E+00 5.82590E-14 5.64881E-13
 -1      2569 2.07070E+01 1.98058E+00-1.24519E-02-1.66975E+00-2.89387E-13-1.93257E-13
 -1      2570 2.06119E+01 1.24918E+00-7.12174E-03-1.04800E+00-2.56226E-13-1.63281E-13
 -1      2571 2.05605E+01 1.44804E+00 7.08440E-03-9.58364E-01-2.39446E-13-2.15333E-13
 -1      2572 2.04314E+01 2.43844E+00-2.91027E-04-1.59442E+00-2.69536E-13-2.72282E-13
 -1      2573 3.00389E+01-2.01409E+00-1.04023E-01 1.45052E+00 2.73920E-13-2.18214E-13
 -1      2574 2.77099E+01-3.52988E+00-2.04674E-02 2.56326E+00 1.78690E-13-1.04555E-13
 -1      2575 3.28154E+01 7.19563E+00-9.09960E-02 4.43194E-01-6.94389E-13-5.96467E-14
 -1      2576 3.25848E+01 7.58431E+00-1.23668E-01 9.80056E-02-7.12319E-13-4.53526E-14
 -1      2577 3.28848E+01 2.37713E+00-1.09112E-01-5.44775E-01 5.52502E-13-1.66089E-13
 -1      2578 3.14042E+01 4.10081E-01-6.66186E-02-2.80916E-02 4.20053E-13-2.11220E-13
 -1      2579 1.92923E+01 3.82744E+00-9.95657E-03-1.77732E-01 8.98540E-14-3.99850E-13
 -1      2580 1.93283E+01 3.79926E+00-8.52029E-03-3.23856E-01 5.52949E-14-4.05034E-13
 -1      2581 1.94907E+01 3.43580E+00 7.75836E-04-3.39359E-01 4.02559E-14-3.75419E-13
 -1      2582 1.94139E+01 3.52120E+00 6.52922E-04-1.00252E-01 9.21755E-14-3.77486E-13
 -1      2583 3.32389E+01 7.23328E+00-6.96784E-02 3.20580E-01 7.08988E-13-4.14530E-14
 -1      2584 3.24446E+01 7.14061E+00-1.46326E-01-3.18152E-01 8.09963E-13-6.51285E-14
 -1      2585 2.80822E+01-3.23219E+00 1.32989E-03-2.55023E+00 1.72209E-13-7.80487E-14
 -1      2586 3.04182E+01-1.63434E+00-6.18276E-02-1.67032E+00 2.65954E-13-7.89369E-14
 -1      2587 3.30162E+01 5.21417E+00-6.83430E-02 1.15023E+00 5.34295E-13-2.07057E-14
 -1      2588 3.30985E+01 6.32237E+00-1.35813E-01 8.46291E-01 5.92970E-13-1.51962E-14
 -1      2589 3.27717E+01 7.07545E+00-1.20413E-01-5.25605E-01-6.31495E-13 2.26763E-14
 -1      2590 3.24965E+01 5.97827E+00-9.58505E-02-7.40881E-01-6.71574E-13 9.00113E-14
 -1      2591 3.23437E+01 5.99041E+00-1.68506E-01-1.31860E+00 7.12430E-13-3.04812E-13
 -1      2592 3.30121E+01 4.52638E+00-3.43034E-02-1.10184E+00 6.45761E-13-1.91680E-13
 -1      2593 3.11017E+01 3.01166E+00-2.83184E-02-1.81530E+00 5.15726E-13-3.53884E-13
 -1      2594 2.10915E+01-5.55900E+00 4.34570E-02-5.64513E+00-8.98170E-14-1.89085E-13
 -1      2595 2.51891E+01-4.71198E+00-3.45462E-02-4.57467E+00 5.38458E-14-1.44995E-13
 -1      2596 1.22460E+01-5.22348E+00 2.79750E-02-6.51461E+00-2.39808E-13-5.10147E-13
 -1      2597 1.62720E+01-5.44013E+00-2.06746E-02-6.73582E+00-2.31315E-13-2.70103E-13
 -1      2598 6.15073E+00-3.83976E+00 6.01225E-02-4.69211E+00-1.87128E-13-7.66609E-13
 -1      2599 8.97790E+00-4.47692E+00 2.91719E-02-6.18139E+00-2.08999E-13-6.60028E-13
 -1      2600 1.23732E+01-4.13069E+00 1.39000E-01-6.29589E+00-3.75672E-13-4.80949E-13
 -1      2601 3.07580E+00-2.87941E+00 8.30265E-02-8.99273E-02-2.54675E-14-8.04579E-13
 -1      2602 3.90508E+00-2.97903E+00 7.04445E-02-2.61210E+00-4.00374E-14-9.22873E-13
 -1      2603 4.86807E+00-3.39090E+00 4.12999E-02 4.21049E+00 3.94684E-14-3.78420E-13
 -1      2604 3.28633E+00-3.22026E+00 5.41478E-02 2.06569E+00 8.09630E-14-6.72906E-13
 -1      2605 1.09388E+01-4.85196E+00 1.74607E-02 6.88401E+00-4.50195E-14-1.82604E-13
 -1      2606 7.93438E+00-4.23151E+00 7.38697E-02 5.83297E+00 7.16094E-15-1.99618E-13
 -1      2607 1.77047E+01-5.35839E+00-2.48651E-02 6.78180E+00-1.09912E-14-2.42667E-13
 -1      2608 1.40808E+01-5.39281E+00 1.99236E-02 6.84959E+00-2.43694E-14-2.60361E-13
 -1      2609 1.41304E+01-4.62484E+00 1.23988E-01 6.78306E+00 8.21010E-14-1.77136E-13
 -1      2610 3.06821E+01-1.53596E-01-6.21943E-02 8.82604E-01-4.72018E-13 3.17885E-13
 -1      2611 2.89192E+01-1.84186E+00-7.06299E-02 1.60395E+00-2.37624E-13 1.87322E-13
 -1      2612 2.69439E+01-3.33715E+00-2.75228E-02-3.12231E+00-1.49880E-15 9.03722E-14
 -1      2613 2.92416E+01-1.84254E+00-9.60013E-02-2.01368E+00-1.70072E-13-7.21367E-14
 -1      2614 3.23154E+01 3.96896E+00-1.25482E-01-6.32687E-01-7.50067E-13 2.36006E-13
 -1      2615 3.13850E+01 1.95676E+00-8.99478E-02-9.95704E-02-6.16923E-13 2.60958E-13
 -1      2616 3.00768E+01 5.45307E-01-4.56001E-02-7.71961E-01-4.28518E-13 3.71064E-13
 -1      2617 3.25822E+01 4.79948E+00-8.78002E-02 6.54561E-01-5.04513E-13-1.70974E-14
 -1      2618 3.30306E+01 6.05218E+00-1.22013E-01 6.91027E-01-6.45650E-13-1.05110E-13
 -1      2619 3.07177E+01 6.28105E-01-5.41022E-02-4.99200E-01-3.00412E-13 8.57092E-14
 -1      2620 3.23103E+01 2.74001E+00-9.07113E-02 1.53877E-01-3.54605E-13 1.18405E-13
 -1      2621 2.15965E+01-5.16118E+00 2.15308E-02-5.59171E+00 1.77247E-13 3.64361E-13
 -1      2622 2.47969E+01-4.35673E+00-1.36048E-03-4.70147E+00 5.49283E-14 3.18634E-13
 -1      2623 2.63478E+01-4.24041E+00 2.72468E-02-3.00721E+00 1.66006E-13-3.60822E-14
 -1      2624 1.30719E+01-5.09786E+00 2.30257E-02-6.77235E+00 4.66072E-13 6.07431E-13
 -1      2625 1.72802E+01-5.18899E+00 1.06886E-02-6.75257E+00 3.00343E-13 4.12493E-13
 -1      2626 7.34758E+00-3.77010E+00 7.81768E-02-5.46737E+00 2.89879E-13 7.78738E-13
 -1      2627 1.01211E+01-4.40040E+00 4.72141E-02-6.65451E+00 4.34208E-13 8.38302E-13
 -1      2628 1.35012E+01-4.16972E+00 1.29824E-01-6.58567E+00 4.47475E-13 6.50091E-13
 -1      2629 2.07176E+01 8.97671E-01-4.80906E-03 1.01803E+00 3.06984E-13 3.47426E-13
 -1      2630 2.10202E+01 1.26716E+00-5.20169E-03 1.52967E+00 3.28688E-13 3.96287E-13
 -1      2631 2.08232E+01 1.72946E+00-1.57074E-02 1.70415E+00 3.64266E-13 2.73451E-13
 -1      2632 2.06690E+01 1.10202E+00-9.84710E-03 9.83375E-01 3.21571E-13 2.03770E-13
 -1      2633 1.00075E+01-4.46571E+00 3.74667E-02 6.35315E+00 2.27596E-15 3.71592E-13
 -1      2634 6.57975E+00-3.64412E+00 7.56962E-02 4.78086E+00 1.18405E-13 1.51712E-13
 -1      2635 7.78503E+00-2.19964E+00 1.49488E-01 4.02515E+00 8.78464E-15 2.42278E-13
 -1      2636 2.91617E+01 6.13827E+00-1.92320E-01-6.22521E-01 5.53335E-13 2.96638E-15
 -1      2637 3.11225E+01 6.13237E+00-1.51046E-01-1.07377E+00 6.48676E-13-1.59067E-13
 -1      2638 2.93651E+01 5.25337E+00-8.69446E-02-1.76060E+00 5.07205E-13-2.52021E-13
 -1      2639 1.98631E+01 2.98645E+00 1.87603E-03-8.48734E-01-1.17998E-13-3.92662E-13
 -1      2640 1.97670E+01 3.28412E+00-1.70373E-02-1.05234E+00-1.44614E-13-4.17618E-13
 -1      2641 1.99141E+01 3.12064E+00-1.79057E-02-1.23407E+00-1.78064E-13-4.12498E-13
 -1      2642 2.03754E+01 4.52623E-01-5.02283E-03-9.37770E-02 2.26706E-13 1.09137E-13
 -1      2643 2.05844E+01 2.14677E+00-1.26584E-02 1.63989E+00 3.68447E-13 1.25710E-13
 -1      2644 1.33415E+01-4.35899E+00 1.18233E-01 6.32374E+00-1.17989E-13 3.63903E-13
 -1      2645 3.07976E+01-7.17810E-01-3.17923E-02 2.53642E-01 2.53728E-13 7.17759E-14
 -1      2646 3.02133E+01-1.26048E+00-5.38157E-03-3.58357E-01 2.41571E-13-2.83801E-13
 -1      2647 3.16649E+01 3.74517E+00-4.63861E-02 1.45511E+00 4.18582E-13 1.40887E-13
 -1      2648 8.01448E+00-2.39648E+00 1.58944E-01-4.64505E+00 1.26413E-13 6.47316E-13
 -1      2649 2.05573E+01-5.51987E+00 8.57529E-02 5.65491E+00-1.83187E-14 2.46893E-13
 -1      2650 2.02162E+01-5.36747E+00 4.94480E-02-5.94546E+00 2.55879E-13 3.34482E-13
 -1      2651 2.24194E+01-5.36427E+00-8.44343E-02-4.82877E+00 3.04312E-13 1.55393E-13
 -1      2652 1.88447E+01-4.84742E+00 1.42663E-01-6.08725E+00 3.93990E-13 3.79662E-13
 -1      2653 1.99993E+01-1.15476E-03-2.18156E-05-4.98109E-03 1.19157E-13 4.43829E-13
 -1      2654 2.00000E+01-1.29126E-03 1.93414E-05-4.88675E-03 1.07516E-14 3.73720E-13
 -1      2655 1.99993E+01-3.35211E-04 2.10858E-06 4.71967E-03-6.80338E-14-3.12705E-14
 -1      2656 2.00003E+01-1.05022E-03-2.76921E-05 4.74658E-03-1.48360E-13-1.78914E-13
 -1      2657 2.00010E+01 8.34615E-04 3.60304E-05 4.29939E-03-2.05704E-13-1.83043E-13
 -1      2658 1.99992E+01 5.57338E-04 5.88275E-05 4.68142E-03-1.94765E-13 2.07544E-13
 -1      2659 2.66019E+01-4.63876E+00 4.61136E-02 2.80660E+00 7.74797E-14-1.43080E-13
 -1      2660 2.95737E+01-1.03799E+00-1.30650E-02-2.37680E-01-1.15945E-13-3.05866E-14
 -1      2661 3.06703E+01 4.59797E+00-4.79252E-02-1.40686E+00-6.18838E-13 1.79828E-13
 -1      2662 2.05879E+01 1.87084E+00 1.21136E-02 1.29986E+00 3.40961E-13 8.13082E-14
 -1      2663 2.08100E+01-5.39496E+00 6.04013E-02 5.92880E+00-6.16174E-15-6.15619E-14
 -1      2664 1.97796E+01-5.24275E+00 1.27866E-01 6.08966E+00 7.44682E-14-6.19678E-14
 -1      2665 2.32843E+01-5.34864E+00-9.15456E-02 4.66441E+00 2.45637E-15 1.70128E-13
 -1      2666 3.06603E+01 6.38596E+00-5.01314E-02 1.04705E+00-6.11317E-13-2.22294E-13
 -1      2667 3.04837E+01 7.04351E+00-6.31786E-02-3.64764E-01-6.42264E-13-6.48717E-14
 -1      2668 2.82283E+01-2.77041E+00-7.70817E-02 7.13244E-01-1.17021E-13 3.55521E-13
 -1      2669 2.79521E+01-3.19964E+00-5.98150E-03 2.33480E+00-9.87821E-14 1.30035E-13
 -1      2670 2.62518E+01-4.24492E+00 2.86193E-02 2.95541E+00-6.51146E-14 2.37907E-13
 -1      2671 8.01041E+00-3.03444E+00 1.34834E-01 5.07372E+00 1.11855E-13-3.21826E-13
 -1      2672 6.81399E+00-2.40686E+00 1.41449E-01-3.67351E+00-1.90958E-13-7.73492E-13
 -1      2673 2.68677E+01-4.53718E+00-9.94093E-03-2.79314E+00-4.37150E-14-4.30211E-14
 -1      2674 2.02251E+01 2.67771E+00-9.08138E-03-1.43086E+00-2.34096E-13-3.38288E-13
 -1      2675 5.72653E+00-1.22552E+00 1.77423E-01-2.49421E-01-1.01572E-13 2.87131E-13
 -1      2676 3.07502E+01 6.31032E+00-9.88669E-02 9.21788E-01 6.14953E-13 6.52187E-14
 -1      2677 1.96512E+01-5.55070E+00 6.04611E-02-5.99511E+00-2.50244E-13-2.24806E-13
 -1      2678 2.23309E+01-5.53132E+00-4.65355E-02-4.79235E+00-3.27835E-13-7.79359E-14
 -1      2679 1.84619E+01-4.95821E+00 1.45484E-01-6.08050E+00-3.63376E-13-2.37074E-13
 -1      2680 4.98226E+00-1.78589E+00 1.56785E-01 9.19675E-01 9.47367E-14-7.02327E-13
 -1      2681 3.08650E+01 3.33123E+00-3.05585E-02 1.30826E+00-3.66707E-13-1.37446E-13
 -1      2682 2.00006E+01 3.46208E-04 9.08772E-06-4.66897E-03 1.24683E-13 3.53215E-13
 -1      2683 2.00006E+01 1.44153E-03-7.37182E-05 4.14176E-03-2.47755E-13-1.18059E-13
 -1      2684 1.95880E+01 3.09306E+00-5.78533E-03 3.59488E-01 2.11212E-13-3.02544E-13
 -1      2685 1.95317E+01 3.15498E+00-6.40600E-03 2.49999E-01 1.81129E-13-3.24218E-13
 -1      2686 1.94940E+01 3.20353E+00-5.60974E-03 1.67570E-01 1.54493E-13-3.48529E-13
 -1      2687 1.94759E+01 3.22333E+00-5.59853E-03 5.86527E-02 1.30299E-13-3.43739E-13
 -1      2688 1.96127E+01 2.90009E+00 5.22897E-03 1.68462E-01 1.55513E-13-3.08332E-13
 -1      2689 1.99949E+01 2.54373E+00-9.28085E-03 7.55154E-01 3.14135E-13-1.67668E-13
 -1      2690 1.98691E+01 2.71889E+00-7.90210E-03 6.41104E-01 2.88803E-13-1.99138E-13
 -1      2691 2.02902E+01 2.05706E+00-1.06301E-02 9.16772E-01 3.23035E-13-8.57088E-14
 -1      2692 2.01373E+01 2.32329E+00-6.48132E-03 8.27756E-01 3.15203E-13-1.26640E-13
 -1      2693 2.01591E+01 2.12131E+00 6.93474E-03 5.97084E-01 2.85845E-13-1.36174E-13
 -1      2694 2.04657E+01 8.53161E-01-7.44407E-04 2.82522E-01 2.67886E-13 5.94101E-14
 -1      2695 2.05625E+01 1.05483E+00 9.05500E-03 5.83163E-01 2.81046E-13 7.41715E-14
 -1      2696 2.03985E+01 5.88493E-01 1.44901E-03-1.69324E-01 2.11533E-13 6.62115E-14
 -1      2697 2.04426E+01 7.02571E-01 9.90690E-03 4.33838E-02 2.41389E-13 7.48567E-14
 -1      2698 2.04391E+01 9.96001E-01-5.90350E-04 2.04110E-01 2.56087E-13-8.61802E-15
 -1      2699 2.04313E+01 7.83683E-01 7.89897E-03-2.29989E-02-1.15642E-13-2.05914E-13
 -1      2700 2.03889E+01 6.51467E-01-1.14144E-03 1.81212E-01-9.85191E-14-1.99638E-13
 -1      2701 2.03810E+01 5.52215E-01 6.08186E-03 3.54366E-01-1.05015E-13-1.95441E-13
 -1      2702 2.03765E+01 4.69963E-01 4.91129E-04 5.03512E-01-1.02957E-13-2.13074E-13
 -1      2703 2.03589E+01 7.53874E-01-2.34801E-03 2.53903E-01-1.13223E-13-2.26947E-13
 -1      2704 2.03757E+01 4.06770E-01 4.13111E-03 6.38755E-01-8.61344E-14-1.91681E-13
 -1      2705 2.04065E+01 3.50476E-01 1.33583E-03 7.50868E-01-8.52567E-14-1.63585E-13
 -1      2706 2.03370E+01 5.50941E-01-2.92075E-03 5.76023E-01-8.23795E-14-2.13266E-13
 -1      2707 2.04222E+01 3.01697E-01 3.02339E-03 8.58353E-01-9.88199E-14-1.29791E-13
 -1      2708 2.04845E+01 2.52115E-01 1.58283E-03 9.42044E-01-9.95965E-14-1.36105E-13
 -1      2709 2.03439E+01 4.10417E-01-3.12814E-03 8.31261E-01-7.37669E-14-1.85634E-13
 -1      2710 2.05236E+01 2.01495E-01 2.77281E-03 1.02615E+00-7.86482E-14-1.23232E-13
 -1      2711 2.06145E+01 1.42515E-01 1.25670E-03 1.08267E+00-6.54281E-14-1.32266E-13
 -1      2712 2.03918E+01 2.86775E-01-3.48671E-03 1.03393E+00-9.35500E-14-1.47575E-13
 -1      2713 2.06859E+01 7.54950E-02 3.46252E-03 1.14196E+00-5.68494E-14-1.07220E-13
 -1      2714 2.08046E+01-8.02408E-03 2.82910E-04 1.16558E+00-4.34341E-14-1.01154E-13
 -1      2715 2.04929E+01 1.42272E-01-4.34129E-03 1.18840E+00-3.60551E-14-9.02362E-14
 -1      2716 2.09213E+01-1.04799E-01 5.15583E-03 1.19170E+00-2.15005E-14-7.17317E-14
 -1      2717 2.10683E+01-2.25952E-01-1.53338E-03 1.17005E+00 9.76091E-15-3.07944E-14
 -1      2718 2.06656E+01-5.84343E-02-5.93550E-03 1.28667E+00-1.76698E-14 3.13253E-15
 -1      2719 2.12471E+01-3.61856E-01 7.75910E-03 1.14656E+00 2.55243E-14-1.86353E-14
 -1      2720 2.14221E+01-5.26523E-01-4.44604E-03 1.06160E+00 2.77013E-14 1.63562E-14
 -1      2721 2.09368E+01-3.45613E-01-8.34778E-03 1.30611E+00 2.53599E-14 2.10442E-14
 -1      2722 2.16803E+01-6.99363E-01 1.07894E-02 9.63252E-01-1.01361E-14 3.61151E-14
 -1      2723 2.18771E+01-8.95203E-01-8.50376E-03 7.94934E-01 1.08331E-14 9.43630E-15
 -1      2724 2.13396E+01-7.32495E-01-1.11622E-02 1.20676E+00 1.41149E-14-9.05412E-15
 -1      2725 2.22207E+01-1.07795E+00 1.28370E-02 5.90246E-01-1.31690E-14 1.72362E-14
 -1      2726 2.24199E+01-1.25659E+00-1.26888E-02 3.25809E-01-2.27663E-14-3.87510E-14
 -1      2727 2.19008E+01-1.18978E+00-1.29437E-02 9.31325E-01-2.04468E-14-5.89875E-14
 -1      2728 2.28204E+01-1.37957E+00 1.10308E-02-9.03572E-03 1.80560E-15-5.88003E-14
 -1      2729 2.29833E+01-1.43982E+00-1.37244E-02-3.54475E-01-3.22251E-14-2.55074E-14
 -1      2730 2.26116E+01-1.60256E+00-1.05401E-02 4.16560E-01-1.87149E-14 3.94162E-14
 -1      2731 2.33507E+01-1.38475E+00 1.20918E-03-7.97562E-01-6.51484E-14-4.38560E-15
 -1      2732 2.34276E+01-1.18618E+00-6.94060E-03-1.14915E+00-1.03089E-13 9.03262E-15
 -1      2733 2.33783E+01-1.73205E+00-9.44304E-04-3.59882E-01-4.41714E-14 3.97028E-14
 -1      2734 2.36134E+01-8.31408E-01-2.02499E-02-1.57016E+00-1.82241E-13-2.50444E-14
 -1      2735 2.35773E+01-2.88347E-01 7.30294E-03-1.77403E+00-1.78428E-13-4.42930E-14
 -1      2736 2.39872E+01-1.24987E+00 1.14331E-02-1.27361E+00-1.57908E-13-5.96628E-14
 -1      2737 2.34763E+01 3.67025E-01-4.28035E-02-1.91511E+00-1.93516E-13-3.74457E-14
 -1      2738 2.33620E+01 1.11382E+00 1.72466E-02-1.78513E+00-2.92200E-13-1.00329E-13
 -1      2739 2.41782E+01 2.88489E-02 1.15396E-02-1.93658E+00-2.24622E-13-4.08926E-14
 -1      2740 2.30966E+01 1.79054E+00-4.78743E-02-1.42327E+00-2.93574E-13-5.68599E-14
 -1      2741 2.29881E+01 2.33356E+00-2.41232E-03-9.20893E-01-2.40474E-13-9.09828E-14
 -1      2742 2.39291E+01 1.75628E+00-6.00451E-03-1.78007E+00-2.44416E-13 8.81151E-14
 -1      2743 2.28733E+01 2.56486E+00-2.98302E-02-1.19473E-01-2.12212E-13-1.08053E-13
 -1      2744 2.28715E+01 2.48466E+00-4.41267E-02 5.04656E-01-1.50940E-13-7.38517E-14
 -1      2745 2.35886E+01 2.96336E+00-1.09742E-02-5.75755E-01-2.43285E-13 9.77465E-14
 -1      2746 2.30810E+01 2.13771E+00 9.80930E-03 1.25903E+00-9.56162E-14-1.64268E-13
 -1      2747 2.32017E+01 1.50001E+00-4.77911E-02 1.68619E+00-1.07050E-13-1.92211E-13
 -1      2748 2.36263E+01 2.82880E+00-7.34073E-03 1.02004E+00-1.59279E-13-7.26368E-14
 -1      2749 2.34475E+01 7.93320E-01 1.39810E-02 1.92608E+00-1.04559E-13-1.03996E-13
 -1      2750 2.35681E+01 6.89158E-02-3.75417E-02 1.97473E+00 6.94757E-15-1.44772E-13
 -1      2751 2.40184E+01 1.37098E+00-2.00572E-03 1.97966E+00-5.17676E-14-2.18166E-13
 -1      2752 2.35963E+01-5.29253E-01 1.16822E-03 1.74277E+00 5.20556E-14-1.71593E-13
 -1      2753 2.36154E+01-9.86334E-01-1.50425E-02 1.49783E+00 7.20756E-14-2.09215E-13
 -1      2754 2.41864E+01-3.21553E-01 5.08489E-03 1.91831E+00-1.37564E-14-1.50279E-13
 -1      2755 2.33795E+01-1.26395E+00-9.97942E-03 1.06223E+00 9.26173E-14-1.80427E-13
 -1      2756 2.32868E+01-1.38857E+00 4.00166E-03 7.09267E-01 1.26019E-13-1.97852E-13
 -1      2757 2.38909E+01-1.38619E+00 9.77698E-03 1.16227E+00 8.70280E-14-1.61934E-13
 -1      2758 2.29025E+01-1.38785E+00-1.46133E-02 2.93682E-01 5.64494E-14-3.02350E-13
 -1      2759 2.27358E+01-1.28674E+00 1.17400E-02-2.78996E-02 7.26020E-14-3.13049E-13
 -1      2760 2.32276E+01-1.69927E+00-4.14850E-03 2.72572E-01 4.68700E-14-2.51562E-13
 -1      2761 2.23448E+01-1.13936E+00-1.22352E-02-3.22391E-01 9.63776E-14-3.19528E-13
 -1      2762 2.21530E+01-9.48854E-01 1.26170E-02-5.54964E-01 5.95944E-14-2.82582E-13
 -1      2763 2.24628E+01-1.47168E+00-1.15136E-02-4.28212E-01 5.63136E-14-3.66260E-13
 -1      2764 2.18286E+01-7.63589E-01-7.78205E-03-7.22801E-01 9.57628E-14-2.80611E-13
 -1      2765 2.16452E+01-5.72749E-01 1.01691E-02-8.61062E-01 1.84530E-13-3.16011E-13
 -1      2766 2.17842E+01-1.03023E+00-1.22920E-02-8.64306E-01 7.43656E-14-1.74333E-13
 -1      2767 2.14050E+01-4.08773E-01-3.93635E-03-9.31102E-01 1.56579E-13-3.06555E-13
 -1      2768 2.12446E+01-2.57104E-01 6.98171E-03-9.92116E-01 8.79253E-14-2.89660E-13
 -1      2769 2.12599E+01-5.84992E-01-9.94897E-03-1.07611E+00 1.51007E-13-1.69747E-13
 -1      2770 2.10781E+01-1.35585E-01-1.26870E-03-9.96838E-01 1.41244E-13-2.84278E-13
 -1      2771 2.09433E+01-3.15799E-02 4.20345E-03-1.00293E+00 1.43080E-13-2.32751E-13
 -1      2772 2.08856E+01-2.29525E-01-7.01721E-03-1.13085E+00 1.33706E-13-3.20636E-13
 -1      2773 2.08317E+01 4.71771E-02 4.09743E-04-9.68347E-01 4.77214E-14-1.98869E-13
 -1      2774 2.07199E+01 1.09454E-01 2.17650E-03-9.39649E-01-2.47108E-14-8.21250E-14
 -1      2775 2.06293E+01 1.57517E-02-4.57132E-03-1.08715E+00 1.31758E-13-3.94990E-13
 -1      2776 2.06460E+01 1.53600E-01 1.39464E-03-8.84244E-01-6.71780E-15-7.04901E-14
 -1      2777 2.05534E+01 1.84546E-01 8.52104E-04-8.36410E-01-5.57548E-15-1.93295E-14
 -1      2778 2.04563E+01 1.64052E-01-2.85583E-03-9.87866E-01-1.19501E-15-1.44152E-13
 -1      2779 2.05039E+01 2.03944E-01 1.91135E-03-7.72535E-01 1.26647E-14-4.16602E-14
 -1      2780 2.04273E+01 2.13683E-01 6.61394E-05-7.16675E-01 7.87117E-14-8.70749E-14
 -1      2781 2.03386E+01 2.39129E-01-1.76751E-03-8.62174E-01-2.94168E-14-1.35518E-13
 -1      2782 2.03934E+01 2.16993E-01 2.11334E-03-6.52188E-01-3.70219E-14-9.45983E-14
 -1      2783 2.03301E+01 2.13666E-01-3.49798E-04-5.95596E-01 3.88613E-15-2.10919E-13
 -1      2784 2.02565E+01 2.64270E-01-1.12361E-03-7.29114E-01-8.32639E-14-2.75292E-13
 -1      2785 2.03060E+01 2.07495E-01 2.10770E-03-5.35176E-01 1.24983E-13-3.37377E-13
 -1      2786 2.02541E+01 1.96993E-01-5.30372E-04-4.82232E-01 1.02746E-13-3.90117E-13
 -1      2787 2.01973E+01 2.58325E-01-7.60976E-04-6.00515E-01-5.46849E-14-3.17779E-13
 -1      2788 2.02364E+01 1.85955E-01 1.97237E-03-4.28365E-01 1.59277E-13-3.32644E-13
 -1      2789 2.01942E+01 1.72238E-01-5.71803E-04-3.81374E-01 1.80159E-13-1.66238E-13
 -1      2790 2.01530E+01 2.35052E-01-5.61424E-04-4.83160E-01 1.89274E-13-3.16717E-13
 -1      2791 2.01809E+01 1.59341E-01 1.76425E-03-3.35082E-01 2.20693E-13-6.48470E-14
 -1      2792 2.01469E+01 1.44897E-01-5.37730E-04-2.94953E-01 2.31610E-13 8.36061E-14
 -1      2793 2.01189E+01 2.03773E-01-4.48971E-04-3.80370E-01 2.99488E-13-2.54353E-13
 -1      2794 2.01366E+01 1.31973E-01 1.52375E-03-2.56321E-01 1.70901E-13 7.35933E-14
 -1      2795 2.01098E+01 1.18253E-01-4.67835E-04-2.23080E-01 1.31258E-13 8.78181E-14
 -1      2796 2.00922E+01 1.70409E-01-3.78796E-04-2.93169E-01 1.81495E-13-2.27758E-13
 -1      2797 2.01017E+01 1.06329E-01 1.27832E-03-1.91631E-01 1.34173E-14 9.66904E-14
 -1      2798 2.00808E+01 9.40856E-02-3.86047E-04-1.64789E-01-4.99311E-14-3.17826E-14
 -1      2799 2.00710E+01 1.38459E-01-3.27762E-04-2.21128E-01 3.77065E-14-1.43761E-13
 -1      2800 2.00744E+01 8.36510E-02 1.04573E-03-1.39741E-01 1.27066E-14 7.80740E-15
 -1      2801 2.00584E+01 7.31875E-02-3.06039E-04-1.18547E-01-5.21084E-15 2.69239E-14
 -1      2802 2.00541E+01 1.09774E-01-2.85153E-04-1.62964E-01 1.02607E-13-1.01551E-13
 -1      2803 2.00534E+01 6.43960E-02 8.36289E-04-9.89956E-02 4.21415E-14 8.83445E-14
 -1      2804 2.00414E+01 5.57372E-02-2.34805E-04-8.26067E-02 2.04432E-13 1.61836E-13
 -1      2805 2.00407E+01 8.51346E-02-2.46249E-04-1.16968E-01 7.55145E-14-1.43169E-13
 -1      2806 2.00375E+01 4.85415E-02 6.54740E-04-6.76419E-02 1.92392E-13 1.23521E-13
 -1      2807 2.00286E+01 4.15559E-02-1.75139E-04-5.52261E-02 4.60343E-14 1.46756E-13
 -1      2808 2.00302E+01 6.46540E-02-2.09374E-04-8.13021E-02 9.51081E-14 1.38226E-13
 -1      2809 2.00256E+01 3.57993E-02 5.02122E-04-4.40014E-02-1.02028E-13 1.35715E-13
 -1      2810 2.00193E+01 3.02757E-02-1.27608E-04-3.47979E-02-1.66187E-13 1.36854E-13
 -1      2811 2.00220E+01 4.80616E-02-1.74436E-04-5.41847E-02-2.00753E-14-2.92317E-14
 -1      2812 2.00169E+01 2.57489E-02 3.77297E-04-2.65660E-02-2.23109E-13 2.60976E-13
 -1      2813 2.00125E+01 2.14413E-02-9.16673E-05-1.99159E-02 4.62967E-15 1.71156E-13
 -1      2814 2.00157E+01 3.48867E-02-1.42078E-04-3.39951E-02-1.91587E-13 5.77249E-14
 -1      2815 2.00108E+01 1.79141E-02 2.78245E-04-1.40450E-02 1.49310E-13 1.60388E-13
 -1      2816 2.00078E+01 1.45643E-02-6.74540E-05-9.40367E-03 6.81224E-14 2.87602E-13
 -1      2817 2.00110E+01 2.45682E-02-1.13014E-04-1.93275E-02-1.15140E-14 2.73824E-13
 -1      2818 2.00065E+01 1.17990E-02 2.01659E-04-5.38772E-03-4.25387E-14 2.97924E-13
 -1      2819 2.00046E+01 9.16232E-03-4.88541E-05-2.33405E-03-5.93900E-15 4.96641E-14
 -1      2820 2.00074E+01 1.65036E-02-9.01413E-05-9.01298E-03-3.41108E-14 1.87881E-13
 -1      2821 2.00036E+01 6.89951E-03 1.33482E-04 2.30816E-04-3.72395E-14-1.50682E-13
 -1      2822 2.00025E+01 4.79868E-03-2.22338E-05 1.99573E-03-1.76925E-13-3.89417E-13
 -1      2823 2.00047E+01 1.01376E-02-7.22105E-05-2.14108E-03-1.80489E-13-1.56835E-13
 -1      2824 2.05345E+01 3.45763E-01 4.14810E-03-1.04378E+00 7.77424E-14-8.63852E-16
 -1      2825 2.04434E+01 3.61166E-01 2.09647E-03-9.30338E-01 8.86424E-14 2.05405E-14
 -1      2826 2.71685E+01-4.29074E+00-1.43926E-01 1.37657E+00 5.86753E-14-4.13461E-13
 -1      2827 2.51632E+01-4.98772E+00 6.30287E-02 2.93429E+00 1.31839E-14-2.73961E-13
 -1      2828 2.04318E+01 3.81443E-01 3.60007E-03-7.99114E-01 8.53384E-14 3.86121E-14
 -1      2829 2.03800E+01 4.10595E-01 4.11445E-03-6.68740E-01 1.25114E-13 5.94189E-14
 -1      2830 2.03522E+01 4.77073E-01-2.87471E-03-9.00552E-01 1.11659E-13 1.89062E-14
 -1      2831 2.08984E+01 2.55577E-01 3.75607E-03-1.46094E+00-9.12085E-15 1.45337E-14
 -1      2832 2.07413E+01 2.90237E-01 8.12144E-04-1.37493E+00 5.15104E-16 1.17425E-15
 -1      2833 2.11733E+01 1.29056E-01 2.43804E-03-1.61603E+00 5.69081E-14 2.34245E-15
 -1      2834 2.09827E+01 2.04074E-01 1.87558E-03-1.55810E+00 2.89429E-14 2.76142E-14
 -1      2835 2.06087E+01 2.92801E-01-3.74408E-03-1.62068E+00 2.00948E-14-3.07174E-14
 -1      2836 2.15414E+01-1.15242E-01-1.54136E-04-1.69172E+00 8.23397E-14 4.32125E-15
 -1      2837 2.13115E+01 2.70708E-02 4.66357E-03-1.68613E+00 8.47297E-14 8.03451E-15
 -1      2838 2.08156E+01 1.04888E-01-6.58413E-03-1.80141E+00 7.72718E-14-2.24950E-14
 -1      2839 2.20482E+01-5.26473E-01-4.79295E-03-1.62298E+00 6.49242E-15 3.94877E-14
 -1      2840 2.17709E+01-2.92648E-01 9.75994E-03-1.70696E+00 5.06048E-14 1.88791E-14
 -1      2841 2.11487E+01-2.42600E-01-1.18874E-02-1.90878E+00 6.98274E-14 1.30170E-14
 -1      2842 2.27466E+01-1.11525E+00-1.24229E-02-1.31422E+00 7.60720E-15 1.09853E-13
 -1      2843 2.24207E+01-7.92273E-01 1.70350E-02-1.53472E+00-2.84435E-15 1.02315E-13
 -1      2844 2.16907E+01-8.05326E-01-1.98235E-02-1.87404E+00-1.39527E-14 8.20349E-14
 -1      2845 2.36636E+01-1.76695E+00-2.04929E-02-6.52549E-01-8.47690E-14 1.83843E-13
 -1      2846 2.33088E+01-1.43409E+00 2.42990E-02-1.04812E+00-2.22559E-14 1.43030E-13
 -1      2847 2.25447E+01-1.57560E+00-2.87560E-02-1.57893E+00-5.48889E-14 2.44813E-13
 -1      2848 2.47076E+01-2.11779E+00-2.11731E-02 3.97795E-01-1.31277E-13 2.80651E-13
 -1      2849 2.43885E+01-1.99588E+00 2.36415E-02-1.41458E-01-9.59222E-14 2.46529E-13
 -1      2850 2.37313E+01-2.36197E+00-4.61789E-02-8.48279E-01-1.33411E-13 2.86230E-13
 -1      2851 2.56053E+01-1.54854E+00-1.79012E-02 1.71606E+00-7.17829E-14 2.94049E-13
 -1      2852 2.54730E+01-2.00029E+00 5.20693E-03 1.17673E+00-1.50454E-13 3.39513E-13
 -1      2853 2.52703E+01-2.63020E+00-4.85234E-02 4.21499E-01-1.41899E-13 3.07470E-13
 -1      2854 2.58838E+01 3.93667E-01-2.35745E-02 2.50661E+00 6.68493E-14 4.85119E-13
 -1      2855 2.59635E+01-7.53790E-01-7.50040E-02 2.36575E+00-2.74399E-14 3.89064E-13
 -1      2856 2.64900E+01-1.53860E+00-3.62771E-02 1.87658E+00-8.49598E-14 4.50216E-13
 -1      2857 2.53353E+01 3.78963E+00-7.98492E-02-3.72624E-01 2.84092E-13 9.52363E-15
 -1      2858 2.53996E+01 3.63625E+00-1.11654E-01 7.24336E-01 3.20841E-13 2.05710E-13
 -1      2859 2.62061E+01 2.97946E+00-1.29592E-01-1.99911E+00 2.80082E-13-2.80533E-13
 -1      2860 2.60239E+01 3.95881E+00-7.63392E-02-1.19385E+00 2.87437E-13-1.34500E-13
 -1      2861 2.59258E+01-4.15183E-01-1.03607E-01-2.55503E+00 1.87073E-13-2.36103E-13
 -1      2862 2.57704E+01 8.69134E-01-1.45615E-02-2.64169E+00 1.50963E-13-3.28095E-13
 -1      2863 2.55905E+01-1.83653E+00-1.86529E-02-1.51819E+00 1.46326E-13-1.39582E-13
 -1      2864 2.57112E+01-1.23309E+00-9.56631E-03-2.02964E+00 1.76460E-13-2.40876E-13
 -1      2865 2.65807E+01-1.02818E+00-6.43787E-03-2.20688E+00 1.33043E-13-2.83641E-13
 -1      2866 2.46502E+01-1.99994E+00 1.71758E-02-2.03273E-01 4.80727E-14-1.37584E-13
 -1      2867 2.49443E+01-2.03135E+00-1.71952E-02-7.64290E-01 1.74951E-13-6.24639E-14
 -1      2868 2.55288E+01-2.36143E+00-1.22444E-02-8.75767E-01 3.34663E-14-2.49644E-13
 -1      2869 2.35980E+01-1.49670E+00 2.41507E-02 7.76577E-01-8.08739E-14-8.10307E-14
 -1      2870 2.39344E+01-1.81156E+00-2.29952E-02 3.53142E-01-4.96434E-14-3.24695E-14
 -1      2871 2.40911E+01-2.34305E+00-3.38692E-02 4.78179E-01-4.43675E-14-8.58363E-14
 -1      2872 2.26978E+01-8.52570E-01 1.82280E-02 1.32069E+00 4.01593E-14-1.38234E-13
 -1      2873 2.30128E+01-1.18655E+00-1.57629E-02 1.07940E+00 4.84461E-14-4.05907E-14
 -1      2874 2.28692E+01-1.64272E+00-2.80404E-02 1.29459E+00-1.53805E-15 8.75740E-14
 -1      2875 2.20294E+01-3.27828E-01 1.10305E-02 1.52808E+00-9.14795E-14-3.85010E-13
 -1      2876 2.22984E+01-5.81139E-01-7.82518E-03 1.43319E+00-2.45860E-14-2.78442E-13
 -1      2877 2.19720E+01-8.70913E-01-2.01601E-02 1.65390E+00 1.26146E-13-7.30467E-14
 -1      2878 2.15564E+01 1.48394E-02 5.46740E-03 1.52174E+00-1.19250E-13-3.33463E-13
 -1      2879 2.17784E+01-1.42203E-01-2.20549E-03 1.52358E+00-8.57897E-14-3.53479E-13
 -1      2880 2.13869E+01-2.81704E-01-1.21245E-02 1.72360E+00-6.41236E-14-2.98013E-13
 -1      2881 2.12179E+01 2.02762E-01 2.10131E-03 1.39841E+00-1.19256E-13-4.04145E-13
 -1      2882 2.14016E+01 1.21269E-01 1.09050E-03 1.45555E+00-1.51267E-13-3.77365E-13
 -1      2883 2.10190E+01 8.75921E-02-6.45617E-03 1.63090E+00-9.48601E-14-2.73268E-13
 -1      2884 2.09653E+01 2.83898E-01 2.70080E-04 1.22129E+00 3.95143E-14-3.58056E-13
 -1      2885 2.11192E+01 2.52327E-01 2.89175E-03 1.30446E+00-6.40219E-14-3.60152E-13
 -1      2886 2.07824E+01 2.82048E-01-3.14276E-03 1.45805E+00-1.62884E-13-3.89005E-13
 -1      2887 2.07681E+01 3.00388E-01-5.90663E-04 1.02893E+00 6.68722E-14-8.63409E-14
 -1      2888 2.08979E+01 2.98081E-01 3.71822E-03 1.11952E+00 6.79185E-14-1.32688E-13
 -1      2889 2.06201E+01 3.59934E-01-1.46525E-03 1.25411E+00-1.32073E-13-2.09907E-13
 -1      2890 2.06090E+01 2.82136E-01-9.02084E-04 8.43346E-01 1.16555E-13 5.28794E-14
 -1      2891 2.07180E+01 2.95004E-01 3.93002E-03 9.30615E-01 1.61446E-13 7.08029E-14
 -1      2892 2.04994E+01 3.68651E-01-7.41284E-04 1.04776E+00 8.17730E-15-4.02169E-14
 -1      2893 2.04785E+01 2.48033E-01-9.30936E-04 6.75825E-01 8.66142E-15-1.62102E-13
 -1      2894 2.05692E+01 2.67391E-01 3.77265E-03 7.54294E-01 8.51013E-14 1.47473E-14
 -1      2895 2.04033E+01 3.40949E-01-4.93958E-04 8.54953E-01 1.34537E-13-8.95184E-14
 -1      2896 2.03713E+01 2.09047E-01-8.32847E-04 5.31023E-01 2.90206E-14-3.88281E-13
 -1      2897 2.04458E+01 2.29952E-01 3.41355E-03 5.98504E-01 8.14312E-15-2.84310E-13
 -1      2898 2.03237E+01 2.97237E-01-4.47419E-04 6.83586E-01 9.95020E-14-3.08654E-13
 -1      2899 2.02839E+01 1.71039E-01-6.91319E-04 4.09693E-01 2.81433E-14-4.16906E-13
 -1      2900 2.03440E+01 1.90907E-01 2.96461E-03 4.65919E-01 2.57823E-15-4.36135E-13
 -1      2901 2.02567E+01 2.49277E-01-4.61612E-04 5.36569E-01 8.37469E-14-4.61471E-13
 -1      2902 2.02133E+01 1.36796E-01-5.47898E-04 3.10452E-01 3.72332E-14-4.32811E-13
 -1      2903 2.02611E+01 1.54447E-01 2.49708E-03 3.56175E-01 3.82856E-15-4.17587E-13
 -1      2904 2.02006E+01 2.03303E-01-4.75818E-04 4.13802E-01 4.40086E-14-4.70890E-13
 -1      2905 2.01574E+01 1.07363E-01-4.20411E-04 2.30882E-01 1.62452E-13-2.20523E-13
 -1      2906 2.01947E+01 1.22402E-01 2.05284E-03 2.67328E-01 1.35018E-13-3.13745E-13
 -1      2907 2.01542E+01 1.62231E-01-4.70097E-04 3.13510E-01 1.60346E-14-3.97728E-13
 -1      2908 2.01137E+01 8.28545E-02-3.14262E-04 1.68199E-01 6.70829E-14 3.99883E-14
 -1      2909 2.01423E+01 9.53007E-02 1.65333E-03 1.96742E-01 1.58241E-13 2.59556E-14
 -1      2910 2.01164E+01 1.27094E-01-4.42634E-04 2.33116E-01 8.21671E-14-1.15662E-13
 -1      2911 2.00803E+01 6.29284E-02-2.29383E-04 1.19619E-01-1.39065E-13 5.72065E-14
 -1      2912 2.01018E+01 7.29997E-02 1.30717E-03 1.41612E-01-7.65493E-15 9.04493E-14
 -1      2913 2.00862E+01 9.79241E-02-3.99418E-04 1.69767E-01 8.02061E-14 2.06953E-13
 -1      2914 2.00552E+01 4.70374E-02-1.63685E-04 8.25602E-02-4.75316E-13 1.72298E-13
 -1      2915 2.00710E+01 5.50380E-02 1.01561E-03 9.92377E-02-3.00927E-13 1.33495E-13
 -1      2916 2.00625E+01 7.42575E-02-3.48032E-04 1.20650E-01-1.80225E-13 3.63267E-13
 -1      2917 2.00367E+01 3.45679E-02-1.14273E-04 5.47430E-02-4.59629E-14 7.42458E-15
 -1      2918 2.00481E+01 4.08254E-02 7.75776E-04 6.71833E-02-2.89611E-13 6.23913E-14
 -1      2919 2.00443E+01 5.54120E-02-2.94274E-04 8.31669E-02-2.08352E-13 2.20227E-13
 -1      2920 2.00235E+01 2.49148E-02-7.83806E-05 3.42263E-02 2.44170E-14 1.06229E-13
 -1      2921 2.00315E+01 2.97463E-02 5.82434E-04 4.33379E-02 4.08083E-14 9.47613E-14
 -1      2922 2.00306E+01 4.06395E-02-2.41993E-04 5.50258E-02-9.49803E-14-9.37382E-14
 -1      2923 2.00143E+01 1.75159E-02-5.38970E-05 1.94065E-02 2.20901E-13 3.44914E-13
 -1      2924 2.00197E+01 2.12138E-02 4.29363E-04 2.59322E-02 8.30042E-14 2.71865E-13
 -1      2925 2.00205E+01 2.92077E-02-1.93813E-04 3.42776E-02 2.18045E-14 2.61231E-13
 -1      2926 2.00081E+01 1.18637E-02-3.90470E-05 8.99905E-03 2.12249E-13 2.09410E-13
 -1      2927 2.00116E+01 1.46898E-02 3.10250E-04 1.35272E-02 2.43103E-13 2.64584E-13
 -1      2928 2.00132E+01 2.04372E-02-1.51321E-04 1.93123E-02 2.45470E-13 2.93178E-13
 -1      2929 2.00042E+01 7.50832E-03-2.81182E-05 2.00663E-03 2.42965E-14 2.53706E-13
 -1      2930 2.00063E+01 9.69377E-03 2.19175E-04 4.98627E-03 1.55466E-13 3.21844E-13
 -1      2931 2.00082E+01 1.37166E-02-1.14871E-04 8.83976E-03 9.67895E-14 1.69457E-13
 -1      2932 2.00019E+01 4.07091E-03 1.08598E-05-2.26975E-03-1.66947E-13 3.51681E-13
 -1      2933 2.00030E+01 5.74007E-03 1.40393E-04-5.67472E-04-6.60067E-14 2.90245E-13
 -1      2934 2.00047E+01 8.51889E-03-7.67065E-05 1.84963E-03-9.70735E-14 3.43706E-13
 -1      2935 2.00010E+01 1.61135E-03 4.15967E-06-4.10987E-03 6.75000E-14 2.65102E-13
 -1      2936 2.00014E+01 3.10340E-03 6.83002E-05-3.33051E-03-6.41812E-14 3.66464E-13
 -1      2937 2.00029E+01 4.86278E-03-7.60703E-05-1.91017E-03-1.22961E-13 3.19481E-13
 -1      2938 2.00020E+01 2.10375E-03-4.03807E-05-3.56257E-03 6.28162E-14 5.13703E-13
 -1      2939 2.00006E+01 1.10240E-02-3.72032E-05 2.48727E-04-1.28157E-13-3.13287E-13
 -1      2940 2.00008E+01 1.08696E-02-1.16688E-05 2.43811E-04-1.84346E-14-1.29828E-13
 -1      2941 2.00020E+01 3.46306E-03 9.37888E-05 3.01782E-03-1.00670E-13-3.86136E-13
 -1      2942 2.00015E+01 2.16811E-03 4.63032E-06 3.64590E-03-1.34827E-13-3.45589E-13
 -1      2943 2.00030E+01 5.61845E-03-5.53224E-05 1.59571E-03-9.56155E-14-5.22931E-13
 -1      2944 2.00018E+01 8.55787E-03-6.16544E-05 1.19650E-04 3.52439E-13-3.24973E-13
 -1      2945 2.00022E+01 7.95443E-03 3.01667E-05-2.66075E-04 4.90352E-13-2.24849E-13
 -1      2946 2.93714E+01-1.83929E+00 4.21822E-03 4.72201E-01 1.16261E-13 1.69531E-13
 -1      2947 3.03429E+01 1.50991E-01-1.87015E-01 1.32468E+00 2.43805E-13 1.38028E-13
 -1      2948 2.00007E+01 1.08958E-02-1.36161E-05-1.65980E-05 1.04055E-13-1.59940E-13
 -1      2949 2.00006E+01 1.10348E-02-3.52150E-05-1.21431E-05-6.48856E-14-3.60666E-13
 -1      2950 2.00007E+01 1.62286E-02 9.13061E-05 1.27186E-04-5.38309E-14-2.59521E-13
 -1      2951 2.00010E+01 1.01968E-02-5.49179E-05 3.96067E-04 8.26095E-14-2.33949E-13
 -1      2952 2.00014E+01 9.77895E-03 1.21672E-05 2.42390E-04 3.07640E-13-9.74892E-14
 -1      2953 2.00019E+01 1.37330E-02 6.81527E-05 9.54821E-04 4.13581E-13-3.68438E-13
 -1      2954 2.00010E+01 1.55721E-02 8.66065E-05 7.48340E-04 1.11041E-13-2.77992E-13
 -1      2955 2.00013E+01 9.86732E-03 1.11007E-05-6.39577E-05 1.09199E-13-2.41076E-13
 -1      2956 2.00009E+01 1.02575E-02-5.29966E-05-1.86702E-04 1.35246E-13-1.12035E-13
 -1      2957 2.00009E+01 1.56140E-02 8.63958E-05-5.09767E-04 1.57217E-13-2.02532E-13
 -1      2958 2.00020E+01 8.08029E-03 2.95910E-05 3.60671E-04 6.55949E-15-5.53791E-14
 -1      2959 2.00016E+01 8.67097E-03-5.98135E-05 1.62514E-05 4.57185E-16-2.05373E-14
 -1      2960 2.00017E+01 1.38335E-02 7.21931E-05-7.76641E-04 7.80443E-14-2.48143E-13
 -1      2961 2.00025E+01 5.83981E-03 1.29456E-05 1.35014E-03 5.53704E-15 2.17424E-13
 -1      2962 2.00024E+01 6.53063E-03-4.30327E-05 7.82994E-04 6.76873E-14 8.74466E-14
 -1      2963 2.00026E+01 1.11571E-02 5.47273E-05-4.00273E-04-1.39861E-13 8.24278E-14
 -1      2964 2.03852E+01 4.50394E-01 2.69463E-03-5.16874E-01 1.51750E-13 5.52714E-14
 -1      2965 2.03792E+01 5.09832E-01 6.95562E-03-3.56639E-01 1.76144E-13 6.80021E-14
 -1      2966 2.03794E+01 7.10296E-01-2.73019E-03-2.44364E-01 1.95102E-13 1.40096E-14
 -1      2967 2.03476E+01 5.56029E-01-3.20188E-03-6.02419E-01 1.41981E-13 4.21520E-14
 -1      2968 2.00019E+01 2.46540E-03-2.17761E-05 3.33777E-03-8.23533E-14-5.62366E-13
 -1      2969 2.22833E+01-5.40716E+00-6.46328E-02 4.70737E+00-1.16157E-13-3.89497E-14
 -1      2970 1.93718E+01-4.99099E+00 1.03009E-01 5.55459E+00-2.09388E-13 1.68077E-13
 -1      2971 2.04475E+01 1.79733E+00-1.02066E-02-1.04571E+00-2.30176E-13-2.66621E-13
 -1      2972 2.04512E+01 1.43385E+00-2.92650E-03-7.26451E-01-2.11453E-13-2.51711E-13
 -1      2973 2.55016E+01-4.95193E+00 1.95574E-02-2.97354E+00-1.88079E-13 5.28605E-14
 -1      2974 2.76965E+01-4.07660E+00-1.44580E-01-1.36843E+00-5.81479E-14 1.23429E-13
 -1      2975 3.02371E+01 2.28043E+00-6.74831E-02 2.02977E+00 3.61738E-13 2.04226E-13
 -1      2976 2.93582E+01 3.78191E+00-2.26057E-01 2.14946E+00 4.76841E-13 2.69590E-13
 -1      2977 2.90007E+01 7.42883E-01-7.86295E-02 2.14236E+00 2.58918E-13 1.93845E-13
 -1      2978 1.04711E+01-2.82223E+00 7.31831E-02 5.78881E+00 1.27759E-13-1.90403E-13
 -1      2979 7.84450E+00-1.77346E+00 1.55384E-01 4.05716E+00 2.09499E-13-3.85997E-13
 -1      2980 2.89914E+01 5.16868E+00-1.54629E-01 1.63866E+00-5.09259E-13-2.96652E-13
 -1      2981 2.84982E+01 6.18281E+00-2.03982E-01 9.73602E-01-6.35131E-13-2.46657E-13
 -1      2982 7.94996E+00-1.29039E+00 1.34092E-01-3.65935E+00-6.30329E-14 4.20386E-13
 -1      2983 1.02549E+01-2.34883E+00 9.48816E-02-5.45029E+00 2.19325E-13 6.71879E-13
 -1      2984 2.06895E+01 3.14373E-01 4.24267E-03-1.26452E+00 9.43809E-15-4.95784E-15
 -1      2985 2.05643E+01 3.30816E-01 9.73259E-04-1.16315E+00 3.91677E-14-1.20052E-14
 -1      2986 2.03949E+01 4.31878E-01-2.49360E-03-1.16297E+00 5.05817E-14-2.35217E-14
 -1      2987 2.04771E+01 3.84271E-01-2.61239E-03-1.40288E+00-9.95128E-15-7.96406E-15
 -1      2988 2.01556E+01 2.62609E+00-2.93693E-03-1.18914E+00-2.02281E-13-3.48199E-13
 -1      2989 2.81626E+01-2.23232E+00-6.32641E-03-1.72380E-01-4.49987E-15-1.30174E-13
 -1      2990 2.89635E+01-3.96148E-01-1.84152E-01 9.36273E-01-1.38917E-13-1.62370E-13
 -1      2991 7.12766E+00-4.13647E-01 1.29211E-01 8.11704E-01-5.99330E-14 2.49467E-13
 -1      2992 7.02634E+00-5.19442E-01 1.62919E-01-1.61444E+00-6.09790E-14 2.99399E-13
 -1      2993 2.04797E+01 1.16008E+00 4.00616E-03-4.93442E-01-1.82393E-13-2.31117E-13
 -1      2994 2.04229E+01 9.42461E-01-3.35727E-03-2.13648E-01-1.47696E-13-2.17860E-13
 -1      2995 2.03872E+01 1.05344E+00-3.36845E-03-1.28771E-01-1.44109E-13-2.34896E-13
 -1      2996 2.03817E+01 1.52708E+00 7.50272E-04-5.71903E-01-1.80420E-13-2.65121E-13
 -1      2997 1.97579E+01 2.87826E+00-6.85490E-03 5.57900E-01 2.73430E-13-2.40903E-13
 -1      2998 1.96635E+01 2.99101E+00-7.35043E-03 4.42879E-01 2.39624E-13-2.81131E-13
 -1      2999 1.97293E+01 2.75390E+00 5.77292E-03 3.18186E-01 2.10799E-13-2.54190E-13
 -1      3000 1.99178E+01 2.49850E+00 6.50160E-03 4.65845E-01 2.57379E-13-1.97156E-13
 -1      3001 2.95448E+01-6.45546E-01-1.73466E-01-1.50088E+00 1.98896E-13-4.05717E-13
 -1      3002 2.87739E+01-2.43763E+00-9.60257E-03-4.75770E-01 9.79147E-14-4.56635E-13
 -1      3003 2.05101E+01 1.58391E+00-8.15020E-04 9.79782E-01 3.18753E-13 5.17724E-14
 -1      3004 1.96736E+01 2.97636E+00-7.21298E-03-4.23628E-01-1.47514E-14-3.66925E-13
 -1      3005 1.97669E+01 2.86499E+00-6.33727E-03-5.43120E-01-5.58597E-14-3.71943E-13
 -1      3006 2.94099E+01 3.12362E+00-1.98201E-01-2.17610E+00 4.44395E-13-4.32196E-13
 -1      3007 2.98274E+01 1.34042E+00-9.75503E-02-2.20351E+00 3.57728E-13-3.98626E-13
 -1      3008 6.35310E+00-1.13426E+00 1.38728E-01 2.20337E+00 1.62016E-13-5.28494E-13
 -1      3009 6.18040E+00-8.29945E-01 1.39215E-01-6.49912E-02 4.70986E-14-6.71491E-13
 -1      3010 1.17721E+01-3.09720E+00 1.44885E-01-5.72688E+00-3.38937E-13-4.75037E-13
 -1      3011 1.45877E+01-4.01925E+00 5.04254E-02-6.25484E+00-3.64445E-13-3.71383E-13
 -1      3012 2.93474E+01 2.07991E+00-8.93164E-02 1.71682E+00-2.87464E-13-2.40474E-13
 -1      3013 2.93102E+01 3.77523E+00-1.97076E-01 1.77989E+00-3.86885E-13-2.69576E-13
 -1      3014 2.79081E+01 3.98447E+00-9.00751E-02 1.89531E+00-4.45963E-13-4.17055E-13
 -1      3015 7.31848E+00-1.09269E+00 1.65115E-01-2.56638E+00-1.31277E-13-6.83398E-13
 -1      3016 9.24353E+00-2.03041E+00 1.21396E-01-4.70214E+00-2.63539E-13-5.83006E-13
 -1      3017 1.61898E+01-4.48854E+00 4.19337E-02 6.52692E+00 1.09773E-13-1.47174E-13
 -1      3018 1.35793E+01-3.72957E+00 1.52502E-01 6.35529E+00 9.62563E-14-1.43316E-13
 -1      3019 2.84518E+01 6.64444E+00-1.72383E-01 5.84762E-02-6.06126E-13-1.17359E-13
 -1      3020 2.86252E+01 6.19424E+00-1.71862E-01-1.00826E+00-5.43954E-13 4.78784E-15
 -1      3021 2.89235E+01 4.91330E+00-1.86954E-01-1.56698E+00-5.14561E-13 1.27870E-13
 -1      3022 2.90374E+01 3.20064E+00-1.23186E-01-1.87645E+00-5.13367E-13 2.48065E-13
 -1      3023 2.89347E+01 1.10318E+00-1.78416E-01-1.54881E+00-4.38483E-13 3.34330E-13
 -1      3024 2.85822E+01-6.87357E-01-9.59605E-02-9.29515E-01-2.95486E-13 3.62543E-13
 -1      3025 2.90238E+01 5.32961E+00-1.38990E-01 1.50114E+00 5.41012E-13 1.91389E-13
 -1      3026 2.88867E+01 5.97735E+00-1.88716E-01 5.52354E-01 5.60524E-13 1.37199E-13
 -1      3027 1.03646E+01-2.04769E+00 1.30351E-01 4.96733E+00-3.71092E-14 2.83412E-13
 -1      3028 8.55517E+00-1.00146E+00 1.34238E-01 3.22020E+00-7.63833E-14 2.40891E-13
 -1      3029 2.53007E+01-4.66240E+00 7.02326E-02-3.08512E+00 1.89626E-13 7.59670E-14
 -1      3030 2.67844E+01-4.03131E+00-1.38186E-01-1.88717E+00 7.70703E-14-3.49165E-14
 -1      3031 1.62017E+01-4.39728E+00 3.25432E-02 6.21508E+00-1.79134E-13 2.56656E-13
 -1      3032 1.28400E+01-3.20178E+00 1.20995E-01 5.76687E+00-8.79574E-14 2.80859E-13
 -1      3033 1.87010E+01-4.13698E+00 1.11625E-01 5.28819E+00-1.80009E-13 1.73070E-13
 -1      3034 1.30101E+01-3.22763E+00 1.50615E-01-6.10517E+00 3.85303E-13 6.97553E-13
 -1      3035 1.55099E+01-4.09715E+00 4.28270E-02-6.46880E+00 3.57631E-13 6.50813E-13
 -1      3036 1.98752E+01 2.70934E+00-7.07795E-03-6.33761E-01-8.79987E-14-3.57554E-13
 -1      3037 1.99966E+01 2.55430E+00-5.18523E-03-7.49820E-01-1.41895E-13-3.53501E-13
 -1      3038 1.99290E+01 2.47910E+00 6.00323E-03-4.57019E-01-7.58230E-14-3.28208E-13
 -1      3039 1.95762E+01 2.94376E+00 4.95354E-03 1.84792E-02 1.12629E-13-3.10164E-13
 -1      3040 1.94774E+01 3.22001E+00-5.96594E-03-2.39453E-02 1.00631E-13-3.47524E-13
 -1      3041 1.94989E+01 3.19854E+00-5.16196E-03-1.34090E-01 7.64293E-14-3.60374E-13
 -1      3042 2.01906E+01 2.31178E+00 1.04657E-03-9.17515E-01-1.73947E-13-3.44650E-13
 -1      3043 2.07748E+01-5.00613E+00-1.71342E-02 5.19827E+00 1.54002E-13 1.21327E-13
 -1      3044 1.86209E+01-4.77318E+00 1.08354E-01 6.01370E+00 1.30479E-13-4.16854E-14
 -1      3045 1.78816E+01-4.09934E+00 8.59012E-02 5.79438E+00 1.87531E-13-1.66672E-14
 -1      3046 2.37591E+01-4.86257E+00 4.28261E-02-3.74458E+00 2.25667E-13 1.53530E-13
 -1      3047 1.33692E+01-2.15797E+00 1.38910E-01 4.95527E+00-1.27232E-13 2.19852E-13
 -1      3048 2.80712E+01 3.82643E+00-1.34180E-01 1.92491E+00 4.41702E-13 2.61860E-13
 -1      3049 2.75893E+01-3.27939E+00 8.96984E-03-1.29147E-01 3.61482E-14-4.97297E-13
 -1      3050 2.79734E+01 1.90606E+00-6.65817E-02-2.05585E+00-3.84956E-13 2.80054E-13
 -1      3051 2.74949E+01 5.01077E+00-8.95054E-02-1.36729E+00-4.37123E-13 5.90084E-14
 -1      3052 1.81585E+01-4.26849E+00 9.50773E-02-5.71674E+00 3.15775E-13 4.05377E-13
 -1      3053 2.00028E+01 1.10114E-02 3.35672E-05 4.92328E-04 3.26529E-13 1.15200E-13
 -1      3054 2.00025E+01 6.40485E-03-5.41850E-05-7.35370E-04 2.98016E-13 1.15224E-13
 -1      3055 2.00027E+01 5.71830E-03 3.69874E-05-1.33271E-03 2.51058E-13 1.84821E-13
 -1      3056 8.90078E+00-2.58015E-01 1.70345E-01 1.99493E+00-3.31575E-14 2.81192E-13
 -1      3057 9.68881E+00 3.04968E-01 9.36279E-02 7.95492E-01-9.02056E-17 2.65177E-13
 -1      3058 1.09395E+01-2.69054E-01 7.69371E-02 2.83285E+00-4.81767E-14 2.46650E-13
 -1      3059 2.39917E+01-4.80450E+00 6.39203E-02 3.21890E+00-1.32241E-13-2.61541E-13
 -1      3060 2.00024E+01 3.20745E-03 1.10584E-05 2.58399E-03 2.39405E-14-2.37317E-13
 -1      3061 2.72690E+01 5.79155E+00-9.45131E-02 5.62299E-01-4.90330E-13-1.70503E-13
 -1      3062 2.55708E+01 2.88037E+00-4.80334E-02 1.79411E+00 2.73143E-13 4.29119E-13
 -1      3063 2.57738E+01 1.70326E+00-1.14615E-01 2.41047E+00 2.47136E-13 4.81289E-13
 -1      3064 8.84564E+00-9.01208E-01 1.80682E-01 3.05629E+00 1.99105E-13-4.30433E-13
 -1      3065 2.00027E+01 4.14503E-03-4.28442E-05-2.05513E-03 3.60195E-14 3.72719E-13
 -1      3066 2.00025E+01 3.51133E-03 2.98297E-05-2.71049E-03-6.80708E-14 6.42527E-13
 -1      3067 2.00030E+01 5.11391E-03 4.20686E-05-2.11146E-03-5.67048E-14 5.17670E-13
 -1      3068 2.00033E+01 7.95399E-03 2.90768E-05-6.29246E-04 2.11049E-13 3.89420E-13
 -1      3069 2.86750E+01-6.51493E-02-8.04853E-02-2.22588E+00 1.59886E-13-5.42552E-13
 -1      3070 2.00029E+01 6.65716E-03-2.12999E-05 1.25718E-03-1.64859E-13-8.60207E-14
 -1      3071 2.82370E+01 5.61494E-01-6.41174E-02 1.73110E+00-2.05294E-13-2.82913E-13
 -1      3072 1.18008E+01-1.96699E+00 1.52296E-01-4.79091E+00-2.71561E-13-5.02473E-13
 -1      3073 2.42943E+01-5.26910E+00 2.24549E-02-3.66024E+00-3.01051E-13 5.26315E-14
 -1      3074 2.53863E+01-4.78374E+00-6.71866E-02-2.17207E+00-3.03972E-13 1.65208E-13
 -1      3075 2.27466E+01-4.88946E+00 8.44278E-02-4.14418E+00-3.64653E-13-1.82042E-14
 -1      3076 9.14795E+00-4.42150E-01 1.73548E-01-2.51889E+00-3.42296E-14 3.99361E-13
 -1      3077 2.50692E+01-4.86391E+00 3.17273E-02 3.53417E+00-3.94407E-14 2.10651E-13
 -1      3078 2.36369E+01-5.00959E+00 6.53985E-02 4.04142E+00 6.68077E-14 2.06595E-13
 -1      3079 2.59420E+01-4.44880E+00-6.75437E-02 2.09582E+00-1.09635E-15 2.11470E-13
 -1      3080 2.84691E+01 3.75780E+00-7.05725E-02-2.11856E+00 3.82305E-13-3.28682E-13
 -1      3081 2.82200E+01-2.96942E+00-3.23525E-02 1.57001E-01-9.06584E-14 2.30607E-13
 -1      3082 2.81948E+01-1.93434E+00-8.02497E-02-3.22666E-01-2.62509E-13 3.13999E-13
 -1      3083 2.72380E+01-2.95045E+00-3.70415E-02 3.84499E-01-1.68454E-13 2.78812E-13
 -1      3084 2.75968E+01-1.09349E+00-4.21018E-02-1.30450E+00-2.80463E-13 2.11761E-13
 -1      3085 1.30541E+01-2.68570E+00 1.47655E-01 5.62586E+00 1.55431E-13-1.88988E-13
 -1      3086 2.69650E+01 1.16867E+00-6.38197E-02 2.54438E+00 1.52087E-13 5.03271E-13
 -1      3087 1.27645E+01-2.24853E+00 1.56951E-01-5.35438E+00 2.24570E-13 6.31217E-13
 -1      3088 1.95387E+01 3.14473E+00-6.57055E-03-2.19368E-01 5.02786E-14-3.33657E-13
 -1      3089 1.95979E+01 3.08093E+00-5.31405E-03-3.34047E-01 5.92238E-15-3.42068E-13
 -1      3090 1.97423E+01 2.73481E+00 5.35197E-03-2.94237E-01-8.64681E-15-3.26479E-13
 -1      3091 1.96211E+01 2.88841E+00 4.97815E-03-1.34755E-01 4.97169E-14-3.19244E-13
 -1      3092 2.71889E+01-3.04519E+00-1.61272E-02-4.56718E-01 5.70238E-14-1.18683E-13
 -1      3093 2.04172E+01 1.71164E+00-2.58407E-03 8.42422E-01 3.12651E-13-2.56292E-14
 -1      3094 1.73011E+01-4.27137E+00 1.28429E-01-5.92390E+00-3.62141E-13-2.37338E-13
 -1      3095 1.96167E+01-4.54782E+00-7.13994E-03-5.14700E+00-3.76921E-13-1.53835E-13
 -1      3096 1.65591E+01-3.43258E+00 1.08168E-01-5.58556E+00-3.20605E-13-2.52243E-13
 -1      3097 8.81469E+00 4.19612E-02 1.22934E-01-2.46393E-01 4.55538E-14-4.83391E-13
 -1      3098 7.83994E+00-4.84515E-01 1.76283E-01-1.39295E+00-5.20591E-14-6.52256E-13
 -1      3099 9.79650E+00-2.93654E-01 9.78541E-02-2.37008E+00-1.02730E-13-5.57526E-13
 -1      3100 2.79001E+01 5.38224E+00-1.37402E-01-3.87217E-02 4.75148E-13 1.01197E-13
 -1      3101 2.03840E+01 1.53905E+00 3.22715E-03 5.63482E-01 2.81019E-13-5.47539E-14
 -1      3102 2.02331E+01 1.73238E+00-5.27136E-03 4.27978E-01 2.65082E-13-1.19731E-13
 -1      3103 2.01145E+01 1.95705E+00-2.57763E-03 3.85950E-01 2.44143E-13-1.47651E-13
 -1      3104 2.02160E+01-4.06226E+00-3.04643E-02 4.54584E+00-2.64191E-13 9.38138E-15
 -1      3105 1.77784E+01-3.15056E+00 8.69538E-02 4.92783E+00-2.27068E-13 9.73943E-14
 -1      3106 2.02856E+01 7.26426E-01 2.96240E-03 4.89504E-01-8.04966E-14-2.11492E-13
 -1      3107 2.02752E+01 6.32999E-01-2.82253E-04 6.36243E-01-5.66523E-14-2.07206E-13
 -1      3108 2.02566E+01 5.55111E-01 2.24906E-03 7.68667E-01-5.75815E-14-1.88726E-13
 -1      3109 2.02658E+01 4.83336E-01 8.70323E-04 8.86191E-01-7.97363E-14-1.90202E-13
 -1      3110 2.01787E+01 7.09167E-01-1.11807E-03 6.93331E-01-6.04382E-14-1.89782E-13
 -1      3111 2.02543E+01 4.15736E-01 1.91900E-03 9.99733E-01-8.38034E-14-1.49578E-13
 -1      3112 2.02881E+01 3.44670E-01 1.71652E-03 1.09343E+00-5.41796E-14-1.30588E-13
 -1      3113 2.01399E+01 5.41458E-01-1.96314E-03 9.46552E-01-5.60437E-14-1.60277E-13
 -1      3114 2.02965E+01 2.67236E-01 2.34206E-03 1.19181E+00-2.84337E-14-1.08604E-13
 -1      3115 2.03618E+01 1.76306E-01 2.26899E-03 1.26184E+00-2.00770E-14-6.92848E-14
 -1      3116 2.01282E+01 3.76993E-01-3.13371E-03 1.16692E+00-2.14253E-14-1.26569E-13
 -1      3117 2.04073E+01 6.93828E-02 3.81545E-03 1.34422E+00 1.56890E-14-2.83685E-14
 -1      3118 2.05143E+01-6.18379E-02 2.44327E-03 1.38462E+00 2.45015E-14-8.06091E-15
 -1      3119 2.01697E+01 1.70024E-01-5.10045E-03 1.35920E+00 3.19723E-14-6.20805E-14
 -1      3120 2.06215E+01-2.16734E-01 6.68543E-03 1.44346E+00 2.61812E-14 2.95504E-14
 -1      3121 2.07842E+01-4.06257E-01 1.79048E-03 1.44083E+00 6.42639E-14 2.83366E-14
 -1      3122 2.03018E+01-1.25368E-01-8.30296E-03 1.51827E+00 5.69028E-14-4.06402E-14
 -1      3123 2.09868E+01-6.21643E-01 1.11179E-02 1.45767E+00 1.13290E-14 4.43441E-14
 -1      3124 2.12188E+01-8.76524E-01-4.74497E-04 1.38939E+00-1.47345E-14-4.49120E-15
 -1      3125 2.05780E+01-5.50908E-01-1.31530E-02 1.62284E+00 3.11869E-14 3.66963E-14
 -1      3126 2.15557E+01-1.14613E+00 1.70249E-02 1.32940E+00-2.09056E-15 2.17014E-14
 -1      3127 2.18599E+01-1.44543E+00-5.47949E-03 1.16435E+00 2.51461E-14-1.89215E-15
 -1      3128 2.10677E+01-1.12567E+00-1.92589E-02 1.62430E+00 1.15714E-14 6.45196E-14
 -1      3129 2.23608E+01-1.72232E+00 2.26140E-02 9.69855E-01 7.30752E-15 3.18049E-14
 -1      3130 2.27122E+01-1.98181E+00-1.23447E-02 6.75399E-01-5.00468E-15 6.20825E-14
 -1      3131 2.18432E+01-1.80841E+00-2.45666E-02 1.43339E+00 6.79132E-14 5.01567E-14
 -1      3132 2.33492E+01-2.14048E+00 2.18234E-02 2.83236E-01-2.14943E-14 1.26375E-13
 -1      3133 2.36808E+01-2.17799E+00-1.64747E-02-1.39227E-01-6.41496E-14 8.91964E-14
 -1      3134 2.29244E+01-2.41323E+00-2.59551E-02 9.10473E-01 7.07745E-15 4.43362E-14
 -1      3135 2.43153E+01-2.00101E+00 3.88304E-03-7.35223E-01-1.61969E-13 1.18084E-13
 -1      3136 2.45239E+01-1.55859E+00-1.20108E-02-1.18454E+00-1.95020E-13 6.47555E-14
 -1      3137 2.42091E+01-2.50593E+00-1.45808E-02-5.98703E-02-9.49614E-14 2.35182E-13
 -1      3138 2.47587E+01 1.39952E+00-9.69672E-02-2.09134E+00-2.29341E-13 7.30752E-14
 -1      3139 2.45564E+01 2.60549E+00-2.60241E-02-1.77787E+00-2.86125E-13 1.45198E-13
 -1      3140 2.50448E+01 4.10619E+00-1.15098E-01-1.02950E+00-3.39437E-13 3.91544E-14
 -1      3141 2.49039E+01 4.56163E+00-1.16762E-01-2.20076E-01-3.14276E-13 3.13014E-14
 -1      3142 2.50595E+01 4.32102E+00-9.50090E-02 9.11604E-01-3.44932E-13-6.10206E-14
 -1      3143 2.52502E+01 3.52216E+00-1.08020E-01 1.63589E+00-3.20161E-13-1.71436E-13
 -1      3144 2.48226E+01-2.91854E-01-2.74960E-02 1.91922E+00 1.49915E-14-3.62626E-13
 -1      3145 2.47729E+01-1.13988E+00-3.02397E-02 1.63653E+00 9.64359E-14-3.65092E-13
 -1      3146 2.43580E+01-1.74340E+00-1.21977E-02 1.05050E+00 1.11673E-13-2.47241E-13
 -1      3147 2.41105E+01-2.06323E+00 7.67338E-03 5.85516E-01 1.28739E-13-2.85974E-13
 -1      3148 2.50599E+01-1.76462E+00 7.43663E-03 1.11764E+00 1.34111E-13-4.34973E-13
 -1      3149 2.34537E+01-2.12909E+00-1.79476E-02 4.03547E-02 3.74290E-14-2.32694E-13
 -1      3150 2.31144E+01-2.01757E+00 2.20009E-02-3.49614E-01 4.02811E-14-2.67090E-13
 -1      3151 2.38916E+01-2.49379E+00-1.61836E-02-1.02067E-01 8.90018E-14-3.04252E-13
 -1      3152 2.24978E+01-1.81456E+00-1.19605E-02-6.84743E-01 5.92239E-14-2.62791E-13
 -1      3153 2.21554E+01-1.53222E+00 2.11692E-02-9.38374E-01 6.34401E-14-1.78884E-13
 -1      3154 2.26364E+01-2.22439E+00-2.48015E-02-9.34960E-01 3.58875E-14-2.02868E-13
 -1      3155 2.16874E+01-1.25040E+00-4.78446E-03-1.08896E+00 8.03586E-14-2.02940E-13
 -1      3156 2.13997E+01-9.57078E-01 1.53969E-02-1.22017E+00 6.76720E-14-1.56015E-13
 -1      3157 2.16120E+01-1.57765E+00-2.30769E-02-1.35258E+00 4.01720E-14-1.40720E-13
 -1      3158 2.10882E+01-7.00438E-01-3.38486E-04-1.25231E+00 7.22918E-14-2.43887E-13
 -1      3159 2.08716E+01-4.63456E-01 9.67820E-03-1.29592E+00 1.46026E-13-2.44940E-13
 -1      3160 2.08934E+01-9.14976E-01-1.70778E-02-1.47808E+00 6.77000E-14-1.71366E-13
 -1      3161 2.06831E+01-2.69072E-01 1.64931E-03-1.26299E+00 4.11570E-14-2.66352E-13
 -1      3162 2.05300E+01-1.03166E-01 5.30835E-03-1.25072E+00 2.56512E-14-3.93297E-13
 -1      3163 2.04392E+01-3.85179E-01-1.11766E-02-1.43843E+00 4.88690E-14-3.89744E-13
 -1      3164 2.04260E+01 2.64213E-02 2.28905E-03-1.18584E+00 1.14700E-13-4.54564E-13
 -1      3165 2.03207E+01 1.29212E-01 2.38887E-03-1.14104E+00 1.31241E-13-4.20538E-13
 -1      3166 2.01760E+01-1.61948E-02-6.66270E-03-1.31696E+00 1.50601E-14-3.42138E-13
 -1      3167 2.02698E+01 2.05209E-01 2.35880E-03-1.06316E+00 8.02957E-14-3.82613E-13
 -1      3168 2.01974E+01 2.59772E-01 5.85314E-04-1.00173E+00-2.35927E-14-2.60129E-13
 -1      3169 2.00373E+01 2.11999E-01-3.66166E-03-1.16090E+00 1.67271E-13-4.51327E-13
 -1      3170 2.01776E+01 2.96480E-01 2.23908E-03-9.21440E-01-5.65508E-14-1.75406E-13
 -1      3171 2.01269E+01 3.17538E-01-4.42605E-04-8.53902E-01-5.33272E-14-2.14037E-13
 -1      3172 1.99739E+01 3.33383E-01-1.81425E-03-9.95681E-01 2.81016E-14-3.51857E-13
 -1      3173 2.01238E+01 3.27885E-01 2.06658E-03-7.77145E-01-1.45121E-13-1.59489E-13
 -1      3174 2.00871E+01 3.27528E-01-9.62975E-04-7.10218E-01-1.40505E-13-1.48596E-13
 -1      3175 1.99526E+01 3.80631E-01-7.54415E-04-8.35092E-01-1.07789E-13 1.17886E-14
 -1      3176 2.00919E+01 3.21660E-01 1.87938E-03-6.40228E-01-1.12210E-13-2.47919E-13
 -1      3177 2.00643E+01 3.08875E-01-1.16616E-03-5.77959E-01-2.60709E-14-2.05217E-13
 -1      3178 1.99527E+01 3.80348E-01-1.95780E-04-6.86628E-01-1.34744E-13 1.58994E-14
 -1      3179 2.00721E+01 2.94098E-01 1.68502E-03-5.16300E-01 8.49744E-14-2.61933E-13
 -1      3180 2.00507E+01 2.75119E-01-1.18157E-03-4.60864E-01 2.11100E-13-3.03783E-13
 -1      3181 1.99621E+01 3.52309E-01 6.44939E-05-5.54128E-01 1.81965E-14-2.70680E-13
 -1      3182 2.00588E+01 2.56360E-01 1.48646E-03-4.08028E-01 2.85207E-13-3.42917E-13
 -1      3183 2.00417E+01 2.35252E-01-1.09398E-03-3.60318E-01 2.42022E-13-3.56326E-13
 -1      3184 1.99740E+01 3.10270E-01 1.57638E-04-4.39138E-01 1.71942E-13-2.74591E-13
 -1      3185 2.00489E+01 2.15634E-01 1.28809E-03-3.16106E-01 2.32416E-13-3.49174E-13
 -1      3186 2.00352E+01 1.94888E-01-9.56414E-04-2.76172E-01 1.98793E-13-3.12217E-13
 -1      3187 1.99852E+01 2.63267E-01 1.66808E-04-3.41705E-01 2.48656E-13-4.21796E-13
 -1      3188 2.00409E+01 1.76260E-01 1.09492E-03-2.39961E-01 5.58189E-14-1.99359E-13
 -1      3189 2.00298E+01 1.57275E-01-8.01849E-04-2.07324E-01 1.34161E-14-8.51573E-14
 -1      3190 1.99943E+01 2.16877E-01 1.39728E-04-2.60916E-01 1.67463E-13-4.12458E-13
 -1      3191 2.00341E+01 1.40615E-01 9.12636E-04-1.78241E-01-2.99955E-14-9.19488E-14
 -1      3192 2.00252E+01 1.24056E-01-6.50718E-04-1.52128E-01 1.29194E-13-1.53350E-13
 -1      3193 2.00009E+01 1.74269E-01 1.00574E-04-1.95245E-01-2.15196E-14-1.31525E-13
 -1      3194 2.00281E+01 1.09765E-01 7.46243E-04-1.29196E-01 1.21664E-13-2.83047E-13
 -1      3195 2.00210E+01 9.58185E-02-5.14388E-04-1.08711E-01 2.19814E-14-2.65732E-13
 -1      3196 2.00053E+01 1.36980E-01 6.18897E-05-1.42843E-01 1.22119E-14-3.09328E-13
 -1      3197 2.00229E+01 8.39382E-02 5.98860E-04-9.09510E-02 8.31212E-14-2.14437E-13
 -1      3198 2.00172E+01 7.25086E-02-3.97413E-04-7.51894E-02 9.06768E-14-1.45735E-13
 -1      3199 2.00077E+01 1.05477E-01 2.99031E-05-1.01767E-01 1.35531E-13-4.46074E-13
 -1      3200 2.00183E+01 6.28732E-02 4.71836E-04-6.16874E-02 1.41296E-14-6.17340E-14
 -1      3201 2.00139E+01 5.37095E-02-3.00616E-04-4.97993E-02-9.09728E-14-1.07260E-13
 -1      3202 2.00087E+01 7.95804E-02 6.58678E-06-7.01441E-02 1.11699E-13-2.71131E-13
 -1      3203 2.00143E+01 4.60470E-02 3.65155E-04-3.97390E-02-1.28212E-13 1.65383E-14
 -1      3204 2.00109E+01 3.88228E-02-2.23384E-04-3.09693E-02-5.57693E-14 1.07208E-13
 -1      3205 2.00087E+01 5.87533E-02-8.78210E-06-4.62570E-02 1.24281E-14-2.84880E-13
 -1      3206 2.00109E+01 3.28134E-02 2.78425E-04-2.36478E-02-6.45140E-14 2.70083E-13
 -1      3207 2.00083E+01 2.71727E-02-1.63455E-04-1.73531E-02 9.28645E-14 3.12546E-13
 -1      3208 2.00080E+01 4.22816E-02-1.82109E-05-2.85930E-02 4.99004E-14-1.29100E-14
 -1      3209 2.00080E+01 2.24942E-02 2.14761E-04-1.21847E-02-2.04264E-14 3.73575E-13
 -1      3210 2.00061E+01 1.80557E-02-1.20270E-04-7.82710E-03-2.16910E-13 2.47625E-13
 -1      3211 2.00068E+01 2.93718E-02-2.88676E-05-1.58808E-02 9.08699E-15 4.23581E-13
 -1      3212 2.00057E+01 1.43386E-02 1.66521E-04-4.38253E-03-4.19768E-13 2.18635E-13
 -1      3213 2.00043E+01 1.09458E-02-3.69550E-05-1.63498E-03-2.79553E-13 9.40458E-14
 -1      3214 2.00053E+01 1.91337E-02-7.26101E-05-7.03370E-03-3.08725E-13 3.02782E-13
 -1      3215 2.67785E+01 4.01122E+00-1.17576E-01 1.37327E+00 4.20414E-13 3.48874E-13
 -1      3216 2.04556E+01 1.48230E-01 5.79225E-03-1.91328E+00 2.96631E-14-3.55116E-14
 -1      3217 2.03217E+01 2.78554E-01 1.14441E-03-1.82991E+00 6.11895E-14-6.26559E-14
 -1      3218 2.03190E+01 3.72677E-01 4.64231E-03-1.70202E+00 4.61880E-14-8.02993E-14
 -1      3219 2.02350E+01 4.36760E-01-4.75761E-04-1.59716E+00 1.27159E-14-5.22073E-14
 -1      3220 1.99199E+01 4.10598E-01-3.25416E-03-1.81245E+00 3.95553E-14-1.01556E-13
 -1      3221 2.12845E+01-9.41623E-01 6.88825E-03-2.13778E+00-7.91164E-14 1.26216E-13
 -1      3222 2.09400E+01-5.63421E-01 1.38791E-02-2.17488E+00-1.28619E-14 7.58114E-14
 -1      3223 2.22332E+01-1.89072E+00 3.33503E-03-1.97728E+00-1.55305E-13 2.05057E-13
 -1      3224 2.17180E+01-1.37795E+00 2.85919E-02-2.16037E+00-1.22922E-13 1.43034E-13
 -1      3225 2.07305E+01-1.26282E+00-2.98630E-02-2.52666E+00-1.23964E-13 6.01602E-14
 -1      3226 2.37951E+01-2.88501E+00 1.63046E-02-1.34991E+00-1.85584E-13 2.49275E-13
 -1      3227 2.30505E+01-2.40307E+00 5.55040E-02-1.81196E+00-1.62987E-13 2.30503E-13
 -1      3228 2.18266E+01-2.44192E+00-4.39396E-02-2.52382E+00-1.75441E-13 6.91495E-14
 -1      3229 2.55902E+01-3.63620E+00 1.09185E-02-7.25080E-01-2.15418E-13 3.04338E-13
 -1      3230 2.46660E+01-3.62880E+00 4.17893E-02-1.42874E+00-2.29101E-13 2.23011E-13
 -1      3231 1.23853E+01-1.30721E+00 1.07197E-01-4.54615E+00 1.42851E-13 5.00114E-13
 -1      3232 1.45460E+01-2.42776E+00-6.67380E-05-5.34847E+00 2.84786E-13 5.79481E-13
 -1      3233 1.04932E+01-8.59217E-01 7.39708E-02 3.79250E+00 1.99084E-13-3.51191E-13
 -1      3234 9.26396E+00-1.60405E-01 1.11176E-01 1.99009E+00 1.72289E-13-4.47600E-13
 -1      3235 2.74167E+01 2.67021E+00-1.13837E-01-2.35810E+00 2.69992E-13-2.30635E-13
 -1      3236 2.20407E+01-1.48088E+00 3.27468E-02 1.92515E+00 2.00525E-14-7.43229E-14
 -1      3237 2.25783E+01-1.99177E+00 5.21534E-03 1.71263E+00-8.37950E-14-2.78714E-14
 -1      3238 2.11787E+01-6.37758E-01 1.63102E-02 2.00021E+00 1.22181E-13-4.55814E-14
 -1      3239 2.15431E+01-1.04047E+00 3.90366E-03 1.94151E+00 1.07487E-13-4.23691E-14
 -1      3240 2.09893E+01-1.40990E+00-3.88506E-02 2.34329E+00 3.87674E-14-1.39341E-13
 -1      3241 2.06967E+01-6.56861E-02 6.67851E-03 1.88161E+00-7.82340E-14-1.59592E-13
 -1      3242 2.09315E+01-3.20640E-01 5.97144E-03 1.91378E+00 6.33173E-14-7.79136E-14
 -1      3243 2.03507E+01-4.95581E-01-1.94800E-02 2.19294E+00 7.94537E-14 4.97254E-14
 -1      3244 2.04445E+01 2.63660E-01 1.73704E-03 1.68233E+00-3.75614E-15-2.78685E-13
 -1      3245 2.05941E+01 1.24482E-01 5.32240E-03 1.76154E+00-2.58170E-15-1.44493E-13
 -1      3246 2.00578E+01 8.01009E-02-8.86795E-03 1.94693E+00 1.32160E-14-1.73916E-14
 -1      3247 2.03157E+01 4.20743E-01-7.43966E-04 1.45544E+00-2.00000E-13-2.65927E-13
 -1      3248 2.04152E+01 3.60064E-01 4.43149E-03 1.55533E+00-1.25215E-13-2.99172E-13
 -1      3249 1.99525E+01 3.92879E-01-3.33803E-03 1.68361E+00-2.61674E-14-1.40608E-13
 -1      3250 2.02477E+01 4.69036E-01-1.82308E-03 1.22808E+00-2.04737E-13-1.59658E-13
 -1      3251 2.03194E+01 4.56293E-01 3.74159E-03 1.33292E+00-1.65254E-13-3.02890E-13
 -1      3252 1.99366E+01 5.30530E-01-5.91965E-04 1.42843E+00-1.90148E-13-2.95796E-13
 -1      3253 2.02068E+01 4.55328E-01-2.14989E-03 1.01477E+00 9.10638E-14-1.53576E-13
 -1      3254 2.02627E+01 4.68982E-01 3.25748E-03 1.11536E+00-9.37655E-14-1.64000E-13
 -1      3255 1.99559E+01 5.60772E-01 5.40884E-04 1.19210E+00-1.35671E-13-3.27955E-13
 -1      3256 2.01769E+01 4.10416E-01-2.09348E-03 8.22974E-01 8.05236E-14-1.19397E-13
 -1      3257 2.02230E+01 4.36678E-01 2.89795E-03 9.14287E-01 1.42404E-13-1.21775E-13
 -1      3258 1.99831E+01 5.31335E-01 8.52183E-04 9.79218E-01 6.53074E-14-1.28361E-13
 -1      3259 2.01511E+01 3.53101E-01-1.86419E-03 6.55895E-01 1.24316E-13-1.89575E-13
 -1      3260 2.01901E+01 3.83722E-01 2.58475E-03 7.35637E-01 8.67417E-14-9.74388E-14
 -1      3261 2.00067E+01 4.72866E-01 7.90904E-04 7.91788E-01 1.23480E-13-5.64639E-15
 -1      3262 2.01274E+01 2.94105E-01-1.57483E-03 5.14028E-01 5.18746E-14-2.33966E-13
 -1      3263 2.01605E+01 3.24481E-01 2.28086E-03 5.81645E-01 9.51487E-14-2.26708E-13
 -1      3264 2.00230E+01 4.03908E-01 5.97229E-04 6.30234E-01 1.59929E-13-5.09359E-14
 -1      3265 2.01054E+01 2.39040E-01-1.28459E-03 3.96146E-01-1.87952E-14-2.23481E-13
 -1      3266 2.01332E+01 2.66837E-01 1.97870E-03 4.52140E-01 3.05648E-14-2.63086E-13
 -1      3267 2.00323E+01 3.34973E-01 3.88691E-04 4.93725E-01 6.10461E-15-8.27164E-14
 -1      3268 2.00854E+01 1.90440E-01-1.02176E-03 3.00039E-01 1.20834E-15-2.10721E-13
 -1      3269 2.01084E+01 2.14676E-01 1.68430E-03 3.45484E-01-6.94669E-14-1.96511E-13
 -1      3270 2.00359E+01 2.71499E-01 2.11848E-04 3.80498E-01-4.20861E-14-1.51399E-13
 -1      3271 2.00678E+01 1.49087E-01-7.96273E-04 2.23038E-01-4.39755E-14 8.00430E-14
 -1      3272 2.00865E+01 1.69535E-01 1.40688E-03 2.59265E-01-4.38344E-14-1.45587E-13
 -1      3273 2.00356E+01 2.15870E-01 8.11058E-05 2.88208E-01-9.07615E-14-1.09125E-14
 -1      3274 2.00528E+01 1.14836E-01-6.09173E-04 1.62353E-01-4.56619E-14 3.35862E-13
 -1      3275 2.00677E+01 1.31662E-01 1.15320E-03 1.90753E-01-1.85146E-14 2.11099E-13
 -1      3276 2.00329E+01 1.68728E-01-5.10362E-06 2.14236E-01-1.62203E-13 1.63293E-13
 -1      3277 2.00403E+01 8.70694E-02-4.58285E-04 1.15280E-01-3.54461E-13 5.36927E-13
 -1      3278 2.00519E+01 1.00637E-01 9.27844E-04 1.37192E-01-1.26818E-13 5.59326E-13
 -1      3279 2.00289E+01 1.29781E-01-5.69659E-05 1.55901E-01-2.64688E-13 5.65522E-13
 -1      3280 2.00301E+01 6.49573E-02-3.39429E-04 7.93382E-02-8.91911E-14 3.62308E-13
 -1      3281 2.00390E+01 7.57134E-02 7.33391E-04 9.59761E-02-1.98184E-13 5.18213E-13
 -1      3282 2.00245E+01 9.82608E-02-8.36733E-05 1.10620E-01-2.99480E-13 6.36576E-13
 -1      3283 2.00220E+01 4.76093E-02-2.47630E-04 5.23490E-02-2.60169E-14 3.00291E-13
 -1      3284 2.00287E+01 5.60151E-02 5.69829E-04 6.47679E-02-6.05022E-14 3.37685E-13
 -1      3285 2.00202E+01 7.31857E-02-9.30083E-05 7.60273E-02-6.82580E-14 6.73793E-13
 -1      3286 2.00157E+01 3.41640E-02-1.78272E-04 3.24584E-02 9.08459E-14 2.29548E-13
 -1      3287 2.00207E+01 4.06586E-02 4.35347E-04 4.15481E-02-4.39112E-14 1.31633E-13
 -1      3288 2.00161E+01 5.35239E-02-9.06937E-05 5.00483E-02 5.05836E-14 3.04800E-13
 -1      3289 2.00110E+01 2.38165E-02-1.28187E-04 1.81336E-02 1.83418E-13 3.71197E-13
 -1      3290 2.00145E+01 2.88077E-02 3.26776E-04 2.46213E-02 2.10711E-13 3.20085E-13
 -1      3291 2.00125E+01 3.82811E-02-8.12933E-05 3.09118E-02 7.11441E-14 3.57513E-13
 -1      3292 2.00073E+01 1.58692E-02-9.01702E-05 8.15398E-03-9.28731E-14 6.31990E-13
 -1      3293 2.00098E+01 1.97020E-02 2.40255E-04 1.26191E-02 9.70872E-14 5.49623E-13
 -1      3294 2.00094E+01 2.65466E-02-6.41862E-05 1.71661E-02 1.07129E-14 7.19847E-13
 -1      3295 2.00047E+01 9.72780E-03-1.70456E-05 1.59604E-03-1.64656E-13 6.30668E-13
 -1      3296 2.00064E+01 1.26168E-02 1.64578E-04 4.42703E-03-8.50442E-14 6.88795E-13
 -1      3297 2.00068E+01 1.74709E-02-5.53688E-05 7.61734E-03-9.59567E-14 1.05510E-12
 -1      3298 2.00035E+01 6.71930E-03 2.50607E-05-1.04126E-03-4.27891E-14 6.66145E-13
 -1      3299 2.00042E+01 8.25224E-03 7.15000E-05 1.08829E-04-1.55955E-13 6.39346E-13
 -1      3300 2.00050E+01 1.17220E-02-4.78816E-05 2.35515E-03-9.37209E-14 1.11061E-12
 -1      3301 2.00038E+01 7.98997E-03-6.61585E-05-2.81361E-04-8.91877E-14 7.56875E-13
 -1      3302 2.24010E+01-4.56451E+00 9.33925E-02-4.01438E+00 2.40086E-13 9.60881E-14
 -1      3303 2.44347E+01-4.60116E+00-1.03153E-01-2.59056E+00 2.03310E-13 1.29809E-14
 -1      3304 1.96621E+01 2.60657E+00-4.28481E-03 1.58466E-01 1.67706E-13-2.72029E-13
 -1      3305 1.96237E+01 2.65465E+00-4.19738E-03 9.25763E-02 1.33080E-13-2.93727E-13
 -1      3306 2.00031E+01 1.44609E-02 1.84903E-05-1.96676E-03-3.58401E-13 1.79391E-13
 -1      3307 2.00024E+01 1.58425E-02-9.90386E-05-2.22810E-03-2.39883E-13-8.65054E-14
 -1      3308 1.55272E+01-2.39115E+00 3.20322E-02 4.99170E+00-1.12646E-13 7.62029E-14
 -1      3309 1.33326E+01-1.21187E+00 7.37786E-02 4.19488E+00-9.79772E-14 1.84089E-13
 -1      3310 1.76655E+01-2.24988E+00 8.81884E-02 4.30496E+00-2.67553E-13-3.66755E-14
 -1      3311 1.99998E+01 2.16321E-02-4.98375E-05-1.14446E-04 1.21335E-13-2.28042E-13
 -1      3312 1.99999E+01 2.16384E-02-4.21164E-05 3.81678E-04 6.76077E-14-2.61742E-13
 -1      3313 2.71184E+01-4.46030E-01-7.58551E-03 1.73597E+00-5.01613E-14-3.91506E-13
 -1      3314 2.70053E+01 1.26408E+00-1.42423E-01 2.16266E+00-2.62172E-13-4.26839E-13
 -1      3315 2.00017E+01 1.80519E-02 1.19022E-05-2.13846E-03-8.46068E-14-4.34842E-13
 -1      3316 2.00010E+01 1.91245E-02-8.92063E-05-2.01105E-03 1.11900E-13-3.04222E-13
 -1      3317 2.00023E+01 2.19044E-02 1.27342E-04-3.77665E-03-2.36426E-13-4.59665E-13
 -1      3318 2.34338E+01-2.53238E+00 3.90908E-02 1.47015E+00-1.83579E-13-8.20130E-14
 -1      3319 2.41742E+01-2.92545E+00 7.73474E-04 9.51200E-01-1.25986E-13-2.16048E-13
 -1      3320 2.22448E+01-2.56095E+00-4.49535E-02 2.21837E+00-1.61367E-13-2.79835E-13
 -1      3321 2.01983E+01 2.07815E+00 1.46157E-03-6.82462E-01-1.52684E-13-3.20288E-13
 -1      3322 2.07403E+01-2.65728E-01 6.86702E-03-2.07739E+00 2.29517E-14 2.82299E-14
 -1      3323 2.05241E+01-2.92629E-02 5.27593E-03-2.03552E+00 1.73885E-14-2.83944E-14
 -1      3324 1.99696E+01 1.16766E-01-8.07509E-03-2.07757E+00-4.39129E-15-7.04540E-14
 -1      3325 2.01892E+01-4.13200E-01-1.68612E-02-2.33280E+00-5.26677E-14 3.23775E-14
 -1      3326 2.02568E+01 5.87310E-01 1.78133E-03-9.57739E-01 1.13010E-13-3.71696E-14
 -1      3327 2.02481E+01 6.21792E-01 1.29926E-03-8.15850E-01 1.36353E-13-1.13482E-14
 -1      3328 2.65374E+01 2.80548E+00-1.94925E-01-2.18271E+00-2.93404E-13 1.78073E-13
 -1      3329 2.67822E+01 1.37192E+00-5.96588E-02-2.06031E+00-3.03174E-13 2.75793E-13
 -1      3330 2.72784E+01-3.52187E+00 6.31684E-02-1.45991E-01-1.96485E-13 3.62529E-13
 -1      3331 2.80949E+01-2.03248E+00-9.84768E-02 1.17278E+00-2.88103E-14 3.51497E-13
 -1      3332 2.03286E+01 9.75404E-01 5.42493E-03 1.46539E-01-1.17748E-13-2.28233E-13
 -1      3333 2.03003E+01 8.36607E-01-1.75691E-03 3.32878E-01-9.82052E-14-2.32524E-13
 -1      3334 2.02230E+01 9.24813E-01-6.40567E-04 3.97243E-01-7.95728E-14-2.16231E-13
 -1      3335 1.17724E+01-1.06206E+00 1.08655E-01-4.01100E+00-2.06994E-13-5.11591E-13
 -1      3336 1.38809E+01-2.12820E+00 7.83706E-02-5.04693E+00-2.58751E-13-4.10186E-13
 -1      3337 1.74636E+01-3.33293E+00 1.03403E-01-5.32621E+00 3.70357E-13 4.44041E-13
 -1      3338 2.00542E+01-4.39430E+00-2.89581E-02-5.04285E+00 3.07872E-13 2.39489E-13
 -1      3339 2.14761E+01-3.97921E+00 4.45064E-02-3.87027E+00 2.01682E-13 1.71748E-13
 -1      3340 1.49683E+01-2.80222E+00 4.11872E-02 5.56563E+00 2.17271E-13-9.51461E-14
 -1      3341 1.25542E+01-1.69124E+00 1.34120E-01 4.88997E+00 2.08493E-13-1.56361E-13
 -1      3342 9.75827E+00 2.30802E-01 8.09901E-02-1.44500E+00-3.28036E-14 4.00929E-13
 -1      3343 1.06460E+01-4.45150E-01 8.78503E-02-3.39157E+00 2.56739E-16 3.67664E-13
 -1      3344 1.27737E+01-5.07136E-01 1.08623E-01-3.52516E+00 1.16084E-13 3.71210E-13
 -1      3345 2.00005E+01 2.05609E-02-1.77702E-05-1.40281E-03 1.45164E-13-1.47893E-13
 -1      3346 2.00000E+01 2.11365E-02-6.94518E-05-1.01444E-03 1.40564E-13-1.42084E-13
 -1      3347 1.99996E+01 2.74017E-02 1.20154E-04-9.54226E-04 2.62424E-13-1.65938E-13
 -1      3348 2.00006E+01 2.54781E-02 1.19053E-04-2.78996E-03 9.86832E-14-3.34399E-13
 -1      3349 2.46734E+01-4.37125E+00-3.78825E-02 2.03517E+00-1.55318E-13-4.15077E-13
 -1      3350 2.26541E+01-4.38068E+00 7.83136E-02 3.50238E+00-2.67401E-13-2.20274E-13
 -1      3351 2.62422E+01-3.55522E+00 6.79111E-02-7.94864E-01 1.96377E-13-2.43770E-13
 -1      3352 2.68274E+01-2.49958E+00-1.42759E-01 5.01159E-01 9.51756E-14-4.01817E-13
 -1      3353 2.04087E+01 1.19180E+00-7.57108E-04 2.83669E-01 2.51507E-13-4.12413E-14
 -1      3354 2.03155E+01 1.53248E+00 1.70375E-03 3.76493E-01 2.61119E-13-7.71834E-14
 -1      3355 2.02743E+01 1.41321E+00 1.13189E-03 1.63485E-01 2.30073E-13-8.35694E-14
 -1      3356 2.03733E+01 1.01142E+00-1.55295E-03 2.80959E-02 2.18327E-13-3.40596E-14
 -1      3357 1.96063E+01 2.67613E+00-4.38868E-03 5.57382E-02 1.14768E-13-2.84020E-13
 -1      3358 1.96099E+01 2.67370E+00-3.83663E-03-1.14778E-02 8.42607E-14-2.93407E-13
 -1      3359 1.96768E+01 2.43519E+00 6.77722E-03 5.47656E-02 1.11227E-13-2.65907E-13
 -1      3360 2.04057E+01-3.86683E+00 8.05669E-02-4.48440E+00-3.66134E-13-4.43222E-14
 -1      3361 2.16132E+01-4.58576E+00 6.52924E-02-4.38312E+00-3.87808E-13-9.11380E-14
 -1      3362 2.30075E+01-4.44801E+00-1.86738E-03-3.24302E+00-3.53665E-13 5.88212E-14
 -1      3363 1.99997E+01 2.73974E-02 1.30027E-04 1.18567E-03 2.25013E-13-5.51213E-13
 -1      3364 2.00001E+01 2.11018E-02-7.91924E-05 1.26650E-03 1.51802E-13-4.15231E-13
 -1      3365 2.00006E+01 2.05325E-02-1.12694E-05 1.65260E-03 3.16550E-13-5.69148E-13
 -1      3366 2.25135E+01-4.88243E+00 6.08672E-02 4.33759E+00 1.48853E-13 1.41885E-13
 -1      3367 2.13326E+01-4.46304E+00 3.91345E-02 4.50914E+00 1.69073E-13 1.12637E-13
 -1      3368 2.36534E+01-4.69263E+00-3.71526E-02 3.16455E+00 9.35502E-14 1.87492E-13
 -1      3369 1.99109E+01 2.26813E+00-4.77172E-03-2.81914E-01-4.75090E-14-2.89739E-13
 -1      3370 2.00144E+01 2.11047E+00-6.11256E-03-3.50631E-01-8.93545E-14-2.89518E-13
 -1      3371 1.99968E+01 2.13832E+00-5.37754E-03 3.56544E-01 2.42008E-13-1.74699E-13
 -1      3372 1.98906E+01 2.29632E+00-4.62854E-03 2.95232E-01 2.19547E-13-2.00153E-13
 -1      3373 2.01025E+01 1.81710E+00 6.52702E-03 2.06778E-01 2.14784E-13-1.57458E-13
 -1      3374 2.00027E+01 1.57353E-02-8.81818E-05 2.35138E-03 2.17681E-13-8.79546E-14
 -1      3375 2.00034E+01 1.43249E-02 3.06795E-05 1.98497E-03 1.11739E-13 5.49301E-13
 -1      3376 1.28558E+01-4.56558E-01 1.03960E-01 3.46761E+00-6.79960E-14 2.46567E-13
 -1      3377 1.25892E+01 1.70378E-01 3.04494E-02 2.46549E+00-7.87738E-15 1.71904E-13
 -1      3378 1.49123E+01-6.60702E-01 6.09496E-02 3.51392E+00-9.97132E-14 1.11855E-13
 -1      3379 2.48625E+01 2.10966E-01-6.72419E-03-1.99303E+00-2.00773E-13 1.31785E-13
 -1      3380 2.57261E+01 8.46780E-01-2.20272E-02-2.13656E+00-2.41127E-13 2.69167E-13
 -1      3381 2.66502E+01-4.63349E-01-1.09665E-01-1.79675E+00-2.70142E-13 3.41300E-13
 -1      3382 2.48506E+01-8.39426E-01-4.83011E-02-1.77743E+00-1.69120E-13 9.67924E-14
 -1      3383 2.64571E+01 3.42307E+00-1.05881E-01 2.08148E+00-3.88217E-13-3.51018E-13
 -1      3384 2.47061E+01 2.12350E+00-2.52352E-02 1.97728E+00-1.74721E-13-2.39571E-13
 -1      3385 2.48545E+01 9.99510E-01-7.53114E-02 2.16912E+00-6.44762E-14-2.60670E-13
 -1      3386 2.02173E+01 5.60809E-01 4.89580E-05-1.09424E+00 6.85760E-14-2.52144E-14
 -1      3387 2.00930E+01 6.92266E-01-3.89732E-04-1.01658E+00 8.97305E-14-6.46566E-14
 -1      3388 2.02469E+01 5.38421E-01 2.78854E-03-1.22159E+00 2.12136E-14-1.56912E-14
 -1      3389 1.99512E+01 5.58697E-01-1.06945E-03-1.54967E+00 2.78723E-14-1.01411E-13
 -1      3390 2.02618E+01 4.82535E-01 3.67989E-03-1.46870E+00-2.40953E-14-2.83794E-14
 -1      3391 2.02092E+01 5.13150E-01-6.63805E-04-1.35166E+00-8.17899E-15-3.22891E-14
 -1      3392 1.69592E+01-2.47755E+00 8.68360E-02-4.77219E+00 3.38535E-13 3.73007E-13
 -1      3393 2.70660E+01-1.61397E+00-5.96096E-02 1.69755E+00-9.05474E-14 4.53491E-13
 -1      3394 2.64240E+01-2.65074E+00-1.13283E-01 1.02359E+00-1.23235E-13 4.64021E-13
 -1      3395 2.01709E+01 7.79341E-01-5.27281E-04-7.23401E-01 1.30352E-13-6.13348E-14
 -1      3396 2.02843E+01 6.68758E-01 5.29342E-04-6.65293E-01 1.28534E-13 2.73636E-15
 -1      3397 2.02957E+01 7.34784E-01 2.49434E-03-4.99146E-01 1.57683E-13-8.64822E-15
 -1      3398 1.13270E+01 3.37776E-01 7.42748E-02 1.53417E+00 9.86294E-14-3.32123E-13
 -1      3399 9.85532E+00 2.84256E-01 1.36713E-01 8.26127E-01 9.49327E-14-3.87190E-13
 -1      3400 1.07998E+01 4.63947E-01 4.74055E-02-3.37258E-01 1.23668E-14-3.52343E-13
 -1      3401 2.72061E+01-2.12850E+00-1.10413E-01-1.54998E+00 8.72392E-14-3.68310E-13
 -1      3402 2.76158E+01-5.30503E-01-2.61017E-02-2.19948E+00 1.50775E-13-4.28324E-13
 -1      3403 1.27150E+01-9.26191E-01 1.11144E-01 3.93164E+00 2.16018E-13-2.44596E-13
 -1      3404 1.97191E+01 2.52990E+00-4.74165E-03 1.94567E-01 1.91983E-13-2.48040E-13
 -1      3405 1.97529E+01 2.33943E+00 7.70792E-03 1.10338E-01 1.72962E-13-2.33833E-13
 -1      3406 1.97954E+01 2.42874E+00-4.98448E-03 2.58775E-01 2.21147E-13-2.37336E-13
 -1      3407 2.00012E+01 1.90267E-02-9.52653E-05 2.22394E-03 3.88408E-13-2.87330E-13
 -1      3408 2.00020E+01 1.79849E-02 2.09604E-05 2.29396E-03 3.36211E-13-2.57585E-13
 -1      3409 2.00025E+01 2.17368E-02 6.42948E-05 3.85285E-03 7.18464E-14-1.57115E-15
 -1      3410 2.00008E+01 2.54407E-02 1.29755E-04 2.96354E-03 2.88100E-13-5.27220E-13
 -1      3411 2.00036E+01 8.80701E-03 7.00668E-05 4.55112E-05-2.58724E-13-7.48668E-14
 -1      3412 2.74915E+01 6.10167E-01-2.25659E-01-2.75045E+00 1.55917E-13-3.89036E-13
 -1      3413 2.63587E+01-1.34778E+00-3.82989E-02-1.31560E+00-2.22319E-13 3.35624E-13
 -1      3414 2.63056E+01-1.40633E+00-2.65336E-02 1.27662E+00 1.08170E-13-4.24230E-13
 -1      3415 2.80764E+01-6.60817E-01-4.05291E-02 2.16971E+00 4.21746E-14 4.03289E-13
 -1      3416 2.74940E+01 8.00151E-01-1.60472E-01 2.51111E+00 1.31423E-13 3.63785E-13
 -1      3417 2.03284E+01 7.90980E-01-5.55612E-04-3.50296E-01 1.75501E-13-2.67700E-14
 -1      3418 2.03556E+01 9.04689E-01 2.69948E-03-1.47713E-01 1.85629E-13-3.30103E-14
 -1      3419 2.03119E+01 1.09309E+00 7.61966E-04-7.97045E-02 1.90208E-13-4.39055E-14
 -1      3420 2.02476E+01 9.06985E-01-2.10366E-04-4.14905E-01 1.51080E-13-3.83326E-14
 -1      3421 2.00037E+01 1.21599E-02-7.83559E-05-1.69337E-03-4.21436E-13 3.89314E-13
 -1      3422 2.00041E+01 1.74576E-02 1.17222E-04-3.87079E-03-4.34945E-13 2.66413E-13
 -1      3423 2.63243E+01-3.24127E+00-6.39041E-03-1.74392E-01 6.14092E-15-3.99555E-13
 -1      3424 2.55646E+01-3.58666E+00-4.60011E-03 5.67008E-01-3.99325E-14-3.78145E-13
 -1      3425 1.98191E+01 2.40222E+00-4.18289E-03-2.36220E-01-1.81423E-14-3.15668E-13
 -1      3426 1.99332E+01 2.09656E+00 8.10990E-03-1.44496E-01-4.22906E-14-2.69002E-13
 -1      3427 1.97397E+01 2.50458E+00-4.81542E-03-1.64214E-01 5.33625E-15-3.13306E-13
 -1      3428 2.52856E+01-1.55575E+00-3.08638E-03-1.28849E+00-1.76272E-13 3.32193E-13
 -1      3429 2.65837E+01-3.71373E+00-1.80283E-02 1.00120E+00-3.71109E-14 2.05072E-13
 -1      3430 2.54432E+01-4.11269E+00-3.39428E-04 1.70467E+00 1.80758E-15 1.56528E-13
 -1      3431 2.65498E+01-2.94406E+00-3.72117E-02-1.16538E-01-1.35489E-13 1.84512E-13
 -1      3432 2.17374E+01-3.62969E+00 7.09841E-02 3.43838E+00-3.24588E-13-3.05881E-13
 -1      3433 1.04416E+01 5.97848E-01 1.30716E-01-3.17519E-01-3.67154E-15 3.38680E-13
 -1      3434 1.16266E+01 6.04897E-01 5.73774E-02-1.14636E+00-2.29127E-14 4.22232E-13
 -1      3435 1.14154E+01 6.10229E-01 2.62428E-02 7.49286E-01 1.10094E-14 2.52839E-13
 -1      3436 2.01257E+01 1.96094E+00-2.89028E-03-4.09866E-01-1.09555E-13-2.93151E-13
 -1      3437 2.02812E+01 1.71565E+00-4.27255E-03-5.25617E-01-1.53290E-13-2.97642E-13
 -1      3438 2.03152E+01 1.46148E+00 6.74700E-03-3.06209E-01-1.41425E-13-2.65312E-13
 -1      3439 2.01317E+01 1.80505E+00 8.63550E-03-2.27675E-01-9.45610E-14-2.65090E-13
 -1      3440 2.43837E+01-3.28143E+00 1.62512E-02 1.16493E+00-1.62851E-13-3.55756E-13
 -1      3441 1.85770E+01-3.71434E+00 8.66242E-03 5.08433E+00 2.43736E-13 4.71775E-14
 -1      3442 1.68206E+01-3.19691E+00 1.17454E-01 5.48198E+00 2.50189E-13-8.36275E-14
 -1      3443 1.60796E+01-2.38828E+00 5.05253E-02 4.99296E+00 2.46095E-13-4.96964E-14
 -1      3444 2.69080E+01 2.15408E+00-1.08389E-01 2.29282E+00-2.71477E-13-3.99715E-13
 -1      3445 2.03039E+01 1.23968E+00-4.33200E-03-1.04574E-01-1.28881E-13-2.46400E-13
 -1      3446 2.48593E+01-3.85301E+00-9.04540E-03-1.46191E+00 2.22281E-13-2.31450E-13
 -1      3447 1.58401E+01-2.51389E+00 1.13742E-01-5.05765E+00-2.70457E-13-2.23856E-13
 -1      3448 1.77105E+01-3.03739E+00-9.67452E-03-4.87040E+00-3.09048E-13-9.72555E-14
 -1      3449 1.55308E+01-1.69899E+00 6.50536E-02-4.45739E+00-2.56781E-13-2.64198E-13
 -1      3450 2.62373E+01 4.18897E+00-1.08262E-01-1.59237E+00-3.41616E-13 4.04191E-14
 -1      3451 1.15014E+01-4.01478E-01 1.29393E-01-3.18100E+00-1.46314E-13-5.31145E-13
 -1      3452 1.33086E+01-6.08510E-01 5.47777E-02-3.51911E+00-1.72836E-13-4.43347E-13
 -1      3453 1.14783E+01 1.22516E-01 6.30499E-02-2.16020E+00-7.19910E-14-4.76452E-13
 -1      3454 2.02324E+01 1.32384E+00-2.78356E-03-1.50697E-02-1.24921E-13-2.40606E-13
 -1      3455 2.77350E+01 2.74896E+00-6.97294E-02 2.49921E+00 3.21312E-13 3.59546E-13
 -1      3456 2.71471E+01 3.91106E+00-1.77922E-01 1.77293E+00 4.48447E-13 2.93807E-13
 -1      3457 2.00208E+01 6.90226E-01 3.52154E-04 8.57780E-01-5.28270E-14-1.49568E-13
 -1      3458 2.00058E+01 6.08724E-01 1.31774E-03 9.77153E-01-3.37278E-14-1.43588E-13
 -1      3459 1.99566E+01 5.26161E-01 3.22655E-04 1.09696E+00-9.18663E-15-1.36182E-13
 -1      3460 1.99628E+01 4.37624E-01 2.81721E-03 1.20301E+00 3.11800E-14-9.09031E-14
 -1      3461 1.98238E+01 6.66674E-01-7.19686E-04 1.01273E+00-1.33576E-14-1.21574E-13
 -1      3462 1.99285E+01 3.35580E-01 9.01230E-04 1.32207E+00 3.13433E-14-7.43904E-14
 -1      3463 1.99717E+01 2.15824E-01 4.48988E-03 1.41638E+00 4.50258E-14-8.13674E-14
 -1      3464 1.97339E+01 4.74972E-01-2.36927E-03 1.25702E+00 4.12978E-14-8.60697E-14
 -1      3465 1.99747E+01 6.99422E-02 2.65341E-03 1.53768E+00 7.87937E-14-1.07959E-13
 -1      3466 2.00770E+01-1.06780E-01 6.30336E-03 1.61664E+00 8.67296E-14-8.90848E-14
 -1      3467 1.96919E+01 2.19323E-01-5.05953E-03 1.50824E+00 6.15131E-14-1.37102E-13
 -1      3468 2.01521E+01-3.20959E-01 6.39393E-03 1.73754E+00 7.33642E-14-6.23668E-14
 -1      3469 2.03432E+01-5.80170E-01 7.35491E-03 1.78864E+00 6.51830E-14-3.09109E-14
 -1      3470 1.97493E+01-1.57211E-01-9.56931E-03 1.77163E+00 1.00901E-13-1.39307E-13
 -1      3471 2.05445E+01-8.81585E-01 1.28862E-02 1.89116E+00 2.15494E-14 6.08172E-15
 -1      3472 2.08573E+01-1.23508E+00 6.61509E-03 1.88514E+00 4.20695E-14 2.45987E-14
 -1      3473 1.99860E+01-7.15485E-01-1.74366E-02 2.03576E+00 7.16073E-14-1.00673E-13
 -1      3474 2.12583E+01-1.62013E+00 2.37698E-02 1.92658E+00 7.10252E-14-4.35622E-15
 -1      3475 2.17190E+01-2.04819E+00 2.43995E-03 1.80953E+00 9.40671E-14-1.96261E-14
 -1      3476 2.05186E+01-1.49512E+00-2.92112E-02 2.24927E+00 4.43441E-14-7.80925E-14
 -1      3477 2.24003E+01-2.45387E+00 3.78501E-02 1.69080E+00 7.44499E-14 2.55260E-14
 -1      3478 2.29991E+01-2.82524E+00-2.74678E-04 1.38510E+00 1.54581E-14 4.67707E-14
 -1      3479 2.14957E+01-2.45864E+00-4.05337E-02 2.28245E+00 1.14569E-13-1.40148E-14
 -1      3480 2.60019E+01 1.00382E+00-3.53195E-02 2.21947E+00-1.91853E-13-4.03313E-13
 -1      3481 2.50899E+01 4.06316E-01-1.85291E-02 2.18857E+00-8.60562E-14-3.61298E-13
 -1      3482 2.41266E+01-3.02267E+00-2.09101E-02-5.83936E-01 2.01774E-13-3.73651E-13
 -1      3483 2.35423E+01-2.88548E+00 4.07000E-02-1.04712E+00 1.22748E-13-2.99649E-13
 -1      3484 2.26148E+01-2.59775E+00-8.73963E-03-1.39632E+00 5.45159E-14-1.68531E-13
 -1      3485 2.20615E+01-2.18962E+00 3.43695E-02-1.64217E+00 9.37033E-14-9.45598E-14
 -1      3486 2.26249E+01-3.09883E+00-3.85428E-02-1.90166E+00 1.92545E-13-3.83799E-13
 -1      3487 2.14363E+01-1.78013E+00 2.29560E-03-1.71339E+00 5.99121E-14-1.02343E-13
 -1      3488 2.10072E+01-1.36431E+00 2.07742E-02-1.79271E+00 4.12790E-14-7.32536E-14
 -1      3489 2.11737E+01-2.15268E+00-3.58397E-02-2.17396E+00 9.64673E-14-5.87811E-14
 -1      3490 2.06450E+01-9.98347E-01 6.70575E-03-1.72819E+00-1.84557E-14-3.27828E-14
 -1      3491 2.03535E+01-6.69565E-01 1.09844E-02-1.71323E+00 6.24045E-15-1.08635E-13
 -1      3492 2.02788E+01-1.21831E+00-2.45219E-02-2.07535E+00-6.66676E-15-2.05443E-14
 -1      3493 2.01696E+01-3.95321E-01 6.93946E-03-1.60039E+00 2.98802E-14-1.53191E-13
 -1      3494 1.99896E+01-1.66748E-01 4.82621E-03-1.53939E+00-1.75137E-14-2.25892E-13
 -1      3495 1.97930E+01-5.01859E-01-1.47644E-02-1.83790E+00-4.82977E-14 3.78102E-14
 -1      3496 1.99160E+01 1.64516E-02 5.77598E-03-1.41765E+00-1.42096E-14-1.63320E-13
 -1      3497 1.98140E+01 1.59138E-01 1.39839E-03-1.33768E+00 6.77793E-14-1.63417E-13
 -1      3498 1.95695E+01-1.31255E-02-7.87074E-03-1.56994E+00 5.15666E-15-1.01467E-14
 -1      3499 1.98027E+01 2.68612E-01 4.36299E-03-1.22266E+00 1.45529E-13-2.02984E-13
 -1      3500 1.97503E+01 3.46541E-01-4.32460E-04-1.13751E+00 1.55523E-13-1.86664E-13
 -1      3501 1.95006E+01 2.87125E-01-3.75632E-03-1.31712E+00 8.18396E-14 2.47203E-14
 -1      3502 1.97714E+01 4.01889E-01 3.22379E-03-1.03406E+00 1.13603E-13-2.05529E-13
 -1      3503 1.97483E+01 4.34499E-01-1.34255E-03-9.50884E-01 3.90627E-15-1.25057E-13
 -1      3504 1.95163E+01 4.48995E-01-1.37003E-03-1.09192E+00 1.53106E-13-5.49754E-14
 -1      3505 1.97838E+01 4.52966E-01 2.41149E-03-8.60065E-01-2.86897E-14-3.30985E-14
 -1      3506 1.97765E+01 4.56005E-01-1.72449E-03-7.82660E-01-1.55070E-14 1.82844E-13
 -1      3507 1.95733E+01 5.15046E-01-6.45470E-05-8.95923E-01 1.34265E-13 8.51521E-14
 -1      3508 1.98160E+01 4.51155E-01 1.86116E-03-7.04155E-01-1.00400E-13 1.19488E-13
 -1      3509 1.98164E+01 4.36425E-01-1.80614E-03-6.34495E-01-1.28794E-13 6.93507E-14
 -1      3510 1.96456E+01 5.18825E-01 5.77973E-04-7.27300E-01-4.84995E-14 1.28666E-13
 -1      3511 1.98542E+01 4.18174E-01 1.48782E-03-5.67536E-01-1.89669E-13 2.21173E-14
 -1      3512 1.98576E+01 3.94027E-01-1.72184E-03-5.06510E-01-3.23422E-15-7.74212E-14
 -1      3513 1.97188E+01 4.85215E-01 8.34409E-04-5.83517E-01-1.37391E-13 2.33272E-13
 -1      3514 1.98910E+01 3.69244E-01 1.22112E-03-4.50168E-01 1.33749E-13-4.28281E-14
 -1      3515 1.98949E+01 3.41290E-01-1.55229E-03-3.97934E-01 1.83932E-13-1.74395E-13
 -1      3516 1.97852E+01 4.31781E-01 8.76317E-04-4.62125E-01 4.51011E-14 2.35331E-13
 -1      3517 1.99228E+01 3.14465E-01 1.01923E-03-3.51194E-01 1.75884E-13-3.04571E-13
 -1      3518 1.99262E+01 2.86258E-01-1.34478E-03-3.07427E-01 1.91281E-13-2.83099E-13
 -1      3519 1.98418E+01 3.70338E-01 8.03951E-04-3.60802E-01 8.00449E-14 3.10047E-14
 -1      3520 1.99486E+01 2.60161E-01 8.55414E-04-2.69242E-01 1.59705E-13-3.25604E-13
 -1      3521 1.99510E+01 2.33817E-01-1.12692E-03-2.33294E-01 8.68470E-14-3.46031E-13
 -1      3522 1.98877E+01 3.08440E-01 6.89577E-04-2.77339E-01 1.39236E-13-6.05731E-14
 -1      3523 1.99683E+01 2.10030E-01 7.14949E-04-2.02579E-01-4.16936E-14-3.58300E-13
 -1      3524 1.99697E+01 1.86661E-01-9.18637E-04-1.73593E-01-9.60696E-14-3.22448E-13
 -1      3525 1.99235E+01 2.50596E-01 5.61450E-04-2.09583E-01 4.74948E-14-3.60142E-13
 -1      3526 1.99827E+01 1.65927E-01 5.91940E-04-1.49258E-01-7.45722E-14-4.25250E-13
 -1      3527 1.99833E+01 1.45952E-01-7.33023E-04-1.26295E-01 4.03469E-15-5.09888E-13
 -1      3528 1.99506E+01 1.99208E-01 4.37221E-04-1.55370E-01-8.67165E-14-6.10545E-13
 -1      3529 1.99927E+01 1.28467E-01 4.83578E-04-1.07310E-01-5.46400E-15-4.41419E-13
 -1      3530 1.99926E+01 1.11874E-01-5.73913E-04-8.94368E-02 8.41053E-14-5.18963E-13
 -1      3531 1.99702E+01 1.55207E-01 3.28694E-04-1.12626E-01-4.90882E-15-5.09472E-13
 -1      3532 1.99992E+01 9.75079E-02 3.89267E-04-7.48695E-02 1.90275E-13-6.49624E-13
 -1      3533 1.99987E+01 8.40390E-02-4.40763E-04-6.12085E-02 9.32106E-14-5.80940E-13
 -1      3534 1.99840E+01 1.18577E-01 2.38627E-04-7.94501E-02 5.66212E-14-8.90939E-13
 -1      3535 2.00031E+01 7.24839E-02 3.08617E-04-5.02307E-02 1.67009E-13-4.98304E-13
 -1      3536 2.00023E+01 6.17558E-02-3.32388E-04-3.99938E-02 1.30582E-13-3.49819E-13
 -1      3537 1.99932E+01 8.87764E-02 1.67929E-04-5.41330E-02 1.72346E-13-8.74287E-13
 -1      3538 2.00050E+01 5.26177E-02 2.41831E-04-3.18875E-02 1.06386E-13-9.81565E-14
 -1      3539 2.00040E+01 4.41886E-02-2.44036E-04-2.43912E-02 2.42401E-13 3.42813E-14
 -1      3540 1.99989E+01 6.49776E-02 1.12276E-04-3.51732E-02 2.92937E-13-2.43429E-13
 -1      3541 2.00055E+01 3.70390E-02 1.93526E-04-1.85371E-02 1.28607E-13 1.64489E-13
 -1      3542 2.00045E+01 3.04946E-02-1.49064E-04-1.32473E-02 8.96107E-14 2.57821E-13
 -1      3543 2.00019E+01 4.62113E-02 5.34722E-05-2.12946E-02 3.09872E-13-3.36156E-13
 -1      3544 2.00050E+01 2.63393E-02 1.75783E-04-9.89740E-03-1.72650E-13 2.99829E-13
 -1      3545 2.00040E+01 2.11033E-02-7.20601E-05-6.26758E-03-3.63871E-13 2.16063E-13
 -1      3546 2.00030E+01 2.34372E-02-1.25065E-04-6.23762E-03-2.65609E-13 9.10459E-14
 -1      3547 2.00029E+01 3.28866E-02-7.40197E-05-1.20803E-02 1.71503E-14-8.21733E-14
 -1      3548 1.95312E+01 5.03579E-01 6.63997E-03-1.82778E+00 7.53092E-15-1.23026E-13
 -1      3549 1.95240E+01 5.92604E-01-3.43137E-03-1.69564E+00 3.24334E-14-1.41152E-13
 -1      3550 2.11317E+01-2.64947E+00 1.35843E-02-3.11811E+00-2.17340E-13-6.19452E-14
 -1      3551 2.04537E+01-1.90197E+00 3.79919E-02-3.09892E+00-1.82489E-13-5.72676E-14
 -1      3552 2.00985E+01-1.29495E+00 2.36687E-02-2.84292E+00-1.14089E-13-6.92467E-14
 -1      3553 1.96979E+01-7.76773E-01 1.50477E-02-2.73408E+00-1.11838E-13-6.69918E-14
 -1      3554 1.90983E+01-1.52027E+00-1.84560E-02-3.35782E+00-1.51181E-13-1.29641E-13
 -1      3555 2.32695E+01-3.90321E+00-2.72131E-02-2.63726E+00-2.72147E-13 1.28703E-13
 -1      3556 2.74068E+01 5.11456E+00-1.44571E-01-4.91749E-01 4.63685E-13 2.47415E-14
 -1      3557 1.95111E+01-1.08077E-01 5.07400E-03 2.25019E+00-1.48893E-14 1.01533E-13
 -1      3558 1.97457E+01-4.63139E-01 1.64522E-02 2.38710E+00 7.33935E-14 5.07001E-14
 -1      3559 1.42549E+01-1.11037E+00 3.25399E-02 4.11926E+00 1.83305E-13-1.26905E-13
 -1      3560 1.26325E+01-2.20863E-01 6.45509E-02 3.08913E+00 1.73063E-13-2.95458E-13
 -1      3561 1.99040E+01-8.95547E-01 2.47279E-02 2.63248E+00 1.80754E-14 3.72384E-14
 -1      3562 2.04057E+01-1.46403E+00 2.85668E-02 2.71113E+00-9.32648E-14-5.40332E-14
 -1      3563 1.88724E+01-5.96955E-01-2.46917E-02 2.71636E+00 6.69647E-15 9.90692E-14
 -1      3564 1.94690E+01 5.77438E-01-3.68216E-03 1.59148E+00-7.72942E-14-3.72337E-14
 -1      3565 1.95036E+01 4.88843E-01 7.36076E-03 1.72228E+00 9.53852E-14 2.62051E-14
 -1      3566 1.95660E+01 6.58784E-01-4.00703E-03 1.32540E+00-1.17540E-13-2.34042E-13
 -1      3567 1.95682E+01 6.34969E-01 4.56044E-03 1.44602E+00-9.76951E-14-7.82144E-14
 -1      3568 1.91113E+01 7.21621E-01 2.01302E-03 1.48169E+00-3.19891E-14 2.42420E-14
 -1      3569 1.96699E+01 6.52490E-01-3.80030E-03 1.09427E+00-1.61710E-13-2.35561E-13
 -1      3570 1.96611E+01 6.65805E-01 2.99768E-03 1.20347E+00-1.73803E-13-1.75748E-13
 -1      3571 1.93002E+01 7.66442E-01 2.78884E-03 1.22062E+00-1.64788E-13-7.04319E-14
 -1      3572 1.97624E+01 5.99111E-01-3.38595E-03 8.93338E-01 4.92046E-15-5.75014E-14
 -1      3573 1.97523E+01 6.31588E-01 2.19818E-03 9.90493E-01-4.54030E-14-1.90233E-13
 -1      3574 1.94695E+01 7.34830E-01 2.79944E-03 1.00196E+00-1.13473E-13-6.80535E-14
 -1      3575 1.98371E+01 5.24384E-01-2.91342E-03 7.19880E-01 1.66614E-13 1.20406E-14
 -1      3576 1.98296E+01 5.64781E-01 1.78192E-03 8.04704E-01 7.85714E-14 3.61970E-14
 -1      3577 1.96102E+01 6.63313E-01 2.45814E-03 8.15781E-01 7.62780E-15-1.45442E-13
 -1      3578 1.98938E+01 4.43821E-01-2.44457E-03 5.71925E-01 1.12872E-13 3.15558E-14
 -1      3579 1.98899E+01 4.85471E-01 1.53765E-03 6.44571E-01 1.81026E-13 5.55574E-14
 -1      3580 1.97217E+01 5.75036E-01 1.99783E-03 6.56754E-01 1.02746E-13-2.17266E-13
 -1      3581 1.99350E+01 3.66179E-01-2.00884E-03 4.47562E-01-2.44318E-14 7.69276E-14
 -1      3582 1.99341E+01 4.05400E-01 1.35994E-03 5.08615E-01 2.57368E-14 1.01305E-13
 -1      3583 1.98070E+01 4.83943E-01 1.54584E-03 5.21738E-01 8.25303E-14 2.68995E-13
 -1      3584 1.99637E+01 2.95920E-01-1.62196E-03 3.44646E-01-5.14733E-14 1.01866E-13
 -1      3585 1.99650E+01 3.30920E-01 1.20158E-03 3.95045E-01 9.90939E-15 7.99325E-14
 -1      3586 1.98703E+01 3.97887E-01 1.15497E-03 4.08410E-01 6.23633E-16 4.00282E-13
 -1      3587 1.99829E+01 2.34859E-01-1.28986E-03 2.60826E-01-1.24384E-13 2.26506E-13
 -1      3588 1.99855E+01 2.64993E-01 1.04875E-03 3.01717E-01-1.04122E-13 1.87832E-13
 -1      3589 1.99162E+01 3.20782E-01 8.34300E-04 3.14591E-01-6.55233E-14 3.39966E-13
 -1      3590 1.99952E+01 1.83327E-01-1.00981E-03 1.93659E-01-2.28297E-13 2.13712E-13
 -1      3591 1.99985E+01 2.08577E-01 8.98914E-04 2.26283E-01-1.87769E-13 2.06902E-13
 -1      3592 1.99487E+01 2.54135E-01 5.87400E-04 2.38108E-01-1.27034E-13 2.92549E-13
 -1      3593 2.00027E+01 1.40857E-01-7.78986E-04 1.40697E-01-3.77262E-13 4.27324E-13
 -1      3594 2.00061E+01 1.61546E-01 7.53809E-04 1.66307E-01-3.27176E-13 3.26097E-13
 -1      3595 1.99712E+01 1.98075E-01 4.01653E-04 1.76766E-01-3.21737E-13 6.54153E-14
 -1      3596 2.00067E+01 1.06531E-01-5.92175E-04 9.95868E-02-3.49724E-13 5.32817E-13
 -1      3597 2.00100E+01 1.23172E-01 6.19238E-04 1.19373E-01-3.54807E-13 4.81834E-13
 -1      3598 1.99861E+01 1.51972E-01 2.65515E-04 1.28349E-01-3.66824E-13 3.74991E-13
 -1      3599 2.00084E+01 7.92350E-02-4.44187E-04 6.81894E-02-1.75152E-14 5.12671E-13
 -1      3600 2.00114E+01 9.24142E-02 4.98957E-04 8.32266E-02-1.44186E-13 5.41450E-13
 -1      3601 1.99956E+01 1.14765E-01 1.70070E-04 9.07365E-02-2.50026E-13 3.48383E-13
 -1      3602 2.00087E+01 5.78267E-02-3.28596E-04 4.46333E-02 9.20217E-14 4.36380E-13
 -1      3603 2.00113E+01 6.81264E-02 3.94938E-04 5.58547E-02 1.43166E-13 6.21336E-13
 -1      3604 2.00013E+01 8.51937E-02 1.01731E-04 6.19998E-02-4.23447E-15 6.31979E-13
 -1      3605 2.00081E+01 4.12260E-02-2.36679E-04 2.73202E-02-6.21148E-15 4.59157E-13
 -1      3606 2.00103E+01 4.91884E-02 3.07873E-04 3.55137E-02 5.74089E-14 4.04326E-13
 -1      3607 2.00044E+01 6.20050E-02 5.56589E-05 4.04483E-02 9.60725E-14 6.39658E-13
 -1      3608 2.00069E+01 2.83547E-02-1.79446E-04 1.49645E-02-2.19528E-13 6.87396E-13
 -1      3609 2.00088E+01 3.44808E-02 2.19798E-04 2.07132E-02-1.39741E-13 4.87418E-13
 -1      3610 2.00055E+01 4.39980E-02 2.97385E-05 2.45974E-02-6.12600E-14 4.74070E-13
 -1      3611 2.00055E+01 1.84842E-02-8.47059E-05 6.36554E-03-1.28977E-13 7.31984E-13
 -1      3612 2.00070E+01 2.32183E-02 1.64473E-04 1.02973E-02-2.20381E-13 6.87361E-13
 -1      3613 2.00055E+01 3.02792E-02 7.14371E-05 1.33495E-02-2.48160E-13 6.16924E-13
 -1      3614 2.00016E+01 2.66199E-02-4.86321E-05-5.74337E-03-1.55763E-13-4.53208E-13
 -1      3615 2.00005E+01 2.87252E-02-1.06995E-04-5.34541E-03-4.85867E-14-6.98900E-13
 -1      3616 2.00019E+01 3.15663E-02 1.80686E-04-8.24453E-03 5.43194E-14-4.80212E-13
 -1      3617 2.33308E+01-3.61641E+00-2.11560E-02 2.25813E+00-2.33945E-13-4.17220E-13
 -1      3618 2.00037E+01 1.17558E-02-6.85519E-05 1.35480E-03 2.39553E-13 5.73851E-13
 -1      3619 2.00039E+01 1.02746E-02 1.43123E-05 6.70830E-04 3.64491E-14 4.27694E-13
 -1      3620 2.00044E+01 1.21574E-02 4.04400E-06 1.79871E-03-8.54418E-15 6.42334E-13
 -1      3621 2.00038E+01 1.69503E-02-7.62161E-06 3.32641E-03 3.71781E-14 4.83387E-13
 -1      3622 1.91625E+01-2.02845E+00-2.48019E-02 3.59076E+00-2.99104E-13-6.48231E-14
 -1      3623 1.74755E+01-1.19190E+00 3.33413E-02 3.57973E+00-1.84465E-13-1.54751E-13
 -1      3624 1.94225E+01 3.47501E-01-1.89424E-03 1.89906E+00 7.74092E-14 1.80717E-14
 -1      3625 1.95277E+01 1.53821E-01 1.15120E-02 2.03662E+00 2.57176E-14 4.14986E-14
 -1      3626 1.89291E+01 5.43117E-01-4.80304E-04 1.80277E+00 6.76779E-14 2.54324E-14
 -1      3627 1.61271E+01-1.61637E+00 7.90786E-02-4.35002E+00 2.87485E-13 2.90691E-13
 -1      3628 1.83201E+01-2.78553E+00-4.57966E-02-4.43103E+00 3.78933E-13 2.85987E-13
 -1      3629 2.67113E+01-3.36719E+00 4.01619E-02 3.54928E-02-1.93769E-13 3.72737E-13
 -1      3630 2.15510E+01-3.17209E+00 3.57789E-02 3.17831E+00-3.06866E-13-2.45791E-13
 -1      3631 2.07088E+01-2.46068E+00 2.60809E-02 3.17907E+00-2.84478E-13-1.57573E-13
 -1      3632 2.71605E+01 5.04937E+00-1.15014E-01 7.26135E-01 4.55413E-13 1.79141E-13
 -1      3633 2.01353E+01 1.47653E+00-3.08675E-03 1.59191E-02-8.46751E-14-2.38811E-13
 -1      3634 2.57668E+01-4.92241E-01-7.75481E-02 1.94917E+00-1.23651E-14-4.82610E-13
 -1      3635 1.96338E+01 2.64107E+00-4.61199E-03-5.07898E-02 6.44554E-14-3.02355E-13
 -1      3636 1.96780E+01 2.58938E+00-3.69539E-03-1.20458E-01 2.49337E-14-3.01864E-13
 -1      3637 1.97748E+01 2.30915E+00 6.45928E-03-7.06737E-02 2.13227E-14-2.88388E-13
 -1      3638 2.36423E+01-3.79959E+00 7.95185E-02-2.24128E+00 2.19959E-13-2.47389E-13
 -1      3639 2.47495E+01-3.40989E+00-4.49374E-02-7.95234E-01 2.28110E-13-4.10828E-13
 -1      3640 2.00945E+01 8.74619E-01 9.49387E-04 5.94817E-01-5.56819E-14-1.91800E-13
 -1      3641 2.00695E+01 7.76456E-01-1.38078E-04 7.31968E-01-4.72685E-14-1.70469E-13
 -1      3642 1.99275E+01 8.45761E-01 2.71378E-04 7.64104E-01-3.74498E-14-1.56475E-13
 -1      3643 2.01538E+01 1.11814E+00-7.84210E-04 2.93123E-01-9.43209E-14-2.04984E-13
 -1      3644 2.01292E+01 9.86844E-01-1.59745E-03 4.54980E-01-7.47274E-14-2.12481E-13
 -1      3645 2.00181E+01 1.06272E+00 1.40041E-03 4.98760E-01-6.33413E-14-1.71665E-13
 -1      3646 2.58968E+01-2.37593E+00-4.58234E-02-6.41555E-01-1.64965E-13 2.90682E-13
 -1      3647 2.03713E+01-3.28215E+00 9.10084E-02-4.00813E+00 3.44282E-13 2.72624E-13
 -1      3648 2.19467E+01-3.87763E+00-5.43985E-02-3.27912E+00 2.11704E-13 2.85102E-14
 -1      3649 2.23912E+01-3.43419E+00 6.00992E-03-2.55916E+00 2.90528E-13-2.57139E-13
 -1      3650 1.93663E+01-2.59051E+00 3.55338E-02-3.81953E+00 3.83412E-13 3.28919E-13
 -1      3651 1.99910E+01 1.78454E+00-3.23924E-03-4.34845E-02-6.88561E-14-2.37506E-13
 -1      3652 2.01118E+01 1.36732E+00 4.06629E-03 1.57186E-01-7.88040E-14-2.20051E-13
 -1      3653 2.00067E+01 1.41077E+00-2.89887E-03 2.21222E-01-5.68341E-14-1.90762E-13
 -1      3654 1.98926E+01 1.91827E+00-5.12260E-03-1.33320E-02-3.55118E-14-2.64425E-13
 -1      3655 1.26872E+01 6.83061E-02 4.50072E-02-2.74126E+00 3.03785E-14 2.99309E-13
 -1      3656 1.40617E+01-8.12547E-01-1.08943E-03-3.88074E+00 1.06814E-13 4.53491E-13
 -1      3657 2.02596E+01 1.25620E+00 1.41005E-04-1.10566E-02 1.88790E-13-6.86852E-14
 -1      3658 2.01886E+01 1.45475E+00-5.73900E-04 4.53076E-02 1.95603E-13-1.01010E-13
 -1      3659 2.02269E+01 1.13905E+00-1.43805E-03-1.92925E-01 1.62405E-13-6.65311E-14
 -1      3660 1.94805E+01-3.14130E+00 4.01841E-02-4.26000E+00-3.37549E-13-4.95055E-14
 -1      3661 1.99978E+01 3.39496E-02-9.98357E-05 1.09234E-03 2.38506E-13-5.24621E-13
 -1      3662 1.99983E+01 3.35154E-02-4.15036E-05 2.33816E-03 2.54954E-13-6.57387E-13
 -1      3663 2.46989E+01-4.27695E+00 3.66547E-02 2.21389E+00 4.89608E-14 1.33199E-13
 -1      3664 2.35654E+01-4.16521E+00 1.38793E-02 2.68450E+00 7.17620E-14 9.64836E-14
 -1      3665 2.50535E+01-3.72927E+00-3.44571E-02 1.09008E+00 2.21797E-14 1.20848E-13
 -1      3666 1.96855E+01 2.42463E+00 6.65201E-03-4.70001E-03 7.38974E-14-2.71531E-13
 -1      3667 1.99051E+01 2.13067E+00 7.93880E-03 1.63582E-01 1.86308E-13-1.95590E-13
 -1      3668 1.38953E+01 3.58154E-01-2.15451E-02 2.21352E+00-4.27870E-14 1.69375E-13
 -1      3669 1.26402E+01 6.61995E-01 1.01877E-01 1.63031E+00 1.43635E-14 2.23162E-13
 -1      3670 1.28857E+01 8.51252E-01 1.78339E-02 6.96030E-01 8.66078E-14 2.60902E-13
 -1      3671 1.40771E+01-4.30293E-01 2.71078E-02-3.29841E+00-1.86226E-13-3.30756E-13
 -1      3672 1.46890E+01-9.45779E-01 1.01719E-01-3.99428E+00-2.53443E-13-3.13430E-13
 -1      3673 1.61749E+01-1.43162E+00 3.98794E-02-4.06638E+00-2.83319E-13-1.67279E-13
 -1      3674 2.31385E+01-3.42390E+00-3.02717E-02 1.93566E+00 6.23069E-14 6.25038E-14
 -1      3675 2.40402E+01-3.18213E+00 2.70537E-02 1.03195E+00 2.65870E-14 1.08078E-13
 -1      3676 2.47078E+01-3.12866E+00-1.58735E-02 4.66238E-01-2.47237E-14 2.40869E-13
 -1      3677 1.99234E+01 7.91831E-01 7.63701E-04-1.02839E+00 6.49669E-14-9.72651E-14
 -1      3678 1.99644E+01 8.26961E-01-8.88552E-04-8.89607E-01 9.16693E-14-1.20375E-13
 -1      3679 1.92509E+01 7.44452E-01 1.75028E-03-1.56391E+00 2.25332E-14-1.85215E-13
 -1      3680 1.96479E+01 6.58637E-01 3.91972E-03-1.55045E+00 5.81387E-14-1.62163E-13
 -1      3681 1.96712E+01 7.01117E-01-2.93469E-03-1.42140E+00 3.18533E-14-1.15739E-13
 -1      3682 2.00163E+01 6.33884E-01-3.80010E-04-1.28733E+00 3.25981E-14-5.36394E-14
 -1      3683 2.00435E+01 8.74774E-01-3.65519E-04-7.53277E-01 1.31150E-13-1.25896E-13
 -1      3684 2.00851E+01 9.39590E-01 3.00976E-04-5.98439E-01 1.46742E-13-1.18733E-13
 -1      3685 1.98786E+01 9.79901E-01 2.06887E-03-7.68677E-01 9.99865E-14-1.65803E-13
 -1      3686 1.87852E+01-4.49562E-01-1.21662E-02-2.75764E+00-9.58188E-14-1.69397E-13
 -1      3687 1.96173E+01-3.69241E-01 1.57119E-02-2.48238E+00-8.80296E-14-7.02480E-14
 -1      3688 1.94270E+01-4.96246E-02 1.63717E-03-2.34372E+00-5.52183E-14-1.14737E-13
 -1      3689 1.54938E+01-1.48154E+00 9.40413E-02 4.37547E+00 1.81098E-13-6.52325E-14
 -1      3690 1.51817E+01-8.55337E-01 2.19189E-02 3.69763E+00 1.53356E-13-1.12729E-13
 -1      3691 1.67970E+01-2.12265E+00-8.46041E-03 4.44586E+00 1.78120E-13-5.64618E-14
 -1      3692 2.53516E+01-2.77726E+00-1.70928E-03 2.91462E-01 1.89347E-13-3.88158E-13
 -1      3693 1.25312E+01 2.89067E-01 8.07469E-02 2.24073E+00 1.10848E-13-3.17878E-13
 -1      3694 1.26729E+01 6.04264E-01 1.45754E-02 1.20475E+00 3.95448E-14-2.92169E-13
 -1      3695 1.39541E+01 1.13846E-01 3.28045E-02 2.51284E+00 9.64845E-14-2.49429E-13
 -1      3696 1.88134E+01 1.45982E-01-6.33535E-03 2.20464E+00 4.58774E-14-6.81579E-14
 -1      3697 1.99990E+01 3.68215E-02 1.52075E-04-6.01830E-03 6.99417E-14-5.90073E-13
 -1      3698 1.99994E+01 3.09147E-02-6.68661E-05-4.06052E-03 9.94498E-14-4.96454E-13
 -1      3699 1.99986E+01 3.22752E-02-8.25103E-05-3.11432E-03 2.53363E-13-5.64750E-13
 -1      3700 2.00051E+01 1.42395E-02 6.85552E-05 3.39922E-03-6.37230E-14 6.72033E-13
 -1      3701 2.00042E+01 2.16801E-02-4.94246E-05 6.34821E-03-1.84364E-13 5.06011E-13
 -1      3702 2.00048E+01 1.91856E-02 1.48576E-05 5.64070E-03-1.04413E-13 5.45786E-13
 -1      3703 2.00028E+01 2.62137E-02 5.68227E-05 6.66872E-03-6.74217E-14 3.90146E-13
 -1      3704 2.00035E+01 2.85514E-02-7.58210E-05 9.13058E-03-2.21270E-13 5.40700E-13
 -1      3705 2.58866E+01-1.96294E+00-2.64697E-04 9.86024E-01 1.52874E-13-4.44363E-13
 -1      3706 2.14634E+01-3.93140E+00 1.09745E-02 3.80333E+00 1.76623E-13 3.58966E-14
 -1      3707 2.02009E+01-3.87852E+00 7.50363E-02 4.67029E+00 1.80488E-13 9.36664E-14
 -1      3708 1.91386E+01-3.15867E+00 5.99039E-02 4.52946E+00 1.96267E-13-1.49117E-14
 -1      3709 1.94178E+01 3.70604E-01-2.83589E-03-1.99823E+00 1.57306E-14-9.05499E-14
 -1      3710 1.90131E+01 5.61758E-01-4.91136E-04-1.87791E+00 1.22868E-14-1.76720E-13
 -1      3711 1.94893E+01 1.93617E-01 1.06275E-02-2.13586E+00-1.83620E-14-6.72582E-14
 -1      3712 1.23547E+01 7.15644E-01 2.84794E-02-3.58018E-01 5.23782E-14-2.70416E-13
 -1      3713 1.17741E+01 5.63352E-01 1.04966E-01-1.23231E+00-1.81057E-14-3.64091E-13
 -1      3714 1.29325E+01 3.78968E-01 2.03598E-02-1.92828E+00-1.00238E-13-3.53897E-13
 -1      3715 1.58750E+01-9.66119E-01 5.85101E-02-3.70290E+00 2.14646E-13 2.41526E-13
 -1      3716 1.97671E+01 2.08036E+00-4.29707E-03 5.38359E-02 1.74875E-13-2.19636E-13
 -1      3717 1.97089E+01 2.15751E+00-4.06706E-03 3.39988E-02 1.47837E-13-2.24923E-13
 -1      3718 1.99981E+01 3.33529E-02-7.85504E-05-1.70435E-03 3.61973E-13-2.33363E-13
 -1      3719 1.99979E+01 3.38365E-02-6.81250E-05-4.65411E-04 4.00770E-13-1.87477E-13
 -1      3720 1.99969E+01 4.10801E-02 1.72657E-04 4.99648E-04 3.71462E-13-2.70320E-13
 -1      3721 1.99973E+01 3.99199E-02 1.65022E-04-2.85304E-03 2.77512E-13-3.79322E-13
 -1      3722 2.00015E+01 2.82292E-02-1.18113E-04 6.34665E-03 4.85385E-14-8.35622E-14
 -1      3723 2.54160E+01-2.83416E+00 2.42106E-02-8.83488E-02-8.08607E-14 2.56371E-13
 -1      3724 1.25991E+01 5.72331E-01 7.78579E-02-1.88797E+00 5.26315E-14 3.66030E-13
 -1      3725 1.38488E+01 3.66251E-01 3.64386E-02-2.25171E+00 9.41717E-14 3.36210E-13
 -1      3726 1.27409E+01 7.89550E-01-3.08998E-03-8.80538E-01 5.02385E-14 3.66762E-13
 -1      3727 1.81433E+01-5.77007E-01 2.93785E-02 2.91290E+00-9.66466E-14-1.32812E-13
 -1      3728 1.63608E+01-7.72056E-01 1.67210E-02 3.50535E+00-1.39773E-13-1.92294E-13
 -1      3729 1.57229E+01-5.17341E-02 4.53134E-02 2.91319E+00-4.71342E-14-9.75175E-14
 -1      3730 1.79505E+01-1.22331E-01 5.92053E-03 2.61618E+00 1.50162E-14-5.79673E-14
 -1      3731 2.00784E+01 1.63005E+00-3.40946E-03 3.89767E-02 1.81768E-13-1.45755E-13
 -1      3732 1.96717E+01 2.20471E+00-3.98598E-03 4.64495E-02 1.35130E-13-2.30059E-13
 -1      3733 1.96569E+01 2.22663E+00-3.36566E-03 2.71789E-02 1.01169E-13-2.48052E-13
 -1      3734 1.97104E+01 2.00333E+00 7.25583E-03-2.39505E-03 1.35627E-13-2.00496E-13
 -1      3735 1.96620E+01 2.21810E+00-4.16386E-03 3.59337E-02 8.19644E-14-2.60850E-13
 -1      3736 1.96892E+01 2.18684E+00-3.49479E-03 1.47814E-02 6.13213E-14-2.61112E-13
 -1      3737 1.96839E+01 2.04345E+00 8.68397E-03 3.61447E-02 8.68699E-14-2.34898E-13
 -1      3738 1.95382E+01 6.42746E-01-2.16682E-03 1.13578E+00 2.69209E-14-8.69480E-14
 -1      3739 1.95072E+01 5.46060E-01 4.20419E-03 1.25949E+00 5.50842E-14-9.72341E-14
 -1      3740 1.94058E+01 4.28417E-01-2.10756E-03 1.40487E+00 6.40395E-14-1.03853E-13
 -1      3741 1.94138E+01 2.91396E-01 7.20602E-03 1.53693E+00 6.46595E-14-1.08618E-13
 -1      3742 1.92033E+01 6.01842E-01-4.34431E-04 1.28149E+00 4.44335E-14-9.41302E-14
 -1      3743 1.93362E+01 1.17534E-01-8.93296E-04 1.71123E+00 7.83199E-14-1.01159E-13
 -1      3744 1.94166E+01-9.03459E-02 1.16289E-02 1.85446E+00 8.59069E-14-1.07381E-13
 -1      3745 1.90229E+01 3.29027E-01-2.74786E-03 1.60701E+00 5.12367E-14-8.83210E-14
 -1      3746 1.93998E+01-3.52530E-01 3.03627E-03 2.06813E+00 6.53048E-14-1.18154E-13
 -1      3747 1.96010E+01-6.72590E-01 1.48505E-02 2.21685E+00 5.74625E-14-1.02222E-13
 -1      3748 1.89168E+01-8.62758E-02-6.67623E-03 2.01124E+00 6.23345E-14-8.22506E-14
 -1      3749 1.97224E+01-1.04446E+00 1.45596E-02 2.45641E+00 7.62788E-14-8.39209E-14
 -1      3750 2.01129E+01-1.49922E+00 2.28264E-02 2.58827E+00 9.95931E-14-2.45500E-14
 -1      3751 1.89743E+01-7.45183E-01-2.01686E-02 2.51269E+00 6.13526E-14-3.73352E-14
 -1      3752 1.83647E+01-2.11853E+00 5.12041E-02-4.08868E+00-2.48806E-13-1.06947E-13
 -1      3753 2.05085E+01-3.13628E+00-2.17805E-02-3.75289E+00-2.96405E-13-6.87124E-14
 -1      3754 1.98235E+01 7.62162E-01-1.99624E-03-1.15830E+00 4.21988E-14-1.18511E-13
 -1      3755 1.96999E+01 8.96684E-01 2.26583E-03-1.03252E+00 6.87669E-14-1.80649E-13
 -1      3756 1.97873E+01 7.35409E-01 2.12131E-03-1.28898E+00 2.30624E-14-1.15185E-13
 -1      3757 2.07470E+01-2.26717E+00 1.43140E-02-2.67602E+00 1.46397E-13 2.29750E-14
 -1      3758 2.01758E+01-1.69671E+00 2.62073E-02-2.62128E+00 1.19241E-13 6.40580E-14
 -1      3759 1.98565E+01-1.21168E+00 1.93219E-02-2.38468E+00 8.79127E-14 1.23867E-13
 -1      3760 1.95020E+01-7.93575E-01 9.30505E-03-2.25048E+00-2.43594E-14 1.45330E-13
 -1      3761 1.91523E+01-1.38676E+00-2.96333E-02-2.85423E+00 1.42162E-13 2.55521E-13
 -1      3762 1.93993E+01-4.44133E-01 1.45226E-02-2.00933E+00-6.96280E-14 2.16695E-13
 -1      3763 1.92136E+01-1.63226E-01 1.56294E-03-1.85922E+00-1.67114E-15 2.76874E-13
 -1      3764 1.87934E+01-4.89743E-01-1.51160E-02-2.28708E+00 6.11147E-14 3.20334E-13
 -1      3765 1.92247E+01 6.28732E-02 1.00417E-02-1.65552E+00-1.68227E-14 1.80414E-13
 -1      3766 1.91447E+01 2.34668E-01-1.82238E-03-1.51681E+00 1.78554E-14 2.30064E-13
 -1      3767 1.87372E+01 8.03158E-02-6.00025E-03-1.80676E+00-6.08202E-14 3.80040E-13
 -1      3768 1.92076E+01 3.69840E-01 6.68357E-03-1.35260E+00 4.22595E-15 1.19922E-13
 -1      3769 1.91889E+01 4.63534E-01-2.89118E-03-1.23117E+00 1.47984E-13 7.70901E-14
 -1      3770 1.88187E+01 4.19947E-01-1.79341E-03-1.42666E+00-1.31479E-14 2.56584E-13
 -1      3771 1.92724E+01 5.32489E-01 4.34356E-03-1.09993E+00 1.27653E-13 6.33151E-14
 -1      3772 1.92865E+01 5.72080E-01-3.10541E-03-9.95695E-01 4.55897E-14 5.94037E-14
 -1      3773 1.89632E+01 5.99605E-01 3.20130E-04-1.12895E+00 8.20120E-14 1.81526E-13
 -1      3774 1.93735E+01 5.95873E-01 2.81670E-03-8.90428E-01 9.58304E-14 6.23270E-14
 -1      3775 1.94027E+01 5.99862E-01-2.96315E-03-8.01553E-01 1.57366E-13 1.26816E-13
 -1      3776 1.91284E+01 6.70652E-01 1.36453E-03-8.95021E-01 7.81784E-14 2.00232E-13
 -1      3777 1.94846E+01 5.94694E-01 1.85826E-03-7.16507E-01 1.17318E-13 8.27813E-14
 -1      3778 1.95183E+01 5.76838E-01-2.68087E-03-6.40989E-01-2.23037E-14 1.18042E-13
 -1      3779 1.92907E+01 6.70860E-01 1.76487E-03-7.09317E-01 1.39123E-13-8.01702E-15
 -1      3780 1.95909E+01 5.54532E-01 1.27862E-03-5.71858E-01-7.08456E-14 2.22036E-13
 -1      3781 1.96236E+01 5.24628E-01-2.35719E-03-5.08039E-01-1.86442E-14 3.03280E-13
 -1      3782 1.94386E+01 6.27931E-01 1.83080E-03-5.60194E-01 8.86756E-14 1.20161E-13
 -1      3783 1.96855E+01 4.93515E-01 9.23727E-04-4.51775E-01-1.32158E-13 3.48621E-13
 -1      3784 1.97143E+01 4.58354E-01-2.02741E-03-3.98301E-01-4.55888E-14 2.86172E-13
 -1      3785 1.95667E+01 5.61387E-01 1.71665E-03-4.39571E-01-1.35053E-14 2.15041E-13
 -1      3786 1.97653E+01 4.24091E-01 6.98496E-04-3.52618E-01 1.07755E-13 1.89429E-13
 -1      3787 1.97892E+01 3.88087E-01-1.71324E-03-3.08275E-01 1.15122E-13 2.11354E-13
 -1      3788 1.96738E+01 4.84818E-01 1.52379E-03-3.41832E-01-1.22636E-13 2.37528E-13
 -1      3789 1.98302E+01 3.54192E-01 5.54366E-04-2.71435E-01 3.46696E-14 8.76329E-14
 -1      3790 1.98492E+01 3.20074E-01-1.41714E-03-2.35161E-01 3.87624E-14 6.27696E-14
 -1      3791 1.97607E+01 4.07051E-01 1.30053E-03-2.62781E-01-8.13982E-15 1.60361E-13
 -1      3792 1.98812E+01 2.88740E-01 4.51761E-04-2.05751E-01-2.66987E-14-1.08428E-13
 -1      3793 1.98956E+01 2.58083E-01-1.14675E-03-1.76479E-01-7.07975E-14-1.92820E-13
 -1      3794 1.98292E+01 3.33547E-01 1.06052E-03-1.99340E-01-1.33620E-13-3.96324E-14
 -1      3795 1.99200E+01 2.30428E-01 3.73803E-04-1.53235E-01-8.17101E-14-4.27119E-13
 -1      3796 1.99306E+01 2.03911E-01-9.15128E-04-1.29937E-01-1.10489E-13-4.13772E-13
 -1      3797 1.98818E+01 2.67607E-01 8.48825E-04-1.48870E-01-1.93431E-13-1.62298E-13
 -1      3798 1.99488E+01 1.80303E-01 3.09630E-04-1.11778E-01 6.12182E-14-4.83108E-13
 -1      3799 1.99563E+01 1.58020E-01-7.20727E-04-9.35150E-02 9.47796E-14-4.90855E-13
 -1      3800 1.99213E+01 2.10546E-01 6.57105E-04-1.09099E-01-5.29916E-14-3.26500E-13
 -1      3801 1.99695E+01 1.38407E-01 2.53670E-04-7.95266E-02-8.97080E-15-5.17847E-13
 -1      3802 1.99744E+01 1.20121E-01-5.58111E-04-6.54365E-02-2.49539E-14-5.79647E-13
 -1      3803 1.99502E+01 1.62563E-01 5.01757E-04-7.81523E-02-2.87181E-14-3.10884E-13
 -1      3804 1.99837E+01 1.04176E-01 2.06241E-04-5.48308E-02 1.18951E-13-5.32916E-13
 -1      3805 1.99868E+01 8.94685E-02-4.24144E-04-4.41528E-02 2.57038E-13-4.37193E-13
 -1      3806 1.99705E+01 1.23121E-01 3.71524E-04-5.44153E-02 1.00638E-13-1.54871E-13
 -1      3807 1.99930E+01 7.67528E-02 1.66707E-04-3.62519E-02 3.62325E-13-3.46589E-13
 -1      3808 1.99947E+01 6.51113E-02-3.14058E-04-2.83157E-02 3.56015E-13-2.49896E-13
 -1      3809 1.99844E+01 9.13444E-02 2.67890E-04-3.65095E-02 3.66737E-13-3.45596E-13
 -1      3810 1.99986E+01 5.51243E-02 1.47046E-04-2.25340E-02 1.87596E-13-3.69267E-13
 -1      3811 1.99994E+01 4.61062E-02-1.80665E-04-1.68459E-02 2.02658E-13-5.44643E-13
 -1      3812 1.99932E+01 6.61201E-02 1.62816E-04-2.32619E-02 2.76884E-13-4.55810E-13
 -1      3813 2.00009E+01 4.14217E-02 1.62379E-04-1.39401E-02 2.38958E-13-5.22877E-13
 -1      3814 2.00009E+01 3.57696E-02-7.38752E-05-1.04749E-02 1.94289E-13-3.90641E-13
 -1      3815 1.99992E+01 3.89013E-02-1.00912E-04-9.54551E-03 1.99980E-13-7.57770E-13
 -1      3816 1.99973E+01 4.94059E-02-3.07480E-05-1.47572E-02 3.18274E-13-5.13779E-13
 -1      3817 2.23176E+01-3.37412E+00 6.07176E-02-2.97916E+00-2.77258E-13 2.15331E-14
 -1      3818 2.00617E+01 1.45830E+00 3.51111E-03-1.25215E-01 1.53935E-13-1.50768E-13
 -1      3819 1.99660E+01 1.77308E+00-2.27467E-03 2.63320E-02 1.81371E-13-1.76858E-13
 -1      3820 1.81224E+01 4.96337E-01-1.09935E-02 1.98142E+00 1.00968E-13-1.57019E-13
 -1      3821 1.81312E+01 2.82124E-01 1.78362E-02 2.19794E+00 1.18956E-13-7.26952E-14
 -1      3822 1.90482E+01 8.53419E-01-5.76099E-03 1.05189E+00-2.33977E-13-2.85936E-14
 -1      3823 1.89618E+01 8.67874E-01 2.15985E-03 1.16302E+00-1.59249E-13-5.71476E-14
 -1      3824 1.87707E+01 8.57478E-01-7.26316E-03 1.28378E+00-6.41101E-14-1.94927E-14
 -1      3825 1.86827E+01 8.30079E-01 4.58865E-03 1.41863E+00 3.35339E-14 2.23348E-15
 -1      3826 1.85677E+01 9.75714E-01 6.37739E-03 1.10187E+00-1.03321E-13-4.88269E-14
 -1      3827 1.94647E+01 7.02764E-01-3.73058E-03 7.00478E-01-2.91883E-15-1.76888E-13
 -1      3828 1.94036E+01 7.51278E-01 6.64875E-04 7.81359E-01-2.84275E-14-1.31308E-13
 -1      3829 1.96101E+01 6.03180E-01-3.04316E-03 5.63725E-01 1.04866E-13-1.66847E-13
 -1      3830 1.95628E+01 6.54648E-01 5.22243E-04 6.33110E-01 3.17523E-14-2.08340E-13
 -1      3831 1.93800E+01 7.46250E-01 3.47685E-03 6.00690E-01-2.53778E-14-7.89899E-14
 -1      3832 1.97218E+01 5.04602E-01-2.48203E-03 4.47746E-01-9.17316E-14 3.66919E-13
 -1      3833 1.96864E+01 5.54314E-01 4.99846E-04 5.06718E-01-2.23783E-14 1.53032E-13
 -1      3834 1.95457E+01 6.36196E-01 2.72881E-03 4.84251E-01-1.22313E-13 1.30383E-13
 -1      3835 1.98059E+01 4.13329E-01-2.00663E-03 3.50386E-01-4.09026E-14 4.58634E-13
 -1      3836 1.97803E+01 4.58666E-01 5.05459E-04 3.99834E-01-1.02266E-14 4.22640E-13
 -1      3837 1.96732E+01 5.30019E-01 2.11949E-03 3.85277E-01-1.30584E-13 3.86097E-13
 -1      3838 1.98682E+01 3.32408E-01-1.60780E-03 2.69702E-01 5.95002E-14 3.44270E-13
 -1      3839 1.98501E+01 3.72221E-01 5.05864E-04 3.10556E-01 3.30576E-14 4.83609E-13
 -1      3840 1.97697E+01 4.32970E-01 1.62433E-03 3.01926E-01-1.22887E-14 4.43619E-13
 -1      3841 1.99135E+01 2.62811E-01-1.27667E-03 2.03879E-01-1.79468E-13 3.72839E-13
 -1      3842 1.99011E+01 2.96797E-01 4.87650E-04 2.37069E-01-3.92767E-14 3.84627E-13
 -1      3843 1.98416E+01 3.47516E-01 1.23756E-03 2.32597E-01 1.75587E-14 5.15445E-13
 -1      3844 1.99457E+01 2.04470E-01-1.00356E-03 1.51075E-01-4.60727E-13 3.97814E-13
 -1      3845 1.99376E+01 2.32781E-01 4.46453E-04 1.77592E-01-3.58457E-13 3.80900E-13
 -1      3846 1.98943E+01 2.74270E-01 9.09109E-04 1.75907E-01-3.57246E-13 6.38618E-13
 -1      3847 1.99682E+01 1.56612E-01-7.78108E-04 1.09388E-01-3.36248E-13 5.75718E-13
 -1      3848 1.99631E+01 1.79721E-01 3.94959E-04 1.30236E-01-4.33802E-13 5.24126E-13
 -1      3849 1.99322E+01 2.13058E-01 6.57113E-04 1.30333E-01-5.99967E-13 7.76723E-13
 -1      3850 1.99833E+01 1.18034E-01-5.92583E-04 7.70195E-02-3.24343E-13 5.43692E-13
 -1      3851 1.99804E+01 1.36580E-01 3.40028E-04 9.31375E-02-2.76773E-13 5.39663E-13
 -1      3852 1.99589E+01 1.62942E-01 4.75984E-04 9.42859E-02-3.91389E-13 6.31670E-13
 -1      3853 1.99931E+01 8.74013E-02-4.50757E-04 5.23080E-02-1.10459E-14 6.54244E-13
 -1      3854 1.99916E+01 1.02085E-01 2.84635E-04 6.45607E-02-2.36996E-13 4.65553E-13
 -1      3855 1.99772E+01 1.22588E-01 3.38211E-04 6.62811E-02-2.22158E-13 7.03662E-13
 -1      3856 1.99990E+01 6.33808E-02-3.36485E-04 3.38022E-02 7.81099E-14 5.53075E-13
 -1      3857 1.99985E+01 7.48829E-02 2.42896E-04 4.29502E-02 2.23451E-13 5.55254E-13
 -1      3858 1.99891E+01 9.05132E-02 2.14688E-04 4.48758E-02 4.87527E-14 4.78458E-13
 -1      3859 2.00021E+01 4.47510E-02-2.52107E-04 2.01438E-02-1.62319E-13 5.17746E-13
 -1      3860 2.00024E+01 5.37245E-02 2.19443E-04 2.69721E-02-1.36342E-13 4.13102E-13
 -1      3861 1.99965E+01 6.53302E-02 1.00479E-04 2.89459E-02-1.51103E-15 5.47601E-13
 -1      3862 2.00039E+01 3.49764E-02 9.75011E-05 1.37048E-02-1.38476E-13 5.45002E-13
 -1      3863 1.99990E+01 3.20617E-02-1.26982E-04 4.05754E-03 1.39597E-13-5.59476E-13
 -1      3864 2.00001E+01 3.07421E-02-5.06702E-06 4.97398E-03 9.78409E-14-3.89913E-13
 -1      3865 1.99978E+01 3.99608E-02 1.87658E-04 4.19072E-03 1.69651E-13-5.27591E-13
 -1      3866 2.01469E+01 9.83470E-01-1.41000E-03-4.82156E-01 1.41545E-13-9.19141E-14
 -1      3867 2.01886E+01 1.05892E+00 5.27720E-04-3.29435E-01 1.52282E-13-7.05484E-14
 -1      3868 2.01300E+01 1.22140E+00 1.35078E-03-2.66148E-01 1.57999E-13-1.17706E-13
 -1      3869 2.00238E+01 1.08809E+00 2.59198E-03-5.17484E-01 1.57783E-13-1.56515E-13
 -1      3870 1.84527E+01 7.61262E-01-9.29592E-03 1.57945E+00-3.81639E-17-2.27276E-14
 -1      3871 1.83883E+01 6.63676E-01 1.00869E-02 1.74980E+00 3.17190E-14-8.68244E-14
 -1      3872 1.81657E+01 9.39724E-01 8.09374E-03 1.36450E+00-9.14297E-15-1.01139E-13
 -1      3873 1.98693E+01 1.90587E+00-3.35339E-03 1.45055E-02 1.72752E-13-2.10695E-13
 -1      3874 2.00005E+01 3.60696E-02 1.93465E-04 7.83313E-03 3.76401E-14-1.92139E-13
 -1      3875 1.72327E+01-1.50151E+00 1.34663E-02-3.96227E+00-2.33948E-13-1.34597E-13
 -1      3876 1.84791E+01-1.49329E+00 3.89679E-02-3.55638E+00-2.04056E-13-1.36472E-13
 -1      3877 1.81394E+01-8.61946E-01 6.53341E-03-3.21808E+00-1.48330E-13-1.62306E-13
 -1      3878 1.63616E+01-8.36441E-01 9.87372E-03-3.55202E+00-2.24054E-13-1.81270E-13
 -1      3879 2.00006E+01 4.33529E-02-1.49275E-05 1.54871E-02-2.13550E-13 2.56726E-13
 -1      3880 1.98411E+01 1.78540E+00 5.17301E-03-7.41237E-02 1.51562E-13-1.97118E-13
 -1      3881 1.98317E+01 9.95835E-01-1.37119E-03 6.43086E-01-2.92471E-14-1.61951E-13
 -1      3882 1.97816E+01 9.03191E-01 5.76758E-04 7.69678E-01-1.99993E-14-1.54960E-13
 -1      3883 1.97386E+01 2.12341E+00-4.49280E-03 1.75133E-02 4.00774E-14-2.49920E-13
 -1      3884 1.98058E+01 2.04353E+00-2.54826E-03-9.94621E-03 8.30594E-16-2.58986E-13
 -1      3885 1.97432E+01 1.96926E+00 7.75472E-03 6.57019E-02 4.54719E-14-2.29216E-13
 -1      3886 1.54393E+01-3.20808E-01 2.74406E-02-3.13513E+00 1.59239E-13 2.63149E-13
 -1      3887 1.70027E+01-1.24088E+00-3.07031E-02-3.61107E+00 2.32268E-13 2.96974E-13
 -1      3888 1.96900E+01 8.15308E-01-1.81894E-03 8.87552E-01 1.07992E-15-1.37689E-13
 -1      3889 1.96418E+01 7.32304E-01 2.03739E-03 1.00890E+00 1.44289E-14-1.13742E-13
 -1      3890 1.96024E+01 9.67931E-01 1.80646E-03 7.66707E-01 1.13658E-15-1.33195E-13
 -1      3891 1.92790E+01 7.92280E-01-4.60463E-03 8.61225E-01 2.78647E-14-1.72368E-13
 -1      3892 1.92039E+01 8.29977E-01 1.10206E-03 9.55447E-01-6.21840E-14-5.19297E-14
 -1      3893 1.88994E+01 9.35130E-01 5.27462E-03 9.00584E-01-8.10228E-14-1.04185E-13
 -1      3894 1.91675E+01 8.50902E-01 4.33817E-03 7.37513E-01 3.57949E-14-2.38656E-13
 -1      3895 2.15516E+01-2.83868E+00 5.64928E-02-2.74192E+00 2.59077E-13-9.83126E-14
 -1      3896 1.99488E+01 1.23338E+00 2.96538E-03 3.88605E-01-5.66761E-14-1.48025E-13
 -1      3897 1.99014E+01 1.10287E+00-1.05291E-03 5.26562E-01-4.12343E-14-1.50321E-13
 -1      3898 1.97618E+01 1.16340E+00 1.06830E-03 5.35708E-01-3.65561E-14-1.54755E-13
 -1      3899 2.25357E+01-3.65873E+00 2.45920E-02 2.83263E+00 1.01146E-13 5.39870E-14
 -1      3900 1.88749E+01 8.41591E-01 3.50079E-03-1.48142E+00 1.77120E-14-1.73382E-13
 -1      3901 1.89909E+01 8.86970E-01-6.16246E-03-1.34470E+00 2.94923E-14-1.86494E-13
 -1      3902 1.53337E+01 3.15720E-01-2.43378E-03 2.28552E+00-1.70350E-15-6.64191E-14
 -1      3903 1.94075E+01 7.96709E-01 1.04588E-03 1.00892E+00 4.10252E-14-7.88293E-14
 -1      3904 1.37728E+01 2.34545E-01 8.33700E-02-2.56217E+00-1.36518E-13-3.66793E-13
 -1      3905 1.48521E+01-1.95934E-01 3.52347E-02-3.00552E+00-2.01025E-13-2.73507E-13
 -1      3906 1.36919E+01 5.09742E-01 1.14564E-03-1.79217E+00-6.37268E-14-2.94740E-13
 -1      3907 1.45982E+01 5.60177E-01-1.25026E-02-1.87860E+00 1.24289E-13 2.52388E-13
 -1      3908 1.49399E+01 1.74618E-01 2.98734E-02-2.63609E+00 5.83995E-14 2.07716E-13
 -1      3909 1.61791E+01-1.31438E-02 2.91528E-02-2.60186E+00 1.21704E-13 9.96200E-14
 -1      3910 1.72313E+01 2.79893E-01 1.68540E-02 2.39167E+00 2.48430E-14-1.69109E-13
 -1      3911 2.04844E+01-2.03924E+00 2.72563E-02 2.79885E+00 1.32528E-13-4.92126E-14
 -1      3912 2.11434E+01-2.61101E+00 2.02821E-02 2.80215E+00 1.31065E-13-2.51205E-14
 -1      3913 1.94808E+01 9.78142E-01-2.27357E-04-9.85862E-01 5.34746E-14-1.72560E-13
 -1      3914 1.95803E+01 1.00926E+00-2.80355E-03-8.61821E-01 8.66793E-14-1.59416E-13
 -1      3915 1.94872E+01 8.34881E-01 2.35574E-03-1.29078E+00 4.06820E-14-1.71393E-13
 -1      3916 1.81324E+01-1.18683E+00 3.07734E-02-3.19428E+00 1.64508E-13 2.35484E-13
 -1      3917 1.86915E+01-1.82550E+00 5.11882E-02-3.58274E+00 2.71845E-13 2.91624E-13
 -1      3918 1.97104E+01 1.05249E+00-1.16568E-03-7.50719E-01 9.17710E-14-1.55517E-13
 -1      3919 1.97927E+01 1.11019E+00-1.46337E-03-6.18417E-01 1.08025E-13-1.54907E-13
 -1      3920 1.95177E+01 1.14469E+00 4.38041E-03-7.10128E-01 8.21332E-14-1.57313E-13
 -1      3921 1.99968E+01 4.72821E-02 1.37889E-04-9.78477E-03 2.48108E-13-6.24658E-13
 -1      3922 1.99974E+01 4.18345E-02-7.50308E-05-7.52431E-03 1.00977E-13-7.21923E-13
 -1      3923 1.99962E+01 4.38655E-02-9.40280E-05-5.77832E-03 2.39111E-13-7.75547E-13
 -1      3924 1.75126E+01-4.25549E-01 2.42160E-03-3.01707E+00-1.31392E-13-1.78497E-13
 -1      3925 1.82715E+01-3.86017E-01 2.08225E-02-2.82206E+00-8.54763E-14-1.99834E-13
 -1      3926 1.81963E+01-8.80752E-03-3.17426E-03-2.54125E+00-8.84076E-14-1.48842E-13
 -1      3927 2.00113E+01 1.35453E+00-2.41246E-03-2.60304E-01 1.60192E-13-1.70288E-13
 -1      3928 1.89549E+01-2.48482E+00 7.12519E-02 4.08860E+00 1.91028E-13-5.00676E-14
 -1      3929 1.82013E+01-1.78898E+00 3.64137E-02 3.74610E+00 1.22831E-13-6.87332E-14
 -1      3930 1.50732E+01-1.10826E-01 7.44211E-02 2.96310E+00 1.13172E-13-1.35751E-13
 -1      3931 1.46827E+01 2.47799E-01-3.01253E-03 2.26450E+00 7.10044E-14-1.99596E-13
 -1      3932 1.99040E+01 1.44712E+00-1.33634E-03 2.57805E-01-4.33348E-14-1.88685E-13
 -1      3933 2.01138E+01-2.60748E+00-3.96333E-02-3.32689E+00 2.87667E-13 2.32123E-13
 -1      3934 1.98302E+01 1.56131E+00-3.10046E-03-1.86123E-01 1.51881E-13-1.76700E-13
 -1      3935 1.97305E+01 1.73555E+00-1.74043E-03-1.22201E-01 1.26311E-13-1.93193E-13
 -1      3936 1.99946E+01 4.80560E-02-1.36384E-04 4.60983E-03 2.51867E-13-4.79685E-13
 -1      3937 1.99956E+01 4.65348E-02-1.39656E-04 6.64925E-03 8.77948E-14-4.09183E-13
 -1      3938 1.93924E+01-1.74347E+00-5.33466E-02 3.07583E+00 1.17537E-13-6.61225E-14
 -1      3939 1.76885E+01 7.73382E-01 9.04988E-03 1.73311E+00 4.57028E-14-1.75603E-13
 -1      3940 1.39075E+01 9.49793E-01-2.55462E-02 7.34980E-01 1.22986E-13 2.94558E-13
 -1      3941 1.32684E+01 1.05799E+00 7.09897E-02-2.11017E-02 3.03371E-14 3.42464E-13
 -1      3942 1.38791E+01 9.62903E-01 9.50891E-03-6.61369E-01 9.27860E-14 2.72019E-13
 -1      3943 1.99965E+01 4.70728E-02-1.22350E-04 1.02034E-02-4.65768E-14-3.34462E-13
 -1      3944 1.99984E+01 4.42867E-02-1.50661E-04 1.21936E-02-1.17572E-13-1.15934E-13
 -1      3945 1.99972E+01 5.61424E-02 2.37587E-04 1.85183E-02-1.45416E-13 1.09805E-13
 -1      3946 1.99939E+01 5.70177E-02 1.94536E-04 1.10872E-02 3.16840E-14-2.05027E-13
 -1      3947 1.88234E+01 1.96865E-01-6.50230E-03-2.26532E+00-4.16892E-14-1.30951E-13
 -1      3948 1.30144E+01 8.69236E-01 6.70361E-02 4.18336E-01 6.29627E-14-2.85938E-13
 -1      3949 1.35375E+01 8.59933E-01 4.22762E-03-3.75053E-01 2.45273E-14-2.73840E-13
 -1      3950 1.38553E+01 7.66489E-01 4.55437E-03 1.00091E+00 7.90275E-14-2.60059E-13
 -1      3951 1.99940E+01 4.86313E-02-8.56736E-05 7.97809E-05 3.23484E-13 6.30832E-14
 -1      3952 1.99942E+01 4.86926E-02-8.02755E-05 1.94784E-03 2.18976E-13-4.29289E-13
 -1      3953 1.99924E+01 5.70237E-02 1.71338E-04 4.46448E-03 1.62231E-13-3.86906E-13
 -1      3954 1.96666E+01 1.62338E+00 4.87167E-03-1.59936E-01 1.09156E-13-1.85160E-13
 -1      3955 1.96690E+01 1.79910E+00-3.29987E-03-5.96069E-02 1.31577E-13-1.87091E-13
 -1      3956 1.96314E+01 1.84161E+00-4.32392E-03-3.11554E-02 1.19838E-13-1.78403E-13
 -1      3957 1.85243E+01 6.70910E-01 7.66370E-03-1.79754E+00-1.98163E-14-1.76044E-13
 -1      3958 1.86246E+01 7.67431E-01-8.50943E-03-1.63281E+00 9.03975E-15-1.83296E-13
 -1      3959 1.84119E+01 9.42690E-01 6.82036E-03-1.39925E+00 6.18787E-15-1.58383E-13
 -1      3960 1.98809E+01 1.78873E+00 6.54513E-03 8.52899E-02-2.38424E-14-2.30512E-13
 -1      3961 1.59379E+01-6.00606E-01 2.25950E-02 3.23246E+00 1.26435E-13-5.00537E-14
 -1      3962 2.14183E+01-3.13638E+00 2.01192E-02 3.09883E+00 1.40994E-13 1.25629E-14
 -1      3963 1.98016E+01 1.56357E+00-4.73362E-03 2.36896E-01-6.47084E-15-1.93537E-13
 -1      3964 1.61953E+01 4.43350E-01-7.56530E-03 2.15512E+00 5.74020E-15-1.27877E-13
 -1      3965 1.48653E+01 9.76129E-01 6.03329E-02 1.44927E+00 7.55407E-14 1.68361E-13
 -1      3966 1.49019E+01 1.03125E+00-8.67160E-03 8.12887E-01 6.92614E-14 2.55422E-13
 -1      3967 1.64637E+01 7.69380E-01-2.78095E-02 1.69852E+00 8.32384E-14-1.08233E-13
 -1      3968 1.72768E+01 9.82520E-01-1.67389E-02 1.29935E+00-3.58858E-14-7.72647E-14
 -1      3969 1.70210E+01 8.99440E-01 1.87852E-03 1.49603E+00 7.73752E-14-1.19043E-13
 -1      3970 1.62727E+01 1.08005E+00 2.92149E-02 1.21513E+00 1.64300E-15 7.04827E-14
 -1      3971 1.58039E+01-2.90803E-01 2.71283E-02-3.14992E+00-1.73886E-13-2.06156E-13
 -1      3972 1.68196E+01-3.34614E-01 2.87137E-02-3.02568E+00-1.30304E-13-1.99161E-13
 -1      3973 1.69147E+01 6.74903E-02-4.92552E-03-2.62284E+00-9.06692E-14-2.14236E-13
 -1      3974 1.53386E+01 2.42342E-01 2.11501E-02-2.53123E+00-1.25718E-13-2.59910E-13
 -1      3975 1.87107E+01 5.69858E-01-7.17223E-03 1.39834E+00 7.39772E-14-9.86820E-14
 -1      3976 1.86473E+01 4.36388E-01 8.83650E-03 1.57571E+00 4.86566E-14-6.26044E-14
 -1      3977 1.84316E+01 2.53485E-01-8.05640E-03 1.80367E+00 4.21468E-14-6.04447E-14
 -1      3978 1.84306E+01 4.39957E-02 1.51817E-02 2.02742E+00 5.80700E-14-7.13073E-14
 -1      3979 1.81359E+01 5.33078E-01 4.59052E-03 1.58320E+00 4.85114E-14 4.89203E-15
 -1      3980 1.82186E+01-2.31085E-01-4.44264E-03 2.34372E+00 8.74270E-14-5.69325E-14
 -1      3981 1.83844E+01-5.92879E-01 1.67515E-02 2.61541E+00 8.57986E-14-1.32481E-14
 -1      3982 1.77402E+01 1.56253E-01 1.43901E-02 2.13069E+00 6.61207E-14-3.56269E-14
 -1      3983 1.91999E+01 9.23951E-01 1.26211E-03-1.22173E+00 4.99455E-14-1.95962E-13
 -1      3984 1.93120E+01 9.49809E-01-4.26202E-03-1.09720E+00 4.58260E-14-1.98130E-13
 -1      3985 1.88559E+01 1.02437E+00 6.12646E-03-1.14200E+00 3.12322E-14-1.97598E-13
 -1      3986 1.96284E+01 5.31684E-01-2.24032E-03 3.07632E-01-9.69568E-14 3.93144E-13
 -1      3987 1.95734E+01 5.85759E-01-4.01259E-04 3.49591E-01-1.82490E-13 4.23158E-13
 -1      3988 1.78643E+01-6.84604E-01 8.08545E-03-2.84613E+00 1.57555E-13 2.72177E-13
 -1      3989 1.82685E+01 2.15484E-01 1.34094E-02-1.83279E+00-6.46154E-14 2.82883E-13
 -1      3990 1.82615E+01 3.92147E-01-7.92895E-03-1.61940E+00-9.29854E-14 2.63652E-13
 -1      3991 1.84523E+01 5.34090E-01 8.02576E-03-1.40787E+00-1.26111E-13 2.23757E-13
 -1      3992 1.84991E+01 6.27881E-01-7.22814E-03-1.24370E+00-2.09153E-14 1.53840E-13
 -1      3993 1.79664E+01 6.37343E-01 3.97616E-03-1.41807E+00-1.46623E-13 1.12504E-13
 -1      3994 1.86749E+01 6.98878E-01 4.63786E-03-1.08900E+00 6.36296E-14 1.23715E-13
 -1      3995 1.87460E+01 7.35923E-01-5.94668E-03-9.62363E-01 7.86241E-14 1.72860E-13
 -1      3996 1.83146E+01 7.97152E-01 4.29189E-03-1.06323E+00-2.18322E-14 2.04402E-13
 -1      3997 1.89013E+01 7.58115E-01 2.67180E-03-8.47967E-01 7.14937E-14 1.58262E-13
 -1      3998 1.89787E+01 7.57777E-01-4.77542E-03-7.49139E-01 1.59896E-13 1.43260E-13
 -1      3999 1.86299E+01 8.50383E-01 4.24611E-03-8.04652E-01 7.72184E-14 1.01746E-13
 -1      4000 1.91117E+01 7.48644E-01 1.47279E-03-6.62967E-01 1.08244E-13 6.38022E-14
 -1      4001 1.91861E+01 7.25121E-01-3.84076E-03-5.84580E-01 9.31927E-14 5.12560E-14
 -1      4002 1.89048E+01 8.34004E-01 3.78527E-03-6.14933E-01 8.24458E-14 5.41653E-14
 -1      4003 1.92979E+01 6.97059E-01 8.06455E-04-5.18373E-01 1.08568E-13 3.42494E-14
 -1      4004 1.93645E+01 6.60371E-01-3.10853E-03-4.55425E-01 7.31663E-14 2.01765E-14
 -1      4005 1.91388E+01 7.75325E-01 3.28828E-03-4.72132E-01 6.80646E-14-4.76434E-14
 -1      4006 1.94570E+01 6.22243E-01 4.38157E-04-4.03900E-01 4.06931E-14 4.31786E-14
 -1      4007 1.95140E+01 5.79510E-01-2.53762E-03-3.53018E-01-2.86156E-14 4.18883E-14
 -1      4008 1.93345E+01 6.92918E-01 2.80420E-03-3.62633E-01 3.55570E-14-2.21527E-13
 -1      4009 1.95893E+01 5.37537E-01 2.41697E-04-3.12720E-01-1.40273E-13 1.44532E-13
 -1      4010 1.96362E+01 4.93833E-01-2.04582E-03-2.71581E-01-9.85360E-14 1.12045E-13
 -1      4011 1.94951E+01 6.00058E-01 2.31550E-03-2.77647E-01-4.38040E-14-1.03295E-13
 -1      4012 1.96963E+01 4.52062E-01 1.36299E-04-2.39817E-01-7.72017E-14 3.60681E-15
 -1      4013 1.97340E+01 4.10228E-01-1.64014E-03-2.06710E-01-1.36934E-13-4.51441E-14
 -1      4014 1.96247E+01 5.06360E-01 1.91742E-03-2.11429E-01-1.01855E-13-2.11940E-13
 -1      4015 1.97809E+01 3.71364E-01 8.93511E-05-1.81999E-01-1.68987E-13 2.68551E-14
 -1      4016 1.98102E+01 3.33473E-01-1.31150E-03-1.55432E-01-1.19235E-13-7.71662E-14
 -1      4017 1.97272E+01 4.17522E-01 1.57327E-03-1.59498E-01-1.21547E-13-4.79301E-14
 -1      4018 1.98463E+01 2.98791E-01 6.92502E-05-1.36149E-01-1.76832E-13 7.93368E-14
 -1      4019 1.98684E+01 2.65753E-01-1.04269E-03-1.15090E-01-2.38906E-13-1.48166E-14
 -1      4020 1.98063E+01 3.37556E-01 1.28585E-03-1.19002E-01-7.53494E-14 2.32743E-13
 -1      4021 1.98957E+01 2.35908E-01 5.38679E-05-1.00087E-01-1.91348E-13-6.95158E-14
 -1      4022 1.99120E+01 2.07859E-01-8.23984E-04-8.35462E-02-1.53395E-13-5.08570E-14
 -1      4023 1.98663E+01 2.67688E-01 9.61894E-04-8.75414E-02-1.87521E-13 1.53571E-13
 -1      4024 1.99321E+01 1.82792E-01 5.05888E-05-7.20714E-02-3.08038E-14-1.60330E-13
 -1      4025 1.99438E+01 1.59581E-01-6.32191E-04-5.92760E-02 1.04166E-13-1.58543E-13
 -1      4026 1.99111E+01 2.08448E-01 7.38454E-04-6.30728E-02-1.32382E-13 1.65888E-13
 -1      4027 1.99582E+01 1.39037E-01 4.62046E-05-5.05834E-02 7.45248E-14-3.89650E-14
 -1      4028 1.99663E+01 1.20188E-01-4.79694E-04-4.08189E-02 1.69391E-13 4.92974E-14
 -1      4029 1.99436E+01 1.59371E-01 5.62020E-04-4.44975E-02 1.41941E-13 3.05603E-13
 -1      4030 1.99762E+01 1.03666E-01 4.58022E-05-3.43606E-02 2.92833E-13-1.27902E-13
 -1      4031 1.99815E+01 8.86609E-02-3.52341E-04-2.70347E-02 2.92261E-13-2.47544E-13
 -1      4032 1.99663E+01 1.19525E-01 4.17856E-04-3.04190E-02 1.09877E-13 2.37379E-13
 -1      4033 1.99881E+01 7.55950E-02 5.35583E-05-2.22498E-02 2.14520E-13-4.41887E-13
 -1      4034 1.99913E+01 6.39398E-02-2.01941E-04-1.69895E-02 2.55694E-13-3.91256E-13
 -1      4035 1.99816E+01 8.77704E-02 2.89831E-04-2.00209E-02 1.41131E-13-1.33383E-13
 -1      4036 1.99939E+01 5.83988E-02 1.09272E-04-1.45762E-02 2.94736E-13-4.29674E-13
 -1      4037 1.99949E+01 5.22920E-02-9.03439E-05-1.16271E-02 2.77273E-13-4.42267E-13
 -1      4038 1.99931E+01 5.51395E-02-6.32612E-05-9.12082E-03 2.59883E-13-8.35094E-13
 -1      4039 1.99894E+01 6.74975E-02 1.18486E-04-1.32507E-02 2.03449E-13-4.21135E-13
 -1      4040 1.99928E+01-2.86383E+00-4.21450E-02 3.69990E+00 1.65352E-13-7.54813E-14
 -1      4041 1.83885E+01 1.03941E+00-8.08884E-03 8.58191E-01-1.04941E-13-4.78484E-14
 -1      4042 1.82056E+01 1.05713E+00-1.26625E-03 9.58760E-01-9.11326E-14 1.41993E-14
 -1      4043 1.99516E+01 1.21852E+00-3.97693E-04-4.13310E-01 1.48819E-13-1.68380E-13
 -1      4044 1.98910E+01 1.43832E+00 2.19485E-03-2.80490E-01 1.59603E-13-1.80049E-13
 -1      4045 1.97671E+01 1.41823E+00-1.77871E-03-3.27818E-01 1.34481E-13-1.63476E-13
 -1      4046 1.98826E+01 1.16070E+00-2.49506E-03-5.26148E-01 1.33641E-13-1.66287E-13
 -1      4047 1.53533E+01 3.21284E-01-2.13365E-02 2.10955E+00 9.33338E-14-1.91552E-13
 -1      4048 1.45943E+01 6.94376E-01 6.80786E-02 1.65705E+00 8.45800E-14-2.59929E-13
 -1      4049 1.45957E+01 8.31672E-01 4.08863E-03 9.31854E-01 1.00441E-13-2.75506E-13
 -1      4050 1.92802E+01 9.36919E-01-4.50917E-03 8.33626E-01 3.76032E-14-1.11030E-13
 -1      4051 1.91831E+01 8.63127E-01 2.23947E-03 9.56282E-01 6.19772E-14-1.20844E-13
 -1      4052 1.94875E+01 6.40710E-01-2.79251E-03 3.85907E-01-2.25595E-13 3.60865E-13
 -1      4053 1.94152E+01 6.98651E-01-6.35184E-04 4.35001E-01-1.64665E-13 2.58681E-13
 -1      4054 1.94664E+01 6.54547E-01 2.99295E-03 3.02981E-01-2.09541E-13 3.97891E-13
 -1      4055 1.93047E+01 7.55726E-01-3.47956E-03 4.77112E-01-1.69426E-13 1.55034E-13
 -1      4056 1.92111E+01 8.14318E-01-8.78774E-04 5.34046E-01-1.14355E-13 1.01444E-13
 -1      4057 1.92775E+01 7.75605E-01 3.90124E-03 3.72291E-01-2.28350E-13 4.12334E-13
 -1      4058 1.97355E+01 4.33207E-01-1.76794E-03 2.41312E-01-5.36875E-14 5.06097E-13
 -1      4059 1.96944E+01 4.81533E-01-2.04234E-04 2.76773E-01-5.06589E-14 4.78687E-13
 -1      4060 1.96125E+01 5.41706E-01 2.42358E-03 2.42984E-01-1.58230E-13 4.75296E-13
 -1      4061 1.98159E+01 3.46807E-01-1.40726E-03 1.85897E-01-1.90428E-13 7.62972E-13
 -1      4062 1.97858E+01 3.88906E-01-3.60074E-05 2.15316E-01-1.01514E-13 6.43997E-13
 -1      4063 1.97237E+01 4.40224E-01 1.88238E-03 1.91233E-01-2.11583E-13 6.17723E-13
 -1      4064 1.98752E+01 2.73118E-01-1.13936E-03 1.40401E-01-4.14002E-13 8.37188E-13
 -1      4065 1.98535E+01 3.08830E-01 3.03652E-05 1.64423E-01-2.67912E-13 7.52636E-13
 -1      4066 1.98071E+01 3.51637E-01 1.36247E-03 1.47653E-01-3.26833E-13 8.47830E-13
 -1      4067 1.99184E+01 2.11730E-01-9.05989E-04 1.03743E-01-4.26408E-13 6.96293E-13
 -1      4068 1.99031E+01 2.41307E-01 6.82869E-05 1.23021E-01-3.78178E-13 7.73201E-13
 -1      4069 1.98690E+01 2.76529E-01 1.00537E-03 1.11724E-01-2.49412E-13 6.66826E-13
 -1      4070 1.99491E+01 1.61505E-01-6.96005E-04 7.47365E-02-3.34361E-13 3.66953E-13
 -1      4071 1.99386E+01 1.85592E-01 9.86367E-05 8.99058E-02-4.45241E-13 4.36708E-13
 -1      4072 1.99141E+01 2.14028E-01 7.52168E-04 8.25113E-02-2.26241E-13 1.41549E-13
 -1      4073 1.99704E+01 1.21155E-01-5.30941E-04 5.22352E-02-5.03737E-14 2.82713E-13
 -1      4074 1.99634E+01 1.40421E-01 1.05886E-04 6.39745E-02-1.56732E-13 3.55310E-13
 -1      4075 1.99463E+01 1.62990E-01 5.82811E-04 5.94500E-02-1.78200E-13-5.11160E-14
 -1      4076 1.99844E+01 8.91710E-02-4.37536E-04 3.51081E-02 1.34872E-14 2.79669E-13
 -1      4077 1.99802E+01 1.04504E-01 1.39975E-04 4.40326E-02-6.22372E-14 2.15432E-13
 -1      4078 1.99687E+01 1.21862E-01 4.13657E-04 4.14798E-02-3.51153E-14-9.19439E-14
 -1      4079 1.99931E+01 6.53713E-02-2.78685E-04 2.28727E-02 3.41160E-14 2.43698E-13
 -1      4080 1.99906E+01 7.74763E-02 1.60719E-04 2.94699E-02 2.04960E-13 2.58300E-13
 -1      4081 1.99826E+01 9.10482E-02 2.53822E-04 2.83564E-02 5.76751E-14-5.77270E-14
 -1      4082 1.99915E+01 6.73798E-02 1.34195E-04 1.88739E-02 1.27971E-13-7.48893E-14
 -1      4083 1.96597E+01 1.72714E+00-3.75593E-03 1.59538E-01 3.33698E-14-1.91075E-13
 -1      4084 1.97214E+01 1.66088E+00-2.17448E-03 1.81838E-01 2.02312E-16-1.92287E-13
 -1      4085 1.97433E+01 1.38168E+00 5.18128E-03 3.54305E-01-1.71844E-14-1.76619E-13
 -1      4086 1.81692E+01 3.27579E-01 1.16388E-02-2.22414E+00-3.12566E-14-1.62441E-13
 -1      4087 1.82329E+01 5.26987E-01-9.25869E-03-2.00645E+00 1.64438E-15-1.40723E-13
 -1      4088 1.78840E+01 7.68621E-01 4.21546E-03-1.73503E+00-8.07346E-15-1.41918E-13
 -1      4089 1.78869E+01-1.18445E+00 2.26248E-02 3.34707E+00 9.02672E-14-3.50883E-14
 -1      4090 1.99951E+01 4.61666E-02-7.47613E-05-3.95986E-03 1.70443E-13-5.09808E-13
 -1      4091 1.99946E+01 4.71247E-02-1.00028E-04-2.25016E-03 2.07572E-13 2.25309E-14
 -1      4092 1.99920E+01 5.60487E-02 5.21138E-05-8.54644E-04 1.86669E-14-8.94558E-14
 -1      4093 1.99939E+01 5.23266E-02 1.39232E-04-5.39266E-03 1.87849E-13-5.02379E-13
 -1      4094 1.79002E+01 1.05562E+00-1.13087E-02 1.04231E+00-6.02907E-14-1.46465E-14
 -1      4095 1.76796E+01 1.03513E+00-3.48855E-04 1.17746E+00-6.19723E-14-8.41283E-14
 -1      4096 1.71446E+01 1.16918E+00 1.65549E-02 9.41710E-01-5.60443E-14 1.30198E-14
 -1      4097 1.78160E+01 1.16601E+00 1.13180E-02 7.77254E-01-9.59477E-14 2.23586E-14
 -1      4098 1.95166E+01 1.09658E+00-3.59044E-03 6.14510E-01-8.81687E-15-1.34785E-13
 -1      4099 1.94288E+01 1.01630E+00 8.25901E-04 7.27088E-01 1.27257E-14-1.36321E-13
 -1      4100 1.92227E+01 1.08108E+00 3.77176E-03 6.74801E-01 4.04417E-14-1.49880E-13
 -1      4101 1.90043E+01 7.78333E-01-5.81238E-03 1.08651E+00 6.39624E-14-1.06203E-13
 -1      4102 1.89135E+01 6.87425E-01 4.71124E-03 1.23018E+00 6.94562E-14-9.80601E-14
 -1      4103 1.85371E+01 7.74072E-01 3.15495E-03 1.19115E+00 8.20241E-14-7.52835E-14
 -1      4104 1.96188E+01 1.85728E+00-4.02642E-03 3.39399E-02 1.10493E-13-1.86976E-13
 -1      4105 1.96267E+01 1.84619E+00-4.55336E-03 5.46243E-02 7.57639E-14-2.11921E-13
 -1      4106 1.95953E+01 1.70630E+00 5.81625E-03-1.42900E-02 1.03623E-13-1.77641E-13
 -1      4107 1.96704E+01 1.28023E+00-2.66884E-03 4.30905E-01-9.77190E-15-1.72586E-13
 -1      4108 1.96028E+01 1.17411E+00 7.23429E-04 5.39481E-01-5.49971E-15-1.35103E-13
 -1      4109 1.94457E+01 1.22434E+00 4.00019E-03 4.99847E-01 3.11975E-15-1.49664E-13
 -1      4110 1.95833E+01 1.38700E+00 2.70167E-03 3.56817E-01-1.16056E-15-1.33525E-13
 -1      4111 1.70856E+01-2.39372E-01 1.53632E-03-2.67314E+00 1.50790E-13 1.23378E-13
 -1      4112 1.82271E+01-3.61080E-01 2.24155E-02-2.41764E+00 1.32832E-13 2.42982E-13
 -1      4113 1.80999E+01-5.23747E-02-4.97283E-03-2.14351E+00 6.63685E-14 2.35757E-13
 -1      4114 1.65242E+01 2.00706E-01-1.60433E-02-2.23775E+00 6.65841E-14 1.62257E-14
 -1      4115 1.93315E+01 1.18743E+00-2.47675E-03-6.34111E-01 8.71989E-14-1.93755E-13
 -1      4116 1.94642E+01 1.23504E+00-2.62592E-03-5.35206E-01 9.04314E-14-1.77080E-13
 -1      4117 1.38737E+01 8.85462E-01 5.72242E-02-1.02456E+00 1.49099E-14-2.04439E-13
 -1      4118 1.43386E+01 6.23740E-01-6.53889E-03-1.66910E+00-4.72929E-14-2.40804E-13
 -1      4119 1.42637E+01 9.46882E-01 1.32646E-02-3.48027E-01 2.78193E-14-2.41450E-13
 -1      4120 1.45810E+01 9.48739E-01 4.15572E-02-1.21920E+00 9.73798E-14 3.68210E-13
 -1      4121 1.54654E+01 7.55470E-01 1.29891E-02-1.54433E+00 7.34291E-14 2.91894E-13
 -1      4122 1.47042E+01 1.05174E+00-2.21815E-02-4.73173E-01 1.04385E-13 2.56539E-13
 -1      4123 1.92237E+01 1.07578E+00 5.19377E-03-9.21724E-01 7.10342E-14-1.87833E-13
 -1      4124 1.90346E+01 8.98498E-01 5.03230E-03 4.51025E-01-1.53837E-13 1.05826E-13
 -1      4125 1.90694E+01 8.69355E-01-4.44543E-03 5.82864E-01-3.92104E-15-1.06605E-13
 -1      4126 1.89503E+01 9.23553E-01-1.05599E-03 6.49242E-01 2.62774E-14-1.88403E-13
 -1      4127 1.85377E+01 1.08762E+00-8.57724E-04-9.86229E-01 1.34783E-15-1.64403E-13
 -1      4128 1.87406E+01 1.10674E+00-6.46586E-03-8.82112E-01 2.85155E-14-1.83842E-13
 -1      4129 1.76149E+01 2.93129E-01 2.11772E-03-1.94476E+00 3.75803E-14 3.14649E-14
 -1      4130 1.97382E+01 1.24592E+00 4.05171E-03-5.15344E-01 1.09524E-13-1.43882E-13
 -1      4131 1.96031E+01 1.60535E+00 3.52717E-03 1.69958E-01 4.33607E-14-1.58251E-13
 -1      4132 1.91485E+01 1.15295E+00-4.33518E-03-7.08833E-01 7.96452E-14-1.85392E-13
 -1      4133 1.91392E+01 1.25917E+00 6.80077E-03-5.26855E-01 7.67533E-14-2.10654E-13
 -1      4134 1.89813E+01 1.12871E+00-1.94055E-03-8.05571E-01 6.25483E-14-2.18993E-13
 -1      4135 1.96835E+01 1.34084E+00-1.12665E-03-3.94867E-01 1.10830E-13-1.70799E-13
 -1      4136 1.96445E+01 1.46258E+00 2.03132E-03-2.98873E-01 1.13591E-13-1.82344E-13
 -1      4137 1.95845E+01 1.28073E+00-3.45066E-03-4.80319E-01 9.51653E-14-1.67798E-13
 -1      4138 1.66809E+01-1.75229E-02 2.28076E-02 2.55501E+00 6.14153E-14-3.72974E-14
 -1      4139 1.63060E+01 2.73315E-01-9.74911E-03 2.07867E+00 8.17228E-14-1.08543E-13
 -1      4140 1.87692E+01 9.69849E-01-5.86890E-03 7.07120E-01 3.65569E-14-1.71033E-13
 -1      4141 1.86205E+01 1.01175E+00-1.11543E-03 7.86548E-01-6.60757E-14-8.35517E-14
 -1      4142 1.83276E+01 1.10883E+00 8.44188E-03 6.50284E-01-6.05865E-14 7.99055E-14
 -1      4143 1.87239E+01 1.01419E+00 6.50939E-03 5.41641E-01 4.13974E-14-1.65200E-15
 -1      4144 1.75751E+01 3.34234E-01-6.09907E-03-2.27823E+00-2.82018E-14-1.66556E-13
 -1      4145 1.99892E+01 6.62801E-02 3.65055E-05 9.24288E-03 6.58700E-14-1.66992E-13
 -1      4146 1.99894E+01 6.65625E-02-2.48570E-04 1.32955E-02 3.76080E-14-1.08422E-13
 -1      4147 1.99859E+01 7.75046E-02-6.43219E-05 1.74972E-02 1.76805E-13-2.26120E-13
 -1      4148 1.89054E+01 9.41307E-01 3.87850E-03 9.01579E-01 6.58684E-14-1.32680E-13
 -1      4149 1.95671E+01 1.52170E+00-4.49489E-03-2.16014E-01 1.18407E-13-1.95929E-13
 -1      4150 1.69148E+01-6.43653E-01 5.05089E-03 3.15133E+00 9.67768E-14-1.10207E-14
 -1      4151 1.79898E+01 1.01930E+00 1.00876E-03-1.20636E+00-2.47389E-14-1.19958E-13
 -1      4152 1.82265E+01 1.05719E+00-9.62377E-03-1.07825E+00-4.47342E-15-1.55290E-13
 -1      4153 1.81920E+01 1.18030E+00 1.10800E-02-8.01025E-01-1.26670E-14-1.04785E-13
 -1      4154 1.99876E+01 6.78052E-02 5.17019E-05 2.06617E-03 3.92188E-14-1.98881E-13
 -1      4155 1.99879E+01 6.69446E-02-1.16706E-04 5.34992E-03 8.50513E-14-3.35614E-13
 -1      4156 1.99845E+01 7.80936E-02 2.32646E-04 7.00969E-03 1.51043E-14-3.32009E-13
 -1      4157 1.75332E+01 7.68013E-01 7.91607E-03-1.29861E+00-1.16138E-14 7.66451E-14
 -1      4158 1.76831E+01 8.36296E-01-1.74540E-02-1.11095E+00-7.23953E-14 2.12045E-13
 -1      4159 1.78513E+01 7.73850E-01-1.31304E-02 1.21756E+00 6.90960E-14-1.01836E-13
 -1      4160 1.76375E+01 6.57009E-01-2.91922E-04 1.44562E+00 5.99961E-14-8.06634E-14
 -1      4161 1.70741E+01 4.29961E-01 1.80583E-02-2.19484E+00-3.25332E-14-1.86827E-13
 -1      4162 1.70340E+01 6.99582E-01-8.22861E-03-1.83308E+00 2.52050E-14-1.33863E-13
 -1      4163 1.63259E+01 4.53285E-01-7.56505E-03-2.19992E+00-3.68134E-14-2.08349E-13
 -1      4164 1.71511E+01 5.71069E-01-2.06746E-02 1.57411E+00 5.15998E-14-1.09807E-13
 -1      4165 1.69166E+01 3.78242E-01-4.51450E-03 1.89271E+00 6.90307E-14-1.19209E-13
 -1      4166 1.59139E+01 8.07990E-01 3.33850E-02 1.40636E+00 1.04132E-13-2.73036E-13
 -1      4167 1.70271E+01 8.81093E-01 2.01144E-02 1.16652E+00 6.20618E-14-2.32533E-13
 -1      4168 1.69956E+01 4.58789E-01 1.43604E-02-1.85878E+00 3.98830E-14 5.88684E-15
 -1      4169 1.71386E+01 6.34347E-01-1.66656E-02-1.54790E+00 9.23567E-15-3.96134E-14
 -1      4170 1.69756E+01 9.09729E-01 1.59120E-02-1.19306E+00 4.26163E-14 9.53387E-14
 -1      4171 1.61417E+01 6.30147E-01 1.71447E-02-1.79206E+00 3.20897E-14 7.11050E-14
 -1      4172 1.97150E+01 4.26794E-01-1.37991E-03 1.34903E-01-2.63551E-13 3.23974E-13
 -1      4173 1.96663E+01 4.75720E-01-6.98726E-04 1.55817E-01-1.34806E-13 3.14431E-13
 -1      4174 1.94386E+01 1.34284E+00 5.58364E-03-4.12695E-01 1.01977E-13-2.07846E-13
 -1      4175 1.91700E+01 1.17867E+00-5.91685E-03 4.85197E-01 3.83532E-14-1.07892E-13
 -1      4176 1.90326E+01 1.11887E+00 4.76128E-04 5.78795E-01 7.26436E-14-1.10313E-13
 -1      4177 1.79912E+01 9.01205E-01 3.40494E-03-9.43890E-01-1.83919E-13 3.00859E-13
 -1      4178 1.81448E+01 9.21153E-01-1.12241E-02-8.09434E-01-2.72324E-16 2.62395E-13
 -1      4179 1.76036E+01 1.05492E+00 2.08348E-02-8.13758E-01-6.91357E-14 4.31660E-13
 -1      4180 1.83858E+01 9.33452E-01 7.53768E-04-6.98299E-01 1.27261E-13 1.29294E-13
 -1      4181 1.85268E+01 9.21161E-01-8.19249E-03-6.01813E-01 7.74783E-14 1.99919E-13
 -1      4182 1.81225E+01 1.06009E+00 1.97378E-02-5.81746E-01-6.00887E-14 2.42997E-13
 -1      4183 1.87188E+01 9.05280E-01 6.43064E-05-5.22538E-01 1.33368E-15 1.44841E-13
 -1      4184 1.88414E+01 8.72088E-01-6.00020E-03-4.51077E-01-5.34024E-16 1.44486E-14
 -1      4185 1.85254E+01 1.01148E+00 1.52014E-02-4.20081E-01-1.76399E-14 3.06040E-13
 -1      4186 1.89957E+01 8.37435E-01-3.46715E-04-3.93691E-01 4.56314E-15-7.35402E-14
 -1      4187 1.91002E+01 7.92159E-01-4.48796E-03-3.39471E-01 3.92175E-14-1.22336E-13
 -1      4188 1.88510E+01 9.28251E-01 1.15828E-02-3.04717E-01-4.93465E-14 1.26884E-13
 -1      4189 1.92241E+01 7.47186E-01-5.42313E-04-2.97552E-01 2.59521E-14-1.57609E-13
 -1      4190 1.93112E+01 6.96395E-01-3.39909E-03-2.55678E-01 4.63977E-14-2.28035E-13
 -1      4191 1.91149E+01 8.25420E-01 8.86719E-03-2.21975E-01 1.33135E-15-1.30938E-13
 -1      4192 1.94100E+01 6.47388E-01-5.85544E-04-2.24764E-01 1.19849E-14-1.80955E-13
 -1      4193 1.94815E+01 5.95694E-01-2.56093E-03-1.91957E-01 1.06772E-14-3.27749E-14
 -1      4194 1.93271E+01 7.14374E-01 6.64974E-03-1.62322E-01 4.77547E-14-1.10271E-13
 -1      4195 1.95597E+01 5.47155E-01-4.77294E-04-1.69002E-01-8.80529E-14-1.38485E-13
 -1      4196 1.96184E+01 4.98237E-01-1.38220E-03-1.42556E-01-1.26842E-13-1.65066E-13
 -1      4197 1.94947E+01 6.01814E-01 3.81164E-03-1.19593E-01-8.06599E-14-6.45446E-14
 -1      4198 1.96781E+01 4.51259E-01-5.30222E-04-1.27524E-01-4.68585E-14-2.34537E-13
 -1      4199 1.97228E+01 4.07302E-01-1.38021E-03-1.07045E-01 6.94363E-15-1.05633E-13
 -1      4200 1.96311E+01 4.94198E-01 2.07572E-03-8.81929E-02-3.48681E-14-1.12208E-13
 -1      4201 1.97701E+01 3.65995E-01-2.42507E-04-9.44005E-02 4.34689E-14-9.13843E-15
 -1      4202 1.98037E+01 3.26516E-01-1.30754E-03-7.87746E-02-7.59962E-14 3.79534E-14
 -1      4203 1.97338E+01 4.03802E-01 1.96310E-03-6.31286E-02 3.95341E-14-2.92521E-13
 -1      4204 1.98394E+01 2.91196E-01-3.12153E-04-6.90599E-02-1.56962E-13 7.84745E-14
 -1      4205 1.98654E+01 2.57747E-01-8.56691E-04-5.66108E-02-1.43126E-13 9.77463E-14
 -1      4206 1.98126E+01 3.24249E-01 1.97524E-03-4.45102E-02-1.45542E-14-3.51669E-13
 -1      4207 1.98917E+01 2.27305E-01-3.06199E-04-4.98093E-02-1.63583E-13 2.53262E-13
 -1      4208 1.99109E+01 1.99424E-01-6.34547E-04-4.02071E-02-1.12325E-14 3.66868E-13
 -1      4209 1.98731E+01 2.54068E-01 1.67377E-03-3.17396E-02-7.36033E-14 3.05038E-15
 -1      4210 1.99299E+01 1.74365E-01-2.24582E-04-3.51967E-02 1.13007E-13 2.20367E-13
 -1      4211 1.99438E+01 1.51713E-01-3.74820E-04-2.77716E-02 1.56173E-13 3.13691E-13
 -1      4212 1.99163E+01 1.95238E-01 9.84719E-04-2.25364E-02-3.38344E-14 2.87337E-13
 -1      4213 1.99570E+01 1.31249E-01-1.40660E-04-2.44347E-02 8.06455E-14 2.30165E-13
 -1      4214 1.99664E+01 1.13044E-01-3.45068E-04-1.88886E-02 7.18872E-14 6.04164E-14
 -1      4215 1.99479E+01 1.46440E-01 4.29783E-04-1.51658E-02 4.07755E-14-7.62120E-14
 -1      4216 1.95093E+01 1.61570E+00 9.96604E-04 7.71401E-02 9.44415E-14-1.50944E-13
 -1      4217 1.95245E+01 1.49781E+00-4.34982E-03 1.94669E-01 3.40895E-14-1.19421E-13
 -1      4218 1.94679E+01 1.41687E+00 6.65301E-04 2.55984E-01 3.53355E-14-1.11287E-13
 -1      4219 1.94522E+01 6.38093E-01-2.58081E-03 2.11901E-01-1.46184E-13 3.28687E-13
 -1      4220 1.93690E+01 6.98156E-01-1.57359E-03 2.38796E-01-8.97948E-14 3.42444E-13
 -1      4221 1.83753E+01 9.35579E-01-1.12530E-02 9.00784E-01 7.92298E-14-1.39628E-13
 -1      4222 1.81879E+01 8.63214E-01 7.31188E-04 1.05607E+00 8.36744E-14-1.21304E-13
 -1      4223 1.77666E+01 9.65113E-01-1.72254E-03 9.17465E-01 9.05058E-14-2.09025E-13
 -1      4224 1.56533E+01 1.09281E+00-1.30428E-02 7.94554E-01 6.41462E-14 1.83777E-13
 -1      4225 1.50778E+01 1.23337E+00 3.95024E-02 1.63300E-01 9.99290E-14 2.23778E-13
 -1      4226 1.55138E+01 1.14530E+00 1.12349E-03-3.38233E-01 1.08864E-13 2.77428E-13
 -1      4227 1.61758E+01 1.16111E+00-1.92176E-02 6.52944E-01-3.25044E-15 2.03757E-13
 -1      4228 1.96018E+01 5.26416E-01-1.76414E-03 1.70688E-01-1.94721E-13 4.53839E-13
 -1      4229 1.95367E+01 5.80805E-01-1.45418E-03 1.94024E-01-1.72627E-13 3.51366E-13
 -1      4230 1.96123E+01 5.22878E-01 3.10801E-03 1.11617E-01-1.19227E-13 2.18400E-13
 -1      4231 1.92603E+01 7.57767E-01-3.34819E-03 2.57497E-01-2.02497E-13 3.06939E-13
 -1      4232 1.91528E+01 8.20444E-01-2.24122E-03 2.86900E-01-2.76496E-13 3.12212E-13
 -1      4233 1.92819E+01 7.64685E-01 8.40456E-03 1.63815E-01-1.99755E-13 3.12226E-13
 -1      4234 1.97996E+01 3.40654E-01-1.29199E-03 1.04754E-01-2.23597E-13 2.42103E-13
 -1      4235 1.97648E+01 3.82826E-01-2.17336E-04 1.22907E-01-3.45430E-13 2.26508E-13
 -1      4236 1.97225E+01 4.21198E-01 1.75557E-03 8.85919E-02-2.42089E-13-7.83678E-14
 -1      4237 1.98633E+01 2.67060E-01-1.10038E-03 7.89858E-02-1.37138E-13 9.72807E-14
 -1      4238 1.98376E+01 3.02580E-01-2.55089E-04 9.37256E-02-1.57565E-13 1.80064E-13
 -1      4239 1.98048E+01 3.37667E-01 1.76314E-03 6.97030E-02-9.61011E-14-2.35109E-13
 -1      4240 1.99100E+01 2.06094E-01-8.40503E-04 5.81632E-02-6.46944E-14-2.28558E-13
 -1      4241 1.98915E+01 2.35507E-01-1.56474E-04 7.00834E-02-1.18752E-14-7.97696E-14
 -1      4242 1.98683E+01 2.65318E-01 1.90581E-03 5.35836E-02 1.03433E-13-3.91995E-13
 -1      4243 1.99438E+01 1.56363E-01-5.01660E-04 4.16225E-02-3.43719E-14-2.79314E-13
 -1      4244 1.99304E+01 1.80019E-01-1.54204E-04 5.09338E-02-1.36606E-13-2.59549E-13
 -1      4245 1.99134E+01 2.04379E-01 1.37052E-03 3.98477E-02-3.34758E-14-4.07009E-13
 -1      4246 1.99665E+01 1.16817E-01-3.99016E-04 2.87583E-02-6.54419E-14-3.45592E-13
 -1      4247 1.99575E+01 1.35670E-01-7.96447E-05 3.62120E-02-3.65419E-15-2.44707E-13
 -1      4248 1.99457E+01 1.53049E-01 4.60779E-04 2.80006E-02-7.36411E-14-3.22562E-13
 -1      4249 1.88150E+01 1.05541E+00-8.45100E-03 6.66106E-01 7.58404E-14-1.39475E-13
 -1      4250 1.86523E+01 1.00303E+00 1.67601E-03 7.82106E-01 6.86150E-14-1.43395E-13
 -1      4251 1.88241E+01 1.19601E+00 1.32514E-02 4.71808E-01 6.09064E-14-1.11574E-13
 -1      4252 1.53514E+01 8.77435E-01-1.37941E-02 9.60610E-01 1.10635E-13-2.46299E-13
 -1      4253 1.49211E+01 1.03663E+00 2.15240E-02 3.61365E-01 8.95847E-14-2.63640E-13
 -1      4254 1.60451E+01 9.43047E-01-3.67306E-03 8.83996E-01 7.93133E-14-2.79101E-13
 -1      4255 1.87254E+01 1.20937E+00 8.28709E-03-6.58900E-01 2.74209E-14-1.57826E-13
 -1      4256 1.94594E+01 1.42785E+00 1.10070E-03-2.43386E-01 1.24759E-13-1.99567E-13
 -1      4257 1.95014E+01 1.56387E+00 2.19445E-03-1.08698E-01 1.16751E-13-1.75220E-13
 -1      4258 1.94704E+01 1.57789E+00-2.90043E-03-2.50533E-02 9.48495E-14-1.90385E-13
 -1      4259 1.73261E+01 8.79873E-01 9.97032E-03-1.50717E+00 2.21503E-14-1.65257E-13
 -1      4260 1.75912E+01 9.60623E-01-1.15295E-02-1.33230E+00-7.99404E-15-1.39845E-13
 -1      4261 1.75070E+01 1.12524E+00 1.18911E-02-9.81987E-01-7.34547E-15-1.34850E-13
 -1      4262 1.93270E+01 1.36544E+00-5.24832E-03-2.84703E-01 1.01439E-13-2.09173E-13
 -1      4263 1.52612E+01 5.81869E-01 2.22251E-02-1.86730E+00-4.79339E-14-2.06952E-13
 -1      4264 1.90141E+01 8.80964E-01-4.21300E-03 3.06822E-01-2.93081E-13 3.54966E-13
 -1      4265 1.88755E+01 9.42623E-01-3.11958E-03 3.38782E-01-1.78892E-13 2.13882E-13
 -1      4266 1.90437E+01 8.93880E-01 1.11067E-02 1.88397E-01-2.71998E-13 4.12727E-13
 -1      4267 1.99774E+01 9.12933E-02 9.68534E-05 5.69869E-03 5.56560E-15-1.91310E-13
 -1      4268 1.99785E+01 9.03316E-02 9.66519E-05 1.08181E-02-4.80133E-14-3.11939E-13
 -1      4269 1.67884E+01 9.33471E-01-1.47646E-03-1.40775E+00 4.04169E-15-1.50151E-13
 -1      4270 1.83638E+01 1.10888E+00 1.74341E-02 6.57731E-01 8.11396E-14-1.46553E-13
 -1      4271 1.71061E+01 1.20571E+00-1.08296E-02 5.59728E-01-1.22790E-13 1.65684E-13
 -1      4272 1.67174E+01 1.19583E+00-5.83276E-03 6.35126E-01-7.91407E-14 1.75305E-13
 -1      4273 1.63432E+01 1.26103E+00 1.99961E-02 2.33470E-01-2.19047E-14 3.08105E-13
 -1      4274 1.49330E+01 1.04638E+00-1.22553E-03-9.95140E-02 4.69592E-14-2.27071E-13
 -1      4275 1.51251E+01 1.01093E+00-3.93684E-03-7.25772E-01 3.78707E-14-1.93370E-13
 -1      4276 1.57267E+01 1.09607E+00 7.25074E-03-9.42862E-03 8.02791E-14-1.91639E-13
 -1      4277 1.99897E+01 6.38969E-02-2.74087E-05-8.30020E-03 1.12680E-13-3.40487E-13
 -1      4278 1.99915E+01 5.80707E-02-4.58301E-05-6.63274E-03 1.50077E-13-4.16280E-13
 -1      4279 1.99906E+01 6.04895E-02 2.54149E-05-4.47132E-03 1.55827E-15-1.18353E-13
 -1      4280 1.92964E+01 1.23857E+00-3.24432E-04 4.24783E-01 1.21657E-14-1.02486E-13
 -1      4281 1.91384E+01 1.29549E+00 1.02886E-02 3.36750E-01 5.04274E-14-2.53718E-14
 -1      4282 1.93687E+01 1.30206E+00-5.79198E-03 3.55024E-01 4.85241E-15-9.01567E-14
 -1      4283 1.99755E+01 9.69167E-02-7.86702E-05-1.61671E-02-5.11257E-14 8.83634E-14
 -1      4284 1.99817E+01 8.26205E-02-1.80610E-04-1.21247E-02 1.29291E-14-1.22859E-13
 -1      4285 1.99874E+01 7.01912E-02-5.50414E-05-1.05366E-02 7.01307E-14-2.54716E-13
 -1      4286 1.94662E+01 6.41150E-01 5.84411E-03 1.38274E-01-1.79675E-13 2.34075E-13
 -1      4287 1.84911E+01 1.21741E+00-5.89221E-03-4.67020E-01 7.21179E-15-1.29673E-13
 -1      4288 1.87338E+01 1.23591E+00-5.09830E-03-4.14416E-01 2.05049E-14-1.58476E-13
 -1      4289 1.99833E+01 7.94902E-02 2.29514E-04-6.84687E-03-6.48523E-14 8.95516E-15
 -1      4290 1.82939E+01 1.10239E+00-7.48754E-03 4.17785E-01-3.12818E-14 1.41936E-13
 -1      4291 1.80666E+01 1.14433E+00-5.79410E-03 4.59977E-01-8.14923E-14 1.25361E-13
 -1      4292 1.99734E+01 1.04512E-01 3.70736E-05 2.18732E-02-7.15769E-14-3.52869E-13
 -1      4293 1.99646E+01 1.17505E-01 3.26374E-05 1.61824E-02 2.76927E-14-3.66441E-13
 -1      4294 1.99790E+01 9.06961E-02-2.13040E-04 1.70944E-02 6.63603E-14-3.27605E-13
 -1      4295 1.89585E+01 1.26250E+00-4.92666E-03-3.90554E-01 4.31381E-14-1.81163E-13
 -1      4296 1.91448E+01 1.30197E+00-3.27647E-03-3.32807E-01 6.79865E-14-2.05957E-13
 -1      4297 1.88051E+01 1.30571E+00 1.15519E-02-2.09090E-01 2.11068E-14-1.60470E-13
 -1      4298 1.77784E+01 1.17487E+00-9.95021E-03 4.87454E-01-1.45368E-13 1.79413E-13
 -1      4299 1.74819E+01 1.19364E+00-7.68362E-03 5.32709E-01-1.64727E-13 1.68800E-13
 -1      4300 1.71944E+01 1.25271E+00 6.60150E-03 2.61268E-01-1.70968E-13 2.51017E-13
 -1      4301 1.78508E+01 1.23873E+00 2.43631E-02 2.37503E-01-1.16207E-13 1.50628E-13
 -1      4302 1.92112E+01 1.39729E+00 8.26088E-03-1.64208E-01 7.68046E-14-1.89085E-13
 -1      4303 1.58963E+01 8.84826E-01-2.30686E-02-1.20866E+00 7.20643E-14 3.73961E-13
 -1      4304 1.78941E+01 1.19405E+00-3.51538E-03-5.43121E-01-1.58057E-14-1.10640E-13
 -1      4305 1.81946E+01 1.20338E+00-7.52715E-03-4.87337E-01 7.67604E-15-1.14723E-13
 -1      4306 1.82941E+01 1.27283E+00 1.66313E-02-2.23151E-01 4.96369E-15-1.29099E-13
 -1      4307 1.99897E+01 6.19470E-02-8.29932E-05-1.96516E-03-1.97380E-14-3.16315E-14
 -1      4308 1.99690E+01 1.09332E-01 3.67388E-04-1.02070E-02-3.51505E-14-1.01889E-13
 -1      4309 1.99855E+01 7.26973E-02-5.00008E-05-1.74153E-03 8.86750E-15 1.01397E-14
 -1      4310 1.64769E+01 1.02246E+00 5.60181E-03-9.23918E-01 3.47701E-14 2.98044E-13
 -1      4311 1.68054E+01 1.07554E+00-1.97997E-02-7.06508E-01-5.36888E-14 2.79954E-13
 -1      4312 1.96252E+01 4.95640E-01-6.84737E-04 5.13750E-02-8.54753E-14 4.98442E-14
 -1      4313 1.95585E+01 5.53629E-01 7.80608E-04 5.89711E-02-1.21592E-13 1.01621E-13
 -1      4314 1.61399E+01 9.83195E-01 1.74866E-02-1.11571E+00 3.29005E-14-1.58009E-13
 -1      4315 1.64142E+01 1.08964E+00-7.44609E-03-7.91257E-01 2.55870E-14-1.59098E-13
 -1      4316 1.71216E+01 9.99977E-01 3.10298E-03 7.88085E-01 6.99147E-14-2.56092E-13
 -1      4317 1.65986E+01 9.45792E-01-1.52523E-02 8.58400E-01 5.21130E-14-2.81213E-13
 -1      4318 1.62255E+01 1.09366E+00 2.39335E-03 4.40596E-01 6.82479E-14-2.67321E-13
 -1      4319 1.73127E+01 1.14389E+00-7.04620E-03-3.45318E-01-1.35832E-13 2.85791E-13
 -1      4320 1.75890E+01 1.13435E+00-1.82097E-02-2.43037E-01-7.37535E-14 3.83852E-13
 -1      4321 1.94553E+01 6.13900E-01-3.14842E-03-1.98984E-03-1.27240E-13 2.68547E-14
 -1      4322 1.93677E+01 6.70906E-01-4.15112E-03 3.62225E-03-8.78662E-14 8.24053E-14
 -1      4323 1.86988E+01 9.99455E-01-5.50312E-03 3.59706E-01 3.84900E-14 1.96929E-13
 -1      4324 1.85210E+01 1.05498E+00-4.29377E-03 3.95157E-01 1.00598E-13 1.99055E-13
 -1      4325 1.83512E+01 1.14117E+00 1.94953E-02 2.27762E-01 2.11703E-14 2.47857E-13
 -1      4326 1.87397E+01 1.02226E+00 1.46912E-02 2.10428E-01-8.08555E-14 3.66195E-13
 -1      4327 1.70704E+01 1.13908E+00 2.54151E-03-6.88587E-01-3.55618E-16-1.50334E-13
 -1      4328 1.74281E+01 1.16033E+00-1.33721E-02-6.15440E-01-9.36718E-15-1.17148E-13
 -1      4329 1.75454E+01 1.25165E+00 1.75320E-02-2.54518E-01-7.13101E-15-1.29283E-13
 -1      4330 1.64717E+01 1.16933E+00 1.09061E-02-3.98841E-01 4.17882E-14-1.73055E-13
 -1      4331 1.99796E+01 8.51250E-02-2.33678E-04-2.85664E-03-2.38120E-14-2.56802E-14
 -1      4332 1.78818E+01 1.10612E+00-1.50055E-02-2.21548E-01-1.17772E-13 3.87946E-13
 -1      4333 1.81213E+01 1.08852E+00-1.49509E-02-1.43061E-01-1.15537E-13 3.22541E-13
 -1      4334 1.83551E+01 1.04268E+00-1.21886E-02-1.33367E-01-4.69437E-14 4.90529E-13
 -1      4335 1.85486E+01 1.00642E+00-1.11851E-02-7.74698E-02-1.10405E-14 4.71224E-13
 -1      4336 1.87310E+01 9.50033E-01-9.34808E-03-7.50945E-02-9.60850E-14 4.93096E-13
 -1      4337 1.88869E+01 9.02036E-01-8.22499E-03-3.58833E-02-8.07692E-14 4.70863E-13
 -1      4338 1.90298E+01 8.40643E-01-7.17979E-03-3.81452E-02-1.42217E-13 3.14591E-13
 -1      4339 1.91552E+01 7.87066E-01-6.02173E-03-1.06727E-02-1.28510E-13 1.77946E-13
 -1      4340 1.92670E+01 7.25377E-01-5.42978E-03-1.56256E-02-1.10926E-13 1.65269E-13
 -1      4341 1.95703E+01 5.32841E-01-1.16422E-03-5.29363E-02-1.33393E-13-1.80029E-13
 -1      4342 1.96313E+01 4.82885E-01-1.76160E-03-4.00940E-02-5.93533E-14-1.27545E-13
 -1      4343 1.97025E+01 4.26842E-01-9.66666E-05-2.52789E-02-3.93688E-14-1.84413E-13
 -1      4344 1.97458E+01 3.84899E-01-1.76420E-04-1.84702E-02 5.54479E-14-2.13923E-13
 -1      4345 1.97990E+01 3.28348E-01-1.25961E-03 7.49247E-03 1.50104E-13-2.73897E-13
 -1      4346 1.98343E+01 2.90964E-01-1.06397E-03 1.17019E-02 9.79737E-14-2.26695E-13
 -1      4347 1.98620E+01 2.56422E-01-1.39673E-03 6.34318E-03 1.25180E-13-2.29744E-13
 -1      4348 1.98886E+01 2.25990E-01-8.15929E-04 9.73733E-03 6.29493E-15-9.89551E-14
 -1      4349 1.99090E+01 1.97914E-01-8.92963E-04 5.36114E-03-2.14526E-13-3.91694E-14
 -1      4350 1.99286E+01 1.73137E-01-2.70040E-04 7.16106E-03-7.23361E-14-7.24954E-14
 -1      4351 1.93928E+01 1.49102E+00-3.36288E-03-1.84100E-02 9.35749E-14-1.65084E-13
 -1      4352 1.90919E+01 1.32172E+00-7.44028E-03 5.25303E-02 4.44570E-14-1.19069E-13
 -1      4353 1.92885E+01 1.40372E+00-1.87616E-03 6.87853E-02 8.28382E-14-1.22435E-13
 -1      4354 1.59288E+01 1.14428E+00 1.73626E-02-6.93223E-01 3.36290E-14 3.88919E-13
 -1      4355 1.99623E+01 1.19605E-01 1.17494E-04 5.30856E-03-1.20533E-15-1.79944E-13
 -1      4356 1.99555E+01 1.33603E-01 2.09886E-04 1.18024E-02-6.60357E-14-3.43571E-13
 -1      4357 1.99410E+01 1.55439E-01 1.90626E-05 1.53232E-02-1.25365E-13-3.13161E-13
 -1      4358 1.87335E+01 1.24003E+00-1.07706E-02 1.03998E-01 2.89088E-14-1.21378E-13
 -1      4359 1.85170E+01 1.20675E+00-6.96619E-03 1.66380E-01 2.96121E-14-1.41895E-13
 -1      4360 1.89653E+01 1.28098E+00-5.36998E-03 1.00918E-01 3.87149E-14-1.19816E-13
 -1      4361 1.93528E+01 1.43738E+00 7.42318E-03 1.80614E-01 6.51282E-14-7.36161E-14
 -1      4362 1.54889E+01 8.58760E-01 1.45452E-03-1.39649E+00 1.96647E-14-1.61368E-13
 -1      4363 1.60588E+01 1.18892E+00-1.85976E-02-1.34223E-01-5.88093E-15 3.65078E-13
 -1      4364 1.82122E+01 1.17457E+00-1.55487E-02 1.82399E-01 2.24263E-14-1.35096E-13
 -1      4365 1.79431E+01 1.14911E+00-9.34683E-03 2.73102E-01 3.62363E-14-1.55276E-13
 -1      4366 1.97411E+01 3.90397E-01-9.83788E-04 4.87621E-02-2.02333E-13-3.01434E-14
 -1      4367 1.96936E+01 4.35604E-01-1.15667E-03 5.76194E-02-1.34714E-13 1.28316E-13
 -1      4368 1.99736E+01 9.83187E-02-8.55607E-05 4.79895E-04 2.91953E-14-7.37551E-14
 -1      4369 1.68698E+01 1.15913E+00-1.08125E-02 9.29582E-02 2.83384E-14-2.11150E-13
 -1      4370 1.63600E+01 1.14979E+00-1.27191E-03 4.54211E-02 5.13456E-14-2.16632E-13
 -1      4371 1.96585E+01 4.68230E-01 1.02863E-03 9.43213E-03-9.59727E-14-2.68893E-14
 -1      4372 1.95341E+01 5.61108E-01-2.34834E-03 9.07695E-03-1.44137E-13-1.33054E-14
 -1      4373 1.99426E+01 1.50535E-01-3.03897E-04-9.35227E-03 2.02480E-14-1.01934E-14
 -1      4374 1.99556E+01 1.30014E-01-2.41175E-04-6.26960E-03 1.51324E-14-3.06263E-14
 -1      4375 1.75058E+01 1.12768E+00-9.24614E-03 2.86618E-01 3.21028E-14-1.87872E-13
 -1      4376 1.66289E+01 1.22182E+00 1.27228E-03-8.99697E-02-1.51607E-13 3.70192E-13
 -1      4377 1.97617E+01 3.69438E-01-7.82780E-04 1.20744E-02-1.42319E-14-1.98981E-13
 -1      4378 1.99650E+01 1.14942E-01-1.91611E-05-8.25462E-04 1.62010E-14-1.61649E-13
 -1      4379 1.70067E+01 1.24572E+00 1.02359E-02-7.75678E-02-1.32624E-13 2.67163E-13
 -1      4380 1.74790E+01 1.08726E+00 1.40215E-02 6.42291E-01 7.33679E-14-2.21346E-13
 -3
    1PSTEP                         3           1           1          
  100CL  101 1.000000000        4380                     0    1           1
 -4  TOSTRAIN    6    1
 -5  EXX         1    4    1    1
 -5  EYY         1    4    2    2
 -5  EZZ         1    4    3    3
 -5  EXY         1    4    1    2
 -5  EYZ         1    4    2    3
 -5  EZX         1    4    3    1
 -1         1 1.66848E-04-1.33121E-05-5.84949E-05 1.14061E-04-6.97045E-18-1.30977E-17
 -1         2 3.60014E-05-1.10267E-04 1.99695E-05 1.33605E-07 8.15935E-18 3.02444E-19
 -1         3 9.52380E-05-2.85701E-05-2.85718E-05 1.83564E-09-2.59050E-18-2.04559E-18
 -1         4 9.52379E-05-2.85703E-05-2.85718E-05-1.53002E-09 1.31243E-18 3.79724E-19
 -1         5 1.41958E-04-2.11870E-05-4.22989E-05 3.80502E-05-2.30552E-19 1.59340E-17
 -1         6 1.43936E-04 2.56588E-10-4.39459E-05-5.27962E-05-9.82135E-19 1.26920E-17
 -1         7 9.07836E-05-5.64697E-07-3.90504E-05-2.85302E-05-1.44101E-19 1.26351E-18
 -1         8 8.55443E-05 5.70054E-08-3.64706E-05-1.93063E-05-1.43254E-19-1.95788E-18
 -1         9 8.32545E-05 5.86521E-08-3.55132E-05-1.45073E-05-1.23693E-19-3.57959E-18
 -1        10 8.20846E-05 3.02143E-08-3.50080E-05-1.09029E-05-6.72002E-20-4.25503E-18
 -1        11 8.13664E-05 1.72750E-08-3.47107E-05-7.92332E-06-3.74415E-20-4.47416E-18
 -1        12 8.08933E-05 1.23169E-08-3.45220E-05-5.39589E-06-5.99871E-21-4.43477E-18
 -1        13 8.05851E-05 1.14402E-08-3.44023E-05-3.10124E-06 5.25756E-21-4.30790E-18
 -1        14 8.04333E-05 1.14933E-08-3.43443E-05-9.69794E-07 4.44494E-20-4.14151E-18
 -1        15 8.04347E-05 1.15375E-08-3.43452E-05 1.10604E-06 5.75519E-20-3.95964E-18
 -1        16 8.05910E-05 1.14486E-08-3.44054E-05 3.23401E-06 9.14051E-20-3.74006E-18
 -1        17 8.09078E-05 1.13825E-08-3.45279E-05 5.52690E-06 1.01184E-19-3.40957E-18
 -1        18 8.13917E-05 1.58676E-08-3.47200E-05 8.05843E-06 1.36108E-19-2.91189E-18
 -1        19 8.21245E-05 2.86084E-08-3.50229E-05 1.10632E-05 1.95142E-19-2.09591E-18
 -1        20 8.32964E-05 6.24097E-08-3.55331E-05 1.47158E-05 2.04797E-19-6.86934E-19
 -1        21 8.55234E-05 1.36234E-07-3.65118E-05 1.94999E-05 2.32537E-19 1.82988E-18
 -1        22 9.17266E-05-1.47393E-07-3.87195E-05 2.72803E-05 4.80691E-20 6.47858E-18
 -1        23 1.12636E-04-3.80221E-05-3.53056E-05-4.21065E-06-6.68309E-19 9.33261E-18
 -1        24 9.33576E-05-2.78701E-05-2.91498E-05 4.11096E-07-2.09538E-19 6.38054E-18
 -1        25 9.03970E-05-2.72408E-05-2.73094E-05 3.82072E-07-1.79068E-20 3.74734E-18
 -1        26 9.00700E-05-2.71101E-05-2.70141E-05 2.12587E-07 3.45000E-20 1.90889E-18
 -1        27 9.10309E-05-2.73694E-05-2.72919E-05 1.54748E-07-1.46296E-19 4.68965E-19
 -1        28 9.27306E-05-2.78560E-05-2.78150E-05 1.25573E-07-8.49618E-20-5.10265E-19
 -1        29 9.49356E-05-2.85032E-05-2.84851E-05 1.12912E-07 7.46667E-20-7.97316E-19
 -1        30 9.75202E-05-2.92692E-05-2.92638E-05 1.10421E-07-1.36810E-19-1.22436E-18
 -1        31 1.00382E-04-3.01199E-05-3.01208E-05 1.13924E-07 8.60167E-20-2.13933E-18
 -1        32 1.03387E-04-3.10135E-05-3.10140E-05 1.18717E-07-2.86130E-19-3.20697E-18
 -1        33 1.06317E-04-3.18845E-05-3.18756E-05 1.17519E-07 2.72921E-19-4.07965E-18
 -1        34 1.08829E-04-3.26303E-05-3.25994E-05 9.89993E-08-1.90481E-19-4.30997E-18
 -1        35 1.10427E-04-3.31040E-05-3.30371E-05 4.79884E-08-4.00943E-20-5.27858E-18
 -1        36 1.10498E-04-3.31246E-05-3.30145E-05-5.00510E-08 9.39867E-20-4.41170E-18
 -1        37 1.08469E-04-3.25218E-05-3.23809E-05-1.97267E-07-2.02026E-19-3.35514E-18
 -1        38 1.04103E-04-3.12233E-05-3.10953E-05-3.65757E-07-3.12090E-19-3.50646E-18
 -1        39 9.78795E-05-2.93688E-05-2.93231E-05-4.87091E-07 4.45431E-20-4.62525E-18
 -1        40 9.12153E-05-2.73783E-05-2.74729E-05-4.73382E-07-2.07071E-19-4.56707E-18
 -1        41 8.61838E-05-2.58726E-05-2.61014E-05-2.79269E-07 2.62157E-19-4.87542E-18
 -1        42 8.46427E-05-2.54111E-05-2.56867E-05 3.84107E-08 2.78313E-20-5.03448E-18
 -1        43 8.72249E-05-2.61847E-05-2.63889E-05 3.38781E-07-3.00288E-19-4.87330E-18
 -1        44 9.29664E-05-2.79028E-05-2.79639E-05 4.93590E-07 1.09251E-19-4.46926E-18
 -1        45 9.98772E-05-2.99664E-05-2.98967E-05 4.70924E-07 3.53260E-20-3.19313E-18
 -1        46 1.05987E-04-3.17867E-05-3.16520E-05 3.32744E-07-1.59293E-19-4.30242E-18
 -1        47 1.10103E-04-3.30115E-05-3.28774E-05 1.67015E-07-1.34332E-19-4.51230E-18
 -1        48 1.11954E-04-3.35625E-05-3.34651E-05 3.31447E-08 3.93357E-19-4.71447E-18
 -1        49 1.11896E-04-3.35467E-05-3.34933E-05-4.92374E-08 2.52891E-19-3.94638E-18
 -1        50 1.10540E-04-3.31458E-05-3.31267E-05-8.62633E-08-3.36593E-19-3.75016E-18
 -1        51 1.08486E-04-3.25364E-05-3.25382E-05-9.30217E-08-9.86812E-20-3.89454E-18
 -1        52 1.06193E-04-3.18549E-05-3.18665E-05-8.35868E-08 3.73290E-19-3.06658E-18
 -1        53 1.03963E-04-3.11909E-05-3.12050E-05-6.77223E-08 3.77200E-19-2.43097E-18
 -1        54 1.01964E-04-3.05942E-05-3.06073E-05-5.10405E-08 1.87852E-19-1.61991E-18
 -1        55 1.00267E-04-3.00870E-05-3.00974E-05-3.62272E-08-2.76957E-19-2.71267E-18
 -1        56 9.88862E-05-2.96731E-05-2.96808E-05-2.42282E-08 7.89027E-20-3.15247E-18
 -1        57 9.77985E-05-2.93466E-05-2.93518E-05-1.50873E-08-1.80270E-20-1.54194E-18
 -1        58 9.69669E-05-2.90964E-05-2.90997E-05-8.45132E-09-7.21669E-20-1.89924E-18
 -1        59 9.63487E-05-2.89101E-05-2.89119E-05-3.84237E-09-5.46051E-19-2.60810E-18
 -1        60 9.59026E-05-2.87754E-05-2.87762E-05-7.89250E-10 3.21247E-20-1.63597E-18
 -1        61 9.55911E-05-2.86811E-05-2.86812E-05 1.11873E-09 7.39695E-19-2.92639E-20
 -1        62 9.53825E-05-2.86177E-05-2.86175E-05 2.21607E-09-3.86221E-19-5.79059E-19
 -1        63 9.52508E-05-2.85775E-05-2.85771E-05 2.76323E-09-6.91842E-19-2.84671E-18
 -1        64 9.51752E-05-2.85543E-05-2.85538E-05 2.95647E-09-1.93465E-19-4.64221E-18
 -1        65 9.51396E-05-2.85432E-05-2.85426E-05 2.93964E-09-5.91236E-19-3.42502E-18
 -1        66 9.51316E-05-2.85404E-05-2.85399E-05 2.81479E-09-7.62257E-20-3.35585E-18
 -1        67 9.51418E-05-2.85431E-05-2.85428E-05 2.64979E-09 4.91216E-19 1.68215E-19
 -1        68 9.51632E-05-2.85493E-05-2.85490E-05 2.48054E-09 6.08241E-21 2.75965E-18
 -1        69 9.51897E-05-2.85571E-05-2.85567E-05 2.28423E-09-2.61893E-19 2.56738E-18
 -1        70 9.52155E-05-2.85648E-05-2.85640E-05 1.81617E-09 6.53608E-19 2.14617E-18
 -1        71 9.52341E-05-2.85707E-05-2.85692E-05 8.40681E-10-5.56173E-19 1.47455E-18
 -1        72 1.01908E-04-3.04974E-05-3.40707E-05-1.96030E-06 2.13505E-19 1.49765E-17
 -1        73 9.31113E-05-2.76860E-05-2.90579E-05-3.39127E-07 6.64855E-20 1.23006E-17
 -1        74 9.03924E-05-2.70937E-05-2.73561E-05-1.21503E-07 1.10902E-19 9.93863E-18
 -1        75 9.01499E-05-2.70756E-05-2.70754E-05-8.67729E-08 1.34127E-20 8.40049E-18
 -1        76 9.12009E-05-2.73887E-05-2.73639E-05-6.73920E-08 1.49535E-19 7.31238E-18
 -1        77 9.30601E-05-2.79371E-05-2.79288E-05-5.66036E-08-1.02035E-19 6.17296E-18
 -1        78 9.55454E-05-2.86756E-05-2.86837E-05-5.35982E-08 4.50383E-20 5.98640E-18
 -1        79 9.86019E-05-2.95870E-05-2.96085E-05-5.89314E-08 5.70279E-20 5.55240E-18
 -1        80 1.02222E-04-3.06670E-05-3.07004E-05-7.47675E-08-6.28889E-20 5.21977E-18
 -1        81 1.06388E-04-3.19090E-05-3.19506E-05-1.03986E-07 2.71359E-19 4.81362E-18
 -1        82 1.10997E-04-3.32825E-05-3.33211E-05-1.48114E-07-1.66636E-20 4.45676E-18
 -1        83 1.15761E-04-3.47032E-05-3.47133E-05-2.02737E-07 5.72616E-21 4.62547E-18
 -1        84 1.20072E-04-3.59959E-05-3.59318E-05-2.48989E-07 9.02702E-21 5.06581E-18
 -1        85 1.22896E-04-3.68595E-05-3.66616E-05-2.42625E-07 1.52433E-19 4.74075E-18
 -1        86 1.22806E-04-3.68742E-05-3.65059E-05-1.12993E-07-3.18547E-20 3.90616E-18
 -1        87 1.18432E-04-3.56179E-05-3.51414E-05 1.97600E-07-1.84741E-19 4.23665E-18
 -1        88 1.09475E-04-3.29586E-05-3.25982E-05 6.38691E-07 6.03511E-21 5.80101E-18
 -1        89 9.79296E-05-2.94420E-05-2.95099E-05 9.72571E-07 6.75035E-19 3.03587E-18
 -1        90 8.82670E-05-2.64153E-05-2.70377E-05 8.76251E-07-7.56877E-19 2.20840E-18
 -1        91 8.53097E-05-2.54250E-05-2.63136E-05 2.79340E-07 4.75397E-20 4.52284E-18
 -1        92 9.07248E-05-2.70539E-05-2.77122E-05-4.49788E-07 4.04491E-21 4.02833E-18
 -1        93 1.01680E-04-3.04384E-05-3.05594E-05-8.66475E-07-9.91543E-20 2.71061E-18
 -1        94 1.13097E-04-3.39583E-05-3.36460E-05-8.28870E-07-8.66985E-20 2.57863E-18
 -1        95 1.21078E-04-3.63912E-05-3.59379E-05-5.33130E-07 5.10518E-19 2.18032E-19
 -1        96 1.24394E-04-3.73782E-05-3.70049E-05-2.16617E-07-8.15021E-21-9.41550E-19
 -1        97 1.23817E-04-3.71808E-05-3.69610E-05 1.94102E-09-2.94171E-19 1.02373E-18
 -1        98 1.20834E-04-3.62650E-05-3.61771E-05 1.12292E-07 2.41970E-19 2.29463E-18
 -1        99 1.16792E-04-3.50404E-05-3.50345E-05 1.47456E-07 6.50346E-20 1.80509E-18
 -1       100 1.12603E-04-3.37789E-05-3.38122E-05 1.42305E-07-2.44034E-19 3.07951E-18
 -1       101 1.08766E-04-3.26272E-05-3.26728E-05 1.20608E-07 1.81882E-19 1.53155E-18
 -1       102 1.05493E-04-3.16462E-05-3.16907E-05 9.52153E-08-4.30668E-19-7.76448E-19
 -1       103 1.02827E-04-3.08472E-05-3.08853E-05 7.18772E-08 3.27169E-20 9.35760E-19
 -1       104 1.00723E-04-3.02170E-05-3.02474E-05 5.25399E-08 4.44842E-19-3.75720E-19
 -1       105 9.91047E-05-2.97321E-05-2.97555E-05 3.73883E-08 4.30972E-19-2.15091E-18
 -1       106 9.78864E-05-2.93669E-05-2.93844E-05 2.59184E-08-7.86607E-19-2.34388E-18
 -1       107 9.69878E-05-2.90975E-05-2.91102E-05 1.74428E-08-3.36834E-19-2.68501E-18
 -1       108 9.63389E-05-2.89028E-05-2.89120E-05 1.13018E-08 9.70453E-19-4.93025E-18
 -1       109 9.58816E-05-2.87654E-05-2.87720E-05 6.93502E-09 7.76617E-20-8.07755E-18
 -1       110 9.55686E-05-2.86714E-05-2.86759E-05 3.89193E-09 9.94954E-21-7.10388E-18
 -1       111 9.53629E-05-2.86096E-05-2.86126E-05 1.81951E-09 5.06395E-19-3.87268E-18
 -1       112 9.52354E-05-2.85712E-05-2.85732E-05 4.45406E-10-3.27703E-19-4.18786E-18
 -1       113 9.51639E-05-2.85496E-05-2.85509E-05-4.38453E-10 8.09586E-19-5.26470E-18
 -1       114 9.51318E-05-2.85399E-05-2.85406E-05-9.90248E-10-1.01144E-18-2.57609E-18
 -1       115 9.51266E-05-2.85382E-05-2.85387E-05-1.33112E-09-1.51818E-19-2.20882E-18
 -1       116 9.51390E-05-2.85418E-05-2.85421E-05-1.55546E-09 6.75808E-19-2.84589E-18
 -1       117 9.51619E-05-2.85486E-05-2.85487E-05-1.73390E-09 1.14476E-19-5.02320E-18
 -1       118 9.51895E-05-2.85569E-05-2.85566E-05-1.90157E-09-8.28542E-20-5.53898E-18
 -1       119 9.52160E-05-2.85648E-05-2.85641E-05-1.97564E-09-4.45727E-19-5.50070E-18
 -1       120 9.52341E-05-2.85707E-05-2.85693E-05-1.21722E-09 8.31318E-19-4.10502E-18
 -1       121 9.52382E-05-2.85752E-05-2.85693E-05-1.10549E-09-3.98074E-18 8.15396E-20
 -1       122 9.52436E-05-2.85925E-05-2.85644E-05-1.73030E-09-2.02912E-18-2.76119E-19
 -1       123 9.52504E-05-2.86152E-05-2.85581E-05-1.63520E-09 6.37334E-18 2.89732E-18
 -1       124 9.52567E-05-2.86364E-05-2.85519E-05-1.21914E-09 3.17876E-18 7.90205E-19
 -1       125 9.52616E-05-2.86528E-05-2.85470E-05-7.80130E-10 4.82665E-18-2.18933E-19
 -1       126 9.52649E-05-2.86638E-05-2.85437E-05-4.45973E-10 1.91045E-18 1.85239E-19
 -1       127 9.52668E-05-2.86703E-05-2.85416E-05-2.04123E-10 4.32108E-18 1.25611E-18
 -1       128 9.52677E-05-2.86730E-05-2.85408E-05-4.49773E-11 3.36057E-18-1.58472E-18
 -1       129 9.52676E-05-2.86727E-05-2.85409E-05 8.14529E-11 3.26587E-18 1.62101E-18
 -1       130 9.52666E-05-2.86694E-05-2.85419E-05 2.32961E-10 1.24044E-18-1.47641E-18
 -1       131 9.52645E-05-2.86624E-05-2.85441E-05 4.70313E-10-4.27398E-18 1.88356E-19
 -1       132 9.52612E-05-2.86513E-05-2.85475E-05 7.82321E-10-5.38980E-18 2.60413E-19
 -1       133 9.52563E-05-2.86349E-05-2.85524E-05 1.20399E-09-5.94769E-18 1.60377E-18
 -1       134 9.52501E-05-2.86140E-05-2.85584E-05 1.67104E-09-4.74460E-18-1.06941E-18
 -1       135 9.52436E-05-2.85922E-05-2.85646E-05 2.36262E-09-4.31652E-18 8.22880E-19
 -1       136 9.52386E-05-2.85757E-05-2.85693E-05 1.10514E-09-2.22059E-18 1.91648E-19
 -1       137 2.61922E-05-8.92683E-05 1.59946E-05-2.40388E-05 9.22271E-18 3.58401E-19
 -1       138 8.71848E-06-3.77858E-05 4.07280E-06-1.97233E-05 1.08657E-17 5.83119E-18
 -1       139 9.67884E-06 1.05622E-05-1.30097E-05 1.74755E-05 1.42966E-17 9.06833E-18
 -1       140 5.07428E-05 2.69297E-05-3.28177E-05 7.14358E-05 1.18153E-17 1.35136E-17
 -1       141 1.34477E-04 1.82701E-06-5.27977E-05 1.10146E-04 7.88270E-18 1.27301E-17
 -1       142 2.29924E-04-4.72257E-05-6.83826E-05 1.03751E-04 2.71506E-18 7.87232E-18
 -1       143 3.02538E-04-9.01674E-05-7.82361E-05 4.45338E-05 4.56405E-19 1.19718E-18
 -1       144 3.06073E-04-9.24326E-05-7.86695E-05-3.81597E-05 1.28190E-18-7.71647E-18
 -1       145 2.42238E-04-5.37447E-05-7.03451E-05-1.00065E-04 4.13352E-18-1.29393E-17
 -1       146 1.41096E-04-1.17228E-06-5.39768E-05-1.10998E-04 9.57783E-18-1.64752E-17
 -1       147 5.49843E-05 2.68497E-05-3.42297E-05-7.47918E-05 1.39866E-17-1.53080E-17
 -1       148 7.68181E-06 7.60557E-06-1.12876E-05-1.31113E-05 1.62876E-17-1.17386E-17
 -1       149 1.06824E-05-4.74223E-05 6.72810E-06 2.42669E-05 1.21096E-17-5.23212E-18
 -1       150 2.94801E-05-9.62398E-05 1.72188E-05 2.17226E-05 2.22219E-18-9.51589E-19
 -1       151 3.64294E-05-1.10943E-04 1.99838E-05-4.55350E-06-7.54172E-18-6.14734E-19
 -1       152 2.34693E-05-8.13569E-05 1.42569E-05-2.51970E-05-1.38007E-17-3.30248E-18
 -1       153 6.71493E-06-2.74197E-05 1.35901E-06-1.52550E-05-1.45253E-17-6.90544E-18
 -1       154 1.38704E-05 1.65445E-05-1.62120E-05 2.76693E-05-1.41886E-17-1.11046E-17
 -1       155 7.69589E-05 2.31272E-05-4.02647E-05 8.97371E-05-1.16446E-17-1.43094E-17
 -1       156 2.55502E-04-6.30532E-05-7.17482E-05 8.87567E-05-2.09376E-18-4.41177E-18
 -1       157 3.03985E-04-9.29187E-05-7.81124E-05 2.12569E-05 6.58198E-19 3.02057E-18
 -1       158 2.89710E-04-8.41821E-05-7.62527E-05-5.42122E-05-1.75404E-18 1.04833E-17
 -1       159 2.21673E-04-4.31607E-05-6.71197E-05-1.04683E-04-5.01825E-18 1.49671E-17
 -1       160 1.29080E-04 4.05632E-06-5.16017E-05-1.08372E-04-1.03535E-17 1.63198E-17
 -1       161 5.09000E-05 2.78121E-05-3.29130E-05-7.22699E-05-1.36190E-17 1.46367E-17
 -1       162 1.01763E-05 1.13600E-05-1.31837E-05-1.93037E-05-1.52114E-17 1.08708E-17
 -1       163 8.73999E-06-3.68548E-05 4.03553E-06 1.85322E-05-1.04609E-17 5.81086E-18
 -1       164 2.60500E-05-8.74690E-05 1.55566E-05 2.21350E-05 1.04016E-18 5.15155E-19
 -1       165 9.54231E-05-1.26394E-05-3.56736E-05-2.13274E-05-2.01140E-18-2.83438E-19
 -1       166 8.98507E-05-8.64440E-06-3.49589E-05-1.62314E-05-1.68884E-18-2.22621E-18
 -1       167 8.69467E-05-6.51396E-06-3.45799E-05-1.23661E-05-1.26348E-18-3.25302E-18
 -1       168 8.52931E-05-5.34102E-06-3.43463E-05-9.19269E-06-8.20305E-19-3.64470E-18
 -1       169 8.42091E-05-4.58281E-06-3.41909E-05-6.53083E-06-4.19352E-19-3.71031E-18
 -1       170 8.34818E-05-4.08397E-06-3.40847E-05-4.15256E-06-5.29594E-20-3.64527E-18
 -1       171 8.30570E-05-3.79479E-06-3.40224E-05-1.98715E-06 3.15495E-19-3.45242E-18
 -1       172 8.29151E-05-3.69682E-06-3.40022E-05 7.10249E-08 6.57794E-19-3.34431E-18
 -1       173 8.30553E-05-3.78797E-06-3.40246E-05 2.12592E-06 9.44283E-19-3.20384E-18
 -1       174 8.34866E-05-4.07785E-06-3.40894E-05 4.28353E-06 1.22450E-18-2.98694E-18
 -1       175 8.42180E-05-4.58050E-06-3.41958E-05 6.61387E-06 1.50150E-18-2.56544E-18
 -1       176 8.53457E-05-5.37409E-06-3.43549E-05 9.32250E-06 1.86067E-18-1.88560E-18
 -1       177 8.70669E-05-6.61302E-06-3.45926E-05 1.25339E-05 2.16565E-18-9.17840E-19
 -1       178 9.00090E-05-8.78517E-06-3.49711E-05 1.64363E-05 2.29243E-18 7.39883E-19
 -1       179 9.63148E-05-1.38839E-05-3.55311E-05 2.08762E-05 2.04078E-18 3.64494E-18
 -1       180 1.05811E-04-2.62547E-05-3.52706E-05 1.79146E-05 1.42104E-18 7.26384E-18
 -1       181 1.03879E-04-2.75000E-05-3.27303E-05-1.13719E-05-1.82708E-18 2.29856E-18
 -1       182 9.80924E-05-2.85854E-05-2.98211E-05-3.98590E-06-1.53349E-18 1.45124E-18
 -1       183 9.50896E-05-2.80800E-05-2.86682E-05-9.49999E-07-1.09248E-18 5.88225E-19
 -1       184 9.42647E-05-2.80398E-05-2.83445E-05 5.64250E-07-9.14480E-19-2.64466E-20
 -1       185 9.45550E-05-2.82079E-05-2.84137E-05 1.46322E-06-4.78858E-19-2.23345E-19
 -1       186 9.55697E-05-2.85527E-05-2.87105E-05 2.07258E-06-2.73986E-19-3.14521E-19
 -1       187 9.70812E-05-2.90333E-05-2.91573E-05 2.51676E-06-4.55644E-19-8.77400E-19
 -1       188 9.89417E-05-2.96203E-05-2.97066E-05 2.83209E-06-4.73893E-19-9.61861E-19
 -1       189 1.01025E-04-3.02889E-05-3.03161E-05 2.99666E-06-5.58762E-19-1.14131E-18
 -1       190 1.03187E-04-3.10090E-05-3.09375E-05 2.93860E-06-5.56099E-19-1.13181E-18
 -1       191 1.05231E-04-3.17329E-05-3.15072E-05 2.54301E-06-5.85992E-19-1.98409E-18
 -1       192 1.06891E-04-3.23824E-05-3.19435E-05 1.67406E-06-1.18717E-19-2.13601E-18
 -1       193 1.07829E-04-3.28359E-05-3.21527E-05 2.31072E-07 2.96951E-19-1.70590E-18
 -1       194 1.07682E-04-3.29256E-05-3.20493E-05-1.74752E-06 5.30990E-19-1.81290E-18
 -1       195 1.06175E-04-3.24703E-05-3.15938E-05-3.94956E-06-1.68632E-19-1.24089E-18
 -1       196 1.03322E-04-3.13702E-05-3.08352E-05-5.71231E-06-6.61801E-19-1.18262E-18
 -1       197 9.96287E-05-2.97607E-05-2.99360E-05-6.16226E-06-4.85477E-19-1.54381E-18
 -1       198 9.61467E-05-2.81173E-05-2.91458E-05-4.67104E-06-2.79398E-19-1.88146E-18
 -1       199 9.41535E-05-2.71284E-05-2.87156E-05-1.42671E-06-7.11829E-19-2.73443E-18
 -1       200 9.44923E-05-2.72827E-05-2.87947E-05 2.41666E-06-1.92329E-19-3.46775E-18
 -1       201 9.70501E-05-2.85121E-05-2.93640E-05 5.34879E-06-3.12939E-20-3.63900E-18
 -1       202 1.00834E-04-3.02449E-05-3.02460E-05 6.40593E-06 5.38569E-19-3.48707E-18
 -1       203 1.04575E-04-3.18134E-05-3.11835E-05 5.62308E-06 1.87629E-19-2.34051E-18
 -1       204 1.07341E-04-3.28227E-05-3.19434E-05 3.73916E-06-1.80395E-19-1.71601E-18
 -1       205 1.08762E-04-3.32082E-05-3.23915E-05 1.60697E-06-1.77958E-19-2.31927E-18
 -1       206 1.08915E-04-3.31016E-05-3.25035E-05-1.91655E-07 8.25991E-19-2.27095E-18
 -1       207 1.08111E-04-3.26878E-05-3.23343E-05-1.42089E-06-3.06973E-19-2.56951E-18
 -1       208 1.06713E-04-3.21251E-05-3.19732E-05-2.08998E-06-1.89876E-19-2.32140E-18
 -1       209 1.05038E-04-3.15231E-05-3.15098E-05-2.32241E-06 5.61569E-19-1.24366E-18
 -1       210 1.03317E-04-3.09478E-05-3.10162E-05-2.26469E-06-5.97742E-20-1.61209E-18
 -1       211 1.01700E-04-3.04337E-05-3.05415E-05-2.04196E-06 1.51523E-19-2.44836E-18
 -1       212 1.00268E-04-2.99949E-05-3.01146E-05-1.74498E-06-4.45218E-19-2.03951E-18
 -1       213 9.90531E-05-2.96332E-05-2.97485E-05-1.43230E-06 2.87164E-19-1.44194E-18
 -1       214 9.80579E-05-2.93433E-05-2.94462E-05-1.13779E-06 1.22391E-18-4.16123E-19
 -1       215 9.72660E-05-2.91169E-05-2.92040E-05-8.78282E-07-2.21282E-19-1.43273E-18
 -1       216 9.66522E-05-2.89443E-05-2.90153E-05-6.59828E-07-2.02839E-19-1.58491E-18
 -1       217 9.61883E-05-2.88157E-05-2.88720E-05-4.82163E-07-1.56821E-19-1.50106E-18
 -1       218 9.58468E-05-2.87225E-05-2.87659E-05-3.41670E-07 1.04285E-18-2.31538E-19
 -1       219 9.56024E-05-2.86569E-05-2.86896E-05-2.33250E-07-5.43367E-19-3.71116E-19
 -1       220 9.54335E-05-2.86124E-05-2.86366E-05-1.51451E-07-1.25041E-18-8.18832E-19
 -1       221 9.53220E-05-2.85839E-05-2.86013E-05-9.10966E-08-7.00566E-19-1.05782E-18
 -1       222 9.52532E-05-2.85670E-05-2.85792E-05-4.76125E-08 9.90383E-19-9.59060E-19
 -1       223 9.52152E-05-2.85585E-05-2.85668E-05-1.71656E-08-2.70084E-19 8.02738E-19
 -1       224 9.51991E-05-2.85558E-05-2.85611E-05 3.28830E-09 1.85561E-18 1.88597E-18
 -1       225 9.51974E-05-2.85570E-05-2.85600E-05 1.59932E-08 1.74746E-18 1.81987E-18
 -1       226 9.52047E-05-2.85607E-05-2.85616E-05 2.23638E-08 5.27868E-19 4.04503E-19
 -1       227 9.52161E-05-2.85657E-05-2.85644E-05 2.28642E-08 1.02978E-18 1.24366E-18
 -1       228 9.52280E-05-2.85715E-05-2.85671E-05 1.72336E-08-7.30967E-19 1.51304E-18
 -1       229 1.00161E-04-2.87698E-05-3.07718E-05 6.55709E-06 1.42492E-18 6.20912E-18
 -1       230 9.56775E-05-2.81567E-05-2.89055E-05 2.07496E-06 1.27465E-18 4.96723E-18
 -1       231 9.40671E-05-2.79567E-05-2.82864E-05 1.40020E-07 8.45491E-19 3.88370E-18
 -1       232 9.39995E-05-2.80382E-05-2.82406E-05-9.32750E-07 7.62144E-19 3.07852E-18
 -1       233 9.49081E-05-2.83476E-05-2.85106E-05-1.65573E-06 3.29855E-19 2.95282E-18
 -1       234 9.65180E-05-2.88423E-05-2.89954E-05-2.23291E-06 2.53782E-19 2.58870E-18
 -1       235 9.86954E-05-2.94965E-05-2.96520E-05-2.75566E-06 2.16047E-19 2.20996E-18
 -1       236 1.01370E-04-3.02993E-05-3.04572E-05-3.25447E-06 1.86810E-19 2.05873E-18
 -1       237 1.04482E-04-3.12449E-05-3.13885E-05-3.70642E-06 1.74090E-19 1.82228E-18
 -1       238 1.07929E-04-3.23213E-05-3.24073E-05-4.02177E-06-2.15103E-21 2.53770E-18
 -1       239 1.11505E-04-3.34926E-05-3.34400E-05-4.02132E-06 1.50759E-19 2.71314E-18
 -1       240 1.14835E-04-3.46742E-05-3.43594E-05-3.42351E-06 2.14974E-19 2.06516E-18
 -1       241 1.17322E-04-3.56955E-05-3.49795E-05-1.88550E-06 5.28284E-19 1.78043E-18
 -1       242 1.18164E-04-3.62576E-05-3.50850E-05 8.25959E-07-2.39327E-19 2.12373E-18
 -1       243 1.16559E-04-3.59358E-05-3.45230E-05 4.46225E-06-1.05035E-19 2.16558E-18
 -1       244 1.12202E-04-3.43578E-05-3.33409E-05 7.85558E-06-4.09276E-19 1.56522E-18
 -1       245 1.05990E-04-3.16493E-05-3.18807E-05 8.97947E-06 1.49741E-18 2.44815E-18
 -1       246 1.00352E-04-2.88772E-05-3.07005E-05 6.16374E-06-2.48452E-19 1.58156E-18
 -1       247 9.82658E-05-2.77252E-05-3.03162E-05 3.88038E-08-6.14886E-19 1.28356E-18
 -1       248 1.01027E-04-2.90159E-05-3.09154E-05-6.13559E-06 6.82920E-20 1.85310E-18
 -1       249 1.07097E-04-3.18934E-05-3.22268E-05-9.11601E-06 3.21291E-19 2.23041E-18
 -1       250 1.13434E-04-3.46616E-05-3.37233E-05-8.13179E-06 1.09783E-18 9.33166E-19
 -1       251 1.17715E-04-3.62505E-05-3.48819E-05-4.81750E-06 1.33520E-18-1.04673E-18
 -1       252 1.19226E-04-3.65704E-05-3.54127E-05-1.21550E-06-2.61918E-19-5.70391E-19
 -1       253 1.18398E-04-3.60250E-05-3.53075E-05 1.47945E-06-1.03625E-18 4.13231E-19
 -1       254 1.16074E-04-3.50531E-05-3.47342E-05 2.99753E-06-4.19339E-19 9.14157E-19
 -1       255 1.13044E-04-3.39560E-05-3.39048E-05 3.56074E-06 1.81826E-19 2.00447E-18
 -1       256 1.09876E-04-3.29012E-05-3.29954E-05 3.51369E-06-6.42752E-19 1.40162E-18
 -1       257 1.06909E-04-3.19658E-05-3.21212E-05 3.14821E-06 7.39260E-19 1.03262E-18
 -1       258 1.04311E-04-3.11756E-05-3.13436E-05 2.65926E-06 5.49575E-19 1.65223E-19
 -1       259 1.02135E-04-3.05299E-05-3.06862E-05 2.15865E-06-4.46570E-20-1.01435E-18
 -1       260 1.00372E-04-3.00154E-05-3.01503E-05 1.70178E-06 7.75918E-19-1.47278E-18
 -1       261 9.89785E-05-2.96139E-05-2.97251E-05 1.31047E-06 9.69739E-19-2.60416E-19
 -1       262 9.79014E-05-2.93065E-05-2.93954E-05 9.88493E-07-6.62900E-19-3.27476E-19
 -1       263 9.70849E-05-2.90753E-05-2.91448E-05 7.30878E-07 1.13202E-18-7.27402E-19
 -1       264 9.64779E-05-2.89047E-05-2.89581E-05 5.29144E-07 1.48910E-18-3.31450E-18
 -1       265 9.60359E-05-2.87815E-05-2.88218E-05 3.73997E-07 2.76367E-19-2.92808E-18
 -1       266 9.57216E-05-2.86946E-05-2.87246E-05 2.56629E-07-7.26955E-19-3.02058E-18
 -1       267 9.55045E-05-2.86353E-05-2.86573E-05 1.69254E-07-1.22362E-18-1.27648E-18
 -1       268 9.53602E-05-2.85965E-05-2.86123E-05 1.05280E-07-3.48059E-20-5.83568E-20
 -1       269 9.52695E-05-2.85727E-05-2.85838E-05 5.92868E-08 4.28874E-19 3.37341E-19
 -1       270 9.52176E-05-2.85597E-05-2.85673E-05 2.69324E-08-1.85722E-18 1.04922E-18
 -1       271 9.51931E-05-2.85542E-05-2.85592E-05 4.83448E-09 1.64620E-18 1.57173E-19
 -1       272 9.51871E-05-2.85538E-05-2.85569E-05-9.53567E-09 6.09052E-19-2.17681E-18
 -1       273 9.51931E-05-2.85567E-05-2.85583E-05-1.79046E-08 7.61975E-19-1.71236E-18
 -1       274 9.52054E-05-2.85615E-05-2.85616E-05-2.11712E-08 2.31251E-19-1.30115E-18
 -1       275 9.52195E-05-2.85670E-05-2.85653E-05-1.93401E-08 2.58596E-20-5.33370E-19
 -1       276 9.52318E-05-2.85725E-05-2.85681E-05-1.17460E-08-4.26621E-20-7.68084E-19
 -1       277 9.52376E-05-2.85814E-05-2.85669E-05-1.70485E-08 2.80276E-19 7.77935E-19
 -1       278 9.52436E-05-2.85934E-05-2.85644E-05-2.10817E-08-2.44926E-19 3.62009E-18
 -1       279 9.52484E-05-2.86051E-05-2.85614E-05-1.94812E-08 6.33143E-19-1.14766E-18
 -1       280 9.52517E-05-2.86147E-05-2.85587E-05-1.51370E-08 1.57206E-18 1.64726E-18
 -1       281 9.52537E-05-2.86215E-05-2.85566E-05-1.02635E-08 1.21843E-18-1.47613E-18
 -1       282 9.52546E-05-2.86257E-05-2.85552E-05-5.89520E-09 6.20035E-19-1.08847E-20
 -1       283 9.52550E-05-2.86278E-05-2.85545E-05-2.45252E-09 9.05891E-19 1.67746E-18
 -1       284 9.52550E-05-2.86282E-05-2.85543E-05 3.32782E-10 2.05495E-18-1.44823E-18
 -1       285 9.52548E-05-2.86273E-05-2.85546E-05 3.05940E-09-8.22122E-19-1.35412E-18
 -1       286 9.52543E-05-2.86249E-05-2.85554E-05 6.33878E-09-9.85370E-19-2.52314E-18
 -1       287 9.52533E-05-2.86206E-05-2.85569E-05 1.03939E-08-1.33063E-18-2.05694E-19
 -1       288 9.52513E-05-2.86137E-05-2.85590E-05 1.50636E-08 5.28829E-19 3.79483E-19
 -1       289 9.52481E-05-2.86042E-05-2.85617E-05 1.92161E-08-7.06528E-19 4.45712E-19
 -1       290 9.52431E-05-2.85924E-05-2.85646E-05 2.01430E-08-1.04925E-18-6.42082E-19
 -1       291 9.52371E-05-2.85815E-05-2.85667E-05 2.21598E-08-1.40129E-18-1.74190E-19
 -1       292 1.20603E-05-4.64969E-05 1.16525E-05 6.30228E-06 2.19593E-18 4.58457E-19
 -1       293 2.63337E-05-4.23819E-05 4.38343E-06 2.24019E-05 3.00845E-18 2.51373E-18
 -1       294 5.03747E-05-3.71620E-05-7.61945E-06 3.21518E-05 4.16401E-18 4.29620E-18
 -1       295 8.86938E-05-3.44917E-05-2.38244E-05 4.22920E-05 4.39377E-18 4.59558E-18
 -1       296 1.29319E-04-3.12086E-05-4.11395E-05 4.62479E-05 5.04525E-18 4.05432E-18
 -1       297 1.70990E-04-3.35076E-05-5.65752E-05 4.01249E-05 5.27815E-18 3.52577E-18
 -1       298 1.99953E-04-3.51475E-05-6.74232E-05 2.14992E-05 4.26608E-18 2.03606E-18
 -1       299 2.11261E-04-3.53661E-05-7.17775E-05 5.39408E-07 3.95808E-18-1.86129E-18
 -1       300 2.05377E-04-3.66904E-05-6.87352E-05-2.18619E-05 3.77491E-18-4.11965E-18
 -1       301 1.73198E-04-3.46044E-05-5.73295E-05-3.21426E-05 4.81028E-18-4.41071E-18
 -1       302 1.32135E-04-3.12467E-05-4.22346E-05-4.66125E-05 4.94053E-18-5.72997E-18
 -1       303 9.03741E-05-3.63734E-05-2.36862E-05-4.24395E-05 4.83762E-18-4.30928E-18
 -1       304 4.60639E-05-3.80661E-05-5.58485E-06-3.08112E-05 4.49584E-18-5.87809E-18
 -1       305 2.24161E-05-4.57005E-05 6.81781E-06-1.68386E-05 2.03076E-18-5.56813E-18
 -1       306 1.13948E-05-4.78804E-05 1.23148E-05-3.95085E-06-9.94364E-19-4.89966E-18
 -1       307 1.41943E-05-4.87694E-05 1.13636E-05 9.57674E-06-3.86628E-18-3.70990E-18
 -1       308 2.84663E-05-4.25912E-05 3.23655E-06 2.26568E-05-5.36468E-18-2.86091E-18
 -1       309 5.47336E-05-3.47587E-05-1.01497E-05 3.60494E-05-5.42948E-18-4.81485E-18
 -1       310 1.06705E-04-4.06192E-05-2.83749E-05 4.20294E-05-3.62340E-18-3.59820E-18
 -1       311 1.42061E-04-2.95517E-05-4.68050E-05 4.64298E-05-5.08823E-18-4.68028E-18
 -1       312 1.80023E-04-3.22546E-05-6.05696E-05 3.73949E-05-5.61829E-18-1.54181E-18
 -1       313 2.01525E-04-3.37662E-05-6.87061E-05 1.68357E-05-4.17947E-18 1.05985E-19
 -1       314 2.02552E-04-3.19655E-05-7.00982E-05-4.24571E-06-4.12558E-18 2.70140E-18
 -1       315 1.96330E-04-3.45260E-05-6.62041E-05-2.69346E-05-3.99344E-18 5.10951E-18
 -1       316 1.64371E-04-3.20551E-05-5.48882E-05-3.59649E-05-4.67168E-18 5.48200E-18
 -1       317 1.27239E-04-3.09172E-05-4.04437E-05-4.55412E-05-4.94900E-18 6.12087E-18
 -1       318 8.71830E-05-3.25956E-05-2.38536E-05-4.36092E-05-4.47615E-18 5.54828E-18
 -1       319 5.32739E-05-3.77206E-05-8.15636E-06-3.61940E-05-2.56820E-18 5.29306E-18
 -1       320 2.57234E-05-4.22265E-05 4.50951E-06-2.23622E-05 2.27640E-19 7.11423E-18
 -1       321 1.17725E-05-4.39163E-05 1.09577E-05-9.29850E-06 1.40216E-18 3.56855E-18
 -1       322 9.21969E-05-1.44340E-05-3.33898E-05-1.16801E-05-1.72840E-18-1.94814E-18
 -1       323 9.64415E-05-1.93422E-05-3.31032E-05-1.34054E-05-2.08312E-18-8.02524E-19
 -1       324 8.77288E-05-9.79815E-06-3.34516E-05-6.88651E-06-8.48943E-19-2.77718E-18
 -1       325 8.64870E-05-8.58527E-06-3.34311E-05-4.69083E-06-2.95018E-19-2.78270E-18
 -1       326 8.56873E-05-7.82565E-06-3.34096E-05-2.69049E-06 2.46551E-19-2.64619E-18
 -1       327 8.52908E-05-7.45398E-06-3.33969E-05-8.18966E-07 6.08614E-19-2.56048E-18
 -1       328 8.52879E-05-7.44786E-06-3.33983E-05 1.00351E-06 9.78158E-19-2.54780E-18
 -1       329 8.56851E-05-7.81376E-06-3.34138E-05 2.86172E-06 1.30768E-18-2.32384E-18
 -1       330 8.64845E-05-8.56824E-06-3.34375E-05 4.80488E-06 1.66508E-18-2.09615E-18
 -1       331 8.77648E-05-9.81627E-06-3.34592E-05 6.96654E-06 2.12300E-18-1.52651E-18
 -1       332 8.96508E-05-1.17363E-05-3.34569E-05 9.33062E-06 2.37582E-18-8.09793E-19
 -1       333 9.24704E-05-1.47439E-05-3.33904E-05 1.17403E-05 2.51630E-18 2.01323E-19
 -1       334 9.65561E-05-1.96831E-05-3.30502E-05 1.31271E-05 2.43032E-18 2.03819E-18
 -1       335 9.95400E-05-2.47008E-05-3.21575E-05 1.08798E-05 2.03653E-18 3.65909E-18
 -1       336 9.75492E-05-2.71055E-05-3.01582E-05 4.62240E-06 1.71309E-18 2.91071E-18
 -1       337 9.75579E-05-2.62619E-05-3.05093E-05-5.00799E-06-1.54720E-18-4.22369E-19
 -1       338 9.64819E-05-2.73096E-05-2.96180E-05-1.23966E-06-1.26382E-18-4.25418E-19
 -1       339 9.60674E-05-2.78061E-05-2.92379E-05 1.03201E-06-7.56980E-19-3.57669E-19
 -1       340 9.62474E-05-2.81774E-05-2.91637E-05 2.53748E-06-5.11930E-19-5.19748E-19
 -1       341 9.69099E-05-2.85631E-05-2.92862E-05 3.60240E-06-6.81731E-19-7.93157E-19
 -1       342 9.79523E-05-2.90208E-05-2.95391E-05 4.37294E-06-6.05852E-19-1.03652E-18
 -1       343 9.92949E-05-2.95876E-05-2.98737E-05 4.88274E-06-3.08247E-19-1.11111E-18
 -1       344 1.00871E-04-3.02963E-05-3.02480E-05 5.07862E-06-5.28893E-19-9.80086E-19
 -1       345 1.02608E-04-3.11722E-05-3.06207E-05 4.83263E-06-8.03487E-19-6.94154E-19
 -1       346 1.04408E-04-3.22111E-05-3.09512E-05 3.96063E-06-2.54201E-19-2.78442E-19
 -1       347 1.06112E-04-3.33357E-05-3.12036E-05 2.27120E-06 2.76924E-20-6.47063E-19
 -1       348 1.07462E-04-3.43326E-05-3.13573E-05-3.27518E-07 5.57720E-19-4.51380E-20
 -1       349 1.08083E-04-3.48048E-05-3.14194E-05-3.64623E-06 2.14868E-20-5.43816E-19
 -1       350 1.07556E-04-3.42366E-05-3.14303E-05-7.00168E-06-5.21792E-19-1.01269E-18
 -1       351 1.05676E-04-3.22946E-05-3.14467E-05-9.15457E-06-6.29295E-19-9.91535E-19
 -1       352 1.02857E-04-2.93200E-05-3.15046E-05-8.70002E-06-5.19865E-19-4.70433E-19
 -1       353 1.00305E-04-2.65762E-05-3.15856E-05-5.01440E-06-9.38964E-19-6.64250E-19
 -1       354 9.94696E-05-2.56463E-05-3.16279E-05 8.33014E-07-1.38363E-18-1.07729E-18
 -1       355 1.00879E-04-2.71039E-05-3.16057E-05 6.38955E-06-5.71555E-19-2.04753E-18
 -1       356 1.03727E-04-3.00642E-05-3.15606E-05 9.40276E-06 5.13199E-19-2.35875E-18
 -1       357 1.06523E-04-3.29049E-05-3.15511E-05 9.21551E-06 7.85386E-19-2.06778E-18
 -1       358 1.08226E-04-3.45542E-05-3.15834E-05 6.73527E-06 4.94996E-19-2.52740E-18
 -1       359 1.08607E-04-3.48749E-05-3.16145E-05 3.39237E-06 6.48344E-20-1.46308E-18
 -1       360 1.07954E-04-3.42825E-05-3.15890E-05 3.06143E-07 7.78327E-19-1.44694E-18
 -1       361 1.06690E-04-3.32818E-05-3.14729E-05-1.97347E-06 6.63682E-19-1.75794E-18
 -1       362 1.05160E-04-3.22285E-05-3.12644E-05-3.34865E-06 1.25417E-19-3.52460E-19
 -1       363 1.03589E-04-3.13002E-05-3.09849E-05-3.96029E-06 5.89749E-19 2.74022E-20
 -1       364 1.02103E-04-3.05529E-05-3.06650E-05-4.02581E-06 2.77519E-19-4.14144E-19
 -1       365 1.00764E-04-2.99810E-05-3.03345E-05-3.75140E-06-5.73695E-19-1.71078E-18
 -1       366 9.96006E-05-2.95558E-05-3.00169E-05-3.29845E-06 5.37524E-19-1.81965E-18
 -1       367 9.86166E-05-2.92454E-05-2.97278E-05-2.77896E-06 8.50243E-19-8.64433E-20
 -1       368 9.78038E-05-2.90216E-05-2.94753E-05-2.26334E-06 5.22141E-19-6.00835E-19
 -1       369 9.71469E-05-2.88623E-05-2.92623E-05-1.79114E-06-3.48853E-20-1.74534E-18
 -1       370 9.66268E-05-2.87504E-05-2.90877E-05-1.38094E-06-2.96191E-19-1.12610E-18
 -1       371 9.62232E-05-2.86732E-05-2.89482E-05-1.03805E-06 9.97524E-20-3.54868E-20
 -1       372 9.59165E-05-2.86213E-05-2.88393E-05-7.59974E-07 1.10685E-18 1.59237E-18
 -1       373 9.56885E-05-2.85876E-05-2.87564E-05-5.40143E-07 3.54546E-19 4.99822E-19
 -1       374 9.55233E-05-2.85669E-05-2.86947E-05-3.70269E-07 1.43406E-19 1.25450E-18
 -1       375 9.54070E-05-2.85554E-05-2.86500E-05-2.41802E-07-1.91200E-18 2.76741E-18
 -1       376 9.53282E-05-2.85502E-05-2.86187E-05-1.46756E-07-8.89098E-19 2.78383E-18
 -1       377 9.52776E-05-2.85493E-05-2.85975E-05-7.81344E-08 1.34783E-18 8.95293E-19
 -1       378 9.52476E-05-2.85513E-05-2.85839E-05-3.01250E-08 1.77721E-18 1.48908E-18
 -1       379 9.52321E-05-2.85552E-05-2.85757E-05 1.84227E-09 1.38224E-18 5.56858E-19
 -1       380 9.52267E-05-2.85605E-05-2.85711E-05 2.10807E-08-4.72440E-19 1.78044E-18
 -1       381 9.52275E-05-2.85671E-05-2.85687E-05 2.98364E-08 2.93658E-20 1.24868E-18
 -1       382 9.52310E-05-2.85738E-05-2.85674E-05 2.95384E-08 7.79002E-19 4.15436E-20
 -1       383 9.60747E-05-2.77265E-05-2.92518E-05 1.12875E-06 1.42399E-18 2.42753E-18
 -1       384 9.55671E-05-2.79898E-05-2.89368E-05-9.43920E-07 1.04590E-18 1.86262E-18
 -1       385 9.58992E-05-2.82695E-05-2.89703E-05-2.34065E-06 5.83825E-19 1.55700E-18
 -1       386 9.68736E-05-2.86360E-05-2.92358E-05-3.41650E-06 4.93316E-19 1.20120E-18
 -1       387 9.83647E-05-2.91104E-05-2.96738E-05-4.34549E-06 3.80788E-19 8.76864E-19
 -1       388 1.00298E-04-2.97101E-05-3.02469E-05-5.19525E-06 1.29883E-19 9.22733E-19
 -1       389 1.02622E-04-3.04626E-05-3.09230E-05-5.94657E-06 3.96172E-19 7.90003E-19
 -1       390 1.05287E-04-3.14099E-05-3.16631E-05-6.48128E-06-2.41096E-19 1.15001E-18
 -1       391 1.08212E-04-3.26025E-05-3.24115E-05-6.55613E-06 1.64687E-19 1.04455E-18
 -1       392 1.11248E-04-3.40720E-05-3.30901E-05-5.78718E-06 4.36822E-19 9.19702E-19
 -1       393 1.14118E-04-3.57543E-05-3.36060E-05-3.69814E-06 6.53512E-19 9.22659E-19
 -1       394 1.16341E-04-3.73409E-05-3.38804E-05 7.39604E-08 1.35138E-19 1.01396E-18
 -1       395 1.17156E-04-3.80939E-05-3.39007E-05 5.30594E-06-6.78652E-20 6.25713E-19
 -1       396 1.15720E-04-3.69514E-05-3.37713E-05 1.05272E-05-5.02542E-19 1.59082E-18
 -1       397 1.11854E-04-3.33660E-05-3.36595E-05 1.28701E-05 1.01514E-18 1.64335E-18
 -1       398 1.07118E-04-2.86485E-05-3.36628E-05 9.53827E-06 1.09908E-18 1.85993E-18
 -1       399 1.04699E-04-2.60842E-05-3.37127E-05 8.83162E-07-7.30215E-19 2.73878E-19
 -1       400 1.06576E-04-2.78556E-05-3.37664E-05-8.34911E-06-1.65257E-19 5.17133E-19
 -1       401 1.11357E-04-3.24915E-05-3.38119E-05-1.30445E-05 7.18115E-19 4.18752E-20
 -1       402 1.15745E-04-3.65655E-05-3.39383E-05-1.16892E-05 2.41537E-18-1.57439E-18
 -1       403 1.17774E-04-3.82356E-05-3.41035E-05-6.79579E-06 1.18237E-18-1.64402E-18
 -1       404 1.17419E-04-3.77978E-05-3.41504E-05-1.44204E-06-6.22440E-19-2.50627E-20
 -1       405 1.15520E-04-3.63296E-05-3.39657E-05 2.59338E-06-1.46511E-18-7.19598E-19
 -1       406 1.12905E-04-3.46728E-05-3.35471E-05 4.90274E-06-6.32878E-19-1.23115E-18
 -1       407 1.10110E-04-3.32134E-05-3.29652E-05 5.79048E-06-4.19164E-19 4.71395E-19
 -1       408 1.07433E-04-3.20510E-05-3.23086E-05 5.74707E-06-5.93167E-20 1.15794E-18
 -1       409 1.05020E-04-3.11606E-05-3.16517E-05 5.19884E-06 6.65920E-19 1.20379E-18
 -1       410 1.02932E-04-3.04860E-05-3.10435E-05 4.43959E-06 1.55226E-18 1.07746E-18
 -1       411 1.01178E-04-2.99754E-05-3.05101E-05 3.64468E-06 5.65095E-19-6.00332E-19
 -1       412 9.97418E-05-2.95887E-05-3.00603E-05 2.90591E-06 4.11743E-19-4.47492E-19
 -1       413 9.85897E-05-2.92965E-05-2.96924E-05 2.26310E-06-1.73734E-19 5.81536E-19
 -1       414 9.76832E-05-2.90772E-05-2.93986E-05 1.72672E-06-3.29222E-20 1.44037E-18
 -1       415 9.69829E-05-2.89143E-05-2.91690E-05 1.29206E-06 1.49158E-18 5.10199E-19
 -1       416 9.64515E-05-2.87951E-05-2.89930E-05 9.47631E-07 2.10711E-18 4.88467E-19
 -1       417 9.60559E-05-2.87095E-05-2.88608E-05 6.79748E-07 5.07817E-19 5.00087E-19
 -1       418 9.57675E-05-2.86496E-05-2.87633E-05 4.74854E-07-1.89790E-19 6.75140E-20
 -1       419 9.55622E-05-2.86090E-05-2.86931E-05 3.20630E-07-1.93132E-18-4.88180E-19
 -1       420 9.54205E-05-2.85827E-05-2.86439E-05 2.06418E-07-9.47423E-19 7.43417E-19
 -1       421 9.53265E-05-2.85670E-05-2.86106E-05 1.23312E-07-6.72014E-20 2.14609E-18
 -1       422 9.52677E-05-2.85587E-05-2.85891E-05 6.40793E-08 8.17632E-20 2.27124E-18
 -1       423 9.52343E-05-2.85558E-05-2.85762E-05 2.30119E-08 1.26417E-18-4.17642E-19
 -1       424 9.52187E-05-2.85565E-05-2.85693E-05-4.23341E-09 8.23195E-19 1.50980E-18
 -1       425 9.52150E-05-2.85596E-05-2.85665E-05-2.07453E-08 9.34627E-19 1.09813E-18
 -1       426 9.52186E-05-2.85645E-05-2.85660E-05-2.83681E-08-4.09448E-19 1.58489E-18
 -1       427 9.52261E-05-2.85708E-05-2.85666E-05-2.78527E-08 5.72735E-19 1.84797E-18
 -1       428 9.52320E-05-2.85760E-05-2.85669E-05-2.39080E-08-6.77655E-19 7.98769E-19
 -1       429 9.52471E-05-2.85884E-05-2.85680E-05-2.38005E-08 7.38722E-19 1.41580E-18
 -1       430 9.52435E-05-2.85851E-05-2.85679E-05-2.90443E-08-1.41217E-18 3.13343E-18
 -1       431 9.52383E-05-2.85817E-05-2.85672E-05-2.91363E-08 2.76957E-19 2.32662E-18
 -1       432 9.52478E-05-2.85892E-05-2.85680E-05-1.67005E-08 8.61326E-19-7.21455E-19
 -1       433 9.52469E-05-2.85884E-05-2.85679E-05-9.97979E-09 8.25571E-19-1.90377E-19
 -1       434 9.52454E-05-2.85870E-05-2.85678E-05-4.77934E-09 9.65798E-19 3.24099E-19
 -1       435 9.52443E-05-2.85860E-05-2.85678E-05-1.02938E-09-1.28094E-18-7.62661E-19
 -1       436 9.52442E-05-2.85858E-05-2.85678E-05 2.08582E-09-1.42703E-18-2.18196E-18
 -1       437 9.52451E-05-2.85866E-05-2.85679E-05 5.65602E-09-1.55860E-18-2.91774E-18
 -1       438 9.52464E-05-2.85877E-05-2.85680E-05 1.04368E-08 8.84661E-19 4.18702E-19
 -1       439 9.52473E-05-2.85883E-05-2.85681E-05 1.67032E-08 8.18983E-19 2.02064E-18
 -1       440 9.52466E-05-2.85875E-05-2.85682E-05 2.35227E-08 1.52217E-18-5.13691E-19
 -1       441 9.52432E-05-2.85847E-05-2.85680E-05 2.89342E-08 2.36969E-19-1.65232E-18
 -1       442 5.80180E-05-4.17696E-05-7.11507E-06 4.14112E-05-3.35743E-19 3.56707E-18
 -1       443 1.31876E-05-1.92360E-05 2.71188E-06-4.33788E-07-4.00625E-19 1.79169E-18
 -1       444 2.24884E-05-2.55927E-05 1.29043E-06 2.34437E-05 6.38398E-19 2.12288E-19
 -1       445 9.08506E-05-5.16048E-05-1.70597E-05 4.12495E-05 1.42969E-18 2.10398E-18
 -1       446 1.30628E-04-5.49756E-05-3.24010E-05 2.79173E-05 1.62599E-18 9.05690E-19
 -1       447 8.95981E-05-1.16703E-05-3.34586E-05-9.36203E-06-1.23670E-18-2.62218E-18
 -1       448 1.62527E-04-3.06644E-05-5.62164E-05 1.73999E-06 4.15051E-18 6.30934E-19
 -1       449 1.55047E-04-1.45791E-05-6.03158E-05-4.14403E-06 5.60958E-18-6.75615E-19
 -1       450 1.61215E-04-1.56677E-05-6.21508E-05 1.44000E-06 4.33151E-18-5.06764E-19
 -1       451 1.60540E-04-2.58636E-05-5.75661E-05 6.58395E-07 3.39491E-18-1.30623E-18
 -1       452 1.51668E-04-4.50314E-05-4.56573E-05-1.30583E-05 2.42824E-18-1.38395E-18
 -1       453 1.32177E-04-5.50521E-05-3.30051E-05-2.73340E-05 1.61730E-18-1.54552E-18
 -1       454 9.27560E-05-5.32494E-05-1.69938E-05-4.20728E-05-3.08744E-19-1.98590E-18
 -1       455 5.00688E-05-3.95061E-05-4.77478E-06-3.99024E-05-5.07267E-19-4.70776E-18
 -1       456 2.12015E-05-2.66063E-05 2.12593E-06-2.28859E-05-4.45698E-19-6.18514E-18
 -1       457 1.22175E-05-2.34493E-05 4.56179E-06 6.64316E-06-3.70048E-19-4.95408E-18
 -1       458 2.90142E-05-2.93691E-05 3.17905E-08 3.14267E-05-4.14834E-19-2.00323E-18
 -1       459 5.99003E-05-4.24854E-05-7.71796E-06 4.30571E-05-1.24747E-18-1.66045E-18
 -1       460 9.77216E-05-5.23416E-05-1.94951E-05 4.16733E-05-8.68209E-19-1.74057E-18
 -1       461 1.38936E-04-5.12778E-05-3.75638E-05 2.05296E-05-1.60044E-18 1.15196E-19
 -1       462 1.51946E-04-3.94915E-05-4.81389E-05 9.73244E-06-3.96373E-18 1.28040E-18
 -1       463 1.57753E-04-2.29690E-05-5.76225E-05 2.06645E-07-4.92920E-18 9.41901E-19
 -1       464 1.58522E-04-1.31829E-05-6.20605E-05-4.45340E-07-4.41982E-18-1.00691E-19
 -1       465 1.61084E-04-1.72934E-05-6.12725E-05 2.19286E-07-4.35629E-18 2.84021E-19
 -1       466 1.58802E-04-2.81232E-05-5.56843E-05-3.50219E-06-2.94439E-18 1.08960E-18
 -1       467 1.47287E-04-4.45831E-05-4.39696E-05-1.41474E-05-2.23138E-18 6.72332E-19
 -1       468 1.26787E-04-5.30719E-05-3.15900E-05-2.99359E-05-7.53965E-19 2.79351E-18
 -1       469 9.74703E-05-5.28855E-05-1.90746E-05-4.19193E-05 8.08175E-19 2.65457E-18
 -1       470 5.36634E-05-3.96604E-05-6.20197E-06-4.21029E-05 2.80326E-18 5.43922E-18
 -1       471 2.55620E-05-2.70271E-05 5.70063E-07-2.84754E-05 1.31465E-18 4.86493E-18
 -1       472 1.51892E-04-4.64380E-05-4.51061E-05 1.10820E-05 2.79521E-18-1.69936E-19
 -1       473 1.50315E-04-3.74298E-05-4.86499E-05 8.15522E-06 2.04590E-18 6.79956E-19
 -1       474 1.26566E-04-5.94169E-05-2.87667E-05 2.67514E-05-5.84294E-19 1.15175E-18
 -1       475 9.68999E-05-2.52067E-05-3.07107E-05 4.26484E-06 1.79077E-18 1.03824E-18
 -1       476 8.82678E-05-1.19227E-05-3.27364E-05-2.86181E-06-8.28561E-21-2.38663E-18
 -1       477 8.94697E-05-1.32484E-05-3.26851E-05-4.45543E-06-4.34368E-19-2.47100E-18
 -1       478 8.72922E-05-1.08806E-05-3.27634E-05 1.02823E-07 7.28166E-19-2.28297E-18
 -1       479 8.75225E-05-1.11198E-05-3.27599E-05 1.54031E-06 1.07517E-18-2.23824E-18
 -1       480 8.82256E-05-1.18673E-05-3.27423E-05 2.99201E-06 1.44958E-18-2.01574E-18
 -1       481 8.94414E-05-1.32022E-05-3.26937E-05 4.53600E-06 1.84333E-18-1.49795E-18
 -1       482 9.11847E-05-1.52164E-05-3.25802E-05 6.10546E-06 2.12805E-18-9.88743E-19
 -1       483 9.35641E-05-1.81385E-05-3.23451E-05 7.54239E-06 2.19212E-18-3.67768E-19
 -1       484 9.65515E-05-2.65900E-05-2.99639E-05 6.94120E-07 1.60045E-18 7.83907E-19
 -1       485 9.63778E-05-2.43623E-05-3.08524E-05-3.95470E-06-1.32263E-18-1.23599E-18
 -1       486 9.64386E-05-2.60945E-05-3.01386E-05-6.01886E-07-8.74279E-19-1.06880E-18
 -1       487 9.64457E-05-2.70204E-05-2.97489E-05 1.79418E-06-6.62703E-19-9.16314E-19
 -1       488 9.66479E-05-2.76178E-05-2.95816E-05 3.53804E-06-7.16148E-19-1.05006E-18
 -1       489 9.71085E-05-2.81186E-05-2.95654E-05 4.84154E-06-6.52039E-19-7.64520E-19
 -1       490 9.78454E-05-2.86658E-05-2.96476E-05 5.80806E-06-6.03424E-19-8.00635E-19
 -1       491 9.88790E-05-2.93763E-05-2.97870E-05 6.44501E-06-4.16515E-19-9.33708E-19
 -1       492 1.00246E-04-3.03618E-05-2.99520E-05 6.67111E-06-4.54436E-19-9.65062E-19
 -1       493 1.01993E-04-3.17168E-05-3.01218E-05 6.32034E-06-6.76665E-21-3.01631E-19
 -1       494 1.04140E-04-3.34684E-05-3.02935E-05 5.15739E-06-2.42432E-20 3.61850E-19
 -1       495 1.06604E-04-3.54729E-05-3.04925E-05 2.93074E-06 3.67219E-19 5.39969E-19
 -1       496 1.09073E-04-3.72679E-05-3.07816E-05-4.91869E-07-7.96467E-20-6.25313E-19
 -1       497 1.10889E-04-3.79722E-05-3.12550E-05-4.84820E-06-5.83967E-19-2.54507E-19
 -1       498 1.11144E-04-3.64884E-05-3.19977E-05-9.09956E-06-7.75627E-19 1.95932E-19
 -1       499 1.09268E-04-3.23094E-05-3.29863E-05-1.12943E-05-8.82744E-19-2.34164E-19
 -1       500 1.05974E-04-2.66850E-05-3.39947E-05-9.35207E-06-1.57694E-18-1.30288E-18
 -1       501 1.03455E-04-2.27206E-05-3.46335E-05-2.94522E-06-1.46119E-18-1.63226E-18
 -1       502 1.03855E-04-2.32824E-05-3.45582E-05 5.03639E-06-7.78867E-19-7.76194E-19
 -1       503 1.06829E-04-2.79223E-05-3.38294E-05 1.06091E-05-8.12821E-19-7.99970E-19
 -1       504 1.10019E-04-3.34464E-05-3.28238E-05 1.15371E-05 4.50113E-19-1.77315E-18
 -1       505 1.11463E-04-3.70206E-05-3.19087E-05 8.74756E-06 7.49304E-19-1.75537E-18
 -1       506 1.10848E-04-3.79191E-05-3.12619E-05 4.43500E-06 9.14101E-19-1.62135E-18
 -1       507 1.08889E-04-3.68773E-05-3.08710E-05 3.52430E-07 5.02796E-19-1.48100E-18
 -1       508 1.06467E-04-3.49891E-05-3.06407E-05-2.67494E-06 6.18082E-19-1.86195E-18
 -1       509 1.04152E-04-3.30438E-05-3.04797E-05-4.51703E-06 9.89863E-19-2.06637E-18
 -1       510 1.02185E-04-3.14223E-05-3.03295E-05-5.36699E-06 4.94440E-19-1.71181E-18
 -1       511 1.00607E-04-3.02246E-05-3.01647E-05-5.50533E-06 3.21700E-19-7.17675E-19
 -1       512 9.93705E-05-2.94111E-05-2.99824E-05-5.19149E-06-6.07105E-19-5.06515E-19
 -1       513 9.84084E-05-2.88957E-05-2.97903E-05-4.62824E-06-2.78650E-20-6.75528E-20
 -1       514 9.76588E-05-2.85915E-05-2.95991E-05-3.95904E-06 6.80003E-19-6.24188E-19
 -1       515 9.70731E-05-2.84278E-05-2.94182E-05-3.27741E-06 1.03569E-18-1.97684E-18
 -1       516 9.66154E-05-2.83529E-05-2.92542E-05-2.63904E-06 6.17273E-19-1.60556E-18
 -1       517 9.62587E-05-2.83314E-05-2.91107E-05-2.07295E-06 7.99124E-19-4.84690E-19
 -1       518 9.59826E-05-2.83398E-05-2.89889E-05-1.59040E-06 9.64913E-19 1.68483E-18
 -1       519 9.57710E-05-2.83634E-05-2.88883E-05-1.19162E-06 4.62080E-19 2.28796E-18
 -1       520 9.56110E-05-2.83931E-05-2.88071E-05-8.70471E-07-4.21845E-19 7.16359E-19
 -1       521 9.54918E-05-2.84238E-05-2.87430E-05-6.17635E-07 2.26813E-20 2.30388E-19
 -1       522 9.54049E-05-2.84526E-05-2.86935E-05-4.22724E-07 1.25383E-18 3.74689E-19
 -1       523 9.53429E-05-2.84782E-05-2.86561E-05-2.75545E-07-5.26297E-19 2.59396E-18
 -1       524 9.53001E-05-2.85002E-05-2.86284E-05-1.66821E-07-1.23122E-18 2.89473E-18
 -1       525 9.52718E-05-2.85188E-05-2.86083E-05-8.85498E-08 1.18271E-18 1.19150E-18
 -1       526 9.52541E-05-2.85345E-05-2.85940E-05-3.41619E-08 3.44081E-19 1.55972E-18
 -1       527 9.52442E-05-2.85482E-05-2.85840E-05 1.43627E-09 1.61988E-18 2.56966E-19
 -1       528 9.52398E-05-2.85608E-05-2.85767E-05 2.19544E-08-1.29800E-18-1.21571E-18
 -1       529 9.66630E-05-2.77206E-05-2.95405E-05-3.63567E-06 8.49530E-19 3.42028E-19
 -1       530 9.72451E-05-2.80599E-05-2.96464E-05-5.14666E-06 4.57087E-19 1.31991E-19
 -1       531 9.81561E-05-2.84198E-05-2.98835E-05-6.47264E-06 2.62716E-19 2.60125E-20
 -1       532 9.93882E-05-2.88954E-05-3.02087E-05-7.66676E-06 1.76742E-19 2.86260E-20
 -1       533 1.00969E-04-2.96089E-05-3.05823E-05-8.67880E-06-5.52268E-20 4.48753E-19
 -1       534 1.02978E-04-3.07317E-05-3.09649E-05-9.33514E-06 3.69440E-19 1.47518E-19
 -1       535 1.05547E-04-3.24781E-05-3.13223E-05-9.30743E-06 5.59518E-19-1.80525E-19
 -1       536 1.08831E-04-3.50289E-05-3.16428E-05-8.09253E-06 2.17790E-19 2.45815E-20
 -1       537 1.12858E-04-3.83038E-05-3.19707E-05-5.06922E-06 2.18889E-19 9.07951E-20
 -1       538 1.17233E-04-4.15598E-05-3.24514E-05 2.44648E-07-1.23046E-19 9.10878E-19
 -1       539 1.20628E-04-4.28544E-05-3.33454E-05 7.45314E-06-9.66647E-19 1.68885E-18
 -1       540 1.20934E-04-3.95821E-05-3.49256E-05 1.41058E-05 2.68255E-20 1.41935E-18
 -1       541 1.17178E-04-3.11755E-05-3.69792E-05 1.53741E-05 1.04190E-18 2.47708E-18
 -1       542 1.12472E-04-2.27116E-05-3.86358E-05 7.54279E-06 1.08046E-18 1.73615E-18
 -1       543 1.11910E-04-2.20789E-05-3.86622E-05-5.90627E-06 3.61829E-19-4.15271E-19
 -1       544 1.16198E-04-2.93609E-05-3.73070E-05-1.50243E-05 1.03989E-18-2.07820E-18
 -1       545 1.20751E-04-3.84471E-05-3.53369E-05-1.52647E-05 1.68330E-18-1.59143E-18
 -1       546 1.21249E-04-4.27186E-05-3.36737E-05-9.22592E-06 1.36124E-18 2.71844E-19
 -1       547 1.18339E-04-4.20478E-05-3.27158E-05-1.95005E-06-1.46643E-19 2.17669E-19
 -1       548 1.14126E-04-3.89721E-05-3.22281E-05 3.66791E-06-2.08065E-19-4.38803E-19
 -1       549 1.10113E-04-3.56400E-05-3.19317E-05 6.95240E-06-6.73059E-19-1.69263E-18
 -1       550 1.06825E-04-3.29699E-05-3.16599E-05 8.31452E-06-9.14129E-19-2.04239E-18
 -1       551 1.04283E-04-3.11372E-05-3.13506E-05 8.39123E-06-1.09849E-18-2.15305E-18
 -1       552 1.02328E-04-2.99860E-05-3.10024E-05 7.73764E-06-3.47546E-19-1.78489E-18
 -1       553 1.00799E-04-2.93019E-05-3.06387E-05 6.74266E-06 7.43517E-19-6.53795E-19
 -1       554 9.95826E-05-2.89101E-05-3.02846E-05 5.64980E-06 1.29727E-18 3.77438E-19
 -1       555 9.86039E-05-2.86920E-05-2.99586E-05 4.59710E-06 3.15363E-19 9.72714E-19
 -1       556 9.78152E-05-2.85741E-05-2.96715E-05 3.65324E-06-6.00198E-19 3.11546E-20
 -1       557 9.71830E-05-2.85134E-05-2.94271E-05 2.84465E-06-2.45311E-20-1.69183E-18
 -1       558 9.66813E-05-2.84850E-05-2.92247E-05 2.17370E-06 4.36372E-19-2.14396E-18
 -1       559 9.62885E-05-2.84752E-05-2.90611E-05 1.63031E-06 1.05771E-18-7.73856E-19
 -1       560 9.59858E-05-2.84758E-05-2.89315E-05 1.19892E-06 1.39188E-18 6.29296E-19
 -1       561 9.57566E-05-2.84822E-05-2.88308E-05 8.62363E-07 3.23130E-19 2.31060E-20
 -1       562 9.55863E-05-2.84916E-05-2.87541E-05 6.04029E-07-1.40332E-18 8.37899E-20
 -1       563 9.54627E-05-2.85023E-05-2.86967E-05 4.08865E-07-3.10522E-18 1.37833E-18
 -1       564 9.53754E-05-2.85133E-05-2.86548E-05 2.63835E-07 1.28229E-20 2.09396E-18
 -1       565 9.53157E-05-2.85239E-05-2.86248E-05 1.58022E-07 2.34058E-20 1.17966E-18
 -1       566 9.52769E-05-2.85339E-05-2.86039E-05 8.25477E-08 1.65235E-18 1.79610E-18
 -1       567 9.52532E-05-2.85434E-05-2.85898E-05 3.04073E-08 1.07308E-18 2.22386E-18
 -1       568 9.52405E-05-2.85523E-05-2.85805E-05-3.71367E-09 8.68108E-20 1.59929E-18
 -1       569 9.52352E-05-2.85613E-05-2.85745E-05-2.36971E-08-5.80214E-19 3.45256E-18
 -1       570 9.52353E-05-2.85710E-05-2.85704E-05-3.19989E-08 1.00408E-18 2.88901E-18
 -1       571 9.52423E-05-2.85573E-05-2.85793E-05-8.86076E-09 2.33928E-18-2.65219E-19
 -1       572 9.52378E-05-2.85500E-05-2.85805E-05-3.34615E-09 1.73453E-18-1.84773E-19
 -1       573 9.52448E-05-2.85703E-05-2.85748E-05-2.53627E-08-4.28820E-20 3.60820E-18
 -1       574 9.52454E-05-2.85647E-05-2.85774E-05-1.67024E-08 7.40943E-19 1.53166E-18
 -1       575 8.84539E-05-4.96714E-05-1.63181E-05 4.09099E-05-1.13179E-18 2.07719E-18
 -1       576 9.52341E-05-2.85447E-05-2.85811E-05-4.72951E-10-7.92511E-20-8.09650E-19
 -1       577 9.52326E-05-2.85427E-05-2.85813E-05 6.88988E-10-1.25574E-18-2.73706E-18
 -1       578 9.52337E-05-2.85444E-05-2.85811E-05 1.73340E-09-4.30665E-20-1.35691E-18
 -1       579 9.52371E-05-2.85494E-05-2.85805E-05 4.22298E-09 1.99791E-19-5.55900E-19
 -1       580 9.52414E-05-2.85565E-05-2.85793E-05 9.26487E-09 6.01829E-19-2.39291E-19
 -1       581 9.52446E-05-2.85637E-05-2.85775E-05 1.63370E-08 5.65075E-19 1.29287E-18
 -1       582 9.52439E-05-2.85691E-05-2.85749E-05 2.44606E-08-7.31688E-19-1.92627E-18
 -1       583 1.21341E-04-6.09593E-05-2.58134E-05 2.82427E-05 3.22561E-19 2.87727E-19
 -1       584 9.64345E-05-2.72956E-05-2.96201E-05-1.78391E-06 1.12223E-18 5.58038E-19
 -1       585 3.03231E-05-1.39137E-05-6.33262E-06 1.38193E-05-5.25280E-19 1.49274E-18
 -1       586 2.88148E-05-1.47411E-05-5.40084E-06-1.72909E-05-5.75903E-19 2.28191E-18
 -1       587 9.52991E-05-2.07413E-05-3.19750E-05-7.90279E-06-1.62546E-18-1.52638E-18
 -1       588 1.42436E-04-5.77742E-05-3.64692E-05 5.89524E-06 7.09655E-19-2.02647E-18
 -1       589 1.32563E-04-7.74900E-06-5.40636E-05 3.24660E-06-4.33829E-18-1.08177E-18
 -1       590 1.46700E-04-3.99646E-05-4.61252E-05-9.62976E-06 2.44999E-18-1.89847E-18
 -1       591 8.75431E-05-1.11469E-05-3.27571E-05-1.34786E-06 4.50492E-19-2.33095E-18
 -1       592 1.34984E-04-9.94666E-06-5.42668E-05 7.81473E-07 4.29965E-18 1.49118E-19
 -1       593 1.43729E-04-5.65593E-05-3.75549E-05-5.91142E-06 6.85428E-19 2.68457E-19
 -1       594 1.38484E-04-1.78952E-05-5.22974E-05 1.06402E-05 3.30671E-18 9.57835E-19
 -1       595 1.35842E-04-1.28430E-05-5.32608E-05-7.65612E-06-3.58814E-18 2.78568E-19
 -1       596 1.38528E-04-2.02481E-05-5.12164E-05-1.25508E-05 3.61641E-18-2.52233E-18
 -1       597 1.22786E-04-6.12177E-05-2.64146E-05-2.75965E-05-1.14079E-18-3.35862E-19
 -1       598 8.02604E-05-4.53019E-05-1.45916E-05-4.15327E-05-2.41177E-18-1.91832E-18
 -1       599 4.81354E-05-2.86974E-05-7.80468E-06-3.57582E-05-2.03161E-18-3.74426E-18
 -1       600 2.53032E-05-1.40230E-05-4.17390E-06-8.67340E-06-2.25364E-19-5.21073E-18
 -1       601 2.76833E-05-1.74044E-05-3.86926E-06 2.00413E-05 1.08868E-18-3.21100E-18
 -1       602 5.80415E-05-3.45473E-05-9.58913E-06 4.13201E-05 4.75080E-19-8.86314E-19
 -1       603 8.82360E-05-4.90820E-05-1.64528E-05 4.23435E-05 5.95782E-19-1.23485E-18
 -1       604 1.41650E-04-4.88474E-05-4.01160E-05 7.84902E-08-1.57741E-18 2.70648E-18
 -1       605 1.38601E-04-5.57058E-05-3.57355E-05-9.80303E-06 3.44378E-19-8.46292E-19
 -1       606 1.41100E-04-3.10112E-05-4.76669E-05-9.30929E-06-3.82070E-18 1.92986E-18
 -1       607 1.39213E-04-1.92005E-05-5.19772E-05 9.54278E-06-3.17050E-18-1.42905E-18
 -1       608 1.43469E-04-3.75201E-05-4.57672E-05 6.32307E-06-1.42384E-18-1.27849E-19
 -1       609 1.22312E-04-5.87923E-05-2.71788E-05-2.70129E-05 1.47188E-18 7.87238E-19
 -1       610 8.35773E-05-4.59393E-05-1.58189E-05-4.20974E-05 2.82692E-18 3.08119E-18
 -1       611 5.48823E-05-3.11721E-05-9.62993E-06-3.92785E-05 2.45115E-18 4.93619E-18
 -1       612 9.70700E-05-2.33451E-05-3.15991E-05 8.12688E-06 2.10516E-18 1.38712E-18
 -1       613 5.07456E-05-2.93472E-05-8.66970E-06 3.61208E-05 1.96406E-19 1.87078E-18
 -1       614 1.26239E-04-1.43707E-05-4.84124E-05-9.05868E-06 2.88002E-18-6.33687E-19
 -1       615 9.11401E-05-1.52125E-05-3.25725E-05-6.03555E-06-9.98626E-19-2.39611E-18
 -1       616 1.08289E-04-5.50552E-05-2.26225E-05-3.28044E-05 2.03362E-18 1.16694E-18
 -1       617 9.52392E-05-2.85694E-05-2.85728E-05 2.89549E-08-1.75846E-18-4.48593E-19
 -1       618 1.13130E-04-5.74640E-05-2.36961E-05 3.18778E-05 6.70082E-19 7.99063E-19
 -1       619 1.35281E-04-5.73283E-05-3.35349E-05 9.09220E-06-1.23078E-19 1.61434E-18
 -1       620 1.07613E-04-5.49527E-05-2.23387E-05-3.23907E-05-2.49351E-18-1.06254E-18
 -1       621 8.94972E-05-1.45594E-05-3.21212E-05 1.50723E-06 1.15340E-18-1.73395E-18
 -1       622 8.89932E-05-1.39948E-05-3.21469E-05 5.80339E-07 8.40030E-19-1.96097E-18
 -1       623 9.20220E-05-1.75566E-05-3.19194E-05 3.33169E-06 1.70515E-18-1.03539E-18
 -1       624 9.38957E-05-2.00619E-05-3.16505E-05 4.01904E-06 1.82185E-18-6.55696E-19
 -1       625 9.58571E-05-2.36304E-05-3.09442E-05 2.88263E-06 1.70680E-18-6.22482E-20
 -1       626 9.60459E-05-2.52657E-05-3.03296E-05-2.66296E-07 1.37177E-18 4.09326E-20
 -1       627 9.58415E-05-2.49608E-05-3.03784E-05 4.14061E-07-7.19851E-19-1.42899E-18
 -1       628 9.60132E-05-2.60534E-05-2.99815E-05 2.66707E-06-6.42341E-19-1.43654E-18
 -1       629 9.61847E-05-2.67955E-05-2.97376E-05 4.42983E-06-3.42442E-19-1.24251E-18
 -1       630 9.64762E-05-2.74140E-05-2.95977E-05 5.83464E-06-6.43447E-19-1.02891E-18
 -1       631 9.69951E-05-2.81106E-05-2.95218E-05 6.94180E-06-3.32044E-19-7.41829E-19
 -1       632 9.78648E-05-2.90784E-05-2.94800E-05 7.74297E-06-1.74376E-19-2.75164E-19
 -1       633 9.92434E-05-3.05125E-05-2.94568E-05 8.14669E-06-1.02732E-20 2.10656E-19
 -1       634 1.01318E-04-3.25815E-05-2.94600E-05 7.96210E-06 2.99493E-19 1.44781E-19
 -1       635 1.04245E-04-3.53357E-05-2.95357E-05 6.88386E-06-1.03860E-19-2.41160E-19
 -1       636 1.08012E-04-3.85211E-05-2.97859E-05 4.50847E-06-1.44262E-19-7.00059E-20
 -1       637 1.12163E-04-4.12837E-05-3.03795E-05 4.76644E-07-5.36403E-20 3.32501E-19
 -1       638 1.15515E-04-4.19549E-05-3.15277E-05-5.06356E-06-5.64498E-19-5.40728E-21
 -1       639 1.16302E-04-3.85001E-05-3.33689E-05-1.06090E-05-1.24038E-18-5.28798E-19
 -1       640 1.13478E-04-3.03820E-05-3.56745E-05-1.28131E-05-1.39954E-18-8.46272E-20
 -1       641 1.08844E-04-2.12782E-05-3.76077E-05-8.42306E-06-1.70335E-18 8.06647E-19
 -1       642 1.06536E-04-1.76871E-05-3.82478E-05 1.40130E-06-1.21778E-18 3.29318E-19
 -1       643 1.09937E-04-2.32041E-05-3.72314E-05 1.05223E-05-6.99300E-19-1.29250E-18
 -1       644 1.14314E-04-3.24077E-05-3.51700E-05 1.33183E-05-1.54534E-19-9.45779E-19
 -1       645 1.16420E-04-3.95615E-05-3.29595E-05 1.00033E-05 3.05305E-19-9.42979E-19
 -1       646 1.14930E-04-4.19214E-05-3.12933E-05 4.33723E-06 6.24028E-19-9.83854E-19
 -1       647 1.11260E-04-4.05632E-05-3.03043E-05-8.10565E-07 1.43052E-19-2.24008E-18
 -1       648 1.07132E-04-3.75735E-05-2.98152E-05-4.32535E-06 4.77744E-19-1.68613E-18
 -1       649 1.03542E-04-3.44375E-05-2.96188E-05-6.24930E-06 6.59575E-19-1.12545E-18
 -1       650 1.00812E-04-3.18521E-05-2.95557E-05-6.99034E-06 8.59568E-19-1.13598E-18
 -1       651 9.88973E-05-2.99935E-05-2.95306E-05-6.95963E-06 1.07681E-18-2.60403E-18
 -1       652 9.76189E-05-2.87900E-05-2.94980E-05-6.47181E-06 4.28589E-19-1.64732E-18
 -1       653 9.67906E-05-2.80898E-05-2.94429E-05-5.74542E-06-3.11025E-19-4.55619E-19
 -1       654 9.62618E-05-2.77401E-05-2.93660E-05-4.92542E-06-1.75933E-19-1.53736E-18
 -1       655 9.59250E-05-2.76166E-05-2.92746E-05-4.10410E-06-8.92712E-19-1.64882E-18
 -1       656 9.57086E-05-2.76279E-05-2.91770E-05-3.33672E-06 3.95721E-19-2.04412E-18
 -1       657 9.55669E-05-2.77120E-05-2.90803E-05-2.65283E-06 1.80638E-18-2.02360E-18
 -1       658 9.54718E-05-2.78287E-05-2.89896E-05-2.06459E-06 1.53822E-18-1.35997E-18
 -1       659 9.54063E-05-2.79535E-05-2.89081E-05-1.57296E-06 8.30540E-19-1.07846E-18
 -1       660 9.53600E-05-2.80725E-05-2.88373E-05-1.17198E-06-1.92174E-19-7.00178E-19
 -1       661 9.53265E-05-2.81786E-05-2.87775E-05-8.51938E-07 1.01539E-18-8.29311E-19
 -1       662 9.53019E-05-2.82691E-05-2.87282E-05-6.01551E-07 5.25827E-19 9.86537E-20
 -1       663 9.52838E-05-2.83438E-05-2.86885E-05-4.09439E-07 4.76373E-19 3.95694E-19
 -1       664 9.52703E-05-2.84039E-05-2.86570E-05-2.64975E-07-1.16811E-18-3.34635E-19
 -1       665 9.52604E-05-2.84513E-05-2.86324E-05-1.58748E-07-1.06433E-18 1.49735E-18
 -1       666 9.52533E-05-2.84885E-05-2.86134E-05-8.27718E-08 7.45886E-19 1.44277E-18
 -1       667 9.52484E-05-2.85179E-05-2.85988E-05-3.06407E-08-1.41250E-18 5.41021E-19
 -1       668 9.52454E-05-2.85416E-05-2.85874E-05 2.44483E-09-8.73656E-19-2.70863E-18
 -1       669 9.63668E-05-2.69439E-05-2.97512E-05-6.42093E-06 5.98385E-19-5.23334E-20
 -1       670 1.31399E-04-5.94840E-05-3.08476E-05 9.24675E-06-2.70124E-20-2.94988E-18
 -1       671 9.61864E-05-2.66548E-05-2.97976E-05-4.71045E-06 7.31237E-19 2.72141E-19
 -1       672 9.72804E-05-2.76341E-05-2.98475E-05-9.39151E-06-1.22332E-19-2.41900E-20
 -1       673 9.82375E-05-2.84579E-05-2.99053E-05-1.06557E-05 4.08902E-19-2.37964E-19
 -1       674 9.98427E-05-3.00135E-05-2.99280E-05-1.16109E-05 4.46356E-19-4.53552E-20
 -1       675 1.02516E-04-3.27113E-05-2.99193E-05-1.19500E-05 2.56805E-19 2.64784E-19
 -1       676 1.06793E-04-3.69008E-05-2.99593E-05-1.11162E-05-2.64012E-19 1.04989E-18
 -1       677 1.13038E-04-4.24091E-05-3.02750E-05-8.18643E-06-6.49154E-19 1.73925E-18
 -1       678 1.20910E-04-4.77733E-05-3.13789E-05-1.90908E-06-8.87456E-19 1.82027E-18
 -1       679 1.27903E-04-4.89180E-05-3.39439E-05 7.48543E-06-8.21291E-19 2.54089E-18
 -1       680 1.28790E-04-4.06582E-05-3.80202E-05 1.57648E-05-2.58544E-19 3.28703E-18
 -1       681 1.20070E-04-1.46722E-05-4.56251E-05 1.70071E-06 2.85916E-18 7.89064E-19
 -1       682 1.27203E-04-3.75099E-05-3.87710E-05-1.74572E-05 8.47867E-19-1.86284E-18
 -1       683 1.27691E-04-4.74875E-05-3.44998E-05-9.98508E-06 3.72900E-19-1.67753E-18
 -1       684 1.22557E-04-4.80529E-05-3.19316E-05-6.93021E-07 1.86653E-19-1.31268E-18
 -1       685 1.14753E-04-4.31897E-05-3.06784E-05 6.18885E-06-5.29552E-19 3.04603E-19
 -1       686 1.08350E-04-3.76993E-05-3.02866E-05 9.58716E-06 7.62020E-19 1.67011E-19
 -1       687 1.03817E-04-3.33280E-05-3.02135E-05 1.07337E-05 2.71751E-19-1.38136E-18
 -1       688 1.00919E-04-3.04443E-05-3.02050E-05 1.05281E-05-5.20882E-19-1.54715E-18
 -1       689 9.91397E-05-2.87715E-05-3.01577E-05 9.62524E-06-8.17150E-19-2.62613E-18
 -1       690 9.80444E-05-2.79196E-05-3.00525E-05 8.41129E-06-8.00954E-19-2.19845E-18
 -1       691 9.73413E-05-2.75669E-05-2.99019E-05 7.11416E-06-8.05937E-19-5.75728E-19
 -1       692 9.68584E-05-2.74915E-05-2.97272E-05 5.86439E-06 9.85847E-19-1.34321E-19
 -1       693 9.65022E-05-2.75557E-05-2.95471E-05 4.73098E-06 5.47252E-19-9.95686E-19
 -1       694 9.62247E-05-2.76799E-05-2.93752E-05 3.74425E-06 7.17180E-19-2.64550E-18
 -1       695 9.60020E-05-2.78211E-05-2.92194E-05 2.91080E-06 3.90626E-19-3.12495E-18
 -1       696 9.58215E-05-2.79575E-05-2.90838E-05 2.22345E-06-1.05279E-19-2.70274E-18
 -1       697 9.56761E-05-2.80796E-05-2.89693E-05 1.66787E-06 5.51663E-19-2.29219E-18
 -1       698 9.55604E-05-2.81842E-05-2.88750E-05 1.22672E-06 6.66448E-19 6.61683E-19
 -1       699 9.54698E-05-2.82712E-05-2.87991E-05 8.82181E-07 1.19184E-19 1.72627E-18
 -1       700 9.54004E-05-2.83421E-05-2.87390E-05 6.17336E-07-2.12317E-18 2.23795E-18
 -1       701 9.53484E-05-2.83988E-05-2.86925E-05 4.16976E-07-6.66758E-19-2.74888E-19
 -1       702 9.53104E-05-2.84438E-05-2.86570E-05 2.67965E-07-3.20528E-19 1.68283E-19
 -1       703 9.52834E-05-2.84790E-05-2.86304E-05 1.59299E-07 1.11342E-18 2.03534E-18
 -1       704 9.52651E-05-2.85067E-05-2.86107E-05 8.20508E-08 1.42819E-18 8.92990E-19
 -1       705 9.52532E-05-2.85286E-05-2.85962E-05 2.91626E-08-1.48844E-19 1.87571E-18
 -1       706 9.52464E-05-2.85468E-05-2.85855E-05-4.66909E-09-1.37165E-18 1.78351E-18
 -1       707 9.52450E-05-2.85576E-05-2.85803E-05-1.83197E-08 6.18733E-20 1.99825E-18
 -1       708 9.52181E-05-2.84961E-05-2.85951E-05 2.99499E-09-1.75489E-19-1.13645E-18
 -1       709 9.52446E-05-2.85561E-05-2.85808E-05 1.64280E-08-2.45099E-19-3.63696E-18
 -1       710 9.52314E-05-2.85158E-05-2.85924E-05 5.42315E-09 2.74983E-18-2.69150E-18
 -1       711 1.41140E-04-4.68207E-05-4.06988E-05 1.01848E-05 6.83384E-19 1.47487E-18
 -1       712 9.52178E-05-2.84960E-05-2.85951E-05-1.44344E-09 4.39460E-19-1.44601E-18
 -1       713 9.52232E-05-2.85032E-05-2.85943E-05 6.01611E-09 2.01302E-18-1.80018E-18
 -1       714 9.52223E-05-2.85026E-05-2.85942E-05-4.65277E-09 1.16203E-18-1.32180E-18
 -1       715 9.52303E-05-2.85149E-05-2.85923E-05-4.55534E-09-3.95499E-19-8.43303E-19
 -1       716 9.52391E-05-2.85303E-05-2.85895E-05-8.46428E-11-1.44384E-18 1.70520E-18
 -1       717 9.61079E-05-2.61666E-05-2.99719E-05-2.71715E-06 1.06583E-18 1.57717E-19
 -1       718 1.08792E-04-5.39237E-05-2.33497E-05 2.92223E-05-1.55933E-18 3.97576E-20
 -1       719 9.44384E-05-2.05195E-05-3.16839E-05-5.07279E-06-1.22283E-18-1.82687E-18
 -1       720 1.34100E-04-5.99006E-05-3.18200E-05-8.57830E-06-1.51044E-18 1.31031E-18
 -1       721 1.32132E-04-2.87677E-05-4.47669E-05 1.62043E-05 2.17449E-18 1.75349E-18
 -1       722 5.11274E-05-2.26228E-05-1.17221E-05 3.01192E-05 1.26115E-18-1.68591E-18
 -1       723 1.22374E-04-1.39811E-05-4.69685E-05 1.00710E-05-3.34102E-18-2.01651E-18
 -1       724 5.01831E-05-2.06821E-05-1.21660E-05-2.80251E-05 1.30112E-19 3.07018E-18
 -1       725 9.67059E-05-2.72098E-05-2.97828E-05-7.96655E-06 2.34782E-20-8.31331E-20
 -1       726 1.35457E-04-4.72352E-05-3.80788E-05 6.42114E-06-2.15318E-19-1.67945E-18
 -1       727 3.92478E-05-1.10316E-05-1.15870E-05-2.93698E-06-1.14522E-19 1.89995E-18
 -1       728 9.53526E-05-2.31821E-05-3.09263E-05-2.08556E-06-9.85966E-19-1.52489E-18
 -1       729 9.05192E-05-1.57363E-05-3.20553E-05 2.43278E-06 1.50781E-18-1.47363E-18
 -1       730 1.38460E-04-4.89866E-05-3.85642E-05-1.01094E-05 4.80307E-19-3.47892E-18
 -1       731 9.06189E-05-1.58550E-05-3.20469E-05-2.32878E-06-1.92275E-19-2.09268E-18
 -1       732 1.34091E-04-3.33716E-05-4.38108E-05-1.63522E-05 1.70674E-18-3.25433E-18
 -1       733 3.60912E-05-1.21574E-05-9.70317E-06 7.15394E-06 9.10481E-19-3.20951E-18
 -1       734 7.15080E-05-3.47548E-05-1.53227E-05-3.58732E-05-1.91239E-18-2.36282E-18
 -1       735 1.30731E-04-2.77183E-05-4.46342E-05 1.36515E-05-2.10249E-18-2.32961E-18
 -1       736 4.68934E-05-1.80821E-05-1.18411E-05-2.23132E-05-1.22179E-18-3.59290E-18
 -1       737 8.00404E-05-4.00987E-05-1.67356E-05 3.83412E-05 1.03894E-18-7.97587E-19
 -1       738 1.19899E-04-9.70186E-06-4.77345E-05-4.08152E-06-2.83846E-18-3.10623E-19
 -1       739 1.27205E-04-2.22192E-05-4.55315E-05-1.29272E-05-2.50179E-18 1.11464E-18
 -1       740 1.32757E-04-3.95357E-05-4.02972E-05-1.11241E-05-2.06345E-18 2.00564E-18
 -1       741 1.23872E-04-1.46445E-05-4.73531E-05 7.31493E-06 3.13243E-18 1.19315E-18
 -1       742 5.38380E-05-2.06098E-05-1.38065E-05 2.51838E-05-5.58512E-19 1.70592E-18
 -1       743 1.30338E-04-5.83635E-05-3.08977E-05-1.24408E-05 8.56152E-19 2.02957E-19
 -1       744 7.97404E-05-3.85281E-05-1.73188E-05 3.54556E-05-9.25622E-19 1.24143E-18
 -1       745 7.66562E-05-3.73050E-05-1.65157E-05-3.73075E-05 1.98089E-18 4.07868E-18
 -1       746 9.20725E-05-1.76222E-05-3.19130E-05-3.33364E-06-6.97099E-19-1.94827E-18
 -1       747 8.90251E-05-1.40310E-05-3.21450E-05-3.53608E-07 5.04926E-19-2.03335E-18
 -1       748 1.00833E-04-4.96831E-05-2.17380E-05 3.28020E-05 1.19548E-18 7.58975E-19
 -1       749 9.52401E-05-2.85314E-05-2.85895E-05 2.61779E-10 1.92090E-18 2.88538E-18
 -1       750 5.19231E-05-1.39490E-05-1.59895E-05 1.12294E-05 4.58837E-20 1.38686E-18
 -1       751 1.23961E-04-2.44805E-05-4.30255E-05 1.48688E-05 2.20496E-18 3.11441E-18
 -1       752 9.52450E-05-2.85460E-05-2.85853E-05-8.34822E-09-4.94992E-19 3.08768E-18
 -1       753 1.22774E-04-5.77685E-05-2.78316E-05-1.76789E-05-2.08706E-18 9.01731E-19
 -1       754 1.25504E-04-5.84548E-05-2.87141E-05 1.72993E-05 2.14511E-19 1.31413E-18
 -1       755 1.32615E-04-4.93076E-05-3.58826E-05-4.46437E-06-1.51662E-18 1.38017E-18
 -1       756 8.95780E-05-1.46516E-05-3.21161E-05-1.31967E-06 9.08398E-20-1.92335E-18
 -1       757 9.40841E-05-4.47486E-05-2.09714E-05-3.22701E-05-2.17445E-18-7.52351E-19
 -1       758 4.75937E-05-1.31935E-05-1.43671E-05-8.46002E-06-2.25162E-19-2.98947E-18
 -1       759 9.38986E-05-2.11668E-05-3.11698E-05 1.36710E-06 1.40930E-18-7.44359E-19
 -1       760 9.77830E-05-4.28909E-05-2.33745E-05 2.63373E-05-2.51319E-18-3.14090E-19
 -1       761 9.50752E-05-2.50521E-05-3.00096E-05 3.43577E-06-3.83290E-19-1.32076E-18
 -1       762 9.51153E-05-2.58449E-05-2.96872E-05 5.12353E-06-3.77143E-19-1.07669E-18
 -1       763 9.51969E-05-2.65377E-05-2.94252E-05 6.57845E-06-2.84863E-19-9.18153E-19
 -1       764 9.54948E-05-2.73774E-05-2.91930E-05 7.85490E-06 4.86368E-20-5.48372E-19
 -1       765 9.62239E-05-2.86253E-05-2.89707E-05 8.95731E-06 3.64457E-19-3.26539E-19
 -1       766 9.76671E-05-3.05627E-05-2.87589E-05 9.81489E-06 3.77679E-19 3.89121E-20
 -1       767 1.00180E-04-3.34554E-05-2.85971E-05 1.02274E-05-1.70523E-21 2.85310E-19
 -1       768 1.04117E-04-3.74153E-05-2.85882E-05 9.78787E-06 3.23223E-19 4.80148E-19
 -1       769 1.09658E-04-4.21374E-05-2.89379E-05 7.76544E-06 3.02481E-19 2.91889E-19
 -1       770 1.16231E-04-4.62436E-05-2.99998E-05 3.21500E-06-1.36928E-19 7.35997E-19
 -1       771 1.21800E-04-4.67200E-05-3.21957E-05-4.02141E-06-1.00895E-18 1.95453E-18
 -1       772 1.18423E-04-2.52803E-05-4.02686E-05-1.40251E-05-1.56301E-18 1.02236E-18
 -1       773 1.22874E-04-4.15248E-05-3.49879E-05 1.04220E-05 5.91494E-19-3.10068E-18
 -1       774 1.20622E-04-4.68581E-05-3.16279E-05 2.83349E-06 1.00804E-18-2.19682E-18
 -1       775 1.14485E-04-4.50866E-05-2.97476E-05-3.76314E-06 3.87567E-20-1.24139E-18
 -1       776 1.08043E-04-4.06567E-05-2.88824E-05-7.54296E-06 3.81500E-19-9.48861E-19
 -1       777 1.02820E-04-3.60446E-05-2.86198E-05-9.04409E-06 3.11934E-19-8.06056E-19
 -1       778 9.91614E-05-3.23288E-05-2.86430E-05-9.17478E-06 5.65045E-19-1.84234E-18
 -1       779 9.68410E-05-2.97189E-05-2.87666E-05-8.59617E-06-2.64385E-19-2.37199E-18
 -1       780 9.54972E-05-2.80730E-05-2.88959E-05-7.69355E-06 8.53348E-19-2.58554E-18
 -1       781 9.48015E-05-2.71543E-05-2.89914E-05-6.67566E-06 6.70294E-19-2.52184E-18
 -1       782 9.45065E-05-2.67382E-05-2.90434E-05-5.65441E-06-4.29420E-19-1.34369E-18
 -1       783 9.44420E-05-2.66446E-05-2.90559E-05-4.69102E-06-7.75808E-19 6.92535E-19
 -1       784 9.44980E-05-2.67416E-05-2.90383E-05-3.81820E-06-8.33653E-19-6.03250E-19
 -1       785 9.46073E-05-2.69384E-05-2.90008E-05-3.05134E-06 7.44831E-19-1.79377E-18
 -1       786 9.47311E-05-2.71759E-05-2.89521E-05-2.39455E-06 1.58204E-18-2.43320E-18
 -1       787 9.48490E-05-2.74179E-05-2.88990E-05-1.84459E-06 1.60759E-18-2.65747E-18
 -1       788 9.49513E-05-2.76436E-05-2.88461E-05-1.39353E-06 2.53081E-19-1.55791E-18
 -1       789 9.50349E-05-2.78425E-05-2.87967E-05-1.03058E-06-2.50184E-19-9.65215E-19
 -1       790 9.51001E-05-2.80110E-05-2.87525E-05-7.43745E-07 2.77539E-19-2.51107E-18
 -1       791 9.51490E-05-2.81494E-05-2.87141E-05-5.21065E-07 1.19070E-18-2.52774E-18
 -1       792 9.51842E-05-2.82605E-05-2.86816E-05-3.51343E-07 2.41183E-19-1.53477E-18
 -1       793 9.52084E-05-2.83477E-05-2.86546E-05-2.24542E-07-1.70895E-19-8.02967E-19
 -1       794 9.52242E-05-2.84152E-05-2.86324E-05-1.31998E-07 5.03475E-19 1.86542E-18
 -1       795 9.52340E-05-2.84672E-05-2.86143E-05-6.66039E-08-5.01794E-19 2.65664E-18
 -1       796 9.52398E-05-2.85078E-05-2.85994E-05-2.24834E-08-3.01118E-18 2.42049E-18
 -1       797 9.44469E-05-2.69776E-05-2.89154E-05-1.20401E-05 1.56700E-19-4.40194E-19
 -1       798 9.41583E-05-2.60323E-05-2.91964E-05-1.04021E-05 3.28620E-19-7.69063E-19
 -1       799 9.82652E-05-3.26384E-05-2.81230E-05-1.51764E-05-5.28493E-19 4.43756E-19
 -1       800 1.03535E-04-3.86071E-05-2.78177E-05-1.60126E-05-1.00470E-18 3.50796E-19
 -1       801 1.12369E-04-4.67347E-05-2.80669E-05-1.49799E-05-1.27045E-18 6.97785E-19
 -1       802 7.01818E-05-2.73732E-05-1.81321E-05-2.87247E-05 1.24051E-18 3.01095E-18
 -1       803 5.22535E-05-1.61122E-05-1.51732E-05 1.70052E-05 1.17272E-18-2.38501E-18
 -1       804 1.05504E-04-3.98947E-05-2.81252E-05 1.45571E-05-4.20324E-19-1.20553E-18
 -1       805 9.94270E-05-3.34485E-05-2.82751E-05 1.42546E-05 7.53210E-19-1.99984E-19
 -1       806 9.62353E-05-2.93926E-05-2.86469E-05 1.28635E-05 2.21686E-20 3.77002E-19
 -1       807 9.47520E-05-2.71562E-05-2.89691E-05 1.12377E-05 5.99906E-19-4.83615E-19
 -1       808 9.42124E-05-2.61160E-05-2.91836E-05 9.61229E-06-1.12868E-18-1.08811E-18
 -1       809 9.41483E-05-2.57998E-05-2.92916E-05 8.08251E-06-1.06014E-18-2.11771E-18
 -1       810 9.42873E-05-2.58814E-05-2.93163E-05 6.68836E-06-2.41448E-19-1.84134E-18
 -1       811 9.44876E-05-2.61564E-05-2.92844E-05 5.44794E-06 6.05325E-19-1.88164E-19
 -1       812 9.46826E-05-2.65043E-05-2.92189E-05 4.36820E-06 1.12620E-18 2.06326E-19
 -1       813 9.48463E-05-2.68589E-05-2.91372E-05 3.44745E-06 4.80127E-19-5.24021E-19
 -1       814 9.49732E-05-2.71866E-05-2.90512E-05 2.67724E-06-4.42201E-20-7.49467E-19
 -1       815 9.50664E-05-2.74732E-05-2.89683E-05 2.04442E-06-4.47276E-19-6.09214E-19
 -1       816 9.51323E-05-2.77152E-05-2.88929E-05 1.53328E-06-9.72064E-19 4.00847E-19
 -1       817 9.51773E-05-2.79144E-05-2.88269E-05 1.12721E-06-1.27529E-18 2.07996E-18
 -1       818 9.52070E-05-2.80749E-05-2.87709E-05 8.09714E-07-2.07070E-18 4.08402E-18
 -1       819 9.52258E-05-2.82020E-05-2.87244E-05 5.65361E-07-1.08928E-18 4.09920E-18
 -1       820 9.52370E-05-2.83012E-05-2.86867E-05 3.80359E-07 2.80900E-19 3.65405E-18
 -1       821 9.52430E-05-2.83777E-05-2.86566E-05 2.42805E-07 1.27889E-19 1.20714E-18
 -1       822 9.52458E-05-2.84361E-05-2.86327E-05 1.42656E-07 2.80967E-19 2.91929E-18
 -1       823 9.52464E-05-2.84806E-05-2.86139E-05 7.20354E-08-6.40951E-19 5.76174E-18
 -1       824 9.52461E-05-2.85151E-05-2.85990E-05 2.44058E-08-5.33252E-19 6.58874E-18
 -1       825 9.52450E-05-2.85306E-05-2.85919E-05 5.09262E-09-4.63372E-19 6.30265E-18
 -1       826 1.17364E-04-5.42323E-05-2.70529E-05-1.85143E-05 1.13713E-18-1.16300E-19
 -1       827 9.03211E-05-1.67130E-05-3.15472E-05 5.11970E-07 8.96694E-19-1.56543E-18
 -1       828 9.52248E-05-2.84832E-05-2.86036E-05-2.42714E-08-2.33741E-18 7.18914E-20
 -1       829 7.62148E-05-2.90612E-05-2.00308E-05 2.61882E-05-9.67897E-19-2.06491E-19
 -1       830 9.51951E-05-2.84391E-05-2.86097E-05 7.47535E-10 1.43037E-18-1.97552E-18
 -1       831 1.24263E-04-3.60947E-05-3.79546E-05 1.38468E-05-7.59008E-19-2.91652E-18
 -1       832 9.52098E-05-2.84601E-05-2.86070E-05-2.16396E-08-3.41965E-19-3.42108E-18
 -1       833 1.14839E-04-4.81266E-05-2.86302E-05 1.26136E-05-1.33673E-18-2.06213E-18
 -1       834 9.55767E-05-2.89701E-05-2.85459E-05-1.36826E-05-1.87255E-19-1.81044E-19
 -1       835 9.48473E-05-2.53150E-05-2.97993E-05-5.42451E-06 7.89947E-19-4.68920E-19
 -1       836 1.32978E-04-5.16636E-05-3.51174E-05 4.99433E-06-8.81072E-19 2.78158E-18
 -1       837 9.49366E-05-2.39412E-05-3.04269E-05 1.42916E-06-6.43807E-19-1.38493E-18
 -1       838 6.73779E-05-2.56267E-05-1.76131E-05-2.67858E-05-1.40067E-18-2.59118E-18
 -1       839 9.76873E-05-4.46705E-05-2.25613E-05-2.92310E-05 2.19947E-18 2.02403E-18
 -1       840 7.16754E-05-2.95533E-05-1.77729E-05 3.05311E-05 1.44207E-18-3.76083E-19
 -1       841 5.31076E-05-1.47740E-05-1.61544E-05-1.43075E-05 2.31015E-20 2.10427E-18
 -1       842 9.51989E-05-2.84446E-05-2.86090E-05-1.23279E-08 1.28049E-18-1.55848E-18
 -1       843 1.18119E-04-5.28534E-05-2.78868E-05 1.52282E-05-1.76677E-18-2.88712E-18
 -1       844 1.28968E-04-5.20128E-05-3.30495E-05 9.34087E-07 1.36666E-18-2.73447E-18
 -1       845 9.51504E-05-2.33296E-05-3.07797E-05 6.41995E-07 1.37580E-18-3.06040E-19
 -1       846 9.01022E-05-1.64615E-05-3.15612E-05 1.61234E-07 5.58271E-19-1.65211E-18
 -1       847 1.10272E-04-5.05318E-05-2.54518E-05-2.28191E-05-2.29514E-18 1.30149E-20
 -1       848 9.51996E-05-2.84449E-05-2.86092E-05 1.36970E-08 1.75979E-18-4.50153E-18
 -1       849 1.14563E-04-5.37834E-05-2.59849E-05 2.22361E-05 8.91224E-19 6.02824E-19
 -1       850 9.25636E-05-1.93670E-05-3.13681E-05-1.12386E-06-4.09238E-19-1.56200E-18
 -1       851 9.23534E-05-1.91262E-05-3.13821E-05 1.16670E-06 1.24591E-18-1.08707E-18
 -1       852 9.52264E-05-2.84839E-05-2.86039E-05 2.44462E-08-1.86137E-19 1.92906E-18
 -1       853 6.77988E-05-2.03755E-05-2.02098E-05 1.81514E-05-3.39860E-19 8.89173E-19
 -1       854 1.22977E-04-3.97314E-05-3.58095E-05-1.17446E-05-1.23220E-18 2.23255E-18
 -1       855 1.20076E-04-2.82159E-05-3.96270E-05 1.43802E-05-1.22159E-18-2.04676E-18
 -1       856 9.45552E-05-2.55001E-05-2.95946E-05-7.14924E-06 3.21017E-19-2.38199E-19
 -1       857 9.42777E-05-2.56548E-05-2.94093E-05-8.78439E-06 8.90258E-21-3.69556E-19
 -1       858 9.50542E-05-2.48826E-05-3.00733E-05-3.50794E-06 8.31322E-19-3.16936E-19
 -1       859 5.46557E-05-1.34373E-05-1.74589E-05 3.30146E-06 3.23136E-19-1.77888E-18
 -1       860 9.10959E-05-1.76096E-05-3.14941E-05 8.55712E-07 1.20780E-18-1.41741E-18
 -1       861 9.52111E-05-2.84607E-05-2.86073E-05 2.24637E-08 1.37062E-18-1.80173E-18
 -1       862 9.52144E-05-2.43347E-05-3.03766E-05-1.60678E-06 1.00900E-18-2.63929E-19
 -1       863 9.12785E-05-1.78106E-05-3.14871E-05-6.59606E-07-4.75255E-20-1.83674E-18
 -1       864 1.28396E-04-5.37402E-05-3.20346E-05 3.26440E-06-2.09371E-19 8.95969E-19
 -1       865 5.59718E-05-1.29859E-05-1.82599E-05-1.00694E-06 5.01011E-20 2.17068E-18
 -1       866 9.39602E-05-2.11069E-05-3.12180E-05-1.67141E-06-7.40327E-19-1.67762E-18
 -1       867 8.81784E-05-3.90003E-05-2.08946E-05 3.03855E-05 1.59102E-18-1.73278E-19
 -1       868 8.45379E-05-3.46885E-05-2.12114E-05-2.79052E-05-1.72233E-18-6.46127E-19
 -1       869 6.14899E-05-1.84749E-05-1.82216E-05-1.74011E-05-8.31528E-19-2.73535E-18
 -1       870 9.35736E-05-2.48075E-05-2.94713E-05 5.51327E-06-1.93303E-19-8.63943E-19
 -1       871 9.33381E-05-2.54839E-05-2.90804E-05 7.02256E-06 9.34578E-20-6.81225E-19
 -1       872 9.32968E-05-2.63751E-05-2.86805E-05 8.54459E-06 3.32436E-19-6.62802E-19
 -1       873 9.37283E-05-2.77968E-05-2.82558E-05 1.01373E-05 5.77491E-19-9.06888E-19
 -1       874 9.50273E-05-3.01222E-05-2.78152E-05 1.18053E-05 5.76337E-19-7.98644E-19
 -1       875 9.77640E-05-3.37746E-05-2.74244E-05 1.33745E-05 2.45201E-19-5.80120E-19
 -1       876 1.02611E-04-3.90435E-05-2.72422E-05 1.43979E-05 5.94745E-19-3.35494E-19
 -1       877 1.10355E-04-4.58153E-05-2.76422E-05 1.35386E-05 5.33900E-19 2.24629E-19
 -1       878 1.17577E-04-5.03485E-05-2.87740E-05-9.84403E-06 1.52626E-18-2.92068E-18
 -1       879 1.07877E-04-4.36921E-05-2.74940E-05-1.32805E-05 8.13162E-19-9.67955E-19
 -1       880 1.00815E-04-3.72069E-05-2.72588E-05-1.34442E-05 4.59185E-19-2.84789E-19
 -1       881 9.63860E-05-3.23056E-05-2.74617E-05-1.22003E-05-6.41657E-19 1.26747E-19
 -1       882 9.38912E-05-2.90125E-05-2.78046E-05-1.05459E-05-4.57637E-20 6.99646E-20
 -1       883 9.26920E-05-2.70217E-05-2.81439E-05-8.90453E-06 5.56878E-20 2.77175E-19
 -1       884 9.22815E-05-2.59601E-05-2.84231E-05-7.41852E-06 1.13427E-18-9.38854E-20
 -1       885 9.23259E-05-2.55272E-05-2.86278E-05-6.11592E-06 6.13204E-19-2.16400E-19
 -1       886 9.26080E-05-2.54947E-05-2.87627E-05-4.99046E-06 6.94494E-19 9.56839E-19
 -1       887 9.29919E-05-2.56979E-05-2.88402E-05-4.02678E-06-8.31115E-19 1.02227E-18
 -1       888 9.33970E-05-2.60235E-05-2.88743E-05-3.20908E-06-8.22784E-19 1.73526E-18
 -1       889 9.37783E-05-2.63963E-05-2.88780E-05-2.52268E-06 7.51724E-19 9.76032E-19
 -1       890 9.41140E-05-2.67697E-05-2.88618E-05-1.95352E-06 7.53141E-19-1.86903E-19
 -1       891 9.43960E-05-2.71166E-05-2.88340E-05-1.48828E-06 7.33401E-19-1.12063E-18
 -1       892 9.46242E-05-2.74226E-05-2.88007E-05-1.11353E-06-2.56981E-19-2.91623E-18
 -1       893 9.48032E-05-2.76828E-05-2.87659E-05-8.15996E-07-2.98202E-19-3.63856E-18
 -1       894 9.49397E-05-2.78976E-05-2.87323E-05-5.83346E-07-1.24620E-21-3.83108E-18
 -1       895 9.50410E-05-2.80708E-05-2.87015E-05-4.04368E-07 5.76006E-19-6.09530E-18
 -1       896 9.51137E-05-2.82075E-05-2.86741E-05-2.69123E-07 1.80437E-18-3.41591E-18
 -1       897 9.51642E-05-2.83135E-05-2.86503E-05-1.68983E-07 1.98113E-18-1.17282E-18
 -1       898 9.51978E-05-2.83946E-05-2.86299E-05-9.69825E-08 1.25002E-18-1.56165E-18
 -1       899 9.52135E-05-2.84426E-05-2.86161E-05-5.45921E-08-8.60764E-19 4.56895E-19
 -1       900 9.00871E-05-2.40701E-05-2.82932E-05-1.05811E-05 4.31991E-20-1.10956E-18
 -1       901 9.58758E-05-3.81902E-05-2.46707E-05-2.28164E-05-1.38733E-18-7.78463E-19
 -1       902 9.10853E-05-3.10124E-05-2.57253E-05-1.88166E-05-5.99092E-19-1.12802E-18
 -1       903 8.96964E-05-2.73502E-05-2.67119E-05 1.50789E-05 3.63074E-19 2.60969E-19
 -1       904 6.80504E-05-2.20911E-05-1.95617E-05 2.06358E-05 8.84387E-19-1.18694E-18
 -1       905 9.23458E-05-3.20789E-05-2.58067E-05 1.85203E-05-7.09704E-19-7.66217E-20
 -1       906 8.95546E-05-2.39598E-05-2.81115E-05 1.00751E-05 2.44910E-19 3.87291E-19
 -1       907 9.03343E-05-2.37870E-05-2.85200E-05 8.30041E-06-6.00348E-19-2.76835E-19
 -1       908 9.12102E-05-2.40682E-05-2.87750E-05 6.83249E-06-1.27249E-18-1.23446E-19
 -1       909 9.20413E-05-2.45694E-05-2.89164E-05 5.58849E-06-2.50010E-19-9.16032E-19
 -1       910 9.27665E-05-2.51493E-05-2.89787E-05 4.52506E-06 3.85099E-19-1.11010E-18
 -1       911 9.33683E-05-2.57268E-05-2.89892E-05 3.61826E-06 9.94825E-19-1.60149E-20
 -1       912 9.38507E-05-2.62590E-05-2.89678E-05 2.85242E-06 6.36898E-20 2.25068E-18
 -1       913 9.42277E-05-2.67264E-05-2.89291E-05 2.21409E-06-1.09166E-19 2.59746E-18
 -1       914 9.45164E-05-2.71238E-05-2.88825E-05 1.68979E-06-3.64908E-19 1.94495E-18
 -1       915 9.47337E-05-2.74535E-05-2.88344E-05 1.26606E-06-1.45810E-18 1.04367E-18
 -1       916 9.48943E-05-2.77213E-05-2.87884E-05 9.29167E-07-2.51007E-18 1.38635E-18
 -1       917 9.50108E-05-2.79350E-05-2.87468E-05 6.65506E-07-2.04565E-18 2.62264E-18
 -1       918 9.50936E-05-2.81028E-05-2.87103E-05 4.62480E-07-1.02682E-18 2.21512E-18
 -1       919 9.51509E-05-2.82327E-05-2.86792E-05 3.08864E-07 1.13715E-18 4.52728E-18
 -1       920 9.51894E-05-2.83321E-05-2.86531E-05 1.94980E-07-8.28676E-20 3.00912E-18
 -1       921 9.52140E-05-2.84077E-05-2.86314E-05 1.12130E-07-1.04100E-18 3.77866E-18
 -1       922 9.52290E-05-2.84645E-05-2.86133E-05 5.42138E-08-1.54459E-18 3.41067E-18
 -1       923 9.51896E-05-2.84084E-05-2.86205E-05-4.60575E-08 1.74656E-19-4.76015E-18
 -1       924 9.52381E-05-2.85089E-05-2.85982E-05 1.66768E-08 4.47185E-19 2.77588E-18
 -1       925 8.91714E-05-2.49741E-05-2.75113E-05 1.22944E-05 4.64944E-19-3.70371E-19
 -1       926 8.66319E-05-3.42136E-05-2.23875E-05-2.53831E-05 2.15126E-18 1.63201E-18
 -1       927 9.04331E-05-1.68350E-05-3.15432E-05-2.21064E-07 3.08128E-19-1.70985E-18
 -1       928 9.37971E-05-2.40741E-05-2.98813E-05 3.94153E-06-2.43236E-19-1.01744E-18
 -1       929 9.38182E-05-2.30254E-05-3.03416E-05 2.19741E-06-4.92763E-19-1.13077E-18
 -1       930 1.04668E-04-4.55018E-05-2.52872E-05-2.13994E-05 2.22202E-18 9.04295E-19
 -1       931 9.27134E-05-2.06627E-05-3.08822E-05 5.73272E-07-3.49352E-19-1.41257E-18
 -1       932 6.72036E-05-2.07215E-05-1.98134E-05-1.93945E-05 3.90651E-19 1.99768E-18
 -1       933 9.42073E-05-2.26199E-05-3.06804E-05-7.70006E-07 9.76895E-19-6.15638E-19
 -1       934 9.51641E-05-2.83724E-05-2.86250E-05 1.38481E-08 1.66995E-18-3.74177E-18
 -1       935 1.21467E-04-5.31931E-05-2.92657E-05 1.02547E-05 3.94850E-19 6.04458E-19
 -1       936 6.46474E-05-1.58421E-05-2.08628E-05 9.16877E-06 4.42906E-19 1.32637E-18
 -1       937 7.40754E-05-2.55788E-05-2.06299E-05-2.27769E-05-1.65045E-18-1.33968E-18
 -1       938 9.29334E-05-2.38703E-05-2.95984E-05-5.59330E-06 5.23474E-19-9.75198E-19
 -1       939 9.10754E-05-2.38543E-05-2.88088E-05-8.80154E-06 2.95679E-19-1.18947E-18
 -1       940 9.35478E-05-2.35896E-05-2.99817E-05-3.91099E-06 8.81845E-19-1.06357E-18
 -1       941 8.93996E-05-2.69481E-05-2.67613E-05-1.53931E-05-5.05508E-19-1.03731E-18
 -1       942 7.93100E-05-2.93447E-05-2.13054E-05 2.44540E-05 8.58400E-19-3.01094E-19
 -1       943 6.47102E-05-1.69602E-05-2.03607E-05 1.10396E-05 3.51463E-19-1.68076E-18
 -1       944 9.51719E-05-2.83848E-05-2.86231E-05-2.73596E-08 1.36296E-18-4.34592E-18
 -1       945 9.52005E-05-2.84172E-05-2.86214E-05 5.78725E-08-6.33510E-19 1.46133E-18
 -1       946 1.01868E-04-4.52892E-05-2.41570E-05 2.51723E-05 1.07021E-18 1.87009E-20
 -1       947 8.93767E-05-2.49202E-05-2.76256E-05-1.27088E-05-1.12773E-20-7.68114E-19
 -1       948 6.13124E-05-1.51278E-05-1.96882E-05-6.98834E-06-3.14736E-20-1.58825E-18
 -1       949 9.12192E-05-1.89590E-05-3.09703E-05-1.41530E-07 9.07202E-19-1.28200E-18
 -1       950 9.51641E-05-2.83736E-05-2.86245E-05-7.66281E-09 2.77236E-18 3.99919E-19
 -1       951 6.38022E-05-1.57706E-05-2.05029E-05-9.28207E-06 8.34754E-19 2.13681E-18
 -1       952 8.12742E-05-2.49262E-05-2.40888E-05 1.78349E-05-4.13944E-19-1.69283E-18
 -1       953 9.07459E-05-1.84212E-05-3.09964E-05 1.19426E-07 7.39828E-19-1.28784E-18
 -1       954 9.08510E-05-1.85308E-05-3.09936E-05 3.20860E-07 3.94970E-19-1.52425E-18
 -1       955 9.08998E-05-2.41924E-05-2.85893E-05 7.03663E-06 3.17842E-19-5.39308E-19
 -1       956 9.02691E-05-2.49477E-05-2.79950E-05 8.85672E-06 3.67859E-19-6.26176E-19
 -1       957 9.00140E-05-2.62742E-05-2.73153E-05 1.10833E-05 3.33350E-19-4.31248E-19
 -1       958 9.05446E-05-2.86034E-05-2.65434E-05 1.39064E-05 3.39251E-19-5.17415E-19
 -1       959 9.28693E-05-3.27044E-05-2.58010E-05 1.71986E-05 5.39806E-19-2.11918E-19
 -1       960 9.20746E-05-2.38815E-05-2.92255E-05-7.18579E-06 2.05057E-19-1.14438E-18
 -1       961 9.56786E-05-3.68189E-05-2.51918E-05-1.95187E-05 1.12073E-18 1.29182E-18
 -1       962 9.13623E-05-3.10043E-05-2.58658E-05-1.58372E-05 7.57994E-19 1.97116E-18
 -1       963 8.94242E-05-2.73862E-05-2.65856E-05-1.25393E-05-8.29140E-20 2.55306E-18
 -1       964 8.89154E-05-2.53807E-05-2.72286E-05-9.89146E-06-3.22912E-19 2.24199E-18
 -1       965 8.91355E-05-2.43953E-05-2.77456E-05-7.81701E-06 3.37894E-19 9.17772E-19
 -1       966 8.97303E-05-2.40821E-05-2.81349E-05-6.19366E-06 2.78997E-19 1.26557E-18
 -1       967 9.04846E-05-2.41904E-05-2.84119E-05-4.91217E-06 9.96773E-19 7.47014E-19
 -1       968 9.12705E-05-2.45434E-05-2.85974E-05-3.88822E-06 8.30207E-19 2.29893E-19
 -1       969 9.20168E-05-2.50209E-05-2.87126E-05-3.06181E-06 4.06401E-19 1.37443E-18
 -1       970 9.26861E-05-2.55424E-05-2.87760E-05-2.39209E-06-1.01566E-18 1.78049E-18
 -1       971 9.32618E-05-2.60554E-05-2.88028E-05-1.84941E-06 1.99256E-19 1.45727E-18
 -1       972 9.37418E-05-2.65304E-05-2.88049E-05-1.41207E-06-7.01648E-19 3.71193E-19
 -1       973 9.41305E-05-2.69503E-05-2.87916E-05-1.06261E-06-9.25793E-19-6.80205E-19
 -1       974 9.44374E-05-2.73084E-05-2.87695E-05-7.85972E-07-1.18075E-18-1.76378E-18
 -1       975 9.46742E-05-2.76060E-05-2.87435E-05-5.69298E-07 9.91327E-20-2.25828E-18
 -1       976 9.48527E-05-2.78475E-05-2.87166E-05-4.01979E-07-1.20862E-19-1.67583E-18
 -1       977 9.49838E-05-2.80395E-05-2.86904E-05-2.74742E-07 1.66056E-18-1.28779E-18
 -1       978 9.50773E-05-2.81893E-05-2.86663E-05-1.79660E-07 2.45087E-18-2.68036E-18
 -1       979 9.51415E-05-2.83041E-05-2.86446E-05-1.10620E-07 1.54789E-18-3.07203E-18
 -1       980 9.51682E-05-2.83598E-05-2.86322E-05-7.40315E-08 1.95061E-18-3.31978E-18
 -1       981 9.27009E-05-2.09279E-05-3.07604E-05-7.96756E-07 1.01492E-18-1.17016E-18
 -1       982 8.19564E-05-2.18480E-05-2.57678E-05 1.21543E-05 8.68277E-19-1.17800E-18
 -1       983 8.78253E-05-2.21755E-05-2.81362E-05 6.13730E-06-1.06516E-18-4.97552E-19
 -1       984 8.60486E-05-2.15976E-05-2.76223E-05 7.53350E-06-1.19502E-19-1.83767E-19
 -1       985 9.06472E-05-2.37408E-05-2.86744E-05 4.11288E-06-7.53279E-20-8.40892E-19
 -1       986 9.17059E-05-2.45318E-05-2.87891E-05 3.33412E-06-1.63092E-19-2.93070E-19
 -1       987 9.25605E-05-2.52606E-05-2.88430E-05 2.67011E-06-1.28901E-18 2.12090E-18
 -1       988 9.32391E-05-2.59057E-05-2.88573E-05 2.10796E-06-2.78639E-19 2.45476E-18
 -1       989 9.37693E-05-2.64592E-05-2.88472E-05 1.63724E-06 3.76186E-19 3.15370E-18
 -1       990 9.41780E-05-2.69242E-05-2.88231E-05 1.24910E-06-8.80337E-19 3.55904E-18
 -1       991 9.44883E-05-2.73065E-05-2.87922E-05 9.34608E-07-3.31780E-18 4.62371E-18
 -1       992 9.47200E-05-2.76149E-05-2.87593E-05 6.83952E-07-3.34742E-18 4.74591E-18
 -1       993 9.48900E-05-2.78598E-05-2.87273E-05 4.87584E-07-2.00487E-18 4.42071E-18
 -1       994 9.50120E-05-2.80510E-05-2.86976E-05 3.36359E-07-8.36946E-19 3.20601E-18
 -1       995 9.50979E-05-2.81990E-05-2.86710E-05 2.22230E-07 1.24450E-18 3.42677E-18
 -1       996 9.51562E-05-2.83115E-05-2.86477E-05 1.37698E-07-1.37656E-18 2.68068E-18
 -1       997 9.51766E-05-2.83883E-05-2.86236E-05 3.74591E-08 2.76072E-19-2.72809E-18
 -1       998 9.40259E-05-2.32927E-05-3.03139E-05-2.47564E-06 9.63582E-19-8.61487E-19
 -1       999 8.40583E-05-2.13797E-05-2.68615E-05 9.41212E-06-2.76896E-19-9.70409E-19
 -1      1000 8.41452E-05-2.90624E-05-2.35493E-05-2.12536E-05-1.17415E-18-1.04153E-18
 -1      1001 9.22492E-05-2.31104E-05-2.96313E-05 4.02732E-06-1.30890E-19-8.63573E-19
 -1      1002 9.15166E-05-1.92692E-05-3.09626E-05 4.72900E-07 9.07444E-20-1.39014E-18
 -1      1003 8.01274E-05-2.63289E-05-2.30281E-05-1.92416E-05 1.11158E-18 1.36367E-18
 -1      1004 9.16294E-05-2.36758E-05-2.91233E-05 5.46966E-06 1.46165E-19-6.82668E-19
 -1      1005 8.93589E-05-2.29303E-05-2.84698E-05 5.03071E-06 4.45490E-19-1.42697E-18
 -1      1006 9.26242E-05-2.22865E-05-3.01440E-05 2.59073E-06-2.21375E-19-1.01465E-18
 -1      1007 8.73154E-05-2.19052E-05-2.80329E-05-7.79550E-06 8.38283E-20-1.14986E-18
 -1      1008 6.81326E-05-1.90105E-05-2.09736E-05-1.46413E-05-7.82713E-19-1.95354E-18
 -1      1009 7.39141E-05-2.03484E-05-2.29209E-05-1.34626E-05 3.66599E-19 3.15612E-19
 -1      1010 9.78922E-05-3.91017E-05-2.51851E-05 2.07848E-05 9.03695E-19-5.66558E-19
 -1      1011 9.07020E-05-2.24625E-05-2.92456E-05-5.05246E-06 4.84416E-19-9.77093E-19
 -1      1012 9.18133E-05-2.24052E-05-2.97464E-05-3.73531E-06 5.61332E-19-8.93105E-19
 -1      1013 9.51426E-05-2.83273E-05-2.86351E-05-4.57244E-08 1.61600E-18-5.13400E-18
 -1      1014 8.39125E-05-2.50635E-05-2.52124E-05-1.62228E-05-5.23617E-19-1.19099E-18
 -1      1015 7.47574E-05-2.23697E-05-2.24033E-05 1.62733E-05 5.26421E-19-5.94776E-19
 -1      1016 9.17219E-05-2.08316E-05-3.03815E-05-1.43977E-06 7.42703E-19-1.07159E-18
 -1      1017 9.51242E-05-2.82949E-05-2.86411E-05 4.53513E-08 9.21130E-19-2.00562E-18
 -1      1018 6.60768E-05-1.49351E-05-2.18867E-05 6.29370E-07 5.72459E-19 1.77331E-18
 -1      1019 9.51316E-05-2.82928E-05-2.86452E-05 9.18071E-08-4.38300E-19-9.14999E-19
 -1      1020 6.56313E-05-1.54637E-05-2.14590E-05 1.82280E-06 3.48036E-19-1.80324E-18
 -1      1021 9.51163E-05-2.82868E-05-2.86412E-05 9.84351E-09 4.91283E-19-1.04406E-18
 -1      1022 9.09576E-05-2.00233E-05-3.03995E-05-5.38197E-07 7.04353E-19-1.10062E-18
 -1      1023 8.51591E-05-2.17384E-05-2.71806E-05-9.56572E-06-1.46948E-19-8.60160E-19
 -1      1024 7.31969E-05-1.77101E-05-2.37526E-05 8.75334E-06 2.78744E-19 6.16819E-19
 -1      1025 7.79143E-05-1.84724E-05-2.54766E-05 6.48823E-06-1.55707E-19 3.04602E-19
 -1      1026 7.69505E-05-2.24295E-05-2.33138E-05-1.64655E-05-6.29403E-19-1.43611E-18
 -1      1027 8.63169E-05-2.29737E-05-2.71499E-05 8.41521E-06 4.49373E-19-2.14746E-19
 -1      1028 8.47471E-05-2.37939E-05-2.61242E-05 1.12757E-05 2.95083E-19-5.04476E-20
 -1      1029 8.35767E-05-2.54475E-05-2.48842E-05 1.53371E-05 4.65693E-19-4.64718E-20
 -1      1030 8.91861E-05-2.22290E-05-2.86959E-05-6.36093E-06 3.64942E-19-1.34890E-18
 -1      1031 9.22091E-05-2.50957E-05-2.87633E-05 1.67800E-06-1.22498E-18 2.47562E-18
 -1      1032 8.38785E-05-2.29039E-05-2.61316E-05-1.01075E-05-4.80013E-19 4.64577E-19
 -1      1033 8.52899E-05-2.23725E-05-2.69653E-05-7.53658E-06-9.88882E-19 1.04490E-18
 -1      1034 8.67393E-05-2.23850E-05-2.75814E-05-5.67669E-06 6.17051E-19 8.04545E-19
 -1      1035 8.81416E-05-2.27576E-05-2.80223E-05-4.32314E-06 5.48978E-19 7.69642E-19
 -1      1036 8.94207E-05-2.33240E-05-2.83277E-05-3.31522E-06 2.64555E-19-1.82223E-19
 -1      1037 9.05542E-05-2.39836E-05-2.85307E-05-2.54787E-06 4.09828E-19-6.76842E-19
 -1      1038 9.15341E-05-2.46664E-05-2.86579E-05-1.95477E-06 4.61225E-20-1.45688E-18
 -1      1039 9.23634E-05-2.53255E-05-2.87307E-05-1.49346E-06-3.73641E-19-3.66570E-19
 -1      1040 9.30473E-05-2.59286E-05-2.87654E-05-1.13071E-06-8.37444E-19-1.29072E-18
 -1      1041 9.36000E-05-2.64607E-05-2.87740E-05-8.49241E-07-3.43510E-19 5.29211E-19
 -1      1042 9.40386E-05-2.69173E-05-2.87664E-05-6.29451E-07-1.17158E-18 1.79407E-18
 -1      1043 9.43788E-05-2.72971E-05-2.87495E-05-4.57706E-07-1.40568E-18 1.20518E-18
 -1      1044 9.46393E-05-2.76084E-05-2.87276E-05-3.26344E-07 5.47583E-19 9.76317E-19
 -1      1045 9.48323E-05-2.78567E-05-2.87039E-05-2.26488E-07 6.49701E-19 2.55761E-18
 -1      1046 9.49729E-05-2.80523E-05-2.86803E-05-1.52109E-07 9.52259E-19 3.28919E-19
 -1      1047 9.50712E-05-2.82023E-05-2.86581E-05-9.73394E-08 9.95452E-19-2.20958E-18
 -1      1048 9.51104E-05-2.82687E-05-2.86463E-05-6.80296E-08 1.40728E-18-3.64696E-18
 -1      1049 8.44483E-05-2.04053E-05-2.74495E-05 4.40579E-06-6.18012E-19 4.20604E-19
 -1      1050 9.25361E-05-2.21427E-05-3.01683E-05-2.63220E-06 8.27695E-19-1.01864E-18
 -1      1051 7.12928E-05-1.83426E-05-2.26570E-05 9.57344E-06 6.88231E-19-1.62994E-18
 -1      1052 8.93534E-05-2.24432E-05-2.86772E-05 4.81893E-06 4.26091E-19-8.09716E-19
 -1      1053 9.12428E-05-2.42966E-05-2.86919E-05 2.07901E-06-1.26015E-18 2.56963E-18
 -1      1054 9.00392E-05-2.34043E-05-2.85586E-05 2.53555E-06-1.60812E-18 1.96653E-18
 -1      1055 9.29723E-05-2.57870E-05-2.87938E-05 1.33350E-06-9.03513E-19 3.42197E-18
 -1      1056 9.35711E-05-2.63772E-05-2.87974E-05 1.03928E-06-2.10182E-18 4.70713E-18
 -1      1057 9.40327E-05-2.68684E-05-2.87848E-05 7.93505E-07-1.77421E-18 4.74704E-18
 -1      1058 9.43832E-05-2.72689E-05-2.87634E-05 5.93071E-07-1.26124E-18 3.06931E-18
 -1      1059 9.46471E-05-2.75921E-05-2.87380E-05 4.32091E-07-1.76919E-18-9.96464E-20
 -1      1060 9.48406E-05-2.78470E-05-2.87116E-05 3.06375E-07-1.38339E-19-5.04551E-19
 -1      1061 9.49787E-05-2.80445E-05-2.86861E-05 2.09724E-07-5.88317E-19-7.36259E-19
 -1      1062 9.50681E-05-2.81835E-05-2.86648E-05 1.43756E-07 1.65892E-18-4.73278E-19
 -1      1063 9.14332E-05-2.10619E-05-3.01583E-05 1.77450E-06-5.65998E-20-9.10413E-19
 -1      1064 8.27685E-05-2.20302E-05-2.60329E-05-1.20028E-05 1.70960E-19-8.79962E-19
 -1      1065 9.51257E-05-2.83023E-05-2.86385E-05-2.07613E-08 1.91332E-19-1.06664E-18
 -1      1066 8.15803E-05-1.94044E-05-2.66490E-05 5.23769E-06-6.04676E-19 1.85804E-19
 -1      1067 9.05309E-05-2.21835E-05-2.92920E-05 3.55822E-06 4.33453E-20-1.01079E-18
 -1      1068 8.79038E-05-2.26200E-05-2.79811E-05 6.37828E-06 4.40441E-19-6.59314E-19
 -1      1069 9.07694E-05-1.98335E-05-3.04039E-05 3.69950E-07 5.83462E-19-1.10889E-18
 -1      1070 9.10797E-05-2.17181E-05-2.97267E-05 2.64600E-06 2.56705E-20-8.65960E-19
 -1      1071 8.30412E-05-2.46749E-05-2.50016E-05-1.40785E-05 6.98611E-19 4.40853E-19
 -1      1072 9.00775E-05-2.14451E-05-2.94139E-05-2.84602E-06 5.64823E-19-1.35180E-18
 -1      1073 6.74526E-05-1.61827E-05-2.19182E-05-6.10642E-06 1.39866E-19-1.10806E-18
 -1      1074 7.14979E-05-1.69325E-05-2.33711E-05-5.91022E-06 6.22842E-19 2.50782E-18
 -1      1075 8.85476E-05-2.24343E-05-2.83353E-05 3.05493E-06-1.62776E-19-1.36665E-19
 -1      1076 8.62315E-05-2.07383E-05-2.80689E-05-4.48851E-06 3.28049E-20-7.52317E-19
 -1      1077 8.84456E-05-2.12591E-05-2.87949E-05-3.67234E-06 3.31997E-19-1.19651E-18
 -1      1078 9.11186E-05-2.13419E-05-2.99045E-05-2.23060E-06 6.98539E-19-1.27052E-18
 -1      1079 8.67083E-05-2.14176E-05-2.79834E-05 3.66074E-06 1.29042E-19 2.18531E-19
 -1      1080 9.50570E-05-2.81838E-05-2.86598E-05 7.10010E-08 1.90375E-19-1.54321E-18
 -1      1081 8.33965E-05-2.00315E-05-2.71549E-05-5.45005E-06-1.55780E-19-6.95767E-19
 -1      1082 9.50456E-05-2.81733E-05-2.86596E-05 1.55932E-08 1.37750E-19-1.36307E-18
 -1      1083 8.08529E-05-1.99404E-05-2.61027E-05-5.95864E-06-1.58145E-19 1.52890E-18
 -1      1084 8.17486E-05-2.05976E-05-2.61958E-05 6.64219E-06 4.99062E-19-1.32694E-18
 -1      1085 7.74971E-05-1.98484E-05-2.47026E-05-1.08209E-05 1.19706E-19-8.89136E-19
 -1      1086 7.73526E-05-1.96292E-05-2.47316E-05 7.92338E-06 4.27722E-19-1.66001E-18
 -1      1087 7.76887E-05-1.98218E-05-2.47982E-05-8.89887E-06 2.25608E-19 6.99900E-19
 -1      1088 9.29957E-05-2.58789E-05-2.87641E-05 6.14065E-07-7.22933E-19 4.95940E-19
 -1      1089 8.86950E-05-2.12675E-05-2.88943E-05 2.44996E-06 3.64908E-19-3.74238E-19
 -1      1090 8.34343E-05-2.04869E-05-2.69773E-05-4.22871E-06-6.59531E-19 2.77582E-18
 -1      1091 8.56661E-05-2.12560E-05-2.76051E-05-3.04990E-06-3.33215E-20 1.65889E-18
 -1      1092 8.75268E-05-2.20957E-05-2.80425E-05-2.20674E-06-3.30851E-19 1.54611E-18
 -1      1093 8.90893E-05-2.29649E-05-2.83395E-05-1.60392E-06-6.71090E-20 2.89750E-19
 -1      1094 9.03957E-05-2.38178E-05-2.85338E-05-1.16994E-06 6.13647E-20-7.79020E-19
 -1      1095 9.14779E-05-2.46206E-05-2.86537E-05-8.55887E-07 1.59556E-19-3.39444E-19
 -1      1096 9.23882E-05-2.53636E-05-2.87225E-05-6.30278E-07-8.16759E-19-7.96675E-19
 -1      1097 9.30961E-05-2.60029E-05-2.87543E-05-4.59306E-07 1.02159E-19-1.51212E-18
 -1      1098 9.36375E-05-2.65295E-05-2.87601E-05-3.26669E-07 6.89027E-19-1.96634E-18
 -1      1099 9.40824E-05-2.69925E-05-2.87528E-05-2.29783E-07-2.53827E-19-7.31862E-19
 -1      1100 9.44213E-05-2.73703E-05-2.87362E-05-1.63600E-07-7.89117E-19 1.81535E-18
 -1      1101 9.46806E-05-2.76769E-05-2.87154E-05-1.14441E-07 4.45416E-19 8.11112E-19
 -1      1102 9.48650E-05-2.79155E-05-2.86927E-05-7.66279E-08 1.46590E-19-6.48249E-19
 -1      1103 9.03746E-05-2.05035E-05-2.99424E-05 5.63181E-07 5.33553E-19-7.13897E-19
 -1      1104 9.12345E-05-2.43668E-05-2.86571E-05 9.30909E-07-8.79006E-19 1.81730E-18
 -1      1105 8.45159E-05-2.08205E-05-2.72964E-05 4.80887E-06 5.60216E-19-1.13599E-18
 -1      1106 7.32410E-05-1.66061E-05-2.42658E-05 1.38784E-06 5.53912E-19 1.62512E-18
 -1      1107 9.21977E-05-2.51602E-05-2.87287E-05 7.68131E-07-1.17112E-18 1.66612E-18
 -1      1108 9.00300E-05-2.34650E-05-2.85275E-05 1.08317E-06-1.70867E-18 1.95318E-18
 -1      1109 9.35836E-05-2.64503E-05-2.87703E-05 4.87156E-07-1.54119E-18-1.22311E-18
 -1      1110 9.40347E-05-2.69254E-05-2.87613E-05 3.79255E-07 2.17203E-19-1.61380E-18
 -1      1111 9.43878E-05-2.73186E-05-2.87439E-05 2.86577E-07 9.20780E-19-2.52697E-18
 -1      1112 9.46521E-05-2.76347E-05-2.87217E-05 2.06680E-07-8.61140E-19-2.39154E-18
 -1      1113 9.48496E-05-2.78861E-05-2.86984E-05 1.44270E-07-1.40217E-20-2.30435E-18
 -1      1114 8.68510E-05-2.11354E-05-2.81622E-05 3.42065E-06 3.79924E-19-8.96074E-19
 -1      1115 7.29565E-05-1.72438E-05-2.38730E-05 2.68824E-06 5.99736E-19-1.51223E-18
 -1      1116 9.01628E-05-2.07225E-05-2.97623E-05-7.89028E-07 6.81354E-19-1.21273E-18
 -1      1117 7.97841E-05-1.92618E-05-2.59350E-05-6.73487E-06 1.49112E-20-1.00046E-18
 -1      1118 8.85351E-05-2.24657E-05-2.83151E-05 1.22583E-06-1.40012E-18 3.01398E-18
 -1      1119 9.49520E-05-2.80344E-05-2.86788E-05 6.06895E-08-4.94448E-20-1.71017E-18
 -1      1120 7.82318E-05-1.80076E-05-2.57931E-05 1.59006E-06-8.54979E-19 1.82100E-18
 -1      1121 7.35261E-05-1.71889E-05-2.41376E-05-2.91356E-06 3.60428E-19-1.05003E-18
 -1      1122 9.50870E-05-2.82373E-05-2.86500E-05-3.48961E-08-1.16527E-19-1.72009E-19
 -1      1123 8.97017E-05-2.11319E-05-2.93836E-05 1.74102E-06 2.33807E-19-2.43685E-19
 -1      1124 9.49970E-05-2.80995E-05-2.86703E-05-5.04298E-08-6.01768E-19 3.07098E-19
 -1      1125 8.64824E-05-2.04496E-05-2.83014E-05-1.35591E-06 3.30804E-20-8.96528E-19
 -1      1126 8.43766E-05-2.02340E-05-2.74895E-05 1.42439E-06-5.43693E-19 1.17714E-18
 -1      1127 8.85766E-05-2.08484E-05-2.90295E-05-1.21699E-06 2.25041E-19-1.10210E-18
 -1      1128 8.15531E-05-1.90486E-05-2.67914E-05 1.52780E-06-1.00354E-18 1.39960E-18
 -1      1129 8.36890E-05-1.97135E-05-2.74189E-05-1.38383E-06-3.65897E-20-7.60465E-19
 -1      1130 7.64970E-05-1.77469E-05-2.51977E-05-2.77497E-06-4.65620E-19 2.37401E-18
 -1      1131 9.25013E-05-2.54738E-05-2.87305E-05-1.11742E-08-7.14837E-19-6.08623E-19
 -1      1132 7.83050E-05-1.87133E-05-2.55531E-05 2.89414E-06 3.36285E-19-1.64287E-18
 -1      1133 8.66849E-05-2.13853E-05-2.79853E-05 1.34416E-06 4.09516E-19 2.40519E-18
 -1      1134 7.94386E-05-1.85698E-05-2.60920E-05-1.84089E-06 9.31736E-21-9.94925E-19
 -1      1135 9.33296E-05-2.62309E-05-2.87594E-05 1.19697E-07-5.70812E-19-1.58721E-19
 -1      1136 9.48192E-05-2.78613E-05-2.86970E-05-1.54366E-09-2.46754E-19-1.11215E-18
 -1      1137 1.16254E-04 2.56588E-10-4.17187E-05-4.07813E-05-2.87991E-19 6.82306E-18
 -1      1138 8.89065E-05 7.35308E-11-3.73216E-05-2.33171E-05-1.38596E-19 2.09641E-20
 -1      1139 8.45029E-05 4.25949E-11-3.59170E-05-1.68212E-05-8.45445E-20-2.68871E-18
 -1      1140 8.27094E-05 3.22034E-11-3.52188E-05-1.26744E-05-4.78044E-20-3.82569E-18
 -1      1141 8.17439E-05 2.65024E-11-3.48316E-05-9.39283E-06-3.34843E-20-4.27206E-18
 -1      1142 8.11418E-05 2.27977E-11-3.45948E-05-6.64468E-06-1.44790E-20-4.38117E-18
 -1      1143 8.07487E-05 2.03377E-11-3.44433E-05-4.23858E-06-4.98294E-21-4.29535E-18
 -1      1144 8.05178E-05 1.88987E-11-3.43559E-05-2.03042E-06 7.62330E-21-4.15010E-18
 -1      1145 8.04424E-05 1.84103E-11-3.43277E-05 6.82200E-08 1.85305E-20-3.97612E-18
 -1      1146 8.05217E-05 1.88670E-11-3.43579E-05 2.16498E-06 3.03046E-20-3.76712E-18
 -1      1147 8.07589E-05 2.03127E-11-3.44478E-05 4.36991E-06 4.40060E-20-3.50668E-18
 -1      1148 8.11635E-05 2.28152E-11-3.46023E-05 6.77748E-06 5.09146E-20-3.06958E-18
 -1      1149 8.17782E-05 2.66917E-11-3.48436E-05 9.53926E-06 6.88744E-20-2.42496E-18
 -1      1150 8.27506E-05 3.26426E-11-3.52360E-05 1.28592E-05 9.32266E-20-1.32713E-18
 -1      1151 8.45165E-05 4.30712E-11-3.59425E-05 1.70516E-05 1.08738E-19 6.57655E-19
 -1      1152 8.86073E-05 6.85142E-11-3.73879E-05 2.31548E-05 1.19961E-19 4.17508E-18
 -1      1153 1.06152E-04 1.64711E-10-4.05069E-05 3.55352E-05 1.93124E-19 1.08850E-17
 -1      1154 1.29273E-04-2.56587E-05-4.00955E-05-2.56496E-05-1.12084E-18 1.10783E-17
 -1      1155 9.75758E-05-2.89057E-05-3.16123E-05-6.04739E-07-3.90270E-19 8.41845E-18
 -1      1156 9.10701E-05-2.73085E-05-2.81579E-05 4.00318E-07-1.24448E-19 4.99839E-18
 -1      1157 8.98884E-05-2.70727E-05-2.71417E-05 2.59435E-07-2.77139E-20 2.82234E-18
 -1      1158 9.03700E-05-2.71994E-05-2.71474E-05 1.78717E-07-1.00047E-19 1.18391E-18
 -1      1159 9.17673E-05-2.75891E-05-2.75504E-05 1.38976E-07-1.12652E-19-5.92129E-20
 -1      1160 9.37532E-05-2.81643E-05-2.81473E-05 1.19797E-07-6.07945E-20-7.55818E-19
 -1      1161 9.61697E-05-2.88761E-05-2.88719E-05 1.12878E-07-2.38799E-20-9.17416E-19
 -1      1162 9.89141E-05-2.96893E-05-2.96903E-05 1.13398E-07-5.22017E-20-1.72089E-18
 -1      1163 1.01877E-04-3.05679E-05-3.05670E-05 1.17039E-07-4.92747E-20-2.50495E-18
 -1      1164 1.04890E-04-3.14594E-05-3.14475E-05 1.17848E-07-1.04595E-19-4.02560E-18
 -1      1165 1.07677E-04-3.22804E-05-3.22452E-05 1.06625E-07 9.28742E-20-4.18731E-18
 -1      1166 1.09819E-04-3.29049E-05-3.28332E-05 7.04019E-08-1.67157E-19-4.97378E-18
 -1      1167 1.10746E-04-3.31652E-05-3.30490E-05-5.19212E-09-1.68414E-21-4.97075E-18
 -1      1168 1.09830E-04-3.28787E-05-3.27272E-05-1.27996E-07-1.18816E-20-3.92346E-18
 -1      1169 1.06615E-04-3.19170E-05-3.17669E-05-2.85023E-07-2.23663E-19-3.34419E-18
 -1      1170 1.01174E-04-3.03113E-05-3.02257E-05-4.28641E-07-7.89941E-20-4.11055E-18
 -1      1171 9.44583E-05-2.83487E-05-2.83905E-05-4.81448E-07 1.02157E-20-4.34411E-18
 -1      1172 8.83033E-05-2.65645E-05-2.67520E-05-3.76982E-07 2.53713E-20-5.03445E-18
 -1      1173 8.48218E-05-2.55609E-05-2.58410E-05-1.20532E-07 6.59164E-20-4.90273E-18
 -1      1174 8.53683E-05-2.57195E-05-2.59872E-05 1.89018E-07-7.21831E-20-5.09289E-18
 -1      1175 8.97615E-05-2.69892E-05-2.71469E-05 4.17153E-07-5.94147E-20-4.75911E-18
 -1      1176 9.63968E-05-2.89181E-05-2.89286E-05 4.83896E-07 9.39896E-20-3.66988E-18
 -1      1177 1.03153E-04-3.08985E-05-3.07943E-05 4.04611E-07-1.83859E-19-3.70588E-18
 -1      1178 1.08379E-04-3.24460E-05-3.22938E-05 2.53966E-07-8.61823E-20-4.38795E-18
 -1      1179 1.11355E-04-3.33405E-05-3.31988E-05 1.04850E-07 5.74427E-20-4.69254E-18
 -1      1180 1.12176E-04-3.36006E-05-3.34995E-05-3.62693E-09 2.22442E-19-4.38014E-18
 -1      1181 1.11375E-04-3.33782E-05-3.33220E-05-6.44759E-08 7.66697E-20-3.89623E-18
 -1      1182 1.09587E-04-3.28585E-05-3.28376E-05-8.77865E-08-2.08854E-19-4.04739E-18
 -1      1183 1.07353E-04-3.22016E-05-3.22028E-05-8.77150E-08 1.59267E-19-3.68405E-18
 -1      1184 1.05054E-04-3.15211E-05-3.15335E-05-7.59770E-08 1.73164E-19-2.84121E-18
 -1      1185 1.02921E-04-3.08863E-05-3.09027E-05-6.02412E-08 3.53231E-19-1.88385E-18
 -1      1186 1.01066E-04-3.03324E-05-3.03486E-05-4.47296E-08 9.85673E-20-2.48226E-18
 -1      1187 9.95277E-05-2.98715E-05-2.98855E-05-3.13544E-08-1.67168E-19-2.95920E-18
 -1      1188 9.82977E-05-2.95019E-05-2.95132E-05-2.06956E-08 2.24727E-19-2.83899E-18
 -1      1189 9.73443E-05-2.92145E-05-2.92231E-05-1.26608E-08 8.83925E-21-1.10778E-18
 -1      1190 9.66262E-05-2.89975E-05-2.90038E-05-6.87495E-09-1.51313E-19-2.46847E-18
 -1      1191 9.61003E-05-2.88381E-05-2.88425E-05-2.88690E-09-6.20328E-20-2.48912E-18
 -1      1192 9.57271E-05-2.87245E-05-2.87275E-05-2.67429E-10-7.23616E-20-8.36929E-19
 -1      1193 9.54717E-05-2.86466E-05-2.86485E-05 1.35165E-09 2.15922E-19-2.23761E-19
 -1      1194 9.53055E-05-2.85955E-05-2.85967E-05 2.26761E-09-3.55978E-19-1.24634E-18
 -1      1195 9.52049E-05-2.85644E-05-2.85650E-05 2.71074E-09-3.60397E-19-4.06132E-18
 -1      1196 9.51516E-05-2.85476E-05-2.85479E-05 2.85387E-09-1.17340E-19-4.46280E-18
 -1      1197 9.51316E-05-2.85410E-05-2.85411E-05 2.82279E-09-4.34760E-19-3.61606E-18
 -1      1198 9.51341E-05-2.85413E-05-2.85412E-05 2.70477E-09 9.32716E-20-8.11161E-19
 -1      1199 9.51510E-05-2.85460E-05-2.85458E-05 2.55298E-09 7.96647E-20 1.71805E-18
 -1      1200 9.51759E-05-2.85531E-05-2.85528E-05 2.37736E-09-1.22848E-19 2.99927E-18
 -1      1201 9.52031E-05-2.85610E-05-2.85604E-05 2.07065E-09 1.46874E-19 2.18147E-18
 -1      1202 9.52263E-05-2.85678E-05-2.85668E-05 1.38325E-09-1.02575E-19 1.95510E-18
 -1      1203 9.52370E-05-2.85712E-05-2.85706E-05-7.02710E-11 3.68325E-19 1.06212E-18
 -1      1204 1.30020E-04-3.73895E-05-3.84993E-05 1.20177E-05-1.56278E-19 1.61631E-17
 -1      1205 9.66971E-05-2.82409E-05-3.13652E-05 7.74711E-07 5.46072E-20 1.37899E-17
 -1      1206 9.12763E-05-2.72128E-05-2.81396E-05 1.19263E-07 6.61414E-20 1.12823E-17
 -1      1207 8.99996E-05-2.70110E-05-2.71882E-05 1.95086E-08 6.48146E-20 9.14494E-18
 -1      1208 9.04977E-05-2.71914E-05-2.72054E-05-8.58332E-09 6.23231E-20 8.02844E-18
 -1      1209 9.19932E-05-2.76367E-05-2.76361E-05-1.48082E-08-5.65957E-21 6.75705E-18
 -1      1210 9.41801E-05-2.82867E-05-2.82967E-05-1.65943E-08-3.29499E-20 6.05946E-18
 -1      1211 9.69524E-05-2.91140E-05-2.91358E-05-2.02350E-08 7.70659E-20 5.99871E-18
 -1      1212 1.00286E-04-3.01097E-05-3.01429E-05-2.99545E-08-2.06961E-20 5.51103E-18
 -1      1213 1.04178E-04-3.12693E-05-3.13126E-05-5.03885E-08 1.23777E-19 5.08101E-18
 -1      1214 1.08578E-04-3.25755E-05-3.26227E-05-8.65179E-08 1.07321E-19 4.58621E-18
 -1      1215 1.13311E-04-3.39727E-05-3.40069E-05-1.41393E-07 1.71911E-20 4.40219E-18
 -1      1216 1.17952E-04-3.53344E-05-3.53214E-05-2.10199E-07 7.95748E-22 4.87025E-18
 -1      1217 1.21700E-04-3.64276E-05-3.63141E-05-2.69550E-07-1.02670E-19 5.28886E-18
 -1      1218 1.23313E-04-3.68986E-05-3.66289E-05-2.66285E-07 3.53570E-20 4.08652E-18
 -1      1219 1.21310E-04-3.63297E-05-3.58967E-05-1.25311E-07-5.47263E-21 4.04395E-18
 -1      1220 1.14691E-04-3.44302E-05-3.39507E-05 1.94884E-07-1.22946E-19 4.80257E-18
 -1      1221 1.04138E-04-3.13633E-05-3.11032E-05 6.06377E-07 2.49484E-19 5.10179E-18
 -1      1222 9.29095E-05-2.80167E-05-2.82558E-05 8.60246E-07-2.23670E-21 1.96978E-18
 -1      1223 8.59799E-05-2.58396E-05-2.65914E-05 7.10138E-07-1.13489E-19 3.50148E-18
 -1      1224 8.70146E-05-2.60200E-05-2.69077E-05 1.82710E-07-1.19842E-19 5.10660E-18
 -1      1225 9.55074E-05-2.85196E-05-2.90609E-05-3.92327E-07-6.21047E-21 2.90426E-18
 -1      1226 1.07216E-04-3.20893E-05-3.20795E-05-6.99460E-07-2.03455E-19 2.67345E-18
 -1      1227 1.17303E-04-3.51923E-05-3.48100E-05-6.69531E-07 1.72791E-19 1.75749E-18
 -1      1228 1.23096E-04-3.69689E-05-3.65068E-05-4.49037E-07 3.52048E-19-1.05270E-18
 -1      1229 1.24435E-04-3.73708E-05-3.70169E-05-2.05404E-07-8.16990E-20 2.11831E-19
 -1      1230 1.22555E-04-3.67916E-05-3.65934E-05-2.66581E-08-3.97560E-20 1.52777E-18
 -1      1231 1.18943E-04-3.56934E-05-3.56201E-05 7.32129E-08 1.63929E-19 1.98020E-18
 -1      1232 1.14753E-04-3.44280E-05-3.44300E-05 1.13441E-07-2.47736E-19 2.46730E-18
 -1      1233 1.10693E-04-3.32070E-05-3.32444E-05 1.18315E-07-4.30130E-20 2.65341E-18
 -1      1234 1.07113E-04-3.21327E-05-3.21811E-05 1.06158E-07 3.25065E-20-1.89735E-19
 -1      1235 1.04131E-04-3.12391E-05-3.12861E-05 8.79998E-08-1.11425E-19-1.01909E-21
 -1      1236 1.01743E-04-3.05235E-05-3.05640E-05 6.94958E-08 2.80100E-19 5.32175E-19
 -1      1237 9.98827E-05-2.99663E-05-2.99991E-05 5.30881E-08-1.87687E-20-1.27976E-18
 -1      1238 9.84676E-05-2.95422E-05-2.95678E-05 3.95302E-08-1.73613E-19-2.01499E-18
 -1      1239 9.74131E-05-2.92260E-05-2.92455E-05 2.87857E-08-2.91689E-19-2.51468E-18
 -1      1240 9.66433E-05-2.89950E-05-2.90096E-05 2.05043E-08 1.71867E-19-3.91109E-18
 -1      1241 9.60939E-05-2.88300E-05-2.88407E-05 1.42536E-08 4.86343E-19-6.49010E-18
 -1      1242 9.57120E-05-2.87152E-05-2.87229E-05 9.61877E-09 2.27542E-19-7.95864E-18
 -1      1243 9.54554E-05-2.86380E-05-2.86435E-05 6.23945E-09-1.96794E-19-5.49507E-18
 -1      1244 9.52910E-05-2.85885E-05-2.85923E-05 3.81643E-09 5.95868E-20-4.21805E-18
 -1      1245 9.51934E-05-2.85590E-05-2.85615E-05 2.10769E-09 2.93235E-19-4.78808E-18
 -1      1246 9.51431E-05-2.85437E-05-2.85454E-05 9.20189E-10 1.44478E-19-4.59303E-18
 -1      1247 9.51256E-05-2.85383E-05-2.85394E-05 1.00188E-10-4.11873E-19-2.06100E-18
 -1      1248 9.51301E-05-2.85394E-05-2.85401E-05-4.76691E-10 1.68740E-19-3.16565E-18
 -1      1249 9.51485E-05-2.85448E-05-2.85452E-05-9.12883E-10 5.87562E-20-3.27200E-18
 -1      1250 9.51745E-05-2.85524E-05-2.85525E-05-1.28968E-09-1.04789E-19-5.11384E-18
 -1      1251 9.52024E-05-2.85607E-05-2.85603E-05-1.63852E-09-1.20918E-19-5.72093E-18
 -1      1252 9.52261E-05-2.85676E-05-2.85668E-05-1.71610E-09 2.54378E-19-4.61021E-18
 -1      1253 9.52370E-05-2.85713E-05-2.85706E-05 1.26181E-11-4.16153E-19-3.29465E-18
 -1      1254 9.52370E-05-2.85713E-05-2.85707E-05-1.38711E-10-3.52099E-18-3.36146E-19
 -1      1255 9.52406E-05-2.85823E-05-2.85669E-05-1.17422E-09-4.26487E-18 1.92103E-20
 -1      1256 9.52469E-05-2.86036E-05-2.85612E-05-1.68489E-09 2.91160E-18 8.77667E-19
 -1      1257 9.52536E-05-2.86263E-05-2.85550E-05-1.43830E-09 5.04029E-18 4.29745E-19
 -1      1258 9.52593E-05-2.86454E-05-2.85494E-05-1.01952E-09 4.51681E-18 1.00364E-18
 -1      1259 9.52634E-05-2.86591E-05-2.85453E-05-6.23160E-10 2.76696E-18-1.75682E-19
 -1      1260 9.52660E-05-2.86677E-05-2.85426E-05-3.40728E-10 3.40408E-18 7.50563E-19
 -1      1261 9.52674E-05-2.86722E-05-2.85412E-05-1.33213E-10 4.36703E-18-1.07598E-18
 -1      1262 9.52677E-05-2.86733E-05-2.85408E-05 1.82249E-11 2.21484E-18 4.97316E-20
 -1      1263 9.52672E-05-2.86715E-05-2.85413E-05 1.66304E-10 4.39614E-18-2.00157E-19
 -1      1264 9.52657E-05-2.86665E-05-2.85429E-05 3.64675E-10-2.85574E-18-7.46305E-19
 -1      1265 9.52629E-05-2.86576E-05-2.85457E-05 6.46681E-10-4.22183E-18-2.02016E-19
 -1      1266 9.52588E-05-2.86438E-05-2.85499E-05 1.01254E-09-5.92912E-18 2.78860E-19
 -1      1267 9.52532E-05-2.86249E-05-2.85553E-05 1.43478E-09-6.04660E-18 5.53662E-20
 -1      1268 9.52467E-05-2.86024E-05-2.85615E-05 1.95310E-09-4.59695E-18-1.13152E-19
 -1      1269 9.52407E-05-2.85821E-05-2.85670E-05 1.45451E-09-2.66024E-18 2.22610E-19
 -1      1270 9.52369E-05-2.85714E-05-2.85707E-05 2.91116E-10-5.20852E-19 4.26378E-20
 -1      1271 3.45253E-05-1.08229E-04 1.82541E-05-1.38207E-05 9.44399E-18 1.15390E-18
 -1      1272 1.78717E-05-6.78483E-05 1.02517E-05-2.58220E-05 9.13102E-18 2.57413E-18
 -1      1273 7.23760E-06-1.39802E-05-4.35225E-06-4.93987E-06 1.39117E-17 8.20690E-18
 -1      1274 2.73712E-05 2.14265E-05-2.28665E-05 4.36813E-05 1.33763E-17 1.14443E-17
 -1      1275 9.14368E-05 1.75257E-05-4.28863E-05 9.37673E-05 1.05074E-17 1.39523E-17
 -1      1276 1.85418E-04-2.16532E-05-6.07121E-05 1.11953E-04 5.34859E-18 1.07793E-17
 -1      1277 2.74833E-04-7.11504E-05-7.35988E-05 7.85470E-05 1.50126E-18 4.91533E-18
 -1      1278 3.15176E-04-9.53165E-05-7.87581E-05 3.31138E-06 6.15211E-19-3.31063E-18
 -1      1279 2.83596E-04-7.62169E-05-7.47534E-05-7.33247E-05 2.30531E-18-1.07421E-17
 -1      1280 1.95292E-04-2.65175E-05-6.23821E-05-1.10496E-04 6.98336E-18-1.54058E-17
 -1      1281 9.74166E-05 1.60494E-05-4.41839E-05-9.66739E-05 1.22489E-17-1.64223E-17
 -1      1282 2.79552E-05 2.05166E-05-2.27121E-05-4.33355E-05 1.57497E-17-1.42412E-17
 -1      1283 7.67867E-06-2.07593E-05-2.05934E-06 9.92949E-06 1.50721E-17-8.79898E-18
 -1      1284 2.13831E-05-7.69861E-05 1.21639E-05 2.67988E-05 7.10152E-18-3.16155E-18
 -1      1285 3.59998E-05-1.11177E-04 1.89037E-05 9.76217E-06-2.79076E-18-4.83709E-19
 -1      1286 3.26575E-05-1.03153E-04 1.73394E-05-1.71931E-05-1.13210E-17-2.14384E-18
 -1      1287 1.52443E-05-5.77546E-05 7.99996E-06-2.41297E-05-1.49306E-17-5.58025E-18
 -1      1288 8.19727E-06-4.87761E-06-7.24649E-06 2.74889E-06-1.44182E-17-8.92349E-18
 -1      1289 4.21472E-05 2.37140E-05-2.82256E-05 5.90280E-05-1.34153E-17-1.35441E-17
 -1      1290 1.22425E-04 7.39546E-06-4.95667E-05 1.06535E-04-9.68243E-18-1.42878E-17
 -1      1291 2.16287E-04-3.84135E-05-6.52940E-05 1.06444E-04-4.43337E-18-9.39190E-18
 -1      1292 2.89311E-04-8.10969E-05-7.51815E-05 5.79765E-05-3.45748E-19-3.08320E-19
 -1      1293 3.06393E-04-9.14483E-05-7.74425E-05-1.73942E-05-5.77041E-19 6.65175E-18
 -1      1294 2.64175E-04-6.60685E-05-7.18840E-05-8.39828E-05-3.60031E-18 1.31332E-17
 -1      1295 1.78232E-04-1.81303E-05-5.95330E-05-1.11125E-04-7.85072E-18 1.61783E-17
 -1      1296 8.91906E-05 1.92396E-05-4.23106E-05-9.34570E-05-1.24294E-17 1.61970E-17
 -1      1297 2.75072E-05 2.25193E-05-2.30309E-05-4.52178E-05-1.46571E-17 1.33636E-17
 -1      1298 7.44089E-06-1.29154E-05-4.43618E-06 3.13521E-06-1.40912E-17 9.27332E-18
 -1      1299 1.81928E-05-6.69934E-05 9.98980E-06 2.45510E-05-5.21264E-18 3.18823E-18
 -1      1300 3.35264E-05-1.06189E-04 1.80108E-05 1.29321E-05 5.61159E-18-2.79944E-19
 -1      1301 1.04325E-04-2.19941E-05-3.78225E-05-1.68102E-05-4.29022E-19 5.19295E-18
 -1      1302 9.07913E-05-6.84837E-06-3.61334E-05-1.95165E-05-1.00077E-18-1.25774E-18
 -1      1303 9.30222E-05-6.93742E-06-3.72690E-05-2.48660E-05-1.35081E-18 1.66442E-19
 -1      1304 8.64165E-05-4.20980E-06-3.52953E-05-1.52992E-05-9.14796E-19-3.20845E-18
 -1      1305 8.76762E-05-4.21308E-06-3.57501E-05-1.77859E-05-1.05837E-18-2.39737E-18
 -1      1306 9.27053E-05-1.06812E-05-3.52356E-05-1.79637E-05-1.70854E-18-1.08378E-18
 -1      1307 8.44458E-05-3.20670E-06-3.48308E-05-1.16272E-05-6.65596E-19-4.06774E-18
 -1      1308 8.51376E-05-3.18451E-06-3.50730E-05-1.34519E-05-8.03596E-19-3.70805E-18
 -1      1309 8.83660E-05-7.48467E-06-3.47433E-05-1.42163E-05-1.42460E-18-2.70354E-18
 -1      1310 8.32824E-05-2.64178E-06-3.45552E-05-8.55764E-06-4.29340E-19-4.37743E-18
 -1      1311 8.37142E-05-2.63167E-06-3.46985E-05-1.00582E-05-5.04699E-19-4.26170E-18
 -1      1312 8.61155E-05-5.89676E-06-3.44458E-05-1.07571E-05-9.82174E-19-3.40558E-18
 -1      1313 8.25205E-05-2.27313E-06-3.43783E-05-5.96505E-06-2.02388E-19-4.38440E-18
 -1      1314 8.28077E-05-2.26957E-06-3.44696E-05-7.23461E-06-2.76450E-19-4.38416E-18
 -1      1315 8.47501E-05-4.94447E-06-3.42555E-05-7.84257E-06-6.16461E-19-3.62448E-18
 -1      1316 8.20135E-05-2.02701E-06-3.42623E-05-3.62752E-06-2.81572E-21-4.28836E-18
 -1      1317 8.21999E-05-2.02656E-06-3.43203E-05-4.77950E-06-4.51310E-20-4.36428E-18
 -1      1318 8.38451E-05-4.32273E-06-3.41267E-05-5.33001E-06-2.09609E-19-3.68699E-18
 -1      1319 8.17341E-05-1.88326E-06-3.42004E-05-1.47770E-06 2.25195E-19-4.09342E-18
 -1      1320 8.18262E-05-1.88352E-06-3.42285E-05-2.54814E-06 1.44604E-19-4.17913E-18
 -1      1321 8.32693E-05-3.93171E-06-3.40435E-05-3.06294E-06 9.88282E-20-3.49524E-18
 -1      1322 8.16720E-05-1.83453E-06-3.41899E-05 5.90803E-07 4.01148E-19-3.96298E-18
 -1      1323 8.16717E-05-1.83468E-06-3.41895E-05-4.51972E-07 3.55787E-19-4.06048E-18
 -1      1324 8.29858E-05-3.73944E-06-3.40027E-05-9.55718E-07 4.81283E-19-3.36938E-18
 -1      1325 8.18282E-05-1.88006E-06-3.42312E-05 2.68364E-06 5.82640E-19-3.75222E-18
 -1      1326 8.17343E-05-1.87999E-06-3.42019E-05 1.61492E-06 5.17521E-19-3.88435E-18
 -1      1327 8.29849E-05-3.73589E-06-3.40038E-05 1.09626E-06 7.47821E-19-3.26084E-18
 -1      1328 8.22098E-05-2.02428E-06-3.43256E-05 4.91002E-06 7.32465E-19-3.47273E-18
 -1      1329 8.20188E-05-2.02399E-06-3.42662E-05 3.75922E-06 6.83926E-19-3.63689E-18
 -1      1330 8.32703E-05-3.92443E-06-3.40470E-05 3.19773E-06 1.03316E-18-3.03714E-18
 -1      1331 8.28254E-05-2.27010E-06-3.44765E-05 7.34272E-06 9.19745E-19-2.99881E-18
 -1      1332 8.25322E-05-2.27390E-06-3.43837E-05 6.07232E-06 8.47423E-19-3.27859E-18
 -1      1333 8.38530E-05-4.31768E-06-3.41317E-05 5.43696E-06 1.30806E-18-2.76964E-18
 -1      1334 8.37640E-05-2.65017E-06-3.47106E-05 1.02025E-05 1.15133E-18-2.23635E-18
 -1      1335 8.33207E-05-2.66053E-06-3.45645E-05 8.69099E-06 1.03890E-18-2.66584E-18
 -1      1336 8.47805E-05-4.95812E-06-3.42623E-05 7.94923E-06 1.59754E-18-2.16684E-18
 -1      1337 8.52148E-05-3.22447E-06-3.50896E-05 1.36392E-05 1.34178E-18-1.02623E-18
 -1      1338 8.45164E-05-3.25243E-06-3.48446E-05 1.17894E-05 1.23450E-18-1.77154E-18
 -1      1339 8.62021E-05-5.95753E-06-3.44561E-05 1.08977E-05 1.91069E-18-1.38204E-18
 -1      1340 8.77902E-05-4.21633E-06-3.57766E-05 1.79998E-05 1.43514E-18 1.06353E-18
 -1      1341 8.65037E-05-4.26796E-06-3.53104E-05 1.55346E-05 1.30456E-18-1.99106E-19
 -1      1342 8.85081E-05-7.60064E-06-3.47546E-05 1.44282E-05 2.12996E-18-1.37908E-20
 -1      1343 9.37974E-05-6.98088E-06-3.71613E-05 2.42169E-05 1.13915E-18 4.79071E-18
 -1      1344 9.06225E-05-6.61535E-06-3.61577E-05 2.01649E-05 1.15736E-18 2.54089E-18
 -1      1345 9.29446E-05-1.09134E-05-3.52252E-05 1.85719E-05 2.08174E-18 2.23860E-18
 -1      1346 1.23083E-04-2.48643E-05-3.88998E-05 2.77557E-05 4.97420E-19 1.12562E-17
 -1      1347 1.00201E-04-1.45351E-05-3.73403E-05 2.33289E-05 5.74500E-19 6.82804E-18
 -1      1348 1.02037E-04-1.95371E-05-3.54622E-05 2.04871E-05 1.80497E-18 5.56649E-18
 -1      1349 1.02603E-04-2.78442E-05-3.47205E-05 6.92473E-06 9.32213E-19 1.09814E-17
 -1      1350 1.05296E-04-3.02985E-05-3.35502E-05-7.50628E-06-1.14858E-18 5.67374E-18
 -1      1351 9.87894E-05-2.80302E-05-3.08956E-05-4.60509E-06-1.06319E-18 4.29695E-18
 -1      1352 9.62757E-05-2.80840E-05-2.94793E-05-2.11001E-06-8.54550E-19 3.79561E-18
 -1      1353 9.44025E-05-2.78951E-05-2.85506E-05-1.66697E-06-7.47083E-19 2.58642E-18
 -1      1354 1.00210E-04-2.82937E-05-3.11882E-05-7.13864E-06-1.81996E-18 1.94407E-18
 -1      1355 9.30185E-05-2.76190E-05-2.80155E-05-4.30252E-07-5.88106E-19 2.12192E-18
 -1      1356 9.26902E-05-2.76356E-05-2.78314E-05-3.07726E-07-5.36437E-19 1.24585E-18
 -1      1357 9.59881E-05-2.81398E-05-2.92054E-05-2.34397E-06-1.31957E-18 1.05159E-18
 -1      1358 9.23022E-05-2.75539E-05-2.77023E-05 3.15242E-07-4.29757E-19 8.59633E-19
 -1      1359 9.26950E-05-2.77180E-05-2.78068E-05 3.93444E-07-5.36364E-19 1.68586E-19
 -1      1360 9.44362E-05-2.80386E-05-2.84917E-05-1.54334E-07-1.01148E-18 2.93973E-19
 -1      1361 9.28762E-05-2.77758E-05-2.78700E-05 7.61121E-07-2.83564E-19 7.99917E-20
 -1      1362 9.36685E-05-2.80390E-05-2.81033E-05 8.16078E-07-2.57974E-19-3.50222E-19
 -1      1363 9.42601E-05-2.81121E-05-2.83691E-05 1.03058E-06-7.11561E-19-1.65568E-19
 -1      1364 9.42102E-05-2.81969E-05-2.82765E-05 1.06506E-06-2.23254E-19-3.98291E-19
 -1      1365 9.52676E-05-2.85337E-05-2.85871E-05 1.10734E-06-8.10935E-20-6.52811E-19
 -1      1366 9.49641E-05-2.83750E-05-2.85552E-05 1.77790E-06-4.61610E-19-1.99638E-19
 -1      1367 9.60558E-05-2.87635E-05-2.88335E-05 1.28898E-06-1.45090E-19-7.70787E-19
 -1      1368 9.73070E-05-2.91574E-05-2.91998E-05 1.32255E-06-3.15169E-19-1.04907E-18
 -1      1369 9.62579E-05-2.87910E-05-2.89291E-05 2.30208E-06-2.59354E-19-6.51200E-19
 -1      1370 9.82684E-05-2.94401E-05-2.94968E-05 1.45141E-06-3.25765E-19-1.05961E-18
 -1      1371 9.96574E-05-2.98774E-05-2.99025E-05 1.47543E-06-2.41263E-19-1.55392E-18
 -1      1372 9.79665E-05-2.93268E-05-2.94288E-05 2.68194E-06-5.48274E-19-8.95899E-19
 -1      1373 1.00729E-04-3.01969E-05-3.02298E-05 1.54183E-06-2.17412E-19-1.68586E-18
 -1      1374 1.02185E-04-3.06594E-05-3.06535E-05 1.55083E-06-4.57402E-19-2.08778E-18
 -1      1375 9.99609E-05-2.99563E-05-3.00097E-05 2.92423E-06-4.41469E-19-1.17377E-18
 -1      1376 1.03292E-04-3.09973E-05-3.09866E-05 1.52424E-06-5.32959E-19-2.24473E-18
 -1      1377 1.04708E-04-3.14543E-05-3.13953E-05 1.50777E-06-1.76775E-19-2.60171E-18
 -1      1378 1.02111E-04-3.06521E-05-3.06271E-05 2.98194E-06-6.96157E-19-1.19550E-18
 -1      1379 1.05749E-04-3.17845E-05-3.17007E-05 1.33965E-06-5.21554E-20-2.88811E-18
 -1      1380 1.06954E-04-3.21854E-05-3.20440E-05 1.28272E-06-2.85870E-19-3.14561E-18
 -1      1381 1.04251E-04-3.13749E-05-3.12250E-05 2.76120E-06-4.88068E-19-1.56738E-18
 -1      1382 1.07791E-04-3.24691E-05-3.22773E-05 9.15919E-07-2.91234E-19-3.16138E-18
 -1      1383 1.08546E-04-3.27376E-05-3.24862E-05 8.01992E-07-1.39780E-19-3.65778E-18
 -1      1384 1.06151E-04-3.20612E-05-3.17309E-05 2.13501E-06-4.21329E-19-2.29474E-18
 -1      1385 1.09004E-04-3.29208E-05-3.25942E-05 1.94650E-07 2.13856E-19-3.36659E-18
 -1      1386 1.09022E-04-3.29579E-05-3.25888E-05 1.37125E-08 2.10842E-19-2.97930E-18
 -1      1387 1.07502E-04-3.26099E-05-3.20568E-05 9.81311E-07 1.83449E-19-1.96990E-18
 -1      1388 1.08913E-04-3.29734E-05-3.25212E-05-8.16740E-07 3.61233E-19-3.04169E-18
 -1      1389 1.07933E-04-3.26782E-05-3.22336E-05-1.05326E-06 1.89438E-19-2.67191E-18
 -1      1390 1.07941E-04-3.28753E-05-3.21122E-05-7.37433E-07 3.06149E-19-1.79987E-18
 -1      1391 1.07121E-04-3.24614E-05-3.19638E-05-1.97386E-06-1.85394E-19-2.28547E-18
 -1      1392 1.05044E-04-3.17790E-05-3.13777E-05-2.21559E-06-3.51472E-19-2.42037E-18
 -1      1393 1.07126E-04-3.26838E-05-3.18333E-05-2.85295E-06 2.50060E-19-1.49034E-18
 -1      1394 1.03543E-04-3.13048E-05-3.09294E-05-2.94730E-06-4.36933E-19-2.45483E-18
 -1      1395 1.00612E-04-3.02955E-05-3.01226E-05-3.10035E-06-3.45735E-19-2.93418E-18
 -1      1396 1.04900E-04-3.18997E-05-3.12234E-05-4.87861E-06-4.92179E-19-1.39745E-18
 -1      1397 9.86911E-05-2.96317E-05-2.95871E-05-3.27951E-06-1.52119E-19-3.10819E-18
 -1      1398 9.55744E-05-2.85215E-05-2.87470E-05-3.23872E-06-3.35342E-19-3.09440E-18
 -1      1399 1.01510E-04-3.05484E-05-3.03876E-05-6.03128E-06-5.34958E-19-1.21461E-18
 -1      1400 9.37757E-05-2.78611E-05-2.82718E-05-2.60832E-06-2.14061E-19-3.35767E-18
 -1      1401 9.14348E-05-2.70071E-05-2.76505E-05-2.32987E-06-2.40941E-20-3.31971E-18
 -1      1402 9.77589E-05-2.89402E-05-2.95336E-05-5.52812E-06-4.27719E-19-1.89718E-18
 -1      1403 9.04085E-05-2.66157E-05-2.73892E-05-9.73062E-07-9.82691E-20-3.75912E-18
 -1      1404 8.96951E-05-2.63507E-05-2.72021E-05-5.37337E-07-3.07003E-19-3.99400E-18
 -1      1405 9.48784E-05-2.76486E-05-2.89152E-05-3.12161E-06-4.61646E-19-2.30215E-18
 -1      1406 8.98688E-05-2.64140E-05-2.72481E-05 1.06728E-06-4.47075E-20-4.31105E-18
 -1      1407 9.10715E-05-2.68531E-05-2.75671E-05 1.48158E-06-3.56058E-19-4.08037E-18
 -1      1408 9.40029E-05-2.72407E-05-2.87370E-05 5.04865E-07-4.63936E-19-3.34404E-18
 -1      1409 9.23879E-05-2.73453E-05-2.79082E-05 2.70926E-06-1.66508E-19-4.15777E-18
 -1      1410 9.50671E-05-2.83131E-05-2.86238E-05 2.93805E-06 6.15952E-20-4.08572E-18
 -1      1411 9.55243E-05-2.79182E-05-2.90653E-05 3.96882E-06-2.07318E-19-3.51194E-18
 -1      1412 9.70227E-05-2.90172E-05-2.91492E-05 3.38801E-06 4.38026E-19-3.97081E-18
 -1      1413 1.00265E-04-3.01592E-05-3.00294E-05 3.38052E-06 3.88291E-19-3.45206E-18
 -1      1414 9.88483E-05-2.93743E-05-2.97997E-05 5.98884E-06 2.71008E-19-3.74419E-18
 -1      1415 1.02212E-04-3.08159E-05-3.05824E-05 3.06177E-06 1.03689E-19-2.92761E-18
 -1      1416 1.05101E-04-3.17968E-05-3.13840E-05 2.88330E-06-1.37027E-19-3.14562E-18
 -1      1417 1.02767E-04-3.10101E-05-3.07184E-05 6.09870E-06 4.48118E-19-2.99533E-18
 -1      1418 1.06558E-04-3.22424E-05-3.18283E-05 2.09966E-06-2.15663E-20-2.88036E-18
 -1      1419 1.08527E-04-3.28772E-05-3.23893E-05 1.85821E-06-3.80238E-20-2.96869E-18
 -1      1420 1.06120E-04-3.22984E-05-3.15730E-05 4.71736E-06-4.88367E-20-1.70388E-18
 -1      1421 1.09293E-04-3.30713E-05-3.26505E-05 9.65869E-07-3.08902E-19-3.47654E-18
 -1      1422 1.10196E-04-3.33340E-05-3.29191E-05 7.46255E-07 6.62142E-20-3.53692E-18
 -1      1423 1.08244E-04-3.30034E-05-3.21789E-05 2.66974E-06-3.70914E-19-2.14792E-18
 -1      1424 1.10306E-04-3.33156E-05-3.29882E-05-9.20719E-09 6.64074E-19-3.46521E-18
 -1      1425 1.10298E-04-3.32789E-05-3.29980E-05-1.66926E-07 4.96778E-19-3.27397E-18
 -1      1426 1.09009E-04-3.31512E-05-3.24578E-05 6.83691E-07 5.05407E-19-2.33755E-18
 -1      1427 1.09908E-04-3.31160E-05-3.29099E-05-6.84610E-07 3.23130E-20-3.04144E-18
 -1      1428 1.09271E-04-3.28848E-05-3.27354E-05-7.75712E-07-3.80513E-19-3.15088E-18
 -1      1429 1.08636E-04-3.28964E-05-3.24264E-05-8.34983E-07 3.00326E-19-2.33303E-18
 -1      1430 1.08568E-04-3.26422E-05-3.25423E-05-1.05835E-06-1.37166E-19-3.03631E-18
 -1      1431 1.07585E-04-3.23120E-05-3.22629E-05-1.09582E-06 7.57979E-20-2.91298E-18
 -1      1432 1.07484E-04-3.24105E-05-3.21582E-05-1.78020E-06-3.10342E-19-3.09240E-18
 -1      1433 1.06734E-04-3.20394E-05-3.20154E-05-1.19489E-06 6.41406E-20-2.32996E-18
 -1      1434 1.05627E-04-3.16806E-05-3.16957E-05-1.19615E-06 5.94389E-19-1.93543E-18
 -1      1435 1.05904E-04-3.18283E-05-3.17434E-05-2.22413E-06 5.13390E-20-1.54889E-18
 -1      1436 1.04750E-04-3.14110E-05-3.14335E-05-1.17319E-06 1.92757E-19-2.40294E-18
 -1      1437 1.03665E-04-3.10677E-05-3.11175E-05-1.15348E-06 5.42267E-20-2.06190E-18
 -1      1438 1.04176E-04-3.12389E-05-3.12629E-05-2.30493E-06 3.46775E-19-1.64531E-18
 -1      1439 1.02840E-04-3.08205E-05-3.08668E-05-1.06115E-06 5.10579E-19-2.33160E-18
 -1      1440 1.01862E-04-3.05162E-05-3.05801E-05-1.03158E-06 2.30858E-19-1.61001E-18
 -1      1441 1.02488E-04-3.06932E-05-3.07776E-05-2.15961E-06 1.53425E-19-2.20782E-18
 -1      1442 1.01131E-04-3.03010E-05-3.03560E-05-9.08031E-07-8.45966E-20-1.77306E-18
 -1      1443 1.00298E-04-3.00449E-05-3.01105E-05-8.75748E-07-2.98355E-19-2.49307E-18
 -1      1444 1.00953E-04-3.02158E-05-3.03261E-05-1.89624E-06-2.58757E-19-2.31195E-18
 -1      1445 9.96785E-05-2.98648E-05-2.99195E-05-7.45602E-07-2.14847E-19-2.14615E-18
 -1      1446 9.89970E-05-2.96576E-05-2.97179E-05-7.14728E-07 4.04855E-20-2.49569E-18
 -1      1447 9.96265E-05-2.98148E-05-2.99294E-05-1.58921E-06-2.76201E-19-1.86646E-18
 -1      1448 9.84903E-05-2.95115E-05-2.95611E-05-5.92175E-07 4.28622E-19-1.67310E-18
 -1      1449 9.79515E-05-2.93493E-05-2.94013E-05-5.64779E-07 5.85705E-19-1.44937E-18
 -1      1450 9.85223E-05-2.94886E-05-2.95952E-05-1.28436E-06 6.71806E-19-1.10244E-18
 -1      1451 9.75491E-05-2.92339E-05-2.92764E-05-4.56857E-07-3.02880E-19-1.20861E-18
 -1      1452 9.71355E-05-2.91105E-05-2.91534E-05-4.33720E-07-2.45774E-19-1.50619E-18
 -1      1453 9.76318E-05-2.92302E-05-2.93231E-05-1.00673E-06 6.94761E-19-8.66578E-19
 -1      1454 9.68242E-05-2.90217E-05-2.90567E-05-3.42945E-07-5.90632E-20-1.60302E-18
 -1      1455 9.65156E-05-2.89304E-05-2.89646E-05-3.24105E-07-2.30884E-19-1.64368E-18
 -1      1456 9.69331E-05-2.90304E-05-2.91079E-05-7.67520E-07-1.65712E-19-1.97081E-18
 -1      1457 9.62808E-05-2.88637E-05-2.88916E-05-2.50346E-07-1.70050E-19-2.20011E-18
 -1      1458 9.60570E-05-2.87981E-05-2.88246E-05-2.35445E-07 1.43655E-19-1.87673E-18
 -1      1459 9.63986E-05-2.88798E-05-2.89422E-05-5.69465E-07-1.62981E-19-1.30258E-18
 -1      1460 9.58846E-05-2.87493E-05-2.87710E-05-1.77176E-07 4.61602E-19-9.08167E-19
 -1      1461 9.57276E-05-2.87037E-05-2.87238E-05-1.65683E-07 9.40427E-19-1.57754E-19
 -1      1462 9.60000E-05-2.87688E-05-2.88178E-05-4.10513E-07 3.99903E-19-9.47950E-19
 -1      1463 9.56046E-05-2.86691E-05-2.86856E-05-1.20764E-07 1.51200E-19-2.92794E-19
 -1      1464 9.54987E-05-2.86388E-05-2.86536E-05-1.12101E-07-6.86833E-19-9.26411E-19
 -1      1465 9.57108E-05-2.86894E-05-2.87268E-05-2.86240E-07 3.34052E-19-1.14209E-19
 -1      1466 9.54141E-05-2.86150E-05-2.86273E-05-7.82494E-08-6.00084E-19-8.30405E-19
 -1      1467 9.53466E-05-2.85961E-05-2.86068E-05-7.18637E-08-9.96269E-19-2.01880E-18
 -1      1468 9.55073E-05-2.86344E-05-2.86624E-05-1.91328E-07-8.33361E-19-3.17183E-19
 -1      1469 9.52910E-05-2.85806E-05-2.85895E-05-4.69179E-08-8.06488E-19-2.38910E-18
 -1      1470 9.52517E-05-2.85699E-05-2.85774E-05-4.23189E-08-3.52758E-19-3.10826E-18
 -1      1471 9.53697E-05-2.85980E-05-2.86184E-05-1.20441E-07-1.26116E-18-1.20925E-18
 -1      1472 9.52176E-05-2.85605E-05-2.85668E-05-2.43703E-08 1.09110E-19-2.42320E-18
 -1      1473 9.51984E-05-2.85557E-05-2.85607E-05-2.11438E-08 1.72080E-19-2.52855E-18
 -1      1474 9.52817E-05-2.85753E-05-2.85898E-05-6.86891E-08 2.01500E-19-6.75697E-19
 -1      1475 9.51799E-05-2.85506E-05-2.85550E-05-8.59563E-09-5.05993E-19-1.15082E-18
 -1      1476 9.51746E-05-2.85498E-05-2.85531E-05-6.40775E-09-8.88837E-20-1.37406E-18
 -1      1477 9.52300E-05-2.85626E-05-2.85727E-05-3.18642E-08 4.77731E-19-5.79778E-19
 -1      1478 9.51671E-05-2.85479E-05-2.85508E-05 2.00622E-09 8.20509E-19-9.95679E-19
 -1      1479 9.51711E-05-2.85498E-05-2.85517E-05 3.40962E-09 1.18275E-18 7.94976E-19
 -1      1480 9.52042E-05-2.85571E-05-2.85637E-05-6.52405E-09 8.55235E-19 1.10310E-18
 -1      1481 9.51708E-05-2.85499E-05-2.85517E-05 8.62030E-09 1.28059E-18 7.44798E-19
 -1      1482 9.51804E-05-2.85534E-05-2.85543E-05 9.41347E-09 8.29058E-19 2.17394E-18
 -1      1483 9.51964E-05-2.85564E-05-2.85604E-05 9.97722E-09 1.83851E-18 1.99498E-18
 -1      1484 9.51846E-05-2.85548E-05-2.85555E-05 1.20020E-08 6.61993E-20 1.34823E-18
 -1      1485 9.51969E-05-2.85590E-05-2.85589E-05 1.22658E-08-2.35123E-19 1.42320E-18
 -1      1486 9.52000E-05-2.85588E-05-2.85607E-05 1.94750E-08 9.97932E-19 1.37954E-18
 -1      1487 9.52031E-05-2.85611E-05-2.85608E-05 1.24098E-08 1.32666E-19 1.99748E-18
 -1      1488 9.52151E-05-2.85653E-05-2.85641E-05 1.20878E-08 6.92535E-19 1.57116E-18
 -1      1489 9.52100E-05-2.85632E-05-2.85630E-05 2.28950E-08 4.07414E-19 8.77418E-19
 -1      1490 9.52213E-05-2.85675E-05-2.85657E-05 9.50160E-09-3.24849E-20 1.79461E-18
 -1      1491 9.52302E-05-2.85707E-05-2.85681E-05 8.62803E-09-7.57343E-19 1.37861E-18
 -1      1492 9.52222E-05-2.85685E-05-2.85657E-05 2.02573E-08 4.95227E-19 1.12645E-18
 -1      1493 9.52359E-05-2.85726E-05-2.85695E-05 1.58876E-09-1.21347E-18 7.70761E-19
 -1      1494 9.52347E-05-2.85748E-05-2.85682E-05 9.33835E-09-1.49653E-18 9.83885E-19
 -1      1495 9.71861E-05-2.85550E-05-2.99400E-05 2.66007E-06 7.96132E-19 9.14647E-18
 -1      1496 1.02744E-04-2.94635E-05-3.22127E-05 4.10450E-06 7.13361E-19 1.03260E-17
 -1      1497 1.02722E-04-2.68999E-05-3.28037E-05 1.20891E-05 1.42624E-18 7.07145E-18
 -1      1498 9.33108E-05-2.78080E-05-2.81443E-05 8.09187E-07 7.73645E-19 7.36485E-18
 -1      1499 9.48906E-05-2.78542E-05-2.89444E-05 1.13655E-06 6.78672E-19 8.43024E-18
 -1      1500 9.74333E-05-2.83226E-05-2.98160E-05 4.21529E-06 1.30718E-18 5.70560E-18
 -1      1501 9.22479E-05-2.76040E-05-2.76853E-05-7.46027E-08 4.48325E-19 6.04162E-18
 -1      1502 9.24510E-05-2.74948E-05-2.78309E-05 1.07716E-07 4.60793E-19 6.77685E-18
 -1      1503 9.46381E-05-2.80393E-05-2.85900E-05 1.13036E-06 1.08162E-18 4.55460E-18
 -1      1504 9.26869E-05-2.77643E-05-2.78027E-05-5.72710E-07 4.49645E-19 5.15708E-18
 -1      1505 9.22107E-05-2.75398E-05-2.76746E-05-4.51551E-07 3.31670E-19 5.67044E-18
 -1      1506 9.38718E-05-2.79843E-05-2.82539E-05-3.67978E-07 7.77166E-19 3.47809E-18
 -1      1507 9.40480E-05-2.81777E-05-2.82184E-05-9.15905E-07 1.29513E-19 4.46844E-18
 -1      1508 9.31535E-05-2.78572E-05-2.79523E-05-8.20649E-07 2.77956E-19 4.98856E-18
 -1      1509 9.43303E-05-2.81827E-05-2.83653E-05-1.26847E-06 5.89254E-19 3.09918E-18
 -1      1510 9.60863E-05-2.87884E-05-2.88373E-05-1.19813E-06 1.97352E-19 4.17642E-18
 -1      1511 9.48726E-05-2.83823E-05-2.84753E-05-1.11163E-06 9.76354E-20 4.35944E-18
 -1      1512 9.56089E-05-2.85873E-05-2.87434E-05-1.92022E-06 2.49699E-19 2.86271E-18
 -1      1513 9.87000E-05-2.95703E-05-2.96268E-05-1.46088E-06 1.59323E-19 3.83380E-18
 -1      1514 9.71998E-05-2.90810E-05-2.91804E-05-1.37428E-06 1.28944E-19 4.06931E-18
 -1      1515 9.75105E-05-2.91629E-05-2.93145E-05-2.47084E-06 2.60903E-19 2.43935E-18
 -1      1516 1.01846E-04-3.05136E-05-3.05738E-05-1.71676E-06 7.43735E-20 3.49494E-18
 -1      1517 1.00068E-04-2.99398E-05-3.00460E-05-1.62687E-06 9.36981E-20 3.64554E-18
 -1      1518 9.99392E-05-2.98914E-05-3.00455E-05-2.98222E-06 1.93559E-19 2.18088E-18
 -1      1519 1.05479E-04-3.16101E-05-3.16623E-05-1.95111E-06 2.42235E-19 3.28080E-18
 -1      1520 1.03439E-04-3.09544E-05-3.10593E-05-1.86156E-06 2.10203E-20 3.47262E-18
 -1      1521 1.02836E-04-3.07651E-05-3.09138E-05-3.45985E-06 1.31677E-19 2.05139E-18
 -1      1522 1.09491E-04-3.28350E-05-3.28540E-05-2.11337E-06 2.49118E-20 3.49249E-18
 -1      1523 1.07247E-04-3.21155E-05-3.21965E-05-2.03829E-06 1.72149E-19 3.54847E-18
 -1      1524 1.06126E-04-3.17750E-05-3.18895E-05-3.84993E-06 1.61130E-19 2.05723E-18
 -1      1525 1.13627E-04-3.41228E-05-3.40634E-05-2.10369E-06 1.03467E-19 3.62868E-18
 -1      1526 1.11330E-04-3.33896E-05-3.34009E-05-2.07308E-06 2.11568E-20 3.53115E-18
 -1      1527 1.09667E-04-3.28975E-05-3.29174E-05-4.02134E-06 1.80532E-20 2.68152E-18
 -1      1528 1.17385E-04-3.53345E-05-3.51310E-05-1.76521E-06 1.03556E-19 3.52333E-18
 -1      1529 1.15341E-04-3.46911E-05-3.45586E-05-1.82931E-06 3.99098E-20 3.33127E-18
 -1      1530 1.13180E-04-3.40732E-05-3.38985E-05-3.74684E-06 2.26978E-19 2.44765E-18
 -1      1531 1.19950E-04-3.62241E-05-3.58095E-05-9.07178E-07 2.60165E-19 3.35111E-18
 -1      1532 1.18663E-04-3.58455E-05-3.54760E-05-1.13179E-06 1.82952E-19 3.33085E-18
 -1      1533 1.16187E-04-3.51764E-05-3.46772E-05-2.71385E-06 3.95988E-19 1.94759E-18
 -1      1534 1.20229E-04-3.64295E-05-3.57965E-05 5.96736E-07-2.30155E-19 2.93812E-18
 -1      1535 1.20368E-04-3.65533E-05-3.58837E-05 1.59771E-07 2.52257E-20 3.28533E-18
 -1      1536 1.17984E-04-3.59772E-05-3.50523E-05-6.24363E-07 1.84627E-19 2.18885E-18
 -1      1537 1.17190E-04-3.55510E-05-3.48547E-05 2.59609E-06-2.61138E-19 3.25367E-18
 -1      1538 1.19366E-04-3.63983E-05-3.55016E-05 1.97860E-06-1.21324E-19 2.98214E-18
 -1      1539 1.17730E-04-3.61202E-05-3.48355E-05 2.53970E-06-2.38453E-19 1.95094E-18
 -1      1540 1.10605E-04-3.34034E-05-3.30152E-05 4.42330E-06-2.15689E-19 3.50555E-18
 -1      1541 1.14887E-04-3.49941E-05-3.41907E-05 3.82148E-06-2.60496E-19 2.84254E-18
 -1      1542 1.14796E-04-3.52083E-05-3.39668E-05 6.10009E-06-1.19498E-19 1.92311E-18
 -1      1543 1.01955E-04-3.04056E-05-3.07498E-05 4.94947E-06 1.11446E-18 2.78557E-18
 -1      1544 1.07334E-04-3.23403E-05-3.21482E-05 4.70800E-06 7.86412E-19 3.92621E-18
 -1      1545 1.09395E-04-3.30944E-05-3.26349E-05 8.46034E-06 4.05598E-19 2.00644E-18
 -1      1546 9.46004E-05-2.77630E-05-2.89064E-05 3.28549E-06-7.15385E-19 1.72615E-18
 -1      1547 9.89679E-05-2.92169E-05-2.99972E-05 3.67868E-06 2.92716E-19 2.06491E-18
 -1      1548 1.03188E-04-3.03308E-05-3.12940E-05 7.70480E-06 8.71001E-19 2.33421E-18
 -1      1549 9.22513E-05-2.69236E-05-2.83161E-05-1.55549E-07-1.17963E-19 2.88740E-18
 -1      1550 9.34237E-05-2.70957E-05-2.86002E-05 7.59402E-07-7.64315E-19 1.71614E-18
 -1      1551 9.90124E-05-2.82692E-05-3.04918E-05 3.22525E-06-7.83347E-19 9.77721E-19
 -1      1552 9.62628E-05-2.84109E-05-2.92806E-05-3.53329E-06 1.09558E-19 2.91268E-18
 -1      1553 9.35817E-05-2.71851E-05-2.86105E-05-2.60701E-06 5.35351E-20 2.97163E-18
 -1      1554 9.92063E-05-2.82643E-05-3.05909E-05-3.02890E-06-1.31608E-19 1.92550E-18
 -1      1555 1.04528E-04-3.13643E-05-3.13455E-05-5.08318E-06 2.69840E-19 2.34501E-18
 -1      1556 9.93735E-05-2.94033E-05-3.00391E-05-4.61134E-06 2.96197E-19 2.78695E-18
 -1      1557 1.03690E-04-3.03406E-05-3.15477E-05-7.68551E-06 2.35581E-19 2.26094E-18
 -1      1558 1.13167E-04-3.42906E-05-3.36413E-05-4.44401E-06 2.93527E-19 1.79163E-18
 -1      1559 1.07885E-04-3.25045E-05-3.22456E-05-4.51751E-06 2.12268E-19 2.22664E-18
 -1      1560 1.10084E-04-3.32339E-05-3.29579E-05-8.68344E-06 6.52248E-19 1.89571E-18
 -1      1561 1.19181E-04-3.61743E-05-3.53801E-05-2.57317E-06 9.60840E-19-8.72444E-20
 -1      1562 1.15531E-04-3.51020E-05-3.43584E-05-2.95867E-06 7.57353E-19 8.49839E-19
 -1      1563 1.15568E-04-3.54719E-05-3.42943E-05-6.49534E-06 1.28807E-18-3.95406E-19
 -1      1564 1.21594E-04-3.68061E-05-3.61938E-05-6.05218E-07-2.20586E-19-9.76285E-19
 -1      1565 1.20116E-04-3.65055E-05-3.57353E-05-1.03420E-06 3.08174E-19-5.03879E-19
 -1      1566 1.18567E-04-3.64487E-05-3.51465E-05-3.00895E-06 7.93458E-19-9.29347E-19
 -1      1567 1.20949E-04-3.64723E-05-3.61308E-05 8.28509E-07-5.32929E-19 6.16786E-19
 -1      1568 1.21282E-04-3.67313E-05-3.61799E-05 5.04493E-07-4.80069E-19-4.47041E-20
 -1      1569 1.18939E-04-3.63327E-05-3.53639E-05 1.45908E-07-8.70154E-19 1.26876E-19
 -1      1570 1.18364E-04-3.55803E-05-3.54595E-05 1.61064E-06-1.65171E-20 1.52169E-18
 -1      1571 1.19820E-04-3.61395E-05-3.58457E-05 1.42231E-06-5.10337E-19 1.15505E-18
 -1      1572 1.17350E-04-3.55630E-05-3.50264E-05 2.24749E-06-7.84875E-19 8.20126E-19
 -1      1573 1.14883E-04-3.44627E-05-3.44771E-05 1.88156E-06 1.38916E-19 1.93829E-18
 -1      1574 1.16836E-04-3.51231E-05-3.50258E-05 1.80209E-06 3.25528E-19 2.12298E-18
 -1      1575 1.14642E-04-3.45181E-05-3.43251E-05 3.28214E-06 9.68397E-20 1.25231E-18
 -1      1576 1.11240E-04-3.33330E-05-3.34122E-05 1.83532E-06-3.26605E-19 2.25253E-18
 -1      1577 1.13263E-04-3.39752E-05-3.39956E-05 1.82528E-06-3.13387E-19 1.87746E-18
 -1      1578 1.11510E-04-3.34346E-05-3.34547E-05 3.53667E-06-4.24620E-19 1.96124E-18
 -1      1579 1.07858E-04-3.23053E-05-3.24050E-05 1.62942E-06 4.20298E-19 1.30159E-18
 -1      1580 1.09713E-04-3.28716E-05-3.29482E-05 1.65639E-06 2.83533E-19 1.94798E-18
 -1      1581 1.08416E-04-3.24349E-05-3.25616E-05 3.32935E-06-5.12190E-21 1.07124E-18
 -1      1582 1.04931E-04-3.14268E-05-3.15240E-05 1.36586E-06 9.59381E-20-9.08906E-20
 -1      1583 1.06517E-04-3.18979E-05-3.19928E-05 1.40849E-06 6.33056E-19 6.68825E-19
 -1      1584 1.05615E-04-3.15696E-05-3.17344E-05 2.90248E-06 8.63696E-19 5.11284E-19
 -1      1585 1.02511E-04-3.07065E-05-3.07914E-05 1.10137E-06-2.60827E-20 2.05769E-19
 -1      1586 1.03806E-04-3.10835E-05-3.11765E-05 1.14745E-06-3.49747E-19-6.26533E-19
 -1      1587 1.03216E-04-3.08505E-05-3.10159E-05 2.40854E-06 1.04164E-19-5.66116E-19
 -1      1588 1.00575E-04-3.01334E-05-3.02033E-05 8.63057E-07 6.66151E-19-8.57578E-19
 -1      1589 1.01599E-04-3.04267E-05-3.05089E-05 9.06375E-07 3.18789E-19-2.16688E-19
 -1      1590 1.01241E-04-3.02700E-05-3.04185E-05 1.93060E-06 4.58475E-19-8.88475E-19
 -1      1591 9.90660E-05-2.96882E-05-2.97437E-05 6.60850E-07 7.69116E-19-1.42525E-18
 -1      1592 9.98556E-05-2.99112E-05-2.99800E-05 6.98751E-07 6.89774E-19-6.39748E-19
 -1      1593 9.96598E-05-2.98120E-05-2.99374E-05 1.50710E-06 8.20960E-19-1.01420E-18
 -1      1594 9.79143E-05-2.93495E-05-2.93924E-05 4.95706E-07-7.38727E-19-1.37625E-18
 -1      1595 9.85101E-05-2.95156E-05-2.95711E-05 5.27461E-07-1.04224E-19-1.56489E-18
 -1      1596 9.84245E-05-2.94578E-05-2.95597E-05 1.15079E-06-6.86692E-20-3.03669E-19
 -1      1597 9.70530E-05-2.90968E-05-2.91294E-05 3.64406E-07 4.92821E-19-1.62788E-18
 -1      1598 9.74934E-05-2.92180E-05-2.92618E-05 3.90243E-07 1.56837E-19-1.46498E-18
 -1      1599 9.74787E-05-2.91888E-05-2.92694E-05 8.61129E-07 3.59724E-19-1.18212E-19
 -1      1600 9.64216E-05-2.89120E-05-2.89363E-05 2.62161E-07 1.43232E-18-4.15741E-18
 -1      1601 9.67404E-05-2.89986E-05-2.90324E-05 2.82732E-07 3.31427E-19-3.14252E-18
 -1      1602 9.67686E-05-2.89882E-05-2.90508E-05 6.31448E-07 1.05388E-18-2.20744E-18
 -1      1603 9.59691E-05-2.87800E-05-2.87978E-05 1.83938E-07 5.24558E-19-5.46995E-18
 -1      1604 9.61944E-05-2.88402E-05-2.88658E-05 2.00029E-07 9.83584E-19-3.90016E-18
 -1      1605 9.62459E-05-2.88416E-05-2.88893E-05 4.52912E-07 1.26132E-18-2.79772E-18
 -1      1606 9.56531E-05-2.86880E-05-2.87009E-05 1.25063E-07-4.09643E-19-4.81866E-18
 -1      1607 9.58077E-05-2.87285E-05-2.87477E-05 1.37456E-07-4.48429E-19-5.79575E-18
 -1      1608 9.58695E-05-2.87369E-05-2.87726E-05 3.16512E-07-1.84108E-19-3.60243E-18
 -1      1609 9.54397E-05-2.86263E-05-2.86353E-05 8.14580E-08-2.58716E-19-2.37922E-18
 -1      1610 9.55418E-05-2.86522E-05-2.86664E-05 9.08696E-08-7.18590E-19-3.91235E-18
 -1      1611 9.56055E-05-2.86641E-05-2.86904E-05 2.13981E-07-1.25170E-18-2.13439E-18
 -1      1612 9.53023E-05-2.85867E-05-2.85930E-05 4.97028E-08-2.22708E-19-2.17392E-18
 -1      1613 9.53659E-05-2.86022E-05-2.86124E-05 5.67546E-08 2.23078E-19-2.02089E-18
 -1      1614 9.54263E-05-2.86152E-05-2.86343E-05 1.38148E-07-5.35747E-19-6.39961E-19
 -1      1615 9.52200E-05-2.85633E-05-2.85675E-05 2.70054E-08 4.11385E-19-2.27210E-18
 -1      1616 9.52561E-05-2.85713E-05-2.85786E-05 3.22200E-08 1.38740E-19-1.91130E-18
 -1      1617 9.53100E-05-2.85841E-05-2.85977E-05 8.30168E-08 4.83586E-19-2.70937E-19
 -1      1618 9.51771E-05-2.85513E-05-2.85540E-05 1.11432E-08-1.59396E-18-1.02715E-18
 -1      1619 9.51937E-05-2.85542E-05-2.85593E-05 1.49471E-08-4.55395E-19-1.82191E-18
 -1      1620 9.52398E-05-2.85658E-05-2.85752E-05 4.37102E-08-6.98973E-19 1.00575E-18
 -1      1621 9.51615E-05-2.85473E-05-2.85489E-05 3.94635E-10 1.04595E-18-8.32598E-19
 -1      1622 9.51648E-05-2.85467E-05-2.85502E-05 3.12533E-09 3.38813E-19-5.58488E-19
 -1      1623 9.52024E-05-2.85566E-05-2.85630E-05 1.63669E-08-4.54065E-19 6.55592E-19
 -1      1624 9.51642E-05-2.85486E-05-2.85494E-05-6.51748E-09 4.84708E-19-2.83776E-18
 -1      1625 9.51588E-05-2.85458E-05-2.85481E-05-4.60740E-09 4.39871E-20-2.39872E-18
 -1      1626 9.51879E-05-2.85538E-05-2.85579E-05-1.97325E-09 1.45600E-18-1.25135E-18
 -1      1627 9.51782E-05-2.85532E-05-2.85534E-05-1.04499E-08 4.20037E-19-3.09184E-18
 -1      1628 9.51676E-05-2.85492E-05-2.85505E-05-9.19760E-09 5.45460E-19-1.84699E-18
 -1      1629 9.51885E-05-2.85551E-05-2.85575E-05-1.34473E-08 4.00233E-19-1.87909E-18
 -1      1630 9.51977E-05-2.85595E-05-2.85590E-05-1.18184E-08 2.10538E-19-3.60238E-18
 -1      1631 9.51848E-05-2.85550E-05-2.85554E-05-1.11690E-08 2.20041E-19-3.53894E-18
 -1      1632 9.51981E-05-2.85590E-05-2.85598E-05-1.93853E-08 3.27278E-19-1.38527E-18
 -1      1633 9.52176E-05-2.85660E-05-2.85646E-05-1.05292E-08-2.78840E-19-3.13507E-18
 -1      1634 9.52053E-05-2.85619E-05-2.85612E-05-1.05913E-08 1.68324E-19-3.30716E-18
 -1      1635 9.52119E-05-2.85642E-05-2.85634E-05-2.02508E-08 4.85963E-19-9.62915E-19
 -1      1636 9.52322E-05-2.85711E-05-2.85687E-05-6.15345E-09-1.63607E-19-2.80637E-18
 -1      1637 9.52240E-05-2.85685E-05-2.85664E-05-7.06629E-09-1.58163E-19-3.16458E-18
 -1      1638 9.52257E-05-2.85698E-05-2.85667E-05-1.57303E-08 2.83384E-19-3.04225E-19
 -1      1639 9.52360E-05-2.85728E-05-2.85695E-05-1.79707E-09-1.47634E-18-1.83880E-18
 -1      1640 9.52411E-05-2.85872E-05-2.85658E-05-9.49342E-09-9.66897E-19 5.71669E-19
 -1      1641 9.52380E-05-2.85790E-05-2.85680E-05-8.29380E-09-1.65970E-18 3.26507E-19
 -1      1642 9.52472E-05-2.86041E-05-2.85614E-05-1.12308E-08 2.95044E-18 3.60097E-18
 -1      1643 9.52434E-05-2.85934E-05-2.85642E-05-1.12035E-08-4.61610E-19 1.56017E-18
 -1      1644 9.52406E-05-2.85872E-05-2.85657E-05-1.93980E-08-2.58343E-19 2.17672E-18
 -1      1645 9.52526E-05-2.86203E-05-2.85568E-05-1.01238E-08 1.98685E-18-9.83687E-19
 -1      1646 9.52492E-05-2.86102E-05-2.85596E-05-1.05614E-08 2.98770E-18 8.00194E-19
 -1      1647 9.52460E-05-2.85994E-05-2.85629E-05-2.05015E-08-9.59437E-20 1.71314E-18
 -1      1648 9.52566E-05-2.86333E-05-2.85529E-05-7.73302E-09 3.05923E-18 8.17515E-19
 -1      1649 9.52541E-05-2.86254E-05-2.85552E-05-8.30111E-09 2.42377E-18 1.68823E-18
 -1      1650 9.52500E-05-2.86103E-05-2.85600E-05-1.74022E-08 1.90055E-18 1.95142E-19
 -1      1651 9.52592E-05-2.86422E-05-2.85502E-05-5.16932E-09 1.97057E-18-2.06642E-19
 -1      1652 9.52575E-05-2.86369E-05-2.85517E-05-5.67693E-09 2.88022E-18-1.14641E-18
 -1      1653 9.52527E-05-2.86185E-05-2.85576E-05-1.26987E-08 6.91956E-19-2.94377E-19
 -1      1654 9.52606E-05-2.86476E-05-2.85485E-05-2.91366E-09 1.97733E-18 9.28346E-19
 -1      1655 9.52597E-05-2.86445E-05-2.85494E-05-3.31672E-09 1.41097E-18 3.44317E-19
 -1      1656 9.52542E-05-2.86240E-05-2.85559E-05-8.04569E-09 1.37208E-18-2.80806E-19
 -1      1657 9.52612E-05-2.86501E-05-2.85476E-05-1.14786E-09 2.44335E-18-5.26212E-19
 -1      1658 9.52609E-05-2.86488E-05-2.85480E-05-1.44521E-09 2.12944E-18 1.63947E-18
 -1      1659 9.52548E-05-2.86270E-05-2.85548E-05-4.13621E-09 2.20424E-19 1.34299E-18
 -1      1660 9.52612E-05-2.86502E-05-2.85476E-05 2.99698E-10 2.32143E-18 4.80656E-19
 -1      1661 9.52613E-05-2.86504E-05-2.85475E-05 4.73197E-11 2.92790E-18-1.33625E-18
 -1      1662 9.52550E-05-2.86282E-05-2.85544E-05-1.04249E-09 1.83976E-18-1.06914E-18
 -1      1663 9.52606E-05-2.86481E-05-2.85482E-05 1.75538E-09 2.85346E-19-1.56685E-18
 -1      1664 9.52611E-05-2.86497E-05-2.85478E-05 1.47039E-09 1.57038E-18 2.55003E-19
 -1      1665 9.52550E-05-2.86280E-05-2.85545E-05 1.68499E-09 6.90993E-19-2.62601E-19
 -1      1666 9.52594E-05-2.86434E-05-2.85497E-05 3.53501E-09-2.47626E-18-8.16763E-19
 -1      1667 9.52603E-05-2.86468E-05-2.85487E-05 3.15448E-09-4.82445E-20-1.67840E-18
 -1      1668 9.52546E-05-2.86264E-05-2.85550E-05 4.66653E-09-8.08893E-19-2.73309E-18
 -1      1669 9.52571E-05-2.86357E-05-2.85521E-05 5.73414E-09-3.12554E-18-2.97362E-19
 -1      1670 9.52588E-05-2.86411E-05-2.85505E-05 5.26113E-09-2.48809E-18-6.27125E-19
 -1      1671 9.52538E-05-2.86231E-05-2.85561E-05 8.33549E-09-1.54017E-18-1.48793E-18
 -1      1672 9.52536E-05-2.86241E-05-2.85556E-05 8.24732E-09-2.45732E-18 6.35044E-19
 -1      1673 9.52561E-05-2.86320E-05-2.85533E-05 7.70653E-09-2.56241E-18 8.01251E-19
 -1      1674 9.52523E-05-2.86175E-05-2.85579E-05 1.27308E-08-6.20014E-19 1.08973E-18
 -1      1675 9.52489E-05-2.86092E-05-2.85599E-05 1.04486E-08-3.07074E-18-2.44409E-19
 -1      1676 9.52522E-05-2.86191E-05-2.85572E-05 9.98874E-09-3.54599E-18 1.38216E-18
 -1      1677 9.52497E-05-2.86092E-05-2.85603E-05 1.72114E-08-4.02892E-19-3.10932E-19
 -1      1678 9.52435E-05-2.85931E-05-2.85645E-05 1.08471E-08-2.99644E-18 4.86497E-19
 -1      1679 9.52469E-05-2.86032E-05-2.85616E-05 1.08376E-08-2.80978E-18-4.83679E-19
 -1      1680 9.52455E-05-2.85984E-05-2.85631E-05 2.01294E-08-1.08723E-18-5.55629E-19
 -1      1681 9.52378E-05-2.85795E-05-2.85678E-05 1.07124E-08-1.82239E-18 6.20275E-19
 -1      1682 9.52407E-05-2.85873E-05-2.85658E-05 1.24914E-08-2.52283E-18 4.07535E-19
 -1      1683 9.52406E-05-2.85865E-05-2.85657E-05 2.11211E-08-1.17353E-18-6.57460E-19
 -1      1684 9.52325E-05-2.85758E-05-2.85669E-05 1.96394E-08-9.27794E-19 9.46969E-19
 -1      1685 2.01176E-05-6.63482E-05 1.39278E-05-6.88033E-06 5.76194E-18 4.37281E-19
 -1      1686 2.31917E-05-7.50168E-05 1.58232E-05 1.39867E-06 4.92010E-18 8.91714E-19
 -1      1687 2.02155E-05-4.05398E-05 4.40147E-06 2.47328E-06 6.50775E-18 4.30536E-18
 -1      1688 2.43380E-05-6.14970E-05 1.00406E-05-5.23622E-07 5.91144E-18 1.15096E-18
 -1      1689 3.16101E-05-1.36455E-05-1.01187E-05 2.37868E-05 9.19454E-18 6.32818E-18
 -1      1690 2.75007E-05-3.42846E-05-1.95045E-06 7.76606E-06 7.63261E-18 5.33080E-18
 -1      1691 7.02578E-05-4.22577E-06-2.80612E-05 5.43407E-05 7.78593E-18 8.68124E-18
 -1      1692 4.91955E-05-1.18274E-05-1.86703E-05 3.26864E-05 8.73206E-18 6.71612E-18
 -1      1693 1.29216E-04-1.29671E-05-4.67536E-05 7.59990E-05 6.56789E-18 8.07053E-18
 -1      1694 9.04208E-05-3.65771E-06-3.72134E-05 6.06168E-05 7.90705E-18 8.58553E-18
 -1      1695 1.95601E-04-3.79606E-05-6.23016E-05 7.10856E-05 4.09371E-18 5.73102E-18
 -1      1696 1.53362E-04-1.88388E-05-5.48826E-05 7.47694E-05 5.94490E-18 7.72240E-18
 -1      1697 2.45694E-04-6.05562E-05-7.27458E-05 3.50056E-05 2.48731E-18 1.79275E-18
 -1      1698 2.14504E-04-4.38137E-05-6.80651E-05 6.05036E-05 3.18733E-18 4.61125E-18
 -1      1699 2.55447E-04-6.41919E-05-7.52686E-05-1.58876E-05 2.69314E-18-4.54730E-18
 -1      1700 2.53680E-04-6.32804E-05-7.50617E-05 1.90322E-05 2.22685E-18-6.98379E-19
 -1      1701 2.22556E-04-4.72527E-05-6.96669E-05-5.88468E-05 3.67236E-18-8.09509E-18
 -1      1702 2.50613E-04-6.26522E-05-7.36458E-05-3.18950E-05 2.63152E-18-6.06476E-18
 -1      1703 1.58464E-04-2.12500E-05-5.59432E-05-7.14105E-05 6.69325E-18-1.00865E-17
 -1      1704 2.02291E-04-4.13975E-05-6.36746E-05-6.53992E-05 4.70114E-18-8.66176E-18
 -1      1705 9.37099E-05-3.68355E-06-3.84725E-05-6.23514E-05 8.93281E-18-1.04549E-17
 -1      1706 1.33330E-04-1.43385E-05-4.78961E-05-7.65524E-05 7.48438E-18-1.09852E-17
 -1      1707 4.89027E-05-1.40550E-05-1.77963E-05-3.08704E-05 1.01898E-17-8.20944E-18
 -1      1708 7.31785E-05-5.34586E-06-2.86592E-05-5.56852E-05 9.46221E-18-9.42917E-18
 -1      1709 2.60454E-05-3.95594E-05 4.25916E-07-4.40523E-06 8.30346E-18-5.54976E-18
 -1      1710 2.86476E-05-1.58333E-05-8.19298E-06-2.07937E-05 1.02915E-17-8.26450E-18
 -1      1711 2.40945E-05-6.70396E-05 1.19131E-05 3.00780E-06 2.27301E-18-3.35743E-18
 -1      1712 1.88387E-05-4.66538E-05 6.91058E-06 2.65846E-06 6.67970E-18-5.12646E-18
 -1      1713 2.34604E-05-7.65119E-05 1.61628E-05-2.33580E-06-3.89050E-18-2.50785E-18
 -1      1714 2.12700E-05-7.04060E-05 1.48443E-05 6.61149E-06 5.95464E-19-2.71707E-18
 -1      1715 2.02421E-05-6.41134E-05 1.29044E-05-5.93075E-06-8.51522E-18-3.19914E-18
 -1      1716 2.43499E-05-7.65679E-05 1.56361E-05 9.45787E-07-5.58936E-18-2.48562E-18
 -1      1717 1.98692E-05-3.55110E-05 2.46825E-06 4.02560E-06-1.00001E-17-4.74360E-18
 -1      1718 2.38949E-05-5.82585E-05 8.62128E-06-1.22556E-06-9.36649E-18-3.31190E-18
 -1      1719 3.52230E-05-9.57633E-06-1.29442E-05 3.00221E-05-9.74088E-18-7.67412E-18
 -1      1720 2.85979E-05-2.85499E-05-4.54627E-06 1.18383E-05-9.60281E-18-5.75601E-18
 -1      1721 9.16584E-05-9.52679E-06-3.39240E-05 6.19629E-05-7.57247E-18-8.55673E-18
 -1      1722 6.15121E-05-1.28157E-05-2.26637E-05 3.85822E-05-8.34497E-18-7.39290E-18
 -1      1723 1.50968E-04-1.89116E-05-5.25071E-05 7.87620E-05-6.16598E-18-8.64567E-18
 -1      1724 1.09696E-04-4.81747E-06-4.37875E-05 6.95806E-05-8.02479E-18-9.30042E-18
 -1      1725 2.12828E-04-4.54483E-05-6.60345E-05 6.32195E-05-3.94469E-18-3.39152E-18
 -1      1726 1.73824E-04-2.57951E-05-5.97126E-05 7.48157E-05-6.04570E-18-7.16505E-18
 -1      1727 2.47826E-04-6.20690E-05-7.33690E-05 2.09408E-05-1.59412E-18 1.38871E-18
 -1      1728 2.27006E-04-5.01687E-05-7.03480E-05 4.99336E-05-3.05260E-18-2.07438E-18
 -1      1729 2.42914E-04-5.84459E-05-7.32325E-05-2.63026E-05-2.62601E-18 6.31357E-18
 -1      1730 2.48911E-04-6.18559E-05-7.41114E-05 5.69125E-06-1.93505E-18 2.96922E-18
 -1      1731 2.07942E-04-4.08907E-05-6.67912E-05-6.39273E-05-4.27228E-18 9.75104E-18
 -1      1732 2.37850E-04-5.73645E-05-7.11564E-05-4.15612E-05-3.09728E-18 8.11034E-18
 -1      1733 1.48000E-04-1.75191E-05-5.34831E-05-7.14222E-05-7.03715E-18 1.06464E-17
 -1      1734 1.88502E-04-3.55473E-05-6.08175E-05-6.84778E-05-4.93418E-18 1.03296E-17
 -1      1735 8.96595E-05-3.46528E-06-3.69157E-05-6.04166E-05-8.90486E-18 1.01771E-17
 -1      1736 1.25465E-04-1.22046E-05-4.57987E-05-7.43629E-05-7.84183E-18 1.08090E-17
 -1      1737 4.80581E-05-9.94092E-06-1.87610E-05-3.38782E-05-9.28772E-18 8.11796E-18
 -1      1738 6.90735E-05-2.35469E-06-2.81488E-05-5.54681E-05-8.96415E-18 9.70869E-18
 -1      1739 2.95846E-05-3.45359E-05-2.26069E-06-1.11338E-05-6.29600E-18 5.72510E-18
 -1      1740 3.41305E-05-1.44144E-05-1.04095E-05-2.68904E-05-8.73460E-18 7.58052E-18
 -1      1741 2.38352E-05-6.06706E-05 9.92357E-06-1.02796E-07 1.57548E-19 3.99858E-18
 -1      1742 1.93607E-05-3.95808E-05 4.43959E-06-2.71679E-06-4.86197E-18 5.97984E-18
 -1      1743 2.29809E-05-7.34365E-05 1.54414E-05-2.87990E-06 4.48546E-18 1.55558E-18
 -1      1744 2.00379E-05-6.41099E-05 1.33559E-05 4.32512E-06 1.41327E-18 2.12944E-18
 -1      1745 1.09324E-04-3.26088E-05-3.24441E-05 4.42552E-05 4.67012E-18 4.55788E-18
 -1      1746 6.91993E-05-3.60183E-05-1.57085E-05 3.75715E-05 4.77472E-18 4.29700E-18
 -1      1747 9.52360E-05-2.85747E-05-2.85687E-05-6.44149E-09-2.02701E-18-8.41304E-19
 -1      1748 9.52346E-05-2.85766E-05-2.85675E-05-1.43674E-08 2.27784E-19 1.91148E-19
 -1      1749 1.84979E-05-4.71221E-05 8.20027E-06 1.41771E-05 2.81046E-18 7.54495E-19
 -1      1750 3.79379E-05-4.20783E-05-1.42102E-06 2.62049E-05 3.62784E-18 4.45576E-18
 -1      1751 1.12337E-05-4.84295E-05 1.15231E-05-1.56732E-06 2.04230E-18 2.20059E-18
 -1      1752 1.52046E-04-3.15174E-05-4.89524E-05 4.42028E-05 5.19168E-18 3.98698E-18
 -1      1753 1.89793E-04-3.41592E-05-6.22065E-05 3.20716E-05 4.71374E-18 3.16113E-18
 -1      1754 2.10032E-04-3.42468E-05-6.98405E-05 1.12731E-05 4.35375E-18 1.45478E-19
 -1      1755 2.13616E-04-3.57622E-05-7.05107E-05-1.09145E-05 3.85400E-18-3.19141E-18
 -1      1756 1.91974E-04-3.47237E-05-6.31977E-05-2.79469E-05 4.37556E-18-4.70823E-18
 -1      1757 1.55816E-04-3.24942E-05-5.00373E-05-4.17461E-05 5.00554E-18-5.42016E-18
 -1      1758 1.11474E-04-3.35008E-05-3.28777E-05-4.41367E-05 4.93608E-18-5.25076E-18
 -1      1759 6.81152E-05-3.74594E-05-1.46347E-05-3.74250E-05 4.91787E-18-5.58279E-18
 -1      1760 3.34956E-05-4.37565E-05 8.07545E-07-2.30379E-05 3.38983E-18-5.94977E-18
 -1      1761 1.64051E-05-4.97430E-05 9.78364E-06-1.00124E-05 5.29396E-19-5.38438E-18
 -1      1762 1.23981E-05-5.16026E-05 1.20736E-05 2.75719E-06-2.53919E-18-4.63285E-18
 -1      1763 2.06948E-05-4.81425E-05 7.47364E-06 1.56538E-05-4.91279E-18-3.31804E-18
 -1      1764 4.09238E-05-3.99524E-05-3.29252E-06 2.85877E-05-5.68359E-18-3.69560E-18
 -1      1765 8.08053E-05-3.66901E-05-1.94408E-05 4.14196E-05-4.67986E-18-4.72771E-18
 -1      1766 1.23673E-04-3.46408E-05-3.73974E-05 4.28674E-05-4.74508E-18-4.50283E-18
 -1      1767 1.63605E-04-3.00537E-05-5.38484E-05 4.34520E-05-5.55527E-18-3.39660E-18
 -1      1768 1.95147E-04-3.25451E-05-6.48526E-05 2.80151E-05-5.00173E-18-9.78323E-19
 -1      1769 2.06620E-04-3.22799E-05-6.96073E-05 6.43692E-06-4.03442E-18 1.71079E-18
 -1      1770 2.04169E-04-3.29652E-05-6.83670E-05-1.59550E-05-4.09329E-18 4.04543E-18
 -1      1771 1.82878E-04-3.22111E-05-6.06352E-05-3.23361E-05-4.42628E-18 5.63489E-18
 -1      1772 1.48150E-04-3.08966E-05-4.78028E-05-4.19755E-05-4.89543E-18 5.91314E-18
 -1      1773 1.07707E-04-3.12268E-05-3.21704E-05-4.51609E-05-4.85858E-18 6.42051E-18
 -1      1774 6.99849E-05-3.59775E-05-1.58946E-05-3.93690E-05-3.77523E-18 5.53536E-18
 -1      1775 3.87629E-05-4.13648E-05-1.71923E-06-2.89321E-05-1.41116E-18 6.56403E-18
 -1      1776 1.82646E-05-4.60905E-05 7.93384E-06-1.53286E-05 9.31313E-19 5.65394E-18
 -1      1777 1.06173E-04-2.32876E-05-3.56123E-05-1.61911E-05-1.38352E-18 4.14114E-18
 -1      1778 8.96107E-05-1.06101E-05-3.39850E-05-1.20277E-05-1.45406E-18-2.34406E-18
 -1      1779 9.10690E-05-1.17489E-05-3.41297E-05-1.38623E-05-1.76536E-18-1.84235E-18
 -1      1780 9.31500E-05-1.40908E-05-3.40439E-05-1.48245E-05-1.81337E-18-1.17388E-18
 -1      1781 9.48803E-05-1.60891E-05-3.42582E-05-1.65529E-05-2.02114E-18-2.95403E-19
 -1      1782 9.40725E-05-1.64854E-05-3.32635E-05-1.24757E-05-1.89529E-18-1.34255E-18
 -1      1783 8.59459E-05-7.20505E-06-3.38192E-05-6.72559E-06-6.34944E-19-2.94010E-18
 -1      1784 8.65328E-05-7.59724E-06-3.38855E-05-8.03176E-06-8.60470E-19-2.91063E-18
 -1      1785 8.49674E-05-6.34512E-06-3.37548E-05-4.43563E-06-1.63848E-19-2.88124E-18
 -1      1786 8.53652E-05-6.60012E-06-3.38008E-05-5.60716E-06-3.71419E-19-2.95100E-18
 -1      1787 8.71064E-05-9.14372E-06-3.34407E-05-5.77753E-06-5.92839E-19-2.80240E-18
 -1      1788 8.43622E-05-5.81902E-06-3.37121E-05-2.34891E-06 2.71362E-19-2.75417E-18
 -1      1789 8.45955E-05-5.96589E-06-3.37394E-05-3.41787E-06 7.88684E-20-2.82611E-18
 -1      1790 8.60853E-05-8.16972E-06-3.34193E-05-3.68314E-06-1.34731E-20-2.70839E-18
 -1      1791 8.41000E-05-5.58365E-06-3.36948E-05-3.81126E-07 6.32424E-19-2.63208E-18
 -1      1792 8.41780E-05-5.63308E-06-3.37036E-05-1.39803E-06 4.63229E-19-2.72522E-18
 -1      1793 8.54879E-05-7.61039E-06-3.34019E-05-1.75072E-06 4.24421E-19-2.62886E-18
 -1      1794 8.41757E-05-5.62684E-06-3.37055E-05 1.55971E-06 9.83881E-19-2.58504E-18
 -1      1795 8.40985E-05-5.58022E-06-3.36955E-05 5.44678E-07 8.34785E-19-2.65107E-18
 -1      1796 8.52884E-05-7.42301E-06-3.33962E-05 9.25023E-08 7.64663E-19-2.56250E-18
 -1      1797 8.45968E-05-5.95736E-06-3.37439E-05 3.56896E-06 1.29923E-18-2.35588E-18
 -1      1798 8.43598E-05-5.80902E-06-3.37154E-05 2.50464E-06 1.14384E-18-2.48832E-18
 -1      1799 8.54848E-05-7.60017E-06-3.34048E-05 1.92911E-06 1.10589E-18-2.46359E-18
 -1      1800 8.53690E-05-6.59112E-06-3.38066E-05 5.70532E-06 1.59711E-18-2.04348E-18
 -1      1801 8.49685E-05-6.33427E-06-3.37604E-05 4.55921E-06 1.45470E-18-2.28040E-18
 -1      1802 8.60840E-05-8.15443E-06-3.34246E-05 3.82617E-06 1.46365E-18-2.20781E-18
 -1      1803 8.65805E-05-7.62552E-06-3.38930E-05 8.13774E-06 2.02644E-18-1.45322E-18
 -1      1804 8.59664E-05-7.21353E-06-3.38255E-05 6.81082E-06 1.78796E-18-1.77790E-18
 -1      1805 8.71201E-05-9.13946E-06-3.34479E-05 5.87526E-06 1.84136E-18-1.80139E-18
 -1      1806 8.83910E-05-9.24441E-06-3.40027E-05 1.09134E-05 2.28876E-18-6.61427E-19
 -1      1807 8.74700E-05-8.58514E-06-3.39058E-05 9.35613E-06 2.09303E-18-1.13477E-18
 -1      1808 8.86978E-05-1.06907E-05-3.34589E-05 8.13721E-06 2.21105E-18-1.16648E-18
 -1      1809 9.12330E-05-1.19469E-05-3.41322E-05 1.39967E-05 2.43055E-18 6.53804E-19
 -1      1810 8.97359E-05-1.07578E-05-3.39898E-05 1.21809E-05 2.33063E-18-1.21179E-19
 -1      1811 9.10283E-05-1.30799E-05-3.34233E-05 1.05381E-05 2.42777E-18-2.60013E-19
 -1      1812 9.65243E-05-1.72795E-05-3.41580E-05 1.65631E-05 2.27927E-18 2.98007E-18
 -1      1813 9.35302E-05-1.45505E-05-3.40250E-05 1.49787E-05 2.30513E-18 1.58366E-18
 -1      1814 9.46237E-05-1.70069E-05-3.32528E-05 1.25526E-05 2.38779E-18 1.10114E-18
 -1      1815 1.02403E-04-2.52906E-05-3.34726E-05 1.35592E-05 1.77326E-18 5.61773E-18
 -1      1816 9.86845E-05-1.98712E-05-3.37775E-05 1.59531E-05 2.00217E-18 3.88926E-18
 -1      1817 9.80872E-05-2.20930E-05-3.26421E-05 1.21066E-05 2.27091E-18 2.86069E-18
 -1      1818 9.94702E-05-2.63746E-05-3.15374E-05 8.58343E-06 1.78422E-18 4.97972E-18
 -1      1819 1.00642E-04-1.98112E-05-3.43270E-05-1.79534E-05-1.82632E-18 1.34276E-18
 -1      1820 9.65325E-05-2.76148E-05-2.95597E-05 3.16248E-06 1.51019E-18 3.97244E-18
 -1      1821 9.86606E-05-2.76496E-05-3.04725E-05 5.52777E-06 1.55126E-18 4.53829E-18
 -1      1822 9.85051E-05-2.58859E-05-3.11185E-05 7.69965E-06 1.85156E-18 3.33197E-18
 -1      1823 1.00423E-04-2.27632E-05-3.30050E-05-1.34559E-05-1.93248E-18 7.19237E-19
 -1      1824 9.80251E-05-2.72533E-05-3.02138E-05-4.66975E-06-1.51108E-18 5.17211E-19
 -1      1825 9.65138E-05-2.73670E-05-2.95983E-05-2.81264E-06-1.27273E-18 5.00411E-20
 -1      1826 9.59159E-05-2.76052E-05-2.91777E-05-1.22186E-06-1.15893E-18 8.72179E-20
 -1      1827 9.54974E-05-2.77674E-05-2.89811E-05-2.68013E-07-1.07689E-18-1.47275E-19
 -1      1828 9.68290E-05-2.68017E-05-3.00372E-05-3.01265E-06-1.38905E-18-4.89818E-19
 -1      1829 9.52560E-05-2.78798E-05-2.88146E-05 7.18437E-07-8.51880E-19-9.35409E-20
 -1      1830 9.53866E-05-2.80543E-05-2.88219E-05 1.29532E-06-5.79586E-19-2.95558E-19
 -1      1831 9.61196E-05-2.75514E-05-2.94115E-05-6.05533E-08-1.08973E-18-3.68486E-19
 -1      1832 9.54620E-05-2.81691E-05-2.88063E-05 1.94940E-06-5.33670E-19-2.80825E-19
 -1      1833 9.59573E-05-2.83920E-05-2.89313E-05 2.33932E-06-3.94932E-19-3.63639E-19
 -1      1834 9.60460E-05-2.79872E-05-2.91900E-05 1.80825E-06-6.30805E-19-4.31289E-19
 -1      1835 9.62817E-05-2.85422E-05-2.90130E-05 2.80275E-06-4.79573E-19-5.36932E-19
 -1      1836 9.70282E-05-2.88169E-05-2.92147E-05 3.08435E-06-5.37312E-19-8.71290E-19
 -1      1837 9.64990E-05-2.83672E-05-2.92177E-05 3.08436E-06-6.22362E-19-6.70919E-19
 -1      1838 9.75449E-05-2.90126E-05-2.93613E-05 3.42037E-06-5.40615E-19-9.75186E-19
 -1      1839 9.84679E-05-2.93381E-05-2.96144E-05 3.61875E-06-4.48848E-19-9.32764E-19
 -1      1840 9.73744E-05-2.87905E-05-2.94079E-05 3.99883E-06-6.76356E-19-9.78528E-19
 -1      1841 9.91343E-05-2.95855E-05-2.98021E-05 3.84068E-06-3.61866E-19-9.97525E-19
 -1      1842 1.00170E-04-2.99600E-05-3.00850E-05 3.94617E-06-3.32129E-19-1.02101E-18
 -1      1843 9.85852E-05-2.93038E-05-2.97036E-05 4.63986E-06-4.81025E-19-1.05300E-18
 -1      1844 1.00950E-04-3.02655E-05-3.02926E-05 4.02836E-06-5.80967E-19-8.73476E-19
 -1      1845 1.02027E-04-3.06831E-05-3.05814E-05 4.00237E-06-5.31137E-19-8.99255E-19
 -1      1846 1.00061E-04-2.99424E-05-3.00598E-05 4.99708E-06-3.88814E-19-1.16342E-18
 -1      1847 1.02884E-04-3.10511E-05-3.07874E-05 3.88515E-06-5.47664E-19-8.66369E-19
 -1      1848 1.03903E-04-3.14945E-05-3.10519E-05 3.66486E-06-6.89362E-19-1.15381E-18
 -1      1849 1.01736E-04-3.07351E-05-3.04350E-05 4.97960E-06-7.18501E-19-9.03629E-19
 -1      1850 1.04786E-04-3.19193E-05-3.12335E-05 3.26291E-06-5.79706E-19-1.05339E-18
 -1      1851 1.05616E-04-3.23489E-05-3.14363E-05 2.77402E-06-1.22893E-19-1.21264E-18
 -1      1852 1.03526E-04-3.16925E-05-3.07882E-05 4.43023E-06-5.01759E-19-4.61423E-19
 -1      1853 1.06447E-04-3.27990E-05-3.15712E-05 1.99906E-06 6.28624E-20-1.28459E-18
 -1      1854 1.06918E-04-3.31384E-05-3.16714E-05 1.18664E-06 1.60556E-19-1.25723E-18
 -1      1855 1.05303E-04-3.27739E-05-3.10807E-05 3.15805E-06-1.45190E-19-5.74338E-19
 -1      1856 1.07574E-04-3.35337E-05-3.17429E-05-2.40169E-09 3.07705E-19-1.11674E-18
 -1      1857 1.07503E-04-3.36597E-05-3.17056E-05-1.11735E-06 4.50661E-19-1.01812E-18
 -1      1858 1.06858E-04-3.38336E-05-3.12840E-05 1.01482E-06 2.60459E-19-5.52153E-19
 -1      1859 1.07805E-04-3.38542E-05-3.17103E-05-2.62973E-06 3.22084E-19-1.15354E-18
 -1      1860 1.07054E-04-3.36123E-05-3.15231E-05-3.87612E-06 1.07487E-19-7.68811E-19
 -1      1861 1.07871E-04-3.45655E-05-3.13913E-05-1.96140E-06 2.89139E-19-2.73616E-19
 -1      1862 1.06805E-04-3.34170E-05-3.14761E-05-5.39316E-06-2.83435E-19-1.12851E-18
 -1      1863 1.05377E-04-3.26934E-05-3.11659E-05-6.40382E-06-5.65967E-19-9.01031E-19
 -1      1864 1.07931E-04-3.45123E-05-3.14265E-05-5.34507E-06-2.12992E-19-1.00924E-18
 -1      1865 1.04481E-04-3.19854E-05-3.10981E-05-7.35819E-06-6.72352E-19-9.76391E-19
 -1      1866 1.02630E-04-3.08404E-05-3.07369E-05-7.63923E-06-6.04688E-19-1.04328E-18
 -1      1867 1.06706E-04-3.32519E-05-3.14390E-05-8.17233E-06-6.29584E-19-1.02061E-18
 -1      1868 1.01287E-04-2.97461E-05-3.06811E-05-7.40352E-06-5.34582E-19-8.85626E-19
 -1      1869 9.95413E-05-2.85238E-05-3.03704E-05-6.58609E-06-4.50158E-19-1.05304E-18
 -1      1870 1.04287E-04-3.07967E-05-3.14760E-05-9.08739E-06-5.91968E-19-7.29279E-19
 -1      1871 9.83262E-05-2.75113E-05-3.03438E-05-4.89879E-06-5.70616E-19-1.35490E-18
 -1      1872 9.73273E-05-2.67564E-05-3.01783E-05-3.07419E-06-8.82774E-19-1.50275E-18
 -1      1873 1.01499E-04-2.79531E-05-3.15459E-05-7.01586E-06-7.56420E-19-7.15584E-19
 -1      1874 9.69303E-05-2.64137E-05-3.01781E-05-4.26622E-07-1.20991E-18-1.67710E-18
 -1      1875 9.70996E-05-2.65258E-05-3.02107E-05 1.74267E-06-7.63680E-19-2.13795E-18
 -1      1876 9.97335E-05-2.61389E-05-3.16083E-05-2.14513E-06-1.17065E-18-6.33809E-19
 -1      1877 9.77734E-05-2.70681E-05-3.02334E-05 4.26122E-06-3.87240E-19-2.70581E-18
 -1      1878 9.90557E-05-2.79906E-05-3.04578E-05 5.90595E-06-3.13389E-19-2.83923E-18
 -1      1879 1.00030E-04-2.63980E-05-3.16180E-05 3.69516E-06-9.95363E-19-1.80181E-18
 -1      1880 1.00414E-04-2.90870E-05-3.05094E-05 7.29289E-06 1.06660E-19-2.82276E-18
 -1      1881 1.02312E-04-3.03539E-05-3.08620E-05 7.86344E-06 3.12406E-19-2.83694E-18
 -1      1882 1.02243E-04-2.85841E-05-3.15837E-05 8.06330E-06 3.33685E-20-2.11460E-18
 -1      1883 1.03646E-04-3.14027E-05-3.09426E-05 7.80827E-06 4.81293E-19-2.35320E-18
 -1      1884 1.05521E-04-3.24915E-05-3.13250E-05 7.34162E-06 6.35324E-19-2.25880E-18
 -1      1885 1.05163E-04-3.14721E-05-3.15560E-05 9.45719E-06 6.02183E-19-2.11894E-18
 -1      1886 1.06335E-04-3.30957E-05-3.14136E-05 6.23453E-06 2.52012E-19-2.41861E-18
 -1      1887 1.07719E-04-3.37314E-05-3.17296E-05 5.15963E-06-1.13853E-20-2.23383E-18
 -1      1888 1.07470E-04-3.37171E-05-3.15677E-05 8.05067E-06 7.62207E-19-2.26557E-18
 -1      1889 1.07902E-04-3.38404E-05-3.17930E-05 3.64453E-06-3.96445E-19-1.78335E-18
 -1      1890 1.08610E-04-3.40178E-05-3.19812E-05 2.44009E-06-1.38013E-19-1.70510E-18
 -1      1891 1.08523E-04-3.47075E-05-3.16006E-05 5.07093E-06 2.05882E-19-2.09807E-18
 -1      1892 1.08296E-04-3.37842E-05-3.19914E-05 1.03173E-06 4.03783E-19-1.78609E-18
 -1      1893 1.08369E-04-3.36369E-05-3.20358E-05 1.90038E-08 7.11243E-19-1.81262E-18
 -1      1894 1.08370E-04-3.45765E-05-3.16047E-05 1.81716E-06 4.03035E-19-1.44767E-18
 -1      1895 1.07758E-04-3.32459E-05-3.19818E-05-1.02488E-06 7.09972E-19-2.09483E-18
 -1      1896 1.07353E-04-3.29257E-05-3.19017E-05-1.71715E-06 3.34022E-19-2.16491E-18
 -1      1897 1.07384E-04-3.37821E-05-3.15344E-05-8.77745E-07 6.72101E-19-1.68198E-18
 -1      1898 1.06609E-04-3.25080E-05-3.17899E-05-2.34820E-06-3.04379E-19-1.72737E-18
 -1      1899 1.05909E-04-3.21280E-05-3.16223E-05-2.72562E-06-1.04215E-19-1.47499E-18
 -1      1900 1.05960E-04-3.27562E-05-3.13717E-05-2.70130E-06 3.50774E-19-1.18235E-18
 -1      1901 1.05140E-04-3.17502E-05-3.14695E-05-3.00751E-06-1.58066E-20-8.12814E-19
 -1      1902 1.04303E-04-3.13774E-05-3.12536E-05-3.13834E-06 5.98165E-19-5.86392E-19
 -1      1903 1.04388E-04-3.17658E-05-3.11267E-05-3.68480E-06 4.10601E-19-1.25581E-19
 -1      1904 1.03570E-04-3.10627E-05-3.10794E-05-3.17086E-06 3.96720E-19-1.00161E-18
 -1      1905 1.02712E-04-3.07296E-05-3.08478E-05-3.13649E-06 1.64944E-19-5.27028E-19
 -1      1906 1.02843E-04-3.09281E-05-3.08258E-05-4.01296E-06 3.76409E-19-2.99279E-19
 -1      1907 1.02049E-04-3.04784E-05-3.06693E-05-3.01432E-06-4.68777E-19-1.60254E-18
 -1      1908 1.01242E-04-3.01969E-05-3.04450E-05-2.88493E-06-4.83182E-19-1.98250E-18
 -1      1909 1.01419E-04-3.02683E-05-3.04996E-05-3.89996E-06 3.61633E-20-9.31489E-19
 -1      1910 1.00663E-04-3.00013E-05-3.02751E-05-2.68190E-06 1.43316E-19-2.30711E-18
 -1      1911 9.99482E-05-2.97719E-05-3.00719E-05-2.50892E-06 2.98266E-19-1.73704E-18
 -1      1912 1.00162E-04-2.97695E-05-3.01748E-05-3.53013E-06-2.15004E-19-1.97415E-18
 -1      1913 9.94564E-05-2.96218E-05-2.99186E-05-2.27603E-06-1.80077E-20-1.06873E-18
 -1      1914 9.88502E-05-2.94402E-05-2.97433E-05-2.09309E-06 6.04350E-19-8.18009E-20
 -1      1915 9.90849E-05-2.94014E-05-2.98710E-05-3.03991E-06 7.56025E-19-1.23354E-18
 -1      1916 9.84429E-05-2.93262E-05-2.96105E-05-1.86222E-06 6.31128E-19-2.31924E-19
 -1      1917 9.79460E-05-2.91857E-05-2.94649E-05-1.68905E-06 1.08259E-18-2.09391E-19
 -1      1918 9.81861E-05-2.91341E-05-2.95999E-05-2.52000E-06 5.89107E-19 3.91162E-19
 -1      1919 9.76159E-05-2.91001E-05-2.93537E-05-1.47797E-06 8.73738E-19-1.12373E-18
 -1      1920 9.72202E-05-2.89939E-05-2.92363E-05-1.32462E-06 3.57516E-20-1.56894E-18
 -1      1921 9.74525E-05-2.89423E-05-2.93672E-05-2.02487E-06 4.36021E-19-1.83098E-18
 -1      1922 9.69584E-05-2.89304E-05-2.91458E-05-1.14157E-06-3.27206E-19-1.63603E-18
 -1      1923 9.66514E-05-2.88518E-05-2.90538E-05-1.01184E-06-1.93952E-19-1.82345E-18
 -1      1924 9.68662E-05-2.88065E-05-2.91734E-05-1.58319E-06-2.69535E-19-1.16083E-18
 -1      1925 9.64479E-05-2.88054E-05-2.89821E-05-8.59107E-07-5.37543E-20-9.77150E-19
 -1      1926 9.62158E-05-2.87487E-05-2.89117E-05-7.53078E-07-3.03560E-19-5.54003E-19
 -1      1927 9.64071E-05-2.87118E-05-2.90165E-05-1.20661E-06 2.76608E-19-8.19110E-19
 -1      1928 9.60609E-05-2.87154E-05-2.88562E-05-6.29443E-07 6.44939E-19 4.94811E-19
 -1      1929 9.58898E-05-2.86756E-05-2.88038E-05-5.45179E-07 1.22792E-18 1.03794E-18
 -1      1930 9.60548E-05-2.86472E-05-2.88925E-05-8.96342E-07 5.01793E-19 7.22699E-19
 -1      1931 9.57745E-05-2.86524E-05-2.87617E-05-4.47623E-07 6.23967E-19 3.70997E-19
 -1      1932 9.56519E-05-2.86254E-05-2.87238E-05-3.82264E-07 1.07745E-19 3.77368E-19
 -1      1933 9.57902E-05-2.86043E-05-2.87968E-05-6.47720E-07 4.82464E-19 1.25243E-18
 -1      1934 9.55683E-05-2.86097E-05-2.86928E-05-3.07022E-07 3.32233E-20 1.01399E-18
 -1      1935 9.54834E-05-2.85923E-05-2.86661E-05-2.57448E-07-5.06636E-19 1.31059E-18
 -1      1936 9.55961E-05-2.85771E-05-2.87247E-05-4.53238E-07 5.46996E-19 7.44056E-19
 -1      1937 9.54245E-05-2.85821E-05-2.86439E-05-2.00660E-07-1.94268E-18 9.65370E-19
 -1      1938 9.53683E-05-2.85717E-05-2.86259E-05-1.63878E-07-1.29646E-18 1.55387E-18
 -1      1939 9.54574E-05-2.85610E-05-2.86717E-05-3.04427E-07-1.39487E-18 1.86338E-18
 -1      1940 9.53283E-05-2.85656E-05-2.86105E-05-1.21951E-07-9.01610E-19 1.28105E-18
 -1      1941 9.52935E-05-2.85602E-05-2.85990E-05-9.52910E-08 1.81213E-19 1.07399E-18
 -1      1942 9.53617E-05-2.85527E-05-2.86338E-05-1.92995E-07-1.28416E-18 3.26062E-18
 -1      1943 9.52677E-05-2.85570E-05-2.85888E-05-6.50875E-08 1.20267E-18 1.00986E-19
 -1      1944 9.52484E-05-2.85552E-05-2.85821E-05-4.62984E-08 7.20801E-19 6.53387E-19
 -1      1945 9.52985E-05-2.85497E-05-2.86077E-05-1.11437E-07 1.41653E-19 1.81318E-18
 -1      1946 9.52331E-05-2.85540E-05-2.85757E-05-2.52183E-08 7.47912E-19 1.71276E-18
 -1      1947 9.52247E-05-2.85545E-05-2.85724E-05-1.24997E-08 2.00564E-18 3.00166E-18
 -1      1948 9.52594E-05-2.85502E-05-2.85904E-05-5.33457E-08 1.81492E-18 6.58900E-19
 -1      1949 9.52167E-05-2.85548E-05-2.85687E-05 1.49493E-09 1.25511E-18 2.31047E-18
 -1      1950 9.52157E-05-2.85569E-05-2.85677E-05 9.48256E-09 1.65386E-18 1.77223E-18
 -1      1951 9.52376E-05-2.85532E-05-2.85796E-05-1.35270E-08 1.20912E-18 1.09079E-18
 -1      1952 9.52128E-05-2.85582E-05-2.85659E-05 1.78661E-08 6.80502E-19 1.61884E-18
 -1      1953 9.52162E-05-2.85613E-05-2.85662E-05 2.19807E-08 3.62770E-19 1.52803E-18
 -1      1954 9.52280E-05-2.85578E-05-2.85733E-05 1.19709E-08 9.45091E-19 6.87714E-19
 -1      1955 9.52164E-05-2.85633E-05-2.85654E-05 2.57810E-08 9.82667E-19 5.54831E-21
 -1      1956 9.52221E-05-2.85670E-05-2.85664E-05 2.63290E-08 1.23466E-18 1.09774E-18
 -1      1957 9.52262E-05-2.85636E-05-2.85699E-05 2.58806E-08-6.49049E-19 1.39962E-18
 -1      1958 9.52236E-05-2.85693E-05-2.85661E-05 2.60046E-08 1.29838E-18 2.36397E-19
 -1      1959 9.52296E-05-2.85733E-05-2.85671E-05 2.30569E-08 2.31050E-19 7.55113E-19
 -1      1960 9.52338E-05-2.85775E-05-2.85671E-05 2.62010E-08-2.55163E-19-2.33918E-19
 -1      1961 9.52290E-05-2.85706E-05-2.85680E-05 2.99927E-08 7.52191E-19 9.78516E-19
 -1      1962 9.50605E-05-2.78317E-05-2.87772E-05 5.28597E-07 1.19680E-18 3.15088E-18
 -1      1963 9.58960E-05-2.78455E-05-2.91022E-05 1.68545E-06 1.31035E-18 3.68212E-18
 -1      1964 9.66400E-05-2.73850E-05-2.96903E-05 2.83220E-06 1.56225E-18 2.69502E-18
 -1      1965 9.48000E-05-2.80120E-05-2.85906E-05-1.01121E-06 9.70203E-19 2.43497E-18
 -1      1966 9.48490E-05-2.79244E-05-2.86267E-05-3.25456E-07 9.46361E-19 2.81650E-18
 -1      1967 9.56543E-05-2.78245E-05-2.90819E-05 8.03397E-08 1.24250E-18 2.20340E-18
 -1      1968 9.54307E-05-2.83096E-05-2.87406E-05-2.05437E-06 3.50672E-19 2.36258E-18
 -1      1969 9.49804E-05-2.81250E-05-2.86164E-05-1.57280E-06 6.35688E-19 2.35918E-18
 -1      1970 9.56098E-05-2.81124E-05-2.89433E-05-1.64257E-06 8.23174E-19 1.71822E-18
 -1      1971 9.67288E-05-2.87426E-05-2.91152E-05-2.87302E-06 3.10135E-19 1.91232E-18
 -1      1972 9.59225E-05-2.84741E-05-2.88833E-05-2.47977E-06 3.58530E-19 2.18594E-18
 -1      1973 9.62902E-05-2.84432E-05-2.90944E-05-2.87211E-06 5.22325E-19 1.45900E-18
 -1      1974 9.85672E-05-2.93098E-05-2.96621E-05-3.59556E-06 2.82788E-19 1.54764E-18
 -1      1975 9.74746E-05-2.89642E-05-2.93454E-05-3.23618E-06 2.96152E-19 1.71172E-18
 -1      1976 9.75395E-05-2.88679E-05-2.94474E-05-3.87115E-06 4.53955E-19 1.03699E-18
 -1      1977 1.00873E-04-3.00147E-05-3.03505E-05-4.26800E-06 1.29811E-19 1.57985E-18
 -1      1978 9.95316E-05-2.95926E-05-2.99619E-05-3.92336E-06 1.40502E-19 1.52925E-18
 -1      1979 9.92622E-05-2.94078E-05-2.99539E-05-4.75972E-06 2.73722E-19 8.59958E-19
 -1      1980 1.03588E-04-3.08689E-05-3.11529E-05-4.86615E-06 2.39767E-19 1.24173E-18
 -1      1981 1.02032E-04-3.03678E-05-3.07049E-05-4.54932E-06 2.70984E-19 1.53967E-18
 -1      1982 1.01400E-04-3.00863E-05-3.05794E-05-5.56286E-06 2.62203E-19 9.91465E-19
 -1      1983 1.06633E-04-3.18869E-05-3.20302E-05-5.28199E-06-2.23181E-19 1.82138E-18
 -1      1984 1.04916E-04-3.13072E-05-3.15434E-05-5.04681E-06-3.00763E-21 1.34666E-18
 -1      1985 1.03907E-04-3.09385E-05-3.12890E-05-6.21383E-06 1.01375E-19 8.90023E-19
 -1      1986 1.09859E-04-3.30746E-05-3.29176E-05-5.29898E-06 1.65615E-19 1.81724E-18
 -1      1987 1.08089E-04-3.24292E-05-3.24291E-05-5.25424E-06 4.75083E-20 1.87784E-18
 -1      1988 1.06722E-04-3.20106E-05-3.20357E-05-6.53466E-06-2.11179E-21 1.27895E-18
 -1      1989 1.13000E-04-3.44015E-05-3.37131E-05-4.57862E-06 4.30551E-19 1.54803E-18
 -1      1990 1.11367E-04-3.37333E-05-3.32843E-05-4.89667E-06 3.48160E-19 1.85036E-18
 -1      1991 1.09733E-04-3.33429E-05-3.27528E-05-6.21392E-06 2.52958E-19 9.61200E-19
 -1      1992 1.15623E-04-3.57420E-05-3.42787E-05-2.70870E-06 7.43371E-19 1.38005E-18
 -1      1993 1.14424E-04-3.51528E-05-3.39954E-05-3.60225E-06 5.60987E-19 1.45503E-18
 -1      1994 1.12731E-04-3.49178E-05-3.33549E-05-4.81935E-06 6.13067E-19 9.28418E-19
 -1      1995 1.17105E-04-3.67815E-05-3.44706E-05 6.01131E-07-5.34822E-20 1.87305E-18
 -1      1996 1.16724E-04-3.64671E-05-3.44255E-05-1.02087E-06 2.49239E-19 1.45453E-18
 -1      1997 1.15333E-04-3.65471E-05-3.37550E-05-1.91838E-06 2.34549E-19 9.82123E-19
 -1      1998 1.16702E-04-3.69358E-05-3.42099E-05 5.08527E-06-1.10061E-19 1.39047E-18
 -1      1999 1.17514E-04-3.71868E-05-3.44583E-05 2.86808E-06-1.81397E-19 1.31742E-18
 -1      2000 1.16908E-04-3.77068E-05-3.39057E-05 2.59407E-06 1.96035E-19 7.90110E-19
 -1      2001 1.13871E-04-3.55121E-05-3.35727E-05 9.36986E-06-4.08402E-19 1.73136E-18
 -1      2002 1.16001E-04-3.65743E-05-3.40737E-05 7.25360E-06-1.98748E-19 1.82258E-18
 -1      2003 1.16622E-04-3.74891E-05-3.38510E-05 7.91584E-06-3.22799E-19 9.21393E-19
 -1      2004 1.08943E-04-3.23546E-05-3.28054E-05 1.09756E-05 1.05775E-18 2.16862E-18
 -1      2005 1.11964E-04-3.41086E-05-3.33992E-05 1.01892E-05 7.09688E-20 1.68374E-18
 -1      2006 1.13933E-04-3.51252E-05-3.37276E-05 1.18719E-05 2.34936E-19 1.80947E-18
 -1      2007 1.03833E-04-2.87061E-05-3.22224E-05 7.72915E-06 6.32826E-19 2.03980E-18
 -1      2008 1.06598E-04-3.03856E-05-3.26817E-05 9.28074E-06 1.26356E-18 2.34926E-18
 -1      2009 1.09519E-04-3.10182E-05-3.36661E-05 1.15039E-05 1.03288E-18 1.85058E-18
 -1      2010 1.01560E-04-2.69934E-05-3.20421E-05 2.53351E-07-8.43724E-19 6.06323E-19
 -1      2011 1.02634E-04-2.75118E-05-3.21795E-05 3.72823E-06-6.11108E-19 8.72179E-19
 -1      2012 1.05829E-04-2.74460E-05-3.36851E-05 5.39522E-06 3.66183E-19 1.08984E-18
 -1      2013 1.03829E-04-2.86125E-05-3.23427E-05-7.41415E-06 1.52466E-20 1.11999E-18
 -1      2014 1.02533E-04-2.75898E-05-3.20904E-05-3.96031E-06-1.90318E-19 1.16372E-18
 -1      2015 1.05531E-04-2.70299E-05-3.37291E-05-3.83944E-06-5.38395E-19 3.16684E-19
 -1      2016 1.09231E-04-3.23323E-05-3.29995E-05-1.11464E-05 4.05199E-19 1.06210E-18
 -1      2017 1.06264E-04-3.04654E-05-3.24677E-05-9.50102E-06 2.23802E-19 1.09993E-18
 -1      2018 1.08905E-04-3.01805E-05-3.37832E-05-1.09798E-05 2.12261E-19 3.62226E-19
 -1      2019 1.14634E-04-3.56832E-05-3.37998E-05-9.91131E-06 1.83864E-18-4.78057E-19
 -1      2020 1.11476E-04-3.40747E-05-3.31845E-05-1.04011E-05 9.95489E-19 2.62554E-19
 -1      2021 1.13539E-04-3.44611E-05-3.38704E-05-1.25598E-05 1.52544E-18-7.04467E-19
 -1      2022 1.17823E-04-3.72553E-05-3.44624E-05-5.76700E-06 1.21795E-18-1.50429E-18
 -1      2023 1.15641E-04-3.64470E-05-3.39813E-05-7.47392E-06 1.52765E-18-9.57240E-19
 -1      2024 1.16774E-04-3.73447E-05-3.40194E-05-9.27654E-06 1.94201E-18-1.79841E-18
 -1      2025 1.18398E-04-3.71685E-05-3.47598E-05-1.27209E-06-3.97391E-19-3.42109E-19
 -1      2026 1.17586E-04-3.71048E-05-3.45454E-05-3.13333E-06 3.07671E-19-6.23539E-19
 -1      2027 1.17621E-04-3.79982E-05-3.41294E-05-4.05680E-06 2.24570E-19-8.50295E-19
 -1      2028 1.17007E-04-3.61545E-05-3.46255E-05 2.09131E-06-1.30311E-18-3.83137E-19
 -1      2029 1.17374E-04-3.65429E-05-3.46905E-05 6.83686E-07-1.01812E-18-3.99780E-19
 -1      2030 1.16500E-04-3.70703E-05-3.40624E-05 6.56849E-07-1.06757E-18 6.93624E-20
 -1      2031 1.14506E-04-3.48409E-05-3.41382E-05 3.99175E-06-4.46304E-19-2.28653E-19
 -1      2032 1.15640E-04-3.54198E-05-3.44138E-05 3.17861E-06-8.36041E-19-1.74528E-19
 -1      2033 1.14245E-04-3.55177E-05-3.37609E-05 3.80996E-06-9.78958E-19-1.11637E-18
 -1      2034 1.11571E-04-3.35657E-05-3.34380E-05 4.70071E-06-1.06054E-19 1.42100E-18
 -1      2035 1.13074E-04-3.41755E-05-3.38312E-05 4.37787E-06-2.31693E-19 6.21411E-19
 -1      2036 1.11534E-04-3.39598E-05-3.32596E-05 5.38320E-06-4.06635E-19-7.83783E-19
 -1      2037 1.08636E-04-3.24603E-05-3.26575E-05 4.64094E-06-3.59032E-19 1.30653E-18
 -1      2038 1.10220E-04-3.30222E-05-3.30887E-05 4.63888E-06-8.63510E-20 1.76770E-18
 -1      2039 1.08786E-04-3.26445E-05-3.26389E-05 5.78542E-06-2.98305E-19 8.62822E-19
 -1      2040 1.05942E-04-3.15504E-05-3.18925E-05 4.17358E-06 7.16958E-19 1.15805E-18
 -1      2041 1.07431E-04-3.20340E-05-3.23083E-05 4.34544E-06-2.59928E-19 1.24140E-18
 -1      2042 1.06228E-04-3.16131E-05-3.19807E-05 5.47733E-06 3.76210E-20 1.22619E-18
 -1      2043 1.03600E-04-3.08206E-05-3.11992E-05 3.54302E-06 9.26925E-19 3.62425E-19
 -1      2044 1.04907E-04-3.12204E-05-3.15704E-05 3.78805E-06 1.10600E-18 9.57695E-19
 -1      2045 1.03967E-04-3.08266E-05-3.13470E-05 4.81721E-06 1.21033E-18 1.16398E-18
 -1      2046 1.01638E-04-3.02446E-05-3.06030E-05 2.89198E-06 2.76070E-19-1.35429E-18
 -1      2047 1.02735E-04-3.05660E-05-3.09179E-05 3.15043E-06 3.10302E-19-3.44768E-19
 -1      2048 1.02040E-04-3.02314E-05-3.07756E-05 4.03743E-06 1.22942E-18 2.22635E-19
 -1      2049 1.00042E-04-2.97958E-05-3.01092E-05 2.29304E-06 8.82986E-19-1.18029E-18
 -1      2050 1.00932E-04-3.00486E-05-3.03668E-05 2.53386E-06 3.58867E-19-1.23346E-18
 -1      2051 1.00441E-04-2.97812E-05-3.02836E-05 3.26992E-06 4.78949E-19-7.84281E-19
 -1      2052 9.87728E-05-2.94504E-05-2.97118E-05 1.77618E-06 4.65016E-19 3.35171E-19
 -1      2053 9.94766E-05-2.96456E-05-2.99167E-05 1.98596E-06 4.04058E-19-7.53412E-19
 -1      2054 9.91458E-05-2.94411E-05-2.98746E-05 2.57945E-06 4.93132E-20 3.46198E-20
 -1      2055 9.77840E-05-2.91882E-05-2.93993E-05 1.34790E-06-4.79446E-19 6.88389E-19
 -1      2056 9.83285E-05-2.93363E-05-2.95587E-05 1.52310E-06 9.78472E-20 1.18183E-18
 -1      2057 9.81173E-05-2.91851E-05-2.95438E-05 1.99056E-06-2.74488E-19 1.28464E-18
 -1      2058 9.70280E-05-2.89921E-05-2.91586E-05 1.00299E-06 1.41617E-18-7.14831E-20
 -1      2059 9.74410E-05-2.91025E-05-2.92801E-05 1.14508E-06 3.18192E-19 2.21458E-19
 -1      2060 9.73157E-05-2.89941E-05-2.92823E-05 1.50584E-06 6.92594E-19 8.01266E-19
 -1      2061 9.64606E-05-2.88480E-05-2.89768E-05 7.31222E-07 1.60863E-18-1.46658E-18
 -1      2062 9.67679E-05-2.89287E-05-2.90676E-05 8.43931E-07 1.43187E-18-2.04036E-19
 -1      2063 9.67021E-05-2.88532E-05-2.90797E-05 1.11704E-06 1.91528E-18 6.45321E-19
 -1      2064 9.60432E-05-2.87441E-05-2.88422E-05 5.20961E-07 1.21779E-19-1.05047E-18
 -1      2065 9.62671E-05-2.88019E-05-2.89086E-05 6.08740E-07 1.18054E-18-1.43929E-18
 -1      2066 9.62410E-05-2.87510E-05-2.89258E-05 8.11535E-07 1.45828E-18 1.13668E-19
 -1      2067 9.57428E-05-2.86712E-05-2.87446E-05 3.60959E-07-1.97258E-20-1.06837E-18
 -1      2068 9.59022E-05-2.87114E-05-2.87921E-05 4.28216E-07-4.00289E-19-1.27983E-18
 -1      2069 9.59012E-05-2.86785E-05-2.88111E-05 5.75678E-07-1.50777E-19 4.74892E-20
 -1      2070 9.55323E-05-2.86215E-05-2.86756E-05 2.41137E-07-1.83264E-18-9.79420E-19
 -1      2071 9.56425E-05-2.86486E-05-2.87087E-05 2.91878E-07-1.45538E-18-1.56127E-18
 -1      2072 9.56564E-05-2.86284E-05-2.87275E-05 3.96545E-07-9.47996E-19-3.76682E-19
 -1      2073 9.53898E-05-2.85892E-05-2.86284E-05 1.52866E-07-6.02603E-19 6.65565E-19
 -1      2074 9.54632E-05-2.86066E-05-2.86506E-05 1.90560E-07-1.04157E-18-3.75837E-19
 -1      2075 9.54846E-05-2.85952E-05-2.86679E-05 2.62659E-07-1.49015E-18-7.06609E-21
 -1      2076 9.52978E-05-2.85696E-05-2.85974E-05 8.89917E-08 4.53686E-20 1.35418E-18
 -1      2077 9.53440E-05-2.85799E-05-2.86115E-05 1.16540E-07-2.28544E-20 1.14018E-18
 -1      2078 9.53682E-05-2.85743E-05-2.86268E-05 1.64254E-07-1.41038E-19 1.43875E-18
 -1      2079 9.52427E-05-2.85591E-05-2.85783E-05 4.37460E-08-8.85998E-19 1.74451E-18
 -1      2080 9.52692E-05-2.85643E-05-2.85866E-05 6.35037E-08-1.50566E-19 1.81929E-18
 -1      2081 9.52930E-05-2.85624E-05-2.85995E-05 9.32748E-08-3.40867E-19 2.44313E-18
 -1      2082 9.52139E-05-2.85550E-05-2.85678E-05 1.26039E-08 1.10061E-18-7.14828E-19
 -1      2083 9.52266E-05-2.85567E-05-2.85719E-05 2.64286E-08-3.93788E-19-8.15620E-20
 -1      2084 9.52479E-05-2.85570E-05-2.85824E-05 4.32614E-08 9.43409E-19 7.23366E-19
 -1      2085 9.52032E-05-2.85552E-05-2.85631E-05-7.84576E-09 1.30858E-18-1.66267E-19
 -1      2086 9.52064E-05-2.85546E-05-2.85645E-05 1.44661E-09 1.73609E-18 1.56844E-19
 -1      2087 9.52243E-05-2.85559E-05-2.85726E-05 9.19598E-09 1.10120E-18 3.59962E-19
 -1      2088 9.52043E-05-2.85583E-05-2.85624E-05-1.99836E-08 8.54799E-19-7.00943E-19
 -1      2089 9.52015E-05-2.85562E-05-2.85619E-05-1.42624E-08 4.69801E-19-3.34097E-19
 -1      2090 9.52153E-05-2.85579E-05-2.85678E-05-1.26375E-08 5.67533E-19 1.49953E-18
 -1      2091 9.52122E-05-2.85632E-05-2.85637E-05-2.51508E-08-2.57000E-19 1.67727E-19
 -1      2092 9.52062E-05-2.85602E-05-2.85624E-05-2.25091E-08 2.87165E-19-2.03740E-19
 -1      2093 9.52158E-05-2.85620E-05-2.85662E-05-2.46958E-08 1.14432E-19 1.24528E-18
 -1      2094 9.52229E-05-2.85691E-05-2.85658E-05-2.35566E-08 2.07863E-19 7.99427E-19
 -1      2095 9.52159E-05-2.85658E-05-2.85643E-05-2.41879E-08 5.84778E-19 5.38291E-19
 -1      2096 9.52218E-05-2.85675E-05-2.85662E-05-2.83945E-08 2.65022E-19 1.31181E-18
 -1      2097 9.52318E-05-2.85746E-05-2.85674E-05-1.75385E-08-1.28832E-20 5.19892E-19
 -1      2098 9.52256E-05-2.85711E-05-2.85662E-05-2.14880E-08-4.99823E-19 5.54323E-19
 -1      2099 9.52288E-05-2.85730E-05-2.85668E-05-2.59225E-08-2.02026E-19 1.58246E-18
 -1      2100 9.52349E-05-2.85787E-05-2.85669E-05-2.05282E-08-1.31823E-19 4.63950E-19
 -1      2101 9.52495E-05-2.86014E-05-2.85635E-05-1.93333E-08 1.80638E-18 1.31320E-18
 -1      2102 9.52476E-05-2.85966E-05-2.85646E-05-2.17484E-08 1.00109E-18 7.86299E-20
 -1      2103 9.52462E-05-2.85950E-05-2.85648E-05-2.41985E-08-4.55417E-19 1.12946E-18
 -1      2104 9.52432E-05-2.85892E-05-2.85660E-05-2.50795E-08-8.77729E-19 3.51188E-18
 -1      2105 9.52453E-05-2.85868E-05-2.85680E-05-2.66615E-08-4.36599E-19 2.17610E-18
 -1      2106 9.52413E-05-2.85877E-05-2.85658E-05-2.49930E-08-3.76999E-19 2.61085E-18
 -1      2107 9.52375E-05-2.85817E-05-2.85668E-05-2.28999E-08 6.44913E-20 1.81858E-18
 -1      2108 9.52353E-05-2.85790E-05-2.85670E-05-2.64527E-08-4.67440E-21 1.51248E-18
 -1      2109 9.52410E-05-2.85837E-05-2.85675E-05-2.93687E-08-8.51779E-19 2.95457E-18
 -1      2110 9.52507E-05-2.86052E-05-2.85624E-05-1.33844E-08 5.58050E-19-1.53260E-18
 -1      2111 9.52498E-05-2.86018E-05-2.85633E-05-1.60719E-08 1.09911E-18 7.30560E-19
 -1      2112 9.52475E-05-2.85889E-05-2.85680E-05-2.02536E-08 1.02012E-18 9.56588E-19
 -1      2113 9.52507E-05-2.86069E-05-2.85616E-05-7.87954E-09 9.64061E-19-2.95004E-19
 -1      2114 9.52503E-05-2.86048E-05-2.85622E-05-1.02729E-08 7.55652E-19-3.92990E-19
 -1      2115 9.52473E-05-2.85889E-05-2.85679E-05-1.32811E-08 5.85840E-19-7.39494E-19
 -1      2116 9.52501E-05-2.86073E-05-2.85612E-05-3.58595E-09 7.32230E-19 1.38634E-18
 -1      2117 9.52501E-05-2.86063E-05-2.85615E-05-5.44513E-09 9.53091E-19-9.84542E-20
 -1      2118 9.52461E-05-2.85877E-05-2.85679E-05-7.30004E-09 1.33289E-18-3.06347E-19
 -1      2119 9.52496E-05-2.86070E-05-2.85611E-05-3.20174E-10 1.51967E-19-1.76401E-18
 -1      2120 9.52497E-05-2.86068E-05-2.85612E-05-1.80112E-09-1.29127E-19 5.85492E-19
 -1      2121 9.52449E-05-2.85865E-05-2.85678E-05-2.84998E-09-2.38363E-19-8.81083E-20
 -1      2122 9.52496E-05-2.86065E-05-2.85612E-05 2.62759E-09-8.35554E-19-1.37052E-18
 -1      2123 9.52496E-05-2.86070E-05-2.85611E-05 1.17995E-09 4.04775E-20-1.28252E-18
 -1      2124 9.52443E-05-2.85859E-05-2.85678E-05 5.32760E-10-1.28515E-18-1.35828E-18
 -1      2125 9.52498E-05-2.86057E-05-2.85616E-05 6.09636E-09-1.35613E-18-2.75121E-18
 -1      2126 9.52499E-05-2.86069E-05-2.85613E-05 4.33026E-09-1.33694E-18-1.81801E-18
 -1      2127 9.52446E-05-2.85862E-05-2.85679E-05 3.82495E-09-1.57331E-18-2.88874E-18
 -1      2128 9.52499E-05-2.86040E-05-2.85624E-05 1.05515E-08-2.70076E-19 1.17504E-19
 -1      2129 9.52503E-05-2.86062E-05-2.85618E-05 8.34304E-09-9.77939E-19-1.02086E-18
 -1      2130 9.52457E-05-2.85871E-05-2.85679E-05 7.97324E-09-2.40618E-19-1.56578E-18
 -1      2131 9.52493E-05-2.86009E-05-2.85635E-05 1.60318E-08 1.00307E-18 1.40134E-18
 -1      2132 9.52503E-05-2.86043E-05-2.85626E-05 1.34616E-08 1.28769E-19 1.66600E-18
 -1      2133 9.52468E-05-2.85881E-05-2.85680E-05 1.35119E-08 8.43554E-19 1.08748E-18
 -1      2134 9.52472E-05-2.85957E-05-2.85648E-05 2.14279E-08 5.60427E-19-2.09399E-20
 -1      2135 9.52491E-05-2.86005E-05-2.85637E-05 1.91572E-08 1.15195E-18-3.31698E-19
 -1      2136 9.52469E-05-2.85880E-05-2.85681E-05 2.01331E-08 1.45295E-18 5.98100E-19
 -1      2137 9.52426E-05-2.85886E-05-2.85661E-05 2.49594E-08-1.48208E-20-1.50278E-18
 -1      2138 9.52461E-05-2.85943E-05-2.85650E-05 2.37746E-08 3.28112E-19-4.86831E-19
 -1      2139 9.52449E-05-2.85861E-05-2.85681E-05 2.61856E-08 6.99434E-19-8.66808E-19
 -1      2140 5.55015E-05-4.00211E-05-7.30019E-06 3.75974E-05 1.91768E-18 4.00263E-18
 -1      2141 4.16068E-05-4.08241E-05-1.59096E-06 3.15547E-05 1.19770E-18 3.28691E-18
 -1      2142 1.27493E-05-3.16921E-05 7.03330E-06 4.35116E-06 8.95102E-19 1.00289E-18
 -1      2143 1.23130E-05-3.02890E-05 6.77154E-06-6.05839E-06 4.43739E-19 2.78166E-18
 -1      2144 2.45013E-05-3.34678E-05 2.96017E-06 2.41154E-05 1.79783E-18 7.35013E-19
 -1      2145 1.71668E-05-3.46953E-05 6.22135E-06 1.39210E-05 1.15747E-18 1.02491E-19
 -1      2146 1.78822E-05-2.36067E-05 2.02314E-06 1.13642E-05 2.37169E-20 8.62703E-19
 -1      2147 8.94092E-05-4.28074E-05-2.01793E-05 4.18745E-05 3.33816E-18 3.06202E-18
 -1      2148 7.05894E-05-4.42608E-05-1.25707E-05 3.66444E-05 2.90575E-18 2.88838E-18
 -1      2149 7.46849E-05-4.73639E-05-1.20547E-05 4.11361E-05 8.14846E-19 2.92531E-18
 -1      2150 1.29543E-04-4.31050E-05-3.65166E-05 3.67926E-05 3.55246E-18 2.26412E-18
 -1      2151 1.09733E-04-4.51132E-05-2.83698E-05 3.48082E-05 2.93455E-18 2.85323E-18
 -1      2152 8.73980E-05-8.51175E-06-3.38992E-05-9.24203E-06-1.00820E-18-2.80294E-18
 -1      2153 8.82670E-05-9.13939E-06-3.39937E-05-1.07998E-05-1.29836E-18-2.60558E-18
 -1      2154 9.08331E-05-1.29672E-05-3.34357E-05-1.05266E-05-1.42991E-18-2.30730E-18
 -1      2155 8.86218E-05-1.06153E-05-3.34519E-05-8.06995E-06-1.00166E-18-2.72746E-18
 -1      2156 1.78589E-04-3.21631E-05-6.16064E-05 1.23869E-05 4.19239E-18 1.81053E-18
 -1      2157 1.66492E-04-3.30629E-05-5.64728E-05 1.92879E-05 4.74158E-18 2.12351E-18
 -1      2158 1.80382E-04-2.41712E-05-6.58948E-05 3.39515E-07 4.88018E-18-7.82341E-19
 -1      2159 1.76282E-04-2.51312E-05-6.39042E-05 5.77087E-06 5.24822E-18 6.75932E-19
 -1      2160 1.82131E-04-2.66157E-05-6.54049E-05-7.75973E-06 4.11277E-18-2.28932E-18
 -1      2161 1.83547E-04-2.49296E-05-6.68412E-05-5.18593E-07 3.94294E-18-1.04534E-18
 -1      2162 1.67475E-04-3.11339E-05-5.76053E-05-1.47049E-05 4.00943E-18-2.69822E-18
 -1      2163 1.81571E-04-3.05957E-05-6.29251E-05-1.18953E-05 3.57236E-18-2.79733E-18
 -1      2164 1.63084E-04-2.04320E-05-5.99846E-05 1.29148E-06 4.06915E-18-1.38977E-18
 -1      2165 1.42949E-04-3.96315E-05-4.41698E-05-2.84509E-05 3.65008E-18-3.40211E-18
 -1      2166 1.60064E-04-3.88636E-05-5.12108E-05-2.23938E-05 3.68508E-18-2.80453E-18
 -1      2167 1.11180E-04-4.58231E-05-2.86187E-05-3.45285E-05 2.98918E-18-2.83121E-18
 -1      2168 1.31782E-04-4.32190E-05-3.73439E-05-3.67542E-05 3.40677E-18-3.41100E-18
 -1      2169 6.96008E-05-4.53712E-05-1.16019E-05-3.67598E-05 1.72795E-18-4.02097E-18
 -1      2170 9.11324E-05-4.47648E-05-2.00138E-05-4.25018E-05 2.34840E-18-2.88245E-18
 -1      2171 3.54479E-05-4.11700E-05 8.08457E-07-2.80447E-05 6.00123E-19-5.05001E-18
 -1      2172 4.88708E-05-3.89919E-05-5.04499E-06-3.62103E-05 2.01340E-18-5.19390E-18
 -1      2173 1.58536E-05-3.56614E-05 7.03957E-06-1.24919E-05-8.26704E-19-5.60609E-18
 -1      2174 2.25172E-05-3.57423E-05 4.44875E-06-2.14723E-05 8.07646E-19-5.72764E-18
 -1      2175 1.32957E-05-3.51155E-05 7.88803E-06 9.55415E-06-2.11970E-18-4.09413E-18
 -1      2176 1.16093E-05-3.43924E-05 8.35005E-06 8.83359E-08-7.48036E-19-4.94159E-18
 -1      2177 2.95511E-05-3.57393E-05 1.68371E-06 2.86055E-05-2.78716E-18-2.40769E-18
 -1      2178 2.10751E-05-3.72771E-05 5.44519E-06 2.00616E-05-1.97909E-18-3.00866E-18
 -1      2179 5.78403E-05-3.89167E-05-8.76437E-06 3.99207E-05-3.43726E-18-2.95583E-18
 -1      2180 4.34823E-05-4.14110E-05-2.44707E-06 3.26451E-05-3.16833E-18-2.14268E-18
 -1      2181 1.00328E-04-4.60232E-05-2.36314E-05 4.12724E-05-2.35475E-18-2.37423E-18
 -1      2182 7.70652E-05-4.42799E-05-1.50823E-05 3.87512E-05-2.94132E-18-3.43472E-18
 -1      2183 1.40558E-04-4.04386E-05-4.19096E-05 3.34602E-05-3.49825E-18-2.07142E-18
 -1      2184 1.22790E-04-4.53533E-05-3.33062E-05 3.17567E-05-2.82718E-18-1.58861E-18
 -1      2185 1.63635E-04-3.48795E-05-5.40704E-05 2.36270E-05-4.88357E-18 2.20229E-20
 -1      2186 1.47330E-04-3.61365E-05-4.75987E-05 2.68967E-05-4.41039E-18-1.48739E-18
 -1      2187 1.46324E-04-4.53965E-05-4.28377E-05 1.52488E-05-2.91046E-18 4.28599E-19
 -1      2188 1.77138E-04-2.77193E-05-6.29440E-05 9.61649E-06-4.53988E-18 5.31301E-19
 -1      2189 1.68564E-04-2.87067E-05-5.91411E-05 1.63866E-05-5.04048E-18 1.66442E-19
 -1      2190 1.79099E-04-2.25765E-05-6.59744E-05-4.37818E-07-4.21695E-18 1.06516E-18
 -1      2191 1.78820E-04-2.37930E-05-6.52878E-05 6.09774E-06-4.18307E-18-1.26843E-19
 -1      2192 1.78405E-04-2.68354E-05-6.37031E-05-1.13760E-05-3.96496E-18 2.60801E-18
 -1      2193 1.80079E-04-2.44294E-05-6.55735E-05-3.52160E-06-4.36434E-18 1.26229E-18
 -1      2194 1.61125E-04-3.07581E-05-5.54108E-05-1.87391E-05-3.82965E-18 3.05271E-18
 -1      2195 1.75964E-04-3.07490E-05-6.07170E-05-1.61137E-05-3.51667E-18 2.85789E-18
 -1      2196 1.61570E-04-2.21377E-05-5.85556E-05-1.66543E-06-3.58507E-18 7.70800E-19
 -1      2197 1.37832E-04-3.90873E-05-4.23702E-05-2.89160E-05-3.20433E-18 3.40084E-18
 -1      2198 1.54295E-04-3.76434E-05-4.91708E-05-2.55975E-05-3.51582E-18 2.78377E-18
 -1      2199 1.07048E-04-4.32944E-05-2.79568E-05-3.66528E-05-2.44115E-18 4.25338E-18
 -1      2200 1.26307E-04-4.16610E-05-3.57574E-05-3.76601E-05-2.99723E-18 4.26650E-18
 -1      2201 7.52149E-05-4.47658E-05-1.39194E-05-3.90571E-05-7.75882E-19 3.57236E-18
 -1      2202 9.27926E-05-4.31395E-05-2.12139E-05-4.29169E-05-1.87194E-18 3.73012E-18
 -1      2203 3.91978E-05-4.00636E-05-1.04786E-06-3.16179E-05 1.59030E-18 6.04591E-18
 -1      2204 5.34657E-05-3.82788E-05-7.04238E-06-3.95469E-05-1.75336E-19 5.15787E-18
 -1      2205 1.82246E-05-3.40619E-05 5.57979E-06-1.81204E-05 1.28283E-18 3.92049E-18
 -1      2206 2.64461E-05-3.44914E-05 2.54574E-06-2.67648E-05 8.33904E-19 5.80218E-18
 -1      2207 1.59743E-04-3.93922E-05-5.05295E-05 2.54904E-05 4.28641E-18 1.63816E-18
 -1      2208 1.41370E-04-4.04477E-05-4.33487E-05 2.76409E-05 3.93404E-18 2.14850E-18
 -1      2209 9.80384E-05-2.45746E-05-3.15525E-05-8.98438E-06-1.80572E-18 2.89421E-19
 -1      2210 1.52170E-04-4.08945E-05-4.72742E-05-2.09553E-06 2.33802E-18-1.43149E-19
 -1      2211 1.60721E-04-3.64292E-05-5.26830E-05-9.39502E-06 3.48030E-18-1.57548E-18
 -1      2212 1.54237E-04-3.19273E-05-5.29832E-05 4.59323E-06 2.61733E-18-2.19382E-19
 -1      2213 1.58831E-04-3.82813E-05-5.07215E-05 6.44717E-06 3.49782E-18 1.23243E-19
 -1      2214 9.72363E-05-2.33222E-05-3.17451E-05-9.10037E-06-1.88580E-18-4.94098E-19
 -1      2215 3.94700E-05-3.47548E-05-2.49481E-06 3.28762E-05 3.30343E-19 2.25226E-18
 -1      2216 9.52402E-05-2.85838E-05-2.85671E-05 2.57357E-08-7.50577E-19-1.62421E-18
 -1      2217 1.11582E-04-5.38761E-05-2.46888E-05 3.53705E-05 1.44885E-18 1.85585E-18
 -1      2218 1.87784E-05-2.42805E-05 1.95004E-06-1.44504E-05 4.71056E-19 3.57363E-18
 -1      2219 1.42705E-04-5.09168E-05-3.88442E-05 1.96778E-05 2.23892E-18 3.54060E-19
 -1      2220 3.93892E-05-3.43793E-05-2.64370E-06-3.50989E-05 2.19932E-18 5.69503E-18
 -1      2221 7.55610E-05-4.64869E-05-1.25741E-05-4.30635E-05 1.56320E-18 3.94691E-18
 -1      2222 1.12329E-04-5.36063E-05-2.52124E-05-3.57230E-05-1.12232E-20 3.18696E-18
 -1      2223 1.54710E-04-3.63638E-05-4.99911E-05-8.88852E-06-2.67959E-18 1.10580E-18
 -1      2224 1.62128E-04-1.48655E-05-6.19787E-05-9.64088E-08-4.46132E-18 2.13717E-19
 -1      2225 1.57119E-04-3.10363E-05-5.30951E-05 5.21622E-06-4.46450E-18 1.01813E-18
 -1      2226 1.18271E-04-5.11972E-05-2.85985E-05 3.38979E-05-1.89164E-18-1.18076E-18
 -1      2227 1.13486E-04-5.55983E-05-2.43247E-05 3.50631E-05-8.49998E-19-3.18061E-19
 -1      2228 1.32017E-04-5.62210E-05-3.30044E-05 2.31921E-05-1.01295E-18 8.07434E-19
 -1      2229 7.92635E-05-4.76296E-05-1.36024E-05 4.29101E-05-1.23497E-18-2.10541E-18
 -1      2230 4.43040E-05-3.71965E-05-3.59806E-06 3.70879E-05-1.00077E-18-1.72392E-18
 -1      2231 2.01992E-05-2.73965E-05 2.43939E-06 1.92998E-05-3.50460E-19-3.62149E-18
 -1      2232 1.60705E-05-2.61089E-05 3.62110E-06-8.27904E-06-4.81538E-19-5.80726E-18
 -1      2233 3.53218E-05-3.41811E-05-1.12124E-06-3.13014E-05-5.12243E-19-5.41233E-18
 -1      2234 7.13165E-05-4.64967E-05-1.08263E-05-4.18014E-05-1.94394E-19-3.53962E-18
 -1      2235 1.13048E-04-5.53054E-05-2.48256E-05-3.50756E-05 8.34751E-19-1.97825E-18
 -1      2236 1.61635E-04-2.23146E-05-5.86636E-05-1.29777E-06 4.90750E-18 3.68459E-20
 -1      2237 1.60474E-04-1.45810E-05-6.15690E-05-1.20851E-06 4.95006E-18 5.93982E-20
 -1      2238 1.43148E-04-5.00937E-05-3.94173E-05-1.99044E-05 2.12002E-18-1.70084E-18
 -1      2239 1.60167E-04-1.75945E-05-6.00236E-05-7.04002E-08-4.56678E-18 1.84865E-19
 -1      2240 1.38326E-04-4.90054E-05-3.78338E-05-2.23886E-05-1.71683E-18 1.51238E-18
 -1      2241 9.66120E-05-2.65886E-05-2.99876E-05 2.63610E-06 1.56428E-18 1.74112E-18
 -1      2242 9.73170E-05-2.60451E-05-3.04713E-05 4.57015E-06 1.70471E-18 1.98405E-18
 -1      2243 8.69716E-05-9.89699E-06-3.30723E-05-2.79609E-06 1.55557E-19-2.50826E-18
 -1      2244 8.73897E-05-1.02818E-05-3.30785E-05-3.75950E-06-1.60195E-19-2.61635E-18
 -1      2245 8.79732E-05-1.09485E-05-3.30581E-05-4.59867E-06-3.38454E-19-2.65041E-18
 -1      2246 8.86142E-05-1.15676E-05-3.30599E-05-5.64765E-06-6.61218E-19-2.63129E-18
 -1      2247 8.88642E-05-1.25220E-05-3.27135E-05-3.65461E-06-2.34817E-19-2.44295E-18
 -1      2248 8.62928E-05-9.18417E-06-3.30786E-05 5.37912E-07 8.67334E-19-2.42018E-18
 -1      2249 8.62955E-05-9.18688E-06-3.30779E-05-3.43303E-07 6.57255E-19-2.43792E-18
 -1      2250 8.66113E-05-9.48944E-06-3.30834E-05 2.18575E-06 1.20199E-18-2.28281E-18
 -1      2251 8.64041E-05-9.30393E-06-3.30778E-05 1.28895E-06 1.00262E-18-2.41898E-18
 -1      2252 8.74056E-05-1.09529E-05-3.27628E-05 8.20831E-07 8.92837E-19-2.28808E-18
 -1      2253 8.73667E-05-1.02466E-05-3.30847E-05 3.88017E-06 1.58307E-18-2.08281E-18
 -1      2254 8.69511E-05-9.86527E-06-3.30772E-05 2.94671E-06 1.36126E-18-2.21193E-18
 -1      2255 8.78735E-05-1.14418E-05-3.27527E-05 2.26321E-06 1.23373E-18-2.13412E-18
 -1      2256 8.86152E-05-1.15508E-05-3.30682E-05 5.72537E-06 2.00660E-18-1.53514E-18
 -1      2257 8.79575E-05-1.09168E-05-3.30655E-05 4.69641E-06 1.73327E-18-1.85344E-18
 -1      2258 8.88296E-05-1.24684E-05-3.27208E-05 3.75985E-06 1.61067E-18-1.77092E-18
 -1      2259 9.04192E-05-1.35447E-05-3.30048E-05 7.67321E-06 2.29351E-18-9.18170E-19
 -1      2260 8.94796E-05-1.25664E-05-3.30204E-05 6.57083E-06 2.11926E-18-1.29534E-18
 -1      2261 9.03081E-05-1.41203E-05-3.26420E-05 5.32009E-06 1.96265E-18-1.24610E-18
 -1      2262 9.29154E-05-1.65030E-05-3.28430E-05 9.52216E-06 2.40369E-18-1.18280E-19
 -1      2263 9.16085E-05-1.50017E-05-3.28961E-05 8.44749E-06 2.30557E-18-5.88761E-19
 -1      2264 9.23244E-05-1.65182E-05-3.24663E-05 6.80270E-06 2.16117E-18-6.33574E-19
 -1      2265 9.61636E-05-2.73775E-05-2.94513E-05-1.84989E-07 1.31048E-18 1.30250E-18
 -1      2266 9.64181E-05-2.71023E-05-2.96347E-05 9.82987E-07 1.47385E-18 1.62163E-18
 -1      2267 9.65767E-05-2.58822E-05-3.03111E-05 2.40442E-06 1.68853E-18 9.40398E-19
 -1      2268 9.69314E-05-2.51782E-05-3.07016E-05-4.58821E-06-1.36327E-18-8.35433E-19
 -1      2269 9.64886E-05-2.59481E-05-3.02389E-05-2.54303E-06-1.24250E-18-8.58167E-19
 -1      2270 9.65071E-05-2.66184E-05-2.98955E-05-1.00103E-06-1.06723E-18-7.22601E-19
 -1      2271 9.63182E-05-2.70254E-05-2.96875E-05 2.52540E-07-7.86839E-19-7.34493E-19
 -1      2272 9.63499E-05-2.52569E-05-3.04772E-05-2.22097E-06-1.15580E-18-1.14619E-18
 -1      2273 9.63046E-05-2.73622E-05-2.95084E-05 1.35439E-06-6.81581E-19-5.72643E-19
 -1      2274 9.63950E-05-2.76438E-05-2.94529E-05 2.19392E-06-5.46368E-19-7.04227E-19
 -1      2275 9.63632E-05-2.65641E-05-2.99313E-05 6.32022E-07-7.71515E-19-9.57776E-19
 -1      2276 9.64864E-05-2.78654E-05-2.93857E-05 2.99575E-06-6.14028E-19-7.60951E-19
 -1      2277 9.68149E-05-2.81206E-05-2.94286E-05 3.59154E-06-6.80991E-19-8.52522E-19
 -1      2278 9.64772E-05-2.73181E-05-2.96569E-05 2.68858E-06-6.99723E-19-9.86045E-19
 -1      2279 9.70384E-05-2.83171E-05-2.94376E-05 4.19091E-06-6.30746E-19-8.16640E-19
 -1      2280 9.75570E-05-2.85941E-05-2.95455E-05 4.62245E-06-6.40076E-19-8.91359E-19
 -1      2281 9.68227E-05-2.78670E-05-2.95679E-05 4.20548E-06-7.34843E-19-9.82462E-19
 -1      2282 9.79200E-05-2.88204E-05-2.96043E-05 5.06630E-06-6.50859E-19-9.33321E-19
 -1      2283 9.85901E-05-2.91526E-05-2.97526E-05 5.35466E-06-4.22688E-19-9.85872E-19
 -1      2284 9.74326E-05-2.83909E-05-2.96029E-05 5.33832E-06-6.35890E-19-7.21009E-19
 -1      2285 9.91013E-05-2.94536E-05-2.98405E-05 5.64346E-06-2.98173E-19-1.01800E-18
 -1      2286 9.98901E-05-2.98704E-05-3.00085E-05 5.76478E-06-3.33415E-19-1.03181E-18
 -1      2287 9.83254E-05-2.90198E-05-2.97153E-05 6.14185E-06-5.02329E-19-8.88095E-19
 -1      2288 1.00567E-04-3.02898E-05-3.01091E-05 5.85585E-06-5.24757E-19-9.81730E-19
 -1      2289 1.01439E-04-3.08149E-05-3.02772E-05 5.74787E-06-7.17858E-19-7.95395E-19
 -1      2290 9.95297E-05-2.98677E-05-2.98686E-05 6.57901E-06-4.69235E-19-9.30541E-19
 -1      2291 1.02302E-04-3.13903E-05-3.03786E-05 5.55724E-06-4.55947E-19-5.33807E-19
 -1      2292 1.03209E-04-3.20286E-05-3.05285E-05 5.12881E-06-3.82745E-20-2.18075E-19
 -1      2293 1.01087E-04-3.10381E-05-3.00364E-05 6.52600E-06-2.18916E-19-7.06568E-19
 -1      2294 1.04269E-04-3.27704E-05-3.06265E-05 4.53960E-06-1.09312E-19-1.19442E-19
 -1      2295 1.05128E-04-3.34800E-05-3.07441E-05 3.69442E-06 9.46956E-21 4.85518E-20
 -1      2296 1.03033E-04-3.25923E-05-3.02066E-05 5.78119E-06 1.41841E-20-1.52161E-19
 -1      2297 1.06344E-04-3.43285E-05-3.08469E-05 2.58545E-06 2.91854E-19 5.32324E-20
 -1      2298 1.07023E-04-3.49768E-05-3.09277E-05 1.27313E-06 5.98611E-19 4.97841E-19
 -1      2299 1.05343E-04-3.44728E-05-3.03901E-05 4.09796E-06 1.46680E-19 6.29385E-19
 -1      2300 1.08242E-04-3.57423E-05-3.10602E-05-4.09744E-07 2.82535E-19-7.20516E-20
 -1      2301 1.08549E-04-3.60688E-05-3.11149E-05-2.10520E-06-1.58660E-19-4.73663E-19
 -1      2302 1.07827E-04-3.63763E-05-3.06310E-05 1.27606E-06 1.23195E-19-4.50689E-21
 -1      2303 1.09450E-04-3.63927E-05-3.13169E-05-4.21242E-06-4.43849E-19-3.86131E-19
 -1      2304 1.09169E-04-3.60403E-05-3.13719E-05-5.96158E-06-6.38749E-19-6.23796E-19
 -1      2305 1.10008E-04-3.76282E-05-3.10093E-05-2.63674E-06-3.52194E-19-5.96104E-19
 -1      2306 1.09312E-04-3.54807E-05-3.16806E-05-7.96588E-06-6.60352E-19-2.72031E-19
 -1      2307 1.08346E-04-3.41909E-05-3.17650E-05-9.14252E-06-6.53418E-19-2.55438E-19
 -1      2308 1.11097E-04-3.72304E-05-3.16174E-05-7.01196E-06-6.23835E-19-7.91829E-20
 -1      2309 1.07453E-04-3.25483E-05-3.21726E-05-1.01066E-05-7.23593E-19-5.95615E-19
 -1      2310 1.06017E-04-3.05156E-05-3.22914E-05-9.95705E-06-7.16006E-19-3.43280E-19
 -1      2311 1.10316E-04-3.43845E-05-3.24901E-05-1.03523E-05-9.11532E-19-2.04107E-20
 -1      2312 1.04438E-04-2.82954E-05-3.27063E-05-8.94350E-06-8.61671E-19-9.35343E-19
 -1      2313 1.03144E-04-2.63823E-05-3.28220E-05-7.08550E-06-1.10353E-18-1.12349E-18
 -1      2314 1.07697E-04-2.94826E-05-3.35008E-05-1.05702E-05-1.22685E-18-7.68067E-19
 -1      2315 1.01944E-04-2.48277E-05-3.30835E-05-4.00860E-06-1.18793E-18-1.17623E-18
 -1      2316 1.01524E-04-2.41768E-05-3.31287E-05-9.65536E-07-1.48691E-18-1.28923E-18
 -1      2317 1.04721E-04-2.47111E-05-3.43369E-05-6.35251E-06-1.36649E-18-1.63745E-18
 -1      2318 1.01715E-04-2.43945E-05-3.30999E-05 2.83418E-06-1.15849E-18-1.23559E-18
 -1      2319 1.02418E-04-2.54077E-05-3.30503E-05 5.71790E-06-6.85978E-19-1.40583E-18
 -1      2320 1.03641E-04-2.30308E-05-3.46209E-05 1.08122E-06-1.32306E-18-1.13543E-18
 -1      2321 1.03847E-04-2.72375E-05-3.27544E-05 8.41485E-06-6.03994E-19-1.34745E-18
 -1      2322 1.05293E-04-2.92883E-05-3.26499E-05 9.90989E-06-3.60667E-20-1.71069E-18
 -1      2323 1.05353E-04-2.55849E-05-3.42138E-05 8.05388E-06-6.46716E-19-6.46059E-19
 -1      2324 1.06819E-04-3.14686E-05-3.22391E-05 1.04462E-05 4.53639E-19-2.38325E-18
 -1      2325 1.08246E-04-3.33927E-05-3.21448E-05 1.02624E-05 5.88986E-19-2.28448E-18
 -1      2326 1.08515E-04-3.06703E-05-3.33345E-05 1.13070E-05-2.54970E-19-1.24597E-18
 -1      2327 1.08930E-04-3.47959E-05-3.17705E-05 9.00268E-06 8.75399E-19-2.17182E-18
 -1      2328 1.09806E-04-3.58744E-05-3.17151E-05 7.66932E-06 9.40216E-19-2.04689E-18
 -1      2329 1.10847E-04-3.52261E-05-3.23616E-05 1.02653E-05 7.51883E-19-1.87307E-18
 -1      2330 1.09490E-04-3.62005E-05-3.14491E-05 5.62224E-06 8.51860E-19-2.03279E-18
 -1      2331 1.09694E-04-3.63814E-05-3.14200E-05 3.88995E-06 8.35366E-19-1.34572E-18
 -1      2332 1.11222E-04-3.74720E-05-3.15758E-05 6.60800E-06 7.52307E-19-1.81311E-18
 -1      2333 1.08725E-04-3.59231E-05-3.12551E-05 1.90635E-06 3.90932E-19-1.60023E-18
 -1      2334 1.08400E-04-3.55142E-05-3.12219E-05 3.35308E-07 6.74447E-19-1.32155E-18
 -1      2335 1.09885E-04-3.74066E-05-3.10580E-05 2.35134E-06 7.06033E-19-1.59605E-18
 -1      2336 1.07205E-04-3.47131E-05-3.11169E-05-1.15858E-06 9.42301E-19-1.56198E-18
 -1      2337 1.06567E-04-3.40599E-05-3.10557E-05-2.30675E-06 7.88864E-19-1.59923E-18
 -1      2338 1.07661E-04-3.59383E-05-3.07507E-05-1.21874E-06 4.99495E-19-1.56506E-18
 -1      2339 1.05425E-04-3.32376E-05-3.09723E-05-3.22769E-06 7.07799E-19-1.50006E-18
 -1      2340 1.04652E-04-3.25711E-05-3.08753E-05-3.91397E-06 7.21965E-19-8.88950E-19
 -1      2341 1.05280E-04-3.40181E-05-3.05581E-05-3.64715E-06 7.66654E-19-1.93011E-18
 -1      2342 1.03680E-04-3.18837E-05-3.07903E-05-4.34781E-06 3.41266E-19-9.56662E-19
 -1      2343 1.02888E-04-3.13135E-05-3.06626E-05-4.64691E-06 6.55379E-19-8.21263E-19
 -1      2344 1.03139E-04-3.22327E-05-3.04043E-05-4.98023E-06 6.70077E-19-2.20910E-18
 -1      2345 1.02107E-04-3.08019E-05-3.05677E-05-4.72934E-06 4.03506E-19-6.30311E-19
 -1      2346 1.01359E-04-3.03578E-05-3.04210E-05-4.75149E-06 2.33573E-19-6.68017E-19
 -1      2347 1.01371E-04-3.08227E-05-3.02475E-05-5.46153E-06 4.44521E-19-9.87419E-19
 -1      2348 1.00746E-04-3.00054E-05-3.03173E-05-4.61041E-06-4.16989E-19-7.52093E-19
 -1      2349 1.00074E-04-2.96785E-05-3.01645E-05-4.45957E-06-3.78479E-19-1.19060E-18
 -1      2350 9.99672E-05-2.98172E-05-3.00740E-05-5.36338E-06-2.80151E-19-4.60748E-19
 -1      2351 9.95962E-05-2.94498E-05-3.00573E-05-4.19535E-06-1.15417E-19-1.19709E-18
 -1      2352 9.90132E-05-2.92180E-05-2.99091E-05-3.95318E-06 2.23058E-19-1.24007E-18
 -1      2353 9.88707E-05-2.91531E-05-2.98864E-05-4.91727E-06-1.75362E-19-5.17878E-19
 -1      2354 9.86395E-05-2.90772E-05-2.98042E-05-3.63661E-06 5.54333E-19-1.41021E-18
 -1      2355 9.81471E-05-2.89171E-05-2.96681E-05-3.36021E-06 9.50393E-19-9.67981E-19
 -1      2356 9.80164E-05-2.87435E-05-2.96944E-05-4.29596E-06 3.74326E-19-2.00522E-20
 -1      2357 9.78543E-05-2.88352E-05-2.95703E-05-3.03717E-06 9.92136E-19-8.97811E-19
 -1      2358 9.74480E-05-2.87272E-05-2.94505E-05-2.76278E-06 6.72389E-19-1.52305E-18
 -1      2359 9.73500E-05-2.85097E-05-2.95080E-05-3.61740E-06 7.83543E-19-1.35500E-18
 -1      2360 9.72185E-05-2.86833E-05-2.93630E-05-2.46037E-06 6.27685E-19-1.50824E-18
 -1      2361 9.68902E-05-2.86121E-05-2.92612E-05-2.20858E-06 2.63126E-19-1.28040E-18
 -1      2362 9.68296E-05-2.83905E-05-2.93353E-05-2.95565E-06 7.78235E-19-2.17605E-18
 -1      2363 9.67109E-05-2.85916E-05-2.91855E-05-1.94077E-06 2.13309E-19-8.62028E-19
 -1      2364 9.64509E-05-2.85461E-05-2.91014E-05-1.72144E-06 2.65076E-19-9.96694E-19
 -1      2365 9.64237E-05-2.83423E-05-2.91815E-05-2.35260E-06 6.19298E-19-8.08442E-19
 -1      2366 9.63118E-05-2.85396E-05-2.90378E-05-1.49357E-06 2.02980E-19 3.18483E-19
 -1      2367 9.61101E-05-2.85118E-05-2.89702E-05-1.30964E-06 4.86564E-19 7.16357E-19
 -1      2368 9.61087E-05-2.83356E-05-2.90488E-05-1.82807E-06 9.76373E-19 3.37087E-19
 -1      2369 9.60032E-05-2.85131E-05-2.89181E-05-1.12171E-06 1.38972E-19 1.28063E-18
 -1      2370 9.58498E-05-2.84973E-05-2.88650E-05-9.72052E-07 4.26926E-19 1.62971E-18
 -1      2371 9.58665E-05-2.83516E-05-2.89377E-05-1.38756E-06 8.01802E-19 1.79013E-18
 -1      2372 9.57688E-05-2.85026E-05-2.88233E-05-8.21028E-07 1.32532E-19 1.07691E-18
 -1      2373 9.56548E-05-2.84947E-05-2.87826E-05-7.02296E-07-1.95821E-19 5.93924E-19
 -1      2374 9.56822E-05-2.83782E-05-2.88469E-05-1.02794E-06 6.85897E-20 1.46522E-18
 -1      2375 9.55944E-05-2.85018E-05-2.87499E-05-5.83665E-07 4.11162E-19-2.59034E-19
 -1      2376 9.55116E-05-2.84991E-05-2.87194E-05-4.91576E-07 3.93108E-19-1.82053E-19
 -1      2377 9.55441E-05-2.84084E-05-2.87743E-05-7.41374E-07-2.69028E-19 6.66947E-19
 -1      2378 9.54674E-05-2.85065E-05-2.86944E-05-4.00336E-07 2.18152E-19-4.54837E-19
 -1      2379 9.54092E-05-2.85070E-05-2.86721E-05-3.30424E-07-3.49121E-19 1.13142E-18
 -1      2380 9.54424E-05-2.84382E-05-2.87177E-05-5.17944E-07 4.69345E-19 1.69781E-19
 -1      2381 9.53776E-05-2.85142E-05-2.86534E-05-2.61694E-07-1.06408E-18 2.38162E-18
 -1      2382 9.53381E-05-2.85167E-05-2.86375E-05-2.09759E-07-7.02256E-19 2.83086E-18
 -1      2383 9.53691E-05-2.84654E-05-2.86743E-05-3.47315E-07 5.74162E-19 1.74491E-18
 -1      2384 9.53162E-05-2.85231E-05-2.86239E-05-1.59115E-07-8.40324E-19 2.36430E-18
 -1      2385 9.52908E-05-2.85267E-05-2.86130E-05-1.21456E-07 1.24079E-19 2.09028E-18
 -1      2386 9.53178E-05-2.84892E-05-2.86418E-05-2.19732E-07-8.70241E-19 3.05844E-18
 -1      2387 9.52762E-05-2.85324E-05-2.86032E-05-8.50947E-08 1.29732E-18 1.10155E-18
 -1      2388 9.52611E-05-2.85366E-05-2.85961E-05-5.86192E-08 1.69281E-18 5.01307E-19
 -1      2389 9.52831E-05-2.85095E-05-2.86180E-05-1.26544E-07-2.73130E-19 2.22971E-18
 -1      2390 9.52519E-05-2.85416E-05-2.85892E-05-3.34312E-08 6.90032E-19 2.13308E-19
 -1      2391 9.52441E-05-2.85461E-05-2.85848E-05-1.56960E-08 1.05623E-18 2.41932E-19
 -1      2392 9.52608E-05-2.85266E-05-2.86009E-05-6.04611E-08 5.29733E-19 1.33657E-18
 -1      2393 9.52389E-05-2.85507E-05-2.85801E-05 7.29574E-10 1.95415E-18-1.25146E-19
 -1      2394 9.52361E-05-2.85553E-05-2.85774E-05 1.15161E-08 1.01309E-18 1.10340E-18
 -1      2395 9.52476E-05-2.85413E-05-2.85888E-05-1.56416E-08 1.26595E-18 6.58529E-19
 -1      2396 9.52338E-05-2.85599E-05-2.85741E-05 2.09856E-08-1.04776E-18 7.60680E-19
 -1      2397 9.52341E-05-2.85646E-05-2.85726E-05 2.58837E-08-1.31875E-18 7.05720E-19
 -1      2398 9.52409E-05-2.85543E-05-2.85802E-05 1.23520E-08 2.43938E-19-4.99638E-19
 -1      2399 9.68146E-05-2.82035E-05-2.93813E-05-3.57349E-06 6.18303E-19 6.22173E-19
 -1      2400 9.63397E-05-2.79804E-05-2.92702E-05-2.95814E-06 7.95116E-19 8.93014E-19
 -1      2401 9.78373E-05-2.85997E-05-2.96509E-05-4.78954E-06 4.15337E-19 4.11972E-19
 -1      2402 9.71042E-05-2.83408E-05-2.94542E-05-4.26142E-06 5.14205E-19 6.16444E-19
 -1      2403 9.68830E-05-2.78884E-05-2.95864E-05-4.40136E-06 6.50659E-19 2.49574E-19
 -1      2404 9.92497E-05-2.90770E-05-3.00533E-05-5.87374E-06 2.09566E-19 4.37148E-19
 -1      2405 9.82951E-05-2.87595E-05-2.97911E-05-5.39519E-06 2.85000E-19 4.83692E-19
 -1      2406 9.76438E-05-2.82385E-05-2.97600E-05-5.81564E-06 3.43158E-19 6.47505E-20
 -1      2407 1.01020E-04-2.96968E-05-3.05506E-05-6.84096E-06 3.40147E-19 3.99739E-19
 -1      2408 9.98682E-05-2.92923E-05-3.02402E-05-6.42080E-06 2.42910E-19 5.08547E-19
 -1      2409 9.87258E-05-2.86566E-05-3.00430E-05-7.07577E-06 2.61102E-19 4.84124E-20
 -1      2410 1.03137E-04-3.05427E-05-3.11037E-05-7.60450E-06-1.79032E-19 8.20241E-19
 -1      2411 1.01810E-04-3.00122E-05-3.07651E-05-7.30349E-06 1.48902E-19 6.07584E-19
 -1      2412 1.00139E-04-2.92512E-05-3.03941E-05-8.18363E-06 7.85379E-20 2.12769E-19
 -1      2413 1.05599E-04-3.17274E-05-3.16659E-05-7.95318E-06 2.33837E-19 6.46703E-19
 -1      2414 1.04132E-04-3.10235E-05-3.13258E-05-7.89628E-06 1.25485E-19 6.96933E-19
 -1      2415 1.01936E-04-3.01688E-05-3.07737E-05-9.02867E-06 1.63591E-19 3.77663E-19
 -1      2416 1.08398E-04-3.33724E-05-3.21837E-05-7.52855E-06 4.18193E-19 2.69208E-19
 -1      2417 1.06860E-04-3.24575E-05-3.18767E-05-7.91143E-06 3.86154E-19 3.38544E-19
 -1      2418 1.04220E-04-3.16025E-05-3.11445E-05-9.36159E-06 5.42231E-19 4.19951E-20
 -1      2419 1.11471E-04-3.55233E-05-3.26084E-05-5.84011E-06 5.12280E-19 3.50615E-19
 -1      2420 1.09996E-04-3.44248E-05-3.23717E-05-6.90437E-06 3.86932E-19 2.07718E-19
 -1      2421 1.07136E-04-3.37514E-05-3.14823E-05-8.76745E-06 3.16183E-19-1.48956E-19
 -1      2422 1.14583E-04-3.79529E-05-3.29282E-05-2.40016E-06 1.45815E-19 4.18649E-19
 -1      2423 1.13419E-04-3.68712E-05-3.27853E-05-4.33083E-06 3.64472E-19 5.12753E-19
 -1      2424 1.10782E-04-3.66692E-05-3.18021E-05-6.67908E-06 3.01785E-19 2.33809E-19
 -1      2425 1.17136E-04-3.98481E-05-3.32132E-05 2.90827E-06 7.47705E-20 9.53551E-19
 -1      2426 1.16687E-04-3.93010E-05-3.31495E-05 2.09248E-07 2.68347E-19 8.33204E-19
 -1      2427 1.14986E-04-3.99390E-05-3.21979E-05-2.53578E-06 3.20152E-20 2.30867E-19
 -1      2428 1.18066E-04-3.96733E-05-3.36442E-05 9.13291E-06-8.22403E-19 1.33906E-18
 -1      2429 1.18792E-04-4.04526E-05-3.35867E-05 6.38032E-06-5.49493E-19 1.03233E-18
 -1      2430 1.18938E-04-4.22417E-05-3.28756E-05 3.77611E-06-5.18182E-19 1.41723E-18
 -1      2431 1.16280E-04-3.59504E-05-3.44108E-05 1.35291E-05 7.44489E-19 1.49041E-18
 -1      2432 1.18278E-04-3.85105E-05-3.42826E-05 1.21998E-05-2.26151E-19 1.58053E-18
 -1      2433 1.20898E-04-4.12034E-05-3.41174E-05 1.08970E-05-5.14877E-19 1.62221E-18
 -1      2434 1.12120E-04-2.93618E-05-3.54232E-05 1.23052E-05 1.01575E-18 1.99091E-18
 -1      2435 1.14610E-04-3.28028E-05-3.52342E-05 1.39401E-05 1.17168E-18 2.01814E-18
 -1      2436 1.19252E-04-3.53776E-05-3.59566E-05 1.51642E-05 5.82600E-19 1.93849E-18
 -1      2437 1.08704E-04-2.42907E-05-3.61903E-05 4.01240E-06 3.51333E-19 1.14462E-18
 -1      2438 1.09994E-04-2.61591E-05-3.60835E-05 8.45679E-06 1.06649E-18 1.61410E-18
 -1      2439 1.14927E-04-2.69237E-05-3.78482E-05 1.19237E-05 1.14352E-18 2.03786E-18
 -1      2440 1.09501E-04-2.53915E-05-3.61914E-05-7.04144E-06-9.87058E-20-1.04307E-19
 -1      2441 1.08518E-04-2.40258E-05-3.62445E-05-2.38691E-06-1.66971E-19 1.51645E-19
 -1      2442 1.12220E-04-2.21888E-05-3.87633E-05 8.94914E-07 6.57959E-19 9.66961E-19
 -1      2443 1.13869E-04-3.15033E-05-3.54893E-05-1.38900E-05 9.66438E-19-9.67801E-19
 -1      2444 1.11390E-04-2.81219E-05-3.56629E-05-1.15947E-05 4.50357E-19-5.57361E-19
 -1      2445 1.14282E-04-2.59715E-05-3.79906E-05-1.06722E-05 6.24171E-19-1.54891E-18
 -1      2446 1.18136E-04-3.78029E-05-3.45333E-05-1.33153E-05 2.13012E-18-1.58040E-18
 -1      2447 1.15909E-04-3.49858E-05-3.46576E-05-1.41840E-05 1.40907E-18-1.06201E-18
 -1      2448 1.18735E-04-3.38712E-05-3.63865E-05-1.56861E-05 1.39623E-18-1.82079E-18
 -1      2449 1.19337E-04-4.04457E-05-3.38253E-05-7.96885E-06 1.17029E-18-2.68404E-19
 -1      2450 1.18303E-04-3.93708E-05-3.38654E-05-1.05177E-05 2.13086E-18-7.76425E-19
 -1      2451 1.21152E-04-4.05836E-05-3.44894E-05-1.24232E-05 1.56075E-18-8.85861E-19
 -1      2452 1.17734E-04-3.97438E-05-3.34036E-05-1.73683E-06-5.46667E-19 6.73160E-21
 -1      2453 1.17913E-04-4.00966E-05-3.34322E-05-4.41986E-06 4.14543E-19-2.48005E-19
 -1      2454 1.19817E-04-4.23956E-05-3.31713E-05-5.53932E-06 6.87195E-19 5.65814E-19
 -1      2455 1.14735E-04-3.74639E-05-3.30907E-05 3.06914E-06-7.16008E-19-3.01256E-19
 -1      2456 1.15699E-04-3.84581E-05-3.31871E-05 1.08012E-06-4.20896E-19 1.69948E-19
 -1      2457 1.16185E-04-4.05143E-05-3.24581E-05 9.75834E-07-4.75248E-19-2.37568E-19
 -1      2458 1.11469E-04-3.50152E-05-3.27474E-05 5.88226E-06-8.71474E-19-1.37975E-18
 -1      2459 1.12793E-04-3.60833E-05-3.29353E-05 4.75172E-06-1.07630E-18-1.38184E-18
 -1      2460 1.12056E-04-3.73056E-05-3.20745E-05 5.40766E-06-2.82002E-19-1.18785E-18
 -1      2461 1.08464E-04-3.30067E-05-3.23276E-05 7.02643E-06-8.60150E-19-8.79046E-19
 -1      2462 1.09871E-04-3.39078E-05-3.25879E-05 6.59923E-06-7.10629E-19-1.46538E-18
 -1      2463 1.08415E-04-3.43007E-05-3.17952E-05 7.70247E-06-6.94041E-19-1.72557E-18
 -1      2464 1.05878E-04-3.15538E-05-3.18467E-05 7.05607E-06-5.59456E-19-5.58339E-19
 -1      2465 1.07219E-04-3.22382E-05-3.21446E-05 7.09124E-06-7.75416E-19-7.30301E-19
 -1      2466 1.05514E-04-3.20500E-05-3.15064E-05 8.39390E-06-1.08221E-18-2.06885E-18
 -1      2467 1.03707E-04-3.05624E-05-3.13435E-05 6.46134E-06 1.77564E-19-2.55394E-19
 -1      2468 1.04911E-04-3.10598E-05-3.16460E-05 6.75032E-06-2.30168E-19-7.70188E-20
 -1      2469 1.03275E-04-3.05599E-05-3.11774E-05 8.08574E-06-7.67397E-19-1.75779E-18
 -1      2470 1.01903E-04-2.98999E-05-3.08555E-05 5.58626E-06 1.02318E-18 8.10154E-19
 -1      2471 1.02944E-04-3.02563E-05-3.11391E-05 5.98347E-06 6.78481E-19 3.35951E-19
 -1      2472 1.01537E-04-2.96437E-05-3.08206E-05 7.24881E-06 6.54341E-20-1.43012E-18
 -1      2473 1.00418E-04-2.94570E-05-3.04092E-05 4.64256E-06 1.10244E-18 7.53736E-20
 -1      2474 1.01291E-04-2.97122E-05-3.06606E-05 5.05959E-06 1.61125E-18 8.10898E-19
 -1      2475 1.00166E-04-2.91065E-05-3.04608E-05 6.19744E-06 1.12606E-18 6.24900E-20
 -1      2476 9.92078E-05-2.91575E-05-3.00189E-05 3.74649E-06 4.16952E-19 3.61871E-19
 -1      2477 9.99227E-05-2.93409E-05-3.02329E-05 4.13605E-06 5.19624E-19 3.16390E-19
 -1      2478 9.90688E-05-2.88017E-05-3.01202E-05 5.12067E-06 7.49317E-19 7.70569E-19
 -1      2479 9.82331E-05-2.89524E-05-2.96892E-05 2.95292E-06-4.46878E-19 2.23906E-19
 -1      2480 9.88066E-05-2.90844E-05-2.98656E-05 3.29379E-06-1.55613E-19 4.02054E-19
 -1      2481 9.81864E-05-2.86336E-05-2.98133E-05 4.12058E-06-8.85001E-20 5.48960E-19
 -1      2482 9.74590E-05-2.88108E-05-2.94183E-05 2.28045E-06 2.73454E-19-4.93520E-19
 -1      2483 9.79105E-05-2.89055E-05-2.95601E-05 2.56650E-06 1.20677E-19-1.87704E-19
 -1      2484 9.74777E-05-2.85442E-05-2.95475E-05 3.24381E-06-3.74501E-19-6.02066E-19
 -1      2485 9.68534E-05-2.87131E-05-2.92009E-05 1.72792E-06 1.06350E-18-7.32087E-19
 -1      2486 9.72025E-05-2.87804E-05-2.93124E-05 1.96100E-06 7.07109E-19-2.73918E-19
 -1      2487 9.69130E-05-2.84995E-05-2.93242E-05 2.50417E-06 2.52472E-19-2.13805E-18
 -1      2488 9.63871E-05-2.86463E-05-2.90299E-05 1.28447E-06 1.71780E-18 3.02820E-19
 -1      2489 9.66523E-05-2.86934E-05-2.91160E-05 1.47014E-06 1.42116E-18 2.63096E-19
 -1      2490 9.64683E-05-2.84803E-05-2.91414E-05 1.89748E-06 6.00032E-19-1.86164E-18
 -1      2491 9.60344E-05-2.86017E-05-2.88981E-05 9.35387E-07 9.19865E-19 1.07256E-18
 -1      2492 9.62320E-05-2.86338E-05-2.89632E-05 1.08054E-06 1.92122E-18 7.77275E-19
 -1      2493 9.61232E-05-2.84755E-05-2.89950E-05 1.41070E-06 1.39653E-18 1.24823E-19
 -1      2494 9.57725E-05-2.85731E-05-2.87984E-05 6.65242E-07-1.98983E-19-3.38662E-19
 -1      2495 9.59167E-05-2.85942E-05-2.88467E-05 7.76826E-07 4.32076E-19 6.93524E-19
 -1      2496 9.58596E-05-2.84790E-05-2.88800E-05 1.02736E-06 8.66146E-19 5.73323E-19
 -1      2497 9.55822E-05-2.85559E-05-2.87245E-05 4.59522E-07-1.45303E-18-1.01298E-19
 -1      2498 9.56850E-05-2.85690E-05-2.87595E-05 5.43944E-07-7.86663E-19 6.15071E-20
 -1      2499 9.56621E-05-2.84869E-05-2.87915E-05 7.30507E-07-5.94108E-19-6.76962E-20
 -1      2500 9.54475E-05-2.85468E-05-2.86708E-05 3.05347E-07-2.04627E-18 1.36321E-18
 -1      2501 9.55186E-05-2.85542E-05-2.86956E-05 3.68199E-07-2.25545E-18 6.40485E-19
 -1      2502 9.55170E-05-2.84969E-05-2.87247E-05 5.04286E-07-2.38405E-18 4.87492E-19
 -1      2503 9.53552E-05-2.85434E-05-2.86330E-05 1.91732E-07 4.09093E-21 2.15349E-18
 -1      2504 9.54025E-05-2.85468E-05-2.86500E-05 2.37725E-07-5.06764E-19 1.62293E-18
 -1      2505 9.54132E-05-2.85077E-05-2.86752E-05 3.34640E-07-1.57502E-18 2.02753E-18
 -1      2506 9.52948E-05-2.85437E-05-2.86071E-05 1.09602E-07-1.99851E-20 1.57350E-18
 -1      2507 9.53245E-05-2.85444E-05-2.86182E-05 1.42585E-07-2.87589E-19 1.31399E-18
 -1      2508 9.53411E-05-2.85185E-05-2.86393E-05 2.09593E-07 1.72921E-19 1.93452E-18
 -1      2509 9.52577E-05-2.85467E-05-2.85900E-05 5.16691E-08 1.54142E-18 1.27474E-18
 -1      2510 9.52747E-05-2.85454E-05-2.85969E-05 7.46955E-08 1.25915E-18 1.52935E-18
 -1      2511 9.52929E-05-2.85289E-05-2.86140E-05 1.19250E-07 9.58002E-19 1.31570E-18
 -1      2512 9.52373E-05-2.85512E-05-2.85795E-05 1.22696E-08 5.19552E-19 1.95213E-18
 -1      2513 9.52454E-05-2.85488E-05-2.85834E-05 2.76748E-08 1.01355E-18 1.41504E-18
 -1      2514 9.52626E-05-2.85386E-05-2.85966E-05 5.56773E-08 8.99524E-19 2.19215E-18
 -1      2515 9.52286E-05-2.85570E-05-2.85734E-05-1.27745E-08 7.65504E-19 1.46263E-18
 -1      2516 9.52306E-05-2.85537E-05-2.85752E-05-3.32936E-09 1.07920E-19 1.66498E-18
 -1      2517 9.52451E-05-2.85478E-05-2.85850E-05 1.27095E-08 6.73588E-19 1.71333E-18
 -1      2518 9.52274E-05-2.85637E-05-2.85701E-05-2.63590E-08-5.19247E-19 3.09525E-18
 -1      2519 9.52256E-05-2.85598E-05-2.85707E-05-2.18450E-08 4.15584E-19 2.57381E-18
 -1      2520 9.52366E-05-2.85566E-05-2.85774E-05-1.41688E-08-2.21604E-19 2.34430E-18
 -1      2521 9.52307E-05-2.85715E-05-2.85683E-05-2.99773E-08 3.57286E-19 2.68311E-18
 -1      2522 9.52271E-05-2.85670E-05-2.85684E-05-2.97723E-08 2.64371E-19 2.68950E-18
 -1      2523 9.52346E-05-2.85663E-05-2.85724E-05-2.83723E-08 4.27650E-19 3.59830E-18
 -1      2524 9.52323E-05-2.85757E-05-2.85670E-05-2.83930E-08 6.09176E-19 1.96341E-18
 -1      2525 9.52445E-05-2.85729E-05-2.85736E-05-9.49978E-09 1.45821E-18-6.09563E-19
 -1      2526 9.52452E-05-2.85733E-05-2.85735E-05-1.28052E-08 1.42279E-18-7.39124E-19
 -1      2527 9.52415E-05-2.85686E-05-2.85742E-05-4.18640E-09 1.35256E-18 2.17786E-21
 -1      2528 9.52425E-05-2.85693E-05-2.85741E-05-6.65113E-09 1.27032E-18-4.20171E-20
 -1      2529 9.52401E-05-2.85534E-05-2.85799E-05-5.97657E-09 2.25055E-18-2.60981E-19
 -1      2530 9.52462E-05-2.85793E-05-2.85715E-05-2.44840E-08-1.88467E-19 2.45163E-18
 -1      2531 9.52438E-05-2.85774E-05-2.85713E-05-2.72067E-08-5.65673E-19 2.46087E-18
 -1      2532 9.52466E-05-2.85769E-05-2.85728E-05-1.67156E-08 7.41704E-19 5.27516E-19
 -1      2533 9.52462E-05-2.85765E-05-2.85726E-05-2.02487E-08 4.41932E-19 1.73567E-18
 -1      2534 9.52452E-05-2.85675E-05-2.85762E-05-2.09411E-08 1.31573E-20 2.93374E-18
 -1      2535 9.52439E-05-2.85609E-05-2.85784E-05-1.26986E-08 1.32521E-18 7.93106E-19
 -1      2536 8.93282E-05-5.06836E-05-1.66223E-05 4.15441E-05 1.98629E-19 2.07917E-18
 -1      2537 7.34869E-05-4.52711E-05-1.19571E-05 4.06722E-05-8.21622E-19 2.62083E-18
 -1      2538 9.52391E-05-2.85655E-05-2.85745E-05-8.86897E-10-6.03023E-19-5.17440E-19
 -1      2539 9.52399E-05-2.85660E-05-2.85745E-05-2.56273E-09 4.89238E-19-1.79820E-20
 -1      2540 9.52360E-05-2.85470E-05-2.85808E-05-1.79982E-09 9.02580E-19-9.02229E-19
 -1      2541 9.52384E-05-2.85644E-05-2.85746E-05 1.27342E-09-1.50249E-18-2.33990E-18
 -1      2542 9.52385E-05-2.85645E-05-2.85746E-05-6.07589E-11-1.43714E-18-1.38438E-18
 -1      2543 9.52333E-05-2.85433E-05-2.85813E-05 1.53008E-10-6.76629E-19-1.38589E-18
 -1      2544 9.52395E-05-2.85656E-05-2.85745E-05 3.62747E-09-1.24287E-18-2.64266E-18
 -1      2545 9.52389E-05-2.85652E-05-2.85745E-05 2.04298E-09-1.06025E-18-2.23861E-18
 -1      2546 9.52332E-05-2.85431E-05-2.85813E-05 1.17746E-09-3.53847E-19-2.45730E-18
 -1      2547 9.52419E-05-2.85686E-05-2.85742E-05 7.30804E-09 7.47586E-19-1.94515E-20
 -1      2548 9.52410E-05-2.85681E-05-2.85742E-05 5.06716E-09-3.14816E-19-1.95689E-18
 -1      2549 9.52354E-05-2.85465E-05-2.85808E-05 2.87939E-09 1.56878E-19-1.06795E-18
 -1      2550 9.52444E-05-2.85724E-05-2.85736E-05 1.30166E-08 3.76788E-19 9.45110E-19
 -1      2551 9.52438E-05-2.85721E-05-2.85737E-05 9.92385E-09 8.32583E-19 1.13615E-19
 -1      2552 9.52393E-05-2.85526E-05-2.85799E-05 6.60016E-09 6.56832E-20-2.43746E-19
 -1      2553 9.52456E-05-2.85758E-05-2.85727E-05 2.00677E-08 9.94607E-19 2.22524E-19
 -1      2554 9.52459E-05-2.85761E-05-2.85729E-05 1.65798E-08 4.73303E-19 1.74296E-18
 -1      2555 9.52429E-05-2.85599E-05-2.85784E-05 1.28202E-08 8.64677E-19 7.59110E-19
 -1      2556 9.52433E-05-2.85769E-05-2.85713E-05 2.64694E-08-4.70748E-19-1.15898E-18
 -1      2557 9.52455E-05-2.85784E-05-2.85716E-05 2.39543E-08 2.86037E-19-1.08689E-18
 -1      2558 9.52445E-05-2.85667E-05-2.85763E-05 2.05107E-08 1.09069E-19-5.84402E-19
 -1      2559 9.52375E-05-2.85787E-05-2.85679E-05 2.92975E-08 1.94771E-19-7.47648E-19
 -1      2560 1.24967E-04-5.82671E-05-2.88148E-05 2.84692E-05 1.00310E-18 5.77782E-19
 -1      2561 1.06803E-04-5.61257E-05-2.17228E-05 3.45244E-05 6.52004E-19 1.58999E-18
 -1      2562 9.62349E-05-2.78294E-05-2.92911E-05-2.11518E-06 8.81589E-19 9.59624E-19
 -1      2563 9.60785E-05-2.76127E-05-2.92972E-05-1.31849E-06 1.00807E-18 1.18277E-18
 -1      2564 9.64595E-05-2.75064E-05-2.95704E-05-2.72878E-06 9.92686E-19 4.88584E-19
 -1      2565 2.65218E-05-1.93588E-05-2.65915E-06 1.91137E-05-1.57760E-20 7.30778E-19
 -1      2566 2.17922E-05-1.60911E-05-1.94171E-06 6.43510E-06-6.95043E-19 1.50221E-18
 -1      2567 2.08324E-05-1.66487E-05-1.44405E-06-8.65868E-06-4.08455E-19 1.86305E-18
 -1      2568 2.71773E-05-2.06805E-05-2.46557E-06-2.33585E-05 3.60624E-19 3.49655E-18
 -1      2569 9.57931E-05-2.01323E-05-3.24701E-05-1.03365E-05-1.79146E-18-1.19635E-18
 -1      2570 9.63777E-05-2.34870E-05-3.12641E-05-6.48762E-06-1.58615E-18-1.01079E-18
 -1      2571 9.58286E-05-2.24869E-05-3.14071E-05-5.93273E-06-1.48228E-18-1.33301E-18
 -1      2572 9.38091E-05-1.75756E-05-3.26725E-05-9.87019E-06-1.66857E-18-1.68557E-18
 -1      2573 1.46068E-04-5.23550E-05-4.05308E-05 8.97942E-06 1.69571E-18-1.35102E-18
 -1      2574 1.37024E-04-5.63653E-05-3.46404E-05 1.58678E-05 1.10601E-18-6.47133E-19
 -1      2575 1.46114E-04-1.24842E-05-5.75919E-05 2.74358E-06-4.29827E-18-3.69095E-19
 -1      2576 1.44508E-04-1.02573E-05-5.79733E-05 6.06701E-07-4.40881E-18-2.80778E-19
 -1      2577 1.53354E-04-3.55027E-05-5.08937E-05-3.37242E-06 3.42032E-18-1.02809E-18
 -1      2578 1.49053E-04-4.28152E-05-4.57662E-05-1.73900E-07 2.60039E-18-1.30782E-18
 -1      2579 8.64146E-05-9.32033E-06-3.30756E-05-1.10024E-06 5.56239E-19-2.47526E-18
 -1      2580 8.66241E-05-9.50793E-06-3.30799E-05-2.00482E-06 3.42302E-19-2.50735E-18
 -1      2581 8.79032E-05-1.14839E-05-3.27484E-05-2.10079E-06 2.49202E-19-2.32403E-18
 -1      2582 8.74160E-05-1.09675E-05-3.27614E-05-6.20610E-07 5.70610E-19-2.33682E-18
 -1      2583 1.48047E-04-1.29405E-05-5.81492E-05 1.98455E-06 4.38890E-18-2.56704E-19
 -1      2584 1.44506E-04-1.21375E-05-5.72471E-05-1.96951E-06 5.01444E-18-4.03188E-19
 -1      2585 1.38340E-04-5.55107E-05-3.54937E-05-1.57871E-05 1.06610E-18-4.83444E-19
 -1      2586 1.47272E-04-5.11488E-05-4.14142E-05-1.03401E-05 1.64631E-18-4.88738E-19
 -1      2587 1.49869E-04-2.22390E-05-5.49403E-05 7.12045E-06 3.30745E-18-1.28325E-19
 -1      2588 1.48774E-04-1.69830E-05-5.69622E-05 5.23894E-06 3.67019E-18-9.40207E-20
 -1      2589 1.46120E-04-1.29520E-05-5.74979E-05-3.25374E-06-3.90906E-18 1.40449E-19
 -1      2590 1.46342E-04-1.78186E-05-5.54203E-05-4.58641E-06-4.15745E-18 5.57348E-19
 -1      2591 1.45701E-04-1.74388E-05-5.55654E-05-8.16279E-06 4.41008E-18-1.88719E-18
 -1      2592 1.50783E-04-2.55570E-05-5.37898E-05-6.82091E-06 3.99757E-18-1.18627E-18
 -1      2593 1.43842E-04-3.00494E-05-4.88683E-05-1.12376E-05 3.19226E-18-2.19064E-18
 -1      2594 1.08315E-04-5.66643E-05-2.19824E-05-3.49460E-05-5.56077E-19-1.17055E-18
 -1      2595 1.26729E-04-5.83731E-05-2.94176E-05-2.83194E-05 3.33519E-19-8.97220E-19
 -1      2596 6.57367E-05-4.24081E-05-9.89902E-06-4.03285E-05-1.48485E-18-3.15816E-18
 -1      2597 8.52871E-05-4.91216E-05-1.55726E-05-4.16979E-05-1.43191E-18-1.67210E-18
 -1      2598 3.46887E-05-2.71572E-05-3.01510E-06-2.90464E-05-1.15853E-18-4.74550E-18
 -1      2599 4.91058E-05-3.41859E-05-6.29106E-06-3.82658E-05-1.29384E-18-4.08609E-18
 -1      2600 6.46224E-05-3.75445E-05-1.11131E-05-3.89745E-05-2.32574E-18-2.97721E-18
 -1      2601 1.86415E-05-1.82241E-05 1.14814E-07-5.56693E-07-1.57641E-19-4.98055E-18
 -1      2602 2.27507E-05-1.98652E-05-9.87474E-07-1.61701E-05-2.47969E-19-5.71239E-18
 -1      2603 2.79664E-05-2.31605E-05-1.91358E-06 2.60650E-05 2.44157E-19-2.34226E-18
 -1      2604 2.01722E-05-2.01067E-05 1.63450E-07 1.27876E-05 5.01232E-19-4.16613E-18
 -1      2605 5.89960E-05-3.87564E-05-8.61234E-06 4.26153E-05-2.78674E-19-1.13047E-18
 -1      2606 4.37222E-05-3.15904E-05-4.93805E-06 3.61089E-05 4.42575E-20-1.23540E-18
 -1      2607 9.19984E-05-5.07730E-05-1.77560E-05 4.19826E-05-6.77626E-20-1.50224E-18
 -1      2608 7.47268E-05-4.58239E-05-1.23165E-05 4.24022E-05-1.50984E-19-1.61169E-18
 -1      2609 7.37172E-05-4.23864E-05-1.29889E-05 4.19904E-05 5.08432E-19-1.09670E-18
 -1      2610 1.46414E-04-4.44741E-05-4.39083E-05 5.46374E-06-2.92203E-18 1.96766E-18
 -1      2611 1.40442E-04-4.99829E-05-3.90182E-05 9.92918E-06-1.47098E-18 1.15959E-18
 -1      2612 1.33111E-04-5.43431E-05-3.38550E-05-1.93286E-05-9.31736E-21 5.59254E-19
 -1      2613 1.42015E-04-5.04106E-05-3.95987E-05-1.24656E-05-1.05281E-18-4.46386E-19
 -1      2614 1.48392E-04-2.70857E-05-5.24323E-05-3.91663E-06-4.64322E-18 1.46071E-18
 -1      2615 1.46785E-04-3.53893E-05-4.80594E-05-6.16388E-07-3.81906E-18 1.61529E-18
 -1      2616 1.42509E-04-4.03050E-05-4.39630E-05-4.77881E-06-2.65291E-18 2.29715E-18
 -1      2617 1.48422E-04-2.35659E-05-5.38205E-05 4.05205E-06-3.12301E-18-1.06091E-19
 -1      2618 1.48817E-04-1.81925E-05-5.64136E-05 4.27778E-06-3.99651E-18-6.50839E-19
 -1      2619 1.45455E-04-4.08142E-05-4.50374E-05-3.09029E-06-1.85977E-18 5.30243E-19
 -1      2620 1.50074E-04-3.29804E-05-5.05039E-05 9.52570E-07-2.19498E-18 7.32683E-19
 -1      2621 1.10183E-04-5.54599E-05-2.33765E-05-3.46154E-05 1.09712E-18 2.25565E-18
 -1      2622 1.24307E-04-5.61686E-05-2.92068E-05-2.91043E-05 3.40084E-19 1.97232E-18
 -1      2623 1.31485E-04-5.78711E-05-3.14523E-05-1.86161E-05 1.02777E-18-2.23405E-19
 -1      2624 6.94971E-05-4.29826E-05-1.12819E-05-4.19241E-05 2.88499E-18 3.76040E-18
 -1      2625 8.96844E-05-4.94108E-05-1.72223E-05-4.18016E-05 1.85966E-18 2.55338E-18
 -1      2626 4.02626E-05-2.85611E-05-4.73840E-06-3.38456E-05 1.79444E-18 4.82089E-18
 -1      2627 5.44145E-05-3.54804E-05-7.94757E-06-4.11946E-05 2.68806E-18 5.18935E-18
 -1      2628 7.00629E-05-3.93288E-05-1.27125E-05-4.07685E-05 2.77022E-18 4.02436E-18
 -1      2629 9.73797E-05-2.53151E-05-3.09018E-05 6.30210E-06 1.90037E-18 2.15073E-18
 -1      2630 9.82934E-05-2.39873E-05-3.18639E-05 9.46936E-06 2.03476E-18 2.45322E-18
 -1      2631 9.67100E-05-2.14895E-05-3.22929E-05 1.05495E-05 2.25497E-18 1.69280E-18
 -1      2632 9.68636E-05-2.42654E-05-3.11484E-05 6.08756E-06 1.99069E-18 1.26143E-18
 -1      2633 5.39811E-05-3.56153E-05-7.73850E-06 3.93291E-05 1.43996E-20 2.30033E-18
 -1      2634 3.64299E-05-2.68607E-05-3.83330E-06 2.95958E-05 7.32895E-19 9.39360E-19
 -1      2635 4.00003E-05-2.18095E-05-7.26728E-06 2.49176E-05 5.46336E-20 1.49967E-18
 -1      2636 1.30371E-04-1.21549E-05-5.13443E-05-3.85370E-06 3.42519E-18 1.83700E-20
 -1      2637 1.39658E-04-1.50432E-05-5.39405E-05-6.64714E-06 4.01536E-18-9.84888E-19
 -1      2638 1.32453E-04-1.68099E-05-4.98690E-05-1.08989E-05 3.13995E-18-1.56029E-18
 -1      2639 9.03170E-05-1.41573E-05-3.26332E-05-5.25406E-06-7.30463E-19-2.43077E-18
 -1      2640 8.94612E-05-1.25755E-05-3.30113E-05-6.51450E-06-8.95228E-19-2.58525E-18
 -1      2641 9.03966E-05-1.35629E-05-3.29920E-05-7.63948E-06-1.10230E-18-2.55355E-18
 -1      2642 9.63865E-05-2.69452E-05-2.97783E-05-5.80524E-07 1.40341E-18 6.75610E-19
 -1      2643 9.49723E-05-1.91655E-05-3.25334E-05 1.01517E-05 2.28086E-18 7.78185E-19
 -1      2644 6.95890E-05-3.99852E-05-1.22691E-05 3.91469E-05-7.30142E-19 2.25279E-18
 -1      2645 1.47726E-04-4.73693E-05-4.31225E-05 1.57017E-06 1.57066E-18 4.44481E-19
 -1      2646 1.45681E-04-4.91565E-05-4.13868E-05-2.21840E-06 1.49541E-18-1.75675E-18
 -1      2647 1.45501E-04-2.73351E-05-5.08067E-05 9.00780E-06 2.59129E-18 8.72020E-19
 -1      2648 4.13607E-05-2.30881E-05-7.26883E-06-2.87551E-05 7.82447E-19 4.00710E-18
 -1      2649 1.05655E-04-5.57751E-05-2.10737E-05 3.50066E-05-1.13291E-19 1.52837E-18
 -1      2650 1.03865E-04-5.45103E-05-2.09770E-05-3.68052E-05 1.58374E-18 2.07062E-18
 -1      2651 1.14543E-04-5.74512E-05-2.47665E-05-2.98924E-05 1.88380E-18 9.61991E-19
 -1      2652 9.64576E-05-5.02077E-05-1.93167E-05-3.76830E-05 2.43903E-18 2.35025E-18
 -1      2653 9.52362E-05-2.85758E-05-2.85688E-05-3.08353E-08 7.37637E-19 2.74752E-18
 -1      2654 9.52399E-05-2.85776E-05-2.85695E-05-3.02513E-08 6.65573E-20 2.31351E-18
 -1      2655 9.52351E-05-2.85720E-05-2.85699E-05 2.92170E-08-4.21161E-19-1.93579E-19
 -1      2656 9.52412E-05-2.85769E-05-2.85705E-05 2.93836E-08-9.18418E-19-1.10756E-18
 -1      2657 9.52417E-05-2.85690E-05-2.85739E-05 2.66153E-08-1.27340E-18-1.13312E-18
 -1      2658 9.52334E-05-2.85677E-05-2.85708E-05 2.89802E-08-1.20569E-18 1.28480E-18
 -1      2659 1.33237E-04-6.01579E-05-3.11563E-05 1.73742E-05 4.79527E-19-8.85573E-19
 -1      2660 1.42329E-04-4.71723E-05-4.08276E-05-1.47135E-06-7.17887E-19-1.89524E-19
 -1      2661 1.39549E-04-2.18512E-05-5.06114E-05-8.70916E-06-3.83092E-18 1.11332E-18
 -1      2662 9.53478E-05-2.05199E-05-3.20263E-05 8.04678E-06 2.11071E-18 5.03336E-19
 -1      2663 1.06716E-04-5.55051E-05-2.17338E-05 3.67021E-05-3.81165E-20-3.81165E-19
 -1      2664 1.01495E-04-5.34047E-05-2.01580E-05 3.76979E-05 4.60786E-19-3.83627E-19
 -1      2665 1.18649E-04-5.86022E-05-2.60583E-05 2.88749E-05 1.51407E-20 1.05329E-18
 -1      2666 1.36950E-04-1.33195E-05-5.31620E-05 6.48176E-06-3.78454E-18-1.37622E-18
 -1      2667 1.35189E-04-9.91744E-06-5.39112E-05-2.25806E-06-3.97597E-18-4.01520E-19
 -1      2668 1.38488E-04-5.34084E-05-3.67354E-05 4.41532E-06-7.24372E-19 2.20102E-18
 -1      2669 1.37685E-04-5.51594E-05-3.53891E-05 1.44535E-05-6.11452E-19 8.05105E-19
 -1      2670 1.31032E-04-5.77574E-05-3.13021E-05 1.82954E-05-4.03082E-19 1.47288E-18
 -1      2671 4.22871E-05-2.60858E-05-6.46645E-06 3.14087E-05 6.92555E-19-1.99222E-18
 -1      2672 3.56839E-05-2.13976E-05-5.62233E-06-2.27408E-05-1.18235E-18-4.78807E-18
 -1      2673 1.34437E-04-5.99738E-05-3.19480E-05-1.72908E-05-2.70627E-19-2.66392E-19
 -1      2674 9.24975E-05-1.61290E-05-3.27615E-05-8.85769E-06-1.44917E-18-2.09417E-18
 -1      2675 2.87665E-05-1.42700E-05-5.58515E-06-1.54404E-06-6.28750E-19 1.77771E-18
 -1      2676 1.37556E-04-1.37384E-05-5.34144E-05 5.70631E-06 3.80741E-18 4.03770E-19
 -1      2677 1.01420E-04-5.45914E-05-1.98557E-05-3.71126E-05-1.54880E-18-1.39165E-18
 -1      2678 1.14306E-04-5.81744E-05-2.42210E-05-2.96669E-05-2.02949E-18-4.82451E-19
 -1      2679 9.47894E-05-5.01926E-05-1.85983E-05-3.76412E-05-2.24940E-18-1.46764E-18
 -1      2680 2.60523E-05-1.58457E-05-3.81965E-06 5.69323E-06 5.86451E-19-4.34824E-18
 -1      2681 1.42261E-04-2.81861E-05-4.89972E-05 8.09876E-06-2.27005E-18-8.50633E-19
 -1      2682 9.52405E-05-2.85707E-05-2.85727E-05-2.89031E-08 7.71849E-19 2.18657E-18
 -1      2683 9.52390E-05-2.85653E-05-2.85747E-05 2.56395E-08-1.53372E-18-7.30839E-19
 -1      2684 8.88657E-05-1.32457E-05-3.24290E-05 2.22540E-06 1.30750E-18-1.87289E-18
 -1      2685 8.85101E-05-1.28696E-05-3.24400E-05 1.54761E-06 1.12127E-18-2.00706E-18
 -1      2686 8.82601E-05-1.25857E-05-3.24518E-05 1.03734E-06 9.56385E-19-2.15756E-18
 -1      2687 8.81457E-05-1.24655E-05-3.24542E-05 3.63088E-07 8.06610E-19-2.12791E-18
 -1      2688 8.92433E-05-1.42157E-05-3.21362E-05 1.04286E-06 9.62697E-19-1.90872E-18
 -1      2689 9.15930E-05-1.64378E-05-3.22422E-05 4.67476E-06 1.94464E-18-1.03795E-18
 -1      2690 9.07420E-05-1.54261E-05-3.23062E-05 3.96874E-06 1.78783E-18-1.23276E-18
 -1      2691 9.36966E-05-1.91753E-05-3.19753E-05 5.67526E-06 1.99974E-18-5.30577E-19
 -1      2692 9.25822E-05-1.76950E-05-3.21174E-05 5.12420E-06 1.95126E-18-7.83962E-19
 -1      2693 9.29556E-05-1.87072E-05-3.17962E-05 3.69624E-06 1.76951E-18-8.42983E-19
 -1      2694 9.62377E-05-2.51729E-05-3.04590E-05 1.74895E-06 1.65834E-18 3.67777E-19
 -1      2695 9.63970E-05-2.43650E-05-3.08388E-05 3.61006E-06 1.73981E-18 4.59156E-19
 -1      2696 9.62930E-05-2.63405E-05-2.99745E-05-1.04820E-06 1.30949E-18 4.09880E-19
 -1      2697 9.63279E-05-2.58723E-05-3.01602E-05 2.68566E-07 1.49431E-18 4.63397E-19
 -1      2698 9.59071E-05-2.44550E-05-3.06244E-05 1.26354E-06 1.58530E-18-5.33503E-20
 -1      2699 9.61611E-05-2.54670E-05-3.02695E-05-1.42374E-07-7.15881E-19-1.27470E-18
 -1      2700 9.61608E-05-2.60231E-05-3.00631E-05 1.12179E-06-6.09880E-19-1.23585E-18
 -1      2701 9.62548E-05-2.64948E-05-2.98756E-05 2.19369E-06-6.50094E-19-1.20987E-18
 -1      2702 9.63589E-05-2.68721E-05-2.97783E-05 3.11698E-06-6.37353E-19-1.31903E-18
 -1      2703 9.58734E-05-2.54909E-05-3.01722E-05 1.57178E-06-7.00907E-19-1.40491E-18
 -1      2704 9.64401E-05-2.71770E-05-2.96695E-05 3.95420E-06-5.33213E-19-1.18660E-18
 -1      2705 9.66712E-05-2.74851E-05-2.96465E-05 4.64823E-06-5.27781E-19-1.01267E-18
 -1      2706 9.60600E-05-2.64252E-05-2.98538E-05 3.56586E-06-5.09968E-19-1.32022E-18
 -1      2707 9.68133E-05-2.77422E-05-2.95912E-05 5.31362E-06-6.11742E-19-8.03469E-19
 -1      2708 9.71827E-05-2.80653E-05-2.96162E-05 5.83170E-06-6.16550E-19-8.42554E-19
 -1      2709 9.62936E-05-2.71038E-05-2.96639E-05 5.14590E-06-4.56652E-19-1.14916E-18
 -1      2710 9.74394E-05-2.83638E-05-2.95940E-05 6.35236E-06-4.86870E-19-7.62866E-19
 -1      2711 9.79590E-05-2.87725E-05-2.96469E-05 6.70222E-06-4.05031E-19-8.18791E-19
 -1      2712 9.66990E-05-2.77605E-05-2.95574E-05 6.40054E-06-5.79119E-19-9.13560E-19
 -1      2713 9.83915E-05-2.91967E-05-2.96427E-05 7.06926E-06-3.51925E-19-6.63745E-19
 -1      2714 9.90808E-05-2.97595E-05-2.97081E-05 7.21548E-06-2.68877E-19-6.26190E-19
 -1      2715 9.73882E-05-2.85919E-05-2.94995E-05 7.35674E-06-2.23199E-19-5.58605E-19
 -1      2716 9.97674E-05-3.03939E-05-2.97133E-05 7.37722E-06-1.33098E-19-4.44054E-19
 -1      2717 1.00650E-04-3.11713E-05-2.97820E-05 7.24318E-06 6.04247E-20-1.90631E-19
 -1      2718 9.84996E-05-2.97921E-05-2.94671E-05 7.96509E-06-1.09385E-19 1.93916E-20
 -1      2719 1.01683E-04-3.20873E-05-2.97992E-05 7.09776E-06 1.58007E-19-1.15361E-19
 -1      2720 1.02768E-04-3.31039E-05-2.98720E-05 6.57180E-06 1.71484E-19 1.01252E-19
 -1      2721 1.00205E-04-3.15436E-05-2.94558E-05 8.08544E-06 1.56990E-19 1.30274E-19
 -1      2722 1.04223E-04-3.43176E-05-2.99214E-05 5.96299E-06-6.27470E-20 2.23570E-19
 -1      2723 1.05468E-04-3.55038E-05-3.00147E-05 4.92102E-06 6.70637E-20 5.84138E-20
 -1      2724 1.02679E-04-3.39572E-05-2.94918E-05 7.47044E-06 8.73784E-20-5.60493E-20
 -1      2725 1.07335E-04-3.68953E-05-3.01428E-05 3.65390E-06-8.15228E-20 1.06699E-19
 -1      2726 1.08575E-04-3.79941E-05-3.02938E-05 2.01692E-06-1.40937E-19-2.39887E-19
 -1      2727 1.06007E-04-3.69339E-05-2.96487E-05 5.76535E-06-1.26574E-19-3.65160E-19
 -1      2728 1.10624E-04-3.91858E-05-3.05772E-05-5.59354E-08 1.11775E-20-3.64002E-19
 -1      2729 1.11521E-04-3.96700E-05-3.08418E-05-2.19437E-06-1.99489E-19-1.57903E-19
 -1      2730 1.09979E-04-3.99184E-05-3.00631E-05 2.57870E-06-1.15855E-19 2.44005E-19
 -1      2731 1.13170E-04-3.99540E-05-3.13742E-05-4.93729E-06-4.03302E-19-2.71481E-20
 -1      2732 1.13264E-04-3.91066E-05-3.18065E-05-7.11380E-06-6.38175E-19 5.59141E-20
 -1      2733 1.13801E-04-4.16441E-05-3.09278E-05-2.22784E-06-2.73445E-19 2.45779E-19
 -1      2734 1.13662E-04-3.76636E-05-3.26422E-05-9.72007E-06-1.12816E-18-1.55037E-19
 -1      2735 1.12674E-04-3.50654E-05-3.32352E-05-1.09821E-05-1.10455E-18-2.74191E-19
 -1      2736 1.15994E-04-4.02355E-05-3.24274E-05-7.88424E-06-9.77525E-19-3.69343E-19
 -1      2737 1.11329E-04-3.17286E-05-3.42657E-05-1.18555E-05-1.19795E-18-2.31809E-19
 -1      2738 1.09632E-04-2.80950E-05-3.48833E-05-1.10508E-05-1.80886E-18-6.21087E-19
 -1      2739 1.15077E-04-3.44195E-05-3.45266E-05-1.19884E-05-1.39050E-18-2.53144E-19
 -1      2740 1.07494E-04-2.44003E-05-3.57810E-05-8.81073E-06-1.81736E-18-3.52002E-19
 -1      2741 1.06137E-04-2.17246E-05-3.61853E-05-5.70077E-06-1.48863E-18-5.63224E-19
 -1      2742 1.11448E-04-2.58126E-05-3.67220E-05-1.10195E-05-1.51307E-18 5.45474E-19
 -1      2743 1.05299E-04-2.04199E-05-3.64823E-05-7.39594E-07-1.31370E-18-6.68898E-19
 -1      2744 1.05425E-04-2.07787E-05-3.64332E-05 3.12406E-06-9.34410E-19-4.57178E-19
 -1      2745 1.08109E-04-1.95710E-05-3.79836E-05-3.56420E-06-1.50605E-18 6.05093E-19
 -1      2746 1.06842E-04-2.28073E-05-3.59800E-05 7.79401E-06-5.91904E-19-1.01690E-18
 -1      2747 1.08410E-04-2.59341E-05-3.55157E-05 1.04383E-05-6.62687E-19-1.18988E-18
 -1      2748 1.08476E-04-2.02709E-05-3.78280E-05 6.31452E-06-9.86026E-19-4.49655E-19
 -1      2749 1.10502E-04-2.97387E-05-3.45632E-05 1.19234E-05-6.47279E-19-6.43791E-19
 -1      2750 1.12184E-04-3.32869E-05-3.39459E-05 1.22245E-05 4.30101E-20-8.96206E-19
 -1      2751 1.12417E-04-2.77806E-05-3.62800E-05 1.22550E-05-3.20483E-19-1.35055E-18
 -1      2752 1.13118E-04-3.62310E-05-3.29474E-05 1.07886E-05 3.22250E-19-1.06224E-18
 -1      2753 1.13885E-04-3.84117E-05-3.23989E-05 9.27230E-06 4.46185E-19-1.29514E-18
 -1      2754 1.15625E-04-3.60904E-05-3.40684E-05 1.18753E-05-8.51599E-20-9.30294E-19
 -1      2755 1.13151E-04-3.94038E-05-3.16412E-05 6.57573E-06 5.73344E-19-1.11693E-18
 -1      2756 1.12868E-04-3.98848E-05-3.12641E-05 4.39070E-06 7.80115E-19-1.22480E-18
 -1      2757 1.15733E-04-4.07447E-05-3.21031E-05 7.19499E-06 5.38745E-19-1.00245E-18
 -1      2758 1.11063E-04-3.93058E-05-3.08048E-05 1.81803E-06 3.49447E-19-1.87169E-18
 -1      2759 1.10087E-04-3.86239E-05-3.05856E-05-1.72712E-07 4.49442E-19-1.93792E-18
 -1      2760 1.13041E-04-4.12681E-05-3.07745E-05 1.68735E-06 2.90149E-19-1.55729E-18
 -1      2761 1.08049E-04-3.73292E-05-3.03517E-05-1.99575E-06 5.96623E-19-1.97803E-18
 -1      2762 1.06828E-04-3.61835E-05-3.02315E-05-3.43549E-06 3.68918E-19-1.74932E-18
 -1      2763 1.09084E-04-3.90812E-05-3.00421E-05-2.65084E-06 3.48608E-19-2.26732E-18
 -1      2764 1.05048E-04-3.48087E-05-3.01299E-05-4.47448E-06 5.92818E-19-1.73712E-18
 -1      2765 1.03876E-04-3.36636E-05-3.00551E-05-5.33038E-06 1.14233E-18-1.95626E-18
 -1      2766 1.05224E-04-3.60086E-05-2.97070E-05-5.35047E-06 4.60357E-19-1.07920E-18
 -1      2767 1.02518E-04-3.25195E-05-3.00134E-05-5.76396E-06 9.69296E-19-1.89772E-18
 -1      2768 1.01522E-04-3.15838E-05-2.99489E-05-6.14167E-06 5.44299E-19-1.79313E-18
 -1      2769 1.02087E-04-3.31427E-05-2.95829E-05-6.66165E-06 9.34804E-19-1.05081E-18
 -1      2770 1.00568E-04-3.07554E-05-2.99240E-05-6.17090E-06 8.74369E-19-1.75982E-18
 -1      2771 9.97691E-05-3.00754E-05-2.98539E-05-6.20861E-06 8.85736E-19-1.44084E-18
 -1      2772 9.97930E-05-3.09195E-05-2.95420E-05-7.00053E-06 8.27706E-19-1.98489E-18
 -1      2773 9.91308E-05-2.95356E-05-2.98251E-05-5.99453E-06 2.95418E-19-1.23110E-18
 -1      2774 9.85068E-05-2.90818E-05-2.97459E-05-5.81687E-06-1.52972E-19-5.08393E-19
 -1      2775 9.82187E-05-2.93889E-05-2.95147E-05-6.72999E-06 8.15645E-19-2.44518E-18
 -1      2776 9.80926E-05-2.87648E-05-2.97070E-05-5.47389E-06-4.15865E-20-4.36367E-19
 -1      2777 9.76084E-05-2.84844E-05-2.96216E-05-5.17778E-06-3.45148E-20-1.19659E-19
 -1      2778 9.71805E-05-2.84380E-05-2.94712E-05-6.11536E-06-7.39779E-21-8.92368E-19
 -1      2779 9.73436E-05-2.83229E-05-2.95735E-05-4.78236E-06 7.84004E-20-2.57897E-19
 -1      2780 9.69673E-05-2.81644E-05-2.94867E-05-4.43656E-06 4.87263E-19-5.39035E-19
 -1      2781 9.65112E-05-2.79138E-05-2.94051E-05-5.33727E-06-1.82104E-19-8.38920E-19
 -1      2782 9.67983E-05-2.81031E-05-2.94333E-05-4.03736E-06-2.29184E-19-5.85608E-19
 -1      2783 9.65050E-05-2.80250E-05-2.93498E-05-3.68702E-06 2.40569E-20-1.30569E-18
 -1      2784 9.60835E-05-2.76778E-05-2.93207E-05-4.51357E-06-5.15443E-19-1.70419E-18
 -1      2785 9.63960E-05-2.80236E-05-2.92950E-05-3.31299E-06 7.73705E-19-2.08853E-18
 -1      2786 9.61673E-05-2.79956E-05-2.92183E-05-2.98525E-06 6.36047E-19-2.41501E-18
 -1      2787 9.58095E-05-2.76220E-05-2.92259E-05-3.71748E-06-3.38525E-19-1.96720E-18
 -1      2788 9.60956E-05-2.80265E-05-2.91655E-05-2.65179E-06 9.85999E-19-2.05922E-18
 -1      2789 9.59176E-05-2.80279E-05-2.90976E-05-2.36089E-06 1.11527E-18-1.02909E-18
 -1      2790 9.56317E-05-2.76699E-05-2.91285E-05-2.99099E-06 1.17170E-18-1.96063E-18
 -1      2791 9.58692E-05-2.80736E-05-2.90490E-05-2.07432E-06 1.36619E-18-4.01434E-19
 -1      2792 9.57315E-05-2.80906E-05-2.89909E-05-1.82590E-06 1.43378E-18 5.17561E-19
 -1      2793 9.55141E-05-2.77704E-05-2.90346E-05-2.35467E-06 1.85397E-18-1.57457E-18
 -1      2794 9.56979E-05-2.81403E-05-2.89479E-05-1.58675E-06 1.05796E-18 4.55577E-19
 -1      2795 9.55925E-05-2.81644E-05-2.88994E-05-1.38097E-06 8.12547E-19 5.43636E-19
 -1      2796 9.54343E-05-2.78911E-05-2.89484E-05-1.81486E-06 1.12354E-18-1.40993E-18
 -1      2797 9.55685E-05-2.82122E-05-2.88625E-05-1.18629E-06 8.30596E-20 5.98560E-19
 -1      2798 9.54888E-05-2.82382E-05-2.88230E-05-1.02012E-06-3.09097E-19-1.96750E-19
 -1      2799 9.53789E-05-2.80131E-05-2.88722E-05-1.36889E-06 2.33421E-19-8.89951E-19
 -1      2800 9.54714E-05-2.82809E-05-2.87922E-05-8.65063E-07 7.86601E-20 4.83315E-20
 -1      2801 9.54120E-05-2.83059E-05-2.87608E-05-7.33863E-07-3.22575E-20 1.66672E-19
 -1      2802 9.53394E-05-2.81256E-05-2.88069E-05-1.00883E-06 6.35184E-19-6.28649E-19
 -1      2803 9.53991E-05-2.83422E-05-2.87357E-05-6.12830E-07 2.60876E-19 5.46894E-19
 -1      2804 9.53557E-05-2.83648E-05-2.87113E-05-5.11375E-07 1.26553E-18 1.00184E-18
 -1      2805 9.53109E-05-2.82239E-05-2.87524E-05-7.24087E-07 4.67471E-19-8.86287E-19
 -1      2806 9.53462E-05-2.83947E-05-2.86912E-05-4.18736E-07 1.19100E-18 7.64653E-19
 -1      2807 9.53152E-05-2.84142E-05-2.86725E-05-3.41876E-07 2.84974E-19 9.08491E-19
 -1      2808 9.52900E-05-2.83064E-05-2.87080E-05-5.03299E-07 5.88764E-19 8.55687E-19
 -1      2809 9.53081E-05-2.84382E-05-2.86567E-05-2.72389E-07-6.31602E-19 8.40141E-19
 -1      2810 9.52867E-05-2.84546E-05-2.86428E-05-2.15416E-07-1.02877E-18 8.47190E-19
 -1      2811 9.52747E-05-2.83738E-05-2.86724E-05-3.35429E-07-1.24276E-19-1.80958E-19
 -1      2812 9.52815E-05-2.84736E-05-2.86306E-05-1.64456E-07-1.38115E-18 1.61557E-18
 -1      2813 9.52673E-05-2.84871E-05-2.86204E-05-1.23289E-07 2.86598E-20 1.05954E-18
 -1      2814 9.52635E-05-2.84276E-05-2.86444E-05-2.10446E-07-1.18602E-18 3.57344E-19
 -1      2815 9.52635E-05-2.85019E-05-2.86111E-05-8.69450E-08 9.24300E-19 9.92877E-19
 -1      2816 9.52546E-05-2.85131E-05-2.86037E-05-5.82132E-08 4.21710E-19 1.78039E-18
 -1      2817 9.52553E-05-2.84699E-05-2.86227E-05-1.19646E-07-7.12770E-20 1.69510E-18
 -1      2818 9.52519E-05-2.85248E-05-2.85966E-05-3.33526E-08-2.63335E-19 1.84429E-18
 -1      2819 9.52469E-05-2.85343E-05-2.85913E-05-1.44489E-08-3.67653E-20 3.07445E-19
 -1      2820 9.52497E-05-2.85032E-05-2.86059E-05-5.57947E-08-2.11162E-19 1.16307E-18
 -1      2821 9.52453E-05-2.85439E-05-2.85858E-05 1.42886E-09-2.30531E-19-9.32796E-19
 -1      2822 9.52430E-05-2.85521E-05-2.85819E-05 1.23545E-08-1.09525E-18-2.41068E-18
 -1      2823 9.52459E-05-2.85297E-05-2.85929E-05-1.32543E-08-1.11731E-18-9.70883E-19
 -1      2824 9.72837E-05-2.76945E-05-2.98093E-05-6.46148E-06 4.81262E-19-5.34710E-21
 -1      2825 9.68307E-05-2.74881E-05-2.97109E-05-5.75923E-06 5.48739E-19 1.27156E-19
 -1      2826 1.35709E-04-5.90386E-05-3.33678E-05 8.52160E-06 3.63218E-19-2.55952E-18
 -1      2827 1.26860E-04-5.97885E-05-2.85219E-05 1.81646E-05 8.16857E-20-1.69587E-18
 -1      2828 9.67443E-05-2.73771E-05-2.97161E-05-4.94690E-06 5.28286E-19 2.39027E-19
 -1      2829 9.64551E-05-2.71649E-05-2.96812E-05-4.13982E-06 7.74516E-19 3.67831E-19
 -1      2830 9.62380E-05-2.67987E-05-2.97698E-05-5.57485E-06 6.91220E-19 1.17038E-19
 -1      2831 9.91457E-05-2.86432E-05-3.02021E-05-9.04394E-06-5.64613E-20 8.99710E-20
 -1      2832 9.83523E-05-2.82495E-05-3.00412E-05-8.51148E-06 3.18868E-21 7.26875E-21
 -1      2833 1.00637E-04-2.96364E-05-3.04203E-05-1.00040E-05 3.52288E-19 1.44999E-20
 -1      2834 9.96233E-05-2.90061E-05-3.02579E-05-9.64538E-06 1.79171E-19 1.70945E-19
 -1      2835 9.77237E-05-2.80414E-05-2.98771E-05-1.00328E-05 1.24397E-19-1.90155E-19
 -1      2836 1.02743E-04-3.13220E-05-3.06096E-05-1.04725E-05 5.09721E-19 2.67502E-20
 -1      2837 1.01438E-04-3.03228E-05-3.04615E-05-1.04379E-05 5.24517E-19 4.97369E-20
 -1      2838 9.89813E-05-2.92277E-05-2.99177E-05-1.11516E-05 4.78349E-19-1.39255E-19
 -1      2839 1.05750E-04-3.39976E-05-3.07681E-05-1.00470E-05 4.01927E-20 2.44447E-19
 -1      2840 1.04075E-04-3.25087E-05-3.06367E-05-1.05669E-05 3.13268E-19 1.16871E-19
 -1      2841 1.01072E-04-3.13507E-05-2.99225E-05-1.18163E-05 4.32265E-19 8.05819E-20
 -1      2842 1.09928E-04-3.77881E-05-3.09610E-05-8.13563E-06 4.70964E-20 6.80043E-19
 -1      2843 1.07873E-04-3.58266E-05-3.08166E-05-9.50066E-06-1.76078E-20 6.33376E-19
 -1      2844 1.04468E-04-3.47933E-05-2.99307E-05-1.16012E-05-8.63738E-20 5.07835E-19
 -1      2845 1.15237E-04-4.21900E-05-3.13786E-05-4.03959E-06-5.24763E-19 1.13807E-18
 -1      2846 1.13009E-04-4.01621E-05-3.11339E-05-6.48838E-06-1.37773E-19 8.85424E-19
 -1      2847 1.09647E-04-3.96684E-05-3.00927E-05-9.77432E-06-3.39788E-19 1.51551E-18
 -1      2848 1.20711E-04-4.53510E-05-3.23720E-05 2.46254E-06-8.12662E-19 1.73736E-18
 -1      2849 1.18953E-04-4.43787E-05-3.18769E-05-8.75694E-07-5.93806E-19 1.52613E-18
 -1      2850 1.16446E-04-4.50833E-05-3.07475E-05-5.25125E-06-8.25887E-19 1.77190E-18
 -1      2851 1.24168E-04-4.39274E-05-3.44520E-05 1.06232E-05-4.44375E-19 1.82030E-18
 -1      2852 1.24150E-04-4.59227E-05-3.35077E-05 7.28455E-06-9.31386E-19 2.10175E-18
 -1      2853 1.24162E-04-4.85560E-05-3.25741E-05 2.60928E-06-8.78413E-19 1.90339E-18
 -1      2854 1.22728E-04-3.50686E-05-3.76515E-05 1.55171E-05 4.13723E-19 3.00306E-18
 -1      2855 1.24820E-04-4.05730E-05-3.63710E-05 1.46451E-05-1.69870E-19 2.40849E-18
 -1      2856 1.28393E-04-4.51177E-05-3.58176E-05 1.16170E-05-5.25941E-19 2.78706E-18
 -1      2857 1.15344E-04-1.80333E-05-4.19872E-05-2.30672E-06 1.75876E-18 5.89614E-20
 -1      2858 1.15916E-04-1.88102E-05-4.20115E-05 4.48399E-06 1.98608E-18 1.27343E-18
 -1      2859 1.20720E-04-2.30643E-05-4.23107E-05-1.23755E-05 1.73377E-18-1.73663E-18
 -1      2860 1.18377E-04-1.82165E-05-4.31960E-05-7.39051E-06 1.77935E-18-8.32580E-19
 -1      2861 1.24197E-04-3.88660E-05-3.69372E-05-1.58168E-05 1.15811E-18-1.46157E-18
 -1      2862 1.21495E-04-3.26553E-05-3.81258E-05-1.63533E-05 9.34595E-19-2.03106E-18
 -1      2863 1.24510E-04-4.52766E-05-3.40230E-05-9.39832E-06 9.05832E-19-8.64079E-19
 -1      2864 1.24210E-04-4.25885E-05-3.50143E-05-1.25644E-05 1.09237E-18-1.49113E-18
 -1      2865 1.28053E-04-4.28594E-05-3.65343E-05-1.36616E-05 8.23581E-19-1.75585E-18
 -1      2866 1.20214E-04-4.47626E-05-3.22757E-05-1.25836E-06 2.97595E-19-8.51705E-19
 -1      2867 1.21709E-04-4.52832E-05-3.28146E-05-4.73132E-06 1.08304E-18-3.86680E-19
 -1      2868 1.24957E-04-4.76972E-05-3.31546E-05-5.42142E-06 2.07166E-19-1.54542E-18
 -1      2869 1.14475E-04-4.08731E-05-3.14583E-05 4.80738E-06-5.00648E-19-5.01621E-19
 -1      2870 1.16594E-04-4.27857E-05-3.17136E-05 2.18611E-06-3.07317E-19-2.00999E-19
 -1      2871 1.18115E-04-4.55249E-05-3.12300E-05 2.96015E-06-2.74657E-19-5.31368E-19
 -1      2872 1.09277E-04-3.65114E-05-3.11207E-05 8.17568E-06 2.48605E-19-8.55730E-19
 -1      2873 1.11302E-04-3.85031E-05-3.12554E-05 6.68198E-06 2.99903E-19-2.51280E-19
 -1      2874 1.11288E-04-4.04528E-05-3.04571E-05 8.01415E-06-9.52747E-21 5.42124E-19
 -1      2875 1.05355E-04-3.30474E-05-3.09497E-05 9.45953E-06-5.66301E-19-2.38340E-18
 -1      2876 1.07024E-04-3.46110E-05-3.10620E-05 8.87211E-06-1.52200E-19-1.72369E-18
 -1      2877 1.05902E-04-3.55070E-05-3.02404E-05 1.02384E-05 7.80904E-19-4.52193E-19
 -1      2878 1.02621E-04-3.07320E-05-3.07901E-05 9.42030E-06-7.38212E-19-2.06430E-18
 -1      2879 1.03913E-04-3.17860E-05-3.09193E-05 9.43167E-06-5.31079E-19-2.18821E-18
 -1      2880 1.02262E-04-3.18768E-05-3.02080E-05 1.06699E-05-3.96956E-19-1.84484E-18
 -1      2881 1.00745E-04-2.93487E-05-3.05909E-05 8.65684E-06-7.38250E-19-2.50185E-18
 -1      2882 1.01738E-04-2.99978E-05-3.07418E-05 9.01057E-06-9.36415E-19-2.33607E-18
 -1      2883 9.99744E-05-2.96008E-05-3.01830E-05 1.00960E-05-5.87229E-19-1.69166E-18
 -1      2884 9.94288E-05-2.85989E-05-3.03547E-05 7.56034E-06 2.44613E-19-2.21654E-18
 -1      2885 1.00203E-04-2.89729E-05-3.05170E-05 8.07520E-06-3.96326E-19-2.22951E-18
 -1      2886 9.85653E-05-2.83416E-05-3.01070E-05 9.02602E-06-1.00833E-18-2.40812E-18
 -1      2887 9.84675E-05-2.82375E-05-3.01007E-05 6.36956E-06 4.13971E-19-5.34491E-19
 -1      2888 9.90824E-05-2.84399E-05-3.02622E-05 6.93037E-06 4.20448E-19-8.21399E-19
 -1      2889 9.76790E-05-2.77413E-05-2.99785E-05 7.76354E-06-8.17597E-19-1.29942E-18
 -1      2890 9.77364E-05-2.80966E-05-2.98488E-05 5.22071E-06 7.21528E-19 3.27349E-19
 -1      2891 9.82302E-05-2.81980E-05-2.99999E-05 5.76095E-06 9.99427E-19 4.38303E-19
 -1      2892 9.70908E-05-2.75284E-05-2.98151E-05 6.48615E-06 5.06210E-20-2.48962E-19
 -1      2893 9.71639E-05-2.80726E-05-2.96138E-05 4.18368E-06 5.36183E-20-1.00349E-18
 -1      2894 9.75614E-05-2.81167E-05-2.97487E-05 4.66944E-06 5.26817E-19 9.12930E-20
 -1      2895 9.66724E-05-2.75234E-05-2.96371E-05 5.29256E-06 8.32849E-19-5.54162E-19
 -1      2896 9.67089E-05-2.81052E-05-2.94045E-05 3.28728E-06 1.79651E-19-2.40364E-18
 -1      2897 9.70274E-05-2.81181E-05-2.95205E-05 3.70503E-06 5.04088E-20-1.76001E-18
 -1      2898 9.63555E-05-2.76178E-05-2.94606E-05 4.23172E-06 6.15965E-19-1.91071E-18
 -1      2899 9.63464E-05-2.81615E-05-2.92246E-05 2.53620E-06 1.74220E-19-2.58085E-18
 -1      2900 9.65991E-05-2.81580E-05-2.93214E-05 2.88426E-06 1.59604E-20-2.69988E-18
 -1      2901 9.61052E-05-2.77505E-05-2.92965E-05 3.32162E-06 5.18434E-19-2.85673E-18
 -1      2902 9.60594E-05-2.82240E-05-2.90742E-05 1.92185E-06 2.30491E-19-2.67930E-18
 -1      2903 9.62572E-05-2.82125E-05-2.91532E-05 2.20489E-06 2.36998E-20-2.58506E-18
 -1      2904 9.59037E-05-2.78893E-05-2.91507E-05 2.56163E-06 2.72434E-19-2.91503E-18
 -1      2905 9.58348E-05-2.82844E-05-2.89516E-05 1.42927E-06 1.00565E-18-1.36514E-18
 -1      2906 9.59873E-05-2.82696E-05-2.90146E-05 1.65489E-06 8.35828E-19-1.94223E-18
 -1      2907 9.57412E-05-2.80185E-05-2.90257E-05 1.94078E-06 9.92617E-20-2.46213E-18
 -1      2908 9.56617E-05-2.83389E-05-2.88538E-05 1.04123E-06 4.15275E-19 2.47546E-19
 -1      2909 9.57772E-05-2.83233E-05-2.89030E-05 1.21793E-06 9.79589E-19 1.60677E-19
 -1      2910 9.56113E-05-2.81318E-05-2.89214E-05 1.44310E-06 5.08654E-19-7.16002E-19
 -1      2911 9.55308E-05-2.83861E-05-2.87771E-05 7.40499E-07-8.60880E-19 3.54135E-19
 -1      2912 9.56166E-05-2.83711E-05-2.88149E-05 8.76643E-07-4.73876E-20 5.59924E-19
 -1      2913 9.55091E-05-2.82276E-05-2.88363E-05 1.05094E-06 4.96514E-19 1.28114E-18
 -1      2914 9.54338E-05-2.84260E-05-2.87182E-05 5.11087E-07-2.94243E-18 1.06661E-18
 -1      2915 9.54961E-05-2.84122E-05-2.87467E-05 6.14328E-07-1.86288E-18 8.26395E-19
 -1      2916 9.54300E-05-2.83066E-05-2.87684E-05 7.46884E-07-1.11568E-18 2.24879E-18
 -1      2917 9.53637E-05-2.84591E-05-2.86738E-05 3.38885E-07-2.84532E-19 4.59616E-20
 -1      2918 9.54077E-05-2.84468E-05-2.86948E-05 4.15897E-07-1.79283E-18 3.86232E-19
 -1      2919 9.53702E-05-2.83704E-05-2.87152E-05 5.14843E-07-1.28980E-18 1.36331E-18
 -1      2920 9.53144E-05-2.84862E-05-2.86409E-05 2.11877E-07 1.51153E-19 6.57605E-19
 -1      2921 9.53446E-05-2.84755E-05-2.86561E-05 2.68282E-07 2.52623E-19 5.86617E-19
 -1      2922 9.53259E-05-2.84212E-05-2.86743E-05 3.40636E-07-5.87973E-19-5.80284E-19
 -1      2923 9.52812E-05-2.85084E-05-2.86171E-05 1.20135E-07 1.36748E-18 2.13518E-18
 -1      2924 9.53009E-05-2.84991E-05-2.86278E-05 1.60533E-07 5.13836E-19 1.68297E-18
 -1      2925 9.52942E-05-2.84613E-05-2.86433E-05 2.12195E-07 1.34980E-19 1.61715E-18
 -1      2926 9.52599E-05-2.85265E-05-2.86002E-05 5.57084E-08 1.31392E-18 1.29635E-18
 -1      2927 9.52719E-05-2.85185E-05-2.86075E-05 8.37396E-08 1.50492E-18 1.63790E-18
 -1      2928 9.52721E-05-2.84928E-05-2.86203E-05 1.19552E-07 1.51958E-18 1.81491E-18
 -1      2929 9.52474E-05-2.85416E-05-2.85883E-05 1.24220E-08 1.50407E-19 1.57056E-18
 -1      2930 9.52538E-05-2.85346E-05-2.85932E-05 3.08674E-08 9.62411E-19 1.99237E-18
 -1      2931 9.52575E-05-2.85176E-05-2.86032E-05 5.47223E-08 5.99173E-19 1.04902E-18
 -1      2932 9.52413E-05-2.85548E-05-2.85799E-05-1.40509E-08-1.03348E-18 2.17707E-18
 -1      2933 9.52438E-05-2.85485E-05-2.85832E-05-3.51292E-09-4.08613E-19 1.79676E-18
 -1      2934 9.52485E-05-2.85375E-05-2.85907E-05 1.14501E-08-6.00931E-19 2.12771E-18
 -1      2935 9.52403E-05-2.85651E-05-2.85751E-05-2.54421E-08 4.17857E-19 1.64111E-18
 -1      2936 9.52403E-05-2.85588E-05-2.85776E-05-2.06175E-08-3.97312E-19 2.26859E-18
 -1      2937 9.52452E-05-2.85523E-05-2.85829E-05-1.18249E-08-7.61185E-19 1.97774E-18
 -1      2938 9.52448E-05-2.85643E-05-2.85775E-05-2.20540E-08 3.88862E-19 3.18007E-18
 -1      2939 9.52253E-05-2.85197E-05-2.85882E-05 1.53974E-09-7.93355E-19-1.93939E-18
 -1      2940 9.52262E-05-2.85207E-05-2.85881E-05 1.50931E-09-1.14119E-19-8.03697E-19
 -1      2941 9.52425E-05-2.85579E-05-2.85788E-05 1.86818E-08-6.23194E-19-2.39037E-18
 -1      2942 9.52420E-05-2.85632E-05-2.85766E-05 2.25698E-08-8.34644E-19-2.13936E-18
 -1      2943 9.52445E-05-2.85489E-05-2.85840E-05 9.87818E-09-5.91905E-19-3.23719E-18
 -1      2944 9.52344E-05-2.85331E-05-2.85865E-05 7.40692E-10 2.18176E-18-2.01173E-18
 -1      2945 9.52371E-05-2.85367E-05-2.85858E-05-1.64713E-09 3.03551E-18-1.39192E-18
 -1      2946 1.42485E-04-5.07237E-05-3.93115E-05 2.92315E-06 7.19660E-19 1.04969E-18
 -1      2947 1.44542E-04-4.23609E-05-4.44533E-05 8.20038E-06 1.50931E-18 8.54550E-19
 -1      2948 9.52259E-05-2.85205E-05-2.85881E-05-1.02749E-10 6.44150E-19-9.90105E-19
 -1      2949 9.52252E-05-2.85197E-05-2.85882E-05-7.51715E-11-4.01673E-19-2.23269E-18
 -1      2950 9.52180E-05-2.84952E-05-2.85951E-05 7.87342E-10-3.33239E-19-1.60656E-18
 -1      2951 9.52284E-05-2.85242E-05-2.85877E-05 2.45184E-09 5.11392E-19-1.44825E-18
 -1      2952 9.52307E-05-2.85269E-05-2.85873E-05 1.50051E-09 1.90444E-18-6.03505E-19
 -1      2953 9.52273E-05-2.85088E-05-2.85934E-05 5.91080E-09 2.56026E-18-2.28081E-18
 -1      2954 9.52206E-05-2.84989E-05-2.85947E-05 4.63258E-09 6.87399E-19-1.72090E-18
 -1      2955 9.52299E-05-2.85262E-05-2.85873E-05-3.95929E-10 6.75993E-19-1.49238E-18
 -1      2956 9.52279E-05-2.85238E-05-2.85876E-05-1.15577E-09 8.37236E-19-6.93551E-19
 -1      2957 9.52201E-05-2.84985E-05-2.85947E-05-3.15570E-09 9.73247E-19-1.25377E-18
 -1      2958 9.52361E-05-2.85359E-05-2.85857E-05 2.23272E-09 4.06064E-20-3.42823E-19
 -1      2959 9.52335E-05-2.85324E-05-2.85864E-05 1.00604E-10 2.83019E-21-1.27136E-19
 -1      2960 9.52263E-05-2.85081E-05-2.85933E-05-4.80778E-09 4.83132E-19-1.53612E-18
 -1      2961 9.52418E-05-2.85473E-05-2.85833E-05 8.35801E-09 3.42769E-20 1.34596E-18
 -1      2962 9.52401E-05-2.85436E-05-2.85843E-05 4.84711E-09 4.19017E-19 5.41336E-19
 -1      2963 9.52346E-05-2.85221E-05-2.85909E-05-2.47788E-09-8.65805E-19 5.10267E-19
 -1      2964 9.64250E-05-2.69808E-05-2.97523E-05-3.19970E-06 9.39404E-19 3.42157E-19
 -1      2965 9.63057E-05-2.66954E-05-2.98084E-05-2.20777E-06 1.09042E-18 4.20966E-19
 -1      2966 9.60337E-05-2.57271E-05-3.01411E-05-1.51273E-06 1.20777E-18 8.67260E-20
 -1      2967 9.61036E-05-2.64157E-05-2.98776E-05-3.72926E-06 8.78927E-19 2.60941E-19
 -1      2968 9.52437E-05-2.85624E-05-2.85778E-05 2.06624E-08-5.09806E-19-3.48131E-18
 -1      2969 1.13928E-04-5.74893E-05-2.44165E-05 2.91409E-05-7.18919E-19-2.41113E-19
 -1      2970 9.92294E-05-5.15877E-05-2.00535E-05 3.43856E-05-1.29596E-18 1.04049E-18
 -1      2971 9.48159E-05-2.06374E-05-3.18269E-05-6.47345E-06-1.42491E-18-1.65051E-18
 -1      2972 9.53424E-05-2.23839E-05-3.12783E-05-4.49708E-06-1.30899E-18-1.55821E-18
 -1      2973 1.28483E-04-6.00395E-05-2.92636E-05-1.84076E-05-1.16425E-18 3.27219E-19
 -1      2974 1.37918E-04-5.87723E-05-3.44312E-05-8.47124E-06-3.59883E-19 7.64024E-19
 -1      2975 1.40825E-04-3.22402E-05-4.67749E-05 1.25652E-05 2.23924E-18 1.26420E-18
 -1      2976 1.34721E-04-2.36082E-05-4.84194E-05 1.33062E-05 2.95149E-18 1.66876E-18
 -1      2977 1.37149E-04-3.77796E-05-4.28652E-05 1.32623E-05 1.60296E-18 1.19993E-18
 -1      2978 5.37897E-05-2.85025E-05-1.05785E-05 3.58355E-05 7.90917E-19-1.17865E-18
 -1      2979 3.96663E-05-1.98735E-05-7.93299E-06 2.51157E-05 1.29681E-18-2.38927E-18
 -1      2980 1.30891E-04-1.65826E-05-4.95365E-05 1.01441E-05-3.15287E-18-1.83647E-18
 -1      2981 1.27165E-04-1.09785E-05-5.05157E-05 6.02706E-06-3.93193E-18-1.52699E-18
 -1      2982 3.95088E-05-1.76933E-05-8.87515E-06-2.26531E-05-3.90165E-19 2.60230E-18
 -1      2983 5.20527E-05-2.59703E-05-1.08425E-05-3.37399E-05 1.35769E-18 4.15936E-18
 -1      2984 9.80663E-05-2.80655E-05-2.99853E-05-7.82798E-06 5.84262E-20-3.06911E-20
 -1      2985 9.74512E-05-2.78036E-05-2.98455E-05-7.20048E-06 2.42467E-19-7.43174E-20
 -1      2986 9.65054E-05-2.70755E-05-2.97645E-05-7.19931E-06 3.13126E-19-1.45610E-19
 -1      2987 9.69649E-05-2.74194E-05-2.98144E-05-8.68447E-06-6.16032E-20-4.93016E-20
 -1      2988 9.22317E-05-1.62843E-05-3.25593E-05-7.36135E-06-1.25222E-18-2.15551E-18
 -1      2989 1.37306E-04-5.08533E-05-3.70733E-05-1.06711E-06-2.78462E-20-8.05846E-19
 -1      2990 1.38750E-04-4.29998E-05-4.16874E-05 5.79597E-06-8.60056E-19-1.00532E-18
 -1      2991 3.43476E-05-1.23367E-05-8.97616E-06 5.02483E-06-3.71027E-19 1.54456E-18
 -1      2992 3.39681E-05-1.27439E-05-8.51977E-06-9.99416E-06-3.77459E-19 1.85331E-18
 -1      2993 9.58593E-05-2.37382E-05-3.08949E-05-3.05464E-06-1.12910E-18-1.43072E-18
 -1      2994 9.59103E-05-2.46829E-05-3.05379E-05-1.32259E-06-9.14311E-19-1.34866E-18
 -1      2995 9.55819E-05-2.41034E-05-3.06456E-05-7.97154E-07-8.92102E-19-1.45412E-18
 -1      2996 9.48729E-05-2.18459E-05-3.12946E-05-3.54035E-06-1.11689E-18-1.64122E-18
 -1      2997 8.99832E-05-1.45098E-05-3.23700E-05 3.45367E-06 1.69266E-18-1.49131E-18
 -1      2998 8.93732E-05-1.38372E-05-3.23985E-05 2.74163E-06 1.48339E-18-1.74034E-18
 -1      2999 9.00065E-05-1.50791E-05-3.20913E-05 1.96972E-06 1.30495E-18-1.57356E-18
 -1      3000 9.12683E-05-1.65657E-05-3.19924E-05 2.88380E-06 1.59330E-18-1.22049E-18
 -1      3001 1.41860E-04-4.50331E-05-4.21107E-05-9.29116E-06 1.23127E-18-2.51145E-18
 -1      3002 1.40515E-04-5.26996E-05-3.76689E-05-2.94524E-06 6.06105E-19-2.82655E-18
 -1      3003 9.54058E-05-2.17566E-05-3.15668E-05 6.06532E-06 1.97323E-18 3.20493E-19
 -1      3004 8.94423E-05-1.39217E-05-3.23915E-05-2.62246E-06-9.13176E-20-2.27144E-18
 -1      3005 9.00445E-05-1.45866E-05-3.23615E-05-3.36217E-06-3.45798E-19-2.30250E-18
 -1      3006 1.35868E-04-2.68566E-05-4.74203E-05-1.34711E-05 2.75095E-18-2.67557E-18
 -1      3007 1.40260E-04-3.60882E-05-4.49899E-05-1.36408E-05 2.21446E-18-2.46762E-18
 -1      3008 3.16750E-05-1.46753E-05-6.79488E-06 1.36399E-05 1.00294E-18-3.27145E-18
 -1      3009 3.04172E-05-1.29801E-05-6.98058E-06-4.02326E-07 2.91548E-19-4.15681E-18
 -1      3010 6.02752E-05-3.17728E-05-1.17028E-05-3.54521E-05-2.09810E-18-2.94069E-18
 -1      3011 7.51352E-05-4.00509E-05-1.48577E-05-3.87205E-05-2.25586E-18-2.29885E-18
 -1      3012 1.36906E-04-3.18929E-05-4.53214E-05 1.06280E-05-1.77940E-18-1.48866E-18
 -1      3013 1.34461E-04-2.36129E-05-4.82034E-05 1.10184E-05-2.39509E-18-1.66865E-18
 -1      3014 1.27332E-04-2.07664E-05-4.59898E-05 1.17329E-05-2.76048E-18-2.58181E-18
 -1      3015 3.61750E-05-1.58941E-05-8.10772E-06-1.58871E-05-8.12675E-19-4.23051E-18
 -1      3016 4.67440E-05-2.30471E-05-9.72638E-06-2.91085E-05-1.63160E-18-3.60942E-18
 -1      3017 8.34467E-05-4.45623E-05-1.65164E-05 4.04047E-05 6.79638E-19-9.11090E-19
 -1      3018 6.97734E-05-3.73767E-05-1.33448E-05 3.93423E-05 5.95994E-19-8.87161E-19
 -1      3019 1.26239E-04-8.75905E-06-5.09584E-05 3.61995E-07-3.75236E-18-7.26523E-19
 -1      3020 1.27707E-04-1.11512E-05-5.05604E-05-6.24161E-06-3.36759E-18 2.96462E-20
 -1      3021 1.30979E-04-1.76556E-05-4.92286E-05-9.70033E-06-3.18548E-18 7.91446E-19
 -1      3022 1.33877E-04-2.60649E-05-4.66410E-05-1.16161E-05-3.17786E-18 1.53567E-18
 -1      3023 1.36463E-04-3.58272E-05-4.37609E-05-9.58785E-06-2.71432E-18 2.06973E-18
 -1      3024 1.37225E-04-4.39677E-05-4.03067E-05-5.75414E-06-1.82927E-18 2.24443E-18
 -1      3025 1.30793E-04-1.58849E-05-4.97382E-05 9.29279E-06 3.34917E-18 1.18479E-18
 -1      3026 1.29286E-04-1.25336E-05-5.07044E-05 3.41933E-06 3.47029E-18 8.49309E-19
 -1      3027 5.20942E-05-2.47436E-05-1.12605E-05 3.07501E-05-2.29652E-19 1.75463E-18
 -1      3028 4.19778E-05-1.71823E-05-1.01518E-05 1.99346E-05-4.72856E-19 1.49120E-18
 -1      3029 1.27040E-04-5.84461E-05-2.91488E-05-1.90984E-05 1.17393E-18 4.70315E-19
 -1      3030 1.33501E-04-5.72627E-05-3.31624E-05-1.16825E-05 4.77118E-19-2.16205E-19
 -1      3031 8.33862E-05-4.41312E-05-1.67085E-05 3.84743E-05-1.10877E-18 1.58882E-18
 -1      3032 6.55441E-05-3.37623E-05-1.31928E-05 3.56997E-05-5.44642E-19 1.73885E-18
 -1      3033 9.48031E-05-4.65751E-05-2.02742E-05 3.27364E-05-1.11427E-18 1.07144E-18
 -1      3034 6.63486E-05-3.41707E-05-1.32578E-05-3.77939E-05 2.38514E-18 4.31807E-18
 -1      3035 7.96484E-05-4.17284E-05-1.61000E-05-4.00450E-05 2.21393E-18 4.02881E-18
 -1      3036 9.07836E-05-1.54814E-05-3.22974E-05-3.92328E-06-5.44754E-19-2.21343E-18
 -1      3037 9.15804E-05-1.63958E-05-3.22403E-05-4.64175E-06-8.78397E-19-2.18834E-18
 -1      3038 9.13499E-05-1.66733E-05-3.19830E-05-2.82916E-06-4.69381E-19-2.03176E-18
 -1      3039 8.90075E-05-1.39552E-05-3.21478E-05 1.14395E-07 6.97227E-19-1.92006E-18
 -1      3040 8.81580E-05-1.24830E-05-3.24533E-05-1.48233E-07 6.22951E-19-2.15134E-18
 -1      3041 8.82898E-05-1.26170E-05-3.24495E-05-8.30080E-07 4.73134E-19-2.23089E-18
 -1      3042 9.28415E-05-1.78367E-05-3.21412E-05-5.67985E-06-1.07681E-18-2.13355E-18
 -1      3043 1.06104E-04-5.34925E-05-2.26082E-05 3.21798E-05 9.53336E-19 7.51040E-19
 -1      3044 9.53351E-05-4.94856E-05-1.92665E-05 3.72277E-05 8.07752E-19-2.58027E-19
 -1      3045 9.08838E-05-4.51885E-05-1.92798E-05 3.58700E-05 1.16075E-18-1.03126E-19
 -1      3046 1.20024E-04-5.71579E-05-2.67912E-05-2.31807E-05 1.39697E-18 9.50424E-19
 -1      3047 6.65473E-05-2.95734E-05-1.53546E-05 3.06755E-05-7.87635E-19 1.36097E-18
 -1      3048 1.28398E-04-2.16889E-05-4.62070E-05 1.19161E-05 2.73433E-18 1.62106E-18
 -1      3049 1.36050E-04-5.50423E-05-3.46858E-05-7.99479E-07 2.23723E-19-3.07854E-18
 -1      3050 1.30579E-04-3.07904E-05-4.30020E-05-1.27267E-05-2.38302E-18 1.73366E-18
 -1      3051 1.23898E-04-1.52897E-05-4.68629E-05-8.46416E-06-2.70606E-18 3.65283E-19
 -1      3052 9.24310E-05-4.64027E-05-1.93901E-05-3.53893E-05 1.95485E-18 2.50944E-18
 -1      3053 9.52357E-05-2.85231E-05-2.85910E-05 3.04775E-09 2.02137E-18 7.13146E-19
 -1      3054 9.52410E-05-2.85444E-05-2.85844E-05-4.55229E-09 1.84486E-18 7.13292E-19
 -1      3055 9.52429E-05-2.85482E-05-2.85833E-05-8.25011E-09 1.55417E-18 1.14413E-18
 -1      3056 4.25099E-05-1.41874E-05-1.15356E-05 1.23496E-05-2.05300E-19 1.74065E-18
 -1      3057 4.55678E-05-1.25227E-05-1.38310E-05 4.92447E-06-5.55865E-22 1.64144E-18
 -1      3058 5.23671E-05-1.70189E-05-1.48771E-05 1.75367E-05-2.98248E-19 1.52678E-18
 -1      3059 1.21019E-04-5.72438E-05-2.71060E-05 1.99265E-05-8.18657E-19-1.61908E-18
 -1      3060 9.52449E-05-2.85596E-05-2.85794E-05 1.59962E-08 1.48203E-19-1.46911E-18
 -1      3061 1.21714E-04-1.12418E-05-4.76794E-05 3.48090E-06-3.03545E-18-1.05551E-18
 -1      3062 1.17719E-04-2.27450E-05-4.08733E-05 1.11064E-05 1.69089E-18 2.65643E-18
 -1      3063 1.20463E-04-2.85452E-05-3.97987E-05 1.49220E-05 1.52995E-18 2.97939E-18
 -1      3064 4.31514E-05-1.71862E-05-1.04888E-05 1.89199E-05 1.23254E-18-2.66455E-18
 -1      3065 9.52451E-05-2.85555E-05-2.85814E-05-1.27222E-08 2.22978E-19 2.30731E-18
 -1      3066 9.52450E-05-2.85584E-05-2.85799E-05-1.67792E-08-4.21391E-19 3.97755E-18
 -1      3067 9.52450E-05-2.85514E-05-2.85828E-05-1.30710E-08-3.51030E-19 3.20462E-18
 -1      3068 9.52426E-05-2.85384E-05-2.85874E-05-3.89533E-09 1.30650E-18 2.41069E-18
 -1      3069 1.36755E-04-4.11595E-05-4.12544E-05-1.37793E-05 9.89864E-19-3.35849E-18
 -1      3070 9.52426E-05-2.85439E-05-2.85852E-05 7.78257E-09-1.02055E-18-5.32509E-19
 -1      3071 1.33751E-04-3.75732E-05-4.14460E-05 1.07164E-05-1.27076E-18-1.75145E-18
 -1      3072 5.87867E-05-2.64425E-05-1.33231E-05-2.96580E-05-1.68115E-18-3.11052E-18
 -1      3073 1.23183E-04-5.98292E-05-2.70720E-05-2.26586E-05-1.86347E-18 3.25817E-19
 -1      3074 1.27817E-04-5.89500E-05-2.97522E-05-1.34462E-05-1.88171E-18 1.02269E-18
 -1      3075 1.15181E-04-5.58988E-05-2.51081E-05-2.56544E-05-2.25740E-18-1.12695E-19
 -1      3076 4.39454E-05-1.54219E-05-1.16104E-05-1.55932E-05-2.11891E-19 2.47207E-18
 -1      3077 1.26280E-04-5.90199E-05-2.87136E-05 2.18782E-05-2.43945E-19 1.30411E-18
 -1      3078 1.19620E-04-5.77156E-05-2.62990E-05 2.50183E-05 4.13564E-19 1.27889E-18
 -1      3079 1.29985E-04-5.81483E-05-3.10262E-05 1.29742E-05-6.80273E-21 1.30914E-18
 -1      3080 1.30300E-04-2.26751E-05-4.63745E-05-1.31149E-05 2.36650E-18-2.03468E-18
 -1      3081 1.38669E-04-5.44083E-05-3.62264E-05 9.71908E-07-5.61219E-19 1.42757E-18
 -1      3082 1.37139E-04-4.93748E-05-3.78971E-05-1.99746E-06-1.62505E-18 1.94383E-18
 -1      3083 1.33973E-04-5.29083E-05-3.48729E-05 2.38023E-06-1.04282E-18 1.72594E-18
 -1      3084 1.33036E-04-4.45710E-05-3.80624E-05-8.07549E-06-1.73621E-18 1.31094E-18
 -1      3085 6.57879E-05-3.16486E-05-1.41088E-05 3.48267E-05 9.62018E-19-1.16996E-18
 -1      3086 1.26826E-04-3.28651E-05-4.04948E-05 1.57509E-05 9.41477E-19 3.11549E-18
 -1      3087 6.37712E-05-2.91665E-05-1.42754E-05-3.31462E-05 1.39003E-18 3.90768E-18
 -1      3088 8.85582E-05-1.29281E-05-3.24361E-05-1.35799E-06 3.11248E-19-2.06549E-18
 -1      3089 8.89294E-05-1.33182E-05-3.24236E-05-2.06791E-06 3.66621E-20-2.11756E-18
 -1      3090 9.00964E-05-1.51880E-05-3.20847E-05-1.82147E-06-5.35275E-20-2.02106E-18
 -1      3091 8.93002E-05-1.42829E-05-3.21327E-05-8.34198E-07 3.07771E-19-1.97627E-18
 -1      3092 1.33844E-04-5.33191E-05-3.45678E-05-2.82730E-06 3.53041E-19-7.34589E-19
 -1      3093 9.47831E-05-2.10130E-05-3.16249E-05 5.21499E-06 1.93546E-18-1.58660E-19
 -1      3094 8.83046E-05-4.52391E-05-1.80023E-05-3.66718E-05-2.24167E-18-1.46918E-18
 -1      3095 9.99199E-05-4.96699E-05-2.15609E-05-3.18624E-05-2.33315E-18-9.52277E-19
 -1      3096 8.36021E-05-4.01561E-05-1.82371E-05-3.45773E-05-1.98492E-18-1.56140E-18
 -1      3097 4.17392E-05-1.25682E-05-1.20670E-05-1.52529E-06 2.82009E-19-2.99257E-18
 -1      3098 3.77734E-05-1.37590E-05-9.66830E-06-8.62300E-06-3.22270E-19-4.03781E-18
 -1      3099 4.69297E-05-1.55331E-05-1.31095E-05-1.46719E-05-6.35956E-19-3.45124E-18
 -1      3100 1.25365E-04-1.40313E-05-4.82005E-05-2.39706E-07 2.94153E-18 6.26487E-19
 -1      3101 9.48632E-05-2.17957E-05-3.13032E-05 3.48822E-06 1.73964E-18-3.38953E-19
 -1      3102 9.38807E-05-2.06474E-05-3.14044E-05 2.64939E-06 1.64099E-18-7.41194E-19
 -1      3103 9.29914E-05-1.94121E-05-3.15431E-05 2.38921E-06 1.51136E-18-9.14029E-19
 -1      3104 1.02113E-04-4.81806E-05-2.32219E-05 2.81409E-05-1.63546E-18 5.80482E-20
 -1      3105 8.90355E-05-4.05246E-05-2.04828E-05 3.05056E-05-1.40565E-18 6.03035E-19
 -1      3106 9.55560E-05-2.55245E-05-3.00030E-05 3.03026E-06-4.98313E-19-1.30924E-18
 -1      3107 9.56447E-05-2.59499E-05-2.98702E-05 3.93865E-06-3.50705E-19-1.28270E-18
 -1      3108 9.56637E-05-2.62978E-05-2.97203E-05 4.75842E-06-3.56457E-19-1.16830E-18
 -1      3109 9.58119E-05-2.66507E-05-2.96374E-05 5.48594E-06-4.93606E-19-1.17744E-18
 -1      3110 9.50774E-05-2.54481E-05-2.98451E-05 4.29205E-06-3.74141E-19-1.17484E-18
 -1      3111 9.58523E-05-2.69577E-05-2.95194E-05 6.18883E-06-5.18783E-19-9.25961E-19
 -1      3112 9.61150E-05-2.73441E-05-2.94672E-05 6.76882E-06-3.35397E-19-8.08404E-19
 -1      3113 9.51337E-05-2.61902E-05-2.95542E-05 5.85961E-06-3.46937E-19-9.92192E-19
 -1      3114 9.62651E-05-2.77259E-05-2.93657E-05 7.37786E-06-1.76018E-19-6.72312E-19
 -1      3115 9.67056E-05-2.82519E-05-2.93293E-05 7.81136E-06-1.24287E-19-4.28906E-19
 -1      3116 9.53146E-05-2.69549E-05-2.93081E-05 7.22379E-06-1.32633E-19-7.83520E-19
 -1      3117 9.70731E-05-2.88283E-05-2.92342E-05 8.32134E-06 9.71225E-20-1.75615E-19
 -1      3118 9.77722E-05-2.96042E-05-2.92062E-05 8.57145E-06 1.51676E-19-4.99014E-20
 -1      3119 9.58108E-05-2.79970E-05-2.90811E-05 8.41410E-06 1.97923E-19-3.84308E-19
 -1      3120 9.84978E-05-3.05009E-05-2.91179E-05 8.93570E-06 1.62074E-19 1.82931E-19
 -1      3121 9.95504E-05-3.16289E-05-2.91029E-05 8.91942E-06 3.97824E-19 1.75417E-19
 -1      3122 9.68661E-05-2.95877E-05-2.88630E-05 9.39880E-06 3.52254E-19-2.51582E-19
 -1      3123 1.00809E-04-3.29573E-05-2.90402E-05 9.02369E-06 7.01325E-20 2.74511E-19
 -1      3124 1.02295E-04-3.44859E-05-2.90627E-05 8.60097E-06-9.12132E-20-2.78024E-20
 -1      3125 9.87961E-05-3.20017E-05-2.86727E-05 1.00461E-05 1.93062E-19 2.27167E-19
 -1      3126 1.04259E-04-3.62759E-05-2.90754E-05 8.22961E-06-1.29404E-20 1.34342E-19
 -1      3127 1.06167E-04-3.81036E-05-2.91896E-05 7.20790E-06 1.55664E-19-1.17104E-20
 -1      3128 1.01958E-04-3.54295E-05-2.85803E-05 1.00552E-05 7.16309E-20 3.99408E-19
 -1      3129 1.08908E-04-4.01779E-05-2.93759E-05 6.00386E-06 4.52369E-20 1.96887E-19
 -1      3130 1.11002E-04-4.18656E-05-2.96737E-05 4.18104E-06-3.09829E-20 3.84323E-19
 -1      3131 1.06634E-04-3.97810E-05-2.87381E-05 8.87336E-06 4.20418E-19 3.10494E-19
 -1      3132 1.14214E-04-4.35800E-05-3.01943E-05 1.75337E-06-1.33062E-19 7.82318E-19
 -1      3133 1.15901E-04-4.41776E-05-3.07968E-05-8.61884E-07-3.97119E-19 5.52170E-19
 -1      3134 1.12648E-04-4.42037E-05-2.94253E-05 5.63626E-06 4.38141E-20 2.74463E-19
 -1      3135 1.18640E-04-4.42703E-05-3.18591E-05-4.55138E-06-1.00266E-18 7.30993E-19
 -1      3136 1.19024E-04-4.24388E-05-3.28648E-05-7.33286E-06-1.20727E-18 4.00866E-19
 -1      3137 1.18882E-04-4.64965E-05-3.10739E-05-3.70626E-07-5.87854E-19 1.45589E-18
 -1      3138 1.16038E-04-2.85667E-05-3.78307E-05-1.29464E-05-1.41973E-18 4.52369E-19
 -1      3139 1.13250E-04-2.26363E-05-3.89266E-05-1.10059E-05-1.77125E-18 8.98835E-19
 -1      3140 1.13559E-04-1.60605E-05-4.21923E-05-6.37312E-06-2.10128E-18 2.42331E-19
 -1      3141 1.12240E-04-1.36881E-05-4.26496E-05-1.36238E-06-1.94553E-18 1.93785E-19
 -1      3142 1.13294E-04-1.50873E-05-4.24246E-05 5.64327E-06-2.13537E-18-3.77750E-19
 -1      3143 1.15362E-04-1.91452E-05-4.16177E-05 1.01269E-05-1.98206E-18-1.06128E-18
 -1      3144 1.18659E-04-3.68113E-05-3.51748E-05 1.18809E-05 9.28163E-20-2.24483E-18
 -1      3145 1.19638E-04-4.07746E-05-3.39054E-05 1.01309E-05 5.96980E-19-2.26010E-18
 -1      3146 1.18498E-04-4.30816E-05-3.23646E-05 6.50311E-06 6.91306E-19-1.53054E-18
 -1      3147 1.17748E-04-4.42794E-05-3.14595E-05 3.62462E-06 7.96957E-19-1.77032E-18
 -1      3148 1.21843E-04-4.42134E-05-3.32436E-05 6.91869E-06 8.30238E-19-2.69269E-18
 -1      3149 1.14752E-04-4.36182E-05-3.05492E-05 2.49815E-07 2.31707E-19-1.44048E-18
 -1      3150 1.12919E-04-4.26595E-05-3.00336E-05-2.16428E-06 2.49359E-19-1.65341E-18
 -1      3151 1.17355E-04-4.59829E-05-3.06454E-05-6.31845E-07 5.50961E-19-1.88347E-18
 -1      3152 1.09742E-04-4.07635E-05-2.96045E-05-4.23888E-06 3.66625E-19-1.62680E-18
 -1      3153 1.07661E-04-3.89771E-05-2.93609E-05-5.80898E-06 3.92726E-19-1.10738E-18
 -1      3154 1.11006E-04-4.28947E-05-2.92782E-05-5.78785E-06 2.22164E-19-1.25585E-18
 -1      3155 1.05067E-04-3.69295E-05-2.92185E-05-6.74120E-06 4.97457E-19-1.25629E-18
 -1      3156 1.03249E-04-3.51505E-05-2.91305E-05-7.55346E-06 4.18921E-19-9.65809E-19
 -1      3157 1.05201E-04-3.83539E-05-2.87304E-05-8.37310E-06 2.48685E-19-8.71124E-19
 -1      3158 1.01421E-04-3.34609E-05-2.91270E-05-7.75242E-06 4.47520E-19-1.50978E-18
 -1      3159 1.00037E-04-3.20374E-05-2.91085E-05-8.02238E-06 9.03973E-19-1.51630E-18
 -1      3160 1.00824E-04-3.41804E-05-2.86219E-05-9.15001E-06 4.19096E-19-1.06084E-18
 -1      3161 9.88732E-05-3.08310E-05-2.91551E-05-7.81853E-06 2.54781E-19-1.64885E-18
 -1      3162 9.79015E-05-2.98274E-05-2.91559E-05-7.74256E-06 1.58793E-19-2.43469E-18
 -1      3163 9.78956E-05-3.10170E-05-2.87018E-05-8.90455E-06 3.02521E-19-2.41270E-18
 -1      3164 9.72256E-05-2.90574E-05-2.92068E-05-7.34093E-06 7.10048E-19-2.81397E-18
 -1      3165 9.65770E-05-2.84176E-05-2.92027E-05-7.06356E-06 8.12442E-19-2.60333E-18
 -1      3166 9.61086E-05-2.88904E-05-2.88314E-05-8.15261E-06 9.32284E-20-2.11800E-18
 -1      3167 9.62262E-05-2.79830E-05-2.92387E-05-6.58146E-06 4.97069E-19-2.36856E-18
 -1      3168 9.58063E-05-2.76173E-05-2.92218E-05-6.20118E-06-1.46050E-19-1.61032E-18
 -1      3169 9.51181E-05-2.76100E-05-2.89450E-05-7.18653E-06 1.03549E-18-2.79393E-18
 -1      3170 9.56570E-05-2.74165E-05-2.92380E-05-5.70415E-06-3.50076E-19-1.08584E-18
 -1      3171 9.53894E-05-2.72400E-05-2.92085E-05-5.28606E-06-3.30121E-19-1.32499E-18
 -1      3172 9.46400E-05-2.69440E-05-2.90190E-05-6.16374E-06 1.73962E-19-2.17816E-18
 -1      3173 9.53562E-05-2.71899E-05-2.92068E-05-4.81090E-06-8.98370E-19-9.87310E-19
 -1      3174 9.51861E-05-2.71348E-05-2.91683E-05-4.39659E-06-8.69792E-19-9.19879E-19
 -1      3175 9.44695E-05-2.66901E-05-2.90510E-05-5.16962E-06-6.67265E-19 7.29774E-20
 -1      3176 9.52137E-05-2.71737E-05-2.91533E-05-3.96332E-06-6.94631E-19-1.53474E-18
 -1      3177 9.51047E-05-2.71908E-05-2.91101E-05-3.57784E-06-1.61391E-19-1.27039E-18
 -1      3178 9.44698E-05-2.66924E-05-2.90481E-05-4.25056E-06-8.34130E-19 9.84245E-20
 -1      3179 9.51591E-05-2.72764E-05-2.90866E-05-3.19614E-06 5.26032E-19-1.62149E-18
 -1      3180 9.50880E-05-2.73320E-05-2.90424E-05-2.85297E-06 1.30681E-18-1.88056E-18
 -1      3181 9.45541E-05-2.68397E-05-2.90202E-05-3.43032E-06 1.12645E-19-1.67564E-18
 -1      3182 9.51498E-05-2.74368E-05-2.90146E-05-2.52589E-06 1.76557E-18-2.12282E-18
 -1      3183 9.51022E-05-2.75092E-05-2.89723E-05-2.23054E-06 1.49823E-18-2.20583E-18
 -1      3184 9.46709E-05-2.70571E-05-2.89768E-05-2.71847E-06 1.06441E-18-1.69985E-18
 -1      3185 9.51611E-05-2.76163E-05-2.89432E-05-1.95685E-06 1.43876E-18-2.16155E-18
 -1      3186 9.51284E-05-2.76922E-05-2.89046E-05-1.70963E-06 1.23063E-18-1.93277E-18
 -1      3187 9.47915E-05-2.72969E-05-2.89256E-05-2.11532E-06 1.53930E-18-2.61112E-18
 -1      3188 9.51795E-05-2.77921E-05-2.88765E-05-1.48548E-06 3.45545E-19-1.23412E-18
 -1      3189 9.51565E-05-2.78639E-05-2.88425E-05-1.28343E-06 8.30523E-20-5.27164E-19
 -1      3190 9.49010E-05-2.75308E-05-2.88725E-05-1.61519E-06 1.03667E-18-2.55331E-18
 -1      3191 9.51982E-05-2.79518E-05-2.88166E-05-1.10340E-06-1.85686E-19-5.69207E-19
 -1      3192 9.51816E-05-2.80157E-05-2.87877E-05-9.41747E-07 7.99774E-19-9.49310E-19
 -1      3193 9.49935E-05-2.77431E-05-2.88213E-05-1.20866E-06-1.33217E-19-8.14203E-19
 -1      3194 9.52141E-05-2.80900E-05-2.87648E-05-7.99783E-07 7.53158E-19-1.75220E-18
 -1      3195 9.52019E-05-2.81444E-05-2.87407E-05-6.72976E-07 1.36075E-19-1.64501E-18
 -1      3196 9.50675E-05-2.79268E-05-2.87744E-05-8.84266E-07 7.55976E-20-1.91489E-18
 -1      3197 9.52262E-05-2.82052E-05-2.87211E-05-5.63030E-07 5.14560E-19-1.32747E-18
 -1      3198 9.52172E-05-2.82502E-05-2.87015E-05-4.65458E-07 5.61333E-19-9.02166E-19
 -1      3199 9.51242E-05-2.80803E-05-2.87330E-05-6.29987E-07 8.39001E-19-2.76141E-18
 -1      3200 9.52346E-05-2.82988E-05-2.86851E-05-3.81875E-07 8.74687E-20-3.82163E-19
 -1      3201 9.52279E-05-2.83351E-05-2.86694E-05-3.08282E-07-5.63165E-19-6.63989E-19
 -1      3202 9.51661E-05-2.82050E-05-2.86976E-05-4.34226E-07 6.91470E-19-1.67843E-18
 -1      3203 9.52399E-05-2.83731E-05-2.86559E-05-2.46004E-07-7.93692E-19 1.02380E-19
 -1      3204 9.52350E-05-2.84019E-05-2.86436E-05-1.91715E-07-3.45239E-19 6.63668E-19
 -1      3205 9.51957E-05-2.83041E-05-2.86679E-05-2.86353E-07 7.69358E-20-1.76354E-18
 -1      3206 9.52428E-05-2.84312E-05-2.86326E-05-1.46391E-07-3.99372E-19 1.67194E-18
 -1      3207 9.52393E-05-2.84537E-05-2.86229E-05-1.07424E-07 5.74876E-19 1.93481E-18
 -1      3208 9.52157E-05-2.83815E-05-2.86433E-05-1.77004E-07 3.08907E-19-7.99192E-20
 -1      3209 9.52440E-05-2.84761E-05-2.86140E-05-7.54292E-08-1.26449E-19 2.31261E-18
 -1      3210 9.52416E-05-2.84940E-05-2.86065E-05-4.84534E-08-1.34278E-18 1.53291E-18
 -1      3211 9.52285E-05-2.84412E-05-2.86232E-05-9.83097E-08 5.62528E-20 2.62217E-18
 -1      3212 9.52444E-05-2.85115E-05-2.85992E-05-2.71300E-08-2.59856E-18 1.35346E-18
 -1      3213 9.52429E-05-2.85254E-05-2.85934E-05-1.01213E-08-1.73057E-18 5.82188E-19
 -1      3214 9.52362E-05-2.84878E-05-2.86067E-05-4.35419E-08-1.91115E-18 1.87436E-18
 -1      3215 1.21954E-04-1.89860E-05-4.45452E-05 8.50122E-06 2.60251E-18 2.15962E-18
 -1      3216 9.71874E-05-2.85246E-05-2.94064E-05-1.18441E-05 1.83629E-19-2.19834E-19
 -1      3217 9.63703E-05-2.77062E-05-2.94235E-05-1.13280E-05 3.78792E-19-3.87870E-19
 -1      3218 9.62181E-05-2.72591E-05-2.95374E-05-1.05363E-05 2.85926E-19-4.97091E-19
 -1      3219 9.57338E-05-2.68266E-05-2.95333E-05-9.88719E-06 7.87176E-20-3.23188E-19
 -1      3220 9.42747E-05-2.64971E-05-2.90591E-05-1.12200E-05 2.44866E-19-6.28678E-19
 -1      3221 1.02690E-04-3.49002E-05-2.90285E-05-1.32339E-05-4.89767E-19 7.81342E-19
 -1      3222 1.00499E-04-3.26171E-05-2.90433E-05-1.34636E-05-7.96215E-20 4.69309E-19
 -1      3223 1.08568E-04-4.07698E-05-2.90447E-05-1.22403E-05-9.61425E-19 1.26940E-18
 -1      3224 1.05347E-04-3.76282E-05-2.89210E-05-1.33737E-05-7.60945E-19 8.85446E-19
 -1      3225 1.00563E-04-3.55857E-05-2.79532E-05-1.56412E-05-7.67394E-19 3.72417E-19
 -1      3226 1.17408E-04-4.77545E-05-2.97940E-05-8.35660E-06-1.14887E-18 1.54314E-18
 -1      3227 1.13118E-04-4.44517E-05-2.92320E-05-1.12169E-05-1.00898E-18 1.42691E-18
 -1      3228 1.07487E-04-4.27462E-05-2.79016E-05-1.56236E-05-1.08608E-18 4.28076E-19
 -1      3229 1.27037E-04-5.38882E-05-3.13108E-05-4.48859E-06-1.33355E-18 1.88399E-18
 -1      3230 1.22581E-04-5.25768E-05-2.98541E-05-8.84458E-06-1.41822E-18 1.38056E-18
 -1      3231 6.06922E-05-2.40713E-05-1.53155E-05-2.81428E-05 8.84355E-19 3.09601E-18
 -1      3232 7.27350E-05-3.23406E-05-1.73121E-05-3.31096E-05 1.76294E-18 3.58729E-18
 -1      3233 5.10895E-05-1.91875E-05-1.34106E-05 2.34774E-05 1.23249E-18-2.17412E-18
 -1      3234 4.41844E-05-1.41569E-05-1.24757E-05 1.23196E-05 1.06657E-18-2.77086E-18
 -1      3235 1.26904E-04-2.62889E-05-4.35235E-05-1.45977E-05 1.67130E-18-1.42773E-18
 -1      3236 1.07024E-04-3.85852E-05-2.92152E-05 1.19176E-05 1.24130E-19-4.60091E-19
 -1      3237 1.10354E-04-4.17467E-05-2.93845E-05 1.06020E-05-5.18735E-19-1.72540E-19
 -1      3238 1.01739E-04-3.33156E-05-2.92666E-05 1.23822E-05 7.56358E-19-2.82172E-19
 -1      3239 1.04067E-04-3.57361E-05-2.92709E-05 1.20188E-05 6.65391E-19-2.62282E-19
 -1      3240 1.02019E-04-3.66430E-05-2.81556E-05 1.45061E-05 2.39992E-19-8.62587E-19
 -1      3241 9.86400E-05-2.98890E-05-2.94411E-05 1.16480E-05-4.84306E-19-9.87948E-19
 -1      3242 1.00123E-04-3.14376E-05-2.94157E-05 1.18472E-05 3.91964E-19-4.82324E-19
 -1      3243 9.76438E-05-3.14045E-05-2.84572E-05 1.35753E-05 4.91857E-19 3.07825E-19
 -1      3244 9.69757E-05-2.79534E-05-2.95748E-05 1.04145E-05-2.32523E-20-1.72520E-18
 -1      3245 9.78816E-05-2.88349E-05-2.95726E-05 1.09048E-05-1.59824E-20-8.94478E-19
 -1      3246 9.54116E-05-2.82599E-05-2.88107E-05 1.20524E-05 8.18135E-20-1.07661E-19
 -1      3247 9.61413E-05-2.70178E-05-2.96270E-05 9.00984E-06-1.23809E-18-1.64621E-18
 -1      3248 9.66948E-05-2.74564E-05-2.96579E-05 9.62822E-06-7.75141E-19-1.85202E-18
 -1      3249 9.44553E-05-2.66279E-05-2.90807E-05 1.04224E-05-1.61989E-19-8.70429E-19
 -1      3250 9.57500E-05-2.66891E-05-2.96040E-05 7.60237E-06-1.26742E-18-9.88362E-19
 -1      3251 9.61017E-05-2.68602E-05-2.96617E-05 8.25139E-06-1.02300E-18-1.87504E-18
 -1      3252 9.41793E-05-2.59537E-05-2.92416E-05 8.84266E-06-1.17711E-18-1.83112E-18
 -1      3253 9.55754E-05-2.66955E-05-2.95275E-05 6.28193E-06 5.63728E-19-9.50706E-19
 -1      3254 9.58144E-05-2.67181E-05-2.96012E-05 6.90461E-06-5.80453E-19-1.01524E-18
 -1      3255 9.42262E-05-2.58389E-05-2.93070E-05 7.37969E-06-8.39870E-19-2.03020E-18
 -1      3256 9.54970E-05-2.68667E-05-2.94204E-05 5.09460E-06 4.98480E-19-7.39125E-19
 -1      3257 9.56718E-05-2.68147E-05-2.95000E-05 5.65987E-06 8.81548E-19-7.53845E-19
 -1      3258 9.43974E-05-2.60183E-05-2.93023E-05 6.06182E-06 4.04284E-19-7.94614E-19
 -1      3259 9.54561E-05-2.71033E-05-2.93007E-05 4.06030E-06 7.69574E-19-1.17356E-18
 -1      3260 9.55916E-05-2.70195E-05-2.93789E-05 4.55394E-06 5.36973E-19-6.03193E-19
 -1      3261 9.45932E-05-2.63303E-05-2.92527E-05 4.90154E-06 7.64398E-19-3.49540E-20
 -1      3262 9.54270E-05-2.73507E-05-2.91811E-05 3.18208E-06 3.21129E-19-1.44836E-18
 -1      3263 9.55356E-05-2.72588E-05-2.92534E-05 3.60066E-06 5.89016E-19-1.40343E-18
 -1      3264 9.47699E-05-2.66818E-05-2.91785E-05 3.90145E-06 9.90038E-19-3.15317E-19
 -1      3265 9.54004E-05-2.75819E-05-2.90696E-05 2.45233E-06-1.16351E-19-1.38346E-18
 -1      3266 9.54884E-05-2.74939E-05-2.91335E-05 2.79896E-06 1.89210E-19-1.62863E-18
 -1      3267 9.49127E-05-2.70230E-05-2.90942E-05 3.05639E-06 3.77904E-20-5.12054E-19
 -1      3268 9.53743E-05-2.77852E-05-2.89704E-05 1.85738E-06 7.48019E-21-1.30446E-18
 -1      3269 9.54454E-05-2.77065E-05-2.90250E-05 2.13871E-06-4.30033E-19-1.21650E-18
 -1      3270 9.50207E-05-2.73301E-05-2.90095E-05 2.35546E-06-2.60533E-19-9.37232E-19
 -1      3271 9.53493E-05-2.79573E-05-2.88851E-05 1.38071E-06-2.72229E-19 4.95505E-19
 -1      3272 9.54059E-05-2.78897E-05-2.89305E-05 1.60497E-06-2.71355E-19-9.01250E-19
 -1      3273 9.50990E-05-2.75944E-05-2.89302E-05 1.78414E-06-5.61857E-19-6.75536E-20
 -1      3274 9.53262E-05-2.80991E-05-2.88138E-05 1.00504E-06-2.82669E-19 2.07915E-18
 -1      3275 9.53706E-05-2.80428E-05-2.88507E-05 1.18085E-06-1.14614E-19 1.30680E-18
 -1      3276 9.51536E-05-2.78149E-05-2.88595E-05 1.32622E-06-1.00412E-18 1.01086E-18
 -1      3277 9.53061E-05-2.82137E-05-2.87555E-05 7.13637E-07-2.19428E-18 3.32383E-18
 -1      3278 9.53402E-05-2.81677E-05-2.87849E-05 8.49286E-07-7.85064E-19 3.46249E-18
 -1      3279 9.51906E-05-2.79947E-05-2.87984E-05 9.65104E-07-1.63855E-18 3.50085E-18
 -1      3280 9.52891E-05-2.83046E-05-2.87088E-05 4.91141E-07-5.52135E-19 2.24286E-18
 -1      3281 9.53147E-05-2.82677E-05-2.87318E-05 5.94138E-07-1.22686E-18 3.20799E-18
 -1      3282 9.52147E-05-2.81385E-05-2.87473E-05 6.84790E-07-1.85393E-18 3.94071E-18
 -1      3283 9.52753E-05-2.83758E-05-2.86721E-05 3.24065E-07-1.61057E-19 1.85895E-18
 -1      3284 9.52941E-05-2.83465E-05-2.86898E-05 4.00944E-07-3.74538E-19 2.09043E-18
 -1      3285 9.52297E-05-2.82516E-05-2.87052E-05 4.70645E-07-4.22549E-19 4.17110E-18
 -1      3286 9.52645E-05-2.84310E-05-2.86436E-05 2.00933E-07 5.62380E-19 1.42101E-18
 -1      3287 9.52779E-05-2.84080E-05-2.86570E-05 2.57202E-07-2.71831E-19 8.14869E-19
 -1      3288 9.52385E-05-2.83394E-05-2.86713E-05 3.09823E-07 3.13136E-19 1.88686E-18
 -1      3289 9.52564E-05-2.84735E-05-2.86217E-05 1.12255E-07 1.13544E-18 2.29789E-18
 -1      3290 9.52655E-05-2.84554E-05-2.86317E-05 1.52418E-07 1.30440E-18 1.98148E-18
 -1      3291 9.52431E-05-2.84069E-05-2.86444E-05 1.91359E-07 4.40416E-19 2.21318E-18
 -1      3292 9.52505E-05-2.85062E-05-2.86050E-05 5.04770E-08-5.74929E-19 3.91232E-18
 -1      3293 9.52565E-05-2.84920E-05-2.86125E-05 7.81185E-08 6.01016E-19 3.40243E-18
 -1      3294 9.52451E-05-2.84584E-05-2.86231E-05 1.06266E-07 6.63178E-20 4.45620E-18
 -1      3295 9.52468E-05-2.85319E-05-2.85922E-05 9.88023E-09-1.01930E-18 3.90413E-18
 -1      3296 9.52502E-05-2.85207E-05-2.85978E-05 2.74054E-08-5.26464E-19 4.26397E-18
 -1      3297 9.52454E-05-2.84978E-05-2.86063E-05 4.71550E-08-5.94018E-19 6.53156E-18
 -1      3298 9.52453E-05-2.85445E-05-2.85860E-05-6.44588E-09-2.64885E-19 4.12375E-18
 -1      3299 9.52461E-05-2.85382E-05-2.85888E-05 6.73706E-10-9.65433E-19 3.95786E-18
 -1      3300 9.52450E-05-2.85226E-05-2.85955E-05 1.45795E-08-5.80177E-19 6.87520E-18
 -1      3301 9.52448E-05-2.85387E-05-2.85886E-05-1.74176E-09-5.52115E-19 4.68541E-18
 -1      3302 1.13059E-04-5.38706E-05-2.50359E-05-2.48509E-05 1.48630E-18 5.94816E-19
 -1      3303 1.23076E-04-5.66696E-05-2.88248E-05-1.60368E-05 1.25866E-18 8.03358E-20
 -1      3304 8.99113E-05-1.56703E-05-3.18327E-05 9.80981E-07 1.03818E-18-1.68399E-18
 -1      3305 8.96597E-05-1.53866E-05-3.18462E-05 5.73091E-07 8.23830E-19-1.81831E-18
 -1      3306 9.52320E-05-2.85070E-05-2.85964E-05-1.21752E-08-2.21867E-18 1.11052E-18
 -1      3307 9.52270E-05-2.84993E-05-2.85980E-05-1.37930E-08-1.48499E-18-5.35510E-19
 -1      3308 7.73093E-05-3.36139E-05-1.86133E-05 3.09010E-05-6.97320E-19 4.71797E-19
 -1      3309 6.51142E-05-2.49227E-05-1.69639E-05 2.59683E-05-6.06555E-19 1.13958E-18
 -1      3310 8.72095E-05-3.60761E-05-2.16024E-05 2.66497E-05-1.65629E-18-2.27031E-19
 -1      3311 9.52065E-05-2.84681E-05-2.86024E-05-7.08474E-10 7.51121E-19-1.41169E-18
 -1      3312 9.52067E-05-2.84682E-05-2.86024E-05 2.36277E-09 4.18524E-19-1.62031E-18
 -1      3313 1.29783E-04-4.08536E-05-3.81394E-05 1.07465E-05-3.10543E-19-2.42357E-18
 -1      3314 1.26994E-04-3.23561E-05-4.10630E-05 1.33879E-05-1.62297E-18-2.64237E-18
 -1      3315 9.52205E-05-2.84879E-05-2.85996E-05-1.32381E-08-5.23756E-19-2.69188E-18
 -1      3316 9.52157E-05-2.84817E-05-2.86006E-05-1.24494E-08 6.92713E-19-1.88328E-18
 -1      3317 9.52176E-05-2.84706E-05-2.86054E-05-2.33793E-08-1.46359E-18-2.84554E-18
 -1      3318 1.15151E-04-4.55916E-05-2.96730E-05 9.10094E-06-1.13644E-18-5.07697E-19
 -1      3319 1.19293E-04-4.84663E-05-3.03516E-05 5.88838E-06-7.79919E-19-1.33744E-18
 -1      3320 1.09650E-04-4.39091E-05-2.83339E-05 1.37328E-05-9.98920E-19-1.73231E-18
 -1      3321 9.32114E-05-1.89608E-05-3.18165E-05-4.22476E-06-9.45187E-19-1.98273E-18
 -1      3322 9.91333E-05-3.09042E-05-2.92167E-05-1.28600E-05 1.42083E-19 1.74757E-19
 -1      3323 9.77680E-05-2.94670E-05-2.92532E-05-1.26008E-05 1.07643E-19-1.75775E-19
 -1      3324 9.49379E-05-2.79604E-05-2.87332E-05-1.28611E-05-2.71836E-20-4.36144E-19
 -1      3325 9.67533E-05-3.07852E-05-2.83317E-05-1.44411E-05-3.26039E-19 2.00432E-19
 -1      3326 9.56194E-05-2.61441E-05-2.97688E-05-5.92886E-06 6.99585E-19-2.30097E-19
 -1      3327 9.55296E-05-2.59669E-05-2.98080E-05-5.05050E-06 8.44087E-19-7.02506E-20
 -1      3328 1.22639E-04-2.42726E-05-4.28466E-05-1.35120E-05-1.81636E-18 1.10241E-18
 -1      3329 1.25659E-04-3.16420E-05-4.05042E-05-1.27543E-05-1.87671E-18 1.70717E-18
 -1      3330 1.34838E-04-5.58302E-05-3.36371E-05-9.03753E-07-1.21634E-18 2.24411E-18
 -1      3331 1.36830E-04-4.96734E-05-3.77010E-05 7.26009E-06-1.78393E-19 2.17592E-18
 -1      3332 9.54017E-05-2.44038E-05-3.04085E-05 9.07145E-07-7.28916E-19-1.41287E-18
 -1      3333 9.54753E-05-2.50140E-05-3.02039E-05 2.06067E-06-6.07937E-19-1.43944E-18
 -1      3334 9.49796E-05-2.44852E-05-3.02142E-05 2.45912E-06-4.92593E-19-1.33857E-18
 -1      3335 5.74209E-05-2.20303E-05-1.47830E-05-2.48300E-05-1.28140E-18-3.16695E-18
 -1      3336 6.90278E-05-3.00761E-05-1.64164E-05-3.12429E-05-1.60174E-18-2.53930E-18
 -1      3337 8.77737E-05-4.09669E-05-1.96943E-05-3.29718E-05 2.29273E-18 2.74883E-18
 -1      3338 1.01815E-04-4.95328E-05-2.25092E-05-3.12177E-05 1.90593E-18 1.48249E-18
 -1      3339 1.07888E-04-4.96923E-05-2.47836E-05-2.39588E-05 1.24853E-18 1.06320E-18
 -1      3340 7.52219E-05-3.47860E-05-1.71840E-05 3.44539E-05 1.34498E-18-5.89006E-19
 -1      3341 6.20064E-05-2.61797E-05-1.48799E-05 3.02712E-05 1.29067E-18-9.67841E-19
 -1      3342 4.60225E-05-1.29570E-05-1.38844E-05-8.94525E-06-2.03089E-19 2.48191E-18
 -1      3343 5.12054E-05-1.74538E-05-1.41542E-05-2.09954E-05 1.61466E-21 2.27598E-18
 -1      3344 6.13965E-05-2.08183E-05-1.70064E-05-2.18224E-05 7.18628E-19 2.29789E-18
 -1      3345 9.52109E-05-2.84741E-05-2.86015E-05-8.68407E-09 8.98632E-19-9.15529E-19
 -1      3346 9.52082E-05-2.84707E-05-2.86020E-05-6.27984E-09 8.70155E-19-8.79565E-19
 -1      3347 9.51968E-05-2.84405E-05-2.86094E-05-5.90711E-09 1.62453E-18-1.02724E-18
 -1      3348 9.52043E-05-2.84511E-05-2.86081E-05-1.72712E-08 6.10896E-19-2.07009E-18
 -1      3349 1.23791E-04-5.60091E-05-2.91835E-05 1.25986E-05-9.61495E-19-2.56953E-18
 -1      3350 1.14023E-04-5.33353E-05-2.57320E-05 2.16814E-05-1.65530E-18-1.36358E-18
 -1      3351 1.29945E-04-5.45155E-05-3.20866E-05-4.92058E-06 1.21563E-18-1.50904E-18
 -1      3352 1.31524E-04-5.00236E-05-3.54338E-05 3.10241E-06 5.89191E-19-2.48739E-18
 -1      3353 9.54826E-05-2.34789E-05-3.08614E-05 1.75604E-06 1.55695E-18-2.55304E-19
 -1      3354 9.45488E-05-2.17271E-05-3.12033E-05 2.33067E-06 1.61645E-18-4.77802E-19
 -1      3355 9.45236E-05-2.22353E-05-3.09767E-05 1.01205E-06 1.42426E-18-5.17335E-19
 -1      3356 9.55733E-05-2.42863E-05-3.05571E-05 1.73927E-07 1.35155E-18-2.10845E-19
 -1      3357 8.95467E-05-1.52593E-05-3.18530E-05 3.45046E-07 7.10466E-19-1.75822E-18
 -1      3358 8.95665E-05-1.52768E-05-3.18520E-05-7.10529E-08 5.21614E-19-1.81633E-18
 -1      3359 9.02107E-05-1.65233E-05-3.15563E-05 3.39025E-07 6.88551E-19-1.64609E-18
 -1      3360 1.02579E-04-4.76795E-05-2.32433E-05-2.77606E-05-2.26658E-18-2.74333E-19
 -1      3361 1.09378E-04-5.28062E-05-2.40140E-05-2.71336E-05-2.40065E-18-5.64174E-19
 -1      3362 1.15916E-04-5.40461E-05-2.65224E-05-2.00758E-05-2.18937E-18 3.64131E-19
 -1      3363 9.51973E-05-2.84407E-05-2.86095E-05 7.33989E-09 1.39294E-18-3.41227E-18
 -1      3364 9.52086E-05-2.84710E-05-2.86021E-05 7.84021E-09 9.39728E-19-2.57048E-18
 -1      3365 9.52117E-05-2.84745E-05-2.86017E-05 1.02304E-08 1.95960E-18-3.52330E-18
 -1      3366 1.14095E-04-5.54988E-05-2.48974E-05 2.68517E-05 9.21466E-19 8.78327E-19
 -1      3367 1.07904E-04-5.17836E-05-2.39130E-05 2.79137E-05 1.04667E-18 6.97267E-19
 -1      3368 1.19392E-04-5.60833E-05-2.72637E-05 1.95901E-05 5.79159E-19 1.16065E-18
 -1      3369 9.15807E-05-1.76368E-05-3.17071E-05-1.74518E-06-2.94103E-19-1.79362E-18
 -1      3370 9.23002E-05-1.85333E-05-3.16360E-05-2.17057E-06-5.53147E-19-1.79225E-18
 -1      3371 9.21760E-05-1.83768E-05-3.16473E-05 2.20718E-06 1.49814E-18-1.08147E-18
 -1      3372 9.14433E-05-1.74737E-05-3.17177E-05 1.82763E-06 1.35910E-18-1.23904E-18
 -1      3373 9.31210E-05-2.00743E-05-3.12826E-05 1.28005E-06 1.32961E-18-9.74740E-19
 -1      3374 9.52286E-05-2.85002E-05-2.85982E-05 1.45561E-08 1.34755E-18-5.44481E-19
 -1      3375 9.52337E-05-2.85081E-05-2.85966E-05 1.22879E-08 6.91720E-19 3.40043E-18
 -1      3376 6.17220E-05-2.06881E-05-1.72182E-05 2.14661E-05-4.20922E-19 1.52641E-18
 -1      3377 5.96615E-05-1.72167E-05-1.80829E-05 1.52625E-05-4.87706E-20 1.06416E-18
 -1      3378 7.18677E-05-2.45365E-05-2.00692E-05 2.17528E-05-6.17265E-19 6.92449E-19
 -1      3379 1.18101E-04-3.45037E-05-3.58513E-05-1.23378E-05-1.24286E-18 8.15812E-19
 -1      3380 1.21327E-04-3.26878E-05-3.80661E-05-1.32263E-05-1.49274E-18 1.66625E-18
 -1      3381 1.27724E-04-4.01214E-05-3.79319E-05-1.11227E-05-1.67228E-18 2.11284E-18
 -1      3382 1.19604E-04-3.94291E-05-3.45316E-05-1.10031E-05-1.04692E-18 5.99177E-19
 -1      3383 1.21247E-04-2.13443E-05-4.31901E-05 1.28854E-05-2.40314E-18-2.17296E-18
 -1      3384 1.14651E-04-2.51465E-05-3.84482E-05 1.22403E-05-1.08153E-18-1.48305E-18
 -1      3385 1.17034E-04-3.06392E-05-3.72929E-05 1.34279E-05-3.99138E-19-1.61369E-18
 -1      3386 9.54716E-05-2.62114E-05-2.96828E-05-6.77385E-06 4.24518E-19-1.56089E-19
 -1      3387 9.46925E-05-2.54072E-05-2.96951E-05-6.29313E-06 5.55475E-19-4.00255E-19
 -1      3388 9.56404E-05-2.63642E-05-2.96800E-05-7.56225E-06 1.31323E-19-9.71361E-20
 -1      3389 9.42089E-05-2.58397E-05-2.93049E-05-9.59319E-06 1.72543E-19-6.27783E-19
 -1      3390 9.57903E-05-2.66530E-05-2.96173E-05-9.09195E-06-1.49161E-19-1.75682E-19
 -1      3391 9.55019E-05-2.64257E-05-2.96064E-05-8.36743E-06-5.06317E-20-1.99885E-19
 -1      3392 8.41734E-05-3.61494E-05-2.02746E-05-2.95421E-05 2.09569E-18 2.30909E-18
 -1      3393 1.31277E-04-4.62661E-05-3.66439E-05 1.05086E-05-5.60511E-19 2.80733E-18
 -1      3394 1.29777E-04-5.02093E-05-3.45013E-05 6.33652E-06-7.62886E-19 2.87252E-18
 -1      3395 9.49392E-05-2.51036E-05-2.99314E-05-4.47819E-06 8.06940E-19-3.79691E-19
 -1      3396 9.56357E-05-2.57937E-05-2.99304E-05-4.11848E-06 7.95684E-19 1.69386E-20
 -1      3397 9.55932E-05-2.54985E-05-3.00317E-05-3.08995E-06 9.76133E-19-5.35372E-20
 -1      3398 5.33494E-05-1.46791E-05-1.63103E-05 9.49724E-06 6.10565E-19-2.05596E-18
 -1      3399 4.63287E-05-1.29207E-05-1.38341E-05 5.11412E-06 5.87649E-19-2.39710E-18
 -1      3400 5.06971E-05-1.32867E-05-1.58653E-05-2.08779E-06 7.65374E-20-2.18116E-18
 -1      3401 1.32751E-04-4.88438E-05-3.63509E-05-9.59510E-06 5.40063E-19-2.28000E-18
 -1      3402 1.32299E-04-4.19400E-05-3.88175E-05-1.36158E-05 9.33377E-19-2.65158E-18
 -1      3403 6.17121E-05-2.27335E-05-1.63119E-05 2.43387E-05 1.33720E-18-1.51418E-18
 -1      3404 9.02931E-05-1.61162E-05-3.18069E-05 1.20446E-06 1.18847E-18-1.53548E-18
 -1      3405 9.07082E-05-1.70892E-05-3.15237E-05 6.83043E-07 1.07072E-18-1.44754E-18
 -1      3406 9.08014E-05-1.67066E-05-3.17725E-05 1.60194E-06 1.36901E-18-1.46922E-18
 -1      3407 9.52168E-05-2.84824E-05-2.86008E-05 1.37672E-08 2.40443E-18-1.77871E-18
 -1      3408 9.52217E-05-2.84886E-05-2.85998E-05 1.42007E-08 2.08131E-18-1.59457E-18
 -1      3409 9.52187E-05-2.84715E-05-2.86057E-05 2.38510E-08 4.44764E-19-9.72615E-21
 -1      3410 9.52054E-05-2.84516E-05-2.86083E-05 1.83457E-08 1.78348E-18-3.26374E-18
 -1      3411 9.52424E-05-2.85347E-05-2.85888E-05 2.81736E-10-1.60162E-18-4.63461E-19
 -1      3412 1.30363E-04-3.60456E-05-4.12198E-05-1.70266E-05 9.65300E-19-2.40827E-18
 -1      3413 1.27498E-04-4.40186E-05-3.59122E-05-8.14419E-06-1.37627E-18 2.07763E-18
 -1      3414 1.27312E-04-4.42384E-05-3.56967E-05 7.90287E-06 6.69540E-19-2.62623E-18
 -1      3415 1.34699E-04-4.31980E-05-3.93581E-05 1.34315E-05 2.61045E-19 2.49642E-18
 -1      3416 1.30010E-04-3.52376E-05-4.11843E-05 1.55449E-05 8.13628E-19 2.25200E-18
 -1      3417 9.56729E-05-2.52733E-05-3.01733E-05-2.16850E-06 1.08644E-18-1.65719E-19
 -1      3418 9.56351E-05-2.47752E-05-3.03590E-05-9.14412E-07 1.14913E-18-2.04350E-19
 -1      3419 9.51605E-05-2.38128E-05-3.05749E-05-4.93409E-07 1.17748E-18-2.71796E-19
 -1      3420 9.51215E-05-2.46058E-05-3.02218E-05-2.56846E-06 9.35255E-19-2.37297E-19
 -1      3421 9.52387E-05-2.85188E-05-2.85945E-05-1.04827E-08-2.60889E-18 2.41004E-18
 -1      3422 9.52325E-05-2.84943E-05-2.86017E-05-2.39621E-08-2.69251E-18 1.64922E-18
 -1      3423 1.29993E-04-5.30317E-05-3.30062E-05-1.07957E-06 3.79974E-20-2.47344E-18
 -1      3424 1.26867E-04-5.35937E-05-3.14190E-05 3.51005E-06-2.47200E-19-2.34092E-18
 -1      3425 9.09508E-05-1.68678E-05-3.17647E-05-1.46231E-06-1.12309E-19-1.95414E-18
 -1      3426 9.19135E-05-1.85040E-05-3.14325E-05-8.94498E-07-2.61799E-19-1.66525E-18
 -1      3427 9.04276E-05-1.62661E-05-3.18005E-05-1.01656E-06 3.30345E-20-1.93951E-18
 -1      3428 1.22634E-04-4.35262E-05-3.39144E-05-7.97634E-06-1.09120E-18 2.05641E-18
 -1      3429 1.31920E-04-5.56354E-05-3.27573E-05 6.19792E-06-2.29744E-19 1.26949E-18
 -1      3430 1.27034E-04-5.59311E-05-3.04737E-05 1.05527E-05 1.11967E-20 9.68979E-19
 -1      3431 1.30686E-04-5.18944E-05-3.38996E-05-7.21428E-07-8.38741E-19 1.14217E-18
 -1      3432 1.08596E-04-4.84391E-05-2.55302E-05 2.12852E-05-2.00933E-18-1.89356E-18
 -1      3433 4.86810E-05-1.22564E-05-1.51481E-05-1.96559E-06-2.27408E-20 2.09651E-18
 -1      3434 5.44188E-05-1.38110E-05-1.72004E-05-7.09651E-06-1.41828E-19 2.61373E-18
 -1      3435 5.34497E-05-1.34393E-05-1.70545E-05 4.63844E-06 6.81464E-20 1.56516E-18
 -1      3436 9.30395E-05-1.94091E-05-3.15661E-05-2.53727E-06-6.78199E-19-1.81474E-18
 -1      3437 9.41321E-05-2.07972E-05-3.14444E-05-3.25382E-06-9.48936E-19-1.84255E-18
 -1      3438 9.46416E-05-2.20719E-05-3.10774E-05-1.89558E-06-8.75488E-19-1.64241E-18
 -1      3439 9.32744E-05-2.01765E-05-3.12971E-05-1.40942E-06-5.85378E-19-1.64103E-18
 -1      3440 1.20777E-04-5.04829E-05-3.00686E-05 7.21150E-06-1.00813E-18-2.20230E-18
 -1      3441 9.37558E-05-4.42383E-05-2.11912E-05 3.14745E-05 1.50880E-18 2.92015E-19
 -1      3442 8.44971E-05-3.94205E-05-1.89030E-05 3.39361E-05 1.54875E-18-5.17696E-19
 -1      3443 7.99092E-05-3.44158E-05-1.93184E-05 3.09088E-05 1.52349E-18-3.07632E-19
 -1      3444 1.25211E-04-2.80277E-05-4.20334E-05 1.41937E-05-1.68062E-18-2.47445E-18
 -1      3445 9.49203E-05-2.30961E-05-3.07971E-05-6.47362E-07-7.97836E-19-1.52533E-18
 -1      3446 1.23895E-04-5.38481E-05-3.00521E-05-9.04994E-06 1.37601E-18-1.43278E-18
 -1      3447 7.88577E-05-3.47621E-05-1.84958E-05-3.13093E-05-1.67429E-18-1.38585E-18
 -1      3448 8.86888E-05-3.97507E-05-2.10077E-05-3.01501E-05-1.91316E-18-6.01976E-19
 -1      3449 7.62906E-05-3.03703E-05-1.94500E-05-2.75934E-05-1.58959E-18-1.63551E-18
 -1      3450 1.19110E-04-1.73797E-05-4.39816E-05-9.85753E-06-2.11462E-18 2.50192E-19
 -1      3451 5.51571E-05-1.85272E-05-1.52408E-05-1.96919E-05-9.05716E-19-3.28808E-18
 -1      3452 6.41655E-05-2.19883E-05-1.78822E-05-2.17849E-05-1.06992E-18-2.74449E-18
 -1      3453 5.43933E-05-1.59042E-05-1.62723E-05-1.33727E-05-4.45672E-19-2.94953E-18
 -1      3454 9.44577E-05-2.25955E-05-3.08079E-05-9.32886E-08-7.73321E-19-1.48946E-18
 -1      3455 1.28244E-04-2.64315E-05-4.38805E-05 1.54713E-05 1.98915E-18 2.22579E-18
 -1      3456 1.23939E-04-1.99033E-05-4.52161E-05 1.09753E-05 2.77604E-18 1.81874E-18
 -1      3457 9.43505E-05-2.53148E-05-2.95855E-05 5.31007E-06-3.27025E-19-9.25899E-19
 -1      3458 9.43942E-05-2.56829E-05-2.94430E-05 6.04904E-06-2.08792E-19-8.88875E-19
 -1      3459 9.42791E-05-2.60043E-05-2.92595E-05 6.79069E-06-5.68695E-20-8.43032E-19
 -1      3460 9.44319E-05-2.64384E-05-2.91301E-05 7.44717E-06 1.93019E-19-5.62734E-19
 -1      3461 9.34478E-05-2.51441E-05-2.92756E-05 6.26928E-06-8.26899E-20-7.52601E-19
 -1      3462 9.44169E-05-2.68726E-05-2.89444E-05 8.18422E-06 1.94030E-19-4.60512E-19
 -1      3463 9.47884E-05-2.75096E-05-2.88179E-05 8.76804E-06 2.78731E-19-5.03703E-19
 -1      3464 9.32956E-05-2.59261E-05-2.88810E-05 7.78158E-06 2.55653E-19-5.32812E-19
 -1      3465 9.50139E-05-2.82060E-05-2.86226E-05 9.51900E-06 4.87770E-19-6.68317E-19
 -1      3466 9.57483E-05-2.91989E-05-2.84989E-05 1.00078E-05 5.36897E-19-5.51477E-19
 -1      3467 9.34649E-05-2.70797E-05-2.84687E-05 9.33669E-06 3.80795E-19-8.48726E-19
 -1      3468 9.64118E-05-3.03262E-05-2.82998E-05 1.07562E-05 4.54160E-19-3.86081E-19
 -1      3469 9.76905E-05-3.18349E-05-2.81978E-05 1.10725E-05 4.03514E-19-1.91354E-19
 -1      3470 9.42825E-05-2.89482E-05-2.80343E-05 1.09672E-05 6.24626E-19-8.62374E-19
 -1      3471 9.90720E-05-3.35657E-05-2.80285E-05 1.17072E-05 1.33400E-19 3.76483E-20
 -1      3472 1.01075E-04-3.56869E-05-2.80002E-05 1.16699E-05 2.60430E-19 1.52277E-19
 -1      3473 9.62185E-05-3.19336E-05-2.76124E-05 1.26023E-05 4.43284E-19-6.23219E-19
 -1      3474 1.03510E-04-3.81179E-05-2.79413E-05 1.19264E-05 4.39686E-19-2.69686E-20
 -1      3475 1.06346E-04-4.07839E-05-2.80895E-05 1.12019E-05 5.82324E-19-1.21490E-19
 -1      3476 9.98853E-05-3.63902E-05-2.73155E-05 1.39241E-05 2.74513E-19-4.83431E-19
 -1      3477 1.10120E-04-4.37396E-05-2.83147E-05 1.04669E-05 4.60882E-19 1.58021E-19
 -1      3478 1.13556E-04-4.63090E-05-2.88212E-05 8.57440E-06 9.57015E-20 2.89553E-19
 -1      3479 1.05931E-04-4.23580E-05-2.73888E-05 1.41294E-05 7.09238E-19-8.67613E-20
 -1      3480 1.22435E-04-3.23150E-05-3.87478E-05 1.37396E-05-1.18770E-18-2.49668E-18
 -1      3481 1.18922E-04-3.38814E-05-3.65114E-05 1.35483E-05-5.32704E-19-2.23661E-18
 -1      3482 1.19236E-04-4.88304E-05-3.02480E-05-3.61484E-06 1.24908E-18-2.31307E-18
 -1      3483 1.16170E-04-4.74303E-05-2.93159E-05-6.48218E-06 7.59861E-19-1.85496E-18
 -1      3484 1.11413E-04-4.46645E-05-2.86373E-05-8.64387E-06 3.37483E-19-1.04328E-18
 -1      3485 1.08134E-04-4.19923E-05-2.82248E-05-1.01658E-05 5.80069E-19-5.85374E-19
 -1      3486 1.12220E-04-4.70226E-05-2.80780E-05-1.17722E-05 1.19195E-18-2.37590E-18
 -1      3487 1.04617E-04-3.91034E-05-2.80693E-05-1.06067E-05 3.70885E-19-6.33552E-19
 -1      3488 1.01954E-04-3.65367E-05-2.79624E-05-1.10977E-05 2.55539E-19-4.53474E-19
 -1      3489 1.03954E-04-4.04479E-05-2.73436E-05-1.34578E-05 5.97173E-19-3.63887E-19
 -1      3490 9.97261E-05-3.42564E-05-2.80347E-05-1.06983E-05-1.14249E-19-2.02941E-19
 -1      3491 9.78622E-05-3.22805E-05-2.80676E-05-1.06057E-05 3.86302E-20-6.72503E-19
 -1      3492 9.83412E-05-3.47362E-05-2.73461E-05-1.28474E-05-4.12680E-20-1.27179E-19
 -1      3493 9.66006E-05-3.07061E-05-2.82159E-05-9.90715E-06 1.84973E-19-9.48324E-19
 -1      3494 9.54201E-05-2.93576E-05-2.82954E-05-9.52958E-06-1.08419E-19-1.39838E-18
 -1      3495 9.49906E-05-3.06445E-05-2.76291E-05-1.13774E-05-2.98985E-19 2.34063E-19
 -1      3496 9.48065E-05-2.83814E-05-2.84475E-05-8.77590E-06-8.79640E-20-1.01103E-18
 -1      3497 9.41232E-05-2.75500E-05-2.85265E-05-8.28087E-06 4.19586E-19-1.01163E-18
 -1      3498 9.32179E-05-2.80076E-05-2.79751E-05-9.71868E-06 3.19217E-20-6.28128E-20
 -1      3499 9.39084E-05-2.70167E-05-2.86525E-05-7.56883E-06 9.00891E-19-1.25657E-18
 -1      3500 9.35547E-05-2.65639E-05-2.87119E-05-7.04171E-06 9.62759E-19-1.15554E-18
 -1      3501 9.24554E-05-2.64854E-05-2.82861E-05-8.15358E-06 5.06626E-19 1.53030E-19
 -1      3502 9.35709E-05-2.63357E-05-2.88037E-05-6.40132E-06 7.03255E-19-1.27232E-18
 -1      3503 9.34207E-05-2.61409E-05-2.88390E-05-5.88642E-06 2.41817E-20-7.74163E-19
 -1      3504 9.22955E-05-2.57405E-05-2.85284E-05-6.75952E-06 9.47799E-19-3.40324E-19
 -1      3505 9.35581E-05-2.61091E-05-2.88982E-05-5.32421E-06-1.77603E-19-2.04895E-19
 -1      3506 9.35251E-05-2.60783E-05-2.89119E-05-4.84504E-06-9.59958E-20 1.13189E-18
 -1      3507 9.24705E-05-2.55092E-05-2.86980E-05-5.54619E-06 8.31162E-19 5.27132E-19
 -1      3508 9.37149E-05-2.61629E-05-2.89443E-05-4.35905E-06-6.21526E-19 7.39690E-19
 -1      3509 9.37431E-05-2.62284E-05-2.89413E-05-3.92783E-06-7.97294E-19 4.29314E-19
 -1      3510 9.28087E-05-2.55954E-05-2.88036E-05-4.50233E-06-3.00235E-19 7.96506E-19
 -1      3511 9.39444E-05-2.63740E-05-2.89535E-05-3.51332E-06-1.17414E-18 1.36917E-19
 -1      3512 9.39997E-05-2.64893E-05-2.89391E-05-3.13554E-06-2.00213E-20-4.79274E-19
 -1      3513 9.32046E-05-2.58603E-05-2.88589E-05-3.61225E-06-8.50517E-19 1.44406E-18
 -1      3514 9.41896E-05-2.66591E-05-2.89373E-05-2.78675E-06 8.27970E-19-2.65126E-19
 -1      3515 9.42524E-05-2.67939E-05-2.89163E-05-2.46340E-06 1.13863E-18-1.07959E-18
 -1      3516 9.35973E-05-2.62098E-05-2.88773E-05-2.86078E-06 2.79197E-19 1.45681E-18
 -1      3517 9.44198E-05-2.69651E-05-2.89055E-05-2.17406E-06 1.08881E-18-1.88544E-18
 -1      3518 9.44796E-05-2.71009E-05-2.88813E-05-1.90312E-06 1.18412E-18-1.75252E-18
 -1      3519 9.39544E-05-2.65830E-05-2.88706E-05-2.23353E-06 4.95516E-19 1.91934E-19
 -1      3520 9.46203E-05-2.72603E-05-2.88655E-05-1.66674E-06 9.88653E-19-2.01564E-18
 -1      3521 9.46722E-05-2.73864E-05-2.88408E-05-1.44420E-06 5.37624E-19-2.14210E-18
 -1      3522 9.42617E-05-2.69432E-05-2.88483E-05-1.71686E-06 8.61939E-19-3.74977E-19
 -1      3523 9.47861E-05-2.75270E-05-2.88228E-05-1.25406E-06-2.58103E-19-2.21805E-18
 -1      3524 9.48286E-05-2.76380E-05-2.87992E-05-1.07463E-06-5.94717E-19-1.99611E-18
 -1      3525 9.45152E-05-2.72697E-05-2.88175E-05-1.29742E-06 2.94015E-19-2.22945E-18
 -1      3526 9.49179E-05-2.77575E-05-2.87810E-05-9.23975E-07-4.61638E-19-2.63250E-18
 -1      3527 9.49511E-05-2.78515E-05-2.87596E-05-7.81826E-07 2.49766E-20-3.15645E-18
 -1      3528 9.47175E-05-2.75528E-05-2.87833E-05-9.61812E-07-5.36816E-19-3.77956E-18
 -1      3529 9.50192E-05-2.79500E-05-2.87422E-05-6.64302E-07-3.38248E-20-2.73260E-18
 -1      3530 9.50441E-05-2.80274E-05-2.87235E-05-5.53656E-07 5.20652E-19-3.21263E-18
 -1      3531 9.48741E-05-2.77903E-05-2.87491E-05-6.97210E-07-3.03881E-20-3.15388E-18
 -1      3532 9.50945E-05-2.81066E-05-2.87078E-05-4.63478E-07 1.17789E-18-4.02148E-18
 -1      3533 9.51125E-05-2.81687E-05-2.86917E-05-3.78909E-07 5.77018E-19-3.59630E-18
 -1      3534 9.49921E-05-2.79843E-05-2.87168E-05-4.91834E-07 3.50512E-19-5.51534E-18
 -1      3535 9.51487E-05-2.82311E-05-2.86779E-05-3.10952E-07 1.03387E-18-3.08474E-18
 -1      3536 9.51611E-05-2.82801E-05-2.86645E-05-2.47580E-07 8.08363E-19-2.16554E-18
 -1      3537 9.50785E-05-2.81392E-05-2.86877E-05-3.35109E-07 1.06690E-18-5.41225E-18
 -1      3538 9.51862E-05-2.83283E-05-2.86525E-05-1.97399E-07 6.58582E-19-6.07635E-19
 -1      3539 9.51943E-05-2.83664E-05-2.86414E-05-1.50993E-07 1.50058E-18 2.12218E-19
 -1      3540 9.51397E-05-2.82605E-05-2.86621E-05-2.17739E-07 1.81342E-18-1.50694E-18
 -1      3541 9.52110E-05-2.84032E-05-2.86313E-05-1.14753E-07 7.96135E-19 1.01827E-18
 -1      3542 9.52161E-05-2.84324E-05-2.86221E-05-8.20073E-08 5.54733E-19 1.59604E-18
 -1      3543 9.51812E-05-2.83542E-05-2.86400E-05-1.31824E-07 1.91826E-18-2.08097E-18
 -1      3544 9.52240E-05-2.84534E-05-2.86153E-05-6.12696E-08-1.06879E-18 1.85608E-18
 -1      3545 9.52272E-05-2.84766E-05-2.86077E-05-3.87993E-08-2.25254E-18 1.33753E-18
 -1      3546 9.52190E-05-2.84639E-05-2.86098E-05-3.86138E-08-1.64425E-18 5.63618E-19
 -1      3547 9.52051E-05-2.84189E-05-2.86229E-05-7.47827E-08 1.06168E-19-5.08692E-19
 -1      3548 9.22769E-05-2.55132E-05-2.85895E-05-1.13149E-05 4.66205E-20-7.61587E-19
 -1      3549 9.21296E-05-2.50645E-05-2.87543E-05-1.04968E-05 2.00778E-19-8.73799E-19
 -1      3550 1.04393E-04-4.28241E-05-2.63386E-05-1.93026E-05-1.34538E-18-3.83468E-19
 -1      3551 1.00061E-04-3.83308E-05-2.63215E-05-1.91838E-05-1.12969E-18-3.54506E-19
 -1      3552 9.75234E-05-3.49124E-05-2.67495E-05-1.75990E-05-7.06267E-19-4.28667E-19
 -1      3553 9.48878E-05-3.18603E-05-2.69585E-05-1.69253E-05-6.92330E-19-4.14710E-19
 -1      3554 9.31426E-05-3.44963E-05-2.51994E-05-2.07865E-05-9.35879E-19-8.02544E-19
 -1      3555 1.16422E-04-5.17899E-05-2.77957E-05-1.63259E-05-1.68472E-18 7.96727E-19
 -1      3556 1.23409E-04-1.45910E-05-4.71475E-05-3.04416E-06 2.87038E-18 1.53171E-19
 -1      3557 9.30571E-05-2.83949E-05-2.76944E-05 1.39297E-05-9.21703E-20 6.28539E-19
 -1      3558 9.46655E-05-3.04371E-05-2.74682E-05 1.47773E-05 4.54336E-19 3.13857E-19
 -1      3559 6.94200E-05-2.56980E-05-1.86229E-05 2.55002E-05 1.13476E-18-7.85623E-19
 -1      3560 6.03780E-05-1.91903E-05-1.74235E-05 1.91232E-05 1.07134E-18-1.82901E-18
 -1      3561 9.60248E-05-3.27341E-05-2.70371E-05 1.62963E-05 1.11893E-19 2.30522E-19
 -1      3562 9.92208E-05-3.61634E-05-2.69235E-05 1.67832E-05-5.77365E-19-3.34489E-19
 -1      3563 9.07569E-05-2.97680E-05-2.62254E-05 1.68156E-05 4.14583E-20 6.13282E-19
 -1      3564 9.18900E-05-2.50579E-05-2.86553E-05 9.85199E-06-4.78488E-19-2.30495E-19
 -1      3565 9.21655E-05-2.55450E-05-2.85256E-05 1.06618E-05 5.90479E-19 1.62222E-19
 -1      3566 9.22358E-05-2.48086E-05-2.89116E-05 8.20487E-06-7.27631E-19-1.44883E-18
 -1      3567 9.22685E-05-2.49375E-05-2.88400E-05 8.95155E-06-6.04780E-19-4.84185E-19
 -1      3568 8.99726E-05-2.38685E-05-2.83232E-05 9.17234E-06-1.98028E-19 1.50070E-19
 -1      3569 9.27397E-05-2.49874E-05-2.90501E-05 6.77404E-06-1.00106E-18-1.45823E-18
 -1      3570 9.26687E-05-2.49210E-05-2.90241E-05 7.45008E-06-1.07592E-18-1.08796E-18
 -1      3571 9.08068E-05-2.39260E-05-2.86533E-05 7.55620E-06-1.02012E-18-4.36008E-19
 -1      3572 9.32555E-05-2.53742E-05-2.91040E-05 5.53019E-06 3.04601E-20-3.55961E-19
 -1      3573 9.31532E-05-2.52132E-05-2.91094E-05 6.13162E-06-2.81066E-19-1.17763E-18
 -1      3574 9.16580E-05-2.43183E-05-2.88500E-05 6.20262E-06-7.02453E-19-4.21284E-19
 -1      3575 9.37173E-05-2.58374E-05-2.91017E-05 4.45640E-06 1.03142E-18 7.45375E-20
 -1      3576 9.36175E-05-2.56412E-05-2.91264E-05 4.98150E-06 4.86394E-19 2.24077E-19
 -1      3577 9.24310E-05-2.48595E-05-2.89505E-05 5.05007E-06 4.72200E-20-9.00353E-19
 -1      3578 9.41019E-05-2.63028E-05-2.90654E-05 3.54049E-06 6.98734E-19 1.95346E-19
 -1      3579 9.40180E-05-2.61045E-05-2.91003E-05 3.99020E-06 1.12064E-18 3.43927E-19
 -1      3580 9.30886E-05-2.54385E-05-2.89858E-05 4.06562E-06 6.36045E-19-1.34498E-18
 -1      3581 9.44083E-05-2.67320E-05-2.90113E-05 2.77062E-06-1.51245E-19 4.76219E-19
 -1      3582 9.43431E-05-2.65487E-05-2.90499E-05 3.14857E-06 1.59323E-19 6.27129E-19
 -1      3583 9.36253E-05-2.59934E-05-2.89796E-05 3.22981E-06 5.10902E-19 1.66521E-18
 -1      3584 9.46448E-05-2.71081E-05-2.89500E-05 2.13353E-06-3.18644E-19 6.30596E-19
 -1      3585 9.45968E-05-2.69473E-05-2.89884E-05 2.44552E-06 6.13438E-20 4.94820E-19
 -1      3586 9.40505E-05-2.64931E-05-2.89491E-05 2.52825E-06 3.86058E-21 2.47793E-18
 -1      3587 9.48231E-05-2.74268E-05-2.88887E-05 1.61463E-06-7.69996E-19 1.40218E-18
 -1      3588 9.47891E-05-2.72904E-05-2.89243E-05 1.86777E-06-6.44563E-19 1.16277E-18
 -1      3589 9.43798E-05-2.69254E-05-2.89061E-05 1.94747E-06-4.05621E-19 2.10455E-18
 -1      3590 9.49550E-05-2.76902E-05-2.88313E-05 1.19884E-06-1.41326E-18 1.32298E-18
 -1      3591 9.49317E-05-2.75773E-05-2.88630E-05 1.40080E-06-1.16238E-18 1.28082E-18
 -1      3592 9.46302E-05-2.72889E-05-2.88585E-05 1.47400E-06-7.86402E-19 1.81102E-18
 -1      3593 9.50506E-05-2.79034E-05-2.87802E-05 8.70981E-07-2.33543E-18 2.64534E-18
 -1      3594 9.50352E-05-2.78119E-05-2.88073E-05 1.02952E-06-2.02538E-18 2.01870E-18
 -1      3595 9.48172E-05-2.75876E-05-2.88113E-05 1.09427E-06-1.99171E-18 4.04952E-19
 -1      3596 9.51185E-05-2.80728E-05-2.87360E-05 6.16490E-07-2.16496E-18 3.29839E-18
 -1      3597 9.51087E-05-2.80000E-05-2.87587E-05 7.38977E-07-2.19642E-18 2.98278E-18
 -1      3598 9.49544E-05-2.78283E-05-2.87674E-05 7.94543E-07-2.27082E-18 2.32138E-18
 -1      3599 9.51656E-05-2.82055E-05-2.86988E-05 4.22125E-07-1.08427E-19 3.17368E-18
 -1      3600 9.51597E-05-2.81484E-05-2.87174E-05 5.15212E-07-8.92580E-19 3.35183E-18
 -1      3601 9.50532E-05-2.80190E-05-2.87284E-05 5.61702E-07-1.54778E-18 2.15666E-18
 -1      3602 9.51974E-05-2.83080E-05-2.86680E-05 2.76301E-07 5.69658E-19 2.70140E-18
 -1      3603 9.51941E-05-2.82638E-05-2.86830E-05 3.45767E-07 8.86264E-19 3.84636E-18
 -1      3604 9.51227E-05-2.81678E-05-2.86946E-05 3.83809E-07-2.62134E-20 3.91225E-18
 -1      3605 9.52179E-05-2.83863E-05-2.86430E-05 1.69125E-07-3.84521E-20 2.84240E-18
 -1      3606 9.52164E-05-2.83524E-05-2.86549E-05 2.19847E-07 3.55388E-19 2.50297E-18
 -1      3607 9.51702E-05-2.82825E-05-2.86660E-05 2.50394E-07 5.94734E-19 3.95979E-18
 -1      3608 9.52307E-05-2.84460E-05-2.86226E-05 9.26371E-08-1.35898E-18 4.25531E-18
 -1      3609 9.52303E-05-2.84201E-05-2.86322E-05 1.28225E-07-8.65061E-19 3.01735E-18
 -1      3610 9.52016E-05-2.83699E-05-2.86421E-05 1.52270E-07-3.79228E-19 2.93472E-18
 -1      3611 9.52381E-05-2.84912E-05-2.86061E-05 3.94057E-08-7.98426E-19 4.53133E-18
 -1      3612 9.52378E-05-2.84710E-05-2.86138E-05 6.37451E-08-1.36426E-18 4.25509E-18
 -1      3613 9.52211E-05-2.84352E-05-2.86222E-05 8.26396E-08-1.53623E-18 3.81905E-18
 -1      3614 9.52078E-05-2.84469E-05-2.86120E-05-3.55542E-08-9.64244E-19-2.80558E-18
 -1      3615 9.51997E-05-2.84352E-05-2.86137E-05-3.30907E-08-3.00775E-19-4.32652E-18
 -1      3616 9.52018E-05-2.84241E-05-2.86184E-05-5.10376E-08 3.36263E-19-2.97274E-18
 -1      3617 1.16296E-04-5.05205E-05-2.82642E-05 1.39789E-05-1.44824E-18-2.58280E-18
 -1      3618 9.52389E-05-2.85206E-05-2.85938E-05 8.38685E-09 1.48295E-18 3.55241E-18
 -1      3619 9.52420E-05-2.85281E-05-2.85916E-05 4.15276E-09 2.25637E-19 2.64763E-18
 -1      3620 9.52418E-05-2.85199E-05-2.85951E-05 1.11349E-08-5.28926E-20 3.97635E-18
 -1      3621 9.52318E-05-2.84961E-05-2.86011E-05 2.05921E-08 2.30150E-19 2.99240E-18
 -1      3622 9.41834E-05-3.69989E-05-2.45954E-05 2.22285E-05-1.85161E-18-4.01322E-19
 -1      3623 8.48719E-05-3.06884E-05-2.31036E-05 2.21602E-05-1.14193E-18-9.57981E-19
 -1      3624 9.19942E-05-2.60889E-05-2.82518E-05 1.17561E-05 4.79200E-19 1.11873E-19
 -1      3625 9.27529E-05-2.71807E-05-2.80616E-05 1.26076E-05 1.59204E-19 2.56896E-19
 -1      3626 8.93634E-05-2.44546E-05-2.78197E-05 1.11600E-05 4.18959E-19 1.57439E-19
 -1      3627 7.89918E-05-3.08486E-05-2.03530E-05-2.69287E-05 1.77967E-18 1.79955E-18
 -1      3628 9.12833E-05-3.93706E-05-2.24103E-05-2.74302E-05 2.34580E-18 1.77043E-18
 -1      3629 1.31950E-04-5.42506E-05-3.31575E-05 2.19718E-07-1.19950E-18 2.30732E-18
 -1      3630 1.07104E-04-4.59434E-05-2.60852E-05 1.96753E-05-1.89963E-18-1.52156E-18
 -1      3631 1.02091E-04-4.13388E-05-2.59446E-05 1.96800E-05-1.76103E-18-9.75458E-19
 -1      3632 1.22287E-04-1.45918E-05-4.65618E-05 4.49512E-06 2.81935E-18 1.10898E-18
 -1      3633 9.37774E-05-2.17292E-05-3.08887E-05 9.85468E-08-5.24179E-19-1.47835E-18
 -1      3634 1.23513E-04-3.90429E-05-3.64758E-05 1.20663E-05-7.66035E-20-2.98758E-18
 -1      3635 8.97279E-05-1.54652E-05-3.18432E-05-3.14413E-07 3.99009E-19-1.87172E-18
 -1      3636 9.00112E-05-1.57759E-05-3.18282E-05-7.45692E-07 1.54352E-19-1.86868E-18
 -1      3637 9.08577E-05-1.72630E-05-3.15177E-05-4.37504E-07 1.31998E-19-1.78526E-18
 -1      3638 1.17897E-04-5.19816E-05-2.79681E-05-1.38746E-05 1.36166E-18-1.53146E-18
 -1      3639 1.22790E-04-5.15299E-05-3.06992E-05-4.92288E-06 1.41210E-18-2.54321E-18
 -1      3640 9.44375E-05-2.45430E-05-2.99514E-05 3.68220E-06-3.44697E-19-1.18734E-18
 -1      3641 9.44599E-05-2.49731E-05-2.97806E-05 4.53123E-06-2.92615E-19-1.05528E-18
 -1      3642 9.36842E-05-2.44408E-05-2.96748E-05 4.73017E-06-2.31832E-19-9.68653E-19
 -1      3643 9.43744E-05-2.34656E-05-3.03923E-05 1.81457E-06-5.83891E-19-1.26895E-18
 -1      3644 9.44457E-05-2.40544E-05-3.01733E-05 2.81654E-06-4.62599E-19-1.31536E-18
 -1      3645 9.38043E-05-2.35387E-05-3.01088E-05 3.08756E-06-3.92113E-19-1.06269E-18
 -1      3646 1.26778E-04-4.82440E-05-3.38195E-05-3.97153E-06-1.02121E-18 1.79943E-18
 -1      3647 1.01565E-04-4.48612E-05-2.39797E-05-2.48122E-05 2.13127E-18 1.68767E-18
 -1      3648 1.10125E-04-4.97397E-05-2.60721E-05-2.02993E-05 1.31055E-18 1.76474E-19
 -1      3649 1.11522E-04-4.83492E-05-2.70528E-05-1.58424E-05 1.79848E-18-1.59181E-18
 -1      3650 9.58706E-05-4.00527E-05-2.37962E-05-2.36447E-05 2.37349E-18 2.03618E-18
 -1      3651 9.26505E-05-2.00561E-05-3.11234E-05-2.69190E-07-4.26252E-19-1.47028E-18
 -1      3652 9.38111E-05-2.22258E-05-3.06650E-05 9.73059E-07-4.87834E-19-1.36222E-18
 -1      3653 9.32588E-05-2.18589E-05-3.06102E-05 1.36947E-06-3.51831E-19-1.18091E-18
 -1      3654 9.19934E-05-1.92760E-05-3.11827E-05-8.25317E-08-2.19835E-19-1.63692E-18
 -1      3655 6.02533E-05-1.78636E-05-1.80078E-05-1.69697E-05 1.88094E-19 1.85283E-18
 -1      3656 6.81227E-05-2.39558E-05-1.89325E-05-2.40236E-05 6.61242E-19 2.80733E-18
 -1      3657 9.46795E-05-2.29606E-05-3.07362E-05-6.84457E-08 1.16870E-18-4.25194E-19
 -1      3658 9.40588E-05-2.19126E-05-3.09218E-05 2.80475E-07 1.21087E-18-6.25298E-19
 -1      3659 9.46932E-05-2.34694E-05-3.05296E-05-1.19430E-06 1.00536E-18-4.11859E-19
 -1      3660 9.71942E-05-4.28452E-05-2.31503E-05-2.63714E-05-2.08960E-18-3.06441E-19
 -1      3661 9.51795E-05-2.84065E-05-2.86173E-05 6.76213E-09 1.47647E-18-3.24766E-18
 -1      3662 9.51821E-05-2.84093E-05-2.86171E-05 1.44743E-08 1.57829E-18-4.06954E-18
 -1      3663 1.23671E-04-5.57029E-05-2.89996E-05 1.37051E-05 3.03066E-19 8.24547E-19
 -1      3664 1.18147E-04-5.35190E-05-2.76485E-05 1.66183E-05 4.44216E-19 5.97277E-19
 -1      3665 1.24679E-04-5.34999E-05-3.06272E-05 6.74813E-06 1.37295E-19 7.48115E-19
 -1      3666 9.02673E-05-1.65858E-05-3.15543E-05-2.90953E-08 4.57460E-19-1.68090E-18
 -1      3667 9.17308E-05-1.83011E-05-3.14418E-05 1.01265E-06 1.15333E-18-1.21080E-18
 -1      3668 6.56872E-05-1.81141E-05-2.04647E-05 1.37028E-05-2.64883E-19 1.04849E-18
 -1      3669 5.91001E-05-1.50506E-05-1.85180E-05 1.00924E-05 8.89054E-20 1.38151E-18
 -1      3670 6.01191E-05-1.43801E-05-1.95393E-05 4.30876E-06 5.36132E-19 1.61508E-18
 -1      3671 6.76098E-05-2.21979E-05-1.93664E-05-2.04187E-05-1.15281E-18-2.04749E-18
 -1      3672 7.11532E-05-2.56332E-05-1.91487E-05-2.47265E-05-1.56894E-18-1.94029E-18
 -1      3673 7.90117E-05-2.99812E-05-2.08720E-05-2.51729E-05-1.75385E-18-1.03555E-18
 -1      3674 1.15118E-04-4.93161E-05-2.83079E-05 1.19827E-05 3.85711E-19 3.86929E-19
 -1      3675 1.18984E-04-4.95347E-05-2.96684E-05 6.38829E-06 1.64586E-19 6.69060E-19
 -1      3676 1.22148E-04-5.01725E-05-3.09029E-05 2.88624E-06-1.53052E-19 1.49110E-18
 -1      3677 9.37412E-05-2.46925E-05-2.95896E-05-6.36623E-06 4.02176E-19-6.02117E-19
 -1      3678 9.38883E-05-2.45813E-05-2.97061E-05-5.50709E-06 5.67476E-19-7.45176E-19
 -1      3679 9.06048E-05-2.39587E-05-2.85564E-05-9.68137E-06 1.39490E-19-1.14657E-18
 -1      3680 9.26148E-05-2.49376E-05-2.89906E-05-9.59803E-06 3.59906E-19-1.00387E-18
 -1      3681 9.26749E-05-2.47589E-05-2.91173E-05-8.79913E-06 1.97187E-19-7.16476E-19
 -1      3682 9.44109E-05-2.55757E-05-2.95021E-05-7.96917E-06 2.01798E-19-3.32053E-19
 -1      3683 9.41960E-05-2.44674E-05-2.98850E-05-4.66314E-06 8.11881E-19-7.79358E-19
 -1      3684 9.43005E-05-2.42192E-05-3.00338E-05-3.70462E-06 9.08406E-19-7.35015E-19
 -1      3685 9.32570E-05-2.37347E-05-2.97880E-05-4.75848E-06 6.18964E-19-1.02640E-18
 -1      3686 9.01131E-05-2.89594E-05-2.62518E-05-1.70711E-05-5.93164E-19-1.04865E-18
 -1      3687 9.39209E-05-2.98055E-05-2.74225E-05-1.53671E-05-5.44947E-19-4.34866E-19
 -1      3688 9.25783E-05-2.79916E-05-2.76742E-05-1.45087E-05-3.41828E-19-7.10276E-19
 -1      3689 7.57621E-05-2.93233E-05-1.95697E-05 2.70862E-05 1.12111E-18-4.03849E-19
 -1      3690 7.34843E-05-2.57925E-05-2.03618E-05 2.28901E-05 9.49339E-19-6.97796E-19
 -1      3691 8.30299E-05-3.40914E-05-2.10036E-05 2.75220E-05 1.10265E-18-3.49454E-19
 -1      3692 1.24692E-04-4.94392E-05-3.22572E-05 1.80429E-06 1.17214E-18-2.40290E-18
 -1      3693 5.91438E-05-1.66405E-05-1.79301E-05 1.38712E-05 6.86189E-19-1.96776E-18
 -1      3694 5.94632E-05-1.52476E-05-1.88980E-05 7.45799E-06 2.44799E-19-1.80865E-18
 -1      3695 6.62386E-05-1.94392E-05-1.99409E-05 1.55556E-05 5.97284E-19-1.54404E-18
 -1      3696 8.93880E-05-2.61721E-05-2.71150E-05 1.36478E-05 2.84003E-19-4.21929E-19
 -1      3697 9.51805E-05-2.83949E-05-2.86219E-05-3.72561E-08 4.32972E-19-3.65283E-18
 -1      3698 9.51911E-05-2.84232E-05-2.86150E-05-2.51365E-08 6.15642E-19-3.07328E-18
 -1      3699 9.51856E-05-2.84157E-05-2.86160E-05-1.92791E-08 1.56844E-18-3.49607E-18
 -1      3700 9.52421E-05-2.85110E-05-2.85988E-05 2.10428E-08-3.94476E-19 4.16021E-18
 -1      3701 9.52273E-05-2.84741E-05-2.86087E-05 3.92985E-08-1.14130E-18 3.13245E-18
 -1      3702 9.52336E-05-2.84870E-05-2.86056E-05 3.49186E-08-6.46365E-19 3.37868E-18
 -1      3703 9.52139E-05-2.84507E-05-2.86126E-05 4.12826E-08-4.17372E-19 2.41519E-18
 -1      3704 9.52139E-05-2.84403E-05-2.86175E-05 5.65226E-08-1.36977E-18 3.34719E-18
 -1      3705 1.26074E-04-4.63279E-05-3.41779E-05 6.10396E-06 9.46348E-19-2.75085E-18
 -1      3706 1.07808E-04-4.93987E-05-2.49935E-05 2.35444E-05 1.09339E-18 2.22220E-19
 -1      3707 1.01628E-04-4.74348E-05-2.29604E-05 2.89113E-05 1.11734E-18 5.79847E-19
 -1      3708 9.55632E-05-4.24678E-05-2.25433E-05 2.80395E-05 1.21499E-18-9.23266E-20
 -1      3709 9.19402E-05-2.59708E-05-2.82826E-05-1.23700E-05 9.73797E-20-5.60548E-19
 -1      3710 8.97367E-05-2.44858E-05-2.79664E-05-1.16252E-05 7.60610E-20-1.09398E-18
 -1      3711 9.25144E-05-2.69350E-05-2.80678E-05-1.32220E-05-1.13670E-19-4.16361E-19
 -1      3712 5.77689E-05-1.42824E-05-1.85363E-05-2.21630E-06 3.24242E-19-1.67398E-18
 -1      3713 5.51123E-05-1.42874E-05-1.71251E-05-7.62861E-06-1.12073E-19-2.25395E-18
 -1      3714 6.10128E-05-1.66994E-05-1.89194E-05-1.19370E-05-6.20524E-19-2.19085E-18
 -1      3715 7.68920E-05-2.73628E-05-2.10198E-05-2.29227E-05 1.32876E-18 1.49515E-18
 -1      3716 9.11633E-05-1.83261E-05-3.12311E-05 3.33270E-07 1.08256E-18-1.35965E-18
 -1      3717 9.07756E-05-1.78759E-05-3.12571E-05 2.10469E-07 9.15182E-19-1.39238E-18
 -1      3718 9.51815E-05-2.84098E-05-2.86167E-05-1.05507E-08 2.24079E-18-1.44463E-18
 -1      3719 9.51798E-05-2.84072E-05-2.86171E-05-2.88111E-09 2.48096E-18-1.16057E-18
 -1      3720 9.51642E-05-2.83716E-05-2.86248E-05 3.09306E-09 2.29953E-18-1.67341E-18
 -1      3721 9.51681E-05-2.83777E-05-2.86238E-05-1.76617E-08 1.71793E-18-2.34818E-18
 -1      3722 9.52049E-05-2.84389E-05-2.86144E-05 3.92888E-08 3.00476E-19-5.17290E-19
 -1      3723 1.25043E-04-4.98391E-05-3.21444E-05-5.46921E-07-5.00583E-19 1.58703E-18
 -1      3724 5.90666E-05-1.53845E-05-1.84455E-05-1.16874E-05 3.25823E-19 2.26589E-18
 -1      3725 6.53713E-05-1.80920E-05-2.01337E-05-1.39391E-05 5.82966E-19 2.08132E-18
 -1      3726 5.95476E-05-1.44372E-05-1.93440E-05-5.45095E-06 3.11000E-19 2.27037E-18
 -1      3727 8.71790E-05-2.87086E-05-2.49548E-05 1.80322E-05-5.98283E-19-8.22165E-19
 -1      3728 7.89878E-05-2.70730E-05-2.21901E-05 2.16998E-05-8.65251E-19-1.19037E-18
 -1      3729 7.48802E-05-2.27724E-05-2.21716E-05 1.80340E-05-2.91783E-19-6.03683E-19
 -1      3730 8.56450E-05-2.62346E-05-2.54406E-05 1.61954E-05 9.29561E-20-3.58844E-19
 -1      3731 9.32877E-05-2.09164E-05-3.10283E-05 2.41284E-07 1.12523E-18-9.02290E-19
 -1      3732 9.05311E-05-1.75982E-05-3.12711E-05 2.87545E-07 8.36521E-19-1.42417E-18
 -1      3733 9.04281E-05-1.74735E-05-3.12782E-05 1.68250E-07 6.26286E-19-1.53556E-18
 -1      3734 9.09867E-05-1.86284E-05-3.09850E-05-1.48265E-08 8.39593E-19-1.24117E-18
 -1      3735 9.04657E-05-1.75202E-05-3.12771E-05 2.22447E-07 5.07399E-19-1.61479E-18
 -1      3736 9.06393E-05-1.77090E-05-3.12682E-05 9.15037E-08 3.79608E-19-1.61641E-18
 -1      3737 9.08011E-05-1.84015E-05-3.09977E-05 2.23753E-07 5.37766E-19-1.45413E-18
 -1      3738 9.21239E-05-2.48479E-05-2.88402E-05 7.03105E-06 1.66653E-19-5.38249E-19
 -1      3739 9.21053E-05-2.52731E-05-2.86275E-05 7.79686E-06 3.40997E-19-6.01925E-19
 -1      3740 9.17996E-05-2.56795E-05-2.83446E-05 8.69683E-06 3.96435E-19-6.42900E-19
 -1      3741 9.20201E-05-2.63567E-05-2.81160E-05 9.51433E-06 4.00273E-19-6.72397E-19
 -1      3742 9.05854E-05-2.45668E-05-2.82952E-05 7.93303E-06 2.75065E-19-5.82711E-19
 -1      3743 9.19107E-05-2.70622E-05-2.77954E-05 1.05933E-05 4.84838E-19-6.26222E-19
 -1      3744 9.25725E-05-2.81848E-05-2.75536E-05 1.14800E-05 5.31805E-19-6.64743E-19
 -1      3745 9.01191E-05-2.56048E-05-2.76587E-05 9.94818E-06 3.17179E-19-5.46748E-19
 -1      3746 9.28794E-05-2.93971E-05-2.71960E-05 1.28027E-05 4.04268E-19-7.31432E-19
 -1      3747 9.42778E-05-3.12255E-05-2.69699E-05 1.37234E-05 3.55721E-19-6.32804E-19
 -1      3748 9.02128E-05-2.74253E-05-2.69326E-05 1.24506E-05 3.85882E-19-5.09169E-19
 -1      3749 9.53877E-05-3.31693E-05-2.66135E-05 1.52064E-05 4.72204E-19-5.19512E-19
 -1      3750 9.78847E-05-3.59044E-05-2.64822E-05 1.60227E-05 6.16530E-19-1.51974E-19
 -1      3751 9.14473E-05-3.06259E-05-2.61377E-05 1.55547E-05 3.79804E-19-2.31126E-19
 -1      3752 9.04045E-05-3.63967E-05-2.29651E-05-2.53109E-05-1.54024E-18-6.62049E-19
 -1      3753 1.02171E-04-4.42014E-05-2.49211E-05-2.32322E-05-1.83489E-18-4.25343E-19
 -1      3754 9.33119E-05-2.46872E-05-2.94177E-05-7.17041E-06 2.61231E-19-7.33639E-19
 -1      3755 9.25246E-05-2.38760E-05-2.94128E-05-6.39179E-06 4.25700E-19-1.11830E-18
 -1      3756 9.31716E-05-2.47687E-05-2.93081E-05-7.97937E-06 1.42768E-19-7.13048E-19
 -1      3757 1.02014E-04-4.04551E-05-2.63316E-05-1.65658E-05 9.06266E-19 1.42225E-19
 -1      3758 9.84616E-05-3.69395E-05-2.62739E-05-1.62269E-05 7.38158E-19 3.96546E-19
 -1      3759 9.62584E-05-3.41640E-05-2.65435E-05-1.47623E-05 5.44222E-19 7.66792E-19
 -1      3760 9.39868E-05-3.16522E-05-2.66819E-05-1.39316E-05-1.50797E-19 8.99663E-19
 -1      3761 9.32247E-05-3.39217E-05-2.55204E-05-1.76690E-05 8.80049E-19 1.58180E-18
 -1      3762 9.29915E-05-2.98490E-05-2.70097E-05-1.24387E-05-4.31031E-19 1.34144E-18
 -1      3763 9.17242E-05-2.82275E-05-2.72074E-05-1.15094E-05-1.03460E-20 1.71398E-18
 -1      3764 9.02138E-05-2.91583E-05-2.62201E-05-1.41581E-05 3.78328E-19 1.98302E-18
 -1      3765 9.14418E-05-2.71787E-05-2.75058E-05-1.02485E-05-1.04142E-19 1.11685E-18
 -1      3766 9.08327E-05-2.62295E-05-2.76935E-05-9.38975E-06 1.10533E-19 1.42421E-18
 -1      3767 8.91184E-05-2.63763E-05-2.69107E-05-1.11847E-05-3.76506E-19 2.35263E-18
 -1      3768 9.09270E-05-2.56879E-05-2.79360E-05-8.37324E-06 2.61606E-20 7.42372E-19
 -1      3769 9.07179E-05-2.52014E-05-2.80887E-05-7.62153E-06 9.16093E-19 4.77224E-19
 -1      3770 8.90156E-05-2.48816E-05-2.74924E-05-8.83171E-06-8.13927E-20 1.58838E-18
 -1      3771 9.10064E-05-2.50025E-05-2.82720E-05-6.80907E-06 7.90232E-19 3.91950E-19
 -1      3772 9.10274E-05-2.48235E-05-2.83841E-05-6.16383E-06 2.82222E-19 3.67738E-19
 -1      3773 8.94441E-05-2.42355E-05-2.79454E-05-6.98876E-06 5.07692E-19 1.12373E-18
 -1      3774 9.13997E-05-2.48430E-05-2.85143E-05-5.51218E-06 5.93236E-19 3.85833E-19
 -1      3775 9.15409E-05-2.48574E-05-2.85891E-05-4.96200E-06 9.74168E-19 7.85051E-19
 -1      3776 9.01274E-05-2.41346E-05-2.82778E-05-5.54061E-06 4.83961E-19 1.23953E-18
 -1      3777 9.19314E-05-2.50059E-05-2.86758E-05-4.43552E-06 7.26251E-19 5.12455E-19
 -1      3778 9.21242E-05-2.51326E-05-2.87201E-05-3.96803E-06-1.38070E-19 7.30737E-19
 -1      3779 9.08998E-05-2.43662E-05-2.85082E-05-4.39101E-06 8.61236E-19-4.96294E-20
 -1      3780 9.24962E-05-2.53483E-05-2.87732E-05-3.54007E-06-4.38568E-19 1.37451E-18
 -1      3781 9.26998E-05-2.55322E-05-2.87945E-05-3.14500E-06-1.15417E-19 1.87745E-18
 -1      3782 9.16649E-05-2.47819E-05-2.86577E-05-3.46787E-06 5.48944E-19 7.43852E-19
 -1      3783 9.30340E-05-2.57734E-05-2.88227E-05-2.79670E-06-8.18118E-19 2.15813E-18
 -1      3784 9.32258E-05-2.59778E-05-2.88277E-05-2.46567E-06-2.82217E-19 1.77154E-18
 -1      3785 9.23704E-05-2.52816E-05-2.87462E-05-2.72116E-06-8.36039E-20 1.33121E-18
 -1      3786 9.35136E-05-2.62177E-05-2.88387E-05-2.18288E-06 6.67054E-19 1.17266E-18
 -1      3787 9.36825E-05-2.64199E-05-2.88329E-05-1.90837E-06 7.12657E-19 1.30838E-18
 -1      3788 9.29900E-05-2.57990E-05-2.87908E-05-2.11610E-06-7.59176E-19 1.47041E-18
 -1      3789 9.39226E-05-2.66430E-05-2.88322E-05-1.68031E-06 2.14621E-19 5.42489E-19
 -1      3790 9.40646E-05-2.68298E-05-2.88199E-05-1.45576E-06 2.39958E-19 3.88574E-19
 -1      3791 9.35150E-05-2.62930E-05-2.88048E-05-1.62674E-06-5.03893E-20 9.92713E-19
 -1      3792 9.42591E-05-2.70274E-05-2.88120E-05-1.27370E-06-1.65278E-19-6.71219E-19
 -1      3793 9.43740E-05-2.71917E-05-2.87965E-05-1.09249E-06-4.38270E-19-1.19365E-18
 -1      3794 9.39466E-05-2.67406E-05-2.87988E-05-1.23401E-06-8.27171E-19-2.45343E-19
 -1      3795 9.45276E-05-2.73605E-05-2.87846E-05-9.48600E-07-5.05825E-19-2.64407E-18
 -1      3796 9.46178E-05-2.75000E-05-2.87680E-05-8.04373E-07-6.83980E-19-2.56144E-18
 -1      3797 9.42919E-05-2.71295E-05-2.87809E-05-9.21575E-07-1.19743E-18-1.00470E-18
 -1      3798 9.47364E-05-2.76402E-05-2.87544E-05-6.91960E-07 3.78969E-19-2.99067E-18
 -1      3799 9.48052E-05-2.77555E-05-2.87381E-05-5.78903E-07 5.86731E-19-3.03863E-18
 -1      3800 9.45618E-05-2.74574E-05-2.87567E-05-6.75372E-07-3.28043E-19-2.02119E-18
 -1      3801 9.48946E-05-2.78691E-05-2.87243E-05-4.92307E-07-5.55335E-20-3.20572E-18
 -1      3802 9.49456E-05-2.79621E-05-2.87092E-05-4.05083E-07-1.54477E-19-3.58829E-18
 -1      3803 9.47678E-05-2.77268E-05-2.87301E-05-4.83800E-07-1.77779E-19-1.92452E-18
 -1      3804 9.50112E-05-2.80523E-05-2.86959E-05-3.39429E-07 7.36362E-19-3.29900E-18
 -1      3805 9.50480E-05-2.81259E-05-2.86824E-05-2.73327E-07 1.59118E-18-2.70644E-18
 -1      3806 9.49214E-05-2.79436E-05-2.87035E-05-3.36857E-07 6.22996E-19-9.58724E-19
 -1      3807 9.50947E-05-2.81961E-05-2.86702E-05-2.24417E-07 2.24297E-18-2.14555E-18
 -1      3808 9.51203E-05-2.82533E-05-2.86584E-05-1.75288E-07 2.20390E-18-1.54697E-18
 -1      3809 9.50327E-05-2.81145E-05-2.86783E-05-2.26011E-07 2.27028E-18-2.13941E-18
 -1      3810 9.51526E-05-2.83072E-05-2.86475E-05-1.39496E-07 1.16131E-18-2.28594E-18
 -1      3811 9.51695E-05-2.83507E-05-2.86373E-05-1.04284E-07 1.25455E-18-3.37160E-18
 -1      3812 9.51108E-05-2.82470E-05-2.86553E-05-1.44002E-07 1.71404E-18-2.82168E-18
 -1      3813 9.51830E-05-2.83757E-05-2.86311E-05-8.62956E-08 1.47926E-18-3.23686E-18
 -1      3814 9.51912E-05-2.84022E-05-2.86241E-05-6.48446E-08 1.20274E-18-2.41825E-18
 -1      3815 9.51787E-05-2.83849E-05-2.86263E-05-5.90912E-08 1.23797E-18-4.69096E-18
 -1      3816 9.51548E-05-2.83323E-05-2.86383E-05-9.13538E-08 1.97027E-18-3.18054E-18
 -1      3817 1.11008E-04-4.80363E-05-2.67730E-05-1.84424E-05-1.71637E-18 1.33315E-19
 -1      3818 9.34436E-05-2.17203E-05-3.07261E-05-7.75140E-07 9.52931E-19-9.33324E-19
 -1      3819 9.25465E-05-2.00764E-05-3.10667E-05 1.63007E-07 1.12278E-18-1.09483E-18
 -1      3820 8.56037E-05-2.35099E-05-2.66505E-05 1.22660E-05 6.25040E-19-9.72020E-19
 -1      3821 8.59103E-05-2.45837E-05-2.62198E-05 1.36063E-05 7.36398E-19-4.50018E-19
 -1      3822 8.94947E-05-2.31395E-05-2.84583E-05 6.51171E-06-1.44843E-18-1.77007E-19
 -1      3823 8.90512E-05-2.29586E-05-2.83178E-05 7.19964E-06-9.85829E-19-3.53771E-19
 -1      3824 8.81699E-05-2.27217E-05-2.80749E-05 7.94724E-06-3.96872E-19-1.20669E-19
 -1      3825 8.77728E-05-2.27433E-05-2.78535E-05 8.78200E-06 2.07591E-19 1.38259E-20
 -1      3826 8.70147E-05-2.18882E-05-2.78888E-05 6.82109E-06-6.39606E-19-3.02262E-19
 -1      3827 9.16903E-05-2.44548E-05-2.88284E-05 4.33629E-06-1.80691E-20-1.09502E-18
 -1      3828 9.13241E-05-2.41429E-05-2.87896E-05 4.83698E-06-1.75979E-19-8.12858E-19
 -1      3829 9.25242E-05-2.51378E-05-2.88906E-05 3.48973E-06 6.49171E-19-1.03286E-18
 -1      3830 9.22204E-05-2.48303E-05-2.88796E-05 3.91925E-06 1.96562E-19-1.28972E-18
 -1      3831 9.12145E-05-2.41371E-05-2.87352E-05 3.71855E-06-1.57101E-19-4.88985E-19
 -1      3832 9.31959E-05-2.57675E-05-2.89066E-05 2.77176E-06-5.67862E-19 2.27141E-18
 -1      3833 9.29523E-05-2.54846E-05-2.89130E-05 3.13682E-06-1.38532E-19 9.47341E-19
 -1      3834 9.21622E-05-2.48969E-05-2.88184E-05 2.99774E-06-7.57176E-19 8.07134E-19
 -1      3835 9.37263E-05-2.63231E-05-2.88942E-05 2.16906E-06-2.53206E-19 2.83916E-18
 -1      3836 9.35359E-05-2.60742E-05-2.89104E-05 2.47517E-06-6.33073E-20 2.61634E-18
 -1      3837 9.29217E-05-2.55837E-05-2.88516E-05 2.38505E-06-8.08379E-19 2.39012E-18
 -1      3838 9.41378E-05-2.67979E-05-2.88656E-05 1.66959E-06 3.68334E-19 2.13119E-18
 -1      3839 9.39920E-05-2.65856E-05-2.88867E-05 1.92249E-06 2.04642E-19 2.99377E-18
 -1      3840 9.35204E-05-2.61829E-05-2.88532E-05 1.86906E-06-7.60729E-20 2.74621E-18
 -1      3841 9.44523E-05-2.71945E-05-2.88293E-05 1.26211E-06-1.11099E-18 2.30805E-18
 -1      3842 9.43425E-05-2.70175E-05-2.88518E-05 1.46757E-06-2.43142E-19 2.38103E-18
 -1      3843 9.39855E-05-2.66920E-05-2.88357E-05 1.43988E-06 1.08697E-19 3.19085E-18
 -1      3844 9.46889E-05-2.75188E-05-2.87908E-05 9.35225E-07-2.85212E-18 2.46266E-18
 -1      3845 9.46077E-05-2.73744E-05-2.88127E-05 1.09938E-06-2.21902E-18 2.35795E-18
 -1      3846 9.43416E-05-2.71157E-05-2.88079E-05 1.08895E-06-2.21152E-18 3.95335E-18
 -1      3847 9.48638E-05-2.77791E-05-2.87534E-05 6.77162E-07-2.08154E-18 3.56397E-18
 -1      3848 9.48049E-05-2.76634E-05-2.87735E-05 8.06225E-07-2.68544E-18 3.24459E-18
 -1      3849 9.46100E-05-2.74610E-05-2.87758E-05 8.06822E-07-3.71408E-18 4.80829E-18
 -1      3850 9.49908E-05-2.79847E-05-2.87190E-05 4.76787E-07-2.00784E-18 3.36571E-18
 -1      3851 9.49490E-05-2.78935E-05-2.87369E-05 5.76565E-07-1.71336E-18 3.34077E-18
 -1      3852 9.48090E-05-2.77375E-05-2.87433E-05 5.83675E-07-2.42288E-18 3.91034E-18
 -1      3853 9.50809E-05-2.81447E-05-2.86885E-05 3.23812E-07-6.83793E-20 4.05008E-18
 -1      3854 9.50519E-05-2.80737E-05-2.87039E-05 3.99661E-07-1.46712E-18 2.88199E-18
 -1      3855 9.49538E-05-2.79555E-05-2.87123E-05 4.10311E-07-1.37526E-18 4.35600E-18
 -1      3856 9.51433E-05-2.82677E-05-2.86621E-05 2.09252E-07 4.83538E-19 3.42380E-18
 -1      3857 9.51238E-05-2.82131E-05-2.86752E-05 2.65882E-07 1.38327E-18 3.43729E-18
 -1      3858 9.50567E-05-2.81252E-05-2.86842E-05 2.77803E-07 3.01802E-19 2.96189E-18
 -1      3859 9.51845E-05-2.83610E-05-2.86395E-05 1.24700E-07-1.00483E-18 3.20509E-18
 -1      3860 9.51723E-05-2.83193E-05-2.86505E-05 1.66970E-07-8.44022E-19 2.55730E-18
 -1      3861 9.51279E-05-2.82555E-05-2.86593E-05 1.79189E-07-9.35397E-21 3.38991E-18
 -1      3862 9.52066E-05-2.84106E-05-2.86265E-05 8.48390E-08-8.57233E-19 3.37382E-18
 -1      3863 9.51876E-05-2.84171E-05-2.86164E-05 2.51181E-08 8.64169E-19-3.46342E-18
 -1      3864 9.51945E-05-2.84251E-05-2.86155E-05 3.07913E-08 6.05682E-19-2.41375E-18
 -1      3865 9.51701E-05-2.83782E-05-2.86244E-05 2.59425E-08 1.05022E-18-3.26604E-18
 -1      3866 9.45349E-05-2.40961E-05-3.01930E-05-2.98478E-06 8.76232E-19-5.68993E-19
 -1      3867 9.46228E-05-2.37992E-05-3.03511E-05-2.03936E-06 9.42700E-19-4.36728E-19
 -1      3868 9.41102E-05-2.29428E-05-3.04955E-05-1.64758E-06 9.78090E-19-7.28657E-19
 -1      3869 9.37935E-05-2.34278E-05-3.01475E-05-3.20347E-06 9.76754E-19-9.68899E-19
 -1      3870 8.67957E-05-2.27226E-05-2.74928E-05 9.77756E-06-2.36160E-22-1.40695E-19
 -1      3871 8.66009E-05-2.31231E-05-2.71691E-05 1.08321E-05 1.96356E-19-5.37486E-19
 -1      3872 8.51495E-05-2.14877E-05-2.72550E-05 8.44689E-06-5.65996E-20-6.26096E-19
 -1      3873 9.18976E-05-1.93043E-05-3.11233E-05 8.97958E-08 1.06942E-18-1.30430E-18
 -1      3874 9.51885E-05-2.84006E-05-2.86227E-05 4.84908E-08 2.33010E-19-1.18943E-18
 -1      3875 8.41864E-05-3.17875E-05-2.24091E-05-2.45284E-05-1.44825E-18-8.33202E-19
 -1      3876 9.00732E-05-3.35652E-05-2.40798E-05-2.20157E-05-1.26320E-18-8.44823E-19
 -1      3877 8.76000E-05-3.00272E-05-2.46509E-05-1.99214E-05-9.18227E-19-1.00476E-18
 -1      3878 7.90930E-05-2.73708E-05-2.21317E-05-2.19887E-05-1.38698E-18-1.12215E-18
 -1      3879 9.51791E-05-2.83658E-05-2.86343E-05 9.58726E-08-1.32198E-18 1.58926E-18
 -1      3880 9.19235E-05-1.98499E-05-3.08704E-05-4.58861E-07 9.38240E-19-1.22025E-18
 -1      3881 9.30159E-05-2.35869E-05-2.97601E-05 3.98101E-06-1.81054E-19-1.00256E-18
 -1      3882 9.29071E-05-2.39594E-05-2.95470E-05 4.76467E-06-1.23805E-19-9.59273E-19
 -1      3883 9.09665E-05-1.80802E-05-3.12529E-05 1.08416E-07 2.48098E-19-1.54712E-18
 -1      3884 9.13975E-05-1.85592E-05-3.12254E-05-6.15718E-08 5.14165E-21-1.60325E-18
 -1      3885 9.11911E-05-1.88383E-05-3.09809E-05 4.06726E-07 2.81492E-19-1.41896E-18
 -1      3886 7.39396E-05-2.36230E-05-2.14672E-05-1.94079E-05 9.85774E-19 1.62902E-18
 -1      3887 8.27816E-05-3.01546E-05-2.26630E-05-2.23542E-05 1.43786E-18 1.83841E-18
 -1      3888 9.25999E-05-2.42436E-05-2.93020E-05 5.49437E-06 6.68527E-21-8.52358E-19
 -1      3889 9.24834E-05-2.45755E-05-2.90962E-05 6.24554E-06 8.93221E-20-7.04114E-19
 -1      3890 9.19596E-05-2.33969E-05-2.93776E-05 4.74628E-06 7.03584E-21-8.24543E-19
 -1      3891 9.06797E-05-2.37622E-05-2.86953E-05 5.33139E-06 1.72496E-19-1.06704E-18
 -1      3892 9.02598E-05-2.34834E-05-2.86146E-05 5.91467E-06-3.84948E-19-3.21469E-19
 -1      3893 8.86535E-05-2.25536E-05-2.83099E-05 5.57504E-06-5.01569E-19-6.44952E-19
 -1      3894 9.00519E-05-2.33364E-05-2.85770E-05 4.56556E-06 2.21587E-19-1.47740E-18
 -1      3895 1.06601E-04-4.43862E-05-2.64637E-05-1.69738E-05 1.60382E-18-6.08610E-19
 -1      3896 9.32282E-05-2.26293E-05-3.02462E-05 2.40565E-06-3.50852E-19-9.16345E-19
 -1      3897 9.31946E-05-2.31773E-05-3.00111E-05 3.25967E-06-2.55260E-19-9.30555E-19
 -1      3898 9.24404E-05-2.26927E-05-2.98881E-05 3.31629E-06-2.26300E-19-9.58010E-19
 -1      3899 1.12505E-04-4.96515E-05-2.68500E-05 1.75353E-05 6.26143E-19 3.34198E-19
 -1      3900 8.86734E-05-2.29616E-05-2.81498E-05-9.17073E-06 1.09646E-19-1.07332E-18
 -1      3901 8.91745E-05-2.28974E-05-2.84263E-05-8.32435E-06 1.82571E-19-1.15448E-18
 -1      3902 7.25702E-05-2.03984E-05-2.23680E-05 1.41484E-05-1.05614E-20-4.11168E-19
 -1      3903 9.12772E-05-2.39327E-05-2.88582E-05 6.24567E-06 2.53966E-19-4.87991E-19
 -1      3904 6.51306E-05-1.86776E-05-1.96135E-05-1.58611E-05-8.45121E-19-2.27063E-18
 -1      3905 7.09539E-05-2.22007E-05-2.07696E-05-1.86056E-05-1.24443E-18-1.69311E-18
 -1      3906 6.44695E-05-1.71341E-05-2.02825E-05-1.10944E-05-3.94499E-19-1.82455E-18
 -1      3907 6.87328E-05-1.81692E-05-2.17143E-05-1.16294E-05 7.69407E-19 1.56241E-18
 -1      3908 7.08501E-05-2.05538E-05-2.14499E-05-1.63187E-05 3.61518E-19 1.28587E-18
 -1      3909 7.70206E-05-2.32173E-05-2.29554E-05-1.61067E-05 7.53403E-19 6.16693E-19
 -1      3910 8.16298E-05-2.33074E-05-2.49357E-05 1.48056E-05 1.53789E-19-1.04686E-18
 -1      3911 1.00419E-04-3.90130E-05-2.62204E-05 1.73262E-05 8.20404E-19-3.04649E-19
 -1      3912 1.04384E-04-4.26672E-05-2.63782E-05 1.73467E-05 8.11358E-19-1.55507E-19
 -1      3913 9.13689E-05-2.31716E-05-2.92282E-05-6.10296E-06 3.31034E-19-1.06823E-18
 -1      3914 9.18017E-05-2.31618E-05-2.94270E-05-5.33508E-06 5.36586E-19-9.86860E-19
 -1      3915 9.16001E-05-2.38666E-05-2.90203E-05-7.99054E-06 2.51841E-19-1.06100E-18
 -1      3916 8.79964E-05-3.15990E-05-2.40615E-05-1.97741E-05 1.01839E-18 1.45776E-18
 -1      3917 9.15419E-05-3.54681E-05-2.38505E-05-2.21789E-05 1.68285E-18 1.80531E-18
 -1      3918 9.23572E-05-2.31442E-05-2.96668E-05-4.64731E-06 5.68107E-19-9.62723E-19
 -1      3919 9.26670E-05-2.29866E-05-2.98682E-05-3.82830E-06 6.68726E-19-9.58947E-19
 -1      3920 9.12998E-05-2.24377E-05-2.94968E-05-4.39603E-06 5.08443E-19-9.73843E-19
 -1      3921 9.51551E-05-2.83419E-05-2.86337E-05-6.05724E-08 1.53591E-18-3.86693E-18
 -1      3922 9.51661E-05-2.83684E-05-2.86278E-05-4.65790E-08 6.25098E-19-4.46905E-18
 -1      3923 9.51573E-05-2.83569E-05-2.86291E-05-3.57706E-08 1.48021E-18-4.80101E-18
 -1      3924 8.39978E-05-2.70479E-05-2.43986E-05-1.86771E-05-8.13378E-19-1.10498E-18
 -1      3925 8.75288E-05-2.79701E-05-2.54515E-05-1.74699E-05-5.29140E-19-1.23707E-18
 -1      3926 8.66661E-05-2.60321E-05-2.59972E-05-1.57316E-05-5.47286E-19-9.21401E-19
 -1      3927 9.33601E-05-2.21339E-05-3.05340E-05-1.61141E-06 9.91667E-19-1.05416E-18
 -1      3928 9.37096E-05-3.90127E-05-2.31894E-05 2.53104E-05 1.18256E-18-3.09958E-19
 -1      3929 8.91766E-05-3.45728E-05-2.32728E-05 2.31902E-05 7.60384E-19-4.25475E-19
 -1      3930 7.18294E-05-2.21673E-05-2.10205E-05 1.83430E-05 7.00591E-19-8.40363E-19
 -1      3931 6.95681E-05-1.97910E-05-2.13437E-05 1.40183E-05 4.39554E-19-1.23558E-18
 -1      3932 9.27154E-05-2.15413E-05-3.05079E-05 1.59594E-06-2.68263E-19-1.16805E-18
 -1      3933 9.95617E-05-4.10940E-05-2.51978E-05-2.05950E-05 1.78078E-18 1.43697E-18
 -1      3934 9.22034E-05-2.08896E-05-3.05740E-05-1.15219E-06 9.40217E-19-1.09386E-18
 -1      3935 9.14779E-05-1.99194E-05-3.06741E-05-7.56481E-07 7.81923E-19-1.19595E-18
 -1      3936 9.51440E-05-2.83347E-05-2.86330E-05 2.85370E-08 1.55917E-18-2.96948E-18
 -1      3937 9.51509E-05-2.83434E-05-2.86323E-05 4.11621E-08 5.43492E-19-2.53304E-18
 -1      3938 9.49117E-05-3.59295E-05-2.54668E-05 1.90409E-05 7.27618E-19-4.09329E-19
 -1      3939 8.31134E-05-2.15995E-05-2.63311E-05 1.07288E-05 2.82923E-19-1.08707E-18
 -1      3940 6.49057E-05-1.53085E-05-2.13463E-05 4.54987E-06 7.61337E-19 1.82344E-18
 -1      3941 6.15700E-05-1.40182E-05-2.01282E-05-1.30630E-07 1.87793E-19 2.12000E-18
 -1      3942 6.47018E-05-1.52556E-05-2.11576E-05-4.09419E-06 5.74391E-19 1.68391E-18
 -1      3943 9.51543E-05-2.83421E-05-2.86342E-05 6.31642E-08-2.88333E-19-2.07048E-18
 -1      3944 9.51675E-05-2.83581E-05-2.86332E-05 7.54843E-08-7.27827E-19-7.17684E-19
 -1      3945 9.51443E-05-2.83005E-05-2.86465E-05 1.14637E-07-9.00196E-19 6.79742E-19
 -1      3946 9.51273E-05-2.82915E-05-2.86432E-05 6.86349E-08 1.96139E-19-1.26922E-18
 -1      3947 8.93631E-05-2.59438E-05-2.72027E-05-1.40234E-05-2.58076E-19-8.10647E-19
 -1      3948 6.06358E-05-1.45485E-05-1.95145E-05 2.58970E-06 3.89758E-19-1.77013E-18
 -1      3949 6.32296E-05-1.52504E-05-2.05476E-05-2.32175E-06 1.51837E-19-1.69522E-18
 -1      3950 6.48763E-05-1.61499E-05-2.08666E-05 6.19609E-06 4.89214E-19-1.60987E-18
 -1      3951 9.51403E-05-2.83312E-05-2.86328E-05 4.93882E-10 2.00252E-18 3.90515E-19
 -1      3952 9.51409E-05-2.83311E-05-2.86330E-05 1.20581E-08 1.35557E-18-2.65750E-18
 -1      3953 9.51202E-05-2.82893E-05-2.86412E-05 2.76373E-08 1.00429E-18-2.39513E-18
 -1      3954 9.13245E-05-2.03717E-05-3.03911E-05-9.90081E-07 6.75730E-19-1.14623E-18
 -1      3955 9.10966E-05-1.95268E-05-3.06845E-05-3.68995E-07 8.14523E-19-1.15818E-18
 -1      3956 9.08582E-05-1.92691E-05-3.06963E-05-1.92867E-07 7.41854E-19-1.10440E-18
 -1      3957 8.72417E-05-2.32795E-05-2.73853E-05-1.11276E-05-1.22673E-19-1.08979E-18
 -1      3958 8.76044E-05-2.29400E-05-2.77434E-05-1.01079E-05 5.59604E-20-1.13469E-18
 -1      3959 8.63191E-05-2.18234E-05-2.76169E-05-8.66203E-06 3.83038E-20-9.80466E-19
 -1      3960 9.21064E-05-1.98929E-05-3.09255E-05 5.27985E-07-1.47596E-19-1.42698E-18
 -1      3961 7.67204E-05-2.56607E-05-2.18028E-05 2.00105E-05 7.82688E-19-3.09868E-19
 -1      3962 1.06444E-04-4.55615E-05-2.60213E-05 1.91832E-05 8.72822E-19 7.77550E-20
 -1      3963 9.20665E-05-2.08357E-05-3.05442E-05 1.46650E-06-4.00570E-20-1.19808E-18
 -1      3964 7.64977E-05-2.10141E-05-2.38055E-05 1.33412E-05 3.55373E-20-7.91622E-19
 -1      3965 6.93064E-05-1.66741E-05-2.23433E-05 8.97165E-06 4.67635E-19 1.04223E-18
 -1      3966 6.95005E-05-1.63653E-05-2.28029E-05 5.03216E-06 4.28764E-19 1.58119E-18
 -1      3967 7.73394E-05-1.98162E-05-2.47512E-05 1.05147E-05 5.15284E-19-6.70013E-19
 -1      3968 8.08908E-05-1.99786E-05-2.61644E-05 8.04361E-06-2.22147E-19-4.78307E-19
 -1      3969 7.97646E-05-2.00353E-05-2.55916E-05 9.26113E-06 4.78990E-19-7.36928E-19
 -1      3970 7.59042E-05-1.81453E-05-2.46505E-05 7.52225E-06 1.01718E-20 4.36325E-19
 -1      3971 7.56333E-05-2.40005E-05-2.20324E-05-1.94995E-05-1.07643E-18-1.27623E-18
 -1      3972 8.05302E-05-2.56624E-05-2.34132E-05-1.87304E-05-8.06647E-19-1.23290E-18
 -1      3973 8.04570E-05-2.38355E-05-2.42838E-05-1.62366E-05-5.61285E-19-1.32622E-18
 -1      3974 7.26646E-05-2.07885E-05-2.21578E-05-1.56695E-05-7.78259E-19-1.60896E-18
 -1      3975 8.82948E-05-2.40057E-05-2.75778E-05 8.65637E-06 4.57954E-19-6.10888E-19
 -1      3976 8.81605E-05-2.45736E-05-2.72203E-05 9.75443E-06 3.01207E-19-3.87551E-19
 -1      3977 8.74190E-05-2.51123E-05-2.67314E-05 1.11656E-05 2.60910E-19-3.74181E-19
 -1      3978 8.76801E-05-2.61416E-05-2.63200E-05 1.25507E-05 3.59482E-19-4.41427E-19
 -1      3979 8.55935E-05-2.33766E-05-2.66482E-05 9.80074E-06 3.00308E-19 3.02839E-20
 -1      3980 8.70918E-05-2.71207E-05-2.57176E-05 1.45088E-05 5.41214E-19-3.52443E-19
 -1      3981 8.83680E-05-2.91107E-05-2.53368E-05 1.61906E-05 5.31136E-19-8.20100E-20
 -1      3982 8.42332E-05-2.46196E-05-2.54978E-05 1.31900E-05 4.09315E-19-2.20551E-19
 -1      3983 9.01064E-05-2.30305E-05-2.87424E-05-7.56306E-06 3.09186E-19-1.21310E-18
 -1      3984 9.06111E-05-2.30596E-05-2.89657E-05-6.79218E-06 2.83684E-19-1.22652E-18
 -1      3985 8.83177E-05-2.20677E-05-2.83712E-05-7.06952E-06 1.93342E-19-1.22322E-18
 -1      3986 9.27122E-05-2.55055E-05-2.88108E-05 1.90439E-06-6.00209E-19 2.43375E-18
 -1      3987 9.23705E-05-2.51721E-05-2.88007E-05 2.16413E-06-1.12970E-18 2.61955E-18
 -1      3988 8.60347E-05-2.87920E-05-2.45040E-05-1.76189E-05 9.75341E-19 1.68491E-18
 -1      3989 8.66658E-05-2.50909E-05-2.63418E-05-1.13458E-05-4.00000E-19 1.75118E-18
 -1      3990 8.64106E-05-2.42091E-05-2.66858E-05-1.00249E-05-5.75624E-19 1.63213E-18
 -1      3991 8.70934E-05-2.38285E-05-2.70851E-05-8.71539E-06-7.80687E-19 1.38516E-18
 -1      3992 8.72045E-05-2.34271E-05-2.73587E-05-7.69908E-06-1.29476E-19 9.52340E-19
 -1      3993 8.46383E-05-2.26370E-05-2.65579E-05-8.77850E-06-9.07668E-19 6.96450E-19
 -1      3994 8.79232E-05-2.33571E-05-2.76548E-05-6.74142E-06 3.93897E-19 7.65853E-19
 -1      3995 8.82237E-05-2.32671E-05-2.78596E-05-5.95749E-06 4.86720E-19 1.07008E-18
 -1      3996 8.60673E-05-2.23738E-05-2.72820E-05-6.58192E-06-1.35151E-19 1.26535E-18
 -1      3997 8.89192E-05-2.33956E-05-2.80721E-05-5.24932E-06 4.42580E-19 9.79716E-19
 -1      3998 8.92990E-05-2.34971E-05-2.82177E-05-4.63753E-06 9.89831E-19 8.86850E-19
 -1      3999 8.74930E-05-2.25708E-05-2.78088E-05-4.98118E-06 4.78020E-19 6.29855E-19
 -1      4000 8.99365E-05-2.37396E-05-2.83649E-05-4.10408E-06 6.70082E-19 3.94966E-19
 -1      4001 9.03318E-05-2.39502E-05-2.84628E-05-3.61883E-06 5.76907E-19 3.17299E-19
 -1      4002 8.88260E-05-2.30408E-05-2.81802E-05-3.80673E-06 5.10379E-19 3.35309E-19
 -1      4003 9.08980E-05-2.42503E-05-2.85604E-05-3.20898E-06 6.72086E-19 2.12020E-19
 -1      4004 9.12731E-05-2.45145E-05-2.86218E-05-2.81930E-06 4.52934E-19 1.24902E-19
 -1      4005 9.00250E-05-2.36539E-05-2.84331E-05-2.92272E-06 4.21352E-19-2.94935E-19
 -1      4006 9.17630E-05-2.48333E-05-2.86826E-05-2.50033E-06 2.51909E-19 2.67296E-19
 -1      4007 9.20994E-05-2.51139E-05-2.87171E-05-2.18535E-06-1.77144E-19 2.59308E-19
 -1      4008 9.10751E-05-2.43251E-05-2.85972E-05-2.24487E-06 2.20115E-19-1.37136E-18
 -1      4009 9.25140E-05-2.54253E-05-2.87514E-05-1.93589E-06-8.68358E-19 8.94722E-19
 -1      4010 9.28031E-05-2.56972E-05-2.87669E-05-1.68122E-06-6.09984E-19 6.93614E-19
 -1      4011 9.19735E-05-2.49961E-05-2.86964E-05-1.71877E-06-2.71168E-19-6.39444E-19
 -1      4012 9.31460E-05-2.59851E-05-2.87827E-05-1.48458E-06-4.77916E-19 2.23279E-20
 -1      4013 9.33876E-05-2.62356E-05-2.87852E-05-1.27963E-06-8.47688E-19-2.79463E-19
 -1      4014 9.27250E-05-2.56268E-05-2.87496E-05-1.30885E-06-6.30533E-19-1.31201E-18
 -1      4015 9.36641E-05-2.64902E-05-2.87885E-05-1.12666E-06-1.04611E-18 1.66246E-19
 -1      4016 9.38596E-05-2.67104E-05-2.87829E-05-9.62197E-07-7.38124E-19-4.77696E-19
 -1      4017 9.33402E-05-2.61957E-05-2.87706E-05-9.87370E-07-7.52436E-19-2.96710E-19
 -1      4018 9.40792E-05-2.69291E-05-2.87784E-05-8.42830E-07-1.09467E-18 4.91132E-19
 -1      4019 9.42334E-05-2.71165E-05-2.87681E-05-7.12460E-07-1.47894E-18-9.17218E-20
 -1      4020 9.38315E-05-2.66891E-05-2.87708E-05-7.36679E-07-4.66449E-19 1.44079E-18
 -1      4021 9.44041E-05-2.72991E-05-2.87591E-05-6.19585E-07-1.18453E-18-4.30336E-19
 -1      4022 9.45233E-05-2.74547E-05-2.87466E-05-5.17191E-07-9.49588E-19-3.14829E-19
 -1      4023 9.42178E-05-2.71071E-05-2.87583E-05-5.41923E-07-1.16084E-18 9.50679E-19
 -1      4024 9.46536E-05-2.76041E-05-2.87353E-05-4.46156E-07-1.90690E-19-9.92517E-19
 -1      4025 9.47435E-05-2.77303E-05-2.87221E-05-3.66947E-07 6.44838E-19-9.81454E-19
 -1      4026 9.45160E-05-2.74529E-05-2.87387E-05-3.90451E-07-8.19507E-19 1.02693E-18
 -1      4027 9.48403E-05-2.78497E-05-2.87101E-05-3.13135E-07 4.61344E-19-2.41212E-19
 -1      4028 9.49064E-05-2.79502E-05-2.86972E-05-2.52688E-07 1.04861E-18 3.05174E-19
 -1      4029 9.47409E-05-2.77327E-05-2.87158E-05-2.75461E-07 8.78681E-19 1.89183E-18
 -1      4030 9.49767E-05-2.80439E-05-2.86853E-05-2.12708E-07 1.81278E-18-7.91774E-19
 -1      4031 9.50238E-05-2.81223E-05-2.86733E-05-1.67358E-07 1.80924E-18-1.53241E-18
 -1      4032 9.49064E-05-2.79547E-05-2.86921E-05-1.88308E-07 6.80191E-19 1.46949E-18
 -1      4033 9.50734E-05-2.81946E-05-2.86622E-05-1.37737E-07 1.32798E-18-2.73549E-18
 -1      4034 9.51058E-05-2.82543E-05-2.86514E-05-1.05173E-07 1.58287E-18-2.42206E-18
 -1      4035 9.50246E-05-2.81276E-05-2.86691E-05-1.23939E-07 8.73667E-19-8.25703E-19
 -1      4036 9.51253E-05-2.82847E-05-2.86456E-05-9.02339E-08 1.82455E-18-2.65988E-18
 -1      4037 9.51392E-05-2.83150E-05-2.86393E-05-7.19776E-08 1.71645E-18-2.73784E-18
 -1      4038 9.51267E-05-2.82990E-05-2.86407E-05-5.64622E-08 1.60880E-18-5.16963E-18
 -1      4039 9.50911E-05-2.82351E-05-2.86522E-05-8.20280E-08 1.25945E-18-2.60702E-18
 -1      4040 9.93553E-05-4.21383E-05-2.46707E-05 2.29042E-05 1.02360E-18-4.67271E-19
 -1      4041 8.60910E-05-2.13082E-05-2.77927E-05 5.31261E-06-6.49631E-19-2.96204E-19
 -1      4042 8.51848E-05-2.09722E-05-2.75242E-05 5.93518E-06-5.64154E-19 8.79010E-20
 -1      4043 9.32674E-05-2.26992E-05-3.02449E-05-2.55859E-06 9.21261E-19-1.04235E-18
 -1      4044 9.26611E-05-2.15697E-05-3.04600E-05-1.73637E-06 9.88020E-19-1.11459E-18
 -1      4045 9.21058E-05-2.14827E-05-3.02733E-05-2.02935E-06 8.32498E-19-1.01199E-18
 -1      4046 9.30244E-05-2.28730E-05-3.00737E-05-3.25711E-06 8.27304E-19-1.02940E-18
 -1      4047 7.26826E-05-2.03729E-05-2.24939E-05 1.30591E-05 5.77776E-19-1.18579E-18
 -1      4048 6.84073E-05-1.76397E-05-2.15167E-05 1.02579E-05 5.23589E-19-1.60907E-18
 -1      4049 6.83095E-05-1.68965E-05-2.20197E-05 5.76862E-06 6.21785E-19-1.70552E-18
 -1      4050 9.04786E-05-2.30752E-05-2.89031E-05 5.16054E-06 2.32782E-19-6.87328E-19
 -1      4051 9.01121E-05-2.32976E-05-2.86269E-05 5.91984E-06 3.83669E-19-7.48082E-19
 -1      4052 9.18862E-05-2.47843E-05-2.87679E-05 2.38895E-06-1.39654E-18 2.23393E-18
 -1      4053 9.14562E-05-2.44082E-05-2.87371E-05 2.69286E-06-1.01935E-18 1.60136E-18
 -1      4054 9.17579E-05-2.46966E-05-2.87300E-05 1.87560E-06-1.29716E-18 2.46314E-18
 -1      4055 9.08523E-05-2.39744E-05-2.86743E-05 2.95355E-06-1.04883E-18 9.59737E-19
 -1      4056 9.03192E-05-2.35654E-05-2.86119E-05 3.30600E-06-7.07911E-19 6.27988E-19
 -1      4057 9.06841E-05-2.38515E-05-2.86287E-05 2.30466E-06-1.41360E-18 2.55255E-18
 -1      4058 9.33622E-05-2.61282E-05-2.88209E-05 1.49384E-06-3.32352E-19 3.13298E-18
 -1      4059 9.30954E-05-2.58416E-05-2.88238E-05 1.71336E-06-3.13603E-19 2.96330E-18
 -1      4060 9.26153E-05-2.54417E-05-2.87801E-05 1.50419E-06-9.79520E-19 2.94231E-18
 -1      4061 9.38680E-05-2.66550E-05-2.88106E-05 1.15079E-06-1.17884E-18 4.72316E-18
 -1      4062 9.36623E-05-2.64134E-05-2.88211E-05 1.33291E-06-6.28421E-19 3.98665E-18
 -1      4063 9.32907E-05-2.60831E-05-2.87966E-05 1.18382E-06-1.30980E-18 3.82400E-18
 -1      4064 9.42555E-05-2.70910E-05-2.87888E-05 8.69147E-07-2.56287E-18 5.18259E-18
 -1      4065 9.40993E-05-2.68916E-05-2.88032E-05 1.01786E-06-1.65850E-18 4.65918E-18
 -1      4066 9.38153E-05-2.66233E-05-2.87917E-05 9.14045E-07-2.02325E-18 5.24847E-18
 -1      4067 9.45482E-05-2.74453E-05-2.87616E-05 6.42221E-07-2.63967E-18 4.31039E-18
 -1      4068 9.44316E-05-2.72840E-05-2.87773E-05 7.61559E-07-2.34110E-18 4.78648E-18
 -1      4069 9.42176E-05-2.70688E-05-2.87745E-05 6.91626E-07-1.54398E-18 4.12797E-18
 -1      4070 9.47661E-05-2.77287E-05-2.87328E-05 4.62655E-07-2.06986E-18 2.27161E-18
 -1      4071 9.46805E-05-2.76001E-05-2.87484E-05 5.56560E-07-2.75625E-18 2.70343E-18
 -1      4072 9.45222E-05-2.74306E-05-2.87509E-05 5.10784E-07-1.40054E-18 8.76258E-19
 -1      4073 9.49247E-05-2.79514E-05-2.87047E-05 3.23361E-07-3.11837E-19 1.75013E-18
 -1      4074 9.48632E-05-2.78507E-05-2.87193E-05 3.96032E-07-9.70248E-19 2.19954E-18
 -1      4075 9.47489E-05-2.77195E-05-2.87248E-05 3.68024E-07-1.10314E-18-3.16432E-19
 -1      4076 9.50371E-05-2.81239E-05-2.86786E-05 2.17336E-07 8.34923E-20 1.73128E-18
 -1      4077 9.49944E-05-2.80457E-05-2.86918E-05 2.72583E-07-3.85278E-19 1.33362E-18
 -1      4078 9.49142E-05-2.79470E-05-2.86988E-05 2.56780E-07-2.17380E-19-5.69176E-19
 -1      4079 9.51123E-05-2.82499E-05-2.86563E-05 1.41593E-07 2.11194E-19 1.50861E-18
 -1      4080 9.50824E-05-2.81893E-05-2.86679E-05 1.82433E-07 1.26880E-18 1.59900E-18
 -1      4081 9.50247E-05-2.81133E-05-2.86754E-05 1.75540E-07 3.57037E-19-3.57358E-19
 -1      4082 9.51011E-05-2.82386E-05-2.86549E-05 1.16839E-07 7.92203E-19-4.63601E-19
 -1      4083 9.11558E-05-1.98555E-05-3.05706E-05 9.87614E-07 2.06575E-19-1.18284E-18
 -1      4084 9.15420E-05-2.02614E-05-3.05565E-05 1.12566E-06 1.25235E-21-1.19035E-18
 -1      4085 9.20345E-05-2.16327E-05-3.01539E-05 2.19332E-06-1.06380E-19-1.09335E-18
 -1      4086 8.60353E-05-2.44127E-05-2.63685E-05-1.37685E-05-1.93494E-19-1.00559E-18
 -1      4087 8.60838E-05-2.35243E-05-2.68439E-05-1.24209E-05 1.01795E-20-8.71138E-19
 -1      4088 8.40577E-05-2.18944E-05-2.66265E-05-1.07407E-05-4.99759E-20-8.78538E-19
 -1      4089 8.68353E-05-3.12252E-05-2.37529E-05 2.07200E-05 5.58813E-19-2.17201E-19
 -1      4090 9.51490E-05-2.83445E-05-2.86308E-05-2.45134E-08 1.05512E-18-3.15595E-18
 -1      4091 9.51450E-05-2.83391E-05-2.86315E-05-1.39296E-08 1.28497E-18 1.39477E-19
 -1      4092 9.51201E-05-2.82932E-05-2.86399E-05-5.29065E-09 1.15557E-19-5.53774E-19
 -1      4093 9.51342E-05-2.83138E-05-2.86368E-05-3.33831E-08 1.16287E-18-3.10996E-18
 -1      4094 8.37472E-05-2.05288E-05-2.71336E-05 6.45240E-06-3.73228E-19-9.06681E-20
 -1      4095 8.27102E-05-2.03268E-05-2.67369E-05 7.28906E-06-3.83640E-19-5.20793E-19
 -1      4096 7.99469E-05-1.89484E-05-2.60837E-05 5.82964E-06-3.46942E-19 8.06005E-20
 -1      4097 8.31562E-05-1.99152E-05-2.70633E-05 4.81157E-06-5.93961E-19 1.38410E-19
 -1      4098 9.13746E-05-2.26538E-05-2.94644E-05 3.80411E-06-5.45805E-20-8.34385E-19
 -1      4099 9.10653E-05-2.29171E-05-2.92034E-05 4.50102E-06 7.87782E-20-8.43892E-19
 -1      4100 8.99867E-05-2.23183E-05-2.89874E-05 4.17734E-06 2.50354E-19-9.27830E-19
 -1      4101 8.93933E-05-2.34344E-05-2.82886E-05 6.72604E-06 3.95958E-19-6.57445E-19
 -1      4102 8.90754E-05-2.37525E-05-2.79788E-05 7.61539E-06 4.29966E-19-6.07038E-19
 -1      4103 8.71618E-05-2.28001E-05-2.75724E-05 7.37379E-06 5.07767E-19-4.66041E-19
 -1      4104 9.07754E-05-1.91769E-05-3.06993E-05 2.10104E-07 6.84006E-19-1.15747E-18
 -1      4105 9.08297E-05-1.92403E-05-3.06973E-05 3.38150E-07 4.69015E-19-1.31189E-18
 -1      4106 9.08649E-05-1.98763E-05-3.04031E-05-8.84620E-08 6.41474E-19-1.09968E-18
 -1      4107 9.18433E-05-2.20004E-05-2.99421E-05 2.66750E-06-6.04930E-20-1.06839E-18
 -1      4108 9.16684E-05-2.24140E-05-2.96779E-05 3.33965E-06-3.40459E-20-8.36351E-19
 -1      4109 9.08436E-05-2.19551E-05-2.95095E-05 3.09429E-06 1.93127E-20-9.26489E-19
 -1      4110 9.12687E-05-2.13753E-05-2.99448E-05 2.20887E-06-7.18510E-21-8.26585E-19
 -1      4111 8.16998E-05-2.55501E-05-2.40587E-05-1.65480E-05 9.33462E-19 7.63772E-19
 -1      4112 8.72797E-05-2.77902E-05-2.54162E-05-1.49664E-05 8.22289E-19 1.50417E-18
 -1      4113 8.62720E-05-2.60993E-05-2.58059E-05-1.32693E-05 4.10852E-19 1.45945E-18
 -1      4114 7.84227E-05-2.26273E-05-2.39691E-05-1.38527E-05 4.12187E-19 1.00443E-19
 -1      4115 9.03620E-05-2.19585E-05-2.93246E-05-3.92545E-06 5.39803E-19-1.19944E-18
 -1      4116 9.09263E-05-2.19212E-05-2.95829E-05-3.31318E-06 5.59814E-19-1.09621E-18
 -1      4117 6.47187E-05-1.56849E-05-2.08121E-05-6.34252E-06 9.23018E-20-1.26556E-18
 -1      4118 6.73974E-05-1.75042E-05-2.14059E-05-1.03325E-05-2.92766E-19-1.49067E-18
 -1      4119 6.65506E-05-1.58867E-05-2.16662E-05-2.15445E-06 1.72214E-19-1.49469E-18
 -1      4120 6.80184E-05-1.63715E-05-2.19874E-05-7.54741E-06 6.02831E-19 2.27939E-18
 -1      4121 7.25469E-05-1.85145E-05-2.31108E-05-9.56016E-06 4.54559E-19 1.80696E-18
 -1      4122 6.85493E-05-1.59660E-05-2.26141E-05-2.92916E-06 6.46197E-19 1.58810E-18
 -1      4123 8.99972E-05-2.23471E-05-2.89745E-05-5.70591E-06 4.39735E-19-1.16277E-18
 -1      4124 8.93503E-05-2.29210E-05-2.84519E-05 2.79206E-06-9.52324E-19 6.55115E-19
 -1      4125 8.95712E-05-2.30959E-05-2.85051E-05 3.60820E-06-2.42733E-20-6.59938E-19
 -1      4126 8.89217E-05-2.26725E-05-2.83963E-05 4.01912E-06 1.62669E-19-1.16631E-18
 -1      4127 8.67225E-05-2.13021E-05-2.80403E-05-6.10523E-06 8.34294E-21-1.01773E-18
 -1      4128 8.76691E-05-2.14928E-05-2.83841E-05-5.46069E-06 1.76524E-19-1.13807E-18
 -1      4129 8.34587E-05-2.37713E-05-2.55728E-05-1.20390E-05 2.32641E-19 1.94783E-19
 -1      4130 9.22057E-05-2.22703E-05-2.99580E-05-3.19023E-06 6.78003E-19-8.90701E-19
 -1      4131 9.10498E-05-2.03650E-05-3.02810E-05 1.05212E-06 2.68423E-19-9.79651E-19
 -1      4132 8.95424E-05-2.18585E-05-2.90227E-05-4.38801E-06 4.93042E-19-1.14766E-18
 -1      4133 8.93304E-05-2.13553E-05-2.91081E-05-3.26148E-06 4.75139E-19-1.30405E-18
 -1      4134 8.87775E-05-2.17385E-05-2.87378E-05-4.98687E-06 3.87204E-19-1.35567E-18
 -1      4135 9.18169E-05-2.17327E-05-3.00401E-05-2.44441E-06 6.86091E-19-1.05733E-18
 -1      4136 9.14530E-05-2.11018E-05-3.01433E-05-1.85017E-06 7.03182E-19-1.12880E-18
 -1      4137 9.14348E-05-2.18742E-05-2.98239E-05-2.97340E-06 5.89119E-19-1.03875E-18
 -1      4138 7.94255E-05-2.39459E-05-2.36963E-05 1.58167E-05 3.80189E-19-2.30889E-19
 -1      4139 7.72710E-05-2.19788E-05-2.37311E-05 1.28680E-05 5.05910E-19-6.71922E-19
 -1      4140 8.80001E-05-2.21865E-05-2.82266E-05 4.37741E-06 2.26304E-19-1.05877E-18
 -1      4141 8.72251E-05-2.17812E-05-2.80513E-05 4.86911E-06-4.09040E-19-5.17224E-19
 -1      4142 8.56784E-05-2.09142E-05-2.77262E-05 4.02557E-06-3.75060E-19 4.94652E-19
 -1      4143 8.77035E-05-2.19283E-05-2.81663E-05 3.35301E-06 2.56270E-19-1.02273E-20
 -1      4144 8.32222E-05-2.35070E-05-2.56138E-05-1.41033E-05-1.74582E-19-1.03106E-18
 -1      4145 9.50917E-05-2.82404E-05-2.86504E-05 5.72178E-08 4.07767E-19-1.03376E-18
 -1      4146 9.50928E-05-2.82389E-05-2.86525E-05 8.23056E-08 2.32811E-19-6.71185E-19
 -1      4147 9.50603E-05-2.81821E-05-2.86623E-05 1.08316E-07 1.09451E-18-1.39979E-18
 -1      4148 8.86756E-05-2.25309E-05-2.83340E-05 5.58120E-06 4.07757E-19-8.21355E-19
 -1      4149 9.10094E-05-2.07004E-05-3.01483E-05-1.33723E-06 7.32998E-19-1.21289E-18
 -1      4150 8.14589E-05-2.72362E-05-2.32204E-05 1.95083E-05 5.99094E-19-6.82159E-20
 -1      4151 8.42082E-05-2.08474E-05-2.71511E-05-7.46792E-06-1.53145E-19-7.42599E-19
 -1      4152 8.52963E-05-2.09899E-05-2.75939E-05-6.67488E-06-2.76940E-20-9.61320E-19
 -1      4153 8.49266E-05-2.03839E-05-2.76220E-05-4.95873E-06-7.84130E-20-6.48673E-19
 -1      4154 9.50822E-05-2.82309E-05-2.86504E-05 1.27906E-08 2.42783E-19-1.23117E-18
 -1      4155 9.50852E-05-2.82353E-05-2.86504E-05 3.31185E-08 5.26508E-19-2.07761E-18
 -1      4156 9.50525E-05-2.81778E-05-2.86598E-05 4.33933E-08 9.35029E-20-2.05530E-18
 -1      4157 8.23829E-05-2.14015E-05-2.61069E-05-8.03903E-06-7.18944E-20 4.74470E-19
 -1      4158 8.30353E-05-2.12542E-05-2.65394E-05-6.87731E-06-4.48161E-19 1.31265E-18
 -1      4159 8.39194E-05-2.17981E-05-2.66699E-05 7.53727E-06 4.27737E-19-6.30414E-19
 -1      4160 8.30500E-05-2.20674E-05-2.61364E-05 8.94905E-06 3.71406E-19-4.99346E-19
 -1      4161 8.06653E-05-2.23700E-05-2.49198E-05-1.35871E-05-2.01396E-19-1.15654E-18
 -1      4162 8.01268E-05-2.09913E-05-2.53729E-05-1.13476E-05 1.56032E-19-8.28676E-19
 -1      4163 7.71058E-05-2.11534E-05-2.40063E-05-1.36186E-05-2.27885E-19-1.28978E-18
 -1      4164 8.08858E-05-2.17527E-05-2.54159E-05 9.74448E-06 3.19429E-19-6.79759E-19
 -1      4165 8.00212E-05-2.23589E-05-2.47284E-05 1.17168E-05 4.27328E-19-7.37960E-19
 -1      4166 7.45784E-05-1.89342E-05-2.37294E-05 8.70605E-06 6.44627E-19-1.69022E-18
 -1      4167 7.97942E-05-2.01575E-05-2.54874E-05 7.22130E-06 3.84191E-19-1.43949E-18
 -1      4168 8.02554E-05-2.21152E-05-2.48664E-05-1.15067E-05 2.46894E-19 3.64406E-20
 -1      4169 8.07301E-05-2.14392E-05-2.54693E-05-9.58226E-06 5.71747E-20-2.45224E-19
 -1      4170 7.95139E-05-1.99416E-05-2.54747E-05-7.38561E-06 2.63813E-19 5.90192E-19
 -1      4171 7.59404E-05-2.00833E-05-2.38781E-05-1.10937E-05 1.98649E-19 4.40171E-19
 -1      4172 9.32733E-05-2.61300E-05-2.87806E-05 8.35115E-07-1.63150E-18 2.00555E-18
 -1      4173 9.29705E-05-2.58284E-05-2.87777E-05 9.64584E-07-8.34515E-19 1.94648E-18
 -1      4174 9.06383E-05-2.13829E-05-2.96611E-05-2.55478E-06 6.31285E-19-1.28666E-18
 -1      4175 8.96105E-05-2.17646E-05-2.90977E-05 3.00360E-06 2.37424E-19-6.67903E-19
 -1      4176 8.90322E-05-2.18621E-05-2.87855E-05 3.58301E-06 4.49700E-19-6.82891E-19
 -1      4177 8.43800E-05-2.14151E-05-2.69729E-05-5.84313E-06-1.13855E-18 1.86246E-18
 -1      4178 8.51039E-05-2.15187E-05-2.72905E-05-5.01078E-06-1.68517E-21 1.62435E-18
 -1      4179 8.22897E-05-2.01543E-05-2.65558E-05-5.03755E-06-4.27979E-19 2.67218E-18
 -1      4180 8.62169E-05-2.18215E-05-2.75954E-05-4.32280E-06 7.87807E-19 8.00390E-19
 -1      4181 8.69184E-05-2.20686E-05-2.78218E-05-3.72551E-06 4.79629E-19 1.23759E-18
 -1      4182 8.47548E-05-2.08694E-05-2.73096E-05-3.60128E-06-3.71978E-19 1.50427E-18
 -1      4183 8.78436E-05-2.24303E-05-2.80340E-05-3.23476E-06 8.25568E-21 8.96636E-19
 -1      4184 8.84836E-05-2.27549E-05-2.81907E-05-2.79238E-06-3.30634E-21 8.94439E-20
 -1      4185 8.67495E-05-2.16700E-05-2.78374E-05-2.60050E-06-1.09198E-19 1.89453E-18
 -1      4186 8.92600E-05-2.31485E-05-2.83347E-05-2.43713E-06 2.82478E-20-4.55249E-19
 -1      4187 8.98279E-05-2.35073E-05-2.84390E-05-2.10149E-06 2.42775E-19-7.57315E-19
 -1      4188 8.84243E-05-2.25264E-05-2.82010E-05-1.88634E-06-3.05479E-19 7.85472E-19
 -1      4189 9.04766E-05-2.39042E-05-2.85330E-05-1.84199E-06 1.60656E-19-9.75675E-19
 -1      4190 9.09682E-05-2.42664E-05-2.85985E-05-1.58277E-06 2.87224E-19-1.41165E-18
 -1      4191 8.98313E-05-2.33890E-05-2.84439E-05-1.37413E-06 8.24285E-21-8.10572E-19
 -1      4192 9.15047E-05-2.46450E-05-2.86562E-05-1.39139E-06 7.41921E-20-1.12020E-18
 -1      4193 9.19216E-05-2.49904E-05-2.86939E-05-1.18831E-06 6.60969E-20-2.02892E-19
 -1      4194 9.10036E-05-2.42178E-05-2.85989E-05-1.00485E-06 2.95624E-19-6.82632E-19
 -1      4195 9.23607E-05-2.53363E-05-2.87264E-05-1.04620E-06-5.45089E-19-8.57289E-19
 -1      4196 9.27111E-05-2.56517E-05-2.87446E-05-8.82489E-07-7.85211E-19-1.02183E-18
 -1      4197 9.19665E-05-2.49892E-05-2.86911E-05-7.40339E-07-4.99323E-19-3.99561E-19
 -1      4198 9.30613E-05-2.59620E-05-2.87588E-05-7.89435E-07-2.90076E-19-1.45189E-18
 -1      4199 9.33383E-05-2.62339E-05-2.87639E-05-6.62660E-07 4.29844E-20-6.53921E-19
 -1      4200 9.27726E-05-2.56941E-05-2.87406E-05-5.45956E-07-2.15850E-19-6.94619E-19
 -1      4201 9.36206E-05-2.64998E-05-2.87669E-05-5.84384E-07 2.69093E-19-5.65712E-20
 -1      4202 9.38387E-05-2.67343E-05-2.87637E-05-4.87652E-07-4.70452E-19 2.34950E-19
 -1      4203 9.33907E-05-2.62711E-05-2.87586E-05-3.90796E-07 2.44735E-19-1.81085E-18
 -1      4204 9.40580E-05-2.69550E-05-2.87595E-05-4.27513E-07-9.71669E-19 4.85794E-19
 -1      4205 9.42301E-05-2.71505E-05-2.87514E-05-3.50448E-07-8.86018E-19 6.05096E-19
 -1      4206 9.38797E-05-2.67625E-05-2.87575E-05-2.75539E-07-9.00976E-20-2.17700E-18
 -1      4207 9.43980E-05-2.73338E-05-2.87429E-05-3.08343E-07-1.01266E-18 1.56781E-18
 -1      4208 9.45299E-05-2.74936E-05-2.87321E-05-2.48901E-07-6.95345E-20 2.27109E-18
 -1      4209 9.42686E-05-2.71827E-05-2.87452E-05-1.96483E-07-4.55639E-19 1.88834E-20
 -1      4210 9.46555E-05-2.76407E-05-2.87215E-05-2.17884E-07 6.99569E-19 1.36418E-18
 -1      4211 9.47544E-05-2.77682E-05-2.87097E-05-1.71919E-07 9.66783E-19 1.94190E-18
 -1      4212 9.45593E-05-2.75236E-05-2.87261E-05-1.39511E-07-2.09451E-19 1.77875E-18
 -1      4213 9.48462E-05-2.78849E-05-2.86982E-05-1.51263E-07 4.99234E-19 1.42483E-18
 -1      4214 9.49169E-05-2.79846E-05-2.86865E-05-1.16929E-07 4.45016E-19 3.74006E-19
 -1      4215 9.47800E-05-2.78002E-05-2.87041E-05-9.38836E-08 2.52420E-19-4.71789E-19
 -1      4216 9.05917E-05-2.01780E-05-3.01738E-05 4.77534E-07 5.84639E-19-9.34415E-19
 -1      4217 9.08405E-05-2.07536E-05-3.00526E-05 1.20509E-06 2.11030E-19-7.39273E-19
 -1      4218 9.06791E-05-2.10652E-05-2.98322E-05 1.58466E-06 2.18743E-19-6.88922E-19
 -1      4219 9.17216E-05-2.47466E-05-2.87127E-05 1.31177E-06-9.04950E-19 2.03473E-18
 -1      4220 9.12383E-05-2.43432E-05-2.86749E-05 1.47826E-06-5.55872E-19 2.11989E-18
 -1      4221 8.61808E-05-2.17792E-05-2.76405E-05 5.57628E-06 4.90469E-19-8.64364E-19
 -1      4222 8.53747E-05-2.18732E-05-2.72123E-05 6.53757E-06 5.17985E-19-7.50927E-19
 -1      4223 8.32268E-05-2.07827E-05-2.67678E-05 5.67955E-06 5.60275E-19-1.29397E-18
 -1      4224 7.29971E-05-1.71394E-05-2.39851E-05 4.91867E-06 3.97096E-19 1.13766E-18
 -1      4225 6.99808E-05-1.57230E-05-2.31136E-05 1.01091E-06 6.18613E-19 1.38529E-18
 -1      4226 7.22375E-05-1.67104E-05-2.37934E-05-2.09382E-06 6.73921E-19 1.71741E-18
 -1      4227 7.53965E-05-1.75518E-05-2.48586E-05 4.04203E-06-2.01170E-20 1.26135E-18
 -1      4228 9.25926E-05-2.54934E-05-2.87630E-05 1.05664E-06-1.20541E-18 2.80948E-18
 -1      4229 9.22043E-05-2.51418E-05-2.87462E-05 1.20110E-06-1.06864E-18 2.17512E-18
 -1      4230 9.26405E-05-2.55321E-05-2.87497E-05 6.90963E-07-7.38070E-19 1.35200E-18
 -1      4231 9.06380E-05-2.39015E-05-2.86132E-05 1.59403E-06-1.25355E-18 1.90010E-18
 -1      4232 9.00348E-05-2.34510E-05-2.85438E-05 1.77605E-06-1.71164E-18 1.93274E-18
 -1      4233 9.07144E-05-2.39163E-05-2.85980E-05 1.01409E-06-1.23658E-18 1.93283E-18
 -1      4234 9.37992E-05-2.66612E-05-2.87780E-05 6.48479E-07-1.38417E-18 1.49873E-18
 -1      4235 9.35714E-05-2.64121E-05-2.87833E-05 7.60852E-07-2.13838E-18 1.40220E-18
 -1      4236 9.33125E-05-2.61718E-05-2.87684E-05 5.48426E-07-1.49864E-18-4.85134E-19
 -1      4237 9.42072E-05-2.71029E-05-2.87629E-05 4.88960E-07-8.48952E-19 6.02213E-19
 -1      4238 9.40331E-05-2.68983E-05-2.87730E-05 5.80206E-07-9.75402E-19 1.11468E-18
 -1      4239 9.38236E-05-2.66871E-05-2.87665E-05 4.31495E-07-5.94911E-19-1.45544E-18
 -1      4240 9.45163E-05-2.74603E-05-2.87413E-05 3.60058E-07-4.00489E-19-1.41488E-18
 -1      4241 9.43853E-05-2.72948E-05-2.87536E-05 4.33850E-07-7.35133E-20-4.93812E-19
 -1      4242 9.42292E-05-2.71226E-05-2.87532E-05 3.31708E-07 6.40298E-19-2.42664E-18
 -1      4243 9.47477E-05-2.77458E-05-2.87169E-05 2.57663E-07-2.12779E-19-1.72909E-18
 -1      4244 9.46496E-05-2.76145E-05-2.87299E-05 3.15305E-07-8.45658E-19-1.60673E-18
 -1      4245 9.45319E-05-2.74765E-05-2.87332E-05 2.46676E-07-2.07231E-19-2.51958E-18
 -1      4246 9.49121E-05-2.79667E-05-2.86923E-05 1.78028E-07-4.05116E-19-2.13938E-18
 -1      4247 9.48420E-05-2.78646E-05-2.87049E-05 2.24170E-07-2.26211E-20-1.51485E-18
 -1      4248 9.47602E-05-2.77657E-05-2.87103E-05 1.73337E-07-4.55873E-19-1.99681E-18
 -1      4249 8.80994E-05-2.18407E-05-2.84265E-05 4.12352E-06 4.69487E-19-8.63413E-19
 -1      4250 8.73853E-05-2.18723E-05-2.80711E-05 4.84161E-06 4.24760E-19-8.87683E-19
 -1      4251 8.79113E-05-2.12153E-05-2.85371E-05 2.92072E-06 3.77041E-19-6.90693E-19
 -1      4252 7.18683E-05-1.77327E-05-2.32498E-05 5.94664E-06 6.84882E-19-1.52471E-18
 -1      4253 6.95413E-05-1.64103E-05-2.26943E-05 2.23702E-06 5.54578E-19-1.63206E-18
 -1      4254 7.50633E-05-1.84256E-05-2.42863E-05 5.47236E-06 4.90986E-19-1.72777E-18
 -1      4255 8.74289E-05-2.10034E-05-2.84387E-05-4.07891E-06 1.69747E-19-9.77015E-19
 -1      4256 9.06222E-05-2.10014E-05-2.98336E-05-1.50668E-06 7.72320E-19-1.23541E-18
 -1      4257 9.06264E-05-2.04152E-05-3.00827E-05-6.72890E-07 7.22742E-19-1.08470E-18
 -1      4258 9.04664E-05-2.02970E-05-3.00829E-05-1.55092E-07 5.87163E-19-1.17858E-18
 -1      4259 8.12343E-05-2.05760E-05-2.59611E-05-9.33007E-06 1.37120E-19-1.02302E-18
 -1      4260 8.24119E-05-2.05395E-05-2.65576E-05-8.24759E-06-4.94844E-20-8.65709E-19
 -1      4261 8.17420E-05-1.96686E-05-2.65608E-05-6.07897E-06-4.54672E-20-8.34785E-19
 -1      4262 9.00901E-05-2.11004E-05-2.95856E-05-1.76245E-06 6.27957E-19-1.29488E-18
 -1      4263 7.18096E-05-1.90627E-05-2.25272E-05-1.15595E-05-2.96733E-19-1.28114E-18
 -1      4264 8.92907E-05-2.29619E-05-2.84415E-05 1.89938E-06-1.81431E-18 2.19741E-18
 -1      4265 8.85411E-05-2.24718E-05-2.83264E-05 2.09722E-06-1.10742E-18 1.32403E-18
 -1      4266 8.93914E-05-2.29646E-05-2.84293E-05 1.16627E-06-1.68380E-18 2.55498E-18
 -1      4267 9.50001E-05-2.81046E-05-2.86692E-05 3.52776E-08 3.44537E-20-1.18430E-18
 -1      4268 9.50067E-05-2.81108E-05-2.86694E-05 6.69690E-08-2.97225E-19-1.93105E-18
 -1      4269 7.86135E-05-1.95363E-05-2.53240E-05-8.71462E-06 2.50197E-20-9.29505E-19
 -1      4270 8.58378E-05-2.09786E-05-2.77351E-05 4.07166E-06 5.02291E-19-9.07232E-19
 -1      4271 7.97506E-05-1.86804E-05-2.62113E-05 3.46498E-06-7.60126E-19 1.02566E-18
 -1      4272 7.79066E-05-1.81792E-05-2.56181E-05 3.93173E-06-4.89919E-19 1.08522E-18
 -1      4273 7.59949E-05-1.73711E-05-2.50538E-05 1.44529E-06-1.35600E-19 1.90732E-18
 -1      4274 6.96166E-05-1.63484E-05-2.28336E-05-6.16039E-07 2.90700E-19-1.40568E-18
 -1      4275 7.05857E-05-1.67877E-05-2.30702E-05-4.49287E-06 2.34436E-19-1.19705E-18
 -1      4276 7.33130E-05-1.72577E-05-2.39981E-05-5.83676E-08 4.96968E-19-1.18634E-18
 -1      4277 9.50979E-05-2.82524E-05-2.86482E-05-5.13822E-08 6.97543E-19-2.10778E-18
 -1      4278 9.51149E-05-2.82827E-05-2.86425E-05-4.10598E-08 9.29045E-19-2.57697E-18
 -1      4279 9.51067E-05-2.82699E-05-2.86442E-05-2.76796E-08 9.64646E-21-7.32660E-19
 -1      4280 9.01188E-05-2.16679E-05-2.93373E-05 2.62961E-06 7.53115E-20-6.34438E-19
 -1      4281 8.92699E-05-2.11863E-05-2.91423E-05 2.08464E-06 3.12170E-19-1.57063E-19
 -1      4282 9.03801E-05-2.14610E-05-2.95572E-05 2.19777E-06 3.00387E-20-5.58113E-19
 -1      4283 9.49833E-05-2.80749E-05-2.86753E-05-1.00082E-07-3.16492E-19 5.47011E-19
 -1      4284 9.50333E-05-2.81516E-05-2.86642E-05-7.50577E-08 8.00370E-20-7.60553E-19
 -1      4285 9.50781E-05-2.82192E-05-2.86540E-05-6.52268E-08 4.34143E-19-1.57681E-18
 -1      4286 9.17720E-05-2.47641E-05-2.86970E-05 8.55982E-07-1.11227E-18 1.44904E-18
 -1      4287 8.63221E-05-2.06103E-05-2.81831E-05-2.89108E-06 4.46446E-20-8.02737E-19
 -1      4288 8.74500E-05-2.08699E-05-2.85524E-05-2.56543E-06 1.26935E-19-9.81039E-19
 -1      4289 9.50449E-05-2.81694E-05-2.86601E-05-4.23854E-08-4.01467E-19 5.54367E-20
 -1      4290 8.55498E-05-2.08740E-05-2.77447E-05 2.58629E-06-1.93650E-19 8.78651E-19
 -1      4291 8.44051E-05-2.03520E-05-2.74718E-05 2.84748E-06-5.04473E-19 7.76046E-19
 -1      4292 9.49620E-05-2.80358E-05-2.86825E-05 1.35406E-07-4.43095E-19-2.18442E-18
 -1      4293 9.49016E-05-2.79614E-05-2.86886E-05 1.00177E-07 1.71431E-19-2.26844E-18
 -1      4294 9.50087E-05-2.81092E-05-2.86720E-05 1.05822E-07 4.10802E-19-2.02803E-18
 -1      4295 8.84819E-05-2.10646E-05-2.89106E-05-2.41772E-06 2.67046E-19-1.12149E-18
 -1      4296 8.93102E-05-2.11451E-05-2.92252E-05-2.06024E-06 4.20869E-19-1.27497E-18
 -1      4297 8.76661E-05-2.06632E-05-2.86747E-05-1.29436E-06 1.30662E-19-9.93387E-19
 -1      4298 8.29947E-05-1.97888E-05-2.71234E-05 3.01757E-06-8.99898E-19 1.11065E-18
 -1      4299 8.15531E-05-1.92792E-05-2.67160E-05 3.29772E-06-1.01974E-18 1.04495E-18
 -1      4300 8.00790E-05-1.86075E-05-2.63215E-05 1.61737E-06-1.05837E-18 1.55391E-18
 -1      4301 8.31993E-05-1.96372E-05-2.71547E-05 1.47026E-06-7.19375E-19 9.32458E-19
 -1      4302 8.94740E-05-2.08026E-05-2.94014E-05-1.01653E-06 4.75457E-19-1.17053E-18
 -1      4303 7.44658E-05-1.84626E-05-2.40829E-05-7.48217E-06 4.46113E-19 2.31499E-18
 -1      4304 8.35092E-05-1.98720E-05-2.72855E-05-3.36218E-06-9.78447E-20-6.84914E-19
 -1      4305 8.49327E-05-2.02512E-05-2.77473E-05-3.01685E-06 4.75190E-20-7.10187E-19
 -1      4306 8.52727E-05-2.00971E-05-2.78736E-05-1.38141E-06 3.07256E-20-7.99179E-19
 -1      4307 9.51007E-05-2.82616E-05-2.86456E-05-1.21653E-08-1.22188E-19-1.95814E-19
 -1      4308 9.49335E-05-2.80070E-05-2.86815E-05-6.31862E-08-2.17598E-19-6.30742E-19
 -1      4309 9.50652E-05-2.82044E-05-2.86548E-05-1.07809E-08 5.48940E-20 6.27697E-20
 -1      4310 7.69926E-05-1.86775E-05-2.49724E-05-5.71949E-06 2.15245E-19 1.84504E-18
 -1      4311 7.85175E-05-1.88578E-05-2.56385E-05-4.37362E-06-3.32361E-19 1.73305E-18
 -1      4312 9.27462E-05-2.56748E-05-2.87473E-05 3.18036E-07-5.29133E-19 3.08559E-19
 -1      4313 9.23438E-05-2.53055E-05-2.87279E-05 3.65059E-07-7.52710E-19 6.29081E-19
 -1      4314 7.54269E-05-1.84000E-05-2.43782E-05-6.90675E-06 2.03670E-19-9.78151E-19
 -1      4315 7.66167E-05-1.82494E-05-2.50409E-05-4.89826E-06 1.58398E-19-9.84889E-19
 -1      4316 8.00984E-05-1.97020E-05-2.58732E-05 4.87862E-06 4.32805E-19-1.58533E-18
 -1      4317 7.77114E-05-1.91867E-05-2.51360E-05 5.31390E-06 3.22604E-19-1.74084E-18
 -1      4318 7.56984E-05-1.79748E-05-2.47302E-05 2.72750E-06 4.22482E-19-1.65484E-18
 -1      4319 8.08173E-05-1.92752E-05-2.64001E-05-2.13768E-06-8.40866E-19 1.76918E-18
 -1      4320 8.21626E-05-1.96994E-05-2.68343E-05-1.50452E-06-4.56569E-19 2.37623E-18
 -1      4321 9.17718E-05-2.48655E-05-2.86853E-05-1.23180E-08-7.87674E-19 1.66243E-19
 -1      4322 9.12746E-05-2.44674E-05-2.86463E-05 2.24234E-08-5.43933E-19 5.10127E-19
 -1      4323 8.76218E-05-2.19453E-05-2.81665E-05 2.22675E-06 2.38271E-19 1.21909E-18
 -1      4324 8.66943E-05-2.14287E-05-2.79861E-05 2.44621E-06 6.22753E-19 1.23224E-18
 -1      4325 8.57286E-05-2.08097E-05-2.77534E-05 1.40995E-06 1.31054E-19 1.53435E-18
 -1      4326 8.77554E-05-2.19241E-05-2.81615E-05 1.30265E-06-5.00535E-19 2.26692E-18
 -1      4327 7.96568E-05-1.89658E-05-2.60015E-05-4.26268E-06-2.19699E-21-9.30635E-19
 -1      4328 8.13523E-05-1.93527E-05-2.66185E-05-3.80987E-06-5.79862E-20-7.25207E-19
 -1      4329 8.17362E-05-1.91296E-05-2.67694E-05-1.57559E-06-4.41408E-20-8.00320E-19
 -1      4330 7.67506E-05-1.79783E-05-2.51495E-05-2.46902E-06 2.58689E-19-1.07129E-18
 -1      4331 9.50195E-05-2.81365E-05-2.86649E-05-1.76839E-08-1.47408E-19-1.58972E-19
 -1      4332 8.35926E-05-2.02567E-05-2.71970E-05-1.37149E-06-7.29063E-19 2.40157E-18
 -1      4333 8.47580E-05-2.06827E-05-2.75137E-05-8.85618E-07-7.15230E-19 1.99668E-18
 -1      4334 8.59329E-05-2.12389E-05-2.77691E-05-8.25605E-07-2.90604E-19 3.03661E-18
 -1      4335 8.69048E-05-2.16895E-05-2.79890E-05-4.79575E-07-6.83466E-20 2.91710E-18
 -1      4336 8.78515E-05-2.22213E-05-2.81603E-05-4.64871E-07-5.94812E-19 3.05250E-18
 -1      4337 8.86609E-05-2.26742E-05-2.83091E-05-2.22135E-07-4.99999E-19 2.91487E-18
 -1      4338 8.94273E-05-2.31721E-05-2.84205E-05-2.36137E-07-8.80390E-19 1.94747E-18
 -1      4339 9.00992E-05-2.36080E-05-2.85176E-05-6.60693E-08-7.95535E-19 1.10157E-18
 -1      4340 9.07192E-05-2.40624E-05-2.85864E-05-9.67297E-08-6.86686E-19 1.02309E-18
 -1      4341 9.24325E-05-2.54186E-05-2.87244E-05-3.27701E-07-8.25763E-19-1.11446E-18
 -1      4342 9.27951E-05-2.57428E-05-2.87429E-05-2.48201E-07-3.67425E-19-7.89564E-19
 -1      4343 9.32117E-05-2.61137E-05-2.87566E-05-1.56488E-07-2.43712E-19-1.14160E-18
 -1      4344 9.34779E-05-2.63751E-05-2.87589E-05-1.14339E-07 3.43249E-19-1.32429E-18
 -1      4345 9.38135E-05-2.67189E-05-2.87593E-05 4.63819E-08 9.29215E-19-1.69555E-18
 -1      4346 9.40347E-05-2.69476E-05-2.87554E-05 7.24400E-08 6.06504E-19-1.40335E-18
 -1      4347 9.42167E-05-2.71513E-05-2.87473E-05 3.92673E-08 7.74923E-19-1.42223E-18
 -1      4348 9.43859E-05-2.73350E-05-2.87390E-05 6.02787E-08 3.89688E-20-6.12579E-19
 -1      4349 9.45234E-05-2.74977E-05-2.87284E-05 3.31880E-08-1.32802E-18-2.42477E-19
 -1      4350 9.46509E-05-2.76445E-05-2.87180E-05 4.43304E-08-4.47795E-19-4.48781E-19
 -1      4351 9.02212E-05-2.05990E-05-2.98500E-05-1.13967E-07 5.79274E-19-1.02195E-18
 -1      4352 8.90365E-05-2.09697E-05-2.91978E-05 3.25188E-07 2.75210E-19-7.37093E-19
 -1      4353 8.98472E-05-2.08679E-05-2.95692E-05 4.25814E-07 5.12807E-19-7.57932E-19
 -1      4354 7.41920E-05-1.73313E-05-2.43075E-05-4.29138E-06 2.08180E-19 2.40759E-18
 -1      4355 9.48878E-05-2.79483E-05-2.86879E-05 3.28625E-08-7.46158E-21-1.11394E-18
 -1      4356 9.48351E-05-2.78720E-05-2.86977E-05 7.30625E-08-4.08792E-19-2.12687E-18
 -1      4357 9.47353E-05-2.77471E-05-2.87092E-05 9.48577E-08-7.76066E-19-1.93861E-18
 -1      4358 8.74510E-05-2.08418E-05-2.85849E-05 6.43799E-07 1.78959E-19-7.51391E-19
 -1      4359 8.64624E-05-2.06966E-05-2.82100E-05 1.02997E-06 1.83311E-19-8.78396E-19
 -1      4360 8.84886E-05-2.09857E-05-2.89488E-05 6.24732E-07 2.39665E-19-7.41716E-19
 -1      4361 9.00924E-05-2.08129E-05-2.96650E-05 1.11808E-06 4.03175E-19-4.55719E-19
 -1      4362 7.25279E-05-1.80398E-05-2.33469E-05-8.64493E-06 1.21733E-19-9.98946E-19
 -1      4363 7.47988E-05-1.72531E-05-2.47282E-05-8.30903E-07-3.64042E-20 2.26000E-18
 -1      4364 8.50688E-05-2.04019E-05-2.77694E-05 1.12914E-06 1.38829E-19-8.36304E-19
 -1      4365 8.38153E-05-2.01478E-05-2.73192E-05 1.69063E-06 2.24321E-19-9.61231E-19
 -1      4366 9.34491E-05-2.63412E-05-2.87640E-05 3.01861E-07-1.25254E-18-1.86602E-19
 -1      4367 9.31584E-05-2.60578E-05-2.87615E-05 3.56691E-07-8.33947E-19 7.94337E-19
 -1      4368 9.49721E-05-2.80654E-05-2.86746E-05 2.97078E-09 1.80733E-19-4.56579E-19
 -1      4369 7.86918E-05-1.85646E-05-2.58071E-05 5.75456E-07 1.75430E-19-1.30712E-18
 -1      4370 7.62643E-05-1.78945E-05-2.50201E-05 2.81178E-07 3.17856E-19-1.34106E-18
 -1      4371 9.29415E-05-2.58554E-05-2.87476E-05 5.83894E-08-5.94117E-19-1.66458E-19
 -1      4372 9.22212E-05-2.52305E-05-2.87186E-05 5.61907E-08-8.92274E-19-8.23665E-20
 -1      4373 9.47504E-05-2.77722E-05-2.87060E-05-5.78950E-08 1.25345E-19-6.31018E-20
 -1      4374 9.48411E-05-2.78885E-05-2.86948E-05-3.88118E-08 9.36770E-20-1.89591E-19
 -1      4375 8.17634E-05-1.96252E-05-2.66633E-05 1.77430E-06 1.98732E-19-1.16302E-18
 -1      4376 7.74381E-05-1.79392E-05-2.54950E-05-5.56955E-07-9.38522E-19 2.29166E-18
 -1      4377 9.35767E-05-2.64706E-05-2.87625E-05 7.47460E-08-8.81023E-20-1.23179E-18
 -1      4378 9.49073E-05-2.79741E-05-2.86857E-05-5.11000E-09 1.00292E-19-1.00068E-18
 -1      4379 7.91899E-05-1.83779E-05-2.60261E-05-4.80182E-07-8.21007E-19 1.65387E-18
 -1      4380 8.16599E-05-1.98126E-05-2.64564E-05 3.97609E-06 4.54183E-19-1.37023E-18
 -3
    1PSTEP                         4           1           1          
  100CL  101 1.000000000        4380                     0    1           1
 -4  ERROR       1    1
 -5  STR(%)      1    1    0    0
 -1         1 1.18981E+01
 -1         2 2.55168E+01
 -1         3 8.65515E-04
 -1         4 8.94651E-04
 -1         5 1.38655E+01
 -1         6 1.29698E+01
 -1         7 1.29698E+01
 -1         8 3.55752E+00
 -1         9 1.79675E+00
 -1        10 1.29750E+00
 -1        11 1.04346E+00
 -1        12 8.74918E-01
 -1        13 7.57263E-01
 -1        14 6.75570E-01
 -1        15 6.75529E-01
 -1        16 7.57739E-01
 -1        17 8.70550E-01
 -1        18 1.04645E+00
 -1        19 1.31368E+00
 -1        20 1.80427E+00
 -1        21 3.39544E+00
 -1        22 8.41645E+00
 -1        23 1.29698E+01
 -1        24 4.29348E+00
 -1        25 3.24830E+00
 -1        26 1.99573E+00
 -1        27 1.42879E+00
 -1        28 1.08924E+00
 -1        29 8.32226E-01
 -1        30 6.57912E-01
 -1        31 6.57912E-01
 -1        32 7.26880E-01
 -1        33 9.11470E-01
 -1        34 1.01000E+00
 -1        35 1.01000E+00
 -1        36 1.02117E+00
 -1        37 1.02117E+00
 -1        38 1.37848E+00
 -1        39 2.13730E+00
 -1        40 3.04592E+00
 -1        41 3.28089E+00
 -1        42 3.31605E+00
 -1        43 3.31605E+00
 -1        44 2.89730E+00
 -1        45 1.89326E+00
 -1        46 1.34392E+00
 -1        47 1.06248E+00
 -1        48 1.06248E+00
 -1        49 1.00506E+00
 -1        50 1.00506E+00
 -1        51 9.08868E-01
 -1        52 7.55456E-01
 -1        53 6.02099E-01
 -1        54 4.73431E-01
 -1        55 3.99553E-01
 -1        56 3.36870E-01
 -1        57 2.73421E-01
 -1        58 2.14768E-01
 -1        59 1.63691E-01
 -1        60 1.21109E-01
 -1        61 9.48467E-02
 -1        62 7.88791E-02
 -1        63 6.37460E-02
 -1        64 5.00539E-02
 -1        65 3.80332E-02
 -1        66 2.76743E-02
 -1        67 2.08125E-02
 -1        68 1.59405E-02
 -1        69 1.08299E-02
 -1        70 6.00755E-03
 -1        71 4.68078E-03
 -1        72 1.38655E+01
 -1        73 3.41707E+00
 -1        74 2.40425E+00
 -1        75 1.64752E+00
 -1        76 1.34102E+00
 -1        77 1.16754E+00
 -1        78 1.03385E+00
 -1        79 9.17453E-01
 -1        80 9.11936E-01
 -1        81 9.43954E-01
 -1        82 9.46540E-01
 -1        83 1.12777E+00
 -1        84 1.39319E+00
 -1        85 1.47091E+00
 -1        86 1.84891E+00
 -1        87 1.84891E+00
 -1        88 2.34470E+00
 -1        89 3.35934E+00
 -1        90 4.30564E+00
 -1        91 4.89732E+00
 -1        92 4.89732E+00
 -1        93 4.27731E+00
 -1        94 2.47130E+00
 -1        95 1.56184E+00
 -1        96 1.53355E+00
 -1        97 1.72418E+00
 -1        98 1.72418E+00
 -1        99 1.63187E+00
 -1       100 1.40404E+00
 -1       101 1.17744E+00
 -1       102 9.52468E-01
 -1       103 7.39870E-01
 -1       104 5.54909E-01
 -1       105 4.03088E-01
 -1       106 3.13094E-01
 -1       107 2.37400E-01
 -1       108 1.75873E-01
 -1       109 1.27179E-01
 -1       110 8.94899E-02
 -1       111 6.08926E-02
 -1       112 4.73943E-02
 -1       113 3.86132E-02
 -1       114 3.05397E-02
 -1       115 2.32790E-02
 -1       116 1.91172E-02
 -1       117 1.58928E-02
 -1       118 1.18726E-02
 -1       119 7.33389E-03
 -1       120 4.55847E-03
 -1       121 2.14241E-03
 -1       122 1.21890E-03
 -1       123 5.83780E-04
 -1       124 7.82500E-04
 -1       125 7.82500E-04
 -1       126 7.36385E-04
 -1       127 5.91035E-04
 -1       128 4.55478E-04
 -1       129 4.40040E-04
 -1       130 5.56853E-04
 -1       131 6.91739E-04
 -1       132 7.45983E-04
 -1       133 7.45983E-04
 -1       134 5.63953E-04
 -1       135 1.56545E-03
 -1       136 2.92339E-03
 -1       137 2.52902E+01
 -1       138 4.89999E+01
 -1       139 4.89999E+01
 -1       140 2.23754E+01
 -1       141 1.18938E+01
 -1       142 1.25018E+01
 -1       143 1.25018E+01
 -1       144 1.21676E+01
 -1       145 1.23272E+01
 -1       146 1.23272E+01
 -1       147 2.47836E+01
 -1       148 3.14252E+01
 -1       149 3.14252E+01
 -1       150 2.46773E+01
 -1       151 2.41829E+01
 -1       152 2.40865E+01
 -1       153 4.66753E+01
 -1       154 4.66753E+01
 -1       155 1.95521E+01
 -1       156 1.23798E+01
 -1       157 1.24253E+01
 -1       158 1.24253E+01
 -1       159 1.21271E+01
 -1       160 1.19711E+01
 -1       161 2.18568E+01
 -1       162 4.77014E+01
 -1       163 4.77014E+01
 -1       164 2.55168E+01
 -1       165 5.90552E+00
 -1       166 2.27837E+00
 -1       167 1.52713E+00
 -1       168 1.16818E+00
 -1       169 9.60944E-01
 -1       170 8.23651E-01
 -1       171 7.26883E-01
 -1       172 6.62816E-01
 -1       173 7.27302E-01
 -1       174 8.22091E-01
 -1       175 9.65360E-01
 -1       176 1.18058E+00
 -1       177 1.54548E+00
 -1       178 2.26524E+00
 -1       179 3.82840E+00
 -1       180 1.38655E+01
 -1       181 4.29348E+00
 -1       182 3.24830E+00
 -1       183 1.99573E+00
 -1       184 1.42879E+00
 -1       185 1.08924E+00
 -1       186 8.32226E-01
 -1       187 6.28283E-01
 -1       188 6.57912E-01
 -1       189 6.52886E-01
 -1       190 7.26880E-01
 -1       191 9.11470E-01
 -1       192 1.01000E+00
 -1       193 9.52884E-01
 -1       194 1.02117E+00
 -1       195 9.98664E-01
 -1       196 1.37848E+00
 -1       197 2.13730E+00
 -1       198 3.04592E+00
 -1       199 3.28089E+00
 -1       200 3.31605E+00
 -1       201 2.89730E+00
 -1       202 1.91742E+00
 -1       203 1.34392E+00
 -1       204 9.68741E-01
 -1       205 1.06248E+00
 -1       206 9.75713E-01
 -1       207 1.00506E+00
 -1       208 9.08868E-01
 -1       209 7.55456E-01
 -1       210 6.31877E-01
 -1       211 5.44688E-01
 -1       212 4.49382E-01
 -1       213 3.54023E-01
 -1       214 2.73421E-01
 -1       215 2.14768E-01
 -1       216 1.68224E-01
 -1       217 1.29297E-01
 -1       218 9.67209E-02
 -1       219 7.88791E-02
 -1       220 6.37460E-02
 -1       221 5.00539E-02
 -1       222 3.80332E-02
 -1       223 2.76743E-02
 -1       224 2.08125E-02
 -1       225 1.59405E-02
 -1       226 1.08299E-02
 -1       227 6.62850E-03
 -1       228 4.68078E-03
 -1       229 3.41707E+00
 -1       230 2.40425E+00
 -1       231 1.64752E+00
 -1       232 1.34102E+00
 -1       233 1.16754E+00
 -1       234 1.03385E+00
 -1       235 9.17453E-01
 -1       236 8.40854E-01
 -1       237 9.11936E-01
 -1       238 9.43954E-01
 -1       239 9.46540E-01
 -1       240 1.12777E+00
 -1       241 1.39319E+00
 -1       242 1.47091E+00
 -1       243 1.84891E+00
 -1       244 1.77163E+00
 -1       245 2.34470E+00
 -1       246 3.35934E+00
 -1       247 4.30564E+00
 -1       248 4.89732E+00
 -1       249 4.27731E+00
 -1       250 2.47130E+00
 -1       251 1.56184E+00
 -1       252 1.39989E+00
 -1       253 1.53355E+00
 -1       254 1.72418E+00
 -1       255 1.63187E+00
 -1       256 1.40404E+00
 -1       257 1.17744E+00
 -1       258 9.69340E-01
 -1       259 7.74499E-01
 -1       260 5.96961E-01
 -1       261 4.45647E-01
 -1       262 3.23342E-01
 -1       263 2.37400E-01
 -1       264 1.75873E-01
 -1       265 1.28381E-01
 -1       266 9.27508E-02
 -1       267 6.52243E-02
 -1       268 4.73943E-02
 -1       269 3.86132E-02
 -1       270 3.05397E-02
 -1       271 2.32790E-02
 -1       272 1.91172E-02
 -1       273 1.58928E-02
 -1       274 1.18726E-02
 -1       275 7.33389E-03
 -1       276 4.55847E-03
 -1       277 1.40315E-03
 -1       278 1.07685E-03
 -1       279 1.38068E-03
 -1       280 1.38068E-03
 -1       281 1.34312E-03
 -1       282 1.18342E-03
 -1       283 8.95408E-04
 -1       284 6.55350E-04
 -1       285 8.43433E-04
 -1       286 1.10726E-03
 -1       287 1.25953E-03
 -1       288 1.28055E-03
 -1       289 1.28055E-03
 -1       290 1.25750E-03
 -1       291 2.61111E-03
 -1       292 3.22952E+01
 -1       293 2.95559E+01
 -1       294 4.89999E+01
 -1       295 2.48882E+01
 -1       296 1.18938E+01
 -1       297 1.16453E+01
 -1       298 1.25018E+01
 -1       299 1.19135E+01
 -1       300 1.21676E+01
 -1       301 1.23272E+01
 -1       302 1.15456E+01
 -1       303 2.74612E+01
 -1       304 3.37604E+01
 -1       305 3.37604E+01
 -1       306 2.89320E+01
 -1       307 2.89320E+01
 -1       308 2.77967E+01
 -1       309 4.66753E+01
 -1       310 2.19864E+01
 -1       311 1.06087E+01
 -1       312 1.18981E+01
 -1       313 1.23798E+01
 -1       314 1.24253E+01
 -1       315 1.21271E+01
 -1       316 1.19711E+01
 -1       317 1.11710E+01
 -1       318 2.31747E+01
 -1       319 4.77014E+01
 -1       320 2.87774E+01
 -1       321 3.22952E+01
 -1       322 1.05466E+00
 -1       323 2.39440E+00
 -1       324 8.05419E-01
 -1       325 6.85202E-01
 -1       326 5.99972E-01
 -1       327 5.33665E-01
 -1       328 5.34503E-01
 -1       329 5.99166E-01
 -1       330 6.89140E-01
 -1       331 8.04102E-01
 -1       332 9.53066E-01
 -1       333 1.16281E+00
 -1       334 1.30273E+00
 -1       335 2.08485E+00
 -1       336 1.75736E+00
 -1       337 1.61257E+00
 -1       338 1.10560E+00
 -1       339 7.67406E-01
 -1       340 6.25013E-01
 -1       341 4.77268E-01
 -1       342 4.71982E-01
 -1       343 4.94269E-01
 -1       344 5.06112E-01
 -1       345 6.39566E-01
 -1       346 6.99720E-01
 -1       347 6.44832E-01
 -1       348 5.50419E-01
 -1       349 5.98215E-01
 -1       350 9.82093E-01
 -1       351 1.43734E+00
 -1       352 1.86023E+00
 -1       353 2.07698E+00
 -1       354 1.99202E+00
 -1       355 2.07465E+00
 -1       356 1.76500E+00
 -1       357 1.35090E+00
 -1       358 8.43142E-01
 -1       359 5.33140E-01
 -1       360 5.59554E-01
 -1       361 7.08496E-01
 -1       362 7.59880E-01
 -1       363 7.18332E-01
 -1       364 6.39780E-01
 -1       365 5.69779E-01
 -1       366 4.96638E-01
 -1       367 4.12634E-01
 -1       368 3.29384E-01
 -1       369 2.53721E-01
 -1       370 1.88918E-01
 -1       371 1.35866E-01
 -1       372 9.67209E-02
 -1       373 7.03179E-02
 -1       374 5.07686E-02
 -1       375 3.83510E-02
 -1       376 3.12111E-02
 -1       377 2.43978E-02
 -1       378 1.81203E-02
 -1       379 1.24797E-02
 -1       380 9.22986E-03
 -1       381 6.13575E-03
 -1       382 3.57173E-03
 -1       383 1.08292E+00
 -1       384 7.42291E-01
 -1       385 7.01457E-01
 -1       386 6.68526E-01
 -1       387 6.18281E-01
 -1       388 6.77027E-01
 -1       389 8.60699E-01
 -1       390 1.02741E+00
 -1       391 1.17535E+00
 -1       392 1.19038E+00
 -1       393 1.19038E+00
 -1       394 9.86416E-01
 -1       395 9.75168E-01
 -1       396 1.40490E+00
 -1       397 2.19844E+00
 -1       398 2.55072E+00
 -1       399 2.49832E+00
 -1       400 2.76553E+00
 -1       401 2.62643E+00
 -1       402 1.80516E+00
 -1       403 9.78134E-01
 -1       404 9.35598E-01
 -1       405 1.21470E+00
 -1       406 1.25945E+00
 -1       407 1.26825E+00
 -1       408 1.16300E+00
 -1       409 1.04142E+00
 -1       410 8.91305E-01
 -1       411 7.27778E-01
 -1       412 5.72534E-01
 -1       413 4.36456E-01
 -1       414 3.23342E-01
 -1       415 2.32889E-01
 -1       416 1.73592E-01
 -1       417 1.28381E-01
 -1       418 9.27508E-02
 -1       419 6.52243E-02
 -1       420 4.43437E-02
 -1       421 2.90270E-02
 -1       422 2.36016E-02
 -1       423 1.88501E-02
 -1       424 1.42357E-02
 -1       425 9.94039E-03
 -1       426 7.51929E-03
 -1       427 5.25770E-03
 -1       428 3.30986E-03
 -1       429 2.12898E-03
 -1       430 2.12898E-03
 -1       431 2.76369E-03
 -1       432 1.76393E-03
 -1       433 1.57413E-03
 -1       434 1.15810E-03
 -1       435 6.83299E-04
 -1       436 6.29927E-04
 -1       437 1.05242E-03
 -1       438 1.48623E-03
 -1       439 1.71470E-03
 -1       440 1.89377E-03
 -1       441 2.75769E-03
 -1       442 2.95559E+01
 -1       443 3.41492E+01
 -1       444 3.41492E+01
 -1       445 1.76841E+01
 -1       446 1.05162E+01
 -1       447 9.33409E-01
 -1       448 9.07442E+00
 -1       449 1.12971E+01
 -1       450 1.06017E+01
 -1       451 9.26514E+00
 -1       452 6.48853E+00
 -1       453 1.04620E+01
 -1       454 1.92651E+01
 -1       455 3.37604E+01
 -1       456 3.48050E+01
 -1       457 3.48050E+01
 -1       458 2.58977E+01
 -1       459 2.77967E+01
 -1       460 1.57285E+01
 -1       461 8.66023E+00
 -1       462 8.13054E+00
 -1       463 9.82276E+00
 -1       464 9.93277E+00
 -1       465 9.42185E+00
 -1       466 8.81940E+00
 -1       467 6.22590E+00
 -1       468 9.89553E+00
 -1       469 1.67357E+01
 -1       470 2.87774E+01
 -1       471 3.06455E+01
 -1       472 6.94265E+00
 -1       473 6.68210E+00
 -1       474 9.11246E+00
 -1       475 9.08460E-01
 -1       476 4.78299E-01
 -1       477 5.30469E-01
 -1       478 3.71408E-01
 -1       479 4.18086E-01
 -1       480 4.74050E-01
 -1       481 5.23536E-01
 -1       482 5.42266E-01
 -1       483 7.02459E-01
 -1       484 6.93476E-01
 -1       485 6.74155E-01
 -1       486 4.96336E-01
 -1       487 3.37866E-01
 -1       488 2.81677E-01
 -1       489 2.83640E-01
 -1       490 3.57622E-01
 -1       491 4.52787E-01
 -1       492 5.42484E-01
 -1       493 6.42142E-01
 -1       494 7.03461E-01
 -1       495 7.72207E-01
 -1       496 9.65118E-01
 -1       497 1.02168E+00
 -1       498 1.35158E+00
 -1       499 1.46607E+00
 -1       500 1.85516E+00
 -1       501 2.18792E+00
 -1       502 2.21122E+00
 -1       503 1.73266E+00
 -1       504 1.41248E+00
 -1       505 1.24878E+00
 -1       506 1.03085E+00
 -1       507 9.24315E-01
 -1       508 7.85413E-01
 -1       509 7.96032E-01
 -1       510 7.44512E-01
 -1       511 6.63835E-01
 -1       512 6.02193E-01
 -1       513 5.33648E-01
 -1       514 4.52617E-01
 -1       515 3.70301E-01
 -1       516 2.93655E-01
 -1       517 2.26346E-01
 -1       518 1.69753E-01
 -1       519 1.23810E-01
 -1       520 8.76255E-02
 -1       521 5.99181E-02
 -1       522 3.92884E-02
 -1       523 2.54710E-02
 -1       524 1.72701E-02
 -1       525 1.42014E-02
 -1       526 1.10793E-02
 -1       527 7.95488E-03
 -1       528 5.10649E-03
 -1       529 4.15500E-01
 -1       530 4.20047E-01
 -1       531 5.49219E-01
 -1       532 7.51543E-01
 -1       533 9.37840E-01
 -1       534 1.07687E+00
 -1       535 1.22588E+00
 -1       536 1.41021E+00
 -1       537 1.51218E+00
 -1       538 1.62364E+00
 -1       539 2.16861E+00
 -1       540 1.98489E+00
 -1       541 2.55072E+00
 -1       542 3.64859E+00
 -1       543 4.93433E+00
 -1       544 3.30118E+00
 -1       545 1.98087E+00
 -1       546 1.92343E+00
 -1       547 1.65311E+00
 -1       548 1.46729E+00
 -1       549 1.40727E+00
 -1       550 1.26151E+00
 -1       551 1.20037E+00
 -1       552 1.06726E+00
 -1       553 9.02179E-01
 -1       554 7.36832E-01
 -1       555 5.90175E-01
 -1       556 4.60414E-01
 -1       557 3.50410E-01
 -1       558 2.60567E-01
 -1       559 1.89292E-01
 -1       560 1.34112E-01
 -1       561 9.23305E-02
 -1       562 6.13808E-02
 -1       563 4.27480E-02
 -1       564 3.05105E-02
 -1       565 2.36016E-02
 -1       566 1.88501E-02
 -1       567 1.42357E-02
 -1       568 9.94039E-03
 -1       569 6.78933E-03
 -1       570 4.72857E-03
 -1       571 1.96179E-03
 -1       572 1.38833E-03
 -1       573 3.87442E-03
 -1       574 2.27506E-03
 -1       575 1.28274E+01
 -1       576 1.17238E-03
 -1       577 1.09383E-03
 -1       578 1.07398E-03
 -1       579 1.27965E-03
 -1       580 1.96659E-03
 -1       581 1.96659E-03
 -1       582 2.20144E-03
 -1       583 9.26335E+00
 -1       584 5.05741E-01
 -1       585 3.41492E+01
 -1       586 3.06455E+01
 -1       587 8.40696E-01
 -1       588 6.17256E+00
 -1       589 8.28355E+00
 -1       590 4.79269E+00
 -1       591 4.23943E-01
 -1       592 7.85166E+00
 -1       593 5.92038E+00
 -1       594 7.14693E+00
 -1       595 7.33084E+00
 -1       596 6.89049E+00
 -1       597 9.48448E+00
 -1       598 1.44254E+01
 -1       599 2.31900E+01
 -1       600 3.48050E+01
 -1       601 2.58977E+01
 -1       602 1.95389E+01
 -1       603 1.21972E+01
 -1       604 2.95494E+00
 -1       605 4.83623E+00
 -1       606 5.40026E+00
 -1       607 6.92099E+00
 -1       608 4.70892E+00
 -1       609 8.13121E+00
 -1       610 1.34114E+01
 -1       611 2.08643E+01
 -1       612 1.21022E+00
 -1       613 2.24556E+01
 -1       614 6.97634E+00
 -1       615 5.86207E-01
 -1       616 8.03097E+00
 -1       617 3.55457E-03
 -1       618 8.33430E+00
 -1       619 4.45659E+00
 -1       620 9.39502E+00
 -1       621 3.23141E-01
 -1       622 2.80755E-01
 -1       623 3.84694E-01
 -1       624 4.10426E-01
 -1       625 4.31020E-01
 -1       626 2.78670E-01
 -1       627 2.64834E-01
 -1       628 2.07329E-01
 -1       629 2.45311E-01
 -1       630 3.40929E-01
 -1       631 4.50629E-01
 -1       632 5.59488E-01
 -1       633 6.86292E-01
 -1       634 8.54945E-01
 -1       635 1.01221E+00
 -1       636 1.13965E+00
 -1       637 1.50800E+00
 -1       638 1.74220E+00
 -1       639 1.82060E+00
 -1       640 1.85516E+00
 -1       641 3.91355E+00
 -1       642 5.76114E+00
 -1       643 3.66026E+00
 -1       644 2.26761E+00
 -1       645 1.72015E+00
 -1       646 1.73017E+00
 -1       647 1.45383E+00
 -1       648 1.15609E+00
 -1       649 1.05397E+00
 -1       650 9.08244E-01
 -1       651 7.59454E-01
 -1       652 6.65882E-01
 -1       653 5.74834E-01
 -1       654 4.79939E-01
 -1       655 3.90934E-01
 -1       656 3.11244E-01
 -1       657 2.42590E-01
 -1       658 1.85209E-01
 -1       659 1.38467E-01
 -1       660 1.01265E-01
 -1       661 7.23014E-02
 -1       662 5.02399E-02
 -1       663 3.38200E-02
 -1       664 2.19137E-02
 -1       665 1.35436E-02
 -1       666 8.21198E-03
 -1       667 6.11997E-03
 -1       668 4.74417E-03
 -1       669 4.55262E-01
 -1       670 5.96636E+00
 -1       671 3.02464E-01
 -1       672 8.49794E-01
 -1       673 1.07119E+00
 -1       674 1.28537E+00
 -1       675 1.52733E+00
 -1       676 1.94894E+00
 -1       677 2.38924E+00
 -1       678 2.80622E+00
 -1       679 3.49290E+00
 -1       680 2.60784E+00
 -1       681 4.93433E+00
 -1       682 3.30118E+00
 -1       683 2.90886E+00
 -1       684 3.03752E+00
 -1       685 2.44327E+00
 -1       686 2.06715E+00
 -1       687 1.67521E+00
 -1       688 1.39949E+00
 -1       689 1.22102E+00
 -1       690 1.02809E+00
 -1       691 8.42486E-01
 -1       692 6.75147E-01
 -1       693 5.30560E-01
 -1       694 4.09424E-01
 -1       695 3.10399E-01
 -1       696 2.31125E-01
 -1       697 1.68840E-01
 -1       698 1.20768E-01
 -1       699 8.43261E-02
 -1       700 5.72179E-02
 -1       701 3.74722E-02
 -1       702 2.34402E-02
 -1       703 1.46254E-02
 -1       704 1.01884E-02
 -1       705 8.11311E-03
 -1       706 5.96025E-03
 -1       707 4.72857E-03
 -1       708 2.71442E-03
 -1       709 3.50524E-03
 -1       710 2.16824E-03
 -1       711 3.79883E+00
 -1       712 2.61962E-03
 -1       713 2.71442E-03
 -1       714 2.61962E-03
 -1       715 2.26809E-03
 -1       716 2.60706E-03
 -1       717 2.23545E-01
 -1       718 7.48300E+00
 -1       719 5.86207E-01
 -1       720 4.48166E+00
 -1       721 4.69691E+00
 -1       722 1.61303E+01
 -1       723 5.76114E+00
 -1       724 1.51679E+01
 -1       725 6.40659E-01
 -1       726 3.30481E+00
 -1       727 1.18832E+01
 -1       728 3.12317E-01
 -1       729 3.66733E-01
 -1       730 3.61497E+00
 -1       731 3.69968E-01
 -1       732 3.52600E+00
 -1       733 1.39289E+01
 -1       734 1.10290E+01
 -1       735 3.49692E+00
 -1       736 1.70050E+01
 -1       737 1.03773E+01
 -1       738 5.76114E+00
 -1       739 4.15485E+00
 -1       740 2.69711E+00
 -1       741 5.30802E+00
 -1       742 1.49092E+01
 -1       743 6.33981E+00
 -1       744 1.16786E+01
 -1       745 9.65229E+00
 -1       746 4.77421E-01
 -1       747 2.89566E-01
 -1       748 6.72516E+00
 -1       749 2.09418E-03
 -1       750 1.15408E+01
 -1       751 3.64859E+00
 -1       752 2.44098E-03
 -1       753 5.14221E+00
 -1       754 4.78451E+00
 -1       755 2.89825E+00
 -1       756 3.31914E-01
 -1       757 7.79350E+00
 -1       758 1.39289E+01
 -1       759 3.14650E-01
 -1       760 6.01354E+00
 -1       761 2.80475E-01
 -1       762 3.33602E-01
 -1       763 4.25594E-01
 -1       764 5.69079E-01
 -1       765 7.38671E-01
 -1       766 9.18828E-01
 -1       767 1.18380E+00
 -1       768 1.52885E+00
 -1       769 1.85909E+00
 -1       770 2.38306E+00
 -1       771 2.89825E+00
 -1       772 3.91355E+00
 -1       773 2.07608E+00
 -1       774 3.00328E+00
 -1       775 2.18869E+00
 -1       776 1.84467E+00
 -1       777 1.51881E+00
 -1       778 1.19808E+00
 -1       779 9.76102E-01
 -1       780 8.10870E-01
 -1       781 6.59536E-01
 -1       782 5.32692E-01
 -1       783 4.21316E-01
 -1       784 3.27433E-01
 -1       785 2.54573E-01
 -1       786 1.96195E-01
 -1       787 1.47115E-01
 -1       788 1.08003E-01
 -1       789 7.80557E-02
 -1       790 5.48765E-02
 -1       791 3.82266E-02
 -1       792 2.60487E-02
 -1       793 1.72588E-02
 -1       794 1.10885E-02
 -1       795 6.81763E-03
 -1       796 4.09866E-03
 -1       797 1.30027E+00
 -1       798 9.61104E-01
 -1       799 2.23234E+00
 -1       800 2.86014E+00
 -1       801 3.92748E+00
 -1       802 8.35430E+00
 -1       803 9.83912E+00
 -1       804 3.09307E+00
 -1       805 2.27964E+00
 -1       806 1.86715E+00
 -1       807 1.46320E+00
 -1       808 1.14421E+00
 -1       809 8.98210E-01
 -1       810 6.97248E-01
 -1       811 5.44586E-01
 -1       812 4.17568E-01
 -1       813 3.13113E-01
 -1       814 2.36286E-01
 -1       815 1.76367E-01
 -1       816 1.29638E-01
 -1       817 9.36261E-02
 -1       818 6.62617E-02
 -1       819 4.58024E-02
 -1       820 3.07930E-02
 -1       821 2.00317E-02
 -1       822 1.25419E-02
 -1       823 7.51583E-03
 -1       824 4.73928E-03
 -1       825 3.36520E-03
 -1       826 4.74236E+00
 -1       827 2.19118E-01
 -1       828 5.01045E-03
 -1       829 8.40308E+00
 -1       830 4.93426E-03
 -1       831 2.26761E+00
 -1       832 5.13500E-03
 -1       833 4.25337E+00
 -1       834 1.73281E+00
 -1       835 4.13355E-01
 -1       836 2.31684E+00
 -1       837 3.65194E-01
 -1       838 9.31740E+00
 -1       839 7.19171E+00
 -1       840 8.58950E+00
 -1       841 8.31718E+00
 -1       842 5.13500E-03
 -1       843 4.92642E+00
 -1       844 3.88929E+00
 -1       845 2.78670E-01
 -1       846 1.83023E-01
 -1       847 5.88878E+00
 -1       848 5.03043E-03
 -1       849 4.50431E+00
 -1       850 3.65194E-01
 -1       851 3.01381E-01
 -1       852 3.78064E-03
 -1       853 7.10711E+00
 -1       854 2.54886E+00
 -1       855 3.66026E+00
 -1       856 5.42875E-01
 -1       857 7.13179E-01
 -1       858 3.27437E-01
 -1       859 9.13332E+00
 -1       860 2.63272E-01
 -1       861 5.03043E-03
 -1       862 2.74130E-01
 -1       863 2.76475E-01
 -1       864 3.22147E+00
 -1       865 8.12225E+00
 -1       866 4.04508E-01
 -1       867 5.30722E+00
 -1       868 5.88878E+00
 -1       869 7.28764E+00
 -1       870 4.40550E-01
 -1       871 5.67906E-01
 -1       872 7.36441E-01
 -1       873 9.98840E-01
 -1       874 1.35845E+00
 -1       875 1.73585E+00
 -1       876 2.23412E+00
 -1       877 3.01935E+00
 -1       878 3.53265E+00
 -1       879 3.00820E+00
 -1       880 2.14180E+00
 -1       881 1.72161E+00
 -1       882 1.35050E+00
 -1       883 1.01657E+00
 -1       884 7.72829E-01
 -1       885 6.18224E-01
 -1       886 5.03984E-01
 -1       887 4.09858E-01
 -1       888 3.25773E-01
 -1       889 2.53592E-01
 -1       890 1.93446E-01
 -1       891 1.44506E-01
 -1       892 1.05543E-01
 -1       893 7.52083E-02
 -1       894 5.23345E-02
 -1       895 3.60171E-02
 -1       896 2.39374E-02
 -1       897 1.52173E-02
 -1       898 9.15358E-03
 -1       899 7.01957E-03
 -1       900 1.24514E+00
 -1       901 4.78325E+00
 -1       902 2.86014E+00
 -1       903 2.31775E+00
 -1       904 6.57629E+00
 -1       905 4.54785E+00
 -1       906 1.38445E+00
 -1       907 1.10539E+00
 -1       908 8.75767E-01
 -1       909 6.84265E-01
 -1       910 5.27676E-01
 -1       911 4.01727E-01
 -1       912 3.01661E-01
 -1       913 2.23105E-01
 -1       914 1.62233E-01
 -1       915 1.15660E-01
 -1       916 8.09068E-02
 -1       917 5.61624E-02
 -1       918 3.78620E-02
 -1       919 2.46060E-02
 -1       920 1.53171E-02
 -1       921 9.52745E-03
 -1       922 6.62890E-03
 -1       923 7.01957E-03
 -1       924 3.78064E-03
 -1       925 1.87718E+00
 -1       926 5.61494E+00
 -1       927 2.35615E-01
 -1       928 3.59659E-01
 -1       929 3.53397E-01
 -1       930 4.41901E+00
 -1       931 3.65194E-01
 -1       932 6.17423E+00
 -1       933 3.13563E-01
 -1       934 7.99028E-03
 -1       935 3.16290E+00
 -1       936 6.01258E+00
 -1       937 5.03863E+00
 -1       938 5.29450E-01
 -1       939 9.52158E-01
 -1       940 4.13588E-01
 -1       941 1.99557E+00
 -1       942 5.15952E+00
 -1       943 5.29853E+00
 -1       944 6.97940E-03
 -1       945 1.04202E-02
 -1       946 4.30206E+00
 -1       947 1.71074E+00
 -1       948 6.41198E+00
 -1       949 2.58216E-01
 -1       950 7.00504E-03
 -1       951 4.91050E+00
 -1       952 6.01258E+00
 -1       953 1.86587E-01
 -1       954 2.02578E-01
 -1       955 7.36441E-01
 -1       956 9.89456E-01
 -1       957 1.33631E+00
 -1       958 2.00535E+00
 -1       959 3.26789E+00
 -1       960 7.13179E-01
 -1       961 3.93156E+00
 -1       962 3.16362E+00
 -1       963 1.81933E+00
 -1       964 1.29686E+00
 -1       965 9.71898E-01
 -1       966 7.72829E-01
 -1       967 6.18224E-01
 -1       968 4.88566E-01
 -1       969 3.82104E-01
 -1       970 2.95534E-01
 -1       971 2.25677E-01
 -1       972 1.69853E-01
 -1       973 1.25757E-01
 -1       974 9.14134E-02
 -1       975 6.50590E-02
 -1       976 4.50979E-02
 -1       977 3.06688E-02
 -1       978 2.04895E-02
 -1       979 1.32251E-02
 -1       980 8.79600E-03
 -1       981 3.13563E-01
 -1       982 2.84103E+00
 -1       983 1.04164E+00
 -1       984 1.38445E+00
 -1       985 6.04067E-01
 -1       986 4.60096E-01
 -1       987 3.48781E-01
 -1       988 2.62084E-01
 -1       989 1.94612E-01
 -1       990 1.42556E-01
 -1       991 1.02543E-01
 -1       992 7.22755E-02
 -1       993 4.97524E-02
 -1       994 3.40332E-02
 -1       995 2.26328E-02
 -1       996 1.46410E-02
 -1       997 1.04202E-02
 -1       998 3.55822E-01
 -1       999 1.90495E+00
 -1      1000 3.04785E+00
 -1      1001 4.26521E-01
 -1      1002 2.46518E-01
 -1      1003 4.57408E+00
 -1      1004 5.67906E-01
 -1      1005 7.92564E-01
 -1      1006 3.82365E-01
 -1      1007 1.23177E+00
 -1      1008 3.96078E+00
 -1      1009 3.64411E+00
 -1      1010 5.15952E+00
 -1      1011 6.49607E-01
 -1      1012 4.67868E-01
 -1      1013 8.79600E-03
 -1      1014 2.13982E+00
 -1      1015 4.08566E+00
 -1      1016 2.99934E-01
 -1      1017 1.16474E-02
 -1      1018 4.41821E+00
 -1      1019 1.34172E-02
 -1      1020 4.65712E+00
 -1      1021 1.16474E-02
 -1      1022 2.87068E-01
 -1      1023 1.71074E+00
 -1      1024 4.23825E+00
 -1      1025 2.38390E+00
 -1      1026 3.96078E+00
 -1      1027 1.33631E+00
 -1      1028 2.25981E+00
 -1      1029 4.08566E+00
 -1      1030 8.96268E-01
 -1      1031 2.72780E-01
 -1      1032 1.69022E+00
 -1      1033 1.29686E+00
 -1      1034 9.71898E-01
 -1      1035 7.30685E-01
 -1      1036 5.51961E-01
 -1      1037 4.19017E-01
 -1      1038 3.18137E-01
 -1      1039 2.40733E-01
 -1      1040 1.80296E-01
 -1      1041 1.33348E-01
 -1      1042 9.81456E-02
 -1      1043 7.07422E-02
 -1      1044 4.99426E-02
 -1      1045 3.41931E-02
 -1      1046 2.28936E-02
 -1      1047 1.53316E-02
 -1      1048 1.06438E-02
 -1      1049 1.13499E+00
 -1      1050 3.70413E-01
 -1      1051 4.08566E+00
 -1      1052 7.25309E-01
 -1      1053 3.58436E-01
 -1      1054 4.70483E-01
 -1      1055 2.05414E-01
 -1      1056 1.53069E-01
 -1      1057 1.12586E-01
 -1      1058 8.16794E-02
 -1      1059 5.79678E-02
 -1      1060 3.98507E-02
 -1      1061 2.69200E-02
 -1      1062 2.20605E-02
 -1      1063 3.75162E-01
 -1      1064 1.77268E+00
 -1      1065 8.25333E-03
 -1      1066 1.62657E+00
 -1      1067 5.24865E-01
 -1      1068 9.89456E-01
 -1      1069 2.87068E-01
 -1      1070 3.86075E-01
 -1      1071 2.69951E+00
 -1      1072 5.01716E-01
 -1      1073 3.96078E+00
 -1      1074 3.21782E+00
 -1      1075 6.20791E-01
 -1      1076 9.91243E-01
 -1      1077 7.00784E-01
 -1      1078 3.70413E-01
 -1      1079 8.29223E-01
 -1      1080 1.74368E-02
 -1      1081 1.44257E+00
 -1      1082 1.74368E-02
 -1      1083 1.68709E+00
 -1      1084 1.79198E+00
 -1      1085 3.53362E+00
 -1      1086 3.02769E+00
 -1      1087 2.50857E+00
 -1      1088 1.60637E-01
 -1      1089 7.95677E-01
 -1      1090 1.18933E+00
 -1      1091 7.93553E-01
 -1      1092 5.70764E-01
 -1      1093 4.17635E-01
 -1      1094 3.24080E-01
 -1      1095 2.51241E-01
 -1      1096 1.94464E-01
 -1      1097 1.76785E-01
 -1      1098 1.15467E-01
 -1      1099 8.56631E-02
 -1      1100 6.08296E-02
 -1      1101 4.30098E-02
 -1      1102 2.99668E-02
 -1      1103 3.02916E-01
 -1      1104 3.24080E-01
 -1      1105 1.98857E+00
 -1      1106 2.73565E+00
 -1      1107 2.46718E-01
 -1      1108 4.08991E-01
 -1      1109 1.20561E-01
 -1      1110 1.05355E-01
 -1      1111 8.18491E-02
 -1      1112 5.81936E-02
 -1      1113 3.02943E-02
 -1      1114 1.15120E+00
 -1      1115 2.94233E+00
 -1      1116 4.47464E-01
 -1      1117 2.06120E+00
 -1      1118 5.10141E-01
 -1      1119 2.50005E-02
 -1      1120 1.66190E+00
 -1      1121 3.53362E+00
 -1      1122 1.31037E-02
 -1      1123 4.46592E-01
 -1      1124 2.06202E-02
 -1      1125 7.97798E-01
 -1      1126 8.13730E-01
 -1      1127 5.83045E-01
 -1      1128 1.62914E+00
 -1      1129 1.32588E+00
 -1      1130 1.93880E+00
 -1      1131 1.76785E-01
 -1      1132 2.20174E+00
 -1      1133 6.30967E-01
 -1      1134 2.25972E+00
 -1      1135 1.76785E-01
 -1      1136 2.99829E-02
 -1      1137 1.29698E+01
 -1      1138 8.26367E+00
 -1      1139 2.67714E+00
 -1      1140 1.54712E+00
 -1      1141 1.17048E+00
 -1      1142 9.59188E-01
 -1      1143 8.16091E-01
 -1      1144 7.16416E-01
 -1      1145 6.75549E-01
 -1      1146 7.16634E-01
 -1      1147 8.14144E-01
 -1      1148 9.58499E-01
 -1      1149 1.18007E+00
 -1      1150 1.55898E+00
 -1      1151 2.59986E+00
 -1      1152 5.90595E+00
 -1      1153 1.11410E+01
 -1      1154 1.29698E+01
 -1      1155 8.63165E+00
 -1      1156 3.77089E+00
 -1      1157 2.62201E+00
 -1      1158 1.71226E+00
 -1      1159 1.25902E+00
 -1      1160 9.60734E-01
 -1      1161 7.45069E-01
 -1      1162 6.57912E-01
 -1      1163 6.92396E-01
 -1      1164 8.19175E-01
 -1      1165 9.60735E-01
 -1      1166 1.01000E+00
 -1      1167 1.01559E+00
 -1      1168 1.02117E+00
 -1      1169 1.19982E+00
 -1      1170 1.75789E+00
 -1      1171 2.59161E+00
 -1      1172 3.16340E+00
 -1      1173 3.29847E+00
 -1      1174 3.31605E+00
 -1      1175 3.10668E+00
 -1      1176 2.39528E+00
 -1      1177 1.61859E+00
 -1      1178 1.20320E+00
 -1      1179 1.06248E+00
 -1      1180 1.03377E+00
 -1      1181 1.00506E+00
 -1      1182 9.56964E-01
 -1      1183 8.32162E-01
 -1      1184 6.78778E-01
 -1      1185 5.37765E-01
 -1      1186 4.36492E-01
 -1      1187 3.68211E-01
 -1      1188 3.05146E-01
 -1      1189 2.44095E-01
 -1      1190 1.89229E-01
 -1      1191 1.42400E-01
 -1      1192 1.07978E-01
 -1      1193 8.68629E-02
 -1      1194 7.13126E-02
 -1      1195 5.68999E-02
 -1      1196 4.40436E-02
 -1      1197 3.28538E-02
 -1      1198 2.42434E-02
 -1      1199 1.83765E-02
 -1      1200 1.33852E-02
 -1      1201 8.41873E-03
 -1      1202 5.34417E-03
 -1      1203 2.78771E-03
 -1      1204 1.38655E+01
 -1      1205 8.64126E+00
 -1      1206 2.91066E+00
 -1      1207 2.02588E+00
 -1      1208 1.49427E+00
 -1      1209 1.25428E+00
 -1      1210 1.10069E+00
 -1      1211 9.75650E-01
 -1      1212 9.14694E-01
 -1      1213 9.27945E-01
 -1      1214 9.45247E-01
 -1      1215 1.03715E+00
 -1      1216 1.26048E+00
 -1      1217 1.43205E+00
 -1      1218 1.65991E+00
 -1      1219 1.84891E+00
 -1      1220 2.09681E+00
 -1      1221 2.85202E+00
 -1      1222 3.83249E+00
 -1      1223 4.60148E+00
 -1      1224 4.89732E+00
 -1      1225 4.58732E+00
 -1      1226 3.37431E+00
 -1      1227 2.01657E+00
 -1      1228 1.54770E+00
 -1      1229 1.62887E+00
 -1      1230 1.72418E+00
 -1      1231 1.67803E+00
 -1      1232 1.51795E+00
 -1      1233 1.29074E+00
 -1      1234 1.06495E+00
 -1      1235 8.46169E-01
 -1      1236 6.47389E-01
 -1      1237 4.78998E-01
 -1      1238 3.58091E-01
 -1      1239 2.75247E-01
 -1      1240 2.06636E-01
 -1      1241 1.51526E-01
 -1      1242 1.08334E-01
 -1      1243 7.51912E-02
 -1      1244 5.41434E-02
 -1      1245 4.30037E-02
 -1      1246 3.45764E-02
 -1      1247 2.69093E-02
 -1      1248 2.11981E-02
 -1      1249 1.75050E-02
 -1      1250 1.38827E-02
 -1      1251 9.60322E-03
 -1      1252 5.94618E-03
 -1      1253 2.71199E-03
 -1      1254 1.50396E-03
 -1      1255 1.68065E-03
 -1      1256 9.01338E-04
 -1      1257 6.83140E-04
 -1      1258 7.82500E-04
 -1      1259 7.59443E-04
 -1      1260 6.63710E-04
 -1      1261 5.23257E-04
 -1      1262 4.47759E-04
 -1      1263 4.98446E-04
 -1      1264 6.24296E-04
 -1      1265 7.18861E-04
 -1      1266 7.45983E-04
 -1      1267 6.54968E-04
 -1      1268 1.06470E-03
 -1      1269 2.24442E-03
 -1      1270 1.90902E-03
 -1      1271 2.54035E+01
 -1      1272 3.71451E+01
 -1      1273 4.89999E+01
 -1      1274 3.56877E+01
 -1      1275 1.71346E+01
 -1      1276 1.21978E+01
 -1      1277 1.25018E+01
 -1      1278 1.23347E+01
 -1      1279 1.22474E+01
 -1      1280 1.23272E+01
 -1      1281 1.85554E+01
 -1      1282 2.81044E+01
 -1      1283 3.14252E+01
 -1      1284 2.80512E+01
 -1      1285 2.44301E+01
 -1      1286 2.41347E+01
 -1      1287 3.53809E+01
 -1      1288 4.66753E+01
 -1      1289 3.31137E+01
 -1      1290 1.57251E+01
 -1      1291 1.21389E+01
 -1      1292 1.24025E+01
 -1      1293 1.24253E+01
 -1      1294 1.22762E+01
 -1      1295 1.20491E+01
 -1      1296 1.69139E+01
 -1      1297 3.47791E+01
 -1      1298 4.77014E+01
 -1      1299 3.66091E+01
 -1      1300 2.55168E+01
 -1      1301 1.29698E+01
 -1      1302 4.73152E+00
 -1      1303 9.43766E+00
 -1      1304 2.03756E+00
 -1      1305 2.91795E+00
 -1      1306 4.09194E+00
 -1      1307 1.41231E+00
 -1      1308 1.66194E+00
 -1      1309 1.90275E+00
 -1      1310 1.10582E+00
 -1      1311 1.23284E+00
 -1      1312 1.34765E+00
 -1      1313 9.17931E-01
 -1      1314 1.00220E+00
 -1      1315 1.06456E+00
 -1      1316 7.90457E-01
 -1      1317 8.49285E-01
 -1      1318 8.92297E-01
 -1      1319 7.01226E-01
 -1      1320 7.42073E-01
 -1      1321 7.75267E-01
 -1      1322 6.69172E-01
 -1      1323 6.69193E-01
 -1      1324 6.94849E-01
 -1      1325 7.42520E-01
 -1      1326 7.01415E-01
 -1      1327 6.95059E-01
 -1      1328 8.46320E-01
 -1      1329 7.89915E-01
 -1      1330 7.74696E-01
 -1      1331 1.00590E+00
 -1      1332 9.17955E-01
 -1      1333 8.93725E-01
 -1      1334 1.24713E+00
 -1      1335 1.11351E+00
 -1      1336 1.07297E+00
 -1      1337 1.67488E+00
 -1      1338 1.42958E+00
 -1      1339 1.36303E+00
 -1      1340 2.83034E+00
 -1      1341 2.03476E+00
 -1      1342 1.90536E+00
 -1      1343 6.12243E+00
 -1      1344 3.61192E+00
 -1      1345 3.04682E+00
 -1      1346 1.38655E+01
 -1      1347 1.11410E+01
 -1      1348 8.84693E+00
 -1      1349 1.38655E+01
 -1      1350 8.63165E+00
 -1      1351 4.29348E+00
 -1      1352 3.77089E+00
 -1      1353 3.24830E+00
 -1      1354 3.77089E+00
 -1      1355 2.62201E+00
 -1      1356 1.99573E+00
 -1      1357 2.62201E+00
 -1      1358 1.71226E+00
 -1      1359 1.42879E+00
 -1      1360 1.71226E+00
 -1      1361 1.25902E+00
 -1      1362 1.08924E+00
 -1      1363 1.25902E+00
 -1      1364 9.60734E-01
 -1      1365 8.32226E-01
 -1      1366 9.60734E-01
 -1      1367 7.30254E-01
 -1      1368 6.43097E-01
 -1      1369 7.30254E-01
 -1      1370 6.57912E-01
 -1      1371 6.57912E-01
 -1      1372 6.43097E-01
 -1      1373 6.55399E-01
 -1      1374 6.89883E-01
 -1      1375 6.55399E-01
 -1      1376 7.26880E-01
 -1      1377 8.19175E-01
 -1      1378 6.89883E-01
 -1      1379 9.11470E-01
 -1      1380 9.60735E-01
 -1      1381 8.19175E-01
 -1      1382 1.01000E+00
 -1      1383 1.01000E+00
 -1      1384 9.60735E-01
 -1      1385 9.81442E-01
 -1      1386 9.87028E-01
 -1      1387 9.81442E-01
 -1      1388 1.02117E+00
 -1      1389 1.02117E+00
 -1      1390 9.87028E-01
 -1      1391 1.00992E+00
 -1      1392 1.18857E+00
 -1      1393 1.00992E+00
 -1      1394 1.37848E+00
 -1      1395 1.75789E+00
 -1      1396 1.18857E+00
 -1      1397 2.13730E+00
 -1      1398 2.59161E+00
 -1      1399 1.75789E+00
 -1      1400 3.04592E+00
 -1      1401 3.16340E+00
 -1      1402 2.59161E+00
 -1      1403 3.28089E+00
 -1      1404 3.29847E+00
 -1      1405 3.16340E+00
 -1      1406 3.31605E+00
 -1      1407 3.31605E+00
 -1      1408 3.29847E+00
 -1      1409 3.10668E+00
 -1      1410 2.89730E+00
 -1      1411 3.10668E+00
 -1      1412 2.40736E+00
 -1      1413 1.90534E+00
 -1      1414 2.40736E+00
 -1      1415 1.61859E+00
 -1      1416 1.34392E+00
 -1      1417 1.63067E+00
 -1      1418 1.15633E+00
 -1      1419 1.01561E+00
 -1      1420 1.15633E+00
 -1      1421 1.06248E+00
 -1      1422 1.06248E+00
 -1      1423 1.01561E+00
 -1      1424 1.01910E+00
 -1      1425 9.90386E-01
 -1      1426 1.01910E+00
 -1      1427 1.00506E+00
 -1      1428 1.00506E+00
 -1      1429 9.90386E-01
 -1      1430 9.56964E-01
 -1      1431 9.08868E-01
 -1      1432 9.56964E-01
 -1      1433 8.32162E-01
 -1      1434 7.55456E-01
 -1      1435 8.32162E-01
 -1      1436 6.93666E-01
 -1      1437 6.16988E-01
 -1      1438 6.93666E-01
 -1      1439 5.73393E-01
 -1      1440 5.09059E-01
 -1      1441 5.88282E-01
 -1      1442 4.61406E-01
 -1      1443 4.24467E-01
 -1      1444 4.97035E-01
 -1      1445 3.76788E-01
 -1      1446 3.45447E-01
 -1      1447 4.01703E-01
 -1      1448 3.05146E-01
 -1      1449 2.73421E-01
 -1      1450 3.13722E-01
 -1      1451 2.44095E-01
 -1      1452 2.14768E-01
 -1      1453 2.44095E-01
 -1      1454 1.91496E-01
 -1      1455 1.65957E-01
 -1      1456 1.91496E-01
 -1      1457 1.46494E-01
 -1      1458 1.25203E-01
 -1      1459 1.48761E-01
 -1      1460 1.08915E-01
 -1      1461 9.57838E-02
 -1      1462 1.13009E-01
 -1      1463 8.68629E-02
 -1      1464 7.88791E-02
 -1      1465 8.78000E-02
 -1      1466 7.13126E-02
 -1      1467 6.37460E-02
 -1      1468 7.13126E-02
 -1      1469 5.68999E-02
 -1      1470 5.00539E-02
 -1      1471 5.68999E-02
 -1      1472 4.40436E-02
 -1      1473 3.80332E-02
 -1      1474 4.40436E-02
 -1      1475 3.28538E-02
 -1      1476 2.76743E-02
 -1      1477 3.28538E-02
 -1      1478 2.42434E-02
 -1      1479 2.08125E-02
 -1      1480 2.42434E-02
 -1      1481 1.83765E-02
 -1      1482 1.59405E-02
 -1      1483 1.83765E-02
 -1      1484 1.33852E-02
 -1      1485 1.08299E-02
 -1      1486 1.33852E-02
 -1      1487 8.72920E-03
 -1      1488 6.31802E-03
 -1      1489 8.72920E-03
 -1      1490 5.34417E-03
 -1      1491 4.68078E-03
 -1      1492 5.65464E-03
 -1      1493 3.80209E-03
 -1      1494 3.80209E-03
 -1      1495 3.41707E+00
 -1      1496 8.64126E+00
 -1      1497 8.64126E+00
 -1      1498 2.40425E+00
 -1      1499 2.91066E+00
 -1      1500 2.91066E+00
 -1      1501 1.64752E+00
 -1      1502 2.02588E+00
 -1      1503 2.02588E+00
 -1      1504 1.34102E+00
 -1      1505 1.49427E+00
 -1      1506 1.49427E+00
 -1      1507 1.16754E+00
 -1      1508 1.25428E+00
 -1      1509 1.25428E+00
 -1      1510 1.03385E+00
 -1      1511 1.10069E+00
 -1      1512 1.10069E+00
 -1      1513 9.17453E-01
 -1      1514 9.75650E-01
 -1      1515 9.75650E-01
 -1      1516 8.76395E-01
 -1      1517 8.79154E-01
 -1      1518 8.79154E-01
 -1      1519 9.27945E-01
 -1      1520 9.11936E-01
 -1      1521 8.76395E-01
 -1      1522 9.45247E-01
 -1      1523 9.43954E-01
 -1      1524 9.27945E-01
 -1      1525 1.03715E+00
 -1      1526 9.46540E-01
 -1      1527 9.45247E-01
 -1      1528 1.26048E+00
 -1      1529 1.12777E+00
 -1      1530 1.03715E+00
 -1      1531 1.43205E+00
 -1      1532 1.39319E+00
 -1      1533 1.26048E+00
 -1      1534 1.65991E+00
 -1      1535 1.47091E+00
 -1      1536 1.43205E+00
 -1      1537 1.84891E+00
 -1      1538 1.84891E+00
 -1      1539 1.65991E+00
 -1      1540 2.05817E+00
 -1      1541 1.81027E+00
 -1      1542 1.81027E+00
 -1      1543 2.85202E+00
 -1      1544 2.34470E+00
 -1      1545 2.05817E+00
 -1      1546 3.83249E+00
 -1      1547 3.35934E+00
 -1      1548 2.85202E+00
 -1      1549 4.60148E+00
 -1      1550 4.30564E+00
 -1      1551 3.83249E+00
 -1      1552 4.89732E+00
 -1      1553 4.89732E+00
 -1      1554 4.60148E+00
 -1      1555 4.27731E+00
 -1      1556 4.58732E+00
 -1      1557 4.58732E+00
 -1      1558 2.47130E+00
 -1      1559 3.37431E+00
 -1      1560 3.37431E+00
 -1      1561 1.56184E+00
 -1      1562 2.01657E+00
 -1      1563 2.01657E+00
 -1      1564 1.46672E+00
 -1      1565 1.48087E+00
 -1      1566 1.48087E+00
 -1      1567 1.62887E+00
 -1      1568 1.53355E+00
 -1      1569 1.46672E+00
 -1      1570 1.72418E+00
 -1      1571 1.72418E+00
 -1      1572 1.62887E+00
 -1      1573 1.63187E+00
 -1      1574 1.67803E+00
 -1      1575 1.67803E+00
 -1      1576 1.40404E+00
 -1      1577 1.51795E+00
 -1      1578 1.51795E+00
 -1      1579 1.17744E+00
 -1      1580 1.29074E+00
 -1      1581 1.29074E+00
 -1      1582 9.60904E-01
 -1      1583 1.07339E+00
 -1      1584 1.07339E+00
 -1      1585 7.57184E-01
 -1      1586 8.63483E-01
 -1      1587 8.71919E-01
 -1      1588 5.75935E-01
 -1      1589 6.68415E-01
 -1      1590 6.85730E-01
 -1      1591 4.24367E-01
 -1      1592 5.00278E-01
 -1      1593 5.21304E-01
 -1      1594 3.18218E-01
 -1      1595 3.63215E-01
 -1      1596 3.84494E-01
 -1      1597 2.37400E-01
 -1      1598 2.75247E-01
 -1      1599 2.80371E-01
 -1      1600 1.75873E-01
 -1      1601 2.06636E-01
 -1      1602 2.06636E-01
 -1      1603 1.27780E-01
 -1      1604 1.52127E-01
 -1      1605 1.52127E-01
 -1      1606 9.11203E-02
 -1      1607 1.09965E-01
 -1      1608 1.10566E-01
 -1      1609 6.30584E-02
 -1      1610 7.73571E-02
 -1      1611 7.89875E-02
 -1      1612 4.73943E-02
 -1      1613 5.41434E-02
 -1      1614 5.63093E-02
 -1      1615 3.86132E-02
 -1      1616 4.30037E-02
 -1      1617 4.30037E-02
 -1      1618 3.05397E-02
 -1      1619 3.45764E-02
 -1      1620 3.45764E-02
 -1      1621 2.32790E-02
 -1      1622 2.69093E-02
 -1      1623 2.69093E-02
 -1      1624 1.91172E-02
 -1      1625 2.11981E-02
 -1      1626 2.11981E-02
 -1      1627 1.58928E-02
 -1      1628 1.75050E-02
 -1      1629 1.75050E-02
 -1      1630 1.18726E-02
 -1      1631 1.38827E-02
 -1      1632 1.38827E-02
 -1      1633 7.33389E-03
 -1      1634 9.60322E-03
 -1      1635 9.60322E-03
 -1      1636 4.55847E-03
 -1      1637 5.94618E-03
 -1      1638 5.94618E-03
 -1      1639 3.35044E-03
 -1      1640 1.31102E-03
 -1      1641 1.77278E-03
 -1      1642 8.30315E-04
 -1      1643 1.14787E-03
 -1      1644 1.24000E-03
 -1      1645 1.08159E-03
 -1      1646 9.82232E-04
 -1      1647 1.22877E-03
 -1      1648 1.08159E-03
 -1      1649 1.08159E-03
 -1      1650 1.38068E-03
 -1      1651 1.03975E-03
 -1      1652 1.06281E-03
 -1      1653 1.36190E-03
 -1      1654 8.87225E-04
 -1      1655 9.59900E-04
 -1      1656 1.26327E-03
 -1      1657 6.75443E-04
 -1      1658 7.43222E-04
 -1      1659 1.03941E-03
 -1      1660 5.47695E-04
 -1      1661 5.55414E-04
 -1      1662 7.75379E-04
 -1      1663 7.00143E-04
 -1      1664 6.41736E-04
 -1      1665 7.49392E-04
 -1      1666 8.99498E-04
 -1      1667 8.32056E-04
 -1      1668 9.75346E-04
 -1      1669 1.00276E-03
 -1      1670 9.75633E-04
 -1      1671 1.18339E-03
 -1      1672 1.01327E-03
 -1      1673 1.01327E-03
 -1      1674 1.27004E-03
 -1      1675 9.22252E-04
 -1      1676 1.01327E-03
 -1      1677 1.28055E-03
 -1      1678 1.41148E-03
 -1      1679 9.10728E-04
 -1      1680 1.26903E-03
 -1      1681 2.76725E-03
 -1      1682 2.08828E-03
 -1      1683 1.93431E-03
 -1      1684 3.64594E-03
 -1      1685 2.87927E+01
 -1      1686 2.89060E+01
 -1      1687 3.92779E+01
 -1      1688 2.74231E+01
 -1      1689 4.89999E+01
 -1      1690 4.89999E+01
 -1      1691 2.36318E+01
 -1      1692 3.69441E+01
 -1      1693 1.18938E+01
 -1      1694 1.71346E+01
 -1      1695 1.20736E+01
 -1      1696 1.17695E+01
 -1      1697 1.25018E+01
 -1      1698 1.25018E+01
 -1      1699 1.20405E+01
 -1      1700 1.22076E+01
 -1      1701 1.22474E+01
 -1      1702 1.21676E+01
 -1      1703 1.23272E+01
 -1      1704 1.23272E+01
 -1      1705 1.81646E+01
 -1      1706 1.19364E+01
 -1      1707 2.94432E+01
 -1      1708 2.61224E+01
 -1      1709 3.25928E+01
 -1      1710 3.25928E+01
 -1      1711 2.92188E+01
 -1      1712 3.25928E+01
 -1      1713 2.65575E+01
 -1      1714 2.68046E+01
 -1      1715 2.65092E+01
 -1      1716 2.65575E+01
 -1      1717 3.72360E+01
 -1      1718 2.59416E+01
 -1      1719 4.66753E+01
 -1      1720 4.66753E+01
 -1      1721 2.07692E+01
 -1      1722 3.43309E+01
 -1      1723 1.12534E+01
 -1      1724 1.50804E+01
 -1      1725 1.21389E+01
 -1      1726 1.18981E+01
 -1      1727 1.24025E+01
 -1      1728 1.23798E+01
 -1      1729 1.24253E+01
 -1      1730 1.24253E+01
 -1      1731 1.21271E+01
 -1      1732 1.22762E+01
 -1      1733 1.19711E+01
 -1      1734 1.20491E+01
 -1      1735 1.65139E+01
 -1      1736 1.15711E+01
 -1      1737 3.54380E+01
 -1      1738 2.25157E+01
 -1      1739 4.77014E+01
 -1      1740 4.77014E+01
 -1      1741 2.71471E+01
 -1      1742 3.82394E+01
 -1      1743 2.89060E+01
 -1      1744 2.89060E+01
 -1      1745 1.83910E+01
 -1      1746 3.69441E+01
 -1      1747 3.35044E-03
 -1      1748 2.98081E-03
 -1      1749 3.09255E+01
 -1      1750 3.92779E+01
 -1      1751 3.22952E+01
 -1      1752 1.17695E+01
 -1      1753 1.20736E+01
 -1      1754 1.22076E+01
 -1      1755 1.20405E+01
 -1      1756 1.22474E+01
 -1      1757 1.19364E+01
 -1      1758 1.95034E+01
 -1      1759 3.06108E+01
 -1      1760 3.37604E+01
 -1      1761 3.13462E+01
 -1      1762 2.89320E+01
 -1      1763 2.83643E+01
 -1      1764 3.72360E+01
 -1      1765 3.43309E+01
 -1      1766 1.62975E+01
 -1      1767 1.12534E+01
 -1      1768 1.21389E+01
 -1      1769 1.24025E+01
 -1      1770 1.22762E+01
 -1      1771 1.20491E+01
 -1      1772 1.15711E+01
 -1      1773 1.71728E+01
 -1      1774 3.54380E+01
 -1      1775 3.82394E+01
 -1      1776 3.05363E+01
 -1      1777 9.43766E+00
 -1      1778 1.29089E+00
 -1      1779 1.66651E+00
 -1      1780 2.33639E+00
 -1      1781 4.14996E+00
 -1      1782 1.72453E+00
 -1      1783 8.83182E-01
 -1      1784 9.86800E-01
 -1      1785 7.54426E-01
 -1      1786 8.23073E-01
 -1      1787 7.45310E-01
 -1      1788 6.63427E-01
 -1      1789 7.11811E-01
 -1      1790 6.42587E-01
 -1      1791 5.98240E-01
 -1      1792 6.30274E-01
 -1      1793 5.66818E-01
 -1      1794 6.30902E-01
 -1      1795 5.98659E-01
 -1      1796 5.34084E-01
 -1      1797 7.10629E-01
 -1      1798 6.63234E-01
 -1      1799 5.66835E-01
 -1      1800 8.27250E-01
 -1      1801 7.55615E-01
 -1      1802 6.44153E-01
 -1      1803 9.92340E-01
 -1      1804 8.84731E-01
 -1      1805 7.46621E-01
 -1      1806 1.24927E+00
 -1      1807 1.06682E+00
 -1      1808 8.78584E-01
 -1      1809 1.71402E+00
 -1      1810 1.35414E+00
 -1      1811 1.05794E+00
 -1      1812 2.56557E+00
 -1      1813 1.78399E+00
 -1      1814 1.23277E+00
 -1      1815 7.97515E+00
 -1      1816 2.95663E+00
 -1      1817 1.69379E+00
 -1      1818 2.75096E+00
 -1      1819 5.09950E+00
 -1      1820 2.08080E+00
 -1      1821 2.58721E+00
 -1      1822 1.92110E+00
 -1      1823 3.34394E+00
 -1      1824 2.43043E+00
 -1      1825 1.80415E+00
 -1      1826 1.55066E+00
 -1      1827 1.26720E+00
 -1      1828 1.35908E+00
 -1      1829 1.09810E+00
 -1      1830 9.28325E-01
 -1      1831 9.36504E-01
 -1      1832 8.57128E-01
 -1      1833 7.28619E-01
 -1      1834 6.96210E-01
 -1      1835 6.54747E-01
 -1      1836 5.52776E-01
 -1      1837 5.51141E-01
 -1      1838 5.50132E-01
 -1      1839 5.64947E-01
 -1      1840 4.74625E-01
 -1      1841 5.76090E-01
 -1      1842 5.73577E-01
 -1      1843 4.83125E-01
 -1      1844 5.79499E-01
 -1      1845 6.16496E-01
 -1      1846 5.00190E-01
 -1      1847 6.83223E-01
 -1      1848 7.75518E-01
 -1      1849 5.72839E-01
 -1      1850 8.05595E-01
 -1      1851 8.54860E-01
 -1      1852 6.69643E-01
 -1      1853 8.27416E-01
 -1      1854 7.98858E-01
 -1      1855 6.72276E-01
 -1      1856 7.51651E-01
 -1      1857 7.85795E-01
 -1      1858 5.97625E-01
 -1      1859 8.09693E-01
 -1      1860 7.98439E-01
 -1      1861 5.74317E-01
 -1      1862 9.90379E-01
 -1      1863 1.18028E+00
 -1      1864 7.90154E-01
 -1      1865 1.40791E+00
 -1      1866 1.78732E+00
 -1      1867 1.20971E+00
 -1      1868 1.99876E+00
 -1      1869 2.45307E+00
 -1      1870 1.64878E+00
 -1      1871 2.56145E+00
 -1      1872 2.67893E+00
 -1      1873 1.96860E+00
 -1      1874 2.63645E+00
 -1      1875 2.65404E+00
 -1      1876 2.03450E+00
 -1      1877 2.69535E+00
 -1      1878 2.48598E+00
 -1      1879 2.03334E+00
 -1      1880 2.33115E+00
 -1      1881 1.84121E+00
 -1      1882 1.91983E+00
 -1      1883 1.63416E+00
 -1      1884 1.34741E+00
 -1      1885 1.55795E+00
 -1      1886 1.09353E+00
 -1      1887 9.05941E-01
 -1      1888 1.09702E+00
 -1      1889 7.50940E-01
 -1      1890 7.97810E-01
 -1      1891 6.88141E-01
 -1      1892 8.11017E-01
 -1      1893 7.67633E-01
 -1      1894 5.46347E-01
 -1      1895 8.42105E-01
 -1      1896 8.56778E-01
 -1      1897 6.34025E-01
 -1      1898 8.82470E-01
 -1      1899 8.34374E-01
 -1      1900 7.34188E-01
 -1      1901 8.13600E-01
 -1      1902 7.36894E-01
 -1      1903 7.39106E-01
 -1      1904 6.97618E-01
 -1      1905 6.35828E-01
 -1      1906 6.79056E-01
 -1      1907 6.00828E-01
 -1      1908 5.57234E-01
 -1      1909 6.04780E-01
 -1      1910 5.20663E-01
 -1      1911 4.73010E-01
 -1      1912 5.33209E-01
 -1      1913 4.31008E-01
 -1      1914 3.83329E-01
 -1      1915 4.54636E-01
 -1      1916 3.41704E-01
 -1      1917 3.01402E-01
 -1      1918 3.71009E-01
 -1      1919 2.63571E-01
 -1      1920 2.34245E-01
 -1      1921 2.91552E-01
 -1      1922 2.01843E-01
 -1      1923 1.78571E-01
 -1      1924 2.21319E-01
 -1      1925 1.52045E-01
 -1      1926 1.32581E-01
 -1      1927 1.62392E-01
 -1      1928 1.13009E-01
 -1      1929 9.67209E-02
 -1      1930 1.16293E-01
 -1      1931 8.35194E-02
 -1      1932 7.45985E-02
 -1      1933 8.35194E-02
 -1      1934 6.48239E-02
 -1      1935 5.72573E-02
 -1      1936 6.05432E-02
 -1      1937 5.10485E-02
 -1      1938 4.42024E-02
 -1      1939 4.45598E-02
 -1      1940 4.06325E-02
 -1      1941 3.46222E-02
 -1      1942 3.47810E-02
 -1      1943 3.12155E-02
 -1      1944 2.60361E-02
 -1      1945 2.78044E-02
 -1      1946 2.28973E-02
 -1      1947 1.94664E-02
 -1      1948 2.12590E-02
 -1      1949 1.66461E-02
 -1      1950 1.42101E-02
 -1      1951 1.53000E-02
 -1      1952 1.25852E-02
 -1      1953 1.00299E-02
 -1      1954 1.08548E-02
 -1      1955 8.48283E-03
 -1      1956 6.38213E-03
 -1      1957 7.68281E-03
 -1      1958 5.10011E-03
 -1      1959 4.12626E-03
 -1      1960 3.09142E-03
 -1      1961 4.85374E-03
 -1      1962 1.36522E+00
 -1      1963 1.74358E+00
 -1      1964 1.42014E+00
 -1      1965 1.04166E+00
 -1      1966 1.19490E+00
 -1      1967 9.12606E-01
 -1      1968 9.34498E-01
 -1      1969 1.02124E+00
 -1      1970 7.21874E-01
 -1      1971 8.51187E-01
 -1      1972 9.18033E-01
 -1      1973 6.84991E-01
 -1      1974 7.67867E-01
 -1      1975 8.26064E-01
 -1      1976 6.43404E-01
 -1      1977 7.58940E-01
 -1      1978 7.97240E-01
 -1      1979 6.47654E-01
 -1      1980 8.86317E-01
 -1      1981 8.50777E-01
 -1      1982 7.68863E-01
 -1      1983 9.85681E-01
 -1      1984 9.69672E-01
 -1      1985 9.44053E-01
 -1      1986 1.06095E+00
 -1      1987 1.05965E+00
 -1      1988 1.10138E+00
 -1      1989 1.15907E+00
 -1      1990 1.06846E+00
 -1      1991 1.18287E+00
 -1      1992 1.29178E+00
 -1      1993 1.15907E+00
 -1      1994 1.19038E+00
 -1      1995 1.22866E+00
 -1      1996 1.18980E+00
 -1      1997 1.08840E+00
 -1      1998 1.41204E+00
 -1      1999 1.22304E+00
 -1      2000 9.80792E-01
 -1      2001 1.58826E+00
 -1      2002 1.62690E+00
 -1      2003 1.19003E+00
 -1      2004 2.27157E+00
 -1      2005 1.98504E+00
 -1      2006 1.80167E+00
 -1      2007 2.95503E+00
 -1      2008 2.44771E+00
 -1      2009 2.37458E+00
 -1      2010 3.40198E+00
 -1      2011 2.92883E+00
 -1      2012 2.52452E+00
 -1      2013 3.83142E+00
 -1      2014 3.53558E+00
 -1      2015 2.63192E+00
 -1      2016 3.45187E+00
 -1      2017 3.76188E+00
 -1      2018 2.69598E+00
 -1      2019 2.13823E+00
 -1      2020 3.04124E+00
 -1      2021 2.21580E+00
 -1      2022 1.26999E+00
 -1      2023 1.72472E+00
 -1      2024 1.39165E+00
 -1      2025 1.16775E+00
 -1      2026 1.24872E+00
 -1      2027 9.56866E-01
 -1      2028 1.37412E+00
 -1      2029 1.30730E+00
 -1      2030 1.07515E+00
 -1      2031 1.49182E+00
 -1      2032 1.39650E+00
 -1      2033 1.23707E+00
 -1      2034 1.45006E+00
 -1      2035 1.49622E+00
 -1      2036 1.26385E+00
 -1      2037 1.28352E+00
 -1      2038 1.39744E+00
 -1      2039 1.21562E+00
 -1      2040 1.10943E+00
 -1      2041 1.22273E+00
 -1      2042 1.10221E+00
 -1      2043 9.30323E-01
 -1      2044 1.03437E+00
 -1      2045 9.66360E-01
 -1      2046 7.51138E-01
 -1      2047 8.48559E-01
 -1      2048 8.09541E-01
 -1      2049 5.84748E-01
 -1      2050 6.73517E-01
 -1      2051 6.50156E-01
 -1      2052 4.41052E-01
 -1      2053 5.16709E-01
 -1      2054 5.04495E-01
 -1      2055 3.23342E-01
 -1      2056 3.84494E-01
 -1      2057 3.79899E-01
 -1      2058 2.35144E-01
 -1      2059 2.78115E-01
 -1      2060 2.78115E-01
 -1      2061 1.74732E-01
 -1      2062 2.05496E-01
 -1      2063 2.03240E-01
 -1      2064 1.28381E-01
 -1      2065 1.52127E-01
 -1      2066 1.50986E-01
 -1      2067 9.27508E-02
 -1      2068 1.10566E-01
 -1      2069 1.10566E-01
 -1      2070 6.52243E-02
 -1      2071 7.89875E-02
 -1      2072 7.89875E-02
 -1      2073 4.58690E-02
 -1      2074 5.47840E-02
 -1      2075 5.47840E-02
 -1      2076 3.38201E-02
 -1      2077 3.82107E-02
 -1      2078 3.66854E-02
 -1      2079 2.70706E-02
 -1      2080 3.11074E-02
 -1      2081 2.63143E-02
 -1      2082 2.10646E-02
 -1      2083 2.46949E-02
 -1      2084 2.12258E-02
 -1      2085 1.66764E-02
 -1      2086 1.87573E-02
 -1      2087 1.65429E-02
 -1      2088 1.29166E-02
 -1      2089 1.45288E-02
 -1      2090 1.20880E-02
 -1      2091 9.69592E-03
 -1      2092 1.17061E-02
 -1      2093 8.72984E-03
 -1      2094 6.29580E-03
 -1      2095 8.56513E-03
 -1      2096 6.38849E-03
 -1      2097 3.93417E-03
 -1      2098 5.32188E-03
 -1      2099 4.28378E-03
 -1      2100 2.35651E-03
 -1      2101 1.75483E-03
 -1      2102 1.75483E-03
 -1      2103 1.75483E-03
 -1      2104 1.60291E-03
 -1      2105 2.12898E-03
 -1      2106 1.92027E-03
 -1      2107 2.08342E-03
 -1      2108 3.03678E-03
 -1      2109 2.44633E-03
 -1      2110 1.55352E-03
 -1      2111 1.57231E-03
 -1      2112 1.94645E-03
 -1      2113 1.37877E-03
 -1      2114 1.45862E-03
 -1      2115 1.66903E-03
 -1      2116 1.02676E-03
 -1      2117 1.17076E-03
 -1      2118 1.36612E-03
 -1      2119 6.69325E-04
 -1      2120 7.89354E-04
 -1      2121 9.20702E-04
 -1      2122 7.36680E-04
 -1      2123 6.42639E-04
 -1      2124 6.56613E-04
 -1      2125 1.07984E-03
 -1      2126 9.47925E-04
 -1      2127 8.41172E-04
 -1      2128 1.37288E-03
 -1      2129 1.29674E-03
 -1      2130 1.26932E-03
 -1      2131 1.49763E-03
 -1      2132 1.48711E-03
 -1      2133 1.60047E-03
 -1      2134 1.58716E-03
 -1      2135 1.58716E-03
 -1      2136 1.80423E-03
 -1      2137 2.00759E-03
 -1      2138 2.01912E-03
 -1      2139 2.32573E-03
 -1      2140 3.92779E+01
 -1      2141 2.95559E+01
 -1      2142 3.32222E+01
 -1      2143 3.32222E+01
 -1      2144 3.18525E+01
 -1      2145 3.32222E+01
 -1      2146 3.41492E+01
 -1      2147 2.12862E+01
 -1      2148 3.33420E+01
 -1      2149 2.36200E+01
 -1      2150 1.12050E+01
 -1      2151 1.77022E+01
 -1      2152 1.05079E+00
 -1      2153 1.23027E+00
 -1      2154 9.94033E-01
 -1      2155 8.69414E-01
 -1      2156 1.07881E+01
 -1      2157 1.03599E+01
 -1      2158 1.16053E+01
 -1      2159 1.18995E+01
 -1      2160 1.13847E+01
 -1      2161 1.12576E+01
 -1      2162 1.07961E+01
 -1      2163 1.07164E+01
 -1      2164 9.93343E+00
 -1      2165 9.01704E+00
 -1      2166 9.40784E+00
 -1      2167 1.89616E+01
 -1      2168 1.10038E+01
 -1      2169 2.65127E+01
 -1      2170 2.33631E+01
 -1      2171 3.37604E+01
 -1      2172 3.37604E+01
 -1      2173 3.18685E+01
 -1      2174 3.42827E+01
 -1      2175 3.18685E+01
 -1      2176 3.18685E+01
 -1      2177 2.68472E+01
 -1      2178 2.74148E+01
 -1      2179 3.72360E+01
 -1      2180 2.77967E+01
 -1      2181 1.88575E+01
 -1      2182 3.12019E+01
 -1      2183 9.63444E+00
 -1      2184 1.53233E+01
 -1      2185 1.00143E+01
 -1      2186 9.36960E+00
 -1      2187 8.39538E+00
 -1      2188 1.11013E+01
 -1      2189 1.08604E+01
 -1      2190 1.11790E+01
 -1      2191 1.11563E+01
 -1      2192 1.07745E+01
 -1      2193 1.09236E+01
 -1      2194 1.03953E+01
 -1      2195 1.04732E+01
 -1      2196 9.12062E+00
 -1      2197 8.69845E+00
 -1      2198 9.09851E+00
 -1      2199 1.65351E+01
 -1      2200 1.05333E+01
 -1      2201 3.22186E+01
 -1      2202 1.99552E+01
 -1      2203 2.87774E+01
 -1      2204 3.82394E+01
 -1      2205 3.14703E+01
 -1      2206 2.97115E+01
 -1      2207 9.29399E+00
 -1      2208 9.41821E+00
 -1      2209 2.82135E+00
 -1      2210 6.58532E+00
 -1      2211 9.50463E+00
 -1      2212 7.97362E+00
 -1      2213 8.00854E+00
 -1      2214 2.00348E+00
 -1      2215 3.18525E+01
 -1      2216 2.68440E-03
 -1      2217 1.41002E+01
 -1      2218 3.23973E+01
 -1      2219 8.72944E+00
 -1      2220 2.97115E+01
 -1      2221 2.27566E+01
 -1      2222 1.33156E+01
 -1      2223 7.52265E+00
 -1      2224 9.67731E+00
 -1      2225 8.97665E+00
 -1      2226 1.55494E+01
 -1      2227 1.24205E+01
 -1      2228 8.88634E+00
 -1      2229 2.17626E+01
 -1      2230 2.68472E+01
 -1      2231 3.03513E+01
 -1      2232 3.48050E+01
 -1      2233 3.42827E+01
 -1      2234 2.65127E+01
 -1      2235 1.48635E+01
 -1      2236 1.01858E+01
 -1      2237 1.09494E+01
 -1      2238 8.47526E+00
 -1      2239 9.87776E+00
 -1      2240 8.06071E+00
 -1      2241 9.95690E-01
 -1      2242 1.33291E+00
 -1      2243 5.39135E-01
 -1      2244 5.81750E-01
 -1      2245 6.07835E-01
 -1      2246 6.67944E-01
 -1      2247 5.04384E-01
 -1      2248 4.52955E-01
 -1      2249 4.52536E-01
 -1      2250 5.08626E-01
 -1      2251 4.76294E-01
 -1      2252 3.94747E-01
 -1      2253 5.81595E-01
 -1      2254 5.36608E-01
 -1      2255 4.46068E-01
 -1      2256 6.63819E-01
 -1      2257 6.06338E-01
 -1      2258 4.98793E-01
 -1      2259 7.47666E-01
 -1      2260 6.73184E-01
 -1      2261 5.32901E-01
 -1      2262 9.32633E-01
 -1      2263 8.27763E-01
 -1      2264 6.22362E-01
 -1      2265 7.17884E-01
 -1      2266 8.88198E-01
 -1      2267 8.00968E-01
 -1      2268 1.14336E+00
 -1      2269 8.89879E-01
 -1      2270 8.00969E-01
 -1      2271 6.31871E-01
 -1      2272 5.85245E-01
 -1      2273 5.52636E-01
 -1      2274 4.81439E-01
 -1      2275 4.17101E-01
 -1      2276 4.53345E-01
 -1      2277 3.79473E-01
 -1      2278 3.09771E-01
 -1      2279 3.80454E-01
 -1      2280 3.77811E-01
 -1      2281 2.82658E-01
 -1      2282 4.14802E-01
 -1      2283 4.25945E-01
 -1      2284 3.20631E-01
 -1      2285 4.73528E-01
 -1      2286 4.79450E-01
 -1      2287 4.05205E-01
 -1      2288 5.24298E-01
 -1      2289 5.91025E-01
 -1      2290 4.97636E-01
 -1      2291 6.40854E-01
 -1      2292 6.70931E-01
 -1      2293 5.92313E-01
 -1      2294 7.01590E-01
 -1      2295 6.74146E-01
 -1      2296 6.72801E-01
 -1      2297 7.08520E-01
 -1      2298 6.61313E-01
 -1      2299 7.37834E-01
 -1      2300 7.57768E-01
 -1      2301 7.81666E-01
 -1      2302 8.68662E-01
 -1      2303 8.09948E-01
 -1      2304 1.00189E+00
 -1      2305 9.93400E-01
 -1      2306 1.16684E+00
 -1      2307 1.39446E+00
 -1      2308 1.18663E+00
 -1      2309 1.45170E+00
 -1      2310 1.66315E+00
 -1      2311 1.40882E+00
 -1      2312 1.85769E+00
 -1      2313 1.96607E+00
 -1      2314 1.66061E+00
 -1      2315 2.13245E+00
 -1      2316 2.08997E+00
 -1      2317 2.02154E+00
 -1      2318 2.10162E+00
 -1      2319 2.14294E+00
 -1      2320 2.19957E+00
 -1      2321 1.90366E+00
 -1      2322 1.74883E+00
 -1      2323 1.97194E+00
 -1      2324 1.58874E+00
 -1      2325 1.38169E+00
 -1      2326 1.57257E+00
 -1      2327 1.29984E+00
 -1      2328 1.04596E+00
 -1      2329 1.33063E+00
 -1      2330 9.36994E-01
 -1      2331 7.81994E-01
 -1      2332 1.13981E+00
 -1      2333 7.28727E-01
 -1      2334 7.41934E-01
 -1      2335 9.77581E-01
 -1      2336 6.72483E-01
 -1      2337 7.46954E-01
 -1      2338 8.54864E-01
 -1      2339 7.52264E-01
 -1      2340 7.77956E-01
 -1      2341 7.90722E-01
 -1      2342 7.52196E-01
 -1      2343 7.31422E-01
 -1      2344 7.70272E-01
 -1      2345 6.91083E-01
 -1      2346 6.51808E-01
 -1      2347 7.04174E-01
 -1      2348 6.20986E-01
 -1      2349 5.85986E-01
 -1      2350 6.33014E-01
 -1      2351 5.51714E-01
 -1      2352 5.15143E-01
 -1      2353 5.67920E-01
 -1      2354 4.74628E-01
 -1      2355 4.32626E-01
 -1      2356 4.93133E-01
 -1      2357 3.91467E-01
 -1      2358 3.49842E-01
 -1      2359 4.11459E-01
 -1      2360 3.11519E-01
 -1      2361 2.73688E-01
 -1      2362 3.31978E-01
 -1      2363 2.40033E-01
 -1      2364 2.07632E-01
 -1      2365 2.60000E-01
 -1      2366 1.79335E-01
 -1      2367 1.52810E-01
 -1      2368 1.98049E-01
 -1      2369 1.29838E-01
 -1      2370 1.10265E-01
 -1      2371 1.46781E-01
 -1      2372 9.21732E-02
 -1      2373 7.89717E-02
 -1      2374 1.05718E-01
 -1      2375 6.51180E-02
 -1      2376 5.53433E-02
 -1      2377 7.37718E-02
 -1      2378 4.50285E-02
 -1      2379 3.88197E-02
 -1      2380 4.96032E-02
 -1      2381 3.19110E-02
 -1      2382 2.83411E-02
 -1      2383 3.23797E-02
 -1      2384 2.42406E-02
 -1      2385 2.08339E-02
 -1      2386 2.13705E-02
 -1      2387 1.92996E-02
 -1      2388 1.61608E-02
 -1      2389 1.57357E-02
 -1      2390 1.45998E-02
 -1      2391 1.17795E-02
 -1      2392 1.26404E-02
 -1      2393 1.02173E-02
 -1      2394 8.59237E-03
 -1      2395 9.51711E-03
 -1      2396 7.16818E-03
 -1      2397 5.62112E-03
 -1      2398 6.53068E-03
 -1      2399 5.42013E-01
 -1      2400 5.58479E-01
 -1      2401 5.19164E-01
 -1      2402 5.44286E-01
 -1      2403 4.17774E-01
 -1      2404 6.13123E-01
 -1      2405 5.83750E-01
 -1      2406 4.84633E-01
 -1      2407 8.06121E-01
 -1      2408 7.14285E-01
 -1      2409 6.50381E-01
 -1      2410 9.82623E-01
 -1      2411 8.99269E-01
 -1      2412 8.44691E-01
 -1      2413 1.12611E+00
 -1      2414 1.05214E+00
 -1      2415 1.00736E+00
 -1      2416 1.20813E+00
 -1      2417 1.20062E+00
 -1      2418 1.15138E+00
 -1      2419 1.30030E+00
 -1      2420 1.30030E+00
 -1      2421 1.31805E+00
 -1      2422 1.24930E+00
 -1      2423 1.35128E+00
 -1      2424 1.46119E+00
 -1      2425 1.29940E+00
 -1      2426 1.30503E+00
 -1      2427 1.56791E+00
 -1      2428 1.78675E+00
 -1      2429 1.57189E+00
 -1      2430 1.89613E+00
 -1      2431 2.09167E+00
 -1      2432 1.69489E+00
 -1      2433 2.07675E+00
 -1      2434 2.55072E+00
 -1      2435 2.37458E+00
 -1      2436 2.26781E+00
 -1      2437 3.07346E+00
 -1      2438 3.09966E+00
 -1      2439 3.09966E+00
 -1      2440 3.84993E+00
 -1      2441 3.71633E+00
 -1      2442 4.29146E+00
 -1      2443 2.96381E+00
 -1      2444 3.03335E+00
 -1      2445 4.11776E+00
 -1      2446 1.89302E+00
 -1      2447 2.30365E+00
 -1      2448 2.64103E+00
 -1      2449 1.45078E+00
 -1      2450 1.86430E+00
 -1      2451 1.95215E+00
 -1      2452 1.29435E+00
 -1      2453 1.31562E+00
 -1      2454 1.78827E+00
 -1      2455 1.34099E+00
 -1      2456 1.20144E+00
 -1      2457 1.56020E+00
 -1      2458 1.33336E+00
 -1      2459 1.31098E+00
 -1      2460 1.43728E+00
 -1      2461 1.26488E+00
 -1      2462 1.26048E+00
 -1      2463 1.33439E+00
 -1      2464 1.18168E+00
 -1      2465 1.23431E+00
 -1      2466 1.23094E+00
 -1      2467 1.05434E+00
 -1      2468 1.11513E+00
 -1      2469 1.13381E+00
 -1      2470 8.96742E-01
 -1      2471 9.71797E-01
 -1      2472 9.84718E-01
 -1      2473 7.32305E-01
 -1      2474 8.14069E-01
 -1      2475 8.19506E-01
 -1      2476 5.81355E-01
 -1      2477 6.58977E-01
 -1      2478 6.63504E-01
 -1      2479 4.48435E-01
 -1      2480 5.16474E-01
 -1      2481 5.25295E-01
 -1      2482 3.36876E-01
 -1      2483 3.93433E-01
 -1      2484 4.05412E-01
 -1      2485 2.46728E-01
 -1      2486 2.91954E-01
 -1      2487 3.05489E-01
 -1      2488 1.81442E-01
 -1      2489 2.11091E-01
 -1      2490 2.24930E-01
 -1      2491 1.31246E-01
 -1      2492 1.53852E-01
 -1      2493 1.61702E-01
 -1      2494 9.25407E-02
 -1      2495 1.10356E-01
 -1      2496 1.13221E-01
 -1      2497 6.33026E-02
 -1      2498 7.70658E-02
 -1      2499 7.68557E-02
 -1      2500 4.35458E-02
 -1      2501 5.39861E-02
 -1      2502 5.20644E-02
 -1      2503 2.97688E-02
 -1      2504 3.74271E-02
 -1      2505 3.66292E-02
 -1      2506 2.36016E-02
 -1      2507 2.63143E-02
 -1      2508 2.70560E-02
 -1      2509 1.88501E-02
 -1      2510 2.12258E-02
 -1      2511 2.12258E-02
 -1      2512 1.42357E-02
 -1      2513 1.65429E-02
 -1      2514 1.65429E-02
 -1      2515 9.94039E-03
 -1      2516 1.20880E-02
 -1      2517 1.20880E-02
 -1      2518 7.15431E-03
 -1      2519 8.36486E-03
 -1      2520 8.36486E-03
 -1      2521 4.99313E-03
 -1      2522 6.12393E-03
 -1      2523 5.75895E-03
 -1      2524 4.01069E-03
 -1      2525 1.76796E-03
 -1      2526 1.86286E-03
 -1      2527 1.27322E-03
 -1      2528 1.48123E-03
 -1      2529 1.67506E-03
 -1      2530 3.00170E-03
 -1      2531 3.00170E-03
 -1      2532 2.01949E-03
 -1      2533 2.20202E-03
 -1      2534 3.07474E-03
 -1      2535 2.11843E-03
 -1      2536 1.52557E+01
 -1      2537 2.11916E+01
 -1      2538 9.27838E-04
 -1      2539 1.16524E-03
 -1      2540 1.28035E-03
 -1      2541 8.61878E-04
 -1      2542 8.88564E-04
 -1      2543 1.13310E-03
 -1      2544 1.06320E-03
 -1      2545 8.51955E-04
 -1      2546 1.08391E-03
 -1      2547 1.38294E-03
 -1      2548 1.16603E-03
 -1      2549 1.17682E-03
 -1      2550 1.84064E-03
 -1      2551 1.72641E-03
 -1      2552 1.62312E-03
 -1      2553 1.93018E-03
 -1      2554 1.84064E-03
 -1      2555 1.96659E-03
 -1      2556 2.47956E-03
 -1      2557 2.04761E-03
 -1      2558 2.08402E-03
 -1      2559 3.16471E-03
 -1      2560 9.88979E+00
 -1      2561 1.34737E+01
 -1      2562 6.03599E-01
 -1      2563 6.24016E-01
 -1      2564 4.60620E-01
 -1      2565 3.41492E+01
 -1      2566 3.41492E+01
 -1      2567 3.23973E+01
 -1      2568 3.06455E+01
 -1      2569 1.61755E+00
 -1      2570 1.22663E+00
 -1      2571 7.57426E-01
 -1      2572 9.47676E-01
 -1      2573 6.55760E+00
 -1      2574 8.34440E+00
 -1      2575 8.85270E+00
 -1      2576 9.10816E+00
 -1      2577 6.93356E+00
 -1      2578 5.86767E+00
 -1      2579 4.78804E-01
 -1      2580 5.11957E-01
 -1      2581 4.51121E-01
 -1      2582 3.97675E-01
 -1      2583 9.22669E+00
 -1      2584 9.57440E+00
 -1      2585 8.19119E+00
 -1      2586 6.20446E+00
 -1      2587 8.20604E+00
 -1      2588 8.87433E+00
 -1      2589 8.63180E+00
 -1      2590 8.57680E+00
 -1      2591 9.09382E+00
 -1      2592 7.98246E+00
 -1      2593 5.84159E+00
 -1      2594 1.43748E+01
 -1      2595 9.97324E+00
 -1      2596 2.40929E+01
 -1      2597 1.68452E+01
 -1      2598 2.89975E+01
 -1      2599 2.84752E+01
 -1      2600 1.88077E+01
 -1      2601 3.48050E+01
 -1      2602 3.48050E+01
 -1      2603 2.58977E+01
 -1      2604 3.03513E+01
 -1      2605 2.36678E+01
 -1      2606 2.27183E+01
 -1      2607 1.39628E+01
 -1      2608 1.99969E+01
 -1      2609 1.58680E+01
 -1      2610 5.54274E+00
 -1      2611 5.80759E+00
 -1      2612 7.36588E+00
 -1      2613 5.53106E+00
 -1      2614 7.61151E+00
 -1      2615 6.76540E+00
 -1      2616 4.17760E+00
 -1      2617 7.87020E+00
 -1      2618 8.17142E+00
 -1      2619 5.46741E+00
 -1      2620 6.76416E+00
 -1      2621 1.24335E+01
 -1      2622 9.01337E+00
 -1      2623 6.48372E+00
 -1      2624 2.10944E+01
 -1      2625 1.50735E+01
 -1      2626 2.57549E+01
 -1      2627 2.48209E+01
 -1      2628 1.71378E+01
 -1      2629 1.48379E+00
 -1      2630 1.64753E+00
 -1      2631 1.25647E+00
 -1      2632 1.05934E+00
 -1      2633 2.60057E+01
 -1      2634 2.83024E+01
 -1      2635 2.83024E+01
 -1      2636 7.41400E+00
 -1      2637 9.13674E+00
 -1      2638 6.93342E+00
 -1      2639 5.58338E-01
 -1      2640 6.95813E-01
 -1      2641 7.59808E-01
 -1      2642 5.99608E-01
 -1      2643 1.18651E+00
 -1      2644 1.76415E+01
 -1      2645 6.30124E+00
 -1      2646 5.48262E+00
 -1      2647 6.91452E+00
 -1      2648 2.57549E+01
 -1      2649 1.10454E+01
 -1      2650 1.23833E+01
 -1      2651 8.08109E+00
 -1      2652 1.07212E+01
 -1      2653 3.74613E-03
 -1      2654 3.42877E-03
 -1      2655 3.56315E-03
 -1      2656 3.15613E-03
 -1      2657 2.87800E-03
 -1      2658 4.84516E-03
 -1      2659 7.71795E+00
 -1      2660 4.77258E+00
 -1      2661 6.36555E+00
 -1      2662 9.56340E-01
 -1      2663 1.20314E+01
 -1      2664 1.02657E+01
 -1      2665 8.72338E+00
 -1      2666 7.60227E+00
 -1      2667 7.80719E+00
 -1      2668 3.70577E+00
 -1      2669 6.55841E+00
 -1      2670 6.78452E+00
 -1      2671 2.27183E+01
 -1      2672 2.89975E+01
 -1      2673 7.70243E+00
 -1      2674 8.87053E-01
 -1      2675 3.23973E+01
 -1      2676 7.49930E+00
 -1      2677 1.43300E+01
 -1      2678 9.43975E+00
 -1      2679 1.19102E+01
 -1      2680 3.03513E+01
 -1      2681 5.81496E+00
 -1      2682 4.30149E-03
 -1      2683 4.33053E-03
 -1      2684 3.98596E-01
 -1      2685 3.70613E-01
 -1      2686 3.49420E-01
 -1      2687 3.26082E-01
 -1      2688 3.01948E-01
 -1      2689 4.63480E-01
 -1      2690 4.54115E-01
 -1      2691 5.56443E-01
 -1      2692 4.76346E-01
 -1      2693 3.97560E-01
 -1      2694 5.62248E-01
 -1      2695 6.69740E-01
 -1      2696 3.92205E-01
 -1      2697 4.86073E-01
 -1      2698 3.54845E-01
 -1      2699 3.80585E-01
 -1      2700 3.01350E-01
 -1      2701 2.72597E-01
 -1      2702 2.44503E-01
 -1      2703 2.36082E-01
 -1      2704 2.63494E-01
 -1      2705 2.64476E-01
 -1      2706 2.26320E-01
 -1      2707 3.12284E-01
 -1      2708 3.49275E-01
 -1      2709 2.93120E-01
 -1      2710 4.04125E-01
 -1      2711 4.51708E-01
 -1      2712 3.95779E-01
 -1      2713 5.06137E-01
 -1      2714 5.50986E-01
 -1      2715 5.05058E-01
 -1      2716 6.14388E-01
 -1      2717 6.64217E-01
 -1      2718 6.22890E-01
 -1      2719 7.48544E-01
 -1      2720 7.79203E-01
 -1      2721 7.70619E-01
 -1      2722 8.57833E-01
 -1      2723 8.92206E-01
 -1      2724 9.33576E-01
 -1      2725 9.55928E-01
 -1      2726 1.05238E+00
 -1      2727 1.07593E+00
 -1      2728 1.23656E+00
 -1      2729 1.26484E+00
 -1      2730 1.32382E+00
 -1      2731 1.38194E+00
 -1      2732 1.54689E+00
 -1      2733 1.62510E+00
 -1      2734 1.58609E+00
 -1      2735 1.64333E+00
 -1      2736 1.78140E+00
 -1      2737 1.66061E+00
 -1      2738 1.85516E+00
 -1      2739 1.83788E+00
 -1      2740 2.88435E+00
 -1      2741 3.05074E+00
 -1      2742 2.88435E+00
 -1      2743 3.97453E+00
 -1      2744 3.98618E+00
 -1      2745 4.83734E+00
 -1      2746 2.93574E+00
 -1      2747 2.69646E+00
 -1      2748 4.71070E+00
 -1      2749 2.00013E+00
 -1      2750 1.84004E+00
 -1      2751 2.96393E+00
 -1      2752 1.56632E+00
 -1      2753 1.48446E+00
 -1      2754 1.99388E+00
 -1      2755 1.48948E+00
 -1      2756 1.38051E+00
 -1      2757 1.72516E+00
 -1      2758 1.24234E+00
 -1      2759 1.18907E+00
 -1      2760 1.59200E+00
 -1      2761 1.04020E+00
 -1      2762 9.70750E-01
 -1      2763 1.30496E+00
 -1      2764 9.19693E-01
 -1      2765 9.25003E-01
 -1      2766 1.10503E+00
 -1      2767 8.52138E-01
 -1      2768 8.26378E-01
 -1      2769 9.81109E-01
 -1      2770 7.51983E-01
 -1      2771 7.11644E-01
 -1      2772 8.33849E-01
 -1      2773 6.64858E-01
 -1      2774 6.34037E-01
 -1      2775 7.12668E-01
 -1      2776 5.88513E-01
 -1      2777 5.54241E-01
 -1      2778 6.20358E-01
 -1      2779 5.06794E-01
 -1      2780 4.66278E-01
 -1      2781 5.27387E-01
 -1      2782 4.21776E-01
 -1      2783 3.80618E-01
 -1      2784 4.35437E-01
 -1      2785 3.40773E-01
 -1      2786 3.02449E-01
 -1      2787 3.51089E-01
 -1      2788 2.68122E-01
 -1      2789 2.34468E-01
 -1      2790 2.76917E-01
 -1      2791 2.05778E-01
 -1      2792 1.77481E-01
 -1      2793 2.13900E-01
 -1      2794 1.54110E-01
 -1      2795 1.31138E-01
 -1      2796 1.61838E-01
 -1      2797 1.12537E-01
 -1      2798 9.44451E-02
 -1      2799 1.19866E-01
 -1      2800 7.99634E-02
 -1      2801 6.61097E-02
 -1      2802 8.67830E-02
 -1      2803 5.50790E-02
 -1      2804 4.47641E-02
 -1      2805 6.12706E-02
 -1      2806 3.65542E-02
 -1      2807 2.96455E-02
 -1      2808 4.20299E-02
 -1      2809 2.36924E-02
 -1      2810 1.95919E-02
 -1      2811 2.78668E-02
 -1      2812 1.54068E-02
 -1      2813 1.38725E-02
 -1      2814 1.77286E-02
 -1      2815 1.12067E-02
 -1      2816 9.64567E-03
 -1      2817 1.08778E-02
 -1      2818 8.59966E-03
 -1      2819 7.03742E-03
 -1      2820 7.16597E-03
 -1      2821 6.34952E-03
 -1      2822 4.92533E-03
 -1      2823 5.43207E-03
 -1      2824 5.02240E-01
 -1      2825 4.37654E-01
 -1      2826 6.06946E+00
 -1      2827 7.61486E+00
 -1      2828 3.61256E-01
 -1      2829 3.58982E-01
 -1      2830 3.78863E-01
 -1      2831 8.93817E-01
 -1      2832 8.00669E-01
 -1      2833 1.07403E+00
 -1      2834 1.00451E+00
 -1      2835 9.60490E-01
 -1      2836 1.25562E+00
 -1      2837 1.18112E+00
 -1      2838 1.17828E+00
 -1      2839 1.46877E+00
 -1      2840 1.37660E+00
 -1      2841 1.40635E+00
 -1      2842 1.73056E+00
 -1      2843 1.67957E+00
 -1      2844 1.73813E+00
 -1      2845 2.00644E+00
 -1      2846 1.95071E+00
 -1      2847 2.16909E+00
 -1      2848 2.48742E+00
 -1      2849 2.21493E+00
 -1      2850 2.59773E+00
 -1      2851 2.73890E+00
 -1      2852 2.83076E+00
 -1      2853 3.14956E+00
 -1      2854 2.57928E+00
 -1      2855 2.29637E+00
 -1      2856 3.05037E+00
 -1      2857 4.93433E+00
 -1      2858 4.29146E+00
 -1      2859 5.13876E+00
 -1      2860 5.95534E+00
 -1      2861 2.64103E+00
 -1      2862 3.30118E+00
 -1      2863 2.41615E+00
 -1      2864 2.44487E+00
 -1      2865 3.10502E+00
 -1      2866 2.34531E+00
 -1      2867 2.48048E+00
 -1      2868 2.97319E+00
 -1      2869 1.95528E+00
 -1      2870 2.04819E+00
 -1      2871 2.74040E+00
 -1      2872 1.73721E+00
 -1      2873 1.76722E+00
 -1      2874 2.25521E+00
 -1      2875 1.46836E+00
 -1      2876 1.54124E+00
 -1      2877 1.87118E+00
 -1      2878 1.29993E+00
 -1      2879 1.33050E+00
 -1      2880 1.53735E+00
 -1      2881 1.14414E+00
 -1      2882 1.21069E+00
 -1      2883 1.31025E+00
 -1      2884 9.65137E-01
 -1      2885 1.04767E+00
 -1      2886 1.12456E+00
 -1      2887 7.89659E-01
 -1      2888 8.72333E-01
 -1      2889 9.35290E-01
 -1      2890 6.32661E-01
 -1      2891 7.05990E-01
 -1      2892 7.58817E-01
 -1      2893 4.95487E-01
 -1      2894 5.60368E-01
 -1      2895 6.02854E-01
 -1      2896 3.79917E-01
 -1      2897 4.34919E-01
 -1      2898 4.69992E-01
 -1      2899 2.85483E-01
 -1      2900 3.30405E-01
 -1      2901 3.59912E-01
 -1      2902 2.10208E-01
 -1      2903 2.45846E-01
 -1      2904 2.70762E-01
 -1      2905 1.51476E-01
 -1      2906 1.79066E-01
 -1      2907 1.99982E-01
 -1      2908 1.06549E-01
 -1      2909 1.27440E-01
 -1      2910 1.44804E-01
 -1      2911 7.28535E-02
 -1      2912 8.83283E-02
 -1      2913 1.02547E-01
 -1      2914 4.99830E-02
 -1      2915 5.92994E-02
 -1      2916 7.07720E-02
 -1      2917 3.39914E-02
 -1      2918 4.01101E-02
 -1      2919 4.73451E-02
 -1      2920 2.35209E-02
 -1      2921 2.69754E-02
 -1      2922 3.04562E-02
 -1      2923 1.67378E-02
 -1      2924 1.91135E-02
 -1      2925 1.90328E-02
 -1      2926 1.22120E-02
 -1      2927 1.45192E-02
 -1      2928 1.24069E-02
 -1      2929 9.02675E-03
 -1      2930 1.11744E-02
 -1      2931 9.15074E-03
 -1      2932 6.37479E-03
 -1      2933 7.95032E-03
 -1      2934 7.03668E-03
 -1      2935 4.72857E-03
 -1      2936 5.75895E-03
 -1      2937 5.34441E-03
 -1      2938 4.30149E-03
 -1      2939 1.90412E-03
 -1      2940 1.94340E-03
 -1      2941 4.30586E-03
 -1      2942 3.52990E-03
 -1      2943 4.12470E-03
 -1      2944 1.77828E-03
 -1      2945 2.06502E-03
 -1      2946 4.85961E+00
 -1      2947 5.24047E+00
 -1      2948 1.84680E-03
 -1      2949 1.85672E-03
 -1      2950 2.66702E-03
 -1      2951 1.94340E-03
 -1      2952 2.05138E-03
 -1      2953 2.44133E-03
 -1      2954 2.71442E-03
 -1      2955 1.94963E-03
 -1      2956 1.84680E-03
 -1      2957 2.61962E-03
 -1      2958 2.11734E-03
 -1      2959 1.77387E-03
 -1      2960 2.44385E-03
 -1      2961 2.28682E-03
 -1      2962 2.28682E-03
 -1      2963 2.43757E-03
 -1      2964 3.19523E-01
 -1      2965 3.64643E-01
 -1      2966 2.51108E-01
 -1      2967 2.63005E-01
 -1      2968 2.85334E-03
 -1      2969 8.37317E+00
 -1      2970 1.01552E+01
 -1      2971 7.13452E-01
 -1      2972 6.30181E-01
 -1      2973 6.98307E+00
 -1      2974 5.20102E+00
 -1      2975 5.68951E+00
 -1      2976 5.92192E+00
 -1      2977 4.24787E+00
 -1      2978 1.78346E+01
 -1      2979 2.10140E+01
 -1      2980 6.34107E+00
 -1      2981 7.02235E+00
 -1      2982 2.29067E+01
 -1      2983 1.80161E+01
 -1      2984 6.96101E-01
 -1      2985 5.94939E-01
 -1      2986 5.47960E-01
 -1      2987 7.45227E-01
 -1      2988 7.59808E-01
 -1      2989 4.07052E+00
 -1      2990 4.00686E+00
 -1      2991 2.30162E+01
 -1      2992 2.12643E+01
 -1      2993 4.93236E-01
 -1      2994 4.04326E-01
 -1      2995 2.88575E-01
 -1      2996 4.49262E-01
 -1      2997 4.45134E-01
 -1      2998 4.20392E-01
 -1      2999 3.44937E-01
 -1      3000 3.75713E-01
 -1      3001 4.20383E+00
 -1      3002 4.89377E+00
 -1      3003 8.05460E-01
 -1      3004 4.24134E-01
 -1      3005 4.50218E-01
 -1      3006 5.20824E+00
 -1      3007 4.15934E+00
 -1      3008 1.99133E+01
 -1      3009 2.43669E+01
 -1      3010 1.71095E+01
 -1      3011 1.27272E+01
 -1      3012 4.10292E+00
 -1      3013 5.20896E+00
 -1      3014 4.62903E+00
 -1      3015 2.59050E+01
 -1      3016 2.00975E+01
 -1      3017 1.12872E+01
 -1      3018 1.49581E+01
 -1      3019 7.02235E+00
 -1      3020 6.54599E+00
 -1      3021 5.74284E+00
 -1      3022 4.77755E+00
 -1      3023 4.04868E+00
 -1      3024 2.82603E+00
 -1      3025 6.22748E+00
 -1      3026 6.57984E+00
 -1      3027 1.86824E+01
 -1      3028 2.45292E+01
 -1      3029 7.23551E+00
 -1      3030 5.58802E+00
 -1      3031 1.22530E+01
 -1      3032 1.70671E+01
 -1      3033 9.58082E+00
 -1      3034 1.52583E+01
 -1      3035 1.15318E+01
 -1      3036 5.03945E-01
 -1      3037 5.31814E-01
 -1      3038 4.23694E-01
 -1      3039 2.85161E-01
 -1      3040 3.30487E-01
 -1      3041 3.56754E-01
 -1      3042 5.86207E-01
 -1      3043 7.52973E+00
 -1      3044 9.46116E+00
 -1      3045 8.55122E+00
 -1      3046 7.18539E+00
 -1      3047 1.32939E+01
 -1      3048 5.00247E+00
 -1      3049 4.79067E+00
 -1      3050 3.42598E+00
 -1      3051 4.95799E+00
 -1      3052 8.84163E+00
 -1      3053 2.13121E-03
 -1      3054 2.02799E-03
 -1      3055 2.18462E-03
 -1      3056 2.28450E+01
 -1      3057 1.17120E+01
 -1      3058 1.32250E+01
 -1      3059 6.72468E+00
 -1      3060 2.73591E-03
 -1      3061 5.76114E+00
 -1      3062 3.64859E+00
 -1      3063 3.09966E+00
 -1      3064 1.50296E+01
 -1      3065 2.35802E-03
 -1      3066 3.15770E-03
 -1      3067 3.58477E-03
 -1      3068 2.26758E-03
 -1      3069 3.57048E+00
 -1      3070 3.05615E-03
 -1      3071 3.40086E+00
 -1      3072 1.40170E+01
 -1      3073 7.31334E+00
 -1      3074 4.81193E+00
 -1      3075 7.26861E+00
 -1      3076 1.35255E+01
 -1      3077 6.94849E+00
 -1      3078 6.55941E+00
 -1      3079 4.62055E+00
 -1      3080 5.25117E+00
 -1      3081 4.14024E+00
 -1      3082 2.92660E+00
 -1      3083 3.67742E+00
 -1      3084 2.79768E+00
 -1      3085 1.32538E+01
 -1      3086 3.12822E+00
 -1      3087 1.24101E+01
 -1      3088 3.77928E-01
 -1      3089 4.05106E-01
 -1      3090 3.50941E-01
 -1      3091 3.10740E-01
 -1      3092 4.82231E+00
 -1      3093 5.66740E-01
 -1      3094 1.11095E+01
 -1      3095 8.59426E+00
 -1      3096 9.41123E+00
 -1      3097 1.39289E+01
 -1      3098 2.43669E+01
 -1      3099 1.54669E+01
 -1      3100 6.14218E+00
 -1      3101 4.20723E-01
 -1      3102 3.62538E-01
 -1      3103 3.49672E-01
 -1      3104 6.74827E+00
 -1      3105 8.84609E+00
 -1      3106 2.43902E-01
 -1      3107 2.62893E-01
 -1      3108 2.89456E-01
 -1      3109 3.37265E-01
 -1      3110 3.07039E-01
 -1      3111 3.83261E-01
 -1      3112 4.38111E-01
 -1      3113 3.79598E-01
 -1      3114 5.09854E-01
 -1      3115 5.64283E-01
 -1      3116 4.97337E-01
 -1      3117 6.49079E-01
 -1      3118 7.12482E-01
 -1      3119 6.53875E-01
 -1      3120 8.02560E-01
 -1      3121 8.86886E-01
 -1      3122 8.28749E-01
 -1      3123 1.01937E+00
 -1      3124 1.09800E+00
 -1      3125 1.05131E+00
 -1      3126 1.27053E+00
 -1      3127 1.33425E+00
 -1      3128 1.35632E+00
 -1      3129 1.49937E+00
 -1      3130 1.68354E+00
 -1      3131 1.69397E+00
 -1      3132 1.94553E+00
 -1      3133 2.06263E+00
 -1      3134 2.12108E+00
 -1      3135 2.32023E+00
 -1      3136 2.35942E+00
 -1      3137 2.64066E+00
 -1      3138 2.88435E+00
 -1      3139 3.91355E+00
 -1      3140 4.83734E+00
 -1      3141 5.76114E+00
 -1      3142 5.76114E+00
 -1      3143 4.71070E+00
 -1      3144 2.17185E+00
 -1      3145 1.89812E+00
 -1      3146 2.36171E+00
 -1      3147 2.36672E+00
 -1      3148 2.53968E+00
 -1      3149 1.95943E+00
 -1      3150 1.82126E+00
 -1      3151 2.59598E+00
 -1      3152 1.64925E+00
 -1      3153 1.50038E+00
 -1      3154 2.01668E+00
 -1      3155 1.33745E+00
 -1      3156 1.28639E+00
 -1      3157 1.68174E+00
 -1      3158 1.12603E+00
 -1      3159 1.05316E+00
 -1      3160 1.35845E+00
 -1      3161 9.42173E-01
 -1      3162 8.67778E-01
 -1      3163 1.08709E+00
 -1      3164 7.85162E-01
 -1      3165 7.38376E-01
 -1      3166 8.93486E-01
 -1      3167 6.62709E-01
 -1      3168 6.17185E-01
 -1      3169 7.35203E-01
 -1      3170 5.53763E-01
 -1      3171 5.06316E-01
 -1      3172 5.96114E-01
 -1      3173 4.50627E-01
 -1      3174 4.06125E-01
 -1      3175 4.77004E-01
 -1      3176 3.59184E-01
 -1      3177 3.19339E-01
 -1      3178 3.74374E-01
 -1      3179 2.82909E-01
 -1      3180 2.48581E-01
 -1      3181 2.91003E-01
 -1      3182 2.19393E-01
 -1      3183 1.90702E-01
 -1      3184 2.25384E-01
 -1      3185 1.66162E-01
 -1      3186 1.42791E-01
 -1      3187 1.71655E-01
 -1      3188 1.23235E-01
 -1      3189 1.04634E-01
 -1      3190 1.27559E-01
 -1      3191 8.96602E-02
 -1      3192 7.51785E-02
 -1      3193 9.30295E-02
 -1      3194 6.35889E-02
 -1      3195 5.25582E-02
 -1      3196 6.64661E-02
 -1      3197 4.42332E-02
 -1      3198 3.60233E-02
 -1      3199 4.65515E-02
 -1      3200 2.99343E-02
 -1      3201 2.39812E-02
 -1      3202 3.21376E-02
 -1      3203 1.95863E-02
 -1      3204 1.54012E-02
 -1      3205 2.16537E-02
 -1      3206 1.23160E-02
 -1      3207 9.65025E-03
 -1      3208 1.41737E-02
 -1      3209 7.51481E-03
 -1      3210 6.46880E-03
 -1      3211 8.95307E-03
 -1      3212 5.10931E-03
 -1      3213 4.42142E-03
 -1      3214 5.45815E-03
 -1      3215 4.29146E+00
 -1      3216 1.29282E+00
 -1      3217 1.18573E+00
 -1      3218 1.01615E+00
 -1      3219 9.05449E-01
 -1      3220 1.13069E+00
 -1      3221 2.09064E+00
 -1      3222 1.87983E+00
 -1      3223 2.62469E+00
 -1      3224 2.40454E+00
 -1      3225 2.54624E+00
 -1      3226 3.36685E+00
 -1      3227 3.15836E+00
 -1      3228 3.39381E+00
 -1      3229 4.31756E+00
 -1      3230 3.97421E+00
 -1      3231 1.17611E+01
 -1      3232 9.00330E+00
 -1      3233 1.29847E+01
 -1      3234 1.18840E+01
 -1      3235 5.13876E+00
 -1      3236 2.58011E+00
 -1      3237 2.76817E+00
 -1      3238 1.97742E+00
 -1      3239 2.17339E+00
 -1      3240 2.68636E+00
 -1      3241 1.63332E+00
 -1      3242 1.77118E+00
 -1      3243 2.07339E+00
 -1      3244 1.34211E+00
 -1      3245 1.43134E+00
 -1      3246 1.66517E+00
 -1      3247 1.08615E+00
 -1      3248 1.18261E+00
 -1      3249 1.30370E+00
 -1      3250 8.70348E-01
 -1      3251 9.63152E-01
 -1      3252 1.02121E+00
 -1      3253 6.86198E-01
 -1      3254 7.69867E-01
 -1      3255 7.97729E-01
 -1      3256 5.37573E-01
 -1      3257 6.09867E-01
 -1      3258 6.20917E-01
 -1      3259 4.13496E-01
 -1      3260 4.74064E-01
 -1      3261 4.81077E-01
 -1      3262 3.11756E-01
 -1      3263 3.61268E-01
 -1      3264 3.65340E-01
 -1      3265 2.33705E-01
 -1      3266 2.73343E-01
 -1      3267 2.74699E-01
 -1      3268 1.72604E-01
 -1      3269 2.03746E-01
 -1      3270 2.06327E-01
 -1      3271 1.25203E-01
 -1      3272 1.49239E-01
 -1      3273 1.53003E-01
 -1      3274 8.89761E-02
 -1      3275 1.07197E-01
 -1      3276 1.11632E-01
 -1      3277 6.17398E-02
 -1      3278 7.52939E-02
 -1      3279 7.99439E-02
 -1      3280 4.16373E-02
 -1      3281 5.15102E-02
 -1      3282 5.60320E-02
 -1      3283 2.71166E-02
 -1      3284 3.41326E-02
 -1      3285 3.82977E-02
 -1      3286 1.73286E-02
 -1      3287 2.17360E-02
 -1      3288 2.54124E-02
 -1      3289 1.13651E-02
 -1      3290 1.35837E-02
 -1      3291 1.62868E-02
 -1      3292 7.81447E-03
 -1      3293 8.85210E-03
 -1      3294 1.00289E-02
 -1      3295 5.34976E-03
 -1      3296 6.42620E-03
 -1      3297 6.12756E-03
 -1      3298 4.04688E-03
 -1      3299 4.66272E-03
 -1      3300 4.05224E-03
 -1      3301 2.90309E-03
 -1      3302 6.38666E+00
 -1      3303 5.54109E+00
 -1      3304 2.71129E-01
 -1      3305 2.49936E-01
 -1      3306 3.80876E-03
 -1      3307 3.63927E-03
 -1      3308 1.00409E+01
 -1      3309 1.16562E+01
 -1      3310 7.20831E+00
 -1      3311 3.77694E-03
 -1      3312 3.82434E-03
 -1      3313 2.78621E+00
 -1      3314 2.88226E+00
 -1      3315 3.70155E-03
 -1      3316 3.87731E-03
 -1      3317 5.07273E-03
 -1      3318 3.34832E+00
 -1      3319 3.64544E+00
 -1      3320 3.67322E+00
 -1      3321 5.31814E-01
 -1      3322 1.63007E+00
 -1      3323 1.50909E+00
 -1      3324 1.51654E+00
 -1      3325 1.98257E+00
 -1      3326 4.34308E-01
 -1      3327 3.57910E-01
 -1      3328 4.03420E+00
 -1      3329 3.30533E+00
 -1      3330 3.39925E+00
 -1      3331 3.05783E+00
 -1      3332 3.15014E-01
 -1      3333 2.86262E-01
 -1      3334 3.22835E-01
 -1      3335 1.31612E+01
 -1      3336 1.01732E+01
 -1      3337 8.42200E+00
 -1      3338 7.61134E+00
 -1      3339 5.96703E+00
 -1      3340 9.48339E+00
 -1      3341 1.23599E+01
 -1      3342 1.01002E+01
 -1      3343 1.17425E+01
 -1      3344 8.33574E+00
 -1      3345 3.87731E-03
 -1      3346 3.87731E-03
 -1      3347 5.03463E-03
 -1      3348 5.13500E-03
 -1      3349 5.44639E+00
 -1      3350 6.20471E+00
 -1      3351 5.11455E+00
 -1      3352 3.59705E+00
 -1      3353 3.54845E-01
 -1      3354 3.44548E-01
 -1      3355 2.96660E-01
 -1      3356 2.78670E-01
 -1      3357 2.31889E-01
 -1      3358 2.36295E-01
 -1      3359 2.01070E-01
 -1      3360 6.84114E+00
 -1      3361 7.64190E+00
 -1      3362 5.51550E+00
 -1      3363 4.98235E-03
 -1      3364 3.87243E-03
 -1      3365 3.87243E-03
 -1      3366 6.41931E+00
 -1      3367 5.61474E+00
 -1      3368 4.64441E+00
 -1      3369 3.67581E-01
 -1      3370 4.21307E-01
 -1      3371 3.43037E-01
 -1      3372 3.34057E-01
 -1      3373 3.08015E-01
 -1      3374 2.97444E-03
 -1      3375 2.93741E-03
 -1      3376 1.10082E+01
 -1      3377 9.32393E+00
 -1      3378 7.75509E+00
 -1      3379 2.20201E+00
 -1      3380 3.23121E+00
 -1      3381 2.62299E+00
 -1      3382 2.18473E+00
 -1      3383 4.71070E+00
 -1      3384 3.66026E+00
 -1      3385 2.96393E+00
 -1      3386 4.99068E-01
 -1      3387 4.78115E-01
 -1      3388 5.91767E-01
 -1      3389 8.37141E-01
 -1      3390 7.81487E-01
 -1      3391 6.76919E-01
 -1      3392 7.77300E+00
 -1      3393 2.46234E+00
 -1      3394 2.90487E+00
 -1      3395 3.70396E-01
 -1      3396 3.14951E-01
 -1      3397 2.75491E-01
 -1      3398 9.48622E+00
 -1      3399 1.15311E+01
 -1      3400 1.15311E+01
 -1      3401 3.26192E+00
 -1      3402 3.45807E+00
 -1      3403 9.21431E+00
 -1      3404 2.93207E-01
 -1      3405 2.41195E-01
 -1      3406 3.15003E-01
 -1      3407 3.87243E-03
 -1      3408 3.59934E-03
 -1      3409 4.40554E-03
 -1      3410 5.03043E-03
 -1      3411 3.67561E-03
 -1      3412 3.41359E+00
 -1      3413 2.72356E+00
 -1      3414 3.07845E+00
 -1      3415 3.20333E+00
 -1      3416 3.65237E+00
 -1      3417 2.48838E-01
 -1      3418 2.76400E-01
 -1      3419 2.76400E-01
 -1      3420 3.00784E-01
 -1      3421 3.35286E-03
 -1      3422 4.55456E-03
 -1      3423 4.43761E+00
 -1      3424 4.50194E+00
 -1      3425 3.23222E-01
 -1      3426 3.20835E-01
 -1      3427 3.04195E-01
 -1      3428 2.72356E+00
 -1      3429 3.83903E+00
 -1      3430 4.00299E+00
 -1      3431 3.05986E+00
 -1      3432 5.46998E+00
 -1      3433 1.00027E+01
 -1      3434 8.21972E+00
 -1      3435 9.83150E+00
 -1      3436 4.40964E-01
 -1      3437 4.95358E-01
 -1      3438 3.58413E-01
 -1      3439 3.84851E-01
 -1      3440 3.98197E+00
 -1      3441 6.01619E+00
 -1      3442 7.84225E+00
 -1      3443 6.94836E+00
 -1      3444 3.57859E+00
 -1      3445 3.34671E-01
 -1      3446 4.31583E+00
 -1      3447 8.45887E+00
 -1      3448 6.84114E+00
 -1      3449 7.60309E+00
 -1      3450 4.83734E+00
 -1      3451 1.21463E+01
 -1      3452 8.30252E+00
 -1      3453 1.06083E+01
 -1      3454 3.84851E-01
 -1      3455 4.17275E+00
 -1      3456 4.47831E+00
 -1      3457 3.87076E-01
 -1      3458 4.33072E-01
 -1      3459 4.96750E-01
 -1      3460 5.68493E-01
 -1      3461 5.04228E-01
 -1      3462 6.52760E-01
 -1      3463 7.37556E-01
 -1      3464 6.52174E-01
 -1      3465 8.68755E-01
 -1      3466 9.58834E-01
 -1      3467 8.67640E-01
 -1      3468 1.13864E+00
 -1      3469 1.27112E+00
 -1      3470 1.17864E+00
 -1      3471 1.45982E+00
 -1      3472 1.63235E+00
 -1      3473 1.54715E+00
 -1      3474 1.88148E+00
 -1      3475 2.04660E+00
 -1      3476 1.98498E+00
 -1      3477 2.43922E+00
 -1      3478 2.70121E+00
 -1      3479 2.62673E+00
 -1      3480 2.96393E+00
 -1      3481 2.26761E+00
 -1      3482 3.26797E+00
 -1      3483 2.86067E+00
 -1      3484 2.59844E+00
 -1      3485 2.42643E+00
 -1      3486 3.27043E+00
 -1      3487 1.99323E+00
 -1      3488 1.83031E+00
 -1      3489 2.57500E+00
 -1      3490 1.62021E+00
 -1      3491 1.45985E+00
 -1      3492 1.93171E+00
 -1      3493 1.27429E+00
 -1      3494 1.16330E+00
 -1      3495 1.53606E+00
 -1      3496 9.96335E-01
 -1      3497 9.13719E-01
 -1      3498 1.18353E+00
 -1      3499 7.91850E-01
 -1      3500 7.16183E-01
 -1      3501 8.94699E-01
 -1      3502 6.38880E-01
 -1      3503 5.75458E-01
 -1      3504 6.95527E-01
 -1      3505 5.18338E-01
 -1      3506 4.62650E-01
 -1      3507 5.61104E-01
 -1      3508 4.15587E-01
 -1      3509 3.68646E-01
 -1      3510 4.56921E-01
 -1      3511 3.26603E-01
 -1      3512 2.90173E-01
 -1      3513 3.67816E-01
 -1      3514 2.54083E-01
 -1      3515 2.24894E-01
 -1      3516 2.89683E-01
 -1      3517 1.94821E-01
 -1      3518 1.70281E-01
 -1      3519 2.23519E-01
 -1      3520 1.45810E-01
 -1      3521 1.26254E-01
 -1      3522 1.68976E-01
 -1      3523 1.06773E-01
 -1      3524 9.17995E-02
 -1      3525 1.25024E-01
 -1      3526 7.66320E-02
 -1      3527 6.50424E-02
 -1      3528 9.03758E-02
 -1      3529 5.36055E-02
 -1      3530 4.52805E-02
 -1      3531 6.37714E-02
 -1      3532 3.71218E-02
 -1      3533 3.10329E-02
 -1      3534 4.41758E-02
 -1      3535 2.49930E-02
 -1      3536 2.05981E-02
 -1      3537 2.99773E-02
 -1      3538 1.62381E-02
 -1      3539 1.31529E-02
 -1      3540 1.95774E-02
 -1      3541 1.01210E-02
 -1      3542 7.98561E-03
 -1      3543 1.21855E-02
 -1      3544 6.91860E-03
 -1      3545 5.55912E-03
 -1      3546 6.01501E-03
 -1      3547 8.08658E-03
 -1      3548 1.27271E+00
 -1      3549 1.10312E+00
 -1      3550 4.35536E+00
 -1      3551 3.82169E+00
 -1      3552 2.86014E+00
 -1      3553 2.54624E+00
 -1      3554 3.82169E+00
 -1      3555 4.53484E+00
 -1      3556 5.95534E+00
 -1      3557 2.09245E+00
 -1      3558 2.29869E+00
 -1      3559 7.58290E+00
 -1      3560 8.20771E+00
 -1      3561 3.41375E+00
 -1      3562 3.82047E+00
 -1      3563 3.43280E+00
 -1      3564 1.26433E+00
 -1      3565 1.42383E+00
 -1      3566 1.00180E+00
 -1      3567 1.12480E+00
 -1      3568 1.24492E+00
 -1      3569 7.86507E-01
 -1      3570 8.86988E-01
 -1      3571 9.90578E-01
 -1      3572 6.14426E-01
 -1      3573 6.90757E-01
 -1      3574 7.80016E-01
 -1      3575 4.72622E-01
 -1      3576 5.36131E-01
 -1      3577 6.05971E-01
 -1      3578 3.57420E-01
 -1      3579 4.09648E-01
 -1      3580 4.64702E-01
 -1      3581 2.68973E-01
 -1      3582 3.07387E-01
 -1      3583 3.51694E-01
 -1      3584 1.99736E-01
 -1      3585 2.29696E-01
 -1      3586 2.62383E-01
 -1      3587 1.45936E-01
 -1      3588 1.69300E-01
 -1      3589 1.92669E-01
 -1      3590 1.04643E-01
 -1      3591 1.22649E-01
 -1      3592 1.38946E-01
 -1      3593 7.35842E-02
 -1      3594 8.72665E-02
 -1      3595 9.82832E-02
 -1      3596 5.09824E-02
 -1      3597 6.12120E-02
 -1      3598 6.85346E-02
 -1      3599 3.43275E-02
 -1      3600 4.18322E-02
 -1      3601 4.70122E-02
 -1      3602 2.23188E-02
 -1      3603 2.76995E-02
 -1      3604 3.12340E-02
 -1      3605 1.39295E-02
 -1      3606 1.76744E-02
 -1      3607 1.99615E-02
 -1      3608 8.52164E-03
 -1      3609 1.10347E-02
 -1      3610 1.24223E-02
 -1      3611 5.68409E-03
 -1      3612 7.07237E-03
 -1      3613 8.07818E-03
 -1      3614 6.01501E-03
 -1      3615 6.07729E-03
 -1      3616 7.01957E-03
 -1      3617 4.58989E+00
 -1      3618 2.93741E-03
 -1      3619 3.11081E-03
 -1      3620 3.57292E-03
 -1      3621 3.78064E-03
 -1      3622 5.28070E+00
 -1      3623 6.47547E+00
 -1      3624 1.67019E+00
 -1      3625 1.87216E+00
 -1      3626 1.63082E+00
 -1      3627 6.98462E+00
 -1      3628 6.40332E+00
 -1      3629 3.98728E+00
 -1      3630 5.13345E+00
 -1      3631 4.55331E+00
 -1      3632 5.12118E+00
 -1      3633 3.65194E-01
 -1      3634 2.17185E+00
 -1      3635 2.62590E-01
 -1      3636 2.83764E-01
 -1      3637 2.56045E-01
 -1      3638 4.13751E+00
 -1      3639 3.71097E+00
 -1      3640 3.20067E-01
 -1      3641 3.46630E-01
 -1      3642 4.00104E-01
 -1      3643 3.59296E-01
 -1      3644 3.16936E-01
 -1      3645 3.56528E-01
 -1      3646 2.89825E+00
 -1      3647 5.80536E+00
 -1      3648 4.58069E+00
 -1      3649 3.97583E+00
 -1      3650 5.01698E+00
 -1      3651 3.65194E-01
 -1      3652 3.65194E-01
 -1      3653 3.59296E-01
 -1      3654 3.20835E-01
 -1      3655 7.24571E+00
 -1      3656 7.26426E+00
 -1      3657 2.96116E-01
 -1      3658 3.14106E-01
 -1      3659 2.93846E-01
 -1      3660 5.88878E+00
 -1      3661 6.46227E-03
 -1      3662 6.51036E-03
 -1      3663 3.97371E+00
 -1      3664 3.83361E+00
 -1      3665 3.19219E+00
 -1      3666 2.09319E-01
 -1      3667 2.82326E-01
 -1      3668 6.55984E+00
 -1      3669 8.77667E+00
 -1      3670 7.06741E+00
 -1      3671 6.16314E+00
 -1      3672 7.17802E+00
 -1      3673 5.46371E+00
 -1      3674 3.09113E+00
 -1      3675 2.77298E+00
 -1      3676 3.03058E+00
 -1      3677 5.36162E-01
 -1      3678 4.71402E-01
 -1      3679 1.09865E+00
 -1      3680 9.56631E-01
 -1      3681 8.32668E-01
 -1      3682 6.28027E-01
 -1      3683 4.13471E-01
 -1      3684 3.70513E-01
 -1      3685 4.71519E-01
 -1      3686 2.42786E+00
 -1      3687 2.11396E+00
 -1      3688 1.86419E+00
 -1      3689 6.87451E+00
 -1      3690 5.86791E+00
 -1      3691 5.23337E+00
 -1      3692 3.44628E+00
 -1      3693 7.56883E+00
 -1      3694 7.21593E+00
 -1      3695 5.93741E+00
 -1      3696 2.09746E+00
 -1      3697 6.99948E-03
 -1      3698 6.05720E-03
 -1      3699 6.05720E-03
 -1      3700 4.25996E-03
 -1      3701 5.20477E-03
 -1      3702 5.20477E-03
 -1      3703 7.10040E-03
 -1      3704 8.52454E-03
 -1      3705 2.98269E+00
 -1      3706 4.40319E+00
 -1      3707 5.51361E+00
 -1      3708 4.80464E+00
 -1      3709 1.50550E+00
 -1      3710 1.47794E+00
 -1      3711 1.72177E+00
 -1      3712 7.77265E+00
 -1      3713 1.01704E+01
 -1      3714 6.84981E+00
 -1      3715 5.89458E+00
 -1      3716 2.60744E-01
 -1      3717 2.38667E-01
 -1      3718 6.07002E-03
 -1      3719 5.96965E-03
 -1      3720 7.49766E-03
 -1      3721 6.99222E-03
 -1      3722 7.72530E-03
 -1      3723 3.05986E+00
 -1      3724 6.61384E+00
 -1      3725 5.54236E+00
 -1      3726 6.51637E+00
 -1      3727 5.28022E+00
 -1      3728 7.20783E+00
 -1      3729 6.55984E+00
 -1      3730 4.16516E+00
 -1      3731 3.07472E-01
 -1      3732 2.02852E-01
 -1      3733 1.84805E-01
 -1      3734 2.22402E-01
 -1      3735 1.92801E-01
 -1      3736 2.19097E-01
 -1      3737 1.94582E-01
 -1      3738 6.52174E-01
 -1      3739 7.36441E-01
 -1      3740 8.62948E-01
 -1      3741 9.94148E-01
 -1      3742 8.62948E-01
 -1      3743 1.16758E+00
 -1      3744 1.34738E+00
 -1      3745 1.16288E+00
 -1      3746 1.68190E+00
 -1      3747 1.87060E+00
 -1      3748 1.67083E+00
 -1      3749 2.50187E+00
 -1      3750 2.75100E+00
 -1      3751 2.63662E+00
 -1      3752 5.33602E+00
 -1      3753 5.33602E+00
 -1      3754 6.28027E-01
 -1      3755 6.21314E-01
 -1      3756 7.13179E-01
 -1      3757 3.46988E+00
 -1      3758 3.03668E+00
 -1      3759 2.65271E+00
 -1      3760 2.44262E+00
 -1      3761 3.54759E+00
 -1      3762 1.77047E+00
 -1      3763 1.58492E+00
 -1      3764 2.49148E+00
 -1      3765 1.32368E+00
 -1      3766 1.15671E+00
 -1      3767 1.55810E+00
 -1      3768 9.94233E-01
 -1      3769 8.72364E-01
 -1      3770 1.13438E+00
 -1      3771 7.72829E-01
 -1      3772 6.95527E-01
 -1      3773 8.72364E-01
 -1      3774 6.18224E-01
 -1      3775 5.61104E-01
 -1      3776 6.95527E-01
 -1      3777 4.96275E-01
 -1      3778 4.49212E-01
 -1      3779 5.53395E-01
 -1      3780 3.95981E-01
 -1      3781 3.53939E-01
 -1      3782 4.35335E-01
 -1      3783 3.10654E-01
 -1      3784 2.74563E-01
 -1      3785 3.38819E-01
 -1      3786 2.39635E-01
 -1      3787 2.09561E-01
 -1      3788 2.60606E-01
 -1      3789 1.81649E-01
 -1      3790 1.57179E-01
 -1      3791 1.97765E-01
 -1      3792 1.35131E-01
 -1      3793 1.15650E-01
 -1      3794 1.47805E-01
 -1      3795 9.84784E-02
 -1      3796 8.33108E-02
 -1      3797 1.08585E-01
 -1      3798 7.01336E-02
 -1      3799 5.86968E-02
 -1      3800 7.82362E-02
 -1      3801 4.87162E-02
 -1      3802 4.05575E-02
 -1      3803 5.50784E-02
 -1      3804 3.33430E-02
 -1      3805 2.73031E-02
 -1      3806 3.78833E-02
 -1      3807 2.22135E-02
 -1      3808 1.78534E-02
 -1      3809 2.55792E-02
 -1      3810 1.42212E-02
 -1      3811 1.11893E-02
 -1      3812 1.68573E-02
 -1      3813 8.97479E-03
 -1      3814 7.90779E-03
 -1      3815 7.90779E-03
 -1      3816 1.10105E-02
 -1      3817 4.90813E+00
 -1      3818 3.13563E-01
 -1      3819 3.07472E-01
 -1      3820 2.35911E+00
 -1      3821 2.57939E+00
 -1      3822 9.58702E-01
 -1      3823 1.07351E+00
 -1      3824 1.24492E+00
 -1      3825 1.38445E+00
 -1      3826 1.21305E+00
 -1      3827 5.65872E-01
 -1      3828 6.44166E-01
 -1      3829 4.30912E-01
 -1      3830 4.93886E-01
 -1      3831 5.32082E-01
 -1      3832 3.25221E-01
 -1      3833 3.75254E-01
 -1      3834 4.04439E-01
 -1      3835 2.42595E-01
 -1      3836 2.81872E-01
 -1      3837 3.05432E-01
 -1      3838 1.78422E-01
 -1      3839 2.08859E-01
 -1      3840 2.28348E-01
 -1      3841 1.29108E-01
 -1      3842 1.52394E-01
 -1      3843 1.68584E-01
 -1      3844 9.17251E-02
 -1      3845 1.09102E-01
 -1      3846 1.22550E-01
 -1      3847 6.42189E-02
 -1      3848 7.65912E-02
 -1      3849 8.74094E-02
 -1      3850 4.38072E-02
 -1      3851 5.29574E-02
 -1      3852 6.10140E-02
 -1      3853 2.93196E-02
 -1      3854 3.59476E-02
 -1      3855 4.18928E-02
 -1      3856 1.89750E-02
 -1      3857 2.36194E-02
 -1      3858 2.83330E-02
 -1      3859 1.20842E-02
 -1      3860 1.49791E-02
 -1      3861 1.86369E-02
 -1      3862 9.97381E-03
 -1      3863 7.72530E-03
 -1      3864 7.72530E-03
 -1      3865 9.20522E-03
 -1      3866 3.41630E-01
 -1      3867 3.14976E-01
 -1      3868 3.34692E-01
 -1      3869 3.84705E-01
 -1      3870 1.64470E+00
 -1      3871 1.89106E+00
 -1      3872 1.64470E+00
 -1      3873 2.88417E-01
 -1      3874 1.04202E-02
 -1      3875 4.46832E+00
 -1      3876 3.91555E+00
 -1      3877 2.95400E+00
 -1      3878 4.04324E+00
 -1      3879 1.25306E-02
 -1      3880 2.85889E-01
 -1      3881 3.93090E-01
 -1      3882 4.33536E-01
 -1      3883 2.41066E-01
 -1      3884 2.61497E-01
 -1      3885 2.24548E-01
 -1      3886 5.37415E+00
 -1      3887 5.09451E+00
 -1      3888 5.04228E-01
 -1      3889 5.67906E-01
 -1      3890 4.97214E-01
 -1      3891 7.38415E-01
 -1      3892 8.34165E-01
 -1      3893 9.17100E-01
 -1      3894 6.98316E-01
 -1      3895 3.71360E+00
 -1      3896 3.67881E-01
 -1      3897 3.71012E-01
 -1      3898 4.04443E-01
 -1      3899 3.76183E+00
 -1      3900 1.23846E+00
 -1      3901 1.09197E+00
 -1      3902 6.01258E+00
 -1      3903 6.52174E-01
 -1      3904 5.62421E+00
 -1      3905 4.49970E+00
 -1      3906 5.18638E+00
 -1      3907 4.27730E+00
 -1      3908 4.90917E+00
 -1      3909 4.10910E+00
 -1      3910 4.42680E+00
 -1      3911 3.69682E+00
 -1      3912 4.08944E+00
 -1      3913 6.81393E-01
 -1      3914 5.89529E-01
 -1      3915 8.32668E-01
 -1      3916 4.25282E+00
 -1      3917 4.77325E+00
 -1      3918 4.98659E-01
 -1      3919 4.40728E-01
 -1      3920 5.58738E-01
 -1      3921 8.79600E-03
 -1      3922 7.90779E-03
 -1      3923 7.88770E-03
 -1      3924 2.59384E+00
 -1      3925 2.49998E+00
 -1      3926 2.06770E+00
 -1      3927 3.34692E-01
 -1      3928 5.23337E+00
 -1      3929 5.15952E+00
 -1      3930 5.33098E+00
 -1      3931 4.69210E+00
 -1      3932 3.73780E-01
 -1      3933 4.17529E+00
 -1      3934 3.06748E-01
 -1      3935 2.79075E-01
 -1      3936 9.81886E-03
 -1      3937 1.10338E-02
 -1      3938 4.21371E+00
 -1      3939 2.37299E+00
 -1      3940 5.21539E+00
 -1      3941 6.27023E+00
 -1      3942 4.66435E+00
 -1      3943 1.19187E-02
 -1      3944 1.19187E-02
 -1      3945 1.40291E-02
 -1      3946 1.25323E-02
 -1      3947 1.85315E+00
 -1      3948 6.89522E+00
 -1      3949 5.53455E+00
 -1      3950 4.97783E+00
 -1      3951 9.32624E-03
 -1      3952 9.81886E-03
 -1      3953 1.16474E-02
 -1      3954 2.93501E-01
 -1      3955 2.72642E-01
 -1      3956 2.36827E-01
 -1      3957 1.71074E+00
 -1      3958 1.47794E+00
 -1      3959 1.47125E+00
 -1      3960 3.05856E-01
 -1      3961 4.62259E+00
 -1      3962 3.66071E+00
 -1      3963 3.14442E-01
 -1      3964 5.12541E+00
 -1      3965 5.12541E+00
 -1      3966 4.32823E+00
 -1      3967 3.53964E+00
 -1      3968 2.14442E+00
 -1      3969 2.61246E+00
 -1      3970 3.31107E+00
 -1      3971 4.49970E+00
 -1      3972 3.50431E+00
 -1      3973 3.05030E+00
 -1      3974 3.96078E+00
 -1      3975 1.16288E+00
 -1      3976 1.33631E+00
 -1      3977 1.79806E+00
 -1      3978 2.13258E+00
 -1      3979 1.79806E+00
 -1      3980 3.04551E+00
 -1      3981 3.67678E+00
 -1      3982 3.17274E+00
 -1      3983 9.24213E-01
 -1      3984 8.04724E-01
 -1      3985 1.06402E+00
 -1      3986 2.67432E-01
 -1      3987 3.10781E-01
 -1      3988 3.86885E+00
 -1      3989 1.75477E+00
 -1      3990 1.49354E+00
 -1      3991 1.29686E+00
 -1      3992 1.13438E+00
 -1      3993 1.49354E+00
 -1      3994 9.71898E-01
 -1      3995 8.72364E-01
 -1      3996 1.13438E+00
 -1      3997 7.51757E-01
 -1      3998 6.74455E-01
 -1      3999 8.51292E-01
 -1      4000 5.85092E-01
 -1      4001 5.20263E-01
 -1      4002 6.41323E-01
 -1      4003 4.53792E-01
 -1      4004 4.00561E-01
 -1      4005 4.85489E-01
 -1      4006 3.50120E-01
 -1      4007 3.06836E-01
 -1      4008 3.68577E-01
 -1      4009 2.68134E-01
 -1      4010 2.33205E-01
 -1      4011 2.79435E-01
 -1      4012 2.02986E-01
 -1      4013 1.75074E-01
 -1      4014 2.10514E-01
 -1      4015 1.51600E-01
 -1      4016 1.29552E-01
 -1      4017 1.56822E-01
 -1      4018 1.11951E-01
 -1      4019 9.47795E-02
 -1      4020 1.15747E-01
 -1      4021 8.10778E-02
 -1      4022 6.79006E-02
 -1      4023 8.44439E-02
 -1      4024 5.75008E-02
 -1      4025 4.75202E-02
 -1      4026 6.03424E-02
 -1      4027 3.96455E-02
 -1      4028 3.24310E-02
 -1      4029 4.20678E-02
 -1      4030 2.67812E-02
 -1      4031 2.16915E-02
 -1      4032 2.85433E-02
 -1      4033 1.79106E-02
 -1      4034 1.42784E-02
 -1      4035 1.91126E-02
 -1      4036 1.19344E-02
 -1      4037 9.71988E-03
 -1      4038 9.71988E-03
 -1      4039 1.29877E-02
 -1      4040 4.73079E+00
 -1      4041 1.08831E+00
 -1      4042 1.25972E+00
 -1      4043 3.63117E-01
 -1      4044 3.41988E-01
 -1      4045 3.35173E-01
 -1      4046 3.92000E-01
 -1      4047 4.08566E+00
 -1      4048 4.69210E+00
 -1      4049 4.37139E+00
 -1      4050 6.46607E-01
 -1      4051 7.30875E-01
 -1      4052 3.53608E-01
 -1      4053 4.09266E-01
 -1      4054 3.15608E-01
 -1      4055 4.65290E-01
 -1      4056 5.37275E-01
 -1      4057 4.14459E-01
 -1      4058 2.00013E-01
 -1      4059 2.33749E-01
 -1      4060 2.39097E-01
 -1      4061 1.47812E-01
 -1      4062 1.73840E-01
 -1      4063 1.79242E-01
 -1      4064 1.07565E-01
 -1      4065 1.27571E-01
 -1      4066 1.32827E-01
 -1      4067 7.69775E-02
 -1      4068 9.21114E-02
 -1      4069 9.71326E-02
 -1      4070 5.38601E-02
 -1      4071 6.51217E-02
 -1      4072 6.98236E-02
 -1      4073 3.69420E-02
 -1      4074 4.48016E-02
 -1      4075 4.89093E-02
 -1      4076 2.47764E-02
 -1      4077 3.04766E-02
 -1      4078 3.33854E-02
 -1      4079 1.83508E-02
 -1      4080 2.23467E-02
 -1      4081 2.44902E-02
 -1      4082 1.77388E-02
 -1      4083 2.88870E-01
 -1      4084 3.10840E-01
 -1      4085 3.78764E-01
 -1      4086 1.88413E+00
 -1      4087 1.74171E+00
 -1      4088 1.74171E+00
 -1      4089 4.21371E+00
 -1      4090 7.61637E-03
 -1      4091 7.62919E-03
 -1      4092 9.95038E-03
 -1      4093 8.52467E-03
 -1      4094 1.50551E+00
 -1      4095 1.76576E+00
 -1      4096 2.00523E+00
 -1      4097 1.38078E+00
 -1      4098 4.75693E-01
 -1      4099 5.46386E-01
 -1      4100 6.25087E-01
 -1      4101 8.62948E-01
 -1      4102 9.89456E-01
 -1      4103 1.16288E+00
 -1      4104 2.36827E-01
 -1      4105 2.44823E-01
 -1      4106 2.87068E-01
 -1      4107 3.84220E-01
 -1      4108 4.06298E-01
 -1      4109 4.55470E-01
 -1      4110 3.80619E-01
 -1      4111 3.63680E+00
 -1      4112 2.93157E+00
 -1      4113 2.25942E+00
 -1      4114 3.17181E+00
 -1      4115 5.75661E-01
 -1      4116 4.84792E-01
 -1      4117 5.18638E+00
 -1      4118 3.96078E+00
 -1      4119 4.30895E+00
 -1      4120 4.06416E+00
 -1      4121 3.43097E+00
 -1      4122 3.81802E+00
 -1      4123 7.72938E-01
 -1      4124 5.45637E-01
 -1      4125 6.12429E-01
 -1      4126 7.06677E-01
 -1      4127 1.11151E+00
 -1      4128 9.43756E-01
 -1      4129 2.19487E+00
 -1      4130 4.19141E-01
 -1      4131 3.31115E-01
 -1      4132 6.75196E-01
 -1      4133 6.01250E-01
 -1      4134 7.98526E-01
 -1      4135 3.70413E-01
 -1      4136 3.35173E-01
 -1      4137 4.19141E-01
 -1      4138 4.08566E+00
 -1      4139 4.08566E+00
 -1      4140 8.10893E-01
 -1      4141 9.35430E-01
 -1      4142 9.82105E-01
 -1      4143 7.25007E-01
 -1      4144 1.95625E+00
 -1      4145 1.45421E-02
 -1      4146 1.54270E-02
 -1      4147 1.97487E-02
 -1      4148 8.57382E-01
 -1      4149 3.28740E-01
 -1      4150 4.62259E+00
 -1      4151 1.57665E+00
 -1      4152 1.33717E+00
 -1      4153 1.21691E+00
 -1      4154 1.45421E-02
 -1      4155 1.45421E-02
 -1      4156 1.74368E-02
 -1      4157 1.68865E+00
 -1      4158 1.49197E+00
 -1      4159 1.56414E+00
 -1      4160 2.02590E+00
 -1      4161 2.83672E+00
 -1      4162 2.65315E+00
 -1      4163 3.74720E+00
 -1      4164 2.64375E+00
 -1      4165 3.55668E+00
 -1      4166 3.55668E+00
 -1      4167 2.40983E+00
 -1      4168 2.60404E+00
 -1      4169 2.09939E+00
 -1      4170 2.09783E+00
 -1      4171 3.07634E+00
 -1      4172 1.56853E-01
 -1      4173 1.83026E-01
 -1      4174 4.36064E-01
 -1      4175 6.60271E-01
 -1      4176 7.60493E-01
 -1      4177 1.24310E+00
 -1      4178 1.08062E+00
 -1      4179 1.43821E+00
 -1      4180 8.82725E-01
 -1      4181 7.62119E-01
 -1      4182 9.91443E-01
 -1      4183 6.50724E-01
 -1      4184 5.61362E-01
 -1      4185 6.82158E-01
 -1      4186 4.84798E-01
 -1      4187 4.18326E-01
 -1      4188 4.94199E-01
 -1      4189 3.71548E-01
 -1      4190 3.21108E-01
 -1      4191 3.70857E-01
 -1      4192 2.84689E-01
 -1      4193 2.45987E-01
 -1      4194 2.87660E-01
 -1      4195 2.17598E-01
 -1      4196 1.87380E-01
 -1      4197 2.22852E-01
 -1      4198 1.78540E-01
 -1      4199 1.55066E-01
 -1      4200 1.85624E-01
 -1      4201 1.24408E-01
 -1      4202 1.06806E-01
 -1      4203 1.46126E-01
 -1      4204 9.19044E-02
 -1      4205 7.82026E-02
 -1      4206 1.00565E-01
 -1      4207 6.57859E-02
 -1      4208 5.53861E-02
 -1      4209 7.32464E-02
 -1      4210 4.64762E-02
 -1      4211 3.86015E-02
 -1      4212 5.19197E-02
 -1      4213 3.20800E-02
 -1      4214 2.64302E-02
 -1      4215 3.64883E-02
 -1      4216 2.94992E-01
 -1      4217 3.39039E-01
 -1      4218 3.44496E-01
 -1      4219 2.98430E-01
 -1      4220 3.41258E-01
 -1      4221 1.48901E+00
 -1      4222 1.66244E+00
 -1      4223 1.89027E+00
 -1      4224 3.48695E+00
 -1      4225 3.57693E+00
 -1      4226 2.97674E+00
 -1      4227 2.55977E+00
 -1      4228 2.26066E-01
 -1      4229 2.59749E-01
 -1      4230 2.03678E-01
 -1      4231 3.83714E-01
 -1      4232 4.39737E-01
 -1      4233 3.66536E-01
 -1      4234 1.16573E-01
 -1      4235 1.36815E-01
 -1      4236 1.40599E-01
 -1      4237 9.35175E-02
 -1      4238 1.08971E-01
 -1      4239 1.12958E-01
 -1      4240 6.99085E-02
 -1      4241 8.17643E-02
 -1      4242 9.36023E-02
 -1      4243 4.90222E-02
 -1      4244 5.80807E-02
 -1      4245 7.00214E-02
 -1      4246 2.86071E-02
 -1      4247 3.50725E-02
 -1      4248 4.42440E-02
 -1      4249 9.38256E-01
 -1      4250 1.07033E+00
 -1      4251 9.73441E-01
 -1      4252 3.51400E+00
 -1      4253 3.79973E+00
 -1      4254 2.98501E+00
 -1      4255 8.46014E-01
 -1      4256 4.08938E-01
 -1      4257 3.67266E-01
 -1      4258 3.67266E-01
 -1      4259 1.91694E+00
 -1      4260 1.88597E+00
 -1      4261 1.75188E+00
 -1      4262 4.74590E-01
 -1      4263 3.96078E+00
 -1      4264 4.90312E-01
 -1      4265 5.65466E-01
 -1      4266 4.59566E-01
 -1      4267 2.12187E-02
 -1      4268 2.12187E-02
 -1      4269 2.79741E+00
 -1      4270 1.56989E+00
 -1      4271 1.64424E+00
 -1      4272 2.02290E+00
 -1      4273 2.19878E+00
 -1      4274 4.09537E+00
 -1      4275 3.74720E+00
 -1      4276 3.23798E+00
 -1      4277 1.18737E-02
 -1      4278 1.09498E-02
 -1      4279 1.06785E-02
 -1      4280 4.85729E-01
 -1      4281 6.21135E-01
 -1      4282 4.16334E-01
 -1      4283 2.17569E-02
 -1      4284 1.79759E-02
 -1      4285 1.42176E-02
 -1      4286 2.85399E-01
 -1      4287 8.94521E-01
 -1      4288 7.49291E-01
 -1      4289 1.68619E-02
 -1      4290 8.21476E-01
 -1      4291 9.74358E-01
 -1      4292 2.59603E-02
 -1      4293 2.76474E-02
 -1      4294 2.35305E-02
 -1      4295 6.41915E-01
 -1      4296 5.42380E-01
 -1      4297 6.90422E-01
 -1      4298 1.38206E+00
 -1      4299 1.62786E+00
 -1      4300 1.64552E+00
 -1      4301 1.22144E+00
 -1      4302 5.15255E-01
 -1      4303 2.86319E+00
 -1      4304 1.38423E+00
 -1      4305 1.15856E+00
 -1      4306 1.06184E+00
 -1      4307 1.23755E-02
 -1      4308 2.52935E-02
 -1      4309 1.52702E-02
 -1      4310 2.22369E+00
 -1      4311 1.81295E+00
 -1      4312 1.68711E-01
 -1      4313 2.11751E-01
 -1      4314 3.53362E+00
 -1      4315 2.79741E+00
 -1      4316 1.99686E+00
 -1      4317 2.61471E+00
 -1      4318 2.57204E+00
 -1      4319 1.65812E+00
 -1      4320 1.40924E+00
 -1      4321 2.48979E-01
 -1      4322 2.87660E-01
 -1      4323 6.25879E-01
 -1      4324 7.30095E-01
 -1      4325 7.22348E-01
 -1      4326 5.70554E-01
 -1      4327 2.16046E+00
 -1      4328 1.85114E+00
 -1      4329 1.79280E+00
 -1      4330 2.89667E+00
 -1      4331 1.90285E-02
 -1      4332 1.00153E+00
 -1      4333 8.03641E-01
 -1      4334 7.12260E-01
 -1      4335 6.00865E-01
 -1      4336 5.40452E-01
 -1      4337 4.63888E-01
 -1      4338 4.13313E-01
 -1      4339 3.66536E-01
 -1      4340 3.24080E-01
 -1      4341 1.85624E-01
 -1      4342 1.76785E-01
 -1      4343 1.76785E-01
 -1      4344 1.46126E-01
 -1      4345 1.10411E-01
 -1      4346 9.55093E-02
 -1      4347 8.37561E-02
 -1      4348 7.13394E-02
 -1      4349 5.95116E-02
 -1      4350 5.06017E-02
 -1      4351 3.75190E-01
 -1      4352 5.14819E-01
 -1      4353 4.47028E-01
 -1      4354 2.57831E+00
 -1      4355 2.74917E-02
 -1      4356 3.01386E-02
 -1      4357 4.40883E-02
 -1      4358 7.96738E-01
 -1      4359 9.74501E-01
 -1      4360 6.89361E-01
 -1      4361 3.74754E-01
 -1      4362 3.74720E+00
 -1      4363 2.33723E+00
 -1      4364 1.23854E+00
 -1      4365 1.65722E+00
 -1      4366 1.48673E-01
 -1      4367 1.68711E-01
 -1      4368 2.28104E-02
 -1      4369 2.23073E+00
 -1      4370 2.60103E+00
 -1      4371 1.76785E-01
 -1      4372 2.20591E-01
 -1      4373 3.64964E-02
 -1      4374 2.99749E-02
 -1      4375 2.12414E+00
 -1      4376 1.80035E+00
 -1      4377 1.18014E-01
 -1      4378 2.74837E-02
 -1      4379 1.78397E+00
 -1      4380 2.09515E+00
 -3
 9999
