    1C
    1UUSER                                                              
    1UDATE              27.october.2022                                 
    1UTIME              00:46:10                                        
    1UHOST                                                              
    1UPGM               CalculiX                                        
    1UVERSION           Version 2.17                             
    1UCOMPILETIME       Thu Jul 23 21:43:50 CEST 2020                    
    1UDIR                                                               
    1UDBN                                                               
    1UMAT    1SOLIDMATERIAL                                             
    2C                          4336                                     1
 -1         1 9.81818E+01 2.52982E+01 0.00000E+00
 -1         2 1.10412E+02 2.06452E+01 0.00000E+00
 -1         3 1.50000E+02 0.00000E+00 0.00000E+00
 -1         4 1.50000E+02 5.00000E+01 0.00000E+00
 -1         5 0.00000E+00 0.00000E+00 0.00000E+00
 -1         6 0.00000E+00 5.00000E+01 0.00000E+00
 -1         7 0.00000E+00 4.70500E+01 0.00000E+00
 -1         8 0.00000E+00 4.41000E+01 0.00000E+00
 -1         9 0.00000E+00 4.11500E+01 0.00000E+00
 -1        10 0.00000E+00 3.82000E+01 0.00000E+00
 -1        11 0.00000E+00 3.52500E+01 0.00000E+00
 -1        12 0.00000E+00 3.23500E+01 0.00000E+00
 -1        13 0.00000E+00 2.94000E+01 0.00000E+00
 -1        14 0.00000E+00 2.64500E+01 0.00000E+00
 -1        15 0.00000E+00 2.35000E+01 0.00000E+00
 -1        16 0.00000E+00 2.05500E+01 0.00000E+00
 -1        17 0.00000E+00 1.76000E+01 0.00000E+00
 -1        18 0.00000E+00 1.47000E+01 0.00000E+00
 -1        19 0.00000E+00 1.17500E+01 0.00000E+00
 -1        20 0.00000E+00 8.80000E+00 0.00000E+00
 -1        21 0.00000E+00 5.85000E+00 0.00000E+00
 -1        22 0.00000E+00 2.90000E+00 0.00000E+00
 -1        23 3.15000E+00 5.00000E+01 0.00000E+00
 -1        24 6.15000E+00 5.00000E+01 0.00000E+00
 -1        25 9.15000E+00 5.00000E+01 0.00000E+00
 -1        26 1.21500E+01 5.00000E+01 0.00000E+00
 -1        27 1.51500E+01 5.00000E+01 0.00000E+00
 -1        28 1.81500E+01 5.00000E+01 0.00000E+00
 -1        29 2.11500E+01 5.00000E+01 0.00000E+00
 -1        30 2.41500E+01 5.00000E+01 0.00000E+00
 -1        31 2.71500E+01 5.00000E+01 0.00000E+00
 -1        32 3.01500E+01 5.00000E+01 0.00000E+00
 -1        33 3.31500E+01 5.00000E+01 0.00000E+00
 -1        34 3.61500E+01 5.00000E+01 0.00000E+00
 -1        35 3.91500E+01 5.00000E+01 0.00000E+00
 -1        36 4.21500E+01 5.00000E+01 0.00000E+00
 -1        37 4.51500E+01 5.00000E+01 0.00000E+00
 -1        38 4.81500E+01 5.00000E+01 0.00000E+00
 -1        39 5.11500E+01 5.00000E+01 0.00000E+00
 -1        40 5.41500E+01 5.00000E+01 0.00000E+00
 -1        41 5.71500E+01 5.00000E+01 0.00000E+00
 -1        42 6.01500E+01 5.00000E+01 0.00000E+00
 -1        43 6.31500E+01 5.00000E+01 0.00000E+00
 -1        44 6.61500E+01 5.00000E+01 0.00000E+00
 -1        45 6.91500E+01 5.00000E+01 0.00000E+00
 -1        46 7.21500E+01 5.00000E+01 0.00000E+00
 -1        47 7.51500E+01 5.00000E+01 0.00000E+00
 -1        48 7.81500E+01 5.00000E+01 0.00000E+00
 -1        49 8.11500E+01 5.00000E+01 0.00000E+00
 -1        50 8.41500E+01 5.00000E+01 0.00000E+00
 -1        51 8.71500E+01 5.00000E+01 0.00000E+00
 -1        52 9.01500E+01 5.00000E+01 0.00000E+00
 -1        53 9.31500E+01 5.00000E+01 0.00000E+00
 -1        54 9.61500E+01 5.00000E+01 0.00000E+00
 -1        55 9.91500E+01 5.00000E+01 0.00000E+00
 -1        56 1.02150E+02 5.00000E+01 0.00000E+00
 -1        57 1.05150E+02 5.00000E+01 0.00000E+00
 -1        58 1.08150E+02 5.00000E+01 0.00000E+00
 -1        59 1.11150E+02 5.00000E+01 0.00000E+00
 -1        60 1.14150E+02 5.00000E+01 0.00000E+00
 -1        61 1.17150E+02 5.00000E+01 0.00000E+00
 -1        62 1.20150E+02 5.00000E+01 0.00000E+00
 -1        63 1.23150E+02 5.00000E+01 0.00000E+00
 -1        64 1.26150E+02 5.00000E+01 0.00000E+00
 -1        65 1.29150E+02 5.00000E+01 0.00000E+00
 -1        66 1.32150E+02 5.00000E+01 0.00000E+00
 -1        67 1.35150E+02 5.00000E+01 0.00000E+00
 -1        68 1.38150E+02 5.00000E+01 0.00000E+00
 -1        69 1.41150E+02 5.00000E+01 0.00000E+00
 -1        70 1.44150E+02 5.00000E+01 0.00000E+00
 -1        71 1.47150E+02 5.00000E+01 0.00000E+00
 -1        72 3.15000E+00 0.00000E+00 0.00000E+00
 -1        73 6.15000E+00 0.00000E+00 0.00000E+00
 -1        74 9.15000E+00 0.00000E+00 0.00000E+00
 -1        75 1.21500E+01 0.00000E+00 0.00000E+00
 -1        76 1.51500E+01 0.00000E+00 0.00000E+00
 -1        77 1.81500E+01 0.00000E+00 0.00000E+00
 -1        78 2.11500E+01 0.00000E+00 0.00000E+00
 -1        79 2.41500E+01 0.00000E+00 0.00000E+00
 -1        80 2.71500E+01 0.00000E+00 0.00000E+00
 -1        81 3.01500E+01 0.00000E+00 0.00000E+00
 -1        82 3.31500E+01 0.00000E+00 0.00000E+00
 -1        83 3.61500E+01 0.00000E+00 0.00000E+00
 -1        84 3.91500E+01 0.00000E+00 0.00000E+00
 -1        85 4.21500E+01 0.00000E+00 0.00000E+00
 -1        86 4.51500E+01 0.00000E+00 0.00000E+00
 -1        87 4.81500E+01 0.00000E+00 0.00000E+00
 -1        88 5.11500E+01 0.00000E+00 0.00000E+00
 -1        89 5.41500E+01 0.00000E+00 0.00000E+00
 -1        90 5.71500E+01 0.00000E+00 0.00000E+00
 -1        91 6.01500E+01 0.00000E+00 0.00000E+00
 -1        92 6.31500E+01 0.00000E+00 0.00000E+00
 -1        93 6.61500E+01 0.00000E+00 0.00000E+00
 -1        94 6.91500E+01 0.00000E+00 0.00000E+00
 -1        95 7.21500E+01 0.00000E+00 0.00000E+00
 -1        96 7.51500E+01 0.00000E+00 0.00000E+00
 -1        97 7.81500E+01 0.00000E+00 0.00000E+00
 -1        98 8.11500E+01 0.00000E+00 0.00000E+00
 -1        99 8.41500E+01 0.00000E+00 0.00000E+00
 -1       100 8.71500E+01 0.00000E+00 0.00000E+00
 -1       101 9.01500E+01 0.00000E+00 0.00000E+00
 -1       102 9.31500E+01 0.00000E+00 0.00000E+00
 -1       103 9.61500E+01 0.00000E+00 0.00000E+00
 -1       104 9.91500E+01 0.00000E+00 0.00000E+00
 -1       105 1.02150E+02 0.00000E+00 0.00000E+00
 -1       106 1.05150E+02 0.00000E+00 0.00000E+00
 -1       107 1.08150E+02 0.00000E+00 0.00000E+00
 -1       108 1.11150E+02 0.00000E+00 0.00000E+00
 -1       109 1.14150E+02 0.00000E+00 0.00000E+00
 -1       110 1.17150E+02 0.00000E+00 0.00000E+00
 -1       111 1.20150E+02 0.00000E+00 0.00000E+00
 -1       112 1.23150E+02 0.00000E+00 0.00000E+00
 -1       113 1.26150E+02 0.00000E+00 0.00000E+00
 -1       114 1.29150E+02 0.00000E+00 0.00000E+00
 -1       115 1.32150E+02 0.00000E+00 0.00000E+00
 -1       116 1.35150E+02 0.00000E+00 0.00000E+00
 -1       117 1.38150E+02 0.00000E+00 0.00000E+00
 -1       118 1.41150E+02 0.00000E+00 0.00000E+00
 -1       119 1.44150E+02 0.00000E+00 0.00000E+00
 -1       120 1.47150E+02 0.00000E+00 0.00000E+00
 -1       121 1.50000E+02 2.95000E+00 0.00000E+00
 -1       122 1.50000E+02 5.90000E+00 0.00000E+00
 -1       123 1.50000E+02 8.85000E+00 0.00000E+00
 -1       124 1.50000E+02 1.18000E+01 0.00000E+00
 -1       125 1.50000E+02 1.47500E+01 0.00000E+00
 -1       126 1.50000E+02 1.76500E+01 0.00000E+00
 -1       127 1.50000E+02 2.06000E+01 0.00000E+00
 -1       128 1.50000E+02 2.35500E+01 0.00000E+00
 -1       129 1.50000E+02 2.65000E+01 0.00000E+00
 -1       130 1.50000E+02 2.94500E+01 0.00000E+00
 -1       131 1.50000E+02 3.24000E+01 0.00000E+00
 -1       132 1.50000E+02 3.53000E+01 0.00000E+00
 -1       133 1.50000E+02 3.82500E+01 0.00000E+00
 -1       134 1.50000E+02 4.12000E+01 0.00000E+00
 -1       135 1.50000E+02 4.41500E+01 0.00000E+00
 -1       136 1.50000E+02 4.71000E+01 0.00000E+00
 -1       137 1.10234E+02 1.90797E+01 0.00000E+00
 -1       138 1.09769E+02 1.77152E+01 0.00000E+00
 -1       139 1.08947E+02 1.63609E+01 0.00000E+00
 -1       140 1.07930E+02 1.52992E+01 0.00000E+00
 -1       141 1.06587E+02 1.44068E+01 0.00000E+00
 -1       142 1.05265E+02 1.38951E+01 0.00000E+00
 -1       143 1.03732E+02 1.36526E+01 0.00000E+00
 -1       144 1.02201E+02 1.37507E+01 0.00000E+00
 -1       145 1.00775E+02 1.41606E+01 0.00000E+00
 -1       146 9.94432E+01 1.48788E+01 0.00000E+00
 -1       147 9.83497E+01 1.58102E+01 0.00000E+00
 -1       148 9.74487E+01 1.69786E+01 0.00000E+00
 -1       149 9.67812E+01 1.84007E+01 0.00000E+00
 -1       150 9.64674E+01 1.97632E+01 0.00000E+00
 -1       151 9.64311E+01 2.11675E+01 0.00000E+00
 -1       152 9.66922E+01 2.26076E+01 0.00000E+00
 -1       153 9.72925E+01 2.40448E+01 0.00000E+00
 -1       154 9.92213E+01 2.62525E+01 0.00000E+00
 -1       155 1.00460E+02 2.69926E+01 0.00000E+00
 -1       156 1.01866E+02 2.74724E+01 0.00000E+00
 -1       157 1.03226E+02 2.76428E+01 0.00000E+00
 -1       158 1.04562E+02 2.75500E+01 0.00000E+00
 -1       159 1.05892E+02 2.71912E+01 0.00000E+00
 -1       160 1.07181E+02 2.65438E+01 0.00000E+00
 -1       161 1.08254E+02 2.57004E+01 0.00000E+00
 -1       162 1.09200E+02 2.45815E+01 0.00000E+00
 -1       163 1.09879E+02 2.33228E+01 0.00000E+00
 -1       164 1.10273E+02 2.20324E+01 0.00000E+00
 -1       165 2.59800E+00 4.55750E+01 0.00000E+00
 -1       166 2.59800E+00 4.26250E+01 0.00000E+00
 -1       167 2.59800E+00 3.96750E+01 0.00000E+00
 -1       168 2.59800E+00 3.67250E+01 0.00000E+00
 -1       169 2.59800E+00 3.38250E+01 0.00000E+00
 -1       170 2.59800E+00 3.08750E+01 0.00000E+00
 -1       171 2.59800E+00 2.79250E+01 0.00000E+00
 -1       172 2.59800E+00 2.49750E+01 0.00000E+00
 -1       173 2.59800E+00 2.20250E+01 0.00000E+00
 -1       174 2.59800E+00 1.90750E+01 0.00000E+00
 -1       175 2.59800E+00 1.61750E+01 0.00000E+00
 -1       176 2.59800E+00 1.32250E+01 0.00000E+00
 -1       177 2.59800E+00 1.02750E+01 0.00000E+00
 -1       178 2.59800E+00 7.32500E+00 0.00000E+00
 -1       179 2.59800E+00 4.37500E+00 0.00000E+00
 -1       180 2.87400E+00 2.18750E+00 0.00000E+00
 -1       181 4.65000E+00 4.74020E+01 0.00000E+00
 -1       182 7.65000E+00 4.74020E+01 0.00000E+00
 -1       183 1.06500E+01 4.74020E+01 0.00000E+00
 -1       184 1.36500E+01 4.74020E+01 0.00000E+00
 -1       185 1.66500E+01 4.74020E+01 0.00000E+00
 -1       186 1.96500E+01 4.74020E+01 0.00000E+00
 -1       187 2.26500E+01 4.74020E+01 0.00000E+00
 -1       188 2.56500E+01 4.74020E+01 0.00000E+00
 -1       189 2.86500E+01 4.74020E+01 0.00000E+00
 -1       190 3.16500E+01 4.74020E+01 0.00000E+00
 -1       191 3.46500E+01 4.74020E+01 0.00000E+00
 -1       192 3.76500E+01 4.74020E+01 0.00000E+00
 -1       193 4.06500E+01 4.74020E+01 0.00000E+00
 -1       194 4.36500E+01 4.74020E+01 0.00000E+00
 -1       195 4.66500E+01 4.74020E+01 0.00000E+00
 -1       196 4.96500E+01 4.74020E+01 0.00000E+00
 -1       197 5.26500E+01 4.74020E+01 0.00000E+00
 -1       198 5.56500E+01 4.74020E+01 0.00000E+00
 -1       199 5.86500E+01 4.74020E+01 0.00000E+00
 -1       200 6.16500E+01 4.74020E+01 0.00000E+00
 -1       201 6.46500E+01 4.74020E+01 0.00000E+00
 -1       202 6.76500E+01 4.74020E+01 0.00000E+00
 -1       203 7.06500E+01 4.74020E+01 0.00000E+00
 -1       204 7.36500E+01 4.74020E+01 0.00000E+00
 -1       205 7.66500E+01 4.74020E+01 0.00000E+00
 -1       206 7.96500E+01 4.74020E+01 0.00000E+00
 -1       207 8.26500E+01 4.74020E+01 0.00000E+00
 -1       208 8.56500E+01 4.74020E+01 0.00000E+00
 -1       209 8.86500E+01 4.74020E+01 0.00000E+00
 -1       210 9.16500E+01 4.74020E+01 0.00000E+00
 -1       211 9.46500E+01 4.74020E+01 0.00000E+00
 -1       212 9.76500E+01 4.74020E+01 0.00000E+00
 -1       213 1.00650E+02 4.74020E+01 0.00000E+00
 -1       214 1.03650E+02 4.74020E+01 0.00000E+00
 -1       215 1.06650E+02 4.74020E+01 0.00000E+00
 -1       216 1.09650E+02 4.74020E+01 0.00000E+00
 -1       217 1.12650E+02 4.74020E+01 0.00000E+00
 -1       218 1.15650E+02 4.74020E+01 0.00000E+00
 -1       219 1.18650E+02 4.74020E+01 0.00000E+00
 -1       220 1.21650E+02 4.74020E+01 0.00000E+00
 -1       221 1.24650E+02 4.74020E+01 0.00000E+00
 -1       222 1.27650E+02 4.74020E+01 0.00000E+00
 -1       223 1.30650E+02 4.74020E+01 0.00000E+00
 -1       224 1.33650E+02 4.74020E+01 0.00000E+00
 -1       225 1.36650E+02 4.74020E+01 0.00000E+00
 -1       226 1.39650E+02 4.74020E+01 0.00000E+00
 -1       227 1.42650E+02 4.74020E+01 0.00000E+00
 -1       228 1.45650E+02 4.74020E+01 0.00000E+00
 -1       229 5.87400E+00 2.18750E+00 0.00000E+00
 -1       230 8.87400E+00 2.18750E+00 0.00000E+00
 -1       231 1.18740E+01 2.18750E+00 0.00000E+00
 -1       232 1.48740E+01 2.18750E+00 0.00000E+00
 -1       233 1.78740E+01 2.18750E+00 0.00000E+00
 -1       234 2.08740E+01 2.18750E+00 0.00000E+00
 -1       235 2.38740E+01 2.18750E+00 0.00000E+00
 -1       236 2.68740E+01 2.18750E+00 0.00000E+00
 -1       237 2.98740E+01 2.18750E+00 0.00000E+00
 -1       238 3.28740E+01 2.18750E+00 0.00000E+00
 -1       239 3.58740E+01 2.18750E+00 0.00000E+00
 -1       240 3.88740E+01 2.18750E+00 0.00000E+00
 -1       241 4.18740E+01 2.18750E+00 0.00000E+00
 -1       242 4.48740E+01 2.18750E+00 0.00000E+00
 -1       243 4.78740E+01 2.18750E+00 0.00000E+00
 -1       244 5.08740E+01 2.18750E+00 0.00000E+00
 -1       245 5.38740E+01 2.18750E+00 0.00000E+00
 -1       246 5.68740E+01 2.18750E+00 0.00000E+00
 -1       247 5.98740E+01 2.18750E+00 0.00000E+00
 -1       248 6.28740E+01 2.18750E+00 0.00000E+00
 -1       249 6.58740E+01 2.18750E+00 0.00000E+00
 -1       250 6.88740E+01 2.18750E+00 0.00000E+00
 -1       251 7.18740E+01 2.18750E+00 0.00000E+00
 -1       252 7.48740E+01 2.18750E+00 0.00000E+00
 -1       253 7.78740E+01 2.18750E+00 0.00000E+00
 -1       254 8.08740E+01 2.18750E+00 0.00000E+00
 -1       255 8.38740E+01 2.18750E+00 0.00000E+00
 -1       256 8.68740E+01 2.18750E+00 0.00000E+00
 -1       257 8.98740E+01 2.18750E+00 0.00000E+00
 -1       258 9.28740E+01 2.18750E+00 0.00000E+00
 -1       259 9.58740E+01 2.18750E+00 0.00000E+00
 -1       260 9.88740E+01 2.18750E+00 0.00000E+00
 -1       261 1.01874E+02 2.18750E+00 0.00000E+00
 -1       262 1.04874E+02 2.18750E+00 0.00000E+00
 -1       263 1.07874E+02 2.18750E+00 0.00000E+00
 -1       264 1.10874E+02 2.18750E+00 0.00000E+00
 -1       265 1.13874E+02 2.18750E+00 0.00000E+00
 -1       266 1.16874E+02 2.18750E+00 0.00000E+00
 -1       267 1.19874E+02 2.18750E+00 0.00000E+00
 -1       268 1.22874E+02 2.18750E+00 0.00000E+00
 -1       269 1.25874E+02 2.18750E+00 0.00000E+00
 -1       270 1.28874E+02 2.18750E+00 0.00000E+00
 -1       271 1.31874E+02 2.18750E+00 0.00000E+00
 -1       272 1.34874E+02 2.18750E+00 0.00000E+00
 -1       273 1.37874E+02 2.18750E+00 0.00000E+00
 -1       274 1.40874E+02 2.18750E+00 0.00000E+00
 -1       275 1.43874E+02 2.18750E+00 0.00000E+00
 -1       276 1.46874E+02 2.18750E+00 0.00000E+00
 -1       277 1.47402E+02 4.42500E+00 0.00000E+00
 -1       278 1.47402E+02 7.37500E+00 0.00000E+00
 -1       279 1.47402E+02 1.03250E+01 0.00000E+00
 -1       280 1.47402E+02 1.32750E+01 0.00000E+00
 -1       281 1.47402E+02 1.61750E+01 0.00000E+00
 -1       282 1.47402E+02 1.91250E+01 0.00000E+00
 -1       283 1.47402E+02 2.20750E+01 0.00000E+00
 -1       284 1.47402E+02 2.50250E+01 0.00000E+00
 -1       285 1.47402E+02 2.79750E+01 0.00000E+00
 -1       286 1.47402E+02 3.09250E+01 0.00000E+00
 -1       287 1.47402E+02 3.38250E+01 0.00000E+00
 -1       288 1.47402E+02 3.67750E+01 0.00000E+00
 -1       289 1.47402E+02 3.97250E+01 0.00000E+00
 -1       290 1.47402E+02 4.26750E+01 0.00000E+00
 -1       291 1.46526E+02 4.50385E+01 0.00000E+00
 -1       292 1.11694E+02 1.97072E+01 0.00000E+00
 -1       293 1.11228E+02 1.79790E+01 0.00000E+00
 -1       294 1.10681E+02 1.62354E+01 0.00000E+00
 -1       295 1.09375E+02 1.49334E+01 0.00000E+00
 -1       296 1.08022E+02 1.37034E+01 0.00000E+00
 -1       297 1.06364E+02 1.30203E+01 0.00000E+00
 -1       298 1.04714E+02 1.24108E+01 0.00000E+00
 -1       299 1.02889E+02 1.24917E+01 0.00000E+00
 -1       300 1.01153E+02 1.27905E+01 0.00000E+00
 -1       301 9.94545E+01 1.33050E+01 0.00000E+00
 -1       302 9.81103E+01 1.44215E+01 0.00000E+00
 -1       303 9.69391E+01 1.56540E+01 0.00000E+00
 -1       304 9.58658E+01 1.71033E+01 0.00000E+00
 -1       305 9.54428E+01 1.88098E+01 0.00000E+00
 -1       306 9.52372E+01 2.04340E+01 0.00000E+00
 -1       307 9.52863E+01 2.21188E+01 0.00000E+00
 -1       308 9.56417E+01 2.38903E+01 0.00000E+00
 -1       309 9.66117E+01 2.54701E+01 0.00000E+00
 -1       310 9.78816E+01 2.66684E+01 0.00000E+00
 -1       311 9.92189E+01 2.76634E+01 0.00000E+00
 -1       312 1.00717E+02 2.85385E+01 0.00000E+00
 -1       313 1.02395E+02 2.87606E+01 0.00000E+00
 -1       314 1.03978E+02 2.88059E+01 0.00000E+00
 -1       315 1.05543E+02 2.85411E+01 0.00000E+00
 -1       316 1.07155E+02 2.81007E+01 0.00000E+00
 -1       317 1.08518E+02 2.71411E+01 0.00000E+00
 -1       318 1.09716E+02 2.59780E+01 0.00000E+00
 -1       319 1.10607E+02 2.45279E+01 0.00000E+00
 -1       320 1.11236E+02 2.30313E+01 0.00000E+00
 -1       321 1.11549E+02 2.14595E+01 0.00000E+00
 -1       322 5.19600E+00 4.11500E+01 0.00000E+00
 -1       323 5.19600E+00 4.41000E+01 0.00000E+00
 -1       324 5.19600E+00 3.52750E+01 0.00000E+00
 -1       325 5.19600E+00 3.23250E+01 0.00000E+00
 -1       326 5.19600E+00 2.93750E+01 0.00000E+00
 -1       327 5.19600E+00 2.64250E+01 0.00000E+00
 -1       328 5.19600E+00 2.34750E+01 0.00000E+00
 -1       329 5.19600E+00 2.05250E+01 0.00000E+00
 -1       330 5.19600E+00 1.76250E+01 0.00000E+00
 -1       331 5.19600E+00 1.46750E+01 0.00000E+00
 -1       332 5.19600E+00 1.17250E+01 0.00000E+00
 -1       333 5.19600E+00 8.77500E+00 0.00000E+00
 -1       334 5.19600E+00 5.82500E+00 0.00000E+00
 -1       335 5.53500E+00 4.00625E+00 0.00000E+00
 -1       336 8.53500E+00 4.00625E+00 0.00000E+00
 -1       337 9.15000E+00 4.48040E+01 0.00000E+00
 -1       338 1.21500E+01 4.48040E+01 0.00000E+00
 -1       339 1.51500E+01 4.48040E+01 0.00000E+00
 -1       340 1.81500E+01 4.48040E+01 0.00000E+00
 -1       341 2.11500E+01 4.48040E+01 0.00000E+00
 -1       342 2.41500E+01 4.48040E+01 0.00000E+00
 -1       343 2.71500E+01 4.48040E+01 0.00000E+00
 -1       344 3.01500E+01 4.48040E+01 0.00000E+00
 -1       345 3.31500E+01 4.48040E+01 0.00000E+00
 -1       346 3.61500E+01 4.48040E+01 0.00000E+00
 -1       347 3.91500E+01 4.48040E+01 0.00000E+00
 -1       348 4.21500E+01 4.48040E+01 0.00000E+00
 -1       349 4.51500E+01 4.48040E+01 0.00000E+00
 -1       350 4.81500E+01 4.48040E+01 0.00000E+00
 -1       351 5.11500E+01 4.48040E+01 0.00000E+00
 -1       352 5.41500E+01 4.48040E+01 0.00000E+00
 -1       353 5.71500E+01 4.48040E+01 0.00000E+00
 -1       354 6.01500E+01 4.48040E+01 0.00000E+00
 -1       355 6.31500E+01 4.48040E+01 0.00000E+00
 -1       356 6.61500E+01 4.48040E+01 0.00000E+00
 -1       357 6.91500E+01 4.48040E+01 0.00000E+00
 -1       358 7.21500E+01 4.48040E+01 0.00000E+00
 -1       359 7.51500E+01 4.48040E+01 0.00000E+00
 -1       360 7.81500E+01 4.48040E+01 0.00000E+00
 -1       361 8.11500E+01 4.48040E+01 0.00000E+00
 -1       362 8.41500E+01 4.48040E+01 0.00000E+00
 -1       363 8.71500E+01 4.48040E+01 0.00000E+00
 -1       364 9.01500E+01 4.48040E+01 0.00000E+00
 -1       365 9.31500E+01 4.48040E+01 0.00000E+00
 -1       366 9.61500E+01 4.48040E+01 0.00000E+00
 -1       367 9.91500E+01 4.48040E+01 0.00000E+00
 -1       368 1.02150E+02 4.48040E+01 0.00000E+00
 -1       369 1.05150E+02 4.48040E+01 0.00000E+00
 -1       370 1.08150E+02 4.48040E+01 0.00000E+00
 -1       371 1.11150E+02 4.48040E+01 0.00000E+00
 -1       372 1.14150E+02 4.48040E+01 0.00000E+00
 -1       373 1.17150E+02 4.48040E+01 0.00000E+00
 -1       374 1.20150E+02 4.48040E+01 0.00000E+00
 -1       375 1.23150E+02 4.48040E+01 0.00000E+00
 -1       376 1.26150E+02 4.48040E+01 0.00000E+00
 -1       377 1.29150E+02 4.48040E+01 0.00000E+00
 -1       378 1.32150E+02 4.48040E+01 0.00000E+00
 -1       379 1.35150E+02 4.48040E+01 0.00000E+00
 -1       380 1.38150E+02 4.48040E+01 0.00000E+00
 -1       381 1.41150E+02 4.48040E+01 0.00000E+00
 -1       382 1.43838E+02 4.49212E+01 0.00000E+00
 -1       383 1.15350E+01 4.00625E+00 0.00000E+00
 -1       384 1.45350E+01 4.00625E+00 0.00000E+00
 -1       385 1.75350E+01 4.00625E+00 0.00000E+00
 -1       386 2.05350E+01 4.00625E+00 0.00000E+00
 -1       387 2.35350E+01 4.00625E+00 0.00000E+00
 -1       388 2.65350E+01 4.00625E+00 0.00000E+00
 -1       389 2.95350E+01 4.00625E+00 0.00000E+00
 -1       390 3.25350E+01 4.00625E+00 0.00000E+00
 -1       391 3.55350E+01 4.00625E+00 0.00000E+00
 -1       392 3.85350E+01 4.00625E+00 0.00000E+00
 -1       393 4.15350E+01 4.00625E+00 0.00000E+00
 -1       394 4.45350E+01 4.00625E+00 0.00000E+00
 -1       395 4.75350E+01 4.00625E+00 0.00000E+00
 -1       396 5.05350E+01 4.00625E+00 0.00000E+00
 -1       397 5.35350E+01 4.00625E+00 0.00000E+00
 -1       398 5.65350E+01 4.00625E+00 0.00000E+00
 -1       399 5.95350E+01 4.00625E+00 0.00000E+00
 -1       400 6.25350E+01 4.00625E+00 0.00000E+00
 -1       401 6.55350E+01 4.00625E+00 0.00000E+00
 -1       402 6.85350E+01 4.00625E+00 0.00000E+00
 -1       403 7.15350E+01 4.00625E+00 0.00000E+00
 -1       404 7.45350E+01 4.00625E+00 0.00000E+00
 -1       405 7.75350E+01 4.00625E+00 0.00000E+00
 -1       406 8.05350E+01 4.00625E+00 0.00000E+00
 -1       407 8.35350E+01 4.00625E+00 0.00000E+00
 -1       408 8.65350E+01 4.00625E+00 0.00000E+00
 -1       409 8.95350E+01 4.00625E+00 0.00000E+00
 -1       410 9.25350E+01 4.00625E+00 0.00000E+00
 -1       411 9.55350E+01 4.00625E+00 0.00000E+00
 -1       412 9.85350E+01 4.00625E+00 0.00000E+00
 -1       413 1.01535E+02 4.00625E+00 0.00000E+00
 -1       414 1.04535E+02 4.00625E+00 0.00000E+00
 -1       415 1.07535E+02 4.00625E+00 0.00000E+00
 -1       416 1.10535E+02 4.00625E+00 0.00000E+00
 -1       417 1.13535E+02 4.00625E+00 0.00000E+00
 -1       418 1.16535E+02 4.00625E+00 0.00000E+00
 -1       419 1.19535E+02 4.00625E+00 0.00000E+00
 -1       420 1.22535E+02 4.00625E+00 0.00000E+00
 -1       421 1.25535E+02 4.00625E+00 0.00000E+00
 -1       422 1.28535E+02 4.00625E+00 0.00000E+00
 -1       423 1.31535E+02 4.00625E+00 0.00000E+00
 -1       424 1.34535E+02 4.00625E+00 0.00000E+00
 -1       425 1.37535E+02 4.00625E+00 0.00000E+00
 -1       426 1.40535E+02 4.00625E+00 0.00000E+00
 -1       427 1.43535E+02 4.00625E+00 0.00000E+00
 -1       428 1.45469E+02 4.21562E+00 0.00000E+00
 -1       429 1.44804E+02 1.18000E+01 0.00000E+00
 -1       430 1.44804E+02 8.85000E+00 0.00000E+00
 -1       431 1.45136E+02 6.53281E+00 0.00000E+00
 -1       432 1.44804E+02 1.47000E+01 0.00000E+00
 -1       433 1.44804E+02 1.76500E+01 0.00000E+00
 -1       434 1.44804E+02 2.06000E+01 0.00000E+00
 -1       435 1.44804E+02 2.35500E+01 0.00000E+00
 -1       436 1.44804E+02 2.65000E+01 0.00000E+00
 -1       437 1.44804E+02 2.94500E+01 0.00000E+00
 -1       438 1.44804E+02 3.23500E+01 0.00000E+00
 -1       439 1.44804E+02 3.53000E+01 0.00000E+00
 -1       440 1.44804E+02 3.82500E+01 0.00000E+00
 -1       441 1.44804E+02 4.12000E+01 0.00000E+00
 -1       442 1.12271E+02 1.66940E+01 0.00000E+00
 -1       443 1.13331E+02 2.07254E+01 0.00000E+00
 -1       444 1.12875E+02 1.84622E+01 0.00000E+00
 -1       445 1.11120E+02 1.44883E+01 0.00000E+00
 -1       446 1.09768E+02 1.32583E+01 0.00000E+00
 -1       447 5.19600E+00 3.82125E+01 0.00000E+00
 -1       448 1.06017E+02 1.14212E+01 0.00000E+00
 -1       449 1.03726E+02 1.07379E+01 0.00000E+00
 -1       450 1.01990E+02 1.10366E+01 0.00000E+00
 -1       451 9.99038E+01 1.17270E+01 0.00000E+00
 -1       452 9.78471E+01 1.27373E+01 0.00000E+00
 -1       453 9.66759E+01 1.39698E+01 0.00000E+00
 -1       454 9.52935E+01 1.55573E+01 0.00000E+00
 -1       455 9.41522E+01 1.75843E+01 0.00000E+00
 -1       456 9.39710E+01 1.94486E+01 0.00000E+00
 -1       457 9.38824E+01 2.13166E+01 0.00000E+00
 -1       458 9.40288E+01 2.32925E+01 0.00000E+00
 -1       459 9.46651E+01 2.55776E+01 0.00000E+00
 -1       460 9.63570E+01 2.70120E+01 0.00000E+00
 -1       461 9.76265E+01 2.84075E+01 0.00000E+00
 -1       462 9.91247E+01 2.92826E+01 0.00000E+00
 -1       463 1.01375E+02 3.00176E+01 0.00000E+00
 -1       464 1.03150E+02 3.00789E+01 0.00000E+00
 -1       465 1.04977E+02 2.99515E+01 0.00000E+00
 -1       466 1.06590E+02 2.95111E+01 0.00000E+00
 -1       467 1.08680E+02 2.88177E+01 0.00000E+00
 -1       468 1.10254E+02 2.77301E+01 0.00000E+00
 -1       469 1.11338E+02 2.59749E+01 0.00000E+00
 -1       470 1.12116E+02 2.42818E+01 0.00000E+00
 -1       471 1.13018E+02 2.22971E+01 0.00000E+00
 -1       472 1.07676E+02 1.21043E+01 0.00000E+00
 -1       473 1.12711E+02 1.49469E+01 0.00000E+00
 -1       474 1.00350E+01 6.60425E+00 0.00000E+00
 -1       475 7.79400E+00 3.08500E+01 0.00000E+00
 -1       476 7.79400E+00 3.38000E+01 0.00000E+00
 -1       477 7.79400E+00 2.49500E+01 0.00000E+00
 -1       478 7.79400E+00 2.20000E+01 0.00000E+00
 -1       479 7.79400E+00 1.91000E+01 0.00000E+00
 -1       480 7.79400E+00 1.61500E+01 0.00000E+00
 -1       481 7.79400E+00 1.32000E+01 0.00000E+00
 -1       482 7.79400E+00 1.02500E+01 0.00000E+00
 -1       483 1.30350E+01 6.60425E+00 0.00000E+00
 -1       484 1.06500E+01 4.22060E+01 0.00000E+00
 -1       485 1.09631E+02 1.10328E+01 0.00000E+00
 -1       486 1.13958E+02 1.71055E+01 0.00000E+00
 -1       487 1.36500E+01 4.22060E+01 0.00000E+00
 -1       488 1.66500E+01 4.22060E+01 0.00000E+00
 -1       489 1.96500E+01 4.22060E+01 0.00000E+00
 -1       490 2.26500E+01 4.22060E+01 0.00000E+00
 -1       491 2.56500E+01 4.22060E+01 0.00000E+00
 -1       492 2.86500E+01 4.22060E+01 0.00000E+00
 -1       493 3.16500E+01 4.22060E+01 0.00000E+00
 -1       494 3.46500E+01 4.22060E+01 0.00000E+00
 -1       495 3.76500E+01 4.22060E+01 0.00000E+00
 -1       496 4.06500E+01 4.22060E+01 0.00000E+00
 -1       497 4.36500E+01 4.22060E+01 0.00000E+00
 -1       498 4.66500E+01 4.22060E+01 0.00000E+00
 -1       499 4.96500E+01 4.22060E+01 0.00000E+00
 -1       500 5.26500E+01 4.22060E+01 0.00000E+00
 -1       501 5.56500E+01 4.22060E+01 0.00000E+00
 -1       502 5.86500E+01 4.22060E+01 0.00000E+00
 -1       503 6.16500E+01 4.22060E+01 0.00000E+00
 -1       504 6.46500E+01 4.22060E+01 0.00000E+00
 -1       505 6.76500E+01 4.22060E+01 0.00000E+00
 -1       506 7.06500E+01 4.22060E+01 0.00000E+00
 -1       507 7.36500E+01 4.22060E+01 0.00000E+00
 -1       508 7.66500E+01 4.22060E+01 0.00000E+00
 -1       509 7.96500E+01 4.22060E+01 0.00000E+00
 -1       510 8.26500E+01 4.22060E+01 0.00000E+00
 -1       511 8.56500E+01 4.22060E+01 0.00000E+00
 -1       512 8.86500E+01 4.22060E+01 0.00000E+00
 -1       513 9.16500E+01 4.22060E+01 0.00000E+00
 -1       514 9.46500E+01 4.22060E+01 0.00000E+00
 -1       515 9.76500E+01 4.22060E+01 0.00000E+00
 -1       516 1.00650E+02 4.22060E+01 0.00000E+00
 -1       517 1.03650E+02 4.22060E+01 0.00000E+00
 -1       518 1.06650E+02 4.22060E+01 0.00000E+00
 -1       519 1.09650E+02 4.22060E+01 0.00000E+00
 -1       520 1.12650E+02 4.22060E+01 0.00000E+00
 -1       521 1.15650E+02 4.22060E+01 0.00000E+00
 -1       522 1.18650E+02 4.22060E+01 0.00000E+00
 -1       523 1.21650E+02 4.22060E+01 0.00000E+00
 -1       524 1.24650E+02 4.22060E+01 0.00000E+00
 -1       525 1.27650E+02 4.22060E+01 0.00000E+00
 -1       526 1.30650E+02 4.22060E+01 0.00000E+00
 -1       527 1.33650E+02 4.22060E+01 0.00000E+00
 -1       528 1.36650E+02 4.22060E+01 0.00000E+00
 -1       529 1.39650E+02 4.22060E+01 0.00000E+00
 -1       530 1.90350E+01 6.60425E+00 0.00000E+00
 -1       531 2.20350E+01 6.60425E+00 0.00000E+00
 -1       532 2.50350E+01 6.60425E+00 0.00000E+00
 -1       533 2.80350E+01 6.60425E+00 0.00000E+00
 -1       534 3.10350E+01 6.60425E+00 0.00000E+00
 -1       535 3.40350E+01 6.60425E+00 0.00000E+00
 -1       536 3.70350E+01 6.60425E+00 0.00000E+00
 -1       537 4.00350E+01 6.60425E+00 0.00000E+00
 -1       538 4.30350E+01 6.60425E+00 0.00000E+00
 -1       539 4.60350E+01 6.60425E+00 0.00000E+00
 -1       540 4.90350E+01 6.60425E+00 0.00000E+00
 -1       541 5.20350E+01 6.60425E+00 0.00000E+00
 -1       542 5.50350E+01 6.60425E+00 0.00000E+00
 -1       543 5.80350E+01 6.60425E+00 0.00000E+00
 -1       544 6.10350E+01 6.60425E+00 0.00000E+00
 -1       545 6.40350E+01 6.60425E+00 0.00000E+00
 -1       546 6.70350E+01 6.60425E+00 0.00000E+00
 -1       547 7.00350E+01 6.60425E+00 0.00000E+00
 -1       548 7.30350E+01 6.60425E+00 0.00000E+00
 -1       549 7.60350E+01 6.60425E+00 0.00000E+00
 -1       550 7.90350E+01 6.60425E+00 0.00000E+00
 -1       551 8.20350E+01 6.60425E+00 0.00000E+00
 -1       552 8.50350E+01 6.60425E+00 0.00000E+00
 -1       553 8.80350E+01 6.60425E+00 0.00000E+00
 -1       554 9.10350E+01 6.60425E+00 0.00000E+00
 -1       555 9.40350E+01 6.60425E+00 0.00000E+00
 -1       556 9.70350E+01 6.60425E+00 0.00000E+00
 -1       557 1.00035E+02 6.60425E+00 0.00000E+00
 -1       558 1.03035E+02 6.60425E+00 0.00000E+00
 -1       559 1.06035E+02 6.60425E+00 0.00000E+00
 -1       560 1.09035E+02 6.60425E+00 0.00000E+00
 -1       561 1.12035E+02 6.60425E+00 0.00000E+00
 -1       562 1.15035E+02 6.60425E+00 0.00000E+00
 -1       563 1.18035E+02 6.60425E+00 0.00000E+00
 -1       564 1.21035E+02 6.60425E+00 0.00000E+00
 -1       565 1.24035E+02 6.60425E+00 0.00000E+00
 -1       566 1.27035E+02 6.60425E+00 0.00000E+00
 -1       567 1.30035E+02 6.60425E+00 0.00000E+00
 -1       568 1.33035E+02 6.60425E+00 0.00000E+00
 -1       569 1.36035E+02 6.60425E+00 0.00000E+00
 -1       570 1.39035E+02 6.60425E+00 0.00000E+00
 -1       571 1.42035E+02 6.60425E+00 0.00000E+00
 -1       572 1.42206E+02 1.61750E+01 0.00000E+00
 -1       573 1.42206E+02 1.91250E+01 0.00000E+00
 -1       574 1.42206E+02 1.03250E+01 0.00000E+00
 -1       575 1.42206E+02 1.32500E+01 0.00000E+00
 -1       576 1.42206E+02 2.20750E+01 0.00000E+00
 -1       577 1.42206E+02 2.50250E+01 0.00000E+00
 -1       578 1.42206E+02 2.79750E+01 0.00000E+00
 -1       579 1.42206E+02 3.08750E+01 0.00000E+00
 -1       580 1.42206E+02 3.38250E+01 0.00000E+00
 -1       581 1.42206E+02 3.67750E+01 0.00000E+00
 -1       582 1.42206E+02 3.97250E+01 0.00000E+00
 -1       583 1.14948E+02 1.92219E+01 0.00000E+00
 -1       584 1.60350E+01 6.60425E+00 0.00000E+00
 -1       585 7.92300E+00 4.16780E+01 0.00000E+00
 -1       586 1.13900E+02 2.38949E+01 0.00000E+00
 -1       587 1.11598E+02 1.26043E+01 0.00000E+00
 -1       588 1.14856E+02 2.18461E+01 0.00000E+00
 -1       589 1.04177E+02 3.16426E+01 0.00000E+00
 -1       590 9.57850E+01 2.88075E+01 0.00000E+00
 -1       591 1.00408E+02 9.75355E+00 0.00000E+00
 -1       592 7.79400E+00 2.79000E+01 0.00000E+00
 -1       593 1.05362E+02 9.43592E+00 0.00000E+00
 -1       594 9.81193E+01 1.06927E+01 0.00000E+00
 -1       595 1.02539E+02 9.03183E+00 0.00000E+00
 -1       596 9.33744E+01 1.58115E+01 0.00000E+00
 -1       597 9.60182E+01 1.21721E+01 0.00000E+00
 -1       598 1.02212E+02 3.15111E+01 0.00000E+00
 -1       599 9.46358E+01 1.37596E+01 0.00000E+00
 -1       600 9.26881E+01 1.83830E+01 0.00000E+00
 -1       601 9.22972E+01 2.03053E+01 0.00000E+00
 -1       602 9.23287E+01 2.24251E+01 0.00000E+00
 -1       603 9.25333E+01 2.49401E+01 0.00000E+00
 -1       604 9.40931E+01 2.73731E+01 0.00000E+00
 -1       605 9.75528E+01 3.02537E+01 0.00000E+00
 -1       606 1.10394E+02 2.96160E+01 0.00000E+00
 -1       607 9.97176E+01 3.12805E+01 0.00000E+00
 -1       608 1.06213E+02 3.13050E+01 0.00000E+00
 -1       609 1.08303E+02 3.06116E+01 0.00000E+00
 -1       610 1.12255E+02 2.77536E+01 0.00000E+00
 -1       611 1.13057E+02 2.57398E+01 0.00000E+00
 -1       612 1.07468E+02 1.02544E+01 0.00000E+00
 -1       613 7.61550E+00 6.21462E+00 0.00000E+00
 -1       614 7.79400E+00 3.67375E+01 0.00000E+00
 -1       615 7.85850E+00 3.92077E+01 0.00000E+00
 -1       616 1.13188E+02 1.30629E+01 0.00000E+00
 -1       617 9.19103E+01 1.66102E+01 0.00000E+00
 -1       618 1.41678E+02 4.22645E+01 0.00000E+00
 -1       619 1.03920E+01 2.05500E+01 0.00000E+00
 -1       620 1.03920E+01 2.35000E+01 0.00000E+00
 -1       621 1.03920E+01 1.46750E+01 0.00000E+00
 -1       622 1.03920E+01 1.17250E+01 0.00000E+00
 -1       623 1.15350E+01 9.20225E+00 0.00000E+00
 -1       624 1.15931E+02 1.74726E+01 0.00000E+00
 -1       625 1.00791E+02 3.32705E+01 0.00000E+00
 -1       626 1.51500E+01 3.96080E+01 0.00000E+00
 -1       627 1.81500E+01 3.96080E+01 0.00000E+00
 -1       628 2.11500E+01 3.96080E+01 0.00000E+00
 -1       629 2.41500E+01 3.96080E+01 0.00000E+00
 -1       630 2.71500E+01 3.96080E+01 0.00000E+00
 -1       631 3.01500E+01 3.96080E+01 0.00000E+00
 -1       632 3.31500E+01 3.96080E+01 0.00000E+00
 -1       633 3.61500E+01 3.96080E+01 0.00000E+00
 -1       634 3.91500E+01 3.96080E+01 0.00000E+00
 -1       635 4.21500E+01 3.96080E+01 0.00000E+00
 -1       636 4.51500E+01 3.96080E+01 0.00000E+00
 -1       637 4.81500E+01 3.96080E+01 0.00000E+00
 -1       638 5.11500E+01 3.96080E+01 0.00000E+00
 -1       639 5.41500E+01 3.96080E+01 0.00000E+00
 -1       640 5.71500E+01 3.96080E+01 0.00000E+00
 -1       641 6.01500E+01 3.96080E+01 0.00000E+00
 -1       642 6.31500E+01 3.96080E+01 0.00000E+00
 -1       643 6.61500E+01 3.96080E+01 0.00000E+00
 -1       644 6.91500E+01 3.96080E+01 0.00000E+00
 -1       645 7.21500E+01 3.96080E+01 0.00000E+00
 -1       646 7.51500E+01 3.96080E+01 0.00000E+00
 -1       647 7.81500E+01 3.96080E+01 0.00000E+00
 -1       648 8.11500E+01 3.96080E+01 0.00000E+00
 -1       649 8.41500E+01 3.96080E+01 0.00000E+00
 -1       650 8.71500E+01 3.96080E+01 0.00000E+00
 -1       651 9.01500E+01 3.96080E+01 0.00000E+00
 -1       652 9.31500E+01 3.96080E+01 0.00000E+00
 -1       653 9.61500E+01 3.96080E+01 0.00000E+00
 -1       654 9.91500E+01 3.96080E+01 0.00000E+00
 -1       655 1.02150E+02 3.96080E+01 0.00000E+00
 -1       656 1.05150E+02 3.96080E+01 0.00000E+00
 -1       657 1.08150E+02 3.96080E+01 0.00000E+00
 -1       658 1.11150E+02 3.96080E+01 0.00000E+00
 -1       659 1.14150E+02 3.96080E+01 0.00000E+00
 -1       660 1.17150E+02 3.96080E+01 0.00000E+00
 -1       661 1.20150E+02 3.96080E+01 0.00000E+00
 -1       662 1.23150E+02 3.96080E+01 0.00000E+00
 -1       663 1.26150E+02 3.96080E+01 0.00000E+00
 -1       664 1.29150E+02 3.96080E+01 0.00000E+00
 -1       665 1.32150E+02 3.96080E+01 0.00000E+00
 -1       666 1.35150E+02 3.96080E+01 0.00000E+00
 -1       667 1.38150E+02 3.96080E+01 0.00000E+00
 -1       668 2.35350E+01 9.20225E+00 0.00000E+00
 -1       669 1.09130E+02 9.02978E+00 0.00000E+00
 -1       670 9.37216E+01 2.95264E+01 0.00000E+00
 -1       671 2.05350E+01 9.20225E+00 0.00000E+00
 -1       672 2.95350E+01 9.20225E+00 0.00000E+00
 -1       673 3.25350E+01 9.20225E+00 0.00000E+00
 -1       674 3.55350E+01 9.20225E+00 0.00000E+00
 -1       675 3.85350E+01 9.20225E+00 0.00000E+00
 -1       676 4.15350E+01 9.20225E+00 0.00000E+00
 -1       677 4.45350E+01 9.20225E+00 0.00000E+00
 -1       678 4.75350E+01 9.20225E+00 0.00000E+00
 -1       679 5.05350E+01 9.20225E+00 0.00000E+00
 -1       680 5.35350E+01 9.20225E+00 0.00000E+00
 -1       681 5.65350E+01 9.20225E+00 0.00000E+00
 -1       682 5.95350E+01 9.20225E+00 0.00000E+00
 -1       683 6.25350E+01 9.20225E+00 0.00000E+00
 -1       684 6.55350E+01 9.20225E+00 0.00000E+00
 -1       685 6.85350E+01 9.20225E+00 0.00000E+00
 -1       686 7.15350E+01 9.20225E+00 0.00000E+00
 -1       687 7.45350E+01 9.20225E+00 0.00000E+00
 -1       688 7.75350E+01 9.20225E+00 0.00000E+00
 -1       689 8.05350E+01 9.20225E+00 0.00000E+00
 -1       690 8.35350E+01 9.20225E+00 0.00000E+00
 -1       691 8.65350E+01 9.20225E+00 0.00000E+00
 -1       692 8.95350E+01 9.20225E+00 0.00000E+00
 -1       693 9.25350E+01 9.20225E+00 0.00000E+00
 -1       694 9.85350E+01 8.82207E+00 0.00000E+00
 -1       695 1.13535E+02 9.20225E+00 0.00000E+00
 -1       696 1.16535E+02 9.20225E+00 0.00000E+00
 -1       697 1.19535E+02 9.20225E+00 0.00000E+00
 -1       698 1.22535E+02 9.20225E+00 0.00000E+00
 -1       699 1.25535E+02 9.20225E+00 0.00000E+00
 -1       700 1.28535E+02 9.20225E+00 0.00000E+00
 -1       701 1.31535E+02 9.20225E+00 0.00000E+00
 -1       702 1.34535E+02 9.20225E+00 0.00000E+00
 -1       703 1.37535E+02 9.20225E+00 0.00000E+00
 -1       704 1.39870E+02 9.76363E+00 0.00000E+00
 -1       705 1.39608E+02 2.35500E+01 0.00000E+00
 -1       706 1.40178E+02 3.96665E+01 0.00000E+00
 -1       707 1.39608E+02 1.76500E+01 0.00000E+00
 -1       708 1.39608E+02 2.65000E+01 0.00000E+00
 -1       709 1.39608E+02 2.06000E+01 0.00000E+00
 -1       710 1.75350E+01 9.20225E+00 0.00000E+00
 -1       711 1.39608E+02 2.94000E+01 0.00000E+00
 -1       712 1.39608E+02 3.23500E+01 0.00000E+00
 -1       713 1.39608E+02 3.53000E+01 0.00000E+00
 -1       714 1.14962E+02 2.54952E+01 0.00000E+00
 -1       715 9.07215E+01 2.38216E+01 0.00000E+00
 -1       716 1.02756E+02 3.34020E+01 0.00000E+00
 -1       717 1.12656E+02 3.00155E+01 0.00000E+00
 -1       718 9.18693E+01 2.70823E+01 0.00000E+00
 -1       719 9.04305E+01 2.13932E+01 0.00000E+00
 -1       720 9.54894E+01 3.09727E+01 0.00000E+00
 -1       721 2.65350E+01 9.20225E+00 0.00000E+00
 -1       722 1.21500E+01 3.96080E+01 0.00000E+00
 -1       723 1.15919E+02 2.34464E+01 0.00000E+00
 -1       724 1.45350E+01 9.20225E+00 0.00000E+00
 -1       725 1.05530E+02 3.34964E+01 0.00000E+00
 -1       726 1.03920E+01 1.76125E+01 0.00000E+00
 -1       727 1.11790E+02 1.03477E+01 0.00000E+00
 -1       728 1.03920E+01 3.23250E+01 0.00000E+00
 -1       729 9.40336E+01 1.18395E+01 0.00000E+00
 -1       730 9.79002E+01 3.23167E+01 0.00000E+00
 -1       731 9.26154E+01 1.39312E+01 0.00000E+00
 -1       732 1.14819E+02 1.51680E+01 0.00000E+00
 -1       733 1.16784E+02 2.05999E+01 0.00000E+00
 -1       734 9.06477E+01 1.89690E+01 0.00000E+00
 -1       735 1.10158E+02 3.18136E+01 0.00000E+00
 -1       736 9.58884E+01 9.75602E+00 0.00000E+00
 -1       737 1.07798E+02 3.25862E+01 0.00000E+00
 -1       738 1.00042E+01 3.94079E+01 0.00000E+00
 -1       739 1.14160E+02 2.75090E+01 0.00000E+00
 -1       740 1.03920E+01 3.52625E+01 0.00000E+00
 -1       741 1.03920E+01 2.64500E+01 0.00000E+00
 -1       742 1.17767E+02 1.88506E+01 0.00000E+00
 -1       743 1.39608E+02 1.47250E+01 0.00000E+00
 -1       744 1.39739E+02 1.22443E+01 0.00000E+00
 -1       745 9.00576E+01 2.59638E+01 0.00000E+00
 -1       746 9.11513E+01 1.47299E+01 0.00000E+00
 -1       747 1.03920E+01 2.93875E+01 0.00000E+00
 -1       748 8.84970E+01 1.99981E+01 0.00000E+00
 -1       749 1.29900E+01 1.32000E+01 0.00000E+00
 -1       750 1.01981E+01 3.73352E+01 0.00000E+00
 -1       751 1.36500E+01 3.70100E+01 0.00000E+00
 -1       752 1.96500E+01 3.70100E+01 0.00000E+00
 -1       753 2.26500E+01 3.70100E+01 0.00000E+00
 -1       754 2.56500E+01 3.70100E+01 0.00000E+00
 -1       755 2.86500E+01 3.70100E+01 0.00000E+00
 -1       756 3.16500E+01 3.70100E+01 0.00000E+00
 -1       757 3.46500E+01 3.70100E+01 0.00000E+00
 -1       758 3.76500E+01 3.70100E+01 0.00000E+00
 -1       759 4.06500E+01 3.70100E+01 0.00000E+00
 -1       760 4.36500E+01 3.70100E+01 0.00000E+00
 -1       761 4.66500E+01 3.70100E+01 0.00000E+00
 -1       762 4.96500E+01 3.70100E+01 0.00000E+00
 -1       763 5.26500E+01 3.70100E+01 0.00000E+00
 -1       764 5.56500E+01 3.70100E+01 0.00000E+00
 -1       765 5.86500E+01 3.70100E+01 0.00000E+00
 -1       766 6.16500E+01 3.70100E+01 0.00000E+00
 -1       767 6.46500E+01 3.70100E+01 0.00000E+00
 -1       768 6.76500E+01 3.70100E+01 0.00000E+00
 -1       769 7.06500E+01 3.70100E+01 0.00000E+00
 -1       770 7.36500E+01 3.70100E+01 0.00000E+00
 -1       771 7.66500E+01 3.70100E+01 0.00000E+00
 -1       772 7.96500E+01 3.70100E+01 0.00000E+00
 -1       773 8.26500E+01 3.70100E+01 0.00000E+00
 -1       774 8.56500E+01 3.70100E+01 0.00000E+00
 -1       775 8.86500E+01 3.70100E+01 0.00000E+00
 -1       776 9.16500E+01 3.70100E+01 0.00000E+00
 -1       777 9.46500E+01 3.70100E+01 0.00000E+00
 -1       778 9.76500E+01 3.70100E+01 0.00000E+00
 -1       779 1.00650E+02 3.70100E+01 0.00000E+00
 -1       780 1.03650E+02 3.70100E+01 0.00000E+00
 -1       781 1.06650E+02 3.70100E+01 0.00000E+00
 -1       782 1.09650E+02 3.70100E+01 0.00000E+00
 -1       783 1.12650E+02 3.70100E+01 0.00000E+00
 -1       784 1.15650E+02 3.70100E+01 0.00000E+00
 -1       785 1.18650E+02 3.70100E+01 0.00000E+00
 -1       786 1.21650E+02 3.70100E+01 0.00000E+00
 -1       787 1.24650E+02 3.70100E+01 0.00000E+00
 -1       788 1.27650E+02 3.70100E+01 0.00000E+00
 -1       789 1.30650E+02 3.70100E+01 0.00000E+00
 -1       790 1.33650E+02 3.70100E+01 0.00000E+00
 -1       791 1.36650E+02 3.70100E+01 0.00000E+00
 -1       792 1.16466E+02 2.72605E+01 0.00000E+00
 -1       793 1.37010E+02 2.79500E+01 0.00000E+00
 -1       794 3.40350E+01 1.18003E+01 0.00000E+00
 -1       795 3.10350E+01 1.18003E+01 0.00000E+00
 -1       796 4.00350E+01 1.18003E+01 0.00000E+00
 -1       797 4.30350E+01 1.18003E+01 0.00000E+00
 -1       798 4.60350E+01 1.18003E+01 0.00000E+00
 -1       799 4.90350E+01 1.18003E+01 0.00000E+00
 -1       800 5.20350E+01 1.18003E+01 0.00000E+00
 -1       801 5.50350E+01 1.18003E+01 0.00000E+00
 -1       802 5.80350E+01 1.18003E+01 0.00000E+00
 -1       803 6.10350E+01 1.18003E+01 0.00000E+00
 -1       804 6.40350E+01 1.18003E+01 0.00000E+00
 -1       805 6.70350E+01 1.18003E+01 0.00000E+00
 -1       806 7.00350E+01 1.18003E+01 0.00000E+00
 -1       807 7.30350E+01 1.18003E+01 0.00000E+00
 -1       808 7.60350E+01 1.18003E+01 0.00000E+00
 -1       809 7.90350E+01 1.18003E+01 0.00000E+00
 -1       810 8.20350E+01 1.18003E+01 0.00000E+00
 -1       811 8.50350E+01 1.18003E+01 0.00000E+00
 -1       812 8.80350E+01 1.18003E+01 0.00000E+00
 -1       813 1.37625E+01 1.12011E+01 0.00000E+00
 -1       814 1.18035E+02 1.18003E+01 0.00000E+00
 -1       815 1.14912E+02 1.10740E+01 0.00000E+00
 -1       816 1.24035E+02 1.18003E+01 0.00000E+00
 -1       817 1.27035E+02 1.18003E+01 0.00000E+00
 -1       818 1.30035E+02 1.18003E+01 0.00000E+00
 -1       819 1.33035E+02 1.18003E+01 0.00000E+00
 -1       820 1.36035E+02 1.18003E+01 0.00000E+00
 -1       821 1.37887E+02 1.20223E+01 0.00000E+00
 -1       822 1.29900E+01 2.20250E+01 0.00000E+00
 -1       823 1.90350E+01 1.18003E+01 0.00000E+00
 -1       824 1.37010E+02 2.50000E+01 0.00000E+00
 -1       825 1.37010E+02 3.38250E+01 0.00000E+00
 -1       826 1.15310E+02 2.99033E+01 0.00000E+00
 -1       827 8.87067E+01 2.28315E+01 0.00000E+00
 -1       828 9.56148E+01 3.35818E+01 0.00000E+00
 -1       829 1.37010E+02 3.08875E+01 0.00000E+00
 -1       830 9.33073E+01 3.18364E+01 0.00000E+00
 -1       831 1.21035E+02 1.18003E+01 0.00000E+00
 -1       832 9.87560E+01 3.45815E+01 0.00000E+00
 -1       833 1.07490E+02 3.50995E+01 0.00000E+00
 -1       834 3.70350E+01 1.18003E+01 0.00000E+00
 -1       835 1.12801E+02 3.28506E+01 0.00000E+00
 -1       836 2.20350E+01 1.18003E+01 0.00000E+00
 -1       837 1.66500E+01 3.70100E+01 0.00000E+00
 -1       838 1.18152E+02 2.25706E+01 0.00000E+00
 -1       839 9.12950E+01 2.94415E+01 0.00000E+00
 -1       840 9.18431E+01 1.19661E+01 0.00000E+00
 -1       841 1.17423E+02 2.52117E+01 0.00000E+00
 -1       842 1.17373E+02 1.53569E+01 0.00000E+00
 -1       843 1.09850E+02 3.43269E+01 0.00000E+00
 -1       844 8.96192E+01 1.69011E+01 0.00000E+00
 -1       845 1.29900E+01 2.49750E+01 0.00000E+00
 -1       846 1.29900E+01 1.61375E+01 0.00000E+00
 -1       847 1.19208E+02 1.67349E+01 0.00000E+00
 -1       848 1.37010E+02 1.61875E+01 0.00000E+00
 -1       849 2.80350E+01 1.18003E+01 0.00000E+00
 -1       850 8.80428E+01 2.49737E+01 0.00000E+00
 -1       851 1.29900E+01 1.90875E+01 0.00000E+00
 -1       852 1.37010E+02 1.91375E+01 0.00000E+00
 -1       853 1.37010E+02 2.20688E+01 0.00000E+00
 -1       854 8.94833E+01 2.83230E+01 0.00000E+00
 -1       855 2.50350E+01 1.18003E+01 0.00000E+00
 -1       856 1.63988E+01 1.15007E+01 0.00000E+00
 -1       857 1.19135E+02 2.08213E+01 0.00000E+00
 -1       858 1.29900E+01 3.08563E+01 0.00000E+00
 -1       859 1.29900E+01 3.37938E+01 0.00000E+00
 -1       860 8.69729E+01 1.76941E+01 0.00000E+00
 -1       861 9.07315E+01 3.19579E+01 0.00000E+00
 -1       862 2.41500E+01 3.44120E+01 0.00000E+00
 -1       863 2.71500E+01 3.44120E+01 0.00000E+00
 -1       864 3.01500E+01 3.44120E+01 0.00000E+00
 -1       865 3.31500E+01 3.44120E+01 0.00000E+00
 -1       866 3.61500E+01 3.44120E+01 0.00000E+00
 -1       867 3.91500E+01 3.44120E+01 0.00000E+00
 -1       868 4.21500E+01 3.44120E+01 0.00000E+00
 -1       869 4.51500E+01 3.44120E+01 0.00000E+00
 -1       870 4.81500E+01 3.44120E+01 0.00000E+00
 -1       871 5.11500E+01 3.44120E+01 0.00000E+00
 -1       872 5.41500E+01 3.44120E+01 0.00000E+00
 -1       873 5.71500E+01 3.44120E+01 0.00000E+00
 -1       874 6.01500E+01 3.44120E+01 0.00000E+00
 -1       875 6.31500E+01 3.44120E+01 0.00000E+00
 -1       876 6.61500E+01 3.44120E+01 0.00000E+00
 -1       877 6.91500E+01 3.44120E+01 0.00000E+00
 -1       878 7.21500E+01 3.44120E+01 0.00000E+00
 -1       879 7.51500E+01 3.44120E+01 0.00000E+00
 -1       880 7.81500E+01 3.44120E+01 0.00000E+00
 -1       881 8.11500E+01 3.44120E+01 0.00000E+00
 -1       882 8.41500E+01 3.44120E+01 0.00000E+00
 -1       883 8.71500E+01 3.44120E+01 0.00000E+00
 -1       884 1.51500E+01 3.44120E+01 0.00000E+00
 -1       885 1.14150E+02 3.44120E+01 0.00000E+00
 -1       886 1.17150E+02 3.44120E+01 0.00000E+00
 -1       887 1.20150E+02 3.44120E+01 0.00000E+00
 -1       888 1.23150E+02 3.44120E+01 0.00000E+00
 -1       889 1.26150E+02 3.44120E+01 0.00000E+00
 -1       890 1.29150E+02 3.44120E+01 0.00000E+00
 -1       891 1.32150E+02 3.44120E+01 0.00000E+00
 -1       892 1.34580E+02 3.41185E+01 0.00000E+00
 -1       893 1.19602E+02 2.43927E+01 0.00000E+00
 -1       894 1.29900E+01 2.79188E+01 0.00000E+00
 -1       895 4.45350E+01 1.43982E+01 0.00000E+00
 -1       896 4.15350E+01 1.43982E+01 0.00000E+00
 -1       897 5.05350E+01 1.43982E+01 0.00000E+00
 -1       898 5.35350E+01 1.43982E+01 0.00000E+00
 -1       899 5.65350E+01 1.43982E+01 0.00000E+00
 -1       900 5.95350E+01 1.43982E+01 0.00000E+00
 -1       901 6.25350E+01 1.43982E+01 0.00000E+00
 -1       902 6.55350E+01 1.43982E+01 0.00000E+00
 -1       903 6.85350E+01 1.43982E+01 0.00000E+00
 -1       904 7.15350E+01 1.43982E+01 0.00000E+00
 -1       905 7.45350E+01 1.43982E+01 0.00000E+00
 -1       906 7.75350E+01 1.43982E+01 0.00000E+00
 -1       907 8.05350E+01 1.43982E+01 0.00000E+00
 -1       908 8.35350E+01 1.43982E+01 0.00000E+00
 -1       909 8.65350E+01 1.43982E+01 0.00000E+00
 -1       910 1.18954E+02 2.71745E+01 0.00000E+00
 -1       911 1.31535E+02 1.43982E+01 0.00000E+00
 -1       912 1.25535E+02 1.43982E+01 0.00000E+00
 -1       913 1.34535E+02 1.43982E+01 0.00000E+00
 -1       914 1.34412E+02 2.64750E+01 0.00000E+00
 -1       915 1.81500E+01 3.44120E+01 0.00000E+00
 -1       916 8.63901E+01 2.15785E+01 0.00000E+00
 -1       917 1.17798E+02 2.98173E+01 0.00000E+00
 -1       918 1.28535E+02 1.43982E+01 0.00000E+00
 -1       919 1.37449E+02 1.41049E+01 0.00000E+00
 -1       920 2.05350E+01 1.43982E+01 0.00000E+00
 -1       921 4.75350E+01 1.43982E+01 0.00000E+00
 -1       922 3.25350E+01 1.43982E+01 0.00000E+00
 -1       923 1.22535E+02 1.43982E+01 0.00000E+00
 -1       924 1.20122E+02 1.42676E+01 0.00000E+00
 -1       925 9.31231E+01 3.44779E+01 0.00000E+00
 -1       926 2.11500E+01 3.44120E+01 0.00000E+00
 -1       927 1.55880E+01 1.46687E+01 0.00000E+00
 -1       928 8.89197E+01 3.08394E+01 0.00000E+00
 -1       929 8.48660E+01 1.92745E+01 0.00000E+00
 -1       930 1.34580E+02 3.11810E+01 0.00000E+00
 -1       931 1.55880E+01 2.93875E+01 0.00000E+00
 -1       932 8.74684E+01 2.73329E+01 0.00000E+00
 -1       933 2.95350E+01 1.43982E+01 0.00000E+00
 -1       934 3.55350E+01 1.43982E+01 0.00000E+00
 -1       935 3.85350E+01 1.43982E+01 0.00000E+00
 -1       936 1.75351E+01 1.43983E+01 0.00000E+00
 -1       937 8.57262E+01 2.37207E+01 0.00000E+00
 -1       938 1.34412E+02 2.35438E+01 0.00000E+00
 -1       939 1.55880E+01 2.05562E+01 0.00000E+00
 -1       940 2.35350E+01 1.43982E+01 0.00000E+00
 -1       941 1.55880E+01 2.35063E+01 0.00000E+00
 -1       942 1.16636E+02 3.22443E+01 0.00000E+00
 -1       943 1.59934E+01 1.30847E+01 0.00000E+00
 -1       944 1.20585E+02 2.26434E+01 0.00000E+00
 -1       945 1.20577E+02 1.87055E+01 0.00000E+00
 -1       946 1.34535E+02 1.73482E+01 0.00000E+00
 -1       947 1.34496E+02 2.88280E+01 0.00000E+00
 -1       948 1.53690E+01 3.18997E+01 0.00000E+00
 -1       949 2.86500E+01 3.18140E+01 0.00000E+00
 -1       950 3.16500E+01 3.18140E+01 0.00000E+00
 -1       951 3.46500E+01 3.18140E+01 0.00000E+00
 -1       952 3.76500E+01 3.18140E+01 0.00000E+00
 -1       953 4.06500E+01 3.18140E+01 0.00000E+00
 -1       954 4.36500E+01 3.18140E+01 0.00000E+00
 -1       955 4.66500E+01 3.18140E+01 0.00000E+00
 -1       956 4.96500E+01 3.18140E+01 0.00000E+00
 -1       957 5.26500E+01 3.18140E+01 0.00000E+00
 -1       958 5.56500E+01 3.18140E+01 0.00000E+00
 -1       959 5.86500E+01 3.18140E+01 0.00000E+00
 -1       960 6.16500E+01 3.18140E+01 0.00000E+00
 -1       961 6.46500E+01 3.18140E+01 0.00000E+00
 -1       962 6.76500E+01 3.18140E+01 0.00000E+00
 -1       963 7.06500E+01 3.18140E+01 0.00000E+00
 -1       964 7.36500E+01 3.18140E+01 0.00000E+00
 -1       965 7.66500E+01 3.18140E+01 0.00000E+00
 -1       966 7.96500E+01 3.18140E+01 0.00000E+00
 -1       967 8.26500E+01 3.18140E+01 0.00000E+00
 -1       968 8.56500E+01 3.18140E+01 0.00000E+00
 -1       969 1.21650E+02 3.18140E+01 0.00000E+00
 -1       970 1.24650E+02 3.18140E+01 0.00000E+00
 -1       971 1.27650E+02 3.18140E+01 0.00000E+00
 -1       972 1.30650E+02 3.18140E+01 0.00000E+00
 -1       973 1.32615E+02 3.14975E+01 0.00000E+00
 -1       974 1.90351E+01 1.69963E+01 0.00000E+00
 -1       975 5.50350E+01 1.69963E+01 0.00000E+00
 -1       976 5.20350E+01 1.69963E+01 0.00000E+00
 -1       977 6.10350E+01 1.69963E+01 0.00000E+00
 -1       978 6.40350E+01 1.69963E+01 0.00000E+00
 -1       979 6.70350E+01 1.69963E+01 0.00000E+00
 -1       980 7.00350E+01 1.69963E+01 0.00000E+00
 -1       981 7.30350E+01 1.69963E+01 0.00000E+00
 -1       982 7.60350E+01 1.69963E+01 0.00000E+00
 -1       983 7.90350E+01 1.69963E+01 0.00000E+00
 -1       984 8.20350E+01 1.69963E+01 0.00000E+00
 -1       985 1.21556E+02 1.65519E+01 0.00000E+00
 -1       986 2.65350E+01 1.43982E+01 0.00000E+00
 -1       987 1.55880E+01 1.76125E+01 0.00000E+00
 -1       988 1.34412E+02 2.06125E+01 0.00000E+00
 -1       989 1.21438E+02 2.62870E+01 0.00000E+00
 -1       990 1.55880E+01 2.64469E+01 0.00000E+00
 -1       991 1.96500E+01 3.18140E+01 0.00000E+00
 -1       992 1.24556E+02 1.65519E+01 0.00000E+00
 -1       993 1.21544E+02 2.90505E+01 0.00000E+00
 -1       994 5.80350E+01 1.69963E+01 0.00000E+00
 -1       995 4.30350E+01 1.69963E+01 0.00000E+00
 -1       996 2.56500E+01 3.18140E+01 0.00000E+00
 -1       997 2.26500E+01 3.18140E+01 0.00000E+00
 -1       998 8.51518E+01 2.60799E+01 0.00000E+00
 -1       999 2.20351E+01 1.69963E+01 0.00000E+00
 -1      1000 3.10350E+01 1.69963E+01 0.00000E+00
 -1      1001 4.00350E+01 1.69963E+01 0.00000E+00
 -1      1002 4.90350E+01 1.69963E+01 0.00000E+00
 -1      1003 3.40350E+01 1.69963E+01 0.00000E+00
 -1      1004 8.34612E+01 2.18598E+01 0.00000E+00
 -1      1005 1.31814E+02 2.50094E+01 0.00000E+00
 -1      1006 1.81860E+01 2.20313E+01 0.00000E+00
 -1      1007 1.22421E+02 2.45378E+01 0.00000E+00
 -1      1008 1.27556E+02 1.65519E+01 0.00000E+00
 -1      1009 1.96500E+01 2.88734E+01 0.00000E+00
 -1      1010 1.30556E+02 1.65519E+01 0.00000E+00
 -1      1011 1.22027E+02 2.05277E+01 0.00000E+00
 -1      1012 4.60350E+01 1.69963E+01 0.00000E+00
 -1      1013 1.31898E+02 2.73624E+01 0.00000E+00
 -1      1014 8.70373E+01 2.90965E+01 0.00000E+00
 -1      1015 5.35350E+01 1.95942E+01 0.00000E+00
 -1      1016 2.41500E+01 2.92160E+01 0.00000E+00
 -1      1017 3.31500E+01 2.92160E+01 0.00000E+00
 -1      1018 3.61500E+01 2.92160E+01 0.00000E+00
 -1      1019 3.91500E+01 2.92160E+01 0.00000E+00
 -1      1020 4.21500E+01 2.92160E+01 0.00000E+00
 -1      1021 4.51500E+01 2.92160E+01 0.00000E+00
 -1      1022 4.81500E+01 2.92160E+01 0.00000E+00
 -1      1023 5.11500E+01 2.92160E+01 0.00000E+00
 -1      1024 5.41500E+01 2.92160E+01 0.00000E+00
 -1      1025 5.71500E+01 2.92160E+01 0.00000E+00
 -1      1026 6.01500E+01 2.92160E+01 0.00000E+00
 -1      1027 6.31500E+01 2.92160E+01 0.00000E+00
 -1      1028 6.61500E+01 2.92160E+01 0.00000E+00
 -1      1029 6.91500E+01 2.92160E+01 0.00000E+00
 -1      1030 7.21500E+01 2.92160E+01 0.00000E+00
 -1      1031 7.51500E+01 2.92160E+01 0.00000E+00
 -1      1032 7.81500E+01 2.92160E+01 0.00000E+00
 -1      1033 8.11500E+01 2.92160E+01 0.00000E+00
 -1      1034 1.24544E+02 2.90505E+01 0.00000E+00
 -1      1035 1.27544E+02 2.90505E+01 0.00000E+00
 -1      1036 1.31814E+02 2.20781E+01 0.00000E+00
 -1      1037 3.70350E+01 1.69963E+01 0.00000E+00
 -1      1038 1.31185E+02 1.93150E+01 0.00000E+00
 -1      1039 6.55350E+01 1.95942E+01 0.00000E+00
 -1      1040 6.25350E+01 1.95942E+01 0.00000E+00
 -1      1041 7.15350E+01 1.95942E+01 0.00000E+00
 -1      1042 7.45350E+01 1.95942E+01 0.00000E+00
 -1      1043 7.75350E+01 1.95942E+01 0.00000E+00
 -1      1044 8.05350E+01 1.95942E+01 0.00000E+00
 -1      1045 2.19000E+01 2.90447E+01 0.00000E+00
 -1      1046 8.47207E+01 2.78435E+01 0.00000E+00
 -1      1047 8.28869E+01 2.42190E+01 0.00000E+00
 -1      1048 2.11860E+01 2.20313E+01 0.00000E+00
 -1      1049 2.80350E+01 1.69963E+01 0.00000E+00
 -1      1050 3.01500E+01 2.92160E+01 0.00000E+00
 -1      1051 6.85350E+01 1.95942E+01 0.00000E+00
 -1      1052 5.95350E+01 1.95942E+01 0.00000E+00
 -1      1053 2.50350E+01 1.69963E+01 0.00000E+00
 -1      1054 1.81860E+01 2.49719E+01 0.00000E+00
 -1      1055 1.23577E+02 1.87055E+01 0.00000E+00
 -1      1056 5.65350E+01 1.95942E+01 0.00000E+00
 -1      1057 2.71500E+01 2.92160E+01 0.00000E+00
 -1      1058 1.32257E+02 2.94299E+01 0.00000E+00
 -1      1059 4.45350E+01 1.95942E+01 0.00000E+00
 -1      1060 5.05350E+01 1.95942E+01 0.00000E+00
 -1      1061 4.15350E+01 1.95942E+01 0.00000E+00
 -1      1062 1.29260E+02 2.62786E+01 0.00000E+00
 -1      1063 7.99607E+01 2.19535E+01 0.00000E+00
 -1      1064 3.25350E+01 1.95942E+01 0.00000E+00
 -1      1065 1.29260E+02 2.33473E+01 0.00000E+00
 -1      1066 1.28185E+02 1.93150E+01 0.00000E+00
 -1      1067 2.95350E+01 1.95942E+01 0.00000E+00
 -1      1068 1.24009E+02 2.65808E+01 0.00000E+00
 -1      1069 1.23863E+02 2.24220E+01 0.00000E+00
 -1      1070 4.75350E+01 1.95942E+01 0.00000E+00
 -1      1071 1.25881E+02 1.90103E+01 0.00000E+00
 -1      1072 3.76500E+01 2.66180E+01 0.00000E+00
 -1      1073 4.06500E+01 2.66180E+01 0.00000E+00
 -1      1074 4.36500E+01 2.66180E+01 0.00000E+00
 -1      1075 4.66500E+01 2.66180E+01 0.00000E+00
 -1      1076 4.96500E+01 2.66180E+01 0.00000E+00
 -1      1077 5.26500E+01 2.66180E+01 0.00000E+00
 -1      1078 5.56500E+01 2.66180E+01 0.00000E+00
 -1      1079 5.86500E+01 2.66180E+01 0.00000E+00
 -1      1080 6.16500E+01 2.66180E+01 0.00000E+00
 -1      1081 6.46500E+01 2.66180E+01 0.00000E+00
 -1      1082 6.76500E+01 2.66180E+01 0.00000E+00
 -1      1083 7.06500E+01 2.66180E+01 0.00000E+00
 -1      1084 7.36500E+01 2.66180E+01 0.00000E+00
 -1      1085 7.66500E+01 2.66180E+01 0.00000E+00
 -1      1086 7.96500E+01 2.66180E+01 0.00000E+00
 -1      1087 3.55350E+01 1.95942E+01 0.00000E+00
 -1      1088 7.00350E+01 2.21922E+01 0.00000E+00
 -1      1089 1.24872E+02 2.07161E+01 0.00000E+00
 -1      1090 5.50350E+01 2.21922E+01 0.00000E+00
 -1      1091 6.40350E+01 2.21922E+01 0.00000E+00
 -1      1092 7.60350E+01 2.21922E+01 0.00000E+00
 -1      1093 7.30350E+01 2.21922E+01 0.00000E+00
 -1      1094 8.24558E+01 2.59827E+01 0.00000E+00
 -1      1095 2.41860E+01 2.20312E+01 0.00000E+00
 -1      1096 6.10350E+01 2.21922E+01 0.00000E+00
 -1      1097 1.25451E+02 2.44651E+01 0.00000E+00
 -1      1098 2.13504E+01 2.60099E+01 0.00000E+00
 -1      1099 3.46500E+01 2.66180E+01 0.00000E+00
 -1      1100 2.86500E+01 2.66180E+01 0.00000E+00
 -1      1101 2.56500E+01 2.66180E+01 0.00000E+00
 -1      1102 3.16500E+01 2.66180E+01 0.00000E+00
 -1      1103 6.70350E+01 2.21922E+01 0.00000E+00
 -1      1104 1.28722E+02 2.13312E+01 0.00000E+00
 -1      1105 5.80350E+01 2.21922E+01 0.00000E+00
 -1      1106 1.26497E+02 2.67578E+01 0.00000E+00
 -1      1107 4.30350E+01 2.21922E+01 0.00000E+00
 -1      1108 4.60350E+01 2.21922E+01 0.00000E+00
 -1      1109 3.85350E+01 1.95942E+01 0.00000E+00
 -1      1110 3.10350E+01 2.21922E+01 0.00000E+00
 -1      1111 5.20350E+01 2.21922E+01 0.00000E+00
 -1      1112 2.68605E+01 2.08127E+01 0.00000E+00
 -1      1113 1.27355E+02 2.39062E+01 0.00000E+00
 -1      1114 3.40350E+01 2.21922E+01 0.00000E+00
 -1      1115 7.81556E+01 2.46661E+01 0.00000E+00
 -1      1116 3.91500E+01 2.40200E+01 0.00000E+00
 -1      1117 5.11500E+01 2.40200E+01 0.00000E+00
 -1      1118 7.98333E+01 2.51405E+01 0.00000E+00
 -1      1119 2.32222E+01 2.65398E+01 0.00000E+00
 -1      1120 1.26114E+02 2.23112E+01 0.00000E+00
 -1      1121 3.65925E+01 2.31061E+01 0.00000E+00
 -1      1122 2.71500E+01 2.40200E+01 0.00000E+00
 -1      1123 4.90350E+01 2.21922E+01 0.00000E+00
 -1      1124 1.26797E+02 2.10237E+01 0.00000E+00
 -1      1125 2.45197E+01 2.39823E+01 0.00000E+00
 -1      1126 0.00000E+00 4.85250E+01 0.00000E+00
 -1      1127 0.00000E+00 4.55750E+01 0.00000E+00
 -1      1128 0.00000E+00 4.26250E+01 0.00000E+00
 -1      1129 0.00000E+00 3.96750E+01 0.00000E+00
 -1      1130 0.00000E+00 3.67250E+01 0.00000E+00
 -1      1131 0.00000E+00 3.38000E+01 0.00000E+00
 -1      1132 0.00000E+00 3.08750E+01 0.00000E+00
 -1      1133 0.00000E+00 2.79250E+01 0.00000E+00
 -1      1134 0.00000E+00 2.49750E+01 0.00000E+00
 -1      1135 0.00000E+00 2.20250E+01 0.00000E+00
 -1      1136 0.00000E+00 1.90750E+01 0.00000E+00
 -1      1137 0.00000E+00 1.61500E+01 0.00000E+00
 -1      1138 0.00000E+00 1.32250E+01 0.00000E+00
 -1      1139 0.00000E+00 1.02750E+01 0.00000E+00
 -1      1140 0.00000E+00 7.32500E+00 0.00000E+00
 -1      1141 0.00000E+00 4.37500E+00 0.00000E+00
 -1      1142 0.00000E+00 1.45000E+00 0.00000E+00
 -1      1143 1.57500E+00 5.00000E+01 0.00000E+00
 -1      1144 4.65000E+00 5.00000E+01 0.00000E+00
 -1      1145 7.65000E+00 5.00000E+01 0.00000E+00
 -1      1146 1.06500E+01 5.00000E+01 0.00000E+00
 -1      1147 1.36500E+01 5.00000E+01 0.00000E+00
 -1      1148 1.66500E+01 5.00000E+01 0.00000E+00
 -1      1149 1.96500E+01 5.00000E+01 0.00000E+00
 -1      1150 2.26500E+01 5.00000E+01 0.00000E+00
 -1      1151 2.56500E+01 5.00000E+01 0.00000E+00
 -1      1152 2.86500E+01 5.00000E+01 0.00000E+00
 -1      1153 3.16500E+01 5.00000E+01 0.00000E+00
 -1      1154 3.46500E+01 5.00000E+01 0.00000E+00
 -1      1155 3.76500E+01 5.00000E+01 0.00000E+00
 -1      1156 4.06500E+01 5.00000E+01 0.00000E+00
 -1      1157 4.36500E+01 5.00000E+01 0.00000E+00
 -1      1158 4.66500E+01 5.00000E+01 0.00000E+00
 -1      1159 4.96500E+01 5.00000E+01 0.00000E+00
 -1      1160 5.26500E+01 5.00000E+01 0.00000E+00
 -1      1161 5.56500E+01 5.00000E+01 0.00000E+00
 -1      1162 5.86500E+01 5.00000E+01 0.00000E+00
 -1      1163 6.16500E+01 5.00000E+01 0.00000E+00
 -1      1164 6.46500E+01 5.00000E+01 0.00000E+00
 -1      1165 6.76500E+01 5.00000E+01 0.00000E+00
 -1      1166 7.06500E+01 5.00000E+01 0.00000E+00
 -1      1167 7.36500E+01 5.00000E+01 0.00000E+00
 -1      1168 7.66500E+01 5.00000E+01 0.00000E+00
 -1      1169 7.96500E+01 5.00000E+01 0.00000E+00
 -1      1170 8.26500E+01 5.00000E+01 0.00000E+00
 -1      1171 8.56500E+01 5.00000E+01 0.00000E+00
 -1      1172 8.86500E+01 5.00000E+01 0.00000E+00
 -1      1173 9.16500E+01 5.00000E+01 0.00000E+00
 -1      1174 9.46500E+01 5.00000E+01 0.00000E+00
 -1      1175 9.76500E+01 5.00000E+01 0.00000E+00
 -1      1176 1.00650E+02 5.00000E+01 0.00000E+00
 -1      1177 1.03650E+02 5.00000E+01 0.00000E+00
 -1      1178 1.06650E+02 5.00000E+01 0.00000E+00
 -1      1179 1.09650E+02 5.00000E+01 0.00000E+00
 -1      1180 1.12650E+02 5.00000E+01 0.00000E+00
 -1      1181 1.15650E+02 5.00000E+01 0.00000E+00
 -1      1182 1.18650E+02 5.00000E+01 0.00000E+00
 -1      1183 1.21650E+02 5.00000E+01 0.00000E+00
 -1      1184 1.24650E+02 5.00000E+01 0.00000E+00
 -1      1185 1.27650E+02 5.00000E+01 0.00000E+00
 -1      1186 1.30650E+02 5.00000E+01 0.00000E+00
 -1      1187 1.33650E+02 5.00000E+01 0.00000E+00
 -1      1188 1.36650E+02 5.00000E+01 0.00000E+00
 -1      1189 1.39650E+02 5.00000E+01 0.00000E+00
 -1      1190 1.42650E+02 5.00000E+01 0.00000E+00
 -1      1191 1.45650E+02 5.00000E+01 0.00000E+00
 -1      1192 1.48575E+02 5.00000E+01 0.00000E+00
 -1      1193 1.57500E+00 0.00000E+00 0.00000E+00
 -1      1194 4.65000E+00 0.00000E+00 0.00000E+00
 -1      1195 7.65000E+00 0.00000E+00 0.00000E+00
 -1      1196 1.06500E+01 0.00000E+00 0.00000E+00
 -1      1197 1.36500E+01 0.00000E+00 0.00000E+00
 -1      1198 1.66500E+01 0.00000E+00 0.00000E+00
 -1      1199 1.96500E+01 0.00000E+00 0.00000E+00
 -1      1200 2.26500E+01 0.00000E+00 0.00000E+00
 -1      1201 2.56500E+01 0.00000E+00 0.00000E+00
 -1      1202 2.86500E+01 0.00000E+00 0.00000E+00
 -1      1203 3.16500E+01 0.00000E+00 0.00000E+00
 -1      1204 3.46500E+01 0.00000E+00 0.00000E+00
 -1      1205 3.76500E+01 0.00000E+00 0.00000E+00
 -1      1206 4.06500E+01 0.00000E+00 0.00000E+00
 -1      1207 4.36500E+01 0.00000E+00 0.00000E+00
 -1      1208 4.66500E+01 0.00000E+00 0.00000E+00
 -1      1209 4.96500E+01 0.00000E+00 0.00000E+00
 -1      1210 5.26500E+01 0.00000E+00 0.00000E+00
 -1      1211 5.56500E+01 0.00000E+00 0.00000E+00
 -1      1212 5.86500E+01 0.00000E+00 0.00000E+00
 -1      1213 6.16500E+01 0.00000E+00 0.00000E+00
 -1      1214 6.46500E+01 0.00000E+00 0.00000E+00
 -1      1215 6.76500E+01 0.00000E+00 0.00000E+00
 -1      1216 7.06500E+01 0.00000E+00 0.00000E+00
 -1      1217 7.36500E+01 0.00000E+00 0.00000E+00
 -1      1218 7.66500E+01 0.00000E+00 0.00000E+00
 -1      1219 7.96500E+01 0.00000E+00 0.00000E+00
 -1      1220 8.26500E+01 0.00000E+00 0.00000E+00
 -1      1221 8.56500E+01 0.00000E+00 0.00000E+00
 -1      1222 8.86500E+01 0.00000E+00 0.00000E+00
 -1      1223 9.16500E+01 0.00000E+00 0.00000E+00
 -1      1224 9.46500E+01 0.00000E+00 0.00000E+00
 -1      1225 9.76500E+01 0.00000E+00 0.00000E+00
 -1      1226 1.00650E+02 0.00000E+00 0.00000E+00
 -1      1227 1.03650E+02 0.00000E+00 0.00000E+00
 -1      1228 1.06650E+02 0.00000E+00 0.00000E+00
 -1      1229 1.09650E+02 0.00000E+00 0.00000E+00
 -1      1230 1.12650E+02 0.00000E+00 0.00000E+00
 -1      1231 1.15650E+02 0.00000E+00 0.00000E+00
 -1      1232 1.18650E+02 0.00000E+00 0.00000E+00
 -1      1233 1.21650E+02 0.00000E+00 0.00000E+00
 -1      1234 1.24650E+02 0.00000E+00 0.00000E+00
 -1      1235 1.27650E+02 0.00000E+00 0.00000E+00
 -1      1236 1.30650E+02 0.00000E+00 0.00000E+00
 -1      1237 1.33650E+02 0.00000E+00 0.00000E+00
 -1      1238 1.36650E+02 0.00000E+00 0.00000E+00
 -1      1239 1.39650E+02 0.00000E+00 0.00000E+00
 -1      1240 1.42650E+02 0.00000E+00 0.00000E+00
 -1      1241 1.45650E+02 0.00000E+00 0.00000E+00
 -1      1242 1.48575E+02 0.00000E+00 0.00000E+00
 -1      1243 1.50000E+02 1.47500E+00 0.00000E+00
 -1      1244 1.50000E+02 4.42500E+00 0.00000E+00
 -1      1245 1.50000E+02 7.37500E+00 0.00000E+00
 -1      1246 1.50000E+02 1.03250E+01 0.00000E+00
 -1      1247 1.50000E+02 1.32750E+01 0.00000E+00
 -1      1248 1.50000E+02 1.62000E+01 0.00000E+00
 -1      1249 1.50000E+02 1.91250E+01 0.00000E+00
 -1      1250 1.50000E+02 2.20750E+01 0.00000E+00
 -1      1251 1.50000E+02 2.50250E+01 0.00000E+00
 -1      1252 1.50000E+02 2.79750E+01 0.00000E+00
 -1      1253 1.50000E+02 3.09250E+01 0.00000E+00
 -1      1254 1.50000E+02 3.38500E+01 0.00000E+00
 -1      1255 1.50000E+02 3.67750E+01 0.00000E+00
 -1      1256 1.50000E+02 3.97250E+01 0.00000E+00
 -1      1257 1.50000E+02 4.26750E+01 0.00000E+00
 -1      1258 1.50000E+02 4.56250E+01 0.00000E+00
 -1      1259 1.50000E+02 4.85500E+01 0.00000E+00
 -1      1260 1.10367E+02 1.98575E+01 0.00000E+00
 -1      1261 1.10037E+02 1.83854E+01 0.00000E+00
 -1      1262 1.09396E+02 1.70147E+01 0.00000E+00
 -1      1263 1.08467E+02 1.58032E+01 0.00000E+00
 -1      1264 1.07284E+02 1.48141E+01 0.00000E+00
 -1      1265 1.05939E+02 1.41174E+01 0.00000E+00
 -1      1266 1.04505E+02 1.37312E+01 0.00000E+00
 -1      1267 1.02964E+02 1.36596E+01 0.00000E+00
 -1      1268 1.01477E+02 1.39178E+01 0.00000E+00
 -1      1269 1.00090E+02 1.44836E+01 0.00000E+00
 -1      1270 9.88725E+01 1.53163E+01 0.00000E+00
 -1      1271 9.78684E+01 1.63706E+01 0.00000E+00
 -1      1272 9.70749E+01 1.76709E+01 0.00000E+00
 -1      1273 9.65902E+01 1.90741E+01 0.00000E+00
 -1      1274 9.64139E+01 2.04644E+01 0.00000E+00
 -1      1275 9.65239E+01 2.18944E+01 0.00000E+00
 -1      1276 9.69523E+01 2.33429E+01 0.00000E+00
 -1      1277 9.77027E+01 2.46960E+01 0.00000E+00
 -1      1278 9.86775E+01 2.58016E+01 0.00000E+00
 -1      1279 9.98216E+01 2.66546E+01 0.00000E+00
 -1      1280 1.01150E+02 2.72699E+01 0.00000E+00
 -1      1281 1.02542E+02 2.75910E+01 0.00000E+00
 -1      1282 1.03897E+02 2.76284E+01 0.00000E+00
 -1      1283 1.05236E+02 2.74033E+01 0.00000E+00
 -1      1284 1.06553E+02 2.69008E+01 0.00000E+00
 -1      1285 1.07738E+02 2.61483E+01 0.00000E+00
 -1      1286 1.08756E+02 2.51658E+01 0.00000E+00
 -1      1287 1.09572E+02 2.39695E+01 0.00000E+00
 -1      1288 1.10107E+02 2.26871E+01 0.00000E+00
 -1      1289 1.10377E+02 2.13423E+01 0.00000E+00
 -1      1290 1.57500E+00 4.85250E+01 0.00000E+00
 -1      1291 1.29900E+00 4.48375E+01 0.00000E+00
 -1      1292 1.29900E+00 4.63125E+01 0.00000E+00
 -1      1293 1.29900E+00 4.18875E+01 0.00000E+00
 -1      1294 1.29900E+00 4.33625E+01 0.00000E+00
 -1      1295 2.59800E+00 4.41000E+01 0.00000E+00
 -1      1296 1.29900E+00 3.89375E+01 0.00000E+00
 -1      1297 1.29900E+00 4.04125E+01 0.00000E+00
 -1      1298 2.59800E+00 4.11500E+01 0.00000E+00
 -1      1299 1.29900E+00 3.59875E+01 0.00000E+00
 -1      1300 1.29900E+00 3.74625E+01 0.00000E+00
 -1      1301 2.59800E+00 3.82000E+01 0.00000E+00
 -1      1302 1.29900E+00 3.30875E+01 0.00000E+00
 -1      1303 1.29900E+00 3.45375E+01 0.00000E+00
 -1      1304 2.59800E+00 3.52750E+01 0.00000E+00
 -1      1305 1.29900E+00 3.01375E+01 0.00000E+00
 -1      1306 1.29900E+00 3.16125E+01 0.00000E+00
 -1      1307 2.59800E+00 3.23500E+01 0.00000E+00
 -1      1308 1.29900E+00 2.71875E+01 0.00000E+00
 -1      1309 1.29900E+00 2.86625E+01 0.00000E+00
 -1      1310 2.59800E+00 2.94000E+01 0.00000E+00
 -1      1311 1.29900E+00 2.42375E+01 0.00000E+00
 -1      1312 1.29900E+00 2.57125E+01 0.00000E+00
 -1      1313 2.59800E+00 2.64500E+01 0.00000E+00
 -1      1314 1.29900E+00 2.12875E+01 0.00000E+00
 -1      1315 1.29900E+00 2.27625E+01 0.00000E+00
 -1      1316 2.59800E+00 2.35000E+01 0.00000E+00
 -1      1317 1.29900E+00 1.83375E+01 0.00000E+00
 -1      1318 1.29900E+00 1.98125E+01 0.00000E+00
 -1      1319 2.59800E+00 2.05500E+01 0.00000E+00
 -1      1320 1.29900E+00 1.54375E+01 0.00000E+00
 -1      1321 1.29900E+00 1.68875E+01 0.00000E+00
 -1      1322 2.59800E+00 1.76250E+01 0.00000E+00
 -1      1323 1.29900E+00 1.24875E+01 0.00000E+00
 -1      1324 1.29900E+00 1.39625E+01 0.00000E+00
 -1      1325 2.59800E+00 1.47000E+01 0.00000E+00
 -1      1326 1.29900E+00 9.53750E+00 0.00000E+00
 -1      1327 1.29900E+00 1.10125E+01 0.00000E+00
 -1      1328 2.59800E+00 1.17500E+01 0.00000E+00
 -1      1329 1.29900E+00 6.58750E+00 0.00000E+00
 -1      1330 1.29900E+00 8.06250E+00 0.00000E+00
 -1      1331 2.59800E+00 8.80000E+00 0.00000E+00
 -1      1332 1.29900E+00 3.63750E+00 0.00000E+00
 -1      1333 1.29900E+00 5.11250E+00 0.00000E+00
 -1      1334 2.59800E+00 5.85000E+00 0.00000E+00
 -1      1335 1.43700E+00 1.09375E+00 0.00000E+00
 -1      1336 1.43700E+00 2.54375E+00 0.00000E+00
 -1      1337 2.73600E+00 3.28125E+00 0.00000E+00
 -1      1338 3.01200E+00 1.09375E+00 0.00000E+00
 -1      1339 3.90000E+00 4.87010E+01 0.00000E+00
 -1      1340 5.40000E+00 4.87010E+01 0.00000E+00
 -1      1341 6.90000E+00 4.87010E+01 0.00000E+00
 -1      1342 8.40000E+00 4.87010E+01 0.00000E+00
 -1      1343 6.15000E+00 4.74020E+01 0.00000E+00
 -1      1344 9.90000E+00 4.87010E+01 0.00000E+00
 -1      1345 1.14000E+01 4.87010E+01 0.00000E+00
 -1      1346 9.15000E+00 4.74020E+01 0.00000E+00
 -1      1347 1.29000E+01 4.87010E+01 0.00000E+00
 -1      1348 1.44000E+01 4.87010E+01 0.00000E+00
 -1      1349 1.21500E+01 4.74020E+01 0.00000E+00
 -1      1350 1.59000E+01 4.87010E+01 0.00000E+00
 -1      1351 1.74000E+01 4.87010E+01 0.00000E+00
 -1      1352 1.51500E+01 4.74020E+01 0.00000E+00
 -1      1353 1.89000E+01 4.87010E+01 0.00000E+00
 -1      1354 2.04000E+01 4.87010E+01 0.00000E+00
 -1      1355 1.81500E+01 4.74020E+01 0.00000E+00
 -1      1356 2.19000E+01 4.87010E+01 0.00000E+00
 -1      1357 2.34000E+01 4.87010E+01 0.00000E+00
 -1      1358 2.11500E+01 4.74020E+01 0.00000E+00
 -1      1359 2.49000E+01 4.87010E+01 0.00000E+00
 -1      1360 2.64000E+01 4.87010E+01 0.00000E+00
 -1      1361 2.41500E+01 4.74020E+01 0.00000E+00
 -1      1362 2.79000E+01 4.87010E+01 0.00000E+00
 -1      1363 2.94000E+01 4.87010E+01 0.00000E+00
 -1      1364 2.71500E+01 4.74020E+01 0.00000E+00
 -1      1365 3.09000E+01 4.87010E+01 0.00000E+00
 -1      1366 3.24000E+01 4.87010E+01 0.00000E+00
 -1      1367 3.01500E+01 4.74020E+01 0.00000E+00
 -1      1368 3.39000E+01 4.87010E+01 0.00000E+00
 -1      1369 3.54000E+01 4.87010E+01 0.00000E+00
 -1      1370 3.31500E+01 4.74020E+01 0.00000E+00
 -1      1371 3.69000E+01 4.87010E+01 0.00000E+00
 -1      1372 3.84000E+01 4.87010E+01 0.00000E+00
 -1      1373 3.61500E+01 4.74020E+01 0.00000E+00
 -1      1374 3.99000E+01 4.87010E+01 0.00000E+00
 -1      1375 4.14000E+01 4.87010E+01 0.00000E+00
 -1      1376 3.91500E+01 4.74020E+01 0.00000E+00
 -1      1377 4.29000E+01 4.87010E+01 0.00000E+00
 -1      1378 4.44000E+01 4.87010E+01 0.00000E+00
 -1      1379 4.21500E+01 4.74020E+01 0.00000E+00
 -1      1380 4.59000E+01 4.87010E+01 0.00000E+00
 -1      1381 4.74000E+01 4.87010E+01 0.00000E+00
 -1      1382 4.51500E+01 4.74020E+01 0.00000E+00
 -1      1383 4.89000E+01 4.87010E+01 0.00000E+00
 -1      1384 5.04000E+01 4.87010E+01 0.00000E+00
 -1      1385 4.81500E+01 4.74020E+01 0.00000E+00
 -1      1386 5.19000E+01 4.87010E+01 0.00000E+00
 -1      1387 5.34000E+01 4.87010E+01 0.00000E+00
 -1      1388 5.11500E+01 4.74020E+01 0.00000E+00
 -1      1389 5.49000E+01 4.87010E+01 0.00000E+00
 -1      1390 5.64000E+01 4.87010E+01 0.00000E+00
 -1      1391 5.41500E+01 4.74020E+01 0.00000E+00
 -1      1392 5.79000E+01 4.87010E+01 0.00000E+00
 -1      1393 5.94000E+01 4.87010E+01 0.00000E+00
 -1      1394 5.71500E+01 4.74020E+01 0.00000E+00
 -1      1395 6.09000E+01 4.87010E+01 0.00000E+00
 -1      1396 6.24000E+01 4.87010E+01 0.00000E+00
 -1      1397 6.01500E+01 4.74020E+01 0.00000E+00
 -1      1398 6.39000E+01 4.87010E+01 0.00000E+00
 -1      1399 6.54000E+01 4.87010E+01 0.00000E+00
 -1      1400 6.31500E+01 4.74020E+01 0.00000E+00
 -1      1401 6.69000E+01 4.87010E+01 0.00000E+00
 -1      1402 6.84000E+01 4.87010E+01 0.00000E+00
 -1      1403 6.61500E+01 4.74020E+01 0.00000E+00
 -1      1404 6.99000E+01 4.87010E+01 0.00000E+00
 -1      1405 7.14000E+01 4.87010E+01 0.00000E+00
 -1      1406 6.91500E+01 4.74020E+01 0.00000E+00
 -1      1407 7.29000E+01 4.87010E+01 0.00000E+00
 -1      1408 7.44000E+01 4.87010E+01 0.00000E+00
 -1      1409 7.21500E+01 4.74020E+01 0.00000E+00
 -1      1410 7.59000E+01 4.87010E+01 0.00000E+00
 -1      1411 7.74000E+01 4.87010E+01 0.00000E+00
 -1      1412 7.51500E+01 4.74020E+01 0.00000E+00
 -1      1413 7.89000E+01 4.87010E+01 0.00000E+00
 -1      1414 8.04000E+01 4.87010E+01 0.00000E+00
 -1      1415 7.81500E+01 4.74020E+01 0.00000E+00
 -1      1416 8.19000E+01 4.87010E+01 0.00000E+00
 -1      1417 8.34000E+01 4.87010E+01 0.00000E+00
 -1      1418 8.11500E+01 4.74020E+01 0.00000E+00
 -1      1419 8.49000E+01 4.87010E+01 0.00000E+00
 -1      1420 8.64000E+01 4.87010E+01 0.00000E+00
 -1      1421 8.41500E+01 4.74020E+01 0.00000E+00
 -1      1422 8.79000E+01 4.87010E+01 0.00000E+00
 -1      1423 8.94000E+01 4.87010E+01 0.00000E+00
 -1      1424 8.71500E+01 4.74020E+01 0.00000E+00
 -1      1425 9.09000E+01 4.87010E+01 0.00000E+00
 -1      1426 9.24000E+01 4.87010E+01 0.00000E+00
 -1      1427 9.01500E+01 4.74020E+01 0.00000E+00
 -1      1428 9.39000E+01 4.87010E+01 0.00000E+00
 -1      1429 9.54000E+01 4.87010E+01 0.00000E+00
 -1      1430 9.31500E+01 4.74020E+01 0.00000E+00
 -1      1431 9.69000E+01 4.87010E+01 0.00000E+00
 -1      1432 9.84000E+01 4.87010E+01 0.00000E+00
 -1      1433 9.61500E+01 4.74020E+01 0.00000E+00
 -1      1434 9.99000E+01 4.87010E+01 0.00000E+00
 -1      1435 1.01400E+02 4.87010E+01 0.00000E+00
 -1      1436 9.91500E+01 4.74020E+01 0.00000E+00
 -1      1437 1.02900E+02 4.87010E+01 0.00000E+00
 -1      1438 1.04400E+02 4.87010E+01 0.00000E+00
 -1      1439 1.02150E+02 4.74020E+01 0.00000E+00
 -1      1440 1.05900E+02 4.87010E+01 0.00000E+00
 -1      1441 1.07400E+02 4.87010E+01 0.00000E+00
 -1      1442 1.05150E+02 4.74020E+01 0.00000E+00
 -1      1443 1.08900E+02 4.87010E+01 0.00000E+00
 -1      1444 1.10400E+02 4.87010E+01 0.00000E+00
 -1      1445 1.08150E+02 4.74020E+01 0.00000E+00
 -1      1446 1.11900E+02 4.87010E+01 0.00000E+00
 -1      1447 1.13400E+02 4.87010E+01 0.00000E+00
 -1      1448 1.11150E+02 4.74020E+01 0.00000E+00
 -1      1449 1.14900E+02 4.87010E+01 0.00000E+00
 -1      1450 1.16400E+02 4.87010E+01 0.00000E+00
 -1      1451 1.14150E+02 4.74020E+01 0.00000E+00
 -1      1452 1.17900E+02 4.87010E+01 0.00000E+00
 -1      1453 1.19400E+02 4.87010E+01 0.00000E+00
 -1      1454 1.17150E+02 4.74020E+01 0.00000E+00
 -1      1455 1.20900E+02 4.87010E+01 0.00000E+00
 -1      1456 1.22400E+02 4.87010E+01 0.00000E+00
 -1      1457 1.20150E+02 4.74020E+01 0.00000E+00
 -1      1458 1.23900E+02 4.87010E+01 0.00000E+00
 -1      1459 1.25400E+02 4.87010E+01 0.00000E+00
 -1      1460 1.23150E+02 4.74020E+01 0.00000E+00
 -1      1461 1.26900E+02 4.87010E+01 0.00000E+00
 -1      1462 1.28400E+02 4.87010E+01 0.00000E+00
 -1      1463 1.26150E+02 4.74020E+01 0.00000E+00
 -1      1464 1.29900E+02 4.87010E+01 0.00000E+00
 -1      1465 1.31400E+02 4.87010E+01 0.00000E+00
 -1      1466 1.29150E+02 4.74020E+01 0.00000E+00
 -1      1467 1.32900E+02 4.87010E+01 0.00000E+00
 -1      1468 1.34400E+02 4.87010E+01 0.00000E+00
 -1      1469 1.32150E+02 4.74020E+01 0.00000E+00
 -1      1470 1.35900E+02 4.87010E+01 0.00000E+00
 -1      1471 1.37400E+02 4.87010E+01 0.00000E+00
 -1      1472 1.35150E+02 4.74020E+01 0.00000E+00
 -1      1473 1.38900E+02 4.87010E+01 0.00000E+00
 -1      1474 1.40400E+02 4.87010E+01 0.00000E+00
 -1      1475 1.38150E+02 4.74020E+01 0.00000E+00
 -1      1476 1.41900E+02 4.87010E+01 0.00000E+00
 -1      1477 1.43400E+02 4.87010E+01 0.00000E+00
 -1      1478 1.41150E+02 4.74020E+01 0.00000E+00
 -1      1479 1.44900E+02 4.87010E+01 0.00000E+00
 -1      1480 1.46400E+02 4.87010E+01 0.00000E+00
 -1      1481 1.44150E+02 4.74020E+01 0.00000E+00
 -1      1482 1.48575E+02 4.85500E+01 0.00000E+00
 -1      1483 1.47825E+02 4.72510E+01 0.00000E+00
 -1      1484 6.01200E+00 1.09375E+00 0.00000E+00
 -1      1485 4.51200E+00 1.09375E+00 0.00000E+00
 -1      1486 4.37400E+00 2.18750E+00 0.00000E+00
 -1      1487 9.01200E+00 1.09375E+00 0.00000E+00
 -1      1488 7.51200E+00 1.09375E+00 0.00000E+00
 -1      1489 7.37400E+00 2.18750E+00 0.00000E+00
 -1      1490 1.20120E+01 1.09375E+00 0.00000E+00
 -1      1491 1.05120E+01 1.09375E+00 0.00000E+00
 -1      1492 1.03740E+01 2.18750E+00 0.00000E+00
 -1      1493 1.50120E+01 1.09375E+00 0.00000E+00
 -1      1494 1.35120E+01 1.09375E+00 0.00000E+00
 -1      1495 1.33740E+01 2.18750E+00 0.00000E+00
 -1      1496 1.80120E+01 1.09375E+00 0.00000E+00
 -1      1497 1.65120E+01 1.09375E+00 0.00000E+00
 -1      1498 1.63740E+01 2.18750E+00 0.00000E+00
 -1      1499 2.10120E+01 1.09375E+00 0.00000E+00
 -1      1500 1.95120E+01 1.09375E+00 0.00000E+00
 -1      1501 1.93740E+01 2.18750E+00 0.00000E+00
 -1      1502 2.40120E+01 1.09375E+00 0.00000E+00
 -1      1503 2.25120E+01 1.09375E+00 0.00000E+00
 -1      1504 2.23740E+01 2.18750E+00 0.00000E+00
 -1      1505 2.70120E+01 1.09375E+00 0.00000E+00
 -1      1506 2.55120E+01 1.09375E+00 0.00000E+00
 -1      1507 2.53740E+01 2.18750E+00 0.00000E+00
 -1      1508 3.00120E+01 1.09375E+00 0.00000E+00
 -1      1509 2.85120E+01 1.09375E+00 0.00000E+00
 -1      1510 2.83740E+01 2.18750E+00 0.00000E+00
 -1      1511 3.30120E+01 1.09375E+00 0.00000E+00
 -1      1512 3.15120E+01 1.09375E+00 0.00000E+00
 -1      1513 3.13740E+01 2.18750E+00 0.00000E+00
 -1      1514 3.60120E+01 1.09375E+00 0.00000E+00
 -1      1515 3.45120E+01 1.09375E+00 0.00000E+00
 -1      1516 3.43740E+01 2.18750E+00 0.00000E+00
 -1      1517 3.90120E+01 1.09375E+00 0.00000E+00
 -1      1518 3.75120E+01 1.09375E+00 0.00000E+00
 -1      1519 3.73740E+01 2.18750E+00 0.00000E+00
 -1      1520 4.20120E+01 1.09375E+00 0.00000E+00
 -1      1521 4.05120E+01 1.09375E+00 0.00000E+00
 -1      1522 4.03740E+01 2.18750E+00 0.00000E+00
 -1      1523 4.50120E+01 1.09375E+00 0.00000E+00
 -1      1524 4.35120E+01 1.09375E+00 0.00000E+00
 -1      1525 4.33740E+01 2.18750E+00 0.00000E+00
 -1      1526 4.80120E+01 1.09375E+00 0.00000E+00
 -1      1527 4.65120E+01 1.09375E+00 0.00000E+00
 -1      1528 4.63740E+01 2.18750E+00 0.00000E+00
 -1      1529 5.10120E+01 1.09375E+00 0.00000E+00
 -1      1530 4.95120E+01 1.09375E+00 0.00000E+00
 -1      1531 4.93740E+01 2.18750E+00 0.00000E+00
 -1      1532 5.40120E+01 1.09375E+00 0.00000E+00
 -1      1533 5.25120E+01 1.09375E+00 0.00000E+00
 -1      1534 5.23740E+01 2.18750E+00 0.00000E+00
 -1      1535 5.70120E+01 1.09375E+00 0.00000E+00
 -1      1536 5.55120E+01 1.09375E+00 0.00000E+00
 -1      1537 5.53740E+01 2.18750E+00 0.00000E+00
 -1      1538 6.00120E+01 1.09375E+00 0.00000E+00
 -1      1539 5.85120E+01 1.09375E+00 0.00000E+00
 -1      1540 5.83740E+01 2.18750E+00 0.00000E+00
 -1      1541 6.30120E+01 1.09375E+00 0.00000E+00
 -1      1542 6.15120E+01 1.09375E+00 0.00000E+00
 -1      1543 6.13740E+01 2.18750E+00 0.00000E+00
 -1      1544 6.60120E+01 1.09375E+00 0.00000E+00
 -1      1545 6.45120E+01 1.09375E+00 0.00000E+00
 -1      1546 6.43740E+01 2.18750E+00 0.00000E+00
 -1      1547 6.90120E+01 1.09375E+00 0.00000E+00
 -1      1548 6.75120E+01 1.09375E+00 0.00000E+00
 -1      1549 6.73740E+01 2.18750E+00 0.00000E+00
 -1      1550 7.20120E+01 1.09375E+00 0.00000E+00
 -1      1551 7.05120E+01 1.09375E+00 0.00000E+00
 -1      1552 7.03740E+01 2.18750E+00 0.00000E+00
 -1      1553 7.50120E+01 1.09375E+00 0.00000E+00
 -1      1554 7.35120E+01 1.09375E+00 0.00000E+00
 -1      1555 7.33740E+01 2.18750E+00 0.00000E+00
 -1      1556 7.80120E+01 1.09375E+00 0.00000E+00
 -1      1557 7.65120E+01 1.09375E+00 0.00000E+00
 -1      1558 7.63740E+01 2.18750E+00 0.00000E+00
 -1      1559 8.10120E+01 1.09375E+00 0.00000E+00
 -1      1560 7.95120E+01 1.09375E+00 0.00000E+00
 -1      1561 7.93740E+01 2.18750E+00 0.00000E+00
 -1      1562 8.40120E+01 1.09375E+00 0.00000E+00
 -1      1563 8.25120E+01 1.09375E+00 0.00000E+00
 -1      1564 8.23740E+01 2.18750E+00 0.00000E+00
 -1      1565 8.70120E+01 1.09375E+00 0.00000E+00
 -1      1566 8.55120E+01 1.09375E+00 0.00000E+00
 -1      1567 8.53740E+01 2.18750E+00 0.00000E+00
 -1      1568 9.00120E+01 1.09375E+00 0.00000E+00
 -1      1569 8.85120E+01 1.09375E+00 0.00000E+00
 -1      1570 8.83740E+01 2.18750E+00 0.00000E+00
 -1      1571 9.30120E+01 1.09375E+00 0.00000E+00
 -1      1572 9.15120E+01 1.09375E+00 0.00000E+00
 -1      1573 9.13740E+01 2.18750E+00 0.00000E+00
 -1      1574 9.60120E+01 1.09375E+00 0.00000E+00
 -1      1575 9.45120E+01 1.09375E+00 0.00000E+00
 -1      1576 9.43740E+01 2.18750E+00 0.00000E+00
 -1      1577 9.90120E+01 1.09375E+00 0.00000E+00
 -1      1578 9.75120E+01 1.09375E+00 0.00000E+00
 -1      1579 9.73740E+01 2.18750E+00 0.00000E+00
 -1      1580 1.02012E+02 1.09375E+00 0.00000E+00
 -1      1581 1.00512E+02 1.09375E+00 0.00000E+00
 -1      1582 1.00374E+02 2.18750E+00 0.00000E+00
 -1      1583 1.05012E+02 1.09375E+00 0.00000E+00
 -1      1584 1.03512E+02 1.09375E+00 0.00000E+00
 -1      1585 1.03374E+02 2.18750E+00 0.00000E+00
 -1      1586 1.08012E+02 1.09375E+00 0.00000E+00
 -1      1587 1.06512E+02 1.09375E+00 0.00000E+00
 -1      1588 1.06374E+02 2.18750E+00 0.00000E+00
 -1      1589 1.11012E+02 1.09375E+00 0.00000E+00
 -1      1590 1.09512E+02 1.09375E+00 0.00000E+00
 -1      1591 1.09374E+02 2.18750E+00 0.00000E+00
 -1      1592 1.14012E+02 1.09375E+00 0.00000E+00
 -1      1593 1.12512E+02 1.09375E+00 0.00000E+00
 -1      1594 1.12374E+02 2.18750E+00 0.00000E+00
 -1      1595 1.17012E+02 1.09375E+00 0.00000E+00
 -1      1596 1.15512E+02 1.09375E+00 0.00000E+00
 -1      1597 1.15374E+02 2.18750E+00 0.00000E+00
 -1      1598 1.20012E+02 1.09375E+00 0.00000E+00
 -1      1599 1.18512E+02 1.09375E+00 0.00000E+00
 -1      1600 1.18374E+02 2.18750E+00 0.00000E+00
 -1      1601 1.23012E+02 1.09375E+00 0.00000E+00
 -1      1602 1.21512E+02 1.09375E+00 0.00000E+00
 -1      1603 1.21374E+02 2.18750E+00 0.00000E+00
 -1      1604 1.26012E+02 1.09375E+00 0.00000E+00
 -1      1605 1.24512E+02 1.09375E+00 0.00000E+00
 -1      1606 1.24374E+02 2.18750E+00 0.00000E+00
 -1      1607 1.29012E+02 1.09375E+00 0.00000E+00
 -1      1608 1.27512E+02 1.09375E+00 0.00000E+00
 -1      1609 1.27374E+02 2.18750E+00 0.00000E+00
 -1      1610 1.32012E+02 1.09375E+00 0.00000E+00
 -1      1611 1.30512E+02 1.09375E+00 0.00000E+00
 -1      1612 1.30374E+02 2.18750E+00 0.00000E+00
 -1      1613 1.35012E+02 1.09375E+00 0.00000E+00
 -1      1614 1.33512E+02 1.09375E+00 0.00000E+00
 -1      1615 1.33374E+02 2.18750E+00 0.00000E+00
 -1      1616 1.38012E+02 1.09375E+00 0.00000E+00
 -1      1617 1.36512E+02 1.09375E+00 0.00000E+00
 -1      1618 1.36374E+02 2.18750E+00 0.00000E+00
 -1      1619 1.41012E+02 1.09375E+00 0.00000E+00
 -1      1620 1.39512E+02 1.09375E+00 0.00000E+00
 -1      1621 1.39374E+02 2.18750E+00 0.00000E+00
 -1      1622 1.44012E+02 1.09375E+00 0.00000E+00
 -1      1623 1.42512E+02 1.09375E+00 0.00000E+00
 -1      1624 1.42374E+02 2.18750E+00 0.00000E+00
 -1      1625 1.47012E+02 1.09375E+00 0.00000E+00
 -1      1626 1.45512E+02 1.09375E+00 0.00000E+00
 -1      1627 1.45374E+02 2.18750E+00 0.00000E+00
 -1      1628 1.48575E+02 1.47500E+00 0.00000E+00
 -1      1629 1.48701E+02 5.16250E+00 0.00000E+00
 -1      1630 1.48701E+02 3.68750E+00 0.00000E+00
 -1      1631 1.48701E+02 8.11250E+00 0.00000E+00
 -1      1632 1.48701E+02 6.63750E+00 0.00000E+00
 -1      1633 1.47402E+02 5.90000E+00 0.00000E+00
 -1      1634 1.48701E+02 1.10625E+01 0.00000E+00
 -1      1635 1.48701E+02 9.58750E+00 0.00000E+00
 -1      1636 1.47402E+02 8.85000E+00 0.00000E+00
 -1      1637 1.48701E+02 1.40125E+01 0.00000E+00
 -1      1638 1.48701E+02 1.25375E+01 0.00000E+00
 -1      1639 1.47402E+02 1.18000E+01 0.00000E+00
 -1      1640 1.48701E+02 1.69125E+01 0.00000E+00
 -1      1641 1.48701E+02 1.54625E+01 0.00000E+00
 -1      1642 1.47402E+02 1.47250E+01 0.00000E+00
 -1      1643 1.48701E+02 1.98625E+01 0.00000E+00
 -1      1644 1.48701E+02 1.83875E+01 0.00000E+00
 -1      1645 1.47402E+02 1.76500E+01 0.00000E+00
 -1      1646 1.48701E+02 2.28125E+01 0.00000E+00
 -1      1647 1.48701E+02 2.13375E+01 0.00000E+00
 -1      1648 1.47402E+02 2.06000E+01 0.00000E+00
 -1      1649 1.48701E+02 2.57625E+01 0.00000E+00
 -1      1650 1.48701E+02 2.42875E+01 0.00000E+00
 -1      1651 1.47402E+02 2.35500E+01 0.00000E+00
 -1      1652 1.48701E+02 2.87125E+01 0.00000E+00
 -1      1653 1.48701E+02 2.72375E+01 0.00000E+00
 -1      1654 1.47402E+02 2.65000E+01 0.00000E+00
 -1      1655 1.48701E+02 3.16625E+01 0.00000E+00
 -1      1656 1.48701E+02 3.01875E+01 0.00000E+00
 -1      1657 1.47402E+02 2.94500E+01 0.00000E+00
 -1      1658 1.48701E+02 3.45625E+01 0.00000E+00
 -1      1659 1.48701E+02 3.31125E+01 0.00000E+00
 -1      1660 1.47402E+02 3.23750E+01 0.00000E+00
 -1      1661 1.48701E+02 3.75125E+01 0.00000E+00
 -1      1662 1.48701E+02 3.60375E+01 0.00000E+00
 -1      1663 1.47402E+02 3.53000E+01 0.00000E+00
 -1      1664 1.48701E+02 4.04625E+01 0.00000E+00
 -1      1665 1.48701E+02 3.89875E+01 0.00000E+00
 -1      1666 1.47402E+02 3.82500E+01 0.00000E+00
 -1      1667 1.48701E+02 4.34125E+01 0.00000E+00
 -1      1668 1.48701E+02 4.19375E+01 0.00000E+00
 -1      1669 1.47402E+02 4.12000E+01 0.00000E+00
 -1      1670 1.48263E+02 4.60692E+01 0.00000E+00
 -1      1671 1.48263E+02 4.45942E+01 0.00000E+00
 -1      1672 1.46964E+02 4.38568E+01 0.00000E+00
 -1      1673 1.46088E+02 4.62202E+01 0.00000E+00
 -1      1674 1.10964E+02 1.93935E+01 0.00000E+00
 -1      1675 1.11053E+02 2.01762E+01 0.00000E+00
 -1      1676 1.10499E+02 1.78471E+01 0.00000E+00
 -1      1677 1.10731E+02 1.85294E+01 0.00000E+00
 -1      1678 1.09814E+02 1.62981E+01 0.00000E+00
 -1      1679 1.10225E+02 1.69753E+01 0.00000E+00
 -1      1680 1.08653E+02 1.51163E+01 0.00000E+00
 -1      1681 1.09161E+02 1.56472E+01 0.00000E+00
 -1      1682 1.07304E+02 1.40551E+01 0.00000E+00
 -1      1683 1.07976E+02 1.45013E+01 0.00000E+00
 -1      1684 1.05814E+02 1.34577E+01 0.00000E+00
 -1      1685 1.06475E+02 1.37135E+01 0.00000E+00
 -1      1686 1.04223E+02 1.30317E+01 0.00000E+00
 -1      1687 1.04990E+02 1.31530E+01 0.00000E+00
 -1      1688 1.02545E+02 1.31212E+01 0.00000E+00
 -1      1689 1.03311E+02 1.30722E+01 0.00000E+00
 -1      1690 1.00964E+02 1.34755E+01 0.00000E+00
 -1      1691 1.01677E+02 1.32706E+01 0.00000E+00
 -1      1692 9.94488E+01 1.40919E+01 0.00000E+00
 -1      1693 1.00115E+02 1.37328E+01 0.00000E+00
 -1      1694 9.82300E+01 1.51158E+01 0.00000E+00
 -1      1695 9.87768E+01 1.46501E+01 0.00000E+00
 -1      1696 9.71939E+01 1.63163E+01 0.00000E+00
 -1      1697 9.76444E+01 1.57321E+01 0.00000E+00
 -1      1698 9.63235E+01 1.77520E+01 0.00000E+00
 -1      1699 9.66572E+01 1.70409E+01 0.00000E+00
 -1      1700 9.59551E+01 1.92865E+01 0.00000E+00
 -1      1701 9.61120E+01 1.86053E+01 0.00000E+00
 -1      1702 9.58341E+01 2.08008E+01 0.00000E+00
 -1      1703 9.58523E+01 2.00986E+01 0.00000E+00
 -1      1704 9.59893E+01 2.23632E+01 0.00000E+00
 -1      1705 9.58587E+01 2.16432E+01 0.00000E+00
 -1      1706 9.64671E+01 2.39676E+01 0.00000E+00
 -1      1707 9.61670E+01 2.32489E+01 0.00000E+00
 -1      1708 9.73968E+01 2.53841E+01 0.00000E+00
 -1      1709 9.69521E+01 2.47574E+01 0.00000E+00
 -1      1710 9.85515E+01 2.64605E+01 0.00000E+00
 -1      1711 9.80317E+01 2.59833E+01 0.00000E+00
 -1      1712 9.98395E+01 2.73280E+01 0.00000E+00
 -1      1713 9.92201E+01 2.69580E+01 0.00000E+00
 -1      1714 1.01291E+02 2.80055E+01 0.00000E+00
 -1      1715 1.00589E+02 2.77655E+01 0.00000E+00
 -1      1716 1.02811E+02 2.82017E+01 0.00000E+00
 -1      1717 1.02131E+02 2.81165E+01 0.00000E+00
 -1      1718 1.04270E+02 2.81779E+01 0.00000E+00
 -1      1719 1.03602E+02 2.82243E+01 0.00000E+00
 -1      1720 1.05717E+02 2.78662E+01 0.00000E+00
 -1      1721 1.05053E+02 2.80455E+01 0.00000E+00
 -1      1722 1.07168E+02 2.73222E+01 0.00000E+00
 -1      1723 1.06524E+02 2.76460E+01 0.00000E+00
 -1      1724 1.08386E+02 2.64207E+01 0.00000E+00
 -1      1725 1.07850E+02 2.68424E+01 0.00000E+00
 -1      1726 1.09458E+02 2.52797E+01 0.00000E+00
 -1      1727 1.08985E+02 2.58392E+01 0.00000E+00
 -1      1728 1.10243E+02 2.39254E+01 0.00000E+00
 -1      1729 1.09903E+02 2.45547E+01 0.00000E+00
 -1      1730 1.10754E+02 2.25318E+01 0.00000E+00
 -1      1731 1.10557E+02 2.31770E+01 0.00000E+00
 -1      1732 1.10980E+02 2.10524E+01 0.00000E+00
 -1      1733 1.10911E+02 2.17460E+01 0.00000E+00
 -1      1734 1.08698E+02 1.43184E+01 0.00000E+00
 -1      1735 1.10028E+02 1.55844E+01 0.00000E+00
 -1      1736 1.48437E+02 2.56875E+00 0.00000E+00
 -1      1737 1.47138E+02 3.30625E+00 0.00000E+00
 -1      1738 1.11461E+02 1.88431E+01 0.00000E+00
 -1      1739 1.10955E+02 1.71072E+01 0.00000E+00
 -1      1740 1.11621E+02 2.05834E+01 0.00000E+00
 -1      1741 1.07193E+02 1.33619E+01 0.00000E+00
 -1      1742 1.05539E+02 1.27156E+01 0.00000E+00
 -1      1743 1.03802E+02 1.24513E+01 0.00000E+00
 -1      1744 1.02021E+02 1.26411E+01 0.00000E+00
 -1      1745 1.00304E+02 1.30477E+01 0.00000E+00
 -1      1746 9.87824E+01 1.38632E+01 0.00000E+00
 -1      1747 9.75247E+01 1.50378E+01 0.00000E+00
 -1      1748 9.64025E+01 1.63786E+01 0.00000E+00
 -1      1749 9.56543E+01 1.79566E+01 0.00000E+00
 -1      1750 9.53400E+01 1.96219E+01 0.00000E+00
 -1      1751 9.52617E+01 2.12764E+01 0.00000E+00
 -1      1752 9.54640E+01 2.30046E+01 0.00000E+00
 -1      1753 9.61267E+01 2.46802E+01 0.00000E+00
 -1      1754 9.72467E+01 2.60692E+01 0.00000E+00
 -1      1755 9.85503E+01 2.71659E+01 0.00000E+00
 -1      1756 9.99680E+01 2.81009E+01 0.00000E+00
 -1      1757 1.01556E+02 2.86496E+01 0.00000E+00
 -1      1758 1.03187E+02 2.87833E+01 0.00000E+00
 -1      1759 1.04761E+02 2.86735E+01 0.00000E+00
 -1      1760 1.06349E+02 2.83209E+01 0.00000E+00
 -1      1761 1.07837E+02 2.76209E+01 0.00000E+00
 -1      1762 1.09117E+02 2.65595E+01 0.00000E+00
 -1      1763 1.10162E+02 2.52530E+01 0.00000E+00
 -1      1764 1.10921E+02 2.37796E+01 0.00000E+00
 -1      1765 1.11392E+02 2.22454E+01 0.00000E+00
 -1      1766 2.87400E+00 4.77875E+01 0.00000E+00
 -1      1767 3.89700E+00 4.04125E+01 0.00000E+00
 -1      1768 3.89700E+00 4.18875E+01 0.00000E+00
 -1      1769 3.89700E+00 4.33625E+01 0.00000E+00
 -1      1770 3.89700E+00 4.48375E+01 0.00000E+00
 -1      1771 5.19600E+00 4.26250E+01 0.00000E+00
 -1      1772 3.89700E+00 3.45500E+01 0.00000E+00
 -1      1773 3.89700E+00 3.60000E+01 0.00000E+00
 -1      1774 3.89700E+00 3.16000E+01 0.00000E+00
 -1      1775 3.89700E+00 3.30750E+01 0.00000E+00
 -1      1776 5.19600E+00 3.38000E+01 0.00000E+00
 -1      1777 3.89700E+00 2.86500E+01 0.00000E+00
 -1      1778 3.89700E+00 3.01250E+01 0.00000E+00
 -1      1779 5.19600E+00 3.08500E+01 0.00000E+00
 -1      1780 3.89700E+00 2.57000E+01 0.00000E+00
 -1      1781 3.89700E+00 2.71750E+01 0.00000E+00
 -1      1782 5.19600E+00 2.79000E+01 0.00000E+00
 -1      1783 3.89700E+00 2.27500E+01 0.00000E+00
 -1      1784 3.89700E+00 2.42250E+01 0.00000E+00
 -1      1785 5.19600E+00 2.49500E+01 0.00000E+00
 -1      1786 3.89700E+00 1.98000E+01 0.00000E+00
 -1      1787 3.89700E+00 2.12750E+01 0.00000E+00
 -1      1788 5.19600E+00 2.20000E+01 0.00000E+00
 -1      1789 3.89700E+00 1.69000E+01 0.00000E+00
 -1      1790 3.89700E+00 1.83500E+01 0.00000E+00
 -1      1791 5.19600E+00 1.90750E+01 0.00000E+00
 -1      1792 3.89700E+00 1.39500E+01 0.00000E+00
 -1      1793 3.89700E+00 1.54250E+01 0.00000E+00
 -1      1794 5.19600E+00 1.61500E+01 0.00000E+00
 -1      1795 3.89700E+00 1.10000E+01 0.00000E+00
 -1      1796 3.89700E+00 1.24750E+01 0.00000E+00
 -1      1797 5.19600E+00 1.32000E+01 0.00000E+00
 -1      1798 3.89700E+00 8.05000E+00 0.00000E+00
 -1      1799 3.89700E+00 9.52500E+00 0.00000E+00
 -1      1800 5.19600E+00 1.02500E+01 0.00000E+00
 -1      1801 3.89700E+00 5.10000E+00 0.00000E+00
 -1      1802 3.89700E+00 6.57500E+00 0.00000E+00
 -1      1803 5.19600E+00 7.30000E+00 0.00000E+00
 -1      1804 4.20450E+00 3.09687E+00 0.00000E+00
 -1      1805 4.06650E+00 4.19063E+00 0.00000E+00
 -1      1806 5.36550E+00 4.91563E+00 0.00000E+00
 -1      1807 5.70450E+00 3.09687E+00 0.00000E+00
 -1      1808 3.62400E+00 4.64885E+01 0.00000E+00
 -1      1809 8.70450E+00 3.09687E+00 0.00000E+00
 -1      1810 7.20450E+00 3.09687E+00 0.00000E+00
 -1      1811 7.03500E+00 4.00625E+00 0.00000E+00
 -1      1812 4.92300E+00 4.57510E+01 0.00000E+00
 -1      1813 8.40000E+00 4.61030E+01 0.00000E+00
 -1      1814 9.90000E+00 4.61030E+01 0.00000E+00
 -1      1815 1.14000E+01 4.61030E+01 0.00000E+00
 -1      1816 1.29000E+01 4.61030E+01 0.00000E+00
 -1      1817 1.06500E+01 4.48040E+01 0.00000E+00
 -1      1818 1.44000E+01 4.61030E+01 0.00000E+00
 -1      1819 1.59000E+01 4.61030E+01 0.00000E+00
 -1      1820 1.36500E+01 4.48040E+01 0.00000E+00
 -1      1821 1.74000E+01 4.61030E+01 0.00000E+00
 -1      1822 1.89000E+01 4.61030E+01 0.00000E+00
 -1      1823 1.66500E+01 4.48040E+01 0.00000E+00
 -1      1824 2.04000E+01 4.61030E+01 0.00000E+00
 -1      1825 2.19000E+01 4.61030E+01 0.00000E+00
 -1      1826 1.96500E+01 4.48040E+01 0.00000E+00
 -1      1827 2.34000E+01 4.61030E+01 0.00000E+00
 -1      1828 2.49000E+01 4.61030E+01 0.00000E+00
 -1      1829 2.26500E+01 4.48040E+01 0.00000E+00
 -1      1830 2.64000E+01 4.61030E+01 0.00000E+00
 -1      1831 2.79000E+01 4.61030E+01 0.00000E+00
 -1      1832 2.56500E+01 4.48040E+01 0.00000E+00
 -1      1833 2.94000E+01 4.61030E+01 0.00000E+00
 -1      1834 3.09000E+01 4.61030E+01 0.00000E+00
 -1      1835 2.86500E+01 4.48040E+01 0.00000E+00
 -1      1836 3.24000E+01 4.61030E+01 0.00000E+00
 -1      1837 3.39000E+01 4.61030E+01 0.00000E+00
 -1      1838 3.16500E+01 4.48040E+01 0.00000E+00
 -1      1839 3.54000E+01 4.61030E+01 0.00000E+00
 -1      1840 3.69000E+01 4.61030E+01 0.00000E+00
 -1      1841 3.46500E+01 4.48040E+01 0.00000E+00
 -1      1842 3.84000E+01 4.61030E+01 0.00000E+00
 -1      1843 3.99000E+01 4.61030E+01 0.00000E+00
 -1      1844 3.76500E+01 4.48040E+01 0.00000E+00
 -1      1845 4.14000E+01 4.61030E+01 0.00000E+00
 -1      1846 4.29000E+01 4.61030E+01 0.00000E+00
 -1      1847 4.06500E+01 4.48040E+01 0.00000E+00
 -1      1848 4.44000E+01 4.61030E+01 0.00000E+00
 -1      1849 4.59000E+01 4.61030E+01 0.00000E+00
 -1      1850 4.36500E+01 4.48040E+01 0.00000E+00
 -1      1851 4.74000E+01 4.61030E+01 0.00000E+00
 -1      1852 4.89000E+01 4.61030E+01 0.00000E+00
 -1      1853 4.66500E+01 4.48040E+01 0.00000E+00
 -1      1854 5.04000E+01 4.61030E+01 0.00000E+00
 -1      1855 5.19000E+01 4.61030E+01 0.00000E+00
 -1      1856 4.96500E+01 4.48040E+01 0.00000E+00
 -1      1857 5.34000E+01 4.61030E+01 0.00000E+00
 -1      1858 5.49000E+01 4.61030E+01 0.00000E+00
 -1      1859 5.26500E+01 4.48040E+01 0.00000E+00
 -1      1860 5.64000E+01 4.61030E+01 0.00000E+00
 -1      1861 5.79000E+01 4.61030E+01 0.00000E+00
 -1      1862 5.56500E+01 4.48040E+01 0.00000E+00
 -1      1863 5.94000E+01 4.61030E+01 0.00000E+00
 -1      1864 6.09000E+01 4.61030E+01 0.00000E+00
 -1      1865 5.86500E+01 4.48040E+01 0.00000E+00
 -1      1866 6.24000E+01 4.61030E+01 0.00000E+00
 -1      1867 6.39000E+01 4.61030E+01 0.00000E+00
 -1      1868 6.16500E+01 4.48040E+01 0.00000E+00
 -1      1869 6.54000E+01 4.61030E+01 0.00000E+00
 -1      1870 6.69000E+01 4.61030E+01 0.00000E+00
 -1      1871 6.46500E+01 4.48040E+01 0.00000E+00
 -1      1872 6.84000E+01 4.61030E+01 0.00000E+00
 -1      1873 6.99000E+01 4.61030E+01 0.00000E+00
 -1      1874 6.76500E+01 4.48040E+01 0.00000E+00
 -1      1875 7.14000E+01 4.61030E+01 0.00000E+00
 -1      1876 7.29000E+01 4.61030E+01 0.00000E+00
 -1      1877 7.06500E+01 4.48040E+01 0.00000E+00
 -1      1878 7.44000E+01 4.61030E+01 0.00000E+00
 -1      1879 7.59000E+01 4.61030E+01 0.00000E+00
 -1      1880 7.36500E+01 4.48040E+01 0.00000E+00
 -1      1881 7.74000E+01 4.61030E+01 0.00000E+00
 -1      1882 7.89000E+01 4.61030E+01 0.00000E+00
 -1      1883 7.66500E+01 4.48040E+01 0.00000E+00
 -1      1884 8.04000E+01 4.61030E+01 0.00000E+00
 -1      1885 8.19000E+01 4.61030E+01 0.00000E+00
 -1      1886 7.96500E+01 4.48040E+01 0.00000E+00
 -1      1887 8.34000E+01 4.61030E+01 0.00000E+00
 -1      1888 8.49000E+01 4.61030E+01 0.00000E+00
 -1      1889 8.26500E+01 4.48040E+01 0.00000E+00
 -1      1890 8.64000E+01 4.61030E+01 0.00000E+00
 -1      1891 8.79000E+01 4.61030E+01 0.00000E+00
 -1      1892 8.56500E+01 4.48040E+01 0.00000E+00
 -1      1893 8.94000E+01 4.61030E+01 0.00000E+00
 -1      1894 9.09000E+01 4.61030E+01 0.00000E+00
 -1      1895 8.86500E+01 4.48040E+01 0.00000E+00
 -1      1896 9.24000E+01 4.61030E+01 0.00000E+00
 -1      1897 9.39000E+01 4.61030E+01 0.00000E+00
 -1      1898 9.16500E+01 4.48040E+01 0.00000E+00
 -1      1899 9.54000E+01 4.61030E+01 0.00000E+00
 -1      1900 9.69000E+01 4.61030E+01 0.00000E+00
 -1      1901 9.46500E+01 4.48040E+01 0.00000E+00
 -1      1902 9.84000E+01 4.61030E+01 0.00000E+00
 -1      1903 9.99000E+01 4.61030E+01 0.00000E+00
 -1      1904 9.76500E+01 4.48040E+01 0.00000E+00
 -1      1905 1.01400E+02 4.61030E+01 0.00000E+00
 -1      1906 1.02900E+02 4.61030E+01 0.00000E+00
 -1      1907 1.00650E+02 4.48040E+01 0.00000E+00
 -1      1908 1.04400E+02 4.61030E+01 0.00000E+00
 -1      1909 1.05900E+02 4.61030E+01 0.00000E+00
 -1      1910 1.03650E+02 4.48040E+01 0.00000E+00
 -1      1911 1.07400E+02 4.61030E+01 0.00000E+00
 -1      1912 1.08900E+02 4.61030E+01 0.00000E+00
 -1      1913 1.06650E+02 4.48040E+01 0.00000E+00
 -1      1914 1.10400E+02 4.61030E+01 0.00000E+00
 -1      1915 1.11900E+02 4.61030E+01 0.00000E+00
 -1      1916 1.09650E+02 4.48040E+01 0.00000E+00
 -1      1917 1.13400E+02 4.61030E+01 0.00000E+00
 -1      1918 1.14900E+02 4.61030E+01 0.00000E+00
 -1      1919 1.12650E+02 4.48040E+01 0.00000E+00
 -1      1920 1.16400E+02 4.61030E+01 0.00000E+00
 -1      1921 1.17900E+02 4.61030E+01 0.00000E+00
 -1      1922 1.15650E+02 4.48040E+01 0.00000E+00
 -1      1923 1.19400E+02 4.61030E+01 0.00000E+00
 -1      1924 1.20900E+02 4.61030E+01 0.00000E+00
 -1      1925 1.18650E+02 4.48040E+01 0.00000E+00
 -1      1926 1.22400E+02 4.61030E+01 0.00000E+00
 -1      1927 1.23900E+02 4.61030E+01 0.00000E+00
 -1      1928 1.21650E+02 4.48040E+01 0.00000E+00
 -1      1929 1.25400E+02 4.61030E+01 0.00000E+00
 -1      1930 1.26900E+02 4.61030E+01 0.00000E+00
 -1      1931 1.24650E+02 4.48040E+01 0.00000E+00
 -1      1932 1.28400E+02 4.61030E+01 0.00000E+00
 -1      1933 1.29900E+02 4.61030E+01 0.00000E+00
 -1      1934 1.27650E+02 4.48040E+01 0.00000E+00
 -1      1935 1.31400E+02 4.61030E+01 0.00000E+00
 -1      1936 1.32900E+02 4.61030E+01 0.00000E+00
 -1      1937 1.30650E+02 4.48040E+01 0.00000E+00
 -1      1938 1.34400E+02 4.61030E+01 0.00000E+00
 -1      1939 1.35900E+02 4.61030E+01 0.00000E+00
 -1      1940 1.33650E+02 4.48040E+01 0.00000E+00
 -1      1941 1.37400E+02 4.61030E+01 0.00000E+00
 -1      1942 1.38900E+02 4.61030E+01 0.00000E+00
 -1      1943 1.36650E+02 4.48040E+01 0.00000E+00
 -1      1944 1.40400E+02 4.61030E+01 0.00000E+00
 -1      1945 1.41900E+02 4.61030E+01 0.00000E+00
 -1      1946 1.39650E+02 4.48040E+01 0.00000E+00
 -1      1947 1.43244E+02 4.61616E+01 0.00000E+00
 -1      1948 1.44744E+02 4.61616E+01 0.00000E+00
 -1      1949 1.45182E+02 4.49799E+01 0.00000E+00
 -1      1950 1.42494E+02 4.48626E+01 0.00000E+00
 -1      1951 1.17045E+01 3.09687E+00 0.00000E+00
 -1      1952 1.02045E+01 3.09687E+00 0.00000E+00
 -1      1953 1.00350E+01 4.00625E+00 0.00000E+00
 -1      1954 1.47045E+01 3.09687E+00 0.00000E+00
 -1      1955 1.32045E+01 3.09687E+00 0.00000E+00
 -1      1956 1.30350E+01 4.00625E+00 0.00000E+00
 -1      1957 1.77045E+01 3.09687E+00 0.00000E+00
 -1      1958 1.62045E+01 3.09687E+00 0.00000E+00
 -1      1959 1.60350E+01 4.00625E+00 0.00000E+00
 -1      1960 2.07045E+01 3.09687E+00 0.00000E+00
 -1      1961 1.92045E+01 3.09687E+00 0.00000E+00
 -1      1962 1.90350E+01 4.00625E+00 0.00000E+00
 -1      1963 2.37045E+01 3.09687E+00 0.00000E+00
 -1      1964 2.22045E+01 3.09687E+00 0.00000E+00
 -1      1965 2.20350E+01 4.00625E+00 0.00000E+00
 -1      1966 2.67045E+01 3.09687E+00 0.00000E+00
 -1      1967 2.52045E+01 3.09687E+00 0.00000E+00
 -1      1968 2.50350E+01 4.00625E+00 0.00000E+00
 -1      1969 2.97045E+01 3.09687E+00 0.00000E+00
 -1      1970 2.82045E+01 3.09687E+00 0.00000E+00
 -1      1971 2.80350E+01 4.00625E+00 0.00000E+00
 -1      1972 3.27045E+01 3.09687E+00 0.00000E+00
 -1      1973 3.12045E+01 3.09687E+00 0.00000E+00
 -1      1974 3.10350E+01 4.00625E+00 0.00000E+00
 -1      1975 3.57045E+01 3.09687E+00 0.00000E+00
 -1      1976 3.42045E+01 3.09687E+00 0.00000E+00
 -1      1977 3.40350E+01 4.00625E+00 0.00000E+00
 -1      1978 3.87045E+01 3.09687E+00 0.00000E+00
 -1      1979 3.72045E+01 3.09687E+00 0.00000E+00
 -1      1980 3.70350E+01 4.00625E+00 0.00000E+00
 -1      1981 4.17045E+01 3.09687E+00 0.00000E+00
 -1      1982 4.02045E+01 3.09687E+00 0.00000E+00
 -1      1983 4.00350E+01 4.00625E+00 0.00000E+00
 -1      1984 4.47045E+01 3.09687E+00 0.00000E+00
 -1      1985 4.32045E+01 3.09687E+00 0.00000E+00
 -1      1986 4.30350E+01 4.00625E+00 0.00000E+00
 -1      1987 4.77045E+01 3.09687E+00 0.00000E+00
 -1      1988 4.62045E+01 3.09687E+00 0.00000E+00
 -1      1989 4.60350E+01 4.00625E+00 0.00000E+00
 -1      1990 5.07045E+01 3.09687E+00 0.00000E+00
 -1      1991 4.92045E+01 3.09687E+00 0.00000E+00
 -1      1992 4.90350E+01 4.00625E+00 0.00000E+00
 -1      1993 5.37045E+01 3.09687E+00 0.00000E+00
 -1      1994 5.22045E+01 3.09687E+00 0.00000E+00
 -1      1995 5.20350E+01 4.00625E+00 0.00000E+00
 -1      1996 5.67045E+01 3.09687E+00 0.00000E+00
 -1      1997 5.52045E+01 3.09687E+00 0.00000E+00
 -1      1998 5.50350E+01 4.00625E+00 0.00000E+00
 -1      1999 5.97045E+01 3.09687E+00 0.00000E+00
 -1      2000 5.82045E+01 3.09687E+00 0.00000E+00
 -1      2001 5.80350E+01 4.00625E+00 0.00000E+00
 -1      2002 6.27045E+01 3.09687E+00 0.00000E+00
 -1      2003 6.12045E+01 3.09687E+00 0.00000E+00
 -1      2004 6.10350E+01 4.00625E+00 0.00000E+00
 -1      2005 6.57045E+01 3.09687E+00 0.00000E+00
 -1      2006 6.42045E+01 3.09687E+00 0.00000E+00
 -1      2007 6.40350E+01 4.00625E+00 0.00000E+00
 -1      2008 6.87045E+01 3.09687E+00 0.00000E+00
 -1      2009 6.72045E+01 3.09687E+00 0.00000E+00
 -1      2010 6.70350E+01 4.00625E+00 0.00000E+00
 -1      2011 7.17045E+01 3.09687E+00 0.00000E+00
 -1      2012 7.02045E+01 3.09687E+00 0.00000E+00
 -1      2013 7.00350E+01 4.00625E+00 0.00000E+00
 -1      2014 7.47045E+01 3.09687E+00 0.00000E+00
 -1      2015 7.32045E+01 3.09687E+00 0.00000E+00
 -1      2016 7.30350E+01 4.00625E+00 0.00000E+00
 -1      2017 7.77045E+01 3.09687E+00 0.00000E+00
 -1      2018 7.62045E+01 3.09687E+00 0.00000E+00
 -1      2019 7.60350E+01 4.00625E+00 0.00000E+00
 -1      2020 8.07045E+01 3.09687E+00 0.00000E+00
 -1      2021 7.92045E+01 3.09687E+00 0.00000E+00
 -1      2022 7.90350E+01 4.00625E+00 0.00000E+00
 -1      2023 8.37045E+01 3.09687E+00 0.00000E+00
 -1      2024 8.22045E+01 3.09687E+00 0.00000E+00
 -1      2025 8.20350E+01 4.00625E+00 0.00000E+00
 -1      2026 8.67045E+01 3.09687E+00 0.00000E+00
 -1      2027 8.52045E+01 3.09687E+00 0.00000E+00
 -1      2028 8.50350E+01 4.00625E+00 0.00000E+00
 -1      2029 8.97045E+01 3.09687E+00 0.00000E+00
 -1      2030 8.82045E+01 3.09687E+00 0.00000E+00
 -1      2031 8.80350E+01 4.00625E+00 0.00000E+00
 -1      2032 9.27045E+01 3.09687E+00 0.00000E+00
 -1      2033 9.12045E+01 3.09687E+00 0.00000E+00
 -1      2034 9.10350E+01 4.00625E+00 0.00000E+00
 -1      2035 9.57045E+01 3.09687E+00 0.00000E+00
 -1      2036 9.42045E+01 3.09687E+00 0.00000E+00
 -1      2037 9.40350E+01 4.00625E+00 0.00000E+00
 -1      2038 9.87045E+01 3.09687E+00 0.00000E+00
 -1      2039 9.72045E+01 3.09687E+00 0.00000E+00
 -1      2040 9.70350E+01 4.00625E+00 0.00000E+00
 -1      2041 1.01704E+02 3.09687E+00 0.00000E+00
 -1      2042 1.00204E+02 3.09687E+00 0.00000E+00
 -1      2043 1.00035E+02 4.00625E+00 0.00000E+00
 -1      2044 1.04704E+02 3.09687E+00 0.00000E+00
 -1      2045 1.03204E+02 3.09687E+00 0.00000E+00
 -1      2046 1.03035E+02 4.00625E+00 0.00000E+00
 -1      2047 1.07704E+02 3.09687E+00 0.00000E+00
 -1      2048 1.06204E+02 3.09687E+00 0.00000E+00
 -1      2049 1.06035E+02 4.00625E+00 0.00000E+00
 -1      2050 1.10704E+02 3.09687E+00 0.00000E+00
 -1      2051 1.09204E+02 3.09687E+00 0.00000E+00
 -1      2052 1.09035E+02 4.00625E+00 0.00000E+00
 -1      2053 1.13704E+02 3.09687E+00 0.00000E+00
 -1      2054 1.12204E+02 3.09687E+00 0.00000E+00
 -1      2055 1.12035E+02 4.00625E+00 0.00000E+00
 -1      2056 1.16704E+02 3.09687E+00 0.00000E+00
 -1      2057 1.15204E+02 3.09687E+00 0.00000E+00
 -1      2058 1.15035E+02 4.00625E+00 0.00000E+00
 -1      2059 1.19704E+02 3.09687E+00 0.00000E+00
 -1      2060 1.18204E+02 3.09687E+00 0.00000E+00
 -1      2061 1.18035E+02 4.00625E+00 0.00000E+00
 -1      2062 1.22704E+02 3.09687E+00 0.00000E+00
 -1      2063 1.21204E+02 3.09687E+00 0.00000E+00
 -1      2064 1.21035E+02 4.00625E+00 0.00000E+00
 -1      2065 1.25704E+02 3.09687E+00 0.00000E+00
 -1      2066 1.24204E+02 3.09687E+00 0.00000E+00
 -1      2067 1.24035E+02 4.00625E+00 0.00000E+00
 -1      2068 1.28704E+02 3.09687E+00 0.00000E+00
 -1      2069 1.27204E+02 3.09687E+00 0.00000E+00
 -1      2070 1.27035E+02 4.00625E+00 0.00000E+00
 -1      2071 1.31704E+02 3.09687E+00 0.00000E+00
 -1      2072 1.30204E+02 3.09687E+00 0.00000E+00
 -1      2073 1.30035E+02 4.00625E+00 0.00000E+00
 -1      2074 1.34704E+02 3.09687E+00 0.00000E+00
 -1      2075 1.33204E+02 3.09687E+00 0.00000E+00
 -1      2076 1.33035E+02 4.00625E+00 0.00000E+00
 -1      2077 1.37704E+02 3.09687E+00 0.00000E+00
 -1      2078 1.36204E+02 3.09687E+00 0.00000E+00
 -1      2079 1.36035E+02 4.00625E+00 0.00000E+00
 -1      2080 1.40704E+02 3.09687E+00 0.00000E+00
 -1      2081 1.39204E+02 3.09687E+00 0.00000E+00
 -1      2082 1.39035E+02 4.00625E+00 0.00000E+00
 -1      2083 1.43704E+02 3.09687E+00 0.00000E+00
 -1      2084 1.42204E+02 3.09687E+00 0.00000E+00
 -1      2085 1.42035E+02 4.00625E+00 0.00000E+00
 -1      2086 1.46171E+02 3.20156E+00 0.00000E+00
 -1      2087 1.44671E+02 3.20156E+00 0.00000E+00
 -1      2088 1.44502E+02 4.11094E+00 0.00000E+00
 -1      2089 1.46435E+02 4.32031E+00 0.00000E+00
 -1      2090 1.46103E+02 1.25375E+01 0.00000E+00
 -1      2091 1.46103E+02 1.10625E+01 0.00000E+00
 -1      2092 1.46103E+02 9.58750E+00 0.00000E+00
 -1      2093 1.46103E+02 8.11250E+00 0.00000E+00
 -1      2094 1.44804E+02 1.03250E+01 0.00000E+00
 -1      2095 1.46269E+02 6.95391E+00 0.00000E+00
 -1      2096 1.46269E+02 5.47891E+00 0.00000E+00
 -1      2097 1.45302E+02 5.37422E+00 0.00000E+00
 -1      2098 1.44970E+02 7.69141E+00 0.00000E+00
 -1      2099 1.46103E+02 1.54375E+01 0.00000E+00
 -1      2100 1.46103E+02 1.39875E+01 0.00000E+00
 -1      2101 1.44804E+02 1.32500E+01 0.00000E+00
 -1      2102 1.46103E+02 1.83875E+01 0.00000E+00
 -1      2103 1.46103E+02 1.69125E+01 0.00000E+00
 -1      2104 1.44804E+02 1.61750E+01 0.00000E+00
 -1      2105 1.46103E+02 2.13375E+01 0.00000E+00
 -1      2106 1.46103E+02 1.98625E+01 0.00000E+00
 -1      2107 1.44804E+02 1.91250E+01 0.00000E+00
 -1      2108 1.46103E+02 2.42875E+01 0.00000E+00
 -1      2109 1.46103E+02 2.28125E+01 0.00000E+00
 -1      2110 1.44804E+02 2.20750E+01 0.00000E+00
 -1      2111 1.46103E+02 2.72375E+01 0.00000E+00
 -1      2112 1.46103E+02 2.57625E+01 0.00000E+00
 -1      2113 1.44804E+02 2.50250E+01 0.00000E+00
 -1      2114 1.46103E+02 3.01875E+01 0.00000E+00
 -1      2115 1.46103E+02 2.87125E+01 0.00000E+00
 -1      2116 1.44804E+02 2.79750E+01 0.00000E+00
 -1      2117 1.46103E+02 3.30875E+01 0.00000E+00
 -1      2118 1.46103E+02 3.16375E+01 0.00000E+00
 -1      2119 1.44804E+02 3.09000E+01 0.00000E+00
 -1      2120 1.46103E+02 3.60375E+01 0.00000E+00
 -1      2121 1.46103E+02 3.45625E+01 0.00000E+00
 -1      2122 1.44804E+02 3.38250E+01 0.00000E+00
 -1      2123 1.46103E+02 3.89875E+01 0.00000E+00
 -1      2124 1.46103E+02 3.75125E+01 0.00000E+00
 -1      2125 1.44804E+02 3.67750E+01 0.00000E+00
 -1      2126 1.46103E+02 4.19375E+01 0.00000E+00
 -1      2127 1.46103E+02 4.04625E+01 0.00000E+00
 -1      2128 1.44804E+02 3.97250E+01 0.00000E+00
 -1      2129 1.11476E+02 1.64647E+01 0.00000E+00
 -1      2130 1.11750E+02 1.73365E+01 0.00000E+00
 -1      2131 1.12512E+02 2.02163E+01 0.00000E+00
 -1      2132 1.12440E+02 2.10925E+01 0.00000E+00
 -1      2133 1.12051E+02 1.82206E+01 0.00000E+00
 -1      2134 1.12284E+02 1.90847E+01 0.00000E+00
 -1      2135 1.10248E+02 1.47109E+01 0.00000E+00
 -1      2136 1.10901E+02 1.53618E+01 0.00000E+00
 -1      2137 1.08895E+02 1.34809E+01 0.00000E+00
 -1      2138 1.09571E+02 1.40959E+01 0.00000E+00
 -1      2139 1.10444E+02 1.38733E+01 0.00000E+00
 -1      2140 3.89700E+00 3.74688E+01 0.00000E+00
 -1      2141 3.89700E+00 3.89437E+01 0.00000E+00
 -1      2142 5.19600E+00 3.96813E+01 0.00000E+00
 -1      2143 5.19600E+00 3.67438E+01 0.00000E+00
 -1      2144 1.05366E+02 1.19160E+01 0.00000E+00
 -1      2145 1.06190E+02 1.22208E+01 0.00000E+00
 -1      2146 1.03307E+02 1.16148E+01 0.00000E+00
 -1      2147 1.04220E+02 1.15744E+01 0.00000E+00
 -1      2148 1.01572E+02 1.19135E+01 0.00000E+00
 -1      2149 1.02439E+02 1.17642E+01 0.00000E+00
 -1      2150 1.02858E+02 1.08872E+01 0.00000E+00
 -1      2151 9.96791E+01 1.25160E+01 0.00000E+00
 -1      2152 1.00528E+02 1.22587E+01 0.00000E+00
 -1      2153 9.79787E+01 1.35794E+01 0.00000E+00
 -1      2154 9.86508E+01 1.30211E+01 0.00000E+00
 -1      2155 9.68075E+01 1.48119E+01 0.00000E+00
 -1      2156 9.73931E+01 1.41956E+01 0.00000E+00
 -1      2157 9.72615E+01 1.33535E+01 0.00000E+00
 -1      2158 9.55796E+01 1.63303E+01 0.00000E+00
 -1      2159 9.61163E+01 1.56057E+01 0.00000E+00
 -1      2160 9.47975E+01 1.81971E+01 0.00000E+00
 -1      2161 9.50090E+01 1.73438E+01 0.00000E+00
 -1      2162 9.46041E+01 1.99413E+01 0.00000E+00
 -1      2163 9.47069E+01 1.91292E+01 0.00000E+00
 -1      2164 9.45843E+01 2.17177E+01 0.00000E+00
 -1      2165 9.45598E+01 2.08753E+01 0.00000E+00
 -1      2166 9.48352E+01 2.35914E+01 0.00000E+00
 -1      2167 9.46575E+01 2.27057E+01 0.00000E+00
 -1      2168 9.56384E+01 2.55238E+01 0.00000E+00
 -1      2169 9.51534E+01 2.47340E+01 0.00000E+00
 -1      2170 9.71193E+01 2.68402E+01 0.00000E+00
 -1      2171 9.64844E+01 2.62410E+01 0.00000E+00
 -1      2172 9.84227E+01 2.80354E+01 0.00000E+00
 -1      2173 9.77541E+01 2.75380E+01 0.00000E+00
 -1      2174 9.99209E+01 2.89106E+01 0.00000E+00
 -1      2175 9.91718E+01 2.84730E+01 0.00000E+00
 -1      2176 9.83756E+01 2.88451E+01 0.00000E+00
 -1      2177 1.01885E+02 2.93891E+01 0.00000E+00
 -1      2178 1.01046E+02 2.92780E+01 0.00000E+00
 -1      2179 1.03564E+02 2.94424E+01 0.00000E+00
 -1      2180 1.02773E+02 2.94198E+01 0.00000E+00
 -1      2181 1.05260E+02 2.92463E+01 0.00000E+00
 -1      2182 1.04478E+02 2.93787E+01 0.00000E+00
 -1      2183 1.06872E+02 2.88059E+01 0.00000E+00
 -1      2184 1.06066E+02 2.90261E+01 0.00000E+00
 -1      2185 1.05783E+02 2.97313E+01 0.00000E+00
 -1      2186 1.08599E+02 2.79794E+01 0.00000E+00
 -1      2187 1.07918E+02 2.84592E+01 0.00000E+00
 -1      2188 1.09985E+02 2.68540E+01 0.00000E+00
 -1      2189 1.09386E+02 2.74356E+01 0.00000E+00
 -1      2190 1.10972E+02 2.52514E+01 0.00000E+00
 -1      2191 1.10527E+02 2.59764E+01 0.00000E+00
 -1      2192 1.11676E+02 2.36565E+01 0.00000E+00
 -1      2193 1.11361E+02 2.44049E+01 0.00000E+00
 -1      2194 1.12283E+02 2.18783E+01 0.00000E+00
 -1      2195 1.12127E+02 2.26642E+01 0.00000E+00
 -1      2196 1.13174E+02 2.15112E+01 0.00000E+00
 -1      2197 1.07020E+02 1.25623E+01 0.00000E+00
 -1      2198 1.07849E+02 1.29038E+01 0.00000E+00
 -1      2199 1.06846E+02 1.17627E+01 0.00000E+00
 -1      2200 6.42300E+00 4.57510E+01 0.00000E+00
 -1      2201 1.08722E+02 1.26813E+01 0.00000E+00
 -1      2202 7.17300E+00 4.44520E+01 0.00000E+00
 -1      2203 1.12573E+02 1.75781E+01 0.00000E+00
 -1      2204 1.13103E+02 1.95938E+01 0.00000E+00
 -1      2205 1.45665E+02 4.31193E+01 0.00000E+00
 -1      2206 1.11696E+02 1.55912E+01 0.00000E+00
 -1      2207 1.12491E+02 1.58205E+01 0.00000E+00
 -1      2208 1.11916E+02 1.47176E+01 0.00000E+00
 -1      2209 1.12567E+02 2.32895E+01 0.00000E+00
 -1      2210 1.11727E+02 2.51284E+01 0.00000E+00
 -1      2211 1.10796E+02 2.68525E+01 0.00000E+00
 -1      2212 1.07635E+02 2.91644E+01 0.00000E+00
 -1      2213 1.04063E+02 3.00152E+01 0.00000E+00
 -1      2214 1.00250E+02 2.96501E+01 0.00000E+00
 -1      2215 9.69918E+01 2.77097E+01 0.00000E+00
 -1      2216 9.55111E+01 2.62948E+01 0.00000E+00
 -1      2217 9.43470E+01 2.44351E+01 0.00000E+00
 -1      2218 9.39556E+01 2.23045E+01 0.00000E+00
 -1      2219 9.39267E+01 2.03826E+01 0.00000E+00
 -1      2220 9.40616E+01 1.85165E+01 0.00000E+00
 -1      2221 9.59847E+01 1.47636E+01 0.00000E+00
 -1      2222 1.00947E+02 1.13818E+01 0.00000E+00
 -1      2223 1.04872E+02 1.10795E+01 0.00000E+00
 -1      2224 9.88755E+01 1.22321E+01 0.00000E+00
 -1      2225 9.47229E+01 1.65708E+01 0.00000E+00
 -1      2226 1.02263E+02 3.00483E+01 0.00000E+00
 -1      2227 1.09467E+02 2.82739E+01 0.00000E+00
 -1      2228 1.07850E+01 5.30525E+00 0.00000E+00
 -1      2229 9.28500E+00 5.30525E+00 0.00000E+00
 -1      2230 6.49500E+00 3.01125E+01 0.00000E+00
 -1      2231 6.49500E+00 3.15875E+01 0.00000E+00
 -1      2232 6.49500E+00 3.30625E+01 0.00000E+00
 -1      2233 6.49500E+00 3.45375E+01 0.00000E+00
 -1      2234 7.79400E+00 3.23250E+01 0.00000E+00
 -1      2235 6.49500E+00 2.42125E+01 0.00000E+00
 -1      2236 6.49500E+00 2.56875E+01 0.00000E+00
 -1      2237 6.49500E+00 2.12625E+01 0.00000E+00
 -1      2238 6.49500E+00 2.27375E+01 0.00000E+00
 -1      2239 7.79400E+00 2.34750E+01 0.00000E+00
 -1      2240 6.49500E+00 1.83625E+01 0.00000E+00
 -1      2241 6.49500E+00 1.98125E+01 0.00000E+00
 -1      2242 7.79400E+00 2.05500E+01 0.00000E+00
 -1      2243 6.49500E+00 1.54125E+01 0.00000E+00
 -1      2244 6.49500E+00 1.68875E+01 0.00000E+00
 -1      2245 7.79400E+00 1.76250E+01 0.00000E+00
 -1      2246 6.49500E+00 1.24625E+01 0.00000E+00
 -1      2247 6.49500E+00 1.39375E+01 0.00000E+00
 -1      2248 7.79400E+00 1.46750E+01 0.00000E+00
 -1      2249 6.49500E+00 9.51250E+00 0.00000E+00
 -1      2250 6.49500E+00 1.09875E+01 0.00000E+00
 -1      2251 7.79400E+00 1.17250E+01 0.00000E+00
 -1      2252 1.37850E+01 5.30525E+00 0.00000E+00
 -1      2253 1.22850E+01 5.30525E+00 0.00000E+00
 -1      2254 1.15350E+01 6.60425E+00 0.00000E+00
 -1      2255 9.90000E+00 4.35050E+01 0.00000E+00
 -1      2256 1.14000E+01 4.35050E+01 0.00000E+00
 -1      2257 1.08653E+02 1.15685E+01 0.00000E+00
 -1      2258 1.09699E+02 1.21456E+01 0.00000E+00
 -1      2259 1.13115E+02 1.68998E+01 0.00000E+00
 -1      2260 1.13416E+02 1.77838E+01 0.00000E+00
 -1      2261 1.29000E+01 4.35050E+01 0.00000E+00
 -1      2262 1.44000E+01 4.35050E+01 0.00000E+00
 -1      2263 1.21500E+01 4.22060E+01 0.00000E+00
 -1      2264 1.59000E+01 4.35050E+01 0.00000E+00
 -1      2265 1.74000E+01 4.35050E+01 0.00000E+00
 -1      2266 1.51500E+01 4.22060E+01 0.00000E+00
 -1      2267 1.89000E+01 4.35050E+01 0.00000E+00
 -1      2268 2.04000E+01 4.35050E+01 0.00000E+00
 -1      2269 1.81500E+01 4.22060E+01 0.00000E+00
 -1      2270 2.19000E+01 4.35050E+01 0.00000E+00
 -1      2271 2.34000E+01 4.35050E+01 0.00000E+00
 -1      2272 2.11500E+01 4.22060E+01 0.00000E+00
 -1      2273 2.49000E+01 4.35050E+01 0.00000E+00
 -1      2274 2.64000E+01 4.35050E+01 0.00000E+00
 -1      2275 2.41500E+01 4.22060E+01 0.00000E+00
 -1      2276 2.79000E+01 4.35050E+01 0.00000E+00
 -1      2277 2.94000E+01 4.35050E+01 0.00000E+00
 -1      2278 2.71500E+01 4.22060E+01 0.00000E+00
 -1      2279 3.09000E+01 4.35050E+01 0.00000E+00
 -1      2280 3.24000E+01 4.35050E+01 0.00000E+00
 -1      2281 3.01500E+01 4.22060E+01 0.00000E+00
 -1      2282 3.39000E+01 4.35050E+01 0.00000E+00
 -1      2283 3.54000E+01 4.35050E+01 0.00000E+00
 -1      2284 3.31500E+01 4.22060E+01 0.00000E+00
 -1      2285 3.69000E+01 4.35050E+01 0.00000E+00
 -1      2286 3.84000E+01 4.35050E+01 0.00000E+00
 -1      2287 3.61500E+01 4.22060E+01 0.00000E+00
 -1      2288 3.99000E+01 4.35050E+01 0.00000E+00
 -1      2289 4.14000E+01 4.35050E+01 0.00000E+00
 -1      2290 3.91500E+01 4.22060E+01 0.00000E+00
 -1      2291 4.29000E+01 4.35050E+01 0.00000E+00
 -1      2292 4.44000E+01 4.35050E+01 0.00000E+00
 -1      2293 4.21500E+01 4.22060E+01 0.00000E+00
 -1      2294 4.59000E+01 4.35050E+01 0.00000E+00
 -1      2295 4.74000E+01 4.35050E+01 0.00000E+00
 -1      2296 4.51500E+01 4.22060E+01 0.00000E+00
 -1      2297 4.89000E+01 4.35050E+01 0.00000E+00
 -1      2298 5.04000E+01 4.35050E+01 0.00000E+00
 -1      2299 4.81500E+01 4.22060E+01 0.00000E+00
 -1      2300 5.19000E+01 4.35050E+01 0.00000E+00
 -1      2301 5.34000E+01 4.35050E+01 0.00000E+00
 -1      2302 5.11500E+01 4.22060E+01 0.00000E+00
 -1      2303 5.49000E+01 4.35050E+01 0.00000E+00
 -1      2304 5.64000E+01 4.35050E+01 0.00000E+00
 -1      2305 5.41500E+01 4.22060E+01 0.00000E+00
 -1      2306 5.79000E+01 4.35050E+01 0.00000E+00
 -1      2307 5.94000E+01 4.35050E+01 0.00000E+00
 -1      2308 5.71500E+01 4.22060E+01 0.00000E+00
 -1      2309 6.09000E+01 4.35050E+01 0.00000E+00
 -1      2310 6.24000E+01 4.35050E+01 0.00000E+00
 -1      2311 6.01500E+01 4.22060E+01 0.00000E+00
 -1      2312 6.39000E+01 4.35050E+01 0.00000E+00
 -1      2313 6.54000E+01 4.35050E+01 0.00000E+00
 -1      2314 6.31500E+01 4.22060E+01 0.00000E+00
 -1      2315 6.69000E+01 4.35050E+01 0.00000E+00
 -1      2316 6.84000E+01 4.35050E+01 0.00000E+00
 -1      2317 6.61500E+01 4.22060E+01 0.00000E+00
 -1      2318 6.99000E+01 4.35050E+01 0.00000E+00
 -1      2319 7.14000E+01 4.35050E+01 0.00000E+00
 -1      2320 6.91500E+01 4.22060E+01 0.00000E+00
 -1      2321 7.29000E+01 4.35050E+01 0.00000E+00
 -1      2322 7.44000E+01 4.35050E+01 0.00000E+00
 -1      2323 7.21500E+01 4.22060E+01 0.00000E+00
 -1      2324 7.59000E+01 4.35050E+01 0.00000E+00
 -1      2325 7.74000E+01 4.35050E+01 0.00000E+00
 -1      2326 7.51500E+01 4.22060E+01 0.00000E+00
 -1      2327 7.89000E+01 4.35050E+01 0.00000E+00
 -1      2328 8.04000E+01 4.35050E+01 0.00000E+00
 -1      2329 7.81500E+01 4.22060E+01 0.00000E+00
 -1      2330 8.19000E+01 4.35050E+01 0.00000E+00
 -1      2331 8.34000E+01 4.35050E+01 0.00000E+00
 -1      2332 8.11500E+01 4.22060E+01 0.00000E+00
 -1      2333 8.49000E+01 4.35050E+01 0.00000E+00
 -1      2334 8.64000E+01 4.35050E+01 0.00000E+00
 -1      2335 8.41500E+01 4.22060E+01 0.00000E+00
 -1      2336 8.79000E+01 4.35050E+01 0.00000E+00
 -1      2337 8.94000E+01 4.35050E+01 0.00000E+00
 -1      2338 8.71500E+01 4.22060E+01 0.00000E+00
 -1      2339 9.09000E+01 4.35050E+01 0.00000E+00
 -1      2340 9.24000E+01 4.35050E+01 0.00000E+00
 -1      2341 9.01500E+01 4.22060E+01 0.00000E+00
 -1      2342 9.39000E+01 4.35050E+01 0.00000E+00
 -1      2343 9.54000E+01 4.35050E+01 0.00000E+00
 -1      2344 9.31500E+01 4.22060E+01 0.00000E+00
 -1      2345 9.69000E+01 4.35050E+01 0.00000E+00
 -1      2346 9.84000E+01 4.35050E+01 0.00000E+00
 -1      2347 9.61500E+01 4.22060E+01 0.00000E+00
 -1      2348 9.99000E+01 4.35050E+01 0.00000E+00
 -1      2349 1.01400E+02 4.35050E+01 0.00000E+00
 -1      2350 9.91500E+01 4.22060E+01 0.00000E+00
 -1      2351 1.02900E+02 4.35050E+01 0.00000E+00
 -1      2352 1.04400E+02 4.35050E+01 0.00000E+00
 -1      2353 1.02150E+02 4.22060E+01 0.00000E+00
 -1      2354 1.05900E+02 4.35050E+01 0.00000E+00
 -1      2355 1.07400E+02 4.35050E+01 0.00000E+00
 -1      2356 1.05150E+02 4.22060E+01 0.00000E+00
 -1      2357 1.08900E+02 4.35050E+01 0.00000E+00
 -1      2358 1.10400E+02 4.35050E+01 0.00000E+00
 -1      2359 1.08150E+02 4.22060E+01 0.00000E+00
 -1      2360 1.11900E+02 4.35050E+01 0.00000E+00
 -1      2361 1.13400E+02 4.35050E+01 0.00000E+00
 -1      2362 1.11150E+02 4.22060E+01 0.00000E+00
 -1      2363 1.14900E+02 4.35050E+01 0.00000E+00
 -1      2364 1.16400E+02 4.35050E+01 0.00000E+00
 -1      2365 1.14150E+02 4.22060E+01 0.00000E+00
 -1      2366 1.17900E+02 4.35050E+01 0.00000E+00
 -1      2367 1.19400E+02 4.35050E+01 0.00000E+00
 -1      2368 1.17150E+02 4.22060E+01 0.00000E+00
 -1      2369 1.20900E+02 4.35050E+01 0.00000E+00
 -1      2370 1.22400E+02 4.35050E+01 0.00000E+00
 -1      2371 1.20150E+02 4.22060E+01 0.00000E+00
 -1      2372 1.23900E+02 4.35050E+01 0.00000E+00
 -1      2373 1.25400E+02 4.35050E+01 0.00000E+00
 -1      2374 1.23150E+02 4.22060E+01 0.00000E+00
 -1      2375 1.26900E+02 4.35050E+01 0.00000E+00
 -1      2376 1.28400E+02 4.35050E+01 0.00000E+00
 -1      2377 1.26150E+02 4.22060E+01 0.00000E+00
 -1      2378 1.29900E+02 4.35050E+01 0.00000E+00
 -1      2379 1.31400E+02 4.35050E+01 0.00000E+00
 -1      2380 1.29150E+02 4.22060E+01 0.00000E+00
 -1      2381 1.32900E+02 4.35050E+01 0.00000E+00
 -1      2382 1.34400E+02 4.35050E+01 0.00000E+00
 -1      2383 1.32150E+02 4.22060E+01 0.00000E+00
 -1      2384 1.35900E+02 4.35050E+01 0.00000E+00
 -1      2385 1.37400E+02 4.35050E+01 0.00000E+00
 -1      2386 1.35150E+02 4.22060E+01 0.00000E+00
 -1      2387 1.38900E+02 4.35050E+01 0.00000E+00
 -1      2388 1.40400E+02 4.35050E+01 0.00000E+00
 -1      2389 1.38150E+02 4.22060E+01 0.00000E+00
 -1      2390 1.97850E+01 5.30525E+00 0.00000E+00
 -1      2391 1.82850E+01 5.30525E+00 0.00000E+00
 -1      2392 2.27850E+01 5.30525E+00 0.00000E+00
 -1      2393 2.12850E+01 5.30525E+00 0.00000E+00
 -1      2394 2.05350E+01 6.60425E+00 0.00000E+00
 -1      2395 2.57850E+01 5.30525E+00 0.00000E+00
 -1      2396 2.42850E+01 5.30525E+00 0.00000E+00
 -1      2397 2.35350E+01 6.60425E+00 0.00000E+00
 -1      2398 2.87850E+01 5.30525E+00 0.00000E+00
 -1      2399 2.72850E+01 5.30525E+00 0.00000E+00
 -1      2400 2.65350E+01 6.60425E+00 0.00000E+00
 -1      2401 3.17850E+01 5.30525E+00 0.00000E+00
 -1      2402 3.02850E+01 5.30525E+00 0.00000E+00
 -1      2403 2.95350E+01 6.60425E+00 0.00000E+00
 -1      2404 3.47850E+01 5.30525E+00 0.00000E+00
 -1      2405 3.32850E+01 5.30525E+00 0.00000E+00
 -1      2406 3.25350E+01 6.60425E+00 0.00000E+00
 -1      2407 3.77850E+01 5.30525E+00 0.00000E+00
 -1      2408 3.62850E+01 5.30525E+00 0.00000E+00
 -1      2409 3.55350E+01 6.60425E+00 0.00000E+00
 -1      2410 4.07850E+01 5.30525E+00 0.00000E+00
 -1      2411 3.92850E+01 5.30525E+00 0.00000E+00
 -1      2412 3.85350E+01 6.60425E+00 0.00000E+00
 -1      2413 4.37850E+01 5.30525E+00 0.00000E+00
 -1      2414 4.22850E+01 5.30525E+00 0.00000E+00
 -1      2415 4.15350E+01 6.60425E+00 0.00000E+00
 -1      2416 4.67850E+01 5.30525E+00 0.00000E+00
 -1      2417 4.52850E+01 5.30525E+00 0.00000E+00
 -1      2418 4.45350E+01 6.60425E+00 0.00000E+00
 -1      2419 4.97850E+01 5.30525E+00 0.00000E+00
 -1      2420 4.82850E+01 5.30525E+00 0.00000E+00
 -1      2421 4.75350E+01 6.60425E+00 0.00000E+00
 -1      2422 5.27850E+01 5.30525E+00 0.00000E+00
 -1      2423 5.12850E+01 5.30525E+00 0.00000E+00
 -1      2424 5.05350E+01 6.60425E+00 0.00000E+00
 -1      2425 5.57850E+01 5.30525E+00 0.00000E+00
 -1      2426 5.42850E+01 5.30525E+00 0.00000E+00
 -1      2427 5.35350E+01 6.60425E+00 0.00000E+00
 -1      2428 5.87850E+01 5.30525E+00 0.00000E+00
 -1      2429 5.72850E+01 5.30525E+00 0.00000E+00
 -1      2430 5.65350E+01 6.60425E+00 0.00000E+00
 -1      2431 6.17850E+01 5.30525E+00 0.00000E+00
 -1      2432 6.02850E+01 5.30525E+00 0.00000E+00
 -1      2433 5.95350E+01 6.60425E+00 0.00000E+00
 -1      2434 6.47850E+01 5.30525E+00 0.00000E+00
 -1      2435 6.32850E+01 5.30525E+00 0.00000E+00
 -1      2436 6.25350E+01 6.60425E+00 0.00000E+00
 -1      2437 6.77850E+01 5.30525E+00 0.00000E+00
 -1      2438 6.62850E+01 5.30525E+00 0.00000E+00
 -1      2439 6.55350E+01 6.60425E+00 0.00000E+00
 -1      2440 7.07850E+01 5.30525E+00 0.00000E+00
 -1      2441 6.92850E+01 5.30525E+00 0.00000E+00
 -1      2442 6.85350E+01 6.60425E+00 0.00000E+00
 -1      2443 7.37850E+01 5.30525E+00 0.00000E+00
 -1      2444 7.22850E+01 5.30525E+00 0.00000E+00
 -1      2445 7.15350E+01 6.60425E+00 0.00000E+00
 -1      2446 7.67850E+01 5.30525E+00 0.00000E+00
 -1      2447 7.52850E+01 5.30525E+00 0.00000E+00
 -1      2448 7.45350E+01 6.60425E+00 0.00000E+00
 -1      2449 7.97850E+01 5.30525E+00 0.00000E+00
 -1      2450 7.82850E+01 5.30525E+00 0.00000E+00
 -1      2451 7.75350E+01 6.60425E+00 0.00000E+00
 -1      2452 8.27850E+01 5.30525E+00 0.00000E+00
 -1      2453 8.12850E+01 5.30525E+00 0.00000E+00
 -1      2454 8.05350E+01 6.60425E+00 0.00000E+00
 -1      2455 8.57850E+01 5.30525E+00 0.00000E+00
 -1      2456 8.42850E+01 5.30525E+00 0.00000E+00
 -1      2457 8.35350E+01 6.60425E+00 0.00000E+00
 -1      2458 8.87850E+01 5.30525E+00 0.00000E+00
 -1      2459 8.72850E+01 5.30525E+00 0.00000E+00
 -1      2460 8.65350E+01 6.60425E+00 0.00000E+00
 -1      2461 9.17850E+01 5.30525E+00 0.00000E+00
 -1      2462 9.02850E+01 5.30525E+00 0.00000E+00
 -1      2463 8.95350E+01 6.60425E+00 0.00000E+00
 -1      2464 9.47850E+01 5.30525E+00 0.00000E+00
 -1      2465 9.32850E+01 5.30525E+00 0.00000E+00
 -1      2466 9.25350E+01 6.60425E+00 0.00000E+00
 -1      2467 9.77850E+01 5.30525E+00 0.00000E+00
 -1      2468 9.62850E+01 5.30525E+00 0.00000E+00
 -1      2469 9.55350E+01 6.60425E+00 0.00000E+00
 -1      2470 1.00785E+02 5.30525E+00 0.00000E+00
 -1      2471 9.92850E+01 5.30525E+00 0.00000E+00
 -1      2472 9.85350E+01 6.60425E+00 0.00000E+00
 -1      2473 1.03785E+02 5.30525E+00 0.00000E+00
 -1      2474 1.02285E+02 5.30525E+00 0.00000E+00
 -1      2475 1.01535E+02 6.60425E+00 0.00000E+00
 -1      2476 1.06785E+02 5.30525E+00 0.00000E+00
 -1      2477 1.05285E+02 5.30525E+00 0.00000E+00
 -1      2478 1.04535E+02 6.60425E+00 0.00000E+00
 -1      2479 1.09785E+02 5.30525E+00 0.00000E+00
 -1      2480 1.08285E+02 5.30525E+00 0.00000E+00
 -1      2481 1.07535E+02 6.60425E+00 0.00000E+00
 -1      2482 1.12785E+02 5.30525E+00 0.00000E+00
 -1      2483 1.11285E+02 5.30525E+00 0.00000E+00
 -1      2484 1.10535E+02 6.60425E+00 0.00000E+00
 -1      2485 1.15785E+02 5.30525E+00 0.00000E+00
 -1      2486 1.14285E+02 5.30525E+00 0.00000E+00
 -1      2487 1.13535E+02 6.60425E+00 0.00000E+00
 -1      2488 1.18785E+02 5.30525E+00 0.00000E+00
 -1      2489 1.17285E+02 5.30525E+00 0.00000E+00
 -1      2490 1.16535E+02 6.60425E+00 0.00000E+00
 -1      2491 1.21785E+02 5.30525E+00 0.00000E+00
 -1      2492 1.20285E+02 5.30525E+00 0.00000E+00
 -1      2493 1.19535E+02 6.60425E+00 0.00000E+00
 -1      2494 1.24785E+02 5.30525E+00 0.00000E+00
 -1      2495 1.23285E+02 5.30525E+00 0.00000E+00
 -1      2496 1.22535E+02 6.60425E+00 0.00000E+00
 -1      2497 1.27785E+02 5.30525E+00 0.00000E+00
 -1      2498 1.26285E+02 5.30525E+00 0.00000E+00
 -1      2499 1.25535E+02 6.60425E+00 0.00000E+00
 -1      2500 1.30785E+02 5.30525E+00 0.00000E+00
 -1      2501 1.29285E+02 5.30525E+00 0.00000E+00
 -1      2502 1.28535E+02 6.60425E+00 0.00000E+00
 -1      2503 1.33785E+02 5.30525E+00 0.00000E+00
 -1      2504 1.32285E+02 5.30525E+00 0.00000E+00
 -1      2505 1.31535E+02 6.60425E+00 0.00000E+00
 -1      2506 1.36785E+02 5.30525E+00 0.00000E+00
 -1      2507 1.35285E+02 5.30525E+00 0.00000E+00
 -1      2508 1.34535E+02 6.60425E+00 0.00000E+00
 -1      2509 1.39785E+02 5.30525E+00 0.00000E+00
 -1      2510 1.38285E+02 5.30525E+00 0.00000E+00
 -1      2511 1.37535E+02 6.60425E+00 0.00000E+00
 -1      2512 1.42785E+02 5.30525E+00 0.00000E+00
 -1      2513 1.41285E+02 5.30525E+00 0.00000E+00
 -1      2514 1.40535E+02 6.60425E+00 0.00000E+00
 -1      2515 1.44336E+02 5.26953E+00 0.00000E+00
 -1      2516 1.43505E+02 1.69125E+01 0.00000E+00
 -1      2517 1.43505E+02 1.54375E+01 0.00000E+00
 -1      2518 1.43505E+02 1.98625E+01 0.00000E+00
 -1      2519 1.43505E+02 1.83875E+01 0.00000E+00
 -1      2520 1.42206E+02 1.76500E+01 0.00000E+00
 -1      2521 1.43505E+02 1.10625E+01 0.00000E+00
 -1      2522 1.43505E+02 9.58750E+00 0.00000E+00
 -1      2523 1.43505E+02 1.39750E+01 0.00000E+00
 -1      2524 1.43505E+02 1.25250E+01 0.00000E+00
 -1      2525 1.42206E+02 1.17875E+01 0.00000E+00
 -1      2526 1.42206E+02 1.47125E+01 0.00000E+00
 -1      2527 1.43505E+02 2.28125E+01 0.00000E+00
 -1      2528 1.43505E+02 2.13375E+01 0.00000E+00
 -1      2529 1.42206E+02 2.06000E+01 0.00000E+00
 -1      2530 1.43505E+02 2.57625E+01 0.00000E+00
 -1      2531 1.43505E+02 2.42875E+01 0.00000E+00
 -1      2532 1.42206E+02 2.35500E+01 0.00000E+00
 -1      2533 1.43505E+02 2.87125E+01 0.00000E+00
 -1      2534 1.43505E+02 2.72375E+01 0.00000E+00
 -1      2535 1.42206E+02 2.65000E+01 0.00000E+00
 -1      2536 1.43505E+02 3.16125E+01 0.00000E+00
 -1      2537 1.43505E+02 3.01625E+01 0.00000E+00
 -1      2538 1.42206E+02 2.94250E+01 0.00000E+00
 -1      2539 1.43505E+02 3.45625E+01 0.00000E+00
 -1      2540 1.43505E+02 3.30875E+01 0.00000E+00
 -1      2541 1.42206E+02 3.23500E+01 0.00000E+00
 -1      2542 1.43505E+02 3.75125E+01 0.00000E+00
 -1      2543 1.43505E+02 3.60375E+01 0.00000E+00
 -1      2544 1.42206E+02 3.53000E+01 0.00000E+00
 -1      2545 1.43505E+02 4.04625E+01 0.00000E+00
 -1      2546 1.43505E+02 3.89875E+01 0.00000E+00
 -1      2547 1.42206E+02 3.82500E+01 0.00000E+00
 -1      2548 1.13911E+02 1.88420E+01 0.00000E+00
 -1      2549 1.14139E+02 1.99736E+01 0.00000E+00
 -1      2550 1.67850E+01 5.30525E+00 0.00000E+00
 -1      2551 1.52850E+01 5.30525E+00 0.00000E+00
 -1      2552 1.75350E+01 6.60425E+00 0.00000E+00
 -1      2553 6.55950E+00 4.28890E+01 0.00000E+00
 -1      2554 8.53650E+00 4.32410E+01 0.00000E+00
 -1      2555 9.28650E+00 4.19420E+01 0.00000E+00
 -1      2556 6.55950E+00 4.14140E+01 0.00000E+00
 -1      2557 1.44321E+02 4.30606E+01 0.00000E+00
 -1      2558 1.13459E+02 2.30960E+01 0.00000E+00
 -1      2559 1.13008E+02 2.40884E+01 0.00000E+00
 -1      2560 1.10683E+02 1.29313E+01 0.00000E+00
 -1      2561 1.11359E+02 1.35463E+01 0.00000E+00
 -1      2562 1.14093E+02 2.12857E+01 0.00000E+00
 -1      2563 1.13937E+02 2.20716E+01 0.00000E+00
 -1      2564 1.04577E+02 3.07970E+01 0.00000E+00
 -1      2565 1.03663E+02 3.08607E+01 0.00000E+00
 -1      2566 9.67058E+01 2.86075E+01 0.00000E+00
 -1      2567 9.60710E+01 2.79097E+01 0.00000E+00
 -1      2568 1.00156E+02 1.07403E+01 0.00000E+00
 -1      2569 1.01199E+02 1.03951E+01 0.00000E+00
 -1      2570 6.49500E+00 2.71625E+01 0.00000E+00
 -1      2571 6.49500E+00 2.86375E+01 0.00000E+00
 -1      2572 7.79400E+00 2.93750E+01 0.00000E+00
 -1      2573 7.79400E+00 2.64250E+01 0.00000E+00
 -1      2574 1.04544E+02 1.00869E+01 0.00000E+00
 -1      2575 1.05689E+02 1.04285E+01 0.00000E+00
 -1      2576 9.79832E+01 1.17150E+01 0.00000E+00
 -1      2577 9.90115E+01 1.12099E+01 0.00000E+00
 -1      2578 1.02264E+02 1.00342E+01 0.00000E+00
 -1      2579 1.03132E+02 9.88485E+00 0.00000E+00
 -1      2580 9.37633E+01 1.66979E+01 0.00000E+00
 -1      2581 9.43340E+01 1.56844E+01 0.00000E+00
 -1      2582 9.63471E+01 1.30709E+01 0.00000E+00
 -1      2583 9.69327E+01 1.24547E+01 0.00000E+00
 -1      2584 1.02681E+02 3.07950E+01 0.00000E+00
 -1      2585 1.01794E+02 3.07644E+01 0.00000E+00
 -1      2586 9.49647E+01 1.46585E+01 0.00000E+00
 -1      2587 9.56559E+01 1.38647E+01 0.00000E+00
 -1      2588 9.53270E+01 1.29659E+01 0.00000E+00
 -1      2589 9.33295E+01 1.89158E+01 0.00000E+00
 -1      2590 9.34201E+01 1.79836E+01 0.00000E+00
 -1      2591 9.30898E+01 2.08110E+01 0.00000E+00
 -1      2592 9.31341E+01 1.98770E+01 0.00000E+00
 -1      2593 9.31788E+01 2.28588E+01 0.00000E+00
 -1      2594 9.31056E+01 2.18709E+01 0.00000E+00
 -1      2595 9.35992E+01 2.52589E+01 0.00000E+00
 -1      2596 9.32811E+01 2.41163E+01 0.00000E+00
 -1      2597 9.52251E+01 2.71925E+01 0.00000E+00
 -1      2598 9.43791E+01 2.64754E+01 0.00000E+00
 -1      2599 9.49391E+01 2.80903E+01 0.00000E+00
 -1      2600 9.83388E+01 2.97682E+01 0.00000E+00
 -1      2601 9.75897E+01 2.93306E+01 0.00000E+00
 -1      2602 1.10324E+02 2.86730E+01 0.00000E+00
 -1      2603 1.09537E+02 2.92168E+01 0.00000E+00
 -1      2604 1.00546E+02 3.06490E+01 0.00000E+00
 -1      2605 9.94212E+01 3.02816E+01 0.00000E+00
 -1      2606 1.06401E+02 3.04080E+01 0.00000E+00
 -1      2607 1.05595E+02 3.06282E+01 0.00000E+00
 -1      2608 1.08491E+02 2.97147E+01 0.00000E+00
 -1      2609 1.07446E+02 3.00613E+01 0.00000E+00
 -1      2610 1.07258E+02 3.09583E+01 0.00000E+00
 -1      2611 1.11796E+02 2.68643E+01 0.00000E+00
 -1      2612 1.11254E+02 2.77419E+01 0.00000E+00
 -1      2613 1.12586E+02 2.50108E+01 0.00000E+00
 -1      2614 1.12197E+02 2.58573E+01 0.00000E+00
 -1      2615 1.06743E+02 1.08378E+01 0.00000E+00
 -1      2616 1.07572E+02 1.11793E+01 0.00000E+00
 -1      2617 8.07525E+00 5.11044E+00 0.00000E+00
 -1      2618 6.57525E+00 5.11044E+00 0.00000E+00
 -1      2619 6.40575E+00 6.01981E+00 0.00000E+00
 -1      2620 8.82525E+00 6.40944E+00 0.00000E+00
 -1      2621 1.06415E+02 9.84514E+00 0.00000E+00
 -1      2622 7.79400E+00 3.52687E+01 0.00000E+00
 -1      2623 6.49500E+00 3.60062E+01 0.00000E+00
 -1      2624 6.49500E+00 3.74750E+01 0.00000E+00
 -1      2625 1.45350E+01 6.60425E+00 0.00000E+00
 -1      2626 6.40575E+00 7.49481E+00 0.00000E+00
 -1      2627 6.52725E+00 3.87101E+01 0.00000E+00
 -1      2628 6.52725E+00 4.01789E+01 0.00000E+00
 -1      2629 7.89075E+00 4.04429E+01 0.00000E+00
 -1      2630 7.82625E+00 3.79726E+01 0.00000E+00
 -1      2631 1.11324E+02 2.86848E+01 0.00000E+00
 -1      2632 1.00965E+02 3.13958E+01 0.00000E+00
 -1      2633 1.10614E+02 1.18185E+01 0.00000E+00
 -1      2634 1.14453E+02 1.81637E+01 0.00000E+00
 -1      2635 1.13478E+02 2.48173E+01 0.00000E+00
 -1      2636 1.43586E+02 6.56853E+00 0.00000E+00
 -1      2637 1.43419E+02 7.72713E+00 0.00000E+00
 -1      2638 9.33132E+01 2.61566E+01 0.00000E+00
 -1      2639 1.14902E+02 2.05340E+01 0.00000E+00
 -1      2640 7.70475E+00 8.23231E+00 0.00000E+00
 -1      2641 1.12154E+02 1.37756E+01 0.00000E+00
 -1      2642 1.12949E+02 1.40049E+01 0.00000E+00
 -1      2643 1.12393E+02 1.28336E+01 0.00000E+00
 -1      2644 9.24310E+01 2.36826E+01 0.00000E+00
 -1      2645 1.13335E+02 1.60262E+01 0.00000E+00
 -1      2646 1.14378E+02 2.28705E+01 0.00000E+00
 -1      2647 1.03195E+02 3.15769E+01 0.00000E+00
 -1      2648 9.23130E+01 2.13652E+01 0.00000E+00
 -1      2649 9.40051E+01 1.47856E+01 0.00000E+00
 -1      2650 9.22992E+01 1.74966E+01 0.00000E+00
 -1      2651 9.30312E+01 1.70972E+01 0.00000E+00
 -1      2652 9.26423E+01 1.62109E+01 0.00000E+00
 -1      2653 9.66689E+01 2.95306E+01 0.00000E+00
 -1      2654 1.01473E+02 9.39269E+00 0.00000E+00
 -1      2655 9.92636E+01 1.02231E+01 0.00000E+00
 -1      2656 1.05195E+02 3.14738E+01 0.00000E+00
 -1      2657 9.70687E+01 1.14324E+01 0.00000E+00
 -1      2658 1.42758E+02 4.35929E+01 0.00000E+00
 -1      2659 1.43241E+02 4.17323E+01 0.00000E+00
 -1      2660 1.41942E+02 4.09948E+01 0.00000E+00
 -1      2661 1.41414E+02 4.35342E+01 0.00000E+00
 -1      2662 1.08549E+02 1.06436E+01 0.00000E+00
 -1      2663 1.03950E+02 9.23388E+00 0.00000E+00
 -1      2664 9.24926E+01 1.93441E+01 0.00000E+00
 -1      2665 9.86352E+01 3.07671E+01 0.00000E+00
 -1      2666 1.09349E+02 3.01138E+01 0.00000E+00
 -1      2667 1.12656E+02 2.67467E+01 0.00000E+00
 -1      2668 1.42120E+02 8.46463E+00 0.00000E+00
 -1      2669 1.40664E+02 4.22352E+01 0.00000E+00
 -1      2670 9.09300E+00 1.98250E+01 0.00000E+00
 -1      2671 9.09300E+00 2.12750E+01 0.00000E+00
 -1      2672 9.09300E+00 2.27500E+01 0.00000E+00
 -1      2673 9.09300E+00 2.42250E+01 0.00000E+00
 -1      2674 1.03920E+01 2.20250E+01 0.00000E+00
 -1      2675 9.09300E+00 1.39375E+01 0.00000E+00
 -1      2676 9.09300E+00 1.54125E+01 0.00000E+00
 -1      2677 9.09300E+00 1.09875E+01 0.00000E+00
 -1      2678 9.09300E+00 1.24625E+01 0.00000E+00
 -1      2679 1.03920E+01 1.32000E+01 0.00000E+00
 -1      2680 1.22850E+01 7.90325E+00 0.00000E+00
 -1      2681 1.07850E+01 7.90325E+00 0.00000E+00
 -1      2682 1.14945E+02 1.72891E+01 0.00000E+00
 -1      2683 1.15440E+02 1.83473E+01 0.00000E+00
 -1      2684 1.01502E+02 3.23908E+01 0.00000E+00
 -1      2685 1.00255E+02 3.22755E+01 0.00000E+00
 -1      2686 1.44000E+01 4.09070E+01 0.00000E+00
 -1      2687 1.59000E+01 4.09070E+01 0.00000E+00
 -1      2688 1.74000E+01 4.09070E+01 0.00000E+00
 -1      2689 1.89000E+01 4.09070E+01 0.00000E+00
 -1      2690 1.66500E+01 3.96080E+01 0.00000E+00
 -1      2691 2.04000E+01 4.09070E+01 0.00000E+00
 -1      2692 2.19000E+01 4.09070E+01 0.00000E+00
 -1      2693 1.96500E+01 3.96080E+01 0.00000E+00
 -1      2694 2.34000E+01 4.09070E+01 0.00000E+00
 -1      2695 2.49000E+01 4.09070E+01 0.00000E+00
 -1      2696 2.26500E+01 3.96080E+01 0.00000E+00
 -1      2697 2.64000E+01 4.09070E+01 0.00000E+00
 -1      2698 2.79000E+01 4.09070E+01 0.00000E+00
 -1      2699 2.56500E+01 3.96080E+01 0.00000E+00
 -1      2700 2.94000E+01 4.09070E+01 0.00000E+00
 -1      2701 3.09000E+01 4.09070E+01 0.00000E+00
 -1      2702 2.86500E+01 3.96080E+01 0.00000E+00
 -1      2703 3.24000E+01 4.09070E+01 0.00000E+00
 -1      2704 3.39000E+01 4.09070E+01 0.00000E+00
 -1      2705 3.16500E+01 3.96080E+01 0.00000E+00
 -1      2706 3.54000E+01 4.09070E+01 0.00000E+00
 -1      2707 3.69000E+01 4.09070E+01 0.00000E+00
 -1      2708 3.46500E+01 3.96080E+01 0.00000E+00
 -1      2709 3.84000E+01 4.09070E+01 0.00000E+00
 -1      2710 3.99000E+01 4.09070E+01 0.00000E+00
 -1      2711 3.76500E+01 3.96080E+01 0.00000E+00
 -1      2712 4.14000E+01 4.09070E+01 0.00000E+00
 -1      2713 4.29000E+01 4.09070E+01 0.00000E+00
 -1      2714 4.06500E+01 3.96080E+01 0.00000E+00
 -1      2715 4.44000E+01 4.09070E+01 0.00000E+00
 -1      2716 4.59000E+01 4.09070E+01 0.00000E+00
 -1      2717 4.36500E+01 3.96080E+01 0.00000E+00
 -1      2718 4.74000E+01 4.09070E+01 0.00000E+00
 -1      2719 4.89000E+01 4.09070E+01 0.00000E+00
 -1      2720 4.66500E+01 3.96080E+01 0.00000E+00
 -1      2721 5.04000E+01 4.09070E+01 0.00000E+00
 -1      2722 5.19000E+01 4.09070E+01 0.00000E+00
 -1      2723 4.96500E+01 3.96080E+01 0.00000E+00
 -1      2724 5.34000E+01 4.09070E+01 0.00000E+00
 -1      2725 5.49000E+01 4.09070E+01 0.00000E+00
 -1      2726 5.26500E+01 3.96080E+01 0.00000E+00
 -1      2727 5.64000E+01 4.09070E+01 0.00000E+00
 -1      2728 5.79000E+01 4.09070E+01 0.00000E+00
 -1      2729 5.56500E+01 3.96080E+01 0.00000E+00
 -1      2730 5.94000E+01 4.09070E+01 0.00000E+00
 -1      2731 6.09000E+01 4.09070E+01 0.00000E+00
 -1      2732 5.86500E+01 3.96080E+01 0.00000E+00
 -1      2733 6.24000E+01 4.09070E+01 0.00000E+00
 -1      2734 6.39000E+01 4.09070E+01 0.00000E+00
 -1      2735 6.16500E+01 3.96080E+01 0.00000E+00
 -1      2736 6.54000E+01 4.09070E+01 0.00000E+00
 -1      2737 6.69000E+01 4.09070E+01 0.00000E+00
 -1      2738 6.46500E+01 3.96080E+01 0.00000E+00
 -1      2739 6.84000E+01 4.09070E+01 0.00000E+00
 -1      2740 6.99000E+01 4.09070E+01 0.00000E+00
 -1      2741 6.76500E+01 3.96080E+01 0.00000E+00
 -1      2742 7.14000E+01 4.09070E+01 0.00000E+00
 -1      2743 7.29000E+01 4.09070E+01 0.00000E+00
 -1      2744 7.06500E+01 3.96080E+01 0.00000E+00
 -1      2745 7.44000E+01 4.09070E+01 0.00000E+00
 -1      2746 7.59000E+01 4.09070E+01 0.00000E+00
 -1      2747 7.36500E+01 3.96080E+01 0.00000E+00
 -1      2748 7.74000E+01 4.09070E+01 0.00000E+00
 -1      2749 7.89000E+01 4.09070E+01 0.00000E+00
 -1      2750 7.66500E+01 3.96080E+01 0.00000E+00
 -1      2751 8.04000E+01 4.09070E+01 0.00000E+00
 -1      2752 8.19000E+01 4.09070E+01 0.00000E+00
 -1      2753 7.96500E+01 3.96080E+01 0.00000E+00
 -1      2754 8.34000E+01 4.09070E+01 0.00000E+00
 -1      2755 8.49000E+01 4.09070E+01 0.00000E+00
 -1      2756 8.26500E+01 3.96080E+01 0.00000E+00
 -1      2757 8.64000E+01 4.09070E+01 0.00000E+00
 -1      2758 8.79000E+01 4.09070E+01 0.00000E+00
 -1      2759 8.56500E+01 3.96080E+01 0.00000E+00
 -1      2760 8.94000E+01 4.09070E+01 0.00000E+00
 -1      2761 9.09000E+01 4.09070E+01 0.00000E+00
 -1      2762 8.86500E+01 3.96080E+01 0.00000E+00
 -1      2763 9.24000E+01 4.09070E+01 0.00000E+00
 -1      2764 9.39000E+01 4.09070E+01 0.00000E+00
 -1      2765 9.16500E+01 3.96080E+01 0.00000E+00
 -1      2766 9.54000E+01 4.09070E+01 0.00000E+00
 -1      2767 9.69000E+01 4.09070E+01 0.00000E+00
 -1      2768 9.46500E+01 3.96080E+01 0.00000E+00
 -1      2769 9.84000E+01 4.09070E+01 0.00000E+00
 -1      2770 9.99000E+01 4.09070E+01 0.00000E+00
 -1      2771 9.76500E+01 3.96080E+01 0.00000E+00
 -1      2772 1.01400E+02 4.09070E+01 0.00000E+00
 -1      2773 1.02900E+02 4.09070E+01 0.00000E+00
 -1      2774 1.00650E+02 3.96080E+01 0.00000E+00
 -1      2775 1.04400E+02 4.09070E+01 0.00000E+00
 -1      2776 1.05900E+02 4.09070E+01 0.00000E+00
 -1      2777 1.03650E+02 3.96080E+01 0.00000E+00
 -1      2778 1.07400E+02 4.09070E+01 0.00000E+00
 -1      2779 1.08900E+02 4.09070E+01 0.00000E+00
 -1      2780 1.06650E+02 3.96080E+01 0.00000E+00
 -1      2781 1.10400E+02 4.09070E+01 0.00000E+00
 -1      2782 1.11900E+02 4.09070E+01 0.00000E+00
 -1      2783 1.09650E+02 3.96080E+01 0.00000E+00
 -1      2784 1.13400E+02 4.09070E+01 0.00000E+00
 -1      2785 1.14900E+02 4.09070E+01 0.00000E+00
 -1      2786 1.12650E+02 3.96080E+01 0.00000E+00
 -1      2787 1.16400E+02 4.09070E+01 0.00000E+00
 -1      2788 1.17900E+02 4.09070E+01 0.00000E+00
 -1      2789 1.15650E+02 3.96080E+01 0.00000E+00
 -1      2790 1.19400E+02 4.09070E+01 0.00000E+00
 -1      2791 1.20900E+02 4.09070E+01 0.00000E+00
 -1      2792 1.18650E+02 3.96080E+01 0.00000E+00
 -1      2793 1.22400E+02 4.09070E+01 0.00000E+00
 -1      2794 1.23900E+02 4.09070E+01 0.00000E+00
 -1      2795 1.21650E+02 3.96080E+01 0.00000E+00
 -1      2796 1.25400E+02 4.09070E+01 0.00000E+00
 -1      2797 1.26900E+02 4.09070E+01 0.00000E+00
 -1      2798 1.24650E+02 3.96080E+01 0.00000E+00
 -1      2799 1.28400E+02 4.09070E+01 0.00000E+00
 -1      2800 1.29900E+02 4.09070E+01 0.00000E+00
 -1      2801 1.27650E+02 3.96080E+01 0.00000E+00
 -1      2802 1.31400E+02 4.09070E+01 0.00000E+00
 -1      2803 1.32900E+02 4.09070E+01 0.00000E+00
 -1      2804 1.30650E+02 3.96080E+01 0.00000E+00
 -1      2805 1.34400E+02 4.09070E+01 0.00000E+00
 -1      2806 1.35900E+02 4.09070E+01 0.00000E+00
 -1      2807 1.33650E+02 3.96080E+01 0.00000E+00
 -1      2808 1.37400E+02 4.09070E+01 0.00000E+00
 -1      2809 1.38900E+02 4.09070E+01 0.00000E+00
 -1      2810 1.36650E+02 3.96080E+01 0.00000E+00
 -1      2811 2.42850E+01 7.90325E+00 0.00000E+00
 -1      2812 2.27850E+01 7.90325E+00 0.00000E+00
 -1      2813 1.08299E+02 9.64207E+00 0.00000E+00
 -1      2814 1.09381E+02 1.00313E+01 0.00000E+00
 -1      2815 9.47533E+01 2.91669E+01 0.00000E+00
 -1      2816 9.39074E+01 2.84498E+01 0.00000E+00
 -1      2817 2.12850E+01 7.90325E+00 0.00000E+00
 -1      2818 1.97850E+01 7.90325E+00 0.00000E+00
 -1      2819 2.20350E+01 9.20225E+00 0.00000E+00
 -1      2820 3.02850E+01 7.90325E+00 0.00000E+00
 -1      2821 2.87850E+01 7.90325E+00 0.00000E+00
 -1      2822 3.32850E+01 7.90325E+00 0.00000E+00
 -1      2823 3.17850E+01 7.90325E+00 0.00000E+00
 -1      2824 3.10350E+01 9.20225E+00 0.00000E+00
 -1      2825 3.62850E+01 7.90325E+00 0.00000E+00
 -1      2826 3.47850E+01 7.90325E+00 0.00000E+00
 -1      2827 3.40350E+01 9.20225E+00 0.00000E+00
 -1      2828 3.92850E+01 7.90325E+00 0.00000E+00
 -1      2829 3.77850E+01 7.90325E+00 0.00000E+00
 -1      2830 3.70350E+01 9.20225E+00 0.00000E+00
 -1      2831 4.22850E+01 7.90325E+00 0.00000E+00
 -1      2832 4.07850E+01 7.90325E+00 0.00000E+00
 -1      2833 4.00350E+01 9.20225E+00 0.00000E+00
 -1      2834 4.52850E+01 7.90325E+00 0.00000E+00
 -1      2835 4.37850E+01 7.90325E+00 0.00000E+00
 -1      2836 4.30350E+01 9.20225E+00 0.00000E+00
 -1      2837 4.82850E+01 7.90325E+00 0.00000E+00
 -1      2838 4.67850E+01 7.90325E+00 0.00000E+00
 -1      2839 4.60350E+01 9.20225E+00 0.00000E+00
 -1      2840 5.12850E+01 7.90325E+00 0.00000E+00
 -1      2841 4.97850E+01 7.90325E+00 0.00000E+00
 -1      2842 4.90350E+01 9.20225E+00 0.00000E+00
 -1      2843 5.42850E+01 7.90325E+00 0.00000E+00
 -1      2844 5.27850E+01 7.90325E+00 0.00000E+00
 -1      2845 5.20350E+01 9.20225E+00 0.00000E+00
 -1      2846 5.72850E+01 7.90325E+00 0.00000E+00
 -1      2847 5.57850E+01 7.90325E+00 0.00000E+00
 -1      2848 5.50350E+01 9.20225E+00 0.00000E+00
 -1      2849 6.02850E+01 7.90325E+00 0.00000E+00
 -1      2850 5.87850E+01 7.90325E+00 0.00000E+00
 -1      2851 5.80350E+01 9.20225E+00 0.00000E+00
 -1      2852 6.32850E+01 7.90325E+00 0.00000E+00
 -1      2853 6.17850E+01 7.90325E+00 0.00000E+00
 -1      2854 6.10350E+01 9.20225E+00 0.00000E+00
 -1      2855 6.62850E+01 7.90325E+00 0.00000E+00
 -1      2856 6.47850E+01 7.90325E+00 0.00000E+00
 -1      2857 6.40350E+01 9.20225E+00 0.00000E+00
 -1      2858 6.92850E+01 7.90325E+00 0.00000E+00
 -1      2859 6.77850E+01 7.90325E+00 0.00000E+00
 -1      2860 6.70350E+01 9.20225E+00 0.00000E+00
 -1      2861 7.22850E+01 7.90325E+00 0.00000E+00
 -1      2862 7.07850E+01 7.90325E+00 0.00000E+00
 -1      2863 7.00350E+01 9.20225E+00 0.00000E+00
 -1      2864 7.52850E+01 7.90325E+00 0.00000E+00
 -1      2865 7.37850E+01 7.90325E+00 0.00000E+00
 -1      2866 7.30350E+01 9.20225E+00 0.00000E+00
 -1      2867 7.82850E+01 7.90325E+00 0.00000E+00
 -1      2868 7.67850E+01 7.90325E+00 0.00000E+00
 -1      2869 7.60350E+01 9.20225E+00 0.00000E+00
 -1      2870 8.12850E+01 7.90325E+00 0.00000E+00
 -1      2871 7.97850E+01 7.90325E+00 0.00000E+00
 -1      2872 7.90350E+01 9.20225E+00 0.00000E+00
 -1      2873 8.42850E+01 7.90325E+00 0.00000E+00
 -1      2874 8.27850E+01 7.90325E+00 0.00000E+00
 -1      2875 8.20350E+01 9.20225E+00 0.00000E+00
 -1      2876 8.72850E+01 7.90325E+00 0.00000E+00
 -1      2877 8.57850E+01 7.90325E+00 0.00000E+00
 -1      2878 8.50350E+01 9.20225E+00 0.00000E+00
 -1      2879 9.02850E+01 7.90325E+00 0.00000E+00
 -1      2880 8.87850E+01 7.90325E+00 0.00000E+00
 -1      2881 8.80350E+01 9.20225E+00 0.00000E+00
 -1      2882 9.32850E+01 7.90325E+00 0.00000E+00
 -1      2883 9.17850E+01 7.90325E+00 0.00000E+00
 -1      2884 9.10350E+01 9.20225E+00 0.00000E+00
 -1      2885 9.92850E+01 7.71316E+00 0.00000E+00
 -1      2886 9.77850E+01 7.71316E+00 0.00000E+00
 -1      2887 1.02787E+02 7.81804E+00 0.00000E+00
 -1      2888 1.01287E+02 7.81804E+00 0.00000E+00
 -1      2889 1.05698E+02 8.02009E+00 0.00000E+00
 -1      2890 1.04198E+02 8.02009E+00 0.00000E+00
 -1      2891 1.09083E+02 7.81702E+00 0.00000E+00
 -1      2892 1.07583E+02 7.81702E+00 0.00000E+00
 -1      2893 1.10583E+02 7.81702E+00 0.00000E+00
 -1      2894 1.14285E+02 7.90325E+00 0.00000E+00
 -1      2895 1.12785E+02 7.90325E+00 0.00000E+00
 -1      2896 1.17285E+02 7.90325E+00 0.00000E+00
 -1      2897 1.15785E+02 7.90325E+00 0.00000E+00
 -1      2898 1.15035E+02 9.20225E+00 0.00000E+00
 -1      2899 1.20285E+02 7.90325E+00 0.00000E+00
 -1      2900 1.18785E+02 7.90325E+00 0.00000E+00
 -1      2901 1.18035E+02 9.20225E+00 0.00000E+00
 -1      2902 1.23285E+02 7.90325E+00 0.00000E+00
 -1      2903 1.21785E+02 7.90325E+00 0.00000E+00
 -1      2904 1.21035E+02 9.20225E+00 0.00000E+00
 -1      2905 1.26285E+02 7.90325E+00 0.00000E+00
 -1      2906 1.24785E+02 7.90325E+00 0.00000E+00
 -1      2907 1.24035E+02 9.20225E+00 0.00000E+00
 -1      2908 1.29285E+02 7.90325E+00 0.00000E+00
 -1      2909 1.27785E+02 7.90325E+00 0.00000E+00
 -1      2910 1.27035E+02 9.20225E+00 0.00000E+00
 -1      2911 1.32285E+02 7.90325E+00 0.00000E+00
 -1      2912 1.30785E+02 7.90325E+00 0.00000E+00
 -1      2913 1.30035E+02 9.20225E+00 0.00000E+00
 -1      2914 1.35285E+02 7.90325E+00 0.00000E+00
 -1      2915 1.33785E+02 7.90325E+00 0.00000E+00
 -1      2916 1.33035E+02 9.20225E+00 0.00000E+00
 -1      2917 1.38285E+02 7.90325E+00 0.00000E+00
 -1      2918 1.36785E+02 7.90325E+00 0.00000E+00
 -1      2919 1.36035E+02 9.20225E+00 0.00000E+00
 -1      2920 1.40953E+02 8.18394E+00 0.00000E+00
 -1      2921 1.39453E+02 8.18394E+00 0.00000E+00
 -1      2922 1.38703E+02 9.48294E+00 0.00000E+00
 -1      2923 1.41038E+02 1.00443E+01 0.00000E+00
 -1      2924 1.40907E+02 2.42875E+01 0.00000E+00
 -1      2925 1.40907E+02 2.28125E+01 0.00000E+00
 -1      2926 1.39914E+02 4.09362E+01 0.00000E+00
 -1      2927 1.40928E+02 4.09655E+01 0.00000E+00
 -1      2928 1.39164E+02 3.96372E+01 0.00000E+00
 -1      2929 1.40907E+02 1.83875E+01 0.00000E+00
 -1      2930 1.40907E+02 1.69125E+01 0.00000E+00
 -1      2931 1.40907E+02 2.72375E+01 0.00000E+00
 -1      2932 1.40907E+02 2.57625E+01 0.00000E+00
 -1      2933 1.39608E+02 2.50250E+01 0.00000E+00
 -1      2934 1.40907E+02 2.13375E+01 0.00000E+00
 -1      2935 1.40907E+02 1.98625E+01 0.00000E+00
 -1      2936 1.39608E+02 1.91250E+01 0.00000E+00
 -1      2937 1.39608E+02 2.20750E+01 0.00000E+00
 -1      2938 1.82850E+01 7.90325E+00 0.00000E+00
 -1      2939 1.67850E+01 7.90325E+00 0.00000E+00
 -1      2940 1.90350E+01 9.20225E+00 0.00000E+00
 -1      2941 1.40907E+02 3.01375E+01 0.00000E+00
 -1      2942 1.40907E+02 2.86875E+01 0.00000E+00
 -1      2943 1.39608E+02 2.79500E+01 0.00000E+00
 -1      2944 1.40907E+02 3.30875E+01 0.00000E+00
 -1      2945 1.40907E+02 3.16125E+01 0.00000E+00
 -1      2946 1.39608E+02 3.08750E+01 0.00000E+00
 -1      2947 1.40907E+02 3.60375E+01 0.00000E+00
 -1      2948 1.40907E+02 3.45625E+01 0.00000E+00
 -1      2949 1.39608E+02 3.38250E+01 0.00000E+00
 -1      2950 1.14431E+02 2.46950E+01 0.00000E+00
 -1      2951 1.14009E+02 2.56175E+01 0.00000E+00
 -1      2952 8.91450E+00 8.42712E+00 0.00000E+00
 -1      2953 9.16274E+01 2.43809E+01 0.00000E+00
 -1      2954 9.15251E+01 2.31234E+01 0.00000E+00
 -1      2955 1.03467E+02 3.25223E+01 0.00000E+00
 -1      2956 1.02484E+02 3.24565E+01 0.00000E+00
 -1      2957 1.01774E+02 3.33362E+01 0.00000E+00
 -1      2958 1.12456E+02 2.88846E+01 0.00000E+00
 -1      2959 1.11525E+02 2.98158E+01 0.00000E+00
 -1      2960 9.29812E+01 2.72277E+01 0.00000E+00
 -1      2961 9.22013E+01 2.60112E+01 0.00000E+00
 -1      2962 9.13796E+01 2.19092E+01 0.00000E+00
 -1      2963 9.13638E+01 2.08493E+01 0.00000E+00
 -1      2964 9.65211E+01 3.06132E+01 0.00000E+00
 -1      2965 9.56372E+01 2.98901E+01 0.00000E+00
 -1      2966 9.46055E+01 3.02495E+01 0.00000E+00
 -1      2967 9.83271E+01 9.75740E+00 0.00000E+00
 -1      2968 9.94715E+01 9.28781E+00 0.00000E+00
 -1      2969 2.72850E+01 7.90325E+00 0.00000E+00
 -1      2970 2.57850E+01 7.90325E+00 0.00000E+00
 -1      2971 2.50350E+01 9.20225E+00 0.00000E+00
 -1      2972 2.80350E+01 9.20225E+00 0.00000E+00
 -1      2973 1.14000E+01 4.09070E+01 0.00000E+00
 -1      2974 1.29000E+01 4.09070E+01 0.00000E+00
 -1      2975 1.36500E+01 3.96080E+01 0.00000E+00
 -1      2976 1.15387E+02 2.26462E+01 0.00000E+00
 -1      2977 1.14909E+02 2.36706E+01 0.00000E+00
 -1      2978 1.15440E+02 2.44708E+01 0.00000E+00
 -1      2979 1.52850E+01 7.90325E+00 0.00000E+00
 -1      2980 1.37850E+01 7.90325E+00 0.00000E+00
 -1      2981 1.30350E+01 9.20225E+00 0.00000E+00
 -1      2982 1.60350E+01 9.20225E+00 0.00000E+00
 -1      2983 1.05872E+02 3.24007E+01 0.00000E+00
 -1      2984 1.04854E+02 3.25695E+01 0.00000E+00
 -1      2985 9.09300E+00 1.68813E+01 0.00000E+00
 -1      2986 9.09300E+00 1.83563E+01 0.00000E+00
 -1      2987 1.03920E+01 1.90812E+01 0.00000E+00
 -1      2988 1.03920E+01 1.61437E+01 0.00000E+00
 -1      2989 1.41192E+02 3.96958E+01 0.00000E+00
 -1      2990 1.10710E+02 1.06902E+01 0.00000E+00
 -1      2991 1.11694E+02 1.14760E+01 0.00000E+00
 -1      2992 9.09300E+00 3.15875E+01 0.00000E+00
 -1      2993 9.09300E+00 3.30625E+01 0.00000E+00
 -1      2994 9.43347E+01 1.27996E+01 0.00000E+00
 -1      2995 9.50259E+01 1.20058E+01 0.00000E+00
 -1      2996 9.88089E+01 3.17986E+01 0.00000E+00
 -1      2997 9.77265E+01 3.12852E+01 0.00000E+00
 -1      2998 9.29949E+01 1.48714E+01 0.00000E+00
 -1      2999 9.36256E+01 1.38454E+01 0.00000E+00
 -1      3000 1.13765E+02 1.50575E+01 0.00000E+00
 -1      3001 1.14389E+02 1.61368E+01 0.00000E+00
 -1      3002 1.15866E+02 1.99109E+01 0.00000E+00
 -1      3003 1.15820E+02 2.12230E+01 0.00000E+00
 -1      3004 9.14725E+01 1.96372E+01 0.00000E+00
 -1      3005 9.16679E+01 1.86760E+01 0.00000E+00
 -1      3006 1.10276E+02 3.07148E+01 0.00000E+00
 -1      3007 1.09231E+02 3.12126E+01 0.00000E+00
 -1      3008 9.59533E+01 1.09641E+01 0.00000E+00
 -1      3009 9.70038E+01 1.02244E+01 0.00000E+00
 -1      3010 1.08051E+02 3.15989E+01 0.00000E+00
 -1      3011 1.07006E+02 3.19456E+01 0.00000E+00
 -1      3012 8.96362E+00 4.05429E+01 0.00000E+00
 -1      3013 1.03271E+01 4.08069E+01 0.00000E+00
 -1      3014 1.10771E+01 3.95079E+01 0.00000E+00
 -1      3015 8.93137E+00 3.93078E+01 0.00000E+00
 -1      3016 1.13608E+02 2.66244E+01 0.00000E+00
 -1      3017 1.13208E+02 2.76313E+01 0.00000E+00
 -1      3018 1.14561E+02 2.65021E+01 0.00000E+00
 -1      3019 9.09300E+00 3.45313E+01 0.00000E+00
 -1      3020 9.09300E+00 3.60000E+01 0.00000E+00
 -1      3021 1.03920E+01 3.37938E+01 0.00000E+00
 -1      3022 1.03920E+01 2.49750E+01 0.00000E+00
 -1      3023 9.09300E+00 2.57000E+01 0.00000E+00
 -1      3024 9.09300E+00 2.71750E+01 0.00000E+00
 -1      3025 1.06664E+02 3.30413E+01 0.00000E+00
 -1      3026 1.16849E+02 1.81616E+01 0.00000E+00
 -1      3027 1.16357E+02 1.90363E+01 0.00000E+00
 -1      3028 1.17275E+02 1.97253E+01 0.00000E+00
 -1      3029 1.14004E+02 1.41154E+01 0.00000E+00
 -1      3030 9.93458E+01 3.27936E+01 0.00000E+00
 -1      3031 1.41192E+02 3.82207E+01 0.00000E+00
 -1      3032 1.39608E+02 1.61875E+01 0.00000E+00
 -1      3033 1.40907E+02 1.54500E+01 0.00000E+00
 -1      3034 1.40907E+02 1.39875E+01 0.00000E+00
 -1      3035 1.10460E+02 9.68874E+00 0.00000E+00
 -1      3036 9.27955E+01 2.83043E+01 0.00000E+00
 -1      3037 9.49617E+01 8.18014E+00 0.00000E+00
 -1      3038 9.42117E+01 9.47914E+00 0.00000E+00
 -1      3039 1.00221E+02 8.17890E+00 0.00000E+00
 -1      3040 9.64617E+01 8.18014E+00 0.00000E+00
 -1      3041 1.40973E+02 1.27472E+01 0.00000E+00
 -1      3042 1.40973E+02 1.12847E+01 0.00000E+00
 -1      3043 1.39805E+02 1.10040E+01 0.00000E+00
 -1      3044 1.39674E+02 1.34847E+01 0.00000E+00
 -1      3045 1.04143E+02 3.34492E+01 0.00000E+00
 -1      3046 1.08978E+02 3.21999E+01 0.00000E+00
 -1      3047 9.49610E+01 1.07978E+01 0.00000E+00
 -1      3048 1.39893E+02 3.74832E+01 0.00000E+00
 -1      3049 1.11407E+02 3.09146E+01 0.00000E+00
 -1      3050 9.66450E+00 9.72612E+00 0.00000E+00
 -1      3051 9.05391E+01 2.01811E+01 0.00000E+00
 -1      3052 9.66948E+01 3.16447E+01 0.00000E+00
 -1      3053 9.12954E+01 2.54520E+01 0.00000E+00
 -1      3054 9.03896E+01 2.48927E+01 0.00000E+00
 -1      3055 9.09634E+01 2.65230E+01 0.00000E+00
 -1      3056 9.05760E+01 2.26074E+01 0.00000E+00
 -1      3057 1.13408E+02 2.87623E+01 0.00000E+00
 -1      3058 9.12790E+01 1.77896E+01 0.00000E+00
 -1      3059 1.12662E+02 9.77497E+00 0.00000E+00
 -1      3060 1.11912E+02 8.47597E+00 0.00000E+00
 -1      3061 9.72117E+01 9.28905E+00 0.00000E+00
 -1      3062 1.07246E+02 9.23285E+00 0.00000E+00
 -1      3063 9.22628E+01 1.52707E+01 0.00000E+00
 -1      3064 9.18833E+01 1.43306E+01 0.00000E+00
 -1      3065 9.15308E+01 1.56701E+01 0.00000E+00
 -1      3066 1.16351E+02 2.20231E+01 0.00000E+00
 -1      3067 9.09300E+00 2.86437E+01 0.00000E+00
 -1      3068 9.09300E+00 3.01187E+01 0.00000E+00
 -1      3069 1.03920E+01 3.08563E+01 0.00000E+00
 -1      3070 1.03920E+01 2.79188E+01 0.00000E+00
 -1      3071 9.33245E+01 1.28854E+01 0.00000E+00
 -1      3072 1.15375E+02 1.63203E+01 0.00000E+00
 -1      3073 1.09635E+01 1.04636E+01 0.00000E+00
 -1      3074 8.94638E+01 2.06957E+01 0.00000E+00
 -1      3075 8.95724E+01 1.94836E+01 0.00000E+00
 -1      3076 1.16910E+01 1.24625E+01 0.00000E+00
 -1      3077 1.16910E+01 1.39375E+01 0.00000E+00
 -1      3078 8.99606E+00 3.70363E+01 0.00000E+00
 -1      3079 9.02831E+00 3.82715E+01 0.00000E+00
 -1      3080 1.01012E+01 3.83715E+01 0.00000E+00
 -1      3081 1.02951E+01 3.62988E+01 0.00000E+00
 -1      3082 1.29000E+01 3.83090E+01 0.00000E+00
 -1      3083 1.44000E+01 3.83090E+01 0.00000E+00
 -1      3084 1.89000E+01 3.83090E+01 0.00000E+00
 -1      3085 2.04000E+01 3.83090E+01 0.00000E+00
 -1      3086 2.19000E+01 3.83090E+01 0.00000E+00
 -1      3087 2.34000E+01 3.83090E+01 0.00000E+00
 -1      3088 2.11500E+01 3.70100E+01 0.00000E+00
 -1      3089 2.49000E+01 3.83090E+01 0.00000E+00
 -1      3090 2.64000E+01 3.83090E+01 0.00000E+00
 -1      3091 2.41500E+01 3.70100E+01 0.00000E+00
 -1      3092 2.79000E+01 3.83090E+01 0.00000E+00
 -1      3093 2.94000E+01 3.83090E+01 0.00000E+00
 -1      3094 2.71500E+01 3.70100E+01 0.00000E+00
 -1      3095 3.09000E+01 3.83090E+01 0.00000E+00
 -1      3096 3.24000E+01 3.83090E+01 0.00000E+00
 -1      3097 3.01500E+01 3.70100E+01 0.00000E+00
 -1      3098 3.39000E+01 3.83090E+01 0.00000E+00
 -1      3099 3.54000E+01 3.83090E+01 0.00000E+00
 -1      3100 3.31500E+01 3.70100E+01 0.00000E+00
 -1      3101 3.69000E+01 3.83090E+01 0.00000E+00
 -1      3102 3.84000E+01 3.83090E+01 0.00000E+00
 -1      3103 3.61500E+01 3.70100E+01 0.00000E+00
 -1      3104 3.99000E+01 3.83090E+01 0.00000E+00
 -1      3105 4.14000E+01 3.83090E+01 0.00000E+00
 -1      3106 3.91500E+01 3.70100E+01 0.00000E+00
 -1      3107 4.29000E+01 3.83090E+01 0.00000E+00
 -1      3108 4.44000E+01 3.83090E+01 0.00000E+00
 -1      3109 4.21500E+01 3.70100E+01 0.00000E+00
 -1      3110 4.59000E+01 3.83090E+01 0.00000E+00
 -1      3111 4.74000E+01 3.83090E+01 0.00000E+00
 -1      3112 4.51500E+01 3.70100E+01 0.00000E+00
 -1      3113 4.89000E+01 3.83090E+01 0.00000E+00
 -1      3114 5.04000E+01 3.83090E+01 0.00000E+00
 -1      3115 4.81500E+01 3.70100E+01 0.00000E+00
 -1      3116 5.19000E+01 3.83090E+01 0.00000E+00
 -1      3117 5.34000E+01 3.83090E+01 0.00000E+00
 -1      3118 5.11500E+01 3.70100E+01 0.00000E+00
 -1      3119 5.49000E+01 3.83090E+01 0.00000E+00
 -1      3120 5.64000E+01 3.83090E+01 0.00000E+00
 -1      3121 5.41500E+01 3.70100E+01 0.00000E+00
 -1      3122 5.79000E+01 3.83090E+01 0.00000E+00
 -1      3123 5.94000E+01 3.83090E+01 0.00000E+00
 -1      3124 5.71500E+01 3.70100E+01 0.00000E+00
 -1      3125 6.09000E+01 3.83090E+01 0.00000E+00
 -1      3126 6.24000E+01 3.83090E+01 0.00000E+00
 -1      3127 6.01500E+01 3.70100E+01 0.00000E+00
 -1      3128 6.39000E+01 3.83090E+01 0.00000E+00
 -1      3129 6.54000E+01 3.83090E+01 0.00000E+00
 -1      3130 6.31500E+01 3.70100E+01 0.00000E+00
 -1      3131 6.69000E+01 3.83090E+01 0.00000E+00
 -1      3132 6.84000E+01 3.83090E+01 0.00000E+00
 -1      3133 6.61500E+01 3.70100E+01 0.00000E+00
 -1      3134 6.99000E+01 3.83090E+01 0.00000E+00
 -1      3135 7.14000E+01 3.83090E+01 0.00000E+00
 -1      3136 6.91500E+01 3.70100E+01 0.00000E+00
 -1      3137 7.29000E+01 3.83090E+01 0.00000E+00
 -1      3138 7.44000E+01 3.83090E+01 0.00000E+00
 -1      3139 7.21500E+01 3.70100E+01 0.00000E+00
 -1      3140 7.59000E+01 3.83090E+01 0.00000E+00
 -1      3141 7.74000E+01 3.83090E+01 0.00000E+00
 -1      3142 7.51500E+01 3.70100E+01 0.00000E+00
 -1      3143 7.89000E+01 3.83090E+01 0.00000E+00
 -1      3144 8.04000E+01 3.83090E+01 0.00000E+00
 -1      3145 7.81500E+01 3.70100E+01 0.00000E+00
 -1      3146 8.19000E+01 3.83090E+01 0.00000E+00
 -1      3147 8.34000E+01 3.83090E+01 0.00000E+00
 -1      3148 8.11500E+01 3.70100E+01 0.00000E+00
 -1      3149 8.49000E+01 3.83090E+01 0.00000E+00
 -1      3150 8.64000E+01 3.83090E+01 0.00000E+00
 -1      3151 8.41500E+01 3.70100E+01 0.00000E+00
 -1      3152 8.79000E+01 3.83090E+01 0.00000E+00
 -1      3153 8.94000E+01 3.83090E+01 0.00000E+00
 -1      3154 8.71500E+01 3.70100E+01 0.00000E+00
 -1      3155 9.09000E+01 3.83090E+01 0.00000E+00
 -1      3156 9.24000E+01 3.83090E+01 0.00000E+00
 -1      3157 9.01500E+01 3.70100E+01 0.00000E+00
 -1      3158 9.39000E+01 3.83090E+01 0.00000E+00
 -1      3159 9.54000E+01 3.83090E+01 0.00000E+00
 -1      3160 9.31500E+01 3.70100E+01 0.00000E+00
 -1      3161 9.69000E+01 3.83090E+01 0.00000E+00
 -1      3162 9.84000E+01 3.83090E+01 0.00000E+00
 -1      3163 9.61500E+01 3.70100E+01 0.00000E+00
 -1      3164 9.99000E+01 3.83090E+01 0.00000E+00
 -1      3165 1.01400E+02 3.83090E+01 0.00000E+00
 -1      3166 9.91500E+01 3.70100E+01 0.00000E+00
 -1      3167 1.02900E+02 3.83090E+01 0.00000E+00
 -1      3168 1.04400E+02 3.83090E+01 0.00000E+00
 -1      3169 1.02150E+02 3.70100E+01 0.00000E+00
 -1      3170 1.05900E+02 3.83090E+01 0.00000E+00
 -1      3171 1.07400E+02 3.83090E+01 0.00000E+00
 -1      3172 1.05150E+02 3.70100E+01 0.00000E+00
 -1      3173 1.08900E+02 3.83090E+01 0.00000E+00
 -1      3174 1.10400E+02 3.83090E+01 0.00000E+00
 -1      3175 1.08150E+02 3.70100E+01 0.00000E+00
 -1      3176 1.11900E+02 3.83090E+01 0.00000E+00
 -1      3177 1.13400E+02 3.83090E+01 0.00000E+00
 -1      3178 1.11150E+02 3.70100E+01 0.00000E+00
 -1      3179 1.14900E+02 3.83090E+01 0.00000E+00
 -1      3180 1.16400E+02 3.83090E+01 0.00000E+00
 -1      3181 1.14150E+02 3.70100E+01 0.00000E+00
 -1      3182 1.17900E+02 3.83090E+01 0.00000E+00
 -1      3183 1.19400E+02 3.83090E+01 0.00000E+00
 -1      3184 1.17150E+02 3.70100E+01 0.00000E+00
 -1      3185 1.20900E+02 3.83090E+01 0.00000E+00
 -1      3186 1.22400E+02 3.83090E+01 0.00000E+00
 -1      3187 1.20150E+02 3.70100E+01 0.00000E+00
 -1      3188 1.23900E+02 3.83090E+01 0.00000E+00
 -1      3189 1.25400E+02 3.83090E+01 0.00000E+00
 -1      3190 1.23150E+02 3.70100E+01 0.00000E+00
 -1      3191 1.26900E+02 3.83090E+01 0.00000E+00
 -1      3192 1.28400E+02 3.83090E+01 0.00000E+00
 -1      3193 1.26150E+02 3.70100E+01 0.00000E+00
 -1      3194 1.29900E+02 3.83090E+01 0.00000E+00
 -1      3195 1.31400E+02 3.83090E+01 0.00000E+00
 -1      3196 1.29150E+02 3.70100E+01 0.00000E+00
 -1      3197 1.32900E+02 3.83090E+01 0.00000E+00
 -1      3198 1.34400E+02 3.83090E+01 0.00000E+00
 -1      3199 1.32150E+02 3.70100E+01 0.00000E+00
 -1      3200 1.35900E+02 3.83090E+01 0.00000E+00
 -1      3201 1.37400E+02 3.83090E+01 0.00000E+00
 -1      3202 1.35150E+02 3.70100E+01 0.00000E+00
 -1      3203 1.15714E+02 2.63779E+01 0.00000E+00
 -1      3204 1.15313E+02 2.73848E+01 0.00000E+00
 -1      3205 1.38309E+02 2.86750E+01 0.00000E+00
 -1      3206 1.38309E+02 2.72250E+01 0.00000E+00
 -1      3207 3.47850E+01 1.05013E+01 0.00000E+00
 -1      3208 3.32850E+01 1.05013E+01 0.00000E+00
 -1      3209 3.17850E+01 1.05013E+01 0.00000E+00
 -1      3210 3.02850E+01 1.05013E+01 0.00000E+00
 -1      3211 3.25350E+01 1.18003E+01 0.00000E+00
 -1      3212 4.07850E+01 1.05013E+01 0.00000E+00
 -1      3213 3.92850E+01 1.05013E+01 0.00000E+00
 -1      3214 4.37850E+01 1.05013E+01 0.00000E+00
 -1      3215 4.22850E+01 1.05013E+01 0.00000E+00
 -1      3216 4.15350E+01 1.18003E+01 0.00000E+00
 -1      3217 4.67850E+01 1.05013E+01 0.00000E+00
 -1      3218 4.52850E+01 1.05013E+01 0.00000E+00
 -1      3219 4.45350E+01 1.18003E+01 0.00000E+00
 -1      3220 4.97850E+01 1.05013E+01 0.00000E+00
 -1      3221 4.82850E+01 1.05013E+01 0.00000E+00
 -1      3222 4.75350E+01 1.18003E+01 0.00000E+00
 -1      3223 5.27850E+01 1.05013E+01 0.00000E+00
 -1      3224 5.12850E+01 1.05013E+01 0.00000E+00
 -1      3225 5.05350E+01 1.18003E+01 0.00000E+00
 -1      3226 5.57850E+01 1.05013E+01 0.00000E+00
 -1      3227 5.42850E+01 1.05013E+01 0.00000E+00
 -1      3228 5.35350E+01 1.18003E+01 0.00000E+00
 -1      3229 5.87850E+01 1.05013E+01 0.00000E+00
 -1      3230 5.72850E+01 1.05013E+01 0.00000E+00
 -1      3231 5.65350E+01 1.18003E+01 0.00000E+00
 -1      3232 6.17850E+01 1.05013E+01 0.00000E+00
 -1      3233 6.02850E+01 1.05013E+01 0.00000E+00
 -1      3234 5.95350E+01 1.18003E+01 0.00000E+00
 -1      3235 6.47850E+01 1.05013E+01 0.00000E+00
 -1      3236 6.32850E+01 1.05013E+01 0.00000E+00
 -1      3237 6.25350E+01 1.18003E+01 0.00000E+00
 -1      3238 6.77850E+01 1.05013E+01 0.00000E+00
 -1      3239 6.62850E+01 1.05013E+01 0.00000E+00
 -1      3240 6.55350E+01 1.18003E+01 0.00000E+00
 -1      3241 7.07850E+01 1.05013E+01 0.00000E+00
 -1      3242 6.92850E+01 1.05013E+01 0.00000E+00
 -1      3243 6.85350E+01 1.18003E+01 0.00000E+00
 -1      3244 7.37850E+01 1.05013E+01 0.00000E+00
 -1      3245 7.22850E+01 1.05013E+01 0.00000E+00
 -1      3246 7.15350E+01 1.18003E+01 0.00000E+00
 -1      3247 7.67850E+01 1.05013E+01 0.00000E+00
 -1      3248 7.52850E+01 1.05013E+01 0.00000E+00
 -1      3249 7.45350E+01 1.18003E+01 0.00000E+00
 -1      3250 7.97850E+01 1.05013E+01 0.00000E+00
 -1      3251 7.82850E+01 1.05013E+01 0.00000E+00
 -1      3252 7.75350E+01 1.18003E+01 0.00000E+00
 -1      3253 8.27850E+01 1.05013E+01 0.00000E+00
 -1      3254 8.12850E+01 1.05013E+01 0.00000E+00
 -1      3255 8.05350E+01 1.18003E+01 0.00000E+00
 -1      3256 8.57850E+01 1.05013E+01 0.00000E+00
 -1      3257 8.42850E+01 1.05013E+01 0.00000E+00
 -1      3258 8.35350E+01 1.18003E+01 0.00000E+00
 -1      3259 8.87850E+01 1.05013E+01 0.00000E+00
 -1      3260 8.72850E+01 1.05013E+01 0.00000E+00
 -1      3261 8.65350E+01 1.18003E+01 0.00000E+00
 -1      3262 1.26488E+01 1.02017E+01 0.00000E+00
 -1      3263 1.20772E+01 1.14631E+01 0.00000E+00
 -1      3264 1.33763E+01 1.22006E+01 0.00000E+00
 -1      3265 1.41488E+01 1.02017E+01 0.00000E+00
 -1      3266 1.18785E+02 1.05013E+01 0.00000E+00
 -1      3267 1.17285E+02 1.05013E+01 0.00000E+00
 -1      3268 1.15724E+02 1.01381E+01 0.00000E+00
 -1      3269 1.14224E+02 1.01381E+01 0.00000E+00
 -1      3270 1.13351E+02 1.07108E+01 0.00000E+00
 -1      3271 1.16474E+02 1.14371E+01 0.00000E+00
 -1      3272 1.24785E+02 1.05013E+01 0.00000E+00
 -1      3273 1.23285E+02 1.05013E+01 0.00000E+00
 -1      3274 1.27785E+02 1.05013E+01 0.00000E+00
 -1      3275 1.26285E+02 1.05013E+01 0.00000E+00
 -1      3276 1.25535E+02 1.18003E+01 0.00000E+00
 -1      3277 1.30785E+02 1.05013E+01 0.00000E+00
 -1      3278 1.29285E+02 1.05013E+01 0.00000E+00
 -1      3279 1.28535E+02 1.18003E+01 0.00000E+00
 -1      3280 1.33785E+02 1.05013E+01 0.00000E+00
 -1      3281 1.32285E+02 1.05013E+01 0.00000E+00
 -1      3282 1.31535E+02 1.18003E+01 0.00000E+00
 -1      3283 1.36785E+02 1.05013E+01 0.00000E+00
 -1      3284 1.35285E+02 1.05013E+01 0.00000E+00
 -1      3285 1.34535E+02 1.18003E+01 0.00000E+00
 -1      3286 1.38879E+02 1.08930E+01 0.00000E+00
 -1      3287 1.37711E+02 1.06123E+01 0.00000E+00
 -1      3288 1.36961E+02 1.19113E+01 0.00000E+00
 -1      3289 1.38813E+02 1.21333E+01 0.00000E+00
 -1      3290 1.16910E+01 2.12875E+01 0.00000E+00
 -1      3291 1.16910E+01 2.27625E+01 0.00000E+00
 -1      3292 1.13255E+02 1.18391E+01 0.00000E+00
 -1      3293 1.97850E+01 1.05013E+01 0.00000E+00
 -1      3294 1.82850E+01 1.05013E+01 0.00000E+00
 -1      3295 1.38309E+02 2.57500E+01 0.00000E+00
 -1      3296 1.38309E+02 2.42750E+01 0.00000E+00
 -1      3297 1.37010E+02 2.64750E+01 0.00000E+00
 -1      3298 1.38309E+02 3.45625E+01 0.00000E+00
 -1      3299 1.38309E+02 3.30875E+01 0.00000E+00
 -1      3300 1.04590E+02 3.52532E+01 0.00000E+00
 -1      3301 1.03203E+02 3.52060E+01 0.00000E+00
 -1      3302 1.14735E+02 2.87062E+01 0.00000E+00
 -1      3303 1.13983E+02 2.99594E+01 0.00000E+00
 -1      3304 8.97141E+01 2.33266E+01 0.00000E+00
 -1      3305 8.95686E+01 2.21124E+01 0.00000E+00
 -1      3306 9.67575E+01 3.29493E+01 0.00000E+00
 -1      3307 9.55521E+01 3.22772E+01 0.00000E+00
 -1      3308 9.32843E+01 1.05209E+01 0.00000E+00
 -1      3309 1.38309E+02 3.16187E+01 0.00000E+00
 -1      3310 1.38309E+02 3.01437E+01 0.00000E+00
 -1      3311 1.37010E+02 2.94188E+01 0.00000E+00
 -1      3312 1.37010E+02 3.23563E+01 0.00000E+00
 -1      3313 9.43984E+01 3.14045E+01 0.00000E+00
 -1      3314 9.35145E+01 3.06814E+01 0.00000E+00
 -1      3315 1.21785E+02 1.05013E+01 0.00000E+00
 -1      3316 1.20285E+02 1.05013E+01 0.00000E+00
 -1      3317 1.19535E+02 1.18003E+01 0.00000E+00
 -1      3318 9.97737E+01 3.39260E+01 0.00000E+00
 -1      3319 9.83281E+01 3.34491E+01 0.00000E+00
 -1      3320 1.07644E+02 3.38428E+01 0.00000E+00
 -1      3321 1.06510E+02 3.42980E+01 0.00000E+00
 -1      3322 3.77850E+01 1.05013E+01 0.00000E+00
 -1      3323 3.62850E+01 1.05013E+01 0.00000E+00
 -1      3324 3.55350E+01 1.18003E+01 0.00000E+00
 -1      3325 3.85350E+01 1.18003E+01 0.00000E+00
 -1      3326 1.12728E+02 3.14331E+01 0.00000E+00
 -1      3327 1.11479E+02 3.23321E+01 0.00000E+00
 -1      3328 2.27850E+01 1.05013E+01 0.00000E+00
 -1      3329 2.12850E+01 1.05013E+01 0.00000E+00
 -1      3330 2.05350E+01 1.18003E+01 0.00000E+00
 -1      3331 1.59000E+01 3.83090E+01 0.00000E+00
 -1      3332 1.74000E+01 3.83090E+01 0.00000E+00
 -1      3333 1.81500E+01 3.70100E+01 0.00000E+00
 -1      3334 1.17468E+02 2.15852E+01 0.00000E+00
 -1      3335 1.17036E+02 2.30085E+01 0.00000E+00
 -1      3336 9.25083E+01 2.94839E+01 0.00000E+00
 -1      3337 9.15822E+01 2.82619E+01 0.00000E+00
 -1      3338 9.22293E+01 1.29487E+01 0.00000E+00
 -1      3339 9.29384E+01 1.19028E+01 0.00000E+00
 -1      3340 9.21891E+01 1.05842E+01 0.00000E+00
 -1      3341 9.14972E+01 1.33480E+01 0.00000E+00
 -1      3342 1.16671E+02 2.43291E+01 0.00000E+00
 -1      3343 1.16192E+02 2.53535E+01 0.00000E+00
 -1      3344 1.16944E+02 2.62361E+01 0.00000E+00
 -1      3345 1.16096E+02 1.52624E+01 0.00000E+00
 -1      3346 1.16652E+02 1.64148E+01 0.00000E+00
 -1      3347 1.10004E+02 3.30703E+01 0.00000E+00
 -1      3348 1.08824E+02 3.34565E+01 0.00000E+00
 -1      3349 1.08670E+02 3.47132E+01 0.00000E+00
 -1      3350 9.01334E+01 1.79351E+01 0.00000E+00
 -1      3351 9.07647E+01 1.67557E+01 0.00000E+00
 -1      3352 1.16910E+01 2.42375E+01 0.00000E+00
 -1      3353 1.16910E+01 2.57125E+01 0.00000E+00
 -1      3354 1.29900E+01 2.35000E+01 0.00000E+00
 -1      3355 1.29900E+01 1.46687E+01 0.00000E+00
 -1      3356 1.16910E+01 1.54063E+01 0.00000E+00
 -1      3357 1.16910E+01 1.68750E+01 0.00000E+00
 -1      3358 1.17570E+02 1.71038E+01 0.00000E+00
 -1      3359 1.18487E+02 1.77927E+01 0.00000E+00
 -1      3360 1.18291E+02 1.60459E+01 0.00000E+00
 -1      3361 1.17788E+02 2.38911E+01 0.00000E+00
 -1      3362 1.15888E+02 2.85819E+01 0.00000E+00
 -1      3363 1.38309E+02 1.69188E+01 0.00000E+00
 -1      3364 1.38309E+02 1.54563E+01 0.00000E+00
 -1      3365 9.23012E+01 3.06389E+01 0.00000E+00
 -1      3366 1.11325E+02 3.35888E+01 0.00000E+00
 -1      3367 2.95350E+01 1.18003E+01 0.00000E+00
 -1      3368 2.87850E+01 1.05013E+01 0.00000E+00
 -1      3369 2.72850E+01 1.05013E+01 0.00000E+00
 -1      3370 9.06891E+01 1.05842E+01 0.00000E+00
 -1      3371 8.99391E+01 1.18832E+01 0.00000E+00
 -1      3372 8.93821E+01 2.43977E+01 0.00000E+00
 -1      3373 8.83747E+01 2.39026E+01 0.00000E+00
 -1      3374 8.90502E+01 2.54687E+01 0.00000E+00
 -1      3375 1.17704E+02 1.35786E+01 0.00000E+00
 -1      3376 1.16143E+02 1.32154E+01 0.00000E+00
 -1      3377 1.16910E+01 1.98188E+01 0.00000E+00
 -1      3378 1.29900E+01 2.05562E+01 0.00000E+00
 -1      3379 1.16910E+01 1.83500E+01 0.00000E+00
 -1      3380 1.38309E+02 1.98687E+01 0.00000E+00
 -1      3381 1.38309E+02 1.83937E+01 0.00000E+00
 -1      3382 1.37010E+02 1.76625E+01 0.00000E+00
 -1      3383 1.38879E+02 3.74540E+01 0.00000E+00
 -1      3384 1.14050E+02 1.20684E+01 0.00000E+00
 -1      3385 1.38129E+02 3.61550E+01 0.00000E+00
 -1      3386 1.36830E+02 3.54175E+01 0.00000E+00
 -1      3387 1.38309E+02 2.28094E+01 0.00000E+00
 -1      3388 1.38309E+02 2.13344E+01 0.00000E+00
 -1      3389 1.37010E+02 2.06031E+01 0.00000E+00
 -1      3390 1.37010E+02 2.35344E+01 0.00000E+00
 -1      3391 1.01703E+02 3.52060E+01 0.00000E+00
 -1      3392 1.51500E+01 3.70100E+01 0.00000E+00
 -1      3393 1.22535E+02 1.18003E+01 0.00000E+00
 -1      3394 1.14055E+02 3.13770E+01 0.00000E+00
 -1      3395 1.14866E+02 1.31210E+01 0.00000E+00
 -1      3396 9.06763E+01 2.77027E+01 0.00000E+00
 -1      3397 8.97704E+01 2.71434E+01 0.00000E+00
 -1      3398 9.03891E+01 2.88823E+01 0.00000E+00
 -1      3399 1.00721E+02 3.51403E+01 0.00000E+00
 -1      3400 8.86019E+01 2.14148E+01 0.00000E+00
 -1      3401 9.44611E+01 3.27091E+01 0.00000E+00
 -1      3402 9.03852E+01 1.58155E+01 0.00000E+00
 -1      3403 9.71854E+01 3.40817E+01 0.00000E+00
 -1      3404 2.42850E+01 1.05013E+01 0.00000E+00
 -1      3405 2.35350E+01 1.18003E+01 0.00000E+00
 -1      3406 2.57850E+01 1.05013E+01 0.00000E+00
 -1      3407 1.69669E+01 1.03515E+01 0.00000E+00
 -1      3408 1.54669E+01 1.03515E+01 0.00000E+00
 -1      3409 1.50806E+01 1.13509E+01 0.00000E+00
 -1      3410 1.77169E+01 1.16505E+01 0.00000E+00
 -1      3411 1.17960E+02 2.07106E+01 0.00000E+00
 -1      3412 1.18644E+02 2.16959E+01 0.00000E+00
 -1      3413 1.18451E+02 1.98360E+01 0.00000E+00
 -1      3414 1.16910E+01 3.01219E+01 0.00000E+00
 -1      3415 1.16910E+01 3.15906E+01 0.00000E+00
 -1      3416 1.11741E+01 3.84716E+01 0.00000E+00
 -1      3417 8.90581E+01 1.84496E+01 0.00000E+00
 -1      3418 1.16910E+01 3.30594E+01 0.00000E+00
 -1      3419 1.16910E+01 3.45281E+01 0.00000E+00
 -1      3420 1.29900E+01 3.23250E+01 0.00000E+00
 -1      3421 1.19241E+01 3.71726E+01 0.00000E+00
 -1      3422 8.77350E+01 1.88461E+01 0.00000E+00
 -1      3423 8.82961E+01 1.72976E+01 0.00000E+00
 -1      3424 9.20194E+01 3.18971E+01 0.00000E+00
 -1      3425 9.10132E+01 3.06997E+01 0.00000E+00
 -1      3426 2.34000E+01 3.57110E+01 0.00000E+00
 -1      3427 2.49000E+01 3.57110E+01 0.00000E+00
 -1      3428 2.64000E+01 3.57110E+01 0.00000E+00
 -1      3429 2.79000E+01 3.57110E+01 0.00000E+00
 -1      3430 2.56500E+01 3.44120E+01 0.00000E+00
 -1      3431 2.94000E+01 3.57110E+01 0.00000E+00
 -1      3432 3.09000E+01 3.57110E+01 0.00000E+00
 -1      3433 2.86500E+01 3.44120E+01 0.00000E+00
 -1      3434 3.24000E+01 3.57110E+01 0.00000E+00
 -1      3435 3.39000E+01 3.57110E+01 0.00000E+00
 -1      3436 3.16500E+01 3.44120E+01 0.00000E+00
 -1      3437 3.54000E+01 3.57110E+01 0.00000E+00
 -1      3438 3.69000E+01 3.57110E+01 0.00000E+00
 -1      3439 3.46500E+01 3.44120E+01 0.00000E+00
 -1      3440 3.84000E+01 3.57110E+01 0.00000E+00
 -1      3441 3.99000E+01 3.57110E+01 0.00000E+00
 -1      3442 3.76500E+01 3.44120E+01 0.00000E+00
 -1      3443 4.14000E+01 3.57110E+01 0.00000E+00
 -1      3444 4.29000E+01 3.57110E+01 0.00000E+00
 -1      3445 4.06500E+01 3.44120E+01 0.00000E+00
 -1      3446 4.44000E+01 3.57110E+01 0.00000E+00
 -1      3447 4.59000E+01 3.57110E+01 0.00000E+00
 -1      3448 4.36500E+01 3.44120E+01 0.00000E+00
 -1      3449 4.74000E+01 3.57110E+01 0.00000E+00
 -1      3450 4.89000E+01 3.57110E+01 0.00000E+00
 -1      3451 4.66500E+01 3.44120E+01 0.00000E+00
 -1      3452 5.04000E+01 3.57110E+01 0.00000E+00
 -1      3453 5.19000E+01 3.57110E+01 0.00000E+00
 -1      3454 4.96500E+01 3.44120E+01 0.00000E+00
 -1      3455 5.34000E+01 3.57110E+01 0.00000E+00
 -1      3456 5.49000E+01 3.57110E+01 0.00000E+00
 -1      3457 5.26500E+01 3.44120E+01 0.00000E+00
 -1      3458 5.64000E+01 3.57110E+01 0.00000E+00
 -1      3459 5.79000E+01 3.57110E+01 0.00000E+00
 -1      3460 5.56500E+01 3.44120E+01 0.00000E+00
 -1      3461 5.94000E+01 3.57110E+01 0.00000E+00
 -1      3462 6.09000E+01 3.57110E+01 0.00000E+00
 -1      3463 5.86500E+01 3.44120E+01 0.00000E+00
 -1      3464 6.24000E+01 3.57110E+01 0.00000E+00
 -1      3465 6.39000E+01 3.57110E+01 0.00000E+00
 -1      3466 6.16500E+01 3.44120E+01 0.00000E+00
 -1      3467 6.54000E+01 3.57110E+01 0.00000E+00
 -1      3468 6.69000E+01 3.57110E+01 0.00000E+00
 -1      3469 6.46500E+01 3.44120E+01 0.00000E+00
 -1      3470 6.84000E+01 3.57110E+01 0.00000E+00
 -1      3471 6.99000E+01 3.57110E+01 0.00000E+00
 -1      3472 6.76500E+01 3.44120E+01 0.00000E+00
 -1      3473 7.14000E+01 3.57110E+01 0.00000E+00
 -1      3474 7.29000E+01 3.57110E+01 0.00000E+00
 -1      3475 7.06500E+01 3.44120E+01 0.00000E+00
 -1      3476 7.44000E+01 3.57110E+01 0.00000E+00
 -1      3477 7.59000E+01 3.57110E+01 0.00000E+00
 -1      3478 7.36500E+01 3.44120E+01 0.00000E+00
 -1      3479 7.74000E+01 3.57110E+01 0.00000E+00
 -1      3480 7.89000E+01 3.57110E+01 0.00000E+00
 -1      3481 7.66500E+01 3.44120E+01 0.00000E+00
 -1      3482 8.04000E+01 3.57110E+01 0.00000E+00
 -1      3483 8.19000E+01 3.57110E+01 0.00000E+00
 -1      3484 7.96500E+01 3.44120E+01 0.00000E+00
 -1      3485 8.34000E+01 3.57110E+01 0.00000E+00
 -1      3486 8.49000E+01 3.57110E+01 0.00000E+00
 -1      3487 8.26500E+01 3.44120E+01 0.00000E+00
 -1      3488 8.64000E+01 3.57110E+01 0.00000E+00
 -1      3489 8.79000E+01 3.57110E+01 0.00000E+00
 -1      3490 8.56500E+01 3.44120E+01 0.00000E+00
 -1      3491 8.96907E+01 3.44839E+01 0.00000E+00
 -1      3492 9.11907E+01 3.44839E+01 0.00000E+00
 -1      3493 1.44000E+01 3.57110E+01 0.00000E+00
 -1      3494 1.59000E+01 3.57110E+01 0.00000E+00
 -1      3495 1.07070E+02 3.60548E+01 0.00000E+00
 -1      3496 1.08570E+02 3.60548E+01 0.00000E+00
 -1      3497 1.13400E+02 3.57110E+01 0.00000E+00
 -1      3498 1.14900E+02 3.57110E+01 0.00000E+00
 -1      3499 1.16400E+02 3.57110E+01 0.00000E+00
 -1      3500 1.17900E+02 3.57110E+01 0.00000E+00
 -1      3501 1.15650E+02 3.44120E+01 0.00000E+00
 -1      3502 1.19400E+02 3.57110E+01 0.00000E+00
 -1      3503 1.20900E+02 3.57110E+01 0.00000E+00
 -1      3504 1.18650E+02 3.44120E+01 0.00000E+00
 -1      3505 1.22400E+02 3.57110E+01 0.00000E+00
 -1      3506 1.23900E+02 3.57110E+01 0.00000E+00
 -1      3507 1.21650E+02 3.44120E+01 0.00000E+00
 -1      3508 1.25400E+02 3.57110E+01 0.00000E+00
 -1      3509 1.26900E+02 3.57110E+01 0.00000E+00
 -1      3510 1.24650E+02 3.44120E+01 0.00000E+00
 -1      3511 1.28400E+02 3.57110E+01 0.00000E+00
 -1      3512 1.29900E+02 3.57110E+01 0.00000E+00
 -1      3513 1.27650E+02 3.44120E+01 0.00000E+00
 -1      3514 1.31400E+02 3.57110E+01 0.00000E+00
 -1      3515 1.32900E+02 3.57110E+01 0.00000E+00
 -1      3516 1.30650E+02 3.44120E+01 0.00000E+00
 -1      3517 1.34115E+02 3.55643E+01 0.00000E+00
 -1      3518 1.35615E+02 3.55643E+01 0.00000E+00
 -1      3519 1.35795E+02 3.39717E+01 0.00000E+00
 -1      3520 1.33365E+02 3.42653E+01 0.00000E+00
 -1      3521 1.18877E+02 2.34816E+01 0.00000E+00
 -1      3522 1.18512E+02 2.48022E+01 0.00000E+00
 -1      3523 1.16910E+01 2.86531E+01 0.00000E+00
 -1      3524 1.29900E+01 2.93875E+01 0.00000E+00
 -1      3525 1.16910E+01 2.71844E+01 0.00000E+00
 -1      3526 4.52850E+01 1.30992E+01 0.00000E+00
 -1      3527 4.37850E+01 1.30992E+01 0.00000E+00
 -1      3528 4.22850E+01 1.30992E+01 0.00000E+00
 -1      3529 4.07850E+01 1.30992E+01 0.00000E+00
 -1      3530 4.30350E+01 1.43982E+01 0.00000E+00
 -1      3531 5.12850E+01 1.30992E+01 0.00000E+00
 -1      3532 4.97850E+01 1.30992E+01 0.00000E+00
 -1      3533 5.42850E+01 1.30992E+01 0.00000E+00
 -1      3534 5.27850E+01 1.30992E+01 0.00000E+00
 -1      3535 5.20350E+01 1.43982E+01 0.00000E+00
 -1      3536 5.72850E+01 1.30992E+01 0.00000E+00
 -1      3537 5.57850E+01 1.30992E+01 0.00000E+00
 -1      3538 5.50350E+01 1.43982E+01 0.00000E+00
 -1      3539 6.02850E+01 1.30992E+01 0.00000E+00
 -1      3540 5.87850E+01 1.30992E+01 0.00000E+00
 -1      3541 5.80350E+01 1.43982E+01 0.00000E+00
 -1      3542 6.32850E+01 1.30992E+01 0.00000E+00
 -1      3543 6.17850E+01 1.30992E+01 0.00000E+00
 -1      3544 6.10350E+01 1.43982E+01 0.00000E+00
 -1      3545 6.62850E+01 1.30992E+01 0.00000E+00
 -1      3546 6.47850E+01 1.30992E+01 0.00000E+00
 -1      3547 6.40350E+01 1.43982E+01 0.00000E+00
 -1      3548 6.92850E+01 1.30992E+01 0.00000E+00
 -1      3549 6.77850E+01 1.30992E+01 0.00000E+00
 -1      3550 6.70350E+01 1.43982E+01 0.00000E+00
 -1      3551 7.22850E+01 1.30992E+01 0.00000E+00
 -1      3552 7.07850E+01 1.30992E+01 0.00000E+00
 -1      3553 7.00350E+01 1.43982E+01 0.00000E+00
 -1      3554 7.52850E+01 1.30992E+01 0.00000E+00
 -1      3555 7.37850E+01 1.30992E+01 0.00000E+00
 -1      3556 7.30350E+01 1.43982E+01 0.00000E+00
 -1      3557 7.82850E+01 1.30992E+01 0.00000E+00
 -1      3558 7.67850E+01 1.30992E+01 0.00000E+00
 -1      3559 7.60350E+01 1.43982E+01 0.00000E+00
 -1      3560 8.12850E+01 1.30992E+01 0.00000E+00
 -1      3561 7.97850E+01 1.30992E+01 0.00000E+00
 -1      3562 7.90350E+01 1.43982E+01 0.00000E+00
 -1      3563 8.42850E+01 1.30992E+01 0.00000E+00
 -1      3564 8.27850E+01 1.30992E+01 0.00000E+00
 -1      3565 8.20350E+01 1.43982E+01 0.00000E+00
 -1      3566 8.72850E+01 1.30992E+01 0.00000E+00
 -1      3567 8.57850E+01 1.30992E+01 0.00000E+00
 -1      3568 8.50350E+01 1.43982E+01 0.00000E+00
 -1      3569 1.06090E+02 3.52532E+01 0.00000E+00
 -1      3570 8.95931E+01 1.32651E+01 0.00000E+00
 -1      3571 1.18188E+02 2.61931E+01 0.00000E+00
 -1      3572 1.17710E+02 2.72175E+01 0.00000E+00
 -1      3573 1.32285E+02 1.30992E+01 0.00000E+00
 -1      3574 1.30785E+02 1.30992E+01 0.00000E+00
 -1      3575 1.26285E+02 1.30992E+01 0.00000E+00
 -1      3576 1.24785E+02 1.30992E+01 0.00000E+00
 -1      3577 1.35285E+02 1.30992E+01 0.00000E+00
 -1      3578 1.33785E+02 1.30992E+01 0.00000E+00
 -1      3579 1.33035E+02 1.43982E+01 0.00000E+00
 -1      3580 1.35711E+02 2.72125E+01 0.00000E+00
 -1      3581 1.35711E+02 2.57375E+01 0.00000E+00
 -1      3582 1.74000E+01 3.57110E+01 0.00000E+00
 -1      3583 1.89000E+01 3.57110E+01 0.00000E+00
 -1      3584 1.66500E+01 3.44120E+01 0.00000E+00
 -1      3585 8.75484E+01 2.22050E+01 0.00000E+00
 -1      3586 8.74436E+01 2.07883E+01 0.00000E+00
 -1      3587 1.17132E+02 2.85389E+01 0.00000E+00
 -1      3588 1.16554E+02 2.98603E+01 0.00000E+00
 -1      3589 1.18376E+02 2.84959E+01 0.00000E+00
 -1      3590 1.29285E+02 1.30992E+01 0.00000E+00
 -1      3591 1.27785E+02 1.30992E+01 0.00000E+00
 -1      3592 1.27035E+02 1.43982E+01 0.00000E+00
 -1      3593 1.30035E+02 1.43982E+01 0.00000E+00
 -1      3594 9.97030E+01 3.57958E+01 0.00000E+00
 -1      3595 1.38528E+02 1.44149E+01 0.00000E+00
 -1      3596 1.38594E+02 1.31746E+01 0.00000E+00
 -1      3597 1.37668E+02 1.30636E+01 0.00000E+00
 -1      3598 1.37229E+02 1.51462E+01 0.00000E+00
 -1      3599 2.12850E+01 1.30992E+01 0.00000E+00
 -1      3600 1.97850E+01 1.30992E+01 0.00000E+00
 -1      3601 4.82850E+01 1.30992E+01 0.00000E+00
 -1      3602 4.67850E+01 1.30992E+01 0.00000E+00
 -1      3603 4.60350E+01 1.43982E+01 0.00000E+00
 -1      3604 4.90350E+01 1.43982E+01 0.00000E+00
 -1      3605 3.32850E+01 1.30992E+01 0.00000E+00
 -1      3606 3.17850E+01 1.30992E+01 0.00000E+00
 -1      3607 1.23285E+02 1.30992E+01 0.00000E+00
 -1      3608 1.21785E+02 1.30992E+01 0.00000E+00
 -1      3609 1.24035E+02 1.43982E+01 0.00000E+00
 -1      3610 1.19078E+02 1.30339E+01 0.00000E+00
 -1      3611 1.18747E+02 1.48122E+01 0.00000E+00
 -1      3612 1.19665E+02 1.55012E+01 0.00000E+00
 -1      3613 1.20578E+02 1.30339E+01 0.00000E+00
 -1      3614 1.20210E+01 3.61362E+01 0.00000E+00
 -1      3615 1.09750E+02 3.56685E+01 0.00000E+00
 -1      3616 1.11250E+02 3.56685E+01 0.00000E+00
 -1      3617 9.43689E+01 3.40298E+01 0.00000E+00
 -1      3618 9.32152E+01 3.31572E+01 0.00000E+00
 -1      3619 2.04000E+01 3.57110E+01 0.00000E+00
 -1      3620 2.19000E+01 3.57110E+01 0.00000E+00
 -1      3621 2.26500E+01 3.44120E+01 0.00000E+00
 -1      3622 8.88431E+01 1.45641E+01 0.00000E+00
 -1      3623 9.82030E+01 3.57958E+01 0.00000E+00
 -1      3624 9.66324E+01 3.52959E+01 0.00000E+00
 -1      3625 9.51324E+01 3.52959E+01 0.00000E+00
 -1      3626 9.38866E+01 3.57439E+01 0.00000E+00
 -1      3627 1.42890E+01 1.39344E+01 0.00000E+00
 -1      3628 1.42890E+01 1.54031E+01 0.00000E+00
 -1      3629 8.98256E+01 3.13986E+01 0.00000E+00
 -1      3630 9.01074E+01 3.01405E+01 0.00000E+00
 -1      3631 8.92015E+01 2.95812E+01 0.00000E+00
 -1      3632 1.35773E+02 1.52929E+01 0.00000E+00
 -1      3633 1.35992E+02 1.42516E+01 0.00000E+00
 -1      3634 8.56281E+01 2.04265E+01 0.00000E+00
 -1      3635 8.66815E+01 1.96363E+01 0.00000E+00
 -1      3636 8.59195E+01 1.84843E+01 0.00000E+00
 -1      3637 9.23866E+01 3.57439E+01 0.00000E+00
 -1      3638 1.12725E+02 3.49303E+01 0.00000E+00
 -1      3639 1.19278E+02 2.57836E+01 0.00000E+00
 -1      3640 9.19273E+01 3.32179E+01 0.00000E+00
 -1      3641 1.34580E+02 3.26497E+01 0.00000E+00
 -1      3642 1.35795E+02 3.25030E+01 0.00000E+00
 -1      3643 1.35795E+02 3.10343E+01 0.00000E+00
 -1      3644 1.29900E+01 2.64469E+01 0.00000E+00
 -1      3645 1.42890E+01 2.86531E+01 0.00000E+00
 -1      3646 1.42890E+01 3.01219E+01 0.00000E+00
 -1      3647 8.87630E+01 2.66484E+01 0.00000E+00
 -1      3648 8.77556E+01 2.61533E+01 0.00000E+00
 -1      3649 8.84759E+01 2.78280E+01 0.00000E+00
 -1      3650 3.02850E+01 1.30992E+01 0.00000E+00
 -1      3651 2.87850E+01 1.30992E+01 0.00000E+00
 -1      3652 3.10350E+01 1.43982E+01 0.00000E+00
 -1      3653 3.47850E+01 1.30992E+01 0.00000E+00
 -1      3654 3.40350E+01 1.43982E+01 0.00000E+00
 -1      3655 3.62850E+01 1.30992E+01 0.00000E+00
 -1      3656 4.00350E+01 1.43982E+01 0.00000E+00
 -1      3657 3.92850E+01 1.30992E+01 0.00000E+00
 -1      3658 3.77850E+01 1.30992E+01 0.00000E+00
 -1      3659 1.90350E+01 1.43983E+01 0.00000E+00
 -1      3660 1.82850E+01 1.30993E+01 0.00000E+00
 -1      3661 8.68845E+01 2.43472E+01 0.00000E+00
 -1      3662 8.72164E+01 2.32761E+01 0.00000E+00
 -1      3663 8.60581E+01 2.26496E+01 0.00000E+00
 -1      3664 1.29900E+01 1.76125E+01 0.00000E+00
 -1      3665 1.34412E+02 2.50094E+01 0.00000E+00
 -1      3666 1.35711E+02 2.42719E+01 0.00000E+00
 -1      3667 1.35711E+02 2.28062E+01 0.00000E+00
 -1      3668 1.42890E+01 1.98219E+01 0.00000E+00
 -1      3669 1.42890E+01 2.12906E+01 0.00000E+00
 -1      3670 1.36742E+02 1.29526E+01 0.00000E+00
 -1      3671 2.27850E+01 1.30992E+01 0.00000E+00
 -1      3672 2.20350E+01 1.43982E+01 0.00000E+00
 -1      3673 2.42850E+01 1.30992E+01 0.00000E+00
 -1      3674 1.96500E+01 3.44120E+01 0.00000E+00
 -1      3675 1.55880E+01 2.20313E+01 0.00000E+00
 -1      3676 1.42890E+01 2.27656E+01 0.00000E+00
 -1      3677 1.42890E+01 2.42406E+01 0.00000E+00
 -1      3678 1.33200E+01 3.54019E+01 0.00000E+00
 -1      3679 1.40700E+01 3.41029E+01 0.00000E+00
 -1      3680 1.17217E+02 3.10308E+01 0.00000E+00
 -1      3681 1.15973E+02 3.10738E+01 0.00000E+00
 -1      3682 1.48779E+01 1.21429E+01 0.00000E+00
 -1      3683 1.44917E+01 1.31424E+01 0.00000E+00
 -1      3684 1.57907E+01 1.38767E+01 0.00000E+00
 -1      3685 1.61961E+01 1.22927E+01 0.00000E+00
 -1      3686 1.19369E+02 2.26070E+01 0.00000E+00
 -1      3687 1.20094E+02 2.35180E+01 0.00000E+00
 -1      3688 1.19860E+02 2.17324E+01 0.00000E+00
 -1      3689 1.69669E+01 1.29495E+01 0.00000E+00
 -1      3690 1.14718E+02 3.25475E+01 0.00000E+00
 -1      3691 2.65350E+01 1.18003E+01 0.00000E+00
 -1      3692 1.21328E+02 1.43329E+01 0.00000E+00
 -1      3693 1.19893E+02 1.77202E+01 0.00000E+00
 -1      3694 1.19172E+02 1.87781E+01 0.00000E+00
 -1      3695 1.19856E+02 1.97634E+01 0.00000E+00
 -1      3696 1.35773E+02 1.82429E+01 0.00000E+00
 -1      3697 1.35773E+02 1.67679E+01 0.00000E+00
 -1      3698 1.34535E+02 1.58733E+01 0.00000E+00
 -1      3699 8.80771E+01 1.56497E+01 0.00000E+00
 -1      3700 1.35753E+02 2.98577E+01 0.00000E+00
 -1      3701 1.35753E+02 2.83890E+01 0.00000E+00
 -1      3702 1.34454E+02 2.76515E+01 0.00000E+00
 -1      3703 1.34538E+02 3.00045E+01 0.00000E+00
 -1      3704 1.41795E+01 3.13780E+01 0.00000E+00
 -1      3705 1.41795E+01 3.28467E+01 0.00000E+00
 -1      3706 1.52595E+01 3.31559E+01 0.00000E+00
 -1      3707 1.54785E+01 3.06436E+01 0.00000E+00
 -1      3708 8.67540E+01 1.60462E+01 0.00000E+00
 -1      3709 8.89407E+01 3.31849E+01 0.00000E+00
 -1      3710 2.79000E+01 3.31130E+01 0.00000E+00
 -1      3711 2.94000E+01 3.31130E+01 0.00000E+00
 -1      3712 3.09000E+01 3.31130E+01 0.00000E+00
 -1      3713 3.24000E+01 3.31130E+01 0.00000E+00
 -1      3714 3.01500E+01 3.18140E+01 0.00000E+00
 -1      3715 3.39000E+01 3.31130E+01 0.00000E+00
 -1      3716 3.54000E+01 3.31130E+01 0.00000E+00
 -1      3717 3.31500E+01 3.18140E+01 0.00000E+00
 -1      3718 3.69000E+01 3.31130E+01 0.00000E+00
 -1      3719 3.84000E+01 3.31130E+01 0.00000E+00
 -1      3720 3.61500E+01 3.18140E+01 0.00000E+00
 -1      3721 3.99000E+01 3.31130E+01 0.00000E+00
 -1      3722 4.14000E+01 3.31130E+01 0.00000E+00
 -1      3723 3.91500E+01 3.18140E+01 0.00000E+00
 -1      3724 4.29000E+01 3.31130E+01 0.00000E+00
 -1      3725 4.44000E+01 3.31130E+01 0.00000E+00
 -1      3726 4.21500E+01 3.18140E+01 0.00000E+00
 -1      3727 4.59000E+01 3.31130E+01 0.00000E+00
 -1      3728 4.74000E+01 3.31130E+01 0.00000E+00
 -1      3729 4.51500E+01 3.18140E+01 0.00000E+00
 -1      3730 4.89000E+01 3.31130E+01 0.00000E+00
 -1      3731 5.04000E+01 3.31130E+01 0.00000E+00
 -1      3732 4.81500E+01 3.18140E+01 0.00000E+00
 -1      3733 5.19000E+01 3.31130E+01 0.00000E+00
 -1      3734 5.34000E+01 3.31130E+01 0.00000E+00
 -1      3735 5.11500E+01 3.18140E+01 0.00000E+00
 -1      3736 5.49000E+01 3.31130E+01 0.00000E+00
 -1      3737 5.64000E+01 3.31130E+01 0.00000E+00
 -1      3738 5.41500E+01 3.18140E+01 0.00000E+00
 -1      3739 5.79000E+01 3.31130E+01 0.00000E+00
 -1      3740 5.94000E+01 3.31130E+01 0.00000E+00
 -1      3741 5.71500E+01 3.18140E+01 0.00000E+00
 -1      3742 6.09000E+01 3.31130E+01 0.00000E+00
 -1      3743 6.24000E+01 3.31130E+01 0.00000E+00
 -1      3744 6.01500E+01 3.18140E+01 0.00000E+00
 -1      3745 6.39000E+01 3.31130E+01 0.00000E+00
 -1      3746 6.54000E+01 3.31130E+01 0.00000E+00
 -1      3747 6.31500E+01 3.18140E+01 0.00000E+00
 -1      3748 6.69000E+01 3.31130E+01 0.00000E+00
 -1      3749 6.84000E+01 3.31130E+01 0.00000E+00
 -1      3750 6.61500E+01 3.18140E+01 0.00000E+00
 -1      3751 6.99000E+01 3.31130E+01 0.00000E+00
 -1      3752 7.14000E+01 3.31130E+01 0.00000E+00
 -1      3753 6.91500E+01 3.18140E+01 0.00000E+00
 -1      3754 7.29000E+01 3.31130E+01 0.00000E+00
 -1      3755 7.44000E+01 3.31130E+01 0.00000E+00
 -1      3756 7.21500E+01 3.18140E+01 0.00000E+00
 -1      3757 7.59000E+01 3.31130E+01 0.00000E+00
 -1      3758 7.74000E+01 3.31130E+01 0.00000E+00
 -1      3759 7.51500E+01 3.18140E+01 0.00000E+00
 -1      3760 7.89000E+01 3.31130E+01 0.00000E+00
 -1      3761 8.04000E+01 3.31130E+01 0.00000E+00
 -1      3762 7.81500E+01 3.18140E+01 0.00000E+00
 -1      3763 8.19000E+01 3.31130E+01 0.00000E+00
 -1      3764 8.34000E+01 3.31130E+01 0.00000E+00
 -1      3765 8.11500E+01 3.18140E+01 0.00000E+00
 -1      3766 8.49000E+01 3.31130E+01 0.00000E+00
 -1      3767 8.64000E+01 3.31130E+01 0.00000E+00
 -1      3768 8.41500E+01 3.18140E+01 0.00000E+00
 -1      3769 1.13475E+02 3.36313E+01 0.00000E+00
 -1      3770 1.20900E+02 3.31130E+01 0.00000E+00
 -1      3771 1.22400E+02 3.31130E+01 0.00000E+00
 -1      3772 1.23900E+02 3.31130E+01 0.00000E+00
 -1      3773 1.25400E+02 3.31130E+01 0.00000E+00
 -1      3774 1.23150E+02 3.18140E+01 0.00000E+00
 -1      3775 1.26900E+02 3.31130E+01 0.00000E+00
 -1      3776 1.28400E+02 3.31130E+01 0.00000E+00
 -1      3777 1.26150E+02 3.18140E+01 0.00000E+00
 -1      3778 1.29900E+02 3.31130E+01 0.00000E+00
 -1      3779 1.31400E+02 3.31130E+01 0.00000E+00
 -1      3780 1.29150E+02 3.18140E+01 0.00000E+00
 -1      3781 1.32383E+02 3.29548E+01 0.00000E+00
 -1      3782 1.33598E+02 3.28080E+01 0.00000E+00
 -1      3783 1.33598E+02 3.13393E+01 0.00000E+00
 -1      3784 1.31633E+02 3.16558E+01 0.00000E+00
 -1      3785 1.97850E+01 1.56973E+01 0.00000E+00
 -1      3786 1.82851E+01 1.56973E+01 0.00000E+00
 -1      3787 5.57850E+01 1.56973E+01 0.00000E+00
 -1      3788 5.42850E+01 1.56973E+01 0.00000E+00
 -1      3789 5.27850E+01 1.56973E+01 0.00000E+00
 -1      3790 5.12850E+01 1.56973E+01 0.00000E+00
 -1      3791 5.35350E+01 1.69963E+01 0.00000E+00
 -1      3792 6.17850E+01 1.56973E+01 0.00000E+00
 -1      3793 6.02850E+01 1.56973E+01 0.00000E+00
 -1      3794 6.47850E+01 1.56973E+01 0.00000E+00
 -1      3795 6.32850E+01 1.56973E+01 0.00000E+00
 -1      3796 6.25350E+01 1.69963E+01 0.00000E+00
 -1      3797 6.77850E+01 1.56973E+01 0.00000E+00
 -1      3798 6.62850E+01 1.56973E+01 0.00000E+00
 -1      3799 6.55350E+01 1.69963E+01 0.00000E+00
 -1      3800 7.07850E+01 1.56973E+01 0.00000E+00
 -1      3801 6.92850E+01 1.56973E+01 0.00000E+00
 -1      3802 6.85350E+01 1.69963E+01 0.00000E+00
 -1      3803 7.37850E+01 1.56973E+01 0.00000E+00
 -1      3804 7.22850E+01 1.56973E+01 0.00000E+00
 -1      3805 7.15350E+01 1.69963E+01 0.00000E+00
 -1      3806 7.67850E+01 1.56973E+01 0.00000E+00
 -1      3807 7.52850E+01 1.56973E+01 0.00000E+00
 -1      3808 7.45350E+01 1.69963E+01 0.00000E+00
 -1      3809 7.97850E+01 1.56973E+01 0.00000E+00
 -1      3810 7.82850E+01 1.56973E+01 0.00000E+00
 -1      3811 7.75350E+01 1.69963E+01 0.00000E+00
 -1      3812 8.27850E+01 1.56973E+01 0.00000E+00
 -1      3813 8.12850E+01 1.56973E+01 0.00000E+00
 -1      3814 8.05350E+01 1.69963E+01 0.00000E+00
 -1      3815 8.52540E+01 1.60462E+01 0.00000E+00
 -1      3816 1.20839E+02 1.54097E+01 0.00000E+00
 -1      3817 1.20382E+02 1.66434E+01 0.00000E+00
 -1      3818 1.21067E+02 1.76287E+01 0.00000E+00
 -1      3819 1.22046E+02 1.54751E+01 0.00000E+00
 -1      3820 1.33035E+02 1.58733E+01 0.00000E+00
 -1      3821 1.19724E+02 3.08156E+01 0.00000E+00
 -1      3822 1.19143E+02 3.20291E+01 0.00000E+00
 -1      3823 2.72850E+01 1.30992E+01 0.00000E+00
 -1      3824 2.57850E+01 1.30992E+01 0.00000E+00
 -1      3825 2.80350E+01 1.43982E+01 0.00000E+00
 -1      3826 1.42890E+01 1.68750E+01 0.00000E+00
 -1      3827 1.42890E+01 1.83500E+01 0.00000E+00
 -1      3828 1.55880E+01 1.90844E+01 0.00000E+00
 -1      3829 1.55880E+01 1.61406E+01 0.00000E+00
 -1      3830 1.35711E+02 2.13406E+01 0.00000E+00
 -1      3831 1.35711E+02 1.98750E+01 0.00000E+00
 -1      3832 1.34412E+02 2.20781E+01 0.00000E+00
 -1      3833 1.20520E+02 2.53399E+01 0.00000E+00
 -1      3834 1.20196E+02 2.67308E+01 0.00000E+00
 -1      3835 1.42890E+01 2.57109E+01 0.00000E+00
 -1      3836 1.42890E+01 2.71828E+01 0.00000E+00
 -1      3837 1.55880E+01 2.79172E+01 0.00000E+00
 -1      3838 1.55880E+01 2.49766E+01 0.00000E+00
 -1      3839 1.67595E+01 3.31559E+01 0.00000E+00
 -1      3840 1.15393E+02 3.33281E+01 0.00000E+00
 -1      3841 1.89000E+01 3.31130E+01 0.00000E+00
 -1      3842 2.04000E+01 3.31130E+01 0.00000E+00
 -1      3843 1.25046E+02 1.54751E+01 0.00000E+00
 -1      3844 1.23546E+02 1.54751E+01 0.00000E+00
 -1      3845 1.23056E+02 1.65519E+01 0.00000E+00
 -1      3846 1.20249E+02 2.81125E+01 0.00000E+00
 -1      3847 1.19671E+02 2.94339E+01 0.00000E+00
 -1      3848 1.21597E+02 3.04323E+01 0.00000E+00
 -1      3849 1.21491E+02 2.76688E+01 0.00000E+00
 -1      3850 5.87850E+01 1.56973E+01 0.00000E+00
 -1      3851 5.72850E+01 1.56973E+01 0.00000E+00
 -1      3852 5.95350E+01 1.69963E+01 0.00000E+00
 -1      3853 4.37850E+01 1.56973E+01 0.00000E+00
 -1      3854 4.22850E+01 1.56973E+01 0.00000E+00
 -1      3855 2.49000E+01 3.31130E+01 0.00000E+00
 -1      3856 2.64000E+01 3.31130E+01 0.00000E+00
 -1      3857 2.71500E+01 3.18140E+01 0.00000E+00
 -1      3858 2.19000E+01 3.31130E+01 0.00000E+00
 -1      3859 2.34000E+01 3.31130E+01 0.00000E+00
 -1      3860 2.41500E+01 3.18140E+01 0.00000E+00
 -1      3861 1.16893E+02 3.33281E+01 0.00000E+00
 -1      3862 8.45040E+01 1.73452E+01 0.00000E+00
 -1      3863 2.11500E+01 3.18140E+01 0.00000E+00
 -1      3864 8.65973E+01 2.55268E+01 0.00000E+00
 -1      3865 8.54390E+01 2.49003E+01 0.00000E+00
 -1      3866 8.63101E+01 2.67064E+01 0.00000E+00
 -1      3867 2.12850E+01 1.56973E+01 0.00000E+00
 -1      3868 2.05351E+01 1.69963E+01 0.00000E+00
 -1      3869 2.27850E+01 1.56973E+01 0.00000E+00
 -1      3870 1.18393E+02 3.33281E+01 0.00000E+00
 -1      3871 5.65350E+01 1.69963E+01 0.00000E+00
 -1      3872 3.17850E+01 1.56973E+01 0.00000E+00
 -1      3873 3.02850E+01 1.56973E+01 0.00000E+00
 -1      3874 3.70350E+01 1.43982E+01 0.00000E+00
 -1      3875 4.07850E+01 1.56973E+01 0.00000E+00
 -1      3876 3.92850E+01 1.56973E+01 0.00000E+00
 -1      3877 4.15350E+01 1.69963E+01 0.00000E+00
 -1      3878 5.05350E+01 1.69963E+01 0.00000E+00
 -1      3879 4.97850E+01 1.56973E+01 0.00000E+00
 -1      3880 4.82850E+01 1.56973E+01 0.00000E+00
 -1      3881 3.32850E+01 1.56973E+01 0.00000E+00
 -1      3882 3.25350E+01 1.69963E+01 0.00000E+00
 -1      3883 3.47850E+01 1.56973E+01 0.00000E+00
 -1      3884 8.49257E+01 2.17192E+01 0.00000E+00
 -1      3885 8.41636E+01 2.05672E+01 0.00000E+00
 -1      3886 8.45937E+01 2.27903E+01 0.00000E+00
 -1      3887 1.33113E+02 2.57422E+01 0.00000E+00
 -1      3888 1.33113E+02 2.42766E+01 0.00000E+00
 -1      3889 1.76190E+01 3.06007E+01 0.00000E+00
 -1      3890 1.75095E+01 3.18569E+01 0.00000E+00
 -1      3891 2.50350E+01 1.43982E+01 0.00000E+00
 -1      3892 1.68870E+01 2.12938E+01 0.00000E+00
 -1      3893 1.68870E+01 2.27687E+01 0.00000E+00
 -1      3894 1.21011E+02 2.44652E+01 0.00000E+00
 -1      3895 1.21929E+02 2.54124E+01 0.00000E+00
 -1      3896 1.21503E+02 2.35906E+01 0.00000E+00
 -1      3897 1.28046E+02 1.54751E+01 0.00000E+00
 -1      3898 1.26546E+02 1.54751E+01 0.00000E+00
 -1      3899 1.26056E+02 1.65519E+01 0.00000E+00
 -1      3900 1.76190E+01 2.76601E+01 0.00000E+00
 -1      3901 1.76190E+01 2.91304E+01 0.00000E+00
 -1      3902 1.96500E+01 3.03437E+01 0.00000E+00
 -1      3903 1.31046E+02 1.54751E+01 0.00000E+00
 -1      3904 1.29546E+02 1.54751E+01 0.00000E+00
 -1      3905 1.29056E+02 1.65519E+01 0.00000E+00
 -1      3906 1.20581E+02 2.06745E+01 0.00000E+00
 -1      3907 1.21306E+02 2.15855E+01 0.00000E+00
 -1      3908 1.21302E+02 1.96166E+01 0.00000E+00
 -1      3909 4.67850E+01 1.56973E+01 0.00000E+00
 -1      3910 4.52850E+01 1.56973E+01 0.00000E+00
 -1      3911 4.75350E+01 1.69963E+01 0.00000E+00
 -1      3912 1.34473E+02 1.89804E+01 0.00000E+00
 -1      3913 4.45350E+01 1.69963E+01 0.00000E+00
 -1      3914 1.32546E+02 1.69501E+01 0.00000E+00
 -1      3915 8.81907E+01 3.18859E+01 0.00000E+00
 -1      3916 1.33197E+02 2.80952E+01 0.00000E+00
 -1      3917 1.33155E+02 2.69187E+01 0.00000E+00
 -1      3918 1.31856E+02 2.61859E+01 0.00000E+00
 -1      3919 1.73115E+01 1.87763E+01 0.00000E+00
 -1      3920 1.86105E+01 1.95138E+01 0.00000E+00
 -1      3921 8.79785E+01 2.99680E+01 0.00000E+00
 -1      3922 8.82603E+01 2.87098E+01 0.00000E+00
 -1      3923 5.42850E+01 1.82952E+01 0.00000E+00
 -1      3924 5.27850E+01 1.82952E+01 0.00000E+00
 -1      3925 8.34505E+01 1.81354E+01 0.00000E+00
 -1      3926 2.34000E+01 3.05150E+01 0.00000E+00
 -1      3927 2.49000E+01 3.05150E+01 0.00000E+00
 -1      3928 3.24000E+01 3.05150E+01 0.00000E+00
 -1      3929 3.39000E+01 3.05150E+01 0.00000E+00
 -1      3930 3.54000E+01 3.05150E+01 0.00000E+00
 -1      3931 3.69000E+01 3.05150E+01 0.00000E+00
 -1      3932 3.46500E+01 2.92160E+01 0.00000E+00
 -1      3933 3.84000E+01 3.05150E+01 0.00000E+00
 -1      3934 3.99000E+01 3.05150E+01 0.00000E+00
 -1      3935 3.76500E+01 2.92160E+01 0.00000E+00
 -1      3936 4.14000E+01 3.05150E+01 0.00000E+00
 -1      3937 4.29000E+01 3.05150E+01 0.00000E+00
 -1      3938 4.06500E+01 2.92160E+01 0.00000E+00
 -1      3939 4.44000E+01 3.05150E+01 0.00000E+00
 -1      3940 4.59000E+01 3.05150E+01 0.00000E+00
 -1      3941 4.36500E+01 2.92160E+01 0.00000E+00
 -1      3942 4.74000E+01 3.05150E+01 0.00000E+00
 -1      3943 4.89000E+01 3.05150E+01 0.00000E+00
 -1      3944 4.66500E+01 2.92160E+01 0.00000E+00
 -1      3945 5.04000E+01 3.05150E+01 0.00000E+00
 -1      3946 5.19000E+01 3.05150E+01 0.00000E+00
 -1      3947 4.96500E+01 2.92160E+01 0.00000E+00
 -1      3948 5.34000E+01 3.05150E+01 0.00000E+00
 -1      3949 5.49000E+01 3.05150E+01 0.00000E+00
 -1      3950 5.26500E+01 2.92160E+01 0.00000E+00
 -1      3951 5.64000E+01 3.05150E+01 0.00000E+00
 -1      3952 5.79000E+01 3.05150E+01 0.00000E+00
 -1      3953 5.56500E+01 2.92160E+01 0.00000E+00
 -1      3954 5.94000E+01 3.05150E+01 0.00000E+00
 -1      3955 6.09000E+01 3.05150E+01 0.00000E+00
 -1      3956 5.86500E+01 2.92160E+01 0.00000E+00
 -1      3957 6.24000E+01 3.05150E+01 0.00000E+00
 -1      3958 6.39000E+01 3.05150E+01 0.00000E+00
 -1      3959 6.16500E+01 2.92160E+01 0.00000E+00
 -1      3960 6.54000E+01 3.05150E+01 0.00000E+00
 -1      3961 6.69000E+01 3.05150E+01 0.00000E+00
 -1      3962 6.46500E+01 2.92160E+01 0.00000E+00
 -1      3963 6.84000E+01 3.05150E+01 0.00000E+00
 -1      3964 6.99000E+01 3.05150E+01 0.00000E+00
 -1      3965 6.76500E+01 2.92160E+01 0.00000E+00
 -1      3966 7.14000E+01 3.05150E+01 0.00000E+00
 -1      3967 7.29000E+01 3.05150E+01 0.00000E+00
 -1      3968 7.06500E+01 2.92160E+01 0.00000E+00
 -1      3969 7.44000E+01 3.05150E+01 0.00000E+00
 -1      3970 7.59000E+01 3.05150E+01 0.00000E+00
 -1      3971 7.36500E+01 2.92160E+01 0.00000E+00
 -1      3972 7.74000E+01 3.05150E+01 0.00000E+00
 -1      3973 7.89000E+01 3.05150E+01 0.00000E+00
 -1      3974 7.66500E+01 2.92160E+01 0.00000E+00
 -1      3975 8.04000E+01 3.05150E+01 0.00000E+00
 -1      3976 8.19000E+01 3.05150E+01 0.00000E+00
 -1      3977 7.96500E+01 2.92160E+01 0.00000E+00
 -1      3978 1.23097E+02 3.04323E+01 0.00000E+00
 -1      3979 1.24597E+02 3.04323E+01 0.00000E+00
 -1      3980 1.23044E+02 2.90505E+01 0.00000E+00
 -1      3981 8.72529E+01 2.82147E+01 0.00000E+00
 -1      3982 1.73115E+01 1.73044E+01 0.00000E+00
 -1      3983 1.65615E+01 1.60054E+01 0.00000E+00
 -1      3984 1.26097E+02 3.04323E+01 0.00000E+00
 -1      3985 1.27597E+02 3.04323E+01 0.00000E+00
 -1      3986 1.26044E+02 2.90505E+01 0.00000E+00
 -1      3987 1.29097E+02 3.04323E+01 0.00000E+00
 -1      3988 1.31814E+02 2.35438E+01 0.00000E+00
 -1      3989 1.33113E+02 2.28109E+01 0.00000E+00
 -1      3990 1.33113E+02 2.13453E+01 0.00000E+00
 -1      3991 3.77850E+01 1.56973E+01 0.00000E+00
 -1      3992 3.62850E+01 1.56973E+01 0.00000E+00
 -1      3993 3.55350E+01 1.69963E+01 0.00000E+00
 -1      3994 3.85350E+01 1.69963E+01 0.00000E+00
 -1      3995 1.32799E+02 1.99638E+01 0.00000E+00
 -1      3996 1.32860E+02 1.83316E+01 0.00000E+00
 -1      3997 1.30871E+02 1.79335E+01 0.00000E+00
 -1      3998 1.31500E+02 2.06966E+01 0.00000E+00
 -1      3999 6.62850E+01 1.82952E+01 0.00000E+00
 -1      4000 6.47850E+01 1.82952E+01 0.00000E+00
 -1      4001 6.32850E+01 1.82952E+01 0.00000E+00
 -1      4002 6.17850E+01 1.82952E+01 0.00000E+00
 -1      4003 6.40350E+01 1.95942E+01 0.00000E+00
 -1      4004 7.22850E+01 1.82952E+01 0.00000E+00
 -1      4005 7.07850E+01 1.82952E+01 0.00000E+00
 -1      4006 7.52850E+01 1.82952E+01 0.00000E+00
 -1      4007 7.37850E+01 1.82952E+01 0.00000E+00
 -1      4008 7.30350E+01 1.95942E+01 0.00000E+00
 -1      4009 7.82850E+01 1.82952E+01 0.00000E+00
 -1      4010 7.67850E+01 1.82952E+01 0.00000E+00
 -1      4011 7.60350E+01 1.95942E+01 0.00000E+00
 -1      4012 8.12850E+01 1.82952E+01 0.00000E+00
 -1      4013 7.97850E+01 1.82952E+01 0.00000E+00
 -1      4014 7.90350E+01 1.95942E+01 0.00000E+00
 -1      4015 2.07750E+01 3.04293E+01 0.00000E+00
 -1      4016 2.22750E+01 3.04293E+01 0.00000E+00
 -1      4017 2.30250E+01 2.91303E+01 0.00000E+00
 -1      4018 2.07750E+01 2.89590E+01 0.00000E+00
 -1      4019 8.58790E+01 2.84700E+01 0.00000E+00
 -1      4020 8.60946E+01 2.75882E+01 0.00000E+00
 -1      4021 8.49362E+01 2.69617E+01 0.00000E+00
 -1      4022 8.43065E+01 2.39699E+01 0.00000E+00
 -1      4023 8.31741E+01 2.30394E+01 0.00000E+00
 -1      4024 8.40194E+01 2.51495E+01 0.00000E+00
 -1      4025 2.01105E+01 1.95138E+01 0.00000E+00
 -1      4026 1.96860E+01 2.20313E+01 0.00000E+00
 -1      4027 2.16105E+01 1.95138E+01 0.00000E+00
 -1      4028 2.95350E+01 1.69963E+01 0.00000E+00
 -1      4029 2.87850E+01 1.56973E+01 0.00000E+00
 -1      4030 2.72850E+01 1.56973E+01 0.00000E+00
 -1      4031 2.94000E+01 3.05150E+01 0.00000E+00
 -1      4032 3.09000E+01 3.05150E+01 0.00000E+00
 -1      4033 3.16500E+01 2.92160E+01 0.00000E+00
 -1      4034 6.92850E+01 1.82952E+01 0.00000E+00
 -1      4035 6.77850E+01 1.82952E+01 0.00000E+00
 -1      4036 6.70350E+01 1.95942E+01 0.00000E+00
 -1      4037 6.02850E+01 1.82952E+01 0.00000E+00
 -1      4038 5.87850E+01 1.82952E+01 0.00000E+00
 -1      4039 6.10350E+01 1.95942E+01 0.00000E+00
 -1      4040 2.57850E+01 1.56973E+01 0.00000E+00
 -1      4041 2.42850E+01 1.56973E+01 0.00000E+00
 -1      4042 2.35350E+01 1.69963E+01 0.00000E+00
 -1      4043 2.65350E+01 1.69963E+01 0.00000E+00
 -1      4044 8.27005E+01 1.94344E+01 0.00000E+00
 -1      4045 1.65615E+01 1.45335E+01 0.00000E+00
 -1      4046 1.81860E+01 2.35016E+01 0.00000E+00
 -1      4047 1.68870E+01 2.42391E+01 0.00000E+00
 -1      4048 1.68870E+01 2.57094E+01 0.00000E+00
 -1      4049 1.67642E+01 1.37415E+01 0.00000E+00
 -1      4050 1.24067E+02 1.76287E+01 0.00000E+00
 -1      4051 1.22567E+02 1.76287E+01 0.00000E+00
 -1      4052 1.22077E+02 1.87055E+01 0.00000E+00
 -1      4053 8.19981E+01 2.07270E+01 0.00000E+00
 -1      4054 5.72850E+01 1.82952E+01 0.00000E+00
 -1      4055 5.57850E+01 1.82952E+01 0.00000E+00
 -1      4056 5.50350E+01 1.95942E+01 0.00000E+00
 -1      4057 2.64000E+01 3.05150E+01 0.00000E+00
 -1      4058 2.79000E+01 3.05150E+01 0.00000E+00
 -1      4059 2.56500E+01 2.92160E+01 0.00000E+00
 -1      4060 1.33418E+02 3.03055E+01 0.00000E+00
 -1      4061 1.33376E+02 2.91290E+01 0.00000E+00
 -1      4062 1.32077E+02 2.83962E+01 0.00000E+00
 -1      4063 1.32436E+02 3.04637E+01 0.00000E+00
 -1      4064 4.52850E+01 1.82952E+01 0.00000E+00
 -1      4065 4.37850E+01 1.82952E+01 0.00000E+00
 -1      4066 5.20350E+01 1.95942E+01 0.00000E+00
 -1      4067 5.12850E+01 1.82952E+01 0.00000E+00
 -1      4068 4.97850E+01 1.82952E+01 0.00000E+00
 -1      4069 4.30350E+01 1.95942E+01 0.00000E+00
 -1      4070 4.22850E+01 1.82952E+01 0.00000E+00
 -1      4071 4.07850E+01 1.82952E+01 0.00000E+00
 -1      4072 8.29353E+01 2.85298E+01 0.00000E+00
 -1      4073 8.36853E+01 2.98288E+01 0.00000E+00
 -1      4074 1.30579E+02 2.68205E+01 0.00000E+00
 -1      4075 1.30537E+02 2.56440E+01 0.00000E+00
 -1      4076 8.51853E+01 2.98288E+01 0.00000E+00
 -1      4077 8.14238E+01 2.30863E+01 0.00000E+00
 -1      4078 8.17110E+01 2.19066E+01 0.00000E+00
 -1      4079 8.02478E+01 2.07739E+01 0.00000E+00
 -1      4080 3.32850E+01 1.82952E+01 0.00000E+00
 -1      4081 3.17850E+01 1.82952E+01 0.00000E+00
 -1      4082 7.00350E+01 1.95942E+01 0.00000E+00
 -1      4083 1.30537E+02 2.41783E+01 0.00000E+00
 -1      4084 1.30537E+02 2.27127E+01 0.00000E+00
 -1      4085 1.29260E+02 2.48129E+01 0.00000E+00
 -1      4086 1.31453E+02 3.06220E+01 0.00000E+00
 -1      4087 1.22802E+02 1.96166E+01 0.00000E+00
 -1      4088 1.29371E+02 1.79335E+01 0.00000E+00
 -1      4089 1.27871E+02 1.79335E+01 0.00000E+00
 -1      4090 1.29685E+02 1.93150E+01 0.00000E+00
 -1      4091 3.02850E+01 1.82952E+01 0.00000E+00
 -1      4092 2.87850E+01 1.82952E+01 0.00000E+00
 -1      4093 3.10350E+01 1.95942E+01 0.00000E+00
 -1      4094 5.80350E+01 1.95942E+01 0.00000E+00
 -1      4095 2.86500E+01 2.92160E+01 0.00000E+00
 -1      4096 1.96860E+01 2.35016E+01 0.00000E+00
 -1      4097 1.23215E+02 2.55593E+01 0.00000E+00
 -1      4098 1.22723E+02 2.64339E+01 0.00000E+00
 -1      4099 1.89180E+01 2.69226E+01 0.00000E+00
 -1      4100 1.22945E+02 2.14748E+01 0.00000E+00
 -1      4101 1.22224E+02 2.25327E+01 0.00000E+00
 -1      4102 1.23142E+02 2.34799E+01 0.00000E+00
 -1      4103 1.22776E+02 2.78157E+01 0.00000E+00
 -1      4104 4.82850E+01 1.82952E+01 0.00000E+00
 -1      4105 4.67850E+01 1.82952E+01 0.00000E+00
 -1      4106 4.60350E+01 1.95942E+01 0.00000E+00
 -1      4107 4.90350E+01 1.95942E+01 0.00000E+00
 -1      4108 1.26719E+02 1.77811E+01 0.00000E+00
 -1      4109 1.25219E+02 1.77811E+01 0.00000E+00
 -1      4110 1.24729E+02 1.88579E+01 0.00000E+00
 -1      4111 1.27033E+02 1.91626E+01 0.00000E+00
 -1      4112 1.29900E+02 2.92402E+01 0.00000E+00
 -1      4113 8.63436E+01 3.04553E+01 0.00000E+00
 -1      4114 8.72849E+01 3.13267E+01 0.00000E+00
 -1      4115 3.69000E+01 2.79170E+01 0.00000E+00
 -1      4116 3.84000E+01 2.79170E+01 0.00000E+00
 -1      4117 3.99000E+01 2.79170E+01 0.00000E+00
 -1      4118 4.14000E+01 2.79170E+01 0.00000E+00
 -1      4119 3.91500E+01 2.66180E+01 0.00000E+00
 -1      4120 4.29000E+01 2.79170E+01 0.00000E+00
 -1      4121 4.44000E+01 2.79170E+01 0.00000E+00
 -1      4122 4.21500E+01 2.66180E+01 0.00000E+00
 -1      4123 4.59000E+01 2.79170E+01 0.00000E+00
 -1      4124 4.74000E+01 2.79170E+01 0.00000E+00
 -1      4125 4.51500E+01 2.66180E+01 0.00000E+00
 -1      4126 4.89000E+01 2.79170E+01 0.00000E+00
 -1      4127 5.04000E+01 2.79170E+01 0.00000E+00
 -1      4128 4.81500E+01 2.66180E+01 0.00000E+00
 -1      4129 5.19000E+01 2.79170E+01 0.00000E+00
 -1      4130 5.34000E+01 2.79170E+01 0.00000E+00
 -1      4131 5.11500E+01 2.66180E+01 0.00000E+00
 -1      4132 5.49000E+01 2.79170E+01 0.00000E+00
 -1      4133 5.64000E+01 2.79170E+01 0.00000E+00
 -1      4134 5.41500E+01 2.66180E+01 0.00000E+00
 -1      4135 5.79000E+01 2.79170E+01 0.00000E+00
 -1      4136 5.94000E+01 2.79170E+01 0.00000E+00
 -1      4137 5.71500E+01 2.66180E+01 0.00000E+00
 -1      4138 6.09000E+01 2.79170E+01 0.00000E+00
 -1      4139 6.24000E+01 2.79170E+01 0.00000E+00
 -1      4140 6.01500E+01 2.66180E+01 0.00000E+00
 -1      4141 6.39000E+01 2.79170E+01 0.00000E+00
 -1      4142 6.54000E+01 2.79170E+01 0.00000E+00
 -1      4143 6.31500E+01 2.66180E+01 0.00000E+00
 -1      4144 6.69000E+01 2.79170E+01 0.00000E+00
 -1      4145 6.84000E+01 2.79170E+01 0.00000E+00
 -1      4146 6.61500E+01 2.66180E+01 0.00000E+00
 -1      4147 6.99000E+01 2.79170E+01 0.00000E+00
 -1      4148 7.14000E+01 2.79170E+01 0.00000E+00
 -1      4149 6.91500E+01 2.66180E+01 0.00000E+00
 -1      4150 7.29000E+01 2.79170E+01 0.00000E+00
 -1      4151 7.44000E+01 2.79170E+01 0.00000E+00
 -1      4152 7.21500E+01 2.66180E+01 0.00000E+00
 -1      4153 7.59000E+01 2.79170E+01 0.00000E+00
 -1      4154 7.74000E+01 2.79170E+01 0.00000E+00
 -1      4155 7.51500E+01 2.66180E+01 0.00000E+00
 -1      4156 7.89000E+01 2.79170E+01 0.00000E+00
 -1      4157 8.04000E+01 2.79170E+01 0.00000E+00
 -1      4158 7.81500E+01 2.66180E+01 0.00000E+00
 -1      4159 1.24276E+02 2.78157E+01 0.00000E+00
 -1      4160 3.47850E+01 1.82952E+01 0.00000E+00
 -1      4161 3.40350E+01 1.95942E+01 0.00000E+00
 -1      4162 3.62850E+01 1.82952E+01 0.00000E+00
 -1      4163 7.07850E+01 2.08932E+01 0.00000E+00
 -1      4164 6.92850E+01 2.08932E+01 0.00000E+00
 -1      4165 1.24225E+02 1.97108E+01 0.00000E+00
 -1      4166 1.23449E+02 2.06219E+01 0.00000E+00
 -1      4167 1.24367E+02 2.15691E+01 0.00000E+00
 -1      4168 1.25376E+02 1.98632E+01 0.00000E+00
 -1      4169 5.57850E+01 2.08932E+01 0.00000E+00
 -1      4170 5.42850E+01 2.08932E+01 0.00000E+00
 -1      4171 7.87478E+01 2.07739E+01 0.00000E+00
 -1      4172 6.47850E+01 2.08932E+01 0.00000E+00
 -1      4173 6.32850E+01 2.08932E+01 0.00000E+00
 -1      4174 7.67850E+01 2.08932E+01 0.00000E+00
 -1      4175 7.52850E+01 2.08932E+01 0.00000E+00
 -1      4176 7.37850E+01 2.08932E+01 0.00000E+00
 -1      4177 7.22850E+01 2.08932E+01 0.00000E+00
 -1      4178 7.15350E+01 2.21922E+01 0.00000E+00
 -1      4179 7.45350E+01 2.21922E+01 0.00000E+00
 -1      4180 8.38038E+01 2.60313E+01 0.00000E+00
 -1      4181 8.26713E+01 2.51009E+01 0.00000E+00
 -1      4182 8.35882E+01 2.69131E+01 0.00000E+00
 -1      4183 2.31105E+01 1.95138E+01 0.00000E+00
 -1      4184 2.26860E+01 2.20312E+01 0.00000E+00
 -1      4185 2.46105E+01 1.95138E+01 0.00000E+00
 -1      4186 6.17850E+01 2.08932E+01 0.00000E+00
 -1      4187 6.02850E+01 2.08932E+01 0.00000E+00
 -1      4188 6.25350E+01 2.21922E+01 0.00000E+00
 -1      4189 1.23936E+02 2.45014E+01 0.00000E+00
 -1      4190 1.24730E+02 2.55230E+01 0.00000E+00
 -1      4191 1.24657E+02 2.34435E+01 0.00000E+00
 -1      4192 1.97682E+01 2.54909E+01 0.00000E+00
 -1      4193 2.05002E+01 2.74416E+01 0.00000E+00
 -1      4194 3.39000E+01 2.79170E+01 0.00000E+00
 -1      4195 3.54000E+01 2.79170E+01 0.00000E+00
 -1      4196 3.61500E+01 2.66180E+01 0.00000E+00
 -1      4197 2.79000E+01 2.79170E+01 0.00000E+00
 -1      4198 2.94000E+01 2.79170E+01 0.00000E+00
 -1      4199 2.49000E+01 2.79170E+01 0.00000E+00
 -1      4200 2.64000E+01 2.79170E+01 0.00000E+00
 -1      4201 2.71500E+01 2.66180E+01 0.00000E+00
 -1      4202 3.09000E+01 2.79170E+01 0.00000E+00
 -1      4203 3.24000E+01 2.79170E+01 0.00000E+00
 -1      4204 3.01500E+01 2.66180E+01 0.00000E+00
 -1      4205 6.77850E+01 2.08932E+01 0.00000E+00
 -1      4206 6.62850E+01 2.08932E+01 0.00000E+00
 -1      4207 6.85350E+01 2.21922E+01 0.00000E+00
 -1      4208 2.12682E+01 2.40206E+01 0.00000E+00
 -1      4209 1.30268E+02 2.17046E+01 0.00000E+00
 -1      4210 1.29954E+02 2.03231E+01 0.00000E+00
 -1      4211 1.28454E+02 2.03231E+01 0.00000E+00
 -1      4212 1.28991E+02 2.23392E+01 0.00000E+00
 -1      4213 5.87850E+01 2.08932E+01 0.00000E+00
 -1      4214 5.72850E+01 2.08932E+01 0.00000E+00
 -1      4215 5.95350E+01 2.21922E+01 0.00000E+00
 -1      4216 1.25253E+02 2.66693E+01 0.00000E+00
 -1      4217 1.25521E+02 2.79042E+01 0.00000E+00
 -1      4218 1.27021E+02 2.79042E+01 0.00000E+00
 -1      4219 1.25974E+02 2.56114E+01 0.00000E+00
 -1      4220 4.37850E+01 2.08932E+01 0.00000E+00
 -1      4221 4.22850E+01 2.08932E+01 0.00000E+00
 -1      4222 8.18029E+01 2.75994E+01 0.00000E+00
 -1      4223 6.55350E+01 2.21922E+01 0.00000E+00
 -1      4224 4.52850E+01 2.08932E+01 0.00000E+00
 -1      4225 4.45350E+01 2.21922E+01 0.00000E+00
 -1      4226 4.67850E+01 2.08932E+01 0.00000E+00
 -1      4227 7.79978E+01 2.20729E+01 0.00000E+00
 -1      4228 3.92850E+01 1.82952E+01 0.00000E+00
 -1      4229 3.77850E+01 1.82952E+01 0.00000E+00
 -1      4230 4.00350E+01 1.95942E+01 0.00000E+00
 -1      4231 1.27879E+02 2.65182E+01 0.00000E+00
 -1      4232 1.28402E+02 2.76645E+01 0.00000E+00
 -1      4233 3.31500E+01 2.66180E+01 0.00000E+00
 -1      4234 2.16252E+01 2.75273E+01 0.00000E+00
 -1      4235 3.17850E+01 2.08932E+01 0.00000E+00
 -1      4236 3.02850E+01 2.08932E+01 0.00000E+00
 -1      4237 5.35350E+01 2.21922E+01 0.00000E+00
 -1      4238 5.27850E+01 2.08932E+01 0.00000E+00
 -1      4239 5.12850E+01 2.08932E+01 0.00000E+00
 -1      4240 2.27682E+01 2.40206E+01 0.00000E+00
 -1      4241 5.65350E+01 2.21922E+01 0.00000E+00
 -1      4242 2.74477E+01 1.89045E+01 0.00000E+00
 -1      4243 2.59478E+01 1.89045E+01 0.00000E+00
 -1      4244 2.55232E+01 2.14220E+01 0.00000E+00
 -1      4245 2.81977E+01 2.02035E+01 0.00000E+00
 -1      4246 1.30758E+02 2.78542E+01 0.00000E+00
 -1      4247 8.10529E+01 2.63004E+01 0.00000E+00
 -1      4248 1.26926E+02 2.53320E+01 0.00000E+00
 -1      4249 1.28307E+02 2.50924E+01 0.00000E+00
 -1      4250 1.28307E+02 2.36268E+01 0.00000E+00
 -1      4251 1.26403E+02 2.41856E+01 0.00000E+00
 -1      4252 3.32850E+01 2.08932E+01 0.00000E+00
 -1      4253 3.25350E+01 2.21922E+01 0.00000E+00
 -1      4254 3.47850E+01 2.08932E+01 0.00000E+00
 -1      4255 7.90581E+01 2.33098E+01 0.00000E+00
 -1      4256 7.70953E+01 2.34292E+01 0.00000E+00
 -1      4257 3.84000E+01 2.53190E+01 0.00000E+00
 -1      4258 3.99000E+01 2.53190E+01 0.00000E+00
 -1      4259 4.18425E+01 2.44051E+01 0.00000E+00
 -1      4260 4.33425E+01 2.44051E+01 0.00000E+00
 -1      4261 4.48425E+01 2.44051E+01 0.00000E+00
 -1      4262 4.63425E+01 2.44051E+01 0.00000E+00
 -1      4263 5.04000E+01 2.53190E+01 0.00000E+00
 -1      4264 5.19000E+01 2.53190E+01 0.00000E+00
 -1      4265 5.38425E+01 2.44051E+01 0.00000E+00
 -1      4266 5.53425E+01 2.44051E+01 0.00000E+00
 -1      4267 5.68425E+01 2.44051E+01 0.00000E+00
 -1      4268 5.83425E+01 2.44051E+01 0.00000E+00
 -1      4269 5.98425E+01 2.44051E+01 0.00000E+00
 -1      4270 6.13425E+01 2.44051E+01 0.00000E+00
 -1      4271 6.28425E+01 2.44051E+01 0.00000E+00
 -1      4272 6.43425E+01 2.44051E+01 0.00000E+00
 -1      4273 6.58425E+01 2.44051E+01 0.00000E+00
 -1      4274 6.73425E+01 2.44051E+01 0.00000E+00
 -1      4275 6.88425E+01 2.44051E+01 0.00000E+00
 -1      4276 7.03425E+01 2.44051E+01 0.00000E+00
 -1      4277 7.18425E+01 2.44051E+01 0.00000E+00
 -1      4278 7.33425E+01 2.44051E+01 0.00000E+00
 -1      4279 7.74028E+01 2.56420E+01 0.00000E+00
 -1      4280 7.89028E+01 2.56420E+01 0.00000E+00
 -1      4281 3.70350E+01 1.95942E+01 0.00000E+00
 -1      4282 8.13601E+01 2.46798E+01 0.00000E+00
 -1      4283 7.98970E+01 2.35470E+01 0.00000E+00
 -1      4284 4.10925E+01 2.31061E+01 0.00000E+00
 -1      4285 4.03425E+01 2.18071E+01 0.00000E+00
 -1      4286 8.11445E+01 2.55616E+01 0.00000E+00
 -1      4287 3.28425E+01 2.44051E+01 0.00000E+00
 -1      4288 3.43425E+01 2.44051E+01 0.00000E+00
 -1      4289 2.25611E+01 2.77923E+01 0.00000E+00
 -1      4290 2.36861E+01 2.78779E+01 0.00000E+00
 -1      4291 1.24988E+02 2.23666E+01 0.00000E+00
 -1      4292 1.25782E+02 2.33881E+01 0.00000E+00
 -1      4293 1.26734E+02 2.31087E+01 0.00000E+00
 -1      4294 1.25493E+02 2.15137E+01 0.00000E+00
 -1      4295 3.56213E+01 2.48621E+01 0.00000E+00
 -1      4296 3.71213E+01 2.48621E+01 0.00000E+00
 -1      4297 3.78713E+01 2.35631E+01 0.00000E+00
 -1      4298 3.53138E+01 2.26492E+01 0.00000E+00
 -1      4299 2.44361E+01 2.65789E+01 0.00000E+00
 -1      4300 2.89477E+01 2.15025E+01 0.00000E+00
 -1      4301 2.22863E+01 2.62749E+01 0.00000E+00
 -1      4302 2.64000E+01 2.53190E+01 0.00000E+00
 -1      4303 2.79000E+01 2.53190E+01 0.00000E+00
 -1      4304 4.97850E+01 2.08932E+01 0.00000E+00
 -1      4305 4.82850E+01 2.08932E+01 0.00000E+00
 -1      4306 5.05350E+01 2.21922E+01 0.00000E+00
 -1      4307 2.98425E+01 2.44051E+01 0.00000E+00
 -1      4308 3.13425E+01 2.44051E+01 0.00000E+00
 -1      4309 1.27491E+02 2.01693E+01 0.00000E+00
 -1      4310 1.26339E+02 2.00170E+01 0.00000E+00
 -1      4311 1.25834E+02 2.08699E+01 0.00000E+00
 -1      4312 1.27760E+02 2.11774E+01 0.00000E+00
 -1      4313 7.48425E+01 2.44051E+01 0.00000E+00
 -1      4314 4.75350E+01 2.21922E+01 0.00000E+00
 -1      4315 4.78425E+01 2.44051E+01 0.00000E+00
 -1      4316 4.93425E+01 2.44051E+01 0.00000E+00
 -1      4317 7.63425E+01 2.44051E+01 0.00000E+00
 -1      4318 2.38710E+01 2.52611E+01 0.00000E+00
 -1      4319 2.50849E+01 2.53001E+01 0.00000E+00
 -1      4320 3.88425E+01 2.18071E+01 0.00000E+00
 -1      4321 3.60638E+01 2.13502E+01 0.00000E+00
 -1      4322 2.58349E+01 2.40011E+01 0.00000E+00
 -1      4323 3.75638E+01 2.13502E+01 0.00000E+00
 -1      4324 5.30925E+01 2.31061E+01 0.00000E+00
 -1      4325 2.90925E+01 2.31061E+01 0.00000E+00
 -1      4326 1.28039E+02 2.26187E+01 0.00000E+00
 -1      4327 2.70052E+01 2.24164E+01 0.00000E+00
 -1      4328 2.29351E+01 2.49961E+01 0.00000E+00
 -1      4329 5.00925E+01 2.31061E+01 0.00000E+00
 -1      4330 7.89945E+01 2.49033E+01 0.00000E+00
 -1      4331 7.97417E+01 2.58793E+01 0.00000E+00
 -1      4332 2.56680E+01 2.30256E+01 0.00000E+00
 -1      4333 2.43528E+01 2.30068E+01 0.00000E+00
 -1      4334 5.15925E+01 2.31061E+01 0.00000E+00
 -1      4335 1.26455E+02 2.16674E+01 0.00000E+00
 -1      4336 1.27418E+02 2.18212E+01 0.00000E+00
 -3
    3C                          2086                                     1
 -1       165    8    0    1
 -2         6         7        23      1126      1290      1143
 -1       166    8    0    1
 -2         7         8       165      1127      1291      1292
 -1       167    8    0    1
 -2         8         9       166      1128      1293      1294
 -1       168    8    0    1
 -2         8       166       165      1294      1295      1291
 -1       169    8    0    1
 -2         9        10       167      1129      1296      1297
 -1       170    8    0    1
 -2         9       167       166      1297      1298      1293
 -1       171    8    0    1
 -2        10        11       168      1130      1299      1300
 -1       172    8    0    1
 -2        10       168       167      1300      1301      1296
 -1       173    8    0    1
 -2        11        12       169      1131      1302      1303
 -1       174    8    0    1
 -2        11       169       168      1303      1304      1299
 -1       175    8    0    1
 -2        12        13       170      1132      1305      1306
 -1       176    8    0    1
 -2        12       170       169      1306      1307      1302
 -1       177    8    0    1
 -2        13        14       171      1133      1308      1309
 -1       178    8    0    1
 -2        13       171       170      1309      1310      1305
 -1       179    8    0    1
 -2        14        15       172      1134      1311      1312
 -1       180    8    0    1
 -2        14       172       171      1312      1313      1308
 -1       181    8    0    1
 -2        15        16       173      1135      1314      1315
 -1       182    8    0    1
 -2        15       173       172      1315      1316      1311
 -1       183    8    0    1
 -2        16        17       174      1136      1317      1318
 -1       184    8    0    1
 -2        16       174       173      1318      1319      1314
 -1       185    8    0    1
 -2        17        18       175      1137      1320      1321
 -1       186    8    0    1
 -2        17       175       174      1321      1322      1317
 -1       187    8    0    1
 -2        18        19       176      1138      1323      1324
 -1       188    8    0    1
 -2        18       176       175      1324      1325      1320
 -1       189    8    0    1
 -2        19        20       177      1139      1326      1327
 -1       190    8    0    1
 -2        19       177       176      1327      1328      1323
 -1       191    8    0    1
 -2        20        21       178      1140      1329      1330
 -1       192    8    0    1
 -2        20       178       177      1330      1331      1326
 -1       193    8    0    1
 -2        21        22       179      1141      1332      1333
 -1       194    8    0    1
 -2        21       179       178      1333      1334      1329
 -1       195    8    0    1
 -2        22         5       180      1142      1335      1336
 -1       196    8    0    1
 -2       179        22       180      1332      1336      1337
 -1       197    8    0    1
 -2         5        72       180      1193      1338      1335
 -1       198    8    0    1
 -2        24        23       181      1144      1339      1340
 -1       199    8    0    1
 -2        25        24       182      1145      1341      1342
 -1       200    8    0    1
 -2        24       181       182      1340      1343      1341
 -1       201    8    0    1
 -2        26        25       183      1146      1344      1345
 -1       202    8    0    1
 -2        25       182       183      1342      1346      1344
 -1       203    8    0    1
 -2        27        26       184      1147      1347      1348
 -1       204    8    0    1
 -2        26       183       184      1345      1349      1347
 -1       205    8    0    1
 -2        28        27       185      1148      1350      1351
 -1       206    8    0    1
 -2        27       184       185      1348      1352      1350
 -1       207    8    0    1
 -2        29        28       186      1149      1353      1354
 -1       208    8    0    1
 -2        28       185       186      1351      1355      1353
 -1       209    8    0    1
 -2        30        29       187      1150      1356      1357
 -1       210    8    0    1
 -2        29       186       187      1354      1358      1356
 -1       211    8    0    1
 -2        31        30       188      1151      1359      1360
 -1       212    8    0    1
 -2        30       187       188      1357      1361      1359
 -1       213    8    0    1
 -2        32        31       189      1152      1362      1363
 -1       214    8    0    1
 -2        31       188       189      1360      1364      1362
 -1       215    8    0    1
 -2        33        32       190      1153      1365      1366
 -1       216    8    0    1
 -2        32       189       190      1363      1367      1365
 -1       217    8    0    1
 -2        34        33       191      1154      1368      1369
 -1       218    8    0    1
 -2        33       190       191      1366      1370      1368
 -1       219    8    0    1
 -2        35        34       192      1155      1371      1372
 -1       220    8    0    1
 -2        34       191       192      1369      1373      1371
 -1       221    8    0    1
 -2        36        35       193      1156      1374      1375
 -1       222    8    0    1
 -2        35       192       193      1372      1376      1374
 -1       223    8    0    1
 -2        37        36       194      1157      1377      1378
 -1       224    8    0    1
 -2        36       193       194      1375      1379      1377
 -1       225    8    0    1
 -2        38        37       195      1158      1380      1381
 -1       226    8    0    1
 -2        37       194       195      1378      1382      1380
 -1       227    8    0    1
 -2        39        38       196      1159      1383      1384
 -1       228    8    0    1
 -2        38       195       196      1381      1385      1383
 -1       229    8    0    1
 -2        40        39       197      1160      1386      1387
 -1       230    8    0    1
 -2        39       196       197      1384      1388      1386
 -1       231    8    0    1
 -2        41        40       198      1161      1389      1390
 -1       232    8    0    1
 -2        40       197       198      1387      1391      1389
 -1       233    8    0    1
 -2        42        41       199      1162      1392      1393
 -1       234    8    0    1
 -2        41       198       199      1390      1394      1392
 -1       235    8    0    1
 -2        43        42       200      1163      1395      1396
 -1       236    8    0    1
 -2        42       199       200      1393      1397      1395
 -1       237    8    0    1
 -2        44        43       201      1164      1398      1399
 -1       238    8    0    1
 -2        43       200       201      1396      1400      1398
 -1       239    8    0    1
 -2        45        44       202      1165      1401      1402
 -1       240    8    0    1
 -2        44       201       202      1399      1403      1401
 -1       241    8    0    1
 -2        46        45       203      1166      1404      1405
 -1       242    8    0    1
 -2        45       202       203      1402      1406      1404
 -1       243    8    0    1
 -2        47        46       204      1167      1407      1408
 -1       244    8    0    1
 -2        46       203       204      1405      1409      1407
 -1       245    8    0    1
 -2        48        47       205      1168      1410      1411
 -1       246    8    0    1
 -2        47       204       205      1408      1412      1410
 -1       247    8    0    1
 -2        49        48       206      1169      1413      1414
 -1       248    8    0    1
 -2        48       205       206      1411      1415      1413
 -1       249    8    0    1
 -2        50        49       207      1170      1416      1417
 -1       250    8    0    1
 -2        49       206       207      1414      1418      1416
 -1       251    8    0    1
 -2        51        50       208      1171      1419      1420
 -1       252    8    0    1
 -2        50       207       208      1417      1421      1419
 -1       253    8    0    1
 -2        52        51       209      1172      1422      1423
 -1       254    8    0    1
 -2        51       208       209      1420      1424      1422
 -1       255    8    0    1
 -2        53        52       210      1173      1425      1426
 -1       256    8    0    1
 -2        52       209       210      1423      1427      1425
 -1       257    8    0    1
 -2        54        53       211      1174      1428      1429
 -1       258    8    0    1
 -2        53       210       211      1426      1430      1428
 -1       259    8    0    1
 -2        55        54       212      1175      1431      1432
 -1       260    8    0    1
 -2        54       211       212      1429      1433      1431
 -1       261    8    0    1
 -2        56        55       213      1176      1434      1435
 -1       262    8    0    1
 -2        55       212       213      1432      1436      1434
 -1       263    8    0    1
 -2        57        56       214      1177      1437      1438
 -1       264    8    0    1
 -2        56       213       214      1435      1439      1437
 -1       265    8    0    1
 -2        58        57       215      1178      1440      1441
 -1       266    8    0    1
 -2        57       214       215      1438      1442      1440
 -1       267    8    0    1
 -2        59        58       216      1179      1443      1444
 -1       268    8    0    1
 -2        58       215       216      1441      1445      1443
 -1       269    8    0    1
 -2        60        59       217      1180      1446      1447
 -1       270    8    0    1
 -2        59       216       217      1444      1448      1446
 -1       271    8    0    1
 -2        61        60       218      1181      1449      1450
 -1       272    8    0    1
 -2        60       217       218      1447      1451      1449
 -1       273    8    0    1
 -2        62        61       219      1182      1452      1453
 -1       274    8    0    1
 -2        61       218       219      1450      1454      1452
 -1       275    8    0    1
 -2        63        62       220      1183      1455      1456
 -1       276    8    0    1
 -2        62       219       220      1453      1457      1455
 -1       277    8    0    1
 -2        64        63       221      1184      1458      1459
 -1       278    8    0    1
 -2        63       220       221      1456      1460      1458
 -1       279    8    0    1
 -2        65        64       222      1185      1461      1462
 -1       280    8    0    1
 -2        64       221       222      1459      1463      1461
 -1       281    8    0    1
 -2        66        65       223      1186      1464      1465
 -1       282    8    0    1
 -2        65       222       223      1462      1466      1464
 -1       283    8    0    1
 -2        67        66       224      1187      1467      1468
 -1       284    8    0    1
 -2        66       223       224      1465      1469      1467
 -1       285    8    0    1
 -2        68        67       225      1188      1470      1471
 -1       286    8    0    1
 -2        67       224       225      1468      1472      1470
 -1       287    8    0    1
 -2        69        68       226      1189      1473      1474
 -1       288    8    0    1
 -2        68       225       226      1471      1475      1473
 -1       289    8    0    1
 -2        70        69       227      1190      1476      1477
 -1       290    8    0    1
 -2        69       226       227      1474      1478      1476
 -1       291    8    0    1
 -2        71        70       228      1191      1479      1480
 -1       292    8    0    1
 -2        70       227       228      1477      1481      1479
 -1       293    8    0    1
 -2         4        71       136      1192      1482      1259
 -1       294    8    0    1
 -2       136        71       228      1482      1480      1483
 -1       295    8    0    1
 -2        72        73       229      1194      1484      1485
 -1       296    8    0    1
 -2        72       229       180      1485      1486      1338
 -1       297    8    0    1
 -2        73        74       230      1195      1487      1488
 -1       298    8    0    1
 -2        73       230       229      1488      1489      1484
 -1       299    8    0    1
 -2        74        75       231      1196      1490      1491
 -1       300    8    0    1
 -2        74       231       230      1491      1492      1487
 -1       301    8    0    1
 -2        75        76       232      1197      1493      1494
 -1       302    8    0    1
 -2        75       232       231      1494      1495      1490
 -1       303    8    0    1
 -2        76        77       233      1198      1496      1497
 -1       304    8    0    1
 -2        76       233       232      1497      1498      1493
 -1       305    8    0    1
 -2        77        78       234      1199      1499      1500
 -1       306    8    0    1
 -2        77       234       233      1500      1501      1496
 -1       307    8    0    1
 -2        78        79       235      1200      1502      1503
 -1       308    8    0    1
 -2        78       235       234      1503      1504      1499
 -1       309    8    0    1
 -2        79        80       236      1201      1505      1506
 -1       310    8    0    1
 -2        79       236       235      1506      1507      1502
 -1       311    8    0    1
 -2        80        81       237      1202      1508      1509
 -1       312    8    0    1
 -2        80       237       236      1509      1510      1505
 -1       313    8    0    1
 -2        81        82       238      1203      1511      1512
 -1       314    8    0    1
 -2        81       238       237      1512      1513      1508
 -1       315    8    0    1
 -2        82        83       239      1204      1514      1515
 -1       316    8    0    1
 -2        82       239       238      1515      1516      1511
 -1       317    8    0    1
 -2        83        84       240      1205      1517      1518
 -1       318    8    0    1
 -2        83       240       239      1518      1519      1514
 -1       319    8    0    1
 -2        84        85       241      1206      1520      1521
 -1       320    8    0    1
 -2        84       241       240      1521      1522      1517
 -1       321    8    0    1
 -2        85        86       242      1207      1523      1524
 -1       322    8    0    1
 -2        85       242       241      1524      1525      1520
 -1       323    8    0    1
 -2        86        87       243      1208      1526      1527
 -1       324    8    0    1
 -2        86       243       242      1527      1528      1523
 -1       325    8    0    1
 -2        87        88       244      1209      1529      1530
 -1       326    8    0    1
 -2        87       244       243      1530      1531      1526
 -1       327    8    0    1
 -2        88        89       245      1210      1532      1533
 -1       328    8    0    1
 -2        88       245       244      1533      1534      1529
 -1       329    8    0    1
 -2        89        90       246      1211      1535      1536
 -1       330    8    0    1
 -2        89       246       245      1536      1537      1532
 -1       331    8    0    1
 -2        90        91       247      1212      1538      1539
 -1       332    8    0    1
 -2        90       247       246      1539      1540      1535
 -1       333    8    0    1
 -2        91        92       248      1213      1541      1542
 -1       334    8    0    1
 -2        91       248       247      1542      1543      1538
 -1       335    8    0    1
 -2        92        93       249      1214      1544      1545
 -1       336    8    0    1
 -2        92       249       248      1545      1546      1541
 -1       337    8    0    1
 -2        93        94       250      1215      1547      1548
 -1       338    8    0    1
 -2        93       250       249      1548      1549      1544
 -1       339    8    0    1
 -2        94        95       251      1216      1550      1551
 -1       340    8    0    1
 -2        94       251       250      1551      1552      1547
 -1       341    8    0    1
 -2        95        96       252      1217      1553      1554
 -1       342    8    0    1
 -2        95       252       251      1554      1555      1550
 -1       343    8    0    1
 -2        96        97       253      1218      1556      1557
 -1       344    8    0    1
 -2        96       253       252      1557      1558      1553
 -1       345    8    0    1
 -2        97        98       254      1219      1559      1560
 -1       346    8    0    1
 -2        97       254       253      1560      1561      1556
 -1       347    8    0    1
 -2        98        99       255      1220      1562      1563
 -1       348    8    0    1
 -2        98       255       254      1563      1564      1559
 -1       349    8    0    1
 -2        99       100       256      1221      1565      1566
 -1       350    8    0    1
 -2        99       256       255      1566      1567      1562
 -1       351    8    0    1
 -2       100       101       257      1222      1568      1569
 -1       352    8    0    1
 -2       100       257       256      1569      1570      1565
 -1       353    8    0    1
 -2       101       102       258      1223      1571      1572
 -1       354    8    0    1
 -2       101       258       257      1572      1573      1568
 -1       355    8    0    1
 -2       102       103       259      1224      1574      1575
 -1       356    8    0    1
 -2       102       259       258      1575      1576      1571
 -1       357    8    0    1
 -2       103       104       260      1225      1577      1578
 -1       358    8    0    1
 -2       103       260       259      1578      1579      1574
 -1       359    8    0    1
 -2       104       105       261      1226      1580      1581
 -1       360    8    0    1
 -2       104       261       260      1581      1582      1577
 -1       361    8    0    1
 -2       105       106       262      1227      1583      1584
 -1       362    8    0    1
 -2       105       262       261      1584      1585      1580
 -1       363    8    0    1
 -2       106       107       263      1228      1586      1587
 -1       364    8    0    1
 -2       106       263       262      1587      1588      1583
 -1       365    8    0    1
 -2       107       108       264      1229      1589      1590
 -1       366    8    0    1
 -2       107       264       263      1590      1591      1586
 -1       367    8    0    1
 -2       108       109       265      1230      1592      1593
 -1       368    8    0    1
 -2       108       265       264      1593      1594      1589
 -1       369    8    0    1
 -2       109       110       266      1231      1595      1596
 -1       370    8    0    1
 -2       109       266       265      1596      1597      1592
 -1       371    8    0    1
 -2       110       111       267      1232      1598      1599
 -1       372    8    0    1
 -2       110       267       266      1599      1600      1595
 -1       373    8    0    1
 -2       111       112       268      1233      1601      1602
 -1       374    8    0    1
 -2       111       268       267      1602      1603      1598
 -1       375    8    0    1
 -2       112       113       269      1234      1604      1605
 -1       376    8    0    1
 -2       112       269       268      1605      1606      1601
 -1       377    8    0    1
 -2       113       114       270      1235      1607      1608
 -1       378    8    0    1
 -2       113       270       269      1608      1609      1604
 -1       379    8    0    1
 -2       114       115       271      1236      1610      1611
 -1       380    8    0    1
 -2       114       271       270      1611      1612      1607
 -1       381    8    0    1
 -2       115       116       272      1237      1613      1614
 -1       382    8    0    1
 -2       115       272       271      1614      1615      1610
 -1       383    8    0    1
 -2       116       117       273      1238      1616      1617
 -1       384    8    0    1
 -2       116       273       272      1617      1618      1613
 -1       385    8    0    1
 -2       117       118       274      1239      1619      1620
 -1       386    8    0    1
 -2       117       274       273      1620      1621      1616
 -1       387    8    0    1
 -2       118       119       275      1240      1622      1623
 -1       388    8    0    1
 -2       118       275       274      1623      1624      1619
 -1       389    8    0    1
 -2       119       120       276      1241      1625      1626
 -1       390    8    0    1
 -2       119       276       275      1626      1627      1622
 -1       391    8    0    1
 -2       120         3       121      1242      1243      1628
 -1       392    8    0    1
 -2       121       122       277      1244      1629      1630
 -1       393    8    0    1
 -2       122       123       278      1245      1631      1632
 -1       394    8    0    1
 -2       122       278       277      1632      1633      1629
 -1       395    8    0    1
 -2       123       124       279      1246      1634      1635
 -1       396    8    0    1
 -2       123       279       278      1635      1636      1631
 -1       397    8    0    1
 -2       124       125       280      1247      1637      1638
 -1       398    8    0    1
 -2       124       280       279      1638      1639      1634
 -1       399    8    0    1
 -2       125       126       281      1248      1640      1641
 -1       400    8    0    1
 -2       125       281       280      1641      1642      1637
 -1       401    8    0    1
 -2       126       127       282      1249      1643      1644
 -1       402    8    0    1
 -2       126       282       281      1644      1645      1640
 -1       403    8    0    1
 -2       127       128       283      1250      1646      1647
 -1       404    8    0    1
 -2       127       283       282      1647      1648      1643
 -1       405    8    0    1
 -2       128       129       284      1251      1649      1650
 -1       406    8    0    1
 -2       128       284       283      1650      1651      1646
 -1       407    8    0    1
 -2       129       130       285      1252      1652      1653
 -1       408    8    0    1
 -2       129       285       284      1653      1654      1649
 -1       409    8    0    1
 -2       130       131       286      1253      1655      1656
 -1       410    8    0    1
 -2       130       286       285      1656      1657      1652
 -1       411    8    0    1
 -2       131       132       287      1254      1658      1659
 -1       412    8    0    1
 -2       131       287       286      1659      1660      1655
 -1       413    8    0    1
 -2       132       133       288      1255      1661      1662
 -1       414    8    0    1
 -2       132       288       287      1662      1663      1658
 -1       415    8    0    1
 -2       133       134       289      1256      1664      1665
 -1       416    8    0    1
 -2       133       289       288      1665      1666      1661
 -1       417    8    0    1
 -2       134       135       290      1257      1667      1668
 -1       418    8    0    1
 -2       134       290       289      1668      1669      1664
 -1       419    8    0    1
 -2       135       136       291      1258      1670      1671
 -1       420    8    0    1
 -2       290       135       291      1667      1671      1672
 -1       421    8    0    1
 -2       136       228       291      1483      1673      1670
 -1       422    8    0    1
 -2         2       137       292      1260      1674      1675
 -1       423    8    0    1
 -2       137       138       293      1261      1676      1677
 -1       424    8    0    1
 -2       138       139       294      1262      1678      1679
 -1       425    8    0    1
 -2       139       140       295      1263      1680      1681
 -1       426    8    0    1
 -2       140       141       296      1264      1682      1683
 -1       427    8    0    1
 -2       141       142       297      1265      1684      1685
 -1       428    8    0    1
 -2       142       143       298      1266      1686      1687
 -1       429    8    0    1
 -2       143       144       299      1267      1688      1689
 -1       430    8    0    1
 -2       144       145       300      1268      1690      1691
 -1       431    8    0    1
 -2       145       146       301      1269      1692      1693
 -1       432    8    0    1
 -2       146       147       302      1270      1694      1695
 -1       433    8    0    1
 -2       147       148       303      1271      1696      1697
 -1       434    8    0    1
 -2       148       149       304      1272      1698      1699
 -1       435    8    0    1
 -2       149       150       305      1273      1700      1701
 -1       436    8    0    1
 -2       150       151       306      1274      1702      1703
 -1       437    8    0    1
 -2       151       152       307      1275      1704      1705
 -1       438    8    0    1
 -2       152       153       308      1276      1706      1707
 -1       439    8    0    1
 -2       153         1       309      1277      1708      1709
 -1       440    8    0    1
 -2         1       154       310      1278      1710      1711
 -1       441    8    0    1
 -2       154       155       311      1279      1712      1713
 -1       442    8    0    1
 -2       155       156       312      1280      1714      1715
 -1       443    8    0    1
 -2       156       157       313      1281      1716      1717
 -1       444    8    0    1
 -2       157       158       314      1282      1718      1719
 -1       445    8    0    1
 -2       158       159       315      1283      1720      1721
 -1       446    8    0    1
 -2       159       160       316      1284      1722      1723
 -1       447    8    0    1
 -2       160       161       317      1285      1724      1725
 -1       448    8    0    1
 -2       161       162       318      1286      1726      1727
 -1       449    8    0    1
 -2       162       163       319      1287      1728      1729
 -1       450    8    0    1
 -2       163       164       320      1288      1730      1731
 -1       451    8    0    1
 -2       164         2       321      1289      1732      1733
 -1       452    8    0    1
 -2       295       140       296      1680      1683      1734
 -1       453    8    0    1
 -2       294       139       295      1678      1681      1735
 -1       454    8    0    1
 -2       120       121       276      1628      1736      1625
 -1       455    8    0    1
 -2       121       277       276      1630      1737      1736
 -1       456    8    0    1
 -2       292       137       293      1674      1677      1738
 -1       457    8    0    1
 -2       293       138       294      1676      1679      1739
 -1       458    8    0    1
 -2         2       292       321      1675      1740      1732
 -1       459    8    0    1
 -2       141       297       296      1685      1741      1682
 -1       460    8    0    1
 -2       142       298       297      1687      1742      1684
 -1       461    8    0    1
 -2       143       299       298      1689      1743      1686
 -1       462    8    0    1
 -2       144       300       299      1691      1744      1688
 -1       463    8    0    1
 -2       145       301       300      1693      1745      1690
 -1       464    8    0    1
 -2       146       302       301      1695      1746      1692
 -1       465    8    0    1
 -2       147       303       302      1697      1747      1694
 -1       466    8    0    1
 -2       148       304       303      1699      1748      1696
 -1       467    8    0    1
 -2       149       305       304      1701      1749      1698
 -1       468    8    0    1
 -2       150       306       305      1703      1750      1700
 -1       469    8    0    1
 -2       151       307       306      1705      1751      1702
 -1       470    8    0    1
 -2       152       308       307      1707      1752      1704
 -1       471    8    0    1
 -2       153       309       308      1709      1753      1706
 -1       472    8    0    1
 -2         1       310       309      1711      1754      1708
 -1       473    8    0    1
 -2       154       311       310      1713      1755      1710
 -1       474    8    0    1
 -2       155       312       311      1715      1756      1712
 -1       475    8    0    1
 -2       156       313       312      1717      1757      1714
 -1       476    8    0    1
 -2       157       314       313      1719      1758      1716
 -1       477    8    0    1
 -2       158       315       314      1721      1759      1718
 -1       478    8    0    1
 -2       159       316       315      1723      1760      1720
 -1       479    8    0    1
 -2       160       317       316      1725      1761      1722
 -1       480    8    0    1
 -2       161       318       317      1727      1762      1724
 -1       481    8    0    1
 -2       162       319       318      1729      1763      1726
 -1       482    8    0    1
 -2       163       320       319      1731      1764      1728
 -1       483    8    0    1
 -2       164       321       320      1733      1765      1730
 -1       484    8    0    1
 -2        23         7       165      1290      1292      1766
 -1       485    8    0    1
 -2       166       167       322      1298      1767      1768
 -1       486    8    0    1
 -2       165       166       323      1295      1769      1770
 -1       487    8    0    1
 -2       166       322       323      1768      1771      1769
 -1       488    8    0    1
 -2       168       169       324      1304      1772      1773
 -1       489    8    0    1
 -2       169       170       325      1307      1774      1775
 -1       490    8    0    1
 -2       169       325       324      1775      1776      1772
 -1       491    8    0    1
 -2       170       171       326      1310      1777      1778
 -1       492    8    0    1
 -2       170       326       325      1778      1779      1774
 -1       493    8    0    1
 -2       171       172       327      1313      1780      1781
 -1       494    8    0    1
 -2       171       327       326      1781      1782      1777
 -1       495    8    0    1
 -2       172       173       328      1316      1783      1784
 -1       496    8    0    1
 -2       172       328       327      1784      1785      1780
 -1       497    8    0    1
 -2       173       174       329      1319      1786      1787
 -1       498    8    0    1
 -2       173       329       328      1787      1788      1783
 -1       499    8    0    1
 -2       174       175       330      1322      1789      1790
 -1       500    8    0    1
 -2       174       330       329      1790      1791      1786
 -1       501    8    0    1
 -2       175       176       331      1325      1792      1793
 -1       502    8    0    1
 -2       175       331       330      1793      1794      1789
 -1       503    8    0    1
 -2       176       177       332      1328      1795      1796
 -1       504    8    0    1
 -2       176       332       331      1796      1797      1792
 -1       505    8    0    1
 -2       177       178       333      1331      1798      1799
 -1       506    8    0    1
 -2       177       333       332      1799      1800      1795
 -1       507    8    0    1
 -2       178       179       334      1334      1801      1802
 -1       508    8    0    1
 -2       178       334       333      1802      1803      1798
 -1       509    8    0    1
 -2       179       180       335      1337      1804      1805
 -1       510    8    0    1
 -2       334       179       335      1801      1805      1806
 -1       511    8    0    1
 -2       180       229       335      1486      1807      1804
 -1       512    8    0    1
 -2       181        23       165      1339      1766      1808
 -1       513    8    0    1
 -2       229       230       336      1489      1809      1810
 -1       514    8    0    1
 -2       229       336       335      1810      1811      1807
 -1       515    8    0    1
 -2       181       165       323      1808      1770      1812
 -1       516    8    0    1
 -2       183       182       337      1346      1813      1814
 -1       517    8    0    1
 -2       184       183       338      1349      1815      1816
 -1       518    8    0    1
 -2       183       337       338      1814      1817      1815
 -1       519    8    0    1
 -2       185       184       339      1352      1818      1819
 -1       520    8    0    1
 -2       184       338       339      1816      1820      1818
 -1       521    8    0    1
 -2       186       185       340      1355      1821      1822
 -1       522    8    0    1
 -2       185       339       340      1819      1823      1821
 -1       523    8    0    1
 -2       187       186       341      1358      1824      1825
 -1       524    8    0    1
 -2       186       340       341      1822      1826      1824
 -1       525    8    0    1
 -2       188       187       342      1361      1827      1828
 -1       526    8    0    1
 -2       187       341       342      1825      1829      1827
 -1       527    8    0    1
 -2       189       188       343      1364      1830      1831
 -1       528    8    0    1
 -2       188       342       343      1828      1832      1830
 -1       529    8    0    1
 -2       190       189       344      1367      1833      1834
 -1       530    8    0    1
 -2       189       343       344      1831      1835      1833
 -1       531    8    0    1
 -2       191       190       345      1370      1836      1837
 -1       532    8    0    1
 -2       190       344       345      1834      1838      1836
 -1       533    8    0    1
 -2       192       191       346      1373      1839      1840
 -1       534    8    0    1
 -2       191       345       346      1837      1841      1839
 -1       535    8    0    1
 -2       193       192       347      1376      1842      1843
 -1       536    8    0    1
 -2       192       346       347      1840      1844      1842
 -1       537    8    0    1
 -2       194       193       348      1379      1845      1846
 -1       538    8    0    1
 -2       193       347       348      1843      1847      1845
 -1       539    8    0    1
 -2       195       194       349      1382      1848      1849
 -1       540    8    0    1
 -2       194       348       349      1846      1850      1848
 -1       541    8    0    1
 -2       196       195       350      1385      1851      1852
 -1       542    8    0    1
 -2       195       349       350      1849      1853      1851
 -1       543    8    0    1
 -2       197       196       351      1388      1854      1855
 -1       544    8    0    1
 -2       196       350       351      1852      1856      1854
 -1       545    8    0    1
 -2       198       197       352      1391      1857      1858
 -1       546    8    0    1
 -2       197       351       352      1855      1859      1857
 -1       547    8    0    1
 -2       199       198       353      1394      1860      1861
 -1       548    8    0    1
 -2       198       352       353      1858      1862      1860
 -1       549    8    0    1
 -2       200       199       354      1397      1863      1864
 -1       550    8    0    1
 -2       199       353       354      1861      1865      1863
 -1       551    8    0    1
 -2       201       200       355      1400      1866      1867
 -1       552    8    0    1
 -2       200       354       355      1864      1868      1866
 -1       553    8    0    1
 -2       202       201       356      1403      1869      1870
 -1       554    8    0    1
 -2       201       355       356      1867      1871      1869
 -1       555    8    0    1
 -2       203       202       357      1406      1872      1873
 -1       556    8    0    1
 -2       202       356       357      1870      1874      1872
 -1       557    8    0    1
 -2       204       203       358      1409      1875      1876
 -1       558    8    0    1
 -2       203       357       358      1873      1877      1875
 -1       559    8    0    1
 -2       205       204       359      1412      1878      1879
 -1       560    8    0    1
 -2       204       358       359      1876      1880      1878
 -1       561    8    0    1
 -2       206       205       360      1415      1881      1882
 -1       562    8    0    1
 -2       205       359       360      1879      1883      1881
 -1       563    8    0    1
 -2       207       206       361      1418      1884      1885
 -1       564    8    0    1
 -2       206       360       361      1882      1886      1884
 -1       565    8    0    1
 -2       208       207       362      1421      1887      1888
 -1       566    8    0    1
 -2       207       361       362      1885      1889      1887
 -1       567    8    0    1
 -2       209       208       363      1424      1890      1891
 -1       568    8    0    1
 -2       208       362       363      1888      1892      1890
 -1       569    8    0    1
 -2       210       209       364      1427      1893      1894
 -1       570    8    0    1
 -2       209       363       364      1891      1895      1893
 -1       571    8    0    1
 -2       211       210       365      1430      1896      1897
 -1       572    8    0    1
 -2       210       364       365      1894      1898      1896
 -1       573    8    0    1
 -2       212       211       366      1433      1899      1900
 -1       574    8    0    1
 -2       211       365       366      1897      1901      1899
 -1       575    8    0    1
 -2       213       212       367      1436      1902      1903
 -1       576    8    0    1
 -2       212       366       367      1900      1904      1902
 -1       577    8    0    1
 -2       214       213       368      1439      1905      1906
 -1       578    8    0    1
 -2       213       367       368      1903      1907      1905
 -1       579    8    0    1
 -2       215       214       369      1442      1908      1909
 -1       580    8    0    1
 -2       214       368       369      1906      1910      1908
 -1       581    8    0    1
 -2       216       215       370      1445      1911      1912
 -1       582    8    0    1
 -2       215       369       370      1909      1913      1911
 -1       583    8    0    1
 -2       217       216       371      1448      1914      1915
 -1       584    8    0    1
 -2       216       370       371      1912      1916      1914
 -1       585    8    0    1
 -2       218       217       372      1451      1917      1918
 -1       586    8    0    1
 -2       217       371       372      1915      1919      1917
 -1       587    8    0    1
 -2       219       218       373      1454      1920      1921
 -1       588    8    0    1
 -2       218       372       373      1918      1922      1920
 -1       589    8    0    1
 -2       220       219       374      1457      1923      1924
 -1       590    8    0    1
 -2       219       373       374      1921      1925      1923
 -1       591    8    0    1
 -2       221       220       375      1460      1926      1927
 -1       592    8    0    1
 -2       220       374       375      1924      1928      1926
 -1       593    8    0    1
 -2       222       221       376      1463      1929      1930
 -1       594    8    0    1
 -2       221       375       376      1927      1931      1929
 -1       595    8    0    1
 -2       223       222       377      1466      1932      1933
 -1       596    8    0    1
 -2       222       376       377      1930      1934      1932
 -1       597    8    0    1
 -2       224       223       378      1469      1935      1936
 -1       598    8    0    1
 -2       223       377       378      1933      1937      1935
 -1       599    8    0    1
 -2       225       224       379      1472      1938      1939
 -1       600    8    0    1
 -2       224       378       379      1936      1940      1938
 -1       601    8    0    1
 -2       226       225       380      1475      1941      1942
 -1       602    8    0    1
 -2       225       379       380      1939      1943      1941
 -1       603    8    0    1
 -2       227       226       381      1478      1944      1945
 -1       604    8    0    1
 -2       226       380       381      1942      1946      1944
 -1       605    8    0    1
 -2       228       227       382      1481      1947      1948
 -1       606    8    0    1
 -2       291       228       382      1673      1948      1949
 -1       607    8    0    1
 -2       227       381       382      1945      1950      1947
 -1       608    8    0    1
 -2       230       231       383      1492      1951      1952
 -1       609    8    0    1
 -2       230       383       336      1952      1953      1809
 -1       610    8    0    1
 -2       231       232       384      1495      1954      1955
 -1       611    8    0    1
 -2       231       384       383      1955      1956      1951
 -1       612    8    0    1
 -2       232       233       385      1498      1957      1958
 -1       613    8    0    1
 -2       232       385       384      1958      1959      1954
 -1       614    8    0    1
 -2       233       234       386      1501      1960      1961
 -1       615    8    0    1
 -2       233       386       385      1961      1962      1957
 -1       616    8    0    1
 -2       234       235       387      1504      1963      1964
 -1       617    8    0    1
 -2       234       387       386      1964      1965      1960
 -1       618    8    0    1
 -2       235       236       388      1507      1966      1967
 -1       619    8    0    1
 -2       235       388       387      1967      1968      1963
 -1       620    8    0    1
 -2       236       237       389      1510      1969      1970
 -1       621    8    0    1
 -2       236       389       388      1970      1971      1966
 -1       622    8    0    1
 -2       237       238       390      1513      1972      1973
 -1       623    8    0    1
 -2       237       390       389      1973      1974      1969
 -1       624    8    0    1
 -2       238       239       391      1516      1975      1976
 -1       625    8    0    1
 -2       238       391       390      1976      1977      1972
 -1       626    8    0    1
 -2       239       240       392      1519      1978      1979
 -1       627    8    0    1
 -2       239       392       391      1979      1980      1975
 -1       628    8    0    1
 -2       240       241       393      1522      1981      1982
 -1       629    8    0    1
 -2       240       393       392      1982      1983      1978
 -1       630    8    0    1
 -2       241       242       394      1525      1984      1985
 -1       631    8    0    1
 -2       241       394       393      1985      1986      1981
 -1       632    8    0    1
 -2       242       243       395      1528      1987      1988
 -1       633    8    0    1
 -2       242       395       394      1988      1989      1984
 -1       634    8    0    1
 -2       243       244       396      1531      1990      1991
 -1       635    8    0    1
 -2       243       396       395      1991      1992      1987
 -1       636    8    0    1
 -2       244       245       397      1534      1993      1994
 -1       637    8    0    1
 -2       244       397       396      1994      1995      1990
 -1       638    8    0    1
 -2       245       246       398      1537      1996      1997
 -1       639    8    0    1
 -2       245       398       397      1997      1998      1993
 -1       640    8    0    1
 -2       246       247       399      1540      1999      2000
 -1       641    8    0    1
 -2       246       399       398      2000      2001      1996
 -1       642    8    0    1
 -2       247       248       400      1543      2002      2003
 -1       643    8    0    1
 -2       247       400       399      2003      2004      1999
 -1       644    8    0    1
 -2       248       249       401      1546      2005      2006
 -1       645    8    0    1
 -2       248       401       400      2006      2007      2002
 -1       646    8    0    1
 -2       249       250       402      1549      2008      2009
 -1       647    8    0    1
 -2       249       402       401      2009      2010      2005
 -1       648    8    0    1
 -2       250       251       403      1552      2011      2012
 -1       649    8    0    1
 -2       250       403       402      2012      2013      2008
 -1       650    8    0    1
 -2       251       252       404      1555      2014      2015
 -1       651    8    0    1
 -2       251       404       403      2015      2016      2011
 -1       652    8    0    1
 -2       252       253       405      1558      2017      2018
 -1       653    8    0    1
 -2       252       405       404      2018      2019      2014
 -1       654    8    0    1
 -2       253       254       406      1561      2020      2021
 -1       655    8    0    1
 -2       253       406       405      2021      2022      2017
 -1       656    8    0    1
 -2       254       255       407      1564      2023      2024
 -1       657    8    0    1
 -2       254       407       406      2024      2025      2020
 -1       658    8    0    1
 -2       255       256       408      1567      2026      2027
 -1       659    8    0    1
 -2       255       408       407      2027      2028      2023
 -1       660    8    0    1
 -2       256       257       409      1570      2029      2030
 -1       661    8    0    1
 -2       256       409       408      2030      2031      2026
 -1       662    8    0    1
 -2       257       258       410      1573      2032      2033
 -1       663    8    0    1
 -2       257       410       409      2033      2034      2029
 -1       664    8    0    1
 -2       258       259       411      1576      2035      2036
 -1       665    8    0    1
 -2       258       411       410      2036      2037      2032
 -1       666    8    0    1
 -2       259       260       412      1579      2038      2039
 -1       667    8    0    1
 -2       259       412       411      2039      2040      2035
 -1       668    8    0    1
 -2       260       261       413      1582      2041      2042
 -1       669    8    0    1
 -2       260       413       412      2042      2043      2038
 -1       670    8    0    1
 -2       261       262       414      1585      2044      2045
 -1       671    8    0    1
 -2       261       414       413      2045      2046      2041
 -1       672    8    0    1
 -2       262       263       415      1588      2047      2048
 -1       673    8    0    1
 -2       262       415       414      2048      2049      2044
 -1       674    8    0    1
 -2       263       264       416      1591      2050      2051
 -1       675    8    0    1
 -2       263       416       415      2051      2052      2047
 -1       676    8    0    1
 -2       264       265       417      1594      2053      2054
 -1       677    8    0    1
 -2       264       417       416      2054      2055      2050
 -1       678    8    0    1
 -2       265       266       418      1597      2056      2057
 -1       679    8    0    1
 -2       265       418       417      2057      2058      2053
 -1       680    8    0    1
 -2       266       267       419      1600      2059      2060
 -1       681    8    0    1
 -2       266       419       418      2060      2061      2056
 -1       682    8    0    1
 -2       267       268       420      1603      2062      2063
 -1       683    8    0    1
 -2       267       420       419      2063      2064      2059
 -1       684    8    0    1
 -2       268       269       421      1606      2065      2066
 -1       685    8    0    1
 -2       268       421       420      2066      2067      2062
 -1       686    8    0    1
 -2       269       270       422      1609      2068      2069
 -1       687    8    0    1
 -2       269       422       421      2069      2070      2065
 -1       688    8    0    1
 -2       270       271       423      1612      2071      2072
 -1       689    8    0    1
 -2       270       423       422      2072      2073      2068
 -1       690    8    0    1
 -2       271       272       424      1615      2074      2075
 -1       691    8    0    1
 -2       271       424       423      2075      2076      2071
 -1       692    8    0    1
 -2       272       273       425      1618      2077      2078
 -1       693    8    0    1
 -2       272       425       424      2078      2079      2074
 -1       694    8    0    1
 -2       273       274       426      1621      2080      2081
 -1       695    8    0    1
 -2       273       426       425      2081      2082      2077
 -1       696    8    0    1
 -2       274       275       427      1624      2083      2084
 -1       697    8    0    1
 -2       274       427       426      2084      2085      2080
 -1       698    8    0    1
 -2       275       276       428      1627      2086      2087
 -1       699    8    0    1
 -2       427       275       428      2083      2087      2088
 -1       700    8    0    1
 -2       276       277       428      1737      2089      2086
 -1       701    8    0    1
 -2       279       280       429      1639      2090      2091
 -1       702    8    0    1
 -2       278       279       430      1636      2092      2093
 -1       703    8    0    1
 -2       279       429       430      2091      2094      2092
 -1       704    8    0    1
 -2       277       278       431      1633      2095      2096
 -1       705    8    0    1
 -2       428       277       431      2089      2096      2097
 -1       706    8    0    1
 -2       278       430       431      2093      2098      2095
 -1       707    8    0    1
 -2       280       281       432      1642      2099      2100
 -1       708    8    0    1
 -2       280       432       429      2100      2101      2090
 -1       709    8    0    1
 -2       281       282       433      1645      2102      2103
 -1       710    8    0    1
 -2       281       433       432      2103      2104      2099
 -1       711    8    0    1
 -2       282       283       434      1648      2105      2106
 -1       712    8    0    1
 -2       282       434       433      2106      2107      2102
 -1       713    8    0    1
 -2       283       284       435      1651      2108      2109
 -1       714    8    0    1
 -2       283       435       434      2109      2110      2105
 -1       715    8    0    1
 -2       284       285       436      1654      2111      2112
 -1       716    8    0    1
 -2       284       436       435      2112      2113      2108
 -1       717    8    0    1
 -2       285       286       437      1657      2114      2115
 -1       718    8    0    1
 -2       285       437       436      2115      2116      2111
 -1       719    8    0    1
 -2       286       287       438      1660      2117      2118
 -1       720    8    0    1
 -2       286       438       437      2118      2119      2114
 -1       721    8    0    1
 -2       287       288       439      1663      2120      2121
 -1       722    8    0    1
 -2       287       439       438      2121      2122      2117
 -1       723    8    0    1
 -2       288       289       440      1666      2123      2124
 -1       724    8    0    1
 -2       288       440       439      2124      2125      2120
 -1       725    8    0    1
 -2       289       290       441      1669      2126      2127
 -1       726    8    0    1
 -2       289       441       440      2127      2128      2123
 -1       727    8    0    1
 -2       293       294       442      1739      2129      2130
 -1       728    8    0    1
 -2       321       292       443      1740      2131      2132
 -1       729    8    0    1
 -2       292       293       444      1738      2133      2134
 -1       730    8    0    1
 -2       294       295       445      1735      2135      2136
 -1       731    8    0    1
 -2       295       296       446      1734      2137      2138
 -1       732    8    0    1
 -2       295       446       445      2138      2139      2135
 -1       733    8    0    1
 -2       167       168       447      1301      2140      2141
 -1       734    8    0    1
 -2       322       167       447      1767      2141      2142
 -1       735    8    0    1
 -2       168       324       447      1773      2143      2140
 -1       736    8    0    1
 -2       297       298       448      1742      2144      2145
 -1       737    8    0    1
 -2       298       299       449      1743      2146      2147
 -1       738    8    0    1
 -2       299       300       450      1744      2148      2149
 -1       739    8    0    1
 -2       299       450       449      2149      2150      2146
 -1       740    8    0    1
 -2       300       301       451      1745      2151      2152
 -1       741    8    0    1
 -2       301       302       452      1746      2153      2154
 -1       742    8    0    1
 -2       302       303       453      1747      2155      2156
 -1       743    8    0    1
 -2       302       453       452      2156      2157      2153
 -1       744    8    0    1
 -2       303       304       454      1748      2158      2159
 -1       745    8    0    1
 -2       304       305       455      1749      2160      2161
 -1       746    8    0    1
 -2       305       306       456      1750      2162      2163
 -1       747    8    0    1
 -2       306       307       457      1751      2164      2165
 -1       748    8    0    1
 -2       307       308       458      1752      2166      2167
 -1       749    8    0    1
 -2       308       309       459      1753      2168      2169
 -1       750    8    0    1
 -2       309       310       460      1754      2170      2171
 -1       751    8    0    1
 -2       310       311       461      1755      2172      2173
 -1       752    8    0    1
 -2       311       312       462      1756      2174      2175
 -1       753    8    0    1
 -2       311       462       461      2175      2176      2172
 -1       754    8    0    1
 -2       312       313       463      1757      2177      2178
 -1       755    8    0    1
 -2       313       314       464      1758      2179      2180
 -1       756    8    0    1
 -2       314       315       465      1759      2181      2182
 -1       757    8    0    1
 -2       315       316       466      1760      2183      2184
 -1       758    8    0    1
 -2       315       466       465      2184      2185      2181
 -1       759    8    0    1
 -2       316       317       467      1761      2186      2187
 -1       760    8    0    1
 -2       317       318       468      1762      2188      2189
 -1       761    8    0    1
 -2       318       319       469      1763      2190      2191
 -1       762    8    0    1
 -2       319       320       470      1764      2192      2193
 -1       763    8    0    1
 -2       320       321       471      1765      2194      2195
 -1       764    8    0    1
 -2       321       443       471      2132      2196      2194
 -1       765    8    0    1
 -2       296       297       472      1741      2197      2198
 -1       766    8    0    1
 -2       297       448       472      2145      2199      2197
 -1       767    8    0    1
 -2       181       323       182      1812      2200      1343
 -1       768    8    0    1
 -2       446       296       472      2137      2198      2201
 -1       769    8    0    1
 -2       182       323       337      2200      2202      1813
 -1       770    8    0    1
 -2       444       293       442      2133      2130      2203
 -1       771    8    0    1
 -2       443       292       444      2131      2134      2204
 -1       772    8    0    1
 -2       441       290       291      2126      1672      2205
 -1       773    8    0    1
 -2       442       294       473      2129      2206      2207
 -1       774    8    0    1
 -2       294       445       473      2136      2208      2206
 -1       775    8    0    1
 -2       470       320       471      2192      2195      2209
 -1       776    8    0    1
 -2       469       319       470      2190      2193      2210
 -1       777    8    0    1
 -2       468       318       469      2188      2191      2211
 -1       778    8    0    1
 -2       466       316       467      2183      2187      2212
 -1       779    8    0    1
 -2       464       314       465      2179      2182      2213
 -1       780    8    0    1
 -2       462       312       463      2174      2178      2214
 -1       781    8    0    1
 -2       460       310       461      2170      2173      2215
 -1       782    8    0    1
 -2       459       309       460      2168      2171      2216
 -1       783    8    0    1
 -2       458       308       459      2166      2169      2217
 -1       784    8    0    1
 -2       457       307       458      2164      2167      2218
 -1       785    8    0    1
 -2       456       306       457      2162      2165      2219
 -1       786    8    0    1
 -2       455       305       456      2160      2163      2220
 -1       787    8    0    1
 -2       453       303       454      2155      2159      2221
 -1       788    8    0    1
 -2       450       300       451      2148      2152      2222
 -1       789    8    0    1
 -2       448       298       449      2144      2147      2223
 -1       790    8    0    1
 -2       451       301       452      2151      2154      2224
 -1       791    8    0    1
 -2       454       304       455      2158      2161      2225
 -1       792    8    0    1
 -2       463       313       464      2177      2180      2226
 -1       793    8    0    1
 -2       467       317       468      2186      2189      2227
 -1       794    8    0    1
 -2       336       383       474      1953      2228      2229
 -1       795    8    0    1
 -2       325       326       475      1779      2230      2231
 -1       796    8    0    1
 -2       324       325       476      1776      2232      2233
 -1       797    8    0    1
 -2       325       475       476      2231      2234      2232
 -1       798    8    0    1
 -2       327       328       477      1785      2235      2236
 -1       799    8    0    1
 -2       328       329       478      1788      2237      2238
 -1       800    8    0    1
 -2       328       478       477      2238      2239      2235
 -1       801    8    0    1
 -2       329       330       479      1791      2240      2241
 -1       802    8    0    1
 -2       329       479       478      2241      2242      2237
 -1       803    8    0    1
 -2       330       331       480      1794      2243      2244
 -1       804    8    0    1
 -2       330       480       479      2244      2245      2240
 -1       805    8    0    1
 -2       331       332       481      1797      2246      2247
 -1       806    8    0    1
 -2       331       481       480      2247      2248      2243
 -1       807    8    0    1
 -2       332       333       482      1800      2249      2250
 -1       808    8    0    1
 -2       332       482       481      2250      2251      2246
 -1       809    8    0    1
 -2       383       384       483      1956      2252      2253
 -1       810    8    0    1
 -2       383       483       474      2253      2254      2228
 -1       811    8    0    1
 -2       338       337       484      1817      2255      2256
 -1       812    8    0    1
 -2       446       472       485      2201      2257      2258
 -1       813    8    0    1
 -2       444       442       486      2203      2259      2260
 -1       814    8    0    1
 -2       339       338       487      1820      2261      2262
 -1       815    8    0    1
 -2       338       484       487      2256      2263      2261
 -1       816    8    0    1
 -2       340       339       488      1823      2264      2265
 -1       817    8    0    1
 -2       339       487       488      2262      2266      2264
 -1       818    8    0    1
 -2       341       340       489      1826      2267      2268
 -1       819    8    0    1
 -2       340       488       489      2265      2269      2267
 -1       820    8    0    1
 -2       342       341       490      1829      2270      2271
 -1       821    8    0    1
 -2       341       489       490      2268      2272      2270
 -1       822    8    0    1
 -2       343       342       491      1832      2273      2274
 -1       823    8    0    1
 -2       342       490       491      2271      2275      2273
 -1       824    8    0    1
 -2       344       343       492      1835      2276      2277
 -1       825    8    0    1
 -2       343       491       492      2274      2278      2276
 -1       826    8    0    1
 -2       345       344       493      1838      2279      2280
 -1       827    8    0    1
 -2       344       492       493      2277      2281      2279
 -1       828    8    0    1
 -2       346       345       494      1841      2282      2283
 -1       829    8    0    1
 -2       345       493       494      2280      2284      2282
 -1       830    8    0    1
 -2       347       346       495      1844      2285      2286
 -1       831    8    0    1
 -2       346       494       495      2283      2287      2285
 -1       832    8    0    1
 -2       348       347       496      1847      2288      2289
 -1       833    8    0    1
 -2       347       495       496      2286      2290      2288
 -1       834    8    0    1
 -2       349       348       497      1850      2291      2292
 -1       835    8    0    1
 -2       348       496       497      2289      2293      2291
 -1       836    8    0    1
 -2       350       349       498      1853      2294      2295
 -1       837    8    0    1
 -2       349       497       498      2292      2296      2294
 -1       838    8    0    1
 -2       351       350       499      1856      2297      2298
 -1       839    8    0    1
 -2       350       498       499      2295      2299      2297
 -1       840    8    0    1
 -2       352       351       500      1859      2300      2301
 -1       841    8    0    1
 -2       351       499       500      2298      2302      2300
 -1       842    8    0    1
 -2       353       352       501      1862      2303      2304
 -1       843    8    0    1
 -2       352       500       501      2301      2305      2303
 -1       844    8    0    1
 -2       354       353       502      1865      2306      2307
 -1       845    8    0    1
 -2       353       501       502      2304      2308      2306
 -1       846    8    0    1
 -2       355       354       503      1868      2309      2310
 -1       847    8    0    1
 -2       354       502       503      2307      2311      2309
 -1       848    8    0    1
 -2       356       355       504      1871      2312      2313
 -1       849    8    0    1
 -2       355       503       504      2310      2314      2312
 -1       850    8    0    1
 -2       357       356       505      1874      2315      2316
 -1       851    8    0    1
 -2       356       504       505      2313      2317      2315
 -1       852    8    0    1
 -2       358       357       506      1877      2318      2319
 -1       853    8    0    1
 -2       357       505       506      2316      2320      2318
 -1       854    8    0    1
 -2       359       358       507      1880      2321      2322
 -1       855    8    0    1
 -2       358       506       507      2319      2323      2321
 -1       856    8    0    1
 -2       360       359       508      1883      2324      2325
 -1       857    8    0    1
 -2       359       507       508      2322      2326      2324
 -1       858    8    0    1
 -2       361       360       509      1886      2327      2328
 -1       859    8    0    1
 -2       360       508       509      2325      2329      2327
 -1       860    8    0    1
 -2       362       361       510      1889      2330      2331
 -1       861    8    0    1
 -2       361       509       510      2328      2332      2330
 -1       862    8    0    1
 -2       363       362       511      1892      2333      2334
 -1       863    8    0    1
 -2       362       510       511      2331      2335      2333
 -1       864    8    0    1
 -2       364       363       512      1895      2336      2337
 -1       865    8    0    1
 -2       363       511       512      2334      2338      2336
 -1       866    8    0    1
 -2       365       364       513      1898      2339      2340
 -1       867    8    0    1
 -2       364       512       513      2337      2341      2339
 -1       868    8    0    1
 -2       366       365       514      1901      2342      2343
 -1       869    8    0    1
 -2       365       513       514      2340      2344      2342
 -1       870    8    0    1
 -2       367       366       515      1904      2345      2346
 -1       871    8    0    1
 -2       366       514       515      2343      2347      2345
 -1       872    8    0    1
 -2       368       367       516      1907      2348      2349
 -1       873    8    0    1
 -2       367       515       516      2346      2350      2348
 -1       874    8    0    1
 -2       369       368       517      1910      2351      2352
 -1       875    8    0    1
 -2       368       516       517      2349      2353      2351
 -1       876    8    0    1
 -2       370       369       518      1913      2354      2355
 -1       877    8    0    1
 -2       369       517       518      2352      2356      2354
 -1       878    8    0    1
 -2       371       370       519      1916      2357      2358
 -1       879    8    0    1
 -2       370       518       519      2355      2359      2357
 -1       880    8    0    1
 -2       372       371       520      1919      2360      2361
 -1       881    8    0    1
 -2       371       519       520      2358      2362      2360
 -1       882    8    0    1
 -2       373       372       521      1922      2363      2364
 -1       883    8    0    1
 -2       372       520       521      2361      2365      2363
 -1       884    8    0    1
 -2       374       373       522      1925      2366      2367
 -1       885    8    0    1
 -2       373       521       522      2364      2368      2366
 -1       886    8    0    1
 -2       375       374       523      1928      2369      2370
 -1       887    8    0    1
 -2       374       522       523      2367      2371      2369
 -1       888    8    0    1
 -2       376       375       524      1931      2372      2373
 -1       889    8    0    1
 -2       375       523       524      2370      2374      2372
 -1       890    8    0    1
 -2       377       376       525      1934      2375      2376
 -1       891    8    0    1
 -2       376       524       525      2373      2377      2375
 -1       892    8    0    1
 -2       378       377       526      1937      2378      2379
 -1       893    8    0    1
 -2       377       525       526      2376      2380      2378
 -1       894    8    0    1
 -2       379       378       527      1940      2381      2382
 -1       895    8    0    1
 -2       378       526       527      2379      2383      2381
 -1       896    8    0    1
 -2       380       379       528      1943      2384      2385
 -1       897    8    0    1
 -2       379       527       528      2382      2386      2384
 -1       898    8    0    1
 -2       381       380       529      1946      2387      2388
 -1       899    8    0    1
 -2       380       528       529      2385      2389      2387
 -1       900    8    0    1
 -2       385       386       530      1962      2390      2391
 -1       901    8    0    1
 -2       386       387       531      1965      2392      2393
 -1       902    8    0    1
 -2       386       531       530      2393      2394      2390
 -1       903    8    0    1
 -2       387       388       532      1968      2395      2396
 -1       904    8    0    1
 -2       387       532       531      2396      2397      2392
 -1       905    8    0    1
 -2       388       389       533      1971      2398      2399
 -1       906    8    0    1
 -2       388       533       532      2399      2400      2395
 -1       907    8    0    1
 -2       389       390       534      1974      2401      2402
 -1       908    8    0    1
 -2       389       534       533      2402      2403      2398
 -1       909    8    0    1
 -2       390       391       535      1977      2404      2405
 -1       910    8    0    1
 -2       390       535       534      2405      2406      2401
 -1       911    8    0    1
 -2       391       392       536      1980      2407      2408
 -1       912    8    0    1
 -2       391       536       535      2408      2409      2404
 -1       913    8    0    1
 -2       392       393       537      1983      2410      2411
 -1       914    8    0    1
 -2       392       537       536      2411      2412      2407
 -1       915    8    0    1
 -2       393       394       538      1986      2413      2414
 -1       916    8    0    1
 -2       393       538       537      2414      2415      2410
 -1       917    8    0    1
 -2       394       395       539      1989      2416      2417
 -1       918    8    0    1
 -2       394       539       538      2417      2418      2413
 -1       919    8    0    1
 -2       395       396       540      1992      2419      2420
 -1       920    8    0    1
 -2       395       540       539      2420      2421      2416
 -1       921    8    0    1
 -2       396       397       541      1995      2422      2423
 -1       922    8    0    1
 -2       396       541       540      2423      2424      2419
 -1       923    8    0    1
 -2       397       398       542      1998      2425      2426
 -1       924    8    0    1
 -2       397       542       541      2426      2427      2422
 -1       925    8    0    1
 -2       398       399       543      2001      2428      2429
 -1       926    8    0    1
 -2       398       543       542      2429      2430      2425
 -1       927    8    0    1
 -2       399       400       544      2004      2431      2432
 -1       928    8    0    1
 -2       399       544       543      2432      2433      2428
 -1       929    8    0    1
 -2       400       401       545      2007      2434      2435
 -1       930    8    0    1
 -2       400       545       544      2435      2436      2431
 -1       931    8    0    1
 -2       401       402       546      2010      2437      2438
 -1       932    8    0    1
 -2       401       546       545      2438      2439      2434
 -1       933    8    0    1
 -2       402       403       547      2013      2440      2441
 -1       934    8    0    1
 -2       402       547       546      2441      2442      2437
 -1       935    8    0    1
 -2       403       404       548      2016      2443      2444
 -1       936    8    0    1
 -2       403       548       547      2444      2445      2440
 -1       937    8    0    1
 -2       404       405       549      2019      2446      2447
 -1       938    8    0    1
 -2       404       549       548      2447      2448      2443
 -1       939    8    0    1
 -2       405       406       550      2022      2449      2450
 -1       940    8    0    1
 -2       405       550       549      2450      2451      2446
 -1       941    8    0    1
 -2       406       407       551      2025      2452      2453
 -1       942    8    0    1
 -2       406       551       550      2453      2454      2449
 -1       943    8    0    1
 -2       407       408       552      2028      2455      2456
 -1       944    8    0    1
 -2       407       552       551      2456      2457      2452
 -1       945    8    0    1
 -2       408       409       553      2031      2458      2459
 -1       946    8    0    1
 -2       408       553       552      2459      2460      2455
 -1       947    8    0    1
 -2       409       410       554      2034      2461      2462
 -1       948    8    0    1
 -2       409       554       553      2462      2463      2458
 -1       949    8    0    1
 -2       410       411       555      2037      2464      2465
 -1       950    8    0    1
 -2       410       555       554      2465      2466      2461
 -1       951    8    0    1
 -2       411       412       556      2040      2467      2468
 -1       952    8    0    1
 -2       411       556       555      2468      2469      2464
 -1       953    8    0    1
 -2       412       413       557      2043      2470      2471
 -1       954    8    0    1
 -2       412       557       556      2471      2472      2467
 -1       955    8    0    1
 -2       413       414       558      2046      2473      2474
 -1       956    8    0    1
 -2       413       558       557      2474      2475      2470
 -1       957    8    0    1
 -2       414       415       559      2049      2476      2477
 -1       958    8    0    1
 -2       414       559       558      2477      2478      2473
 -1       959    8    0    1
 -2       415       416       560      2052      2479      2480
 -1       960    8    0    1
 -2       415       560       559      2480      2481      2476
 -1       961    8    0    1
 -2       416       417       561      2055      2482      2483
 -1       962    8    0    1
 -2       416       561       560      2483      2484      2479
 -1       963    8    0    1
 -2       417       418       562      2058      2485      2486
 -1       964    8    0    1
 -2       417       562       561      2486      2487      2482
 -1       965    8    0    1
 -2       418       419       563      2061      2488      2489
 -1       966    8    0    1
 -2       418       563       562      2489      2490      2485
 -1       967    8    0    1
 -2       419       420       564      2064      2491      2492
 -1       968    8    0    1
 -2       419       564       563      2492      2493      2488
 -1       969    8    0    1
 -2       420       421       565      2067      2494      2495
 -1       970    8    0    1
 -2       420       565       564      2495      2496      2491
 -1       971    8    0    1
 -2       421       422       566      2070      2497      2498
 -1       972    8    0    1
 -2       421       566       565      2498      2499      2494
 -1       973    8    0    1
 -2       422       423       567      2073      2500      2501
 -1       974    8    0    1
 -2       422       567       566      2501      2502      2497
 -1       975    8    0    1
 -2       423       424       568      2076      2503      2504
 -1       976    8    0    1
 -2       423       568       567      2504      2505      2500
 -1       977    8    0    1
 -2       424       425       569      2079      2506      2507
 -1       978    8    0    1
 -2       424       569       568      2507      2508      2503
 -1       979    8    0    1
 -2       425       426       570      2082      2509      2510
 -1       980    8    0    1
 -2       425       570       569      2510      2511      2506
 -1       981    8    0    1
 -2       426       427       571      2085      2512      2513
 -1       982    8    0    1
 -2       426       571       570      2513      2514      2509
 -1       983    8    0    1
 -2       427       428       431      2088      2097      2515
 -1       984    8    0    1
 -2       432       433       572      2104      2516      2517
 -1       985    8    0    1
 -2       433       434       573      2107      2518      2519
 -1       986    8    0    1
 -2       433       573       572      2519      2520      2516
 -1       987    8    0    1
 -2       430       429       574      2094      2521      2522
 -1       988    8    0    1
 -2       429       432       575      2101      2523      2524
 -1       989    8    0    1
 -2       574       429       575      2521      2524      2525
 -1       990    8    0    1
 -2       432       572       575      2517      2526      2523
 -1       991    8    0    1
 -2       434       435       576      2110      2527      2528
 -1       992    8    0    1
 -2       434       576       573      2528      2529      2518
 -1       993    8    0    1
 -2       435       436       577      2113      2530      2531
 -1       994    8    0    1
 -2       435       577       576      2531      2532      2527
 -1       995    8    0    1
 -2       436       437       578      2116      2533      2534
 -1       996    8    0    1
 -2       436       578       577      2534      2535      2530
 -1       997    8    0    1
 -2       437       438       579      2119      2536      2537
 -1       998    8    0    1
 -2       437       579       578      2537      2538      2533
 -1       999    8    0    1
 -2       438       439       580      2122      2539      2540
 -1      1000    8    0    1
 -2       438       580       579      2540      2541      2536
 -1      1001    8    0    1
 -2       439       440       581      2125      2542      2543
 -1      1002    8    0    1
 -2       439       581       580      2543      2544      2539
 -1      1003    8    0    1
 -2       440       441       582      2128      2545      2546
 -1      1004    8    0    1
 -2       440       582       581      2546      2547      2542
 -1      1005    8    0    1
 -2       443       444       583      2204      2548      2549
 -1      1006    8    0    1
 -2       384       385       584      1959      2550      2551
 -1      1007    8    0    1
 -2       385       530       584      2391      2552      2550
 -1      1008    8    0    1
 -2       337       323       585      2202      2553      2554
 -1      1009    8    0    1
 -2       484       337       585      2255      2554      2555
 -1      1010    8    0    1
 -2       323       322       585      1771      2556      2553
 -1      1011    8    0    1
 -2       441       291       382      2205      1949      2557
 -1      1012    8    0    1
 -2       470       471       586      2209      2558      2559
 -1      1013    8    0    1
 -2       445       446       587      2139      2560      2561
 -1      1014    8    0    1
 -2       471       443       588      2196      2562      2563
 -1      1015    8    0    1
 -2       464       465       589      2213      2564      2565
 -1      1016    8    0    1
 -2       460       461       590      2215      2566      2567
 -1      1017    8    0    1
 -2       450       451       591      2222      2568      2569
 -1      1018    8    0    1
 -2       326       327       592      1782      2570      2571
 -1      1019    8    0    1
 -2       475       326       592      2230      2571      2572
 -1      1020    8    0    1
 -2       327       477       592      2236      2573      2570
 -1      1021    8    0    1
 -2       448       449       593      2223      2574      2575
 -1      1022    8    0    1
 -2       451       452       594      2224      2576      2577
 -1      1023    8    0    1
 -2       449       450       595      2150      2578      2579
 -1      1024    8    0    1
 -2       454       455       596      2225      2580      2581
 -1      1025    8    0    1
 -2       452       453       597      2157      2582      2583
 -1      1026    8    0    1
 -2       463       464       598      2226      2584      2585
 -1      1027    8    0    1
 -2       453       454       599      2221      2586      2587
 -1      1028    8    0    1
 -2       453       599       597      2587      2588      2582
 -1      1029    8    0    1
 -2       455       456       600      2220      2589      2590
 -1      1030    8    0    1
 -2       456       457       601      2219      2591      2592
 -1      1031    8    0    1
 -2       457       458       602      2218      2593      2594
 -1      1032    8    0    1
 -2       458       459       603      2217      2595      2596
 -1      1033    8    0    1
 -2       459       460       604      2216      2597      2598
 -1      1034    8    0    1
 -2       460       590       604      2567      2599      2597
 -1      1035    8    0    1
 -2       461       462       605      2176      2600      2601
 -1      1036    8    0    1
 -2       467       468       606      2227      2602      2603
 -1      1037    8    0    1
 -2       462       463       607      2214      2604      2605
 -1      1038    8    0    1
 -2       465       466       608      2185      2606      2607
 -1      1039    8    0    1
 -2       466       467       609      2212      2608      2609
 -1      1040    8    0    1
 -2       466       609       608      2609      2610      2606
 -1      1041    8    0    1
 -2       468       469       610      2211      2611      2612
 -1      1042    8    0    1
 -2       469       470       611      2210      2613      2614
 -1      1043    8    0    1
 -2       472       448       612      2199      2615      2616
 -1      1044    8    0    1
 -2       335       336       613      1811      2617      2618
 -1      1045    8    0    1
 -2       334       335       613      1806      2618      2619
 -1      1046    8    0    1
 -2       336       474       613      2229      2620      2617
 -1      1047    8    0    1
 -2       448       593       612      2575      2621      2615
 -1      1048    8    0    1
 -2       324       476       614      2233      2622      2623
 -1      1049    8    0    1
 -2       324       614       447      2623      2624      2143
 -1      1050    8    0    1
 -2       483       384       584      2252      2551      2625
 -1      1051    8    0    1
 -2       333       334       613      1803      2619      2626
 -1      1052    8    0    1
 -2       322       447       615      2142      2627      2628
 -1      1053    8    0    1
 -2       585       322       615      2556      2628      2629
 -1      1054    8    0    1
 -2       447       614       615      2624      2630      2627
 -1      1055    8    0    1
 -2       468       610       606      2612      2631      2602
 -1      1056    8    0    1
 -2       607       463       598      2604      2585      2632
 -1      1057    8    0    1
 -2       587       446       485      2560      2258      2633
 -1      1058    8    0    1
 -2       444       486       583      2260      2634      2548
 -1      1059    8    0    1
 -2       470       586       611      2559      2635      2613
 -1      1060    8    0    1
 -2       427       431       571      2515      2636      2512
 -1      1061    8    0    1
 -2       431       430       571      2098      2637      2636
 -1      1062    8    0    1
 -2       603       459       604      2595      2598      2638
 -1      1063    8    0    1
 -2       443       583       588      2549      2639      2562
 -1      1064    8    0    1
 -2       333       613       482      2626      2640      2249
 -1      1065    8    0    1
 -2       473       445       616      2208      2641      2642
 -1      1066    8    0    1
 -2       445       587       616      2561      2643      2641
 -1      1067    8    0    1
 -2       602       458       603      2593      2596      2644
 -1      1068    8    0    1
 -2       442       473       486      2207      2645      2259
 -1      1069    8    0    1
 -2       586       471       588      2558      2563      2646
 -1      1070    8    0    1
 -2       464       589       598      2565      2647      2584
 -1      1071    8    0    1
 -2       601       457       602      2591      2594      2648
 -1      1072    8    0    1
 -2       599       454       596      2586      2581      2649
 -1      1073    8    0    1
 -2       455       600       617      2590      2650      2651
 -1      1074    8    0    1
 -2       455       617       596      2651      2652      2580
 -1      1075    8    0    1
 -2       461       605       590      2601      2653      2566
 -1      1076    8    0    1
 -2       595       450       591      2578      2569      2654
 -1      1077    8    0    1
 -2       591       451       594      2568      2577      2655
 -1      1078    8    0    1
 -2       589       465       608      2564      2607      2656
 -1      1079    8    0    1
 -2       594       452       597      2576      2583      2657
 -1      1080    8    0    1
 -2       441       382       618      2557      2658      2659
 -1      1081    8    0    1
 -2       582       441       618      2545      2659      2660
 -1      1082    8    0    1
 -2       382       381       618      1950      2661      2658
 -1      1083    8    0    1
 -2       485       472       612      2257      2616      2662
 -1      1084    8    0    1
 -2       449       595       593      2579      2663      2574
 -1      1085    8    0    1
 -2       600       456       601      2589      2592      2664
 -1      1086    8    0    1
 -2       605       462       607      2600      2605      2665
 -1      1087    8    0    1
 -2       467       606       609      2603      2666      2608
 -1      1088    8    0    1
 -2       610       469       611      2611      2614      2667
 -1      1089    8    0    1
 -2       571       430       574      2637      2522      2668
 -1      1090    8    0    1
 -2       618       381       529      2661      2388      2669
 -1      1091    8    0    1
 -2       478       479       619      2242      2670      2671
 -1      1092    8    0    1
 -2       477       478       620      2239      2672      2673
 -1      1093    8    0    1
 -2       478       619       620      2671      2674      2672
 -1      1094    8    0    1
 -2       480       481       621      2248      2675      2676
 -1      1095    8    0    1
 -2       481       482       622      2251      2677      2678
 -1      1096    8    0    1
 -2       481       622       621      2678      2679      2675
 -1      1097    8    0    1
 -2       474       483       623      2254      2680      2681
 -1      1098    8    0    1
 -2       583       486       624      2634      2682      2683
 -1      1099    8    0    1
 -2       607       598       625      2632      2684      2685
 -1      1100    8    0    1
 -2       488       487       626      2266      2686      2687
 -1      1101    8    0    1
 -2       489       488       627      2269      2688      2689
 -1      1102    8    0    1
 -2       488       626       627      2687      2690      2688
 -1      1103    8    0    1
 -2       490       489       628      2272      2691      2692
 -1      1104    8    0    1
 -2       489       627       628      2689      2693      2691
 -1      1105    8    0    1
 -2       491       490       629      2275      2694      2695
 -1      1106    8    0    1
 -2       490       628       629      2692      2696      2694
 -1      1107    8    0    1
 -2       492       491       630      2278      2697      2698
 -1      1108    8    0    1
 -2       491       629       630      2695      2699      2697
 -1      1109    8    0    1
 -2       493       492       631      2281      2700      2701
 -1      1110    8    0    1
 -2       492       630       631      2698      2702      2700
 -1      1111    8    0    1
 -2       494       493       632      2284      2703      2704
 -1      1112    8    0    1
 -2       493       631       632      2701      2705      2703
 -1      1113    8    0    1
 -2       495       494       633      2287      2706      2707
 -1      1114    8    0    1
 -2       494       632       633      2704      2708      2706
 -1      1115    8    0    1
 -2       496       495       634      2290      2709      2710
 -1      1116    8    0    1
 -2       495       633       634      2707      2711      2709
 -1      1117    8    0    1
 -2       497       496       635      2293      2712      2713
 -1      1118    8    0    1
 -2       496       634       635      2710      2714      2712
 -1      1119    8    0    1
 -2       498       497       636      2296      2715      2716
 -1      1120    8    0    1
 -2       497       635       636      2713      2717      2715
 -1      1121    8    0    1
 -2       499       498       637      2299      2718      2719
 -1      1122    8    0    1
 -2       498       636       637      2716      2720      2718
 -1      1123    8    0    1
 -2       500       499       638      2302      2721      2722
 -1      1124    8    0    1
 -2       499       637       638      2719      2723      2721
 -1      1125    8    0    1
 -2       501       500       639      2305      2724      2725
 -1      1126    8    0    1
 -2       500       638       639      2722      2726      2724
 -1      1127    8    0    1
 -2       502       501       640      2308      2727      2728
 -1      1128    8    0    1
 -2       501       639       640      2725      2729      2727
 -1      1129    8    0    1
 -2       503       502       641      2311      2730      2731
 -1      1130    8    0    1
 -2       502       640       641      2728      2732      2730
 -1      1131    8    0    1
 -2       504       503       642      2314      2733      2734
 -1      1132    8    0    1
 -2       503       641       642      2731      2735      2733
 -1      1133    8    0    1
 -2       505       504       643      2317      2736      2737
 -1      1134    8    0    1
 -2       504       642       643      2734      2738      2736
 -1      1135    8    0    1
 -2       506       505       644      2320      2739      2740
 -1      1136    8    0    1
 -2       505       643       644      2737      2741      2739
 -1      1137    8    0    1
 -2       507       506       645      2323      2742      2743
 -1      1138    8    0    1
 -2       506       644       645      2740      2744      2742
 -1      1139    8    0    1
 -2       508       507       646      2326      2745      2746
 -1      1140    8    0    1
 -2       507       645       646      2743      2747      2745
 -1      1141    8    0    1
 -2       509       508       647      2329      2748      2749
 -1      1142    8    0    1
 -2       508       646       647      2746      2750      2748
 -1      1143    8    0    1
 -2       510       509       648      2332      2751      2752
 -1      1144    8    0    1
 -2       509       647       648      2749      2753      2751
 -1      1145    8    0    1
 -2       511       510       649      2335      2754      2755
 -1      1146    8    0    1
 -2       510       648       649      2752      2756      2754
 -1      1147    8    0    1
 -2       512       511       650      2338      2757      2758
 -1      1148    8    0    1
 -2       511       649       650      2755      2759      2757
 -1      1149    8    0    1
 -2       513       512       651      2341      2760      2761
 -1      1150    8    0    1
 -2       512       650       651      2758      2762      2760
 -1      1151    8    0    1
 -2       514       513       652      2344      2763      2764
 -1      1152    8    0    1
 -2       513       651       652      2761      2765      2763
 -1      1153    8    0    1
 -2       515       514       653      2347      2766      2767
 -1      1154    8    0    1
 -2       514       652       653      2764      2768      2766
 -1      1155    8    0    1
 -2       516       515       654      2350      2769      2770
 -1      1156    8    0    1
 -2       515       653       654      2767      2771      2769
 -1      1157    8    0    1
 -2       517       516       655      2353      2772      2773
 -1      1158    8    0    1
 -2       516       654       655      2770      2774      2772
 -1      1159    8    0    1
 -2       518       517       656      2356      2775      2776
 -1      1160    8    0    1
 -2       517       655       656      2773      2777      2775
 -1      1161    8    0    1
 -2       519       518       657      2359      2778      2779
 -1      1162    8    0    1
 -2       518       656       657      2776      2780      2778
 -1      1163    8    0    1
 -2       520       519       658      2362      2781      2782
 -1      1164    8    0    1
 -2       519       657       658      2779      2783      2781
 -1      1165    8    0    1
 -2       521       520       659      2365      2784      2785
 -1      1166    8    0    1
 -2       520       658       659      2782      2786      2784
 -1      1167    8    0    1
 -2       522       521       660      2368      2787      2788
 -1      1168    8    0    1
 -2       521       659       660      2785      2789      2787
 -1      1169    8    0    1
 -2       523       522       661      2371      2790      2791
 -1      1170    8    0    1
 -2       522       660       661      2788      2792      2790
 -1      1171    8    0    1
 -2       524       523       662      2374      2793      2794
 -1      1172    8    0    1
 -2       523       661       662      2791      2795      2793
 -1      1173    8    0    1
 -2       525       524       663      2377      2796      2797
 -1      1174    8    0    1
 -2       524       662       663      2794      2798      2796
 -1      1175    8    0    1
 -2       526       525       664      2380      2799      2800
 -1      1176    8    0    1
 -2       525       663       664      2797      2801      2799
 -1      1177    8    0    1
 -2       527       526       665      2383      2802      2803
 -1      1178    8    0    1
 -2       526       664       665      2800      2804      2802
 -1      1179    8    0    1
 -2       528       527       666      2386      2805      2806
 -1      1180    8    0    1
 -2       527       665       666      2803      2807      2805
 -1      1181    8    0    1
 -2       529       528       667      2389      2808      2809
 -1      1182    8    0    1
 -2       528       666       667      2806      2810      2808
 -1      1183    8    0    1
 -2       531       532       668      2397      2811      2812
 -1      1184    8    0    1
 -2       485       612       669      2662      2813      2814
 -1      1185    8    0    1
 -2       604       590       670      2599      2815      2816
 -1      1186    8    0    1
 -2       530       531       671      2394      2817      2818
 -1      1187    8    0    1
 -2       531       668       671      2812      2819      2817
 -1      1188    8    0    1
 -2       533       534       672      2403      2820      2821
 -1      1189    8    0    1
 -2       534       535       673      2406      2822      2823
 -1      1190    8    0    1
 -2       534       673       672      2823      2824      2820
 -1      1191    8    0    1
 -2       535       536       674      2409      2825      2826
 -1      1192    8    0    1
 -2       535       674       673      2826      2827      2822
 -1      1193    8    0    1
 -2       536       537       675      2412      2828      2829
 -1      1194    8    0    1
 -2       536       675       674      2829      2830      2825
 -1      1195    8    0    1
 -2       537       538       676      2415      2831      2832
 -1      1196    8    0    1
 -2       537       676       675      2832      2833      2828
 -1      1197    8    0    1
 -2       538       539       677      2418      2834      2835
 -1      1198    8    0    1
 -2       538       677       676      2835      2836      2831
 -1      1199    8    0    1
 -2       539       540       678      2421      2837      2838
 -1      1200    8    0    1
 -2       539       678       677      2838      2839      2834
 -1      1201    8    0    1
 -2       540       541       679      2424      2840      2841
 -1      1202    8    0    1
 -2       540       679       678      2841      2842      2837
 -1      1203    8    0    1
 -2       541       542       680      2427      2843      2844
 -1      1204    8    0    1
 -2       541       680       679      2844      2845      2840
 -1      1205    8    0    1
 -2       542       543       681      2430      2846      2847
 -1      1206    8    0    1
 -2       542       681       680      2847      2848      2843
 -1      1207    8    0    1
 -2       543       544       682      2433      2849      2850
 -1      1208    8    0    1
 -2       543       682       681      2850      2851      2846
 -1      1209    8    0    1
 -2       544       545       683      2436      2852      2853
 -1      1210    8    0    1
 -2       544       683       682      2853      2854      2849
 -1      1211    8    0    1
 -2       545       546       684      2439      2855      2856
 -1      1212    8    0    1
 -2       545       684       683      2856      2857      2852
 -1      1213    8    0    1
 -2       546       547       685      2442      2858      2859
 -1      1214    8    0    1
 -2       546       685       684      2859      2860      2855
 -1      1215    8    0    1
 -2       547       548       686      2445      2861      2862
 -1      1216    8    0    1
 -2       547       686       685      2862      2863      2858
 -1      1217    8    0    1
 -2       548       549       687      2448      2864      2865
 -1      1218    8    0    1
 -2       548       687       686      2865      2866      2861
 -1      1219    8    0    1
 -2       549       550       688      2451      2867      2868
 -1      1220    8    0    1
 -2       549       688       687      2868      2869      2864
 -1      1221    8    0    1
 -2       550       551       689      2454      2870      2871
 -1      1222    8    0    1
 -2       550       689       688      2871      2872      2867
 -1      1223    8    0    1
 -2       551       552       690      2457      2873      2874
 -1      1224    8    0    1
 -2       551       690       689      2874      2875      2870
 -1      1225    8    0    1
 -2       552       553       691      2460      2876      2877
 -1      1226    8    0    1
 -2       552       691       690      2877      2878      2873
 -1      1227    8    0    1
 -2       553       554       692      2463      2879      2880
 -1      1228    8    0    1
 -2       553       692       691      2880      2881      2876
 -1      1229    8    0    1
 -2       554       555       693      2466      2882      2883
 -1      1230    8    0    1
 -2       554       693       692      2883      2884      2879
 -1      1231    8    0    1
 -2       556       557       694      2472      2885      2886
 -1      1232    8    0    1
 -2       557       558       595      2475      2887      2888
 -1      1233    8    0    1
 -2       558       559       593      2478      2889      2890
 -1      1234    8    0    1
 -2       559       560       669      2481      2891      2892
 -1      1235    8    0    1
 -2       560       561       669      2484      2893      2891
 -1      1236    8    0    1
 -2       561       562       695      2487      2894      2895
 -1      1237    8    0    1
 -2       562       563       696      2490      2896      2897
 -1      1238    8    0    1
 -2       562       696       695      2897      2898      2894
 -1      1239    8    0    1
 -2       563       564       697      2493      2899      2900
 -1      1240    8    0    1
 -2       563       697       696      2900      2901      2896
 -1      1241    8    0    1
 -2       564       565       698      2496      2902      2903
 -1      1242    8    0    1
 -2       564       698       697      2903      2904      2899
 -1      1243    8    0    1
 -2       565       566       699      2499      2905      2906
 -1      1244    8    0    1
 -2       565       699       698      2906      2907      2902
 -1      1245    8    0    1
 -2       566       567       700      2502      2908      2909
 -1      1246    8    0    1
 -2       566       700       699      2909      2910      2905
 -1      1247    8    0    1
 -2       567       568       701      2505      2911      2912
 -1      1248    8    0    1
 -2       567       701       700      2912      2913      2908
 -1      1249    8    0    1
 -2       568       569       702      2508      2914      2915
 -1      1250    8    0    1
 -2       568       702       701      2915      2916      2911
 -1      1251    8    0    1
 -2       569       570       703      2511      2917      2918
 -1      1252    8    0    1
 -2       569       703       702      2918      2919      2914
 -1      1253    8    0    1
 -2       570       571       704      2514      2920      2921
 -1      1254    8    0    1
 -2       703       570       704      2917      2921      2922
 -1      1255    8    0    1
 -2       571       574       704      2668      2923      2920
 -1      1256    8    0    1
 -2       576       577       705      2532      2924      2925
 -1      1257    8    0    1
 -2       618       529       706      2669      2926      2927
 -1      1258    8    0    1
 -2       529       667       706      2809      2928      2926
 -1      1259    8    0    1
 -2       572       573       707      2520      2929      2930
 -1      1260    8    0    1
 -2       577       578       708      2535      2931      2932
 -1      1261    8    0    1
 -2       577       708       705      2932      2933      2924
 -1      1262    8    0    1
 -2       573       576       709      2529      2934      2935
 -1      1263    8    0    1
 -2       707       573       709      2929      2935      2936
 -1      1264    8    0    1
 -2       576       705       709      2925      2937      2934
 -1      1265    8    0    1
 -2       584       530       710      2552      2938      2939
 -1      1266    8    0    1
 -2       530       671       710      2818      2940      2938
 -1      1267    8    0    1
 -2       578       579       711      2538      2941      2942
 -1      1268    8    0    1
 -2       578       711       708      2942      2943      2931
 -1      1269    8    0    1
 -2       579       580       712      2541      2944      2945
 -1      1270    8    0    1
 -2       579       712       711      2945      2946      2941
 -1      1271    8    0    1
 -2       580       581       713      2544      2947      2948
 -1      1272    8    0    1
 -2       580       713       712      2948      2949      2944
 -1      1273    8    0    1
 -2       611       586       714      2635      2950      2951
 -1      1274    8    0    1
 -2       482       613       474      2640      2620      2952
 -1      1275    8    0    1
 -2       602       603       715      2644      2953      2954
 -1      1276    8    0    1
 -2       598       589       716      2647      2955      2956
 -1      1277    8    0    1
 -2       598       716       625      2956      2957      2684
 -1      1278    8    0    1
 -2       606       610       717      2631      2958      2959
 -1      1279    8    0    1
 -2       603       604       718      2638      2960      2961
 -1      1280    8    0    1
 -2       601       602       719      2648      2962      2963
 -1      1281    8    0    1
 -2       590       605       720      2653      2964      2965
 -1      1282    8    0    1
 -2       590       720       670      2965      2966      2815
 -1      1283    8    0    1
 -2       591       594       694      2655      2967      2968
 -1      1284    8    0    1
 -2       595       558       593      2887      2890      2663
 -1      1285    8    0    1
 -2       532       533       721      2400      2969      2970
 -1      1286    8    0    1
 -2       668       532       721      2811      2970      2971
 -1      1287    8    0    1
 -2       533       672       721      2821      2972      2969
 -1      1288    8    0    1
 -2       487       484       722      2263      2973      2974
 -1      1289    8    0    1
 -2       487       722       626      2974      2975      2686
 -1      1290    8    0    1
 -2       586       588       723      2646      2976      2977
 -1      1291    8    0    1
 -2       586       723       714      2977      2978      2950
 -1      1292    8    0    1
 -2       483       584       724      2625      2979      2980
 -1      1293    8    0    1
 -2       623       483       724      2680      2980      2981
 -1      1294    8    0    1
 -2       584       710       724      2939      2982      2979
 -1      1295    8    0    1
 -2       589       608       725      2656      2983      2984
 -1      1296    8    0    1
 -2       479       480       726      2245      2985      2986
 -1      1297    8    0    1
 -2       619       479       726      2670      2986      2987
 -1      1298    8    0    1
 -2       480       621       726      2676      2988      2985
 -1      1299    8    0    1
 -2       582       618       706      2660      2927      2989
 -1      1300    8    0    1
 -2       587       485       727      2633      2990      2991
 -1      1301    8    0    1
 -2       476       475       728      2234      2992      2993
 -1      1302    8    0    1
 -2       597       599       729      2588      2994      2995
 -1      1303    8    0    1
 -2       605       607       730      2665      2996      2997
 -1      1304    8    0    1
 -2       599       596       731      2649      2998      2999
 -1      1305    8    0    1
 -2       486       473       732      2645      3000      3001
 -1      1306    8    0    1
 -2       588       583       733      2639      3002      3003
 -1      1307    8    0    1
 -2       600       601       734      2664      3004      3005
 -1      1308    8    0    1
 -2       609       606       735      2666      3006      3007
 -1      1309    8    0    1
 -2       594       597       736      2657      3008      3009
 -1      1310    8    0    1
 -2       608       609       737      2610      3010      3011
 -1      1311    8    0    1
 -2       484       585       738      2555      3012      3013
 -1      1312    8    0    1
 -2       722       484       738      2973      3013      3014
 -1      1313    8    0    1
 -2       585       615       738      2629      3015      3012
 -1      1314    8    0    1
 -2       610       611       739      2667      3016      3017
 -1      1315    8    0    1
 -2       611       714       739      2951      3018      3016
 -1      1316    8    0    1
 -2       614       476       740      2622      3019      3020
 -1      1317    8    0    1
 -2       476       728       740      2993      3021      3019
 -1      1318    8    0    1
 -2       477       620       741      2673      3022      3023
 -1      1319    8    0    1
 -2       477       741       592      3023      3024      2573
 -1      1320    8    0    1
 -2       725       608       737      2983      3011      3025
 -1      1321    8    0    1
 -2       583       624       742      2683      3026      3027
 -1      1322    8    0    1
 -2       583       742       733      3027      3028      3002
 -1      1323    8    0    1
 -2       473       616       732      2642      3029      3000
 -1      1324    8    0    1
 -2       607       625       730      2685      3030      2996
 -1      1325    8    0    1
 -2       582       706       581      2989      3031      2547
 -1      1326    8    0    1
 -2       572       707       743      2930      3032      3033
 -1      1327    8    0    1
 -2       572       743       575      3033      3034      2526
 -1      1328    8    0    1
 -2       485       669       727      2814      3035      2990
 -1      1329    8    0    1
 -2       604       670       718      2816      3036      2960
 -1      1330    8    0    1
 -2       693       555       736      2882      3037      3038
 -1      1331    8    0    1
 -2       694       557       591      2885      3039      2968
 -1      1332    8    0    1
 -2       555       556       736      2469      3040      3037
 -1      1333    8    0    1
 -2       557       595       591      2888      2654      3039
 -1      1334    8    0    1
 -2       574       575       744      2525      3041      3042
 -1      1335    8    0    1
 -2       704       574       744      2923      3042      3043
 -1      1336    8    0    1
 -2       575       743       744      3034      3044      3041
 -1      1337    8    0    1
 -2       716       589       725      2955      2984      3045
 -1      1338    8    0    1
 -2       737       609       735      3010      3007      3046
 -1      1339    8    0    1
 -2       736       597       729      3008      2995      3047
 -1      1340    8    0    1
 -2       713       581       706      2947      3031      3048
 -1      1341    8    0    1
 -2       735       606       717      3006      2959      3049
 -1      1342    8    0    1
 -2       482       474       623      2952      2681      3050
 -1      1343    8    0    1
 -2       734       601       719      3004      2963      3051
 -1      1344    8    0    1
 -2       720       605       730      2964      2997      3052
 -1      1345    8    0    1
 -2       715       603       745      2953      3053      3054
 -1      1346    8    0    1
 -2       603       718       745      2961      3055      3053
 -1      1347    8    0    1
 -2       719       602       715      2962      2954      3056
 -1      1348    8    0    1
 -2       717       610       739      2958      3017      3057
 -1      1349    8    0    1
 -2       617       600       734      2650      3005      3058
 -1      1350    8    0    1
 -2       561       695       727      2895      3059      3060
 -1      1351    8    0    1
 -2       694       594       736      2967      3009      3061
 -1      1352    8    0    1
 -2       593       559       669      2889      2892      3062
 -1      1353    8    0    1
 -2       731       596       746      2998      3063      3064
 -1      1354    8    0    1
 -2       596       617       746      2652      3065      3063
 -1      1355    8    0    1
 -2       723       588       733      2976      3003      3066
 -1      1356    8    0    1
 -2       475       592       747      2572      3067      3068
 -1      1357    8    0    1
 -2       728       475       747      2992      3068      3069
 -1      1358    8    0    1
 -2       592       741       747      3024      3070      3067
 -1      1359    8    0    1
 -2       729       599       731      2994      2999      3071
 -1      1360    8    0    1
 -2       486       732       624      3001      3072      2682
 -1      1361    8    0    1
 -2       561       727       669      3060      3035      2893
 -1      1362    8    0    1
 -2       482       623       622      3050      3073      2677
 -1      1363    8    0    1
 -2       734       719       748      3051      3074      3075
 -1      1364    8    0    1
 -2       621       622       749      2679      3076      3077
 -1      1365    8    0    1
 -2       615       614       750      2630      3078      3079
 -1      1366    8    0    1
 -2       738       615       750      3015      3079      3080
 -1      1367    8    0    1
 -2       614       740       750      3020      3081      3078
 -1      1368    8    0    1
 -2       626       722       751      2975      3082      3083
 -1      1369    8    0    1
 -2       628       627       752      2693      3084      3085
 -1      1370    8    0    1
 -2       629       628       753      2696      3086      3087
 -1      1371    8    0    1
 -2       628       752       753      3085      3088      3086
 -1      1372    8    0    1
 -2       630       629       754      2699      3089      3090
 -1      1373    8    0    1
 -2       629       753       754      3087      3091      3089
 -1      1374    8    0    1
 -2       631       630       755      2702      3092      3093
 -1      1375    8    0    1
 -2       630       754       755      3090      3094      3092
 -1      1376    8    0    1
 -2       632       631       756      2705      3095      3096
 -1      1377    8    0    1
 -2       631       755       756      3093      3097      3095
 -1      1378    8    0    1
 -2       633       632       757      2708      3098      3099
 -1      1379    8    0    1
 -2       632       756       757      3096      3100      3098
 -1      1380    8    0    1
 -2       634       633       758      2711      3101      3102
 -1      1381    8    0    1
 -2       633       757       758      3099      3103      3101
 -1      1382    8    0    1
 -2       635       634       759      2714      3104      3105
 -1      1383    8    0    1
 -2       634       758       759      3102      3106      3104
 -1      1384    8    0    1
 -2       636       635       760      2717      3107      3108
 -1      1385    8    0    1
 -2       635       759       760      3105      3109      3107
 -1      1386    8    0    1
 -2       637       636       761      2720      3110      3111
 -1      1387    8    0    1
 -2       636       760       761      3108      3112      3110
 -1      1388    8    0    1
 -2       638       637       762      2723      3113      3114
 -1      1389    8    0    1
 -2       637       761       762      3111      3115      3113
 -1      1390    8    0    1
 -2       639       638       763      2726      3116      3117
 -1      1391    8    0    1
 -2       638       762       763      3114      3118      3116
 -1      1392    8    0    1
 -2       640       639       764      2729      3119      3120
 -1      1393    8    0    1
 -2       639       763       764      3117      3121      3119
 -1      1394    8    0    1
 -2       641       640       765      2732      3122      3123
 -1      1395    8    0    1
 -2       640       764       765      3120      3124      3122
 -1      1396    8    0    1
 -2       642       641       766      2735      3125      3126
 -1      1397    8    0    1
 -2       641       765       766      3123      3127      3125
 -1      1398    8    0    1
 -2       643       642       767      2738      3128      3129
 -1      1399    8    0    1
 -2       642       766       767      3126      3130      3128
 -1      1400    8    0    1
 -2       644       643       768      2741      3131      3132
 -1      1401    8    0    1
 -2       643       767       768      3129      3133      3131
 -1      1402    8    0    1
 -2       645       644       769      2744      3134      3135
 -1      1403    8    0    1
 -2       644       768       769      3132      3136      3134
 -1      1404    8    0    1
 -2       646       645       770      2747      3137      3138
 -1      1405    8    0    1
 -2       645       769       770      3135      3139      3137
 -1      1406    8    0    1
 -2       647       646       771      2750      3140      3141
 -1      1407    8    0    1
 -2       646       770       771      3138      3142      3140
 -1      1408    8    0    1
 -2       648       647       772      2753      3143      3144
 -1      1409    8    0    1
 -2       647       771       772      3141      3145      3143
 -1      1410    8    0    1
 -2       649       648       773      2756      3146      3147
 -1      1411    8    0    1
 -2       648       772       773      3144      3148      3146
 -1      1412    8    0    1
 -2       650       649       774      2759      3149      3150
 -1      1413    8    0    1
 -2       649       773       774      3147      3151      3149
 -1      1414    8    0    1
 -2       651       650       775      2762      3152      3153
 -1      1415    8    0    1
 -2       650       774       775      3150      3154      3152
 -1      1416    8    0    1
 -2       652       651       776      2765      3155      3156
 -1      1417    8    0    1
 -2       651       775       776      3153      3157      3155
 -1      1418    8    0    1
 -2       653       652       777      2768      3158      3159
 -1      1419    8    0    1
 -2       652       776       777      3156      3160      3158
 -1      1420    8    0    1
 -2       654       653       778      2771      3161      3162
 -1      1421    8    0    1
 -2       653       777       778      3159      3163      3161
 -1      1422    8    0    1
 -2       655       654       779      2774      3164      3165
 -1      1423    8    0    1
 -2       654       778       779      3162      3166      3164
 -1      1424    8    0    1
 -2       656       655       780      2777      3167      3168
 -1      1425    8    0    1
 -2       655       779       780      3165      3169      3167
 -1      1426    8    0    1
 -2       657       656       781      2780      3170      3171
 -1      1427    8    0    1
 -2       656       780       781      3168      3172      3170
 -1      1428    8    0    1
 -2       658       657       782      2783      3173      3174
 -1      1429    8    0    1
 -2       657       781       782      3171      3175      3173
 -1      1430    8    0    1
 -2       659       658       783      2786      3176      3177
 -1      1431    8    0    1
 -2       658       782       783      3174      3178      3176
 -1      1432    8    0    1
 -2       660       659       784      2789      3179      3180
 -1      1433    8    0    1
 -2       659       783       784      3177      3181      3179
 -1      1434    8    0    1
 -2       661       660       785      2792      3182      3183
 -1      1435    8    0    1
 -2       660       784       785      3180      3184      3182
 -1      1436    8    0    1
 -2       662       661       786      2795      3185      3186
 -1      1437    8    0    1
 -2       661       785       786      3183      3187      3185
 -1      1438    8    0    1
 -2       663       662       787      2798      3188      3189
 -1      1439    8    0    1
 -2       662       786       787      3186      3190      3188
 -1      1440    8    0    1
 -2       664       663       788      2801      3191      3192
 -1      1441    8    0    1
 -2       663       787       788      3189      3193      3191
 -1      1442    8    0    1
 -2       665       664       789      2804      3194      3195
 -1      1443    8    0    1
 -2       664       788       789      3192      3196      3194
 -1      1444    8    0    1
 -2       666       665       790      2807      3197      3198
 -1      1445    8    0    1
 -2       665       789       790      3195      3199      3197
 -1      1446    8    0    1
 -2       667       666       791      2810      3200      3201
 -1      1447    8    0    1
 -2       666       790       791      3198      3202      3200
 -1      1448    8    0    1
 -2       739       714       792      3018      3203      3204
 -1      1449    8    0    1
 -2       708       711       793      2943      3205      3206
 -1      1450    8    0    1
 -2       673       674       794      2827      3207      3208
 -1      1451    8    0    1
 -2       672       673       795      2824      3209      3210
 -1      1452    8    0    1
 -2       673       794       795      3208      3211      3209
 -1      1453    8    0    1
 -2       675       676       796      2833      3212      3213
 -1      1454    8    0    1
 -2       676       677       797      2836      3214      3215
 -1      1455    8    0    1
 -2       676       797       796      3215      3216      3212
 -1      1456    8    0    1
 -2       677       678       798      2839      3217      3218
 -1      1457    8    0    1
 -2       677       798       797      3218      3219      3214
 -1      1458    8    0    1
 -2       678       679       799      2842      3220      3221
 -1      1459    8    0    1
 -2       678       799       798      3221      3222      3217
 -1      1460    8    0    1
 -2       679       680       800      2845      3223      3224
 -1      1461    8    0    1
 -2       679       800       799      3224      3225      3220
 -1      1462    8    0    1
 -2       680       681       801      2848      3226      3227
 -1      1463    8    0    1
 -2       680       801       800      3227      3228      3223
 -1      1464    8    0    1
 -2       681       682       802      2851      3229      3230
 -1      1465    8    0    1
 -2       681       802       801      3230      3231      3226
 -1      1466    8    0    1
 -2       682       683       803      2854      3232      3233
 -1      1467    8    0    1
 -2       682       803       802      3233      3234      3229
 -1      1468    8    0    1
 -2       683       684       804      2857      3235      3236
 -1      1469    8    0    1
 -2       683       804       803      3236      3237      3232
 -1      1470    8    0    1
 -2       684       685       805      2860      3238      3239
 -1      1471    8    0    1
 -2       684       805       804      3239      3240      3235
 -1      1472    8    0    1
 -2       685       686       806      2863      3241      3242
 -1      1473    8    0    1
 -2       685       806       805      3242      3243      3238
 -1      1474    8    0    1
 -2       686       687       807      2866      3244      3245
 -1      1475    8    0    1
 -2       686       807       806      3245      3246      3241
 -1      1476    8    0    1
 -2       687       688       808      2869      3247      3248
 -1      1477    8    0    1
 -2       687       808       807      3248      3249      3244
 -1      1478    8    0    1
 -2       688       689       809      2872      3250      3251
 -1      1479    8    0    1
 -2       688       809       808      3251      3252      3247
 -1      1480    8    0    1
 -2       689       690       810      2875      3253      3254
 -1      1481    8    0    1
 -2       689       810       809      3254      3255      3250
 -1      1482    8    0    1
 -2       690       691       811      2878      3256      3257
 -1      1483    8    0    1
 -2       690       811       810      3257      3258      3253
 -1      1484    8    0    1
 -2       691       692       812      2881      3259      3260
 -1      1485    8    0    1
 -2       691       812       811      3260      3261      3256
 -1      1486    8    0    1
 -2       556       694       736      2886      3061      3040
 -1      1487    8    0    1
 -2       622       623       813      3073      3262      3263
 -1      1488    8    0    1
 -2       749       622       813      3076      3263      3264
 -1      1489    8    0    1
 -2       623       724       813      2981      3265      3262
 -1      1490    8    0    1
 -2       696       697       814      2901      3266      3267
 -1      1491    8    0    1
 -2       695       696       815      2898      3268      3269
 -1      1492    8    0    1
 -2       727       695       815      3059      3269      3270
 -1      1493    8    0    1
 -2       696       814       815      3267      3271      3268
 -1      1494    8    0    1
 -2       698       699       816      2907      3272      3273
 -1      1495    8    0    1
 -2       699       700       817      2910      3274      3275
 -1      1496    8    0    1
 -2       699       817       816      3275      3276      3272
 -1      1497    8    0    1
 -2       700       701       818      2913      3277      3278
 -1      1498    8    0    1
 -2       700       818       817      3278      3279      3274
 -1      1499    8    0    1
 -2       701       702       819      2916      3280      3281
 -1      1500    8    0    1
 -2       701       819       818      3281      3282      3277
 -1      1501    8    0    1
 -2       702       703       820      2919      3283      3284
 -1      1502    8    0    1
 -2       702       820       819      3284      3285      3280
 -1      1503    8    0    1
 -2       703       704       821      2922      3286      3287
 -1      1504    8    0    1
 -2       820       703       821      3283      3287      3288
 -1      1505    8    0    1
 -2       704       744       821      3043      3289      3286
 -1      1506    8    0    1
 -2       620       619       822      2674      3290      3291
 -1      1507    8    0    1
 -2       587       727       815      2991      3270      3292
 -1      1508    8    0    1
 -2       710       671       823      2940      3293      3294
 -1      1509    8    0    1
 -2       705       708       824      2933      3295      3296
 -1      1510    8    0    1
 -2       708       793       824      3206      3297      3295
 -1      1511    8    0    1
 -2       712       713       825      2949      3298      3299
 -1      1512    8    0    1
 -2       716       725       780      3045      3300      3301
 -1      1513    8    0    1
 -2       717       739       826      3057      3302      3303
 -1      1514    8    0    1
 -2       719       715       827      3056      3304      3305
 -1      1515    8    0    1
 -2       720       730       828      3052      3306      3307
 -1      1516    8    0    1
 -2       693       736       729      3038      3047      3308
 -1      1517    8    0    1
 -2       711       712       829      2946      3309      3310
 -1      1518    8    0    1
 -2       793       711       829      3205      3310      3311
 -1      1519    8    0    1
 -2       712       825       829      3299      3312      3309
 -1      1520    8    0    1
 -2       670       720       830      2966      3313      3314
 -1      1521    8    0    1
 -2       697       698       831      2904      3315      3316
 -1      1522    8    0    1
 -2       697       831       814      3316      3317      3266
 -1      1523    8    0    1
 -2       730       625       832      3030      3318      3319
 -1      1524    8    0    1
 -2       725       737       833      3025      3320      3321
 -1      1525    8    0    1
 -2       674       675       834      2830      3322      3323
 -1      1526    8    0    1
 -2       794       674       834      3207      3323      3324
 -1      1527    8    0    1
 -2       675       796       834      3213      3325      3322
 -1      1528    8    0    1
 -2       735       717       835      3049      3326      3327
 -1      1529    8    0    1
 -2       671       668       836      2819      3328      3329
 -1      1530    8    0    1
 -2       671       836       823      3329      3330      3293
 -1      1531    8    0    1
 -2       627       626       837      2690      3331      3332
 -1      1532    8    0    1
 -2       627       837       752      3332      3333      3084
 -1      1533    8    0    1
 -2       723       733       838      3066      3334      3335
 -1      1534    8    0    1
 -2       718       670       839      3036      3336      3337
 -1      1535    8    0    1
 -2       729       731       840      3071      3338      3339
 -1      1536    8    0    1
 -2       693       729       840      3308      3339      3340
 -1      1537    8    0    1
 -2       731       746       840      3064      3341      3338
 -1      1538    8    0    1
 -2       714       723       841      2978      3342      3343
 -1      1539    8    0    1
 -2       714       841       792      3343      3344      3203
 -1      1540    8    0    1
 -2       624       732       842      3072      3345      3346
 -1      1541    8    0    1
 -2       737       735       843      3046      3347      3348
 -1      1542    8    0    1
 -2       737       843       833      3348      3349      3320
 -1      1543    8    0    1
 -2       617       734       844      3058      3350      3351
 -1      1544    8    0    1
 -2       741       620       845      3022      3352      3353
 -1      1545    8    0    1
 -2       620       822       845      3291      3354      3352
 -1      1546    8    0    1
 -2       621       749       846      3077      3355      3356
 -1      1547    8    0    1
 -2       621       846       726      3356      3357      2988
 -1      1548    8    0    1
 -2       742       624       847      3026      3358      3359
 -1      1549    8    0    1
 -2       624       842       847      3346      3360      3358
 -1      1550    8    0    1
 -2       723       838       841      3335      3361      3342
 -1      1551    8    0    1
 -2       739       792       826      3204      3362      3302
 -1      1552    8    0    1
 -2       743       707       848      3032      3363      3364
 -1      1553    8    0    1
 -2       670       830       839      3314      3365      3336
 -1      1554    8    0    1
 -2       735       835       843      3327      3366      3347
 -1      1555    8    0    1
 -2       672       795       849      3210      3367      3368
 -1      1556    8    0    1
 -2       672       849       721      3368      3369      2972
 -1      1557    8    0    1
 -2       812       692       840      3259      3370      3371
 -1      1558    8    0    1
 -2       827       715       850      3304      3372      3373
 -1      1559    8    0    1
 -2       715       745       850      3054      3374      3372
 -1      1560    8    0    1
 -2       692       693       840      2884      3340      3370
 -1      1561    8    0    1
 -2       815       814       842      3271      3375      3376
 -1      1562    8    0    1
 -2       822       619       851      3290      3377      3378
 -1      1563    8    0    1
 -2       619       726       851      2987      3379      3377
 -1      1564    8    0    1
 -2       707       709       852      2936      3380      3381
 -1      1565    8    0    1
 -2       707       852       848      3381      3382      3363
 -1      1566    8    0    1
 -2       706       667       713      2928      3383      3048
 -1      1567    8    0    1
 -2       587       815       616      3292      3384      2643
 -1      1568    8    0    1
 -2       825       713       791      3298      3385      3386
 -1      1569    8    0    1
 -2       709       705       853      2937      3387      3388
 -1      1570    8    0    1
 -2       852       709       853      3380      3388      3389
 -1      1571    8    0    1
 -2       705       824       853      3296      3390      3387
 -1      1572    8    0    1
 -2       716       780       779      3301      3169      3391
 -1      1573    8    0    1
 -2       626       751       837      3083      3392      3331
 -1      1574    8    0    1
 -2       698       816       831      3273      3393      3315
 -1      1575    8    0    1
 -2       717       826       835      3303      3394      3326
 -1      1576    8    0    1
 -2       732       616       815      3029      3384      3395
 -1      1577    8    0    1
 -2       745       718       854      3055      3396      3397
 -1      1578    8    0    1
 -2       718       839       854      3337      3398      3396
 -1      1579    8    0    1
 -2       625       716       779      2957      3391      3399
 -1      1580    8    0    1
 -2       719       827       748      3305      3400      3074
 -1      1581    8    0    1
 -2       720       828       830      3307      3401      3313
 -1      1582    8    0    1
 -2       617       844       746      3351      3402      3065
 -1      1583    8    0    1
 -2       828       730       832      3306      3319      3403
 -1      1584    8    0    1
 -2       836       668       855      3328      3404      3405
 -1      1585    8    0    1
 -2       668       721       855      2971      3406      3404
 -1      1586    8    0    1
 -2       724       710       856      2982      3407      3408
 -1      1587    8    0    1
 -2       813       724       856      3265      3408      3409
 -1      1588    8    0    1
 -2       710       823       856      3294      3410      3407
 -1      1589    8    0    1
 -2       669       612       593      2813      2621      3062
 -1      1590    8    0    1
 -2       838       733       857      3334      3411      3412
 -1      1591    8    0    1
 -2       733       742       857      3028      3413      3411
 -1      1592    8    0    1
 -2       713       667       791      3383      3201      3385
 -1      1593    8    0    1
 -2       732       815       842      3395      3376      3345
 -1      1594    8    0    1
 -2       728       747       858      3069      3414      3415
 -1      1595    8    0    1
 -2       722       738       750      3014      3080      3416
 -1      1596    8    0    1
 -2       734       748       844      3075      3417      3350
 -1      1597    8    0    1
 -2       740       728       859      3021      3418      3419
 -1      1598    8    0    1
 -2       728       858       859      3415      3420      3418
 -1      1599    8    0    1
 -2       722       750       751      3416      3421      3082
 -1      1600    8    0    1
 -2       844       748       860      3417      3422      3423
 -1      1601    8    0    1
 -2       839       830       861      3365      3424      3425
 -1      1602    8    0    1
 -2       754       753       862      3091      3426      3427
 -1      1603    8    0    1
 -2       755       754       863      3094      3428      3429
 -1      1604    8    0    1
 -2       754       862       863      3427      3430      3428
 -1      1605    8    0    1
 -2       756       755       864      3097      3431      3432
 -1      1606    8    0    1
 -2       755       863       864      3429      3433      3431
 -1      1607    8    0    1
 -2       757       756       865      3100      3434      3435
 -1      1608    8    0    1
 -2       756       864       865      3432      3436      3434
 -1      1609    8    0    1
 -2       758       757       866      3103      3437      3438
 -1      1610    8    0    1
 -2       757       865       866      3435      3439      3437
 -1      1611    8    0    1
 -2       759       758       867      3106      3440      3441
 -1      1612    8    0    1
 -2       758       866       867      3438      3442      3440
 -1      1613    8    0    1
 -2       760       759       868      3109      3443      3444
 -1      1614    8    0    1
 -2       759       867       868      3441      3445      3443
 -1      1615    8    0    1
 -2       761       760       869      3112      3446      3447
 -1      1616    8    0    1
 -2       760       868       869      3444      3448      3446
 -1      1617    8    0    1
 -2       762       761       870      3115      3449      3450
 -1      1618    8    0    1
 -2       761       869       870      3447      3451      3449
 -1      1619    8    0    1
 -2       763       762       871      3118      3452      3453
 -1      1620    8    0    1
 -2       762       870       871      3450      3454      3452
 -1      1621    8    0    1
 -2       764       763       872      3121      3455      3456
 -1      1622    8    0    1
 -2       763       871       872      3453      3457      3455
 -1      1623    8    0    1
 -2       765       764       873      3124      3458      3459
 -1      1624    8    0    1
 -2       764       872       873      3456      3460      3458
 -1      1625    8    0    1
 -2       766       765       874      3127      3461      3462
 -1      1626    8    0    1
 -2       765       873       874      3459      3463      3461
 -1      1627    8    0    1
 -2       767       766       875      3130      3464      3465
 -1      1628    8    0    1
 -2       766       874       875      3462      3466      3464
 -1      1629    8    0    1
 -2       768       767       876      3133      3467      3468
 -1      1630    8    0    1
 -2       767       875       876      3465      3469      3467
 -1      1631    8    0    1
 -2       769       768       877      3136      3470      3471
 -1      1632    8    0    1
 -2       768       876       877      3468      3472      3470
 -1      1633    8    0    1
 -2       770       769       878      3139      3473      3474
 -1      1634    8    0    1
 -2       769       877       878      3471      3475      3473
 -1      1635    8    0    1
 -2       771       770       879      3142      3476      3477
 -1      1636    8    0    1
 -2       770       878       879      3474      3478      3476
 -1      1637    8    0    1
 -2       772       771       880      3145      3479      3480
 -1      1638    8    0    1
 -2       771       879       880      3477      3481      3479
 -1      1639    8    0    1
 -2       773       772       881      3148      3482      3483
 -1      1640    8    0    1
 -2       772       880       881      3480      3484      3482
 -1      1641    8    0    1
 -2       774       773       882      3151      3485      3486
 -1      1642    8    0    1
 -2       773       881       882      3483      3487      3485
 -1      1643    8    0    1
 -2       775       774       883      3154      3488      3489
 -1      1644    8    0    1
 -2       774       882       883      3486      3490      3488
 -1      1645    8    0    1
 -2       776       775       861      3157      3491      3492
 -1      1646    8    0    1
 -2       837       751       884      3392      3493      3494
 -1      1647    8    0    1
 -2       782       781       833      3175      3495      3496
 -1      1648    8    0    1
 -2       784       783       885      3181      3497      3498
 -1      1649    8    0    1
 -2       785       784       886      3184      3499      3500
 -1      1650    8    0    1
 -2       784       885       886      3498      3501      3499
 -1      1651    8    0    1
 -2       786       785       887      3187      3502      3503
 -1      1652    8    0    1
 -2       785       886       887      3500      3504      3502
 -1      1653    8    0    1
 -2       787       786       888      3190      3505      3506
 -1      1654    8    0    1
 -2       786       887       888      3503      3507      3505
 -1      1655    8    0    1
 -2       788       787       889      3193      3508      3509
 -1      1656    8    0    1
 -2       787       888       889      3506      3510      3508
 -1      1657    8    0    1
 -2       789       788       890      3196      3511      3512
 -1      1658    8    0    1
 -2       788       889       890      3509      3513      3511
 -1      1659    8    0    1
 -2       790       789       891      3199      3514      3515
 -1      1660    8    0    1
 -2       789       890       891      3512      3516      3514
 -1      1661    8    0    1
 -2       791       790       892      3202      3517      3518
 -1      1662    8    0    1
 -2       825       791       892      3386      3518      3519
 -1      1663    8    0    1
 -2       790       891       892      3515      3520      3517
 -1      1664    8    0    1
 -2       841       838       893      3361      3521      3522
 -1      1665    8    0    1
 -2       858       747       894      3414      3523      3524
 -1      1666    8    0    1
 -2       747       741       894      3070      3525      3523
 -1      1667    8    0    1
 -2       797       798       895      3219      3526      3527
 -1      1668    8    0    1
 -2       796       797       896      3216      3528      3529
 -1      1669    8    0    1
 -2       797       895       896      3527      3530      3528
 -1      1670    8    0    1
 -2       799       800       897      3225      3531      3532
 -1      1671    8    0    1
 -2       800       801       898      3228      3533      3534
 -1      1672    8    0    1
 -2       800       898       897      3534      3535      3531
 -1      1673    8    0    1
 -2       801       802       899      3231      3536      3537
 -1      1674    8    0    1
 -2       801       899       898      3537      3538      3533
 -1      1675    8    0    1
 -2       802       803       900      3234      3539      3540
 -1      1676    8    0    1
 -2       802       900       899      3540      3541      3536
 -1      1677    8    0    1
 -2       803       804       901      3237      3542      3543
 -1      1678    8    0    1
 -2       803       901       900      3543      3544      3539
 -1      1679    8    0    1
 -2       804       805       902      3240      3545      3546
 -1      1680    8    0    1
 -2       804       902       901      3546      3547      3542
 -1      1681    8    0    1
 -2       805       806       903      3243      3548      3549
 -1      1682    8    0    1
 -2       805       903       902      3549      3550      3545
 -1      1683    8    0    1
 -2       806       807       904      3246      3551      3552
 -1      1684    8    0    1
 -2       806       904       903      3552      3553      3548
 -1      1685    8    0    1
 -2       807       808       905      3249      3554      3555
 -1      1686    8    0    1
 -2       807       905       904      3555      3556      3551
 -1      1687    8    0    1
 -2       808       809       906      3252      3557      3558
 -1      1688    8    0    1
 -2       808       906       905      3558      3559      3554
 -1      1689    8    0    1
 -2       809       810       907      3255      3560      3561
 -1      1690    8    0    1
 -2       809       907       906      3561      3562      3557
 -1      1691    8    0    1
 -2       810       811       908      3258      3563      3564
 -1      1692    8    0    1
 -2       810       908       907      3564      3565      3560
 -1      1693    8    0    1
 -2       811       812       909      3261      3566      3567
 -1      1694    8    0    1
 -2       811       909       908      3567      3568      3563
 -1      1695    8    0    1
 -2       780       725       781      3300      3569      3172
 -1      1696    8    0    1
 -2       812       840       746      3371      3341      3570
 -1      1697    8    0    1
 -2       792       841       910      3344      3571      3572
 -1      1698    8    0    1
 -2       818       819       911      3282      3573      3574
 -1      1699    8    0    1
 -2       816       817       912      3276      3575      3576
 -1      1700    8    0    1
 -2       819       820       913      3285      3577      3578
 -1      1701    8    0    1
 -2       819       913       911      3578      3579      3573
 -1      1702    8    0    1
 -2       824       793       914      3297      3580      3581
 -1      1703    8    0    1
 -2       752       837       915      3333      3582      3583
 -1      1704    8    0    1
 -2       837       884       915      3494      3584      3582
 -1      1705    8    0    1
 -2       748       827       916      3400      3585      3586
 -1      1706    8    0    1
 -2       826       792       917      3362      3587      3588
 -1      1707    8    0    1
 -2       792       910       917      3572      3589      3587
 -1      1708    8    0    1
 -2       817       818       918      3279      3590      3591
 -1      1709    8    0    1
 -2       912       817       918      3575      3591      3592
 -1      1710    8    0    1
 -2       818       911       918      3574      3593      3590
 -1      1711    8    0    1
 -2       832       625       779      3318      3399      3594
 -1      1712    8    0    1
 -2       725       833       781      3321      3495      3569
 -1      1713    8    0    1
 -2       744       743       919      3044      3595      3596
 -1      1714    8    0    1
 -2       821       744       919      3289      3596      3597
 -1      1715    8    0    1
 -2       743       848       919      3364      3598      3595
 -1      1716    8    0    1
 -2       823       836       920      3330      3599      3600
 -1      1717    8    0    1
 -2       798       799       921      3222      3601      3602
 -1      1718    8    0    1
 -2       895       798       921      3526      3602      3603
 -1      1719    8    0    1
 -2       799       897       921      3532      3604      3601
 -1      1720    8    0    1
 -2       795       794       922      3211      3605      3606
 -1      1721    8    0    1
 -2       831       816       923      3393      3607      3608
 -1      1722    8    0    1
 -2       816       912       923      3576      3609      3607
 -1      1723    8    0    1
 -2       842       814       924      3375      3610      3611
 -1      1724    8    0    1
 -2       847       842       924      3360      3611      3612
 -1      1725    8    0    1
 -2       814       831       924      3317      3613      3610
 -1      1726    8    0    1
 -2       751       750       740      3421      3081      3614
 -1      1727    8    0    1
 -2       833       843       782      3349      3615      3496
 -1      1728    8    0    1
 -2       782       843       783      3615      3616      3178
 -1      1729    8    0    1
 -2       830       828       925      3401      3617      3618
 -1      1730    8    0    1
 -2       753       752       926      3088      3619      3620
 -1      1731    8    0    1
 -2       753       926       862      3620      3621      3426
 -1      1732    8    0    1
 -2       812       746       909      3570      3622      3566
 -1      1733    8    0    1
 -2       832       779       778      3594      3166      3623
 -1      1734    8    0    1
 -2       832       778       828      3623      3624      3403
 -1      1735    8    0    1
 -2       828       778       777      3624      3163      3625
 -1      1736    8    0    1
 -2       828       777       925      3625      3626      3617
 -1      1737    8    0    1
 -2       846       749       927      3355      3627      3628
 -1      1738    8    0    1
 -2       839       861       928      3425      3629      3630
 -1      1739    8    0    1
 -2       839       928       854      3630      3631      3398
 -1      1740    8    0    1
 -2       919       848       913      3598      3632      3633
 -1      1741    8    0    1
 -2       748       916       929      3586      3634      3635
 -1      1742    8    0    1
 -2       748       929       860      3635      3636      3422
 -1      1743    8    0    1
 -2       777       776       925      3160      3637      3626
 -1      1744    8    0    1
 -2       783       843       835      3616      3366      3638
 -1      1745    8    0    1
 -2       841       893       910      3522      3639      3571
 -1      1746    8    0    1
 -2       830       925       861      3618      3640      3424
 -1      1747    8    0    1
 -2       825       892       930      3519      3641      3642
 -1      1748    8    0    1
 -2       825       930       829      3642      3643      3312
 -1      1749    8    0    1
 -2       894       741       845      3525      3353      3644
 -1      1750    8    0    1
 -2       858       894       931      3524      3645      3646
 -1      1751    8    0    1
 -2       850       745       932      3374      3647      3648
 -1      1752    8    0    1
 -2       745       854       932      3397      3649      3647
 -1      1753    8    0    1
 -2       849       795       933      3367      3650      3651
 -1      1754    8    0    1
 -2       795       922       933      3606      3652      3650
 -1      1755    8    0    1
 -2       922       794       934      3605      3653      3654
 -1      1756    8    0    1
 -2       794       834       934      3324      3655      3653
 -1      1757    8    0    1
 -2       796       896       935      3529      3656      3657
 -1      1758    8    0    1
 -2       796       935       834      3657      3658      3325
 -1      1759    8    0    1
 -2       823       920       936      3600      3659      3660
 -1      1760    8    0    1
 -2       827       850       937      3373      3661      3662
 -1      1761    8    0    1
 -2       827       937       916      3662      3663      3585
 -1      1762    8    0    1
 -2       851       726       846      3379      3357      3664
 -1      1763    8    0    1
 -2       824       914       938      3581      3665      3666
 -1      1764    8    0    1
 -2       824       938       853      3666      3667      3390
 -1      1765    8    0    1
 -2       822       851       939      3378      3668      3669
 -1      1766    8    0    1
 -2       820       821       919      3288      3597      3670
 -1      1767    8    0    1
 -2       920       836       940      3599      3671      3672
 -1      1768    8    0    1
 -2       836       855       940      3405      3673      3671
 -1      1769    8    0    1
 -2       752       915       926      3583      3674      3619
 -1      1770    8    0    1
 -2       822       939       941      3669      3675      3676
 -1      1771    8    0    1
 -2       822       941       845      3676      3677      3354
 -1      1772    8    0    1
 -2       884       751       859      3493      3678      3679
 -1      1773    8    0    1
 -2       826       917       942      3588      3680      3681
 -1      1774    8    0    1
 -2       749       813       943      3264      3682      3683
 -1      1775    8    0    1
 -2       927       749       943      3627      3683      3684
 -1      1776    8    0    1
 -2       813       856       943      3409      3685      3682
 -1      1777    8    0    1
 -2       893       838       944      3521      3686      3687
 -1      1778    8    0    1
 -2       838       857       944      3412      3688      3686
 -1      1779    8    0    1
 -2       823       936       856      3660      3689      3410
 -1      1780    8    0    1
 -2       835       826       942      3394      3681      3690
 -1      1781    8    0    1
 -2       751       740       859      3614      3419      3678
 -1      1782    8    0    1
 -2       855       721       849      3406      3369      3691
 -1      1783    8    0    1
 -2       831       923       924      3608      3692      3613
 -1      1784    8    0    1
 -2       742       847       945      3359      3693      3694
 -1      1785    8    0    1
 -2       742       945       857      3694      3695      3413
 -1      1786    8    0    1
 -2       848       852       946      3382      3696      3697
 -1      1787    8    0    1
 -2       848       946       913      3697      3698      3632
 -1      1788    8    0    1
 -2       746       844       909      3402      3699      3622
 -1      1789    8    0    1
 -2       793       829       947      3311      3700      3701
 -1      1790    8    0    1
 -2       914       793       947      3580      3701      3702
 -1      1791    8    0    1
 -2       829       930       947      3643      3703      3700
 -1      1792    8    0    1
 -2       859       858       948      3420      3704      3705
 -1      1793    8    0    1
 -2       884       859       948      3679      3705      3706
 -1      1794    8    0    1
 -2       858       931       948      3646      3707      3704
 -1      1795    8    0    1
 -2       909       844       860      3699      3423      3708
 -1      1796    8    0    1
 -2       820       919       913      3670      3633      3577
 -1      1797    8    0    1
 -2       776       861       925      3492      3640      3637
 -1      1798    8    0    1
 -2       775       883       861      3489      3709      3491
 -1      1799    8    0    1
 -2       864       863       949      3433      3710      3711
 -1      1800    8    0    1
 -2       865       864       950      3436      3712      3713
 -1      1801    8    0    1
 -2       864       949       950      3711      3714      3712
 -1      1802    8    0    1
 -2       866       865       951      3439      3715      3716
 -1      1803    8    0    1
 -2       865       950       951      3713      3717      3715
 -1      1804    8    0    1
 -2       867       866       952      3442      3718      3719
 -1      1805    8    0    1
 -2       866       951       952      3716      3720      3718
 -1      1806    8    0    1
 -2       868       867       953      3445      3721      3722
 -1      1807    8    0    1
 -2       867       952       953      3719      3723      3721
 -1      1808    8    0    1
 -2       869       868       954      3448      3724      3725
 -1      1809    8    0    1
 -2       868       953       954      3722      3726      3724
 -1      1810    8    0    1
 -2       870       869       955      3451      3727      3728
 -1      1811    8    0    1
 -2       869       954       955      3725      3729      3727
 -1      1812    8    0    1
 -2       871       870       956      3454      3730      3731
 -1      1813    8    0    1
 -2       870       955       956      3728      3732      3730
 -1      1814    8    0    1
 -2       872       871       957      3457      3733      3734
 -1      1815    8    0    1
 -2       871       956       957      3731      3735      3733
 -1      1816    8    0    1
 -2       873       872       958      3460      3736      3737
 -1      1817    8    0    1
 -2       872       957       958      3734      3738      3736
 -1      1818    8    0    1
 -2       874       873       959      3463      3739      3740
 -1      1819    8    0    1
 -2       873       958       959      3737      3741      3739
 -1      1820    8    0    1
 -2       875       874       960      3466      3742      3743
 -1      1821    8    0    1
 -2       874       959       960      3740      3744      3742
 -1      1822    8    0    1
 -2       876       875       961      3469      3745      3746
 -1      1823    8    0    1
 -2       875       960       961      3743      3747      3745
 -1      1824    8    0    1
 -2       877       876       962      3472      3748      3749
 -1      1825    8    0    1
 -2       876       961       962      3746      3750      3748
 -1      1826    8    0    1
 -2       878       877       963      3475      3751      3752
 -1      1827    8    0    1
 -2       877       962       963      3749      3753      3751
 -1      1828    8    0    1
 -2       879       878       964      3478      3754      3755
 -1      1829    8    0    1
 -2       878       963       964      3752      3756      3754
 -1      1830    8    0    1
 -2       880       879       965      3481      3757      3758
 -1      1831    8    0    1
 -2       879       964       965      3755      3759      3757
 -1      1832    8    0    1
 -2       881       880       966      3484      3760      3761
 -1      1833    8    0    1
 -2       880       965       966      3758      3762      3760
 -1      1834    8    0    1
 -2       882       881       967      3487      3763      3764
 -1      1835    8    0    1
 -2       881       966       967      3761      3765      3763
 -1      1836    8    0    1
 -2       883       882       968      3490      3766      3767
 -1      1837    8    0    1
 -2       882       967       968      3764      3768      3766
 -1      1838    8    0    1
 -2       783       835       885      3638      3769      3497
 -1      1839    8    0    1
 -2       888       887       969      3507      3770      3771
 -1      1840    8    0    1
 -2       889       888       970      3510      3772      3773
 -1      1841    8    0    1
 -2       888       969       970      3771      3774      3772
 -1      1842    8    0    1
 -2       890       889       971      3513      3775      3776
 -1      1843    8    0    1
 -2       889       970       971      3773      3777      3775
 -1      1844    8    0    1
 -2       891       890       972      3516      3778      3779
 -1      1845    8    0    1
 -2       890       971       972      3776      3780      3778
 -1      1846    8    0    1
 -2       892       891       973      3520      3781      3782
 -1      1847    8    0    1
 -2       930       892       973      3641      3782      3783
 -1      1848    8    0    1
 -2       891       972       973      3779      3784      3781
 -1      1849    8    0    1
 -2       936       920       974      3659      3785      3786
 -1      1850    8    0    1
 -2       898       899       975      3538      3787      3788
 -1      1851    8    0    1
 -2       897       898       976      3535      3789      3790
 -1      1852    8    0    1
 -2       898       975       976      3788      3791      3789
 -1      1853    8    0    1
 -2       900       901       977      3544      3792      3793
 -1      1854    8    0    1
 -2       901       902       978      3547      3794      3795
 -1      1855    8    0    1
 -2       901       978       977      3795      3796      3792
 -1      1856    8    0    1
 -2       902       903       979      3550      3797      3798
 -1      1857    8    0    1
 -2       902       979       978      3798      3799      3794
 -1      1858    8    0    1
 -2       903       904       980      3553      3800      3801
 -1      1859    8    0    1
 -2       903       980       979      3801      3802      3797
 -1      1860    8    0    1
 -2       904       905       981      3556      3803      3804
 -1      1861    8    0    1
 -2       904       981       980      3804      3805      3800
 -1      1862    8    0    1
 -2       905       906       982      3559      3806      3807
 -1      1863    8    0    1
 -2       905       982       981      3807      3808      3803
 -1      1864    8    0    1
 -2       906       907       983      3562      3809      3810
 -1      1865    8    0    1
 -2       906       983       982      3810      3811      3806
 -1      1866    8    0    1
 -2       907       908       984      3565      3812      3813
 -1      1867    8    0    1
 -2       907       984       983      3813      3814      3809
 -1      1868    8    0    1
 -2       908       909       860      3568      3708      3815
 -1      1869    8    0    1
 -2       847       924       985      3612      3816      3817
 -1      1870    8    0    1
 -2       945       847       985      3693      3817      3818
 -1      1871    8    0    1
 -2       924       923       985      3692      3819      3816
 -1      1872    8    0    1
 -2       911       913       946      3579      3698      3820
 -1      1873    8    0    1
 -2       942       917       969      3680      3821      3822
 -1      1874    8    0    1
 -2       855       849       986      3691      3823      3824
 -1      1875    8    0    1
 -2       849       933       986      3651      3825      3823
 -1      1876    8    0    1
 -2       851       846       987      3664      3826      3827
 -1      1877    8    0    1
 -2       939       851       987      3668      3827      3828
 -1      1878    8    0    1
 -2       846       927       987      3628      3829      3826
 -1      1879    8    0    1
 -2       852       853       988      3389      3830      3831
 -1      1880    8    0    1
 -2       853       938       988      3667      3832      3830
 -1      1881    8    0    1
 -2       910       893       989      3639      3833      3834
 -1      1882    8    0    1
 -2       894       845       990      3644      3835      3836
 -1      1883    8    0    1
 -2       931       894       990      3645      3836      3837
 -1      1884    8    0    1
 -2       845       941       990      3677      3838      3835
 -1      1885    8    0    1
 -2       915       884       948      3584      3706      3839
 -1      1886    8    0    1
 -2       835       942       885      3690      3840      3769
 -1      1887    8    0    1
 -2       926       915       991      3674      3841      3842
 -1      1888    8    0    1
 -2       923       912       992      3609      3843      3844
 -1      1889    8    0    1
 -2       923       992       985      3844      3845      3819
 -1      1890    8    0    1
 -2       917       910       993      3589      3846      3847
 -1      1891    8    0    1
 -2       969       917       993      3821      3847      3848
 -1      1892    8    0    1
 -2       910       989       993      3834      3849      3846
 -1      1893    8    0    1
 -2       899       900       994      3541      3850      3851
 -1      1894    8    0    1
 -2       900       977       994      3793      3852      3850
 -1      1895    8    0    1
 -2       896       895       995      3530      3853      3854
 -1      1896    8    0    1
 -2       863       862       996      3430      3855      3856
 -1      1897    8    0    1
 -2       863       996       949      3856      3857      3710
 -1      1898    8    0    1
 -2       862       926       997      3621      3858      3859
 -1      1899    8    0    1
 -2       862       997       996      3859      3860      3855
 -1      1900    8    0    1
 -2       886       885       942      3501      3840      3861
 -1      1901    8    0    1
 -2       908       860       984      3815      3862      3812
 -1      1902    8    0    1
 -2       926       991       997      3842      3863      3858
 -1      1903    8    0    1
 -2       937       850       998      3661      3864      3865
 -1      1904    8    0    1
 -2       850       932       998      3648      3866      3864
 -1      1905    8    0    1
 -2       974       920       999      3785      3867      3868
 -1      1906    8    0    1
 -2       920       940       999      3672      3869      3867
 -1      1907    8    0    1
 -2       887       886       942      3504      3861      3870
 -1      1908    8    0    1
 -2       975       899       994      3787      3851      3871
 -1      1909    8    0    1
 -2       933       922      1000      3652      3872      3873
 -1      1910    8    0    1
 -2       934       834       935      3655      3658      3874
 -1      1911    8    0    1
 -2       935       896      1001      3656      3875      3876
 -1      1912    8    0    1
 -2       896       995      1001      3854      3877      3875
 -1      1913    8    0    1
 -2       897       976      1002      3790      3878      3879
 -1      1914    8    0    1
 -2       897      1002       921      3879      3880      3604
 -1      1915    8    0    1
 -2       887       942       969      3870      3822      3770
 -1      1916    8    0    1
 -2      1000       922      1003      3872      3881      3882
 -1      1917    8    0    1
 -2       922       934      1003      3654      3883      3881
 -1      1918    8    0    1
 -2       929       916      1004      3634      3884      3885
 -1      1919    8    0    1
 -2       916       937      1004      3663      3886      3884
 -1      1920    8    0    1
 -2       938       914      1005      3665      3887      3888
 -1      1921    8    0    1
 -2       948       931       991      3707      3889      3890
 -1      1922    8    0    1
 -2       940       855       986      3673      3824      3891
 -1      1923    8    0    1
 -2       941       939      1006      3675      3892      3893
 -1      1924    8    0    1
 -2       989       893      1007      3833      3894      3895
 -1      1925    8    0    1
 -2       893       944      1007      3687      3896      3894
 -1      1926    8    0    1
 -2       912       918      1008      3592      3897      3898
 -1      1927    8    0    1
 -2       912      1008       992      3898      3899      3843
 -1      1928    8    0    1
 -2       931       990      1009      3837      3900      3901
 -1      1929    8    0    1
 -2       931      1009       991      3901      3902      3889
 -1      1930    8    0    1
 -2       918       911      1010      3593      3903      3904
 -1      1931    8    0    1
 -2       918      1010      1008      3904      3905      3897
 -1      1932    8    0    1
 -2       944       857      1011      3688      3906      3907
 -1      1933    8    0    1
 -2       857       945      1011      3695      3908      3906
 -1      1934    8    0    1
 -2       991       915       948      3841      3839      3890
 -1      1935    8    0    1
 -2       895       921      1012      3603      3909      3910
 -1      1936    8    0    1
 -2       921      1002      1012      3880      3911      3909
 -1      1937    8    0    1
 -2       946       852       988      3696      3831      3912
 -1      1938    8    0    1
 -2       995       895      1012      3853      3910      3913
 -1      1939    8    0    1
 -2       911       946      1010      3820      3914      3903
 -1      1940    8    0    1
 -2       861       883       968      3709      3767      3915
 -1      1941    8    0    1
 -2       914       947      1013      3702      3916      3917
 -1      1942    8    0    1
 -2       914      1013      1005      3917      3918      3887
 -1      1943    8    0    1
 -2      1006       939       974      3892      3919      3920
 -1      1944    8    0    1
 -2       854       928      1014      3631      3921      3922
 -1      1945    8    0    1
 -2       976       975      1015      3791      3923      3924
 -1      1946    8    0    1
 -2       860       929       984      3636      3925      3862
 -1      1947    8    0    1
 -2       996       997      1016      3860      3926      3927
 -1      1948    8    0    1
 -2       951       950      1017      3717      3928      3929
 -1      1949    8    0    1
 -2       952       951      1018      3720      3930      3931
 -1      1950    8    0    1
 -2       951      1017      1018      3929      3932      3930
 -1      1951    8    0    1
 -2       953       952      1019      3723      3933      3934
 -1      1952    8    0    1
 -2       952      1018      1019      3931      3935      3933
 -1      1953    8    0    1
 -2       954       953      1020      3726      3936      3937
 -1      1954    8    0    1
 -2       953      1019      1020      3934      3938      3936
 -1      1955    8    0    1
 -2       955       954      1021      3729      3939      3940
 -1      1956    8    0    1
 -2       954      1020      1021      3937      3941      3939
 -1      1957    8    0    1
 -2       956       955      1022      3732      3942      3943
 -1      1958    8    0    1
 -2       955      1021      1022      3940      3944      3942
 -1      1959    8    0    1
 -2       957       956      1023      3735      3945      3946
 -1      1960    8    0    1
 -2       956      1022      1023      3943      3947      3945
 -1      1961    8    0    1
 -2       958       957      1024      3738      3948      3949
 -1      1962    8    0    1
 -2       957      1023      1024      3946      3950      3948
 -1      1963    8    0    1
 -2       959       958      1025      3741      3951      3952
 -1      1964    8    0    1
 -2       958      1024      1025      3949      3953      3951
 -1      1965    8    0    1
 -2       960       959      1026      3744      3954      3955
 -1      1966    8    0    1
 -2       959      1025      1026      3952      3956      3954
 -1      1967    8    0    1
 -2       961       960      1027      3747      3957      3958
 -1      1968    8    0    1
 -2       960      1026      1027      3955      3959      3957
 -1      1969    8    0    1
 -2       962       961      1028      3750      3960      3961
 -1      1970    8    0    1
 -2       961      1027      1028      3958      3962      3960
 -1      1971    8    0    1
 -2       963       962      1029      3753      3963      3964
 -1      1972    8    0    1
 -2       962      1028      1029      3961      3965      3963
 -1      1973    8    0    1
 -2       964       963      1030      3756      3966      3967
 -1      1974    8    0    1
 -2       963      1029      1030      3964      3968      3966
 -1      1975    8    0    1
 -2       965       964      1031      3759      3969      3970
 -1      1976    8    0    1
 -2       964      1030      1031      3967      3971      3969
 -1      1977    8    0    1
 -2       966       965      1032      3762      3972      3973
 -1      1978    8    0    1
 -2       965      1031      1032      3970      3974      3972
 -1      1979    8    0    1
 -2       967       966      1033      3765      3975      3976
 -1      1980    8    0    1
 -2       966      1032      1033      3973      3977      3975
 -1      1981    8    0    1
 -2       970       969      1034      3774      3978      3979
 -1      1982    8    0    1
 -2       969       993      1034      3848      3980      3978
 -1      1983    8    0    1
 -2       932       854      1014      3649      3922      3981
 -1      1984    8    0    1
 -2       936       974       987      3786      3982      3983
 -1      1985    8    0    1
 -2       971       970      1035      3777      3984      3985
 -1      1986    8    0    1
 -2       970      1034      1035      3979      3986      3984
 -1      1987    8    0    1
 -2       972       971      1035      3780      3985      3987
 -1      1988    8    0    1
 -2       938      1005      1036      3888      3988      3989
 -1      1989    8    0    1
 -2       938      1036       988      3989      3990      3832
 -1      1990    8    0    1
 -2       934       935      1037      3874      3991      3992
 -1      1991    8    0    1
 -2      1003       934      1037      3883      3992      3993
 -1      1992    8    0    1
 -2       935      1001      1037      3876      3994      3991
 -1      1993    8    0    1
 -2       946       988      1038      3912      3995      3996
 -1      1994    8    0    1
 -2      1010       946      1038      3914      3996      3997
 -1      1995    8    0    1
 -2       988      1036      1038      3990      3998      3995
 -1      1996    8    0    1
 -2       978       979      1039      3799      3999      4000
 -1      1997    8    0    1
 -2       977       978      1040      3796      4001      4002
 -1      1998    8    0    1
 -2       978      1039      1040      4000      4003      4001
 -1      1999    8    0    1
 -2       980       981      1041      3805      4004      4005
 -1      2000    8    0    1
 -2       981       982      1042      3808      4006      4007
 -1      2001    8    0    1
 -2       981      1042      1041      4007      4008      4004
 -1      2002    8    0    1
 -2       982       983      1043      3811      4009      4010
 -1      2003    8    0    1
 -2       982      1043      1042      4010      4011      4006
 -1      2004    8    0    1
 -2       983       984      1044      3814      4012      4013
 -1      2005    8    0    1
 -2       983      1044      1043      4013      4014      4009
 -1      2006    8    0    1
 -2       997       991      1045      3863      4015      4016
 -1      2007    8    0    1
 -2      1016       997      1045      3926      4016      4017
 -1      2008    8    0    1
 -2       991      1009      1045      3902      4018      4015
 -1      2009    8    0    1
 -2       932      1014      1046      3981      4019      4020
 -1      2010    8    0    1
 -2       932      1046       998      4020      4021      3866
 -1      2011    8    0    1
 -2      1004       937      1047      3886      4022      4023
 -1      2012    8    0    1
 -2       937       998      1047      3865      4024      4022
 -1      2013    8    0    1
 -2      1006       974      1048      3920      4025      4026
 -1      2014    8    0    1
 -2       974       999      1048      3868      4027      4025
 -1      2015    8    0    1
 -2       933      1000      1049      3873      4028      4029
 -1      2016    8    0    1
 -2       933      1049       986      4029      4030      3825
 -1      2017    8    0    1
 -2       950       949      1050      3714      4031      4032
 -1      2018    8    0    1
 -2       950      1050      1017      4032      4033      3928
 -1      2019    8    0    1
 -2       979       980      1051      3802      4034      4035
 -1      2020    8    0    1
 -2       979      1051      1039      4035      4036      3999
 -1      2021    8    0    1
 -2       994       977      1052      3852      4037      4038
 -1      2022    8    0    1
 -2       977      1040      1052      4002      4039      4037
 -1      2023    8    0    1
 -2       940       986      1053      3891      4040      4041
 -1      2024    8    0    1
 -2       999       940      1053      3869      4041      4042
 -1      2025    8    0    1
 -2       986      1049      1053      4030      4043      4040
 -1      2026    8    0    1
 -2       984       929      1044      3925      4044      4012
 -1      2027    8    0    1
 -2       936       987       927      3983      3829      4045
 -1      2028    8    0    1
 -2       941      1006      1054      3893      4046      4047
 -1      2029    8    0    1
 -2       941      1054       990      4047      4048      3838
 -1      2030    8    0    1
 -2       927       943       936      3684      4049      4045
 -1      2031    8    0    1
 -2       985       992      1055      3845      4050      4051
 -1      2032    8    0    1
 -2       985      1055       945      4051      4052      3818
 -1      2033    8    0    1
 -2       929      1004      1044      3885      4053      4044
 -1      2034    8    0    1
 -2       975       994      1056      3871      4054      4055
 -1      2035    8    0    1
 -2       975      1056      1015      4055      4056      3923
 -1      2036    8    0    1
 -2       949       996      1057      3857      4057      4058
 -1      2037    8    0    1
 -2       996      1016      1057      3927      4059      4057
 -1      2038    8    0    1
 -2       939       987       974      3828      3982      3919
 -1      2039    8    0    1
 -2       947       930      1058      3703      4060      4061
 -1      2040    8    0    1
 -2      1013       947      1058      3916      4061      4062
 -1      2041    8    0    1
 -2       930       973      1058      3783      4063      4060
 -1      2042    8    0    1
 -2       995      1012      1059      3913      4064      4065
 -1      2043    8    0    1
 -2       856       936       943      3689      4049      3685
 -1      2044    8    0    1
 -2       976      1015      1060      3924      4066      4067
 -1      2045    8    0    1
 -2       976      1060      1002      4067      4068      3878
 -1      2046    8    0    1
 -2       995      1059      1061      4065      4069      4070
 -1      2047    8    0    1
 -2       995      1061      1001      4070      4071      3877
 -1      2048    8    0    1
 -2       967      1033      1046      3976      4072      4073
 -1      2049    8    0    1
 -2      1005      1013      1062      3918      4074      4075
 -1      2050    8    0    1
 -2       968       967      1046      3768      4073      4076
 -1      2051    8    0    1
 -2      1004      1047      1063      4023      4077      4078
 -1      2052    8    0    1
 -2      1004      1063      1044      4078      4079      4053
 -1      2053    8    0    1
 -2      1000      1003      1064      3882      4080      4081
 -1      2054    8    0    1
 -2       980      1041      1051      4005      4082      4034
 -1      2055    8    0    1
 -2      1036      1005      1065      3988      4083      4084
 -1      2056    8    0    1
 -2      1005      1062      1065      4075      4085      4083
 -1      2057    8    0    1
 -2       973       972      1058      3784      4086      4063
 -1      2058    8    0    1
 -2       945      1055      1011      4052      4087      3908
 -1      2059    8    0    1
 -2      1008      1010      1066      3905      4088      4089
 -1      2060    8    0    1
 -2      1010      1038      1066      3997      4090      4088
 -1      2061    8    0    1
 -2      1049      1000      1067      4028      4091      4092
 -1      2062    8    0    1
 -2      1000      1064      1067      4081      4093      4091
 -1      2063    8    0    1
 -2       994      1052      1056      4038      4094      4054
 -1      2064    8    0    1
 -2      1050       949      1057      4031      4058      4095
 -1      2065    8    0    1
 -2      1054      1006      1048      4046      4026      4096
 -1      2066    8    0    1
 -2       989      1007      1068      3895      4097      4098
 -1      2067    8    0    1
 -2       990      1054      1009      4048      4099      3900
 -1      2068    8    0    1
 -2       944      1011      1069      3907      4100      4101
 -1      2069    8    0    1
 -2       944      1069      1007      4101      4102      3896
 -1      2070    8    0    1
 -2       993       989      1068      3849      4098      4103
 -1      2071    8    0    1
 -2      1012      1002      1070      3911      4104      4105
 -1      2072    8    0    1
 -2      1059      1012      1070      4064      4105      4106
 -1      2073    8    0    1
 -2      1002      1060      1070      4068      4107      4104
 -1      2074    8    0    1
 -2       992      1008      1071      3899      4108      4109
 -1      2075    8    0    1
 -2      1055       992      1071      4050      4109      4110
 -1      2076    8    0    1
 -2      1008      1066      1071      4089      4111      4108
 -1      2077    8    0    1
 -2      1058       972      1035      4086      3987      4112
 -1      2078    8    0    1
 -2       968      1046      1014      4076      4019      4113
 -1      2079    8    0    1
 -2       968      1014       928      4113      3921      4114
 -1      2080    8    0    1
 -2      1019      1018      1072      3935      4115      4116
 -1      2081    8    0    1
 -2      1020      1019      1073      3938      4117      4118
 -1      2082    8    0    1
 -2      1019      1072      1073      4116      4119      4117
 -1      2083    8    0    1
 -2      1021      1020      1074      3941      4120      4121
 -1      2084    8    0    1
 -2      1020      1073      1074      4118      4122      4120
 -1      2085    8    0    1
 -2      1022      1021      1075      3944      4123      4124
 -1      2086    8    0    1
 -2      1021      1074      1075      4121      4125      4123
 -1      2087    8    0    1
 -2      1023      1022      1076      3947      4126      4127
 -1      2088    8    0    1
 -2      1022      1075      1076      4124      4128      4126
 -1      2089    8    0    1
 -2      1024      1023      1077      3950      4129      4130
 -1      2090    8    0    1
 -2      1023      1076      1077      4127      4131      4129
 -1      2091    8    0    1
 -2      1025      1024      1078      3953      4132      4133
 -1      2092    8    0    1
 -2      1024      1077      1078      4130      4134      4132
 -1      2093    8    0    1
 -2      1026      1025      1079      3956      4135      4136
 -1      2094    8    0    1
 -2      1025      1078      1079      4133      4137      4135
 -1      2095    8    0    1
 -2      1027      1026      1080      3959      4138      4139
 -1      2096    8    0    1
 -2      1026      1079      1080      4136      4140      4138
 -1      2097    8    0    1
 -2      1028      1027      1081      3962      4141      4142
 -1      2098    8    0    1
 -2      1027      1080      1081      4139      4143      4141
 -1      2099    8    0    1
 -2      1029      1028      1082      3965      4144      4145
 -1      2100    8    0    1
 -2      1028      1081      1082      4142      4146      4144
 -1      2101    8    0    1
 -2      1030      1029      1083      3968      4147      4148
 -1      2102    8    0    1
 -2      1029      1082      1083      4145      4149      4147
 -1      2103    8    0    1
 -2      1031      1030      1084      3971      4150      4151
 -1      2104    8    0    1
 -2      1030      1083      1084      4148      4152      4150
 -1      2105    8    0    1
 -2      1032      1031      1085      3974      4153      4154
 -1      2106    8    0    1
 -2      1031      1084      1085      4151      4155      4153
 -1      2107    8    0    1
 -2      1033      1032      1086      3977      4156      4157
 -1      2108    8    0    1
 -2      1032      1085      1086      4154      4158      4156
 -1      2109    8    0    1
 -2      1034       993      1068      3980      4103      4159
 -1      2110    8    0    1
 -2      1064      1003      1087      4080      4160      4161
 -1      2111    8    0    1
 -2      1003      1037      1087      3993      4162      4160
 -1      2112    8    0    1
 -2      1051      1041      1088      4082      4163      4164
 -1      2113    8    0    1
 -2      1011      1055      1089      4087      4165      4166
 -1      2114    8    0    1
 -2      1069      1011      1089      4100      4166      4167
 -1      2115    8    0    1
 -2      1055      1071      1089      4110      4168      4165
 -1      2116    8    0    1
 -2      1015      1056      1090      4056      4169      4170
 -1      2117    8    0    1
 -2      1043      1044      1063      4014      4079      4171
 -1      2118    8    0    1
 -2      1040      1039      1091      4003      4172      4173
 -1      2119    8    0    1
 -2      1042      1043      1092      4011      4174      4175
 -1      2120    8    0    1
 -2      1041      1042      1093      4008      4176      4177
 -1      2121    8    0    1
 -2      1088      1041      1093      4163      4177      4178
 -1      2122    8    0    1
 -2      1042      1092      1093      4175      4179      4176
 -1      2123    8    0    1
 -2      1047       998      1094      4024      4180      4181
 -1      2124    8    0    1
 -2       998      1046      1094      4021      4182      4180
 -1      2125    8    0    1
 -2      1048       999      1095      4027      4183      4184
 -1      2126    8    0    1
 -2       999      1053      1095      4042      4185      4183
 -1      2127    8    0    1
 -2      1052      1040      1096      4039      4186      4187
 -1      2128    8    0    1
 -2      1040      1091      1096      4173      4188      4186
 -1      2129    8    0    1
 -2      1068      1007      1097      4097      4189      4190
 -1      2130    8    0    1
 -2      1007      1069      1097      4102      4191      4189
 -1      2131    8    0    1
 -2      1009      1054      1098      4099      4192      4193
 -1      2132    8    0    1
 -2      1018      1017      1099      3932      4194      4195
 -1      2133    8    0    1
 -2      1018      1099      1072      4195      4196      4115
 -1      2134    8    0    1
 -2      1050      1057      1100      4095      4197      4198
 -1      2135    8    0    1
 -2      1057      1016      1101      4059      4199      4200
 -1      2136    8    0    1
 -2      1057      1101      1100      4200      4201      4197
 -1      2137    8    0    1
 -2      1017      1050      1102      4033      4202      4203
 -1      2138    8    0    1
 -2      1050      1100      1102      4198      4204      4202
 -1      2139    8    0    1
 -2      1039      1051      1103      4036      4205      4206
 -1      2140    8    0    1
 -2      1051      1088      1103      4164      4207      4205
 -1      2141    8    0    1
 -2      1054      1048      1098      4096      4208      4192
 -1      2142    8    0    1
 -2      1038      1036      1104      3998      4209      4210
 -1      2143    8    0    1
 -2      1066      1038      1104      4090      4210      4211
 -1      2144    8    0    1
 -2      1036      1065      1104      4084      4212      4209
 -1      2145    8    0    1
 -2      1056      1052      1105      4094      4213      4214
 -1      2146    8    0    1
 -2      1052      1096      1105      4187      4215      4213
 -1      2147    8    0    1
 -2      1034      1068      1106      4159      4216      4217
 -1      2148    8    0    1
 -2      1035      1034      1106      3986      4217      4218
 -1      2149    8    0    1
 -2      1068      1097      1106      4190      4219      4216
 -1      2150    8    0    1
 -2      1061      1059      1107      4069      4220      4221
 -1      2151    8    0    1
 -2      1046      1033      1094      4072      4222      4182
 -1      2152    8    0    1
 -2      1039      1103      1091      4206      4223      4172
 -1      2153    8    0    1
 -2      1107      1059      1108      4220      4224      4225
 -1      2154    8    0    1
 -2      1059      1070      1108      4106      4226      4224
 -1      2155    8    0    1
 -2       928       861       968      3629      3915      4114
 -1      2156    8    0    1
 -2      1092      1043      1063      4174      4171      4227
 -1      2157    8    0    1
 -2      1037      1001      1109      3994      4228      4229
 -1      2158    8    0    1
 -2      1001      1061      1109      4071      4230      4228
 -1      2159    8    0    1
 -2      1035      1106      1062      4218      4231      4232
 -1      2160    8    0    1
 -2      1099      1017      1102      4194      4203      4233
 -1      2161    8    0    1
 -2      1045      1009      1098      4018      4193      4234
 -1      2162    8    0    1
 -2      1067      1064      1110      4093      4235      4236
 -1      2163    8    0    1
 -2      1015      1090      1111      4170      4237      4238
 -1      2164    8    0    1
 -2      1015      1111      1060      4238      4239      4066
 -1      2165    8    0    1
 -2      1098      1048      1095      4208      4184      4240
 -1      2166    8    0    1
 -2      1056      1105      1090      4214      4241      4169
 -1      2167    8    0    1
 -2      1053      1049      1112      4043      4242      4243
 -1      2168    8    0    1
 -2      1095      1053      1112      4185      4243      4244
 -1      2169    8    0    1
 -2      1049      1067      1112      4092      4245      4242
 -1      2170    8    0    1
 -2      1058      1035      1062      4112      4232      4246
 -1      2171    8    0    1
 -2      1094      1033      1086      4222      4157      4247
 -1      2172    8    0    1
 -2      1062      1106      1113      4231      4248      4249
 -1      2173    8    0    1
 -2      1065      1062      1113      4085      4249      4250
 -1      2174    8    0    1
 -2      1106      1097      1113      4219      4251      4248
 -1      2175    8    0    1
 -2      1110      1064      1114      4235      4252      4253
 -1      2176    8    0    1
 -2      1064      1087      1114      4161      4254      4252
 -1      2177    8    0    1
 -2      1092      1063      1115      4227      4255      4256
 -1      2178    8    0    1
 -2      1073      1072      1116      4119      4257      4258
 -1      2179    8    0    1
 -2      1074      1073      1107      4122      4259      4260
 -1      2180    8    0    1
 -2      1075      1074      1108      4125      4261      4262
 -1      2181    8    0    1
 -2      1077      1076      1117      4131      4263      4264
 -1      2182    8    0    1
 -2      1078      1077      1090      4134      4265      4266
 -1      2183    8    0    1
 -2      1079      1078      1105      4137      4267      4268
 -1      2184    8    0    1
 -2      1080      1079      1096      4140      4269      4270
 -1      2185    8    0    1
 -2      1081      1080      1091      4143      4271      4272
 -1      2186    8    0    1
 -2      1082      1081      1103      4146      4273      4274
 -1      2187    8    0    1
 -2      1083      1082      1088      4149      4275      4276
 -1      2188    8    0    1
 -2      1084      1083      1093      4152      4277      4278
 -1      2189    8    0    1
 -2      1086      1085      1115      4158      4279      4280
 -1      2190    8    0    1
 -2      1087      1037      1109      4162      4229      4281
 -1      2191    8    0    1
 -2      1063      1047      1118      4077      4282      4283
 -1      2192    8    0    1
 -2      1088      1082      1103      4275      4274      4207
 -1      2193    8    0    1
 -2      1091      1103      1081      4223      4273      4272
 -1      2194    8    0    1
 -2      1091      1080      1096      4271      4270      4188
 -1      2195    8    0    1
 -2      1061      1107      1116      4221      4284      4285
 -1      2196    8    0    1
 -2      1047      1094      1118      4181      4286      4282
 -1      2197    8    0    1
 -2      1099      1102      1114      4233      4287      4288
 -1      2198    8    0    1
 -2      1016      1045      1119      4017      4289      4290
 -1      2199    8    0    1
 -2      1105      1096      1079      4215      4269      4268
 -1      2200    8    0    1
 -2      1105      1078      1090      4267      4266      4241
 -1      2201    8    0    1
 -2      1097      1069      1120      4191      4291      4292
 -1      2202    8    0    1
 -2      1113      1097      1120      4251      4292      4293
 -1      2203    8    0    1
 -2      1069      1089      1120      4167      4294      4291
 -1      2204    8    0    1
 -2      1072      1099      1121      4196      4295      4296
 -1      2205    8    0    1
 -2      1116      1072      1121      4257      4296      4297
 -1      2206    8    0    1
 -2      1099      1114      1121      4288      4298      4295
 -1      2207    8    0    1
 -2      1101      1016      1119      4199      4290      4299
 -1      2208    8    0    1
 -2      1067      1110      1112      4236      4300      4245
 -1      2209    8    0    1
 -2      1107      1073      1116      4259      4258      4284
 -1      2210    8    0    1
 -2      1045      1098      1119      4234      4301      4289
 -1      2211    8    0    1
 -2      1100      1101      1122      4201      4302      4303
 -1      2212    8    0    1
 -2      1070      1060      1123      4107      4304      4305
 -1      2213    8    0    1
 -2      1060      1111      1123      4239      4306      4304
 -1      2214    8    0    1
 -2      1102      1100      1110      4204      4307      4308
 -1      2215    8    0    1
 -2      1071      1066      1124      4111      4309      4310
 -1      2216    8    0    1
 -2      1089      1071      1124      4168      4310      4311
 -1      2217    8    0    1
 -2      1066      1104      1124      4211      4312      4309
 -1      2218    8    0    1
 -2      1074      1107      1108      4260      4225      4261
 -1      2219    8    0    1
 -2      1083      1088      1093      4276      4178      4277
 -1      2220    8    0    1
 -2      1102      1110      1114      4308      4253      4287
 -1      2221    8    0    1
 -2      1093      1092      1084      4179      4313      4278
 -1      2222    8    0    1
 -2      1108      1070      1123      4226      4305      4314
 -1      2223    8    0    1
 -2      1075      1108      1123      4262      4314      4315
 -1      2224    8    0    1
 -2      1076      1075      1123      4128      4315      4316
 -1      2225    8    0    1
 -2      1085      1084      1092      4155      4313      4317
 -1      2226    8    0    1
 -2      1101      1119      1125      4299      4318      4319
 -1      2227    8    0    1
 -2      1109      1061      1116      4230      4285      4320
 -1      2228    8    0    1
 -2      1114      1087      1121      4254      4321      4298
 -1      2229    8    0    1
 -2      1101      1125      1122      4319      4322      4302
 -1      2230    8    0    1
 -2      1121      1087      1109      4321      4281      4323
 -1      2231    8    0    1
 -2      1090      1077      1117      4265      4264      4324
 -1      2232    8    0    1
 -2      1058      1062      1013      4246      4074      4062
 -1      2233    8    0    1
 -2      1085      1092      1115      4317      4256      4279
 -1      2234    8    0    1
 -2      1110      1100      1122      4307      4303      4325
 -1      2235    8    0    1
 -2      1104      1065      1113      4212      4250      4326
 -1      2236    8    0    1
 -2      1110      1122      1112      4325      4327      4300
 -1      2237    8    0    1
 -2      1119      1098      1125      4301      4328      4318
 -1      2238    8    0    1
 -2      1076      1123      1117      4316      4329      4263
 -1      2239    8    0    1
 -2      1086      1115      1118      4280      4330      4331
 -1      2240    8    0    1
 -2      1109      1116      1121      4320      4297      4323
 -1      2241    8    0    1
 -2      1063      1118      1115      4283      4330      4255
 -1      2242    8    0    1
 -2      1118      1094      1086      4286      4247      4331
 -1      2243    8    0    1
 -2      1095      1112      1122      4244      4327      4332
 -1      2244    8    0    1
 -2      1098      1095      1125      4240      4333      4328
 -1      2245    8    0    1
 -2      1095      1122      1125      4332      4322      4333
 -1      2246    8    0    1
 -2      1123      1111      1117      4306      4334      4329
 -1      2247    8    0    1
 -2      1120      1089      1124      4294      4311      4335
 -1      2248    8    0    1
 -2      1090      1117      1111      4324      4334      4237
 -1      2249    8    0    1
 -2      1104      1113      1120      4326      4293      4336
 -1      2250    8    0    1
 -2      1104      1120      1124      4336      4335      4312
 -3
    1PSTEP                         1           1           1          
  100CL  101 1.000000000        4336                     0    1           1
 -4  DISP        4    1
 -5  D1          1    2    1    0
 -5  D2          1    2    2    0
 -5  D3          1    2    3    0
 -5  ALL         1    2    0    0    1ALL
 -1         1 8.63522E-03-2.57371E-04-3.65505E-14
 -1         2 1.25463E-02 4.18077E-04-4.53896E-14
 -1         3 1.56262E-02 1.56026E-03-7.58030E-14
 -1         4 1.46002E-02 3.63467E-04-7.78448E-14
 -1         5 0.00000E+00 0.00000E+00 0.00000E+00
 -1         6 0.00000E+00 0.00000E+00 0.00000E+00
 -1         7 0.00000E+00 0.00000E+00 0.00000E+00
 -1         8 0.00000E+00 0.00000E+00 0.00000E+00
 -1         9 0.00000E+00 0.00000E+00 0.00000E+00
 -1        10 0.00000E+00 0.00000E+00 0.00000E+00
 -1        11 0.00000E+00 0.00000E+00 0.00000E+00
 -1        12 0.00000E+00 0.00000E+00 0.00000E+00
 -1        13 0.00000E+00 0.00000E+00 0.00000E+00
 -1        14 0.00000E+00 0.00000E+00 0.00000E+00
 -1        15 0.00000E+00 0.00000E+00 0.00000E+00
 -1        16 0.00000E+00 0.00000E+00 0.00000E+00
 -1        17 0.00000E+00 0.00000E+00 0.00000E+00
 -1        18 0.00000E+00 0.00000E+00 0.00000E+00
 -1        19 0.00000E+00 0.00000E+00 0.00000E+00
 -1        20 0.00000E+00 0.00000E+00 0.00000E+00
 -1        21 0.00000E+00 0.00000E+00 0.00000E+00
 -1        22 0.00000E+00 0.00000E+00 0.00000E+00
 -1        23 4.11311E-04-2.60744E-04 1.60225E-17
 -1        24 7.03202E-04-4.01005E-04-5.86282E-17
 -1        25 9.73150E-04-4.98367E-04-2.22126E-16
 -1        26 1.23750E-03-5.67054E-04-4.70859E-16
 -1        27 1.50086E-03-6.16200E-04-8.02083E-16
 -1        28 1.76534E-03-6.51174E-04-1.21392E-15
 -1        29 2.03188E-03-6.75665E-04-1.70619E-15
 -1        30 2.30085E-03-6.92344E-04-2.27702E-15
 -1        31 2.57232E-03-7.03199E-04-2.92448E-15
 -1        32 2.84617E-03-7.09718E-04-3.64605E-15
 -1        33 3.12219E-03-7.13010E-04-4.43582E-15
 -1        34 3.40018E-03-7.13889E-04-5.28957E-15
 -1        35 3.67991E-03-7.12937E-04-6.21073E-15
 -1        36 3.96122E-03-7.10563E-04-7.19570E-15
 -1        37 4.24404E-03-7.07044E-04-8.24102E-15
 -1        38 4.52835E-03-7.02576E-04-9.34946E-15
 -1        39 4.81426E-03-6.97311E-04-1.05184E-14
 -1        40 5.10198E-03-6.91410E-04-1.17486E-14
 -1        41 5.39187E-03-6.85084E-04-1.30394E-14
 -1        42 5.68439E-03-6.78663E-04-1.43938E-14
 -1        43 5.98012E-03-6.72650E-04-1.58242E-14
 -1        44 6.27970E-03-6.67802E-04-1.73215E-14
 -1        45 6.58379E-03-6.65192E-04-1.88873E-14
 -1        46 6.89293E-03-6.66260E-04-2.05262E-14
 -1        47 7.20732E-03-6.72811E-04-2.22274E-14
 -1        48 7.52661E-03-6.86905E-04-2.39829E-14
 -1        49 7.84952E-03-7.10565E-04-2.57861E-14
 -1        50 8.17352E-03-7.45228E-04-2.76391E-14
 -1        51 8.49474E-03-7.90884E-04-2.95438E-14
 -1        52 8.80816E-03-8.45016E-04-3.14914E-14
 -1        53 9.10866E-03-9.01694E-04-3.34841E-14
 -1        54 9.39256E-03-9.51469E-04-3.55326E-14
 -1        55 9.65964E-03-9.82743E-04-3.76333E-14
 -1        56 9.91422E-03-9.84753E-04-3.97737E-14
 -1        57 1.01646E-02-9.51189E-04-4.19629E-14
 -1        58 1.04203E-02-8.82622E-04-4.41861E-14
 -1        59 1.06892E-02-7.86273E-04-4.64471E-14
 -1        60 1.09747E-02-6.73260E-04-4.87322E-14
 -1        61 1.12760E-02-5.54944E-04-5.10317E-14
 -1        62 1.15887E-02-4.40152E-04-5.33475E-14
 -1        63 1.19076E-02-3.34057E-04-5.57037E-14
 -1        64 1.22275E-02-2.38445E-04-5.80862E-14
 -1        65 1.25447E-02-1.52673E-04-6.05074E-14
 -1        66 1.28568E-02-7.46859E-05-6.29593E-14
 -1        67 1.31625E-02-1.82139E-06-6.54307E-14
 -1        68 1.34616E-02 6.86808E-05-6.79075E-14
 -1        69 1.37548E-02 1.39366E-04-7.03935E-14
 -1        70 1.40433E-02 2.12305E-04-7.28913E-14
 -1        71 1.43292E-02 2.88593E-04-7.54225E-14
 -1        72 4.13755E-04 2.61449E-04 4.39237E-17
 -1        73 7.03022E-04 4.03709E-04 1.71541E-17
 -1        74 9.73684E-04 5.00138E-04-7.99464E-17
 -1        75 1.23832E-03 5.68767E-04-2.50386E-16
 -1        76 1.50181E-03 6.17963E-04-4.95491E-16
 -1        77 1.76635E-03 6.53029E-04-8.13968E-16
 -1        78 2.03292E-03 6.77631E-04-1.20353E-15
 -1        79 2.30191E-03 6.94431E-04-1.66194E-15
 -1        80 2.57339E-03 7.05410E-04-2.19385E-15
 -1        81 2.84722E-03 7.12052E-04-2.80162E-15
 -1        82 3.12323E-03 7.15459E-04-3.48414E-15
 -1        83 3.40117E-03 7.16436E-04-4.23772E-15
 -1        84 3.68085E-03 7.15554E-04-5.06428E-15
 -1        85 3.96209E-03 7.13201E-04-5.96932E-15
 -1        86 4.24482E-03 7.09625E-04-6.95343E-15
 -1        87 4.52904E-03 7.04977E-04-8.01198E-15
 -1        88 4.81489E-03 6.99349E-04-9.13959E-15
 -1        89 5.10265E-03 6.92810E-04-1.03257E-14
 -1        90 5.39278E-03 6.85461E-04-1.15742E-14
 -1        91 5.68596E-03 6.77489E-04-1.28964E-14
 -1        92 5.98315E-03 6.69254E-04-1.42935E-14
 -1        93 6.28563E-03 6.61404E-04-1.57632E-14
 -1        94 6.59503E-03 6.55036E-04-1.73128E-14
 -1        95 6.91341E-03 6.51927E-04-1.89325E-14
 -1        96 7.24314E-03 6.54849E-04-2.06189E-14
 -1        97 7.58672E-03 6.67935E-04-2.23770E-14
 -1        98 7.94624E-03 6.97042E-04-2.41970E-14
 -1        99 8.32228E-03 7.49795E-04-2.60791E-14
 -1       100 8.71209E-03 8.34740E-04-2.80115E-14
 -1       101 9.10734E-03 9.58564E-04-2.99908E-14
 -1       102 9.49278E-03 1.12046E-03-3.20033E-14
 -1       103 9.84877E-03 1.30459E-03-3.40607E-14
 -1       104 1.01605E-02 1.47613E-03-3.61653E-14
 -1       105 1.04309E-02 1.59016E-03-3.83169E-14
 -1       106 1.06857E-02 1.61506E-03-4.05146E-14
 -1       107 1.09603E-02 1.55368E-03-4.27627E-14
 -1       108 1.12779E-02 1.44117E-03-4.50526E-14
 -1       109 1.16380E-02 1.32204E-03-4.73816E-14
 -1       110 1.20242E-02 1.22838E-03-4.97437E-14
 -1       111 1.24168E-02 1.17327E-03-5.21379E-14
 -1       112 1.28014E-02 1.15585E-03-5.45447E-14
 -1       113 1.31706E-02 1.16864E-03-5.69489E-14
 -1       114 1.35219E-02 1.20276E-03-5.93489E-14
 -1       115 1.38562E-02 1.25031E-03-6.17335E-14
 -1       116 1.41755E-02 1.30507E-03-6.40971E-14
 -1       117 1.44824E-02 1.36229E-03-6.64587E-14
 -1       118 1.47794E-02 1.41843E-03-6.88208E-14
 -1       119 1.50693E-02 1.47091E-03-7.11856E-14
 -1       120 1.53552E-02 1.51845E-03-7.35559E-14
 -1       121 1.55838E-02 1.47552E-03-7.59029E-14
 -1       122 1.55449E-02 1.39159E-03-7.60005E-14
 -1       123 1.55102E-02 1.31150E-03-7.60747E-14
 -1       124 1.54774E-02 1.23741E-03-7.61540E-14
 -1       125 1.54434E-02 1.17002E-03-7.62551E-14
 -1       126 1.54057E-02 1.10972E-03-7.63932E-14
 -1       127 1.53605E-02 1.05287E-03-7.65533E-14
 -1       128 1.53066E-02 9.98360E-04-7.67168E-14
 -1       129 1.52437E-02 9.43813E-04-7.68670E-14
 -1       130 1.51724E-02 8.86996E-04-7.70222E-14
 -1       131 1.50940E-02 8.26117E-04-7.71571E-14
 -1       132 1.50123E-02 7.61171E-04-7.73171E-14
 -1       133 1.49267E-02 6.89460E-04-7.74704E-14
 -1       134 1.48410E-02 6.12319E-04-7.75969E-14
 -1       135 1.47574E-02 5.30716E-04-7.76954E-14
 -1       136 1.46770E-02 4.46685E-04-7.77767E-14
 -1       137 1.25160E-02 6.02702E-04-4.51948E-14
 -1       138 1.23914E-02 7.66508E-04-4.47902E-14
 -1       139 1.21520E-02 9.30735E-04-4.41226E-14
 -1       140 1.18426E-02 1.06390E-03-4.33242E-14
 -1       141 1.14218E-02 1.17719E-03-4.22962E-14
 -1       142 1.09970E-02 1.23934E-03-4.12991E-14
 -1       143 1.05000E-02 1.26019E-03-4.01688E-14
 -1       144 9.99705E-03 1.22798E-03-3.90632E-14
 -1       145 9.52844E-03 1.14976E-03-3.80499E-14
 -1       146 9.09373E-03 1.02989E-03-3.71241E-14
 -1       147 8.73776E-03 8.88923E-04-3.63880E-14
 -1       148 8.44640E-03 7.25062E-04-3.58013E-14
 -1       149 8.23049E-03 5.40705E-04-3.53823E-14
 -1       150 8.12727E-03 3.72543E-04-3.52031E-14
 -1       151 8.11055E-03 2.06167E-04-3.52157E-14
 -1       152 8.18579E-03 4.08641E-05-3.54359E-14
 -1       153 8.36568E-03-1.19417E-04-3.58928E-14
 -1       154 8.95321E-03-3.60284E-04-3.73091E-14
 -1       155 9.33535E-03-4.36455E-04-3.82148E-14
 -1       156 9.76978E-03-4.80692E-04-3.92394E-14
 -1       157 1.01952E-02-4.87518E-04-4.02307E-14
 -1       158 1.06151E-02-4.62375E-04-4.12045E-14
 -1       159 1.10364E-02-4.04865E-04-4.21741E-14
 -1       160 1.14475E-02-3.12622E-04-4.31136E-14
 -1       161 1.17946E-02-2.00458E-04-4.38927E-14
 -1       162 1.21065E-02-5.80773E-05-4.45815E-14
 -1       163 1.23377E-02 9.71492E-05-4.50731E-14
 -1       164 1.24807E-02 2.52657E-04-4.53360E-14
 -1       165 2.40357E-04-1.25551E-04-2.05626E-17
 -1       166 2.25239E-04-9.46625E-05-3.14893E-17
 -1       167 2.19518E-04-7.28318E-05-3.71170E-17
 -1       168 2.16725E-04-5.51517E-05-3.96682E-17
 -1       169 2.15247E-04-4.00053E-05-4.03865E-17
 -1       170 2.14425E-04-2.59427E-05-4.04407E-17
 -1       171 2.14014E-04-1.26584E-05-3.98986E-17
 -1       172 2.13895E-04 2.72553E-07-3.92380E-17
 -1       173 2.14033E-04 1.32159E-05-3.80758E-17
 -1       174 2.14466E-04 2.65401E-05-3.63682E-17
 -1       175 2.15298E-04 4.04314E-05-3.38203E-17
 -1       176 2.16829E-04 5.59600E-05-3.00392E-17
 -1       177 2.19665E-04 7.38662E-05-2.44013E-17
 -1       178 2.25416E-04 9.60648E-05-1.55143E-17
 -1       179 2.39287E-04 1.27632E-04-1.08759E-18
 -1       180 2.97643E-04 1.85525E-04 1.47587E-17
 -1       181 4.68518E-04-2.63593E-04-5.45083E-17
 -1       182 7.66574E-04-3.82190E-04-1.88783E-16
 -1       183 1.05032E-03-4.65039E-04-4.04248E-16
 -1       184 1.32760E-03-5.23734E-04-7.00496E-16
 -1       185 1.60208E-03-5.65282E-04-1.07605E-15
 -1       186 1.87583E-03-5.94353E-04-1.53067E-15
 -1       187 2.14999E-03-6.14226E-04-2.06280E-15
 -1       188 2.42518E-03-6.27295E-04-2.67051E-15
 -1       189 2.70166E-03-6.35333E-04-3.35206E-15
 -1       190 2.97953E-03-6.39655E-04-4.10418E-15
 -1       191 3.25878E-03-6.41226E-04-4.92247E-15
 -1       192 3.53936E-03-6.40736E-04-5.80580E-15
 -1       193 3.82120E-03-6.38667E-04-6.75651E-15
 -1       194 4.10428E-03-6.35342E-04-7.76907E-15
 -1       195 4.38861E-03-6.30974E-04-8.84461E-15
 -1       196 4.67425E-03-6.25708E-04-9.98171E-15
 -1       197 4.96137E-03-6.19670E-04-1.11797E-14
 -1       198 5.25017E-03-6.13010E-04-1.24384E-14
 -1       199 5.54099E-03-6.05966E-04-1.37602E-14
 -1       200 5.83421E-03-5.98921E-04-1.51496E-14
 -1       201 6.13028E-03-5.92479E-04-1.66111E-14
 -1       202 6.42965E-03-5.87544E-04-1.81401E-14
 -1       203 6.73275E-03-5.85396E-04-1.97405E-14
 -1       204 7.03983E-03-5.87726E-04-2.14079E-14
 -1       205 7.35084E-03-5.96610E-04-2.31311E-14
 -1       206 7.66528E-03-6.14335E-04-2.49075E-14
 -1       207 7.98195E-03-6.42981E-04-2.67329E-14
 -1       208 8.29885E-03-6.83695E-04-2.86098E-14
 -1       209 8.61322E-03-7.35621E-04-3.05304E-14
 -1       210 8.92183E-03-7.94703E-04-3.24994E-14
 -1       211 9.22179E-03-8.52907E-04-3.45167E-14
 -1       212 9.51164E-03-8.98686E-04-3.65840E-14
 -1       213 9.79243E-03-9.19338E-04-3.86994E-14
 -1       214 1.00680E-02-9.04931E-04-4.08608E-14
 -1       215 1.03438E-02-8.52090E-04-4.30649E-14
 -1       216 1.06254E-02-7.65404E-04-4.53028E-14
 -1       217 1.09161E-02-6.55522E-04-4.75722E-14
 -1       218 1.12164E-02-5.35168E-04-4.98651E-14
 -1       219 1.15245E-02-4.15362E-04-5.21705E-14
 -1       220 1.18372E-02-3.03354E-04-5.45070E-14
 -1       221 1.21514E-02-2.02404E-04-5.68739E-14
 -1       222 1.24641E-02-1.12664E-04-5.92746E-14
 -1       223 1.27736E-02-3.23553E-05-6.17022E-14
 -1       224 1.30786E-02 4.12303E-05-6.41530E-14
 -1       225 1.33787E-02 1.11061E-04-6.66216E-14
 -1       226 1.36742E-02 1.79978E-04-6.91015E-14
 -1       227 1.39657E-02 2.50460E-04-7.15936E-14
 -1       228 1.42540E-02 3.24313E-04-7.41053E-14
 -1       229 6.04417E-04 3.31079E-04-2.59124E-17
 -1       230 8.93414E-04 4.32685E-04-1.32869E-16
 -1       231 1.17219E-03 5.04381E-04-3.10282E-16
 -1       232 1.44641E-03 5.55365E-04-5.60187E-16
 -1       233 1.71908E-03 5.91442E-04-8.82283E-16
 -1       234 1.99182E-03 6.16571E-04-1.27574E-15
 -1       235 2.26549E-03 6.33597E-04-1.73929E-15
 -1       236 2.54049E-03 6.44617E-04-2.27438E-15
 -1       237 2.81698E-03 6.51193E-04-2.88350E-15
 -1       238 3.09499E-03 6.54474E-04-3.56623E-15
 -1       239 3.37444E-03 6.55295E-04-4.32191E-15
 -1       240 3.65526E-03 6.54242E-04-5.14945E-15
 -1       241 3.93739E-03 6.51709E-04-6.05246E-15
 -1       242 4.22081E-03 6.47941E-04-7.03071E-15
 -1       243 4.50556E-03 6.43074E-04-8.08304E-15
 -1       244 4.79179E-03 6.37179E-04-9.20338E-15
 -1       245 5.07973E-03 6.30295E-04-1.03874E-14
 -1       246 5.36978E-03 6.22479E-04-1.16347E-14
 -1       247 5.66249E-03 6.13862E-04-1.29500E-14
 -1       248 5.95861E-03 6.04729E-04-1.43414E-14
 -1       249 6.25909E-03 5.95631E-04-1.58058E-14
 -1       250 6.56517E-03 5.87545E-04-1.73469E-14
 -1       251 6.87828E-03 5.82103E-04-1.89566E-14
 -1       252 7.20007E-03 5.81915E-04-2.06331E-14
 -1       253 7.53221E-03 5.90975E-04-2.23804E-14
 -1       254 7.87606E-03 6.15089E-04-2.41921E-14
 -1       255 8.23210E-03 6.62086E-04-2.60609E-14
 -1       256 8.59898E-03 7.41225E-04-2.79830E-14
 -1       257 8.97239E-03 8.60725E-04-2.99518E-14
 -1       258 9.34430E-03 1.02217E-03-3.19588E-14
 -1       259 9.70387E-03 1.21202E-03-3.40088E-14
 -1       260 1.00418E-02 1.39541E-03-3.61050E-14
 -1       261 1.03575E-02 1.52299E-03-3.82507E-14
 -1       262 1.06632E-02 1.55644E-03-4.04463E-14
 -1       263 1.09779E-02 1.49518E-03-4.26849E-14
 -1       264 1.13143E-02 1.37670E-03-4.49632E-14
 -1       265 1.16721E-02 1.25021E-03-4.72772E-14
 -1       266 1.20421E-02 1.15101E-03-4.96263E-14
 -1       267 1.24133E-02 1.09311E-03-5.20057E-14
 -1       268 1.27776E-02 1.07522E-03-5.44006E-14
 -1       269 1.31304E-02 1.08905E-03-5.68011E-14
 -1       270 1.34701E-02 1.12501E-03-5.92010E-14
 -1       271 1.37971E-02 1.17475E-03-6.15871E-14
 -1       272 1.41127E-02 1.23175E-03-6.39531E-14
 -1       273 1.44185E-02 1.29110E-03-6.63147E-14
 -1       274 1.47165E-02 1.34916E-03-6.86785E-14
 -1       275 1.50085E-02 1.40326E-03-7.10428E-14
 -1       276 1.52966E-02 1.45184E-03-7.34095E-14
 -1       277 1.53165E-02 1.39677E-03-7.38988E-14
 -1       278 1.52808E-02 1.31621E-03-7.39926E-14
 -1       279 1.52489E-02 1.23972E-03-7.40809E-14
 -1       280 1.52176E-02 1.16793E-03-7.41757E-14
 -1       281 1.51838E-02 1.10183E-03-7.42868E-14
 -1       282 1.51434E-02 1.03829E-03-7.44192E-14
 -1       283 1.50945E-02 9.77153E-04-7.45645E-14
 -1       284 1.50360E-02 9.16769E-04-7.47059E-14
 -1       285 1.49682E-02 8.55488E-04-7.48388E-14
 -1       286 1.48922E-02 7.91871E-04-7.49705E-14
 -1       287 1.48114E-02 7.26019E-04-7.51038E-14
 -1       288 1.47254E-02 6.55076E-04-7.52358E-14
 -1       289 1.46382E-02 5.80039E-04-7.53539E-14
 -1       290 1.45522E-02 5.01285E-04-7.54556E-14
 -1       291 1.44021E-02 4.13348E-04-7.47890E-14
 -1       292 1.25707E-02 4.82487E-04-4.63315E-14
 -1       293 1.24508E-02 5.85902E-04-4.59204E-14
 -1       294 1.21981E-02 7.03300E-04-4.54465E-14
 -1       295 1.18683E-02 8.84236E-04-4.44096E-14
 -1       296 1.14712E-02 1.06705E-03-4.33427E-14
 -1       297 1.10831E-02 1.22884E-03-4.20771E-14
 -1       298 1.06887E-02 1.32893E-03-4.08324E-14
 -1       299 1.02898E-02 1.32502E-03-3.95035E-14
 -1       300 9.88900E-03 1.22842E-03-3.82643E-14
 -1       301 9.49462E-03 1.05469E-03-3.70770E-14
 -1       302 9.07613E-03 8.57339E-04-3.61788E-14
 -1       303 8.70317E-03 6.64698E-04-3.54118E-14
 -1       304 8.38361E-03 4.82519E-04-3.47270E-14
 -1       305 8.16507E-03 3.67255E-04-3.44925E-14
 -1       306 8.08114E-03 2.71786E-04-3.44021E-14
 -1       307 8.12286E-03 1.82909E-04-3.44875E-14
 -1       308 8.30223E-03 8.44032E-05-3.47842E-14
 -1       309 8.59447E-03-5.69673E-05-3.54929E-14
 -1       310 8.92812E-03-2.20183E-04-3.64047E-14
 -1       311 9.28672E-03-3.68637E-04-3.73672E-14
 -1       312 9.66974E-03-4.94698E-04-3.84526E-14
 -1       313 1.00219E-02-5.56556E-04-3.96600E-14
 -1       314 1.03634E-02-5.50501E-04-4.08104E-14
 -1       315 1.07112E-02-4.75883E-04-4.19497E-14
 -1       316 1.10687E-02-3.38328E-04-4.31319E-14
 -1       317 1.14508E-02-1.67804E-04-4.41266E-14
 -1       318 1.18190E-02 9.16500E-06-4.50000E-14
 -1       319 1.21575E-02 1.63739E-04-4.56415E-14
 -1       320 1.24026E-02 2.89957E-04-4.60813E-14
 -1       321 1.25451E-02 3.88982E-04-4.62759E-14
 -1       322 4.55256E-04-1.64814E-04-1.25286E-16
 -1       323 4.74177E-04-2.13042E-04-1.08034E-16
 -1       324 4.40491E-04-9.40783E-05-1.38819E-16
 -1       325 4.37559E-04-6.49606E-05-1.39903E-16
 -1       326 4.35959E-04-3.79368E-05-1.39398E-16
 -1       327 4.35260E-04-1.20283E-05-1.37450E-16
 -1       328 4.35291E-04 1.35462E-05-1.34644E-16
 -1       329 4.36057E-04 3.95126E-05-1.30301E-16
 -1       330 4.37703E-04 6.61876E-05-1.24121E-16
 -1       331 4.40727E-04 9.54780E-05-1.15440E-16
 -1       332 4.46074E-04 1.28399E-04-1.03331E-16
 -1       333 4.55862E-04 1.67379E-04-8.57773E-17
 -1       334 4.75807E-04 2.17111E-04-6.02681E-17
 -1       335 5.31899E-04 2.70028E-04-4.73627E-17
 -1       336 8.24302E-04 3.73557E-04-1.60099E-16
 -1       337 8.63100E-04-3.57458E-04-3.31315E-16
 -1       338 1.14938E-03-4.26156E-04-5.95454E-16
 -1       339 1.43209E-03-4.75219E-04-9.37083E-16
 -1       340 1.71274E-03-5.09775E-04-1.35497E-15
 -1       341 1.99244E-03-5.33600E-04-1.85016E-15
 -1       342 2.27197E-03-5.49489E-04-2.42004E-15
 -1       343 2.55182E-03-5.59521E-04-3.06288E-15
 -1       344 2.83225E-03-5.65243E-04-3.77717E-15
 -1       345 3.11341E-03-5.67793E-04-4.55942E-15
 -1       346 3.39538E-03-5.67994E-04-5.40746E-15
 -1       347 3.67817E-03-5.66420E-04-6.32143E-15
 -1       348 3.96181E-03-5.63461E-04-7.30102E-15
 -1       349 4.24632E-03-5.59367E-04-8.34352E-15
 -1       350 4.53176E-03-5.54297E-04-9.44865E-15
 -1       351 4.81824E-03-5.48363E-04-1.06144E-14
 -1       352 5.10589E-03-5.41675E-04-1.18396E-14
 -1       353 5.39493E-03-5.34394E-04-1.31284E-14
 -1       354 5.68562E-03-5.26795E-04-1.44814E-14
 -1       355 5.97827E-03-5.19331E-04-1.59058E-14
 -1       356 6.27327E-03-5.12716E-04-1.73987E-14
 -1       357 6.57099E-03-5.08008E-04-1.89607E-14
 -1       358 6.87183E-03-5.06674E-04-2.05922E-14
 -1       359 7.17610E-03-5.10627E-04-2.22855E-14
 -1       360 7.48398E-03-5.22154E-04-2.40316E-14
 -1       361 7.79536E-03-5.43684E-04-2.58310E-14
 -1       362 8.10964E-03-5.77271E-04-2.76792E-14
 -1       363 8.42559E-03-6.23698E-04-2.95760E-14
 -1       364 8.74109E-03-6.81209E-04-3.15164E-14
 -1       365 9.05336E-03-7.44133E-04-3.35047E-14
 -1       366 9.35962E-03-8.02177E-04-3.55415E-14
 -1       367 9.65842E-03-8.41515E-04-3.76302E-14
 -1       368 9.95100E-03-8.48410E-04-3.97674E-14
 -1       369 1.02413E-02-8.14463E-04-4.19476E-14
 -1       370 1.05344E-02-7.40450E-04-4.41634E-14
 -1       371 1.08340E-02-6.35952E-04-4.64137E-14
 -1       372 1.11406E-02-5.15053E-04-4.86974E-14
 -1       373 1.14526E-02-3.91155E-04-5.09949E-14
 -1       374 1.17669E-02-2.73722E-04-5.33157E-14
 -1       375 1.20809E-02-1.67551E-04-5.56655E-14
 -1       376 1.23925E-02-7.36482E-05-5.80478E-14
 -1       377 1.27005E-02 9.40587E-06-6.04589E-14
 -1       378 1.30044E-02 8.42556E-05-6.28913E-14
 -1       379 1.33042E-02 1.53957E-04-6.53431E-14
 -1       380 1.35999E-02 2.21517E-04-6.78094E-14
 -1       381 1.38921E-02 2.89648E-04-7.02910E-14
 -1       382 1.41480E-02 3.49739E-04-7.25325E-14
 -1       383 1.10970E-03 4.47832E-04-3.41300E-16
 -1       384 1.39035E-03 5.00798E-04-5.93082E-16
 -1       385 1.66857E-03 5.38247E-04-9.15805E-16
 -1       386 1.94586E-03 5.64279E-04-1.31019E-15
 -1       387 2.22318E-03 5.81876E-04-1.77487E-15
 -1       388 2.50108E-03 5.93238E-04-2.31018E-15
 -1       389 2.77985E-03 6.00000E-04-2.91840E-15
 -1       390 3.05962E-03 6.03368E-04-3.59926E-15
 -1       391 3.34043E-03 6.04213E-04-4.35208E-15
 -1       392 3.62228E-03 6.03146E-04-5.17678E-15
 -1       393 3.90517E-03 6.00574E-04-6.07638E-15
 -1       394 4.18911E-03 5.96748E-04-7.04829E-15
 -1       395 4.47416E-03 5.91804E-04-8.09362E-15
 -1       396 4.76044E-03 5.85803E-04-9.20769E-15
 -1       397 5.04816E-03 5.78767E-04-1.03863E-14
 -1       398 5.33760E-03 5.70728E-04-1.16281E-14
 -1       399 5.62920E-03 5.61778E-04-1.29381E-14
 -1       400 5.92350E-03 5.52149E-04-1.43210E-14
 -1       401 6.22119E-03 5.42316E-04-1.57782E-14
 -1       402 6.52316E-03 5.33151E-04-1.73100E-14
 -1       403 6.83042E-03 5.26141E-04-1.89092E-14
 -1       404 7.14418E-03 5.23695E-04-2.05765E-14
 -1       405 7.46573E-03 5.29544E-04-2.23123E-14
 -1       406 7.79640E-03 5.49187E-04-2.41133E-14
 -1       407 8.13734E-03 5.90206E-04-2.59728E-14
 -1       408 8.48916E-03 6.61978E-04-2.78844E-14
 -1       409 8.85116E-03 7.73817E-04-2.98448E-14
 -1       410 9.21995E-03 9.30135E-04-3.18436E-14
 -1       411 9.58820E-03 1.12180E-03-3.38855E-14
 -1       412 9.94590E-03 1.31680E-03-3.59727E-14
 -1       413 1.02874E-02 1.46181E-03-3.81103E-14
 -1       414 1.06191E-02 1.50827E-03-4.02993E-14
 -1       415 1.09566E-02 1.44921E-03-4.25316E-14
 -1       416 1.13097E-02 1.32531E-03-4.47997E-14
 -1       417 1.16752E-02 1.19224E-03-4.71055E-14
 -1       418 1.20434E-02 1.08856E-03-4.94419E-14
 -1       419 1.24058E-02 1.02843E-03-5.18117E-14
 -1       420 1.27581E-02 1.00983E-03-5.41993E-14
 -1       421 1.30990E-02 1.02384E-03-5.65964E-14
 -1       422 1.34288E-02 1.06053E-03-5.89915E-14
 -1       423 1.37483E-02 1.11131E-03-6.13756E-14
 -1       424 1.40590E-02 1.16957E-03-6.37434E-14
 -1       425 1.43621E-02 1.23032E-03-6.61077E-14
 -1       426 1.46590E-02 1.28986E-03-6.84727E-14
 -1       427 1.49510E-02 1.34545E-03-7.08355E-14
 -1       428 1.51343E-02 1.37238E-03-7.23677E-14
 -1       429 1.49892E-02 1.16088E-03-7.20885E-14
 -1       430 1.50184E-02 1.23566E-03-7.19936E-14
 -1       431 1.50747E-02 1.30295E-03-7.21827E-14
 -1       432 1.49591E-02 1.09138E-03-7.21900E-14
 -1       433 1.49234E-02 1.02416E-03-7.22991E-14
 -1       434 1.48798E-02 9.59371E-04-7.24206E-14
 -1       435 1.48263E-02 8.95695E-04-7.25498E-14
 -1       436 1.47627E-02 8.31726E-04-7.26809E-14
 -1       437 1.46896E-02 7.66196E-04-7.28046E-14
 -1       438 1.46104E-02 6.99302E-04-7.29204E-14
 -1       439 1.45246E-02 6.28133E-04-7.30328E-14
 -1       440 1.44363E-02 5.53576E-04-7.31368E-14
 -1       441 1.43481E-02 4.75718E-04-7.32366E-14
 -1       442 1.23537E-02 5.88511E-04-4.66786E-14
 -1       443 1.25956E-02 4.51925E-04-4.76100E-14
 -1       444 1.25363E-02 5.10532E-04-4.71971E-14
 -1       445 1.19738E-02 7.55497E-04-4.57227E-14
 -1       446 1.16436E-02 9.25724E-04-4.46466E-14
 -1       447 4.45686E-04-1.26559E-04-1.34489E-16
 -1       448 1.08717E-02 1.30310E-03-4.17530E-14
 -1       449 1.04753E-02 1.38187E-03-4.00344E-14
 -1       450 1.01849E-02 1.33135E-03-3.87885E-14
 -1       451 9.78875E-03 1.15885E-03-3.73287E-14
 -1       452 9.34269E-03 9.00341E-04-3.59299E-14
 -1       453 8.99387E-03 7.09985E-04-3.51708E-14
 -1       454 8.59333E-03 5.00963E-04-3.42864E-14
 -1       455 8.25059E-03 3.45603E-04-3.35888E-14
 -1       456 8.09557E-03 2.81899E-04-3.35298E-14
 -1       457 8.06771E-03 2.30776E-04-3.35331E-14
 -1       458 8.17915E-03 1.72754E-04-3.36933E-14
 -1       459 8.46510E-03 6.47564E-05-3.41891E-14
 -1       460 8.82193E-03-1.01234E-04-3.53759E-14
 -1       461 9.17171E-03-2.66179E-04-3.62903E-14
 -1       462 9.48562E-03-4.16536E-04-3.73560E-14
 -1       463 9.89190E-03-5.63779E-04-3.89651E-14
 -1       464 1.01845E-02-5.94732E-04-4.02419E-14
 -1       465 1.04924E-02-5.45208E-04-4.15695E-14
 -1       466 1.07892E-02-4.31282E-04-4.27465E-14
 -1       467 1.11904E-02-2.15581E-04-4.42862E-14
 -1       468 1.15593E-02-1.08861E-05-4.54422E-14
 -1       469 1.19579E-02 1.72174E-04-4.62238E-14
 -1       470 1.22708E-02 3.00952E-04-4.67753E-14
 -1       471 1.25167E-02 4.07075E-04-4.74119E-14
 -1       472 1.11966E-02 1.16249E-03-4.30213E-14
 -1       473 1.21873E-02 6.54764E-04-4.69552E-14
 -1       474 9.31105E-04 3.46082E-04-2.99016E-16
 -1       475 6.65984E-04-7.51779E-05-2.96919E-16
 -1       476 6.69901E-04-1.15954E-04-2.96414E-16
 -1       477 6.63350E-04 1.10396E-06-2.89953E-16
 -1       478 6.64061E-04 3.87888E-05-2.82750E-16
 -1       479 6.66174E-04 7.68639E-05-2.72812E-16
 -1       480 6.70221E-04 1.17795E-04-2.59124E-16
 -1       481 6.77168E-04 1.62426E-04-2.40568E-16
 -1       482 6.89006E-04 2.12795E-04-2.15370E-16
 -1       483 1.21694E-03 4.06503E-04-5.30642E-16
 -1       484 9.76190E-04-3.28680E-04-4.87969E-16
 -1       485 1.14045E-02 1.06091E-03-4.44507E-14
 -1       486 1.24836E-02 5.40636E-04-4.79881E-14
 -1       487 1.26206E-03-3.83476E-04-7.97044E-16
 -1       488 1.54705E-03-4.23086E-04-1.18066E-15
 -1       489 1.83115E-03-4.50925E-04-1.63954E-15
 -1       490 2.11467E-03-4.69868E-04-2.17284E-15
 -1       491 2.39793E-03-4.82173E-04-2.77900E-15
 -1       492 2.68120E-03-4.89568E-04-3.45607E-15
 -1       493 2.96464E-03-4.93349E-04-4.20077E-15
 -1       494 3.24838E-03-4.94468E-04-5.01374E-15
 -1       495 3.53248E-03-4.93599E-04-5.89266E-15
 -1       496 3.81698E-03-4.91208E-04-6.83713E-15
 -1       497 4.10194E-03-4.87595E-04-7.84494E-15
 -1       498 4.38740E-03-4.82948E-04-8.91745E-15
 -1       499 4.67341E-03-4.77380E-04-1.00509E-14
 -1       500 4.96007E-03-4.70978E-04-1.12437E-14
 -1       501 5.24750E-03-4.63845E-04-1.24995E-14
 -1       502 5.53587E-03-4.56158E-04-1.38182E-14
 -1       503 5.82539E-03-4.48224E-04-1.52058E-14
 -1       504 6.11635E-03-4.40554E-04-1.66633E-14
 -1       505 6.40913E-03-4.33943E-04-1.81882E-14
 -1       506 6.70419E-03-4.29551E-04-1.97818E-14
 -1       507 7.00211E-03-4.28971E-04-2.14410E-14
 -1       508 7.30358E-03-4.34260E-04-2.31593E-14
 -1       509 7.60935E-03-4.47871E-04-2.49306E-14
 -1       510 7.92006E-03-4.72415E-04-2.67523E-14
 -1       511 8.23592E-03-5.10107E-04-2.86222E-14
 -1       512 8.55620E-03-5.61733E-04-3.05389E-14
 -1       513 8.87866E-03-6.24993E-04-3.25005E-14
 -1       514 9.19954E-03-6.92571E-04-3.45064E-14
 -1       515 9.51469E-03-7.51054E-04-3.65661E-14
 -1       516 9.82211E-03-7.82872E-04-3.86766E-14
 -1       517 1.01241E-02-7.72478E-04-4.08313E-14
 -1       518 1.04266E-02-7.14262E-04-4.30277E-14
 -1       519 1.07350E-02-6.15804E-04-4.52584E-14
 -1       520 1.10510E-02-4.93546E-04-4.75256E-14
 -1       521 1.13720E-02-3.64707E-04-4.98165E-14
 -1       522 1.16936E-02-2.41682E-04-5.21246E-14
 -1       523 1.20125E-02-1.30737E-04-5.44585E-14
 -1       524 1.23264E-02-3.33454E-05-5.68248E-14
 -1       525 1.26349E-02 5.18820E-05-5.92181E-14
 -1       526 1.29382E-02 1.27681E-04-6.16345E-14
 -1       527 1.32370E-02 1.97193E-04-6.40704E-14
 -1       528 1.35319E-02 2.63489E-04-6.65265E-14
 -1       529 1.38236E-02 3.29364E-04-6.89878E-14
 -1       530 1.78369E-03 4.80735E-04-1.20277E-15
 -1       531 2.06564E-03 5.01782E-04-1.64426E-15
 -1       532 2.34735E-03 5.15658E-04-2.15576E-15
 -1       533 2.62919E-03 5.24234E-04-2.73798E-15
 -1       534 2.91137E-03 5.28907E-04-3.39225E-15
 -1       535 3.19404E-03 5.30699E-04-4.11807E-15
 -1       536 3.47725E-03 5.30338E-04-4.91404E-15
 -1       537 3.76107E-03 5.28320E-04-5.78234E-15
 -1       538 4.04552E-03 5.24961E-04-6.72398E-15
 -1       539 4.33066E-03 5.20441E-04-7.73686E-15
 -1       540 4.61655E-03 5.14841E-04-8.81946E-15
 -1       541 4.90330E-03 5.08186E-04-9.96874E-15
 -1       542 5.19107E-03 5.00483E-04-1.11819E-14
 -1       543 5.48005E-03 4.91768E-04-1.24598E-14
 -1       544 5.77050E-03 4.82170E-04-1.38090E-14
 -1       545 6.06273E-03 4.71992E-04-1.52302E-14
 -1       546 6.35716E-03 4.61830E-04-1.67224E-14
 -1       547 6.65425E-03 4.52738E-04-1.82860E-14
 -1       548 6.95462E-03 4.46458E-04-1.99169E-14
 -1       549 7.25911E-03 4.45723E-04-2.16144E-14
 -1       550 7.56891E-03 4.54648E-04-2.33812E-14
 -1       551 7.88589E-03 4.79150E-04-2.52078E-14
 -1       552 8.21290E-03 5.27276E-04-2.70877E-14
 -1       553 8.55382E-03 6.09064E-04-2.90199E-14
 -1       554 8.91248E-03 7.34887E-04-3.09965E-14
 -1       555 9.28913E-03 9.10026E-04-3.30103E-14
 -1       556 9.67557E-03 1.12192E-03-3.50687E-14
 -1       557 1.00564E-02 1.32362E-03-3.71756E-14
 -1       558 1.04230E-02 1.43890E-03-3.93354E-14
 -1       559 1.07863E-02 1.42005E-03-4.15461E-14
 -1       560 1.11626E-02 1.29797E-03-4.37937E-14
 -1       561 1.15495E-02 1.14610E-03-4.60760E-14
 -1       562 1.19287E-02 1.02283E-03-4.83920E-14
 -1       563 1.22913E-02 9.47584E-04-5.07389E-14
 -1       564 1.26353E-02 9.18290E-04-5.31107E-14
 -1       565 1.29640E-02 9.24931E-04-5.54954E-14
 -1       566 1.32813E-02 9.56869E-04-5.78832E-14
 -1       567 1.35904E-02 1.00513E-03-6.02691E-14
 -1       568 1.38934E-02 1.06275E-03-6.26419E-14
 -1       569 1.41915E-02 1.12449E-03-6.50074E-14
 -1       570 1.44856E-02 1.18640E-03-6.73708E-14
 -1       571 1.47764E-02 1.24545E-03-6.97412E-14
 -1       572 1.47015E-02 1.00872E-03-7.01902E-14
 -1       573 1.46636E-02 9.42166E-04-7.02956E-14
 -1       574 1.47581E-02 1.15012E-03-6.99953E-14
 -1       575 1.47317E-02 1.07752E-03-7.00928E-14
 -1       576 1.46158E-02 8.77123E-04-7.04093E-14
 -1       577 1.45568E-02 8.12145E-04-7.05287E-14
 -1       578 1.44872E-02 7.45898E-04-7.06460E-14
 -1       579 1.44099E-02 6.78529E-04-7.07528E-14
 -1       580 1.43245E-02 6.07089E-04-7.08499E-14
 -1       581 1.42351E-02 5.32452E-04-7.09428E-14
 -1       582 1.41448E-02 4.54685E-04-7.10319E-14
 -1       583 1.26280E-02 4.92362E-04-4.88101E-14
 -1       584 1.50100E-03 4.50049E-04-8.31586E-16
 -1       585 7.12620E-04-2.51950E-04-2.77095E-16
 -1       586 1.24052E-02 3.86642E-04-4.81220E-14
 -1       587 1.18116E-02 8.38569E-04-4.60140E-14
 -1       588 1.25926E-02 4.51353E-04-4.88071E-14
 -1       589 1.03162E-02-5.96949E-04-4.10272E-14
 -1       590 8.96955E-03-1.63293E-04-3.50449E-14
 -1       591 1.00019E-02 1.26202E-03-3.75965E-14
 -1       592 6.63949E-04-3.65449E-05-2.94666E-16
 -1       593 1.07129E-02 1.37858E-03-4.11798E-14
 -1       594 9.60496E-03 1.03074E-03-3.60285E-14
 -1       595 1.03236E-02 1.38703E-03-3.90927E-14
 -1       596 8.41042E-03 3.80970E-04-3.30032E-14
 -1       597 9.15610E-03 7.53969E-04-3.46436E-14
 -1       598 1.00467E-02-6.07357E-04-3.96041E-14
 -1       599 8.78686E-03 5.51916E-04-3.37702E-14
 -1       600 8.12664E-03 2.78813E-04-3.26410E-14
 -1       601 8.03542E-03 2.37604E-04-3.24500E-14
 -1       602 8.06780E-03 2.02949E-04-3.25426E-14
 -1       603 8.24709E-03 1.35511E-04-3.27580E-14
 -1       604 8.62166E-03-5.55780E-06-3.38637E-14
 -1       605 9.33392E-03-3.48922E-04-3.62953E-14
 -1       606 1.13371E-02-1.01441E-04-4.55890E-14
 -1       607 9.69401E-03-5.16656E-04-3.78269E-14
 -1       608 1.06102E-02-5.01279E-04-4.25105E-14
 -1       609 1.09513E-02-3.25024E-04-4.40450E-14
 -1       610 1.17929E-02 1.40156E-04-4.69555E-14
 -1       611 1.21354E-02 2.86945E-04-4.75218E-14
 -1       612 1.10396E-02 1.25077E-03-4.27851E-14
 -1       613 7.03694E-04 2.90965E-04-1.56383E-16
 -1       614 6.76636E-04-1.60147E-04-2.91708E-16
 -1       615 6.91809E-04-2.02981E-04-2.87490E-16
 -1       616 1.20489E-02 7.41297E-04-4.72501E-14
 -1       617 8.23150E-03 3.08673E-04-3.20604E-14
 -1       618 1.40174E-02 3.73298E-04-7.06655E-14
 -1       619 9.00012E-04 7.41383E-05-4.79529E-16
 -1       620 8.97949E-04 2.51868E-05-4.93224E-16
 -1       621 9.11959E-04 1.78287E-04-4.36781E-16
 -1       622 9.24230E-04 2.36858E-04-4.04624E-16
 -1       623 1.04882E-03 3.13961E-04-4.58011E-16
 -1       624 1.26089E-02 5.32210E-04-4.95173E-14
 -1       625 9.87278E-03-6.00772E-04-3.86335E-14
 -1       626 1.38327E-03-3.36978E-04-1.00906E-15
 -1       627 1.66947E-03-3.67729E-04-1.43264E-15
 -1       628 1.95569E-03-3.89255E-04-1.92964E-15
 -1       629 2.24174E-03-4.03680E-04-2.49964E-15
 -1       630 2.52761E-03-4.12758E-04-3.13971E-15
 -1       631 2.81335E-03-4.17864E-04-3.84837E-15
 -1       632 3.09901E-03-4.20037E-04-4.62458E-15
 -1       633 3.38464E-03-4.20034E-04-5.46755E-15
 -1       634 3.67027E-03-4.18387E-04-6.37686E-15
 -1       635 3.95594E-03-4.15449E-04-7.35059E-15
 -1       636 4.24168E-03-4.11441E-04-8.38821E-15
 -1       637 4.52752E-03-4.06493E-04-9.48981E-15
 -1       638 4.81349E-03-4.00679E-04-1.06512E-14
 -1       639 5.09965E-03-3.94065E-04-1.18742E-14
 -1       640 5.38608E-03-3.86744E-04-1.31603E-14
 -1       641 5.67289E-03-3.78895E-04-1.45116E-14
 -1       642 5.96029E-03-3.70833E-04-1.59334E-14
 -1       643 6.24857E-03-3.63082E-04-1.74230E-14
 -1       644 6.53818E-03-3.56450E-04-1.89782E-14
 -1       645 6.82978E-03-3.52111E-04-2.06020E-14
 -1       646 7.12433E-03-3.51687E-04-2.22878E-14
 -1       647 7.42312E-03-3.57315E-04-2.40306E-14
 -1       648 7.72772E-03-3.71656E-04-2.58255E-14
 -1       649 8.03978E-03-3.97755E-04-2.76711E-14
 -1       650 8.36041E-03-4.38575E-04-2.95625E-14
 -1       651 8.68923E-03-4.95724E-04-3.14973E-14
 -1       652 9.02308E-03-5.67019E-04-3.34788E-14
 -1       653 9.35579E-03-6.42802E-04-3.55084E-14
 -1       654 9.68089E-03-7.03910E-04-3.75875E-14
 -1       655 9.99647E-03-7.25610E-04-3.97165E-14
 -1       656 1.03082E-02-6.90220E-04-4.18929E-14
 -1       657 1.06251E-02-5.99427E-04-4.41071E-14
 -1       658 1.09517E-02-4.73087E-04-4.63542E-14
 -1       659 1.12850E-02-3.35733E-04-4.86331E-14
 -1       660 1.16183E-02-2.05039E-04-5.09316E-14
 -1       661 1.19459E-02-8.91149E-05-5.32551E-14
 -1       662 1.22650E-02 1.08211E-05-5.56047E-14
 -1       663 1.25755E-02 9.69335E-05-5.79816E-14
 -1       664 1.28788E-02 1.72580E-04-6.03849E-14
 -1       665 1.31763E-02 2.41196E-04-6.28080E-14
 -1       666 1.34696E-02 3.05908E-04-6.52471E-14
 -1       667 1.37597E-02 3.69451E-04-6.76960E-14
 -1       668 2.19057E-03 4.36638E-04-1.99250E-15
 -1       669 1.12317E-02 1.19289E-03-4.39815E-14
 -1       670 8.77347E-03-1.13398E-04-3.36757E-14
 -1       671 1.90557E-03 4.20242E-04-1.50430E-15
 -1       672 2.76006E-03 4.53296E-04-3.17731E-15
 -1       673 3.04481E-03 4.56220E-04-3.87598E-15
 -1       674 3.32966E-03 4.56754E-04-4.64424E-15
 -1       675 3.61469E-03 4.55481E-04-5.48358E-15
 -1       676 3.89992E-03 4.52786E-04-6.39478E-15
 -1       677 4.18539E-03 4.48903E-04-7.37711E-15
 -1       678 4.47114E-03 4.43952E-04-8.42967E-15
 -1       679 4.75718E-03 4.37981E-04-9.54891E-15
 -1       680 5.04356E-03 4.30999E-04-1.07332E-14
 -1       681 5.33031E-03 4.23021E-04-1.19816E-14
 -1       682 5.61748E-03 4.14118E-04-1.32983E-14
 -1       683 5.90508E-03 4.04484E-04-1.46851E-14
 -1       684 6.19315E-03 3.94515E-04-1.61406E-14
 -1       685 6.48173E-03 3.84930E-04-1.76677E-14
 -1       686 6.77091E-03 3.76917E-04-1.92615E-14
 -1       687 7.06094E-03 3.72328E-04-2.09235E-14
 -1       688 7.35247E-03 3.73923E-04-2.26537E-14
 -1       689 7.64694E-03 3.85684E-04-2.44469E-14
 -1       690 7.94729E-03 4.13240E-04-2.62970E-14
 -1       691 8.25889E-03 4.64552E-04-2.81992E-14
 -1       692 8.59004E-03 5.50894E-04-3.01495E-14
 -1       693 8.95041E-03 6.86962E-04-3.21397E-14
 -1       694 9.78115E-03 1.14784E-03-3.62289E-14
 -1       695 1.18356E-02 9.47278E-04-4.73513E-14
 -1       696 1.22040E-02 8.59537E-04-4.96766E-14
 -1       697 1.25417E-02 8.24978E-04-5.20270E-14
 -1       698 1.28570E-02 8.28624E-04-5.43988E-14
 -1       699 1.31590E-02 8.57979E-04-5.67786E-14
 -1       700 1.34539E-02 9.04073E-04-5.91604E-14
 -1       701 1.37451E-02 9.60352E-04-6.15401E-14
 -1       702 1.40342E-02 1.02190E-03-6.39059E-14
 -1       703 1.43221E-02 1.08493E-03-6.62725E-14
 -1       704 1.45412E-02 1.11842E-03-6.81334E-14
 -1       705 1.43517E-02 7.94340E-04-6.83905E-14
 -1       706 1.39527E-02 4.11432E-04-6.93583E-14
 -1       707 1.44464E-02 9.24118E-04-6.81833E-14
 -1       708 1.42861E-02 7.28611E-04-6.85021E-14
 -1       709 1.44051E-02 8.58959E-04-6.82847E-14
 -1       710 1.62023E-03 3.96004E-04-1.08613E-15
 -1       711 1.42108E-02 6.61650E-04-6.85991E-14
 -1       712 1.41258E-02 5.90372E-04-6.86903E-14
 -1       713 1.40354E-02 5.15643E-04-6.87730E-14
 -1       714 1.23078E-02 3.60082E-04-4.89701E-14
 -1       715 8.06510E-03 1.65210E-04-3.15329E-14
 -1       716 1.01135E-02-6.29646E-04-4.00413E-14
 -1       717 1.15945E-02 3.43903E-05-4.73100E-14
 -1       718 8.37583E-03 5.44528E-05-3.23822E-14
 -1       719 7.97546E-03 2.04070E-04-3.12631E-14
 -1       720 9.09738E-03-2.68233E-04-3.49026E-14
 -1       721 2.47535E-03 4.47149E-04-2.54990E-15
 -1       722 1.09772E-03-2.94651E-04-6.58466E-16
 -1       723 1.25415E-02 4.36547E-04-4.96590E-14
 -1       724 1.33454E-03 3.61504E-04-7.37800E-16
 -1       725 1.04484E-02-5.72476E-04-4.20575E-14
 -1       726 9.04414E-04 1.24660E-04-4.61118E-16
 -1       727 1.16638E-02 9.64223E-04-4.60636E-14
 -1       728 9.04037E-04-1.22252E-04-5.09744E-16
 -1       729 8.93029E-03 6.26865E-04-3.32791E-14
 -1       730 9.48167E-03-4.55483E-04-3.65869E-14
 -1       731 8.55435E-03 4.37810E-04-3.24198E-14
 -1       732 1.23881E-02 6.04720E-04-4.85851E-14
 -1       733 1.26968E-02 4.90961E-04-5.02604E-14
 -1       734 8.01920E-03 2.37793E-04-3.13177E-14
 -1       735 1.11222E-02-2.31128E-04-4.54581E-14
 -1       736 9.35617E-03 8.83684E-04-3.44412E-14
 -1       737 1.07659E-02-4.29366E-04-4.37116E-14
 -1       738 8.93479E-04-2.51873E-04-4.54301E-16
 -1       739 1.20244E-02 2.46852E-04-4.84025E-14
 -1       740 9.11349E-04-1.75656E-04-5.06173E-16
 -1       741 8.97885E-04-2.31682E-05-5.02697E-16
 -1       742 1.27411E-02 5.25196E-04-5.09753E-14
 -1       743 1.44771E-02 9.90929E-04-6.80884E-14
 -1       744 1.45100E-02 1.05306E-03-6.81108E-14
 -1       745 8.14563E-03 1.02538E-04-3.11646E-14
 -1       746 8.34369E-03 3.56093E-04-3.14818E-14
 -1       747 8.99804E-04-7.18549E-05-5.08206E-16
 -1       748 7.89546E-03 2.02741E-04-2.99580E-14
 -1       749 1.16165E-03 2.43653E-04-6.53852E-16
 -1       750 9.01034E-04-2.12900E-04-4.82145E-16
 -1       751 1.22465E-03-2.55010E-04-8.41683E-16
 -1       752 1.79746E-03-3.09171E-04-1.69259E-15
 -1       753 2.08514E-03-3.24967E-04-2.22586E-15
 -1       754 2.37295E-03-3.35335E-04-2.82992E-15
 -1       755 2.66065E-03-3.41589E-04-3.50144E-15
 -1       756 2.94812E-03-3.44773E-04-4.24109E-15
 -1       757 3.23532E-03-3.45674E-04-5.04889E-15
 -1       758 3.52222E-03-3.44865E-04-5.92189E-15
 -1       759 3.80882E-03-3.42736E-04-6.86111E-15
 -1       760 4.09510E-03-3.39539E-04-7.86439E-15
 -1       761 4.38108E-03-3.35421E-04-8.93261E-15
 -1       762 4.66673E-03-3.30458E-04-1.00611E-14
 -1       763 4.95204E-03-3.24689E-04-1.12517E-14
 -1       764 5.23703E-03-3.18153E-04-1.25061E-14
 -1       765 5.52172E-03-3.10920E-04-1.38235E-14
 -1       766 5.80618E-03-3.03143E-04-1.52085E-14
 -1       767 6.09058E-03-2.95098E-04-1.66626E-14
 -1       768 6.37526E-03-2.87253E-04-1.81826E-14
 -1       769 6.66078E-03-2.80331E-04-1.97691E-14
 -1       770 6.94805E-03-2.75410E-04-2.14203E-14
 -1       771 7.23850E-03-2.74036E-04-2.31329E-14
 -1       772 7.53413E-03-2.78385E-04-2.49011E-14
 -1       773 7.83760E-03-2.91470E-04-2.67198E-14
 -1       774 8.15189E-03-3.17282E-04-2.85865E-14
 -1       775 8.47911E-03-3.60756E-04-3.04965E-14
 -1       776 8.82021E-03-4.25076E-04-3.24509E-14
 -1       777 9.16966E-03-5.10014E-04-3.44532E-14
 -1       778 9.51735E-03-6.00407E-04-3.65058E-14
 -1       779 9.85453E-03-6.65646E-04-3.86076E-14
 -1       780 1.01807E-02-6.68071E-04-4.07571E-14
 -1       781 1.05079E-02-5.92510E-04-4.29507E-14
 -1       782 1.08472E-02-4.59297E-04-4.51823E-14
 -1       783 1.11968E-02-3.06407E-04-4.74467E-14
 -1       784 1.15453E-02-1.63001E-04-4.97371E-14
 -1       785 1.18847E-02-4.05916E-05-5.20500E-14
 -1       786 1.22106E-02 6.11321E-05-5.43867E-14
 -1       787 1.25236E-02 1.46367E-04-5.67487E-14
 -1       788 1.28264E-02 2.20127E-04-5.91405E-14
 -1       789 1.31218E-02 2.86562E-04-6.15525E-14
 -1       790 1.34124E-02 3.48966E-04-6.39753E-14
 -1       791 1.37000E-02 4.09954E-04-6.64091E-14
 -1       792 1.22656E-02 3.26455E-04-5.01662E-14
 -1       793 1.40138E-02 6.46546E-04-6.64578E-14
 -1       794 3.18019E-03 3.82323E-04-4.36892E-15
 -1       795 2.89362E-03 3.80816E-04-3.62804E-15
 -1       796 3.75283E-03 3.80030E-04-6.06166E-15
 -1       797 4.03890E-03 3.76957E-04-7.01460E-15
 -1       798 4.32480E-03 3.72859E-04-8.03591E-15
 -1       799 4.61051E-03 3.67815E-04-9.12627E-15
 -1       800 4.89597E-03 3.61855E-04-1.02815E-14
 -1       801 5.18112E-03 3.55000E-04-1.15026E-14
 -1       802 5.46584E-03 3.47297E-04-1.27875E-14
 -1       803 5.74995E-03 3.38878E-04-1.41413E-14
 -1       804 6.03322E-03 3.30016E-04-1.55623E-14
 -1       805 6.31537E-03 3.21202E-04-1.70543E-14
 -1       806 6.59605E-03 3.13237E-04-1.86131E-14
 -1       807 6.87494E-03 3.07332E-04-2.02378E-14
 -1       808 7.15190E-03 3.05217E-04-2.19306E-14
 -1       809 7.42725E-03 3.09270E-04-2.36910E-14
 -1       810 7.70239E-03 3.22729E-04-2.55124E-14
 -1       811 7.98078E-03 3.50130E-04-2.73836E-14
 -1       812 8.26974E-03 3.99381E-04-2.93069E-14
 -1       813 1.24624E-03 3.00824E-04-6.98941E-16
 -1       814 1.24854E-02 7.26738E-04-5.09525E-14
 -1       815 1.21044E-02 8.02010E-04-4.84986E-14
 -1       816 1.30594E-02 7.63742E-04-5.56744E-14
 -1       817 1.33355E-02 8.09037E-04-5.80520E-14
 -1       818 1.36111E-02 8.63846E-04-6.04285E-14
 -1       819 1.38882E-02 9.24233E-04-6.28049E-14
 -1       820 1.41670E-02 9.87035E-04-6.51735E-14
 -1       821 1.43386E-02 1.02037E-03-6.66393E-14
 -1       822 1.13860E-03 5.90568E-05-7.43465E-16
 -1       823 1.74577E-03 3.38792E-04-1.35758E-15
 -1       824 1.40878E-02 7.13240E-04-6.63651E-14
 -1       825 1.38377E-02 5.02102E-04-6.66206E-14
 -1       826 1.19204E-02 1.67637E-04-4.93340E-14
 -1       827 7.92078E-03 1.66700E-04-3.01913E-14
 -1       828 9.22308E-03-4.01883E-04-3.50449E-14
 -1       829 1.39293E-02 5.76383E-04-6.65403E-14
 -1       830 8.86346E-03-2.26648E-04-3.34553E-14
 -1       831 1.27787E-02 7.33337E-04-5.33053E-14
 -1       832 9.63318E-03-5.65433E-04-3.72314E-14
 -1       833 1.06446E-02-5.13164E-04-4.35358E-14
 -1       834 3.46659E-03 3.81914E-04-5.18042E-15
 -1       835 1.14015E-02-1.10942E-04-4.74791E-14
 -1       836 2.03284E-03 3.57070E-04-1.82154E-15
 -1       837 1.51034E-03-2.86383E-04-1.23121E-15
 -1       838 1.27034E-02 4.79019E-04-5.13619E-14
 -1       839 8.48892E-03-5.16884E-05-3.20682E-14
 -1       840 8.65801E-03 5.06546E-04-3.18167E-14
 -1       841 1.25061E-02 4.13917E-04-5.08569E-14
 -1       842 1.26009E-02 5.97010E-04-5.05669E-14
 -1       843 1.09558E-02-3.56473E-04-4.52804E-14
 -1       844 8.07088E-03 2.63442E-04-3.05666E-14
 -1       845 1.13725E-03 1.19516E-06-7.60114E-16
 -1       846 1.15003E-03 1.79124E-04-6.91508E-16
 -1       847 1.27829E-02 5.79975E-04-5.20323E-14
 -1       848 1.42272E-02 9.04525E-04-6.60807E-14
 -1       849 2.60685E-03 3.76746E-04-2.95613E-15
 -1       850 7.95081E-03 1.17899E-04-2.98335E-14
 -1       851 1.14266E-03 1.17812E-04-7.21001E-16
 -1       852 1.41943E-02 8.39834E-04-6.61758E-14
 -1       853 1.41482E-02 7.76920E-04-6.62705E-14
 -1       854 8.23777E-03 1.43475E-05-3.08586E-14
 -1       855 2.31991E-03 3.69224E-04-2.35396E-15
 -1       856 1.49564E-03 3.23992E-04-1.00040E-15
 -1       857 1.28054E-02 5.14684E-04-5.20842E-14
 -1       858 1.14233E-03-1.15212E-04-7.76177E-16
 -1       859 1.14946E-03-1.76144E-04-7.75625E-16
 -1       860 7.86961E-03 2.23359E-04-2.88897E-14
 -1       861 8.56111E-03-1.67723E-04-3.17583E-14
 -1       862 2.21868E-03-2.58185E-04-2.52679E-15
 -1       863 2.50773E-03-2.65066E-04-3.16315E-15
 -1       864 2.79668E-03-2.68966E-04-3.86619E-15
 -1       865 3.08530E-03-2.70632E-04-4.63662E-15
 -1       866 3.37345E-03-2.70624E-04-5.47451E-15
 -1       867 3.66107E-03-2.69340E-04-6.37726E-15
 -1       868 3.94810E-03-2.67043E-04-7.34573E-15
 -1       869 4.23449E-03-2.63893E-04-8.37918E-15
 -1       870 4.52018E-03-2.59970E-04-9.47577E-15
 -1       871 4.80511E-03-2.55303E-04-1.06347E-14
 -1       872 5.08923E-03-2.49894E-04-1.18554E-14
 -1       873 5.37245E-03-2.43742E-04-1.31406E-14
 -1       874 5.65474E-03-2.36875E-04-1.44903E-14
 -1       875 5.93613E-03-2.29377E-04-1.59071E-14
 -1       876 6.21672E-03-2.21429E-04-1.73926E-14
 -1       877 6.49687E-03-2.13352E-04-1.89432E-14
 -1       878 6.77721E-03-2.05683E-04-2.05583E-14
 -1       879 7.05886E-03-1.99273E-04-2.22365E-14
 -1       880 7.34366E-03-1.95472E-04-2.39755E-14
 -1       881 7.63438E-03-1.96463E-04-2.57698E-14
 -1       882 7.93490E-03-2.05775E-04-2.76119E-14
 -1       883 8.25024E-03-2.28744E-04-2.94995E-14
 -1       884 1.35565E-03-2.09591E-04-1.03715E-15
 -1       885 1.14836E-02-1.15859E-04-4.85400E-14
 -1       886 1.18368E-02 1.64190E-05-5.08442E-14
 -1       887 1.21690E-02 1.19405E-04-5.31689E-14
 -1       888 1.24829E-02 2.01433E-04-5.55190E-14
 -1       889 1.27830E-02 2.71057E-04-5.78955E-14
 -1       890 1.30743E-02 3.33619E-04-6.02957E-14
 -1       891 1.33604E-02 3.92653E-04-6.27100E-14
 -1       892 1.36000E-02 4.47490E-04-6.46614E-14
 -1       893 1.27054E-02 4.61141E-04-5.25254E-14
 -1       894 1.13844E-03-5.65199E-05-7.71024E-16
 -1       895 4.17802E-03 3.01281E-04-7.64015E-15
 -1       896 3.89166E-03 3.04399E-04-6.64846E-15
 -1       897 4.74884E-03 2.92589E-04-9.82915E-15
 -1       898 5.03307E-03 2.87108E-04-1.10206E-14
 -1       899 5.31626E-03 2.80932E-04-1.22771E-14
 -1       900 5.59810E-03 2.74166E-04-1.36005E-14
 -1       901 5.87823E-03 2.67014E-04-1.49900E-14
 -1       902 6.15613E-03 2.59836E-04-1.64469E-14
 -1       903 6.43119E-03 2.53198E-04-1.79697E-14
 -1       904 6.70266E-03 2.47924E-04-1.95588E-14
 -1       905 6.96973E-03 2.45129E-04-2.12151E-14
 -1       906 7.23161E-03 2.46216E-04-2.29397E-14
 -1       907 7.48774E-03 2.52852E-04-2.47292E-14
 -1       908 7.73836E-03 2.67194E-04-2.65730E-14
 -1       909 7.98558E-03 2.92032E-04-2.84668E-14
 -1       910 1.24875E-02 3.77187E-04-5.20851E-14
 -1       911 1.37496E-02 8.32755E-04-6.17016E-14
 -1       912 1.32309E-02 7.21298E-04-5.69393E-14
 -1       913 1.40173E-02 8.94016E-04-6.40730E-14
 -1       914 1.38215E-02 6.33349E-04-6.43293E-14
 -1       915 1.64190E-03-2.31560E-04-1.46289E-15
 -1       916 7.77362E-03 1.63417E-04-2.86658E-14
 -1       917 1.21928E-02 2.50148E-04-5.12493E-14
 -1       918 1.34873E-02 7.74500E-04-5.93230E-14
 -1       919 1.42840E-02 9.61219E-04-6.63615E-14
 -1       920 1.87616E-03 2.78369E-04-1.64601E-15
 -1       921 4.46378E-03 2.97326E-04-8.70103E-15
 -1       922 3.02965E-03 3.07143E-04-4.08959E-15
 -1       923 1.29801E-02 6.75682E-04-5.45709E-14
 -1       924 1.27759E-02 6.50642E-04-5.26710E-14
 -1       925 8.93824E-03-3.53386E-04-3.33857E-14
 -1       926 1.92986E-03-2.47387E-04-1.95992E-15
 -1       927 1.40148E-03 2.36980E-04-9.61545E-16
 -1       928 8.31040E-03-9.14219E-05-3.05595E-14
 -1       929 7.69562E-03 1.84156E-04-2.76165E-14
 -1       930 1.36970E-02 5.24104E-04-6.45882E-14
 -1       931 1.38430E-03-9.70595E-05-1.09299E-15
 -1       932 8.00786E-03 4.77250E-05-2.95372E-14
 -1       933 2.74149E-03 3.04763E-04-3.37528E-15
 -1       934 3.31744E-03 3.07587E-04-4.87347E-15
 -1       935 3.60479E-03 3.06567E-04-5.72543E-15
 -1       936 1.58857E-03 2.59531E-04-1.20595E-15
 -1       937 7.75796E-03 1.23150E-04-2.83200E-14
 -1       938 1.38919E-02 6.97196E-04-6.42491E-14
 -1       939 1.38455E-03 9.99170E-05-1.03836E-15
 -1       940 2.16451E-03 2.91360E-04-2.15364E-15
 -1       941 1.38146E-03 3.39499E-05-1.06389E-15
 -1       942 1.19015E-02 9.98360E-05-5.04031E-14
 -1       943 1.44773E-03 2.79695E-04-9.82955E-16
 -1       944 1.28428E-02 5.04894E-04-5.32531E-14
 -1       945 1.29005E-02 5.62738E-04-5.31518E-14
 -1       946 1.39965E-02 8.29110E-04-6.41647E-14
 -1       947 1.37624E-02 5.80361E-04-6.44585E-14
 -1       948 1.36864E-03-1.53011E-04-1.06796E-15
 -1       949 2.64563E-03-1.93119E-04-3.49922E-15
 -1       950 2.93535E-03-1.95193E-04-4.23214E-15
 -1       951 3.22462E-03-1.95784E-04-5.03333E-15
 -1       952 3.51324E-03-1.95248E-04-5.90138E-15
 -1       953 3.80110E-03-1.93834E-04-6.83379E-15
 -1       954 4.08809E-03-1.91693E-04-7.83099E-15
 -1       955 4.37413E-03-1.88908E-04-8.89433E-15
 -1       956 4.65911E-03-1.85501E-04-1.00206E-14
 -1       957 4.94290E-03-1.81456E-04-1.12095E-14
 -1       958 5.22536E-03-1.76733E-04-1.24614E-14
 -1       959 5.50635E-03-1.71283E-04-1.37778E-14
 -1       960 5.78572E-03-1.65058E-04-1.51592E-14
 -1       961 6.06340E-03-1.58036E-04-1.66074E-14
 -1       962 6.33941E-03-1.50237E-04-1.81225E-14
 -1       963 6.61401E-03-1.41758E-04-1.97034E-14
 -1       964 6.88776E-03-1.32836E-04-2.13483E-14
 -1       965 7.16182E-03-1.23970E-04-2.30544E-14
 -1       966 7.43814E-03-1.16171E-04-2.48197E-14
 -1       967 7.71992E-03-1.11533E-04-2.66359E-14
 -1       968 8.01287E-03-1.14388E-04-2.84997E-14
 -1       969 1.24595E-02 2.62278E-04-5.42883E-14
 -1       970 1.27521E-02 3.25323E-04-5.66531E-14
 -1       971 1.30352E-02 3.82003E-04-5.90408E-14
 -1       972 1.33138E-02 4.36412E-04-6.14446E-14
 -1       973 1.35061E-02 4.80358E-04-6.30158E-14
 -1       974 1.72210E-03 2.02270E-04-1.46770E-15
 -1       975 5.16890E-03 2.14307E-04-1.17643E-14
 -1       976 4.88639E-03 2.18797E-04-1.05363E-14
 -1       977 5.72813E-03 2.04279E-04-1.44183E-14
 -1       978 6.00382E-03 1.99199E-04-1.58427E-14
 -1       979 6.27595E-03 1.94609E-04-1.73326E-14
 -1       980 6.54358E-03 1.91131E-04-1.88873E-14
 -1       981 6.80557E-03 1.89577E-04-2.05078E-14
 -1       982 7.06048E-03 1.90918E-04-2.21949E-14
 -1       983 7.30655E-03 1.96193E-04-2.39501E-14
 -1       984 7.54161E-03 2.06337E-04-2.57634E-14
 -1       985 1.29441E-02 6.14301E-04-5.38619E-14
 -1       986 2.45305E-03 2.99793E-04-2.72999E-15
 -1       987 1.39107E-03 1.67296E-04-1.00430E-15
 -1       988 1.39458E-02 7.58372E-04-6.41634E-14
 -1       989 1.27424E-02 4.38633E-04-5.40022E-14
 -1       990 1.38135E-03-3.12782E-05-1.08205E-15
 -1       991 1.77719E-03-1.72509E-04-1.70312E-15
 -1       992 1.31701E-02 6.60116E-04-5.62251E-14
 -1       993 1.26008E-02 3.58246E-04-5.41453E-14
 -1       994 5.44963E-03 2.09411E-04-1.30566E-14
 -1       995 4.03117E-03 2.29004E-04-7.24357E-15
 -1       996 2.35571E-03-1.89073E-04-2.83275E-15
 -1       997 2.06601E-03-1.82445E-04-2.23301E-15
 -1       998 7.77541E-03 6.80350E-05-2.80356E-14
 -1       999 2.01057E-03 2.14794E-04-1.95046E-15
 -1      1000 2.87890E-03 2.31501E-04-3.80810E-15
 -1      1001 3.74416E-03 2.31108E-04-6.28061E-15
 -1      1002 4.60245E-03 2.22781E-04-9.37363E-15
 -1      1003 3.16792E-03 2.32620E-04-4.56384E-15
 -1      1004 7.58618E-03 1.35658E-04-2.68396E-14
 -1      1005 1.36345E-02 6.20570E-04-6.22075E-14
 -1      1006 1.62980E-03 7.31226E-05-1.41199E-15
 -1      1007 1.28975E-02 4.91694E-04-5.47334E-14
 -1      1008 1.34091E-02 7.11605E-04-5.86076E-14
 -1      1009 1.77106E-03-9.71222E-05-1.69409E-15
 -1      1010 1.36589E-02 7.67538E-04-6.09932E-14
 -1      1011 1.29829E-02 5.55162E-04-5.43324E-14
 -1      1012 4.31731E-03 2.26202E-04-8.27498E-15
 -1      1013 1.35758E-02 5.69730E-04-6.23319E-14
 -1      1014 8.04608E-03-1.37050E-05-2.93119E-14
 -1      1015 5.02362E-03 1.46840E-04-1.12499E-14
 -1      1016 2.20547E-03-1.14533E-04-2.51229E-15
 -1      1017 3.07635E-03-1.20598E-04-4.60041E-15
 -1      1018 3.36583E-03-1.20572E-04-5.43177E-15
 -1      1019 3.65450E-03-1.19900E-04-6.32857E-15
 -1      1020 3.94219E-03-1.18702E-04-7.28963E-15
 -1      1021 4.22879E-03-1.17043E-04-8.31676E-15
 -1      1022 4.51414E-03-1.14941E-04-9.41011E-15
 -1      1023 4.79809E-03-1.12373E-04-1.05664E-14
 -1      1024 5.08044E-03-1.09280E-04-1.17845E-14
 -1      1025 5.36096E-03-1.05579E-04-1.30692E-14
 -1      1026 5.63940E-03-1.01154E-04-1.44177E-14
 -1      1027 5.91548E-03-9.58632E-05-1.58306E-14
 -1      1028 6.18898E-03-8.95410E-05-1.73086E-14
 -1      1029 6.45972E-03-8.20004E-05-1.88534E-14
 -1      1030 6.72768E-03-7.30524E-05-2.04635E-14
 -1      1031 6.99314E-03-6.25565E-05-2.21373E-14
 -1      1032 7.25683E-03-5.05352E-05-2.38719E-14
 -1      1033 7.52050E-03-3.74777E-05-2.56618E-14
 -1      1034 1.28703E-02 4.08450E-04-5.65088E-14
 -1      1035 1.31363E-02 4.56988E-04-5.88926E-14
 -1      1036 1.37000E-02 6.81029E-04-6.21347E-14
 -1      1037 3.45638E-03 2.32383E-04-5.38773E-15
 -1      1038 1.36898E-02 7.24165E-04-6.15679E-14
 -1      1039 6.12889E-03 1.35657E-04-1.66974E-14
 -1      1040 5.85746E-03 1.37955E-04-1.52396E-14
 -1      1041 6.65663E-03 1.34915E-04-1.98071E-14
 -1      1042 6.91028E-03 1.37945E-04-2.14615E-14
 -1      1043 7.15460E-03 1.44385E-04-2.31817E-14
 -1      1044 7.38670E-03 1.55100E-04-2.49626E-14
 -1      1045 1.98788E-03-1.06259E-04-2.08334E-15
 -1      1046 7.79388E-03 1.84425E-05-2.78175E-14
 -1      1047 7.56528E-03 9.04959E-05-2.65687E-14
 -1      1048 1.91776E-03 7.85673E-05-1.89120E-15
 -1      1049 2.58948E-03 2.28581E-04-3.12056E-15
 -1      1050 2.78624E-03-1.19790E-04-3.83761E-15
 -1      1051 6.39566E-03 1.34422E-04-1.82206E-14
 -1      1052 5.58232E-03 1.40807E-04-1.38447E-14
 -1      1053 2.29990E-03 2.23268E-04-2.50071E-15
 -1      1054 1.62805E-03 1.52703E-06-1.43895E-15
 -1      1055 1.31021E-02 6.06037E-04-5.55058E-14
 -1      1056 5.30418E-03 1.43849E-04-1.25141E-14
 -1      1057 2.49581E-03-1.17883E-04-3.14137E-15
 -1      1058 1.35426E-02 5.26506E-04-6.26738E-14
 -1      1059 4.17136E-03 1.54230E-04-7.84757E-15
 -1      1060 4.74109E-03 1.49627E-04-1.00520E-14
 -1      1061 3.88462E-03 1.55914E-04-6.84584E-15
 -1      1062 1.33819E-02 5.51226E-04-6.01963E-14
 -1      1063 7.33265E-03 1.12296E-04-2.47111E-14
 -1      1064 3.01875E-03 1.57279E-04-4.25319E-15
 -1      1065 1.34626E-02 6.12673E-04-6.01269E-14
 -1      1066 1.34457E-02 6.70486E-04-5.91781E-14
 -1      1067 2.72878E-03 1.55856E-04-3.52446E-15
 -1      1068 1.29352E-02 4.66227E-04-5.60295E-14
 -1      1069 1.30702E-02 5.49575E-04-5.58194E-14
 -1      1070 4.45691E-03 1.52112E-04-8.91745E-15
 -1      1071 1.32698E-02 6.37225E-04-5.73390E-14
 -1      1072 3.50868E-03-4.53444E-05-5.82930E-15
 -1      1073 3.79704E-03-4.49080E-05-6.75445E-15
 -1      1074 4.08428E-03-4.42593E-05-7.74447E-15
 -1      1075 4.37022E-03-4.33918E-05-8.80208E-15
 -1      1076 4.65467E-03-4.22784E-05-9.92534E-15
 -1      1077 4.93746E-03-4.08514E-05-1.11111E-14
 -1      1078 5.21824E-03-3.90445E-05-1.23612E-14
 -1      1079 5.49674E-03-3.66966E-05-1.36776E-14
 -1      1080 5.77254E-03-3.36321E-05-1.50575E-14
 -1      1081 6.04523E-03-2.96009E-05-1.65022E-14
 -1      1082 6.31431E-03-2.42772E-05-1.80099E-14
 -1      1083 6.57931E-03-1.72529E-05-1.95827E-14
 -1      1084 6.83973E-03-8.04235E-06-2.12237E-14
 -1      1085 7.09515E-03 3.84400E-06-2.29273E-14
 -1      1086 7.34543E-03 1.89865E-05-2.46879E-14
 -1      1087 3.30817E-03 1.57597E-04-5.04970E-15
 -1      1088 6.51897E-03 7.85895E-05-1.91102E-14
 -1      1089 1.31766E-02 5.92519E-04-5.65776E-14
 -1      1090 5.16120E-03 7.69406E-05-1.19697E-14
 -1      1091 5.98808E-03 7.50589E-05-1.60635E-14
 -1      1092 7.02360E-03 9.14409E-05-2.24191E-14
 -1      1093 6.77536E-03 8.34799E-05-2.07307E-14
 -1      1094 7.56178E-03 5.07031E-05-2.63625E-14
 -1      1095 2.20745E-03 8.23819E-05-2.43727E-15
 -1      1096 5.71574E-03 7.51528E-05-1.46347E-14
 -1      1097 1.31293E-02 5.33064E-04-5.71213E-14
 -1      1098 1.93199E-03-2.55131E-05-1.96322E-15
 -1      1099 3.21934E-03-4.55408E-05-4.96989E-15
 -1      1100 2.63862E-03-4.49600E-05-3.45263E-15
 -1      1101 2.34791E-03-4.39919E-05-2.79394E-15
 -1      1102 2.92923E-03-4.54454E-05-4.17740E-15
 -1      1103 6.25614E-03 7.60176E-05-1.75553E-14
 -1      1104 1.34607E-02 6.42480E-04-5.96539E-14
 -1      1105 5.43991E-03 7.58796E-05-1.32699E-14
 -1      1106 1.31336E-02 4.97857E-04-5.80068E-14
 -1      1107 4.02610E-03 8.13141E-05-7.42211E-15
 -1      1108 4.31228E-03 8.03942E-05-8.45998E-15
 -1      1109 3.59685E-03 1.57078E-04-5.91320E-15
 -1      1110 2.87060E-03 8.19646E-05-3.94226E-15
 -1      1111 4.88010E-03 7.81305E-05-1.07357E-14
 -1      1112 2.46795E-03 1.19001E-04-2.95743E-15
 -1      1113 1.32955E-02 5.71896E-04-5.86218E-14
 -1      1114 3.16074E-03 8.24488E-05-4.71147E-15
 -1      1115 7.20272E-03 5.23263E-05-2.37405E-14
 -1      1116 3.65289E-03 2.95891E-05-6.22641E-15
 -1      1117 4.79601E-03 2.88950E-05-1.04409E-14
 -1      1118 7.34148E-03 5.16898E-05-2.47497E-14
 -1      1119 2.11293E-03-4.06196E-05-2.30996E-15
 -1      1120 1.32386E-02 5.83440E-04-5.75984E-14
 -1      1121 3.40700E-03 5.60452E-05-5.44383E-15
 -1      1122 2.49303E-03 2.87178E-05-3.07805E-15
 -1      1123 4.59702E-03 7.93064E-05-9.56614E-15
 -1      1124 1.33155E-02 6.16864E-04-5.81133E-14
 -1      1125 2.23824E-03 2.90070E-05-2.53175E-15
 -1      1126 0.00000E+00 0.00000E+00 0.00000E+00
 -1      1127 0.00000E+00 0.00000E+00 0.00000E+00
 -1      1128 0.00000E+00 0.00000E+00 0.00000E+00
 -1      1129 0.00000E+00 0.00000E+00 0.00000E+00
 -1      1130 0.00000E+00 0.00000E+00 0.00000E+00
 -1      1131 0.00000E+00 0.00000E+00 0.00000E+00
 -1      1132 0.00000E+00 0.00000E+00 0.00000E+00
 -1      1133 0.00000E+00 0.00000E+00 0.00000E+00
 -1      1134 0.00000E+00 0.00000E+00 0.00000E+00
 -1      1135 0.00000E+00 0.00000E+00 0.00000E+00
 -1      1136 0.00000E+00 0.00000E+00 0.00000E+00
 -1      1137 0.00000E+00 0.00000E+00 0.00000E+00
 -1      1138 0.00000E+00 0.00000E+00 0.00000E+00
 -1      1139 0.00000E+00 0.00000E+00 0.00000E+00
 -1      1140 0.00000E+00 0.00000E+00 0.00000E+00
 -1      1141 0.00000E+00 0.00000E+00 0.00000E+00
 -1      1142 0.00000E+00 0.00000E+00 0.00000E+00
 -1      1143 2.11631E-04-1.48331E-04 6.50521E-18
 -1      1144 5.51510E-04-3.37530E-04-3.35425E-17
 -1      1145 8.33216E-04-4.59021E-04-1.50474E-16
 -1      1146 1.10266E-03-5.40663E-04-3.56933E-16
 -1      1147 1.36791E-03-5.97825E-04-6.47797E-16
 -1      1148 1.63255E-03-6.38389E-04-1.01952E-15
 -1      1149 1.89841E-03-6.66985E-04-1.47152E-15
 -1      1150 2.16635E-03-6.86711E-04-2.00248E-15
 -1      1151 2.43667E-03-6.99824E-04-2.61157E-15
 -1      1152 2.70938E-03-7.08011E-04-3.29520E-15
 -1      1153 2.98434E-03-7.12539E-04-4.05024E-15
 -1      1154 3.26136E-03-7.14342E-04-4.87255E-15
 -1      1155 3.54022E-03-7.14098E-04-5.76016E-15
 -1      1156 3.82075E-03-7.12283E-04-6.71372E-15
 -1      1157 4.10282E-03-7.09222E-04-7.72785E-15
 -1      1158 4.38640E-03-7.05137E-04-8.80399E-15
 -1      1159 4.67153E-03-7.00183E-04-9.94304E-15
 -1      1160 4.95839E-03-6.94499E-04-1.11427E-14
 -1      1161 5.24724E-03-6.88251E-04-1.24021E-14
 -1      1162 5.53848E-03-6.81688E-04-1.37250E-14
 -1      1163 5.83265E-03-6.75203E-04-1.51191E-14
 -1      1164 6.13034E-03-6.69408E-04-1.65859E-14
 -1      1165 6.43219E-03-6.65203E-04-1.81151E-14
 -1      1166 6.73879E-03-6.63850E-04-1.97157E-14
 -1      1167 7.05049E-03-6.67008E-04-2.13858E-14
 -1      1168 7.36721E-03-6.76700E-04-2.31139E-14
 -1      1169 7.68813E-03-6.95129E-04-2.48922E-14
 -1      1170 8.01138E-03-7.24269E-04-2.67173E-14
 -1      1171 8.33381E-03-7.65134E-04-2.85987E-14
 -1      1172 8.65103E-03-8.16727E-04-3.05259E-14
 -1      1173 8.95800E-03-8.74907E-04-3.24941E-14
 -1      1174 9.25031E-03-9.31701E-04-3.45153E-14
 -1      1175 9.52594E-03-9.75865E-04-3.65900E-14
 -1      1176 9.78686E-03-9.95217E-04-3.87083E-14
 -1      1177 1.00394E-02-9.80342E-04-4.08743E-14
 -1      1178 1.02925E-02-9.28058E-04-4.30812E-14
 -1      1179 1.05549E-02-8.42690E-04-4.53193E-14
 -1      1180 1.08322E-02-7.34342E-04-4.75925E-14
 -1      1181 1.11257E-02-6.15239E-04-4.98863E-14
 -1      1182 1.14327E-02-4.96136E-04-5.21919E-14
 -1      1183 1.17483E-02-3.84254E-04-5.45294E-14
 -1      1184 1.20675E-02-2.82954E-04-5.68981E-14
 -1      1185 1.23859E-02-1.92530E-04-5.93021E-14
 -1      1186 1.27004E-02-1.11342E-04-6.17404E-14
 -1      1187 1.30092E-02-3.67952E-05-6.42054E-14
 -1      1188 1.33116E-02 3.39915E-05-6.66760E-14
 -1      1189 1.36078E-02 1.03800E-04-6.91503E-14
 -1      1190 1.38987E-02 1.75065E-04-7.16407E-14
 -1      1191 1.41858E-02 2.49548E-04-7.41574E-14
 -1      1192 1.44641E-02 3.25399E-04-7.66388E-14
 -1      1193 2.28387E-04 1.60709E-04 2.22126E-17
 -1      1194 5.53679E-04 3.42161E-04 2.25650E-17
 -1      1195 8.34143E-04 4.61186E-04-3.96005E-17
 -1      1196 1.10355E-03 5.42350E-04-1.74407E-16
 -1      1197 1.36881E-03 5.99509E-04-3.83225E-16
 -1      1198 1.63349E-03 6.40162E-04-6.65117E-16
 -1      1199 1.89940E-03 6.68865E-04-1.01948E-15
 -1      1200 2.16738E-03 6.88710E-04-1.44295E-15
 -1      1201 2.43771E-03 7.01950E-04-1.93868E-15
 -1      1202 2.71042E-03 7.10266E-04-2.50853E-15
 -1      1203 2.98538E-03 7.14918E-04-3.15451E-15
 -1      1204 3.26237E-03 7.16836E-04-3.87226E-15
 -1      1205 3.54118E-03 7.16685E-04-4.66100E-15
 -1      1206 3.82165E-03 7.14927E-04-5.52718E-15
 -1      1207 4.10365E-03 7.11864E-04-6.47120E-15
 -1      1208 4.38715E-03 7.07681E-04-7.49284E-15
 -1      1209 4.67222E-03 7.02481E-04-8.58515E-15
 -1      1210 4.95908E-03 6.96327E-04-9.74416E-15
 -1      1211 5.24809E-03 6.89279E-04-1.09609E-14
 -1      1212 5.53983E-03 6.81452E-04-1.22468E-14
 -1      1213 5.83513E-03 6.73080E-04-1.36056E-14
 -1      1214 6.13510E-03 6.64609E-04-1.50392E-14
 -1      1215 6.44119E-03 6.56840E-04-1.65466E-14
 -1      1216 6.75522E-03 6.51117E-04-1.81314E-14
 -1      1217 7.07936E-03 6.49612E-04-1.97854E-14
 -1      1218 7.41602E-03 6.55700E-04-2.15082E-14
 -1      1219 7.76742E-03 6.74403E-04-2.32967E-14
 -1      1220 8.13487E-03 7.12745E-04-2.51460E-14
 -1      1221 8.51737E-03 7.79587E-04-2.70534E-14
 -1      1222 8.90967E-03 8.83980E-04-2.90086E-14
 -1      1223 9.30037E-03 1.03077E-03-3.10026E-14
 -1      1224 9.67204E-03 1.21293E-03-3.30376E-14
 -1      1225 1.00067E-02 1.40386E-03-3.51204E-14
 -1      1226 1.02973E-02 1.55875E-03-3.72451E-14
 -1      1227 1.05581E-02 1.63276E-03-3.94184E-14
 -1      1228 1.08213E-02 1.60849E-03-4.16409E-14
 -1      1229 1.11171E-02 1.50852E-03-4.39089E-14
 -1      1230 1.14568E-02 1.37973E-03-4.62221E-14
 -1      1231 1.18308E-02 1.26514E-03-4.85655E-14
 -1      1232 1.22203E-02 1.18786E-03-5.09449E-14
 -1      1233 1.26087E-02 1.15235E-03-5.33454E-14
 -1      1234 1.29852E-02 1.15247E-03-5.57523E-14
 -1      1235 1.33452E-02 1.17874E-03-5.81493E-14
 -1      1236 1.36879E-02 1.22212E-03-6.05379E-14
 -1      1237 1.40147E-02 1.27536E-03-6.29105E-14
 -1      1238 1.43280E-02 1.33296E-03-6.52749E-14
 -1      1239 1.46301E-02 1.39081E-03-6.76403E-14
 -1      1240 1.49237E-02 1.44585E-03-7.00049E-14
 -1      1241 1.52116E-02 1.49605E-03-7.23729E-14
 -1      1242 1.54899E-02 1.54027E-03-7.46825E-14
 -1      1243 1.56041E-02 1.51864E-03-7.58526E-14
 -1      1244 1.55631E-02 1.43407E-03-7.59552E-14
 -1      1245 1.55267E-02 1.35194E-03-7.60408E-14
 -1      1246 1.54938E-02 1.27483E-03-7.61129E-14
 -1      1247 1.54615E-02 1.20409E-03-7.61990E-14
 -1      1248 1.54266E-02 1.14022E-03-7.63177E-14
 -1      1249 1.53858E-02 1.08152E-03-7.64755E-14
 -1      1250 1.53367E-02 1.02570E-03-7.66388E-14
 -1      1251 1.52783E-02 9.71024E-04-7.67922E-14
 -1      1252 1.52108E-02 9.15200E-04-7.69454E-14
 -1      1253 1.51354E-02 8.56239E-04-7.70894E-14
 -1      1254 1.50546E-02 7.93235E-04-7.72337E-14
 -1      1255 1.49701E-02 7.24912E-04-7.73963E-14
 -1      1256 1.48837E-02 6.50509E-04-7.75367E-14
 -1      1257 1.47985E-02 5.71171E-04-7.76479E-14
 -1      1258 1.47163E-02 4.88301E-04-7.77357E-14
 -1      1259 1.46380E-02 4.04516E-04-7.78180E-14
 -1      1260 1.25842E-02 4.97118E-04-4.53210E-14
 -1      1261 1.24891E-02 6.49781E-04-4.50099E-14
 -1      1262 1.22825E-02 8.06835E-04-4.44773E-14
 -1      1263 1.19797E-02 9.66128E-04-4.37413E-14
 -1      1264 1.15994E-02 1.11549E-03-4.28345E-14
 -1      1265 1.11753E-02 1.23191E-03-4.18199E-14
 -1      1266 1.07314E-02 1.29421E-03-4.07569E-14
 -1      1267 1.02561E-02 1.29312E-03-3.96348E-14
 -1      1268 9.79190E-03 1.22268E-03-3.85669E-14
 -1      1269 9.34757E-03 1.09595E-03-3.75859E-14
 -1      1270 8.94356E-03 9.37898E-04-3.67437E-14
 -1      1271 8.59718E-03 7.67862E-04-3.60744E-14
 -1      1272 8.31420E-03 5.92001E-04-3.55681E-14
 -1      1273 8.13418E-03 4.30003E-04-3.52720E-14
 -1      1274 8.06556E-03 2.86228E-04-3.51871E-14
 -1      1275 8.10147E-03 1.44788E-04-3.53031E-14
 -1      1276 8.24965E-03-2.10005E-06-3.56420E-14
 -1      1277 8.50261E-03-1.50823E-04-3.62050E-14
 -1      1278 8.82029E-03-2.86024E-04-3.69226E-14
 -1      1279 9.18015E-03-3.99834E-04-3.77619E-14
 -1      1280 9.58341E-03-4.84847E-04-3.87339E-14
 -1      1281 9.99646E-03-5.26863E-04-3.97503E-14
 -1      1282 1.03968E-02-5.19903E-04-4.07368E-14
 -1      1283 1.07979E-02-4.66694E-04-4.17090E-14
 -1      1284 1.12049E-02-3.68918E-04-4.26674E-14
 -1      1285 1.15883E-02-2.41303E-04-4.35244E-14
 -1      1286 1.19372E-02-9.50412E-05-4.42596E-14
 -1      1287 1.22347E-02 6.02687E-05-4.48573E-14
 -1      1288 1.24448E-02 2.07198E-04-4.52384E-14
 -1      1289 1.25643E-02 3.47843E-04-4.53944E-14
 -1      1290 1.66663E-04-1.10350E-04-5.75982E-18
 -1      1291 1.12519E-04-5.69969E-05-1.92310E-17
 -1      1292 1.17597E-04-6.76001E-05-1.54905E-17
 -1      1293 1.08403E-04-4.35220E-05-2.53432E-17
 -1      1294 1.10261E-04-4.96315E-05-2.35407E-17
 -1      1295 2.26282E-04-1.07666E-04-5.54298E-17
 -1      1296 1.06845E-04-3.36523E-05-2.84332E-17
 -1      1297 1.07684E-04-3.83774E-05-2.75794E-17
 -1      1298 2.19079E-04-8.25260E-05-6.60957E-17
 -1      1299 1.06075E-04-2.53789E-05-2.99104E-17
 -1      1300 1.06503E-04-2.94129E-05-2.96394E-17
 -1      1301 2.15884E-04-6.33395E-05-7.17200E-17
 -1      1302 1.05675E-04-1.81158E-05-3.03712E-17
 -1      1303 1.05901E-04-2.16864E-05-3.03035E-17
 -1      1304 2.14234E-04-4.72375E-05-7.42136E-17
 -1      1305 1.05460E-04-1.12560E-05-3.06152E-17
 -1      1306 1.05581E-04-1.46450E-05-3.06829E-17
 -1      1307 2.13330E-04-3.27932E-05-7.51352E-17
 -1      1308 1.05364E-04-4.69681E-06-3.03035E-17
 -1      1309 1.05415E-04-7.95429E-06-3.04119E-17
 -1      1310 2.12844E-04-1.92156E-05-7.51217E-17
 -1      1311 1.05353E-04 1.74498E-06-2.98156E-17
 -1      1312 1.05351E-04-1.47276E-06-2.99917E-17
 -1      1313 2.12635E-04-6.16924E-06-7.42136E-17
 -1      1314 1.05424E-04 8.23632E-06-2.88669E-17
 -1      1315 1.05368E-04 4.97231E-06-2.91108E-17
 -1      1316 2.12643E-04 6.71688E-06-7.26415E-17
 -1      1317 1.05597E-04 1.49525E-05-2.76472E-17
 -1      1318 1.05472E-04 1.15487E-05-2.80266E-17
 -1      1319 2.12869E-04 1.97894E-05-7.02427E-17
 -1      1320 1.05924E-04 2.19787E-05-2.57769E-17
 -1      1321 1.05692E-04 1.83844E-05-2.63461E-17
 -1      1322 2.13371E-04 3.33068E-05-6.68411E-17
 -1      1323 1.06539E-04 2.98505E-05-2.29580E-17
 -1      1324 1.06104E-04 2.57717E-05-2.38931E-17
 -1      1325 2.14297E-04 4.78468E-05-6.19350E-17
 -1      1326 1.07719E-04 3.89509E-05-1.91497E-17
 -1      1327 1.06873E-04 3.41572E-05-2.05998E-17
 -1      1328 2.15982E-04 6.42671E-05-5.50639E-17
 -1      1329 1.10248E-04 5.03746E-05-1.32679E-17
 -1      1330 1.08415E-04 4.41930E-05-1.58429E-17
 -1      1331 2.19187E-04 8.37655E-05-4.54281E-17
 -1      1332 1.16912E-04 6.76380E-05-3.98444E-18
 -1      1333 1.12166E-04 5.77988E-05-8.42967E-18
 -1      1334 2.26277E-04 1.09493E-04-3.12521E-17
 -1      1335 1.57545E-04 1.09865E-04 1.02457E-17
 -1      1336 1.35629E-04 8.61052E-05 1.63986E-18
 -1      1337 2.55978E-04 1.52126E-04-1.42302E-17
 -1      1338 3.35007E-04 2.20753E-04 9.64940E-18
 -1      1339 4.21439E-04-2.61762E-04-4.07931E-17
 -1      1340 5.74489E-04-3.36829E-04-8.06240E-17
 -1      1341 7.21625E-04-3.97431E-04-1.43833E-16
 -1      1342 8.64737E-04-4.46718E-04-2.28645E-16
 -1      1343 6.11914E-04-3.30938E-04-1.34062E-16
 -1      1344 1.00470E-03-4.87771E-04-3.33799E-16
 -1      1345 1.14248E-03-5.21730E-04-4.59851E-16
 -1      1346 9.05050E-04-4.31619E-04-3.08591E-16
 -1      1347 1.27891E-03-5.50461E-04-6.06340E-16
 -1      1348 1.41448E-03-5.74441E-04-7.73456E-16
 -1      1349 1.18737E-03-5.00981E-04-5.64368E-16
 -1      1350 1.54965E-03-5.94734E-04-9.60224E-16
 -1      1351 1.68466E-03-6.11671E-04-1.16687E-15
 -1      1352 1.46418E-03-5.49642E-04-9.00240E-16
 -1      1353 1.81976E-03-6.25877E-04-1.39351E-15
 -1      1354 1.95506E-03-6.37642E-04-1.63967E-15
 -1      1355 1.73874E-03-5.83767E-04-1.31515E-15
 -1      1356 2.09069E-03-6.47365E-04-1.90500E-15
 -1      1357 2.22668E-03-6.55292E-04-2.19009E-15
 -1      1358 2.01291E-03-6.07313E-04-1.80808E-15
 -1      1359 2.36310E-03-6.61694E-04-2.49455E-15
 -1      1360 2.49995E-03-6.66771E-04-2.81734E-15
 -1      1361 2.28770E-03-6.23067E-04-2.37785E-15
 -1      1362 2.63726E-03-6.70713E-04-3.15851E-15
 -1      1363 2.77502E-03-6.73679E-04-3.51746E-15
 -1      1364 2.56358E-03-6.33067E-04-3.02238E-15
 -1      1365 2.91322E-03-6.75801E-04-3.89333E-15
 -1      1366 3.05186E-03-6.77204E-04-4.28684E-15
 -1      1367 2.84078E-03-6.38824E-04-3.73827E-15
 -1      1368 3.19091E-03-6.77977E-04-4.69710E-15
 -1      1369 3.33037E-03-6.78216E-04-5.12393E-15
 -1      1370 3.11935E-03-6.41450E-04-4.52293E-15
 -1      1371 3.47022E-03-6.77978E-04-5.56697E-15
 -1      1372 3.61044E-03-6.77336E-04-6.02623E-15
 -1      1373 3.39927E-03-6.41752E-04-5.37430E-15
 -1      1374 3.75102E-03-6.76323E-04-6.50170E-15
 -1      1375 3.89196E-03-6.74993E-04-6.99306E-15
 -1      1376 3.68048E-03-6.40297E-04-6.29114E-15
 -1      1377 4.03325E-03-6.73363E-04-7.50005E-15
 -1      1378 4.17489E-03-6.71474E-04-8.02228E-15
 -1      1379 3.96294E-03-6.37470E-04-7.27277E-15
 -1      1380 4.31688E-03-6.69331E-04-8.56025E-15
 -1      1381 4.45923E-03-6.66969E-04-9.11332E-15
 -1      1382 4.24666E-03-6.33522E-04-8.31666E-15
 -1      1383 4.60195E-03-6.64385E-04-9.68191E-15
 -1      1384 4.74506E-03-6.61613E-04-1.02669E-14
 -1      1385 4.53166E-03-6.28617E-04-9.42227E-15
 -1      1386 4.88859E-03-6.58650E-04-1.08661E-14
 -1      1387 5.03257E-03-6.55533E-04-1.14799E-14
 -1      1388 4.81807E-03-6.22872E-04-1.05896E-14
 -1      1389 5.17704E-03-6.52266E-04-1.21098E-14
 -1      1390 5.32204E-03-6.48896E-04-1.27557E-14
 -1      1391 5.10607E-03-6.16408E-04-1.18180E-14
 -1      1392 5.46762E-03-6.45441E-04-1.34175E-14
 -1      1393 5.61384E-03-6.41966E-04-1.40957E-14
 -1      1394 5.39593E-03-6.09398E-04-1.31092E-14
 -1      1395 5.76077E-03-6.38513E-04-1.47914E-14
 -1      1396 5.90845E-03-6.35173E-04-1.55067E-14
 -1      1397 5.68801E-03-6.02130E-04-1.44656E-14
 -1      1398 6.05697E-03-6.32022E-04-1.62379E-14
 -1      1399 6.20638E-03-6.29186E-04-1.69861E-14
 -1      1400 5.98270E-03-5.95076E-04-1.58915E-14
 -1      1401 6.35675E-03-6.26788E-04-1.77524E-14
 -1      1402 6.50814E-03-6.24992E-04-1.85335E-14
 -1      1403 6.28046E-03-5.88975E-04-1.73879E-14
 -1      1404 6.66060E-03-6.23986E-04-1.93326E-14
 -1      1405 6.81416E-03-6.23970E-04-2.01506E-14
 -1      1406 6.58171E-03-5.84912E-04-1.89521E-14
 -1      1407 6.96883E-03-6.25205E-04-2.09834E-14
 -1      1408 7.12460E-03-6.27920E-04-2.18319E-14
 -1      1409 6.88676E-03-5.84387E-04-2.05832E-14
 -1      1410 7.28142E-03-6.32444E-04-2.26951E-14
 -1      1411 7.43921E-03-6.39008E-04-2.35709E-14
 -1      1412 7.19571E-03-5.89344E-04-2.22776E-14
 -1      1413 7.59781E-03-6.47981E-04-2.44597E-14
 -1      1414 7.75705E-03-6.59545E-04-2.53598E-14
 -1      1415 7.50826E-03-6.02079E-04-2.40269E-14
 -1      1416 7.91666E-03-6.74034E-04-2.62726E-14
 -1      1417 8.07633E-03-6.91498E-04-2.71985E-14
 -1      1418 7.82357E-03-6.24974E-04-2.58283E-14
 -1      1419 8.23568E-03-7.12103E-04-2.81367E-14
 -1      1420 8.39428E-03-7.35653E-04-2.90891E-14
 -1      1421 8.14007E-03-6.59918E-04-2.76784E-14
 -1      1422 8.55164E-03-7.61960E-04-3.00525E-14
 -1      1423 8.70730E-03-7.90458E-04-3.10242E-14
 -1      1424 8.45545E-03-7.07365E-04-2.95772E-14
 -1      1425 8.86076E-03-8.20425E-04-3.20085E-14
 -1      1426 9.01160E-03-8.50844E-04-3.30051E-14
 -1      1427 8.76679E-03-7.65084E-04-3.15232E-14
 -1      1428 9.15950E-03-8.80399E-04-3.40151E-14
 -1      1429 9.30425E-03-9.07685E-04-3.50387E-14
 -1      1430 9.07108E-03-8.26984E-04-3.35157E-14
 -1      1431 9.44585E-03-9.30970E-04-3.60731E-14
 -1      1432 9.58448E-03-9.48742E-04-3.71196E-14
 -1      1433 9.36614E-03-8.82787E-04-3.55578E-14
 -1      1434 9.72053E-03-9.59329E-04-3.81791E-14
 -1      1435 9.85463E-03-9.61560E-04-3.92489E-14
 -1      1436 9.65168E-03-9.19438E-04-3.76497E-14
 -1      1437 9.98751E-03-9.54434E-04-4.03297E-14
 -1      1438 1.01201E-02-9.37553E-04-4.14234E-14
 -1      1439 9.93008E-03-9.24543E-04-3.97879E-14
 -1      1440 1.02531E-02-9.11012E-04-4.25238E-14
 -1      1441 1.03876E-02-8.75346E-04-4.36329E-14
 -1      1442 1.02060E-02-8.90745E-04-4.19684E-14
 -1      1443 1.05242E-02-8.31705E-04-4.47542E-14
 -1      1444 1.06634E-02-7.81339E-04-4.58812E-14
 -1      1445 1.04849E-02-8.18718E-04-4.41878E-14
 -1      1446 1.08055E-02-7.25976E-04-4.70159E-14
 -1      1447 1.09508E-02-6.67128E-04-4.81589E-14
 -1      1448 1.07713E-02-7.16883E-04-4.64419E-14
 -1      1449 1.10990E-02-6.06486E-04-4.93035E-14
 -1      1450 1.12499E-02-5.45391E-04-5.04512E-14
 -1      1451 1.10669E-02-5.98019E-04-4.87213E-14
 -1      1452 1.14032E-02-4.85063E-04-5.16080E-14
 -1      1453 1.15584E-02-4.26424E-04-5.27694E-14
 -1      1454 1.13711E-02-4.74879E-04-5.10220E-14
 -1      1455 1.17149E-02-3.70084E-04-5.39359E-14
 -1      1456 1.18724E-02-3.16512E-04-5.51122E-14
 -1      1457 1.16813E-02-3.57012E-04-5.33434E-14
 -1      1458 1.20302E-02-2.65800E-04-5.62976E-14
 -1      1459 1.21880E-02-2.18054E-04-5.74894E-14
 -1      1460 1.19945E-02-2.49667E-04-5.56954E-14
 -1      1461 1.23455E-02-1.73031E-04-5.86897E-14
 -1      1462 1.25022E-02-1.30596E-04-5.98995E-14
 -1      1463 1.23076E-02-1.54305E-04-5.80796E-14
 -1      1464 1.26579E-02-9.03462E-05-6.11164E-14
 -1      1465 1.28126E-02-5.20163E-05-6.23380E-14
 -1      1466 1.26185E-02-6.98091E-05-6.04943E-14
 -1      1467 1.29659E-02-1.51612E-05-6.35641E-14
 -1      1468 1.31179E-02 2.05356E-05-6.47994E-14
 -1      1469 1.29256E-02 6.32954E-06-6.29332E-14
 -1      1470 1.32686E-02 5.54981E-05-6.60353E-14
 -1      1471 1.34179E-02 9.00465E-05-6.72666E-14
 -1      1472 1.32281E-02 7.71410E-05-6.53904E-14
 -1      1473 1.35660E-02 1.24554E-04-6.85065E-14
 -1      1474 1.37128E-02 1.59313E-04-6.97488E-14
 -1      1475 1.35259E-02 1.45664E-04-6.78640E-14
 -1      1476 1.38585E-02 1.94619E-04-7.09960E-14
 -1      1477 1.40034E-02 2.30711E-04-7.22468E-14
 -1      1478 1.38195E-02 2.14666E-04-7.03483E-14
 -1      1479 1.41474E-02 2.67746E-04-7.35027E-14
 -1      1480 1.42909E-02 3.05830E-04-7.47677E-14
 -1      1481 1.41095E-02 2.86410E-04-7.28498E-14
 -1      1482 1.45022E-02 3.66799E-04-7.66042E-14
 -1      1483 1.44652E-02 3.84088E-04-7.59393E-14
 -1      1484 6.42905E-04 3.72040E-04-2.33103E-17
 -1      1485 4.92828E-04 3.03714E-04 1.82959E-18
 -1      1486 4.44769E-04 2.65927E-04-1.58158E-17
 -1      1487 9.28377E-04 4.71987E-04-1.26635E-16
 -1      1488 7.87573E-04 4.26509E-04-6.61634E-17
 -1      1489 7.44536E-04 3.90751E-04-8.87826E-17
 -1      1490 1.20314E-03 5.41352E-04-3.01733E-16
 -1      1491 1.06654E-03 5.09706E-04-2.04901E-16
 -1      1492 1.03048E-03 4.76160E-04-2.31680E-16
 -1      1493 1.47353E-03 5.90439E-04-5.49392E-16
 -1      1494 1.33856E-03 5.68043E-04-4.16483E-16
 -1      1495 1.30827E-03 5.35907E-04-4.46149E-16
 -1      1496 1.74289E-03 6.25157E-04-8.69462E-16
 -1      1497 1.60817E-03 6.09355E-04-7.00191E-16
 -1      1498 1.58236E-03 5.78059E-04-7.32108E-16
 -1      1499 2.01291E-03 6.49351E-04-1.26028E-15
 -1      1500 1.87773E-03 6.38399E-04-1.05601E-15
 -1      1501 1.85537E-03 6.07572E-04-1.08946E-15
 -1      1502 2.28440E-03 6.65742E-04-1.72165E-15
 -1      1503 2.14843E-03 6.58393E-04-1.48224E-15
 -1      1504 2.12873E-03 6.27807E-04-1.51795E-15
 -1      1505 2.55768E-03 6.76337E-04-2.25606E-15
 -1      1506 2.42080E-03 6.71666E-04-1.97940E-15
 -1      1507 2.40314E-03 6.41180E-04-2.01720E-15
 -1      1508 2.83283E-03 6.82633E-04-2.86419E-15
 -1      1509 2.69502E-03 6.79948E-04-2.55097E-15
 -1      1510 2.67892E-03 6.49480E-04-2.58958E-15
 -1      1511 3.10980E-03 6.85739E-04-3.54729E-15
 -1      1512 2.97110E-03 6.84530E-04-3.19659E-15
 -1      1513 2.95618E-03 6.54029E-04-3.23584E-15
 -1      1514 3.38845E-03 6.86460E-04-4.30060E-15
 -1      1515 3.24892E-03 6.86358E-04-3.91470E-15
 -1      1516 3.23491E-03 6.55798E-04-3.95422E-15
 -1      1517 3.66867E-03 6.85362E-04-5.12853E-15
 -1      1518 3.52837E-03 6.86110E-04-4.70529E-15
 -1      1519 3.51505E-03 6.55476E-04-4.74528E-15
 -1      1520 3.95034E-03 6.82822E-04-6.03274E-15
 -1      1521 3.80933E-03 6.84252E-04-5.57098E-15
 -1      1522 3.79653E-03 6.53536E-04-5.61113E-15
 -1      1523 4.23343E-03 6.79076E-04-7.01254E-15
 -1      1524 4.09171E-03 6.81086E-04-6.51328E-15
 -1      1525 4.07931E-03 6.50280E-04-6.55107E-15
 -1      1526 4.51798E-03 6.74256E-04-8.06752E-15
 -1      1527 4.37552E-03 6.76790E-04-7.53132E-15
 -1      1528 4.36342E-03 6.45884E-04-7.56684E-15
 -1      1529 4.80413E-03 6.68430E-04-9.19029E-15
 -1      1530 4.66085E-03 6.71459E-04-8.62072E-15
 -1      1531 4.64894E-03 6.40436E-04-8.65309E-15
 -1      1532 5.09216E-03 6.61636E-04-1.03759E-14
 -1      1533 4.94789E-03 6.65140E-04-9.77504E-15
 -1      1534 4.93607E-03 6.33972E-04-9.80543E-15
 -1      1535 5.38249E-03 6.53933E-04-1.16253E-14
 -1      1536 5.23701E-03 6.57877E-04-1.09926E-14
 -1      1537 5.22515E-03 6.26517E-04-1.10207E-14
 -1      1538 5.67577E-03 6.45455E-04-1.29456E-14
 -1      1539 5.52872E-03 6.49756E-04-1.22765E-14
 -1      1540 5.51663E-03 6.18137E-04-1.23034E-14
 -1      1541 5.97285E-03 6.36492E-04-1.43387E-14
 -1      1542 5.82378E-03 6.40979E-04-1.36323E-14
 -1      1543 5.81117E-03 6.09002E-04-1.36564E-14
 -1      1544 6.27486E-03 6.27597E-04-1.58074E-14
 -1      1545 6.12317E-03 6.31949E-04-1.50635E-14
 -1      1546 6.10963E-03 5.99478E-04-1.50851E-14
 -1      1547 6.58322E-03 6.19751E-04-1.73475E-14
 -1      1548 6.42815E-03 6.23411E-04-1.65679E-14
 -1      1549 6.41309E-03 5.90261E-04-1.65858E-14
 -1      1550 6.89962E-03 6.14599E-04-1.89634E-14
 -1      1551 6.74030E-03 6.16645E-04-1.81479E-14
 -1      1552 6.72287E-03 5.82570E-04-1.81610E-14
 -1      1553 7.22599E-03 6.14777E-04-2.06484E-14
 -1      1554 7.06143E-03 6.13748E-04-1.97972E-14
 -1      1555 7.04048E-03 5.78432E-04-1.98059E-14
 -1      1556 7.56421E-03 6.24348E-04-2.23969E-14
 -1      1557 7.39349E-03 6.18019E-04-2.15134E-14
 -1      1558 7.36753E-03 5.81066E-04-2.15174E-14
 -1      1559 7.91571E-03 6.49269E-04-2.42126E-14
 -1      1560 7.73821E-03 6.34427E-04-2.32974E-14
 -1      1561 7.70543E-03 5.95373E-04-2.32956E-14
 -1      1562 8.28065E-03 6.97648E-04-2.60859E-14
 -1      1563 8.09653E-03 6.70019E-04-2.51422E-14
 -1      1564 8.05504E-03 6.28383E-04-2.51353E-14
 -1      1565 8.65667E-03 7.79147E-04-2.80115E-14
 -1      1566 8.46752E-03 7.33853E-04-2.70425E-14
 -1      1567 8.41591E-03 6.89275E-04-2.70307E-14
 -1      1568 9.03759E-03 9.02325E-04-2.99817E-14
 -1      1569 8.84710E-03 8.35532E-04-2.89911E-14
 -1      1570 8.78540E-03 7.88066E-04-2.89734E-14
 -1      1571 9.41272E-03 1.06860E-03-3.19934E-14
 -1      1572 9.22679E-03 9.80954E-04-3.09827E-14
 -1      1573 9.15772E-03 9.31562E-04-3.09609E-14
 -1      1574 9.76854E-03 1.26323E-03-3.40471E-14
 -1      1575 9.59398E-03 1.16449E-03-3.30148E-14
 -1      1576 9.52378E-03 1.11551E-03-3.29896E-14
 -1      1577 1.00947E-02 1.44919E-03-3.61506E-14
 -1      1578 9.93568E-03 1.36032E-03-3.50933E-14
 -1      1579 9.87324E-03 1.31523E-03-3.50644E-14
 -1      1580 1.03925E-02 1.57577E-03-3.82956E-14
 -1      1581 1.02463E-02 1.52250E-03-3.72164E-14
 -1      1582 1.02003E-02 1.48404E-03-3.71849E-14
 -1      1583 1.06787E-02 1.60492E-03-4.04902E-14
 -1      1584 1.05354E-02 1.60290E-03-3.93866E-14
 -1      1585 1.05103E-02 1.57080E-03-3.93527E-14
 -1      1586 1.09772E-02 1.53762E-03-4.27325E-14
 -1      1587 1.08249E-02 1.58104E-03-4.16062E-14
 -1      1588 1.08199E-02 1.55178E-03-4.15684E-14
 -1      1589 1.13042E-02 1.41325E-03-4.50170E-14
 -1      1590 1.11367E-02 1.47915E-03-4.38692E-14
 -1      1591 1.11457E-02 1.44872E-03-4.38275E-14
 -1      1592 1.16600E-02 1.28296E-03-4.73399E-14
 -1      1593 1.14790E-02 1.34629E-03-4.61749E-14
 -1      1594 1.14935E-02 1.31261E-03-4.61265E-14
 -1      1595 1.20339E-02 1.18222E-03-4.96941E-14
 -1      1596 1.18456E-02 1.22781E-03-4.85126E-14
 -1      1597 1.18577E-02 1.19100E-03-4.84579E-14
 -1      1598 1.24123E-02 1.12451E-03-5.20778E-14
 -1      1599 1.22234E-02 1.14804E-03-5.08835E-14
 -1      1600 1.22279E-02 1.10918E-03-5.08225E-14
 -1      1601 1.27846E-02 1.10766E-03-5.44767E-14
 -1      1602 1.25998E-02 1.11156E-03-5.32752E-14
 -1      1603 1.25950E-02 1.07182E-03-5.32082E-14
 -1      1604 1.31447E-02 1.12264E-03-5.68785E-14
 -1      1605 1.29665E-02 1.11184E-03-5.56780E-14
 -1      1606 1.29529E-02 1.07212E-03-5.56057E-14
 -1      1607 1.34903E-02 1.15952E-03-5.92689E-14
 -1      1608 1.33194E-02 1.13892E-03-5.80744E-14
 -1      1609 1.32988E-02 1.09978E-03-5.80005E-14
 -1      1610 1.38215E-02 1.20981E-03-6.16522E-14
 -1      1611 1.36577E-02 1.18343E-03-6.04639E-14
 -1      1612 1.36321E-02 1.14517E-03-6.03902E-14
 -1      1613 1.41398E-02 1.26703E-03-6.40238E-14
 -1      1614 1.39822E-02 1.23788E-03-6.28392E-14
 -1      1615 1.39535E-02 1.20063E-03-6.27664E-14
 -1      1616 1.44470E-02 1.32635E-03-6.63848E-14
 -1      1617 1.42946E-02 1.29666E-03-6.52042E-14
 -1      1618 1.42644E-02 1.26045E-03-6.51322E-14
 -1      1619 1.47454E-02 1.38416E-03-6.87508E-14
 -1      1620 1.45972E-02 1.35561E-03-6.75667E-14
 -1      1621 1.45665E-02 1.32039E-03-6.74956E-14
 -1      1622 1.50373E-02 1.43783E-03-7.11149E-14
 -1      1623 1.48920E-02 1.41163E-03-6.99328E-14
 -1      1624 1.48618E-02 1.37730E-03-6.98601E-14
 -1      1625 1.53249E-02 1.48591E-03-7.34843E-14
 -1      1626 1.51814E-02 1.46256E-03-7.23000E-14
 -1      1627 1.51520E-02 1.42898E-03-7.22273E-14
 -1      1628 1.54683E-02 1.49816E-03-7.47295E-14
 -1      1629 1.54300E-02 1.39585E-03-7.49486E-14
 -1      1630 1.54492E-02 1.43711E-03-7.49002E-14
 -1      1631 1.53952E-02 1.31594E-03-7.50349E-14
 -1      1632 1.54120E-02 1.35539E-03-7.49932E-14
 -1      1633 1.52974E-02 1.35693E-03-7.39452E-14
 -1      1634 1.53636E-02 1.24069E-03-7.51162E-14
 -1      1635 1.53792E-02 1.27767E-03-7.50751E-14
 -1      1636 1.52644E-02 1.27843E-03-7.40334E-14
 -1      1637 1.53317E-02 1.17075E-03-7.52165E-14
 -1      1638 1.53479E-02 1.20505E-03-7.51667E-14
 -1      1639 1.52338E-02 1.20431E-03-7.41257E-14
 -1      1640 1.52967E-02 1.10690E-03-7.53408E-14
 -1      1641 1.53148E-02 1.13826E-03-7.52744E-14
 -1      1642 1.52022E-02 1.13536E-03-7.42313E-14
 -1      1643 1.52542E-02 1.04587E-03-7.54873E-14
 -1      1644 1.52764E-02 1.07598E-03-7.54113E-14
 -1      1645 1.51660E-02 1.07042E-03-7.43531E-14
 -1      1646 1.52030E-02 9.87190E-04-7.56361E-14
 -1      1647 1.52298E-02 1.01635E-03-7.55616E-14
 -1      1648 1.51219E-02 1.00792E-03-7.44892E-14
 -1      1649 1.51422E-02 9.28961E-04-7.57828E-14
 -1      1650 1.51738E-02 9.58134E-04-7.57118E-14
 -1      1651 1.50684E-02 9.46977E-04-7.46323E-14
 -1      1652 1.50723E-02 8.69344E-04-7.59290E-14
 -1      1653 1.51083E-02 8.99430E-04-7.58546E-14
 -1      1654 1.50051E-02 8.85960E-04-7.47734E-14
 -1      1655 1.49945E-02 8.06779E-04-7.60656E-14
 -1      1656 1.50343E-02 8.38509E-04-7.60000E-14
 -1      1657 1.49327E-02 8.23353E-04-7.49087E-14
 -1      1658 1.49126E-02 7.41336E-04-7.62056E-14
 -1      1659 1.49541E-02 7.74590E-04-7.61343E-14
 -1      1660 1.48536E-02 7.58492E-04-7.50401E-14
 -1      1661 1.48262E-02 6.70218E-04-7.63464E-14
 -1      1662 1.48697E-02 7.06361E-04-7.62772E-14
 -1      1663 1.47694E-02 6.90062E-04-7.51695E-14
 -1      1664 1.47393E-02 5.94551E-04-7.64731E-14
 -1      1665 1.47827E-02 6.32930E-04-7.64139E-14
 -1      1666 1.46820E-02 6.17085E-04-7.52964E-14
 -1      1667 1.46542E-02 5.14933E-04-7.65745E-14
 -1      1668 1.46964E-02 5.55175E-04-7.65277E-14
 -1      1669 1.45947E-02 5.40244E-04-7.54095E-14
 -1      1670 1.45388E-02 4.29066E-04-7.62800E-14
 -1      1671 1.45793E-02 4.70450E-04-7.62390E-14
 -1      1672 1.44764E-02 4.56766E-04-7.51262E-14
 -1      1673 1.43271E-02 3.68374E-04-7.44504E-14
 -1      1674 1.25839E-02 5.02066E-04-4.57610E-14
 -1      1675 1.26077E-02 4.55332E-04-4.58591E-14
 -1      1676 1.24366E-02 6.15187E-04-4.53500E-14
 -1      1677 1.25188E-02 5.62589E-04-4.55504E-14
 -1      1678 1.21527E-02 7.50503E-04-4.47794E-14
 -1      1679 1.22974E-02 6.77755E-04-4.51134E-14
 -1      1680 1.18102E-02 9.35328E-04-4.38661E-14
 -1      1681 1.19759E-02 8.54655E-04-4.42642E-14
 -1      1682 1.13939E-02 1.12237E-03-4.28271E-14
 -1      1683 1.15905E-02 1.03368E-03-4.33397E-14
 -1      1684 1.10059E-02 1.26915E-03-4.17019E-14
 -1      1685 1.11825E-02 1.21085E-03-4.22006E-14
 -1      1686 1.05973E-02 1.34942E-03-4.05226E-14
 -1      1687 1.07849E-02 1.32308E-03-4.10844E-14
 -1      1688 1.01846E-02 1.32513E-03-3.93032E-14
 -1      1689 1.03754E-02 1.34766E-03-3.98594E-14
 -1      1690 9.77481E-03 1.21032E-03-3.81777E-14
 -1      1691 9.96348E-03 1.27359E-03-3.86813E-14
 -1      1692 9.36733E-03 1.02558E-03-3.71157E-14
 -1      1693 9.56044E-03 1.11731E-03-3.75786E-14
 -1      1694 8.95519E-03 8.29554E-04-3.62871E-14
 -1      1695 9.13488E-03 9.21534E-04-3.66576E-14
 -1      1696 8.58892E-03 6.40048E-04-3.56108E-14
 -1      1697 8.75302E-03 7.25554E-04-3.59009E-14
 -1      1698 8.28536E-03 4.66301E-04-3.50594E-14
 -1      1699 8.41821E-03 5.37712E-04-3.52666E-14
 -1      1700 8.10160E-03 3.53006E-04-3.48520E-14
 -1      1701 8.16783E-03 4.03217E-04-3.49401E-14
 -1      1702 8.04793E-03 2.56155E-04-3.48133E-14
 -1      1703 8.05736E-03 2.99182E-04-3.48055E-14
 -1      1704 8.12199E-03 1.60212E-04-3.49665E-14
 -1      1705 8.07088E-03 2.05545E-04-3.48550E-14
 -1      1706 8.33403E-03 4.81679E-05-3.53440E-14
 -1      1707 8.22031E-03 1.05571E-04-3.51166E-14
 -1      1708 8.64651E-03-1.03343E-04-3.60301E-14
 -1      1709 8.49270E-03-3.25715E-05-3.57023E-14
 -1      1710 8.98844E-03-2.65045E-04-3.68662E-14
 -1      1711 8.82623E-03-1.94448E-04-3.64872E-14
 -1      1712 9.35793E-03-4.11257E-04-3.78030E-14
 -1      1713 9.18475E-03-3.45557E-04-3.73526E-14
 -1      1714 9.74731E-03-5.26093E-04-3.88620E-14
 -1      1715 9.57248E-03-4.78054E-04-3.83517E-14
 -1      1716 1.01043E-02-5.73416E-04-3.99625E-14
 -1      1717 9.94136E-03-5.59444E-04-3.94671E-14
 -1      1718 1.04528E-02-5.52231E-04-4.10233E-14
 -1      1719 1.02929E-02-5.70468E-04-4.05391E-14
 -1      1720 1.08129E-02-4.64568E-04-4.20751E-14
 -1      1721 1.06447E-02-5.13280E-04-4.15915E-14
 -1      1722 1.11856E-02-3.16285E-04-4.31333E-14
 -1      1723 1.10075E-02-3.91544E-04-4.26639E-14
 -1      1724 1.15660E-02-1.46724E-04-4.40160E-14
 -1      1725 1.13971E-02-2.26149E-04-4.36287E-14
 -1      1726 1.19363E-02 2.98546E-05-4.47919E-14
 -1      1727 1.17670E-02-5.16777E-05-4.44499E-14
 -1      1728 1.22570E-02 1.80100E-04-4.53629E-14
 -1      1729 1.21202E-02 1.12398E-04-4.51139E-14
 -1      1730 1.24772E-02 3.00810E-04-4.57163E-14
 -1      1731 1.23881E-02 2.49470E-04-4.55846E-14
 -1      1732 1.25941E-02 4.01060E-04-4.58378E-14
 -1      1733 1.25541E-02 3.56467E-04-4.58127E-14
 -1      1734 1.16363E-02 9.50748E-04-4.38780E-14
 -1      1735 1.20255E-02 7.48195E-04-4.49242E-14
 -1      1736 1.54395E-02 1.46499E-03-7.46573E-14
 -1      1737 1.53054E-02 1.42495E-03-7.36542E-14
 -1      1738 1.25562E-02 5.05696E-04-4.61244E-14
 -1      1739 1.23466E-02 6.01380E-04-4.56782E-14
 -1      1740 1.26114E-02 4.37612E-04-4.63091E-14
 -1      1741 1.12378E-02 1.15519E-03-4.27181E-14
 -1      1742 1.08515E-02 1.31292E-03-4.14705E-14
 -1      1743 1.04875E-02 1.37678E-03-4.01860E-14
 -1      1744 1.01110E-02 1.32019E-03-3.89019E-14
 -1      1745 9.72817E-03 1.16088E-03-3.76849E-14
 -1      1746 9.32669E-03 9.42991E-04-3.66360E-14
 -1      1747 8.91156E-03 7.24116E-04-3.57973E-14
 -1      1748 8.53647E-03 5.25436E-04-3.50720E-14
 -1      1749 8.23963E-03 3.87698E-04-3.46139E-14
 -1      1750 8.07318E-03 3.03153E-04-3.44521E-14
 -1      1751 8.05079E-03 2.37322E-04-3.44493E-14
 -1      1752 8.17578E-03 1.66946E-04-3.46410E-14
 -1      1753 8.43918E-03 5.95099E-05-3.51453E-14
 -1      1754 8.78034E-03-1.01426E-04-3.59564E-14
 -1      1755 9.14532E-03-2.78881E-04-3.68949E-14
 -1      1756 9.52128E-03-4.42427E-04-3.79238E-14
 -1      1757 9.86940E-03-5.60530E-04-3.90717E-14
 -1      1758 1.01964E-02-5.97913E-04-4.02503E-14
 -1      1759 1.05169E-02-5.52291E-04-4.13940E-14
 -1      1760 1.08551E-02-4.28279E-04-4.25522E-14
 -1      1761 1.12172E-02-2.46370E-04-4.36382E-14
 -1      1762 1.16058E-02-4.86267E-05-4.45679E-14
 -1      1763 1.19841E-02 1.30347E-04-4.53247E-14
 -1      1764 1.23025E-02 2.68703E-04-4.58683E-14
 -1      1765 1.25170E-02 3.64903E-04-4.61872E-14
 -1      1766 2.85173E-04-1.76253E-04-3.55754E-17
 -1      1767 3.32128E-04-1.16857E-04-1.04314E-16
 -1      1768 3.36212E-04-1.33058E-04-9.87979E-17
 -1      1769 3.42147E-04-1.52056E-04-9.18590E-17
 -1      1770 3.51694E-04-1.74058E-04-8.17217E-17
 -1      1771 4.58236E-04-1.88132E-04-1.43508E-16
 -1      1772 3.24599E-04-6.54365E-05-1.14004E-16
 -1      1773 3.25733E-04-7.67352E-05-1.12960E-16
 -1      1774 3.23135E-04-4.39287E-05-1.14993E-16
 -1      1775 3.23776E-04-5.44251E-05-1.14695E-16
 -1      1776 4.36569E-04-7.93452E-05-1.68743E-16
 -1      1777 3.22368E-04-2.37942E-05-1.14465E-16
 -1      1778 3.22692E-04-3.37160E-05-1.14953E-16
 -1      1779 4.34606E-04-5.13558E-05-1.69407E-16
 -1      1780 3.22082E-04-4.34203E-06-1.12703E-16
 -1      1781 3.22176E-04-1.40033E-05-1.13651E-16
 -1      1782 4.33606E-04-2.49437E-05-1.68092E-16
 -1      1783 3.22201E-04 1.49941E-05-1.10141E-16
 -1      1784 3.22090E-04 5.32261E-06-1.11659E-16
 -1      1785 4.33315E-04 7.56967E-07-1.65300E-16
 -1      1786 3.22756E-04 3.47603E-05-1.06130E-16
 -1      1787 3.22411E-04 2.48060E-05-1.08298E-16
 -1      1788 4.33664E-04 2.64866E-05-1.61085E-16
 -1      1789 3.23865E-04 5.52125E-05-1.00451E-16
 -1      1790 3.23212E-04 4.48429E-05-1.03582E-16
 -1      1791 4.34722E-04 5.27603E-05-1.54811E-16
 -1      1792 3.25893E-04 7.78747E-05-9.26857E-17
 -1      1793 3.24710E-04 6.62890E-05-9.70903E-17
 -1      1794 4.36746E-04 8.06552E-05-1.46340E-16
 -1      1795 3.29546E-04 1.03718E-04-8.17082E-17
 -1      1796 3.27416E-04 9.03659E-05-8.78746E-17
 -1      1797 4.40352E-04 1.11635E-04-1.34753E-16
 -1      1798 3.36541E-04 1.35172E-04-6.60957E-17
 -1      1799 3.32379E-04 1.18677E-04-7.48099E-17
 -1      1800 4.46772E-04 1.47407E-04-1.18259E-16
 -1      1801 3.52229E-04 1.77653E-04-4.32461E-17
 -1      1802 3.42753E-04 1.54815E-04-5.59719E-17
 -1      1803 4.59252E-04 1.91522E-04-9.49897E-17
 -1      1804 4.07597E-04 2.33722E-04-2.63597E-17
 -1      1805 3.78003E-04 2.02706E-04-3.72423E-17
 -1      1806 4.95749E-04 2.44049E-04-7.37664E-17
 -1      1807 5.58403E-04 3.02544E-04-5.57415E-17
 -1      1808 3.39943E-04-1.90945E-04-6.06611E-17
 -1      1809 8.53336E-04 4.07141E-04-1.66655E-16
 -1      1810 7.06978E-04 3.59412E-04-1.02701E-16
 -1      1811 6.73237E-04 3.28854E-04-1.14343E-16
 -1      1812 4.58854E-04-2.36768E-04-1.06550E-16
 -1      1813 8.07032E-04-3.74153E-04-2.81161E-16
 -1      1814 9.52256E-04-4.15316E-04-3.91221E-16
 -1      1815 1.09505E-03-4.49970E-04-5.20946E-16
 -1      1816 1.23667E-03-4.78820E-04-6.70701E-16
 -1      1817 1.00371E-03-3.97928E-04-4.76669E-16
 -1      1818 1.37703E-03-5.03245E-04-8.39674E-16
 -1      1819 1.51667E-03-5.23541E-04-1.02843E-15
 -1      1820 1.28933E-03-4.55800E-04-7.78864E-16
 -1      1821 1.65579E-03-5.40626E-04-1.23695E-15
 -1      1822 1.79458E-03-5.54734E-04-1.46461E-15
 -1      1823 1.57166E-03-4.96595E-04-1.15844E-15
 -1      1824 1.93325E-03-5.66470E-04-1.71129E-15
 -1      1825 2.07186E-03-5.76035E-04-1.97704E-15
 -1      1826 1.85221E-03-5.24906E-04-1.61462E-15
 -1      1827 2.21056E-03-5.83842E-04-2.26208E-15
 -1      1828 2.34936E-03-5.90058E-04-2.56551E-15
 -1      1829 2.13205E-03-5.44045E-04-2.14702E-15
 -1      1830 2.48837E-03-5.94973E-04-2.88720E-15
 -1      1831 2.62756E-03-5.98724E-04-3.22697E-15
 -1      1832 2.41186E-03-5.56433E-04-2.75306E-15
 -1      1833 2.76702E-03-6.01514E-04-3.58426E-15
 -1      1834 2.90669E-03-6.03452E-04-3.95838E-15
 -1      1835 2.69208E-03-5.63860E-04-3.43112E-15
 -1      1836 3.04665E-03-6.04680E-04-4.35037E-15
 -1      1837 3.18686E-03-6.05281E-04-4.75862E-15
 -1      1838 2.97293E-03-5.67648E-04-4.17918E-15
 -1      1839 3.32734E-03-6.05351E-04-5.18345E-15
 -1      1840 3.46808E-03-6.04954E-04-5.62504E-15
 -1      1841 3.25452E-03-5.68758E-04-4.99416E-15
 -1      1842 3.60909E-03-6.04152E-04-6.08221E-15
 -1      1843 3.75035E-03-6.02990E-04-6.55606E-15
 -1      1844 3.53692E-03-5.67871E-04-5.87490E-15
 -1      1845 3.89189E-03-6.01504E-04-7.04616E-15
 -1      1846 4.03368E-03-5.99730E-04-7.55234E-15
 -1      1847 3.82015E-03-5.65454E-04-6.82092E-15
 -1      1848 4.17576E-03-5.97685E-04-8.07407E-15
 -1      1849 4.31810E-03-5.95395E-04-8.61122E-15
 -1      1850 4.10424E-03-5.61811E-04-7.83184E-15
 -1      1851 4.46073E-03-5.92868E-04-9.16360E-15
 -1      1852 4.60366E-03-5.90125E-04-9.73120E-15
 -1      1853 4.38924E-03-5.57132E-04-8.90560E-15
 -1      1854 4.74691E-03-5.87169E-04-1.03146E-14
 -1      1855 4.89049E-03-5.84024E-04-1.09130E-14
 -1      1856 4.67522E-03-5.51536E-04-1.00404E-14
 -1      1857 5.03444E-03-5.80694E-04-1.15265E-14
 -1      1858 5.17879E-03-5.77209E-04-1.21557E-14
 -1      1859 4.96231E-03-5.45117E-04-1.12358E-14
 -1      1860 5.32355E-03-5.73586E-04-1.28011E-14
 -1      1861 5.46879E-03-5.69865E-04-1.34625E-14
 -1      1862 5.25069E-03-5.37994E-04-1.24935E-14
 -1      1863 5.61452E-03-5.66086E-04-1.41404E-14
 -1      1864 5.76082E-03-5.62308E-04-1.48351E-14
 -1      1865 5.54059E-03-5.30365E-04-1.38155E-14
 -1      1866 5.90770E-03-5.58603E-04-1.55474E-14
 -1      1867 6.05525E-03-5.55056E-04-1.62774E-14
 -1      1868 5.83229E-03-5.22573E-04-1.52042E-14
 -1      1869 6.20347E-03-5.51788E-04-1.70252E-14
 -1      1870 6.35246E-03-5.48918E-04-1.77902E-14
 -1      1871 6.12613E-03-5.15187E-04-1.66639E-14
 -1      1872 6.50223E-03-5.46627E-04-1.85718E-14
 -1      1873 6.65284E-03-5.45073E-04-1.93696E-14
 -1      1874 6.42248E-03-5.09080E-04-1.81914E-14
 -1      1875 6.80431E-03-5.44511E-04-2.01844E-14
 -1      1876 6.95667E-03-5.45139E-04-2.10150E-14
 -1      1877 6.72171E-03-5.05519E-04-1.97871E-14
 -1      1878 7.10995E-03-5.47285E-04-2.18616E-14
 -1      1879 7.26408E-03-5.51183E-04-2.27223E-14
 -1      1880 7.02418E-03-5.06226E-04-2.14469E-14
 -1      1881 7.41912E-03-5.57210E-04-2.35959E-14
 -1      1882 7.57487E-03-5.65612E-04-2.44829E-14
 -1      1883 7.33013E-03-5.13376E-04-2.31659E-14
 -1      1884 7.73145E-03-5.76758E-04-2.53836E-14
 -1      1885 7.88845E-03-5.90851E-04-2.62951E-14
 -1      1886 7.63961E-03-5.29467E-04-2.49385E-14
 -1      1887 8.04603E-03-6.08139E-04-2.72189E-14
 -1      1888 8.20358E-03-6.28691E-04-2.81562E-14
 -1      1889 7.95232E-03-5.56956E-04-2.67609E-14
 -1      1890 8.36130E-03-6.52468E-04-2.91051E-14
 -1      1891 8.51838E-03-6.79252E-04-3.00661E-14
 -1      1892 8.26742E-03-5.97551E-04-2.86341E-14
 -1      1893 8.67501E-03-7.08527E-04-3.10378E-14
 -1      1894 8.83033E-03-7.39631E-04-3.20204E-14
 -1      1895 8.58330E-03-6.51065E-04-3.05528E-14
 -1      1896 8.98443E-03-7.71437E-04-3.30171E-14
 -1      1897 9.13669E-03-8.02732E-04-3.40254E-14
 -1      1898 8.89753E-03-7.13960E-04-3.25186E-14
 -1      1899 9.28703E-03-8.31825E-04-3.50454E-14
 -1      1900 9.43537E-03-8.57091E-04-3.60763E-14
 -1      1901 9.20717E-03-7.78078E-04-3.45334E-14
 -1      1902 9.58150E-03-8.76618E-04-3.71204E-14
 -1      1903 9.72612E-03-8.88790E-04-3.81787E-14
 -1      1904 9.50985E-03-8.30661E-04-3.65943E-14
 -1      1905 9.86890E-03-8.92082E-04-3.92458E-14
 -1      1906 1.00113E-02-8.85509E-04-4.03245E-14
 -1      1907 9.80526E-03-8.56788E-04-3.87055E-14
 -1      1908 1.01529E-02-8.68549E-04-4.14153E-14
 -1      1909 1.02954E-02-8.41293E-04-4.25137E-14
 -1      1910 1.00961E-02-8.44283E-04-4.08610E-14
 -1      1911 1.04385E-02-8.04454E-04-4.36238E-14
 -1      1912 1.05834E-02-7.59152E-04-4.47421E-14
 -1      1913 1.03872E-02-7.88928E-04-4.30616E-14
 -1      1914 1.07299E-02-7.07022E-04-4.58676E-14
 -1      1915 1.08785E-02-6.49717E-04-4.70017E-14
 -1      1916 1.06833E-02-6.96457E-04-4.52940E-14
 -1      1917 1.10291E-02-5.89151E-04-4.81396E-14
 -1      1918 1.11814E-02-5.26899E-04-4.92834E-14
 -1      1919 1.09866E-02-5.79861E-04-4.75589E-14
 -1      1920 1.13354E-02-4.64573E-04-5.04337E-14
 -1      1921 1.14903E-02-4.03279E-04-5.15904E-14
 -1      1922 1.12963E-02-4.53989E-04-4.98476E-14
 -1      1923 1.16464E-02-3.44029E-04-5.27533E-14
 -1      1924 1.18026E-02-2.87385E-04-5.39195E-14
 -1      1925 1.16098E-02-3.30890E-04-5.21583E-14
 -1      1926 1.19593E-02-2.33748E-04-5.50949E-14
 -1      1927 1.21156E-02-1.83250E-04-5.62787E-14
 -1      1928 1.19241E-02-2.17800E-04-5.44961E-14
 -1      1929 1.22717E-02-1.35829E-04-5.74703E-14
 -1      1930 1.24269E-02-9.13478E-05-5.86693E-14
 -1      1931 1.22368E-02-1.17417E-04-5.68616E-14
 -1      1932 1.25816E-02-4.94705E-05-5.98732E-14
 -1      1933 1.27352E-02-9.92986E-06-6.10864E-14
 -1      1934 1.25465E-02-2.92340E-05-5.92566E-14
 -1      1935 1.28879E-02 2.77313E-05-6.23068E-14
 -1      1936 1.30395E-02 6.38252E-05-6.35278E-14
 -1      1937 1.28523E-02 4.90575E-05-6.16778E-14
 -1      1938 1.31900E-02 9.88286E-05-6.47532E-14
 -1      1939 1.33395E-02 1.33053E-04-6.59847E-14
 -1      1940 1.31541E-02 1.20515E-04-6.41198E-14
 -1      1941 1.34879E-02 1.66940E-04-6.72207E-14
 -1      1942 1.36354E-02 2.00781E-04-6.84577E-14
 -1      1943 1.34518E-02 1.88311E-04-6.65772E-14
 -1      1944 1.37819E-02 2.34942E-04-6.97025E-14
 -1      1945 1.39276E-02 2.69691E-04-7.09488E-14
 -1      1946 1.37458E-02 2.55402E-04-6.90540E-14
 -1      1947 1.40558E-02 2.99853E-04-7.20654E-14
 -1      1948 1.42001E-02 3.36386E-04-7.33191E-14
 -1      1949 1.42747E-02 3.80546E-04-7.36572E-14
 -1      1950 1.40198E-02 3.19020E-04-7.14130E-14
 -1      1951 1.13829E-03 4.80049E-04-3.46647E-16
 -1      1952 9.96570E-04 4.46832E-04-2.47618E-16
 -1      1953 9.64224E-04 4.17389E-04-2.61401E-16
 -1      1954 1.41729E-03 5.31423E-04-5.97870E-16
 -1      1955 1.27820E-03 5.08036E-04-4.63280E-16
 -1      1956 1.24861E-03 4.79914E-04-4.78174E-16
 -1      1957 1.69355E-03 5.67541E-04-9.20040E-16
 -1      1958 1.55558E-03 5.51145E-04-7.50024E-16
 -1      1959 1.52878E-03 5.23993E-04-7.65582E-16
 -1      1960 1.96900E-03 5.92561E-04-1.31332E-15
 -1      1961 1.83128E-03 5.81269E-04-1.10791E-15
 -1      1962 1.80692E-03 5.54762E-04-1.12401E-15
 -1      1963 2.24471E-03 6.09411E-04-1.77762E-15
 -1      1964 2.10677E-03 6.01884E-04-1.53668E-15
 -1      1965 2.08444E-03 5.75788E-04-1.55332E-15
 -1      1966 2.52126E-03 6.20231E-04-2.31347E-15
 -1      1967 2.38286E-03 6.15483E-04-2.03639E-15
 -1      1968 2.36217E-03 5.89643E-04-2.05330E-15
 -1      1969 2.79893E-03 6.26606E-04-2.92172E-15
 -1      1970 2.65995E-03 6.23907E-04-2.60814E-15
 -1      1971 2.64057E-03 5.98218E-04-2.62487E-15
 -1      1972 3.07781E-03 6.29701E-04-3.60355E-15
 -1      1973 2.93822E-03 6.28514E-04-3.25357E-15
 -1      1974 2.91988E-03 6.02907E-04-3.26909E-15
 -1      1975 3.35793E-03 6.30357E-04-4.35666E-15
 -1      1976 3.21772E-03 6.30299E-04-3.97124E-15
 -1      1977 3.20018E-03 6.04729E-04-3.98566E-15
 -1      1978 3.63926E-03 6.29162E-04-5.18415E-15
 -1      1979 3.49845E-03 6.29967E-04-4.76127E-15
 -1      1980 3.48153E-03 6.04407E-04-4.77473E-15
 -1      1981 3.92177E-03 6.26506E-04-6.08456E-15
 -1      1982 3.78037E-03 6.28001E-04-5.62460E-15
 -1      1983 3.76391E-03 6.02432E-04-5.63629E-15
 -1      1984 4.20547E-03 6.22624E-04-7.05954E-15
 -1      1985 4.06347E-03 6.24708E-04-6.56285E-15
 -1      1986 4.04734E-03 5.99120E-04-6.57166E-15
 -1      1987 4.49042E-03 6.17644E-04-8.10766E-15
 -1      1988 4.34778E-03 6.20265E-04-7.57482E-15
 -1      1989 4.33185E-03 5.94649E-04-7.58093E-15
 -1      1990 4.77676E-03 6.11618E-04-9.22473E-15
 -1      1991 4.63341E-03 6.14756E-04-8.65772E-15
 -1      1992 4.61755E-03 5.89102E-04-8.66039E-15
 -1      1993 5.06472E-03 6.04560E-04-1.04046E-14
 -1      1994 4.92052E-03 6.08210E-04-9.80706E-15
 -1      1995 4.90460E-03 5.82502E-04-9.80716E-15
 -1      1996 5.35465E-03 5.96498E-04-1.16514E-14
 -1      1997 5.20941E-03 6.00642E-04-1.10197E-14
 -1      1998 5.19325E-03 5.74855E-04-1.10170E-14
 -1      1999 5.64705E-03 5.87518E-04-1.29663E-14
 -1      2000 5.50050E-03 5.92100E-04-1.23004E-14
 -1      2001 5.48386E-03 5.66195E-04-1.22946E-14
 -1      2002 5.94256E-03 5.77848E-04-1.43524E-14
 -1      2003 5.79436E-03 5.82732E-04-1.36496E-14
 -1      2004 5.77692E-03 5.56649E-04-1.36413E-14
 -1      2005 6.24201E-03 5.67962E-04-1.58145E-14
 -1      2006 6.09172E-03 5.72871E-04-1.50743E-14
 -1      2007 6.07304E-03 5.46523E-04-1.50620E-14
 -1      2008 6.54644E-03 5.58736E-04-1.73463E-14
 -1      2009 6.39351E-03 5.63171E-04-1.65714E-14
 -1      2010 6.37301E-03 5.36428E-04-1.65550E-14
 -1      2011 6.85705E-03 5.51679E-04-1.89528E-14
 -1      2012 6.70086E-03 5.54791E-04-1.81415E-14
 -1      2013 6.67776E-03 5.27463E-04-1.81202E-14
 -1      2014 7.17519E-03 5.49263E-04-2.06269E-14
 -1      2015 7.01505E-03 5.49677E-04-1.97802E-14
 -1      2016 6.98836E-03 5.21486E-04-1.97543E-14
 -1      2017 7.50222E-03 5.55355E-04-2.23648E-14
 -1      2018 7.33746E-03 5.50939E-04-2.14876E-14
 -1      2019 7.30601E-03 5.21485E-04-2.14554E-14
 -1      2020 7.83933E-03 5.75727E-04-2.41701E-14
 -1      2021 7.66941E-03 5.63340E-04-2.32596E-14
 -1      2022 7.63194E-03 5.32051E-04-2.32234E-14
 -1      2023 8.18716E-03 6.18413E-04-2.60328E-14
 -1      2024 8.01190E-03 5.93762E-04-2.50944E-14
 -1      2025 7.96735E-03 5.59868E-04-2.50523E-14
 -1      2026 8.54532E-03 6.93384E-04-2.79482E-14
 -1      2027 8.36515E-03 6.51329E-04-2.69847E-14
 -1      2028 8.31318E-03 6.13925E-04-2.69370E-14
 -1      2029 8.91154E-03 8.10368E-04-2.99091E-14
 -1      2030 8.72794E-03 7.46323E-04-2.89227E-14
 -1      2031 8.66968E-03 7.04696E-04-2.88713E-14
 -1      2032 9.28073E-03 9.73370E-04-3.19127E-14
 -1      2033 9.09666E-03 8.86560E-04-3.09055E-14
 -1      2034 9.03541E-03 8.40969E-04-3.08502E-14
 -1      2035 9.64440E-03 1.17114E-03-3.39585E-14
 -1      2036 9.46431E-03 1.06969E-03-3.29300E-14
 -1      2037 9.40549E-03 1.02254E-03-3.28699E-14
 -1      2038 9.99299E-03 1.36830E-03-3.60550E-14
 -1      2039 9.82117E-03 1.27293E-03-3.50016E-14
 -1      2040 9.77058E-03 1.22910E-03-3.49364E-14
 -1      2041 1.03226E-02 1.51024E-03-3.81940E-14
 -1      2042 1.01594E-02 1.44932E-03-3.71183E-14
 -1      2043 1.01204E-02 1.41374E-03-3.70496E-14
 -1      2044 1.06423E-02 1.55057E-03-4.03838E-14
 -1      2045 1.04818E-02 1.54393E-03-3.92833E-14
 -1      2046 1.04539E-02 1.51719E-03-3.92114E-14
 -1      2047 1.09691E-02 1.48522E-03-4.26167E-14
 -1      2048 1.08031E-02 1.52875E-03-4.14945E-14
 -1      2049 1.07847E-02 1.50616E-03-4.14205E-14
 -1      2050 1.13143E-02 1.35597E-03-4.48910E-14
 -1      2051 1.11392E-02 1.42497E-03-4.37495E-14
 -1      2052 1.11292E-02 1.40096E-03-4.36702E-14
 -1      2053 1.16752E-02 1.21928E-03-4.72024E-14
 -1      2054 1.14935E-02 1.28602E-03-4.60429E-14
 -1      2055 1.14904E-02 1.25843E-03-4.59585E-14
 -1      2056 1.20426E-02 1.11353E-03-4.95454E-14
 -1      2057 1.18590E-02 1.16156E-03-4.83695E-14
 -1      2058 1.18590E-02 1.13123E-03-4.82810E-14
 -1      2059 1.24076E-02 1.05297E-03-5.19153E-14
 -1      2060 1.22261E-02 1.07776E-03-5.07271E-14
 -1      2061 1.22250E-02 1.04596E-03-5.06337E-14
 -1      2062 1.27645E-02 1.03510E-03-5.43038E-14
 -1      2063 1.25875E-02 1.03932E-03-5.31083E-14
 -1      2064 1.25821E-02 1.00696E-03-5.30091E-14
 -1      2065 1.31106E-02 1.05035E-03-5.67017E-14
 -1      2066 1.29391E-02 1.03925E-03-5.55022E-14
 -1      2067 1.29281E-02 1.00680E-03-5.54008E-14
 -1      2068 1.34453E-02 1.08827E-03-5.90906E-14
 -1      2069 1.32794E-02 1.06702E-03-5.78969E-14
 -1      2070 1.32630E-02 1.03475E-03-5.77921E-14
 -1      2071 1.37689E-02 1.14005E-03-6.14734E-14
 -1      2072 1.36084E-02 1.11283E-03-6.02852E-14
 -1      2073 1.35874E-02 1.08094E-03-6.01807E-14
 -1      2074 1.40825E-02 1.19896E-03-6.38479E-14
 -1      2075 1.39268E-02 1.16890E-03-6.26621E-14
 -1      2076 1.39025E-02 1.13752E-03-6.25566E-14
 -1      2077 1.43876E-02 1.26003E-03-6.62086E-14
 -1      2078 1.42360E-02 1.22943E-03-6.50271E-14
 -1      2079 1.42096E-02 1.19866E-03-6.49235E-14
 -1      2080 1.46857E-02 1.31957E-03-6.85738E-14
 -1      2081 1.45374E-02 1.29015E-03-6.73907E-14
 -1      2082 1.45098E-02 1.26007E-03-6.72856E-14
 -1      2083 1.49783E-02 1.37486E-03-7.09393E-14
 -1      2084 1.48326E-02 1.34785E-03-6.97574E-14
 -1      2085 1.48044E-02 1.31854E-03-6.96527E-14
 -1      2086 1.52143E-02 1.41292E-03-7.28893E-14
 -1      2087 1.50702E-02 1.38848E-03-7.17052E-14
 -1      2088 1.50419E-02 1.35981E-03-7.16011E-14
 -1      2089 1.52248E-02 1.38566E-03-7.31320E-14
 -1      2090 1.51042E-02 1.16580E-03-7.31346E-14
 -1      2091 1.51191E-02 1.20193E-03-7.30835E-14
 -1      2092 1.51339E-02 1.23915E-03-7.30360E-14
 -1      2093 1.51491E-02 1.27741E-03-7.29916E-14
 -1      2094 1.50038E-02 1.19835E-03-7.20393E-14
 -1      2095 1.51774E-02 1.31091E-03-7.30856E-14
 -1      2096 1.51945E-02 1.35092E-03-7.30378E-14
 -1      2097 1.51033E-02 1.33810E-03-7.22730E-14
 -1      2098 1.50458E-02 1.26965E-03-7.20844E-14
 -1      2099 1.50728E-02 1.09769E-03-7.32405E-14
 -1      2100 1.50890E-02 1.13129E-03-7.31861E-14
 -1      2101 1.49752E-02 1.12625E-03-7.21399E-14
 -1      2102 1.50352E-02 1.03182E-03-7.33605E-14
 -1      2103 1.50549E-02 1.06442E-03-7.32976E-14
 -1      2104 1.49432E-02 1.05788E-03-7.22447E-14
 -1      2105 1.49891E-02 9.68263E-04-7.34901E-14
 -1      2106 1.50133E-02 9.99878E-04-7.34251E-14
 -1      2107 1.49043E-02 9.91857E-04-7.23615E-14
 -1      2108 1.49332E-02 9.05636E-04-7.36277E-14
 -1      2109 1.49624E-02 9.36971E-04-7.35587E-14
 -1      2110 1.48560E-02 9.27587E-04-7.24875E-14
 -1      2111 1.48673E-02 8.42495E-04-7.37588E-14
 -1      2112 1.49015E-02 8.74257E-04-7.36918E-14
 -1      2113 1.47975E-02 8.63706E-04-7.26150E-14
 -1      2114 1.47924E-02 7.77551E-04-7.38874E-14
 -1      2115 1.48309E-02 8.10350E-04-7.38233E-14
 -1      2116 1.47288E-02 7.98889E-04-7.27401E-14
 -1      2117 1.47119E-02 7.10997E-04-7.40102E-14
 -1      2118 1.47529E-02 7.44674E-04-7.39499E-14
 -1      2119 1.46521E-02 7.32600E-04-7.28619E-14
 -1      2120 1.46255E-02 6.39945E-04-7.41317E-14
 -1      2121 1.46691E-02 6.75920E-04-7.40739E-14
 -1      2122 1.45689E-02 6.63535E-04-7.29788E-14
 -1      2123 1.45372E-02 5.65318E-04-7.42458E-14
 -1      2124 1.45814E-02 6.03066E-04-7.41881E-14
 -1      2125 1.44810E-02 5.90652E-04-7.30892E-14
 -1      2126 1.44498E-02 4.87266E-04-7.43465E-14
 -1      2127 1.44932E-02 5.26677E-04-7.42964E-14
 -1      2128 1.43920E-02 5.14454E-04-7.31900E-14
 -1      2129 1.22797E-02 5.93640E-04-4.60583E-14
 -1      2130 1.24144E-02 5.46391E-04-4.62958E-14
 -1      2131 1.26215E-02 4.52270E-04-4.69757E-14
 -1      2132 1.26073E-02 4.36589E-04-4.69490E-14
 -1      2133 1.25188E-02 5.05647E-04-4.65569E-14
 -1      2134 1.25874E-02 4.79869E-04-4.67647E-14
 -1      2135 1.18902E-02 7.71085E-04-4.50641E-14
 -1      2136 1.20672E-02 6.82914E-04-4.55824E-14
 -1      2137 1.15150E-02 9.72222E-04-4.39970E-14
 -1      2138 1.17074E-02 8.67285E-04-4.45288E-14
 -1      2139 1.17865E-02 8.06553E-04-4.51833E-14
 -1      2140 3.27217E-04-8.90423E-05-1.11036E-16
 -1      2141 3.29308E-04-1.02221E-04-1.08176E-16
 -1      2142 4.46322E-04-1.45202E-04-1.57643E-16
 -1      2143 4.40065E-04-1.10024E-04-1.65327E-16
 -1      2144 1.07612E-02 1.35067E-03-4.13086E-14
 -1      2145 1.09222E-02 1.28743E-03-4.19296E-14
 -1      2146 1.03998E-02 1.39868E-03-3.97870E-14
 -1      2147 1.05522E-02 1.39681E-03-4.04514E-14
 -1      2148 1.00864E-02 1.31428E-03-3.85447E-14
 -1      2149 1.02437E-02 1.37081E-03-3.91649E-14
 -1      2150 1.03396E-02 1.39904E-03-3.94264E-14
 -1      2151 9.70079E-03 1.11203E-03-3.72193E-14
 -1      2152 9.87380E-03 1.21625E-03-3.78126E-14
 -1      2153 9.26747E-03 8.51439E-04-3.60627E-14
 -1      2154 9.46275E-03 9.67083E-04-3.65151E-14
 -1      2155 8.88315E-03 6.42229E-04-3.52985E-14
 -1      2156 9.07468E-03 7.46462E-04-3.56796E-14
 -1      2157 9.20253E-03 7.80523E-04-3.55594E-14
 -1      2158 8.49049E-03 4.44753E-04-3.45133E-14
 -1      2159 8.66457E-03 5.27722E-04-3.48523E-14
 -1      2160 8.18336E-03 3.24472E-04-3.40479E-14
 -1      2161 8.30188E-03 3.62644E-04-3.41621E-14
 -1      2162 8.04981E-03 2.73240E-04-3.39724E-14
 -1      2163 8.09638E-03 2.93868E-04-3.40151E-14
 -1      2164 8.05931E-03 2.32238E-04-3.40141E-14
 -1      2165 8.03582E-03 2.49399E-04-3.39707E-14
 -1      2166 8.22266E-03 1.75465E-04-3.42430E-14
 -1      2167 8.12464E-03 2.04929E-04-3.40953E-14
 -1      2168 8.54329E-03 5.88205E-05-3.48499E-14
 -1      2169 8.38571E-03 1.20164E-04-3.44964E-14
 -1      2170 8.91094E-03-1.21950E-04-3.58995E-14
 -1      2171 8.73697E-03-3.57570E-05-3.54465E-14
 -1      2172 9.27541E-03-3.03238E-04-3.68385E-14
 -1      2173 9.10535E-03-2.14005E-04-3.63581E-14
 -1      2174 9.61282E-03-4.69230E-04-3.79179E-14
 -1      2175 9.44679E-03-3.89079E-04-3.73762E-14
 -1      2176 9.36749E-03-3.36917E-04-3.68334E-14
 -1      2177 9.97184E-03-5.96328E-04-3.93281E-14
 -1      2178 9.82735E-03-5.53539E-04-3.87259E-14
 -1      2179 1.02601E-02-6.13586E-04-4.05425E-14
 -1      2180 1.01255E-02-6.15435E-04-3.99680E-14
 -1      2181 1.05614E-02-5.41327E-04-4.17733E-14
 -1      2182 1.04211E-02-5.86529E-04-4.12053E-14
 -1      2183 1.08747E-02-3.94274E-04-4.29519E-14
 -1      2184 1.07181E-02-4.77406E-04-4.23612E-14
 -1      2185 1.06124E-02-5.16335E-04-4.21703E-14
 -1      2186 1.12620E-02-1.72104E-04-4.42156E-14
 -1      2187 1.10858E-02-2.72894E-04-4.37191E-14
 -1      2188 1.16454E-02 4.09288E-05-4.52276E-14
 -1      2189 1.14629E-02-5.72401E-05-4.47923E-14
 -1      2190 1.20447E-02 2.16774E-04-4.59384E-14
 -1      2191 1.18675E-02 1.40142E-04-4.56170E-14
 -1      2192 1.23522E-02 3.34106E-04-4.64353E-14
 -1      2193 1.22182E-02 2.85040E-04-4.62134E-14
 -1      2194 1.25636E-02 4.14089E-04-4.68514E-14
 -1      2195 1.24886E-02 3.89943E-04-4.67525E-14
 -1      2196 1.25963E-02 4.41294E-04-4.75195E-14
 -1      2197 1.10973E-02 1.20658E-03-4.25588E-14
 -1      2198 1.12743E-02 1.10738E-03-4.31905E-14
 -1      2199 1.09967E-02 1.25173E-03-4.23968E-14
 -1      2200 6.07743E-04-2.98183E-04-1.71534E-16
 -1      2201 1.13846E-02 1.03475E-03-4.38367E-14
 -1      2202 6.63477E-04-2.92479E-04-2.28021E-16
 -1      2203 1.24744E-02 5.14494E-04-4.69378E-14
 -1      2204 1.26174E-02 4.66026E-04-4.74091E-14
 -1      2205 1.43738E-02 4.44153E-04-7.40127E-14
 -1      2206 1.21724E-02 6.23423E-04-4.61984E-14
 -1      2207 1.22693E-02 5.82983E-04-4.68162E-14
 -1      2208 1.20738E-02 6.62850E-04-4.63369E-14
 -1      2209 1.24307E-02 3.89128E-04-4.71010E-14
 -1      2210 1.21215E-02 2.78896E-04-4.65070E-14
 -1      2211 1.17398E-02 1.16862E-04-4.58408E-14
 -1      2212 1.09540E-02-3.32035E-04-4.35265E-14
 -1      2213 1.03299E-02-6.10408E-04-4.09192E-14
 -1      2214 9.72233E-03-5.15097E-04-3.81707E-14
 -1      2215 9.02853E-03-1.57988E-04-3.58423E-14
 -1      2216 8.64780E-03 2.49710E-05-3.47913E-14
 -1      2217 8.29901E-03 1.57308E-04-3.39491E-14
 -1      2218 8.08192E-03 2.22317E-04-3.36170E-14
 -1      2219 8.03431E-03 2.53427E-04-3.35362E-14
 -1      2220 8.13449E-03 2.89087E-04-3.35669E-14
 -1      2221 8.80280E-03 5.62632E-04-3.47355E-14
 -1      2222 1.00182E-02 1.27957E-03-3.80723E-14
 -1      2223 1.06501E-02 1.38815E-03-4.09052E-14
 -1      2224 9.60435E-03 1.03346E-03-3.66399E-14
 -1      2225 8.39826E-03 3.78063E-04-3.39446E-14
 -1      2226 1.00508E-02-6.17104E-04-3.96175E-14
 -1      2227 1.13414E-02-9.48226E-05-4.48731E-14
 -1      2228 1.01637E-03 3.99825E-04-3.41619E-16
 -1      2229 8.71937E-04 3.63466E-04-2.46792E-16
 -1      2230 5.47913E-04-5.53405E-05-2.40029E-16
 -1      2231 5.48934E-04-7.20672E-05-2.40259E-16
 -1      2232 5.50334E-04-8.94002E-05-2.39961E-16
 -1      2233 5.52177E-04-1.07386E-04-2.38755E-16
 -1      2234 6.65417E-04-9.55473E-05-3.25084E-16
 -1      2235 5.46553E-04 8.86192E-06-2.33429E-16
 -1      2236 5.46533E-04-6.98758E-06-2.35868E-16
 -1      2237 5.47298E-04 4.08966E-05-2.26842E-16
 -1      2238 5.46805E-04 2.48104E-05-2.30488E-16
 -1      2239 6.61524E-04 1.99414E-05-3.14297E-16
 -1      2240 5.49100E-04 7.35398E-05-2.17857E-16
 -1      2241 5.48051E-04 5.70370E-05-2.22804E-16
 -1      2242 6.62833E-04 5.78194E-05-3.05040E-16
 -1      2243 5.52454E-04 1.09030E-04-2.05429E-16
 -1      2244 5.50551E-04 9.09472E-05-2.12083E-16
 -1      2245 6.65661E-04 9.73083E-05-2.92369E-16
 -1      2246 5.58282E-04 1.48376E-04-1.88570E-16
 -1      2247 5.54991E-04 1.28147E-04-1.97677E-16
 -1      2248 6.70701E-04 1.40095E-04-2.75211E-16
 -1      2249 5.68550E-04 1.93975E-04-1.65260E-16
 -1      2250 5.62742E-04 1.70258E-04-1.78012E-16
 -1      2251 6.79284E-04 1.87647E-04-2.52158E-16
 -1      2252 1.30175E-03 4.56675E-04-5.83409E-16
 -1      2253 1.15947E-03 4.30786E-04-4.53657E-16
 -1      2254 1.07159E-03 3.81337E-04-4.26417E-16
 -1      2255 9.15027E-04-3.46419E-04-4.31485E-16
 -1      2256 1.05909E-03-3.79704E-04-5.65181E-16
 -1      2257 1.12655E-02 1.10511E-03-4.37411E-14
 -1      2258 1.14760E-02 9.77980E-04-4.45528E-14
 -1      2259 1.24322E-02 5.26170E-04-4.73312E-14
 -1      2260 1.25287E-02 4.99593E-04-4.75925E-14
 -1      2261 1.20232E-03-4.08039E-04-7.17606E-16
 -1      2262 1.34511E-03-4.31853E-04-8.89330E-16
 -1      2263 1.11683E-03-3.60502E-04-6.56430E-16
 -1      2264 1.48725E-03-4.51996E-04-1.08034E-15
 -1      2265 1.62900E-03-4.68738E-04-1.29023E-15
 -1      2266 1.40312E-03-4.07149E-04-1.00240E-15
 -1      2267 1.77040E-03-4.82750E-04-1.51905E-15
 -1      2268 1.91155E-03-4.94245E-04-1.76648E-15
 -1      2269 1.68822E-03-4.40195E-04-1.42358E-15
 -1      2270 2.05256E-03-5.03711E-04-2.03235E-15
 -1      2271 2.19346E-03-5.11322E-04-2.31725E-15
 -1      2272 1.97238E-03-4.62953E-04-1.91902E-15
 -1      2273 2.33434E-03-5.17433E-04-2.61961E-15
 -1      2274 2.47522E-03-5.22182E-04-2.94078E-15
 -1      2275 2.25600E-03-4.78035E-04-2.48763E-15
 -1      2276 2.61617E-03-5.25825E-04-3.27959E-15
 -1      2277 2.75718E-03-5.28474E-04-3.63514E-15
 -1      2278 2.53942E-03-4.87440E-04-3.12879E-15
 -1      2279 2.89831E-03-5.30309E-04-4.00834E-15
 -1      2280 3.03953E-03-5.31416E-04-4.39883E-15
 -1      2281 2.82288E-03-4.92673E-04-3.83936E-15
 -1      2282 3.18090E-03-5.31923E-04-4.80564E-15
 -1      2283 3.32239E-03-5.31892E-04-5.22919E-15
 -1      2284 3.10654E-03-4.94844E-04-4.61823E-15
 -1      2285 3.46404E-03-5.31408E-04-5.66895E-15
 -1      2286 3.60583E-03-5.30519E-04-6.12464E-15
 -1      2287 3.39050E-03-4.94754E-04-5.46382E-15
 -1      2288 3.74779E-03-5.29277E-04-6.59700E-15
 -1      2289 3.88990E-03-5.27715E-04-7.08586E-15
 -1      2290 3.67484E-03-4.92959E-04-6.37465E-15
 -1      2291 4.03218E-03-5.25865E-04-7.59032E-15
 -1      2292 4.17462E-03-5.23748E-04-8.11134E-15
 -1      2293 3.95960E-03-4.89828E-04-7.35028E-15
 -1      2294 4.31725E-03-5.21381E-04-8.64818E-15
 -1      2295 4.46007E-03-5.18780E-04-9.19983E-15
 -1      2296 4.24484E-03-4.85593E-04-8.39010E-15
 -1      2297 4.60309E-03-5.15951E-04-9.76640E-15
 -1      2298 4.74632E-03-5.12911E-04-1.03487E-14
 -1      2299 4.53059E-03-4.80390E-04-9.49331E-15
 -1      2300 4.88978E-03-5.09664E-04-1.09461E-14
 -1      2301 5.03350E-03-5.06229E-04-1.15581E-14
 -1      2302 4.81695E-03-4.74304E-04-1.06563E-14
 -1      2303 5.17747E-03-5.02617E-04-1.21865E-14
 -1      2304 5.32175E-03-4.98854E-04-1.28317E-14
 -1      2305 5.10402E-03-4.67416E-04-1.18809E-14
 -1      2306 5.46634E-03-4.94968E-04-1.34927E-14
 -1      2307 5.61129E-03-4.90999E-04-1.41696E-14
 -1      2308 5.39193E-03-4.59848E-04-1.31699E-14
 -1      2309 5.75662E-03-4.86999E-04-1.48636E-14
 -1      2310 5.90239E-03-4.83033E-04-1.55749E-14
 -1      2311 5.68088E-03-4.51825E-04-1.45238E-14
 -1      2312 6.04861E-03-4.79190E-04-1.63034E-14
 -1      2313 6.19536E-03-4.75565E-04-1.70500E-14
 -1      2314 5.97111E-03-4.43739E-04-1.59455E-14
 -1      2315 6.34265E-03-4.72299E-04-1.78138E-14
 -1      2316 6.49058E-03-4.69525E-04-1.85941E-14
 -1      2317 6.26295E-03-4.36229E-04-1.74366E-14
 -1      2318 6.63916E-03-4.67448E-04-1.93918E-14
 -1      2319 6.78846E-03-4.66251E-04-2.02044E-14
 -1      2320 6.55679E-03-4.30267E-04-1.89964E-14
 -1      2321 6.93856E-03-4.66201E-04-2.10330E-14
 -1      2322 7.08949E-03-4.67543E-04-2.18782E-14
 -1      2323 6.85317E-03-4.27238E-04-2.06213E-14
 -1      2324 7.24135E-03-4.70597E-04-2.27363E-14
 -1      2325 7.39410E-03-4.75665E-04-2.36089E-14
 -1      2326 7.15273E-03-4.29005E-04-2.23082E-14
 -1      2327 7.54793E-03-4.83086E-04-2.44953E-14
 -1      2328 7.70268E-03-4.93196E-04-2.53945E-14
 -1      2329 7.45622E-03-4.37902E-04-2.40519E-14
 -1      2330 7.85859E-03-5.06286E-04-2.63044E-14
 -1      2331 8.01532E-03-5.22655E-04-2.72273E-14
 -1      2332 7.76440E-03-4.56607E-04-2.58484E-14
 -1      2333 8.17316E-03-5.42432E-04-2.81628E-14
 -1      2334 8.33155E-03-5.65746E-04-2.91106E-14
 -1      2335 8.07780E-03-4.87762E-04-2.76927E-14
 -1      2336 8.49075E-03-5.92402E-04-3.00701E-14
 -1      2337 8.64996E-03-6.22113E-04-3.10395E-14
 -1      2338 8.39631E-03-5.33204E-04-2.95865E-14
 -1      2339 8.80930E-03-6.54187E-04-3.20215E-14
 -1      2340 8.96789E-03-6.87674E-04-3.30158E-14
 -1      2341 8.71846E-03-5.92551E-04-3.15263E-14
 -1      2342 9.12564E-03-7.21266E-04-3.40217E-14
 -1      2343 9.28186E-03-7.53179E-04-3.50395E-14
 -1      2344 9.04112E-03-6.61229E-04-3.35112E-14
 -1      2345 9.43623E-03-7.81632E-04-3.60694E-14
 -1      2346 9.58881E-03-8.04264E-04-3.71120E-14
 -1      2347 9.35980E-03-7.28631E-04-3.55456E-14
 -1      2348 9.73918E-03-8.19242E-04-3.81668E-14
 -1      2349 9.88840E-03-8.24530E-04-3.92325E-14
 -1      2350 9.67075E-03-7.78168E-04-3.76280E-14
 -1      2351 1.00361E-02-8.18969E-04-4.03109E-14
 -1      2352 1.01840E-02-8.01829E-04-4.13998E-14
 -1      2353 9.97395E-03-7.91582E-04-3.97595E-14
 -1      2354 1.03319E-02-7.73224E-04-4.24975E-14
 -1      2355 1.04815E-02-7.34133E-04-4.36049E-14
 -1      2356 1.02742E-02-7.57037E-04-4.19354E-14
 -1      2357 1.06323E-02-6.85870E-04-4.47219E-14
 -1      2358 1.07853E-02-6.30605E-04-4.58463E-14
 -1      2359 1.05783E-02-6.75632E-04-4.41483E-14
 -1      2360 1.09401E-02-5.70205E-04-4.69771E-14
 -1      2361 1.10965E-02-5.06982E-04-4.81152E-14
 -1      2362 1.08903E-02-5.60795E-04-4.63962E-14
 -1      2363 1.12543E-02-4.42668E-04-4.92598E-14
 -1      2364 1.14127E-02-3.78900E-04-5.04095E-14
 -1      2365 1.12096E-02-4.31034E-04-4.86722E-14
 -1      2366 1.15717E-02-3.16872E-04-5.15664E-14
 -1      2367 1.17303E-02-2.57404E-04-5.27293E-14
 -1      2368 1.15319E-02-3.02112E-04-5.09731E-14
 -1      2369 1.18887E-02-2.01075E-04-5.38957E-14
 -1      2370 1.20462E-02-1.48060E-04-5.50703E-14
 -1      2371 1.18529E-02-1.83497E-04-5.32961E-14
 -1      2372 1.22029E-02-9.84587E-05-5.62550E-14
 -1      2373 1.23585E-02-5.20695E-05-5.74455E-14
 -1      2374 1.21696E-02-7.87876E-05-5.56471E-14
 -1      2375 1.25131E-02-8.67931E-06-5.86406E-14
 -1      2376 1.26664E-02 3.20664E-05-5.98438E-14
 -1      2377 1.24809E-02 1.23494E-05-5.80259E-14
 -1      2378 1.28187E-02 7.05429E-05-6.10520E-14
 -1      2379 1.29699E-02 1.07140E-04-6.22676E-14
 -1      2380 1.27868E-02 9.22916E-05-6.04295E-14
 -1      2381 1.31200E-02 1.42287E-04-6.34887E-14
 -1      2382 1.32691E-02 1.76353E-04-6.47106E-14
 -1      2383 1.30877E-02 1.64193E-04-6.28551E-14
 -1      2384 1.34173E-02 2.09758E-04-6.59365E-14
 -1      2385 1.35646E-02 2.42834E-04-6.71680E-14
 -1      2386 1.33845E-02 2.31294E-04-6.52995E-14
 -1      2387 1.37111E-02 2.75954E-04-6.84043E-14
 -1      2388 1.38567E-02 3.09418E-04-6.96455E-14
 -1      2389 1.36778E-02 2.96611E-04-6.77580E-14
 -1      2390 1.86476E-03 5.24767E-04-1.27753E-15
 -1      2391 1.72457E-03 5.12157E-04-1.07756E-15
 -1      2392 2.14476E-03 5.43670E-04-1.73045E-15
 -1      2393 2.00481E-03 5.35212E-04-1.49514E-15
 -1      2394 1.92420E-03 4.94082E-04-1.43470E-15
 -1      2395 2.42475E-03 5.55923E-04-2.25395E-15
 -1      2396 2.28474E-03 5.50525E-04-1.98321E-15
 -1      2397 2.20626E-03 5.10933E-04-1.91119E-15
 -1      2398 2.70514E-03 5.63285E-04-2.84882E-15
 -1      2399 2.56489E-03 5.60137E-04-2.54267E-15
 -1      2400 2.48818E-03 5.21664E-04-2.45778E-15
 -1      2401 2.98613E-03 5.67055E-04-3.51638E-15
 -1      2402 2.84556E-03 5.65560E-04-3.17326E-15
 -1      2403 2.77028E-03 5.27897E-04-3.07583E-15
 -1      2404 3.26786E-03 5.68172E-04-4.25461E-15
 -1      2405 3.12691E-03 5.67901E-04-3.87667E-15
 -1      2406 3.05276E-03 5.30824E-04-3.76543E-15
 -1      2407 3.55037E-03 5.67297E-04-5.06583E-15
 -1      2408 3.40902E-03 5.67952E-04-4.65101E-15
 -1      2409 3.33574E-03 5.31307E-04-4.52607E-15
 -1      2410 3.83370E-03 5.64872E-04-5.94914E-15
 -1      2411 3.69194E-03 5.66257E-04-5.49842E-15
 -1      2412 3.61929E-03 5.29943E-04-5.35837E-15
 -1      2413 4.11790E-03 5.61169E-04-6.90530E-15
 -1      2414 3.97569E-03 5.63166E-04-6.41802E-15
 -1      2415 3.90345E-03 5.27124E-04-6.26365E-15
 -1      2416 4.40300E-03 5.56334E-04-7.93426E-15
 -1      2417 4.26033E-03 5.58884E-04-7.41113E-15
 -1      2418 4.18828E-03 5.23083E-04-7.24032E-15
 -1      2419 4.68913E-03 5.50426E-04-9.03142E-15
 -1      2420 4.54593E-03 5.53508E-04-8.47368E-15
 -1      2421 4.47382E-03 5.17937E-04-8.28783E-15
 -1      2422 4.97642E-03 5.43452E-04-1.01944E-14
 -1      2423 4.83261E-03 5.47067E-04-9.60522E-15
 -1      2424 4.76019E-03 5.11724E-04-9.40270E-15
 -1      2425 5.26512E-03 5.35411E-04-1.14237E-14
 -1      2426 5.12057E-03 5.39557E-04-1.08012E-14
 -1      2427 5.04750E-03 5.04440E-04-1.05849E-14
 -1      2428 5.55551E-03 5.26342E-04-1.27193E-14
 -1      2429 5.41006E-03 5.30992E-04-1.20622E-14
 -1      2430 5.33593E-03 4.96084E-04-1.18314E-14
 -1      2431 5.84800E-03 5.16394E-04-1.40848E-14
 -1      2432 5.70144E-03 5.21455E-04-1.33933E-14
 -1      2433 5.62572E-03 4.86708E-04-1.31450E-14
 -1      2434 6.14308E-03 5.05917E-04-1.55249E-14
 -1      2435 5.99515E-03 5.11183E-04-1.47958E-14
 -1      2436 5.91714E-03 4.76493E-04-1.45303E-14
 -1      2437 6.44136E-03 4.95594E-04-1.70342E-14
 -1      2438 6.29174E-03 5.00672E-04-1.62712E-14
 -1      2439 6.21054E-03 4.65838E-04-1.59875E-14
 -1      2440 6.74356E-03 4.86643E-04-1.86171E-14
 -1      2441 6.59187E-03 4.90845E-04-1.78165E-14
 -1      2442 6.50635E-03 4.55506E-04-1.75157E-14
 -1      2443 7.05053E-03 4.81086E-04-2.02662E-14
 -1      2444 6.89633E-03 4.83281E-04-1.94321E-14
 -1      2445 6.80508E-03 4.46822E-04-1.91122E-14
 -1      2446 7.36330E-03 4.82135E-04-2.19821E-14
 -1      2447 7.20607E-03 4.80542E-04-2.11163E-14
 -1      2448 7.10741E-03 4.41946E-04-2.07770E-14
 -1      2449 7.68313E-03 4.94662E-04-2.37637E-14
 -1      2450 7.52221E-03 4.86601E-04-2.28650E-14
 -1      2451 7.41430E-03 4.44241E-04-2.25087E-14
 -1      2452 8.01165E-03 5.25663E-04-2.56045E-14
 -1      2453 7.84622E-03 5.07332E-04-2.46774E-14
 -1      2454 7.72725E-03 4.58722E-04-2.43040E-14
 -1      2455 8.35094E-03 5.84437E-04-2.74995E-14
 -1      2456 8.17997E-03 5.50873E-04-2.65453E-14
 -1      2457 8.04867E-03 4.92508E-04-2.61566E-14
 -1      2458 8.70327E-03 6.81787E-04-2.94438E-14
 -1      2459 8.52573E-03 6.27507E-04-2.84660E-14
 -1      2460 8.38228E-03 5.55131E-04-2.80611E-14
 -1      2461 9.06953E-03 8.26690E-04-3.14298E-14
 -1      2462 8.88531E-03 7.47792E-04-3.04311E-14
 -1      2463 8.73267E-03 6.57984E-04-3.00140E-14
 -1      2464 9.44604E-03 1.01841E-03-3.34574E-14
 -1      2465 9.25776E-03 9.17412E-04-3.24380E-14
 -1      2466 9.10301E-03 8.11294E-04-3.20082E-14
 -1      2467 9.82172E-03 1.23266E-03-3.55331E-14
 -1      2468 9.63552E-03 1.12560E-03-3.44886E-14
 -1      2469 9.48963E-03 1.01459E-03-3.40440E-14
 -1      2470 1.01816E-02 1.41431E-03-3.76567E-14
 -1      2471 1.00036E-02 1.33270E-03-3.65896E-14
 -1      2472 9.87666E-03 1.23921E-03-3.61281E-14
 -1      2473 1.05248E-02 1.49581E-03-3.98293E-14
 -1      2474 1.03527E-02 1.47129E-03-3.87367E-14
 -1      2475 1.02457E-02 1.41604E-03-3.82635E-14
 -1      2476 1.08698E-02 1.45015E-03-4.20474E-14
 -1      2477 1.06941E-02 1.48741E-03-4.09331E-14
 -1      2478 1.06004E-02 1.46779E-03-4.04464E-14
 -1      2479 1.12329E-02 1.31713E-03-4.43047E-14
 -1      2480 1.10488E-02 1.38926E-03-4.31708E-14
 -1      2481 1.09647E-02 1.38119E-03-4.26738E-14
 -1      2482 1.16087E-02 1.16794E-03-4.66010E-14
 -1      2483 1.14207E-02 1.24083E-03-4.54489E-14
 -1      2484 1.13477E-02 1.22400E-03-4.49405E-14
 -1      2485 1.19825E-02 1.05016E-03-4.89266E-14
 -1      2486 1.17974E-02 1.10363E-03-4.77596E-14
 -1      2487 1.17354E-02 1.07510E-03-4.72424E-14
 -1      2488 1.23444E-02 9.80470E-04-5.12804E-14
 -1      2489 1.21658E-02 1.00931E-03-5.01005E-14
 -1      2490 1.21099E-02 9.71637E-04-4.95700E-14
 -1      2491 1.26919E-02 9.56401E-04-5.36569E-14
 -1      2492 1.25202E-02 9.63403E-04-5.24664E-14
 -1      2493 1.24643E-02 9.19674E-04-5.19276E-14
 -1      2494 1.30263E-02 9.67662E-04-5.60466E-14
 -1      2495 1.28607E-02 9.58330E-04-5.48511E-14
 -1      2496 1.28004E-02 9.10596E-04-5.43037E-14
 -1      2497 1.33500E-02 1.00338E-03-5.84333E-14
 -1      2498 1.31894E-02 9.83063E-04-5.72403E-14
 -1      2499 1.31229E-02 9.32543E-04-5.66884E-14
 -1      2500 1.36648E-02 1.05440E-03-6.08149E-14
 -1      2501 1.35084E-02 1.02744E-03-5.96260E-14
 -1      2502 1.34357E-02 9.75129E-04-5.90719E-14
 -1      2503 1.39723E-02 1.11372E-03-6.31922E-14
 -1      2504 1.38194E-02 1.08337E-03-6.20047E-14
 -1      2505 1.37414E-02 1.03018E-03-6.14530E-14
 -1      2506 1.42737E-02 1.17613E-03-6.55554E-14
 -1      2507 1.41237E-02 1.14480E-03-6.43757E-14
 -1      2508 1.40419E-02 1.09158E-03-6.38247E-14
 -1      2509 1.45700E-02 1.23778E-03-6.79212E-14
 -1      2510 1.44224E-02 1.20726E-03-6.67378E-14
 -1      2511 1.43381E-02 1.15477E-03-6.61901E-14
 -1      2512 1.48619E-02 1.29575E-03-7.02863E-14
 -1      2513 1.47164E-02 1.26739E-03-6.91025E-14
 -1      2514 1.46306E-02 1.21630E-03-6.85548E-14
 -1      2515 1.50118E-02 1.32457E-03-7.15066E-14
 -1      2516 1.48139E-02 1.01691E-03-7.12458E-14
 -1      2517 1.48311E-02 1.05080E-03-7.11924E-14
 -1      2518 1.47734E-02 9.50954E-04-7.13578E-14
 -1      2519 1.47948E-02 9.83727E-04-7.13005E-14
 -1      2520 1.46850E-02 9.75249E-04-7.02437E-14
 -1      2521 1.48743E-02 1.15625E-03-7.10419E-14
 -1      2522 1.48879E-02 1.19378E-03-7.09921E-14
 -1      2523 1.48465E-02 1.08512E-03-7.11411E-14
 -1      2524 1.48606E-02 1.12006E-03-7.10903E-14
 -1      2525 1.47454E-02 1.11343E-03-7.00408E-14
 -1      2526 1.47182E-02 1.04281E-03-7.01399E-14
 -1      2527 1.47228E-02 8.86254E-04-7.14794E-14
 -1      2528 1.47494E-02 9.18575E-04-7.14189E-14
 -1      2529 1.46426E-02 9.09583E-04-7.03538E-14
 -1      2530 1.46614E-02 8.21439E-04-7.16024E-14
 -1      2531 1.46934E-02 8.53984E-04-7.15423E-14
 -1      2532 1.45893E-02 8.44690E-04-7.04720E-14
 -1      2533 1.45898E-02 7.55258E-04-7.17228E-14
 -1      2534 1.46268E-02 7.88621E-04-7.16610E-14
 -1      2535 1.45249E-02 7.79156E-04-7.05888E-14
 -1      2536 1.45112E-02 6.87931E-04-7.18336E-14
 -1      2537 1.45514E-02 7.21944E-04-7.17788E-14
 -1      2538 1.44509E-02 7.12372E-04-7.06988E-14
 -1      2539 1.44252E-02 6.16541E-04-7.19417E-14
 -1      2540 1.44688E-02 6.52638E-04-7.18887E-14
 -1      2541 1.43689E-02 6.42979E-04-7.08031E-14
 -1      2542 1.43359E-02 5.41963E-04-7.20415E-14
 -1      2543 1.43808E-02 5.79656E-04-7.19938E-14
 -1      2544 1.42808E-02 5.69922E-04-7.09014E-14
 -1      2545 1.42462E-02 4.64250E-04-7.21316E-14
 -1      2546 1.42910E-02 5.03479E-04-7.20864E-14
 -1      2547 1.41902E-02 4.93682E-04-7.09915E-14
 -1      2548 1.26092E-02 4.78194E-04-4.80050E-14
 -1      2549 1.26432E-02 4.69376E-04-4.82150E-14
 -1      2550 1.58409E-03 4.96840E-04-8.95293E-16
 -1      2551 1.44320E-03 4.78606E-04-7.30617E-16
 -1      2552 1.64152E-03 4.68943E-04-1.02868E-15
 -1      2553 5.88441E-04-2.38067E-04-2.08668E-16
 -1      2554 7.81187E-04-3.04907E-04-3.29882E-16
 -1      2555 8.40670E-04-2.93670E-04-3.99529E-16
 -1      2556 5.78908E-04-2.10242E-04-2.19483E-16
 -1      2557 1.42471E-02 4.12816E-04-7.28865E-14
 -1      2558 1.24842E-02 4.19282E-04-4.77750E-14
 -1      2559 1.23523E-02 3.82384E-04-4.74540E-14
 -1      2560 1.16996E-02 8.51977E-04-4.53308E-14
 -1      2561 1.18635E-02 7.65661E-04-4.58695E-14
 -1      2562 1.26226E-02 4.55358E-04-4.82133E-14
 -1      2563 1.25800E-02 4.47008E-04-4.81132E-14
 -1      2564 1.03821E-02-6.02183E-04-4.13125E-14
 -1      2565 1.02556E-02-6.29208E-04-4.06505E-14
 -1      2566 9.10107E-03-1.90973E-04-3.56769E-14
 -1      2567 8.93308E-03-1.02728E-04-3.52242E-14
 -1      2568 9.93802E-03 1.22982E-03-3.74796E-14
 -1      2569 1.01079E-02 1.32521E-03-3.82082E-14
 -1      2570 5.46743E-04-2.29193E-05-2.37766E-16
 -1      2571 5.47193E-04-3.89715E-05-2.39283E-16
 -1      2572 6.62682E-04-5.58501E-05-3.24380E-16
 -1      2573 6.61470E-04-1.77176E-05-3.20748E-16
 -1      2574 1.05918E-02 1.41468E-03-4.06185E-14
 -1      2575 1.07576E-02 1.36814E-03-4.14788E-14
 -1      2576 9.52362E-03 9.59490E-04-3.59924E-14
 -1      2577 9.72931E-03 1.09963E-03-3.66915E-14
 -1      2578 1.02741E-02 1.39094E-03-3.89575E-14
 -1      2579 1.03946E-02 1.41854E-03-3.95793E-14
 -1      2580 8.32055E-03 3.30173E-04-3.33070E-14
 -1      2581 8.49984E-03 3.95873E-04-3.36518E-14
 -1      2582 9.11492E-03 7.03159E-04-3.49180E-14
 -1      2583 9.28133E-03 8.04359E-04-3.52953E-14
 -1      2584 1.01175E-02-6.33416E-04-3.99383E-14
 -1      2585 9.99494E-03-6.14853E-04-3.92997E-14
 -1      2586 8.70868E-03 4.87602E-04-3.40366E-14
 -1      2587 8.91043E-03 5.89959E-04-3.44762E-14
 -1      2588 8.98896E-03 6.24241E-04-3.42155E-14
 -1      2589 8.08560E-03 2.64685E-04-3.30939E-14
 -1      2590 8.16406E-03 2.81978E-04-3.31230E-14
 -1      2591 8.02025E-03 2.40513E-04-3.29968E-14
 -1      2592 8.03500E-03 2.47794E-04-3.29956E-14
 -1      2593 8.09769E-03 2.14929E-04-3.31218E-14
 -1      2594 8.04136E-03 2.27773E-04-3.30411E-14
 -1      2595 8.34691E-03 1.40650E-04-3.34800E-14
 -1      2596 8.20424E-03 1.83765E-04-3.32305E-14
 -1      2597 8.74045E-03-1.16335E-05-3.46291E-14
 -1      2598 8.55674E-03 6.44448E-05-3.40393E-14
 -1      2599 8.80894E-03-5.49872E-05-3.44654E-14
 -1      2600 9.44482E-03-3.79736E-04-3.68373E-14
 -1      2601 9.29887E-03-2.97270E-04-3.63046E-14
 -1      2602 1.14081E-02-3.49774E-05-4.55253E-14
 -1      2603 1.12295E-02-1.42871E-04-4.49459E-14
 -1      2604 9.81399E-03-5.60970E-04-3.84091E-14
 -1      2605 9.63677E-03-4.78352E-04-3.76061E-14
 -1      2606 1.06602E-02-4.85554E-04-4.26416E-14
 -1      2607 1.05339E-02-5.48684E-04-4.20531E-14
 -1      2608 1.10241E-02-2.69208E-04-4.41758E-14
 -1      2609 1.08391E-02-3.86490E-04-4.34074E-14
 -1      2610 1.07519E-02-4.31528E-04-4.32874E-14
 -1      2611 1.18507E-02 1.93123E-04-4.65973E-14
 -1      2612 1.16558E-02 9.93287E-05-4.62067E-14
 -1      2613 1.22028E-02 3.31338E-04-4.71549E-14
 -1      2614 1.20429E-02 2.72409E-04-4.68789E-14
 -1      2615 1.09286E-02 1.29431E-03-4.22804E-14
 -1      2616 1.10716E-02 1.21529E-03-4.29130E-14
 -1      2617 7.57718E-04 3.34273E-04-1.79557E-16
 -1      2618 6.11339E-04 2.84918E-04-1.15725E-16
 -1      2619 5.84639E-04 2.58156E-04-1.22528E-16
 -1      2620 8.13567E-04 3.22947E-04-2.41953E-16
 -1      2621 1.08507E-02 1.34189E-03-4.19907E-14
 -1      2622 6.70286E-04-1.38044E-04-3.22198E-16
 -1      2623 5.54628E-04-1.26298E-04-2.36546E-16
 -1      2624 5.57810E-04-1.46277E-04-2.33076E-16
 -1      2625 1.35755E-03 4.32635E-04-6.92819E-16
 -1      2626 5.72172E-04 2.27967E-04-1.40933E-16
 -1      2627 5.64279E-04-1.65042E-04-2.31071E-16
 -1      2628 5.69684E-04-1.88109E-04-2.24742E-16
 -1      2629 6.97779E-04-2.27838E-04-3.08876E-16
 -1      2630 6.80714E-04-1.81757E-04-3.16885E-16
 -1      2631 1.15443E-02 4.34898E-05-4.62799E-14
 -1      2632 9.88906E-03-5.93477E-04-3.87251E-14
 -1      2633 1.15831E-02 9.32534E-04-4.52350E-14
 -1      2634 1.25920E-02 4.92638E-04-4.84014E-14
 -1      2635 1.22880E-02 3.70217E-04-4.78283E-14
 -1      2636 1.49252E-02 1.27547E-03-7.09568E-14
 -1      2637 1.48975E-02 1.24114E-03-7.08626E-14
 -1      2638 8.42107E-03 1.02320E-04-3.33183E-14
 -1      2639 1.26566E-02 4.71441E-04-4.88115E-14
 -1      2640 6.89458E-04 2.51317E-04-2.09536E-16
 -1      2641 1.19876E-02 7.09500E-04-4.64858E-14
 -1      2642 1.21051E-02 6.66886E-04-4.71039E-14
 -1      2643 1.19200E-02 7.61944E-04-4.66331E-14
 -1      2644 8.12737E-03 1.93701E-04-3.26559E-14
 -1      2645 1.23560E-02 5.58229E-04-4.74719E-14
 -1      2646 1.25346E-02 4.40687E-04-4.84684E-14
 -1      2647 1.01843E-02-6.37733E-04-4.03283E-14
 -1      2648 8.01213E-03 2.26917E-04-3.25031E-14
 -1      2649 8.59358E-03 4.27936E-04-3.33956E-14
 -1      2650 8.16051E-03 2.71839E-04-3.23618E-14
 -1      2651 8.23420E-03 2.94899E-04-3.28325E-14
 -1      2652 8.30698E-03 3.14162E-04-3.25417E-14
 -1      2653 9.18175E-03-2.44277E-04-3.56809E-14
 -1      2654 1.01806E-02 1.36008E-03-3.83566E-14
 -1      2655 9.83351E-03 1.16535E-03-3.68237E-14
 -1      2656 1.04474E-02-5.81138E-04-4.17804E-14
 -1      2657 9.41093E-03 8.83419E-04-3.53451E-14
 -1      2658 1.40818E-02 3.60968E-04-7.15985E-14
 -1      2659 1.41829E-02 4.23684E-04-7.19519E-14
 -1      2660 1.40808E-02 4.14066E-04-7.08511E-14
 -1      2661 1.39539E-02 3.31556E-04-7.04859E-14
 -1      2662 1.11929E-02 1.16200E-03-4.36233E-14
 -1      2663 1.05119E-02 1.42948E-03-4.01438E-14
 -1      2664 8.04374E-03 2.45504E-04-3.25544E-14
 -1      2665 9.54592E-03-4.43542E-04-3.70708E-14
 -1      2666 1.11140E-02-2.09620E-04-4.48248E-14
 -1      2667 1.19592E-02 2.47132E-04-4.72465E-14
 -1      2668 1.47663E-02 1.19705E-03-6.98640E-14
 -1      2669 1.39203E-02 3.51112E-04-6.98297E-14
 -1      2670 7.80394E-04 7.73694E-05-3.95097E-16
 -1      2671 7.79149E-04 5.54979E-05-4.01860E-16
 -1      2672 7.78313E-04 3.35754E-05-4.07511E-16
 -1      2673 7.77896E-04 1.19004E-05-4.12566E-16
 -1      2674 8.96757E-04 4.96964E-05-5.12922E-16
 -1      2675 7.91620E-04 1.73201E-04-3.55266E-16
 -1      2676 7.87652E-04 1.47780E-04-3.67572E-16
 -1      2677 8.03394E-04 2.28403E-04-3.25139E-16
 -1      2678 7.96818E-04 2.00011E-04-3.41253E-16
 -1      2679 9.14913E-04 2.07883E-04-4.45133E-16
 -1      2680 1.12966E-03 3.61961E-04-5.16297E-16
 -1      2681 9.86081E-04 3.32930E-04-3.96859E-16
 -1      2682 1.25625E-02 5.12148E-04-4.87511E-14
 -1      2683 1.26407E-02 4.98414E-04-4.91652E-14
 -1      2684 9.96810E-03-6.26469E-04-3.91321E-14
 -1      2685 9.81063E-03-5.79440E-04-3.82439E-14
 -1      2686 1.32003E-03-3.62703E-04-9.24797E-16
 -1      2687 1.46325E-03-3.81611E-04-1.11774E-15
 -1      2688 1.60628E-03-3.97599E-04-1.32876E-15
 -1      2689 1.74921E-03-4.10894E-04-1.55846E-15
 -1      2690 1.52494E-03-3.55246E-04-1.23493E-15
 -1      2691 1.89198E-03-4.21961E-04-1.80647E-15
 -1      2692 2.03463E-03-4.30984E-04-2.07259E-15
 -1      2693 1.81163E-03-3.80926E-04-1.69478E-15
 -1      2694 2.17718E-03-4.38333E-04-2.35685E-15
 -1      2695 2.31965E-03-4.44158E-04-2.65914E-15
 -1      2696 2.09809E-03-3.98449E-04-2.22748E-15
 -1      2697 2.46207E-03-4.48740E-04-2.97912E-15
 -1      2698 2.60445E-03-4.52197E-04-3.31675E-15
 -1      2699 2.38429E-03-4.09798E-04-2.83123E-15
 -1      2700 2.74682E-03-4.54740E-04-3.67219E-15
 -1      2701 2.88918E-03-4.56458E-04-4.04374E-15
 -1      2702 2.67026E-03-4.16553E-04-3.50535E-15
 -1      2703 3.03156E-03-4.57503E-04-4.43219E-15
 -1      2704 3.17396E-03-4.57941E-04-4.83776E-15
 -1      2705 2.95607E-03-4.19919E-04-4.24797E-15
 -1      2706 3.31640E-03-4.57878E-04-5.25988E-15
 -1      2707 3.45887E-03-4.57363E-04-5.69857E-15
 -1      2708 3.24180E-03-4.20786E-04-5.05733E-15
 -1      2709 3.60139E-03-4.56466E-04-6.15308E-15
 -1      2710 3.74396E-03-4.55219E-04-6.62414E-15
 -1      2711 3.52750E-03-4.19790E-04-5.93275E-15
 -1      2712 3.88659E-03-4.53667E-04-7.11192E-15
 -1      2713 4.02928E-03-4.51830E-04-7.61487E-15
 -1      2714 3.81320E-03-4.17363E-04-6.87377E-15
 -1      2715 4.17205E-03-4.49735E-04-8.13417E-15
 -1      2716 4.31488E-03-4.47394E-04-8.67003E-15
 -1      2717 4.09895E-03-4.13782E-04-7.87993E-15
 -1      2718 4.45780E-03-4.44821E-04-9.22065E-15
 -1      2719 4.60080E-03-4.42023E-04-9.78621E-15
 -1      2720 4.38476E-03-4.09210E-04-8.94880E-15
 -1      2721 4.74390E-03-4.39010E-04-1.03681E-14
 -1      2722 4.88711E-03-4.35789E-04-1.09646E-14
 -1      2723 4.67069E-03-4.03737E-04-1.00802E-14
 -1      2724 5.03042E-03-4.32369E-04-1.15765E-14
 -1      2725 5.17388E-03-4.28763E-04-1.22042E-14
 -1      2726 4.95677E-03-3.97420E-04-1.12729E-14
 -1      2727 5.31747E-03-4.24989E-04-1.28479E-14
 -1      2728 5.46125E-03-4.21069E-04-1.35084E-14
 -1      2729 5.24307E-03-3.90324E-04-1.25278E-14
 -1      2730 5.60519E-03-4.17041E-04-1.41853E-14
 -1      2731 5.74937E-03-4.12940E-04-1.48789E-14
 -1      2732 5.52969E-03-3.82570E-04-1.38472E-14
 -1      2733 5.89378E-03-4.08832E-04-1.55891E-14
 -1      2734 6.03850E-03-4.04780E-04-1.63166E-14
 -1      2735 5.81677E-03-3.74390E-04-1.52340E-14
 -1      2736 6.18352E-03-4.00884E-04-1.70616E-14
 -1      2737 6.32895E-03-3.97244E-04-1.78242E-14
 -1      2738 6.10454E-03-3.66188E-04-1.66887E-14
 -1      2739 6.47481E-03-3.94007E-04-1.86032E-14
 -1      2740 6.62121E-03-3.91323E-04-1.93981E-14
 -1      2741 6.39339E-03-3.58619E-04-1.82112E-14
 -1      2742 6.76821E-03-3.89389E-04-2.02109E-14
 -1      2743 6.91592E-03-3.88425E-04-2.10383E-14
 -1      2744 6.68385E-03-3.52665E-04-1.98007E-14
 -1      2745 7.06447E-03-3.88675E-04-2.18809E-14
 -1      2746 7.21396E-03-3.90445E-04-2.27375E-14
 -1      2747 6.97676E-03-3.49731E-04-2.14548E-14
 -1      2748 7.36460E-03-3.94011E-04-2.36086E-14
 -1      2749 7.51643E-03-3.99779E-04-2.44945E-14
 -1      2750 7.27325E-03-3.51722E-04-2.31670E-14
 -1      2751 7.66977E-03-4.08021E-04-2.53930E-14
 -1      2752 7.82455E-03-4.19228E-04-2.63021E-14
 -1      2753 7.57483E-03-3.61098E-04-2.49358E-14
 -1      2754 7.98117E-03-4.33614E-04-2.72233E-14
 -1      2755 8.13936E-03-4.51665E-04-2.81573E-14
 -1      2756 7.88324E-03-3.80853E-04-2.67543E-14
 -1      2757 8.29952E-03-4.73443E-04-2.91045E-14
 -1      2758 8.46106E-03-4.99249E-04-3.00628E-14
 -1      2759 8.20007E-03-4.14245E-04-2.86230E-14
 -1      2760 8.62428E-03-5.28855E-04-3.10311E-14
 -1      2761 8.78815E-03-5.61864E-04-3.20115E-14
 -1      2762 8.52586E-03-4.64081E-04-3.05367E-14
 -1      2763 8.95274E-03-5.97490E-04-3.30026E-14
 -1      2764 9.11670E-03-6.34424E-04-3.40061E-14
 -1      2765 8.85890E-03-5.30592E-04-3.24947E-14
 -1      2766 9.27973E-03-6.71226E-04-3.50221E-14
 -1      2767 9.44081E-03-7.04887E-04-3.60494E-14
 -1      2768 9.19398E-03-6.08518E-04-3.44990E-14
 -1      2769 9.59941E-03-7.33485E-04-3.70922E-14
 -1      2770 9.75578E-03-7.53379E-04-3.81438E-14
 -1      2771 9.52355E-03-6.83030E-04-3.65549E-14
 -1      2772 9.90938E-03-7.62692E-04-3.92095E-14
 -1      2773 1.00622E-02-7.58938E-04-4.02872E-14
 -1      2774 9.84216E-03-7.29914E-04-3.86601E-14
 -1      2775 1.02138E-02-7.41452E-04-4.13738E-14
 -1      2776 1.03669E-02-7.10385E-04-4.24702E-14
 -1      2777 1.01520E-02-7.25096E-04-4.08121E-14
 -1      2778 1.05211E-02-6.66687E-04-4.35760E-14
 -1      2779 1.06782E-02-6.13243E-04-4.46932E-14
 -1      2780 1.04626E-02-6.59348E-04-4.30058E-14
 -1      2781 1.08376E-02-5.51949E-04-4.58158E-14
 -1      2782 1.09993E-02-4.86514E-04-4.69455E-14
 -1      2783 1.07831E-02-5.44924E-04-4.52342E-14
 -1      2784 1.11626E-02-4.18851E-04-4.80852E-14
 -1      2785 1.13266E-02-3.51578E-04-4.92278E-14
 -1      2786 1.11140E-02-4.07213E-04-4.74963E-14
 -1      2787 1.14910E-02-2.86031E-04-5.03782E-14
 -1      2788 1.16545E-02-2.23420E-04-5.15366E-14
 -1      2789 1.14492E-02-2.69196E-04-4.97852E-14
 -1      2790 1.18171E-02-1.64393E-04-5.26967E-14
 -1      2791 1.19779E-02-1.09137E-04-5.38632E-14
 -1      2792 1.17813E-02-1.43901E-04-5.20964E-14
 -1      2793 1.21372E-02-5.78141E-05-5.50392E-14
 -1      2794 1.22945E-02-1.00451E-05-5.62220E-14
 -1      2795 1.21056E-02-3.54146E-05-5.44317E-14
 -1      2796 1.24502E-02 3.43004E-05-5.74120E-14
 -1      2797 1.26041E-02 7.57500E-05-5.86062E-14
 -1      2798 1.24208E-02 5.73507E-05-5.67961E-14
 -1      2799 1.27565E-02 1.14592E-04-5.98071E-14
 -1      2800 1.29074E-02 1.51352E-04-6.10139E-14
 -1      2801 1.27278E-02 1.37600E-04-5.91877E-14
 -1      2802 1.30571E-02 1.86383E-04-6.22267E-14
 -1      2803 1.32056E-02 2.20134E-04-6.34447E-14
 -1      2804 1.30281E-02 2.08959E-04-6.16013E-14
 -1      2805 1.33532E-02 2.52967E-04-6.46627E-14
 -1      2806 1.34999E-02 2.85260E-04-6.58849E-14
 -1      2807 1.33234E-02 2.74831E-04-6.40279E-14
 -1      2808 1.36457E-02 3.17349E-04-6.71126E-14
 -1      2809 1.37909E-02 3.49561E-04-6.83442E-14
 -1      2810 1.36150E-02 3.38203E-04-6.64700E-14
 -1      2811 2.26891E-03 4.77551E-04-2.09495E-15
 -1      2812 2.12710E-03 4.70938E-04-1.83644E-15
 -1      2813 1.11128E-02 1.22889E-03-4.33911E-14
 -1      2814 1.12848E-02 1.12837E-03-4.42226E-14
 -1      2815 8.89014E-03-1.14199E-04-3.43713E-14
 -1      2816 8.71755E-03-3.65905E-05-3.37839E-14
 -1      2817 1.98519E-03 4.62664E-04-1.59554E-15
 -1      2818 1.84316E-03 4.52570E-04-1.37204E-15
 -1      2819 2.04749E-03 4.30658E-04-1.75999E-15
 -1      2820 2.83602E-03 4.92047E-04-3.30539E-15
 -1      2821 2.69423E-03 4.89898E-04-2.97642E-15
 -1      2822 3.11979E-03 4.94218E-04-4.01700E-15
 -1      2823 2.97788E-03 4.93462E-04-3.65241E-15
 -1      2824 2.90236E-03 4.55833E-04-3.53781E-15
 -1      2825 3.40387E-03 4.94147E-04-4.79952E-15
 -1      2826 3.26179E-03 4.94429E-04-4.39931E-15
 -1      2827 3.18724E-03 4.57321E-04-4.27086E-15
 -1      2828 3.68830E-03 4.92368E-04-5.65350E-15
 -1      2829 3.54604E-03 4.93448E-04-5.21753E-15
 -1      2830 3.47224E-03 4.56764E-04-5.07507E-15
 -1      2831 3.97315E-03 4.89225E-04-6.57939E-15
 -1      2832 3.83067E-03 4.90952E-04-6.10773E-15
 -1      2833 3.75742E-03 4.54637E-04-5.95009E-15
 -1      2834 4.25846E-03 4.84914E-04-7.57682E-15
 -1      2835 4.11575E-03 4.87207E-04-7.06889E-15
 -1      2836 4.04281E-03 4.51235E-04-6.89715E-15
 -1      2837 4.54429E-03 4.79529E-04-8.64269E-15
 -1      2838 4.40131E-03 4.82352E-04-8.10139E-15
 -1      2839 4.32845E-03 4.46725E-04-7.91355E-15
 -1      2840 4.83070E-03 4.73090E-04-9.77609E-15
 -1      2841 4.68741E-03 4.76439E-04-9.20112E-15
 -1      2842 4.61439E-03 4.41174E-04-8.99896E-15
 -1      2843 5.11779E-03 4.65590E-04-1.09756E-14
 -1      2844 4.97415E-03 4.69471E-04-1.03673E-14
 -1      2845 4.90064E-03 4.34597E-04-1.01503E-14
 -1      2846 5.40566E-03 4.57036E-04-1.22401E-14
 -1      2847 5.26161E-03 4.61441E-04-1.15997E-14
 -1      2848 5.18726E-03 4.26987E-04-1.13673E-14
 -1      2849 5.69446E-03 4.47501E-04-1.35731E-14
 -1      2850 5.54992E-03 4.52381E-04-1.28981E-14
 -1      2851 5.47426E-03 4.18364E-04-1.26502E-14
 -1      2852 5.98433E-03 4.37201E-04-1.49765E-14
 -1      2853 5.83923E-03 4.42426E-04-1.42660E-14
 -1      2854 5.76169E-03 4.08830E-04-1.40024E-14
 -1      2855 6.27548E-03 4.26594E-04-1.64518E-14
 -1      2856 6.12970E-03 4.31899E-04-1.57057E-14
 -1      2857 6.04955E-03 3.98645E-04-1.54239E-14
 -1      2858 6.56812E-03 4.16515E-04-1.79948E-14
 -1      2859 6.42156E-03 4.21425E-04-1.72141E-14
 -1      2860 6.33788E-03 3.88321E-04-1.69151E-14
 -1      2861 6.86258E-03 4.08373E-04-1.96081E-14
 -1      2862 6.71505E-03 4.12099E-04-1.87935E-14
 -1      2863 6.62669E-03 3.78756E-04-1.84754E-14
 -1      2864 7.15938E-03 4.04406E-04-2.12883E-14
 -1      2865 7.01059E-03 4.05705E-04-2.04396E-14
 -1      2866 6.91613E-03 3.71407E-04-2.01041E-14
 -1      2867 7.45947E-03 4.08013E-04-2.30348E-14
 -1      2868 7.30888E-03 4.05006E-04-2.21532E-14
 -1      2869 7.20658E-03 3.68512E-04-2.17986E-14
 -1      2870 7.76468E-03 4.24166E-04-2.48427E-14
 -1      2871 7.61124E-03 4.14117E-04-2.39306E-14
 -1      2872 7.49903E-03 3.73363E-04-2.35594E-14
 -1      2873 8.07833E-03 4.59899E-04-2.67060E-14
 -1      2874 7.92019E-03 4.38964E-04-2.57683E-14
 -1      2875 7.79570E-03 3.90694E-04-2.53808E-14
 -1      2876 8.40594E-03 5.24798E-04-2.86222E-14
 -1      2877 8.24009E-03 4.87730E-04-2.76577E-14
 -1      2878 8.10093E-03 4.27190E-04-2.72558E-14
 -1      2879 8.75492E-03 6.31289E-04-3.05818E-14
 -1      2880 8.57767E-03 5.71608E-04-2.95968E-14
 -1      2881 8.42229E-03 4.92717E-04-2.91807E-14
 -1      2882 9.13179E-03 7.91697E-04-3.25842E-14
 -1      2883 8.94067E-03 7.03387E-04-3.15784E-14
 -1      2884 8.77068E-03 6.01181E-04-3.11494E-14
 -1      2885 9.94153E-03 1.25469E-03-3.67151E-14
 -1      2886 9.74361E-03 1.13952E-03-3.56606E-14
 -1      2887 1.03794E-02 1.43747E-03-3.92289E-14
 -1      2888 1.01919E-02 1.38133E-03-3.81465E-14
 -1      2889 1.07374E-02 1.41842E-03-4.13738E-14
 -1      2890 1.05479E-02 1.44549E-03-4.02683E-14
 -1      2891 1.11769E-02 1.25316E-03-4.38954E-14
 -1      2892 1.09788E-02 1.33881E-03-4.27679E-14
 -1      2893 1.13779E-02 1.16535E-03-4.50346E-14
 -1      2894 1.18714E-02 9.78702E-04-4.78802E-14
 -1      2895 1.16769E-02 1.04278E-03-4.67229E-14
 -1      2896 1.22412E-02 8.95355E-04-5.02133E-14
 -1      2897 1.20607E-02 9.30405E-04-4.90444E-14
 -1      2898 1.20178E-02 8.86195E-04-4.85186E-14
 -1      2899 1.25840E-02 8.63609E-04-5.25715E-14
 -1      2900 1.24159E-02 8.74324E-04-5.13904E-14
 -1      2901 1.23747E-02 8.26445E-04-5.08542E-14
 -1      2902 1.29068E-02 8.69631E-04-5.49464E-14
 -1      2903 1.27475E-02 8.62903E-04-5.37572E-14
 -1      2904 1.27016E-02 8.14589E-04-5.32128E-14
 -1      2905 1.32168E-02 9.01515E-04-5.73291E-14
 -1      2906 1.30630E-02 8.83040E-04-5.61379E-14
 -1      2907 1.30096E-02 8.34217E-04-5.55868E-14
 -1      2908 1.35191E-02 9.50058E-04-5.97090E-14
 -1      2909 1.33687E-02 9.24189E-04-5.85190E-14
 -1      2910 1.33073E-02 8.74527E-04-5.79669E-14
 -1      2911 1.38166E-02 1.00833E-03-6.20872E-14
 -1      2912 1.36683E-02 9.78316E-04-6.08980E-14
 -1      2913 1.35998E-02 9.27821E-04-6.03450E-14
 -1      2914 1.41107E-02 1.07115E-03-6.44579E-14
 -1      2915 1.39639E-02 1.03942E-03-6.32744E-14
 -1      2916 1.38897E-02 9.88438E-04-6.27218E-14
 -1      2917 1.44021E-02 1.13463E-03-6.68224E-14
 -1      2918 1.42566E-02 1.10300E-03-6.56404E-14
 -1      2919 1.41780E-02 1.05210E-03-6.50909E-14
 -1      2920 1.46570E-02 1.18162E-03-6.89348E-14
 -1      2921 1.45128E-02 1.15127E-03-6.77534E-14
 -1      2922 1.44317E-02 1.10120E-03-6.72044E-14
 -1      2923 1.46498E-02 1.13446E-03-6.90643E-14
 -1      2924 1.44558E-02 8.03092E-04-6.94599E-14
 -1      2925 1.44854E-02 8.35661E-04-6.94047E-14
 -1      2926 1.38878E-02 3.70747E-04-6.91785E-14
 -1      2927 1.39844E-02 3.92229E-04-7.00142E-14
 -1      2928 1.38563E-02 3.90483E-04-6.85290E-14
 -1      2929 1.45566E-02 9.33206E-04-6.92418E-14
 -1      2930 1.45748E-02 9.66420E-04-6.91919E-14
 -1      2931 1.43880E-02 7.36953E-04-6.95689E-14
 -1      2932 1.44233E-02 7.70289E-04-6.95148E-14
 -1      2933 1.43220E-02 7.61715E-04-6.84449E-14
 -1      2934 1.45121E-02 8.68021E-04-6.93506E-14
 -1      2935 1.45357E-02 9.00521E-04-6.92935E-14
 -1      2936 1.44287E-02 8.91177E-04-6.82383E-14
 -1      2937 1.43817E-02 8.26612E-04-6.83408E-14
 -1      2938 1.70096E-03 4.40240E-04-1.16613E-15
 -1      2939 1.55852E-03 4.25474E-04-9.77869E-16
 -1      2940 1.76199E-03 4.10866E-04-1.30762E-15
 -1      2941 1.43114E-02 6.69658E-04-6.96700E-14
 -1      2942 1.43508E-02 7.03666E-04-6.96201E-14
 -1      2943 1.42511E-02 6.95548E-04-6.85460E-14
 -1      2944 1.42259E-02 5.98209E-04-6.97683E-14
 -1      2945 1.42694E-02 6.34353E-04-6.97205E-14
 -1      2946 1.41704E-02 6.26534E-04-6.86411E-14
 -1      2947 1.41356E-02 5.23509E-04-6.98605E-14
 -1      2948 1.41811E-02 5.61271E-04-6.98154E-14
 -1      2949 1.40819E-02 5.53544E-04-6.87326E-14
 -1      2950 1.23643E-02 3.97962E-04-4.85537E-14
 -1      2951 1.22275E-02 3.55118E-04-4.82515E-14
 -1      2952 8.02998E-04 2.78309E-04-2.79955E-16
 -1      2953 8.13705E-03 1.74635E-04-3.21523E-14
 -1      2954 8.05109E-03 1.99259E-04-3.20451E-14
 -1      2955 1.02078E-02-6.40968E-04-4.05472E-14
 -1      2956 1.00907E-02-6.43194E-04-3.98369E-14
 -1      2957 1.00017E-02-6.40867E-04-3.93479E-14
 -1      2958 1.16682E-02 1.08144E-04-4.71413E-14
 -1      2959 1.14468E-02-1.34619E-05-4.64557E-14
 -1      2960 8.49961E-03 5.50593E-05-3.31313E-14
 -1      2961 8.31125E-03 1.19673E-04-3.25771E-14
 -1      2962 7.99770E-03 2.14143E-04-3.19090E-14
 -1      2963 7.98250E-03 2.20523E-04-3.18643E-14
 -1      2964 9.23946E-03-2.97908E-04-3.56099E-14
 -1      2965 9.06660E-03-2.02236E-04-3.49888E-14
 -1      2966 8.95242E-03-1.75495E-04-3.43007E-14
 -1      2967 9.72544E-03 1.09620E-03-3.61423E-14
 -1      2968 9.90949E-03 1.21915E-03-3.69255E-14
 -1      2969 2.55245E-03 4.86853E-04-2.66475E-15
 -1      2970 2.41069E-03 4.82813E-04-2.37093E-15
 -1      2971 2.33261E-03 4.43654E-04-2.28226E-15
 -1      2972 2.61752E-03 4.51604E-04-2.87460E-15
 -1      2973 1.03360E-03-3.14268E-04-5.95634E-16
 -1      2974 1.17685E-03-3.40337E-04-7.50796E-16
 -1      2975 1.23838E-03-3.19053E-04-8.48361E-16
 -1      2976 1.25892E-02 4.56127E-04-4.92363E-14
 -1      2977 1.24903E-02 4.34096E-04-4.88961E-14
 -1      2978 1.24471E-02 4.20964E-04-4.93213E-14
 -1      2979 1.41587E-03 4.07740E-04-8.06660E-16
 -1      2980 1.27284E-03 3.86777E-04-6.52622E-16
 -1      2981 1.18957E-03 3.41488E-04-6.10650E-16
 -1      2982 1.47599E-03 3.82056E-04-9.24553E-16
 -1      2983 1.05062E-02-5.58750E-04-4.22973E-14
 -1      2984 1.03775E-02-6.08043E-04-4.15564E-14
 -1      2985 7.84538E-04 1.23515E-04-3.77899E-16
 -1      2986 7.82178E-04 1.00069E-04-3.87074E-16
 -1      2987 8.99833E-04 9.94806E-05-4.96294E-16
 -1      2988 9.05510E-04 1.51637E-04-4.74189E-16
 -1      2989 1.40488E-02 4.32723E-04-7.01957E-14
 -1      2990 1.15133E-02 9.98102E-04-4.52608E-14
 -1      2991 1.17090E-02 8.85489E-04-4.60440E-14
 -1      2992 7.81907E-04-9.80155E-05-4.24072E-16
 -1      2993 7.84189E-04-1.21378E-04-4.23679E-16
 -1      2994 8.87979E-03 5.64491E-04-3.35344E-14
 -1      2995 9.05991E-03 6.65945E-04-3.39696E-14
 -1      2996 9.60959E-03-4.93760E-04-3.72181E-14
 -1      2997 9.44301E-03-4.05535E-04-3.64546E-14
 -1      2998 8.48666E-03 3.80681E-04-3.27228E-14
 -1      2999 8.67414E-03 4.61158E-04-3.31011E-14
 -1      3000 1.22911E-02 5.93853E-04-4.77690E-14
 -1      3001 1.24425E-02 5.45769E-04-4.82866E-14
 -1      3002 1.26879E-02 4.84889E-04-4.95368E-14
 -1      3003 1.26691E-02 4.76698E-04-4.95334E-14
 -1      3004 8.00392E-03 2.31782E-04-3.18911E-14
 -1      3005 8.05187E-03 2.41683E-04-3.19865E-14
 -1      3006 1.11949E-02-1.61067E-04-4.55342E-14
 -1      3007 1.10112E-02-2.75249E-04-4.47609E-14
 -1      3008 9.29050E-03 8.07841E-04-3.45546E-14
 -1      3009 9.50307E-03 9.49544E-04-3.52439E-14
 -1      3010 1.08247E-02-3.87335E-04-4.38898E-14
 -1      3011 1.06690E-02-4.79260E-04-4.31228E-14
 -1      3012 7.99369E-04-2.55279E-04-3.86139E-16
 -1      3013 9.30656E-04-2.90838E-04-4.96931E-16
 -1      3014 9.92807E-04-2.75506E-04-5.76348E-16
 -1      3015 7.89243E-04-2.29322E-04-3.91898E-16
 -1      3016 1.20700E-02 2.95699E-04-4.79677E-14
 -1      3017 1.19025E-02 2.23285E-04-4.76857E-14
 -1      3018 1.21720E-02 3.30148E-04-4.86930E-14
 -1      3019 7.87203E-04-1.45532E-04-4.21877E-16
 -1      3020 7.91033E-04-1.70710E-04-4.18502E-16
 -1      3021 9.05030E-04-1.49111E-04-5.35135E-16
 -1      3022 8.95744E-04 1.00867E-06-5.24876E-16
 -1      3023 7.77866E-04-9.72759E-06-4.16591E-16
 -1      3024 7.78224E-04-3.13857E-05-4.19762E-16
 -1      3025 1.05879E-02-5.24293E-04-4.28951E-14
 -1      3026 1.26966E-02 5.15140E-04-5.02447E-14
 -1      3027 1.26973E-02 4.98828E-04-4.98911E-14
 -1      3028 1.27407E-02 5.03831E-04-5.06178E-14
 -1      3029 1.22256E-02 6.38785E-04-4.79191E-14
 -1      3030 9.69976E-03-5.50587E-04-3.76171E-14
 -1      3031 1.40947E-02 4.72299E-04-7.01579E-14
 -1      3032 1.44640E-02 9.56860E-04-6.81364E-14
 -1      3033 1.45907E-02 9.99922E-04-6.91381E-14
 -1      3034 1.46047E-02 1.03428E-03-6.90889E-14
 -1      3035 1.14264E-02 1.07404E-03-4.50257E-14
 -1      3036 8.57621E-03-1.85240E-06-3.30385E-14
 -1      3037 9.34057E-03 8.92212E-04-3.37370E-14
 -1      3038 9.16102E-03 7.66752E-04-3.32938E-14
 -1      3039 1.00499E-02 1.30939E-03-3.74038E-14
 -1      3040 9.54346E-03 1.00908E-03-3.47665E-14
 -1      3041 1.46216E-02 1.06543E-03-6.91002E-14
 -1      3042 1.46337E-02 1.10160E-03-6.90517E-14
 -1      3043 1.45258E-02 1.08496E-03-6.81226E-14
 -1      3044 1.44946E-02 1.02127E-03-6.80986E-14
 -1      3045 1.02780E-02-6.34239E-04-4.10581E-14
 -1      3046 1.09207E-02-3.37945E-04-4.45937E-14
 -1      3047 9.16284E-03 7.40173E-04-3.38688E-14
 -1      3048 1.39942E-02 4.64254E-04-6.90697E-14
 -1      3049 1.13368E-02-8.83199E-05-4.63912E-14
 -1      3050 8.64801E-04 2.66622E-04-3.47324E-16
 -1      3051 7.96275E-03 2.17395E-04-3.13005E-14
 -1      3052 9.31441E-03-3.62172E-04-3.57544E-14
 -1      3053 8.19503E-03 1.41386E-04-3.19668E-14
 -1      3054 8.09410E-03 1.50900E-04-3.13603E-14
 -1      3055 8.25146E-03 1.00598E-04-3.17825E-14
 -1      3056 7.98986E-03 1.96620E-04-3.14094E-14
 -1      3057 1.17992E-02 1.64676E-04-4.78624E-14
 -1      3058 8.09154E-03 2.51375E-04-3.16981E-14
 -1      3059 1.17366E-02 9.43313E-04-4.67121E-14
 -1      3060 1.15795E-02 1.05418E-03-4.60804E-14
 -1      3061 9.59004E-03 1.01803E-03-3.53422E-14
 -1      3062 1.09568E-02 1.31277E-03-4.25822E-14
 -1      3063 8.37898E-03 3.40104E-04-3.22508E-14
 -1      3064 8.44342E-03 3.71680E-04-3.19587E-14
 -1      3065 8.28101E-03 3.09761E-04-3.17819E-14
 -1      3066 1.26574E-02 4.73919E-04-4.99636E-14
 -1      3067 7.78991E-04-5.31807E-05-4.22080E-16
 -1      3068 7.80193E-04-7.53798E-05-4.23449E-16
 -1      3069 8.99548E-04-9.71331E-05-5.36287E-16
 -1      3070 8.96626E-04-4.75462E-05-5.32655E-16
 -1      3071 8.74654E-03 5.04337E-04-3.28590E-14
 -1      3072 1.25220E-02 5.41650E-04-4.90522E-14
 -1      3073 9.82919E-04 2.75837E-04-4.54443E-16
 -1      3074 7.91618E-03 2.03601E-04-3.06196E-14
 -1      3075 7.93877E-03 2.13324E-04-3.06445E-14
 -1      3076 1.04033E-03 2.43308E-04-5.44405E-16
 -1      3077 1.03377E-03 2.11581E-04-5.63677E-16
 -1      3078 7.85477E-04-1.87587E-04-4.07470E-16
 -1      3079 7.93293E-04-2.11130E-04-4.04963E-16
 -1      3080 8.94190E-04-2.33320E-04-4.94030E-16
 -1      3081 9.03497E-04-1.94987E-04-5.20417E-16
 -1      3082 1.15851E-03-2.76947E-04-7.72887E-16
 -1      3083 1.30140E-03-2.96679E-04-9.48514E-16
 -1      3084 1.73173E-03-3.40164E-04-1.58474E-15
 -1      3085 1.87541E-03-3.50243E-04-1.83316E-15
 -1      3086 2.01908E-03-3.58575E-04-2.09949E-15
 -1      3087 2.16273E-03-3.65313E-04-2.38335E-15
 -1      3088 1.94033E-03-3.18882E-04-1.97280E-15
 -1      3089 2.30634E-03-3.70727E-04-2.68518E-15
 -1      3090 2.44990E-03-3.74940E-04-3.00399E-15
 -1      3091 2.22839E-03-3.31641E-04-2.54049E-15
 -1      3092 2.59340E-03-3.78167E-04-3.34060E-15
 -1      3093 2.73684E-03-3.80504E-04-3.69484E-15
 -1      3094 2.51637E-03-3.39659E-04-3.17823E-15
 -1      3095 2.88023E-03-3.82112E-04-4.06476E-15
 -1      3096 3.02356E-03-3.83062E-04-4.45194E-15
 -1      3097 2.80413E-03-3.44128E-04-3.88354E-15
 -1      3098 3.16684E-03-3.83474E-04-4.85610E-15
 -1      3099 3.31007E-03-3.83397E-04-5.27683E-15
 -1      3100 3.09159E-03-3.45965E-04-4.65646E-15
 -1      3101 3.45326E-03-3.82915E-04-5.71402E-15
 -1      3102 3.59640E-03-3.82062E-04-6.16723E-15
 -1      3103 3.37873E-03-3.45846E-04-5.49659E-15
 -1      3104 3.73950E-03-3.80893E-04-6.63753E-15
 -1      3105 3.88256E-03-3.79428E-04-7.12363E-15
 -1      3106 3.66555E-03-3.44246E-04-6.40270E-15
 -1      3107 4.02560E-03-3.77704E-04-7.62551E-15
 -1      3108 4.16859E-03-3.75729E-04-8.14415E-15
 -1      3109 3.95205E-03-3.41478E-04-7.37321E-15
 -1      3110 4.31156E-03-3.73525E-04-8.67855E-15
 -1      3111 4.45449E-03-3.71095E-04-9.22794E-15
 -1      3112 4.23822E-03-3.37731E-04-8.40864E-15
 -1      3113 4.59740E-03-3.68453E-04-9.79250E-15
 -1      3114 4.74028E-03-3.65596E-04-1.03732E-14
 -1      3115 4.52406E-03-3.33109E-04-9.50681E-15
 -1      3116 4.88313E-03-3.62537E-04-1.09698E-14
 -1      3117 5.02598E-03-3.59273E-04-1.15811E-14
 -1      3118 4.80956E-03-3.27657E-04-1.06670E-14
 -1      3119 5.16880E-03-3.55821E-04-1.22076E-14
 -1      3120 5.31163E-03-3.52183E-04-1.28511E-14
 -1      3121 5.09472E-03-3.21404E-04-1.18895E-14
 -1      3122 5.45444E-03-3.48385E-04-1.35114E-14
 -1      3123 5.59730E-03-3.44438E-04-1.41876E-14
 -1      3124 5.37955E-03-3.14392E-04-1.31757E-14
 -1      3125 5.74017E-03-3.40387E-04-1.48806E-14
 -1      3126 5.88312E-03-3.36260E-04-1.55901E-14
 -1      3127 5.66409E-03-3.06719E-04-1.45280E-14
 -1      3128 6.02615E-03-3.32124E-04-1.63166E-14
 -1      3129 6.16933E-03-3.28038E-04-1.70607E-14
 -1      3130 5.94845E-03-2.98585E-04-1.59463E-14
 -1      3131 6.31269E-03-3.24097E-04-1.78215E-14
 -1      3132 6.45634E-03-3.20402E-04-1.85986E-14
 -1      3133 6.23288E-03-2.90347E-04-1.74329E-14
 -1      3134 6.60032E-03-3.17083E-04-1.93929E-14
 -1      3135 6.74478E-03-3.14303E-04-2.02033E-14
 -1      3136 6.51781E-03-2.82585E-04-1.89864E-14
 -1      3137 6.88984E-03-3.12226E-04-2.10291E-14
 -1      3138 7.03566E-03-3.11106E-04-2.18695E-14
 -1      3139 6.80400E-03-2.76185E-04-2.06042E-14
 -1      3140 7.18245E-03-3.11138E-04-2.27260E-14
 -1      3141 7.33042E-03-3.12702E-04-2.35959E-14
 -1      3142 7.09261E-03-2.72443E-04-2.22850E-14
 -1      3143 7.47987E-03-3.16012E-04-2.44795E-14
 -1      3144 7.63101E-03-3.21618E-04-2.53770E-14
 -1      3145 7.38543E-03-2.73212E-04-2.40242E-14
 -1      3146 7.78427E-03-3.29725E-04-2.62862E-14
 -1      3147 7.93977E-03-3.41091E-04-2.72069E-14
 -1      3148 7.68489E-03-2.81100E-04-2.58173E-14
 -1      3149 8.09806E-03-3.55901E-04-2.81407E-14
 -1      3150 8.25895E-03-3.74971E-04-2.90862E-14
 -1      3151 7.99404E-03-2.99722E-04-2.76592E-14
 -1      3152 8.42295E-03-3.98497E-04-3.00420E-14
 -1      3153 8.58940E-03-4.27030E-04-3.10082E-14
 -1      3154 8.31576E-03-3.33841E-04-2.95475E-14
 -1      3155 8.75918E-03-4.60267E-04-3.19873E-14
 -1      3156 8.92994E-03-4.98127E-04-3.29770E-14
 -1      3157 8.65196E-03-3.88199E-04-3.14799E-14
 -1      3158 9.10170E-03-5.39933E-04-3.39798E-14
 -1      3159 9.27266E-03-5.83147E-04-3.49945E-14
 -1      3160 9.00043E-03-4.65962E-04-3.34597E-14
 -1      3161 9.44228E-03-6.26036E-04-3.60206E-14
 -1      3162 9.60880E-03-6.63540E-04-3.70607E-14
 -1      3163 9.35171E-03-5.60546E-04-3.54884E-14
 -1      3164 9.77144E-03-6.93085E-04-3.81130E-14
 -1      3165 9.93138E-03-7.08801E-04-3.91768E-14
 -1      3166 9.69428E-03-6.48057E-04-3.75663E-14
 -1      3167 1.00874E-02-7.08917E-04-4.02508E-14
 -1      3168 1.02445E-02-6.90710E-04-4.13369E-14
 -1      3169 1.00207E-02-6.89324E-04-3.96906E-14
 -1      3170 1.04014E-02-6.54675E-04-4.24322E-14
 -1      3171 1.05623E-02-6.03697E-04-4.35386E-14
 -1      3172 1.03399E-02-6.52085E-04-4.18607E-14
 -1      3173 1.07263E-02-5.39952E-04-4.46557E-14
 -1      3174 1.08938E-02-4.69862E-04-4.57779E-14
 -1      3175 1.06691E-02-5.39075E-04-4.40736E-14
 -1      3176 1.10642E-02-3.95821E-04-4.69077E-14
 -1      3177 1.12355E-02-3.22266E-04-4.80465E-14
 -1      3178 1.10139E-02-3.86525E-04-4.63207E-14
 -1      3179 1.14074E-02-2.50947E-04-4.91895E-14
 -1      3180 1.15777E-02-1.83760E-04-5.03402E-14
 -1      3181 1.13660E-02-2.32575E-04-4.85953E-14
 -1      3182 1.17466E-02-1.21355E-04-5.14972E-14
 -1      3183 1.19124E-02-6.37534E-05-5.26588E-14
 -1      3184 1.17131E-02-9.70760E-05-5.08951E-14
 -1      3185 1.20757E-02-1.10988E-05-5.38270E-14
 -1      3186 1.22358E-02 3.73944E-05-5.50021E-14
 -1      3187 1.20476E-02 1.52350E-05-5.32221E-14
 -1      3188 1.23934E-02 8.18637E-05-5.61831E-14
 -1      3189 1.25482E-02 1.23165E-04-5.73720E-14
 -1      3190 1.23679E-02 1.08035E-04-5.55710E-14
 -1      3191 1.27009E-02 1.61538E-04-5.85672E-14
 -1      3192 1.28516E-02 1.97740E-04-5.97674E-14
 -1      3193 1.26761E-02 1.86595E-04-5.79464E-14
 -1      3194 1.30007E-02 2.32040E-04-6.09724E-14
 -1      3195 1.31484E-02 2.65008E-04-6.21834E-14
 -1      3196 1.29751E-02 2.55755E-04-6.03466E-14
 -1      3197 1.32949E-02 2.96929E-04-6.33972E-14
 -1      3198 1.34405E-02 3.28220E-04-6.46105E-14
 -1      3199 1.32680E-02 3.19319E-04-6.27639E-14
 -1      3200 1.35854E-02 3.59167E-04-6.58310E-14
 -1      3201 1.37296E-02 3.90086E-04-6.70529E-14
 -1      3202 1.35569E-02 3.80248E-04-6.51936E-14
 -1      3203 1.22851E-02 3.62894E-04-4.95744E-14
 -1      3204 1.21478E-02 3.10141E-04-4.92887E-14
 -1      3205 1.41133E-02 6.54072E-04-6.75234E-14
 -1      3206 1.41519E-02 6.87629E-04-6.74771E-14
 -1      3207 3.25510E-03 4.20146E-04-4.52734E-15
 -1      3208 3.11221E-03 4.19973E-04-4.14091E-15
 -1      3209 2.96929E-03 4.19259E-04-3.77229E-15
 -1      3210 2.82636E-03 4.17948E-04-3.42142E-15
 -1      3211 3.03679E-03 3.82409E-04-4.00980E-15
 -1      3212 3.82664E-03 4.16786E-04-6.24881E-15
 -1      3213 3.68376E-03 4.18149E-04-5.79171E-15
 -1      3214 4.11243E-03 4.13206E-04-7.21583E-15
 -1      3215 3.96953E-03 4.15135E-04-6.72382E-15
 -1      3216 3.89597E-03 3.78884E-04-6.54956E-15
 -1      3217 4.39825E-03 4.08578E-04-8.25170E-15
 -1      3218 4.25533E-03 4.11019E-04-7.72513E-15
 -1      3219 4.18200E-03 3.75202E-04-7.53584E-15
 -1      3220 4.68412E-03 4.02957E-04-9.35540E-15
 -1      3221 4.54118E-03 4.05891E-04-8.79520E-15
 -1      3222 4.46785E-03 3.70543E-04-8.59110E-15
 -1      3223 4.97002E-03 3.96351E-04-1.05254E-14
 -1      3224 4.82706E-03 3.99778E-04-9.93219E-15
 -1      3225 4.75348E-03 3.64948E-04-9.71345E-15
 -1      3226 5.25592E-03 3.88762E-04-1.17601E-14
 -1      3227 5.11296E-03 3.92680E-04-1.11341E-14
 -1      3228 5.03883E-03 3.58428E-04-1.09014E-14
 -1      3229 5.54178E-03 3.80232E-04-1.30621E-14
 -1      3230 5.39885E-03 3.84612E-04-1.24025E-14
 -1      3231 5.32379E-03 3.51000E-04-1.21543E-14
 -1      3232 5.82750E-03 3.70896E-04-1.44321E-14
 -1      3233 5.68464E-03 3.75655E-04-1.37387E-14
 -1      3234 5.60823E-03 3.42730E-04-1.34753E-14
 -1      3235 6.11295E-03 3.61059E-04-1.58724E-14
 -1      3236 5.97024E-03 3.66021E-04-1.51437E-14
 -1      3237 5.89193E-03 3.33796E-04-1.48643E-14
 -1      3238 6.39799E-03 3.51286E-04-1.73798E-14
 -1      3239 6.25550E-03 3.56130E-04-1.66178E-14
 -1      3240 6.17461E-03 3.24547E-04-1.63207E-14
 -1      3241 6.68243E-03 3.42519E-04-1.89565E-14
 -1      3242 6.54025E-03 3.46719E-04-1.81593E-14
 -1      3243 6.45593E-03 3.15591E-04-1.78461E-14
 -1      3244 6.96622E-03 3.36219E-04-2.05994E-14
 -1      3245 6.82436E-03 3.38968E-04-1.97695E-14
 -1      3246 6.73552E-03 3.07891E-04-1.94363E-14
 -1      3247 7.24959E-03 3.34542E-04-2.23106E-14
 -1      3248 7.10786E-03 3.34658E-04-2.14465E-14
 -1      3249 7.01309E-03 3.02862E-04-2.10952E-14
 -1      3250 7.53348E-03 3.40548E-04-2.40839E-14
 -1      3251 7.39129E-03 3.36356E-04-2.31895E-14
 -1      3252 7.28866E-03 3.02483E-04-2.28207E-14
 -1      3253 7.82035E-03 3.58519E-04-2.59171E-14
 -1      3254 7.67621E-03 3.47640E-04-2.49933E-14
 -1      3255 7.56305E-03 3.09400E-04-2.46087E-14
 -1      3256 8.11538E-03 3.94633E-04-2.78041E-14
 -1      3257 7.96630E-03 3.73621E-04-2.68544E-14
 -1      3258 7.83875E-03 3.27259E-04-2.64536E-14
 -1      3259 8.42779E-03 4.58770E-04-2.97373E-14
 -1      3260 8.26861E-03 4.21922E-04-2.87652E-14
 -1      3261 8.12138E-03 3.61368E-04-2.83504E-14
 -1      3262 1.14497E-03 3.10579E-04-5.94116E-16
 -1      3263 1.08237E-03 2.71664E-04-5.63839E-16
 -1      3264 1.20150E-03 2.73042E-04-6.98917E-16
 -1      3265 1.28813E-03 3.32501E-04-7.40361E-16
 -1      3266 1.25081E-02 7.65638E-04-5.14944E-14
 -1      3267 1.23451E-02 7.76199E-04-5.03234E-14
 -1      3268 1.21466E-02 8.18123E-04-4.90926E-14
 -1      3269 1.19618E-02 8.59634E-04-4.79307E-14
 -1      3270 1.18804E-02 8.57531E-04-4.72829E-14
 -1      3271 1.23007E-02 7.40632E-04-4.97295E-14
 -1      3272 1.31077E-02 8.04307E-04-5.62255E-14
 -1      3273 1.29626E-02 7.86295E-04-5.50375E-14
 -1      3274 1.33935E-02 8.51468E-04-5.86031E-14
 -1      3275 1.32510E-02 8.26385E-04-5.74152E-14
 -1      3276 1.31995E-02 7.79598E-04-5.68610E-14
 -1      3277 1.36770E-02 9.08316E-04-6.09810E-14
 -1      3278 1.35353E-02 8.78969E-04-5.97917E-14
 -1      3279 1.34745E-02 8.31765E-04-5.92397E-14
 -1      3280 1.39602E-02 9.70446E-04-6.33549E-14
 -1      3281 1.38185E-02 9.38929E-04-6.21665E-14
 -1      3282 1.37503E-02 8.90971E-04-6.16161E-14
 -1      3283 1.42437E-02 1.03439E-03-6.57233E-14
 -1      3284 1.41019E-02 1.00235E-03-6.45412E-14
 -1      3285 1.40279E-02 9.53869E-04-6.39879E-14
 -1      3286 1.44392E-02 1.06860E-03-6.73878E-14
 -1      3287 1.43307E-02 1.05121E-03-6.64572E-14
 -1      3288 1.42532E-02 1.00277E-03-6.59067E-14
 -1      3289 1.44247E-02 1.03626E-03-6.73750E-14
 -1      3290 1.01685E-03 6.82172E-05-6.29840E-16
 -1      3291 1.01570E-03 4.12304E-05-6.38256E-16
 -1      3292 1.19438E-02 7.90593E-04-4.72552E-14
 -1      3293 1.82455E-03 3.80767E-04-1.45275E-15
 -1      3294 1.68119E-03 3.69300E-04-1.24107E-15
 -1      3295 1.41883E-02 7.20918E-04-6.74289E-14
 -1      3296 1.42216E-02 7.53626E-04-6.73806E-14
 -1      3297 1.40540E-02 6.80515E-04-6.64120E-14
 -1      3298 1.39369E-02 5.08816E-04-6.76993E-14
 -1      3299 1.39833E-02 5.46619E-04-6.76561E-14
 -1      3300 1.03016E-02-6.41874E-04-4.14214E-14
 -1      3301 1.01517E-02-6.64663E-04-4.04132E-14
 -1      3302 1.19578E-02 2.25243E-04-4.88770E-14
 -1      3303 1.17513E-02 1.21358E-04-4.83292E-14
 -1      3304 7.97579E-03 1.77843E-04-3.08727E-14
 -1      3305 7.93201E-03 1.90883E-04-3.07380E-14
 -1      3306 9.36889E-03-4.27329E-04-3.58259E-14
 -1      3307 9.18713E-03-3.33849E-04-3.49893E-14
 -1      3308 8.96058E-03 6.43198E-04-3.27203E-14
 -1      3309 1.40283E-02 5.83325E-04-6.76143E-14
 -1      3310 1.40719E-02 6.19258E-04-6.75690E-14
 -1      3311 1.39741E-02 6.12320E-04-6.65005E-14
 -1      3312 1.38852E-02 5.40185E-04-6.65850E-14
 -1      3313 8.99495E-03-2.34993E-04-3.41910E-14
 -1      3314 8.83843E-03-1.58493E-04-3.35815E-14
 -1      3315 1.28153E-02 7.72815E-04-5.38508E-14
 -1      3316 1.26642E-02 7.65920E-04-5.26694E-14
 -1      3317 1.26357E-02 7.16013E-04-5.21296E-14
 -1      3318 9.76392E-03-5.96345E-04-3.79423E-14
 -1      3319 9.58192E-03-5.21887E-04-3.69207E-14
 -1      3320 1.06841E-02-4.83847E-04-4.36353E-14
 -1      3321 1.05382E-02-5.57530E-04-4.28071E-14
 -1      3322 3.54087E-03 4.19185E-04-5.35233E-15
 -1      3323 3.39799E-03 4.19871E-04-4.93086E-15
 -1      3324 3.32337E-03 3.82772E-04-4.78614E-15
 -1      3325 3.60976E-03 3.81479E-04-5.63182E-15
 -1      3326 1.14731E-02-3.07453E-05-4.74038E-14
 -1      3327 1.12470E-02-1.62068E-04-4.64775E-14
 -1      3328 2.11107E-03 3.98024E-04-1.92804E-15
 -1      3329 1.96783E-03 3.90286E-04-1.68180E-15
 -1      3330 1.88835E-03 3.49999E-04-1.60213E-15
 -1      3331 1.44462E-03-3.13632E-04-1.14230E-15
 -1      3332 1.58813E-03-3.28019E-04-1.35452E-15
 -1      3333 1.65251E-03-2.99909E-04-1.47626E-15
 -1      3334 1.27212E-02 4.88132E-04-5.08165E-14
 -1      3335 1.26393E-02 4.68343E-04-5.05157E-14
 -1      3336 8.63618E-03-6.15826E-05-3.28810E-14
 -1      3337 8.44189E-03 1.93034E-05-3.22358E-14
 -1      3338 8.61505E-03 4.51462E-04-3.21286E-14
 -1      3339 8.79878E-03 5.43028E-04-3.25549E-14
 -1      3340 8.81572E-03 5.81514E-04-3.19886E-14
 -1      3341 8.49910E-03 4.07668E-04-3.16595E-14
 -1      3342 1.25336E-02 4.39670E-04-5.02642E-14
 -1      3343 1.24168E-02 4.07269E-04-4.99204E-14
 -1      3344 1.23977E-02 3.88486E-04-5.05191E-14
 -1      3345 1.25031E-02 5.77151E-04-4.95753E-14
 -1      3346 1.26132E-02 5.47632E-04-5.00421E-14
 -1      3347 1.10133E-02-2.98372E-04-4.53813E-14
 -1      3348 1.08448E-02-3.96886E-04-4.45063E-14
 -1      3349 1.07849E-02-4.46888E-04-4.44164E-14
 -1      3350 8.02630E-03 2.37543E-04-3.09516E-14
 -1      3351 8.13810E-03 2.65510E-04-3.13213E-14
 -1      3352 1.01511E-03 1.44489E-05-6.45344E-16
 -1      3353 1.01507E-03-1.22329E-05-6.51348E-16
 -1      3354 1.13583E-03 3.01636E-05-7.77712E-16
 -1      3355 1.15323E-03 2.11823E-04-6.96912E-16
 -1      3356 1.02849E-03 1.81200E-04-5.80617E-16
 -1      3357 1.02436E-03 1.51865E-04-5.95484E-16
 -1      3358 1.27010E-02 5.41814E-04-5.07732E-14
 -1      3359 1.27753E-02 5.42881E-04-5.15041E-14
 -1      3360 1.27065E-02 5.73547E-04-5.13008E-14
 -1      3361 1.26280E-02 4.59501E-04-5.11173E-14
 -1      3362 1.20931E-02 2.67163E-04-4.97593E-14
 -1      3363 1.43384E-02 9.13994E-04-6.71352E-14
 -1      3364 1.43526E-02 9.47067E-04-6.70845E-14
 -1      3365 8.68512E-03-1.22712E-04-3.27736E-14
 -1      3366 1.11612E-02-2.34263E-04-4.63875E-14
 -1      3367 2.74999E-03 3.79854E-04-3.30377E-15
 -1      3368 2.68339E-03 4.15908E-04-3.08790E-15
 -1      3369 2.54039E-03 4.13060E-04-2.77183E-15
 -1      3370 8.63650E-03 5.15669E-04-3.09926E-14
 -1      3371 8.45954E-03 4.29091E-04-3.05629E-14
 -1      3372 8.00316E-03 1.53951E-04-3.06914E-14
 -1      3373 7.92183E-03 1.51792E-04-3.00268E-14
 -1      3374 8.03596E-03 1.24488E-04-3.05105E-14
 -1      3375 1.25420E-02 6.44965E-04-5.07661E-14
 -1      3376 1.23725E-02 6.62194E-04-4.95406E-14
 -1      3377 1.01864E-03 9.54816E-05-6.20015E-16
 -1      3378 1.13845E-03 8.85579E-05-7.57857E-16
 -1      3379 1.02108E-03 1.23257E-04-6.08549E-16
 -1      3380 1.43014E-02 8.49239E-04-6.72311E-14
 -1      3381 1.43214E-02 8.81419E-04-6.71822E-14
 -1      3382 1.42138E-02 8.71294E-04-6.61306E-14
 -1      3383 1.38986E-02 4.43940E-04-6.82384E-14
 -1      3384 1.20621E-02 7.50547E-04-4.78763E-14
 -1      3385 1.38690E-02 4.63353E-04-6.75933E-14
 -1      3386 1.37699E-02 4.57114E-04-6.65197E-14
 -1      3387 1.42515E-02 7.85584E-04-6.73312E-14
 -1      3388 1.42782E-02 8.17567E-04-6.72823E-14
 -1      3389 1.41748E-02 8.08054E-04-6.62249E-14
 -1      3390 1.41216E-02 7.45287E-04-6.63206E-14
 -1      3391 9.98476E-03-6.62694E-04-3.93380E-14
 -1      3392 1.36555E-03-2.73060E-04-1.05138E-15
 -1      3393 1.29222E-02 7.38859E-04-5.44879E-14
 -1      3394 1.16473E-02 4.28601E-05-4.84160E-14
 -1      3395 1.22359E-02 6.76710E-04-4.85482E-14
 -1      3396 8.31110E-03 5.20437E-05-3.16272E-14
 -1      3397 8.19034E-03 7.38986E-05-3.10232E-14
 -1      3398 8.36138E-03-1.80878E-06-3.14723E-14
 -1      3399 9.87636E-03-6.46124E-04-3.86390E-14
 -1      3400 7.87973E-03 1.87833E-04-3.00881E-14
 -1      3401 9.05980E-03-3.09415E-04-3.42612E-14
 -1      3402 8.18660E-03 2.86877E-04-3.10328E-14
 -1      3403 9.44622E-03-4.92586E-04-3.61437E-14
 -1      3404 2.25423E-03 4.04291E-04-2.19192E-15
 -1      3405 2.17574E-03 3.64843E-04-2.09987E-15
 -1      3406 2.39733E-03 4.09223E-04-2.47313E-15
 -1      3407 1.55627E-03 3.61311E-04-1.06601E-15
 -1      3408 1.41290E-03 3.45224E-04-8.87013E-16
 -1      3409 1.36914E-03 3.15024E-04-8.64665E-16
 -1      3410 1.61934E-03 3.33664E-04-1.19384E-15
 -1      3411 1.27639E-02 5.02275E-04-5.11740E-14
 -1      3412 1.27736E-02 4.99764E-04-5.17296E-14
 -1      3413 1.27945E-02 5.16006E-04-5.15315E-14
 -1      3414 1.01837E-03-9.30137E-05-6.61716E-16
 -1      3415 1.02072E-03-1.20733E-04-6.62773E-16
 -1      3416 9.95861E-04-2.54068E-04-5.92652E-16
 -1      3417 7.94999E-03 2.20901E-04-3.02726E-14
 -1      3418 1.02387E-03-1.49143E-04-6.62136E-16
 -1      3419 1.02788E-03-1.78389E-04-6.59791E-16
 -1      3420 1.14354E-03-1.45911E-04-8.02269E-16
 -1      3421 1.06002E-03-2.37072E-04-6.74821E-16
 -1      3422 7.86653E-03 2.07184E-04-2.94350E-14
 -1      3423 7.95753E-03 2.32145E-04-2.97348E-14
 -1      3424 8.71789E-03-1.84735E-04-3.26164E-14
 -1      3425 8.53712E-03-9.94790E-05-3.19261E-14
 -1      3426 2.15067E-03-2.92711E-04-2.39748E-15
 -1      3427 2.29503E-03-2.97418E-04-2.69836E-15
 -1      3428 2.43938E-03-3.01134E-04-3.01666E-15
 -1      3429 2.58369E-03-3.03951E-04-3.35254E-15
 -1      3430 2.36254E-03-2.62695E-04-2.85759E-15
 -1      3431 2.72794E-03-3.06027E-04-3.70416E-15
 -1      3432 2.87211E-03-3.07432E-04-4.07276E-15
 -1      3433 2.65177E-03-2.67878E-04-3.52675E-15
 -1      3434 3.01619E-03-3.08288E-04-4.45923E-15
 -1      3435 3.16016E-03-3.08643E-04-4.86194E-15
 -1      3436 2.94072E-03-2.70484E-04-4.26316E-15
 -1      3437 3.30404E-03-3.08590E-04-5.28072E-15
 -1      3438 3.44780E-03-3.08158E-04-5.71667E-15
 -1      3439 3.22924E-03-2.71165E-04-5.06711E-15
 -1      3440 3.59144E-03-3.07415E-04-6.16888E-15
 -1      3441 3.73497E-03-3.06375E-04-6.63768E-15
 -1      3442 3.51723E-03-2.70400E-04-5.93710E-15
 -1      3443 3.87838E-03-3.05086E-04-7.12245E-15
 -1      3444 4.02166E-03-3.03552E-04-7.62289E-15
 -1      3445 3.80462E-03-2.68514E-04-6.87266E-15
 -1      3446 4.16482E-03-3.01803E-04-8.13996E-15
 -1      3447 4.30785E-03-2.99837E-04-8.67321E-15
 -1      3448 4.09139E-03-2.65711E-04-7.87311E-15
 -1      3449 4.45074E-03-2.97674E-04-9.22111E-15
 -1      3450 4.59350E-03-2.95306E-04-9.78517E-15
 -1      3451 4.37747E-03-2.62106E-04-8.93728E-15
 -1      3452 4.73611E-03-2.92746E-04-1.03654E-14
 -1      3453 4.87858E-03-2.89984E-04-1.09614E-14
 -1      3454 4.66281E-03-2.57744E-04-1.00652E-14
 -1      3455 5.02089E-03-2.87034E-04-1.15725E-14
 -1      3456 5.16306E-03-2.83883E-04-1.21987E-14
 -1      3457 4.94734E-03-2.52631E-04-1.12557E-14
 -1      3458 5.30506E-03-2.80550E-04-1.28411E-14
 -1      3459 5.44691E-03-2.77027E-04-1.35012E-14
 -1      3460 5.23100E-03-2.46761E-04-1.25090E-14
 -1      3461 5.58859E-03-2.73341E-04-1.41775E-14
 -1      3462 5.73014E-03-2.69492E-04-1.48691E-14
 -1      3463 5.51373E-03-2.40135E-04-1.38270E-14
 -1      3464 5.87154E-03-2.65521E-04-1.55777E-14
 -1      3465 6.01286E-03-2.61443E-04-1.63029E-14
 -1      3466 5.79550E-03-2.32797E-04-1.52105E-14
 -1      3467 6.15407E-03-2.57318E-04-1.70459E-14
 -1      3468 6.29528E-03-2.53187E-04-1.78057E-14
 -1      3469 6.07638E-03-2.24865E-04-1.66608E-14
 -1      3470 6.43651E-03-2.49129E-04-1.85819E-14
 -1      3471 6.57789E-03-2.45230E-04-1.93746E-14
 -1      3472 6.35658E-03-2.16574E-04-1.81790E-14
 -1      3473 6.71949E-03-2.41589E-04-2.01823E-14
 -1      3474 6.86151E-03-2.38362E-04-2.10057E-14
 -1      3475 6.63659E-03-2.08327E-04-1.97614E-14
 -1      3476 7.00408E-03-2.35666E-04-2.18456E-14
 -1      3477 7.14749E-03-2.33775E-04-2.27003E-14
 -1      3478 6.91729E-03-2.00783E-04-2.14075E-14
 -1      3479 7.29197E-03-2.32818E-04-2.35699E-14
 -1      3480 7.43790E-03-2.33257E-04-2.44531E-14
 -1      3481 7.20019E-03-1.94994E-04-2.31153E-14
 -1      3482 7.58567E-03-2.35231E-04-2.53484E-14
 -1      3483 7.73571E-03-2.39496E-04-2.62573E-14
 -1      3484 7.48765E-03-1.92642E-04-2.48807E-14
 -1      3485 7.88859E-03-2.46169E-04-2.71780E-14
 -1      3486 8.04473E-03-2.56494E-04-2.81103E-14
 -1      3487 7.78317E-03-1.96496E-04-2.66965E-14
 -1      3488 8.20493E-03-2.70709E-04-2.90533E-14
 -1      3489 8.36926E-03-2.90312E-04-3.00083E-14
 -1      3490 8.09149E-03-2.11229E-04-2.85604E-14
 -1      3491 8.53829E-03-2.63809E-04-3.11426E-14
 -1      3492 8.71297E-03-2.96088E-04-3.21209E-14
 -1      3493 1.28790E-03-2.34016E-04-9.62500E-16
 -1      3494 1.43080E-03-2.48278E-04-1.15720E-15
 -1      3495 1.05656E-02-5.65618E-04-4.32532E-14
 -1      3496 1.07377E-02-4.92638E-04-4.43691E-14
 -1      3497 1.13261E-02-2.13013E-04-4.80006E-14
 -1      3498 1.15058E-02-1.37935E-04-4.91447E-14
 -1      3499 1.16830E-02-7.00668E-05-5.02949E-14
 -1      3500 1.18551E-02-9.57509E-06-5.14523E-14
 -1      3501 1.16566E-02-4.14326E-05-4.96955E-14
 -1      3502 1.20231E-02 4.38651E-05-5.26157E-14
 -1      3503 1.21864E-02 9.24736E-05-5.37847E-14
 -1      3504 1.20025E-02 7.51467E-05-5.20095E-14
 -1      3505 1.23458E-02 1.36058E-04-5.49596E-14
 -1      3506 1.25013E-02 1.76070E-04-5.61398E-14
 -1      3507 1.23272E-02 1.66118E-04-5.43475E-14
 -1      3508 1.26538E-02 2.12795E-04-5.73304E-14
 -1      3509 1.28037E-02 2.47410E-04-5.85247E-14
 -1      3510 1.26345E-02 2.40398E-04-5.67123E-14
 -1      3511 1.29515E-02 2.80086E-04-5.97203E-14
 -1      3512 1.30977E-02 3.11536E-04-6.09249E-14
 -1      3513 1.29301E-02 3.05161E-04-5.90985E-14
 -1      3514 1.32425E-02 3.41974E-04-6.21327E-14
 -1      3515 1.33864E-02 3.71856E-04-6.33432E-14
 -1      3516 1.32186E-02 3.64928E-04-6.15014E-14
 -1      3517 1.35074E-02 3.99868E-04-6.43221E-14
 -1      3518 1.36499E-02 4.29284E-04-6.55367E-14
 -1      3519 1.37199E-02 4.75403E-04-6.56438E-14
 -1      3520 1.34813E-02 4.21204E-04-6.36856E-14
 -1      3521 1.27154E-02 4.77000E-04-5.19525E-14
 -1      3522 1.26176E-02 4.48262E-04-5.16993E-14
 -1      3523 1.01666E-03-6.57888E-05-6.59601E-16
 -1      3524 1.13821E-03-8.59871E-05-8.00101E-16
 -1      3525 1.01559E-03-3.89435E-05-6.56213E-16
 -1      3526 4.25155E-03 3.37279E-04-7.85789E-15
 -1      3527 4.10853E-03 3.39246E-04-7.34635E-15
 -1      3528 3.96541E-03 3.40974E-04-6.85171E-15
 -1      3529 3.82220E-03 3.42463E-04-6.37413E-15
 -1      3530 4.03495E-03 3.03121E-04-7.15575E-15
 -1      3531 4.82250E-03 3.27231E-04-1.00734E-14
 -1      3532 4.67995E-03 3.30068E-04-9.49460E-15
 -1      3533 5.10712E-03 3.20930E-04-1.12791E-14
 -1      3534 4.96489E-03 3.24188E-04-1.06682E-14
 -1      3535 4.89120E-03 2.89872E-04-1.04344E-14
 -1      3536 5.39096E-03 3.13820E-04-1.25510E-14
 -1      3537 5.24914E-03 3.17477E-04-1.19065E-14
 -1      3538 5.17494E-03 2.83925E-04-1.16589E-14
 -1      3539 5.67376E-03 3.06002E-04-1.38906E-14
 -1      3540 5.53249E-03 3.09997E-04-1.32125E-14
 -1      3541 5.45747E-03 2.77295E-04-1.29492E-14
 -1      3542 5.95519E-03 2.97691E-04-1.52960E-14
 -1      3543 5.81465E-03 3.01900E-04-1.45841E-14
 -1      3544 5.73845E-03 2.70119E-04-1.43060E-14
 -1      3545 6.23483E-03 2.89286E-04-1.67699E-14
 -1      3546 6.09524E-03 2.93484E-04-1.60244E-14
 -1      3547 6.01742E-03 2.62656E-04-1.57291E-14
 -1      3548 6.51214E-03 2.81428E-04-1.83100E-14
 -1      3549 6.37378E-03 2.85260E-04-1.75320E-14
 -1      3550 6.29380E-03 2.55345E-04-1.72196E-14
 -1      3551 6.78653E-03 2.75077E-04-1.99168E-14
 -1      3552 6.64970E-03 2.78021E-04-1.91057E-14
 -1      3553 6.56687E-03 2.48856E-04-1.87758E-14
 -1      3554 7.05746E-03 2.71568E-04-2.15918E-14
 -1      3555 6.92241E-03 2.72906E-04-2.07458E-14
 -1      3556 6.83581E-03 2.44126E-04-2.03983E-14
 -1      3557 7.32463E-03 2.72644E-04-2.33317E-14
 -1      3558 7.19144E-03 2.71447E-04-2.24538E-14
 -1      3559 7.09974E-03 2.42367E-04-2.20881E-14
 -1      3560 7.58847E-03 2.80478E-04-2.51334E-14
 -1      3561 7.45677E-03 2.75588E-04-2.42254E-14
 -1      3562 7.35792E-03 2.45024E-04-2.38428E-14
 -1      3563 7.85104E-03 2.97837E-04-2.69906E-14
 -1      3564 7.71948E-03 2.87670E-04-2.60556E-14
 -1      3565 7.61009E-03 2.53565E-04-2.56578E-14
 -1      3566 8.11729E-03 3.29532E-04-2.88969E-14
 -1      3567 7.98281E-03 3.11536E-04-2.79381E-14
 -1      3568 7.85729E-03 2.70114E-04-2.75259E-14
 -1      3569 1.04703E-02-5.93441E-04-4.25166E-14
 -1      3570 8.31897E-03 3.61226E-04-3.04017E-14
 -1      3571 1.24999E-02 4.07340E-04-5.14804E-14
 -1      3572 1.23817E-02 3.66257E-04-5.11330E-14
 -1      3573 1.38194E-02 8.75565E-04-6.22482E-14
 -1      3574 1.36841E-02 8.44817E-04-6.10614E-14
 -1      3575 1.32843E-02 7.59700E-04-5.74973E-14
 -1      3576 1.31523E-02 7.34803E-04-5.63081E-14
 -1      3577 1.40925E-02 9.38565E-04-6.46217E-14
 -1      3578 1.39555E-02 9.06868E-04-6.34353E-14
 -1      3579 1.38842E-02 8.61462E-04-6.28835E-14
 -1      3580 1.39188E-02 6.40194E-04-6.53894E-14
 -1      3581 1.39569E-02 6.73356E-04-6.53482E-14
 -1      3582 1.57422E-03-2.60525E-04-1.36954E-15
 -1      3583 1.71805E-03-2.70906E-04-1.60011E-15
 -1      3584 1.49697E-03-2.22224E-04-1.26524E-15
 -1      3585 7.83362E-03 1.68777E-04-2.94396E-14
 -1      3586 7.82068E-03 1.82555E-04-2.93212E-14
 -1      3587 1.22227E-02 3.01405E-04-5.07123E-14
 -1      3588 1.20564E-02 2.24035E-04-5.02975E-14
 -1      3589 1.23456E-02 3.28207E-04-5.16735E-14
 -1      3590 1.35500E-02 8.15103E-04-5.98731E-14
 -1      3591 1.34166E-02 7.86557E-04-5.86850E-14
 -1      3592 1.33613E-02 7.43399E-04-5.81302E-14
 -1      3593 1.36197E-02 8.00563E-04-6.05081E-14
 -1      3594 9.75965E-03-6.33121E-04-3.79321E-14
 -1      3595 1.43815E-02 9.75636E-04-6.72235E-14
 -1      3596 1.43970E-02 1.00640E-03-6.72368E-14
 -1      3597 1.43121E-02 9.89712E-04-6.65011E-14
 -1      3598 1.42571E-02 9.31843E-04-6.62230E-14
 -1      3599 1.95335E-03 3.18527E-04-1.75550E-15
 -1      3600 1.80935E-03 3.10079E-04-1.52139E-15
 -1      3601 4.53727E-03 3.32686E-04-8.93212E-15
 -1      3602 4.39446E-03 3.35094E-04-8.38644E-15
 -1      3603 4.32106E-03 2.99502E-04-8.18165E-15
 -1      3604 4.60652E-03 2.95074E-04-9.27496E-15
 -1      3605 3.10484E-03 3.45295E-04-4.25040E-15
 -1      3606 2.96112E-03 3.44653E-04-3.87755E-15
 -1      3607 1.30209E-02 7.12309E-04-5.51217E-14
 -1      3608 1.28884E-02 6.93052E-04-5.39389E-14
 -1      3609 1.31090E-02 6.91912E-04-5.57543E-14
 -1      3610 1.26424E-02 6.70774E-04-5.18188E-14
 -1      3611 1.26907E-02 6.10460E-04-5.16174E-14
 -1      3612 1.27876E-02 6.03998E-04-5.23548E-14
 -1      3613 1.27793E-02 6.81991E-04-5.29894E-14
 -1      3614 1.06465E-03-2.15963E-04-6.89322E-16
 -1      3615 1.08863E-02-4.15022E-04-4.52446E-14
 -1      3616 1.10667E-02-3.29656E-04-4.63704E-14
 -1      3617 9.09051E-03-3.72566E-04-3.42260E-14
 -1      3618 8.91772E-03-2.86448E-04-3.34379E-14
 -1      3619 1.86211E-03-2.79628E-04-1.84817E-15
 -1      3620 2.00635E-03-2.86820E-04-2.11400E-15
 -1      3621 2.07332E-03-2.54082E-04-2.25650E-15
 -1      3622 8.15949E-03 3.02637E-04-2.99729E-14
 -1      3623 9.58659E-03-5.89236E-04-3.68822E-14
 -1      3624 9.39497E-03-5.14597E-04-3.57883E-14
 -1      3625 9.21238E-03-4.57925E-04-3.47650E-14
 -1      3626 9.06784E-03-4.33875E-04-3.39338E-14
 -1      3627 1.27944E-03 2.42855E-04-8.23086E-16
 -1      3628 1.27337E-03 2.08670E-04-8.44946E-16
 -1      3629 8.43776E-03-1.18943E-04-3.11686E-14
 -1      3630 8.40547E-03-5.95984E-05-3.13215E-14
 -1      3631 8.27894E-03-2.75902E-05-3.07199E-14
 -1      3632 1.41245E-02 8.98213E-04-6.50761E-14
 -1      3633 1.41510E-02 9.26515E-04-6.52142E-14
 -1      3634 7.72065E-03 1.72213E-04-2.81550E-14
 -1      3635 7.79027E-03 1.89306E-04-2.87922E-14
 -1      3636 7.76998E-03 1.98461E-04-2.82633E-14
 -1      3637 8.88866E-03-3.87690E-04-3.29325E-14
 -1      3638 1.12761E-02-2.12862E-04-4.74736E-14
 -1      3639 1.26102E-02 4.31527E-04-5.23163E-14
 -1      3640 8.76029E-03-2.52157E-04-3.25836E-14
 -1      3641 1.36502E-02 4.87188E-04-6.46271E-14
 -1      3642 1.37678E-02 5.13602E-04-6.56052E-14
 -1      3643 1.38145E-02 5.50696E-04-6.55648E-14
 -1      3644 1.13575E-03-2.76991E-05-7.91779E-16
 -1      3645 1.25908E-03-7.63227E-05-9.50574E-16
 -1      3646 1.26116E-03-1.07772E-04-9.53746E-16
 -1      3647 8.07664E-03 8.73223E-05-3.03596E-14
 -1      3648 7.97253E-03 9.38270E-05-2.97002E-14
 -1      3649 8.11596E-03 4.45050E-05-3.02074E-14
 -1      3650 2.81732E-03 3.43443E-04-3.52259E-15
 -1      3651 2.67345E-03 3.41608E-04-3.18501E-15
 -1      3652 2.88531E-03 3.06749E-04-3.74466E-15
 -1      3653 3.24848E-03 3.45471E-04-4.64045E-15
 -1      3654 3.17341E-03 3.07990E-04-4.49352E-15
 -1      3655 3.39204E-03 3.45221E-04-5.04738E-15
 -1      3656 3.74827E-03 3.05857E-04-6.19836E-15
 -1      3657 3.67890E-03 3.43680E-04-5.91377E-15
 -1      3658 3.53551E-03 3.44616E-04-5.47156E-15
 -1      3659 1.73102E-03 2.70727E-04-1.43962E-15
 -1      3660 1.66548E-03 2.99874E-04-1.30415E-15
 -1      3661 7.84213E-03 1.28000E-04-2.90883E-14
 -1      3662 7.83379E-03 1.50037E-04-2.92638E-14
 -1      3663 7.75282E-03 1.46999E-04-2.85069E-14
 -1      3664 1.14400E-03 1.48708E-04-7.31213E-16
 -1      3665 1.38607E-02 6.65989E-04-6.42852E-14
 -1      3666 1.39914E-02 7.05315E-04-6.53041E-14
 -1      3667 1.40221E-02 7.36656E-04-6.52617E-14
 -1      3668 1.26146E-03 1.10521E-04-8.96757E-16
 -1      3669 1.25929E-03 7.90491E-05-9.09984E-16
 -1      3670 1.42272E-02 9.72840E-04-6.57665E-14
 -1      3671 2.09740E-03 3.25488E-04-2.00678E-15
 -1      3672 2.01938E-03 2.86381E-04-1.91294E-15
 -1      3673 2.24146E-03 3.31091E-04-2.27536E-15
 -1      3674 1.78456E-03-2.41001E-04-1.72562E-15
 -1      3675 1.38105E-03 6.70511E-05-1.07592E-15
 -1      3676 1.25785E-03 4.77726E-05-9.21260E-16
 -1      3677 1.25712E-03 1.67149E-05-9.30923E-16
 -1      3678 1.18422E-03-2.15459E-04-8.34510E-16
 -1      3679 1.25043E-03-1.93771E-04-9.26749E-16
 -1      3680 1.20438E-02 1.86589E-04-5.08311E-14
 -1      3681 1.18998E-02 1.43400E-04-4.98768E-14
 -1      3682 1.34490E-03 2.92818E-04-8.57170E-16
 -1      3683 1.30258E-03 2.63949E-04-8.32518E-16
 -1      3684 1.42280E-03 2.59203E-04-9.95352E-16
 -1      3685 1.46997E-03 3.02966E-04-1.01468E-15
 -1      3686 1.27823E-02 4.95673E-04-5.23133E-14
 -1      3687 1.27882E-02 4.88738E-04-5.28989E-14
 -1      3688 1.28382E-02 5.11786E-04-5.26740E-14
 -1      3689 1.54002E-03 2.93212E-04-1.12463E-15
 -1      3690 1.16493E-02 1.06863E-05-4.89445E-14
 -1      3691 2.46297E-03 3.74344E-04-2.66749E-15
 -1      3692 1.28836E-02 6.53906E-04-5.36210E-14
 -1      3693 1.28584E-02 5.63231E-04-5.25965E-14
 -1      3694 1.28296E-02 5.37828E-04-5.20631E-14
 -1      3695 1.28690E-02 5.35671E-04-5.26227E-14
 -1      3696 1.40977E-02 8.33890E-04-6.51681E-14
 -1      3697 1.41127E-02 8.65685E-04-6.51231E-14
 -1      3698 1.40100E-02 8.59833E-04-6.41155E-14
 -1      3699 8.02948E-03 2.64835E-04-2.95248E-14
 -1      3700 1.38468E-02 5.78783E-04-6.54995E-14
 -1      3701 1.38899E-02 6.13784E-04-6.54574E-14
 -1      3702 1.37947E-02 6.07793E-04-6.43932E-14
 -1      3703 1.37319E-02 5.53344E-04-6.45234E-14
 -1      3704 1.25326E-03-1.34343E-04-9.41697E-16
 -1      3705 1.25689E-03-1.66615E-04-9.41548E-16
 -1      3706 1.36014E-03-1.81885E-04-1.07787E-15
 -1      3707 1.37456E-03-1.25452E-04-1.10580E-15
 -1      3708 7.91418E-03 2.46059E-04-2.86925E-14
 -1      3709 8.41076E-03-1.91857E-04-3.06336E-14
 -1      3710 2.57577E-03-2.29775E-04-3.35177E-15
 -1      3711 2.72059E-03-2.31450E-04-3.70205E-15
 -1      3712 2.86532E-03-2.32611E-04-4.06944E-15
 -1      3713 3.00995E-03-2.33299E-04-4.45423E-15
 -1      3714 2.79007E-03-1.94727E-04-3.87833E-15
 -1      3715 3.15445E-03-2.33605E-04-4.85523E-15
 -1      3716 3.29880E-03-2.33554E-04-5.27280E-15
 -1      3717 3.07974E-03-1.95942E-04-4.64475E-15
 -1      3718 3.44300E-03-2.33214E-04-5.70671E-15
 -1      3719 3.58702E-03-2.32600E-04-6.15728E-15
 -1      3720 3.36881E-03-1.95873E-04-5.47862E-15
 -1      3721 3.73087E-03-2.31759E-04-6.62481E-15
 -1      3722 3.87452E-03-2.30695E-04-7.10795E-15
 -1      3723 3.65715E-03-1.94819E-04-6.37827E-15
 -1      3724 4.01799E-03-2.29442E-04-7.60730E-15
 -1      3725 4.16124E-03-2.27996E-04-8.12296E-15
 -1      3726 3.94465E-03-1.92978E-04-7.34311E-15
 -1      3727 4.30429E-03-2.26379E-04-8.65471E-15
 -1      3728 4.44711E-03-2.24581E-04-9.20233E-15
 -1      3729 4.23122E-03-1.90461E-04-8.37278E-15
 -1      3730 4.58969E-03-2.22617E-04-9.76529E-15
 -1      3731 4.73203E-03-2.20471E-04-1.03451E-14
 -1      3732 4.51677E-03-1.87316E-04-9.46757E-15
 -1      3733 4.87410E-03-2.18157E-04-1.09401E-14
 -1      3734 5.01591E-03-2.15654E-04-1.15508E-14
 -1      3735 4.80117E-03-1.83541E-04-1.06251E-14
 -1      3736 5.15742E-03-2.12975E-04-1.21767E-14
 -1      3737 5.29864E-03-2.10098E-04-1.28189E-14
 -1      3738 5.08430E-03-1.79100E-04-1.18453E-14
 -1      3739 5.43953E-03-2.07042E-04-1.34780E-14
 -1      3740 5.58012E-03-2.03781E-04-1.41531E-14
 -1      3741 5.36600E-03-1.73942E-04-1.31302E-14
 -1      3742 5.72035E-03-2.00343E-04-1.48447E-14
 -1      3743 5.86028E-03-1.96706E-04-1.55518E-14
 -1      3744 5.64612E-03-1.68010E-04-1.44795E-14
 -1      3745 5.99986E-03-1.92905E-04-1.62774E-14
 -1      3746 6.13914E-03-1.88929E-04-1.70187E-14
 -1      3747 5.92454E-03-1.61258E-04-1.58949E-14
 -1      3748 6.27813E-03-1.84823E-04-1.77762E-14
 -1      3749 6.41690E-03-1.80595E-04-1.85508E-14
 -1      3750 6.20123E-03-1.53667E-04-1.73762E-14
 -1      3751 6.55547E-03-1.76299E-04-1.93424E-14
 -1      3752 6.69401E-03-1.71984E-04-2.01489E-14
 -1      3753 6.47631E-03-1.45274E-04-1.89237E-14
 -1      3754 6.83255E-03-1.67709E-04-2.09712E-14
 -1      3755 6.97137E-03-1.63596E-04-2.18092E-14
 -1      3756 6.75018E-03-1.36207E-04-2.05360E-14
 -1      3757 7.11056E-03-1.59705E-04-2.26618E-14
 -1      3758 7.25056E-03-1.56302E-04-2.35308E-14
 -1      3759 7.02370E-03-1.26771E-04-2.22112E-14
 -1      3760 7.39155E-03-1.53444E-04-2.44128E-14
 -1      3761 7.53416E-03-1.51646E-04-2.53076E-14
 -1      3762 7.29845E-03-1.17616E-04-2.39455E-14
 -1      3763 7.67876E-03-1.50964E-04-2.62148E-14
 -1      3764 7.82618E-03-1.52454E-04-2.71351E-14
 -1      3765 7.57712E-03-1.10059E-04-2.57345E-14
 -1      3766 7.97700E-03-1.56172E-04-2.80672E-14
 -1      3767 8.13214E-03-1.63859E-04-2.90097E-14
 -1      3768 7.86420E-03-1.06932E-04-2.75725E-14
 -1      3769 1.14315E-02-1.09217E-04-4.80179E-14
 -1      3770 1.23142E-02 1.98226E-04-5.37361E-14
 -1      3771 1.24687E-02 2.35395E-04-5.49104E-14
 -1      3772 1.26191E-02 2.69035E-04-5.60920E-14
 -1      3773 1.27666E-02 3.00794E-04-5.72821E-14
 -1      3774 1.26081E-02 2.98958E-04-5.54739E-14
 -1      3775 1.29114E-02 3.30678E-04-5.84761E-14
 -1      3776 1.30546E-02 3.59755E-04-5.96701E-14
 -1      3777 1.28957E-02 3.56759E-04-5.78494E-14
 -1      3778 1.31965E-02 3.88028E-04-6.08714E-14
 -1      3779 1.33375E-02 4.15970E-04-6.20773E-14
 -1      3780 1.31762E-02 4.11248E-04-6.02430E-14
 -1      3781 1.34350E-02 4.38466E-04-6.28623E-14
 -1      3782 1.35534E-02 4.64851E-04-6.38376E-14
 -1      3783 1.36030E-02 5.03126E-04-6.38002E-14
 -1      3784 1.34115E-02 4.59749E-04-6.22285E-14
 -1      3785 1.79759E-03 2.40686E-04-1.57882E-15
 -1      3786 1.65355E-03 2.32265E-04-1.35687E-15
 -1      3787 5.24238E-03 2.47495E-04-1.20394E-14
 -1      3788 5.10119E-03 2.50300E-04-1.14101E-14
 -1      3789 4.95965E-03 2.52944E-04-1.07969E-14
 -1      3790 4.81778E-03 2.55443E-04-1.02001E-14
 -1      3791 5.02789E-03 2.16500E-04-1.11608E-14
 -1      3792 5.80254E-03 2.35174E-04-1.47221E-14
 -1      3793 5.66329E-03 2.38386E-04-1.40270E-14
 -1      3794 6.07895E-03 2.28782E-04-1.61637E-14
 -1      3795 5.94110E-03 2.31977E-04-1.54347E-14
 -1      3796 5.86617E-03 2.01212E-04-1.51405E-14
 -1      3797 6.35199E-03 2.22815E-04-1.76691E-14
 -1      3798 6.21592E-03 2.25733E-04-1.69081E-14
 -1      3799 6.13998E-03 1.96105E-04-1.65977E-14
 -1      3800 6.62076E-03 2.17963E-04-1.92414E-14
 -1      3801 6.48695E-03 2.20233E-04-1.84464E-14
 -1      3802 6.40969E-03 1.91719E-04-1.81194E-14
 -1      3803 6.88419E-03 2.15132E-04-2.08807E-14
 -1      3804 6.75319E-03 2.16278E-04-2.00531E-14
 -1      3805 6.67421E-03 1.88760E-04-1.97085E-14
 -1      3806 7.14102E-03 2.15410E-04-2.25862E-14
 -1      3807 7.01346E-03 2.14874E-04-2.17255E-14
 -1      3808 6.93219E-03 1.88101E-04-2.13635E-14
 -1      3809 7.38991E-03 2.19973E-04-2.43541E-14
 -1      3810 7.26645E-03 2.17174E-04-2.34620E-14
 -1      3811 7.18195E-03 1.90713E-04-2.30840E-14
 -1      3812 7.62943E-03 2.29742E-04-2.61820E-14
 -1      3813 7.51072E-03 2.24299E-04-2.52614E-14
 -1      3814 7.42139E-03 1.97502E-04-2.48668E-14
 -1      3815 7.80464E-03 2.35733E-04-2.77395E-14
 -1      3816 1.28736E-02 6.21552E-04-5.32714E-14
 -1      3817 1.28704E-02 5.88978E-04-5.29481E-14
 -1      3818 1.29334E-02 5.82244E-04-5.35108E-14
 -1      3819 1.29683E-02 6.37523E-04-5.42189E-14
 -1      3820 1.38779E-02 8.29095E-04-6.29291E-14
 -1      3821 1.23227E-02 2.64043E-04-5.27701E-14
 -1      3822 1.21882E-02 1.96959E-04-5.23454E-14
 -1      3823 2.52950E-03 3.39008E-04-2.86450E-15
 -1      3824 2.38550E-03 3.35563E-04-2.56128E-15
 -1      3825 2.59684E-03 3.03283E-04-3.06527E-15
 -1      3826 1.26842E-03 1.75286E-04-8.64218E-16
 -1      3827 1.26450E-03 1.42567E-04-8.81565E-16
 -1      3828 1.38578E-03 1.33865E-04-1.04608E-15
 -1      3829 1.39409E-03 2.02584E-04-1.00740E-15
 -1      3830 1.40488E-02 7.67477E-04-6.52160E-14
 -1      3831 1.40716E-02 7.98258E-04-6.51696E-14
 -1      3832 1.39232E-02 7.27792E-04-6.42026E-14
 -1      3833 1.27282E-02 4.56697E-04-5.32726E-14
 -1      3834 1.26232E-02 4.17255E-04-5.30502E-14
 -1      3835 1.25708E-03-1.41787E-05-9.39231E-16
 -1      3836 1.25771E-03-4.51565E-05-9.45777E-16
 -1      3837 1.38088E-03-6.42874E-05-1.11291E-15
 -1      3838 1.37947E-03 1.33068E-06-1.09811E-15
 -1      3839 1.50300E-03-1.92124E-04-1.28267E-15
 -1      3840 1.16851E-02 1.14619E-06-4.94763E-14
 -1      3841 1.70783E-03-2.03280E-04-1.60578E-15
 -1      3842 1.85203E-03-2.10191E-04-1.85334E-15
 -1      3843 1.32052E-02 6.85644E-04-5.65883E-14
 -1      3844 1.30853E-02 6.60654E-04-5.54015E-14
 -1      3845 1.30617E-02 6.31427E-04-5.50466E-14
 -1      3846 1.25427E-02 3.75314E-04-5.31231E-14
 -1      3847 1.24043E-02 3.17594E-04-5.27000E-14
 -1      3848 1.25306E-02 3.17404E-04-5.42269E-14
 -1      3849 1.26765E-02 4.06878E-04-5.40838E-14
 -1      3850 5.52349E-03 2.41514E-04-1.33483E-14
 -1      3851 5.38315E-03 2.44572E-04-1.26851E-14
 -1      3852 5.58912E-03 2.06524E-04-1.37474E-14
 -1      3853 4.10461E-03 2.65371E-04-7.46239E-15
 -1      3854 3.96134E-03 2.66814E-04-6.96515E-15
 -1      3855 2.28604E-03-2.24483E-04-2.70076E-15
 -1      3856 2.43091E-03-2.27473E-04-3.01796E-15
 -1      3857 2.50004E-03-1.91805E-04-3.17873E-15
 -1      3858 1.99652E-03-2.15953E-04-2.11822E-15
 -1      3859 2.14122E-03-2.20672E-04-2.40071E-15
 -1      3860 2.20996E-03-1.86616E-04-2.54640E-15
 -1      3861 1.18618E-02 6.34874E-05-5.06294E-14
 -1      3862 7.70668E-03 2.07738E-04-2.73251E-14
 -1      3863 1.92037E-03-1.78476E-04-1.98245E-15
 -1      3864 7.86049E-03 9.98665E-05-2.89425E-14
 -1      3865 7.75771E-03 1.01985E-04-2.81908E-14
 -1      3866 7.88228E-03 6.70834E-05-2.87961E-14
 -1      3867 1.94190E-03 2.47746E-04-1.81788E-15
 -1      3868 1.86506E-03 2.09737E-04-1.72257E-15
 -1      3869 2.08641E-03 2.53552E-04-2.07390E-15
 -1      3870 1.20315E-02 1.15957E-04-5.17899E-14
 -1      3871 5.30952E-03 2.11692E-04-1.24214E-14
 -1      3872 2.95394E-03 2.69783E-04-3.96963E-15
 -1      3873 2.80949E-03 2.68755E-04-3.61069E-15
 -1      3874 3.46108E-03 3.07563E-04-5.31103E-15
 -1      3875 3.81789E-03 2.68045E-04-6.48506E-15
 -1      3876 3.67427E-03 2.69062E-04-6.02242E-15
 -1      3877 3.88773E-03 2.30307E-04-6.77433E-15
 -1      3878 4.74464E-03 2.20827E-04-9.96490E-15
 -1      3879 4.67563E-03 2.57769E-04-9.61884E-15
 -1      3880 4.53321E-03 2.59936E-04-9.05436E-15
 -1      3881 3.09828E-03 2.70357E-04-4.34612E-15
 -1      3882 3.02315E-03 2.32612E-04-4.19785E-15
 -1      3883 3.24249E-03 2.70513E-04-4.73933E-15
 -1      3884 7.67448E-03 1.49712E-04-2.77608E-14
 -1      3885 7.62780E-03 1.59049E-04-2.72412E-14
 -1      3886 7.66085E-03 1.31605E-04-2.75915E-14
 -1      3887 1.37294E-02 6.27374E-04-6.32678E-14
 -1      3888 1.37659E-02 6.58814E-04-6.32292E-14
 -1      3889 1.57829E-03-1.34215E-04-1.40635E-15
 -1      3890 1.57081E-03-1.64513E-04-1.39191E-15
 -1      3891 2.30812E-03 2.96825E-04-2.45451E-15
 -1      3892 1.50532E-03 8.78004E-05-1.24164E-15
 -1      3893 1.50369E-03 5.30636E-05-1.25595E-15
 -1      3894 1.28070E-02 4.81091E-04-5.36354E-14
 -1      3895 1.28291E-02 4.71078E-04-5.43745E-14
 -1      3896 1.28778E-02 5.02264E-04-5.39989E-14
 -1      3897 1.34515E-02 7.39446E-04-5.89615E-14
 -1      3898 1.33271E-02 7.11816E-04-5.77726E-14
 -1      3899 1.32925E-02 6.81871E-04-5.74162E-14
 -1      3900 1.57376E-03-6.29852E-05-1.39580E-15
 -1      3901 1.57558E-03-9.84558E-05-1.40227E-15
 -1      3902 1.77243E-03-1.35108E-04-1.72373E-15
 -1      3903 1.37066E-02 7.97576E-04-6.13383E-14
 -1      3904 1.35780E-02 7.67982E-04-6.01505E-14
 -1      3905 1.35358E-02 7.36758E-04-5.97928E-14
 -1      3906 1.29017E-02 5.33690E-04-5.32102E-14
 -1      3907 1.29272E-02 5.31024E-04-5.37997E-14
 -1      3908 1.29551E-02 5.56370E-04-5.37474E-14
 -1      3909 4.39056E-03 2.61924E-04-8.50733E-15
 -1      3910 4.24768E-03 2.63743E-04-7.97654E-15
 -1      3911 4.46006E-03 2.24603E-04-8.83465E-15
 -1      3912 1.39756E-02 7.92789E-04-6.41612E-14
 -1      3913 4.17437E-03 2.27783E-04-7.77088E-15
 -1      3914 1.38289E-02 7.96556E-04-6.25720E-14
 -1      3915 8.28009E-03-1.24514E-04-3.01256E-14
 -1      3916 1.36702E-02 5.75637E-04-6.33988E-14
 -1      3917 1.37009E-02 6.02001E-04-6.33331E-14
 -1      3918 1.36088E-02 5.96313E-04-6.22754E-14
 -1      3919 1.55064E-03 1.49823E-04-1.26955E-15
 -1      3920 1.67322E-03 1.37012E-04-1.46646E-15
 -1      3921 8.17447E-03-4.04269E-05-2.99454E-14
 -1      3922 8.14144E-03 1.08432E-05-3.00926E-14
 -1      3923 5.09603E-03 1.80588E-04-1.15262E-14
 -1      3924 4.95503E-03 1.82495E-04-1.09114E-14
 -1      3925 7.61368E-03 1.90152E-04-2.67018E-14
 -1      3926 2.13444E-03-1.49246E-04-2.39441E-15
 -1      3927 2.27952E-03-1.51943E-04-2.69268E-15
 -1      3928 3.00521E-03-1.58230E-04-4.43711E-15
 -1      3929 3.15007E-03-1.58436E-04-4.83629E-15
 -1      3930 3.29475E-03-1.58406E-04-5.25201E-15
 -1      3931 3.43925E-03-1.58148E-04-5.68449E-15
 -1      3932 3.22088E-03-1.20841E-04-5.02758E-15
 -1      3933 3.58354E-03-1.57709E-04-6.13353E-15
 -1      3934 3.72760E-03-1.57087E-04-6.59912E-15
 -1      3935 3.51007E-03-1.20438E-04-5.89100E-15
 -1      3936 3.87142E-03-1.56318E-04-7.08060E-15
 -1      3937 4.01500E-03-1.55394E-04-7.57841E-15
 -1      3938 3.79835E-03-1.19460E-04-6.81951E-15
 -1      3939 4.15831E-03-1.54340E-04-8.09304E-15
 -1      3940 4.30134E-03-1.53142E-04-8.62368E-15
 -1      3941 4.08556E-03-1.17996E-04-7.81387E-15
 -1      3942 4.44407E-03-1.51818E-04-9.16994E-15
 -1      3943 4.58648E-03-1.50349E-04-9.73240E-15
 -1      3944 4.37159E-03-1.16086E-04-8.87364E-15
 -1      3945 4.72857E-03-1.48749E-04-1.03108E-14
 -1      3946 4.87030E-03-1.46991E-04-1.09050E-14
 -1      3947 4.65627E-03-1.13725E-04-9.99769E-15
 -1      3948 5.01165E-03-1.45090E-04-1.15153E-14
 -1      3949 5.15260E-03-1.43014E-04-1.21409E-14
 -1      3950 4.93944E-03-1.10866E-04-1.11851E-14
 -1      3951 5.29312E-03-1.40777E-04-1.27831E-14
 -1      3952 5.43320E-03-1.38340E-04-1.34420E-14
 -1      3953 5.22086E-03-1.07436E-04-1.24367E-14
 -1      3954 5.57278E-03-1.35720E-04-1.41159E-14
 -1      3955 5.71188E-03-1.32874E-04-1.48066E-14
 -1      3956 5.50030E-03-1.03331E-04-1.37535E-14
 -1      3957 5.85043E-03-1.29821E-04-1.55133E-14
 -1      3958 5.98846E-03-1.26515E-04-1.62371E-14
 -1      3959 5.77748E-03-9.84119E-05-1.51336E-14
 -1      3960 6.12591E-03-1.22977E-04-1.69783E-14
 -1      3961 6.26283E-03-1.19160E-04-1.77342E-14
 -1      3962 6.05213E-03-9.25160E-05-1.65804E-14
 -1      3963 6.39916E-03-1.15091E-04-1.85063E-14
 -1      3964 6.53501E-03-1.10726E-04-1.92958E-14
 -1      3965 6.32405E-03-8.54486E-05-1.80918E-14
 -1      3966 6.67033E-03-1.06093E-04-2.01023E-14
 -1      3967 6.80529E-03-1.01175E-04-2.09235E-14
 -1      3968 6.59311E-03-7.69901E-05-1.96683E-14
 -1      3969 6.93987E-03-9.59945E-05-2.17602E-14
 -1      3970 7.07440E-03-9.05959E-05-2.26118E-14
 -1      3971 6.85943E-03-6.69216E-05-2.13102E-14
 -1      3972 7.20884E-03-8.49982E-05-2.34787E-14
 -1      3973 7.34377E-03-7.93931E-05-2.43596E-14
 -1      3974 7.12348E-03-5.50902E-05-2.30123E-14
 -1      3975 7.47918E-03-7.37992E-05-2.52542E-14
 -1      3976 7.61603E-03-6.86510E-05-2.61601E-14
 -1      3977 7.38645E-03-4.15940E-05-2.47735E-14
 -1      3978 1.26730E-02 3.44995E-04-5.54045E-14
 -1      3979 1.28131E-02 3.71633E-04-5.65887E-14
 -1      3980 1.27389E-02 3.88705E-04-5.53340E-14
 -1      3981 8.02484E-03 2.60940E-05-2.94379E-14
 -1      3982 1.55466E-03 1.85893E-04-1.24811E-15
 -1      3983 1.48740E-03 2.13076E-04-1.12798E-15
 -1      3984 1.29510E-02 3.97298E-04-5.77772E-14
 -1      3985 1.30881E-02 4.22709E-04-5.89715E-14
 -1      3986 1.30060E-02 4.35646E-04-5.77048E-14
 -1      3987 1.32245E-02 4.48290E-04-6.01687E-14
 -1      3988 1.36724E-02 6.51449E-04-6.21718E-14
 -1      3989 1.37979E-02 6.89116E-04-6.31879E-14
 -1      3990 1.38251E-02 7.18872E-04-6.31489E-14
 -1      3991 3.53049E-03 2.69827E-04-5.57733E-15
 -1      3992 3.38656E-03 2.70329E-04-5.14999E-15
 -1      3993 3.31203E-03 2.32933E-04-4.98822E-15
 -1      3994 3.60025E-03 2.32078E-04-5.84664E-15
 -1      3995 1.38197E-02 7.40601E-04-6.28585E-14
 -1      3996 1.38442E-02 7.74608E-04-6.28628E-14
 -1      3997 1.36797E-02 7.44180E-04-6.12710E-14
 -1      3998 1.37001E-02 7.02222E-04-6.18459E-14
 -1      3999 6.20097E-03 1.64623E-04-1.70328E-14
 -1      4000 6.06585E-03 1.66372E-04-1.62880E-14
 -1      4001 5.92968E-03 1.68253E-04-1.55586E-14
 -1      4002 5.79255E-03 1.70293E-04-1.48452E-14
 -1      4003 5.99326E-03 1.36299E-04-1.59778E-14
 -1      4004 6.72802E-03 1.61177E-04-2.01765E-14
 -1      4005 6.59859E-03 1.61379E-04-1.93654E-14
 -1      4006 6.98093E-03 1.62944E-04-2.18483E-14
 -1      4007 6.85553E-03 1.61749E-04-2.10045E-14
 -1      4008 6.78274E-03 1.35161E-04-2.06456E-14
 -1      4009 7.22411E-03 1.68193E-04-2.35818E-14
 -1      4010 7.10386E-03 1.65172E-04-2.27072E-14
 -1      4011 7.03114E-03 1.39582E-04-2.23322E-14
 -1      4012 7.45463E-03 1.77744E-04-2.53790E-14
 -1      4013 7.34111E-03 1.72580E-04-2.44736E-14
 -1      4014 7.26846E-03 1.47846E-04-2.40824E-14
 -1      4015 1.88088E-03-1.40678E-04-1.91364E-15
 -1      4016 2.02557E-03-1.44493E-04-2.18159E-15
 -1      4017 2.09564E-03-1.10800E-04-2.31565E-15
 -1      4018 1.87820E-03-1.02115E-04-1.90755E-15
 -1      4019 7.91355E-03 1.11833E-05-2.85743E-14
 -1      4020 7.89809E-03 4.02457E-05-2.86860E-14
 -1      4021 7.78008E-03 4.94104E-05-2.79390E-14
 -1      4022 7.65740E-03 1.09485E-04-2.74535E-14
 -1      4023 7.56641E-03 1.15365E-04-2.67190E-14
 -1      4024 7.66013E-03 8.42557E-05-2.73128E-14
 -1      4025 1.81731E-03 1.42101E-04-1.69831E-15
 -1      4026 1.77225E-03 7.62919E-05-1.66569E-15
 -1      4027 1.96185E-03 1.46353E-04-1.94735E-15
 -1      4028 2.73376E-03 2.30734E-04-3.47664E-15
 -1      4029 2.66495E-03 2.67171E-04-3.26934E-15
 -1      4030 2.52033E-03 2.64976E-04-2.94475E-15
 -1      4031 2.71510E-03-1.56913E-04-3.68892E-15
 -1      4032 2.86021E-03-1.57729E-04-4.05446E-15
 -1      4033 2.93093E-03-1.20516E-04-4.23140E-15
 -1      4034 6.46750E-03 1.62024E-04-1.85720E-14
 -1      4035 6.33489E-03 1.63187E-04-1.77948E-14
 -1      4036 6.26221E-03 1.34319E-04-1.74694E-14
 -1      4037 5.65460E-03 1.72362E-04-1.41489E-14
 -1      4038 5.51589E-03 1.74481E-04-1.34691E-14
 -1      4039 5.72007E-03 1.39045E-04-1.45512E-14
 -1      4040 2.37568E-03 2.62041E-04-2.63755E-15
 -1      4041 2.23102E-03 2.58284E-04-2.34728E-15
 -1      4042 2.15431E-03 2.20058E-04-2.23924E-15
 -1      4043 2.44404E-03 2.26779E-04-2.82399E-15
 -1      4044 7.53946E-03 1.66362E-04-2.62918E-14
 -1      4045 1.49338E-03 2.49522E-04-1.10292E-15
 -1      4046 1.62714E-03 3.74023E-05-1.44992E-15
 -1      4047 1.50286E-03 1.86177E-05-1.26835E-15
 -1      4048 1.50280E-03-1.57735E-05-1.27884E-15
 -1      4049 1.51651E-03 2.71191E-04-1.11403E-15
 -1      4050 1.31437E-02 6.28852E-04-5.58741E-14
 -1      4051 1.30358E-02 6.04623E-04-5.46895E-14
 -1      4052 1.30070E-02 5.80326E-04-5.43325E-14
 -1      4053 7.47953E-03 1.43523E-04-2.59116E-14
 -1      4054 5.37652E-03 1.76559E-04-1.28047E-14
 -1      4055 5.23654E-03 1.78616E-04-1.21568E-14
 -1      4056 5.16413E-03 1.45243E-04-1.18928E-14
 -1      4057 2.42470E-03-1.54080E-04-3.00782E-15
 -1      4058 2.56991E-03-1.55707E-04-3.33986E-15
 -1      4059 2.34982E-03-1.16694E-04-2.83967E-15
 -1      4060 1.36206E-02 5.26037E-04-6.36320E-14
 -1      4061 1.36544E-02 5.54181E-04-6.35678E-14
 -1      4062 1.35617E-02 5.49425E-04-6.25081E-14
 -1      4063 1.35261E-02 5.04789E-04-6.28452E-14
 -1      4064 4.24426E-03 1.90397E-04-8.08195E-15
 -1      4065 4.10116E-03 1.91613E-04-7.56545E-15
 -1      4066 4.88257E-03 1.48210E-04-1.06614E-14
 -1      4067 4.81360E-03 1.84293E-04-1.03125E-14
 -1      4068 4.67177E-03 1.85999E-04-9.72989E-15
 -1      4069 4.02807E-03 1.55215E-04-7.35935E-15
 -1      4070 3.95779E-03 1.92679E-04-7.06546E-15
 -1      4071 3.81418E-03 1.93601E-04-6.58283E-15
 -1      4072 7.65719E-03-6.18622E-06-2.67436E-14
 -1      4073 7.76071E-03-4.13207E-05-2.72395E-14
 -1      4074 1.34803E-02 5.61213E-04-6.12698E-14
 -1      4075 1.35115E-02 5.86534E-04-6.12055E-14
 -1      4076 7.89916E-03-3.70253E-05-2.81733E-14
 -1      4077 7.44076E-03 1.02079E-04-2.56510E-14
 -1      4078 7.45684E-03 1.23283E-04-2.57816E-14
 -1      4079 7.35227E-03 1.33225E-04-2.48545E-14
 -1      4080 3.09294E-03 1.95255E-04-4.43000E-15
 -1      4081 2.94817E-03 1.94809E-04-4.05016E-15
 -1      4082 6.52583E-03 1.33693E-04-1.90247E-14
 -1      4083 1.35507E-02 6.17108E-04-6.11695E-14
 -1      4084 1.35844E-02 6.46374E-04-6.11323E-14
 -1      4085 1.34282E-02 5.83609E-04-6.01659E-14
 -1      4086 1.34314E-02 4.83662E-04-6.20618E-14
 -1      4087 1.30518E-02 5.78097E-04-5.49258E-14
 -1      4088 1.35558E-02 7.16069E-04-6.00805E-14
 -1      4089 1.34348E-02 6.88589E-04-5.88895E-14
 -1      4090 1.35696E-02 6.95736E-04-6.03670E-14
 -1      4091 2.80326E-03 1.93991E-04-3.68718E-15
 -1      4092 2.65826E-03 1.92772E-04-3.34218E-15
 -1      4093 2.87338E-03 1.57001E-04-3.90195E-15
 -1      4094 5.44347E-03 1.42125E-04-1.31893E-14
 -1      4095 2.64046E-03-1.19237E-04-3.50204E-15
 -1      4096 1.77096E-03 3.89193E-05-1.68226E-15
 -1      4097 1.29209E-02 4.83232E-04-5.53870E-14
 -1      4098 1.28425E-02 4.57010E-04-5.50216E-14
 -1      4099 1.69741E-03-4.69346E-05-1.58917E-15
 -1      4100 1.30356E-02 5.52870E-04-5.50830E-14
 -1      4101 1.29616E-02 5.28193E-04-5.45420E-14
 -1      4102 1.29948E-02 5.23519E-04-5.52833E-14
 -1      4103 1.27784E-02 4.20948E-04-5.50958E-14
 -1      4104 4.52959E-03 1.87582E-04-9.16357E-15
 -1      4105 4.38708E-03 1.89057E-04-8.61449E-15
 -1      4106 4.31428E-03 1.53263E-04-8.39412E-15
 -1      4107 4.59918E-03 1.50907E-04-9.49509E-15
 -1      4108 1.33447E-02 6.71031E-04-5.79724E-14
 -1      4109 1.32295E-02 6.45136E-04-5.67870E-14
 -1      4110 1.31909E-02 6.19052E-04-5.64258E-14
 -1      4111 1.33613E-02 6.52022E-04-5.82565E-14
 -1      4112 1.33404E-02 4.92628E-04-6.07842E-14
 -1      4113 8.03246E-03-5.75112E-05-2.89176E-14
 -1      4114 8.16171E-03-9.41659E-05-2.95341E-14
 -1      4115 3.43683E-03-8.30379E-05-5.64982E-15
 -1      4116 3.58128E-03-8.27715E-05-6.09689E-15
 -1      4117 3.72547E-03-8.24172E-05-6.56015E-15
 -1      4118 3.86939E-03-8.19622E-05-7.04001E-15
 -1      4119 3.65281E-03-4.51992E-05-6.30275E-15
 -1      4120 4.01302E-03-8.14316E-05-7.53640E-15
 -1      4121 4.15635E-03-8.08093E-05-8.04960E-15
 -1      4122 3.94070E-03-4.46399E-05-7.26013E-15
 -1      4123 4.29935E-03-8.01119E-05-8.57906E-15
 -1      4124 4.44201E-03-7.93200E-05-9.12408E-15
 -1      4125 4.22735E-03-4.38740E-05-8.28444E-15
 -1      4126 4.58429E-03-7.84473E-05-9.68535E-15
 -1      4127 4.72618E-03-7.74695E-05-1.02632E-14
 -1      4128 4.51260E-03-4.28798E-05-9.37445E-15
 -1      4129 4.86765E-03-7.63923E-05-1.08563E-14
 -1      4130 5.00867E-03-7.51862E-05-1.14656E-14
 -1      4131 4.79624E-03-4.16104E-05-1.05285E-14
 -1      4132 5.14919E-03-7.38688E-05-1.20912E-14
 -1      4133 5.28919E-03-7.23935E-05-1.27335E-14
 -1      4134 5.07804E-03-3.99942E-05-1.17463E-14
 -1      4135 5.42862E-03-7.07662E-05-1.33910E-14
 -1      4136 5.56745E-03-6.89424E-05-1.40651E-14
 -1      4137 5.35765E-03-3.79141E-05-1.30295E-14
 -1      4138 5.70562E-03-6.69252E-05-1.47546E-14
 -1      4139 5.84311E-03-6.46588E-05-1.54606E-14
 -1      4140 5.63475E-03-3.52055E-05-1.43762E-14
 -1      4141 5.97984E-03-6.21435E-05-1.61839E-14
 -1      4142 6.11580E-03-5.93124E-05-1.69233E-14
 -1      4143 5.90889E-03-3.16463E-05-1.57887E-14
 -1      4144 6.25091E-03-5.61613E-05-1.76790E-14
 -1      4145 6.38518E-03-5.26130E-05-1.84491E-14
 -1      4146 6.17962E-03-2.69377E-05-1.72656E-14
 -1      4147 6.51851E-03-4.86567E-05-1.92374E-14
 -1      4148 6.65097E-03-4.42079E-05-2.00419E-14
 -1      4149 6.44642E-03-2.06926E-05-1.88073E-14
 -1      4150 6.78240E-03-3.92491E-05-2.08625E-14
 -1      4151 6.91299E-03-3.36995E-05-2.16974E-14
 -1      4152 6.70877E-03-1.24255E-05-2.04140E-14
 -1      4153 7.04252E-03-2.75551E-05-2.25484E-14
 -1      4154 7.17134E-03-2.07036E-05-2.34147E-14
 -1      4155 6.96617E-03-1.57161E-06-2.20861E-14
 -1      4156 7.29923E-03-1.31687E-05-2.42944E-14
 -1      4157 7.42669E-03-4.95119E-06-2.51873E-14
 -1      4158 7.21823E-03 1.25673E-05-2.38158E-14
 -1      4159 1.29066E-02 4.42107E-04-5.62779E-14
 -1      4160 3.23756E-03 1.95404E-04-4.82638E-15
 -1      4161 3.16324E-03 1.57775E-04-4.66468E-15
 -1      4162 3.38201E-03 1.95274E-04-5.23995E-15
 -1      4163 6.58535E-03 1.06523E-04-1.94772E-14
 -1      4164 6.45557E-03 1.05588E-04-1.86840E-14
 -1      4165 1.31488E-02 5.97652E-04-5.60482E-14
 -1      4166 1.30847E-02 5.72563E-04-5.54574E-14
 -1      4167 1.31318E-02 5.71058E-04-5.62055E-14
 -1      4168 1.32302E-02 6.13244E-04-5.69611E-14
 -1      4169 5.23234E-03 1.10475E-04-1.22603E-14
 -1      4170 5.09227E-03 1.11551E-04-1.16280E-14
 -1      4171 7.23863E-03 1.26784E-04-2.39608E-14
 -1      4172 6.05730E-03 1.05280E-04-1.63981E-14
 -1      4173 5.92206E-03 1.05834E-04-1.56681E-14
 -1      4174 7.08419E-03 1.17624E-04-2.28173E-14
 -1      4175 6.96304E-03 1.13624E-04-2.19590E-14
 -1      4176 6.83932E-03 1.10404E-04-2.11154E-14
 -1      4177 6.71335E-03 1.08177E-04-2.02869E-14
 -1      4178 6.64654E-03 8.04084E-05-1.99306E-14
 -1      4179 6.89839E-03 8.67818E-05-2.15852E-14
 -1      4180 7.66414E-03 6.33520E-05-2.72076E-14
 -1      4181 7.55762E-03 7.38998E-05-2.64811E-14
 -1      4182 7.66963E-03 4.05667E-05-2.71013E-14
 -1      4183 2.10669E-03 1.49891E-04-2.21279E-15
 -1      4184 2.06145E-03 8.08736E-05-2.17786E-15
 -1      4185 2.25174E-03 1.52748E-04-2.49559E-15
 -1      4186 5.78580E-03 1.06540E-04-1.49544E-14
 -1      4187 5.64861E-03 1.07428E-04-1.42571E-14
 -1      4188 5.85198E-03 7.48268E-05-1.53587E-14
 -1      4189 1.30175E-02 5.14370E-04-5.59317E-14
 -1      4190 1.30403E-02 5.03407E-04-5.65829E-14
 -1      4191 1.31059E-02 5.43272E-04-5.64789E-14
 -1      4192 1.77841E-03-1.15300E-05-1.71453E-15
 -1      4193 1.84988E-03-6.21755E-05-1.85136E-15
 -1      4194 3.14727E-03-8.32265E-05-4.80604E-15
 -1      4195 3.29216E-03-8.31880E-05-5.21947E-15
 -1      4196 3.36385E-03-4.55291E-05-5.41136E-15
 -1      4197 2.56626E-03-8.17905E-05-3.31775E-15
 -1      4198 2.71165E-03-8.24250E-05-3.66481E-15
 -1      4199 2.27551E-03-7.97645E-05-2.67454E-15
 -1      4200 2.42085E-03-8.09092E-05-2.98753E-15
 -1      4201 2.49255E-03-4.46469E-05-3.13631E-15
 -1      4202 2.85699E-03-8.28671E-05-4.02824E-15
 -1      4203 3.00220E-03-8.31210E-05-4.40887E-15
 -1      4204 2.78344E-03-4.53304E-05-3.82780E-15
 -1      4205 6.32419E-03 1.05067E-04-1.79051E-14
 -1      4206 6.19138E-03 1.05039E-04-1.71429E-14
 -1      4207 6.38726E-03 7.67953E-05-1.83420E-14
 -1      4208 1.92300E-03 2.66531E-05-1.95217E-15
 -1      4209 1.35822E-02 6.61169E-04-6.08920E-14
 -1      4210 1.35788E-02 6.81802E-04-6.06062E-14
 -1      4211 1.34588E-02 6.55721E-04-5.94128E-14
 -1      4212 1.34667E-02 6.27833E-04-5.98911E-14
 -1      4213 5.51058E-03 1.08382E-04-1.35752E-14
 -1      4214 5.37180E-03 1.09425E-04-1.29093E-14
 -1      4215 5.57798E-03 7.53277E-05-1.39625E-14
 -1      4216 1.30376E-02 4.84682E-04-5.70247E-14
 -1      4217 1.30089E-02 4.57907E-04-5.72655E-14
 -1      4218 1.31377E-02 4.80227E-04-5.84551E-14
 -1      4219 1.31362E-02 5.18251E-04-5.75719E-14
 -1      4220 4.09857E-03 1.17943E-04-7.65570E-15
 -1      4221 3.95515E-03 1.18596E-04-7.15403E-15
 -1      4222 7.53830E-03 1.11903E-05-2.60266E-14
 -1      4223 6.12204E-03 7.51507E-05-1.68183E-14
 -1      4224 4.24168E-03 1.17219E-04-8.17384E-15
 -1      4225 4.16929E-03 8.09049E-05-7.95322E-15
 -1      4226 4.38446E-03 1.16409E-04-8.70799E-15
 -1      4227 7.17733E-03 1.00891E-04-2.35708E-14
 -1      4228 3.67034E-03 1.94348E-04-6.11827E-15
 -1      4229 3.52628E-03 1.94919E-04-5.67062E-15
 -1      4230 3.74073E-03 1.56690E-04-6.39251E-15
 -1      4231 1.32609E-02 5.25986E-04-5.91071E-14
 -1      4232 1.32652E-02 5.07247E-04-5.95494E-14
 -1      4233 3.07398E-03-4.55940E-05-4.58612E-15
 -1      4234 1.95840E-03-6.58233E-05-2.04743E-15
 -1      4235 2.94409E-03 1.19779E-04-4.11944E-15
 -1      4236 2.79890E-03 1.19265E-04-3.75302E-15
 -1      4237 5.02085E-03 7.74677E-05-1.13634E-14
 -1      4238 4.95163E-03 1.12594E-04-1.10121E-14
 -1      4239 4.81049E-03 1.13627E-04-1.04115E-14
 -1      4240 2.06785E-03 2.73583E-05-2.22024E-15
 -1      4241 5.30074E-03 7.62939E-05-1.26293E-14
 -1      4242 2.52759E-03 1.73955E-04-3.06322E-15
 -1      4243 2.38244E-03 1.71956E-04-2.74909E-15
 -1      4244 2.33684E-03 1.00841E-04-2.71346E-15
 -1      4245 2.59777E-03 1.37708E-04-3.25693E-15
 -1      4246 1.34631E-02 5.40238E-04-6.14364E-14
 -1      4247 7.45144E-03 3.68802E-05-2.55340E-14
 -1      4248 1.32223E-02 5.37749E-04-5.83214E-14
 -1      4249 1.33421E-02 5.63174E-04-5.94145E-14
 -1      4250 1.33825E-02 5.92578E-04-5.93797E-14
 -1      4251 1.32167E-02 5.53565E-04-5.78789E-14
 -1      4252 3.08915E-03 1.20094E-04-4.50182E-15
 -1      4253 3.01533E-03 8.23961E-05-4.33942E-15
 -1      4254 3.23403E-03 1.20201E-04-4.90154E-15
 -1      4255 7.26268E-03 8.35698E-05-2.42415E-14
 -1      4256 7.10811E-03 7.19955E-05-2.30944E-14
 -1      4257 3.58042E-03-7.83500E-06-6.04738E-15
 -1      4258 3.72467E-03-7.74551E-06-6.50867E-15
 -1      4259 3.91108E-03 1.84783E-05-7.10852E-15
 -1      4260 4.05464E-03 1.84581E-05-7.60735E-15
 -1      4261 4.19786E-03 1.84204E-05-8.12234E-15
 -1      4262 4.34073E-03 1.84062E-05-8.65486E-15
 -1      4263 4.72518E-03-6.50506E-06-1.02012E-14
 -1      4264 4.86650E-03-6.16567E-06-1.07942E-14
 -1      4265 5.04873E-03 1.86121E-05-1.15595E-14
 -1      4266 5.18882E-03 1.88167E-05-1.21890E-14
 -1      4267 5.32829E-03 1.90759E-05-1.28348E-14
 -1      4268 5.46710E-03 1.94788E-05-1.34967E-14
 -1      4269 5.60516E-03 1.99815E-05-1.41756E-14
 -1      4270 5.74245E-03 2.06991E-05-1.48690E-14
 -1      4271 5.87884E-03 2.15793E-05-1.55790E-14
 -1      4272 6.01430E-03 2.27729E-05-1.63057E-14
 -1      4273 6.14869E-03 2.42156E-05-1.70465E-14
 -1      4274 6.28197E-03 2.61039E-05-1.78049E-14
 -1      4275 6.41397E-03 2.83555E-05-1.85799E-14
 -1      4276 6.54468E-03 3.12250E-05-1.93702E-14
 -1      4277 6.67383E-03 3.46004E-05-2.01762E-14
 -1      4278 6.80146E-03 3.88144E-05-2.09997E-14
 -1      4279 7.14633E-03 2.94930E-05-2.33497E-14
 -1      4280 7.26893E-03 3.75816E-05-2.42288E-14
 -1      4281 3.45241E-03 1.57597E-04-5.49448E-15
 -1      4282 7.45120E-03 7.24648E-05-2.56670E-14
 -1      4283 7.32871E-03 8.41179E-05-2.47480E-14
 -1      4284 3.83954E-03 5.56845E-05-6.83210E-15
 -1      4285 3.76829E-03 9.30591E-05-6.55659E-15
 -1      4286 7.44697E-03 5.33394E-05-2.55661E-14
 -1      4287 3.04398E-03 1.84203E-05-4.46600E-15
 -1      4288 3.18907E-03 1.84853E-05-4.86495E-15
 -1      4289 2.04905E-03-7.39938E-05-2.21942E-15
 -1      4290 2.15794E-03-7.75424E-05-2.43332E-15
 -1      4291 1.31590E-02 5.66662E-04-5.67162E-14
 -1      4292 1.31917E-02 5.59756E-04-5.73677E-14
 -1      4293 1.32720E-02 5.78572E-04-5.81168E-14
 -1      4294 1.32142E-02 5.88022E-04-5.70937E-14
 -1      4295 3.31255E-03 5.27572E-06-5.22817E-15
 -1      4296 3.45726E-03 5.32048E-06-5.65776E-15
 -1      4297 3.52979E-03 4.28468E-05-5.84876E-15
 -1      4298 3.28361E-03 6.93603E-05-5.09186E-15
 -1      4299 2.22948E-03-4.24608E-05-2.56849E-15
 -1      4300 2.66859E-03 1.01120E-04-3.45459E-15
 -1      4301 2.02134E-03-3.30665E-05-2.15610E-15
 -1      4302 2.41941E-03-7.89307E-06-2.95774E-15
 -1      4303 2.56489E-03-7.95764E-06-3.28521E-15
 -1      4304 4.66889E-03 1.14604E-04-9.82772E-15
 -1      4305 4.52687E-03 1.15542E-04-9.25971E-15
 -1      4306 4.73875E-03 7.86996E-05-1.01620E-14
 -1      4307 2.75334E-03 1.82133E-05-3.71898E-15
 -1      4308 2.89872E-03 1.83440E-05-4.08422E-15
 -1      4309 1.33858E-02 6.42353E-04-5.86446E-14
 -1      4310 1.32999E-02 6.25972E-04-5.77286E-14
 -1      4311 1.32506E-02 6.03887E-04-5.73488E-14
 -1      4312 1.33916E-02 6.29033E-04-5.88832E-14
 -1      4313 6.92721E-03 4.37065E-05-2.18398E-14
 -1      4314 4.45481E-03 7.98710E-05-9.02438E-15
 -1      4315 4.48321E-03 1.83855E-05-9.20314E-15
 -1      4316 4.62530E-03 1.84043E-05-9.76811E-15
 -1      4317 7.05116E-03 4.97233E-05-2.26944E-14
 -1      4318 2.17433E-03-6.13255E-06-2.44332E-15
 -1      4319 2.29191E-03-7.28264E-06-2.68402E-15
 -1      4320 3.62420E-03 9.33854E-05-6.09419E-15
 -1      4321 3.35697E-03 1.06943E-04-5.26836E-15
 -1      4322 2.36480E-03 2.89911E-05-2.82027E-15
 -1      4323 3.50151E-03 1.06775E-04-5.69987E-15
 -1      4324 4.97885E-03 5.32373E-05-1.12119E-14
 -1      4325 2.68117E-03 5.53102E-05-3.51962E-15
 -1      4326 1.33851E-02 6.07527E-04-5.91395E-14
 -1      4327 2.47935E-03 7.40510E-05-3.04138E-15
 -1      4328 2.08377E-03 1.10705E-06-2.26277E-15
 -1      4329 4.69651E-03 5.39058E-05-1.00189E-14
 -1      4330 7.26877E-03 5.31367E-05-2.42586E-14
 -1      4331 7.33954E-03 3.74491E-05-2.47331E-14
 -1      4332 2.34919E-03 5.61776E-05-2.77060E-15
 -1      4333 2.22179E-03 5.58769E-05-2.50673E-15
 -1      4334 4.83793E-03 5.35642E-05-1.06073E-14
 -1      4335 1.32829E-02 5.99999E-04-5.78609E-14
 -1      4336 1.33535E-02 6.12244E-04-5.86273E-14
 -3
    1PSTEP                         2           1           1          
  100CL  101 1.000000000        4336                     0    1           1
 -4  STRESS      6    1
 -5  SXX         1    4    1    1
 -5  SYY         1    4    2    2
 -5  SZZ         1    4    3    3
 -5  SXY         1    4    1    2
 -5  SYZ         1    4    2    3
 -5  SZX         1    4    3    1
 -1         1 7.66144E+00 7.69790E+00-3.91478E-01 7.78652E+00-7.52565E-13-6.63358E-13
 -1         2-7.46262E-01-2.48889E+01-3.40692E+00-2.01261E-01-1.71516E-12-5.86926E-14
 -1         3 1.99849E+01-1.60633E-02 3.62080E-02-1.59338E-02-5.20653E-13-4.00123E-13
 -1         4 1.99904E+01-9.76402E-03 2.70691E-02 9.93770E-03 1.61701E-13 6.02367E-14
 -1         5 3.27622E+01 6.14153E+00 2.74233E+00 6.22386E+00-2.52368E-14 1.84999E-12
 -1         6 3.57466E+01 1.22616E+01 5.12524E+00-8.64602E+00-1.09135E-13 1.51906E-12
 -1         7 2.08135E+01 6.09824E+00-1.28867E-01-4.72613E+00-1.66256E-14 1.83940E-13
 -1         8 1.96679E+01 5.93381E+00 5.06752E-02-3.27619E+00-1.90126E-14-2.01233E-13
 -1         9 1.91352E+01 5.77140E+00 4.89893E-02-2.52875E+00-1.41675E-14-4.05159E-13
 -1        10 1.88960E+01 5.69230E+00 5.12949E-02-1.95324E+00-8.64413E-15-4.94934E-13
 -1        11 1.87756E+01 5.65187E+00 5.04877E-02-1.45778E+00-8.44637E-15-5.17153E-13
 -1        12 1.87133E+01 5.63054E+00 4.88856E-02-1.01652E+00-7.37041E-16-5.21625E-13
 -1        13 1.86807E+01 5.61939E+00 4.75349E-02-5.96220E-01 3.68629E-17-5.10450E-13
 -1        14 1.86671E+01 5.61470E+00 4.68149E-02-1.91506E-01 3.34547E-15-4.99780E-13
 -1        15 1.86676E+01 5.61486E+00 4.68557E-02 2.08485E-01 6.10628E-15-4.84349E-13
 -1        16 1.86823E+01 5.61988E+00 4.76706E-02 6.14030E-01 7.71844E-15-4.61663E-13
 -1        17 1.87161E+01 5.63131E+00 4.91729E-02 1.03631E+00 1.00267E-14-4.24836E-13
 -1        18 1.87796E+01 5.65294E+00 5.08997E-02 1.48080E+00 1.16174E-14-3.60671E-13
 -1        19 1.89011E+01 5.69381E+00 5.15722E-02 1.98216E+00 1.91834E-14-2.64815E-13
 -1        20 1.91407E+01 5.77396E+00 4.87694E-02 2.56576E+00 2.43156E-14-1.13387E-13
 -1        21 1.96637E+01 5.94852E+00 4.58280E-02 3.31040E+00 2.57294E-14 1.76950E-13
 -1        22 2.11964E+01 6.38003E+00 1.39528E-01 4.52382E+00 3.16414E-15 7.17546E-13
 -1        23 2.30228E+01-1.37885E+00-9.38103E-01-7.11508E-01-7.41629E-14 1.13203E-12
 -1        24 1.93582E+01-9.94647E-02-3.09840E-01 6.31079E-02-1.92572E-14 8.09169E-13
 -1        25 1.86682E+01-5.63218E-02-6.87808E-02 6.06871E-02-9.88901E-15 4.74716E-13
 -1        26 1.84643E+01-2.20923E-02-6.42641E-03 3.29089E-02 8.14745E-15 2.33445E-13
 -1        27 1.84739E+01-1.18120E-02 1.61761E-03 2.25063E-02 6.08790E-15 1.02352E-13
 -1        28 1.85863E+01-6.26795E-03 1.79406E-03 1.61816E-02-5.45240E-15 3.96185E-14
 -1        29 1.87446E+01-3.14008E-03 1.71592E-03 1.20042E-02-2.40912E-15-7.44006E-14
 -1        30 1.89177E+01-1.32637E-03 1.86581E-03 9.01584E-03 7.02576E-15-1.48774E-13
 -1        31 1.90886E+01-2.89727E-04 1.97536E-03 6.76168E-03-1.36256E-14-2.26995E-13
 -1        32 1.92481E+01 2.55269E-04 1.93093E-03 5.01347E-03-1.13502E-14-3.02263E-13
 -1        33 1.93925E+01 4.72640E-04 1.73223E-03 3.64716E-03 1.91100E-14-3.59879E-13
 -1        34 1.95216E+01 4.62325E-04 1.40846E-03 2.58944E-03-1.21869E-14-4.12080E-13
 -1        35 1.96377E+01 2.87801E-04 9.85453E-04 1.79529E-03 2.06054E-14-4.02258E-13
 -1        36 1.97450E+01-9.17776E-06 4.79208E-04 1.23896E-03-1.97394E-14-2.55957E-13
 -1        37 1.98490E+01-3.99312E-04-1.02147E-04 9.10494E-04-4.00622E-15-2.16344E-13
 -1        38 1.99565E+01-8.58491E-04-7.53799E-04 8.14667E-04-7.71705E-15-3.43369E-13
 -1        39 2.00751E+01-1.36074E-03-1.46784E-03 9.70317E-04-5.31772E-15-4.29904E-13
 -1        40 2.02134E+01-1.87030E-03-2.22419E-03 1.40867E-03-4.76985E-15-3.84034E-13
 -1        41 2.03800E+01-2.33212E-03-2.97737E-03 2.16868E-03-1.39117E-14-4.49927E-13
 -1        42 2.05833E+01-2.66067E-03-3.63765E-03 3.28642E-03-3.31784E-14-5.73582E-13
 -1        43 2.08299E+01-2.72803E-03-4.04534E-03 4.77386E-03-4.16384E-14-5.64244E-13
 -1        44 2.11228E+01-2.35473E-03-3.93991E-03 6.58052E-03 7.57519E-14-2.41950E-13
 -1        45 2.14585E+01-1.31104E-03-2.93238E-03 8.52991E-03-3.73094E-15-1.30980E-13
 -1        46 2.18224E+01 6.55837E-04-5.05847E-04 1.02257E-02-3.94146E-15-5.29367E-13
 -1        47 2.21837E+01 3.74472E-03 3.90503E-03 1.09364E-02-2.20169E-15-3.22089E-13
 -1        48 2.24907E+01 7.94653E-03 1.06732E-02 9.50463E-03-1.21296E-14-1.26838E-13
 -1        49 2.26680E+01 1.28003E-02 1.94814E-02 4.40061E-03 5.04754E-14-1.81101E-13
 -1        50 2.26219E+01 1.71299E-02 2.86077E-02-5.85962E-03 2.21878E-14-3.40786E-13
 -1        51 2.22605E+01 1.89523E-02 3.43202E-02-2.16656E-02-5.43852E-14-2.78680E-13
 -1        52 2.15321E+01 1.59472E-02 3.14380E-02-4.07522E-02 8.63713E-14-8.10602E-14
 -1        53 2.04772E+01 6.68954E-03 1.56951E-02-5.70315E-02-5.73174E-14-2.13204E-13
 -1        54 1.92684E+01-7.68960E-03-1.20368E-02-6.16725E-02 1.47564E-14-3.84491E-13
 -1        55 1.81973E+01-2.26763E-02-4.28670E-02-4.76970E-02 7.20127E-15-1.74040E-13
 -1        56 1.75824E+01-3.19426E-02-6.26047E-02-1.61359E-02-1.09313E-13-3.87370E-13
 -1        57 1.76262E+01-3.10101E-02-6.06866E-02 2.18984E-02 9.03739E-14-3.61862E-13
 -1        58 1.83085E+01-2.02964E-02-3.80926E-02 5.11566E-02 8.40474E-15-3.57818E-13
 -1        59 1.93972E+01-4.84375E-03-6.61837E-03 6.18656E-02-1.71486E-14-3.86233E-13
 -1        60 2.05661E+01 9.06921E-03 1.98214E-02 5.45461E-02 8.77147E-15-3.39548E-13
 -1        61 2.15359E+01 1.74215E-02 3.35565E-02 3.69371E-02 3.54461E-14-2.17503E-13
 -1        62 2.21543E+01 1.95704E-02 3.48488E-02 1.76852E-02-5.87935E-14-4.69012E-13
 -1        63 2.23978E+01 1.71759E-02 2.83473E-02 2.23547E-03-5.31454E-15-6.07136E-13
 -1        64 2.23273E+01 1.25374E-02 1.90848E-02-7.69830E-03-1.87456E-14-7.53482E-13
 -1        65 2.20379E+01 7.46386E-03 1.03575E-02-1.27608E-02 2.28969E-14-7.94730E-13
 -1        66 2.16245E+01 2.93133E-03 3.45324E-03-1.44319E-02-4.81024E-14-4.41334E-13
 -1        67 2.11657E+01-7.76764E-04-1.75579E-03-1.40408E-02 1.14441E-13-1.18041E-13
 -1        68 2.07226E+01-3.76818E-03-6.14418E-03-1.22937E-02 1.13435E-13 7.52428E-13
 -1        69 2.03451E+01-6.13865E-03-1.05250E-02-8.98964E-03-4.80484E-14 5.92574E-13
 -1        70 2.00808E+01-6.52736E-03-1.30477E-02-1.84329E-03-3.79552E-14 4.58486E-14
 -1        71 1.99764E+01 1.65338E-03-2.30249E-03 8.19264E-03-2.31109E-14-1.12668E-14
 -1        72 2.10353E+01-4.04808E-01-9.80264E-01-3.11384E-01 1.91271E-14 1.73643E-12
 -1        73 1.93227E+01-6.58799E-02-2.91133E-01-5.37745E-02 1.40682E-14 1.41154E-12
 -1        74 1.86777E+01-2.05063E-02-6.42696E-02-2.02985E-02 1.00279E-14 1.11948E-12
 -1        75 1.84732E+01-9.88276E-03-9.29732E-03-1.53868E-02-6.71056E-15 9.02913E-13
 -1        76 1.84827E+01-5.17755E-03 6.96812E-04-1.22965E-02 1.28937E-14 8.25860E-13
 -1        77 1.85941E+01-2.64124E-03 1.75411E-03-9.99115E-03 1.10843E-14 7.17993E-13
 -1        78 1.87512E+01-1.19357E-03 1.87036E-03-8.20533E-03-2.98818E-14 8.04182E-13
 -1        79 1.89230E+01-3.62771E-04 2.02934E-03-6.71609E-03 4.39931E-14 6.99565E-13
 -1        80 1.90924E+01 8.95069E-05 2.11899E-03-5.41436E-03-3.43721E-14 5.56952E-13
 -1        81 1.92504E+01 2.94032E-04 2.05468E-03-4.25568E-03 3.38534E-14 5.09387E-13
 -1        82 1.93932E+01 3.27299E-04 1.83798E-03-3.21976E-03-1.31532E-14 5.23686E-13
 -1        83 1.95206E+01 2.34758E-04 1.49531E-03-2.29370E-03 9.59097E-15 5.80875E-13
 -1        84 1.96349E+01 4.23837E-05 1.04769E-03-1.46628E-03 5.68997E-15 4.02404E-13
 -1        85 1.97404E+01-2.37332E-04 5.02446E-04-7.27080E-04 1.78312E-14 2.08184E-13
 -1        86 1.98432E+01-6.01946E-04-1.47737E-04-6.79346E-05-4.54608E-15-1.43514E-14
 -1        87 1.99509E+01-1.05671E-03-9.24623E-04 5.14239E-04-4.65216E-15-9.69282E-14
 -1        88 2.00730E+01-1.61235E-03-1.86445E-03 1.01286E-03 1.87852E-16-2.17201E-14
 -1        89 2.02209E+01-2.28180E-03-3.01801E-03 1.40436E-03 8.51966E-16 1.04150E-13
 -1        90 2.04087E+01-3.07434E-03-4.44930E-03 1.63616E-03-6.10467E-14 2.22505E-13
 -1        91 2.06537E+01-3.98405E-03-6.22904E-03 1.60693E-03-2.48048E-14 6.77498E-14
 -1        92 2.09766E+01-4.96769E-03-8.41458E-03 1.13491E-03-3.41490E-14 7.96969E-14
 -1        93 2.14017E+01-5.90418E-03-1.09979E-02-8.95311E-05 4.23619E-15 5.41672E-14
 -1        94 2.19563E+01-6.52600E-03-1.37839E-02-2.56605E-03 2.18118E-14-1.00720E-13
 -1        95 2.26675E+01-6.31703E-03-1.61347E-02-7.03840E-03 4.12367E-14-2.90384E-13
 -1        96 2.35537E+01-4.39589E-03-1.64942E-02-1.44569E-02 5.45646E-15-3.33135E-13
 -1        97 2.46087E+01 5.11093E-04-1.16957E-02-2.56242E-02 2.91734E-14-3.67704E-13
 -1        98 2.57708E+01 9.71932E-03 3.53578E-03-4.00462E-02-8.01920E-14-1.97606E-13
 -1        99 2.68766E+01 2.32798E-02 3.52736E-02-5.33344E-02-1.69554E-14-2.18258E-13
 -1       100 2.76112E+01 3.73767E-02 8.42956E-02-5.34701E-02 1.56420E-14 5.44703E-14
 -1       101 2.75085E+01 4.17347E-02 1.33272E-01-1.99114E-02-6.98495E-14-7.37743E-14
 -1       102 2.61067E+01 2.31938E-02 1.37081E-01 6.37139E-02 2.34968E-15 2.50633E-14
 -1       103 2.33532E+01-1.86283E-02 4.45499E-02 1.75603E-01 3.89012E-15 1.45661E-13
 -1       104 2.00798E+01-5.78404E-02-1.30785E-01 2.33655E-01 1.67869E-14 2.74621E-13
 -1       105 1.79162E+01-6.27341E-02-2.65769E-01 1.54172E-01 6.74807E-16 1.06949E-13
 -1       106 1.81882E+01-3.26910E-02-2.39262E-01-3.01122E-02 2.59632E-14-2.64559E-13
 -1       107 2.07103E+01 6.19789E-03-7.97063E-02-1.79548E-01-5.24668E-14-4.82579E-13
 -1       108 2.39675E+01 3.09677E-02 7.59679E-02-2.04968E-01 5.67432E-14-7.66047E-13
 -1       109 2.64347E+01 3.70337E-02 1.42571E-01-1.38806E-01 1.36445E-14-6.15438E-13
 -1       110 2.74907E+01 2.92747E-02 1.23962E-01-5.64592E-02 5.10850E-14-8.69433E-13
 -1       111 2.73205E+01 1.68763E-02 7.26355E-02 6.70546E-04 3.52208E-14-7.72897E-13
 -1       112 2.64094E+01 6.13908E-03 2.73668E-02 2.80410E-02-1.34665E-13-5.14215E-13
 -1       113 2.51947E+01-9.36462E-04-1.79534E-04 3.55727E-02 5.37382E-14 3.05310E-13
 -1       114 2.39551E+01-4.72362E-03-1.26662E-02 3.36573E-02-6.95120E-14 3.82975E-13
 -1       115 2.28299E+01-6.41287E-03-1.63642E-02 2.87488E-02 5.26662E-15 1.02279E-13
 -1       116 2.18721E+01-7.11156E-03-1.65092E-02 2.38910E-02 8.66338E-14 8.14071E-14
 -1       117 2.10949E+01-7.60688E-03-1.65985E-02 2.00349E-02-1.07499E-14-7.92711E-13
 -1       118 2.05031E+01-8.18900E-03-1.85384E-02 1.67350E-02-1.73121E-14-5.12362E-13
 -1       119 2.01153E+01-7.53996E-03-1.98786E-02 1.04324E-02-6.74818E-15-7.26031E-13
 -1       120 1.99723E+01 7.09868E-03-1.45025E-03-6.47632E-03 2.40453E-13-6.63452E-13
 -1       121 1.99995E+01-1.72325E-02-2.51581E-03-1.17041E-02-5.10035E-13 2.37764E-13
 -1       122 1.99914E+01 1.33179E-01-1.78428E-02 6.38165E-03 7.82008E-13 1.74461E-14
 -1       123 1.99950E+01 4.98440E-01-1.05114E-02 1.58485E-02 1.45477E-12 2.10881E-13
 -1       124 2.00000E+01 9.64296E-01-6.58983E-04 1.82915E-02 9.29356E-13-5.10164E-14
 -1       125 2.00045E+01 1.42950E+00 7.25023E-03 1.61576E-02 1.20065E-13-2.33248E-13
 -1       126 2.00081E+01 1.80792E+00 1.24499E-02 1.17373E-02-1.17250E-12-8.09980E-14
 -1       127 2.00098E+01 2.05587E+00 1.48677E-02 5.75228E-03-1.12902E-12 3.89415E-13
 -1       128 2.00100E+01 2.13788E+00 1.48295E-02-4.47654E-04-9.01879E-13 1.79997E-13
 -1       129 2.00088E+01 2.05285E+00 1.27514E-02-5.94399E-03-7.16868E-13-1.33945E-13
 -1       130 2.00065E+01 1.82283E+00 9.26815E-03-1.01060E-02-5.78493E-13 1.89970E-13
 -1       131 2.00035E+01 1.48655E+00 4.98919E-03-1.27157E-02-7.40356E-13-4.25854E-13
 -1       132 2.00004E+01 1.09829E+00 4.24859E-04-1.34607E-02-1.84358E-12 1.44960E-13
 -1       133 1.99973E+01 6.96393E-01-4.52282E-03-1.25956E-02-1.45891E-12 1.18400E-13
 -1       134 1.99937E+01 3.38401E-01-1.03750E-02-1.04335E-02-9.16488E-13 4.71003E-14
 -1       135 1.99942E+01 8.63027E-02-1.15365E-02-4.41606E-03-3.48273E-13-1.12096E-13
 -1       136 1.99942E+01-1.05682E-02-9.87251E-04 1.66470E-02-4.44222E-13 3.97500E-14
 -1       137-1.53688E+00-2.03489E+01-3.18097E+00-4.04966E+00-1.37301E-12-1.52899E-13
 -1       138-1.78059E+00-9.15674E+00-2.41016E+00-3.30713E+00-6.33937E-14-5.87030E-14
 -1       139 3.58393E+00 3.31744E+00-1.15209E+00 3.89605E+00 9.25260E-13 7.51343E-13
 -1       140 1.67532E+01 1.02385E+01 3.65560E-01 1.30264E+01 1.15957E-12 1.45478E-12
 -1       141 3.83125E+01 9.62249E+00 2.02474E+00 1.85690E+01 8.15958E-13 1.45650E-12
 -1       142 5.76956E+01 4.65589E+00 3.26797E+00 1.48502E+01 3.27197E-13 1.36852E-12
 -1       143 6.85141E+01 1.07823E+00 3.90717E+00 3.17857E+00 4.88012E-14 9.95551E-13
 -1       144 6.39267E+01 2.58426E+00 3.62881E+00-1.07514E+01 1.00989E-13-3.23269E-13
 -1       145 4.67087E+01 7.72141E+00 2.57616E+00-1.81159E+01 5.34406E-13-1.11056E-12
 -1       146 2.53645E+01 1.07696E+01 1.07662E+00-1.62255E+01 9.25704E-13-1.34737E-12
 -1       147 8.61875E+00 7.75835E+00-4.62389E-01-8.27972E+00 9.70668E-13-1.05038E-12
 -1       148-1.32340E-01-2.32149E+00-1.84133E+00 3.76165E-01 8.40050E-13-5.22193E-13
 -1       149-2.05158E+00-1.52641E+01-2.85219E+00 4.60080E+00 1.22580E-12-3.81514E-13
 -1       150-9.59299E-01-2.35035E+01-3.31718E+00 2.75040E+00 1.21889E-12-1.37786E-13
 -1       151-7.84629E-01-2.39077E+01-3.30495E+00-1.65368E+00 7.27834E-13 4.47784E-14
 -1       152-1.68645E+00-1.58811E+01-2.77566E+00-4.00066E+00 9.53682E-14-5.93969E-14
 -1       153-2.17236E-01-3.02740E+00-1.74823E+00-5.31825E-01-5.83589E-13-3.60878E-13
 -1       154 2.22692E+01 1.13850E+01 9.71502E-01 1.57108E+01-8.60922E-13-1.21864E-12
 -1       155 4.15710E+01 8.68933E+00 2.23155E+00 1.82402E+01-6.63913E-13-1.20570E-12
 -1       156 5.84375E+01 3.62514E+00 3.12220E+00 1.28399E+01-3.01953E-13-9.92206E-13
 -1       157 6.57749E+01 7.92615E-01 3.46426E+00 1.69105E+00-5.91992E-14-4.25021E-13
 -1       158 6.18310E+01 2.32051E+00 3.28039E+00-9.93172E+00 4.36630E-15-7.86315E-14
 -1       159 4.79521E+01 7.06105E+00 2.58051E+00-1.74458E+01 2.38101E-13-3.73979E-13
 -1       160 2.90750E+01 1.08884E+01 1.44701E+00-1.73529E+01-2.70173E-13 2.53131E-14
 -1       161 1.27285E+01 9.93924E+00 1.62640E-01-1.11622E+01 7.28306E-14 1.63536E-13
 -1       162 1.90906E+00 2.11683E+00-1.20203E+00-2.34888E+00 7.77323E-13-5.91138E-13
 -1       163-1.62244E+00-9.93040E+00-2.34976E+00 3.36314E+00 4.77229E-13-3.79613E-13
 -1       164-1.24391E+00-2.02908E+01-3.08095E+00 3.64094E+00-4.78895E-13 3.09058E-14
 -1       165 2.10084E+01 3.69346E+00-5.74060E-02-3.61148E+00-2.40238E-13-8.92342E-15
 -1       166 1.99870E+01 4.20807E+00-4.59491E-02-2.81010E+00-2.01880E-13-2.39465E-13
 -1       167 1.95094E+01 4.47630E+00-3.13365E-02-2.19771E+00-1.49234E-13-3.70665E-13
 -1       168 1.92689E+01 4.61516E+00-2.34977E-02-1.67635E+00-1.09738E-13-4.29292E-13
 -1       169 1.91400E+01 4.69703E+00-1.95387E-02-1.22047E+00-6.11646E-14-4.29780E-13
 -1       170 1.90675E+01 4.74819E+00-1.74400E-02-7.93048E-01-1.32375E-14-4.28641E-13
 -1       171 1.90311E+01 4.77617E+00-1.64273E-02-3.87387E-01 2.63698E-14-4.17556E-13
 -1       172 1.90205E+01 4.78475E+00-1.61357E-02 8.25937E-03 7.12297E-14-4.05970E-13
 -1       173 1.90328E+01 4.77489E+00-1.64684E-02 4.04245E-01 9.89322E-14-3.99948E-13
 -1       174 1.90712E+01 4.74522E+00-1.75213E-02 8.10966E-01 1.22936E-13-3.67612E-13
 -1       175 1.91445E+01 4.69261E+00-1.96876E-02 1.23286E+00 1.60270E-13-3.18455E-13
 -1       176 1.92783E+01 4.60526E+00-2.40050E-02 1.69986E+00 2.07182E-13-2.48026E-13
 -1       177 1.95231E+01 4.45930E+00-3.28485E-02 2.22837E+00 2.47917E-13-1.36715E-13
 -1       178 2.00104E+01 4.18349E+00-4.72142E-02 2.84852E+00 2.62667E-13 6.36366E-14
 -1       179 2.11300E+01 3.46342E+00-5.97921E-02 3.53811E+00 2.42056E-13 3.84817E-13
 -1       180 2.24129E+01 1.14350E+00-3.36448E-01 3.01583E+00 1.59987E-13 8.15528E-13
 -1       181 2.19653E+01 8.58257E-01 6.85654E-04-1.96033E+00-2.13881E-13 2.89799E-13
 -1       182 2.04398E+01 1.90372E-01-9.94037E-03-7.65389E-01-1.95149E-13 2.10154E-13
 -1       183 1.96634E+01 1.01626E-01 1.36018E-02-2.86833E-01-1.39531E-13 1.28796E-13
 -1       184 1.93227E+01 4.71685E-02 1.00205E-02-6.91791E-02-8.68357E-14 5.75495E-15
 -1       185 1.91923E+01 2.26017E-02 5.16695E-03 3.81847E-02-5.37710E-14-6.35191E-14
 -1       186 1.91784E+01 9.64490E-03 2.44851E-03 9.10783E-02-5.99616E-14-1.10564E-13
 -1       187 1.92272E+01 2.38345E-03 1.15634E-03 1.14041E-01-3.74511E-14-1.13210E-13
 -1       188 1.93075E+01-1.64856E-03 5.36970E-04 1.20011E-01-4.37681E-14-1.49119E-13
 -1       189 1.94013E+01-3.66396E-03 2.21598E-04 1.16605E-01-6.26183E-14-9.27528E-14
 -1       190 1.94983E+01-4.33912E-03 6.10830E-05 1.08681E-01-4.33798E-14-1.14584E-13
 -1       191 1.95931E+01-4.08523E-03-6.58053E-06 9.95144E-02-5.76865E-14-2.13303E-13
 -1       192 1.96841E+01-3.16180E-03-1.19831E-05 9.14009E-02 2.21276E-15-1.80848E-13
 -1       193 1.97719E+01-1.73355E-03 2.66577E-05 8.60175E-02 4.41729E-14-1.97692E-13
 -1       194 1.98590E+01 9.43577E-05 9.68166E-05 8.46406E-02-2.72563E-14-2.65602E-13
 -1       195 1.99491E+01 2.24887E-03 1.88514E-04 8.82755E-02-5.50318E-14-2.39040E-13
 -1       196 2.00470E+01 4.66207E-03 2.92055E-04 9.77112E-02-3.21513E-14-1.94641E-13
 -1       197 2.01581E+01 7.23970E-03 3.95885E-04 1.13496E-01-3.00889E-14-2.12194E-13
 -1       198 2.02881E+01 9.82079E-03 4.84370E-04 1.35818E-01-2.82488E-14-2.90944E-13
 -1       199 2.04428E+01 1.21247E-02 5.35613E-04 1.64275E-01-9.56361E-14-2.41115E-13
 -1       200 2.06266E+01 1.36836E-02 5.19857E-04 1.97485E-01-4.20589E-15-2.95325E-13
 -1       201 2.08419E+01 1.37652E-02 3.99745E-04 2.32532E-01 1.47052E-13-2.72984E-13
 -1       202 2.10874E+01 1.13047E-02 1.34667E-04 2.64242E-01 1.44572E-14-3.53126E-13
 -1       203 2.13556E+01 4.89567E-03-3.07605E-04 2.84388E-01-4.09189E-15-1.97013E-13
 -1       204 2.16306E+01-7.05303E-03-9.29210E-04 2.81104E-01 1.07961E-13-1.12466E-13
 -1       205 2.18850E+01-2.58186E-02-1.67082E-03 2.39134E-01 2.35619E-14-9.05083E-14
 -1       206 2.20791E+01-5.12925E-02-2.37784E-03 1.41997E-01-6.15458E-15-7.33362E-14
 -1       207 2.21621E+01-8.02308E-02-2.80499E-03-2.24615E-02-8.52593E-14-1.90167E-14
 -1       208 2.20802E+01-1.04209E-01-2.66387E-03-2.52039E-01 1.37559E-14-6.81132E-14
 -1       209 2.17921E+01-1.09180E-01-1.82272E-03-5.17091E-01 8.26997E-14 2.97635E-15
 -1       210 2.12944E+01-7.95258E-02-3.58588E-04-7.51776E-01-2.42339E-14 1.64972E-15
 -1       211 2.06476E+01-8.48973E-03 1.26822E-03-8.62547E-01-9.95611E-14 1.65225E-13
 -1       212 1.99860E+01 8.91967E-02 2.48178E-03-7.64965E-01-1.06220E-13 4.30398E-14
 -1       213 1.94907E+01 1.74975E-01 3.09046E-03-4.39862E-01-6.34432E-15-1.81901E-13
 -1       214 1.93198E+01 2.05437E-01 3.20054E-03 2.98428E-02 1.20619E-13-3.47137E-15
 -1       215 1.95290E+01 1.63459E-01 2.96499E-03 4.85188E-01 1.00605E-14-6.10208E-14
 -1       216 2.00408E+01 7.18818E-02 2.24251E-03 7.74395E-01-1.00434E-13-1.36376E-13
 -1       217 2.06863E+01-2.44726E-02 8.95196E-04 8.30642E-01-2.33274E-14-3.24338E-13
 -1       218 2.12863E+01-8.98721E-02-7.68429E-04 6.87257E-01-5.63894E-14-2.89829E-13
 -1       219 2.17163E+01-1.13570E-01-2.15048E-03 4.34278E-01-7.24158E-14-3.25929E-13
 -1       220 2.19266E+01-1.04715E-01-2.87045E-03 1.63047E-01-2.06882E-13-3.33707E-13
 -1       221 2.19285E+01-7.91061E-02-2.85348E-03-6.58132E-02-1.02370E-13-6.51313E-13
 -1       222 2.17675E+01-4.97511E-02-2.27871E-03-2.26796E-01 2.31570E-14-5.85322E-13
 -1       223 2.14998E+01-2.38007E-02-1.42495E-03-3.19010E-01 2.40046E-13-2.98980E-13
 -1       224 2.11791E+01-3.36161E-03-5.26040E-04-3.53055E-01 3.24177E-13 4.86753E-15
 -1       225 2.08499E+01 1.25295E-02 2.28931E-04-3.41295E-01 3.85023E-13 9.32506E-14
 -1       226 2.05473E+01 2.61334E-02 6.68109E-04-2.92688E-01 1.09030E-14-1.11172E-13
 -1       227 2.02984E+01 3.98396E-02 8.89913E-04-2.11933E-01-1.46054E-13 8.55435E-14
 -1       228 2.01154E+01 5.19310E-02 7.69597E-04-1.04908E-01 1.07499E-15 4.29550E-13
 -1       229 2.09562E+01 2.77047E-01-5.13417E-02 1.16592E+00 1.61978E-13 7.06883E-13
 -1       230 1.98604E+01 1.26831E-01 8.30788E-03 4.44228E-01 1.56482E-13 5.71920E-13
 -1       231 1.93530E+01 5.80440E-02 1.27379E-02 1.51219E-01 8.95443E-14 4.53579E-13
 -1       232 1.91422E+01 2.77113E-02 7.63576E-03 1.19536E-02 5.72170E-14 4.00531E-13
 -1       233 1.90915E+01 1.30923E-02 3.83502E-03-5.72480E-02 5.85528E-14 3.76909E-13
 -1       234 1.91267E+01 5.21518E-03 1.92434E-03-8.99201E-02-2.06526E-14 2.86098E-13
 -1       235 1.92059E+01 7.80780E-04 1.03004E-03-1.02224E-01 1.11029E-13 2.23365E-13
 -1       236 1.93048E+01-1.64821E-03 5.81878E-04-1.03016E-01 2.44447E-14 1.95997E-13
 -1       237 1.94096E+01-2.79838E-03 3.34775E-04-9.76860E-02 2.01963E-14 1.16839E-13
 -1       238 1.95127E+01-3.08281E-03 1.95266E-04-8.97596E-02-4.70412E-14 2.07590E-13
 -1       239 1.96110E+01-2.75100E-03 1.24442E-04-8.16706E-02 3.66457E-14 2.37385E-13
 -1       240 1.97043E+01-1.95203E-03 1.02484E-04-7.51943E-02 1.24296E-13 1.83041E-13
 -1       241 1.97947E+01-7.64878E-04 1.17534E-04-7.17251E-02 1.53940E-13 6.78458E-14
 -1       242 1.98861E+01 7.85304E-04 1.62008E-04-7.24751E-02 9.65610E-14-6.85184E-14
 -1       243 1.99840E+01 2.71767E-03 2.30781E-04-7.86282E-02 1.10403E-14-6.23377E-14
 -1       244 2.00955E+01 5.08941E-03 3.19699E-04-9.14649E-02-6.03339E-14-2.29121E-14
 -1       245 2.02293E+01 7.98974E-03 4.23763E-04-1.12464E-01-1.96307E-14-4.45902E-14
 -1       246 2.03961E+01 1.15296E-02 5.34412E-04-1.43375E-01-4.00124E-14-1.36050E-13
 -1       247 2.06085E+01 1.58184E-02 6.35216E-04-1.86224E-01-2.60678E-14-1.12411E-14
 -1       248 2.08812E+01 2.09114E-02 6.95292E-04-2.43207E-01-4.12402E-14 1.26227E-14
 -1       249 2.12307E+01 2.66957E-02 6.60776E-04-3.16307E-01 4.20198E-14 3.67301E-15
 -1       250 2.16740E+01 3.26564E-02 4.48512E-04-4.06401E-01 1.04708E-13-1.23611E-13
 -1       251 2.22262E+01 3.74346E-02-4.38755E-05-5.11373E-01 7.06050E-14-3.02719E-13
 -1       252 2.28947E+01 3.80663E-02-8.80574E-04-6.22565E-01-4.23305E-15-1.95526E-13
 -1       253 2.36696E+01 2.89053E-02-1.92386E-03-7.18764E-01-8.55060E-14-9.34227E-14
 -1       254 2.45076E+01 7.03223E-04-2.57067E-03-7.57797E-01-6.50998E-14 9.53950E-14
 -1       255 2.53121E+01-5.80770E-02-1.51137E-03-6.69162E-01-4.44527E-14 1.58540E-13
 -1       256 2.59146E+01-1.52913E-01 2.72130E-03-3.60274E-01-1.40972E-13 2.74008E-13
 -1       257 2.60811E+01-2.62272E-01 9.62532E-03 2.37785E-01-1.64877E-14 3.65985E-13
 -1       258 2.55825E+01-3.10551E-01 1.32607E-02 1.05982E+00 1.80489E-14 2.08951E-13
 -1       259 2.43673E+01-1.81539E-01 2.47919E-03 1.76955E+00-9.07488E-14 6.78953E-14
 -1       260 2.27912E+01 1.57243E-01-2.56253E-02 1.80519E+00-1.27719E-14 1.01221E-14
 -1       261 2.16486E+01 4.98483E-01-4.86143E-02 8.40731E-01 1.67116E-13 3.81140E-14
 -1       262 2.16753E+01 5.27438E-01-4.24875E-02-6.62470E-01 1.36075E-13-2.94646E-13
 -1       263 2.28520E+01 2.18501E-01-1.44628E-02-1.72223E+00 1.67578E-13-4.25516E-13
 -1       264 2.44163E+01-1.36197E-01 7.82430E-03-1.79327E+00 1.42398E-13-5.56718E-13
 -1       265 2.55749E+01-2.97211E-01 1.43000E-02-1.12917E+00-1.19300E-13-5.90424E-13
 -1       266 2.59962E+01-2.72343E-01 7.58413E-03-2.96220E-01 3.44343E-16-1.99308E-13
 -1       267 2.57549E+01-1.71968E-01-4.13945E-04 3.39505E-01-1.03541E-13 3.73724E-14
 -1       268 2.50847E+01-7.58181E-02-4.01680E-03 6.87998E-01-3.72676E-13 3.93283E-13
 -1       269 2.42161E+01-1.22614E-02-3.98338E-03 8.07133E-01-3.13243E-13 4.82065E-13
 -1       270 2.33124E+01 2.07494E-02-2.43011E-03 7.88188E-01 3.32131E-14 7.70874E-13
 -1       271 2.24688E+01 3.41109E-02-7.75993E-04 7.02591E-01 3.76922E-13 3.75482E-13
 -1       272 2.17315E+01 3.77788E-02 3.86936E-04 5.92146E-01 7.31791E-14 9.20642E-14
 -1       273 2.11195E+01 3.86325E-02 8.31097E-04 4.74868E-01 3.11261E-13 2.97449E-13
 -1       274 2.06400E+01 4.12037E-02 4.00021E-04 3.53156E-01-9.27999E-14 5.76423E-14
 -1       275 2.02982E+01 4.94910E-02 3.67076E-04 2.19803E-01 1.21012E-13 7.43177E-15
 -1       276 2.00886E+01 5.04325E-02 1.91535E-03 7.56975E-02 9.32150E-14 4.95104E-14
 -1       277 2.00705E+01 1.74882E-01 1.29790E-03 1.59664E-01 1.37313E-13 8.80758E-13
 -1       278 2.00462E+01 4.17281E-01 3.33920E-04 2.90904E-01 2.69184E-13 2.93889E-13
 -1       279 2.00135E+01 7.25615E-01 2.15267E-05 3.59848E-01 2.76641E-13-2.05386E-13
 -1       280 1.99854E+01 1.05142E+00-4.30925E-04 3.57037E-01 1.46954E-13-5.33046E-13
 -1       281 1.99644E+01 1.33899E+00-1.08368E-03 2.95185E-01-1.86649E-13-1.08617E-12
 -1       282 1.99513E+01 1.55561E+00-1.59197E-03 1.89834E-01-5.18797E-13-1.91741E-13
 -1       283 1.99469E+01 1.66678E+00-1.86262E-03 6.23208E-02-5.58603E-13 1.52999E-13
 -1       284 1.99504E+01 1.66211E+00-1.84447E-03-6.64099E-02-2.55300E-13 2.86635E-13
 -1       285 1.99602E+01 1.54827E+00-1.56692E-03-1.78461E-01 4.31486E-14-1.37961E-13
 -1       286 1.99740E+01 1.34601E+00-1.08869E-03-2.60970E-01-3.59252E-13-1.26045E-13
 -1       287 1.99893E+01 1.09005E+00-4.79690E-04-3.06184E-01-4.02710E-13-6.52384E-13
 -1       288 2.00054E+01 8.05011E-01 8.24205E-05-3.12769E-01-3.92838E-13 2.40473E-13
 -1       289 2.00213E+01 5.29566E-01 4.68960E-04-2.79739E-01-3.45594E-13 1.35598E-13
 -1       290 2.00389E+01 2.95280E-01 1.08120E-03-2.06675E-01-5.76162E-13 3.35220E-13
 -1       291 2.00787E+01 1.61828E-01 1.32270E-03-1.74358E-01-4.17916E-13 8.50416E-14
 -1       292-8.06084E-01-1.00650E+01-8.46910E-01 1.06711E+00-5.79925E-13-6.12566E-14
 -1       293 2.81974E+00-8.64472E+00-7.63339E-01 3.40914E+00-5.15699E-13 5.99798E-13
 -1       294 1.13887E+01-5.74906E+00-3.47884E-01 6.14802E+00-9.57567E-15 7.70946E-13
 -1       295 1.99136E+01-1.69591E+00-1.26610E-01 6.89915E+00 4.14890E-13 8.91065E-13
 -1       296 3.09375E+01 1.71582E+00 2.91721E-01 6.53332E+00 5.62522E-13 6.63691E-13
 -1       297 4.07635E+01 4.91400E+00 7.92373E-01 5.75666E+00 4.24830E-13 9.72639E-13
 -1       298 4.55546E+01 6.67874E+00 9.27916E-01 2.14671E+00 4.23023E-13 5.37778E-13
 -1       299 4.83181E+01 6.68369E+00 1.16188E+00-1.07815E+00 6.27637E-13 4.32293E-14
 -1       300 4.39790E+01 5.66981E+00 9.61838E-01-4.52663E+00 5.64604E-13-1.89626E-13
 -1       301 3.50433E+01 2.98324E+00 4.50267E-01-5.85760E+00 4.23175E-13-4.61575E-13
 -1       302 2.45580E+01 4.58435E-01 8.51181E-02-7.35452E+00 2.10443E-13-4.12309E-13
 -1       303 1.40751E+01-3.22166E+00-3.72426E-01-6.22352E+00 2.41251E-13-2.85272E-13
 -1       304 6.22590E+00-7.07794E+00-6.14669E-01-4.67778E+00 5.74651E-13-5.14120E-14
 -1       305 4.09859E-01-1.01425E+01-9.35305E-01-1.92740E+00 5.92554E-13-1.47118E-13
 -1       306-1.32961E+00-1.12775E+01-1.01731E+00 1.07859E-01 5.58021E-13-2.01478E-13
 -1       307 1.80542E-01-9.71718E+00-8.34425E-01 2.35966E+00 4.31599E-13-2.89629E-13
 -1       308 5.74711E+00-6.76204E+00-5.06674E-01 5.19187E+00 2.57294E-13-3.02498E-13
 -1       309 1.36858E+01-3.49914E+00-2.79542E-01 6.63071E+00-6.63358E-14-2.88158E-13
 -1       310 2.25580E+01 8.63310E-01 8.42474E-02 7.72432E+00-8.60978E-14-5.08260E-13
 -1       311 3.24039E+01 3.76392E+00 4.77874E-01 7.59834E+00-2.57835E-13-3.88134E-13
 -1       312 4.00079E+01 5.59191E+00 6.72777E-01 4.78112E+00-2.94258E-13-4.27491E-13
 -1       313 4.59199E+01 6.51416E+00 9.90843E-01 2.35801E+00-3.91021E-13-4.78215E-13
 -1       314 4.65683E+01 6.62886E+00 1.02861E+00-1.35584E+00-1.45356E-13-4.59285E-13
 -1       315 4.30015E+01 5.99698E+00 8.83269E-01-4.75687E+00 2.36630E-13-1.71335E-13
 -1       316 3.53048E+01 4.11805E+00 4.93764E-01-6.14420E+00-2.70790E-14-3.03063E-13
 -1       317 2.66095E+01 1.58128E+00 2.13010E-01-7.49235E+00 2.15744E-13-4.61214E-13
 -1       318 1.70712E+01-1.73640E+00-1.41201E-01-7.12006E+00 3.68233E-13 2.38726E-13
 -1       319 8.02506E+00-5.40655E+00-5.44331E-01-5.32536E+00 1.81188E-13-2.98005E-13
 -1       320 2.16597E+00-8.91352E+00-8.38161E-01-3.33115E+00-2.06168E-13-6.43686E-13
 -1       321-8.36372E-01-1.09110E+01-9.61541E-01-1.33865E+00-3.81514E-13-5.06178E-13
 -1       322 2.01344E+01 3.00066E+00-2.20054E-02-2.09876E+00-2.10994E-13-2.15727E-13
 -1       323 2.07522E+01 2.20816E+00-1.76836E-02-2.36598E+00-2.46663E-13-7.47527E-14
 -1       324 1.95858E+01 3.69149E+00-1.56240E-02-1.31858E+00-1.10890E-13-3.29393E-13
 -1       325 1.94642E+01 3.84852E+00-1.37218E-02-9.24682E-01-4.81390E-14-3.25683E-13
 -1       326 1.93963E+01 3.93950E+00-1.27246E-02-5.44496E-01 1.31687E-14-3.21230E-13
 -1       327 1.93663E+01 3.98089E+00-1.23037E-02-1.73467E-01 6.37673E-14-3.09135E-13
 -1       328 1.93677E+01 3.97927E+00-1.23214E-02 1.94596E-01 1.13238E-13-3.10590E-13
 -1       329 1.94005E+01 3.93430E+00-1.27668E-02 5.65985E-01 1.39899E-13-3.08176E-13
 -1       330 1.94703E+01 3.84090E+00-1.37741E-02 9.40327E-01 1.69103E-13-2.59136E-13
 -1       331 1.95957E+01 3.67853E+00-1.56584E-02 1.33474E+00 2.23831E-13-1.83067E-13
 -1       332 1.98092E+01 3.40978E+00-1.88315E-02 1.74030E+00 2.63814E-13-1.24824E-13
 -1       333 2.01773E+01 2.95503E+00-2.29381E-02 2.12897E+00 2.90509E-13 1.66533E-16
 -1       334 2.07446E+01 2.12935E+00-3.04684E-02 2.32385E+00 2.79958E-13 2.30271E-13
 -1       335 2.10896E+01 1.18773E+00-2.49268E-02 1.92341E+00 2.41690E-13 4.03573E-13
 -1       336 2.03854E+01 4.89245E-01 8.33259E-03 9.28914E-01 2.01537E-13 3.21240E-13
 -1       337 2.04531E+01 6.75293E-01 1.25809E-02-1.02661E+00-2.11809E-13-4.53331E-14
 -1       338 2.00311E+01 3.36847E-01 7.17101E-03-4.59524E-01-1.76593E-13-4.57334E-14
 -1       339 1.97767E+01 1.76671E-01 4.10274E-03-1.50359E-01-1.08552E-13-7.77479E-14
 -1       340 1.96414E+01 9.09475E-02 1.89302E-03 2.12882E-02-7.58875E-14-1.29849E-13
 -1       341 1.95866E+01 4.23264E-02 8.00338E-04 1.13399E-01-6.33707E-14-1.27736E-13
 -1       342 1.95827E+01 1.41068E-02 2.93458E-04 1.58270E-01-4.61875E-14-1.52607E-13
 -1       343 1.96093E+01-1.81814E-03 4.98525E-05 1.75095E-01 1.31540E-14-1.42544E-13
 -1       344 1.96532E+01-9.80864E-03-6.67986E-05 1.76028E-01-7.14359E-14-1.23956E-13
 -1       345 1.97061E+01-1.24287E-02-1.10413E-04 1.69154E-01-8.69932E-14-1.35990E-13
 -1       346 1.97633E+01-1.12744E-02-1.05797E-04 1.60061E-01-2.81846E-14-7.44144E-14
 -1       347 1.98228E+01-7.36785E-03-6.69031E-05 1.52740E-01-2.99722E-14-1.51071E-13
 -1       348 1.98846E+01-1.37547E-03-2.70791E-06 1.50137E-01 1.19749E-14-1.80023E-13
 -1       349 1.99499E+01 6.24790E-03 8.03403E-05 1.54486E-01-4.82465E-14-1.67949E-13
 -1       350 2.00211E+01 1.51392E-02 1.76680E-04 1.67499E-01 1.71139E-14-1.54550E-13
 -1       351 2.01011E+01 2.49052E-02 2.80033E-04 1.90412E-01-3.96684E-14-1.05042E-13
 -1       352 2.01936E+01 3.49800E-02 3.81581E-04 2.23891E-01-3.99764E-14-6.15677E-14
 -1       353 2.03022E+01 4.44476E-02 4.67824E-04 2.67775E-01 9.25570E-15-5.66971E-14
 -1       354 2.04306E+01 5.18204E-02 5.18234E-04 3.20607E-01-7.93876E-14-9.02452E-14
 -1       355 2.05815E+01 5.47825E-02 5.03094E-04 3.78943E-01-1.05959E-14-4.21536E-14
 -1       356 2.07566E+01 4.99421E-02 3.82706E-04 4.36417E-01 6.13807E-14-2.08486E-13
 -1       357 2.09552E+01 3.27169E-02 1.10128E-04 4.82636E-01 7.18798E-14-6.40243E-14
 -1       358 2.11734E+01-2.38319E-03-3.58887E-04 5.02162E-01 1.13590E-14-1.34407E-13
 -1       359 2.14026E+01-6.05899E-02-1.04479E-03 4.74156E-01 5.22775E-14-2.63587E-13
 -1       360 2.16280E+01-1.44134E-01-1.90596E-03 3.73808E-01 7.45873E-14-2.84054E-13
 -1       361 2.18263E+01-2.47277E-01-2.77364E-03 1.77363E-01 9.22936E-14-2.80038E-13
 -1       362 2.19646E+01-3.49472E-01-3.35327E-03-1.27162E-01 9.04517E-15-1.05473E-13
 -1       363 2.20011E+01-4.09605E-01-3.20138E-03-5.22291E-01 6.18863E-15-2.55671E-14
 -1       364 2.18939E+01-3.70923E-01-2.16657E-03-9.40265E-01 1.56999E-14-1.10511E-13
 -1       365 2.16236E+01-1.86029E-01-1.21946E-04-1.25481E+00-6.72927E-14-7.17779E-14
 -1       366 2.12267E+01 1.37311E-01 2.19459E-03-1.30841E+00-6.51674E-14 7.42798E-15
 -1       367 2.08187E+01 4.99141E-01 3.94200E-03-9.91731E-01-1.12761E-13 2.63615E-13
 -1       368 2.05628E+01 7.32468E-01 4.62831E-03-3.42486E-01-1.41202E-14-1.27588E-14
 -1       369 2.05779E+01 7.09312E-01 4.52376E-03 4.26186E-01 3.44750E-14-2.09269E-13
 -1       370 2.08521E+01 4.41768E-01 3.64679E-03 1.03024E+00-1.42468E-13-3.07843E-13
 -1       371 2.12513E+01 7.24811E-02 1.69742E-03 1.27990E+00-1.00088E-13-1.58737E-13
 -1       372 2.16132E+01-2.35783E-01-7.36016E-04 1.16591E+00 5.39894E-14 1.92889E-14
 -1       373 2.18343E+01-3.97732E-01-2.61607E-03 8.13152E-01-2.83079E-14 1.43543E-14
 -1       374 2.18886E+01-4.17847E-01-3.52353E-03 3.79094E-01-1.09227E-13 1.57513E-13
 -1       375 2.18015E+01-3.47626E-01-3.46316E-03-1.77818E-02-2.08698E-13 3.59070E-13
 -1       376 2.16160E+01-2.41611E-01-2.74433E-03-3.17530E-01-8.06758E-14 5.33690E-13
 -1       377 2.13739E+01-1.36434E-01-1.78609E-03-5.06328E-01 2.26311E-13 3.49203E-13
 -1       378 2.11086E+01-4.84771E-02-8.25916E-04-5.95575E-01 2.68245E-13 2.04851E-13
 -1       379 2.08443E+01 2.01402E-02 2.09139E-06-6.04929E-01 3.67475E-13 1.91719E-13
 -1       380 2.05979E+01 7.45936E-02 6.47986E-04-5.52374E-01 1.04215E-13 3.04173E-13
 -1       381 2.03816E+01 1.21554E-01 1.29208E-03-4.51001E-01 5.74784E-14 5.04257E-13
 -1       382 2.02187E+01 1.49074E-01 1.50623E-03-3.21240E-01 4.58021E-16 5.12054E-13
 -1       383 1.98832E+01 2.28440E-01 1.07963E-02 4.00321E-01 1.37804E-13 2.84708E-13
 -1       384 1.95940E+01 1.15363E-01 6.17645E-03 1.21597E-01 1.00455E-13 2.15031E-13
 -1       385 1.94591E+01 5.77757E-02 2.81089E-03-2.74233E-02 8.38210E-14 1.54579E-13
 -1       386 1.94193E+01 2.61392E-02 1.18835E-03-1.04780E-01 5.36174E-14 9.14246E-14
 -1       387 1.94358E+01 8.07371E-03 4.69106E-04-1.40987E-01 9.02716E-14 3.28052E-14
 -1       388 1.94838E+01-2.06739E-03 1.35460E-04-1.53213E-01 6.82857E-14 8.55409E-14
 -1       389 1.95479E+01-7.18219E-03-2.75476E-05-1.51982E-01 3.20846E-14 7.37245E-14
 -1       390 1.96188E+01-8.91549E-03-9.75686E-05-1.44172E-01-7.76462E-14 7.86524E-14
 -1       391 1.96917E+01-8.25738E-03-1.06450E-04-1.34513E-01 3.91046E-14 1.21713E-14
 -1       392 1.97649E+01-5.80487E-03-7.02210E-05-1.26431E-01 1.38688E-13 1.32164E-14
 -1       393 1.98388E+01-1.88844E-03 2.21962E-06-1.22570E-01 2.22352E-13-6.66288E-15
 -1       394 1.99156E+01 3.35919E-03 1.06574E-04-1.25158E-01 1.42319E-13 2.25214E-14
 -1       395 1.99991E+01 9.96181E-03 2.41902E-04-1.36282E-01-1.39008E-14-6.42146E-14
 -1       396 2.00942E+01 1.80709E-02 4.09663E-04-1.58094E-01-1.99689E-14-4.76250E-14
 -1       397 2.02073E+01 2.79367E-02 6.12454E-04-1.92972E-01 7.50415E-14-1.03522E-13
 -1       398 2.03461E+01 3.98641E-02 8.51919E-04-2.43618E-01 4.26035E-14-1.02166E-13
 -1       399 2.05193E+01 5.41239E-02 1.12487E-03-3.13045E-01-1.04548E-13-1.73805E-13
 -1       400 2.07369E+01 7.07672E-02 1.41611E-03-4.04372E-01-8.76081E-14-1.42160E-13
 -1       401 2.10100E+01 8.92489E-02 1.68604E-03-5.20226E-01 4.92038E-14-1.03803E-13
 -1       402 2.13493E+01 1.07699E-01 1.85167E-03-6.61407E-01 2.15803E-13-1.35054E-13
 -1       403 2.17648E+01 1.21603E-01 1.76452E-03-8.24265E-01 1.03481E-13-1.90950E-13
 -1       404 2.22628E+01 1.21669E-01 1.19883E-03-9.95959E-01-1.00531E-13-9.43057E-14
 -1       405 2.28429E+01 9.09643E-02-1.15360E-04-1.14677E+00-1.47850E-13 1.24672E-13
 -1       406 2.34932E+01 2.92156E-03-2.31329E-03-1.21964E+00-8.66403E-14 1.04557E-13
 -1       407 2.41834E+01-1.74612E-01-5.18003E-03-1.12072E+00-7.10647E-14 3.37543E-13
 -1       408 2.48540E+01-4.56368E-01-7.59725E-03-7.24587E-01-1.36364E-13 3.98709E-13
 -1       409 2.53961E+01-7.83852E-01-8.52725E-03 7.45558E-02-5.91545E-14 5.39789E-13
 -1       410 2.56344E+01-9.50652E-01-8.04919E-03 1.22863E+00 1.12158E-13 5.37314E-13
 -1       411 2.53642E+01-6.16060E-01-1.17825E-02 2.33108E+00 5.30270E-14 1.94882E-13
 -1       412 2.45659E+01 3.72572E-01-2.73240E-02 2.58654E+00 1.47418E-13-1.52996E-13
 -1       413 2.37305E+01 1.46772E+00-3.80361E-02 1.37680E+00 1.52333E-13-3.00762E-13
 -1       414 2.36173E+01 1.65823E+00-3.11577E-02-7.68732E-01 2.81795E-13-1.51373E-13
 -1       415 2.43370E+01 7.39456E-01-1.91477E-02-2.36075E+00 2.97836E-13-1.86226E-13
 -1       416 2.51978E+01-3.81943E-01-1.46855E-02-2.49983E+00 1.99837E-13-2.70417E-13
 -1       417 2.55941E+01-9.27250E-01-9.00789E-03-1.53194E+00-9.09715E-14-4.17377E-14
 -1       418 2.54165E+01-8.70398E-01-1.03379E-02-3.19542E-01-2.35638E-13-8.55635E-14
 -1       419 2.48808E+01-5.63881E-01-1.05058E-02 6.07429E-01-3.36012E-13 2.40180E-13
 -1       420 2.41774E+01-2.57119E-01-7.49399E-03 1.12089E+00-4.70573E-13 4.90439E-13
 -1       421 2.34346E+01-4.80685E-02-3.76852E-03 1.30108E+00-3.67683E-13 3.32798E-13
 -1       422 2.27208E+01 6.45350E-02-7.83793E-04 1.27577E+00-5.02839E-14 4.76441E-13
 -1       423 2.20715E+01 1.12844E-01 1.11148E-03 1.14653E+00 4.16124E-13 6.51778E-13
 -1       424 2.15041E+01 1.27864E-01 2.10768E-03 9.75139E-01 2.35309E-13 7.62102E-13
 -1       425 2.10259E+01 1.31622E-01 2.49766E-03 7.90644E-01 3.75949E-13 8.19719E-13
 -1       426 2.06386E+01 1.37157E-01 2.37268E-03 6.00619E-01-3.83378E-14 4.05518E-13
 -1       427 2.03383E+01 1.50915E-01 1.98120E-03 4.02096E-01 5.08447E-14 5.32729E-13
 -1       428 2.01883E+01 1.70389E-01 1.46162E-03 2.82937E-01-6.02899E-14 8.50269E-13
 -1       429 1.99908E+01 8.24319E-01 1.00277E-04 6.23541E-01-1.75130E-14-4.19818E-13
 -1       430 2.01007E+01 5.56395E-01 1.43878E-03 5.85784E-01-1.54714E-13 2.35681E-13
 -1       431 2.01643E+01 3.53025E-01 2.07347E-03 4.56442E-01-3.00312E-13 4.63356E-13
 -1       432 1.98980E+01 1.06608E+00-8.34552E-04 5.58972E-01-9.46853E-14-1.37417E-12
 -1       433 1.98308E+01 1.25968E+00-1.47109E-03 4.10261E-01-5.41268E-14-7.72838E-13
 -1       434 1.97963E+01 1.37637E+00-1.85008E-03 2.08196E-01-2.14159E-15-1.94585E-14
 -1       435 1.97949E+01 1.40410E+00-1.93005E-03-1.24106E-02-3.31384E-13 4.57411E-13
 -1       436 1.98219E+01 1.34412E+00-1.73406E-03-2.18569E-01-2.19651E-13 2.85668E-13
 -1       437 1.98692E+01 1.20965E+00-1.31564E-03-3.84084E-01-1.03788E-13-1.92533E-13
 -1       438 1.99267E+01 1.02568E+00-7.44386E-04-4.91126E-01 3.42462E-14-6.45432E-13
 -1       439 1.99889E+01 8.09789E-01-1.46051E-04-5.36296E-01 2.07655E-13 9.27528E-14
 -1       440 2.00499E+01 5.88851E-01 4.93770E-04-5.16836E-01-7.66035E-14 1.89489E-13
 -1       441 2.01087E+01 3.80999E-01 1.33928E-03-4.39920E-01-2.66954E-13-2.19555E-13
 -1       442 1.00310E+01-5.51213E+00-4.90211E-02 6.55693E+00-2.78014E-13 8.60485E-13
 -1       443 1.77537E+00-3.47896E+00 4.50066E-02-5.81211E-01 6.78606E-14-2.23599E-13
 -1       444 4.08249E+00-4.69422E+00-1.67484E-02 4.29573E+00-2.21670E-13 2.87381E-13
 -1       445 2.10509E+01-5.78578E+00-3.63101E-03 5.99224E+00-1.08358E-13 6.64330E-13
 -1       446 2.76338E+01-3.96256E+00-3.77217E-02 3.73942E+00 6.26721E-14 2.89282E-13
 -1       447 1.97909E+01 3.43309E+00-1.87162E-02-1.72154E+00-1.62041E-13-3.03211E-13
 -1       448 3.62225E+01 5.18562E+00 7.98572E-02-4.42594E-01 3.08142E-13 1.54987E-13
 -1       449 3.54748E+01 7.88825E+00 2.70073E-03-1.97440E-01 6.16174E-13 6.54563E-14
 -1       450 3.63032E+01 6.98305E+00 4.34568E-02 7.51713E-01 4.52138E-13 3.12902E-13
 -1       451 3.52771E+01 3.02064E+00 5.51443E-02-1.62632E-02 3.78177E-13 3.74534E-13
 -1       452 3.04185E+01-2.17438E+00-1.54957E-02-2.44013E+00-4.11338E-14-7.88258E-14
 -1       453 2.44368E+01-4.59143E+00-8.73680E-03-5.20372E+00-1.46272E-13-2.18117E-13
 -1       454 1.54549E+01-5.96419E+00-4.80443E-02-6.79054E+00 6.44484E-14 3.46129E-13
 -1       455 6.81451E+00-5.05297E+00-9.06064E-03-5.66791E+00 8.49182E-14 1.10190E-13
 -1       456 1.76385E+00-4.79505E+00-9.02062E-02-2.22615E+00 8.57231E-14-1.83686E-13
 -1       457 1.39404E+00-4.55124E+00-7.47415E-02 1.97035E+00 1.46459E-13-1.18988E-13
 -1       458 5.78177E+00-4.69578E+00-1.02939E-02 5.79831E+00 3.36869E-13-2.34299E-13
 -1       459 1.48401E+01-5.44353E+00 3.76045E-02 7.41267E+00 4.75120E-13-2.28543E-13
 -1       460 2.23657E+01-4.27779E+00-4.84554E-03 6.09512E+00 2.46109E-13-6.57530E-14
 -1       461 2.89087E+01-1.71632E+00 1.32272E-02 3.41642E+00 2.17819E-13 7.65221E-14
 -1       462 3.26556E+01 1.99132E+00 8.42179E-03 1.34206E+00 1.22870E-13-1.52281E-13
 -1       463 3.54628E+01 6.63061E+00 7.59293E-02 2.21119E-02-3.08711E-13-1.57374E-13
 -1       464 3.67914E+01 8.11234E+00 1.26258E-01-1.26400E-02-2.03781E-13-2.74168E-13
 -1       465 3.63971E+01 7.23587E+00 1.29115E-01-1.82669E-01-6.02157E-14-2.89824E-13
 -1       466 3.49656E+01 4.54478E+00 1.19581E-01-9.92580E-01 1.85990E-13-1.23415E-13
 -1       467 3.04862E+01-5.27123E-01-1.13005E-02-2.44448E+00 2.28921E-13-2.02130E-13
 -1       468 2.53405E+01-3.97825E+00 5.46957E-03-4.93626E+00 2.19644E-13-3.89994E-13
 -1       469 1.70007E+01-5.38451E+00-3.12391E-02-7.14545E+00 3.32928E-13-7.11341E-14
 -1       470 8.98254E+00-5.62933E+00-7.62969E-02-6.77244E+00-1.61038E-13-6.01096E-13
 -1       471 3.27630E+00-4.39059E+00-5.43763E-03-4.07175E+00-6.68909E-14-6.45275E-13
 -1       472 3.40080E+01 1.16621E+00 6.76433E-02 9.52274E-01 1.87919E-13 3.24296E-13
 -1       473 1.77147E+01-5.59267E+00 8.24851E-02 6.61014E+00-1.86157E-13 6.23803E-13
 -1       474 2.03693E+01 8.31888E-01 4.02256E-03 9.73893E-01 2.00368E-13 9.33186E-14
 -1       475 1.97378E+01 3.10420E+00-5.40408E-03-6.34679E-01-1.44511E-14-2.79562E-13
 -1       476 1.98326E+01 2.93062E+00-6.00090E-03-9.51710E-01-7.08578E-14-2.76741E-13
 -1       477 1.96712E+01 3.22694E+00-5.02949E-03 8.78756E-03 7.25077E-14-2.73141E-13
 -1       478 1.96895E+01 3.19389E+00-5.10884E-03 3.30792E-01 1.08588E-13-2.84449E-13
 -1       479 1.97424E+01 3.09696E+00-5.41879E-03 6.46557E-01 1.46164E-13-2.58501E-13
 -1       480 1.98397E+01 2.91895E+00-5.95653E-03 9.62602E-01 2.01948E-13-1.90738E-13
 -1       481 1.99932E+01 2.63379E+00-6.52400E-03 1.25824E+00 2.26440E-13-1.28585E-13
 -1       482 2.02329E+01 2.18768E+00-5.69960E-03 1.50325E+00 2.49654E-13-6.97465E-14
 -1       483 2.01075E+01 4.53707E-01 5.07101E-03 4.65998E-01 1.57413E-13 4.18975E-14
 -1       484 2.03405E+01 9.73293E-01 2.64784E-03-9.43318E-01-1.90529E-13-1.40085E-13
 -1       485 3.00662E+01-2.65727E+00-7.49222E-02-4.33708E-01-2.09312E-14 2.18381E-13
 -1       486 9.85462E+00-3.45549E+00 1.39760E-01 5.88424E+00-1.74034E-13 1.00547E-12
 -1       487 2.01691E+01 5.44113E-01 1.89683E-03-4.69152E-01-1.54397E-13-1.37240E-13
 -1       488 2.00221E+01 3.04455E-01 1.04775E-03-1.67502E-01-1.13909E-13-1.58407E-13
 -1       489 1.99220E+01 1.63394E-01 4.48565E-04 1.49768E-02-7.40365E-14-1.41439E-13
 -1       490 1.98644E+01 7.85110E-02 1.62597E-04 1.19528E-01-8.98117E-14-1.11872E-13
 -1       491 1.98390E+01 2.77615E-02 3.30377E-05 1.74016E-01-4.25839E-14-1.40644E-13
 -1       492 1.98359E+01-9.94228E-04-2.88327E-05 1.97470E-01-2.07579E-14-2.07425E-13
 -1       493 1.98478E+01-1.49546E-02-5.52260E-05 2.03036E-01-7.46110E-14-1.87722E-13
 -1       494 1.98692E+01-1.86186E-02-5.88929E-05 1.99949E-01-3.02914E-14-1.28189E-13
 -1       495 1.98972E+01-1.48919E-02-4.64419E-05 1.94826E-01-3.53320E-14-9.87992E-14
 -1       496 1.99298E+01-5.68836E-03-2.20471E-05 1.92515E-01 3.71330E-15-1.02209E-13
 -1       497 1.99668E+01 7.69822E-03 1.13838E-05 1.96649E-01-5.50086E-14-1.69309E-13
 -1       498 2.00085E+01 2.43188E-02 5.15778E-05 2.09994E-01 2.00787E-14-8.56401E-14
 -1       499 2.00562E+01 4.33186E-02 9.63254E-05 2.34627E-01-3.56499E-16 5.46791E-15
 -1       500 2.01115E+01 6.36706E-02 1.42749E-04 2.71950E-01-1.58578E-14-1.18680E-14
 -1       501 2.01767E+01 8.38621E-02 1.86418E-04 3.22520E-01-1.72874E-14-3.62224E-14
 -1       502 2.02545E+01 1.01511E-01 2.20334E-04 3.85694E-01-8.92156E-14-3.93389E-14
 -1       503 2.03478E+01 1.12910E-01 2.33811E-04 4.59016E-01 4.10496E-14 1.44111E-14
 -1       504 2.04602E+01 1.12549E-01 2.11477E-04 5.37365E-01 3.66149E-14-1.85555E-17
 -1       505 2.05956E+01 9.27363E-02 1.32940E-04 6.11841E-01 8.59598E-14-3.83446E-15
 -1       506 2.07588E+01 4.36527E-02-2.57408E-05 6.68501E-01 3.37038E-14-4.70678E-14
 -1       507 2.09548E+01-4.55404E-02-2.87035E-04 6.87204E-01-6.51701E-14 5.62900E-14
 -1       508 2.11880E+01-1.83468E-01-6.62774E-04 6.41227E-01-5.75572E-14-1.00169E-13
 -1       509 2.14588E+01-3.69767E-01-1.12275E-03 4.98981E-01 4.21583E-14-2.49823E-13
 -1       510 2.17579E+01-5.83802E-01-1.48295E-03 2.30219E-01 9.02643E-14-2.35537E-13
 -1       511 2.20561E+01-7.70519E-01-1.55538E-03-1.79988E-01-3.00310E-14-3.25393E-13
 -1       512 2.22941E+01-8.30459E-01-8.55120E-04-7.04669E-01 4.91753E-14-2.72529E-13
 -1       513 2.23889E+01-6.43530E-01-4.08140E-04-1.24075E+00 6.72457E-14-1.84518E-13
 -1       514 2.22719E+01-1.34512E-01 2.46482E-04-1.59294E+00 1.15409E-14 6.35171E-14
 -1       515 2.19666E+01 6.11342E-01 6.92248E-04-1.52624E+00 2.93727E-14 1.30043E-13
 -1       516 2.16351E+01 1.29543E+00-7.82813E-04-9.21021E-01-2.43411E-13 5.33062E-14
 -1       517 2.15041E+01 1.54340E+00-1.50188E-03 5.99204E-02-6.61723E-14 6.25136E-14
 -1       518 2.16689E+01 1.20272E+00-2.05360E-04 1.00357E+00-7.18404E-14 4.38916E-14
 -1       519 2.20018E+01 4.75697E-01 5.08279E-04 1.52040E+00 2.67288E-14 3.81907E-13
 -1       520 2.22730E+01-2.53718E-01-1.41319E-04 1.49742E+00 6.94303E-14 3.02752E-13
 -1       521 2.23413E+01-7.16116E-01-7.94569E-04 1.08760E+00-1.61777E-13 1.58579E-13
 -1       522 2.22032E+01-8.59059E-01-1.50555E-03 5.28138E-01 8.02666E-14 2.01650E-13
 -1       523 2.19342E+01-7.71717E-01-1.78306E-03 1.81431E-03-7.31956E-15 3.03357E-13
 -1       524 2.16150E+01-5.73780E-01-1.50131E-03-4.01395E-01-6.60842E-14 3.10441E-13
 -1       525 2.12997E+01-3.55433E-01-1.07618E-03-6.60834E-01-1.71717E-13 3.73930E-13
 -1       526 2.10146E+01-1.63643E-01-5.85373E-04-7.92007E-01 2.47264E-13 2.61573E-13
 -1       527 2.07672E+01-1.20603E-02-1.70950E-04-8.21964E-01 2.42573E-13 3.55085E-13
 -1       528 2.05561E+01 1.04262E-01 1.53435E-04-7.76189E-01 2.53573E-13 3.24181E-13
 -1       529 2.03771E+01 1.97598E-01 5.30518E-04-6.72559E-01-2.45643E-14-2.90596E-14
 -1       530 1.98059E+01 1.29856E-01 1.00212E-03-1.88223E-02 1.13099E-13 4.40026E-15
 -1       531 1.97489E+01 6.13689E-02 3.70877E-04-1.18741E-01 1.01598E-13-2.41534E-14
 -1       532 1.97319E+01 2.09481E-02 9.94490E-05-1.69277E-01 6.07672E-14-1.96765E-14
 -1       533 1.97410E+01-1.91553E-03-2.63433E-05-1.89742E-01 1.62945E-14 2.92788E-14
 -1       534 1.97663E+01-1.31486E-02-8.23033E-05-1.93014E-01 1.69750E-14 6.22233E-14
 -1       535 1.98013E+01-1.63168E-02-9.62016E-05-1.87994E-01 2.84069E-14-4.99772E-14
 -1       536 1.98423E+01-1.36248E-02-8.03402E-05-1.81045E-01 1.07511E-13-8.84719E-14
 -1       537 1.98877E+01-6.40072E-03-4.15524E-05-1.76921E-01 1.43432E-13-3.19221E-14
 -1       538 1.99371E+01 4.64205E-03 1.65154E-05-1.79397E-01 1.56836E-13-2.23246E-14
 -1       539 1.99919E+01 1.92505E-02 9.25365E-05-1.91718E-01 1.31646E-13 1.05635E-14
 -1       540 2.00539E+01 3.75291E-02 1.87003E-04-2.16945E-01 2.70214E-15-4.90135E-14
 -1       541 2.01261E+01 5.98535E-02 3.01659E-04-2.58190E-01 5.65336E-14-1.50125E-13
 -1       542 2.02118E+01 8.67661E-02 4.38624E-04-3.18782E-01 4.22779E-14-7.60064E-15
 -1       543 2.03151E+01 1.18807E-01 5.98935E-04-4.02309E-01-7.35285E-14 7.23724E-14
 -1       544 2.04401E+01 1.56190E-01 7.79749E-04-5.12473E-01-8.77604E-14 4.65315E-14
 -1       545 2.05912E+01 1.98182E-01 9.69189E-04-6.52642E-01 7.39261E-14-1.11238E-13
 -1       546 2.07729E+01 2.41930E-01 1.13735E-03-8.24845E-01 9.15945E-14-2.57232E-13
 -1       547 2.09901E+01 2.80369E-01 1.22225E-03-1.02786E+00 1.16228E-13 5.55874E-15
 -1       548 2.12494E+01 2.98757E-01 1.11297E-03-1.25379E+00-1.98018E-14 1.11377E-13
 -1       549 2.15621E+01 2.69663E-01 6.31804E-04-1.48253E+00-6.61284E-14 3.45696E-14
 -1       550 2.19501E+01 1.47557E-01-4.64543E-04-1.67317E+00-1.07594E-13-5.55163E-15
 -1       551 2.24539E+01-1.31468E-01-2.22943E-03-1.75257E+00-2.51995E-13 7.67560E-14
 -1       552 2.31376E+01-6.30413E-01-4.66825E-03-1.60295E+00-1.41543E-13 1.54705E-13
 -1       553 2.40679E+01-1.33759E+00-6.20458E-03-1.06161E+00-1.48894E-13 1.36439E-13
 -1       554 2.52299E+01-2.02031E+00-8.30683E-03 2.23849E-02 7.65414E-14 2.90370E-13
 -1       555 2.63661E+01-2.06593E+00-1.65495E-02 1.59978E+00 1.71889E-13 3.54074E-13
 -1       556 2.68881E+01-6.04758E-01-6.14309E-02 2.96170E+00 1.90606E-13 3.17913E-13
 -1       557 2.65545E+01 2.10753E+00-9.96607E-02 2.78786E+00 2.08302E-13 3.35385E-13
 -1       558 2.61636E+01 3.91441E+00-1.31472E-01 3.96936E-01 3.28917E-13 6.24813E-14
 -1       559 2.65554E+01 2.76867E+00-1.00580E-01-2.29958E+00 3.79835E-13-8.45157E-14
 -1       560 2.68811E+01 6.26495E-02-5.44037E-02-3.08286E+00 1.58356E-13 3.99264E-14
 -1       561 2.65308E+01-1.85857E+00-2.17272E-02-1.97982E+00-2.82834E-14 2.72225E-13
 -1       562 2.54852E+01-2.13144E+00-6.25037E-03-3.32457E-01-3.25480E-13 5.30948E-13
 -1       563 2.42732E+01-1.55608E+00-7.06412E-03 9.14490E-01-2.07281E-13 5.50597E-13
 -1       564 2.32512E+01-8.19714E-01-5.02593E-03 1.60152E+00-4.55794E-13 6.97903E-14
 -1       565 2.24836E+01-2.59571E-01-2.79655E-03 1.85054E+00-2.00103E-13-5.52727E-14
 -1       566 2.19141E+01 7.38740E-02-8.17504E-04 1.83176E+00-2.12509E-13-1.28448E-13
 -1       567 2.14738E+01 2.37002E-01 5.59570E-04 1.67250E+00-5.14545E-14-2.71802E-13
 -1       568 2.11170E+01 2.99699E-01 1.28482E-03 1.45165E+00 7.99645E-14 3.24277E-13
 -1       569 2.08191E+01 3.16373E-01 1.69471E-03 1.21103E+00 7.38326E-14 5.99992E-13
 -1       570 2.05683E+01 3.23856E-01 2.29423E-03 9.68883E-01 3.04817E-13 6.65297E-13
 -1       571 2.03523E+01 3.38558E-01 2.18395E-03 7.24471E-01 3.62900E-14 6.70128E-13
 -1       572 1.97027E+01 1.08473E+00-5.68312E-04 6.49174E-01 2.55770E-13-9.71452E-13
 -1       573 1.95980E+01 1.21087E+00-7.45669E-04 4.02671E-01 3.70132E-13-2.60546E-13
 -1       574 2.00744E+01 6.56918E-01 4.68235E-05 8.48300E-01-1.10964E-13-1.27928E-13
 -1       575 1.98681E+01 8.92602E-01-3.72036E-04 8.07230E-01-1.89393E-13-6.98767E-13
 -1       576 1.95627E+01 1.25589E+00-8.59300E-04 1.11642E-01 1.03656E-13-4.60875E-14
 -1       577 1.95928E+01 1.21907E+00-8.41505E-04-1.77793E-01-1.82871E-13 3.43389E-13
 -1       578 1.96745E+01 1.11200E+00-7.01888E-04-4.25559E-01-2.68460E-13 1.84252E-13
 -1       579 1.97862E+01 9.57979E-01-4.72762E-04-6.01595E-01 2.30853E-14-8.25663E-14
 -1       580 1.99127E+01 7.74793E-01-1.93772E-04-6.98898E-01 5.70440E-13-4.03653E-13
 -1       581 2.00408E+01 5.83174E-01 3.18627E-04-7.13106E-01 1.80145E-13-8.67441E-14
 -1       582 2.01553E+01 4.02639E-01 2.41353E-04-6.52636E-01-3.44293E-14 9.41995E-14
 -1       583 6.17751E+00-1.15545E+00 2.02325E-01 2.40501E+00 6.54823E-14 2.48274E-14
 -1       584 1.99203E+01 2.46668E-01 2.44462E-03 1.60223E-01 1.24902E-13 2.15805E-14
 -1       585 2.03881E+01 1.75692E+00-5.28063E-03-1.52581E+00-2.16085E-13-1.58623E-13
 -1       586 9.08023E+00-3.38920E+00 1.33977E-01-6.23354E+00-2.59306E-14-9.43579E-13
 -1       587 2.58188E+01-5.55351E+00-2.75126E-03 3.33429E+00-2.61222E-13 9.90041E-14
 -1       588 5.79431E+00-1.26956E+00 1.81650E-01-2.76032E+00 7.31533E-14-4.74565E-13
 -1       589 3.04976E+01 7.48863E+00-1.56790E-01 5.25247E-01-1.32894E-13-2.20936E-13
 -1       590 2.61937E+01-4.54589E+00-2.39938E-02 3.34353E+00 1.96999E-13-2.58335E-14
 -1       591 3.12641E+01 3.80023E+00-1.67843E-01 2.45161E+00 3.95753E-13 3.18211E-13
 -1       592 1.96866E+01 3.19834E+00-5.11756E-03-3.13274E-01 3.03127E-14-2.74937E-13
 -1       593 3.08523E+01 5.58976E+00-1.31684E-01-1.97608E+00 5.56791E-13 1.76567E-13
 -1       594 3.10552E+01-8.87068E-01-9.44230E-02 1.44452E+00 1.55098E-13 3.77462E-13
 -1       595 2.99857E+01 6.05592E+00-2.03436E-01 1.01081E+00 4.34722E-13 3.22270E-13
 -1       596 1.41897E+01-4.64403E+00 1.05152E-01-6.57218E+00-3.17454E-14 3.15636E-13
 -1       597 2.77177E+01-4.89915E+00-3.93331E-02-2.10265E+00-1.41252E-13-2.80886E-14
 -1       598 3.08359E+01 7.16146E+00-1.58490E-01-8.37912E-01-2.59806E-13-2.84522E-13
 -1       599 2.21468E+01-5.87148E+00 4.90713E-02-5.26523E+00-7.49886E-14-2.14037E-13
 -1       600 6.33961E+00-2.43373E+00 1.37535E-01-4.02686E+00-1.23193E-13-3.73451E-14
 -1       601 4.42614E+00-1.37684E+00 1.75465E-01-2.50357E-01-2.27265E-13-1.51226E-13
 -1       602 6.10791E+00-1.83545E+00 1.68924E-01 3.99471E+00-1.20189E-13-3.97876E-14
 -1       603 1.26082E+01-3.55415E+00 1.37746E-01 6.75626E+00 3.24442E-13-1.60150E-14
 -1       604 2.07766E+01-5.43249E+00 6.77029E-02 6.05089E+00 3.67352E-13-2.79047E-13
 -1       605 2.94687E+01-1.19668E+00-8.68667E-02 1.08574E-01 2.47902E-13-1.93491E-13
 -1       606 2.80017E+01-3.41815E+00-4.01759E-02-1.76345E+00 1.15989E-13 6.86950E-16
 -1       607 3.03123E+01 3.51459E+00-1.45757E-01-1.61343E+00-1.48909E-14-7.58005E-14
 -1       608 3.07326E+01 5.09896E+00-1.55660E-01 1.46208E+00 6.52672E-14-9.56388E-14
 -1       609 3.03130E+01 8.46083E-01-1.03174E-01 7.42486E-01 1.75804E-13-6.45942E-14
 -1       610 2.24508E+01-5.53553E+00 2.37712E-02-5.46438E+00 2.30919E-13-1.32984E-13
 -1       611 1.53650E+01-5.04184E+00 8.47942E-02-7.19924E+00 1.68157E-13-4.26759E-13
 -1       612 3.16200E+01 1.65973E+00-1.71853E-01-2.00461E+00 2.75016E-13 2.69985E-13
 -1       613 2.05809E+01 1.30515E+00-9.99670E-04 1.54972E+00 2.48771E-13 1.55914E-13
 -1       614 1.99800E+01 2.65334E+00-6.75464E-03-1.24543E+00-1.28308E-13-2.85311E-13
 -1       615 2.01627E+01 2.28246E+00-6.10399E-03-1.43737E+00-1.76348E-13-2.48538E-13
 -1       616 2.29329E+01-5.45490E+00 1.18212E-01 4.47357E+00-4.40911E-13 6.76716E-14
 -1       617 1.19152E+01-2.62256E+00 1.33873E-01-5.55202E+00-1.82483E-13 2.14523E-13
 -1       618 2.02717E+01 2.49425E-01 8.23544E-04-5.74751E-01-8.56462E-14-3.05787E-14
 -1       619 1.99660E+01 2.45015E+00-1.60696E-03 3.94576E-01 1.16189E-13-2.43674E-13
 -1       620 1.99349E+01 2.52506E+00-1.52270E-03 1.35895E-01 7.49997E-14-2.52645E-13
 -1       621 2.01234E+01 2.04638E+00-1.61003E-03 8.51571E-01 1.80856E-13-1.31767E-13
 -1       622 2.02397E+01 1.67590E+00-2.25514E-03 9.93632E-01 2.05496E-13-7.44464E-14
 -1       623 2.03180E+01 1.03673E+00 2.89859E-03 8.33269E-01 1.96266E-13-2.89872E-14
 -1       624 1.07164E+01-1.28848E+00 1.47843E-01 4.33249E+00 5.05533E-14 5.41171E-13
 -1       625 2.73298E+01 4.73070E+00-1.38120E-01-1.86570E+00-4.52624E-14 3.18773E-14
 -1       626 2.02405E+01 6.74292E-01 4.35115E-04-3.94204E-01-1.49955E-13-1.51021E-13
 -1       627 2.01684E+01 3.93933E-01 1.77150E-04-1.40042E-01-9.41893E-14-1.13871E-13
 -1       628 2.01036E+01 2.16618E-01 4.97038E-05 2.37000E-02-4.25498E-14-1.23691E-13
 -1       629 2.00546E+01 1.05120E-01 6.92504E-06 1.21723E-01-7.33756E-14-1.15732E-13
 -1       630 2.00213E+01 3.73354E-02-1.10354E-05 1.75090E-01-6.78138E-14-1.17044E-13
 -1       631 2.00012E+01-6.40536E-04-1.96177E-05 2.00021E-01-4.96227E-14-1.24354E-13
 -1       632 1.99914E+01-1.77809E-02-2.19583E-05 2.08558E-01-2.52936E-14-7.77667E-14
 -1       633 1.99894E+01-2.00103E-02-1.94335E-05 2.09608E-01-4.97477E-14-4.49989E-14
 -1       634 1.99933E+01-1.13020E-02-1.30202E-05 2.09789E-01-4.97682E-14-1.00110E-13
 -1       635 2.00018E+01 5.64461E-03-3.53988E-06 2.14078E-01-5.06348E-14-9.21210E-14
 -1       636 2.00142E+01 2.89270E-02 8.34714E-06 2.26276E-01 4.66816E-14-5.87639E-14
 -1       637 2.00305E+01 5.70368E-02 2.20665E-05 2.49317E-01 2.33745E-14-5.10454E-14
 -1       638 2.00508E+01 8.84628E-02 3.70546E-05 2.85409E-01-4.74530E-14-1.00797E-14
 -1       639 2.00760E+01 1.21257E-01 5.23931E-05 3.36018E-01-3.86734E-15 3.33558E-14
 -1       640 2.01076E+01 1.52521E-01 6.65079E-05 4.01683E-01-6.63828E-17 1.21940E-13
 -1       641 2.01480E+01 1.77784E-01 7.68918E-05 4.81636E-01-1.25331E-14 1.02682E-13
 -1       642 2.02011E+01 1.90314E-01 7.97800E-05 5.73187E-01-5.08469E-14 2.09402E-14
 -1       643 2.02728E+01 1.80428E-01 6.93886E-05 6.70870E-01 4.10768E-14-1.55359E-13
 -1       644 2.03722E+01 1.35078E-01 3.76250E-05 7.65285E-01 9.13556E-14-1.22459E-13
 -1       645 2.05125E+01 3.82426E-02-2.68387E-05 8.41636E-01-2.37054E-14-1.35372E-13
 -1       646 2.07112E+01-1.26820E-01-1.39839E-04 8.77983E-01-1.99491E-13-1.44329E-13
 -1       647 2.09891E+01-3.71619E-01-3.34383E-04 8.43495E-01-7.45583E-14-1.90668E-13
 -1       648 2.13643E+01-6.90227E-01-6.07522E-04 6.98047E-01 5.21147E-14-2.13935E-13
 -1       649 2.18391E+01-1.03908E+00-6.80273E-04 3.96575E-01 8.32275E-14-1.32702E-13
 -1       650 2.23801E+01-1.31331E+00-6.17022E-04-9.60269E-02 1.01053E-14 4.79696E-15
 -1       651 2.28866E+01-1.32118E+00 9.19663E-04-7.56103E-01 3.22071E-14 3.74398E-14
 -1       652 2.31888E+01-8.46475E-01-3.27983E-03-1.45128E+00 1.19118E-13-6.60970E-14
 -1       653 2.31529E+01 1.99972E-01-3.63902E-03-1.85322E+00 3.23800E-14-1.37283E-13
 -1       654 2.28170E+01 1.54453E+00-8.08831E-03-1.59951E+00-2.12697E-14-1.19901E-13
 -1       655 2.24996E+01 2.48321E+00-1.37349E-02-5.85190E-01-2.16801E-13 1.09421E-13
 -1       656 2.25339E+01 2.38674E+00-1.12791E-02 7.31225E-01-9.03678E-14 2.12670E-13
 -1       657 2.28788E+01 1.31815E+00-7.06667E-03 1.63986E+00-2.47875E-14 1.34598E-13
 -1       658 2.31731E+01-2.22707E-02-4.60126E-03 1.76303E+00-1.10466E-13-1.69479E-14
 -1       659 2.31503E+01-9.93209E-01-1.46793E-03 1.27367E+00 2.38315E-14-1.13526E-13
 -1       660 2.27962E+01-1.38174E+00-6.63110E-04 5.55620E-01-6.92300E-14 1.04303E-13
 -1       661 2.22728E+01-1.31925E+00-8.47861E-04-1.00494E-01 8.46164E-14 9.37886E-15
 -1       662 2.17345E+01-1.02437E+00-5.68844E-04-5.78073E-01-1.10634E-15-8.03541E-14
 -1       663 2.12691E+01-6.68457E-01-5.37701E-04-8.66554E-01-2.70762E-14-1.35537E-13
 -1       664 2.09058E+01-3.45854E-01-2.84614E-04-1.00136E+00 1.57547E-13 1.51843E-14
 -1       665 2.06370E+01-8.88611E-02-8.32909E-05-1.02474E+00 2.79455E-13 1.56855E-13
 -1       666 2.04422E+01 1.05105E-01 1.26265E-04-9.71565E-01 2.86908E-13 6.70871E-14
 -1       667 2.03001E+01 2.52059E-01 7.23777E-04-8.66353E-01-1.46876E-13-1.10909E-13
 -1       668 1.99749E+01 9.26538E-02 5.62646E-05-1.22512E-01 1.05880E-13 9.75598E-15
 -1       669 2.91129E+01-7.38692E-01-1.14377E-01-2.63302E+00-4.52624E-14 2.89109E-14
 -1       670 2.42854E+01-4.87770E+00 1.75818E-02 3.46244E+00 7.17412E-14-2.26466E-13
 -1       671 2.00272E+01 1.92045E-01 1.63924E-04-2.15850E-02 1.09024E-13 1.04355E-14
 -1       672 1.99325E+01-1.31610E-03-1.74501E-05-2.00644E-01 1.59218E-14-1.35732E-14
 -1       673 1.99324E+01-1.69817E-02-2.82671E-05-2.07836E-01 9.88959E-14-5.17072E-14
 -1       674 1.99410E+01-1.96123E-02-2.83115E-05-2.07186E-01 7.62611E-14-1.27011E-14
 -1       675 1.99560E+01-1.24770E-02-1.95059E-05-2.05537E-01 1.11680E-13-4.34023E-14
 -1       676 1.99760E+01 2.45807E-03-3.30898E-06-2.08158E-01 1.78535E-13-3.70624E-15
 -1       677 2.00004E+01 2.41707E-02 1.92192E-05-2.19331E-01 1.19267E-13 6.66849E-15
 -1       678 2.00289E+01 5.23549E-02 4.81185E-05-2.42783E-01 8.53677E-14-2.69087E-14
 -1       679 2.00617E+01 8.72441E-02 8.39918E-05-2.82007E-01 8.04512E-14-1.79046E-14
 -1       680 2.00993E+01 1.29435E-01 1.27814E-04-3.40473E-01-2.36860E-14 2.83757E-14
 -1       681 2.01418E+01 1.79660E-01 1.80657E-04-4.21742E-01-7.57077E-14 9.75833E-14
 -1       682 2.01891E+01 2.38407E-01 2.43083E-04-5.29436E-01-5.29754E-14 4.52570E-14
 -1       683 2.02407E+01 3.05236E-01 3.14321E-04-6.67036E-01 1.44732E-15-1.65323E-14
 -1       684 2.02956E+01 3.77545E-01 3.90264E-04-8.37416E-01 1.22984E-13 1.38292E-13
 -1       685 2.03533E+01 4.48401E-01 4.60446E-04-1.04202E+00-3.85521E-15 1.37282E-13
 -1       686 2.04157E+01 5.02883E-01 5.01300E-04-1.27955E+00-3.17145E-15 1.65231E-13
 -1       687 2.04917E+01 5.12436E-01 4.72680E-04-1.54389E+00-4.68589E-14 3.36205E-13
 -1       688 2.06060E+01 4.27261E-01 2.90995E-04-1.82084E+00-1.19507E-13 4.25644E-13
 -1       689 2.08148E+01 1.68988E-01-2.08244E-04-2.08215E+00-1.38301E-13 4.33516E-13
 -1       690 2.12276E+01-3.67185E-01-2.75556E-04-2.27305E+00-1.65010E-13 2.59455E-13
 -1       691 2.20229E+01-1.27769E+00-5.35048E-04-2.27801E+00-1.16683E-13 1.91895E-13
 -1       692 2.34346E+01-2.52306E+00 7.23215E-04-1.87841E+00-1.10558E-13 2.07099E-13
 -1       693 2.55364E+01-3.55420E+00 5.59748E-03-7.59446E-01 2.70468E-14 1.84351E-13
 -1       694 2.92086E+01 5.59490E-01-1.04353E-01 2.88120E+00 1.85976E-13 3.93491E-13
 -1       695 2.60600E+01-3.67170E+00-2.23372E-02 4.91562E-01-3.48069E-13 2.34247E-13
 -1       696 2.38826E+01-2.85781E+00 1.08686E-02 1.76509E+00-2.30892E-13 3.37933E-13
 -1       697 2.22812E+01-1.60450E+00 3.20994E-03 2.33488E+00-1.08633E-13 4.20212E-13
 -1       698 2.13398E+01-5.98142E-01 6.74858E-04 2.41372E+00-2.04600E-13 2.09352E-13
 -1       699 2.08404E+01 2.68438E-02-9.73164E-05 2.27199E+00 4.88601E-14 1.60610E-14
 -1       700 2.05832E+01 3.53373E-01 1.73123E-04 2.03649E+00-9.17271E-15-3.41828E-13
 -1       701 2.04427E+01 4.91989E-01 3.89824E-04 1.76826E+00-2.31178E-13-5.56560E-13
 -1       702 2.03508E+01 5.33953E-01 5.27431E-04 1.49575E+00-3.10488E-14-4.74583E-13
 -1       703 2.02750E+01 5.41290E-01 6.90704E-04 1.23052E+00-7.54363E-15-1.92628E-13
 -1       704 2.01568E+01 5.94062E-01 6.32708E-04 1.04099E+00-3.25960E-15-7.46218E-14
 -1       705 1.92837E+01 1.16598E+00-3.33840E-04-8.03875E-02-4.32524E-14-2.00908E-14
 -1       706 2.02217E+01 3.31940E-01-1.76085E-04-7.69031E-01 7.54568E-14 1.33008E-13
 -1       707 1.93927E+01 1.12192E+00-1.60813E-04 6.38025E-01 3.66914E-13-9.58306E-13
 -1       708 1.93865E+01 1.06505E+00-2.98388E-04-4.13768E-01-2.58529E-13 1.86479E-13
 -1       709 1.92806E+01 1.18864E+00-2.28096E-04 2.88984E-01-1.20456E-15-3.21206E-13
 -1       710 2.01047E+01 3.54165E-01 5.58077E-04 1.50054E-01 1.36996E-13-1.34141E-14
 -1       711 1.95549E+01 9.12381E-01-1.89233E-04-6.65465E-01 2.35709E-14 3.66813E-13
 -1       712 1.97595E+01 7.31221E-01-1.30447E-05-8.22572E-01 3.67356E-13 2.28888E-13
 -1       713 1.99668E+01 5.47545E-01 8.30885E-05-8.82513E-01 4.46377E-13-6.98829E-13
 -1       714 1.43227E+01-3.34650E+00 1.16100E-01-6.37766E+00 1.67946E-13-7.49831E-13
 -1       715 1.08675E+01-1.28591E+00 1.34924E-01 4.80718E+00 8.63927E-14 4.09235E-13
 -1       716 2.69340E+01 6.21887E+00-1.57973E-01-5.43785E-01-1.09489E-13-1.48316E-13
 -1       717 2.53672E+01-4.71802E+00-2.55690E-03-2.66854E+00 1.36563E-13-2.11957E-13
 -1       718 1.81822E+01-4.11836E+00 5.88177E-02 5.90770E+00 2.54248E-13-3.53967E-13
 -1       719 7.95115E+00 4.67608E-02 1.58532E-01 1.61602E+00-1.08226E-13 5.43107E-14
 -1       720 2.70719E+01-3.38441E+00-5.12223E-02 6.53011E-01 2.06350E-13-3.77500E-13
 -1       721 1.99451E+01 3.25367E-02 6.72928E-06-1.76405E-01-2.69365E-15-3.97658E-14
 -1       722 2.02922E+01 1.11635E+00-4.04634E-04-7.64710E-01-1.54804E-13-1.61707E-13
 -1       723 9.93794E+00-1.24576E+00 1.40411E-01-4.57548E+00 1.35499E-13-1.01880E-12
 -1       724 2.02045E+01 6.15403E-01 1.14661E-03 4.22069E-01 1.51771E-13-1.97040E-14
 -1       725 2.68738E+01 5.19855E+00-1.52859E-01 1.53822E+00-7.61752E-14-1.54904E-13
 -1       726 2.00290E+01 2.29520E+00-1.65865E-03 6.38657E-01 1.64003E-13-1.87292E-13
 -1       727 2.74900E+01-4.18568E+00-4.55610E-02 2.81051E-01-3.91425E-13 1.17267E-14
 -1       728 2.00236E+01 2.30567E+00-1.63926E-03-6.30411E-01-4.55952E-14-2.21112E-13
 -1       729 2.52401E+01-5.20997E+00 7.13598E-03-2.80145E+00-2.10467E-13 5.30583E-14
 -1       730 2.80954E+01 4.62757E-01-1.01334E-01-1.79832E+00 9.67212E-14-1.16854E-13
 -1       731 1.95008E+01-4.65587E+00 6.19429E-02-5.33635E+00 1.68095E-14-2.28463E-15
 -1       732 1.59693E+01-3.78852E+00 6.73623E-02 6.07051E+00-3.39888E-13 4.94590E-13
 -1       733 8.39184E+00 2.53697E-01 1.47789E-01-2.77508E-01 2.59264E-13-2.07057E-13
 -1       734 8.34487E+00-2.68116E-01 1.59575E-01-2.31539E+00-1.94995E-13-1.94095E-13
 -1       735 2.78863E+01-1.65384E+00-6.30792E-02 8.07874E-01 1.06871E-13-6.84765E-14
 -1       736 2.83956E+01-3.24175E+00-4.40259E-02 9.80932E-01 7.15053E-15 4.26915E-13
 -1       737 2.81008E+01 2.28118E+00-1.27237E-01 2.07155E+00 8.65974E-14-1.54841E-13
 -1       738 2.02696E+01 1.62746E+00 7.13716E-04-1.09041E+00-1.69061E-13-1.92596E-13
 -1       739 1.98263E+01-4.85168E+00 5.06798E-02-5.80229E+00 1.04871E-13-5.46837E-14
 -1       740 2.01202E+01 2.05868E+00-6.80230E-04-8.45251E-01-1.02752E-13-2.24814E-13
 -1       741 1.99338E+01 2.52680E+00-1.52866E-03-1.26784E-01 4.57449E-14-2.22394E-13
 -1       742 1.07091E+01 2.98520E-01 9.88822E-02 1.96013E+00 2.24033E-13-1.36040E-13
 -1       743 1.96150E+01 9.71962E-01-4.84492E-04 9.06182E-01 1.84350E-13-4.54949E-13
 -1       744 1.98751E+01 7.97218E-01-1.04170E-04 1.02787E+00-1.74773E-13-8.01958E-13
 -1       745 1.54252E+01-2.25383E+00 7.29795E-02 5.30348E+00 7.20795E-14-1.69391E-13
 -1       746 1.69226E+01-3.14512E+00 7.16633E-02-5.28663E+00-7.36529E-14-9.64350E-14
 -1       747 1.99630E+01 2.45578E+00-1.57831E-03-3.84857E-01 1.68596E-15-2.35372E-13
 -1       748 1.04961E+01 7.81309E-01 9.32400E-02-4.60964E-01 9.34685E-15-7.12728E-14
 -1       749 2.02681E+01 1.30483E+00-2.42197E-04 6.30215E-01 1.64844E-13-9.84967E-14
 -1       750 2.01910E+01 1.87150E+00-1.52688E-05-9.86204E-01-1.38676E-13-2.30338E-13
 -1       751 2.02843E+01 1.16413E+00-4.78971E-04-5.68701E-01-1.30341E-13-1.78781E-13
 -1       752 2.02654E+01 4.37878E-01 1.94758E-05-9.26752E-02-6.18664E-14-1.06392E-13
 -1       753 2.02259E+01 2.42337E-01-1.54104E-05 3.95162E-02-6.58606E-14-9.01536E-14
 -1       754 2.01851E+01 1.16620E-01-1.06848E-05 1.20601E-01-9.41420E-14-1.25246E-13
 -1       755 2.01480E+01 4.01230E-02-8.74154E-06 1.66054E-01-1.77360E-14-1.18386E-13
 -1       756 2.01165E+01-1.32116E-03-7.80261E-06 1.88577E-01-7.77239E-15-5.98036E-14
 -1       757 2.00906E+01-1.74566E-02-6.69374E-06 1.98209E-01-2.74682E-14-7.88981E-14
 -1       758 2.00696E+01-1.50257E-02-5.10997E-06 2.02696E-01-4.20900E-14-6.70439E-14
 -1       759 2.00526E+01 1.30172E-03-3.05111E-06 2.07978E-01-1.94868E-14 8.00098E-15
 -1       760 2.00386E+01 2.82635E-02-4.90351E-07 2.18641E-01 1.19190E-14-1.48747E-14
 -1       761 2.00265E+01 6.34598E-02 2.61265E-06 2.38295E-01-1.80491E-15-5.87697E-14
 -1       762 2.00157E+01 1.04831E-01 6.18382E-06 2.69820E-01-3.30287E-15-7.44551E-14
 -1       763 2.00057E+01 1.50122E-01 1.03200E-05 3.15489E-01 1.44871E-14-5.56960E-14
 -1       764 1.99966E+01 1.96292E-01 1.48344E-05 3.76963E-01 3.62173E-14-9.16621E-14
 -1       765 1.99896E+01 2.38793E-01 1.93168E-05 4.55174E-01 1.47744E-14-3.44937E-14
 -1       766 1.99875E+01 2.70734E-01 2.37623E-05 5.50032E-01-8.91841E-14-4.85038E-14
 -1       767 1.99957E+01 2.81975E-01 2.73534E-05 6.59952E-01-3.70037E-14 2.87659E-14
 -1       768 2.00236E+01 2.58265E-01 2.87707E-05 7.81142E-01 4.54547E-14 1.06122E-14
 -1       769 2.00864E+01 1.80761E-01 2.58043E-05 9.06484E-01 9.33426E-14-1.05635E-13
 -1       770 2.02071E+01 2.66198E-02 1.22274E-05 1.02368E+00-1.05223E-13-2.97340E-14
 -1       771 2.04182E+01-2.27920E-01-3.02748E-05 1.11214E+00-2.02976E-13 5.94764E-14
 -1       772 2.07611E+01-5.99205E-01-2.10735E-04 1.13765E+00-5.49912E-14 2.41639E-14
 -1       773 2.12785E+01-1.07754E+00-5.78070E-04 1.04665E+00 4.86455E-14-1.69930E-13
 -1       774 2.19958E+01-1.59350E+00 2.39442E-04 7.58909E-01 4.59329E-14-2.09364E-13
 -1       775 2.28869E+01-1.95353E+00-2.23823E-03 1.59576E-01 4.99563E-14-1.27294E-13
 -1       776 2.37563E+01-1.88782E+00-1.51458E-02-6.99545E-01-4.71968E-14-7.67255E-14
 -1       777 2.43234E+01-9.11195E-01-1.00635E-02-1.63609E+00-9.42768E-14-1.90843E-13
 -1       778 2.43198E+01 9.95968E-01-3.32420E-02-2.12423E+00 1.65384E-13-1.69746E-13
 -1       779 2.38317E+01 3.06636E+00-4.53409E-02-1.51152E+00-7.14966E-15-1.47312E-13
 -1       780 2.36219E+01 3.90481E+00-5.43060E-02 1.08871E-01-1.88332E-13 9.87886E-14
 -1       781 2.40119E+01 2.73377E+00-2.56162E-02 1.61178E+00-1.59585E-13-5.59186E-14
 -1       782 2.43412E+01 6.03868E-01-2.49856E-02 2.03136E+00-1.69320E-13-9.73137E-15
 -1       783 2.42752E+01-1.16339E+00-3.50506E-03 1.43727E+00-1.22132E-13 1.61127E-13
 -1       784 2.36450E+01-1.99762E+00-1.02235E-03 4.36151E-01 1.47977E-13 2.14733E-13
 -1       785 2.27431E+01-1.97649E+00-1.54615E-05-4.06386E-01 5.39724E-14 3.49533E-13
 -1       786 2.18979E+01-1.57062E+00 4.33161E-04-9.36864E-01 1.54469E-14 3.38714E-13
 -1       787 2.12183E+01-1.04445E+00-3.85407E-04-1.19977E+00-3.33332E-14 2.29459E-13
 -1       788 2.07411E+01-5.67778E-01-1.38974E-04-1.27878E+00-7.93200E-15-2.14548E-14
 -1       789 2.04321E+01-1.90482E-01 9.20273E-05-1.24792E+00 2.96715E-13-1.78868E-13
 -1       790 2.02473E+01 8.84837E-02 3.87573E-04-1.15298E+00 1.32273E-13-3.71340E-13
 -1       791 2.01393E+01 2.93772E-01 1.25850E-04-1.01998E+00 7.17026E-14-6.74430E-13
 -1       792 1.79144E+01-3.21301E+00 4.98302E-02-5.28625E+00 1.17826E-13-2.76591E-13
 -1       793 1.92250E+01 8.96388E-01-2.72970E-04-7.04253E-01 4.20543E-14 8.00968E-13
 -1       794 2.00511E+01-1.78000E-02-7.98732E-06-2.04837E-01 4.26932E-14-3.87054E-14
 -1       795 2.00695E+01-1.51758E-03-5.34790E-06-1.95564E-01 6.45063E-14-4.85888E-14
 -1       796 2.00314E+01-2.20097E-03-3.66850E-06-2.12101E-01 9.98031E-14 6.43791E-15
 -1       797 2.00273E+01 2.33547E-02 1.56113E-06-2.21601E-01 1.74089E-13 2.29516E-14
 -1       798 2.00252E+01 5.87626E-02 7.75355E-06-2.40879E-01 1.32879E-13 1.51295E-13
 -1       799 2.00236E+01 1.03732E-01 1.57884E-05-2.73557E-01 7.18525E-14 7.13337E-14
 -1       800 2.00208E+01 1.58606E-01 2.59263E-05-3.22964E-01 2.40010E-15 1.64506E-13
 -1       801 2.00144E+01 2.24072E-01 3.88829E-05-3.92268E-01-4.28058E-14 6.98026E-14
 -1       802 2.00012E+01 3.00791E-01 5.50650E-05-4.84534E-01-8.17985E-14 6.14219E-15
 -1       803 1.99773E+01 3.88764E-01 7.50982E-05-6.02690E-01-1.06301E-13 9.27145E-14
 -1       804 1.99374E+01 4.86294E-01 9.97173E-05-7.49429E-01-9.57089E-15 1.75302E-13
 -1       805 1.98757E+01 5.88224E-01 1.30629E-04-9.27139E-01-5.89480E-14 4.62154E-13
 -1       806 1.97869E+01 6.83029E-01 1.70274E-04-1.13802E+00-7.97279E-14 6.05770E-13
 -1       807 1.96695E+01 7.48201E-01 2.18220E-04-1.38471E+00-9.18201E-14 7.23076E-13
 -1       808 1.95320E+01 7.43347E-01 3.00217E-04-1.67175E+00-6.53469E-14 6.71052E-13
 -1       809 1.94058E+01 6.00852E-01 4.69541E-04-2.00752E+00-3.95168E-14 5.69125E-13
 -1       810 1.93667E+01 2.16290E-01 5.74386E-04-2.40276E+00-1.19904E-13 2.94229E-13
 -1       811 1.95702E+01-5.60075E-01 2.91980E-03-2.87127E+00-1.07640E-13 1.31139E-13
 -1       812 2.03528E+01-1.86497E+00 1.47304E-02-3.30313E+00-1.23997E-13 4.58331E-14
 -1       813 2.02785E+01 9.43863E-01 2.50132E-04 5.54045E-01 1.53608E-13-6.13037E-14
 -1       814 2.05915E+01-2.35062E+00 2.36641E-03 3.54721E+00-2.72401E-13 5.50029E-14
 -1       815 2.38458E+01-4.27278E+00 3.60610E-02 2.93942E+00-4.14425E-13 1.30738E-14
 -1       816 1.94104E+01 1.02031E-02 1.84677E-03 2.63997E+00 2.46723E-14-2.77518E-13
 -1       817 1.94091E+01 4.85599E-01 4.70113E-04 2.24353E+00 1.01240E-13-4.00606E-13
 -1       818 1.95287E+01 6.96383E-01 2.35586E-04 1.90393E+00-1.21272E-13-1.25045E-13
 -1       819 1.96749E+01 7.62568E-01 2.48991E-04 1.60975E+00-4.64470E-14-3.13966E-13
 -1       820 1.98047E+01 7.65960E-01 1.20399E-04 1.34377E+00-8.38048E-14-5.98698E-13
 -1       821 1.98403E+01 7.78218E-01-1.41976E-05 1.18186E+00-9.27929E-14-7.57886E-13
 -1       822 2.01458E+01 1.89068E+00-3.02795E-04 1.99761E-01 6.24224E-14-2.08776E-13
 -1       823 2.02233E+01 4.16915E-01-7.97051E-05 1.10683E-01 8.34932E-14-1.97505E-14
 -1       824 1.90007E+01 1.06973E+00-2.23739E-04-3.57985E-01-2.04814E-14-7.45816E-14
 -1       825 1.98265E+01 4.93117E-01-1.05801E-04-1.02426E+00 1.76516E-14-1.73730E-13
 -1       826 2.25290E+01-4.33432E+00 1.16628E-02-3.66592E+00 1.48695E-13-9.46855E-15
 -1       827 1.13027E+01 1.83237E-01 8.47965E-02 2.81095E+00 6.03085E-14 2.65593E-13
 -1       828 2.62825E+01-1.60910E+00-3.42027E-02-1.26282E+00 8.44394E-14 8.36137E-14
 -1       829 1.95177E+01 6.92605E-01-2.44334E-04-9.28442E-01 1.00696E-13 4.91857E-13
 -1       830 2.51805E+01-3.80861E+00-8.80742E-03 1.23881E+00 2.29801E-13-1.97458E-13
 -1       831 1.97091E+01-8.81977E-01 8.31010E-03 3.09494E+00 1.83538E-14-4.98200E-14
 -1       832 2.59798E+01 2.06049E+00-6.55481E-02-2.25486E+00-6.43582E-15 2.72612E-14
 -1       833 2.54360E+01 2.57827E+00-7.32026E-02 2.09929E+00-1.00909E-13 1.55364E-13
 -1       834 2.00389E+01-1.67117E-02-7.41714E-06-2.08206E-01 8.34203E-14-4.77890E-14
 -1       835 2.58132E+01-3.16449E+00-1.52376E-02-1.16758E-01 1.43669E-13 2.41447E-13
 -1       836 2.01741E+01 2.29946E-01-1.73030E-06-3.49498E-02 1.06518E-13-3.31559E-14
 -1       837 2.02922E+01 7.31485E-01-7.67040E-05-2.91501E-01-8.45254E-14-1.21984E-13
 -1       838 1.11749E+01 1.97922E-01 8.31196E-02-2.54285E+00 3.22952E-13-5.35003E-13
 -1       839 2.16850E+01-4.13510E+00 1.01284E-02 4.00456E+00 1.99731E-13-3.65541E-13
 -1       840 2.25899E+01-4.15276E+00 5.30777E-02-3.58406E+00 6.69274E-14-1.19817E-14
 -1       841 1.41824E+01-1.48796E+00 7.36422E-02-4.82336E+00-2.17575E-13-8.32716E-13
 -1       842 1.55865E+01-1.67910E+00 6.31875E-02 4.68256E+00-1.26172E-13 4.90750E-13
 -1       843 2.61561E+01-9.30138E-02-4.54507E-02 1.92610E+00 5.77923E-15 3.75939E-13
 -1       844 1.26008E+01-7.40449E-01 1.01073E-01-3.95998E+00-1.37649E-13 1.44836E-13
 -1       845 2.01344E+01 1.92905E+00-3.22583E-04 3.03149E-03 3.58767E-14-2.33716E-13
 -1       846 2.02242E+01 1.58319E+00-1.97466E-04 5.35212E-01 1.49957E-13-1.35676E-13
 -1       847 1.41656E+01-4.91652E-02 4.67812E-02 3.17604E+00-9.06896E-14 2.00458E-13
 -1       848 1.92192E+01 1.06812E+00 3.09785E-04 9.13867E-01-2.59960E-14-5.48874E-13
 -1       849 2.00956E+01 3.82959E-02-2.28973E-06-1.72026E-01 8.01065E-15-5.63262E-14
 -1       850 1.43006E+01-6.59943E-01 4.43808E-02 3.93946E+00-1.31379E-13-1.34094E-15
 -1       851 2.01771E+01 1.77741E+00-3.13882E-04 3.81063E-01 1.08001E-13-1.68432E-13
 -1       852 1.89733E+01 1.17135E+00-1.36264E-04 5.19873E-01 1.67300E-13-8.60845E-13
 -1       853 1.89057E+01 1.16945E+00-1.99488E-04 7.08988E-02 4.26495E-14-1.07077E-13
 -1       854 1.90925E+01-2.94306E+00 3.23197E-02 4.46391E+00 2.38507E-14-2.82442E-13
 -1       855 2.01304E+01 1.10857E-01-4.74318E-06-1.23209E-01 1.03167E-13-3.44499E-14
 -1       856 2.02504E+01 6.40037E-01 1.68593E-04 2.96266E-01 1.24121E-13-6.96282E-14
 -1       857 1.14858E+01 8.08019E-01 6.45013E-02-4.13183E-01 2.34719E-13-2.58944E-13
 -1       858 2.01737E+01 1.78390E+00-5.43816E-04-3.75755E-01-3.33574E-14-2.05254E-13
 -1       859 2.02189E+01 1.59454E+00-7.67174E-04-5.29391E-01-7.63983E-14-1.67290E-13
 -1       860 1.35028E+01 5.48655E-01 3.08187E-02-2.29828E+00 5.80300E-14 9.13800E-14
 -1       861 2.31983E+01-3.53418E+00-2.81839E-03 2.06691E+00 5.31767E-14-2.24236E-13
 -1       862 2.03092E+01 2.41034E-01-2.17014E-05 5.29851E-02-5.64862E-14-1.00354E-13
 -1       863 2.02722E+01 1.12951E-01-5.54450E-06 1.13206E-01-5.17630E-14-1.95522E-14
 -1       864 2.02314E+01 3.63175E-02-4.86073E-06 1.47543E-01-1.74996E-14-7.86501E-14
 -1       865 2.01905E+01-2.43905E-03-3.72182E-06 1.65452E-01-4.10898E-14-1.29969E-13
 -1       866 2.01513E+01-1.31625E-02-2.30557E-06 1.74710E-01-3.56897E-15-1.20766E-13
 -1       867 2.01140E+01-2.88862E-03-1.73747E-06 1.81505E-01-2.61166E-14-1.27192E-13
 -1       868 2.00782E+01 2.33982E-02-1.84578E-06 1.90712E-01 1.37030E-15-1.32075E-13
 -1       869 2.00427E+01 6.21512E-02-1.64878E-06 2.06230E-01 1.51945E-14-8.46645E-14
 -1       870 2.00062E+01 1.10650E-01-1.10312E-06 2.31287E-01 1.31576E-14-1.56263E-13
 -1       871 1.99673E+01 1.66365E-01-6.80174E-07 2.68648E-01 7.54568E-15-1.00029E-13
 -1       872 1.99248E+01 2.26335E-01-4.66747E-07 3.20728E-01 2.21903E-14-8.84268E-14
 -1       873 1.98782E+01 2.86459E-01-6.18835E-07 3.89712E-01 3.02690E-14-7.75807E-14
 -1       874 1.98283E+01 3.40561E-01 4.04273E-07 4.77557E-01 4.95524E-14-1.41781E-16
 -1       875 1.97781E+01 3.79419E-01 2.12059E-06 5.85892E-01-1.21632E-14 7.37254E-14
 -1       876 1.97343E+01 3.89693E-01 4.96852E-06 7.15861E-01 1.23218E-14-2.09671E-14
 -1       877 1.97091E+01 3.52846E-01 9.41531E-06 8.67729E-01-2.11024E-14-4.75580E-14
 -1       878 1.97230E+01 2.44389E-01 1.98362E-05 1.03991E+00-1.55607E-15-9.67775E-14
 -1       879 1.98081E+01 3.41213E-02 4.43210E-05 1.22677E+00-1.39640E-13-2.31038E-13
 -1       880 2.00129E+01-3.11335E-01 7.09001E-05 1.41395E+00-1.18983E-13-6.29610E-14
 -1       881 2.04079E+01-8.20850E-01 1.86516E-05 1.56593E+00-8.66183E-14-2.75387E-14
 -1       882 2.10679E+01-1.48600E+00-5.44393E-04 1.61443E+00-5.57779E-15-6.35947E-14
 -1       883 2.20955E+01-2.25042E+00 3.23695E-03 1.44498E+00 5.14779E-14-2.50350E-13
 -1       884 2.02984E+01 1.15145E+00 6.86071E-04-3.86060E-01-6.88024E-14-1.28029E-13
 -1       885 2.46969E+01-2.76341E+00-1.11533E-02 5.28208E-03-6.74651E-14 5.96149E-13
 -1       886 2.31963E+01-2.74862E+00-2.83051E-03-1.04413E+00 9.97119E-14 1.62504E-13
 -1       887 2.19537E+01-2.20034E+00-3.29844E-04-1.56517E+00 4.47294E-14 9.38540E-14
 -1       888 2.10171E+01-1.43023E+00-3.51539E-04-1.72611E+00-5.43975E-14-6.68245E-14
 -1       889 2.04286E+01-7.78041E-01 4.79722E-04-1.66591E+00 2.98700E-14 7.16294E-14
 -1       890 2.00951E+01-2.79638E-01 2.05343E-05-1.51595E+00-4.77292E-14 2.29440E-13
 -1       891 1.99365E+01 8.21623E-02 4.50354E-04-1.33149E+00-3.10027E-14-8.50498E-14
 -1       892 1.98527E+01 3.10802E-01 1.61832E-04-1.18113E+00-1.66461E-13-2.44777E-13
 -1       893 1.40787E+01-1.97422E-01 3.62657E-02-3.29061E+00-5.36628E-14-4.89506E-13
 -1       894 2.01441E+01 1.89377E+00-3.84535E-04-1.92620E-01 2.19806E-14-1.89498E-13
 -1       895 2.00427E+01 5.65297E-02 2.64137E-06-2.16467E-01 1.08742E-13 5.29466E-14
 -1       896 2.00703E+01 1.81143E-02 2.66970E-06-2.01940E-01 1.21101E-13-1.44841E-15
 -1       897 1.99790E+01 1.70890E-01 2.06038E-06-2.78062E-01-3.35994E-14 5.05793E-14
 -1       898 1.99361E+01 2.46900E-01 3.57885E-06-3.30705E-01-8.77697E-15 1.03313E-13
 -1       899 1.98799E+01 3.36121E-01 6.97451E-06-4.01002E-01-1.27676E-14 9.03073E-14
 -1       900 1.98040E+01 4.38798E-01 1.18444E-05-4.90873E-01-1.18793E-13 5.91625E-14
 -1       901 1.97006E+01 5.54047E-01 1.74321E-05-6.01938E-01-1.54814E-13 1.88983E-13
 -1       902 1.95601E+01 6.78656E-01 2.68825E-05-7.35693E-01-1.60521E-13 2.42720E-13
 -1       903 1.93714E+01 8.05169E-01 4.49125E-05-8.94121E-01-7.71860E-14 1.74702E-13
 -1       904 1.91226E+01 9.19004E-01 8.26098E-05-1.08120E+00-1.77517E-13 2.79540E-13
 -1       905 1.88028E+01 9.94195E-01 1.47650E-04-1.30622E+00-1.06085E-13 2.23648E-13
 -1       906 1.84067E+01 9.87023E-01 4.02014E-04-1.58969E+00-4.82016E-14 2.13914E-13
 -1       907 1.79412E+01 8.26960E-01 7.02056E-04-1.97709E+00 6.85118E-14 2.05970E-13
 -1       908 1.74874E+01 3.97393E-01 5.11003E-04-2.53596E+00 5.15141E-14 8.71048E-14
 -1       909 1.71544E+01-4.42447E-01 2.81378E-02-3.38392E+00-4.14226E-14-1.07281E-13
 -1       910 1.72253E+01-1.74651E+00 2.57861E-02-4.23440E+00-1.55470E-13-5.41336E-13
 -1       911 1.88343E+01 9.87335E-01-6.47858E-04 1.50789E+00-8.06150E-14-1.34165E-13
 -1       912 1.79112E+01 6.83490E-01-2.48980E-04 2.21430E+00 8.73132E-14 3.39578E-14
 -1       913 1.92037E+01 9.78004E-01 4.19630E-04 1.27320E+00 1.06617E-13-1.29126E-13
 -1       914 1.87748E+01 9.18498E-01-3.35536E-04-7.22365E-01 2.57433E-13 3.83388E-13
 -1       915 2.03402E+01 7.25857E-01-5.69679E-04-1.89707E-01-6.07436E-14-1.16007E-13
 -1       916 1.26797E+01 9.74490E-01 2.94588E-02 1.01155E+00 7.85404E-14-7.31065E-14
 -1       917 2.05987E+01-3.10469E+00 6.12847E-03-3.69452E+00-8.21613E-14 3.12883E-13
 -1       918 1.84049E+01 9.14760E-01-6.97702E-04 1.80692E+00-2.26273E-13 1.56741E-13
 -1       919 1.95224E+01 9.35679E-01 1.16154E-05 1.09375E+00-1.61570E-14-1.23701E-13
 -1       920 2.03055E+01 4.35886E-01-8.73426E-05 6.17033E-02 1.06427E-13-1.19075E-13
 -1       921 2.00132E+01 1.07540E-01 2.07203E-06-2.40847E-01 9.02216E-14 3.04359E-14
 -1       922 2.01614E+01-2.22164E-03 5.07232E-06-1.77981E-01 3.46398E-14-4.27978E-14
 -1       923 1.74213E+01 1.52184E-01 3.10899E-03 2.81933E+00 1.31044E-13 1.08848E-13
 -1       924 1.73347E+01-6.77618E-01 2.00247E-02 3.55156E+00 4.85814E-14 4.54049E-13
 -1       925 2.49152E+01-2.50131E+00 1.05036E-02-3.48376E-01 9.85713E-14-1.11238E-13
 -1       926 2.03355E+01 4.38941E-01 1.43898E-06-4.35159E-02-5.20818E-14-9.95925E-14
 -1       927 2.03045E+01 1.00811E+00 2.82518E-04 3.67147E-01 1.12377E-13-1.02024E-13
 -1       928 2.13799E+01-3.06831E+00 1.19895E-02 3.04911E+00-4.44913E-14-3.67963E-13
 -1       929 1.40080E+01 1.17676E+00 1.13745E-02-7.62635E-01 3.12695E-14 1.11978E-13
 -1       930 1.94380E+01 5.27487E-01-7.40093E-05-1.12626E+00-1.19846E-14 1.90637E-13
 -1       931 2.02951E+01 1.33981E+00 3.85787E-04-1.94813E-01-1.29128E-14-1.49903E-13
 -1       932 1.72714E+01-1.53249E+00 1.84467E-02 3.99862E+00-1.59538E-13-2.23732E-13
 -1       933 2.01977E+01 3.73215E-02 1.25930E-05-1.58083E-01 1.05371E-14-5.74547E-14
 -1       934 2.01284E+01-1.46739E-02-5.64672E-07-1.87590E-01 8.40027E-14 1.81073E-14
 -1       935 2.00984E+01-6.47140E-03 1.55043E-06-1.93758E-01 5.79506E-14-3.02335E-14
 -1       936 2.03189E+01 7.27275E-01-2.90098E-04 2.30521E-01 8.53144E-14-9.54564E-14
 -1       937 1.42081E+01 5.11330E-01 2.05872E-02 2.32285E+00-1.01692E-13 9.58999E-15
 -1       938 1.85153E+01 1.11562E+00-3.18871E-04-2.62196E-01 2.10496E-13-2.62011E-13
 -1       939 2.02942E+01 1.33980E+00 8.25865E-05 1.99760E-01 7.62843E-14-1.61669E-13
 -1       940 2.02743E+01 2.40111E-01-7.94794E-05-5.00537E-02 9.16619E-14-8.13551E-14
 -1       941 2.02820E+01 1.41114E+00 3.98019E-05 6.84471E-02 6.11618E-14-2.09038E-13
 -1       942 2.29835E+01-3.42945E+00 5.78914E-03-2.14751E+00-1.15683E-13 4.12185E-13
 -1       943 2.02921E+01 8.19562E-01-2.41878E-04 3.40761E-01 1.28590E-13-9.09575E-14
 -1       944 1.33809E+01 6.69183E-01 3.17534E-02-1.77650E+00-6.37728E-16-4.58253E-13
 -1       945 1.33701E+01 8.57243E-01 2.99741E-02 1.43800E+00 2.66607E-13-3.01868E-13
 -1       946 1.87330E+01 1.15728E+00 7.11019E-05 8.67784E-01-6.11996E-14-9.08688E-13
 -1       947 1.90927E+01 7.21915E-01-2.67284E-04-9.75824E-01 3.23982E-13 7.35865E-13
 -1       948 2.02971E+01 1.27142E+00 9.60930E-04-2.97856E-01-4.73369E-14-1.56271E-13
 -1       949 2.03252E+01 9.71574E-02-2.54186E-06 9.64232E-02-2.63688E-14-5.26025E-14
 -1       950 2.02792E+01 2.79741E-02-2.00058E-06 1.19063E-01-3.04069E-15 9.28204E-15
 -1       951 2.02296E+01-2.65444E-03-1.80853E-06 1.31584E-01-3.85613E-14 8.82395E-15
 -1       952 2.01788E+01-4.19314E-03-7.04303E-07 1.39484E-01-1.24063E-15-5.11867E-15
 -1       953 2.01273E+01 1.64355E-02-2.20821E-06 1.47250E-01-3.88354E-14 4.63708E-18
 -1       954 2.00746E+01 5.43085E-02-4.05283E-06 1.58510E-01 1.36333E-14-2.24641E-14
 -1       955 2.00191E+01 1.05896E-01-4.68774E-06 1.76374E-01-4.70830E-17-5.13570E-14
 -1       956 1.99589E+01 1.68392E-01-4.01857E-06 2.03646E-01-2.45373E-14-7.80909E-14
 -1       957 1.98916E+01 2.38894E-01-9.66946E-06 2.43005E-01-3.88190E-14-1.57229E-13
 -1       958 1.98153E+01 3.14036E-01-1.76583E-05 2.97160E-01-1.86511E-14-3.02661E-13
 -1       959 1.97284E+01 3.88868E-01-2.36350E-05 3.69250E-01 1.24120E-13-2.74123E-13
 -1       960 1.96309E+01 4.55928E-01-2.97526E-05 4.62836E-01 1.01234E-13-1.81876E-13
 -1       961 1.95252E+01 5.04286E-01-3.75022E-05 5.82249E-01 5.92213E-15-5.44732E-14
 -1       962 1.94173E+01 5.18260E-01-4.82773E-05 7.32883E-01-8.69137E-15-7.59498E-14
 -1       963 1.93198E+01 4.76080E-01-6.43904E-05 9.21318E-01-1.57206E-14-1.00853E-13
 -1       964 1.92546E+01 3.48567E-01-6.54797E-05 1.15495E+00-1.09291E-13-2.77530E-14
 -1       965 1.92592E+01 9.81395E-02 6.94479E-05 1.43993E+00-9.20199E-14-6.63192E-14
 -1       966 1.93916E+01-3.19194E-01 3.30977E-04 1.77685E+00-5.36589E-15-8.20796E-14
 -1       967 1.97658E+01-9.67524E-01-2.91222E-03 2.14497E+00-1.60095E-13-1.68585E-13
 -1       968 2.04841E+01-1.83816E+00 1.54055E-02 2.48490E+00-5.32747E-14-2.86111E-13
 -1       969 2.04278E+01-1.75548E+00 6.83684E-03-2.52255E+00-1.44550E-13 1.44701E-13
 -1       970 1.98025E+01-9.13728E-01-1.09612E-03-2.18784E+00 1.75074E-14 3.95036E-14
 -1       971 1.95243E+01-2.99376E-01-1.82347E-03-1.81982E+00-1.37315E-14-3.59737E-14
 -1       972 1.94576E+01 1.28260E-01-4.02506E-04-1.49597E+00-2.03455E-13-1.32941E-13
 -1       973 1.94159E+01 3.47456E-01-1.65752E-03-1.30810E+00-1.22734E-13 4.67407E-14
 -1       974 2.03673E+01 6.99189E-01-3.10540E-04 1.38898E-01 8.90964E-14-1.09211E-13
 -1       975 1.98197E+01 3.43583E-01-7.43320E-06-2.97840E-01 3.56968E-14 1.81562E-14
 -1       976 1.99033E+01 2.48026E-01-5.33436E-06-2.51058E-01 4.10189E-14 6.96021E-14
 -1       977 1.95739E+01 5.77580E-01-1.08512E-05-4.29044E-01-1.48656E-13 1.34998E-13
 -1       978 1.93917E+01 7.13358E-01-1.41600E-05-5.13286E-01-1.06206E-13 7.31070E-15
 -1       979 1.91525E+01 8.56342E-01-1.42513E-05-6.09400E-01-1.53461E-13 5.76575E-14
 -1       980 1.88388E+01 9.97781E-01 6.94351E-07-7.18029E-01-1.55531E-13 1.69416E-14
 -1       981 1.84288E+01 1.12287E+00 6.12852E-05-8.43190E-01-1.76243E-13-1.53955E-13
 -1       982 1.78934E+01 1.20848E+00 1.00716E-04-9.97805E-01-1.08411E-13-4.60164E-15
 -1       983 1.71949E+01 1.21749E+00 3.40806E-04-1.20973E+00-4.52013E-14-6.39210E-14
 -1       984 1.63252E+01 1.10715E+00 1.00197E-03-1.54663E+00 2.31342E-14-2.43998E-14
 -1       985 1.53925E+01 5.15866E-01 1.47849E-02 2.46486E+00 4.64918E-13-3.62492E-14
 -1       986 2.02363E+01 1.13655E-01-5.34312E-06-1.19145E-01 4.58796E-14-8.34316E-14
 -1       987 2.03080E+01 1.20795E+00 1.14961E-03 3.06123E-01 8.92681E-14-1.23753E-13
 -1       988 1.84720E+01 1.20704E+00-5.46227E-04 2.84496E-01-2.64151E-14-3.74451E-13
 -1       989 1.64767E+01-4.66362E-01 1.10557E-02-3.14398E+00-6.39957E-14-6.84702E-13
 -1       990 2.02841E+01 1.40983E+00 3.66251E-04-6.80921E-02 3.87407E-14-1.87177E-13
 -1       991 2.03844E+01 6.75029E-01-3.72242E-04-1.00210E-01-2.53190E-14-8.50129E-14
 -1       992 1.65312E+01 9.32469E-01 3.95477E-04 1.82952E+00 2.02282E-13-5.53469E-14
 -1       993 1.87111E+01-1.31211E+00 6.37293E-03-3.16379E+00-6.19539E-14 1.42985E-13
 -1       994 1.97129E+01 4.53636E-01-6.84501E-06-3.57110E-01-1.40189E-13 8.39074E-14
 -1       995 2.00771E+01 4.75947E-02 5.74612E-06-1.75116E-01 8.66170E-14 4.65960E-14
 -1       996 2.03631E+01 2.17654E-01-1.70513E-05 5.70092E-02-3.60928E-14-5.53694E-14
 -1       997 2.03850E+01 4.06991E-01 3.69510E-05-6.09681E-03-3.77849E-14-2.17081E-14
 -1       998 1.61933E+01-2.16921E-01 9.34321E-03 2.99128E+00-1.57031E-13-1.53312E-13
 -1       999 2.03667E+01 4.21777E-01 1.06480E-04 1.93659E-02 6.89733E-14-1.06758E-13
 -1      1000 2.02608E+01 3.12107E-02 4.07538E-05-1.34242E-01-1.16957E-15-4.50161E-14
 -1      1001 2.01240E+01 1.10508E-02-3.75620E-06-1.64934E-01 5.07809E-14 2.32210E-14
 -1      1002 1.99705E+01 1.66794E-01-2.39514E-06-2.15990E-01 7.47377E-15 1.50707E-13
 -1      1003 2.02155E+01-2.50064E-03 4.80685E-06-1.49161E-01 1.81018E-14-4.52954E-14
 -1      1004 1.47153E+01 1.17815E+00 1.31190E-02 7.64767E-01-1.53887E-13-2.74114E-14
 -1      1005 1.81785E+01 9.73534E-01-2.85874E-04-7.14761E-01 4.28566E-13-1.97126E-14
 -1      1006 2.03744E+01 9.79392E-01 8.42491E-05 7.91589E-02 7.13242E-14-1.88240E-13
 -1      1007 1.54977E+01 3.75073E-01 1.27754E-02-2.27514E+00-1.76171E-14-4.04315E-13
 -1      1008 1.74324E+01 1.11067E+00-3.20551E-04 1.46216E+00 1.23036E-14-9.15999E-14
 -1      1009 2.04033E+01 7.67202E-01 3.00618E-05-6.83042E-02-2.28112E-15-6.26235E-14
 -1      1010 1.81345E+01 1.15427E+00-8.01947E-04 1.22530E+00 3.74017E-14-6.48561E-13
 -1      1011 1.39520E+01 1.12373E+00 1.70802E-02-1.60769E-02 6.44017E-14-2.00045E-13
 -1      1012 2.00270E+01 9.98947E-02 6.05490E-06-1.91324E-01 6.15447E-14 1.24268E-13
 -1      1013 1.85873E+01 7.31821E-01 1.80967E-03-1.07372E+00 2.25992E-13 4.71908E-13
 -1      1014 1.90016E+01-1.91077E+00 1.28449E-02 3.51295E+00-1.10222E-13-2.69192E-13
 -1      1015 1.98098E+01 3.26563E-01-4.25518E-05-1.89483E-01 1.42586E-14 1.54513E-13
 -1      1016 2.04169E+01 3.49096E-01-1.49505E-06 1.30080E-02-3.85015E-14-2.13041E-14
 -1      1017 2.02970E+01 1.78492E-02-2.51707E-05 8.05466E-02 8.70662E-15-1.49949E-14
 -1      1018 2.02395E+01-4.95276E-04-9.15031E-06 8.78844E-02-4.71855E-14-1.82133E-14
 -1      1019 2.01790E+01 9.74806E-03-3.07743E-07 9.37466E-02-2.77494E-14-6.89535E-14
 -1      1020 2.01157E+01 4.20555E-02-1.61985E-05 1.00882E-01 8.88071E-15 1.59364E-15
 -1      1021 2.00483E+01 9.22117E-02-2.48944E-05 1.11767E-01-1.74753E-15-8.23587E-14
 -1      1022 1.99749E+01 1.56763E-01-1.74901E-05 1.28660E-01-7.38261E-14-1.09962E-13
 -1      1023 1.98923E+01 2.33378E-01 2.70676E-06 1.54032E-01-1.44104E-13-2.29286E-13
 -1      1024 1.97977E+01 3.18346E-01-4.34585E-05 1.90232E-01-1.06126E-13-1.81113E-13
 -1      1025 1.96870E+01 4.09156E-01-7.28947E-05 2.40932E-01 4.66533E-14-1.01995E-13
 -1      1026 1.95579E+01 4.99762E-01-8.15946E-05 3.10072E-01 1.98691E-13-1.74092E-13
 -1      1027 1.94080E+01 5.82399E-01-1.00231E-04 4.03182E-01 1.57078E-13-1.46051E-13
 -1      1028 1.92370E+01 6.45435E-01-1.29506E-04 5.27849E-01 4.16340E-14-1.24169E-13
 -1      1029 1.90475E+01 6.72311E-01-1.90838E-04 6.94467E-01-6.17360E-14-9.76899E-14
 -1      1030 1.88472E+01 6.39981E-01-3.30746E-04 9.17254E-01-7.74300E-14-1.27542E-13
 -1      1031 1.86517E+01 5.17083E-01-5.59209E-04 1.21521E+00-6.46886E-14-1.04411E-13
 -1      1032 1.84934E+01 2.58682E-01-9.17264E-04 1.61364E+00-1.06110E-13-3.63325E-14
 -1      1033 1.84561E+01-1.93862E-01 2.31664E-03 2.14016E+00-1.34299E-13-1.75839E-13
 -1      1034 1.85091E+01-4.69680E-01 1.13813E-04-2.44927E+00-9.13598E-14 1.22697E-13
 -1      1035 1.85989E+01 8.95007E-02 6.94641E-04-1.85245E+00-6.51623E-14 9.54528E-14
 -1      1036 1.79260E+01 1.18941E+00-4.40440E-04-9.64442E-02 4.56842E-13-3.91530E-14
 -1      1037 2.01697E+01-7.06264E-03-1.22233E-06-1.57633E-01 5.57468E-14 2.33355E-14
 -1      1038 1.78539E+01 1.25477E+00 5.43278E-04 5.61334E-01 3.79551E-13-4.19636E-13
 -1      1039 1.90937E+01 8.42117E-01-1.15022E-04-3.31768E-01-1.38844E-13 6.13195E-14
 -1      1040 1.93432E+01 6.97775E-01-8.79030E-05-2.94262E-01-1.10726E-13 9.76697E-17
 -1      1041 1.83530E+01 1.12785E+00-1.57423E-04-3.89970E-01-4.29445E-14-8.19969E-14
 -1      1042 1.78076E+01 1.24514E+00 2.09470E-04-4.05214E-01-1.98305E-13-1.64081E-13
 -1      1043 1.70810E+01 1.33159E+00 1.19134E-03-4.17436E-01-1.13274E-13-1.36399E-13
 -1      1044 1.61018E+01 1.35249E+00-1.34286E-03-4.45205E-01-4.64756E-14-1.46049E-13
 -1      1045 2.04195E+01 5.33484E-01-1.03822E-04-2.25222E-02-9.49058E-18-6.21578E-14
 -1      1046 1.76817E+01-7.45642E-01 3.10660E-03 3.03248E+00-8.18765E-14-2.11586E-13
 -1      1047 1.57145E+01 7.49841E-01 5.14781E-03 1.72995E+00-1.66751E-13-1.13969E-13
 -1      1048 2.04253E+01 6.21519E-01-1.06315E-04 3.04506E-02 5.95185E-14-1.71935E-13
 -1      1049 2.03049E+01 1.03305E-01 2.92714E-05-1.06906E-01-1.33052E-15-4.12528E-14
 -1      1050 2.03493E+01 7.36317E-02-2.61041E-05 6.82813E-02-1.51208E-14-2.43729E-14
 -1      1051 1.87715E+01 9.88615E-01-1.40110E-04-3.64767E-01-1.03260E-13 5.20949E-15
 -1      1052 1.95372E+01 5.61645E-01-6.53297E-05-2.56091E-01-1.10293E-13 3.90840E-14
 -1      1053 2.03431E+01 2.28477E-01 1.19231E-04-5.83986E-02 7.99024E-14-8.28885E-14
 -1      1054 2.03768E+01 1.00217E+00-5.44747E-04 3.19634E-03 6.55318E-14-1.94237E-13
 -1      1055 1.52228E+01 1.15100E+00 6.05277E-03 1.03414E+00 2.57984E-13 1.31908E-13
 -1      1056 1.96893E+01 4.37301E-01-4.20146E-05-2.20430E-01-4.30326E-14 1.81194E-13
 -1      1057 2.03916E+01 1.78937E-01-5.46399E-06 4.73487E-02-4.56705E-14 7.51750E-16
 -1      1058 1.90143E+01 5.28677E-01-1.33468E-04-1.23954E+00-3.66732E-14 3.52621E-13
 -1      1059 2.00583E+01 8.37500E-02 5.14738E-06-1.31649E-01 2.63511E-14 1.48127E-13
 -1      1060 1.99071E+01 2.30544E-01-1.79745E-05-1.64227E-01 5.98759E-14 1.33893E-13
 -1      1061 2.01218E+01 3.47506E-02-7.23734E-05-1.22633E-01 2.37338E-14 1.04959E-13
 -1      1062 1.79562E+01 7.12334E-01 8.38341E-04-1.25858E+00 1.76909E-13-1.22125E-13
 -1      1063 1.62470E+01 1.26215E+00 3.29103E-04 4.32542E-01-1.76426E-13-1.30974E-13
 -1      1064 2.02920E+01 2.16478E-02 1.55838E-05-1.00472E-01 9.12079E-15-1.00213E-13
 -1      1065 1.73877E+01 1.07795E+00 3.12797E-04-6.03289E-01 2.46997E-13-2.78742E-13
 -1      1066 1.70017E+01 1.27347E+00-5.54672E-04 5.98542E-01 3.03897E-13-2.24580E-13
 -1      1067 2.03404E+01 8.35825E-02 2.31910E-05-8.22979E-02 3.03301E-14-9.38720E-14
 -1      1068 1.71231E+01 4.79696E-02 6.66100E-03-2.38365E+00-1.36561E-14-6.56827E-13
 -1      1069 1.52650E+01 1.01815E+00 5.40343E-03-9.57834E-01 2.35246E-13-2.63630E-13
 -1      1070 1.99882E+01 1.49300E-01-3.12259E-06-1.45202E-01 5.33676E-14 1.31362E-13
 -1      1071 1.62024E+01 1.24794E+00 1.24681E-03 7.60610E-01 4.14964E-13-3.01933E-14
 -1      1072 2.02257E+01 5.60245E-03 2.85633E-06 3.60716E-02-6.79371E-14 7.30160E-15
 -1      1073 2.01585E+01 2.80615E-02 6.93881E-05 3.91632E-02-5.70265E-14-5.59584E-14
 -1      1074 2.00859E+01 7.30067E-02 4.75325E-05 4.39915E-02-1.11869E-13-1.79071E-13
 -1      1075 2.00068E+01 1.35044E-01 1.74965E-05 5.16570E-02-1.18589E-13-2.67086E-13
 -1      1076 1.99188E+01 2.11571E-01 6.31131E-05 6.34067E-02-1.06552E-13-2.27427E-13
 -1      1077 1.98172E+01 3.00930E-01 2.63197E-04 8.25868E-02 2.75909E-14-4.76859E-15
 -1      1078 1.96949E+01 4.01472E-01 1.26527E-04 1.10532E-01 5.15590E-14 1.52511E-13
 -1      1079 1.95508E+01 5.07580E-01 1.19683E-04 1.50750E-01 6.79769E-14 1.56396E-13
 -1      1080 1.93777E+01 6.15400E-01 1.72391E-04 2.09142E-01 1.38926E-13 3.48659E-14
 -1      1081 1.91702E+01 7.17077E-01 2.42292E-04 2.92912E-01 7.21192E-14-1.12265E-13
 -1      1082 1.89229E+01 8.01512E-01 3.13812E-04 4.12394E-01 1.07389E-14-1.18885E-13
 -1      1083 1.86306E+01 8.53123E-01 2.96240E-04 5.82157E-01-7.84656E-14-4.45350E-14
 -1      1084 1.82895E+01 8.49210E-01-2.15989E-04 8.23010E-01-8.74897E-14 6.73188E-14
 -1      1085 1.79080E+01 7.63419E-01 1.71099E-03 1.15636E+00-1.32470E-13-1.08559E-14
 -1      1086 1.74730E+01 5.43615E-01-1.09365E-03 1.62177E+00-1.01705E-13-8.16139E-14
 -1      1087 2.02377E+01-8.30346E-04 2.33088E-05-1.09595E-01-3.19493E-14-5.49107E-14
 -1      1088 1.84792E+01 1.04234E+00-3.74751E-04-6.22820E-03-3.25749E-14-1.11822E-13
 -1      1089 1.55827E+01 1.21599E+00 1.95970E-03-1.07614E-02 2.18003E-13-1.75258E-13
 -1      1090 1.97142E+01 3.97290E-01-2.87181E-05-9.22201E-02 3.52772E-14 3.34875E-13
 -1      1091 1.91454E+01 7.79945E-01-1.85169E-04-8.82882E-02-1.17549E-13 1.23008E-13
 -1      1092 1.73786E+01 1.22723E+00-1.27424E-03 2.31273E-01-1.40532E-13-1.87136E-13
 -1      1093 1.80019E+01 1.15142E+00-2.08801E-04 8.87282E-02-1.16849E-14-1.42932E-13
 -1      1094 1.67042E+01 3.36203E-01 3.27469E-03 2.14054E+00-1.91320E-13-4.73959E-14
 -1      1095 2.04325E+01 3.60013E-01-3.29113E-04-8.47230E-03-6.50767E-15-1.47142E-13
 -1      1096 1.93784E+01 6.44975E-01-1.24473E-04-9.84573E-02-4.37103E-14 2.05893E-13
 -1      1097 1.65168E+01 7.42921E-01 2.24549E-03-1.49032E+00 3.11601E-13-3.74349E-13
 -1      1098 2.04323E+01 6.20946E-01 2.34449E-05-7.30582E-03 1.47828E-14-1.45040E-13
 -1      1099 2.02896E+01 1.00340E-02 2.32246E-05 3.31692E-02-1.34615E-15-8.07631E-15
 -1      1100 2.03967E+01 1.31523E-01-8.32556E-05 2.25308E-02-4.06227E-14 1.78224E-14
 -1      1101 2.04286E+01 2.75876E-01-1.08421E-05 1.17425E-02-2.53688E-16-5.19317E-14
 -1      1102 2.03485E+01 4.88627E-02 1.23283E-04 2.92877E-02-9.88341E-15 1.53155E-14
 -1      1103 1.88517E+01 9.15230E-01-2.74016E-04-6.07721E-02-2.72740E-14-3.76709E-14
 -1      1104 1.70705E+01 1.23539E+00-5.56967E-04-4.24984E-02 2.97082E-13 5.91867E-14
 -1      1105 1.95642E+01 5.16324E-01-8.75387E-05-9.83782E-02 1.10417E-14 2.65407E-13
 -1      1106 1.76218E+01 3.76998E-01 7.34203E-04-1.82171E+00 2.68385E-14-3.54758E-13
 -1      1107 2.00987E+01 6.30741E-02 1.20816E-05-6.69903E-02-1.63697E-14 2.70730E-14
 -1      1108 2.00223E+01 1.23366E-01-2.86498E-06-7.19161E-02-3.16451E-14 2.20091E-13
 -1      1109 2.01812E+01 5.64130E-03-5.05011E-06-1.16125E-01 9.95215E-15 1.85492E-14
 -1      1110 2.03525E+01 5.62596E-02 7.97653E-06-4.92985E-02 3.64437E-14-1.86236E-13
 -1      1111 1.98376E+01 2.90926E-01 2.49122E-04-8.56108E-02-1.86064E-15 3.16190E-13
 -1      1112 2.03967E+01 1.91964E-01-1.42635E-04-4.56393E-02 1.19518E-14-1.11504E-13
 -1      1113 1.69356E+01 9.60838E-01 1.39607E-03-9.88877E-01 1.05646E-13-3.34382E-13
 -1      1114 2.02963E+01 1.27735E-02-9.26118E-06-5.63579E-02-5.49921E-14-1.23142E-13
 -1      1115 1.71743E+01 9.66549E-01-5.32974E-03 1.00506E+00-2.09547E-13 1.07360E-13
 -1      1116 2.01944E+01 1.50035E-02-6.02256E-06-2.21774E-02-8.04174E-14-8.85042E-14
 -1      1117 1.98612E+01 2.63234E-01-5.27657E-04-1.95195E-02 8.94739E-15 3.13400E-13
 -1      1118 1.69520E+01 8.06576E-01 9.59204E-04 1.36667E+00-1.67209E-13-3.13317E-14
 -1      1119 2.04365E+01 4.47261E-01-2.26814E-04-2.64092E-03-1.43210E-15-8.21027E-14
 -1      1120 1.62305E+01 1.11516E+00 3.93776E-05-6.04586E-01 2.43399E-13-3.11303E-13
 -1      1121 2.02488E+01 3.76244E-03-1.38697E-05-4.12571E-02-9.16386E-14-1.47113E-13
 -1      1122 2.04182E+01 1.95869E-01-4.32264E-05-1.15846E-02 2.02482E-14-1.89540E-13
 -1      1123 1.99359E+01 2.00206E-01 2.82582E-05-7.84929E-02 9.19075E-14 3.28326E-13
 -1      1124 1.64094E+01 1.23697E+00 2.85416E-03-3.76385E-02 3.15112E-13-2.21223E-14
 -1      1125 2.04373E+01 3.53654E-01 8.19986E-04-1.33773E-03 1.02146E-14-1.67298E-13
 -1      1126 2.79577E+01 9.08490E+00 2.32506E+00-6.69827E+00-3.17524E-14 8.35221E-13
 -1      1127 2.05429E+01 6.22573E+00 2.09467E-01-3.90523E+00-1.66811E-14 3.31540E-14
 -1      1128 1.94315E+01 5.85199E+00 7.50617E-02-2.88994E+00-1.06581E-14-2.94010E-13
 -1      1129 1.90252E+01 5.72568E+00 6.03628E-02-2.23742E+00-6.09929E-15-4.41209E-13
 -1      1130 1.88411E+01 5.66971E+00 5.78838E-02-1.70342E+00-4.77743E-15-4.96781E-13
 -1      1131 1.87485E+01 5.64125E+00 5.56621E-02-1.23580E+00-1.28370E-15-5.09503E-13
 -1      1132 1.87007E+01 5.62638E+00 5.38981E-02-8.05539E-01-5.46438E-16-5.09084E-13
 -1      1133 1.86774E+01 5.61902E+00 5.26654E-02-3.93470E-01 9.67542E-16-4.94666E-13
 -1      1134 1.86708E+01 5.61692E+00 5.22719E-02 8.46921E-03 1.73570E-15-4.83591E-13
 -1      1135 1.86785E+01 5.61938E+00 5.27805E-02 4.10818E-01 3.55944E-15-4.63911E-13
 -1      1136 1.87029E+01 5.62712E+00 5.41570E-02 8.24238E-01 4.55538E-15-4.35916E-13
 -1      1137 1.87524E+01 5.64263E+00 5.63418E-02 1.25715E+00 6.60322E-15-3.84026E-13
 -1      1138 1.88461E+01 5.67139E+00 5.85149E-02 1.72930E+00 7.19043E-15-3.00890E-13
 -1      1139 1.90307E+01 5.72734E+00 6.04080E-02 2.27049E+00 9.91915E-15-1.78239E-13
 -1      1140 1.94284E+01 5.84927E+00 6.91367E-02 2.93048E+00 1.36974E-14 3.93921E-14
 -1      1141 2.04492E+01 6.18069E+00 1.53087E-01 3.87993E+00 1.31839E-14 4.51965E-13
 -1      1142 2.52119E+01 7.99265E+00 1.43014E+00 5.84672E+00 2.37033E-14 1.24431E-12
 -1      1143 2.88069E+01 3.61610E+00 1.27144E+00-4.21708E+00-1.26815E-13 1.33366E-12
 -1      1144 2.02202E+01-1.77660E-01-6.16207E-01-1.10116E-01-3.70468E-14 1.05155E-12
 -1      1145 1.88240E+01-9.63826E-02-2.36372E-01 6.24556E-02-1.52569E-14 6.26346E-13
 -1      1146 1.84885E+01-4.80581E-02-5.95613E-02 4.04613E-02-4.53023E-15 3.54328E-13
 -1      1147 1.84318E+01-2.46244E-02-1.51597E-02 2.67103E-02-2.15192E-15 1.57561E-13
 -1      1148 1.85118E+01-1.30892E-02-4.97549E-03 1.89580E-02-1.94224E-15 8.39086E-14
 -1      1149 1.86570E+01-6.67865E-03-1.51365E-03 1.39879E-02-6.59780E-15-1.80776E-14
 -1      1150 1.88282E+01-2.96571E-03 4.67673E-04 1.05299E-02-3.56703E-17-1.17472E-13
 -1      1151 1.90033E+01-8.14313E-04 1.69951E-03 7.96364E-03-5.93439E-15-1.90632E-13
 -1      1152 1.91701E+01 3.65034E-04 2.31894E-03 5.98443E-03-3.71799E-15-2.76312E-13
 -1      1153 1.93227E+01 9.05214E-04 2.44970E-03 4.43348E-03 2.48350E-16-3.38825E-13
 -1      1154 1.94594E+01 1.00676E-03 2.21246E-03 3.22099E-03 4.11642E-15-3.58403E-13
 -1      1155 1.95815E+01 7.95799E-04 1.70050E-03 2.29264E-03 1.14463E-15-4.29423E-13
 -1      1156 1.96923E+01 3.53836E-04 9.76683E-04 1.61584E-03-4.81929E-15-3.53199E-13
 -1      1157 1.97968E+01-2.64738E-04 8.07411E-05 1.17441E-03-3.63439E-15-1.94625E-13
 -1      1158 1.99012E+01-1.02000E-03-9.60808E-04 9.66623E-04-9.86974E-15-2.84387E-13
 -1      1159 2.00127E+01-1.87511E-03-2.12304E-03 1.00441E-03 3.30980E-16-3.89925E-13
 -1      1160 2.01395E+01-2.78404E-03-3.36817E-03 1.31207E-03-3.36482E-16-3.62950E-13
 -1      1161 2.02903E+01-3.67682E-03-4.62620E-03 1.92278E-03-4.74870E-15-4.54711E-13
 -1      1162 2.04738E+01-4.44144E-03-5.76858E-03 2.87054E-03-1.04461E-14-4.71100E-13
 -1      1163 2.06979E+01-4.90236E-03-6.57354E-03 4.17375E-03-2.06475E-14-6.27621E-13
 -1      1164 2.09678E+01-4.79829E-03-6.68454E-03 5.80512E-03 2.17059E-14-4.29948E-13
 -1      1165 2.12839E+01-3.76693E-03-5.57115E-03 7.64106E-03 4.23717E-14-5.60073E-14
 -1      1166 2.16380E+01-1.35438E-03-2.51900E-03 9.38484E-03-2.91543E-14-3.70946E-13
 -1      1167 2.20085E+01 2.91728E-03 3.29398E-03 1.04663E-02-6.78044E-15-4.61360E-13
 -1      1168 2.23546E+01 9.37164E-03 1.25378E-02 9.94596E-03 1.05496E-14-2.12188E-13
 -1      1169 2.26125E+01 1.78341E-02 2.51624E-02 6.50605E-03 1.26405E-14-1.11397E-13
 -1      1170 2.26954E+01 2.71014E-02 3.94802E-02-1.31268E-03 2.63019E-14-2.70585E-13
 -1      1171 2.25051E+01 3.44036E-02 5.11731E-02-1.43895E-02-1.18087E-14-3.61057E-13
 -1      1172 2.19615E+01 3.53303E-02 5.32188E-02-3.17553E-02 6.33395E-14-1.56642E-13
 -1      1173 2.10503E+01 2.52383E-02 3.81540E-02-4.92606E-02-2.61911E-14-7.38853E-14
 -1      1174 1.98753E+01 2.32289E-03 3.18510E-03-5.95324E-02-2.01142E-15-3.67782E-13
 -1      1175 1.86780E+01-2.86188E-02-4.40334E-02-5.47460E-02 5.26580E-14-3.30791E-13
 -1      1176 1.77859E+01-5.55239E-02-8.49386E-02-3.19356E-02-3.91007E-14-1.79398E-13
 -1      1177 1.74831E+01-6.50400E-02-9.93770E-02 2.86803E-03 7.68049E-15-4.27491E-13
 -1      1178 1.78700E+01-5.18869E-02-7.94876E-02 3.65231E-02 5.97742E-15-2.57242E-13
 -1      1179 1.88082E+01-2.30874E-02-3.57417E-02 5.65585E-02 2.06174E-14-4.52555E-13
 -1      1180 1.99937E+01 7.49816E-03 1.09389E-02 5.83825E-02-7.96964E-15-3.84734E-13
 -1      1181 2.11031E+01 2.86977E-02 4.32527E-02 4.61056E-02 2.20765E-14-2.86243E-13
 -1      1182 2.19133E+01 3.69295E-02 5.54366E-02 2.78374E-02-1.24779E-14-2.37785E-13
 -1      1183 2.23406E+01 3.46993E-02 5.14569E-02 1.05456E-02-1.66555E-14-6.00610E-13
 -1      1184 2.24124E+01 2.67607E-02 3.89520E-02-2.20883E-03 3.67566E-14-5.16180E-13
 -1      1185 2.22147E+01 1.72075E-02 2.44680E-02-9.84914E-03-9.16628E-15-8.80055E-13
 -1      1186 2.18471E+01 8.42925E-03 1.16622E-02-1.33757E-02-2.38506E-14-5.77842E-13
 -1      1187 2.13978E+01 1.28398E-03 1.58136E-03-1.41452E-02 2.95633E-14-3.21094E-13
 -1      1188 2.09364E+01-4.34145E-03-6.37024E-03-1.31527E-02 7.39103E-14 3.81927E-13
 -1      1189 2.05173E+01-8.91468E-03-1.33539E-02-1.06763E-02 3.14162E-14 7.21886E-13
 -1      1190 2.01883E+01-1.25067E-02-1.92777E-02-5.84617E-03-1.46895E-14 3.79403E-13
 -1      1191 2.00016E+01-1.57981E-02-1.77141E-02 3.84400E-03-3.12698E-14-2.39821E-13
 -1      1192 1.99803E+01 6.82487E-03 1.37160E-02 6.90247E-03 6.37496E-14 6.29076E-14
 -1      1193 2.77866E+01 5.25698E-01 3.77301E-01 1.96659E+00-2.29469E-14 1.88377E-12
 -1      1194 2.00776E+01-6.62191E-02-5.73569E-01 1.29532E-01 7.56686E-15 1.59489E-12
 -1      1195 1.88987E+01-4.05932E-02-1.93222E-01 1.94518E-02 8.35269E-15 1.28285E-12
 -1      1196 1.85174E+01-2.14119E-02-5.05460E-02 1.49682E-03 1.19267E-14 1.00706E-12
 -1      1197 1.84444E+01-1.24076E-02-1.33920E-02-4.02751E-03-1.42985E-15 8.78266E-13
 -1      1198 1.85180E+01-7.41735E-03-4.65301E-03-5.45976E-03 1.69976E-14 7.64513E-13
 -1      1199 1.86600E+01-4.36797E-03-1.94582E-03-5.61175E-03-7.81840E-15 7.60203E-13
 -1      1200 1.88293E+01-2.43834E-03-4.02563E-04-5.28178E-03-1.22187E-15 8.02976E-13
 -1      1201 1.90031E+01-1.22847E-03 6.48480E-04-4.71990E-03 4.97096E-15 6.19844E-13
 -1      1202 1.91688E+01-5.14201E-04 1.25782E-03-4.03651E-03 3.76736E-15 5.55681E-13
 -1      1203 1.93205E+01-1.58586E-04 1.47602E-03-3.29450E-03 1.11601E-14 4.93031E-13
 -1      1204 1.94562E+01-7.61627E-05 1.37390E-03-2.53184E-03 1.53425E-15 5.57231E-13
 -1      1205 1.95772E+01-2.15889E-04 1.00922E-03-1.76950E-03 7.38951E-15 5.33478E-13
 -1      1206 1.96869E+01-5.52270E-04 4.13991E-04-1.01644E-03 1.28478E-17 2.93316E-13
 -1      1207 1.97905E+01-1.08039E-03-4.06940E-04-2.73548E-04 5.16981E-16 9.74739E-14
 -1      1208 1.98947E+01-1.81308E-03-1.47487E-03 4.62530E-04 1.96317E-14-5.91406E-14
 -1      1209 2.00080E+01-2.77893E-03-2.83656E-03 1.19518E-03-1.57198E-14-9.92226E-14
 -1      1210 2.01410E+01-4.01973E-03-4.56394E-03 1.92202E-03-1.24046E-14 3.64459E-14
 -1      1211 2.03062E+01-5.58501E-03-6.75211E-03 2.62575E-03-2.27654E-14 2.06083E-13
 -1      1212 2.05190E+01-7.51920E-03-9.51109E-03 3.25866E-03-1.78613E-14 1.25616E-13
 -1      1213 2.07984E+01-9.83286E-03-1.29407E-02 3.71593E-03-1.57525E-14 5.30999E-14
 -1      1214 2.11667E+01-1.24428E-02-1.70673E-02 3.79084E-03-8.82367E-15 1.24512E-13
 -1      1215 2.16500E+01-1.50558E-02-2.16990E-02 3.10453E-03 5.44053E-16-4.48305E-14
 -1      1216 2.22761E+01-1.69629E-02-2.61262E-02 1.00987E-03 3.99286E-14-1.80762E-13
 -1      1217 2.30696E+01-1.67229E-02-2.85671E-02-3.49876E-03 3.03078E-15-3.50570E-13
 -1      1218 2.40407E+01-1.17935E-02-2.53173E-02-1.17446E-02 2.25588E-14-3.29882E-13
 -1      1219 2.51627E+01 1.53537E-03-9.92814E-03-2.48610E-02-2.99946E-14-3.01176E-13
 -1      1220 2.63333E+01 2.69537E-02 2.61501E-02-4.21606E-02-1.59816E-14-2.13475E-13
 -1      1221 2.73223E+01 6.39587E-02 8.82142E-02-5.77898E-02-3.50388E-14-1.22662E-13
 -1      1222 2.77338E+01 1.00192E-01 1.64752E-01-5.69311E-02 3.01521E-14-2.07369E-14
 -1      1223 2.70634E+01 1.05891E-01 2.10771E-01-1.79780E-02-6.41102E-14-3.56382E-14
 -1      1224 2.49744E+01 4.86731E-02 1.54867E-01 6.79892E-02-1.82580E-15 8.19900E-14
 -1      1225 2.17958E+01-6.12549E-02-3.49065E-02 1.64996E-01 6.79491E-15 9.42579E-14
 -1      1226 1.88192E+01-1.45433E-01-2.62928E-01 1.94776E-01-2.65343E-14 1.71835E-13
 -1      1227 1.77078E+01-1.32339E-01-3.50928E-01 1.09019E-01 2.33268E-14 1.06165E-15
 -1      1228 1.91552E+01-4.69328E-02-2.29991E-01-3.99726E-02-1.40721E-14-4.42091E-13
 -1      1229 2.22327E+01 3.12463E-02-1.81393E-02-1.46942E-01 4.38381E-14-5.92082E-13
 -1      1230 2.52585E+01 6.18871E-02 1.31348E-01-1.60673E-01 1.63116E-14-7.71078E-13
 -1      1231 2.70850E+01 5.59615E-02 1.66344E-01-1.11646E-01 2.44561E-14-7.33441E-13
 -1      1232 2.75190E+01 3.69931E-02 1.25898E-01-5.02822E-02 1.78156E-14-8.39211E-13
 -1      1233 2.69423E+01 1.87967E-02 6.78166E-02-5.23169E-03-2.29265E-14-7.03021E-13
 -1      1234 2.58445E+01 6.08206E-03 2.30441E-02 1.87015E-02-4.34347E-14 1.57999E-14
 -1      1235 2.45930E+01-1.37242E-03-2.58145E-03 2.74265E-02-5.76132E-14 2.93973E-13
 -1      1236 2.33962E+01-5.29722E-03-1.40175E-02 2.80666E-02 4.61735E-14 3.48908E-13
 -1      1237 2.23467E+01-7.46386E-03-1.79412E-02 2.55796E-02-3.24559E-14 9.14685E-14
 -1      1238 2.14739E+01-9.26789E-03-1.95732E-02 2.26175E-02 1.08158E-13-3.52458E-13
 -1      1239 2.07836E+01-1.17851E-02-2.23827E-02 2.01276E-02 1.87350E-16-6.69381E-13
 -1      1240 2.02843E+01-1.49035E-02-2.67805E-02 1.70046E-02-8.51402E-15-4.71193E-13
 -1      1241 2.00072E+01-1.29664E-02-2.25827E-02 8.12206E-03 7.41948E-14-7.15900E-13
 -1      1242 1.99764E+01 8.21484E-03 1.93199E-02-8.60875E-03-3.86813E-14-5.62357E-13
 -1      1243 2.00082E+01-2.45211E-02 1.80629E-02-7.97475E-03-6.40051E-13 7.01750E-15
 -1      1244 1.99837E+01 1.52745E-02-2.33317E-02-4.16682E-03 2.07312E-14 6.39829E-14
 -1      1245 1.99867E+01 2.89190E-01-2.20863E-02 1.12420E-02 1.24713E-12 1.39494E-13
 -1      1246 1.99957E+01 7.22732E-01-8.00677E-03 1.70173E-02 1.35092E-12-9.99030E-14
 -1      1247 2.00050E+01 1.20563E+00 6.21316E-03 1.71642E-02 5.49992E-13-1.16470E-13
 -1      1248 2.00124E+01 1.64049E+00 1.69314E-02 1.37551E-02-6.44656E-13-1.40570E-13
 -1      1249 2.00169E+01 1.96195E+00 2.32197E-02 8.75307E-03-1.16233E-12 9.93546E-14
 -1      1250 2.00186E+01 2.12991E+00 2.53623E-02 2.69165E-03-1.09521E-12 7.82102E-14
 -1      1251 2.00174E+01 2.12634E+00 2.36402E-02-3.13415E-03-7.25271E-13 1.77986E-13
 -1      1252 2.00140E+01 1.96282E+00 1.89410E-02-7.96440E-03-1.07431E-12-4.23793E-14
 -1      1253 2.00091E+01 1.67104E+00 1.23149E-02-1.13248E-02-2.31103E-13-1.27869E-13
 -1      1254 2.00038E+01 1.29892E+00 4.83318E-03-1.30232E-02-1.45310E-12-9.18827E-14
 -1      1255 1.99980E+01 8.93974E-01-3.05011E-03-1.30202E-02-1.71765E-12-5.47328E-14
 -1      1256 1.99926E+01 5.04131E-01-1.13938E-02-1.12673E-02-1.19869E-12 1.77558E-13
 -1      1257 1.99882E+01 1.83124E-01-1.96931E-02-7.88545E-03-5.99023E-13 8.22764E-14
 -1      1258 1.99844E+01 9.93859E-03-1.55590E-02 8.50681E-03-4.27379E-13-2.01922E-13
 -1      1259 2.00066E+01-1.99129E-02 1.33890E-02 6.64398E-03-1.51954E-13 1.78611E-13
 -1      1260-1.22575E+00-2.44085E+01-3.78632E+00-2.42621E+00-1.57391E-12-1.73080E-13
 -1      1261-2.00905E+00-1.60712E+01-3.25198E+00-4.46145E+00-7.53730E-13-1.44773E-13
 -1      1262 2.17021E-01-3.17730E+00-2.02314E+00-3.15591E-01 4.27214E-13 3.62821E-13
 -1      1263 9.54877E+00 7.29646E+00-4.18131E-01 8.35737E+00 1.04561E-12 1.01474E-12
 -1      1264 2.77465E+01 1.07727E+01 1.48140E+00 1.64564E+01 1.21014E-12 1.62270E-12
 -1      1265 4.95873E+01 7.69690E+00 3.24964E+00 1.76800E+01 5.11757E-13 1.31939E-12
 -1      1266 6.54200E+01 3.22081E+00 4.31867E+00 9.55548E+00 1.87281E-13 1.32494E-12
 -1      1267 6.89608E+01 1.78879E+00 4.50647E+00-4.04003E+00 6.01325E-14 3.01204E-13
 -1      1268 5.71988E+01 5.51747E+00 3.72243E+00-1.52973E+01 2.93598E-13-6.72129E-13
 -1      1269 3.66879E+01 1.00502E+01 2.23143E+00-1.79102E+01 7.82485E-13-1.32849E-12
 -1      1270 1.68111E+01 1.00197E+01 4.80863E-01-1.25583E+01 9.57234E-13-1.24101E-12
 -1      1271 3.59412E+00 2.87296E+00-1.28834E+00-3.57455E+00 8.02691E-13-7.22311E-13
 -1      1272-1.60402E+00-9.49551E+00-2.66039E+00 3.18343E+00 1.08136E-12-4.97824E-13
 -1      1273-1.64628E+00-2.09009E+01-3.53579E+00 4.20919E+00 1.29385E-12-3.07324E-13
 -1      1274-8.90164E-01-2.54617E+01-3.79506E+00 6.01583E-01 9.89847E-13-4.42632E-14
 -1      1275-1.34946E+00-2.15137E+01-3.50625E+00-3.31348E+00 3.97460E-13 7.13318E-15
 -1      1276-1.43400E+00-1.02559E+01-2.59953E+00-2.98500E+00-2.02949E-13-2.59848E-13
 -1      1277 3.05395E+00 2.44393E+00-1.22651E+00 3.22765E+00-7.25642E-13-4.61076E-13
 -1      1278 1.47202E+01 1.02121E+01 4.07315E-01 1.19620E+01-7.82263E-13-9.95870E-13
 -1      1279 3.25370E+01 1.08050E+01 1.99637E+00 1.77493E+01-8.54983E-13-1.31184E-12
 -1      1280 5.15094E+01 6.71109E+00 3.24593E+00 1.62633E+01-5.02987E-13-1.19238E-12
 -1      1281 6.43803E+01 2.37473E+00 3.97723E+00 7.64105E+00-1.47302E-13-7.11320E-13
 -1      1282 6.59526E+01 1.77198E+00 4.03792E+00-4.31581E+00-2.26139E-14-1.61426E-13
 -1      1283 5.67279E+01 5.02304E+00 3.53540E+00-1.43898E+01 1.04500E-13-2.14495E-13
 -1      1284 3.93866E+01 9.71373E+00 2.46221E+00-1.81472E+01 1.54321E-14-1.80300E-13
 -1      1285 2.10191E+01 1.12478E+01 1.08036E+00-1.47217E+01-2.15383E-13 3.49720E-13
 -1      1286 6.87629E+00 6.52173E+00-4.95718E-01-6.65091E+00 3.82139E-13-2.86882E-13
 -1      1287-3.37833E-01-4.22774E+00-1.98358E+00 1.09710E+00 9.31033E-13-5.95524E-13
 -1      1288-1.73164E+00-1.62053E+01-3.09856E+00 4.05862E+00 2.17604E-14-7.98805E-14
 -1      1289-1.04540E+00-2.43341E+01-3.73978E+00 2.01738E+00-1.35836E-12 5.03209E-14
 -1      1290 2.22609E+01 1.83786E+00-7.25800E-01-2.79117E+00-5.02098E-14 6.45872E-13
 -1      1291 2.03550E+01 4.68947E+00-4.87634E-02-3.30837E+00-1.23179E-13-1.21486E-13
 -1      1292 2.08617E+01 4.80982E+00-1.13467E-01-4.16233E+00-1.59678E-13 4.83849E-14
 -1      1293 1.95287E+01 4.99350E+00-1.97061E-02-2.65644E+00-1.09093E-13-3.56326E-13
 -1      1294 1.98259E+01 5.08959E+00-2.82720E-05-3.04712E+00-1.27863E-13-2.54949E-13
 -1      1295 2.05218E+01 3.95240E+00-2.60183E-02-3.07604E+00-2.08309E-13-1.05763E-13
 -1      1296 1.91847E+01 5.08404E+00-3.36312E-03-2.07281E+00-8.02691E-14-4.68292E-13
 -1      1297 1.93318E+01 5.13890E+00 1.04943E-02-2.36614E+00-9.56075E-14-4.20480E-13
 -1      1298 1.97529E+01 4.36683E+00-2.38677E-02-2.49230E+00-1.68011E-13-2.99059E-13
 -1      1299 1.90107E+01 5.13121E+00 3.50841E-03-1.56638E+00-5.97647E-14-5.07649E-13
 -1      1300 1.90879E+01 5.16063E+00 1.28095E-02-1.81646E+00-6.88807E-14-4.93720E-13
 -1      1301 1.93931E+01 4.55495E+00-1.94860E-02-1.93320E+00-1.23581E-13-3.94712E-13
 -1      1302 1.89186E+01 5.16117E+00 6.60585E-03-1.11851E+00-2.70764E-14-5.08534E-13
 -1      1303 1.89602E+01 5.17731E+00 1.27853E-02-1.34013E+00-4.18762E-14-5.03996E-13
 -1      1304 1.92077E+01 4.66150E+00-1.60365E-02-1.44633E+00-8.44247E-14-4.25000E-13
 -1      1305 1.88683E+01 5.18117E+00 8.23238E-03-6.94798E-01-5.65715E-15-5.04423E-13
 -1      1306 1.88907E+01 5.18987E+00 1.20266E-02-9.05245E-01-1.00597E-14-5.10599E-13
 -1      1307 1.91064E+01 4.72703E+00-1.39883E-02-1.00550E+00-3.17814E-14-4.30041E-13
 -1      1308 1.88450E+01 5.19322E+00 9.32743E-03-2.89598E-01 1.99285E-14-4.93243E-13
 -1      1309 1.88546E+01 5.19697E+00 1.10992E-02-4.91967E-01 1.24740E-14-4.98310E-13
 -1      1310 1.90517E+01 4.76613E+00-1.29126E-02-5.89544E-01 4.34873E-15-4.17884E-13
 -1      1311 1.88414E+01 5.19819E+00 1.02577E-02 1.08337E-01 4.04890E-14-4.81297E-13
 -1      1312 1.88411E+01 5.19805E+00 1.01857E-02-9.15922E-02 3.72439E-14-4.88444E-13
 -1      1313 1.90281E+01 4.78423E+00-1.24619E-02-1.89361E-01 4.84154E-14-4.07171E-13
 -1      1314 1.88563E+01 5.19661E+00 1.11926E-02 5.09300E-01 5.85981E-14-4.63324E-13
 -1      1315 1.88460E+01 5.19258E+00 9.26377E-03 3.06509E-01 5.32603E-14-4.75781E-13
 -1      1316 1.90289E+01 4.78360E+00-1.24793E-02 2.06013E-01 7.81826E-14-4.03257E-13
 -1      1317 1.88940E+01 5.18872E+00 1.21207E-02 9.24065E-01 7.36980E-14-4.29887E-13
 -1      1318 1.88708E+01 5.17984E+00 8.17313E-03 7.12654E-01 6.97875E-14-4.49796E-13
 -1      1319 1.90544E+01 4.76407E+00-1.29659E-02 6.06886E-01 1.07325E-13-3.79790E-13
 -1      1320 1.89646E+01 5.17544E+00 1.29164E-02 1.35770E+00 9.66657E-14-3.73111E-13
 -1      1321 1.89221E+01 5.15892E+00 6.48711E-03 1.13462E+00 8.97433E-14-4.06435E-13
 -1      1322 1.91108E+01 4.72347E+00-1.39904E-02 1.02065E+00 1.32618E-13-3.38788E-13
 -1      1323 1.90956E+01 5.15664E+00 1.28288E-02 1.84265E+00 1.27577E-13-2.86788E-13
 -1      1324 1.90170E+01 5.12656E+00 3.17839E-03 1.58973E+00 1.11917E-13-3.36682E-13
 -1      1325 1.92147E+01 4.65490E+00-1.61374E-02 1.46413E+00 1.71179E-13-2.78569E-13
 -1      1326 1.93422E+01 5.13303E+00 1.01504E-02 2.39983E+00 1.53946E-13-1.51882E-13
 -1      1327 1.91932E+01 5.07622E+00-4.35165E-03 2.10255E+00 1.38858E-13-2.32210E-13
 -1      1328 1.94055E+01 4.54227E+00-1.99800E-02 1.96005E+00 2.16084E-13-1.88197E-13
 -1      1329 1.98517E+01 5.09869E+00 5.99647E-03 3.08575E+00 1.63813E-13 9.28008E-14
 -1      1330 1.95408E+01 4.98399E+00-2.05340E-02 2.69852E+00 1.48312E-13-5.29958E-14
 -1      1331 1.97726E+01 4.34610E+00-2.45673E-02 2.52995E+00 2.41735E-13-2.98650E-14
 -1      1332 2.10978E+01 4.90621E+00 8.23789E-03 4.05521E+00 1.34226E-13 5.19626E-13
 -1      1333 2.03296E+01 4.73323E+00-4.79872E-02 3.41794E+00 1.33102E-13 2.59744E-13
 -1      1334 2.05602E+01 3.91557E+00-2.24381E-02 3.18010E+00 2.41397E-13 2.32064E-13
 -1      1335 2.71963E+01 3.20497E+00 9.29011E-01 4.58265E+00 5.53585E-14 1.29058E-12
 -1      1336 2.20140E+01 3.52170E+00-1.82004E-01 3.88596E+00 6.04516E-14 7.61280E-13
 -1      1337 2.21062E+01 2.56159E+00-3.26054E-02 3.45792E+00 2.12474E-13 6.11289E-13
 -1      1338 2.14198E+01 3.59656E-01-7.63474E-01 1.18461E+00 1.03306E-13 1.26049E-12
 -1      1339 2.19941E+01 1.31369E-01-4.00844E-01-1.28656E+00-1.30312E-13 6.93556E-13
 -1      1340 2.06705E+01 3.06769E-01-1.64819E-01-8.06539E-01-1.18384E-13 5.46438E-13
 -1      1341 2.00723E+01 1.53527E-01-7.35312E-02-4.02814E-01-9.95662E-14 4.87171E-13
 -1      1342 1.96016E+01 9.12297E-02-1.49098E-02-3.30619E-01-9.68566E-14 3.39805E-13
 -1      1343 2.09652E+01 3.69370E-01-1.04173E-01-1.27534E+00-2.17146E-13 2.59428E-13
 -1      1344 1.92437E+01 6.44996E-02 3.06176E-03-1.35976E-01-7.91736E-14 2.97783E-13
 -1      1345 1.90886E+01 4.12555E-02 1.32507E-02-1.18187E-01-6.24951E-14 1.78680E-13
 -1      1346 1.99134E+01 1.33916E-01-3.51134E-02-5.05215E-01-1.71904E-13 1.80439E-13
 -1      1347 1.89277E+01 3.15127E-02 1.32712E-02-2.86940E-02-4.32389E-14 1.14585E-13
 -1      1348 1.89074E+01 1.93925E-02 1.10792E-02-1.93243E-02-4.12569E-14 4.79478E-14
 -1      1349 1.94351E+01 5.54282E-02-8.49591E-03-1.71272E-01-1.17670E-13 6.61086E-14
 -1      1350 1.88508E+01 1.60193E-02 8.79923E-03 2.43441E-02-2.23120E-14 1.69881E-14
 -1      1351 1.88923E+01 9.11396E-03 6.45114E-03 2.89796E-02-3.05467E-14-1.69795E-14
 -1      1352 1.92252E+01 2.43888E-02-3.51460E-03-1.24407E-02-6.84591E-14-3.06300E-14
 -1      1353 1.88920E+01 7.89998E-03 4.69830E-03 5.02463E-02-3.41292E-14-5.39811E-14
 -1      1354 1.89616E+01 3.59134E-03 3.66844E-03 5.21633E-02-3.07071E-14-8.86288E-14
 -1      1355 1.91676E+01 1.02425E-02-2.23773E-03 6.64007E-02-6.22907E-14-9.59233E-14
 -1      1356 1.89910E+01 3.29044E-03 2.47959E-03 6.11871E-02-1.36689E-14-9.16246E-14
 -1      1357 1.90711E+01 4.94781E-04 2.25049E-03 6.15136E-02-9.73624E-15-1.24338E-13
 -1      1358 1.91934E+01 2.90058E-03-1.35930E-03 1.03636E-01-4.31432E-14-1.10684E-13
 -1      1359 1.91151E+01 6.35094E-04 1.38052E-03 6.36154E-02-1.28175E-14-1.52338E-13
 -1      1360 1.91960E+01-1.18925E-03 1.49392E-03 6.30407E-02-2.46021E-14-1.81511E-13
 -1      1361 1.92629E+01-1.05467E-03-6.20493E-04 1.17690E-01-4.30213E-14-1.36143E-13
 -1      1362 1.92458E+01-8.20195E-04 8.07962E-04 6.13471E-02-3.98438E-14-1.64322E-13
 -1      1363 1.93225E+01-1.97734E-03 1.04392E-03 6.03249E-02-3.68801E-14-1.96496E-13
 -1      1364 1.93528E+01-3.07164E-03-9.84941E-05 1.18703E-01-5.27447E-14-1.26697E-13
 -1      1365 1.93732E+01-1.48737E-03 4.85093E-04 5.68279E-02-3.73554E-14-2.10562E-13
 -1      1366 1.94433E+01-2.16588E-03 7.55244E-04 5.56697E-02-1.80943E-14-2.41265E-13
 -1      1367 1.94497E+01-3.86672E-03 2.02615E-04 1.12851E-01-5.66235E-14-1.10085E-13
 -1      1368 1.94924E+01-1.61215E-03 2.95246E-04 5.17096E-02-1.30321E-14-2.85319E-13
 -1      1369 1.95557E+01-1.93818E-03 5.66991E-04 5.06355E-02-3.08284E-14-3.17580E-13
 -1      1370 1.95463E+01-3.84235E-03 3.23862E-04 1.04171E-01-5.23792E-14-1.58414E-13
 -1      1371 1.96024E+01-1.34825E-03 1.84671E-04 4.71520E-02-1.95350E-14-3.10640E-13
 -1      1372 1.96598E+01-1.41101E-03 4.48362E-04 4.63225E-02-9.43961E-16-3.13909E-13
 -1      1373 1.96394E+01-3.24273E-03 3.09600E-04 9.54318E-02-3.58314E-14-2.06709E-13
 -1      1374 1.97045E+01-7.93435E-04 1.23302E-04 4.40019E-02 3.57821E-14-2.94535E-13
 -1      1375 1.97580E+01-6.59388E-04 3.79826E-04 4.35392E-02 1.15530E-14-2.33250E-13
 -1      1376 1.97284E+01-2.21973E-03 1.94100E-04 8.86083E-02 3.14282E-14-1.93570E-13
 -1      1377 1.98021E+01-1.02473E-05 9.07635E-05 4.29042E-02-2.63834E-15-2.36173E-13
 -1      1378 1.98542E+01 2.67148E-04 3.46493E-04 4.29064E-02-1.49493E-14-2.45974E-13
 -1      1379 1.98152E+01-8.67752E-04 1.23101E-06 8.51706E-02 1.35704E-14-2.08350E-13
 -1      1380 1.98997E+01 9.59137E-04 7.09777E-05 4.43703E-02-3.32086E-14-2.48279E-13
 -1      1381 1.99537E+01 1.33116E-03 3.35138E-04 4.49189E-02-4.83864E-14-2.92925E-13
 -1      1382 1.99029E+01 7.52631E-04-2.52475E-04 8.62558E-02-4.37277E-14-2.73795E-13
 -1      1383 2.00031E+01 2.07953E-03 4.96124E-05 4.88069E-02-2.32065E-14-3.02964E-13
 -1      1384 2.00627E+01 2.49375E-03 3.32348E-04 4.99689E-02-3.25119E-14-3.52054E-13
 -1      1385 1.99958E+01 2.59385E-03-5.54193E-04 9.27607E-02-4.69102E-14-2.11618E-13
 -1      1386 2.01188E+01 3.30795E-03 1.27313E-05 5.65075E-02-1.26101E-14-3.27975E-13
 -1      1387 2.01882E+01 3.69857E-03 3.23195E-04 5.83288E-02-3.14492E-14-3.12751E-13
 -1      1388 2.00992E+01 4.59845E-03-8.90889E-04 1.05357E-01-2.82238E-14-1.89318E-13
 -1      1389 2.02539E+01 4.57511E-03-5.35793E-05 6.75968E-02-1.95848E-14-3.49064E-13
 -1      1390 2.03371E+01 4.85167E-03 2.90549E-04 7.00863E-02-3.27186E-14-3.86135E-13
 -1      1391 2.02186E+01 6.67033E-03-1.24476E-03 1.24421E-01-3.57599E-14-2.44403E-13
 -1      1392 2.04154E+01 5.76138E-03-1.62195E-04 8.19154E-02-3.81161E-14-3.50680E-13
 -1      1393 2.05164E+01 5.79565E-03 2.15665E-04 8.50159E-02-7.33107E-14-4.26028E-13
 -1      1394 2.03599E+01 8.63656E-03-1.58751E-03 1.49859E-01-4.30881E-14-2.81557E-13
 -1      1395 2.06098E+01 6.66578E-03-3.21613E-04 9.88296E-02-3.63596E-14-4.47753E-13
 -1      1396 2.07315E+01 6.27853E-03 8.12311E-05 1.02371E-01-2.93974E-14-4.65706E-13
 -1      1397 2.05284E+01 1.01974E-02-1.87297E-03 1.80800E-01-8.96698E-14-2.47896E-13
 -1      1398 2.08412E+01 6.96923E-03-5.28833E-04 1.16949E-01 3.06224E-14-3.78804E-13
 -1      1399 2.09849E+01 5.92127E-03-1.21278E-04 1.20580E-01 1.11965E-13-2.69977E-13
 -1      1400 2.07278E+01 1.08656E-02-2.02799E-03 2.15123E-01 7.95285E-14-3.27407E-13
 -1      1401 2.11103E+01 6.19901E-03-7.56854E-04 1.33757E-01 5.74282E-14-2.75010E-13
 -1      1402 2.12736E+01 4.19660E-03-3.78007E-04 1.36857E-01 7.75606E-15-2.33517E-13
 -1      1403 2.09590E+01 9.90377E-03-1.94219E-03 2.48818E-01 9.63214E-14-3.05690E-13
 -1      1404 2.14110E+01 3.71369E-03-9.36459E-04 1.45180E-01-3.75787E-14-2.36857E-13
 -1      1405 2.15864E+01 4.48409E-04-6.32802E-04 1.46765E-01-4.96272E-14-3.60642E-13
 -1      1406 2.12183E+01 6.29096E-03-1.45980E-03 2.75218E-01-1.05249E-14-2.89115E-13
 -1      1407 2.17276E+01-1.24867E-03-9.36867E-04 1.45252E-01 6.71823E-14-3.21136E-13
 -1      1408 2.18996E+01-5.99289E-03-7.66772E-04 1.43903E-01 7.87257E-14-2.17115E-13
 -1      1409 2.14943E+01-1.21674E-03-3.81338E-04 2.84289E-01 3.55931E-14-1.30669E-13
 -1      1410 2.20306E+01-9.38318E-03-5.60139E-04 1.26151E-01 1.46395E-14-2.10783E-13
 -1      1411 2.21738E+01-1.55138E-02-5.94691E-04 1.20062E-01 8.63762E-15-1.29802E-13
 -1      1412 2.17659E+01-1.38086E-02 1.50756E-03 2.62424E-01 6.99974E-14-1.00268E-13
 -1      1413 2.22737E+01-2.08848E-02 4.20022E-04 7.91662E-02-2.00014E-14-1.26651E-13
 -1      1414 2.23522E+01-2.76512E-02 8.31502E-05 6.64585E-02 2.02507E-14-1.26920E-13
 -1      1415 2.19996E+01-3.19545E-02 4.35221E-03 1.93584E-01 1.66690E-14-9.58053E-14
 -1      1416 2.23944E+01-3.46949E-02 2.12232E-03-2.63321E-03-5.89199E-15-1.18175E-13
 -1      1417 2.23649E+01-4.02641E-02 1.33997E-03-2.31220E-02-4.82427E-14-1.77683E-13
 -1      1418 2.21490E+01-5.42050E-02 8.05413E-03 6.30811E-02-1.22597E-14-2.67249E-14
 -1      1419 2.23205E+01-4.75128E-02 4.32478E-03-1.19367E-01 6.15194E-14-2.22797E-13
 -1      1420 2.21422E+01-4.87689E-02 2.87772E-03-1.46678E-01-1.50158E-14-1.97557E-13
 -1      1421 2.21596E+01-7.56182E-02 1.19933E-02-1.34674E-01-4.02048E-14-7.78032E-14
 -1      1422 2.19891E+01-5.32949E-02 6.19505E-03-2.57475E-01-1.83907E-14-1.03174E-13
 -1      1423 2.16417E+01-4.64528E-02 3.87669E-03-2.86872E-01 7.27968E-14-5.79155E-14
 -1      1424 2.19793E+01-8.67941E-02 1.47426E-02-3.84432E-01 1.61902E-14-1.85715E-14
 -1      1425 2.13774E+01-4.44974E-02 6.42870E-03-3.84504E-01 3.22459E-14-5.69614E-14
 -1      1426 2.08838E+01-2.70715E-02 3.16472E-03-4.06749E-01-7.96889E-14-8.01616E-14
 -1      1427 2.15807E+01-7.56912E-02 1.41045E-02-6.38646E-01 7.91259E-14-4.07261E-14
 -1      1428 2.05397E+01-1.62998E-02 3.83448E-03-4.52171E-01-6.98629E-14-2.85050E-14
 -1      1429 1.99819E+01 9.95470E-03-3.31520E-05-4.55700E-01-3.45233E-14-8.07965E-14
 -1      1430 2.09883E+01-3.36527E-02 8.05477E-03-8.16556E-01-1.04875E-13 8.23265E-14
 -1      1431 1.96294E+01 2.73712E-02-1.43558E-03-4.14058E-01-1.02435E-14-1.38802E-13
 -1      1432 1.91401E+01 5.46838E-02-5.02828E-03-3.90963E-01-3.23812E-14-1.25656E-13
 -1      1433 2.03013E+01 3.50975E-02-3.60034E-03-8.26490E-01-6.01554E-14 1.32783E-13
 -1      1434 1.88759E+01 7.10297E-02-7.17004E-03-2.54781E-01-5.41893E-14-1.77747E-13
 -1      1435 1.85965E+01 8.80070E-02-9.29983E-03-2.07863E-01-8.27463E-14-2.93831E-13
 -1      1436 1.96877E+01 1.08610E-01-1.72419E-02-6.13571E-01-8.57717E-14-1.49579E-13
 -1      1437 1.85054E+01 9.39497E-02-1.01901E-02-1.18071E-02-1.26635E-14-2.16073E-13
 -1      1438 1.85246E+01 9.23065E-02-1.00370E-02 4.36496E-02 1.09558E-13-1.90062E-13
 -1      1439 1.93323E+01 1.54654E-01-2.62655E-02-2.08980E-01 5.08343E-14-1.13857E-13
 -1      1440 1.86368E+01 8.40772E-02-8.79886E-03 2.33762E-01 2.93446E-14-1.99996E-13
 -1      1441 1.89458E+01 6.45971E-02-6.43530E-03 2.77487E-01-1.56906E-15-1.99330E-13
 -1      1442 1.93537E+01 1.50091E-01-2.53911E-02 2.62962E-01 6.87193E-14 2.93550E-14
 -1      1443 1.92194E+01 4.72039E-02-4.20072E-03 3.98775E-01-1.92129E-14-2.58540E-13
 -1      1444 1.97162E+01 1.91740E-02-5.50058E-04 4.17140E-01-3.59448E-14-2.65656E-13
 -1      1445 1.97399E+01 9.71290E-02-1.50875E-02 6.41685E-01-4.26005E-14-9.61653E-14
 -1      1446 2.00607E+01 2.17414E-03 6.58309E-04 4.41555E-01-1.98436E-14-2.75523E-13
 -1      1447 2.05999E+01-2.31544E-02 4.40428E-03 4.33773E-01-1.19026E-14-2.97741E-13
 -1      1448 2.03547E+01 2.16599E-02-1.25316E-03 8.15070E-01-5.51109E-14-2.49504E-13
 -1      1449 2.09197E+01-3.27463E-02 3.48855E-03 3.74677E-01-1.25299E-14-2.49533E-13
 -1      1450 2.13735E+01-4.84872E-02 6.51641E-03 3.49804E-01 1.76413E-14-3.13631E-13
 -1      1451 2.10089E+01-4.44914E-02 9.71362E-03 7.67613E-01-7.51933E-14-3.13429E-13
 -1      1452 2.16026E+01-4.93870E-02 3.88700E-03 2.44441E-01-4.20020E-14-2.82691E-13
 -1      1453 2.18980E+01-5.46397E-02 5.94923E-03 2.14045E-01-1.36807E-13-4.59284E-13
 -1      1454 2.15419E+01-8.18598E-02 1.48962E-02 5.64205E-01-1.71538E-14-3.65320E-13
 -1      1455 2.20107E+01-4.96532E-02 2.77919E-03 1.00598E-01-1.13383E-13-4.42878E-13
 -1      1456 2.21324E+01-4.72868E-02 3.98026E-03 7.32796E-02-1.12418E-13-5.71748E-13
 -1      1457 2.18659E+01-8.89326E-02 1.48742E-02 2.98001E-01-1.54378E-13-2.95097E-13
 -1      1458 2.21353E+01-4.01244E-02 1.32256E-03-2.27024E-02-6.22020E-14-6.24530E-13
 -1      1459 2.21083E+01-3.38575E-02 1.89264E-03-4.28407E-02-7.17555E-14-7.43635E-13
 -1      1460 2.19660E+01-7.54399E-02 1.18247E-02 4.57798E-02-1.62799E-13-4.41182E-13
 -1      1461 2.20258E+01-2.71702E-02 2.51572E-04-1.10499E-01-4.42554E-14-7.02775E-13
 -1      1462 2.18928E+01-1.98486E-02 3.95827E-04-1.22824E-01 4.55348E-14-7.26958E-13
 -1      1463 2.18758E+01-5.31810E-02 7.81899E-03-1.49739E-01-9.91061E-14-6.30842E-13
 -1      1464 2.17548E+01-1.48084E-02-2.31980E-04-1.61681E-01 1.47658E-13-4.95536E-13
 -1      1465 2.15601E+01-7.97575E-03-3.82157E-04-1.67335E-01 1.22999E-13-3.38375E-13
 -1      1466 2.16500E+01-3.05994E-02 4.10401E-03-2.76051E-01 1.87786E-13-4.89525E-13
 -1      1467 2.13946E+01-4.63711E-03-2.82864E-04-1.81794E-01 1.13187E-13-2.42187E-13
 -1      1468 2.11762E+01 1.20577E-03-6.59265E-04-1.82343E-01 2.04006E-13-1.22867E-13
 -1      1469 2.13456E+01-1.16135E-02 1.15086E-03-3.38601E-01 2.78002E-13-1.20727E-13
 -1      1470 2.10065E+01 3.39140E-03-2.35009E-04-1.77565E-01 2.54751E-13 2.44249E-15
 -1      1471 2.07946E+01 8.33832E-03-8.23803E-04-1.74220E-01 2.73030E-13 3.81319E-13
 -1      1472 2.10124E+01 3.27910E-03-1.08253E-03-3.49232E-01 3.34761E-13 4.26976E-14
 -1      1473 2.06388E+01 1.01203E-02-5.07348E-04-1.53929E-01 6.01841E-14 3.27137E-13
 -1      1474 2.04580E+01 1.44164E-02-1.24786E-03-1.47220E-01-8.49620E-14 2.61536E-13
 -1      1475 2.06900E+01 1.54682E-02-2.87079E-03-3.18764E-01 2.42357E-13 5.46438E-17
 -1      1476 2.03304E+01 1.64387E-02-1.38635E-03-1.13401E-01-1.15027E-13 2.56988E-13
 -1      1477 2.02027E+01 1.99238E-02-1.59480E-03-1.03083E-01-1.04836E-13 6.18735E-14
 -1      1478 2.04097E+01 2.69730E-02-4.28638E-03-2.53927E-01-1.16933E-13-2.89588E-14
 -1      1479 2.01113E+01 2.39373E-02-1.60428E-03-5.72443E-02-5.86681E-14 2.53336E-13
 -1      1480 2.00539E+01 2.16006E-02 6.10932E-04-4.41350E-02-4.00534E-14 2.63036E-13
 -1      1481 2.01929E+01 3.89987E-02-4.76738E-03-1.60065E-01-2.99953E-14 2.16323E-13
 -1      1482 1.99969E+01 4.69192E-03 2.85911E-03 5.26680E-03-1.95539E-13 1.98808E-13
 -1      1483 2.00401E+01 3.17768E-02-1.51093E-03-4.04657E-02-1.58608E-13 2.45013E-13
 -1      1484 2.02511E+01 7.54864E-02-1.52114E-01 4.84482E-01 9.70196E-14 1.05180E-12
 -1      1485 2.15223E+01 2.16103E-01-2.29287E-01 7.21495E-01 8.19345E-14 1.19005E-12
 -1      1486 2.17215E+01 8.81840E-01-8.54284E-02 2.06595E+00 1.61454E-13 8.04079E-13
 -1      1487 1.93213E+01 3.23770E-02-2.13428E-02 1.86636E-01 8.78377E-14 8.43325E-13
 -1      1488 1.97428E+01 1.13598E-01-6.27147E-02 2.38634E-01 8.14557E-14 9.65500E-13
 -1      1489 2.02951E+01 1.87706E-01-5.51763E-02 7.87328E-01 1.54994E-13 6.51149E-13
 -1      1490 1.89380E+01 1.50998E-02 5.66619E-03 5.41571E-02 4.30558E-14 6.64562E-13
 -1      1491 1.90774E+01 5.16023E-02 9.71110E-04 8.04469E-02 5.56361E-14 7.60295E-13
 -1      1492 1.95488E+01 7.18363E-02-1.21425E-02 3.00166E-01 1.31832E-13 5.22317E-13
 -1      1493 1.88259E+01 7.12104E-03 6.97929E-03-8.32445E-03 3.69197E-14 6.04366E-13
 -1      1494 1.88414E+01 2.58386E-02 1.10897E-02 6.04929E-03 1.76669E-14 6.44502E-13
 -1      1495 1.92123E+01 3.10308E-02-2.44839E-03 8.46996E-02 6.47451E-14 4.38431E-13
 -1      1496 1.88504E+01 3.22252E-03 4.78628E-03-3.85975E-02 3.45050E-14 5.30687E-13
 -1      1497 1.88075E+01 1.37984E-02 8.52647E-03-3.05019E-02 3.72176E-14 5.80773E-13
 -1      1498 1.90945E+01 1.32735E-02-1.60299E-03-2.03016E-02 6.70722E-14 3.87418E-13
 -1      1499 1.89431E+01 1.09361E-03 3.29434E-03-5.21299E-02-2.68338E-14 5.40227E-13
 -1      1500 1.88736E+01 7.29899E-03 5.37829E-03-4.76667E-02-1.35848E-14 5.11856E-13
 -1      1501 1.90948E+01 4.58469E-03-1.62157E-03-7.19237E-02 7.81710E-15 3.45162E-13
 -1      1502 1.90666E+01-1.11587E-04 2.50505E-03-5.63297E-02 7.98119E-14 4.67942E-13
 -1      1503 1.89872E+01 3.51798E-03 3.44715E-03-5.40957E-02 3.25880E-14 5.05436E-13
 -1      1504 1.91570E+01 2.14825E-06-1.37399E-03-9.49191E-02 4.16522E-14 2.56528E-13
 -1      1505 1.91996E+01-7.55761E-04 2.03070E-03-5.53020E-02 3.17129E-17 3.63434E-13
 -1      1506 1.91196E+01 1.26805E-03 2.35229E-03-5.44410E-02 4.20013E-14 4.32746E-13
 -1      1507 1.92494E+01-2.41023E-03-1.01281E-03-1.01821E-01 7.38927E-14 2.30246E-13
 -1      1508 1.93303E+01-1.02826E-03 1.67254E-03-5.15788E-02 3.26193E-14 3.16599E-13
 -1      1509 1.92547E+01-1.78316E-05 1.68493E-03-5.15241E-02-8.86335E-18 3.41919E-13
 -1      1510 1.93534E+01-3.52767E-03-6.93658E-04-9.97911E-02 1.68203E-14 1.64339E-13
 -1      1511 1.94529E+01-1.04094E-03 1.36251E-03-4.68309E-02-2.20743E-14 3.65303E-13
 -1      1512 1.93839E+01-6.50275E-04 1.23949E-03-4.71871E-02-7.90925E-17 3.42372E-13
 -1      1513 1.94587E+01-3.81387E-03-4.66164E-04-9.33174E-02-9.05653E-15 1.44922E-13
 -1      1514 1.95657E+01-8.62940E-04 1.08086E-03-4.22193E-02 2.69037E-14 3.93701E-13
 -1      1515 1.95036E+01-8.14031E-04 9.27701E-04-4.26967E-02 3.54212E-15 3.81623E-13
 -1      1516 1.95602E+01-3.53957E-03-3.31696E-04-8.53978E-02-1.31882E-14 2.39948E-13
 -1      1517 1.96696E+01-5.35047E-04 8.20679E-04-3.85971E-02 7.43121E-14 2.94178E-13
 -1      1518 1.96134E+01-6.20901E-04 7.09165E-04-3.89699E-02 5.76665E-14 3.49361E-13
 -1      1519 1.96564E+01-2.86799E-03-2.81484E-04-7.81477E-02 7.67011E-14 2.02035E-13
 -1      1520 1.97678E+01-7.69446E-05 5.76741E-04-3.66415E-02 7.87906E-14 1.38140E-13
 -1      1521 1.97156E+01-1.33608E-04 5.62058E-04-3.67191E-02 7.50801E-14 2.22387E-13
 -1      1522 1.97483E+01-1.89287E-03-3.09479E-04-7.31576E-02 1.54295E-13 1.67511E-13
 -1      1523 1.98653E+01 5.08584E-04 3.42487E-04-3.69519E-02 4.27366E-14-4.52420E-14
 -1      1524 1.98141E+01 6.22087E-04 4.72658E-04-3.65554E-02 6.87850E-14 6.79179E-14
 -1      1525 1.98388E+01-6.57658E-04-4.15418E-04-7.17316E-02 1.18584E-13-2.96458E-15
 -1      1526 1.99687E+01 1.23301E-03 1.09075E-04-4.01264E-02 7.87348E-16-8.84115E-14
 -1      1527 1.99148E+01 1.65081E-03 4.31441E-04-3.90687E-02 1.55455E-14-6.36301E-14
 -1      1528 1.99328E+01 8.33432E-04-6.05510E-04-7.50652E-02 6.12346E-14-9.10108E-14
 -1      1529 2.00863E+01 2.12008E-03-1.35370E-04-4.68254E-02-3.40846E-14-3.28685E-14
 -1      1530 2.00250E+01 2.98376E-03 4.31059E-04-4.48926E-02-3.78582E-14-6.76744E-14
 -1      1531 2.00365E+01 2.60864E-03-8.92934E-04-8.43842E-02-2.45686E-14-4.93659E-14
 -1      1532 2.02282E+01 3.20332E-03-4.06805E-04-5.78255E-02-2.12950E-14 2.70066E-14
 -1      1533 2.01539E+01 4.67575E-03 4.64552E-04-5.47588E-02-1.60247E-14-6.57737E-15
 -1      1534 2.01577E+01 4.72336E-03-1.29852E-03-1.01059E-01-4.62801E-14-1.90100E-14
 -1      1535 2.04068E+01 4.52136E-03-7.26694E-04-7.40575E-02-7.97947E-14 6.65979E-14
 -1      1536 2.03127E+01 6.80043E-03 5.23027E-04-6.95365E-02-2.09689E-14-1.06359E-14
 -1      1537 2.03061E+01 7.25366E-03-1.85140E-03-1.26690E-01-2.29985E-14-1.02663E-13
 -1      1538 2.06370E+01 6.10724E-03-1.12338E-03-9.66150E-02-1.10818E-14 1.83822E-14
 -1      1539 2.05147E+01 9.43924E-03 5.92129E-04-9.02457E-02-1.78378E-14 8.15643E-14
 -1      1540 2.04933E+01 1.02836E-02-2.58870E-03-1.63155E-01-3.71274E-14-5.81600E-14
 -1      1541 2.09366E+01 7.96490E-03-1.63164E-03-1.26697E-01-3.04459E-14 1.68719E-14
 -1      1542 2.07760E+01 1.26547E-02 6.46829E-04-1.18015E-01-3.90612E-14 2.89495E-14
 -1      1543 2.07327E+01 1.38768E-02-3.55238E-03-2.12556E-01-3.53402E-14 1.76334E-14
 -1      1544 2.13260E+01 1.00200E-02-2.28493E-03-1.65409E-01 5.82444E-14 1.36445E-14
 -1      1545 2.11154E+01 1.64307E-02 6.44898E-04-1.53919E-01 4.67356E-15 3.79549E-14
 -1      1546 2.10401E+01 1.80136E-02-4.77829E-03-2.76994E-01-7.94894E-15-4.92933E-16
 -1      1547 2.18271E+01 1.20232E-02-3.08639E-03-2.13280E-01 6.51907E-14-1.19577E-13
 -1      1548 2.15536E+01 2.05468E-02 5.22827E-04-1.98577E-01 5.22789E-14-2.02963E-16
 -1      1549 2.14323E+01 2.24587E-02-6.26703E-03-3.57950E-01 7.65243E-14 1.03095E-14
 -1      1550 2.24604E+01 1.33733E-02-3.92824E-03-2.69226E-01 6.92241E-14-2.54576E-13
 -1      1551 2.21118E+01 2.43360E-02 2.06710E-04-2.51290E-01 5.64783E-14-1.65180E-13
 -1      1552 2.19259E+01 2.65003E-02-7.91572E-03-4.54947E-01 1.02200E-13-2.61925E-13
 -1      1553 2.32376E+01 1.28317E-02-4.40804E-03-3.28574E-01-1.62637E-14-2.87454E-13
 -1      1554 2.28065E+01 2.62588E-02-3.32333E-04-3.08378E-01 6.41154E-15-2.68974E-13
 -1      1555 2.25333E+01 2.84780E-02-9.37561E-03-5.62903E-01 3.59443E-14-2.61991E-13
 -1      1556 2.41487E+01 8.15753E-03-3.49819E-03-3.79665E-01-1.11654E-14-2.50293E-13
 -1      1557 2.36403E+01 2.32750E-02-9.24796E-04-3.60308E-01-2.10741E-14-2.44457E-13
 -1      1558 2.32555E+01 2.50361E-02-9.79920E-03-6.67452E-01-3.41394E-14-1.43935E-13
 -1      1559 2.51382E+01-4.07771E-03 8.29034E-04-3.99044E-01-8.81707E-14-5.53516E-14
 -1      1560 2.45854E+01 1.02343E-02-9.19608E-04-3.87497E-01-2.14584E-14-1.39895E-13
 -1      1561 2.40697E+01 1.02868E-02-7.49916E-03-7.37778E-01-7.77342E-14 2.43468E-14
 -1      1562 2.60732E+01-2.76074E-02 1.14132E-02-3.47195E-01-1.72605E-15 1.74236E-14
 -1      1563 2.55567E+01-1.97272E-02 1.11338E-03-3.56159E-01-3.04279E-14-2.66731E-14
 -1      1564 2.49112E+01-2.42617E-02 1.39036E-04-7.18533E-01-5.34338E-14 8.10289E-14
 -1      1565 2.67127E+01-6.27050E-02 2.97112E-02-1.72189E-01-1.00815E-13 1.49688E-13
 -1      1566 2.63812E+01-7.13894E-02 7.06190E-03-2.19627E-01-9.74151E-14 3.56902E-14
 -1      1567 2.56516E+01-8.60913E-02 1.56932E-02-5.28253E-01-1.04257E-13 2.32344E-13
 -1      1568 2.67167E+01-9.81995E-02 5.00704E-02 1.63646E-01-2.39149E-14 1.85303E-13
 -1      1569 2.67808E+01-1.37203E-01 1.71404E-02 6.26183E-02 1.30260E-14 2.42875E-13
 -1      1570 2.60870E+01-1.70434E-01 3.80310E-02-8.34513E-02-6.28941E-14 2.97586E-13
 -1      1571 2.57621E+01-1.03505E-01 5.35271E-02 6.19840E-01 5.30340E-14 1.01377E-13
 -1      1572 2.64182E+01-1.82686E-01 2.54730E-02 4.74436E-01-3.13985E-16 1.00885E-13
 -1      1573 2.59676E+01-2.39497E-01 5.68556E-02 6.25411E-01-2.91434E-15 3.07457E-13
 -1      1574 2.38197E+01-4.06662E-02 1.36048E-02 1.00205E+00-3.96428E-14 9.27036E-14
 -1      1575 2.50718E+01-1.47296E-01 1.75262E-02 8.71868E-01-4.60569E-14 8.04912E-14
 -1      1576 2.51164E+01-2.12760E-01 5.08658E-02 1.40671E+00-4.21954E-14 1.43427E-13
 -1      1577 2.14758E+01 8.48073E-02-7.04206E-02 9.96449E-01 2.09902E-16 1.72459E-13
 -1      1578 2.29405E+01 4.22041E-03-1.91111E-02 9.79369E-01-1.36471E-14 1.42900E-13
 -1      1579 2.36549E+01-1.57701E-02 5.10332E-03 1.80757E+00-5.54444E-14-1.06859E-15
 -1      1580 1.98911E+01 1.85612E-01-1.39317E-01 4.34732E-01 8.66252E-14 6.66828E-14
 -1      1581 2.08478E+01 2.01256E-01-6.87762E-02 5.82249E-01 9.10869E-14 2.62970E-13
 -1      1582 2.21800E+01 2.96944E-01-5.72758E-02 1.35801E+00 7.30110E-14 3.24948E-14
 -1      1583 2.00437E+01 1.66006E-01-1.24543E-01-4.08831E-01 7.52870E-14-2.31315E-13
 -1      1584 1.99153E+01 2.87457E-01-8.72629E-02-1.77057E-01 7.13665E-14-7.89924E-14
 -1      1585 2.15345E+01 4.87860E-01-8.63732E-02 1.05534E-01 1.40235E-13-1.64016E-13
 -1      1586 2.18352E+01 4.60830E-02-3.67391E-02-9.83477E-01 3.26093E-14-4.56871E-13
 -1      1587 2.07059E+01 1.91514E-01-5.29321E-02-8.19688E-01 1.00329E-13-3.75214E-13
 -1      1588 2.21293E+01 3.61673E-01-6.62252E-02-1.20525E+00 2.01943E-13-3.65132E-13
 -1      1589 2.41786E+01-6.67395E-02 4.73667E-02-9.98990E-01 9.86184E-14-6.23585E-13
 -1      1590 2.27138E+01 1.29926E-02 3.60476E-03-9.77975E-01 4.29187E-14-5.10980E-13
 -1      1591 2.35515E+01 3.16828E-02-2.60206E-02-1.77766E+00 1.12260E-13-4.46490E-13
 -1      1592 2.59543E+01-1.05301E-01 7.99220E-02-6.14579E-01-3.33050E-14-5.98410E-13
 -1      1593 2.48316E+01-1.10976E-01 3.98362E-02-6.93367E-01-1.70228E-14-6.47260E-13
 -1      1594 2.49738E+01-2.27471E-01 4.56873E-03-1.46848E+00 4.57811E-14-5.48814E-13
 -1      1595 2.66893E+01-8.69016E-02 6.43186E-02-1.52343E-01 2.11272E-14-5.02119E-13
 -1      1596 2.61988E+01-1.38257E-01 4.38334E-02-2.53871E-01-2.11116E-14-3.82319E-13
 -1      1597 2.58062E+01-2.89098E-01 1.69338E-02-7.09916E-01-9.06081E-14-4.44447E-13
 -1      1598 2.64977E+01-5.03403E-02 3.30573E-02 1.89710E-01-5.40965E-14-3.92745E-13
 -1      1599 2.65707E+01-1.06347E-01 2.74485E-02 1.11927E-01-1.25594E-14-4.60583E-13
 -1      1600 2.59145E+01-2.17983E-01 1.59155E-02 2.65265E-02-1.15082E-14-8.53770E-14
 -1      1601 2.57247E+01-1.92321E-02 8.24396E-03 3.70572E-01-2.37039E-13-1.57714E-13
 -1      1602 2.61484E+01-6.02425E-02 9.26141E-03 3.26715E-01-1.37340E-13-2.44579E-13
 -1      1603 2.54585E+01-1.15724E-01 1.04572E-02 5.16887E-01-2.42625E-13 2.40100E-13
 -1      1604 2.46969E+01-1.53531E-04-5.09121E-03 4.27656E-01-8.74459E-14 3.90257E-13
 -1      1605 2.52714E+01-2.32818E-02-1.97246E-03 4.10158E-01-2.50992E-13-1.68442E-14
 -1      1606 2.46800E+01-3.59894E-02 5.70963E-03 7.48450E-01-4.01992E-13 3.95866E-13
 -1      1607 2.36340E+01 9.06214E-03-9.80862E-03 4.12864E-01-6.43005E-14 4.79176E-13
 -1      1608 2.42271E+01-6.50300E-04-6.32479E-03 4.10995E-01 3.66870E-14 5.38521E-13
 -1      1609 2.37829E+01 1.01015E-02 2.73815E-03 7.97272E-01-7.97917E-14 7.74755E-13
 -1      1610 2.26543E+01 1.24186E-02-1.00395E-02 3.64908E-01 1.75318E-13 2.21479E-13
 -1      1611 2.31973E+01 1.07720E-02-6.56341E-03 3.70670E-01 1.26794E-13 3.58224E-13
 -1      1612 2.29001E+01 3.07718E-02 1.15188E-03 7.44665E-01 1.67334E-13 5.00142E-13
 -1      1613 2.18092E+01 1.31662E-02-8.76647E-03 3.05530E-01 6.45677E-14 5.15560E-14
 -1      1614 2.22739E+01 1.56889E-02-5.18917E-03 3.14481E-01 2.62785E-14 3.61169E-14
 -1      1615 2.21028E+01 3.71191E-02 2.39811E-04 6.46893E-01 2.24044E-13 2.53698E-13
 -1      1616 2.11163E+01 1.34180E-02-7.75606E-03 2.43529E-01 1.66518E-13-1.82342E-13
 -1      1617 2.14943E+01 1.79977E-02-3.73781E-03 2.54012E-01 2.76137E-13 1.44279E-13
 -1      1618 2.14231E+01 3.75591E-02-6.53332E-04 5.33645E-01 2.19655E-13 1.77967E-13
 -1      1619 2.05827E+01 1.45318E-02-7.83895E-03 1.79331E-01-4.09048E-14-2.63923E-13
 -1      1620 2.08704E+01 2.04995E-02-3.03151E-03 1.91693E-01-6.15983E-14-3.66419E-13
 -1      1621 2.08728E+01 3.75040E-02-2.08186E-03 4.15056E-01 7.84039E-14 1.81813E-13
 -1      1622 2.02193E+01 1.73214E-02-7.67779E-03 1.07873E-01 3.60914E-14-3.77790E-13
 -1      1623 2.04084E+01 2.51424E-02-3.04214E-03 1.24580E-01 1.04582E-14-2.87371E-13
 -1      1624 2.04569E+01 4.07874E-02-3.96087E-03 2.89044E-01-3.59109E-14 7.41955E-14
 -1      1625 2.00412E+01 1.97893E-02 1.00816E-03 3.14579E-02 8.26770E-14-3.66733E-13
 -1      1626 2.01165E+01 2.85265E-02-1.76989E-03 5.06502E-02 3.23582E-14-4.99540E-13
 -1      1627 2.01762E+01 4.54973E-02-4.82923E-03 1.49381E-01 1.53791E-13 3.39550E-15
 -1      1628 2.00011E+01 8.80450E-03 4.50874E-03-2.82074E-03-1.72725E-13-1.75412E-13
 -1      1629 2.00282E+01 1.67975E-01-4.26250E-03 8.76848E-02 3.98528E-13 3.61041E-13
 -1      1630 2.00316E+01 8.44860E-02 1.39676E-03 6.77201E-02-9.46452E-14 4.97391E-13
 -1      1631 2.00163E+01 4.64653E-01-2.61313E-03 1.55532E-01 7.76110E-13 3.07715E-13
 -1      1632 2.00241E+01 2.92154E-01-2.81203E-03 1.44102E-01 5.94475E-13 2.55583E-13
 -1      1633 2.00529E+01 2.80515E-01-4.84967E-03 2.26971E-01 2.15881E-13 5.25025E-13
 -1      1634 2.00020E+01 8.41886E-01-6.69846E-04 1.87945E-01 5.79323E-13-2.64525E-13
 -1      1635 2.00104E+01 6.23521E-01-1.73076E-03 1.84568E-01 8.15370E-13-4.56492E-15
 -1      1636 2.00246E+01 5.62593E-01-3.49696E-03 3.29092E-01 2.91841E-13 5.74597E-14
 -1      1637 1.99895E+01 1.22996E+00 5.07741E-04 1.83237E-01 1.29730E-13-3.73346E-13
 -1      1638 1.99968E+01 1.01108E+00-3.93658E-04 1.87152E-01 5.03909E-13-1.60044E-13
 -1      1639 2.00004E+01 8.89999E-01 4.25898E-04 3.61961E-01 2.58637E-13-4.36949E-13
 -1      1640 1.99806E+01 1.55814E+00 9.29947E-04 1.48530E-01-6.06529E-13-5.24671E-13
 -1      1641 1.99857E+01 1.37924E+00 2.76010E-04 1.57544E-01-8.47152E-15-6.64855E-13
 -1      1642 1.99804E+01 1.20704E+00 3.91687E-03 3.28671E-01-7.90149E-14-9.48780E-13
 -1      1643 1.99755E+01 1.78876E+00 9.66113E-04 9.22051E-02-7.93784E-13 1.56412E-13
 -1      1644 1.99784E+01 1.67086E+00 5.88757E-04 1.04689E-01-7.89320E-13-1.35560E-13
 -1      1645 1.99667E+01 1.46696E+00 6.27408E-03 2.44256E-01-3.71331E-13-6.62237E-13
 -1      1646 1.99746E+01 1.88625E+00 7.58245E-04 2.55898E-02-6.88387E-13 5.82238E-14
 -1      1647 1.99750E+01 1.84652E+00 5.85891E-04 3.91018E-02-8.73877E-13 2.36147E-13
 -1      1648 1.99597E+01 1.63499E+00 7.48132E-03 1.26687E-01-6.34813E-13 5.01535E-14
 -1      1649 1.99774E+01 1.84445E+00 4.51623E-04-4.05672E-02-4.17302E-13 1.25961E-13
 -1      1650 1.99755E+01 1.88385E+00 4.77170E-04-2.80410E-02-5.49669E-13 3.73347E-13
 -1      1651 1.99593E+01 1.68864E+00 7.46436E-03-2.46219E-03-3.52565E-13 2.57171E-13
 -1      1652 1.99828E+01 1.67697E+00 1.25712E-04-9.72455E-02-4.68025E-13 3.81598E-14
 -1      1653 1.99793E+01 1.78544E+00 3.40832E-04-8.72712E-02-3.20631E-13-2.34263E-13
 -1      1654 1.99646E+01 1.62641E+00 6.42215E-03-1.23671E-01-1.00002E-13-6.61979E-14
 -1      1655 1.99897E+01 1.41279E+00-1.60359E-04-1.38113E-01-5.62883E-13-3.92270E-13
 -1      1656 1.99853E+01 1.57221E+00 2.51205E-04-1.31671E-01-3.11792E-13 9.96139E-14
 -1      1657 1.99738E+01 1.46292E+00 4.65788E-03-2.21486E-01-1.68631E-13 7.27508E-14
 -1      1658 1.99972E+01 1.09589E+00-3.71053E-04-1.59505E-01-1.07702E-12-1.91179E-13
 -1      1659 1.99924E+01 1.28033E+00 1.57305E-04-1.57010E-01-5.28695E-13-5.74075E-13
 -1      1660 1.99855E+01 1.22677E+00 2.57453E-03-2.85515E-01-3.89186E-13-6.65705E-13
 -1      1661 2.00049E+01 7.57213E-01-7.07763E-04-1.60830E-01-9.25081E-13 7.66352E-14
 -1      1662 1.99999E+01 9.48442E-01-3.88856E-05-1.62237E-01-1.03955E-12 1.12854E-13
 -1      1663 1.99979E+01 9.49094E-01 3.35522E-04-3.11557E-01-4.76403E-13-4.13730E-14
 -1      1664 2.00122E+01 4.45187E-01-1.37866E-03-1.41765E-01-6.75484E-13 4.25243E-14
 -1      1665 2.00075E+01 6.15115E-01-5.60299E-04-1.46917E-01-8.68193E-13 1.83494E-13
 -1      1666 2.00109E+01 6.61820E-01-1.85331E-03-2.98279E-01-4.04061E-13 2.28457E-13
 -1      1667 2.00207E+01 2.04549E-01-2.46196E-04-1.02833E-01-5.12501E-13 1.81986E-13
 -1      1668 2.00140E+01 3.25411E-01-1.70353E-03-1.11959E-01-7.07870E-13 1.74192E-13
 -1      1669 2.00243E+01 4.01227E-01-3.64515E-03-2.45737E-01-4.76122E-13 1.50861E-13
 -1      1670 2.00352E+01 8.13574E-02 2.65210E-03-7.04527E-02-4.21079E-13-5.88592E-14
 -1      1671 2.00329E+01 1.39493E-01-1.42427E-03-9.05769E-02-3.89865E-13-6.23096E-14
 -1      1672 2.00541E+01 2.19865E-01-2.89922E-03-1.90352E-01-5.62884E-13 2.65530E-13
 -1      1673 2.00982E+01 1.03800E-01 1.75047E-04-1.40455E-01-1.22857E-13 2.10099E-13
 -1      1674-6.21472E-01-1.46432E+01-1.65551E+00-1.13174E+00-9.71334E-13-6.32827E-14
 -1      1675-6.00203E-01-1.66161E+01-1.81408E+00 1.34304E-01-1.12838E-12-1.09690E-13
 -1      1676 1.14429E+00-8.60132E+00-1.27465E+00 1.60784E-01-2.94209E-13 2.68063E-13
 -1      1677 5.00219E-01-1.35503E+01-1.75304E+00-3.46594E-01-9.26592E-13 1.64348E-13
 -1      1678 8.05446E+00-1.32152E+00-5.30885E-01 4.78910E+00 4.60743E-13 7.25864E-13
 -1      1679 4.70744E+00-6.73499E+00-1.23718E+00 1.89816E+00 1.48770E-14 3.87357E-13
 -1      1680 1.82468E+01 4.45084E+00 2.02088E-01 9.53297E+00 8.20122E-13 1.03584E-12
 -1      1681 1.15609E+01 9.68775E-01-7.01325E-01 5.82147E+00 7.36744E-13 8.44436E-13
 -1      1682 3.39201E+01 5.76730E+00 1.03101E+00 1.20914E+01 7.08100E-13 1.05516E-12
 -1      1683 2.39329E+01 5.31953E+00 8.96767E-02 1.00369E+01 8.05467E-13 1.09224E-12
 -1      1684 4.79689E+01 4.88778E+00 1.71472E+00 1.03069E+01 3.93685E-13 1.11688E-12
 -1      1685 3.92056E+01 6.45417E+00 1.02547E+00 1.20407E+01 5.11757E-13 1.17995E-12
 -1      1686 5.57110E+01 3.72045E+00 1.98572E+00 3.09735E+00 2.68952E-13 7.50955E-13
 -1      1687 5.09832E+01 4.86483E+00 1.63401E+00 7.99688E+00 3.67373E-13 1.03362E-12
 -1      1688 5.54056E+01 4.05047E+00 1.98248E+00-5.43419E+00 3.67206E-13-1.55986E-13
 -1      1689 5.73432E+01 3.46768E+00 2.08178E+00 5.23541E-01 3.29736E-13 4.64240E-13
 -1      1690 4.49400E+01 5.82687E+00 1.35493E+00-1.11088E+01 4.96131E-13-6.51035E-13
 -1      1691 5.27427E+01 4.18422E+00 1.97642E+00-7.88813E+00 3.12597E-13-2.57128E-13
 -1      1692 3.02552E+01 6.01186E+00 4.60159E-01-1.10767E+01 6.57141E-13-9.16378E-13
 -1      1693 3.99092E+01 5.45546E+00 1.30660E+00-1.16244E+01 5.21694E-13-8.17790E-13
 -1      1694 1.63984E+01 3.85689E+00-3.66374E-01-8.16202E+00 6.29496E-13-7.42073E-13
 -1      1695 2.45068E+01 5.74195E+00 5.37655E-01-1.13651E+01 5.78426E-13-8.83738E-13
 -1      1696 6.78063E+00-2.38057E+00-1.09237E+00-3.29289E+00 5.38458E-13-4.26659E-13
 -1      1697 1.16177E+01 2.36890E+00-2.56029E-01-6.91990E+00 6.16840E-13-6.93556E-13
 -1      1698 1.96674E+00-1.03798E+01-1.57103E+00-2.77346E-01 8.90399E-13-2.77667E-13
 -1      1699 3.78401E+00-4.68032E+00-9.48091E-01-2.14683E+00 7.45848E-13-3.17857E-13
 -1      1700-2.90135E-01-1.60162E+01-1.89978E+00 5.56794E-01 8.83182E-13-1.56458E-13
 -1      1701-2.11965E-01-1.23167E+01-1.56930E+00 1.09288E+00 9.10050E-13-1.85303E-13
 -1      1702-7.52493E-01-1.68948E+01-1.85433E+00-4.65519E-01 6.32133E-13-1.11189E-13
 -1      1703-8.06588E-01-1.67416E+01-1.86386E+00 1.11032E+00 8.65419E-13-1.24983E-13
 -1      1704-1.69793E-01-1.23758E+01-1.47462E+00-5.45769E-01 2.79443E-13-1.71543E-13
 -1      1705-2.92841E-01-1.59553E+01-1.82003E+00 1.80333E-01 5.72542E-13-1.03167E-13
 -1      1706 3.48689E+00-4.83956E+00-8.38001E-01 2.38252E+00-1.34781E-13-3.47389E-13
 -1      1707 1.91610E+00-1.04667E+01-1.45510E+00 8.25388E-01 1.53988E-13-1.92929E-13
 -1      1708 1.10578E+01 2.09426E+00-1.69000E-01 6.87279E+00-3.94573E-13-4.09006E-13
 -1      1709 6.63147E+00-2.82731E+00-9.71401E-01 3.45996E+00-3.25073E-13-2.99982E-13
 -1      1710 2.21610E+01 6.29567E+00 5.49588E-01 1.13290E+01-4.79283E-13-7.94920E-13
 -1      1711 1.49663E+01 4.12439E+00-2.91156E-01 8.12580E+00-4.43645E-13-6.23168E-13
 -1      1712 3.61067E+01 6.36846E+00 1.16878E+00 1.26822E+01-4.61853E-13-7.64833E-13
 -1      1713 2.71552E+01 6.92798E+00 4.29464E-01 1.17679E+01-5.48561E-13-7.58948E-13
 -1      1714 4.80316E+01 4.62398E+00 1.57400E+00 8.76800E+00-3.59320E-13-6.44262E-13
 -1      1715 4.05486E+01 6.21584E+00 1.05882E+00 1.11852E+01-4.56718E-13-7.91145E-13
 -1      1716 5.48049E+01 3.46631E+00 1.86267E+00 2.32973E+00-2.22822E-13-4.67210E-13
 -1      1717 5.14330E+01 4.42143E+00 1.61992E+00 7.16826E+00-3.23158E-13-7.03437E-13
 -1      1718 5.33977E+01 3.94812E+00 1.74454E+00-5.21525E+00-7.24976E-14-2.68896E-13
 -1      1719 5.51591E+01 3.40944E+00 1.85348E+00-1.95959E-01-9.31477E-14-4.34201E-13
 -1      1720 4.49934E+01 5.78451E+00 1.33431E+00-1.08123E+01 2.94952E-13-2.91545E-13
 -1      1721 5.13145E+01 4.18744E+00 1.77597E+00-7.46817E+00 1.44190E-13-1.36002E-13
 -1      1722 3.21130E+01 6.63973E+00 6.37205E-01-1.16522E+01-5.34017E-14-2.83773E-13
 -1      1723 4.06672E+01 5.64976E+00 1.30726E+00-1.14630E+01 1.10689E-13-3.46612E-13
 -1      1724 1.95432E+01 5.27477E+00-4.71434E-02-9.57925E+00 1.22902E-13-7.51621E-14
 -1      1725 2.73104E+01 6.29021E+00 7.33244E-01-1.20022E+01-5.86198E-14-2.70006E-13
 -1      1726 9.35387E+00 2.37726E-01-7.47359E-01-5.15586E+00 4.68070E-13-2.03504E-13
 -1      1727 1.49474E+01 4.09400E+00 7.74609E-02-8.75264E+00 2.58349E-13 2.06946E-13
 -1      1728 2.99224E+00-7.11775E+00-1.37749E+00-1.21202E+00 3.22853E-13-3.98515E-13
 -1      1729 5.42390E+00-1.60067E+00-6.76948E-01-3.68001E+00 5.19584E-13-4.31211E-13
 -1      1730 3.97404E-01-1.37619E+01-1.75412E+00 1.94987E-01-2.45803E-13-2.32155E-13
 -1      1731 9.04712E-01-9.18687E+00-1.30656E+00-1.02046E-01 1.39888E-13-3.92270E-13
 -1      1732-6.16973E-01-1.70881E+01-1.89064E+00-4.55785E-01-1.02671E-12-2.66231E-13
 -1      1733-6.01633E-01-1.51051E+01-1.72139E+00 8.75356E-01-4.31433E-13-2.72116E-13
 -1      1734 2.57882E+01 2.07335E-01 2.26948E-01 6.91565E+00 4.85056E-13 7.18092E-13
 -1      1735 1.52674E+01-4.19230E+00-4.35244E-01 6.26627E+00 1.91513E-13 8.89400E-13
 -1      1736 2.00317E+01 2.80603E-02-1.75456E-03 2.95445E-02-1.82615E-13 1.98904E-13
 -1      1737 2.00766E+01 1.09261E-01-1.02701E-03 1.15804E-01 1.37826E-13 6.46034E-13
 -1      1738 5.14856E-01-1.02801E+01-1.17682E+00 2.13545E+00-5.50615E-13 2.59681E-13
 -1      1739 6.67835E+00-7.43074E+00-7.36814E-01 4.83009E+00-2.04725E-13 7.19501E-13
 -1      1740-1.38253E+00-1.14702E+01-1.31843E+00-1.47570E-01-6.08784E-13-3.08198E-13
 -1      1741 3.64778E+01 3.83074E+00 8.73537E-01 6.23480E+00 5.33518E-13 8.65308E-13
 -1      1742 4.45628E+01 6.40576E+00 1.40865E+00 4.09017E+00 4.07757E-13 8.95395E-13
 -1      1743 4.83572E+01 7.51975E+00 1.66718E+00 5.85433E-01 5.53502E-13 2.45928E-13
 -1      1744 4.76443E+01 6.89520E+00 1.66833E+00-2.86531E+00 5.74929E-13-3.47500E-14
 -1      1745 4.03120E+01 4.88858E+00 1.10113E+00-5.30190E+00 5.29191E-13-3.98126E-13
 -1      1746 3.04990E+01 2.08312E+00 5.53527E-01-6.85520E+00 2.98150E-13-5.08926E-13
 -1      1747 1.93286E+01-1.32259E+00-1.17737E-01-6.82249E+00 2.08056E-13-3.36176E-13
 -1      1748 9.84722E+00-5.65842E+00-6.90835E-01-5.27674E+00 4.10005E-13-1.27287E-13
 -1      1749 2.87074E+00-9.16296E+00-1.04961E+00-3.26366E+00 6.19393E-13-1.43607E-13
 -1      1750-9.45998E-01-1.16292E+01-1.35500E+00-8.35682E-01 5.78843E-13-1.92291E-13
 -1      1751-1.06726E+00-1.13882E+01-1.29772E+00 1.18855E+00 4.77035E-13-2.69895E-13
 -1      1752 2.51760E+00-8.83741E+00-9.53123E-01 3.73513E+00 3.27849E-13-3.01953E-13
 -1      1753 9.46245E+00-5.61171E+00-5.84203E-01 5.83571E+00 1.09912E-13-3.13555E-13
 -1      1754 1.80229E+01-1.39535E+00-1.29596E-01 7.08169E+00-9.81437E-14-4.13336E-13
 -1      1755 2.79161E+01 2.67917E+00 5.06512E-01 7.80067E+00-1.73972E-13-4.09339E-13
 -1      1756 3.72576E+01 5.21493E+00 1.00519E+00 6.44736E+00-2.70485E-13-5.35905E-13
 -1      1757 4.39988E+01 6.71363E+00 1.31082E+00 3.69502E+00-3.50331E-13-4.31488E-13
 -1      1758 4.75601E+01 7.19342E+00 1.55099E+00 5.30488E-01-2.58238E-13-4.95305E-13
 -1      1759 4.59868E+01 6.93187E+00 1.46395E+00-3.16468E+00-1.72085E-15-2.61013E-13
 -1      1760 3.99330E+01 5.61162E+00 1.06852E+00-5.58910E+00 1.16185E-13-1.94289E-13
 -1      1761 3.16436E+01 3.28048E+00 6.59572E-01-7.02386E+00 1.00309E-13-5.09925E-13
 -1      1762 2.20743E+01 1.30544E-01 1.68136E-01-7.36436E+00 3.38729E-13 1.59872E-14
 -1      1763 1.24421E+01-3.65981E+00-3.90784E-01-6.25787E+00 3.02647E-13-8.04357E-14
 -1      1764 4.75487E+00-7.71033E+00-9.31447E-01-4.20142E+00 1.39888E-14-4.94115E-13
 -1      1765 1.89148E-01-1.07768E+01-1.26767E+00-2.30687E+00-2.98872E-13-5.48672E-13
 -1      1766 2.28536E+01 1.98471E+00-2.35626E-02-2.72328E+00-1.61735E-13 5.15366E-13
 -1      1767 1.98207E+01 3.71834E+00-3.48942E-02-2.15683E+00-1.75979E-13-2.65232E-13
 -1      1768 2.00488E+01 3.56028E+00-4.29623E-02-2.44329E+00-2.10637E-13-1.97804E-13
 -1      1769 2.03614E+01 3.18214E+00-4.51866E-02-2.58671E+00-2.17752E-13-1.20681E-13
 -1      1770 2.05793E+01 2.80901E+00-1.42637E-01-2.85483E+00-2.42185E-13-1.53766E-14
 -1      1771 2.04267E+01 2.69089E+00-3.11250E-03-2.22306E+00-2.28467E-13-1.35399E-13
 -1      1772 1.93573E+01 4.18898E+00-2.01982E-02-1.27187E+00-8.74355E-14-3.45852E-13
 -1      1773 1.94298E+01 4.14916E+00-1.72007E-02-1.49642E+00-1.11688E-13-3.48221E-13
 -1      1774 1.92622E+01 4.29480E+00-1.68151E-02-8.60629E-01-3.03525E-14-3.43085E-13
 -1      1775 1.93042E+01 4.27077E+00-1.43770E-02-1.07159E+00-5.79766E-14-3.45576E-13
 -1      1776 1.95297E+01 3.78289E+00-9.30870E-03-1.12077E+00-8.13221E-14-3.25157E-13
 -1      1777 1.92116E+01 4.35534E+00-1.48178E-02-4.67335E-01 1.79742E-14-3.34869E-13
 -1      1778 1.92331E+01 4.34243E+00-1.33383E-02-6.67831E-01-5.61617E-16-3.39109E-13
 -1      1779 1.94340E+01 3.90335E+00-9.21988E-03-7.33992E-01-1.36483E-14-3.25217E-13
 -1      1780 1.91926E+01 4.38100E+00-1.36819E-02-8.37487E-02 7.12736E-14-3.19172E-13
 -1      1781 1.91988E+01 4.37706E+00-1.32319E-02-2.79397E-01 4.25575E-14-3.28473E-13
 -1      1782 1.93845E+01 3.96793E+00-9.15853E-03-3.58693E-01 3.45359E-14-3.19461E-13
 -1      1783 1.92005E+01 4.37568E+00-1.31834E-02 2.98437E-01 1.07596E-13-3.21076E-13
 -1      1784 1.91931E+01 4.38016E+00-1.37651E-02 1.02626E-01 9.35497E-14-3.23611E-13
 -1      1785 1.93700E+01 3.98736E+00-9.14173E-03 1.05521E-02 8.78906E-14-3.13239E-13
 -1      1786 1.92372E+01 4.33840E+00-1.33412E-02 6.87595E-01 1.33428E-13-3.03431E-13
 -1      1787 1.92143E+01 4.35215E+00-1.49264E-02 4.86596E-01 1.20675E-13-3.19068E-13
 -1      1788 1.93872E+01 3.96461E+00-9.18257E-03 3.79996E-01 1.21772E-13-3.08701E-13
 -1      1789 1.93096E+01 4.26485E+00-1.44216E-02 1.08564E+00 1.65375E-13-2.52152E-13
 -1      1790 1.92669E+01 4.28941E+00-1.69788E-02 8.77500E-01 1.41837E-13-2.79370E-13
 -1      1791 1.94393E+01 3.89701E+00-9.18982E-03 7.52547E-01 1.51021E-13-2.87555E-13
 -1      1792 1.94397E+01 4.13750E+00-1.74143E-02 1.51597E+00 2.20576E-13-1.85432E-13
 -1      1793 1.93641E+01 4.18019E+00-2.05007E-02 1.28631E+00 1.88890E-13-2.18811E-13
 -1      1794 1.95377E+01 3.77299E+00-9.23977E-03 1.13668E+00 1.90169E-13-2.16471E-13
 -1      1795 1.96670E+01 3.92086E+00-2.52034E-02 1.98124E+00 2.58071E-13-1.02036E-13
 -1      1796 1.95352E+01 3.99773E+00-2.68933E-02 1.72385E+00 2.32704E-13-1.55365E-13
 -1      1797 1.97094E+01 3.56583E+00-8.69705E-03 1.53670E+00 2.41631E-13-1.55259E-13
 -1      1798 2.00735E+01 3.52252E+00-4.51947E-02 2.47369E+00 2.79910E-13 5.71973E-14
 -1      1799 1.98345E+01 3.68304E+00-3.97077E-02 2.18462E+00 2.67180E-13-4.10297E-14
 -1      1800 2.00037E+01 3.22268E+00-5.27187E-03 1.93621E+00 2.74667E-13-6.08767E-14
 -1      1801 2.09167E+01 2.68166E+00-5.76568E-02 2.85920E+00 2.62445E-13 3.21965E-13
 -1      1802 2.04104E+01 3.09677E+00-5.04134E-02 2.61755E+00 2.66207E-13 1.69156E-13
 -1      1803 2.05147E+01 2.60978E+00 3.18599E-03 2.24619E+00 2.80896E-13 1.15796E-13
 -1      1804 2.17257E+01 1.21299E+00-1.22091E-01 2.33099E+00 2.05912E-13 6.29261E-13
 -1      1805 2.12699E+01 2.26296E+00 1.23053E-04 2.74175E+00 2.40457E-13 4.25687E-13
 -1      1806 2.09330E+01 1.68498E+00-2.29732E-02 2.14168E+00 2.64965E-13 3.22322E-13
 -1      1807 2.09466E+01 7.78682E-01-6.24686E-02 1.52536E+00 2.02172E-13 5.53800E-13
 -1      1808 2.17921E+01 2.45794E+00 9.09155E-02-3.04941E+00-2.15380E-13 1.80508E-13
 -1      1809 2.00951E+01 2.97922E-01-8.92840E-03 6.58245E-01 1.84918E-13 4.51346E-13
 -1      1810 2.06477E+01 4.40403E-01-1.24701E-02 1.03525E+00 1.76748E-13 5.09662E-13
 -1      1811 2.07395E+01 8.45125E-01 2.25779E-03 1.41654E+00 2.16476E-13 3.61898E-13
 -1      1812 2.15029E+01 1.74225E+00 7.95299E-02-2.33877E+00-2.29060E-13 1.04042E-13
 -1      1813 2.05152E+01 5.00819E-01 3.24952E-02-9.22956E-01-2.01630E-13 8.58527E-14
 -1      1814 2.00833E+01 3.52019E-01 7.65297E-03-6.31035E-01-1.69651E-13 4.09733E-14
 -1      1815 1.98886E+01 2.57258E-01 2.74447E-02-3.92694E-01-1.60013E-13 3.74267E-14
 -1      1816 1.96972E+01 1.78031E-01 1.04186E-02-2.54885E-01-1.32195E-13-1.23694E-14
 -1      1817 2.01942E+01 4.83321E-01-5.90847E-03-7.24274E-01-1.99036E-13-5.33679E-14
 -1      1818 1.95751E+01 1.32758E-01 1.66651E-02-1.21298E-01-8.99320E-14-3.48532E-14
 -1      1819 1.94966E+01 9.31616E-02 6.96232E-03-5.04732E-02-6.81690E-14-6.84578E-14
 -1      1820 1.98680E+01 2.43902E-01-5.81610E-03-2.97287E-01-1.47786E-13-5.97226E-14
 -1      1821 1.94317E+01 6.85628E-02 8.69953E-03 2.31947E-02-6.93454E-14-8.86708E-14
 -1      1822 1.94170E+01 4.69829E-02 4.13798E-03 5.95026E-02-6.92463E-14-1.13916E-13
 -1      1823 1.96853E+01 1.25447E-01-4.66767E-03-6.02423E-02-9.53872E-14-9.81036E-14
 -1      1824 1.93911E+01 3.27800E-02 4.26552E-03 9.85275E-02-6.10194E-14-1.07776E-13
 -1      1825 1.94109E+01 2.05295E-02 2.49051E-03 1.15603E-01-4.86836E-14-1.28264E-13
 -1      1826 1.95990E+01 6.14310E-02-3.49889E-03 6.98678E-02-7.32098E-14-1.31729E-13
 -1      1827 1.94098E+01 1.20996E-02 1.90179E-03 1.34138E-01-4.65392E-14-1.29056E-13
 -1      1828 1.94473E+01 5.20416E-03 1.54703E-03 1.40131E-01-3.76376E-14-1.46168E-13
 -1      1829 1.95755E+01 2.50898E-02-2.39373E-03 1.37349E-01-5.93337E-14-1.45940E-13
 -1      1830 1.94609E+01 3.09699E-04 6.23650E-04 1.46567E-01-2.92712E-14-1.29173E-13
 -1      1831 1.95064E+01-3.26321E-03 9.89263E-04 1.46306E-01-1.86225E-14-1.01678E-13
 -1      1832 1.95907E+01 4.37003E-03-1.51964E-03 1.67575E-01-2.25184E-14-1.47410E-13
 -1      1833 1.95284E+01-5.83613E-03-6.84485E-05 1.45944E-01-7.03133E-14-9.33812E-14
 -1      1834 1.95762E+01-7.22915E-03 6.68472E-04 1.42519E-01-4.94065E-14-1.00617E-13
 -1      1835 1.96283E+01-6.73645E-03-9.09622E-04 1.76045E-01-2.63919E-14-1.44388E-13
 -1      1836 1.96025E+01-8.20631E-03-4.17410E-04 1.38883E-01-5.74728E-14-1.28763E-13
 -1      1837 1.96498E+01-8.10826E-03 5.14729E-04 1.34378E-01-7.26291E-14-1.45969E-13
 -1      1838 1.96781E+01-1.15429E-02-5.23366E-04 1.72794E-01-8.29831E-14-1.46994E-13
 -1      1839 1.96781E+01-7.95005E-03-5.51705E-04 1.29902E-01-4.44168E-14-1.44829E-13
 -1      1840 1.97239E+01-6.79163E-03 4.89474E-04 1.25779E-01 2.91360E-15-1.32845E-13
 -1      1841 1.97339E+01-1.20301E-02-3.08401E-04 1.64611E-01-5.36524E-14-9.11943E-14
 -1      1842 1.97533E+01-5.79903E-03-5.47268E-04 1.22200E-01 5.92363E-15-1.52142E-13
 -1      1843 1.97978E+01-3.85316E-03 5.67952E-04 1.19524E-01 5.03422E-15-1.95902E-13
 -1      1844 1.97925E+01-9.43863E-03-2.20820E-04 1.56258E-01-2.29169E-14-1.23233E-13
 -1      1845 1.98282E+01-2.22715E-03-4.52911E-04 1.18126E-01 1.60473E-14-2.29059E-13
 -1      1846 1.98725E+01 3.30758E-04 7.32254E-04 1.17701E-01-2.39402E-14-2.35608E-13
 -1      1847 1.98531E+01-4.56484E-03-2.27702E-04 1.51186E-01-1.17769E-14-1.86205E-13
 -1      1848 1.99047E+01 2.44894E-03-3.01877E-04 1.19462E-01-4.09948E-14-2.16108E-13
 -1      1849 1.99507E+01 5.49639E-03 9.66964E-04 1.21913E-01-2.90075E-14-1.77929E-13
 -1      1850 1.99162E+01 2.06535E-03-3.04798E-04 1.51974E-01-1.43965E-14-1.77841E-13
 -1      1851 1.99856E+01 7.99103E-03-1.18152E-04 1.27584E-01-8.20351E-15-1.65436E-13
 -1      1852 2.00356E+01 1.14173E-02 1.25491E-03 1.33394E-01 1.08233E-14-1.23099E-13
 -1      1853 1.99839E+01 1.00695E-02-4.33626E-04 1.60590E-01-1.99444E-14-1.73319E-13
 -1      1854 2.00750E+01 1.41629E-02 7.93421E-05 1.43522E-01-1.44174E-14-1.10597E-13
 -1      1855 2.01317E+01 1.78235E-02 1.57213E-03 1.53016E-01-2.56583E-14-1.34508E-13
 -1      1856 2.00588E+01 1.90927E-02-5.98821E-04 1.78510E-01-1.32115E-15-1.37690E-13
 -1      1857 2.01772E+01 2.06434E-02 2.73595E-04 1.67900E-01-5.07376E-14-1.39372E-13
 -1      1858 2.02435E+01 2.43042E-02 1.88167E-03 1.81180E-01-4.09033E-14-1.71636E-13
 -1      1859 2.01443E+01 2.86796E-02-7.85842E-04 2.06693E-01-5.83407E-14-8.67191E-14
 -1      1860 2.02971E+01 2.69183E-02 4.47060E-04 2.00751E-01-3.34254E-15-1.90868E-13
 -1      1861 2.03755E+01 3.01848E-02 2.12609E-03 2.17563E-01-2.79341E-14-1.48275E-13
 -1      1862 2.02441E+01 3.81193E-02-9.78965E-04 2.45406E-01-1.27990E-14-6.27293E-14
 -1      1863 2.04389E+01 3.21450E-02 5.79946E-04 2.41175E-01-1.15769E-13-1.23099E-13
 -1      1864 2.05316E+01 3.43753E-02 2.21940E-03 2.60688E-01-5.32615E-14-9.14425E-14
 -1      1865 2.03620E+01 4.62506E-02-1.15944E-03 2.93865E-01-4.84010E-14-1.21924E-13
 -1      1866 2.06065E+01 3.49903E-02 6.49576E-04 2.86800E-01 2.13046E-15-1.38393E-13
 -1      1867 2.07145E+01 3.51998E-02 2.04039E-03 3.07293E-01 8.86341E-14-1.71589E-13
 -1      1868 2.05013E+01 5.12272E-02-1.30386E-03 3.49658E-01-5.64294E-14-4.30794E-14
 -1      1869 2.08017E+01 3.34620E-02 6.31368E-04 3.33039E-01 1.04443E-13-2.30841E-13
 -1      1870 2.09239E+01 3.02461E-02 1.43223E-03 3.51503E-01 3.02379E-14-2.43529E-13
 -1      1871 2.06645E+01 5.02698E-02-1.38247E-03 4.07926E-01 4.99784E-14-1.54068E-13
 -1      1872 2.10234E+01 2.47980E-02 5.01814E-04 3.72184E-01 1.24357E-14-2.15796E-13
 -1      1873 2.11555E+01 1.63386E-02 2.17195E-04 3.83886E-01 7.51203E-14-1.27187E-13
 -1      1874 2.08521E+01 3.94853E-02-1.35688E-03 4.60345E-01 4.69641E-14-1.47676E-13
 -1      1875 2.12657E+01 5.55662E-03 2.42723E-04 3.92490E-01 4.67438E-14-1.58849E-13
 -1      1876 2.13994E+01-1.01577E-02-1.75898E-03 3.90675E-01 4.77135E-14-1.64953E-13
 -1      1877 2.10622E+01 1.39479E-02-1.17526E-03 4.94040E-01 5.79301E-14-6.02794E-14
 -1      1878 2.15162E+01-2.78161E-02-1.56653E-04 3.77701E-01 7.29835E-14-2.40545E-13
 -1      1879 2.16374E+01-5.23402E-02-4.53511E-03 3.53763E-01 4.74753E-14-1.85815E-13
 -1      1880 2.12887E+01-3.15875E-02-7.63354E-04 4.90871E-01 3.54550E-14-2.52804E-13
 -1      1881 2.17537E+01-7.75141E-02-7.04151E-04 3.07878E-01 4.57987E-14-1.84687E-13
 -1      1882 2.18425E+01-1.10604E-01-7.87943E-03 2.52592E-01 2.08522E-14-1.90724E-13
 -1      1883 2.15201E+01-1.00751E-01-1.13597E-05 4.27896E-01 6.95393E-14-2.39519E-13
 -1      1884 2.19467E+01-1.41527E-01-1.41311E-03 1.62951E-01 3.17845E-14-1.90422E-13
 -1      1885 2.19787E+01-1.78999E-01-1.11019E-02 6.95587E-02 2.03088E-14-1.12007E-13
 -1      1886 2.17372E+01-1.91754E-01 1.23708E-03 2.80504E-01 5.05470E-14-3.36246E-13
 -1      1887 2.20537E+01-2.09414E-01-2.34168E-03-6.92027E-02-5.02307E-14-3.26715E-14
 -1      1888 2.20042E+01-2.40669E-01-1.29170E-02-1.99498E-01-2.77890E-14-1.55093E-14
 -1      1889 2.19117E+01-2.91532E-01 3.14471E-03 3.01833E-02 7.95778E-14-1.75698E-13
 -1      1890 2.20273E+01-2.58025E-01-3.51806E-03-3.79054E-01-1.36063E-14-2.29718E-15
 -1      1891 2.18796E+01-2.65487E-01-1.16834E-02-5.29800E-01 8.22389E-14 1.77488E-14
 -1      1892 2.20051E+01-3.69621E-01 5.70092E-03-3.21358E-01-1.99857E-14-6.54353E-14
 -1      1893 2.18273E+01-2.52433E-01-4.86526E-03-7.18758E-01 6.17991E-14-3.46255E-14
 -1      1894 2.15845E+01-2.16503E-01-6.22932E-03-8.53213E-01-1.00852E-14-2.46470E-14
 -1      1895 2.19732E+01-3.77975E-01 8.23660E-03-7.32499E-01 2.04259E-14-4.62167E-14
 -1      1896 2.14443E+01-1.58388E-01-5.55326E-03-9.93777E-01-2.97921E-14-1.63558E-14
 -1      1897 2.11391E+01-7.03299E-02 2.85451E-03-1.05901E+00-7.63732E-14 5.32586E-14
 -1      1898 2.17815E+01-2.66546E-01 9.05618E-03-1.10619E+00-1.92836E-15-8.90705E-14
 -1      1899 2.09290E+01 3.04120E-02-4.20764E-03-1.08036E+00-1.02903E-13 7.04038E-14
 -1      1900 2.06250E+01 1.52480E-01 1.20549E-02-1.02756E+00-1.02730E-13 7.36407E-14
 -1      1901 2.14350E+01-1.80592E-02 5.90833E-03-1.29808E+00-8.94759E-14-1.30161E-14
 -1      1902 2.04067E+01 2.65033E-01 5.09842E-04-8.81949E-01-1.97922E-13 8.66026E-14
 -1      1903 2.01834E+01 3.72694E-01 1.65883E-02-6.98768E-01-4.36907E-14 4.35945E-14
 -1      1904 2.10103E+01 3.13165E-01-1.91471E-03-1.16956E+00-1.00277E-13 7.98610E-14
 -1      1905 2.00459E+01 4.45275E-01 8.07526E-03-4.04631E-01 3.81856E-14-2.76341E-14
 -1      1906 1.99691E+01 4.83554E-01 1.39630E-02-1.37943E-01 8.66321E-14-3.19514E-15
 -1      1907 2.06562E+01 5.97928E-01-1.10884E-02-6.80109E-01-4.93338E-14 1.41925E-13
 -1      1908 1.99776E+01 4.76381E-01 1.49100E-02 2.09277E-01 8.36857E-14-1.50388E-13
 -1      1909 2.00701E+01 4.23494E-01 6.55441E-03 4.67642E-01 4.83285E-14-1.61123E-13
 -1      1910 2.05275E+01 6.97997E-01-1.47774E-02 4.31339E-02 2.48144E-14-1.45375E-13
 -1      1911 2.02182E+01 3.40361E-01 1.63694E-02 7.41637E-01-5.16167E-14-2.32411E-13
 -1      1912 2.04482E+01 2.25364E-01-8.17894E-04 9.04126E-01-1.17128E-13-2.07534E-13
 -1      1913 2.06836E+01 5.59523E-01-9.81001E-03 7.43040E-01-4.43699E-14-2.29857E-13
 -1      1914 2.06622E+01 1.10563E-01 1.07578E-02 1.01968E+00-1.44851E-13-1.93680E-13
 -1      1915 2.09587E+01-9.80725E-03-5.06819E-03 1.04887E+00-5.97453E-14-2.94089E-13
 -1      1916 2.10436E+01 2.54355E-01-3.79479E-04 1.17480E+00-1.18595E-13-2.71172E-13
 -1      1917 2.11506E+01-1.05855E-01 1.14849E-03 1.00014E+00 2.16483E-14-2.13498E-13
 -1      1918 2.14340E+01-1.86857E-01-6.07329E-03 9.16465E-01-3.81245E-14-1.15005E-13
 -1      1919 2.14455E+01-7.37607E-02 6.78800E-03 1.23843E+00-8.46003E-16-4.25883E-14
 -1      1920 2.15486E+01-2.37799E-01-7.53917E-03 7.58353E-01-9.65634E-14-1.05436E-13
 -1      1921 2.17591E+01-2.66332E-01-5.21572E-03 6.13649E-01-2.74542E-14-1.22714E-13
 -1      1922 2.17484E+01-3.04158E-01 9.18868E-03 9.96947E-01-1.03689E-14 3.33410E-14
 -1      1923 2.17845E+01-2.73599E-01-1.22954E-02 4.17211E-01-2.42124E-14-1.33652E-14
 -1      1924 2.18942E+01-2.61313E-01-3.88756E-03 2.63013E-01-1.45889E-13 9.14037E-15
 -1      1925 2.18878E+01-3.95424E-01 7.95959E-03 5.96430E-01-1.73229E-14 3.98199E-14
 -1      1926 2.18456E+01-2.40752E-01-1.28836E-02 8.25674E-02-2.45005E-13 1.40595E-14
 -1      1927 2.18555E+01-2.07432E-01-2.66774E-03-4.72960E-02-1.46935E-13-2.86095E-14
 -1      1928 2.18672E+01-3.72927E-01 5.36892E-03 1.76842E-01-1.97215E-13 2.33970E-13
 -1      1929 2.17571E+01-1.75730E-01-1.06530E-02-1.83934E-01-6.63879E-14-5.83338E-14
 -1      1930 2.16861E+01-1.37639E-01-1.61253E-03-2.75261E-01-4.34041E-14 3.73360E-14
 -1      1931 2.17246E+01-2.87969E-01 2.90717E-03-1.72895E-01-1.08175E-13 4.70393E-13
 -1      1932 2.15602E+01-1.05977E-01-7.23253E-03-3.61513E-01 1.55917E-13-1.09203E-13
 -1      1933 2.14348E+01-7.21443E-02-6.45242E-04-4.13764E-01 2.67177E-13-3.64392E-14
 -1      1934 2.15043E+01-1.85357E-01 1.04616E-03-4.16947E-01 1.18623E-14 4.49747E-13
 -1      1935 2.12985E+01-4.55189E-02-3.80479E-03-4.54762E-01 2.49799E-13-2.16205E-14
 -1      1936 2.11446E+01-1.87483E-02 3.39618E-04-4.73808E-01 3.38964E-13 2.26008E-13
 -1      1937 2.12448E+01-9.12677E-02-2.17272E-04-5.55080E-01 3.20794E-13 2.25843E-13
 -1      1938 2.10101E+01 2.17626E-03-1.00211E-03-4.78520E-01 3.45766E-13 1.21400E-13
 -1      1939 2.08503E+01 2.28487E-02 1.36588E-03-4.71327E-01 3.81896E-13 1.30590E-13
 -1      1940 2.09753E+01-1.49440E-02-1.04413E-03-6.03439E-01 2.56543E-13 2.01580E-13
 -1      1941 2.07253E+01 3.96191E-02 9.22827E-04-4.47917E-01 1.63269E-13 1.87002E-13
 -1      1942 2.05775E+01 5.65678E-02 2.31113E-03-4.19767E-01 5.68149E-14 7.27462E-14
 -1      1943 2.07165E+01 4.51082E-02-1.56766E-03-5.81162E-01 2.70985E-13 2.19440E-13
 -1      1944 2.04671E+01 7.10711E-02 1.88965E-03-3.74229E-01 7.54158E-14 1.18798E-13
 -1      1945 2.03448E+01 8.60422E-02 2.96946E-03-3.28358E-01-2.95892E-14 4.05355E-13
 -1      1946 2.04827E+01 9.45046E-02-1.72240E-03-5.03753E-01 7.62628E-14 3.55733E-13
 -1      1947 2.02613E+01 9.46785E-02 2.15107E-03-2.68106E-01 1.40864E-14 3.80873E-13
 -1      1948 2.01718E+01 1.05384E-01 3.64857E-03-2.10420E-01 5.98683E-14 4.16284E-13
 -1      1949 2.01464E+01 1.48011E-01-1.52618E-03-2.48713E-01-2.08822E-13 3.39974E-13
 -1      1950 2.02913E+01 1.33128E-01-1.96227E-03-3.86612E-01 3.16614E-14 5.62548E-13
 -1      1951 1.96116E+01 1.42017E-01 7.87620E-03 2.60648E-01 1.16024E-13 3.77729E-13
 -1      1952 1.98842E+01 2.04072E-01 1.64351E-02 4.33611E-01 1.47816E-13 4.27051E-13
 -1      1953 2.00967E+01 3.50533E-01-1.52605E-03 6.56427E-01 1.76048E-13 3.03941E-13
 -1      1954 1.93685E+01 7.19411E-02 6.94531E-03 5.76377E-02 8.27528E-14 3.08541E-13
 -1      1955 1.94840E+01 1.01804E-01 1.42023E-02 1.46144E-01 8.35929E-14 3.41384E-13
 -1      1956 1.97034E+01 1.65189E-01-1.94628E-03 2.57664E-01 1.11030E-13 2.59130E-13
 -1      1957 1.92775E+01 3.62620E-02 4.43508E-03-4.79854E-02 7.97669E-14 2.69233E-13
 -1      1958 1.93081E+01 5.20336E-02 8.35046E-03-7.41742E-04 7.74049E-14 2.79464E-13
 -1      1959 1.95027E+01 8.07708E-02-2.83143E-03 4.55253E-02 1.03830E-13 1.91902E-13
 -1      1960 1.92756E+01 1.65032E-02 2.87888E-03-1.00892E-01 1.98307E-14 1.77611E-13
 -1      1961 1.92606E+01 2.52857E-02 4.37659E-03-7.61219E-02 4.39620E-14 2.57857E-13
 -1      1962 1.94236E+01 3.77468E-02-2.85553E-03-6.67549E-02 5.74749E-14 1.28866E-13
 -1      1963 1.93234E+01 5.14380E-03 2.02069E-03-1.23818E-01 9.82686E-14 1.24569E-13
 -1      1964 1.92849E+01 1.00637E-02 2.18901E-03-1.12060E-01 4.03815E-14 1.36820E-13
 -1      1965 1.94175E+01 1.42255E-02-2.33712E-03-1.23112E-01 7.68618E-14 4.94702E-14
 -1      1966 1.93966E+01-1.25023E-03 1.50373E-03-1.29473E-01 3.40526E-14 1.33727E-13
 -1      1967 1.93474E+01 1.33708E-03 1.01461E-03-1.25374E-01 8.63261E-14 1.51865E-13
 -1      1968 1.94534E+01 1.10191E-03-1.73236E-03-1.47104E-01 7.84950E-14 7.35317E-14
 -1      1969 1.94807E+01-4.46151E-03 1.15915E-03-1.25651E-01 1.46348E-14 7.34594E-14
 -1      1970 1.94281E+01-3.35805E-03 3.75112E-04-1.25884E-01 1.81616E-14 1.16042E-13
 -1      1971 1.95118E+01-5.84611E-03-1.23209E-03-1.52475E-01 4.80066E-14 8.31382E-14
 -1      1972 1.95675E+01-5.51140E-03 9.26396E-04-1.17459E-01-7.11831E-14 1.36839E-13
 -1      1973 1.95153E+01-5.38338E-03 3.71402E-05-1.19807E-01-2.92364E-14 9.11658E-14
 -1      1974 1.95808E+01-8.82771E-03-8.70731E-04-1.47874E-01-2.08788E-14 8.09254E-14
 -1      1975 1.96529E+01-5.01815E-03 7.83400E-04-1.08424E-01 4.66889E-14 1.18693E-13
 -1      1976 1.96030E+01-5.54783E-03-1.11284E-04-1.11326E-01-1.35871E-14 1.26194E-13
 -1      1977 1.96536E+01-9.10887E-03-6.31664E-04-1.39080E-01-2.50246E-14 5.88529E-14
 -1      1978 1.97361E+01-3.35359E-03 7.21278E-04-1.01111E-01 1.35613E-13 1.14266E-13
 -1      1979 1.96886E+01-4.34304E-03-1.29770E-04-1.03406E-01 8.72345E-14 1.26839E-13
 -1      1980 1.97271E+01-7.44445E-03-4.91664E-04-1.30154E-01 8.37054E-14 2.18595E-16
 -1      1981 1.98182E+01-7.20024E-04 7.37291E-04-9.75189E-02 1.94787E-13 4.18149E-14
 -1      1982 1.97721E+01-2.05347E-03-5.30119E-05-9.82782E-02 1.77311E-13 9.71180E-14
 -1      1983 1.98006E+01-4.27184E-03-4.32395E-04-1.24120E-01 1.99688E-13 2.55540E-15
 -1      1984 1.99024E+01 2.80754E-03 8.33340E-04-9.93612E-02 1.15811E-13-1.73984E-14
 -1      1985 1.98557E+01 1.18607E-03 9.84573E-05-9.77655E-02 1.32982E-13 2.89543E-14
 -1      1986 1.98757E+01 1.93539E-04-4.41443E-04-1.23404E-01 1.61374E-13 3.19274E-14
 -1      1987 1.99933E+01 7.25586E-03 1.01550E-03-1.08272E-01-8.16022E-15-4.85875E-14
 -1      1988 1.99433E+01 5.35702E-03 3.13305E-04-1.03519E-01 4.36069E-14-6.60056E-14
 -1      1989 1.99553E+01 5.90494E-03-5.11304E-04-1.30155E-01 8.92617E-14-3.95435E-14
 -1      1990 2.00971E+01 1.27352E-02 1.29342E-03-1.25977E-01-5.46593E-14 3.23125E-15
 -1      1991 2.00401E+01 1.05354E-02 5.86332E-04-1.17200E-01-3.05251E-14-2.00785E-14
 -1      1992 2.00437E+01 1.29508E-02-6.38379E-04-1.46482E-01-3.55173E-14-1.06670E-13
 -1      1993 2.02212E+01 1.94199E-02 1.67885E-03-1.54417E-01 2.52943E-14-6.85374E-14
 -1      1994 2.01529E+01 1.68728E-02 9.15805E-04-1.40624E-01-1.58972E-14-2.09667E-14
 -1      1995 2.01468E+01 2.15272E-02-8.22141E-04-1.74641E-01 3.22347E-14-4.26833E-14
 -1      1996 2.03749E+01 2.75176E-02 2.18192E-03-1.95835E-01 2.05114E-14-1.57551E-13
 -1      1997 2.02898E+01 2.45714E-02 1.30022E-03-1.75863E-01 1.96525E-14-1.23135E-13
 -1      1998 2.02713E+01 3.19036E-02-1.06461E-03-2.17163E-01 5.87273E-14-1.19038E-13
 -1      1999 2.05689E+01 3.72053E-02 2.80330E-03-2.52770E-01-1.14614E-13-7.85024E-14
 -1      2000 2.04607E+01 3.38359E-02 1.73347E-03-2.25274E-01-7.89340E-14-1.84656E-13
 -1      2001 2.04256E+01 4.43584E-02-1.37019E-03-2.76899E-01-1.94360E-14-1.68232E-13
 -1      2002 2.08156E+01 4.84958E-02 3.51840E-03-3.27889E-01-5.52401E-14-5.92831E-14
 -1      2003 2.06769E+01 4.47733E-02 2.19686E-03-2.91407E-01-6.86528E-14-6.41266E-14
 -1      2004 2.06191E+01 5.90469E-02-1.74616E-03-3.56921E-01-1.00659E-13-1.20948E-13
 -1      2005 2.11285E+01 6.09664E-02 4.24864E-03-4.23478E-01 4.53025E-14-5.50584E-14
 -1      2006 2.09512E+01 5.71867E-02 2.64621E-03-3.76663E-01 1.01802E-14-2.42880E-14
 -1      2007 2.08623E+01 7.57291E-02-2.20420E-03-4.60128E-01-2.86852E-14-1.11715E-13
 -1      2008 2.15215E+01 7.32351E-02 4.81511E-03-5.40296E-01 1.43778E-13-1.56520E-13
 -1      2009 2.12974E+01 7.01690E-02 2.99300E-03-4.82463E-01 7.81614E-14-4.49903E-14
 -1      2010 2.11663E+01 9.32319E-02-2.76299E-03-5.88307E-01 1.15280E-13-1.05108E-13
 -1      2011 2.20065E+01 8.20219E-02 4.87715E-03-6.75259E-01 7.33285E-14-2.79130E-13
 -1      2012 2.17287E+01 8.13502E-02 3.08251E-03-6.07531E-01 1.26800E-13-2.43066E-13
 -1      2013 2.15418E+01 1.08453E-01-3.44938E-03-7.40200E-01 1.97936E-13-1.89226E-13
 -1      2014 2.25893E+01 8.06457E-02 3.88174E-03-8.17192E-01-6.83201E-14-1.28500E-13
 -1      2015 2.22555E+01 8.56269E-02 2.68279E-03-7.44659E-01-4.85965E-14-2.43924E-13
 -1      2016 2.19976E+01 1.14674E-01-4.28877E-03-9.07882E-01-1.26075E-14-1.77108E-13
 -1      2017 2.32630E+01 5.70987E-02 1.11283E-03-9.39856E-01-1.57380E-13 5.19862E-14
 -1      2018 2.28804E+01 7.33243E-02 1.51594E-03-8.75222E-01-7.32081E-14-1.44802E-14
 -1      2019 2.25373E+01 9.91305E-02-5.26226E-03-1.07064E+00-1.19966E-13 2.74893E-14
 -1      2020 2.39977E+01-7.03438E-03-3.98369E-03-9.92396E-01-6.88042E-14 1.25370E-13
 -1      2021 2.35908E+01 2.84369E-02-5.93008E-04-9.61102E-01-1.11035E-13 8.13611E-14
 -1      2022 2.31560E+01 4.06183E-02-6.17704E-03-1.18590E+00-1.11828E-13 1.27177E-13
 -1      2023 2.47284E+01-1.32758E-01-1.09730E-02-8.91055E-01-1.04036E-13 2.52669E-13
 -1      2024 2.43479E+01-7.05403E-02-3.51298E-03-9.35967E-01-7.80456E-14 2.02941E-13
 -1      2025 2.38340E+01-8.94059E-02-6.41945E-03-1.17911E+00-6.81469E-14 1.97137E-13
 -1      2026 2.53436E+01-3.25820E-01-1.71020E-02-5.25746E-01-1.64022E-13 3.48474E-13
 -1      2027 2.50711E+01-2.40049E-01-6.49420E-03-7.04028E-01-1.20692E-13 2.55298E-13
 -1      2028 2.45277E+01-3.13560E-01-4.63849E-03-9.40561E-01-9.99947E-14 3.47968E-13
 -1      2029 2.56830E+01-5.37146E-01-1.72237E-02 1.89221E-01-7.14324E-14 4.17769E-13
 -1      2030 2.56218E+01-4.61165E-01-8.79574E-03-1.67426E-01-1.06623E-13 3.93797E-13
 -1      2031 2.51532E+01-6.08869E-01 1.05161E-03-3.51102E-01-1.20886E-13 4.65591E-13
 -1      2032 2.55627E+01-6.16150E-01-7.38770E-03 1.18893E+00 5.16635E-14 3.74634E-13
 -1      2033 2.58016E+01-6.29081E-01-1.05948E-02 6.87609E-01 6.64330E-14 4.38063E-13
 -1      2034 2.55653E+01-8.42965E-01 1.05970E-02 6.27985E-01 3.23335E-14 5.54749E-13
 -1      2035 2.48622E+01-3.44608E-01 3.47579E-03 2.08646E+00-3.11001E-14 8.55219E-14
 -1      2036 2.54087E+01-5.33408E-01-1.44827E-02 1.64043E+00-1.09825E-14 2.12823E-13
 -1      2037 2.55627E+01-7.46208E-01 1.69204E-02 1.78516E+00 8.14487E-14 3.76206E-13
 -1      2038 2.37177E+01 3.24640E-01-8.43554E-03 2.19659E+00 2.42237E-14-1.66624E-13
 -1      2039 2.44281E+01-4.97385E-03-2.14834E-02 2.14725E+00 1.61156E-15-6.34458E-14
 -1      2040 2.50168E+01-9.32499E-02 1.17761E-03 2.51587E+00 1.04597E-13-2.25098E-14
 -1      2041 2.27228E+01 9.84567E-01-4.29360E-02 1.07393E+00 1.55570E-13-2.12740E-13
 -1      2042 2.32769E+01 7.55006E-01-2.17778E-02 1.61469E+00 1.00371E-13-2.11404E-13
 -1      2043 2.41578E+01 9.06923E-01-3.59556E-02 2.05675E+00 1.58540E-13-2.47772E-13
 -1      2044 2.26358E+01 1.02760E+00-6.26188E-02-7.55598E-01 1.83159E-13-2.49051E-13
 -1      2045 2.26934E+01 1.12854E+00-1.06030E-02 8.62470E-02 2.26409E-13-1.03362E-13
 -1      2046 2.36517E+01 1.52680E+00-5.23888E-02 3.14939E-01 2.06779E-13-2.14124E-13
 -1      2047 2.35676E+01 4.09751E-01-4.17034E-02-2.06528E+00 2.21843E-13-3.35405E-13
 -1      2048 2.30706E+01 7.50319E-01-3.89125E-03-1.48780E+00 1.92825E-13-2.85268E-13
 -1      2049 2.39654E+01 1.19524E+00-2.86795E-02-1.62881E+00 2.93647E-13-1.66932E-13
 -1      2050 2.48081E+01-2.86039E-01-2.42848E-03-2.15064E+00 1.98730E-13-4.30628E-13
 -1      2051 2.40669E+01 1.84214E-03-9.97080E-03-2.11198E+00 1.44442E-13-3.31159E-13
 -1      2052 2.47750E+01 1.92039E-01-9.80111E-03-2.49277E+00 1.96732E-13-1.71568E-13
 -1      2053 2.56147E+01-5.96079E-01 2.53591E-02-1.32571E+00-1.63307E-13-4.11664E-13
 -1      2054 2.50126E+01-5.19526E-01-1.83115E-02-1.66488E+00 6.41570E-14-4.31898E-13
 -1      2055 2.54031E+01-6.32548E-01-1.51111E-03-2.03507E+00 1.49573E-13-1.94643E-13
 -1      2056 2.57455E+01-5.44379E-01 2.50560E-02-2.98114E-01-9.75400E-14-1.33273E-13
 -1      2057 2.54865E+01-6.14868E-01-2.01806E-02-7.21621E-01-2.35978E-13-3.14840E-13
 -1      2058 2.55008E+01-8.90613E-01-7.88134E-03-9.09626E-01-2.17579E-13-9.39873E-15
 -1      2059 2.53449E+01-3.45621E-01 1.27239E-02 4.84297E-01-2.06734E-13 1.74921E-13
 -1      2060 2.54238E+01-4.55309E-01-1.74537E-02 1.57724E-01-8.60492E-14 3.40431E-14
 -1      2061 2.51461E+01-7.20039E-01-1.25939E-02 1.64723E-01-2.10516E-13 6.21387E-14
 -1      2062 2.46419E+01-1.53474E-01 2.05260E-03 9.13320E-01-4.16301E-13 5.27531E-13
 -1      2063 2.49522E+01-2.42491E-01-1.20479E-02 7.29530E-01-3.08508E-13 3.77899E-13
 -1      2064 2.45301E+01-4.15849E-01-1.11933E-02 8.79659E-01-4.87433E-13 3.96138E-13
 -1      2065 2.38242E+01-2.45293E-02-3.51185E-03 1.05980E+00-3.96994E-13 4.62361E-13
 -1      2066 2.42487E+01-7.78130E-02-5.97150E-03 9.91429E-01-4.28682E-13 4.45961E-13
 -1      2067 2.38096E+01-1.56688E-01-6.63810E-03 1.21915E+00-3.90965E-13 3.17884E-13
 -1      2068 2.30094E+01 4.42078E-02-5.02197E-03 1.03464E+00 6.04405E-15 7.16675E-13
 -1      2069 2.34607E+01 1.94103E-02-1.04722E-03 1.03769E+00-1.79869E-13 5.42507E-13
 -1      2070 2.30806E+01 5.51159E-03-2.78190E-03 1.29149E+00-2.46629E-13 4.11433E-13
 -1      2071 2.22612E+01 7.34391E-02-4.41091E-03 9.24941E-01 4.36968E-13 5.64178E-13
 -1      2072 2.26870E+01 6.56340E-02 2.26908E-03 9.64204E-01 2.32055E-13 6.74109E-13
 -1      2073 2.23963E+01 8.66427E-02-5.95645E-04 1.21150E+00 2.32285E-13 6.00590E-13
 -1      2074 2.16098E+01 8.26584E-02-3.00712E-03 7.82439E-01 1.38816E-13 4.45875E-13
 -1      2075 2.19837E+01 8.26373E-02 4.14994E-03 8.36846E-01 3.79904E-13 5.93829E-13
 -1      2076 2.17848E+01 1.18361E-01 2.44185E-04 1.06014E+00 3.68695E-13 7.14626E-13
 -1      2077 2.10670E+01 8.56104E-02-1.54532E-03 6.30323E-01 3.26966E-13 5.18692E-13
 -1      2078 2.13778E+01 8.74124E-02 4.98175E-03 6.90655E-01 1.52029E-13 4.83343E-13
 -1      2079 2.12592E+01 1.27434E-01 2.79827E-04 8.82209E-01 2.00972E-13 8.12343E-13
 -1      2080 2.06365E+01 9.07132E-02-4.48047E-04 4.73452E-01-4.14833E-14 2.02681E-13
 -1      2081 2.08799E+01 9.07745E-02 4.98949E-03 5.38319E-01 1.36928E-13 2.35401E-13
 -1      2082 2.08242E+01 1.31281E-01-2.87347E-04 6.95411E-01 2.43479E-13 5.88650E-13
 -1      2083 2.03205E+01 1.02633E-01 1.36813E-03 3.07157E-01 1.72778E-13 2.92291E-13
 -1      2084 2.04917E+01 9.84111E-02 4.03320E-03 3.79632E-01-6.41809E-14 2.65947E-13
 -1      2085 2.04792E+01 1.40930E-01-8.39920E-04 5.02175E-01-8.75753E-14 3.91910E-13
 -1      2086 2.01406E+01 1.13233E-01 3.22380E-03 1.74569E-01 5.15241E-14 5.58940E-13
 -1      2087 2.02497E+01 1.12551E-01 2.96592E-03 2.52366E-01 8.83445E-14 4.31741E-13
 -1      2088 2.02564E+01 1.57540E-01-1.35654E-03 3.42381E-01 5.39167E-14 7.19491E-13
 -1      2089 2.01280E+01 1.69698E-01-5.14099E-04 2.20148E-01 2.24788E-14 9.67681E-13
 -1      2090 1.99775E+01 9.32667E-01-2.85886E-03 4.87745E-01 1.27189E-13-5.45972E-13
 -1      2091 2.00125E+01 7.77790E-01 2.05284E-03 4.90436E-01 1.96265E-13-2.58315E-13
 -1      2092 2.00479E+01 6.38567E-01-1.31544E-03 4.73227E-01 7.77707E-14-2.59864E-14
 -1      2093 2.00840E+01 4.91066E-01 3.29311E-03 4.33966E-01 4.06441E-14 1.91059E-13
 -1      2094 2.00461E+01 6.90614E-01 7.41817E-04 6.11218E-01-6.00316E-14-8.55222E-14
 -1      2095 2.01004E+01 3.86599E-01 4.28299E-05 3.73611E-01-2.61011E-14 3.40255E-13
 -1      2096 2.01254E+01 2.64298E-01 3.14636E-03 3.01986E-01-7.71616E-14 7.25331E-13
 -1      2097 2.01802E+01 2.61043E-01 2.34667E-03 3.68451E-01-1.98890E-13 6.21477E-13
 -1      2098 2.01253E+01 4.53434E-01-8.70850E-04 5.21548E-01-1.89820E-13 3.49594E-13
 -1      2099 1.99216E+01 1.19443E+00-4.15931E-03 4.22683E-01-1.68185E-13-1.14614E-12
 -1      2100 1.99485E+01 1.05691E+00-6.12219E-04 4.59093E-01-5.55404E-14-8.68139E-13
 -1      2101 1.99472E+01 9.51982E-01 2.28681E-03 5.95658E-01-1.25484E-13-9.96770E-13
 -1      2102 1.98834E+01 1.39768E+00-4.96809E-03 2.94526E-01-2.78782E-13-5.52079E-13
 -1      2103 1.99005E+01 1.29367E+00-2.99010E-03 3.56264E-01-1.67123E-13-8.43657E-13
 -1      2104 1.98700E+01 1.17552E+00 3.83417E-03 4.87947E-01-4.19025E-14-1.05649E-12
 -1      2105 1.98668E+01 1.51132E+00-5.05117E-03 1.29512E-01-3.62641E-13 1.47651E-13
 -1      2106 1.98726E+01 1.45709E+00-4.82659E-03 2.04126E-01-2.25186E-13 5.22542E-15
 -1      2107 1.98211E+01 1.33461E+00 4.89211E-03 3.10915E-01 2.99454E-14-3.75331E-13
 -1      2108 1.98710E+01 1.52396E+00-4.47901E-03-4.45619E-02-2.92402E-13 3.05268E-13
 -1      2109 1.98663E+01 1.52496E+00-5.77022E-03 3.07818E-02-3.64207E-13 2.89866E-13
 -1      2110 1.98038E+01 1.40822E+00 5.15983E-03 9.79239E-02-1.56249E-13 1.64269E-13
 -1      2111 1.98922E+01 1.43923E+00-3.42581E-03-2.02453E-01-5.28501E-14 1.96711E-14
 -1      2112 1.98793E+01 1.49271E+00-5.75290E-03-1.36864E-01-2.37477E-13 1.70566E-13
 -1      2113 1.98159E+01 1.39084E+00 4.66532E-03-1.16889E-01-3.22158E-13 3.24709E-13
 -1      2114 1.99249E+01 1.27366E+00-2.12358E-03-3.24870E-01-1.92146E-13-4.46065E-14
 -1      2115 1.99069E+01 1.37010E+00-4.86258E-03-2.76638E-01-3.22865E-14-1.20878E-13
 -1      2116 1.98513E+01 1.29026E+00 3.58459E-03-3.03755E-01-1.92423E-13 1.17267E-14
 -1      2117 1.99629E+01 1.05664E+00-6.42413E-04-3.99326E-01-1.85786E-13-7.83124E-13
 -1      2118 1.99428E+01 1.17954E+00-3.40790E-03-3.72859E-01-1.94813E-13-3.24470E-13
 -1      2119 1.99018E+01 1.12625E+00 2.27801E-03-4.40437E-01-5.70304E-14-2.66820E-13
 -1      2120 2.00033E+01 8.09023E-01 8.28467E-04-4.23593E-01-7.44214E-14 2.74601E-13
 -1      2121 1.99825E+01 9.46467E-01-1.73054E-03-4.19625E-01-1.38616E-13-1.40174E-13
 -1      2122 1.99591E+01 9.21357E-01 8.46385E-04-5.16776E-01 1.49990E-13-4.46020E-13
 -1      2123 2.00424E+01 5.62968E-01 2.12802E-03-3.96108E-01-1.89444E-13 1.67256E-13
 -1      2124 2.00224E+01 6.96381E-01-1.44454E-04-4.14829E-01-1.71984E-13 2.16308E-13
 -1      2125 2.00184E+01 6.98052E-01-4.80765E-04-5.29402E-01 1.21681E-13 2.38189E-13
 -1      2126 2.00790E+01 3.37563E-01 1.32442E-03-3.20952E-01-3.96547E-13 3.49404E-14
 -1      2127 2.00597E+01 4.56500E-01 6.26282E-04-3.60836E-01-2.97425E-13 1.18551E-14
 -1      2128 2.00764E+01 4.80726E-01-1.03030E-03-4.80402E-01-2.27928E-13 5.56673E-14
 -1      2129 1.06435E+01-5.68845E+00-2.02389E-01 6.29241E+00-1.29063E-13 7.52627E-13
 -1      2130 6.44079E+00-7.07977E+00-4.55548E-01 4.90147E+00-3.96239E-13 8.02747E-13
 -1      2131 6.10570E-01-6.35618E+00-2.54284E-01 4.45882E-01-2.03032E-13-1.76192E-13
 -1      2132 6.25974E-01-6.79165E+00-3.22188E-01-1.20658E+00-1.78177E-13-4.28213E-13
 -1      2133 3.69953E+00-6.58030E+00-2.85906E-01 4.06165E+00-3.68594E-13 4.60521E-13
 -1      2134 1.62734E+00-7.03095E+00-3.66735E-01 2.54581E+00-2.78388E-13 1.08136E-13
 -1      2135 2.06686E+01-3.74590E+00 5.08928E-02 6.53045E+00 7.96030E-14 7.70328E-13
 -1      2136 1.62951E+01-5.45682E+00-1.31647E-01 6.19871E+00-9.14269E-14 7.32192E-13
 -1      2137 2.90475E+01-1.10445E+00 1.36909E-01 5.17896E+00 3.33844E-13 4.68736E-13
 -1      2138 2.38329E+01-3.03614E+00-1.83440E-01 5.28340E+00 1.50879E-13 5.90861E-13
 -1      2139 2.44008E+01-4.97817E+00-1.11521E-02 4.89487E+00-5.25691E-14 4.80727E-13
 -1      2140 1.95236E+01 4.01585E+00-2.56565E-02-1.70245E+00-1.33960E-13-3.33844E-13
 -1      2141 1.96509E+01 3.94222E+00-2.43592E-02-1.95767E+00-1.58525E-13-3.02820E-13
 -1      2142 1.99722E+01 3.25287E+00-8.05776E-03-1.91079E+00-1.86953E-13-2.65954E-13
 -1      2143 1.96948E+01 3.58289E+00-9.29297E-03-1.51908E+00-1.31791E-13-3.20922E-13
 -1      2144 4.02299E+01 5.81520E+00 3.13414E-01 1.04208E+00 3.39950E-13 3.59712E-13
 -1      2145 3.83425E+01 4.69641E+00 2.76369E-01 2.30602E+00 3.17413E-13 6.47038E-13
 -1      2146 4.11842E+01 7.12270E+00 3.67255E-01-2.38385E-01 6.29108E-13 4.91621E-14
 -1      2147 3.99560E+01 7.07649E+00 2.39904E-01 5.66267E-01 5.18696E-13 1.71252E-13
 -1      2148 3.98138E+01 6.05065E+00 2.83024E-01-1.41770E+00 5.32796E-13 1.10023E-13
 -1      2149 4.14790E+01 6.66459E+00 3.56288E-01-3.89088E-01 5.36904E-13 1.71807E-13
 -1      2150 3.65223E+01 7.89255E+00 3.49357E-01 2.87998E-01 5.28133E-13 2.42813E-13
 -1      2151 3.49052E+01 2.75936E+00 7.37640E-02-2.73220E+00 3.69052E-13-8.88178E-15
 -1      2152 3.91246E+01 4.33901E+00 4.13084E-01-2.38018E+00 5.28688E-13 1.63647E-13
 -1      2153 2.75718E+01-1.22709E+00-9.67857E-02-4.76655E+00 5.93969E-14-2.57683E-13
 -1      2154 3.23302E+01 3.84838E-01 1.60360E-01-4.19297E+00 1.52239E-13-1.90514E-13
 -1      2155 1.92563E+01-3.95105E+00-2.78440E-01-5.78249E+00 1.80966E-14-1.96232E-13
 -1      2156 2.44928E+01-2.05007E+00 8.16165E-02-6.25343E+00 2.17604E-14-2.13329E-13
 -1      2157 2.77791E+01-3.26758E+00 1.12046E-01-3.88264E+00-9.33698E-14-1.61648E-13
 -1      2158 1.07675E+01-6.30763E+00-3.43136E-01-5.70204E+00 2.87881E-13 2.02286E-13
 -1      2159 1.50344E+01-4.61946E+00-1.05296E-01-6.59968E+00 1.46771E-13 3.45557E-14
 -1      2160 3.59688E+00-7.28692E+00-4.30343E-01-3.73152E+00 3.70259E-13-7.67164E-14
 -1      2161 6.65807E+00-5.93000E+00-1.92450E-01-5.33875E+00 3.23963E-13 1.05943E-13
 -1      2162 2.52244E-01-7.69375E+00-4.65746E-01-8.77034E-01 3.23352E-13-1.65479E-13
 -1      2163 1.26817E+00-7.21500E+00-3.87547E-01-2.28728E+00 3.35287E-13-1.11688E-13
 -1      2164 9.25395E-01-6.89531E+00-3.44029E-01 2.35254E+00 2.96929E-13-1.93734E-13
 -1      2165 1.10956E-01-7.62678E+00-4.62422E-01 8.29045E-01 3.25760E-13-1.40665E-13
 -1      2166 5.82473E+00-5.59742E+00-1.79385E-01 5.60425E+00 3.25961E-13-2.50272E-13
 -1      2167 3.00823E+00-6.99055E+00-3.96864E-01 3.94501E+00 4.17832E-13-2.60347E-13
 -1      2168 1.45151E+01-4.53540E+00-2.55519E-02 7.14908E+00 1.88960E-13-2.91225E-13
 -1      2169 1.04173E+01-5.90859E+00-2.21868E-01 6.30052E+00 3.87912E-13-2.41269E-13
 -1      2170 2.24951E+01-1.65761E+00 9.83137E-02 6.89231E+00 9.54237E-14-3.05866E-13
 -1      2171 1.78856E+01-3.79955E+00-2.11827E-01 6.37046E+00 7.26086E-14-2.09888E-13
 -1      2172 3.03661E+01 9.40256E-01 2.04011E-01 5.39630E+00-6.75016E-14-1.12799E-13
 -1      2173 2.58061E+01-7.93684E-01-9.96391E-02 5.48805E+00 1.33227E-13-1.84519E-13
 -1      2174 3.58021E+01 3.79383E+00 2.34131E-01 3.18801E+00-6.27276E-14-3.06088E-13
 -1      2175 3.24233E+01 2.45265E+00 7.58722E-02 4.19280E+00-3.68733E-14-2.72893E-13
 -1      2176 3.11833E+01 3.60098E-01 2.03189E-01 2.38146E+00 1.59345E-13-3.79696E-14
 -1      2177 4.02779E+01 6.54380E+00 4.46519E-01 1.40233E+00-3.45612E-13-2.78971E-13
 -1      2178 3.74513E+01 5.82956E+00 1.91892E-01 2.10986E+00-2.62179E-13-2.70450E-13
 -1      2179 4.12565E+01 7.21300E+00 4.19017E-01-3.79613E-01-1.65479E-13-4.32175E-13
 -1      2180 4.09333E+01 7.06005E+00 3.69185E-01 8.83767E-01-3.01148E-13-4.16750E-13
 -1      2181 3.94328E+01 6.27189E+00 3.20341E-01-2.16786E+00 7.60503E-15-2.34479E-13
 -1      2182 4.10260E+01 6.85533E+00 4.46648E-01-1.01807E+00-9.48130E-14-3.77059E-13
 -1      2183 3.49234E+01 4.09173E+00 1.39859E-01-3.46596E+00 5.94524E-14-1.07692E-13
 -1      2184 3.87145E+01 5.30375E+00 4.69666E-01-3.04132E+00 1.70641E-13-1.16906E-13
 -1      2185 3.62385E+01 6.21120E+00 3.59920E-01-6.03021E-01 9.43690E-15-2.39475E-13
 -1      2186 2.85292E+01 2.05856E-01-3.85844E-02-4.81836E+00 2.07168E-13-3.94573E-13
 -1      2187 3.26250E+01 1.84415E+00 2.30002E-01-4.35981E+00 6.18811E-14-2.79610E-13
 -1      2188 2.13130E+01-3.10414E+00-1.74000E-01-5.99429E+00 2.88158E-13-1.31006E-13
 -1      2189 2.58688E+01-1.30071E+00 1.14456E-01-6.13870E+00 2.06168E-13-3.98570E-13
 -1      2190 1.24842E+01-5.38922E+00-3.46081E-01-6.23815E+00 2.14273E-13-1.52461E-13
 -1      2191 1.70133E+01-3.56837E+00-4.81660E-02-7.12513E+00 3.03091E-13 7.82152E-14
 -1      2192 5.51592E+00-7.02096E+00-4.39211E-01-5.00450E+00-2.28095E-13-6.80012E-13
 -1      2193 8.72015E+00-5.42346E+00-1.99175E-01-6.16353E+00 4.31877E-14-3.82257E-13
 -1      2194 1.34341E+00-7.17857E+00-3.61909E-01-2.60364E+00-2.09527E-13-5.26856E-13
 -1      2195 2.87163E+00-6.43655E+00-2.81915E-01-3.95836E+00-1.85629E-13-7.20368E-13
 -1      2196 2.39567E+00-4.30753E+00-1.39095E-01-2.30962E+00-2.90601E-14-4.50084E-13
 -1      2197 3.70278E+01 3.05225E+00 3.82666E-01 3.43325E+00 3.74825E-13 6.26832E-13
 -1      2198 3.23136E+01 1.21905E+00 1.57185E-02 3.58528E+00 4.30572E-13 5.18696E-13
 -1      2199 3.56634E+01 3.53589E+00 3.23682E-01 2.74542E-01 2.49301E-13 2.55018E-13
 -1      2200 2.07306E+01 1.10873E+00-2.05753E-02-1.61753E+00-2.19689E-13 6.50313E-14
 -1      2201 3.12104E+01-1.36821E+00 1.26306E-01 2.34593E+00 1.30618E-13 3.29070E-13
 -1      2202 2.06216E+01 1.32941E+00-1.88333E-02-1.67919E+00-2.32840E-13-4.46344E-14
 -1      2203 7.00461E+00-5.40795E+00-1.13381E-01 5.45876E+00-3.30791E-13 6.72296E-13
 -1      2204 2.61446E+00-4.47081E+00-1.18517E-01 1.84617E+00-4.23134E-14 7.72160E-14
 -1      2205 2.01000E+01 2.70381E-01 1.86955E-03-3.06298E-01-3.59644E-13-1.20553E-13
 -1      2206 1.50192E+01-5.74845E+00-8.23220E-02 6.44739E+00-1.60372E-13 7.43239E-13
 -1      2207 1.42386E+01-5.37595E+00 1.39249E-01 6.70816E+00-1.74361E-13 6.63941E-13
 -1      2208 1.90757E+01-5.96431E+00-1.15087E-01 6.18254E+00-1.43552E-13 7.59975E-13
 -1      2209 5.82670E+00-5.39430E+00-1.64490E-01-5.43806E+00-1.50990E-13-7.33330E-13
 -1      2210 1.29606E+01-5.61861E+00-8.52963E-02-7.02417E+00 7.62168E-14-2.87135E-13
 -1      2211 2.14334E+01-4.67454E+00 5.07037E-02-6.19951E+00 3.53051E-13-2.26708E-13
 -1      2212 3.30805E+01 2.16277E+00 1.81204E-01-1.71816E+00 2.34507E-13-1.35503E-13
 -1      2213 3.72684E+01 8.05247E+00 3.97914E-01-1.07700E-01-1.22902E-13-3.21340E-13
 -1      2214 3.46858E+01 4.56775E+00 2.39042E-01 7.12837E-01-1.42664E-13-1.63924E-13
 -1      2215 2.59615E+01-2.92140E+00 8.80583E-02 4.86394E+00 2.68119E-13 7.99361E-15
 -1      2216 1.85377E+01-5.18103E+00-3.96393E-02 6.66051E+00 3.51053E-13-1.88183E-13
 -1      2217 1.02735E+01-5.22910E+00-2.72318E-02 6.78524E+00 3.74312E-13-2.45498E-13
 -1      2218 3.37695E+00-4.88214E+00-1.44692E-01 3.92335E+00 2.92572E-13-1.85296E-13
 -1      2219 1.30624E+00-5.04246E+00-2.32340E-01-1.20440E-01 8.75203E-14-2.00950E-13
 -1      2220 4.04272E+00-5.14853E+00-1.58998E-01-3.97080E+00 1.49741E-13-7.96585E-14
 -1      2221 1.99816E+01-5.45049E+00-5.27477E-02-6.03384E+00-4.42424E-14 2.05391E-15
 -1      2222 3.65400E+01 5.38821E+00 3.12746E-01 3.91065E-01 4.63407E-13 3.83360E-13
 -1      2223 3.66869E+01 6.88497E+00 3.00812E-01-3.31157E-01 4.97824E-13 6.17839E-14
 -1      2224 3.33581E+01 5.55754E-01 1.86505E-01-1.23675E+00 1.38374E-13 1.02252E-13
 -1      2225 1.08936E+01-5.86253E+00-1.27489E-01-6.29191E+00 8.16569E-14 3.20771E-13
 -1      2226 3.66752E+01 7.73852E+00 3.50181E-01 1.60451E-02-2.50300E-13-1.81188E-13
 -1      2227 2.81961E+01-2.17480E+00 1.10159E-01-3.65656E+00 1.75360E-13-3.06866E-13
 -1      2228 2.01426E+01 5.06417E-01 3.73641E-03 6.79685E-01 1.64589E-13 1.82212E-13
 -1      2229 2.04108E+01 6.99928E-01 2.07932E-02 9.71274E-01 1.97007E-13 2.10477E-13
 -1      2230 1.95648E+01 3.51622E+00-1.11419E-02-5.92240E-01 3.61836E-15-2.99091E-13
 -1      2231 1.95998E+01 3.47029E+00-1.05319E-02-7.76796E-01-2.87768E-14-3.05559E-13
 -1      2232 1.96458E+01 3.38217E+00-1.28128E-02-9.41532E-01-5.63673E-14-3.04661E-13
 -1      2233 1.97059E+01 3.30155E+00-1.28926E-02-1.13095E+00-9.15498E-14-3.06443E-13
 -1      2234 1.97910E+01 3.03351E+00 1.86780E-04-7.93259E-01-4.43685E-14-2.77516E-13
 -1      2235 1.95184E+01 3.59880E+00-9.63356E-03 9.95353E-02 9.59216E-14-2.98276E-13
 -1      2236 1.95177E+01 3.59963E+00-9.64201E-03-8.01674E-02 6.79575E-14-2.92480E-13
 -1      2237 1.95441E+01 3.55934E+00-9.73353E-03 4.46060E-01 1.26202E-13-2.97790E-13
 -1      2238 1.95269E+01 3.58194E+00-1.01524E-02 2.65009E-01 1.09977E-13-2.99680E-13
 -1      2239 1.96846E+01 3.22167E+00-8.94153E-04 1.69782E-01 9.00086E-14-2.83484E-13
 -1      2240 1.96051E+01 3.46270E+00-1.06182E-02 7.90496E-01 1.62364E-13-2.68900E-13
 -1      2241 1.95693E+01 3.50976E+00-1.12217E-02 6.08843E-01 1.43245E-13-2.88896E-13
 -1      2242 1.97209E+01 3.15807E+00-4.87596E-04 4.88667E-01 1.26251E-13-2.73673E-13
 -1      2243 1.97144E+01 3.28883E+00-1.29590E-02 1.14432E+00 2.11357E-13-1.86481E-13
 -1      2244 1.96525E+01 3.37221E+00-1.28840E-02 9.54840E-01 1.83644E-13-2.26377E-13
 -1      2245 1.97970E+01 3.02425E+00 2.68420E-04 8.04810E-01 1.72210E-13-2.24910E-13
 -1      2246 1.98917E+01 3.00321E+00-1.81743E-02 1.49174E+00 2.55302E-13-1.27335E-13
 -1      2247 1.97931E+01 3.14452E+00-1.51777E-02 1.30119E+00 2.26023E-13-1.57104E-13
 -1      2248 1.99246E+01 2.79900E+00 1.96264E-03 1.11155E+00 2.06191E-13-1.64360E-13
 -1      2249 2.01678E+01 2.54368E+00-2.84076E-02 1.79629E+00 2.74502E-13-3.95430E-14
 -1      2250 2.00178E+01 2.78304E+00-1.70850E-02 1.62175E+00 2.57987E-13-9.59736E-14
 -1      2251 2.01172E+01 2.44832E+00 5.84858E-03 1.37766E+00 2.41626E-13-9.09637E-14
 -1      2252 1.98652E+01 2.68337E-01 4.73747E-03 2.87067E-01 1.29594E-13 1.20662E-13
 -1      2253 2.00261E+01 3.68015E-01 2.01753E-02 4.44268E-01 1.41164E-13 1.57608E-13
 -1      2254 2.02067E+01 6.34639E-01-2.23902E-03 7.06708E-01 1.76331E-13 6.51285E-14
 -1      2255 2.03978E+01 8.54461E-01 1.31861E-02-1.00233E+00-2.00850E-13-9.56641E-14
 -1      2256 2.01853E+01 6.27266E-01-4.51213E-03-6.93043E-01-1.78760E-13-9.82578E-14
 -1      2257 3.17117E+01-1.02476E+00-1.07696E-01 2.88416E-01 1.65701E-14 2.68785E-13
 -1      2258 2.90388E+01-3.20299E+00-3.78839E-02 1.53787E+00 1.29757E-14 1.84741E-13
 -1      2259 9.92466E+00-4.51102E+00 4.55522E-02 6.34559E+00-2.04170E-13 9.19209E-13
 -1      2260 7.01752E+00-3.96272E+00 6.25196E-02 5.01398E+00-1.61149E-13 6.76292E-13
 -1      2261 2.01205E+01 4.69620E-01 1.61987E-02-4.76875E-01-1.54982E-13-7.79451E-14
 -1      2262 1.99791E+01 3.44805E-01-3.21848E-05-3.05133E-01-1.34674E-13-1.05690E-13
 -1      2263 2.02407E+01 7.45777E-01-2.22544E-03-6.94856E-01-1.73057E-13-1.34467E-13
 -1      2264 1.99160E+01 2.59925E-01 1.08362E-02-1.67430E-01-1.24422E-13-1.07518E-13
 -1      2265 1.98373E+01 1.88672E-01 7.15253E-04-6.99845E-02-9.12989E-14-1.35686E-13
 -1      2266 2.00777E+01 4.16885E-01-3.77889E-03-3.11736E-01-1.39894E-13-1.52408E-13
 -1      2267 1.97932E+01 1.39492E-01 6.38702E-03 1.24819E-02-6.49559E-14-1.32195E-13
 -1      2268 1.97584E+01 9.75794E-02 7.69833E-04 6.62842E-02-6.09056E-14-1.22060E-13
 -1      2269 1.99575E+01 2.28338E-01-3.68678E-03-7.21711E-02-8.99755E-14-1.51365E-13
 -1      2270 1.97331E+01 6.81446E-02 3.58647E-03 1.12799E-01-7.97120E-14-1.24737E-13
 -1      2271 1.97264E+01 4.32248E-02 7.08650E-04 1.40248E-01-7.09864E-14-1.37833E-13
 -1      2272 1.98825E+01 1.17030E-01-2.98565E-03 6.98759E-02-8.29608E-14-1.24872E-13
 -1      2273 1.97156E+01 2.56353E-02 1.87059E-03 1.63833E-01-5.11766E-14-1.37273E-13
 -1      2274 1.97261E+01 1.12590E-02 6.36182E-04 1.75402E-01-9.78357E-15-1.49168E-13
 -1      2275 1.98443E+01 5.04849E-02-2.19019E-03 1.48425E-01-6.63078E-14-1.10258E-13
 -1      2276 1.97255E+01 1.27708E-03 8.13393E-04 1.84878E-01 5.93766E-15-1.85832E-13
 -1      2277 1.97459E+01-6.19772E-03 5.83293E-04 1.87281E-01-3.46800E-14-1.71983E-13
 -1      2278 1.98325E+01 1.16387E-02-1.52689E-03 1.86736E-01-3.06417E-14-1.96809E-13
 -1      2279 1.97521E+01-1.10559E-02 1.68588E-04 1.88719E-01-8.32553E-14-1.57371E-13
 -1      2280 1.97779E+01-1.38325E-02 5.68270E-04 1.86452E-01-9.04335E-14-1.68123E-13
 -1      2281 1.98386E+01-9.10021E-03-1.03913E-03 2.00787E-01-5.07939E-14-1.88754E-13
 -1      2282 1.97885E+01-1.51149E-02-2.08599E-04 1.84108E-01-5.40240E-14-1.23990E-13
 -1      2283 1.98171E+01-1.45849E-02 6.00262E-04 1.80293E-01-2.40420E-14-7.67880E-14
 -1      2284 1.98563E+01-1.75170E-02-7.09114E-04 2.01701E-01-4.93839E-14-1.68111E-13
 -1      2285 1.98306E+01-1.32925E-02-4.09005E-04 1.77211E-01-3.06690E-14-6.91804E-14
 -1      2286 1.98609E+01-1.03563E-02 6.82145E-04 1.74080E-01-2.27911E-14-9.25418E-14
 -1      2287 1.98817E+01-1.72611E-02-5.05977E-04 1.97359E-01-2.92392E-14-1.36925E-13
 -1      2288 1.98765E+01-7.15085E-03-4.92796E-04 1.72491E-01-3.13329E-15-1.11734E-13
 -1      2289 1.99082E+01-2.39991E-03 8.13218E-04 1.71692E-01 2.54302E-14-8.57817E-14
 -1      2290 1.99123E+01-1.07004E-02-4.00789E-04 1.93466E-01-2.03857E-14-9.77606E-14
 -1      2291 1.99258E+01 2.26872E-03-5.00794E-04 1.73269E-01-2.29645E-14-1.29138E-13
 -1      2292 1.99595E+01 8.42857E-03 9.89969E-04 1.76044E-01-7.50229E-14-1.54748E-13
 -1      2293 1.99472E+01 5.93381E-04-3.69893E-04 1.94244E-01-1.94296E-14-1.25836E-13
 -1      2294 1.99794E+01 1.42272E-02-4.60421E-04 1.82066E-01-2.54992E-14-1.63524E-13
 -1      2295 2.00162E+01 2.14754E-02 1.20502E-03 1.89363E-01 2.41893E-14-1.31347E-13
 -1      2296 1.99864E+01 1.55237E-02-3.94850E-04 2.02881E-01-2.92450E-14-1.82604E-13
 -1      2297 2.00389E+01 2.81001E-02-3.89017E-04 2.00795E-01 1.68175E-14-8.81461E-14
 -1      2298 2.00804E+01 3.61009E-02 1.44473E-03 2.13289E-01-1.41298E-14-6.01584E-14
 -1      2299 2.00308E+01 3.32083E-02-4.61465E-04 2.21796E-01 1.86040E-14 4.15361E-15
 -1      2300 2.01068E+01 4.31828E-02-2.95659E-04 2.30785E-01-5.99654E-14-6.02939E-14
 -1      2301 2.01546E+01 5.14716E-02 1.68558E-03 2.48837E-01-1.54807E-14-8.72405E-15
 -1      2302 2.00819E+01 5.27232E-02-5.58939E-04 2.52730E-01-2.84087E-14-2.45149E-14
 -1      2303 2.01859E+01 5.84643E-02-1.81742E-04 2.72659E-01-1.95129E-16-3.08160E-14
 -1      2304 2.02418E+01 6.63086E-02 1.88947E-03 2.96183E-01-3.76852E-15-9.33413E-15
 -1      2305 2.01418E+01 7.28136E-02-6.79815E-04 2.96674E-01 7.66050E-15-5.35494E-14
 -1      2306 2.02794E+01 7.23506E-02-4.05051E-05 3.26019E-01-5.57864E-14-3.81721E-14
 -1      2307 2.03449E+01 7.85798E-02 1.99819E-03 3.54244E-01-5.71543E-14-9.44096E-14
 -1      2308 2.02129E+01 9.15461E-02-8.20621E-04 3.53608E-01-7.59540E-14-4.03489E-14
 -1      2309 2.03906E+01 8.23292E-02 1.44126E-04 3.88918E-01-1.39754E-16-6.26199E-14
 -1      2310 2.04670E+01 8.51407E-02 1.92805E-03 4.20036E-01 4.99888E-15-2.39036E-14
 -1      2311 2.02980E+01 1.05889E-01-9.83206E-04 4.22011E-01-1.41531E-14-1.99906E-14
 -1      2312 2.05226E+01 8.46002E-02 3.98651E-04 4.57073E-01-1.54689E-15-2.16000E-14
 -1      2313 2.06103E+01 8.13726E-02 1.56674E-03 4.87770E-01 4.90143E-14-1.31176E-13
 -1      2314 2.04005E+01 1.11244E-01-1.17672E-03 4.98141E-01 3.23664E-14-6.23996E-15
 -1      2315 2.06782E+01 7.37549E-02 7.59183E-04 5.22854E-01 7.46803E-14-9.69615E-14
 -1      2316 2.07765E+01 6.09572E-02 7.76058E-04 5.47760E-01 8.94870E-14-5.38358E-14
 -1      2317 2.05241E+01 1.01012E-01-1.41871E-03 5.75040E-01 6.76467E-14 1.97125E-14
 -1      2318 2.08596E+01 4.27101E-02 1.26421E-03 5.74090E-01 6.45876E-14-4.19870E-14
 -1      2319 2.09659E+01 1.60948E-02-5.91631E-04 5.85282E-01 1.99456E-14-2.61337E-14
 -1      2320 2.06731E+01 6.64342E-02-1.73103E-03 6.41346E-01 7.20453E-14-5.54986E-14
 -1      2321 2.10673E+01-1.66754E-02 1.93241E-03 5.93003E-01-4.41625E-14-3.42462E-14
 -1      2322 2.11767E+01-6.12499E-02-2.65090E-03 5.79832E-01-1.61550E-14-9.29909E-14
 -1      2323 2.08524E+01-2.82607E-03-2.12238E-03 6.80063E-01-2.23449E-14 2.43583E-14
 -1      2324 2.12991E+01-1.11559E-01 2.71192E-03 5.55863E-01-1.43117E-14-1.66162E-13
 -1      2325 2.14034E+01-1.76155E-01-5.39270E-03 5.05666E-01 3.50395E-14-1.83723E-13
 -1      2326 2.10668E+01-1.16487E-01-2.54487E-03 6.67757E-01-6.06709E-14-6.14903E-15
 -1      2327 2.15473E+01-2.43616E-01 3.39911E-03 4.34628E-01 5.63596E-14-2.31011E-13
 -1      2328 2.16351E+01-3.24559E-01-8.50542E-03 3.35173E-01 6.59553E-14-2.39164E-13
 -1      2329 2.13190E+01-2.78576E-01-2.80950E-03 5.75143E-01-5.67770E-15-2.07726E-13
 -1      2330 2.17951E+01-4.01220E-01 3.57643E-03 2.02634E-01 1.15815E-13-2.43541E-13
 -1      2331 2.18510E+01-4.83853E-01-1.11575E-02 4.73874E-02 8.02505E-14-2.19539E-13
 -1      2332 2.16054E+01-4.78338E-01-2.45834E-03 3.70913E-01 7.68771E-14-2.29566E-13
 -1      2333 2.20103E+01-5.49153E-01 2.46449E-03-1.52953E-01-5.94707E-15-2.85484E-13
 -1      2334 2.20168E+01-6.02586E-01-1.17348E-02-3.56203E-01-3.26839E-14-2.14117E-13
 -1      2335 2.19078E+01-6.77319E-01-7.38405E-04 3.17050E-02 2.31402E-14-2.70496E-13
 -1      2336 2.21418E+01-6.20358E-01-6.60500E-04-6.09393E-01 3.25955E-14-1.75561E-13
 -1      2337 2.20841E+01-5.99577E-01-8.30715E-03-8.27450E-01 5.57917E-14-1.85106E-13
 -1      2338 2.21833E+01-7.97714E-01 3.07169E-03-4.38257E-01 4.20237E-15-2.96036E-13
 -1      2339 2.21274E+01-5.27004E-01-6.37364E-03-1.08141E+00 7.04139E-14-1.93264E-13
 -1      2340 2.20041E+01-3.90678E-01 1.09489E-04-1.25047E+00 2.90393E-15-1.31849E-13
 -1      2341 2.23596E+01-7.28517E-01 8.48256E-03-9.75374E-01 5.57651E-14-2.56697E-13
 -1      2342 2.19274E+01-2.02691E-01-1.22645E-02-1.41096E+00-7.84602E-14-5.06986E-14
 -1      2343 2.17595E+01 4.90674E-02 1.13403E-02-1.44759E+00-3.58944E-14 4.63672E-14
 -1      2344 2.23545E+01-3.77014E-01 1.12655E-02-1.43105E+00 5.39033E-14-3.61373E-14
 -1      2345 2.15774E+01 3.19685E-01-1.39183E-02-1.40610E+00 1.93544E-14 5.23013E-14
 -1      2346 2.14137E+01 6.10219E-01 1.88618E-02-1.24836E+00 3.75741E-15 2.26728E-13
 -1      2347 2.21372E+01 2.48956E-01 8.45791E-03-1.58504E+00 7.67515E-15 1.10026E-13
 -1      2348 2.12200E+01 8.55995E-01-7.73859E-03-9.54429E-01-1.25785E-13 2.25883E-13
 -1      2349 2.11202E+01 1.04666E+00 1.53754E-02-6.17760E-01-1.44646E-13 3.03709E-14
 -1      2350 2.17997E+01 9.52657E-01-2.66809E-03-1.25005E+00-9.44795E-14 6.16352E-14
 -1      2351 2.10445E+01 1.13543E+00 5.34221E-03-1.50754E-01-6.25290E-14-6.06600E-15
 -1      2352 2.10490E+01 1.11639E+00 2.84048E-03 2.50899E-01 9.74568E-15-5.29774E-14
 -1      2353 2.15508E+01 1.40645E+00-1.37837E-02-4.40564E-01-1.59928E-13 4.71963E-14
 -1      2354 2.11457E+01 9.94431E-01 1.69833E-02 7.00730E-01-8.16031E-14-2.48197E-14
 -1      2355 2.12507E+01 7.76173E-01-9.51528E-03 1.01298E+00-1.49560E-13-9.30245E-14
 -1      2356 2.15696E+01 1.36195E+00-1.22028E-02 5.45423E-01-7.94399E-14 5.23275E-14
 -1      2357 2.14469E+01 5.14775E-01 1.83731E-02 1.26586E+00-8.16174E-14 2.69396E-14
 -1      2358 2.16061E+01 2.19364E-01-1.45808E-02 1.38798E+00-3.12754E-15 1.41793E-13
 -1      2359 2.18382E+01 8.41073E-01-2.93471E-04 1.28960E+00-1.76953E-14 1.97216E-13
 -1      2360 2.17703E+01-4.57325E-02 9.58059E-03 1.38683E+00-1.39360E-14 1.91864E-13
 -1      2361 2.19230E+01-2.84298E-01-1.20497E-02 1.31897E+00 5.76772E-14 2.27875E-13
 -1      2362 2.21578E+01 1.22222E-01 9.27057E-03 1.53324E+00 2.51348E-14 3.58482E-13
 -1      2363 2.19733E+01-4.55633E-01-1.66306E-03 1.13008E+00-5.30637E-14 1.11801E-13
 -1      2364 2.20747E+01-5.73425E-01-5.91568E-03 9.41956E-01-7.79416E-14 8.53041E-14
 -1      2365 2.23309E+01-4.72831E-01 1.10449E-02 1.30484E+00-3.72322E-14 2.00079E-13
 -1      2366 2.20082E+01-6.29982E-01-9.35909E-03 6.75863E-01 6.53796E-14 3.75972E-14
 -1      2367 2.20409E+01-6.36596E-01-6.36270E-04 4.50039E-01-1.41718E-14 1.05667E-13
 -1      2368 2.22888E+01-7.80229E-01 7.17758E-03 8.09159E-01-6.03690E-14 1.49907E-13
 -1      2369 2.18997E+01-6.08625E-01-1.19534E-02 1.95533E-01-1.12914E-13 1.79770E-13
 -1      2370 2.18683E+01-5.47947E-01 2.31733E-03-8.31106E-03-1.02233E-13 2.83350E-13
 -1      2371 2.20758E+01-8.12960E-01 2.12595E-03 2.60244E-01 3.19990E-14 2.99074E-13
 -1      2372 2.16983E+01-4.78232E-01-1.08266E-02-2.05485E-01-8.56702E-14 3.29209E-13
 -1      2373 2.16188E+01-3.93044E-01 3.36001E-03-3.58125E-01-2.02176E-14 4.54935E-13
 -1      2374 2.17748E+01-6.73095E-01-1.15373E-03-2.06488E-01-2.56820E-14 3.16753E-13
 -1      2375 2.14508E+01-3.14595E-01-8.00131E-03-4.86281E-01-1.22459E-13 4.70075E-13
 -1      2376 2.13411E+01-2.32252E-01 3.26800E-03-5.81596E-01-2.44399E-14 3.76899E-13
 -1      2377 2.14539E+01-4.66329E-01-2.63048E-03-5.37470E-01-8.19020E-14 3.88444E-13
 -1      2378 2.11901E+01-1.62628E-01-4.92318E-03-6.47427E-01 1.90728E-13 3.31911E-13
 -1      2379 2.10660E+01-9.47301E-02 2.85688E-03-6.91594E-01 2.53358E-13 1.34919E-13
 -1      2380 2.11523E+01-2.61655E-01-2.87646E-03-7.31564E-01-2.37190E-14 3.64049E-13
 -1      2381 2.09361E+01-3.92759E-02-2.34189E-03-7.08023E-01 1.75572E-13 1.48092E-13
 -1      2382 2.08100E+01 1.30829E-02 2.53721E-03-7.11170E-01 2.72848E-13 2.41276E-13
 -1      2383 2.08857E+01-9.00951E-02-2.59267E-03-8.10854E-01 2.47653E-13 1.78791E-13
 -1      2384 2.07000E+01 5.60830E-02-5.19524E-04-6.90547E-01 3.53589E-13 3.19433E-13
 -1      2385 2.05811E+01 9.68805E-02 2.43787E-03-6.61991E-01 2.70918E-13 3.36448E-13
 -1      2386 2.06564E+01 4.38965E-02-2.17234E-03-8.01892E-01 2.75042E-13 3.49207E-13
 -1      2387 2.04877E+01 1.31760E-01 6.16820E-04-6.13556E-01 9.29573E-14 2.78908E-13
 -1      2388 2.03831E+01 1.64487E-01 2.41253E-03-5.59813E-01-1.28853E-14 2.68175E-13
 -1      2389 2.04613E+01 1.48502E-01-1.64623E-03-7.27011E-01 1.25451E-13 1.38521E-13
 -1      2390 1.96179E+01 7.33358E-02 2.11411E-03-6.53413E-02 8.06309E-14 4.04206E-14
 -1      2391 1.96452E+01 1.04798E-01 6.92452E-03-1.88646E-02 8.76343E-14 7.78262E-14
 -1      2392 1.95953E+01 3.21862E-02 1.41270E-03-1.32292E-01 8.99088E-14-4.98535E-15
 -1      2393 1.95918E+01 5.07105E-02 3.70520E-03-1.09154E-01 8.88531E-14 1.94658E-14
 -1      2394 1.97650E+01 9.11794E-02-3.22458E-03-7.13593E-02 1.16113E-13-1.17316E-14
 -1      2395 1.96094E+01 8.15312E-03 9.91747E-04-1.62892E-01 6.90744E-14 3.60725E-14
 -1      2396 1.95882E+01 1.88389E-02 1.85227E-03-1.53590E-01 7.48358E-14 1.97583E-14
 -1      2397 1.97322E+01 3.82919E-02-2.35320E-03-1.45601E-01 7.30805E-14-1.90654E-14
 -1      2398 1.96451E+01-5.03809E-03 7.33519E-04-1.71985E-01 2.76554E-14 6.28481E-14
 -1      2399 1.96147E+01 5.99308E-04 7.70404E-04-1.70618E-01 4.86158E-14 6.92398E-14
 -1      2400 1.97312E+01 7.71728E-03-1.61008E-03-1.80466E-01 4.21063E-14 1.27372E-15
 -1      2401 1.96928E+01-1.09678E-02 5.94596E-04-1.69392E-01-3.05885E-14 7.59811E-14
 -1      2402 1.96580E+01-8.74910E-03 1.38873E-04-1.72066E-01 2.44179E-14 8.84249E-14
 -1      2403 1.97504E+01-8.62546E-03-1.06943E-03-1.91899E-01 1.40864E-14 5.11440E-14
 -1      2404 1.97467E+01-1.18028E-02 5.56789E-04-1.61888E-01 2.27224E-14-1.41065E-14
 -1      2405 1.97103E+01-1.20068E-02-2.09343E-04-1.65905E-01-2.68617E-14 2.50960E-14
 -1      2406 1.97817E+01-1.53943E-02-7.12932E-04-1.90716E-01 2.64391E-14 9.92458E-15
 -1      2407 1.98039E+01-8.87638E-03 6.11284E-04-1.54337E-01 1.18491E-13-5.37011E-14
 -1      2408 1.97670E+01-1.08950E-02-3.71324E-04-1.57736E-01 8.26908E-14-5.56654E-14
 -1      2409 1.98204E+01-1.54060E-02-5.03028E-04-1.84505E-01 7.42455E-14-7.83277E-14
 -1      2410 1.98638E+01-2.97183E-03 7.54606E-04-1.50420E-01 1.95652E-13-3.52505E-14
 -1      2411 1.98262E+01-6.46001E-03-4.08903E-04-1.51682E-01 1.55275E-13-2.92465E-14
 -1      2412 1.98638E+01-1.03780E-02-4.06165E-04-1.78793E-01 1.17261E-13-6.64091E-14
 -1      2413 1.99274E+01 5.52206E-03 9.88165E-04-1.53129E-01 1.30425E-13 7.34918E-15
 -1      2414 1.98880E+01 7.16983E-04-3.63471E-04-1.50979E-01 1.74022E-13 8.44608E-15
 -1      2415 1.99112E+01-1.29645E-03-3.96438E-04-1.77824E-01 1.56039E-13 2.82883E-15
 -1      2416 1.99971E+01 1.65177E-02 1.31787E-03-1.65129E-01 6.31169E-14-1.08946E-14
 -1      2417 1.99541E+01 1.03993E-02-2.63458E-04-1.58382E-01 1.58592E-13 1.82695E-14
 -1      2418 1.99629E+01 1.13803E-02-4.54063E-04-1.85092E-01 1.44888E-13-2.61534E-14
 -1      2419 2.00764E+01 3.01640E-02 1.75319E-03-1.89027E-01-2.69338E-15-8.71386E-14
 -1      2420 2.00274E+01 2.26183E-02-1.28946E-04-1.76476E-01-1.08526E-14-4.14400E-14
 -1      2421 2.00208E+01 2.75953E-02-5.63443E-04-2.03738E-01 6.34207E-14-8.72199E-15
 -1      2422 2.01698E+01 4.67871E-02 2.30509E-03-2.27575E-01 7.68931E-14-1.13435E-13
 -1      2423 2.01116E+01 3.76136E-02 2.51710E-05-2.07906E-01 4.59328E-14-7.87709E-14
 -1      2424 2.00872E+01 4.76019E-02-7.11151E-04-2.36840E-01 2.58929E-14-1.15934E-13
 -1      2425 2.02830E+01 6.68103E-02 2.98217E-03-2.83792E-01 2.18733E-14-2.46266E-14
 -1      2426 2.02117E+01 5.57681E-02 1.86654E-04-2.55536E-01 6.86311E-14-6.09076E-14
 -1      2427 2.01653E+01 7.18714E-02-8.83944E-04-2.87614E-01 5.92987E-14-9.51225E-14
 -1      2428 2.04221E+01 9.06133E-02 3.78307E-03-3.60976E-01-5.45142E-14-4.74286E-14
 -1      2429 2.03334E+01 7.75056E-02 3.44019E-04-3.22521E-01-8.01984E-15 7.94238E-15
 -1      2430 2.02589E+01 1.00960E-01-1.06756E-03-3.59520E-01-2.46601E-14 8.14897E-15
 -1      2431 2.05944E+01 1.18256E-01 4.68272E-03-4.62523E-01-9.79301E-14-5.81571E-14
 -1      2432 2.04832E+01 1.03097E-01 4.85519E-04-4.12235E-01-8.11087E-14-2.93814E-14
 -1      2433 2.03721E+01 1.35264E-01-1.24693E-03-4.56213E-01-8.03234E-14 7.79971E-14
 -1      2434 2.08072E+01 1.48939E-01 5.60856E-03-5.91379E-01 2.82352E-14-1.53831E-13
 -1      2435 2.06683E+01 1.32280E-01 5.99939E-04-5.27935E-01-3.14033E-14-1.36599E-13
 -1      2436 2.05093E+01 1.74553E-01-1.41007E-03-5.81256E-01-1.86526E-14-4.01323E-14
 -1      2437 2.10680E+01 1.79993E-01 6.40237E-03-7.48857E-01 1.65341E-13-2.22972E-13
 -1      2438 2.08963E+01 1.63529E-01 6.81718E-04-6.71959E-01 8.76753E-14-2.15468E-13
 -1      2439 2.06749E+01 2.17071E-01-1.55994E-03-7.37408E-01 9.27815E-14-1.80435E-13
 -1      2440 2.13840E+01 2.05084E-01 6.76648E-03-9.32326E-01 1.24633E-13-4.35304E-14
 -1      2441 2.11750E+01 1.92712E-01 7.45516E-04-8.44080E-01 1.93883E-13-6.49016E-14
 -1      2442 2.08738E+01 2.57892E-01-1.74170E-03-9.25177E-01 9.50750E-14-1.51022E-13
 -1      2443 2.17614E+01 2.11309E-01 6.20196E-03-1.13111E+00-6.21517E-14-7.97290E-15
 -1      2444 2.15126E+01 2.10800E-01 8.59745E-04-1.03845E+00-2.92323E-15 3.72049E-15
 -1      2445 2.11117E+01 2.86118E-01-2.09412E-03-1.14020E+00 4.70059E-14 9.59438E-14
 -1      2446 2.22052E+01 1.75212E-01 3.96336E-03-1.31986E+00-1.22172E-13 4.97412E-14
 -1      2447 2.19181E+01 2.00389E-01 1.20519E-03-1.23838E+00-6.77957E-14 3.61410E-14
 -1      2448 2.13969E+01 2.80560E-01-2.92966E-03-1.36878E+00-3.98166E-14 8.81888E-14
 -1      2449 2.27204E+01 5.93175E-02-8.57447E-04-1.44906E+00-1.16309E-13 2.21164E-14
 -1      2450 2.24024E+01 1.31559E-01 2.14528E-03-1.40807E+00-1.18034E-13 4.31905E-14
 -1      2451 2.17449E+01 2.04417E-01-4.82048E-03-1.58086E+00-1.02965E-13-4.31471E-14
 -1      2452 2.33125E+01-1.85017E-01-9.06359E-03-1.43483E+00-1.71202E-13 2.23738E-13
 -1      2453 2.29805E+01-3.96871E-02 4.31107E-03-1.48157E+00-1.66138E-13 9.97431E-14
 -1      2454 2.21852E+01 2.16401E-03-8.50746E-03-1.72002E+00-1.73744E-13 5.23106E-14
 -1      2455 2.39841E+01-5.93273E-01-2.03207E-02-1.15531E+00-1.21889E-13 2.83586E-13
 -1      2456 2.36693E+01-3.61364E-01 8.00792E-03-1.35225E+00-8.70341E-14 2.15715E-13
 -1      2457 2.27681E+01-3.90743E-01-1.43810E-02-1.69155E+00-1.96920E-13 1.04488E-13
 -1      2458 2.47140E+01-1.11714E+00-3.14701E-02-4.76672E-01-9.51374E-14 3.70612E-13
 -1      2459 2.44701E+01-8.41259E-01 1.23736E-02-8.76767E-01-1.29360E-13 3.19677E-13
 -1      2460 2.35607E+01-1.00144E+00-2.08902E-02-1.35503E+00-1.29365E-13 1.37099E-13
 -1      2461 2.54114E+01-1.50721E+00-3.46028E-02 6.50510E-01 4.94500E-14 4.18709E-13
 -1      2462 2.53126E+01-1.35074E+00 1.06667E-02 6.69551E-02 3.04375E-14 4.28544E-13
 -1      2463 2.45997E+01-1.70168E+00-2.22486E-02-5.49912E-01-4.88836E-14 1.94914E-13
 -1      2464 2.58579E+01-1.24840E+00-1.93624E-02 1.98262E+00 1.53876E-13 2.88328E-13
 -1      2465 2.59717E+01-1.50302E+00-9.54853E-03 1.41095E+00 1.38367E-13 4.23683E-13
 -1      2466 2.57638E+01-2.05908E+00-1.93271E-02 7.91222E-01 1.07915E-13 3.57617E-13
 -1      2467 2.57664E+01 7.78296E-02-9.25699E-03 2.76651E+00 1.96263E-13 8.41978E-14
 -1      2468 2.60907E+01-7.36542E-01-5.72821E-02 2.60765E+00 1.57319E-13 2.55145E-13
 -1      2469 2.66763E+01-1.32055E+00-1.01710E-02 2.33303E+00 2.04291E-13 3.19827E-13
 -1      2470 2.51936E+01 1.95014E+00-3.60110E-02 2.03172E+00 1.72945E-13 1.14981E-13
 -1      2471 2.55652E+01 1.04194E+00-9.75104E-02 2.62868E+00 2.07369E-13 1.80282E-13
 -1      2472 2.68541E+01 7.36258E-01-5.22401E-02 2.97059E+00 1.51226E-13 3.05481E-13
 -1      2473 2.48900E+01 2.70355E+00-8.83682E-02-1.79515E-01 2.72060E-13-2.74156E-14
 -1      2474 2.50098E+01 2.58480E+00-7.49184E-02 8.82249E-01 2.23904E-13-3.37577E-14
 -1      2475 2.65147E+01 3.08147E+00-6.60169E-02 1.61042E+00 2.97665E-13 2.01995E-13
 -1      2476 2.53736E+01 1.51962E+00-9.48329E-02-2.27033E+00 3.43135E-13-1.01226E-13
 -1      2477 2.50954E+01 2.32596E+00-2.62189E-02-1.52805E+00 3.40922E-13-1.08006E-13
 -1      2478 2.64091E+01 3.50866E+00-7.35883E-02-1.05635E+00 3.43184E-13-6.99475E-14
 -1      2479 2.59688E+01-3.35295E-01-6.74558E-02-2.74466E+00 1.66402E-13-9.39873E-14
 -1      2480 2.55892E+01 5.74798E-01-1.65729E-02-2.70972E+00 2.59279E-13 2.90219E-15
 -1      2481 2.67606E+01 1.51506E+00-6.66855E-02-2.76903E+00 2.41640E-13 4.32571E-14
 -1      2482 2.60021E+01-1.41153E+00-1.90642E-02-1.71401E+00-6.48006E-14 2.34565E-13
 -1      2483 2.58447E+01-1.02760E+00-1.94123E-02-2.20743E+00 7.47232E-14 6.45543E-14
 -1      2484 2.67768E+01-1.03862E+00-2.06316E-02-2.53793E+00 4.50195E-14 1.04645E-13
 -1      2485 2.54321E+01-1.44317E+00 1.27678E-02-3.39586E-01-2.71705E-13 2.04511E-13
 -1      2486 2.54892E+01-1.52774E+00-3.07146E-02-9.31716E-01-2.06465E-13 3.65549E-13
 -1      2487 2.59567E+01-2.01183E+00-2.71688E-02-1.14869E+00-1.38900E-13 3.68464E-13
 -1      2488 2.45821E+01-9.91802E-01 1.44286E-02 7.41934E-01-2.97767E-13 3.50340E-13
 -1      2489 2.48079E+01-1.25225E+00-3.14637E-02 2.95977E-01-2.02026E-13 2.46149E-13
 -1      2490 2.48299E+01-1.86826E+00-2.14403E-02 3.21092E-01-2.59601E-13 6.13976E-13
 -1      2491 2.37256E+01-4.87490E-01 9.27428E-03 1.34815E+00-5.25327E-13 2.24908E-13
 -1      2492 2.40470E+01-7.31922E-01-2.14602E-02 1.10398E+00-5.03297E-13 1.85176E-13
 -1      2493 2.37150E+01-1.20834E+00-2.30080E-02 1.28279E+00-3.50073E-13 3.23965E-13
 -1      2494 2.29713E+01-1.24121E-01 4.26843E-03 1.56932E+00-2.54516E-13 7.64120E-14
 -1      2495 2.33257E+01-2.86541E-01-1.02383E-02 1.48512E+00-3.35213E-13 1.19956E-13
 -1      2496 2.28351E+01-5.51074E-01-1.63280E-02 1.74135E+00-3.36051E-13-9.26821E-14
 -1      2497 2.23292E+01 8.35907E-02 1.55747E-03 1.55108E+00-1.57724E-13 1.02644E-13
 -1      2498 2.26780E+01-3.37172E-03-2.00076E-03 1.56669E+00-2.53195E-13 3.50310E-14
 -1      2499 2.21799E+01-9.93068E-02-9.66504E-03 1.84945E+00-2.06936E-13-8.05909E-15
 -1      2500 2.17840E+01 1.80477E-01 6.86010E-04 1.40829E+00 2.25497E-13 1.66239E-13
 -1      2501 2.21058E+01 1.43097E-01 3.07449E-03 1.47553E+00 5.41156E-14 5.44775E-14
 -1      2502 2.16821E+01 1.51153E-01-5.22538E-03 1.75609E+00-1.16229E-13-2.06260E-13
 -1      2503 2.13215E+01 2.15302E-01 8.26070E-04 1.21226E+00 2.22158E-13 5.62373E-13
 -1      2504 2.16052E+01 2.03753E-01 5.63673E-03 1.30133E+00 2.33181E-13 4.46970E-13
 -1      2505 2.12862E+01 2.64702E-01-2.90105E-03 1.56362E+00-7.67615E-16-6.26071E-14
 -1      2506 2.09330E+01 2.24640E-01 1.50651E-03 9.99122E-01 1.99575E-13 7.01528E-13
 -1      2507 2.11732E+01 2.22136E-01 6.51170E-03 1.09569E+00 9.37768E-14 7.50977E-13
 -1      2508 2.09592E+01 3.04328E-01-1.92885E-03 1.33171E+00 1.08661E-13 5.78386E-13
 -1      2509 2.06113E+01 2.31499E-01 2.05666E-03 7.80655E-01 1.65106E-13 6.35501E-13
 -1      2510 2.08071E+01 2.28599E-01 6.43326E-03 8.81259E-01 4.05461E-13 8.46174E-13
 -1      2511 2.06832E+01 3.15335E-01-1.85917E-03 1.08987E+00 1.59608E-13 6.11497E-13
 -1      2512 2.03523E+01 2.47062E-01 2.96398E-03 5.58822E-01-6.01374E-14 4.88983E-13
 -1      2513 2.05051E+01 2.37778E-01 5.46713E-03 6.62848E-01-9.44264E-14 5.33516E-13
 -1      2514 2.04485E+01 3.24556E-01-3.13215E-03 8.45533E-01 2.05494E-13 6.04731E-13
 -1      2515 2.02567E+01 2.51009E-01 3.55968E-03 4.31135E-01-1.62588E-13 5.24463E-13
 -1      2516 1.97559E+01 1.16358E+00-5.35020E-03 5.25062E-01 7.06090E-14-8.54851E-13
 -1      2517 1.98085E+01 1.07396E+00 3.92041E-05 6.04980E-01 1.06035E-13-1.25424E-12
 -1      2518 1.96905E+01 1.28545E+00-4.67518E-03 3.00888E-01 1.97205E-13-1.46330E-13
 -1      2519 1.97175E+01 1.23070E+00-2.25690E-03 4.09092E-01 2.28658E-13-4.76044E-13
 -1      2520 1.96557E+01 1.15981E+00 4.36592E-03 5.29060E-01 3.65017E-13-5.40101E-13
 -1      2521 2.00155E+01 7.34972E-01-4.59214E-03 7.31435E-01-1.09122E-13-2.18063E-13
 -1      2522 2.01007E+01 6.10710E-01 4.72976E-03 7.17361E-01-1.53544E-13 1.65906E-13
 -1      2523 1.98690E+01 9.71755E-01-5.21041E-03 6.78908E-01-8.73000E-14-1.11174E-12
 -1      2524 1.99413E+01 8.59746E-01 2.37131E-03 7.14664E-01-1.85622E-13-5.06071E-13
 -1      2525 1.99741E+01 7.81219E-01 2.71615E-03 8.31914E-01-2.40161E-13-5.08844E-13
 -1      2526 1.97882E+01 9.97775E-01 3.13723E-03 7.32752E-01 1.61650E-13-9.82043E-13
 -1      2527 1.96769E+01 1.32338E+00-3.43230E-03 4.58248E-02-8.93938E-14 2.63249E-13
 -1      2528 1.96774E+01 1.30912E+00-4.17702E-03 1.63775E-01 4.54097E-14-1.82597E-13
 -1      2529 1.95866E+01 1.24690E+00 4.84702E-03 2.58097E-01 1.44879E-13-2.28207E-13
 -1      2530 1.97098E+01 1.27721E+00-1.92234E-03-2.00762E-01-2.19051E-13 4.12752E-13
 -1      2531 1.96875E+01 1.30337E+00-5.27665E-03-9.07260E-02-3.31219E-13 4.79970E-13
 -1      2532 1.95837E+01 1.25045E+00 4.50212E-03-3.41988E-02-1.05104E-14 2.76476E-13
 -1      2533 1.97774E+01 1.15884E+00-4.84318E-04-4.05998E-01-2.41248E-13-8.25521E-14
 -1      2534 1.97391E+01 1.22002E+00-5.39997E-03-3.17923E-01-2.95286E-13 1.83545E-13
 -1      2535 1.96383E+01 1.17612E+00 3.49449E-03-3.04408E-01-2.14613E-13 1.49419E-13
 -1      2536 1.98639E+01 9.92083E-01 7.92686E-04-5.46213E-01 1.23499E-14-1.97814E-13
 -1      2537 1.98177E+01 1.07704E+00-4.70250E-03-4.89410E-01-7.08391E-15-9.63913E-14
 -1      2538 1.97336E+01 1.04192E+00 2.22785E-03-5.17080E-01-1.25364E-13 8.15872E-14
 -1      2539 1.99593E+01 7.94539E-01 1.82467E-03-6.16504E-01 3.98174E-13-2.69291E-13
 -1      2540 1.99101E+01 8.95298E-01-3.49658E-03-5.92768E-01 3.21800E-13-5.45249E-13
 -1      2541 1.98506E+01 8.69543E-01 8.06368E-04-6.54164E-01 2.79830E-13-1.62193E-13
 -1      2542 2.00536E+01 5.89585E-01 2.51038E-03-6.12419E-01 3.65562E-14 6.45115E-14
 -1      2543 2.00067E+01 6.94273E-01-1.86298E-03-6.23776E-01 2.02264E-13-3.43663E-14
 -1      2544 1.99762E+01 6.79625E-01-1.06754E-04-7.10496E-01 4.00428E-13-3.49556E-13
 -1      2545 2.01391E+01 3.96105E-01 3.01372E-03-5.43369E-01-2.21652E-13-3.91644E-14
 -1      2546 2.00960E+01 4.96101E-01-4.88394E-04-5.84456E-01-1.04402E-13 1.06440E-13
 -1      2547 2.00934E+01 4.91856E-01-1.07265E-03-6.84330E-01 1.14155E-13 3.52473E-14
 -1      2548 5.15702E+00-2.84598E+00 1.19393E-01 3.43501E+00-7.41351E-14 5.06262E-14
 -1      2549 3.93659E+00-2.23204E+00 1.31739E-01 9.12273E-01 2.36200E-14 1.46549E-14
 -1      2550 1.96987E+01 1.43648E-01 3.28494E-03 6.13900E-02 1.01478E-13 8.75270E-14
 -1      2551 1.97773E+01 1.98349E-01 1.23923E-02 1.47745E-01 1.10872E-13 1.08990E-13
 -1      2552 1.98453E+01 1.81578E-01-3.88674E-03 6.65774E-02 1.21265E-13 2.32843E-14
 -1      2553 2.05438E+01 1.95531E+00-1.36835E-02-1.90354E+00-2.26203E-13-1.20100E-13
 -1      2554 2.04068E+01 1.21663E+00-6.35233E-03-1.28948E+00-2.15853E-13-1.07698E-13
 -1      2555 2.03714E+01 1.37608E+00 3.97053E-03-1.23370E+00-2.07125E-13-1.42274E-13
 -1      2556 2.02851E+01 2.36483E+00-7.73062E-03-1.82802E+00-2.06361E-13-1.79592E-13
 -1      2557 2.01639E+01 2.59958E-01 1.07458E-03-3.83587E-01-1.39603E-13 8.14998E-14
 -1      2558 6.14249E+00-3.78586E+00 6.49443E-02-5.12321E+00 9.71445E-16-7.71383E-13
 -1      2559 9.01633E+00-4.54800E+00 2.77915E-02-6.59378E+00-8.94285E-14-7.51676E-13
 -1      2560 2.65778E+01-4.84774E+00-5.44738E-02 3.65041E+00-7.14984E-14 1.81688E-13
 -1      2561 2.35324E+01-5.49620E+00 2.40522E-02 4.63033E+00-1.42553E-13 3.70939E-13
 -1      2562 3.86371E+00-2.29394E+00 1.18789E-01-1.62619E+00 7.10959E-14-3.10529E-13
 -1      2563 4.66619E+00-2.75753E+00 1.06611E-01-3.47746E+00 1.72085E-14-4.92939E-13
 -1      2564 3.32308E+01 7.27527E+00-9.57441E-02 3.34870E-01-9.23150E-14-2.68785E-13
 -1      2565 3.33688E+01 7.69222E+00-1.06737E-01 1.21460E-01-1.68310E-13-2.15208E-13
 -1      2566 2.72563E+01-3.24100E+00-8.20447E-02 3.45846E+00 1.99063E-13 1.57097E-14
 -1      2567 2.44327E+01-4.37661E+00-5.33211E-03 4.61186E+00 2.04781E-13-8.82627E-15
 -1      2568 3.32141E+01 3.48807E+00-7.57768E-02 1.43985E+00 3.92159E-13 3.25184E-13
 -1      2569 3.34348E+01 5.28924E+00-1.61852E-01 1.43606E+00 3.87357E-13 3.01842E-13
 -1      2570 1.95248E+01 3.58500E+00-1.01117E-02-2.45636E-01 5.13923E-14-2.96148E-13
 -1      2571 1.95406E+01 3.56429E+00-9.68749E-03-4.26566E-01 2.07342E-14-3.02418E-13
 -1      2572 1.97169E+01 3.16385E+00-5.87230E-04-4.73982E-01 6.37226E-15-2.77064E-13
 -1      2573 1.96832E+01 3.22380E+00-9.10319E-04-1.52242E-01 5.22743E-14-2.72130E-13
 -1      2574 3.28938E+01 6.52683E+00-1.98610E-01-9.03639E-01 5.69045E-13 1.26982E-13
 -1      2575 3.34615E+01 5.22935E+00-9.67261E-02-1.41358E+00 4.39371E-13 1.15213E-13
 -1      2576 3.08482E+01-1.40857E+00-3.47632E-02-3.29771E-01 8.78117E-14 1.64146E-13
 -1      2577 3.27843E+01 8.31147E-01-1.36698E-01 6.41601E-01 2.36727E-13 3.58547E-13
 -1      2578 3.29688E+01 6.40010E+00-1.30603E-01 1.03274E+00 4.14890E-13 3.20896E-13
 -1      2579 3.25172E+01 6.87376E+00-1.66269E-01 2.21794E-01 5.11369E-13 2.83142E-13
 -1      2580 1.05805E+01-4.69435E+00 8.09846E-02-6.12877E+00 1.87905E-14 2.35950E-13
 -1      2581 1.46539E+01-5.35335E+00 9.26276E-03-6.78427E+00 2.64233E-14 4.05426E-13
 -1      2582 2.62000E+01-4.72480E+00-1.22213E-02-3.49933E+00-1.15075E-13-2.27512E-13
 -1      2583 2.87109E+01-3.72646E+00-1.33527E-01-2.36325E+00-2.82135E-14-6.93889E-14
 -1      2584 3.35915E+01 7.54590E+00-8.17750E-02-2.79567E-01-2.30926E-13-2.55150E-13
 -1      2585 3.29310E+01 6.88704E+00-1.06704E-01-5.49369E-01-2.48079E-13-2.75252E-13
 -1      2586 1.89503E+01-5.81057E+00 1.74431E-02-5.94109E+00-1.59872E-14 5.80647E-14
 -1      2587 2.30575E+01-5.41250E+00-4.27432E-02-5.26929E+00-1.10273E-13-2.78236E-13
 -1      2588 2.51343E+01-5.39261E+00 6.55850E-02-3.74549E+00-1.29202E-13-2.11955E-13
 -1      2589 4.12793E+00-3.60310E+00 2.16080E-02-3.05989E+00-3.34455E-15-1.36890E-13
 -1      2590 6.46760E+00-3.69708E+00 4.68394E-02-4.81646E+00-4.61853E-14 6.99441E-14
 -1      2591 2.89684E+00-2.86988E+00 5.70734E-02 9.17311E-01-7.36425E-14-1.02807E-13
 -1      2592 3.14003E+00-3.00423E+00 6.34945E-02-1.30550E+00-7.37743E-14-2.05003E-13
 -1      2593 5.76841E+00-3.25142E+00 3.77595E-02 4.94069E+00 1.14075E-13-1.58262E-13
 -1      2594 3.88628E+00-3.08027E+00 8.40910E-02 2.89949E+00 6.68077E-14-1.13021E-13
 -1      2595 1.33808E+01-4.55584E+00 8.85903E-03 7.17190E+00 3.81362E-13-1.07012E-13
 -1      2596 9.47209E+00-3.95500E+00 1.38129E-01 6.22120E+00 2.59237E-13-1.03084E-13
 -1      2597 2.14337E+01-5.08305E+00-2.15483E-02 6.12525E+00 2.87825E-13-1.35364E-13
 -1      2598 1.79389E+01-5.27934E+00 9.69423E-02 6.62188E+00 4.10727E-13-2.50111E-13
 -1      2599 2.36190E+01-5.05041E+00 5.84571E-02 4.67065E+00 2.75752E-13-1.64549E-13
 -1      2600 3.07720E+01 2.26308E-01-1.23903E-01 8.10495E-01 1.94032E-13-1.77552E-13
 -1      2601 2.92085E+01-1.41839E+00-4.27879E-02 1.63114E+00 2.08816E-13-1.18849E-13
 -1      2602 2.67861E+01-3.57478E+00 1.62277E-02-3.21631E+00 1.53280E-13-2.24487E-13
 -1      2603 2.90006E+01-2.11420E+00-9.38118E-02-2.21104E+00 2.06668E-13-4.71012E-14
 -1      2604 3.25860E+01 4.94380E+00-1.16895E-01-6.88758E-01-1.64146E-13-1.60899E-13
 -1      2605 3.15364E+01 2.78145E+00-7.84230E-02-2.90099E-01 5.45952E-14-1.14964E-13
 -1      2606 3.26957E+01 4.75546E+00-8.40738E-02 4.26305E-01 1.11022E-13-1.44718E-13
 -1      2607 3.32204E+01 6.05124E+00-1.09430E-01 5.38439E-01-1.22125E-14-1.38112E-13
 -1      2608 3.03931E+01 2.39626E-01-6.98553E-02-7.53859E-01 1.82306E-13-5.03486E-14
 -1      2609 3.23336E+01 2.55744E+00-7.04305E-02-1.63581E-01 1.77719E-13-1.39333E-13
 -1      2610 3.08199E+01 3.09803E+00-3.38429E-02 1.12138E+00 1.57069E-13-9.88098E-14
 -1      2611 1.99869E+01-5.38739E+00 4.53577E-02-6.21679E+00 3.41560E-13-1.61524E-13
 -1      2612 2.35254E+01-4.91540E+00-8.96607E-02-5.27966E+00 2.54186E-13-2.26985E-13
 -1      2613 1.22888E+01-5.23713E+00 1.97913E-02-6.91799E+00 3.01426E-14-5.15532E-13
 -1      2614 1.59642E+01-5.28810E+00-2.70153E-02-7.21557E+00 2.89602E-13-1.87298E-13
 -1      2615 3.35245E+01 3.39288E+00-1.15285E-01-1.10586E+00 3.04118E-13 1.25844E-13
 -1      2616 3.27211E+01 1.45585E+00-8.31009E-02-7.58640E-01 1.93956E-13 2.58293E-13
 -1      2617 2.04851E+01 8.74882E-01-7.31901E-03 1.22846E+00 2.19103E-13 2.37440E-13
 -1      2618 2.08359E+01 1.25689E+00-6.05212E-03 1.72911E+00 2.40405E-13 2.68414E-13
 -1      2619 2.06425E+01 1.71555E+00-1.57931E-02 1.92337E+00 2.64257E-13 1.91826E-13
 -1      2620 2.04449E+01 1.05792E+00-9.40347E-03 1.24339E+00 2.31671E-13 1.37642E-13
 -1      2621 3.15678E+01 4.01277E+00 3.53970E-02-2.06279E+00 4.15473E-13 2.08000E-13
 -1      2622 1.99143E+01 2.81343E+00 1.13838E-03-1.10039E+00-9.70475E-14-2.82672E-13
 -1      2623 1.97837E+01 3.16153E+00-1.47351E-02-1.28813E+00-1.16231E-13-3.11534E-13
 -1      2624 1.98790E+01 3.02565E+00-1.71614E-02-1.47781E+00-1.46599E-13-2.98370E-13
 -1      2625 1.99906E+01 3.40403E-01-3.59265E-03 3.06277E-01 1.45054E-13 2.81906E-14
 -1      2626 2.04194E+01 2.11565E+00-1.27697E-02 1.87642E+00 2.67985E-13 7.39374E-14
 -1      2627 1.99861E+01 2.83925E+00-1.50489E-02-1.58810E+00-1.64713E-13-2.79299E-13
 -1      2628 2.01304E+01 2.61368E+00-2.20140E-02-1.75467E+00-1.94116E-13-2.40320E-13
 -1      2629 2.02783E+01 2.05019E+00 1.28215E-03-1.48739E+00-2.01865E-13-2.04287E-13
 -1      2630 2.00829E+01 2.49298E+00 2.56194E-03-1.34335E+00-1.52430E-13-2.65609E-13
 -1      2631 2.54754E+01-4.58944E+00 3.60824E-02-3.67300E+00 1.51976E-13-6.33105E-14
 -1      2632 3.08369E+01 5.54059E+00-5.26743E-02-1.28873E+00-1.36363E-13-2.06946E-13
 -1      2633 2.82570E+01-4.21200E+00 2.83410E-03 1.46796E+00-1.68171E-13 1.65618E-13
 -1      2634 7.89845E+00-2.38629E+00 1.58362E-01 4.14760E+00 1.20320E-14 4.04371E-13
 -1      2635 1.22311E+01-4.30419E+00 1.11654E-01-6.76604E+00 3.21965E-14-7.45182E-13
 -1      2636 2.02539E+01 3.44861E-01 1.47977E-03 5.88988E-01-1.61141E-13 4.96355E-13
 -1      2637 2.02104E+01 4.43169E-01-9.64018E-04 6.54770E-01-4.61944E-14 5.34172E-13
 -1      2638 1.66398E+01-4.67959E+00 8.36377E-02 6.58370E+00 3.64375E-13-1.92374E-13
 -1      2639 5.78905E+00-1.26655E+00 1.78216E-01-1.85254E-01 5.29247E-14-1.18988E-13
 -1      2640 2.04341E+01 1.80794E+00 1.25470E-02 1.56418E+00 2.48669E-13 4.08493E-14
 -1      2641 2.20893E+01-5.79971E+00 2.20022E-02 5.16737E+00-2.86604E-13 4.39038E-13
 -1      2642 2.03310E+01-5.29291E+00 1.39495E-01 5.51924E+00-3.17746E-13 4.04534E-13
 -1      2643 2.42267E+01-5.61775E+00 5.02776E-03 3.91450E+00-3.54120E-13 6.04378E-14
 -1      2644 9.31654E+00-2.69515E+00 1.66109E-01 5.49329E+00 6.42264E-14-1.57652E-14
 -1      2645 1.37009E+01-4.67527E+00 9.67182E-02 6.33206E+00-2.11442E-13 7.62237E-13
 -1      2646 7.33161E+00-2.39726E+00 1.44900E-01-4.47527E+00 2.37310E-14-7.62862E-13
 -1      2647 3.09846E+01 7.52785E+00-3.23812E-02-1.21250E-01-2.25153E-13-2.29834E-13
 -1      2648 5.20014E+00-1.68799E+00 1.61307E-01 1.88399E+00-1.56652E-13-7.39409E-14
 -1      2649 1.81825E+01-5.39250E+00 7.51144E-02-6.06364E+00-3.88023E-14 9.48824E-14
 -1      2650 9.14797E+00-2.51674E+00 1.29916E-01-4.89752E+00-1.41026E-13 1.16462E-13
 -1      2651 9.72037E+00-3.75357E+00 1.06522E-01-5.61974E+00-8.13238E-14 1.35836E-13
 -1      2652 1.29184E+01-3.65135E+00 7.19722E-02-5.94979E+00-1.30063E-13 2.59875E-13
 -1      2653 2.80836E+01-2.87324E+00 4.16168E-03 1.77270E+00 2.12816E-13-1.44801E-13
 -1      2654 3.08712E+01 5.13760E+00-7.11086E-02 1.71818E+00 4.02289E-13 2.65316E-13
 -1      2655 3.14892E+01 1.59519E+00-3.92233E-02 2.01138E+00 3.07032E-13 3.82500E-13
 -1      2656 3.09573E+01 6.46121E+00-3.58512E-02 1.00887E+00-4.22995E-14-1.56902E-13
 -1      2657 2.97375E+01-2.91038E+00 9.80932E-03-3.03030E-01 2.38976E-14 2.35673E-13
 -1      2658 2.02511E+01 2.04328E-01 3.34360E-03-4.46561E-01-6.09604E-14 1.82614E-13
 -1      2659 2.01827E+01 3.13678E-01-4.84114E-04-5.09389E-01-1.59950E-13-9.56849E-14
 -1      2660 2.02136E+01 3.23060E-01-8.87216E-05-6.14753E-01-9.51413E-14 1.43975E-13
 -1      2661 2.03308E+01 1.83502E-01 1.68732E-03-5.12478E-01-2.05993E-14 2.69785E-13
 -1      2662 3.10866E+01-5.02650E-01-5.90587E-02-1.36246E+00 1.59164E-13 2.50244E-13
 -1      2663 3.07711E+01 6.11995E+00-6.14880E-02-4.69107E-01 4.96825E-13 3.27897E-13
 -1      2664 5.36934E+00-2.01885E+00 1.50770E-01-2.14466E+00-1.20015E-13-1.81188E-13
 -1      2665 3.01952E+01 1.20158E+00-4.16705E-02-8.07904E-01 1.24248E-13-3.50553E-14
 -1      2666 2.93656E+01-1.27050E+00-1.35389E-02-4.32635E-01 1.37317E-13 6.23113E-14
 -1      2667 1.90720E+01-5.28040E+00 9.73760E-02-6.45919E+00 2.54907E-13-2.18623E-13
 -1      2668 2.02186E+01 5.00973E-01 3.22671E-03 7.96246E-01-9.86011E-15 3.57158E-13
 -1      2669 2.03209E+01 2.21693E-01-1.00860E-03-6.23185E-01-7.98833E-14-1.33460E-13
 -1      2670 1.98505E+01 2.76544E+00-6.30587E-03 5.16831E-01 1.28778E-13-2.51461E-13
 -1      2671 1.98260E+01 2.81525E+00-5.71530E-03 3.65822E-01 1.11408E-13-2.66692E-13
 -1      2672 1.98094E+01 2.85277E+00-5.63453E-03 2.30124E-01 9.32513E-14-2.71801E-13
 -1      2673 1.98010E+01 2.86969E+00-5.45112E-03 7.53037E-02 7.55521E-14-2.60177E-13
 -1      2674 1.99559E+01 2.50192E+00 3.64727E-03 2.65567E-01 9.66971E-14-2.55989E-13
 -1      2675 2.00462E+01 2.32403E+00-1.07220E-02 1.04743E+00 1.99607E-13-1.33120E-13
 -1      2676 1.99830E+01 2.47303E+00-6.32142E-03 9.11681E-01 1.89351E-13-1.61659E-13
 -1      2677 2.02169E+01 1.90842E+00-1.19715E-02 1.22908E+00 2.29737E-13-7.52046E-14
 -1      2678 2.01257E+01 2.14627E+00-4.82572E-03 1.13565E+00 2.11736E-13-9.94404E-14
 -1      2679 2.01913E+01 1.88675E+00 6.36172E-03 9.28042E-01 1.91943E-13-9.68556E-14
 -1      2680 2.02101E+01 7.26935E-01-3.47877E-03 6.44685E-01 1.76462E-13 1.34636E-14
 -1      2681 2.03521E+01 9.51663E-01 9.16845E-03 9.08463E-01 1.96830E-13 3.12429E-14
 -1      2682 1.02483E+01-2.36298E+00 1.39837E-01 5.11780E+00-1.13423E-13 7.56228E-13
 -1      2683 8.39566E+00-1.25541E+00 1.40616E-01 3.42556E+00 4.18138E-14 2.28151E-13
 -1      2684 2.89216E+01 5.85953E+00-1.89302E-01-1.25916E+00-1.41942E-13-6.72726E-14
 -1      2685 2.88194E+01 4.30949E+00-1.13123E-01-1.81233E+00 5.27356E-15-4.32987E-14
 -1      2686 2.02158E+01 6.28531E-01 8.59521E-03-4.38099E-01-1.48782E-13-1.50692E-13
 -1      2687 2.01315E+01 4.76414E-01-3.35018E-03-2.79374E-01-1.27422E-13-1.65991E-13
 -1      2688 2.01056E+01 3.63964E-01 6.58553E-03-1.59312E-01-9.68542E-14-1.45435E-13
 -1      2689 2.00468E+01 2.69951E-01-1.72360E-03-6.10503E-02-8.54653E-14-1.48659E-13
 -1      2690 2.01961E+01 5.30365E-01-1.65634E-03-2.62527E-01-1.26188E-13-1.30043E-13
 -1      2691 2.00210E+01 2.00509E-01 4.50210E-03 1.51515E-02-6.21708E-14-1.38777E-13
 -1      2692 1.99859E+01 1.41960E-01-7.58884E-04 7.28128E-02-6.12426E-14-1.13162E-13
 -1      2693 2.01277E+01 3.01954E-01-2.12959E-03-5.48062E-02-6.77167E-14-1.09449E-13
 -1      2694 1.99655E+01 9.89082E-02 2.87554E-03 1.17646E-01-7.68330E-14-1.03015E-13
 -1      2695 1.99485E+01 6.30180E-02-1.78749E-04 1.48797E-01-5.53534E-14-1.23243E-13
 -1      2696 2.00721E+01 1.58228E-01-1.94243E-03 7.50314E-02-5.58117E-14-1.24177E-13
 -1      2697 1.99342E+01 3.70920E-02 1.69730E-03 1.72504E-01-6.41045E-14-1.38826E-13
 -1      2698 1.99301E+01 1.62682E-02 1.69739E-04 1.86993E-01-5.66514E-14-1.67037E-13
 -1      2699 2.00325E+01 6.92112E-02-1.57709E-03 1.49916E-01-7.36984E-14-1.05621E-13
 -1      2700 1.99213E+01 1.88130E-03 8.74156E-04 1.97380E-01-3.43082E-14-1.62159E-13
 -1      2701 1.99257E+01-8.62384E-03 3.89427E-04 2.02092E-01-4.85699E-14-1.44109E-13
 -1      2702 2.00071E+01 1.68570E-02-1.21169E-03 1.88473E-01-5.57087E-14-1.50340E-13
 -1      2703 1.99213E+01-1.49937E-02 3.11576E-04 2.04917E-01-3.91526E-14-1.46100E-13
 -1      2704 1.99315E+01-1.82414E-02 5.45069E-04 2.04728E-01-2.59101E-14-1.18348E-13
 -1      2705 1.99933E+01-1.03000E-02-9.08870E-04 2.04771E-01-4.42682E-14-8.71536E-14
 -1      2706 1.99303E+01-1.88902E-02-6.52347E-05 2.04232E-01-4.66470E-14-9.02342E-14
 -1      2707 1.99444E+01-1.68995E-02 6.74712E-04 2.02654E-01-5.21302E-14-1.04347E-13
 -1      2708 1.99881E+01-1.96975E-02-6.80308E-04 2.09243E-01-2.42610E-14-5.12280E-14
 -1      2709 1.99457E+01-1.33557E-02-3.13273E-04 2.01981E-01-3.96193E-14-9.58250E-14
 -1      2710 1.99626E+01-7.47584E-03 8.00625E-04 2.01592E-01-2.44470E-14-1.17266E-13
 -1      2711 1.99896E+01-1.62651E-02-5.19460E-04 2.09619E-01-5.73108E-14-6.91749E-14
 -1      2712 1.99660E+01-7.74281E-04-4.74711E-04 2.03103E-01-4.61555E-14-1.16172E-13
 -1      2713 1.99855E+01 8.07467E-03 9.35500E-04 2.05837E-01-3.19063E-14-1.46697E-13
 -1      2714 1.99961E+01-3.31939E-03-4.14780E-04 2.11672E-01-5.42956E-14-1.07120E-13
 -1      2715 1.99906E+01 1.72039E-02-5.79212E-04 2.11341E-01 2.97801E-15-1.44530E-13
 -1      2716 2.00127E+01 2.83482E-02 1.08503E-03 2.18664E-01 2.86691E-14-1.14783E-13
 -1      2717 2.00068E+01 1.68561E-02-3.55101E-04 2.19775E-01-9.04904E-16-5.76778E-14
 -1      2718 2.00195E+01 3.93209E-02-6.45321E-04 2.29559E-01 2.42366E-14-1.87533E-14
 -1      2719 2.00448E+01 5.21664E-02 1.24839E-03 2.42569E-01 8.09468E-15 4.23384E-16
 -1      2720 2.00213E+01 4.25693E-02-3.31864E-04 2.37287E-01 5.18149E-14-8.56483E-14
 -1      2721 2.00535E+01 6.43878E-02-6.80967E-04 2.59909E-01-3.40812E-14-6.90822E-15
 -1      2722 2.00828E+01 7.82441E-02 1.41769E-03 2.79346E-01-2.27062E-14 8.42775E-15
 -1      2723 2.00396E+01 7.23203E-02-3.39993E-04 2.66775E-01-1.25438E-14-4.03480E-14
 -1      2724 2.00938E+01 9.09349E-02-6.83042E-04 3.03828E-01 1.49474E-14 1.04395E-15
 -1      2725 2.01282E+01 1.04813E-01 1.57647E-03 3.29998E-01-5.23411E-15-2.42585E-14
 -1      2726 2.00622E+01 1.04385E-01-3.79266E-04 3.10082E-01-2.93353E-14 3.15420E-14
 -1      2727 2.01423E+01 1.16802E-01-6.35431E-04 3.61864E-01-1.21711E-14 4.08580E-14
 -1      2728 2.01830E+01 1.29170E-01 1.69744E-03 3.94458E-01-4.60246E-14 4.57009E-14
 -1      2729 2.00905E+01 1.36340E-01-4.57257E-04 3.68221E-01 7.36598E-15 6.64071E-14
 -1      2730 2.02017E+01 1.38642E-01-5.05933E-04 4.33296E-01-5.08916E-14 4.71201E-14
 -1      2731 2.02499E+01 1.47137E-01 1.74005E-03 4.71108E-01 3.16944E-14 8.48095E-14
 -1      2732 2.01262E+01 1.64487E-01-5.92387E-04 4.41099E-01-2.20218E-14 1.06603E-13
 -1      2733 2.02753E+01 1.51353E-01-2.42771E-04 5.15527E-01 2.32609E-15 6.35582E-14
 -1      2734 2.03326E+01 1.52470E-01 1.64789E-03 5.56037E-01 6.93946E-15 2.00670E-14
 -1      2735 2.01724E+01 1.83202E-01-8.18064E-04 5.27018E-01-2.15412E-14 6.21691E-14
 -1      2736 2.03680E+01 1.47494E-01 2.28126E-04 6.03219E-01 5.55736E-14-4.84160E-14
 -1      2737 2.04361E+01 1.36337E-01 1.34540E-03 6.42068E-01 6.05232E-14-6.54628E-14
 -1      2738 2.02340E+01 1.84228E-01-1.18795E-03 6.21944E-01-4.99005E-15-9.53790E-14
 -1      2739 2.04866E+01 1.16888E-01 1.00172E-03 6.87162E-01 6.37125E-14-7.76769E-14
 -1      2740 2.05672E+01 8.71378E-02 7.33834E-04 7.17550E-01 5.62208E-14-1.20627E-13
 -1      2741 2.03183E+01 1.56123E-01-1.77740E-03 7.18497E-01 5.08025E-14-1.31619E-13
 -1      2742 2.06400E+01 4.68100E-02 2.17975E-03 7.52908E-01 2.76981E-14-1.29312E-13
 -1      2743 2.07350E+01-8.71442E-03-3.12831E-04 7.65043E-01-2.68626E-14-3.40528E-14
 -1      2744 2.04361E+01 8.42493E-02-2.67401E-03 8.04653E-01 7.17643E-14-1.53518E-13
 -1      2745 2.08397E+01-7.64053E-02 3.82778E-03 7.79353E-01-1.35701E-13-6.74290E-14
 -1      2746 2.09504E+01-1.63976E-01-1.94653E-03 7.60234E-01-1.43869E-13-9.03765E-14
 -1      2747 2.06026E+01-4.78934E-02-3.94247E-03 8.62126E-01-1.44492E-13-1.48506E-13
 -1      2748 2.10980E+01-2.62974E-01 5.86994E-03 7.37756E-01-7.74754E-14-1.75601E-13
 -1      2749 2.12237E+01-3.83997E-01-4.29377E-03 6.71862E-01-1.91887E-14-2.42093E-13
 -1      2750 2.08370E+01-2.54490E-01-5.53815E-03 8.64616E-01-1.31238E-13-1.67737E-13
 -1      2751 2.14235E+01-5.10583E-01 7.92863E-03 5.92566E-01 1.77411E-14-2.56907E-13
 -1      2752 2.15589E+01-6.54562E-01-7.21081E-03 4.64552E-01 3.48485E-14-2.33818E-13
 -1      2753 2.11594E+01-5.38121E-01-7.11393E-03 7.76641E-01-1.97435E-14-1.99344E-13
 -1      2754 2.18111E+01-7.89315E-01 9.23319E-03 3.06920E-01 6.74789E-14-2.14627E-13
 -1      2755 2.19425E+01-9.24101E-01-1.00096E-02 1.08050E-01 2.32442E-14-1.98087E-13
 -1      2756 2.15823E+01-8.73584E-01-7.72229E-03 5.55285E-01 7.93685E-14-1.94528E-13
 -1      2757 2.22260E+01-1.02246E+00 7.97085E-03-1.41993E-01 1.40728E-14-1.79185E-13
 -1      2758 2.23282E+01-1.08396E+00-1.06367E-02-4.01834E-01 2.75923E-14-1.34195E-13
 -1      2759 2.20923E+01-1.18398E+00-5.80676E-03 1.60401E-01 5.59765E-14-6.84333E-14
 -1      2760 2.25875E+01-1.07262E+00 2.73293E-03-7.29077E-01 3.28526E-14-1.33508E-13
 -1      2761 2.26290E+01-9.75116E-01-6.37650E-03-1.00315E+00 2.95517E-14-8.61195E-14
 -1      2762 2.26270E+01-1.32428E+00-5.24452E-04-4.19340E-01 1.92645E-14 3.83737E-14
 -1      2763 2.27697E+01-7.74113E-01-1.06738E-02-1.33279E+00 1.07654E-13-9.41816E-14
 -1      2764 2.27298E+01-4.48948E-01 2.88003E-03-1.52527E+00 1.05812E-13-2.13904E-14
 -1      2765 2.30577E+01-1.07503E+00 1.01264E-02-1.10682E+00 7.40776E-14-2.02477E-14
 -1      2766 2.26774E+01-3.25220E-02-2.36614E-02-1.70208E+00 2.64864E-14-2.09333E-14
 -1      2767 2.25726E+01 4.79053E-01 1.60423E-02-1.68751E+00 2.36716E-14 5.26857E-15
 -1      2768 2.32066E+01-3.05247E-01 1.33628E-02-1.67450E+00 5.64416E-14-1.55352E-13
 -1      2769 2.23595E+01 9.95046E-01-2.86239E-02-1.54428E+00-2.32614E-14-1.13882E-14
 -1      2770 2.22482E+01 1.48506E+00 1.67528E-02-1.24858E+00-1.68085E-13-3.55021E-14
 -1      2771 2.30220E+01 8.92410E-01 8.17489E-03-1.76917E+00 2.45060E-14-1.69799E-13
 -1      2772 2.20569E+01 1.84023E+00-1.80528E-02-7.51090E-01-2.43887E-13 9.97572E-14
 -1      2773 2.20118E+01 2.02089E+00-4.71204E-04-2.52095E-01-1.21619E-13 1.22926E-13
 -1      2774 2.26760E+01 2.01736E+00-1.14179E-02-1.12649E+00-1.31301E-13 5.69553E-15
 -1      2775 2.20327E+01 1.98610E+00 4.59690E-03 3.84343E-01-1.14484E-13 1.36134E-13
 -1      2776 2.20839E+01 1.73780E+00-2.04575E-02 8.62603E-01-3.90118E-14 1.51939E-13
 -1      2777 2.25213E+01 2.43136E+00-2.02477E-02 7.85787E-02-1.51004E-13 1.00792E-13
 -1      2778 2.22947E+01 1.33361E+00 1.87815E-02 1.31226E+00 5.68113E-14 8.96811E-14
 -1      2779 2.24050E+01 8.15310E-01-2.89644E-02 1.55981E+00 5.26772E-14 2.99385E-13
 -1      2780 2.27231E+01 1.86347E+00-7.21303E-03 1.22475E+00-1.71365E-14 1.96992E-13
 -1      2781 2.25996E+01 2.96690E-01 1.41702E-02 1.64013E+00-4.27900E-14 1.21700E-13
 -1      2782 2.26901E+01-1.99548E-01-2.28803E-02 1.60885E+00 1.79010E-14 9.07868E-14
 -1      2783 2.30629E+01 6.63029E-01 7.25739E-03 1.74018E+00-1.07020E-13 7.18826E-15
 -1      2784 2.27089E+01-5.86503E-01 1.58825E-03 1.38910E+00 1.93205E-14-1.99773E-14
 -1      2785 2.27276E+01-8.77342E-01-8.58194E-03 1.16965E+00-7.50626E-14 9.39670E-15
 -1      2786 2.31965E+01-4.89794E-01 1.40174E-02 1.53928E+00-4.62321E-14-2.24976E-14
 -1      2787 2.25602E+01-1.04603E+00-7.90319E-03 8.25445E-01-1.27304E-13 1.01719E-13
 -1      2788 2.24992E+01-1.11449E+00 2.77517E-03 5.41557E-01-2.36817E-14 1.32059E-13
 -1      2789 2.29870E+01-1.18037E+00 8.23276E-03 9.15087E-01 3.63013E-15 3.57785E-14
 -1      2790 2.22302E+01-1.10381E+00-1.09856E-02 2.15354E-01 9.61950E-14 1.69855E-13
 -1      2791 2.21129E+01-1.02577E+00 7.97848E-03-4.43399E-02 3.19518E-14 1.23197E-13
 -1      2792 2.25279E+01-1.35610E+00-1.27827E-03 2.19799E-01 2.07088E-14 1.01614E-13
 -1      2793 2.18298E+01-9.17358E-01-9.54398E-03-2.87949E-01-1.93899E-15 9.25162E-14
 -1      2794 2.16875E+01-7.76752E-01 9.04061E-03-4.83081E-01-6.44091E-14 7.03366E-14
 -1      2795 2.19861E+01-1.18015E+00-6.16065E-03-3.48570E-01 8.98107E-15-1.05051E-13
 -1      2796 2.14403E+01-6.38485E-01-6.65262E-03-6.34504E-01-9.18430E-14 9.15281E-14
 -1      2797 2.12964E+01-4.92605E-01 7.63388E-03-7.57690E-01-7.77717E-14 9.89792E-14
 -1      2798 2.14818E+01-8.55425E-01-7.84906E-03-7.30225E-01 9.07602E-15-3.76198E-14
 -1      2799 2.11028E+01-3.63893E-01-3.85235E-03-8.31728E-01-7.61273E-14 1.72836E-13
 -1      2800 2.09698E+01-2.39882E-01 5.69599E-03-8.91961E-01 1.86493E-13 1.47873E-13
 -1      2801 2.10701E+01-5.14238E-01-7.00396E-03-9.39713E-01 4.96976E-14-8.50981E-14
 -1      2802 2.08266E+01-1.35583E-01-1.76996E-03-9.08968E-01 3.22654E-13 1.73755E-13
 -1      2803 2.07092E+01-3.96677E-02 3.92778E-03-9.19841E-01 2.56282E-13 3.46848E-13
 -1      2804 2.07582E+01-2.22544E-01-5.35975E-03-1.01706E+00 2.62909E-13 1.56746E-14
 -1      2805 2.06056E+01 4.01965E-02-4.52183E-04-8.97189E-01 2.94065E-13 2.96125E-13
 -1      2806 2.05042E+01 1.12627E-01 2.73527E-03-8.71124E-01 2.32309E-13 1.93907E-13
 -1      2807 2.05303E+01 4.37558E-03-3.75274E-03-1.00086E+00 2.66728E-13 1.43385E-13
 -1      2808 2.04270E+01 1.74846E-01 1.34266E-04-8.20472E-01 9.36030E-15 7.95304E-14
 -1      2809 2.03416E+01 2.31153E-01 1.99245E-03-7.65564E-01-7.35885E-14-9.18413E-14
 -1      2810 2.03619E+01 1.75879E-01-3.22307E-03-9.21323E-01 7.20137E-14-5.23212E-14
 -1      2811 1.98556E+01 5.35231E-02 1.54163E-04-1.46979E-01 8.59315E-14-2.55090E-15
 -1      2812 1.98685E+01 8.44122E-02 3.15375E-03-1.17342E-01 9.84474E-14 7.02566E-15
 -1      2813 3.02246E+01 7.82973E-02-2.61687E-01-2.27876E+00 1.14485E-13 2.48579E-13
 -1      2814 2.97140E+01-1.36111E+00 2.07462E-02-1.60831E+00 4.37844E-15 1.80356E-13
 -1      2815 2.50076E+01-4.84098E+00-8.16715E-02 3.48946E+00 1.57999E-13-1.04007E-13
 -1      2816 2.27144E+01-4.97722E+00 1.01417E-01 4.63450E+00 2.51840E-13-2.23946E-13
 -1      2817 1.98908E+01 1.21234E-01-1.92460E-04-7.16783E-02 1.13770E-13-1.70687E-15
 -1      2818 1.99259E+01 1.72163E-01 5.19440E-03-1.53850E-02 1.21808E-13 4.58135E-15
 -1      2819 1.99925E+01 1.39205E-01-2.39493E-03-7.44939E-02 1.04671E-13 1.62278E-14
 -1      2820 1.98507E+01-8.00044E-03 4.71503E-04-1.97384E-01 1.20582E-14 2.75069E-14
 -1      2821 1.98396E+01 1.13841E-03 8.62803E-04-1.93803E-01 1.76800E-14 6.85014E-15
 -1      2822 1.98679E+01-1.66650E-02 5.69769E-04-1.98356E-01 6.22940E-14-4.44058E-14
 -1      2823 1.98510E+01-1.36638E-02 2.66647E-04-1.99566E-01 4.78240E-14-5.61059E-15
 -1      2824 1.99293E+01-1.02704E-02-9.72121E-04-2.04743E-01 5.07211E-14-3.44310E-14
 -1      2825 1.98927E+01-1.60489E-02 6.76349E-04-1.94520E-01 9.37804E-14-6.36159E-14
 -1      2826 1.98721E+01-1.75231E-02-1.13471E-04-1.97078E-01 7.19464E-14-5.97335E-14
 -1      2827 1.99344E+01-1.90938E-02-7.06022E-04-2.07683E-01 9.63255E-14-3.28018E-14
 -1      2828 1.99229E+01-8.37561E-03 8.11137E-04-1.91660E-01 1.04140E-13-4.71415E-14
 -1      2829 1.98997E+01-1.33033E-02-3.49183E-04-1.92991E-01 9.59383E-14-4.64022E-14
 -1      2830 1.99468E+01-1.66430E-02-5.32544E-04-2.06284E-01 9.46755E-14-1.54241E-14
 -1      2831 1.99578E+01 5.06775E-03 9.87958E-04-1.94285E-01 1.87612E-13-2.83409E-14
 -1      2832 1.99321E+01-2.74460E-03-4.93207E-04-1.92353E-01 1.66329E-13-1.61401E-14
 -1      2833 1.99646E+01-5.50846E-03-4.32041E-04-2.06572E-01 1.34562E-13-5.97918E-14
 -1      2834 1.99976E+01 2.36820E-02 1.21794E-03-2.06152E-01 1.02954E-13-2.71862E-14
 -1      2835 1.99688E+01 1.32160E-02-5.85214E-04-1.99220E-01 1.37272E-13-2.19268E-14
 -1      2836 1.99869E+01 1.28408E-02-3.85330E-04-2.13304E-01 1.63477E-13 3.66158E-14
 -1      2837 2.00432E+01 4.73939E-02 1.51100E-03-2.30643E-01 3.75462E-14-2.07391E-14
 -1      2838 2.00104E+01 3.42461E-02-6.56145E-04-2.17100E-01 1.02338E-13-3.71010E-15
 -1      2839 2.00133E+01 3.77627E-02-3.74169E-04-2.30466E-01 1.04119E-13-5.30016E-14
 -1      2840 2.00961E+01 7.65245E-02 1.87537E-03-2.71054E-01 5.43534E-14-8.50317E-14
 -1      2841 2.00579E+01 6.04749E-02-7.31029E-04-2.49286E-01 3.30989E-14-3.73137E-14
 -1      2842 2.00439E+01 6.92413E-02-3.80624E-04-2.61659E-01 7.98935E-14-1.25733E-14
 -1      2843 2.01582E+01 1.11647E-01 2.31616E-03-3.30771E-01 1.45584E-14 8.59263E-15
 -1      2844 2.01128E+01 9.23614E-02-8.30813E-04-2.99086E-01 2.04202E-14-8.29449E-14
 -1      2845 2.00790E+01 1.07713E-01-3.85755E-04-3.10356E-01 3.29946E-14-1.38966E-14
 -1      2846 2.02315E+01 1.53380E-01 2.83273E-03-4.13347E-01-7.01431E-14 1.01362E-13
 -1      2847 2.01769E+01 1.30530E-01-9.73032E-04-3.69961E-01-1.26678E-14 6.51339E-14
 -1      2848 2.01189E+01 1.53866E-01-3.68409E-04-3.80072E-01-5.10891E-14 8.04357E-14
 -1      2849 2.03180E+01 2.02030E-01 3.41409E-03-5.22418E-01-7.07547E-14 7.44472E-14
 -1      2850 2.02522E+01 1.75503E-01-1.16990E-03-4.65530E-01-7.31777E-14 8.44980E-14
 -1      2851 2.01639E+01 2.08339E-01-3.06745E-04-4.74402E-01-6.42201E-14 5.54258E-14
 -1      2852 2.04197E+01 2.56915E-01 4.03283E-03-6.61371E-01 2.91134E-14-4.60005E-14
 -1      2853 2.03403E+01 2.27215E-01-1.42236E-03-5.89400E-01-6.06360E-14-2.00245E-14
 -1      2854 2.02135E+01 2.71188E-01-1.82516E-04-5.96912E-01-8.64074E-15-5.38656E-15
 -1      2855 2.05381E+01 3.15150E-01 4.63748E-03-8.32619E-01 9.03807E-14-8.45602E-15
 -1      2856 2.04431E+01 2.84111E-01-1.70719E-03-7.44694E-01 1.15573E-13 2.19813E-14
 -1      2857 2.02672E+01 3.40919E-01 5.73610E-06-7.50805E-01 4.17277E-14 3.75528E-14
 -1      2858 2.06756E+01 3.69477E-01 5.14473E-03-1.03625E+00 3.57381E-14 2.61013E-14
 -1      2859 2.05627E+01 3.41520E-01-1.95125E-03-9.33127E-01 3.86426E-14-5.56831E-14
 -1      2860 2.03242E+01 4.12767E-01 2.13528E-04-9.38288E-01 8.46986E-14 1.74210E-13
 -1      2861 2.08365E+01 4.04677E-01 5.43336E-03-1.26770E+00 1.08596E-14 8.10083E-14
 -1      2862 2.07028E+01 3.88862E-01-1.98592E-03-1.15333E+00 4.05589E-14 6.20978E-14
 -1      2863 2.03847E+01 4.75735E-01 2.92537E-04-1.15950E+00-8.66952E-15 1.47523E-13
 -1      2864 2.10315E+01 3.92181E-01 5.33307E-03-1.51405E+00-3.95996E-14 1.88321E-13
 -1      2865 2.08717E+01 4.05204E-01-1.46849E-03-1.39805E+00-4.31952E-15 1.69757E-13
 -1      2866 2.04533E+01 5.07850E-01-1.11384E-04-1.41084E+00-3.48939E-14 2.21838E-13
 -1      2867 2.12846E+01 2.83467E-01 4.55814E-03-1.74828E+00-1.14337E-13 2.25082E-13
 -1      2868 2.10889E+01 3.53123E-01 2.21368E-04-1.64954E+00-8.32111E-14 2.41154E-13
 -1      2869 2.05451E+01 4.69362E-01-1.71274E-03-1.68232E+00-8.50650E-14 4.04546E-13
 -1      2870 2.16455E+01 5.99857E-03 2.68738E-03-1.92059E+00-2.00807E-13 2.28111E-13
 -1      2871 2.13954E+01 1.72547E-01 4.08033E-03-1.87214E+00-8.26296E-14 2.82826E-13
 -1      2872 2.06970E+01 2.95086E-01-5.77604E-03-1.95301E+00-1.22530E-13 4.60364E-13
 -1      2873 2.22010E+01-5.26802E-01-1.39646E-03-1.94631E+00-1.60600E-13 2.27542E-13
 -1      2874 2.18687E+01-2.17983E-01 1.19476E-02-1.99995E+00-1.74096E-13 1.68755E-13
 -1      2875 2.09864E+01-1.08924E-01-1.38675E-02-2.18207E+00-1.44000E-13 3.35953E-13
 -1      2876 2.30703E+01-1.35795E+00-9.28122E-03-1.68735E+00-1.19671E-13 1.18810E-13
 -1      2877 2.26313E+01-8.95763E-01 2.47234E-02-1.91597E+00-1.24025E-13 1.68998E-13
 -1      2878 2.15521E+01-8.47085E-01-2.73337E-02-2.28732E+00-1.53161E-13 1.92804E-13
 -1      2879 2.43615E+01-2.33056E+00-1.68883E-02-9.54672E-01-1.12653E-14 2.17034E-13
 -1      2880 2.38221E+01-1.83393E+00 4.18854E-02-1.43293E+00-1.24766E-13 1.63574E-13
 -1      2881 2.25940E+01-1.95458E+00-4.75551E-02-2.10977E+00-1.01743E-13 1.98437E-13
 -1      2882 2.59807E+01-2.86702E+00-2.74017E-02 3.91992E-01 9.89521E-14 2.93184E-13
 -1      2883 2.54562E+01-2.70881E+00 3.89430E-02-3.35506E-01 1.02064E-13 2.78714E-13
 -1      2884 2.43219E+01-3.09055E+00-4.86978E-02-1.34746E+00-3.82606E-14 2.17817E-13
 -1      2885 2.79351E+01 1.53366E+00-5.98355E-02 2.79093E+00 1.99563E-13 3.16136E-13
 -1      2886 2.79482E+01-2.37720E-01-1.48381E-01 2.86954E+00 1.83020E-13 4.21108E-13
 -1      2887 2.79025E+01 4.91493E+00-2.10906E-01 7.71342E-01 4.09478E-13 1.46258E-13
 -1      2888 2.79903E+01 4.00751E+00-1.86176E-01 1.93568E+00 3.67983E-13 2.59411E-13
 -1      2889 2.84813E+01 3.90583E+00-1.96346E-01-2.10210E+00 4.65544E-13-3.22173E-14
 -1      2890 2.83049E+01 4.92907E+00-1.59408E-01-7.08908E-01 4.84862E-13 9.90995E-14
 -1      2891 2.79111E+01-3.08446E-01-1.09870E-01-2.85287E+00 5.28050E-14-1.51407E-14
 -1      2892 2.79321E+01 1.36920E+00-9.08665E-02-2.59766E+00 2.01783E-13-4.32154E-14
 -1      2893 2.75796E+01-1.58410E+00-1.20317E-01-2.15772E+00-7.39409E-14 3.66443E-14
 -1      2894 2.58903E+01-2.84305E+00 3.46800E-02 3.13092E-02-3.04213E-13 3.80914E-13
 -1      2895 2.65113E+01-2.71657E+00 1.30020E-03-8.21668E-01-9.21832E-14 2.39985E-13
 -1      2896 2.41618E+01-2.11932E+00 4.45255E-02 1.29025E+00-1.77214E-13 4.39595E-13
 -1      2897 2.47250E+01-2.55374E+00-1.44889E-02 7.23078E-01-3.02763E-13 5.01635E-13
 -1      2898 2.48380E+01-3.29315E+00-3.09425E-02 1.15719E+00-3.21717E-13 3.53552E-13
 -1      2899 2.28224E+01-1.14527E+00 2.97382E-02 1.93743E+00-2.10198E-13 2.42152E-13
 -1      2900 2.33027E+01-1.63852E+00-1.13590E-02 1.64381E+00-1.01223E-13 4.39884E-13
 -1      2901 2.29565E+01-2.30168E+00-4.26750E-02 2.08612E+00-1.29719E-13 4.00860E-13
 -1      2902 2.19448E+01-3.92014E-01 1.48057E-02 2.11635E+00-2.15820E-13 9.42251E-14
 -1      2903 2.23173E+01-7.40648E-01-1.43489E-03 2.01692E+00-2.87275E-13 1.46736E-13
 -1      2904 2.17235E+01-1.12715E+00-2.85163E-02 2.38689E+00-1.48015E-13 3.01110E-13
 -1      2905 2.13935E+01 6.82439E-02 5.53935E-03 2.04466E+00-9.38321E-14-6.72904E-14
 -1      2906 2.16751E+01-1.32051E-01 2.36549E-03 2.06514E+00-6.78593E-14-3.97474E-15
 -1      2907 2.10473E+01-2.98094E-01-1.61434E-02 2.34854E+00-1.50274E-13 8.51433E-14
 -1      2908 2.10355E+01 3.02300E-01 9.75657E-04 1.85129E+00-7.32168E-14-3.09283E-13
 -1      2909 2.12563E+01 2.07189E-01 4.33149E-03 1.93565E+00-8.80999E-14-2.35655E-13
 -1      2910 2.06938E+01 1.85567E-01-7.47673E-03 2.15658E+00 3.97706E-14-1.17057E-13
 -1      2911 2.07827E+01 3.97722E-01-8.52995E-04 1.60835E+00-1.38737E-13-2.07547E-13
 -1      2912 2.09634E+01 3.63265E-01 5.19760E-03 1.72127E+00-1.62189E-13-3.71945E-13
 -1      2913 2.05067E+01 4.21399E-01-2.72750E-03 1.90298E+00-6.60137E-14-5.37218E-13
 -1      2914 2.05868E+01 4.25194E-01-9.72952E-04 1.35212E+00 1.11401E-13 1.14585E-13
 -1      2915 2.07380E+01 4.18061E-01 5.28372E-03 1.47466E+00 3.78408E-15 2.89888E-14
 -1      2916 2.03949E+01 5.12573E-01-6.60008E-04 1.63191E+00-2.17816E-13-5.46480E-13
 -1      2917 2.04268E+01 4.32092E-01 9.58273E-04 1.09690E+00 1.13603E-13 3.05620E-13
 -1      2918 2.05512E+01 4.30710E-01 5.26542E-03 1.22044E+00 8.28301E-14 2.34102E-13
 -1      2919 2.03104E+01 5.36458E-01-4.35018E-04 1.36263E+00 6.35807E-14-3.12064E-13
 -1      2920 2.02684E+01 4.68910E-01 2.58193E-03 8.83707E-01 5.45189E-14 4.33767E-13
 -1      2921 2.03695E+01 4.62617E-01 5.68084E-03 1.01028E+00 1.10345E-13 2.66876E-13
 -1      2922 2.02006E+01 5.61064E-01-4.59969E-03 1.13344E+00-2.24312E-14-1.94913E-13
 -1      2923 2.01024E+01 6.16220E-01-5.88811E-03 9.42765E-01-6.65744E-14-7.09655E-14
 -1      2924 1.94410E+01 1.18937E+00-8.18155E-04-1.31058E-01-9.40666E-14 1.35397E-13
 -1      2925 1.94185E+01 1.20434E+00-4.06065E-03 1.91378E-02 1.16056E-13 8.07082E-14
 -1      2926 2.03038E+01 2.63389E-01 9.92756E-04-7.17933E-01-7.14008E-15 2.08327E-14
 -1      2927 2.02515E+01 2.94131E-01 1.33700E-03-6.68882E-01-9.40719E-15 5.18451E-14
 -1      2928 2.02592E+01 2.89972E-01-9.67021E-04-8.17745E-01-6.22503E-14 1.75569E-14
 -1      2929 1.94858E+01 1.15824E+00-4.82029E-03 5.15989E-01 3.73758E-13-5.91957E-13
 -1      2930 1.95555E+01 1.10182E+00 3.15879E-04 6.44421E-01 3.50460E-13-8.13816E-13
 -1      2931 1.95378E+01 1.08823E+00 1.03118E-03-4.20031E-01-2.22234E-13 2.65316E-13
 -1      2932 1.94803E+01 1.13464E+00-5.13542E-03-2.92056E-01-2.49408E-13 1.87479E-13
 -1      2933 1.93393E+01 1.12447E+00 3.77450E-03-2.49937E-01-2.56802E-13-1.83043E-14
 -1      2934 1.94183E+01 1.21621E+00-2.94966E-03 1.96933E-01 8.74732E-15-1.78763E-13
 -1      2935 1.94409E+01 1.19533E+00-2.00465E-03 3.48342E-01 1.25934E-13-3.19409E-13
 -1      2936 1.93420E+01 1.16650E+00 5.02580E-03 4.65894E-01 1.53513E-13-7.02744E-13
 -1      2937 1.92874E+01 1.18838E+00 4.80990E-03 1.03823E-01 2.82109E-14-1.27244E-13
 -1      2938 1.99591E+01 2.32346E-01-7.71277E-04 6.34476E-02 1.18550E-13-9.29415E-15
 -1      2939 2.00246E+01 3.15786E-01 7.84057E-03 1.61545E-01 1.30144E-13 1.45659E-14
 -1      2940 2.00560E+01 2.67904E-01-2.77745E-03 6.06617E-02 1.18921E-13-1.24681E-14
 -1      2941 1.96805E+01 9.37246E-01 2.39930E-03-6.32584E-01-1.63669E-14-6.28418E-14
 -1      2942 1.96031E+01 1.00525E+00-5.16309E-03-5.42236E-01-8.42475E-14 4.02489E-13
 -1      2943 1.94732E+01 9.94077E-01 2.20385E-03-5.43784E-01-6.42130E-14 4.00123E-13
 -1      2944 1.98472E+01 7.56613E-01 3.19509E-03-7.58874E-01 4.22107E-13-3.81096E-14
 -1      2945 1.97608E+01 8.39018E-01-4.41418E-03-7.09624E-01 1.93474E-13 4.81257E-14
 -1      2946 1.96577E+01 8.23656E-01 6.73808E-04-7.48728E-01 1.59547E-13 2.19824E-13
 -1      2947 2.00149E+01 5.69063E-01 2.88548E-03-7.96295E-01 3.27992E-13-4.78995E-13
 -1      2948 1.99275E+01 6.58123E-01-3.73879E-03-7.86088E-01 5.08153E-13-5.94099E-13
 -1      2949 1.98629E+01 6.39134E-01-4.26715E-04-8.53728E-01 3.76680E-13-1.92678E-13
 -1      2950 1.17941E+01-3.30494E+00 1.36801E-01-6.26422E+00 8.59590E-14-8.83238E-13
 -1      2951 1.46545E+01-4.26626E+00 3.98035E-02-6.82645E+00 1.17462E-13-6.03698E-13
 -1      2952 2.03357E+01 1.50018E+00-1.89588E-03 1.26894E+00 2.26744E-13 9.45468E-15
 -1      2953 1.14434E+01-2.44710E+00 6.28445E-02 5.72772E+00 2.13829E-13 2.07001E-13
 -1      2954 8.65955E+00-1.50322E+00 1.95215E-01 4.40159E+00-8.09214E-14 2.35756E-13
 -1      2955 2.86485E+01 6.90471E+00-1.72324E-01 5.89036E-02-1.51434E-13-2.00586E-13
 -1      2956 2.87732E+01 6.61604E+00-1.99404E-01-7.70983E-01-2.37754E-13-1.63980E-13
 -1      2957 2.72728E+01 5.52741E+00-8.99885E-02-1.17901E+00-9.70890E-14-1.78330E-14
 -1      2958 2.41812E+01-4.89782E+00 1.20625E-01-3.94505E+00 1.45731E-13-1.41262E-13
 -1      2959 2.63421E+01-4.31777E+00-1.53765E-01-2.32826E+00 1.11397E-13-1.41401E-13
 -1      2960 1.92224E+01-4.89188E+00-1.49403E-02 6.07704E+00 3.02688E-13-3.64930E-13
 -1      2961 1.55424E+01-3.74695E+00 1.34870E-01 6.30086E+00 2.94473E-13-1.76054E-13
 -1      2962 6.89255E+00-9.17053E-01 1.06131E-01 2.78620E+00-1.31992E-13 7.36911E-14
 -1      2963 6.26172E+00-6.32345E-01 1.73114E-01 6.68686E-01-2.02441E-13-7.50511E-14
 -1      2964 2.80117E+01-2.49620E+00-1.64151E-01 4.85827E-01 2.24751E-13-3.04756E-13
 -1      2965 2.67501E+01-3.79224E+00 1.38481E-02 1.90820E+00 2.35107E-13-2.10207E-13
 -1      2966 2.58126E+01-4.14084E+00 1.95961E-02 2.04003E+00 1.25889E-13-2.97970E-13
 -1      2967 3.01882E+01 8.81308E-03-4.86131E-02 2.28869E+00 1.50796E-13 3.36980E-13
 -1      2968 3.00628E+01 2.06907E+00-1.90572E-01 2.62924E+00 3.15442E-13 3.56007E-13
 -1      2969 1.98447E+01 1.35127E-02 3.49797E-04-1.83836E-01 9.16422E-17-6.76061E-15
 -1      2970 1.98429E+01 3.14154E-02 1.77494E-03-1.70670E-01 3.04343E-14-3.59465E-14
 -1      2971 1.99537E+01 6.03094E-02-1.84314E-03-1.51036E-01 6.46028E-14-2.87665E-14
 -1      2972 1.99343E+01 1.40041E-02-1.35016E-03-1.89479E-01 3.62887E-15-2.17511E-14
 -1      2973 2.03198E+01 1.06072E+00 5.89632E-03-8.58225E-01-1.69317E-13-1.53342E-13
 -1      2974 2.02263E+01 8.15772E-01-5.69402E-03-6.15979E-01-1.59053E-13-1.52868E-13
 -1      2975 2.02609E+01 8.93691E-01 4.92354E-05-5.72851E-01-1.57583E-13-1.54194E-13
 -1      2976 7.79070E+00-1.28642E+00 1.18164E-01-3.66702E+00 8.43769E-14-7.93587E-13
 -1      2977 9.52161E+00-2.33329E+00 1.25610E-01-5.42024E+00 3.87884E-14-1.01025E-12
 -1      2978 1.21789E+01-2.30918E+00 1.60815E-01-5.50866E+00 1.64896E-13-9.50476E-13
 -1      2979 2.00673E+01 4.16195E-01-1.57216E-03 2.89316E-01 1.43502E-13 6.87877E-15
 -1      2980 2.01686E+01 5.54357E-01 1.04861E-02 4.52477E-01 1.51678E-13 1.73486E-14
 -1      2981 2.02527E+01 8.22301E-01 8.40369E-04 6.19191E-01 1.74136E-13-2.64507E-14
 -1      2982 2.01452E+01 4.78712E-01-1.92579E-03 2.81557E-01 1.50101E-13-8.74474E-15
 -1      2983 2.87751E+01 5.19210E+00-1.54812E-01 1.57511E+00 1.87905E-14-1.76414E-13
 -1      2984 2.85340E+01 6.23527E+00-2.12830E-01 9.35113E-01-1.02890E-13-1.99736E-13
 -1      2985 1.99279E+01 2.59607E+00-7.90188E-03 7.95509E-01 1.90468E-13-1.94304E-13
 -1      2986 1.98847E+01 2.68830E+00-6.14275E-03 6.46283E-01 1.52576E-13-2.16275E-13
 -1      2987 2.00038E+01 2.38911E+00 4.32145E-03 5.17339E-01 1.35101E-13-2.13018E-13
 -1      2988 2.00839E+01 2.19103E+00 5.57950E-03 7.46880E-01 1.70763E-13-1.67119E-13
 -1      2989 2.01899E+01 3.68243E-01 8.76982E-04-7.11065E-01 7.43815E-14 8.39164E-14
 -1      2990 2.85040E+01-3.65745E+00-1.72551E-01 1.10735E-01-1.84058E-13 1.54918E-13
 -1      2991 2.68011E+01-4.72593E+00 3.19810E-02 1.78068E+00-3.05922E-13 9.64090E-14
 -1      2992 1.98797E+01 2.69713E+00-6.11524E-03-6.36186E-01-3.04501E-14-2.53897E-13
 -1      2993 1.99220E+01 2.60740E+00-7.75736E-03-7.85753E-01-6.07596E-14-2.43026E-13
 -1      2994 2.38947E+01-5.36237E+00 1.04124E-01-3.90537E+00-1.44801E-13-5.34572E-14
 -1      2995 2.61546E+01-5.20452E+00-1.25760E-01-2.55816E+00-2.19963E-13 5.51503E-14
 -1      2996 2.89768E+01 1.76098E+00-2.22415E-01-1.60456E+00-5.23193E-15-8.58896E-14
 -1      2997 2.88832E+01-1.63979E-01-2.18329E-02-9.56464E-01 1.86295E-13-1.59900E-13
 -1      2998 1.69815E+01-4.55652E+00 1.17395E-01-5.94311E+00-1.79301E-14 1.63439E-13
 -1      2999 2.05581E+01-5.36528E+00-2.14942E-02-5.38296E+00-1.75415E-14-3.29875E-14
 -1      3000 1.65383E+01-4.68310E+00 2.17685E-02 6.36741E+00-2.75446E-13 5.45619E-13
 -1      3001 1.29767E+01-3.58220E+00 1.05648E-01 5.95960E+00-3.44960E-13 8.34860E-13
 -1      3002 7.22870E+00-4.41089E-01 1.45991E-01 1.00511E+00 1.30573E-13-9.09550E-14
 -1      3003 7.08705E+00-4.74196E-01 1.72566E-01-1.49174E+00 1.49027E-13-3.81195E-13
 -1      3004 6.37530E+00-8.21038E-01 1.35287E-01-1.29879E+00-2.27061E-13-2.07973E-13
 -1      3005 7.41482E+00-1.30225E+00 1.72734E-01-3.20590E+00-1.56236E-13-1.39888E-13
 -1      3006 2.80815E+01-2.29744E+00 2.56782E-02-3.35153E-01 1.33241E-13-3.76366E-14
 -1      3007 2.88689E+01-6.24831E-01-1.75594E-01 6.75956E-01 1.68691E-13-5.82034E-14
 -1      3008 2.82764E+01-3.84916E+00 4.07965E-02-4.35765E-01-8.09092E-14 3.14804E-13
 -1      3009 2.94032E+01-2.34340E+00-1.86548E-01 1.06212E+00 1.00420E-13 3.89050E-13
 -1      3010 2.92182E+01 1.69916E+00-9.26103E-02 1.49831E+00 1.66464E-13-1.62925E-13
 -1      3011 2.92489E+01 3.58482E+00-1.96585E-01 1.69319E+00 1.23374E-13-2.15938E-13
 -1      3012 2.03142E+01 1.68887E+00-6.79774E-03-1.29689E+00-1.89897E-13-1.76513E-13
 -1      3013 2.02964E+01 1.30264E+00-3.04212E-03-1.02211E+00-1.80821E-13-1.69905E-13
 -1      3014 2.02802E+01 1.37396E+00 6.16198E-04-9.25285E-01-1.62878E-13-1.74236E-13
 -1      3015 2.02228E+01 1.95296E+00-4.26353E-04-1.26771E+00-1.69670E-13-2.15151E-13
 -1      3016 1.78278E+01-4.80940E+00 1.37933E-01-6.41452E+00 6.78901E-14-2.07029E-13
 -1      3017 2.07800E+01-5.35296E+00-9.10268E-02-5.71283E+00 1.50865E-13-7.86177E-14
 -1      3018 1.71594E+01-4.09304E+00 1.21123E-01-6.16440E+00 5.67185E-14-3.37723E-13
 -1      3019 1.99757E+01 2.48782E+00-6.03153E-03-9.03525E-01-8.23153E-14-2.45653E-13
 -1      3020 2.00394E+01 2.34369E+00-8.98547E-03-1.03639E+00-1.16134E-13-2.58187E-13
 -1      3021 2.00779E+01 2.20536E+00 6.10962E-03-7.40811E-01-7.06528E-14-2.11031E-13
 -1      3022 1.99396E+01 2.53951E+00 3.44336E-03 4.53524E-03 6.21508E-14-2.28079E-13
 -1      3023 1.98003E+01 2.87056E+00-5.50340E-03-6.20416E-02 5.99871E-14-2.45953E-13
 -1      3024 1.98076E+01 2.85593E+00-5.56683E-03-2.16913E-01 3.58057E-14-2.54692E-13
 -1      3025 2.77046E+01 3.83135E+00-9.53831E-02 1.83031E+00 8.53900E-14-1.39749E-13
 -1      3026 1.06114E+01-4.58456E-01 1.06654E-01 3.04911E+00 1.19998E-13 1.80231E-13
 -1      3027 8.75888E+00-3.84252E-01 1.86174E-01 2.12486E+00 2.04062E-13-3.12667E-14
 -1      3028 9.51301E+00 2.12499E-01 8.77385E-02 9.44719E-01 2.46173E-13-1.63564E-13
 -1      3029 1.93948E+01-4.64174E+00 8.84768E-02 5.31994E+00-3.88772E-13 2.88089E-13
 -1      3030 2.78867E+01 2.71633E+00-9.24430E-02-1.93473E+00 1.07414E-14-6.28109E-14
 -1      3031 2.01231E+01 4.54984E-01-1.05739E-03-7.42184E-01 1.42606E-13 5.74320E-14
 -1      3032 1.95054E+01 1.05684E+00 3.68179E-03 7.77385E-01 3.23061E-13-7.65589E-13
 -1      3033 1.96443E+01 1.02021E+00-5.65051E-03 7.73525E-01 2.61901E-13-8.63259E-13
 -1      3034 1.97522E+01 9.32495E-01 1.46464E-03 8.55172E-01 9.99743E-15-6.00774E-13
 -1      3035 2.85964E+01-2.55098E+00-1.56703E-02-1.16178E+00-2.15956E-13-1.46411E-14
 -1      3036 2.13221E+01-4.65111E+00 4.28407E-02 4.84268E+00 1.74250E-13-3.39181E-13
 -1      3037 2.73278E+01-2.67626E+00-2.63038E-02 1.33088E+00 8.08494E-14 3.91041E-13
 -1      3038 2.67277E+01-3.54791E+00-6.49027E-02 4.86033E-02-1.78234E-14 2.46206E-13
 -1      3039 2.87340E+01 2.84296E+00-1.63621E-01 2.70121E+00 3.02175E-13 2.82385E-13
 -1      3040 2.77178E+01-1.72184E+00-3.57520E-02 2.05158E+00 1.05402E-13 3.96919E-13
 -1      3041 1.98568E+01 8.37018E-01-5.60912E-03 9.13952E-01-2.45844E-13-6.94689E-13
 -1      3042 1.99869E+01 7.28210E-01 2.13583E-03 9.35023E-01-1.22322E-13-5.18371E-13
 -1      3043 2.00263E+01 7.03297E-01 5.74670E-03 1.03751E+00-9.25568E-14-5.33632E-13
 -1      3044 1.97497E+01 8.92611E-01 3.83164E-03 9.71413E-01-2.29189E-14-4.76470E-13
 -1      3045 2.71064E+01 5.92142E+00-9.47061E-02 5.56052E-01-1.31867E-13-1.87746E-13
 -1      3046 2.81139E+01 3.27094E-01-6.57841E-02 1.51142E+00 5.84116E-14-4.72122E-14
 -1      3047 2.70595E+01-4.29518E+00 9.04026E-03-9.52389E-01-1.42553E-13 2.17236E-13
 -1      3048 2.00986E+01 4.40015E-01 4.64371E-04-8.32000E-01 2.79988E-13-2.34227E-13
 -1      3049 2.68432E+01-3.29271E+00-7.96722E-03-8.82450E-01 1.45170E-13-1.43024E-13
 -1      3050 2.02895E+01 1.58765E+00-1.19831E-03 1.16774E+00 2.22964E-13-4.51423E-14
 -1      3051 8.17720E+00-1.07700E-01 1.91192E-01-3.34627E-01-2.10505E-13-1.68976E-13
 -1      3052 2.77860E+01-1.51300E+00-3.85084E-02-5.98378E-01 1.83988E-13-2.22738E-13
 -1      3053 1.42306E+01-2.84539E+00 1.38570E-01 5.97614E+00 1.95621E-13-1.07525E-13
 -1      3054 1.31622E+01-1.78166E+00 9.49352E-02 5.16423E+00 8.82974E-14 7.50233E-14
 -1      3055 1.66647E+01-3.15303E+00 5.01728E-02 5.53338E+00 1.47729E-13-2.15980E-13
 -1      3056 9.40143E+00-6.14710E-01 1.80207E-01 3.27472E+00-1.73958E-14 2.43791E-13
 -1      3057 2.27895E+01-4.86525E+00 5.21517E-02-4.35592E+00 1.44385E-13-1.12459E-13
 -1      3058 9.97572E+00-1.46575E+00 1.54434E-01-3.94339E+00-1.42886E-13 2.77833E-14
 -1      3059 2.66997E+01-3.93975E+00-4.49108E-02 3.96398E-01-4.30615E-13 6.59958E-14
 -1      3060 2.71323E+01-2.82646E+00 8.89627E-03-1.00211E+00-1.98008E-13 7.59011E-14
 -1      3061 2.90058E+01-1.37727E+00-3.40664E-02 2.05471E+00 8.10463E-14 4.26520E-13
 -1      3062 3.00592E+01 2.39918E+00-9.93272E-02-2.52407E+00 2.62096E-13 8.90399E-14
 -1      3063 1.57461E+01-3.89473E+00 1.13038E-01-5.87615E+00-6.04655E-14 1.09190E-13
 -1      3064 1.80203E+01-4.02946E+00-1.64280E-02-5.31153E+00 1.70697E-15-5.03209E-14
 -1      3065 1.43849E+01-2.82248E+00 1.02875E-01-5.45193E+00-1.76872E-13 1.05679E-13
 -1      3066 8.97966E+00-4.44595E-01 1.61617E-01-2.44040E+00 2.14519E-13-6.27387E-13
 -1      3067 1.98230E+01 2.82036E+00-5.72731E-03-3.52241E-01 1.48052E-14-2.53771E-13
 -1      3068 1.98468E+01 2.77204E+00-6.21338E-03-5.06052E-01-1.03033E-14-2.59543E-13
 -1      3069 1.99996E+01 2.39684E+00 4.28634E-03-5.08416E-01-2.49244E-14-2.37118E-13
 -1      3070 1.99539E+01 2.50543E+00 3.62988E-03-2.56113E-01 2.23971E-14-2.32620E-13
 -1      3071 2.25271E+01-4.99034E+00 7.55153E-02-4.17880E+00-8.06161E-14-5.85296E-15
 -1      3072 1.33883E+01-2.51918E+00 1.73771E-01 5.20476E+00-1.50852E-13 6.01186E-13
 -1      3073 2.02794E+01 1.36653E+00 2.08546E-03 9.21397E-01 2.04512E-13-5.57454E-14
 -1      3074 9.12888E+00 3.80863E-01 8.06343E-02 5.56226E-01-4.44297E-14-1.44051E-14
 -1      3075 9.45568E+00 2.74918E-01 1.33657E-01-1.36566E+00-1.03353E-13-1.79468E-13
 -1      3076 2.02417E+01 1.47999E+00-6.68435E-03 8.04120E-01 1.78816E-13-8.58341E-14
 -1      3077 2.02037E+01 1.67023E+00-3.85117E-04 7.47592E-01 1.72878E-13-1.13548E-13
 -1      3078 2.00863E+01 2.25088E+00-6.08006E-03-1.11930E+00-1.31892E-13-2.55309E-13
 -1      3079 2.01637E+01 2.06776E+00-8.25925E-03-1.20179E+00-1.54901E-13-2.34881E-13
 -1      3080 2.02350E+01 1.76641E+00 5.80698E-03-1.04020E+00-1.53164E-13-2.08169E-13
 -1      3081 2.01693E+01 1.98077E+00 8.00284E-03-9.16830E-01-1.22166E-13-2.36448E-13
 -1      3082 2.02943E+01 1.15584E+00 5.76393E-03-6.68165E-01-1.46107E-13-1.73553E-13
 -1      3083 2.02576E+01 9.10814E-01-4.81572E-03-4.81398E-01-1.49419E-13-1.68586E-13
 -1      3084 2.02233E+01 4.26542E-01 4.13303E-03-1.19842E-01-7.68623E-14-9.87525E-14
 -1      3085 2.01843E+01 3.19912E-01-2.25819E-03-3.40065E-02-5.50514E-14-1.20092E-13
 -1      3086 2.01704E+01 2.37645E-01 3.14049E-03 2.87333E-02-6.30470E-14-1.10854E-13
 -1      3087 2.01408E+01 1.68740E-01-1.22484E-03 8.12140E-02-7.23731E-14-1.15548E-13
 -1      3088 2.02412E+01 3.38427E-01-8.41326E-04-2.39850E-02-6.97160E-14-9.98161E-14
 -1      3089 2.01242E+01 1.16640E-01 2.17380E-03 1.18925E-01-7.93034E-14-1.14402E-13
 -1      3090 2.01041E+01 7.38667E-02-5.05934E-04 1.48453E-01-5.99207E-14-1.10631E-13
 -1      3091 2.02011E+01 1.77805E-01-1.03625E-03 8.18893E-02-7.91486E-14-1.06653E-13
 -1      3092 2.00879E+01 4.25459E-02 1.37634E-03 1.68921E-01-4.58688E-14-1.21303E-13
 -1      3093 2.00757E+01 1.80360E-02-2.78402E-05 1.83613E-01-5.32434E-14-1.30381E-13
 -1      3094 2.01627E+01 7.69363E-02-9.89009E-04 1.44550E-01-5.78221E-14-1.33304E-13
 -1      3095 2.00611E+01 1.31199E-03 7.54754E-04 1.93126E-01-3.89846E-14-7.21192E-14
 -1      3096 2.00551E+01-1.02120E-02 2.92990E-04 1.99103E-01-3.42711E-14-7.54544E-14
 -1      3097 2.01291E+01 1.82209E-02-8.59069E-04 1.78053E-01-7.95627E-15-7.74369E-14
 -1      3098 2.00425E+01-1.64868E-02 2.86723E-04 2.02584E-01-2.59905E-14-8.20934E-14
 -1      3099 2.00411E+01-1.86166E-02 5.15813E-04 2.04411E-01-2.86863E-14-7.20132E-14
 -1      3100 2.01010E+01-1.03316E-02-7.08507E-04 1.93757E-01-1.97612E-14-8.00656E-14
 -1      3101 2.00304E+01-1.72640E-02-6.22192E-05 2.05637E-01-5.40846E-14-5.53127E-14
 -1      3102 2.00325E+01-1.24588E-02 6.80928E-04 2.06722E-01-6.13515E-14-7.87516E-14
 -1      3103 2.00781E+01-1.69782E-02-5.63234E-04 2.00532E-01-4.19724E-14-7.63947E-14
 -1      3104 2.00234E+01-5.41323E-03-3.25563E-04 2.08582E-01-4.87043E-14-5.41783E-14
 -1      3105 2.00283E+01 4.63478E-03 8.15729E-04 2.11494E-01-1.94009E-14-5.00744E-14
 -1      3106 2.00596E+01-7.42618E-03-4.32674E-04 2.05198E-01-3.67311E-14-3.18944E-14
 -1      3107 2.00202E+01 1.60275E-02-5.30844E-04 2.16217E-01-1.56927E-14-3.88115E-14
 -1      3108 2.00275E+01 3.01219E-02 9.38685E-04 2.22920E-01 2.71148E-14-4.44120E-15
 -1      3109 2.00444E+01 1.43630E-02-3.18613E-04 2.13001E-01 1.65807E-14 1.12184E-14
 -1      3110 2.00202E+01 4.48675E-02-6.97448E-04 2.32262E-01 3.68051E-14-3.95543E-14
 -1      3111 2.00297E+01 6.20711E-02 1.06102E-03 2.44269E-01 2.18486E-14-5.90999E-14
 -1      3112 2.00317E+01 4.55630E-02-2.21416E-04 2.28025E-01-2.37887E-15-7.41906E-14
 -1      3113 2.00227E+01 7.93035E-02-8.35386E-04 2.59632E-01-1.19872E-14-7.85517E-14
 -1      3114 2.00345E+01 9.87030E-02 1.18800E-03 2.78083E-01-3.17872E-14-9.05560E-14
 -1      3115 2.00205E+01 8.39464E-02-1.43066E-04 2.53507E-01-1.42427E-15-2.83908E-14
 -1      3116 2.00277E+01 1.17454E-01-9.44378E-04 3.00568E-01-2.24475E-14-3.31084E-14
 -1      3117 2.00422E+01 1.37908E-01 1.32042E-03 3.26227E-01-7.81523E-15 8.83087E-15
 -1      3118 2.00103E+01 1.27356E-01-8.88644E-05 2.92022E-01 1.14203E-14-1.06084E-13
 -1      3119 2.00358E+01 1.56847E-01-1.01206E-03 3.56629E-01 1.61451E-14-1.92777E-14
 -1      3120 2.00535E+01 1.76690E-01 1.45455E-03 3.89806E-01 9.73765E-15 1.81098E-14
 -1      3121 2.00009E+01 1.73136E-01-7.17769E-05 3.45538E-01 2.60061E-14-6.93272E-14
 -1      3122 2.00482E+01 1.93813E-01-1.00988E-03 4.28534E-01-7.10709E-15 5.33083E-14
 -1      3123 2.00703E+01 2.10498E-01 1.58225E-03 4.68907E-01 2.69519E-15 3.55561E-14
 -1      3124 1.99929E+01 2.17471E-01-1.18350E-04 4.15362E-01 9.91822E-15-7.68718E-14
 -1      3125 2.00676E+01 2.22760E-01-8.88602E-04 5.15818E-01-3.78953E-14 4.28394E-14
 -1      3126 2.00960E+01 2.32459E-01 1.69157E-03 5.62160E-01-6.76975E-14-9.69477E-15
 -1      3127 1.99881E+01 2.54604E-01-2.71475E-04 5.01930E-01-1.95649E-14-2.65885E-14
 -1      3128 2.00988E+01 2.35381E-01-5.72827E-04 6.16288E-01-6.94901E-14 1.24136E-14
 -1      3129 2.01363E+01 2.32576E-01 1.76370E-03 6.66074E-01-1.41442E-14-7.03162E-14
 -1      3130 1.99905E+01 2.75954E-01-6.00315E-04 6.04427E-01-6.96157E-14-8.33001E-15
 -1      3131 2.01498E+01 2.19900E-01 4.62862E-05 7.25225E-01 3.26601E-14-7.84110E-14
 -1      3132 2.02005E+01 1.97080E-01 1.76471E-03 7.74114E-01 7.49272E-14-5.45626E-14
 -1      3133 2.00071E+01 2.69219E-01-1.20854E-03 7.20201E-01-5.30446E-15 1.76407E-14
 -1      3134 2.02328E+01 1.60635E-01 1.11667E-03 8.34240E-01 1.16596E-13-8.83102E-14
 -1      3135 2.03029E+01 1.08350E-01 1.62410E-03 8.75400E-01 2.94026E-14-1.05109E-13
 -1      3136 2.00500E+01 2.17698E-01-2.23813E-03 8.43853E-01 8.41898E-14-4.80139E-14
 -1      3137 2.03662E+01 3.85112E-02 2.82040E-03 9.29619E-01-1.13342E-13-7.57902E-14
 -1      3138 2.04638E+01-5.37069E-02 1.18915E-03 9.52897E-01-1.56577E-13-2.51566E-14
 -1      3139 2.01376E+01 1.00335E-01-3.86213E-03 9.65772E-01-1.92777E-14-1.22350E-13
 -1      3140 2.05754E+01-1.66283E-01 5.33600E-03 9.89908E-01-1.82336E-13-7.24809E-15
 -1      3141 2.07095E+01-3.07192E-01 1.31269E-04 9.80926E-01-1.35919E-13 1.88341E-14
 -1      3142 2.02972E+01-1.06423E-01-6.24789E-03 1.06968E+00-1.35659E-13 4.68733E-15
 -1      3143 2.08913E+01-4.67358E-01 8.67273E-03 9.82548E-01-7.27264E-14-7.97754E-14
 -1      3144 2.10692E+01-6.57628E-01-2.04838E-03 9.22119E-01 2.99096E-14-9.62440E-14
 -1      3145 2.05656E+01-4.22897E-01-9.46506E-03 1.12851E+00-1.49126E-13 7.76066E-14
 -1      3146 2.13430E+01-8.57279E-01 1.24450E-02 8.60974E-01 9.25052E-14-1.46276E-13
 -1      3147 2.15636E+01-1.07860E+00-5.88970E-03 7.26656E-01 6.51733E-14-1.37881E-13
 -1      3148 2.09856E+01-8.51959E-01-1.30796E-02 1.09854E+00 2.22498E-14-9.21473E-14
 -1      3149 2.19411E+01-1.28193E+00 1.59131E-02 5.64108E-01 5.84125E-14-1.07845E-13
 -1      3150 2.21884E+01-1.47891E+00-9.93975E-03 3.37076E-01 2.87034E-14-9.56298E-14
 -1      3151 2.15949E+01-1.35640E+00-1.59200E-02 9.13619E-01 3.98214E-14-1.96389E-13
 -1      3152 2.26342E+01-1.59754E+00 1.50084E-02 4.10916E-02-3.23786E-15 2.25341E-14
 -1      3153 2.28670E+01-1.65741E+00-1.14349E-02-2.63258E-01 4.01823E-14 6.99310E-15
 -1      3154 2.23655E+01-1.80643E+00-2.35092E-02 4.76315E-01 4.77452E-14-1.96545E-13
 -1      3155 2.33348E+01-1.59496E+00 9.80906E-03-7.13341E-01-2.21921E-14 4.05643E-14
 -1      3156 2.34562E+01-1.36004E+00-1.41109E-02-1.06472E+00 2.23476E-15-2.36846E-14
 -1      3157 2.33115E+01-1.93339E+00-1.26266E-02-2.54946E-01 1.85667E-14-1.05486E-13
 -1      3158 2.37214E+01-9.20177E-01-2.01120E-02-1.51930E+00 1.17744E-14-1.30619E-13
 -1      3159 2.37223E+01-2.86352E-01-5.93131E-04-1.74185E+00-2.19711E-14-2.00898E-13
 -1      3160 2.40522E+01-1.40572E+00 3.57960E-03-1.16350E+00-7.61069E-14-1.16089E-13
 -1      3161 2.36837E+01 4.78379E-01-4.86023E-02-1.93651E+00 7.81862E-14-1.65303E-13
 -1      3162 2.35818E+01 1.37038E+00 9.42445E-03-1.85073E+00 9.75209E-14-1.65344E-13
 -1      3163 2.43704E+01 8.24716E-02 3.91204E-03-1.91552E+00 1.27606E-14-2.07678E-13
 -1      3164 2.33226E+01 2.18786E+00-5.89269E-02-1.51739E+00 2.32002E-14-3.63121E-14
 -1      3165 2.32018E+01 2.83922E+00-1.45462E-02-1.04140E+00-1.22565E-13 4.23290E-14
 -1      3166 2.42068E+01 2.07805E+00-6.11368E-03-1.87765E+00 1.06515E-13-1.53592E-13
 -1      3167 2.30905E+01 3.16497E+00-3.37562E-02-2.25046E-01-2.20716E-13 1.04752E-13
 -1      3168 2.30782E+01 3.08570E+00-4.85156E-02 4.10092E-01-1.22426E-13 1.33575E-13
 -1      3169 2.38497E+01 3.53907E+00-1.61712E-02-7.03292E-01-1.31978E-13 3.15420E-14
 -1      3170 2.32811E+01 2.67428E+00 5.13329E-03 1.17701E+00-1.32210E-13 1.46993E-13
 -1      3171 2.33966E+01 1.92572E+00-5.25357E-02 1.60780E+00-1.37945E-13 3.94493E-14
 -1      3172 2.38775E+01 3.40380E+00-2.14358E-02 9.16507E-01-1.44787E-13 1.01108E-13
 -1      3173 2.36261E+01 1.07659E+00 9.27706E-03 1.82762E+00-1.65265E-13 9.46924E-14
 -1      3174 2.37112E+01 1.96970E-01-4.60604E-02 1.86849E+00-1.50803E-13 3.45271E-14
 -1      3175 2.42337E+01 1.67161E+00-2.25127E-02 1.86378E+00-1.75075E-13-1.32535E-13
 -1      3176 2.37331E+01-5.40034E-01 4.63769E-03 1.57978E+00-1.30492E-13 9.76944E-14
 -1      3177 2.36706E+01-1.12121E+00-1.98723E-02 1.31660E+00-1.59398E-14-1.52187E-14
 -1      3178 2.43775E+01-3.35964E-01 4.05530E-03 1.75042E+00-1.49749E-13 6.13311E-14
 -1      3179 2.33848E+01-1.48443E+00-9.82696E-03 8.57898E-01 7.19660E-14 2.89179E-14
 -1      3180 2.32214E+01-1.67037E+00 6.88464E-03 4.96356E-01 1.68310E-14 1.10989E-13
 -1      3181 2.39360E+01-1.58772E+00-5.24499E-03 9.39949E-01 2.98442E-14 1.97379E-13
 -1      3182 2.27637E+01-1.70361E+00-1.37949E-02 7.14436E-02-1.77102E-14 1.98017E-13
 -1      3183 2.25286E+01-1.61542E+00 1.49131E-02-2.40471E-01 4.98223E-14 2.02239E-13
 -1      3184 2.31662E+01-2.00904E+00-8.94898E-03-5.65381E-03 1.11495E-13 2.70517E-13
 -1      3185 2.20874E+01-1.46931E+00-8.94756E-03-5.22533E-01 4.58505E-14 1.36720E-13
 -1      3186 2.18409E+01-1.26410E+00 1.56328E-02-7.43400E-01 3.12237E-14 1.37041E-13
 -1      3187 2.22795E+01-1.78994E+00-1.20066E-02-6.83771E-01-3.98759E-15 3.53183E-13
 -1      3188 2.14823E+01-1.05359E+00-4.73576E-03-8.94198E-01-1.51247E-14 1.13536E-13
 -1      3189 2.12651E+01-8.30827E-01 1.19392E-02-1.02204E+00 2.36681E-15 7.99803E-14
 -1      3190 2.15155E+01-1.32686E+00-1.55623E-02-1.07885E+00 7.06661E-15 3.13305E-13
 -1      3191 2.10119E+01-6.30301E-01-1.40143E-03-1.07689E+00-3.07791E-14-9.49741E-14
 -1      3192 2.08393E+01-4.39251E-01 8.20255E-03-1.13229E+00 1.02202E-13-9.94647E-15
 -1      3193 2.09462E+01-8.19294E-01-1.26906E-02-1.24520E+00-3.09051E-14 9.00040E-14
 -1      3194 2.06746E+01-2.75626E-01 3.60981E-04-1.12758E+00 2.74415E-13 1.20771E-14
 -1      3195 2.05453E+01-1.28129E-01 5.22013E-03-1.13116E+00 2.98801E-13 5.27884E-15
 -1      3196 2.05633E+01-3.87909E-01-8.92977E-03-1.26685E+00 1.38803E-13-1.42380E-13
 -1      3197 2.04455E+01-4.88103E-03 9.88639E-04-1.09027E+00 1.98752E-13 3.24107E-14
 -1      3198 2.03515E+01 1.04130E-01 3.21839E-03-1.05879E+00 2.16962E-13-1.16528E-13
 -1      3199 2.03236E+01-5.63340E-02-5.81465E-03-1.20233E+00 2.34265E-13-1.99087E-13
 -1      3200 2.02955E+01 1.95844E-01 1.61485E-03-9.95562E-01 1.24735E-13-2.38721E-13
 -1      3201 2.02283E+01 2.77970E-01 3.83904E-03-9.41702E-01-6.37304E-14-2.90405E-13
 -1      3202 2.01831E+01 1.86998E-01-4.21586E-03-1.08686E+00 8.71765E-14-5.82031E-13
 -1      3203 1.62513E+01-3.20411E+00 1.15635E-01-5.75599E+00 1.02286E-13-5.26967E-13
 -1      3204 1.85571E+01-4.10561E+00-4.27961E-02-5.58430E+00 1.46057E-13-2.22419E-13
 -1      3205 1.94019E+01 9.08042E-01 3.57327E-03-6.83399E-01 2.92055E-14 6.44482E-13
 -1      3206 1.92916E+01 9.74244E-01-5.79397E-03-5.55897E-01-1.26973E-13 5.37918E-13
 -1      3207 1.99972E+01-1.86127E-02 5.53833E-04-2.06525E-01 4.62397E-14-1.92445E-14
 -1      3208 1.99933E+01-1.61737E-02 3.03724E-04-2.05492E-01 8.89966E-14-4.20976E-14
 -1      3209 2.00021E+01-9.96154E-03 3.48959E-04-2.02262E-01 8.57334E-14-5.01892E-14
 -1      3210 2.00035E+01 1.04662E-03 8.17150E-04-1.96844E-01 3.77850E-14-3.62406E-14
 -1      3211 2.00575E+01-1.06799E-02-7.97560E-04-2.00607E-01 6.25310E-14-3.16831E-14
 -1      3212 2.00049E+01 1.36486E-03 8.70443E-04-2.10628E-01 1.16117E-13 1.96274E-14
 -1      3213 1.99942E+01-7.77257E-03-3.44910E-04-2.08497E-01 1.25524E-13-9.33280E-15
 -1      3214 2.00151E+01 2.54515E-02 1.02798E-03-2.20988E-01 1.47218E-13 7.77886E-14
 -1      3215 2.00018E+01 1.18968E-02-5.66253E-04-2.14715E-01 1.56409E-13 5.67778E-14
 -1      3216 2.00281E+01 1.01189E-02-3.45711E-04-2.16522E-01 1.32301E-13 4.92657E-15
 -1      3217 2.00284E+01 5.76712E-02 1.20385E-03-2.42387E-01 1.04647E-13 5.21302E-14
 -1      3218 2.00126E+01 3.99620E-02-7.65570E-04-2.30059E-01 1.50671E-13 7.82463E-14
 -1      3219 2.00253E+01 4.07186E-02-2.32333E-04-2.30750E-01 1.62567E-13 8.65455E-14
 -1      3220 2.00441E+01 9.80157E-02 1.40630E-03-2.78371E-01 9.06605E-14 3.84358E-14
 -1      3221 2.00258E+01 7.60766E-02-9.70938E-04-2.58224E-01 8.04094E-14 3.26997E-14
 -1      3222 2.00238E+01 8.10228E-02-1.13749E-04-2.56584E-01 8.73973E-14 1.13966E-13
 -1      3223 2.00616E+01 1.46960E-01 1.63824E-03-3.32325E-01-2.94036E-16 8.82344E-14
 -1      3224 2.00405E+01 1.20493E-01-1.20654E-03-3.02640E-01 6.57101E-14 9.03819E-14
 -1      3225 2.00220E+01 1.31078E-01 2.85778E-05-2.97491E-01 3.54126E-14 1.25176E-13
 -1      3226 2.00796E+01 2.05207E-01 1.89848E-03-4.07592E-01-6.90142E-14 4.90630E-14
 -1      3227 2.00558E+01 1.73830E-01-1.49346E-03-3.66648E-01-3.86121E-14 5.29001E-14
 -1      3228 2.00179E+01 1.91429E-01 2.17959E-04-3.56717E-01-1.50589E-14 1.07082E-13
 -1      3229 2.00967E+01 2.73305E-01 2.18172E-03-5.07489E-01-6.44825E-14-7.88166E-15
 -1      3230 2.00700E+01 2.36772E-01-1.84951E-03-4.53581E-01-6.63463E-14 2.03198E-14
 -1      3231 2.00088E+01 2.62781E-01 4.80120E-04-4.37377E-01-5.57216E-14 3.07245E-14
 -1      3232 2.01103E+01 3.50998E-01 2.48203E-03-6.35192E-01-2.35159E-14 6.25058E-14
 -1      3233 2.00812E+01 3.09569E-01-2.28542E-03-5.66736E-01-6.13751E-14 7.15805E-14
 -1      3234 1.99913E+01 3.45503E-01 8.40145E-04-5.42472E-01-1.01673E-13 5.15761E-14
 -1      3235 2.01174E+01 4.36089E-01 2.80163E-03-7.93460E-01 5.49992E-14 1.29745E-13
 -1      3236 2.00863E+01 3.91180E-01-2.79842E-03-7.09214E-01 1.22767E-14 1.47751E-13
 -1      3237 1.99608E+01 4.38782E-01 1.31470E-03-6.74820E-01-5.80807E-14 1.37531E-13
 -1      3238 2.01150E+01 5.22502E-01 3.17069E-03-9.84215E-01-2.65819E-14 3.40709E-13
 -1      3239 2.00821E+01 4.77788E-01-3.35893E-03-8.83642E-01 4.89742E-14 3.05599E-13
 -1      3240 1.99117E+01 5.39210E-01 1.89299E-03-8.36963E-01-2.54816E-14 2.35993E-13
 -1      3241 2.01016E+01 5.97038E-01 3.68309E-03-1.20798E+00-4.62102E-14 4.11180E-13
 -1      3242 2.00659E+01 5.60270E-01-3.88595E-03-1.09179E+00-4.63165E-14 3.69550E-13
 -1      3243 1.98384E+01 6.38416E-01 2.49963E-03-1.03118E+00-5.69235E-14 5.43616E-13
 -1      3244 2.00815E+01 6.34285E-01 4.55335E-03-1.46327E+00-8.44113E-14 5.18404E-13
 -1      3245 2.00383E+01 6.20108E-01-4.20355E-03-1.33415E+00-4.93903E-14 4.69782E-13
 -1      3246 1.97369E+01 7.19249E-01 2.92570E-03-1.25986E+00-8.59503E-14 6.49187E-13
 -1      3247 2.00728E+01 5.89317E-01 6.16247E-03-1.74580E+00-9.36380E-14 4.81898E-13
 -1      3248 2.00090E+01 6.23225E-01-3.93400E-03-1.60951E+00-6.55228E-14 4.97138E-13
 -1      3249 1.96095E+01 7.49882E-01 2.70818E-03-1.52647E+00-8.63440E-14 7.02554E-13
 -1      3250 2.01212E+01 3.89008E-01 8.91875E-03-2.04677E+00-1.01547E-13 4.35376E-13
 -1      3251 2.00083E+01 5.11920E-01-2.31478E-03-1.91405E+00-4.95907E-14 4.98023E-13
 -1      3252 1.94733E+01 6.75561E-01 9.57602E-04-1.83732E+00-5.38419E-14 6.68688E-13
 -1      3253 2.03231E+01-7.21724E-02 1.39130E-02-2.34606E+00-1.71597E-13 2.78155E-13
 -1      3254 2.01058E+01 1.97100E-01 2.19548E-03-2.23773E+00-1.37635E-13 3.44491E-13
 -1      3255 1.93769E+01 4.08353E-01-4.07407E-03-2.20226E+00-5.13171E-14 3.87828E-13
 -1      3256 2.08475E+01-9.32710E-01 1.72941E-02-2.59626E+00-1.17087E-13 1.63115E-13
 -1      3257 2.04435E+01-4.41233E-01 1.47898E-02-2.55391E+00-1.17962E-13 2.30935E-13
 -1      3258 1.94259E+01-1.81903E-01-1.52420E-02-2.63161E+00-1.39807E-13 2.48169E-13
 -1      3259 2.19541E+01-2.23870E+00 2.25810E-02-2.66419E+00-1.25188E-13 1.63640E-13
 -1      3260 2.12726E+01-1.49403E+00 4.85604E-02-2.75407E+00-1.12361E-13 1.74661E-13
 -1      3261 1.98397E+01-1.27009E+00-3.59582E-02-3.09631E+00-9.98914E-14 4.12899E-14
 -1      3262 2.02907E+01 9.89255E-01-6.08923E-04 6.91772E-01 1.72405E-13-5.21499E-14
 -1      3263 2.02686E+01 1.30868E+00 3.46900E-03 7.73054E-01 1.81893E-13-6.69139E-14
 -1      3264 2.02757E+01 1.12889E+00 1.45471E-03 5.95963E-01 1.58456E-13-7.67538E-14
 -1      3265 2.02324E+01 7.76705E-01-3.64418E-03 4.86319E-01 1.49802E-13-4.42608E-14
 -1      3266 2.15562E+01-1.89889E+00 4.58719E-02 2.88659E+00-2.08892E-13 3.06083E-13
 -1      3267 2.22825E+01-2.70997E+00-6.57473E-03 2.72853E+00-2.62308E-13 1.86951E-13
 -1      3268 2.39656E+01-3.35656E+00 1.02198E-01 2.20200E+00-3.24689E-13 1.49906E-13
 -1      3269 2.48428E+01-3.95959E+00-2.21506E-02 1.65472E+00-4.02348E-13 1.20477E-13
 -1      3270 2.55409E+01-4.32854E+00-1.37423E-02 1.60430E+00-4.30569E-13 6.92953E-14
 -1      3271 2.19887E+01-3.38602E+00-3.93191E-02 3.33174E+00-3.51962E-13 9.43169E-14
 -1      3272 2.01455E+01 2.58585E-02 4.49581E-03 2.44837E+00-2.96692E-15-7.64545E-14
 -1      3273 2.04056E+01-2.92018E-01 1.62202E-02 2.53690E+00-1.15666E-13-2.37358E-14
 -1      3274 2.00017E+01 4.19100E-01-1.44081E-03 2.13850E+00 1.93134E-14-2.55513E-13
 -1      3275 2.01388E+01 2.59633E-01 1.00959E-02 2.26088E+00 1.47961E-13-1.30125E-13
 -1      3276 1.93939E+01 2.46026E-01-5.75323E-03 2.43908E+00 6.95910E-14-4.38205E-13
 -1      3277 1.99849E+01 5.90837E-01-3.55162E-03 1.83700E+00-9.10304E-14-3.39597E-13
 -1      3278 2.00614E+01 5.28070E-01 6.72307E-03 1.97034E+00-3.12272E-15-2.26493E-13
 -1      3279 1.94703E+01 5.93495E-01-1.69127E-04 2.07165E+00-3.86606E-14-2.22121E-13
 -1      3280 2.00099E+01 6.44946E-01-3.72735E-03 1.55399E+00-6.17510E-14-5.79492E-13
 -1      3281 2.00603E+01 6.29843E-01 4.69656E-03 1.68803E+00-1.21031E-13-3.94376E-13
 -1      3282 1.96093E+01 7.32830E-01 2.24819E-03 1.75522E+00-6.17107E-14-2.23066E-13
 -1      3283 2.00420E+01 6.52386E-01-1.44259E-03 1.28939E+00-1.11341E-13-4.63644E-13
 -1      3284 2.00783E+01 6.51960E-01 3.51369E-03 1.41819E+00-1.37272E-13-5.28262E-13
 -1      3285 1.97470E+01 7.68203E-01 2.66942E-03 1.47568E+00-7.92964E-14-4.87127E-13
 -1      3286 2.00062E+01 6.86071E-01 7.05299E-04 1.11039E+00 3.17611E-14-4.47282E-13
 -1      3287 2.00635E+01 6.64793E-01 4.17109E-03 1.21051E+00-2.15085E-14-4.82602E-13
 -1      3288 1.98214E+01 7.72244E-01 3.57405E-04 1.26135E+00-7.99499E-14-6.59416E-13
 -1      3289 1.98486E+01 7.80469E-01-4.96089E-03 1.10248E+00-1.83313E-13-8.82527E-13
 -1      3290 2.00510E+01 2.16205E+00-4.34193E-03 2.93104E-01 9.74633E-14-2.29740E-13
 -1      3291 2.00384E+01 2.20082E+00-3.33463E-03 1.71181E-01 6.22272E-14-2.36751E-13
 -1      3292 2.45716E+01-5.00858E+00-3.39359E-02 3.13585E+00-3.92686E-13 9.76771E-14
 -1      3293 2.01257E+01 2.96902E-01-1.96665E-03 4.35740E-02 9.51382E-14-4.34228E-15
 -1      3294 2.01709E+01 3.97119E-01 4.51146E-03 1.34975E-01 1.20717E-13-1.27531E-14
 -1      3295 1.92022E+01 1.06813E+00 1.85722E-03-3.85893E-01-1.18856E-13-2.32567E-14
 -1      3296 1.91332E+01 1.11068E+00-5.12567E-03-2.15670E-01-9.04707E-14-2.94701E-14
 -1      3297 1.91137E+01 9.88453E-01 2.31101E-03-5.36082E-01 3.64378E-14 3.07006E-13
 -1      3298 1.99095E+01 5.28048E-01 5.13091E-03-9.48523E-01 2.37194E-13-4.38291E-13
 -1      3299 1.97773E+01 6.09654E-01-4.10304E-03-9.20743E-01 2.36018E-13 6.09875E-14
 -1      3300 2.51065E+01 4.68149E+00-9.12833E-02 8.08516E-01-1.62426E-13-1.13073E-13
 -1      3301 2.51050E+01 4.98307E+00-1.31201E-01-2.63319E-01-1.09149E-13-9.50143E-14
 -1      3302 2.14492E+01-4.41349E+00 1.31927E-01-4.62138E+00 1.60982E-13-8.48549E-14
 -1      3303 2.36196E+01-4.73944E+00-1.25205E-01-3.27952E+00 1.39864E-13-1.55144E-13
 -1      3304 1.09426E+01-6.05794E-01 5.79025E-02 3.78550E+00 9.92401E-14 3.59782E-13
 -1      3305 9.67716E+00 1.19655E-01 1.29037E-01 2.22255E+00 1.53957E-14 1.88349E-13
 -1      3306 2.69725E+01-8.32542E-01-1.61945E-01-1.40647E+00 1.31388E-13-4.89539E-14
 -1      3307 2.67828E+01-2.31621E+00 2.10044E-02-3.73343E-01 1.99212E-13-2.07015E-13
 -1      3308 2.55886E+01-4.25542E+00 8.57091E-02-1.65503E+00-1.15687E-13 8.22710E-14
 -1      3309 1.96510E+01 7.17580E-01 4.37866E-03-8.73468E-01 2.56404E-13 3.07535E-13
 -1      3310 1.95202E+01 7.98060E-01-5.14896E-03-7.94110E-01 1.33976E-13 5.20192E-13
 -1      3311 1.93728E+01 7.97301E-01 1.58150E-03-8.21476E-01 1.26222E-13 6.96476E-13
 -1      3312 1.96768E+01 5.93692E-01 1.68784E-03-9.80710E-01 8.88231E-15 1.26223E-13
 -1      3313 2.58852E+01-3.73199E+00-1.16970E-01 1.03831E+00 2.02692E-13-3.28598E-13
 -1      3314 2.48688E+01-4.15240E+00 7.76894E-02 2.23029E+00 1.29214E-13-2.28206E-13
 -1      3315 2.05768E+01-7.18207E-01 1.81693E-02 2.73166E+00-9.15578E-14 7.98641E-14
 -1      3316 2.10614E+01-1.25279E+00 2.64094E-02 2.73259E+00-7.69445E-14 2.18915E-13
 -1      3317 2.00499E+01-1.61139E+00-2.05022E-02 3.30932E+00-1.06519E-13 5.22742E-14
 -1      3318 2.65398E+01 3.28920E+00-1.47250E-01-2.05191E+00-6.47954E-14 1.40998E-14
 -1      3319 2.71044E+01 1.44294E+00-2.80560E-02-2.12259E+00 4.41036E-14-2.84980E-14
 -1      3320 2.67637E+01 2.52126E+00-7.72585E-02 2.13109E+00 1.92069E-14 1.03105E-13
 -1      3321 2.61160E+01 3.80753E+00-1.27451E-01 1.84861E+00-3.57353E-14 8.39190E-14
 -1      3322 1.99986E+01-1.38738E-02 7.18329E-04-2.07365E-01 1.10314E-13-3.75822E-14
 -1      3323 1.99909E+01-1.78781E-02-6.79314E-05-2.07156E-01 6.42329E-14-4.60468E-15
 -1      3324 2.00428E+01-1.80369E-02-6.18327E-04-2.06622E-01 5.37250E-14-6.67734E-14
 -1      3325 2.00335E+01-1.00553E-02-4.70251E-04-2.10016E-01 1.06962E-13-1.69567E-14
 -1      3326 2.58109E+01-3.69627E+00 9.69765E-02-1.24553E+00 1.11937E-13-3.30222E-14
 -1      3327 2.65688E+01-2.63216E+00-1.49952E-01 2.38207E-01 1.17572E-13 5.81792E-14
 -1      3328 2.00756E+01 1.56046E-01-1.05703E-03-7.95777E-02 1.09244E-13-4.97775E-15
 -1      3329 2.01073E+01 2.20091E-01 3.67087E-03-2.48475E-02 9.93008E-14 2.95711E-15
 -1      3330 2.01925E+01 3.20852E-01-1.48373E-03 3.45925E-02 9.41667E-14-2.39204E-14
 -1      3331 2.02725E+01 7.15123E-01 4.65577E-03-3.46490E-01-1.18528E-13-1.30067E-13
 -1      3332 2.02286E+01 5.53004E-01-3.64648E-03-2.15755E-01-8.90885E-14-1.23117E-13
 -1      3333 2.02753E+01 5.83314E-01-2.88816E-04-1.88813E-01-7.01869E-14-1.18074E-13
 -1      3334 9.70063E+00 1.93206E-01 8.51315E-02-1.47507E+00 3.45498E-13-4.31044E-13
 -1      3335 1.05172E+01-4.84098E-01 1.09706E-01-3.53151E+00 2.30038E-13-8.26131E-13
 -1      3336 2.27625E+01-4.65210E+00-6.48153E-02 3.82279E+00 1.12341E-13-3.16327E-13
 -1      3337 2.01036E+01-4.05916E+00 7.76502E-02 4.92192E+00 2.53790E-13-3.74686E-13
 -1      3338 2.13430E+01-4.28747E+00 1.62906E-01-4.43623E+00 3.52496E-14-8.01356E-14
 -1      3339 2.36156E+01-4.79072E+00-6.20889E-02-3.23747E+00-5.19584E-14 1.69665E-14
 -1      3340 2.41854E+01-3.93594E+00 1.20603E-02-2.17517E+00 3.06873E-14 1.35404E-13
 -1      3341 1.99302E+01-3.72438E+00 9.30190E-02-4.54899E+00 2.03032E-14-1.49096E-13
 -1      3342 1.21176E+01-1.36261E+00 9.44411E-02-4.69709E+00-4.57342E-14-9.92706E-13
 -1      3343 1.41185E+01-2.44662E+00 4.74162E-02-5.59713E+00 1.71391E-14-8.49945E-13
 -1      3344 1.61205E+01-2.34351E+00 9.78557E-02-5.07275E+00-9.08371E-14-4.77701E-13
 -1      3345 1.56799E+01-2.76179E+00 3.66429E-02 5.38016E+00-1.76290E-13 4.46060E-13
 -1      3346 1.31568E+01-1.44664E+00 9.49052E-02 4.46000E+00 2.26971E-14 6.10109E-13
 -1      3347 2.70722E+01-6.46683E-01 9.29414E-03 1.46627E+00 2.99066E-15 1.11799E-13
 -1      3348 2.69720E+01 9.31419E-01-1.42942E-01 1.93252E+00-7.35523E-16 1.05783E-13
 -1      3349 2.58702E+01 1.23827E+00-5.61834E-02 2.03617E+00-5.76622E-14 2.59390E-13
 -1      3350 1.03336E+01-5.53158E-01 7.78117E-02-3.18528E+00-1.33005E-13 6.54476E-14
 -1      3351 1.22509E+01-1.68999E+00 1.19965E-01-4.75429E+00-1.51920E-13 1.79856E-13
 -1      3352 2.00315E+01 2.21970E+00-3.68200E-03 6.59672E-02 5.42681E-14-2.35562E-13
 -1      3353 2.00309E+01 2.22059E+00-3.68530E-03-5.82638E-02 3.67525E-14-2.18231E-13
 -1      3354 2.01458E+01 1.92481E+00 5.07325E-03 1.01626E-01 4.63148E-14-2.23402E-13
 -1      3355 2.02544E+01 1.46226E+00 5.88483E-03 5.86845E-01 1.61253E-13-1.21028E-13
 -1      3356 2.01626E+01 1.80199E+00-6.97066E-03 6.86815E-01 1.66778E-13-1.47033E-13
 -1      3357 2.01286E+01 1.93155E+00-2.47374E-03 5.90922E-01 1.53873E-13-1.63239E-13
 -1      3358 1.26660E+01-6.30576E-01 1.22158E-01 3.71727E+00 1.60288E-14 4.19692E-13
 -1      3359 1.23866E+01 7.78974E-02 3.91806E-02 2.65832E+00 2.36478E-14 6.69603E-15
 -1      3360 1.47632E+01-7.72012E-01 5.06157E-02 3.78799E+00-1.24862E-13 4.23689E-13
 -1      3361 1.26588E+01-6.02697E-01 1.11227E-01-3.73256E+00 2.07057E-14-7.26405E-13
 -1      3362 2.03421E+01-3.75697E+00 7.25505E-02-4.54274E+00 1.85366E-13-7.85899E-14
 -1      3363 1.92941E+01 1.08548E+00-5.35766E-03 7.72796E-01 1.79012E-13-7.98594E-13
 -1      3364 1.94280E+01 1.02037E+00 1.36108E-03 9.09639E-01 1.34606E-13-4.20234E-13
 -1      3365 2.35419E+01-4.08690E+00 4.41487E-03 2.71021E+00 1.71262E-13-2.41005E-13
 -1      3366 2.61046E+01-1.66939E+00-1.87981E-02 9.87123E-01 1.04240E-13 3.31731E-13
 -1      3367 2.00790E+01 1.70720E-02-1.00444E-03-1.84608E-01 2.59413E-14-6.64798E-14
 -1      3368 2.00153E+01 1.66986E-02 5.93082E-05-1.86973E-01 4.09561E-15-5.25004E-14
 -1      3369 2.00239E+01 3.95485E-02 1.52223E-03-1.72395E-01-1.13905E-15-4.48171E-14
 -1      3370 2.31245E+01-3.24893E+00 6.66387E-02-2.61554E+00 2.03917E-15 1.63623E-13
 -1      3371 2.11786E+01-3.05794E+00-4.63131E-02-3.46458E+00-2.79308E-14 2.04559E-14
 -1      3372 1.28051E+01-9.16530E-01 1.31044E-01 4.33730E+00 8.77423E-15 2.32980E-13
 -1      3373 1.28370E+01-2.62765E-01 6.48345E-02 3.46370E+00-4.15085E-14 1.84186E-13
 -1      3374 1.46948E+01-1.48857E+00 1.35846E-02 4.58523E+00-1.34476E-14-6.33660E-14
 -1      3375 1.83267E+01-2.06596E+00 6.85164E-02 4.18492E+00-2.09792E-13 1.82750E-13
 -1      3376 1.97965E+01-3.13792E+00 6.44834E-02 4.17158E+00-2.45484E-13 1.77080E-13
 -1      3377 2.00710E+01 2.10643E+00-3.10552E-03 3.91426E-01 1.15414E-13-1.95020E-13
 -1      3378 2.01676E+01 1.84988E+00 5.45788E-03 2.91391E-01 9.24245E-14-1.87872E-13
 -1      3379 2.00961E+01 2.02588E+00-5.41609E-03 5.05008E-01 1.38483E-13-1.70991E-13
 -1      3380 1.91212E+01 1.17280E+00-3.80041E-03 4.00655E-01 1.20325E-13-5.69108E-13
 -1      3381 1.91898E+01 1.14529E+00 1.68416E-04 5.80472E-01 2.64819E-13-9.37843E-13
 -1      3382 1.90987E+01 1.12767E+00 4.07253E-03 7.23610E-01 3.81921E-14-7.98278E-13
 -1      3383 2.01292E+01 3.93920E-01-1.20801E-04-8.82227E-01 1.46410E-13-3.44846E-13
 -1      3384 2.34727E+01-4.72133E+00 1.18840E-01 3.67756E+00-4.05277E-13-3.43094E-14
 -1      3385 2.00362E+01 4.16677E-01-3.87036E-03-9.53456E-01 2.76367E-13-6.57502E-13
 -1      3386 1.99846E+01 3.91128E-01 3.71958E-04-1.02852E+00 1.06823E-13-5.64046E-13
 -1      3387 1.90964E+01 1.16459E+00-8.64718E-04-6.76816E-03 3.08845E-14-7.39393E-14
 -1      3388 1.90912E+01 1.17386E+00-2.94001E-03 1.82795E-01 1.48033E-14-1.62745E-13
 -1      3389 1.89461E+01 1.18027E+00 5.41126E-03 2.96019E-01 9.14204E-14-4.05523E-13
 -1      3390 1.89575E+01 1.12829E+00 4.37603E-03-1.46260E-01 2.32963E-14-1.44645E-13
 -1      3391 2.51804E+01 4.55377E+00-1.12047E-01-1.04835E+00-3.23908E-14-2.12740E-13
 -1      3392 2.02860E+01 9.47596E-01 2.70208E-04-4.25241E-01-1.10351E-13-1.45646E-13
 -1      3393 1.95098E+01-4.47180E-01-1.48347E-02 2.86446E+00 1.46554E-14-1.64348E-13
 -1      3394 2.43512E+01-3.89913E+00 6.32286E-04-1.95045E+00 1.09933E-13 2.23467E-14
 -1      3395 2.03359E+01-4.11002E+00 7.16963E-02 4.59575E+00-3.46223E-13 1.04274E-13
 -1      3396 1.87120E+01-3.49393E+00 5.83075E-02 5.16822E+00 1.49679E-13-3.19692E-13
 -1      3397 1.72729E+01-2.63828E+00 3.78183E-02 4.93251E+00 7.49158E-14-2.25105E-13
 -1      3398 2.03560E+01-3.48934E+00 3.60977E-02 4.19384E+00 1.46114E-13-3.28980E-13
 -1      3399 2.53758E+01 3.80432E+00-1.16312E-01-1.72266E+00-4.54012E-14-1.66273E-13
 -1      3400 1.08169E+01 5.23377E-01 1.12966E-01 1.20446E+00 5.20122E-14 7.27335E-14
 -1      3401 2.58774E+01-2.73860E+00 6.39962E-03-2.82946E-02 2.14326E-13-7.03430E-14
 -1      3402 1.47402E+01-1.94562E+00 1.10561E-01-4.66124E+00-1.25580E-13 4.02109E-14
 -1      3403 2.63007E+01 2.35428E-01-1.15379E-02-1.87515E+00 2.32314E-14 5.17017E-14
 -1      3404 2.00577E+01 1.08077E-01 2.46237E-03-1.20319E-01 1.19380E-13-3.26616E-16
 -1      3405 2.01468E+01 1.68329E-01-1.41247E-03-8.11301E-02 1.13591E-13-3.50261E-14
 -1      3406 2.00390E+01 6.84371E-02-3.80743E-04-1.50548E-01 6.20832E-14-3.96444E-14
 -1      3407 2.01763E+01 4.88253E-01-2.79853E-03 2.21495E-01 1.36129E-13-4.03869E-14
 -1      3408 2.02311E+01 6.36529E-01 3.78411E-03 3.61897E-01 1.38891E-13-5.40549E-14
 -1      3409 2.02618E+01 7.95747E-01 1.51437E-03 4.23011E-01 1.42095E-13-6.58621E-14
 -1      3410 2.02318E+01 5.25551E-01-1.54733E-03 2.00032E-01 1.04220E-13-3.71840E-14
 -1      3411 1.01749E+01 5.68999E-01 1.55978E-01-3.65550E-01 2.81095E-13-2.23668E-13
 -1      3412 1.12578E+01 4.93010E-01 5.58533E-02-1.41139E+00 3.30876E-13-4.02255E-13
 -1      3413 1.09739E+01 5.30837E-01 5.85084E-02 7.01612E-01 2.31409E-13-1.89064E-13
 -1      3414 2.00686E+01 2.11219E+00-3.10866E-03-3.84129E-01-1.51209E-14-2.19200E-13
 -1      3415 2.00925E+01 2.03461E+00-5.19670E-03-4.99029E-01-4.56391E-14-2.16199E-13
 -1      3416 2.02391E+01 1.48374E+00-5.27855E-03-8.79465E-01-1.44399E-13-1.98730E-13
 -1      3417 1.13535E+01 1.02310E-01 1.18741E-01-2.26319E+00-1.11780E-13 5.09731E-14
 -1      3418 2.01246E+01 1.94069E+00-2.66701E-03-5.84520E-01-5.62718E-14-1.92118E-13
 -1      3419 2.01611E+01 1.81232E+00-6.48556E-03-6.84005E-01-8.88242E-14-1.94518E-13
 -1      3420 2.02025E+01 1.70418E+00 4.68902E-03-4.53634E-01-6.02827E-14-1.88057E-13
 -1      3421 2.02344E+01 1.50416E+00-2.77263E-03-7.71326E-01-1.37221E-13-2.01915E-13
 -1      3422 1.19093E+01 6.25531E-01 3.77137E-02-1.44536E+00 1.06026E-14 5.33046E-14
 -1      3423 1.29435E+01-8.43053E-02 4.34561E-02-3.10420E+00-5.83283E-14 9.31547E-14
 -1      3424 2.39900E+01-3.81962E+00-8.42655E-02 1.73530E+00 1.16037E-13-2.27106E-13
 -1      3425 2.25511E+01-3.72923E+00 5.10135E-02 3.02203E+00 9.74065E-14-3.23361E-13
 -1      3426 2.02711E+01 2.47534E-01 2.05526E-03 4.43117E-02-7.54114E-14-9.79378E-14
 -1      3427 2.02471E+01 1.74881E-01-1.20018E-03 8.70563E-02-9.27995E-14-9.40044E-14
 -1      3428 2.02317E+01 1.19081E-01 1.51765E-03 1.15303E-01-8.23265E-14-7.89803E-14
 -1      3429 2.02106E+01 7.40746E-02-5.41391E-04 1.40039E-01-2.26719E-14-5.87303E-14
 -1      3430 2.02881E+01 1.75987E-01-4.24465E-04 8.44343E-02-4.91845E-14-4.68800E-14
 -1      3431 2.01921E+01 4.10982E-02 9.88560E-04 1.55545E-01 2.05375E-15-8.81522E-14
 -1      3432 2.01747E+01 1.62133E-02-7.39203E-05 1.68532E-01-3.09277E-15-6.84548E-14
 -1      3433 2.02491E+01 7.36448E-02-5.51945E-04 1.31263E-01-2.94149E-14-3.30795E-14
 -1      3434 2.01552E+01-1.79485E-04 5.37154E-04 1.76081E-01-2.71481E-14-1.15293E-13
 -1      3435 2.01415E+01-1.03328E-02 2.50288E-04 1.82318E-01-3.92337E-14-1.05039E-13
 -1      3436 2.02085E+01 1.60394E-02-5.65800E-04 1.57015E-01-3.38977E-14-1.33955E-13
 -1      3437 2.01221E+01-1.45539E-02 1.66717E-04 1.85807E-01-2.52179E-14-8.93425E-14
 -1      3438 2.01114E+01-1.38012E-02 4.73970E-04 1.89178E-01-1.93751E-14-7.79967E-14
 -1      3439 2.01688E+01-8.56279E-03-5.07164E-04 1.70304E-01-1.74812E-14-1.15260E-13
 -1      3440 2.00924E+01-8.95402E-03-1.37566E-04 1.91689E-01-3.82696E-14-1.00821E-13
 -1      3441 2.00843E+01 1.13501E-05 6.31240E-04 1.95186E-01-3.34194E-14-8.08557E-14
 -1      3442 2.01310E+01-8.62583E-03-4.06746E-04 1.78100E-01-2.43041E-14-1.13906E-13
 -1      3443 2.00656E+01 1.17478E-02-3.94434E-04 1.99142E-01-1.64180E-14-7.21564E-14
 -1      3444 2.00593E+01 2.70312E-02 7.49522E-04 2.05080E-01 3.66934E-15-7.37368E-14
 -1      3445 2.00949E+01 9.82960E-03-2.81696E-04 1.85920E-01-8.11968E-15-1.42938E-13
 -1      3446 2.00405E+01 4.41051E-02-6.20703E-04 2.12415E-01 6.42870E-15-6.91139E-14
 -1      3447 2.00355E+01 6.43228E-02 8.50114E-04 2.22619E-01 8.33355E-15-6.94724E-14
 -1      3448 2.00598E+01 4.25311E-02-1.42380E-04 1.98136E-01 8.75413E-15-1.28739E-13
 -1      3449 2.00159E+01 8.55293E-02-8.27486E-04 2.34933E-01-1.46410E-14-9.06381E-14
 -1      3450 2.00118E+01 1.09519E-01 9.47810E-04 2.50860E-01-6.88346E-15-7.01689E-14
 -1      3451 2.00243E+01 8.63419E-02 2.79883E-06 2.18299E-01 3.75780E-14-9.59632E-14
 -1      3452 1.99907E+01 1.33713E-01-1.01882E-03 2.69519E-01 8.53544E-15-9.03454E-14
 -1      3453 1.99873E+01 1.60241E-01 1.05462E-03 2.92323E-01 2.20974E-14-7.36204E-14
 -1      3454 1.99870E+01 1.38629E-01 1.42611E-04 2.49401E-01-8.28352E-15-1.51542E-13
 -1      3455 1.99642E+01 1.86050E-01-1.19094E-03 3.18515E-01 8.17386E-15-7.21098E-14
 -1      3456 1.99615E+01 2.13498E-01 1.18338E-03 3.49058E-01 2.45913E-14-6.40220E-14
 -1      3457 1.99467E+01 1.96643E-01 2.64746E-04 2.94028E-01 2.54738E-14-1.04837E-13
 -1      3458 1.99362E+01 2.38986E-01-1.32822E-03 3.83830E-01 3.25391E-14-8.69977E-14
 -1      3459 1.99348E+01 2.64963E-01 1.34667E-03 4.22638E-01 2.55539E-14-9.41242E-14
 -1      3460 1.99025E+01 2.56827E-01 3.40720E-04 3.54474E-01 8.24650E-15-4.84260E-14
 -1      3461 1.99077E+01 2.87206E-01-1.39794E-03 4.66878E-01 3.07387E-14-4.53730E-14
 -1      3462 1.99090E+01 3.08095E-01 1.56266E-03 5.14021E-01-1.96847E-14-3.61534E-14
 -1      3463 1.98544E+01 3.14012E-01 3.32609E-04 4.32815E-01 4.14384E-14-7.18012E-14
 -1      3464 1.98818E+01 3.22728E-01-1.34772E-03 5.68379E-01-5.26183E-14 3.85125E-14
 -1      3465 1.98885E+01 3.33203E-01 1.85521E-03 6.23278E-01-1.57222E-15 5.50529E-14
 -1      3466 1.98041E+01 3.60440E-01 1.77473E-04 5.30847E-01 2.32713E-14 7.92774E-14
 -1      3467 1.98647E+01 3.33937E-01-1.09411E-03 6.88031E-01 3.77952E-15-7.43640E-15
 -1      3468 1.98814E+01 3.26460E-01 2.25140E-03 7.49163E-01 3.68951E-14-1.13309E-15
 -1      3469 1.97563E+01 3.84732E-01-2.25647E-04 6.49964E-01-4.69079E-15 2.38194E-15
 -1      3470 1.98675E+01 3.04647E-01-5.05806E-04 8.23937E-01 3.21862E-14-1.03686E-14
 -1      3471 1.99016E+01 2.69084E-01 2.76764E-03 8.88358E-01 5.08558E-14-7.70323E-14
 -1      3472 1.97200E+01 3.70799E-01-1.02571E-03 7.90893E-01-7.60699E-15-4.53346E-14
 -1      3473 1.99084E+01 2.13551E-01 6.22591E-04 9.71545E-01 4.75017E-14-1.11399E-13
 -1      3474 1.99710E+01 1.37176E-01 3.37134E-03 1.03407E+00-2.70540E-14-9.70390E-14
 -1      3475 1.97108E+01 2.96898E-01-2.43670E-03 9.53023E-01 9.41855E-15-4.95754E-14
 -1      3476 2.00155E+01 3.47388E-02 2.60505E-03 1.12159E+00-1.31692E-13-1.47357E-13
 -1      3477 2.01224E+01-9.67892E-02 3.89887E-03 1.17334E+00-1.81028E-13-1.75871E-13
 -1      3478 1.97543E+01 1.35347E-01-4.74845E-03 1.13287E+00-8.15104E-14-1.82036E-13
 -1      3479 2.02302E+01-2.59289E-01 5.89154E-03 1.25613E+00-1.85074E-13-3.98939E-14
 -1      3480 2.04002E+01-4.59043E-01 3.70090E-03 1.28210E+00-1.06440E-13-3.37437E-14
 -1      3481 1.98895E+01-1.46039E-01-8.32223E-03 1.32065E+00-1.23551E-13-1.57230E-13
 -1      3482 2.06078E+01-6.89292E-01 1.08579E-02 1.34019E+00-8.14494E-14-3.98552E-14
 -1      3483 2.08598E+01-9.59254E-01 2.09936E-03 1.31535E+00-2.74407E-14-1.40863E-13
 -1      3484 2.01739E+01-5.79166E-01-1.36795E-02 1.49279E+00-1.18166E-13-4.91964E-14
 -1      3485 2.12101E+01-1.24726E+00 1.78757E-02 1.31340E+00 7.47319E-15-1.52373E-13
 -1      3486 2.15529E+01-1.56415E+00-1.55072E-03 1.19819E+00 1.83959E-14-1.45860E-13
 -1      3487 2.06826E+01-1.17457E+00-2.04859E-02 1.59595E+00-2.76964E-14-6.85190E-14
 -1      3488 2.21085E+01-1.87239E+00 2.99115E-02 1.07547E+00 5.92833E-14-2.57866E-13
 -1      3489 2.25768E+01-2.11254E+00 1.28827E-02 7.68479E-01 9.18024E-14-2.04798E-13
 -1      3490 2.15041E+01-1.90501E+00-2.76402E-02 1.54900E+00 1.17354E-14-1.90207E-13
 -1      3491 2.31503E+01-2.69063E+00 4.77426E-03 9.95791E-01 4.74204E-14-2.26532E-13
 -1      3492 2.37304E+01-2.73468E+00 1.20966E-03 5.80971E-01 2.65734E-14-1.98931E-13
 -1      3493 2.02888E+01 1.16350E+00-2.96414E-05-4.77632E-01-9.27129E-14-1.62771E-13
 -1      3494 2.02908E+01 9.32572E-01-4.04467E-03-3.37884E-01-7.57261E-14-1.24952E-13
 -1      3495 2.47282E+01 2.71946E+00-1.97716E-02 1.81423E+00-1.42081E-13-6.40096E-14
 -1      3496 2.48342E+01 1.47269E+00-8.53899E-02 2.01930E+00-1.69108E-13-1.28734E-14
 -1      3497 2.45807E+01-1.86874E+00 1.49560E-02 7.92582E-01-7.05881E-14 4.12683E-13
 -1      3498 2.42268E+01-2.33235E+00 2.30858E-02 2.50545E-01 9.15171E-14 4.00027E-13
 -1      3499 2.34506E+01-2.43785E+00-1.92876E-02-3.18480E-01 1.71673E-13 1.95782E-13
 -1      3500 2.30260E+01-2.31397E+00 2.45030E-02-7.05021E-01 1.35008E-13 2.02097E-13
 -1      3501 2.38930E+01-2.83672E+00-2.93008E-02-5.54931E-01 7.51135E-16 3.70841E-13
 -1      3502 2.23732E+01-2.11636E+00-6.27048E-03-9.87931E-01 4.93247E-14 2.22143E-13
 -1      3503 2.19753E+01-1.83908E+00 2.29440E-02-1.22978E+00-8.04001E-15 2.66793E-13
 -1      3504 2.25367E+01-2.44945E+00-5.23178E-04-1.29482E+00 9.11424E-14 8.96557E-14
 -1      3505 2.14749E+01-1.52442E+00-1.80205E-03-1.34524E+00-1.91203E-14 1.63868E-13
 -1      3506 2.11523E+01-1.20610E+00 1.63620E-02-1.44591E+00 7.08678E-15 1.24098E-13
 -1      3507 2.14154E+01-1.85265E+00-2.89233E-02-1.66831E+00-6.63159E-14 6.02214E-14
 -1      3508 2.08405E+01-9.21055E-01 2.91996E-03-1.44154E+00-1.79926E-14 9.27240E-14
 -1      3509 2.06072E+01-6.55076E-01 9.85571E-03-1.46067E+00-4.19174E-15 9.27505E-14
 -1      3510 2.06726E+01-1.12260E+00-1.80569E-02-1.70048E+00 3.53311E-14-8.24464E-14
 -1      3511 2.04307E+01-4.26628E-01 3.98724E-03-1.40274E+00-4.68747E-14 6.25617E-14
 -1      3512 2.02776E+01-2.24166E-01 5.65567E-03-1.37509E+00 8.08685E-14-1.25363E-13
 -1      3513 2.02283E+01-5.40449E-01-1.21524E-02-1.59185E+00-2.99726E-14 2.25009E-13
 -1      3514 2.01910E+01-5.49061E-02 3.45966E-03-1.29272E+00 1.14589E-13-1.90954E-13
 -1      3515 2.01016E+01 9.09650E-02 3.78246E-03-1.23816E+00 5.11997E-14-3.49384E-13
 -1      3516 1.99923E+01-1.04959E-01-8.29449E-03-1.42429E+00-1.54312E-14 7.85184E-14
 -1      3517 2.00554E+01 1.98722E-01 2.66157E-03-1.16977E+00-8.52486E-14-4.46995E-13
 -1      3518 2.00059E+01 3.08406E-01 2.79733E-03-1.09754E+00-6.41460E-14-5.69756E-13
 -1      3519 1.98266E+01 3.95154E-01-5.74069E-03-1.10271E+00-8.42141E-14-2.27997E-13
 -1      3520 1.98765E+01 1.89342E-01-6.63855E-03-1.25618E+00-1.21524E-13-2.02091E-13
 -1      3521 1.26482E+01-2.29916E-02 5.18938E-02-2.93459E+00 1.35975E-13-4.96179E-13
 -1      3522 1.40185E+01-8.72989E-01 2.14386E-02-4.05057E+00-1.77129E-13-6.79810E-13
 -1      3523 2.00490E+01 2.16634E+00-4.31423E-03-2.84861E-01 1.31785E-14-2.15685E-13
 -1      3524 2.01654E+01 1.85362E+00 5.02387E-03-2.85001E-01-2.23554E-15-1.98503E-13
 -1      3525 2.00370E+01 2.20314E+00-3.40903E-03-1.63103E-01 3.66481E-14-2.10790E-13
 -1      3526 2.00349E+01 5.92791E-02 9.10663E-04-2.29067E-01 1.03653E-13 6.89988E-14
 -1      3527 2.00348E+01 3.87613E-02-6.73037E-04-2.18993E-01 1.54749E-13 1.45611E-14
 -1      3528 2.00498E+01 2.20034E-02 8.04637E-04-2.12212E-01 1.60844E-13-1.38572E-14
 -1      3529 2.00511E+01 7.34283E-03-4.12288E-04-2.06786E-01 9.52358E-14-1.35035E-14
 -1      3530 2.00558E+01 3.70462E-02-1.45230E-04-2.08859E-01 1.23629E-13 5.48714E-14
 -1      3531 2.00006E+01 1.66945E-01 1.09255E-03-3.00737E-01-4.31884E-14 1.20617E-13
 -1      3532 2.00002E+01 1.35125E-01-1.22406E-03-2.76157E-01 7.54427E-15 5.06991E-14
 -1      3533 1.99757E+01 2.37884E-01 1.16822E-03-3.61551E-01-1.33266E-14 1.18546E-13
 -1      3534 1.99769E+01 2.00068E-01-1.55656E-03-3.27413E-01-1.44820E-15 1.37178E-13
 -1      3535 1.99590E+01 2.09427E-01 5.96550E-04-3.03688E-01-2.18428E-14 9.78949E-14
 -1      3536 1.99406E+01 3.20987E-01 1.22683E-03-4.42591E-01-6.81802E-14 7.10333E-14
 -1      3537 1.99449E+01 2.76883E-01-1.95396E-03-3.97502E-01-2.35272E-14 1.10228E-13
 -1      3538 1.99105E+01 2.92468E-01 9.92817E-04-3.65073E-01-1.12262E-14 1.01597E-13
 -1      3539 1.98900E+01 4.16360E-01 1.26294E-03-5.46252E-01-1.42211E-13 6.07634E-14
 -1      3540 1.98995E+01 3.66007E-01-2.43584E-03-4.88941E-01-1.28027E-13 1.83153E-14
 -1      3541 1.98459E+01 3.88978E-01 1.50914E-03-4.45087E-01-5.87618E-14 4.40947E-14
 -1      3542 1.98176E+01 5.22712E-01 1.28428E-03-6.74661E-01-8.77687E-14 1.83884E-13
 -1      3543 1.98348E+01 4.66978E-01-3.02131E-03-6.04035E-01-1.18244E-13 1.22329E-13
 -1      3544 1.97582E+01 4.98686E-01 2.17783E-03-5.45500E-01-1.45585E-13 1.34108E-13
 -1      3545 1.97155E+01 6.35917E-01 1.33623E-03-8.29750E-01-1.53124E-13 3.50467E-13
 -1      3546 1.97434E+01 5.77298E-01-3.72998E-03-7.44904E-01-1.26626E-13 2.33280E-13
 -1      3547 1.96388E+01 6.19590E-01 3.02660E-03-6.67859E-01-1.62796E-13 2.19901E-13
 -1      3548 1.95756E+01 7.46666E-01 1.54243E-03-1.01365E+00-5.76220E-14 3.86141E-13
 -1      3549 1.96166E+01 6.90572E-01-4.58333E-03-9.13750E-01-5.80303E-14 3.62363E-13
 -1      3550 1.94774E+01 7.46391E-01 4.06603E-03-8.13865E-01-1.14330E-13 2.00214E-13
 -1      3551 1.93917E+01 8.36849E-01 2.18051E-03-1.22979E+00-1.18960E-13 4.91560E-13
 -1      3552 1.94461E+01 7.93557E-01-5.60638E-03-1.11364E+00-1.10839E-13 4.65211E-13
 -1      3553 1.92624E+01 8.68067E-01 5.26888E-03-9.86413E-01-1.13807E-13 2.00186E-13
 -1      3554 1.91636E+01 8.74072E-01 3.80629E-03-1.48541E+00-8.91327E-14 4.60835E-13
 -1      3555 1.92260E+01 8.61683E-01-6.82487E-03-1.35045E+00-1.01346E-13 5.20989E-13
 -1      3556 1.89823E+01 9.64326E-01 6.53895E-03-1.19192E+00-1.51899E-13 2.57507E-13
 -1      3557 1.89063E+01 8.04044E-01 7.59946E-03-1.79554E+00-4.58654E-14 4.31252E-13
 -1      3558 1.89588E+01 8.52432E-01-8.11234E-03-1.63643E+00-4.72905E-14 4.95005E-13
 -1      3559 1.86283E+01 1.00001E+00 7.63679E-03-1.44499E+00-8.92241E-14 2.12721E-13
 -1      3560 1.86652E+01 5.37196E-01 1.39526E-02-2.18979E+00 7.13866E-15 2.84787E-13
 -1      3561 1.86674E+01 6.96337E-01-8.85745E-03-1.99660E+00 2.41162E-14 3.77771E-13
 -1      3562 1.81999E+01 9.18262E-01 8.27909E-03-1.77655E+00 2.93850E-14 1.65504E-13
 -1      3563 1.85503E+01-5.34306E-02 2.89327E-02-2.71384E+00-7.97058E-14 8.01529E-14
 -1      3564 1.84214E+01 2.93471E-01-3.81397E-03-2.46745E+00-3.47790E-14 1.79166E-13
 -1      3565 1.77249E+01 6.23297E-01 8.88240E-03-2.24625E+00 8.90015E-14 1.63348E-13
 -1      3566 1.88012E+01-1.16403E+00 4.76114E-02-3.37305E+00-9.22908E-14-4.36897E-14
 -1      3567 1.83658E+01-5.04819E-01 1.82830E-02-3.09449E+00-8.03654E-14-2.47120E-14
 -1      3568 1.72573E+01-9.85061E-02-2.55129E-02-2.94860E+00-8.52183E-15-4.79946E-14
 -1      3569 2.52885E+01 3.81568E+00-1.07596E-01 1.53238E+00-1.13874E-13-3.81813E-14
 -1      3570 1.88146E+01-2.40161E+00 7.02956E-02-4.18042E+00-7.73262E-14-1.04469E-13
 -1      3571 1.58065E+01-1.58710E+00 7.13672E-02-4.48783E+00-2.41595E-13-6.09016E-13
 -1      3572 1.74066E+01-2.55619E+00-2.93150E-02-4.76976E+00-3.69774E-14-3.70641E-13
 -1      3573 1.92459E+01 8.63841E-01-8.14723E-03 1.56841E+00-5.53158E-14-1.97544E-13
 -1      3574 1.91803E+01 8.44879E-01 3.43828E-03 1.70525E+00-1.46053E-13-1.08130E-13
 -1      3575 1.86573E+01 5.67235E-01-8.71276E-03 2.23755E+00 8.31062E-14-2.52556E-13
 -1      3576 1.86730E+01 3.66218E-01 1.60853E-02 2.43110E+00 1.34328E-13-2.04535E-13
 -1      3577 1.95008E+01 8.68614E-01-3.78656E-03 1.31304E+00 7.85125E-14-3.40061E-13
 -1      3578 1.94345E+01 8.74712E-01 2.49896E-03 1.43727E+00-2.95096E-14-1.71049E-13
 -1      3579 1.90368E+01 9.94148E-01 7.19588E-03 1.38752E+00 2.15556E-14-1.98789E-13
 -1      3580 1.90131E+01 9.10747E-01 3.55236E-03-7.10324E-01 2.25309E-13 5.79157E-13
 -1      3581 1.88721E+01 9.87032E-01-6.53843E-03-5.37220E-01 9.85537E-14 1.74780E-13
 -1      3582 2.03207E+01 7.39030E-01 3.21057E-03-2.42837E-01-7.54663E-14-1.21822E-13
 -1      3583 2.02992E+01 5.77304E-01-3.15933E-03-1.41562E-01-5.82406E-14-1.13876E-13
 -1      3584 2.03187E+01 9.30608E-01-1.28644E-03-2.82936E-01-6.85143E-14-1.14949E-13
 -1      3585 1.19295E+01 5.67207E-01 3.70677E-02 1.87336E+00 5.59093E-14 7.76532E-14
 -1      3586 1.15835E+01 8.66925E-01 4.58415E-02 3.33639E-01 7.87593E-14-2.75960E-14
 -1      3587 1.94479E+01-3.08406E+00 7.78788E-02-4.44698E+00 8.10740E-14 3.62679E-14
 -1      3588 2.13199E+01-3.78340E+00-7.01412E-02-3.71986E+00 7.35662E-14 2.12396E-13
 -1      3589 1.89779E+01-2.47202E+00 2.54783E-02-4.01750E+00-1.04011E-13-1.01642E-13
 -1      3590 1.89583E+01 7.94026E-01-8.15512E-03 1.86373E+00-2.94652E-13 1.93396E-14
 -1      3591 1.89067E+01 7.11568E-01 7.75923E-03 2.02451E+00-6.47888E-14-1.55913E-13
 -1      3592 1.81804E+01 8.10389E-01 6.09069E-03 2.00311E+00-7.22062E-14 6.26413E-14
 -1      3593 1.86461E+01 9.59701E-01 6.90104E-03 1.65347E+00-1.82030E-13 6.04750E-14
 -1      3594 2.49067E+01 2.68115E+00-3.61161E-02-1.82134E+00-9.29812E-16-1.62585E-13
 -1      3595 1.95597E+01 9.45341E-01-5.43898E-03 9.97634E-01 4.09534E-14-1.63342E-13
 -1      3596 1.97058E+01 8.65761E-01-1.35594E-04 1.05992E+00-7.28651E-14-3.98467E-13
 -1      3597 1.96796E+01 8.60464E-01 1.00123E-03 1.13797E+00-1.04911E-13-4.83157E-13
 -1      3598 1.93708E+01 1.00714E+00 1.69724E-03 1.00915E+00-1.47487E-14-3.10775E-13
 -1      3599 2.02391E+01 3.26726E-01-2.14008E-03 1.31937E-02 1.03794E-13-8.76560E-14
 -1      3600 2.02697E+01 4.34754E-01 3.18565E-03 8.82798E-02 9.00063E-14-7.23307E-14
 -1      3601 2.00193E+01 1.07576E-01 1.00584E-03-2.57528E-01 8.60638E-14 2.98084E-14
 -1      3602 2.00186E+01 8.14584E-02-9.36166E-04-2.41010E-01 1.15463E-13 8.32568E-14
 -1      3603 2.00278E+01 8.19818E-02 5.25005E-05-2.28178E-01 9.86023E-14 3.62355E-14
 -1      3604 1.99966E+01 1.39422E-01 2.92827E-04-2.58858E-01 3.00936E-14 1.38861E-14
 -1      3605 2.01073E+01-1.04895E-02 2.84919E-04-1.91928E-01 4.75585E-14-2.88840E-14
 -1      3606 2.01174E+01 6.29760E-05 6.32718E-04-1.85729E-01 6.11462E-14-1.80544E-14
 -1      3607 1.84313E+01 6.07119E-02-5.07090E-03 2.73396E+00 8.74781E-14-3.57259E-14
 -1      3608 1.85899E+01-3.42402E-01 2.78564E-02 2.97463E+00 2.10647E-14-4.18910E-14
 -1      3609 1.76826E+01 4.33472E-01 5.81162E-03 2.50211E+00 1.68842E-13 8.04854E-14
 -1      3610 1.90061E+01-1.46021E+00 4.81354E-02 3.53464E+00-9.76784E-14 1.45772E-13
 -1      3611 1.65269E+01-1.18363E+00 2.98128E-02 4.07105E+00-8.95811E-14 4.72202E-13
 -1      3612 1.56740E+01-4.22549E-01-4.63536E-03 3.41331E+00-4.95437E-15 3.77493E-13
 -1      3613 1.85254E+01-8.03033E-01 6.61270E-03 3.30270E+00 4.16949E-14 1.45635E-13
 -1      3614 2.02073E+01 1.59587E+00-2.77899E-03-7.12113E-01-1.15224E-13-1.99333E-13
 -1      3615 2.52240E+01 3.81758E-01-7.35076E-03 1.97888E+00-5.95600E-14 2.27651E-13
 -1      3616 2.50697E+01-7.89927E-01-7.70823E-02 1.61621E+00-7.09294E-14 3.25768E-13
 -1      3617 2.54582E+01-2.14304E+00-4.71094E-02-7.25412E-01 9.25388E-14 7.82100E-14
 -1      3618 2.51810E+01-3.02270E+00 6.65894E-02 3.47391E-01 1.74662E-13-1.43250E-13
 -1      3619 2.03044E+01 4.46213E-01 2.71136E-03-7.01009E-02-5.09336E-14-1.00064E-13
 -1      3620 2.02797E+01 3.34997E-01-2.08701E-03-2.10204E-03-5.06754E-14-8.68819E-14
 -1      3621 2.03201E+01 3.39021E-01-1.36941E-04 6.36046E-03-6.79001E-14-1.06446E-13
 -1      3622 1.68302E+01-1.68813E+00 1.10226E-02-4.28287E+00-7.99638E-14-7.30804E-14
 -1      3623 2.50473E+01 1.38873E+00-1.07453E-01-2.15756E+00 1.19633E-13-8.34827E-14
 -1      3624 2.53537E+01-1.38199E-01-1.80491E-02-1.77353E+00 7.40796E-14 5.51989E-15
 -1      3625 2.52338E+01-1.24310E+00-3.31289E-02-1.46533E+00-4.78576E-14 1.23981E-14
 -1      3626 2.45707E+01-1.72874E+00-2.87414E-02-9.55658E-01-5.49224E-15-8.28942E-14
 -1      3627 2.02794E+01 1.14841E+00-3.58392E-03 4.92613E-01 1.46054E-13-1.09330E-13
 -1      3628 2.02698E+01 1.28918E+00 5.58968E-05 4.55065E-01 1.29473E-13-1.16665E-13
 -1      3629 2.22238E+01-3.30795E+00 1.76843E-03 2.63356E+00 5.84029E-14-2.52981E-13
 -1      3630 2.14960E+01-3.61062E+00-9.93828E-03 3.52146E+00 6.46358E-14-4.11478E-13
 -1      3631 2.02390E+01-3.02952E+00 3.57341E-03 3.74474E+00-7.71883E-14-3.65069E-13
 -1      3632 1.91927E+01 1.01521E+00-5.67162E-03 1.08925E+00 1.20497E-14-3.06867E-13
 -1      3633 1.93772E+01 9.58605E-01 3.55575E-03 1.18183E+00 1.32472E-14-1.43779E-13
 -1      3634 1.32952E+01 1.06484E+00 1.03568E-02 5.05370E-02 5.33540E-14 3.93574E-14
 -1      3635 1.24743E+01 9.79088E-01 7.17803E-02-6.10108E-01 3.88526E-14 1.58762E-14
 -1      3636 1.36970E+01 8.97507E-01 1.83386E-02-1.44132E+00 5.14792E-14 9.07607E-14
 -1      3637 2.42828E+01-2.21629E+00-2.79178E-02-5.28151E-01 3.58429E-14-1.46657E-13
 -1      3638 2.50571E+01-1.96807E+00 1.31833E-02 7.64917E-01 1.20078E-14 3.48406E-13
 -1      3639 1.56424E+01-9.49381E-01 5.09145E-02-3.83053E+00-1.71523E-13-5.16899E-13
 -1      3640 2.42512E+01-3.10073E+00 2.64680E-02 8.28329E-01 5.79111E-14-2.29212E-13
 -1      3641 1.96548E+01 4.21087E-01 3.85154E-03-1.15838E+00-2.11296E-14-3.52550E-14
 -1      3642 1.96449E+01 5.14057E-01 2.76388E-03-1.07293E+00-8.68608E-14 3.41155E-14
 -1      3643 1.94656E+01 6.03103E-01-5.81543E-03-1.02576E+00-5.77369E-14 2.44125E-13
 -1      3644 2.01451E+01 1.92632E+00 5.08155E-03-9.51334E-02 2.57176E-14-2.12172E-13
 -1      3645 2.02171E+01 1.61256E+00-2.23441E-03-1.97227E-01 9.97261E-15-1.60139E-13
 -1      3646 2.02269E+01 1.55640E+00-3.82606E-03-2.79675E-01-1.66473E-14-1.74384E-13
 -1      3647 1.64851E+01-1.84356E+00 8.14899E-02 4.60501E+00-4.96027E-14-1.46716E-13
 -1      3648 1.57910E+01-1.15005E+00 1.70088E-02 4.03690E+00-1.33822E-13-1.83097E-13
 -1      3649 1.81050E+01-2.23409E+00 1.55501E-02 4.21653E+00-6.53626E-14-1.75273E-13
 -1      3650 2.01345E+01 1.64674E-02-3.61458E-05-1.77336E-01 3.79113E-14-4.59073E-14
 -1      3651 2.01494E+01 4.10928E-02 1.16312E-03-1.63628E-01 1.13502E-14-4.33687E-14
 -1      3652 2.01768E+01 1.65138E-02-6.84307E-04-1.68622E-01 1.55235E-14-4.99950E-14
 -1      3653 2.00910E+01-1.53454E-02 2.12454E-04-1.95495E-01 5.80322E-14-9.72196E-15
 -1      3654 2.01426E+01-9.28794E-03-5.84438E-04-1.83066E-01 7.11084E-14-2.56041E-14
 -1      3655 2.00847E+01-1.54365E-02 5.09772E-04-1.98397E-01 7.51853E-14-2.11276E-14
 -1      3656 2.00831E+01 5.35446E-03-3.09403E-04-1.97666E-01 7.42373E-14-3.85338E-14
 -1      3657 2.00659E+01-3.51428E-03 6.76264E-04-2.03403E-01 7.15001E-14-3.14459E-14
 -1      3658 2.00693E+01-1.15333E-02-1.26996E-04-2.00526E-01 8.17019E-14-2.45439E-14
 -1      3659 2.03088E+01 5.81062E-01-3.68168E-05 1.42662E-01 1.01790E-13-1.04639E-13
 -1      3660 2.02703E+01 5.66417E-01-2.27881E-03 1.71477E-01 7.71243E-14-6.62438E-14
 -1      3661 1.41329E+01-9.95035E-02-2.28666E-03 3.09332E+00-1.42147E-13 2.17951E-14
 -1      3662 1.29340E+01 3.83047E-01 8.41439E-02 2.53452E+00-4.84213E-14 1.44509E-13
 -1      3663 1.34444E+01 7.17607E-01 2.16002E-02 1.73637E+00-1.76222E-14-6.36297E-14
 -1      3664 2.02076E+01 1.69740E+00 5.84477E-03 4.59817E-01 1.24017E-13-1.48023E-13
 -1      3665 1.86454E+01 1.02320E+00 3.06520E-03-4.98908E-01 2.59946E-13 9.61135E-14
 -1      3666 1.87672E+01 1.09367E+00 1.91559E-03-3.09972E-01 9.90388E-14-1.66348E-13
 -1      3667 1.87020E+01 1.13551E+00-5.36225E-03-9.21705E-02 7.58311E-14-2.44592E-13
 -1      3668 2.02264E+01 1.54919E+00-5.02112E-03 2.83062E-01 8.85156E-14-1.73091E-13
 -1      3669 2.02165E+01 1.60964E+00-2.42594E-03 2.02013E-01 7.23553E-14-1.81831E-13
 -1      3670 1.96557E+01 8.50596E-01-8.54994E-05 1.21618E+00 3.30624E-14-4.33215E-13
 -1      3671 2.02286E+01 2.41943E-01 2.50318E-03-4.02305E-02 1.00735E-13-6.32727E-14
 -1      3672 2.02865E+01 3.36700E-01-5.90819E-04 3.68171E-03 9.80191E-14-1.03990E-13
 -1      3673 2.02025E+01 1.71208E-01-1.22188E-03-8.69814E-02 9.30505E-14-5.90461E-14
 -1      3674 2.03352E+01 5.85961E-01 7.17336E-04-1.13654E-01-4.91894E-14-1.07251E-13
 -1      3675 2.02940E+01 1.39241E+00 6.11529E-03 1.34841E-01 7.68390E-14-1.84489E-13
 -1      3676 2.02101E+01 1.64275E+00-3.26549E-03 1.30068E-01 6.20823E-14-2.04019E-13
 -1      3677 2.02058E+01 1.66262E+00-2.72837E-03 3.96264E-02 4.82076E-14-2.26337E-13
 -1      3678 2.02571E+01 1.39395E+00 3.19325E-03-5.55124E-01-9.60541E-14-1.78033E-13
 -1      3679 2.02596E+01 1.37618E+00 1.21947E-03-4.61429E-01-7.25943E-14-1.48918E-13
 -1      3680 2.18240E+01-3.34131E+00-1.24958E-02-2.97969E+00-4.05613E-14 3.27706E-13
 -1      3681 2.29342E+01-3.72910E+00 8.83254E-02-2.82216E+00 4.04199E-14 1.76336E-13
 -1      3682 2.02825E+01 8.81124E-01-1.10931E-03 4.45850E-01 1.42082E-13-8.00785E-14
 -1      3683 2.02832E+01 1.06031E+00 1.68940E-03 4.83080E-01 1.46102E-13-9.01760E-14
 -1      3684 2.02970E+01 9.16830E-01 4.52885E-04 3.53750E-01 1.24381E-13-9.13430E-14
 -1      3685 2.02694E+01 7.30248E-01-1.10976E-03 3.19814E-01 1.29440E-13-8.09142E-14
 -1      3686 1.24017E+01 4.53883E-01 8.15515E-02-2.15850E+00 1.94018E-13-4.14939E-13
 -1      3687 1.37294E+01 2.55700E-01 4.70181E-02-2.48950E+00 4.87414E-14-4.10050E-13
 -1      3688 1.23456E+01 6.92837E-01 1.13107E-02-1.14163E+00 1.18639E-13-3.48790E-13
 -1      3689 2.02866E+01 6.93674E-01 2.02651E-03 2.66480E-01 1.03879E-13-8.34521E-14
 -1      3690 2.43095E+01-3.48447E+00-4.39234E-02-1.21234E+00-6.76022E-15 2.78817E-13
 -1      3691 2.01085E+01 7.29020E-02-1.22942E-03-1.48968E-01 5.67298E-14-5.15401E-14
 -1      3692 1.73711E+01-2.61218E-01 1.07546E-02 3.16893E+00 5.01717E-14 2.28162E-13
 -1      3693 1.36777E+01 4.03591E-01 2.95263E-02 2.26925E+00 9.17888E-14-1.02002E-13
 -1      3694 1.21901E+01 6.39783E-01 1.10870E-01 1.69773E+00 2.04540E-13-2.20983E-13
 -1      3695 1.23475E+01 8.05922E-01 2.00307E-02 5.83948E-01 1.84361E-13-2.53138E-13
 -1      3696 1.88408E+01 1.15438E+00-5.64893E-03 6.89095E-01 2.63589E-14-8.11446E-13
 -1      3697 1.89931E+01 1.11618E+00 5.07390E-03 8.89144E-01-3.94985E-14-6.45155E-13
 -1      3698 1.89493E+01 1.06646E+00-3.15460E-03 1.07877E+00 8.00122E-14-4.81921E-13
 -1      3699 1.50225E+01-5.69252E-01 6.12535E-02-3.63155E+00-7.06692E-14-1.20702E-14
 -1      3700 1.93160E+01 7.10564E-01 2.60200E-03-9.49666E-01 1.90156E-13 6.25758E-13
 -1      3701 1.91446E+01 8.02101E-01-6.17415E-03-8.38296E-01 1.77994E-13 7.63292E-13
 -1      3702 1.89380E+01 8.22238E-01 2.22570E-03-8.54668E-01 3.14802E-13 5.95405E-13
 -1      3703 1.92706E+01 6.27432E-01 2.98447E-03-1.05445E+00 1.50465E-13 4.78437E-13
 -1      3704 2.02345E+01 1.52228E+00-1.71862E-03-3.40657E-01-3.45096E-14-1.80355E-13
 -1      3705 2.02498E+01 1.43043E+00-3.00466E-03-4.08412E-01-6.55516E-14-1.62223E-13
 -1      3706 2.03017E+01 1.22569E+00 5.47764E-03-3.43808E-01-5.78562E-14-1.42811E-13
 -1      3707 2.03050E+01 1.32166E+00 7.40302E-03-2.47246E-01-3.33350E-14-1.50346E-13
 -1      3708 1.54319E+01 4.24848E-02 6.78419E-02-2.91908E+00 1.63446E-14-1.02418E-14
 -1      3709 2.25325E+01-2.82003E+00 1.09079E-03 1.73847E+00 4.51297E-14-2.00236E-13
 -1      3710 2.03007E+01 1.07972E-01 9.46204E-04 1.03709E-01-4.05471E-14-4.02129E-14
 -1      3711 2.02786E+01 6.50470E-02-4.33165E-04 1.22297E-01-3.05330E-14-5.39909E-14
 -1      3712 2.02569E+01 3.40807E-02 6.13626E-04 1.32389E-01-2.57549E-14-2.68062E-14
 -1      3713 2.02355E+01 1.19774E-02-3.94554E-05 1.42669E-01-2.42399E-14-4.48238E-14
 -1      3714 2.03004E+01 6.18858E-02-2.67015E-04 1.08303E-01-2.67014E-14-1.51906E-14
 -1      3715 2.02113E+01-1.46069E-03 3.04742E-04 1.47816E-01-3.83423E-14-2.85193E-14
 -1      3716 2.01912E+01-8.00083E-03 2.32754E-04 1.53582E-01-1.83447E-14-6.42145E-14
 -1      3717 2.02526E+01 1.19800E-02-3.48660E-04 1.25629E-01-1.49980E-14 1.22930E-14
 -1      3718 2.01658E+01-8.31100E-03 2.56628E-05 1.56609E-01-1.63533E-14-5.35399E-14
 -1      3719 2.01472E+01-3.11143E-03 4.13396E-04 1.60906E-01-1.36356E-14-3.53214E-14
 -1      3720 2.02027E+01-4.01117E-03-3.29196E-04 1.35627E-01-2.56510E-14-1.98468E-14
 -1      3721 2.01210E+01 6.53310E-03-2.30415E-04 1.64102E-01-2.30152E-14-4.05654E-14
 -1      3722 2.01035E+01 2.07357E-02 5.31050E-04 1.69334E-01-1.36751E-14-3.72600E-14
 -1      3723 2.01519E+01 5.69110E-03-2.36339E-04 1.43291E-01-2.15582E-14-1.32513E-15
 -1      3724 2.00763E+01 3.80861E-02-4.73811E-04 1.74548E-01 9.05408E-15-5.24796E-14
 -1      3725 2.00593E+01 5.93542E-02 6.13103E-04 1.82646E-01 1.19024E-15-4.50207E-14
 -1      3726 2.01003E+01 3.51499E-02-8.90385E-05 1.52666E-01-1.01480E-14-2.57232E-14
 -1      3727 2.00304E+01 8.27805E-02-7.12501E-04 1.91447E-01-4.87733E-15-7.32784E-14
 -1      3728 2.00132E+01 1.09656E-01 6.82114E-04 2.04009E-01 1.96712E-14-1.15607E-13
 -1      3729 2.00468E+01 8.01022E-02 8.74388E-05 1.67109E-01 2.09704E-14-5.25570E-14
 -1      3730 1.99816E+01 1.37827E-01-9.52635E-04 2.17819E-01-1.30408E-14-1.28051E-13
 -1      3731 1.99635E+01 1.68985E-01 7.53273E-04 2.36224E-01-2.85012E-14-1.13336E-13
 -1      3732 1.99896E+01 1.37405E-01 2.94342E-04 1.89558E-01-1.96948E-14-7.41923E-14
 -1      3733 1.99281E+01 2.00510E-01-1.19920E-03 2.56384E-01 2.33769E-15-1.25802E-13
 -1      3734 1.99085E+01 2.34458E-01 8.47302E-04 2.81835E-01 1.07540E-14-1.41181E-13
 -1      3735 1.99265E+01 2.04168E-01 5.02805E-04 2.22773E-01-2.42551E-14-1.32015E-13
 -1      3736 1.98683E+01 2.67636E-01-1.45282E-03 3.09700E-01 1.66573E-15-1.87023E-13
 -1      3737 1.98469E+01 3.02360E-01 9.89106E-04 3.43323E-01 2.39186E-15-1.72040E-13
 -1      3738 1.98554E+01 2.77271E-01 7.02369E-04 2.69406E-01-4.25048E-14-2.35825E-13
 -1      3739 1.98012E+01 3.34692E-01-1.69609E-03 3.80405E-01 7.22503E-14-1.52730E-13
 -1      3740 1.97786E+01 3.67157E-01 1.21150E-03 4.23246E-01 7.56297E-14-9.84420E-14
 -1      3741 1.97743E+01 3.52493E-01 8.53757E-04 3.32390E-01 6.06448E-14-3.02797E-13
 -1      3742 1.97273E+01 3.94879E-01-1.90758E-03 4.71235E-01 8.22474E-14-7.14248E-14
 -1      3743 1.97051E+01 4.20555E-01 1.56063E-03 5.24247E-01 3.85598E-14-8.02067E-14
 -1      3744 1.96826E+01 4.23631E-01 9.29290E-04 4.15069E-01 1.17719E-13-2.06152E-13
 -1      3745 1.96494E+01 4.38153E-01-2.05101E-03 5.85110E-01-1.36831E-14-3.39894E-14
 -1      3746 1.96310E+01 4.50473E-01 2.10064E-03 6.49134E-01 1.54336E-15-5.47613E-14
 -1      3747 1.95811E+01 4.81399E-01 8.46204E-04 5.21366E-01 3.29059E-14-1.09298E-13
 -1      3748 1.95741E+01 4.50090E-01-2.05449E-03 7.25206E-01-1.28015E-14-5.78546E-14
 -1      3749 1.95657E+01 4.39843E-01 2.91371E-03 8.00843E-01-3.40378E-14-1.01175E-13
 -1      3750 1.94737E+01 5.12395E-01 4.94255E-04 6.56134E-01-9.53977E-15-5.62495E-14
 -1      3751 1.95141E+01 4.10728E-01-1.78800E-03 8.94785E-01 3.12150E-15-4.90165E-14
 -1      3752 1.95261E+01 3.65514E-01 4.09322E-03 9.82031E-01-3.54173E-15-2.68353E-14
 -1      3753 1.93692E+01 4.97724E-01-3.04239E-04 8.25350E-01 7.17216E-15-1.13496E-13
 -1      3754 1.94911E+01 2.93659E-01-9.93232E-04 1.09647E+00-9.67260E-14-6.93507E-14
 -1      3755 1.95397E+01 1.97555E-01 5.69987E-03 1.19381E+00-8.81060E-14-2.81997E-14
 -1      3756 1.92842E+01 4.11642E-01-1.82404E-03 1.03602E+00-8.77090E-14-9.30431E-14
 -1      3757 1.95411E+01 6.58347E-02 8.31365E-04 1.33006E+00-9.32665E-14-1.13511E-13
 -1      3758 1.96501E+01-1.00112E-01 7.77160E-03 1.43226E+00-7.83147E-14-6.77086E-14
 -1      3759 1.92469E+01 2.20218E-01-4.47048E-03 1.29508E+00-8.30655E-14 2.13733E-14
 -1      3760 1.97196E+01-3.10293E-01 4.60432E-03 1.58766E+00-5.75125E-14-4.70917E-14
 -1      3761 1.99236E+01-5.66897E-01 9.98407E-03 1.68115E+00-5.74769E-14-9.82873E-15
 -1      3762 1.93041E+01-1.18311E-01-8.69194E-03 1.60552E+00-4.22828E-14-7.71024E-14
 -1      3763 2.01141E+01-8.72736E-01 1.12478E-02 1.84116E+00-1.19321E-13-2.29644E-14
 -1      3764 2.04516E+01-1.22997E+00 1.07382E-02 1.89812E+00-9.83359E-14-7.07716E-14
 -1      3765 1.95250E+01-6.53154E-01-1.71597E-02 1.95929E+00-8.43084E-14-1.29540E-13
 -1      3766 2.08386E+01-1.60732E+00 3.00231E-02 1.99870E+00-6.84075E-14-1.64263E-13
 -1      3767 2.12520E+01-2.08472E+00-6.89191E-03 1.99688E+00-5.18422E-14-2.60586E-13
 -1      3768 2.00658E+01-1.45502E+00-3.12349E-02 2.30829E+00-1.23665E-13-2.95138E-13
 -1      3769 2.52113E+01-2.88838E+00 1.22705E-03-5.23119E-02 4.88156E-14 5.08661E-13
 -1      3770 2.11819E+01-2.03191E+00-1.16228E-02-2.08375E+00-5.86874E-14 1.62118E-13
 -1      3771 2.07830E+01-1.54500E+00 2.39397E-02-2.09011E+00-1.44215E-13 8.22784E-14
 -1      3772 2.04542E+01-1.17900E+00 9.65397E-03-1.95856E+00-2.44292E-14-2.25995E-14
 -1      3773 2.01490E+01-8.36792E-01 6.78678E-03-1.91208E+00 8.55592E-14 3.82337E-14
 -1      3774 2.00844E+01-1.33113E+00-6.94740E-03-2.34444E+00-6.57495E-14 1.14039E-13
 -1      3775 2.00015E+01-5.30970E-01 1.05672E-02-1.74693E+00 2.20230E-14 9.25501E-14
 -1      3776 1.98278E+01-2.87473E-01 2.74144E-03-1.65992E+00-6.19166E-15 1.88375E-13
 -1      3777 1.96389E+01-5.90576E-01-3.13995E-03-2.00350E+00 1.28857E-14-4.01688E-14
 -1      3778 1.97872E+01-6.84845E-02 7.54219E-03-1.51512E+00-8.22497E-14 9.65083E-14
 -1      3779 1.97081E+01 1.10555E-01 4.04390E-03-1.41199E+00-1.16033E-13-1.46481E-14
 -1      3780 1.94671E+01-9.51095E-02-1.22143E-02-1.65670E+00-1.02666E-13-1.39751E-13
 -1      3781 1.96899E+01 2.16191E-01 4.33319E-03-1.32390E+00-9.85101E-14-5.74322E-14
 -1      3782 1.96497E+01 3.33546E-01 3.35884E-03-1.24234E+00-7.74847E-14-9.29019E-14
 -1      3783 1.94131E+01 4.34292E-01-5.80133E-03-1.21482E+00 3.85402E-14 1.73464E-13
 -1      3784 1.94224E+01 2.32654E-01-5.36780E-03-1.40144E+00-2.05659E-13-4.38380E-14
 -1      3785 2.03314E+01 5.62250E-01-2.82744E-03 9.77922E-02 9.10018E-14-1.12779E-13
 -1      3786 2.03465E+01 7.18650E-01 2.69887E-03 1.84531E-01 9.20722E-14-1.01207E-13
 -1      3787 1.98488E+01 3.41242E-01 4.86085E-04-3.48820E-01 1.29559E-14 4.63204E-14
 -1      3788 1.98755E+01 2.92633E-01-1.73659E-03-3.15285E-01 7.75940E-15 5.94424E-14
 -1      3789 1.99194E+01 2.48931E-01 5.89815E-04-2.90616E-01 8.76174E-15 6.36404E-14
 -1      3790 1.99394E+01 2.07295E-01-1.36657E-03-2.65224E-01 1.84867E-14 1.02270E-13
 -1      3791 1.98646E+01 2.97026E-01 1.21730E-03-2.73942E-01 2.83591E-14 5.44060E-14
 -1      3792 1.96342E+01 5.66657E-01 7.85940E-05-5.13814E-01-1.97369E-13 1.65410E-13
 -1      3793 1.96844E+01 5.04583E-01-2.70800E-03-4.61943E-01-1.44097E-13 1.29345E-13
 -1      3794 1.94714E+01 6.96422E-01-2.18797E-04-6.22001E-01-1.16420E-13 1.15302E-13
 -1      3795 1.95402E+01 6.29456E-01-3.37483E-03-5.60307E-01-1.48456E-13 8.65727E-14
 -1      3796 1.94926E+01 6.49206E-01 3.47793E-03-4.70683E-01-1.16526E-13 6.41370E-14
 -1      3797 1.92555E+01 8.30801E-01-5.11839E-04-7.48247E-01-1.24002E-13 1.07203E-13
 -1      3798 1.93484E+01 7.62350E-01-4.24268E-03-6.76176E-01-1.00501E-13 1.10510E-13
 -1      3799 1.92856E+01 7.89975E-01 4.70045E-03-5.60889E-01-1.21791E-13 6.70640E-14
 -1      3800 1.89720E+01 9.58461E-01-6.52554E-04-8.94866E-01-1.66281E-13 1.51532E-13
 -1      3801 1.90947E+01 8.94882E-01-5.43264E-03-8.10942E-01-1.10152E-13 1.23193E-13
 -1      3802 1.90140E+01 9.33999E-01 6.28719E-03-6.63215E-01-1.71247E-13 7.14129E-14
 -1      3803 1.86047E+01 1.05980E+00-3.03476E-04-1.06851E+00-1.36561E-13 3.17900E-14
 -1      3804 1.87618E+01 1.01179E+00-7.16845E-03-9.68736E-01-1.98492E-13 5.46870E-14
 -1      3805 1.86586E+01 1.06957E+00 8.37329E-03-7.79880E-01-1.47872E-13-9.63503E-14
 -1      3806 1.81365E+01 1.10233E+00 1.06424E-03-1.28608E+00-7.66335E-14 9.99330E-14
 -1      3807 1.83294E+01 1.08751E+00-9.90922E-03-1.16078E+00-7.01048E-14 1.14457E-13
 -1      3808 1.81947E+01 1.17835E+00 1.12784E-02-9.18884E-01-1.51419E-13-5.30975E-14
 -1      3809 1.75501E+01 1.03522E+00 4.01331E-03-1.58290E+00-2.33830E-15 5.25181E-14
 -1      3810 1.77750E+01 1.08030E+00-1.42393E-02-1.41167E+00-3.77306E-14 8.00228E-14
 -1      3811 1.75901E+01 1.23009E+00 1.52949E-02-1.10075E+00-5.76195E-14-2.96477E-14
 -1      3812 1.68969E+01 7.76513E-01 1.15552E-02-2.01939E+00 7.63599E-14 8.59113E-14
 -1      3813 1.70685E+01 9.27083E-01-2.16279E-02-1.77345E+00 5.06431E-14 1.01634E-13
 -1      3814 1.68050E+01 1.18413E+00 2.38743E-02-1.36885E+00-2.61010E-14-6.32691E-14
 -1      3815 1.56080E+01 4.62652E-01 1.30437E-02-2.47487E+00 6.22506E-14 1.29701E-13
 -1      3816 1.63145E+01-5.67880E-02 2.44011E-02 3.02000E+00 2.28824E-13 3.24567E-13
 -1      3817 1.48505E+01 2.78448E-01 6.60390E-02 2.80202E+00 2.00211E-13 3.08052E-14
 -1      3818 1.42992E+01 6.26973E-01-1.50357E-02 1.98736E+00 4.25099E-13-2.15699E-13
 -1      3819 1.63537E+01 2.82470E-01-2.28892E-02 2.65841E+00 2.93082E-13 1.22386E-13
 -1      3820 1.87618E+01 1.07334E+00-1.43001E-03 1.17699E+00-4.17798E-14-5.73023E-13
 -1      3821 2.05763E+01-2.33169E+00 4.93024E-02-3.03959E+00-1.59648E-13 1.67579E-13
 -1      3822 2.15582E+01-2.60692E+00-1.38626E-02-2.37538E+00-1.23328E-13 2.69631E-13
 -1      3823 2.01666E+01 7.32742E-02-5.14963E-04-1.46037E-01 3.26969E-14-5.67468E-14
 -1      3824 2.01869E+01 1.17226E-01 1.80039E-03-1.19298E-01 6.54370E-14-5.19840E-14
 -1      3825 2.02138E+01 7.42941E-02-7.41360E-04-1.39620E-01 3.12294E-14-7.37314E-14
 -1      3826 2.02568E+01 1.38536E+00-4.50495E-03 4.14697E-01 1.17625E-13-1.20261E-13
 -1      3827 2.02441E+01 1.48458E+00-1.10694E-03 3.46255E-01 8.70283E-14-1.52050E-13
 -1      3828 2.03097E+01 1.28614E+00 6.20279E-03 2.54376E-01 7.25921E-14-1.45054E-13
 -1      3829 2.03110E+01 1.12127E+00 4.61258E-03 3.40567E-01 1.00099E-13-1.08471E-13
 -1      3830 1.86879E+01 1.18439E+00-1.93521E-03 1.75132E-01 1.93681E-14-2.23407E-13
 -1      3831 1.87262E+01 1.18630E+00-1.04616E-03 4.04590E-01 1.02033E-13-6.50297E-13
 -1      3832 1.84974E+01 1.17136E+00 5.21127E-03 8.47210E-03 2.27094E-14-2.98002E-13
 -1      3833 1.53446E+01-3.33146E-01 3.14951E-02-3.22524E+00-7.38645E-14-5.88106E-13
 -1      3834 1.67308E+01-1.10585E+00-9.92114E-03-3.68806E+00-8.53293E-14-6.85301E-13
 -1      3835 2.02047E+01 1.66414E+00-2.71280E-03-3.43527E-02 3.81922E-14-2.12996E-13
 -1      3836 2.02077E+01 1.64359E+00-4.09797E-03-1.23509E-01 2.71485E-14-1.84543E-13
 -1      3837 2.02991E+01 1.39265E+00 7.52468E-03-1.33517E-01 1.59449E-14-1.69372E-13
 -1      3838 2.02884E+01 1.42864E+00 6.29949E-03 2.82414E-04 4.21698E-14-1.90929E-13
 -1      3839 2.03163E+01 9.84098E-01-4.35109E-03-2.45261E-01-5.22497E-14-1.39560E-13
 -1      3840 2.38223E+01-3.22511E+00-3.85075E-02-1.09775E+00-1.48985E-13 5.03038E-13
 -1      3841 2.03677E+01 7.12874E-01 4.21137E-03-1.46484E-01-3.97658E-14-1.00768E-13
 -1      3842 2.03564E+01 5.55699E-01-2.31501E-03-7.21348E-02-4.11078E-14-9.23902E-14
 -1      3843 1.71797E+01 7.75465E-01-2.18045E-02 2.03402E+00 1.01990E-13 8.89498E-14
 -1      3844 1.69585E+01 5.82423E-01 1.45050E-02 2.30975E+00 2.33103E-13 2.23104E-14
 -1      3845 1.60443E+01 7.57916E-01 3.23725E-02 2.12432E+00 3.47874E-13-1.66228E-13
 -1      3846 1.81064E+01-1.46525E+00 5.93590E-02-3.64638E+00-1.28717E-13-2.27308E-13
 -1      3847 1.95217E+01-2.15806E+00-1.50495E-03-3.41464E+00-1.66890E-13 2.49465E-13
 -1      3848 1.95496E+01-1.59897E+00-2.46068E-02-2.86882E+00-1.04899E-13 1.35248E-13
 -1      3849 1.75990E+01-9.49329E-01-9.47767E-03-3.20532E+00-4.10011E-14-3.09477E-13
 -1      3850 1.97566E+01 4.47401E-01 3.19212E-04-4.22932E-01-8.37266E-14 8.70072E-14
 -1      3851 1.97930E+01 3.91796E-01-2.17544E-03-3.80493E-01-4.25604E-14 7.69594E-14
 -1      3852 1.96503E+01 5.18279E-01 2.52978E-03-3.92561E-01-1.64464E-13 1.06097E-13
 -1      3853 2.00606E+01 5.31781E-02 6.31023E-04-1.96075E-01 8.65998E-14 6.79079E-14
 -1      3854 2.00737E+01 3.21217E-02-4.84698E-04-1.88423E-01 1.05565E-13 4.32041E-14
 -1      3855 2.03383E+01 2.33182E-01 1.20212E-03 5.37410E-02-1.94046E-14-8.12348E-14
 -1      3856 2.03175E+01 1.62508E-01-9.68370E-04 8.52569E-02-3.60362E-14-5.18194E-14
 -1      3857 2.03426E+01 1.56811E-01-6.94450E-05 7.76189E-02-2.59553E-14-6.35260E-14
 -1      3858 2.03620E+01 4.27093E-01 1.24788E-03-2.65099E-02-5.55616E-14-6.51878E-14
 -1      3859 2.03463E+01 3.19826E-01-1.52919E-03 2.33424E-02-3.76936E-14-7.75602E-14
 -1      3860 2.03733E+01 3.10990E-01 1.73472E-04 2.67465E-02-4.24470E-14-3.45022E-14
 -1      3861 2.31180E+01-3.04003E+00 1.06805E-02-1.56684E+00-6.23460E-14 3.70660E-13
 -1      3862 1.50603E+01 8.51698E-01 2.43151E-02-1.89366E+00 6.56124E-14 1.68702E-14
 -1      3863 2.03819E+01 5.43191E-01 6.49442E-05-5.11161E-02-3.22824E-14-3.93733E-14
 -1      3864 1.53716E+01-3.94972E-01 6.17939E-02 3.43233E+00-1.48238E-13-1.28349E-13
 -1      3865 1.51755E+01 9.81303E-02-3.48663E-03 2.72149E+00-1.41998E-13-7.89247E-14
 -1      3866 1.66633E+01-8.80284E-01 3.08465E-04 3.48199E+00-1.62716E-13-2.03202E-13
 -1      3867 2.03380E+01 4.33610E-01 2.10455E-03 4.23493E-02 8.58134E-14-1.01134E-13
 -1      3868 2.03637E+01 5.62584E-01 8.21613E-04 7.51591E-02 7.46244E-14-1.06791E-13
 -1      3869 2.03183E+01 3.24991E-01-1.72673E-03-1.61883E-02 7.95532E-14-8.80714E-14
 -1      3870 2.24545E+01-2.72567E+00 2.62510E-02-1.83990E+00-1.20160E-14 2.49079E-13
 -1      3871 1.97711E+01 4.00456E-01 1.79067E-03-3.26947E-01-3.43721E-14 3.83790E-14
 -1      3872 2.02118E+01 1.34993E-02-2.84862E-05-1.56564E-01 1.49448E-15-4.71300E-14
 -1      3873 2.02313E+01 3.65259E-02 7.88653E-04-1.45066E-01 1.41169E-15-6.13354E-14
 -1      3874 2.01116E+01-1.12300E-02-4.58190E-04-1.90693E-01 7.66478E-14 1.08995E-14
 -1      3875 2.00980E+01 1.54022E-02 5.63345E-04-1.83807E-01 8.47858E-14 1.16649E-14
 -1      3876 2.01116E+01 2.13962E-03-2.15192E-04-1.79026E-01 5.77896E-14 5.14883E-15
 -1      3877 2.00998E+01 2.90356E-02-1.19791E-04-1.69825E-01 6.58131E-14 2.20150E-14
 -1      3878 1.99387E+01 2.08124E-01 7.60593E-04-2.33050E-01 2.34788E-14 1.29501E-13
 -1      3879 1.99749E+01 1.70288E-01 6.44166E-04-2.47004E-01-1.04284E-14 1.08049E-13
 -1      3880 1.99908E+01 1.35459E-01-1.04427E-03-2.28801E-01 3.37181E-14 1.14886E-13
 -1      3881 2.01899E+01-1.01022E-03 4.11674E-04-1.62785E-01 2.52826E-14-4.33747E-14
 -1      3882 2.02361E+01 1.36409E-02-3.96104E-04-1.42139E-01 1.38329E-14-3.77881E-14
 -1      3883 2.01728E+01-8.80049E-03 2.45063E-04-1.68838E-01 5.28358E-14-2.41337E-14
 -1      3884 1.38348E+01 1.14431E+00 7.22852E-02 8.83171E-01-4.56848E-14-1.21590E-13
 -1      3885 1.42933E+01 1.16114E+00 2.87597E-03 5.67267E-02-9.41868E-14 4.00019E-14
 -1      3886 1.43707E+01 8.21407E-01-8.47988E-03 1.50533E+00-1.01843E-13-6.89830E-14
 -1      3887 1.84903E+01 9.50334E-01 3.40808E-03-7.15540E-01 3.33468E-13 1.33839E-13
 -1      3888 1.83295E+01 1.03690E+00-7.73738E-03-4.84649E-01 3.85064E-13-6.37443E-14
 -1      3889 2.03393E+01 9.88055E-01-4.15272E-03-1.52313E-01-2.15511E-14-1.22115E-13
 -1      3890 2.03399E+01 9.55675E-01-2.64583E-03-1.95215E-01-4.02500E-14-1.20476E-13
 -1      3891 2.02518E+01 1.75574E-01-7.66893E-04-8.60986E-02 7.16359E-14-8.69727E-14
 -1      3892 2.03318E+01 1.14856E+00-3.57266E-03 1.37378E-01 8.05039E-14-1.70949E-13
 -1      3893 2.03284E+01 1.18612E+00-1.79267E-03 7.64596E-02 6.63894E-14-2.06358E-13
 -1      3894 1.48276E+01 9.78890E-02 2.60350E-02-2.77029E+00 3.66981E-15-3.70100E-13
 -1      3895 1.60218E+01-3.30077E-02 2.96891E-02-2.68251E+00-5.04663E-14-4.57696E-13
 -1      3896 1.44066E+01 4.80718E-01-4.31305E-03-2.05283E+00-1.39290E-14-4.06279E-13
 -1      3897 1.78894E+01 9.94640E-01-1.44045E-02 1.64012E+00-8.47683E-14 1.03495E-13
 -1      3898 1.76588E+01 9.16284E-01 5.80759E-03 1.82552E+00 2.50249E-14 9.94450E-14
 -1      3899 1.70362E+01 1.04127E+00 1.66812E-02 1.63786E+00 7.55903E-14 4.94752E-14
 -1      3900 2.03456E+01 1.07313E+00-2.44187E-03-7.35629E-02 2.00589E-14-1.27486E-13
 -1      3901 2.03459E+01 1.03432E+00-4.32520E-03-1.26691E-01-9.29034E-15-1.15066E-13
 -1      3902 2.03999E+01 7.36017E-01 5.00064E-03-8.54830E-02-9.73887E-15-8.07157E-14
 -1      3903 1.84607E+01 1.06121E+00-1.01071E-02 1.36615E+00-8.13811E-14-3.54060E-13
 -1      3904 1.82592E+01 1.04068E+00 1.26112E-03 1.50313E+00-9.04409E-14-1.42365E-13
 -1      3905 1.78194E+01 1.14468E+00 1.06252E-02 1.34099E+00 3.32602E-14-3.96737E-13
 -1      3906 1.28591E+01 1.01171E+00 7.90566E-02-2.02502E-01 1.01359E-13-2.84228E-13
 -1      3907 1.36142E+01 9.07575E-01 2.10576E-02-8.47401E-01 1.29150E-14-3.94632E-13
 -1      3908 1.35957E+01 9.80084E-01 6.73616E-03 6.68657E-01 9.56787E-14-2.35418E-13
 -1      3909 2.00206E+01 1.05034E-01 6.56641E-04-2.16243E-01 6.40280E-14 9.36364E-14
 -1      3910 2.00343E+01 7.69711E-02-7.52856E-04-2.04027E-01 9.23143E-14 9.49194E-14
 -1      3911 1.99996E+01 1.33664E-01 4.08098E-04-2.03259E-01 3.97733E-14 1.53996E-13
 -1      3912 1.86061E+01 1.18993E+00 4.34788E-03 5.82680E-01-6.25430E-14-6.42293E-13
 -1      3913 2.00520E+01 7.37519E-02 1.24748E-04-1.82907E-01 7.40988E-14 8.74567E-14
 -1      3914 1.84537E+01 1.16156E+00 5.18073E-03 1.04005E+00-4.46727E-14-9.17715E-13
 -1      3915 2.16447E+01-2.69460E+00 1.64474E-03 2.35428E+00 1.06529E-14-1.79514E-13
 -1      3916 1.88507E+01 7.30590E-01 3.73682E-03-1.02071E+00 2.83147E-13 6.33508E-13
 -1      3917 1.86632E+01 8.18134E-01-6.42661E-03-8.95787E-01 2.77807E-13 4.01039E-13
 -1      3918 1.83808E+01 8.54108E-01 1.92690E-03-9.01012E-01 3.59632E-13 1.43124E-13
 -1      3919 2.03361E+01 1.01020E+00-1.00942E-03 1.78809E-01 8.17752E-14-1.31771E-13
 -1      3920 2.03739E+01 8.51447E-01 1.46060E-03 1.14063E-01 8.08995E-14-1.37330E-13
 -1      3921 2.02317E+01-2.46667E+00 3.78072E-02 3.27019E+00-7.09094E-14-2.83081E-13
 -1      3922 1.90517E+01-2.40701E+00 2.99616E-02 3.96351E+00-9.28459E-14-2.72289E-13
 -1      3923 1.98132E+01 3.35502E-01-7.54533E-05-2.42832E-01 3.35435E-14 9.70319E-14
 -1      3924 1.98543E+01 2.85495E-01-1.36180E-03-2.21231E-01 2.60166E-14 9.15480E-14
 -1      3925 1.51395E+01 1.11429E+00-2.01923E-02-1.20302E+00 4.44332E-14 2.99032E-14
 -1      3926 2.04016E+01 3.79599E-01 1.76943E-04 2.96592E-03-2.96430E-14-3.26536E-14
 -1      3927 2.03895E+01 2.80836E-01-9.70148E-04 3.49402E-02-4.47443E-14-2.00391E-14
 -1      3928 2.02892E+01 2.40850E-02 3.00526E-04 9.91478E-02 1.59692E-14-3.12872E-14
 -1      3929 2.02639E+01 7.32851E-03 2.90279E-05 1.06417E-01-1.17140E-14-9.30844E-15
 -1      3930 2.02354E+01-9.91413E-04 1.11279E-04 1.09212E-01-4.90015E-14-7.65792E-15
 -1      3931 2.02098E+01-2.17891E-03 2.12173E-04 1.14046E-01-1.06698E-14-2.50907E-14
 -1      3932 2.02668E+01 8.07239E-03-2.72406E-04 8.43107E-02-2.89931E-14-3.15255E-15
 -1      3933 2.01793E+01 2.84256E-03-8.52786E-05 1.16278E-01-1.12629E-14-5.99646E-14
 -1      3934 2.01538E+01 1.35747E-02 3.19417E-04 1.20815E-01-4.10717E-14-5.00153E-14
 -1      3935 2.02081E+01 4.17783E-03-2.03889E-04 9.08026E-02-3.81897E-14-6.67501E-14
 -1      3936 2.01216E+01 2.88601E-02-3.03798E-04 1.23951E-01-1.10661E-14-3.79748E-14
 -1      3937 2.00956E+01 4.89348E-02 3.80411E-04 1.29912E-01 1.36182E-14-1.68868E-14
 -1      3938 2.01466E+01 2.56875E-02-6.99589E-05 9.72167E-02-5.01626E-15-2.13734E-14
 -1      3939 2.00611E+01 7.24159E-02-5.41442E-04 1.35229E-01 5.17075E-15-4.12561E-14
 -1      3940 2.00340E+01 1.00002E-01 4.09021E-04 1.44160E-01 5.04608E-15-1.73477E-14
 -1      3941 2.00819E+01 6.71128E-02 8.23610E-05 1.06099E-01 2.76004E-15-2.91551E-14
 -1      3942 1.99961E+01 1.30044E-01-7.89502E-04 1.52851E-01-4.92312E-14-5.64839E-14
 -1      3943 1.99669E+01 1.63742E-01 4.42559E-04 1.66085E-01-3.72118E-14-6.67500E-14
 -1      3944 2.00122E+01 1.24766E-01 3.15462E-04 1.19914E-01-3.52363E-14-1.20921E-13
 -1      3945 1.99242E+01 1.99027E-01-1.05923E-03 1.79403E-01-6.05590E-14-1.35593E-13
 -1      3946 1.98918E+01 2.37378E-01 4.72015E-04 1.98285E-01-8.57975E-14-1.98005E-13
 -1      3947 1.99352E+01 1.95642E-01 6.19723E-04 1.40852E-01-1.08458E-13-1.54905E-13
 -1      3948 1.98427E+01 2.76318E-01-1.39028E-03 2.17511E-01-8.79714E-14-2.10974E-13
 -1      3949 1.98060E+01 3.17824E-01 5.43841E-04 2.43325E-01-6.67066E-14-2.80773E-13
 -1      3950 1.98476E+01 2.76940E-01 9.66745E-04 1.71694E-01-1.25231E-13-2.34358E-13
 -1      3951 1.97486E+01 3.58617E-01-1.76902E-03 2.70197E-01 2.35534E-14-2.39446E-13
 -1      3952 1.97072E+01 4.00972E-01 6.93733E-04 3.04561E-01 1.01879E-13-2.61268E-13
 -1      3953 1.97458E+01 3.65194E-01 1.19527E-03 2.14839E-01-2.37042E-14-1.56817E-13
 -1      3954 1.96400E+01 4.40618E-01-2.17046E-03 3.41115E-01 1.66870E-13-2.55723E-13
 -1      3955 1.95938E+01 4.80356E-01 9.69855E-04 3.85826E-01 1.56554E-13-1.71490E-13
 -1      3956 1.96270E+01 4.56314E-01 1.50790E-03 2.74590E-01 1.10203E-13-1.37995E-13
 -1      3957 1.95157E+01 5.14591E-01-2.62655E-03 4.34739E-01 1.26695E-13-1.61955E-13
 -1      3958 1.94663E+01 5.46683E-01 1.43873E-03 4.92082E-01 1.01535E-13-1.03798E-13
 -1      3959 1.94884E+01 5.43335E-01 1.76087E-03 3.55426E-01 1.75529E-13-1.50732E-13
 -1      3960 1.93769E+01 5.69247E-01-3.12696E-03 5.56998E-01 2.65112E-14-6.90999E-14
 -1      3961 1.93275E+01 5.86421E-01 2.20010E-03 6.29892E-01 3.46796E-15-5.87414E-14
 -1      3962 1.93287E+01 6.16521E-01 1.91012E-03 4.63924E-01 1.04988E-13-1.42903E-13
 -1      3963 1.92281E+01 5.88458E-01-3.65761E-03 7.15709E-01-2.68311E-14-1.78002E-14
 -1      3964 1.91854E+01 5.80561E-01 3.38961E-03 8.07860E-01-5.68971E-14-1.19342E-13
 -1      3965 1.91488E+01 6.61705E-01 1.86094E-03 6.09019E-01-1.13435E-14-9.27488E-14
 -1      3966 1.90797E+01 5.49920E-01-4.15517E-03 9.21132E-01-5.54253E-14-1.17635E-13
 -1      3967 1.90553E+01 5.03160E-01 5.20878E-03 1.03699E+00-7.37332E-14-1.26794E-13
 -1      3968 1.89535E+01 6.58959E-01 1.42504E-03 8.02978E-01-6.35857E-14-1.30116E-13
 -1      3969 1.89514E+01 4.23710E-01-4.35263E-03 1.18626E+00-1.16153E-13-8.62565E-14
 -1      3970 1.89644E+01 3.19617E-01 7.87752E-03 1.33035E+00-1.09652E-13-9.36141E-14
 -1      3971 1.87534E+01 5.80734E-01 2.41707E-04 1.06233E+00-7.70293E-14-9.21665E-14
 -1      3972 1.88798E+01 1.69445E-01-3.59741E-03 1.52556E+00-1.12306E-13-2.49112E-14
 -1      3973 1.89578E+01-1.60831E-02 1.08666E-02 1.69952E+00-5.18389E-14-6.76046E-14
 -1      3974 1.85709E+01 3.87867E-01-2.37783E-03 1.40938E+00-8.14965E-14-6.18427E-14
 -1      3975 1.89288E+01-2.63587E-01-5.71332E-04 1.94551E+00-6.26671E-14-1.53905E-13
 -1      3976 1.91415E+01-5.58582E-01 1.67327E-02 2.13457E+00-1.27461E-13-2.01279E-13
 -1      3977 1.84628E+01 3.19747E-02-2.28586E-03 1.87170E+00-1.02829E-13-1.07264E-13
 -1      3978 1.94630E+01-1.11655E+00 8.67977E-03-2.52023E+00-1.05222E-13 1.84802E-13
 -1      3979 1.91425E+01-7.21126E-01-1.31745E-02-2.32754E+00-7.29122E-14 1.21957E-13
 -1      3980 1.86190E+01-8.58264E-01 1.59875E-02-2.79302E+00-1.56374E-14 1.34801E-13
 -1      3981 1.80659E+01-1.74338E+00-1.01301E-02 3.77140E+00-1.62629E-13-2.41132E-13
 -1      3982 2.03363E+01 9.41359E-01-1.49508E-03 2.19301E-01 9.78634E-14-1.17699E-13
 -1      3983 2.03141E+01 9.61760E-01-1.88841E-03 2.71684E-01 9.44518E-14-1.03335E-13
 -1      3984 1.91793E+01-3.94579E-01 7.91279E-03-2.04722E+00-3.87911E-14 1.06455E-13
 -1      3985 1.90700E+01-1.15769E-01-2.14211E-04-1.84796E+00-4.49762E-14 3.24179E-14
 -1      3986 1.85618E+01-1.74133E-01 5.79784E-03-2.13923E+00-1.13453E-13 7.53106E-14
 -1      3987 1.90529E+01 1.05268E-01-1.72218E-03-1.65538E+00-1.32277E-13-3.08995E-14
 -1      3988 1.80524E+01 1.09077E+00 5.08355E-03-4.11992E-01 4.12088E-13-3.83262E-14
 -1      3989 1.82291E+01 1.15272E+00 1.59454E-03-1.80142E-01 2.74139E-13-2.19402E-13
 -1      3990 1.81875E+01 1.18769E+00-7.69143E-03 9.41126E-02 1.80958E-13-1.61128E-13
 -1      3991 2.01349E+01-6.37597E-03 4.39784E-04-1.76131E-01 5.41793E-14-3.20258E-15
 -1      3992 2.01500E+01-1.03400E-02 7.36288E-05-1.72061E-01 7.34465E-14 2.11869E-14
 -1      3993 2.01908E+01-5.45144E-03-3.96389E-04-1.53552E-01 3.47135E-14-5.93202E-15
 -1      3994 2.01455E+01 1.49439E-03-2.92851E-04-1.61240E-01 5.97712E-14 2.05275E-14
 -1      3995 1.81648E+01 1.22820E+00-1.28652E-03 4.20702E-01 7.44699E-14-3.29693E-13
 -1      3996 1.82967E+01 1.20099E+00-4.55341E-03 7.20113E-01 3.67373E-14-8.08901E-13
 -1      3997 1.79929E+01 1.20435E+00 2.06369E-03 8.89341E-01 2.22899E-13-6.79670E-13
 -1      3998 1.78848E+01 1.22913E+00 3.76790E-03 2.27286E-01 4.35414E-13-1.36598E-13
 -1      3999 1.91153E+01 8.46746E-01-2.10926E-03-4.66643E-01-1.51588E-13 6.02658E-14
 -1      4000 1.92354E+01 7.74395E-01-3.29333E-03-4.25966E-01-1.13408E-13 3.74974E-14
 -1      4001 1.93619E+01 7.04086E-01-1.38556E-03-4.00957E-01-9.94977E-14-3.38136E-15
 -1      4002 1.94530E+01 6.34825E-01-2.63662E-03-3.64210E-01-7.74852E-14 4.53893E-14
 -1      4003 1.92315E+01 7.74880E-01 4.48943E-03-3.13176E-01-1.19790E-13 5.70317E-14
 -1      4004 1.83760E+01 1.12091E+00-3.94966E-03-6.09283E-01-9.74397E-14-1.50897E-13
 -1      4005 1.85826E+01 1.05707E+00-5.60175E-03-5.60354E-01-9.08859E-14-7.40179E-14
 -1      4006 1.78296E+01 1.22340E+00-4.56718E-03-6.91128E-01-2.10332E-13-7.83670E-14
 -1      4007 1.80986E+01 1.17556E+00-7.82797E-03-6.33141E-01-2.08446E-13-1.64371E-13
 -1      4008 1.81134E+01 1.19867E+00 1.11671E-02-3.98715E-01-1.16515E-13-1.66833E-13
 -1      4009 1.71081E+01 1.26925E+00-5.37636E-03-7.98675E-01-9.62498E-14-8.21092E-14
 -1      4010 1.74568E+01 1.25186E+00-1.23592E-02-7.20232E-01-1.27782E-13-6.69946E-14
 -1      4011 1.74913E+01 1.30620E+00 1.70622E-02-4.10260E-01-1.52932E-13-1.07772E-13
 -1      4012 1.61817E+01 1.23926E+00 3.88086E-03-9.66721E-01-4.63822E-14-9.39181E-14
 -1      4013 1.65952E+01 1.25375E+00-1.99706E-02-8.44394E-01-6.59030E-14-1.05916E-13
 -1      4014 1.66534E+01 1.36661E+00 2.50638E-02-4.35820E-01-8.25574E-14-1.44422E-13
 -1      4015 2.04002E+01 6.06758E-01-8.37126E-04-5.78384E-02-1.71106E-15-8.32133E-14
 -1      4016 2.04020E+01 4.70324E-01-4.71122E-04-1.41876E-02-6.18327E-15-4.71558E-14
 -1      4017 2.04181E+01 4.42752E-01 8.11314E-04-5.05494E-03-1.74734E-14-6.55778E-14
 -1      4018 2.04099E+01 6.53505E-01 4.87958E-04-4.65991E-02-1.46611E-16-5.21586E-14
 -1      4019 1.82565E+01-1.35662E+00-1.64030E-02 3.30142E+00-1.15822E-13-2.53087E-13
 -1      4020 1.75096E+01-1.09480E+00 3.50178E-02 3.47893E+00-9.82391E-14-2.64986E-13
 -1      4021 1.68586E+01-5.00039E-01-1.80989E-02 3.00782E+00-7.72273E-14-2.07706E-13
 -1      4022 1.50609E+01 6.86970E-01 5.32415E-02 2.00682E+00-1.01915E-13-6.69634E-14
 -1      4023 1.51597E+01 9.26725E-01-1.24958E-02 1.29218E+00-1.38061E-13-4.91161E-14
 -1      4024 1.59014E+01 2.63491E-01-2.33597E-04 2.34812E+00-1.56062E-13-1.31967E-13
 -1      4025 2.03978E+01 6.67832E-01-1.70966E-04 8.17174E-02 6.98974E-14-1.35702E-13
 -1      4026 2.03986E+01 7.98828E-01 3.16389E-05 5.39548E-02 6.23038E-14-1.77514E-13
 -1      4027 2.03969E+01 5.23241E-01-1.58713E-03 2.46545E-02 5.67795E-14-1.38105E-13
 -1      4028 2.02802E+01 6.60544E-02-4.59823E-04-1.21311E-01-4.80668E-15-3.39594E-14
 -1      4029 2.02514E+01 6.83295E-02-3.86502E-04-1.32775E-01-8.27477E-15-5.33814E-14
 -1      4030 2.02729E+01 1.11846E-01 1.24809E-03-1.11401E-01 1.49031E-14-7.98044E-14
 -1      4031 2.03385E+01 8.71902E-02 4.85991E-04 8.16495E-02-1.33761E-14-4.09397E-14
 -1      4032 2.03146E+01 4.99503E-02-2.56482E-04 9.39781E-02-2.81967E-15-7.47123E-15
 -1      4033 2.03216E+01 4.51412E-02-2.17699E-04 7.46569E-02 6.26285E-15-1.00851E-14
 -1      4034 1.87944E+01 9.89692E-01-2.95956E-03-5.35985E-01-1.58164E-13-3.75239E-14
 -1      4035 1.89522E+01 9.18301E-01-4.21439E-03-4.91735E-01-1.52567E-13 2.23594E-14
 -1      4036 1.89504E+01 9.21994E-01 6.01433E-03-3.48637E-01-1.21178E-13 6.31485E-14
 -1      4037 1.95518E+01 5.68967E-01-8.14984E-04-3.40607E-01-1.26864E-13 4.95046E-14
 -1      4038 1.96209E+01 5.05147E-01-2.12974E-03-3.08488E-01-1.67242E-13 5.74759E-14
 -1      4039 1.94498E+01 6.33351E-01 3.34178E-03-2.75160E-01-1.05914E-13 1.06843E-14
 -1      4040 2.02887E+01 1.67362E-01-8.51766E-04-8.93522E-02 6.71128E-14-8.54937E-14
 -1      4041 2.03108E+01 2.38393E-01 1.74493E-03-5.22894E-02 8.00356E-14-7.43226E-14
 -1      4042 2.03523E+01 3.24027E-01 6.27812E-05-2.08757E-02 7.45656E-14-9.99924E-14
 -1      4043 2.03209E+01 1.64254E-01-4.29901E-04-8.38733E-02 4.89602E-14-7.51692E-14
 -1      4044 1.51543E+01 1.29267E+00 2.72387E-02-6.01524E-01-5.64522E-15-2.96059E-14
 -1      4045 2.03096E+01 8.65193E-01-1.07981E-03 2.96457E-01 9.34785E-14-8.82271E-14
 -1      4046 2.03809E+01 1.00094E+00 4.07300E-03 4.26882E-02 6.70333E-14-1.99762E-13
 -1      4047 2.03256E+01 1.19848E+00-3.28526E-03 3.15968E-02 6.57269E-14-1.93746E-13
 -1      4048 2.03262E+01 1.19507E+00-4.09436E-03-3.22386E-02 5.12087E-14-1.83352E-13
 -1      4049 2.03034E+01 7.76767E-01-3.54882E-04 2.84872E-01 1.03292E-13-9.33491E-14
 -1      4050 1.58086E+01 9.97327E-01-2.67221E-02 1.45736E+00 2.52842E-13-3.19471E-14
 -1      4051 1.52582E+01 8.54930E-01 8.01223E-03 1.72043E+00 3.84074E-13-3.72627E-14
 -1      4052 1.44142E+01 1.04156E+00 5.21793E-02 1.21613E+00 2.87895E-13-8.53701E-14
 -1      4053 1.53608E+01 1.24742E+00-1.71601E-02 1.23615E-01-8.65965E-14-3.70155E-14
 -1      4054 1.96986E+01 4.45460E-01-3.81922E-04-2.87458E-01-1.10650E-13 1.25258E-13
 -1      4055 1.97514E+01 3.88276E-01-1.71978E-03-2.60489E-01-3.49522E-15 7.95167E-14
 -1      4056 1.97543E+01 3.83727E-01 1.72462E-03-2.04709E-01 1.29864E-14 1.65815E-13
 -1      4057 2.03786E+01 2.00588E-01 5.98943E-04 5.14397E-02-5.10561E-14-2.14197E-14
 -1      4058 2.03583E+01 1.36352E-01-6.63235E-04 7.20448E-02-2.72296E-14-2.66784E-14
 -1      4059 2.04040E+01 2.63142E-01 4.00377E-04 3.10278E-02-4.48695E-14 1.56735E-14
 -1      4060 1.92331E+01 5.28008E-01 1.77998E-03-1.17785E+00 5.45661E-14 3.42077E-13
 -1      4061 1.90376E+01 6.19860E-01-5.31836E-03-1.10397E+00 1.94120E-13 4.85210E-13
 -1      4062 1.88103E+01 6.33197E-01 4.56370E-03-1.15889E+00 6.61666E-14 4.38723E-13
 -1      4063 1.92133E+01 4.35769E-01-1.47360E-04-1.27673E+00-6.54399E-14 2.54978E-13
 -1      4064 2.00428E+01 9.25963E-02 3.61964E-04-1.61544E-01 3.22194E-14 1.22417E-13
 -1      4065 2.00674E+01 6.49779E-02-4.96761E-04-1.53432E-01 6.05222E-14 9.92734E-14
 -1      4066 1.98615E+01 2.79759E-01 1.17132E-03-1.76623E-01 1.84181E-14 1.57334E-13
 -1      4067 1.99044E+01 2.39955E-01 1.39816E-04-2.07215E-01 3.88334E-14 8.61590E-14
 -1      4068 1.99373E+01 1.97161E-01-1.05191E-03-1.90725E-01 4.21555E-14 9.66194E-14
 -1      4069 2.00895E+01 5.93171E-02 3.37205E-05-1.27025E-01 3.30033E-14 1.24252E-13
 -1      4070 2.00997E+01 4.20071E-02 3.78165E-04-1.48949E-01 7.96167E-14 4.77720E-14
 -1      4071 2.01230E+01 2.27355E-02-2.52969E-04-1.43320E-01 4.84027E-14 6.11207E-14
 -1      4072 1.80923E+01-4.61993E-01 4.46872E-04 2.56112E+00-1.14279E-13-1.76840E-13
 -1      4073 1.88247E+01-8.69035E-01 9.37706E-03 2.59675E+00-1.38502E-13-2.08905E-13
 -1      4074 1.82844E+01 7.06837E-01-2.62137E-03-1.16109E+00 1.96072E-13 1.28005E-13
 -1      4075 1.80447E+01 8.37358E-01-7.27542E-03-9.78274E-01 2.57943E-13-9.50804E-14
 -1      4076 1.91620E+01-1.34490E+00 1.40913E-02 2.81955E+00-8.06169E-14-2.44732E-13
 -1      4077 1.59214E+01 1.00962E+00-1.10348E-02 1.05363E+00-1.67180E-13-8.46515E-14
 -1      4078 1.55809E+01 1.24446E+00 3.30673E-02 5.67775E-01-1.41296E-13-8.08403E-15
 -1      4079 1.61443E+01 1.28729E+00-9.80226E-03 1.29310E-02-8.90351E-14-1.00078E-13
 -1      4080 2.02542E+01 9.11468E-03-7.56177E-06-1.25154E-01 7.79268E-15-8.47375E-14
 -1      4081 2.02778E+01 2.81856E-02 5.58650E-04-1.16723E-01 5.57546E-15-8.16383E-14
 -1      4082 1.85866E+01 1.06720E+00 8.12432E-03-3.77873E-01-6.69951E-14-4.55575E-14
 -1      4083 1.77984E+01 1.02858E+00 3.39708E-03-6.61170E-01 3.41791E-13-1.34211E-13
 -1      4084 1.76385E+01 1.12791E+00-9.07575E-03-3.43842E-01 4.00122E-13-9.86731E-14
 -1      4085 1.76735E+01 9.09039E-01 8.62553E-03-9.37697E-01 1.98568E-13-1.93194E-13
 -1      4086 1.92398E+01 3.34511E-01 5.03926E-03-1.37092E+00-1.23468E-13 8.94258E-14
 -1      4087 1.45395E+01 1.09857E+00-1.32339E-02 5.42534E-01 1.56762E-13 3.17159E-14
 -1      4088 1.75526E+01 1.20480E+00-1.00473E-02 9.33670E-01 2.42407E-13-5.22002E-13
 -1      4089 1.71965E+01 1.19681E+00-1.48572E-04 1.02800E+00 2.00472E-13-2.85163E-13
 -1      4090 1.74602E+01 1.27018E+00 7.70166E-03 5.86057E-01 3.79505E-13-4.18786E-13
 -1      4091 2.03010E+01 5.59738E-02-3.38810E-04-1.09012E-01 1.65299E-14-7.83020E-14
 -1      4092 2.03246E+01 9.38305E-02 1.93284E-04-9.37760E-02 2.19731E-14-5.19681E-14
 -1      4093 2.03146E+01 5.26289E-02-1.54618E-05-9.26240E-02 2.07274E-14-1.07989E-13
 -1      4094 1.96201E+01 5.02105E-01 2.44950E-03-2.38111E-01-8.13652E-14 1.07642E-13
 -1      4095 2.03693E+01 1.25930E-01 7.59101E-05 5.83436E-02-2.65944E-14-3.35728E-14
 -1      4096 2.03994E+01 8.04505E-01-2.05911E-03 2.28431E-02 6.41270E-14-1.96928E-13
 -1      4097 1.62915E+01 1.71400E-01-1.20669E-02-2.34129E+00 5.62234E-14-5.35295E-13
 -1      4098 1.68377E+01-1.70077E-01 2.88173E-02-2.75441E+00-1.55474E-14-6.02981E-13
 -1      4099 2.03957E+01 8.98523E-01 4.10376E-03-3.58385E-02 2.81258E-14-1.28906E-13
 -1      4100 1.45638E+01 1.04035E+00-1.03463E-02-5.19116E-01 1.88608E-13-1.56677E-13
 -1      4101 1.44032E+01 8.74282E-01 3.82347E-02-1.35145E+00 4.30873E-14-4.06000E-13
 -1      4102 1.53610E+01 7.21306E-01 1.74495E-02-1.59213E+00 6.96613E-14-3.93802E-13
 -1      4103 1.78790E+01-6.31827E-01 8.69875E-03-2.78808E+00-2.51691E-14-2.74810E-13
 -1      4104 1.99791E+01 1.58829E-01 2.80813E-04-1.80441E-01 3.21448E-14 1.30900E-13
 -1      4105 2.00067E+01 1.23491E-01-7.66269E-04-1.68567E-01 4.84465E-14 1.36530E-13
 -1      4106 2.00239E+01 1.16799E-01 3.72633E-04-1.38210E-01 3.77925E-14 1.31962E-13
 -1      4107 1.99494E+01 1.90618E-01 7.47408E-04-1.54449E-01 6.59852E-14 1.19730E-13
 -1      4108 1.67824E+01 1.15799E+00-1.67467E-02 1.13234E+00 1.84301E-13-1.52908E-13
 -1      4109 1.63380E+01 1.10112E+00 1.46973E-03 1.28548E+00 2.59645E-13 2.48168E-14
 -1      4110 1.57767E+01 1.22494E+00 2.82551E-02 8.89227E-01 3.07171E-13 1.15339E-13
 -1      4111 1.66424E+01 1.27321E+00 1.35430E-02 6.78014E-01 4.09648E-13-9.91723E-14
 -1      4112 1.88023E+01 3.21879E-01-2.40219E-03-1.52864E+00-8.06325E-14 2.20611E-13
 -1      4113 1.98426E+01-1.86956E+00 3.12501E-02 2.99853E+00-2.91087E-15-2.58946E-13
 -1      4114 2.08816E+01-2.38452E+00 3.22503E-02 2.76243E+00-7.14186E-15-2.72274E-13
 -1      4115 2.02330E+01 2.63149E-03-1.01147E-05 6.14083E-02-7.42406E-14-6.73218E-15
 -1      4116 2.02028E+01 7.91467E-03 1.93198E-04 6.51477E-02-5.71313E-14-2.94572E-14
 -1      4117 2.01687E+01 1.88990E-02-1.27953E-04 6.62606E-02-2.00553E-14-3.52776E-14
 -1      4118 2.01375E+01 3.55622E-02 2.78472E-04 7.03293E-02-2.14266E-14-3.84879E-14
 -1      4119 2.01908E+01 1.64903E-02-1.08015E-04 3.75504E-02-5.03214E-14-1.67747E-14
 -1      4120 2.01004E+01 5.68215E-02-3.81716E-04 7.21265E-02-5.37817E-14-9.34001E-14
 -1      4121 2.00674E+01 8.30804E-02 2.93041E-04 7.78617E-02-5.23507E-14-1.61182E-13
 -1      4122 2.01219E+01 5.03673E-02 7.85257E-05 4.11366E-02-8.19239E-14-1.24418E-13
 -1      4123 2.00268E+01 1.12473E-01-6.34736E-04 8.16355E-02-5.67316E-14-1.91322E-13
 -1      4124 1.99911E+01 1.46425E-01 2.70453E-04 8.99125E-02-8.87718E-14-2.09263E-13
 -1      4125 2.00472E+01 1.04189E-01 4.55127E-04 4.74536E-02-1.07624E-13-2.26521E-13
 -1      4126 1.99454E+01 1.82610E-01-9.35600E-04 9.64963E-02-8.99324E-14-1.89041E-13
 -1      4127 1.99054E+01 2.23178E-01 2.44997E-04 1.08437E-01-1.43185E-13-1.97436E-13
 -1      4128 1.99643E+01 1.73898E-01 7.20553E-04 5.71703E-02-1.19105E-13-2.93058E-13
 -1      4129 1.98533E+01 2.64766E-01-1.11034E-03 1.18401E-01-9.22654E-14-1.34301E-13
 -1      4130 1.98066E+01 3.09993E-01 1.64298E-05 1.34785E-01-4.51662E-14-2.78490E-14
 -1      4131 1.98723E+01 2.56904E-01 1.51814E-03 7.25525E-02-6.07676E-14-1.45948E-13
 -1      4132 1.97444E+01 3.56569E-01-1.74777E-03 1.50667E-01-2.21508E-14 3.92389E-14
 -1      4133 1.96913E+01 4.05974E-01 2.96618E-04 1.73901E-01 4.63455E-14 6.58666E-14
 -1      4134 1.97611E+01 3.54107E-01 2.32515E-03 9.59945E-02 5.14211E-14 9.51013E-14
 -1      4135 1.96164E+01 4.53780E-01-2.39897E-03 1.96421E-01 3.16784E-14 1.11178E-13
 -1      4136 1.95550E+01 5.04656E-01 4.71733E-04 2.28057E-01 1.05093E-13 1.44723E-14
 -1      4137 1.96322E+01 4.58039E-01 3.49117E-03 1.29942E-01 5.51573E-14 1.55961E-13
 -1      4138 1.94646E+01 5.51598E-01-3.10406E-03 2.60302E-01 1.56629E-13-2.68310E-14
 -1      4139 1.93940E+01 6.00496E-01 8.25412E-04 3.03101E-01 1.30240E-13-6.49509E-14
 -1      4140 1.94766E+01 5.66223E-01 4.53549E-03 1.79051E-01 1.14087E-13 1.25017E-13
 -1      4141 1.92851E+01 6.41978E-01-4.00685E-03 3.48744E-01 1.21458E-13-1.21943E-13
 -1      4142 1.92057E+01 6.83890E-01 1.43851E-03 4.06473E-01 7.10015E-14-1.51442E-13
 -1      4143 1.92896E+01 6.72214E-01 5.68005E-03 2.49773E-01 1.05171E-13-1.08263E-13
 -1      4144 1.90750E+01 7.13414E-01-5.18262E-03 4.70626E-01 3.24090E-14-1.47807E-13
 -1      4145 1.89888E+01 7.41222E-01 2.43292E-03 5.48507E-01-3.85055E-14-1.28169E-13
 -1      4146 1.90660E+01 7.66645E-01 6.94771E-03 3.50844E-01 4.47921E-14-1.31557E-13
 -1      4147 1.88328E+01 7.49732E-01-6.75670E-03 6.38360E-01-8.56577E-14-1.43237E-13
 -1      4148 1.87448E+01 7.53560E-01 3.98619E-03 7.43691E-01-9.39309E-14-1.21116E-13
 -1      4149 1.88004E+01 8.36149E-01 8.26269E-03 4.94602E-01-5.46828E-14-9.50697E-14
 -1      4150 1.85602E+01 7.28658E-01-8.88662E-03 8.69512E-01-8.69151E-14-8.06619E-14
 -1      4151 1.84797E+01 6.94590E-01 6.25912E-03 1.01258E+00-2.02486E-14-1.02246E-14
 -1      4152 1.84869E+01 8.61536E-01 9.01369E-03 6.98283E-01-8.25070E-14-3.53293E-14
 -1      4153 1.82646E+01 6.22803E-01-1.06853E-02 1.18778E+00-1.22439E-14-6.19410E-14
 -1      4154 1.82018E+01 5.28050E-01 7.62664E-03 1.38549E+00-8.43664E-14-3.79427E-14
 -1      4155 1.81192E+01 8.10022E-01 5.84120E-03 9.84456E-01-9.76192E-14 7.25119E-14
 -1      4156 1.79693E+01 3.81808E-01-1.18675E-02 1.62394E+00-1.13469E-13-5.65752E-14
 -1      4157 1.79452E+01 1.94954E-01 7.04725E-03 1.89712E+00-1.21795E-13-1.01413E-13
 -1      4158 1.77102E+01 6.52171E-01 2.01008E-03 1.38227E+00-1.30961E-13-5.61409E-14
 -1      4159 1.77752E+01-2.54691E-01-2.23135E-02-2.42730E+00-5.07416E-14-3.37455E-13
 -1      4160 2.02274E+01-9.45731E-04 1.92735E-04-1.28817E-01-5.34729E-15-5.53350E-14
 -1      4161 2.02630E+01 9.66916E-03-3.22367E-04-1.05105E-01-5.50531E-15-6.77088E-14
 -1      4162 2.02044E+01-4.02714E-03 2.28623E-04-1.34128E-01 1.10842E-14-2.37782E-14
 -1      4163 1.84029E+01 1.07487E+00-6.98722E-03-1.93758E-01-4.64198E-14-5.37883E-14
 -1      4164 1.86197E+01 1.01313E+00-3.10152E-03-1.93920E-01-5.94740E-14-7.69921E-14
 -1      4165 1.53817E+01 1.17781E+00-2.03704E-04 4.90318E-01 2.63989E-13-2.04309E-14
 -1      4166 1.48455E+01 1.18411E+00 2.84647E-02-1.91313E-02 1.92012E-13-1.24419E-13
 -1      4167 1.54015E+01 1.11275E+00-8.58273E-04-4.65944E-01 2.17475E-13-1.41988E-13
 -1      4168 1.58506E+01 1.20714E+00-1.58267E-02 3.84272E-01 3.44564E-13-1.21767E-13
 -1      4169 1.96993E+01 4.16220E-01-9.53807E-04-1.55540E-01-6.33228E-16 2.64175E-13
 -1      4170 1.97603E+01 3.60458E-01-1.16859E-03-1.42395E-01 2.27415E-14 2.46435E-13
 -1      4171 1.66397E+01 1.28036E+00-1.18217E-02-1.55037E-02-1.17119E-13-1.26811E-13
 -1      4172 1.91134E+01 8.05548E-01-3.49683E-03-2.07382E-01-1.35592E-13 9.90583E-14
 -1      4173 1.92414E+01 7.36655E-01-2.09266E-03-1.95678E-01-1.20098E-13 6.78036E-14
 -1      4174 1.72193E+01 1.26329E+00-8.21195E-03-8.35680E-02-1.35292E-13-1.73510E-13
 -1      4175 1.75795E+01 1.22550E+00-7.19812E-03-1.05812E-01-1.61840E-13-1.56763E-13
 -1      4176 1.78853E+01 1.18566E+00-8.99820E-03-1.54090E-01-9.45035E-14-1.94149E-13
 -1      4177 1.81686E+01 1.13687E+00-3.93055E-03-1.63255E-01-2.61843E-14-1.20575E-13
 -1      4178 1.82788E+01 1.10819E+00 1.16338E-02 3.86541E-02 4.20746E-15-9.73759E-14
 -1      4179 1.77352E+01 1.20190E+00 1.30012E-02 1.58295E-01-1.07647E-13-1.94442E-13
 -1      4180 1.64897E+01 1.08475E-01 3.40189E-02 2.54992E+00-1.72042E-13-7.92192E-14
 -1      4181 1.61809E+01 5.02991E-01-1.39938E-02 1.95434E+00-2.14094E-13-1.16937E-13
 -1      4182 1.71359E+01-1.61507E-01 8.04937E-03 2.56806E+00-1.05810E-13-6.34562E-14
 -1      4183 2.04041E+01 3.96936E-01 3.99070E-04 5.64425E-03 2.95477E-14-1.31138E-13
 -1      4184 2.04270E+01 4.91067E-01 1.15076E-04 9.06697E-03 3.32478E-14-1.52230E-13
 -1      4185 2.03911E+01 2.98106E-01-2.66065E-04-3.33696E-02 3.27731E-14-1.16889E-13
 -1      4186 1.93565E+01 6.67570E-01-2.41121E-03-1.94354E-01-7.15258E-14 7.64903E-14
 -1      4187 1.94556E+01 6.01188E-01-1.75470E-03-1.80463E-01-5.11036E-14 1.50813E-13
 -1      4188 1.92790E+01 7.18376E-01 5.66223E-03-9.40054E-02-9.11750E-14 1.60990E-13
 -1      4189 1.60444E+01 5.78858E-01 1.97664E-02-1.86806E+00 1.78964E-13-4.57744E-13
 -1      4190 1.68258E+01 4.09079E-01 1.24425E-02-1.92070E+00 1.39603E-13-4.78952E-13
 -1      4191 1.58602E+01 8.47237E-01-1.43598E-02-1.24162E+00 3.09700E-13-3.85214E-13
 -1      4192 2.04046E+01 8.11088E-01 2.43038E-04-7.85310E-03 3.93671E-14-1.81116E-13
 -1      4193 2.04126E+01 6.94094E-01-2.33694E-03-3.84798E-02 5.30094E-15-9.27767E-14
 -1      4194 2.02935E+01 1.40837E-02 5.06180E-05 5.59010E-02-3.24988E-15-6.15490E-15
 -1      4195 2.02649E+01 4.75384E-03 1.87359E-04 6.08552E-02-2.14450E-14-1.88255E-14
 -1      4196 2.02559E+01 6.75491E-03-3.68994E-04 3.45606E-02-3.72582E-14 1.80711E-15
 -1      4197 2.03942E+01 1.56692E-01 1.59128E-04 3.46205E-02-3.29055E-14 4.34264E-15
 -1      4198 2.03732E+01 1.02176E-01-1.75422E-04 4.59863E-02-2.53632E-14 2.98596E-16
 -1      4199 2.04231E+01 3.13387E-01 4.08525E-05 1.24067E-02-3.35570E-14-1.86994E-14
 -1      4200 2.04099E+01 2.26290E-01-5.40186E-04 2.94118E-02-3.11556E-14-1.21174E-14
 -1      4201 2.04115E+01 2.03466E-01 2.96825E-04 1.72864E-02-1.92147E-14-2.55326E-14
 -1      4202 2.03486E+01 6.18944E-02 1.41461E-04 4.77412E-02-4.50706E-15 1.54813E-15
 -1      4203 2.03229E+01 3.32293E-02 2.01270E-04 5.54673E-02 8.30376E-15 7.82132E-15
 -1      4204 2.03703E+01 8.92677E-02-4.25939E-04 2.50760E-02-2.48866E-14 2.32669E-14
 -1      4205 1.88026E+01 9.44305E-01-4.97112E-03-2.09352E-01-8.14383E-14 1.35898E-14
 -1      4206 1.89688E+01 8.76429E-01-2.51263E-03-2.02318E-01-1.09819E-13 3.38131E-15
 -1      4207 1.86946E+01 9.88355E-01 9.17745E-03-3.50734E-02-3.98575E-14-1.34516E-13
 -1      4208 2.04321E+01 6.30507E-01 3.13308E-03 1.31302E-02 4.11644E-14-1.77211E-13
 -1      4209 1.75265E+01 1.21471E+00 4.91117E-03-6.63183E-02 4.51415E-13 3.44425E-14
 -1      4210 1.74487E+01 1.23807E+00-7.44433E-03 2.69030E-01 4.48731E-13-8.57620E-15
 -1      4211 1.70278E+01 1.24952E+00-2.37573E-03 2.63801E-01 2.33894E-13 4.29281E-14
 -1      4212 1.72161E+01 1.15106E+00-3.24247E-03-3.30781E-01 2.98398E-13-2.54462E-13
 -1      4213 1.95478E+01 5.36492E-01-1.60243E-03-1.75735E-01-5.40528E-14 1.43073E-13
 -1      4214 1.96250E+01 4.74871E-01-1.44204E-03-1.61627E-01-1.41411E-14 2.39693E-13
 -1      4215 1.94841E+01 5.85127E-01 4.34423E-03-9.87978E-02-3.05021E-14 2.38059E-13
 -1      4216 1.74138E+01 2.26935E-01 1.65742E-02-2.08386E+00-7.05339E-14-5.85129E-13
 -1      4217 1.80683E+01-1.90237E-02 1.16415E-02-2.12222E+00-4.75314E-15-2.12607E-13
 -1      4218 1.80825E+01 2.08119E-01-1.57627E-02-1.83791E+00 5.34578E-14-1.72422E-13
 -1      4219 1.70453E+01 5.29123E-01-1.43993E-02-1.67033E+00 1.01998E-13-2.59484E-13
 -1      4220 2.00785E+01 7.35999E-02 1.34309E-04-9.95955E-02 8.08136E-15 9.50984E-14
 -1      4221 2.01107E+01 4.83525E-02-1.58956E-04-9.47273E-02-1.11305E-14 6.03874E-14
 -1      4222 1.75634E+01 3.09323E-02-1.62317E-02 2.17144E+00-1.70586E-13-1.01717E-13
 -1      4223 1.90209E+01 8.55183E-01 7.23080E-03-7.55433E-02-6.54649E-14 4.50297E-14
 -1      4224 2.00399E+01 1.02898E-01-3.94114E-04-1.01927E-01 2.81745E-14 1.72207E-13
 -1      4225 2.00608E+01 9.31235E-02 1.98757E-04-6.98170E-02-2.62150E-14 1.40708E-13
 -1      4226 2.00048E+01 1.36462E-01 1.45767E-05-1.08525E-01 4.07020E-14 1.57330E-13
 -1      4227 1.68994E+01 1.24910E+00 1.61873E-02 3.19889E-01-1.38998E-13-1.98192E-13
 -1      4228 2.01531E+01 8.62366E-03 3.58752E-04-1.40915E-01 4.78470E-14 2.37593E-14
 -1      4229 2.01759E+01-5.87873E-04-1.82654E-05-1.36350E-01 6.00721E-14 1.27209E-14
 -1      4230 2.01506E+01 1.97096E-02-2.62225E-04-1.19656E-01 1.63720E-14 7.20034E-14
 -1      4231 1.77881E+01 5.47659E-01 7.54965E-04-1.53229E+00 1.09953E-13-2.30187E-13
 -1      4232 1.82754E+01 4.16649E-01 8.33312E-03-1.55735E+00 4.84012E-14-3.94309E-14
 -1      4233 2.03168E+01 2.77129E-02-5.56412E-04 3.08299E-02-1.85372E-15 1.73025E-15
 -1      4234 2.04254E+01 5.81964E-01 6.62233E-04-1.43606E-02-4.03268E-15-7.59608E-14
 -1      4235 2.03212E+01 3.85341E-02-4.93414E-04-7.55333E-02 1.56650E-14-1.52516E-13
 -1      4236 2.03476E+01 7.37225E-02 1.44849E-03-6.63688E-02 2.82005E-14-1.42028E-13
 -1      4237 1.97793E+01 3.43049E-01 4.83029E-04-8.86635E-02 1.27097E-14 3.18936E-13
 -1      4238 1.98214E+01 3.08565E-01-4.42004E-04-1.37037E-01-7.32614E-15 2.55095E-13
 -1      4239 1.98701E+01 2.59999E-01-8.29257E-04-1.25789E-01 2.68229E-14 2.52129E-13
 -1      4240 2.04333E+01 4.87243E-01-9.11520E-04-2.35810E-03 5.02583E-15-1.53245E-13
 -1      4241 1.96479E+01 4.60217E-01 3.11213E-03-9.60020E-02 2.77787E-14 2.99937E-13
 -1      4242 2.03530E+01 1.48515E-01-7.27576E-05-7.67746E-02 2.43793E-14-6.58030E-14
 -1      4243 2.03727E+01 2.12740E-01 3.78594E-05-5.06361E-02 4.40748E-14-8.57647E-14
 -1      4244 2.04120E+01 2.75010E-01-7.34977E-04-2.50977E-02-8.16314E-15-1.35725E-13
 -1      4245 2.03666E+01 1.33240E-01-1.27039E-03-6.43164E-02 2.15025E-14-1.00966E-13
 -1      4246 1.85039E+01 6.07331E-01-3.10803E-03-1.25508E+00 7.73466E-14 1.78926E-13
 -1      4247 1.71204E+01 4.48469E-01 7.17525E-03 1.86595E+00-1.30069E-13-8.52514E-14
 -1      4248 1.72804E+01 6.78298E-01 8.56834E-03-1.41477E+00 2.84820E-14-2.48577E-13
 -1      4249 1.74420E+01 8.30940E-01-3.19843E-03-1.13501E+00 1.55676E-13-1.72962E-13
 -1      4250 1.71683E+01 1.01895E+00 1.94386E-03-7.91460E-01 1.48567E-13-3.21538E-13
 -1      4251 1.67397E+01 8.54606E-01 6.80833E-03-1.23491E+00 1.90594E-13-3.48147E-13
 -1      4252 2.02946E+01 1.81819E-02 4.55623E-04-7.73627E-02-1.78970E-14-1.13198E-13
 -1      4253 2.03206E+01 3.41182E-02-8.68768E-04-5.34906E-02-1.57956E-14-1.49069E-13
 -1      4254 2.02669E+01 5.94820E-03 1.44540E-04-8.31689E-02-4.33158E-14-9.60275E-14
 -1      4255 1.67031E+01 1.11567E+00-3.41045E-03 7.53088E-01-2.24673E-13-7.61090E-14
 -1      4256 1.72522E+01 1.10678E+00-6.77080E-03 6.07100E-01-1.59166E-13-4.12990E-14
 -1      4257 2.02104E+01 1.00605E-02-3.30002E-05 6.91441E-03-6.24471E-14-4.23668E-14
 -1      4258 2.01769E+01 2.13429E-02 1.84243E-04 8.99821E-03-7.47297E-14-4.91459E-14
 -1      4259 2.01291E+01 4.54663E-02-7.94446E-05-1.37718E-02-5.15012E-14-1.76002E-14
 -1      4260 2.00926E+01 6.92194E-02 7.14227E-05-1.13038E-02-6.17275E-14-3.54438E-14
 -1      4261 2.00537E+01 9.76539E-02-3.86990E-04-1.31436E-02-9.97645E-14 3.29482E-14
 -1      4262 2.00136E+01 1.30201E-01-1.59733E-04-9.99573E-03-8.60334E-14 1.89594E-15
 -1      4263 1.98873E+01 2.36534E-01-1.24430E-03 2.22822E-02-4.31792E-14 6.21302E-14
 -1      4264 1.98361E+01 2.82372E-01-8.17245E-04 3.17459E-02 2.45186E-14 1.43299E-13
 -1      4265 1.97597E+01 3.48429E-01-1.32442E-03-2.21857E-03 6.57760E-14 1.86590E-13
 -1      4266 1.96968E+01 4.00769E-01-1.16884E-03 8.45956E-03 4.86983E-14 2.05884E-13
 -1      4267 1.96202E+01 4.55936E-01-2.83208E-03 9.75963E-03 3.17641E-14 2.04468E-13
 -1      4268 1.95466E+01 5.13444E-01-1.68703E-03 2.59373E-02 5.31979E-14 1.81344E-13
 -1      4269 1.94517E+01 5.72148E-01-3.90341E-03 3.11651E-02 2.48166E-14 1.56163E-13
 -1      4270 1.93636E+01 6.32140E-01-2.09531E-03 5.52730E-02 5.29604E-14 1.39093E-13
 -1      4271 1.92448E+01 6.91984E-01-5.12271E-03 6.72245E-02 1.23241E-14 6.86739E-14
 -1      4272 1.91391E+01 7.51169E-01-2.46131E-03 1.02646E-01-1.33085E-14 8.89165E-15
 -1      4273 1.89896E+01 8.08404E-01-6.63295E-03 1.25302E-01 3.57990E-14-1.25699E-14
 -1      4274 1.88635E+01 8.62105E-01-2.77393E-03 1.76921E-01 3.16887E-14-7.95826E-14
 -1      4275 1.86746E+01 9.11411E-01-8.53374E-03 2.15789E-01-2.42140E-14-8.17170E-14
 -1      4276 1.85255E+01 9.53188E-01-2.90084E-03 2.90442E-01-3.18017E-14-1.23876E-15
 -1      4277 1.82851E+01 9.87752E-01-1.07006E-02 3.53487E-01-2.43697E-14-4.63811E-15
 -1      4278 1.81119E+01 1.00896E+00-2.01055E-03 4.61169E-01-7.12963E-14 5.73703E-15
 -1      4279 1.75452E+01 8.54970E-01-3.87663E-03 1.08294E+00-2.19218E-13 4.34018E-14
 -1      4280 1.73368E+01 7.58279E-01 3.70738E-03 1.30281E+00-1.29573E-13 2.61027E-14
 -1      4281 2.02078E+01 1.54493E-03-3.61911E-04-1.13029E-01-1.48658E-14-2.26042E-14
 -1      4282 1.63951E+01 7.99008E-01 2.00928E-02 1.53369E+00-1.82424E-13-1.05095E-13
 -1      4283 1.65552E+01 1.02971E+00-4.33286E-03 9.32365E-01-2.00656E-13-7.23257E-14
 -1      4284 2.01454E+01 3.78554E-02-1.41621E-04-4.40635E-02-4.53518E-14-5.60305E-14
 -1      4285 2.01588E+01 2.51194E-02 6.52379E-05-7.27374E-02-4.87025E-14 2.17454E-14
 -1      4286 1.68036E+01 5.79101E-01-5.80548E-03 1.72785E+00-1.73239E-13-1.05253E-13
 -1      4287 2.03257E+01 3.04280E-02 1.68303E-04-1.28647E-02-3.75580E-14-4.61271E-14
 -1      4288 2.02959E+01 1.35600E-02 5.21543E-04-1.07939E-02-2.43619E-14-5.15746E-14
 -1      4289 2.04272E+01 4.89407E-01-1.05969E-03-1.25574E-02-1.17010E-14-6.52728E-14
 -1      4290 2.04263E+01 3.98443E-01-5.97680E-04 5.33770E-03-2.23291E-14-6.18262E-14
 -1      4291 1.57832E+01 1.07519E+00 1.45969E-02-7.80500E-01 2.73793E-13-3.09951E-13
 -1      4292 1.63690E+01 9.41961E-01 8.04941E-03-1.04167E+00 2.88055E-13-4.82833E-13
 -1      4293 1.65635E+01 1.02391E+00-9.05274E-03-7.95349E-01 1.81690E-13-4.44999E-13
 -1      4294 1.58882E+01 1.15093E+00-7.40640E-03-3.19025E-01 2.05638E-13-1.86156E-13
 -1      4295 2.02711E+01 6.77662E-03 1.58199E-04-3.59404E-03-4.37051E-14-7.64268E-14
 -1      4296 2.02384E+01 5.60191E-03 2.59853E-04-1.94614E-03-6.16207E-14-6.76875E-14
 -1      4297 2.02202E+01 9.05454E-03-3.00480E-04-3.24197E-02-7.88038E-14-1.29616E-13
 -1      4298 2.02702E+01 7.64748E-03-5.93860E-04-4.98163E-02-7.99309E-14-1.33643E-13
 -1      4299 2.04322E+01 3.63194E-01 6.54474E-04 4.86451E-03 1.35340E-15-6.73104E-14
 -1      4300 2.03734E+01 1.18584E-01-4.97042E-04-5.02675E-02 2.72042E-14-1.60151E-13
 -1      4301 2.04336E+01 5.31375E-01-5.32607E-04-5.28394E-03 6.36347E-15-1.02068E-13
 -1      4302 2.04240E+01 2.36590E-01 3.91911E-06-3.10367E-04 1.59656E-14-1.34744E-13
 -1      4303 2.04079E+01 1.63615E-01-2.20420E-04 6.57903E-03-2.16463E-14-9.42555E-14
 -1      4304 1.99209E+01 2.14915E-01-1.95610E-04-1.20992E-01 8.34347E-14 2.03837E-13
 -1      4305 1.99612E+01 1.73495E-01-7.03334E-04-1.12336E-01 8.52128E-14 2.01857E-13
 -1      4306 1.98891E+01 2.45791E-01 8.83023E-04-8.23559E-02 3.98902E-14 3.01123E-13
 -1      4307 2.03784E+01 9.52973E-02 4.69403E-04-1.23647E-02-5.99165E-15-7.80115E-14
 -1      4308 2.03536E+01 5.67159E-02 7.51027E-04-8.38613E-03-5.83311E-15-6.52855E-14
 -1      4309 1.66756E+01 1.24194E+00-1.06980E-02 2.79215E-01 2.87110E-13 3.07364E-14
 -1      4310 1.62904E+01 1.23895E+00-9.44990E-04 3.46190E-01 3.95600E-13-1.79129E-14
 -1      4311 1.60327E+01 1.23677E+00 1.52892E-02-2.70363E-02 2.70943E-13-1.54738E-13
 -1      4312 1.67555E+01 1.23654E+00 3.65079E-03-3.50312E-02 2.52602E-13 4.55963E-14
 -1      4313 1.78020E+01 1.02576E+00-1.05389E-02 5.61489E-01-1.50709E-13 2.61132E-14
 -1      4314 1.99807E+01 1.62231E-01 6.69395E-04-7.51892E-02 2.36044E-14 2.65303E-13
 -1      4315 1.99696E+01 1.67162E-01-5.94760E-04-1.16631E-02-3.38644E-14 6.15454E-14
 -1      4316 1.99251E+01 2.07708E-01-4.70528E-05-7.52745E-03-3.24209E-15 1.22195E-13
 -1      4317 1.75920E+01 1.01048E+00-5.47052E-04 7.05712E-01-1.74163E-13-4.58268E-14
 -1      4318 2.04380E+01 4.02402E-01 1.03994E-03-1.52388E-03 3.71067E-15-1.24837E-13
 -1      4319 2.04326E+01 3.13870E-01-4.29759E-04 4.90667E-03 1.53533E-14-1.28083E-13
 -1      4320 2.01893E+01 1.16672E-02 1.36834E-04-6.91232E-02-5.20741E-14-3.40827E-14
 -1      4321 2.02442E+01 2.62350E-03 2.27215E-04-7.48466E-02-6.89637E-14-9.52727E-14
 -1      4322 2.04261E+01 2.71171E-01-6.30455E-04-7.95213E-03 1.49212E-14-1.82796E-13
 -1      4323 2.02158E+01 4.61576E-03 1.52197E-04-7.87059E-02-5.95910E-14-6.87055E-14
 -1      4324 1.97920E+01 3.30657E-01 1.01534E-03-5.40671E-02 2.12684E-14 3.37829E-13
 -1      4325 2.03842E+01 1.21159E-01-8.50450E-04-2.80013E-02 3.95774E-14-1.95050E-13
 -1      4326 1.69863E+01 1.10611E+00 1.67439E-03-5.09240E-01 2.03535E-13-2.80390E-13
 -1      4327 2.04092E+01 1.99820E-01 1.89387E-03-2.88054E-02 1.74847E-14-1.56857E-13
 -1      4328 2.04345E+01 4.82613E-01-1.96462E-04-2.32763E-03 9.81375E-15-1.51012E-13
 -1      4329 1.98995E+01 2.32009E-01 3.64335E-05-5.02386E-02 5.52336E-14 3.36172E-13
 -1      4330 1.70732E+01 8.85307E-01 2.50466E-03 1.18520E+00-1.81027E-13 9.57164E-14
 -1      4331 1.71877E+01 6.61368E-01-1.05863E-02 1.49523E+00-1.35849E-13-8.29308E-14
 -1      4332 2.04236E+01 2.75288E-01-4.47750E-04-1.36943E-02 6.78204E-15-1.65924E-13
 -1      4333 2.04350E+01 3.58550E-01 1.21479E-03-4.56134E-03 4.70452E-15-1.53517E-13
 -1      4334 1.98517E+01 2.76769E-01 4.31428E-04-5.20212E-02 4.68014E-15 3.15126E-13
 -1      4335 1.63227E+01 1.16980E+00 3.59991E-04-3.17185E-01 2.85353E-13-1.29466E-13
 -1      4336 1.66676E+01 1.18243E+00 4.11286E-03-3.13560E-01 1.99588E-13-1.22425E-13
 -3
    1PSTEP                         3           1           1          
  100CL  101 1.000000000        4336                     0    1           1
 -4  TOSTRAIN    6    1
 -5  EXX         1    4    1    1
 -5  EYY         1    4    2    2
 -5  EZZ         1    4    3    3
 -5  EXY         1    4    1    2
 -5  EYZ         1    4    2    3
 -5  EZX         1    4    3    1
 -1         1 2.60453E-05 2.62710E-05-2.38061E-05 4.82023E-05-4.65656E-18-4.10853E-18
 -1         2 3.68690E-05-1.12586E-04 2.03982E-05-1.24590E-06-1.06178E-17-3.63430E-19
 -1         3 9.51375E-05-2.86781E-05-2.83545E-05-9.86378E-08-3.22309E-18-2.47695E-18
 -1         4 9.51675E-05-2.86428E-05-2.84148E-05 6.15191E-08 1.00100E-18 3.72891E-19
 -1         5 1.43319E-04-2.14753E-05-4.25180E-05 3.85287E-05-1.55748E-19 1.14517E-17
 -1         6 1.45383E-04 2.57497E-10-4.41772E-05-5.35230E-05-6.75403E-19 9.40249E-18
 -1         7 9.05841E-05-5.10189E-07-3.90590E-05-2.92570E-05-1.02385E-19 1.13865E-18
 -1         8 8.51075E-05 8.67937E-08-3.63326E-05-2.02812E-05-1.17711E-19-1.24574E-18
 -1         9 8.28050E-05 7.69295E-08-3.53475E-05-1.56541E-05-8.76679E-20-2.50813E-18
 -1        10 8.17760E-05 3.85871E-08-3.48819E-05-1.20915E-05-5.35219E-20-3.06389E-18
 -1        11 8.12613E-05 1.93063E-08-3.46559E-05-9.02437E-06-5.22844E-20-3.20142E-18
 -1        12 8.09975E-05 8.99075E-09-3.45441E-05-6.29274E-06-4.55942E-21-3.22910E-18
 -1        13 8.08602E-05 4.34560E-09-3.44881E-05-3.69088E-06 2.27475E-22-3.15993E-18
 -1        14 8.08031E-05 2.47386E-09-3.44654E-05-1.18552E-06 2.07116E-20-3.09388E-18
 -1        15 8.08053E-05 2.46190E-09-3.44661E-05 1.29062E-06 3.78011E-20-2.99835E-18
 -1        16 8.08667E-05 4.26358E-09-3.44904E-05 3.80114E-06 4.77788E-20-2.85790E-18
 -1        17 8.10094E-05 8.17725E-09-3.45479E-05 6.41526E-06 6.20716E-20-2.62993E-18
 -1        18 8.12785E-05 1.79922E-08-3.46613E-05 9.16683E-06 7.19316E-20-2.23272E-18
 -1        19 8.17976E-05 3.81005E-08-3.48900E-05 1.22705E-05 1.18730E-19-1.63932E-18
 -1        20 8.28279E-05 8.15642E-08-3.53601E-05 1.58833E-05 1.50454E-19-7.01916E-19
 -1        21 8.50735E-05 1.69746E-07-3.63707E-05 2.04929E-05 1.59348E-19 1.09538E-18
 -1        22 9.16218E-05-9.88337E-08-3.87305E-05 2.80046E-05 1.92700E-20 4.44195E-18
 -1        23 1.12942E-04-3.81155E-05-3.53871E-05-4.40457E-06-4.59092E-19 7.00750E-18
 -1        24 9.27666E-05-2.76856E-05-2.89879E-05 3.90668E-07-1.19227E-19 5.00915E-18
 -1        25 8.90751E-05-2.68389E-05-2.69160E-05 3.75682E-07-6.12196E-20 2.93873E-18
 -1        26 8.79659E-05-2.64736E-05-2.63766E-05 2.03722E-07 5.04382E-20 1.44518E-18
 -1        27 8.79856E-05-2.64499E-05-2.63667E-05 1.39324E-07 3.76909E-20 6.33594E-19
 -1        28 8.85126E-05-2.65843E-05-2.65344E-05 1.00172E-07-3.37521E-20 2.45249E-19
 -1        29 8.92618E-05-2.67953E-05-2.67653E-05 7.43115E-08-1.49132E-20-4.60551E-19
 -1        30 9.00836E-05-2.70343E-05-2.70145E-05 5.58123E-08 4.34925E-20-9.20973E-19
 -1        31 9.08955E-05-2.72736E-05-2.72595E-05 4.18580E-08-8.43492E-20-1.40521E-18
 -1        32 9.16543E-05-2.74988E-05-2.74884E-05 3.10358E-08-7.02629E-20-1.87115E-18
 -1        33 9.23420E-05-2.77038E-05-2.76960E-05 2.25777E-08 1.18300E-19-2.22782E-18
 -1        34 9.29574E-05-2.78878E-05-2.78820E-05 1.60298E-08-7.54428E-20-2.55097E-18
 -1        35 9.35112E-05-2.80539E-05-2.80496E-05 1.11137E-08 1.27557E-19-2.49018E-18
 -1        36 9.40231E-05-2.82079E-05-2.82048E-05 7.66974E-09-1.22196E-19-1.58449E-18
 -1        37 9.45197E-05-2.83575E-05-2.83556E-05 5.63639E-09-2.48004E-20-1.33927E-18
 -1        38 9.50331E-05-2.85122E-05-2.85116E-05 5.04318E-09-4.77723E-20-2.12562E-18
 -1        39 9.55999E-05-2.86831E-05-2.86838E-05 6.00672E-09-3.29189E-20-2.66131E-18
 -1        40 9.62601E-05-2.88820E-05-2.88842E-05 8.72033E-09-2.95276E-20-2.37735E-18
 -1        41 9.70552E-05-2.91211E-05-2.91251E-05 1.34252E-08-8.61202E-20-2.78527E-18
 -1        42 9.80245E-05-2.94121E-05-2.94182E-05 2.03445E-08-2.05389E-19-3.55075E-18
 -1        43 9.91995E-05-2.97641E-05-2.97723E-05 2.95525E-08-2.57761E-19-3.49295E-18
 -1        44 1.00594E-04-3.01810E-05-3.01909E-05 4.07366E-08 4.68940E-19-1.49779E-18
 -1        45 1.02189E-04-3.06571E-05-3.06671E-05 5.28042E-08-2.30964E-20-8.10819E-19
 -1        46 1.03916E-04-3.11710E-05-3.11782E-05 6.33021E-08-2.43999E-20-3.27704E-18
 -1        47 1.05626E-04-3.16788E-05-3.16778E-05 6.77018E-08-1.36295E-20-1.99389E-18
 -1        48 1.07072E-04-3.21070E-05-3.20902E-05 5.88382E-08-7.50890E-20-7.85190E-19
 -1        49 1.07897E-04-3.23497E-05-3.23083E-05 2.72418E-08 3.12469E-19-1.12110E-18
 -1        50 1.07658E-04-3.22763E-05-3.22052E-05-3.62739E-08 1.37356E-19-2.10962E-18
 -1        51 1.05926E-04-3.17594E-05-3.16643E-05-1.34120E-07-3.36669E-19-1.72516E-18
 -1        52 1.02466E-04-3.07291E-05-3.06332E-05-2.52276E-07 5.34677E-19-5.01814E-19
 -1        53 9.74785E-05-2.92437E-05-2.91880E-05-3.53052E-07-3.54821E-19-1.31982E-18
 -1        54 9.17824E-05-2.75457E-05-2.75726E-05-3.81782E-07 9.13497E-20-2.38010E-18
 -1        55 8.67474E-05-2.60429E-05-2.61679E-05-2.95267E-07 4.45817E-20-1.07743E-18
 -1        56 8.38610E-05-2.51805E-05-2.53703E-05-9.98886E-08-6.76688E-19-2.39798E-18
 -1        57 8.40652E-05-2.52412E-05-2.54249E-05 1.35561E-07 5.59454E-19-2.24009E-18
 -1        58 8.72669E-05-2.61973E-05-2.63074E-05 3.16684E-07 5.20280E-20-2.21504E-18
 -1        59 9.23840E-05-2.77239E-05-2.77349E-05 3.82977E-07-1.06157E-19-2.39102E-18
 -1        60 9.78925E-05-2.93652E-05-2.92987E-05 3.37666E-07 5.43011E-20-2.10191E-18
 -1        61 1.02479E-04-3.07305E-05-3.06306E-05 2.28658E-07 2.19430E-19-1.34645E-18
 -1        62 1.05419E-04-3.16056E-05-3.15110E-05 1.09480E-07-3.63959E-19-2.90340E-18
 -1        63 1.06591E-04-3.19555E-05-3.18864E-05 1.38387E-08-3.29011E-20-3.75845E-18
 -1        64 1.06275E-04-3.18637E-05-3.18231E-05-4.76562E-08-1.16045E-19-4.66442E-18
 -1        65 1.04917E-04-3.14620E-05-3.14441E-05-7.89956E-08 1.41743E-19-4.91976E-18
 -1        66 1.02965E-04-3.08831E-05-3.08799E-05-8.93402E-08-2.97776E-19-2.73207E-18
 -1        67 1.00792E-04-3.02379E-05-3.02439E-05-8.69195E-08 7.08446E-19-7.30715E-19
 -1        68 9.86932E-05-2.96129E-05-2.96276E-05-7.61041E-08 7.02212E-19 4.65790E-18
 -1        69 9.69051E-05-2.90786E-05-2.91058E-05-5.56502E-08-2.97441E-19 3.66831E-18
 -1        70 9.56509E-05-2.86993E-05-2.87397E-05-1.14109E-08-2.34960E-19 2.83824E-19
 -1        71 9.51268E-05-2.85266E-05-2.85511E-05 5.07164E-08-1.43068E-19-6.97429E-20
 -1        72 1.02147E-04-3.05777E-05-3.41401E-05-1.92762E-06 1.18452E-19 1.07496E-17
 -1        73 9.25230E-05-2.75017E-05-2.88961E-05-3.32890E-07 8.70889E-20 8.73808E-18
 -1        74 8.90626E-05-2.66883E-05-2.69592E-05-1.25657E-07 6.20807E-20 6.93013E-18
 -1        75 8.79950E-05-2.64241E-05-2.64204E-05-9.52514E-08-4.15398E-20 5.58946E-18
 -1        76 8.80191E-05-2.64295E-05-2.63931E-05-7.61214E-08 7.98180E-20 5.11247E-18
 -1        77 8.85448E-05-2.65781E-05-2.65509E-05-6.18500E-08 6.86186E-20 4.44471E-18
 -1        78 8.92904E-05-2.67958E-05-2.67768E-05-5.07949E-08-1.84983E-19 4.97827E-18
 -1        79 9.01071E-05-2.70375E-05-2.70227E-05-4.15758E-08 2.72338E-19 4.33064E-18
 -1        80 9.09131E-05-2.72775E-05-2.72649E-05-3.35175E-08-2.12779E-19 3.44779E-18
 -1        81 9.16653E-05-2.75021E-05-2.74912E-05-2.63447E-08 2.09569E-19 3.15334E-18
 -1        82 9.23456E-05-2.77057E-05-2.76963E-05-1.99318E-08-8.14249E-20 3.24187E-18
 -1        83 9.29527E-05-2.78876E-05-2.78798E-05-1.41991E-08 5.93727E-20 3.59589E-18
 -1        84 9.34979E-05-2.80511E-05-2.80449E-05-9.07697E-09 3.52236E-20 2.49107E-18
 -1        85 9.40016E-05-2.82024E-05-2.81979E-05-4.50097E-09 1.10384E-19 1.28876E-18
 -1        86 9.44925E-05-2.83501E-05-2.83473E-05-4.20548E-10-2.81426E-20-8.88419E-20
 -1        87 9.50072E-05-2.85050E-05-2.85042E-05 3.18338E-09-2.87991E-20-6.00032E-19
 -1        88 9.55905E-05-2.86807E-05-2.86822E-05 6.27008E-09 1.16260E-21-1.34458E-19
 -1        89 9.62975E-05-2.88935E-05-2.88981E-05 8.69366E-09 5.27307E-21 6.44738E-19
 -1        90 9.71953E-05-2.91636E-05-2.91721E-05 1.01286E-08-3.77907E-19 1.37741E-18
 -1        91 9.83657E-05-2.95154E-05-2.95293E-05 9.94766E-09-1.53553E-19 4.19408E-19
 -1        92 9.99075E-05-2.99781E-05-2.99995E-05 7.02566E-09-2.11398E-19 4.93359E-19
 -1        93 1.01937E-04-3.05862E-05-3.06177E-05-5.54240E-10 2.62245E-20 3.35319E-19
 -1        94 1.04583E-04-3.13776E-05-3.14225E-05-1.58851E-08 1.35025E-19-6.23492E-19
 -1        95 1.07972E-04-3.23891E-05-3.24499E-05-4.35710E-08 2.55277E-19-1.79760E-18
 -1        96 1.12190E-04-3.36455E-05-3.37204E-05-8.94954E-08 3.37792E-20-2.06229E-18
 -1        97 1.17200E-04-3.51361E-05-3.52117E-05-1.58626E-07 1.80598E-19-2.27624E-18
 -1        98 1.22699E-04-3.67742E-05-3.68125E-05-2.47905E-07-4.96425E-19-1.22331E-18
 -1        99 1.27900E-04-3.83347E-05-3.82604E-05-3.30166E-07-1.04964E-19-1.35115E-18
 -1       100 1.31308E-04-3.93870E-05-3.90966E-05-3.31005E-07 9.68380E-20 3.37194E-19
 -1       101 1.30743E-04-3.92894E-05-3.87228E-05-1.23261E-07-4.32414E-19-4.56617E-19
 -1       102 1.24088E-04-3.73806E-05-3.66756E-05 3.94419E-07 1.45418E-20 1.55325E-19
 -1       103 1.11169E-04-3.35141E-05-3.31230E-05 1.08706E-06 2.40801E-20 9.01772E-19
 -1       104 9.58877E-05-2.87741E-05-2.92256E-05 1.44643E-06 1.03924E-19 1.70000E-18
 -1       105 8.57847E-05-2.55137E-05-2.67706E-05 9.54399E-07 4.18553E-21 6.62062E-19
 -1       106 8.69988E-05-2.57970E-05-2.70757E-05-1.86409E-07 1.60715E-19-1.63766E-18
 -1       107 9.87256E-05-2.94428E-05-2.99746E-05-1.11149E-06-3.24792E-19-2.98749E-18
 -1       108 1.13978E-04-3.42004E-05-3.39218E-05-1.26885E-06 3.51267E-19-4.74233E-18
 -1       109 1.25623E-04-3.77912E-05-3.71379E-05-8.59277E-07 8.44518E-20-3.80982E-18
 -1       110 1.30689E-04-3.93101E-05-3.87240E-05-3.49509E-07 3.16236E-19-5.38225E-18
 -1       111 1.29970E-04-3.90527E-05-3.87076E-05 4.15100E-09 2.18032E-19-4.78461E-18
 -1       112 1.25711E-04-3.77376E-05-3.76062E-05 1.73587E-07-8.33640E-19-3.18326E-18
 -1       113 1.19976E-04-3.59966E-05-3.59920E-05 2.20212E-07 3.32665E-19 1.89002E-18
 -1       114 1.14097E-04-3.42260E-05-3.42752E-05 2.08354E-07-4.30313E-19 2.37078E-18
 -1       115 1.08746E-04-3.26213E-05-3.26829E-05 1.77969E-07 3.26031E-20 6.33184E-19
 -1       116 1.04187E-04-3.12561E-05-3.13143E-05 1.47897E-07 5.36307E-19 5.03978E-19
 -1       117 1.00486E-04-3.01481E-05-3.02037E-05 1.24026E-07-6.65483E-20-4.90727E-18
 -1       118 9.76718E-05-2.93026E-05-2.93667E-05 1.03598E-07-1.07168E-19-3.17176E-18
 -1       119 9.58264E-05-2.87437E-05-2.88201E-05 6.45813E-08-4.17726E-20-4.49448E-18
 -1       120 9.50983E-05-2.84960E-05-2.85490E-05-4.00915E-08 1.48852E-18-4.10709E-18
 -1       121 9.52639E-05-2.86492E-05-2.85581E-05-7.24537E-08-3.15736E-18 1.47188E-18
 -1       122 9.50325E-05-2.78995E-05-2.88344E-05 3.95054E-08 4.84101E-18 1.08001E-19
 -1       123 9.45173E-05-2.61758E-05-2.93264E-05 9.81098E-08 9.00573E-18 1.30545E-18
 -1       124 9.38614E-05-2.39786E-05-2.99521E-05 1.13233E-07 5.75315E-18-3.15816E-19
 -1       125 9.32070E-05-2.17811E-05-3.05855E-05 1.00023E-07 7.43261E-19-1.44392E-18
 -1       126 9.26762E-05-1.99917E-05-3.11065E-05 7.26593E-08-7.25835E-18-5.01414E-19
 -1       127 9.23266E-05-1.88168E-05-3.14516E-05 3.56093E-08-6.98919E-18 2.41067E-18
 -1       128 9.22104E-05-1.84265E-05-3.15692E-05-2.77119E-09-5.58306E-18 1.11427E-18
 -1       129 9.23289E-05-1.88267E-05-3.14559E-05-3.67961E-08-4.43775E-18-8.29182E-19
 -1       130 9.26517E-05-1.99138E-05-3.11406E-05-6.25612E-08-3.58115E-18 1.17600E-18
 -1       131 9.31242E-05-2.15048E-05-3.06764E-05-7.87163E-08-4.58317E-18-2.63624E-18
 -1       132 9.36704E-05-2.33426E-05-3.01390E-05-8.33280E-08-1.14126E-17 8.97370E-19
 -1       133 9.42369E-05-2.52450E-05-2.95840E-05-7.79725E-08-9.03135E-18 7.32955E-19
 -1       134 9.47397E-05-2.69362E-05-2.90953E-05-6.45881E-08-5.67350E-18 2.91573E-19
 -1       135 9.51037E-05-2.81357E-05-2.87414E-05-2.73375E-08-2.15598E-18-6.93926E-19
 -1       136 9.52268E-05-2.86120E-05-2.85527E-05 1.03053E-07-2.74994E-18 2.46071E-19
 -1       137 2.62956E-05-9.01598E-05 1.61180E-05-2.50693E-05-8.49913E-18-9.46374E-19
 -1       138 8.04516E-06-3.76167E-05 4.14780E-06-2.04727E-05-3.92600E-19-3.63377E-19
 -1       139 1.39730E-05 1.23233E-05-1.53452E-05 2.41184E-05 5.72848E-18 4.65021E-18
 -1       140 6.46286E-05 2.42995E-05-3.68189E-05 8.06398E-05 7.17776E-18 9.00354E-18
 -1       141 1.65802E-04-1.18033E-05-5.88370E-05 1.14951E-04 5.05234E-18 9.01667E-18
 -1       142 2.63421E-04-6.49199E-05-7.35118E-05 9.19301E-05 2.02568E-18 8.47202E-18
 -1       143 3.19136E-04-9.83246E-05-8.08121E-05 1.96768E-05 3.01994E-19 6.16291E-18
 -1       144 2.95537E-04-8.42019E-05-7.77356E-05-6.65565E-05 6.25176E-19-2.00048E-18
 -1       145 2.07711E-04-3.36383E-05-6.54898E-05-1.12146E-04 3.30851E-18-6.87452E-18
 -1       146 1.03860E-04 1.35106E-05-4.64934E-05-1.00443E-04 5.73187E-18-8.34116E-18
 -1       147 3.06189E-05 2.52926E-05-2.55977E-05-5.12554E-05 6.00970E-18-6.50225E-18
 -1       148 5.31669E-06-8.23517E-06-5.26277E-06 2.32864E-06 5.19994E-18-3.23164E-18
 -1       149 1.61109E-05-6.56807E-05 1.11548E-05 2.84811E-05 7.58984E-18-2.36153E-18
 -1       150 3.37471E-05-1.05812E-04 1.91507E-05 1.70263E-05 7.54600E-18-8.53008E-19
 -1       151 3.51388E-05-1.08004E-04 1.95368E-05-1.02370E-05 4.50569E-18 2.77350E-19
 -1       152 1.86218E-05-6.92499E-05 1.18791E-05-2.47660E-05 5.89535E-19-3.67612E-19
 -1       153 5.78788E-06-1.16084E-05-3.68973E-06-3.29225E-06-3.61217E-18-2.23405E-18
 -1       154 8.83914E-05 2.10134E-05-4.34512E-05 9.72572E-05-5.32995E-18-7.54495E-18
 -1       155 1.82356E-04-2.11973E-05-6.11740E-05 1.12916E-04-4.10980E-18-7.46278E-18
 -1       156 2.68635E-04-7.06799E-05-7.37934E-05 7.94853E-05-1.86914E-18-6.14226E-18
 -1       157 3.07132E-04-9.51387E-05-7.85999E-05 1.04684E-05-3.66527E-19-2.63118E-18
 -1       158 2.86432E-04-8.19663E-05-7.60241E-05-6.14821E-05 2.70389E-20-4.87891E-19
 -1       159 2.14570E-04-3.85654E-05-6.63021E-05-1.07998E-04 1.47426E-18-2.31536E-18
 -1       160 1.20830E-04 8.24678E-06-5.02000E-05-1.07423E-04-1.67204E-18 1.56701E-19
 -1       161 4.61808E-05 2.89137E-05-3.16081E-05-6.90992E-05 4.50622E-19 1.01347E-18
 -1       162 7.78390E-06 9.07012E-06-1.14752E-05-1.45407E-05 4.81242E-18-3.66003E-18
 -1       163 9.81719E-06-4.16131E-05 5.31473E-06 2.08195E-05 2.95572E-18-2.34999E-18
 -1       164 2.74649E-05-9.04447E-05 1.60927E-05 2.25392E-05-2.96567E-18 1.91403E-19
 -1       165 9.48458E-05-1.23422E-05-3.55618E-05-2.23568E-05-1.48718E-18-5.52160E-20
 -1       166 8.92302E-05-8.44875E-06-3.47832E-05-1.73958E-05-1.24972E-18-1.48247E-18
 -1       167 8.65520E-05-6.51010E-06-3.44145E-05-1.36049E-05-9.23835E-19-2.29457E-18
 -1       168 8.51970E-05-5.51645E-06-3.42319E-05-1.03774E-05-6.79330E-19-2.65752E-18
 -1       169 8.44605E-05-4.94806E-06-3.41459E-05-7.55531E-06-3.78639E-19-2.66054E-18
 -1       170 8.40392E-05-4.60391E-06-3.41054E-05-4.90935E-06-8.19467E-20-2.65350E-18
 -1       171 8.38245E-05-4.42008E-06-3.40886E-05-2.39811E-06 1.63242E-19-2.58485E-18
 -1       172 8.37613E-05-4.36449E-06-3.40843E-05 5.11294E-08 4.40946E-19-2.51317E-18
 -1       173 8.38345E-05-4.42856E-06-3.40894E-05 2.50247E-06 6.12437E-19-2.47588E-18
 -1       174 8.40613E-05-4.62324E-06-3.41069E-05 5.02026E-06 7.61034E-19-2.27567E-18
 -1       175 8.44887E-05-4.97541E-06-3.41468E-05 7.63199E-06 9.92149E-19-1.97138E-18
 -1       176 8.52569E-05-5.57637E-06-3.42337E-05 1.05230E-05 1.28256E-18-1.53541E-18
 -1       177 8.66437E-05-6.60850E-06-3.44170E-05 1.37946E-05 1.53473E-18-8.46305E-19
 -1       178 8.93786E-05-8.59743E-06-3.47875E-05 1.76337E-05 1.62599E-18 3.93936E-19
 -1       179 9.57565E-05-1.36078E-05-3.54181E-05 2.19026E-05 1.49841E-18 2.38220E-18
 -1       180 1.05575E-04-2.60926E-05-3.52542E-05 1.86694E-05 9.90327E-19 5.04837E-18
 -1       181 1.03369E-04-2.72930E-05-3.26018E-05-1.21353E-05-1.32399E-18 1.79396E-18
 -1       182 9.70748E-05-2.82790E-05-2.95191E-05-4.73812E-06-1.20805E-18 1.30095E-18
 -1       183 9.34707E-05-2.76261E-05-2.81710E-05-1.77563E-06-8.63778E-19 7.97303E-19
 -1       184 9.19314E-05-2.73936E-05-2.76236E-05-4.28252E-07-5.37550E-19 3.56283E-20
 -1       185 9.13521E-05-2.73173E-05-2.74252E-05 2.36381E-07-3.32864E-19-3.93212E-19
 -1       186 9.13085E-05-2.73553E-05-2.73998E-05 5.63818E-07-3.71190E-19-6.84440E-19
 -1       187 9.15529E-05-2.74577E-05-2.74653E-05 7.05968E-07-2.31840E-19-7.00819E-19
 -1       188 9.19422E-05-2.75908E-05-2.75773E-05 7.42927E-07-2.70945E-19-9.23121E-19
 -1       189 9.23922E-05-2.77339E-05-2.77099E-05 7.21839E-07-3.87637E-19-5.74185E-19
 -1       190 9.28549E-05-2.78754E-05-2.78482E-05 6.72789E-07-2.68542E-19-7.09332E-19
 -1       191 9.33064E-05-2.80096E-05-2.79844E-05 6.16041E-07-3.57107E-19-1.32045E-18
 -1       192 9.37384E-05-2.81352E-05-2.81157E-05 5.65815E-07 1.36980E-20-1.11954E-18
 -1       193 9.41545E-05-2.82539E-05-2.82430E-05 5.32490E-07 2.73451E-19-1.22380E-18
 -1       194 9.45664E-05-2.83697E-05-2.83697E-05 5.23966E-07-1.68729E-19-1.64420E-18
 -1       195 9.49922E-05-2.84883E-05-2.85010E-05 5.46467E-07-3.40673E-19-1.47977E-18
 -1       196 9.54546E-05-2.86167E-05-2.86438E-05 6.04879E-07-1.99032E-19-1.20492E-18
 -1       197 9.59798E-05-2.87633E-05-2.88057E-05 7.02591E-07-1.86265E-19-1.31358E-18
 -1       198 9.65955E-05-2.89370E-05-2.89948E-05 8.40779E-07-1.74874E-19-1.80108E-18
 -1       199 9.73285E-05-2.91470E-05-2.92188E-05 1.01694E-06-5.92033E-19-1.49261E-18
 -1       200 9.82015E-05-2.94021E-05-2.94836E-05 1.22253E-06-2.60355E-20-1.82820E-18
 -1       201 9.92269E-05-2.97092E-05-2.97919E-05 1.43948E-06 9.10321E-19-1.68990E-18
 -1       202 1.00400E-04-3.00712E-05-3.01403E-05 1.63578E-06 8.94976E-20-2.18602E-18
 -1       203 1.01687E-04-3.04843E-05-3.05165E-05 1.76050E-06-2.53308E-20-1.21961E-18
 -1       204 1.03014E-04-3.09331E-05-3.08952E-05 1.74017E-06 6.68331E-19-6.96221E-19
 -1       205 1.04254E-04-3.13848E-05-3.12353E-05 1.48035E-06 1.45858E-19-5.60293E-19
 -1       206 1.05215E-04-3.17824E-05-3.14796E-05 8.79032E-07-3.80991E-20-4.53984E-19
 -1       207 1.05653E-04-3.20382E-05-3.15589E-05-1.39047E-07-5.27793E-19-1.17722E-19
 -1       208 1.05296E-04-3.20355E-05-3.14069E-05-1.56024E-06 8.51549E-20-4.21652E-19
 -1       209 1.03930E-04-3.16489E-05-3.09843E-05-3.20104E-06 5.11954E-19 1.84254E-20
 -1       210 1.01516E-04-3.07988E-05-3.03087E-05-4.65385E-06-1.50019E-19 1.02124E-20
 -1       211 9.83320E-05-2.95388E-05-2.94783E-05-5.33958E-06-6.16330E-19 1.02282E-18
 -1       212 9.50403E-05-2.81302E-05-2.86670E-05-4.73550E-06-6.57554E-19 2.66435E-19
 -1       213 9.25587E-05-2.70151E-05-2.80792E-05-2.72296E-06-3.92745E-20-1.12605E-18
 -1       214 9.17009E-05-2.66260E-05-2.78779E-05 1.84741E-07 7.46693E-19-2.14873E-20
 -1       215 9.27573E-05-2.71244E-05-2.81179E-05 3.00355E-06 6.22801E-20-3.77752E-19
 -1       216 9.53265E-05-2.82906E-05-2.87217E-05 4.79388E-06-6.21739E-19-8.44250E-19
 -1       217 9.85398E-05-2.96697E-05-2.95126E-05 5.14207E-06-1.44407E-19-2.00780E-18
 -1       218 1.01493E-04-3.08358E-05-3.02842E-05 4.25445E-06-3.49078E-19-1.79419E-18
 -1       219 1.03576E-04-3.15610E-05-3.08712E-05 2.68839E-06-4.48295E-19-2.01766E-18
 -1       220 1.04566E-04-3.18183E-05-3.11878E-05 1.00934E-06-1.28070E-18-2.06581E-18
 -1       221 1.04539E-04-3.16991E-05-3.12271E-05-4.07415E-07-6.33720E-19-4.03194E-18
 -1       222 1.03729E-04-3.13300E-05-3.10362E-05-1.40398E-06 1.43354E-19-3.62342E-18
 -1       223 1.02416E-04-3.08253E-05-3.06868E-05-1.97483E-06 1.48600E-18-1.85083E-18
 -1       224 1.00858E-04-3.02711E-05-3.02535E-05-2.18558E-06 2.00681E-18 3.01334E-20
 -1       225 9.92668E-05-2.97262E-05-2.98023E-05-2.11278E-06 2.38347E-18 5.77266E-19
 -1       226 9.78060E-05-2.92298E-05-2.93874E-05-1.81188E-06 6.74946E-20-6.88205E-19
 -1       227 9.66008E-05-2.88093E-05-2.90504E-05-1.31197E-06-9.04142E-19 5.29554E-19
 -1       228 9.57123E-05-2.84901E-05-2.88068E-05-6.49429E-07 6.65550E-21 2.65912E-18
 -1       229 9.94690E-05-2.85448E-05-3.05777E-05 7.21758E-06 1.00269E-18 4.37593E-18
 -1       230 9.43804E-05-2.77799E-05-2.85137E-05 2.74998E-06 9.68721E-19 3.54048E-18
 -1       231 9.20559E-05-2.73889E-05-2.76694E-05 9.36119E-07 5.54324E-19 2.80788E-18
 -1       232 9.11029E-05-2.72250E-05-2.73493E-05 7.39986E-08 3.54198E-19 2.47948E-18
 -1       233 9.08878E-05-2.72167E-05-2.72740E-05-3.54392E-07 3.62470E-19 2.33324E-18
 -1       234 9.10694E-05-2.73018E-05-2.73222E-05-5.56648E-07-1.27849E-19 1.77108E-18
 -1       235 9.14541E-05-2.74348E-05-2.74332E-05-6.32818E-07 6.87320E-19 1.38274E-18
 -1       236 9.19293E-05-2.75870E-05-2.75732E-05-6.37719E-07 1.51325E-19 1.21331E-18
 -1       237 9.24302E-05-2.77418E-05-2.77224E-05-6.04723E-07 1.25025E-19 7.23293E-19
 -1       238 9.29219E-05-2.78903E-05-2.78700E-05-5.55654E-07-2.91207E-19 1.28508E-18
 -1       239 9.33897E-05-2.80290E-05-2.80112E-05-5.05580E-07 2.26854E-19 1.46952E-18
 -1       240 9.38329E-05-2.81585E-05-2.81458E-05-4.65488E-07 7.69454E-19 1.13311E-18
 -1       241 9.42616E-05-2.82820E-05-2.82766E-05-4.44012E-07 9.52960E-19 4.19998E-19
 -1       242 9.46945E-05-2.84052E-05-2.84091E-05-4.48655E-07 5.97759E-19-4.24162E-19
 -1       243 9.51577E-05-2.85360E-05-2.85514E-05-4.86746E-07 6.83449E-20-3.85900E-19
 -1       244 9.56851E-05-2.86841E-05-2.87136E-05-5.66211E-07-3.73495E-19-1.41837E-19
 -1       245 9.63181E-05-2.88616E-05-2.89084E-05-6.96208E-07-1.21524E-19-2.76035E-19
 -1       246 9.71072E-05-2.90832E-05-2.91512E-05-8.87558E-07-2.47695E-19-8.42217E-19
 -1       247 9.81123E-05-2.93663E-05-2.94603E-05-1.15282E-06-1.61372E-19-6.95881E-20
 -1       248 9.94035E-05-2.97317E-05-2.98569E-05-1.50557E-06-2.55297E-19 7.81410E-20
 -1       249 1.01059E-04-3.02034E-05-3.03645E-05-1.95809E-06 2.60123E-19 2.27384E-20
 -1       250 1.03162E-04-3.08080E-05-3.10074E-05-2.51581E-06 6.48190E-19-7.65209E-19
 -1       251 1.05786E-04-3.15734E-05-3.18054E-05-3.16564E-06 4.37081E-19-1.87397E-18
 -1       252 1.08969E-04-3.25242E-05-3.27653E-05-3.85397E-06-2.62059E-20-1.21039E-18
 -1       253 1.12674E-04-3.36733E-05-3.38641E-05-4.44949E-06-5.29323E-19-5.78325E-19
 -1       254 1.16706E-04-3.50039E-05-3.50241E-05-4.69112E-06-4.03001E-19 5.90544E-19
 -1       255 1.20619E-04-3.64346E-05-3.60844E-05-4.14243E-06-2.75180E-19 9.81433E-19
 -1       256 1.23617E-04-3.77529E-05-3.67894E-05-2.23027E-06-8.72692E-19 1.69624E-18
 -1       257 1.24557E-04-3.85214E-05-3.68382E-05 1.47200E-06-1.02074E-19 2.26563E-18
 -1       258 1.22246E-04-3.80442E-05-3.60396E-05 6.56077E-06 1.11736E-19 1.29353E-18
 -1       259 1.16290E-04-3.56784E-05-3.45392E-05 1.09543E-05-5.61781E-19 4.20314E-19
 -1       260 1.08342E-04-3.17735E-05-3.29055E-05 1.11750E-05-7.90586E-20 6.26672E-20
 -1       261 1.02446E-04-2.84834E-05-3.18702E-05 5.20453E-06 1.03456E-18 2.35938E-19
 -1       262 1.02523E-04-2.83924E-05-3.19205E-05-4.10101E-06 8.42374E-19-1.82401E-18
 -1       263 1.08528E-04-3.15846E-05-3.30268E-05-1.06614E-05 1.03739E-18-2.63415E-18
 -1       264 1.16452E-04-3.55402E-05-3.46486E-05-1.11012E-05 8.81515E-19-3.44638E-18
 -1       265 1.22190E-04-3.79713E-05-3.60429E-05-6.99009E-06-7.38540E-19-3.65503E-18
 -1       266 1.24170E-04-3.84452E-05-3.67123E-05-1.83374E-06 2.13743E-21-1.23382E-18
 -1       267 1.22889E-04-3.76111E-05-3.65491E-05 2.10170E-06-6.40966E-19 2.31352E-19
 -1       268 1.19565E-04-3.61906E-05-3.57462E-05 4.25903E-06-2.30704E-18 2.43461E-18
 -1       269 1.15338E-04-3.46471E-05-3.45958E-05 4.99654E-06-1.93912E-18 2.98422E-18
 -1       270 1.10985E-04-3.32012E-05-3.33447E-05 4.87926E-06 2.05607E-19 4.77208E-18
 -1       271 1.06947E-04-3.19347E-05-3.21507E-05 4.34937E-06 2.33333E-18 2.32441E-18
 -1       272 1.03429E-04-3.08657E-05-3.10972E-05 3.66567E-06 4.53015E-19 5.69929E-19
 -1       273 1.00513E-04-2.99879E-05-3.02219E-05 2.93966E-06 1.92686E-18 1.84135E-18
 -1       274 9.82262E-05-2.92901E-05-2.95426E-05 2.18621E-06-5.74475E-19 3.56833E-19
 -1       275 9.65871E-05-2.87623E-05-2.90664E-05 1.36069E-06 7.49122E-19 4.60070E-20
 -1       276 9.55853E-05-2.84606E-05-2.87610E-05 4.68604E-07 5.77045E-19 3.06492E-19
 -1       277 9.53221E-05-2.78412E-05-2.89158E-05 9.88393E-07 8.50036E-19 5.45231E-18
 -1       278 9.48614E-05-2.66508E-05-2.92319E-05 1.80083E-06 1.66638E-18 1.81931E-18
 -1       279 9.42660E-05-2.51355E-05-2.96273E-05 2.22763E-06 1.71254E-18-1.27143E-18
 -1       280 9.36673E-05-2.35432E-05-3.00547E-05 2.21023E-06 9.09714E-19-3.29981E-18
 -1       281 9.31574E-05-2.21429E-05-3.04386E-05 1.82733E-06-1.15545E-18-6.72394E-18
 -1       282 9.27860E-05-2.10919E-05-3.07317E-05 1.17516E-06-3.21160E-18-1.18696E-18
 -1       283 9.26067E-05-2.05558E-05-3.08855E-05 3.85795E-07-3.45802E-18 9.47134E-19
 -1       284 9.26303E-05-2.05832E-05-3.08839E-05-4.11109E-07-1.58043E-18 1.77441E-18
 -1       285 9.28392E-05-2.11397E-05-3.07339E-05-1.10476E-06 2.67109E-19-8.54042E-19
 -1       286 9.31931E-05-2.21232E-05-3.04624E-05-1.61553E-06-2.22394E-18-7.80277E-19
 -1       287 9.36308E-05-2.33648E-05-3.01157E-05-1.89542E-06-2.49296E-18-4.03857E-18
 -1       288 9.41139E-05-2.47459E-05-2.97288E-05-1.93619E-06-2.43185E-18 1.48864E-18
 -1       289 9.45821E-05-2.60807E-05-2.93561E-05-1.73172E-06-2.13939E-18 8.39418E-19
 -1       290 9.49998E-05-2.72224E-05-2.90436E-05-1.27942E-06-3.56672E-18 2.07517E-18
 -1       291 9.53799E-05-2.79152E-05-2.89088E-05-1.07936E-06-2.58710E-18 5.26447E-19
 -1       292 1.17499E-05-4.55670E-05 1.14972E-05 6.60594E-06-3.58994E-18-3.79047E-19
 -1       293 2.68674E-05-4.41031E-05 4.68647E-06 2.11042E-05-3.19289E-18 3.71297E-18
 -1       294 6.29419E-05-4.31491E-05-9.71324E-06 3.80592E-05-5.88688E-20 4.77271E-18
 -1       295 9.74303E-05-3.63429E-05-2.66282E-05 4.27090E-05 2.56820E-18 5.51651E-18
 -1       296 1.44453E-04-3.64426E-05-4.52584E-05 4.04444E-05 3.48236E-18 4.10726E-18
 -1       297 1.85960E-04-3.59655E-05-6.14803E-05 3.56364E-05 2.62998E-18 6.02156E-18
 -1       298 2.06060E-04-3.46000E-05-7.02004E-05 1.32892E-05 2.61881E-18 3.32884E-18
 -1       299 2.18878E-04-3.88587E-05-7.30413E-05-6.67428E-06 3.88513E-18 2.67504E-19
 -1       300 1.99950E-04-3.72021E-05-6.63467E-05-2.80220E-05 3.49523E-18-1.17356E-18
 -1       301 1.61968E-04-3.64992E-05-5.21795E-05-3.62614E-05 2.61961E-18-2.85747E-18
 -1       302 1.16167E-04-3.30215E-05-3.53325E-05-4.55280E-05 1.30274E-18-2.55253E-18
 -1       303 7.21588E-05-3.49165E-05-1.72784E-05-3.85265E-05 1.49417E-18-1.76575E-18
 -1       304 4.06366E-05-4.17205E-05-1.70980E-06-2.89577E-05 3.55754E-18-3.18259E-19
 -1       305 1.77772E-05-4.75471E-05 9.44999E-06-1.19315E-05 3.66808E-18-9.10666E-19
 -1       306 1.12326E-05-5.03499E-05 1.31659E-05 6.67697E-07 3.45444E-18-1.24683E-18
 -1       307 1.59334E-05-4.53382E-05 9.65032E-06 1.46074E-05 2.67186E-18-1.79327E-18
 -1       308 3.77511E-05-3.96865E-05-9.62833E-07 3.21402E-05 1.59327E-18-1.87276E-18
 -1       309 7.05686E-05-3.58144E-05-1.58835E-05 4.10473E-05-4.10387E-19-1.78406E-18
 -1       310 1.06066E-04-2.82351E-05-3.30579E-05 4.78172E-05-5.32572E-19-3.14736E-18
 -1       311 1.48245E-04-2.90506E-05-4.93928E-05 4.70373E-05-1.59623E-18-2.40219E-18
 -1       312 1.81564E-04-3.14871E-05-6.19389E-05 2.95974E-05-1.82154E-18-2.64655E-18
 -1       313 2.07945E-04-3.59955E-05-7.01875E-05 1.45972E-05-2.42093E-18-2.96038E-18
 -1       314 2.10814E-04-3.64295E-05-7.10978E-05-8.39328E-06-8.99761E-19-2.84317E-18
 -1       315 1.94940E-04-3.41354E-05-6.57918E-05-2.94473E-05 1.46489E-18-1.06091E-18
 -1       316 1.61530E-04-3.15311E-05-5.39672E-05-3.80355E-05-1.67752E-19-1.87618E-18
 -1       317 1.24149E-04-3.07880E-05-3.92582E-05-4.63812E-05 1.33535E-18-2.85535E-18
 -1       318 8.39738E-05-3.24543E-05-2.25793E-05-4.40766E-05 2.27937E-18 1.47807E-18
 -1       319 4.67158E-05-3.64322E-05-6.33278E-06-3.29665E-05 1.12147E-18-1.84505E-18
 -1       320 2.42451E-05-4.43422E-05 5.64812E-06-2.06214E-05-1.27648E-18-3.98471E-18
 -1       321 1.29780E-05-4.93885E-05 1.22031E-05-8.28688E-06-2.36163E-18-3.13339E-18
 -1       322 9.16229E-05-1.44431E-05-3.31549E-05-1.29923E-05-1.30615E-18-1.33547E-18
 -1       323 9.56909E-05-1.91057E-05-3.28848E-05-1.46466E-05-1.52696E-18-4.62758E-19
 -1       324 8.80145E-05-1.03789E-05-3.33277E-05-8.16262E-06-6.86461E-19-2.03911E-18
 -1       325 8.72086E-05-9.46018E-06-3.33693E-05-5.72422E-06-2.98004E-19-2.01613E-18
 -1       326 8.67538E-05-8.93132E-06-3.33975E-05-3.37069E-06 8.15206E-20-1.98856E-18
 -1       327 8.65512E-05-8.69199E-06-3.34118E-05-1.07384E-06 3.94750E-19-1.91369E-18
 -1       328 8.65599E-05-8.70159E-06-3.34114E-05 1.20464E-06 7.00997E-19-1.92270E-18
 -1       329 8.67813E-05-8.96206E-06-3.33963E-05 3.50371E-06 8.66044E-19-1.90775E-18
 -1       330 8.72485E-05-9.50508E-06-3.33673E-05 5.82107E-06 1.04683E-18-1.60416E-18
 -1       331 8.80800E-05-1.04546E-05-3.33234E-05 8.26266E-06 1.38562E-18-1.13328E-18
 -1       332 8.94851E-05-1.20348E-05-3.32596E-05 1.07733E-05 1.63313E-18-7.72716E-19
 -1       333 9.18939E-05-1.47204E-05-3.31555E-05 1.31794E-05 1.79838E-18 1.00585E-21
 -1       334 9.57855E-05-1.94519E-05-3.28222E-05 1.43857E-05 1.73307E-18 1.42550E-18
 -1       335 9.87657E-05-2.44366E-05-3.19435E-05 1.19068E-05 1.49618E-18 2.49831E-18
 -1       336 9.63625E-05-2.68041E-05-2.97812E-05 5.75042E-06 1.24761E-18 1.98863E-18
 -1       337 9.64133E-05-2.60211E-05-3.01236E-05-6.35521E-06-1.31118E-18-2.80633E-19
 -1       338 9.48946E-05-2.70220E-05-2.90629E-05-2.84467E-06-1.09320E-18-2.83112E-19
 -1       339 9.39165E-05-2.74170E-05-2.84853E-05-9.30796E-07-6.71992E-19-4.81294E-19
 -1       340 9.33978E-05-2.76288E-05-2.81800E-05 1.31784E-07-4.69780E-19-8.03828E-19
 -1       341 9.32079E-05-2.77804E-05-2.80375E-05 7.01996E-07-3.92295E-19-7.90744E-19
 -1       342 9.32304E-05-2.79085E-05-2.79940E-05 9.79764E-07-2.85923E-19-9.44707E-19
 -1       343 9.33804E-05-2.80221E-05-2.80105E-05 1.08392E-06 8.14295E-20-8.82414E-19
 -1       344 9.36008E-05-2.81226E-05-2.80623E-05 1.08969E-06-4.42222E-19-7.67348E-19
 -1       345 9.38563E-05-2.82105E-05-2.81343E-05 1.04714E-06-5.38530E-19-8.41843E-19
 -1       346 9.41271E-05-2.82868E-05-2.82177E-05 9.90852E-07-1.74476E-19-4.60660E-19
 -1       347 9.44051E-05-2.83533E-05-2.83081E-05 9.45536E-07-1.85542E-19-9.35200E-19
 -1       348 9.46907E-05-2.84132E-05-2.84047E-05 9.29420E-07 7.41306E-20-1.11443E-18
 -1       349 9.49907E-05-2.84703E-05-2.85085E-05 9.56342E-07-2.98669E-19-1.03968E-18
 -1       350 9.53166E-05-2.85297E-05-2.86223E-05 1.03690E-06 1.05943E-19-9.56737E-19
 -1       351 9.56836E-05-2.85977E-05-2.87501E-05 1.17874E-06-2.45567E-19-6.50257E-19
 -1       352 9.61094E-05-2.86819E-05-2.88961E-05 1.38599E-06-2.47473E-19-3.81133E-19
 -1       353 9.66131E-05-2.87922E-05-2.90644E-05 1.65766E-06 5.72971E-20-3.50982E-19
 -1       354 9.72137E-05-2.89405E-05-2.92581E-05 1.98471E-06-4.91447E-19-5.58661E-19
 -1       355 9.79283E-05-2.91420E-05-2.94780E-05 2.34584E-06-6.55939E-20-2.60951E-19
 -1       356 9.87691E-05-2.94150E-05-2.97218E-05 2.70163E-06 3.79976E-19-1.29063E-18
 -1       357 9.97398E-05-2.97804E-05-2.99822E-05 2.98775E-06 4.44970E-19-3.96341E-19
 -1       358 1.00830E-04-3.02586E-05-3.02460E-05 3.10862E-06 7.03179E-20-8.32042E-19
 -1       359 1.02005E-04-3.08622E-05-3.04936E-05 2.93525E-06 3.23623E-19-1.63173E-18
 -1       360 1.03199E-04-3.15808E-05-3.07003E-05 2.31405E-06 4.61732E-19-1.75843E-18
 -1       361 1.04292E-04-3.23540E-05-3.08404E-05 1.09796E-06 5.71343E-19-1.73357E-18
 -1       362 1.05097E-04-3.30374E-05-3.08947E-05-7.87193E-07 5.59927E-20-6.52925E-19
 -1       363 1.05357E-04-3.33760E-05-3.08602E-05-3.23323E-06 3.83150E-20-1.58272E-19
 -1       364 1.04789E-04-3.30401E-05-3.07574E-05-5.82069E-06 9.71888E-20-6.84119E-19
 -1       365 1.03235E-04-3.17765E-05-3.06257E-05-7.76789E-06-4.16574E-19-4.44342E-19
 -1       366 1.00880E-04-2.96732E-05-3.05096E-05-8.09968E-06-4.03417E-19 4.59871E-20
 -1       367 9.84178E-05-2.73697E-05-3.04352E-05-6.13929E-06-6.98048E-19 1.63190E-18
 -1       368 9.68652E-05-2.58941E-05-3.03998E-05-2.12015E-06-8.74115E-20-7.89823E-20
 -1       369 9.69701E-05-2.60257E-05-3.03887E-05 2.63830E-06 2.13421E-19-1.29547E-18
 -1       370 9.86594E-05-2.76903E-05-3.04024E-05 6.37766E-06-8.81944E-19-1.90570E-18
 -1       371 1.01091E-04-3.00163E-05-3.04545E-05 7.92319E-06-6.19591E-19-9.82653E-19
 -1       372 1.03258E-04-3.19977E-05-3.05427E-05 7.21753E-06 3.34221E-19 1.19408E-19
 -1       373 1.04545E-04-3.30820E-05-3.06361E-05 5.03380E-06-1.75240E-19 8.88591E-20
 -1       374 1.04834E-04-3.32542E-05-3.06893E-05 2.34677E-06-6.76166E-19 9.75080E-19
 -1       375 1.04318E-04-3.27954E-05-3.06649E-05-1.10078E-07-1.29194E-18 2.22281E-18
 -1       376 1.03282E-04-3.20266E-05-3.05479E-05-1.96566E-06-4.99422E-19 3.30380E-18
 -1       377 1.01978E-04-3.11813E-05-3.03478E-05-3.13441E-06 1.40097E-18 2.16173E-18
 -1       378 1.00587E-04-3.03848E-05-3.00898E-05-3.68689E-06 1.66057E-18 1.26813E-18
 -1       379 9.92297E-05-2.96816E-05-2.98063E-05-3.74480E-06 2.27484E-18 1.18683E-18
 -1       380 9.79778E-05-2.90713E-05-2.95291E-05-3.41946E-06 6.45139E-19 1.88297E-18
 -1       381 9.68798E-05-2.85396E-05-2.92841E-05-2.79191E-06 3.55818E-19 3.12159E-18
 -1       382 9.60643E-05-2.81761E-05-2.90896E-05-1.98863E-06 2.83516E-21 3.16986E-18
 -1       383 9.43400E-05-2.73321E-05-2.86794E-05 2.47818E-06 8.53071E-19 1.76248E-18
 -1       384 9.31311E-05-2.74509E-05-2.81268E-05 7.52746E-07 6.21871E-19 1.33114E-18
 -1       385 9.25756E-05-2.75275E-05-2.78678E-05-1.69763E-07 5.18889E-19 9.56916E-19
 -1       386 9.24338E-05-2.76191E-05-2.77735E-05-6.48636E-07 3.31916E-19 5.65960E-19
 -1       387 9.25394E-05-2.77277E-05-2.77748E-05-8.72779E-07 5.58824E-19 2.03080E-19
 -1       388 9.27830E-05-2.78441E-05-2.78305E-05-9.48459E-07 4.22721E-19 5.29539E-19
 -1       389 9.30954E-05-2.79597E-05-2.79154E-05-9.40840E-07 1.98618E-19 4.56390E-19
 -1       390 9.34357E-05-2.80692E-05-2.80146E-05-8.92491E-07-4.80667E-19 4.86896E-19
 -1       391 9.37821E-05-2.81702E-05-2.81198E-05-8.32701E-07 2.42076E-19 7.53461E-20
 -1       392 9.41270E-05-2.82631E-05-2.82276E-05-7.82669E-07 8.58544E-19 8.18161E-20
 -1       393 9.44731E-05-2.83501E-05-2.83384E-05-7.58765E-07 1.37646E-18-4.12464E-20
 -1       394 9.48312E-05-2.84350E-05-2.84551E-05-7.74788E-07 8.81020E-19 1.39418E-19
 -1       395 9.52190E-05-2.85230E-05-2.85832E-05-8.43650E-07-8.60524E-20-3.97519E-19
 -1       396 9.56602E-05-2.86205E-05-2.87298E-05-9.78676E-07-1.23617E-19-2.94822E-19
 -1       397 9.61846E-05-2.87354E-05-2.89046E-05-1.19459E-06 4.64542E-19-6.40850E-19
 -1       398 9.68278E-05-2.88772E-05-2.91187E-05-1.50811E-06 2.63736E-19-6.32458E-19
 -1       399 9.76318E-05-2.90571E-05-2.93852E-05-1.93790E-06-6.47202E-19-1.07594E-18
 -1       400 9.86442E-05-2.92892E-05-2.97185E-05-2.50326E-06-5.42336E-19-8.80036E-19
 -1       401 9.99175E-05-2.95916E-05-3.01337E-05-3.22045E-06 3.04597E-19-6.42590E-19
 -1       402 1.01507E-04-2.99888E-05-3.06441E-05-4.09442E-06 1.33592E-18-8.36050E-19
 -1       403 1.03466E-04-3.05161E-05-3.12579E-05-5.10259E-06 6.40596E-19-1.18207E-18
 -1       404 1.05838E-04-3.12264E-05-3.19722E-05-6.16546E-06-6.22333E-19-5.83797E-19
 -1       405 1.08646E-04-3.21994E-05-3.27632E-05-7.09908E-06-9.15263E-19 7.71779E-19
 -1       406 1.11871E-04-3.35444E-05-3.35768E-05-7.55015E-06-5.36345E-19 6.47256E-19
 -1       407 1.15416E-04-3.53718E-05-3.43229E-05-6.93780E-06-4.39924E-19 2.08955E-18
 -1       408 1.19015E-04-3.76681E-05-3.48900E-05-4.48554E-06-8.44154E-19 2.46820E-18
 -1       409 1.22066E-04-4.00005E-05-3.52009E-05 4.61536E-07-3.66199E-19 3.34155E-18
 -1       410 1.23438E-04-4.11360E-05-3.53009E-05 7.60583E-06 6.94309E-19 3.32622E-18
 -1       411 1.21679E-04-3.91514E-05-3.54106E-05 1.44305E-05 3.28268E-19 1.20642E-18
 -1       412 1.16487E-04-3.32809E-05-3.57564E-05 1.60119E-05 9.12585E-19-9.47109E-19
 -1       413 1.10960E-04-2.68573E-05-3.61786E-05 8.52302E-06 9.42986E-19-1.86186E-18
 -1       414 1.10139E-04-2.57982E-05-3.62563E-05-4.75882E-06 1.74444E-18-9.37067E-19
 -1       415 1.14862E-04-3.12186E-05-3.59148E-05-1.46141E-05 1.84378E-18-1.15284E-18
 -1       416 1.20556E-04-3.77947E-05-3.55212E-05-1.54751E-05 1.23708E-18-1.67402E-18
 -1       417 1.23214E-04-4.09656E-05-3.52812E-05-9.48345E-06-5.63148E-19-2.58373E-19
 -1       418 1.22289E-04-4.04393E-05-3.51151E-05-1.97812E-06-1.45870E-18-5.29681E-19
 -1       419 1.19300E-04-3.82141E-05-3.47884E-05 3.76027E-06-2.08008E-18 1.48682E-18
 -1       420 1.15508E-04-3.57528E-05-3.42075E-05 6.93882E-06-2.91307E-18 3.03606E-18
 -1       421 1.11667E-04-3.37015E-05-3.34273E-05 8.05430E-06-2.27613E-18 2.06017E-18
 -1       422 1.08103E-04-3.21499E-05-3.25543E-05 7.89762E-06-3.11282E-19 2.94940E-18
 -1       423 1.04940E-04-3.09950E-05-3.16866E-05 7.09757E-06 2.57600E-18 4.03482E-18
 -1       424 1.02215E-04-3.01143E-05-3.08928E-05 6.03658E-06 1.45667E-18 4.71778E-18
 -1       425 9.99315E-05-2.94137E-05-3.02131E-05 4.89446E-06 2.32731E-18 5.07445E-18
 -1       426 9.80795E-05-2.88339E-05-2.96683E-05 3.71812E-06-2.37327E-19 2.51035E-18
 -1       427 9.66307E-05-2.83389E-05-2.92609E-05 2.48916E-06 3.14753E-19 3.29784E-18
 -1       428 9.58894E-05-2.80312E-05-2.90769E-05 1.75151E-06-3.73223E-19 5.26357E-18
 -1       429 9.40165E-05-2.46331E-05-2.97354E-05 3.86002E-06-1.08413E-19-2.59887E-18
 -1       430 9.49208E-05-2.60679E-05-2.95033E-05 3.62628E-06-9.57758E-19 1.45898E-18
 -1       431 9.55131E-05-2.71280E-05-2.93006E-05 2.82559E-06-1.85907E-18 2.86839E-18
 -1       432 9.32306E-05-2.33480E-05-2.99526E-05 3.46030E-06-5.86147E-19-8.50678E-18
 -1       433 9.26349E-05-2.23291E-05-3.01362E-05 2.53971E-06-3.35070E-19-4.78423E-18
 -1       434 9.23047E-05-2.17237E-05-3.02555E-05 1.28883E-06-1.32574E-20-1.20457E-19
 -1       435 9.22584E-05-2.15895E-05-3.02935E-05-7.68275E-08-2.05143E-18 2.83159E-18
 -1       436 9.24722E-05-2.19139E-05-3.02454E-05-1.35304E-06-1.35975E-18 1.76842E-18
 -1       437 9.28892E-05-2.26225E-05-3.01190E-05-2.37766E-06-6.42500E-19-1.19187E-18
 -1       438 9.34247E-05-2.35814E-05-2.99355E-05-3.04030E-06 2.12000E-19-3.99553E-18
 -1       439 9.40288E-05-2.46993E-05-2.97132E-05-3.31993E-06 1.28549E-18 5.74184E-19
 -1       440 9.46337E-05-2.58393E-05-2.94816E-05-3.19946E-06-4.74211E-19 1.17303E-18
 -1       441 9.52095E-05-2.69143E-05-2.92646E-05-2.72332E-06-1.65257E-18-1.35915E-18
 -1       442 5.57109E-05-4.05082E-05-6.68889E-06 4.05905E-05-1.72107E-18 5.32683E-18
 -1       443 1.33598E-05-1.91670E-05 2.64802E-06-3.59797E-06 4.20115E-19-1.38426E-18
 -1       444 2.61704E-05-2.81616E-05 7.94138E-07 2.65926E-05-1.37241E-18 1.77909E-18
 -1       445 1.08513E-04-5.76189E-05-2.18246E-05 3.70948E-05-6.70850E-19 4.11253E-18
 -1       446 1.37304E-04-5.82922E-05-3.39956E-05 2.31488E-05 3.88153E-19 1.79073E-18
 -1       447 8.93648E-05-1.18980E-05-3.32663E-05-1.06571E-05-1.00311E-18-1.87702E-18
 -1       448 1.64966E-04-2.71671E-05-5.87743E-05-2.73987E-06 1.90784E-18 9.59053E-19
 -1       449 1.57655E-04-1.31191E-05-6.19344E-05-1.22225E-06 3.81440E-18 4.05160E-19
 -1       450 1.62835E-04-1.86712E-05-6.16306E-05 4.65346E-06 2.79849E-18 1.93695E-18
 -1       451 1.63592E-04-3.60907E-05-5.44485E-05-1.00677E-07 2.34083E-18 2.31854E-18
 -1       452 1.47979E-04-5.37871E-05-4.04226E-05-1.51056E-05-2.54666E-19-4.87891E-19
 -1       453 1.22937E-04-5.67612E-05-2.83922E-05-3.22135E-05-9.05266E-19-1.35017E-18
 -1       454 8.21834E-05-5.04106E-05-1.37869E-05-4.20367E-05 3.98741E-19 2.14272E-18
 -1       455 3.96815E-05-3.37839E-05-2.55963E-06-3.50870E-05 5.26113E-19 6.81862E-19
 -1       456 1.53782E-05-2.52245E-05 3.90074E-06-1.37809E-05 5.30666E-19-1.13714E-18
 -1       457 1.32468E-05-2.35573E-05 4.15438E-06 1.21974E-05 9.06775E-19-7.36389E-19
 -1       458 3.42552E-05-3.06058E-05-1.60043E-06 3.58943E-05 2.08540E-18-1.45023E-18
 -1       459 7.83898E-05-4.71754E-05-1.32446E-05 4.58879E-05 2.94132E-18-1.41486E-18
 -1       460 1.12621E-04-5.23144E-05-2.58629E-05 3.77317E-05 1.52371E-18-4.06946E-19
 -1       461 1.40093E-04-4.94899E-05-3.87832E-05 2.11493E-05 1.34840E-18 4.73386E-19
 -1       462 1.52646E-04-3.71804E-05-4.94555E-05 8.30796E-06 7.60556E-19-9.42854E-19
 -1       463 1.59289E-04-1.91952E-05-5.97718E-05 1.36883E-07-1.91112E-18-9.74406E-19
 -1       464 1.63428E-04-1.41093E-05-6.35470E-05-7.82475E-08-1.26166E-18-1.69720E-18
 -1       465 1.62798E-04-1.77237E-05-6.17179E-05-1.13081E-06-3.72906E-19-1.79417E-18
 -1       466 1.59839E-04-2.84799E-05-5.58740E-05-6.14454E-06 1.15149E-18-7.63812E-19
 -1       467 1.45942E-04-4.60457E-05-4.28525E-05-1.51325E-05 1.41715E-18-1.25139E-18
 -1       468 1.26344E-04-5.51526E-05-3.04914E-05-3.05578E-05 1.35975E-18-2.41436E-18
 -1       469 8.86924E-05-4.98826E-05-1.67433E-05-4.42338E-05 2.06136E-18-4.40431E-19
 -1       470 5.09249E-05-3.95295E-05-5.15362E-06-4.19246E-05-9.96640E-19-3.72107E-18
 -1       471 2.18814E-05-2.55802E-05 1.56596E-06-2.52061E-05-4.13934E-19-3.99418E-18
 -1       472 1.60180E-04-4.31262E-05-4.99268E-05 5.89503E-06 1.16333E-18 2.00800E-18
 -1       473 9.22274E-05-5.20563E-05-1.69244E-05 4.09199E-05-1.15212E-18 3.86162E-18
 -1       474 9.58025E-05-2.51434E-05-3.02683E-05 6.02886E-06 1.24039E-18 5.77687E-19
 -1       475 8.95627E-05-1.34073E-05-3.26572E-05-3.92897E-06-8.94595E-20-1.73062E-18
 -1       476 9.02630E-05-1.43684E-05-3.25475E-05-5.89154E-06-4.38644E-19-1.71315E-18
 -1       477 8.90699E-05-1.27282E-05-3.27356E-05 5.43992E-08 4.48857E-19-1.69087E-18
 -1       478 8.92039E-05-1.29115E-05-3.27148E-05 2.04776E-06 6.72209E-19-1.76088E-18
 -1       479 8.95952E-05-1.34483E-05-3.26535E-05 4.00250E-06 9.04824E-19-1.60024E-18
 -1       480 9.03133E-05-1.44341E-05-3.25407E-05 5.95897E-06 1.25016E-18-1.18076E-18
 -1       481 9.14523E-05-1.60105E-05-3.23553E-05 7.78913E-06 1.40177E-18-7.96004E-19
 -1       482 9.32299E-05-1.84784E-05-3.20565E-05 9.30586E-06 1.54548E-18-4.31767E-19
 -1       483 9.50945E-05-2.65717E-05-2.93490E-05 2.88475E-06 9.74463E-19 2.59362E-19
 -1       484 9.54653E-05-2.44269E-05-3.04357E-05-5.83959E-06-1.17947E-18-8.67192E-19
 -1       485 1.47076E-04-5.54984E-05-3.95124E-05-2.68486E-06-1.29596E-19 1.35202E-18
 -1       486 5.16635E-05-3.07324E-05-8.47608E-06 3.64263E-05-1.07711E-18 6.22458E-18
 -1       487 9.52635E-05-2.62247E-05-2.95813E-05-2.90427E-06-9.55792E-19-8.49584E-19
 -1       488 9.49069E-05-2.71547E-05-2.90330E-05-1.03692E-06-7.05152E-19-9.80618E-19
 -1       489 9.46325E-05-2.76825E-05-2.86912E-05 9.27138E-08-4.58321E-19-8.75575E-19
 -1       490 9.44799E-05-2.80041E-05-2.84891E-05 7.39933E-07-5.55977E-19-6.92539E-19
 -1       491 9.44315E-05-2.82092E-05-2.83809E-05 1.07724E-06-2.63615E-19-8.70651E-19
 -1       492 9.44583E-05-2.83417E-05-2.83358E-05 1.22243E-06-1.28501E-19-1.28406E-18
 -1       493 9.45346E-05-2.84251E-05-2.83328E-05 1.25689E-06-4.61878E-19-1.16209E-18
 -1       494 9.46421E-05-2.84732E-05-2.83583E-05 1.23778E-06-1.87518E-19-7.93551E-19
 -1       495 9.47697E-05-2.84954E-05-2.84035E-05 1.20606E-06-2.18722E-19-6.11614E-19
 -1       496 9.49121E-05-2.84983E-05-2.84632E-05 1.19176E-06 2.29870E-20-6.32725E-19
 -1       497 9.50690E-05-2.84874E-05-2.85349E-05 1.21735E-06-3.40529E-19-1.04810E-18
 -1       498 9.52439E-05-2.84679E-05-2.86181E-05 1.29996E-06 1.24297E-19-5.30153E-19
 -1       499 9.54436E-05-2.84455E-05-2.87131E-05 1.45246E-06-2.20701E-21 3.38490E-20
 -1       500 9.56779E-05-2.84277E-05-2.88210E-05 1.68350E-06-9.81672E-20-7.34687E-20
 -1       501 9.59597E-05-2.84248E-05-2.89428E-05 1.99656E-06-1.07017E-19-2.24234E-19
 -1       502 9.63047E-05-2.84519E-05-2.90790E-05 2.38763E-06-5.52287E-19-2.43527E-19
 -1       503 9.67327E-05-2.85310E-05-2.92285E-05 2.84153E-06 2.54116E-19 8.92115E-20
 -1       504 9.72683E-05-2.86932E-05-2.93886E-05 3.32654E-06 2.26664E-19-1.14805E-22
 -1       505 9.79417E-05-2.89809E-05-2.95541E-05 3.78759E-06 5.32132E-19-2.37372E-20
 -1       506 9.87891E-05-2.94475E-05-2.97179E-05 4.13834E-06 2.08642E-19-2.91372E-19
 -1       507 9.98503E-05-3.01519E-05-2.98718E-05 4.25412E-06-4.03434E-19 3.48462E-19
 -1       508 1.01158E-04-3.11412E-05-3.00096E-05 3.96950E-06-3.56307E-19-6.20091E-19
 -1       509 1.02715E-04-3.24146E-05-3.01326E-05 3.08893E-06 2.60980E-19-1.54653E-18
 -1       510 1.04445E-04-3.38606E-05-3.02558E-05 1.42516E-06 5.58780E-19-1.45808E-18
 -1       511 1.06132E-04-3.51756E-05-3.04153E-05-1.11421E-06-1.85906E-19-2.01434E-18
 -1       512 1.07350E-04-3.58021E-05-3.06665E-05-4.36224E-06 3.04419E-19-1.68708E-18
 -1       513 1.07534E-04-3.50481E-05-3.10668E-05-7.68085E-06 4.16283E-19-1.14225E-18
 -1       514 1.06249E-04-3.24580E-05-3.16237E-05-9.86103E-06 7.14411E-20 3.93204E-19
 -1       515 1.03728E-04-2.84707E-05-3.22509E-05-9.44814E-06 1.81831E-19 8.05035E-19
 -1       516 1.01175E-04-2.47375E-05-3.27616E-05-5.70156E-06-1.50683E-18 3.29989E-19
 -1       517 1.00198E-04-2.33685E-05-3.29322E-05 3.70936E-07-4.09638E-19 3.86989E-19
 -1       518 1.01467E-04-2.52280E-05-3.26747E-05 6.21258E-06-4.44728E-19 2.71710E-19
 -1       519 1.04090E-04-2.91667E-05-3.21083E-05 9.41197E-06 1.65463E-19 2.36419E-18
 -1       520 1.06425E-04-3.30266E-05-3.14568E-05 9.26976E-06 4.29805E-19 1.87418E-18
 -1       521 1.07411E-04-3.53250E-05-3.08969E-05 6.73274E-06-1.00148E-18 9.81682E-19
 -1       522 1.06959E-04-3.58075E-05-3.04988E-05 3.26942E-06 4.96887E-19 1.24831E-18
 -1       523 1.05554E-04-3.50069E-05-3.02407E-05 1.12315E-08-4.53113E-20 1.87792E-18
 -1       524 1.03751E-04-3.36088E-05-3.00661E-05-2.48483E-06-4.09093E-19 1.92178E-18
 -1       525 1.01937E-04-3.21192E-05-2.99256E-05-4.09088E-06-1.06301E-18 2.31480E-18
 -1       526 1.00304E-04-3.07993E-05-2.97899E-05-4.90290E-06 1.53068E-18 1.61926E-18
 -1       527 9.89091E-05-2.97247E-05-2.96511E-05-5.08835E-06 1.50164E-18 2.19815E-18
 -1       528 9.77372E-05-2.88696E-05-2.95141E-05-4.80498E-06 1.56973E-18 2.00683E-18
 -1       529 9.67508E-05-2.81700E-05-2.93899E-05-4.16346E-06-1.52065E-19-1.79893E-19
 -1       530 9.41266E-05-2.76771E-05-2.84748E-05-1.16519E-07 7.00135E-19 2.72391E-20
 -1       531 9.39542E-05-2.79210E-05-2.82986E-05-7.35064E-07 6.28941E-19-1.49521E-19
 -1       532 9.39315E-05-2.80889E-05-2.82179E-05-1.04790E-06 3.76178E-19-1.21807E-19
 -1       533 9.40076E-05-2.82105E-05-2.81988E-05-1.17459E-06 1.00870E-19 1.81250E-19
 -1       534 9.41441E-05-2.83001E-05-2.82192E-05-1.19485E-06 1.05083E-19 3.85192E-19
 -1       535 9.43155E-05-2.83652E-05-2.82648E-05-1.16377E-06 1.75852E-19-3.09383E-19
 -1       536 9.45069E-05-2.84110E-05-2.83271E-05-1.12075E-06 6.65544E-19-5.47683E-19
 -1       537 9.47123E-05-2.84414E-05-2.84020E-05-1.09523E-06 8.87910E-19-1.97613E-19
 -1       538 9.49320E-05-2.84595E-05-2.84882E-05-1.11055E-06 9.70892E-19-1.38200E-19
 -1       539 9.51717E-05-2.84683E-05-2.85868E-05-1.18683E-06 8.14950E-19 6.53931E-20
 -1       540 9.54408E-05-2.84700E-05-2.87011E-05-1.34299E-06 1.67275E-20-3.03417E-19
 -1       541 9.57525E-05-2.84669E-05-2.88356E-05-1.59832E-06 3.49970E-19-9.29348E-19
 -1       542 9.61223E-05-2.84615E-05-2.89959E-05-1.97341E-06 2.61721E-19-4.70516E-20
 -1       543 9.65681E-05-2.84567E-05-2.91885E-05-2.49048E-06-4.55176E-19 4.48020E-19
 -1       544 9.71096E-05-2.84575E-05-2.94196E-05-3.17245E-06-5.43278E-19 2.88052E-19
 -1       545 9.77689E-05-2.84737E-05-2.96945E-05-4.04016E-06 4.57638E-19-6.88616E-19
 -1       546 9.85714E-05-2.85252E-05-3.00158E-05-5.10619E-06 5.67014E-19-1.59239E-18
 -1       547 9.95506E-05-2.86525E-05-3.03806E-05-6.36292E-06 7.19507E-19 3.44114E-20
 -1       548 1.00759E-04-2.89353E-05-3.07778E-05-7.76158E-06-1.22583E-19 6.89476E-19
 -1       549 1.02291E-04-2.95198E-05-3.11853E-05-9.17755E-06-4.09367E-19 2.14002E-19
 -1       550 1.04314E-04-3.06539E-05-3.15702E-05-1.03577E-05-6.66057E-19-3.43671E-20
 -1       551 1.07114E-04-3.26998E-05-3.18998E-05-1.08492E-05-1.55997E-18 4.75158E-19
 -1       552 1.11087E-04-3.60491E-05-3.21754E-05-9.92303E-06-8.76214E-19 9.57694E-19
 -1       553 1.16529E-04-4.07433E-05-3.25014E-05-6.57189E-06-9.21722E-19 8.44620E-19
 -1       554 1.23041E-04-4.56514E-05-3.31962E-05 1.38573E-07 4.73832E-19 1.79753E-18
 -1       555 1.28528E-04-4.74800E-05-3.47933E-05 9.90343E-06 1.06408E-18 2.19189E-18
 -1       556 1.28990E-04-4.12036E-05-3.78402E-05 1.83343E-05 1.17997E-18 1.96802E-18
 -1       557 1.23581E-04-2.77567E-05-4.14203E-05 1.72582E-05 1.28948E-18 2.07622E-18
 -1       558 1.19184E-04-1.85487E-05-4.35947E-05 2.45723E-06 2.03632E-18 3.86790E-19
 -1       559 1.22643E-04-2.46085E-05-4.23705E-05-1.42355E-05 2.35131E-18-5.23215E-19
 -1       560 1.27994E-04-3.80256E-05-3.87502E-05-1.90844E-05 9.80255E-19 2.47122E-19
 -1       561 1.29023E-04-4.67205E-05-3.53495E-05-1.22560E-05-1.75081E-19 1.68520E-18
 -1       562 1.24412E-04-4.65482E-05-3.33923E-05-2.05807E-06-2.01487E-18 3.28682E-18
 -1       563 1.17820E-04-4.20759E-05-3.24867E-05 5.66113E-06-1.28316E-18 3.40846E-18
 -1       564 1.11898E-04-3.71123E-05-3.20690E-05 9.91415E-06-2.82158E-18 4.32038E-19
 -1       565 1.07440E-04-3.33515E-05-3.17619E-05 1.14558E-05-1.23873E-18-3.42163E-19
 -1       566 1.04248E-04-3.09529E-05-3.14152E-05 1.13394E-05-1.31553E-18-7.95154E-19
 -1       567 1.01917E-04-2.95491E-05-3.10128E-05 1.03535E-05-3.18528E-19-1.68258E-18
 -1       568 1.00127E-04-2.87418E-05-3.05891E-05 8.98640E-06 4.95017E-19 2.00743E-18
 -1       569 9.86843E-05-2.82375E-05-3.01855E-05 7.49686E-06 4.57060E-19 3.71424E-18
 -1       570 9.74783E-05-2.78444E-05-2.98350E-05 5.99785E-06 1.88697E-18 4.11850E-18
 -1       571 9.64291E-05-2.74657E-05-2.95480E-05 4.48482E-06 2.24653E-19 4.14841E-18
 -1       572 9.22736E-05-2.29805E-05-2.96990E-05 4.01870E-06 1.58334E-18-6.01375E-18
 -1       573 9.15951E-05-2.22300E-05-2.97305E-05 2.49272E-06 2.29129E-18-1.61290E-18
 -1       574 9.46537E-05-2.55496E-05-2.96159E-05 5.25138E-06-6.86918E-19-7.91934E-19
 -1       575 9.33353E-05-2.41320E-05-2.96599E-05 4.99714E-06-1.17244E-18-4.32570E-18
 -1       576 9.13628E-05-2.19651E-05-2.97449E-05 6.91119E-07 6.41678E-19-2.85303E-19
 -1       577 9.15588E-05-2.21834E-05-2.97353E-05-1.10062E-06-1.13206E-18 2.12574E-18
 -1       578 9.21005E-05-2.28102E-05-2.96983E-05-2.63441E-06-1.66190E-18 1.14061E-18
 -1       579 9.28519E-05-2.37035E-05-2.96367E-05-3.72416E-06 1.42909E-19-5.11125E-19
 -1       580 9.37160E-05-2.47570E-05-2.95545E-05-4.32651E-06 3.53129E-18-2.49881E-18
 -1       581 9.45987E-05-2.58531E-05-2.94613E-05-4.41447E-06 1.11518E-18-5.36987E-19
 -1       582 9.54020E-05-2.68763E-05-2.93673E-05-4.04013E-06-2.13134E-19 5.83140E-19
 -1       583 3.07783E-05-1.46162E-05-6.21092E-06 1.48882E-05 4.05332E-19 1.53736E-19
 -1       584 9.45026E-05-2.72864E-05-2.87983E-05 9.91857E-07 7.73204E-19 1.33593E-19
 -1       585 9.45838E-05-2.07520E-05-3.16609E-05-9.44550E-06-1.33767E-18-9.81950E-19
 -1       586 4.78895E-05-2.93022E-05-7.49205E-06-3.85886E-05-1.60725E-19-5.84119E-18
 -1       587 1.30884E-04-6.33254E-05-2.89635E-05 2.06408E-05-1.61709E-18 6.12987E-19
 -1       588 2.91461E-05-1.45826E-05-5.59893E-06-1.70877E-05 4.52898E-19-2.93762E-18
 -1       589 1.34753E-04-7.68393E-06-5.50127E-05 3.25153E-06-8.22681E-19-1.36769E-18
 -1       590 1.31260E-04-5.90323E-05-3.10396E-05 2.06980E-05 1.21954E-18-1.59983E-19
 -1       591 1.43687E-04-2.63268E-05-5.08911E-05 1.51766E-05 2.44983E-18 1.96999E-18
 -1       592 8.91837E-05-1.28862E-05-3.27171E-05-1.93932E-06 1.87650E-19-1.70200E-18
 -1       593 1.39119E-04-1.72687E-05-5.26872E-05-1.22329E-05 3.44668E-18 1.09310E-18
 -1       594 1.49284E-04-4.84538E-05-4.35470E-05 8.94224E-06 9.60165E-19 2.33649E-18
 -1       595 1.34428E-04-1.37084E-05-5.24567E-05 6.25739E-06 2.69097E-18 1.99500E-18
 -1       596 7.40542E-05-4.25357E-05-1.31360E-05-4.06849E-05-1.96406E-19 1.95395E-18
 -1       597 1.39044E-04-6.28698E-05-3.27852E-05-1.30164E-05-8.74456E-19-1.73748E-19
 -1       598 1.36833E-04-9.72274E-06-5.50367E-05-5.18707E-06-1.60873E-18-1.76119E-18
 -1       599 1.13779E-04-5.96678E-05-2.30167E-05-3.25943E-05-4.64174E-19-1.32500E-18
 -1       600 3.34689E-05-2.08422E-05-4.92490E-06-2.49282E-05-7.62727E-19-2.30816E-19
 -1       601 2.27931E-05-1.31301E-05-3.52059E-06-1.54983E-06-1.40689E-18-9.36183E-19
 -1       602 3.14661E-05-1.77072E-05-5.29912E-06 2.47292E-05-7.44145E-19-2.46063E-19
 -1       603 6.49197E-05-3.51331E-05-1.22784E-05 4.18245E-05 2.00842E-18-9.90764E-20
 -1       604 1.06600E-04-5.56466E-05-2.15978E-05 3.74579E-05 2.27391E-18-1.72746E-18
 -1       605 1.42161E-04-4.76726E-05-4.08023E-05 6.72122E-07 1.53460E-18-1.19781E-18
 -1       606 1.38282E-04-5.62220E-05-3.53107E-05-1.09166E-05 7.18006E-19 4.23516E-21
 -1       607 1.39531E-04-2.63588E-05-4.90181E-05-9.98788E-06-9.20090E-20-4.69150E-19
 -1       608 1.39284E-04-1.94006E-05-5.19292E-05 9.05098E-06 4.04088E-19-5.92235E-19
 -1       609 1.43287E-04-3.91280E-05-4.50043E-05 4.59634E-06 1.08838E-18-3.99482E-19
 -1       610 1.14783E-04-5.84662E-05-2.40515E-05-3.38271E-05 1.42937E-18-8.23157E-19
 -1       611 8.02483E-05-4.60799E-05-1.43436E-05-4.45667E-05 1.04100E-18-2.64184E-18
 -1       612 1.48446E-04-3.70224E-05-4.83608E-05-1.24095E-05 1.70254E-18 1.67146E-18
 -1       613 9.61411E-05-2.31848E-05-3.12705E-05 9.59351E-06 1.54003E-18 9.65182E-19
 -1       614 9.13620E-05-1.58983E-05-3.23655E-05-7.70982E-06-7.94289E-19-1.76621E-18
 -1       615 9.27612E-05-1.79264E-05-3.20936E-05-8.89800E-06-1.09168E-18-1.53856E-18
 -1       616 1.16828E-04-5.89059E-05-2.44057E-05 2.76935E-05-2.72940E-18 4.18897E-19
 -1       617 6.02945E-05-2.97014E-05-1.26378E-05-3.43697E-05-1.12960E-18 1.32815E-18
 -1       618 9.61745E-05-2.77730E-05-2.93120E-05-3.55798E-06-5.30190E-19-1.89297E-19
 -1       619 9.15781E-05-1.68532E-05-3.20307E-05 2.44261E-06 7.19266E-19-1.50846E-18
 -1       620 9.13230E-05-1.64522E-05-3.20929E-05 8.41256E-07 4.64284E-19-1.56399E-18
 -1       621 9.29045E-05-1.90007E-05-3.16788E-05 5.27163E-06 1.11959E-18-8.15699E-19
 -1       622 9.39885E-05-2.09301E-05-3.13187E-05 6.15105E-06 1.27212E-18-4.60859E-19
 -1       623 9.52670E-05-2.40930E-05-3.04929E-05 5.15833E-06 1.21498E-18-1.79444E-19
 -1       624 5.26601E-05-2.16560E-05-1.27645E-05 2.68202E-05 3.13005E-19 3.35017E-18
 -1       625 1.23581E-04-1.63181E-05-4.64584E-05-1.15496E-05-2.80262E-19 1.97385E-19
 -1       626 9.54194E-05-2.57047E-05-2.98762E-05-2.44031E-06-9.28292E-19-9.34892E-19
 -1       627 9.54768E-05-2.69363E-05-2.93739E-05-8.66925E-07-5.83077E-19-7.04915E-19
 -1       628 9.54220E-05-2.76880E-05-2.90287E-05 1.46714E-07-2.63403E-19-7.65703E-19
 -1       629 9.53479E-05-2.81489E-05-2.87996E-05 7.53522E-07-4.54230E-19-7.16439E-19
 -1       630 9.52862E-05-2.84240E-05-2.86552E-05 1.08389E-06-4.19799E-19-7.24558E-19
 -1       631 9.52448E-05-2.85762E-05-2.85723E-05 1.23822E-06-3.07188E-19-7.69811E-19
 -1       632 9.52226E-05-2.86438E-05-2.85339E-05 1.29107E-06-1.56580E-19-4.81413E-19
 -1       633 9.52162E-05-2.86515E-05-2.85278E-05 1.29757E-06-3.07962E-19-2.78564E-19
 -1       634 9.52222E-05-2.86156E-05-2.85457E-05 1.29870E-06-3.08089E-19-6.19730E-19
 -1       635 9.52385E-05-2.85471E-05-2.85820E-05 1.32524E-06-3.13454E-19-5.70273E-19
 -1       636 9.52646E-05-2.84540E-05-2.86331E-05 1.40075E-06 2.88981E-19-3.63776E-19
 -1       637 9.53018E-05-2.83434E-05-2.86964E-05 1.54339E-06 1.44699E-19-3.15995E-19
 -1       638 9.53537E-05-2.82228E-05-2.87702E-05 1.76682E-06-2.93756E-19-6.23979E-20
 -1       639 9.54269E-05-2.81027E-05-2.88530E-05 2.08011E-06-2.39407E-20 2.06488E-19
 -1       640 9.55327E-05-2.79990E-05-2.89428E-05 2.48661E-06-4.10954E-22 7.54864E-19
 -1       641 9.56889E-05-2.79364E-05-2.90365E-05 2.98155E-06-7.75860E-20 6.35648E-19
 -1       642 9.59236E-05-2.79525E-05-2.91302E-05 3.54830E-06-3.14767E-19 1.29630E-19
 -1       643 9.62792E-05-2.81020E-05-2.92185E-05 4.15300E-06 2.54285E-19-9.61743E-19
 -1       644 9.68175E-05-2.84600E-05-2.92960E-05 4.73748E-06 5.65535E-19-7.58077E-19
 -1       645 9.76239E-05-2.91214E-05-2.93583E-05 5.21013E-06-1.46748E-19-8.38020E-19
 -1       646 9.88062E-05-3.01911E-05-2.94069E-05 5.43513E-06-1.23494E-18-8.93467E-19
 -1       647 1.00479E-04-3.17536E-05-2.94551E-05 5.22164E-06-4.61551E-19-1.18033E-18
 -1       648 1.02722E-04-3.38064E-05-2.95373E-05 4.32124E-06 3.22614E-19-1.32436E-18
 -1       649 1.05481E-04-3.61458E-05-2.97176E-05 2.45499E-06 5.15217E-19-8.21486E-19
 -1       650 1.08449E-04-3.82246E-05-3.00984E-05-5.94452E-07 6.25561E-20 2.96951E-20
 -1       651 1.10870E-04-3.89878E-05-3.08034E-05-4.68064E-06 1.99379E-19 2.31766E-19
 -1       652 1.11637E-04-3.71530E-05-3.19332E-05-8.98413E-06 7.37397E-19-4.09175E-19
 -1       653 1.09971E-04-3.21181E-05-3.33785E-05-1.14723E-05 2.00447E-19-8.49849E-19
 -1       654 1.06458E-04-2.52293E-05-3.48407E-05-9.90173E-06-1.31666E-19-7.42245E-19
 -1       655 1.03613E-04-2.02979E-05-3.57552E-05-3.62260E-06-1.34211E-18 6.77365E-19
 -1       656 1.03911E-04-2.08098E-05-3.56546E-05 4.52663E-06-5.59422E-19 1.31652E-18
 -1       657 1.07074E-04-2.63970E-05-3.46007E-05 1.01515E-05-1.53440E-19 8.33224E-19
 -1       658 1.10386E-04-3.32039E-05-3.30945E-05 1.09140E-05-6.83834E-19-1.04912E-19
 -1       659 1.11661E-04-3.77993E-05-3.16600E-05 7.88463E-06 1.47531E-19-7.02784E-19
 -1       660 1.10528E-04-3.91447E-05-3.05952E-05 3.43955E-06-4.28568E-19 6.45687E-19
 -1       661 1.07947E-04-3.80992E-05-2.99377E-05-6.22104E-07 5.23814E-19 5.80600E-20
 -1       662 1.04962E-04-3.59264E-05-2.95886E-05-3.57855E-06-6.84846E-21-4.97430E-19
 -1       663 1.02237E-04-3.35667E-05-2.94320E-05-5.36438E-06-1.67614E-19-8.39041E-19
 -1       664 1.00046E-04-3.15119E-05-2.93726E-05-6.19889E-06 9.75293E-19 9.39979E-20
 -1       665 9.83985E-05-2.99045E-05-2.93549E-05-6.34365E-06 1.72996E-18 9.71007E-19
 -1       666 9.71935E-05-2.87028E-05-2.93527E-05-6.01445E-06 1.77610E-18 4.15301E-19
 -1       667 9.63059E-05-2.78009E-05-2.93567E-05-5.36314E-06-9.09232E-19-6.86582E-19
 -1       668 9.49860E-05-2.80944E-05-2.86676E-05-7.58407E-07 6.55445E-19 6.03943E-20
 -1       669 1.39852E-04-4.49441E-05-4.10792E-05-1.62997E-05-2.80236E-19 1.78962E-19
 -1       670 1.22588E-04-5.79457E-05-2.76416E-05 2.14341E-05 4.44150E-19-1.40195E-18
 -1       671 9.50929E-05-2.76960E-05-2.88838E-05-1.33621E-07 6.74911E-19 6.46009E-20
 -1       672 9.49187E-05-2.84813E-05-2.84732E-05-1.24208E-06 9.85638E-20-8.40247E-20
 -1       673 9.49403E-05-2.85556E-05-2.84507E-05-1.28660E-06 6.12213E-19-3.20092E-19
 -1       674 9.49852E-05-2.85805E-05-2.84592E-05-1.28258E-06 4.72093E-19-7.86261E-20
 -1       675 9.50466E-05-2.85680E-05-2.84909E-05-1.27237E-06 6.91350E-19-2.68681E-19
 -1       676 9.51205E-05-2.85255E-05-2.85407E-05-1.28860E-06 1.10522E-18-2.29434E-20
 -1       677 9.52053E-05-2.84569E-05-2.86064E-05-1.35777E-06 7.38323E-19 4.12811E-20
 -1       678 9.53007E-05-2.83634E-05-2.86872E-05-1.50294E-06 5.28467E-19-1.66578E-19
 -1       679 9.54073E-05-2.82443E-05-2.87839E-05-1.74575E-06 4.98031E-19-1.10838E-19
 -1       680 9.55260E-05-2.80972E-05-2.88976E-05-2.10769E-06-1.46627E-19 1.75659E-19
 -1       681 9.56566E-05-2.79188E-05-2.90298E-05-2.61079E-06-4.68667E-19 6.04087E-19
 -1       682 9.57979E-05-2.77067E-05-2.91811E-05-3.27746E-06-3.27943E-19 2.80162E-19
 -1       683 9.59478E-05-2.74622E-05-2.93498E-05-4.12927E-06 8.95961E-21-1.02343E-19
 -1       684 9.61058E-05-2.71964E-05-2.95312E-05-5.18400E-06 7.61329E-19 8.56091E-19
 -1       685 9.62793E-05-2.69416E-05-2.97145E-05-6.45062E-06-2.38656E-20 8.49842E-19
 -1       686 9.64985E-05-2.67713E-05-2.98813E-05-7.92103E-06-1.96331E-20 1.02286E-18
 -1       687 9.68466E-05-2.68343E-05-3.00036E-05-9.55742E-06-2.90079E-19 2.08127E-18
 -1       688 9.75131E-05-2.74030E-05-3.00461E-05-1.12718E-05-7.39802E-19 2.63494E-18
 -1       689 9.88770E-05-2.89304E-05-2.99778E-05-1.28895E-05-8.56150E-19 2.68367E-18
 -1       690 1.01609E-04-3.20733E-05-2.98020E-05-1.40713E-05-1.02149E-18 1.60615E-18
 -1       691 1.06697E-04-3.75449E-05-2.96386E-05-1.41020E-05-7.22313E-19 1.18792E-18
 -1       692 1.15197E-04-4.54936E-05-2.98702E-05-1.16282E-05-6.84399E-19 1.28205E-18
 -1       693 1.26671E-04-5.34133E-05-3.13764E-05-4.70133E-06 1.67438E-19 1.14122E-18
 -1       694 1.38438E-04-3.89132E-05-4.30227E-05 1.78360E-05 1.15117E-18 2.43591E-18
 -1       695 1.29372E-04-5.46809E-05-3.20896E-05 3.04300E-06-2.15472E-18 1.45010E-18
 -1       696 1.17794E-04-4.77421E-05-2.99836E-05 1.09267E-05-1.42933E-18 2.09197E-18
 -1       697 1.08389E-04-3.94754E-05-2.95229E-05 1.44540E-05-6.72499E-19 2.60131E-18
 -1       698 1.02472E-04-3.33347E-05-2.96278E-05 1.49420E-05-1.26657E-18 1.29599E-18
 -1       699 9.92020E-05-2.96441E-05-2.98109E-05 1.40647E-05 3.02467E-19 9.94267E-20
 -1       700 9.75103E-05-2.77221E-05-2.99086E-05 1.26069E-05-5.67837E-20-2.11608E-18
 -1       701 9.66430E-05-2.68617E-05-2.99049E-05 1.09464E-05-1.43110E-18-3.44537E-18
 -1       702 9.61452E-05-2.65307E-05-2.98329E-05 9.25939E-06-1.92207E-19-2.93789E-18
 -1       703 9.57734E-05-2.63877E-05-2.97343E-05 7.61750E-06-4.66987E-20-1.19246E-18
 -1       704 9.51351E-05-2.59674E-05-2.96410E-05 6.44423E-06-2.01795E-20-4.61944E-19
 -1       705 9.01621E-05-2.19954E-05-2.92155E-05-4.97637E-07-2.67753E-19-1.24372E-19
 -1       706 9.58200E-05-2.73073E-05-2.93632E-05-4.76067E-06 4.67113E-19 8.23381E-19
 -1       707 9.07436E-05-2.23611E-05-2.93073E-05 3.94968E-06 2.27137E-18-5.93237E-18
 -1       708 9.07955E-05-2.26229E-05-2.92179E-05-2.56142E-06-1.60042E-18 1.15439E-18
 -1       709 9.01147E-05-2.18832E-05-2.92429E-05 1.78895E-06-7.45671E-21-1.98842E-18
 -1       710 9.52299E-05-2.70353E-05-2.92243E-05 9.28906E-07 8.48072E-19-8.30394E-20
 -1       711 9.18153E-05-2.35906E-05-2.92398E-05-4.11954E-06 1.45916E-19 2.27075E-18
 -1       712 9.30481E-05-2.47458E-05-2.92725E-05-5.09211E-06 2.27411E-18 1.41693E-18
 -1       713 9.42976E-05-2.59167E-05-2.93058E-05-5.46317E-06 2.76328E-18-4.32608E-18
 -1       714 7.28180E-05-3.65625E-05-1.51274E-05-3.94808E-05 1.03957E-18-4.64169E-18
 -1       715 5.33941E-05-2.18411E-05-1.30454E-05 2.97588E-05 5.34835E-19 2.53340E-18
 -1       716 1.19598E-04-8.63772E-06-4.81134E-05-3.36629E-06-6.77785E-19-9.18137E-19
 -1       717 1.27540E-04-5.87020E-05-2.95110E-05-1.65195E-05 8.45326E-19-1.31209E-18
 -1       718 9.23812E-05-4.56698E-05-1.98111E-05 3.65715E-05 1.57384E-18-2.19121E-18
 -1       719 3.75694E-05-1.13626E-05-1.06707E-05 1.00039E-05-6.69983E-19 3.36431E-19
 -1       720 1.33822E-04-5.47172E-05-3.40832E-05 4.04245E-06 1.27742E-18-2.33691E-18
 -1       721 9.49302E-05-2.83381E-05-2.85395E-05-1.09203E-06-1.66750E-20-2.46169E-19
 -1       722 9.50352E-05-2.36723E-05-3.05855E-05-4.73392E-06-9.58312E-19-1.00104E-18
 -1       723 4.89026E-05-2.03298E-05-1.17488E-05-2.83244E-05 8.38814E-19-6.30706E-18
 -1       724 9.53310E-05-2.59347E-05-2.97372E-05 2.61281E-06 9.39537E-19-1.21977E-19
 -1       725 1.20762E-04-1.34178E-05-4.65455E-05 9.52233E-06-4.71533E-19-9.58947E-19
 -1       726 9.20999E-05-1.76810E-05-3.18997E-05 3.95359E-06 1.01525E-18-1.15943E-18
 -1       727 1.36949E-04-5.91381E-05-3.35088E-05 1.73984E-06-2.42308E-18 7.26066E-20
 -1       728 9.20588E-05-1.76233E-05-3.19067E-05-3.90255E-06-2.82256E-19-1.36879E-18
 -1       729 1.27624E-04-6.08768E-05-2.85805E-05-1.73423E-05-1.30290E-18 3.28450E-19
 -1       730 1.33272E-04-3.77880E-05-4.12800E-05-1.11324E-05 5.98773E-19-7.23419E-19
 -1       731 9.94236E-05-5.01176E-05-2.09120E-05-3.30345E-05 1.04000E-19-1.40952E-20
 -1       732 8.13601E-05-4.09500E-05-1.70803E-05 3.75794E-05-2.10395E-18 3.06173E-18
 -1       733 3.93876E-05-1.09914E-05-1.16470E-05-1.71791E-06 1.60497E-18-1.28172E-18
 -1       734 3.98925E-05-1.34260E-05-1.07783E-05-1.43334E-05-1.20708E-18-1.20152E-18
 -1       735 1.35244E-04-4.76228E-05-3.77753E-05 5.00113E-06 6.61586E-19-4.23993E-19
 -1       736 1.39911E-04-5.59391E-05-3.61436E-05 6.07243E-06 4.42442E-20 2.64281E-18
 -1       737 1.30736E-04-2.90995E-05-4.40088E-05 1.28239E-05 5.36119E-19-9.58524E-19
 -1       738 9.41959E-05-2.12078E-05-3.12781E-05-6.75017E-06-1.04657E-18-1.19226E-18
 -1       739 1.01270E-04-5.14990E-05-2.11510E-05-3.59190E-05 6.49145E-19-3.38515E-19
 -1       740 9.28704E-05-1.89389E-05-3.16873E-05-5.23251E-06-6.36084E-19-1.39171E-18
 -1       741 9.13153E-05-1.64423E-05-3.20938E-05-7.84855E-07 2.83182E-19-1.37672E-18
 -1       742 5.04278E-05-1.40184E-05-1.52542E-05 1.21341E-05 1.38687E-18-8.42215E-19
 -1       743 9.20169E-05-2.33923E-05-2.94122E-05 5.60970E-06 1.14121E-18-2.81635E-18
 -1       744 9.35045E-05-2.45965E-05-2.95323E-05 6.36303E-06-1.08193E-18-4.96450E-18
 -1       745 7.65689E-05-3.28728E-05-1.84687E-05 3.28311E-05 4.46228E-19-1.04863E-18
 -1       746 8.49744E-05-3.92543E-05-1.93408E-05-3.27268E-05-4.55968E-19-5.96986E-19
 -1       747 9.15561E-05-1.68222E-05-3.20344E-05-2.38245E-06 1.04367E-20-1.45707E-18
 -1       748 4.87322E-05-1.14071E-05-1.56666E-05-2.85359E-06 5.78621E-20-4.41159E-19
 -1       749 9.46510E-05-2.27406E-05-3.08196E-05 3.90133E-06 1.02046E-18-6.09741E-19
 -1       750 9.34743E-05-1.99324E-05-3.15180E-05-6.10507E-06-8.58473E-19-1.42590E-18
 -1       751 9.49294E-05-2.34334E-05-3.06428E-05-3.52053E-06-8.06875E-19-1.10674E-18
 -1       752 9.58765E-05-2.68655E-05-2.95761E-05-5.73703E-07-3.82982E-19-6.58614E-19
 -1       753 9.59677E-05-2.77402E-05-2.92404E-05 2.44624E-07-4.07709E-19-5.58094E-19
 -1       754 9.59528E-05-2.82805E-05-2.90025E-05 7.46577E-07-5.82784E-19-7.75333E-19
 -1       755 9.58857E-05-2.85918E-05-2.88403E-05 1.02796E-06-1.09794E-19-7.32867E-19
 -1       756 9.57949E-05-2.87442E-05-2.87361E-05 1.16738E-06-4.81148E-20-3.70213E-19
 -1       757 9.56946E-05-2.87840E-05-2.86760E-05 1.22701E-06-1.70041E-19-4.88417E-19
 -1       758 9.55911E-05-2.87424E-05-2.86495E-05 1.25479E-06-2.60557E-19-4.15034E-19
 -1       759 9.54868E-05-2.86404E-05-2.86485E-05 1.28748E-06-1.20633E-19 4.95299E-20
 -1       760 9.53813E-05-2.84919E-05-2.86669E-05 1.35349E-06 7.37843E-20-9.20812E-20
 -1       761 9.52737E-05-2.83071E-05-2.86999E-05 1.47516E-06-1.11732E-20-3.63812E-19
 -1       762 9.51631E-05-2.80947E-05-2.87436E-05 1.67032E-06-2.04464E-20-4.60913E-19
 -1       763 9.50507E-05-2.78647E-05-2.87940E-05 1.95302E-06 8.96823E-20-3.44785E-19
 -1       764 9.49415E-05-2.76319E-05-2.88469E-05 2.33358E-06 2.24203E-19-5.67432E-19
 -1       765 9.48476E-05-2.74195E-05-2.88977E-05 2.81775E-06 9.14608E-20-2.13533E-19
 -1       766 9.47919E-05-2.72644E-05-2.89403E-05 3.40496E-06-5.52092E-19-3.00262E-19
 -1       767 9.48149E-05-2.72226E-05-2.89680E-05 4.08541E-06-2.29070E-19 1.78074E-19
 -1       768 9.49816E-05-2.73754E-05-2.89740E-05 4.83564E-06 2.81386E-19 6.56944E-20
 -1       769 9.53913E-05-2.78341E-05-2.89530E-05 5.61157E-06 5.77835E-19-6.53931E-19
 -1       770 9.61861E-05-2.87405E-05-2.89052E-05 6.33708E-06-6.51383E-19-1.84068E-19
 -1       771 9.75551E-05-3.02541E-05-2.88434E-05 6.88467E-06-1.25652E-18 3.68188E-19
 -1       772 9.97189E-05-3.25118E-05-2.88038E-05 7.04259E-06-3.40422E-19 1.49587E-19
 -1       773 1.02866E-04-3.55282E-05-2.88613E-05 6.47927E-06 3.01136E-19-1.05195E-18
 -1       774 1.07018E-04-3.90109E-05-2.91449E-05 4.69801E-06 2.84346E-19-1.29606E-18
 -1       775 1.11779E-04-4.19948E-05-2.99154E-05 9.87853E-07 3.09256E-19-7.88014E-19
 -1       776 1.15844E-04-4.29055E-05-3.13128E-05-4.33052E-06-2.92167E-19-4.74974E-19
 -1       777 1.17142E-04-3.90723E-05-3.34939E-05-1.01282E-05-5.83612E-19-1.18141E-18
 -1       778 1.14433E-04-2.99524E-05-3.63237E-05-1.31500E-05 1.02381E-18-1.05080E-18
 -1       779 1.09168E-04-1.93787E-05-3.86417E-05-9.35703E-06-4.42707E-20-9.11924E-19
 -1       780 1.06985E-04-1.50737E-05-3.95825E-05 6.73962E-07-1.16585E-18 6.11556E-19
 -1       781 1.10474E-04-2.12482E-05-3.83301E-05 9.97771E-06-9.87925E-19-3.46165E-19
 -1       782 1.15084E-04-3.18619E-05-3.57548E-05 1.25751E-05-1.04817E-18-6.02353E-20
 -1       783 1.17263E-04-4.02138E-05-3.30335E-05 8.89739E-06-7.56051E-19 9.97442E-19
 -1       784 1.15451E-04-4.32896E-05-3.09297E-05 2.69998E-06 9.16045E-19 1.32930E-18
 -1       785 1.11124E-04-4.19019E-05-2.96666E-05-2.51572E-06 3.34117E-19 2.16378E-18
 -1       786 1.06519E-04-3.87625E-05-2.90369E-05-5.79964E-06 9.56237E-20 2.09680E-18
 -1       787 1.02532E-04-3.52848E-05-2.88216E-05-7.42713E-06-2.06350E-19 1.42046E-18
 -1       788 9.95786E-05-3.23337E-05-2.88197E-05-7.91623E-06-4.91027E-20-1.32816E-19
 -1       789 9.75679E-05-3.00960E-05-2.89162E-05-7.72523E-06 1.83681E-18-1.10728E-18
 -1       790 9.62890E-05-2.85040E-05-2.90493E-05-7.13748E-06 8.18833E-19-2.29877E-18
 -1       791 9.54818E-05-2.73718E-05-2.91896E-05-6.31418E-06 4.43873E-19-4.17505E-18
 -1       792 8.98255E-05-4.09632E-05-2.07647E-05-3.27244E-05 7.29375E-19-1.71224E-18
 -1       793 9.02673E-05-2.31953E-05-2.87461E-05-4.35966E-06 2.60336E-19 4.95837E-18
 -1       794 9.55069E-05-2.87292E-05-2.86190E-05-1.26804E-06 2.64291E-19-2.39605E-19
 -1       795 9.55713E-05-2.86780E-05-2.86686E-05-1.21064E-06 3.99324E-19-3.00787E-19
 -1       796 9.53908E-05-2.86268E-05-2.86132E-05-1.31300E-06 6.17829E-19 3.98537E-20
 -1       797 9.53347E-05-2.84992E-05-2.86438E-05-1.37181E-06 1.07770E-18 1.42081E-19
 -1       798 9.52741E-05-2.83276E-05-2.86913E-05-1.49115E-06 8.22584E-19 9.36591E-19
 -1       799 9.52024E-05-2.81112E-05-2.87533E-05-1.69345E-06 4.44801E-19 4.41590E-19
 -1       800 9.51105E-05-2.78459E-05-2.88276E-05-1.99930E-06 1.48577E-20 1.01837E-18
 -1       801 9.49863E-05-2.75250E-05-2.89119E-05-2.42833E-06-2.64989E-19 4.32112E-19
 -1       802 9.48142E-05-2.71409E-05-2.90026E-05-2.99949E-06-5.06372E-19 3.80231E-20
 -1       803 9.45746E-05-2.66879E-05-2.90940E-05-3.73094E-06-6.58056E-19 5.73947E-19
 -1       804 9.42453E-05-2.61665E-05-2.91763E-05-4.63932E-06-5.92483E-20 1.08520E-18
 -1       805 9.38058E-05-2.55930E-05-2.92336E-05-5.73943E-06-3.64916E-19 2.86095E-18
 -1       806 9.32475E-05-2.50148E-05-2.92420E-05-7.04489E-06-4.93553E-19 3.75000E-18
 -1       807 9.25951E-05-2.45367E-05-2.91671E-05-8.57204E-06-5.68410E-19 4.47619E-18
 -1       808 9.19470E-05-2.43635E-05-2.89633E-05-1.03489E-05-4.04528E-19 4.15413E-18
 -1       809 9.15496E-05-2.48621E-05-2.85787E-05-1.24275E-05-2.44627E-19 3.52316E-18
 -1       810 9.19126E-05-2.66376E-05-2.79730E-05-1.48742E-05-7.42262E-19 1.82142E-18
 -1       811 9.39873E-05-3.06286E-05-2.71434E-05-1.77745E-05-6.66340E-19 8.11818E-19
 -1       812 9.95614E-05-3.79773E-05-2.63411E-05-2.04480E-05-7.67610E-19 2.83736E-19
 -1       813 9.52156E-05-2.44751E-05-3.03165E-05 3.42981E-06 9.50906E-19-3.79499E-19
 -1       814 1.01409E-04-4.06132E-05-2.60471E-05 2.19589E-05-1.68629E-18 3.40501E-19
 -1       815 1.19604E-04-5.44635E-05-2.77897E-05 1.81964E-05-2.56545E-18 8.09342E-20
 -1       816 9.24135E-05-2.76833E-05-2.77350E-05 1.63427E-05 1.52732E-19-1.71797E-18
 -1       817 9.17300E-05-2.54156E-05-2.84188E-05 1.38885E-05 6.26723E-19-2.47994E-18
 -1       818 9.19986E-05-2.45823E-05-2.88918E-05 1.17862E-05-7.50730E-19-7.74090E-19
 -1       819 9.26004E-05-2.44761E-05-2.91952E-05 9.96514E-06-2.87529E-19-1.94360E-18
 -1       820 9.32136E-05-2.46452E-05-2.93861E-05 8.31856E-06-5.18791E-19-3.70622E-18
 -1       821 9.33657E-05-2.46374E-05-2.94550E-05 7.31628E-06-5.74433E-19-4.69168E-18
 -1       822 9.32316E-05-1.97760E-05-3.14821E-05 1.23662E-06 3.86424E-19-1.29243E-18
 -1       823 9.57059E-05-2.69050E-05-2.94864E-05 6.85183E-07 5.16863E-19-1.22265E-19
 -1       824 8.89517E-05-2.20496E-05-2.86731E-05-2.21610E-06-1.26789E-19-4.61696E-19
 -1       825 9.37077E-05-2.59753E-05-2.90285E-05-6.34067E-06 1.09272E-19-1.07547E-18
 -1       826 1.13456E-04-5.28406E-05-2.59369E-05-2.26938E-05 9.20447E-19-5.85971E-20
 -1       827 5.34394E-05-1.53953E-05-1.60047E-05 1.74011E-05 3.73336E-19 1.64417E-18
 -1       828 1.27503E-04-4.51600E-05-3.54106E-05-7.81743E-06 5.22705E-19 5.17590E-19
 -1       829 9.19525E-05-2.45840E-05-2.88731E-05-5.74750E-06 6.23357E-19 3.04483E-18
 -1       830 1.25361E-04-5.40958E-05-3.05733E-05 7.66881E-06 1.42257E-18-1.22237E-18
 -1       831 9.51012E-05-3.23677E-05-2.68564E-05 1.91592E-05 1.13622E-19-3.08406E-19
 -1       832 1.20864E-04-2.72086E-05-4.03697E-05-1.39587E-05-3.98105E-20 1.68771E-19
 -1       833 1.17545E-04-2.39550E-05-4.03689E-05 1.29956E-05-6.24660E-19 9.61760E-19
 -1       834 9.54471E-05-2.87065E-05-2.86031E-05-1.28889E-06 5.16411E-19-2.95837E-19
 -1       835 1.27462E-04-5.19232E-05-3.24278E-05-7.22786E-07 8.89375E-19 1.49468E-18
 -1       836 9.57384E-05-2.77251E-05-2.91486E-05-2.16356E-07 6.59400E-19-2.05251E-19
 -1       837 9.55847E-05-2.55055E-05-3.00342E-05-1.80453E-06-5.23252E-19-7.55137E-19
 -1       838 5.28123E-05-1.51404E-05-1.58511E-05-1.57414E-05 1.99920E-18-3.31193E-18
 -1       839 1.09155E-04-5.06840E-05-2.50231E-05 2.47901E-05 1.23643E-18-2.26287E-18
 -1       840 1.13427E-04-5.21221E-05-2.60860E-05-2.21871E-05 4.14279E-19-7.41816E-20
 -1       841 6.95556E-05-2.74513E-05-1.77842E-05-2.98589E-05-1.34689E-18-5.15491E-18
 -1       842 7.65297E-05-3.03524E-05-1.95668E-05 2.89873E-05-7.81037E-19 3.03800E-18
 -1       843 1.24751E-04-3.77438E-05-3.74494E-05 1.19235E-05 3.57871E-20 2.32724E-18
 -1       844 6.09172E-05-2.16715E-05-1.64621E-05-2.45141E-05-8.52082E-19 8.96611E-19
 -1       845 9.31227E-05-1.95770E-05-3.15207E-05 1.87664E-08 2.22094E-19-1.44681E-18
 -1       846 9.40445E-05-2.13525E-05-3.11544E-05 3.31321E-06 9.28303E-19-8.39900E-19
 -1       847 6.74585E-05-2.05375E-05-1.99435E-05 1.96612E-05-5.61403E-19 1.24097E-18
 -1       848 8.99937E-05-2.23702E-05-2.89804E-05 5.65727E-06-1.60928E-19-3.39779E-18
 -1       849 9.56385E-05-2.85256E-05-2.87627E-05-1.06492E-06 4.95897E-20-3.48686E-19
 -1       850 6.89776E-05-2.36354E-05-1.92753E-05 2.43872E-05-8.13294E-19-8.27181E-21
 -1       851 9.35427E-05-2.03601E-05-3.13651E-05 2.35896E-06 6.68580E-19-1.04267E-18
 -1       852 8.86759E-05-2.15267E-05-2.87787E-05 3.21826E-06 1.03566E-18-5.32904E-18
 -1       853 8.83567E-05-2.14390E-05-2.86797E-05 4.38897E-07 2.64021E-19-6.62854E-19
 -1       854 9.50747E-05-4.13357E-05-2.29167E-05 2.76337E-05 1.47635E-19-1.74844E-18
 -1       855 9.57008E-05-2.82298E-05-2.89161E-05-7.62720E-07 6.38651E-19-2.13261E-19
 -1       856 9.55157E-05-2.58815E-05-2.98426E-05 1.83403E-06 7.68366E-19-4.31032E-19
 -1       857 5.34476E-05-1.26527E-05-1.72554E-05-2.55780E-06 1.45303E-18-1.60296E-18
 -1       858 9.35175E-05-2.03240E-05-3.13706E-05-2.32610E-06-2.06498E-19-1.27062E-18
 -1       859 9.40036E-05-2.12900E-05-3.11657E-05-3.27718E-06-4.72942E-19-1.03561E-18
 -1       860 6.34714E-05-1.67211E-05-1.99268E-05-1.42275E-05 3.59208E-19 5.65686E-19
 -1       861 1.15521E-04-4.99659E-05-2.81050E-05 1.27951E-05 3.29185E-19-1.38813E-18
 -1       862 9.63660E-05-2.78653E-05-2.93575E-05 3.28003E-07-3.49677E-19-6.21238E-19
 -1       863 9.63730E-05-2.84224E-05-2.91217E-05 7.00802E-07-3.20437E-19-1.21038E-19
 -1       864 9.62880E-05-2.87290E-05-2.89539E-05 9.13361E-07-1.08331E-19-4.86882E-19
 -1       865 9.61487E-05-2.88552E-05-2.88401E-05 1.02422E-06-2.54365E-19-8.04570E-19
 -1       866 9.59771E-05-2.88502E-05-2.87687E-05 1.08154E-06-2.20936E-20-7.47600E-19
 -1       867 9.57850E-05-2.87480E-05-2.87301E-05 1.12360E-06-1.61674E-19-7.87381E-19
 -1       868 9.55769E-05-2.85717E-05-2.87165E-05 1.18060E-06 8.48284E-21-8.17605E-19
 -1       869 9.53527E-05-2.83365E-05-2.87212E-05 1.27666E-06 9.40612E-20-5.24114E-19
 -1       870 9.51097E-05-2.80534E-05-2.87384E-05 1.43178E-06 8.14516E-20-9.67341E-19
 -1       871 9.48448E-05-2.77325E-05-2.87624E-05 1.66306E-06 4.67113E-20-6.19230E-19
 -1       872 9.45567E-05-2.73862E-05-2.87873E-05 1.98546E-06 1.37368E-19-5.47404E-19
 -1       873 9.42488E-05-2.70333E-05-2.88066E-05 2.41251E-06 1.87379E-19-4.80261E-19
 -1       874 9.39338E-05-2.67044E-05-2.88126E-05 2.95631E-06 3.06753E-19-8.77790E-22
 -1       875 9.36394E-05-2.64477E-05-2.87964E-05 3.62695E-06-7.52959E-20 4.56395E-19
 -1       876 9.34163E-05-2.63362E-05-2.87486E-05 4.43152E-06 7.62780E-20-1.29796E-19
 -1       877 9.33489E-05-2.64757E-05-2.86599E-05 5.37166E-06-1.30634E-19-2.94406E-19
 -1       878 9.35697E-05-2.70119E-05-2.85247E-05 6.43755E-06-9.63271E-21-5.99099E-19
 -1       879 9.42755E-05-2.81349E-05-2.83458E-05 7.59431E-06-8.64437E-19-1.43024E-18
 -1       880 9.57443E-05-3.00726E-05-2.81448E-05 8.75304E-06-7.36560E-19-3.89758E-19
 -1       881 9.83532E-05-3.30630E-05-2.79815E-05 9.69386E-06-5.36208E-19-1.70478E-19
 -1       882 1.02447E-04-3.71724E-05-2.79767E-05 9.99407E-06-3.45315E-20-3.93683E-19
 -1       883 1.08427E-04-4.22859E-05-2.83347E-05 8.94513E-06 3.18660E-19-1.54978E-18
 -1       884 9.50130E-05-2.35155E-05-3.06393E-05-2.38990E-06-4.25920E-19-7.92562E-19
 -1       885 1.21568E-04-4.84244E-05-3.13866E-05 3.26986E-08-4.17640E-19 3.69045E-18
 -1       886 1.14389E-04-4.62222E-05-2.92244E-05-6.46365E-06 6.17262E-19 1.00598E-18
 -1       887 1.07685E-04-4.18398E-05-2.82207E-05-9.68917E-06 2.76899E-19 5.81000E-19
 -1       888 1.02125E-04-3.68345E-05-2.79828E-05-1.06854E-05-3.36747E-19-4.13677E-19
 -1       889 9.83899E-05-3.28894E-05-2.80700E-05-1.03128E-05 1.84911E-19 4.43422E-19
 -1       890 9.60904E-05-3.00389E-05-2.83077E-05-9.38446E-06-2.95466E-19 1.42035E-18
 -1       891 9.48175E-05-2.80901E-05-2.85959E-05-8.24258E-06-1.91922E-19-5.26499E-19
 -1       892 9.40925E-05-2.68812E-05-2.88043E-05-7.31173E-06-1.03047E-18-1.51529E-18
 -1       893 6.72715E-05-2.11043E-05-1.96577E-05-2.03704E-05-3.32192E-19-3.03027E-18
 -1       894 9.32196E-05-1.97588E-05-3.14845E-05-1.19241E-06 1.36070E-19-1.17308E-18
 -1       895 9.53607E-05-2.83633E-05-2.87132E-05-1.34003E-06 6.73163E-19 3.27765E-19
 -1       896 9.55472E-05-2.85857E-05-2.86978E-05-1.25010E-06 7.49673E-19-8.96631E-21
 -1       897 9.48938E-05-2.77276E-05-2.87855E-05-1.72134E-06-2.07996E-19 3.13110E-19
 -1       898 9.45813E-05-2.73045E-05-2.88329E-05-2.04722E-06-5.43336E-20 6.39555E-19
 -1       899 9.41860E-05-2.67993E-05-2.88800E-05-2.48239E-06-7.90378E-20 5.59045E-19
 -1       900 9.36778E-05-2.62019E-05-2.89182E-05-3.03874E-06-7.35387E-19 3.66244E-19
 -1       901 9.30209E-05-2.55054E-05-2.89351E-05-3.72629E-06-9.58375E-19 1.16990E-18
 -1       902 9.21740E-05-2.47114E-05-2.89124E-05-4.55429E-06-9.93699E-19 1.50255E-18
 -1       903 9.10946E-05-2.38394E-05-2.88235E-05-5.53504E-06-4.77818E-19 1.08149E-18
 -1       904 8.97469E-05-2.29419E-05-2.86304E-05-6.69316E-06-1.09892E-18 1.73048E-18
 -1       905 8.81164E-05-2.21270E-05-2.82806E-05-8.08612E-06-6.56716E-19 1.38449E-18
 -1       906 8.62405E-05-2.15958E-05-2.77035E-05-9.84092E-06-2.98390E-19 1.32423E-18
 -1       907 8.42521E-05-2.16934E-05-2.68084E-05-1.22391E-05 4.24120E-19 1.27505E-18
 -1       908 8.27051E-05-2.30904E-05-2.55473E-05-1.56988E-05 3.18906E-19 5.39221E-19
 -1       909 8.22792E-05-2.66533E-05-2.37402E-05-2.09481E-05-2.56403E-19-6.64127E-19
 -1       910 8.44834E-05-3.29611E-05-2.19897E-05-2.62129E-05-9.62435E-19-3.35114E-18
 -1       911 8.82778E-05-2.22037E-05-2.83198E-05 9.33454E-06-4.99046E-19-8.30546E-19
 -1       912 8.43152E-05-2.23323E-05-2.65650E-05 1.37076E-05 5.40512E-19 2.10213E-19
 -1       913 9.00483E-05-2.27772E-05-2.88290E-05 7.88174E-06 6.60012E-19-7.99351E-19
 -1       914 8.80920E-05-2.24468E-05-2.81348E-05-4.47178E-06 1.59363E-18 2.37335E-18
 -1       915 9.58218E-05-2.56001E-05-3.00970E-05-1.17438E-06-3.76032E-19-7.18140E-19
 -1       916 5.89452E-05-1.35155E-05-1.93657E-05 6.26199E-06 4.86201E-19-4.52607E-19
 -1       917 1.02515E-04-4.42197E-05-2.49622E-05-2.28709E-05-5.08630E-19 1.93688E-18
 -1       918 8.63367E-05-2.19357E-05-2.76029E-05 1.11857E-05-1.40074E-18 9.70300E-19
 -1       919 9.16271E-05-2.34335E-05-2.92258E-05 6.77086E-06-1.00019E-19-7.65768E-19
 -1       920 9.60701E-05-2.69320E-05-2.96309E-05 3.81973E-07 6.58835E-19-7.37130E-19
 -1       921 9.51475E-05-2.80782E-05-2.87440E-05-1.49096E-06 5.58514E-19 1.88412E-19
 -1       922 9.60098E-05-2.88126E-05-2.87988E-05-1.10179E-06 2.14437E-19-2.64939E-19
 -1       923 8.27367E-05-2.41673E-05-2.50902E-05 1.74530E-05 8.11228E-19 6.73822E-19
 -1       924 8.34856E-05-2.80192E-05-2.37005E-05 2.19859E-05 3.00750E-19 2.81078E-18
 -1       925 1.22202E-04-4.75191E-05-3.19698E-05-2.15661E-06 6.10213E-19-6.88611E-19
 -1       926 9.62088E-05-2.69606E-05-2.96778E-05-2.69384E-07-3.22411E-19-6.16525E-19
 -1       927 9.52476E-05-2.42063E-05-3.04453E-05 2.27282E-06 6.95665E-19-6.31580E-19
 -1       928 1.06175E-04-4.51708E-05-2.61023E-05 1.88755E-05-2.75415E-19-2.27787E-18
 -1       929 6.50077E-05-1.44241E-05-2.16384E-05-4.72108E-06 1.93578E-19 6.93201E-19
 -1       930 9.18084E-05-2.52566E-05-2.85225E-05-6.97210E-06-7.41899E-20 1.18014E-18
 -1       931 9.47287E-05-2.26135E-05-3.09052E-05-1.20598E-06-7.99365E-20-9.27968E-19
 -1       932 8.44077E-05-3.19974E-05-2.23963E-05 2.47534E-05-9.87621E-19-1.38501E-18
 -1       933 9.61263E-05-2.86762E-05-2.89072E-05-9.78612E-07 6.52298E-20-3.55672E-19
 -1       934 9.58703E-05-2.88247E-05-2.87339E-05-1.16127E-06 5.20017E-19 1.12093E-19
 -1       935 9.57157E-05-2.87428E-05-2.87027E-05-1.19945E-06 3.58742E-19-1.87160E-19
 -1       936 9.57183E-05-2.55634E-05-3.00674E-05 1.42704E-06 5.28137E-19-5.90921E-19
 -1       937 6.68975E-05-1.78917E-05-2.09297E-05 1.43796E-05-6.29523E-19 5.93618E-20
 -1       938 8.65749E-05-2.11375E-05-2.80457E-05-1.62312E-06 1.30307E-18-1.62198E-18
 -1       939 9.47251E-05-2.26119E-05-3.09054E-05 1.23661E-06 4.72236E-19-1.00081E-18
 -1       940 9.62012E-05-2.78197E-05-2.93066E-05-3.09856E-07 5.67431E-19-5.03627E-19
 -1       941 9.45648E-05-2.22546E-05-3.09900E-05 4.23720E-07 3.78621E-19-1.29404E-18
 -1       942 1.14336E-04-4.91726E-05-2.79068E-05-1.32941E-05-7.16128E-19 2.55162E-18
 -1       943 9.54587E-05-2.50857E-05-3.01607E-05 2.10947E-06 7.96031E-19-5.63070E-19
 -1       944 6.27171E-05-1.59743E-05-1.99203E-05-1.09974E-05-3.95558E-21-2.83681E-18
 -1       945 6.23995E-05-1.50608E-05-2.01820E-05 8.90193E-06 1.65043E-18-1.86872E-18
 -1       946 8.75512E-05-2.12506E-05-2.84143E-05 5.37200E-06-3.78855E-19-5.62521E-18
 -1       947 8.98866E-05-2.38372E-05-2.83078E-05-6.04082E-06 2.00560E-18 4.55535E-18
 -1       948 9.48351E-05-2.29428E-05-3.08076E-05-1.84387E-06-2.93038E-19-9.67394E-19
 -1       949 9.66481E-05-2.85734E-05-2.91749E-05 5.96906E-07-1.63235E-19-3.25634E-19
 -1       950 9.65278E-05-2.88371E-05-2.90103E-05 7.37055E-07-1.88234E-20 5.74603E-20
 -1       951 9.63354E-05-2.89121E-05-2.88957E-05 8.14566E-07-2.38713E-19 5.46245E-20
 -1       952 9.60956E-05-2.88468E-05-2.88209E-05 8.63470E-07-7.68011E-21-3.16870E-20
 -1       953 9.58210E-05-2.86751E-05-2.87768E-05 9.11547E-07-2.40409E-19 2.86961E-23
 -1       954 9.55158E-05-2.84194E-05-2.87556E-05 9.81255E-07 8.43967E-20-1.39063E-19
 -1       955 9.51779E-05-2.80945E-05-2.87501E-05 1.09184E-06-2.91481E-22-3.17924E-19
 -1       956 9.48017E-05-2.77108E-05-2.87532E-05 1.26067E-06-1.51898E-19-4.83420E-19
 -1       957 9.43807E-05-2.72790E-05-2.87579E-05 1.50432E-06-2.40308E-19-9.73321E-19
 -1       958 9.39098E-05-2.68121E-05-2.87562E-05 1.83956E-06-1.15459E-19-1.87361E-18
 -1       959 9.33891E-05-2.63316E-05-2.87390E-05 2.28583E-06 7.68361E-19-1.69695E-18
 -1       960 9.28293E-05-2.58730E-05-2.86956E-05 2.86517E-06 6.26684E-19-1.12590E-18
 -1       961 9.22566E-05-2.54917E-05-2.86137E-05 3.60440E-06 3.66608E-20-3.37215E-19
 -1       962 9.17231E-05-2.52710E-05-2.84796E-05 4.53690E-06-5.38039E-20-4.70165E-19
 -1       963 9.13188E-05-2.53325E-05-2.82801E-05 5.70340E-06-9.73180E-20-6.24327E-19
 -1       964 9.11906E-05-2.58466E-05-2.80048E-05 7.14967E-06-6.76566E-19-1.71805E-19
 -1       965 9.15703E-05-2.70460E-05-2.76531E-05 8.91384E-06-5.69647E-19-4.10548E-19
 -1       966 9.27964E-05-2.92227E-05-2.72447E-05 1.09995E-05-3.32169E-20-5.08113E-19
 -1       967 9.55094E-05-3.28400E-05-2.68686E-05 1.32784E-05-9.91070E-19-1.04363E-18
 -1       968 1.00147E-04-3.80382E-05-2.65638E-05 1.53827E-05-3.29804E-19-1.77117E-18
 -1       969 9.97731E-05-3.75517E-05-2.66421E-05-1.56158E-05-8.94828E-19 8.95770E-19
 -1       970 9.56045E-05-3.26388E-05-2.69892E-05-1.35438E-05 1.08380E-19 2.44544E-19
 -1       971 9.34031E-05-2.93148E-05-2.74728E-05-1.12655E-05-8.50069E-20-2.22696E-19
 -1       972 9.24726E-05-2.71852E-05-2.79817E-05-9.26075E-06-1.25948E-18-8.22966E-19
 -1       973 9.19625E-05-2.60800E-05-2.82412E-05-8.09775E-06-7.59781E-19 2.89347E-19
 -1       974 9.59888E-05-2.57662E-05-3.00965E-05 8.59847E-07 5.51549E-19-6.76065E-19
 -1       975 9.38888E-05-2.66778E-05-2.88047E-05-1.84377E-06 2.20980E-19 1.12396E-19
 -1       976 9.44231E-05-2.72521E-05-2.87876E-05-1.55417E-06 2.53927E-19 4.30870E-19
 -1       977 9.23839E-05-2.52123E-05-2.87879E-05-2.65599E-06-9.20252E-19 8.35700E-19
 -1       978 9.13225E-05-2.43055E-05-2.87216E-05-3.17749E-06-6.57466E-19 4.52569E-20
 -1       979 8.99790E-05-2.32829E-05-2.85841E-05-3.77248E-06-9.49996E-19 3.56928E-19
 -1       980 8.82833E-05-2.21613E-05-2.83380E-05-4.44494E-06-9.62811E-19 1.04877E-19
 -1       981 8.61522E-05-2.09800E-05-2.79307E-05-5.21975E-06-1.09103E-18-9.53054E-19
 -1       982 8.34799E-05-1.98074E-05-2.72879E-05-6.17689E-06-6.71118E-19-2.84867E-20
 -1       983 8.01408E-05-1.87671E-05-2.63018E-05-7.48882E-06-2.79817E-19-3.95700E-19
 -1       984 7.61561E-05-1.80511E-05-2.48986E-05-9.57435E-06 1.43208E-19-1.51046E-19
 -1       985 7.25394E-05-1.95539E-05-2.26558E-05 1.52586E-05 2.87806E-18-2.24407E-19
 -1       986 9.62010E-05-2.83678E-05-2.90714E-05-7.37565E-07 2.84016E-19-5.16481E-19
 -1       987 9.49772E-05-2.32608E-05-3.07315E-05 1.89505E-06 5.52612E-19-7.66089E-19
 -1       988 8.62381E-05-2.06399E-05-2.81154E-05 1.76116E-06-1.63523E-19-2.31803E-18
 -1       989 7.91107E-05-2.57746E-05-2.28192E-05-1.94627E-05-3.96171E-19-4.23865E-18
 -1       990 9.45765E-05-2.22644E-05-3.09896E-05-4.21522E-07 2.39823E-19-1.15872E-18
 -1       991 9.61050E-05-2.59057E-05-3.00867E-05-6.20349E-07-1.56737E-19-5.26271E-19
 -1       992 7.73873E-05-1.91762E-05-2.49462E-05 1.13256E-05 1.25222E-18-3.42621E-19
 -1       993 9.09658E-05-3.29874E-05-2.48253E-05-1.95854E-05-3.83524E-19 8.85144E-19
 -1       994 9.32227E-05-2.60011E-05-2.88093E-05-2.21068E-06-8.67840E-19 5.19427E-19
 -1       995 9.55373E-05-2.84549E-05-2.87495E-05-1.08405E-06 5.36200E-19 2.88452E-19
 -1       996 9.66562E-05-2.80537E-05-2.94011E-05 3.52914E-07-2.23431E-19-3.42763E-19
 -1       997 9.64897E-05-2.71834E-05-2.97026E-05-3.77422E-08-2.33907E-19-1.34384E-19
 -1       998 7.74075E-05-2.41796E-05-2.27789E-05 1.85174E-05-9.72093E-19-9.49075E-19
 -1       999 9.63815E-05-2.70869E-05-2.96973E-05 1.19884E-07 4.26978E-19-6.60883E-19
 -1      1000 9.64356E-05-2.87955E-05-2.89885E-05-8.31024E-07-7.24014E-21-2.78671E-19
 -1      1001 9.58127E-05-2.86959E-05-2.87643E-05-1.02102E-06 3.14358E-19 1.43749E-19
 -1      1002 9.48595E-05-2.77351E-05-2.87676E-05-1.33708E-06 4.62661E-20 9.32948E-19
 -1      1003 9.62676E-05-2.88911E-05-2.88756E-05-9.23377E-07 1.12058E-19-2.80400E-19
 -1      1004 6.83709E-05-1.54303E-05-2.26424E-05 4.73427E-06-9.52637E-19-1.69689E-19
 -1      1005 8.51738E-05-2.13330E-05-2.73614E-05-4.42471E-06 2.65303E-18-1.22031E-19
 -1      1006 9.56217E-05-2.44426E-05-3.05050E-05 4.90031E-07 4.41531E-19-1.16529E-18
 -1      1007 7.32444E-05-2.03717E-05-2.26145E-05-1.40842E-05-1.09059E-19-2.50290E-18
 -1      1008 8.14254E-05-1.96141E-05-2.64917E-05 9.05147E-06 7.61668E-20-5.67049E-19
 -1      1009 9.60627E-05-2.54943E-05-3.02435E-05-4.22836E-07-1.41212E-20-3.87669E-19
 -1      1010 8.47072E-05-2.04088E-05-2.75593E-05 7.58519E-06 2.31535E-19-4.01490E-18
 -1      1011 6.48083E-05-1.46047E-05-2.14554E-05-9.95238E-08 3.98677E-19-1.23838E-18
 -1      1012 9.52241E-05-2.81344E-05-2.87527E-05-1.18438E-06 3.80991E-19 7.69275E-19
 -1      1013 8.74631E-05-2.30711E-05-2.75902E-05-6.64682E-06 1.39900E-18 2.92134E-18
 -1      1014 9.31949E-05-3.62624E-05-2.43542E-05 2.17468E-05-6.82321E-19-1.66641E-18
 -1      1015 9.38659E-05-2.67446E-05-2.87664E-05-1.17299E-06 8.82674E-20 9.56508E-19
 -1      1016 9.67245E-05-2.75046E-05-2.96657E-05 8.05258E-08-2.38343E-19-1.31883E-19
 -1      1017 9.66269E-05-2.89107E-05-2.90213E-05 4.98622E-07 5.38982E-20-9.28259E-20
 -1      1018 9.63794E-05-2.89159E-05-2.89129E-05 5.44046E-07-2.92101E-19-1.12749E-19
 -1      1019 9.60764E-05-2.87807E-05-2.88410E-05 5.80336E-07-1.71782E-19-4.26855E-19
 -1      1020 9.57287E-05-2.85364E-05-2.87968E-05 6.24507E-07 5.49758E-20 9.86542E-21
 -1      1021 9.53363E-05-2.82013E-05-2.87723E-05 6.91894E-07-1.08180E-20-5.09839E-19
 -1      1022 9.48948E-05-2.77891E-05-2.87596E-05 7.96465E-07-4.57018E-19-6.80719E-19
 -1      1023 9.43920E-05-2.73063E-05-2.87510E-05 9.53531E-07-8.92073E-19-1.41939E-18
 -1      1024 9.38201E-05-2.67665E-05-2.87374E-05 1.17762E-06-6.56971E-19-1.12118E-18
 -1      1025 9.31634E-05-2.61759E-05-2.87092E-05 1.49148E-06 2.88807E-19-6.31400E-19
 -1      1026 9.24191E-05-2.55599E-05-2.86542E-05 1.91949E-06 1.22999E-18-1.07772E-18
 -1      1027 9.15871E-05-2.49522E-05-2.85582E-05 2.49589E-06 9.72387E-19-9.04122E-19
 -1      1028 9.06828E-05-2.44077E-05-2.84041E-05 3.26764E-06 2.57734E-19-7.68663E-19
 -1      1029 8.97422E-05-2.40090E-05-2.81721E-05 4.29908E-06-3.82175E-19-6.04747E-19
 -1      1030 8.88346E-05-2.38765E-05-2.78404E-05 5.67824E-06-4.79329E-19-7.89543E-19
 -1      1031 8.80798E-05-2.41822E-05-2.73867E-05 7.52276E-06-4.00453E-19-6.46353E-19
 -1      1032 8.76957E-05-2.51860E-05-2.67931E-05 9.98919E-06-6.56870E-19-2.24915E-19
 -1      1033 8.81596E-05-2.72923E-05-2.60778E-05 1.32486E-05-8.31378E-19-1.08853E-18
 -1      1034 8.88093E-05-2.86783E-05-2.57700E-05-1.51622E-05-5.65558E-19 7.59549E-19
 -1      1035 8.84372E-05-2.61446E-05-2.66944E-05-1.14675E-05-4.03385E-19 5.90899E-19
 -1      1036 8.36635E-05-1.99441E-05-2.73099E-05-5.97036E-07 2.82807E-18-2.42376E-19
 -1      1037 9.60565E-05-2.88475E-05-2.88038E-05-9.75822E-07 3.45099E-19 1.44458E-19
 -1      1038 8.32251E-05-1.95312E-05-2.72955E-05 3.47493E-06 2.34960E-18-2.59775E-18
 -1      1039 8.97197E-05-2.32665E-05-2.84803E-05-2.05380E-06-8.59511E-19 3.79597E-19
 -1      1040 9.11137E-05-2.43103E-05-2.86304E-05-1.82162E-06-6.85445E-19 6.04721E-22
 -1      1041 8.57844E-05-2.08477E-05-2.78306E-05-2.41410E-06-2.65847E-19-5.07600E-19
 -1      1042 8.30189E-05-1.95104E-05-2.72172E-05-2.50847E-06-1.22760E-18-1.01574E-18
 -1      1043 7.94340E-05-1.80622E-05-2.62980E-05-2.58413E-06-7.01224E-19-8.44373E-19
 -1      1044 7.47452E-05-1.65603E-05-2.49412E-05-2.75603E-06-2.87710E-19-9.04112E-19
 -1      1045 9.64736E-05-2.66301E-05-2.99333E-05-1.39423E-07-5.87427E-23-3.84786E-19
 -1      1046 8.52593E-05-2.88147E-05-2.41796E-05 1.87725E-05-5.06852E-19-1.30981E-18
 -1      1047 7.37523E-05-1.88859E-05-2.34959E-05 1.07092E-05-1.03227E-18-7.05520E-19
 -1      1048 9.63754E-05-2.62192E-05-3.00673E-05 1.88504E-07 3.68448E-19-1.06436E-18
 -1      1049 9.65423E-05-2.85151E-05-2.91544E-05-6.61797E-07-8.23654E-21-2.55374E-19
 -1      1050 9.67962E-05-2.87197E-05-2.91757E-05 4.22694E-07-9.36051E-20-1.50880E-19
 -1      1051 8.79761E-05-2.21086E-05-2.82294E-05-2.25808E-06-6.39229E-19 3.22490E-20
 -1      1052 9.22322E-05-2.52358E-05-2.87130E-05-1.58532E-06-6.82764E-19 2.41948E-19
 -1      1053 9.65454E-05-2.79738E-05-2.93874E-05-3.61515E-07 4.94634E-19-5.13120E-19
 -1      1054 9.56013E-05-2.43366E-05-3.05439E-05 1.97868E-08 4.05673E-19-1.20242E-18
 -1      1055 7.08364E-05-1.62745E-05-2.33623E-05 6.40184E-06 1.59704E-18 8.16576E-19
 -1      1056 9.31337E-05-2.60451E-05-2.87524E-05-1.36457E-06-2.66392E-19 1.12168E-18
 -1      1057 9.68472E-05-2.82788E-05-2.93865E-05 2.93111E-07-2.82722E-19 4.65369E-21
 -1      1058 8.97892E-05-2.46456E-05-2.79192E-05-7.67336E-06-2.27026E-19 2.18289E-18
 -1      1059 9.53960E-05-2.82559E-05-2.87743E-05-8.14969E-07 1.63126E-19 9.16975E-19
 -1      1060 9.44664E-05-2.73409E-05-2.87681E-05-1.01664E-06 3.70661E-19 8.28864E-19
 -1      1061 9.57683E-05-2.85798E-05-2.87953E-05-7.59159E-07 1.46923E-19 6.49744E-19
 -1      1062 8.44867E-05-2.22608E-05-2.66653E-05-7.79118E-06 1.09515E-18-7.56012E-19
 -1      1063 7.55630E-05-1.72002E-05-2.50115E-05 2.67764E-06-1.09216E-18-8.10789E-19
 -1      1064 9.65975E-05-2.88855E-05-2.90194E-05-6.21968E-07 5.64620E-20-6.20367E-19
 -1      1065 8.12581E-05-1.97069E-05-2.63780E-05-3.73465E-06 1.52903E-18-1.72555E-18
 -1      1066 7.91418E-05-1.82232E-05-2.61100E-05 3.70526E-06 1.88127E-18-1.39026E-18
 -1      1067 9.67394E-05-2.86597E-05-2.91769E-05-5.09463E-07 1.87758E-19-5.81112E-19
 -1      1068 8.14605E-05-2.42426E-05-2.44984E-05-1.47559E-05-8.45370E-20-4.06607E-18
 -1      1069 7.12284E-05-1.69666E-05-2.32360E-05-5.92945E-06 1.45628E-18-1.63199E-18
 -1      1070 9.49685E-05-2.78436E-05-2.87678E-05-8.98872E-07 3.30371E-19 8.13195E-19
 -1      1071 7.53697E-05-1.72055E-05-2.49231E-05 4.70854E-06 2.56883E-18-1.86911E-19
 -1      1072 9.63047E-05-2.88671E-05-2.89018E-05 2.23300E-07-4.20563E-19 4.52004E-20
 -1      1073 9.59526E-05-2.86643E-05-2.88376E-05 2.42439E-07-3.53021E-19-3.46409E-19
 -1      1074 9.55430E-05-2.83466E-05-2.87983E-05 2.72329E-07-6.92524E-19-1.10854E-18
 -1      1075 9.50775E-05-2.79381E-05-2.87740E-05 3.19781E-07-7.34124E-19-1.65339E-18
 -1      1076 9.45491E-05-2.74481E-05-2.87574E-05 3.92518E-07-6.59609E-19-1.40788E-18
 -1      1077 9.39373E-05-2.68776E-05-2.87389E-05 5.11251E-07 1.70801E-19-2.95199E-20
 -1      1078 9.32115E-05-2.62240E-05-2.87085E-05 6.84244E-07 3.19175E-19 9.44118E-19
 -1      1079 9.23735E-05-2.55128E-05-2.86542E-05 9.33211E-07 4.20809E-19 9.68169E-19
 -1      1080 9.13952E-05-2.47521E-05-2.85607E-05 1.29469E-06 8.60017E-19 2.15837E-19
 -1      1081 9.02618E-05-2.39717E-05-2.84092E-05 1.81326E-06 4.46452E-19-6.94974E-19
 -1      1082 8.89634E-05-2.32164E-05-2.81762E-05 2.55292E-06 6.64785E-20-7.35955E-19
 -1      1083 8.74980E-05-2.25531E-05-2.78325E-05 3.60383E-06-4.85739E-19-2.75693E-19
 -1      1084 8.58798E-05-2.20836E-05-2.73420E-05 5.09483E-06-5.41603E-19 4.16734E-19
 -1      1085 8.41833E-05-2.19500E-05-2.66654E-05 7.15843E-06-8.20052E-19-6.72051E-20
 -1      1086 8.24299E-05-2.23713E-05-2.57433E-05 1.00395E-05-6.29602E-19-5.05230E-19
 -1      1087 9.63712E-05-2.89150E-05-2.89097E-05-6.78445E-07-1.97781E-19-3.39924E-19
 -1      1088 8.65079E-05-2.14349E-05-2.78898E-05-3.85555E-08-2.01655E-19-6.92230E-19
 -1      1089 7.24633E-05-1.64733E-05-2.39888E-05-6.66182E-08 1.34954E-18-1.08493E-18
 -1      1090 9.33097E-05-2.62713E-05-2.87309E-05-5.70887E-07 2.18383E-19 2.07304E-18
 -1      1091 9.00547E-05-2.36363E-05-2.84657E-05-5.46546E-07-7.27683E-19 7.61479E-19
 -1      1092 8.10040E-05-1.89808E-05-2.65859E-05 1.43169E-06-8.69959E-19-1.15846E-18
 -1      1093 8.40788E-05-2.02338E-05-2.73629E-05 5.49270E-07-7.23357E-20-8.84820E-19
 -1      1094 7.90589E-05-2.22669E-05-2.43279E-05 1.32509E-05-1.18436E-18-2.93403E-19
 -1      1095 9.67838E-05-2.74745E-05-2.97052E-05-5.24476E-08-4.02857E-20-9.10876E-19
 -1      1096 9.13570E-05-2.46120E-05-2.86055E-05-6.09498E-07-2.70587E-19 1.27457E-18
 -1      1097 7.75869E-05-2.00609E-05-2.46460E-05-9.22579E-06 1.92896E-18-2.31740E-18
 -1      1098 9.64095E-05-2.62321E-05-3.00759E-05-4.52265E-08 9.15127E-20-8.97868E-19
 -1      1099 9.66029E-05-2.89374E-05-2.89994E-05 2.05333E-07-8.33328E-21-4.99962E-20
 -1      1100 9.69391E-05-2.85117E-05-2.93264E-05 1.39476E-07-2.51474E-19 1.10329E-19
 -1      1101 9.68851E-05-2.78700E-05-2.95779E-05 7.26919E-08-1.57052E-21-3.21482E-19
 -1      1102 9.68277E-05-2.88368E-05-2.91385E-05 1.81305E-07-6.11830E-20 9.48102E-20
 -1      1103 8.84627E-05-2.25723E-05-2.82397E-05-3.76208E-07-1.68839E-19-2.33201E-19
 -1      1104 7.95241E-05-1.85028E-05-2.61539E-05-2.63085E-07 1.83908E-18 3.66392E-19
 -1      1105 9.24252E-05-2.54900E-05-2.86868E-05-6.09008E-07 6.83535E-20 1.64299E-18
 -1      1106 8.33736E-05-2.33798E-05-2.57091E-05-1.12773E-05 1.66143E-19-2.19612E-18
 -1      1107 9.56181E-05-2.84121E-05-2.88025E-05-4.14702E-07-1.01336E-19 1.67595E-19
 -1      1108 9.51678E-05-2.80158E-05-2.87795E-05-4.45195E-07-1.95898E-19 1.36247E-18
 -1      1109 9.60931E-05-2.88035E-05-2.88384E-05-7.18872E-07 6.16086E-20 1.14829E-19
 -1      1110 9.68362E-05-2.88071E-05-2.91553E-05-3.05181E-07 2.25604E-19-1.15289E-18
 -1      1111 9.40488E-05-2.69544E-05-2.87538E-05-5.29972E-07-1.15183E-20 1.95737E-18
 -1      1112 9.68533E-05-2.82239E-05-2.94131E-05-2.82529E-07 7.39873E-20-6.90266E-19
 -1      1113 7.92712E-05-1.96203E-05-2.55597E-05-6.12162E-06 6.53997E-19-2.06998E-18
 -1      1114 9.66306E-05-2.89338E-05-2.90130E-05-3.48882E-07-3.40427E-19-7.62305E-19
 -1      1115 8.04094E-05-1.99245E-05-2.59409E-05 6.22177E-06-1.29720E-18 6.64608E-19
 -1      1116 9.61422E-05-2.87776E-05-2.88705E-05-1.37289E-07-4.97822E-19-5.47883E-19
 -1      1117 9.42016E-05-2.71188E-05-2.87516E-05-1.20835E-07 5.53886E-20 1.94010E-18
 -1      1118 7.95703E-05-2.03777E-05-2.53649E-05 8.46034E-06-1.03511E-18-1.93958E-19
 -1      1119 9.66780E-05-2.70649E-05-2.98350E-05-1.63486E-08-8.86534E-21-5.08255E-19
 -1      1120 7.56949E-05-1.78762E-05-2.47793E-05-3.74268E-06 1.50676E-18-1.92711E-18
 -1      1121 9.64175E-05-2.89089E-05-2.89323E-05-2.55401E-07-5.67287E-19-9.10699E-19
 -1      1122 9.69498E-05-2.82361E-05-2.94489E-05-7.17144E-08 1.25346E-19-1.17334E-18
 -1      1123 9.46466E-05-2.75265E-05-2.87657E-05-4.85908E-07 5.68951E-19 2.03249E-18
 -1      1124 7.63687E-05-1.75557E-05-2.51955E-05-2.33000E-07 1.95069E-18-1.36949E-19
 -1      1125 9.68140E-05-2.75132E-05-2.96974E-05-8.28119E-09 6.32333E-20-1.03565E-18
 -1      1126 1.16832E-04 2.57497E-10-4.18463E-05-4.14655E-05-1.96088E-19 5.16987E-18
 -1      1127 8.86303E-05 7.18858E-11-3.72435E-05-2.41752E-05-1.03020E-19 2.05141E-19
 -1      1128 8.40639E-05 4.14201E-11-3.57619E-05-1.78901E-05-6.58568E-20-1.82009E-18
 -1      1129 8.23305E-05 3.20346E-11-3.50710E-05-1.38507E-05-3.77459E-20-2.73130E-18
 -1      1130 8.15374E-05 2.73485E-11-3.47398E-05-1.05450E-05-2.95667E-20-3.07531E-18
 -1      1131 8.11400E-05 2.46249E-11-3.45774E-05-7.65019E-06-7.94093E-21-3.15406E-18
 -1      1132 8.09362E-05 2.29758E-11-3.44963E-05-4.98667E-06-3.37821E-21-3.15148E-18
 -1      1133 8.08376E-05 2.20846E-11-3.44584E-05-2.43577E-06 5.99375E-21-3.06222E-18
 -1      1134 8.08097E-05 2.18151E-11-3.44478E-05 5.24284E-08 1.07484E-20-2.99367E-18
 -1      1135 8.08420E-05 2.21289E-11-3.44599E-05 2.54316E-06 2.20328E-20-2.87182E-18
 -1      1136 8.09453E-05 2.30764E-11-3.44993E-05 5.10243E-06 2.82069E-20-2.69853E-18
 -1      1137 8.11558E-05 2.47877E-11-3.45818E-05 7.78237E-06 4.08826E-20-2.37730E-18
 -1      1138 8.15577E-05 2.76527E-11-3.47463E-05 1.07052E-05 4.45089E-20-1.86267E-18
 -1      1139 8.23541E-05 3.24999E-11-3.50810E-05 1.40554E-05 6.13834E-20-1.10337E-18
 -1      1140 8.40613E-05 4.19089E-11-3.57817E-05 1.81411E-05 8.48621E-20 2.43813E-19
 -1      1141 8.83287E-05 6.67065E-11-3.73136E-05 2.40186E-05 8.13152E-20 2.79775E-18
 -1      1142 1.06596E-04 1.63860E-10-4.06249E-05 3.61940E-05 1.46960E-19 7.70260E-18
 -1      1143 1.30194E-04-2.57496E-05-4.02641E-05-2.61058E-05-7.84882E-19 8.25518E-18
 -1      1144 9.74208E-05-2.88517E-05-3.15665E-05-6.81670E-07-2.29387E-19 6.50966E-18
 -1      1145 9.01136E-05-2.70128E-05-2.78794E-05 3.86630E-07-9.44442E-20 3.87741E-18
 -1      1146 8.81944E-05-2.65560E-05-2.66272E-05 2.50475E-07-2.80480E-20 2.19352E-18
 -1      1147 8.78274E-05-2.64268E-05-2.63682E-05 1.65349E-07-1.33209E-20 9.75385E-19
 -1      1148 8.81774E-05-2.65007E-05-2.64505E-05 1.17359E-07-1.20222E-20 5.19390E-19
 -1      1149 8.88548E-05-2.66826E-05-2.66506E-05 8.65915E-08-4.08441E-20-1.11901E-19
 -1      1150 8.96619E-05-2.69123E-05-2.68910E-05 6.51848E-08-2.20650E-22-7.27204E-19
 -1      1151 9.04907E-05-2.71539E-05-2.71383E-05 4.92987E-08-3.67367E-20-1.18011E-18
 -1      1152 9.12823E-05-2.73874E-05-2.73753E-05 3.70465E-08-2.30161E-20-1.71050E-18
 -1      1153 9.20079E-05-2.76030E-05-2.75934E-05 2.74453E-08 1.53742E-21-2.09748E-18
 -1      1154 9.26592E-05-2.77975E-05-2.77900E-05 1.99395E-08 2.54825E-20-2.21869E-18
 -1      1155 9.32416E-05-2.79722E-05-2.79666E-05 1.41925E-08 7.08584E-21-2.65833E-18
 -1      1156 9.37710E-05-2.81316E-05-2.81277E-05 1.00028E-08-2.98336E-20-2.18647E-18
 -1      1157 9.42707E-05-2.82825E-05-2.82804E-05 7.27017E-09-2.24986E-20-1.20482E-18
 -1      1158 9.47702E-05-2.84337E-05-2.84333E-05 5.98385E-09-6.10982E-20-1.76049E-18
 -1      1159 9.53042E-05-2.85954E-05-2.85970E-05 6.21778E-09 2.04893E-21-2.41382E-18
 -1      1160 9.59112E-05-2.87792E-05-2.87828E-05 8.12234E-09-2.08263E-21-2.24683E-18
 -1      1161 9.66324E-05-2.89971E-05-2.90029E-05 1.19030E-08-2.93966E-20-2.81487E-18
 -1      1162 9.75091E-05-2.92613E-05-2.92695E-05 1.77700E-08-6.46657E-20-2.91633E-18
 -1      1163 9.85777E-05-2.95824E-05-2.95927E-05 2.58375E-08-1.27817E-19-3.88528E-18
 -1      1164 9.98630E-05-2.99673E-05-2.99790E-05 3.59364E-08 1.34370E-19-2.66159E-18
 -1      1165 1.01365E-04-3.04156E-05-3.04267E-05 4.73018E-08 2.62301E-19-3.46714E-19
 -1      1166 1.03044E-04-3.09143E-05-3.09216E-05 5.80966E-08-1.80479E-19-2.29634E-18
 -1      1167 1.04793E-04-3.14315E-05-3.14292E-05 6.47912E-08-4.19745E-20-2.85604E-18
 -1      1168 1.06419E-04-3.19085E-05-3.18889E-05 6.15702E-08 6.53084E-20-1.31354E-18
 -1      1169 1.07617E-04-3.22547E-05-3.22093E-05 4.02755E-08 7.82496E-20-6.89604E-19
 -1      1170 1.07978E-04-3.23494E-05-3.22728E-05-8.12609E-09 1.62824E-19-1.67505E-18
 -1      1171 1.07045E-04-3.20595E-05-3.19557E-05-8.90778E-08-7.31029E-20-2.23511E-18
 -1      1172 1.04452E-04-3.12813E-05-3.11706E-05-1.96580E-07 3.92103E-19-9.69641E-19
 -1      1173 1.00149E-04-3.00062E-05-2.99262E-05-3.04947E-07-1.62134E-19-4.57451E-19
 -1      1174 9.46362E-05-2.83867E-05-2.83814E-05-3.68534E-07-1.24517E-20-2.27667E-18
 -1      1175 8.90468E-05-2.67563E-05-2.68517E-05-3.38904E-07 3.25980E-19-2.04776E-18
 -1      1176 8.48953E-05-2.55515E-05-2.57335E-05-1.97697E-07-2.42043E-19-1.11054E-18
 -1      1177 8.34875E-05-2.51435E-05-2.53561E-05 1.77545E-08 4.75463E-20-2.64638E-18
 -1      1178 8.52829E-05-2.56621E-05-2.58330E-05 2.26096E-07 3.69981E-20-1.59242E-18
 -1      1179 8.96468E-05-2.69277E-05-2.70061E-05 3.50124E-07 1.27632E-19-2.80156E-18
 -1      1180 9.51818E-05-2.85424E-05-2.85211E-05 3.61416E-07-4.93355E-20-2.38159E-18
 -1      1181 1.00388E-04-3.00725E-05-2.99824E-05 2.85416E-07 1.36668E-19-1.77199E-18
 -1      1182 1.04217E-04-3.12081E-05-3.10935E-05 1.72327E-07-7.72454E-20-1.47198E-18
 -1      1183 1.06261E-04-3.18234E-05-3.17197E-05 6.52823E-08-1.03106E-19-3.71806E-18
 -1      1184 1.06632E-04-3.19460E-05-3.18705E-05-1.36737E-08 2.27538E-19-3.19539E-18
 -1      1185 1.05725E-04-3.16884E-05-3.16434E-05-6.09709E-08-5.67429E-20-5.44797E-18
 -1      1186 1.04005E-04-3.11867E-05-3.11666E-05-8.28019E-08-1.47646E-19-3.57713E-18
 -1      1187 1.01890E-04-3.05644E-05-3.05625E-05-8.75657E-08 1.83011E-19-1.98772E-18
 -1      1188 9.97124E-05-2.99207E-05-2.99332E-05-8.14213E-08 4.57539E-19 2.36432E-18
 -1      1189 9.77334E-05-2.93338E-05-2.93613E-05-6.60914E-08 1.94480E-19 4.46881E-18
 -1      1190 9.61802E-05-2.88725E-05-2.89144E-05-3.61905E-08-9.09336E-20 2.34869E-18
 -1      1191 9.52935E-05-2.86236E-05-2.86355E-05 2.37962E-08-1.93576E-19-1.48461E-18
 -1      1192 9.51150E-05-2.85304E-05-2.84877E-05 4.27296E-08 3.94639E-19 3.89427E-19
 -1      1193 1.31027E-04-3.77309E-05-3.86495E-05 1.21741E-05-1.42010E-19 1.16615E-17
 -1      1194 9.65215E-05-2.81782E-05-3.13189E-05 8.01863E-07 4.68250E-20 9.87333E-18
 -1      1195 9.03279E-05-2.69154E-05-2.78603E-05 1.20416E-07 5.17087E-20 7.94152E-18
 -1      1196 8.82809E-05-2.64832E-05-2.66635E-05 9.26605E-09 7.38375E-20 6.23424E-18
 -1      1197 8.78671E-05-2.63890E-05-2.63951E-05-2.49322E-08-8.84918E-21 5.43689E-18
 -1      1198 8.81982E-05-2.64830E-05-2.64658E-05-3.37985E-08 1.05224E-19 4.73274E-18
 -1      1199 8.88661E-05-2.66751E-05-2.66602E-05-3.47394E-08-4.83996E-20 4.70602E-18
 -1      1200 8.96674E-05-2.69100E-05-2.68974E-05-3.26967E-08-7.56415E-21 4.97081E-18
 -1      1201 9.04917E-05-2.71540E-05-2.71424E-05-2.92184E-08 3.07728E-20 3.83713E-18
 -1      1202 9.12792E-05-2.73883E-05-2.73773E-05-2.49879E-08 2.33217E-20 3.43992E-18
 -1      1203 9.20005E-05-2.76036E-05-2.75935E-05-2.03945E-08 6.90865E-20 3.05210E-18
 -1      1204 9.26469E-05-2.77969E-05-2.77880E-05-1.56733E-08 9.49761E-21 3.44953E-18
 -1      1205 9.32238E-05-2.79700E-05-2.79624E-05-1.09540E-08 4.57446E-20 3.30248E-18
 -1      1206 9.37474E-05-2.81274E-05-2.81214E-05-6.29223E-09 7.95386E-23 1.81576E-18
 -1      1207 9.42424E-05-2.82766E-05-2.82725E-05-1.69339E-09 3.20041E-21 6.03412E-19
 -1      1208 9.47412E-05-2.84275E-05-2.84254E-05 2.86328E-09 1.21529E-19-3.66109E-19
 -1      1209 9.52844E-05-2.85921E-05-2.85925E-05 7.39873E-09-9.73130E-20-6.14235E-19
 -1      1210 9.59217E-05-2.87855E-05-2.87888E-05 1.18982E-08-7.67907E-20 2.25617E-19
 -1      1211 9.67136E-05-2.90257E-05-2.90330E-05 1.62546E-08-1.40930E-19 1.27575E-18
 -1      1212 9.77339E-05-2.93351E-05-2.93474E-05 2.01727E-08-1.10570E-19 7.77623E-19
 -1      1213 9.90723E-05-2.97403E-05-2.97595E-05 2.30034E-08-9.75147E-20 3.28715E-19
 -1      1214 1.00836E-04-3.02730E-05-3.03016E-05 2.34671E-08-5.46220E-20 7.70787E-19
 -1      1215 1.03148E-04-3.09693E-05-3.10104E-05 1.92185E-08 3.36828E-21-2.77522E-19
 -1      1216 1.06138E-04-3.18664E-05-3.19232E-05 6.25155E-09 2.47175E-19-1.11901E-18
 -1      1217 1.09920E-04-3.29954E-05-3.30687E-05-2.16590E-08 1.87621E-20-2.17018E-18
 -1      1218 1.14533E-04-3.43639E-05-3.44476E-05-7.27045E-08 1.39652E-19-2.04217E-18
 -1      1219 1.19834E-04-3.59252E-05-3.59962E-05-1.53901E-07-1.85681E-19-1.86440E-18
 -1      1220 1.25321E-04-3.75280E-05-3.75329E-05-2.60994E-07-9.89325E-20-1.32153E-18
 -1      1221 1.29889E-04-3.88534E-05-3.87032E-05-3.57746E-07-2.16913E-19-7.59339E-19
 -1      1222 1.31687E-04-3.93780E-05-3.89784E-05-3.52430E-07 1.86658E-19-1.28352E-19
 -1      1223 1.28421E-04-3.84588E-05-3.78096E-05-1.11292E-07-3.96861E-19-2.20546E-19
 -1      1224 1.18635E-04-3.56672E-05-3.50098E-05 4.20885E-07-1.13026E-20 5.07796E-19
 -1      1225 1.03927E-04-3.13787E-05-3.12156E-05 1.02140E-06 4.20663E-20 5.83606E-19
 -1      1226 9.01986E-05-2.72015E-05-2.79288E-05 1.20575E-06-1.64258E-19 1.06366E-18
 -1      1227 8.50133E-05-2.54257E-05-2.67789E-05 6.74877E-07 1.44393E-19 6.59098E-21
 -1      1228 9.16108E-05-2.72595E-05-2.83927E-05-2.47450E-07-8.71253E-20-2.73676E-18
 -1      1229 1.05851E-04-3.15862E-05-3.18920E-05-9.09639E-07 2.71378E-19-3.66511E-18
 -1      1230 1.20003E-04-3.59765E-05-3.55466E-05-9.94640E-07 1.00969E-19-4.77324E-18
 -1      1231 1.28659E-04-3.86640E-05-3.79807E-05-6.91144E-07 1.51387E-19-4.54041E-18
 -1      1232 1.30810E-04-3.93166E-05-3.87662E-05-3.11271E-07 1.10286E-19-5.19512E-18
 -1      1233 1.28173E-04-3.84964E-05-3.81929E-05-3.23866E-08-1.41928E-19-4.35206E-18
 -1      1234 1.23027E-04-3.69246E-05-3.68196E-05 1.15771E-07-2.68881E-19 9.78323E-20
 -1      1235 1.17115E-04-3.51357E-05-3.51432E-05 1.69783E-07-3.56653E-19 1.81985E-18
 -1      1236 1.11438E-04-3.34284E-05-3.34824E-05 1.73746E-07 2.85836E-19 2.15983E-18
 -1      1237 1.06449E-04-3.19338E-05-3.19987E-05 1.58350E-07-2.00916E-19 5.66242E-19
 -1      1238 1.02298E-04-3.06932E-05-3.07570E-05 1.40013E-07 6.69552E-19-2.18184E-18
 -1      1239 9.90181E-05-2.97149E-05-2.97805E-05 1.24600E-07 1.15971E-21-4.14380E-18
 -1      1240 9.66513E-05-2.90102E-05-2.90838E-05 1.05266E-07-5.27013E-20-2.91690E-18
 -1      1241 9.53233E-05-2.86112E-05-2.86708E-05 5.02794E-08 4.59300E-19-4.43176E-18
 -1      1242 9.50864E-05-2.85262E-05-2.84575E-05-5.32923E-08-2.39455E-19-3.48127E-18
 -1      1243 9.52863E-05-2.87257E-05-2.84621E-05-4.93675E-08-3.96222E-18 4.34419E-20
 -1      1244 9.51719E-05-2.84421E-05-2.86810E-05-2.57946E-08 1.28337E-19 3.96086E-19
 -1      1245 9.47934E-05-2.71438E-05-2.90708E-05 6.95931E-08 7.72030E-18 8.63538E-19
 -1      1246 9.41967E-05-2.51123E-05-2.96359E-05 1.05345E-07 8.36280E-18-6.18447E-19
 -1      1247 9.35306E-05-2.28464E-05-3.02713E-05 1.06255E-07 3.40469E-18-7.21008E-19
 -1      1248 9.29292E-05-2.08014E-05-3.08520E-05 8.51508E-08-3.99073E-18-8.70196E-19
 -1      1249 9.24827E-05-1.92862E-05-3.12878E-05 5.41857E-08-7.19535E-18 6.15053E-19
 -1      1250 9.22477E-05-1.84918E-05-3.15199E-05 1.66626E-08-6.77985E-18 4.84159E-19
 -1      1251 9.22497E-05-1.85047E-05-3.15214E-05-1.94019E-08-4.48977E-18 1.10182E-18
 -1      1252 9.24738E-05-1.92717E-05-3.13053E-05-4.93034E-08-6.65045E-18-2.62349E-19
 -1      1253 9.28765E-05-2.06447E-05-3.09130E-05-7.01059E-08-1.43065E-18-7.91568E-19
 -1      1254 9.33934E-05-2.23983E-05-3.04094E-05-8.06199E-08-8.99541E-18-5.68798E-19
 -1      1255 9.39559E-05-2.43072E-05-2.98602E-05-8.06010E-08-1.06330E-17-3.38822E-19
 -1      1256 9.44989E-05-2.61440E-05-2.93353E-05-6.97500E-08-7.42043E-18 1.09917E-18
 -1      1257 9.49482E-05-2.76544E-05-2.89099E-05-4.88147E-08-3.70823E-18 5.09331E-19
 -1      1258 9.51718E-05-2.84796E-05-2.86374E-05 5.26612E-08-2.64567E-18-1.25000E-18
 -1      1259 9.52790E-05-2.86949E-05-2.84887E-05 4.11294E-08-9.40670E-19 1.10569E-18
 -1      1260 3.44414E-05-1.09071E-04 1.85903E-05-1.50194E-05-9.74342E-18-1.07142E-18
 -1      1261 1.80377E-05-6.90140E-05 1.03434E-05-2.76185E-05-4.66461E-18-8.96161E-19
 -1      1262 8.46264E-06-1.25498E-05-5.40505E-06-1.95366E-06 2.64613E-18 2.24464E-18
 -1      1263 3.56442E-05 2.17013E-05-2.60557E-05 5.17361E-05 6.47303E-18 6.27821E-18
 -1      1264 1.14620E-04 9.54439E-06-4.79732E-05 1.01873E-04 7.49370E-18 1.00475E-17
 -1      1265 2.20492E-04-3.88294E-05-6.63601E-05 1.09447E-04 3.16748E-18 8.16709E-18
 -1      1266 3.00753E-04-8.42895E-05-7.74932E-05 5.91530E-05 1.15943E-18 8.20267E-18
 -1      1267 3.19391E-04-9.64352E-05-7.96115E-05-2.50097E-05 3.72006E-19 1.86432E-18
 -1      1268 2.59175E-04-6.07567E-05-7.18688E-05-9.46976E-05 1.81773E-18-4.16147E-18
 -1      1269 1.57159E-04-7.74102E-06-5.61429E-05-1.10873E-04 4.84503E-18-8.21961E-18
 -1      1270 6.50518E-05 2.30103E-05-3.60399E-05-7.77418E-05 5.92754E-18-7.68598E-18
 -1      1271 1.48511E-05 1.03868E-05-1.53736E-05-2.21281E-05 4.96700E-18-4.46979E-18
 -1      1272 9.72737E-06-3.91247E-05 3.18797E-06 1.97069E-05 6.69495E-18-3.08235E-18
 -1      1273 2.70702E-05-9.21252E-05 1.53732E-05 2.60569E-05 8.00954E-18-1.90275E-18
 -1      1274 3.75565E-05-1.14553E-04 1.95738E-05 3.72409E-06 6.12765E-18-2.73803E-19
 -1      1275 2.93168E-05-9.55097E-05 1.59653E-05-2.05120E-05 2.45978E-18 4.40457E-20
 -1      1276 1.15363E-05-4.30753E-05 4.32109E-06-1.84786E-05-1.25615E-18-1.60852E-18
 -1      1277 1.28035E-05 9.02716E-06-1.36947E-05 1.99807E-05-4.48927E-18-2.85450E-18
 -1      1278 5.49255E-05 2.70182E-05-3.36779E-05 7.40507E-05-4.84333E-18-6.16809E-18
 -1      1279 1.36651E-04 2.11888E-06-5.24106E-05 1.09877E-04-5.29226E-18-8.12135E-18
 -1      1280 2.31058E-04-4.62643E-05-6.77153E-05 1.00678E-04-3.11369E-18-7.38189E-18
 -1      1281 2.97499E-04-8.63454E-05-7.64251E-05 4.73018E-05-9.11857E-19-4.40330E-18
 -1      1282 3.05760E-04-9.15484E-05-7.75212E-05-2.67169E-05-1.39866E-19-9.99711E-19
 -1      1283 2.57906E-04-6.21712E-05-7.13804E-05-8.90800E-05 6.46921E-19-1.32899E-18
 -1      1284 1.70161E-04-1.35282E-05-5.84186E-05-1.12340E-04 9.61382E-20-1.11808E-18
 -1      1285 8.24792E-05 2.19903E-05-4.09510E-05-9.11342E-05-1.33408E-18 2.16840E-18
 -1      1286 2.41356E-05 2.19408E-05-2.15006E-05-4.11723E-05 2.36661E-18-1.77369E-18
 -1      1287 7.26458E-06-1.68158E-05-2.92340E-06 6.79155E-06 5.76491E-18-3.68713E-18
 -1      1288 1.93311E-05-7.02679E-05 1.08692E-05 2.51248E-05 1.32984E-19-4.94032E-19
 -1      1289 3.51275E-05-1.09041E-04 1.84480E-05 1.24885E-05-8.40977E-18 3.11602E-19
 -1      1290 1.04416E-04-2.20127E-05-3.78830E-05-1.72787E-05-3.10438E-19 3.99800E-18
 -1      1291 9.02989E-05-6.67806E-06-3.60100E-05-2.04804E-05-7.62594E-19-7.52006E-19
 -1      1292 9.26322E-05-6.73638E-06-3.72139E-05-2.57668E-05-9.88276E-19 2.99479E-19
 -1      1293 8.58885E-05-4.09144E-06-3.51256E-05-1.64446E-05-6.75244E-19-2.20583E-18
 -1      1294 8.71381E-05-4.08647E-06-3.55937E-05-1.88631E-05-7.91446E-19-1.57829E-18
 -1      1295 9.21138E-05-1.04588E-05-3.50871E-05-1.90422E-05-1.28953E-18-6.54809E-19
 -1      1296 8.40977E-05-3.19223E-06-3.46857E-05-1.28317E-05-4.96917E-19-2.89894E-18
 -1      1297 8.47000E-05-3.16091E-06-3.49082E-05-1.46476E-05-5.91785E-19-2.60293E-18
 -1      1298 8.78573E-05-7.38995E-06-3.45704E-05-1.54285E-05-1.04005E-18-1.85130E-18
 -1      1299 8.31920E-05-2.72885E-06-3.44718E-05-9.69663E-06-3.69975E-19-3.14260E-18
 -1      1300 8.35041E-05-2.71228E-06-3.45798E-05-1.12448E-05-4.26402E-19-3.05639E-18
 -1      1301 8.58690E-05-5.98640E-06-3.43043E-05-1.19675E-05-7.65016E-19-2.44345E-18
 -1      1302 8.27058E-05-2.45895E-06-3.43681E-05-6.92411E-06-1.67613E-19-3.14806E-18
 -1      1303 8.28723E-05-2.45041E-06-3.44213E-05-8.29605E-06-2.59238E-19-3.11997E-18
 -1      1304 8.48288E-05-5.21904E-06-3.41752E-05-8.95345E-06-5.22626E-19-2.63096E-18
 -1      1305 8.24355E-05-2.29420E-06-3.43171E-05-4.30113E-06-3.50228E-20-3.12260E-18
 -1      1306 8.25244E-05-2.29021E-06-3.43435E-05-5.60390E-06-6.22702E-20-3.16088E-18
 -1      1307 8.42498E-05-4.76517E-06-3.41143E-05-6.22451E-06-1.96743E-19-2.66215E-18
 -1      1308 8.23058E-05-2.20512E-06-3.42959E-05-1.79275E-06 1.23367E-19-3.05338E-18
 -1      1309 8.23437E-05-2.20353E-06-3.43065E-05-3.04551E-06 7.72239E-20-3.08477E-18
 -1      1310 8.39321E-05-4.50239E-06-3.40870E-05-3.64956E-06 2.69206E-20-2.58689E-18
 -1      1311 8.22804E-05-2.17769E-06-3.42934E-05 6.70657E-07 2.50646E-19-2.97946E-18
 -1      1312 8.22790E-05-2.17773E-06-3.42931E-05-5.66999E-07 2.30558E-19-3.02371E-18
 -1      1313 8.37930E-05-4.38310E-06-3.40769E-05-1.17224E-06 2.99714E-19-2.52057E-18
 -1      1314 8.23524E-05-2.20786E-06-3.43081E-05 3.15281E-06 3.62748E-19-2.86820E-18
 -1      1315 8.23116E-05-2.20950E-06-3.42967E-05 1.89744E-06 3.29707E-19-2.94531E-18
 -1      1316 8.37980E-05-4.38732E-06-3.40773E-05 1.27532E-06 4.83988E-19-2.49636E-18
 -1      1317 8.25419E-05-2.30061E-06-3.43462E-05 5.72040E-06 4.56230E-19-2.66121E-18
 -1      1318 8.24494E-05-2.30401E-06-3.43191E-05 4.41167E-06 4.32017E-19-2.78441E-18
 -1      1319 8.39478E-05-4.51596E-06-3.40881E-05 3.75691E-06 6.64390E-19-2.35110E-18
 -1      1320 8.28958E-05-2.46580E-06-3.44243E-05 8.40481E-06 5.98409E-19-2.30973E-18
 -1      1321 8.27260E-05-2.47453E-06-3.43705E-05 7.02384E-06 5.55551E-19-2.51602E-18
 -1      1322 8.42758E-05-4.78837E-06-3.41155E-05 6.31828E-06 8.20964E-19-2.09728E-18
 -1      1323 8.35463E-05-2.74227E-06-3.45849E-05 1.14069E-05 7.89779E-19-1.77535E-18
 -1      1324 8.32288E-05-2.75944E-06-3.44756E-05 9.84120E-06 6.92827E-19-2.08420E-18
 -1      1325 8.48720E-05-5.26036E-06-3.41763E-05 9.06365E-06 1.05968E-18-1.72448E-18
 -1      1326 8.47585E-05-3.20324E-06-3.49163E-05 1.48561E-05 9.52991E-19-9.40233E-19
 -1      1327 8.41505E-05-3.24010E-06-3.46913E-05 1.30158E-05 8.59580E-19-1.43749E-18
 -1      1328 8.59466E-05-6.06371E-06-3.43062E-05 1.21336E-05 1.33768E-18-1.16504E-18
 -1      1329 8.72397E-05-4.08871E-06-3.56149E-05 1.91022E-05 1.01411E-18 5.74474E-19
 -1      1330 8.59607E-05-4.15279E-06-3.51332E-05 1.67051E-05 9.18131E-19-3.28014E-19
 -1      1331 8.79818E-05-7.51581E-06-3.45723E-05 1.56616E-05 1.49646E-18-1.84918E-19
 -1      1332 9.34449E-05-6.78854E-06-3.71093E-05 2.51037E-05 8.30516E-19 3.21682E-18
 -1      1333 9.01144E-05-6.43453E-06-3.60326E-05 2.11586E-05 8.23951E-19 1.60793E-18
 -1      1334 9.23440E-05-1.06941E-05-3.50722E-05 1.96863E-05 1.49438E-18 1.43667E-18
 -1      1335 1.23600E-04-2.49172E-05-3.90065E-05 2.83688E-05 3.43048E-19 7.98837E-18
 -1      1336 1.00057E-04-1.44185E-05-3.73462E-05 2.40559E-05 3.74071E-19 4.71268E-18
 -1      1337 1.01655E-04-1.93356E-05-3.53949E-05 2.14062E-05 1.31532E-18 3.78370E-18
 -1      1338 1.02576E-04-2.77965E-05-3.47492E-05 7.33331E-06 6.39510E-19 7.80287E-18
 -1      1339 1.05119E-04-3.02220E-05-3.35166E-05-7.96445E-06-8.06905E-19 4.29340E-18
 -1      1340 9.82282E-05-2.78330E-05-3.07524E-05-4.99286E-06-7.32895E-19 3.38273E-18
 -1      1341 9.54679E-05-2.78385E-05-2.92441E-05-2.49361E-06-6.16375E-19 3.01585E-18
 -1      1342 9.32321E-05-2.75466E-05-2.82037E-05-2.04669E-06-5.99567E-19 2.10355E-18
 -1      1343 9.94552E-05-2.80425E-05-3.09740E-05-7.89494E-06-1.34424E-18 1.60597E-18
 -1      1344 9.15403E-05-2.71883E-05-2.75686E-05-8.41753E-07-4.90128E-19 1.84341E-18
 -1      1345 9.08202E-05-2.70919E-05-2.72652E-05-7.31635E-07-3.86882E-19 1.10617E-18
 -1      1346 9.46844E-05-2.77598E-05-2.88062E-05-3.12752E-06-1.06416E-18 1.11700E-18
 -1      1347 9.00679E-05-2.69085E-05-2.70214E-05-1.77630E-07-2.67666E-19 7.09364E-19
 -1      1348 8.99916E-05-2.69340E-05-2.69855E-05-1.19626E-07-2.55394E-19 2.96792E-19
 -1      1349 9.24811E-05-2.74884E-05-2.78841E-05-1.06025E-06-7.28415E-19 4.09223E-19
 -1      1350 8.97304E-05-2.68660E-05-2.69107E-05 1.50701E-07-1.38121E-19 1.05164E-19
 -1      1351 8.99412E-05-2.69549E-05-2.69713E-05 1.79397E-07-1.89100E-19-1.05125E-19
 -1      1352 9.15188E-05-2.73434E-05-2.75162E-05-7.70139E-08-4.23788E-19-1.89610E-19
 -1      1353 8.99439E-05-2.69577E-05-2.69775E-05 3.11049E-07-2.11275E-19-3.34168E-19
 -1      1354 9.02830E-05-2.70761E-05-2.70757E-05 3.22916E-07-1.90091E-19-5.48633E-19
 -1      1355 9.12630E-05-2.73303E-05-2.74076E-05 4.11052E-07-3.85608E-19-5.93810E-19
 -1      1356 9.04251E-05-2.71179E-05-2.71229E-05 3.78777E-07-8.46169E-20-5.67188E-19
 -1      1357 9.08108E-05-2.72453E-05-2.72344E-05 3.80799E-07-6.02717E-20-7.69701E-19
 -1      1358 9.13950E-05-2.74034E-05-2.74298E-05 6.41554E-07-2.67076E-19-6.85185E-19
 -1      1359 9.10214E-05-2.73062E-05-2.73016E-05 3.93810E-07-7.93468E-20-9.43049E-19
 -1      1360 9.14092E-05-2.74307E-05-2.74141E-05 3.90252E-07-1.52299E-19-1.12364E-18
 -1      1361 9.17303E-05-2.75225E-05-2.75198E-05 7.28560E-07-2.66322E-19-8.42790E-19
 -1      1362 9.16468E-05-2.74991E-05-2.74890E-05 3.79768E-07-2.46652E-19-1.01723E-18
 -1      1363 9.20133E-05-2.76145E-05-2.75958E-05 3.73440E-07-2.28305E-19-1.21641E-18
 -1      1364 9.21607E-05-2.76613E-05-2.76429E-05 7.34828E-07-3.26515E-19-7.84314E-19
 -1      1365 9.22545E-05-2.76837E-05-2.76715E-05 3.51792E-07-2.31247E-19-1.30348E-18
 -1      1366 9.25894E-05-2.77876E-05-2.77695E-05 3.44622E-07-1.12012E-19-1.49355E-18
 -1      1367 9.26229E-05-2.78040E-05-2.77788E-05 6.98602E-07-3.50526E-19-6.81478E-19
 -1      1368 9.28227E-05-2.78544E-05-2.78425E-05 3.20107E-07-8.06746E-20-1.76626E-18
 -1      1369 9.31244E-05-2.79468E-05-2.79313E-05 3.13458E-07-1.90842E-19-1.96597E-18
 -1      1370 9.30827E-05-2.79421E-05-2.79163E-05 6.44870E-07-3.24252E-19-9.80658E-19
 -1      1371 9.33463E-05-2.80101E-05-2.80006E-05 2.91894E-07-1.20931E-19-1.92300E-18
 -1      1372 9.36194E-05-2.80928E-05-2.80813E-05 2.86759E-07-5.84362E-21-1.94325E-18
 -1      1373 9.35249E-05-2.80721E-05-2.80501E-05 5.90768E-07-2.21814E-19-1.27963E-18
 -1      1374 9.38321E-05-2.81533E-05-2.81476E-05 2.72392E-07 2.21508E-19-1.82332E-18
 -1      1375 9.40859E-05-2.82293E-05-2.82229E-05 2.69528E-07 7.15189E-20-1.44393E-18
 -1      1376 9.39478E-05-2.81943E-05-2.81794E-05 5.48528E-07 1.94556E-19-1.19829E-18
 -1      1377 9.42956E-05-2.82889E-05-2.82883E-05 2.65598E-07-1.63326E-20-1.46203E-18
 -1      1378 9.45429E-05-2.83624E-05-2.83619E-05 2.65611E-07-9.25432E-20-1.52270E-18
 -1      1379 9.43595E-05-2.83116E-05-2.83062E-05 5.27246E-07 8.40076E-20-1.28978E-18
 -1      1380 9.47590E-05-2.84237E-05-2.84292E-05 2.74673E-07-2.05577E-19-1.53696E-18
 -1      1381 9.50153E-05-2.84995E-05-2.85056E-05 2.78070E-07-2.99535E-19-1.81334E-18
 -1      1382 9.47751E-05-2.84288E-05-2.84350E-05 5.33964E-07-2.70696E-19-1.69492E-18
 -1      1383 9.52498E-05-2.85660E-05-2.85786E-05 3.02138E-07-1.43659E-19-1.87549E-18
 -1      1384 9.55329E-05-2.86497E-05-2.86630E-05 3.09331E-07-2.01264E-19-2.17938E-18
 -1      1385 9.52154E-05-2.85524E-05-2.85718E-05 5.74233E-07-2.90397E-19-1.31001E-18
 -1      1386 9.57991E-05-2.87254E-05-2.87458E-05 3.49808E-07-7.80623E-20-2.03032E-18
 -1      1387 9.61283E-05-2.88231E-05-2.88440E-05 3.61083E-07-1.94686E-19-1.93608E-18
 -1      1388 9.57050E-05-2.86899E-05-2.87239E-05 6.52209E-07-1.74720E-19-1.17197E-18
 -1      1389 9.64407E-05-2.89123E-05-2.89409E-05 4.18456E-07-1.21239E-19-2.16087E-18
 -1      1390 9.68360E-05-2.90303E-05-2.90586E-05 4.33867E-07-2.02543E-19-2.39036E-18
 -1      1391 9.62712E-05-2.88502E-05-2.88992E-05 7.70225E-07-2.21371E-19-1.51297E-18
 -1      1392 9.72084E-05-2.91372E-05-2.91739E-05 5.07096E-07-2.35957E-19-2.17087E-18
 -1      1393 9.76887E-05-2.92819E-05-2.93164E-05 5.26289E-07-4.53828E-19-2.63732E-18
 -1      1394 9.69418E-05-2.90422E-05-2.91055E-05 9.27702E-07-2.66735E-19-1.74297E-18
 -1      1395 9.81326E-05-2.94103E-05-2.94536E-05 6.11803E-07-2.25083E-19-2.77180E-18
 -1      1396 9.87125E-05-2.95867E-05-2.96250E-05 6.33723E-07-1.81984E-19-2.88295E-18
 -1      1397 9.77422E-05-2.92750E-05-2.93497E-05 1.11924E-06-5.55098E-19-1.53459E-18
 -1      1398 9.92346E-05-2.97392E-05-2.97856E-05 7.23973E-07 1.89567E-19-2.34498E-18
 -1      1399 9.99197E-05-2.99500E-05-2.99874E-05 7.46449E-07 6.93114E-19-1.67129E-18
 -1      1400 9.86910E-05-2.95565E-05-2.96363E-05 1.33172E-06 4.92320E-19-2.02681E-18
 -1      1401 1.00517E-04-3.01270E-05-3.01700E-05 8.28016E-07 3.55508E-19-1.70244E-18
 -1      1402 1.01298E-04-3.03704E-05-3.03987E-05 8.47210E-07 4.80145E-20-1.44558E-18
 -1      1403 9.97936E-05-2.98916E-05-2.99649E-05 1.54030E-06 5.96276E-19-1.89236E-18
 -1      1404 1.01953E-04-3.05682E-05-3.05970E-05 8.98731E-07-2.32630E-19-1.46625E-18
 -1      1405 1.02793E-04-3.08347E-05-3.08414E-05 9.08543E-07-3.07216E-19-2.23255E-18
 -1      1406 1.01033E-04-3.02798E-05-3.03278E-05 1.70373E-06-6.51537E-20-1.78976E-18
 -1      1407 1.03468E-04-3.10441E-05-3.10422E-05 8.99180E-07 4.15890E-19-1.98799E-18
 -1      1408 1.04294E-04-3.13126E-05-3.12803E-05 8.90826E-07 4.87349E-19-1.34406E-18
 -1      1409 1.02356E-04-3.07114E-05-3.07063E-05 1.75988E-06 2.20338E-19-8.08907E-19
 -1      1410 1.04922E-04-3.15161E-05-3.14615E-05 7.80937E-07 9.06259E-20-1.30484E-18
 -1      1411 1.05613E-04-3.17499E-05-3.16575E-05 7.43238E-07 5.34723E-20-8.03540E-19
 -1      1412 1.03665E-04-3.11621E-05-3.10673E-05 1.62453E-06 4.33317E-19-6.20708E-19
 -1      1413 1.06094E-04-3.19196E-05-3.17877E-05 4.90076E-07-1.23822E-19-7.84035E-19
 -1      1414 1.06479E-04-3.20635E-05-3.18919E-05 4.11410E-07 1.25359E-19-7.85694E-19
 -1      1415 1.04799E-04-3.15863E-05-3.13616E-05 1.19838E-06 1.03189E-19-5.93082E-19
 -1      1416 1.06686E-04-3.21602E-05-3.19323E-05-1.63008E-08-3.64720E-20-7.31561E-19
 -1      1417 1.06555E-04-3.21435E-05-3.18860E-05-1.43136E-07-2.98649E-19-1.09995E-18
 -1      1418 1.05538E-04-3.19111E-05-3.15257E-05 3.90502E-07-7.58922E-20-1.65438E-19
 -1      1419 1.06350E-04-3.21189E-05-3.17980E-05-7.38936E-07 3.80837E-19-1.37921E-18
 -1      1420 1.05505E-04-3.18681E-05-3.15484E-05-9.08008E-07-9.29619E-20-1.22298E-18
 -1      1421 1.05613E-04-3.20337E-05-3.14914E-05-8.33694E-07-2.48882E-19-4.81638E-19
 -1      1422 1.04777E-04-3.16757E-05-3.13074E-05-1.59390E-06-1.13847E-19-6.38703E-19
 -1      1423 1.03117E-04-3.11435E-05-3.08319E-05-1.77588E-06 4.50641E-19-3.58533E-19
 -1      1424 1.04766E-04-3.18334E-05-3.12048E-05-2.37982E-06 1.00234E-19-1.14968E-19
 -1      1425 1.01851E-04-3.07602E-05-3.04449E-05-2.38026E-06 1.99615E-19-3.52630E-19
 -1      1426 9.94808E-05-2.99674E-05-2.97803E-05-2.51797E-06-4.93314E-19-4.96229E-19
 -1      1427 1.02853E-04-3.12101E-05-3.06542E-05-3.95353E-06 4.89830E-19-2.52118E-19
 -1      1428 9.78260E-05-2.94255E-05-2.93009E-05-2.79915E-06-4.32484E-19-1.76448E-19
 -1      1429 9.51378E-05-2.84982E-05-2.85600E-05-2.82100E-06-2.13715E-19-5.00120E-19
 -1      1430 9.99808E-05-3.01550E-05-2.98968E-05-5.05487E-06-6.49224E-19 5.09643E-19
 -1      1431 9.34363E-05-2.79096E-05-2.80880E-05-2.56321E-06-6.34084E-20-8.59236E-19
 -1      1432 9.10722E-05-2.70754E-05-2.74450E-05-2.42025E-06-2.00456E-19-7.77894E-19
 -1      1433 9.66281E-05-2.88296E-05-2.90692E-05-5.11637E-06-3.72390E-19 8.21979E-19
 -1      1434 8.97940E-05-2.66171E-05-2.71012E-05-1.57721E-06-3.35458E-19-1.10035E-18
 -1      1435 8.84423E-05-2.61340E-05-2.67364E-05-1.28677E-06-5.12237E-19-1.81895E-18
 -1      1436 9.36203E-05-2.75834E-05-2.83625E-05-3.79830E-06-5.30971E-19-9.25966E-19
 -1      1437 8.80015E-05-2.59744E-05-2.66191E-05-7.30914E-08-7.83903E-20-1.33759E-18
 -1      1438 8.80951E-05-2.60099E-05-2.66434E-05 2.70212E-07 6.78222E-19-1.17658E-18
 -1      1439 9.18752E-05-2.68436E-05-2.79636E-05-1.29368E-06 3.14679E-19-7.04831E-19
 -1      1440 8.86390E-05-2.62110E-05-2.67860E-05 1.44710E-06 1.81662E-19-1.23807E-18
 -1      1441 9.01349E-05-2.67486E-05-2.71883E-05 1.71778E-06-9.71441E-21-1.23394E-18
 -1      1442 9.19822E-05-2.68971E-05-2.79834E-05 1.62786E-06 4.25416E-19 1.81715E-19
 -1      1443 9.14597E-05-2.72256E-05-2.75438E-05 2.46861E-06-1.18935E-19-1.60047E-18
 -1      1444 9.38600E-05-2.80739E-05-2.81960E-05 2.58230E-06-2.22518E-19-1.64454E-18
 -1      1445 9.38822E-05-2.77157E-05-2.84104E-05 3.97234E-06-2.63712E-19-5.95325E-19
 -1      1446 9.55232E-05-2.86488E-05-2.86582E-05 2.73344E-06-1.22840E-19-1.70561E-18
 -1      1447 9.81214E-05-2.95449E-05-2.93743E-05 2.68526E-06-7.36811E-20-1.84314E-18
 -1      1448 9.68981E-05-2.89732E-05-2.91151E-05 5.04567E-06-3.41164E-19-1.54453E-18
 -1      1449 9.96594E-05-3.00462E-05-2.98219E-05 2.31943E-06-7.75697E-20-1.54472E-18
 -1      1450 1.01839E-04-3.07738E-05-3.04333E-05 2.16545E-06 1.09208E-19-1.94151E-18
 -1      1451 1.00092E-04-3.02385E-05-2.99029E-05 4.75189E-06-4.65484E-19-1.94028E-18
 -1      1452 1.02935E-04-3.11016E-05-3.07719E-05 1.51321E-06-2.60009E-19-1.74998E-18
 -1      1453 1.04346E-04-3.15515E-05-3.11764E-05 1.32504E-06-8.46907E-19-2.84317E-18
 -1      1454 1.02676E-04-3.11852E-05-3.05862E-05 3.49269E-06-1.06197E-19-2.26150E-18
 -1      1455 1.04880E-04-3.16843E-05-3.13597E-05 6.22750E-07-7.01893E-19-2.74163E-18
 -1      1456 1.05454E-04-3.18486E-05-3.15312E-05 4.53636E-07-6.95924E-19-3.53939E-18
 -1      1457 1.04229E-04-3.16817E-05-3.10391E-05 1.84477E-06-9.55685E-19-1.82680E-18
 -1      1458 1.05462E-04-3.18149E-05-3.15583E-05-1.40539E-07-3.85059E-19-3.86614E-18
 -1      1459 1.05323E-04-3.17472E-05-3.15259E-05-2.65204E-07-4.44199E-19-4.60346E-18
 -1      1460 1.04691E-04-3.17561E-05-3.12159E-05 2.83399E-07-1.00781E-18-2.73113E-18
 -1      1461 1.04923E-04-3.15952E-05-3.14254E-05-6.84043E-07-2.73961E-19-4.35051E-18
 -1      1462 1.04279E-04-3.13705E-05-3.12452E-05-7.60339E-07 2.81880E-19-4.50021E-18
 -1      1463 1.04235E-04-3.15155E-05-3.11379E-05-9.26954E-07-6.13510E-19-3.90521E-18
 -1      1464 1.03616E-04-3.11484E-05-3.10582E-05-1.00089E-06 9.14075E-19-3.06760E-18
 -1      1465 1.02679E-04-3.08376E-05-3.07906E-05-1.03589E-06 7.61426E-19-2.09471E-18
 -1      1466 1.03133E-04-3.10801E-05-3.08653E-05-1.70889E-06 1.16249E-18-3.03039E-18
 -1      1467 1.01886E-04-3.05854E-05-3.05584E-05-1.12539E-06 7.00682E-19-1.49925E-18
 -1      1468 1.00838E-04-3.02451E-05-3.02566E-05-1.12879E-06 1.26290E-18-7.60589E-19
 -1      1469 1.01661E-04-3.05507E-05-3.04717E-05-2.09610E-06 1.72097E-18-7.47358E-19
 -1      1470 1.00026E-04-2.99928E-05-3.00152E-05-1.09921E-06 1.57703E-18 1.51341E-20
 -1      1471 9.90110E-05-2.96656E-05-2.97224E-05-1.07851E-06 1.69019E-18 2.36056E-18
 -1      1472 1.00056E-04-3.00005E-05-3.00275E-05-2.16191E-06 2.07233E-18 2.64316E-19
 -1      1473 9.82665E-05-2.94351E-05-2.95009E-05-9.52895E-07 3.72568E-19 2.02514E-18
 -1      1474 9.74002E-05-2.91553E-05-2.92522E-05-9.11365E-07-5.25955E-19 1.61903E-18
 -1      1475 9.85059E-05-2.94794E-05-2.95929E-05-1.97330E-06 1.50030E-18 3.37490E-22
 -1      1476 9.67899E-05-2.89632E-05-2.90735E-05-7.02004E-07-7.12073E-19 1.59087E-18
 -1      1477 9.61770E-05-2.87638E-05-2.88970E-05-6.38134E-07-6.48984E-19 3.83024E-19
 -1      1478 9.71565E-05-2.90221E-05-2.92156E-05-1.57193E-06-7.23871E-19-1.79268E-19
 -1      1479 9.57363E-05-2.86142E-05-2.87723E-05-3.54369E-07-3.63183E-19 1.56827E-18
 -1      1480 9.54628E-05-2.85464E-05-2.86763E-05-2.73217E-07-2.47950E-19 1.62832E-18
 -1      1481 9.61079E-05-2.86545E-05-2.89255E-05-9.90878E-07-1.85682E-19 1.33914E-18
 -1      1482 9.52125E-05-2.85487E-05-2.85601E-05 3.26040E-08-1.21048E-18 1.23072E-18
 -1      1483 9.53857E-05-2.84752E-05-2.86813E-05-2.50502E-07-9.81860E-19 1.51675E-18
 -1      1484 9.65431E-05-2.83533E-05-2.97623E-05 2.99918E-06 6.00520E-19 6.51109E-18
 -1      1485 1.02506E-04-2.93895E-05-3.21467E-05 4.46640E-06 5.07214E-19 7.36696E-18
 -1      1486 1.02298E-04-2.67094E-05-3.26972E-05 1.27892E-05 9.99393E-19 4.97780E-18
 -1      1487 9.19903E-05-2.74172E-05-2.77497E-05 1.15537E-06 5.43769E-19 5.22063E-18
 -1      1488 9.39408E-05-2.75735E-05-2.86650E-05 1.47726E-06 5.04276E-19 5.97691E-18
 -1      1489 9.64541E-05-2.80204E-05-2.95239E-05 4.87394E-06 9.59477E-19 4.03094E-18
 -1      1490 9.01511E-05-2.69904E-05-2.70488E-05 3.35258E-07 2.66537E-19 4.11399E-18
 -1      1491 9.07699E-05-2.70092E-05-2.73226E-05 4.98005E-07 3.44412E-19 4.70662E-18
 -1      1492 9.30044E-05-2.75675E-05-2.80874E-05 1.85817E-06 8.16116E-19 3.23342E-18
 -1      1493 8.96269E-05-2.68702E-05-2.68711E-05-5.15323E-08 2.28553E-19 3.74129E-18
 -1      1494 8.96684E-05-2.68091E-05-2.69004E-05 3.74480E-08 1.09367E-19 3.98975E-18
 -1      1495 9.14461E-05-2.72948E-05-2.75021E-05 5.24331E-07 4.00812E-19 2.71409E-18
 -1      1496 8.97522E-05-2.69206E-05-2.69109E-05-2.38937E-07 2.13601E-19 3.28519E-18
 -1      1497 8.95278E-05-2.68144E-05-2.68470E-05-1.88821E-07 2.30395E-19 3.59526E-18
 -1      1498 9.09096E-05-2.72124E-05-2.73045E-05-1.25677E-07 4.15208E-19 2.39830E-18
 -1      1499 9.01991E-05-2.70611E-05-2.70475E-05-3.22709E-07-1.66114E-19 3.34426E-18
 -1      1500 8.98560E-05-2.69352E-05-2.69470E-05-2.95080E-07-8.40966E-20 3.16863E-18
 -1      1501 9.09232E-05-2.72541E-05-2.72925E-05-4.45242E-07 4.83934E-20 2.13671E-18
 -1      1502 9.07901E-05-2.72422E-05-2.72260E-05-3.48708E-07 4.94074E-19 2.89679E-18
 -1      1503 9.04052E-05-2.71127E-05-2.71132E-05-3.34878E-07 2.01735E-19 3.12889E-18
 -1      1504 9.12258E-05-2.73652E-05-2.73737E-05-5.87595E-07 2.57847E-19 1.58803E-18
 -1      1505 9.14249E-05-2.74345E-05-2.74173E-05-3.42346E-07 1.96455E-22 2.24983E-18
 -1      1506 9.10406E-05-2.73111E-05-2.73043E-05-3.37016E-07 2.60008E-19 2.67890E-18
 -1      1507 9.16685E-05-2.75091E-05-2.75005E-05-6.30318E-07 4.57431E-19 1.42534E-18
 -1      1508 9.20482E-05-2.76220E-05-2.76053E-05-3.19297E-07 2.01929E-19 1.95990E-18
 -1      1509 9.16867E-05-2.75092E-05-2.74987E-05-3.18959E-07-5.52143E-23 2.11664E-18
 -1      1510 9.21649E-05-2.76635E-05-2.76459E-05-6.17754E-07 1.04125E-19 1.01734E-18
 -1      1511 9.26325E-05-2.77968E-05-2.77819E-05-2.89905E-07-1.36651E-19 2.26140E-18
 -1      1512 9.23035E-05-2.76962E-05-2.76845E-05-2.92111E-07-4.89898E-22 2.11945E-18
 -1      1513 9.26666E-05-2.78156E-05-2.77949E-05-5.77679E-07-5.60646E-20 8.97135E-19
 -1      1514 9.31696E-05-2.79566E-05-2.79446E-05-2.61358E-07 1.66547E-19 2.43720E-18
 -1      1515 9.28741E-05-2.78675E-05-2.78567E-05-2.64313E-07 2.19274E-20 2.36242E-18
 -1      1516 9.31495E-05-2.79596E-05-2.79397E-05-5.28653E-07-8.16411E-20 1.48539E-18
 -1      1517 9.36643E-05-2.81031E-05-2.80947E-05-2.38934E-07 4.60027E-19 1.82110E-18
 -1      1518 9.33972E-05-2.80232E-05-2.80149E-05-2.41242E-07 3.56983E-19 2.16271E-18
 -1      1519 9.36065E-05-2.80939E-05-2.80778E-05-4.83772E-07 4.74816E-19 1.25069E-18
 -1      1520 9.41318E-05-2.82409E-05-2.82369E-05-2.26828E-07 4.87751E-19 8.55150E-19
 -1      1521 9.38831E-05-2.81666E-05-2.81622E-05-2.27309E-07 4.64782E-19 1.37668E-18
 -1      1522 9.40426E-05-2.82204E-05-2.82106E-05-4.52880E-07 9.55159E-19 1.03697E-18
 -1      1523 9.45957E-05-2.83771E-05-2.83782E-05-2.28750E-07 2.64560E-19-2.80069E-19
 -1      1524 9.43514E-05-2.83036E-05-2.83045E-05-2.26295E-07 4.25812E-19 4.20444E-19
 -1      1525 9.44722E-05-2.83437E-05-2.83422E-05-4.44053E-07 7.34090E-19-1.83522E-20
 -1      1526 9.50873E-05-2.85211E-05-2.85280E-05-2.48401E-07 4.87395E-21-5.47309E-19
 -1      1527 9.48294E-05-2.84425E-05-2.84500E-05-2.41854E-07 9.62336E-20-3.93901E-19
 -1      1528 9.49178E-05-2.84706E-05-2.84795E-05-4.64690E-07 3.79071E-19-5.63400E-19
 -1      1529 9.56462E-05-2.86844E-05-2.86984E-05-2.89871E-07-2.11001E-19-2.03471E-19
 -1      1530 9.53524E-05-2.85936E-05-2.86094E-05-2.77906E-07-2.34361E-19-4.18937E-19
 -1      1531 9.54093E-05-2.86098E-05-2.86315E-05-5.22378E-07-1.52090E-19-3.05599E-19
 -1      1532 9.63206E-05-2.88815E-05-2.89039E-05-3.57968E-07-1.31827E-19 1.67183E-19
 -1      1533 9.59637E-05-2.87697E-05-2.87958E-05-3.38983E-07-9.92017E-20-4.07171E-20
 -1      1534 9.59842E-05-2.87724E-05-2.88096E-05-6.25602E-07-2.86496E-19-1.17681E-19
 -1      1535 9.71696E-05-2.91300E-05-2.91624E-05-4.58451E-07-4.93966E-19 4.12273E-19
 -1      1536 9.67165E-05-2.89864E-05-2.90253E-05-4.30464E-07-1.29806E-19-6.58415E-20
 -1      1537 9.66881E-05-2.89716E-05-2.90279E-05-7.84274E-07-1.42372E-19-6.35531E-19
 -1      1538 9.82643E-05-2.94507E-05-2.94955E-05-5.98093E-07-6.86014E-20 1.13797E-19
 -1      1539 9.76745E-05-2.92625E-05-2.93173E-05-5.58664E-07-1.10424E-19 5.04921E-19
 -1      1540 9.75760E-05-2.92234E-05-2.93031E-05-1.01001E-06-2.29837E-19-3.60038E-19
 -1      1541 9.96892E-05-2.98692E-05-2.99286E-05-7.84314E-07-1.88475E-19 1.04443E-19
 -1      1542 9.89143E-05-2.96206E-05-2.96950E-05-7.30568E-07-2.41808E-19 1.79212E-19
 -1      1543 9.87126E-05-2.95470E-05-2.96549E-05-1.31582E-06-2.18771E-19 1.09160E-19
 -1      1544 1.01541E-04-3.04148E-05-3.04909E-05-1.02396E-06 3.60560E-19 8.44651E-20
 -1      1545 1.00525E-04-3.00875E-05-3.01852E-05-9.52831E-07 2.89315E-20 2.34956E-19
 -1      1546 1.00172E-04-2.99647E-05-3.01058E-05-1.71472E-06-4.92073E-20-3.05188E-21
 -1      1547 1.03926E-04-3.11200E-05-3.12135E-05-1.32030E-06 4.03560E-19-7.40227E-19
 -1      1548 1.02606E-04-3.06938E-05-3.08178E-05-1.22928E-06 3.23628E-19-1.26393E-21
 -1      1549 1.02036E-04-3.05017E-05-3.06795E-05-2.21588E-06 4.73720E-19 6.38203E-20
 -1      1550 1.06941E-04-3.20170E-05-3.21241E-05-1.66664E-06 4.28531E-19-1.57593E-18
 -1      1551 1.05259E-04-3.14727E-05-3.16221E-05-1.55560E-06 3.49626E-19-1.02252E-18
 -1      1552 1.04383E-04-3.11852E-05-3.13983E-05-2.81634E-06 6.32667E-19-1.62144E-18
 -1      1553 1.10643E-04-3.31292E-05-3.32360E-05-2.03403E-06-1.00679E-19-1.77948E-18
 -1      1554 1.08565E-04-3.24551E-05-3.26198E-05-1.90901E-06 3.96898E-20-1.66507E-18
 -1      1555 1.07274E-04-3.20414E-05-3.22758E-05-3.48464E-06 2.22515E-19-1.62184E-18
 -1      1556 1.14987E-04-3.44543E-05-3.45265E-05-2.35031E-06-6.91176E-20-1.54944E-18
 -1      1557 1.12541E-04-3.36597E-05-3.38095E-05-2.23048E-06-1.30458E-19-1.51332E-18
 -1      1558 1.10719E-04-3.30889E-05-3.33046E-05-4.13184E-06-2.11338E-19-8.91026E-19
 -1      1559 1.19710E-04-3.59323E-05-3.59020E-05-2.47027E-06-5.45819E-19-3.42678E-19
 -1      1560 1.17060E-04-3.50719E-05-3.51410E-05-2.39879E-06-1.32838E-19-8.65985E-19
 -1      1561 1.14614E-04-3.43256E-05-3.44357E-05-4.56720E-06-4.81212E-19 1.50719E-19
 -1      1562 1.24181E-04-3.73952E-05-3.71537E-05-2.14930E-06-1.06872E-20 1.07838E-19
 -1      1563 1.21725E-04-3.66051E-05-3.64761E-05-2.20479E-06-1.88359E-19-1.65145E-19
 -1      1564 1.18659E-04-3.57032E-05-3.55522E-05-4.44806E-06-3.30780E-19 5.01602E-19
 -1      1565 1.27250E-04-3.85020E-05-3.79299E-05-1.06593E-06-6.24091E-19 9.26647E-19
 -1      1566 1.25717E-04-3.80375E-05-3.75518E-05-1.35960E-06-6.03048E-19 2.20943E-19
 -1      1567 1.22251E-04-3.70775E-05-3.64474E-05-3.27014E-06-6.45413E-19 1.43832E-18
 -1      1568 1.27291E-04-3.87058E-05-3.77879E-05 1.01304E-06-1.48059E-19 1.14715E-18
 -1      1569 1.27699E-04-3.89361E-05-3.79806E-05 3.87637E-07 8.06402E-20 1.50352E-18
 -1      1570 1.24413E-04-3.81331E-05-3.68426E-05-5.16603E-07-3.89344E-19 1.84220E-18
 -1      1571 1.22748E-04-3.73724E-05-3.64003E-05 3.83711E-06 3.28305E-19 6.27651E-19
 -1      1572 1.26026E-04-3.86466E-05-3.73580E-05 2.93698E-06-1.93229E-21 6.24581E-19
 -1      1573 1.23916E-04-3.83183E-05-3.64838E-05 3.87159E-06-1.80392E-20 1.90331E-18
 -1      1574 1.13466E-04-3.42412E-05-3.39052E-05 6.20316E-06-2.45415E-19 5.73865E-19
 -1      1575 1.19575E-04-3.65433E-05-3.55230E-05 5.39728E-06-2.85126E-19 4.98267E-19
 -1      1576 1.19833E-04-3.69663E-05-3.53344E-05 8.70823E-06-2.61204E-19 8.87902E-19
 -1      1577 1.02245E-04-3.01752E-05-3.11362E-05 6.16850E-06 1.29702E-21 1.06747E-18
 -1      1578 1.09262E-04-3.27248E-05-3.28692E-05 6.06276E-06-8.44849E-20 8.84620E-19
 -1      1579 1.12658E-04-3.38751E-05-3.37459E-05 1.11897E-05-3.43214E-19-6.61744E-21
 -1      1580 9.46535E-05-2.73330E-05-2.93445E-05 2.69120E-06 5.36251E-19 4.12770E-19
 -1      1581 9.90861E-05-2.87260E-05-3.03976E-05 3.60440E-06 5.63886E-19 1.62789E-18
 -1      1582 1.05277E-04-3.01898E-05-3.23826E-05 8.40672E-06 4.51971E-19 2.01223E-19
 -1      1583 9.53870E-05-2.76654E-05-2.94641E-05-2.53086E-06 4.66080E-19-1.43196E-18
 -1      1584 9.45488E-05-2.69569E-05-2.92766E-05-1.09607E-06 4.41807E-19-4.88989E-19
 -1      1585 1.01972E-04-2.83171E-05-3.18719E-05 6.53306E-07 8.68103E-19-1.01535E-18
 -1      1586 1.03964E-04-3.09212E-05-3.14339E-05-6.08819E-06 2.01878E-19-2.82824E-18
 -1      1587 9.84018E-05-2.85923E-05-3.01056E-05-5.07426E-06 6.21087E-19-2.32278E-18
 -1      1588 1.04956E-04-2.97965E-05-3.24454E-05-7.46107E-06 1.25014E-18-2.26031E-18
 -1      1589 1.15164E-04-3.49264E-05-3.42200E-05-6.18423E-06 6.10496E-19-3.86056E-18
 -1      1590 1.08137E-04-3.23916E-05-3.24497E-05-6.05413E-06 2.65687E-19-3.16324E-18
 -1      1591 1.12142E-04-3.34569E-05-3.38141E-05-1.10046E-05 6.94944E-19-2.76397E-18
 -1      1592 1.23628E-04-3.76932E-05-3.65466E-05-3.80454E-06-2.06186E-19-3.70445E-18
 -1      1593 1.18347E-04-3.60590E-05-3.51254E-05-4.29227E-06-1.05416E-19-4.00710E-18
 -1      1594 1.19241E-04-3.67666E-05-3.53302E-05-9.09059E-06 2.83385E-19-3.39745E-18
 -1      1595 1.27124E-04-3.86332E-05-3.76971E-05-9.43076E-07 1.30781E-19-3.10840E-18
 -1      1596 1.24891E-04-3.81478E-05-3.70206E-05-1.57158E-06-1.30681E-19-2.36672E-18
 -1      1597 1.23275E-04-3.82668E-05-3.63723E-05-4.39472E-06-5.60948E-19-2.75135E-18
 -1      1598 1.26204E-04-3.81408E-05-3.76245E-05 1.17440E-06-3.34896E-19-2.43128E-18
 -1      1599 1.26640E-04-3.85038E-05-3.76755E-05 6.92883E-07-7.77682E-20-2.85123E-18
 -1      1600 1.23691E-04-3.80815E-05-3.66335E-05 1.64212E-07-7.12302E-20-5.28530E-19
 -1      1601 1.22514E-04-3.68529E-05-3.66828E-05 2.29402E-06-1.46738E-18-9.76364E-19
 -1      1602 1.24589E-04-3.76550E-05-3.72248E-05 2.02252E-06-8.50203E-19-1.51407E-18
 -1      1603 1.21382E-04-3.69354E-05-3.61542E-05 3.19977E-06-1.50196E-18 1.48633E-18
 -1      1604 1.17612E-04-3.52747E-05-3.53053E-05 2.64739E-06-5.41331E-19 2.41590E-18
 -1      1605 1.20376E-04-3.62101E-05-3.60781E-05 2.53908E-06-1.55376E-18-1.04291E-19
 -1      1606 1.17567E-04-3.54366E-05-3.51785E-05 4.63326E-06-2.48852E-18 2.45060E-18
 -1      1607 1.12544E-04-3.37057E-05-3.38225E-05 2.55583E-06-3.98051E-19 2.96634E-18
 -1      1608 1.15377E-04-3.46043E-05-3.46394E-05 2.54425E-06 2.27110E-19 3.33371E-18
 -1      1609 1.13234E-04-3.39314E-05-3.39770E-05 4.93549E-06-4.93948E-19 4.79610E-18
 -1      1610 1.07874E-04-3.22898E-05-3.24289E-05 2.25895E-06 1.08530E-18 1.37104E-18
 -1      1611 1.10457E-04-3.30783E-05-3.31856E-05 2.29462E-06 7.84912E-19 2.21753E-18
 -1      1612 1.09002E-04-3.25695E-05-3.27529E-05 4.60983E-06 1.03588E-18 3.09612E-18
 -1      1613 1.03847E-04-3.10808E-05-3.12166E-05 1.89138E-06 3.99707E-19 3.19173E-19
 -1      1614 1.06051E-04-3.17377E-05-3.18670E-05 1.94679E-06 1.62677E-19 2.23603E-19
 -1      1615 1.05198E-04-3.13991E-05-3.16274E-05 4.00458E-06 1.38694E-18 1.57050E-18
 -1      1616 1.00546E-04-3.00912E-05-3.02223E-05 1.50756E-06 1.03083E-18-1.12879E-18
 -1      1617 1.02333E-04-3.06150E-05-3.07496E-05 1.57246E-06 1.70942E-18 8.93170E-19
 -1      1618 1.01962E-04-3.04246E-05-3.06612E-05 3.30352E-06 1.35977E-18 1.10170E-18
 -1      1619 9.80035E-05-2.93235E-05-2.94620E-05 1.11014E-06-2.53221E-19-1.63381E-18
 -1      1620 9.93579E-05-2.97129E-05-2.98586E-05 1.18667E-06-3.81320E-19-2.26831E-18
 -1      1621 9.93438E-05-2.96368E-05-2.98818E-05 2.56940E-06 4.85363E-19 1.12551E-18
 -1      1622 9.62687E-05-2.87913E-05-2.89460E-05 6.67786E-07 2.23425E-19-2.33870E-18
 -1      1623 9.71512E-05-2.90308E-05-2.92052E-05 7.71208E-07 6.47401E-20-1.77896E-18
 -1      1624 9.73612E-05-2.90243E-05-2.93013E-05 1.78932E-06-2.22310E-19 4.59305E-19
 -1      1625 9.54043E-05-2.85374E-05-2.86537E-05 1.94740E-07 5.11810E-19-2.27024E-18
 -1      1626 9.57547E-05-2.85995E-05-2.87870E-05 3.13549E-07 2.00313E-19-3.09239E-18
 -1      1627 9.60189E-05-2.85996E-05-2.89111E-05 9.24736E-07 9.52040E-19 2.10187E-20
 -1      1628 9.52241E-05-2.85375E-05-2.85640E-05-1.74617E-08-1.06926E-18-1.08589E-18
 -1      1629 9.51386E-05-2.78058E-05-2.88720E-05 5.42811E-07 2.46708E-18 2.23502E-18
 -1      1630 9.52657E-05-2.82162E-05-2.87306E-05 4.19220E-07-5.85899E-19 3.07909E-18
 -1      1631 9.46558E-05-2.63784E-05-2.92710E-05 9.62815E-07 4.80450E-18 1.90490E-18
 -1      1632 9.49393E-05-2.72106E-05-2.90366E-05 8.92062E-07 3.68009E-18 1.58218E-18
 -1      1633 9.50960E-05-2.73042E-05-2.90708E-05 1.40506E-06 1.33641E-18 3.25015E-18
 -1      1634 9.40458E-05-2.45643E-05-2.97801E-05 1.16347E-06 3.58628E-18-1.63754E-18
 -1      1635 9.43994E-05-2.56147E-05-2.94853E-05 1.14256E-06 5.04754E-18-2.82602E-20
 -1      1636 9.45567E-05-2.59226E-05-2.94270E-05 2.03723E-06 1.80664E-18 3.55702E-19
 -1      1637 9.34300E-05-2.27001E-05-3.03110E-05 1.13433E-06 8.03100E-19-2.31119E-18
 -1      1638 9.37789E-05-2.37516E-05-3.00131E-05 1.15856E-06 3.11944E-18-9.90746E-19
 -1      1639 9.39680E-05-2.43345E-05-2.98414E-05 2.24071E-06 1.60108E-18-2.70492E-18
 -1      1640 9.29183E-05-2.11253E-05-3.07651E-05 9.19472E-07-3.75471E-18-3.24796E-18
 -1      1641 9.31993E-05-2.19836E-05-3.05200E-05 9.75274E-07-5.24366E-20-4.11577E-18
 -1      1642 9.34146E-05-2.28012E-05-3.02491E-05 2.03463E-06-4.89143E-19-5.87340E-18
 -1      1643 9.25647E-05-2.00199E-05-3.10872E-05 5.70793E-07-4.91390E-18 9.68266E-19
 -1      1644 9.27477E-05-2.05850E-05-3.09248E-05 6.48073E-07-4.88627E-18-8.39181E-19
 -1      1645 9.29748E-05-2.15473E-05-3.05896E-05 1.51206E-06-2.29872E-18-4.09956E-18
 -1      1646 9.24215E-05-1.95541E-05-3.12262E-05 1.58413E-07-4.26144E-18 3.60432E-19
 -1      1647 9.24805E-05-1.97436E-05-3.11708E-05 2.42059E-07-5.40971E-18 1.46186E-18
 -1      1648 9.26997E-05-2.07388E-05-3.08139E-05 7.84253E-07-3.92979E-18 3.10471E-19
 -1      1649 9.24948E-05-1.97566E-05-3.11719E-05-2.51130E-07-2.58330E-18 7.79763E-19
 -1      1650 9.24297E-05-1.95665E-05-3.12254E-05-1.73587E-07-3.40271E-18 2.31120E-18
 -1      1651 9.26213E-05-2.04828E-05-3.08901E-05-1.52421E-08-2.18255E-18 1.59201E-18
 -1      1652 9.27602E-05-2.05614E-05-3.09419E-05-6.01996E-07-2.89729E-18 2.36226E-19
 -1      1653 9.25883E-05-2.00402E-05-3.10908E-05-5.40250E-07-1.98486E-18-1.45020E-18
 -1      1654 9.27367E-05-2.07851E-05-3.08137E-05-7.65580E-07-6.19064E-19-4.09795E-19
 -1      1655 9.31710E-05-2.18289E-05-3.05758E-05-8.54984E-07-3.48451E-18-2.42834E-18
 -1      1656 9.29218E-05-2.10641E-05-3.07953E-05-8.15109E-07-1.93015E-18 6.16657E-19
 -1      1657 9.30167E-05-2.15744E-05-3.06017E-05-1.37110E-06-1.04390E-18 4.50362E-19
 -1      1658 9.36597E-05-2.33484E-05-3.01347E-05-9.87410E-07-6.66726E-18-1.18349E-18
 -1      1659 9.33726E-05-2.24640E-05-3.03889E-05-9.71965E-07-3.27288E-18-3.55380E-18
 -1      1660 9.34129E-05-2.27126E-05-3.02910E-05-1.76747E-06-2.40925E-18-4.12103E-18
 -1      1661 9.41807E-05-2.49716E-05-2.96635E-05-9.95612E-07-5.72669E-18 4.74409E-19
 -1      1662 9.38830E-05-2.40549E-05-2.99265E-05-1.00432E-06-6.43532E-18 6.98618E-19
 -1      1663 9.38717E-05-2.40494E-05-2.99227E-05-1.92869E-06-2.94916E-18-2.56119E-19
 -1      1664 9.46621E-05-2.64669E-05-2.92314E-05-8.77593E-07-4.18158E-18 2.63246E-19
 -1      1665 9.43959E-05-2.56522E-05-2.94635E-05-9.09484E-07-5.37453E-18 1.13592E-18
 -1      1666 9.43473E-05-2.54329E-05-2.95413E-05-1.84649E-06-2.50133E-18 1.41426E-18
 -1      1667 9.50449E-05-2.76266E-05-2.88944E-05-6.36585E-07-3.17262E-18 1.12658E-18
 -1      1668 9.48424E-05-2.70394E-05-2.90644E-05-6.93078E-07-4.38205E-18 1.07833E-18
 -1      1669 9.47856E-05-2.66903E-05-2.91966E-05-1.52123E-06-2.94742E-18 9.33900E-19
 -1      1670 9.52855E-05-2.82380E-05-2.87253E-05-4.36136E-07-2.60667E-18-3.64366E-19
 -1      1671 9.51976E-05-2.79522E-05-2.88245E-05-5.60714E-07-2.41345E-18-3.85726E-19
 -1      1672 9.51859E-05-2.75977E-05-2.89767E-05-1.17837E-06-3.48452E-18 1.64376E-18
 -1      1673 9.55569E-05-2.82176E-05-2.88591E-05-8.69484E-07-7.60541E-19 1.30061E-18
 -1      1674 2.03245E-05-6.64767E-05 1.39233E-05-7.00598E-06-6.01266E-18-3.91541E-19
 -1      1675 2.34708E-05-7.56755E-05 1.59563E-05 8.31403E-07-6.98516E-18-6.78685E-19
 -1      1676 1.95575E-05-4.07724E-05 4.58313E-06 9.95330E-07-1.82112E-18 1.65934E-18
 -1      1677 2.42440E-05-6.27357E-05 1.02952E-05-2.14558E-06-5.73611E-18 1.01739E-18
 -1      1678 4.10009E-05-1.70409E-05-1.21465E-05 2.96468E-05 2.85196E-18 4.49351E-18
 -1      1679 3.38052E-05-3.70289E-05-2.99484E-06 1.17505E-05 9.14796E-20 2.39710E-18
 -1      1680 8.02424E-05-5.16105E-06-3.14628E-05 5.90136E-05 5.07627E-18 6.41119E-18
 -1      1681 5.46698E-05-1.09005E-05-2.12392E-05 3.60377E-05 4.56127E-18 5.22704E-18
 -1      1682 1.51812E-04-2.24668E-05-5.17867E-05 7.48514E-05 4.38509E-18 6.53232E-18
 -1      1683 1.06239E-04-8.98696E-06-4.13622E-05 6.21335E-05 4.98564E-18 6.76271E-18
 -1      1684 2.18991E-04-4.77014E-05-6.73442E-05 6.38046E-05 2.43723E-18 6.91433E-18
 -1      1685 1.76008E-04-2.67388E-05-6.03450E-05 7.45376E-05 3.16875E-18 7.30651E-18
 -1      1686 2.57139E-04-6.47075E-05-7.54463E-05 1.91741E-05 1.66463E-18 4.64831E-18
 -1      1687 2.33493E-04-5.20016E-05-7.20020E-05 4.95045E-05 2.27428E-18 6.39764E-18
 -1      1688 2.55218E-04-6.26950E-05-7.54968E-05-3.36402E-05 2.27280E-18-9.66041E-19
 -1      1689 2.65135E-04-6.83801E-05-7.69595E-05 3.24097E-06 2.04093E-18 2.87377E-18
 -1      1690 2.03740E-04-3.83886E-05-6.60721E-05-6.87690E-05 3.07124E-18-4.03188E-18
 -1      1691 2.42355E-04-5.82453E-05-7.19127E-05-4.88313E-05 1.93521E-18-1.59157E-18
 -1      1692 1.34827E-04-1.52511E-05-4.96188E-05-6.85700E-05 4.06830E-18-5.67343E-18
 -1      1693 1.80384E-04-3.29013E-05-5.85847E-05-7.19605E-05 3.22974E-18-5.06187E-18
 -1      1694 7.31010E-05-4.53668E-06-3.06807E-05-5.05268E-05 3.89805E-18-4.59431E-18
 -1      1695 1.07728E-04-8.43518E-06-4.06522E-05-7.03553E-05 3.58210E-18-5.47183E-18
 -1      1696 3.72501E-05-1.94621E-05-1.14876E-05-2.03845E-05 3.33477E-18-2.64020E-18
 -1      1697 5.23040E-05-4.95049E-06-2.12001E-05-4.28375E-05 3.82012E-18-4.29276E-18
 -1      1698 2.64381E-05-4.99931E-05 4.53761E-06-1.71691E-06 5.51334E-18-1.71884E-18
 -1      1699 2.60597E-05-2.63386E-05-3.23428E-06-1.32899E-05 4.61802E-18-1.96723E-18
 -1      1700 2.42127E-05-7.31392E-05 1.42482E-05 3.44682E-06 5.46717E-18-9.68688E-19
 -1      1701 1.88277E-05-5.61061E-05 1.04252E-05 6.76545E-06 5.63446E-18-1.14720E-18
 -1      1702 2.32011E-05-7.67272E-05 1.63802E-05-2.88178E-06 3.91329E-18-6.88003E-19
 -1      1703 2.27384E-05-7.59072E-05 1.61934E-05 6.87341E-06 5.35748E-18-7.73765E-19
 -1      1704 1.89777E-05-5.65832E-05 1.09003E-05-3.37857E-06 1.72964E-18-1.06207E-18
 -1      1705 2.39989E-05-7.29593E-05 1.45448E-05 1.11635E-06 3.54483E-18-6.38451E-19
 -1      1706 2.47150E-05-2.68296E-05-2.05809E-06 1.47489E-05-8.34327E-19-2.15019E-18
 -1      1707 2.61555E-05-5.05002E-05 5.28619E-06 5.10954E-06 9.53759E-19-1.19410E-18
 -1      1708 4.99057E-05-5.58270E-06-1.95934E-05 4.25458E-05-2.44115E-18-2.53093E-18
 -1      1709 3.70052E-05-2.15492E-05-1.00602E-05 2.14188E-05-2.01170E-18-1.85712E-18
 -1      1710 9.57496E-05-2.46431E-06-3.80353E-05 7.01317E-05-2.96800E-18-4.92211E-18
 -1      1711 6.57919E-05-1.32449E-06-2.86588E-05 5.03026E-05-2.74523E-18-3.85908E-18
 -1      1712 1.61169E-04-2.29248E-05-5.51132E-05 7.85086E-05-2.85874E-18-4.73407E-18
 -1      1713 1.18800E-04-6.41630E-06-4.66452E-05 7.28489E-05-3.39576E-18-4.69764E-18
 -1      1714 2.19868E-04-4.88462E-05-6.77270E-05 5.42781E-05-2.22426E-18-3.98868E-18
 -1      1715 1.82696E-04-2.98399E-05-6.17643E-05 6.92414E-05-2.82697E-18-4.89754E-18
 -1      1716 2.53363E-04-6.44475E-05-7.43747E-05 1.44222E-05-1.37982E-18-2.89241E-18
 -1      1717 2.36289E-04-5.47355E-05-7.20782E-05 4.43749E-05-2.00048E-18-4.35460E-18
 -1      1718 2.46142E-04-5.99740E-05-7.36153E-05-3.22849E-05-4.48716E-19-1.66527E-18
 -1      1719 2.55144E-04-6.52111E-05-7.48432E-05-1.21308E-06-5.76829E-19-2.68793E-18
 -1      1720 2.04084E-04-3.86371E-05-6.61859E-05-6.69330E-05 1.82604E-18-1.80418E-18
 -1      1721 2.35836E-04-5.59034E-05-7.08315E-05-4.62315E-05 8.92455E-19-8.42374E-19
 -1      1722 1.42524E-04-1.51683E-05-5.23268E-05-7.21327E-05-3.30343E-19-1.75759E-18
 -1      1723 1.83715E-04-3.30599E-05-5.99420E-05-7.09615E-05 6.85250E-19-2.14553E-18
 -1      1724 8.55949E-05-2.73358E-06-3.56787E-05-5.93001E-05 7.60636E-19-4.64174E-19
 -1      1725 1.20016E-04-1.01090E-05-4.45092E-05-7.42996E-05-3.63377E-19-1.67035E-18
 -1      1726 4.52703E-05-1.11630E-05-1.72611E-05-3.19172E-05 2.89770E-18-1.25954E-18
 -1      1727 6.52191E-05-1.96890E-06-2.68332E-05-5.41830E-05 1.60005E-18 1.28241E-18
 -1      1728 2.63848E-05-3.62008E-05-6.65879E-07-7.50301E-06 1.99984E-18-2.46741E-18
 -1      1729 2.90818E-05-1.44036E-05-8.68533E-06-2.27810E-05 3.21703E-18-2.67069E-18
 -1      1730 2.40581E-05-6.35945E-05 1.07391E-05 1.20706E-06-1.52297E-18-1.43718E-18
 -1      1731 1.92988E-05-4.31729E-05 5.60992E-06-6.31712E-07 8.67362E-19-2.42834E-18
 -1      1732 2.41745E-05-7.77895E-05 1.62899E-05-2.82152E-06-6.35592E-18-1.64833E-18
 -1      1733 2.11729E-05-6.86105E-05 1.42411E-05 5.41887E-06-2.67069E-18-1.68464E-18
 -1      1734 1.22181E-04-3.61773E-05-3.60558E-05 4.28111E-05 3.00316E-18 4.44608E-18
 -1      1735 7.93128E-05-4.11522E-05-1.78942E-05 3.87912E-05 1.18585E-18 5.50656E-18
 -1      1736 9.53517E-05-2.84807E-05-2.86652E-05 1.82894E-07-1.13047E-18 1.23131E-18
 -1      1737 9.54484E-05-2.81591E-05-2.88419E-05 7.16883E-07 8.53210E-19 3.99926E-18
 -1      1738 1.88187E-05-4.80072E-05 8.34643E-06 1.32195E-05-3.40888E-18 1.60767E-18
 -1      1739 4.34696E-05-4.38724E-05-2.43378E-06 2.99005E-05-1.26631E-18 4.45394E-18
 -1      1740 1.16860E-05-5.07614E-05 1.20828E-05-9.13528E-07-3.76861E-18-1.90752E-18
 -1      1741 1.66984E-04-3.51175E-05-5.34240E-05 3.85964E-05 3.30279E-18 5.35579E-18
 -1      1742 2.01040E-04-3.51698E-05-6.61044E-05 2.53201E-05 2.52416E-18 5.54214E-18
 -1      1743 2.17148E-04-3.56551E-05-7.18853E-05 3.62411E-06 3.42582E-18 1.52265E-18
 -1      1744 2.14644E-04-3.76123E-05-6.99691E-05-1.77377E-05 3.55881E-18-2.15146E-19
 -1      1745 1.83405E-04-3.58827E-05-5.93288E-05-3.28213E-05 3.27582E-18-2.46402E-18
 -1      1746 1.41467E-04-3.44411E-05-4.39100E-05-4.24369E-05 1.84526E-18-3.15012E-18
 -1      1747 9.40985E-05-3.37421E-05-2.62835E-05-4.22345E-05 1.28834E-18-2.08116E-18
 -1      1748 5.59619E-05-4.00254E-05-9.27368E-06-3.26655E-05 2.53771E-18-7.87741E-19
 -1      1749 2.82596E-05-4.62347E-05 3.99073E-06-2.02036E-05 3.83367E-18-8.89067E-19
 -1      1750 1.40441E-05-5.20899E-05 1.15122E-05-5.17327E-06 3.58358E-18-1.19008E-18
 -1      1751 1.30405E-05-5.08509E-05 1.16138E-05 7.35769E-06 2.95297E-18-1.67120E-18
 -1      1752 2.59750E-05-4.43179E-05 4.48962E-06 2.31222E-05 2.02991E-18-1.86940E-18
 -1      1753 5.39106E-05-3.94057E-05-8.28298E-06 3.61258E-05 6.79320E-19-1.94140E-18
 -1      1754 8.80018E-05-3.22064E-05-2.43708E-05 4.38391E-05-6.09017E-19-2.55931E-18
 -1      1755 1.28383E-04-2.78457E-05-4.12955E-05 4.82899E-05-1.07658E-18-2.53348E-18
 -1      1756 1.68531E-04-2.98281E-05-5.58884E-05 3.99123E-05-1.67464E-18-3.31698E-18
 -1      1757 1.98055E-04-3.27584E-05-6.62044E-05 2.28740E-05-2.16819E-18-2.67069E-18
 -1      1758 2.13984E-04-3.59043E-05-7.08336E-05 3.28397E-06-1.59920E-18-3.06631E-18
 -1      1759 2.06991E-04-3.47779E-05-6.86268E-05-1.95909E-05-1.05879E-20-1.61572E-18
 -1      1760 1.80614E-04-3.18516E-05-5.99756E-05-3.45992E-05 7.19237E-19-1.20448E-18
 -1      1761 1.45055E-04-3.05261E-05-4.67508E-05-4.34810E-05 6.20875E-19-3.15689E-18
 -1      1762 1.04689E-04-3.11532E-05-3.09205E-05-4.55889E-05 2.09768E-18 9.91029E-20
 -1      1763 6.50346E-05-3.46438E-05-1.44070E-05-3.87392E-05 1.87279E-18-4.98055E-19
 -1      1764 3.49876E-05-4.21779E-05-2.13374E-07-2.60088E-05 8.63974E-20-3.05879E-18
 -1      1765 1.81071E-05-4.97775E-05 9.08872E-06-1.42806E-05-1.85034E-18-3.39660E-18
 -1      1766 1.06025E-04-2.31634E-05-3.55956E-05-1.68584E-05-1.00126E-18 3.19035E-18
 -1      1767 8.91222E-05-1.05590E-05-3.37933E-05-1.33518E-05-1.08939E-18-1.64195E-18
 -1      1768 9.04456E-05-1.16260E-05-3.39318E-05-1.51251E-05-1.30395E-18-1.22449E-18
 -1      1769 9.24779E-05-1.38702E-05-3.38489E-05-1.60130E-05-1.34798E-18-7.47030E-19
 -1      1770 9.41876E-05-1.58190E-05-3.40911E-05-1.76727E-05-1.49920E-18-9.52383E-20
 -1      1771 9.34302E-05-1.63627E-05-3.30399E-05-1.37618E-05-1.41432E-18-8.38139E-19
 -1      1772 8.62225E-05-7.67697E-06-3.37338E-05-7.87348E-06-5.41267E-19-2.14097E-18
 -1      1773 8.66200E-05-7.97439E-06-3.37661E-05-9.26354E-06-6.91404E-19-2.15565E-18
 -1      1774 8.56132E-05-7.04191E-06-3.37329E-05-5.32770E-06-1.87898E-19-2.12387E-18
 -1      1775 8.58442E-05-7.21990E-06-3.37470E-05-6.63365E-06-3.58903E-19-2.13929E-18
 -1      1776 8.76077E-05-9.87251E-06-3.33480E-05-6.93808E-06-5.03422E-19-2.01287E-18
 -1      1777 8.52829E-05-6.68421E-06-3.37376E-05-2.89302E-06 1.11269E-19-2.07299E-18
 -1      1778 8.54018E-05-6.77856E-06-3.37429E-05-4.13420E-06-3.47747E-21-2.09925E-18
 -1      1779 8.69797E-05-9.16226E-06-3.33829E-05-4.54376E-06-8.44899E-20-2.01324E-18
 -1      1780 8.51541E-05-6.53647E-06-3.37417E-05-5.18444E-07 4.41218E-19-1.97584E-18
 -1      1781 8.51890E-05-6.56489E-06-3.37429E-05-1.72960E-06 2.63451E-19-2.03341E-18
 -1      1782 8.66516E-05-8.78414E-06-3.34042E-05-2.22048E-06 2.13794E-19-1.97762E-18
 -1      1783 8.51989E-05-6.57392E-06-3.37431E-05 1.84747E-06 6.66072E-19-1.98760E-18
 -1      1784 8.51578E-05-6.54106E-06-3.37416E-05 6.35301E-07 5.79117E-19-2.00331E-18
 -1      1785 8.65548E-05-8.67091E-06-3.34112E-05 6.53224E-08 5.44085E-19-1.93909E-18
 -1      1786 8.54270E-05-6.80362E-06-3.37429E-05 4.25654E-06 8.25980E-19-1.87839E-18
 -1      1787 8.53008E-05-6.70321E-06-3.37375E-05 3.01226E-06 7.47034E-19-1.97520E-18
 -1      1788 8.66693E-05-8.80378E-06-3.34034E-05 2.35236E-06 7.53825E-19-1.91101E-18
 -1      1789 8.58787E-05-7.25580E-06-3.37465E-05 6.72064E-06 1.02375E-18-1.56094E-18
 -1      1790 8.56436E-05-7.07409E-06-3.37327E-05 5.43214E-06 8.78040E-19-1.72943E-18
 -1      1791 8.70139E-05-9.20003E-06-3.33813E-05 4.65862E-06 9.34893E-19-1.78010E-18
 -1      1792 8.66843E-05-8.04376E-06-3.37647E-05 9.38460E-06 1.36546E-18-1.14790E-18
 -1      1793 8.62675E-05-7.72801E-06-3.37323E-05 7.96285E-06 1.16932E-18-1.35455E-18
 -1      1794 8.76598E-05-9.93116E-06-3.33450E-05 7.03657E-06 1.17724E-18-1.34006E-18
 -1      1795 8.80872E-05-9.38894E-06-3.38170E-05 1.22648E-05 1.59759E-18-6.31648E-19
 -1      1796 8.73520E-05-8.83216E-06-3.37465E-05 1.06714E-05 1.44055E-18-9.61806E-19
 -1      1797 8.87725E-05-1.11637E-05-3.32917E-05 9.51292E-06 1.49582E-18-9.61118E-19
 -1      1798 9.06206E-05-1.18380E-05-3.39239E-05 1.53133E-05 1.73276E-18 3.54060E-19
 -1      1799 8.92455E-05-1.07401E-05-3.37856E-05 1.35238E-05 1.65397E-18-2.53951E-19
 -1      1800 9.06597E-05-1.32232E-05-3.32057E-05 1.19860E-05 1.70032E-18-3.76850E-19
 -1      1801 9.58549E-05-1.70289E-05-3.39865E-05 1.76998E-05 1.62466E-18 1.99317E-18
 -1      1802 9.28403E-05-1.43392E-05-3.38217E-05 1.62039E-05 1.64795E-18 1.04720E-18
 -1      1803 9.39561E-05-1.68837E-05-3.30198E-05 1.39050E-05 1.73887E-18 7.16802E-19
 -1      1804 1.01897E-04-2.50862E-05-3.33510E-05 1.44299E-05 1.27457E-18 3.89540E-18
 -1      1805 9.80522E-05-1.96097E-05-3.36178E-05 1.69727E-05 1.48855E-18 2.63501E-18
 -1      1806 9.73064E-05-2.18477E-05-3.24207E-05 1.32580E-05 1.64027E-18 1.99532E-18
 -1      1807 9.87228E-05-2.61265E-05-3.13336E-05 9.44273E-06 1.25152E-18 3.42827E-18
 -1      1808 1.00131E-04-1.95570E-05-3.42100E-05-1.88773E-05-1.33327E-18 1.11745E-18
 -1      1809 9.52781E-05-2.72758E-05-2.91754E-05 4.07485E-06 1.14474E-18 2.79406E-18
 -1      1810 9.77109E-05-2.73817E-05-3.01852E-05 6.40866E-06 1.09415E-18 3.15506E-18
 -1      1811 9.75492E-05-2.56067E-05-3.08245E-05 8.76904E-06 1.34009E-18 2.24029E-18
 -1      1812 9.97923E-05-2.25356E-05-3.28287E-05-1.44781E-05-1.41799E-18 6.44063E-19
 -1      1813 9.69297E-05-2.69690E-05-2.98682E-05-5.71353E-06-1.24821E-18 5.31467E-19
 -1      1814 9.51207E-05-2.70250E-05-2.91568E-05-3.90641E-06-1.05021E-18 2.53653E-19
 -1      1815 9.43010E-05-2.72265E-05-2.86491E-05-2.43096E-06-9.90559E-19 2.31690E-19
 -1      1816 9.35270E-05-2.73060E-05-2.83436E-05-1.57786E-06-8.18340E-19-7.65705E-20
 -1      1817 9.54810E-05-2.65389E-05-2.95675E-05-4.48360E-06-1.23212E-18-3.30371E-19
 -1      1818 9.30012E-05-2.73560E-05-2.80747E-05-7.50893E-07-5.56726E-19-2.15758E-19
 -1      1819 9.26978E-05-2.74186E-05-2.79522E-05-3.12453E-07-4.21994E-19-4.23788E-19
 -1      1820 9.42695E-05-2.72131E-05-2.87590E-05-1.84035E-06-9.14865E-19-3.69713E-19
 -1      1821 9.24217E-05-2.74456E-05-2.78161E-05 1.43586E-07-4.29277E-19-5.48917E-19
 -1      1822 9.23887E-05-2.75207E-05-2.77859E-05 3.68349E-07-4.28668E-19-7.05195E-19
 -1      1823 9.35669E-05-2.75178E-05-2.83233E-05-3.72928E-07-5.90493E-19-6.07306E-19
 -1      1824 9.22858E-05-2.75516E-05-2.77281E-05 6.09932E-07-3.77739E-19-6.67184E-19
 -1      1825 9.24001E-05-2.76357E-05-2.77474E-05 7.15639E-07-3.01375E-19-7.94016E-19
 -1      1826 9.32457E-05-2.77010E-05-2.81030E-05 4.32515E-07-4.53202E-19-8.15463E-19
 -1      1827 9.24074E-05-2.76733E-05-2.77365E-05 8.30377E-07-2.88100E-19-7.98919E-19
 -1      1828 9.25966E-05-2.77593E-05-2.77819E-05 8.67480E-07-2.32995E-19-9.04849E-19
 -1      1829 9.31841E-05-2.78421E-05-2.80122E-05 8.50259E-07-3.67304E-19-9.03436E-19
 -1      1830 9.26698E-05-2.78007E-05-2.77988E-05 9.07317E-07-1.81202E-19-7.99640E-19
 -1      1831 9.28910E-05-2.78833E-05-2.78570E-05 9.05703E-07-1.15282E-19-6.29436E-19
 -1      1832 9.32848E-05-2.79637E-05-2.80001E-05 1.03737E-06-1.39400E-19-9.12536E-19
 -1      1833 9.30006E-05-2.79253E-05-2.78896E-05 9.03461E-07-4.35272E-19-5.78074E-19
 -1      1834 9.32295E-05-2.80014E-05-2.79525E-05 8.82260E-07-3.05849E-19-6.22865E-19
 -1      1835 9.34791E-05-2.80712E-05-2.80352E-05 1.08980E-06-1.63378E-19-8.93832E-19
 -1      1836 9.33574E-05-2.80420E-05-2.79938E-05 8.59752E-07-3.55784E-19-7.97105E-19
 -1      1837 9.35815E-05-2.81105E-05-2.80572E-05 8.31865E-07-4.49608E-19-9.03619E-19
 -1      1838 9.37225E-05-2.81658E-05-2.80976E-05 1.06968E-06-5.13705E-19-9.09962E-19
 -1      1839 9.37174E-05-2.81487E-05-2.81029E-05 8.04155E-07-2.74961E-19-8.96558E-19
 -1      1840 9.39325E-05-2.82101E-05-2.81650E-05 7.78633E-07 1.80367E-20-8.22371E-19
 -1      1841 9.39885E-05-2.82481E-05-2.81755E-05 1.01902E-06-3.32134E-19-5.64536E-19
 -1      1842 9.40724E-05-2.82458E-05-2.82133E-05 7.56479E-07 3.66702E-20-9.41832E-19
 -1      1843 9.42800E-05-2.83017E-05-2.82744E-05 7.39911E-07 3.11642E-20-1.21272E-18
 -1      1844 9.42639E-05-2.83197E-05-2.82626E-05 9.67312E-07-1.41867E-19-7.62869E-19
 -1      1845 9.44239E-05-2.83360E-05-2.83250E-05 7.31259E-07 9.93403E-20-1.41798E-18
 -1      1846 9.46297E-05-2.83888E-05-2.83863E-05 7.28626E-07-1.48201E-19-1.45853E-18
 -1      1847 9.45453E-05-2.83830E-05-2.83561E-05 9.35913E-07-7.29045E-20-1.15270E-18
 -1      1848 9.47810E-05-2.84231E-05-2.84402E-05 7.39526E-07-2.53777E-19-1.33781E-18
 -1      1849 9.49939E-05-2.84762E-05-2.85042E-05 7.54700E-07-1.79571E-19-1.10146E-18
 -1      1850 9.48367E-05-2.84415E-05-2.84562E-05 9.40791E-07-8.91211E-20-1.10092E-18
 -1      1851 9.51584E-05-2.85127E-05-2.85629E-05 7.89807E-07-5.07835E-20-1.02413E-18
 -1      1852 9.53897E-05-2.85698E-05-2.86327E-05 8.25772E-07 6.70012E-20-7.62044E-19
 -1      1853 9.51476E-05-2.84998E-05-2.85649E-05 9.94131E-07-1.23465E-19-1.07293E-18
 -1      1854 9.55749E-05-2.86112E-05-2.86984E-05 8.88470E-07-8.92511E-20-6.84647E-19
 -1      1855 9.58376E-05-2.86770E-05-2.87776E-05 9.47242E-07-1.58838E-19-8.32671E-19
 -1      1856 9.54916E-05-2.85636E-05-2.86855E-05 1.10506E-06-8.17854E-21-8.52370E-19
 -1      1857 9.60522E-05-2.87267E-05-2.88528E-05 1.03938E-06-3.14090E-19-8.62782E-19
 -1      1858 9.63601E-05-2.88062E-05-2.89450E-05 1.12159E-06-2.53212E-19-1.06251E-18
 -1      1859 9.58853E-05-2.86398E-05-2.88222E-05 1.27953E-06-3.61157E-19-5.36833E-19
 -1      1860 9.66135E-05-2.88682E-05-2.90321E-05 1.24274E-06-2.06923E-20-1.18157E-18
 -1      1861 9.69798E-05-2.89671E-05-2.91408E-05 1.34682E-06-1.72924E-19-9.17890E-19
 -1      1862 9.63474E-05-2.87372E-05-2.89793E-05 1.51918E-06-7.92319E-20-3.88324E-19
 -1      1863 9.72815E-05-2.90462E-05-2.92416E-05 1.49299E-06-7.16664E-19-7.62040E-19
 -1      1864 9.77174E-05-2.91704E-05-2.93694E-05 1.61378E-06-3.29713E-19-5.66073E-19
 -1      1865 9.68975E-05-2.88667E-05-2.91602E-05 1.81916E-06-2.99625E-19-7.54767E-19
 -1      1866 9.80754E-05-2.92722E-05-2.94848E-05 1.77543E-06 1.31886E-20-8.56719E-19
 -1      1867 9.85871E-05-2.94274E-05-2.96327E-05 1.90229E-06 5.48688E-19-1.06222E-18
 -1      1868 9.75540E-05-2.90418E-05-2.93670E-05 2.16455E-06-3.49325E-19-2.66682E-19
 -1      1869 9.90070E-05-2.95583E-05-2.97615E-05 2.06167E-06 6.46553E-19-1.42902E-18
 -1      1870 9.95921E-05-2.97492E-05-2.99276E-05 2.17597E-06 1.87187E-19-1.50756E-18
 -1      1871 9.83323E-05-2.92793E-05-2.95991E-05 2.52526E-06 3.09391E-19-9.53752E-19
 -1      1872 1.00075E-04-2.99160E-05-3.00664E-05 2.30400E-06 7.69830E-20-1.33588E-18
 -1      1873 1.00717E-04-3.01447E-05-3.02445E-05 2.37644E-06 4.65031E-19-7.87347E-19
 -1      1874 9.92412E-05-2.95987E-05-2.98516E-05 2.84975E-06 2.90730E-19-9.14185E-19
 -1      1875 1.01257E-04-3.03534E-05-3.03863E-05 2.42970E-06 2.89366E-19-9.83354E-19
 -1      1876 1.01919E-04-3.06164E-05-3.05644E-05 2.41846E-06 2.95369E-19-1.02114E-18
 -1      1877 1.00278E-04-3.00207E-05-3.01143E-05 3.05834E-06 3.58615E-19-3.73158E-19
 -1      1878 1.02498E-04-3.08696E-05-3.06984E-05 2.33815E-06 4.51802E-19-1.48909E-18
 -1      1879 1.03116E-04-3.11533E-05-3.08574E-05 2.18996E-06 2.93896E-19-1.15028E-18
 -1      1880 1.01421E-04-3.05617E-05-3.03709E-05 3.03872E-06 2.19484E-19-1.56497E-18
 -1      1881 1.03701E-04-3.14448E-05-3.09693E-05 1.90591E-06 2.83518E-19-1.14330E-18
 -1      1882 1.04181E-04-3.17190E-05-3.10831E-05 1.56366E-06 1.29086E-19-1.18067E-18
 -1      1883 1.02620E-04-3.12227E-05-3.05991E-05 2.64888E-06 4.30481E-19-1.48274E-18
 -1      1884 1.04712E-04-3.20244E-05-3.11570E-05 1.00874E-06 1.96763E-19-1.17880E-18
 -1      1885 1.04932E-04-3.22347E-05-3.11954E-05 4.30601E-07 1.25725E-19-6.93378E-19
 -1      1886 1.03783E-04-3.19680E-05-3.07733E-05 1.73646E-06 3.12909E-19-2.08152E-18
 -1      1887 1.05320E-04-3.24991E-05-3.12172E-05-4.28398E-07-3.10950E-19-2.02251E-19
 -1      1888 1.05144E-04-3.25622E-05-3.11523E-05-1.23499E-06-1.72030E-19-9.60092E-20
 -1      1889 1.04753E-04-3.26952E-05-3.08710E-05 1.86849E-07 4.92619E-19-1.08765E-18
 -1      1890 1.05265E-04-3.26912E-05-3.11157E-05-2.34653E-06-8.42335E-20-1.42203E-20
 -1      1891 1.04585E-04-3.25042E-05-3.09330E-05-3.27972E-06 5.09100E-19 1.09876E-19
 -1      1892 1.05306E-04-3.32041E-05-3.08807E-05-1.98936E-06-1.23723E-19-4.05075E-19
 -1      1893 1.04307E-04-3.23769E-05-3.08443E-05-4.44945E-06 3.82564E-19-2.14347E-19
 -1      1894 1.03101E-04-3.18570E-05-3.05553E-05-5.28179E-06-6.24290E-20-1.52575E-19
 -1      1895 1.05163E-04-3.32020E-05-3.08111E-05-4.53451E-06 1.26449E-19-2.86104E-19
 -1      1896 1.02350E-04-3.13810E-05-3.04349E-05-6.15195E-06-1.84427E-19-1.01240E-19
 -1      1897 1.00759E-04-3.05376E-05-3.00846E-05-6.55575E-06-4.72787E-19 3.29698E-19
 -1      1898 1.04089E-04-3.23987E-05-3.06926E-05-6.84786E-06-1.19395E-20-5.51392E-19
 -1      1899 9.96247E-05-2.97478E-05-2.99621E-05-6.68792E-06-6.37021E-19 4.35838E-19
 -1      1900 9.79792E-05-2.87554E-05-2.96247E-05-6.36110E-06-6.35948E-19 4.55882E-19
 -1      1901 1.02089E-04-3.07158E-05-3.05674E-05-8.03576E-06-5.53897E-19-8.05757E-20
 -1      1902 9.67954E-05-2.78911E-05-2.95286E-05-5.45968E-06-1.22523E-18 5.36116E-19
 -1      1903 9.55552E-05-2.70824E-05-2.92868E-05-4.32571E-06-2.70462E-19 2.69873E-19
 -1      1904 9.96045E-05-2.85207E-05-3.04712E-05-7.24012E-06-6.20771E-19 4.94379E-19
 -1      1905 9.48089E-05-2.65281E-05-2.92346E-05-2.50486E-06 2.36382E-19-1.71068E-19
 -1      1906 9.43802E-05-2.62446E-05-2.91516E-05-8.53936E-07 5.36291E-19-1.97795E-20
 -1      1907 9.75245E-05-2.66457E-05-3.04158E-05-4.21020E-06-3.05398E-19 8.78583E-19
 -1      1908 9.44298E-05-2.62923E-05-2.91490E-05 1.29552E-06 5.18060E-19-9.30973E-19
 -1      1909 9.49574E-05-2.66643E-05-2.92453E-05 2.89493E-06 2.99175E-19-9.97431E-19
 -1      1910 9.67739E-05-2.59801E-05-3.03925E-05 2.67019E-07 1.53624E-19-8.99938E-19
 -1      1911 9.57674E-05-2.72857E-05-2.92914E-05 4.59109E-06-3.19537E-19-1.43873E-18
 -1      1912 9.70514E-05-2.81373E-05-2.95375E-05 5.59697E-06-7.25073E-19-1.28474E-18
 -1      1913 9.77080E-05-2.68696E-05-3.03940E-05 4.59977E-06-2.74674E-19-1.42293E-18
 -1      1914 9.82183E-05-2.90064E-05-2.96242E-05 6.31231E-06-8.96695E-19-1.19898E-18
 -1      1915 9.98246E-05-2.99805E-05-2.99511E-05 6.49302E-06-3.69850E-19-1.82055E-18
 -1      1916 9.98449E-05-2.88506E-05-3.04275E-05 7.27257E-06-7.34158E-19-1.67868E-18
 -1      1917 1.00867E-04-3.07208E-05-3.00584E-05 6.19133E-06 1.34015E-19-1.32164E-18
 -1      1918 1.02342E-04-3.15011E-05-3.03819E-05 5.67335E-06-2.36011E-19-7.11938E-19
 -1      1919 1.02217E-04-3.09974E-05-3.04987E-05 7.66645E-06-5.23481E-21-2.63637E-19
 -1      1920 1.02963E-04-3.19053E-05-3.04799E-05 4.69457E-06-5.97774E-19-6.52702E-19
 -1      1921 1.04003E-04-3.23453E-05-3.07288E-05 3.79878E-06-1.69953E-19-7.59663E-19
 -1      1922 1.03985E-04-3.25306E-05-3.05908E-05 6.17158E-06-6.41859E-20 2.06395E-19
 -1      1923 1.04144E-04-3.24060E-05-3.07884E-05 2.58273E-06-1.49888E-19-8.27346E-20
 -1      1924 1.04637E-04-3.25162E-05-3.09226E-05 1.62817E-06-9.03116E-19 5.65839E-20
 -1      1925 1.04781E-04-3.31626E-05-3.06654E-05 3.69218E-06-1.07236E-19 2.46505E-19
 -1      1926 1.04389E-04-3.23361E-05-3.09254E-05 5.11132E-07-1.51670E-18 8.70335E-20
 -1      1927 1.04374E-04-3.22061E-05-3.09385E-05-2.92785E-07-9.09604E-19-1.77104E-19
 -1      1928 1.04655E-04-3.30224E-05-3.06806E-05 1.09474E-06-1.22085E-18 1.44839E-18
 -1      1929 1.03871E-04-3.19031E-05-3.08812E-05-1.13864E-06-4.10970E-19-3.61114E-19
 -1      1930 1.03466E-04-3.16333E-05-3.07912E-05-1.70399E-06-2.68695E-19 2.31126E-19
 -1      1931 1.03857E-04-3.24105E-05-3.06098E-05-1.07030E-06-6.69659E-19 2.91196E-18
 -1      1932 1.02830E-04-3.12947E-05-3.06834E-05-2.23794E-06 9.65194E-19-6.76018E-19
 -1      1933 1.02174E-04-3.09637E-05-3.05211E-05-2.56140E-06 1.65395E-18-2.25574E-19
 -1      1934 1.02665E-04-3.16045E-05-3.04506E-05-2.58110E-06 7.34305E-20 2.78415E-18
 -1      1935 1.01492E-04-3.06378E-05-3.03795E-05-2.81519E-06 1.54637E-18-1.33841E-19
 -1      1936 1.00715E-04-3.02964E-05-3.01782E-05-2.93309E-06 2.09835E-18 1.39910E-18
 -1      1937 1.01296E-04-3.07840E-05-3.02204E-05-3.43621E-06 1.98587E-18 1.39808E-18
 -1      1938 1.00046E-04-3.00026E-05-3.00222E-05-2.96227E-06 2.14045E-18 7.51524E-19
 -1      1939 9.92523E-05-2.96792E-05-2.98122E-05-2.91774E-06 2.36412E-18 8.08414E-19
 -1      1940 9.99052E-05-3.00344E-05-2.99483E-05-3.73558E-06 1.58812E-18 1.24788E-18
 -1      1941 9.86341E-05-2.94203E-05-2.96598E-05-2.77282E-06 1.01071E-18 1.15763E-18
 -1      1942 9.79039E-05-2.91303E-05-2.94662E-05-2.59856E-06 3.51711E-19 4.50333E-19
 -1      1943 9.85876E-05-2.93779E-05-2.96669E-05-3.59767E-06 1.67753E-18 1.35844E-18
 -1      1944 9.73581E-05-2.89030E-05-2.93312E-05-2.31666E-06 4.66860E-19 7.35415E-19
 -1      1945 9.67530E-05-2.86586E-05-2.91728E-05-2.03270E-06-1.83173E-19 2.50934E-18
 -1      1946 9.74041E-05-2.88085E-05-2.94042E-05-3.11847E-06 4.72103E-19 2.20216E-18
 -1      1947 9.63440E-05-2.84969E-05-2.90697E-05-1.65970E-06 8.72014E-20 2.35779E-18
 -1      1948 9.59004E-05-2.83202E-05-2.89500E-05-1.30260E-06 3.70613E-19 2.57700E-18
 -1      1949 9.57261E-05-2.80736E-05-2.89993E-05-1.53965E-06-1.29271E-18 2.10460E-18
 -1      1950 9.64380E-05-2.83509E-05-2.91871E-05-2.39331E-06 1.96000E-19 3.48244E-18
 -1      1951 9.31744E-05-2.73515E-05-2.81819E-05 1.61354E-06 7.18231E-19 2.33831E-18
 -1      1952 9.43716E-05-2.74577E-05-2.86193E-05 2.68426E-06 9.15074E-19 2.64367E-18
 -1      1953 9.51999E-05-2.70382E-05-2.92176E-05 4.06359E-06 1.08984E-18 1.88154E-18
 -1      1954 9.21183E-05-2.73366E-05-2.77390E-05 3.56805E-07 5.12273E-19 1.91001E-18
 -1      1955 9.26153E-05-2.73698E-05-2.79121E-05 9.04699E-07 5.17471E-19 2.11333E-18
 -1      1956 9.35925E-05-2.73583E-05-2.83930E-05 1.59506E-06 6.87328E-19 1.60413E-18
 -1      1957 9.17395E-05-2.73730E-05-2.75700E-05-2.97052E-07 4.93794E-19 1.66669E-18
 -1      1958 9.18569E-05-2.73471E-05-2.76175E-05-4.59174E-09 4.79169E-19 1.73002E-18
 -1      1959 9.27588E-05-2.74724E-05-2.79899E-05 2.81823E-07 6.42756E-19 1.18797E-18
 -1      1960 9.17610E-05-2.74621E-05-2.75465E-05-6.24570E-07 1.22761E-19 1.09950E-18
 -1      1961 9.16749E-05-2.74010E-05-2.75305E-05-4.71231E-07 2.72145E-19 1.59625E-18
 -1      1962 9.24434E-05-2.75641E-05-2.78155E-05-4.13245E-07 3.55795E-19 7.97740E-19
 -1      1963 9.20059E-05-2.75832E-05-2.76026E-05-7.66492E-07 6.08329E-19 7.71144E-19
 -1      1964 9.18154E-05-2.75051E-05-2.75538E-05-6.93703E-07 2.49980E-19 8.46980E-19
 -1      1965 9.24473E-05-2.76682E-05-2.77707E-05-7.62120E-07 4.75810E-19 3.06245E-19
 -1      1966 9.23644E-05-2.77175E-05-2.77005E-05-8.01500E-07 2.10802E-19 8.27831E-19
 -1      1967 9.21270E-05-2.76342E-05-2.76362E-05-7.76126E-07 5.34400E-19 9.40118E-19
 -1      1968 9.26363E-05-2.77829E-05-2.78004E-05-9.10646E-07 4.85922E-19 4.55196E-19
 -1      1969 9.27701E-05-2.78525E-05-2.78177E-05-7.77841E-07 9.05961E-20 4.54748E-19
 -1      1970 9.25188E-05-2.77709E-05-2.77478E-05-7.79283E-07 1.12429E-19 7.18353E-19
 -1      1971 9.29236E-05-2.79001E-05-2.78716E-05-9.43892E-07 2.97184E-19 5.14665E-19
 -1      1972 9.31851E-05-2.79811E-05-2.79413E-05-7.27130E-07-4.40657E-19 8.47101E-19
 -1      1973 9.29378E-05-2.79047E-05-2.78712E-05-7.41662E-07-1.80987E-19 5.64360E-19
 -1      1974 9.32558E-05-2.80134E-05-2.79641E-05-9.15410E-07-1.29250E-19 5.00967E-19
 -1      1975 9.35914E-05-2.81006E-05-2.80647E-05-6.71196E-07 2.89027E-19 7.34764E-19
 -1      1976 9.33558E-05-2.80306E-05-2.79969E-05-6.89161E-07-8.41108E-20 7.81201E-19
 -1      1977 9.36026E-05-2.81191E-05-2.80666E-05-8.60970E-07-1.54914E-19 3.64327E-19
 -1      1978 9.39850E-05-2.82114E-05-2.81862E-05-6.25922E-07 8.39509E-19 7.07363E-19
 -1      1979 9.37614E-05-2.81470E-05-2.81209E-05-6.40132E-07 5.40023E-19 7.85194E-19
 -1      1980 9.39498E-05-2.82163E-05-2.81733E-05-8.05717E-07 5.18177E-19 1.35320E-21
 -1      1981 9.43724E-05-2.83162E-05-2.83072E-05-6.03688E-07 1.20583E-18 2.58854E-19
 -1      1982 9.41557E-05-2.82555E-05-2.82431E-05-6.08389E-07 1.09764E-18 6.01207E-19
 -1      1983 9.42955E-05-2.83064E-05-2.82826E-05-7.68363E-07 1.23616E-18 1.58192E-20
 -1      1984 9.47682E-05-2.84198E-05-2.84321E-05-6.15093E-07 7.16928E-19-1.07704E-19
 -1      1985 9.45492E-05-2.83598E-05-2.83665E-05-6.05215E-07 8.23223E-19 1.79241E-19
 -1      1986 9.46465E-05-2.83923E-05-2.83962E-05-7.63932E-07 9.98980E-19 1.97646E-19
 -1      1987 9.51946E-05-2.85288E-05-2.85675E-05-6.70257E-07-5.05159E-20-3.00779E-19
 -1      1988 9.49601E-05-2.84654E-05-2.84966E-05-6.40829E-07 2.69948E-19-4.08606E-19
 -1      1989 9.50174E-05-2.84787E-05-2.85184E-05-8.05723E-07 5.52573E-19-2.44793E-19
 -1      1990 9.56804E-05-2.86513E-05-2.87222E-05-7.79855E-07-3.38367E-19 2.00029E-20
 -1      1991 9.54133E-05-2.85794E-05-2.86410E-05-7.25521E-07-1.88965E-19-1.24296E-19
 -1      1992 9.54287E-05-2.85713E-05-2.86554E-05-9.06794E-07-2.19870E-19-6.60335E-19
 -1      1993 9.62614E-05-2.87974E-05-2.89072E-05-9.55913E-07 1.56584E-19-4.24279E-19
 -1      1994 9.59408E-05-2.87108E-05-2.88096E-05-8.70532E-07-9.84122E-20-1.29794E-19
 -1      1995 9.59073E-05-2.86774E-05-2.88157E-05-1.08111E-06 1.99548E-19-2.64230E-19
 -1      1996 9.69809E-05-2.89791E-05-2.91359E-05-1.21231E-06 1.26976E-19-9.75315E-19
 -1      1997 9.65813E-05-2.88703E-05-2.90144E-05-1.08868E-06 1.21658E-19-7.62264E-19
 -1      1998 9.64859E-05-2.88056E-05-2.90096E-05-1.34434E-06 3.63551E-19-7.36903E-19
 -1      1999 9.78899E-05-2.92110E-05-2.94239E-05-1.56477E-06-7.09517E-19-4.85967E-19
 -1      2000 9.73812E-05-2.90709E-05-2.92697E-05-1.39455E-06-4.88640E-19-1.14311E-18
 -1      2001 9.72033E-05-2.89662E-05-2.92493E-05-1.71414E-06-1.20318E-19-1.04144E-18
 -1      2002 9.90474E-05-2.95106E-05-2.97890E-05-2.02979E-06-3.41963E-19-3.66990E-19
 -1      2003 9.83943E-05-2.93284E-05-2.95919E-05-1.80395E-06-4.24991E-19-3.96974E-19
 -1      2004 9.81042E-05-2.91722E-05-2.95485E-05-2.20951E-06-6.23130E-19-7.48726E-19
 -1      2005 1.00519E-04-2.98993E-05-3.02504E-05-2.62153E-06 2.80442E-19-3.40837E-19
 -1      2006 9.96822E-05-2.96618E-05-2.99994E-05-2.33172E-06 6.30179E-20-1.50354E-19
 -1      2007 9.92392E-05-2.94395E-05-2.99219E-05-2.84841E-06-1.77574E-19-6.91568E-19
 -1      2008 1.02372E-04-3.04032E-05-3.08267E-05-3.34469E-06 8.90050E-19-9.68935E-19
 -1      2009 1.01312E-04-3.00950E-05-3.05108E-05-2.98668E-06 4.83853E-19-2.78512E-19
 -1      2010 1.00663E-04-2.97897E-05-3.03839E-05-3.64190E-06 7.13642E-19-6.50669E-19
 -1      2011 1.04669E-04-3.10543E-05-3.15319E-05-4.18017E-06 4.53940E-19-1.72795E-18
 -1      2012 1.03349E-04-3.06580E-05-3.11425E-05-3.76090E-06 7.84955E-19-1.50469E-18
 -1      2013 1.02430E-04-3.02527E-05-3.09454E-05-4.58219E-06 1.22532E-18-1.17140E-18
 -1      2014 1.07448E-04-3.18920E-05-3.23672E-05-5.05881E-06-4.22936E-19-7.95470E-19
 -1      2015 1.05852E-04-3.13896E-05-3.19031E-05-4.60979E-06-3.00832E-19-1.51000E-18
 -1      2016 1.04593E-04-3.08729E-05-3.16093E-05-5.62022E-06-7.80428E-20-1.09638E-18
 -1      2017 1.10693E-04-3.29625E-05-3.33091E-05-5.81816E-06-9.74260E-19 3.21820E-19
 -1      2018 1.08847E-04-3.23392E-05-3.27837E-05-5.41804E-06-4.53192E-19-8.96366E-20
 -1      2019 1.07186E-04-3.17166E-05-3.23628E-05-6.62776E-06-7.42646E-19 1.70174E-19
 -1      2020 1.14290E-04-3.43102E-05-3.42913E-05-6.14341E-06-4.25933E-19 7.76101E-19
 -1      2021 1.12297E-04-3.35649E-05-3.37446E-05-5.94968E-06-6.87362E-19 5.03674E-19
 -1      2022 1.10217E-04-3.28778E-05-3.31674E-05-7.34131E-06-6.92270E-19 7.87294E-19
 -1      2023 1.17960E-04-3.59429E-05-3.51889E-05-5.51605E-06-6.44030E-19 1.56413E-18
 -1      2024 1.16048E-04-3.51136E-05-3.46987E-05-5.79408E-06-4.83140E-19 1.25630E-18
 -1      2025 1.13632E-04-3.44652E-05-3.39515E-05-7.29928E-06-4.21865E-19 1.22037E-18
 -1      2026 1.21174E-04-3.77323E-05-3.58212E-05-3.25462E-06-1.01537E-18 2.15722E-18
 -1      2027 1.19738E-04-3.69497E-05-3.55039E-05-4.35827E-06-7.47143E-19 1.58040E-18
 -1      2028 1.17253E-04-3.65261E-05-3.46137E-05-5.82252E-06-6.19009E-19 2.15408E-18
 -1      2029 1.23092E-04-3.92232E-05-3.60046E-05 1.17137E-06-4.42164E-19 2.58618E-18
 -1      2030 1.22680E-04-3.87860E-05-3.59856E-05-1.03645E-06-6.60037E-19 2.43779E-18
 -1      2031 1.20645E-04-3.88340E-05-3.50583E-05-2.17349E-06-7.48354E-19 2.88223E-18
 -1      2032 1.22618E-04-3.94416E-05-3.56731E-05 7.36007E-06 3.19821E-19 2.31918E-18
 -1      2033 1.23779E-04-3.98399E-05-3.60112E-05 4.25663E-06 4.11234E-19 2.71182E-18
 -1      2034 1.22929E-04-4.05511E-05-3.52672E-05 3.88752E-06 2.00151E-19 3.43415E-18
 -1      2035 1.18879E-04-3.71633E-05-3.50085E-05 1.29162E-05-1.92525E-19 5.29501E-19
 -1      2036 1.21777E-04-3.88175E-05-3.56051E-05 1.01550E-05-6.79744E-20 1.31748E-18
 -1      2037 1.22769E-04-4.00957E-05-3.53715E-05 1.10510E-05 5.04216E-19 2.32889E-18
 -1      2038 1.12490E-04-3.23244E-05-3.43863E-05 1.35979E-05 1.49965E-19-1.03147E-18
 -1      2039 1.16362E-04-3.48903E-05-3.49925E-05 1.32925E-05 9.98572E-21-3.92759E-19
 -1      2040 1.19259E-04-3.61840E-05-3.55995E-05 1.55745E-05 6.47510E-19-1.39363E-19
 -1      2041 1.06859E-04-2.77114E-05-3.40721E-05 6.64812E-06 9.63076E-19-1.31698E-18
 -1      2042 1.09795E-04-2.96263E-05-3.44350E-05 9.99573E-06 6.21352E-19-1.30869E-18
 -1      2043 1.13793E-04-3.01411E-05-3.59780E-05 1.27323E-05 9.81446E-19-1.53382E-18
 -1      2044 1.06411E-04-2.73540E-05-3.41030E-05-4.67751E-06 1.13389E-18-1.54176E-18
 -1      2045 1.06467E-04-2.70300E-05-3.40818E-05 5.33910E-07 1.40163E-18-6.39857E-19
 -1      2046 1.10521E-04-2.64429E-05-3.62188E-05 1.94962E-06 1.28013E-18-1.32553E-18
 -1      2047 1.11701E-04-3.16573E-05-3.44520E-05-1.27851E-05 1.37334E-18-2.07632E-18
 -1      2048 1.08794E-04-2.93795E-05-3.40484E-05-9.21016E-06 1.19368E-18-1.76598E-18
 -1      2049 1.12454E-04-2.85037E-05-3.60803E-05-1.00831E-05 1.81773E-18-1.03340E-18
 -1      2050 1.18546E-04-3.67988E-05-3.50431E-05-1.33135E-05 1.23024E-18-2.66577E-18
 -1      2051 1.14616E-04-3.43583E-05-3.44314E-05-1.30742E-05 8.94149E-19-2.04998E-18
 -1      2052 1.17716E-04-3.44643E-05-3.57138E-05-1.54314E-05 1.21785E-18-1.06209E-18
 -1      2053 1.22790E-04-3.94671E-05-3.56201E-05-8.20679E-06-1.01095E-18-2.54842E-18
 -1      2054 1.19876E-04-3.81801E-05-3.50773E-05-1.03064E-05 3.97166E-19-2.67367E-18
 -1      2055 1.21873E-04-3.93001E-05-3.53936E-05-1.25980E-05 9.25929E-19-1.20493E-18
 -1      2056 1.23340E-04-3.94074E-05-3.58824E-05-1.84547E-06-6.03802E-19-8.25023E-19
 -1      2057 1.22272E-04-3.93084E-05-3.56270E-05-4.46718E-06-1.46081E-18-1.94902E-18
 -1      2058 1.22716E-04-4.06594E-05-3.51949E-05-5.63102E-06-1.34691E-18-5.81806E-20
 -1      2059 1.21165E-04-3.78709E-05-3.56526E-05 2.99803E-06-1.27977E-18 1.08285E-18
 -1      2060 1.21741E-04-3.84629E-05-3.57523E-05 9.76384E-07-5.32691E-19 2.10739E-19
 -1      2061 1.20790E-04-3.93338E-05-3.49544E-05 1.01972E-06-1.30319E-18 3.84669E-19
 -1      2062 1.17559E-04-3.59365E-05-3.49737E-05 5.65389E-06-2.57710E-18 3.26567E-18
 -1      2063 1.19183E-04-3.67834E-05-3.53569E-05 4.51614E-06-1.90979E-18 2.33937E-18
 -1      2064 1.17420E-04-3.70073E-05-3.45022E-05 5.44551E-06-3.01744E-18 2.45229E-18
 -1      2065 1.13489E-04-3.41464E-05-3.40163E-05 6.56064E-06-2.45758E-18 2.86223E-18
 -1      2066 1.15590E-04-3.50030E-05-3.45583E-05 6.13742E-06-2.65375E-18 2.76072E-18
 -1      2067 1.13612E-04-3.47503E-05-3.38214E-05 7.54710E-06-2.42026E-18 1.96785E-18
 -1      2068 1.09513E-04-3.26529E-05-3.29577E-05 6.40493E-06 3.74159E-20 4.43657E-18
 -1      2069 1.11692E-04-3.34214E-05-3.35480E-05 6.42377E-06-1.11348E-18 3.35838E-18
 -1      2070 1.09904E-04-3.29420E-05-3.29934E-05 7.99494E-06-1.52675E-18 2.54696E-18
 -1      2071 1.05907E-04-3.14458E-05-3.19277E-05 5.72582E-06 2.70504E-18 3.49253E-18
 -1      2072 1.07936E-04-3.21007E-05-3.24929E-05 5.96888E-06 1.43653E-18 4.17306E-18
 -1      2073 1.06526E-04-3.15812E-05-3.21213E-05 7.49977E-06 1.43795E-18 3.71794E-18
 -1      2074 1.02790E-04-3.04733E-05-3.10036E-05 4.84367E-06 8.59330E-19 2.76018E-18
 -1      2075 1.04560E-04-3.10177E-05-3.15036E-05 5.18047E-06 2.35179E-18 3.67609E-18
 -1      2076 1.03567E-04-3.05578E-05-3.12890E-05 6.56278E-06 2.28239E-18 4.42387E-18
 -1      2077 1.00199E-04-2.96858E-05-3.02253E-05 3.90200E-06 2.02407E-18 3.21095E-18
 -1      2078 1.01667E-04-3.01306E-05-3.06408E-05 4.27548E-06 9.41133E-19 2.99212E-18
 -1      2079 1.01052E-04-2.97638E-05-3.05510E-05 5.46129E-06 1.24411E-18 5.02879E-18
 -1      2080 9.81400E-05-2.90481E-05-2.96124E-05 2.93089E-06-2.56797E-19 1.25469E-18
 -1      2081 9.92913E-05-2.94033E-05-2.99344E-05 3.33245E-06 8.47648E-19 1.45724E-18
 -1      2082 9.89755E-05-2.91232E-05-2.99377E-05 4.30493E-06 1.50726E-18 3.64403E-18
 -1      2083 9.66158E-05-2.85425E-05-2.91694E-05 1.90145E-06 1.06958E-18 1.80942E-18
 -1      2084 9.74330E-05-2.88109E-05-2.93952E-05 2.35010E-06-3.97311E-19 1.64634E-18
 -1      2085 9.73199E-05-2.85837E-05-2.94613E-05 3.10870E-06-5.42131E-19 2.42611E-18
 -1      2086 9.57415E-05-2.82378E-05-2.89188E-05 1.08067E-06 3.18959E-19 3.46011E-18
 -1      2087 9.62621E-05-2.83964E-05-2.90748E-05 1.56227E-06 5.46894E-19 2.67268E-18
 -1      2088 9.62360E-05-2.81856E-05-2.91693E-05 2.11950E-06 3.33771E-19 4.45399E-18
 -1      2089 9.56061E-05-2.79455E-05-2.89992E-05 1.36282E-06 1.39155E-19 5.99040E-18
 -1      2090 9.38029E-05-2.40940E-05-2.98853E-05 3.01937E-06 7.87358E-19-3.37983E-18
 -1      2091 9.41836E-05-2.48885E-05-2.96907E-05 3.03603E-06 1.21498E-18-1.59910E-18
 -1      2092 9.45560E-05-2.55972E-05-2.95584E-05 2.92950E-06 4.81439E-19-1.60868E-19
 -1      2093 9.49317E-05-2.63577E-05-2.93772E-05 2.68645E-06 2.51605E-19 1.18274E-18
 -1      2094 9.44701E-05-2.53497E-05-2.96204E-05 3.78373E-06-3.71624E-19-5.29423E-19
 -1      2095 9.51637E-05-2.68739E-05-2.92669E-05 2.31283E-06-1.61581E-19 2.10634E-18
 -1      2096 9.54531E-05-2.74965E-05-2.91131E-05 1.86944E-06-4.77667E-19 4.49014E-18
 -1      2097 9.57201E-05-2.75892E-05-2.91906E-05 2.28089E-06-1.23122E-18 3.84724E-18
 -1      2098 9.51882E-05-2.65900E-05-2.94023E-05 3.22863E-06-1.17508E-18 2.16415E-18
 -1      2099 9.31645E-05-2.27658E-05-3.01856E-05 2.61661E-06-1.04115E-18-7.09517E-18
 -1      2100 9.34837E-05-2.34640E-05-3.00106E-05 2.84200E-06-3.43823E-19-5.37419E-18
 -1      2101 9.36235E-05-2.39660E-05-2.98451E-05 3.68741E-06-7.76804E-19-6.17048E-18
 -1      2102 9.26934E-05-2.17422E-05-3.04252E-05 1.82325E-06-1.72579E-18-3.41763E-18
 -1      2103 9.29204E-05-2.22647E-05-3.02916E-05 2.20545E-06-1.03457E-18-5.22264E-18
 -1      2104 9.29344E-05-2.27935E-05-3.00468E-05 3.02062E-06-2.59395E-19-6.54019E-18
 -1      2105 9.24522E-05-2.11773E-05-3.05643E-05 8.01740E-07-2.24492E-18 9.14025E-19
 -1      2106 9.25567E-05-2.14440E-05-3.04939E-05 1.26363E-06-1.39401E-18 3.23527E-20
 -1      2107 9.24727E-05-2.19676E-05-3.01992E-05 1.92471E-06 1.85377E-19-2.32348E-18
 -1      2108 9.24532E-05-2.11238E-05-3.05856E-05-2.75859E-07-1.81011E-18 1.88976E-18
 -1      2109 9.24310E-05-2.11104E-05-3.05864E-05 1.90554E-07-2.25462E-18 1.79441E-18
 -1      2110 9.22845E-05-2.15927E-05-3.02783E-05 6.06196E-07-9.67257E-19 1.01690E-18
 -1      2111 9.26737E-05-2.15591E-05-3.04898E-05-1.25328E-06-3.27168E-19 1.21776E-19
 -1      2112 9.25390E-05-2.12826E-05-3.05588E-05-8.47253E-07-1.47009E-18 1.05588E-18
 -1      2113 9.23677E-05-2.16920E-05-3.02731E-05-7.23598E-07-1.99431E-18 2.01010E-18
 -1      2114 9.30641E-05-2.23961E-05-3.02938E-05-2.01110E-06-1.18948E-18-2.76134E-19
 -1      2115 9.28446E-05-2.19072E-05-3.04189E-05-1.71252E-06-1.99868E-19-7.48289E-19
 -1      2116 9.26818E-05-2.22201E-05-3.01852E-05-1.88039E-06-1.19119E-18 7.25942E-20
 -1      2117 9.35530E-05-2.34859E-05-3.00310E-05-2.47202E-06-1.15010E-18-4.84791E-18
 -1      2118 9.32857E-05-2.28681E-05-3.01910E-05-2.30817E-06-1.20599E-18-2.00862E-18
 -1      2119 9.31584E-05-2.30713E-05-3.00293E-05-2.72652E-06-3.53046E-19-1.65174E-18
 -1      2120 9.40969E-05-2.47248E-05-2.97280E-05-2.62224E-06-4.60702E-19 1.69991E-18
 -1      2121 9.38053E-05-2.40370E-05-2.99068E-05-2.59768E-06-8.58099E-19-8.67745E-19
 -1      2122 9.37261E-05-2.41269E-05-2.98253E-05-3.19909E-06 9.28508E-19-2.76108E-18
 -1      2123 9.46328E-05-2.59543E-05-2.94261E-05-2.45209E-06-1.17275E-18 1.03540E-18
 -1      2124 9.43502E-05-2.52871E-05-2.95990E-05-2.56799E-06-1.06466E-18 1.33905E-18
 -1      2125 9.43293E-05-2.52730E-05-2.95973E-05-3.27725E-06 7.53262E-19 1.47451E-18
 -1      2126 9.51301E-05-2.70787E-05-2.91602E-05-1.98684E-06-2.45481E-18 2.16299E-19
 -1      2127 9.48694E-05-2.64838E-05-2.93059E-05-2.23375E-06-1.84120E-18 7.33891E-20
 -1      2128 9.49164E-05-2.63899E-05-2.93722E-05-2.97392E-06-1.41098E-18 3.44608E-19
 -1      2129 5.90989E-05-4.20037E-05-8.04242E-06 3.89530E-05-7.98752E-19 4.65905E-18
 -1      2130 4.14352E-05-4.22636E-05-1.25645E-06 3.03424E-05-2.45301E-18 4.96922E-18
 -1      2131 1.23510E-05-3.07765E-05 6.99714E-06 2.76022E-06-1.25689E-18-1.09140E-18
 -1      2132 1.31435E-05-3.27752E-05 7.27388E-06-7.46928E-06-1.10284E-18-2.65079E-18
 -1      2133 2.74256E-05-3.62113E-05 2.75393E-06 2.51435E-05-2.28233E-18 2.85069E-18
 -1      2134 1.83174E-05-3.52816E-05 5.97310E-06 1.57598E-05-1.72287E-18 6.70003E-19
 -1      2135 1.03700E-04-4.74368E-05-2.39329E-05 4.04266E-05 4.92973E-19 4.76880E-18
 -1      2136 8.55794E-05-4.90755E-05-1.61102E-05 3.83730E-05-5.65394E-19 4.53269E-18
 -1      2137 1.39704E-04-4.69513E-05-3.92667E-05 3.20602E-05 2.06676E-18 2.90109E-18
 -1      2138 1.18090E-04-4.82428E-05-3.05832E-05 3.27067E-05 9.34277E-19 3.65749E-18
 -1      2139 1.23322E-04-5.85479E-05-2.77997E-05 3.03016E-05-3.25261E-19 2.97605E-18
 -1      2140 8.72691E-05-8.73107E-06-3.37499E-05-1.05390E-05-8.29285E-19-2.06663E-18
 -1      2141 8.79786E-05-9.26536E-06-3.38204E-05-1.21189E-05-9.81341E-19-1.87459E-18
 -1      2142 9.04703E-05-1.30303E-05-3.32170E-05-1.18287E-05-1.15732E-18-1.64641E-18
 -1      2143 8.86798E-05-1.10608E-05-3.32982E-05-9.40380E-06-8.15850E-19-1.98666E-18
 -1      2144 1.82816E-04-3.02277E-05-6.42863E-05 6.45095E-06 2.10488E-18 2.22600E-18
 -1      2145 1.75479E-04-3.28060E-05-6.01681E-05 1.42753E-05 1.96469E-18 4.00520E-18
 -1      2146 1.85415E-04-2.54416E-05-6.72610E-05-1.47571E-06 3.89466E-18 3.04350E-19
 -1      2147 1.79815E-04-2.37251E-05-6.60468E-05 3.50546E-06 3.21068E-18 1.06006E-18
 -1      2148 1.80542E-04-2.84686E-05-6.41729E-05-8.77621E-06 3.29792E-18 6.81438E-19
 -1      2149 1.87489E-04-2.80286E-05-6.70799E-05-2.40864E-06 3.32376E-18 1.06334E-18
 -1      2150 1.62141E-04-1.50902E-05-6.17862E-05 1.78284E-06 3.26955E-18 1.50311E-18
 -1      2151 1.62168E-04-3.68302E-05-5.34553E-05-1.69136E-05 2.28455E-18-5.50571E-20
 -1      2152 1.79519E-04-3.58205E-05-6.01238E-05-1.47344E-05 3.27272E-18 1.01347E-18
 -1      2153 1.33185E-04-4.50933E-05-3.80962E-05-2.95072E-05 3.68036E-19-1.59496E-18
 -1      2154 1.53174E-04-4.45825E-05-4.59721E-05-2.59565E-05 9.42324E-19-1.17907E-18
 -1      2155 9.77387E-05-4.59257E-05-2.31905E-05-3.57964E-05 1.11808E-19-1.21465E-18
 -1      2156 1.19445E-04-4.48686E-05-3.16724E-05-3.87117E-05 1.34678E-19-1.32052E-18
 -1      2157 1.36789E-04-5.54044E-05-3.44829E-05-2.40354E-05-5.77888E-19-1.00077E-18
 -1      2158 6.07751E-05-4.49284E-05-8.00529E-06-3.52983E-05 1.78216E-18 1.25230E-18
 -1      2159 7.83418E-05-4.33246E-05-1.53798E-05-4.08552E-05 9.09290E-19 2.14088E-19
 -1      2160 2.81526E-05-3.92233E-05 3.22224E-06-2.30999E-05 2.29165E-18-4.74974E-19
 -1      2161 4.04515E-05-3.74747E-05-1.95653E-06-3.30494E-05 2.00577E-18 6.55815E-19
 -1      2162 1.28576E-05-3.63319E-05 8.41288E-06-5.42926E-06 2.00164E-18-1.02364E-18
 -1      2163 1.68997E-05-3.56152E-05 6.65001E-06-1.41594E-05 2.07629E-18-6.91602E-19
 -1      2164 1.47486E-05-3.36653E-05 6.89022E-06 1.45633E-05 1.83806E-18-1.19940E-18
 -1      2165 1.20844E-05-3.58159E-05 8.53488E-06 5.13219E-06 2.01652E-18-8.70750E-19
 -1      2166 3.59894E-05-3.47192E-05-1.17893E-06 3.46930E-05 2.01848E-18-1.54901E-18
 -1      2167 2.48784E-05-3.70188E-05 3.79919E-06 2.44215E-05 2.58663E-18-1.61148E-18
 -1      2168 7.56351E-05-4.22965E-05-1.43784E-05 4.42562E-05 1.16975E-18-1.80270E-18
 -1      2169 5.83638E-05-4.27010E-05-7.49749E-06 3.90032E-05 2.40219E-18-1.49361E-18
 -1      2170 1.09347E-04-4.01697E-05-2.92997E-05 4.26667E-05 5.90382E-19-1.89354E-18
 -1      2171 9.08998E-05-4.33413E-05-2.11316E-05 3.94362E-05 4.49351E-19-1.29935E-18
 -1      2172 1.42966E-04-3.91942E-05-4.37519E-05 3.34057E-05-4.18011E-19-6.97955E-19
 -1      2173 1.24162E-04-4.05030E-05-3.62065E-05 3.39737E-05 8.24798E-19-1.14349E-18
 -1      2174 1.64732E-04-3.34144E-05-5.54507E-05 1.97353E-05-3.88153E-19-1.89481E-18
 -1      2175 1.50784E-04-3.47480E-05-4.94614E-05 2.59555E-05-2.28487E-19-1.68941E-18
 -1      2176 1.47687E-04-4.31232E-05-4.40945E-05 1.47424E-05 9.86476E-19-2.35052E-19
 -1      2177 1.81813E-04-2.70168E-05-6.47619E-05 8.68109E-06-2.13961E-18-1.72689E-18
 -1      2178 1.69737E-04-2.60162E-05-6.09160E-05 1.30611E-05-1.62334E-18-1.67501E-18
 -1      2179 1.85557E-04-2.51888E-05-6.72468E-05-2.34999E-06-1.02449E-18-2.67541E-18
 -1      2180 1.84307E-04-2.53842E-05-6.68039E-05 5.47094E-06-1.86517E-18-2.57985E-18
 -1      2181 1.78358E-04-2.69240E-05-6.37670E-05-1.34201E-05 4.65868E-20-1.45139E-18
 -1      2182 1.84930E-04-2.66022E-05-6.62750E-05-6.30234E-06-5.87417E-19-2.33421E-18
 -1      2183 1.60257E-04-3.06059E-05-5.50699E-05-2.14560E-05 3.68036E-19-6.66615E-19
 -1      2184 1.76107E-04-3.07214E-05-6.06467E-05-1.88272E-05 1.05604E-18-7.24213E-19
 -1      2185 1.63177E-04-2.27064E-05-5.89286E-05-3.73299E-06 5.88688E-20-1.48273E-18
 -1      2186 1.35614E-04-3.97205E-05-4.12338E-05-2.98280E-05 1.28241E-18-2.44200E-18
 -1      2187 1.52394E-04-3.81541E-05-4.81464E-05-2.69893E-05 3.83071E-19-1.72964E-18
 -1      2188 1.06174E-04-4.49802E-05-2.68412E-05-3.71075E-05 1.78385E-18-8.10611E-19
 -1      2189 1.24880E-04-4.33129E-05-3.45523E-05-3.80015E-05 1.27690E-18-2.46741E-18
 -1      2190 6.76416E-05-4.30030E-05-1.17836E-05-3.86171E-05 1.32603E-18-9.44124E-19
 -1      2191 8.61823E-05-4.12281E-05-1.94364E-05-4.41080E-05 1.87533E-18 4.84503E-19
 -1      2192 3.69237E-05-4.06856E-05 5.85803E-08-3.09802E-05-1.41158E-18-4.20954E-18
 -1      2193 4.95569E-05-3.79988E-05-5.65802E-06-3.81552E-05 2.67662E-19-2.36627E-18
 -1      2194 1.71693E-05-3.55858E-05 6.61256E-06-1.61177E-05-1.29681E-18-3.26108E-18
 -1      2195 2.32722E-05-3.43498E-05 3.75030E-06-2.45041E-05-1.14942E-18-4.45878E-18
 -1      2196 1.77603E-05-2.37357E-05 2.06887E-06-1.42977E-05-1.79889E-19-2.78674E-18
 -1      2197 1.71416E-04-3.89090E-05-5.54351E-05 2.12535E-05 2.32039E-18 3.88026E-18
 -1      2198 1.52110E-04-4.03797E-05-4.78290E-05 2.21946E-05 2.66540E-18 3.20983E-18
 -1      2199 1.64312E-04-3.45726E-05-5.44577E-05 1.69955E-06 1.54308E-18 1.57929E-18
 -1      2200 9.71626E-05-2.43061E-05-3.12970E-05-1.00133E-05-1.35996E-18 4.02566E-19
 -1      2201 1.50395E-04-5.12820E-05-4.20303E-05 1.45224E-05 8.08705E-19 2.03796E-18
 -1      2202 9.63260E-05-2.31021E-05-3.14483E-05-1.03950E-05-1.44137E-18-2.76292E-19
 -1      2203 4.12429E-05-3.55967E-05-2.82085E-06 3.37923E-05-2.04813E-18 4.16211E-18
 -1      2204 1.90060E-05-2.48552E-05 2.08757E-06 1.14287E-05-2.61733E-19 4.77303E-19
 -1      2205 9.53255E-05-2.74295E-05-2.90917E-05-1.89613E-06-2.22637E-18-7.46281E-19
 -1      2206 7.98498E-05-4.87120E-05-1.36360E-05 3.99124E-05-9.92723E-19 4.60108E-18
 -1      2207 7.52839E-05-4.61396E-05-1.19979E-05 4.15267E-05-1.07933E-18 4.11002E-18
 -1      2208 9.95213E-05-5.54880E-05-1.92785E-05 3.82729E-05-8.88961E-19 4.70461E-18
 -1      2209 3.56873E-05-3.37760E-05-1.40100E-06-3.36642E-05-9.34489E-19-4.53925E-18
 -1      2210 6.98656E-05-4.51486E-05-1.08947E-05-4.34829E-05 4.72221E-19-1.77745E-18
 -1      2211 1.08669E-04-5.29513E-05-2.36998E-05-3.83779E-05 2.18535E-18-1.40353E-18
 -1      2212 1.54178E-04-3.72179E-05-4.94847E-05-1.06362E-05 1.45171E-18-8.38986E-19
 -1      2213 1.65396E-04-1.54638E-05-6.28492E-05-6.66715E-07-7.60636E-19-1.98926E-18
 -1      2214 1.58304E-04-2.81414E-05-5.49382E-05 4.41280E-06-8.83032E-19-1.01475E-18
 -1      2215 1.27674E-04-5.11252E-05-3.24952E-05 3.01101E-05 1.66061E-18 4.93397E-20
 -1      2216 9.57329E-05-5.10974E-05-1.92697E-05 4.12317E-05 2.17349E-18-1.16467E-18
 -1      2217 5.64305E-05-3.95380E-05-7.33599E-06 4.20039E-05 2.31791E-18-1.51989E-18
 -1      2218 2.32619E-05-2.78658E-05 1.46126E-06 2.42874E-05 1.81117E-18-1.14688E-18
 -1      2219 1.37556E-05-2.55458E-05 4.23107E-06-7.45582E-07 5.41678E-19-1.24387E-18
 -1      2220 2.68332E-05-3.00650E-05 8.22606E-07-2.45811E-05 9.27078E-19-4.92973E-19
 -1      2221 1.03012E-04-5.44246E-05-2.10100E-05-3.73524E-05-2.74439E-19 1.29173E-20
 -1      2222 1.65856E-04-2.69886E-05-5.84081E-05 2.42088E-06 2.86848E-18 2.37296E-18
 -1      2223 1.64434E-04-2.00541E-05-6.08131E-05-2.05002E-06 3.08235E-18 3.82012E-19
 -1      2224 1.57788E-04-4.52744E-05-4.75603E-05-7.65607E-06 8.56456E-19 6.33581E-19
 -1      2225 6.04316E-05-4.32970E-05-7.79436E-06-3.89499E-05 5.05679E-19 1.98597E-18
 -1      2226 1.63088E-04-1.60433E-05-6.17806E-05 9.93271E-08-1.55007E-18-1.12137E-18
 -1      2227 1.37217E-04-5.07937E-05-3.66487E-05-2.26358E-05 1.08547E-18-1.89989E-18
 -1      2228 9.51883E-05-2.63690E-05-2.94808E-05 4.20757E-06 1.01890E-18 1.12798E-18
 -1      2229 9.61645E-05-2.58549E-05-3.00591E-05 6.01265E-06 1.21958E-18 1.30296E-18
 -1      2230 8.81586E-05-1.11899E-05-3.30260E-05-3.66625E-06 2.23994E-20-1.85151E-18
 -1      2231 8.83900E-05-1.14595E-05-3.30075E-05-4.80874E-06-1.78142E-19-1.89156E-18
 -1      2232 8.87382E-05-1.19416E-05-3.29582E-05-5.82853E-06-3.48941E-19-1.88599E-18
 -1      2233 8.91394E-05-1.24112E-05-3.29291E-05-7.00113E-06-5.66737E-19-1.89704E-18
 -1      2234 8.99091E-05-1.38279E-05-3.26056E-05-4.91065E-06-2.74662E-19-1.71796E-18
 -1      2235 8.78172E-05-1.07325E-05-3.30704E-05 6.16171E-07 5.93801E-19-1.84647E-18
 -1      2236 8.78127E-05-1.07275E-05-3.30706E-05-4.96274E-07 4.20690E-19-1.81059E-18
 -1      2237 8.79962E-05-1.09570E-05-3.30512E-05 2.76132E-06 7.81251E-19-1.84347E-18
 -1      2238 8.78827E-05-1.08242E-05-3.30610E-05 1.64053E-06 6.80811E-19-1.85517E-18
 -1      2239 8.91352E-05-1.27783E-05-3.27275E-05 1.05103E-06 5.57196E-19-1.75490E-18
 -1      2240 8.84260E-05-1.15031E-05-3.30045E-05 4.89355E-06 1.00511E-18-1.66461E-18
 -1      2241 8.81891E-05-1.12269E-05-3.30235E-05 3.76903E-06 8.86755E-19-1.78840E-18
 -1      2242 8.93984E-05-1.31336E-05-3.26866E-05 3.02508E-06 7.81553E-19-1.69417E-18
 -1      2243 8.91981E-05-1.24838E-05-3.29234E-05 7.08386E-06 1.30840E-18-1.15441E-18
 -1      2244 8.87842E-05-1.19984E-05-3.29538E-05 5.91092E-06 1.13684E-18-1.40137E-18
 -1      2245 8.99505E-05-1.38806E-05-3.26005E-05 4.98216E-06 1.06606E-18-1.39230E-18
 -1      2246 9.04579E-05-1.40897E-05-3.27935E-05 9.23460E-06 1.58044E-18-7.88257E-19
 -1      2247 8.97826E-05-1.32803E-05-3.28404E-05 8.05497E-06 1.39919E-18-9.72553E-19
 -1      2248 9.08778E-05-1.51380E-05-3.24530E-05 6.88100E-06 1.27642E-18-1.01747E-18
 -1      2249 9.24439E-05-1.66578E-05-3.25802E-05 1.11199E-05 1.69930E-18-2.44806E-19
 -1      2250 9.13713E-05-1.53198E-05-3.26539E-05 1.00394E-05 1.59706E-18-5.94108E-19
 -1      2251 9.22904E-05-1.70886E-05-3.22087E-05 8.52837E-06 1.49578E-18-5.63105E-19
 -1      2252 9.42059E-05-2.71078E-05-2.87396E-05 1.77708E-06 8.02249E-19 7.46952E-19
 -1      2253 9.48080E-05-2.68851E-05-2.90384E-05 2.75023E-06 8.73870E-19 9.75666E-19
 -1      2254 9.53188E-05-2.58414E-05-2.97840E-05 4.37486E-06 1.09158E-18 4.03181E-19
 -1      2255 9.58927E-05-2.50896E-05-3.02975E-05-6.20488E-06-1.24336E-18-5.92208E-19
 -1      2256 9.52308E-05-2.58427E-05-2.97537E-05-4.29027E-06-1.10661E-18-6.08259E-19
 -1      2257 1.52626E-04-5.00284E-05-4.43514E-05 1.78543E-06 1.02544E-19 1.66378E-18
 -1      2258 1.42910E-04-5.66823E-05-3.70888E-05 9.52012E-06 8.03623E-20 1.14392E-18
 -1      2259 5.36395E-05-3.57242E-05-7.51686E-06 3.92822E-05-1.26377E-18 5.69037E-18
 -1      2260 3.89885E-05-2.89844E-05-4.06629E-06 3.10389E-05-9.97593E-19 4.18625E-18
 -1      2261 9.51180E-05-2.65305E-05-2.93374E-05-2.95208E-06-9.59417E-19-4.82518E-19
 -1      2262 9.46459E-05-2.68996E-05-2.90343E-05-1.88892E-06-8.33697E-19-6.54270E-19
 -1      2263 9.53218E-05-2.53607E-05-2.99912E-05-4.30149E-06-1.07131E-18-8.32413E-19
 -1      2264 9.44512E-05-2.72291E-05-2.87711E-05-1.03647E-06-7.70235E-19-6.65587E-19
 -1      2265 9.41928E-05-2.74416E-05-2.86051E-05-4.33237E-07-5.65185E-19-8.39962E-19
 -1      2266 9.50179E-05-2.66918E-05-2.92960E-05-1.92979E-06-8.66011E-19-9.43481E-19
 -1      2267 9.40449E-05-2.76209E-05-2.84448E-05 7.72687E-08-4.02107E-19-8.18349E-19
 -1      2268 9.39473E-05-2.77628E-05-2.83621E-05 4.10330E-07-3.77034E-19-7.55609E-19
 -1      2269 9.47146E-05-2.74181E-05-2.88544E-05-4.46774E-07-5.56992E-19-9.37024E-19
 -1      2270 9.38645E-05-2.78707E-05-2.82703E-05 6.98278E-07-4.93456E-19-7.72184E-19
 -1      2271 9.38727E-05-2.79758E-05-2.82390E-05 8.68202E-07-4.39440E-19-8.53254E-19
 -1      2272 9.45156E-05-2.78420E-05-2.85850E-05 4.32565E-07-5.13567E-19-7.73017E-19
 -1      2273 9.38445E-05-2.80457E-05-2.81929E-05 1.01420E-06-3.16807E-19-8.49786E-19
 -1      2274 9.39170E-05-2.81275E-05-2.81932E-05 1.08582E-06-6.05652E-20-9.23424E-19
 -1      2275 9.44275E-05-2.81054E-05-2.84315E-05 9.18820E-07-4.10477E-19-6.82548E-19
 -1      2276 9.39280E-05-2.81744E-05-2.81772E-05 1.14448E-06 3.67571E-20-1.15039E-18
 -1      2277 9.40363E-05-2.82388E-05-2.81968E-05 1.15936E-06-2.14686E-19-1.06465E-18
 -1      2278 9.44259E-05-2.82745E-05-2.83560E-05 1.15598E-06-1.89687E-19-1.21834E-18
 -1      2279 9.40732E-05-2.82702E-05-2.82007E-05 1.16826E-06-5.15390E-19-9.74205E-19
 -1      2280 9.41995E-05-2.83208E-05-2.82317E-05 1.15423E-06-5.59827E-19-1.04076E-18
 -1      2281 9.44838E-05-2.83827E-05-2.83327E-05 1.24297E-06-3.14438E-19-1.16848E-18
 -1      2282 9.42528E-05-2.83409E-05-2.82487E-05 1.13972E-06-3.34434E-19-7.67555E-19
 -1      2283 9.43872E-05-2.83805E-05-2.82865E-05 1.11610E-06-1.48831E-19-4.75354E-19
 -1      2284 9.45799E-05-2.84486E-05-2.83445E-05 1.24862E-06-3.05710E-19-1.04068E-18
 -1      2285 9.44510E-05-2.83921E-05-2.83124E-05 1.09702E-06-1.89856E-19-4.28260E-19
 -1      2286 9.45893E-05-2.84229E-05-2.83546E-05 1.07764E-06-1.41088E-19-5.72878E-19
 -1      2287 9.47000E-05-2.84839E-05-2.83801E-05 1.22175E-06-1.81005E-19-8.47631E-19
 -1      2288 9.46609E-05-2.84283E-05-2.83871E-05 1.06780E-06-1.93966E-20-6.91687E-19
 -1      2289 9.48032E-05-2.84529E-05-2.84330E-05 1.06285E-06 1.57425E-19-5.31030E-19
 -1      2290 9.48362E-05-2.84965E-05-2.84327E-05 1.19765E-06-1.26197E-19-6.05184E-19
 -1      2291 9.48823E-05-2.84539E-05-2.84711E-05 1.07261E-06-1.42161E-19-7.99423E-19
 -1      2292 9.50320E-05-2.84749E-05-2.85210E-05 1.08980E-06-4.64427E-19-9.57962E-19
 -1      2293 9.49861E-05-2.84926E-05-2.84985E-05 1.20246E-06-1.20279E-19-7.78986E-19
 -1      2294 9.51203E-05-2.84736E-05-2.85645E-05 1.12708E-06-1.57852E-19-1.01229E-18
 -1      2295 9.52831E-05-2.84941E-05-2.86196E-05 1.17225E-06 1.49743E-19-8.13103E-19
 -1      2296 9.51515E-05-2.84775E-05-2.85760E-05 1.25593E-06-1.81040E-19-1.13041E-18
 -1      2297 9.53839E-05-2.84927E-05-2.86690E-05 1.24302E-06 1.04108E-19-5.45666E-19
 -1      2298 9.55673E-05-2.85164E-05-2.87310E-05 1.32036E-06-8.74698E-20-3.72409E-19
 -1      2299 9.53379E-05-2.84566E-05-2.86650E-05 1.37302E-06 1.15168E-19 2.57128E-20
 -1      2300 9.56855E-05-2.85180E-05-2.87871E-05 1.42867E-06-3.71214E-19-3.73248E-19
 -1      2301 9.58983E-05-2.85496E-05-2.88578E-05 1.54042E-06-9.58328E-20-5.40061E-20
 -1      2302 9.55537E-05-2.84366E-05-2.87664E-05 1.56452E-06-1.75863E-19-1.51759E-19
 -1      2303 9.60402E-05-2.85584E-05-2.89214E-05 1.68789E-06-1.20789E-21-1.90766E-19
 -1      2304 9.62919E-05-2.86038E-05-2.90025E-05 1.83351E-06-2.33292E-20-5.77828E-20
 -1      2305 9.58103E-05-2.84263E-05-2.88813E-05 1.83656E-06 4.74223E-20-3.31497E-19
 -1      2306 9.64653E-05-2.86260E-05-2.90741E-05 2.01821E-06-3.45344E-19-2.36304E-19
 -1      2307 9.67656E-05-2.86929E-05-2.91669E-05 2.19294E-06-3.53812E-19-5.84441E-19
 -1      2308 9.61223E-05-2.84385E-05-2.90103E-05 2.18900E-06-4.70191E-19-2.49779E-19
 -1      2309 9.69801E-05-2.87375E-05-2.92463E-05 2.40758E-06-8.65231E-22-3.87647E-19
 -1      2310 9.73375E-05-2.88359E-05-2.93510E-05 2.60022E-06 3.09457E-20-1.47975E-19
 -1      2311 9.65075E-05-2.84916E-05-2.91532E-05 2.61245E-06-8.76147E-20-1.23751E-19
 -1      2312 9.76051E-05-2.89157E-05-2.94369E-05 2.82950E-06-9.57544E-21-1.33714E-19
 -1      2313 9.80259E-05-2.90581E-05-2.95521E-05 3.01953E-06 3.03422E-19-8.12041E-19
 -1      2314 9.69881E-05-2.86122E-05-2.93081E-05 3.08373E-06 2.00364E-19-3.86284E-20
 -1      2315 9.83614E-05-2.91902E-05-2.96421E-05 3.23671E-06 4.62307E-19-6.00238E-19
 -1      2316 9.88477E-05-2.93916E-05-2.97642E-05 3.39090E-06 5.53967E-19-3.33269E-19
 -1      2317 9.75915E-05-2.88371E-05-2.94712E-05 3.55977E-06 4.18765E-19 1.22030E-19
 -1      2318 9.92688E-05-2.95979E-05-2.98545E-05 3.55389E-06 3.99828E-19-2.59919E-19
 -1      2319 9.98156E-05-2.98738E-05-2.99771E-05 3.62317E-06 1.23473E-19-1.61780E-19
 -1      2320 9.83510E-05-2.92142E-05-2.96362E-05 3.97024E-06 4.45995E-19-3.43563E-19
 -1      2321 1.00342E-04-3.01783E-05-3.00631E-05 3.67097E-06-2.73387E-19-2.12000E-19
 -1      2322 1.00933E-04-3.05403E-05-3.01775E-05 3.58944E-06-1.00007E-19-5.75659E-19
 -1      2323 9.93043E-05-2.97996E-05-2.97952E-05 4.20991E-06-1.38326E-19 1.50789E-19
 -1      2324 1.01580E-04-3.09623E-05-3.02549E-05 3.44106E-06-8.85960E-20-1.02862E-18
 -1      2325 1.02181E-04-3.14075E-05-3.03504E-05 3.13032E-06 2.16912E-19-1.13733E-18
 -1      2326 1.00488E-04-3.06465E-05-2.99412E-05 4.13373E-06-3.75582E-19-3.80652E-20
 -1      2327 1.02949E-04-3.19468E-05-3.04177E-05 2.69055E-06 3.48894E-19-1.43007E-18
 -1      2328 1.03500E-04-3.24407E-05-3.04842E-05 2.07488E-06 4.08295E-19-1.48054E-18
 -1      2329 1.01921E-04-3.17783E-05-3.00712E-05 3.56041E-06-3.51473E-20-1.28592E-18
 -1      2330 1.04354E-04-3.30516E-05-3.05457E-05 1.25440E-06 7.16951E-19-1.50763E-18
 -1      2331 1.04760E-04-3.35038E-05-3.05776E-05 2.93350E-07 4.96790E-19-1.35905E-18
 -1      2332 1.03570E-04-3.31391E-05-3.01932E-05 2.29613E-06 4.75906E-19-1.42113E-18
 -1      2333 1.05592E-04-3.40619E-05-3.06471E-05-9.46853E-07-3.68128E-20-1.76728E-18
 -1      2334 1.05720E-04-3.43053E-05-3.06477E-05-2.20507E-06-2.02320E-19-1.32549E-18
 -1      2335 1.05291E-04-3.45211E-05-3.03328E-05 1.96269E-07 1.43249E-19-1.67450E-18
 -1      2336 1.06324E-04-3.45843E-05-3.07481E-05-3.77243E-06 2.01786E-19-1.08680E-18
 -1      2337 1.06031E-04-3.43920E-05-3.07318E-05-5.12231E-06 3.45379E-19-1.14589E-18
 -1      2338 1.06770E-04-3.54935E-05-3.05362E-05-2.71302E-06 2.60115E-20-1.83260E-18
 -1      2339 1.06131E-04-3.41110E-05-3.08881E-05-6.69446E-06 4.35896E-19-1.19639E-18
 -1      2340 1.05340E-04-3.32950E-05-3.08758E-05-7.74103E-06 1.79763E-20-8.16210E-19
 -1      2341 1.07503E-04-3.54235E-05-3.08611E-05-6.03803E-06 3.45212E-19-1.58908E-18
 -1      2342 1.04723E-04-3.22725E-05-3.10937E-05-8.73450E-06-4.85706E-19-3.13846E-19
 -1      2343 1.03530E-04-3.08675E-05-3.11011E-05-8.96127E-06-2.22203E-19 2.87038E-19
 -1      2344 1.06972E-04-3.37463E-05-3.13427E-05-8.85886E-06 3.33685E-19-2.23706E-19
 -1      2345 1.02313E-04-2.92826E-05-3.13478E-05-8.70441E-06 1.19812E-19 3.23775E-19
 -1      2346 1.01071E-04-2.77121E-05-3.13729E-05-7.72792E-06 2.32603E-20 1.40356E-18
 -1      2347 1.05048E-04-3.04512E-05-3.19400E-05-9.81217E-06 4.75110E-20 6.81111E-19
 -1      2348 9.98356E-05-2.62270E-05-3.15739E-05-5.90837E-06-7.78668E-19 1.39833E-18
 -1      2349 9.90554E-05-2.52096E-05-3.15938E-05-3.82423E-06-8.95426E-19 1.88012E-19
 -1      2350 1.02451E-04-2.66022E-05-3.25161E-05-7.73841E-06-5.84873E-19 3.81551E-19
 -1      2351 9.85823E-05-2.46644E-05-3.16602E-05-9.33241E-07-3.87074E-19-3.75507E-20
 -1      2352 9.86344E-05-2.47579E-05-3.16513E-05 1.55318E-06 6.03312E-20-3.27955E-19
 -1      2353 1.00633E-04-2.40697E-05-3.28616E-05-2.72730E-06-9.90029E-19 2.92168E-19
 -1      2354 9.92489E-05-2.54970E-05-3.15479E-05 4.33785E-06-5.05169E-19-1.53644E-19
 -1      2355 1.00098E-04-2.66484E-05-3.15122E-05 6.27086E-06-9.25845E-19-5.75867E-19
 -1      2356 1.00784E-04-2.43108E-05-3.28175E-05 3.37643E-06-4.91772E-19 3.23933E-19
 -1      2357 1.01366E-04-2.82134E-05-3.12863E-05 7.83626E-06-5.05252E-19 1.66766E-19
 -1      2358 1.02593E-04-2.98004E-05-3.12486E-05 8.59224E-06-1.93610E-20 8.77771E-19
 -1      2359 1.02790E-04-2.71918E-05-3.24003E-05 7.98326E-06-1.09545E-19 1.22086E-18
 -1      2360 1.03720E-04-3.13319E-05-3.09895E-05 8.58514E-06-8.62708E-20 1.18774E-18
 -1      2361 1.04818E-04-3.26551E-05-3.09698E-05 8.16507E-06 3.57048E-19 1.41066E-18
 -1      2362 1.05325E-04-3.10852E-05-3.17845E-05 9.49147E-06 1.55596E-19 2.21918E-18
 -1      2363 1.05288E-04-3.35577E-05-3.07475E-05 6.99576E-06-3.28490E-19 6.92104E-19
 -1      2364 1.05945E-04-3.42575E-05-3.07443E-05 5.83116E-06-4.82494E-19 5.28073E-19
 -1      2365 1.06997E-04-3.41687E-05-3.11733E-05 8.07758E-06-2.30485E-19 1.23858E-18
 -1      2366 1.05714E-04-3.44268E-05-3.05849E-05 4.18391E-06 4.04730E-19 2.32745E-19
 -1      2367 1.05867E-04-3.45175E-05-3.05806E-05 2.78596E-06-8.77324E-20 6.54129E-19
 -1      2368 1.07242E-04-3.55668E-05-3.06924E-05 5.00908E-06-3.73714E-19 9.27994E-19
 -1      2369 1.05171E-04-3.41664E-05-3.04727E-05 1.21044E-06-6.98989E-19 1.11286E-18
 -1      2370 1.04914E-04-3.38531E-05-3.04467E-05-5.14494E-08-6.32873E-19 1.75407E-18
 -1      2371 1.06281E-04-3.54111E-05-3.03653E-05 1.61104E-06 1.98087E-19 1.85141E-18
 -1      2372 1.04024E-04-3.32594E-05-3.03659E-05-1.27205E-06-5.30342E-19 2.03796E-18
 -1      2373 1.03503E-04-3.27604E-05-3.03065E-05-2.21697E-06-1.25157E-19 2.81626E-18
 -1      2374 1.04653E-04-3.43104E-05-3.01508E-05-1.27826E-06-1.58984E-19 1.96085E-18
 -1      2375 1.02608E-04-3.21307E-05-3.02327E-05-3.01031E-06-7.58080E-19 2.90999E-18
 -1      2376 1.01951E-04-3.15979E-05-3.01399E-05-3.60035E-06-1.51295E-19 2.33319E-18
 -1      2377 1.02831E-04-3.28653E-05-2.99948E-05-3.32720E-06-5.07013E-19 2.40465E-18
 -1      2378 1.01145E-04-3.10390E-05-3.00627E-05-4.00788E-06 1.18070E-18 2.05469E-18
 -1      2379 1.00445E-04-3.05494E-05-2.99453E-05-4.28129E-06 1.56840E-18 8.35215E-19
 -1      2380 1.01103E-04-3.14595E-05-2.98575E-05-4.52873E-06-1.46831E-19 2.25364E-18
 -1      2381 9.97554E-05-3.00925E-05-2.98638E-05-4.38300E-06 1.08688E-18 9.16757E-19
 -1      2382 9.90732E-05-2.96700E-05-2.97353E-05-4.40248E-06 1.68906E-18 1.49361E-18
 -1      2383 9.95882E-05-3.02620E-05-2.97204E-05-5.01958E-06 1.53309E-18 1.10680E-18
 -1      2384 9.84923E-05-2.93037E-05-2.96541E-05-4.27481E-06 2.18889E-18 1.97744E-18
 -1      2385 9.78634E-05-2.89437E-05-2.95284E-05-4.09804E-06 1.67711E-18 2.08277E-18
 -1      2386 9.83042E-05-2.92970E-05-2.95822E-05-4.96409E-06 1.70264E-18 2.16176E-18
 -1      2387 9.73712E-05-2.86416E-05-2.94534E-05-3.79820E-06 5.75449E-19 1.72657E-18
 -1      2388 9.68238E-05-2.83388E-05-2.93422E-05-3.46551E-06-7.97671E-20 1.66013E-18
 -1      2389 9.72249E-05-2.85209E-05-2.94504E-05-4.50055E-06 7.76602E-19 8.57509E-19
 -1      2390 9.33110E-05-2.76794E-05-2.81203E-05-4.04494E-07 4.99141E-19 2.50222E-19
 -1      2391 9.33890E-05-2.75755E-05-2.81813E-05-1.16781E-07 5.42496E-19 4.81781E-19
 -1      2392 9.32632E-05-2.78421E-05-2.80326E-05-8.18948E-07 5.56579E-19-3.08616E-20
 -1      2393 9.32164E-05-2.77521E-05-2.80430E-05-6.75716E-07 5.50042E-19 1.20502E-19
 -1      2394 9.39934E-05-2.77969E-05-2.83813E-05-4.41748E-07 7.18794E-19-7.26244E-20
 -1      2395 9.33650E-05-2.79760E-05-2.80203E-05-1.00838E-06 4.27603E-19 2.23306E-19
 -1      2396 9.32477E-05-2.78961E-05-2.80013E-05-9.50796E-07 4.63269E-19 1.22313E-19
 -1      2397 9.39115E-05-2.80032E-05-2.82548E-05-9.01337E-07 4.52403E-19-1.18024E-19
 -1      2398 9.35542E-05-2.80895E-05-2.80537E-05-1.06467E-06 1.71200E-19 3.89060E-19
 -1      2399 9.34012E-05-2.80192E-05-2.80181E-05-1.05620E-06 3.00955E-19 4.28628E-19
 -1      2400 9.39494E-05-2.81484E-05-2.82061E-05-1.11717E-06 2.60658E-19 7.88489E-21
 -1      2401 9.37900E-05-2.81856E-05-2.81140E-05-1.04862E-06-1.89357E-19 4.70359E-19
 -1      2402 9.36221E-05-2.81248E-05-2.80698E-05-1.06517E-06 1.51159E-19 5.47393E-19
 -1      2403 9.40632E-05-2.82544E-05-2.82076E-05-1.18795E-06 8.72019E-20 3.16606E-19
 -1      2404 9.40478E-05-2.82665E-05-2.81900E-05-1.00216E-06 1.40662E-19-8.73258E-20
 -1      2405 9.38761E-05-2.82145E-05-2.81414E-05-1.02703E-06-1.66287E-19 1.55356E-19
 -1      2406 9.42218E-05-2.83319E-05-2.82410E-05-1.18062E-06 1.63670E-19 6.14378E-20
 -1      2407 9.43160E-05-2.83344E-05-2.82757E-05-9.55418E-07 7.33514E-19-3.32435E-19
 -1      2408 9.41446E-05-2.82899E-05-2.82247E-05-9.76460E-07 5.11895E-19-3.44595E-19
 -1      2409 9.44057E-05-2.83875E-05-2.82953E-05-1.14217E-06 4.59615E-19-4.84886E-19
 -1      2410 9.45926E-05-2.83921E-05-2.83690E-05-9.31170E-07 1.21118E-18-2.18217E-19
 -1      2411 9.44202E-05-2.83533E-05-2.83158E-05-9.38986E-07 9.61224E-19-1.81050E-19
 -1      2412 9.46051E-05-2.84258E-05-2.83640E-05-1.10682E-06 7.25899E-19-4.11104E-19
 -1      2413 9.48830E-05-2.84428E-05-2.84709E-05-9.47944E-07 8.07396E-19 4.54948E-20
 -1      2414 9.47045E-05-2.84076E-05-2.84142E-05-9.34633E-07 1.07728E-18 5.22853E-20
 -1      2415 9.48175E-05-2.84501E-05-2.84445E-05-1.10081E-06 9.65954E-19 1.75118E-20
 -1      2416 9.51986E-05-2.84905E-05-2.85846E-05-1.02223E-06 3.90724E-19-6.74424E-20
 -1      2417 9.50053E-05-2.84560E-05-2.85220E-05-9.80460E-07 9.81762E-19 1.13097E-19
 -1      2418 9.50459E-05-2.84636E-05-2.85369E-05-1.14581E-06 8.96928E-19-1.61902E-19
 -1      2419 9.55561E-05-2.85394E-05-2.87153E-05-1.17017E-06-1.66733E-20-5.39430E-19
 -1      2420 9.53362E-05-2.85026E-05-2.86434E-05-1.09247E-06-6.71832E-20-2.56533E-19
 -1      2421 9.52984E-05-2.84689E-05-2.86432E-05-1.26124E-06 3.92604E-19-5.39932E-20
 -1      2422 9.59767E-05-2.85945E-05-2.88699E-05-1.40880E-06 4.76004E-19-7.02219E-19
 -1      2423 9.57156E-05-2.85517E-05-2.87844E-05-1.28704E-06 2.84346E-19-4.87630E-19
 -1      2424 9.55862E-05-2.84683E-05-2.87673E-05-1.46615E-06 1.60289E-19-7.17687E-19
 -1      2425 9.64859E-05-2.86618E-05-2.90569E-05-1.75681E-06 1.35407E-19-1.52450E-19
 -1      2426 9.61661E-05-2.86085E-05-2.89526E-05-1.58189E-06 4.24859E-19-3.77047E-19
 -1      2427 9.59239E-05-2.84641E-05-2.89145E-05-1.78047E-06 3.67087E-19-5.88854E-19
 -1      2428 9.71135E-05-2.87484E-05-2.92859E-05-2.23461E-06-3.37468E-19-2.93606E-19
 -1      2429 9.67144E-05-2.86791E-05-2.91568E-05-1.99656E-06-4.96466E-20 4.91674E-20
 -1      2430 9.63283E-05-2.84590E-05-2.90906E-05-2.22560E-06-1.52657E-19 5.04459E-20
 -1      2431 9.78929E-05-2.88641E-05-2.95672E-05-2.86324E-06-6.06235E-19-3.60020E-19
 -1      2432 9.73911E-05-2.87715E-05-2.94067E-05-2.55193E-06-5.02100E-19-1.81884E-19
 -1      2433 9.68186E-05-2.84571E-05-2.93022E-05-2.82417E-06-4.97241E-19 4.82839E-19
 -1      2434 9.88610E-05-2.90233E-05-2.99106E-05-3.66092E-06 1.74792E-19-9.52284E-19
 -1      2435 9.82307E-05-2.88971E-05-2.97123E-05-3.26817E-06-1.94400E-19-8.45612E-19
 -1      2436 9.74159E-05-2.84658E-05-2.95551E-05-3.59825E-06-1.15468E-19-2.48438E-19
 -1      2437 1.00058E-04-2.92492E-05-3.03238E-05-4.63578E-06 1.02354E-18-1.38030E-18
 -1      2438 9.92715E-05-2.90741E-05-3.00822E-05-4.15975E-06 5.42753E-19-1.33385E-18
 -1      2439 9.81442E-05-2.84997E-05-2.98532E-05-4.56490E-06 5.74363E-19-1.11698E-18
 -1      2440 1.01526E-04-2.95817E-05-3.08094E-05-5.77154E-06 7.71541E-19-2.69474E-19
 -1      2441 1.00557E-04-2.93334E-05-3.05217E-05-5.22525E-06 1.20022E-18-4.01772E-19
 -1      2442 9.90333E-05-2.85892E-05-3.01965E-05-5.72729E-06 5.88560E-19-9.34898E-19
 -1      2443 1.03315E-04-3.00903E-05-3.13600E-05-7.00214E-06-3.84747E-19-4.93554E-20
 -1      2444 1.02139E-04-2.97297E-05-3.10294E-05-6.42853E-06-1.80971E-20 2.30314E-20
 -1      2445 1.00126E-04-2.87940E-05-3.05782E-05-7.05839E-06 2.90987E-19 5.93938E-19
 -1      2446 1.05483E-04-3.08930E-05-3.19531E-05-8.17056E-06-7.56305E-19 3.07921E-19
 -1      2447 1.04084E-04-3.03590E-05-3.15921E-05-7.66615E-06-4.19687E-19 2.23730E-19
 -1      2448 1.01493E-04-2.92268E-05-3.09817E-05-8.47339E-06-2.46483E-19 5.45931E-19
 -1      2449 1.08109E-04-3.21740E-05-3.25465E-05-8.97036E-06-7.20010E-19 1.36912E-19
 -1      2450 1.06487E-04-3.13800E-05-3.21811E-05-8.71662E-06-7.30689E-19 2.67373E-19
 -1      2451 1.03262E-04-3.00839E-05-3.13792E-05-9.78628E-06-6.37402E-19-2.67102E-19
 -1      2452 1.11289E-04-3.41716E-05-3.30824E-05-8.88229E-06-1.05982E-18 1.38504E-18
 -1      2453 1.09481E-04-3.30244E-05-3.27520E-05-9.17163E-06-1.02848E-18 6.17452E-19
 -1      2454 1.05653E-04-3.16706E-05-3.17367E-05-1.06477E-05-1.07556E-18 3.23829E-19
 -1      2455 1.15087E-04-3.70591E-05-3.35123E-05-7.15195E-06-7.54548E-19 1.75553E-18
 -1      2456 1.13216E-04-3.55456E-05-3.32590E-05-8.37109E-06-5.38782E-19 1.33538E-18
 -1      2457 1.08998E-04-3.43659E-05-3.20361E-05-1.04715E-05-1.21903E-18 6.46832E-19
 -1      2458 1.19327E-04-4.05804E-05-3.38597E-05-2.95082E-06-5.88939E-19 2.29426E-18
 -1      2459 1.17708E-04-3.89810E-05-3.36966E-05-5.42761E-06-8.00803E-19 1.97895E-18
 -1      2460 1.13654E-04-3.83971E-05-3.23270E-05-8.38831E-06-8.00837E-19 8.48706E-19
 -1      2461 1.23209E-04-4.34297E-05-3.43136E-05 4.02697E-06 3.06116E-19 2.59200E-18
 -1      2462 1.22451E-04-4.26082E-05-3.41804E-05 4.14484E-07 1.88412E-19 2.65289E-18
 -1      2463 1.19604E-04-4.32139E-05-3.28174E-05-3.40422E-06-3.02609E-19 1.20661E-18
 -1      2464 1.24944E-04-4.28570E-05-3.52487E-05 1.22733E-05 9.52561E-19 1.78489E-18
 -1      2465 1.25835E-04-4.42460E-05-3.50007E-05 8.73448E-06 8.56555E-19 2.62280E-18
 -1      2466 1.25654E-04-4.65829E-05-3.39559E-05 4.89804E-06 6.68046E-19 2.21383E-18
 -1      2467 1.22599E-04-3.64254E-05-3.69645E-05 1.71260E-05 1.21499E-18 5.21216E-19
 -1      2468 1.25376E-04-4.06980E-05-3.64930E-05 1.61426E-05 9.73876E-19 1.57947E-18
 -1      2469 1.28931E-04-4.43829E-05-3.62710E-05 1.44426E-05 1.26470E-18 1.97986E-18
 -1      2470 1.17235E-04-2.66530E-05-3.89482E-05 1.25773E-05 1.07065E-18 7.11786E-19
 -1      2471 1.20390E-04-3.14208E-05-3.84746E-05 1.62728E-05 1.28368E-18 1.11606E-18
 -1      2472 1.26899E-04-3.47823E-05-3.96635E-05 1.83893E-05 9.36077E-19 1.89105E-18
 -1      2473 1.14788E-04-2.25568E-05-3.98401E-05-1.11128E-06 1.68422E-18-1.69711E-19
 -1      2474 1.15509E-04-2.33128E-05-3.97777E-05 5.46154E-06 1.38617E-18-2.08966E-19
 -1      2475 1.21953E-04-2.31102E-05-4.25946E-05 9.96925E-06 1.84272E-18 1.25046E-18
 -1      2476 1.18791E-04-2.88762E-05-3.88704E-05-1.40544E-05 2.12420E-18-6.26619E-19
 -1      2477 1.16217E-04-2.47372E-05-3.92982E-05-9.45933E-06 2.11038E-18-6.68600E-19
 -1      2478 1.20850E-04-2.09143E-05-4.30901E-05-6.53928E-06 2.12457E-18-4.33006E-19
 -1      2479 1.24237E-04-3.85986E-05-3.69406E-05-1.69908E-05 1.03005E-18-5.81859E-19
 -1      2480 1.21056E-04-3.37952E-05-3.74560E-05-1.67745E-05 1.60502E-18 1.79664E-20
 -1      2481 1.25362E-04-3.09197E-05-4.07114E-05-1.71416E-05 1.49586E-18 2.67768E-19
 -1      2482 1.25863E-04-4.38401E-05-3.52201E-05-1.06105E-05-4.01148E-19 1.45207E-18
 -1      2483 1.24566E-04-4.17865E-05-3.55454E-05-1.36651E-05 4.62586E-19 3.99608E-19
 -1      2484 1.29022E-04-4.31688E-05-3.68670E-05-1.57110E-05 2.78661E-19 6.47768E-19
 -1      2485 1.23149E-04-4.32221E-05-3.42092E-05-2.10220E-06-1.68198E-18 1.26602E-18
 -1      2486 1.23604E-04-4.36442E-05-3.43769E-05-5.76777E-06-1.27811E-18 2.26292E-18
 -1      2487 1.26516E-04-4.66224E-05-3.43364E-05-7.11095E-06-8.59851E-19 2.28096E-18
 -1      2488 1.18454E-04-3.98607E-05-3.36317E-05 4.59292E-06-1.84333E-18 2.16877E-18
 -1      2489 1.19967E-04-4.13580E-05-3.38007E-05 1.83224E-06-1.25062E-18 1.52378E-18
 -1      2490 1.20937E-04-4.43372E-05-3.29045E-05 1.98771E-06-1.60705E-18 3.80080E-18
 -1      2491 1.13662E-04-3.62284E-05-3.31532E-05 8.34572E-06-3.25202E-18 1.39229E-18
 -1      2492 1.15586E-04-3.78075E-05-3.34094E-05 6.83415E-06-3.11566E-18 1.14633E-18
 -1      2493 1.14688E-04-3.95997E-05-3.22619E-05 7.94111E-06-2.16711E-18 2.00550E-18
 -1      2494 1.09559E-04-3.34134E-05-3.26186E-05 9.71484E-06-1.57558E-18 4.73025E-19
 -1      2495 1.11499E-04-3.46722E-05-3.29618E-05 9.19363E-06-2.07513E-18 7.42590E-19
 -1      2496 1.09549E-04-3.52224E-05-3.19121E-05 1.07798E-05-2.08032E-18-5.73746E-19
 -1      2497 1.06208E-04-3.15031E-05-3.20109E-05 9.60195E-06-9.76390E-19 6.35415E-19
 -1      2498 1.07998E-04-3.24104E-05-3.24019E-05 9.69855E-06-1.56740E-18 2.16854E-19
 -1      2499 1.05774E-04-3.21447E-05-3.15898E-05 1.14490E-05-1.28104E-18-4.98881E-20
 -1      2500 1.03474E-04-3.02615E-05-3.13745E-05 8.71798E-06 1.39593E-18 1.02910E-18
 -1      2501 1.05057E-04-3.09027E-05-3.17695E-05 9.13426E-06 3.35000E-19 3.37240E-19
 -1      2502 1.03040E-04-3.02472E-05-3.12153E-05 1.08710E-05-7.19512E-19-1.27685E-18
 -1      2503 1.01222E-04-2.94353E-05-3.07630E-05 7.50446E-06 1.37526E-18 3.48136E-18
 -1      2504 1.02583E-04-2.99023E-05-3.11287E-05 8.05588E-06 1.44350E-18 2.76695E-18
 -1      2505 1.00989E-04-2.91442E-05-3.08008E-05 9.67956E-06-4.75298E-21-3.87568E-19
 -1      2506 9.93577E-05-2.88367E-05-3.02180E-05 6.18504E-06 1.23546E-18 4.34279E-18
 -1      2507 1.00498E-04-2.91989E-05-3.05337E-05 6.78283E-06 5.80517E-19 4.64891E-18
 -1      2508 9.93737E-05-2.84898E-05-3.03857E-05 8.24394E-06 6.72665E-19 3.58049E-18
 -1      2509 9.78152E-05-2.83452E-05-2.97656E-05 4.83263E-06 1.02208E-18 3.93405E-18
 -1      2510 9.87455E-05-2.86450E-05-3.00203E-05 5.45541E-06 2.51000E-18 5.23822E-18
 -1      2511 9.80437E-05-2.80432E-05-3.00068E-05 6.74684E-06 9.88047E-19 3.78546E-18
 -1      2512 9.65586E-05-2.79025E-05-2.94136E-05 3.45937E-06-3.72281E-19 3.02704E-18
 -1      2513 9.72958E-05-2.81685E-05-2.96066E-05 4.10334E-06-5.84547E-19 3.30272E-18
 -1      2514 9.69147E-05-2.76622E-05-2.96907E-05 5.23425E-06 1.27211E-18 3.74358E-18
 -1      2515 9.60970E-05-2.77480E-05-2.92798E-05 2.66893E-06-1.00650E-18 3.24668E-18
 -1      2516 9.24210E-05-2.26742E-05-2.99104E-05 3.25038E-06 4.37103E-19-5.29194E-18
 -1      2517 9.27921E-05-2.31839E-05-2.98320E-05 3.74511E-06 6.56407E-19-7.76435E-18
 -1      2518 9.19348E-05-2.20015E-05-2.99880E-05 1.86264E-06 1.22079E-18-9.05853E-19
 -1      2519 9.21381E-05-2.23042E-05-2.99368E-05 2.53248E-06 1.41550E-18-2.94694E-18
 -1      2520 9.19355E-05-2.25629E-05-2.97157E-05 3.27513E-06 2.25963E-18-3.34348E-18
 -1      2521 9.42683E-05-2.50871E-05-2.96653E-05 4.52793E-06-6.75514E-19-1.34991E-18
 -1      2522 9.48383E-05-2.58139E-05-2.95652E-05 4.44081E-06-9.50509E-19 1.02704E-18
 -1      2523 9.32336E-05-2.37495E-05-2.97973E-05 4.20277E-06-5.40428E-19-6.88217E-18
 -1      2524 9.37271E-05-2.43970E-05-2.97045E-05 4.42411E-06-1.14909E-18-3.13282E-18
 -1      2525 9.39947E-05-2.48182E-05-2.96375E-05 5.14995E-06-1.48671E-18-3.14999E-18
 -1      2526 9.27997E-05-2.35220E-05-2.96793E-05 4.53608E-06 1.00069E-18-6.07931E-18
 -1      2527 9.18139E-05-2.18032E-05-3.00167E-05 2.83677E-07-5.53390E-19 1.62964E-18
 -1      2528 9.18378E-05-2.18708E-05-3.00007E-05 1.01384E-06 2.81108E-19-1.13036E-18
 -1      2529 9.14812E-05-2.20501E-05-2.97390E-05 1.59774E-06 8.96869E-19-1.41271E-18
 -1      2530 9.20342E-05-2.20721E-05-2.99905E-05-1.24281E-06-1.35603E-18 2.55513E-18
 -1      2531 9.18954E-05-2.19109E-05-3.00120E-05-5.61637E-07-2.05040E-18 2.97124E-18
 -1      2532 9.14628E-05-2.20286E-05-2.97416E-05-2.11707E-07-6.50645E-20 1.71152E-18
 -1      2533 9.25234E-05-2.27345E-05-2.99113E-05-2.51332E-06-1.49344E-18-5.11037E-19
 -1      2534 9.22605E-05-2.23814E-05-2.99673E-05-1.96809E-06-1.82796E-18 1.13623E-18
 -1      2535 9.18304E-05-2.24591E-05-2.97182E-05-1.88443E-06-1.32855E-18 9.24973E-19
 -1      2536 9.31718E-05-2.36540E-05-2.97905E-05-3.38132E-06 7.64524E-20-1.22456E-18
 -1      2537 9.28383E-05-2.31756E-05-2.98721E-05-3.02968E-06-4.38529E-20-5.96708E-19
 -1      2538 9.24779E-05-2.32325E-05-2.96687E-05-3.20097E-06-7.76062E-19 5.05064E-19
 -1      2539 9.39065E-05-2.47323E-05-2.96396E-05-3.81645E-06 2.46489E-18-1.66704E-18
 -1      2540 9.35358E-05-2.41746E-05-2.97386E-05-3.66951E-06 1.99210E-18-3.37535E-18
 -1      2541 9.32832E-05-2.42184E-05-2.95963E-05-4.04959E-06 1.73228E-18-1.00405E-18
 -1      2542 9.46473E-05-2.58440E-05-2.94783E-05-3.79117E-06 2.26301E-19 3.99357E-19
 -1      2543 9.42810E-05-2.52723E-05-2.95817E-05-3.86147E-06 1.25211E-18-2.12744E-19
 -1      2544 9.41540E-05-2.53010E-05-2.95088E-05-4.39831E-06 2.47884E-18-2.16392E-18
 -1      2545 9.53304E-05-2.68883E-05-2.93217E-05-3.36371E-06-1.37213E-18-2.42446E-19
 -1      2546 9.49871E-05-2.63455E-05-2.94196E-05-3.61806E-06-6.46295E-19 6.58915E-19
 -1      2547 9.49818E-05-2.63612E-05-2.94126E-05-4.23633E-06 7.06675E-19 2.18197E-19
 -1      2548 2.84523E-05-2.10900E-05-2.73295E-06 2.12644E-05-4.58880E-19 3.13402E-19
 -1      2549 2.17461E-05-1.64407E-05-1.80773E-06 5.64740E-06 1.46219E-19 9.10560E-20
 -1      2550 9.35932E-05-2.74616E-05-2.83305E-05 3.80034E-07 6.28192E-19 5.41835E-19
 -1      2551 9.38767E-05-2.73265E-05-2.84777E-05 9.14614E-07 6.86350E-19 6.74700E-19
 -1      2552 9.42475E-05-2.74802E-05-2.86283E-05 4.12146E-07 7.50685E-19 1.44140E-19
 -1      2553 9.50537E-05-2.00177E-05-3.22067E-05-1.17838E-05-1.40030E-18-7.43483E-19
 -1      2554 9.54461E-05-2.33500E-05-3.09208E-05-7.98252E-06-1.33622E-18-6.66706E-19
 -1      2555 9.50352E-05-2.25549E-05-3.10489E-05-7.63719E-06-1.28220E-18-8.80742E-19
 -1      2556 9.32283E-05-1.77065E-05-3.23938E-05-1.13163E-05-1.27747E-18-1.11176E-18
 -1      2557 9.56456E-05-2.75692E-05-2.91718E-05-2.37459E-06-8.64212E-19 5.04522E-19
 -1      2558 3.45655E-05-2.68957E-05-3.05735E-06-3.17151E-05 5.71747E-21-4.77494E-18
 -1      2559 4.93923E-05-3.45773E-05-6.25099E-06-4.08186E-05-5.53748E-19-4.65339E-18
 -1      2560 1.33564E-04-6.09750E-05-3.13024E-05 2.25978E-05-4.42786E-19 1.12486E-18
 -1      2561 1.19876E-04-5.98244E-05-2.56514E-05 2.86639E-05-8.82608E-19 2.29609E-18
 -1      2562 2.15060E-05-1.66128E-05-1.67686E-06-1.00669E-05 4.40139E-19-1.92234E-18
 -1      2563 2.60070E-05-1.99494E-05-2.21899E-06-2.15271E-05 1.06620E-19-3.05101E-18
 -1      2564 1.47985E-04-1.26916E-05-5.83217E-05 2.07300E-06-5.71747E-19-1.66378E-18
 -1      2565 1.48062E-04-1.08876E-05-5.91668E-05 7.51896E-07-1.04227E-18-1.33229E-18
 -1      2566 1.34539E-04-5.42537E-05-3.46983E-05 2.14095E-05 1.23243E-18 9.67735E-20
 -1      2567 1.22606E-04-5.57372E-05-2.86769E-05 2.85496E-05 1.26780E-18-5.46336E-20
 -1      2568 1.53288E-04-3.07306E-05-5.27925E-05 8.91338E-06 2.42760E-18 2.01319E-18
 -1      2569 1.51888E-04-2.23459E-05-5.60907E-05 8.88989E-06 2.39795E-18 1.86834E-18
 -1      2570 8.78684E-05-1.08067E-05-3.30622E-05-1.52061E-06 3.18143E-19-1.83328E-18
 -1      2571 8.79724E-05-1.09285E-05-3.30531E-05-2.64065E-06 1.28355E-19-1.87211E-18
 -1      2572 8.93711E-05-1.31002E-05-3.26896E-05-2.93417E-06 3.94474E-20-1.71516E-18
 -1      2573 8.91253E-05-1.27661E-05-3.27286E-05-9.42449E-07 3.23603E-19-1.68461E-18
 -1      2574 1.47597E-04-1.56273E-05-5.72610E-05-5.59395E-06 3.52281E-18 7.86100E-19
 -1      2575 1.52008E-04-2.27623E-05-5.57333E-05-8.75074E-06 2.72003E-18 7.13202E-19
 -1      2576 1.48958E-04-5.07267E-05-4.22221E-05-2.04144E-06 5.43636E-19 1.01623E-18
 -1      2577 1.55124E-04-4.26816E-05-4.86730E-05 3.97181E-06 1.46547E-18 2.21923E-18
 -1      2578 1.48038E-04-1.64351E-05-5.68632E-05 6.39314E-06 2.56820E-18 1.98640E-18
 -1      2579 1.45262E-04-1.34835E-05-5.70646E-05 1.37301E-06 3.16536E-18 1.75278E-18
 -1      2580 5.69738E-05-3.75847E-05-8.02314E-06-3.79400E-05 1.16255E-19 1.46028E-18
 -1      2581 7.74150E-05-4.64395E-05-1.32424E-05-4.19979E-05 1.63689E-19 2.50976E-18
 -1      2582 1.31529E-04-5.99101E-05-3.07371E-05-2.16625E-05-7.12566E-19-1.40840E-18
 -1      2583 1.42233E-04-5.85699E-05-3.63279E-05-1.46296E-05-1.74701E-19-4.29657E-19
 -1      2584 1.49297E-04-1.19382E-05-5.91572E-05-1.73065E-06-1.43022E-18-1.57940E-18
 -1      2585 1.47128E-04-1.40964E-05-5.73910E-05-3.40086E-06-1.53567E-18-1.70412E-18
 -1      2586 9.85156E-05-5.47662E-05-1.86880E-05-3.67782E-05-9.88911E-20 3.59460E-19
 -1      2587 1.17591E-04-5.86520E-05-2.54107E-05-3.26194E-05-6.82497E-19-1.72223E-18
 -1      2588 1.27297E-04-6.16790E-05-2.78902E-05-2.31864E-05-7.99917E-19-1.31216E-18
 -1      2589 2.47732E-05-2.30855E-05-6.46860E-07-1.89422E-05-2.08582E-20-8.46609E-19
 -1      2590 3.60127E-05-2.69115E-05-3.73485E-06-2.98162E-05-2.85874E-19 4.32834E-19
 -1      2591 1.78128E-05-1.78860E-05 2.33263E-07 5.67859E-06-4.55836E-19-6.36122E-19
 -1      2592 1.91536E-05-1.88823E-05 1.08346E-07-8.08168E-06-4.56815E-19-1.26928E-18
 -1      2593 3.20596E-05-2.37775E-05-3.41590E-06 3.05852E-05 7.06214E-19-9.78958E-19
 -1      2594 2.27863E-05-2.03399E-05-7.51010E-07 1.79492E-05 4.13564E-19-6.99649E-19
 -1      2595 7.02137E-05-4.08225E-05-1.25649E-05 4.43975E-05 2.36110E-18-6.62592E-19
 -1      2596 5.05579E-05-3.25622E-05-7.22381E-06 3.85122E-05 1.60470E-18-6.38239E-19
 -1      2597 1.09358E-04-5.47939E-05-2.34608E-05 3.79182E-05 1.78195E-18-8.38139E-19
 -1      2598 9.28266E-05-5.09052E-05-1.76234E-05 4.09926E-05 2.54237E-18-1.54827E-18
 -1      2599 1.19603E-04-5.78745E-05-2.62482E-05 2.89136E-05 1.70698E-18-1.01866E-18
 -1      2600 1.46387E-04-4.27054E-05-4.48734E-05 5.01735E-06 1.20109E-18-1.09903E-18
 -1      2601 1.41175E-04-4.84196E-05-3.99039E-05 1.00976E-05 1.29264E-18-7.35860E-19
 -1      2602 1.32636E-04-5.53118E-05-3.30817E-05-1.99105E-05 9.48783E-19-1.38998E-18
 -1      2603 1.41252E-04-5.13630E-05-3.88559E-05-1.36874E-05 1.27944E-18-2.91803E-19
 -1      2604 1.48276E-04-2.28425E-05-5.41706E-05-4.26374E-06-1.01580E-18-9.96111E-19
 -1      2605 1.46312E-04-3.16950E-05-4.93990E-05-1.79585E-06 3.38178E-19-7.11931E-19
 -1      2606 1.49020E-04-2.39430E-05-5.39020E-05 2.63903E-06 6.87367E-19-8.95737E-19
 -1      2607 1.49704E-04-1.84859E-05-5.66234E-05 3.33319E-06-7.49624E-20-8.54868E-19
 -1      2608 1.44486E-04-4.21778E-05-4.40936E-05-4.66675E-06 1.12857E-18-3.11285E-19
 -1      2609 1.50417E-04-3.39119E-05-5.01797E-05-1.01265E-06 1.10008E-18-8.62280E-19
 -1      2610 1.42384E-04-2.92275E-05-4.86153E-05 6.94189E-06 9.72500E-19-6.11770E-19
 -1      2611 1.02807E-04-5.42717E-05-2.06404E-05-3.84849E-05 2.11462E-18-9.99711E-19
 -1      2612 1.19176E-04-5.68863E-05-2.70127E-05-3.26836E-05 1.57336E-18-1.40523E-18
 -1      2613 6.59715E-05-4.25224E-05-9.97959E-06-4.28257E-05 1.86559E-19-3.19141E-18
 -1      2614 8.36128E-05-4.79488E-05-1.53802E-05-4.46678E-05 1.79296E-18-1.15943E-18
 -1      2615 1.54958E-04-3.15709E-05-5.32881E-05-6.84580E-06 1.88274E-18 7.79482E-19
 -1      2616 1.53854E-04-3.96932E-05-4.92200E-05-4.69634E-06 1.20078E-18 1.59962E-18
 -1      2617 9.63086E-05-2.50878E-05-3.05491E-05 7.60473E-06 1.35638E-18 1.46986E-18
 -1      2618 9.74315E-05-2.37717E-05-3.15899E-05 1.07040E-05 1.48821E-18 1.66159E-18
 -1      2619 9.58693E-05-2.12974E-05-3.20153E-05 1.19065E-05 1.63588E-18 1.18751E-18
 -1      2620 9.58590E-05-2.41559E-05-3.07632E-05 7.69717E-06 1.43417E-18 8.52067E-19
 -1      2621 1.44540E-04-2.60390E-05-5.06609E-05-1.27696E-05 2.57202E-18 1.28770E-18
 -1      2622 9.08092E-05-1.50533E-05-3.24628E-05-6.81195E-06-6.00771E-19-1.74987E-18
 -1      2623 8.97128E-05-1.31865E-05-3.28491E-05-7.97413E-06-7.19522E-19-1.92857E-18
 -1      2624 9.03643E-05-1.39663E-05-3.28027E-05-9.14835E-06-9.07521E-19-1.84705E-18
 -1      2625 9.47124E-05-2.69320E-05-2.90615E-05 1.89600E-06 8.97953E-19 1.74512E-19
 -1      2626 9.42312E-05-1.90778E-05-3.22538E-05 1.16159E-05 1.65895E-18 4.57689E-19
 -1      2627 9.11375E-05-1.50099E-05-3.26794E-05-9.83110E-06-1.01965E-18-1.72899E-18
 -1      2628 9.21565E-05-1.62801E-05-3.25963E-05-1.08622E-05-1.20167E-18-1.48770E-18
 -1      2629 9.36327E-05-1.92081E-05-3.18918E-05-9.20767E-06-1.24964E-18-1.26463E-18
 -1      2630 9.20680E-05-1.68222E-05-3.22391E-05-8.31596E-06-9.43616E-19-1.64424E-18
 -1      2631 1.27816E-04-5.82995E-05-2.96653E-05-2.27376E-05 9.40524E-19-3.91753E-19
 -1      2632 1.39002E-04-1.75937E-05-5.22187E-05-7.97784E-06-8.44068E-19-1.28071E-18
 -1      2633 1.40570E-04-6.04284E-05-3.43365E-05 9.08738E-06-1.04111E-18 1.02533E-18
 -1      2634 4.07944E-05-2.28730E-05-7.12042E-06 2.56756E-05 7.44330E-20 2.50341E-18
 -1      2635 6.42328E-05-3.81287E-05-1.07925E-05-4.18850E-05 1.99053E-19-4.61315E-18
 -1      2636 9.59525E-05-2.72941E-05-2.94198E-05 3.64612E-06-9.97537E-19 3.07267E-18
 -1      2637 9.56084E-05-2.67603E-05-2.95097E-05 4.05334E-06-2.85965E-19 3.30678E-18
 -1      2638 8.58028E-05-4.61744E-05-1.66877E-05 4.07562E-05 2.25544E-18-1.19098E-18
 -1      2639 2.91217E-05-1.45558E-05-5.61207E-06-1.14681E-06 3.27616E-19-7.36707E-19
 -1      2640 9.47045E-05-2.06002E-05-3.17146E-05 9.68302E-06 1.53938E-18 2.52872E-19
 -1      2641 1.13441E-04-5.92052E-05-2.31660E-05 3.19885E-05-1.77432E-18 2.71781E-18
 -1      2642 1.04176E-04-5.44478E-05-2.08187E-05 3.41667E-05-1.96702E-18 2.50431E-18
 -1      2643 1.23383E-04-6.13679E-05-2.65603E-05 2.42326E-05-2.19212E-18 3.73965E-19
 -1      2644 4.79774E-05-2.63807E-05-8.66813E-06 3.40061E-05 3.97682E-19-9.71970E-20
 -1      2645 7.17832E-05-4.19741E-05-1.24332E-05 3.91984E-05-1.30867E-18 4.71871E-18
 -1      2646 3.81301E-05-2.20963E-05-6.35906E-06-2.77040E-05 1.46854E-19-4.72242E-18
 -1      2647 1.36838E-04-8.37051E-06-5.51720E-05-7.50598E-07-1.39443E-18-1.42274E-18
 -1      2648 2.69436E-05-1.56973E-05-4.24923E-06 1.16628E-05-9.69800E-19-4.58245E-19
 -1      2649 9.41795E-05-5.17609E-05-1.79137E-05-3.75368E-05-2.39922E-19 5.87497E-19
 -1      2650 4.69715E-05-2.52386E-05-8.85454E-06-3.03180E-05-8.73185E-19 7.20825E-19
 -1      2651 5.14975E-05-3.19126E-05-8.01675E-06-3.47889E-05-5.03138E-19 8.40468E-19
 -1      2652 6.66294E-05-3.59450E-05-1.28959E-05-3.68320E-05-8.05105E-19 1.60873E-18
 -1      2653 1.37830E-04-5.38074E-05-3.59949E-05 1.09739E-05 1.31745E-18-8.96373E-19
 -1      2654 1.39768E-04-1.95353E-05-5.17797E-05 1.06364E-05 2.49049E-18 1.64240E-18
 -1      2655 1.47726E-04-3.73324E-05-4.74502E-05 1.24514E-05 1.90095E-18 2.36788E-18
 -1      2656 1.38236E-04-1.34058E-05-5.36257E-05 6.24540E-06-2.61310E-19-9.71335E-19
 -1      2657 1.45751E-04-5.63551E-05-3.82777E-05-1.87590E-06 1.47966E-19 1.45859E-18
 -1      2658 9.61370E-05-2.79619E-05-2.92061E-05-2.76442E-06-3.77373E-19 1.13047E-18
 -1      2659 9.56607E-05-2.73380E-05-2.92829E-05-3.15336E-06-9.90165E-19-5.92335E-19
 -1      2660 9.57939E-05-2.73381E-05-2.93385E-05-3.80562E-06-5.88970E-19 8.91274E-19
 -1      2661 9.65489E-05-2.81726E-05-2.92982E-05-3.17248E-06-1.27519E-19 1.67010E-18
 -1      2662 1.48834E-04-4.67186E-05-4.39726E-05-8.43428E-06 9.85258E-19 1.54901E-18
 -1      2663 1.37874E-04-1.47283E-05-5.29943E-05-2.90399E-06 3.07515E-18 2.02976E-18
 -1      2664 2.82370E-05-1.74994E-05-4.06847E-06-1.32765E-05-7.43060E-19-1.12168E-18
 -1      2665 1.42130E-04-3.73547E-05-4.50510E-05-5.00131E-06 7.69106E-19-2.16629E-19
 -1      2666 1.41671E-04-4.79815E-05-4.02003E-05-2.67822E-06 8.50103E-19 3.85824E-19
 -1      2667 9.82236E-05-5.25296E-05-1.92387E-05-3.99855E-05 1.57802E-18-1.35338E-18
 -1      2668 9.55588E-05-2.65028E-05-2.95840E-05 4.92914E-06-6.10385E-20 2.21098E-18
 -1      2669 9.64509E-05-2.79727E-05-2.93514E-05-3.85781E-06-4.94515E-19-8.26181E-19
 -1      2670 9.05845E-05-1.51800E-05-3.23385E-05 3.19943E-06 7.97198E-19-1.55666E-18
 -1      2671 9.03960E-05-1.49088E-05-3.23719E-05 2.26461E-06 6.89669E-19-1.65096E-18
 -1      2672 9.02633E-05-1.47065E-05-3.24014E-05 1.42458E-06 5.77270E-19-1.68258E-18
 -1      2673 9.01988E-05-1.46142E-05-3.24127E-05 4.66166E-07 4.67704E-19-1.61061E-18
 -1      2674 9.14486E-05-1.65997E-05-3.20652E-05 1.64398E-06 5.98601E-19-1.58469E-18
 -1      2675 9.21533E-05-1.75553E-05-3.20085E-05 6.48411E-06 1.23566E-18-8.24080E-19
 -1      2676 9.16330E-05-1.67617E-05-3.21101E-05 5.64374E-06 1.17217E-18-1.00075E-18
 -1      2677 9.35619E-05-1.97765E-05-3.16647E-05 7.60861E-06 1.42218E-18-4.65554E-19
 -1      2678 9.27776E-05-1.85238E-05-3.18401E-05 7.03021E-06 1.31075E-18-6.15581E-19
 -1      2679 9.34446E-05-1.98693E-05-3.15098E-05 5.74502E-06 1.18822E-18-5.99583E-19
 -1      2680 9.52050E-05-2.54050E-05-2.99266E-05 3.99091E-06 1.09239E-18 8.33459E-20
 -1      2681 9.55422E-05-2.45558E-05-3.03903E-05 5.62382E-06 1.21847E-18 1.93409E-19
 -1      2682 5.19775E-05-2.60925E-05-1.05989E-05 3.16816E-05-7.02084E-19 4.68176E-18
 -1      2683 4.15719E-05-1.81728E-05-9.53075E-06 2.12058E-05 2.58927E-19 1.41200E-18
 -1      2684 1.29622E-04-1.31437E-05-5.05888E-05-7.79483E-06-8.78797E-19-4.16423E-19
 -1      2685 1.31241E-04-2.04876E-05-4.78657E-05-1.12192E-05 3.26108E-20-2.67980E-19
 -1      2686 9.53558E-05-2.58991E-05-2.97368E-05-2.71204E-06-9.21031E-19-9.32857E-19
 -1      2687 9.51885E-05-2.64859E-05-2.94558E-05-1.72946E-06-7.88804E-19-1.02757E-18
 -1      2688 9.52118E-05-2.69986E-05-2.92109E-05-9.86218E-07-5.99573E-19-9.00311E-19
 -1      2689 9.50779E-05-2.73504E-05-2.90322E-05-3.77930E-07-5.29071E-19-9.20269E-19
 -1      2690 9.54167E-05-2.63237E-05-2.96171E-05-1.62516E-06-7.81167E-19-8.05025E-19
 -1      2691 9.50453E-05-2.76531E-05-2.88665E-05 9.37949E-08-3.84866E-19-8.59098E-19
 -1      2692 9.49692E-05-2.78742E-05-2.87577E-05 4.50746E-07-3.79121E-19-7.00524E-19
 -1      2693 9.54177E-05-2.73129E-05-2.91953E-05-3.39277E-07-4.19198E-19-6.77544E-19
 -1      2694 9.49282E-05-2.80552E-05-2.86497E-05 7.28285E-07-4.75633E-19-6.37709E-19
 -1      2695 9.49031E-05-2.81975E-05-2.85887E-05 9.21123E-07-3.42664E-19-7.62935E-19
 -1      2696 9.53583E-05-2.79182E-05-2.89097E-05 4.64480E-07-3.45501E-19-7.68717E-19
 -1      2697 9.48695E-05-2.83033E-05-2.85224E-05 1.06788E-06-3.96838E-19-8.59399E-19
 -1      2698 9.48817E-05-2.83943E-05-2.84940E-05 1.15758E-06-3.50699E-19-1.03404E-18
 -1      2699 9.52962E-05-2.82860E-05-2.87242E-05 9.28053E-07-4.56228E-19-6.53842E-19
 -1      2700 9.48592E-05-2.84512E-05-2.84575E-05 1.22187E-06-2.12384E-19-1.00384E-18
 -1      2701 9.48963E-05-2.85070E-05-2.84512E-05 1.25104E-06-3.00671E-19-8.92102E-19
 -1      2702 9.52498E-05-2.84996E-05-2.86115E-05 1.16674E-06-3.44863E-19-9.30679E-19
 -1      2703 9.48841E-05-2.85308E-05-2.84360E-05 1.26854E-06-2.42373E-19-9.04430E-19
 -1      2704 9.49370E-05-2.85612E-05-2.84449E-05 1.26736E-06-1.60396E-19-7.32628E-19
 -1      2705 9.52221E-05-2.86096E-05-2.85514E-05 1.26763E-06-2.74041E-19-5.39522E-19
 -1      2706 9.49333E-05-2.85617E-05-2.84452E-05 1.26430E-06-2.88767E-19-5.58592E-19
 -1      2707 9.49963E-05-2.85734E-05-2.84646E-05 1.25452E-06-3.22711E-19-6.45960E-19
 -1      2708 9.52108E-05-2.86473E-05-2.85296E-05 1.29531E-06-1.50187E-19-3.17126E-19
 -1      2709 9.49991E-05-2.85570E-05-2.84763E-05 1.25036E-06-2.45262E-19-5.93202E-19
 -1      2710 9.50697E-05-2.85548E-05-2.85036E-05 1.24795E-06-1.51338E-19-7.25934E-19
 -1      2711 9.52126E-05-2.86333E-05-2.85358E-05 1.29764E-06-3.54781E-19-4.28226E-19
 -1      2712 9.50781E-05-2.85259E-05-2.85240E-05 1.25731E-06-2.85725E-19-7.19162E-19
 -1      2713 9.51560E-05-2.85135E-05-2.85577E-05 1.27423E-06-1.97515E-19-9.08126E-19
 -1      2714 9.52251E-05-2.85811E-05-2.85632E-05 1.31035E-06-3.36115E-19-6.63124E-19
 -1      2715 9.51694E-05-2.84752E-05-2.85853E-05 1.30830E-06 1.84353E-20-8.94709E-19
 -1      2716 9.52564E-05-2.84561E-05-2.86249E-05 1.35363E-06 1.77475E-19-7.10563E-19
 -1      2717 9.52471E-05-2.85004E-05-2.86070E-05 1.36051E-06-5.60189E-21-3.57053E-19
 -1      2718 9.52756E-05-2.84111E-05-2.86585E-05 1.42108E-06 1.50036E-19-1.16092E-19
 -1      2719 9.53751E-05-2.83888E-05-2.87040E-05 1.50162E-06 5.01098E-20 2.62090E-21
 -1      2720 9.52791E-05-2.83986E-05-2.86642E-05 1.46892E-06 3.20759E-19-5.30204E-19
 -1      2721 9.54016E-05-2.83402E-05-2.87430E-05 1.60896E-06-2.10979E-19-4.27652E-20
 -1      2722 9.55185E-05-2.83191E-05-2.87947E-05 1.72929E-06-1.40562E-19 5.21718E-20
 -1      2723 9.53237E-05-2.82831E-05-2.87329E-05 1.65147E-06-7.76525E-20-2.49773E-19
 -1      2724 9.55558E-05-2.82714E-05-2.88386E-05 1.88084E-06 9.25313E-20 6.46261E-21
 -1      2725 9.56964E-05-2.82577E-05-2.88968E-05 2.04284E-06-3.24016E-20-1.50172E-19
 -1      2726 9.53859E-05-2.81627E-05-2.88113E-05 1.91956E-06-1.81599E-19 1.95260E-19
 -1      2727 9.57500E-05-2.82177E-05-2.89447E-05 2.24011E-06-7.53448E-20 2.52931E-19
 -1      2728 9.59224E-05-2.82201E-05-2.90093E-05 2.44189E-06-2.84914E-19 2.82910E-19
 -1      2729 9.54748E-05-2.80508E-05-2.88976E-05 2.27946E-06 4.55989E-20 4.11091E-19
 -1      2730 9.60011E-05-2.81986E-05-2.90600E-05 2.68231E-06-3.15044E-19 2.91696E-19
 -1      2731 9.62154E-05-2.82302E-05-2.91303E-05 2.91638E-06 1.96203E-19 5.25011E-19
 -1      2732 9.56049E-05-2.79676E-05-2.89895E-05 2.73061E-06-1.36325E-19 6.59921E-19
 -1      2733 9.63331E-05-2.82436E-05-2.91821E-05 3.19135E-06 1.43996E-20 3.93456E-19
 -1      2734 9.66017E-05-2.83229E-05-2.92565E-05 3.44213E-06 4.29586E-20 1.24224E-19
 -1      2735 9.57987E-05-2.79442E-05-2.90834E-05 3.26249E-06-1.33350E-19 3.84857E-19
 -1      2736 9.67797E-05-2.83952E-05-2.93068E-05 3.73422E-06 3.44027E-19-2.99718E-19
 -1      2737 9.71180E-05-2.85471E-05-2.93828E-05 3.97471E-06 3.74668E-19-4.05246E-19
 -1      2738 9.60911E-05-2.80268E-05-2.91746E-05 3.85013E-06-3.08907E-20-5.90442E-19
 -1      2739 9.73869E-05-2.87114E-05-2.94288E-05 4.25386E-06 3.94410E-19-4.80857E-19
 -1      2740 9.78136E-05-2.89678E-05-2.95027E-05 4.44197E-06 3.48034E-19-7.46737E-19
 -1      2741 9.65334E-05-2.82802E-05-2.92577E-05 4.44784E-06 3.14491E-19-8.14783E-19
 -1      2742 9.82159E-05-2.92660E-05-2.95423E-05 4.66086E-06 1.71465E-19-8.00503E-19
 -1      2743 9.87511E-05-2.96625E-05-2.96105E-05 4.73598E-06-1.66292E-19-2.10803E-19
 -1      2744 9.71984E-05-2.87895E-05-2.93276E-05 4.98118E-06 4.44255E-19-9.50349E-19
 -1      2745 9.93404E-05-3.01403E-05-2.96436E-05 4.82457E-06-8.40056E-19-4.17418E-19
 -1      2746 1.00001E-04-3.07072E-05-2.97042E-05 4.70621E-06-8.90618E-19-5.59473E-19
 -1      2747 9.81817E-05-2.96547E-05-2.93827E-05 5.33697E-06-8.94471E-19-9.19325E-19
 -1      2748 1.00834E-04-3.14006E-05-2.97363E-05 4.56706E-06-4.79610E-19-1.08705E-18
 -1      2749 1.01620E-04-3.21420E-05-2.97915E-05 4.15914E-06-1.18787E-19-1.49868E-18
 -1      2750 9.95952E-05-3.09711E-05-2.94299E-05 5.35238E-06-8.12427E-19-1.03837E-18
 -1      2751 1.02735E-04-3.30476E-05-2.98378E-05 3.66827E-06 1.09825E-19-1.59038E-18
 -1      2752 1.03607E-04-3.39052E-05-2.98977E-05 2.87580E-06 2.15730E-19-1.44744E-18
 -1      2753 1.01538E-04-3.27801E-05-2.94929E-05 4.80778E-06-1.22221E-19-1.23404E-18
 -1      2754 1.04977E-04-3.49306E-05-2.99872E-05 1.89998E-06 4.17727E-19-1.32864E-18
 -1      2755 1.05823E-04-3.57327E-05-3.00740E-05 6.68879E-07 1.43894E-19-1.22626E-18
 -1      2756 1.04032E-04-3.49808E-05-2.96207E-05 3.43748E-06 4.91329E-19-1.20422E-18
 -1      2757 1.07287E-04-3.66316E-05-3.02528E-05-8.79005E-07 8.71170E-20-1.10924E-18
 -1      2758 1.07888E-04-3.70439E-05-3.03995E-05-2.48755E-06 1.70808E-19-8.30729E-19
 -1      2759 1.06901E-04-3.71901E-05-2.98967E-05 9.92959E-07 3.46520E-19-4.23635E-19
 -1      2760 1.09088E-04-3.73794E-05-3.07225E-05-4.51333E-06 2.03374E-19-8.26478E-19
 -1      2761 1.09159E-04-3.69615E-05-3.09645E-05-6.20996E-06 1.82939E-19-5.33124E-19
 -1      2762 1.09640E-04-3.86296E-05-3.04350E-05-2.59592E-06 1.19261E-19 2.37551E-19
 -1      2763 1.09548E-04-3.61991E-05-3.14730E-05-8.25059E-06 6.66428E-19-5.83028E-19
 -1      2764 1.08874E-04-3.46131E-05-3.18160E-05-9.44212E-06 6.55024E-19-1.32415E-19
 -1      2765 1.11320E-04-3.80732E-05-3.13556E-05-6.85173E-06 4.58577E-19-1.25348E-19
 -1      2766 1.08068E-04-3.25174E-05-3.24625E-05-1.05367E-05 1.63960E-19-1.29586E-19
 -1      2767 1.06781E-04-2.99883E-05-3.28546E-05-1.04465E-05 1.46540E-19 3.26190E-20
 -1      2768 1.10925E-04-3.46250E-05-3.26526E-05-1.03659E-05 3.49399E-19-9.61708E-19
 -1      2769 1.05093E-04-2.71629E-05-3.34999E-05-9.55983E-06-1.44004E-19-7.04973E-20
 -1      2770 1.03798E-04-2.47353E-05-3.38249E-05-7.72931E-06-1.04052E-18-2.19774E-19
 -1      2771 1.08342E-04-2.86507E-05-3.41245E-05-1.09520E-05 1.51702E-19-1.05114E-18
 -1      2772 1.02430E-04-2.27211E-05-3.42247E-05-4.64960E-06-1.50978E-18 6.17542E-19
 -1      2773 1.01932E-04-2.18215E-05-3.43347E-05-1.56059E-06-7.52880E-19 7.60969E-19
 -1      2774 1.05115E-04-2.27715E-05-3.53306E-05-6.97350E-06-8.12821E-19 3.52577E-20
 -1      2775 1.02074E-04-2.20242E-05-3.42906E-05 2.37927E-06-7.08708E-19 8.42731E-19
 -1      2776 1.02708E-04-2.32439E-05-3.41284E-05 5.33993E-06-2.41504E-19 9.40572E-19
 -1      2777 1.03800E-04-2.05664E-05-3.57430E-05 4.86439E-07-9.34800E-19 6.23951E-19
 -1      2778 1.04233E-04-2.55259E-05-3.36653E-05 8.12352E-06 3.51681E-19 5.55169E-19
 -1      2779 1.05567E-04-2.80833E-05-3.33098E-05 9.65597E-06 3.26097E-19 1.85334E-18
 -1      2780 1.05553E-04-2.35776E-05-3.51580E-05 7.58179E-06-1.06081E-19 1.21947E-18
 -1      2781 1.07173E-04-3.08926E-05-3.26415E-05 1.01532E-05-2.64890E-19 7.53386E-19
 -1      2782 1.08366E-04-3.33319E-05-3.22383E-05 9.95957E-06 1.10814E-19 5.62014E-19
 -1      2783 1.08866E-04-2.98002E-05-3.38597E-05 1.07725E-05-6.62492E-19 4.45023E-20
 -1      2784 1.08973E-04-3.52364E-05-3.15958E-05 8.59919E-06 1.19604E-19-1.23669E-19
 -1      2785 1.09492E-04-3.66336E-05-3.12555E-05 7.24072E-06-4.64673E-19 5.81704E-20
 -1      2786 1.11139E-04-3.54902E-05-3.23714E-05 9.52886E-06-2.86194E-19-1.39272E-19
 -1      2787 1.08935E-04-3.71987E-05-3.07722E-05 5.10990E-06-7.88072E-19 6.29689E-19
 -1      2788 1.08727E-04-3.74528E-05-3.05364E-05 3.35250E-06-1.46601E-19 8.17509E-19
 -1      2789 1.11137E-04-3.84712E-05-3.11132E-05 5.66482E-06 2.24728E-20 2.21485E-19
 -1      2790 1.07451E-04-3.69980E-05-3.02329E-05 1.33314E-06 5.95491E-19 1.05148E-18
 -1      2791 1.06753E-04-3.64858E-05-3.00865E-05-2.74485E-07 1.97796E-19 7.62651E-19
 -1      2792 1.09215E-04-3.86385E-05-3.02515E-05 1.36066E-06 1.28194E-19 6.29037E-19
 -1      2793 1.05275E-04-3.55401E-05-2.99203E-05-1.78254E-06-1.20016E-20 5.72720E-19
 -1      2794 1.04370E-04-3.46938E-05-2.98294E-05-2.99050E-06-3.98723E-19 4.35418E-19
 -1      2795 1.06390E-04-3.70196E-05-2.97521E-05-2.15781E-06 5.55963E-20-6.50317E-19
 -1      2796 1.03018E-04-3.36600E-05-2.97486E-05-3.92788E-06-5.68553E-19 5.66603E-19
 -1      2797 1.02104E-04-3.27800E-05-2.96833E-05-4.69046E-06-4.81444E-19 6.12728E-19
 -1      2798 1.03527E-04-3.47505E-05-2.95036E-05-4.52044E-06 5.61873E-20-2.32884E-19
 -1      2799 1.01015E-04-3.18741E-05-2.96453E-05-5.14879E-06-4.71264E-19 1.06994E-18
 -1      2800 1.00191E-04-3.11073E-05-2.95870E-05-5.52166E-06 1.15448E-18 9.15404E-19
 -1      2801 1.01078E-04-3.25389E-05-2.93989E-05-5.81727E-06 3.07652E-19-5.26798E-19
 -1      2802 9.93705E-05-3.03954E-05-2.95670E-05-5.62694E-06 1.99738E-18 1.07563E-18
 -1      2803 9.86664E-05-2.97791E-05-2.95092E-05-5.69425E-06 1.58651E-18 2.14715E-18
 -1      2804 9.91742E-05-3.07067E-05-2.93622E-05-6.29608E-06 1.62753E-18 9.70334E-20
 -1      2805 9.80649E-05-2.92445E-05-2.94961E-05-5.55403E-06 1.82040E-18 1.83316E-18
 -1      2806 9.74742E-05-2.87593E-05-2.94396E-05-5.39268E-06 1.43811E-18 1.20037E-18
 -1      2807 9.77623E-05-2.93028E-05-2.93531E-05-6.19579E-06 1.65118E-18 8.87623E-19
 -1      2808 9.70212E-05-2.83490E-05-2.94305E-05-5.07911E-06 5.79448E-20 4.92331E-19
 -1      2809 9.65316E-05-2.79615E-05-2.93801E-05-4.73921E-06-4.55548E-19-5.68541E-19
 -1      2810 9.67146E-05-2.82463E-05-2.93550E-05-5.70343E-06 4.45799E-19-3.23893E-19
 -1      2811 9.44737E-05-2.81105E-05-2.84409E-05-9.09867E-07 5.31957E-19-1.57914E-20
 -1      2812 9.44868E-05-2.79861E-05-2.84891E-05-7.26401E-07 6.09436E-19 4.34923E-20
 -1      2813 1.44189E-04-4.24314E-05-4.45360E-05-1.41066E-05 7.08755E-19 1.53885E-18
 -1      2814 1.43410E-04-4.89597E-05-4.04053E-05-9.95619E-06 2.71580E-20 1.11639E-18
 -1      2815 1.26116E-04-5.86608E-05-2.91984E-05 2.16014E-05 9.78005E-19-6.43851E-19
 -1      2816 1.15129E-04-5.62951E-05-2.48559E-05 2.86897E-05 1.55886E-18-1.38638E-18
 -1      2817 9.45452E-05-2.78379E-05-2.85895E-05-4.43723E-07 7.04290E-19-1.05661E-20
 -1      2818 9.46319E-05-2.76532E-05-2.86868E-05-9.52402E-08 7.54051E-19 2.83610E-20
 -1      2819 9.50071E-05-2.78945E-05-2.87710E-05-4.61153E-07 6.47963E-19 1.00458E-19
 -1      2820 9.45380E-05-2.83969E-05-2.83445E-05-1.22190E-06 7.46459E-20 1.70281E-19
 -1      2821 9.44712E-05-2.83380E-05-2.83397E-05-1.19973E-06 1.09448E-19 4.24055E-20
 -1      2822 9.46322E-05-2.84629E-05-2.83562E-05-1.22792E-06 3.85629E-19-2.74893E-19
 -1      2823 9.45477E-05-2.84240E-05-2.83378E-05-1.23541E-06 2.96053E-19-3.47323E-20
 -1      2824 9.49173E-05-2.85179E-05-2.84603E-05-1.26745E-06 3.13988E-19-2.13144E-19
 -1      2825 9.47491E-05-2.84955E-05-2.83920E-05-1.20417E-06 5.80546E-19-3.93813E-19
 -1      2826 9.46542E-05-2.84720E-05-2.83642E-05-1.22001E-06 4.45383E-19-3.69779E-19
 -1      2827 9.49539E-05-2.85676E-05-2.84538E-05-1.28566E-06 5.96301E-19-2.03059E-19
 -1      2828 9.48819E-05-2.85024E-05-2.84455E-05-1.18646E-06 6.44679E-19-2.91828E-19
 -1      2829 9.47799E-05-2.84910E-05-2.84108E-05-1.19471E-06 5.93904E-19-2.87252E-19
 -1      2830 9.50093E-05-2.85739E-05-2.84742E-05-1.27699E-06 5.86087E-19-9.54828E-20
 -1      2831 9.50286E-05-2.84885E-05-2.85137E-05-1.20272E-06 1.16141E-18-1.75444E-19
 -1      2832 9.49193E-05-2.84868E-05-2.84728E-05-1.19076E-06 1.02966E-18-9.99152E-20
 -1      2833 9.50781E-05-2.85465E-05-2.85151E-05-1.27878E-06 8.33001E-19-3.70140E-19
 -1      2834 9.51910E-05-2.84570E-05-2.85960E-05-1.27618E-06 6.37337E-19-1.68296E-19
 -1      2835 9.50717E-05-2.84631E-05-2.85486E-05-1.23327E-06 8.49779E-19-1.35737E-19
 -1      2836 9.51579E-05-2.84910E-05-2.85729E-05-1.32045E-06 1.01200E-18 2.26669E-19
 -1      2837 9.53738E-05-2.84096E-05-2.86936E-05-1.42779E-06 2.32429E-19-1.28385E-19
 -1      2838 9.52397E-05-2.84223E-05-2.86384E-05-1.34395E-06 6.33521E-19-2.29672E-20
 -1      2839 9.52479E-05-2.84100E-05-2.86461E-05-1.42670E-06 6.44549E-19-3.28105E-19
 -1      2840 9.55836E-05-2.83470E-05-2.88091E-05-1.67795E-06 3.36473E-19-5.26387E-19
 -1      2841 9.54284E-05-2.83651E-05-2.87440E-05-1.54320E-06 2.04898E-19-2.30989E-19
 -1      2842 9.53486E-05-2.83038E-05-2.87348E-05-1.61979E-06 4.94579E-19-7.78348E-20
 -1      2843 9.58285E-05-2.82691E-05-2.89459E-05-2.04763E-06 9.01235E-20 5.31925E-20
 -1      2844 9.56444E-05-2.82916E-05-2.88685E-05-1.85149E-06 1.26411E-19-5.13469E-19
 -1      2845 9.54608E-05-2.81708E-05-2.88400E-05-1.92125E-06 2.04253E-19-8.60268E-20
 -1      2846 9.61173E-05-2.81758E-05-2.91078E-05-2.55881E-06-4.34219E-19 6.27480E-19
 -1      2847 9.58955E-05-2.82012E-05-2.90153E-05-2.29024E-06-7.84198E-20 4.03210E-19
 -1      2848 9.55852E-05-2.80081E-05-2.89629E-05-2.35283E-06-3.16266E-19 4.97936E-19
 -1      2849 9.64591E-05-2.80686E-05-2.92981E-05-3.23402E-06-4.38005E-19 4.60864E-19
 -1      2850 9.61898E-05-2.80943E-05-2.91880E-05-2.88185E-06-4.53005E-19 5.23083E-19
 -1      2851 9.57213E-05-2.78130E-05-2.91046E-05-2.93678E-06-3.97553E-19 3.43112E-19
 -1      2852 9.68637E-05-2.79533E-05-2.95188E-05-4.09420E-06 1.80226E-19-2.84765E-19
 -1      2853 9.65361E-05-2.79736E-05-2.93890E-05-3.64866E-06-3.75365E-19-1.23961E-19
 -1      2854 9.58678E-05-2.75849E-05-2.92648E-05-3.69517E-06-5.34904E-20-3.33455E-20
 -1      2855 9.73437E-05-2.78461E-05-2.97683E-05-5.15431E-06 5.59500E-19-5.23470E-20
 -1      2856 9.69449E-05-2.78491E-05-2.96185E-05-4.61001E-06 7.15454E-19 1.36075E-19
 -1      2857 9.60236E-05-2.73298E-05-2.94402E-05-4.64784E-06 2.58315E-19 2.32470E-19
 -1      2858 9.79201E-05-2.77845E-05-3.00399E-05-6.41485E-06 2.21237E-19 1.61580E-19
 -1      2859 9.74326E-05-2.77463E-05-2.98725E-05-5.77650E-06 2.39216E-19-3.44705E-19
 -1      2860 9.61918E-05-2.70693E-05-2.96232E-05-5.80845E-06 5.24324E-19 1.07845E-18
 -1      2861 9.86357E-05-2.78472E-05-3.03187E-05-7.84765E-06 6.72266E-20 5.01480E-19
 -1      2862 9.80319E-05-2.77208E-05-3.01404E-05-7.13967E-06 2.51079E-19 3.84415E-19
 -1      2863 9.63899E-05-2.68560E-05-2.97992E-05-7.17787E-06-5.36683E-20 9.13236E-19
 -1      2864 9.95819E-05-2.81850E-05-3.05798E-05-9.37270E-06-2.45140E-19 1.16579E-18
 -1      2865 9.88123E-05-2.78851E-05-3.04026E-05-8.65460E-06-2.67399E-20 1.05087E-18
 -1      2866 9.66715E-05-2.68006E-05-2.99451E-05-8.73380E-06-2.16010E-19 1.37329E-18
 -1      2867 1.00944E-04-2.90632E-05-3.07898E-05-1.08227E-05-7.07799E-19 1.39337E-18
 -1      2868 9.99185E-05-2.84458E-05-3.06304E-05-1.02114E-05-5.15116E-19 1.49286E-18
 -1      2869 9.71658E-05-2.71127E-05-3.00288E-05-1.04143E-05-5.26592E-19 2.50433E-18
 -1      2870 1.03062E-04-3.08975E-05-3.09180E-05-1.18894E-05-1.24309E-18 1.41212E-18
 -1      2871 1.01630E-04-2.97490E-05-3.07919E-05-1.15895E-05-5.11516E-19 1.75083E-18
 -1      2872 9.81440E-05-2.81538E-05-3.00163E-05-1.20901E-05-7.58520E-19 2.84987E-18
 -1      2873 1.06473E-04-3.42223E-05-3.09698E-05-1.20486E-05-9.94185E-19 1.40859E-18
 -1      2874 1.04431E-04-3.22960E-05-3.08727E-05-1.23807E-05-1.07774E-18 1.04467E-18
 -1      2875 1.00110E-04-3.04794E-05-2.98910E-05-1.35080E-05-8.91425E-19 2.07971E-18
 -1      2876 1.11812E-04-3.94108E-05-3.10619E-05-1.04455E-05-7.40810E-19 7.35489E-19
 -1      2877 1.09012E-04-3.66312E-05-3.09330E-05-1.18608E-05-7.67776E-19 1.04618E-18
 -1      2878 1.03878E-04-3.47834E-05-2.97087E-05-1.41596E-05-9.48143E-19 1.19355E-18
 -1      2879 1.19360E-04-4.58759E-05-3.15531E-05-5.90988E-06-6.97346E-20 1.34355E-18
 -1      2880 1.15999E-04-4.28244E-05-3.12122E-05-8.87051E-06-7.72358E-19 1.01260E-18
 -1      2881 1.10451E-04-4.15167E-05-2.97113E-05-1.30605E-05-6.29825E-19 1.22842E-18
 -1      2882 1.27853E-04-5.07287E-05-3.31501E-05 2.42662E-06 6.12577E-19 1.81496E-18
 -1      2883 1.25034E-04-4.93208E-05-3.23109E-05-2.07694E-06 6.31832E-19 1.72538E-18
 -1      2884 1.20303E-04-4.93929E-05-3.05624E-05-8.34141E-06-2.36848E-19 1.34840E-18
 -1      2885 1.30919E-04-3.25187E-05-4.23832E-05 1.72772E-05 1.23529E-18 1.95707E-18
 -1      2886 1.33638E-04-4.08460E-05-4.02929E-05 1.77638E-05 1.13301E-18 2.60685E-18
 -1      2887 1.26149E-04-1.61550E-05-4.78864E-05 4.77498E-06 2.53496E-18 9.05478E-19
 -1      2888 1.27828E-04-2.06369E-05-4.65978E-05 1.19828E-05 2.27810E-18 1.60587E-18
 -1      2889 1.30326E-04-2.18079E-05-4.72023E-05-1.30130E-05 2.88161E-18-1.99476E-19
 -1      2890 1.27971E-04-1.67360E-05-4.82361E-05-4.38848E-06 3.00167E-18 6.13464E-19
 -1      2891 1.33508E-04-4.11849E-05-3.99556E-05-1.76606E-05 3.26902E-19-9.37560E-20
 -1      2892 1.31184E-04-3.32531E-05-4.22917E-05-1.60808E-05 1.24906E-18-2.67557E-19
 -1      2893 1.33766E-04-4.67708E-05-3.77093E-05-1.33573E-05-4.57702E-19 2.26846E-19
 -1      2894 1.27299E-04-5.05741E-05-3.27596E-05 1.93819E-07-1.88323E-18 2.35803E-18
 -1      2895 1.30123E-04-5.08111E-05-3.39862E-05-5.08651E-06-5.70662E-19 1.48562E-18
 -1      2896 1.18020E-04-4.46725E-05-3.12772E-05 7.98726E-06-1.09704E-18 2.72130E-18
 -1      2897 1.21407E-04-4.74614E-05-3.17423E-05 4.47620E-06-1.87425E-18 3.10537E-18
 -1      2898 1.23025E-04-5.11204E-05-3.09257E-05 7.16357E-06-1.99156E-18 2.18865E-18
 -1      2899 1.10272E-04-3.80996E-05-3.08257E-05 1.19936E-05-1.30123E-18 1.49904E-18
 -1      2900 1.13322E-04-4.10757E-05-3.10029E-05 1.01760E-05-6.26619E-19 2.72310E-18
 -1      2901 1.12666E-04-4.36945E-05-2.97101E-05 1.29141E-05-8.03040E-19 2.48152E-18
 -1      2902 1.05038E-04-3.32375E-05-3.07191E-05 1.31012E-05-1.33603E-18 5.83300E-19
 -1      2903 1.07333E-04-3.54066E-05-3.08306E-05 1.24857E-05-1.77837E-18 9.08371E-19
 -1      2904 1.05096E-04-3.63602E-05-2.95591E-05 1.47760E-05-9.16285E-19 1.86402E-18
 -1      2905 1.01768E-04-3.02450E-05-3.06332E-05 1.26574E-05-5.80865E-19-4.16560E-19
 -1      2906 1.03400E-04-3.15966E-05-3.07645E-05 1.27842E-05-4.20084E-19-2.46024E-20
 -1      2907 1.00674E-04-3.14639E-05-2.97185E-05 1.45386E-05-9.30266E-19 5.27078E-19
 -1      2908 9.97357E-05-2.86126E-05-3.04779E-05 1.14604E-05-4.53247E-19-1.91461E-18
 -1      2909 1.00918E-04-2.93858E-05-3.06415E-05 1.19826E-05-5.45381E-19-1.45882E-18
 -1      2910 9.82873E-05-2.86682E-05-2.98632E-05 1.33503E-05 2.46199E-19-7.24641E-19
 -1      2911 9.83982E-05-2.77944E-05-3.02618E-05 9.95643E-06-8.58845E-19-1.28481E-18
 -1      2912 9.92993E-05-2.82253E-05-3.04419E-05 1.06555E-05-1.00403E-18-2.30252E-18
 -1      2913 9.70527E-05-2.72847E-05-2.99102E-05 1.17804E-05-4.08657E-19-3.32563E-18
 -1      2914 9.74264E-05-2.73836E-05-3.00218E-05 8.37029E-06 6.89627E-19 7.09335E-19
 -1      2915 9.81475E-05-2.76424E-05-3.01977E-05 9.12884E-06 2.34241E-20 1.79455E-19
 -1      2916 9.63870E-05-2.66937E-05-2.98709E-05 1.01023E-05-1.34839E-18-3.38297E-18
 -1      2917 9.66517E-05-2.71249E-05-2.97938E-05 6.79034E-06 7.03255E-19 1.89193E-18
 -1      2918 9.72402E-05-2.73154E-05-2.99491E-05 7.55513E-06 5.12758E-19 1.44921E-18
 -1      2919 9.59503E-05-2.64596E-05-2.97833E-05 8.43534E-06 3.93594E-19-1.93183E-18
 -1      2920 9.58427E-05-2.67256E-05-2.96124E-05 5.47057E-06 3.37499E-19 2.68522E-18
 -1      2921 9.63287E-05-2.69045E-05-2.97331E-05 6.25410E-06 6.83087E-19 1.65209E-18
 -1      2922 9.53986E-05-2.61797E-05-2.96815E-05 7.01655E-06-1.38860E-19-1.20660E-18
 -1      2923 9.48539E-05-2.57749E-05-2.96261E-05 5.83616E-06-4.12127E-19-4.39311E-19
 -1      2924 9.08783E-05-2.21080E-05-2.94759E-05-8.11312E-07-5.82317E-19 8.38174E-19
 -1      2925 9.07545E-05-2.20000E-05-2.94806E-05 1.18472E-07 7.18440E-19 4.99622E-19
 -1      2926 9.63071E-05-2.77526E-05-2.93770E-05-4.44435E-06-4.42007E-20 1.28965E-19
 -1      2927 9.60136E-05-2.75320E-05-2.93445E-05-4.14070E-06-5.82345E-20 3.20946E-19
 -1      2928 9.60596E-05-2.75595E-05-2.93606E-05-5.06223E-06-3.85359E-19 1.08686E-19
 -1      2929 9.11417E-05-2.23145E-05-2.95144E-05 3.19422E-06 2.31374E-18-3.66450E-18
 -1      2930 9.15468E-05-2.26901E-05-2.95089E-05 3.98927E-06 2.16952E-18-5.03791E-18
 -1      2931 9.14808E-05-2.27305E-05-2.94608E-05-2.60019E-06-1.37573E-18 1.64244E-18
 -1      2932 9.11499E-05-2.24187E-05-2.94744E-05-1.80796E-06-1.54396E-18 1.16059E-18
 -1      2933 9.04801E-05-2.22783E-05-2.92160E-05-1.54723E-06-1.58972E-18-1.13312E-19
 -1      2934 9.07349E-05-2.19448E-05-2.94919E-05 1.21911E-06 5.41500E-20-1.10663E-18
 -1      2935 9.08709E-05-2.20778E-05-2.94899E-05 2.15640E-06 7.79593E-19-1.97729E-18
 -1      2936 9.04312E-05-2.20839E-05-2.92739E-05 2.88411E-06 9.50318E-19-4.35032E-18
 -1      2937 9.01401E-05-2.19013E-05-2.92282E-05 6.42711E-07 1.74639E-19-7.87703E-19
 -1      2938 9.47127E-05-2.74055E-05-2.88487E-05 3.92771E-07 7.33882E-19-5.75359E-20
 -1      2939 9.48928E-05-2.71140E-05-2.90203E-05 1.00004E-06 8.05654E-19 9.01708E-20
 -1      2940 9.51262E-05-2.73718E-05-2.90474E-05 3.75525E-07 7.36177E-19-7.71834E-20
 -1      2941 9.23745E-05-2.36554E-05-2.94425E-05-3.91600E-06-1.01319E-19-3.89021E-19
 -1      2942 9.19196E-05-2.32102E-05-2.94651E-05-3.35670E-06-5.21532E-19 2.49160E-18
 -1      2943 9.13061E-05-2.30883E-05-2.92284E-05-3.36628E-06-3.97509E-19 2.47695E-18
 -1      2944 9.34249E-05-2.47547E-05-2.94188E-05-4.69779E-06 2.61305E-18-2.35916E-19
 -1      2945 9.29065E-05-2.42280E-05-2.94493E-05-4.39291E-06 1.19770E-18 2.97921E-19
 -1      2946 9.24304E-05-2.41612E-05-2.92559E-05-4.63498E-06 9.87670E-19 1.36082E-18
 -1      2947 9.44922E-05-2.58871E-05-2.93920E-05-4.92945E-06 2.03043E-18-2.96521E-18
 -1      2948 9.39582E-05-2.53286E-05-2.94259E-05-4.86626E-06 3.14571E-18-3.67775E-18
 -1      2949 9.36726E-05-2.53314E-05-2.92906E-05-5.28498E-06 2.33183E-18-1.19277E-18
 -1      2950 6.06881E-05-3.27819E-05-1.14759E-05-3.87785E-05 5.31937E-19-5.46749E-18
 -1      2951 7.58213E-05-4.13074E-05-1.46509E-05-4.22590E-05 7.27284E-19-3.73711E-18
 -1      2952 9.46964E-05-2.19046E-05-3.12032E-05 7.85537E-06 1.40365E-18 5.85214E-20
 -1      2953 5.78987E-05-2.80904E-05-1.25526E-05 3.54573E-05 1.32370E-18 1.28145E-18
 -1      2954 4.31046E-05-1.98079E-05-9.29374E-06 2.72479E-05-5.01073E-19 1.45986E-18
 -1      2955 1.26804E-04-7.80064E-06-5.16108E-05 3.64641E-07-9.37030E-19-1.24171E-18
 -1      2956 1.27849E-04-9.31482E-06-5.15056E-05-4.77275E-06-1.47214E-18-1.01512E-18
 -1      2957 1.22103E-04-1.25116E-05-4.72860E-05-7.29865E-06-6.00970E-19-1.10379E-19
 -1      2958 1.21973E-04-5.80399E-05-2.69733E-05-2.44217E-05 9.02143E-19-8.74350E-19
 -1      2959 1.31826E-04-5.79727E-05-3.21955E-05-1.44131E-05 6.89538E-19-8.75303E-19
 -1      2960 9.85449E-05-5.07339E-05-2.05433E-05 3.76198E-05 1.87364E-18-2.25914E-18
 -1      2961 7.91714E-05-4.02387E-05-1.62084E-05 3.90053E-05 1.82281E-18-1.08981E-18
 -1      2962 3.39801E-05-1.43650E-05-8.03104E-06 1.72479E-05-8.17069E-19 4.56339E-19
 -1      2963 3.04737E-05-1.22038E-05-7.21761E-06 4.13948E-06-1.25321E-18-4.64598E-19
 -1      2964 1.37190E-04-5.16689E-05-3.72324E-05 3.00750E-06 1.39135E-18-1.88655E-18
 -1      2965 1.32779E-04-5.62925E-05-3.27310E-05 1.18126E-05 1.45547E-18-1.30136E-18
 -1      2966 1.28805E-04-5.66215E-05-3.08664E-05 1.26288E-05 7.79297E-19-1.84452E-18
 -1      2967 1.43810E-04-4.30145E-05-4.33700E-05 1.41681E-05 9.33536E-19 2.08624E-18
 -1      2968 1.40473E-04-3.28219E-05-4.68102E-05 1.62762E-05 1.95262E-18 2.20387E-18
 -1      2969 9.44790E-05-2.82858E-05-2.83673E-05-1.13804E-06 5.67343E-22-4.18513E-20
 -1      2970 9.44426E-05-2.81999E-05-2.83834E-05-1.05653E-06 1.88402E-19-2.22526E-19
 -1      2971 9.49342E-05-2.82155E-05-2.86003E-05-9.34984E-07 3.99922E-19-1.78078E-19
 -1      2972 9.49073E-05-2.84090E-05-2.85041E-05-1.17296E-06 2.24644E-20-1.34650E-19
 -1      2973 9.52374E-05-2.39857E-05-3.05156E-05-5.31282E-06-1.04816E-18-9.49260E-19
 -1      2974 9.51584E-05-2.50019E-05-3.00872E-05-3.81320E-06-9.84616E-19-9.46328E-19
 -1      2975 9.52039E-05-2.46886E-05-3.02207E-05-3.54622E-06-9.75518E-19-9.54536E-19
 -1      2976 3.87675E-05-1.74242E-05-8.72914E-06-2.27006E-05 5.22355E-19-4.91300E-18
 -1      2977 4.84948E-05-2.48927E-05-9.67088E-06-3.35538E-05 2.40134E-19-6.25386E-18
 -1      2978 6.10639E-05-2.86243E-05-1.33338E-05-3.41012E-05 1.02073E-18-5.88391E-18
 -1      2979 9.49661E-05-2.66834E-05-2.92696E-05 1.79100E-06 8.88347E-19 4.25835E-20
 -1      2980 9.52338E-05-2.61874E-05-2.95542E-05 2.80105E-06 9.38958E-19 1.07397E-19
 -1      2981 9.52654E-05-2.50179E-05-3.01031E-05 3.83309E-06 1.07799E-18-1.63743E-19
 -1      2982 9.52484E-05-2.64965E-05-2.94719E-05 1.74297E-06 9.29195E-19-5.41332E-20
 -1      2983 1.29828E-04-1.61619E-05-4.92618E-05 9.75071E-06 1.16467E-19-1.09235E-18
 -1      2984 1.27273E-04-1.07671E-05-5.06839E-05 5.78880E-06-6.37181E-19-1.23656E-18
 -1      2985 9.11973E-05-1.60949E-05-3.22147E-05 4.92458E-06 1.17909E-18-1.20283E-18
 -1      2986 9.08576E-05-1.55965E-05-3.22765E-05 4.00080E-06 9.44518E-19-1.33884E-18
 -1      2987 9.18368E-05-1.72063E-05-3.19693E-05 3.20257E-06 8.36342E-19-1.31868E-18
 -1      2988 9.24996E-05-1.82658E-05-3.17948E-05 4.62354E-06 1.05710E-18-1.03455E-18
 -1      2989 9.56150E-05-2.70904E-05-2.93646E-05-4.40183E-06 4.60457E-19 5.19482E-19
 -1      2990 1.41205E-04-5.78899E-05-3.63167E-05 6.85505E-07-1.13938E-18 9.59053E-19
 -1      2991 1.34330E-04-6.08375E-05-3.13837E-05 1.10232E-05-1.89386E-18 5.96946E-19
 -1      2992 9.08210E-05-1.55474E-05-3.22818E-05-3.93829E-06-1.88501E-19-1.57174E-18
 -1      2993 9.11528E-05-1.60327E-05-3.22218E-05-4.86418E-06-3.76131E-19-1.50445E-18
 -1      2994 1.21296E-04-5.98192E-05-2.59790E-05-2.41761E-05-8.96478E-19-3.31031E-19
 -1      2995 1.32160E-04-6.19674E-05-3.05275E-05-1.58362E-05-1.36182E-18 3.41460E-19
 -1      2996 1.35787E-04-3.26920E-05-4.49702E-05-9.93296E-06-3.23990E-20-5.31725E-19
 -1      2997 1.37804E-04-4.20113E-05-4.11314E-05-5.92097E-06 1.15324E-18-9.89758E-19
 -1      2998 8.72060E-05-4.61247E-05-1.71910E-05-3.67907E-05-1.11279E-19 1.01178E-18
 -1      2999 1.05591E-04-5.48869E-05-2.18064E-05-3.33231E-05-1.08526E-19-2.04241E-19
 -1      3000 8.54130E-05-4.59577E-05-1.68324E-05 3.94173E-05-1.70508E-18 3.37754E-18
 -1      3001 6.67604E-05-3.57472E-05-1.29176E-05 3.68927E-05-2.13537E-18 5.16828E-18
 -1      3002 3.48439E-05-1.26357E-05-9.00139E-06 6.22209E-06 8.08294E-19-5.62853E-19
 -1      3003 3.41788E-05-1.26290E-05-8.62519E-06-9.23455E-06 9.22525E-19-2.35983E-18
 -1      3004 3.13382E-05-1.32105E-05-7.29043E-06-8.04013E-06-1.40562E-18-1.28728E-18
 -1      3005 3.69222E-05-1.70405E-05-7.90970E-06-1.98460E-05-9.67259E-19-8.65879E-19
 -1      3006 1.36967E-04-5.10933E-05-3.67121E-05-2.07476E-06 8.24851E-19-2.32934E-19
 -1      3007 1.38615E-04-4.39659E-05-4.11849E-05 4.18449E-06 1.04434E-18-3.60095E-19
 -1      3008 1.40090E-04-5.87824E-05-3.47017E-05-2.69759E-06-5.00881E-19 1.94881E-18
 -1      3009 1.43630E-04-5.28972E-05-3.95452E-05 6.57502E-06 6.21643E-19 2.40833E-18
 -1      3010 1.36839E-04-3.35168E-05-4.46087E-05 9.27523E-06 1.03042E-18-1.00829E-18
 -1      3011 1.34440E-04-2.44328E-05-4.78415E-05 1.04817E-05 7.63706E-19-1.33683E-18
 -1      3012 9.43314E-05-2.09683E-05-3.14654E-05-8.02837E-06-1.17556E-18-1.09270E-18
 -1      3013 9.47931E-05-2.27875E-05-3.08703E-05-6.32736E-06-1.11937E-18-1.05180E-18
 -1      3014 9.46089E-05-2.24300E-05-3.09316E-05-5.72795E-06-1.00829E-18-1.07860E-18
 -1      3015 9.35095E-05-1.95892E-05-3.16816E-05-7.84772E-06-1.05034E-18-1.33189E-18
 -1      3016 9.15678E-05-4.85672E-05-1.79409E-05-3.97089E-05 4.20340E-19-1.28159E-18
 -1      3017 1.06730E-04-5.50460E-05-2.24721E-05-3.53651E-05 9.34066E-19-4.86673E-19
 -1      3018 8.73854E-05-4.41770E-05-1.80894E-05-3.81606E-05 3.51095E-19-2.09069E-18
 -1      3019 9.15770E-05-1.66813E-05-3.21195E-05-5.59325E-06-5.09571E-19-1.52071E-18
 -1      3020 9.20904E-05-1.74544E-05-3.20186E-05-6.41575E-06-7.18925E-19-1.59830E-18
 -1      3021 9.24496E-05-1.81897E-05-3.18041E-05-4.58597E-06-4.37375E-19-1.30638E-18
 -1      3022 9.13176E-05-1.63971E-05-3.20966E-05 2.80753E-08 3.84743E-19-1.41192E-18
 -1      3023 9.01944E-05-1.46090E-05-3.24132E-05-3.84067E-07 3.71349E-19-1.52256E-18
 -1      3024 9.02502E-05-1.46890E-05-3.24030E-05-1.34280E-06 2.21654E-19-1.57667E-18
 -1      3025 1.26590E-04-2.11973E-05-4.55056E-05 1.13305E-05 5.28654E-19-8.65138E-19
 -1      3026 5.10330E-05-1.74946E-05-1.39963E-05 1.88754E-05 7.42848E-19 1.11575E-18
 -1      3027 4.19919E-05-1.46084E-05-1.10772E-05 1.31539E-05 1.26324E-18-1.93653E-19
 -1      3028 4.48711E-05-1.27035E-05-1.34758E-05 5.84826E-06 1.52394E-18-1.01263E-18
 -1      3029 9.88607E-05-4.99367E-05-2.06544E-05 3.29330E-05-2.40653E-18 1.78344E-18
 -1      3030 1.29045E-04-2.67712E-05-4.41588E-05-1.19769E-05 6.63862E-20-3.88894E-19
 -1      3031 9.51759E-05-2.65792E-05-2.94023E-05-4.59447E-06 8.82798E-19 3.55531E-19
 -1      3032 9.13679E-05-2.28376E-05-2.93571E-05 4.81238E-06 1.99990E-18-4.73936E-18
 -1      3033 9.20948E-05-2.31970E-05-2.95476E-05 4.78849E-06 1.62129E-18-5.34398E-18
 -1      3034 9.27238E-05-2.37791E-05-2.95426E-05 5.29392E-06 6.18890E-20-3.71908E-18
 -1      3035 1.39840E-04-5.29772E-05-3.72824E-05-7.19198E-06-1.33680E-18-9.05266E-20
 -1      3036 1.08117E-04-5.26695E-05-2.36117E-05 2.99785E-05 1.07843E-18-2.09974E-18
 -1      3037 1.33993E-04-5.17463E-05-3.53418E-05 8.23877E-06 5.00491E-19 2.42069E-18
 -1      3038 1.32436E-04-5.49845E-05-3.34231E-05 3.00877E-07-1.10326E-19 1.52414E-18
 -1      3039 1.33001E-04-2.72769E-05-4.58891E-05 1.67218E-05 1.87067E-18 1.74817E-18
 -1      3040 1.34501E-04-4.77451E-05-3.73074E-05 1.27003E-05 6.52480E-19 2.45708E-18
 -1      3041 9.33684E-05-2.43730E-05-2.95893E-05 5.65780E-06-1.52189E-18-4.30045E-18
 -1      3042 9.41321E-05-2.50880E-05-2.95828E-05 5.78824E-06-7.57229E-19-3.20896E-18
 -1      3043 9.43503E-05-2.52681E-05-2.95863E-05 6.42271E-06-5.72972E-19-3.30343E-18
 -1      3044 9.27653E-05-2.39687E-05-2.94707E-05 6.01351E-06-1.41878E-19-2.94958E-18
 -1      3045 1.20754E-04-1.03910E-05-4.76336E-05 3.44223E-06-8.16328E-19-1.16224E-18
 -1      3046 1.33502E-04-3.85111E-05-4.09432E-05 9.35642E-06 3.61524E-19-2.92332E-19
 -1      3047 1.34978E-04-5.91226E-05-3.24774E-05-5.89574E-06-8.82502E-19 1.34477E-18
 -1      3048 9.50782E-05-2.66176E-05-2.93386E-05-5.15047E-06 1.73326E-18-1.44998E-18
 -1      3049 1.32540E-04-5.40156E-05-3.36814E-05-5.46279E-06 8.98649E-19-8.85467E-19
 -1      3050 9.43501E-05-2.14230E-05-3.12587E-05 7.22886E-06 1.38025E-18-2.79448E-19
 -1      3051 3.88198E-05-1.24677E-05-1.06174E-05-2.07150E-06-1.30312E-18-1.04598E-18
 -1      3052 1.34531E-04-4.68440E-05-3.77162E-05-3.70424E-06 1.13899E-18-1.37897E-18
 -1      3053 7.16316E-05-3.40768E-05-1.56047E-05 3.69951E-05 1.21089E-18-6.65662E-19
 -1      3054 6.50866E-05-2.74228E-05-1.58058E-05 3.19690E-05 5.46601E-19 4.64545E-19
 -1      3055 8.37883E-05-3.88928E-05-1.90635E-05 3.42543E-05 9.14531E-19-1.33699E-18
 -1      3056 4.53894E-05-1.66152E-05-1.16943E-05 2.02720E-05-1.07679E-19 1.50941E-18
 -1      3057 1.15397E-04-5.57988E-05-2.53578E-05-2.69652E-05 8.93726E-19-6.96129E-19
 -1      3058 4.93767E-05-2.14514E-05-1.14217E-05-2.44114E-05-8.84461E-19 1.72054E-19
 -1      3059 1.32834E-04-5.68390E-05-3.27281E-05 2.45389E-06-2.66573E-18 4.08561E-19
 -1      3060 1.33227E-04-5.22325E-05-3.46803E-05-6.20356E-06-1.22576E-18 4.69892E-19
 -1      3061 1.40139E-04-4.79466E-05-3.96315E-05 1.27196E-05 5.01655E-19 2.64031E-18
 -1      3062 1.39854E-04-3.13752E-05-4.68422E-05-1.56252E-05 1.62228E-18 5.51207E-19
 -1      3063 8.03837E-05-4.12022E-05-1.63922E-05-3.63762E-05-3.74177E-19 6.75826E-19
 -1      3064 9.15906E-05-4.49077E-05-2.00651E-05-3.28809E-05 1.05350E-20-3.11496E-19
 -1      3065 7.23849E-05-3.41373E-05-1.60279E-05-3.37501E-05-1.09500E-18 6.54333E-19
 -1      3066 4.31645E-05-1.51761E-05-1.14233E-05-1.51072E-05 1.32796E-18-3.88407E-18
 -1      3067 9.03743E-05-1.48801E-05-3.23749E-05-2.18054E-06 9.16513E-20-1.57096E-18
 -1      3068 9.05574E-05-1.51435E-05-3.23422E-05-3.13271E-06-6.37826E-20-1.60669E-18
 -1      3069 9.18063E-05-1.71635E-05-3.19746E-05-3.14734E-06-1.54294E-19-1.46787E-18
 -1      3070 9.14342E-05-1.65801E-05-3.20675E-05-1.58546E-06 1.38649E-19-1.44003E-18
 -1      3071 1.14293E-04-5.60529E-05-2.46929E-05-2.58687E-05-4.98902E-19-3.62768E-20
 -1      3072 6.71042E-05-3.13704E-05-1.46998E-05 3.22199E-05-9.33748E-19 3.72165E-18
 -1      3073 9.46132E-05-2.24662E-05-3.09128E-05 5.70389E-06 1.26603E-18-3.45090E-19
 -1      3074 4.28116E-05-1.13428E-05-1.32014E-05 3.44331E-06-2.75041E-19-8.91502E-20
 -1      3075 4.44434E-05-1.23899E-05-1.32644E-05-8.45409E-06-6.39788E-19-1.11120E-18
 -1      3076 9.42844E-05-2.18596E-05-3.10628E-05 4.97788E-06 1.10696E-18-5.31354E-19
 -1      3077 9.38225E-05-2.09084E-05-3.12503E-05 4.62795E-06 1.07020E-18-7.02913E-19
 -1      3078 9.24424E-05-1.79676E-05-3.19393E-05-6.92901E-06-8.16476E-19-1.58049E-18
 -1      3079 9.30756E-05-1.89470E-05-3.17986E-05-7.43963E-06-9.58911E-19-1.45403E-18
 -1      3080 9.38252E-05-2.05039E-05-3.14029E-05-6.43932E-06-9.48156E-19-1.28867E-18
 -1      3081 9.32031E-05-1.93924E-05-3.16048E-05-5.67562E-06-7.56269E-19-1.46373E-18
 -1      3082 9.49802E-05-2.34961E-05-3.06156E-05-4.13626E-06-9.04472E-19-1.07438E-18
 -1      3083 9.51703E-05-2.45953E-05-3.02635E-05-2.98008E-06-9.24974E-19-1.04363E-18
 -1      3084 9.56862E-05-2.68652E-05-2.94801E-05-7.41881E-07-4.75814E-19-6.11325E-19
 -1      3085 9.56618E-05-2.73081E-05-2.93025E-05-2.10516E-07-3.40794E-19-7.43429E-19
 -1      3086 9.57054E-05-2.76876E-05-2.91393E-05 1.77873E-07-3.90290E-19-6.86240E-19
 -1      3087 9.56694E-05-2.79673E-05-2.90195E-05 5.02754E-07-4.48024E-19-7.15299E-19
 -1      3088 9.59046E-05-2.73033E-05-2.94035E-05-1.48479E-07-4.31575E-19-6.17909E-19
 -1      3089 9.56598E-05-2.81965E-05-2.89051E-05 7.36201E-07-4.90926E-19-7.08202E-19
 -1      3090 9.56290E-05-2.83677E-05-2.88281E-05 9.18995E-07-3.70938E-19-6.84858E-19
 -1      3091 9.59434E-05-2.80106E-05-2.91177E-05 5.06934E-07-4.89967E-19-6.60232E-19
 -1      3092 9.55939E-05-2.84963E-05-2.87512E-05 1.04570E-06-2.83950E-19-7.50922E-19
 -1      3093 9.55727E-05-2.85936E-05-2.87054E-05 1.13665E-06-3.29602E-19-8.07119E-19
 -1      3094 9.59044E-05-2.84361E-05-2.89185E-05 8.94832E-07-3.57947E-19-8.25216E-19
 -1      3095 9.55262E-05-2.86536E-05-2.86570E-05 1.19554E-06-2.41333E-19-4.46452E-19
 -1      3096 9.55145E-05-2.86991E-05-2.86341E-05 1.23254E-06-2.12154E-19-4.67099E-19
 -1      3097 9.58280E-05-2.86679E-05-2.87860E-05 1.10223E-06-4.92531E-20-4.79371E-19
 -1      3098 9.54635E-05-2.87110E-05-2.86072E-05 1.25409E-06-1.60893E-19-5.08197E-19
 -1      3099 9.54597E-05-2.87195E-05-2.86011E-05 1.26540E-06-1.77582E-19-4.45796E-19
 -1      3100 9.57349E-05-2.87639E-05-2.87043E-05 1.19945E-06-1.22331E-19-4.95644E-19
 -1      3101 9.54075E-05-2.86970E-05-2.85905E-05 1.27299E-06-3.34810E-19-3.42412E-19
 -1      3102 9.54099E-05-2.86782E-05-2.85969E-05 1.27971E-06-3.79795E-19-4.87510E-19
 -1      3103 9.56351E-05-2.87631E-05-2.86614E-05 1.24139E-06-2.59829E-19-4.72920E-19
 -1      3104 9.53575E-05-2.86301E-05-2.85986E-05 1.29122E-06-3.01503E-19-3.35390E-19
 -1      3105 9.53651E-05-2.85910E-05-2.86146E-05 1.30925E-06-1.20101E-19-3.09985E-19
 -1      3106 9.55330E-05-2.86913E-05-2.86480E-05 1.27027E-06-2.27383E-19-1.97442E-19
 -1      3107 9.53123E-05-2.85233E-05-2.86258E-05 1.33849E-06-9.71452E-20-2.40262E-19
 -1      3108 9.53248E-05-2.84687E-05-2.86493E-05 1.37998E-06 1.67853E-19-2.74932E-20
 -1      3109 9.54296E-05-2.85660E-05-2.86569E-05 1.31858E-06 1.02642E-19 6.94471E-20
 -1      3110 9.52712E-05-2.83856E-05-2.86677E-05 1.43781E-06 2.27841E-19-2.44860E-19
 -1      3111 9.52892E-05-2.83198E-05-2.86974E-05 1.51214E-06 1.35253E-19-3.65856E-19
 -1      3112 9.53243E-05-2.83994E-05-2.86829E-05 1.41158E-06-1.47263E-20-4.59275E-19
 -1      3113 9.52342E-05-2.82251E-05-2.87212E-05 1.60724E-06-7.42062E-20-4.86273E-19
 -1      3114 9.52596E-05-2.81524E-05-2.87560E-05 1.72146E-06-1.96778E-19-5.60585E-19
 -1      3115 9.52162E-05-2.82008E-05-2.87214E-05 1.56933E-06-8.81696E-21-1.75752E-19
 -1      3116 9.52038E-05-2.80504E-05-2.87834E-05 1.86066E-06-1.38961E-19-2.04957E-19
 -1      3117 9.52400E-05-2.79768E-05-2.88224E-05 2.01950E-06-4.83800E-20 5.46673E-20
 -1      3118 9.51056E-05-2.79796E-05-2.87686E-05 1.80776E-06 7.06971E-20-6.56712E-19
 -1      3119 9.51858E-05-2.78742E-05-2.88514E-05 2.20771E-06 9.99461E-20-1.19338E-19
 -1      3120 9.52384E-05-2.78086E-05-2.88934E-05 2.41308E-06 6.02807E-20 1.12108E-19
 -1      3121 9.49953E-05-2.77482E-05-2.88204E-05 2.13905E-06 1.60991E-19-4.29169E-19
 -1      3122 9.51920E-05-2.77159E-05-2.89219E-05 2.65283E-06-4.39962E-20 3.30003E-19
 -1      3123 9.52701E-05-2.76718E-05-2.89651E-05 2.90276E-06 1.66845E-20 2.20109E-19
 -1      3124 9.48937E-05-2.75255E-05-2.88725E-05 2.57129E-06 6.13985E-20-4.75873E-19
 -1      3125 9.52429E-05-2.76059E-05-2.89904E-05 3.19316E-06-2.34590E-19 2.65197E-19
 -1      3126 9.53608E-05-2.76041E-05-2.90326E-05 3.48004E-06-4.19080E-19-6.00152E-20
 -1      3127 9.48181E-05-2.73416E-05-2.89194E-05 3.10719E-06-1.21116E-19-1.64595E-19
 -1      3128 9.53732E-05-2.75909E-05-2.90516E-05 3.81511E-06-4.30177E-19 7.68461E-20
 -1      3129 9.55524E-05-2.76612E-05-2.90900E-05 4.12332E-06-8.75591E-20-4.35291E-19
 -1      3130 9.47993E-05-2.72429E-05-2.89549E-05 3.74169E-06-4.30954E-19-5.15667E-20
 -1      3131 9.56370E-05-2.77383E-05-2.90993E-05 4.48949E-06 2.02182E-19-4.85401E-19
 -1      3132 9.59089E-05-2.79219E-05-2.91310E-05 4.79213E-06 4.63835E-19-3.37769E-19
 -1      3133 9.48891E-05-2.72979E-05-2.89720E-05 4.45838E-06-3.28372E-20 1.09204E-19
 -1      3134 9.61155E-05-2.81406E-05-2.91281E-05 5.16434E-06 7.21786E-19-5.46682E-19
 -1      3135 9.65234E-05-2.84905E-05-2.91512E-05 5.41914E-06 1.82016E-19-6.50674E-19
 -1      3136 9.51682E-05-2.76030E-05-2.89645E-05 5.22385E-06 5.21175E-19-2.97229E-19
 -1      3137 9.69231E-05-2.89153E-05-2.91362E-05 5.75478E-06-7.01643E-19-4.69178E-19
 -1      3138 9.75217E-05-2.94914E-05-2.91516E-05 5.89889E-06-9.69285E-19-1.55732E-19
 -1      3139 9.57554E-05-2.82847E-05-2.89297E-05 5.97859E-06-1.19338E-19-7.57405E-19
 -1      3140 9.82082E-05-3.01929E-05-2.91305E-05 6.12800E-06-1.12874E-18-4.48692E-20
 -1      3141 9.90555E-05-3.10481E-05-2.91456E-05 6.07240E-06-8.41402E-19 1.16592E-19
 -1      3142 9.68143E-05-2.94938E-05-2.88737E-05 6.62184E-06-8.39795E-19 2.90167E-20
 -1      3143 1.00138E-04-3.20826E-05-2.91357E-05 6.08244E-06-4.50211E-19-4.93848E-19
 -1      3144 1.01272E-04-3.32275E-05-2.91692E-05 5.70835E-06 1.85154E-19-5.95797E-19
 -1      3145 9.85490E-05-3.13797E-05-2.88203E-05 6.98604E-06-9.23162E-19 4.80422E-19
 -1      3146 1.02840E-04-3.45901E-05-2.92061E-05 5.32984E-06 5.72651E-19-9.05518E-19
 -1      3147 1.04233E-04-3.59329E-05-2.92923E-05 4.49835E-06 4.03453E-19-8.53552E-19
 -1      3148 1.01167E-04-3.40177E-05-2.88246E-05 6.80048E-06 1.37737E-19-5.70436E-19
 -1      3149 1.06290E-04-3.74717E-05-2.94374E-05 3.49210E-06 3.61600E-19-6.67615E-19
 -1      3150 1.07786E-04-3.87259E-05-2.96323E-05 2.08666E-06 1.77685E-19-5.91993E-19
 -1      3151 1.04793E-04-3.72861E-05-2.89879E-05 5.65574E-06 2.46505E-19-1.21574E-18
 -1      3152 1.10043E-04-3.99633E-05-2.99809E-05 2.54376E-07-2.00434E-20 1.39496E-19
 -1      3153 1.11275E-04-4.05433E-05-3.03539E-05-1.62969E-06 2.48750E-19 4.32897E-20
 -1      3154 1.09117E-04-4.05193E-05-2.94821E-05 2.94861E-06 2.95568E-19-1.21670E-18
 -1      3155 1.13382E-04-4.09444E-05-3.10102E-05-4.41592E-06-1.37380E-19 2.51101E-19
 -1      3156 1.13659E-04-3.99651E-05-3.16331E-05-6.59112E-06 1.38354E-20-1.46623E-19
 -1      3157 1.13787E-04-4.24907E-05-3.06003E-05-1.57823E-06 1.14952E-19-6.53016E-19
 -1      3158 1.14302E-04-3.82408E-05-3.26689E-05-9.40521E-06 7.28912E-20-8.08596E-19
 -1      3159 1.13373E-04-3.52518E-05-3.34828E-05-1.07829E-05-1.36002E-19-1.24365E-18
 -1      3160 1.16537E-04-4.10593E-05-3.23351E-05-7.20264E-06-4.71137E-19-7.18651E-19
 -1      3161 1.12165E-04-3.14864E-05-3.47486E-05-1.19879E-05 4.84012E-19-1.02331E-18
 -1      3162 1.10323E-04-2.71761E-05-3.56011E-05-1.14569E-05 6.03696E-19-1.02355E-18
 -1      3163 1.15926E-04-3.44278E-05-3.49141E-05-1.18580E-05 7.89991E-20-1.28562E-18
 -1      3164 1.08019E-04-2.28154E-05-3.67241E-05-9.39339E-06 1.43625E-19-2.24788E-19
 -1      3165 1.06450E-04-1.96046E-05-3.72708E-05-6.44677E-06-7.58783E-19 2.62034E-19
 -1      3166 1.12310E-04-2.46769E-05-3.75789E-05-1.16236E-05 6.59389E-19-9.50801E-19
 -1      3167 1.05482E-04-1.78670E-05-3.76686E-05-1.39314E-06-1.36630E-18 6.48460E-19
 -1      3168 1.05557E-04-1.82057E-05-3.76080E-05 2.53867E-06-7.57843E-19 8.26889E-19
 -1      3169 1.08537E-04-1.71952E-05-3.92038E-05-4.35371E-06-8.16990E-19 1.95258E-19
 -1      3170 1.07035E-04-2.05314E-05-3.70547E-05 7.28626E-06-8.18472E-19 9.09951E-19
 -1      3171 1.08737E-04-2.41786E-05-3.64250E-05 9.95303E-06-8.53942E-19 2.44213E-19
 -1      3172 1.08870E-04-1.78715E-05-3.90753E-05 5.67362E-06-8.96320E-19 6.25911E-19
 -1      3173 1.10954E-04-2.86382E-05-3.52454E-05 1.13138E-05-1.02304E-18 5.86186E-19
 -1      3174 1.12695E-04-3.28693E-05-3.43738E-05 1.15668E-05-9.33543E-19 2.13743E-19
 -1      3175 1.13043E-04-2.66274E-05-3.71148E-05 1.15377E-05-1.08379E-18-8.20457E-19
 -1      3176 1.13780E-04-3.64826E-05-3.31109E-05 9.77958E-06-8.07798E-19 6.04779E-19
 -1      3177 1.14347E-04-3.91259E-05-3.23081E-05 8.15037E-06-9.86686E-20-9.42126E-20
 -1      3178 1.16558E-04-3.64307E-05-3.43258E-05 1.08359E-05-9.27018E-19 3.79683E-19
 -1      3179 1.13491E-04-4.04615E-05-3.13330E-05 5.31079E-06 4.45502E-19 1.79015E-19
 -1      3180 1.12955E-04-4.11374E-05-3.07545E-05 3.07268E-06 1.04192E-19 6.87074E-19
 -1      3181 1.16256E-04-4.17473E-05-3.19510E-05 5.81873E-06 1.84759E-19 1.22187E-18
 -1      3182 1.10852E-04-4.06123E-05-3.01516E-05 4.42270E-07-1.09635E-19 1.22582E-18
 -1      3183 1.09565E-04-3.98975E-05-2.98049E-05-1.48863E-06 3.08422E-19 1.25195E-18
 -1      3184 1.13198E-04-4.26486E-05-3.02671E-05-3.49998E-08 6.90208E-19 1.67463E-18
 -1      3185 1.07290E-04-3.85374E-05-2.94971E-05-3.23473E-06 2.83837E-19 8.46358E-19
 -1      3186 1.05788E-04-3.72431E-05-2.93209E-05-4.60200E-06 1.93289E-19 8.48351E-19
 -1      3187 1.08667E-04-4.03342E-05-2.93279E-05-4.23287E-06-2.46835E-20 2.18637E-18
 -1      3188 1.03809E-04-3.56994E-05-2.92065E-05-5.53551E-06-9.36286E-20 7.02840E-19
 -1      3189 1.02432E-04-3.43521E-05-2.91349E-05-6.32689E-06 1.46535E-20 4.95116E-19
 -1      3190 1.04372E-04-3.70325E-05-2.89150E-05-6.67861E-06 4.37421E-20 1.93950E-18
 -1      3191 1.00959E-04-3.30165E-05-2.91233E-05-6.66648E-06-1.90538E-19-5.87936E-19
 -1      3192 9.98505E-05-3.18738E-05-2.91039E-05-7.00942E-06 6.32681E-19-6.15739E-20
 -1      3193 1.00932E-04-3.38064E-05-2.88131E-05-7.70841E-06-1.91317E-19 5.57167E-19
 -1      3194 9.88438E-05-3.08482E-05-2.91397E-05-6.98025E-06 1.69876E-18 7.47625E-20
 -1      3195 9.80103E-05-2.99680E-05-2.91425E-05-7.00239E-06 1.84972E-18 3.26787E-20
 -1      3196 9.84874E-05-3.12106E-05-2.88645E-05-7.84240E-06 8.59260E-19-8.81396E-19
 -1      3197 9.73649E-05-2.92325E-05-2.91961E-05-6.74932E-06 1.23037E-18 2.00638E-19
 -1      3198 9.67584E-05-2.85823E-05-2.92069E-05-6.55439E-06 1.34310E-18-7.21364E-19
 -1      3199 9.68680E-05-2.92937E-05-2.89810E-05-7.44301E-06 1.45021E-18-1.23244E-18
 -1      3200 9.63633E-05-2.80633E-05-2.92657E-05-6.16300E-06 7.72170E-19-1.47779E-18
 -1      3201 9.59225E-05-2.75793E-05-2.92763E-05-5.82959E-06-3.94521E-19-1.79775E-18
 -1      3202 9.58490E-05-2.79366E-05-2.91203E-05-6.72815E-06 5.39664E-19-3.60305E-18
 -1      3203 8.17991E-05-3.86389E-05-1.80882E-05-3.56323E-05 6.33263E-19-3.26214E-18
 -1      3204 9.42936E-05-4.59996E-05-2.08488E-05-3.45695E-05 9.04155E-19-1.37685E-18
 -1      3205 9.10875E-05-2.33980E-05-2.89971E-05-4.23056E-06 1.80795E-19 3.98965E-18
 -1      3206 9.04814E-05-2.29119E-05-2.89788E-05-3.44127E-06-7.86023E-19 3.32997E-18
 -1      3207 9.52506E-05-2.86568E-05-2.85382E-05-1.27849E-06 2.86246E-19-1.19133E-19
 -1      3208 9.52289E-05-2.86393E-05-2.85373E-05-1.27209E-06 5.50931E-19-2.60604E-19
 -1      3209 9.52619E-05-2.86224E-05-2.85586E-05-1.25210E-06 5.30731E-19-3.10695E-19
 -1      3210 9.52519E-05-2.85726E-05-2.85740E-05-1.21856E-06 2.33907E-19-2.24347E-19
 -1      3211 9.55283E-05-2.87033E-05-2.86421E-05-1.24185E-06 3.87097E-19-1.96133E-19
 -1      3212 9.52583E-05-2.85732E-05-2.85763E-05-1.30389E-06 7.18817E-19 1.21503E-19
 -1      3213 9.52220E-05-2.85996E-05-2.85537E-05-1.29070E-06 7.77053E-19-5.77744E-20
 -1      3214 9.52721E-05-2.84732E-05-2.86244E-05-1.36802E-06 9.11352E-19 4.81549E-19
 -1      3215 9.52304E-05-2.85165E-05-2.85937E-05-1.32919E-06 9.68246E-19 3.51482E-19
 -1      3216 9.53579E-05-2.85629E-05-2.86277E-05-1.34037E-06 8.19008E-19 3.04978E-20
 -1      3217 9.52891E-05-2.83391E-05-2.86886E-05-1.50049E-06 6.47817E-19 3.22711E-19
 -1      3218 9.52421E-05-2.83980E-05-2.86502E-05-1.42417E-06 9.32723E-19 4.84382E-19
 -1      3219 9.53008E-05-2.84134E-05-2.86669E-05-1.42845E-06 1.00637E-18 5.35758E-19
 -1      3220 9.53062E-05-2.81697E-05-2.87678E-05-1.72325E-06 5.61232E-19 2.37936E-19
 -1      3221 9.52537E-05-2.82446E-05-2.87216E-05-1.59853E-06 4.97772E-19 2.02426E-19
 -1      3222 9.52359E-05-2.82195E-05-2.87217E-05-1.58837E-06 5.41031E-19 7.05506E-19
 -1      3223 9.53190E-05-2.79619E-05-2.88615E-05-2.05725E-06-1.82000E-21 5.46213E-19
 -1      3224 9.52608E-05-2.80539E-05-2.88072E-05-1.87348E-06 4.06777E-19 5.59507E-19
 -1      3225 9.51555E-05-2.79787E-05-2.87900E-05-1.84161E-06 2.19221E-19 7.74900E-19
 -1      3226 9.53215E-05-2.77107E-05-2.89693E-05-2.52319E-06-4.27231E-19 3.03723E-19
 -1      3227 9.52576E-05-2.78212E-05-2.89066E-05-2.26973E-06-2.39027E-19 3.27477E-19
 -1      3228 9.50494E-05-2.76857E-05-2.88694E-05-2.20824E-06-9.32218E-20 6.62888E-19
 -1      3229 9.53049E-05-2.74112E-05-2.90896E-05-3.14160E-06-3.99178E-19-4.87913E-20
 -1      3230 9.52360E-05-2.75414E-05-2.90185E-05-2.80788E-06-4.10715E-19 1.25789E-19
 -1      3231 9.49040E-05-2.73334E-05-2.89571E-05-2.70757E-06-3.44943E-19 1.90200E-19
 -1      3232 9.52583E-05-2.70611E-05-2.92186E-05-3.93214E-06-1.45574E-19 3.86941E-19
 -1      3233 9.51856E-05-2.72100E-05-2.91405E-05-3.50836E-06-3.79941E-19 4.43117E-19
 -1      3234 9.47018E-05-2.69149E-05-2.90486E-05-3.35816E-06-6.29407E-19 3.19281E-19
 -1      3235 9.51703E-05-2.66666E-05-2.93488E-05-4.91190E-06 3.40471E-19 8.03183E-19
 -1      3236 9.50941E-05-2.68279E-05-2.92668E-05-4.39037E-06 7.59988E-20 9.14650E-19
 -1      3237 9.44225E-05-2.64278E-05-2.91359E-05-4.17746E-06-3.59547E-19 8.51382E-19
 -1      3238 9.50349E-05-2.62522E-05-2.94671E-05-6.09276E-06-1.64555E-19 2.10915E-18
 -1      3239 9.49512E-05-2.64087E-05-2.93872E-05-5.47016E-06 3.03174E-19 1.89180E-18
 -1      3240 9.40446E-05-2.58803E-05-2.92066E-05-5.18120E-06-1.57743E-19 1.46091E-18
 -1      3241 9.48639E-05-2.58788E-05-2.95520E-05-7.47799E-06-2.86063E-19 2.54540E-18
 -1      3242 9.47569E-05-2.59920E-05-2.94844E-05-6.75869E-06-2.86721E-19 2.28769E-18
 -1      3243 9.35531E-05-2.53041E-05-2.92407E-05-6.38352E-06-3.52383E-19 3.36524E-18
 -1      3244 9.47137E-05-2.56740E-05-2.95723E-05-9.05836E-06-5.22546E-19 3.20917E-18
 -1      3245 9.45404E-05-2.56672E-05-2.95320E-05-8.25902E-06-3.05749E-19 2.90818E-18
 -1      3246 9.29538E-05-2.47748E-05-2.92092E-05-7.79913E-06-5.32073E-19 4.01878E-18
 -1      3247 9.47340E-05-2.58779E-05-2.94879E-05-1.08073E-05-5.79664E-19 2.98318E-18
 -1      3248 9.43964E-05-2.56110E-05-2.94934E-05-9.96365E-06-4.05617E-19 3.07752E-18
 -1      3249 9.23034E-05-2.44466E-05-2.90719E-05-9.44957E-06-5.34510E-19 4.34914E-18
 -1      3250 9.52465E-05-2.69048E-05-2.92578E-05-1.26705E-05-6.28621E-19 2.69519E-18
 -1      3251 9.45497E-05-2.61423E-05-2.93257E-05-1.18489E-05-3.06991E-19 3.08300E-18
 -1      3252 9.17638E-05-2.46035E-05-2.87796E-05-1.13739E-05-3.33307E-19 4.13950E-18
 -1      3253 9.68598E-05-2.93965E-05-2.88636E-05-1.45232E-05-1.06226E-18 1.72191E-18
 -1      3254 9.54573E-05-2.77872E-05-2.89937E-05-1.38526E-05-8.52024E-19 2.13256E-18
 -1      3255 9.16936E-05-2.57310E-05-2.82841E-05-1.36330E-05-3.17677E-19 2.40084E-18
 -1      3256 1.00581E-04-3.42483E-05-2.83673E-05-1.60721E-05-7.24819E-19 1.00976E-18
 -1      3257 9.79592E-05-3.13272E-05-2.85042E-05-1.58099E-05-7.30239E-19 1.42959E-18
 -1      3258 9.27859E-05-2.85957E-05-2.75640E-05-1.62909E-05-8.65467E-19 1.53629E-18
 -1      3259 1.07709E-04-4.20558E-05-2.80573E-05-1.64926E-05-7.74956E-19 1.01303E-18
 -1      3260 1.03363E-04-3.75732E-05-2.80239E-05-1.70490E-05-6.95566E-19 1.08123E-18
 -1      3261 9.63407E-05-3.43392E-05-2.66993E-05-1.91677E-05-6.18380E-19 2.55599E-19
 -1      3262 9.52099E-05-2.42751E-05-3.04028E-05 4.28240E-06 1.06727E-18-3.22832E-19
 -1      3263 9.46427E-05-2.27283E-05-3.08082E-05 4.78557E-06 1.12601E-18-4.14229E-19
 -1      3264 9.49363E-05-2.35918E-05-3.05711E-05 3.68930E-06 9.80917E-19-4.75142E-19
 -1      3265 9.52406E-05-2.51997E-05-3.00304E-05 3.01054E-06 9.27348E-19-2.73996E-19
 -1      3266 1.05296E-04-3.99024E-05-2.78634E-05 1.78693E-05-1.29315E-18 1.89481E-18
 -1      3267 1.09988E-04-4.47274E-05-2.79920E-05 1.68909E-05-1.62382E-18 1.15733E-18
 -1      3268 1.18771E-04-5.03662E-05-2.89549E-05 1.36314E-05-2.00998E-18 9.27984E-19
 -1      3269 1.23987E-04-5.43132E-05-2.99386E-05 1.02435E-05-2.49070E-18 7.45806E-19
 -1      3270 1.27826E-04-5.70794E-05-3.03687E-05 9.93140E-06-2.66541E-18 4.29009E-19
 -1      3271 1.09601E-04-4.74801E-05-2.67624E-05 2.06251E-05-2.17875E-18 5.83870E-19
 -1      3272 9.58875E-05-2.86626E-05-2.87948E-05 1.51566E-05-1.83663E-20-4.73290E-19
 -1      3273 9.75636E-05-3.05646E-05-2.86565E-05 1.57046E-05-7.16032E-19-1.46934E-19
 -1      3274 9.46498E-05-2.65762E-05-2.91795E-05 1.32383E-05 1.19559E-19-1.58175E-18
 -1      3275 9.55136E-05-2.75478E-05-2.90925E-05 1.39959E-05 9.15948E-19-8.05534E-19
 -1      3276 9.20084E-05-2.65257E-05-2.80844E-05 1.50991E-05 4.30801E-19-2.71269E-18
 -1      3277 9.43272E-05-2.57313E-05-2.94108E-05 1.13719E-05-5.63522E-19-2.10227E-18
 -1      3278 9.47664E-05-2.61541E-05-2.93815E-05 1.21973E-05-1.93312E-20-1.40210E-18
 -1      3279 9.18683E-05-2.49884E-05-2.86634E-05 1.28245E-05-2.39327E-19-1.37503E-18
 -1      3280 9.43692E-05-2.55091E-05-2.95247E-05 9.61994E-06-3.82268E-19-3.58733E-18
 -1      3281 9.46188E-05-2.56650E-05-2.95350E-05 1.04497E-05-7.49239E-19-2.44138E-18
 -1      3282 9.23276E-05-2.45269E-05-2.90495E-05 1.08656E-05-3.82019E-19-1.38088E-18
 -1      3283 9.45080E-05-2.55227E-05-2.95702E-05 7.98196E-06-6.89253E-19-2.87018E-18
 -1      3284 9.46748E-05-2.55838E-05-2.95980E-05 8.77925E-06-8.49781E-19-3.27019E-18
 -1      3285 9.29321E-05-2.45557E-05-2.92947E-05 9.13516E-06-4.90882E-19-3.01555E-18
 -1      3286 9.42864E-05-2.53143E-05-2.95570E-05 6.87386E-06 1.96616E-19-2.76889E-18
 -1      3287 9.45850E-05-2.55025E-05-2.95920E-05 7.49362E-06-1.33148E-19-2.98754E-18
 -1      3288 9.32837E-05-2.46394E-05-2.94177E-05 7.80836E-06-4.94928E-19-4.08210E-18
 -1      3289 9.34095E-05-2.46316E-05-2.94938E-05 6.82490E-06-1.13479E-18-5.46326E-18
 -1      3290 9.23985E-05-1.83426E-05-3.17536E-05 1.81445E-06 6.03344E-19-1.42220E-18
 -1      3291 9.22817E-05-1.81414E-05-3.17862E-05 1.05969E-06 3.85216E-19-1.46560E-18
 -1      3292 1.24211E-04-5.89042E-05-2.81087E-05 1.94124E-05-2.43093E-18 6.04676E-19
 -1      3293 9.54152E-05-2.73343E-05-2.91845E-05 2.69744E-07 5.88951E-19-2.68805E-20
 -1      3294 9.54783E-05-2.69310E-05-2.93615E-05 8.35560E-07 7.47298E-19-7.89476E-20
 -1      3295 8.99104E-05-2.23480E-05-2.89487E-05-2.38886E-06-7.35773E-19-1.43970E-19
 -1      3296 8.95311E-05-2.20369E-05-2.89442E-05-1.33510E-06-5.60057E-19-1.82434E-19
 -1      3297 8.96021E-05-2.26016E-05-2.87063E-05-3.31860E-06 2.25567E-19 1.90051E-18
 -1      3298 9.40454E-05-2.59349E-05-2.91720E-05-5.87181E-06 1.46834E-18-2.71323E-18
 -1      3299 9.33123E-05-2.53442E-05-2.91437E-05-5.69983E-06 1.46107E-18 3.77542E-19
 -1      3300 1.12997E-04-1.34431E-05-4.29889E-05 5.00510E-06-1.00553E-18-6.99960E-19
 -1      3301 1.12616E-04-1.19479E-05-4.36077E-05-1.63007E-06-6.75721E-19-5.88172E-19
 -1      3302 1.08255E-04-5.18467E-05-2.37085E-05-2.86086E-05 9.96534E-19-5.25270E-19
 -1      3303 1.19424E-04-5.61321E-05-2.75678E-05-2.03018E-05 8.65694E-19-9.60370E-19
 -1      3304 5.28905E-05-1.85998E-05-1.44912E-05 2.34341E-05 6.14337E-19 2.22727E-18
 -1      3305 4.57264E-05-1.34391E-05-1.33810E-05 1.37587E-05 9.53044E-20 1.16615E-18
 -1      3306 1.29861E-04-4.22653E-05-3.81139E-05-8.70669E-06 8.13363E-19-3.02973E-19
 -1      3307 1.30816E-04-4.93207E-05-3.48523E-05-2.31117E-06 1.23320E-18-1.28151E-18
 -1      3308 1.27807E-04-5.69415E-05-3.00678E-05-1.02454E-05-7.16193E-19 5.09331E-19
 -1      3309 9.25447E-05-2.46620E-05-2.90771E-05-5.40718E-06 1.58726E-18 1.90379E-18
 -1      3310 9.18204E-05-2.40783E-05-2.90506E-05-4.91592E-06 8.29375E-19 3.22023E-18
 -1      3311 9.11103E-05-2.38810E-05-2.88069E-05-5.08533E-06 7.81374E-19 4.31152E-18
 -1      3312 9.28485E-05-2.52850E-05-2.89498E-05-6.07106E-06 5.49858E-20 7.81381E-19
 -1      3313 1.28761E-04-5.45832E-05-3.22045E-05 6.42765E-06 1.25474E-18-2.03418E-18
 -1      3314 1.24244E-04-5.54111E-05-2.92249E-05 1.38066E-05 7.99897E-19-1.41269E-18
 -1      3315 9.89846E-05-3.28413E-05-2.82828E-05 1.69103E-05-5.66786E-19 4.94396E-19
 -1      3316 1.02044E-04-3.60911E-05-2.81722E-05 1.69161E-05-4.76324E-19 1.35520E-18
 -1      3317 9.78071E-05-3.62867E-05-2.64384E-05 2.04863E-05-6.59405E-19 3.23593E-19
 -1      3318 1.21892E-04-2.20408E-05-4.33141E-05-1.27023E-05-4.00964E-19 8.73503E-20
 -1      3319 1.27047E-04-3.18093E-05-4.09155E-05-1.31398E-05 2.73062E-19-1.76448E-19
 -1      3320 1.23955E-04-2.61175E-05-4.22035E-05 1.31925E-05 1.18902E-19 6.38345E-19
 -1      3321 1.19105E-04-1.89954E-05-4.33548E-05 1.14437E-05-2.21287E-19 5.19496E-19
 -1      3322 9.52503E-05-2.86365E-05-2.85462E-05-1.28369E-06 6.82893E-19-2.32652E-19
 -1      3323 9.52203E-05-2.86434E-05-2.85332E-05-1.28240E-06 3.97632E-19-2.85052E-20
 -1      3324 9.54687E-05-2.87176E-05-2.86098E-05-1.27909E-06 3.32583E-19-4.13359E-19
 -1      3325 9.54126E-05-2.86665E-05-2.86071E-05-1.30010E-06 6.62146E-19-1.04970E-19
 -1      3326 1.28051E-04-5.46126E-05-3.11306E-05-7.71039E-06 6.92952E-19-2.04426E-19
 -1      3327 1.30493E-04-5.02754E-05-3.49093E-05 1.47461E-06 7.27806E-19 3.60095E-19
 -1      3328 9.53765E-05-2.79348E-05-2.89073E-05-4.92624E-07 6.76273E-19-3.08146E-20
 -1      3329 9.54294E-05-2.76819E-05-2.90216E-05-1.53818E-07 6.14719E-19 1.83059E-20
 -1      3330 9.56984E-05-2.73164E-05-2.93118E-05 2.14144E-07 5.82936E-19-1.48078E-19
 -1      3331 9.55074E-05-2.55620E-05-2.99601E-05-2.14494E-06-7.33745E-19-8.05174E-19
 -1      3332 9.55419E-05-2.62594E-05-2.97054E-05-1.33563E-06-5.51501E-19-7.62152E-19
 -1      3333 9.57164E-05-2.61867E-05-2.97995E-05-1.16885E-06-4.34490E-19-7.30932E-19
 -1      3334 4.57959E-05-1.30596E-05-1.37287E-05-9.13139E-06 2.13878E-18-2.66826E-18
 -1      3335 5.06167E-05-1.74865E-05-1.38106E-05-2.18617E-05 1.42397E-18-5.11438E-18
 -1      3336 1.15131E-04-5.45781E-05-2.61806E-05 2.36649E-05 6.95467E-19-1.95821E-18
 -1      3337 1.01419E-04-4.81597E-05-2.25509E-05 3.04691E-05 1.57103E-18-2.31947E-18
 -1      3338 1.07525E-04-5.11392E-05-2.35893E-05-2.74624E-05 2.18164E-19-4.96044E-19
 -1      3339 1.19388E-04-5.64608E-05-2.71883E-05-2.00415E-05-3.21555E-19 1.05039E-19
 -1      3340 1.20774E-04-5.33103E-05-2.88703E-05-1.34653E-05 1.89947E-19 8.38202E-19
 -1      3341 1.00093E-04-4.63397E-05-2.27082E-05-2.81604E-05 1.25573E-19-9.22962E-19
 -1      3342 5.95145E-05-2.39344E-05-1.49145E-05-2.90772E-05-2.83068E-19-6.14544E-18
 -1      3343 7.06586E-05-3.18876E-05-1.64484E-05-3.46489E-05 1.06038E-19-5.26145E-18
 -1      3344 7.99723E-05-3.43286E-05-1.92154E-05-3.14028E-05-5.62377E-19-2.95726E-18
 -1      3345 7.85595E-05-3.56037E-05-1.82800E-05 3.33058E-05-1.09124E-18 2.76143E-18
 -1      3346 6.45824E-05-2.58197E-05-1.62768E-05 2.76095E-05 1.40449E-19 3.77703E-18
 -1      3347 1.29826E-04-4.17673E-05-3.77065E-05 9.07692E-06 1.84759E-20 6.92026E-19
 -1      3348 1.27312E-04-3.38919E-05-4.05427E-05 1.19632E-05-4.49986E-21 6.54809E-19
 -1      3349 1.21503E-04-3.09807E-05-3.89940E-05 1.26049E-05-3.56945E-19 1.60574E-18
 -1      3350 4.98867E-05-1.75075E-05-1.36015E-05-1.97184E-05-8.23369E-19 4.05094E-19
 -1      3351 6.05804E-05-2.57202E-05-1.45157E-05-2.94313E-05-9.40207E-19 1.11342E-18
 -1      3352 9.22222E-05-1.80411E-05-3.18049E-05 4.08368E-07 3.35945E-19-1.45824E-18
 -1      3353 9.22181E-05-1.80361E-05-3.18054E-05-3.60680E-07 2.27515E-19-1.35096E-18
 -1      3354 9.31753E-05-1.96212E-05-3.15053E-05 6.29111E-07 2.86711E-19-1.38297E-18
 -1      3355 9.43522E-05-2.19801E-05-3.09958E-05 3.63285E-06 9.98233E-19-7.49218E-19
 -1      3356 9.34482E-05-2.02129E-05-3.14112E-05 4.25171E-06 1.03244E-18-9.10207E-19
 -1      3357 9.30947E-05-1.95538E-05-3.15263E-05 3.65809E-06 9.52545E-19-1.01053E-18
 -1      3358 6.10404E-05-2.12715E-05-1.66117E-05 2.30117E-05 9.92484E-20 2.59817E-18
 -1      3359 5.88168E-05-1.73802E-05-1.76199E-05 1.64563E-05 1.46404E-19 4.14517E-20
 -1      3360 7.13317E-05-2.48389E-05-1.97464E-05 2.34494E-05-7.72954E-19 2.62292E-18
 -1      3361 6.09819E-05-2.11128E-05-1.66933E-05-2.31063E-05 1.28167E-19-4.49690E-18
 -1      3362 1.02130E-04-4.70541E-05-2.33475E-05-2.81217E-05 1.14752E-18-4.86501E-19
 -1      3363 9.03339E-05-2.23864E-05-2.91393E-05 4.78398E-06 1.10817E-18-4.94367E-18
 -1      3364 9.10546E-05-2.28973E-05-2.92055E-05 5.63110E-06 8.33274E-19-2.60145E-18
 -1      3365 1.17936E-04-5.30990E-05-2.77718E-05 1.67775E-05 1.06017E-18-1.49197E-18
 -1      3366 1.26719E-04-4.52149E-05-3.49970E-05 6.11076E-06 6.45287E-19 2.05358E-18
 -1      3367 9.55911E-05-2.86015E-05-2.87134E-05-1.14281E-06 1.60589E-19-4.11541E-19
 -1      3368 9.52869E-05-2.85138E-05-2.86168E-05-1.15745E-06 2.53538E-20-3.25002E-19
 -1      3369 9.52934E-05-2.84195E-05-2.86549E-05-1.06721E-06-7.05130E-21-2.77439E-19
 -1      3370 1.14663E-04-4.86013E-05-2.80763E-05-1.61915E-05 1.26261E-20 1.01291E-18
 -1      3371 1.05285E-04-4.47505E-05-2.61071E-05-2.14474E-05-1.72907E-19 1.26684E-19
 -1      3372 6.20987E-05-2.28446E-05-1.63596E-05 2.68499E-05 5.43425E-20 1.44223E-18
 -1      3373 6.14114E-05-1.96825E-05-1.76545E-05 2.14420E-05-2.56969E-19 1.14021E-18
 -1      3374 7.20825E-05-2.81005E-05-1.88014E-05 2.83848E-05-8.32475E-20-3.92388E-19
 -1      3375 9.01233E-05-3.61167E-05-2.29033E-05 2.59066E-05-1.29869E-18 1.13129E-18
 -1      3376 9.86598E-05-4.33153E-05-2.34910E-05 2.58241E-05-1.51963E-18 1.09623E-18
 -1      3377 9.25717E-05-1.86379E-05-3.16969E-05 2.42312E-06 7.14471E-19-1.20727E-18
 -1      3378 9.33858E-05-2.00097E-05-3.14276E-05 1.80385E-06 5.72151E-19-1.16302E-18
 -1      3379 9.28093E-05-1.90539E-05-3.16286E-05 3.12624E-06 8.57275E-19-1.05852E-18
 -1      3380 8.93832E-05-2.17258E-05-2.90095E-05 2.48024E-06 7.44869E-19-3.52305E-18
 -1      3381 8.97435E-05-2.19604E-05-2.90493E-05 3.59340E-06 1.63936E-18-5.80570E-18
 -1      3382 8.93295E-05-2.19198E-05-2.88754E-05 4.47949E-06 2.36427E-19-4.94172E-18
 -1      3383 9.52906E-05-2.68800E-05-2.93193E-05-5.46141E-06 9.06351E-19-2.13476E-18
 -1      3384 1.18350E-04-5.61846E-05-2.62217E-05 2.27658E-05-2.50883E-18-2.12394E-19
 -1      3385 9.48209E-05-2.66335E-05-2.92369E-05-5.90235E-06 1.71084E-18-4.07025E-18
 -1      3386 9.46055E-05-2.66875E-05-2.91064E-05-6.36702E-06 6.61285E-19-3.49171E-18
 -1      3387 8.92729E-05-2.17337E-05-2.89484E-05-4.18981E-08 1.91190E-19-4.57720E-19
 -1      3388 8.92376E-05-2.16791E-05-2.89640E-05 1.13159E-06 9.16395E-20-1.00747E-18
 -1      3389 8.85257E-05-2.14533E-05-2.87262E-05 1.83250E-06 5.65935E-19-2.51038E-18
 -1      3390 8.86556E-05-2.17156E-05-2.86731E-05-9.05420E-07 1.44216E-19-8.95422E-19
 -1      3391 1.13561E-04-1.41273E-05-4.30110E-05-6.48982E-06-2.00482E-19-1.31693E-18
 -1      3392 9.52460E-05-2.44681E-05-3.03325E-05-2.63244E-06-6.83126E-19-9.01617E-19
 -1      3393 9.35637E-05-2.99793E-05-2.73029E-05 1.77324E-05 9.07227E-20-1.01739E-18
 -1      3394 1.21527E-04-5.33556E-05-2.92142E-05-1.20742E-05 6.80485E-19 1.38384E-19
 -1      3395 1.02607E-04-4.87253E-05-2.28385E-05 2.84499E-05-2.14315E-18 6.45492E-19
 -1      3396 9.40130E-05-4.34526E-05-2.14625E-05 3.19937E-05 9.26548E-19-1.97899E-18
 -1      3397 8.59668E-05-3.72928E-05-2.07265E-05 3.05346E-05 4.63777E-19-1.39358E-18
 -1      3398 1.01867E-04-4.57475E-05-2.39234E-05 2.59619E-05 9.04512E-19-2.03655E-18
 -1      3399 1.15569E-04-1.79692E-05-4.22397E-05-1.06641E-05-2.81003E-19-1.02925E-18
 -1      3400 5.05998E-05-1.31218E-05-1.56624E-05 7.45616E-06 3.21978E-19 4.50198E-19
 -1      3401 1.27129E-04-5.00178E-05-3.30249E-05-1.75157E-07 1.32677E-18-4.35481E-19
 -1      3402 7.28129E-05-3.04802E-05-1.77515E-05-2.88553E-05-7.77364E-19 2.48975E-19
 -1      3403 1.24921E-04-3.64348E-05-3.79636E-05-1.16080E-05 1.43784E-19 3.19967E-19
 -1      3404 9.53548E-05-2.81427E-05-2.87965E-05-7.44831E-07 7.39021E-19-2.02163E-21
 -1      3405 9.56989E-05-2.79776E-05-2.90284E-05-5.02234E-07 7.03180E-19-2.16828E-19
 -1      3406 9.53266E-05-2.83007E-05-2.87267E-05-9.31966E-07 3.84325E-19-2.45418E-19
 -1      3407 9.53842E-05-2.64943E-05-2.95341E-05 1.37116E-06 8.42701E-19-2.50014E-19
 -1      3408 9.54239E-05-2.58759E-05-2.97929E-05 2.24031E-06 8.59803E-19-3.34625E-19
 -1      3409 9.53459E-05-2.51583E-05-3.00750E-05 2.61864E-06 8.79632E-19-4.07718E-19
 -1      3410 9.55933E-05-2.63977E-05-2.96607E-05 1.23830E-06 6.45168E-19-2.30187E-19
 -1      3411 4.74163E-05-1.20489E-05-1.46057E-05-2.26293E-06 1.74011E-18-1.38453E-18
 -1      3412 5.28244E-05-1.38147E-05-1.65209E-05-8.73715E-06 2.04827E-18-2.49012E-18
 -1      3413 5.14149E-05-1.32328E-05-1.61568E-05 4.34331E-06 1.43252E-18-1.17044E-18
 -1      3414 9.25516E-05-1.86069E-05-3.17016E-05-2.37794E-06-9.36055E-20-1.35695E-18
 -1      3415 9.27793E-05-1.90075E-05-3.16349E-05-3.08923E-06-2.82528E-19-1.33838E-18
 -1      3416 9.42643E-05-2.18400E-05-3.10577E-05-5.44431E-06-8.93898E-19-1.23023E-18
 -1      3417 5.37484E-05-1.59017E-05-1.58000E-05-1.40102E-05-6.91960E-19 3.15626E-19
 -1      3418 9.30630E-05-1.95043E-05-3.15346E-05-3.61846E-06-3.48350E-19-1.18930E-18
 -1      3419 9.34256E-05-2.01622E-05-3.14215E-05-4.23432E-06-5.49865E-19-1.20416E-18
 -1      3420 9.37612E-05-2.07523E-05-3.12730E-05-2.80821E-06-3.73179E-19-1.16416E-18
 -1      3421 9.42096E-05-2.17397E-05-3.10683E-05-4.77487E-06-8.49467E-19-1.24995E-18
 -1      3422 5.57634E-05-1.40884E-05-1.77273E-05-8.94749E-06 6.56318E-20 3.30025E-19
 -1      3423 6.16943E-05-1.89543E-05-1.81634E-05-1.92165E-05-3.61074E-19 5.76618E-19
 -1      3424 1.19815E-04-5.23397E-05-2.92161E-05 1.07423E-05 7.18324E-19-1.40590E-18
 -1      3425 1.12641E-04-5.00470E-05-2.66455E-05 1.87078E-05 6.02982E-19-2.00176E-18
 -1      3426 9.61727E-05-2.77830E-05-2.93026E-05 2.74311E-07-4.66833E-19-6.06282E-19
 -1      3427 9.61666E-05-2.80899E-05-2.91800E-05 5.38920E-07-5.74473E-19-5.81932E-19
 -1      3428 9.61691E-05-2.83375E-05-2.90653E-05 7.13779E-07-5.09640E-19-4.88926E-19
 -1      3429 9.61359E-05-2.85188E-05-2.89807E-05 8.66910E-07-1.40350E-19-3.63568E-19
 -1      3430 9.63591E-05-2.81443E-05-2.92364E-05 5.22688E-07-3.04475E-19-2.90209E-19
 -1      3431 9.60926E-05-2.86515E-05-2.88998E-05 9.62897E-07 1.27136E-20-5.45704E-19
 -1      3432 9.60471E-05-2.87437E-05-2.88446E-05 1.04329E-06-1.91458E-20-4.23768E-19
 -1      3433 9.63201E-05-2.85759E-05-2.90352E-05 8.12582E-07-1.82092E-19-2.04778E-19
 -1      3434 9.59768E-05-2.87948E-05-2.87904E-05 1.09003E-06-1.68060E-19-7.13720E-19
 -1      3435 9.59263E-05-2.88231E-05-2.87576E-05 1.12863E-06-2.42876E-19-6.50243E-19
 -1      3436 9.62090E-05-2.87921E-05-2.88949E-05 9.71999E-07-2.09843E-19-8.29245E-19
 -1      3437 9.58399E-05-2.88154E-05-2.87242E-05 1.15023E-06-1.56111E-19-5.53072E-19
 -1      3438 9.57877E-05-2.87970E-05-2.87086E-05 1.17110E-06-1.19941E-19-4.82837E-19
 -1      3439 9.60550E-05-2.88527E-05-2.88028E-05 1.05426E-06-1.08217E-19-7.13516E-19
 -1      3440 9.56913E-05-2.87459E-05-2.86914E-05 1.18665E-06-2.36907E-19-6.24131E-19
 -1      3441 9.56385E-05-2.86927E-05-2.86888E-05 1.20830E-06-2.06882E-19-5.00535E-19
 -1      3442 9.58748E-05-2.87991E-05-2.87482E-05 1.10252E-06-1.50454E-19-7.05131E-19
 -1      3443 9.55342E-05-2.86086E-05-2.86838E-05 1.23278E-06-1.01635E-19-4.46683E-19
 -1      3444 9.54809E-05-2.85285E-05-2.86912E-05 1.26955E-06 2.27149E-20-4.56466E-19
 -1      3445 9.56764E-05-2.86598E-05-2.87224E-05 1.15093E-06-5.02647E-20-8.84856E-19
 -1      3446 9.53686E-05-2.84183E-05-2.86952E-05 1.31495E-06 3.97967E-20-4.27848E-19
 -1      3447 9.53141E-05-2.83171E-05-2.87100E-05 1.37812E-06 5.15887E-20-4.30067E-19
 -1      3448 9.54621E-05-2.84541E-05-2.87182E-05 1.22656E-06 5.41923E-20-7.96953E-19
 -1      3449 9.51926E-05-2.81856E-05-2.87202E-05 1.45434E-06-9.06351E-20-5.61093E-19
 -1      3450 9.51366E-05-2.80682E-05-2.87403E-05 1.55294E-06-4.26119E-20-4.34379E-19
 -1      3451 9.52303E-05-2.81949E-05-2.87294E-05 1.35137E-06 2.32626E-19-5.94058E-19
 -1      3452 9.50042E-05-2.79199E-05-2.87540E-05 1.66845E-06 5.28384E-20-5.59281E-19
 -1      3453 9.49473E-05-2.77918E-05-2.87772E-05 1.80962E-06 1.36793E-19-4.55745E-19
 -1      3454 9.49781E-05-2.78930E-05-2.87503E-05 1.54391E-06-5.12789E-20-9.38119E-19
 -1      3455 9.48034E-05-2.76326E-05-2.87917E-05 1.97176E-06 5.06002E-20-4.46394E-19
 -1      3456 9.47483E-05-2.75015E-05-2.88158E-05 2.16083E-06 1.52232E-19-3.96327E-19
 -1      3457 9.47032E-05-2.75593E-05-2.87750E-05 1.82017E-06 1.57695E-19-6.48993E-19
 -1      3458 9.45946E-05-2.73403E-05-2.88280E-05 2.37609E-06 2.01433E-19-5.38557E-19
 -1      3459 9.45472E-05-2.72185E-05-2.88504E-05 2.61633E-06 1.58191E-19-5.82674E-19
 -1      3460 9.44064E-05-2.72096E-05-2.87974E-05 2.19436E-06 5.10497E-20-2.99780E-19
 -1      3461 9.43903E-05-2.70699E-05-2.88565E-05 2.89019E-06 1.90287E-19-2.80881E-19
 -1      3462 9.43624E-05-2.69766E-05-2.88741E-05 3.18203E-06-1.21857E-19-2.23807E-19
 -1      3463 9.40956E-05-2.68686E-05-2.88104E-05 2.67933E-06 2.56523E-19-4.44483E-19
 -1      3464 9.42163E-05-2.68639E-05-2.88701E-05 3.51854E-06-3.25733E-19 2.38411E-19
 -1      3465 9.42283E-05-2.68281E-05-2.88793E-05 3.85839E-06-9.73276E-21 3.40804E-19
 -1      3466 9.37902E-05-2.65755E-05-2.88057E-05 3.28620E-06 1.44061E-19 4.90765E-19
 -1      3467 9.41185E-05-2.67865E-05-2.88605E-05 4.25924E-06 2.33971E-20-4.60349E-20
 -1      3468 9.42035E-05-2.68506E-05-2.88576E-05 4.63768E-06 2.28398E-19-7.01449E-21
 -1      3469 9.35285E-05-2.63910E-05-2.87740E-05 4.02359E-06-2.90382E-20 1.47454E-20
 -1      3470 9.41727E-05-2.69307E-05-2.88198E-05 5.10056E-06 1.99248E-19-6.41868E-20
 -1      3471 9.43809E-05-2.71534E-05-2.88020E-05 5.49936E-06 3.14821E-19-4.76866E-19
 -1      3472 9.33765E-05-2.64043E-05-2.87060E-05 4.89600E-06-4.70908E-20-2.80643E-19
 -1      3473 9.44958E-05-2.74245E-05-2.87426E-05 6.01432E-06 2.94058E-19-6.89613E-19
 -1      3474 9.48993E-05-2.78816E-05-2.87099E-05 6.40137E-06-1.67477E-19-6.00717E-19
 -1      3475 9.34404E-05-2.67410E-05-2.85941E-05 5.89967E-06 5.83052E-20-3.06895E-19
 -1      3476 9.52587E-05-2.84319E-05-2.86308E-05 6.94318E-06-8.15235E-19-9.12212E-19
 -1      3477 9.59535E-05-2.92127E-05-2.85894E-05 7.26352E-06-1.12065E-18-1.08872E-18
 -1      3478 9.38814E-05-2.75691E-05-2.84363E-05 7.01300E-06-5.04588E-19-1.12689E-18
 -1      3479 9.66961E-05-3.01433E-05-2.85018E-05 7.77604E-06-1.14569E-18-2.46961E-19
 -1      3480 9.77941E-05-3.13343E-05-2.84697E-05 7.93680E-06-6.58916E-19-2.08889E-19
 -1      3481 9.49322E-05-2.90970E-05-2.82445E-05 8.17542E-06-7.64840E-19-9.73329E-19
 -1      3482 9.91018E-05-3.27376E-05-2.84034E-05 8.29642E-06-5.04210E-19-2.46722E-19
 -1      3483 1.00700E-04-3.43706E-05-2.84194E-05 8.14267E-06-1.69870E-19-8.72006E-19
 -1      3484 9.69130E-05-3.15582E-05-2.80576E-05 9.24105E-06-7.31502E-19-3.04550E-19
 -1      3485 1.02757E-04-3.62650E-05-2.84332E-05 8.13057E-06 4.62576E-20-9.43263E-19
 -1      3486 1.04870E-04-3.82360E-05-2.85628E-05 7.41735E-06 1.13876E-19-9.02945E-19
 -1      3487 1.00196E-04-3.51104E-05-2.79661E-05 9.87966E-06-1.71453E-19-4.24165E-19
 -1      3488 1.07911E-04-4.05425E-05-2.87663E-05 6.65766E-06 3.66990E-19-1.59631E-18
 -1      3489 1.10508E-04-4.23308E-05-2.91734E-05 4.75725E-06 5.68286E-19-1.26780E-18
 -1      3490 1.05162E-04-3.97522E-05-2.81304E-05 9.58902E-06 7.26496E-20-1.17747E-18
 -1      3491 1.14076E-04-4.58912E-05-2.92053E-05 6.16442E-06 2.93550E-19-1.40235E-18
 -1      3492 1.16907E-04-4.69246E-05-2.99882E-05 3.59649E-06 1.64510E-19-1.23148E-18
 -1      3493 9.49513E-05-2.34435E-05-3.06463E-05-2.95677E-06-5.73937E-19-1.00763E-18
 -1      3494 9.52964E-05-2.45403E-05-3.03384E-05-2.09167E-06-4.68781E-19-7.73511E-19
 -1      3495 1.13896E-04-2.23479E-05-3.93051E-05 1.12309E-05-8.79511E-19-3.96259E-19
 -1      3496 1.16276E-04-2.83426E-05-3.79879E-05 1.25004E-05-1.04683E-18-7.97270E-20
 -1      3497 1.19699E-04-4.40355E-05-3.23745E-05 4.90646E-06-4.36957E-19 2.55469E-18
 -1      3498 1.18664E-04-4.57490E-05-3.11678E-05 1.55099E-06 5.66526E-19 2.47636E-18
 -1      3499 1.15180E-04-4.50821E-05-3.01101E-05-1.97154E-06 1.06273E-18 1.21199E-18
 -1      3500 1.12918E-04-4.39482E-05-2.94720E-05-4.36441E-06 8.35757E-19 1.25108E-18
 -1      3501 1.17871E-04-4.75992E-05-3.02200E-05-3.43529E-06 4.64876E-21 2.29569E-18
 -1      3502 1.09571E-04-4.20306E-05-2.89682E-05-6.11576E-06 3.05342E-19 1.37517E-18
 -1      3503 1.07239E-04-4.01836E-05-2.86568E-05-7.61295E-06-4.97731E-20 1.65157E-18
 -1      3504 1.10818E-04-4.38586E-05-2.86985E-05-8.01557E-06 5.64210E-19 5.55018E-19
 -1      3505 1.04442E-04-3.79350E-05-2.85092E-05-8.32767E-06-1.18366E-19 1.01442E-18
 -1      3506 1.02425E-04-3.59844E-05-2.84167E-05-8.95089E-06 4.38670E-20 7.68223E-19
 -1      3507 1.04666E-04-3.93742E-05-2.80845E-05-1.03276E-05-4.10520E-19 3.72797E-19
 -1      3508 1.00552E-04-3.41623E-05-2.84425E-05-8.92381E-06-1.11381E-19 5.74006E-19
 -1      3509 9.90512E-05-3.25723E-05-2.84561E-05-9.04224E-06-2.59487E-20 5.74168E-19
 -1      3510 1.00071E-04-3.48522E-05-2.80146E-05-1.05268E-05 2.18719E-19-5.10382E-19
 -1      3511 9.78931E-05-3.12240E-05-2.85583E-05-8.68365E-06-2.90176E-19 3.87287E-19
 -1      3512 9.68722E-05-3.00435E-05-2.86208E-05-8.51243E-06 5.00615E-19-7.76058E-19
 -1      3513 9.71146E-05-3.14538E-05-2.81834E-05-9.85431E-06-1.85544E-19 1.39292E-18
 -1      3514 9.62213E-05-2.91108E-05-2.87494E-05-8.00255E-06 7.09359E-19-1.18210E-18
 -1      3515 9.55864E-05-2.82888E-05-2.88285E-05-7.66479E-06 3.16951E-19-2.16285E-18
 -1      3516 9.53630E-05-2.90483E-05-2.84499E-05-8.81702E-06-9.55267E-20 4.86066E-19
 -1      3517 9.52140E-05-2.77080E-05-2.89217E-05-7.24143E-06-5.27730E-19-2.76711E-18
 -1      3518 9.48218E-05-2.71153E-05-2.90072E-05-6.79432E-06-3.97095E-19-3.52706E-18
 -1      3519 9.38561E-05-2.64338E-05-2.89156E-05-6.82632E-06-5.21325E-19-1.41141E-18
 -1      3520 9.43891E-05-2.74839E-05-2.86971E-05-7.77637E-06-7.52290E-19-1.25104E-18
 -1      3521 6.01883E-05-1.82525E-05-1.77889E-05-1.81665E-05 8.41765E-19-3.07161E-18
 -1      3522 6.79713E-05-2.42141E-05-1.86772E-05-2.50749E-05-1.09651E-18-4.20838E-18
 -1      3523 9.23830E-05-1.83194E-05-3.17568E-05-1.76343E-06 8.15809E-20-1.33519E-18
 -1      3524 9.33703E-05-1.99881E-05-3.14318E-05-1.76429E-06-1.38394E-20-1.22883E-18
 -1      3525 9.22719E-05-1.81283E-05-3.17879E-05-1.00968E-06 2.26870E-19-1.30489E-18
 -1      3526 9.53184E-05-2.83403E-05-2.87017E-05-1.41803E-06 6.41658E-19 4.27135E-19
 -1      3527 9.53495E-05-2.84356E-05-2.86798E-05-1.35567E-06 9.57969E-19 9.01399E-20
 -1      3528 9.54429E-05-2.85390E-05-2.86702E-05-1.31369E-06 9.95700E-19-8.57827E-20
 -1      3529 9.54716E-05-2.86089E-05-2.86569E-05-1.28010E-06 5.89555E-19-8.35931E-20
 -1      3530 9.54510E-05-2.84745E-05-2.87047E-05-1.29293E-06 7.65321E-19 3.39680E-19
 -1      3531 9.50007E-05-2.77788E-05-2.88055E-05-1.86170E-06-2.67357E-19 7.46674E-19
 -1      3532 9.50479E-05-2.79266E-05-2.87706E-05-1.70954E-06 4.67026E-20 3.13852E-19
 -1      3533 9.47807E-05-2.74056E-05-2.88709E-05-2.23817E-06-8.24981E-20 7.33855E-19
 -1      3534 9.48444E-05-2.75835E-05-2.88316E-05-2.02684E-06-8.96502E-21 8.49197E-19
 -1      3535 9.47426E-05-2.75164E-05-2.88091E-05-1.87997E-06-1.35217E-19 6.06016E-19
 -1      3536 9.44948E-05-2.69598E-05-2.89392E-05-2.73985E-06-4.22068E-19 4.39730E-19
 -1      3537 9.45828E-05-2.71714E-05-2.88975E-05-2.46073E-06-1.45645E-19 6.82364E-19
 -1      3538 9.43928E-05-2.70523E-05-2.88567E-05-2.25998E-06-6.94954E-20 6.28935E-19
 -1      3539 9.41179E-05-2.64335E-05-2.90031E-05-3.38156E-06-8.80353E-19 3.76154E-19
 -1      3540 9.42403E-05-2.66815E-05-2.89624E-05-3.02678E-06-7.92549E-19 1.13381E-19
 -1      3541 9.39466E-05-2.65012E-05-2.88998E-05-2.75530E-06-3.63764E-19 2.72967E-19
 -1      3542 9.36208E-05-2.58235E-05-2.90514E-05-4.17647E-06-5.43330E-19 1.13833E-18
 -1      3543 9.37888E-05-2.61074E-05-2.90170E-05-3.73926E-06-7.31988E-19 7.57276E-19
 -1      3544 9.33713E-05-2.58545E-05-2.89281E-05-3.37691E-06-9.01239E-19 8.30194E-19
 -1      3545 9.29728E-05-2.51387E-05-2.90670E-05-5.13655E-06-9.47911E-19 2.16956E-18
 -1      3546 9.31966E-05-2.54504E-05-2.90473E-05-4.61131E-06-7.83873E-19 1.44412E-18
 -1      3547 9.26288E-05-2.51094E-05-2.89262E-05-4.13436E-06-1.00779E-18 1.36129E-18
 -1      3548 9.21485E-05-2.44118E-05-2.90245E-05-6.27496E-06-3.56707E-19 2.39040E-18
 -1      3549 9.24324E-05-2.47287E-05-2.90321E-05-5.65655E-06-3.59235E-19 2.24320E-18
 -1      3550 9.16776E-05-2.42765E-05-2.88718E-05-5.03821E-06-7.07755E-19 1.23942E-18
 -1      3551 9.11430E-05-2.37206E-05-2.88876E-05-7.61300E-06-7.36419E-19 3.04299E-18
 -1      3552 9.14748E-05-2.39933E-05-2.89405E-05-6.89399E-06-6.86146E-19 2.87988E-18
 -1      3553 9.04783E-05-2.33917E-05-2.87328E-05-6.10636E-06-7.04517E-19 1.23925E-18
 -1      3554 9.00011E-05-2.32198E-05-2.86071E-05-9.19540E-06-5.51774E-19 2.85279E-18
 -1      3555 9.03310E-05-2.33527E-05-2.87292E-05-8.35994E-06-6.27378E-19 3.22517E-18
 -1      3556 8.90049E-05-2.25349E-05-2.84640E-05-7.37858E-06-9.40327E-19 1.59409E-18
 -1      3557 8.88707E-05-2.31911E-05-2.81215E-05-1.11152E-05-2.83929E-19 2.66965E-18
 -1      3558 8.90739E-05-2.30132E-05-2.83404E-05-1.01303E-05-2.92750E-19 3.06432E-18
 -1      3559 8.72665E-05-2.18608E-05-2.80040E-05-8.94519E-06-5.52340E-19 1.31684E-18
 -1      3560 8.80943E-05-2.41264E-05-2.73655E-05-1.35558E-05 4.41917E-20 1.76297E-18
 -1      3561 8.79101E-05-2.33391E-05-2.77046E-05-1.23599E-05 1.49290E-19 2.33858E-18
 -1      3562 8.53425E-05-2.16390E-05-2.72722E-05-1.09977E-05 1.81907E-19 1.02455E-18
 -1      3563 8.83700E-05-2.67963E-05-2.62864E-05-1.67999E-05-4.93417E-19 4.96183E-19
 -1      3564 8.73074E-05-2.49134E-05-2.67538E-05-1.52747E-05-2.15294E-19 1.10913E-18
 -1      3565 8.35010E-05-2.23658E-05-2.61694E-05-1.39053E-05 5.50963E-19 1.01120E-18
 -1      3566 9.11246E-05-3.24699E-05-2.49693E-05-2.08808E-05-5.71324E-19-2.70468E-19
 -1      3567 8.81511E-05-2.86668E-05-2.54286E-05-1.91564E-05-4.97500E-19-1.52982E-19
 -1      3568 8.23548E-05-2.50859E-05-2.46340E-05-1.82532E-05-5.27311E-20-2.97117E-19
 -1      3569 1.15124E-04-1.78028E-05-4.20898E-05 9.48615E-06-7.04943E-19-2.36349E-19
 -1      3570 9.29239E-05-3.84147E-05-2.31124E-05-2.58788E-05-4.78673E-19-6.46683E-19
 -1      3571 7.74346E-05-3.02404E-05-1.99736E-05-2.77818E-05-1.49557E-18-3.77014E-18
 -1      3572 8.65821E-05-3.69970E-05-2.13545E-05-2.95271E-05-2.28884E-19-2.29448E-18
 -1      3573 9.04248E-05-2.33690E-05-2.87670E-05 9.70921E-06-3.42433E-19-1.22289E-18
 -1      3574 9.01228E-05-2.33821E-05-2.85910E-05 1.05563E-05-9.04135E-19-6.69375E-19
 -1      3575 8.80463E-05-2.39397E-05-2.75051E-05 1.38515E-05 5.14466E-19-1.56344E-18
 -1      3576 8.83727E-05-2.49547E-05-2.71222E-05 1.50496E-05 8.31556E-19-1.26617E-18
 -1      3577 9.16253E-05-2.37166E-05-2.91171E-05 8.12835E-06 4.86030E-19-2.10514E-18
 -1      3578 9.12919E-05-2.36018E-05-2.90012E-05 8.89741E-06-1.82679E-19-1.05887E-18
 -1      3579 8.92211E-05-2.24717E-05-2.85814E-05 8.58938E-06 1.33440E-19-1.23060E-18
 -1      3580 8.92326E-05-2.28298E-05-2.84458E-05-4.39724E-06 1.39477E-18 3.58526E-18
 -1      3581 8.84663E-05-2.22506E-05-2.84013E-05-3.32565E-06 6.10094E-19 1.08197E-18
 -1      3582 9.57048E-05-2.55149E-05-3.00700E-05-1.50327E-06-4.67172E-19-7.54135E-19
 -1      3583 9.58428E-05-2.62453E-05-2.98387E-05-8.76336E-07-3.60537E-19-7.04947E-19
 -1      3584 9.54282E-05-2.45934E-05-3.03623E-05-1.75151E-06-4.24136E-19-7.11591E-19
 -1      3585 5.59437E-05-1.43940E-05-1.76759E-05 1.15970E-05 3.46102E-19 4.80691E-19
 -1      3586 5.38557E-05-1.24852E-05-1.75681E-05 2.06538E-06 4.87552E-19-1.70836E-19
 -1      3587 9.69038E-05-4.25800E-05-2.30061E-05-2.75289E-05 5.01893E-19 2.24517E-19
 -1      3588 1.07028E-04-4.83729E-05-2.53861E-05-2.30277E-05 4.55413E-19 1.31483E-18
 -1      3589 9.38661E-05-3.89192E-05-2.34585E-05-2.48702E-05-6.43864E-19-6.29226E-19
 -1      3590 8.91548E-05-2.32905E-05-2.82564E-05 1.15374E-05-1.82404E-18 1.19721E-19
 -1      3591 8.90041E-05-2.36322E-05-2.79891E-05 1.25327E-05-4.01073E-19-9.65175E-19
 -1      3592 8.54071E-05-2.21218E-05-2.71008E-05 1.24002E-05-4.46991E-19 3.87779E-19
 -1      3593 8.74099E-05-2.20771E-05-2.79754E-05 1.02357E-05-1.12685E-18 3.74367E-19
 -1      3594 1.14825E-04-2.27620E-05-3.95831E-05-1.12750E-05-5.66453E-21-1.00648E-18
 -1      3595 9.17987E-05-2.34330E-05-2.93188E-05 6.17583E-06 2.53521E-19-1.01117E-18
 -1      3596 9.26007E-05-2.40283E-05-2.93886E-05 6.56139E-06-4.51069E-19-2.46670E-18
 -1      3597 9.24819E-05-2.40177E-05-2.93382E-05 7.04456E-06-6.49447E-19-2.99097E-18
 -1      3598 9.08009E-05-2.28791E-05-2.91033E-05 6.24713E-06-9.13017E-20-1.92384E-18
 -1      3599 9.59132E-05-2.73542E-05-2.93900E-05 8.16755E-08 6.42535E-19-5.42632E-19
 -1      3600 9.58967E-05-2.68910E-05-2.95626E-05 5.46494E-07 5.57182E-19-4.47762E-19
 -1      3601 9.51748E-05-2.80882E-05-2.87479E-05-1.59422E-06 5.32776E-19 1.84528E-19
 -1      3602 9.52117E-05-2.82088E-05-2.87188E-05-1.49197E-06 7.14772E-19 5.15399E-19
 -1      3603 9.52534E-05-2.82208E-05-2.87280E-05-1.41253E-06 6.10395E-19 2.24315E-19
 -1      3604 9.50225E-05-2.79031E-05-2.87644E-05-1.60246E-06 1.86294E-19 8.59619E-20
 -1      3605 9.57634E-05-2.87750E-05-2.87083E-05-1.18812E-06 2.94410E-19-1.78806E-19
 -1      3606 9.57961E-05-2.87397E-05-2.87362E-05-1.14975E-06 3.78524E-19-1.11765E-19
 -1      3607 8.76884E-05-2.60340E-05-2.64412E-05 1.69245E-05 5.41531E-19-2.21159E-19
 -1      3608 8.89729E-05-2.82274E-05-2.59353E-05 1.84144E-05 1.30397E-19-2.59323E-19
 -1      3609 8.35752E-05-2.32050E-05-2.58524E-05 1.54893E-05 1.04522E-18 4.98241E-19
 -1      3610 9.25225E-05-3.41737E-05-2.48364E-05 2.18811E-05-6.04674E-19 9.02394E-19
 -1      3611 8.03477E-05-2.92887E-05-2.17769E-05 2.52017E-05-5.54542E-19 2.92315E-18
 -1      3612 7.52482E-05-2.43969E-05-2.18098E-05 2.11300E-05-3.06785E-20 2.33686E-18
 -1      3613 8.93542E-05-3.02983E-05-2.52862E-05 2.04453E-05 2.58113E-19 9.01551E-19
 -1      3614 9.39492E-05-2.12641E-05-3.11606E-05-4.40832E-06-7.13294E-19-1.23396E-18
 -1      3615 1.19580E-04-3.42059E-05-3.66147E-05 1.22502E-05-3.68671E-19 1.40928E-18
 -1      3616 1.20618E-04-3.94653E-05-3.50525E-05 1.00051E-05-4.39097E-19 2.01664E-18
 -1      3617 1.24358E-04-4.65065E-05-3.35317E-05-4.49065E-06 5.72859E-19 4.84152E-19
 -1      3618 1.24132E-04-5.04618E-05-3.13376E-05 2.15052E-06 1.08126E-18-8.86777E-19
 -1      3619 9.60465E-05-2.68854E-05-2.96309E-05-4.33958E-07-3.15303E-19-6.19444E-19
 -1      3620 9.60944E-05-2.73728E-05-2.94595E-05-1.30126E-08-3.13705E-19-5.37840E-19
 -1      3621 9.62783E-05-2.74142E-05-2.95137E-05 3.93743E-08-4.20334E-19-6.58950E-19
 -1      3622 8.25395E-05-3.20975E-05-2.15790E-05-2.65130E-05-4.95011E-19-4.52395E-19
 -1      3623 1.17442E-04-2.90154E-05-3.82774E-05-1.33563E-05 7.40624E-19-5.16809E-19
 -1      3624 1.20955E-04-3.68518E-05-3.61080E-05-1.09790E-05 4.58562E-19 3.41460E-20
 -1      3625 1.21984E-04-4.19205E-05-3.44302E-05-9.07107E-06-2.96289E-19 7.67491E-20
 -1      3626 1.19514E-04-4.32920E-05-3.27682E-05-5.91598E-06-3.39996E-20-5.13153E-19
 -1      3627 9.49330E-05-2.34968E-05-3.06282E-05 3.04951E-06 9.04144E-19-6.76807E-19
 -1      3628 9.46813E-05-2.28181E-05-3.07983E-05 2.81707E-06 8.01502E-19-7.22211E-19
 -1      3629 1.10551E-04-4.75029E-05-2.70142E-05 1.63030E-05 3.61524E-19-1.56607E-18
 -1      3630 1.07534E-04-4.78878E-05-2.55978E-05 2.17995E-05 4.00117E-19-2.54724E-18
 -1      3631 1.00699E-04-4.33443E-05-2.45680E-05 2.31818E-05-4.77806E-19-2.25994E-18
 -1      3632 8.99516E-05-2.25757E-05-2.88954E-05 6.74295E-06 7.45935E-20-1.89965E-18
 -1      3633 9.08977E-05-2.31219E-05-2.90342E-05 7.31610E-06 8.20063E-20-8.90059E-19
 -1      3634 6.17743E-05-1.39372E-05-2.04650E-05 3.12848E-07 3.30283E-19 2.43641E-19
 -1      3635 5.79003E-05-1.32607E-05-1.88774E-05-3.77686E-06 2.40521E-19 9.83088E-20
 -1      3636 6.39156E-05-1.53195E-05-2.07620E-05-8.92245E-06 3.18693E-19 5.61834E-19
 -1      3637 1.18838E-04-4.52036E-05-3.16565E-05-3.26951E-06 2.21885E-19-9.07879E-19
 -1      3638 1.22112E-04-4.51864E-05-3.29215E-05 4.73520E-06 7.43536E-20 2.15677E-18
 -1      3639 7.57711E-05-2.69399E-05-2.07476E-05-2.37128E-05-1.06178E-18-3.19988E-18
 -1      3640 1.19874E-04-4.94478E-05-3.00889E-05 5.12775E-06 3.58500E-19-1.41895E-18
 -1      3641 9.29873E-05-2.60786E-05-2.86615E-05-7.17095E-06-1.30802E-19-2.18245E-19
 -1      3642 9.28088E-05-2.56202E-05-2.87854E-05-6.64196E-06-5.37710E-19 2.11191E-19
 -1      3643 9.18399E-05-2.49277E-05-2.86972E-05-6.34997E-06-3.57419E-19 1.51125E-18
 -1      3644 9.31697E-05-1.96130E-05-3.15064E-05-5.88921E-07 1.59204E-19-1.31344E-18
 -1      3645 9.39716E-05-2.11996E-05-3.11959E-05-1.22093E-06 6.17348E-20-9.91334E-19
 -1      3646 9.41008E-05-2.14787E-05-3.11373E-05-1.73132E-06-1.03055E-19-1.07952E-18
 -1      3647 8.10179E-05-3.24455E-05-2.05285E-05 2.85072E-05-3.07089E-19-9.08218E-19
 -1      3648 7.68139E-05-2.80593E-05-2.08347E-05 2.49903E-05-8.28438E-19-1.13341E-18
 -1      3649 8.93834E-05-3.65250E-05-2.25986E-05 2.61023E-05-4.04644E-19-1.08502E-18
 -1      3650 9.58552E-05-2.86851E-05-2.87873E-05-1.09779E-06 2.34689E-19-2.84188E-19
 -1      3651 9.58890E-05-2.85908E-05-2.88380E-05-1.01294E-06 7.02629E-20-2.68473E-19
 -1      3652 9.60574E-05-2.87444E-05-2.88508E-05-1.04385E-06 9.60976E-20-3.09493E-19
 -1      3653 9.56931E-05-2.87748E-05-2.86785E-05-1.21021E-06 3.59247E-19-6.01836E-20
 -1      3654 9.59313E-05-2.88185E-05-2.87647E-05-1.13327E-06 4.40195E-19-1.58502E-19
 -1      3655 9.56627E-05-2.87666E-05-2.86679E-05-1.22817E-06 4.65432E-19-1.30790E-19
 -1      3656 9.56265E-05-2.86642E-05-2.86992E-05-1.22365E-06 4.59564E-19-2.38543E-19
 -1      3657 9.55561E-05-2.86833E-05-2.86574E-05-1.25916E-06 4.42620E-19-1.94665E-19
 -1      3658 9.55850E-05-2.87252E-05-2.86546E-05-1.24135E-06 5.05774E-19-1.51939E-19
 -1      3659 9.58784E-05-2.62455E-05-2.98428E-05 8.83147E-07 6.30127E-19-6.47763E-19
 -1      3660 9.57194E-05-2.62571E-05-2.97776E-05 1.06153E-06 4.77436E-19-4.10081E-19
 -1      3661 6.74449E-05-2.06604E-05-2.00586E-05 1.91491E-05-8.79976E-19 1.34969E-19
 -1      3662 6.09231E-05-1.67733E-05-1.86237E-05 1.56899E-05-2.99754E-19 8.94599E-19
 -1      3663 6.29652E-05-1.58200E-05-2.01286E-05 1.07489E-05-1.09095E-19-3.93897E-19
 -1      3664 9.37934E-05-2.07935E-05-3.12650E-05 2.84648E-06 7.67724E-19-9.16334E-19
 -1      3665 8.73213E-05-2.17682E-05-2.80833E-05-3.08848E-06 1.60919E-18 5.94988E-19
 -1      3666 8.78026E-05-2.16051E-05-2.83636E-05-1.91887E-06 6.13098E-19-1.02977E-18
 -1      3667 8.74428E-05-2.13023E-05-2.83649E-05-5.70579E-07 4.69431E-19-1.51414E-18
 -1      3668 9.41101E-05-2.15106E-05-3.11318E-05 1.75229E-06 5.47953E-19-1.07152E-18
 -1      3669 9.39729E-05-2.12122E-05-3.11917E-05 1.25056E-06 4.47914E-19-1.12562E-18
 -1      3670 9.23837E-05-2.40290E-05-2.92951E-05 7.52875E-06 2.04672E-19-2.68181E-18
 -1      3671 9.59773E-05-2.77494E-05-2.92317E-05-2.49046E-07 6.23599E-19-3.91688E-19
 -1      3672 9.61223E-05-2.73766E-05-2.94645E-05 2.27915E-08 6.06785E-19-6.43745E-19
 -1      3673 9.59595E-05-2.80437E-05-2.91111E-05-5.38457E-07 5.76027E-19-3.65524E-19
 -1      3674 9.59963E-05-2.62611E-05-2.98840E-05-7.03572E-07-3.04506E-19-6.63933E-19
 -1      3675 9.46401E-05-2.23696E-05-3.09514E-05 8.34728E-07 4.75670E-19-1.14207E-18
 -1      3676 9.38965E-05-2.10443E-05-3.12339E-05 8.05181E-07 3.84319E-19-1.26297E-18
 -1      3677 9.38469E-05-2.09443E-05-3.12536E-05 2.45306E-07 2.98428E-19-1.40113E-18
 -1      3678 9.44666E-05-2.23055E-05-3.09149E-05-3.43648E-06-5.94620E-19-1.10211E-18
 -1      3679 9.45064E-05-2.23907E-05-3.09024E-05-2.85647E-06-4.49393E-19-9.21876E-19
 -1      3680 1.08715E-04-4.70703E-05-2.64633E-05-1.84457E-05-2.51092E-19 2.02864E-18
 -1      3681 1.14412E-04-5.06469E-05-2.70152E-05-1.74705E-05 2.50222E-19 1.09163E-18
 -1      3682 9.53263E-05-2.47776E-05-3.02391E-05 2.76002E-06 8.79556E-19-4.95724E-19
 -1      3683 9.50694E-05-2.39293E-05-3.04827E-05 2.99049E-06 9.04441E-19-5.58232E-19
 -1      3684 9.53418E-05-2.46305E-05-3.03033E-05 2.18988E-06 7.69975E-19-5.65457E-19
 -1      3685 9.54792E-05-2.54773E-05-3.00048E-05 1.97980E-06 8.01295E-19-5.00898E-19
 -1      3686 5.82907E-05-1.56718E-05-1.79768E-05-1.33621E-05 1.20108E-18-2.56865E-18
 -1      3687 6.49458E-05-1.84630E-05-1.97549E-05-1.54112E-05 3.01736E-19-2.53840E-18
 -1      3688 5.77829E-05-1.43536E-05-1.85725E-05-7.06725E-06 7.34424E-19-2.15917E-18
 -1      3689 9.56089E-05-2.56805E-05-2.99621E-05 1.64964E-06 6.43060E-19-5.16609E-19
 -1      3690 1.20800E-04-5.12578E-05-2.99592E-05-7.50493E-06-4.18504E-20 1.72601E-18
 -1      3691 9.56523E-05-2.83775E-05-2.88364E-05-9.22184E-07 3.51184E-19-3.19058E-19
 -1      3692 8.30772E-05-2.60751E-05-2.43914E-05 1.96172E-05 3.10596E-19 1.41243E-18
 -1      3693 6.45134E-05-1.76599E-05-1.99756E-05 1.40477E-05 5.68214E-19-6.31463E-19
 -1      3694 5.69756E-05-1.45262E-05-1.78004E-05 1.05098E-05 1.26621E-18-1.36804E-18
 -1      3695 5.76176E-05-1.38302E-05-1.86952E-05 3.61492E-06 1.14129E-18-1.56704E-18
 -1      3696 8.80769E-05-2.14103E-05-2.85914E-05 4.26583E-06 1.63175E-19-5.02323E-18
 -1      3697 8.88417E-05-2.18252E-05-2.87034E-05 5.50422E-06-2.44515E-19-3.99381E-18
 -1      3698 8.87160E-05-2.19876E-05-2.86090E-05 6.67811E-06 4.95314E-19-2.98332E-18
 -1      3699 7.22614E-05-2.42589E-05-2.03558E-05-2.24810E-05-4.37459E-19-7.47507E-20
 -1      3700 9.09621E-05-2.42143E-05-2.85970E-05-5.87889E-06 1.17715E-18 3.87374E-18
 -1      3701 9.00280E-05-2.35212E-05-2.85248E-05-5.18945E-06 1.10187E-18 4.72514E-18
 -1      3702 8.90031E-05-2.31420E-05-2.82183E-05-5.29080E-06 1.94878E-18 3.68584E-18
 -1      3703 9.08641E-05-2.45459E-05-2.84115E-05-6.52758E-06 9.31449E-19 2.96175E-18
 -1      3704 9.41827E-05-2.16551E-05-3.10894E-05-2.10883E-06-2.13630E-19-1.11648E-18
 -1      3705 9.43886E-05-2.21125E-05-3.09861E-05-2.52826E-06-4.05795E-19-1.00424E-18
 -1      3706 9.49161E-05-2.31737E-05-3.07274E-05-2.12834E-06-3.58157E-19-8.84065E-19
 -1      3707 9.47919E-05-2.27241E-05-3.08600E-05-1.53057E-06-2.06359E-19-9.30715E-19
 -1      3708 7.33276E-05-2.19402E-05-2.17832E-05-1.80705E-05 1.01167E-19-6.34084E-20
 -1      3709 1.11325E-04-4.56196E-05-2.81555E-05 1.07620E-05 2.79365E-19-1.23955E-18
 -1      3710 9.65146E-05-2.84883E-05-2.91508E-05 6.42005E-07-2.51006E-19-2.48937E-19
 -1      3711 9.64726E-05-2.86591E-05-2.90645E-05 7.57079E-07-1.89014E-19-3.34229E-19
 -1      3712 9.64121E-05-2.87771E-05-2.89843E-05 8.19550E-07-1.59435E-19-1.65943E-19
 -1      3713 9.63425E-05-2.88508E-05-2.89252E-05 8.83188E-07-1.50057E-19-2.77481E-19
 -1      3714 9.65805E-05-2.87055E-05-2.90902E-05 6.70445E-07-1.65295E-19-9.40373E-20
 -1      3715 9.62459E-05-2.88807E-05-2.88697E-05 9.15049E-07-2.37357E-19-1.76548E-19
 -1      3716 9.61599E-05-2.88831E-05-2.88321E-05 9.50745E-07-1.13563E-19-3.97519E-19
 -1      3717 9.64245E-05-2.88748E-05-2.89511E-05 7.77705E-07-9.28448E-20 7.60995E-20
 -1      3718 9.60395E-05-2.88479E-05-2.87963E-05 9.69485E-07-1.01235E-19-3.31437E-19
 -1      3719 9.59430E-05-2.87971E-05-2.87753E-05 9.96086E-07-8.44110E-20-2.18657E-19
 -1      3720 9.62094E-05-2.88796E-05-2.88568E-05 8.39597E-07-1.58792E-19-1.22861E-19
 -1      3721 9.58053E-05-2.87129E-05-2.87547E-05 1.01587E-06-1.42475E-19-2.51119E-19
 -1      3722 9.57007E-05-2.86213E-05-2.87464E-05 1.04826E-06-8.46553E-20-2.30657E-19
 -1      3723 9.59538E-05-2.87610E-05-2.87977E-05 8.87040E-07-1.33455E-19-8.20320E-21
 -1      3724 9.55478E-05-2.84984E-05-2.87371E-05 1.08053E-06 5.60491E-20-3.24874E-19
 -1      3725 9.54350E-05-2.83744E-05-2.87381E-05 1.13066E-06 7.36821E-21-2.78700E-19
 -1      3726 9.56658E-05-2.85473E-05-2.87654E-05 9.45075E-07-6.28207E-20-1.59239E-19
 -1      3727 9.52657E-05-2.82197E-05-2.87365E-05 1.18515E-06-3.01930E-20-4.53628E-19
 -1      3728 9.51434E-05-2.80691E-05-2.87437E-05 1.26291E-06 1.21774E-19-7.15660E-19
 -1      3729 9.53465E-05-2.82570E-05-2.87523E-05 1.03448E-06 1.29817E-19-3.25353E-19
 -1      3730 9.49551E-05-2.78875E-05-2.87466E-05 1.34840E-06-8.07286E-20-7.92698E-19
 -1      3731 9.48218E-05-2.77157E-05-2.87571E-05 1.46234E-06-1.76436E-19-7.01605E-19
 -1      3732 9.49919E-05-2.79027E-05-2.87515E-05 1.17346E-06-1.21920E-19-4.59286E-19
 -1      3733 9.46111E-05-2.75122E-05-2.87609E-05 1.58714E-06 1.44714E-20-7.78772E-19
 -1      3734 9.44662E-05-2.73254E-05-2.87716E-05 1.74469E-06 6.65721E-20-8.73976E-19
 -1      3735 9.45958E-05-2.74949E-05-2.87557E-05 1.37907E-06-1.50151E-19-8.17237E-19
 -1      3736 9.42307E-05-2.71067E-05-2.87725E-05 1.91719E-06 1.03118E-20-1.15776E-18
 -1      3737 9.40759E-05-2.69144E-05-2.87800E-05 2.12534E-06 1.48067E-20-1.06501E-18
 -1      3738 9.41523E-05-2.70455E-05-2.87576E-05 1.66775E-06-2.63125E-19-1.45987E-18
 -1      3739 9.38157E-05-2.66912E-05-2.87736E-05 2.35489E-06 4.47264E-19-9.45472E-19
 -1      3740 9.36575E-05-2.65085E-05-2.87739E-05 2.62009E-06 4.68184E-19-6.09403E-19
 -1      3741 9.36588E-05-2.65717E-05-2.87486E-05 2.05765E-06 3.75420E-19-1.87446E-18
 -1      3742 9.33782E-05-2.62988E-05-2.87551E-05 2.91717E-06 5.09150E-19-4.42154E-19
 -1      3743 9.32306E-05-2.61497E-05-2.87435E-05 3.24534E-06 2.38704E-19-4.96518E-19
 -1      3744 9.31201E-05-2.61020E-05-2.87188E-05 2.56948E-06 7.28738E-19-1.27618E-18
 -1      3745 9.29457E-05-2.59812E-05-2.87063E-05 3.62211E-06-8.47049E-20-2.10411E-19
 -1      3746 9.28343E-05-2.59021E-05-2.86778E-05 4.01845E-06 9.55414E-21-3.38999E-19
 -1      3747 9.25542E-05-2.56818E-05-2.86566E-05 3.22751E-06 2.03703E-19-6.76606E-19
 -1      3748 9.25701E-05-2.58168E-05-2.86158E-05 4.48937E-06-7.92472E-20-3.58148E-19
 -1      3749 9.25376E-05-2.58607E-05-2.85655E-05 4.95760E-06-2.10710E-19-6.26321E-19
 -1      3750 9.19990E-05-2.53803E-05-2.85492E-05 4.06178E-06-5.90556E-20-3.48211E-19
 -1      3751 9.23400E-05-2.59189E-05-2.84725E-05 5.53915E-06 1.93236E-20-3.03435E-19
 -1      3752 9.24534E-05-2.61597E-05-2.83971E-05 6.07924E-06-2.19250E-20-1.66123E-19
 -1      3753 9.15238E-05-2.52998E-05-2.83828E-05 5.10931E-06 4.43992E-20-7.02595E-19
 -1      3754 9.23969E-05-2.64447E-05-2.82687E-05 6.78769E-06-5.98780E-19-4.29314E-19
 -1      3755 9.27559E-05-2.69813E-05-2.81689E-05 7.39024E-06-5.45419E-19-1.74569E-19
 -1      3756 9.12439E-05-2.55860E-05-2.81456E-05 6.41346E-06-5.42960E-19-5.75981E-19
 -1      3757 9.29575E-05-2.76035E-05-2.80059E-05 8.23371E-06-5.77364E-19-7.02689E-19
 -1      3758 9.37037E-05-2.85594E-05-2.78915E-05 8.86634E-06-4.84806E-19-4.19148E-19
 -1      3759 9.13437E-05-2.64405E-05-2.78315E-05 8.01714E-06-5.14215E-19 1.32312E-19
 -1      3760 9.43397E-05-2.96551E-05-2.77057E-05 9.82839E-06-3.56031E-19-2.91520E-19
 -1      3761 9.56697E-05-3.11760E-05-2.76048E-05 1.04071E-05-3.55810E-19-6.08453E-20
 -1      3762 9.21057E-05-2.81283E-05-2.74497E-05 9.93896E-06-2.61751E-19-4.77300E-19
 -1      3763 9.70121E-05-3.29064E-05-2.74341E-05 1.13977E-05-7.38656E-19-1.42161E-19
 -1      3764 9.91302E-05-3.50889E-05-2.74083E-05 1.17503E-05-6.08747E-19-4.38117E-19
 -1      3765 9.39340E-05-3.09787E-05-2.70416E-05 1.21289E-05-5.21907E-19-8.01912E-19
 -1      3766 1.01485E-04-3.74663E-05-2.73304E-05 1.23729E-05-4.23477E-19-1.01687E-18
 -1      3767 1.04188E-04-4.02774E-05-2.74146E-05 1.23616E-05-3.20920E-19-1.61315E-18
 -1      3768 9.76744E-05-3.55494E-05-2.67355E-05 1.42894E-05-7.65554E-19-1.82704E-18
 -1      3769 1.24178E-04-4.97720E-05-3.18840E-05-3.23835E-07 3.02171E-19 3.14884E-18
 -1      3770 1.03785E-04-3.99189E-05-2.74124E-05-1.28994E-05-3.63304E-19 1.00359E-18
 -1      3771 1.01140E-04-3.70814E-05-2.73689E-05-1.29388E-05-8.92766E-19 5.09345E-19
 -1      3772 9.90714E-05-3.48484E-05-2.74900E-05-1.21244E-05-1.51228E-19-1.39906E-19
 -1      3773 9.71332E-05-3.27787E-05-2.75565E-05-1.18367E-05 5.29652E-19 2.36684E-19
 -1      3774 9.75517E-05-3.50208E-05-2.68235E-05-1.45132E-05-4.07019E-19 7.05956E-19
 -1      3775 9.59886E-05-3.11171E-05-2.77647E-05-1.08143E-05 1.36333E-19 5.72930E-19
 -1      3776 9.48250E-05-2.96983E-05-2.79017E-05-1.02757E-05-3.83287E-20 1.16613E-18
 -1      3777 9.43666E-05-3.08633E-05-2.72268E-05-1.24026E-05 7.97667E-20-2.48665E-19
 -1      3778 9.43117E-05-2.86043E-05-2.81336E-05-9.37930E-06-5.09165E-19 5.97432E-19
 -1      3779 9.36845E-05-2.76338E-05-2.82931E-05-8.74092E-06-7.18300E-19-9.06786E-20
 -1      3780 9.28539E-05-2.82456E-05-2.77325E-05-1.02558E-05-6.35550E-19-8.65125E-19
 -1      3781 9.34464E-05-2.71051E-05-2.84166E-05-8.19556E-06-6.09825E-19-3.55533E-19
 -1      3782 9.30886E-05-2.64874E-05-2.85315E-05-7.69069E-06-4.79668E-19-5.75107E-19
 -1      3783 9.18311E-05-2.56566E-05-2.83810E-05-7.52033E-06 2.38583E-19 1.07382E-18
 -1      3784 9.21629E-05-2.66307E-05-2.81042E-05-8.67560E-06-1.27313E-18-2.71379E-19
 -1      3785 9.60168E-05-2.63634E-05-2.98615E-05 6.05380E-07 5.63345E-19-6.98158E-19
 -1      3786 9.58578E-05-2.56482E-05-3.00803E-05 1.14233E-06 5.69971E-19-6.26517E-19
 -1      3787 9.40300E-05-2.67312E-05-2.88406E-05-2.15936E-06 8.02031E-20 2.86745E-19
 -1      3788 9.42297E-05-2.69976E-05-2.88199E-05-1.95176E-06 4.80345E-20 3.67977E-19
 -1      3789 9.44976E-05-2.72717E-05-2.88090E-05-1.79905E-06 5.42393E-20 3.93964E-19
 -1      3790 9.46555E-05-2.74958E-05-2.87875E-05-1.64186E-06 1.14442E-19 6.33100E-19
 -1      3791 9.41674E-05-2.69654E-05-2.87966E-05-1.69583E-06 1.75557E-19 3.36799E-19
 -1      3792 9.26867E-05-2.53506E-05-2.88580E-05-3.18075E-06-1.22181E-18 1.02397E-18
 -1      3793 9.30184E-05-2.57140E-05-2.88543E-05-2.85965E-06-8.92031E-19 8.00706E-19
 -1      3794 9.17263E-05-2.44997E-05-2.88122E-05-3.85049E-06-7.20697E-19 7.13774E-19
 -1      3795 9.21540E-05-2.49123E-05-2.88298E-05-3.46857E-06-9.19014E-19 5.35926E-19
 -1      3796 9.18894E-05-2.47600E-05-2.87574E-05-2.91375E-06-7.21351E-19 3.97039E-19
 -1      3797 9.05069E-05-2.35510E-05-2.86972E-05-4.63201E-06-7.67631E-19 6.63639E-19
 -1      3798 9.10522E-05-2.40043E-05-2.87498E-05-4.18585E-06-6.22147E-19 6.84108E-19
 -1      3799 9.07007E-05-2.37957E-05-2.86570E-05-3.47217E-06-7.53943E-19 4.15158E-19
 -1      3800 8.89747E-05-2.25379E-05-2.84752E-05-5.53965E-06-1.02936E-18 9.38053E-19
 -1      3801 8.96563E-05-2.30090E-05-2.85824E-05-5.02012E-06-6.81893E-19 7.62622E-19
 -1      3802 8.91994E-05-2.27242E-05-2.84671E-05-4.10562E-06-1.06010E-18 4.42080E-19
 -1      3803 8.70802E-05-2.15310E-05-2.80936E-05-6.61457E-06-8.45375E-19 1.96795E-19
 -1      3804 8.79067E-05-2.19743E-05-2.82821E-05-5.99693E-06-1.22876E-18 3.38539E-19
 -1      3805 8.73106E-05-2.15739E-05-2.81432E-05-4.82783E-06-9.15397E-19-5.96454E-19
 -1      3806 8.47880E-05-2.06616E-05-2.74790E-05-7.96144E-06-4.74397E-19 6.18631E-19
 -1      3807 8.57436E-05-2.09921E-05-2.77857E-05-7.18579E-06-4.33982E-19 7.08541E-19
 -1      3808 8.49422E-05-2.03974E-05-2.76221E-05-5.68833E-06-9.37355E-19-3.28698E-19
 -1      3809 8.20874E-05-2.01478E-05-2.65314E-05-9.79891E-06-1.44765E-20 3.25109E-19
 -1      3810 8.31200E-05-2.02282E-05-2.70040E-05-8.73889E-06-2.33569E-19 4.95377E-19
 -1      3811 8.19834E-05-1.92930E-05-2.68132E-05-6.81416E-06-3.56693E-19-1.83535E-19
 -1      3812 7.93357E-05-2.04573E-05-2.51927E-05-1.25010E-05 4.72717E-19 5.31831E-19
 -1      3813 7.99849E-05-1.99379E-05-2.58109E-05-1.09785E-05 3.13506E-19 6.29164E-19
 -1      3814 7.82980E-05-1.84025E-05-2.55851E-05-8.47382E-06-1.61574E-19-3.91665E-19
 -1      3815 7.36444E-05-2.01127E-05-2.28960E-05-1.53206E-05 3.85380E-19 8.02921E-19
 -1      3816 7.77343E-05-2.36117E-05-2.31091E-05 1.86952E-05 1.41653E-18 2.00922E-18
 -1      3817 7.02245E-05-1.99834E-05-2.12983E-05 1.73458E-05 1.23940E-18 1.90688E-19
 -1      3818 6.72172E-05-1.74204E-05-2.13947E-05 1.23027E-05 2.63156E-18-1.33532E-18
 -1      3819 7.75041E-05-2.19847E-05-2.38750E-05 1.64568E-05 1.81432E-18 7.57625E-19
 -1      3820 8.78106E-05-2.16894E-05-2.83427E-05 7.28610E-06-2.58637E-19-3.54728E-18
 -1      3821 1.01243E-04-4.05684E-05-2.58289E-05-1.88165E-05-9.88301E-19 1.03740E-18
 -1      3822 1.06402E-04-4.31915E-05-2.71393E-05-1.47048E-05-7.63455E-19 1.66914E-18
 -1      3823 9.59274E-05-2.84597E-05-2.89165E-05-9.04041E-07 2.02409E-19-3.51290E-19
 -1      3824 9.59582E-05-2.82828E-05-2.89974E-05-7.38511E-07 4.05086E-19-3.21805E-19
 -1      3825 9.61513E-05-2.85221E-05-2.89866E-05-8.64316E-07 1.93325E-19-4.56432E-19
 -1      3826 9.44882E-05-2.23349E-05-3.09388E-05 2.56717E-06 7.28154E-19-7.44474E-19
 -1      3827 9.42811E-05-2.18491E-05-3.10462E-05 2.14349E-06 5.38746E-19-9.41261E-19
 -1      3828 9.48667E-05-2.28982E-05-3.08217E-05 1.57471E-06 4.49380E-19-8.97951E-19
 -1      3829 9.51106E-05-2.36829E-05-3.05956E-05 2.10827E-06 6.19662E-19-6.71486E-19
 -1      3830 8.73008E-05-2.10543E-05-2.83982E-05 1.08415E-06 1.19898E-19-1.38299E-18
 -1      3831 8.74792E-05-2.11012E-05-2.84514E-05 2.50460E-06 6.31632E-19-4.02565E-18
 -1      3832 8.64021E-05-2.08544E-05-2.80734E-05 5.24463E-08 1.40583E-19-1.84477E-18
 -1      3833 7.35002E-05-2.35522E-05-2.12949E-05-1.99657E-05-4.57259E-19-3.64065E-18
 -1      3834 8.12643E-05-2.91529E-05-2.23686E-05-2.28308E-05-5.28238E-19-4.24236E-18
 -1      3835 9.38394E-05-2.09355E-05-3.12541E-05-2.12659E-07 2.36428E-19-1.31855E-18
 -1      3836 9.38852E-05-2.10357E-05-3.12357E-05-7.64580E-07 1.68062E-19-1.14241E-18
 -1      3837 9.46623E-05-2.23778E-05-3.09525E-05-8.26536E-07 9.87064E-20-1.04850E-18
 -1      3838 9.45614E-05-2.21893E-05-3.09943E-05 1.74828E-09 2.61051E-19-1.18194E-18
 -1      3839 9.53445E-05-2.43308E-05-3.04498E-05-1.51828E-06-3.23450E-19-8.63941E-19
 -1      3840 1.18102E-04-4.93346E-05-2.96080E-05-6.79560E-06-9.22287E-19 3.11404E-18
 -1      3841 9.59644E-05-2.57080E-05-3.00950E-05-9.06807E-07-2.46169E-19-6.23802E-19
 -1      3842 9.61446E-05-2.64311E-05-2.98854E-05-4.46549E-07-2.54477E-19-5.71939E-19
 -1      3843 8.07316E-05-2.08186E-05-2.57541E-05 1.25915E-05 6.31370E-19 5.50640E-19
 -1      3844 7.99020E-05-2.14737E-05-2.49894E-05 1.42985E-05 1.44302E-18 1.38109E-19
 -1      3845 7.52724E-05-1.93576E-05-2.38490E-05 1.31506E-05 2.15350E-18-1.02903E-18
 -1      3846 8.82296E-05-3.29285E-05-2.34905E-05-2.25728E-05-7.96828E-19-1.40714E-18
 -1      3847 9.60455E-05-3.81625E-05-2.48123E-05-2.11383E-05-1.03314E-18 1.54430E-18
 -1      3848 9.54125E-05-3.55069E-05-2.57609E-05-1.77594E-05-6.49376E-19 8.37249E-19
 -1      3849 8.51744E-05-2.96485E-05-2.38304E-05-1.98424E-05-2.53815E-19-1.91582E-18
 -1      3850 9.34393E-05-2.60937E-05-2.88613E-05-2.61815E-06-5.18308E-19 5.38616E-19
 -1      3851 9.36959E-05-2.64070E-05-2.88458E-05-2.35543E-06-2.63469E-19 4.76415E-19
 -1      3852 9.28290E-05-2.56075E-05-2.88003E-05-2.43014E-06-1.01811E-18 6.56791E-19
 -1      3853 9.54497E-05-2.84056E-05-2.87309E-05-1.21380E-06 5.36094E-19 4.20382E-19
 -1      3854 9.55437E-05-2.85230E-05-2.87249E-05-1.16643E-06 6.53501E-19 2.67454E-19
 -1      3855 9.65143E-05-2.79461E-05-2.93821E-05 3.32682E-07-1.20124E-19-5.02882E-19
 -1      3856 9.65190E-05-2.82497E-05-2.92617E-05 5.27781E-07-2.23081E-19-3.20787E-19
 -1      3857 9.66455E-05-2.83140E-05-2.92852E-05 4.80498E-07-1.60676E-19-3.93256E-19
 -1      3858 9.63500E-05-2.70566E-05-2.96928E-05-1.64109E-07-3.43953E-19-4.03543E-19
 -1      3859 9.64326E-05-2.75410E-05-2.95304E-05 1.44501E-07-2.33342E-19-4.80135E-19
 -1      3860 9.65713E-05-2.76241E-05-2.95482E-05 1.65574E-07-2.62767E-19-2.13585E-19
 -1      3861 1.14414E-04-4.75173E-05-2.86320E-05-9.69946E-06-3.85943E-19 2.29456E-18
 -1      3862 7.04642E-05-1.74937E-05-2.26156E-05-1.17226E-05 4.06172E-19 1.04430E-19
 -1      3863 9.62804E-05-2.65304E-05-2.98926E-05-3.16433E-07-1.99843E-19-2.43740E-19
 -1      3864 7.36743E-05-2.39286E-05-2.11010E-05 2.12478E-05-9.17674E-19-7.94524E-19
 -1      3865 7.21292E-05-2.12070E-05-2.18361E-05 1.68473E-05-8.79035E-19-4.88579E-19
 -1      3866 8.06063E-05-2.79970E-05-2.25457E-05 2.15552E-05-1.00729E-18-1.25791E-18
 -1      3867 9.62251E-05-2.69925E-05-2.96637E-05 2.62162E-07 5.31226E-19-6.26066E-19
 -1      3868 9.61652E-05-2.64132E-05-2.98908E-05 4.65271E-07 4.61960E-19-6.61087E-19
 -1      3869 9.62922E-05-2.74762E-05-2.94987E-05-1.00213E-07 4.92472E-19-5.45204E-19
 -1      3870 1.10783E-04-4.50948E-05-2.80591E-05-1.13899E-05-7.43834E-20 1.54192E-18
 -1      3871 9.35734E-05-2.63400E-05-2.88080E-05-2.02396E-06-2.12780E-19 2.37584E-19
 -1      3872 9.62275E-05-2.88097E-05-2.88934E-05-9.69207E-07 9.25155E-21-2.91757E-19
 -1      3873 9.62860E-05-2.87290E-05-2.89502E-05-8.98029E-07 8.73896E-21-3.79695E-19
 -1      3874 9.57862E-05-2.87837E-05-2.87170E-05-1.18048E-06 4.74486E-19 6.74732E-20
 -1      3875 9.56818E-05-2.86389E-05-2.87307E-05-1.13785E-06 5.24865E-19 7.22114E-20
 -1      3876 9.57668E-05-2.87204E-05-2.87349E-05-1.10826E-06 3.57745E-19 3.18737E-20
 -1      3877 9.56720E-05-2.85756E-05-2.87560E-05-1.05130E-06 4.07415E-19 1.36283E-19
 -1      3878 9.46479E-05-2.74939E-05-2.87776E-05-1.44269E-06 1.45345E-19 8.01673E-19
 -1      3879 9.48742E-05-2.77255E-05-2.87757E-05-1.52908E-06-6.45568E-20 6.68874E-19
 -1      3880 9.50023E-05-2.79118E-05-2.87568E-05-1.41639E-06 2.08731E-19 7.11197E-19
 -1      3881 9.61430E-05-2.88480E-05-2.88392E-05-1.00771E-06 1.56511E-19-2.68510E-19
 -1      3882 9.63435E-05-2.88432E-05-2.89301E-05-8.79907E-07 8.56321E-20-2.33926E-19
 -1      3883 9.60729E-05-2.88605E-05-2.88045E-05-1.04519E-06 3.27079E-19-1.49399E-19
 -1      3884 6.41421E-05-1.44182E-05-2.10545E-05 5.46725E-06-2.82820E-19-7.52695E-19
 -1      3885 6.64004E-05-1.48939E-05-2.20641E-05 3.51165E-07-5.83070E-19 2.47638E-19
 -1      3886 6.72706E-05-1.66060E-05-2.17434E-05 9.31873E-06-6.30459E-19-4.27050E-19
 -1      3887 8.66868E-05-2.18942E-05-2.77562E-05-4.42953E-06 2.06433E-18 8.28529E-19
 -1      3888 8.58130E-05-2.12363E-05-2.77031E-05-3.00021E-06 2.38373E-18-3.94607E-19
 -1      3889 9.54484E-05-2.43452E-05-3.04875E-05-9.42888E-07-1.33412E-19-7.55947E-19
 -1      3890 9.54951E-05-2.45024E-05-3.04348E-05-1.20847E-06-2.49167E-19-7.45806E-19
 -1      3891 9.61874E-05-2.80940E-05-2.91856E-05-5.32991E-07 4.43460E-19-5.38403E-19
 -1      3892 9.51822E-05-2.35709E-05-3.07032E-05 8.50435E-07 4.98357E-19-1.05825E-18
 -1      3893 9.51098E-05-2.33898E-05-3.07435E-05 4.73321E-07 4.10981E-19-1.27745E-18
 -1      3894 7.04307E-05-2.07534E-05-2.11982E-05-1.71494E-05 2.27111E-20-2.29109E-18
 -1      3895 7.62992E-05-2.30879E-05-2.26998E-05-1.66060E-05-3.12410E-19-2.83336E-18
 -1      3896 6.79224E-05-1.82856E-05-2.12882E-05-1.27080E-05-8.62319E-20-2.51508E-18
 -1      3897 8.37875E-05-2.07994E-05-2.70459E-05 1.01531E-05-5.24757E-19 6.40681E-19
 -1      3898 8.27724E-05-2.08719E-05-2.65082E-05 1.13008E-05 1.54917E-19 6.15612E-19
 -1      3899 7.96132E-05-1.94028E-05-2.57455E-05 1.01392E-05 4.67943E-19 3.06274E-19
 -1      3900 9.53542E-05-2.39515E-05-3.06098E-05-4.55389E-07 1.24174E-19-7.89201E-19
 -1      3901 9.54137E-05-2.41340E-05-3.05637E-05-7.84278E-07-5.75116E-20-7.12312E-19
 -1      3902 9.60836E-05-2.56450E-05-3.01703E-05-5.29180E-07-6.02882E-20-4.99668E-19
 -1      3903 8.64064E-05-2.13046E-05-2.79365E-05 8.45710E-06-5.03788E-19-2.19180E-18
 -1      3904 8.54601E-05-2.11307E-05-2.75652E-05 9.30509E-06-5.59872E-19-8.81306E-19
 -1      3905 8.32038E-05-2.00206E-05-2.70409E-05 8.30134E-06 2.05898E-19-2.45600E-18
 -1      3906 5.96758E-05-1.36655E-05-1.94390E-05-1.25358E-06 6.27463E-19-1.75947E-18
 -1      3907 6.35031E-05-1.51572E-05-2.06452E-05-5.24581E-06 7.99520E-20-2.44295E-18
 -1      3908 6.33316E-05-1.47650E-05-2.07905E-05 4.13930E-06 5.92299E-19-1.45733E-18
 -1      3909 9.51851E-05-2.81016E-05-2.87477E-05-1.33865E-06 3.96364E-19 5.79654E-19
 -1      3910 9.52928E-05-2.82529E-05-2.87340E-05-1.26302E-06 5.71470E-19 5.87597E-19
 -1      3911 9.50446E-05-2.79349E-05-2.87599E-05-1.25827E-06 2.46216E-19 9.53309E-19
 -1      3912 8.68945E-05-2.09201E-05-2.82594E-05 3.60706E-06-3.87171E-19-3.97610E-18
 -1      3913 9.53803E-05-2.82947E-05-2.87505E-05-1.13228E-06 4.58707E-19 5.41399E-19
 -1      3914 8.62081E-05-2.08386E-05-2.79972E-05 6.43841E-06-2.76545E-19-5.68109E-18
 -1      3915 1.06917E-04-4.37547E-05-2.70637E-05 1.45741E-05 6.59329E-20-1.11128E-18
 -1      3916 8.87164E-05-2.34560E-05-2.79555E-05-6.31871E-06 1.75281E-18 3.92172E-18
 -1      3917 8.77129E-05-2.27567E-05-2.78611E-05-5.54535E-06 1.71976E-18 2.48262E-18
 -1      3918 8.63047E-05-2.21939E-05-2.74693E-05-5.57770E-06 2.22629E-18 8.86006E-19
 -1      3919 9.53970E-05-2.42397E-05-3.04996E-05 1.10691E-06 5.06227E-19-8.15725E-19
 -1      3920 9.58002E-05-2.50532E-05-3.03150E-05 7.06101E-07 5.00806E-19-8.50136E-19
 -1      3921 9.98113E-05-4.07025E-05-2.51986E-05 2.02440E-05-4.38948E-19-1.75240E-18
 -1      3922 9.41184E-05-3.87215E-05-2.36355E-05 2.45360E-05-5.74725E-19-1.68558E-18
 -1      3923 9.38696E-05-2.67069E-05-2.87843E-05-1.50325E-06 2.07650E-19 6.00673E-19
 -1      3924 9.41385E-05-2.70019E-05-2.87777E-05-1.36953E-06 1.61055E-19 5.66726E-19
 -1      3925 7.05298E-05-1.62929E-05-2.33158E-05-7.44726E-06 2.75057E-19 1.85118E-19
 -1      3926 9.66079E-05-2.73378E-05-2.96866E-05 1.83604E-08-1.83504E-19-2.02141E-19
 -1      3927 9.66931E-05-2.77892E-05-2.95337E-05 2.16296E-07-2.76989E-19-1.24052E-19
 -1      3928 9.65802E-05-2.88703E-05-2.90175E-05 6.13772E-07 9.88570E-20-1.93683E-19
 -1      3929 9.64843E-05-2.89136E-05-2.89588E-05 6.58772E-07-7.25156E-20-5.76238E-20
 -1      3930 9.63602E-05-2.89126E-05-2.89057E-05 6.76075E-07-3.03342E-19-4.74062E-20
 -1      3931 9.62401E-05-2.88819E-05-2.88670E-05 7.06001E-07-6.60514E-20-1.55323E-19
 -1      3932 9.64974E-05-2.89137E-05-2.89654E-05 5.21923E-07-1.79481E-19-1.95159E-20
 -1      3933 9.60882E-05-2.88140E-05-2.88321E-05 7.19818E-07-6.97227E-20-3.71209E-19
 -1      3934 9.59504E-05-2.87269E-05-2.88090E-05 7.47899E-07-2.54253E-19-3.09618E-19
 -1      3935 9.62232E-05-2.88485E-05-2.88756E-05 5.62112E-07-2.36412E-19-4.13215E-19
 -1      3936 9.57761E-05-2.86072E-05-2.87877E-05 7.67318E-07-6.85044E-20-2.35082E-19
 -1      3937 9.56229E-05-2.84755E-05-2.87761E-05 8.04219E-07 8.43030E-20-1.04537E-19
 -1      3938 9.58997E-05-2.86585E-05-2.88179E-05 6.01818E-07-3.10530E-20-1.32312E-19
 -1      3939 9.54261E-05-2.83130E-05-2.87647E-05 8.37131E-07 3.20094E-20-2.55395E-19
 -1      3940 9.52565E-05-2.81444E-05-2.87609E-05 8.92418E-07 3.12377E-20-1.07390E-19
 -1      3941 9.55320E-05-2.83689E-05-2.87839E-05 6.56802E-07 1.70860E-20-1.80484E-19
 -1      3942 9.50350E-05-2.79455E-05-2.87554E-05 9.46220E-07-3.04765E-19-3.49662E-19
 -1      3943 9.48460E-05-2.77451E-05-2.87560E-05 1.02815E-06-2.30359E-19-4.13214E-19
 -1      3944 9.51176E-05-2.79952E-05-2.87656E-05 7.42327E-07-2.18129E-19-7.48561E-19
 -1      3945 9.45945E-05-2.75139E-05-2.87526E-05 1.11059E-06-3.74889E-19-8.39385E-19
 -1      3946 9.43831E-05-2.72872E-05-2.87537E-05 1.22748E-06-5.31128E-19-1.22574E-18
 -1      3947 9.46491E-05-2.75481E-05-2.87554E-05 8.71939E-07-6.71407E-19-9.58934E-19
 -1      3948 9.40962E-05-2.70289E-05-2.87481E-05 1.34650E-06-5.44585E-19-1.30603E-18
 -1      3949 9.38596E-05-2.67817E-05-2.87458E-05 1.50630E-06-4.12946E-19-1.73812E-18
 -1      3950 9.41152E-05-2.70363E-05-2.87447E-05 1.06287E-06-7.75242E-19-1.45079E-18
 -1      3951 9.35311E-05-2.65020E-05-2.87330E-05 1.67265E-06 1.45807E-19-1.48229E-18
 -1      3952 9.32698E-05-2.62447E-05-2.87226E-05 1.88538E-06 6.30682E-19-1.61737E-18
 -1      3953 9.35041E-05-2.64709E-05-2.87243E-05 1.32995E-06-1.46740E-19-9.70769E-19
 -1      3954 9.28973E-05-2.59558E-05-2.86969E-05 2.11167E-06 1.03300E-18-1.58305E-18
 -1      3955 9.26164E-05-2.57052E-05-2.86728E-05 2.38845E-06 9.69146E-19-1.06160E-18
 -1      3956 9.28077E-05-2.58678E-05-2.86832E-05 1.69984E-06 6.82212E-19-8.54254E-19
 -1      3957 9.22006E-05-2.54254E-05-2.86272E-05 2.69124E-06 7.84300E-19-1.00258E-18
 -1      3958 9.19134E-05-2.52077E-05-2.85831E-05 3.04622E-06 6.28552E-19-6.42560E-19
 -1      3959 9.20232E-05-2.52558E-05-2.86084E-05 2.20025E-06 1.08661E-18-9.33104E-19
 -1      3960 9.14622E-05-2.49661E-05-2.85094E-05 3.44808E-06 1.64117E-19-4.27761E-19
 -1      3961 9.11949E-05-2.48214E-05-2.84380E-05 3.89933E-06 2.14685E-20-3.63637E-19
 -1      3962 9.11580E-05-2.46794E-05-2.84841E-05 2.87191E-06 6.49923E-19-8.84635E-19
 -1      3963 9.07270E-05-2.46613E-05-2.83268E-05 4.43058E-06-1.66097E-19-1.10192E-19
 -1      3964 9.05250E-05-2.46480E-05-2.82210E-05 5.00104E-06-3.52220E-19-7.38784E-19
 -1      3965 9.02370E-05-2.42072E-05-2.82919E-05 3.77012E-06-7.02213E-20-5.74159E-19
 -1      3966 9.00760E-05-2.46321E-05-2.80621E-05 5.70225E-06-3.43109E-19-7.28216E-19
 -1      3967 9.00133E-05-2.48333E-05-2.79159E-05 6.41944E-06-4.56444E-19-7.84917E-19
 -1      3968 8.93112E-05-2.39405E-05-2.80110E-05 4.97082E-06-3.93626E-19-8.05478E-19
 -1      3969 8.96456E-05-2.50495E-05-2.76994E-05 7.34352E-06-7.19040E-19-5.33970E-19
 -1      3970 8.98388E-05-2.55813E-05-2.75111E-05 8.23551E-06-6.78798E-19-5.79516E-19
 -1      3971 8.84721E-05-2.40256E-05-2.76191E-05 6.57634E-06-4.76849E-19-5.70554E-19
 -1      3972 8.96670E-05-2.61592E-05-2.72304E-05 9.44391E-06-6.95226E-19-1.54212E-19
 -1      3973 9.02825E-05-2.71746E-05-2.70078E-05 1.05208E-05-3.20907E-19-4.18504E-19
 -1      3974 8.78821E-05-2.46795E-05-2.70953E-05 8.72472E-06-5.04503E-19-3.82835E-19
 -1      3975 9.05146E-05-2.82955E-05-2.66673E-05 1.20437E-05-3.87940E-19-9.52747E-19
 -1      3976 9.19241E-05-3.00288E-05-2.64674E-05 1.32140E-05-7.89046E-19-1.24601E-18
 -1      3977 8.78756E-05-2.62199E-05-2.64320E-05 1.15867E-05-6.36562E-19-6.64019E-19
 -1      3978 9.42636E-05-3.31336E-05-2.61679E-05-1.56014E-05-6.51372E-19 1.14401E-18
 -1      3979 9.22039E-05-3.07616E-05-2.63790E-05-1.44086E-05-4.51361E-19 7.54969E-19
 -1      3980 8.98649E-05-3.07083E-05-2.52963E-05-1.72902E-05-9.68021E-20 8.34480E-19
 -1      3981 8.85332E-05-3.40958E-05-2.33662E-05 2.33468E-05-1.00674E-18-1.49273E-18
 -1      3982 9.54968E-05-2.45670E-05-3.04038E-05 1.35758E-06 6.05821E-19-7.28611E-19
 -1      3983 9.53625E-05-2.44376E-05-3.04031E-05 1.68186E-06 5.84701E-19-6.39693E-19
 -1      3984 9.18823E-05-2.92892E-05-2.67976E-05-1.26732E-05-2.40134E-19 6.59007E-19
 -1      3985 9.09751E-05-2.77938E-05-2.70785E-05-1.14398E-05-2.78424E-19 2.00682E-19
 -1      3986 8.86301E-05-2.73544E-05-2.62405E-05-1.32428E-05-7.02324E-19 4.66209E-19
 -1      3987 9.05804E-05-2.67148E-05-2.73771E-05-1.02476E-05-8.18861E-19-1.91281E-19
 -1      3988 8.43983E-05-2.06022E-05-2.73232E-05-2.55043E-06 2.55102E-18-2.37257E-19
 -1      3989 8.51560E-05-2.05546E-05-2.76807E-05-1.11517E-06 1.69705E-18-1.35820E-18
 -1      3990 8.49216E-05-2.03156E-05-2.77155E-05 5.82602E-07 1.12021E-18-9.97457E-19
 -1      3991 9.58890E-05-2.87952E-05-2.87530E-05-1.09034E-06 3.35396E-19-1.98255E-20
 -1      3992 9.59669E-05-2.88350E-05-2.87705E-05-1.06514E-06 4.54669E-19 1.31157E-19
 -1      3993 9.61552E-05-2.88695E-05-2.88382E-05-9.50562E-07 2.14893E-19-3.67221E-20
 -1      3994 9.59295E-05-2.87718E-05-2.87829E-05-9.98152E-07 3.70012E-19 1.27075E-19
 -1      3995 8.47461E-05-2.00992E-05-2.77104E-05 2.60435E-06 4.61003E-19-2.04095E-18
 -1      3996 8.54180E-05-2.04126E-05-2.78755E-05 4.45785E-06 2.27421E-19-5.00748E-18
 -1      3997 8.39568E-05-1.99720E-05-2.74147E-05 5.50545E-06 1.37985E-18-4.20748E-18
 -1      3998 8.34044E-05-1.97021E-05-2.72877E-05 1.40701E-06 2.69542E-18-8.45607E-19
 -1      3999 8.98185E-05-2.32724E-05-2.85272E-05-2.88874E-06-9.38402E-19 3.73074E-19
 -1      4000 9.04956E-05-2.37869E-05-2.86011E-05-2.63693E-06-7.02049E-19 2.32127E-19
 -1      4001 9.11958E-05-2.43051E-05-2.86723E-05-2.48211E-06-6.15938E-19-2.09319E-20
 -1      4002 9.17304E-05-2.47633E-05-2.87095E-05-2.25463E-06-4.79671E-19 2.80981E-19
 -1      4003 9.04652E-05-2.37901E-05-2.85592E-05-1.93871E-06-7.41560E-19 3.53054E-19
 -1      4004 8.59092E-05-2.09081E-05-2.78716E-05-3.77175E-06-6.03198E-19-9.34123E-19
 -1      4005 8.69863E-05-2.15049E-05-2.80833E-05-3.46886E-06-5.62628E-19-4.58207E-19
 -1      4006 8.31618E-05-1.96387E-05-2.72404E-05-4.27841E-06-1.30206E-18-4.85130E-19
 -1      4007 8.45155E-05-2.02460E-05-2.75718E-05-3.91945E-06-1.29038E-18-1.01754E-18
 -1      4008 8.45261E-05-2.01843E-05-2.75355E-05-2.46823E-06-7.21287E-19-1.03278E-18
 -1      4009 7.96616E-05-1.83884E-05-2.62790E-05-4.94418E-06-5.95833E-19-5.08293E-19
 -1      4010 8.13571E-05-1.89594E-05-2.67856E-05-4.45858E-06-7.91034E-19-4.14729E-19
 -1      4011 8.14018E-05-1.87920E-05-2.67724E-05-2.53971E-06-9.46723E-19-6.67158E-19
 -1      4012 7.52800E-05-1.72211E-05-2.48687E-05-5.98446E-06-2.87128E-19-5.81400E-19
 -1      4013 7.72621E-05-1.77086E-05-2.55936E-05-5.22720E-06-4.07972E-19-6.55667E-19
 -1      4014 7.73137E-05-1.73187E-05-2.56235E-05-2.69794E-06-5.11072E-19-8.94040E-19
 -1      4015 9.62782E-05-2.62526E-05-3.00139E-05-3.58048E-07-1.05922E-20-5.15130E-19
 -1      4016 9.64813E-05-2.69054E-05-2.98199E-05-8.78282E-08-3.82775E-20-2.91917E-19
 -1      4017 9.65952E-05-2.70615E-05-2.97973E-05-3.12925E-08-1.08169E-19-4.05958E-19
 -1      4018 9.62555E-05-2.60457E-05-3.00882E-05-2.88470E-07-9.07624E-22-3.22887E-19
 -1      4019 8.88971E-05-3.25174E-05-2.42208E-05 2.04374E-05-7.16990E-19-1.56672E-18
 -1      4020 8.48929E-05-3.02770E-05-2.32829E-05 2.15362E-05-6.08146E-19-1.64040E-18
 -1      4021 8.10194E-05-2.64390E-05-2.34556E-05 1.86198E-05-4.78074E-19-1.28579E-18
 -1      4022 7.06609E-05-1.83203E-05-2.22434E-05 1.24232E-05-6.30906E-19-4.14533E-19
 -1      4023 7.08831E-05-1.72259E-05-2.30402E-05 7.99923E-06-8.54669E-19-3.04052E-19
 -1      4024 7.53448E-05-2.14612E-05-2.30938E-05 1.45360E-05-9.66099E-19-8.16943E-19
 -1      4025 9.61787E-05-2.59594E-05-3.00946E-05 5.05870E-07 4.32698E-19-8.40059E-19
 -1      4026 9.59951E-05-2.53370E-05-3.02819E-05 3.34006E-07 3.85690E-19-1.09890E-18
 -1      4027 9.63827E-05-2.66445E-05-2.98934E-05 1.52623E-07 3.51492E-19-8.54936E-19
 -1      4028 9.64787E-05-2.86565E-05-2.90683E-05-7.50973E-07-2.97556E-20-2.10224E-19
 -1      4029 9.63383E-05-2.86047E-05-2.90301E-05-8.21940E-07-5.12248E-20-3.30456E-19
 -1      4030 9.63759E-05-2.84304E-05-2.91151E-05-6.89628E-07 9.22577E-20-4.94028E-19
 -1      4031 9.67248E-05-2.86405E-05-2.91773E-05 5.05450E-07-8.28046E-20-2.53436E-19
 -1      4032 9.66651E-05-2.87826E-05-2.90934E-05 5.81769E-07-1.74551E-20-4.62505E-20
 -1      4033 9.67053E-05-2.88156E-05-2.90964E-05 4.62162E-07 3.87701E-20-6.24317E-20
 -1      4034 8.80873E-05-2.21320E-05-2.82770E-05-3.31800E-06-9.79110E-19-2.32291E-19
 -1      4035 8.89427E-05-2.26957E-05-2.84065E-05-3.04408E-06-9.44464E-19 1.38416E-19
 -1      4036 8.89143E-05-2.26902E-05-2.83605E-05-2.15823E-06-7.50149E-19 3.90920E-19
 -1      4037 9.22920E-05-2.52206E-05-2.87478E-05-2.10852E-06-7.85350E-19 3.06457E-19
 -1      4038 9.27144E-05-2.56214E-05-2.87617E-05-1.90969E-06-1.03531E-18 3.55803E-19
 -1      4039 9.17083E-05-2.47742E-05-2.86742E-05-1.70337E-06-6.55659E-19 6.61414E-20
 -1      4040 9.63751E-05-2.81857E-05-2.92270E-05-5.53133E-07 4.15461E-19-5.29246E-19
 -1      4041 9.63751E-05-2.78827E-05-2.93477E-05-3.23696E-07 4.95458E-19-4.60092E-19
 -1      4042 9.64527E-05-2.75318E-05-2.95373E-05-1.29230E-07 4.61596E-19-6.19000E-19
 -1      4043 9.65320E-05-2.82470E-05-2.92665E-05-5.19216E-07 3.03087E-19-4.65333E-19
 -1      4044 7.02777E-05-1.55323E-05-2.33659E-05-3.72372E-06-3.49533E-20-1.83275E-19
 -1      4045 9.54779E-05-2.48922E-05-3.02548E-05 1.83521E-06 5.78676E-19-5.46168E-19
 -1      4046 9.56160E-05-2.43549E-05-3.05260E-05 2.64260E-07 4.14968E-19-1.23662E-18
 -1      4047 9.50811E-05-2.33248E-05-3.07643E-05 1.95599E-07 4.06881E-19-1.19938E-18
 -1      4048 9.50900E-05-2.33407E-05-3.07642E-05-1.99572E-07 3.17006E-19-1.13504E-18
 -1      4049 9.55738E-05-2.53055E-05-3.01162E-05 1.76349E-06 6.39425E-19-5.77875E-19
 -1      4050 7.38925E-05-1.77964E-05-2.41357E-05 9.02175E-06 1.56522E-18-1.97759E-19
 -1      4051 7.14253E-05-1.77378E-05-2.29806E-05 1.06503E-05 2.37760E-18-2.30671E-19
 -1      4052 6.70765E-05-1.57064E-05-2.18312E-05 7.52840E-06 1.78220E-18-5.28469E-19
 -1      4053 7.13892E-05-1.59794E-05-2.38077E-05 7.65237E-07-5.36076E-19-2.29139E-19
 -1      4054 9.31668E-05-2.60190E-05-2.87790E-05-1.77950E-06-6.84979E-19 7.75405E-19
 -1      4055 9.35021E-05-2.63649E-05-2.87792E-05-1.61255E-06-2.16369E-20 4.92246E-19
 -1      4056 9.35172E-05-2.63956E-05-2.87603E-05-1.26725E-06 8.03919E-20 1.02648E-18
 -1      4057 9.67537E-05-2.81580E-05-2.93960E-05 3.18437E-07-3.16062E-19-1.32598E-19
 -1      4058 9.67505E-05-2.84331E-05-2.92813E-05 4.45991E-07-1.68564E-19-1.65152E-19
 -1      4059 9.67852E-05-2.78960E-05-2.95225E-05 1.92077E-07-2.77764E-19 9.70261E-20
 -1      4060 9.08292E-05-2.49640E-05-2.82216E-05-7.29147E-06 3.37790E-19 2.11762E-18
 -1      4061 8.97775E-05-2.42373E-05-2.81075E-05-6.83413E-06 1.20170E-18 3.00368E-18
 -1      4062 8.86618E-05-2.38632E-05-2.77547E-05-7.17411E-06 4.09603E-19 2.71590E-18
 -1      4063 9.08697E-05-2.53723E-05-2.80708E-05-7.90359E-06-4.05104E-19 1.57843E-18
 -1      4064 9.53092E-05-2.81922E-05-2.87631E-05-1.00003E-06 1.99453E-19 7.57821E-19
 -1      4065 9.54668E-05-2.83575E-05-2.87629E-05-9.49814E-07 3.74661E-19 6.14549E-19
 -1      4066 9.41774E-05-2.70431E-05-2.87677E-05-1.09338E-06 1.14017E-19 9.73971E-19
 -1      4067 9.44398E-05-2.72924E-05-2.87770E-05-1.28276E-06 2.40397E-19 5.33365E-19
 -1      4068 9.46596E-05-2.75416E-05-2.87686E-05-1.18068E-06 2.60962E-19 5.98120E-19
 -1      4069 9.55797E-05-2.84169E-05-2.87839E-05-7.86345E-07 2.04306E-19 7.69181E-19
 -1      4070 9.56523E-05-2.85144E-05-2.87721E-05-9.22066E-07 4.92865E-19 2.95731E-19
 -1      4071 9.57916E-05-2.86385E-05-2.87808E-05-8.87219E-07 2.99636E-19 3.78366E-19
 -1      4072 8.68132E-05-2.80468E-05-2.51840E-05 1.58546E-05-7.07441E-19-1.09473E-18
 -1      4073 9.08697E-05-3.10442E-05-2.56064E-05 1.60751E-05-8.57403E-19-1.29322E-18
 -1      4074 8.60625E-05-2.27509E-05-2.71428E-05-7.18772E-06 1.21378E-18 7.92414E-19
 -1      4075 8.47415E-05-2.17804E-05-2.70091E-05-6.05598E-06 1.59679E-18-5.88593E-19
 -1      4076 9.31489E-05-3.37987E-05-2.53859E-05 1.74543E-05-4.99061E-19-1.51500E-18
 -1      4077 7.43895E-05-1.79213E-05-2.42397E-05 6.52246E-06-1.03492E-18-5.24032E-19
 -1      4078 7.23698E-05-1.63797E-05-2.38788E-05 3.51480E-06-8.74684E-19-5.00403E-20
 -1      4079 7.50526E-05-1.69193E-05-2.49490E-05 8.00488E-08-5.51170E-19-6.19527E-19
 -1      4080 9.64355E-05-2.88911E-05-2.89476E-05-7.74764E-07 4.82403E-20-5.24565E-19
 -1      4081 9.65198E-05-2.88349E-05-2.90059E-05-7.22570E-07 3.45147E-20-5.05380E-19
 -1      4082 8.69716E-05-2.14820E-05-2.80382E-05-2.33921E-06-4.14732E-19-2.82023E-19
 -1      4083 8.32801E-05-2.05332E-05-2.68795E-05-4.09296E-06 2.11585E-18-8.30828E-19
 -1      4084 8.23944E-05-1.98138E-05-2.68523E-05-2.12854E-06 2.47695E-18-6.10834E-19
 -1      4085 8.28484E-05-2.09314E-05-2.65053E-05-5.80479E-06 1.22923E-18-1.19596E-18
 -1      4086 9.11329E-05-2.58997E-05-2.79393E-05-8.48664E-06-7.64325E-19 5.53588E-19
 -1      4087 6.76850E-05-1.55205E-05-2.24030E-05 3.35854E-06 9.70425E-19 1.96346E-19
 -1      4088 8.18772E-05-1.93237E-05-2.68442E-05 5.77986E-06 1.50062E-18-3.23144E-18
 -1      4089 8.01787E-05-1.88672E-05-2.62769E-05 6.36382E-06 1.24101E-18-1.76529E-18
 -1      4090 8.13185E-05-1.89057E-05-2.67211E-05 3.62797E-06 2.34932E-18-2.59248E-18
 -1      4091 9.65920E-05-2.87344E-05-2.90830E-05-6.74836E-07 1.02328E-19-4.84727E-19
 -1      4092 9.66495E-05-2.85886E-05-2.91683E-05-5.80518E-07 1.36024E-19-3.21708E-19
 -1      4093 9.66610E-05-2.87702E-05-2.90961E-05-5.73387E-07 1.28313E-19-6.68501E-19
 -1      4094 9.27082E-05-2.56412E-05-2.87343E-05-1.47402E-06-5.03689E-19 6.66357E-19
 -1      4095 9.68166E-05-2.84994E-05-2.92785E-05 3.61175E-07-1.64632E-19-2.07832E-19
 -1      4096 9.59938E-05-2.53081E-05-3.03011E-05 1.41410E-07 3.96977E-19-1.21908E-18
 -1      4097 7.73510E-05-2.24402E-05-2.35759E-05-1.44937E-05 3.48049E-19-3.31373E-18
 -1      4098 8.03815E-05-2.49050E-05-2.36737E-05-1.70511E-05-9.62441E-20-3.73274E-18
 -1      4099 9.58330E-05-2.48639E-05-3.04008E-05-2.21858E-07 1.74112E-19-7.97991E-19
 -1      4100 6.78802E-05-1.58367E-05-2.23410E-05-3.21358E-06 1.16757E-18-9.69919E-19
 -1      4101 6.72830E-05-1.64674E-05-2.16429E-05-8.36615E-06 2.66727E-19-2.51333E-18
 -1      4102 7.20924E-05-1.85345E-05-2.28917E-05-9.85603E-06 4.31239E-19-2.43782E-18
 -1      4103 8.60285E-05-2.85626E-05-2.45975E-05-1.72595E-05-1.55808E-19-1.70121E-18
 -1      4104 9.49113E-05-2.77857E-05-2.87671E-05-1.11702E-06 1.98991E-19 8.10335E-19
 -1      4105 9.50948E-05-2.79919E-05-2.87611E-05-1.04351E-06 2.99907E-19 8.45187E-19
 -1      4106 9.51846E-05-2.80499E-05-2.87707E-05-8.55587E-07 2.33954E-19 8.16908E-19
 -1      4107 9.47239E-05-2.75925E-05-2.87679E-05-9.56112E-07 4.08480E-19 7.41187E-19
 -1      4108 7.82860E-05-1.84367E-05-2.57089E-05 7.00975E-06 1.14091E-18-9.46573E-19
 -1      4109 7.62250E-05-1.80987E-05-2.49061E-05 7.95776E-06 1.60732E-18 1.53629E-19
 -1      4110 7.33371E-05-1.67455E-05-2.41536E-05 5.50474E-06 1.90153E-18 7.14007E-19
 -1      4111 7.74114E-05-1.77313E-05-2.55293E-05 4.19723E-06 2.53592E-18-6.13924E-19
 -1      4112 8.90784E-05-2.53243E-05-2.73317E-05-9.46303E-06-4.99154E-19 1.36569E-18
 -1      4113 9.71149E-05-3.72940E-05-2.55270E-05 1.85624E-05-1.80160E-20-1.60300E-18
 -1      4114 1.02797E-04-4.12318E-05-2.62709E-05 1.71007E-05-4.42260E-20-1.68550E-18
 -1      4115 9.63438E-05-2.88917E-05-2.89081E-05 3.80147E-07-4.59585E-19-4.16754E-20
 -1      4116 9.61920E-05-2.88237E-05-2.88715E-05 4.03295E-07-3.53670E-19-1.82354E-19
 -1      4117 9.60145E-05-2.87222E-05-2.88400E-05 4.10185E-07-1.24152E-19-2.18385E-19
 -1      4118 9.58415E-05-2.85989E-05-2.88173E-05 4.35372E-07-1.32641E-19-2.38258E-19
 -1      4119 9.61234E-05-2.87654E-05-2.88681E-05 2.32455E-07-3.11513E-19-1.03843E-19
 -1      4120 9.56354E-05-2.84437E-05-2.87978E-05 4.46497E-07-3.32934E-19-5.78191E-19
 -1      4121 9.54399E-05-2.82725E-05-2.87850E-05 4.82001E-07-3.24075E-19-9.97793E-19
 -1      4122 9.57465E-05-2.85058E-05-2.88171E-05 2.54655E-07-5.07148E-19-7.70205E-19
 -1      4123 9.52060E-05-2.80732E-05-2.87734E-05 5.05363E-07-3.51196E-19-1.18437E-18
 -1      4124 9.49860E-05-2.78618E-05-2.87666E-05 5.56601E-07-5.49540E-19-1.29544E-18
 -1      4125 9.53132E-05-2.81433E-05-2.87855E-05 2.93760E-07-6.66245E-19-1.40227E-18
 -1      4126 9.47186E-05-2.76225E-05-2.87588E-05 5.97358E-07-5.56724E-19-1.17026E-18
 -1      4127 9.44682E-05-2.73738E-05-2.87539E-05 6.71276E-07-8.86383E-19-1.22223E-18
 -1      4128 9.48187E-05-2.76934E-05-2.87654E-05 3.53911E-07-7.37314E-19-1.81417E-18
 -1      4129 9.41631E-05-2.70995E-05-2.87454E-05 7.32961E-07-5.71166E-19-8.31389E-19
 -1      4130 9.38744E-05-2.68191E-05-2.87380E-05 8.34383E-07-2.79600E-19-1.72399E-19
 -1      4131 9.42610E-05-2.71679E-05-2.87488E-05 4.49135E-07-3.76180E-19-9.03485E-19
 -1      4132 9.35139E-05-2.65058E-05-2.87239E-05 9.32700E-07-1.37124E-19 2.42908E-19
 -1      4133 9.31876E-05-2.61976E-05-2.87090E-05 1.07653E-06 2.86901E-19 4.07746E-19
 -1      4134 9.35912E-05-2.65472E-05-2.87249E-05 5.94252E-07 3.18321E-19 5.88722E-19
 -1      4135 9.27665E-05-2.58591E-05-2.86831E-05 1.21594E-06 1.96105E-19 6.88242E-19
 -1      4136 9.23974E-05-2.55333E-05-2.86544E-05 1.41178E-06 6.50575E-19 8.95905E-20
 -1      4137 9.28274E-05-2.58699E-05-2.86837E-05 8.04400E-07 3.41450E-19 9.65471E-19
 -1      4138 9.19051E-05-2.51755E-05-2.86094E-05 1.61139E-06 9.69606E-19-1.66097E-19
 -1      4139 9.14935E-05-2.48474E-05-2.85597E-05 1.87634E-06 8.06245E-19-4.02077E-19
 -1      4140 9.19302E-05-2.51339E-05-2.86110E-05 1.10841E-06 7.06249E-19 7.73914E-19
 -1      4141 9.09224E-05-2.44874E-05-2.84863E-05 2.15889E-06 7.51881E-19-7.54884E-19
 -1      4142 9.04766E-05-2.41821E-05-2.84068E-05 2.51626E-06 4.39533E-19-9.37501E-19
 -1      4143 9.08869E-05-2.43637E-05-2.84899E-05 1.54621E-06 6.51060E-19-6.70199E-19
 -1      4144 8.98214E-05-2.38453E-05-2.82938E-05 2.91340E-06 2.00627E-19-9.14998E-19
 -1      4145 8.93603E-05-2.36007E-05-2.81741E-05 3.39552E-06-2.38367E-19-7.93426E-19
 -1      4146 8.96853E-05-2.35964E-05-2.82993E-05 2.17189E-06 2.77284E-19-8.14403E-19
 -1      4147 8.86188E-05-2.33243E-05-2.80073E-05 3.95175E-06-5.30262E-19-8.86704E-19
 -1      4148 8.81786E-05-2.31956E-05-2.78358E-05 4.60380E-06-5.81477E-19-7.49766E-19
 -1      4149 8.83193E-05-2.28878E-05-2.80128E-05 3.06182E-06-3.38511E-19-5.88526E-19
 -1      4150 8.73539E-05-2.30321E-05-2.75979E-05 5.38269E-06-5.38046E-19-4.99336E-19
 -1      4151 8.69973E-05-2.31009E-05-2.73620E-05 6.26836E-06-1.25348E-19-6.32963E-20
 -1      4152 8.67893E-05-2.23202E-05-2.75977E-05 4.32271E-06-5.10758E-19-2.18704E-19
 -1      4153 8.60998E-05-2.31113E-05-2.70329E-05 7.35293E-06-7.57957E-20-3.83447E-19
 -1      4154 8.59100E-05-2.34990E-05-2.67206E-05 8.57683E-06-5.22268E-19-2.34883E-19
 -1      4155 8.51165E-05-2.20357E-05-2.70140E-05 6.09425E-06-6.04308E-19 4.48881E-19
 -1      4156 8.50396E-05-2.38353E-05-2.62724E-05 1.00530E-05-7.02427E-19-3.50227E-19
 -1      4157 8.51650E-05-2.47178E-05-2.58810E-05 1.17441E-05-7.53967E-19-6.27794E-19
 -1      4158 8.33999E-05-2.21976E-05-2.62224E-05 8.55688E-06-8.10713E-19-3.47537E-19
 -1      4159 8.50397E-05-2.65741E-05-2.51356E-05-1.50261E-05-3.14114E-19-2.08901E-18
 -1      4160 9.63221E-05-2.89011E-05-2.88940E-05-7.97437E-07-3.31023E-20-3.42550E-19
 -1      4161 9.64770E-05-2.89006E-05-2.89624E-05-6.50647E-07-3.40805E-20-4.19150E-19
 -1      4162 9.62167E-05-2.88829E-05-2.88565E-05-8.30316E-07 6.86166E-20-1.47199E-19
 -1      4163 8.61075E-05-2.11615E-05-2.78587E-05-1.19945E-06-2.87361E-19-3.32975E-19
 -1      4164 8.72224E-05-2.17707E-05-2.80617E-05-1.20046E-06-3.68172E-19-4.76617E-19
 -1      4165 7.15637E-05-1.63649E-05-2.36574E-05 3.03530E-06 1.63422E-18-1.26478E-19
 -1      4166 6.89608E-05-1.56100E-05-2.27640E-05-1.18432E-07 1.18865E-18-7.70209E-19
 -1      4167 7.17519E-05-1.67021E-05-2.35958E-05-2.88442E-06 1.34628E-18-8.78970E-19
 -1      4168 7.37772E-05-1.68728E-05-2.44436E-05 2.37883E-06 2.13301E-18-7.53796E-19
 -1      4169 9.32131E-05-2.61586E-05-2.87411E-05-9.62867E-07-3.92011E-21 1.63537E-18
 -1      4170 9.35832E-05-2.65108E-05-2.87494E-05-8.81496E-07 1.40781E-19 1.52555E-18
 -1      4171 7.74245E-05-1.76572E-05-2.56564E-05-9.59751E-08-7.25027E-19-7.85020E-19
 -1      4172 8.98704E-05-2.34639E-05-2.84723E-05-1.28379E-06-8.39378E-19 6.13218E-19
 -1      4173 9.05763E-05-2.39768E-05-2.85500E-05-1.21134E-06-7.43463E-19 4.19737E-19
 -1      4174 8.02035E-05-1.85715E-05-2.64427E-05-5.17326E-07-8.37524E-19-1.07411E-18
 -1      4175 8.19713E-05-1.92675E-05-2.68985E-05-6.55028E-07-1.00186E-18-9.70438E-19
 -1      4176 8.34873E-05-1.98916E-05-2.72871E-05-9.53893E-07-5.85023E-19-1.20188E-18
 -1      4177 8.48987E-05-2.05359E-05-2.75980E-05-1.01063E-06-1.62093E-19-7.46418E-19
 -1      4178 8.54422E-05-2.08521E-05-2.76403E-05 2.39287E-07 2.60463E-20-6.02804E-19
 -1      4179 8.27176E-05-1.96312E-05-2.69911E-05 9.79918E-07-6.66388E-19-1.20369E-18
 -1      4180 7.83188E-05-2.30888E-05-2.35497E-05 1.57852E-05-1.06502E-18-4.90401E-19
 -1      4181 7.63532E-05-2.07003E-05-2.39007E-05 1.20983E-05-1.32535E-18-7.23892E-19
 -1      4182 8.18185E-05-2.52604E-05-2.42107E-05 1.58975E-05-6.55015E-19-3.92825E-19
 -1      4183 9.65948E-05-2.72591E-05-2.97139E-05 3.49406E-08 1.82915E-19-8.11810E-19
 -1      4184 9.65697E-05-2.68432E-05-2.98824E-05 5.61289E-08 2.05820E-19-9.42378E-19
 -1      4185 9.66748E-05-2.77101E-05-2.95572E-05-2.06574E-07 2.02881E-19-7.23596E-19
 -1      4186 9.12238E-05-2.44698E-05-2.86173E-05-1.20315E-06-4.42779E-19 4.73512E-19
 -1      4187 9.17894E-05-2.49284E-05-2.86609E-05-1.11715E-06-3.16356E-19 9.33603E-19
 -1      4188 9.07706E-05-2.41287E-05-2.85408E-05-5.81938E-07-5.64416E-19 9.96606E-19
 -1      4189 7.55469E-05-2.01924E-05-2.36534E-05-1.15642E-05 1.10787E-18-2.83365E-18
 -1      4190 7.95209E-05-2.21067E-05-2.45621E-05-1.18900E-05 8.64207E-19-2.96494E-18
 -1      4191 7.43350E-05-1.86025E-05-2.39362E-05-7.68623E-06 1.91719E-18-2.38466E-18
 -1      4192 9.60055E-05-2.52874E-05-3.03069E-05-4.86144E-08 2.43701E-19-1.12120E-18
 -1      4193 9.62144E-05-2.58522E-05-3.01635E-05-2.38208E-07 3.28154E-20-5.74332E-19
 -1      4194 9.66157E-05-2.89238E-05-2.90106E-05 3.46054E-07-2.01184E-20-3.81018E-20
 -1      4195 9.64924E-05-2.89275E-05-2.89557E-05 3.76723E-07-1.32755E-19-1.16539E-19
 -1      4196 9.64475E-05-2.89043E-05-2.89484E-05 2.13946E-07-2.30646E-19 1.11869E-20
 -1      4197 9.68911E-05-2.83886E-05-2.93577E-05 2.14318E-07-2.03700E-19 2.68830E-20
 -1      4198 9.68694E-05-2.86177E-05-2.92513E-05 2.84677E-07-1.57010E-19 1.84844E-21
 -1      4199 9.68050E-05-2.76836E-05-2.96233E-05 7.68035E-08-2.07734E-19-1.15758E-19
 -1      4200 9.68675E-05-2.80787E-05-2.94829E-05 1.82073E-07-1.92868E-19-7.50121E-20
 -1      4201 9.69064E-05-2.81908E-05-2.94485E-05 1.07011E-07-1.18948E-19-1.58059E-19
 -1      4202 9.68095E-05-2.87749E-05-2.91572E-05 2.95541E-07-2.79008E-20 9.58356E-21
 -1      4203 9.67279E-05-2.88747E-05-2.90792E-05 3.43369E-07 5.14043E-20 4.84177E-20
 -1      4204 9.68747E-05-2.86748E-05-2.92300E-05 1.55232E-07-1.54060E-19 1.44033E-19
 -1      4205 8.81945E-05-2.23571E-05-2.82336E-05-1.29599E-06-5.04142E-19 8.41275E-20
 -1      4206 8.90789E-05-2.29212E-05-2.83622E-05-1.25244E-06-6.79829E-19 2.09320E-20
 -1      4207 8.75969E-05-2.20133E-05-2.80748E-05-2.17121E-07-2.46738E-19-8.32719E-19
 -1      4208 9.63906E-05-2.61908E-05-3.00746E-05 8.12822E-08 2.54827E-19-1.09702E-18
 -1      4209 8.17172E-05-1.92606E-05-2.67498E-05-4.10542E-07 2.79447E-18 2.13216E-19
 -1      4210 8.13310E-05-1.90205E-05-2.67308E-05 1.66542E-06 2.77786E-18-5.30905E-20
 -1      4211 7.93030E-05-1.83719E-05-2.61217E-05 1.63305E-06 1.44792E-18 2.65745E-19
 -1      4212 8.03419E-05-1.91086E-05-2.62543E-05-2.04769E-06 1.84723E-18-1.57524E-18
 -1      4213 9.23205E-05-2.53684E-05-2.86994E-05-1.08789E-06-3.34612E-19 8.85691E-19
 -1      4214 9.27760E-05-2.57724E-05-2.87210E-05-1.00055E-06-8.75401E-20 1.48381E-18
 -1      4215 9.19396E-05-2.50544E-05-2.86497E-05-6.11605E-07-1.88823E-19 1.47370E-18
 -1      4216 8.25748E-05-2.38198E-05-2.51221E-05-1.29001E-05-4.36636E-19-3.62223E-18
 -1      4217 8.60500E-05-2.59191E-05-2.57292E-05-1.31375E-05-2.94236E-20-1.31614E-18
 -1      4218 8.58322E-05-2.48185E-05-2.62045E-05-1.13775E-05 3.30930E-19-1.06737E-18
 -1      4219 8.04329E-05-2.18102E-05-2.51749E-05-1.03401E-05 6.31417E-19-1.60633E-18
 -1      4220 9.55066E-05-2.83333E-05-2.87881E-05-6.16544E-07 5.00274E-20 5.88704E-19
 -1      4221 9.56962E-05-2.84990E-05-2.87993E-05-5.86407E-07-6.89034E-20 3.73827E-19
 -1      4222 8.36140E-05-2.49200E-05-2.52120E-05 1.34423E-05-1.05601E-18-6.29677E-19
 -1      4223 8.93438E-05-2.31108E-05-2.83600E-05-4.67649E-07-4.05260E-19 2.78755E-19
 -1      4224 9.52816E-05-2.81379E-05-2.87773E-05-6.30975E-07 1.74414E-19 1.06604E-18
 -1      4225 9.53945E-05-2.82152E-05-2.87904E-05-4.32200E-07-1.62283E-19 8.71048E-19
 -1      4226 9.50659E-05-2.79285E-05-2.87731E-05-6.71818E-07 2.51965E-19 9.73947E-19
 -1      4227 7.86656E-05-1.82170E-05-2.58493E-05 1.98027E-06-8.60466E-19-1.22691E-18
 -1      4228 9.59543E-05-2.87496E-05-2.88008E-05-8.72332E-07 2.96196E-19 1.47081E-19
 -1      4229 9.60765E-05-2.88255E-05-2.88219E-05-8.44074E-07 3.71875E-19 7.87486E-20
 -1      4230 9.59273E-05-2.86923E-05-2.88159E-05-7.40725E-07 1.01350E-19 4.45735E-19
 -1      4231 8.39217E-05-2.28047E-05-2.61903E-05-9.48559E-06 6.80660E-19-1.42497E-18
 -1      4232 8.64187E-05-2.41356E-05-2.66633E-05-9.64075E-06 2.99627E-19-2.44096E-19
 -1      4233 9.67078E-05-2.88912E-05-2.90662E-05 1.90852E-07-1.14754E-20 1.07111E-20
 -1      4234 9.64314E-05-2.64088E-05-3.00073E-05-8.88991E-08-2.49643E-20-4.70233E-19
 -1      4235 9.67132E-05-2.88461E-05-2.90877E-05-4.67587E-07 9.69737E-20-9.44145E-19
 -1      4236 9.67859E-05-2.87190E-05-2.91664E-05-4.10854E-07 1.74575E-19-8.79220E-19
 -1      4237 9.36964E-05-2.66233E-05-2.87439E-05-5.48869E-07 7.86791E-20 1.97436E-18
 -1      4238 9.39475E-05-2.68463E-05-2.87592E-05-8.48326E-07-4.53522E-20 1.57916E-18
 -1      4239 9.42494E-05-2.71466E-05-2.87613E-05-7.78692E-07 1.66047E-19 1.56080E-18
 -1      4240 9.66067E-05-2.68689E-05-2.98908E-05-1.45978E-08 3.11123E-20-9.48657E-19
 -1      4241 9.28993E-05-2.58813E-05-2.87110E-05-5.94298E-07 1.71963E-19 1.85675E-18
 -1      4242 9.67070E-05-2.83684E-05-2.92882E-05-4.75271E-07 1.50920E-19-4.07352E-19
 -1      4243 9.67089E-05-2.80909E-05-2.94076E-05-3.13461E-07 2.72844E-19-5.30924E-19
 -1      4244 9.68082E-05-2.78494E-05-2.95564E-05-1.55367E-07-5.05337E-20-8.40199E-19
 -1      4245 9.67952E-05-2.84588E-05-2.92915E-05-3.98149E-07 1.33111E-19-6.25029E-19
 -1      4246 8.72505E-05-2.35376E-05-2.73165E-05-7.76957E-06 4.78812E-19 1.10764E-18
 -1      4247 8.08749E-05-2.23324E-05-2.50642E-05 1.15511E-05-8.05189E-19-5.27746E-19
 -1      4248 8.13066E-05-2.14686E-05-2.56145E-05-8.75809E-06 1.76317E-19-1.53881E-18
 -1      4249 8.18746E-05-2.09557E-05-2.61194E-05-7.02623E-06 9.63708E-19-1.07072E-18
 -1      4250 8.02953E-05-1.96768E-05-2.59725E-05-4.89952E-06 9.19702E-19-1.99047E-18
 -1      4251 7.84825E-05-1.98541E-05-2.51024E-05-7.64467E-06 1.17987E-18-2.15519E-18
 -1      4252 9.66144E-05-2.89064E-05-2.90161E-05-4.78912E-07-1.10791E-19-7.00753E-19
 -1      4253 9.67171E-05-2.88657E-05-2.90823E-05-3.31132E-07-9.77825E-20-9.22808E-19
 -1      4254 9.65004E-05-2.89246E-05-2.89605E-05-5.14855E-07-2.68145E-19-5.94456E-19
 -1      4255 7.79496E-05-1.85440E-05-2.54716E-05 4.66197E-06-1.39083E-18-4.71155E-19
 -1      4256 8.05819E-05-1.93659E-05-2.62594E-05 3.75824E-06-9.85314E-19-2.55663E-19
 -1      4257 9.62259E-05-2.88241E-05-2.88866E-05 4.28035E-08-3.86577E-19-2.62271E-19
 -1      4258 9.60499E-05-2.87228E-05-2.88538E-05 5.57032E-08-4.62613E-19-3.04237E-19
 -1      4259 9.57879E-05-2.85392E-05-2.88211E-05-8.52539E-08-3.18817E-19-1.08953E-19
 -1      4260 9.55803E-05-2.83743E-05-2.88023E-05-6.99760E-08-3.82122E-19-2.19414E-19
 -1      4261 9.53551E-05-2.81826E-05-2.87896E-05-8.13652E-08-6.17590E-19 2.03965E-19
 -1      4262 9.51169E-05-2.79706E-05-2.87776E-05-6.18783E-08-5.32587E-19 1.17369E-20
 -1      4263 9.43654E-05-2.72823E-05-2.87543E-05 1.37938E-07-2.67300E-19 3.84615E-19
 -1      4264 9.40552E-05-2.69914E-05-2.87445E-05 1.96522E-07 1.51782E-19 8.87088E-19
 -1      4265 9.35980E-05-2.65671E-05-2.87322E-05-1.37340E-08 4.07184E-19 1.15508E-18
 -1      4266 9.32232E-05-2.62281E-05-2.87163E-05 5.23687E-08 3.01465E-19 1.27452E-18
 -1      4267 9.27823E-05-2.58537E-05-2.86937E-05 6.04168E-08 1.96635E-19 1.26575E-18
 -1      4268 9.23479E-05-2.54763E-05-2.86652E-05 1.60564E-07 3.29320E-19 1.12260E-18
 -1      4269 9.18154E-05-2.50581E-05-2.86241E-05 1.92927E-07 1.53626E-19 9.66724E-19
 -1      4270 9.13073E-05-2.46490E-05-2.85752E-05 3.42166E-07 3.27850E-19 8.61053E-19
 -1      4271 9.06605E-05-2.41900E-05-2.85055E-05 4.16152E-07 7.62921E-20 4.25124E-19
 -1      4272 9.00690E-05-2.37611E-05-2.84264E-05 6.35429E-07-8.23862E-20 5.50435E-20
 -1      4273 8.92814E-05-2.32690E-05-2.83145E-05 7.75678E-07 2.21612E-19-7.78137E-20
 -1      4274 8.85988E-05-2.28387E-05-2.81927E-05 1.09523E-06 1.96168E-19-4.92654E-19
 -1      4275 8.76368E-05-2.23257E-05-2.80206E-05 1.33584E-06-1.49897E-19-5.05866E-19
 -1      4276 8.68589E-05-2.19218E-05-2.78404E-05 1.79797E-06-1.96868E-19-7.67107E-21
 -1      4277 8.56759E-05-2.14026E-05-2.75835E-05 2.18825E-06-1.50860E-19-2.87131E-20
 -1      4278 8.48087E-05-2.10667E-05-2.73251E-05 2.85485E-06-4.41359E-19 3.55150E-20
 -1      4279 8.23326E-05-2.09877E-05-2.63044E-05 6.70389E-06-1.35706E-18 2.68677E-19
 -1      4280 8.14676E-05-2.11613E-05-2.58325E-05 8.06504E-06-8.02122E-19 1.61587E-19
 -1      4281 9.62262E-05-2.88605E-05-2.88723E-05-6.99702E-07-9.20263E-20-1.39931E-19
 -1      4282 7.69017E-05-1.96455E-05-2.44673E-05 9.49426E-06-1.12929E-18-6.50586E-19
 -1      4283 7.73696E-05-1.87407E-05-2.51420E-05 5.77179E-06-1.24216E-18-4.47728E-19
 -1      4284 9.58766E-05-2.85987E-05-2.88339E-05-2.72774E-07-2.80749E-19-3.46856E-19
 -1      4285 9.59581E-05-2.86787E-05-2.88338E-05-4.50279E-07-3.01492E-19 1.34615E-19
 -1      4286 7.91981E-05-2.12392E-05-2.48601E-05 1.06962E-05-1.07243E-18-6.51570E-19
 -1      4287 9.67455E-05-2.88921E-05-2.90794E-05-7.96387E-08-2.32502E-19-2.85549E-19
 -1      4288 9.66271E-05-2.89303E-05-2.90111E-05-6.68194E-08-1.50812E-19-3.19271E-19
 -1      4289 9.65746E-05-2.68496E-05-2.98859E-05-7.77365E-08-7.24349E-20-4.04070E-19
 -1      4290 9.66996E-05-2.72822E-05-2.97524E-05 3.30429E-08-1.38228E-19-3.82733E-19
 -1      4291 7.36011E-05-1.74483E-05-2.40139E-05-4.83167E-06 1.69491E-18-1.91874E-18
 -1      4292 7.65906E-05-1.89103E-05-2.46917E-05-6.44843E-06 1.78320E-18-2.98897E-18
 -1      4293 7.74240E-05-1.87735E-05-2.51680E-05-4.92359E-06 1.12475E-18-2.75475E-18
 -1      4294 7.40246E-05-1.72062E-05-2.43769E-05-1.97492E-06 1.27299E-18-1.15239E-18
 -1      4295 9.65190E-05-2.89266E-05-2.89676E-05-2.22488E-08-2.70556E-19-4.73118E-19
 -1      4296 9.63649E-05-2.88857E-05-2.89187E-05-1.20475E-08-3.81462E-19-4.19018E-19
 -1      4297 9.62742E-05-2.88425E-05-2.89004E-05-2.00694E-07-4.87833E-19-8.02383E-19
 -1      4298 9.65148E-05-2.89202E-05-2.89712E-05-3.08387E-07-4.94810E-19-8.27313E-19
 -1      4299 9.67764E-05-2.74603E-05-2.97046E-05 3.01136E-08 8.37820E-21-4.16683E-19
 -1      4300 9.68474E-05-2.85394E-05-2.92766E-05-3.11180E-07 1.68407E-19-9.91408E-19
 -1      4301 9.65446E-05-2.66598E-05-2.99525E-05-3.27101E-08 3.93929E-20-6.31848E-19
 -1      4302 9.69191E-05-2.80505E-05-2.95151E-05-1.92132E-09 9.88344E-20-8.34127E-19
 -1      4303 9.69472E-05-2.83747E-05-2.93890E-05 4.07273E-08-1.34001E-19-5.83487E-19
 -1      4304 9.45545E-05-2.74347E-05-2.87663E-05-7.48996E-07 5.16500E-19 1.26185E-18
 -1      4305 9.48066E-05-2.76889E-05-2.87672E-05-6.95413E-07 5.27508E-19 1.24959E-18
 -1      4306 9.43577E-05-2.72439E-05-2.87600E-05-5.09822E-07 2.46939E-19 1.86410E-18
 -1      4307 9.69032E-05-2.86589E-05-2.92459E-05-7.65433E-08-3.70911E-20-4.82929E-19
 -1      4308 9.68400E-05-2.88076E-05-2.91541E-05-5.19141E-08-3.61097E-20-4.04148E-19
 -1      4309 7.76489E-05-1.78931E-05-2.56475E-05 1.72847E-06 1.77735E-18 1.90272E-19
 -1      4310 7.58046E-05-1.73708E-05-2.50464E-05 2.14308E-06 2.44895E-18-1.10891E-19
 -1      4311 7.45577E-05-1.70364E-05-2.45979E-05-1.67368E-07 1.67727E-18-9.57902E-19
 -1      4312 7.80163E-05-1.80534E-05-2.56855E-05-2.16860E-07 1.56373E-18 2.82260E-19
 -1      4313 8.33212E-05-2.05318E-05-2.69470E-05 3.47589E-06-9.32959E-19 1.61653E-19
 -1      4314 9.49133E-05-2.77722E-05-2.87724E-05-4.65457E-07 1.46122E-19 1.64235E-18
 -1      4315 9.48556E-05-2.77312E-05-2.87697E-05-7.22000E-08-2.09636E-19 3.80995E-19
 -1      4316 9.45849E-05-2.74753E-05-2.87614E-05-4.65985E-08-2.00700E-20 7.56444E-19
 -1      4317 8.23285E-05-2.03188E-05-2.65775E-05 4.36869E-06-1.07815E-18-2.83693E-19
 -1      4318 9.67476E-05-2.72825E-05-2.97671E-05-9.43352E-09 2.29709E-20-7.72801E-19
 -1      4319 9.68503E-05-2.76942E-05-2.96399E-05 3.03746E-08 9.50441E-20-7.92893E-19
 -1      4320 9.61227E-05-2.87865E-05-2.88579E-05-4.27906E-07-3.22363E-19-2.10988E-19
 -1      4321 9.63968E-05-2.89081E-05-2.89229E-05-4.63336E-07-4.26918E-19-5.89783E-19
 -1      4322 9.68807E-05-2.78880E-05-2.95705E-05-4.92275E-08 9.23692E-20-1.13160E-18
 -1      4323 9.62589E-05-2.88580E-05-2.88856E-05-4.87227E-07-3.68896E-19-4.25320E-19
 -1      4324 9.37740E-05-2.67012E-05-2.87419E-05-3.34701E-07 1.31661E-19 2.09132E-18
 -1      4325 9.68956E-05-2.85421E-05-2.92974E-05-1.73341E-07 2.45003E-19-1.20745E-18
 -1      4326 7.93046E-05-1.90014E-05-2.58383E-05-3.15244E-06 1.25998E-18-1.73575E-18
 -1      4327 9.68986E-05-2.82072E-05-2.94325E-05-1.78319E-07 1.08239E-19-9.71022E-19
 -1      4328 9.66181E-05-2.68937E-05-2.98826E-05-1.44091E-08 6.07518E-20-9.34834E-19
 -1      4329 9.44279E-05-2.73231E-05-2.87591E-05-3.11001E-07 3.41922E-19 2.08107E-18
 -1      4330 8.00329E-05-2.01782E-05-2.56431E-05 7.33698E-06-1.12065E-18 5.92530E-19
 -1      4331 8.09164E-05-2.13893E-05-2.55490E-05 9.25617E-06-8.40972E-19-5.13384E-19
 -1      4332 9.68627E-05-2.78651E-05-2.95720E-05-8.47745E-08 4.19840E-20-1.02715E-18
 -1      4333 9.67954E-05-2.74872E-05-2.96992E-05-2.82369E-08 2.91232E-20-9.50345E-19
 -1      4334 9.41360E-05-2.70423E-05-2.87529E-05-3.22036E-07 2.89723E-20 1.95078E-18
 -1      4335 7.60556E-05-1.77482E-05-2.49876E-05-1.96353E-06 1.76647E-18-8.01456E-19
 -1      4336 7.76743E-05-1.81861E-05-2.54804E-05-1.94109E-06 1.23555E-18-7.57868E-19
 -3
    1PSTEP                         4           1           1          
  100CL  101 1.000000000        4336                     0    1           1
 -4  ERROR       1    1
 -5  STR(%)      1    1    0    0
 -1         1 3.72624E+01
 -1         2 2.52003E+01
 -1         3 7.93894E-02
 -1         4 6.48199E-02
 -1         5 1.40429E+01
 -1         6 1.31470E+01
 -1         7 1.31470E+01
 -1         8 3.66246E+00
 -1         9 1.82442E+00
 -1        10 1.28858E+00
 -1        11 1.04251E+00
 -1        12 8.99164E-01
 -1        13 8.08499E-01
 -1        14 7.54356E-01
 -1        15 7.56331E-01
 -1        16 8.12808E-01
 -1        17 9.00076E-01
 -1        18 1.05137E+00
 -1        19 1.30617E+00
 -1        20 1.83331E+00
 -1        21 3.50406E+00
 -1        22 8.64355E+00
 -1        23 1.31470E+01
 -1        24 4.32178E+00
 -1        25 3.34641E+00
 -1        26 2.11744E+00
 -1        27 1.36961E+00
 -1        28 1.02034E+00
 -1        29 7.83444E-01
 -1        30 6.06406E-01
 -1        31 4.69778E-01
 -1        32 3.63939E-01
 -1        33 2.88684E-01
 -1        34 2.30198E-01
 -1        35 1.85790E-01
 -1        36 1.53276E-01
 -1        37 1.33700E-01
 -1        38 1.41496E-01
 -1        39 1.66156E-01
 -1        40 1.99499E-01
 -1        41 2.40121E-01
 -1        42 2.84979E-01
 -1        43 3.28677E-01
 -1        44 3.83903E-01
 -1        45 4.81094E-01
 -1        46 6.06182E-01
 -1        47 7.14797E-01
 -1        48 7.71081E-01
 -1        49 7.71081E-01
 -1        50 8.34773E-01
 -1        51 8.34773E-01
 -1        52 1.13890E+00
 -1        53 1.56853E+00
 -1        54 2.39918E+00
 -1        55 2.85649E+00
 -1        56 2.85649E+00
 -1        57 2.80952E+00
 -1        58 2.80952E+00
 -1        59 2.27352E+00
 -1        60 1.41448E+00
 -1        61 1.06265E+00
 -1        62 7.78393E-01
 -1        63 7.78393E-01
 -1        64 7.43270E-01
 -1        65 7.43270E-01
 -1        66 6.43813E-01
 -1        67 4.86800E-01
 -1        68 4.84549E-01
 -1        69 4.43095E-01
 -1        70 3.66385E-01
 -1        71 2.78835E-01
 -1        72 1.40429E+01
 -1        73 3.39756E+00
 -1        74 2.41696E+00
 -1        75 1.67047E+00
 -1        76 1.15023E+00
 -1        77 9.10441E-01
 -1        78 7.37677E-01
 -1        79 5.96990E-01
 -1        80 4.81294E-01
 -1        81 3.87033E-01
 -1        82 3.14980E-01
 -1        83 2.60281E-01
 -1        84 2.18343E-01
 -1        85 1.88738E-01
 -1        86 1.76939E-01
 -1        87 1.90178E-01
 -1        88 2.14932E-01
 -1        89 2.50189E-01
 -1        90 2.99799E-01
 -1        91 3.86947E-01
 -1        92 4.94884E-01
 -1        93 6.21618E-01
 -1        94 7.59630E-01
 -1        95 8.91911E-01
 -1        96 9.87035E-01
 -1        97 1.04915E+00
 -1        98 1.43737E+00
 -1        99 1.77880E+00
 -1       100 1.88623E+00
 -1       101 2.34853E+00
 -1       102 2.34853E+00
 -1       103 3.16645E+00
 -1       104 4.92265E+00
 -1       105 5.55864E+00
 -1       106 5.94968E+00
 -1       107 5.94968E+00
 -1       108 3.88190E+00
 -1       109 2.12383E+00
 -1       110 1.93322E+00
 -1       111 2.22043E+00
 -1       112 2.22043E+00
 -1       113 2.09382E+00
 -1       114 1.77612E+00
 -1       115 1.46488E+00
 -1       116 1.14311E+00
 -1       117 8.69131E-01
 -1       118 7.11054E-01
 -1       119 5.09887E-01
 -1       120 3.00755E-01
 -1       121 1.37574E-01
 -1       122 1.37574E-01
 -1       123 1.03193E-01
 -1       124 4.23944E-02
 -1       125 7.42091E-02
 -1       126 1.04036E-01
 -1       127 1.13809E-01
 -1       128 1.13809E-01
 -1       129 1.06657E-01
 -1       130 8.51808E-02
 -1       131 5.38752E-02
 -1       132 2.07860E-02
 -1       133 5.41135E-02
 -1       134 8.22171E-02
 -1       135 1.30221E-01
 -1       136 1.46406E-01
 -1       137 2.52569E+01
 -1       138 4.69445E+01
 -1       139 4.69445E+01
 -1       140 2.06760E+01
 -1       141 1.21690E+01
 -1       142 1.28684E+01
 -1       143 1.28684E+01
 -1       144 1.21778E+01
 -1       145 1.21778E+01
 -1       146 1.38785E+01
 -1       147 3.58177E+01
 -1       148 3.58177E+01
 -1       149 2.60984E+01
 -1       150 2.44729E+01
 -1       151 2.49595E+01
 -1       152 2.51631E+01
 -1       153 3.72624E+01
 -1       154 1.36216E+01
 -1       155 1.24970E+01
 -1       156 1.24970E+01
 -1       157 1.17745E+01
 -1       158 1.19145E+01
 -1       159 1.19145E+01
 -1       160 1.18771E+01
 -1       161 2.38169E+01
 -1       162 3.27273E+01
 -1       163 3.27273E+01
 -1       164 2.42451E+01
 -1       165 6.07701E+00
 -1       166 2.29870E+00
 -1       167 1.50419E+00
 -1       168 1.15692E+00
 -1       169 9.71202E-01
 -1       170 8.64024E-01
 -1       171 7.96118E-01
 -1       172 7.56331E-01
 -1       173 7.99567E-01
 -1       174 8.66909E-01
 -1       175 9.80159E-01
 -1       176 1.17115E+00
 -1       177 1.52585E+00
 -1       178 2.25903E+00
 -1       179 3.93040E+00
 -1       180 1.40429E+01
 -1       181 4.32178E+00
 -1       182 3.34641E+00
 -1       183 2.11744E+00
 -1       184 1.45313E+00
 -1       185 1.03247E+00
 -1       186 7.83444E-01
 -1       187 6.06406E-01
 -1       188 4.79856E-01
 -1       189 3.82980E-01
 -1       190 3.04696E-01
 -1       191 2.48657E-01
 -1       192 2.02639E-01
 -1       193 1.64635E-01
 -1       194 1.33729E-01
 -1       195 1.25859E-01
 -1       196 1.41496E-01
 -1       197 1.66156E-01
 -1       198 1.99499E-01
 -1       199 2.40121E-01
 -1       200 2.84979E-01
 -1       201 3.55491E-01
 -1       202 4.24805E-01
 -1       203 5.01330E-01
 -1       204 6.06182E-01
 -1       205 7.14797E-01
 -1       206 7.71081E-01
 -1       207 7.52639E-01
 -1       208 8.34773E-01
 -1       209 8.16237E-01
 -1       210 1.13890E+00
 -1       211 1.63368E+00
 -1       212 2.39918E+00
 -1       213 2.85649E+00
 -1       214 2.76803E+00
 -1       215 2.80952E+00
 -1       216 2.27352E+00
 -1       217 1.53997E+00
 -1       218 1.06265E+00
 -1       219 7.43067E-01
 -1       220 7.78393E-01
 -1       221 7.35291E-01
 -1       222 7.43270E-01
 -1       223 6.43813E-01
 -1       224 4.86800E-01
 -1       225 4.84549E-01
 -1       226 4.43095E-01
 -1       227 3.66385E-01
 -1       228 2.78835E-01
 -1       229 3.39756E+00
 -1       230 2.41696E+00
 -1       231 1.67047E+00
 -1       232 1.15023E+00
 -1       233 9.10441E-01
 -1       234 7.37677E-01
 -1       235 5.96990E-01
 -1       236 4.81294E-01
 -1       237 3.87033E-01
 -1       238 3.14980E-01
 -1       239 2.60281E-01
 -1       240 2.18343E-01
 -1       241 1.88738E-01
 -1       242 1.75966E-01
 -1       243 1.76939E-01
 -1       244 1.90178E-01
 -1       245 2.14932E-01
 -1       246 2.69131E-01
 -1       247 3.41731E-01
 -1       248 4.29806E-01
 -1       249 5.33340E-01
 -1       250 6.44216E-01
 -1       251 7.59630E-01
 -1       252 8.91911E-01
 -1       253 9.87035E-01
 -1       254 1.24032E+00
 -1       255 1.43737E+00
 -1       256 1.77880E+00
 -1       257 1.88623E+00
 -1       258 2.34853E+00
 -1       259 2.34429E+00
 -1       260 3.19146E+00
 -1       261 4.92265E+00
 -1       262 5.55864E+00
 -1       263 5.94968E+00
 -1       264 3.88190E+00
 -1       265 2.12383E+00
 -1       266 1.69579E+00
 -1       267 1.93322E+00
 -1       268 2.22043E+00
 -1       269 2.09382E+00
 -1       270 1.77612E+00
 -1       271 1.46488E+00
 -1       272 1.15687E+00
 -1       273 8.70697E-01
 -1       274 7.11054E-01
 -1       275 5.09887E-01
 -1       276 3.03707E-01
 -1       277 1.72690E-01
 -1       278 1.72690E-01
 -1       279 1.55023E-01
 -1       280 1.25172E-01
 -1       281 1.86255E-01
 -1       282 2.13830E-01
 -1       283 2.13830E-01
 -1       284 2.13810E-01
 -1       285 1.92824E-01
 -1       286 1.47551E-01
 -1       287 8.99138E-02
 -1       288 8.23711E-02
 -1       289 1.33396E-01
 -1       290 1.33396E-01
 -1       291 1.60264E-01
 -1       292 3.26876E+01
 -1       293 2.76855E+01
 -1       294 4.69445E+01
 -1       295 2.12497E+01
 -1       296 1.19356E+01
 -1       297 1.21690E+01
 -1       298 1.28684E+01
 -1       299 1.18876E+01
 -1       300 1.21778E+01
 -1       301 1.16682E+01
 -1       302 1.38785E+01
 -1       303 3.58177E+01
 -1       304 3.33181E+01
 -1       305 2.67024E+01
 -1       306 2.76327E+01
 -1       307 2.76327E+01
 -1       308 3.35369E+01
 -1       309 3.72624E+01
 -1       310 1.36216E+01
 -1       311 1.11228E+01
 -1       312 1.24970E+01
 -1       313 1.17745E+01
 -1       314 1.15931E+01
 -1       315 1.19145E+01
 -1       316 1.18771E+01
 -1       317 1.12429E+01
 -1       318 2.62205E+01
 -1       319 3.27273E+01
 -1       320 3.12645E+01
 -1       321 3.26876E+01
 -1       322 1.06793E+00
 -1       323 2.47759E+00
 -1       324 7.87725E-01
 -1       325 6.94286E-01
 -1       326 6.31475E-01
 -1       327 5.87532E-01
 -1       328 5.90750E-01
 -1       329 6.34097E-01
 -1       330 7.00431E-01
 -1       331 7.95255E-01
 -1       332 9.30385E-01
 -1       333 1.15758E+00
 -1       334 1.32671E+00
 -1       335 2.20250E+00
 -1       336 1.91629E+00
 -1       337 1.73413E+00
 -1       338 1.27288E+00
 -1       339 9.13255E-01
 -1       340 6.63228E-01
 -1       341 5.46902E-01
 -1       342 4.52080E-01
 -1       343 3.69309E-01
 -1       344 3.03168E-01
 -1       345 2.48804E-01
 -1       346 2.02858E-01
 -1       347 1.64635E-01
 -1       348 1.33598E-01
 -1       349 1.13407E-01
 -1       350 1.19253E-01
 -1       351 1.37426E-01
 -1       352 1.61978E-01
 -1       353 1.95990E-01
 -1       354 2.57352E-01
 -1       355 3.21834E-01
 -1       356 3.83450E-01
 -1       357 4.36535E-01
 -1       358 4.91314E-01
 -1       359 5.51599E-01
 -1       360 5.67174E-01
 -1       361 5.05419E-01
 -1       362 4.15924E-01
 -1       363 4.21856E-01
 -1       364 7.67247E-01
 -1       365 1.18485E+00
 -1       366 1.52545E+00
 -1       367 1.83530E+00
 -1       368 1.85013E+00
 -1       369 1.85661E+00
 -1       370 1.79691E+00
 -1       371 1.44884E+00
 -1       372 1.13311E+00
 -1       373 7.07650E-01
 -1       374 4.36065E-01
 -1       375 3.93598E-01
 -1       376 4.80104E-01
 -1       377 5.02713E-01
 -1       378 4.46247E-01
 -1       379 3.66753E-01
 -1       380 3.63464E-01
 -1       381 3.18907E-01
 -1       382 2.39967E-01
 -1       383 1.13386E+00
 -1       384 8.96317E-01
 -1       385 7.09574E-01
 -1       386 5.51584E-01
 -1       387 4.45988E-01
 -1       388 3.81451E-01
 -1       389 3.19987E-01
 -1       390 2.64985E-01
 -1       391 2.22274E-01
 -1       392 1.89961E-01
 -1       393 1.64450E-01
 -1       394 1.49235E-01
 -1       395 1.44832E-01
 -1       396 1.48606E-01
 -1       397 1.77276E-01
 -1       398 2.27157E-01
 -1       399 3.27776E-01
 -1       400 4.56970E-01
 -1       401 6.18700E-01
 -1       402 8.13213E-01
 -1       403 1.03300E+00
 -1       404 1.25685E+00
 -1       405 1.44312E+00
 -1       406 1.60484E+00
 -1       407 1.65397E+00
 -1       408 1.67803E+00
 -1       409 1.45562E+00
 -1       410 1.52757E+00
 -1       411 1.96417E+00
 -1       412 2.75946E+00
 -1       413 3.73650E+00
 -1       414 3.88290E+00
 -1       415 3.24638E+00
 -1       416 2.53637E+00
 -1       417 1.45902E+00
 -1       418 1.43689E+00
 -1       419 1.61185E+00
 -1       420 1.62594E+00
 -1       421 1.62035E+00
 -1       422 1.46121E+00
 -1       423 1.29199E+00
 -1       424 1.07168E+00
 -1       425 8.32454E-01
 -1       426 6.30803E-01
 -1       427 4.79064E-01
 -1       428 3.03707E-01
 -1       429 1.97156E-01
 -1       430 3.45171E-01
 -1       431 3.45171E-01
 -1       432 2.60225E-01
 -1       433 3.08000E-01
 -1       434 3.08000E-01
 -1       435 3.00962E-01
 -1       436 2.99289E-01
 -1       437 2.54511E-01
 -1       438 1.85996E-01
 -1       439 1.17072E-01
 -1       440 1.55944E-01
 -1       441 2.15718E-01
 -1       442 2.76855E+01
 -1       443 3.31245E+01
 -1       444 3.31245E+01
 -1       445 1.61166E+01
 -1       446 9.37674E+00
 -1       447 9.11477E-01
 -1       448 9.46813E+00
 -1       449 1.18372E+01
 -1       450 1.11001E+01
 -1       451 8.71670E+00
 -1       452 6.69417E+00
 -1       453 1.34830E+01
 -1       454 2.26870E+01
 -1       455 2.56235E+01
 -1       456 3.71430E+01
 -1       457 3.71430E+01
 -1       458 2.68612E+01
 -1       459 2.22323E+01
 -1       460 1.30420E+01
 -1       461 7.09485E+00
 -1       462 8.05620E+00
 -1       463 1.00424E+01
 -1       464 9.97360E+00
 -1       465 9.92022E+00
 -1       466 8.38046E+00
 -1       467 6.16972E+00
 -1       468 1.03275E+01
 -1       469 1.83631E+01
 -1       470 3.12645E+01
 -1       471 3.09831E+01
 -1       472 7.61444E+00
 -1       473 1.53577E+01
 -1       474 1.05214E+00
 -1       475 4.85899E-01
 -1       476 5.10048E-01
 -1       477 4.31548E-01
 -1       478 4.57139E-01
 -1       479 4.86420E-01
 -1       480 5.10159E-01
 -1       481 5.10159E-01
 -1       482 6.05011E-01
 -1       483 8.96317E-01
 -1       484 8.04347E-01
 -1       485 5.19613E+00
 -1       486 2.03014E+01
 -1       487 7.06822E-01
 -1       488 5.93993E-01
 -1       489 4.82142E-01
 -1       490 3.83718E-01
 -1       491 3.32127E-01
 -1       492 2.83599E-01
 -1       493 2.37695E-01
 -1       494 1.96514E-01
 -1       495 1.60681E-01
 -1       496 1.29887E-01
 -1       497 1.03202E-01
 -1       498 8.84616E-02
 -1       499 1.00759E-01
 -1       500 1.17153E-01
 -1       501 1.67241E-01
 -1       502 2.24604E-01
 -1       503 2.86552E-01
 -1       504 3.49579E-01
 -1       505 4.07370E-01
 -1       506 4.59047E-01
 -1       507 5.03263E-01
 -1       508 5.49197E-01
 -1       509 5.59067E-01
 -1       510 5.77579E-01
 -1       511 6.92519E-01
 -1       512 7.68623E-01
 -1       513 1.04126E+00
 -1       514 1.23491E+00
 -1       515 1.41580E+00
 -1       516 1.64566E+00
 -1       517 1.49535E+00
 -1       518 1.65384E+00
 -1       519 1.38329E+00
 -1       520 1.21964E+00
 -1       521 1.03623E+00
 -1       522 7.57492E-01
 -1       523 6.78351E-01
 -1       524 5.61990E-01
 -1       525 4.76864E-01
 -1       526 4.45997E-01
 -1       527 3.83463E-01
 -1       528 3.31259E-01
 -1       529 2.72192E-01
 -1       530 5.51584E-01
 -1       531 4.45988E-01
 -1       532 3.81451E-01
 -1       533 3.19987E-01
 -1       534 2.64985E-01
 -1       535 2.19305E-01
 -1       536 1.80374E-01
 -1       537 1.47273E-01
 -1       538 1.21984E-01
 -1       539 1.01801E-01
 -1       540 1.18532E-01
 -1       541 1.43231E-01
 -1       542 2.01799E-01
 -1       543 2.90812E-01
 -1       544 4.03380E-01
 -1       545 5.43946E-01
 -1       546 7.15415E-01
 -1       547 9.16983E-01
 -1       548 1.14063E+00
 -1       549 1.36622E+00
 -1       550 1.55639E+00
 -1       551 1.72012E+00
 -1       552 2.04311E+00
 -1       553 2.34961E+00
 -1       554 2.51162E+00
 -1       555 3.24135E+00
 -1       556 2.47701E+00
 -1       557 5.87046E+00
 -1       558 6.81688E+00
 -1       559 4.02701E+00
 -1       560 2.60453E+00
 -1       561 3.08591E+00
 -1       562 2.61748E+00
 -1       563 2.35977E+00
 -1       564 2.07477E+00
 -1       565 1.73338E+00
 -1       566 1.52079E+00
 -1       567 1.33128E+00
 -1       568 1.09205E+00
 -1       569 8.46391E-01
 -1       570 6.16393E-01
 -1       571 4.36608E-01
 -1       572 4.16130E-01
 -1       573 4.21622E-01
 -1       574 3.86895E-01
 -1       575 3.32388E-01
 -1       576 4.21622E-01
 -1       577 4.06855E-01
 -1       578 3.79918E-01
 -1       579 3.00790E-01
 -1       580 2.04200E-01
 -1       581 2.39096E-01
 -1       582 2.39096E-01
 -1       583 3.31245E+01
 -1       584 7.09574E-01
 -1       585 8.79328E-01
 -1       586 2.27528E+01
 -1       587 7.32822E+00
 -1       588 3.09831E+01
 -1       589 8.35137E+00
 -1       590 6.53578E+00
 -1       591 6.50211E+00
 -1       592 4.57086E-01
 -1       593 7.54674E+00
 -1       594 4.43259E+00
 -1       595 8.41159E+00
 -1       596 1.75857E+01
 -1       597 6.91654E+00
 -1       598 7.96876E+00
 -1       599 1.08080E+01
 -1       600 2.56235E+01
 -1       601 3.71430E+01
 -1       602 2.68612E+01
 -1       603 1.71668E+01
 -1       604 1.15034E+01
 -1       605 4.23165E+00
 -1       606 6.68912E+00
 -1       607 6.10109E+00
 -1       608 7.13067E+00
 -1       609 4.84612E+00
 -1       610 9.98508E+00
 -1       611 1.40750E+01
 -1       612 5.41265E+00
 -1       613 1.32932E+00
 -1       614 5.10048E-01
 -1       615 4.62138E-01
 -1       616 8.82753E+00
 -1       617 1.60556E+01
 -1       618 2.15718E-01
 -1       619 3.58507E-01
 -1       620 3.43068E-01
 -1       621 3.61510E-01
 -1       622 3.37154E-01
 -1       623 5.44397E-01
 -1       624 1.47568E+01
 -1       625 4.98922E+00
 -1       626 4.01087E-01
 -1       627 3.88106E-01
 -1       628 3.47112E-01
 -1       629 2.97005E-01
 -1       630 2.46231E-01
 -1       631 2.13296E-01
 -1       632 1.80859E-01
 -1       633 1.49942E-01
 -1       634 1.20381E-01
 -1       635 9.22146E-02
 -1       636 6.48413E-02
 -1       637 6.30969E-02
 -1       638 8.44586E-02
 -1       639 1.30840E-01
 -1       640 1.83730E-01
 -1       641 2.43431E-01
 -1       642 3.09193E-01
 -1       643 3.78612E-01
 -1       644 4.47351E-01
 -1       645 5.06224E-01
 -1       646 5.95882E-01
 -1       647 6.91083E-01
 -1       648 7.60747E-01
 -1       649 8.78562E-01
 -1       650 1.05379E+00
 -1       651 1.35348E+00
 -1       652 1.38296E+00
 -1       653 1.41590E+00
 -1       654 1.98476E+00
 -1       655 2.32693E+00
 -1       656 2.33171E+00
 -1       657 1.79845E+00
 -1       658 1.41223E+00
 -1       659 1.35157E+00
 -1       660 1.23448E+00
 -1       661 1.04586E+00
 -1       662 8.28801E-01
 -1       663 6.74974E-01
 -1       664 5.86265E-01
 -1       665 4.79174E-01
 -1       666 3.87196E-01
 -1       667 4.52542E-01
 -1       668 3.32636E-01
 -1       669 4.02701E+00
 -1       670 7.13219E+00
 -1       671 4.01314E-01
 -1       672 2.42785E-01
 -1       673 2.06185E-01
 -1       674 1.71706E-01
 -1       675 1.40204E-01
 -1       676 1.11502E-01
 -1       677 8.46561E-02
 -1       678 8.14237E-02
 -1       679 9.74785E-02
 -1       680 1.56521E-01
 -1       681 2.29536E-01
 -1       682 3.20650E-01
 -1       683 4.34518E-01
 -1       684 5.76282E-01
 -1       685 7.51493E-01
 -1       686 9.65873E-01
 -1       687 1.22456E+00
 -1       688 1.52968E+00
 -1       689 1.87343E+00
 -1       690 2.21817E+00
 -1       691 2.82178E+00
 -1       692 3.87141E+00
 -1       693 4.34140E+00
 -1       694 3.40736E+00
 -1       695 4.39149E+00
 -1       696 3.95912E+00
 -1       697 3.01262E+00
 -1       698 2.26529E+00
 -1       699 1.89374E+00
 -1       700 1.52728E+00
 -1       701 1.19600E+00
 -1       702 9.09532E-01
 -1       703 6.63361E-01
 -1       704 5.15844E-01
 -1       705 5.24556E-01
 -1       706 3.71016E-01
 -1       707 5.75874E-01
 -1       708 5.24556E-01
 -1       709 5.75874E-01
 -1       710 4.68771E-01
 -1       711 4.41335E-01
 -1       712 3.22422E-01
 -1       713 4.52542E-01
 -1       714 1.14668E+01
 -1       715 1.33033E+01
 -1       716 6.18138E+00
 -1       717 6.97182E+00
 -1       718 9.78383E+00
 -1       719 1.40419E+01
 -1       720 3.81659E+00
 -1       721 2.79161E-01
 -1       722 4.03589E-01
 -1       723 1.45781E+01
 -1       724 5.19568E-01
 -1       725 5.76025E+00
 -1       726 3.61510E-01
 -1       727 4.39149E+00
 -1       728 3.60114E-01
 -1       729 7.05865E+00
 -1       730 2.99562E+00
 -1       731 9.29586E+00
 -1       732 1.18918E+01
 -1       733 1.14314E+01
 -1       734 1.64458E+01
 -1       735 3.93787E+00
 -1       736 4.70727E+00
 -1       737 3.69497E+00
 -1       738 3.67507E-01
 -1       739 8.13875E+00
 -1       740 3.60114E-01
 -1       741 3.42660E-01
 -1       742 1.04651E+01
 -1       743 5.17535E-01
 -1       744 4.45577E-01
 -1       745 9.18772E+00
 -1       746 9.42362E+00
 -1       747 3.57647E-01
 -1       748 9.16502E+00
 -1       749 2.39999E-01
 -1       750 2.67082E-01
 -1       751 2.54069E-01
 -1       752 2.57913E-01
 -1       753 2.50635E-01
 -1       754 2.27776E-01
 -1       755 1.97541E-01
 -1       756 1.70027E-01
 -1       757 1.45595E-01
 -1       758 1.18486E-01
 -1       759 9.00421E-02
 -1       760 6.06110E-02
 -1       761 4.68370E-02
 -1       762 5.84974E-02
 -1       763 9.50689E-02
 -1       764 1.40047E-01
 -1       765 1.92033E-01
 -1       766 2.58156E-01
 -1       767 3.35611E-01
 -1       768 4.22705E-01
 -1       769 5.15339E-01
 -1       770 6.19253E-01
 -1       771 7.39837E-01
 -1       772 9.26081E-01
 -1       773 1.10869E+00
 -1       774 1.27098E+00
 -1       775 1.35348E+00
 -1       776 1.63366E+00
 -1       777 2.10176E+00
 -1       778 2.21327E+00
 -1       779 4.97908E+00
 -1       780 5.15127E+00
 -1       781 3.11653E+00
 -1       782 2.10597E+00
 -1       783 2.22344E+00
 -1       784 1.90671E+00
 -1       785 1.55237E+00
 -1       786 1.19723E+00
 -1       787 1.01083E+00
 -1       788 8.09361E-01
 -1       789 6.27620E-01
 -1       790 5.07759E-01
 -1       791 4.52542E-01
 -1       792 6.27011E+00
 -1       793 6.16061E-01
 -1       794 1.59394E-01
 -1       795 1.88139E-01
 -1       796 9.79453E-02
 -1       797 6.98685E-02
 -1       798 4.24722E-02
 -1       799 5.79145E-02
 -1       800 1.03622E-01
 -1       801 1.61134E-01
 -1       802 2.40936E-01
 -1       803 3.43420E-01
 -1       804 4.74103E-01
 -1       805 6.39039E-01
 -1       806 8.43433E-01
 -1       807 1.08882E+00
 -1       808 1.38812E+00
 -1       809 1.81525E+00
 -1       810 2.47698E+00
 -1       811 3.52169E+00
 -1       812 4.90316E+00
 -1       813 2.82226E-01
 -1       814 7.16286E+00
 -1       815 9.17463E+00
 -1       816 2.65746E+00
 -1       817 1.85791E+00
 -1       818 1.36384E+00
 -1       819 1.03636E+00
 -1       820 7.50879E-01
 -1       821 5.44519E-01
 -1       822 2.88321E-01
 -1       823 3.09129E-01
 -1       824 6.84820E-01
 -1       825 5.04326E-01
 -1       826 5.97433E+00
 -1       827 9.16502E+00
 -1       828 2.31034E+00
 -1       829 5.64127E-01
 -1       830 4.33095E+00
 -1       831 3.78024E+00
 -1       832 3.24775E+00
 -1       833 3.69497E+00
 -1       834 1.28930E-01
 -1       835 4.53220E+00
 -1       836 2.89599E-01
 -1       837 2.36001E-01
 -1       838 8.74537E+00
 -1       839 5.44188E+00
 -1       840 7.82689E+00
 -1       841 8.56285E+00
 -1       842 9.81632E+00
 -1       843 2.37878E+00
 -1       844 1.09638E+01
 -1       845 2.82081E-01
 -1       846 2.80259E-01
 -1       847 7.73031E+00
 -1       848 6.71425E-01
 -1       849 2.18011E-01
 -1       850 6.49554E+00
 -1       851 2.88321E-01
 -1       852 7.19065E-01
 -1       853 7.19065E-01
 -1       854 5.69213E+00
 -1       855 2.56266E-01
 -1       856 2.73372E-01
 -1       857 7.33309E+00
 -1       858 2.89158E-01
 -1       859 2.81875E-01
 -1       860 6.71497E+00
 -1       861 3.14124E+00
 -1       862 1.83218E-01
 -1       863 1.74501E-01
 -1       864 1.56486E-01
 -1       865 1.34948E-01
 -1       866 1.17362E-01
 -1       867 9.62551E-02
 -1       868 7.29338E-02
 -1       869 6.87740E-02
 -1       870 7.24797E-02
 -1       871 9.50689E-02
 -1       872 1.40047E-01
 -1       873 1.92033E-01
 -1       874 2.50936E-01
 -1       875 3.15424E-01
 -1       876 3.90407E-01
 -1       877 4.84711E-01
 -1       878 6.15952E-01
 -1       879 8.01837E-01
 -1       880 1.01346E+00
 -1       881 1.27841E+00
 -1       882 1.58605E+00
 -1       883 3.14124E+00
 -1       884 1.42807E-01
 -1       885 3.46663E+00
 -1       886 1.90671E+00
 -1       887 2.98086E+00
 -1       888 1.45472E+00
 -1       889 1.11265E+00
 -1       890 9.05450E-01
 -1       891 6.86141E-01
 -1       892 5.70127E-01
 -1       893 6.20900E+00
 -1       894 2.89158E-01
 -1       895 6.31368E-02
 -1       896 7.97140E-02
 -1       897 9.61967E-02
 -1       898 1.52520E-01
 -1       899 2.24287E-01
 -1       900 3.15771E-01
 -1       901 4.33115E-01
 -1       902 5.84312E-01
 -1       903 7.80074E-01
 -1       904 1.03557E+00
 -1       905 1.37071E+00
 -1       906 1.81525E+00
 -1       907 2.45437E+00
 -1       908 5.37392E+00
 -1       909 6.71497E+00
 -1       910 5.01566E+00
 -1       911 1.35829E+00
 -1       912 2.45723E+00
 -1       913 9.98398E-01
 -1       914 8.44976E-01
 -1       915 1.59130E-01
 -1       916 7.07281E+00
 -1       917 4.46169E+00
 -1       918 1.84786E+00
 -1       919 6.79048E-01
 -1       920 2.09771E-01
 -1       921 6.86441E-02
 -1       922 1.49605E-01
 -1       923 3.17182E+00
 -1       924 5.18462E+00
 -1       925 2.71146E+00
 -1       926 1.75981E-01
 -1       927 1.63263E-01
 -1       928 3.39464E+00
 -1       929 7.07281E+00
 -1       930 5.70127E-01
 -1       931 2.19540E-01
 -1       932 5.01935E+00
 -1       933 1.73662E-01
 -1       934 1.29061E-01
 -1       935 1.05364E-01
 -1       936 1.82800E-01
 -1       937 5.33503E+00
 -1       938 8.75410E-01
 -1       939 2.16485E-01
 -1       940 2.10782E-01
 -1       941 2.16485E-01
 -1       942 3.46663E+00
 -1       943 1.17847E-01
 -1       944 5.08397E+00
 -1       945 5.96396E+00
 -1       946 1.25125E+00
 -1       947 6.96203E-01
 -1       948 1.90983E-01
 -1       949 1.33820E-01
 -1       950 1.22804E-01
 -1       951 1.06513E-01
 -1       952 9.36473E-02
 -1       953 7.98633E-02
 -1       954 8.28041E-02
 -1       955 8.78206E-02
 -1       956 9.69019E-02
 -1       957 1.28099E-01
 -1       958 1.77447E-01
 -1       959 2.36796E-01
 -1       960 3.07539E-01
 -1       961 3.90407E-01
 -1       962 4.84711E-01
 -1       963 6.02548E-01
 -1       964 7.75628E-01
 -1       965 1.05101E+00
 -1       966 1.46446E+00
 -1       967 2.68386E+00
 -1       968 3.72750E+00
 -1       969 2.98086E+00
 -1       970 2.25488E+00
 -1       971 1.54923E+00
 -1       972 1.06934E+00
 -1       973 6.86141E-01
 -1       974 1.39001E-01
 -1       975 1.88520E-01
 -1       976 1.30347E-01
 -1       977 3.55564E-01
 -1       978 4.76333E-01
 -1       979 6.34888E-01
 -1       980 8.48368E-01
 -1       981 1.14919E+00
 -1       982 1.58823E+00
 -1       983 2.25570E+00
 -1       984 5.37392E+00
 -1       985 4.20468E+00
 -1       986 1.96557E-01
 -1       987 2.08586E-01
 -1       988 1.25125E+00
 -1       989 4.07708E+00
 -1       990 2.19540E-01
 -1       991 1.86130E-01
 -1       992 2.77144E+00
 -1       993 3.25997E+00
 -1       994 2.61937E-01
 -1       995 7.78686E-02
 -1       996 1.36005E-01
 -1       997 1.24184E-01
 -1       998 3.69008E+00
 -1       999 1.46271E-01
 -1      1000 1.36810E-01
 -1      1001 8.52102E-02
 -1      1002 9.41244E-02
 -1      1003 1.18273E-01
 -1      1004 3.78811E+00
 -1      1005 1.21070E+00
 -1      1006 1.57257E-01
 -1      1007 3.50966E+00
 -1      1008 2.14612E+00
 -1      1009 1.96310E-01
 -1      1010 1.79042E+00
 -1      1011 4.91498E+00
 -1      1012 8.42050E-02
 -1      1013 1.33567E+00
 -1      1014 3.72750E+00
 -1      1015 1.45802E-01
 -1      1016 9.08718E-02
 -1      1017 9.53237E-02
 -1      1018 8.37630E-02
 -1      1019 8.59023E-02
 -1      1020 9.06402E-02
 -1      1021 9.59809E-02
 -1      1022 1.05593E-01
 -1      1023 1.19651E-01
 -1      1024 1.49425E-01
 -1      1025 2.02287E-01
 -1      1026 2.69617E-01
 -1      1027 3.55316E-01
 -1      1028 4.64340E-01
 -1      1029 6.02548E-01
 -1      1030 7.75628E-01
 -1      1031 1.01927E+00
 -1      1032 1.37741E+00
 -1      1033 2.36995E+00
 -1      1034 2.47401E+00
 -1      1035 1.54923E+00
 -1      1036 1.26403E+00
 -1      1037 1.03389E-01
 -1      1038 1.56281E+00
 -1      1039 4.48036E-01
 -1      1040 3.43614E-01
 -1      1041 7.74176E-01
 -1      1042 1.05799E+00
 -1      1043 1.69895E+00
 -1      1044 3.63025E+00
 -1      1045 7.42448E-02
 -1      1046 3.72750E+00
 -1      1047 2.77418E+00
 -1      1048 1.07370E-01
 -1      1049 1.51026E-01
 -1      1050 1.02223E-01
 -1      1051 5.85789E-01
 -1      1052 2.61848E-01
 -1      1053 1.56114E-01
 -1      1054 1.96310E-01
 -1      1055 3.29597E+00
 -1      1056 1.96762E-01
 -1      1057 1.01834E-01
 -1      1058 1.33567E+00
 -1      1059 9.00994E-02
 -1      1060 1.16044E-01
 -1      1061 1.11236E-01
 -1      1062 1.55752E+00
 -1      1063 2.49051E+00
 -1      1064 1.06819E-01
 -1      1065 1.55752E+00
 -1      1066 1.82346E+00
 -1      1067 1.16727E-01
 -1      1068 2.49969E+00
 -1      1069 3.50811E+00
 -1      1070 9.98277E-02
 -1      1071 2.14612E+00
 -1      1072 8.59023E-02
 -1      1073 1.18481E-01
 -1      1074 9.59809E-02
 -1      1075 1.05593E-01
 -1      1076 1.19651E-01
 -1      1077 1.67452E-01
 -1      1078 2.10369E-01
 -1      1079 2.83231E-01
 -1      1080 3.83951E-01
 -1      1081 5.25721E-01
 -1      1082 7.28600E-01
 -1      1083 1.02250E+00
 -1      1084 1.44614E+00
 -1      1085 1.44614E+00
 -1      1086 2.12333E+00
 -1      1087 9.29909E-02
 -1      1088 7.28600E-01
 -1      1089 2.90011E+00
 -1      1090 1.81142E-01
 -1      1091 3.85923E-01
 -1      1092 1.69895E+00
 -1      1093 1.11222E+00
 -1      1094 2.36995E+00
 -1      1095 1.39897E-01
 -1      1096 2.98438E-01
 -1      1097 2.35375E+00
 -1      1098 1.07370E-01
 -1      1099 8.37630E-02
 -1      1100 9.07471E-02
 -1      1101 6.62783E-02
 -1      1102 8.91934E-02
 -1      1103 5.25721E-01
 -1      1104 1.33082E+00
 -1      1105 2.31971E-01
 -1      1106 1.71564E+00
 -1      1107 1.18481E-01
 -1      1108 9.98277E-02
 -1      1109 9.44710E-02
 -1      1110 9.79964E-02
 -1      1111 1.77123E-01
 -1      1112 1.38456E-01
 -1      1113 1.66600E+00
 -1      1114 8.91934E-02
 -1      1115 1.67037E+00
 -1      1116 1.18481E-01
 -1      1117 1.77123E-01
 -1      1118 1.87025E+00
 -1      1119 4.92165E-02
 -1      1120 2.05260E+00
 -1      1121 9.17047E-02
 -1      1122 9.79964E-02
 -1      1123 1.16044E-01
 -1      1124 1.47219E+00
 -1      1125 4.65770E-02
 -1      1126 1.31470E+01
 -1      1127 8.40472E+00
 -1      1128 2.74344E+00
 -1      1129 1.55650E+00
 -1      1130 1.16554E+00
 -1      1131 9.70837E-01
 -1      1132 8.53831E-01
 -1      1133 7.81427E-01
 -1      1134 7.55343E-01
 -1      1135 7.84570E-01
 -1      1136 8.56442E-01
 -1      1137 9.75721E-01
 -1      1138 1.17877E+00
 -1      1139 1.56974E+00
 -1      1140 2.66869E+00
 -1      1141 6.07380E+00
 -1      1142 1.13432E+01
 -1      1143 1.31470E+01
 -1      1144 8.73438E+00
 -1      1145 3.83410E+00
 -1      1146 2.73193E+00
 -1      1147 1.74352E+00
 -1      1148 1.19497E+00
 -1      1149 9.01889E-01
 -1      1150 6.94925E-01
 -1      1151 5.38092E-01
 -1      1152 4.16859E-01
 -1      1153 3.26312E-01
 -1      1154 2.59441E-01
 -1      1155 2.07994E-01
 -1      1156 1.69533E-01
 -1      1157 1.43488E-01
 -1      1158 1.37598E-01
 -1      1159 1.53826E-01
 -1      1160 1.82827E-01
 -1      1161 2.19810E-01
 -1      1162 2.62550E-01
 -1      1163 3.06828E-01
 -1      1164 3.56290E-01
 -1      1165 4.32499E-01
 -1      1166 5.43638E-01
 -1      1167 6.60490E-01
 -1      1168 7.42939E-01
 -1      1169 7.71081E-01
 -1      1170 8.02927E-01
 -1      1171 8.34773E-01
 -1      1172 9.86839E-01
 -1      1173 1.35372E+00
 -1      1174 1.98386E+00
 -1      1175 2.62784E+00
 -1      1176 2.85649E+00
 -1      1177 2.83301E+00
 -1      1178 2.80952E+00
 -1      1179 2.54152E+00
 -1      1180 1.84400E+00
 -1      1181 1.23857E+00
 -1      1182 9.20521E-01
 -1      1183 7.78393E-01
 -1      1184 7.60832E-01
 -1      1185 7.43270E-01
 -1      1186 6.93541E-01
 -1      1187 5.65307E-01
 -1      1188 4.85675E-01
 -1      1189 4.63822E-01
 -1      1190 4.04740E-01
 -1      1191 3.22610E-01
 -1      1192 1.71828E-01
 -1      1193 1.40429E+01
 -1      1194 8.72023E+00
 -1      1195 2.90726E+00
 -1      1196 2.04372E+00
 -1      1197 1.41035E+00
 -1      1198 1.03034E+00
 -1      1199 8.24059E-01
 -1      1200 6.67333E-01
 -1      1201 5.39142E-01
 -1      1202 4.34164E-01
 -1      1203 3.51007E-01
 -1      1204 2.87630E-01
 -1      1205 2.39312E-01
 -1      1206 2.03541E-01
 -1      1207 1.82838E-01
 -1      1208 1.83558E-01
 -1      1209 2.02555E-01
 -1      1210 2.32561E-01
 -1      1211 2.74994E-01
 -1      1212 3.43373E-01
 -1      1213 4.40916E-01
 -1      1214 5.58251E-01
 -1      1215 6.90624E-01
 -1      1216 8.25770E-01
 -1      1217 9.39473E-01
 -1      1218 1.01809E+00
 -1      1219 1.24326E+00
 -1      1220 1.60808E+00
 -1      1221 1.83251E+00
 -1      1222 2.11738E+00
 -1      1223 2.34853E+00
 -1      1224 2.75749E+00
 -1      1225 4.04455E+00
 -1      1226 5.24065E+00
 -1      1227 5.75416E+00
 -1      1228 5.94968E+00
 -1      1229 4.91579E+00
 -1      1230 3.00286E+00
 -1      1231 2.02852E+00
 -1      1232 2.07683E+00
 -1      1233 2.22043E+00
 -1      1234 2.15713E+00
 -1      1235 1.93497E+00
 -1      1236 1.62050E+00
 -1      1237 1.30399E+00
 -1      1238 1.00612E+00
 -1      1239 7.90092E-01
 -1      1240 6.10471E-01
 -1      1241 4.05321E-01
 -1      1242 1.90072E-01
 -1      1243 1.08482E-01
 -1      1244 1.37574E-01
 -1      1245 1.20383E-01
 -1      1246 7.27936E-02
 -1      1247 5.83017E-02
 -1      1248 8.91226E-02
 -1      1249 1.08922E-01
 -1      1250 1.13809E-01
 -1      1251 1.10233E-01
 -1      1252 9.59190E-02
 -1      1253 6.95280E-02
 -1      1254 3.73306E-02
 -1      1255 3.74498E-02
 -1      1256 6.81653E-02
 -1      1257 1.06219E-01
 -1      1258 1.38314E-01
 -1      1259 1.05613E-01
 -1      1260 2.52286E+01
 -1      1261 3.61007E+01
 -1      1262 4.69445E+01
 -1      1263 3.38103E+01
 -1      1264 1.64225E+01
 -1      1265 1.25187E+01
 -1      1266 1.28684E+01
 -1      1267 1.25231E+01
 -1      1268 1.21778E+01
 -1      1269 1.30281E+01
 -1      1270 2.48481E+01
 -1      1271 3.58177E+01
 -1      1272 3.09581E+01
 -1      1273 2.52857E+01
 -1      1274 2.47162E+01
 -1      1275 2.50613E+01
 -1      1276 3.12128E+01
 -1      1277 3.72624E+01
 -1      1278 2.54420E+01
 -1      1279 1.30593E+01
 -1      1280 1.24970E+01
 -1      1281 1.21357E+01
 -1      1282 1.18445E+01
 -1      1283 1.19145E+01
 -1      1284 1.18958E+01
 -1      1285 1.78470E+01
 -1      1286 2.82721E+01
 -1      1287 3.27273E+01
 -1      1288 2.84862E+01
 -1      1289 2.47227E+01
 -1      1290 1.31470E+01
 -1      1291 4.86973E+00
 -1      1292 9.61199E+00
 -1      1293 2.06156E+00
 -1      1294 2.98058E+00
 -1      1295 4.18786E+00
 -1      1296 1.39639E+00
 -1      1297 1.66431E+00
 -1      1298 1.90145E+00
 -1      1299 1.09972E+00
 -1      1300 1.22275E+00
 -1      1301 1.33056E+00
 -1      1302 9.35183E-01
 -1      1303 1.00686E+00
 -1      1304 1.06406E+00
 -1      1305 8.36262E-01
 -1      1306 8.81594E-01
 -1      1307 9.17613E-01
 -1      1308 7.75237E-01
 -1      1309 8.02308E-01
 -1      1310 8.30071E-01
 -1      1311 7.56331E-01
 -1      1312 7.55343E-01
 -1      1313 7.76224E-01
 -1      1314 8.06188E-01
 -1      1315 7.77949E-01
 -1      1316 7.77949E-01
 -1      1317 8.83492E-01
 -1      1318 8.39858E-01
 -1      1319 8.33238E-01
 -1      1320 1.01576E+00
 -1      1321 9.40118E-01
 -1      1322 9.23534E-01
 -1      1323 1.23866E+00
 -1      1324 1.11126E+00
 -1      1325 1.07566E+00
 -1      1326 1.67958E+00
 -1      1327 1.41601E+00
 -1      1328 1.34850E+00
 -1      1329 2.88155E+00
 -1      1330 2.04617E+00
 -1      1331 1.89244E+00
 -1      1332 6.28697E+00
 -1      1333 3.71723E+00
 -1      1334 3.09472E+00
 -1      1335 1.40429E+01
 -1      1336 1.13432E+01
 -1      1337 8.98665E+00
 -1      1338 1.40429E+01
 -1      1339 8.73438E+00
 -1      1340 4.32178E+00
 -1      1341 3.83410E+00
 -1      1342 3.34641E+00
 -1      1343 3.83410E+00
 -1      1344 2.73193E+00
 -1      1345 2.11744E+00
 -1      1346 2.73193E+00
 -1      1347 1.78528E+00
 -1      1348 1.41137E+00
 -1      1349 1.78528E+00
 -1      1350 1.20104E+00
 -1      1351 1.02640E+00
 -1      1352 1.24280E+00
 -1      1353 9.01889E-01
 -1      1354 7.83444E-01
 -1      1355 9.07959E-01
 -1      1356 6.94925E-01
 -1      1357 6.06406E-01
 -1      1358 6.94925E-01
 -1      1359 5.43131E-01
 -1      1360 4.74817E-01
 -1      1361 5.43131E-01
 -1      1362 4.26379E-01
 -1      1363 3.73460E-01
 -1      1364 4.31418E-01
 -1      1365 3.34318E-01
 -1      1366 2.96690E-01
 -1      1367 3.43838E-01
 -1      1368 2.68670E-01
 -1      1369 2.39428E-01
 -1      1370 2.76677E-01
 -1      1371 2.16419E-01
 -1      1372 1.94215E-01
 -1      1373 2.25648E-01
 -1      1374 1.75213E-01
 -1      1375 1.58955E-01
 -1      1376 1.83637E-01
 -1      1377 1.43503E-01
 -1      1378 1.33715E-01
 -1      1379 1.49182E-01
 -1      1380 1.29779E-01
 -1      1381 1.33677E-01
 -1      1382 1.29794E-01
 -1      1383 1.41496E-01
 -1      1384 1.53826E-01
 -1      1385 1.33677E-01
 -1      1386 1.66156E-01
 -1      1387 1.82827E-01
 -1      1388 1.53826E-01
 -1      1389 1.99499E-01
 -1      1390 2.19810E-01
 -1      1391 1.82827E-01
 -1      1392 2.40121E-01
 -1      1393 2.62550E-01
 -1      1394 2.19810E-01
 -1      1395 2.84979E-01
 -1      1396 3.06828E-01
 -1      1397 2.62550E-01
 -1      1398 3.42084E-01
 -1      1399 3.69697E-01
 -1      1400 3.20235E-01
 -1      1401 4.04354E-01
 -1      1402 4.52949E-01
 -1      1403 3.90148E-01
 -1      1404 4.91212E-01
 -1      1405 5.53756E-01
 -1      1406 4.63067E-01
 -1      1407 6.06182E-01
 -1      1408 6.60490E-01
 -1      1409 5.53756E-01
 -1      1410 7.14797E-01
 -1      1411 7.42939E-01
 -1      1412 6.60490E-01
 -1      1413 7.71081E-01
 -1      1414 7.71081E-01
 -1      1415 7.42939E-01
 -1      1416 7.61860E-01
 -1      1417 7.93706E-01
 -1      1418 7.61860E-01
 -1      1419 8.34773E-01
 -1      1420 8.34773E-01
 -1      1421 7.93706E-01
 -1      1422 8.25505E-01
 -1      1423 9.77571E-01
 -1      1424 8.25505E-01
 -1      1425 1.13890E+00
 -1      1426 1.35372E+00
 -1      1427 9.77571E-01
 -1      1428 1.60111E+00
 -1      1429 2.01643E+00
 -1      1430 1.38629E+00
 -1      1431 2.39918E+00
 -1      1432 2.62784E+00
 -1      1433 2.01643E+00
 -1      1434 2.85649E+00
 -1      1435 2.85649E+00
 -1      1436 2.62784E+00
 -1      1437 2.81226E+00
 -1      1438 2.78878E+00
 -1      1439 2.81226E+00
 -1      1440 2.80952E+00
 -1      1441 2.80952E+00
 -1      1442 2.78878E+00
 -1      1443 2.54152E+00
 -1      1444 2.27352E+00
 -1      1445 2.54152E+00
 -1      1446 1.90675E+00
 -1      1447 1.47723E+00
 -1      1448 1.90675E+00
 -1      1449 1.23857E+00
 -1      1450 1.06265E+00
 -1      1451 1.30131E+00
 -1      1452 9.02858E-01
 -1      1453 7.60730E-01
 -1      1454 9.02858E-01
 -1      1455 7.78393E-01
 -1      1456 7.78393E-01
 -1      1457 7.60730E-01
 -1      1458 7.56842E-01
 -1      1459 7.39280E-01
 -1      1460 7.56842E-01
 -1      1461 7.43270E-01
 -1      1462 7.43270E-01
 -1      1463 7.39280E-01
 -1      1464 6.93541E-01
 -1      1465 6.43813E-01
 -1      1466 6.93541E-01
 -1      1467 5.65307E-01
 -1      1468 4.86800E-01
 -1      1469 5.65307E-01
 -1      1470 4.85675E-01
 -1      1471 4.84549E-01
 -1      1472 4.85675E-01
 -1      1473 4.63822E-01
 -1      1474 4.43095E-01
 -1      1475 4.63822E-01
 -1      1476 4.04740E-01
 -1      1477 3.66385E-01
 -1      1478 4.04740E-01
 -1      1479 3.22610E-01
 -1      1480 2.78835E-01
 -1      1481 3.22610E-01
 -1      1482 2.12621E-01
 -1      1483 2.12621E-01
 -1      1484 3.39756E+00
 -1      1485 8.72023E+00
 -1      1486 8.72023E+00
 -1      1487 2.41696E+00
 -1      1488 2.90726E+00
 -1      1489 2.90726E+00
 -1      1490 1.67047E+00
 -1      1491 2.04372E+00
 -1      1492 2.04372E+00
 -1      1493 1.15023E+00
 -1      1494 1.41035E+00
 -1      1495 1.41035E+00
 -1      1496 9.10441E-01
 -1      1497 1.03034E+00
 -1      1498 1.03034E+00
 -1      1499 7.37677E-01
 -1      1500 8.24059E-01
 -1      1501 8.24059E-01
 -1      1502 5.96990E-01
 -1      1503 6.67333E-01
 -1      1504 6.67333E-01
 -1      1505 4.81294E-01
 -1      1506 5.39142E-01
 -1      1507 5.39142E-01
 -1      1508 3.87033E-01
 -1      1509 4.34164E-01
 -1      1510 4.34164E-01
 -1      1511 3.14980E-01
 -1      1512 3.51007E-01
 -1      1513 3.51007E-01
 -1      1514 2.60281E-01
 -1      1515 2.87630E-01
 -1      1516 2.87630E-01
 -1      1517 2.18343E-01
 -1      1518 2.39312E-01
 -1      1519 2.39312E-01
 -1      1520 1.88738E-01
 -1      1521 2.03541E-01
 -1      1522 2.03541E-01
 -1      1523 1.76452E-01
 -1      1524 1.82352E-01
 -1      1525 1.82352E-01
 -1      1526 1.83558E-01
 -1      1527 1.76939E-01
 -1      1528 1.76452E-01
 -1      1529 2.02555E-01
 -1      1530 1.90178E-01
 -1      1531 1.83558E-01
 -1      1532 2.32561E-01
 -1      1533 2.14932E-01
 -1      1534 2.02555E-01
 -1      1535 2.84465E-01
 -1      1536 2.59660E-01
 -1      1537 2.42031E-01
 -1      1538 3.64339E-01
 -1      1539 3.20765E-01
 -1      1540 3.05431E-01
 -1      1541 4.62345E-01
 -1      1542 4.08377E-01
 -1      1543 3.85768E-01
 -1      1544 5.77479E-01
 -1      1545 5.14112E-01
 -1      1546 4.81573E-01
 -1      1547 7.01923E-01
 -1      1548 6.32917E-01
 -1      1549 5.88778E-01
 -1      1550 8.25770E-01
 -1      1551 7.59630E-01
 -1      1552 7.01923E-01
 -1      1553 9.39473E-01
 -1      1554 8.91911E-01
 -1      1555 8.25770E-01
 -1      1556 1.01809E+00
 -1      1557 9.87035E-01
 -1      1558 9.39473E-01
 -1      1559 1.33884E+00
 -1      1560 1.14473E+00
 -1      1561 1.11368E+00
 -1      1562 1.60808E+00
 -1      1563 1.43737E+00
 -1      1564 1.33884E+00
 -1      1565 1.83251E+00
 -1      1566 1.77880E+00
 -1      1567 1.60808E+00
 -1      1568 2.11738E+00
 -1      1569 1.88623E+00
 -1      1570 1.83251E+00
 -1      1571 2.34853E+00
 -1      1572 2.34853E+00
 -1      1573 2.11738E+00
 -1      1574 2.75537E+00
 -1      1575 2.34641E+00
 -1      1576 2.34641E+00
 -1      1577 4.05706E+00
 -1      1578 3.17896E+00
 -1      1579 2.76788E+00
 -1      1580 5.24065E+00
 -1      1581 4.92265E+00
 -1      1582 4.05706E+00
 -1      1583 5.75416E+00
 -1      1584 5.55864E+00
 -1      1585 5.24065E+00
 -1      1586 5.94968E+00
 -1      1587 5.94968E+00
 -1      1588 5.75416E+00
 -1      1589 3.88190E+00
 -1      1590 4.91579E+00
 -1      1591 4.91579E+00
 -1      1592 2.12383E+00
 -1      1593 3.00286E+00
 -1      1594 3.00286E+00
 -1      1595 1.81451E+00
 -1      1596 1.90981E+00
 -1      1597 1.90981E+00
 -1      1598 2.07683E+00
 -1      1599 1.93322E+00
 -1      1600 1.81451E+00
 -1      1601 2.22043E+00
 -1      1602 2.22043E+00
 -1      1603 2.07683E+00
 -1      1604 2.09382E+00
 -1      1605 2.15713E+00
 -1      1606 2.15713E+00
 -1      1607 1.77612E+00
 -1      1608 1.93497E+00
 -1      1609 1.93497E+00
 -1      1610 1.46488E+00
 -1      1611 1.62050E+00
 -1      1612 1.62050E+00
 -1      1613 1.14999E+00
 -1      1614 1.31087E+00
 -1      1615 1.31087E+00
 -1      1616 8.69914E-01
 -1      1617 1.00690E+00
 -1      1618 1.01378E+00
 -1      1619 7.11054E-01
 -1      1620 7.90092E-01
 -1      1621 7.90875E-01
 -1      1622 5.09887E-01
 -1      1623 6.10471E-01
 -1      1624 6.10471E-01
 -1      1625 3.02231E-01
 -1      1626 4.06797E-01
 -1      1627 4.06797E-01
 -1      1628 2.19164E-01
 -1      1629 1.55132E-01
 -1      1630 1.55132E-01
 -1      1631 1.37942E-01
 -1      1632 1.55132E-01
 -1      1633 1.72690E-01
 -1      1634 9.87085E-02
 -1      1635 1.29108E-01
 -1      1636 1.63856E-01
 -1      1637 9.96905E-02
 -1      1638 8.37832E-02
 -1      1639 1.40097E-01
 -1      1640 1.45146E-01
 -1      1641 1.30232E-01
 -1      1642 1.55714E-01
 -1      1643 1.63819E-01
 -1      1644 1.58933E-01
 -1      1645 2.00043E-01
 -1      1646 1.63819E-01
 -1      1647 1.63819E-01
 -1      1648 2.13830E-01
 -1      1649 1.60234E-01
 -1      1650 1.63809E-01
 -1      1651 2.13820E-01
 -1      1652 1.39002E-01
 -1      1653 1.49741E-01
 -1      1654 2.03317E-01
 -1      1655 1.00713E-01
 -1      1656 1.16366E-01
 -1      1657 1.70187E-01
 -1      1658 5.53499E-02
 -1      1659 7.18945E-02
 -1      1660 1.18732E-01
 -1      1661 6.82423E-02
 -1      1662 5.15786E-02
 -1      1663 8.61424E-02
 -1      1664 1.07807E-01
 -1      1665 9.37549E-02
 -1      1666 1.07884E-01
 -1      1667 1.31809E-01
 -1      1668 1.07807E-01
 -1      1669 1.33396E-01
 -1      1670 1.53335E-01
 -1      1671 1.45243E-01
 -1      1672 1.46830E-01
 -1      1673 2.19550E-01
 -1      1674 2.89722E+01
 -1      1675 2.89439E+01
 -1      1676 3.73150E+01
 -1      1677 2.64712E+01
 -1      1678 4.69445E+01
 -1      1679 4.69445E+01
 -1      1680 2.09629E+01
 -1      1681 3.40971E+01
 -1      1682 1.20523E+01
 -1      1683 1.63058E+01
 -1      1684 1.25187E+01
 -1      1685 1.21690E+01
 -1      1686 1.28684E+01
 -1      1687 1.28684E+01
 -1      1688 1.20327E+01
 -1      1689 1.23780E+01
 -1      1690 1.21778E+01
 -1      1691 1.21778E+01
 -1      1692 1.27733E+01
 -1      1693 1.19230E+01
 -1      1694 2.48481E+01
 -1      1695 1.38785E+01
 -1      1696 3.58177E+01
 -1      1697 3.58177E+01
 -1      1698 2.97082E+01
 -1      1699 3.45679E+01
 -1      1700 2.55876E+01
 -1      1701 2.64004E+01
 -1      1702 2.62961E+01
 -1      1703 2.60528E+01
 -1      1704 2.63979E+01
 -1      1705 2.62961E+01
 -1      1706 3.53997E+01
 -1      1707 2.93500E+01
 -1      1708 3.72624E+01
 -1      1709 3.72624E+01
 -1      1710 1.36216E+01
 -1      1711 2.54420E+01
 -1      1712 1.18099E+01
 -1      1713 1.23722E+01
 -1      1714 1.24970E+01
 -1      1715 1.24970E+01
 -1      1716 1.17745E+01
 -1      1717 1.21357E+01
 -1      1718 1.17538E+01
 -1      1719 1.16838E+01
 -1      1720 1.19145E+01
 -1      1721 1.19145E+01
 -1      1722 1.18771E+01
 -1      1723 1.18958E+01
 -1      1724 1.75299E+01
 -1      1725 1.15600E+01
 -1      1726 2.94739E+01
 -1      1727 2.50187E+01
 -1      1728 3.27273E+01
 -1      1729 3.27273E+01
 -1      1730 2.77548E+01
 -1      1731 3.19959E+01
 -1      1732 2.89439E+01
 -1      1733 2.84663E+01
 -1      1734 1.65927E+01
 -1      1735 3.40971E+01
 -1      1736 2.20640E-01
 -1      1737 2.38199E-01
 -1      1738 3.01865E+01
 -1      1739 3.73150E+01
 -1      1740 3.26876E+01
 -1      1741 1.20523E+01
 -1      1742 1.25187E+01
 -1      1743 1.23780E+01
 -1      1744 1.20327E+01
 -1      1745 1.19230E+01
 -1      1746 1.27733E+01
 -1      1747 2.48481E+01
 -1      1748 3.45679E+01
 -1      1749 3.00102E+01
 -1      1750 2.71676E+01
 -1      1751 2.76327E+01
 -1      1752 3.05848E+01
 -1      1753 3.53997E+01
 -1      1754 2.54420E+01
 -1      1755 1.23722E+01
 -1      1756 1.18099E+01
 -1      1757 1.21357E+01
 -1      1758 1.16838E+01
 -1      1759 1.17538E+01
 -1      1760 1.18958E+01
 -1      1761 1.15600E+01
 -1      1762 1.87317E+01
 -1      1763 2.94739E+01
 -1      1764 3.19959E+01
 -1      1765 3.19760E+01
 -1      1766 9.61199E+00
 -1      1767 1.28606E+00
 -1      1768 1.68331E+00
 -1      1769 2.38815E+00
 -1      1770 4.27730E+00
 -1      1771 1.77276E+00
 -1      1772 8.79464E-01
 -1      1773 9.72323E-01
 -1      1774 7.79155E-01
 -1      1775 8.32744E-01
 -1      1776 7.41006E-01
 -1      1777 7.13796E-01
 -1      1778 7.47750E-01
 -1      1779 6.62880E-01
 -1      1780 6.71932E-01
 -1      1781 6.91825E-01
 -1      1782 6.09504E-01
 -1      1783 6.95159E-01
 -1      1784 6.73541E-01
 -1      1785 5.89141E-01
 -1      1786 7.50503E-01
 -1      1787 7.16832E-01
 -1      1788 6.12424E-01
 -1      1789 8.40295E-01
 -1      1790 7.83670E-01
 -1      1791 6.67264E-01
 -1      1792 9.83203E-01
 -1      1793 8.87707E-01
 -1      1794 7.47843E-01
 -1      1795 1.22812E+00
 -1      1796 1.05077E+00
 -1      1797 8.62820E-01
 -1      1798 1.70830E+00
 -1      1799 1.34171E+00
 -1      1800 1.04398E+00
 -1      1801 2.62856E+00
 -1      1802 1.79287E+00
 -1      1803 1.24214E+00
 -1      1804 8.12270E+00
 -1      1805 3.06645E+00
 -1      1806 1.76461E+00
 -1      1807 2.80003E+00
 -1      1808 5.19940E+00
 -1      1809 2.16662E+00
 -1      1810 2.65693E+00
 -1      1811 2.05940E+00
 -1      1812 3.39969E+00
 -1      1813 2.54027E+00
 -1      1814 1.92579E+00
 -1      1815 1.69516E+00
 -1      1816 1.36300E+00
 -1      1817 1.50351E+00
 -1      1818 1.18319E+00
 -1      1819 9.72865E-01
 -1      1820 1.09307E+00
 -1      1821 8.47851E-01
 -1      1822 7.23336E-01
 -1      1823 7.88241E-01
 -1      1824 6.65173E-01
 -1      1825 5.76654E-01
 -1      1826 6.05065E-01
 -1      1827 5.29243E-01
 -1      1828 4.65968E-01
 -1      1829 4.99491E-01
 -1      1830 4.24582E-01
 -1      1831 3.76145E-01
 -1      1832 4.10695E-01
 -1      1833 3.43074E-01
 -1      1834 3.03932E-01
 -1      1835 3.36239E-01
 -1      1836 2.76750E-01
 -1      1837 2.48730E-01
 -1      1838 2.75986E-01
 -1      1839 2.25758E-01
 -1      1840 2.02749E-01
 -1      1841 2.25831E-01
 -1      1842 1.83637E-01
 -1      1843 1.64635E-01
 -1      1844 1.83746E-01
 -1      1845 1.49116E-01
 -1      1846 1.33663E-01
 -1      1847 1.49116E-01
 -1      1848 1.23568E-01
 -1      1849 1.19633E-01
 -1      1850 1.23502E-01
 -1      1851 1.22556E-01
 -1      1852 1.30374E-01
 -1      1853 1.16330E-01
 -1      1854 1.39461E-01
 -1      1855 1.51791E-01
 -1      1856 1.28339E-01
 -1      1857 1.64067E-01
 -1      1858 1.80739E-01
 -1      1859 1.49702E-01
 -1      1860 1.97745E-01
 -1      1861 2.18056E-01
 -1      1862 1.78984E-01
 -1      1863 2.48737E-01
 -1      1864 2.71165E-01
 -1      1865 2.26671E-01
 -1      1866 3.03406E-01
 -1      1867 3.38662E-01
 -1      1868 2.89593E-01
 -1      1869 3.69470E-01
 -1      1870 4.04127E-01
 -1      1871 3.52642E-01
 -1      1872 4.30670E-01
 -1      1873 4.68933E-01
 -1      1874 4.09993E-01
 -1      1875 4.96322E-01
 -1      1876 5.48748E-01
 -1      1877 4.63925E-01
 -1      1878 5.78890E-01
 -1      1879 6.33198E-01
 -1      1880 5.21456E-01
 -1      1881 6.40986E-01
 -1      1882 6.69128E-01
 -1      1883 5.59387E-01
 -1      1884 6.38250E-01
 -1      1885 6.29029E-01
 -1      1886 5.36297E-01
 -1      1887 5.84281E-01
 -1      1888 6.25348E-01
 -1      1889 4.60672E-01
 -1      1890 6.28314E-01
 -1      1891 6.19047E-01
 -1      1892 4.18890E-01
 -1      1893 7.91742E-01
 -1      1894 9.53076E-01
 -1      1895 5.94551E-01
 -1      1896 1.16188E+00
 -1      1897 1.40927E+00
 -1      1898 9.76047E-01
 -1      1899 1.57957E+00
 -1      1900 1.96232E+00
 -1      1901 1.35515E+00
 -1      1902 2.11724E+00
 -1      1903 2.34589E+00
 -1      1904 1.68037E+00
 -1      1905 2.35331E+00
 -1      1906 2.30908E+00
 -1      1907 1.84272E+00
 -1      1908 2.31232E+00
 -1      1909 2.33307E+00
 -1      1910 1.85337E+00
 -1      1911 2.30321E+00
 -1      1912 2.03521E+00
 -1      1913 1.82676E+00
 -1      1914 1.86118E+00
 -1      1915 1.49441E+00
 -1      1916 1.62288E+00
 -1      1917 1.33654E+00
 -1      1918 1.09788E+00
 -1      1919 1.29098E+00
 -1      1920 8.85150E-01
 -1      1921 7.25359E-01
 -1      1922 9.20381E-01
 -1      1923 5.89566E-01
 -1      1924 6.07229E-01
 -1      1925 5.71857E-01
 -1      1926 5.85996E-01
 -1      1927 5.64444E-01
 -1      1928 4.14831E-01
 -1      1929 6.07697E-01
 -1      1930 6.11687E-01
 -1      1931 4.36851E-01
 -1      1932 6.22992E-01
 -1      1933 5.73263E-01
 -1      1934 4.91408E-01
 -1      1935 5.45030E-01
 -1      1936 4.66524E-01
 -1      1937 4.74480E-01
 -1      1938 4.26777E-01
 -1      1939 4.25651E-01
 -1      1940 4.06500E-01
 -1      1941 4.24006E-01
 -1      1942 4.03279E-01
 -1      1943 3.65109E-01
 -1      1944 3.81001E-01
 -1      1945 3.42646E-01
 -1      1946 3.41186E-01
 -1      1947 3.03176E-01
 -1      1948 2.59401E-01
 -1      1949 2.00116E-01
 -1      1950 2.79437E-01
 -1      1951 1.40217E+00
 -1      1952 1.77541E+00
 -1      1953 1.52508E+00
 -1      1954 1.02328E+00
 -1      1955 1.28340E+00
 -1      1956 1.01509E+00
 -1      1957 8.10008E-01
 -1      1958 9.29904E-01
 -1      1959 8.02945E-01
 -1      1960 6.44631E-01
 -1      1961 7.31013E-01
 -1      1962 6.30579E-01
 -1      1963 5.21489E-01
 -1      1964 5.91832E-01
 -1      1965 4.98786E-01
 -1      1966 4.31372E-01
 -1      1967 4.89220E-01
 -1      1968 4.13719E-01
 -1      1969 3.53510E-01
 -1      1970 4.00641E-01
 -1      1971 3.50719E-01
 -1      1972 2.89983E-01
 -1      1973 3.26009E-01
 -1      1974 2.92486E-01
 -1      1975 2.41277E-01
 -1      1976 2.68627E-01
 -1      1977 2.43629E-01
 -1      1978 2.04152E-01
 -1      1979 2.25121E-01
 -1      1980 2.06118E-01
 -1      1981 1.76594E-01
 -1      1982 1.91396E-01
 -1      1983 1.77206E-01
 -1      1984 1.62601E-01
 -1      1985 1.68987E-01
 -1      1986 1.56843E-01
 -1      1987 1.60885E-01
 -1      1988 1.60399E-01
 -1      1989 1.47034E-01
 -1      1990 1.69392E-01
 -1      1991 1.62772E-01
 -1      1992 1.46719E-01
 -1      1993 1.96104E-01
 -1      1994 1.83727E-01
 -1      1995 1.62941E-01
 -1      1996 2.48144E-01
 -1      1997 2.21045E-01
 -1      1998 2.02217E-01
 -1      1999 3.34753E-01
 -1      2000 2.98453E-01
 -1      2001 2.77467E-01
 -1      2002 4.43388E-01
 -1      2003 3.99350E-01
 -1      2004 3.92373E-01
 -1      2005 5.76020E-01
 -1      2006 5.24253E-01
 -1      2007 5.37835E-01
 -1      2008 7.28715E-01
 -1      2009 6.73277E-01
 -1      2010 7.15957E-01
 -1      2011 8.96312E-01
 -1      2012 8.38606E-01
 -1      2013 9.23104E-01
 -1      2014 1.07438E+00
 -1      2015 1.00824E+00
 -1      2016 1.14492E+00
 -1      2017 1.21508E+00
 -1      2018 1.16752E+00
 -1      2019 1.34998E+00
 -1      2020 1.42258E+00
 -1      2021 1.29594E+00
 -1      2022 1.52398E+00
 -1      2023 1.54567E+00
 -1      2024 1.44714E+00
 -1      2025 1.62941E+00
 -1      2026 1.72841E+00
 -1      2027 1.55770E+00
 -1      2028 1.66600E+00
 -1      2029 1.67093E+00
 -1      2030 1.61721E+00
 -1      2031 1.56683E+00
 -1      2032 1.93805E+00
 -1      2033 1.70690E+00
 -1      2034 1.49160E+00
 -1      2035 2.15423E+00
 -1      2036 2.15635E+00
 -1      2037 1.74587E+00
 -1      2038 2.97546E+00
 -1      2039 2.55188E+00
 -1      2040 2.36182E+00
 -1      2041 4.32958E+00
 -1      2042 3.46398E+00
 -1      2043 3.24798E+00
 -1      2044 4.72077E+00
 -1      2045 4.40278E+00
 -1      2046 3.80970E+00
 -1      2047 4.59803E+00
 -1      2048 4.40251E+00
 -1      2049 3.56464E+00
 -1      2050 3.20913E+00
 -1      2051 4.24302E+00
 -1      2052 2.89137E+00
 -1      2053 1.79142E+00
 -1      2054 2.67046E+00
 -1      2055 1.99769E+00
 -1      2056 1.56634E+00
 -1      2057 1.78036E+00
 -1      2058 1.44795E+00
 -1      2059 1.77254E+00
 -1      2060 1.65382E+00
 -1      2061 1.52437E+00
 -1      2062 1.92318E+00
 -1      2063 1.77958E+00
 -1      2064 1.61889E+00
 -1      2065 1.85709E+00
 -1      2066 1.92039E+00
 -1      2067 1.62314E+00
 -1      2068 1.61867E+00
 -1      2069 1.77752E+00
 -1      2070 1.54078E+00
 -1      2071 1.37843E+00
 -1      2072 1.53405E+00
 -1      2073 1.37660E+00
 -1      2074 1.11427E+00
 -1      2075 1.26828E+00
 -1      2076 1.18183E+00
 -1      2077 8.51575E-01
 -1      2078 9.94660E-01
 -1      2079 9.52067E-01
 -1      2080 6.70928E-01
 -1      2081 7.50750E-01
 -1      2082 7.31628E-01
 -1      2083 4.94476E-01
 -1      2084 5.95059E-01
 -1      2085 5.54933E-01
 -1      2086 3.03707E-01
 -1      2087 4.06797E-01
 -1      2088 3.91386E-01
 -1      2089 2.38199E-01
 -1      2090 1.61164E-01
 -1      2091 1.76089E-01
 -1      2092 2.50097E-01
 -1      2093 2.58931E-01
 -1      2094 2.71164E-01
 -1      2095 2.58931E-01
 -1      2096 2.58931E-01
 -1      2097 3.24439E-01
 -1      2098 3.45171E-01
 -1      2099 2.23240E-01
 -1      2100 1.92698E-01
 -1      2101 2.28690E-01
 -1      2102 2.60915E-01
 -1      2103 2.47128E-01
 -1      2104 2.84112E-01
 -1      2105 2.60915E-01
 -1      2106 2.60915E-01
 -1      2107 3.08000E-01
 -1      2108 2.57386E-01
 -1      2109 2.57396E-01
 -1      2110 3.04481E-01
 -1      2111 2.46056E-01
 -1      2112 2.56550E-01
 -1      2113 3.00125E-01
 -1      2114 2.01031E-01
 -1      2115 2.23667E-01
 -1      2116 2.76900E-01
 -1      2117 1.37955E-01
 -1      2118 1.66773E-01
 -1      2119 2.20253E-01
 -1      2120 9.97216E-02
 -1      2121 1.03493E-01
 -1      2122 1.51534E-01
 -1      2123 1.44670E-01
 -1      2124 1.19157E-01
 -1      2125 1.36508E-01
 -1      2126 1.74557E-01
 -1      2127 1.74557E-01
 -1      2128 1.85831E-01
 -1      2129 3.73150E+01
 -1      2130 2.76855E+01
 -1      2131 3.29060E+01
 -1      2132 3.29060E+01
 -1      2133 3.04050E+01
 -1      2134 3.29060E+01
 -1      2135 1.86832E+01
 -1      2136 3.15305E+01
 -1      2137 1.06562E+01
 -1      2138 1.53132E+01
 -1      2139 1.27467E+01
 -1      2140 1.03420E+00
 -1      2141 1.20784E+00
 -1      2142 9.89702E-01
 -1      2143 8.49601E-01
 -1      2144 1.11683E+01
 -1      2145 1.08186E+01
 -1      2146 1.18624E+01
 -1      2147 1.23528E+01
 -1      2148 1.16390E+01
 -1      2149 1.14939E+01
 -1      2150 1.14686E+01
 -1      2151 1.01924E+01
 -1      2152 1.04473E+01
 -1      2153 1.02863E+01
 -1      2154 9.18117E+00
 -1      2155 2.46504E+01
 -1      2156 1.36807E+01
 -1      2157 1.00886E+01
 -1      2158 2.80025E+01
 -1      2159 2.92523E+01
 -1      2160 2.61630E+01
 -1      2161 2.94708E+01
 -1      2162 3.23879E+01
 -1      2163 3.19227E+01
 -1      2164 3.23879E+01
 -1      2165 3.23879E+01
 -1      2166 3.01991E+01
 -1      2167 2.72470E+01
 -1      2168 2.97474E+01
 -1      2169 2.78846E+01
 -1      2170 1.33318E+01
 -1      2171 2.51522E+01
 -1      2172 9.10883E+00
 -1      2173 1.03582E+01
 -1      2174 1.02766E+01
 -1      2175 9.58950E+00
 -1      2176 7.57552E+00
 -1      2177 1.09085E+01
 -1      2178 1.12697E+01
 -1      2179 1.07833E+01
 -1      2180 1.08741E+01
 -1      2181 1.09173E+01
 -1      2182 1.07567E+01
 -1      2183 1.01288E+01
 -1      2184 1.01475E+01
 -1      2185 9.15034E+00
 -1      2186 8.70633E+00
 -1      2187 9.02341E+00
 -1      2188 1.82740E+01
 -1      2189 1.07852E+01
 -1      2190 2.55452E+01
 -1      2191 2.22918E+01
 -1      2192 3.12645E+01
 -1      2193 3.19959E+01
 -1      2194 3.18353E+01
 -1      2195 3.11238E+01
 -1      2196 3.20538E+01
 -1      2197 9.89173E+00
 -1      2198 9.77504E+00
 -1      2199 8.54129E+00
 -1      2200 2.91200E+00
 -1      2201 8.49559E+00
 -1      2202 2.10586E+00
 -1      2203 3.04050E+01
 -1      2204 3.31245E+01
 -1      2205 1.87991E-01
 -1      2206 3.11511E+01
 -1      2207 2.15216E+01
 -1      2208 1.57372E+01
 -1      2209 3.11238E+01
 -1      2210 2.48138E+01
 -1      2211 1.43453E+01
 -1      2212 7.27509E+00
 -1      2213 9.94691E+00
 -1      2214 9.04932E+00
 -1      2215 1.00684E+01
 -1      2216 1.76372E+01
 -1      2217 2.45468E+01
 -1      2218 3.20021E+01
 -1      2219 3.71430E+01
 -1      2220 3.13833E+01
 -1      2221 1.80850E+01
 -1      2222 9.90842E+00
 -1      2223 1.06526E+01
 -1      2224 7.70543E+00
 -1      2225 2.41553E+01
 -1      2226 1.00080E+01
 -1      2227 8.24863E+00
 -1      2228 1.09300E+00
 -1      2229 1.48422E+00
 -1      2230 5.58687E-01
 -1      2231 5.90093E-01
 -1      2232 6.02167E-01
 -1      2233 6.48887E-01
 -1      2234 4.97974E-01
 -1      2235 5.11149E-01
 -1      2236 5.09540E-01
 -1      2237 5.45618E-01
 -1      2238 5.23945E-01
 -1      2239 4.44344E-01
 -1      2240 5.93425E-01
 -1      2241 5.60258E-01
 -1      2242 4.71779E-01
 -1      2243 6.52707E-01
 -1      2244 6.05295E-01
 -1      2245 4.98289E-01
 -1      2246 7.20272E-01
 -1      2247 6.52707E-01
 -1      2248 5.10159E-01
 -1      2249 8.81293E-01
 -1      2250 7.67698E-01
 -1      2251 5.57585E-01
 -1      2252 8.96317E-01
 -1      2253 1.01509E+00
 -1      2254 9.74230E-01
 -1      2255 1.26924E+00
 -1      2256 1.03861E+00
 -1      2257 6.40529E+00
 -1      2258 7.28644E+00
 -1      2259 2.39934E+01
 -1      2260 2.67129E+01
 -1      2261 9.89849E-01
 -1      2262 8.10039E-01
 -1      2263 7.55584E-01
 -1      2264 7.53624E-01
 -1      2265 6.28610E-01
 -1      2266 6.50408E-01
 -1      2267 5.72685E-01
 -1      2268 5.14522E-01
 -1      2269 5.38068E-01
 -1      2270 4.65310E-01
 -1      2271 4.17899E-01
 -1      2272 4.32930E-01
 -1      2273 3.92104E-01
 -1      2274 3.50718E-01
 -1      2275 3.57922E-01
 -1      2276 3.26454E-01
 -1      2277 2.93384E-01
 -1      2278 3.07863E-01
 -1      2279 2.70432E-01
 -1      2280 2.43249E-01
 -1      2281 2.60647E-01
 -1      2282 2.22659E-01
 -1      2283 1.99686E-01
 -1      2284 2.17104E-01
 -1      2285 1.81770E-01
 -1      2286 1.62658E-01
 -1      2287 1.78598E-01
 -1      2288 1.47261E-01
 -1      2289 1.31742E-01
 -1      2290 1.45284E-01
 -1      2291 1.18400E-01
 -1      2292 1.08305E-01
 -1      2293 1.16545E-01
 -1      2294 1.00934E-01
 -1      2295 1.03857E-01
 -1      2296 9.58320E-02
 -1      2297 1.10006E-01
 -1      2298 1.19092E-01
 -1      2299 9.46102E-02
 -1      2300 1.27290E-01
 -1      2301 1.39566E-01
 -1      2302 1.08956E-01
 -1      2303 1.64610E-01
 -1      2304 1.81616E-01
 -1      2305 1.42197E-01
 -1      2306 2.10297E-01
 -1      2307 2.40978E-01
 -1      2308 1.95923E-01
 -1      2309 2.71952E-01
 -1      2310 3.04193E-01
 -1      2311 2.55578E-01
 -1      2312 3.35706E-01
 -1      2313 3.66514E-01
 -1      2314 3.18065E-01
 -1      2315 3.95410E-01
 -1      2316 4.21953E-01
 -1      2317 3.78475E-01
 -1      2318 4.47791E-01
 -1      2319 4.75181E-01
 -1      2320 4.33209E-01
 -1      2321 4.97288E-01
 -1      2322 5.27431E-01
 -1      2323 4.81155E-01
 -1      2324 5.50398E-01
 -1      2325 5.58186E-01
 -1      2326 5.26230E-01
 -1      2327 5.63120E-01
 -1      2328 5.32243E-01
 -1      2329 5.54132E-01
 -1      2330 5.41499E-01
 -1      2331 4.96751E-01
 -1      2332 5.68323E-01
 -1      2333 5.54221E-01
 -1      2334 5.57187E-01
 -1      2335 6.35049E-01
 -1      2336 5.95239E-01
 -1      2337 7.67935E-01
 -1      2338 7.30571E-01
 -1      2339 9.04251E-01
 -1      2340 1.11305E+00
 -1      2341 9.04939E-01
 -1      2342 1.20988E+00
 -1      2343 1.38018E+00
 -1      2344 1.13808E+00
 -1      2345 1.47062E+00
 -1      2346 1.62555E+00
 -1      2347 1.32536E+00
 -1      2348 1.74048E+00
 -1      2349 1.74790E+00
 -1      2350 1.53073E+00
 -1      2351 1.67274E+00
 -1      2352 1.67598E+00
 -1      2353 1.57051E+00
 -1      2354 1.75522E+00
 -1      2355 1.72537E+00
 -1      2356 1.57460E+00
 -1      2357 1.59010E+00
 -1      2358 1.41607E+00
 -1      2359 1.51856E+00
 -1      2360 1.33424E+00
 -1      2361 1.17638E+00
 -1      2362 1.30147E+00
 -1      2363 1.08467E+00
 -1      2364 8.71942E-01
 -1      2365 1.12794E+00
 -1      2366 7.32571E-01
 -1      2367 5.96779E-01
 -1      2368 8.96864E-01
 -1      2369 5.57208E-01
 -1      2370 5.35975E-01
 -1      2371 7.17922E-01
 -1      2372 4.77794E-01
 -1      2373 5.21047E-01
 -1      2374 6.20171E-01
 -1      2375 4.78484E-01
 -1      2376 4.89789E-01
 -1      2377 5.19427E-01
 -1      2378 4.74355E-01
 -1      2379 4.46122E-01
 -1      2380 4.61430E-01
 -1      2381 4.14855E-01
 -1      2382 3.75108E-01
 -1      2383 4.14730E-01
 -1      2384 3.49006E-01
 -1      2385 3.47362E-01
 -1      2386 3.57361E-01
 -1      2387 3.17828E-01
 -1      2388 2.95549E-01
 -1      2389 3.01726E-01
 -1      2390 5.51584E-01
 -1      2391 6.30579E-01
 -1      2392 4.45988E-01
 -1      2393 4.98786E-01
 -1      2394 4.98786E-01
 -1      2395 3.81451E-01
 -1      2396 4.13719E-01
 -1      2397 4.13719E-01
 -1      2398 3.19987E-01
 -1      2399 3.50719E-01
 -1      2400 3.50719E-01
 -1      2401 2.64985E-01
 -1      2402 2.92486E-01
 -1      2403 2.92486E-01
 -1      2404 2.20790E-01
 -1      2405 2.42145E-01
 -1      2406 2.42145E-01
 -1      2407 1.85168E-01
 -1      2408 2.01324E-01
 -1      2409 1.99840E-01
 -1      2410 1.55861E-01
 -1      2411 1.68617E-01
 -1      2412 1.63823E-01
 -1      2413 1.35610E-01
 -1      2414 1.43217E-01
 -1      2415 1.34628E-01
 -1      2416 1.23316E-01
 -1      2417 1.25518E-01
 -1      2418 1.11892E-01
 -1      2419 1.33569E-01
 -1      2420 1.31682E-01
 -1      2421 1.10167E-01
 -1      2422 1.60254E-01
 -1      2423 1.45919E-01
 -1      2424 1.30882E-01
 -1      2425 2.14478E-01
 -1      2426 1.89538E-01
 -1      2427 1.72515E-01
 -1      2428 3.09294E-01
 -1      2429 2.58985E-01
 -1      2430 2.46305E-01
 -1      2431 4.30175E-01
 -1      2432 3.65578E-01
 -1      2433 3.47096E-01
 -1      2434 5.81323E-01
 -1      2435 5.00458E-01
 -1      2436 4.73663E-01
 -1      2437 7.64314E-01
 -1      2438 6.67057E-01
 -1      2439 6.29681E-01
 -1      2440 9.74989E-01
 -1      2441 8.65098E-01
 -1      2442 8.16199E-01
 -1      2443 1.19874E+00
 -1      2444 1.08681E+00
 -1      2445 1.02880E+00
 -1      2446 1.40467E+00
 -1      2447 1.31154E+00
 -1      2448 1.25343E+00
 -1      2449 1.58062E+00
 -1      2450 1.49976E+00
 -1      2451 1.46131E+00
 -1      2452 1.68704E+00
 -1      2453 1.66248E+00
 -1      2454 1.63826E+00
 -1      2455 1.86057E+00
 -1      2456 1.84854E+00
 -1      2457 1.88161E+00
 -1      2458 1.90262E+00
 -1      2459 2.01382E+00
 -1      2460 2.19636E+00
 -1      2461 2.01960E+00
 -1      2462 1.98362E+00
 -1      2463 2.43061E+00
 -1      2464 2.60276E+00
 -1      2465 2.38446E+00
 -1      2466 2.87648E+00
 -1      2467 2.61823E+00
 -1      2468 2.22059E+00
 -1      2469 2.85918E+00
 -1      2470 4.80348E+00
 -1      2471 4.31496E+00
 -1      2472 4.17373E+00
 -1      2473 5.34989E+00
 -1      2474 5.27669E+00
 -1      2475 6.34367E+00
 -1      2476 3.63669E+00
 -1      2477 3.95496E+00
 -1      2478 5.42195E+00
 -1      2479 2.57045E+00
 -1      2480 2.92545E+00
 -1      2481 3.31577E+00
 -1      2482 2.27246E+00
 -1      2483 2.81114E+00
 -1      2484 2.84522E+00
 -1      2485 2.02719E+00
 -1      2486 2.03825E+00
 -1      2487 2.85170E+00
 -1      2488 1.98581E+00
 -1      2489 1.89833E+00
 -1      2490 2.48863E+00
 -1      2491 1.85035E+00
 -1      2492 1.84331E+00
 -1      2493 2.21727E+00
 -1      2494 1.67686E+00
 -1      2495 1.67966E+00
 -1      2496 1.90407E+00
 -1      2497 1.49100E+00
 -1      2498 1.57057E+00
 -1      2499 1.62708E+00
 -1      2500 1.31164E+00
 -1      2501 1.39625E+00
 -1      2502 1.42604E+00
 -1      2503 1.08187E+00
 -1      2504 1.19202E+00
 -1      2505 1.21167E+00
 -1      2506 8.39422E-01
 -1      2507 9.59035E-01
 -1      2508 9.69222E-01
 -1      2509 6.23598E-01
 -1      2510 7.24423E-01
 -1      2511 7.31392E-01
 -1      2512 4.57836E-01
 -1      2513 5.33705E-01
 -1      2514 5.26501E-01
 -1      2515 4.12118E-01
 -1      2516 3.62065E-01
 -1      2517 3.38177E-01
 -1      2518 3.64811E-01
 -1      2519 3.64811E-01
 -1      2520 4.18876E-01
 -1      2521 2.92026E-01
 -1      2522 3.66033E-01
 -1      2523 2.96306E-01
 -1      2524 2.64772E-01
 -1      2525 3.59642E-01
 -1      2526 3.74259E-01
 -1      2527 3.61292E-01
 -1      2528 3.64811E-01
 -1      2529 4.21622E-01
 -1      2530 3.53072E-01
 -1      2531 3.53909E-01
 -1      2532 4.14239E-01
 -1      2533 3.17214E-01
 -1      2534 3.39603E-01
 -1      2535 3.93386E-01
 -1      2536 2.43393E-01
 -1      2537 2.77650E-01
 -1      2538 3.40354E-01
 -1      2539 1.60636E-01
 -1      2540 1.95098E-01
 -1      2541 2.52495E-01
 -1      2542 1.97520E-01
 -1      2543 1.78084E-01
 -1      2544 2.21648E-01
 -1      2545 2.27407E-01
 -1      2546 1.97520E-01
 -1      2547 2.39096E-01
 -1      2548 3.31245E+01
 -1      2549 3.31245E+01
 -1      2550 7.09574E-01
 -1      2551 8.02945E-01
 -1      2552 6.30579E-01
 -1      2553 1.67846E+00
 -1      2554 1.30673E+00
 -1      2555 8.41837E-01
 -1      2556 9.73628E-01
 -1      2557 2.27843E-01
 -1      2558 2.68679E+01
 -1      2559 2.70086E+01
 -1      2560 8.35248E+00
 -1      2561 1.17224E+01
 -1      2562 3.20538E+01
 -1      2563 3.09831E+01
 -1      2564 9.13579E+00
 -1      2565 9.16249E+00
 -1      2566 6.81531E+00
 -1      2567 9.78891E+00
 -1      2568 7.60941E+00
 -1      2569 8.80113E+00
 -1      2570 5.22309E-01
 -1      2571 5.44280E-01
 -1      2572 4.71493E-01
 -1      2573 4.44317E-01
 -1      2574 9.69195E+00
 -1      2575 8.50744E+00
 -1      2576 5.56338E+00
 -1      2577 6.57465E+00
 -1      2578 9.75587E+00
 -1      2579 1.01244E+01
 -1      2580 2.16046E+01
 -1      2581 2.01363E+01
 -1      2582 1.01998E+01
 -1      2583 6.80536E+00
 -1      2584 8.97118E+00
 -1      2585 9.00560E+00
 -1      2586 1.67475E+01
 -1      2587 1.21455E+01
 -1      2588 8.86225E+00
 -1      2589 3.13833E+01
 -1      2590 2.56235E+01
 -1      2591 3.71430E+01
 -1      2592 3.71430E+01
 -1      2593 2.68612E+01
 -1      2594 3.20021E+01
 -1      2595 1.96996E+01
 -1      2596 2.20140E+01
 -1      2597 1.22727E+01
 -1      2598 1.68678E+01
 -1      2599 9.01959E+00
 -1      2600 6.14392E+00
 -1      2601 5.66325E+00
 -1      2602 8.50833E+00
 -1      2603 6.42942E+00
 -1      2604 8.07176E+00
 -1      2605 7.07864E+00
 -1      2606 7.75556E+00
 -1      2607 8.52544E+00
 -1      2608 5.50792E+00
 -1      2609 6.61329E+00
 -1      2610 5.98839E+00
 -1      2611 1.41741E+01
 -1      2612 1.01563E+01
 -1      2613 2.26697E+01
 -1      2614 1.62191E+01
 -1      2615 7.44039E+00
 -1      2616 6.51355E+00
 -1      2617 1.62281E+00
 -1      2618 1.76591E+00
 -1      2619 1.32802E+00
 -1      2620 1.19073E+00
 -1      2621 6.47970E+00
 -1      2622 5.10048E-01
 -1      2623 6.48887E-01
 -1      2624 7.10762E-01
 -1      2625 8.02945E-01
 -1      2626 1.24345E+00
 -1      2627 6.86807E-01
 -1      2628 7.65032E-01
 -1      2629 6.70733E-01
 -1      2630 4.86093E-01
 -1      2631 8.33710E+00
 -1      2632 7.03492E+00
 -1      2633 6.26217E+00
 -1      2634 2.67129E+01
 -1      2635 1.84139E+01
 -1      2636 3.90890E-01
 -1      2637 3.90890E-01
 -1      2638 1.43351E+01
 -1      2639 3.20538E+01
 -1      2640 9.67166E-01
 -1      2641 1.24721E+01
 -1      2642 1.20926E+01
 -1      2643 8.07787E+00
 -1      2644 2.20140E+01
 -1      2645 1.78295E+01
 -1      2646 2.68679E+01
 -1      2647 8.16006E+00
 -1      2648 3.20021E+01
 -1      2649 1.41968E+01
 -1      2650 2.08396E+01
 -1      2651 2.08396E+01
 -1      2652 1.68207E+01
 -1      2653 5.38371E+00
 -1      2654 7.45685E+00
 -1      2655 5.46735E+00
 -1      2656 7.74102E+00
 -1      2657 5.67457E+00
 -1      2658 2.27843E-01
 -1      2659 2.15718E-01
 -1      2660 2.27407E-01
 -1      2661 2.67313E-01
 -1      2662 5.30439E+00
 -1      2663 7.97917E+00
 -1      2664 3.13833E+01
 -1      2665 5.16637E+00
 -1      2666 5.76762E+00
 -1      2667 1.20300E+01
 -1      2668 4.11752E-01
 -1      2669 2.43955E-01
 -1      2670 4.22463E-01
 -1      2671 4.07823E-01
 -1      2672 4.00103E-01
 -1      2673 3.87308E-01
 -1      2674 3.50787E-01
 -1      2675 4.35835E-01
 -1      2676 4.35835E-01
 -1      2677 4.71083E-01
 -1      2678 4.23657E-01
 -1      2679 3.49332E-01
 -1      2680 7.20357E-01
 -1      2681 7.98271E-01
 -1      2682 1.75291E+01
 -1      2683 2.39407E+01
 -1      2684 6.47899E+00
 -1      2685 5.54515E+00
 -1      2686 5.53955E-01
 -1      2687 4.97540E-01
 -1      2688 4.91050E-01
 -1      2689 4.35124E-01
 -1      2690 3.94597E-01
 -1      2691 4.14627E-01
 -1      2692 3.65415E-01
 -1      2693 3.67609E-01
 -1      2694 3.40361E-01
 -1      2695 3.14566E-01
 -1      2696 3.22059E-01
 -1      2697 2.89179E-01
 -1      2698 2.64915E-01
 -1      2699 2.71618E-01
 -1      2700 2.48447E-01
 -1      2701 2.25496E-01
 -1      2702 2.29764E-01
 -1      2703 2.09277E-01
 -1      2704 1.88686E-01
 -1      2705 1.97077E-01
 -1      2706 1.73228E-01
 -1      2707 1.55312E-01
 -1      2708 1.65400E-01
 -1      2709 1.40531E-01
 -1      2710 1.25134E-01
 -1      2711 1.35161E-01
 -1      2712 1.11051E-01
 -1      2713 9.77085E-02
 -1      2714 1.06298E-01
 -1      2715 8.40219E-02
 -1      2716 7.66514E-02
 -1      2717 7.85279E-02
 -1      2718 7.57793E-02
 -1      2719 8.19279E-02
 -1      2720 6.39691E-02
 -1      2721 9.26087E-02
 -1      2722 1.00806E-01
 -1      2723 7.37777E-02
 -1      2724 1.23997E-01
 -1      2725 1.49041E-01
 -1      2726 1.07649E-01
 -1      2727 1.75486E-01
 -1      2728 2.04167E-01
 -1      2729 1.57285E-01
 -1      2730 2.34018E-01
 -1      2731 2.64992E-01
 -1      2732 2.13581E-01
 -1      2733 2.97872E-01
 -1      2734 3.29386E-01
 -1      2735 2.76312E-01
 -1      2736 3.64095E-01
 -1      2737 3.92991E-01
 -1      2738 3.43902E-01
 -1      2739 4.27361E-01
 -1      2740 4.53199E-01
 -1      2741 4.12982E-01
 -1      2742 4.82635E-01
 -1      2743 5.04743E-01
 -1      2744 4.76788E-01
 -1      2745 5.49572E-01
 -1      2746 5.72539E-01
 -1      2747 5.51053E-01
 -1      2748 6.20140E-01
 -1      2749 6.25075E-01
 -1      2750 6.43483E-01
 -1      2751 6.59907E-01
 -1      2752 6.69163E-01
 -1      2753 7.25915E-01
 -1      2754 7.28070E-01
 -1      2755 7.85540E-01
 -1      2756 8.19654E-01
 -1      2757 8.73156E-01
 -1      2758 9.11208E-01
 -1      2759 9.66177E-01
 -1      2760 1.06105E+00
 -1      2761 1.19737E+00
 -1      2762 1.20364E+00
 -1      2763 1.21211E+00
 -1      2764 1.30894E+00
 -1      2765 1.36822E+00
 -1      2766 1.32541E+00
 -1      2767 1.41585E+00
 -1      2768 1.39943E+00
 -1      2769 1.70028E+00
 -1      2770 1.81521E+00
 -1      2771 1.70033E+00
 -1      2772 1.98629E+00
 -1      2773 1.91114E+00
 -1      2774 2.15585E+00
 -1      2775 1.91353E+00
 -1      2776 1.99277E+00
 -1      2777 2.32932E+00
 -1      2778 1.72614E+00
 -1      2779 1.59087E+00
 -1      2780 2.06508E+00
 -1      2781 1.39776E+00
 -1      2782 1.31594E+00
 -1      2783 1.60534E+00
 -1      2784 1.28561E+00
 -1      2785 1.19390E+00
 -1      2786 1.38190E+00
 -1      2787 1.13536E+00
 -1      2788 9.95986E-01
 -1      2789 1.29303E+00
 -1      2790 9.01678E-01
 -1      2791 8.62108E-01
 -1      2792 1.14017E+00
 -1      2793 7.53576E-01
 -1      2794 6.95396E-01
 -1      2795 9.37333E-01
 -1      2796 6.18482E-01
 -1      2797 5.75919E-01
 -1      2798 7.51888E-01
 -1      2799 5.31564E-01
 -1      2800 5.16131E-01
 -1      2801 6.30620E-01
 -1      2802 4.62585E-01
 -1      2803 4.31319E-01
 -1      2804 5.32719E-01
 -1      2805 3.85330E-01
 -1      2806 3.59228E-01
 -1      2807 4.33185E-01
 -1      2808 3.91901E-01
 -1      2809 3.62367E-01
 -1      2810 4.19869E-01
 -1      2811 3.57043E-01
 -1      2812 3.89312E-01
 -1      2813 4.71983E+00
 -1      2814 4.61157E+00
 -1      2815 6.83399E+00
 -1      2816 9.31779E+00
 -1      2817 4.23651E-01
 -1      2818 4.76449E-01
 -1      2819 3.66975E-01
 -1      2820 2.53885E-01
 -1      2821 2.81386E-01
 -1      2822 2.12745E-01
 -1      2823 2.35585E-01
 -1      2824 2.24485E-01
 -1      2825 1.76040E-01
 -1      2826 1.95506E-01
 -1      2827 1.88945E-01
 -1      2828 1.43738E-01
 -1      2829 1.60289E-01
 -1      2830 1.55955E-01
 -1      2831 1.16743E-01
 -1      2832 1.29387E-01
 -1      2833 1.25853E-01
 -1      2834 9.32283E-02
 -1      2835 1.03320E-01
 -1      2836 9.80788E-02
 -1      2837 9.99781E-02
 -1      2838 9.16121E-02
 -1      2839 8.30399E-02
 -1      2840 1.20355E-01
 -1      2841 1.08005E-01
 -1      2842 8.94511E-02
 -1      2843 1.79160E-01
 -1      2844 1.49876E-01
 -1      2845 1.27000E-01
 -1      2846 2.60174E-01
 -1      2847 2.15667E-01
 -1      2848 1.93028E-01
 -1      2849 3.62015E-01
 -1      2850 3.05731E-01
 -1      2851 2.75093E-01
 -1      2852 4.89232E-01
 -1      2853 4.18949E-01
 -1      2854 3.77584E-01
 -1      2855 6.45848E-01
 -1      2856 5.60114E-01
 -1      2857 5.05400E-01
 -1      2858 8.34238E-01
 -1      2859 7.33454E-01
 -1      2860 6.63888E-01
 -1      2861 1.05325E+00
 -1      2862 9.41428E-01
 -1      2863 8.58683E-01
 -1      2864 1.29539E+00
 -1      2865 1.18259E+00
 -1      2866 1.09522E+00
 -1      2867 1.54304E+00
 -1      2868 1.44795E+00
 -1      2869 1.37712E+00
 -1      2870 1.79678E+00
 -1      2871 1.71491E+00
 -1      2872 1.70156E+00
 -1      2873 2.13064E+00
 -1      2874 1.96914E+00
 -1      2875 2.04580E+00
 -1      2876 2.58569E+00
 -1      2877 2.43244E+00
 -1      2878 2.51997E+00
 -1      2879 3.19151E+00
 -1      2880 3.11051E+00
 -1      2881 3.34659E+00
 -1      2882 3.79138E+00
 -1      2883 3.42651E+00
 -1      2884 4.10641E+00
 -1      2885 4.63891E+00
 -1      2886 2.94218E+00
 -1      2887 7.61423E+00
 -1      2888 7.14102E+00
 -1      2889 5.78688E+00
 -1      2890 7.18181E+00
 -1      2891 3.31577E+00
 -1      2892 4.02701E+00
 -1      2893 3.55646E+00
 -1      2894 3.50449E+00
 -1      2895 3.73870E+00
 -1      2896 3.15945E+00
 -1      2897 3.28830E+00
 -1      2898 4.17531E+00
 -1      2899 2.54369E+00
 -1      2900 2.68620E+00
 -1      2901 3.48587E+00
 -1      2902 1.99934E+00
 -1      2903 2.17003E+00
 -1      2904 2.63896E+00
 -1      2905 1.70727E+00
 -1      2906 1.81356E+00
 -1      2907 2.07952E+00
 -1      2908 1.42928E+00
 -1      2909 1.52404E+00
 -1      2910 1.71051E+00
 -1      2911 1.14402E+00
 -1      2912 1.26364E+00
 -1      2913 1.36164E+00
 -1      2914 8.77962E-01
 -1      2915 1.00079E+00
 -1      2916 1.05276E+00
 -1      2917 6.39877E-01
 -1      2918 7.54876E-01
 -1      2919 7.86447E-01
 -1      2920 4.76226E-01
 -1      2921 5.66119E-01
 -1      2922 5.89602E-01
 -1      2923 4.51370E-01
 -1      2924 4.65705E-01
 -1      2925 4.73089E-01
 -1      2926 3.21604E-01
 -1      2927 2.93367E-01
 -1      2928 4.11779E-01
 -1      2929 4.98748E-01
 -1      2930 4.96002E-01
 -1      2931 4.52237E-01
 -1      2932 4.65705E-01
 -1      2933 5.24556E-01
 -1      2934 4.98748E-01
 -1      2935 4.98748E-01
 -1      2936 5.75874E-01
 -1      2937 5.50215E-01
 -1      2938 5.10177E-01
 -1      2939 5.89172E-01
 -1      2940 4.35042E-01
 -1      2941 3.71062E-01
 -1      2942 4.10626E-01
 -1      2943 4.82945E-01
 -1      2944 2.63311E-01
 -1      2945 3.11606E-01
 -1      2946 3.81879E-01
 -1      2947 3.45819E-01
 -1      2948 3.28371E-01
 -1      2949 3.87482E-01
 -1      2950 1.71098E+01
 -1      2951 1.27709E+01
 -1      2952 8.28578E-01
 -1      2953 1.52351E+01
 -1      2954 2.00823E+01
 -1      2955 7.26638E+00
 -1      2956 7.07507E+00
 -1      2957 5.58530E+00
 -1      2958 8.47845E+00
 -1      2959 6.83047E+00
 -1      2960 1.06436E+01
 -1      2961 1.34753E+01
 -1      2962 2.04516E+01
 -1      2963 2.55925E+01
 -1      2964 4.02412E+00
 -1      2965 5.17618E+00
 -1      2966 5.47439E+00
 -1      2967 3.91998E+00
 -1      2968 4.95474E+00
 -1      2969 2.99574E-01
 -1      2970 3.30306E-01
 -1      2971 3.05898E-01
 -1      2972 2.60973E-01
 -1      2973 6.03968E-01
 -1      2974 5.55205E-01
 -1      2975 4.02338E-01
 -1      2976 2.27806E+01
 -1      2977 1.86655E+01
 -1      2978 1.30225E+01
 -1      2979 6.14571E-01
 -1      2980 7.07942E-01
 -1      2981 5.31982E-01
 -1      2982 4.94169E-01
 -1      2983 6.44546E+00
 -1      2984 7.05581E+00
 -1      2985 4.35835E-01
 -1      2986 4.23965E-01
 -1      2987 3.60008E-01
 -1      2988 3.61510E-01
 -1      2989 3.05056E-01
 -1      2990 4.79381E+00
 -1      2991 5.85985E+00
 -1      2992 4.23007E-01
 -1      2993 4.35081E-01
 -1      2994 8.93331E+00
 -1      2995 6.98759E+00
 -1      2996 4.54835E+00
 -1      2997 3.61363E+00
 -1      2998 1.34408E+01
 -1      2999 1.00519E+01
 -1      3000 1.36248E+01
 -1      3001 1.60966E+01
 -1      3002 2.22780E+01
 -1      3003 2.12072E+01
 -1      3004 2.67944E+01
 -1      3005 2.10347E+01
 -1      3006 5.31349E+00
 -1      3007 4.39199E+00
 -1      3008 5.81191E+00
 -1      3009 4.56993E+00
 -1      3010 4.27054E+00
 -1      3011 5.41282E+00
 -1      3012 6.23417E-01
 -1      3013 5.85927E-01
 -1      3014 3.85548E-01
 -1      3015 4.14822E-01
 -1      3016 1.11069E+01
 -1      3017 9.06192E+00
 -1      3018 9.80278E+00
 -1      3019 4.35081E-01
 -1      3020 4.35081E-01
 -1      3021 3.60114E-01
 -1      3022 3.42864E-01
 -1      3023 3.87104E-01
 -1      3024 3.99873E-01
 -1      3025 4.72761E+00
 -1      3026 1.26110E+01
 -1      3027 2.17948E+01
 -1      3028 1.09483E+01
 -1      3029 1.03597E+01
 -1      3030 3.99242E+00
 -1      3031 3.05056E-01
 -1      3032 5.46704E-01
 -1      3033 4.66832E-01
 -1      3034 4.24961E-01
 -1      3035 4.20925E+00
 -1      3036 8.45801E+00
 -1      3037 3.97431E+00
 -1      3038 4.52434E+00
 -1      3039 6.18629E+00
 -1      3040 3.59214E+00
 -1      3041 3.88983E-01
 -1      3042 4.16236E-01
 -1      3043 4.80711E-01
 -1      3044 4.81556E-01
 -1      3045 5.97082E+00
 -1      3046 3.81642E+00
 -1      3047 5.88296E+00
 -1      3048 4.11779E-01
 -1      3049 5.45484E+00
 -1      3050 5.74704E-01
 -1      3051 1.52439E+01
 -1      3052 3.40610E+00
 -1      3053 1.31773E+01
 -1      3054 1.12455E+01
 -1      3055 9.48577E+00
 -1      3056 1.36726E+01
 -1      3057 7.55529E+00
 -1      3058 1.62507E+01
 -1      3059 4.39149E+00
 -1      3060 3.73870E+00
 -1      3061 4.05731E+00
 -1      3062 5.78688E+00
 -1      3063 1.35047E+01
 -1      3064 9.35974E+00
 -1      3065 1.27396E+01
 -1      3066 1.30048E+01
 -1      3067 4.07366E-01
 -1      3068 4.21773E-01
 -1      3069 3.58880E-01
 -1      3070 3.50153E-01
 -1      3071 8.17726E+00
 -1      3072 1.33243E+01
 -1      3073 4.40776E-01
 -1      3074 1.16035E+01
 -1      3075 1.28054E+01
 -1      3076 2.88577E-01
 -1      3077 3.00755E-01
 -1      3078 3.88565E-01
 -1      3079 3.64610E-01
 -1      3080 3.17294E-01
 -1      3081 3.13598E-01
 -1      3082 3.28829E-01
 -1      3083 3.27578E-01
 -1      3084 3.23010E-01
 -1      3085 3.02513E-01
 -1      3086 2.98874E-01
 -1      3087 2.73820E-01
 -1      3088 2.54274E-01
 -1      3089 2.62390E-01
 -1      3090 2.37004E-01
 -1      3091 2.39206E-01
 -1      3092 2.21886E-01
 -1      3093 2.05418E-01
 -1      3094 2.12658E-01
 -1      3095 1.91661E-01
 -1      3096 1.75443E-01
 -1      3097 1.83784E-01
 -1      3098 1.63227E-01
 -1      3099 1.47768E-01
 -1      3100 1.57811E-01
 -1      3101 1.34214E-01
 -1      3102 1.19433E-01
 -1      3103 1.32040E-01
 -1      3104 1.05211E-01
 -1      3105 9.11283E-02
 -1      3106 1.04264E-01
 -1      3107 7.64128E-02
 -1      3108 6.27261E-02
 -1      3109 7.53265E-02
 -1      3110 5.58391E-02
 -1      3111 5.49670E-02
 -1      3112 5.37240E-02
 -1      3113 6.07971E-02
 -1      3114 7.14780E-02
 -1      3115 5.26672E-02
 -1      3116 8.97638E-02
 -1      3117 1.12955E-01
 -1      3118 7.67832E-02
 -1      3119 1.35444E-01
 -1      3120 1.61888E-01
 -1      3121 1.17558E-01
 -1      3122 1.87882E-01
 -1      3123 2.17732E-01
 -1      3124 1.66040E-01
 -1      3125 2.50794E-01
 -1      3126 2.83674E-01
 -1      3127 2.25095E-01
 -1      3128 3.22402E-01
 -1      3129 3.57111E-01
 -1      3130 2.96883E-01
 -1      3131 4.00659E-01
 -1      3132 4.35028E-01
 -1      3133 3.79158E-01
 -1      3134 4.81345E-01
 -1      3135 5.10782E-01
 -1      3136 4.69022E-01
 -1      3137 5.62738E-01
 -1      3138 6.07567E-01
 -1      3139 5.67296E-01
 -1      3140 6.67860E-01
 -1      3141 7.15460E-01
 -1      3142 6.79545E-01
 -1      3143 8.08582E-01
 -1      3144 8.43414E-01
 -1      3145 8.32959E-01
 -1      3146 9.34719E-01
 -1      3147 9.93627E-01
 -1      3148 1.01739E+00
 -1      3149 1.07477E+00
 -1      3150 1.16238E+00
 -1      3151 1.18983E+00
 -1      3152 1.20364E+00
 -1      3153 1.35348E+00
 -1      3154 1.31223E+00
 -1      3155 1.49357E+00
 -1      3156 1.50831E+00
 -1      3157 1.49357E+00
 -1      3158 1.74236E+00
 -1      3159 1.75883E+00
 -1      3160 1.86771E+00
 -1      3161 1.81459E+00
 -1      3162 2.09902E+00
 -1      3163 2.15752E+00
 -1      3164 3.48192E+00
 -1      3165 3.65301E+00
 -1      3166 3.59618E+00
 -1      3167 3.73910E+00
 -1      3168 3.74149E+00
 -1      3169 5.06518E+00
 -1      3170 2.72412E+00
 -1      3171 2.45749E+00
 -1      3172 4.13390E+00
 -1      3173 1.95221E+00
 -1      3174 1.75910E+00
 -1      3175 2.61125E+00
 -1      3176 1.81784E+00
 -1      3177 1.78751E+00
 -1      3178 2.16471E+00
 -1      3179 1.62914E+00
 -1      3180 1.57059E+00
 -1      3181 2.06507E+00
 -1      3182 1.39342E+00
 -1      3183 1.29912E+00
 -1      3184 1.72954E+00
 -1      3185 1.12155E+00
 -1      3186 1.01302E+00
 -1      3187 1.37480E+00
 -1      3188 9.19815E-01
 -1      3189 8.42902E-01
 -1      3190 1.10403E+00
 -1      3191 7.42168E-01
 -1      3192 6.97813E-01
 -1      3193 9.10095E-01
 -1      3194 6.06943E-01
 -1      3195 5.53397E-01
 -1      3196 7.18491E-01
 -1      3197 4.93466E-01
 -1      3198 4.47477E-01
 -1      3199 5.67690E-01
 -1      3200 4.19869E-01
 -1      3201 4.52542E-01
 -1      3202 4.80150E-01
 -1      3203 8.86846E+00
 -1      3204 7.20443E+00
 -1      3205 5.28698E-01
 -1      3206 5.70309E-01
 -1      3207 1.65550E-01
 -1      3208 1.82790E-01
 -1      3209 1.97162E-01
 -1      3210 2.15462E-01
 -1      3211 1.73767E-01
 -1      3212 1.04723E-01
 -1      3213 1.19074E-01
 -1      3214 7.72623E-02
 -1      3215 9.06850E-02
 -1      3216 8.39069E-02
 -1      3217 6.19480E-02
 -1      3218 6.35641E-02
 -1      3219 5.61704E-02
 -1      3220 7.76965E-02
 -1      3221 6.96691E-02
 -1      3222 5.01934E-02
 -1      3223 1.30071E-01
 -1      3224 1.00550E-01
 -1      3225 8.07684E-02
 -1      3226 1.95335E-01
 -1      3227 1.58827E-01
 -1      3228 1.32378E-01
 -1      3229 2.80793E-01
 -1      3230 2.35236E-01
 -1      3231 2.01035E-01
 -1      3232 3.88969E-01
 -1      3233 3.32035E-01
 -1      3234 2.92178E-01
 -1      3235 5.25192E-01
 -1      3236 4.54310E-01
 -1      3237 4.08761E-01
 -1      3238 6.95266E-01
 -1      3239 6.07661E-01
 -1      3240 5.56571E-01
 -1      3241 9.04653E-01
 -1      3242 7.97463E-01
 -1      3243 7.41236E-01
 -1      3244 1.15669E+00
 -1      3245 1.02734E+00
 -1      3246 9.66125E-01
 -1      3247 1.45890E+00
 -1      3248 1.30634E+00
 -1      3249 1.23847E+00
 -1      3250 1.84434E+00
 -1      3251 1.67246E+00
 -1      3252 1.60169E+00
 -1      3253 2.34757E+00
 -1      3254 2.17520E+00
 -1      3255 2.14611E+00
 -1      3256 3.17173E+00
 -1      3257 2.86993E+00
 -1      3258 2.99933E+00
 -1      3259 4.38728E+00
 -1      3260 3.86247E+00
 -1      3261 4.21243E+00
 -1      3262 4.13311E-01
 -1      3263 3.09690E-01
 -1      3264 2.61112E-01
 -1      3265 4.00897E-01
 -1      3266 5.08774E+00
 -1      3267 5.56099E+00
 -1      3268 6.56687E+00
 -1      3269 6.78306E+00
 -1      3270 6.78306E+00
 -1      3271 8.16874E+00
 -1      3272 2.27560E+00
 -1      3273 2.46138E+00
 -1      3274 1.69260E+00
 -1      3275 1.87582E+00
 -1      3276 2.25768E+00
 -1      3277 1.27992E+00
 -1      3278 1.44556E+00
 -1      3279 1.61087E+00
 -1      3280 9.72947E-01
 -1      3281 1.11618E+00
 -1      3282 1.20010E+00
 -1      3283 7.07120E-01
 -1      3284 8.30205E-01
 -1      3285 8.93620E-01
 -1      3286 5.30181E-01
 -1      3287 6.03940E-01
 -1      3288 6.47699E-01
 -1      3289 4.95048E-01
 -1      3290 3.23414E-01
 -1      3291 3.15694E-01
 -1      3292 8.25142E+00
 -1      3293 3.55221E-01
 -1      3294 3.88950E-01
 -1      3295 6.04688E-01
 -1      3296 6.04688E-01
 -1      3297 6.50441E-01
 -1      3298 4.78434E-01
 -1      3299 4.13374E-01
 -1      3300 5.45576E+00
 -1      3301 5.66633E+00
 -1      3302 7.05654E+00
 -1      3303 6.47307E+00
 -1      3304 1.12342E+01
 -1      3305 1.16035E+01
 -1      3306 2.65298E+00
 -1      3307 3.06347E+00
 -1      3308 5.70003E+00
 -1      3309 4.43275E-01
 -1      3310 5.02731E-01
 -1      3311 5.90094E-01
 -1      3312 5.34226E-01
 -1      3313 4.07377E+00
 -1      3314 5.73157E+00
 -1      3315 3.02277E+00
 -1      3316 3.39643E+00
 -1      3317 5.47155E+00
 -1      3318 4.11848E+00
 -1      3319 3.12168E+00
 -1      3320 3.69497E+00
 -1      3321 4.72761E+00
 -1      3322 1.34567E-01
 -1      3323 1.50318E-01
 -1      3324 1.44162E-01
 -1      3325 1.13438E-01
 -1      3326 5.75201E+00
 -1      3327 4.23503E+00
 -1      3328 3.11118E-01
 -1      3329 3.45457E-01
 -1      3330 2.99364E-01
 -1      3331 3.18544E-01
 -1      3332 3.12054E-01
 -1      3333 2.46957E-01
 -1      3334 1.00884E+01
 -1      3335 1.16617E+01
 -1      3336 6.28704E+00
 -1      3337 7.61285E+00
 -1      3338 8.56137E+00
 -1      3339 7.44277E+00
 -1      3340 6.08415E+00
 -1      3341 8.62526E+00
 -1      3342 1.15705E+01
 -1      3343 1.00148E+01
 -1      3344 7.41648E+00
 -1      3345 1.08541E+01
 -1      3346 1.22866E+01
 -1      3347 3.15832E+00
 -1      3348 3.03687E+00
 -1      3349 3.03687E+00
 -1      3350 1.37048E+01
 -1      3351 1.35097E+01
 -1      3352 3.12574E-01
 -1      3353 3.12370E-01
 -1      3354 2.85201E-01
 -1      3355 2.60129E-01
 -1      3356 3.20884E-01
 -1      3357 3.20884E-01
 -1      3358 1.12436E+01
 -1      3359 9.09770E+00
 -1      3360 8.77331E+00
 -1      3361 8.65411E+00
 -1      3362 6.12222E+00
 -1      3363 6.23649E-01
 -1      3364 5.94480E-01
 -1      3365 4.88642E+00
 -1      3366 3.45549E+00
 -1      3367 2.03075E-01
 -1      3368 2.30398E-01
 -1      3369 2.48586E-01
 -1      3370 5.84915E+00
 -1      3371 6.36503E+00
 -1      3372 9.89942E+00
 -1      3373 7.83028E+00
 -1      3374 7.84163E+00
 -1      3375 8.48959E+00
 -1      3376 9.49547E+00
 -1      3377 3.23414E-01
 -1      3378 2.88321E-01
 -1      3379 3.24916E-01
 -1      3380 6.47470E-01
 -1      3381 6.47470E-01
 -1      3382 6.95245E-01
 -1      3383 4.52542E-01
 -1      3384 9.00108E+00
 -1      3385 4.52542E-01
 -1      3386 4.78434E-01
 -1      3387 6.21811E-01
 -1      3388 6.47470E-01
 -1      3389 7.19065E-01
 -1      3390 7.01943E-01
 -1      3391 5.58023E+00
 -1      3392 2.45035E-01
 -1      3393 3.21885E+00
 -1      3394 5.25326E+00
 -1      3395 1.05332E+01
 -1      3396 7.73798E+00
 -1      3397 7.43993E+00
 -1      3398 5.56701E+00
 -1      3399 4.98415E+00
 -1      3400 9.16502E+00
 -1      3401 3.32065E+00
 -1      3402 1.01937E+01
 -1      3403 2.77905E+00
 -1      3404 2.94451E-01
 -1      3405 2.72932E-01
 -1      3406 2.67713E-01
 -1      3407 3.71071E-01
 -1      3408 3.96470E-01
 -1      3409 2.77799E-01
 -1      3410 2.91250E-01
 -1      3411 9.38225E+00
 -1      3412 8.03923E+00
 -1      3413 8.89909E+00
 -1      3414 3.23402E-01
 -1      3415 3.24636E-01
 -1      3416 3.35335E-01
 -1      3417 1.00644E+01
 -1      3418 3.20994E-01
 -1      3419 3.20994E-01
 -1      3420 2.85516E-01
 -1      3421 2.60575E-01
 -1      3422 7.93999E+00
 -1      3423 8.83936E+00
 -1      3424 3.73609E+00
 -1      3425 4.29156E+00
 -1      3426 2.16926E-01
 -1      3427 2.05497E-01
 -1      3428 2.01138E-01
 -1      3429 1.86021E-01
 -1      3430 1.78859E-01
 -1      3431 1.77013E-01
 -1      3432 1.63256E-01
 -1      3433 1.65493E-01
 -1      3434 1.52487E-01
 -1      3435 1.40271E-01
 -1      3436 1.45717E-01
 -1      3437 1.31478E-01
 -1      3438 1.17924E-01
 -1      3439 1.26155E-01
 -1      3440 1.07370E-01
 -1      3441 9.31486E-02
 -1      3442 1.06808E-01
 -1      3443 8.14879E-02
 -1      3444 6.67724E-02
 -1      3445 8.45945E-02
 -1      3446 6.46925E-02
 -1      3447 5.78055E-02
 -1      3448 7.08539E-02
 -1      3449 5.96584E-02
 -1      3450 6.54885E-02
 -1      3451 7.06269E-02
 -1      3452 7.67832E-02
 -1      3453 9.50689E-02
 -1      3454 8.37743E-02
 -1      3455 1.17558E-01
 -1      3456 1.40047E-01
 -1      3457 1.17558E-01
 -1      3458 1.66040E-01
 -1      3459 1.92033E-01
 -1      3460 1.66040E-01
 -1      3461 2.21485E-01
 -1      3462 2.54546E-01
 -1      3463 2.21485E-01
 -1      3464 2.86790E-01
 -1      3465 3.25518E-01
 -1      3466 2.83180E-01
 -1      3467 3.63009E-01
 -1      3468 4.06556E-01
 -1      3469 3.52916E-01
 -1      3470 4.53708E-01
 -1      3471 5.00025E-01
 -1      3472 4.37559E-01
 -1      3473 5.65646E-01
 -1      3474 6.17602E-01
 -1      3475 5.50332E-01
 -1      3476 7.10545E-01
 -1      3477 7.70837E-01
 -1      3478 7.08894E-01
 -1      3479 8.76650E-01
 -1      3480 9.69772E-01
 -1      3481 9.07650E-01
 -1      3482 1.10224E+00
 -1      3483 1.19355E+00
 -1      3484 1.14593E+00
 -1      3485 1.34737E+00
 -1      3486 1.42851E+00
 -1      3487 1.43223E+00
 -1      3488 2.20611E+00
 -1      3489 2.24736E+00
 -1      3490 2.36364E+00
 -1      3491 2.24736E+00
 -1      3492 2.38745E+00
 -1      3493 1.98438E-01
 -1      3494 1.89404E-01
 -1      3495 3.40575E+00
 -1      3496 2.90047E+00
 -1      3497 2.84504E+00
 -1      3498 2.68667E+00
 -1      3499 1.90671E+00
 -1      3500 1.72954E+00
 -1      3501 2.68667E+00
 -1      3502 2.26662E+00
 -1      3503 2.08905E+00
 -1      3504 2.44379E+00
 -1      3505 1.32598E+00
 -1      3506 1.23277E+00
 -1      3507 2.21779E+00
 -1      3508 1.06174E+00
 -1      3509 9.61008E-01
 -1      3510 1.28369E+00
 -1      3511 8.57406E-01
 -1      3512 7.66535E-01
 -1      3513 1.00905E+00
 -1      3514 6.56881E-01
 -1      3515 5.96950E-01
 -1      3516 7.95796E-01
 -1      3517 5.38943E-01
 -1      3518 5.11335E-01
 -1      3519 5.37227E-01
 -1      3520 6.28134E-01
 -1      3521 7.47718E+00
 -1      3522 7.38592E+00
 -1      3523 3.23402E-01
 -1      3524 2.89158E-01
 -1      3525 3.15909E-01
 -1      3526 5.28045E-02
 -1      3527 6.65027E-02
 -1      3528 7.47913E-02
 -1      3529 8.88297E-02
 -1      3530 7.14254E-02
 -1      3531 9.99094E-02
 -1      3532 7.70556E-02
 -1      3533 1.56827E-01
 -1      3534 1.28071E-01
 -1      3535 1.24358E-01
 -1      3536 2.32612E-01
 -1      3537 1.92710E-01
 -1      3538 1.88403E-01
 -1      3539 3.29596E-01
 -1      3540 2.78353E-01
 -1      3541 2.70029E-01
 -1      3542 4.53609E-01
 -1      3543 3.88267E-01
 -1      3544 3.74443E-01
 -1      3545 6.11675E-01
 -1      3546 5.29207E-01
 -1      3547 5.08713E-01
 -1      3548 8.11753E-01
 -1      3549 7.09556E-01
 -1      3550 6.82193E-01
 -1      3551 1.06219E+00
 -1      3552 9.39499E-01
 -1      3553 9.07820E-01
 -1      3554 1.37942E+00
 -1      3555 1.22976E+00
 -1      3556 1.20314E+00
 -1      3557 1.81525E+00
 -1      3558 1.60169E+00
 -1      3559 1.59298E+00
 -1      3560 2.46567E+00
 -1      3561 2.13481E+00
 -1      3562 2.13481E+00
 -1      3563 4.44781E+00
 -1      3564 3.92545E+00
 -1      3565 3.91415E+00
 -1      3566 5.80907E+00
 -1      3567 5.11833E+00
 -1      3568 6.04445E+00
 -1      3569 4.43839E+00
 -1      3570 7.16339E+00
 -1      3571 6.78926E+00
 -1      3572 5.64289E+00
 -1      3573 1.19733E+00
 -1      3574 1.36107E+00
 -1      3575 2.15757E+00
 -1      3576 2.55734E+00
 -1      3577 8.74638E-01
 -1      3578 1.01738E+00
 -1      3579 1.17835E+00
 -1      3580 7.30519E-01
 -1      3581 7.64898E-01
 -1      3582 1.97565E-01
 -1      3583 2.08521E-01
 -1      3584 1.50969E-01
 -1      3585 8.11892E+00
 -1      3586 8.11892E+00
 -1      3587 5.36590E+00
 -1      3588 5.21801E+00
 -1      3589 4.73867E+00
 -1      3590 1.60585E+00
 -1      3591 1.85288E+00
 -1      3592 2.15254E+00
 -1      3593 1.60308E+00
 -1      3594 4.11342E+00
 -1      3595 5.98291E-01
 -1      3596 5.62313E-01
 -1      3597 6.11783E-01
 -1      3598 6.75236E-01
 -1      3599 2.49685E-01
 -1      3600 2.59450E-01
 -1      3601 6.32793E-02
 -1      3602 5.55582E-02
 -1      3603 6.58905E-02
 -1      3604 8.24204E-02
 -1      3605 1.54500E-01
 -1      3606 1.68872E-01
 -1      3607 2.91464E+00
 -1      3608 3.47603E+00
 -1      3609 2.81453E+00
 -1      3610 6.17374E+00
 -1      3611 7.50047E+00
 -1      3612 6.45746E+00
 -1      3613 4.48243E+00
 -1      3614 3.07091E-01
 -1      3615 2.24237E+00
 -1      3616 2.30111E+00
 -1      3617 2.51090E+00
 -1      3618 3.52121E+00
 -1      3619 2.16947E-01
 -1      3620 2.13308E-01
 -1      3621 1.79599E-01
 -1      3622 8.06930E+00
 -1      3623 2.73051E+00
 -1      3624 2.26181E+00
 -1      3625 2.20605E+00
 -1      3626 2.40661E+00
 -1      3627 2.01631E-01
 -1      3628 2.21761E-01
 -1      3629 3.26794E+00
 -1      3630 4.41826E+00
 -1      3631 4.54339E+00
 -1      3632 8.34911E-01
 -1      3633 8.38723E-01
 -1      3634 7.07281E+00
 -1      3635 8.11892E+00
 -1      3636 6.89389E+00
 -1      3637 2.17256E+00
 -1      3638 3.37782E+00
 -1      3639 5.61233E+00
 -1      3640 2.92635E+00
 -1      3641 5.70127E-01
 -1      3642 5.37227E-01
 -1      3643 5.67127E-01
 -1      3644 2.85619E-01
 -1      3645 2.54349E-01
 -1      3646 2.54349E-01
 -1      3647 7.10353E+00
 -1      3648 5.75744E+00
 -1      3649 5.35574E+00
 -1      3650 1.80900E-01
 -1      3651 1.95837E-01
 -1      3652 1.61633E-01
 -1      3653 1.44228E-01
 -1      3654 1.39333E-01
 -1      3655 1.28995E-01
 -1      3656 9.25388E-02
 -1      3657 1.01654E-01
 -1      3658 1.17147E-01
 -1      3659 1.96285E-01
 -1      3660 2.45964E-01
 -1      3661 5.91528E+00
 -1      3662 7.25002E+00
 -1      3663 6.20392E+00
 -1      3664 2.84290E-01
 -1      3665 8.60193E-01
 -1      3666 7.80115E-01
 -1      3667 7.97238E-01
 -1      3668 2.52403E-01
 -1      3669 2.52403E-01
 -1      3670 7.14963E-01
 -1      3671 2.50190E-01
 -1      3672 2.10276E-01
 -1      3673 2.33524E-01
 -1      3674 1.67555E-01
 -1      3675 2.16485E-01
 -1      3676 2.52403E-01
 -1      3677 2.49283E-01
 -1      3678 2.67972E-01
 -1      3679 2.12341E-01
 -1      3680 3.96416E+00
 -1      3681 4.72048E+00
 -1      3682 2.00036E-01
 -1      3683 1.78923E-01
 -1      3684 1.40555E-01
 -1      3685 1.95609E-01
 -1      3686 6.91467E+00
 -1      3687 5.64648E+00
 -1      3688 6.20853E+00
 -1      3689 2.28086E-01
 -1      3690 3.99942E+00
 -1      3691 2.37138E-01
 -1      3692 4.17822E+00
 -1      3693 6.84713E+00
 -1      3694 8.21453E+00
 -1      3695 6.64852E+00
 -1      3696 9.85157E-01
 -1      3697 9.61336E-01
 -1      3698 1.12482E+00
 -1      3699 8.83936E+00
 -1      3700 6.30165E-01
 -1      3701 6.56132E-01
 -1      3702 7.70589E-01
 -1      3703 6.33165E-01
 -1      3704 2.40071E-01
 -1      3705 2.36429E-01
 -1      3706 1.66895E-01
 -1      3707 2.05262E-01
 -1      3708 6.71497E+00
 -1      3709 3.14124E+00
 -1      3710 1.54161E-01
 -1      3711 1.45153E-01
 -1      3712 1.39645E-01
 -1      3713 1.28876E-01
 -1      3714 1.28312E-01
 -1      3715 1.20730E-01
 -1      3716 1.11937E-01
 -1      3717 1.14658E-01
 -1      3718 1.05504E-01
 -1      3719 9.49512E-02
 -1      3720 1.00080E-01
 -1      3721 8.80592E-02
 -1      3722 7.63985E-02
 -1      3723 8.67553E-02
 -1      3724 7.78690E-02
 -1      3725 7.57891E-02
 -1      3726 8.13337E-02
 -1      3727 7.82973E-02
 -1      3728 8.01502E-02
 -1      3729 8.53124E-02
 -1      3730 8.46908E-02
 -1      3731 9.59854E-02
 -1      3732 9.23613E-02
 -1      3733 1.11584E-01
 -1      3734 1.34073E-01
 -1      3735 1.12500E-01
 -1      3736 1.58747E-01
 -1      3737 1.84740E-01
 -1      3738 1.52773E-01
 -1      3739 2.14415E-01
 -1      3740 2.43866E-01
 -1      3741 2.07122E-01
 -1      3742 2.79238E-01
 -1      3743 3.11482E-01
 -1      3744 2.72168E-01
 -1      3745 3.52916E-01
 -1      3746 3.90407E-01
 -1      3747 3.48973E-01
 -1      3748 4.37559E-01
 -1      3749 4.84711E-01
 -1      3750 4.37559E-01
 -1      3751 5.43630E-01
 -1      3752 6.09250E-01
 -1      3753 5.43630E-01
 -1      3754 6.95790E-01
 -1      3755 7.88732E-01
 -1      3756 6.89088E-01
 -1      3757 9.26422E-01
 -1      3758 1.03224E+00
 -1      3759 9.13318E-01
 -1      3760 1.23896E+00
 -1      3761 1.37143E+00
 -1      3762 1.25774E+00
 -1      3763 1.98113E+00
 -1      3764 2.13496E+00
 -1      3765 2.07416E+00
 -1      3766 2.65678E+00
 -1      3767 3.43437E+00
 -1      3768 3.20568E+00
 -1      3769 3.99942E+00
 -1      3770 2.98086E+00
 -1      3771 2.21779E+00
 -1      3772 1.85480E+00
 -1      3773 1.68377E+00
 -1      3774 2.61787E+00
 -1      3775 1.33094E+00
 -1      3776 1.22734E+00
 -1      3777 1.90205E+00
 -1      3778 9.87393E-01
 -1      3779 8.77738E-01
 -1      3780 1.30928E+00
 -1      3781 6.86141E-01
 -1      3782 6.28134E-01
 -1      3783 6.28134E-01
 -1      3784 8.77738E-01
 -1      3785 1.74386E-01
 -1      3786 1.60900E-01
 -1      3787 2.06404E-01
 -1      3788 1.70520E-01
 -1      3789 1.41434E-01
 -1      3790 1.13272E-01
 -1      3791 1.59434E-01
 -1      3792 3.94339E-01
 -1      3793 3.35667E-01
 -1      3794 5.30322E-01
 -1      3795 4.54724E-01
 -1      3796 4.15948E-01
 -1      3797 7.07481E-01
 -1      3798 6.09600E-01
 -1      3799 5.55610E-01
 -1      3800 9.41967E-01
 -1      3801 8.14221E-01
 -1      3802 7.41628E-01
 -1      3803 1.25995E+00
 -1      3804 1.09238E+00
 -1      3805 9.98778E-01
 -1      3806 1.70174E+00
 -1      3807 1.47947E+00
 -1      3808 1.36871E+00
 -1      3809 2.35504E+00
 -1      3810 2.03548E+00
 -1      3811 1.92197E+00
 -1      3812 5.37392E+00
 -1      3813 3.91415E+00
 -1      3814 3.81481E+00
 -1      3815 6.04445E+00
 -1      3816 4.69465E+00
 -1      3817 5.96749E+00
 -1      3818 5.08432E+00
 -1      3819 3.68825E+00
 -1      3820 1.30477E+00
 -1      3821 3.72128E+00
 -1      3822 3.22375E+00
 -1      3823 2.07284E-01
 -1      3824 2.26411E-01
 -1      3825 1.85109E-01
 -1      3826 2.44422E-01
 -1      3827 2.48453E-01
 -1      3828 2.12536E-01
 -1      3829 1.85924E-01
 -1      3830 9.85157E-01
 -1      3831 9.85157E-01
 -1      3832 1.06333E+00
 -1      3833 5.14304E+00
 -1      3834 4.54637E+00
 -1      3835 2.50810E-01
 -1      3836 2.54349E-01
 -1      3837 2.19540E-01
 -1      3838 2.18013E-01
 -1      3839 1.75057E-01
 -1      3840 3.46663E+00
 -1      3841 1.72630E-01
 -1      3842 1.81056E-01
 -1      3843 2.61434E+00
 -1      3844 2.97163E+00
 -1      3845 3.48806E+00
 -1      3846 4.13781E+00
 -1      3847 3.86083E+00
 -1      3848 3.12042E+00
 -1      3849 3.66852E+00
 -1      3850 2.88854E-01
 -1      3851 2.43112E-01
 -1      3852 3.08750E-01
 -1      3853 7.05027E-02
 -1      3854 7.87913E-02
 -1      3855 1.59611E-01
 -1      3856 1.55253E-01
 -1      3857 1.34913E-01
 -1      3858 1.50083E-01
 -1      3859 1.53701E-01
 -1      3860 1.30095E-01
 -1      3861 2.68667E+00
 -1      3862 6.04445E+00
 -1      3863 1.55157E-01
 -1      3864 5.09281E+00
 -1      3865 4.51255E+00
 -1      3866 4.35471E+00
 -1      3867 1.78021E-01
 -1      3868 1.42636E-01
 -1      3869 1.78526E-01
 -1      3870 3.22375E+00
 -1      3871 2.25229E-01
 -1      3872 1.43207E-01
 -1      3873 1.55236E-01
 -1      3874 1.17212E-01
 -1      3875 8.24621E-02
 -1      3876 9.52869E-02
 -1      3877 8.15394E-02
 -1      3878 1.12236E-01
 -1      3879 9.51606E-02
 -1      3880 8.13843E-02
 -1      3881 1.33939E-01
 -1      3882 1.27541E-01
 -1      3883 1.23667E-01
 -1      3884 5.43046E+00
 -1      3885 5.43046E+00
 -1      3886 4.56157E+00
 -1      3887 1.02784E+00
 -1      3888 1.04305E+00
 -1      3889 2.02835E-01
 -1      3890 1.88557E-01
 -1      3891 2.03669E-01
 -1      3892 1.86871E-01
 -1      3893 1.86871E-01
 -1      3894 4.85933E+00
 -1      3895 3.79337E+00
 -1      3896 4.29682E+00
 -1      3897 1.99699E+00
 -1      3898 2.30167E+00
 -1      3899 2.45878E+00
 -1      3900 2.07925E-01
 -1      3901 2.07925E-01
 -1      3902 1.91220E-01
 -1      3903 1.57436E+00
 -1      3904 1.81914E+00
 -1      3905 1.96827E+00
 -1      3906 6.12404E+00
 -1      3907 4.99948E+00
 -1      3908 5.43947E+00
 -1      3909 7.64245E-02
 -1      3910 7.36709E-02
 -1      3911 8.91647E-02
 -1      3912 1.25125E+00
 -1      3913 8.10368E-02
 -1      3914 1.52084E+00
 -1      3915 3.43437E+00
 -1      3916 1.01594E+00
 -1      3917 1.09033E+00
 -1      3918 1.27319E+00
 -1      3919 1.77743E-01
 -1      3920 1.48129E-01
 -1      3921 3.56107E+00
 -1      3922 4.70982E+00
 -1      3923 1.67161E-01
 -1      3924 1.38075E-01
 -1      3925 6.22337E+00
 -1      3926 1.07528E-01
 -1      3927 1.13438E-01
 -1      3928 1.09064E-01
 -1      3929 1.00918E-01
 -1      3930 9.51378E-02
 -1      3931 8.87052E-02
 -1      3932 8.95434E-02
 -1      3933 8.97748E-02
 -1      3934 8.28828E-02
 -1      3935 8.48326E-02
 -1      3936 8.52517E-02
 -1      3937 8.67222E-02
 -1      3938 8.82712E-02
 -1      3939 8.93925E-02
 -1      3940 9.19008E-02
 -1      3941 9.33105E-02
 -1      3942 9.67070E-02
 -1      3943 1.01248E-01
 -1      3944 1.00787E-01
 -1      3945 1.08277E-01
 -1      3946 1.23875E-01
 -1      3947 1.12622E-01
 -1      3948 1.38762E-01
 -1      3949 1.63436E-01
 -1      3950 1.34538E-01
 -1      3951 1.89867E-01
 -1      3952 2.19541E-01
 -1      3953 1.75856E-01
 -1      3954 2.53207E-01
 -1      3955 2.88578E-01
 -1      3956 2.35952E-01
 -1      3957 3.31427E-01
 -1      3958 3.72861E-01
 -1      3959 3.12466E-01
 -1      3960 4.27374E-01
 -1      3961 4.74526E-01
 -1      3962 4.09828E-01
 -1      3963 5.43630E-01
 -1      3964 6.02548E-01
 -1      3965 5.33444E-01
 -1      3966 6.89088E-01
 -1      3967 7.75628E-01
 -1      3968 6.89088E-01
 -1      3969 8.97450E-01
 -1      3970 1.03514E+00
 -1      3971 8.97450E-01
 -1      3972 1.21421E+00
 -1      3973 1.42093E+00
 -1      3974 1.19834E+00
 -1      3975 1.91721E+00
 -1      3976 2.52691E+00
 -1      3977 1.87368E+00
 -1      3978 2.72744E+00
 -1      3979 2.36445E+00
 -1      3980 2.86699E+00
 -1      3981 4.37342E+00
 -1      3982 1.73793E-01
 -1      3983 1.95693E-01
 -1      3984 1.90205E+00
 -1      3985 1.54923E+00
 -1      3986 2.01162E+00
 -1      3987 1.30928E+00
 -1      3988 1.23736E+00
 -1      3989 1.06972E+00
 -1      3990 1.25764E+00
 -1      3991 1.04376E-01
 -1      3992 1.16225E-01
 -1      3993 1.10831E-01
 -1      3994 9.42996E-02
 -1      3995 1.40703E+00
 -1      3996 1.40703E+00
 -1      3997 1.67662E+00
 -1      3998 1.41342E+00
 -1      3999 5.41462E-01
 -1      4000 4.62185E-01
 -1      4001 4.09973E-01
 -1      4002 3.49589E-01
 -1      4003 3.95825E-01
 -1      4004 9.61682E-01
 -1      4005 8.11272E-01
 -1      4006 1.32311E+00
 -1      4007 1.10359E+00
 -1      4008 9.16082E-01
 -1      4009 1.97733E+00
 -1      4010 1.64359E+00
 -1      4011 1.37847E+00
 -1      4012 4.50209E+00
 -1      4013 2.94298E+00
 -1      4014 2.66460E+00
 -1      4015 1.30188E-01
 -1      4016 9.92146E-02
 -1      4017 8.25583E-02
 -1      4018 1.35278E-01
 -1      4019 3.72750E+00
 -1      4020 4.37342E+00
 -1      4021 3.70879E+00
 -1      4022 4.05461E+00
 -1      4023 3.28114E+00
 -1      4024 3.23213E+00
 -1      4025 1.23186E-01
 -1      4026 1.32314E-01
 -1      4027 1.26821E-01
 -1      4028 1.43918E-01
 -1      4029 1.62344E-01
 -1      4030 1.73791E-01
 -1      4031 1.18021E-01
 -1      4032 1.12513E-01
 -1      4033 9.87732E-02
 -1      4034 7.17078E-01
 -1      4035 6.10339E-01
 -1      4036 5.16913E-01
 -1      4037 3.08706E-01
 -1      4038 2.61892E-01
 -1      4039 3.02731E-01
 -1      4040 1.76336E-01
 -1      4041 1.83448E-01
 -1      4042 1.51193E-01
 -1      4043 1.53570E-01
 -1      4044 5.35153E+00
 -1      4045 1.73031E-01
 -1      4046 1.76784E-01
 -1      4047 2.06398E-01
 -1      4048 2.07925E-01
 -1      4049 1.50323E-01
 -1      4050 3.03371E+00
 -1      4051 3.75033E+00
 -1      4052 4.62997E+00
 -1      4053 3.70918E+00
 -1      4054 2.29349E-01
 -1      4055 1.92641E-01
 -1      4056 1.71282E-01
 -1      4057 1.18919E-01
 -1      4058 1.17827E-01
 -1      4059 9.63529E-02
 -1      4060 9.52901E-01
 -1      4061 1.01594E+00
 -1      4062 1.33567E+00
 -1      4063 1.01091E+00
 -1      4064 8.71522E-02
 -1      4065 8.39840E-02
 -1      4066 1.30923E-01
 -1      4067 1.23196E-01
 -1      4068 1.05084E-01
 -1      4069 1.00668E-01
 -1      4070 9.45525E-02
 -1      4071 9.82233E-02
 -1      4072 3.04873E+00
 -1      4073 3.20568E+00
 -1      4074 1.44660E+00
 -1      4075 1.38411E+00
 -1      4076 3.72750E+00
 -1      4077 2.63235E+00
 -1      4078 3.13931E+00
 -1      4079 3.06038E+00
 -1      4080 1.12546E-01
 -1      4081 1.21814E-01
 -1      4082 6.79983E-01
 -1      4083 1.38411E+00
 -1      4084 1.41077E+00
 -1      4085 1.55752E+00
 -1      4086 1.20250E+00
 -1      4087 4.10548E+00
 -1      4088 1.80694E+00
 -1      4089 1.98479E+00
 -1      4090 1.69314E+00
 -1      4091 1.26768E-01
 -1      4092 1.33876E-01
 -1      4093 1.11773E-01
 -1      4094 2.29305E-01
 -1      4095 1.02028E-01
 -1      4096 1.51840E-01
 -1      4097 3.00467E+00
 -1      4098 3.28838E+00
 -1      4099 1.96310E-01
 -1      4100 4.21154E+00
 -1      4101 4.29604E+00
 -1      4102 3.50888E+00
 -1      4103 2.87983E+00
 -1      4104 9.69761E-02
 -1      4105 9.20163E-02
 -1      4106 9.49636E-02
 -1      4107 1.07936E-01
 -1      4108 2.14612E+00
 -1      4109 2.45878E+00
 -1      4110 2.72105E+00
 -1      4111 1.98479E+00
 -1      4112 1.44245E+00
 -1      4113 3.72750E+00
 -1      4114 3.56107E+00
 -1      4115 8.48326E-02
 -1      4116 8.59023E-02
 -1      4117 1.02192E-01
 -1      4118 1.04561E-01
 -1      4119 1.02192E-01
 -1      4120 9.33105E-02
 -1      4121 9.59809E-02
 -1      4122 1.07231E-01
 -1      4123 1.00787E-01
 -1      4124 1.05593E-01
 -1      4125 1.00787E-01
 -1      4126 1.12622E-01
 -1      4127 1.19651E-01
 -1      4128 1.12622E-01
 -1      4129 1.43552E-01
 -1      4130 1.58438E-01
 -1      4131 1.43552E-01
 -1      4132 1.79897E-01
 -1      4133 2.06328E-01
 -1      4134 1.88911E-01
 -1      4135 2.42759E-01
 -1      4136 2.76424E-01
 -1      4137 2.46800E-01
 -1      4138 3.26784E-01
 -1      4139 3.69633E-01
 -1      4140 3.33591E-01
 -1      4141 4.40518E-01
 -1      4142 4.95030E-01
 -1      4143 4.54836E-01
 -1      4144 5.96470E-01
 -1      4145 6.65574E-01
 -1      4146 6.27160E-01
 -1      4147 8.12522E-01
 -1      4148 8.99062E-01
 -1      4149 8.75548E-01
 -1      4150 1.11088E+00
 -1      4151 1.23270E+00
 -1      4152 1.23432E+00
 -1      4153 1.23270E+00
 -1      4154 1.41177E+00
 -1      4155 1.44614E+00
 -1      4156 1.75037E+00
 -1      4157 2.24664E+00
 -1      4158 1.78473E+00
 -1      4159 2.48685E+00
 -1      4160 1.05632E-01
 -1      4161 9.99050E-02
 -1      4162 9.81900E-02
 -1      4163 7.51388E-01
 -1      4164 6.57194E-01
 -1      4165 3.09804E+00
 -1      4166 3.90755E+00
 -1      4167 3.20411E+00
 -1      4168 2.52311E+00
 -1      4169 1.88952E-01
 -1      4170 1.63472E-01
 -1      4171 2.09473E+00
 -1      4172 4.16980E-01
 -1      4173 3.64769E-01
 -1      4174 1.69895E+00
 -1      4175 1.37847E+00
 -1      4176 1.08510E+00
 -1      4177 9.43196E-01
 -1      4178 9.20408E-01
 -1      4179 1.40559E+00
 -1      4180 3.03002E+00
 -1      4181 2.57207E+00
 -1      4182 3.04873E+00
 -1      4183 1.43084E-01
 -1      4184 1.23634E-01
 -1      4185 1.48006E-01
 -1      4186 3.21026E-01
 -1      4187 2.80143E-01
 -1      4188 3.42181E-01
 -1      4189 2.93170E+00
 -1      4190 2.42672E+00
 -1      4191 2.93093E+00
 -1      4192 1.51840E-01
 -1      4193 1.51840E-01
 -1      4194 8.95434E-02
 -1      4195 8.37630E-02
 -1      4196 8.48326E-02
 -1      4197 9.62905E-02
 -1      4198 9.64849E-02
 -1      4199 7.85750E-02
 -1      4200 8.40561E-02
 -1      4201 7.85127E-02
 -1      4202 9.57081E-02
 -1      4203 9.22586E-02
 -1      4204 8.99703E-02
 -1      4205 5.55755E-01
 -1      4206 4.86879E-01
 -1      4207 6.27160E-01
 -1      4208 1.07370E-01
 -1      4209 1.29743E+00
 -1      4210 1.44682E+00
 -1      4211 1.57714E+00
 -1      4212 1.44417E+00
 -1      4213 2.46909E-01
 -1      4214 2.14366E-01
 -1      4215 2.65204E-01
 -1      4216 2.10766E+00
 -1      4217 2.09482E+00
 -1      4218 1.63243E+00
 -1      4219 2.03469E+00
 -1      4220 1.04290E-01
 -1      4221 1.14859E-01
 -1      4222 2.36995E+00
 -1      4223 4.55822E-01
 -1      4224 9.49636E-02
 -1      4225 1.09154E-01
 -1      4226 9.98277E-02
 -1      4227 2.09473E+00
 -1      4228 8.98406E-02
 -1      4229 9.89300E-02
 -1      4230 1.02854E-01
 -1      4231 1.63658E+00
 -1      4232 1.55338E+00
 -1      4233 8.64782E-02
 -1      4234 9.08076E-02
 -1      4235 1.02408E-01
 -1      4236 1.07362E-01
 -1      4237 1.79132E-01
 -1      4238 1.61463E-01
 -1      4239 1.46583E-01
 -1      4240 1.23634E-01
 -1      4241 2.06556E-01
 -1      4242 1.44741E-01
 -1      4243 1.47285E-01
 -1      4244 1.39177E-01
 -1      4245 1.27592E-01
 -1      4246 1.44660E+00
 -1      4247 2.24664E+00
 -1      4248 1.69082E+00
 -1      4249 1.61176E+00
 -1      4250 1.61176E+00
 -1      4251 2.00987E+00
 -1      4252 9.80063E-02
 -1      4253 9.35949E-02
 -1      4254 9.10922E-02
 -1      4255 2.08044E+00
 -1      4256 1.68466E+00
 -1      4257 1.02192E-01
 -1      4258 1.18481E-01
 -1      4259 1.18481E-01
 -1      4260 1.07231E-01
 -1      4261 9.79043E-02
 -1      4262 1.02711E-01
 -1      4263 1.48387E-01
 -1      4264 1.72287E-01
 -1      4265 1.74297E-01
 -1      4266 1.95756E-01
 -1      4267 2.21170E-01
 -1      4268 2.57601E-01
 -1      4269 2.90834E-01
 -1      4270 3.41194E-01
 -1      4271 3.84937E-01
 -1      4272 4.55822E-01
 -1      4273 5.25721E-01
 -1      4274 6.27160E-01
 -1      4275 7.28600E-01
 -1      4276 8.75548E-01
 -1      4277 1.06736E+00
 -1      4278 1.27918E+00
 -1      4279 1.55826E+00
 -1      4280 1.89685E+00
 -1      4281 9.37309E-02
 -1      4282 2.32221E+00
 -1      4283 2.18038E+00
 -1      4284 1.18481E-01
 -1      4285 1.14859E-01
 -1      4286 2.12010E+00
 -1      4287 8.91934E-02
 -1      4288 8.64782E-02
 -1      4289 6.17306E-02
 -1      4290 7.00441E-02
 -1      4291 2.78035E+00
 -1      4292 2.20317E+00
 -1      4293 1.85930E+00
 -1      4294 2.47635E+00
 -1      4295 8.77339E-02
 -1      4296 8.88035E-02
 -1      4297 1.05093E-01
 -1      4298 9.04491E-02
 -1      4299 5.77474E-02
 -1      4300 1.18226E-01
 -1      4301 7.82934E-02
 -1      4302 8.21374E-02
 -1      4303 9.43717E-02
 -1      4304 1.16044E-01
 -1      4305 1.07936E-01
 -1      4306 1.46583E-01
 -1      4307 9.43717E-02
 -1      4308 9.35949E-02
 -1      4309 1.64783E+00
 -1      4310 1.80915E+00
 -1      4311 2.18615E+00
 -1      4312 1.40151E+00
 -1      4313 1.57255E+00
 -1      4314 1.07936E-01
 -1      4315 1.10819E-01
 -1      4316 1.17848E-01
 -1      4317 1.57255E+00
 -1      4318 4.78967E-02
 -1      4319 5.64277E-02
 -1      4320 1.06476E-01
 -1      4321 9.23478E-02
 -1      4322 7.22867E-02
 -1      4323 9.30878E-02
 -1      4324 1.79132E-01
 -1      4325 9.79964E-02
 -1      4326 1.49841E+00
 -1      4327 1.18226E-01
 -1      4328 7.69737E-02
 -1      4329 1.46583E-01
 -1      4330 1.77031E+00
 -1      4331 1.99679E+00
 -1      4332 1.18947E-01
 -1      4333 9.32371E-02
 -1      4334 1.77123E-01
 -1      4335 1.76239E+00
 -1      4336 1.69171E+00
 -3
 9999
